,case,Temp,Pressure,e11,e22,e33,e12,e23,e13,s11,s22,s33,s12,s23,s13
0,13.0,300.0,132.59093000000001,0.0,0.0,0.0,0.0,0.0,0.0,-0.02988764365568077,-0.004691113496926856,-0.005725576595720415,-0.003354744627487517,-0.01086510210055209,0.0065115065689106645
1,13.0,300.77778,75.487237,0.0,-5.014488738241951e-06,-5.002210186955125e-06,0.0,0.0,0.0,-0.02342225992734708,0.0006278530986667764,-0.00015182863738431984,0.0034483693420275566,-0.008827567708288101,0.003877049216159966
2,13.0,299.83116,23.684124,0.0,-9.995987419131325e-06,-1.0004420374132295e-05,0.0,0.0,0.0,0.006835577286818953,-0.009668259796382951,-0.004366699895184726,0.0027690422972831974,-0.003960264103147636,0.001164280397630529
3,13.0,298.53826000000004,90.387973,0.0,-1.501047615759532e-05,-1.5006630561198442e-05,0.0,0.0,0.0,0.0007173439959788403,-0.0072346619493805445,-0.02095836904342998,0.0033209755347797672,0.005545156573639344,-0.0032992867137392468
4,13.0,297.32279,206.50813,0.0,-1.9991974838484694e-05,-2.000884074826459e-05,0.0,0.0,0.0,-0.01219855443090359,-0.028352706542944268,-0.022222053024895876,-0.0006817075542642973,0.0024631835340222876,-0.0059614608137003745
5,13.0,297.92842,254.54873999999998,0.0,-2.5006463576837668e-05,-2.501105093544176e-05,0.0,0.0,0.0,-0.027744715952940275,-0.02960341687012977,-0.02002832602839188,-0.0012164411955533987,0.00911458589653959,-0.004855769779252166
6,13.0,299.41902000000005,281.19581,0.0,-2.9987962257949086e-05,-3.0013261122507906e-05,0.0,0.0,0.0,-0.038044161052666364,-0.02944517253576227,-0.017987173218695782,-0.002136267001883138,0.0036572165009641664,-0.004598730013759316
7,13.0,300.15006,298.27509,0.0,-3.500245099619104e-05,-3.5015471309685076e-05,0.0,0.0,0.0,-0.035139222665221265,-0.03777718788981816,-0.01775176887596318,-0.002110129202303538,-0.005730521053558395,-0.002054063845120318
8,13.0,300.20072999999996,347.20711,0.0,-3.998394967708041e-05,-3.9984772219114895e-05,0.0,0.0,0.0,-0.028723144700003672,-0.03263075181665447,-0.044188395161805054,-0.007761663256241522,-0.005098978680880015,-0.0003703352817767467
9,13.0,300.98819,358.97692,0.0,-4.499843841565543e-05,-4.498698240618104e-05,0.0,0.0,0.0,-0.02455674033556158,-0.03775386895201676,-0.04680940972547905,-0.003641806486818316,-0.001014122305686079,0.008236904404269173
10,13.0,300.92343999999997,226.08447999999999,0.0,-5.001292715389738e-05,-4.998919259335821e-05,0.0,0.0,0.0,-0.02149139128503518,-0.023224870701866275,-0.024007774603632875,-0.0015974532253563583,-0.0005014070247675204,0.004529111220588475
11,13.0,300.5758,237.57326,0.0,-5.499442583478675e-05,-5.4991402780313337e-05,0.0,0.0,0.0,-0.03556834928132276,-0.018968569775302084,-0.017679420792322983,0.0035137426172793967,-0.00015220942690440087,0.01071724661945989
12,13.0,299.9021,362.92733,0.0,-6.000891457325075e-05,-5.9993612967490506e-05,0.0,0.0,0.0,-0.053376774036627446,-0.03257150505680727,-0.024372565917884975,0.0015575779835709787,-0.005871953947566734,0.0036410561751192665
13,13.0,299.33504,477.1975,0.0,-6.499041325414012e-05,-6.499582315466768e-05,0.0,0.0,0.0,-0.05528766847971804,-0.04747713647512855,-0.04229131841032816,0.0072819445560219735,-0.003927960271409496,0.0036581562904319164
14,13.0,299.51662000000005,482.3998,0.0,-7.00049019924931e-05,-6.99980333416228e-05,0.0,0.0,0.0,-0.03494414972946907,-0.05409164123392935,-0.057601703726845546,0.0027758368484787676,-0.004475972433669086,9.365996753751912e-05
15,13.0,299.8436,407.42795,0.0,-7.498640067338247e-05,-7.500024352857793e-05,0.0,0.0,0.0,-0.026377143438721374,-0.04986184794323125,-0.04760893092888566,0.005658847490509765,-0.000979725757853904,-0.00016592449654797284
16,13.0,299.577,312.49876,0.0,-8.000088941184647e-05,-8.000245371564407e-05,0.0,0.0,0.0,-0.03434583770442026,-0.02903531793656277,-0.03161066430497967,-0.003532433433924036,0.002333382244536898,0.006023921298889744
17,13.0,300.0996,322.58002999999997,0.0,-8.501537815019944e-05,-8.500466390282124e-05,0.0,0.0,0.0,-0.04896394218161486,-0.02724306089468077,-0.021849272233605277,-0.0036963236991737463,0.008992597575925281,0.007267839709329932
18,13.0,300.14834,279.04284,0.0,-8.999687683108881e-05,-9.000687408988739e-05,0.0,0.0,0.0,-0.04124362388642876,-0.02182196919641068,-0.02175646257744568,-0.0035484043833252463,0.007124706885628823,0.008895972019889082
19,13.0,299.42512,203.75263999999999,0.0,-9.501136556955281e-05,-9.500908427695354e-05,0.0,0.0,0.0,-0.02116299996737548,-0.015505825048805787,-0.025266889840397877,-0.0037217181784799866,0.0006800080906665735,0.00989732342263977
20,13.0,299.05147,276.88219,0.0,-9.999286425044218e-05,-0.0001000112944641307,0.0,0.0,0.0,-0.00944453883525341,-0.03411946445982896,-0.04060126993253336,-0.0007668948136316251,-0.006301478770957535,0.0017754015251434882
21,13.0,299.51166,382.1046,0.0,-0.00010500735298879516,-0.00010501350465108583,0.0,0.0,0.0,-0.03012470668882707,-0.03600062203898476,-0.05002492852032605,-0.003444348157680697,-0.0013590466225774586,0.0037527045824381064
22,13.0,299.97924,445.37544,0.0,-0.00010998885166979555,-0.00010998280556062667,0.0,0.0,0.0,-0.04904957802706646,-0.044892304059275454,-0.04144113064892116,-0.0023193554181025577,0.003085167310557307,-0.002098398096620768
23,13.0,300.44315,401.38495,0.0,-0.00011500334040814852,-0.00011498501574780384,0.0,0.0,0.0,-0.05188738150263586,-0.04224420532042846,-0.02787941640798418,-0.006273121649683904,0.0015088177543087185,-0.005222806962350915
24,13.0,301.25513,330.84938999999997,0.0,-0.0001199848390890379,-0.00011998722593475897,0.0,0.0,0.0,-0.04543427329926366,-0.029337695071155072,-0.025797983867062772,-0.00019138204054043682,0.002773045749753307,-0.0007835693740347763
25,13.0,300.69093,268.84454,0.0,-0.0001249993278275019,-0.00012498943612193614,0.0,0.0,0.0,-0.026439927454667677,-0.029166883395797268,-0.026115217274621273,-8.364054423542901e-05,0.0016395838605393282,-0.0016631931958193886
26,13.0,300.14251,246.40717,0.0,-0.00013001381656585487,-0.0001299916463091133,0.0,0.0,0.0,-0.008756198424244502,-0.02688714970430507,-0.03925827987899057,0.0067519229532629135,-0.003803306900382166,0.0005554317773093485
27,13.0,299.77945,265.13572999999997,0.0,-0.00013499531524674424,-0.00013499385649606843,0.0,0.0,0.0,-0.01917972501664148,-0.026080144635659875,-0.03533477081527037,0.0002155111021942898,-0.009044315178254412,0.004069900297092886
28,13.0,299.40721,281.79566,0.0,-0.00014000980398520824,-0.0001399960666832456,0.0,0.0,0.0,-0.03700680167978696,-0.024352503565904977,-0.024299539969927876,0.0013125436105629687,-0.003178294620623257,0.007838833599757643
29,13.0,299.3526,313.70699,0.0,-0.0001449913026660976,-0.00014499827687020073,0.0,0.0,0.0,-0.051940860842913855,-0.017648970600317785,-0.025769258226727775,-0.000982261932986705,0.007992966266544351,0.007857805188004992
30,13.0,299.50256,390.83071,0.0,-0.00015000579140445058,-0.00015000048705726687,0.0,0.0,0.0,-0.04917732555992416,-0.03414439953153987,-0.03548105373220736,-0.002770757729702497,0.011941597245293888,0.003249785798653887
31,13.0,299.75156,450.37455,0.0,-0.00015498729008533996,-0.00015500269724444404,0.0,0.0,0.0,-0.03964390766829906,-0.043539122736226864,-0.05371958795621055,-0.0023662974713853776,0.0019843862834436777,0.0015740802813246286
32,13.0,300.43956000000003,427.38715,0.0,-0.00016000177882380395,-0.00016000490743139917,0.0,0.0,0.0,-0.026117871989883273,-0.04078395081956256,-0.06301319792016843,-0.00035052692119931365,-0.004208734204594725,-0.0014282353924058586
33,13.0,300.82059,319.47112999999996,0.0,-0.00016498327750469333,-0.00016500711761857634,0.0,0.0,0.0,-0.027324852469252973,-0.03178737816216997,-0.037999017720961065,0.0038253739676850167,-0.00840331715564283,-0.0026978336133804477
34,13.0,300.24334,230.89336,0.0,-0.0001699977662430463,-0.00017000932780553146,0.0,0.0,0.0,-0.032134686859196675,-0.016762066708287185,-0.02128906246531688,0.004201559887261675,-0.005635080898814184,0.0007243111441964444
35,13.0,299.96992,272.27746,0.0,-0.0001750122549815103,-0.00017501153799270863,0.0,0.0,0.0,-0.04304571046753086,-0.023766818663602376,-0.015953021967190683,0.003606987768331976,-0.002449336964780738,-0.0005744895728752064
36,13.0,299.85886,312.73166000000003,0.0,-0.00017999375366239967,-0.00017998083890224947,0.0,0.0,0.0,-0.034568202531615966,-0.034577948984327866,-0.025916465227755973,0.0001788186714905288,0.0018423097729718184,0.0006141453041589223
37,13.0,300.18599,262.77796,0.0,-0.00018500824240086367,-0.0001849830490892046,0.0,0.0,0.0,-0.021537583330593982,-0.02029058251202458,-0.038049773444970264,0.002296199816217278,0.007800232215997982,-0.002189569732668708
38,13.0,300.19021000000004,292.21712,0.0,-0.00018998974108175304,-0.00018998525927638177,0.0,0.0,0.0,-0.00921713531796043,-0.03599911634933617,-0.04361045554326686,5.4936833672343355e-05,0.002917359820420997,0.00020441703698189078
39,13.0,299.86215,342.54367,0.0,-0.000195004229820106,-0.00019498746946355894,0.0,0.0,0.0,-0.03203473581633227,-0.03379725498102937,-0.038292733593698565,8.86457758011569e-05,-0.005209885591775675,-0.002258864083157528
40,13.0,300.01022,414.34567999999996,0.0,-0.00019998572850099539,-0.00019998967965051406,0.0,0.0,0.0,-0.05022098126892495,-0.038279030399346166,-0.037450727826849065,-0.005435673279134184,-0.005608192686210525,-0.00025894687443356676
41,13.0,300.1006,399.38152,0.0,-0.00020500021723945938,-0.00020499188983769123,0.0,0.0,0.0,-0.059778100093639146,-0.03467124804028576,-0.02695266138952058,-0.0008240194022043832,0.002052682379933978,0.00028225036017094174
42,13.0,299.73021,302.5153,0.0,-0.00021001470597781235,-0.00020999410002464636,0.0,0.0,0.0,-0.034484149382820566,-0.02332739742648488,-0.03414555159690357,-0.007110396045191453,0.0007146630476717515,-0.005820099252499074
43,13.0,299.63674,282.21213,0.0,-0.00021499620465870173,-0.00021499631021182353,0.0,0.0,0.0,-0.015832166561513185,-0.03223081085643337,-0.03772246326516726,-0.002872179505087047,0.0014431054455734187,-0.008614100331545511
44,13.0,300.05984,322.82372000000004,0.0,-0.00022001069339716572,-0.00021999852039888967,0.0,0.0,0.0,-0.017013253434577384,-0.03036101789039917,-0.05075607965998505,-0.0022839773855610175,0.0004528046092083356,-0.0032609842387590873
45,13.0,299.65907999999996,311.92605,0.0,-0.0002249921920780551,-0.00022500073058606684,0.0,0.0,0.0,-0.03560976486591017,-0.026000606529310077,-0.03320735799806107,0.005894309081873015,0.0025212141910994673,0.005539739434629714
46,13.0,299.82077999999996,287.03791,0.0,-0.00023000668081640807,-0.00023000294077302197,0.0,0.0,0.0,-0.04175924051781616,-0.02091341113649298,-0.024579703622577876,0.003679973895560147,0.0003361394993193857,0.005351021502179705
47,13.0,300.20574,324.41337999999996,0.0,-0.00023498817949729744,-0.0002350051509599771,0.0,0.0,0.0,-0.04968539651781685,-0.02247316477067868,-0.026455004616155676,0.0023549499821904677,-0.006649515184206054,0.009845534487503601
48,13.0,300.42033,403.14857,0.0,-0.00024000266823576144,-0.00024000736114715426,0.0,0.0,0.0,-0.03489744497935967,-0.040372653352220664,-0.04727700032862665,-0.002869918133513867,0.0004211957353162826,0.0018355578796054582
49,13.0,300.75887,465.10490999999996,0.0,-0.0002449841669166508,-0.00024500957133433143,0.0,0.0,0.0,-0.03565459206358426,-0.04611133613533455,-0.059614351784728445,-0.0017078403389507184,0.007019339007729822,0.0004037613791931456
50,13.0,300.41469,426.25627000000003,0.0,-0.0002499986556551148,-0.00024997887224365023,0.0,0.0,0.0,-0.032039089752011966,-0.038820399795275164,-0.05871177190040074,-0.00022027727867717477,0.004543037431287885,0.0015199231780547383
51,13.0,299.73616,368.04253,0.0,-0.0002550131443934678,-0.0002549810824308274,0.0,0.0,0.0,-0.04098774378567536,-0.037519655178151666,-0.03336833912094867,-0.0019813343741424782,-0.00015596157308470885,-0.003265344861889447
52,13.0,299.72864,347.80328,0.0,-0.00025999464307435716,-0.00025998329261800457,0.0,0.0,0.0,-0.04382291281098476,-0.031843830378241365,-0.030056769282872174,-0.0018314300000230683,-0.004358947417344616,-0.0026312131285805176
53,13.0,299.64342999999997,329.70255,0.0,-0.00026500913181282115,-0.0002649855028049597,0.0,0.0,0.0,-0.04488903835420316,-0.032881522097153566,-0.022450783089219776,0.005441618726745955,0.00043756304789161057,-0.005381963424458435
54,13.0,299.8536,326.06904,0.0,-0.0002699906304937105,-0.00026998771299213686,0.0,0.0,0.0,-0.02075203180631608,-0.03460350517835007,-0.04376130720490475,-0.002139094982912238,0.0017805814623047082,-0.006901319891732244
55,13.0,299.92387,279.45777999999996,0.0,-0.0002750051192320635,-0.000274989923179092,0.0,0.0,0.0,-0.016408915611183884,-0.025548007974642076,-0.04299126246015726,-0.0023288866564932175,-0.003663668776275957,-0.007894301544681903
56,13.0,299.98476,280.80982,0.0,-0.0002799866179129529,-0.00027999213336626916,0.0,0.0,0.0,-0.014429845648364885,-0.03476064203035826,-0.03616868679332147,-0.003020790972078857,0.003601942694759066,-0.0014170010832471186
57,13.0,299.92912,355.07957999999996,0.0,-0.00028500110665141687,-0.00028499434355344633,0.0,0.0,0.0,-0.04165656788518316,-0.03587476928381407,-0.030403987800639975,-0.001092866327932509,0.009290610439686861,-0.003640558162695117
58,13.0,299.86827,413.86415,0.0,-0.00028998260533230624,-0.0002899965537405125,0.0,0.0,0.0,-0.054750036963407946,-0.03884198708865567,-0.032212343360110765,-0.0024954578801825176,0.0009228419479024092,0.001059611257000489
59,13.0,299.90848,425.78107,0.0,-0.0002949970940705482,-0.00029499876392768964,0.0,0.0,0.0,-0.05299328116527965,-0.03963714625038176,-0.03679638712427067,-0.0033687226152670367,-0.0059952806702381345,-0.0004259949336199266
60,13.0,300.40047999999996,431.3794,0.0,-0.0003000115828091232,-0.00030000097411464477,0.0,0.0,0.0,-0.033920541173696764,-0.037194334008294964,-0.06001369188764025,0.0018225351840202182,-0.005328601925167064,-0.002495798534866138
61,13.0,299.89872,362.4969,0.0,-0.0003049930814900126,-0.00030500318430182194,0.0,0.0,0.0,-0.026036252667828073,-0.034858627368028666,-0.04929512500330005,0.0030759065086183373,0.002795614578505677,-0.0002361607845947548
62,13.0,299.92792000000003,342.78855,0.0,-0.00031000757022825454,-0.00031000539448877706,0.0,0.0,0.0,-0.029681234477809768,-0.02807455925799327,-0.046443367047353454,-0.000950893341223366,0.005617455311999676,-0.0005477469845759185
63,13.0,299.834,380.25513,0.0,-0.00031498906890936595,-0.0003150076046757322,0.0,0.0,0.0,-0.05654921754322324,-0.023948509605283875,-0.035090338414146764,-0.005188343793324664,0.00100135739105878,0.004798486698098766
64,13.0,299.7325,358.12459,0.0,-0.00032000355764771893,-0.00032000981486290936,0.0,0.0,0.0,-0.05258111230285174,-0.03277452693959397,-0.023505293746541877,0.0026938735280146175,0.0016998365750858085,-0.00038730042204357563
65,13.0,299.85459,358.55609,0.0,-0.0003249850563286083,-0.0003249791157724502,0.0,0.0,0.0,-0.04357663325492886,-0.033597936527358166,-0.03181752944539567,0.001214409223802859,-0.002146786361771318,0.000936304231911033
66,13.0,299.62485,394.41553,0.0,-0.0003299995450670723,-0.0003299813259594053,0.0,0.0,0.0,-0.01969266160151438,-0.04770845134045755,-0.052491358608993746,0.0008212291444765062,-0.009324620179293362,-0.006581879017505884
67,13.0,299.8937,419.94477,0.0,-0.00033501403380531425,-0.0003349835361465825,0.0,0.0,0.0,-0.031740849717577964,-0.04273542187615776,-0.05317645246535725,0.0009652848059711931,-0.008999696608775903,0.0014180844502540387
68,13.0,299.96066,447.98054,0.0,-0.00033999553248631464,-0.00033998574633364864,0.0,0.0,0.0,-0.03422199625069807,-0.04481631435477586,-0.05713658849369224,0.004420538128648146,0.001187810091452729,0.0018208718326560582
69,13.0,299.68031,382.31812,0.0,-0.00034501002122477864,-0.0003449879565208258,0.0,0.0,0.0,-0.04980672916429145,-0.036778105052716364,-0.02963032676628557,0.003232981451045427,0.00893887404237318,-9.937794860783991e-05
70,13.0,300.2866,373.43045,0.0,-0.000349991519905668,-0.00034999016670789196,0.0,0.0,0.0,-0.04386186113157866,-0.03808105247555726,-0.03157061964777757,-0.003038534501205007,0.0025860848943017076,-0.001011811730688043
71,13.0,300.25433,357.38687000000004,0.0,-0.00035500600864390996,-0.0003549923768949581,0.0,0.0,0.0,-0.03838621300817426,-0.03418702392349657,-0.03606344658493507,-0.004079768339816786,-0.008055816245072163,-0.002896052184068097
72,13.0,299.85127,344.58907,0.0,-0.00035998750732479934,-0.0003599945870821353,0.0,0.0,0.0,-0.019784719426099783,-0.035746386443143666,-0.049215366008428456,9.424061861332492e-05,-0.008999740685155251,-0.0050247876979579355
73,13.0,299.93989,374.75525,0.0,-0.00036500199606337436,-0.0003649967972690904,0.0,0.0,0.0,-0.027832354993839573,-0.03489765472213036,-0.05118622864543745,0.0024637719283553574,-0.002873537260221047,-0.00026025867867553176
74,13.0,299.89247,347.68322,0.0,-0.00036998349474426373,-0.00036999900745626757,0.0,0.0,0.0,-0.02404231325979158,-0.04180311424714616,-0.039841590736308864,-0.002011604207629878,-0.0004029685819174026,-0.004893850757760465
75,13.0,300.01115,375.54315,0.0,-0.0003749979834825057,-0.0003750012176432227,0.0,0.0,0.0,-0.048637646265161955,-0.03871948616481576,-0.026798606844316578,-0.006624654687702514,0.0037010596301411463,0.0008004120731595212
76,13.0,300.17027,472.01446,0.0,-0.0003800124722210807,-0.00038000342783039986,0.0,0.0,0.0,-0.056647192748392645,-0.04461971039812255,-0.04221370649241846,-0.0006751497388220914,0.006851067145072683,0.00046008536846439056
77,13.0,299.71634,478.944,0.0,-0.00038499397090197007,-0.000385005638017355,0.0,0.0,0.0,-0.04876590244956986,-0.04762509834748125,-0.049196015971268756,0.004004148674253706,0.006763257270206524,0.004835111636213365
78,13.0,299.78283999999996,460.71675999999997,0.0,-0.000390008459640212,-0.00039000784820442114,0.0,0.0,0.0,-0.03292576160976967,-0.041753154937715566,-0.06536747338176734,0.003676615275453676,-0.006782925873197664,0.0007283846730434702
79,13.0,300.35794,464.93387,0.0,-0.00039498995832132344,-0.000394977149114073,0.0,0.0,0.0,-0.04100771494514636,-0.04341895532736726,-0.056901616808752345,0.003083078191501127,-0.008059799432540272,0.01039143706305499
80,13.0,300.31448,417.91672,0.0,-0.0004000044470595654,-0.0003999793593010281,0.0,0.0,0.0,-0.04337132041366605,-0.03622963277358636,-0.047435293298998954,-0.0017680179716647885,-0.004028748664156536,0.008316614560485951
81,13.0,300.32648,436.89867999999996,0.0,-0.00040498594574045477,-0.0004049815694880943,0.0,0.0,0.0,-0.06326752166876824,-0.033284162355641064,-0.036254606348801066,-1.6413744761160485e-05,0.0037479740216962362,0.013619136137354089
82,13.0,299.9525,459.33685,0.0,-0.0004100004344790298,-0.00040998377967527144,0.0,0.0,0.0,-0.05221838700555355,-0.050093967329139656,-0.037314578424162165,-0.005147659775309465,0.002024475321000158,-0.0018948003838022381
83,13.0,300.14575,426.98220999999995,0.0,-0.00041498193315991916,-0.0004149859898624486,0.0,0.0,0.0,-0.03865166832237267,-0.04569469883996566,-0.04544556293187786,-0.003144378809301027,0.0019670448119572083,-0.002025011938253118
84,13.0,300.18489,411.7892,0.0,-0.0004199964218981611,-0.00041998820004940374,0.0,0.0,0.0,-0.024788561825940577,-0.04784375467931096,-0.052541316905174246,0.0015170987434009885,-0.0013476257740753087,-0.008131735022064763
85,13.0,300.0147,412.93838,0.0,-0.00042501091063673613,-0.0004249904102365809,0.0,0.0,0.0,-0.03038820947008277,-0.046978365126653654,-0.048156380838664754,0.001958871126050528,-0.001338241659599169,-0.006062399775412275
86,13.0,299.69825,416.4288,0.0,-0.0004299924093176255,-0.00042999262042353603,0.0,0.0,0.0,-0.037798921091213064,-0.04674157567103436,-0.04204345919736636,0.0016233153195837485,-0.0066600527825960345,-0.004671982017813725
87,13.0,300.07851,442.71577,0.0,-0.00043500689805586745,-0.0004349948306107132,0.0,0.0,0.0,-0.049823360651432856,-0.05024289584208775,-0.03450828196045227,-0.003160161902133697,0.0004821641996009016,0.00011179951330625291
88,13.0,299.97127,414.21347000000003,0.0,-0.0004399883967367568,-0.00043999704079789037,0.0,0.0,0.0,-0.04292101585722446,-0.046331305639293864,-0.036658231486385764,-0.0035184563580696066,0.01070447257544919,-0.0019081573505954682
89,13.0,299.68914,397.97623,0.0,-0.0004450028854752208,-0.0004449992509848455,0.0,0.0,0.0,-0.02914082361647537,-0.04395233018000725,-0.04788168164380405,-0.0026735379024826478,0.007937436310713973,0.003349700567164707
90,13.0,299.93269,442.57971,0.0,-0.0004499843841562212,-0.00045000146117202267,0.0,0.0,0.0,-0.03038648795816287,-0.052859405495817156,-0.051287288183911255,-0.003346189959543237,-0.0008238968698697903,0.00019669835103261585
91,13.0,299.99669,508.99784000000005,0.0,-0.00045499887289446317,-0.0004550036713589778,0.0,0.0,0.0,-0.045907935297010455,-0.055375700661656146,-0.053438997725268444,-0.0008333971838673982,-0.007690288703297404,0.0014301791100726888
92,13.0,300.15987,495.32795,0.0,-0.00046001336163292716,-0.00046000588154604394,0.0,0.0,0.0,-0.05495447739633465,-0.049693383968355154,-0.04591946608314845,0.004957157002808305,-0.006174488338574554,-0.0005639250422975685
93,13.0,300.3748,463.27307,0.0,-0.00046499486031381654,-0.0004649751824556958,0.0,0.0,0.0,-0.06417079664266453,-0.04457368249907996,-0.032078964183197264,0.001407692050603389,-0.0023259973738330676,0.0017894675643566982
94,13.0,300.28095,435.49125999999995,0.0,-0.0004700093490521695,-0.0004699773926426509,0.0,0.0,0.0,-0.04665582532832146,-0.04293403105475896,-0.04278861142690716,0.002031419427910488,-0.0008128490797894582,-0.002588304722620788
95,13.0,300.1161,461.12784000000005,0.0,-0.00047499084773328093,-0.0004749796028298281,0.0,0.0,0.0,-0.03738507935287007,-0.050340625840732955,-0.052445644817482144,-0.005520017129383275,0.005189747955313245,-0.0013797720454228985
96,13.0,300.19664,459.23055999999997,0.0,-0.0004800053364717449,-0.00047998181301689424,0.0,0.0,0.0,-0.028946571413304176,-0.046613154326860154,-0.06403489649950224,-0.00013181936957705888,0.005069656236236115,0.0001348020434989259
97,13.0,299.92355,431.21603,0.0,-0.00048498683515241225,-0.00048498402320384937,0.0,0.0,0.0,-0.03912504762334156,-0.041447183805018564,-0.050506675240620746,-0.002137426261322548,0.0015572559726891987,0.008821093141474112
98,13.0,299.85562000000004,428.34596,0.0,-0.0004900013238908763,-0.0004899862333910265,0.0,0.0,0.0,-0.04405154155029866,-0.04692010831215416,-0.03923482719217596,-0.0009597339888758701,-0.005869807275904875,0.005188023403643045
99,13.0,300.04479,460.54447000000005,0.0,-0.0004949828225718766,-0.0004949884435779817,0.0,0.0,0.0,-0.05784385834174435,-0.04635780922215955,-0.035792350507429974,-0.004207802723777796,-0.006567256197362724,0.004843691331435115
100,13.0,299.67236,512.05533,0.0,-0.0004999973113101186,-0.0004999906537651588,0.0,0.0,0.0,-0.046088008078282255,-0.057003129270020846,-0.05256089897660686,0.001947953052247998,0.003357117760546727,-0.00035755188546762365
101,13.0,299.86893,516.0183599999999,0.0,-0.0005050118000485826,-0.000504992863952336,0.0,0.0,0.0,-0.041589573815071355,-0.059538119913454944,-0.05572900171977425,-0.004210410829535196,0.004975461365864805,-0.006693508274397833
102,13.0,299.98802,432.08789,0.0,-0.000509993298729472,-0.0005099950741392911,0.0,0.0,0.0,-0.026538095177356075,-0.05044365615065125,-0.05436217698412915,0.0008686283356744423,0.004670852953227295,-0.007431403809372453
103,13.0,300.16586,417.91202999999996,0.0,-0.0005150077874678249,-0.0005149972843264683,0.0,0.0,0.0,-0.03596973614943657,-0.048486423753987457,-0.04257866093993666,-0.0036139614621452268,-0.0010830553311892389,-0.014103926660949187
104,13.0,300.10957,448.12525999999997,0.0,-0.0005199892861487143,-0.0005199994945134234,0.0,0.0,0.0,-0.046512287305905356,-0.051525810297201546,-0.038180790735900666,0.005693170831022215,-0.004305813190050675,-0.004465839628694056
105,13.0,299.9222,393.41962,0.0,-0.0005250037748871783,-0.0005250017047006006,0.0,0.0,0.0,-0.05051451273014425,-0.03968566573142026,-0.029389563343774072,0.0033019462926017263,-0.008864038733712512,-0.004724110189083376
106,13.0,300.10503,400.7621,0.0,-0.0005299852735680677,-0.0005300039148876667,0.0,0.0,0.0,-0.029748144448163268,-0.050454684364739655,-0.041618842557459956,0.0015473186236584584,-0.007951574999959353,0.00030004112701675375
107,13.0,300.30179,451.89914000000005,0.0,-0.0005349997623064207,-0.0005350061250748439,0.0,0.0,0.0,-0.03189459927450187,-0.05125134718961415,-0.05422010716110795,0.00045464781246524555,-0.002210212879606028,-0.0012297939066962089
108,13.0,300.08689,520.39641,0.0,-0.0005399812609875321,-0.0005399754259842737,0.0,0.0,0.0,-0.03164670763753687,-0.055425686315589355,-0.07111512241501614,-0.0032628648309446866,0.00990388675016252,0.0050630035400545444
109,13.0,299.92471,573.54176,0.0,-0.0005449957497259961,-0.0005449776361714509,0.0,0.0,0.0,-0.05927220053071074,-0.05632381093922735,-0.05874636121906444,0.0003607602405842636,0.01103417909173869,0.003264061276662767
110,13.0,300.11433999999997,563.82561,0.0,-0.000550010238464238,-0.000549979846358517,0.0,0.0,0.0,-0.06843975103647754,-0.04917069789102005,-0.05377845778702054,-0.00028881251232357576,0.0032020843144211168,0.006485923219785784
111,13.0,299.99441,483.29205,0.0,-0.0005549917371451274,-0.0005549820565454722,0.0,0.0,0.0,-0.06751814130202173,-0.04422929297559136,-0.03516128111989826,-0.003318043796940427,-0.0032826959592518667,0.0015649571800742485
112,13.0,299.85753,487.70584,0.0,-0.0005600062258837024,-0.0005599842667324273,0.0,0.0,0.0,-0.04159113320697526,-0.053572886566982246,-0.05308637858446765,0.0023304669213491777,-0.006260552484843425,-0.00011897073009399688
113,13.0,299.8783,493.16237,0.0,-0.0005649877245643697,-0.0005649864769196045,0.0,0.0,0.0,-0.04263655298440016,-0.04833728245851836,-0.05893520975945235,-0.0017292214359358683,-0.003662699298580277,-0.0016323531051757082
114,13.0,300.05062999999996,483.80287999999996,0.0,-0.0005700022133028337,-0.0005699886871067816,0.0,0.0,0.0,-0.03485054669848117,-0.051681410048808045,-0.06053203720154695,0.0028132397600201474,0.00018005282024482984,-0.0028277297430751975
115,13.0,300.22668999999996,430.53028,0.0,-0.0005749837119837231,-0.0005749908972937368,0.0,0.0,0.0,-0.04567457265322936,-0.04211957251837817,-0.04307630960730076,0.0015685081150496986,-0.00039645055680662355,-0.004589851713733096
116,13.0,300.17802,440.48733,0.0,-0.0005799982007220761,-0.0005799931074809139,0.0,0.0,0.0,-0.050248335981874656,-0.046632149726484856,-0.03701666364301027,-0.002208708811157588,0.005728794374062984,-0.0003024378789357947
117,13.0,300.09659,517.0847,0.0,-0.0005850126894605401,-0.000584995317667869,0.0,0.0,0.0,-0.057350408582794644,-0.05572541076141985,-0.04410501886407646,0.00044493839404450056,0.0005295403292265615,-0.0027618318069215775
118,13.0,300.14974,558.8301,0.0,-0.0005899941881414295,-0.0005899975278550462,0.0,0.0,0.0,-0.04849315274790155,-0.05852487994595594,-0.06285236371854534,0.0007300010298679923,-0.003994609937812306,0.001262456023669709
119,13.0,300.19085,552.37878,0.0,-0.0005950086768797824,-0.0005949997380422234,0.0,0.0,0.0,-0.039481179702239064,-0.06491778893438695,-0.06351038555873703,0.0009530033230991051,-0.0059470748914305935,-0.006265976108653693
120,13.0,300.06416,457.27918,0.0,-0.0005999901755606718,-0.0006000019482292895,0.0,0.0,0.0,-0.029072132352446076,-0.051975342757066945,-0.05795397836261235,-0.0017615637711778083,-0.0008654510164083651,-0.000945304030756744
121,13.0,299.93748,407.04095,0.0,-0.0006050046642991358,-0.0006050041584164667,0.0,0.0,0.0,-0.03870953706208386,-0.04834890139741505,-0.03667184754122956,-0.0010158534434819289,0.008060375161247094,-0.007488893086921203
122,13.0,299.76562,440.83074000000005,0.0,-0.0006099861629802472,-0.0006099734593258965,0.0,0.0,0.0,-0.051876246897286954,-0.045701039759091455,-0.03642425177329377,-0.007293028498865874,0.0049040845837704655,-0.005912990779266754
123,13.0,300.1389,501.30996,0.0,-0.0006150006517184892,-0.0006149756695129627,0.0,0.0,0.0,-0.05689412281101274,-0.050139649709898156,-0.04535193862263786,0.001162796898159119,0.003938883208812506,-0.005405215487753235
124,13.0,300.06515,455.54512,0.0,-0.0006199821503993785,-0.0006199778797001398,0.0,0.0,0.0,-0.035792000936145464,-0.047998462770829455,-0.05468387882462865,-0.0027312057146990174,0.001198286388211659,-0.006036107455192425
125,13.0,299.76407,449.21647,0.0,-0.0006249966391379536,-0.000624980089887095,0.0,0.0,0.0,-0.03171399149717727,-0.04506449780776966,-0.05977209962654695,0.0058199785744121645,-0.000892826004492566,0.0026169775726255775
126,13.0,299.96779,539.7916799999999,0.0,-0.0006300111278761955,-0.0006299823000742721,0.0,0.0,0.0,-0.04130846378682796,-0.052704748066803656,-0.07006998026811864,-0.0042281702666879155,-0.0027050603157436673,-0.0005062557710010545
127,13.0,299.9717,617.49679,0.0,-0.0006349926265570849,-0.0006349845102612273,0.0,0.0,0.0,-0.07348945313584433,-0.05161854193310345,-0.06259560918295565,-0.0011971264194971787,-0.005022303614012776,0.010682691751299591
128,13.0,299.8475,590.0333099999999,0.0,-0.0006400071152955489,-0.0006399867204481824,0.0,0.0,0.0,-0.06985021341417934,-0.054549101362577145,-0.05495607833149265,-0.0023704258575928177,0.003170588752287747,-0.003719127500624307
129,13.0,300.26601,505.04935,0.0,-0.0006449886139763272,-0.0006449889306353596,0.0,0.0,0.0,-0.05476630976001395,-0.05300150571634135,-0.04575457584137505,-0.007050894655594123,0.0036192131374135268,0.006896364997418233
130,13.0,300.01847000000004,442.63535999999993,0.0,-0.0006500031027147912,-0.0006499911408224257,0.0,0.0,0.0,-0.03246472977451936,-0.047661393979313356,-0.05442397308122795,0.001091843755931589,-0.0025658435010290376,-0.003167921574049517
131,13.0,300.01865,495.48382999999995,0.0,-0.0006549846013956806,-0.0006549933510096029,0.0,0.0,0.0,-0.038460685877274164,-0.049121397194154454,-0.06303262901733614,-0.003745910031242536,-0.006659641301730424,0.0006488019228942643
132,13.0,300.00867999999997,549.24451,0.0,-0.0006599990901340336,-0.000659995561196669,0.0,0.0,0.0,-0.04469396339195076,-0.05625632138981665,-0.06600633263606785,0.007841211596417331,0.001041498398212889,-0.003488038083442557
133,13.0,299.93757,477.10917,0.0,-0.000664980588814923,-0.0006649977713837352,0.0,0.0,0.0,-0.05301226541915325,-0.04600270559211355,-0.046014304266008256,0.0028158233451251275,-0.0014393357499013785,-0.002840737037258917
134,13.0,299.96808,427.75457,0.0,-0.0006699950775533869,-0.0006699999815709123,0.0,0.0,0.0,-0.04234310866268946,-0.047592488919512954,-0.04009111066618456,-0.005083105408788445,0.004141166229626286,-0.008410787848630133
135,13.0,299.92965,533.90945,0.0,-0.0006750095662917399,-0.0006750021917578675,0.0,0.0,0.0,-0.05301080735225936,-0.05901986781855744,-0.05026446489696645,-0.004694679225353766,0.001988132471713398,-0.01014164254240219
136,13.0,300.03029,593.70732,0.0,-0.0006799910649727403,-0.0006799714926674083,0.0,0.0,0.0,-0.048913480300134655,-0.057345113337772036,-0.07421360879681292,0.0009964462691490902,0.005556409830574954,-0.0025155534667657977
137,13.0,300.25039,563.27235,0.0,-0.0006850055537110933,-0.0006849737028545855,0.0,0.0,0.0,-0.04315374724619325,-0.06067105410201685,-0.06739592915446034,0.008327803273390192,0.00037020798716668363,-0.0036144112438646165
138,13.0,300.10572,473.0988,0.0,-0.0006899870523922047,-0.0006899759130415406,0.0,0.0,0.0,-0.03514258969530357,-0.050118018846763354,-0.058549612367646844,9.464541000177472e-05,-0.00891461217402872,0.0006587399406700702
139,13.0,300.05304,490.72002000000003,0.0,-0.0006950015411304467,-0.0006949781232287178,0.0,0.0,0.0,-0.05660573258080086,-0.04941704736133286,-0.04314385488546696,0.0023439987751096678,-0.006608908173198454,-0.002111651103953738
140,13.0,300.17489,588.58218,0.0,-0.000699983039811336,-0.0006999803334158949,0.0,0.0,0.0,-0.06578060483179024,-0.057418594235024045,-0.055715086756150944,0.0005466994562250354,0.002358271416018268,-0.004040323627998896
141,13.0,299.9827,566.03698,0.0,-0.0007049975285498,-0.0007049825436028501,0.0,0.0,0.0,-0.05801283704767124,-0.05423844192166745,-0.059809827994020445,0.0026209435348419877,0.008746595346421752,-0.0057206141020306545
142,13.0,299.89884,485.7361,0.0,-0.000710012017288153,-0.0007099847537898052,0.0,0.0,0.0,-0.031992818672945365,-0.054624572283025544,-0.06103425360036185,-0.006584779851217175,0.0024491432313616173,-0.007710947960911312
143,13.0,299.97667,467.14189000000005,0.0,-0.0007149935159690424,-0.0007149869639768713,0.0,0.0,0.0,-0.040478565345423365,-0.04057857110379316,-0.06094233256453995,-0.006297246931914884,-0.004769649802902785,-0.001956318141098568
144,13.0,300.01054,546.15755,0.0,-0.0007200080047075064,-0.0007199891741640485,0.0,0.0,0.0,-0.05056214561734525,-0.05300027867047024,-0.062455834371410945,-0.0015208177765680285,-0.0008489626103135861,-0.0024924723387628675
145,13.0,299.91327,575.13158,0.0,-0.0007249895033882847,-0.0007249913843512257,0.0,0.0,0.0,-0.07214349324625843,-0.045498392778841754,-0.05718375427259715,0.0005964402988015744,-0.002325105815070078,0.003909472206109866
146,13.0,299.90767,584.99798,0.0,-0.0007300039921267487,-0.0007299935945381808,0.0,0.0,0.0,-0.060304201837061346,-0.05756675571764644,-0.05995382096573145,0.0016937402545341483,-0.005182170060465365,0.0006910605720948684
147,13.0,299.9618,537.02524,0.0,-0.0007349854908076381,-0.000734995804725358,0.0,0.0,0.0,-0.05294917540167675,-0.05541493370552815,-0.05487815635905235,-0.001973346923604178,-0.0018341509818416083,-0.001765318369423358
148,13.0,299.78472999999997,568.20027,0.0,-0.00073999997954588,-0.0007399980149123131,0.0,0.0,0.0,-0.044352450485496055,-0.05612144462925535,-0.07224479697800634,0.0006695242046643944,0.006955874087716323,0.0006614636683963815
149,13.0,300.24815,602.94596,0.0,-0.0007449814782269915,-0.0007450002250994903,0.0,0.0,0.0,-0.05265143591279215,-0.058505498498043144,-0.07212358085529323,0.0033468027732037166,0.009337487746288292,-0.0008359532693646641
150,13.0,299.98758,538.05083,0.0,-0.0007499959669653444,-0.0007499695260090311,0.0,0.0,0.0,-0.04637990922009066,-0.05917466710258495,-0.05799944086809915,-0.005342825524770825,-0.003145751256561477,-0.002054325060996098
151,13.0,299.76029,452.26667000000003,0.0,-0.0007550104557035864,-0.0007549717361959862,0.0,0.0,0.0,-0.04892891209915766,-0.04905014646037255,-0.03949871602171976,0.0005159326438285875,-0.006007390224833254,-0.01072933469315289
152,13.0,300.13195,466.97234000000003,0.0,-0.0007599919543846978,-0.0007599739463831634,0.0,0.0,0.0,-0.04333091807917866,-0.05311646501968695,-0.04550054796180446,-0.003346006054650087,-0.003348105812832317,-0.010443540409697189
153,13.0,300.17352,511.82964000000004,0.0,-0.0007650064431230508,-0.0007649761565703406,0.0,0.0,0.0,-0.04347847971774186,-0.05685881611127824,-0.055246133331618846,0.00984446297552285,0.0027005374712722975,-0.014337398735741087
154,13.0,299.94119,519.0408,0.0,-0.0007699879418040512,-0.0007699783667572957,0.0,0.0,0.0,-0.03795345591696447,-0.055655240152244545,-0.06416674566876474,-0.004222995497102207,-0.0037672372233223668,-0.01161986399404129
155,13.0,300.0263,545.04137,0.0,-0.0007750024305424041,-0.0007749805769444729,0.0,0.0,0.0,-0.040025043719914256,-0.061824582598861234,-0.06382934047821544,0.008373176410218173,-0.0006783810035234923,-0.008117336130193702
156,13.0,299.83371,537.98312,0.0,-0.0007799839292232935,-0.000779982787131428,0.0,0.0,0.0,-0.05751977131050944,-0.05016351681600365,-0.05585014792823045,0.0016229225838449884,0.0034550560834124863,-0.006421712041073634
157,13.0,299.98429,573.59329,0.0,-0.0007849984179617575,-0.0007849849973186052,0.0,0.0,0.0,-0.06116868149112885,-0.055078588374583445,-0.05811076665658615,0.0029014867509794475,0.007901952292211972,0.005031237845444515
158,13.0,299.93554,609.19601,0.0,-0.0007899799166425359,-0.0007899872075056713,0.0,0.0,0.0,-0.06256983108716155,-0.060142144642567535,-0.062468398672650936,-0.005266021572490865,-0.0025678351454255974,0.0022405148331215976
159,13.0,299.81098,604.36703,0.0,-0.0007949944053809999,-0.0007949894176926264,0.0,0.0,0.0,-0.05160191348571235,-0.05461256020309005,-0.07749801339970842,-0.006224382698673744,-0.007406864006525562,0.009609800331863452
160,13.0,299.96278,539.40234,0.0,-0.0008000088941194639,-0.0007999916278798036,0.0,0.0,0.0,-0.042404705149518565,-0.05512034137145414,-0.06643979494934724,-0.002009390560136408,0.003255795081021957,-0.005063542183807706
161,13.0,299.81625,512.28799,0.0,-0.0008049903928001312,-0.0008049938380667587,0.0,0.0,0.0,-0.04310842456922026,-0.04651112510804066,-0.06610320643837853,0.0018511822974724681,0.0034068399694539265,0.0016579020037971884
162,13.0,299.82864,587.96825,0.0,-0.0008100048815387062,-0.0008099960482539359,0.0,0.0,0.0,-0.06268968134873984,-0.05867742880151134,-0.05736055628254615,-0.003209295007432757,0.001978497780487528,-0.0056621143101571745
163,13.0,300.00652,616.77591,0.0,-0.0008149863802195956,-0.0008149982584411131,0.0,0.0,0.0,-0.06512596116743194,-0.06272257347348603,-0.059635941104609146,-0.003369849754678277,-0.0034087026271127567,-0.004299663471218746
164,13.0,299.77547999999996,558.90438,0.0,-0.0008200008689578375,-0.0008200004686280682,0.0,0.0,0.0,-0.05820164201830484,-0.05660071699280585,-0.05509061767977065,0.0023854769785532476,-0.004503431916679126,-0.005894015138019004
165,13.0,300.18082999999996,560.77517,0.0,-0.0008249823676389489,-0.000824969769537609,0.0,0.0,0.0,-0.04721208544772005,-0.05976087180218884,-0.06348869187409605,0.003905751146442626,0.0019358974025581984,-0.0025983407622112674
166,13.0,300.16809,576.5511,0.0,-0.0008299968563773019,-0.0008299719797247862,0.0,0.0,0.0,-0.04422794737945855,-0.05884819792036495,-0.07218099160595923,-0.00017026192638354382,-0.005138926775347586,-0.0048198612089582656
167,13.0,299.89655,566.97338,0.0,-0.0008350113451155439,-0.0008349741899117413,0.0,0.0,0.0,-0.04338357466037546,-0.06169188432601494,-0.06727028918181063,-0.0019107808577543883,-0.00045638371253656554,-0.005751167949521084
168,13.0,300.01502999999997,580.0174900000001,0.0,-0.0008399928437966553,-0.0008399764000989185,0.0,0.0,0.0,-0.06017069093763485,-0.06447351017629004,-0.05166663382259975,-0.0024355151188416276,0.005405189447225666,-0.007345753170469394
169,13.0,299.96151000000003,555.85066,0.0,-0.0008450073325351193,-0.0008449786102858736,0.0,0.0,0.0,-0.05374888608285205,-0.06306745644977335,-0.052148377503144154,0.005028982857346965,0.008682968711692293,-0.007600285141964744
170,13.0,299.67397,494.41549000000003,0.0,-0.0008499888312160087,-0.0008499808204730508,0.0,0.0,0.0,-0.045292923897063554,-0.05777188718714135,-0.04722515333425975,0.002304819230842948,-0.004541548156290906,-0.007644175184621353
171,13.0,299.91016,569.60415,0.0,-0.0008550033199543616,-0.000854983030660228,0.0,0.0,0.0,-0.04048832091738616,-0.06604342873547894,-0.06661368791825914,-0.002945733964296307,-0.01059474873537029,-0.007376266994580874
172,13.0,299.84516,624.65136,0.0,-0.000859984818635251,-0.0008599852408472941,0.0,0.0,0.0,-0.04683958633995725,-0.06506617637178164,-0.07797265318380173,0.004207911445513526,0.00017725980647668082,-0.002073665472279848
173,13.0,299.85972999999996,581.47278,0.0,-0.000864999307373715,-0.0008649874510342492,0.0,0.0,0.0,-0.05263769421493595,-0.06035776122409724,-0.06375774929239994,0.0023744199881620075,0.005313976774548676,-0.004868011259010306
174,13.0,299.97106,590.27562,0.0,-0.0008699808060543823,-0.0008699896612212044,0.0,0.0,0.0,-0.061865450015144534,-0.058433996478236445,-0.05912960179113735,0.004199519100235266,0.0022726947443725077,0.00021285847422749577
175,13.0,299.96201,631.86324,0.0,-0.0008749952947929573,-0.0008749918714083815,0.0,0.0,0.0,-0.06665453810929073,-0.06508774947966074,-0.06032835974594554,-0.009361925616175121,-0.001208943752763459,-0.001113404400834459
176,13.0,300.02199,686.41042,0.0,-0.0008800097835314213,-0.0008799940815955587,0.0,0.0,0.0,-0.06541115256707813,-0.07035783246252743,-0.07288264399545694,0.004833762595030226,0.0025324564036089876,0.008318240522921422
177,13.0,299.8852,683.3095599999999,0.0,-0.0008849912822120887,-0.0008849962917825138,0.0,0.0,0.0,-0.06084758658743924,-0.06500909087439774,-0.08185236653844963,-0.0016584313256494281,0.0004989040538404965,0.0028947346549630672
178,13.0,300.02252000000004,658.6857,0.0,-0.0008900057709505527,-0.000889998501969691,0.0,0.0,0.0,-0.05413008495597345,-0.06910253717863944,-0.07699138530995812,0.0017263595110284184,-0.01041642178402079,0.007580418549904063
179,13.0,300.07814,605.30483,0.0,-0.000894987269631442,-0.0008949678028792318,0.0,0.0,0.0,-0.05643485909718695,-0.06451022124066315,-0.06305247453379474,-0.0024586189436467975,-0.006282141196774063,-0.0015287581109766784
180,13.0,300.17959,651.3215299999999,0.0,-0.000900001758369795,-0.000899970013066187,0.0,0.0,0.0,-0.06383577258985024,-0.07231434139861984,-0.06183536763292564,-0.0019312912689286082,0.0067689978386480726,-0.0027948827079584473
181,13.0,299.88591,663.31643,0.0,-0.0009049832570509064,-0.0009049722232533641,0.0,0.0,0.0,-0.06570881910195553,-0.07463390493829293,-0.061288907668494236,0.00027205996206022777,0.007820353032508753,-0.008709016129362972
182,13.0,299.9696,610.0647799999999,0.0,-0.0009099977457893704,-0.0009099744334404303,0.0,0.0,0.0,-0.053949611940912155,-0.06734870359379953,-0.06414614426773153,-0.004073297724678186,-0.004952741866822565,-0.0028152341401919767
183,13.0,300.00319,541.82373,0.0,-0.0009149792444702598,-0.0009149766436274964,0.0,0.0,0.0,-0.036436007500953965,-0.06335418191007094,-0.06491069517043684,-0.0033328338033500873,0.001027575632563819,-0.008331474987777561
184,13.0,300.16979,573.91072,0.0,-0.0009199937332086128,-0.0009199788538146736,0.0,0.0,0.0,-0.03880839886109076,-0.07022952966861493,-0.06541660081286585,0.001986152682343008,0.0007379381624063263,-0.006250731152949134
185,13.0,299.81015,607.80957,0.0,-0.0009250082219470768,-0.0009249810640017397,0.0,0.0,0.0,-0.051895401377177346,-0.06817388231623833,-0.06468965060812143,0.0048592577913964055,0.008293879356067162,-0.007817867226038423
186,13.0,299.98939,594.82689,0.0,-0.0009299897206279661,-0.0009299832741889169,0.0,0.0,0.0,-0.05864235109629944,-0.06678973910988403,-0.05538043355287325,-0.002245496071938208,-0.0003743103227140526,-0.006823041255256744
187,13.0,299.80847,597.05537,0.0,-0.0009350042093662081,-0.000934985484375872,0.0,0.0,0.0,-0.05416390319131105,-0.07108271361056764,-0.05624330720553224,0.002861957635428227,-0.0002298669917311058,-0.007148350975387313
188,13.0,300.00687,626.06579,0.0,-0.0009399857080472085,-0.0009399876945628272,0.0,0.0,0.0,-0.05837598588351124,-0.06562736797941693,-0.06630501343429535,-0.002559589518761818,0.004953371399109696,-0.0022348826824407477
189,13.0,299.95031,649.9757099999999,0.0,-0.0009450001967856725,-0.0009449899047500043,0.0,0.0,0.0,-0.04760249577750055,-0.07149638410964373,-0.07847750605937683,0.0006710533003903043,0.003607207339628647,0.002666008238339528
190,13.0,300.0233,665.8358,0.0,-0.0009499816954663398,-0.0009499921149369595,0.0,0.0,0.0,-0.06289028460353785,-0.06555895738566535,-0.07394821529087063,-0.0037070059896780064,-0.007233994217564644,0.0013675915633207787
191,13.0,300.03869,671.59245,0.0,-0.0009549961842048038,-0.0009549943251241366,0.0,0.0,0.0,-0.06361981555628694,-0.06811341459002064,-0.07241410397696563,-0.002776540753323237,-0.006020440886121255,0.0034983472952599963
192,13.0,300.03311,626.80145,0.0,-0.0009600106729433788,-0.0009599965353112028,0.0,0.0,0.0,-0.06958136573864614,-0.06848638384582983,-0.05246424099656745,0.001903228800784058,0.0020556040865973278,-0.004719773681305396
193,13.0,299.82883,636.03608,0.0,-0.0009649921716240462,-0.0009649658362206326,0.0,0.0,0.0,-0.06196021524399714,-0.06769048298503053,-0.06368838725680444,-0.0024075499227066777,0.003638244304766757,-0.0024385344014896076
194,13.0,300.05145,674.31448,0.0,-0.0009700066603625102,-0.0009699680464078098,0.0,0.0,0.0,-0.06939189810244714,-0.06856472935681193,-0.06701813784142523,-0.0017664650645615283,-0.001075990444866989,-0.002175813545336078
195,13.0,300.09917,626.19683,0.0,-0.0009749881590436216,-0.0009749702565948759,0.0,0.0,0.0,-0.04860762366469895,-0.06349344097731474,-0.07824713554314103,-0.001134744765165589,-0.0006783783285432284,0.0018486495775225083
196,13.0,299.86007,617.42634,0.0,-0.0009800026477818635,-0.000979972466782053,0.0,0.0,0.0,-0.05249798019839725,-0.06871312996645794,-0.06647107803293463,0.008352984463550383,0.004972664694263796,-0.004094287403149707
197,13.0,299.95624,666.22154,0.0,-0.000984984146462864,-0.0009849746769691192,0.0,0.0,0.0,-0.05300591943377695,-0.08063043555385442,-0.06887835660726453,0.006184603512997844,-0.0019130512472534582,-0.004972315224304305
198,13.0,300.12302,662.31848,0.0,-0.000989998635201328,-0.0009899768871561854,0.0,0.0,0.0,-0.06610520963382623,-0.07515923255863872,-0.06006383662183914,0.0014012339997660286,-0.010085119196173772,-0.008428081190736852
199,13.0,300.15791,620.20106,0.0,-0.0009949801338822173,-0.0009949790973433625,0.0,0.0,0.0,-0.049910679505300544,-0.07439610932532432,-0.06421884597565664,-0.004908134848395196,-0.004611731633742475,-0.01010196447908627
200,13.0,300.20263,611.02823,0.0,-0.0009999946226204592,-0.0009999813075303177,0.0,0.0,0.0,-0.052286376087263546,-0.06831538573245363,-0.06513556171212943,0.0014613662388756185,0.008646047195273423,-0.01027132031670039
201,13.0,299.77632,588.13248,0.0,-0.0010050091113590343,-0.0010049835177174948,0.0,0.0,0.0,-0.039919668749264565,-0.06723306439963685,-0.07162485611632292,-0.0020784669605287184,0.008699705678169101,-0.004975609401704415
202,13.0,299.91851,618.4163900000001,0.0,-0.0010099906100399236,-0.001009985727904672,0.0,0.0,0.0,-0.05753298409181344,-0.06791506784319534,-0.06253508876773274,-0.0028213178964423976,0.0013857121228091388,-0.007301499978976942
203,13.0,300.02781,682.1293099999999,0.0,-0.0010150050987781656,-0.0010149879380916271,0.0,0.0,0.0,-0.06626002715635554,-0.07230510866370864,-0.06878514165106493,-0.0026800640437267273,-0.003214864741907447,-0.006720607952297363
204,13.0,300.13812,672.5457700000001,0.0,-0.001019986597459055,-0.0010199901482785823,0.0,0.0,0.0,-0.07385193626636864,-0.06984395051531123,-0.06074123383044304,0.006327449688245664,-0.001053975154644249,-0.004986813718660195
205,13.0,300.20321,668.07753,0.0,-0.00102500108619763,-0.0010249923584656484,0.0,0.0,0.0,-0.060372221316274344,-0.07612882880458043,-0.06657783811647103,0.005704497447265064,-0.005444618960292056,-0.006750074075805443
206,13.0,300.19863,662.73227,0.0,-0.0010299825848782973,-0.0010299945686528256,0.0,0.0,0.0,-0.060956410661429344,-0.06536693331946404,-0.07513071666107443,0.0027615032099141475,-0.006716123915304824,0.004163144029595326
207,13.0,300.21742,673.9680099999999,0.0,-0.0010349970736167613,-0.0010349967788400027,0.0,0.0,0.0,-0.05788146511920585,-0.06913516889810994,-0.07785281305472443,0.0008545903837540043,-0.0027088734798449976,0.00016486207342061984
208,13.0,300.27536000000003,696.6261599999999,0.0,-0.0010399785722978727,-0.0010399660797494326,0.0,0.0,0.0,-0.06604248742613603,-0.06984037475570834,-0.07587409468969013,0.0012663293748269788,0.00958903914128948,0.005868176956493974
209,13.0,299.88475,672.745,0.0,-0.0010449930610361147,-0.0010449682899364987,0.0,0.0,0.0,-0.06315420585708484,-0.07366181001760462,-0.06768166669591044,-0.005119036777209595,0.0023766306972301874,-0.005213856721567595
210,13.0,299.74019,668.56902,0.0,-0.0010500075497744676,-0.0010499705001236759,0.0,0.0,0.0,-0.06468323268198803,-0.07306504117245813,-0.06548001405712424,-0.0050651429163156856,-0.002764211830081467,-0.0007429307800215592
211,13.0,299.85235,645.7792099999999,0.0,-0.001054989048455579,-0.001054972710310631,0.0,0.0,0.0,-0.058416321343492034,-0.06382345754813484,-0.07406097584149923,-0.004090162158017577,-0.003351708018262827,-0.005217783167030105
212,13.0,299.65221,670.08866,0.0,-0.001060003537193821,-0.0010599749204978082,0.0,0.0,0.0,-0.05636972332775854,-0.07244700927396312,-0.07487348792443793,0.001852408634068498,0.004601270535735045,-0.002267742079208718
213,13.0,299.86465,674.18242,0.0,-0.0010649850358747104,-0.0010649771306847633,0.0,0.0,0.0,-0.053115185284810656,-0.07205543471981772,-0.07976400032709392,0.0012983701668391589,-0.0016714888770381082,-0.009526173964010171
214,13.0,300.06735,648.5280700000001,0.0,-0.0010699995246132854,-0.0010699793408719405,0.0,0.0,0.0,-0.05396293921947745,-0.07675297668067901,-0.06642042363393544,-0.00022309051691731977,-0.0035896258291934864,-0.004168710217694666
215,13.0,300.05543,640.95172,0.0,-0.0010749810232941748,-0.0010749815510591176,0.0,0.0,0.0,-0.05589501970890894,-0.07793459753654593,-0.06100370107009654,0.0023402236078870877,-0.004201324002638397,-0.015430924588163685
216,13.0,300.12774,725.15463,0.0,-0.0010799955120324167,-0.0010799837612460728,0.0,0.0,0.0,-0.06724018045508914,-0.07956681679138342,-0.07362190316241614,0.004182039928060206,0.0006247277692633304,-0.005411655705388835
217,13.0,299.99896,713.33602,0.0,-0.0010850100007708807,-0.00108498597143325,0.0,0.0,0.0,-0.05721362083254475,-0.08289487626158733,-0.07672784199869843,0.001712333089894118,-0.004047321437164526,-0.01068809845383319
218,13.0,300.1486,648.07246,0.0,-0.00108999149945177,-0.001089988181620205,0.0,0.0,0.0,-0.050107678629492856,-0.07467330314193123,-0.07221686471249963,-0.00040559110622372563,-0.0021227280553719483,-0.0028253700862423173
219,13.0,300.0698,631.65833,0.0,-0.001095005988190123,-0.0010949903918072712,0.0,0.0,0.0,-0.04933778181925995,-0.06729262324051484,-0.07537795373847483,0.004893531786628985,0.004230084600101846,-0.007493599025685642
220,13.0,299.89422,646.96995,0.0,-0.0010999874868710124,-0.0010999926019944484,0.0,0.0,0.0,-0.06534148452995245,-0.06728355667862004,-0.06403766976502594,0.0002099746529853848,0.01101927823576809,-0.004014849000609746
221,13.0,299.96384,688.5033599999999,0.0,-0.0011050019756094764,-0.0011049948121814035,0.0,0.0,0.0,-0.06621372871953624,-0.07255866943498314,-0.07051543135658124,-0.000850670443357136,0.004212837360874675,-0.009480507085978201
222,13.0,300.08092,700.95276,0.0,-0.0011099834742903658,-0.0011099641130910554,0.0,0.0,0.0,-0.07060962004612693,-0.07251603085752503,-0.06994648635918073,-0.006865077455530394,-0.005062767148806215,-0.002437964954933408
223,13.0,299.86902000000003,672.6283099999999,0.0,-0.0011149979630287188,-0.0011149663232781215,0.0,0.0,0.0,-0.05391265567001485,-0.06973377780543803,-0.08081577622239612,-0.000996486647165575,-0.0035124591333777267,0.0026567614192519375
224,13.0,300.03995,707.48816,0.0,-0.0011199794617098302,-0.0011199685334650766,0.0,0.0,0.0,-0.06555491451776635,-0.06463788467376254,-0.08486593648236582,0.0003848687839235917,0.002280123083505628,0.003270196404693257
225,13.0,299.64498,771.64003,0.0,-0.0011249939504480722,-0.0011249707436522538,0.0,0.0,0.0,-0.06603956521284764,-0.07873489995577963,-0.08978483711307352,0.00014031057766757587,-0.0034359184234737466,-0.0015168102710975185
226,13.0,299.67567,771.4285,0.0,-0.0011300084391864251,-0.001129972953839209,0.0,0.0,0.0,-0.07664837279335543,-0.07787587361375033,-0.07997075704974922,-0.001000124154229569,-0.0016141085238751084,-0.0003717199083033986
227,13.0,299.67315,688.09865,0.0,-0.0011349899378675365,-0.001134975164026386,0.0,0.0,0.0,-0.06307339004235894,-0.07229768154047563,-0.07379373518062463,0.0035700045449820164,0.0007060639791080892,-0.004079681909583256
228,13.0,299.68503,623.26194,0.0,-0.0011400044266057785,-0.0011399773742135633,0.0,0.0,0.0,-0.05955978218734285,-0.07095128392684653,-0.058945001808418745,0.007222164623972154,0.009005016374450923,-0.006385405567465464
229,13.0,300.00408,634.87235,0.0,-0.0011449859252866679,-0.0011449795844005184,0.0,0.0,0.0,-0.05077959010205536,-0.06508484449162404,-0.07712090603049084,0.0023915441175020274,-0.00016734845744350682,-0.004763077457454146
230,13.0,300.11607000000004,646.85172,0.0,-0.0011500004140251319,-0.0011499817945876956,0.0,0.0,0.0,-0.04927144028221255,-0.07264755781325573,-0.07470777289708312,-0.002964328218206417,-0.006409307630699415,-0.008899372689874702
231,13.0,300.10181,657.30157,0.0,-0.0011549819127060212,-0.0011549840047746507,0.0,0.0,0.0,-0.04840046265525375,-0.07461754905517873,-0.07678525274936443,-0.005664529290445515,-0.004123077080891026,-0.01172272711769309
232,13.0,300.18043,698.9209400000001,0.0,-0.0011599964014443742,-0.0011599862149618279,0.0,0.0,0.0,-0.06535702981298665,-0.07506863280094724,-0.07202884906369393,-0.0025780824476619277,0.008589231931691192,-0.01157695285230629
233,13.0,299.98942999999997,731.62143,0.0,-0.0011649779001252636,-0.001164988425149005,0.0,0.0,0.0,-0.06432480863136435,-0.08709102559596502,-0.07097881089231323,-0.0018744022407390984,0.005014244628017415,-0.016239038152418284
234,13.0,299.92366,711.7822,0.0,-0.0011699923888637276,-0.0011699906353360712,0.0,0.0,0.0,-0.06515074931787834,-0.07640101108619272,-0.07481225418114464,-0.007617757626689143,0.005200442202168685,-0.013350822444623588
235,13.0,299.83572000000004,716.33529,0.0,-0.0011750068776020806,-0.0011749928455230263,0.0,0.0,0.0,-0.05311452059274504,-0.08043964765277513,-0.08419387302228833,0.0029937099379811673,0.0007777374610967113,-0.0043285237724920355
236,13.0,299.61379,682.59589,0.0,-0.00117998837628297,-0.0011799621464326782,0.0,0.0,0.0,-0.059045774597114235,-0.06589926148475074,-0.08254707005876152,0.003612692062419947,0.002483571949884468,-0.002037333262119138
237,13.0,299.83431,657.72755,0.0,-0.001185002865021434,-0.0011849643566197443,0.0,0.0,0.0,-0.053604261856328744,-0.07047506144609704,-0.07585342742740042,0.005777292779499405,-0.005892844530178474,-0.004376057665158266
238,13.0,299.86179,654.0647799999999,0.0,-0.0011899843637023233,-0.0011899665668069215,0.0,0.0,0.0,-0.06846762655997864,-0.06601067238624614,-0.06434106318946854,0.001213660128003929,-0.009903592907633521,-0.007215495614463973
239,13.0,299.94808,717.75247,0.0,-0.0011949988524406763,-0.0011949687769938766,0.0,0.0,0.0,-0.06830482665316152,-0.07245917334141364,-0.07741482961949883,-0.001880138958830268,-0.0018422315500640982,-0.005731760157105684
240,13.0,300.05043,741.51213,0.0,-0.0011999803511216767,-0.0011999709871808317,0.0,0.0,0.0,-0.07361002280499364,-0.07399934490416674,-0.07779180526620343,-0.0025539969861598775,0.00994604423647314,-0.006118395724963644
241,13.0,300.09216000000004,736.5151400000001,0.0,-0.0012049948398600296,-0.001204973197368009,0.0,0.0,0.0,-0.06330928479813994,-0.07481489876390564,-0.08575802821490842,-0.0017669334900827585,0.0013954465178448487,-0.005204062240800955
242,13.0,300.17278,745.30557,0.0,-0.0012100093285984936,-0.001209975407554964,0.0,0.0,0.0,-0.06907815331498293,-0.06998302111803643,-0.08749310856689752,-0.0035522907040837965,-0.003024426209462627,0.0031297456540068467
243,13.0,300.25266,727.70051,0.0,-0.001214990827279383,-0.0012149776177421412,0.0,0.0,0.0,-0.06505569328624704,-0.07351555648492053,-0.08263153560034762,-0.0021351846481263183,-0.0042584286504491866,-0.005542206901273235
244,13.0,300.13741,734.45164,0.0,-0.001220005316017736,-0.0012199798279292073,0.0,0.0,0.0,-0.07635641997579193,-0.07489965004201993,-0.07199889029798723,0.0030635379672976568,0.004267259327720706,-0.004889274616333835
245,13.0,300.17742999999996,734.80294,0.0,-0.0012249868146986254,-0.0012249820381162735,0.0,0.0,0.0,-0.07120170564931123,-0.07260740271179272,-0.07955263838273413,-0.0023909186382152976,0.0013381293914880887,-0.012852957954988187
246,13.0,299.96782,693.65655,0.0,-0.0012300013034370894,-0.0012299842483034507,0.0,0.0,0.0,-0.061357755986289036,-0.07715621880972594,-0.07234029579993134,-0.003439538968731067,0.0013166858782967788,-0.010252604574103291
247,13.0,299.82518,620.0780900000001,0.0,-0.0012349828021179787,-0.0012349864584905168,0.0,0.0,0.0,-0.04139251288262296,-0.06778101282846513,-0.07931473029900442,0.0006819100725617844,0.0003722933065349887,-0.013634060298076988
248,13.0,299.74669,674.1538099999999,0.0,-0.0012399972908563317,-0.001239988668677694,0.0,0.0,0.0,-0.04952285093677485,-0.07477227943819942,-0.08063079525763991,0.0002502343725212098,0.002843176943499717,-0.004717968677577255
249,13.0,299.95309,733.59374,0.0,-0.001244978789537221,-0.001244990878864649,0.0,0.0,0.0,-0.05784403464726174,-0.08381332566898123,-0.08133681880806902,0.005900819821715574,-0.0038807931752794663,-0.014251672711030587
250,13.0,299.87408,714.00405,0.0,-0.001249993278275685,-0.00124996017977419,0.0,0.0,0.0,-0.06934022538709743,-0.07558091381300543,-0.07211826331876843,0.003259474496110087,-0.011135107920949591,-0.01209868039504679
251,13.0,299.83467,702.31513,0.0,-0.001255007767014038,-0.0012549623899613671,0.0,0.0,0.0,-0.057392756357474047,-0.08062644132196022,-0.07546706604501953,0.008136601560970054,-0.005490184614639035,-0.018103027221879682
252,13.0,300.03369,749.40777,0.0,-0.0012599892656949274,-0.0012599646001483222,0.0,0.0,0.0,-0.06965063860823284,-0.07713128475126513,-0.08101932600848492,0.001156983679685399,0.0016404036811952384,-0.005798255809493295
253,13.0,300.01567,776.89759,0.0,-0.0012650037544333914,-0.0012649668103354994,0.0,0.0,0.0,-0.06205040058239774,-0.08089450170216572,-0.09321256695586409,-0.001078612026850719,0.005053077235449895,-0.003386860096032067
254,13.0,299.99837,766.10469,0.0,-0.0012699852531142808,-0.0012699690205224545,0.0,0.0,0.0,-0.06767687098318714,-0.07448511422735843,-0.09071471091534491,-0.009148700102231401,0.0027632828823897873,0.0033422115343505966
255,13.0,300.19137,730.86109,0.0,-0.0012749997418527448,-0.0012749712307094097,0.0,0.0,0.0,-0.06878140883769654,-0.06950436582379683,-0.08387774811033923,-0.0017381333758654082,0.005047059948406035,0.0013505360310125288
256,13.0,300.14727999999997,720.1606099999999,0.0,-0.0012799812405336342,-0.0012799734408965868,0.0,0.0,0.0,-0.07408419750729102,-0.07222098762715652,-0.07260565890837063,-0.0015095299678040087,0.004622806659985496,-0.0009456405007174511
257,13.0,300.23287,770.12464,0.0,-0.0012849957292719871,-0.001284975651083653,0.0,0.0,0.0,-0.07248410638662434,-0.07651418402961203,-0.08510037013150261,-0.0013675712983187787,-0.0043196972495459255,-0.0069029134301645135
258,13.0,300.14684,840.0948699999999,0.0,-0.0012899772279528765,-0.0012899778612708301,0.0,0.0,0.0,-0.07980958948884322,-0.08185005936797192,-0.0937082134410306,0.001208175101237599,-0.008526294712329774,-0.003239690787907587
259,13.0,299.94012000000004,782.27777,0.0,-0.0012949917166913405,-0.0012949800714580073,0.0,0.0,0.0,-0.06521038009951344,-0.07839576008105913,-0.09418676842351031,0.004891348232663485,-0.0038931391211229163,-0.005236882222140035
260,13.0,299.87859,714.6556099999999,0.0,-0.0013000062054296935,-0.0012999822816449624,0.0,0.0,0.0,-0.058222581844871446,-0.07711426214958512,-0.08190061548171142,0.008910660903938761,0.0014234892276124489,-0.005296451904794105
261,13.0,299.90654,753.42979,0.0,-0.0013049877041105828,-0.0013049844918321396,0.0,0.0,0.0,-0.06691330293307884,-0.08275195328198193,-0.07935858578983263,0.0028569050638045774,-0.0024526808927607577,-0.005400334965996564
262,13.0,299.81954,799.68304,0.0,-0.0013100021928490468,-0.0013099867020190947,0.0,0.0,0.0,-0.07748105564603483,-0.0886969915407115,-0.07690562990099473,0.0005283605818701295,-0.004836419640767455,-0.01095572009674539
263,13.0,299.96166,748.10646,0.0,-0.0013149836915299362,-0.001314988912206272,0.0,0.0,0.0,-0.06192401283117424,-0.08286450408983982,-0.08261716670067952,-0.0016648985970626985,-0.0035957474809976465,-0.00993507367631543
264,13.0,299.90159,712.51316,0.0,-0.0013199981802682892,-0.001319991122393449,0.0,0.0,0.0,-0.060137428976602146,-0.07997930584084292,-0.07646947436894952,-0.000863712421091779,0.0034482236366631764,-0.014581769328608588
265,13.0,299.96097000000003,727.56182,0.0,-0.0013249796789491786,-0.0013249604233027679,0.0,0.0,0.0,-0.049781304692782254,-0.08271996902932532,-0.08865935335249692,-0.005037873215049375,0.0024319656024163177,-0.007398715347896353
266,13.0,300.03668999999996,729.6634799999999,0.0,-0.0013299941676876426,-0.001329962633489945,0.0,0.0,0.0,-0.05985499463047804,-0.08289215669831893,-0.07905232689410722,-0.0073040616778797625,0.0061789056023855045,-0.014697318343512384
267,13.0,299.96702,786.95,0.0,-0.0013350086564258845,-0.0013349648436771222,0.0,0.0,0.0,-0.06621106488502335,-0.08962407890520792,-0.08337800606826852,-0.001149885761409889,0.005821824412119334,-0.006990454793754174
268,13.0,300.27472,797.7599799999999,0.0,-0.001339990155106996,-0.0013399670538640773,0.0,0.0,0.0,-0.08002017933662683,-0.08848913341519751,-0.07398980008822473,0.005828374871365814,0.004574045214823116,-0.011815636072362488
269,13.0,300.23411,736.4604400000001,0.0,-0.001345004643845349,-0.0013449692640510325,0.0,0.0,0.0,-0.059705930342016544,-0.08432794019601972,-0.07983171481802682,0.007376557594709553,-0.005238683375517795,-0.00832015455236032
270,13.0,300.05812000000003,770.3686700000001,0.0,-0.0013499861425262383,-0.0013499714742382096,0.0,0.0,0.0,-0.07035560027255713,-0.08363971742334741,-0.08017752289165543,0.005802720594733934,-0.010687763068050091,-0.009719005286566142
271,13.0,300.16717,848.34839,0.0,-0.0013550006312647023,-0.0013549736844252758,0.0,0.0,0.0,-0.06926359125553423,-0.08442023714762871,-0.10419290295053892,0.0038201813648975464,-0.005181343957658836,-0.0008439727284736232
272,13.0,300.10582,794.01478,0.0,-0.0013599821299455916,-0.001359975894612453,0.0,0.0,0.0,-0.07855617175739052,-0.08226395480857022,-0.08054054101823252,0.0018092577573598381,0.0005759711167739235,-0.0006090685867853894
273,13.0,299.89173999999997,763.36816,0.0,-0.0013649966186839446,-0.001364978104799408,0.0,0.0,0.0,-0.07196551383969323,-0.07806488630065443,-0.08201445919669692,-0.0038934219192258263,0.001963734422555498,0.003120925413211357
274,13.0,299.83525,798.81851,0.0,-0.001369978117364834,-0.0013699803149865852,0.0,0.0,0.0,-0.08252505720033902,-0.08157123219220382,-0.07872459114926222,-0.006841389492042573,-0.0005989722182839554,-0.001080180639330529
275,13.0,299.66821,815.05719,0.0,-0.001374992606103298,-0.0013749825251735404,0.0,0.0,0.0,-0.07135371241606313,-0.08538213370606051,-0.09102118765984182,-0.0016574680287793583,0.0024165028992652678,-0.0019376509331812581
276,13.0,299.76723,797.1369,0.0,-0.00138000709484154,-0.0013799847353607175,0.0,0.0,0.0,-0.06656316321527274,-0.08353897807190522,-0.09220757281767891,0.0012186730815486688,0.0010710150829009591,-0.009780872615146971
277,13.0,299.91985,785.57304,0.0,-0.0013849885935224293,-0.0013849869455478947,0.0,0.0,0.0,-0.057465850193187853,-0.08909510257125201,-0.09223363665000123,0.0008283536504346402,0.0022395669376530478,-0.00893259097982809
278,13.0,299.99816,760.87506,0.0,-0.0013900030822610043,-0.0013899891557348498,0.0,0.0,0.0,-0.06601282959570903,-0.08896660725982052,-0.07630758132097193,-0.00100123448382165,-0.0018893743281917282,-0.011200168709870591
279,13.0,300.07919,738.9787,0.0,-0.0013949845809418937,-0.0013949584566443907,0.0,0.0,0.0,-0.06589762407258914,-0.087233103524987,-0.07150034490428463,-0.0027337973044797874,0.0075103288994117536,-0.010296370898922689
280,13.0,300.47089,814.7719400000001,0.0,-0.0013999990696801357,-0.0013999606668315678,0.0,0.0,0.0,-0.07389618996448613,-0.09645333695645321,-0.07732079697046852,0.00035818486280509365,0.005423566257664314,-0.00951788709806732
281,13.0,300.41871000000003,833.3924,0.0,-0.001404980568361247,-0.001404962877018523,0.0,0.0,0.0,-0.07027635499548623,-0.0909640373144515,-0.092090087481834,-0.001078202775135329,-0.0006182064510897264,-0.008778931906138121
282,13.0,300.31757000000005,761.16619,0.0,-0.0014099950570996,-0.0014099650872057001,0.0,0.0,0.0,-0.05881131662997504,-0.08617286597809973,-0.08639133384541081,0.00040766626269352757,-0.005256209461172485,-0.0098598496849164
283,13.0,299.91156,756.30265,0.0,-0.0014149765557804894,-0.0014149672973926553,0.0,0.0,0.0,-0.05230856018495295,-0.0909127729388921,-0.08667578861223432,0.0018655598097664183,-0.0002750910693368747,-0.012170171269102387
284,13.0,299.99012,819.55852,0.0,-0.0014199910445189534,-0.0014199695075798324,0.0,0.0,0.0,-0.07471499635704602,-0.08582037349356142,-0.088589956866398,0.0031517501024535175,0.0021504422694571283,-0.003951093885767606
285,13.0,299.81297,835.04131,0.0,-0.0014250055332574174,-0.0014249717177668986,0.0,0.0,0.0,-0.07836611542288342,-0.09249816788010841,-0.08296742395549721,-0.0010628101888911989,0.003372566987471447,-0.01035196691865959
286,13.0,299.71381,796.5043099999999,0.0,-0.0014299870319381958,-0.0014299739279538537,0.0,0.0,0.0,-0.07317801247910752,-0.08608752701492742,-0.08285188000684392,0.0006082831153078694,-0.005329141278195296,-0.001905556742888808
287,13.0,299.70799,757.94341,0.0,-0.0014350015206766598,-0.0014349761381410309,0.0,0.0,0.0,-0.06397434973977674,-0.08080207201479363,-0.08561944903848172,5.312426197920645e-05,-0.0015576687707799385,-0.009998982095897701
288,13.0,300.00397999999996,785.3330900000001,0.0,-0.0014399830193575491,-0.001439978348327986,0.0,0.0,0.0,-0.059260868341592346,-0.08476555987445943,-0.09469522137669072,0.0036145483366031464,0.0003135687960543307,-0.00014036745139568886
289,13.0,299.84913,833.88769,0.0,-0.001444997508095791,-0.0014449805585151632,0.0,0.0,0.0,-0.07341620933911572,-0.08626441920413533,-0.09380040704112941,-0.0028340797814518977,-0.00046853054460286453,-0.008842034487915863
290,13.0,299.82932,878.93062,0.0,-0.0014499790067766805,-0.0014499827687023403,0.0,0.0,0.0,-0.08439608329174492,-0.09183055360122001,-0.09094632367620331,-0.0019227478480604383,-0.004164084832313176,0.0012751558977730888
291,13.0,300.06549,800.3953799999999,0.0,-0.0014549934955152555,-0.0014549849788892955,0.0,0.0,0.0,-0.08190333909798023,-0.08454763916220233,-0.07684923138717863,0.0009920876522539282,0.0016787565147053684,-0.005016408727580995
292,13.0,300.0953,770.4469,0.0,-0.0014600079842534974,-0.0014599871890764726,0.0,0.0,0.0,-0.07078543312397834,-0.08383067352394331,-0.07958051187973503,0.002134391779923068,0.0018885055675559883,0.0005955342404296535
293,13.0,300.10323,850.4363699999999,0.0,-0.0014649894829343868,-0.0014649564899860135,0.0,0.0,0.0,-0.07152077810580124,-0.09310150866540351,-0.09388913329938602,0.002809053314581977,0.0007327557225173593,-0.005930284121373474
294,13.0,300.08018,870.18604,0.0,-0.0014700039716728508,-0.0014699587001729686,0.0,0.0,0.0,-0.06829595362203583,-0.09481946610395271,-0.1013994028223419,-0.0013817856773466288,-0.004866588149244855,-0.006826722494195055
295,13.0,300.12135,781.0033,0.0,-0.0014749854703538512,-0.0014749609103601458,0.0,0.0,0.0,-0.05624945966013945,-0.09190512779532992,-0.08925091307887932,0.0016356382646499283,-0.0007867336122420621,-0.014048927445521187
296,13.0,299.91542000000004,738.3736,0.0,-0.0014799999590920931,-0.001479963120547212,0.0,0.0,0.0,-0.061235344228457944,-0.08809668442621582,-0.07511510956978414,-0.0001733186790202218,0.001030679521595149,-0.012842676506223488
297,13.0,299.96697,788.80092,0.0,-0.0014849814577732046,-0.001484965330734278,0.0,0.0,0.0,-0.07070100101964553,-0.08960828841564951,-0.07946649388573232,-0.0015560931668744387,0.003769748259720186,-0.014569569797404586
298,13.0,299.85806,835.70678,0.0,-0.0014899959465114465,-0.0014899675409214552,0.0,0.0,0.0,-0.07430688454801852,-0.09560855995058022,-0.08411855104960463,0.00014504398564222685,-0.0006989834786017983,-0.013584745415709986
299,13.0,299.85887,841.45255,0.0,-0.0014949774451923359,-0.0014949697511085214,0.0,0.0,0.0,-0.06349484027570285,-0.0985493957625681,-0.09373632910480541,0.0007376228896377113,0.007559999533888862,-0.013951094095365785
300,13.0,299.85963,795.4074400000001,0.0,-0.001499991933930911,-0.0014999719612954765,0.0,0.0,0.0,-0.05798520065119374,-0.09312868605958571,-0.09067011372544351,0.004191437012137626,0.002817076228873778,-0.005504424020944355
301,13.0,299.99551,791.99717,0.0,-0.001505006422669375,-0.0015049741714826537,0.0,0.0,0.0,-0.05886175115370254,-0.09599722039743801,-0.08588839094627423,0.0006989090249844503,0.0009298486635364182,-0.0065304315476534145
302,13.0,299.95543,862.1431,0.0,-0.0015099879213500422,-0.0015099763816696088,0.0,0.0,0.0,-0.08803867383149061,-0.0917594193911996,-0.08227188146410251,0.0016968527561913283,-0.0066674353228246335,0.0005118544844286046
303,13.0,300.09882999999996,921.29616,0.0,-0.0015150024100886172,-0.001514978591856786,0.0,0.0,0.0,-0.08969737741744191,-0.09508837356124182,-0.09526527790945091,4.376857423462196e-05,-0.004228371802132806,-0.005045795006981196
304,13.0,300.03174,842.56152,0.0,-0.0015199839087695066,-0.001519980802043741,0.0,0.0,0.0,-0.08095453981034102,-0.08440777214489852,-0.09075535237685592,0.005564594155607684,0.0015931615032327984,-0.00027180708523277076
305,13.0,300.06854,806.41976,0.0,-0.0015249983975077486,-0.0015249830122309183,0.0,0.0,0.0,-0.060496490361538736,-0.08648052011921283,-0.09815446025784101,-0.004297937399673396,0.0017011859202439785,-0.005648217585035675
306,13.0,299.9839,872.8536,0.0,-0.001529979896188638,-0.0015299852224179844,0.0,0.0,0.0,-0.07024245772664084,-0.0952717323125879,-0.09981150819312891,-0.0007036725366195724,-0.0029412627955800372,-0.00974911026426227
307,13.0,299.84531,916.6555,0.0,-0.001534994384927102,-0.0015349874326050506,0.0,0.0,0.0,-0.07822985861568592,-0.09694016917899981,-0.1034703543042289,-0.004725560352626496,0.0034763398070630273,-0.0064074795248689935
308,13.0,300.1504,874.21956,0.0,-0.0015399758836079913,-0.0015399567335145914,0.0,0.0,0.0,-0.08879543790717742,-0.09566200889335522,-0.08128347220355413,0.0008134187087306762,0.00015990094761849486,-0.008969121483033372
309,13.0,299.89108999999996,774.12956,0.0,-0.0015449903723463443,-0.0015449589437016575,0.0,0.0,0.0,-0.07297194679302044,-0.0874345183931151,-0.07490959002550093,0.0007572907833537813,-0.0016643188153554786,-0.006143223088188915
310,13.0,299.93766,749.3634400000001,0.0,-0.0015500048610848083,-0.0015499611538888347,0.0,0.0,0.0,-0.06598141377635854,-0.08411967271746532,-0.07768668867432924,0.0003360204323001347,-0.005420456086482364,-0.012900017342632589
311,13.0,300.21162999999996,835.18919,0.0,-0.0015549863597656977,-0.0015549633640759009,0.0,0.0,0.0,-0.057980809225260346,-0.09964975902666551,-0.0962460908339996,-5.9013716377200344e-05,-0.002033941407409388,-0.008706482801462951
312,13.0,300.06205,901.57744,0.0,-0.0015600008485042727,-0.001559965574262967,0.0,0.0,0.0,-0.06693051399927744,-0.10265005742077189,-0.1044764609910239,-0.002178396826466028,-0.0006072669166500785,-0.01156200538683109
313,13.0,299.80028,880.85775,0.0,-0.001564982347185162,-0.0015649677844501442,0.0,0.0,0.0,-0.07088030677059164,-0.10027636504750671,-0.09660208815063381,-0.004884123050175416,-0.003202815374368267,-0.005908424871666134
314,13.0,299.9161,811.59092,0.0,-0.001569996835923626,-0.0015699699946370993,0.0,0.0,0.0,-0.07251057045273614,-0.09323239727357122,-0.08096040754167012,-0.001149424935264409,-0.003151028871032337,-0.012307175854873688
315,13.0,299.90502000000004,830.37558,0.0,-0.0015749783346042934,-0.0015749722048242765,0.0,0.0,0.0,-0.07364371742381903,-0.0923142032052025,-0.08645552222599572,0.000932712787196585,0.004447533137812346,-0.010713808661870591
316,13.0,300.05147999999997,897.86716,0.0,-0.0015799928233427574,-0.0015799744150112316,0.0,0.0,0.0,-0.07852135749720462,-0.09312124373760122,-0.10128659566220871,0.004528858617338545,-0.0007841844472429792,-0.01159449626453769
317,13.0,300.04888,894.3968,0.0,-0.0015850073120813324,-0.0015849766251981867,0.0,0.0,0.0,-0.06775357502900722,-0.0995736132816505,-0.1045471047879959,-0.001133049091123239,0.0019780082793642182,-0.013710746105395286
318,13.0,299.93746,829.12334,0.0,-0.0015899888107619997,-0.0015899788353853639,0.0,0.0,0.0,-0.06363221267126043,-0.09417464893906421,-0.09422593053987531,-0.0009672304690782151,-9.577576850858241e-05,-0.01047367345442109
319,13.0,300.01132,821.8478700000001,0.0,-0.0015950032995004637,-0.00159498104557243,0.0,0.0,0.0,-0.07589969749321693,-0.08965734491924102,-0.08426418852622791,0.0002780793060017907,0.003238007374191447,-0.009893563048868651
320,13.0,300.07724,881.24185,0.0,-0.001599984798181353,-0.0015999832557596072,0.0,0.0,0.0,-0.08624396067136622,-0.09266906365522451,-0.0889624944776646,-0.0032805215245372667,0.004270431509808777,0.001958856028624038
321,13.0,299.91337999999996,942.1270800000001,0.0,-0.001604999286919706,-0.0016049854659467844,0.0,0.0,0.0,-0.09382282418634182,-0.0949863220509201,-0.09757396218280032,-0.0013741300662160785,-0.0032374991279412865,-0.0026329687870287875
322,13.0,299.84081000000003,934.0494,0.0,-0.0016099807856005954,-0.0016099547668561032,0.0,0.0,0.0,-0.08265450800661482,-0.09435979101058631,-0.1069133984090309,-0.002244822159296698,-0.006686449670226204,-0.001143169838422079
323,13.0,299.85411,859.0424800000001,0.0,-0.0016149952743390594,-0.0016149569770432803,0.0,0.0,0.0,-0.06461668444192024,-0.09282657540976973,-0.10368420073783391,0.0033669550004675874,-0.0001672413265104338,-0.007289948421211894
324,13.0,300.21759,869.25042,0.0,-0.0016199767730199488,-0.0016199591872304575,0.0,0.0,0.0,-0.06550871132645644,-0.09493910662276031,-0.1037826075875459,0.001112154962136149,-0.0035675196504367773,-0.006698299022195644
325,13.0,299.95194,882.72293,0.0,-0.0016249912617585238,-0.0016249613974174126,0.0,0.0,0.0,-0.08038902973077952,-0.08844411066025411,-0.0994925897506541,0.0006510434955604903,-0.0018681289053949683,-0.008841614799724442
326,13.0,299.9419,913.1855300000001,0.0,-0.0016300057504967658,-0.0016299636076045898,0.0,0.0,0.0,-0.08424347870743402,-0.0992835967850281,-0.0940585233848535,-4.829518394336355e-05,-0.004281438141670046,-0.00919309859378819
327,13.0,300.00808,847.3341300000001,0.0,-0.0016349872491778772,-0.001634965817791545,0.0,0.0,0.0,-0.07690044206048272,-0.0925960093362646,-0.08807196619002633,0.0034931892443009365,0.0023332210364459876,-0.013624511429134586
328,13.0,300.09792999999996,813.6508,0.0,-0.0016400017379161191,-0.001639968027978722,0.0,0.0,0.0,-0.06849912242608702,-0.09122582365003781,-0.08760458026339892,-0.004044429722704136,0.004532095444782995,-0.015826205611174884
329,13.0,299.83214,870.54836,0.0,-0.0016449832365970085,-0.0016449702381658993,0.0,0.0,0.0,-0.06360581547965524,-0.10191468102819591,-0.0991044673395994,-0.003888995130863936,0.005033802482772625,-0.015981921886542884
330,13.0,299.83218999999997,908.12459,0.0,-0.0016499977253355835,-0.0016499724483528544,0.0,0.0,0.0,-0.07482289938669523,-0.0997944116241916,-0.10142989151785091,-0.005761023934568795,0.0033880770094021667,-0.014834540778055185
331,13.0,299.90365,848.7923,0.0,-0.0016549792240162509,-0.0016549746585398095,0.0,0.0,0.0,-0.07589439312894343,-0.09491040023417723,-0.08720687250639822,-0.001003162252931906,0.0060664461896866246,-0.013014417331922986
332,13.0,300.1648,801.0059,0.0,-0.0016599937127547149,-0.0016599768687269867,0.0,0.0,0.0,-0.07246447365268673,-0.08911454582742093,-0.08190677198931902,0.004805810064521526,-0.0013867963004161388,-0.008093137286005463
333,13.0,300.08171,840.90707,0.0,-0.0016649752114356042,-0.0016649790789140528,0.0,0.0,0.0,-0.07580433647330552,-0.08954075732298472,-0.09026966006067182,0.001103434627800519,-0.002356729148041058,-0.00985398266286237
334,13.0,300.0006,922.79794,0.0,-0.0016699897001739572,-0.00166998128910123,0.0,0.0,0.0,-0.07825334575300393,-0.09858511384184321,-0.1036690729138409,0.007127252473855054,-0.0033264146613165672,-0.008350538275158963
335,13.0,300.12037000000004,953.65131,0.0,-0.0016750041889124212,-0.0016749834992881851,0.0,0.0,0.0,-0.07676276771639533,-0.09887809105525781,-0.1142453267951359,0.0051531922221804746,-0.003300250111934327,-0.01145585224010459
336,13.0,300.09021,872.4037300000001,0.0,-0.0016799856875933106,-0.001679952800197726,0.0,0.0,0.0,-0.07299881210617183,-0.08874898545634292,-0.1034411524363469,0.004418142400111707,0.0015241358666704984,-0.011862751188762387
337,13.0,300.04181,822.17517,0.0,-0.0016850001763316635,-0.0016849550103849031,0.0,0.0,0.0,-0.07202427626599264,-0.08506184534945052,-0.09283460237706191,-0.0008913546133598511,-0.004716778615334805,-0.005310151046146105
338,13.0,299.85325,897.77705,0.0,-0.001689981675012664,-0.0016899572205718583,0.0,0.0,0.0,-0.08610435507258822,-0.09188952475704001,-0.094907925877433,-0.004059347297301386,-0.0006218310898774503,-0.008163206874145793
339,13.0,299.75784,949.7851300000001,0.0,-0.001694996163751017,-0.0016949594307590354,0.0,0.0,0.0,-0.09267806435586282,-0.0946512392296,-0.1013816608130909,0.003764020559554906,0.0028733105961736773,-0.003449694369183327
340,13.0,300.05672000000004,891.7768699999999,0.0,-0.0016999776624321283,-0.0016999616409459906,0.0,0.0,0.0,-0.07556692994837533,-0.09406713499745341,-0.1014438338392269,0.0008757750926047721,0.0027921362935623977,-0.01020640746229399
341,13.0,300.10517999999996,848.5926699999999,0.0,-0.0017049921511703703,-0.0017049638511331677,0.0,0.0,0.0,-0.06417985205880825,-0.09494969204655501,-0.0988214372024165,-0.0007797931226345892,0.0016671046451804184,-0.007468171919726182
342,13.0,300.13738,874.35997,0.0,-0.0017100066399087233,-0.001709966061320345,0.0,0.0,0.0,-0.07285895623461913,-0.09952257688736359,-0.09340206600281621,-0.006163845260849165,0.0013073829251536487,-0.017040671982283383
343,13.0,300.25083,962.94531,0.0,-0.0017149881385898347,-0.0017149682715073,0.0,0.0,0.0,-0.08639529261355151,-0.10242012057557891,-0.10389591934622891,-0.002393630500782938,0.003280977993707317,-0.01037906831908429
344,13.0,300.21058,952.54931,0.0,-0.0017200026273280766,-0.0017199704816944772,0.0,0.0,0.0,-0.08584386873688023,-0.1034885522760249,-0.1002187860973241,-0.0038004617954263764,-0.0015983043554403584,-0.012506716210316788
345,13.0,300.02013,865.8367699999999,0.0,-0.001724984126008966,-0.0017249726918814323,0.0,0.0,0.0,-0.07216362449924522,-0.0942855481492591,-0.0967435844740984,0.001180542352460459,-0.003818404428197176,-0.01005516296359232
346,13.0,300.07195,829.21598,0.0,-0.00172999861474743,-0.0017299749020686095,0.0,0.0,0.0,-0.05781502327039854,-0.09339578081244591,-0.1008501503406349,-0.0005818540468545234,-0.005396670344359895,-0.013802434093694185
347,13.0,299.92637,876.25215,0.0,-0.0017349801134282083,-0.0017349771122556756,0.0,0.0,0.0,-0.06684620753795703,-0.10018261509525431,-0.09932994993735281,0.004564041193935796,0.0004232935379258196,-0.014243924387515884
348,13.0,299.86832999999996,903.77116,0.0,-0.0017399946021666723,-0.0017399793224426308,0.0,0.0,0.0,-0.07794542614036463,-0.09361912139948791,-0.1031593169210319,0.0017452218709149883,2.904473102999177e-05,-0.00820134003503424
349,13.0,299.93098,891.21615,0.0,-0.0017449761008475617,-0.001744981532629808,0.0,0.0,0.0,-0.08157667739824122,-0.09743386921072421,-0.09189691033701891,0.0012751099975435588,-0.003480517234575307,-0.012942621469587289
350,13.0,299.82751,881.64981,0.0,-0.0017499905895859147,-0.0017499508335393488,0.0,0.0,0.0,-0.07884663307080683,-0.09466907851086061,-0.09448381687582671,0.002379051453044098,0.0016925438088160685,-0.007765398906710202
351,13.0,300.1133,954.1242199999999,0.0,-0.0017550050783243787,-0.001754953043726526,0.0,0.0,0.0,-0.09013809662793751,-0.09993138682571,-0.09996045494457881,-0.0008351218773926122,-0.0013562631232277487,-0.01044675038601399
352,13.0,300.18609,1018.0415,0.0,-0.001759986577005268,-0.001759955253913481,0.0,0.0,0.0,-0.08245377910880441,-0.11135355153973989,-0.11565185978894989,0.0007591330037580943,0.005972123143177665,-0.006583727287013294
353,13.0,299.82167000000004,970.9500800000001,0.0,-0.00176500106574351,-0.0017649574641004362,0.0,0.0,0.0,-0.08411287279604422,-0.1017413139360859,-0.1092903919511219,-0.0074051893067602825,0.0034549479696268167,-0.0073372058992508425
354,13.0,300.20086000000003,950.5804800000001,0.0,-0.0017699825644246214,-0.0017699596742876134,0.0,0.0,0.0,-0.08172330684671242,-0.10161956180406989,-0.1056098622878819,-0.007466936869179293,0.002209384648974288,-0.008144653454214713
355,13.0,300.21305,904.1419099999999,0.0,-0.0017749970531629744,-0.0017749618844747905,0.0,0.0,0.0,-0.08541026456858683,-0.091989593336916,-0.097436704284504,-0.0006934031252660603,0.004404200585360756,-0.009113144142972303
356,13.0,300.05556,900.0758199999999,0.0,-0.0017799785518440858,-0.0017799640946617457,0.0,0.0,0.0,-0.07956093386130282,-0.09413717793711611,-0.09990246461485561,-0.0015210943938453285,0.004739686882870676,-0.007883658061656473
357,13.0,300.13628,939.71511,0.0,-0.0017849930405823278,-0.0017849663048489228,0.0,0.0,0.0,-0.08469581888332652,-0.099571622245204,-0.10138249167817291,0.006823235090000873,-0.0039186103034617266,-0.0095600847090819
358,13.0,299.96832,938.5970599999999,0.0,-0.0017899745392632171,-0.001789968515035989,0.0,0.0,0.0,-0.07018733590795073,-0.1033310932104849,-0.11179164035297591,-0.004458261125896115,-0.007251884363980263,-0.012053222955810489
359,13.0,299.91426,897.15037,0.0,-0.0017949890280016811,-0.0017949707252230551,0.0,0.0,0.0,-0.07343363318783534,-0.10071154076670522,-0.09856613566747022,0.002295018670575708,-0.006385841670308504,-0.013734339633973787
360,13.0,299.9501,943.63451,0.0,-0.0018000035167400341,-0.0017999729354102323,0.0,0.0,0.0,-0.07757299796010883,-0.1047353058615699,-0.1045330206116059,-0.0006540795474976253,-0.000956924702311115,-0.01041482794161349
361,13.0,299.8286,955.0489699999999,0.0,-0.0018049850154209235,-0.0018049751455972984,0.0,0.0,0.0,-0.08583964855021373,-0.1040230619687769,-0.1004483227087276,0.0006400705947950494,0.0010478856228682588,-0.013859265265302989
362,13.0,300.02823,929.7434800000001,0.0,-0.0018099995041593875,-0.0018099773557842536,0.0,0.0,0.0,-0.07853595032514483,-0.10470798863887391,-0.09937486731428581,-0.004287051445899036,-0.00025618148186314375,-0.010476593641209292
363,13.0,300.14165,907.5595199999999,0.0,-0.0018149810028401658,-0.0018149795659712087,0.0,0.0,0.0,-0.07684519459878023,-0.0971566510761149,-0.10187358360413991,-0.0002398086268097688,0.003064997047441657,-0.014031265483028087
364,13.0,299.84992,865.90001,0.0,-0.0018199954915786298,-0.0018199817761583859,0.0,0.0,0.0,-0.06230969128298774,-0.0985332445559741,-0.10236904263803791,0.0008851099327285492,0.007729444334861763,-0.007655109977050533
365,13.0,300.16452000000004,867.75665,0.0,-0.0018249769902595192,-0.0018249510770681487,0.0,0.0,0.0,-0.07370038951516213,-0.09595504791502592,-0.0941209152730111,0.003938716529171057,-0.0016062020320197984,-0.01031652646991189
366,13.0,300.05172999999996,959.59136,0.0,-0.0018299914789977612,-0.0018299532872551039,0.0,0.0,0.0,-0.08357355523156772,-0.0998270798206657,-0.1082911753650069,-0.0012349138594515087,0.0004948503542979275,-0.008754291690206322
367,13.0,300.01661,999.04799,0.0,-0.0018350059677363362,-0.001834955497442059,0.0,0.0,0.0,-0.09407822299329772,-0.10447193176307691,-0.10513548898856491,-4.5967970365435454e-05,-0.003983599455600655,-0.007226224615797843
368,13.0,300.14804,945.29565,0.0,-0.0018399874664172255,-0.0018399577076292362,0.0,0.0,0.0,-0.08682645079610352,-0.09543171234437672,-0.1050881094138889,0.0035488242741666867,0.002994605549744557,-0.008183996030422523
369,13.0,299.87,943.53841,0.0,-0.0018450019551554675,-0.0018449599178161913,0.0,0.0,0.0,-0.08156039649563442,-0.0994091607639203,-0.1058425653058479,0.0021664240606344078,-0.0018027478281173583,-0.005880207477581295
370,13.0,300.03764,1003.1669999999999,0.0,-0.001849983453836579,-0.0018499621280033685,0.0,0.0,0.0,-0.07977869346679402,-0.1094494620843209,-0.1157095542496439,0.0007359454743621633,-0.008886361444015592,-0.012387113181762888
371,13.0,300.14265,983.76439,0.0,-0.001854997942575043,-0.0018549643381904346,0.0,0.0,0.0,-0.08566094466982702,-0.10541273448092689,-0.1079661247329269,0.0005024425866347225,0.0017813013765007584,-0.003586253834185697
372,13.0,300.01517,916.57872,0.0,-0.0018599794412559323,-0.0018599665483776118,0.0,0.0,0.0,-0.07582802727389362,-0.1033508009249299,-0.0994382136840376,0.0006239272814193284,0.006386417095040294,-0.012936450776478288
373,13.0,299.84637999999995,914.6903,0.0,-0.0018649939299942853,-0.001864968758564678,0.0,0.0,0.0,-0.08005692991775383,-0.10254627021302891,-0.09543981327892621,0.007784874586882303,-0.0018794210711344183,-0.005077468191857095
374,13.0,300.03188,939.8381400000001,0.0,-0.0018699754286751746,-0.001869970968751744,0.0,0.0,0.0,-0.08127835326404892,-0.1009882715280164,-0.1034207050493289,-0.0026346425748689775,-0.0006550880657196584,-0.013417587520212786
375,13.0,300.00543,983.58139,0.0,-0.0018749899174136386,-0.0018749731789389212,0.0,0.0,0.0,-0.07984867865120102,-0.1118573800194639,-0.1072781279150269,0.0019784266503305083,-0.002092701503233558,-0.012032185857234288
376,13.0,300.01652,985.5210400000001,0.0,-0.0018800044061519916,-0.0018799753891258764,0.0,0.0,0.0,-0.08167722828516483,-0.1080191177131569,-0.1098774386615589,-0.0028491314090373773,0.0022832999265441577,-0.016723320024463185
377,13.0,300.12358,966.8706099999999,0.0,-0.001884985904832881,-0.0018849775993130535,0.0,0.0,0.0,-0.08431417418016113,-0.10897315347731289,-0.1006171909703936,-0.006450171500607364,0.0004066297787687346,-0.011397728161368189
378,13.0,300.16116,934.4418900000001,0.0,-0.001890000393571345,-0.0018899798095000087,0.0,0.0,0.0,-0.07891841677414133,-0.1078531878767809,-0.09727539689508422,-0.0007265045570854174,-0.0015713587928810387,-0.015794748248570287
379,13.0,300.13694,991.313,0.0,-0.0018949818922520123,-0.0018949491104095495,0.0,0.0,0.0,-0.09109338578246721,-0.1065619019493409,-0.1036791142223319,-0.005518949974377954,0.002231379370219998,-0.008295656495417553
380,13.0,300.08187000000004,1012.3322,0.0,-0.0018999963809905873,-0.0018999513205967267,0.0,0.0,0.0,-0.08531527845121242,-0.1126375319339589,-0.10977090554604489,0.0024003783411488976,0.006336139422428274,-0.008554747585737852
381,13.0,300.1071,937.34917,0.0,-0.0019049778796714767,-0.0019049535307836818,0.0,0.0,0.0,-0.07165555658110283,-0.1063891124097879,-0.1068860710538339,0.0026262535733160472,-0.005722664514933014,-0.009074182548802092
382,13.0,299.80147999999997,914.16808,0.0,-0.0019099923684097186,-0.001909955740970859,0.0,0.0,0.0,-0.06971310446364773,-0.1077026189119209,-0.1004685502204739,0.0013829917489406587,-0.003970674538650067,-0.009525450604763782
383,13.0,299.78288,1005.3598,0.0,-0.00191497386709083,-0.001914957951157814,0.0,0.0,0.0,-0.08836372345032051,-0.11331875010868989,-0.10392179775378291,1.8962066736160285e-05,-0.002078663227073088,-0.007493342470760322
384,13.0,299.56842,1028.1143,0.0,-0.001919988355829294,-0.0019199601613448802,0.0,0.0,0.0,-0.09053683283378972,-0.11478618956601488,-0.10719806089212491,0.0023172711626468574,0.004609363566933766,-0.00965175283767884
385,13.0,299.99804,967.4229300000001,0.0,-0.001925002844567647,-0.0019249623715320574,0.0,0.0,0.0,-0.09192713052125141,-0.1064053345438889,-0.095739946064547,-0.0027116382340678573,0.0013732125682505286,-0.007809189650857013
386,13.0,299.81536,929.3158599999999,0.0,-0.0019299843432485364,-0.0019299645817192346,0.0,0.0,0.0,-0.07359309139582264,-0.1068105433913799,-0.1020851806225229,-0.0001881548389719368,-0.006741907583974473,-0.012064181255641989
387,13.0,300.03963999999996,972.7121800000001,0.0,-0.0019349988319870004,-0.0019349667919061897,0.0,0.0,0.0,-0.08014369553706692,-0.1076824147049269,-0.1078541099343719,0.00010863734212917088,-0.00013176264783646088,-0.01112924829562129
388,13.0,299.98881,1026.8148,0.0,-0.0019399803306678898,-0.0019399690020933669,0.0,0.0,0.0,-0.08133307890194993,-0.1151896961533379,-0.1156032744466549,-0.00016811486968664583,0.003196843176953857,-0.011772542545609489
389,13.0,299.94202,1044.0326,0.0,-0.0019449948194062427,-0.001944971212280322,0.0,0.0,0.0,-0.09154085729162922,-0.1158664965576329,-0.1099524900964659,0.001171201706413609,0.0004890299214834956,-0.013089818338114489
390,13.0,299.97643999999997,985.83535,0.0,-0.0019499763180871321,-0.0019499734224674992,0.0,0.0,0.0,-0.08098941689203312,-0.1108737776173899,-0.1078061325421369,-0.0001159655417549079,-0.0010295108389298088,-0.01038889785830439
391,13.0,300.21704,938.10766,0.0,-0.001954990806825596,-0.0019549756326546763,0.0,0.0,0.0,-0.08388806096985701,-0.10722303750708988,-0.09405021169428321,0.006371606722303624,0.0008679156054216011,-0.012877581958918386
392,13.0,299.92905,1001.0672,0.0,-0.001960005295563838,-0.0019599778428416315,0.0,0.0,0.0,-0.07523846770320863,-0.1145281552955489,-0.11453280611350788,0.0004769350894123286,0.0016628678412122786,-0.01095183529586199
393,13.0,300.06628,1032.4147,0.0,-0.0019649867942448385,-0.0019649471437511723,0.0,0.0,0.0,-0.08615758008709111,-0.11752985805429389,-0.11014084315755489,-0.0014553378060806585,-0.001082197108354539,-0.01085843896789449
394,13.0,300.16371000000004,989.69341,0.0,-0.0019700012829833025,-0.0019699493539383495,0.0,0.0,0.0,-0.07803814257751503,-0.1121797252737769,-0.1106242141177599,-0.003529601805194577,-0.003270455391418817,-0.006724297094586454
395,13.0,300.01777999999996,979.92991,0.0,-0.00197498278166397,-0.0019749515641253046,0.0,0.0,0.0,-0.08699044228503823,-0.10907248238461591,-0.1018112991204929,0.0030321947979793274,0.003511075945666216,-0.015897155409677087
396,13.0,299.83114,1036.4987,0.0,-0.001979997270402434,-0.0019799537743124818,0.0,0.0,0.0,-0.09429089709653701,-0.1153086415825769,-0.1054701756290959,0.0012998909539142487,0.004385116222377276,-0.006880694375346663
397,13.0,299.93368,1025.5798,0.0,-0.001984978769083545,-0.001984955984499437,0.0,0.0,0.0,-0.09744419625574341,-0.1094701222538599,-0.1048363471615419,-0.005984132892637934,-0.0018512861556077183,-0.013468771849014289
398,13.0,299.88829,1001.1165,0.0,-0.001989993257821898,-0.001989958194686614,0.0,0.0,0.0,-0.07546468794703483,-0.11302806892000189,-0.11582166024070789,-0.004461155778781796,-0.006406148722187655,-0.010490236040555689
399,13.0,300.06252,997.4817199999999,0.0,-0.0019949747565027875,-0.00199496040487368,0.0,0.0,0.0,-0.08322752525616721,-0.10761983637875089,-0.1123621710867829,0.00024967037725054776,-8.684496287543051e-05,-0.008009001253351881
400,13.0,299.88116,1017.7423,0.0,-0.0019999892452412515,-0.0019999626150606353,0.0,0.0,0.0,-0.08134504639888102,-0.1111164611488409,-0.11690672950779589,0.00048308425095670355,0.001115708835536889,-0.008203805272527542
401,13.0,299.96594,1035.7358,0.0,-0.0020050037339796045,-0.0020049648252478125,0.0,0.0,0.0,-0.08965948895645261,-0.11354938609645189,-0.1116289326519179,0.0028319968432213277,-0.0026637242712891176,-0.008537538951339492
402,13.0,299.99892,1036.9574,0.0,-0.002009985232660494,-0.0020099670354347676,0.0,0.0,0.0,-0.08435429685762093,-0.11859265608418389,-0.11226221396441789,0.0010826024083945389,-0.006157588340156655,-0.010139853142725589
403,13.0,300.10533,1010.7593,0.0,-0.002014999721398958,-0.002014969245621945,0.0,0.0,0.0,-0.08580118760291791,-0.1139935341452859,-0.1074508667920749,0.006702527416187953,0.002461760424256838,-0.008622358319860511
404,13.0,300.10672999999997,997.74845,0.0,-0.0020199812200798473,-0.002019971455809122,0.0,0.0,0.0,-0.07818714303122022,-0.11486222385351888,-0.1102412461099639,0.005959595622916295,-0.0008476155247031391,-0.016726976844074086
405,13.0,300.17633,1017.6987,0.0,-0.002024995708818089,-0.002024973665996077,0.0,0.0,0.0,-0.08450892794213181,-0.1139334382818549,-0.11091262562622389,-0.0007397690344095193,0.0032714675269437075,-0.007954968273219242
406,13.0,300.14408,1006.1788,0.0,-0.0020299772074989786,-0.0020299758761832543,0.0,0.0,0.0,-0.08352675016969842,-0.11023464985181289,-0.11209181569510089,-0.0053625344551159445,-0.0004440263473644886,-0.011655261886284789
407,13.0,300.05123,1010.7955,0.0,-0.0020349916962375536,-0.0020349780863702094,0.0,0.0,0.0,-0.08682277877774111,-0.11294456697926088,-0.10748925883836388,-0.002311899923866758,0.008637665083821171,-0.00960534790827403
408,13.0,299.96479,1016.6489999999999,0.0,-0.002039973194918221,-0.0020399473872797502,0.0,0.0,0.0,-0.09333242937644359,-0.1104048860011139,-0.10529859185716191,-0.0016970850944392584,0.002944811805380297,-0.016074343467914184
409,13.0,299.7189,1051.9111,0.0,-0.002044987683656685,-0.0020449495974669274,0.0,0.0,0.0,-0.08957134633025361,-0.11994988432813189,-0.1102334947466989,0.0005657565019858194,-0.0012914699336581588,-0.014198965467328786
410,13.0,299.99712999999997,1043.6678,0.0,-0.00205000217239526,-0.0020499518076538825,0.0,0.0,0.0,-0.08526805998330232,-0.11610752849142089,-0.1158733765258119,0.00020317839952964682,-0.008828171504022691,-0.014378038170751884
411,13.0,300.02505,1027.317,0.0,-0.0020549836710761493,-0.0020549540178410597,0.0,0.0,0.0,-0.08124921421767313,-0.11526062366033789,-0.11576888004299889,0.004906763718359876,0.0016978455386393082,-0.006923168299663513
412,13.0,300.08797000000004,1029.4489,0.0,-0.0020599981598143913,-0.002059956228028126,0.0,0.0,0.0,-0.08627412816659351,-0.11427819662837989,-0.1123744516779949,0.008708418615779001,0.0014064303515788686,-0.009560246221147841
413,13.0,299.99237,999.55989,0.0,-0.0020649796584955027,-0.002064958438215303,0.0,0.0,0.0,-0.08272780854534902,-0.11297426533969189,-0.1081391777175059,-0.000997249046938318,0.00013173037582077588,-0.003909366524124437
414,13.0,300.19575,993.5743699999999,0.0,-0.0020699941472337446,-0.002069960648402258,0.0,0.0,0.0,-0.08718325972606783,-0.11276991305952389,-0.1020686241158889,-0.004347246607839836,9.906108706306812e-07,-0.013531969271001388
415,13.0,300.09671000000003,1079.7247,0.0,-0.002074975645914745,-0.0020749628585892133,0.0,0.0,0.0,-0.09120058359004682,-0.11988400280662989,-0.11712475053181289,-0.008798605980679802,0.0060981149162620835,-0.008289382248148331
416,13.0,300.04057,1099.9732,0.0,-0.002079990134653209,-0.0020799650687763904,0.0,0.0,0.0,-0.0947600379723376,-0.1224665746615099,-0.11713776066309689,-0.001111448929466469,0.002676394659814588,-0.017293170867453085
417,13.0,299.90022,1008.2148,0.0,-0.002085004623391451,-0.0020849672789635676,0.0,0.0,0.0,-0.08617914610221951,-0.11035784079897089,-0.1099351432547539,-0.0006517812834883044,-0.0010864403971233192,-0.01270785446116759
418,13.0,300.05349,1025.4001,0.0,-0.0020899861220723404,-0.0020899694891505227,0.0,0.0,0.0,-0.08508201510594111,-0.11344375477352689,-0.11317023804153288,-0.0008454006511770481,-0.003316597787722716,-0.013249393069863289
419,13.0,299.91035,1056.891,0.0,-0.0020950006108109154,-0.0020949716993377,0.0,0.0,0.0,-0.09163161916933672,-0.11519051688591889,-0.11444634548247488,8.732833383563551e-05,0.0021066382517340083,-0.01126454758147429
420,13.0,300.0282,1041.4529,0.0,-0.0020999821094918047,-0.002099973909524766,0.0,0.0,0.0,-0.08633940477778582,-0.1148217546445249,-0.11541451608552589,0.0035573753957356164,-0.00029538526307225577,-0.014379280415374488
421,13.0,300.00858,1035.1317,0.0,-0.0021049965982300467,-0.002104976119711832,0.0,0.0,0.0,-0.08281595522454842,-0.11630673346108088,-0.1155315059420719,-0.004375661585694176,-0.002121157011091898,-0.014452079395309186
422,13.0,299.76432,1011.5701,0.0,-0.002109978096910936,-0.002109945420621373,0.0,0.0,0.0,-0.07975241077245013,-0.11176782897562589,-0.1159718036405259,-0.0024820712251613576,-0.004735743110831456,-0.01038861617477659
423,13.0,299.87352999999996,1027.8980000000001,0.0,-0.002114992585649511,-0.002114947630808439,0.0,0.0,0.0,-0.08667847777799972,-0.1130166597238759,-0.1127602061235659,0.0029898282781730774,0.003767144105638176,-0.00970130856959461
424,13.0,299.9473,1084.2361,0.0,-0.0021199740843304005,-0.0021199498409955053,0.0,0.0,0.0,-0.09040076955736132,-0.11806891723999488,-0.12111100814772588,0.005086829204230955,-0.004184233310551675,-0.007223946322947992
425,13.0,299.7891,1065.472,0.0,-0.0021249885730686424,-0.0021249520511826825,0.0,0.0,0.0,-0.09469039830621472,-0.11668932656633989,-0.1124971562651049,0.002989300577520997,-0.002958413674722697,-0.008298592792882342
426,13.0,299.94971,1013.2598,0.0,-0.0021300030618071064,-0.0021299542613697486,0.0,0.0,0.0,-0.08310067647614822,-0.11198822100487689,-0.1129167836615189,-0.003141211592138447,-0.0031070597948679272,-0.007806035403295712
427,13.0,300.01403999999997,1037.4912,0.0,-0.002134984560487996,-0.002134956471556926,0.0,0.0,0.0,-0.08784254508913422,-0.11380409690658988,-0.11372478982126288,-0.00025137314404359774,0.007147591544437362,-0.016592664463818484
428,13.0,299.95659,1134.6271,0.0,-0.0021399990492263488,-0.002139958681743881,0.0,0.0,0.0,-0.096003958510603,-0.12261026365819087,-0.1262840754732679,-0.004623403768269425,0.0025141429213015876,-0.016462869152508684
429,13.0,300.29663,1119.0361,0.0,-0.00214498054790746,-0.002144960891930836,0.0,0.0,0.0,-0.1033114462910459,-0.11755498665677389,-0.11929260925326388,-0.004449748001205935,-0.0036977244161119863,-0.014761682016364587
430,13.0,300.15465,1013.9727,0.0,-0.002149995036645702,-0.0021499631021180132,0.0,0.0,0.0,-0.08073678831085063,-0.1154450655760409,-0.11204053510753989,-0.0020540226058412482,-0.0041563912243038756,-0.01873100214360598
431,13.0,300.07262000000003,988.8982300000001,0.0,-0.0021549765353265915,-0.0021549653123049684,0.0,0.0,0.0,-0.08285502209540402,-0.1081201387481269,-0.1096252103141659,-0.003377593417242517,0.003974731896025496,-0.012047917578286889
432,13.0,300.094,1060.2656,0.0,-0.0021599910240651665,-0.0021599675224921455,0.0,0.0,0.0,-0.08006693981549172,-0.1231920819981119,-0.11903525386036488,0.0018143772034900883,-0.0027215618028972374,-0.016830305049521783
433,13.0,299.9356,1031.2345,0.0,-0.002164972522746056,-0.0021649697326792117,0.0,0.0,0.0,-0.08380933549008741,-0.11410255985604588,-0.11555763766215088,-3.9360153057294665e-05,-0.0032113345785590467,-0.009723216860606792
434,13.0,299.87757999999997,1037.9604,0.0,-0.002169987011484298,-0.002169971942866389,0.0,0.0,0.0,-0.08426263724032482,-0.11713487290031188,-0.11411653257492489,-6.181035048795664e-05,-0.0004974149612285345,-0.011375033385628388
435,13.0,299.83166,1051.1017,0.0,-0.002175001500222762,-0.002174974153053455,0.0,0.0,0.0,-0.09073879688347201,-0.11432150293765389,-0.11444836185017389,0.004736685129449425,0.005867419552044224,-0.0073803617408849925
436,13.0,299.78316,1053.7681,0.0,-0.002179982998903651,-0.002179943453962885,0.0,0.0,0.0,-0.08851368750487082,-0.1164525198854689,-0.1153529915394539,0.0006292321117878744,0.004318283563006405,-0.014092393848310986
437,13.0,299.90531,1129.2207,0.0,-0.002184997487642004,-0.002184945664150062,0.0,0.0,0.0,-0.09690739155151491,-0.12453920813856287,-0.12180828633654188,-0.0017373220665103384,-0.003468500898989387,-0.012211940477974689
438,13.0,299.97646000000003,1145.3893,0.0,-0.0021899789863228936,-0.002189947874337239,0.0,0.0,0.0,-0.09426234168221882,-0.1238406937846249,-0.13006673061408688,-0.000949867962519669,-0.007086313623439703,-0.012979107592438187
439,13.0,299.96062,1052.6982,0.0,-0.0021949934750613576,-0.0021949500845241943,0.0,0.0,0.0,-0.08351429732596942,-0.11604824322806989,-0.12043143143815689,0.0008936962140759492,0.005228339206571905,-0.01804542091394438
440,13.0,300.15252000000004,1023.2738,0.0,-0.002199974973742247,-0.0021999522947113714,0.0,0.0,0.0,-0.08819809556247432,-0.11092711510265389,-0.1119244774410859,-0.0003963677236109486,-0.0008558703314128252,-0.01950639786213158
441,13.0,300.18124,1070.0417,0.0,-0.0022049894624806,-0.0022049545048983266,0.0,0.0,0.0,-0.09155668729794152,-0.1160520935784499,-0.11765717292935889,0.001173306834821369,-0.0027104100736216477,-0.017494288853301884
442,13.0,300.26095,1041.9072,0.0,-0.002210003951219064,-0.0022099567150855037,0.0,0.0,0.0,-0.09284864399694773,-0.1090064286105969,-0.11485870787567189,0.0013605040815212986,-0.0001096993903539869,-0.016497203132147184
443,13.0,300.17521,1041.6081,0.0,-0.0022149854498999533,-0.002214958925272459,0.0,0.0,0.0,-0.08208896651630022,-0.11733915425297288,-0.1171947357162199,0.005463034780859555,0.0037396045758702366,-0.0101189509077377
444,13.0,300.00603,1082.2311,0.0,-0.0022199999386384173,-0.002219961135459414,0.0,0.0,0.0,-0.08583390646189701,-0.12292186846144387,-0.12021543691433988,0.0025321551643542575,0.003367406302062127,-0.013963569230596986
445,13.0,299.86595,1134.5341,0.0,-0.0022249814373193066,-0.002224963345646591,0.0,0.0,0.0,-0.09560786790076191,-0.12177321775058088,-0.1274889514321799,-0.004859092631630106,-0.008473090672103941,-0.004227247499821846
446,13.0,299.79386,1130.0602,0.0,-0.0022299959260576596,-0.0022299655558336573,0.0,0.0,0.0,-0.0977435903820413,-0.1239953360148869,-0.1217711405878759,0.0005434951541087955,-0.0021699897890613182,-0.013193256987823088
447,13.0,299.84325,1134.9959,0.0,-0.002234977424738549,-0.0022349677660208345,0.0,0.0,0.0,-0.0983231471477391,-0.12055358887021289,-0.12613367876092488,-0.0011957769730139988,0.004561803735064976,-0.005447632872714505
448,13.0,299.84851000000003,1121.7768,0.0,-0.002239991913477013,-0.0022399699762080116,0.0,0.0,0.0,-0.09691879365489021,-0.12486287061800588,-0.11921045493515588,0.005237353484761544,0.0029045240694792075,-0.015662331659251787
449,13.0,299.99755,1084.0547,0.0,-0.0022449734121579024,-0.0022449721863949668,0.0,0.0,0.0,-0.08896380764979422,-0.11976589837497388,-0.12079586710162388,-0.005795622473808405,-0.004255092321844916,-0.012753234893396288
450,13.0,299.90103999999997,1059.4266,0.0,-0.0022499879008962553,-0.0022499414873045076,0.0,0.0,0.0,-0.08006168814022342,-0.11831948385722389,-0.12365806558660089,0.0021564626975762976,-0.0027295665800122475,-0.02221175840387988
451,13.0,299.98892,1051.7046,0.0,-0.0022550023896347193,-0.0022549436974916848,0.0,0.0,0.0,-0.088672283437023,-0.11049273478478389,-0.12052692012758089,0.004025517814887677,0.0009272923247266271,-0.014430054377885485
452,13.0,300.09832,1044.965,0.0,-0.0022599838883156087,-0.00225994590767864,0.0,0.0,0.0,-0.08389045224009302,-0.11954904258857188,-0.11420378354103589,-0.0015310433952522185,0.004203125561316196,-0.018164580138954483
453,13.0,299.9947,1079.8926,0.0,-0.0022649983770539617,-0.002264948117865817,0.0,0.0,0.0,-0.09440318851236931,-0.12321302587767889,-0.11064418527723088,-0.0023982314668370176,-0.004514645859510856,-0.015183958048539984
454,13.0,300.00352000000004,1134.2758,0.0,-0.002269979875734851,-0.002269950328052772,0.0,0.0,0.0,-0.09732941427116532,-0.1244703071317629,-0.12299181311584689,-0.0011275107674016487,0.0003293895919232217,-0.012928706505963988
455,13.0,299.95695,1135.4245,0.0,-0.002274994364473315,-0.0022749525382399494,0.0,0.0,0.0,-0.09304874062669571,-0.1296441141298779,-0.1224478396671609,0.00013833739468783787,0.008777679731664541,-0.013952499473254486
456,13.0,299.81587,1136.9338,0.0,-0.0022799758631542044,-0.0022799547484271265,0.0,0.0,0.0,-0.08743499259416192,-0.12692393277891686,-0.13124055045743388,0.002016286638991998,-0.0006492403460800334,-0.00968095196978557
457,13.0,299.93116000000003,1168.9448,0.0,-0.0022849903518925574,-0.0022849569586140817,0.0,0.0,0.0,-0.1015368501984069,-0.1265970380316549,-0.12719615255078287,-0.007427533396640472,-0.004514792172825296,-0.013449909185152688
458,13.0,300.12807999999995,1134.7069,0.0,-0.002289971850573558,-0.002289959168801259,0.0,0.0,0.0,-0.094409305503223,-0.1208215631241599,-0.1296916862220729,-7.483307140444913e-05,0.0016093101767015482,-0.006999137131211054
459,13.0,300.17652000000004,1089.4027,0.0,-0.0022949863393119108,-0.002294961378988214,0.0,0.0,0.0,-0.09358225733434972,-0.12072817186244289,-0.11684078719128789,0.005319292588548305,0.005157310171911886,-0.01636587072043568
460,13.0,299.92984,1101.3114,0.0,-0.0023000008280503748,-0.00229996358917528,0.0,0.0,0.0,-0.0958339189318214,-0.1172342828676229,-0.12170295898864689,-0.0036482296818522364,0.008775897424738643,-0.011783084399649887
461,13.0,299.99467999999996,1114.2943,0.0,-0.002304982326731264,-0.0023049657993624573,0.0,0.0,0.0,-0.09430727425790332,-0.12147114763076888,-0.1229392254356569,-0.004509515976904576,-0.005929955828341074,-0.02144651646460638
462,13.0,299.95508,1107.1705,0.0,-0.002309996815469617,-0.0023099680095494124,0.0,0.0,0.0,-0.08814395862288141,-0.12457476308457188,-0.12383345917891089,-0.004767896069629706,-0.0014217759230183585,-0.016779893830546583
463,13.0,299.92256000000003,1120.1778,0.0,-0.0023149783141505065,-0.0023149702197365896,0.0,0.0,0.0,-0.09298859815376011,-0.12339356678049689,-0.12412389718757487,-0.0001072633547285689,0.001046972076578099,-0.01742489642020338
464,13.0,299.92762,1180.5345,0.0,-0.0023199928028889705,-0.0023199724299235447,0.0,0.0,0.0,-0.0959931511850364,-0.13037493089700386,-0.13248493303774486,0.0010923867566601788,-0.002236615441436758,-0.008361567299847442
465,13.0,299.94017,1149.2827,0.0,-0.00232497430156986,-0.0023249417308330855,0.0,0.0,0.0,-0.09731239774898591,-0.12780700050606889,-0.12423384495592588,-8.882555473989972e-05,-0.001158865893071159,-0.015154324536115383
466,13.0,299.89588,1120.9128,0.0,-0.002329988790308213,-0.0023299439410202627,0.0,0.0,0.0,-0.09186535063615421,-0.12535733666680587,-0.12350680761167289,0.0013020131049236887,0.0038928339301927965,-0.007740460896574013
467,13.0,300.15514,1106.2196,0.0,-0.002335003279046677,-0.002334946151207218,0.0,0.0,0.0,-0.08684374190906001,-0.12757491557066386,-0.12184446949761288,0.004839129679484915,0.006873587641795283,-0.016102382124681385
468,13.0,300.05252,1108.788,0.0,-0.002339984777727566,-0.002339948361394395,0.0,0.0,0.0,-0.09217335840155222,-0.12192702911576088,-0.12294348108607689,-0.005464374601466785,0.0035807019329127665,-0.01027144291996249
469,13.0,299.98512999999997,1141.7916,0.0,-0.002344999266465919,-0.002344950571581572,0.0,0.0,0.0,-0.0978254427516195,-0.12505179109915088,-0.1241989080924779,1.927816530360678e-06,-0.006308930212192933,-0.019539936440441583
470,13.0,299.94276,1144.2961,0.0,-0.0023499807651469196,-0.0023499527817685273,0.0,0.0,0.0,-0.09461441164146542,-0.12562092354781987,-0.12760211120334788,-0.0031259035109526567,-0.0016586852461244882,-0.013891033695688287
471,13.0,299.93112,1066.5515,0.0,-0.0023549952538852725,-0.0023549549919557045,0.0,0.0,0.0,-0.08263376779031792,-0.12152036118812588,-0.12005090536310188,0.0023043834319749377,0.0021990293342772976,-0.01889366424840948
472,13.0,299.93307000000004,1107.0415,0.0,-0.002359976752566162,-0.0023599572021426596,0.0,0.0,0.0,-0.08756065181856351,-0.12548973805737287,-0.12346258937730889,0.0018803492082260182,0.002095733046207748,-0.016814270366689282
473,13.0,300.01506,1214.9382,0.0,-0.002364991241304626,-0.0023649594123298368,0.0,0.0,0.0,-0.1011042076044584,-0.13377003813957486,-0.13443662498286188,0.0008872283448451202,-0.0014048630563241887,-0.017377409441016782
474,13.0,300.0435,1161.7277,0.0,-0.0023699727399855153,-0.002369961622516903,0.0,0.0,0.0,-0.1032753340574819,-0.12433011384792687,-0.12553076455392187,0.003273058836225757,0.0023316218238131577,-0.011608372724657189
475,13.0,300.07248,1068.26,0.0,-0.0023749872287238682,-0.002374963832703858,0.0,0.0,0.0,-0.08181261471052642,-0.12875375100200587,-0.11415799476901688,0.0030206332090382867,8.185235944569893e-05,-0.014502552422540487
476,13.0,300.09992,1089.4744,0.0,-0.0023800017174623322,-0.002379966042891035,0.0,0.0,0.0,-0.08860181999856882,-0.12264362998398388,-0.1199275725609299,0.004683072445458266,-0.0008645712113465352,-0.007203396091044843
477,13.0,299.91132999999996,1186.9219,0.0,-0.0023849832161432216,-0.0023849682530779903,0.0,0.0,0.0,-0.09861514150855671,-0.13274888468879487,-0.12943060206880588,0.004794762193381185,-0.006858448773376193,-0.0037105886393815866
478,13.0,300.01223,1210.6419,0.0,-0.0023899977048815746,-0.0023899704632651675,0.0,0.0,0.0,-0.1036699544414279,-0.13150236415077288,-0.13283256901455387,0.0016105312443970585,-0.0011742249407369787,-0.012848062943755088
479,13.0,300.08984,1164.2286,0.0,-0.002394979203562464,-0.0023949397641747083,0.0,0.0,0.0,-0.09524347074079872,-0.1321617569183499,-0.1264912040587099,-0.0006279802514218253,0.0015303632004600885,-0.015911596250102286
480,13.0,300.12391,1152.0901,0.0,-0.002399993692300928,-0.0023999419743616635,0.0,0.0,0.0,-0.0997193216857808,-0.13081374925031186,-0.11967354062835889,-0.0074985219012964925,-0.0017007454604255083,-0.01923276257987588
481,13.0,300.06986,1173.6348,0.0,-0.0024049751909818173,-0.0024049441845488406,0.0,0.0,0.0,-0.1014554760828759,-0.13162159329003986,-0.12367859403362687,-0.0015028375522185184,-0.002304468646308348,-0.021458850758073682
482,13.0,299.89464,1184.8185,0.0,-0.0024099896797200593,-0.002409946394736018,0.0,0.0,0.0,-0.1023674315703789,-0.12973195278104688,-0.1280558648631299,0.001044496706583799,0.0054207698900383345,-0.019219670375333783
483,13.0,299.98662,1142.753,0.0,-0.0024149711784011707,-0.002414948604922973,0.0,0.0,0.0,-0.09207509138035401,-0.13136215060193487,-0.12393113648855088,0.003698078445696926,0.004159064786017736,-0.012708934585774188
484,13.0,300.07809,1056.2503,0.0,-0.0024199856671395237,-0.00241995081511015,0.0,0.0,0.0,-0.07698342420392243,-0.12689153917321988,-0.11719873805411488,0.004045748366384276,0.0011583679819720189,-0.01582156492571688
485,13.0,299.87273999999996,1096.282,0.0,-0.0024250001558777656,-0.0024249530252972162,0.0,0.0,0.0,-0.08751703849450922,-0.12851288118823387,-0.11721242706296588,0.0011522670004698989,-0.006647016306809433,-0.014968254327501684
486,13.0,299.90437000000003,1237.9689,0.0,-0.002429981654558877,-0.0024299552354842824,0.0,0.0,0.0,-0.10988655791245888,-0.13552364982264287,-0.13090143591396589,0.00038227000006711166,0.003988486563482976,-0.011528726200546688
487,13.0,300.10148,1256.2859,0.0,-0.00243499614329723,-0.0024349574456714596,0.0,0.0,0.0,-0.1059858591349899,-0.14291580579469187,-0.13297788934389587,0.0007899073344702842,0.0009319157545354241,-0.014724477499192786
488,13.0,300.13698,1159.0378,0.0,-0.0024399776419781194,-0.0024399596558585257,0.0,0.0,0.0,-0.09329904582539891,-0.13599603715176387,-0.1230234771814719,0.0024649084909925275,0.002049044001474898,-0.015640341092331485
489,13.0,300.18441,1177.5519,0.0,-0.0024449921307165834,-0.002444961866045703,0.0,0.0,0.0,-0.0948954537819521,-0.13248342329509588,-0.13056749907850887,0.0019885583407304283,-0.006017851322840684,-0.013835697067976986
490,13.0,300.06035,1210.6394,0.0,-0.0024499736293974728,-0.002449964076232658,0.0,0.0,0.0,-0.1001510736328914,-0.13254027675820687,-0.13531279247683287,0.007469735161980463,0.001040373082651829,-0.011472931583790189
491,13.0,299.90677999999997,1165.2722,0.0,-0.0024549881181358257,-0.002454966286419613,0.0,0.0,0.0,-0.0969373047209671,-0.13039676643665887,-0.12687959295454088,0.0024291455247379976,-0.001298372092014349,-0.01788129972899688
492,13.0,299.98787999999996,1166.0813,0.0,-0.0024600026068742897,-0.0024599684966067903,0.0,0.0,0.0,-0.09635182854818511,-0.12741074878946188,-0.1306970228387919,-0.0017664689149119084,-0.0003266206833749517,-0.011382154507331188
493,13.0,299.8392,1142.4154,0.0,-0.002464984105555179,-0.002464937797516331,0.0,0.0,0.0,-0.0999451609475694,-0.12796057882372586,-0.11936002078241689,-0.004207305116653686,-0.0002782375959324127,-0.018896287552918382
494,13.0,299.94635,1151.4771,0.0,-0.002469998594293421,-0.0024699400077032863,0.0,0.0,0.0,-0.09899892619593331,-0.12627308170968288,-0.12474829229669787,-0.0075444420918534625,0.0018464264054780981,-0.013121941406034787
495,13.0,299.9435,1209.1946,0.0,-0.0024749800929743104,-0.0024749422178904634,0.0,0.0,0.0,-0.10165913935297591,-0.13346998438746188,-0.13243586133540186,0.0003306817087157437,0.004664055260956416,-0.014713998466658587
496,13.0,300.02635,1249.396,0.0,-0.0024799945817128854,-0.0024799444280774186,0.0,0.0,0.0,-0.1013646280789099,-0.13905055050572088,-0.13937000799724886,-0.0015864150814169785,0.001003878083730053,-0.007581790693189482
497,13.0,300.00746000000004,1167.0826,0.0,-0.002484976080393775,-0.0024849466382645957,0.0,0.0,0.0,-0.09330191636293222,-0.1346281089867599,-0.1268339359050349,0.005166161114185405,-0.003651292635579527,-0.016513563068261784
498,13.0,300.31049,1158.2986,0.0,-0.0024899905691320168,-0.002489948848451662,0.0,0.0,0.0,-0.09255330692405023,-0.1347816771719159,-0.12475885036273987,0.0008823076173244823,0.0018991322306297583,-0.015435491306364383
499,13.0,300.08501,1189.3505,0.0,-0.002494972067813128,-0.002494951058638839,0.0,0.0,0.0,-0.0999903995247841,-0.13237568441196287,-0.12916676187526688,-0.001907420413797738,-0.0003182525041115767,-0.02076812424440428
500,13.0,300.21252999999996,1183.6309,0.0,-0.002499986556551481,-0.002499953268826016,0.0,0.0,0.0,-0.09713326526380692,-0.13294274983042786,-0.12971823337469288,-0.0008973525675918031,0.0012511186669757989,-0.018813588106256586
501,13.0,300.05275,1134.7606,0.0,-0.002505001045289723,-0.0025049554790129713,0.0,0.0,0.0,-0.08709891070824323,-0.12931528407492487,-0.12852470581690087,-0.0034303026874445168,-0.0005944792950880385,-0.018315835074132182
502,13.0,300.0085,1155.6563,0.0,-0.0025099825439708345,-0.0025099576892001485,0.0,0.0,0.0,-0.0921628672100168,-0.1273425469252309,-0.13178524331369088,0.00010009446638955471,0.0008359337845652412,-0.01022111377424539
503,13.0,300.05363,1198.5238,0.0,-0.0025149970327092985,-0.0025149598993871036,0.0,0.0,0.0,-0.09615831095133641,-0.13231420039589487,-0.13584880177973288,-0.0011542563143912288,0.0003402043142155517,-0.015715567819505786
504,13.0,300.15454,1212.9799,0.0,-0.002519978531389966,-0.002519962109574281,0.0,0.0,0.0,-0.09986795128994941,-0.13355887681873488,-0.13528877844946288,-0.005195332584564405,-0.0006340610489819534,-0.012946291461449487
505,13.0,299.94515,1276.6071,0.0,-0.002524993020128541,-0.002524964319761236,0.0,0.0,0.0,-0.1103488735355859,-0.14332755010532786,-0.13438024774729787,0.004291333947446687,-0.002952605725149497,-0.014233153538952884
506,13.0,299.96735,1270.7944,0.0,-0.0025299745188094303,-0.002529966529948191,0.0,0.0,0.0,-0.10883772246894691,-0.14219110905816987,-0.13526093433671485,0.0007206208771997433,0.006109820893342374,-0.011697307712434388
507,13.0,299.99509,1175.5015,0.0,-0.002534989007547672,-0.002534968740135368,0.0,0.0,0.0,-0.09751903490812941,-0.12816219532862388,-0.13164187855704187,0.005493436134209934,0.006689678391669854,-0.015062783469080984
508,13.0,300.05221,1192.213,0.0,-0.0025399705062285616,-0.002539938041045131,0.0,0.0,0.0,-0.09467074530727511,-0.13276822763320387,-0.13496402165991186,-0.004748774317717535,0.000899927317155911,-0.008654562549113821
509,13.0,299.90432999999996,1221.7315,0.0,-0.0025449849949671366,-0.0025449402512320862,0.0,0.0,0.0,-0.0987736229434476,-0.1329063538868359,-0.13969589962691187,-0.0026933375187117173,0.0015688578889842186,-0.009716326658601782
510,13.0,300.04894,1205.2258,0.0,-0.0025499994837053785,-0.0025499424614190414,0.0,0.0,0.0,-0.1002558244414795,-0.13331995244515488,-0.13278278803714086,-0.0012569204357233887,-0.002048449324991208,-0.012825398565518288
511,13.0,300.01717,1198.9333,0.0,-0.002554980982386268,-0.0025549446716061075,0.0,0.0,0.0,-0.1035210269417299,-0.1325140842431219,-0.12841066451814587,0.0016959382979760782,-0.00014821597521277787,-0.014863553168168484
512,13.0,300.10363,1207.5137,0.0,-0.002559995471124732,-0.0025599468817932847,0.0,0.0,0.0,-0.1006501793538993,-0.13309948948839687,-0.13330434839361488,-0.003208810471234937,-0.0017292328856619982,-0.017299327375060684
513,13.0,300.05242999999996,1230.4409,0.0,-0.0025649769698057323,-0.002564949091980462,0.0,0.0,0.0,-0.09925164495637472,-0.13987521449710888,-0.13489643787824188,0.002290303207260328,-0.006434906583875833,-0.014556199962335087
514,13.0,300.27995,1278.2315,0.0,-0.0025699914585439743,-0.002569951302167417,0.0,0.0,0.0,-0.1051029737928559,-0.14419895532382887,-0.1392485193102589,0.003739700226679676,-0.0006939028703478814,-0.018369051982634284
515,13.0,299.82015,1280.4914,0.0,-0.0025749729572250857,-0.002574953512354594,0.0,0.0,0.0,-0.10433075562664389,-0.14434835905107388,-0.14055829705202386,-0.00018191025966564483,-0.0039381181036619965,-0.013475238411152488
516,13.0,300.07515,1166.6946,0.0,-0.0025799874459635497,-0.0025799557225415493,0.0,0.0,0.0,-0.0954962584022469,-0.13601981813161088,-0.12312994950197989,0.0007550424016468834,-0.0008868992817426442,-0.018708433010878583
517,13.0,299.90457999999995,1104.1859,0.0,-0.0025850019347019026,-0.0025849579327287264,0.0,0.0,0.0,-0.08625409013261592,-0.12931595281999086,-0.12007488899296889,-0.011905738324254888,0.0007718944125400472,-0.019081401253437682
518,13.0,300.06146,1182.8897,0.0,-0.002589983433382792,-0.0025899601429159036,0.0,0.0,0.0,-0.0970454924738944,-0.13677760761639887,-0.12574581675514587,0.004278960441200516,0.0042659152514630564,-0.02178613358012398
519,13.0,300.06638,1214.9327,0.0,-0.002594997922121256,-0.0025949623531028587,0.0,0.0,0.0,-0.09858202444228831,-0.13827858565203388,-0.13244859788915886,0.002857986505636307,0.004450638242743795,-0.018900516858835783
520,13.0,300.01117999999997,1143.1815,0.0,-0.0025999794208019233,-0.002599964563290036,0.0,0.0,0.0,-0.08965358170836961,-0.13078031199701187,-0.1270647340128129,0.0048071645772552055,0.004122812318639897,-0.02135773650409448
521,13.0,299.71594,1155.75,0.0,-0.0026049939095403873,-0.002604966773476991,0.0,0.0,0.0,-0.09386753486025441,-0.13113513191702988,-0.1263164589464639,0.0008270743917858872,-0.0061424435948869835,-0.016747322906082083
522,13.0,299.81462,1260.764,0.0,-0.0026099754082213877,-0.002609936074386532,0.0,0.0,0.0,-0.10808604288226191,-0.13742349376014287,-0.13773122794801387,0.0011888253680529288,-0.0042136565735805265,-0.015759973505138285
523,13.0,299.70721000000003,1285.1905,0.0,-0.0026149898969596297,-0.002614938284573709,0.0,0.0,0.0,-0.11273623262619988,-0.13749675174237286,-0.14043282629214085,0.004392457118026766,0.00015083080895084182,-0.015736787303099985
524,13.0,299.71792,1258.0682,0.0,-0.002619971395640519,-0.002619940494760664,0.0,0.0,0.0,-0.1048846285288069,-0.13999412952884485,-0.13754257091189487,-0.0005206306589772455,-0.0015855263597542683,-0.014270861641424385
525,13.0,300.0227,1216.5796,0.0,-0.002624985884378983,-0.0026249427049477303,0.0,0.0,0.0,-0.1027206201577359,-0.13232102970156887,-0.13476815028308087,-0.0050837162972737346,-0.001056126588581579,-0.011082871838544289
526,13.0,300.04636,1195.7174,0.0,-0.002630000373117336,-0.0026299449151349075,0.0,0.0,0.0,-0.10018164642815872,-0.13040967524293287,-0.13287691897143086,-0.001106499810678029,-0.001038969629938319,-0.011509933450941989
527,13.0,300.20855,1253.0193,0.0,-0.0026349818717982254,-0.0026349471253218626,0.0,0.0,0.0,-0.1067638021642669,-0.13836811643086988,-0.13575468097794388,0.0032198165964711567,0.004996443343635565,-0.017865791936216385
528,13.0,300.20518,1276.2561,0.0,-0.0026399963605366894,-0.0026399493355090398,0.0,0.0,0.0,-0.10766502733321089,-0.14312797023313087,-0.13715699885134186,0.0069960735695337025,0.0006686710379476934,-0.014563980709852986
529,13.0,300.11261,1178.6992,0.0,-0.002644977859217801,-0.002644951545695995,0.0,0.0,0.0,-0.09255223490544441,-0.13566459291155286,-0.13007831206272988,0.003556430843992397,-0.0025223295768095474,-0.02329187085147868
530,13.0,300.17859,1193.1315,0.0,-0.002649992347956154,-0.002649953755883172,0.0,0.0,0.0,-0.09214444632319882,-0.14035544438200387,-0.13018230192049288,0.0007560021318766013,-0.001151807795524579,-0.02120123597314908
531,13.0,299.97491,1294.2852,0.0,-0.002654973846637043,-0.0026549559660703492,0.0,0.0,0.0,-0.1055334834953439,-0.14490106671562186,-0.14299581202258788,-0.002348284823032668,-0.003273622709906407,-0.02209330034793898
532,13.0,299.86331,1294.9601,0.0,-0.002659988335375507,-0.0026599581762573044,0.0,0.0,0.0,-0.1061548489866679,-0.14311966158231085,-0.14436103480982487,-0.002451825507026338,-0.004362680838663076,-0.016437993862553683
533,13.0,299.83156,1229.0692,0.0,-0.0026649698340561745,-0.0026649603864444815,0.0,0.0,0.0,-0.10044616651251481,-0.1367912966252499,-0.13636887265855988,-0.008416560841074882,-0.0011634670617752588,-0.018980688246498085
534,13.0,299.82763,1209.7126,0.0,-0.0026699843227946385,-0.0026699625966314366,0.0,0.0,0.0,-0.09693199731694331,-0.1296026316707839,-0.14118778880914987,-0.0034629005643616764,-0.00030912633271339374,-0.012169735571559388
535,13.0,299.8418,1224.4899,0.0,-0.0026749988115332135,-0.002674964806818614,0.0,0.0,0.0,-0.1005327852105634,-0.13422632492460687,-0.13745522875327487,-0.0017508779342981983,0.009116484828552,-0.013913744683429687
536,13.0,299.82599999999996,1260.2373,0.0,-0.002679980310213881,-0.0026799341077281547,0.0,0.0,0.0,-0.09772971493517191,-0.14097196653784988,-0.14437898960159687,0.0066073199036667035,0.001345375244278199,-0.014445015015611988
537,13.0,299.78938999999997,1259.8526,0.0,-0.002684994798952345,-0.002684936317915221,0.0,0.0,0.0,-0.1060120313850729,-0.13224536018410088,-0.14470633017890286,0.006084883389831234,-0.0005994072673468914,-0.013762201985223587
538,13.0,300.13135,1241.6238,0.0,-0.002689976297633234,-0.002689938528102287,0.0,0.0,0.0,-0.1008082848730031,-0.13880202052119286,-0.13781232848601785,0.002908959977091997,0.0016456228311353283,-0.018896089969148884
539,13.0,300.16115,1212.7536,0.0,-0.002694990786371587,-0.002694940738289464,0.0,0.0,0.0,-0.1043920268601909,-0.13257389639652487,-0.13168087855339086,0.003755887302327216,-0.0015728937654575286,-0.017654146281828584
540,13.0,300.23145,1271.1614,0.0,-0.0026999722850524766,-0.0026999429484765303,0.0,0.0,0.0,-0.10752935314482089,-0.14248138494681786,-0.1363905967407039,-0.002321773134166168,-0.004739973126023925,-0.023294335075721876
541,13.0,300.49287000000004,1330.8077,0.0,-0.0027049867737909405,-0.0027049451586634854,0.0,0.0,0.0,-0.11138901529323988,-0.14180218313978585,-0.15134111209870485,-0.004688403356884386,-0.002087891402358838,-0.01311323049492509
542,13.0,300.33898,1266.3352,0.0,-0.0027100012625292935,-0.0027099473688504405,0.0,0.0,0.0,-0.10170717754021691,-0.13781181172846688,-0.14541528100887086,5.489896750285624e-05,-0.001013132725108415,-0.019500991159597983
543,13.0,300.00581,1218.2539,0.0,-0.002714982761210294,-0.0027149495790376177,0.0,0.0,0.0,-0.0954800838909006,-0.13557015800223288,-0.13926852086723288,-0.004894485558948115,0.004666411979364006,-0.011549097593807189
544,13.0,300.20635,1254.5326,0.0,-0.002719997249948647,-0.002719951789224795,0.0,0.0,0.0,-0.1046728795229089,-0.13417368658191187,-0.14250000848365588,-0.0014319051816180388,7.903109221176152e-05,-0.01322990624394009
545,13.0,299.89752999999996,1282.7608,0.0,-0.0027249787486297583,-0.00272495399941175,0.0,0.0,0.0,-0.1101924682501499,-0.13820758721752688,-0.14152718706264586,-0.00029502970347966475,-0.0019017719497902781,-0.007884789051418093
546,13.0,299.77396,1295.8494,0.0,-0.0027299932373680003,-0.002729956209598927,0.0,0.0,0.0,-0.10888100851321889,-0.14367648304226485,-0.14134835855249686,0.004399604786882186,0.0046075575499555255,-0.01959790042566218
547,13.0,299.80315,1298.188,0.0,-0.0027349747360488896,-0.0027349584197859933,0.0,0.0,0.0,-0.1029005531104939,-0.14310172705554086,-0.14861443581460285,0.0024739733303621573,0.006117606099160715,-0.015259556638500985
548,13.0,299.80877000000004,1246.3052,0.0,-0.0027399892247874647,-0.0027399606299731705,0.0,0.0,0.0,-0.09828544512476821,-0.14218240523981085,-0.13837781323432688,-0.003200748242839257,-0.0017064312120366484,-0.023306281294400877
549,13.0,300.05162,1255.684,0.0,-0.002744970723468132,-0.0027449628401602366,0.0,0.0,0.0,-0.0959607160360853,-0.14027945062450387,-0.14545640883042985,-0.004794582746788475,-0.002407142089541428,-0.016427397293007885
550,13.0,300.28907999999996,1294.6849,0.0,-0.002749985212206596,-0.0027499321410696664,0.0,0.0,0.0,-0.11328009461737489,-0.14297804974833486,-0.13729373695233688,0.003384395567813837,-0.002003488580953928,-0.01974752909442938
551,13.0,300.2007,1284.0036,0.0,-0.00275499970094506,-0.0027549343512568436,0.0,0.0,0.0,-0.1083486469106789,-0.14560244856734286,-0.13635394748458687,0.004702703152895666,0.003445513293970687,-0.01895817990877668
552,13.0,300.25105,1242.1832,0.0,-0.0027599811996258383,-0.0027599365614439098,0.0,0.0,0.0,-0.10317254996733789,-0.14063918480750687,-0.1337809407106509,0.002404210858327138,-0.004936881665657285,-0.02133827703592398
553,13.0,300.1292,1270.1641,0.0,-0.0027649956883643023,-0.002764938771630976,0.0,0.0,0.0,-0.0979628475711803,-0.14306073095649485,-0.14507459592774785,-0.003435979421129767,-0.0077609040279415925,-0.014114928530534988
554,13.0,299.87175,1315.8824,0.0,-0.0027699771870451917,-0.002769940981818153,0.0,0.0,0.0,-0.1065772830858589,-0.14738307349807686,-0.14603503543253585,0.0013562237077988585,-0.0026084166225306777,-0.01681864862037138
555,13.0,299.92405,1301.32,0.0,-0.0027749916757835447,-0.002774943192005108,0.0,0.0,0.0,-0.10362629349461891,-0.14279971773073485,-0.14914276468174487,-0.0005698697502367654,0.007442179825510962,-0.01063985862982229
556,13.0,299.86882,1270.1278,0.0,-0.002779973174464545,-0.0027799454021920633,0.0,0.0,0.0,-0.1079330623821639,-0.14439301298298085,-0.13376107087618985,-0.0005193870363345096,0.0022778374952550575,-0.017073874161560185
557,13.0,300.00489,1267.1007,0.0,-0.002784987663202898,-0.0027849476123792405,0.0,0.0,0.0,-0.1087799976107499,-0.13830269087191285,-0.13808428481285787,-0.002930690240061607,-2.3411907551075378e-05,-0.009007830169978621
558,13.0,299.94397000000004,1287.6578,0.0,-0.0027899691618840095,-0.0027899498225661956,0.0,0.0,0.0,-0.11287683121007588,-0.14367070751669486,-0.13486827965796286,0.004685358742983905,0.0054415132474105446,-0.021308069010692682
559,13.0,299.80194,1322.505,0.0,-0.0027949836506222514,-0.002794952032753373,0.0,0.0,0.0,-0.10968115185218688,-0.14992783085922484,-0.14239952447123888,0.003218447290286017,0.004404699611035006,-0.015261658119208384
560,13.0,299.93666,1307.9597,0.0,-0.0027999981393606044,-0.002799954242940439,0.0,0.0,0.0,-0.10482901123081789,-0.14402925619708087,-0.14872883175089288,0.006947356403400692,-0.0021674248477581777,-0.021728197965906183
561,13.0,300.03968,1247.5714,0.0,-0.002804979638041716,-0.002804956453127616,0.0,0.0,0.0,-0.09949875132451222,-0.13848200574210986,-0.14124977945026787,-0.007280646582643873,-0.004792561616814005,-0.015486343289133085
562,13.0,300.10236000000003,1261.1475,0.0,-0.0028099941267799577,-0.0028099586633147933,0.0,0.0,0.0,-0.1040440159808449,-0.14427623590895586,-0.13503709725712387,0.003146111973597077,-0.0014434269498301486,-0.019063356282406782
563,13.0,300.03361,1333.3883,0.0,-0.002814975625460847,-0.0028149608735017484,0.0,0.0,0.0,-0.11279261999426489,-0.14601903621345688,-0.14650510241892786,-0.0017042471514460984,0.0024599384992520274,-0.016542510610368683
564,13.0,300.16278,1322.3747,0.0,-0.002819990114199311,-0.0028199630836889256,0.0,0.0,0.0,-0.10940453457488691,-0.15152397334425186,-0.14104039131710286,-0.0031336588258930468,-0.0025424174626920673,-0.017333090894892884
565,13.0,300.11907,1264.7181,0.0,-0.0028249716128800895,-0.0028249323845984664,0.0,0.0,0.0,-0.09704784726712681,-0.14805920515730586,-0.13933566895135988,-0.00023447805988868273,-0.005414118916381934,-0.01897284974372448
566,13.0,300.09645,1301.3812,0.0,-0.0028299861016185535,-0.0028299345947854215,0.0,0.0,0.0,-0.1030374533315049,-0.14640381793893187,-0.14614611804099886,-0.0017527629847842385,-0.0012478975449078987,-0.014678727230677587
567,13.0,300.09734,1329.8765,0.0,-0.0028350005903570175,-0.0028349368049725987,0.0,0.0,0.0,-0.1096289593395359,-0.15090411759557687,-0.14371616191618086,0.005313730554774375,0.0028263088624599668,-0.017800791942301383
568,13.0,299.88426,1288.3179,0.0,-0.002839982089037796,-0.002839939015159554,0.0,0.0,0.0,-0.1088885673589649,-0.14328293670342487,-0.13944496823964686,0.0018090560192649283,0.001946059287811098,-0.017749257028965286
569,13.0,299.81239,1309.4617,0.0,-0.00284499657777626,-0.002844941225346731,0.0,0.0,0.0,-0.1077864146951909,-0.14753640863570988,-0.14272084634295087,-0.001223721498846909,0.0016514659404869984,-0.02059868856268228
570,13.0,299.89841,1342.5845,0.0,-0.002849978076457149,-0.002849943435533908,0.0,0.0,0.0,-0.1140234756857409,-0.14694252248709788,-0.14714616549219586,0.0005328236547181005,0.001953342833504928,-0.01955554150523168
571,13.0,299.95437000000004,1313.7546,0.0,-0.002854992565195391,-0.0028549456457208633,0.0,0.0,0.0,-0.1056867274404679,-0.14484976586305887,-0.14881210064411085,-0.004660862104591277,0.0025357436909084177,-0.01936513863919038
572,13.0,299.93815,1278.4103,0.0,-0.0028599740638765025,-0.0028599478559078184,0.0,0.0,0.0,-0.0966134932937594,-0.14831857691790387,-0.14367275428189685,-0.0015646036571143583,-0.0049210054551404245,-0.017746317590425182
573,13.0,300.13716,1284.6808,0.0,-0.0028649885526148555,-0.0028649500660948846,0.0,0.0,0.0,-0.09949725880711491,-0.14618907984523885,-0.14482455620057086,-0.0013231755425372588,-0.006862708983421643,-0.011773024852657089
574,13.0,299.97709,1309.4096,0.0,-0.002869970051295967,-0.0028699522762820617,0.0,0.0,0.0,-0.1062378949648639,-0.14763274845521787,-0.14415717902220587,0.003409743336290466,0.0022599157354363177,-0.013234006867094786
575,13.0,300.08774,1341.7883,0.0,-0.002874984540034209,-0.002874954486469239,0.0,0.0,0.0,-0.1145232207675619,-0.15044480119274586,-0.14290212691834187,0.0038371086197431367,0.0005757175813339014,-0.016595240145572683
576,13.0,300.15252999999996,1376.4329,0.0,-0.002879999028772673,-0.002879956696656194,0.0,0.0,0.0,-0.11801302636447887,-0.15227463968083685,-0.14811356602517087,0.003276553434495647,0.0025851356816080275,-0.015503718501847884
577,13.0,300.06322,1330.3583,0.0,-0.0028849805274535623,-0.002884958906843371,0.0,0.0,0.0,-0.1048693689823009,-0.15305692955304284,-0.14646938535290285,-0.0011380623486430088,-0.0002353255017423188,-0.02038475194981838
578,13.0,300.15606,1326.4487,0.0,-0.0028899950161919152,-0.0028899611170303263,0.0,0.0,0.0,-0.10597794565170891,-0.15036356893222885,-0.14686577892452385,0.007252130381104544,0.0016568433600927083,-0.02082871761363438
579,13.0,299.9685,1370.3832,0.0,-0.0028949765148728046,-0.002894930417939867,0.0,0.0,0.0,-0.1148112067109839,-0.14930485430024187,-0.15244620318776886,-0.00040674731578033466,0.003370509583143397,-0.02101743949775978
580,13.0,300.0879,1341.6952,0.0,-0.0028999910036112686,-0.0028999326281270443,0.0,0.0,0.0,-0.11410621768890689,-0.14857419965313187,-0.14516142132881685,-0.003540177400463307,-0.004985540063284495,-0.01885325279467118
581,13.0,299.96677999999997,1264.0772,0.0,-0.002904972502292047,-0.0029049348383139995,0.0,0.0,0.0,-0.09940216832498021,-0.14463625380198686,-0.14020948570509886,-0.0012196123643913688,-0.003267665812568507,-0.019509664580453983
582,13.0,299.92071,1288.8909,0.0,-0.002909986991030511,-0.0029099370485011766,0.0,0.0,0.0,-0.1046087306590779,-0.14621185770748688,-0.14097007176016288,-0.0021163886561212978,0.0014446887501796785,-0.016617337103753484
583,13.0,299.97708,1394.9812,0.0,-0.0029149684897114003,-0.002914939258688354,0.0,0.0,0.0,-0.11234108535220189,-0.15359321243346988,-0.15810514420126284,0.007165553834260103,0.0013939190433190987,-0.018580115018214584
584,13.0,300.09585,1385.3329999999999,0.0,-0.0029199829784496423,-0.002919941468875309,0.0,0.0,0.0,-0.1149999144096079,-0.15358597782775585,-0.15252074799762586,-0.0033882566586448965,0.0006223546362041204,-0.017816620935363583
585,13.0,299.96778,1352.7720000000002,0.0,-0.0029249974671882173,-0.002924943679062486,0.0,0.0,0.0,-0.10449340253269591,-0.15855638500079686,-0.14815911161716586,-0.0024018892996980176,-0.008304821342572053,-0.017556526727444285
586,13.0,300.25731,1363.6455,0.0,-0.0029299789658691067,-0.002929945889249441,0.0,0.0,0.0,-0.11211050002694489,-0.15458871039171787,-0.14781498148570288,0.0036988143692445563,-0.0007138913057330863,-0.016450185287756883
587,13.0,300.01012000000003,1341.7736,0.0,-0.0029349934546073486,-0.0029349480994365074,0.0,0.0,0.0,-0.10808031801919689,-0.15440415701850385,-0.14538120540800786,0.0019188248476482682,0.004639944366876855,-0.015171390707549687
588,13.0,300.24935,1356.7099,0.0,-0.00293997495328846,-0.0029399503096236845,0.0,0.0,0.0,-0.11475674451810888,-0.15130671225780984,-0.14634247577787787,0.004591973560767505,-0.0005193767518459945,-0.01925502571107308
589,13.0,300.13142999999997,1339.9105,0.0,-0.002944989442026924,-0.0029449525198106397,0.0,0.0,0.0,-0.1096867652577409,-0.15071132649904986,-0.14690126294302586,-0.008239857825660652,-0.0036607004601080066,-0.02061771841281038
590,13.0,300.0001,1298.3674,0.0,-0.0029499709407078134,-0.002949954729997817,0.0,0.0,0.0,-0.1028735297303269,-0.14914162984163284,-0.14265611992656288,-0.0005693353823990274,0.004922900942102496,-0.021076931464131178
591,13.0,299.92822,1337.504,0.0,-0.0029549854294461664,-0.002954956940184772,0.0,0.0,0.0,-0.1069288302080539,-0.15337259748919685,-0.14626639082786885,0.006103803403648494,0.002261970809289138,-0.018724229579937583
592,13.0,299.87317,1408.6993,0.0,-0.0029599999181846304,-0.002959959150371949,0.0,0.0,0.0,-0.1208441687338909,-0.15667253014987484,-0.15069270296221185,0.0004943009802262085,0.005016608236525685,-0.017837593185933382
593,13.0,299.64493999999996,1368.6537,0.0,-0.0029649814168655197,-0.00296492845128149,0.0,0.0,0.0,-0.1105412593320729,-0.15639930726040988,-0.14909598292462786,-0.003952438266000286,-0.0065890959926681435,-0.014816987233322787
594,13.0,299.87736,1304.6156,0.0,-0.0029699959056038727,-0.002969930661468445,0.0,0.0,0.0,-0.1038350027502169,-0.15375411654934984,-0.13898144684890087,-0.0001059351155699819,0.00014489677053519787,-0.016640022760242384
595,13.0,299.72496,1326.8984,0.0,-0.002974977404284762,-0.0029749328716556223,0.0,0.0,0.0,-0.1049952855722279,-0.15035502723388586,-0.14799365800833686,-0.0008735098301512082,0.005163492112096995,-0.01960239925610618
596,13.0,299.97407000000004,1387.6377,0.0,-0.002979991893023226,-0.0029799350818427994,0.0,0.0,0.0,-0.11662150973714688,-0.15503784363104384,-0.15014783785343785,0.0007505183210103914,-0.0028602368327833977,-0.015117594219990385
597,13.0,300.08519,1374.9783,0.0,-0.0029849733917038934,-0.0029849372920297546,0.0,0.0,0.0,-0.11146762323599789,-0.15925461564470686,-0.14723684124364486,-0.0035934114328920958,-0.005496896788601474,-0.02079802829460558
598,13.0,300.01543,1328.8767,0.0,-0.0029899878804424684,-0.0029899395022169317,0.0,0.0,0.0,-0.1102591401067299,-0.15154606219643185,-0.14214012231313786,-0.0013606156403573088,0.0044731997760954455,-0.010760135469692688
599,13.0,300.11862,1347.1531,0.0,-0.002994969379123358,-0.002994941712403998,0.0,0.0,0.0,-0.11073563109875591,-0.15411506663247285,-0.14465021638836484,0.007933708867571103,0.004970904780165105,-0.019104458772713283
600,13.0,300.30498,1366.9063,0.0,-0.0029999838678615998,-0.002999943922591064,0.0,0.0,0.0,-0.11457407579008089,-0.15210739261933084,-0.14882390500777584,-0.0018937938211528982,0.0013956762216425186,-0.014465542449387886
601,13.0,300.19615,1372.6660000000002,0.0,-0.0030049983566000638,-0.003004946132778241,0.0,0.0,0.0,-0.10966683462827388,-0.15557428863148684,-0.15201506527021885,-0.0026014503254431576,-0.006821511754230794,-0.025065426336264976
602,13.0,300.057,1380.6918,0.0,-0.003009979855281175,-0.0030099483429653073,0.0,0.0,0.0,-0.1108995141699299,-0.15670345454292683,-0.15209287274539784,-0.010090114924466811,-0.0017609398117662282,-0.01988213025096348
603,13.0,299.82247,1321.9920000000002,0.0,-0.003014994344019528,-0.0030149505531522625,0.0,0.0,0.0,-0.1046514796807969,-0.15505721697295585,-0.14214385107350586,-0.0011540733214231687,0.0004901286898919354,-0.02463050088984118
604,13.0,299.91432000000003,1344.4629,0.0,-0.0030199758427004175,-0.0030199527633392176,0.0,0.0,0.0,-0.1095603420427639,-0.15338858657577487,-0.14573423187534887,-0.0034741137979183373,-0.006397146501674204,-0.017475377553435482
605,13.0,299.97457,1434.0782,0.0,-0.0030249903314388815,-0.0030249549735263948,0.0,0.0,0.0,-0.11633467889883889,-0.16258696217608384,-0.15700233292492385,-5.292178725147375e-05,-0.008165624083584353,-0.016774480035262284
606,13.0,299.85397,1409.8381,0.0,-0.003029971830119771,-0.003029957183713572,0.0,0.0,0.0,-0.1122477954154949,-0.15592625118622286,-0.16038154227342585,0.0018421987207608579,0.003612758734276527,-0.013175069148528088
607,13.0,300.09872,1368.1238,0.0,-0.003034986318858124,-0.003034959393900527,0.0,0.0,0.0,-0.10503838923148191,-0.15618515685177486,-0.15465191693295585,0.006688324081586193,0.008912955003490172,-0.018994094558571182
608,13.0,300.05844,1395.5021,0.0,-0.0030399678175390132,-0.003039928694810068,0.0,0.0,0.0,-0.11548944593042088,-0.15611725896257383,-0.15259108781956784,-0.0023033607586490077,0.004202004602730566,-0.018799587016374783
609,13.0,300.17582999999996,1415.4165,0.0,-0.0030449823062774772,-0.003044930904997245,0.0,0.0,0.0,-0.1209889115106759,-0.15459704944004085,-0.15466530196677686,0.003670950092819567,0.0003131229254803267,-0.014818750288496788
610,13.0,300.23635,1381.3114,0.0,-0.003049996795015719,-0.0030499331151842,0.0,0.0,0.0,-0.1156497927587459,-0.15578014052180286,-0.14845423084129186,-0.0029144374044825774,0.004940290340318695,-0.016404485681746683
611,13.0,300.07751,1336.8306,0.0,-0.0030549782936967196,-0.0030549353253713774,0.0,0.0,0.0,-0.10911806850661489,-0.14619085303291388,-0.15105421033288985,0.003968691405554346,0.0024417805508349776,-0.01879545700896718
612,13.0,299.79665,1354.7675,0.0,-0.0030599927824351836,-0.0030599375355584435,0.0,0.0,0.0,-0.1101108408220939,-0.14978789088791386,-0.15191674961301585,-0.0013196191360112688,-0.008145695277967532,-0.018278968982493784
613,13.0,300.01153999999997,1369.7068,0.0,-0.003064974281115851,-0.0030649397457456207,0.0,0.0,0.0,-0.1073371294683499,-0.15432534642572585,-0.15469418972712787,-0.0015180766310724987,-0.009193863597613691,-0.02330056960358718
614,13.0,299.95423999999997,1412.0069,0.0,-0.003069988769854315,-0.003069941955932687,0.0,0.0,0.0,-0.11659464847699588,-0.15514215772883885,-0.15747802344937087,0.0012445976933072287,-0.0015992459687582884,-0.020699767352907978
615,13.0,299.97529,1445.1008,0.0,-0.0030749702685354263,-0.003074944166119753,0.0,0.0,0.0,-0.1140833992966549,-0.16313032767470984,-0.16206084219415987,0.002964705552543657,0.005207378608378255,-0.022034020150838482
616,13.0,299.89401000000004,1383.7288,0.0,-0.0030799847572737793,-0.00307994637630693,0.0,0.0,0.0,-0.11447167673497488,-0.15421806350513784,-0.15192927338425186,-0.0007038922295062544,0.0017675218844158283,-0.01989543726452678
617,13.0,299.88349,1348.0862,0.0,-0.0030849992460120212,-0.0030849485864938853,0.0,0.0,0.0,-0.1048734827777069,-0.15384289752311187,-0.15106816278676685,0.0005115383301324025,-0.003678057940946056,-0.018402136624899482
618,13.0,299.82132,1401.3932,0.0,-0.0030899807446931327,-0.0030899507966808404,0.0,0.0,0.0,-0.1151134592158139,-0.15787043494809885,-0.15300465598038385,-0.0016631482075149485,0.0031645294153647367,-0.016271875561659085
619,13.0,300.05284,1436.5076,0.0,-0.0030949952334313746,-0.0030949530068680176,0.0,0.0,0.0,-0.11253464651880489,-0.16331015930245785,-0.16081764511646585,0.0041145191705464264,-4.344764550394876e-05,-0.018698150548863784
620,13.0,299.93993,1367.1759,0.0,-0.003099976732112375,-0.0030999552170549727,0.0,0.0,0.0,-0.11510149273213288,-0.15378682426257786,-0.14669900809056485,-0.002093421721404638,-0.0028532092340648276,-0.02328949984624468
621,13.0,300.01563,1370.7891,0.0,-0.003104991220850839,-0.00310495742724215,0.0,0.0,0.0,-0.11096376435877088,-0.15773836793006485,-0.14798352550733687,-0.003253515166971947,-0.005194200378902665,-0.023396436235298478
622,13.0,300.13686,1391.5728,0.0,-0.0031099727195317284,-0.0031099267281516907,0.0,0.0,0.0,-0.11893676595064488,-0.14950813253530387,-0.15455849527373583,0.005478902480075574,0.002251537069034408,-0.020253666771131284
623,13.0,300.33072999999996,1400.0725,0.0,-0.0031149872082699703,-0.003114928938338646,0.0,0.0,0.0,-0.1098272118541019,-0.15400310249642285,-0.16175676583914983,0.0035431240330791166,0.005457165124355265,-0.018115548966615484
624,13.0,300.26514,1416.2448,0.0,-0.0031199687069508597,-0.003119931148525823,0.0,0.0,0.0,-0.1163328347836569,-0.15340634885002785,-0.16076387193365885,0.0011973579471450289,-0.004674719920908936,-0.017715491482632885
625,13.0,300.08617999999996,1394.7755,0.0,-0.0031249831956894347,-0.003124933358712889,0.0,0.0,0.0,-0.1083758425433629,-0.15521792857131683,-0.16038315334108486,-0.002030541345373828,-0.01036271547572039,-0.020573287395925382
626,13.0,299.73722999999995,1374.4618,0.0,-0.0031299976844276767,-0.0031299355689000663,0.0,0.0,0.0,-0.1152468839889819,-0.15683837892624283,-0.14571681410612985,0.006119806067777834,-0.0006645918652976103,-0.024952165240086976
627,13.0,299.67389,1430.4558,0.0,-0.003134979183108566,-0.0031349377790872435,0.0,0.0,0.0,-0.1189391876183839,-0.16020295694330083,-0.15568069002448784,0.006088402711403563,0.0005775269825674754,-0.022682294525068182
628,13.0,299.77243,1472.6581,0.0,-0.003139993671847141,-0.0031399399892741986,0.0,0.0,0.0,-0.12861331453814587,-0.16530726511705685,-0.15373072060454085,0.003230478317998387,0.0018954329558396681,-0.01952782303549608
629,13.0,299.72234,1398.5357,0.0,-0.0031449751705280304,-0.0031449421994613758,0.0,0.0,0.0,-0.11470714592571389,-0.16019290550230886,-0.15021986980304686,-0.0005534559497468494,0.0017004185859432485,-0.02024196778547668
630,13.0,299.88097999999997,1349.589,0.0,-0.0031499896592662724,-0.003149944409648331,0.0,0.0,0.0,-0.1103155477397969,-0.15143652986062187,-0.14848927916225088,0.005459647688425275,0.005541434804697035,-0.01863429350106158
631,13.0,300.00712000000004,1407.8964,0.0,-0.003154971157947384,-0.003154946619835508,0.0,0.0,0.0,-0.11175783832963988,-0.15839587605245584,-0.15781162591229483,0.0008161475229724893,0.004014969476046636,-0.018632533485637884
632,13.0,300.1937,1458.5127,0.0,-0.0031599856466856258,-0.0031599488300226852,0.0,0.0,0.0,-0.12435553629293587,-0.15965388684661186,-0.15934201859833286,-0.005137026830085076,-0.003558156104937667,-0.02381807189341068
633,13.0,300.25066,1445.2709,0.0,-0.003164967145366515,-0.0031649510402096404,0.0,0.0,0.0,-0.1136648864753509,-0.16117281967401886,-0.16448854890375586,-0.006683250535685473,-0.003328866017283497,-0.024859943268985375
634,13.0,300.1367,1392.4143,0.0,-0.00316998163410509,-0.0031699532503965955,0.0,0.0,0.0,-0.11255541814585489,-0.15703450361559884,-0.15366926698597586,-0.0044275260079627956,-0.002053325591097458,-0.026062626554680973
635,13.0,300.03073,1356.6195,0.0,-0.003174996122843332,-0.0031749554605836616,0.0,0.0,0.0,-0.10249923514338691,-0.15204047758272685,-0.15783874048497085,-0.0006072763094785053,0.0012174001354480388,-0.02111838251247208
636,13.0,300.19836000000004,1396.7187,0.0,-0.0031799776215242215,-0.0031799247614933135,0.0,0.0,0.0,-0.1124162178471169,-0.15937957977953984,-0.15277182123990488,-0.0037060622485348663,-0.006160033211322943,-0.019035733058180584
637,13.0,299.94131,1468.2379,0.0,-0.0031849921102627965,-0.0031849269716802686,0.0,0.0,0.0,-0.1170179742362749,-0.16626468513654685,-0.16302501045931583,0.004918820786599815,-0.007007753202111394,-0.02043038873432238
638,13.0,299.94316000000003,1438.7967,0.0,-0.003189973608943686,-0.003189929181867446,0.0,0.0,0.0,-0.12074545790914888,-0.16183789677465685,-0.15477491536259483,0.0033570446038895065,0.0014793571023511787,-0.018425913551746085
639,13.0,299.91397,1391.5151,0.0,-0.003194988097681928,-0.003194931392054512,0.0,0.0,0.0,-0.1163132689242259,-0.15871873806431985,-0.14795382714690586,0.0031818571066498467,0.0037275024180008463,-0.02032756614067458
640,13.0,299.82226,1472.1159,0.0,-0.003199969596362817,-0.003199933602241689,0.0,0.0,0.0,-0.12610618928571188,-0.16304859892164383,-0.15833167652611985,0.0005967654710236664,0.002695518742201987,-0.013142656291079188
641,13.0,299.83414,1523.6899,0.0,-0.003204984085101281,-0.0032049358124286442,0.0,0.0,0.0,-0.12555887211169586,-0.16604517463488283,-0.17155964644911884,-0.0027813353514714273,0.006839436857774864,-0.018335672484589983
642,13.0,299.86688,1475.4107,0.0,-0.003209998573839634,-0.0032099380226158214,0.0,0.0,0.0,-0.1185244339549509,-0.16432922545803186,-0.16563434224933685,-0.003906855690376637,0.01010032372319934,-0.017903218355160084
643,13.0,299.94367,1411.4415,0.0,-0.0032149800725205235,-0.0032149402328027765,0.0,0.0,0.0,-0.1098480240111559,-0.15585679289186785,-0.16333815540272084,-0.002793158865563317,0.0035944110041157464,-0.02229641747623508
644,13.0,300.26228,1408.2554,0.0,-0.0032199945612589875,-0.0032199424429899537,0.0,0.0,0.0,-0.11326405486829189,-0.15548052246723287,-0.15932991025963786,-0.008149180858311532,-0.004181474939804446,-0.017947772988557282
645,13.0,300.24085,1402.5484,0.0,-0.003224976059939877,-0.003224944653177131,0.0,0.0,0.0,-0.11267241813490189,-0.15864275443932085,-0.15502453965723084,0.0015754527285850783,-0.006809106431931483,-0.023864986386290775
646,13.0,300.0865,1417.7431,0.0,-0.00322999054867823,-0.003229946863364086,0.0,0.0,0.0,-0.1168481839170179,-0.16041153447638584,-0.15369879309388984,0.006218255271344014,-0.002976327632515667,-0.019705227929254582
647,13.0,300.04091,1436.0405,0.0,-0.0032349720473593413,-0.003234949073551263,0.0,0.0,0.0,-0.11491416305364488,-0.16409009843443184,-0.15751619258063784,0.005135232566807995,0.0026872041132063977,-0.01996514279190618
648,13.0,299.89457999999996,1416.5256,0.0,-0.0032399865360975832,-0.0032399512837382183,0.0,0.0,0.0,-0.11784624539801888,-0.16073533881084284,-0.15200681741440486,0.00039268194531219064,-0.0023752101205899876,-0.02148449409160448
649,13.0,300.05145,1462.9419,0.0,-0.0032449680347784726,-0.0032449534939252844,0.0,0.0,0.0,-0.11672781993763888,-0.16606786130462184,-0.16190213683099686,-0.002137269612857088,0.005834624901957645,-0.024406340583468276
650,13.0,299.93395,1521.3571,0.0,-0.0032499825235170476,-0.0032499227948349363,0.0,0.0,0.0,-0.1281817206580509,-0.17154466048013983,-0.16272818897502184,-0.003453629325946677,0.0020121169121804783,-0.024698110002763677
651,13.0,299.73009,1494.1948,0.0,-0.0032549970122552896,-0.0032549250050218914,0.0,0.0,0.0,-0.11798407780912189,-0.16611046847132685,-0.17010337300789585,-0.0018480264287110081,-0.002867921828166847,-0.017861215085514682
652,13.0,299.89596,1444.6415,0.0,-0.003259978510936179,-0.0032599272152090686,0.0,0.0,0.0,-0.11724702955388087,-0.16044366463705684,-0.16144424911080685,-0.005513769125291645,-0.003096095415535827,-0.02022854120840158
653,13.0,300.01036,1435.4233,0.0,-0.003264992999674643,-0.0032649294253961347,0.0,0.0,0.0,-0.1109588703607879,-0.15642823555076485,-0.16894572463614482,-0.002247298745191118,-0.0016087502546962885,-0.02160880670662318
654,13.0,299.91657999999995,1459.2565,0.0,-0.0032699744983555323,-0.00326993163558309,0.0,0.0,0.0,-0.11983400904669587,-0.15992041215291586,-0.16382311716558284,-0.00096716455715921,0.003643027959813867,-0.02181018611099778
655,13.0,299.96142000000003,1457.0488,0.0,-0.0032749889870938853,-0.003274933845770267,0.0,0.0,0.0,-0.11639454171474689,-0.16045350329552785,-0.16605840768118885,-0.0019760974923256386,0.00023800853734461377,-0.02194246185855238
656,13.0,300.03643,1454.0258,0.0,-0.0032799704857747747,-0.003279936055957222,0.0,0.0,0.0,-0.12607933815806188,-0.15910360084980285,-0.15680458703540784,-0.0013928335484869687,-0.0017654275977841383,-0.021475907810257083
657,13.0,300.13067,1460.764,0.0,-0.0032849849745132387,-0.0032849382661443993,0.0,0.0,0.0,-0.12026783207701089,-0.16524128227054483,-0.15852667650786484,-0.004718685957323046,0.0018030795662000985,-0.01842518299842398
658,13.0,300.17969,1467.1737,0.0,-0.003289966473194128,-0.0032899404763315765,0.0,0.0,0.0,-0.12360652155401387,-0.16701206854280784,-0.15536557937588885,0.005079241075557066,0.002546279262798198,-0.018081958712550382
659,13.0,300.05073,1511.7714,0.0,-0.003294980961932481,-0.0032949426865185316,0.0,0.0,0.0,-0.12120836121733389,-0.17165414215344482,-0.16667824316486185,0.0035272683915392863,-0.003417310997312337,-0.01669629461779598
660,13.0,300.03189,1538.0878,0.0,-0.003299995450670945,-0.003299944896705709,0.0,0.0,0.0,-0.12894729190360688,-0.17039750937942486,-0.16819548386460184,0.006911360085648133,-0.001808042059889858,-0.016884936455163483
661,13.0,299.67825,1467.3561,0.0,-0.0033049769493518344,-0.003304947106892775,0.0,0.0,0.0,-0.11355156458416689,-0.16612904134565984,-0.16635901872085684,0.00016828446748838382,-0.0008128866004406612,-0.020842107713705878
662,13.0,299.73059,1412.3565,0.0,-0.0033099914380902984,-0.003309949317079841,0.0,0.0,0.0,-0.11314792627433089,-0.15947973955192485,-0.15669345376443986,0.0015371250236774284,0.005422540645913095,-0.025630030570237078
663,13.0,299.65316,1439.9855,0.0,-0.0033149729367711878,-0.0033149515272670182,0.0,0.0,0.0,-0.10721226665852689,-0.16297874545974983,-0.16752863357628883,-0.003004610178581937,0.0006701305537892364,-0.018317495791046086
664,13.0,299.80924,1461.8526,0.0,-0.0033199874255095407,-0.0033199537374540844,0.0,0.0,0.0,-0.11642929619317689,-0.16363112653663486,-0.16430626521076586,0.0014290395076852185,-0.004058259573319036,-0.02430658003162268
665,13.0,299.93792,1472.9155,0.0,-0.00332496892419043,-0.0033249230383636252,0.0,0.0,0.0,-0.11381730968789389,-0.16884956720165484,-0.16506266654291685,-0.0031763485724811973,-0.002843251214732047,-0.02301992465713968
666,13.0,299.96623999999997,1460.1877,0.0,-0.003329983412928894,-0.0033299252485506914,0.0,0.0,0.0,-0.12206797220467089,-0.16900226399172483,-0.15279037384923586,-0.0016996368634910983,-0.000963231018946,-0.022406483794847776
667,13.0,299.97062,1465.7535,0.0,-0.003334997901667247,-0.0033349274587377575,0.0,0.0,0.0,-0.12101626926337589,-0.16931889451547383,-0.15521730035625486,-0.006426660450587004,-0.003953912443570776,-0.021762046598746778
668,13.0,300.13332,1511.2758,0.0,-0.0033399794003481365,-0.0033399296689247127,0.0,0.0,0.0,-0.12856155772303787,-0.17256927924626184,-0.15825927980647486,0.0015432456622314886,-0.0012704004110787586,-0.018724417031206083
669,13.0,300.19042,1532.7172,0.0,-0.0033449938890866004,-0.0033449318791116678,0.0,0.0,0.0,-0.12566901239756587,-0.17323600794456284,-0.16700273650938682,0.006570362923494333,0.002757606959304617,-0.02175094847040148
670,13.0,300.17462,1526.5785,0.0,-0.00334997538776749,-0.003349934089298845,0.0,0.0,0.0,-0.12365546153384388,-0.17331011705687682,-0.16707617687663484,0.006324486235678193,0.003097379912687597,-0.016371531748744384
671,13.0,299.97835,1464.499,0.0,-0.003354989876505843,-0.003354936299486022,0.0,0.0,0.0,-0.1166703179944639,-0.16212175879017185,-0.16637906080783485,0.005875796901221004,-0.004667625954308816,-0.01801761733120038
672,13.0,300.01962000000003,1468.6386,0.0,-0.003359971375186732,-0.0033599385096729772,0.0,0.0,0.0,-0.1178592149992989,-0.16568095175393685,-0.16288928560842086,-0.0014335729912826388,-0.009084786819048653,-0.01784819076872928
673,13.0,299.96506,1495.5006,0.0,-0.003364985863925196,-0.0033649407198601544,0.0,0.0,0.0,-0.12199883815034787,-0.16507320434395684,-0.16752279725571284,-0.00013481346282755288,-0.0007876827236107322,-0.019518197159546082
674,13.0,299.94628,1479.8535,0.0,-0.0033699673626060855,-0.0033699429300472206,0.0,0.0,0.0,-0.11833609102636287,-0.16534274913555885,-0.16615968202868384,-0.004218690400077326,0.003171736460676017,-0.023048642191473876
675,13.0,299.92914,1452.0411,0.0,-0.0033749818513445495,-0.0033749451402343977,0.0,0.0,0.0,-0.1133986246140729,-0.16887647912431084,-0.15910913319534886,-0.0027760674642015276,0.0018344456349706883,-0.02193352093966998
676,13.0,299.80946,1509.0016,0.0,-0.0033799963400829025,-0.003379947350421464,0.0,0.0,0.0,-0.12295085754680488,-0.17245741643522186,-0.16329053264802085,-0.0053300419562091845,-0.004109357674537026,-0.018460722745681484
677,13.0,299.62307000000004,1561.7084,0.0,-0.003384977838763792,-0.00338494956060853,0.0,0.0,0.0,-0.1281686395992599,-0.17923372912899183,-0.16731797888049885,0.005378818194823025,-0.0012954172520727287,-0.023412701939153777
678,13.0,299.87097,1533.4921,0.0,-0.003389992327502256,-0.003389951770795707,0.0,0.0,0.0,-0.1305415396109469,-0.17856661539565283,-0.15703515209566285,0.0041170993106010665,0.002730143220644157,-0.023233873429004778
679,13.0,299.92686000000003,1485.3849,0.0,-0.0033949738261831452,-0.003394921071705248,0.0,0.0,0.0,-0.12193431438397989,-0.17354202973976485,-0.15604357541530184,0.0008367235218256822,7.777667946871062e-05,-0.02128569948823498
680,13.0,300.05942000000005,1493.8568,0.0,-0.0033999883149214982,-0.003399923281892203,0.0,0.0,0.0,-0.12116259271031689,-0.17133044927649882,-0.16160211347638684,-0.004245655822338606,-0.0029801942962222774,-0.02141207710695748
681,13.0,300.1616,1491.477,0.0,-0.0034049698136023876,-0.0034049254920793803,0.0,0.0,0.0,-0.11399560117548989,-0.17163067528112885,-0.16774548936269085,0.0014527891781041286,0.001954456598014848,-0.024399764590319277
682,13.0,300.14117999999996,1465.8448,0.0,-0.0034099843023408516,-0.0034099277022663355,0.0,0.0,0.0,-0.1114815554248729,-0.16871058981793882,-0.16538806168003084,0.003998876024708336,0.0047094096526575455,-0.01924601690443398
683,13.0,300.28186,1476.1721,0.0,-0.003414965801021741,-0.0034149299124535126,0.0,0.0,0.0,-0.1126699660696599,-0.16684560168387882,-0.16920390076162484,0.002700983807941347,-0.0012238572743603088,-0.023719824123964377
684,13.0,300.19625,1484.4516,0.0,-0.003419980289760094,-0.0034199321226404678,0.0,0.0,0.0,-0.11847502788007488,-0.16789813549025584,-0.16486303600821484,-0.0038400077309292562,-0.007287688265538833,-0.019854951843531178
685,13.0,299.88326,1502.1561,0.0,-0.003424994778498558,-0.003424934332827423,0.0,0.0,0.0,-0.1252442478231449,-0.17137571115846584,-0.15999799671307285,-0.0002202894376783748,-8.091146553533992e-05,-0.024945669293695873
686,13.0,299.90127,1578.9470000000001,0.0,-0.0034299762771794473,-0.0034299365430146,0.0,0.0,0.0,-0.13341084097912487,-0.17608478086571483,-0.17046482971606883,0.004030636855717886,0.005343823272144295,-0.019177623535934083
687,13.0,299.85925,1564.0052,0.0,-0.0034349907659178003,-0.003434938753201666,0.0,0.0,0.0,-0.12862617268191487,-0.17511828212532882,-0.17167407278291183,-0.003164171738079437,0.003187052141237557,-0.016446113035604983
688,13.0,299.70102,1532.3619,0.0,-0.0034399722645988007,-0.0034399409633888434,0.0,0.0,0.0,-0.12380630407623089,-0.17559007163689083,-0.16640336867773384,-0.0037019312278771662,-0.0059158173417457145,-0.015126199753089684
689,13.0,299.85079,1571.1165,0.0,-0.0034449867533371537,-0.0034449431735760205,0.0,0.0,0.0,-0.12647509338211987,-0.17674088057046683,-0.17436421126840781,-0.0037433698132418366,-0.0026265873378989875,-0.016338901042523984
690,13.0,299.83825,1562.7127,0.0,-0.003449968252018043,-0.0034499453837629757,0.0,0.0,0.0,-0.12892252807116286,-0.1780172007939298,-0.16808591099878784,0.0012441209591351789,0.004971666744240305,-0.023687789208802774
691,13.0,299.90941000000004,1512.8319,0.0,-0.003454982740756507,-0.003454947593950153,0.0,0.0,0.0,-0.12362141633048387,-0.17086645165820583,-0.16537524406626586,-0.0013812694264206786,0.0002373990674094638,-0.018611416340303784
692,13.0,300.36644,1489.8898,0.0,-0.003459997229494971,-0.003459949804137108,0.0,0.0,0.0,-0.1182896537742799,-0.16546666962278883,-0.16913297325462484,0.0018969935636436884,-0.0024742130653358178,-0.02384635373020188
693,13.0,300.24638999999996,1486.3417,0.0,-0.0034649787281757494,-0.003464919105046649,0.0,0.0,0.0,-0.11364866434124989,-0.17196629411175182,-0.16619580439474885,-0.0012760374253600888,0.006970231335008274,-0.02101363170388398
694,13.0,300.11908999999997,1499.6854,0.0,-0.0034699932169142134,-0.003469921315233826,0.0,0.0,0.0,-0.11476068606099789,-0.17301858473810483,-0.16808763352395784,0.006343063264336603,0.009007939398339403,-0.028582412367114476
695,13.0,300.1147,1578.7339,0.0,-0.0034749747155951027,-0.003474923525420781,0.0,0.0,0.0,-0.12328832049260988,-0.1805826791196228,-0.17602468500228383,-0.005288227860357456,0.00014199800385411186,-0.021718523453951376
696,13.0,299.94655,1585.0838,0.0,-0.0034799892043334557,-0.0034799257356079583,0.0,0.0,0.0,-0.12829125299386088,-0.1792520588233008,-0.17428257370785083,-0.004203676668045586,-0.007348300075920753,-0.02614978835478318
697,13.0,299.89131000000003,1538.2382,0.0,-0.003484970703014345,-0.0034849279457951354,0.0,0.0,0.0,-0.12478830554314688,-0.17878016798672883,-0.16401752946226986,-0.004060829986172717,-0.0039429706597159065,-0.02176821627860568
698,13.0,299.87942000000004,1544.5862,0.0,-0.003489985191752809,-0.0034899301559820906,0.0,0.0,0.0,-0.12933094892147087,-0.17667501931396684,-0.16350965811464685,0.001828914403999798,0.003158857241304937,-0.02052245162515828
699,13.0,299.85835,1585.5168,0.0,-0.0034949666904336985,-0.0034949323661690457,0.0,0.0,0.0,-0.13119630182556688,-0.17687094135330284,-0.17389027366663382,-0.00041249936434551755,-0.003549396861798197,-0.017927054050512484
700,13.0,299.96326,1566.149,0.0,-0.0034999811791719404,-0.003499934576356112,0.0,0.0,0.0,-0.1268630364479069,-0.17501311689744983,-0.17419403591411284,0.004433807449307725,-0.006138587063681374,-0.017633974498837784
701,13.0,300.12866,1507.8843,0.0,-0.0035049956679105154,-0.003504936786543289,0.0,0.0,0.0,-0.11931911587587989,-0.17034287493403283,-0.16869718451911583,0.006153759774653805,0.005637944039621754,-0.024032294242802774
702,13.0,299.90752000000003,1520.0428,0.0,-0.003509977166591405,-0.003509938996730466,0.0,0.0,0.0,-0.12385172807821389,-0.17239201114126684,-0.16581130637930183,0.005119340245614545,0.0078088878036522225,-0.02114841423218598
703,13.0,300.0221,1561.455,0.0,-0.0035149916553296467,-0.0035149412069174213,0.0,0.0,0.0,-0.1281653769339379,-0.17235639540025183,-0.17412154800195884,-0.002619875974536628,-0.0047534870452576455,-0.024314576601411876
704,13.0,299.95604,1582.4853,0.0,-0.003519973154010758,-0.0035199434171045985,0.0,0.0,0.0,-0.13003945392139488,-0.17289473517838183,-0.17810181730978084,-0.010843242242894688,-0.008397168146085971,-0.019872699932282783
705,13.0,300.16024,1610.2304,0.0,-0.003524987642749222,-0.0035249456272915536,0.0,0.0,0.0,-0.12885089128909288,-0.17884479307810683,-0.18177415991221282,-0.0014259274113280784,0.0008992555424721122,-0.022417933520977776
706,13.0,300.05926,1594.7047,0.0,-0.0035299691414300005,-0.0035299478374787308,0.0,0.0,0.0,-0.12918315626188487,-0.17897202689316383,-0.17659520560358982,-0.0024858034305796977,0.007222687764998784,-0.02227770781313858
707,13.0,300.00288,1533.7469,0.0,-0.0035349836301684645,-0.003534950047665908,0.0,0.0,0.0,-0.12372316690552589,-0.17432714657974982,-0.16817045658713184,-0.0038574079709215265,-0.00030969023679154676,-0.02321220811536658
708,13.0,300.13524,1556.7798,0.0,-0.003539965128849354,-0.0035399193485752267,0.0,0.0,0.0,-0.12944074470230688,-0.17547694226322583,-0.16830447917785885,-0.001157551201066409,-0.006429956451837294,-0.01902343321521668
709,13.0,300.25526,1599.4667,0.0,-0.003544979617587707,-0.003544921558762404,0.0,0.0,0.0,-0.13438968110572885,-0.18150418955556882,-0.17030407758770386,0.0068420736385100935,0.0008548113229383091,-0.020220966150653982
710,13.0,299.99332000000004,1517.16,0.0,-0.003549994106326171,-0.003549923768949581,0.0,0.0,0.0,-0.12212314367261588,-0.17480051676146782,-0.16425510621321684,0.006666654208322544,0.005449281430627204,-0.02081126539391198
711,13.0,299.84921,1498.6757,0.0,-0.0035549756050070602,-0.003554925979136536,0.0,0.0,0.0,-0.11477400016731189,-0.17511209116721785,-0.16567390966574183,0.0044141603272187056,-0.007218292387389992,-0.023149646001192178
712,13.0,299.83622,1531.9015,0.0,-0.003559990093745302,-0.0035599281893237134,0.0,0.0,0.0,-0.11533312170499288,-0.17589060161655082,-0.17443609123050183,-0.0038460553141511063,-0.007490981395377304,-0.026151611191713078
713,13.0,299.87224,1537.1651,0.0,-0.0035649715924261915,-0.0035649303995106685,0.0,0.0,0.0,-0.11939380254075088,-0.17968991458901382,-0.16817609025768784,0.0016758567955691883,0.007339703560747343,-0.035034452604881264
714,13.0,299.90697,1569.7356,0.0,-0.0035699860811647666,-0.0035699326096978456,0.0,0.0,0.0,-0.12264815921193088,-0.18239394473338083,-0.17211833228925683,0.0012536145046221187,0.009417197395880022,-0.03100197355915657
715,13.0,299.92188,1553.7993,0.0,-0.003574967579845656,-0.003574934819884912,0.0,0.0,0.0,-0.12933972366733687,-0.17461845598349982,-0.16835801931314284,-0.0007115353979255764,-0.001076409119808309,-0.03014246693657987
716,13.0,299.99962,1521.7743,0.0,-0.003579982068583898,-0.003579937030071867,0.0,0.0,0.0,-0.12294725037644888,-0.16996516569425585,-0.16966895216002184,-0.004976242885666935,-0.007350826716370112,-0.020239813615764084
717,13.0,299.99188,1540.0423,0.0,-0.003584996557322362,-0.003584939240259044,0.0,0.0,0.0,-0.11958085864171189,-0.17494531020075785,-0.17360822536879783,0.006615405740789714,-0.001042994968610589,-0.02133697500954548
718,13.0,300.01858,1615.8966,0.0,-0.0035899780560034733,-0.003589941450445999,0.0,0.0,0.0,-0.13230274053726387,-0.17965092472516583,-0.17923856233196883,0.005737762144073035,0.003158967786890847,-0.012596573255684989
719,13.0,300.07689,1624.7879,0.0,-0.0035949925447418263,-0.0035949436606331764,0.0,0.0,0.0,-0.13512659763845689,-0.17997193248934684,-0.17879642051833283,0.0008894645067558123,-0.004225662877990456,-0.015106487985644285
720,13.0,300.10154,1591.9612,0.0,-0.0035999740434227157,-0.0035999458708203536,0.0,0.0,0.0,-0.13141788948993588,-0.17913767301951183,-0.17336087075438583,-0.0038204251528716066,-0.005415860591978824,-0.015107496169493785
721,13.0,300.08026,1625.3855,0.0,-0.0036049885321611796,-0.0036049480810073087,0.0,0.0,0.0,-0.13478505129474885,-0.18051489268793283,-0.17877665200888185,-0.0007737225487679702,0.003334414473506087,-0.02144948934039978
722,13.0,300.02802,1650.1955,0.0,-0.003609970030841847,-0.0036099173819168495,0.0,0.0,0.0,-0.13942420674509787,-0.18050994802744483,-0.18168406171332083,0.003513620520642347,0.008032346130355842,-0.023496847293708278
723,13.0,300.10537999999997,1628.0098,0.0,-0.003614984519580422,-0.0036149195921040267,0.0,0.0,0.0,-0.13009573996444987,-0.1803790057170218,-0.18439958211382182,0.003980283695973416,-0.006380177298274474,-0.023559912993182375
724,13.0,299.92311,1580.0377,0.0,-0.0036199660182613114,-0.003619921802290982,0.0,0.0,0.0,-0.12674966389421788,-0.17602133114445284,-0.17752102235246084,0.0027436099224232174,-0.005066676267692015,-0.026251344385805977
725,13.0,299.88927,1540.58,0.0,-0.0036249805069995533,-0.003624924012478159,0.0,0.0,0.0,-0.1195315437593449,-0.17352457144054184,-0.17524172638501181,0.0011741828908578289,0.0009090513607288841,-0.02734383976287687
726,13.0,299.89859,1524.7335,0.0,-0.0036299949957381283,-0.003629926222665225,0.0,0.0,0.0,-0.12080318276734589,-0.17659149710822383,-0.16608624166143585,0.0021605603823057077,0.006217146066459545,-0.03132770002905327
727,13.0,299.81924,1577.5168,0.0,-0.0036349764944190177,-0.0036349284328524023,0.0,0.0,0.0,-0.1275067947664409,-0.18040108443670083,-0.17161782726986086,-0.008940222779581291,0.0015280833877350886,-0.024426465756954476
728,13.0,299.85086,1616.3458,0.0,-0.0036399909831572597,-0.0036399306430394684,0.0,0.0,0.0,-0.13183689880378888,-0.1809780594411438,-0.17851381493294183,-0.004526456910626516,-0.002282270869742598,-0.022821728884579277
729,13.0,299.87416,1573.8004,0.0,-0.003644972481838149,-0.0036449328532265346,0.0,0.0,0.0,-0.12163501043694087,-0.18178890270116782,-0.17497212079840385,-0.0011046881194992288,0.002099412765270908,-0.020931323371760784
730,13.0,299.97952999999995,1573.9609,0.0,-0.003649986970576613,-0.0036499350634134897,0.0,0.0,0.0,-0.1209159473709749,-0.18374553930677284,-0.17378332511857883,-0.005514789062842305,0.004600467535030795,-0.025397090451747678
731,13.0,300.03821,1668.1794,0.0,-0.0036549684692575024,-0.003654937273600445,0.0,0.0,0.0,-0.12835395291004886,-0.19065180132586781,-0.18807912892446482,-0.0016326656928315583,-0.006259994791988384,-0.026538833836678974
732,13.0,300.04898,1643.2501,0.0,-0.0036599829579960774,-0.003659939483787622,0.0,0.0,0.0,-0.13620847516772985,-0.1845599694721508,-0.17873854367262082,0.003348352843206697,-0.0059551770418802144,-0.026705265231854475
733,13.0,300.08898999999997,1550.5847,0.0,-0.003664964456676967,-0.003664941693974799,0.0,0.0,0.0,-0.12285942185778088,-0.17468181451225284,-0.17379780446250784,0.007697924961351043,0.005432795851500204,-0.026589027206882675
734,13.0,300.25751,1568.3587,0.0,-0.003669978945415431,-0.0036699439041617543,0.0,0.0,0.0,-0.1289843059297599,-0.1761923373638298,-0.17156523958967085,0.005890024452500155,0.005058576954342675,-0.025296973235866875
735,13.0,300.14817999999997,1581.7976,0.0,-0.0036749934341537838,-0.0036749461143489315,0.0,0.0,0.0,-0.13000545938053987,-0.16850942927558585,-0.18231208425780182,-0.0015676554650905484,-0.005796413619486484,-0.019178684408788782
736,13.0,299.91598999999997,1591.6223,0.0,-0.003679974932834673,-0.0036799154152584723,0.0,0.0,0.0,-0.13450118927923385,-0.17353461274903284,-0.17577763436290184,-0.0052060231837194855,-0.010365429972738292,-0.021573244667863478
737,13.0,299.86587000000003,1668.9288,0.0,-0.003684989421573137,-0.0036849176254454274,0.0,0.0,0.0,-0.13556838481455788,-0.18329103584191683,-0.18845325125888782,-0.0004369561212142116,-8.366834579167281e-05,-0.018518522584385883
738,13.0,299.71445,1651.5407,0.0,-0.0036899709202538045,-0.0036899198356326046,0.0,0.0,0.0,-0.14253477309458684,-0.17898668862211084,-0.18050568224452382,-0.007642955636800992,0.01034695538366499,-0.018829079687035483
739,13.0,299.99348,1629.5215,0.0,-0.0036949854089922685,-0.0036949220458196708,0.0,0.0,0.0,-0.13006815929672788,-0.18649592564321482,-0.17876977204070285,-0.008248907364953774,0.004529356528437686,-0.01983884420669148
740,13.0,299.98715,1641.779,0.0,-0.003699966907673269,-0.003699924256006848,0.0,0.0,0.0,-0.13219866961949286,-0.18467793204879282,-0.18218322924258482,-0.005034808336146895,-0.0005281842459552265,-0.01909555939708498
741,13.0,300.00548,1644.8582,0.0,-0.003704981396411511,-0.003704926466194025,0.0,0.0,0.0,-0.13453996636056087,-0.17990372049261483,-0.18555212370506882,0.002926528213950847,0.009110915803352382,-0.02184534791596798
742,13.0,300.02258,1573.8331,0.0,-0.003709995885149975,-0.0037099286763809802,0.0,0.0,0.0,-0.11783566706697489,-0.18339717378989182,-0.17717312293062581,0.007292270587791072,0.002529802498947068,-0.028049965651566075
743,13.0,300.09587,1527.7861,0.0,-0.003714977383830864,-0.0037149308865681574,0.0,0.0,0.0,-0.11464912722498789,-0.17802936992763083,-0.17173032842846384,0.0026688592201458976,-0.006640723213088354,-0.028837906419579774
744,13.0,300.1444,1576.8818,0.0,-0.003719991872569217,-0.0037199330967551125,0.0,0.0,0.0,-0.12608718071383587,-0.17951077197133383,-0.17373473977628384,-0.0013454246908830786,-0.01076330795575579,-0.027779722730645176
745,13.0,300.12864,1584.3269,0.0,-0.0037249733712503286,-0.0037249353069422897,0.0,0.0,0.0,-0.12630797804312688,-0.18146832050202882,-0.17381950827964981,0.0050180680259447556,-0.00020777797743108981,-0.02962040806105667
746,13.0,300.09067000000005,1576.0306,0.0,-0.0037299878599885705,-0.003729937517129245,0.0,0.0,0.0,-0.12247591682743188,-0.18193451687303883,-0.17466351521544682,0.0004026247962909736,0.007066885971322342,-0.028643179002111673
747,13.0,300.05575,1641.1899,0.0,-0.003734969358669682,-0.0037349397273162,0.0,0.0,0.0,-0.13181273278890387,-0.18504484004250382,-0.18202318638928983,-0.006391786813945244,-0.0016746265072977683,-0.024347826403443375
748,13.0,299.97008999999997,1651.476,0.0,-0.003739983847408035,-0.003739941937503377,0.0,0.0,0.0,-0.13316104443197188,-0.1862611758600468,-0.18258524635226084,-0.0099631029098567,-0.0030678373901219767,-0.02391682324815668
749,13.0,299.9544,1656.7046,0.0,-0.0037449653460889243,-0.0037449441476904433,0.0,0.0,0.0,-0.13755399024052187,-0.18675441587622582,-0.17928842436938983,0.0030404649452955273,0.0036449746159059864,-0.02298214866691148
750,13.0,300.065,1705.4951,0.0,-0.0037499798348273883,-0.003749913448599873,0.0,0.0,0.0,-0.14451944633045888,-0.19097522062528682,-0.1829332572316068,0.004060661786656116,0.008280125701859783,-0.021540834850164878
751,13.0,299.84012,1671.4822,0.0,-0.0037549943235656302,-0.0037549156587870502,0.0,0.0,0.0,-0.13410430934756487,-0.1854198135070108,-0.18856471890238882,-0.0017434780674928884,-0.0011986707139745886,-0.01921968050783478
752,13.0,299.87687999999997,1584.4654,0.0,-0.0037599758222465196,-0.0037599178689741164,0.0,0.0,0.0,-0.12430874440331788,-0.17725562175376783,-0.18007355134187583,-0.004784682077411355,-0.004111149404688856,-0.01891000493277218
753,13.0,299.98267000000004,1586.1132,0.0,-0.0037649903109850946,-0.0037649200791612936,0.0,0.0,0.0,-0.12507157987360387,-0.1754274956583458,-0.18163973202144584,0.00018413649172535683,0.004149230585847176,-0.018842971345906484
754,13.0,299.92172,1646.4793,0.0,-0.003769971809665762,-0.0037699222893484707,0.0,0.0,0.0,-0.13555755317098886,-0.17980334793770883,-0.1851276935031808,0.0071294297456699325,0.007181814978489953,-0.021950629667608478
755,13.0,300.16587000000004,1651.415,0.0,-0.003774986298404226,-0.003774924499535426,0.0,0.0,0.0,-0.13818521465531886,-0.18063360506964882,-0.18317010444248183,0.002149731271861958,-0.007740293507657492,-0.02342508486862588
756,13.0,300.20957999999996,1638.4462,0.0,-0.0037799677970851153,-0.003779926709722603,0.0,0.0,0.0,-0.13727525527051287,-0.18286444741731583,-0.1779070301105568,-0.0024220677701394778,-0.008050418763114473,-0.025268511040557873
757,13.0,300.04109,1669.0539999999999,0.0,-0.0037849822858234683,-0.003784928919909558,0.0,0.0,0.0,-0.13780293565759086,-0.1870657369694508,-0.18248206709457782,0.00034116364927773066,-0.002817024958418717,-0.026032324297190376
758,13.0,300.27263,1713.1760000000002,0.0,-0.0037899637845045797,-0.0037899311300967353,0.0,0.0,0.0,-0.13869117096025288,-0.1979202394607068,-0.18415129530931784,0.0021385695114103783,0.0014895853554856286,-0.02667700366006527
759,13.0,300.03696,1671.1365,0.0,-0.0037949782732428217,-0.0037949333402839125,0.0,0.0,0.0,-0.13022107900181987,-0.1939862148874488,-0.18377648396482682,-0.007099692071135053,-0.008285619037276933,-0.024993419717908475
760,13.0,299.88142,1618.4849,0.0,-0.0037999927619811746,-0.0037999355504708676,0.0,0.0,0.0,-0.12733075269406688,-0.18885453882849182,-0.1757937045094878,-0.004964490501732066,-0.01003922251301912,-0.02659812720603077
761,13.0,299.98613,1575.2064,0.0,-0.003804974260662175,-0.0038049377606578227,0.0,0.0,0.0,-0.12361832591767889,-0.1824986843962178,-0.17270639224979384,-0.002646765605690427,0.001021723302636239,-0.028938222232480174
762,13.0,300.05239,1567.2875,0.0,-0.003809988749400528,-0.003809939970844889,0.0,0.0,0.0,-0.12269988562953589,-0.18299619019531782,-0.17072020927127285,0.004131426464365045,0.008365705818555882,-0.03507276865741277
763,13.0,299.77823,1622.0329,0.0,-0.0038149702480816394,-0.003814942181032066,0.0,0.0,0.0,-0.12406867505712489,-0.18384387522897783,-0.18514494915238383,0.00041969679391334864,-0.0022391614349630278,-0.027126401357667376
764,13.0,299.94896,1653.741,0.0,-0.0038199847368198814,-0.0038199443912192432,0.0,0.0,0.0,-0.1293945810277509,-0.18719999260770082,-0.18610140658427882,-0.003916792634107337,-0.0012293331818757389,-0.025440190058001272
765,13.0,299.74827999999997,1623.1689,0.0,-0.0038249662355007708,-0.003824913692128673,0.0,0.0,0.0,-0.1188381260534099,-0.18833410317962881,-0.18623057570702684,0.0031456251069240273,0.0058729500737400445,-0.023534277765652374
766,13.0,300.14501,1705.8492,0.0,-0.0038299807242393458,-0.003829915902315739,0.0,0.0,0.0,-0.14247347146353687,-0.19108717462883582,-0.18497492578560384,0.0014341429444638888,0.009239848737502072,-0.023885602986075477
767,13.0,300.18487999999996,1817.0610000000001,0.0,-0.0038349952129775877,-0.0038349181125029164,0.0,0.0,0.0,-0.15980203414373284,-0.19758918025553382,-0.1949499474550618,-0.0012403477170877886,-0.006261742040460824,-0.017195509769814682
768,13.0,300.08498,1740.3947,0.0,-0.003839976711658477,-0.0038399203226898715,0.0,0.0,0.0,-0.14940510526513587,-0.19174530083378782,-0.1878861453104188,-0.0019063579197428782,-0.013521541914222286,-0.01788840261219788
769,13.0,300.18989,1698.2955,0.0,-0.003844991200396941,-0.0038449225328770487,0.0,0.0,0.0,-0.13834522711111089,-0.1924314332715038,-0.18546276517874982,0.002645908700080857,-0.007452434220497993,-0.01999112353772028
770,13.0,300.11303,1703.3611,0.0,-0.0038499726990777194,-0.003849924743064004,0.0,0.0,0.0,-0.13763130122315187,-0.18951077025575683,-0.19063719025942583,0.004247661348261536,-0.00047103006034704745,-0.017502626888374784
771,13.0,299.91987,1677.0048,0.0,-0.0038549871878161834,-0.003854926953251181,0.0,0.0,0.0,-0.13117236885820488,-0.18539916346997282,-0.1931960621944668,-0.001053465793818979,-0.0024136747155861474,-0.018774613441160083
772,13.0,299.90522000000004,1682.3208,0.0,-0.003859968686497073,-0.003859929163438358,0.0,0.0,0.0,-0.1327073819646989,-0.1914988074819608,-0.1871773160704628,-0.0017143764100457785,-0.0012491844738599087,-0.02198503052175358
773,13.0,300.04132999999996,1687.8337,0.0,-0.0038649831752354258,-0.0038649313736253132,0.0,0.0,0.0,-0.13666194511748386,-0.1916541691197938,-0.18474317522273184,0.0006911785954665165,0.01052496417448309,-0.026823792188802178
774,13.0,299.84103999999996,1628.829,0.0,-0.003869964673916426,-0.0038699335838124904,0.0,0.0,0.0,-0.12836502773364186,-0.19053214662155882,-0.17622616978466882,0.001129293276977569,0.009115563682886092,-0.03481847226656567
775,13.0,300.05992000000003,1645.5168,0.0,-0.003874979162654779,-0.0038749357939994455,0.0,0.0,0.0,-0.12895585386695188,-0.18986772813348582,-0.18137243664506583,-0.006049282847567734,-0.0009154686687797232,-0.027106394734442877
776,13.0,300.15116,1722.2969,0.0,-0.003879993651393021,-0.0038799380041866227,0.0,0.0,0.0,-0.13836094262016188,-0.1974572145625098,-0.18771709466373482,-0.006899328247335682,-0.0028559069111310674,-0.027382350359427578
777,13.0,299.97549,1730.086,0.0,-0.0038849751500741325,-0.003884940214373689,0.0,0.0,0.0,-0.13277783324415188,-0.20276416262376482,-0.19036094788466282,-0.0013246866024113888,0.00035124992580816866,-0.025624766735967575
778,13.0,299.98746,1666.7143,0.0,-0.0038899896388125965,-0.003889942424560644,0.0,0.0,0.0,-0.13362547774780786,-0.19610838616189083,-0.17690568569923182,0.0018180101103986283,0.0012700394913931388,-0.027484532579012178
779,13.0,299.9535,1658.7558,0.0,-0.003894971137493597,-0.003894911725470296,0.0,0.0,0.0,-0.13358913246672088,-0.19065626975880884,-0.17997492157714182,-0.001975131358355288,-0.003961457306465396,-0.024351843940089875
780,13.0,300.0693,1673.096,0.0,-0.003899985626231839,-0.003899913935657362,0.0,0.0,0.0,-0.13555909331114088,-0.19269972163298182,-0.18032060198125782,-0.0016803024303829383,-0.0034205052682525867,-0.025561476094971274
781,13.0,300.15301,1646.8829,0.0,-0.0039049671249127282,-0.003904916145844317,0.0,0.0,0.0,-0.13186657689921788,-0.18798704475537684,-0.18075765727939183,0.005232008185184005,0.003414917193951087,-0.02953317229369717
782,13.0,299.9886,1653.4168,0.0,-0.003909981613651192,-0.003909918356031494,0.0,0.0,0.0,-0.1264378767059469,-0.18851425904740882,-0.1876452856291478,0.0020203849316714683,0.007390608536496273,-0.027198745388307174
783,13.0,299.83274,1662.4092,0.0,-0.003914963112331971,-0.003914920566218449,0.0,0.0,0.0,-0.13059227304345386,-0.18646964193562082,-0.18826897146320082,-0.001949635351389028,-0.002812391365711417,-0.020772368749073178
784,13.0,299.85651,1663.5685,0.0,-0.003919977601070435,-0.003919922776405627,0.0,0.0,0.0,-0.13775220222508386,-0.18380692199783083,-0.18412414020663784,-0.00935185056645579,-0.0021830560544008576,-0.01894834327680588
785,13.0,299.85318,1750.1109,0.0,-0.003924992089808899,-0.003924924986592804,0.0,0.0,0.0,-0.14593712507537285,-0.1958280603892248,-0.1902248379987298,-0.0014387455317181287,0.0061501777329002845,-0.02152334615343888
786,13.0,299.95257000000004,1797.8223,0.0,-0.003929973588489677,-0.003929927196779759,0.0,0.0,0.0,-0.15281577602924284,-0.2022436661798958,-0.1914336352355288,0.0022550329845294277,0.004627178327541946,-0.01896227141268048
787,13.0,300.00916,1726.1327,0.0,-0.003934988077228141,-0.003934929406966936,0.0,0.0,0.0,-0.14793973283801487,-0.19018894868018782,-0.18657256788077883,-0.005060807117812775,-0.0013749051012175687,-0.016476897600143182
788,13.0,300.05835,1688.0564,0.0,-0.00393996957590903,-0.003939931617154002,0.0,0.0,0.0,-0.13589123669392086,-0.1903255753236718,-0.18691018281409882,-0.002091363911776548,-0.00932161437287171,-0.019103964306664483
789,13.0,300.23666000000003,1728.1989,0.0,-0.003944984064647272,-0.003944933827341179,0.0,0.0,0.0,-0.13753938930658088,-0.1953428250488358,-0.1924470778530478,-0.0017391657763922983,0.00032087032693743574,-0.018825024660135282
790,13.0,300.16076,1739.5955,0.0,-0.003949965563328384,-0.0039499360375282455,0.0,0.0,0.0,-0.14006656677849388,-0.19908990497864382,-0.18963713267572782,0.005358524619170205,0.003634164250589087,-0.025976073717888872
791,13.0,300.11798,1676.8602,0.0,-0.003954980052066848,-0.003954938247715312,0.0,0.0,0.0,-0.1281157175465369,-0.19544542675396182,-0.18616248530030682,0.0002026773574876978,-0.004057736736267436,-0.030666688087816474
792,13.0,300.05965,1650.8846,0.0,-0.003959994540805201,-0.003959940457902267,0.0,0.0,0.0,-0.13214973977216388,-0.19120708264566982,-0.17847087339370382,0.0012633861872615088,-0.005515522757239715,-0.03551925832722786
793,13.0,299.96124,1640.5947,0.0,-0.00396497603948609,-0.003964909758811919,0.0,0.0,0.0,-0.12476837491367987,-0.18987431425913584,-0.18405713397752482,-0.0014030936176745586,0.002821449011005338,-0.03446655429483407
794,13.0,299.93852999999996,1638.6896,0.0,-0.003969990528224554,-0.003969911968998985,0.0,0.0,0.0,-0.12489365315604388,-0.1932133381086718,-0.18001372905597182,0.005696772327177655,0.001932992617171518,-0.03445804299399407
795,13.0,299.98317000000003,1697.0945,0.0,-0.003974972026905443,-0.003974914179186162,0.0,0.0,0.0,-0.13112161516069587,-0.1944625640244608,-0.1902901521001758,-0.001170508947320239,-0.004160597529444006,-0.02225745800989008
796,13.0,300.03186,1723.7163,0.0,-0.003979986515643796,-0.003979916389373117,0.0,0.0,0.0,-0.14239340444063486,-0.1930907044490688,-0.18848260511428483,-0.00013055259416953788,-0.004624903885042476,-0.023436114095964376
797,13.0,300.0109,1699.3259,0.0,-0.003984968014324686,-0.003984918599560072,0.0,0.0,0.0,-0.13304692207320887,-0.1975822800223528,-0.18592343933671482,-0.00017842602694427784,0.002317912955260198,-0.02300733502464718
798,13.0,299.8747,1744.4544,0.0,-0.00398998250306315,-0.003989920809747249,0.0,0.0,0.0,-0.14156389711376885,-0.2010862508556678,-0.18762042047169383,-0.0014208226573242785,0.0015186603644551085,-0.025676537736576976
799,13.0,300.00587,1823.1779,0.0,-0.003994964001743928,-0.0039949230199342045,0.0,0.0,0.0,-0.15145221497216987,-0.2012488470992148,-0.2014994947764518,-0.004503013545712836,-0.00097855257635812,-0.018635960297476085
800,13.0,300.32937999999996,1789.1605,0.0,-0.003999978490482392,-0.003999925230121382,0.0,0.0,0.0,-0.14900076781273086,-0.2006848619610538,-0.1941744868885298,-0.0036810521963165665,-0.004058437702686616,-0.02177062173434308
801,13.0,300.22693,1685.1268,0.0,-0.004004992979220856,-0.004004927440308448,0.0,0.0,0.0,-0.13645163492672788,-0.1874055607879888,-0.18837927386908682,0.0033738743840754765,0.003094833513861287,-0.024498985079861577
802,13.0,300.1351,1675.6748,0.0,-0.004009974477901523,-0.004009929650495625,0.0,0.0,0.0,-0.13891400492224487,-0.1881799371769138,-0.18226936563358584,0.0033019862146556663,0.006769069374105134,-0.028008342350708173
803,13.0,300.14658,1719.1153,0.0,-0.004014988966640098,-0.004014931860682802,0.0,0.0,0.0,-0.13424085493104088,-0.1904362627645958,-0.19789100719532182,0.003149810843087127,8.037491718338672e-06,-0.02251774676182858
804,13.0,299.94521000000003,1760.1825,0.0,-0.004019970465321099,-0.004019934070869757,0.0,0.0,0.0,-0.14522073698967086,-0.1955499131042738,-0.1942808882815308,0.0006620227190065553,-0.00015339553747146088,-0.029490729273508372
805,13.0,300.08524,1789.4352,0.0,-0.004024984954059452,-0.0040249362810569345,0.0,0.0,0.0,-0.13658106749450186,-0.2026775297402148,-0.20468502136833883,0.0018580181892721183,0.004432756708954026,-0.027012879856213676
806,13.0,300.10562999999996,1708.7179999999998,0.0,-0.004029966452740341,-0.00402993849124389,0.0,0.0,0.0,-0.13220506322762388,-0.1961490782859068,-0.1910534637980088,0.0016303098863490583,-0.0012551729846009287,-0.027325634698330173
807,13.0,299.90404,1711.9620000000002,0.0,-0.004034980941478805,-0.004034940701431067,0.0,0.0,0.0,-0.13037711951721986,-0.2017430395704878,-0.18827353108865083,-0.005486055924456564,-0.005310308707861665,-0.023798280079207375
808,13.0,299.95586000000003,1836.5087,0.0,-0.0040399624401596945,-0.004039910002340608,0.0,0.0,0.0,-0.15339841510174487,-0.2080366703141208,-0.1968177017618948,-0.004521083847996236,-0.0068125533061216634,-0.023357515272457278
809,13.0,299.92564,1795.7851,0.0,-0.0040449769288980475,-0.004044912212527563,0.0,0.0,0.0,-0.14448741749479788,-0.2074715706008498,-0.1939148415504048,0.007682382211442093,0.000984405473705756,-0.02955643246299277
810,13.0,299.94786,1658.6958,0.0,-0.0040499914176365115,-0.00404991442271474,0.0,0.0,0.0,-0.1299436308594379,-0.19413724994735482,-0.18012122475908085,0.002444294323008068,0.003349748595219447,-0.029071460567629773
811,13.0,300.11282,1645.8505,0.0,-0.004054972916317401,-0.004054916632901695,0.0,0.0,0.0,-0.12050787102570087,-0.19233612696709781,-0.18745344698771482,0.0027673532093664974,-0.002252648199094068,-0.033065570871817766
812,13.0,299.99835,1737.7504,0.0,-0.004059987405055754,-0.00405991884308865,0.0,0.0,0.0,-0.13905486695114688,-0.19586343295021583,-0.19331444020364982,-0.0018361093916348884,-0.002932851502524907,-0.028399273491040076
813,13.0,300.09889,1752.7525,0.0,-0.004064968903736643,-0.004064921053275827,0.0,0.0,0.0,-0.14178442086553286,-0.19779695732103983,-0.19321161558350183,0.0035320626857124463,0.008329511410408772,-0.036125147436524466
814,13.0,300.14965,1715.8811,0.0,-0.004069983392475107,-0.0040699232634628935,0.0,0.0,0.0,-0.14263561174453887,-0.1930961253371038,-0.18585327176728983,0.003506459780860637,0.006400809603435724,-0.029299167249352675
815,13.0,300.29307,1712.2389,0.0,-0.0040749648911557745,-0.004074925473650071,0.0,0.0,0.0,-0.13771758960166786,-0.1924440786327518,-0.19031619262774582,-0.0033063323483095964,-0.0001235890733872919,-0.025070289936744976
816,13.0,300.19858999999997,1785.0031,0.0,-0.0040799793798943496,-0.004079927683837248,0.0,0.0,0.0,-0.14878128770856988,-0.19856421056176182,-0.19525088273476182,-0.0034559004247208167,-0.005681329078428525,-0.018588088283251484
817,13.0,300.00117,1863.4994,0.0,-0.0040849938686328136,-0.004084929894024203,0.0,0.0,0.0,-0.14198775989560086,-0.2078324497564658,-0.2166370662354138,0.0004473510235926086,-0.002822279977412347,-0.024200591031412377
818,13.0,299.90272000000004,1856.7163,0.0,-0.004089975367313703,-0.00408993210421138,0.0,0.0,0.0,-0.15284410650203886,-0.2032317471474118,-0.2083195494770388,0.004721405925891486,-0.003227502301129677,-0.01310345769771059
819,13.0,299.93567,1733.9689,0.0,-0.004094989856051945,-0.004094934314398335,0.0,0.0,0.0,-0.13907404777553986,-0.1948798710781458,-0.19312934980788282,-0.0017442589793449585,-0.01105223926152109,-0.01845353576272218
820,13.0,299.86458999999996,1692.1709,0.0,-0.004099971354733056,-0.004099936524585512,0.0,0.0,0.0,-0.14427248688358588,-0.1910224583449488,-0.17908274473159083,0.0035697122223281664,-0.006291513962849084,-0.02201949115765458
821,13.0,299.81403,1773.7707,0.0,-0.004104985843471409,-0.0041049387347726896,0.0,0.0,0.0,-0.14352326949464386,-0.2026743278698988,-0.1929844145135788,0.002106383824633898,0.001091343717007239,-0.03246669446646326
822,13.0,299.87439,1789.6593,0.0,-0.004109967342152299,-0.004109908035682008,0.0,0.0,0.0,-0.14864903830551784,-0.1996200171659618,-0.19574267380329782,0.0060393153036840145,0.004615545608443886,-0.028189818483368476
823,13.0,299.96131,1695.5309,0.0,-0.004114981830890763,-0.0041149102458691855,0.0,0.0,0.0,-0.11954516184068889,-0.1992249813494748,-0.1966289231357638,-0.0028759466676338374,-0.0012664226951611887,-0.03896082207363376
824,13.0,300.08474,1675.1706,0.0,-0.004119963329571652,-0.004119912456056363,0.0,0.0,0.0,-0.12826966063422987,-0.1924563592239638,-0.1884840033994228,-0.004401850047778775,0.002032152109057798,-0.025883940912796076
825,13.0,300.18275,1754.7147,0.0,-0.004124977818310005,-0.004124914666243318,0.0,0.0,0.0,-0.13596158664836386,-0.2027590355782588,-0.19466883134731783,-0.0013177795804547186,0.00874294845666183,-0.03826684100064317
826,13.0,300.24768,1809.2466,0.0,-0.004129992307048469,-0.004129916876430495,0.0,0.0,0.0,-0.14799711319117786,-0.2066387499461568,-0.1953299263750628,0.0015107226644967187,0.006499396203715464,-0.025357900977629976
827,13.0,300.2112,1786.5789,0.0,-0.004134973805729358,-0.00413491908661745,0.0,0.0,0.0,-0.14292524928562386,-0.2022453279100598,-0.19790478739668182,0.0006451420128705594,-0.005543247103825895,-0.030775864772841367
828,13.0,300.15353,1775.4298,0.0,-0.0041399882944676,-0.004139921296804516,0.0,0.0,0.0,-0.14049839370611186,-0.2027674860840928,-0.1964204367951878,-0.0012928996295492588,-0.006590057668338055,-0.018207578420198083
829,13.0,299.98952,1739.2309,0.0,-0.00414496979314849,-0.004144923506991693,0.0,0.0,0.0,-0.12849698329416487,-0.20223013929106082,-0.19795564241920083,0.003870534524642016,0.0014683618188910286,-0.030156789226743374
830,13.0,299.9907,1794.8742,0.0,-0.004149984281887065,-0.0041499257171786486,0.0,0.0,0.0,-0.14393448691522787,-0.2027979747796018,-0.19886447709639582,0.0033147528619406367,-0.0013949975467255388,-0.02055827406919368
831,13.0,299.8398,1869.0003,0.0,-0.004154965780567954,-0.004154927927365826,0.0,0.0,0.0,-0.15328089835514686,-0.2059475005954358,-0.20890102331192578,-0.004197927892278226,-0.007121664196903533,-0.023726339322107378
832,13.0,299.72262,1779.7441,0.0,-0.004159980269306196,-0.004159930137552781,0.0,0.0,0.0,-0.15158868962813887,-0.19378464904505582,-0.1956244275166278,-0.0015825641230869185,-0.003040637400462547,-0.023729835034952376
833,13.0,299.69477,1705.029,0.0,-0.0041649617679873074,-0.004164932347739958,0.0,0.0,0.0,-0.13877122785065385,-0.19308721886872482,-0.18642779470649082,0.0005681619171932154,0.0075902764601269625,-0.03124330541497417
834,13.0,299.89923999999996,1755.7784,0.0,-0.00416997625672566,-0.004169934557927135,0.0,0.0,0.0,-0.14067915752395185,-0.19489035821668083,-0.1981432558077168,0.0016696238889040483,0.01121036909862729,-0.027189279605872977
835,13.0,299.89007999999995,1824.0852,0.0,-0.004174990745463902,-0.00417493676811409,0.0,0.0,0.0,-0.14166858611410088,-0.20333549382515081,-0.20947226332080282,-0.0007142122324372592,-0.00024335433341470274,-0.024018951765485977
836,13.0,300.18782000000004,1826.3696,0.0,-0.004179972244145014,-0.004179906069023631,0.0,0.0,0.0,-0.14660386390617486,-0.2060826681587758,-0.20248422188613682,-0.0015131851662147486,0.0019058848332711884,-0.023162226514433774
837,13.0,300.15783,1788.3052,0.0,-0.004184986732883256,-0.004184908279210808,0.0,0.0,0.0,-0.14288451663160387,-0.2067536626399978,-0.1939619576800548,0.0008358808726450192,0.006574102120338364,-0.02924210201697077
838,13.0,300.09959,1816.5118,0.0,-0.004189968231564256,-0.0041899104893977634,0.0,0.0,0.0,-0.15145920639785987,-0.2062998380527088,-0.1944151743172838,-0.002769866778889567,0.0018628352815725283,-0.024946899379317277
839,13.0,300.11811,1820.8956,0.0,-0.00419498272030272,-0.004194912699584941,0.0,0.0,0.0,-0.14557968083759587,-0.2084070942856788,-0.1995200296460938,-0.004982899736173915,-0.007853996482204103,-0.03164211254833337
840,13.0,300.12108,1836.9889,0.0,-0.0041999642189836095,-0.004199914909772007,0.0,0.0,0.0,-0.14347717674759486,-0.20837516677502782,-0.2065464023320428,-0.005963374741814264,-0.0048793985689341455,-0.026987670193725676
841,13.0,300.05334,1798.7279,0.0,-0.0042049787077218514,-0.004204917119959073,0.0,0.0,0.0,-0.13123063073895488,-0.2083725627222708,-0.2071651536381088,0.003078208308870507,0.0042700184077430064,-0.038087170479661064
842,13.0,300.04207,1674.0546,0.0,-0.0042099931964604265,-0.004209919330146139,0.0,0.0,0.0,-0.1264963615017189,-0.19288855092161783,-0.18948590509830282,-0.0009134923649896773,0.0035472331675346566,-0.025611974453455075
843,13.0,299.90733,1660.9152,0.0,-0.004214974695141316,-0.004214921540333094,0.0,0.0,0.0,-0.12372801024100388,-0.19543344000527882,-0.1857152975011728,0.003811176813908867,-0.004978613688250915,-0.03568041474238277
844,13.0,299.88494,1807.1199,0.0,-0.004219989183879558,-0.004219923750520271,0.0,0.0,0.0,-0.15284601141222687,-0.1984858660640298,-0.1979874584723408,0.0028873148271307872,-0.004322879766785016,-0.022470146298630776
845,13.0,299.9861,1862.3419,0.0,-0.004224970682560447,-0.0042249259607072265,0.0,0.0,0.0,-0.15265304806318283,-0.20999991331037782,-0.2034524532841938,0.01127453113470959,0.00098169263841802,-0.03866824205425836
846,13.0,299.99575,1814.8853,0.0,-0.004229985171299022,-0.004229928170894404,0.0,0.0,0.0,-0.14848697908452385,-0.2037131118724188,-0.19947973268961683,0.0017381068287127884,-0.00016218772137168184,-0.024770246317132975
847,13.0,299.98323,1843.4151,0.0,-0.0042349666699799116,-0.004234930381081581,0.0,0.0,0.0,-0.14718672589369886,-0.2050104975654608,-0.20815494699829382,-0.0058495352824791845,-0.006187211314780214,-0.023749826459425378
848,13.0,299.87872999999996,1885.6662,0.0,-0.0042399811587181535,-0.004239932591268536,0.0,0.0,0.0,-0.15782223464084186,-0.20775251445607681,-0.20762069061806682,-0.006719162247054683,0.0025325026078135476,-0.016245543218060283
849,13.0,299.9167,1856.4716,0.0,-0.004244962657399265,-0.004244934801455713,0.0,0.0,0.0,-0.14978806314043086,-0.2103320364281558,-0.20420091073556082,-0.0046081604337650265,0.006191249623053764,-0.024105797431556976
850,13.0,299.90801,1834.5765,0.0,-0.004249977146137507,-0.004249937011642779,0.0,0.0,0.0,-0.15292733486525287,-0.20339835586135482,-0.2013397457656858,0.00011994015712717186,0.0035323007994859466,-0.02057618630446148
851,13.0,300.00232,1759.9498,0.0,-0.004254991634876082,-0.004254906312552209,0.0,0.0,0.0,-0.13774766286463588,-0.1990628005384688,-0.1981703095853868,0.00025132276524862576,-0.01122378149020099,-0.026354394960726273
852,13.0,300.05062000000004,1736.7694,0.0,-0.004259973133556971,-0.004259908522739386,0.0,0.0,0.0,-0.1307054632121249,-0.1975445161911258,-0.19968454093232982,0.004099336631048027,-0.005987996820569275,-0.02728816166988187
853,13.0,300.05276000000003,1797.8377,0.0,-0.004264987622295213,-0.004264910732926452,0.0,0.0,0.0,-0.13854473605580087,-0.2045474118722578,-0.2034056107320708,0.005184581190403326,-0.00010174753529169991,-0.03529949856603926
854,13.0,299.98261,1831.5525,0.0,-0.004269969120976103,-0.00426991294311363,0.0,0.0,0.0,-0.14735285838009485,-0.20557601271127282,-0.2038173651752078,0.0013342964690098086,0.005192922163901515,-0.031343991064161074
855,13.0,299.99675,1783.277,0.0,-0.004274983609714678,-0.004274915153300696,0.0,0.0,0.0,-0.14355694992796786,-0.2019282414237658,-0.1965864780890748,-0.001361143341009389,-0.001033066536180729,-0.03241426687978907
856,13.0,300.03694,1784.5582,0.0,-0.004279965108395567,-0.004279917363487762,0.0,0.0,0.0,-0.14432939100920186,-0.2050820634200238,-0.19304967795251984,0.0006902692338992694,-0.0008978110125995481,-0.027332078968966174
857,13.0,299.84413,1847.0404,0.0,-0.004284979597133809,-0.004284919573674939,0.0,0.0,0.0,-0.14319509805225586,-0.2148599978125308,-0.20339907526892578,0.0015527237049918984,0.0013531686574223486,-0.034905908657444966
858,13.0,299.72152,1860.9531,0.0,-0.004289961095814698,-0.004289921783861894,0.0,0.0,0.0,-0.14776951695371585,-0.21559477638754782,-0.2023189709273278,-0.00038980744597099965,-0.004800921234114035,-0.026856264828006977
859,13.0,299.9456,1810.6273,0.0,-0.004294975584553162,-0.004294923994048849,0.0,0.0,0.0,-0.14165705532796286,-0.20806621668703681,-0.20066222595381983,-0.006010117083502374,-0.005759929827110814,-0.02820720990808487
860,13.0,299.96805,1783.4133,0.0,-0.004299990073291515,-0.0042999262042360265,0.0,0.0,0.0,-0.14916491432893086,-0.19874706167480782,-0.19420113536615982,0.0001916872821330618,0.002184317246800328,-0.02259276171973198
861,13.0,300.07856,1812.0176,0.0,-0.004304971571972405,-0.004304928414422982,0.0,0.0,0.0,-0.14567858417985685,-0.20916067878255182,-0.1959688210931168,0.0033846850533674065,0.006402937023345684,-0.029555863016436573
862,13.0,300.20024,1844.4262,0.0,-0.004309986060710869,-0.004309930624610159,0.0,0.0,0.0,-0.15145121185457086,-0.20554948582365482,-0.2036588016670588,0.0025179218375495378,0.002247381122424248,-0.027702945730817875
863,13.0,300.05748,1888.2553,0.0,-0.004314967559391758,-0.004314932834797225,0.0,0.0,0.0,-0.14476894903508286,-0.21194826153016483,-0.2172652508999108,0.00013848869319276987,-0.008071643819584222,-0.025730968518698875
864,13.0,300.00908,1874.4252,0.0,-0.004319982048130333,-0.004319935044984402,0.0,0.0,0.0,-0.14833586296460985,-0.2103838844357728,-0.21105870900237278,0.0004663823530658546,-0.004621234602455346,-0.026565986912858774
865,13.0,300.17511,1842.4923,0.0,-0.004324963546811222,-0.004324904345893832,0.0,0.0,0.0,-0.14525387026794087,-0.20967804428361178,-0.2051397477482168,0.003053804180212007,0.004428105992320035,-0.02850322484529927
866,13.0,300.1559,1861.6989999999998,0.0,-0.004329978035549464,-0.004329906556080898,0.0,0.0,0.0,-0.15810222604097485,-0.2107435375587678,-0.1970642457762268,-0.0005431251455697784,0.003919990350097926,-0.02872380027281837
867,13.0,299.95263,1884.9425,0.0,-0.004334992524287928,-0.004334908766268075,0.0,0.0,0.0,-0.16032932949577283,-0.21055914630556982,-0.2020869873169328,-0.0034940211226330365,0.002499268916458638,-0.02097762586158048
868,13.0,299.80439,1845.6437,0.0,-0.004339974022968818,-0.004339910976455252,0.0,0.0,0.0,-0.15097079958465784,-0.20751426896006384,-0.2025445406645898,-0.0034975704364083263,0.002104656739838448,-0.023723304638057878
869,13.0,299.8545,1848.1786,0.0,-0.004344988511707171,-0.0043449131866422075,0.0,0.0,0.0,-0.13955100486261185,-0.2160237459498838,-0.2062253743028598,0.0038217198838493864,0.0008981134677543982,-0.025930082295849876
870,13.0,299.76415,1867.6795,0.0,-0.00434997001038806,-0.004349915396829385,0.0,0.0,0.0,-0.14348565765093185,-0.21603445600344076,-0.2082078183885118,-0.0031071454145013768,0.0011714711296151989,-0.03049351148672527
871,13.0,299.85352,1842.7418,0.0,-0.004354984499126524,-0.00435491760701634,0.0,0.0,0.0,-0.14224939120392185,-0.2104663528614118,-0.2074317600044208,-0.002436356825699698,-0.006172926616195424,-0.025450840329802375
872,13.0,299.87146,1863.525,0.0,-0.0043599659978074135,-0.004359919817203517,0.0,0.0,0.0,-0.15309960764725486,-0.21528779200475082,-0.1980776681287438,-6.880763782978513e-05,-0.0025797272565492575,-0.02825516602206777
873,13.0,299.78902999999997,1840.1604,0.0,-0.004364980486545766,-0.004364922027390472,0.0,0.0,0.0,-0.15024018546755186,-0.2064368497312308,-0.20268577759602882,0.001223744398299169,0.005651461403905814,-0.031009939731442768
874,13.0,299.71911,1806.6408,0.0,-0.004369961985226656,-0.004369924237577538,0.0,0.0,0.0,-0.14080484106635588,-0.21220391466289582,-0.1961649255174708,0.004762603053757326,0.0035381001364332963,-0.03565435293656067
875,13.0,300.14557,1852.5967,0.0,-0.00437497647396512,-0.004374926447764604,0.0,0.0,0.0,-0.13703604718690487,-0.21693567103988382,-0.20917139896860978,0.0019706807586160483,-0.006186426957877805,-0.03077623967537837
876,13.0,300.15344,1881.9141,0.0,-0.004379990962703473,-0.0043799286579516705,0.0,0.0,0.0,-0.14885155660300486,-0.2132360720097618,-0.2099672461271538,0.00042270509293024466,-0.006256001775994305,-0.030220285557509968
877,13.0,300.16932,1862.469,0.0,-0.004384972461384584,-0.004384930868138848,0.0,0.0,0.0,-0.14655767996661687,-0.21691500073784378,-0.2026713995771098,0.0036463584115675567,-0.0006792634227705802,-0.031017830923221572
878,13.0,300.12135,1830.3976,0.0,-0.004389986950122826,-0.004389933078326025,0.0,0.0,0.0,-0.15609830105320285,-0.2058940820501638,-0.1944027721360598,-0.002098595984365298,0.0005709832006391544,-0.027738952586371476
879,13.0,300.06139,1894.1455,0.0,-0.0043949684488037155,-0.004394902379235344,0.0,0.0,0.0,-0.15188115413700284,-0.2165015946970438,-0.20739019648531878,-0.006589591471967044,-0.0012747848455864688,-0.023627709557373377
880,13.0,299.97467,1919.4494,0.0,-0.0043999829375421795,-0.004399904589422521,0.0,0.0,0.0,-0.14995380045928786,-0.21586064308128683,-0.21765024540790678,-0.01061428419729829,0.0014613011882191988,-0.019705466043028082
881,13.0,299.93983,1890.4726,0.0,-0.004404964436223069,-0.004404906799609698,0.0,0.0,0.0,-0.14321542384926186,-0.21323219126187878,-0.2182088501880368,-0.0029439681733470367,0.002797200213587167,-0.023807651629382275
882,13.0,299.9549,1893.4319,0.0,-0.004409978924961422,-0.004409909009796653,0.0,0.0,0.0,-0.14997709507908685,-0.2158196165847378,-0.2097592866766298,0.003952747915230846,-0.0031693257360380965,-0.026217520070967774
883,13.0,299.95072000000005,1873.4681,0.0,-0.004414960423642311,-0.00441491121998383,0.0,0.0,0.0,-0.15307570507739587,-0.2070660679108298,-0.2093457489133168,0.0031363614678847776,-0.005645787608645854,-0.02186574970673148
884,13.0,299.84521,1882.6919,0.0,-0.004419974912380775,-0.004419913430170785,0.0,0.0,0.0,-0.15736135783285685,-0.2145869471755828,-0.2003430319073178,0.0045677918405059555,-0.0018800478676462783,-0.026891890701522977
885,13.0,299.88096,1949.2657,0.0,-0.004424989401119128,-0.004424915640357963,0.0,0.0,0.0,-0.16493034621235783,-0.2182153957836828,-0.20938235763942978,0.003014788174511427,0.003188495516005007,-0.027629128434532673
886,13.0,299.99117,1939.655,0.0,-0.004429970899800018,-0.00442991785054514,0.0,0.0,0.0,-0.15633932285448984,-0.22080660052941478,-0.21246076343074483,-0.0010978858676028989,0.005096250403660755,-0.03140367149505107
887,13.0,299.78485,1801.2644,0.0,-0.0044349853885384816,-0.004434920060732095,0.0,0.0,0.0,-0.13211794398402588,-0.2118409279470718,-0.2035805382293348,-0.004413141605568166,0.0014543225294804585,-0.02913479173863007
888,13.0,299.93937999999997,1796.9495,0.0,-0.004439966887219371,-0.004439922270919272,0.0,0.0,0.0,-0.13126520283236687,-0.2144361147656968,-0.20052645044041983,-0.004145379222217077,0.004354293356985296,-0.03477497546627287
889,13.0,300.04977,1889.8151,0.0,-0.004444981375957724,-0.004444924481106227,0.0,0.0,0.0,-0.15069243951718586,-0.2151772160213378,-0.20858694617842882,-0.007874285802206503,0.0023467935215354878,-0.026610329776985076
890,13.0,300.06012999999996,1877.1404,0.0,-0.004449962874638724,-0.004449926691293293,0.0,0.0,0.0,-0.15556934397099884,-0.21713797655484982,-0.1978964787458618,-0.0035424441422620165,-0.003172006998452717,-0.03303539932359007
891,13.0,300.29445,1808.9302,0.0,-0.004454977363377077,-0.0044549289014804705,0.0,0.0,0.0,-0.14200370845217486,-0.20927127503096682,-0.1985946384622648,-0.005583717934020055,-0.007866347494298053,-0.026247557870182275
892,13.0,300.31939,1842.0524,0.0,-0.00445999185211543,-0.004459931111667426,0.0,0.0,0.0,-0.13736950779481488,-0.21405711869829278,-0.2085113070584638,0.0015399112588024087,-0.0007050992130253743,-0.03291858678581157
893,13.0,300.25232,1936.2164,0.0,-0.004464973350796431,-0.0044649004125769665,0.0,0.0,0.0,-0.14653002837138784,-0.2236760336201058,-0.2183553762849978,0.002087381433583508,0.004446706731030786,-0.028987407418834373
894,13.0,300.09426,1954.2825,0.0,-0.004469987839534784,-0.004469902622764144,0.0,0.0,0.0,-0.16259204869158583,-0.2173583685841008,-0.2141026541577868,0.004566386766592285,-0.0005067947693917495,-0.032805280093379074
895,13.0,299.85424,1931.9258,0.0,-0.004474969338215673,-0.004474904832951099,0.0,0.0,0.0,-0.16116425771067383,-0.2151398574901508,-0.2109530878119488,0.0025657717629219575,-0.001896768115496438,-0.022579923840964976
896,13.0,299.72255,1843.0546,0.0,-0.004479983826954137,-0.004479907043138276,0.0,0.0,0.0,-0.15861827431690484,-0.2049708389565468,-0.1966534539206848,0.0017125983587702983,0.0018631277055513882,-0.024596383745724076
897,13.0,299.56302,1877.0964,0.0,-0.004484965325635026,-0.004484909253325231,0.0,0.0,0.0,-0.15249468720505385,-0.21397968612565077,-0.2041160611721868,-0.0002197688297769948,0.006095682204096994,-0.027111715310717974
898,13.0,299.72888,1944.3674,0.0,-0.004489979814373379,-0.004489911463512408,0.0,0.0,0.0,-0.15710300945485986,-0.2187567043846058,-0.2151794350390568,-0.005146148715435336,-0.00037285817320073663,-0.02967567274801087
899,13.0,299.87739,1927.4805,0.0,-0.004494961313054269,-0.004494913673699585,0.0,0.0,0.0,-0.15199670517840685,-0.2120223098474728,-0.22188691765353377,-0.001971312722703418,-0.0005288836114392485,-0.02011768455471088
900,13.0,300.09497000000005,1832.7618,0.0,-0.004499975801792733,-0.0044999158838865405,0.0,0.0,0.0,-0.13910651230874385,-0.2151818668392968,-0.2028254439898128,0.006403753804251294,0.004298024741832016,-0.030674291516566872
901,13.0,300.3486,1837.4128,0.0,-0.004504990290531086,-0.004504918094073718,0.0,0.0,0.0,-0.14134484257464985,-0.2117750666905718,-0.20540769160466082,0.0028172197050879374,0.002833454403490177,-0.025203582987399976
902,13.0,300.41764,1955.5325,0.0,-0.004509971789211975,-0.004509920304260784,0.0,0.0,0.0,-0.16211601366210485,-0.22199203221890781,-0.2103250044724618,1.3995848339032686e-05,-0.009148063781168602,-0.03133585365260797
903,13.0,300.22564,1952.9686,0.0,-0.004514986277950439,-0.00451492251444785,0.0,0.0,0.0,-0.15420952180679484,-0.2179873942461808,-0.22145676258858077,-0.0035816626966575873,-0.010802080984082389,-0.02817737070588997
904,13.0,299.93144,1866.7420000000002,0.0,-0.004519967776631328,-0.004519924724634916,0.0,0.0,0.0,-0.13956907111189487,-0.2179105088285928,-0.2099633755117718,0.005830142080865224,-0.0003480682799641647,-0.03991951574849946
905,13.0,299.91917,1851.9411,0.0,-0.004524982265369681,-0.004524926934821871,0.0,0.0,0.0,-0.1394040633331099,-0.21795008637749877,-0.2055897118526248,0.0036185750938255564,0.005114475631884445,-0.030739953162797172
906,13.0,299.91468,1896.9615,0.0,-0.004529963764050682,-0.004529929145009048,0.0,0.0,0.0,-0.15092890169302287,-0.2183165789386688,-0.20738344823965282,0.001055403128010179,0.0006337988299885744,-0.03672826024054707
907,13.0,299.70549,1910.9753,0.0,-0.004534978252789035,-0.0045349313551960035,0.0,0.0,0.0,-0.15796081685701885,-0.21434008905371982,-0.2085878783685208,-0.0012302064008119188,-0.004307815068273246,-0.024113958147862376
908,13.0,299.69599,1931.1224,0.0,-0.004539959751469924,-0.004539900656105766,0.0,0.0,0.0,-0.15895983079311385,-0.21758194221866578,-0.2104712265943928,0.001973825177651378,0.0023405336624176877,-0.025658725813069074
909,13.0,299.9644,1917.0433,0.0,-0.004544974240208388,-0.0045449028662927216,0.0,0.0,0.0,-0.14614283511067488,-0.21767404665275578,-0.21891639260036577,-0.0002047731639945378,0.001180837512214589,-0.02366276091808268
910,13.0,299.8641,1895.5924,0.0,-0.004549988728946852,-0.004549905076479677,0.0,0.0,0.0,-0.14739856609210586,-0.2179674737492148,-0.2108467066839498,-0.006007784176472134,-0.009443359918762061,-0.033149727372123364
911,13.0,300.02973,1973.2383,0.0,-0.0045549702276276305,-0.004554907286666854,0.0,0.0,0.0,-0.15839012079188783,-0.21927810262106381,-0.2221469581591978,-0.006763123825168354,-0.004856328485357305,-0.02454719450636948
912,13.0,299.98916,1966.9543,0.0,-0.0045599847163660945,-0.004559909496854031,0.0,0.0,0.0,-0.16146172767503186,-0.2195541727433098,-0.2168891020652878,0.002087334824078908,0.004287904805133256,-0.02719188264537987
913,13.0,299.84873999999996,1878.4479,0.0,-0.004564966215046984,-0.004564911707040986,0.0,0.0,0.0,-0.14885148567549786,-0.21826157972324078,-0.20388819135719782,0.0025311985549348478,0.007994215502592642,-0.02683393076930277
914,13.0,300.09474,1870.514,0.0,-0.004569980703785337,-0.004569913917228163,0.0,0.0,0.0,-0.15260129124807484,-0.2123328203406178,-0.2036554275442258,-0.0003417976297327997,-0.002077382985571738,-0.02754406000913707
915,13.0,300.27285,1930.9108,0.0,-0.004574962202466226,-0.0045749161274152295,0.0,0.0,0.0,-0.15164852204654383,-0.2143114850033968,-0.22098865117488176,-0.0007989962993247953,-0.002909763991046347,-0.025704957375381775
916,13.0,299.98622,1912.5304,0.0,-0.00457997669120469,-0.004579918337602407,0.0,0.0,0.0,-0.14972463368417085,-0.2168228152437458,-0.2148140266554938,0.004820526914273965,0.004800269511649715,-0.03130628194843947
917,13.0,300.00903999999997,1928.0413,0.0,-0.004584991179942932,-0.004584920547789584,0.0,0.0,0.0,-0.14878563455149885,-0.2177120536640068,-0.2195787237932328,0.003944069732099376,0.005952706130186354,-0.031562007021927574
918,13.0,300.02157,1979.9192,0.0,-0.0045899726786238215,-0.004589922757976539,0.0,0.0,0.0,-0.15796030009946785,-0.22989252563362578,-0.2139931826169828,0.001259221020075439,-0.004229466821515876,-0.034113958458785565
919,13.0,299.87018,1959.4258,0.0,-0.0045949871673623965,-0.004594924968163716,0.0,0.0,0.0,-0.16034588600240685,-0.2196148258942958,-0.21565580444107083,-0.004572747748070066,0.0021338889038984383,-0.028074888564275768
920,13.0,299.8607,1914.969,0.0,-0.004599968666043286,-0.004599927178350671,0.0,0.0,0.0,-0.14824549118819086,-0.2210809075964868,-0.2127763401743898,-0.0037954012191269365,0.007335024270460532,-0.035327209943024164
921,13.0,299.73169,1917.9186,0.0,-0.004604983154781528,-0.004604929388537626,0.0,0.0,0.0,-0.14418669499761885,-0.22117695357346578,-0.21763572553397378,-0.005837141713881035,0.002172390989148298,-0.027004566139143173
922,13.0,299.48797,1900.7748,0.0,-0.004609964653462639,-0.004609898689447389,0.0,0.0,0.0,-0.14292104429770885,-0.2206384922053238,-0.21422853021770982,-0.008993093561849231,-0.007867543332066072,-0.038250281454258864
923,13.0,299.81362,1876.0621,0.0,-0.004614979142201103,-0.004614900899634344,0.0,0.0,0.0,-0.13984470553659786,-0.21889896469864578,-0.2115323730266198,-0.0019373036923719883,-0.0076467423550747125,-0.028599711586071774
924,13.0,300.01451000000003,1897.8853,0.0,-0.004619960640881882,-0.0046199031098212995,0.0,0.0,0.0,-0.15753713646020487,-0.2117431189149188,-0.2076294957614358,0.004141305348865016,0.004960147813128475,-0.032858007602082864
925,13.0,300.17161,1966.1865,0.0,-0.004624975129620346,-0.004624905320008477,0.0,0.0,0.0,-0.16296159113555683,-0.2201349271706258,-0.2145750820169118,0.007930162188246073,0.00982069141890178,-0.023193094165480183
926,13.0,300.09163,1951.3763,0.0,-0.00462998961835881,-0.004629907530195432,0.0,0.0,0.0,-0.15576477965028687,-0.2216413767568008,-0.2157635027941998,0.0017218099167544086,-0.00047526255800226256,-0.03144992433561587
927,13.0,299.97589,1987.7635,0.0,-0.004634971117039477,-0.004634909740382609,0.0,0.0,0.0,-0.15480954825101287,-0.21759937012038577,-0.2318215410415048,-0.005018007838888815,-0.004844917870681165,-0.020436408453166483
928,13.0,300.07809,2043.6998,0.0,-0.004639985605778052,-0.004639911950569675,0.0,0.0,0.0,-0.16650237334500484,-0.22434046224067977,-0.23039086229780778,0.0005719145699985734,-1.6481007342548783e-05,-0.028786899409545774
929,13.0,300.09061,1995.9786,0.0,-0.004644967104458941,-0.004644914160756852,0.0,0.0,0.0,-0.15450302996326185,-0.22464549105078377,-0.22757914393281278,0.0009275545538525071,-0.002186452367411048,-0.02922020568230977
930,13.0,299.84268,1961.1058,0.0,-0.004649981593197183,-0.004649916370944029,0.0,0.0,0.0,-0.16845958750316684,-0.21994459827184182,-0.2077229984806638,-0.0035145306218821665,-0.003597948868164906,-0.026404549827426176
931,13.0,299.89408,1959.6451,0.0,-0.004654963091878073,-0.0046549185811309846,0.0,0.0,0.0,-0.15359309084345785,-0.22620473096716878,-0.21588534611872479,-0.006018030262808344,-0.0013043111561504889,-0.031017935287981867
932,13.0,299.90064,1877.0283,0.0,-0.004659977580616648,-0.004659920791318162,0.0,0.0,0.0,-0.14758875313587586,-0.2142772270175158,-0.2087037536499568,-0.002217893821989078,0.008844234557857992,-0.030032307398957972
933,13.0,300.0103,1897.7601,0.0,-0.004664959079297537,-0.004664923001505117,0.0,0.0,0.0,-0.13547101147994786,-0.2230896556547348,-0.21831099593061778,-0.0024686966278163877,0.00932748747442634,-0.03449818492320576
934,13.0,300.15366,1967.4514,0.0,-0.004669973568035779,-0.004669925211692294,0.0,0.0,0.0,-0.15298065208551487,-0.22719488909738977,-0.2178805774206388,-0.0032856187804903266,0.0005513041713044854,-0.033753408609452064
935,13.0,300.0247,1973.8794,0.0,-0.004674988056774243,-0.004674927421879249,0.0,0.0,0.0,-0.15263113146351986,-0.22629678473875378,-0.2210821133641058,-0.003129909901848057,-0.0005516562149192295,-0.03725622737740336
936,13.0,299.97614,1981.9148,0.0,-0.004679969555455354,-0.00467989672278879,0.0,0.0,0.0,-0.17017959981291883,-0.22733636920885278,-0.2049366518981728,0.004910922907370355,-0.0015401681177027585,-0.03155377537811517
937,13.0,300.04781,2014.7156,0.0,-0.004684984044193707,-0.004684898932975967,0.0,0.0,0.0,-0.16543902816006084,-0.22317140467280278,-0.22381279198610277,0.005888234242223474,-0.0016807011442972885,-0.03102041572422667
938,13.0,300.00217999999995,2008.3589,0.0,-0.004689965542874597,-0.004689901143163144,0.0,0.0,0.0,-0.16117308311904485,-0.22487367497330377,-0.22444420891841876,0.003989495253957527,-0.012142792238150289,-0.031161758033676074
939,13.0,300.1628,1966.8615,0.0,-0.004694980031613061,-0.0046949033533500995,0.0,0.0,0.0,-0.14799005083798086,-0.22333733450917878,-0.2265493981211848,0.00044868412635167557,-0.01103546186636529,-0.025914930153854474
940,13.0,299.85955,1945.0096,0.0,-0.004699961530293728,-0.004699905563537055,0.0,0.0,0.0,-0.14637056307064986,-0.2210691234978238,-0.2237946750743148,0.002896637639975877,0.00014149953546741686,-0.027028371436992573
941,13.0,299.9609,1960.9005,0.0,-0.004704976019032303,-0.004704907773724121,0.0,0.0,0.0,-0.15658286764852583,-0.2224481771489258,-0.21703374351706278,0.003942622912281587,0.0023950470244227377,-0.03071345363293187
942,13.0,300.12897999999996,1944.4036,0.0,-0.004709990507770767,-0.004709909983911298,0.0,0.0,0.0,-0.16320562228964083,-0.2188747176237528,-0.20896981286121483,-0.0014364330923399087,-0.0003163704629783337,-0.030824818938172766
943,13.0,299.88039,1955.5557,0.0,-0.0047149720064514344,-0.004714912194098475,0.0,0.0,0.0,-0.15993597567445186,-0.2209136706674818,-0.21359044609973576,-0.006230901240542074,0.0007637193891432352,-0.03077512510026837
944,13.0,300.0617,1998.6784,0.0,-0.0047199864951900095,-0.00471991440428543,0.0,0.0,0.0,-0.15994868183070585,-0.22701711436734479,-0.2205825304023008,-0.003358786482136416,0.006573958644124203,-0.028018803144740576
945,13.0,300.03362000000004,1972.9902,0.0,-0.004724967993870899,-0.004724916614472607,0.0,0.0,0.0,-0.15116046987087686,-0.22411800318122477,-0.22446129231510478,-0.004070186742896156,0.006057921311295285,-0.03128742435082837
946,13.0,299.87667999999996,2015.4208,0.0,-0.004729982482609141,-0.0047299188246595625,0.0,0.0,0.0,-0.15933024463217085,-0.22909345633976377,-0.22421390730318977,-1.3537813697578187e-05,-9.175417683518222e-05,-0.030154211518488974
947,13.0,300.13788,2044.1509,0.0,-0.00473496398129003,-0.00473492103484674,0.0,0.0,0.0,-0.17124861919842285,-0.22651957817074178,-0.2236026135178598,0.005946165904765884,-0.003205854922018247,-0.03425323981753157
948,13.0,300.09934,1969.6631,0.0,-0.004739978470028494,-0.004739923245033917,0.0,0.0,0.0,-0.16790653533358485,-0.21810034123482783,-0.21272151321147878,0.008753155836844221,0.00039393339024569867,-0.026675776614194176
949,13.0,299.90881,1928.3796,0.0,-0.004744959968709606,-0.004744925455220872,0.0,0.0,0.0,-0.15021323301489187,-0.2225028419918208,-0.21346317175467483,0.013211708272144088,-0.003574255534451557,-0.03867015912344757
950,13.0,299.99156,1975.3532,0.0,-0.0047499744574479585,-0.004749927665408049,0.0,0.0,0.0,-0.15494113904149986,-0.2229264210636248,-0.22259049825797178,0.0009594257480629491,-0.007778981422975693,-0.028173253870733675
951,13.0,300.03907999999996,1945.9496,0.0,-0.0047549889461862005,-0.00475489696631759,0.0,0.0,0.0,-0.14082696031603886,-0.2274019670203268,-0.2232911607021218,0.0004984088987816285,-0.0004941470472710165,-0.040206666773839064
952,13.0,300.07752999999997,1912.1592,0.0,-0.004759970444867312,-0.004759899176504545,0.0,0.0,0.0,-0.1407816781690699,-0.2245952946408298,-0.2158716875073768,-0.008698987385173211,0.0024354226091074975,-0.03089988253208097
953,13.0,300.06196,1955.0927,0.0,-0.004764984933605665,-0.004764901386691722,0.0,0.0,0.0,-0.15201623050783386,-0.2269317480464198,-0.2153513937135278,-0.003354275594016227,0.005239131130736985,-0.036683078405337965
954,13.0,299.81925,2015.2665,0.0,-0.004769966432286554,-0.004769903596878788,0.0,0.0,0.0,-0.16595162125314986,-0.23097903371585576,-0.2156600296939878,-0.006802663478520613,0.0016522057143850085,-0.027974377194106077
955,13.0,300.0624,2044.4083,0.0,-0.004774980921025018,-0.0047749058070657435,0.0,0.0,0.0,-0.16233603078881886,-0.23334850894220477,-0.2257645244612238,0.0018290313330613383,-0.0033907219974632073,-0.031094485319786768
956,13.0,300.02794,2047.7624,0.0,-0.004779962419705686,-0.004779908017252921,0.0,0.0,0.0,-0.16436057541612584,-0.2283825499371028,-0.2297255116196428,0.0007547606674565783,0.003266801915533247,-0.025846699918620677
957,13.0,300.01642999999996,2016.9858,0.0,-0.00478497690844415,-0.004784910227439876,0.0,0.0,0.0,-0.15294185473918584,-0.22632273407381479,-0.2338487201190718,0.0030297593500389665,0.0024109079348630874,-0.02625731344214508
958,13.0,299.96572000000003,2011.7578,0.0,-0.00478995840712515,-0.004789912437627053,0.0,0.0,0.0,-0.16129862480643484,-0.2261308447698768,-0.2240946578989208,0.004219161865348856,0.004487275441184606,-0.031391169002067176
959,13.0,299.80978999999996,2048.2683,0.0,-0.004794972895863392,-0.004794914647814008,0.0,0.0,0.0,-0.16910264667913183,-0.23266281220203178,-0.22085696919188577,0.0043408954548880265,-0.0005637373174515415,-0.029969629774272172
960,13.0,299.74687,2032.2222,0.0,-0.004799987384601856,-0.004799916858001185,0.0,0.0,0.0,-0.16666811066386183,-0.2285568390868038,-0.2225198443284988,0.008559052074812673,0.0012074078682618788,-0.029065778261068972
961,13.0,299.88184,1983.2934,0.0,-0.004804968883282745,-0.0048049190681883625,0.0,0.0,0.0,-0.15200810424203184,-0.23150092844486278,-0.21936262794440578,0.00037083978913403766,-0.0080454966981037,-0.03288831796557427
962,13.0,299.82256,1950.6342,0.0,-0.004809983372021098,-0.004809921278375318,0.0,0.0,0.0,-0.15130110898475685,-0.22158473607621076,-0.2200582444030578,-0.00036305967996370063,-0.008135067500318652,-0.03158105004430697
963,13.0,300.04827,2033.9089,0.0,-0.00481496487070221,-0.004814923488562495,0.0,0.0,0.0,-0.15357110331628784,-0.23618628809977177,-0.22850012747870677,-0.0005729990515806035,-0.004842070435250145,-0.03551214024527537
964,13.0,300.34234,2084.6399,0.0,-0.004819979359440452,-0.004819925698749561,0.0,0.0,0.0,-0.16554250126027284,-0.2394480718941848,-0.2286878928547378,0.0011934005975544689,0.003635487453894677,-0.02607249865040527
965,13.0,300.19015,2027.0120000000002,0.0,-0.004824960858121563,-0.004824894999658991,0.0,0.0,0.0,-0.16054156486171886,-0.2333828277230918,-0.22223665105804977,-0.0005486897327339604,0.006721506806461073,-0.030336931922272072
966,13.0,300.20899,2045.8909,0.0,-0.004829975346859805,-0.004829897209846168,0.0,0.0,0.0,-0.16324132922316484,-0.2364609599368798,-0.22219746867668277,-0.0058183508894515245,0.003961947314213756,-0.02789676324969618
967,13.0,299.95762,2052.9441,0.0,-0.004834989835598158,-0.004834899420033234,0.0,0.0,0.0,-0.16347264408849385,-0.2316867483807018,-0.22888435191662676,-0.000989135000932524,0.0026066891324351875,-0.02887467118620817
968,13.0,299.99627000000004,2014.7378,0.0,-0.004839971334279269,-0.004839901630220411,0.0,0.0,0.0,-0.16038855396411786,-0.22786580251860378,-0.2241756165819108,-0.002353145586412388,0.005970542574346675,-0.031172523815988572
969,13.0,299.99926,2017.5486,0.0,-0.004844985823017511,-0.004844903840407477,0.0,0.0,0.0,-0.15169885017901086,-0.23114291678702978,-0.23044260898041477,0.001064165512224959,0.001817788917901798,-0.03526966848309526
970,13.0,299.94883,1973.1875,0.0,-0.004849967321698401,-0.0048499060505945435,0.0,0.0,0.0,-0.15785636090420985,-0.2245116913750788,-0.2174316772288358,-0.003972818474536656,-0.0027832302304834377,-0.03364546808954917
971,13.0,299.70457999999996,1961.8120000000001,0.0,-0.004854981810436976,-0.004854908260781499,0.0,0.0,0.0,-0.15935946676505486,-0.22841294744010276,-0.2085694372167008,-0.0009562802245850101,-0.0033588745335701065,-0.03488428286056067
972,13.0,299.89516000000003,2037.7857,0.0,-0.004859963309117643,-0.004859910470968454,0.0,0.0,0.0,-0.16286870649888985,-0.23771324586797074,-0.21885402705671078,0.00015700001258219486,0.0019187922209950481,-0.034550290296348166
973,13.0,299.96288,2068.4885,0.0,-0.004864977797856107,-0.004864912681155631,0.0,0.0,0.0,-0.16545147087128884,-0.23908530809338277,-0.2242320748774828,-0.0015329978533701084,0.0006871956106484263,-0.027943706113579075
974,13.0,300.05402000000004,2070.9295,0.0,-0.0048699592965369964,-0.004869914891342808,0.0,0.0,0.0,-0.15658595806133085,-0.24294916509721576,-0.22997573373183777,-0.0029632964256295874,-0.001075609766804419,-0.03235558348699747
975,13.0,300.06019,2074.1357,0.0,-0.004874973785275349,-0.004874917101529763,0.0,0.0,0.0,-0.16169673077072486,-0.23869397063976075,-0.2300947500885838,-0.0017213481786838383,-0.0015594625274319685,-0.031211044545040267
976,13.0,299.90963,2060.6481,0.0,-0.004879988274013813,-0.00487991931171694,0.0,0.0,0.0,-0.16749007940998384,-0.23056284123728077,-0.22833264736967776,-0.0014933416762563485,0.006118198242519155,-0.02415077256374568
977,13.0,300.09555,2067.4109,0.0,-0.004884969772694703,-0.0048849215219040065,0.0,0.0,0.0,-0.16772479879564886,-0.23876941724220677,-0.22194707431197078,0.001971813572227848,0.0015096706069178886,-0.03083062587449587
978,13.0,300.21662000000003,2051.7665,0.0,-0.004889984261433056,-0.004889923732091184,0.0,0.0,0.0,-0.16139712284865584,-0.23282293611533478,-0.2294657345590048,-0.0033612834343578466,-0.0007798451834247273,-0.026049684311153676
979,13.0,300.08072999999996,2024.1284,0.0,-0.004894965760114056,-0.0048948930330006135,0.0,0.0,0.0,-0.16331889351831985,-0.23143371956572978,-0.2205318678973008,-0.00010900931637338189,0.00019054497436782482,-0.033083670558354074
980,13.0,300.07424,2003.4520000000002,0.0,-0.004899980248852409,-0.00489989524318768,0.0,0.0,0.0,-0.15530229177464286,-0.2277359545182888,-0.2259611355106278,0.0033672629271729766,0.0060140935835198235,-0.030987905594768172
981,13.0,300.10356,2009.5872,0.0,-0.0049049617475335205,-0.004904897453374857,0.0,0.0,0.0,-0.15496867917921786,-0.23318339983840977,-0.2227122605224888,-0.0010861330783679892,1.000066155793845e-05,-0.04247560833851616
982,13.0,300.11487,2063.2124,0.0,-0.0049099762362717625,-0.004909899663562034,0.0,0.0,0.0,-0.16856333418090583,-0.23881191295140078,-0.2197897837890628,-0.0024553529345994678,-0.0053651577596248445,-0.03378432388325317
983,13.0,299.89711,2091.2204,0.0,-0.004914957734952652,-0.004914901873748989,0.0,0.0,0.0,-0.16928007690414282,-0.23701331296389275,-0.22938540409107677,0.003233053898427577,-0.006797628942748743,-0.03514336179187976
984,13.0,300.0552,2045.7891,0.0,-0.004919972223691227,-0.004919904083936166,0.0,0.0,0.0,-0.16090109639470185,-0.2382438342828358,-0.2227238825011358,-0.0018895236812564683,0.00027036878684832174,-0.027469847545312873
985,13.0,300.0575,2012.8731,0.0,-0.004924986712429469,-0.004924906294123121,0.0,0.0,0.0,-0.15468305410852887,-0.23160505002513876,-0.22557506695752577,0.004393760258980376,-0.0014776123870039884,-0.027359501569672578
986,13.0,299.87833,2080.028,0.0,-0.004929968211110358,-0.0049299085043100765,0.0,0.0,0.0,-0.15950697571461284,-0.23527789925262077,-0.2374917088661068,-0.005723051880446245,0.0005741786570820214,-0.024815847637883477
987,13.0,299.68084,2082.7648,0.0,-0.004934982699848822,-0.004934910714497254,0.0,0.0,0.0,-0.16728916204765484,-0.2374626893832428,-0.22835665126454677,0.0028743038852467075,-0.0005282211586563696,-0.034082152538146566
988,13.0,299.94957999999997,2081.0942,0.0,-0.0049399641985296006,-0.004939912924684209,0.0,0.0,0.0,-0.17087621938916986,-0.2326144599072598,-0.2291099824488948,0.00021654129383596183,0.004763232687369465,-0.030831108181543474
989,13.0,299.91317000000004,2054.5441,0.0,-0.0049449786872680646,-0.004944915134871386,0.0,0.0,0.0,-0.16440797525580386,-0.23403892742784377,-0.2260831916176738,-0.0014621041889234488,-0.0005505848346609925,-0.03611676583169726
990,13.0,300.21558999999996,2047.7779,0.0,-0.004949960185948954,-0.004949917345058452,0.0,0.0,0.0,-0.15628148653878185,-0.23448472707434076,-0.23170713497271378,-0.0031281803852523673,-0.004914357217259295,-0.03607225882105476
991,13.0,300.20923,2049.8101,0.0,-0.004954974674687307,-0.004954919555245629,0.0,0.0,0.0,-0.15935009420162982,-0.23208418559992577,-0.2316567967077458,-0.001832134310167578,-0.0015385691077199487,-0.030738481923651972
992,13.0,300.09907000000004,2095.5503,0.0,-0.004959989163425771,-0.0049599217654328065,0.0,0.0,0.0,-0.15959876604117185,-0.24228244653141576,-0.23511376286892174,0.0027515817689099773,0.003463299886226087,-0.028166625188579476
993,13.0,300.11264,2059.987,0.0,-0.00496497066210666,-0.004964891066342125,0.0,0.0,0.0,-0.16524351142076482,-0.23546673867375775,-0.2254743498975858,0.0012655160389717088,-0.001110410449438979,-0.033721801285832666
994,13.0,300.15722,2047.0484,0.0,-0.004969985150845124,-0.0049698932765293025,0.0,0.0,0.0,-0.16353457393460585,-0.23462641996832478,-0.22409060489852078,0.0024661264176127277,-0.005582394426739434,-0.03201803238843377
995,13.0,300.09038,2116.3824,0.0,-0.004974966649526014,-0.00497489548671648,0.0,0.0,0.0,-0.16449416230930985,-0.24476479781890476,-0.23406845353575778,0.005072447030986545,-0.003496370646964917,-0.034734076639236465
996,13.0,300.00542,2116.5689,0.0,-0.004979981138264478,-0.004979897696903435,0.0,0.0,0.0,-0.17004464503209984,-0.23353658842576677,-0.2398028614166998,0.006004292212652505,0.001979025177164578,-0.027856556472478075
997,13.0,299.76291000000003,2080.4585,0.0,-0.004984962636945478,-0.004984899907090612,0.0,0.0,0.0,-0.15728608348292786,-0.24095598056050377,-0.2341653607753218,0.0015418111027399085,-0.001027068095588729,-0.03288419302441717
998,13.0,299.85815,2072.2686,0.0,-0.00498997712568372,-0.004989902117277567,0.0,0.0,0.0,-0.16438738601377184,-0.2343968276281658,-0.2311336962111198,-0.0015956936152326986,-0.004023708859484146,-0.03216038085523247
999,13.0,299.93339,2067.0756,0.0,-0.004994958624364609,-0.004994904327464744,0.0,0.0,0.0,-0.16524926668133283,-0.2322203664133658,-0.23086973442756878,-0.004913633452712865,0.0007086270864285483,-0.036404856139879566
1000,13.0,300.1664,2046.4146,0.0,-0.004999973113103073,-0.004999906537651921,0.0,0.0,0.0,-0.16357663394625685,-0.23785540485700077,-0.22062690062417975,-0.0014501286873165584,0.002184965828189338,-0.03761266241808076
1001,13.0,300.28797000000003,2088.1915,0.0,-0.005004987601841426,-0.0050049087478388765,0.0,0.0,0.0,-0.16556567429005986,-0.23634363570780076,-0.23284877399288478,-0.0006357698344805974,-0.0045710101254735755,-0.03746492346075007
1002,13.0,300.14031,2094.752,0.0,-0.005009969100522316,-0.005009910958025832,0.0,0.0,0.0,-0.16915506210680484,-0.23358603503064676,-0.23401119477260676,0.0016191884532514584,-0.007060456392812793,-0.03206469863503937
1003,13.0,300.09367000000003,2052.2356,0.0,-0.00501498358926078,-0.005014913168212898,0.0,0.0,0.0,-0.15948673097761484,-0.23667752188075278,-0.22766413535120078,0.0036936833720631664,-0.004783308515575796,-0.029024324172977768
1004,13.0,300.16508,2095.4271,0.0,-0.005019965087941558,-0.005019915378400075,0.0,0.0,0.0,-0.16664359001144183,-0.23482346671527177,-0.23549044872609778,0.004085717029828876,0.0014764254658368487,-0.026058451964268974
1005,13.0,299.87782000000004,2151.6256,0.0,-0.005024979576680022,-0.005024917588587252,0.0,0.0,0.0,-0.17457508887921983,-0.24642928402317676,-0.23303609353887178,0.0009232214607273641,0.0019402822423659485,-0.02648091950071327
1006,13.0,299.71173,2122.9829999999997,0.0,-0.005029961075360911,-0.005029919798774207,0.0,0.0,0.0,-0.16616854796705882,-0.24172246373114975,-0.23744280941628076,0.00037182792076405867,0.002339300638370998,-0.036701207476127165
1007,13.0,299.96742,2092.5194,0.0,-0.005034975564099153,-0.005034922008961384,0.0,0.0,0.0,-0.16425760894096383,-0.2418367482099288,-0.22997930037218978,-0.0041933064585721255,0.004009477964479666,-0.03450986668360867
1008,13.0,299.89884,2054.5438,0.0,-0.005039957062780265,-0.005039891309870925,0.0,0.0,0.0,-0.15834171783461085,-0.23803418270464477,-0.2281541025695568,-0.002035580744746178,0.002918360911519797,-0.03667424083796576
1009,13.0,299.86466,2047.4301,0.0,-0.005044971551518729,-0.00504489352005788,0.0,0.0,0.0,-0.15741646850579585,-0.23727206664192976,-0.2276790807901758,-0.004376433479620356,-0.0001232773571265279,-0.03573831995909757
1010,13.0,299.96731,2059.9764,0.0,-0.005049986040257082,-0.0050498957302450576,0.0,0.0,0.0,-0.16043110033581684,-0.23761094813787476,-0.22813933951559978,-0.004360588477206577,-0.005668824964244464,-0.038292134762889465
1011,13.0,299.98982,2086.7496,0.0,-0.005054967538937971,-0.005054897940432013,0.0,0.0,0.0,-0.16751187441963486,-0.23832769086111175,-0.2284802069817408,0.001224789869752349,-0.001208882653782429,-0.03809150415033876
1012,13.0,299.94937000000004,2081.5489,0.0,-0.005059982027676435,-0.00505990015061919,0.0,0.0,0.0,-0.16288183822018584,-0.24013841945231676,-0.22971862151896277,0.0032649995462553667,0.0024953692207987676,-0.035025372870735164
1013,13.0,300.00175,2088.005,0.0,-0.0050649635263573245,-0.005064902360806367,0.0,0.0,0.0,-0.16259694268956884,-0.24146425720816675,-0.23064017248491278,0.001945459038451858,-0.00016943461780939483,-0.035920767798603766
1014,13.0,299.94006,2170.8291,0.0,-0.0050699780150956775,-0.005069904570993322,0.0,0.0,0.0,-0.17508136942418584,-0.24244881206533478,-0.24234766944035277,-0.0005420126780199865,-0.002876072817271287,-0.02424219204076808
1015,13.0,299.93387,2181.3533,0.0,-0.005074959513776567,-0.005074906781180499,0.0,0.0,0.0,-0.16741789547285985,-0.25038114179819476,-0.24527790766954474,5.635797165309875e-05,0.0028264136325203072,-0.028993897285724872
1016,13.0,300.03616,2105.6332,0.0,-0.005079974002515031,-0.0050799089913675655,0.0,0.0,0.0,-0.16660006078714584,-0.23974944287142777,-0.2337104013479208,-0.0007915202361119652,0.0011301451163366388,-0.01930106070286638
1017,13.0,300.015,2108.1454,0.0,-0.005084988491253384,-0.005084911201554521,0.0,0.0,0.0,-0.16661989009160283,-0.24300284708751377,-0.23120082403024478,-0.003299683705128427,0.001063705496679559,-0.03416177778400497
1018,13.0,299.93818,2137.3008,0.0,-0.005089969989934273,-0.005089913411741698,0.0,0.0,0.0,-0.16888870905301784,-0.24251749015711277,-0.23827985532389076,-0.0020251877371454683,-0.002874018148718507,-0.03105207371035107
1019,13.0,300.02666,2101.0706,0.0,-0.005094984478672737,-0.005094915621928653,0.0,0.0,0.0,-0.17038080088527582,-0.23759234486603878,-0.2306998731808048,-0.0030065254239209573,0.004271797269618566,-0.04018385040808726
1020,13.0,299.88759,2115.7044,0.0,-0.0050999659773534045,-0.00509991783211583,0.0,0.0,0.0,-0.16684224782604784,-0.2404817997787058,-0.23579726085637778,-0.00013103190199684184,0.004643721357949616,-0.035231251105553765
1021,13.0,299.92875,2099.6214,0.0,-0.0051049804660919795,-0.005104920042302785,0.0,0.0,0.0,-0.16814737474985383,-0.23622077913317577,-0.23386431403811075,-0.0020255205898033184,0.0017932199334520283,-0.038594663884996765
1022,13.0,299.85506000000004,2090.827,0.0,-0.00510996196477298,-0.005109889343212326,0.0,0.0,0.0,-0.16721278325511685,-0.23602194906605278,-0.23232448799364178,-0.004695671703826716,-0.004266564744777155,-0.030381188660139866
1023,13.0,299.91827,2145.3522,0.0,-0.005114976453511333,-0.005114891553399503,0.0,0.0,0.0,-0.17396412946642284,-0.23916720909896577,-0.23900214052517477,0.002465420790243088,-0.001142983197753659,-0.03173892150263767
1024,13.0,299.90287,2199.9505,0.0,-0.005119957952192222,-0.005119893763586458,0.0,0.0,0.0,-0.17790268326762781,-0.24471360842385276,-0.24611370727953175,0.004552090314306336,-5.711777142608515e-05,-0.028283622137876177
1025,13.0,299.95391,2134.4363,0.0,-0.005124972440930686,-0.0051248959737736355,0.0,0.0,0.0,-0.16641267031365184,-0.24294673329697578,-0.23945593471496077,0.002009961931867798,0.00028024830969585477,-0.02993101481296117
1026,13.0,300.09643,2080.3085,0.0,-0.005129986929669039,-0.005129898183960813,0.0,0.0,0.0,-0.15377689441159784,-0.24476849618176977,-0.23381643797088578,-0.0010519007277145192,-0.007349797152943503,-0.03516961206222047
1027,13.0,300.15799,2139.6541,0.0,-0.005134968428349929,-0.005134900394147768,0.0,0.0,0.0,-0.16422704931794782,-0.24469924053743478,-0.24147512938173976,-0.0012575354785340888,0.0022147752408312976,-0.03223623275771847
1028,13.0,299.99556,2153.411,0.0,-0.005139982917088393,-0.005139902604334945,0.0,0.0,0.0,-0.16964349931750983,-0.24518472919034878,-0.23975494481947077,0.0013759324354939587,0.0053551642765385645,-0.03729432051491286
1029,13.0,299.86992999999995,2074.8572,0.0,-0.005144964415769282,-0.005144904814522011,0.0,0.0,0.0,-0.16110075732690685,-0.23992557613631077,-0.22967845628499875,-0.0025297274171146578,0.0040715912088597666,-0.04341604527308006
1030,13.0,299.82432,2050.3366,0.0,-0.005149978904507635,-0.005149907024709188,0.0,0.0,0.0,-0.16082862874754986,-0.23556715175866774,-0.2268553591213808,-0.006706007221006383,-0.003019929810818867,-0.04387583689020796
1031,13.0,299.95804,2085.3386,0.0,-0.005154960403188524,-0.005154909234896254,0.0,0.0,0.0,-0.16524611547352186,-0.23271472100465476,-0.2359300270169808,-0.006710282325828305,-0.0008717945801169261,-0.035642956912685965
1032,13.0,300.09807,2126.0421,0.0,-0.005159974891926988,-0.0051599114450833206,0.0,0.0,0.0,-0.17118792551743284,-0.23383883079809578,-0.2412369548132338,0.0038739284058519658,0.0014133566252874385,-0.03413390935325457
1033,13.0,299.89526,2185.9806,0.0,-0.005164956390607656,-0.005164913655270276,0.0,0.0,0.0,-0.17738117357365885,-0.24433261625375177,-0.24276972863700674,-0.005007620606813676,-0.0022302910382875876,-0.02733850905410077
1034,13.0,300.09102,2162.6998,0.0,-0.005169970879346231,-0.005169915865457231,0.0,0.0,0.0,-0.17670988524990783,-0.24102970463777976,-0.23966715683080678,0.0036835453995126264,-0.0064704395423576646,-0.028110661359056273
1035,13.0,300.0312,2155.9776,0.0,-0.005174985368084695,-0.005174918075644408,0.0,0.0,0.0,-0.17198197922329983,-0.24179896411369975,-0.24158242243482878,-0.00030423578991323473,-0.0018474941684334782,-0.024146740841597777
1036,13.0,300.14621,2229.7259,0.0,-0.005179966866765584,-0.005179887376553949,0.0,0.0,0.0,-0.18167706015512983,-0.24896227755066377,-0.24714165963848278,0.00933853068461622,-0.0026290365660407073,-0.027859342910253073
1037,13.0,300.13308,2258.8552,0.0,-0.005184981355503826,-0.005184889586740904,0.0,0.0,0.0,-0.18128506408894282,-0.2514517519863558,-0.25389875097785575,0.0025661890193131374,-0.005888943517293474,-0.029053418636349176
1038,13.0,299.9615,2130.4656,0.0,-0.005189962854184937,-0.005189891796928081,0.0,0.0,0.0,-0.15991982446785785,-0.24664321151678978,-0.24104528842431774,0.0016793738879912984,-0.005566273921623464,-0.036644801869560366
1039,13.0,300.03587000000005,2030.7504,0.0,-0.00519497734292329,-0.005194894007115258,0.0,0.0,0.0,-0.15435288656344384,-0.23558511668294077,-0.2273594105161268,-0.0013395253461508587,0.003184173599028467,-0.03389724047439717
1040,13.0,299.99282999999997,2102.9837,0.0,-0.00519995884160418,-0.005199896217302213,0.0,0.0,0.0,-0.16653562821328685,-0.23975971722744177,-0.2329592081212838,-0.0016273308297300483,0.005996791122162204,-0.03800858178865496
1041,13.0,299.98976,2159.7633,0.0,-0.005204973330342644,-0.005204898427489391,0.0,0.0,0.0,-0.17654823132895384,-0.24386074568218175,-0.23610514703176375,-0.005856853177351405,0.0061189497701183235,-0.036336096988093564
1042,13.0,299.91333,2146.0594,0.0,-0.005209987819080886,-0.005209900637676457,0.0,0.0,0.0,-0.17231792229395484,-0.2488133196534628,-0.23121722854936377,-0.003317571521068817,-0.0037419985818815064,-0.04285861991606646
1043,13.0,300.09336,2157.729,0.0,-0.005214969317761886,-0.005214902847863634,0.0,0.0,0.0,-0.16936303168982983,-0.24564742984851376,-0.24088528610102677,-0.0008773656622142492,0.0007694142904027784,-0.03264052866686937
1044,13.0,299.9883,2178.0137,0.0,-0.00521998380650035,-0.005219905058050811,0.0,0.0,0.0,-0.16985929119130683,-0.24624922948040676,-0.24595326925869776,0.005132193728433086,0.002483181848595968,-0.03307757585900257
1045,13.0,300.02117000000004,2211.9622,0.0,-0.0052249653051812395,-0.005224907268237766,0.0,0.0,0.0,-0.17691134976729084,-0.2563187975166958,-0.23915111868737776,0.004628614406908676,-0.0009123906277584443,-0.033082819428270065
1046,13.0,300.10415,2205.9246,0.0,-0.005229979793919481,-0.005229909478424943,0.0,0.0,0.0,-0.17441540066345984,-0.25195078779310676,-0.24417980800617076,-0.001005907117055303,-0.003053622909769117,-0.035536955753474465
1047,13.0,300.10909,2148.1191,0.0,-0.005234961292600371,-0.0052349116886118985,0.0,0.0,0.0,-0.16828957426888783,-0.2516174082452048,-0.2330675752194788,0.002053403915330188,-0.002075306430816798,-0.03620947517609696
1048,13.0,300.00727,2108.7239,0.0,-0.005239975781338946,-0.005239913898798854,0.0,0.0,0.0,-0.16268569326582782,-0.24587786318625576,-0.23243585431213276,0.0006970139737199233,0.0004033655631740816,-0.03737918527703837
1049,13.0,300.04294,2129.939,0.0,-0.005244957280019835,-0.005244916108986031,0.0,0.0,0.0,-0.16713482379242284,-0.24243347145882074,-0.23787998630442678,0.0007777390417668673,-0.005454194173737055,-0.04091660552265457
1050,13.0,299.99451,2163.5416,0.0,-0.005249971768758077,-0.005249918319172986,0.0,0.0,0.0,-0.16830336460274883,-0.24941733830307475,-0.2399419097279228,-0.0009474332339868801,-0.009296721756340002,-0.03651978200597186
1051,13.0,299.99158,2146.8106,0.0,-0.005254986257496652,-0.005254887620082749,0.0,0.0,0.0,-0.17227295425451683,-0.2429614152909248,-0.2373424571263768,0.0026378067522812576,0.0008096519717489283,-0.031933005506292265
1052,13.0,300.03666,2156.5505,0.0,-0.0052599677561775415,-0.005259889830269704,0.0,0.0,0.0,-0.17352378110546382,-0.24414871136060176,-0.23786502060044978,0.0012262172351682188,0.0026987380404197075,-0.02970083681424437
1053,13.0,300.19197,2219.2513,0.0,-0.0052649822449160055,-0.00526489204045677,0.0,0.0,0.0,-0.1906272198784418,-0.24375867086710776,-0.2402110796169878,-0.0023773015701213976,0.005217118576289516,-0.029106911148878475
1054,13.0,300.17208999999997,2247.7717,0.0,-0.005269963743596895,-0.005269894250643836,0.0,0.0,0.0,-0.18016766201116383,-0.2552020743164838,-0.2478967234805018,-0.005097986709032115,8.666030311095603e-05,-0.035185680182306264
1055,13.0,300.01234,2222.933,0.0,-0.005274978232335137,-0.005274896460830902,0.0,0.0,0.0,-0.17533139901886183,-0.25615654577818275,-0.24422818056594478,-0.0009360695226578691,0.0025103041219727276,-0.030825559623995868
1056,13.0,299.84039,2211.5381,0.0,-0.005279959731016137,-0.0052798986710180795,0.0,0.0,0.0,-0.17038643455583183,-0.25518052248685674,-0.24668541338345476,-0.0016817697178527482,0.0016033295693113083,-0.03310914873211857
1057,13.0,299.90578,2185.7861,0.0,-0.005284974219754601,-0.005284900881205257,0.0,0.0,0.0,-0.17276812957838683,-0.2508838050403038,-0.24077246070239178,0.0006713841366804553,-0.0022269064789785576,-0.028177250129128074
1058,13.0,299.85837999999995,2136.4555,0.0,-0.005289955718435491,-0.005289903091392212,0.0,0.0,0.0,-0.16042913463062286,-0.2502885712690588,-0.23871143907148476,0.0012359222459510288,-0.0017479355573328083,-0.04221264764606396
1059,13.0,300.02171,2130.5529,0.0,-0.005294970207173733,-0.005294905301579389,0.0,0.0,0.0,-0.16901732088821084,-0.24268307548845475,-0.23593448531742076,0.0023604601375592778,-0.001035887525784139,-0.02939311985162507
1060,13.0,299.79836,2158.5039,0.0,-0.005299984695912308,-0.005299907511766344,0.0,0.0,0.0,-0.16205339480592484,-0.2512700458459227,-0.24280784710576878,0.008304710391686102,0.0006484542362549503,-0.04448463301404146
1061,13.0,299.88739,2189.971,0.0,-0.005304966194593197,-0.005304909721953521,0.0,0.0,0.0,-0.17410206320253582,-0.24706734787614876,-0.24452710961044677,0.0013729349377231287,-0.0062469010675711345,-0.03871810003867897
1062,13.0,300.07417999999996,2207.0994,0.0,-0.005309980683331439,-0.0053099119321406985,0.0,0.0,0.0,-0.17432515047705285,-0.2531319739646808,-0.24344599201874875,-0.00032626494139734267,-0.004034566442255707,-0.04234381895100956
1063,13.0,300.27892,2226.6436,0.0,-0.005314962182012328,-0.005314914142327654,0.0,0.0,0.0,-0.17823506983043183,-0.25577072040510473,-0.24283827500627175,-0.0025739132274754575,-0.001097883537127669,-0.03022671361614437
1064,13.0,300.12584,2219.5965,0.0,-0.005319976670750792,-0.00531991635251472,0.0,0.0,0.0,-0.17712473010584984,-0.25009966092041475,-0.24747751151662875,-0.006045038950848894,0.0072807151796756425,-0.029993431019121174
1065,13.0,299.88937999999996,2255.5278,0.0,-0.005324958169431793,-0.005324885653424372,0.0,0.0,0.0,-0.18109629559531285,-0.25777808031071575,-0.24674973449980278,-0.0068667653275469726,0.003564424070056267,-0.027800274482423473
1066,13.0,300.15054,2249.7066,0.0,-0.005329972658170257,-0.005329887863611327,0.0,0.0,0.0,-0.17436627829861184,-0.25425210168522877,-0.25523625124235677,-0.0064229337167192035,0.0037110244382495957,-0.03287021726578787
1067,13.0,300.13873,2176.6694,0.0,-0.005334987146908499,-0.005334890073798393,0.0,0.0,0.0,-0.16730110826633385,-0.24705376019230774,-0.24729828783894076,-0.002252457708075268,-0.0013845816396725686,-0.032981213747992365
1068,13.0,299.96877,2180.3168,0.0,-0.005339968645589388,-0.005339892283985348,0.0,0.0,0.0,-0.16780830073638983,-0.24975176149857972,-0.24520182271953575,0.0020607977026348982,-0.0025245002624987778,-0.03633618108785187
1069,13.0,299.81113,2218.939,0.0,-0.005344983134327963,-0.005344894494172525,0.0,0.0,0.0,-0.17858597860506384,-0.24798393391660875,-0.2479321264389958,0.005925029912979925,-0.007142588216768573,-0.03299123073848097
1070,13.0,299.82575,2209.6084,0.0,-0.005349964633008852,-0.005349896704359702,0.0,0.0,0.0,-0.18050757702221082,-0.24991383085207475,-0.24124436167146476,0.002232942815124298,-0.0017324144909759984,-0.03581004996017676
1071,13.0,299.80195,2159.2686,0.0,-0.005354979121747094,-0.0053548989145466575,0.0,0.0,0.0,-0.16781153300420884,-0.24644633702235974,-0.2421058674364888,0.0018124466580745583,-0.0026603470073808073,-0.03217456433013227
1072,13.0,299.87472,2212.9814,0.0,-0.005359960620427984,-0.005359901124733835,0.0,0.0,0.0,-0.16811241762140383,-0.2531184166783428,-0.2514602531546948,-0.00014216678092326886,0.003096293303280357,-0.03584244153937357
1073,13.0,299.95311,2311.6933,0.0,-0.005364975109166559,-0.00536490333492079,0.0,0.0,0.0,-0.18376925949161382,-0.26306968776545675,-0.25585810309372875,-0.0016939772537325386,-0.0016894998028656482,-0.03477295605882357
1074,13.0,299.93206000000004,2297.0868,0.0,-0.005369956607847448,-0.005369905545107967,0.0,0.0,0.0,-0.18211456128330783,-0.26154683366016274,-0.25459563399913276,-0.004286898951758986,0.001938843933848998,-0.036761907236617763
1075,13.0,300.14668,2235.3187,0.0,-0.00537497109658569,-0.005374907755295144,0.0,0.0,0.0,-0.18269992599857882,-0.25397210015259475,-0.24280904274088674,-0.0035713057607604363,-0.0008256319086785251,-0.02886021109403107
1076,13.0,300.17967999999996,2197.5319,0.0,-0.005379985585324154,-0.005379909965482099,0.0,0.0,0.0,-0.16934986957103085,-0.25267988203506275,-0.24596507362236278,-0.003204519559711457,0.007283039980705082,-0.03254081573777847
1077,13.0,300.35792999999995,2179.9288,0.0,-0.005384967084005043,-0.005384912175669276,0.0,0.0,0.0,-0.16633220812321084,-0.25210779089610175,-0.24420393349105177,-0.000977688973165389,0.0062223802125011135,-0.035270208545398564
1078,13.0,299.86346000000003,2221.2429,0.0,-0.005389981572743396,-0.0053899143858563425,0.0,0.0,0.0,-0.16298370025273884,-0.26005251267768476,-0.2521661541018618,-0.0006396422129177714,0.005186757955593155,-0.042238712491636354
1079,13.0,299.85103,2219.0449,0.0,-0.005394963071424286,-0.005394883686765772,0.0,0.0,0.0,-0.17448485895781485,-0.25461257554080474,-0.24543682581522877,0.003135673775041907,0.0025784161109198575,-0.04076665869335596
1080,13.0,299.81967000000003,2136.0796,0.0,-0.00539997756016275,-0.0053998858969529495,0.0,0.0,0.0,-0.15958574577738685,-0.25017373963522577,-0.23955537507977476,-0.0026673857518504773,-0.0008936210714485332,-0.040835433043893456
1081,13.0,299.79829,2147.5652,0.0,-0.005404959058843639,-0.005404888107140016,0.0,0.0,0.0,-0.17412632040992984,-0.24947058459582977,-0.22920929109119578,0.00968038627225474,-0.0036876952666221865,-0.040775604678488855
1082,13.0,299.88018,2271.4479,0.0,-0.005409973547582214,-0.005409890317327082,0.0,0.0,0.0,-0.18537283923237483,-0.25594399630470577,-0.24914661814135675,0.0007252052766146883,-0.004772951275703615,-0.032714502003669974
1083,13.0,299.96201,2285.3579,0.0,-0.0054149550462631035,-0.005414892527514148,0.0,0.0,0.0,-0.1864519201913718,-0.25708213961203175,-0.25115766627733177,0.005008787465628836,-0.002856820660071247,-0.033103813970342066
1084,13.0,299.80565,2237.5435,0.0,-0.0054199695350013455,-0.005419894737701103,0.0,0.0,0.0,-0.17368744126161584,-0.2544680455465408,-0.25200187586314876,-0.005981523874955444,-0.0015944424540092186,-0.03211398615965367
1085,13.0,300.00297,2275.5424,0.0,-0.0054249840237398095,-0.00542489694788828,0.0,0.0,0.0,-0.18496640435226283,-0.2581680296117007,-0.24857363534230775,-8.276664540843193e-05,0.0016805155168789685,-0.034002741088059264
1086,13.0,300.01427,2304.1929999999998,0.0,-0.005429965522420699,-0.005429899158075235,0.0,0.0,0.0,-0.18777456620940683,-0.26173967541919474,-0.25090290480468874,-0.0004096717075564496,0.0038706184217502963,-0.032895090529242665
1087,13.0,300.03246,2260.4178,0.0,-0.005434980011159052,-0.0054349013682624125,0.0,0.0,0.0,-0.18703736596665083,-0.25270042061458975,-0.24737277185379175,0.0008136398404325001,0.00014100953785155788,-0.03494907007195467
1088,13.0,299.98042999999996,2222.6167,0.0,-0.005439961509839941,-0.00543990357844959,0.0,0.0,0.0,-0.17444416683379882,-0.25475677116253576,-0.24641902993216477,-0.002323690304680378,-0.00021699699293593582,-0.03153386805340047
1089,13.0,300.0089,2188.089,0.0,-0.005444975998578405,-0.005444905788636545,0.0,0.0,0.0,-0.16600601251851782,-0.25382473305805076,-0.24529368397360177,-0.001188355220006529,-0.004388901218125826,-0.03994884427264397
1090,13.0,299.96063,2183.0752,0.0,-0.005449957497259295,-0.005449907998823722,0.0,0.0,0.0,-0.16273023574022386,-0.25239750949719475,-0.24847261430733775,0.0014063506087959986,0.0011753175283198088,-0.04341303288053276
1091,13.0,300.16807,2275.0843,0.0,-0.0054549719859976475,-0.005454910209010788,0.0,0.0,0.0,-0.18191155662577282,-0.26092625850391676,-0.24873100321533875,0.0017804364662153981,-0.0024987603662334477,-0.04430355914167086
1092,13.0,299.82379,2269.5227,0.0,-0.0054599864747361115,-0.005459912419197965,0.0,0.0,0.0,-0.18124180844217383,-0.25800156275277175,-0.2506348596232348,0.004071327257208716,0.002076261115061018,-0.03644805403139287
1093,13.0,300.07343,2220.1323,0.0,-0.005464967973417001,-0.005464881720107395,0.0,0.0,0.0,-0.17800623742784782,-0.2576348675415817,-0.23922367752703877,0.0016163727325485685,-0.002465967134697008,-0.041222506741094664
1094,13.0,299.83431,2230.0371,0.0,-0.005469982462155354,-0.005469883930294461,0.0,0.0,0.0,-0.17041373151352582,-0.25840284018987475,-0.24905902267021177,0.0012264569701418788,-0.004990896711263155,-0.03762819959511417
1095,13.0,299.85167,2303.9688,0.0,-0.005474963960836354,-0.0054748861404816385,0.0,0.0,0.0,-0.17476465784042883,-0.26497243973074375,-0.2606118875278908,-0.003637512130244497,-0.004875550650354385,-0.03787466862893876
1096,13.0,299.78182999999996,2284.7103,0.0,-0.005479978449574707,-0.005479888350668816,0.0,0.0,0.0,-0.17537734991089685,-0.2611506224735598,-0.25796690959935176,-0.003173024402878127,-0.0027500236942312076,-0.038900440473674566
1097,13.0,299.87829,2214.774,0.0,-0.005484959948255597,-0.005484890560855771,0.0,0.0,0.0,-0.17046836595891784,-0.25746807644262076,-0.24529956082418178,-0.0013662682586901786,0.0017015169490516484,-0.04163782883783376
1098,13.0,299.72008,2209.0861,0.0,-0.005489974436994061,-0.005489892771042726,0.0,0.0,0.0,-0.17660962415251283,-0.2539765280555317,-0.24092085117953677,-0.0025413878992654577,0.004772586708317636,-0.04176712157709396
1099,13.0,299.97839,2236.4461,0.0,-0.00549495593567495,-0.005494894981229681,0.0,0.0,0.0,-0.17913704480444984,-0.2509297356673368,-0.24975698986909575,0.0022891656313730577,0.0036591919333591265,-0.03586888635373347
1100,13.0,300.17115,2261.6631,0.0,-0.005499970424413303,-0.005499897191416858,0.0,0.0,0.0,-0.17377974834572582,-0.2542369535962338,-0.25947239659793175,0.003662900023425087,0.0030847233043634873,-0.03306681108994017
1101,13.0,300.18842,2290.9316,0.0,-0.005504984913151767,-0.005504899401604035,0.0,0.0,0.0,-0.17345852779902382,-0.25845796099531476,-0.2644695130436088,0.0015978547763709884,-0.002318582713576298,-0.03311013259796567
1102,13.0,300.2895,2270.2475,0.0,-0.005509966411832656,-0.0055099016117909905,0.0,0.0,0.0,-0.17828296616265885,-0.25424895047741775,-0.2575666352798478,0.0013286355420261188,-0.0015740894005755286,-0.02937485905832287
1103,13.0,300.02979,2251.3652,0.0,-0.005514980900571009,-0.005514903821978168,0.0,0.0,0.0,-0.18309292518236484,-0.2534350978645967,-0.24783077103149276,-0.0006117599006410014,-0.004097917878258006,-0.034202500305523964
1104,13.0,299.88973,2320.1941,0.0,-0.005519962399251899,-0.005519906032165234,0.0,0.0,0.0,-0.19374286261093182,-0.25846501321601073,-0.2530732054588808,0.0014886078731141585,0.0004874585630959146,-0.030100045194643172
1105,13.0,299.83218,2353.7185,0.0,-0.005524976887990363,-0.005524908242352411,0.0,0.0,0.0,-0.1957181126208738,-0.26211192324093274,-0.25764162591974876,-0.0034320193357639367,0.0015263684619408384,-0.034514420229558064
1106,13.0,299.82194,2299.9437,0.0,-0.005529958386671252,-0.005529910452539588,0.0,0.0,0.0,-0.17431398446095084,-0.26457964319697774,-0.26023183768038277,-0.0015911032883046685,0.0027790044709413873,-0.038407911759065765
1107,13.0,299.67405,2269.2429,0.0,-0.005534972875409605,-0.005534912662726543,0.0,0.0,0.0,-0.16771072475175985,-0.26474513733581073,-0.25733733678221776,0.001098368985250579,0.002175108323266478,-0.04341624285684955
1108,13.0,299.8458,2285.4709,0.0,-0.005539954374090605,-0.005539881963636084,0.0,0.0,0.0,-0.17192146792732785,-0.26611719956122276,-0.25668742803557676,-0.0011315767374029289,0.008394463477594042,-0.04089792220406066
1109,13.0,300.04976,2254.8468,0.0,-0.005544968862828958,-0.005544884173823261,0.0,0.0,0.0,-0.17849332701591983,-0.26154214231219974,-0.24538164421478278,0.001066704311675519,0.0032631788371506767,-0.042123460359011856
1110,13.0,300.29266,2211.3942,0.0,-0.005549983351567311,-0.005549886384010216,0.0,0.0,0.0,-0.17570373803310882,-0.25852243409917774,-0.23798243602203775,-0.003490172393453197,0.0027149540950201076,-0.04281903932741016
1111,13.0,300.20192000000003,2201.9008,0.0,-0.005554964850248312,-0.0055548885941973936,0.0,0.0,0.0,-0.17385952152609882,-0.2544179909916008,-0.24104534921932377,-0.0017607114251936883,0.0007945838788493234,-0.038209527521986766
1112,13.0,299.99862,2214.4871,0.0,-0.005559979338986887,-0.005559890804384349,0.0,0.0,0.0,-0.16360667681172184,-0.25532137438325775,-0.25422073146213275,-0.0017120377274899685,-0.0007829481503984664,-0.041040451029377166
1113,13.0,299.96783,2327.5102,0.0,-0.005564960837667554,-0.005564893014571526,0.0,0.0,0.0,-0.17844183364583785,-0.26839661711868373,-0.2606665422382848,-0.0007384222021115973,-0.0028613583993190874,-0.03790043963198216
1114,13.0,299.92227,2402.5170000000003,0.0,-0.005569975326406018,-0.005569895224758481,0.0,0.0,0.0,-0.19008416848734683,-0.2707525046611918,-0.26946850400197075,0.0007615473051688673,-0.0072721400440793425,-0.03815062526717356
1115,13.0,299.90833,2360.6697,0.0,-0.0055749568250869075,-0.005574897434945547,0.0,0.0,0.0,-0.1988381427262968,-0.2622029130999128,-0.25654359718388176,0.0048885935096166155,-0.0047670298421192145,-0.032438474437928175
1116,13.0,300.05035,2291.4694,0.0,-0.0055799713138252605,-0.005579899645132613,0.0,0.0,0.0,-0.18385989471305883,-0.2618710635596617,-0.2508185112038598,0.0028803163086900878,0.004801434546614696,-0.03155789727952197
1117,13.0,300.18363999999997,2290.737,0.0,-0.0055849858025637245,-0.005584901855319679,0.0,0.0,0.0,-0.18730452962051783,-0.2552587555270778,-0.25376357328201476,-0.0016831267637116784,0.0024955860563201674,-0.03067873563150547
1118,13.0,300.00754,2311.3185,0.0,-0.005589967301244614,-0.005589904065506857,0.0,0.0,0.0,-0.17877872917158683,-0.2592669804051587,-0.26453740080030874,-0.0037423783480189862,0.003394110508447627,-0.033062488565013565
1119,13.0,300.11117,2280.3827,0.0,-0.005594981789982967,-0.005594906275694034,0.0,0.0,0.0,-0.17585881596091382,-0.26187087104214274,-0.25544970250842275,-0.0038895493786686368,0.0040688817780923665,-0.037852527087753565
1120,13.0,299.88358999999997,2221.3739,0.0,-0.005599963288663856,-0.005599908485880989,0.0,0.0,0.0,-0.17146162463444484,-0.25454932846956274,-0.24923123465720776,0.001251367825175389,-0.0010925986272560888,-0.036024739417864965
1121,13.0,299.83995,2252.3685,0.0,-0.00560497777740232,-0.005604910696068166,0.0,0.0,0.0,-0.18495169196081082,-0.2576263866382448,-0.24208570375949878,-0.0033291735386888465,-0.0031477232439060965,-0.04200274275534796
1122,13.0,299.71693,2336.5043,0.0,-0.0056099592760832095,-0.005609879996977707,0.0,0.0,0.0,-0.1910762416602568,-0.26518364158158775,-0.2539790713132828,0.0009419875719869351,-0.006999003584847873,-0.036704430624695264
1123,13.0,299.94477,2379.9554,0.0,-0.0056149737648214515,-0.005614882207164662,0.0,0.0,0.0,-0.18829062461783783,-0.27297937506846676,-0.26217700429485574,0.004470090314188566,-0.003017232032427617,-0.04123560299863716
1124,13.0,299.94479,2348.2952,0.0,-0.005619955263502563,-0.005619884417351839,0.0,0.0,0.0,-0.17613452131312385,-0.27069691776070576,-0.2669916546625247,0.0037464301325188664,0.002529446037561888,-0.03403897592488537
1125,13.0,300.11424,2294.5356,0.0,-0.005624969752241027,-0.005624886627538794,0.0,0.0,0.0,-0.16973446891148783,-0.26576443653890774,-0.26198261226317077,0.0018352691033269582,-0.002990441294483577,-0.04110615624536176
1126,13.0,300.06911,2266.8408,0.0,-0.00562998424097938,-0.0056298888377259715,0.0,0.0,0.0,-0.17543396019398383,-0.26328031206374375,-0.2503487279274958,-0.002313105083535698,-0.0042755029278842855,-0.04271933754407036
1127,13.0,300.41901,2277.1973,0.0,-0.005634965739660269,-0.005634891047913149,0.0,0.0,0.0,-0.18376453774614784,-0.25974968262029774,-0.24869690734947378,-0.001933506030997188,-0.004272511813589086,-0.04084296047888636
1128,13.0,300.22418999999996,2266.4189,0.0,-0.005639980228398733,-0.005639893258100104,0.0,0.0,0.0,-0.17950158179292683,-0.2599843614759587,-0.24944879971867975,0.005457701336308184,0.0008843718205607032,-0.039394472851431765
1129,13.0,300.02328,2232.1354,0.0,-0.005644961727079512,-0.00564489546828717,0.0,0.0,0.0,-0.16826384784884885,-0.2603649483460198,-0.24988461885169175,-0.01012573633968237,-0.0015377639791904884,-0.03989159665524406
1130,13.0,299.78216000000003,2301.8237,0.0,-0.005649976215817976,-0.005649897678474125,0.0,0.0,0.0,-0.17514517378298283,-0.2635519441505517,-0.26099979006367374,-0.0015233457342425185,0.0005451486262844805,-0.03763217558850657
1131,13.0,299.99806,2390.9765,0.0,-0.005654957714498865,-0.005654899888661302,0.0,0.0,0.0,-0.18721649845182983,-0.2692198220299277,-0.27036082270253575,-0.003186147714198297,0.001008174152696542,-0.03576509407973996
1132,13.0,299.9885,2366.0314,0.0,-0.005659972203237218,-0.005659902098848479,0.0,0.0,0.0,-0.19071491667459683,-0.26690775755424473,-0.2615918016996007,0.002040711235302518,0.008153953874232591,-0.036676492279687965
1133,13.0,299.98401,2345.2647,0.0,-0.005664953701918107,-0.0056649043090354345,0.0,0.0,0.0,-0.1940859794922948,-0.26290107281631575,-0.2559148450993287,-0.000886879290318171,-0.0033741745087550964,-0.03242364957571507
1134,13.0,299.79587000000004,2350.6371,0.0,-0.005669968190656571,-0.005669906519222612,0.0,0.0,0.0,-0.19194800151629282,-0.2633556269436767,-0.25923136466414376,0.002045743035299118,-0.006330413850088204,-0.03541072708251667
1135,13.0,299.87892999999997,2333.64,0.0,-0.005674982679394813,-0.005674908729409567,0.0,0.0,0.0,-0.1878421803885798,-0.2611401657325278,-0.26038593275559074,0.0026478667045740974,-0.0004484058676092136,-0.027501133668650573
1136,13.0,300.08064,2287.7516,0.0,-0.005679964178075703,-0.005679878030319108,0.0,0.0,0.0,-0.17226274069350883,-0.26425289030472976,-0.2589037201118078,0.005832234644971744,0.0012110013597415288,-0.033640409945049965
1137,13.0,300.0154,2293.3357,0.0,-0.005684978666814278,-0.005684880240506285,0.0,0.0,0.0,-0.17333398922923282,-0.26415185913725875,-0.2596309499735797,0.0020030355568342183,-0.0018475477693637682,-0.036405963622238864
1138,13.0,299.78907999999996,2315.382,0.0,-0.005689960165495278,-0.00568988245069324,0.0,0.0,0.0,-0.1828637685397488,-0.26572531495254675,-0.25522922941916376,-0.002745664996276037,-0.0018097822156115985,-0.04556080391875125
1139,13.0,300.08322000000004,2360.5789,0.0,-0.005694974654233631,-0.005694884660880417,0.0,0.0,0.0,-0.1887558584012528,-0.2702403067356417,-0.25856087680797174,-0.0047320070550627355,0.005469769246324195,-0.04442196957485705
1140,13.0,300.1488,2344.1735,0.0,-0.00569995615291452,-0.005699886871067594,0.0,0.0,0.0,-0.18343850426147082,-0.27069623888313876,-0.25843545671059376,0.002690500317106708,0.006320235246208655,-0.04432282609232236
1141,13.0,300.03234,2308.4406,0.0,-0.005704970641652984,-0.005704889081254549,0.0,0.0,0.0,-0.17070159586693584,-0.2691563520436637,-0.26185037299261976,-0.002665129953152847,0.0046326670020086355,-0.03822104209612317
1142,13.0,300.02778,2306.561,0.0,-0.005709985130391337,-0.005709891291441727,0.0,0.0,0.0,-0.17119830119845683,-0.26925704883860174,-0.26068159913477074,-0.0024674398937173576,-0.0012513874822273287,-0.04402853975977856
1143,13.0,300.07428,2350.7237,0.0,-0.005714966629072227,-0.005714893501628793,0.0,0.0,0.0,-0.18132879596325882,-0.26837968570951276,-0.26485282555643874,-0.004935655531711275,-0.001283757681847019,-0.03506049921195187
1144,13.0,299.9525,2352.9636,0.0,-0.005719981117810691,-0.005719895711815859,0.0,0.0,0.0,-0.1880579722623768,-0.27383252152016574,-0.25335167698386374,-0.0018807572440412883,0.0019672231439748084,-0.044729344058942556
1145,13.0,299.85417,2331.8516,0.0,-0.005724962616491358,-0.005724897922002925,0.0,0.0,0.0,-0.1889420937696328,-0.26724104590963776,-0.25264152038627674,0.0011983815323960488,-0.006457573596562894,-0.039236445352585664
1146,13.0,299.8379,2354.7386,0.0,-0.005729977105229933,-0.00572990013218988,0.0,0.0,0.0,-0.1913614816959078,-0.2688676669576727,-0.25555258792357677,0.005166727723641325,-0.005070151411559985,-0.04225790648828066
1147,13.0,299.81847999999997,2366.7691,0.0,-0.0057349586039108225,-0.005734902342377057,0.0,0.0,0.0,-0.1867668991174578,-0.26727795861078074,-0.2653938605798347,-0.0003497974520548207,-0.002726575972342097,-0.03502662828760907
1148,13.0,300.06584,2337.856,0.0,-0.005739973092649064,-0.0057399045525640124,0.0,0.0,0.0,-0.17695831390942585,-0.2648071077119268,-0.2688844159818258,0.0014070444824644788,0.0005256754285751254,-0.03652641271462626
1149,13.0,300.08362,2362.2021,0.0,-0.005744954591329954,-0.00574490676275119,0.0,0.0,0.0,-0.18361815350420083,-0.26955343462535275,-0.26487886608400874,0.0005602487885497504,0.0015069086897953085,-0.033903873209551766
1150,13.0,300.1005,2390.0806,0.0,-0.005749969080068529,-0.005749908972938367,0.0,0.0,0.0,-0.19403700911496183,-0.26800749868278073,-0.2644803142896748,-0.003611733629150356,0.004336452758499566,-0.03599474822815507
1151,13.0,300.00219,2364.0075,0.0,-0.005754983568806771,-0.005754878273847686,0.0,0.0,0.0,-0.19278357821125783,-0.2700885725331667,-0.2557270898557988,-0.0024380997171967074,0.007195918406631853,-0.03604259288462697
1152,13.0,300.22105,2372.8618,0.0,-0.005759965067487882,-0.005759880484034863,0.0,0.0,0.0,-0.18719838154004184,-0.27274057228489873,-0.2613517931484137,-0.004078511301742726,0.0015481362151641485,-0.03411770444440527
1153,13.0,299.92368999999997,2403.2962,0.0,-0.005764979556226124,-0.00576488269422204,0.0,0.0,0.0,-0.18481935136524982,-0.27615964289233474,-0.26956305036880174,-0.0018948197368791483,-0.0057618357505489146,-0.034859419729606864
1154,13.0,299.96375,2412.1124,0.0,-0.0057699610549072355,-0.005769884904408995,0.0,0.0,0.0,-0.18462543556111183,-0.2805188170750517,-0.26807767638470675,0.0019275019162046283,-0.009350307893178542,-0.03688639514390376
1155,13.0,299.9123,2355.673,0.0,-0.0057749755436455885,-0.005774887114596172,0.0,0.0,0.0,-0.18619543619355883,-0.26889396079776773,-0.26097637385386274,0.007530227307525572,-0.005560274062481324,-0.038775463166590265
1156,13.0,300.00043,2336.6296,0.0,-0.005779957042326478,-0.005779889324783238,0.0,0.0,0.0,-0.18669399577276283,-0.27065887021945073,-0.2529241968991748,0.009663854184948152,0.0003207769559407207,-0.040311438860679255
1157,13.0,299.83585,2326.4541,0.0,-0.005784971531064942,-0.0057848915349704155,0.0,0.0,0.0,-0.18382481599459682,-0.27146947029945073,-0.2518896786795758,0.003335122634000977,0.0006897132534368984,-0.04394638544167055
1158,13.0,299.85541,2351.7823,0.0,-0.005789953029745609,-0.005789893745157593,0.0,0.0,0.0,-0.18170352624774183,-0.27126240250901473,-0.26191717657171276,0.0025593182717100474,-0.0004248398893009326,-0.04293853900445386
1159,13.0,299.77862000000005,2390.7218,0.0,-0.005794967518484184,-0.005794895955344548,0.0,0.0,0.0,-0.18220929003515682,-0.27807331769369975,-0.2664371332802977,-0.002795057696250717,-0.002813507055396528,-0.04152983056267516
1160,13.0,299.97776,2366.8689,0.0,-0.005799982007222648,-0.005799898165531503,0.0,0.0,0.0,-0.17812183913175683,-0.2757754184544147,-0.2655717872973948,-0.0006027620877654865,-0.0013597198259438987,-0.03847420466010837
1161,13.0,300.00087,2318.7393,0.0,-0.0058049635059033156,-0.005804900375718458,0.0,0.0,0.0,-0.18102107190788883,-0.2687145446025607,-0.2551032419017297,-0.008341151323582542,-0.0043914338367507764,-0.03939445765268026
1162,13.0,300.05175,2423.6205,0.0,-0.0058099779946417796,-0.005809902585905635,0.0,0.0,0.0,-0.1950888336462688,-0.2813366112307617,-0.26029465918658273,-0.005336218526168765,-0.00097029631056829,-0.04108831696410117
1163,13.0,300.04329,2463.0344,0.0,-0.00581495949332278,-0.005814904796092812,0.0,0.0,0.0,-0.2069708325339308,-0.27282211865294675,-0.26890800444415375,-0.0038200963532141557,0.001978523821015098,-0.037352555037910164
1164,13.0,299.97722999999996,2350.4879,0.0,-0.005819973982061022,-0.0058199070062797675,0.0,0.0,0.0,-0.18606281188796983,-0.2657719548546498,-0.26265485304201575,0.002098287753684878,0.004613249685042295,-0.034898561580969864
1165,13.0,300.00925,2296.2387,0.0,-0.005824955480742133,-0.005824876307189308,0.0,0.0,0.0,-0.17373622925393084,-0.2631901328048437,-0.2610728656608858,-0.0005854117503406414,0.00025504249755823477,-0.03414984980382777
1166,13.0,300.05877999999996,2358.2795,0.0,-0.005829969969480375,-0.0058298785173764855,0.0,0.0,0.0,-0.18126567048202882,-0.26547395800023976,-0.2701184431461147,0.0016320864177493887,-0.003455939840149707,-0.03344997060200507
1167,13.0,299.95457000000005,2431.8404,0.0,-0.005834984458218728,-0.005834880727563441,0.0,0.0,0.0,-0.19682353808247083,-0.2752858666685998,-0.26710936392664175,0.0002061445878723868,0.0007021661174309003,-0.033001174774962366
1168,13.0,299.98601,2426.6207,0.0,-0.00583996595689984,-0.005839882937750618,0.0,0.0,0.0,-0.2021976240953518,-0.26781776760155573,-0.26761668811921074,-0.0014465027718337084,0.0017028756161107383,-0.036992332468358965
1169,13.0,299.88672,2379.3529,0.0,-0.005844980445638082,-0.005844885147937684,0.0,0.0,0.0,-0.1918934481309088,-0.2711969465525548,-0.26017347447462275,-0.002014437052259458,0.001119637712799639,-0.038689201132576866
1170,13.0,299.86512999999997,2379.1413,0.0,-0.005849961944319193,-0.005849887358124861,0.0,0.0,0.0,-0.18188065249772284,-0.27701902083214874,-0.2642998848443677,-0.004601069000290155,0.003761163903547976,-0.041993491781934955
1171,13.0,300.00288,2443.3958,0.0,-0.005854976433057546,-0.005854889568312038,0.0,0.0,0.0,-0.1880500587790958,-0.27822354215352574,-0.27645770054175073,-0.0004015081237532666,0.0023949999082930875,-0.04069526610456006
1172,13.0,299.88625,2455.6896,0.0,-0.005859957931738435,-0.0058598917784989935,0.0,0.0,0.0,-0.19189990253404582,-0.2814646252483957,-0.27310378191574475,0.003708530019153416,0.0025468828558827673,-0.04273470348183687
1173,13.0,299.85845,2371.3520000000003,0.0,-0.005864972420476899,-0.005864893988686171,0.0,0.0,0.0,-0.18267875920398982,-0.27541401240874674,-0.2627390237278227,-1.2518298672209888e-05,0.0005686382055352214,-0.04018723263692106
1174,13.0,299.93543999999997,2304.4403,0.0,-0.005869953919157567,-0.005869896198873126,0.0,0.0,0.0,-0.18201354024833782,-0.26968362713070176,-0.24879514194666877,-0.001906273212034518,0.0008987974723669041,-0.041249101516469364
1175,13.0,300.1045,2364.0519,0.0,-0.005874968407896031,-0.005874898409060303,0.0,0.0,0.0,-0.18175429007775182,-0.2774788742575327,-0.2593795930212728,-0.00024764865959101977,0.004437909592337576,-0.040881809500970465
1176,13.0,300.2089,2437.4849,0.0,-0.005879982896634606,-0.005879900619247258,0.0,0.0,0.0,-0.1911043289530288,-0.2740313009247837,-0.27579891572423376,-0.0014274665382299787,0.0060937542931317245,-0.038732314924331865
1177,13.0,300.21355,2440.59,0.0,-0.005884964395315273,-0.005884902829434324,0.0,0.0,0.0,-0.18350269365530583,-0.28245585742372276,-0.27591986738867075,0.00012705035599389387,-0.003711235396920416,-0.04233989767312256
1178,13.0,300.11194,2386.0902,0.0,-0.005889978884053737,-0.00588990503962139,0.0,0.0,0.0,-0.18300363758355281,-0.27492758143323975,-0.26738062111091276,-0.0012531715116783986,-0.002936213669006727,-0.043557009640242166
1179,13.0,300.22341,2394.0825,0.0,-0.005894960382734626,-0.005894874340530931,0.0,0.0,0.0,-0.18893953024687982,-0.27443356121448376,-0.26436819816610974,0.003306638552489817,-0.003118135226410987,-0.04123603261667956
1180,13.0,299.90885,2436.6887,0.0,-0.005899974871472979,-0.005899876550717997,0.0,0.0,0.0,-0.20111353768086082,-0.2772377308662337,-0.26234125213606574,0.00038034206883683964,-0.0015531748039364188,-0.04038747517468346
1181,13.0,299.73848,2463.4884,0.0,-0.005904956370154091,-0.0059048787609050635,0.0,0.0,0.0,-0.19658125985105981,-0.27680715023623875,-0.2754505502073527,0.0011435726053368289,-0.002237973500545788,-0.039422501375697964
1182,13.0,299.79319,2408.2992,0.0,-0.005909970858892333,-0.00590988097109213,0.0,0.0,0.0,-0.1898728754439938,-0.27210157624183473,-0.27008834961814476,-0.0016951297243962783,0.0005067119260635736,-0.03660992580111837
1183,13.0,299.65706,2339.4776,0.0,-0.005914952357573444,-0.005914883181279307,0.0,0.0,0.0,-0.17445459317732784,-0.26854855397117877,-0.26813962649582074,0.003652862463959457,0.004253279313440986,-0.03814849845521367
1184,13.0,299.68959,2398.9416,0.0,-0.005919966846311686,-0.005919885391466484,0.0,0.0,0.0,-0.1921146507602398,-0.26972690304247277,-0.26737679102553474,-0.0029013687073427973,-0.00014280860393411186,-0.034453292877525264
1185,13.0,299.94577999999996,2461.7631,0.0,-0.005924981335050261,-0.005924887601653439,0.0,0.0,0.0,-0.2016310247719328,-0.2791659964690387,-0.26751750106692174,-0.002342261456488208,-0.004754808424713055,-0.03893028778187026
1186,13.0,300.07453,2438.7312,0.0,-0.0059299628337311505,-0.005929889811840616,0.0,0.0,0.0,-0.1987209198222278,-0.27705522425822177,-0.2655372456014857,-0.003176719118042767,-0.004298528529781735,-0.03437328259662887
1187,13.0,300.26313999999996,2418.2797,0.0,-0.0059349773224693925,-0.005934892022027571,0.0,0.0,0.0,-0.18581979398398582,-0.28251919568747375,-0.26675767494943275,0.004057245512618956,0.000950716417623405,-0.04525122156269786
1188,13.0,300.22805,2416.4554,0.0,-0.005939958821150282,-0.0059398942322147485,0.0,0.0,0.0,-0.18067769158149985,-0.28140883569788977,-0.27245557542927173,-0.0006081611605258335,0.002897192090430597,-0.03735946236384186
1189,13.0,300.15968,2440.1225,0.0,-0.005944973309888857,-0.005944896442401926,0.0,0.0,0.0,-0.18472706454614182,-0.28318103038779174,-0.2738282152072407,2.4166033123501777e-05,-0.0009458083151990132,-0.04691225258412886
1190,13.0,300.16976,2465.7172,0.0,-0.005949954808569524,-0.005949898652588881,0.0,0.0,0.0,-0.19120592754055582,-0.28485109960011473,-0.27345942256834377,0.0002582353702133468,-0.004114696894613966,-0.04184473248175356
1191,13.0,299.86638,2393.286,0.0,-0.005954969297307988,-0.005954900862775947,0.0,0.0,0.0,-0.19185531952964582,-0.27419985507891875,-0.26144399890751374,0.008508128151286872,-0.00010822676305614989,-0.04694858367971445
1192,13.0,299.78707,2358.3556,0.0,-0.005959983786046452,-0.005959903072962902,0.0,0.0,0.0,-0.1818894373760898,-0.27219997295904574,-0.26279181405803276,0.005274560940358635,0.003130494141855717,-0.04099863622425036
1193,13.0,299.79327,2373.9665,0.0,-0.0059649652847272305,-0.005964872373872554,0.0,0.0,0.0,-0.18440486114684282,-0.2758360108103947,-0.26138566609925673,-0.0013484032408770388,-0.004323608293606915,-0.04249125798631066
1194,13.0,299.84681,2470.2683,0.0,-0.0059699797734656945,-0.005969874584059731,0.0,0.0,0.0,-0.19000933996746183,-0.27841734650015276,-0.28247317386793175,-0.0062199791137391445,-0.002843453763427037,-0.03579134131033037
1195,13.0,300.00453,2532.721,0.0,-0.005974961272146584,-0.005974876794246797,0.0,0.0,0.0,-0.2004556749209348,-0.28947252317371375,-0.27995573372947974,0.0002096695532477738,0.0017120880860199384,-0.03809069253700867
1196,13.0,299.95358,2464.1113,0.0,-0.005979975760884937,-0.005979879004433752,0.0,0.0,0.0,-0.19633666127691982,-0.28002183816600373,-0.2726698068979147,-0.001115294416245989,0.0029231582454432572,-0.037618018458109366
1197,13.0,299.86093999999997,2444.8601,0.0,-0.005984957259565937,-0.00598488121462093,0.0,0.0,0.0,-0.1997487708561688,-0.28032980540139774,-0.26309783585323476,-0.003220320384420877,-0.002117287206309978,-0.03719491966685276
1198,13.0,300.21238999999997,2498.788,0.0,-0.005989971748304512,-0.005989883424807885,0.0,0.0,0.0,-0.20608007423851982,-0.28178057689457775,-0.27170850613054176,-0.004732943500805155,-0.0040979163583828564,-0.03362348461537957
1199,13.0,300.26939,2489.1497,0.0,-0.005994953246985402,-0.005994885634995062,0.0,0.0,0.0,-0.1973196962589378,-0.2772589584558287,-0.2820607000172237,0.0033624779549007366,0.0030122446127853974,-0.03511639211396807
1200,13.0,300.13937000000004,2426.2291,0.0,-0.005999967735723644,-0.005999887845182017,0.0,0.0,0.0,-0.18398984403838384,-0.2757152719284788,-0.2778079576250107,0.0038561119227186165,0.006835400069376463,-0.03271886201885027
1201,13.0,300.08314,2344.4659,0.0,-0.006004982224462108,-0.006004890055369194,0.0,0.0,0.0,-0.17548927351694285,-0.2684372991101987,-0.26873253992433677,0.0013672654994385987,0.003493236968380647,-0.04253858385873136
1202,13.0,299.868,2381.8765,0.0,-0.006009963723143108,-0.006009892265556371,0.0,0.0,0.0,-0.18815017802147682,-0.2696193566768587,-0.26626145597795975,-0.004396692402119756,-1.3662431300876987e-05,-0.036142650318751864
1203,13.0,299.98728,2487.0081,0.0,-0.00601497821188135,-0.0060148944757433265,0.0,0.0,0.0,-0.20176770207792183,-0.2832258667047167,-0.27099477276010175,0.0005106844034781265,-0.0019942730712944282,-0.050430159659319254
1204,13.0,299.91736000000003,2513.061,0.0,-0.006019959710562239,-0.006019896685930504,0.0,0.0,0.0,-0.2067719214067998,-0.28591168874478673,-0.27122418271524273,0.005173523997362065,-0.002064855262660348,-0.03868508328417047
1205,13.0,299.88757000000004,2411.5673,0.0,-0.006024974199300703,-0.00602489889611757,0.0,0.0,0.0,-0.17772298336239284,-0.28168024486967574,-0.27365300399994874,-0.001218263525858249,-0.005507323740080535,-0.04743263959698705
1206,13.0,299.87212,2390.0968,0.0,-0.006029955697981482,-0.006029901106304747,0.0,0.0,0.0,-0.17813694669074784,-0.27853291780655876,-0.26985987185309573,-0.0044655035336358855,-0.003470243587836377,-0.04267410707285646
1207,13.0,299.84504,2485.1355,0.0,-0.006034970186719946,-0.006034903316491702,0.0,0.0,0.0,-0.18950967594564883,-0.2837982922162107,-0.2821111700047047,-0.004181358517367956,0.0033681405030845874,-0.040076152054958264
1208,13.0,299.83535,2482.3705,0.0,-0.006039951685400835,-0.006039872617401243,0.0,0.0,0.0,-0.20397760054602182,-0.2812235730496057,-0.26937746348048575,0.006404827140082224,0.008269044798766181,-0.042821645406667365
1209,13.0,300.18581,2394.0819,0.0,-0.006044966174139188,-0.00604487482758842,0.0,0.0,0.0,-0.18750015781732482,-0.27994362539078477,-0.26029734429934775,0.003800389145394207,0.0004660552658010736,-0.04211971336014206
1210,13.0,300.02149,2354.842,0.0,-0.006049980662877652,-0.006049877037775375,0.0,0.0,0.0,-0.18579335828887683,-0.26839281743080873,-0.26162699187557376,0.002278018056422878,-0.0006241423032230495,-0.04092985984721267
1211,13.0,299.97165,2459.9537,0.0,-0.0060549621615587634,-0.00605487924796233,0.0,0.0,0.0,-0.18440690791204484,-0.27740746039048475,-0.28595014158608173,0.0029953120890392868,-0.005428385173814905,-0.03424411955338147
1212,13.0,299.84449,2542.3515,0.0,-0.006059976650297005,-0.0060598814581495075,0.0,0.0,0.0,-0.1980586494243668,-0.2850566576479017,-0.2896960562782747,0.0001242176532193279,-0.0032502588851255772,-0.04079454130960776
1213,13.0,299.84581000000003,2522.6602,0.0,-0.006064958148977895,-0.006064883668336463,0.0,0.0,0.0,-0.1935112539030738,-0.28637407529542075,-0.2869403909088117,-0.0004121345031170086,-0.004576610054801246,-0.03358177417501307
1214,13.0,299.88661,2448.9588,0.0,-0.006069972637716359,-0.00606988587852364,0.0,0.0,0.0,-0.19842548649057082,-0.27853838935709874,-0.26745843871859276,-0.0040269602777300365,-0.0037754644088343267,-0.03979203064741766
1215,13.0,299.96738,2476.1955,0.0,-0.006074954136397248,-0.006074888088710817,0.0,0.0,0.0,-0.20129431163120182,-0.27945759971531775,-0.2719496900518447,-0.003499245845448676,0.0014760353645483486,-0.033361420649265866
1216,13.0,299.82817,2514.3987,0.0,-0.006079968625135601,-0.006079890298897772,0.0,0.0,0.0,-0.20561381707250379,-0.28034656455805174,-0.27835403863390473,-0.002392585941254848,0.002019489015933048,-0.03883602309856707
1217,13.0,300.25729,2510.9121,0.0,-0.006084983113874065,-0.006084892509084949,0.0,0.0,0.0,-0.1917700038712258,-0.28584792491599376,-0.2856366622701437,0.0030327255383817077,0.00012475028839939488,-0.03837167084273906
1218,13.0,300.18643,2427.3191,0.0,-0.0060899646125549545,-0.006089894719272015,0.0,0.0,0.0,-0.18261896731558883,-0.28002764408907677,-0.2751978051024087,-0.0003224177016951497,0.0012622207469964888,-0.03915727201627186
1219,13.0,300.22151,2408.2333,0.0,-0.0060949791012933074,-0.006094896929459193,0.0,0.0,0.0,-0.18512950722085983,-0.2777860815553517,-0.26912721097078773,0.0019216323610253482,0.004391392901446736,-0.045902385726212754
1220,13.0,300.0859,2520.9122,0.0,-0.006099960599974197,-0.00609989913964637,0.0,0.0,0.0,-0.20767937806385883,-0.2873966979588457,-0.27121828559966077,-0.0063192504684364634,0.004799901701863415,-0.04263969405971016
1221,13.0,299.84222,2538.7954,0.0,-0.006104975088712661,-0.006104901349833325,0.0,0.0,0.0,-0.2057147570474658,-0.2879825794316677,-0.2780330713997277,-0.0033762635264862674,0.0024019294244019777,-0.048437632721922155
1222,13.0,299.83297000000005,2444.9062,0.0,-0.006109956587393439,-0.006109870650742866,0.0,0.0,0.0,-0.18673358345416985,-0.2847314651608078,-0.2717253767447067,-1.189306459200409e-05,-0.001071081450782509,-0.04285363472557446
1223,13.0,299.80417,2392.7093,0.0,-0.006114971076131903,-0.006114872860930043,0.0,0.0,0.0,-0.17052439868944783,-0.27614000610539674,-0.2806594967189357,0.001869113277867118,-0.002785301516337857,-0.043416995701673865
1224,13.0,299.88305,2434.9465,0.0,-0.006119952574813015,-0.006119875071116998,0.0,0.0,0.0,-0.17834263646104784,-0.28570213849160575,-0.2761181503007397,0.0035743634455872066,-0.00019678191376836283,-0.04356741065251866
1225,13.0,299.9989,2490.0917,0.0,-0.0061249670635512565,-0.006124877281304175,0.0,0.0,0.0,-0.19210808489959183,-0.28842754821308275,-0.27639005596507477,-0.0018424938805149883,-0.0047763486019639055,-0.048654746887099656
1226,13.0,300.00832,2506.9071,0.0,-0.0061299815522896095,-0.00612987949149113,0.0,0.0,0.0,-0.2069988590316968,-0.28624260609494573,-0.26879570593557073,0.003976291085279376,0.003285607229439187,-0.04302971530145226
1227,13.0,299.95461,2490.3699,0.0,-0.00613496305097061,-0.0061348817016780854,0.0,0.0,0.0,-0.20442926691059782,-0.28500290473009676,-0.26757810355540274,-0.00048657447198616156,0.004522890878224576,-0.042993478438125954
1228,13.0,299.86258,2467.9109,0.0,-0.006139977539708963,-0.006139883911865263,0.0,0.0,0.0,-0.19436830136765781,-0.28141176399067874,-0.27440321437398874,0.0002980291568231877,0.007393918419272932,-0.039912967113103166
1229,13.0,300.00267,2535.644,0.0,-0.006144959038389852,-0.006144886122052218,0.0,0.0,0.0,-0.1922543982140318,-0.29063755813869374,-0.2878805046165937,-0.0095108083302187,-0.0028633371754393775,-0.03814069541619356
1230,13.0,300.16417,2578.313,0.0,-0.006149973527128316,-0.006149888332239395,0.0,0.0,0.0,-0.19792967281913781,-0.2914183686657537,-0.29439473003949773,-0.004478400180908686,0.00011773520331955989,-0.035415759895763364
1231,13.0,300.0859,2497.9575,0.0,-0.006154955025809206,-0.006154890542426461,0.0,0.0,0.0,-0.2009316491554098,-0.27827247200085475,-0.2801125949774607,-0.002102707651946088,-0.004282945047218766,-0.03436984869203997
1232,13.0,300.12766,2471.4168,0.0,-0.006159969514547559,-0.006159892752613638,0.0,0.0,0.0,-0.2035306559269118,-0.2800217064434907,-0.2676966335521007,0.004509566132784526,0.0008081806008812153,-0.034953881996679564
1233,13.0,300.15117999999995,2502.6384,0.0,-0.006164951013228448,-0.006164894962800815,0.0,0.0,0.0,-0.2047488459921378,-0.2803072808516747,-0.2756834558753387,0.0008116383168474653,0.0007147744545202464,-0.04082444535980906
1234,13.0,299.99497,2537.315,0.0,-0.006169965501966912,-0.0061698971729877705,0.0,0.0,0.0,-0.1958588935897678,-0.2888226549570767,-0.2865988546976047,0.004164300249284436,0.0017305590273928786,-0.03827708191940386
1235,13.0,300.06113999999997,2509.2709,0.0,-0.006174979990705265,-0.006174899383174948,0.0,0.0,0.0,-0.18404812618413582,-0.2880122068645917,-0.2906953741893997,9.09361202476963e-05,-0.0007307589814727963,-0.03968912800701196
1236,13.0,300.03058,2495.6866,0.0,-0.006179961489386154,-0.0061798686840844885,0.0,0.0,0.0,-0.1888671841897398,-0.29150692672449374,-0.2782522981913637,0.002763712297782167,-0.003403470000946337,-0.04295579769340716
1237,13.0,299.77879,2471.34,0.0,-0.006184975978124618,-0.006184870894271444,0.0,0.0,0.0,-0.1954777798296548,-0.28767697306900675,-0.26807088760903675,-0.001089779866802899,-0.004949671111069505,-0.04889362971742555
1238,13.0,299.93512000000004,2498.4406,0.0,-0.006189957476805508,-0.006189873104458621,0.0,0.0,0.0,-0.2042675015321328,-0.2906234739623037,-0.2645725808437807,0.0008793230688899301,-0.0026603837883594373,-0.04550524032301755
1239,13.0,299.81421,2519.3573,0.0,-0.006194971965543861,-0.006194875314645576,0.0,0.0,0.0,-0.2001324278740328,-0.2909718192141827,-0.2747174738925037,0.0007481789393120121,-0.004456218008394476,-0.03823003063776026
1240,13.0,299.97688999999997,2507.8302,0.0,-0.006199953464224861,-0.006199877524832753,0.0,0.0,0.0,-0.1938638852028758,-0.28791759970275477,-0.2805362551092727,0.008177527340459113,0.0038583131072358564,-0.04365033605395276
1241,13.0,299.93636000000004,2464.4506,0.0,-0.006204967952963214,-0.006204879735019708,0.0,0.0,0.0,-0.17696140432223081,-0.2886439784344427,-0.2835260724443447,0.0004731971489984225,0.0009452450089384191,-0.042450030866241856
1242,13.0,299.99723,2478.437,0.0,-0.006209982441701456,-0.006209881945206774,0.0,0.0,0.0,-0.1828254170234638,-0.28349774197154876,-0.2870598024330967,0.0014289216666985886,0.002064533758403618,-0.04252893366477896
1243,13.0,300.1733,2568.2358,0.0,-0.006214963940382567,-0.0062148841553939516,0.0,0.0,0.0,-0.2022569093587028,-0.29199613400527474,-0.28642650085559473,-0.009034118031898032,-0.0027688698421161773,-0.04044264562937836
1244,13.0,300.26203,2544.6647,0.0,-0.00621997842912092,-0.006219886365580907,0.0,0.0,0.0,-0.21339885063832678,-0.2868512958275187,-0.27326440232159677,-0.001065449806726709,0.0014616102294996989,-0.045155618376012556
1245,13.0,299.98875,2482.2328,0.0,-0.00622495992780181,-0.006224888575768084,0.0,0.0,0.0,-0.19688860900389282,-0.2850821206229147,-0.2725660804851778,-0.0006530123722273034,-0.001877957330039958,-0.041441403213198065
1246,13.0,300.061,2493.1576,0.0,-0.006229974416540274,-0.006229890785955261,0.0,0.0,0.0,-0.19382836065436984,-0.2877825841269297,-0.27624670134092677,0.0008017322468473122,0.0026201889674925174,-0.041467627139036164
1247,13.0,299.76597999999996,2546.5315,0.0,-0.006234955915221163,-0.006234892996142216,0.0,0.0,0.0,-0.1910046251431888,-0.28958918879022777,-0.29348817517502773,-0.0020401443218715683,-0.0017583612929117482,-0.03174239087098007
1248,13.0,299.88547,2595.3489,0.0,-0.006239970403959516,-0.006239895206329393,0.0,0.0,0.0,-0.2093577255294988,-0.2938506755308037,-0.2857128688101647,-0.0008118706246978923,-5.1688057982714154e-05,-0.03918374824138486
1249,13.0,300.0436,2601.2233,0.0,-0.0062449519026404055,-0.0062448974165163484,0.0,0.0,0.0,-0.21480218176182478,-0.29072207332953476,-0.28518266543033777,-0.0007903857101074962,-0.0024978324317918676,-0.03438730091176237
1250,13.0,299.99458,2496.6036,0.0,-0.0062499663913788694,-0.006249899626703526,0.0,0.0,0.0,-0.20813292907362077,-0.28126138754333774,-0.26951083759114874,0.004321357561159785,-0.0006629036893060003,-0.04074017740199246
1251,13.0,299.71459,2490.8761,0.0,-0.006254980880117111,-0.0062548689276130665,0.0,0.0,0.0,-0.1926209921002118,-0.28506122740585277,-0.27948192785021875,-0.00045025236392894855,0.0016098153832014084,-0.037423844275195864
1252,13.0,300.05461,2609.9032,0.0,-0.006259962378798001,-0.006259871137800022,0.0,0.0,0.0,-0.2015214215086158,-0.2920504543431357,-0.2997735074003417,-0.0027281747796748875,-0.0018196998062653884,-0.04438185804314836
1253,13.0,299.99217000000004,2600.8804,0.0,-0.006264976867536576,-0.006264873347987199,0.0,0.0,0.0,-0.19273955249441282,-0.2984909050262587,-0.2993722299632387,-0.006048051444721204,0.00035867443485591063,-0.042051807364940255
1254,13.0,299.96385,2466.6648,0.0,-0.006269958366217465,-0.006269875558174376,0.0,0.0,0.0,-0.18451695700540582,-0.2909025331723447,-0.27438500626969176,-0.002397511046015918,0.0025196257189176977,-0.05010476249570505
1255,13.0,299.97447999999997,2475.0761,0.0,-0.006274972854955707,-0.006274877768361331,0.0,0.0,0.0,-0.1938564074171378,-0.28945196432918474,-0.2690529600034597,0.0008538735903682623,0.00025843964143350674,-0.04265048112027476
1256,13.0,300.05385,2596.7235,0.0,-0.0062799543536368185,-0.006279879978548508,0.0,0.0,0.0,-0.2086462415742808,-0.3011512640913157,-0.27954159814860774,-0.0036266263791201563,-0.0003913972860404046,-0.05012085493379325
1257,13.0,300.11037999999996,2609.1113,0.0,-0.0062849688423751715,-0.006284882188735574,0.0,0.0,0.0,-0.2063415940893298,-0.2994333289442687,-0.28732974239223774,-0.0006818636454422023,-0.0034559164340723972,-0.04240701941274696
1258,13.0,300.03131,2531.9183,0.0,-0.006289950341056061,-0.0062898843989225295,0.0,0.0,0.0,-0.19049694631308484,-0.2947336723304487,-0.28440933268901575,0.004377991047674076,0.003144365535724717,-0.04225584148457686
1259,13.0,300.08108,2482.377,0.0,-0.006294964829794525,-0.006294886609109707,0.0,0.0,0.0,-0.18054584747848781,-0.28835433076085676,-0.2856804346744637,0.003799039800236036,0.005948604392456545,-0.03679358650099426
1260,13.0,299.92282,2532.7603,0.0,-0.006299979318532767,-0.006299888819296662,0.0,0.0,0.0,-0.1964637025744578,-0.29119838193654274,-0.2822338036643077,-0.001194812156268779,0.004244103827160436,-0.04001702587187296
1261,13.0,299.93989,2608.5064,0.0,-0.006304960817213767,-0.006304891029483839,0.0,0.0,0.0,-0.21323008370167082,-0.2948164548636187,-0.2848742624974007,-0.0064770163461067435,0.0013637190227635888,-0.04313936010802336
1262,13.0,300.02911,2603.2494,0.0,-0.006309975305952231,-0.006309893239670794,0.0,0.0,0.0,-0.2167928331732868,-0.2929427122486947,-0.28158725890799874,-0.002023369459841018,0.0028928116075982776,-0.04088514410704956
1263,13.0,299.93602000000004,2521.3733,0.0,-0.006314956804633121,-0.006314895449857971,0.0,0.0,0.0,-0.19437170588799382,-0.28728302143012674,-0.2847797971905777,0.0025258881111607473,-0.0025993122664071475,-0.043166085592660955
1264,13.0,299.8053,2531.5468,0.0,-0.0063199712933713625,-0.006319897660045148,0.0,0.0,0.0,-0.1918437988760088,-0.2907427740290777,-0.2869404517038177,0.0013085005400139487,-0.003289512801949637,-0.04324566726876505
1265,13.0,299.90457999999995,2637.1276,0.0,-0.006324952792052252,-0.006324866960954467,0.0,0.0,0.0,-0.2035432404931538,-0.2960233978527347,-0.3020543029779387,-0.002286649022099688,-0.0037682954617268066,-0.04221900275069116
1266,13.0,300.03809,2653.8381,0.0,-0.006329967280790827,-0.006329869171141644,0.0,0.0,0.0,-0.2172299391339258,-0.30009737252980473,-0.2893732145314127,-0.004265490395696126,-0.0005397021840819585,-0.03323978504101137
1267,13.0,299.9381,2535.447,0.0,-0.006334981769529069,-0.0063348713813288215,0.0,0.0,0.0,-0.2040092848766488,-0.2914406297704507,-0.2752626632413097,0.0004611815632175766,0.00044231754160084253,-0.04141873072896046
1268,13.0,300.14932999999996,2491.2553,0.0,-0.006339963268209958,-0.006339873591515777,0.0,0.0,0.0,-0.1982158754423838,-0.2897620087272837,-0.26930152038549077,0.002697202358568148,-0.001689408306381618,-0.039383303795579465
1269,13.0,300.01943,2534.575,0.0,-0.006344977756948533,-0.006344875801702954,0.0,0.0,0.0,-0.19575540022455382,-0.2961639761716087,-0.2785281251335857,0.002043493316102088,-0.0015346700200101386,-0.04963660041950105
1270,13.0,300.08919,2564.4705,0.0,-0.006349959255629423,-0.00634987801189002,0.0,0.0,0.0,-0.19095965710375082,-0.29407024682747374,-0.29450509324038976,0.00042776854685996863,0.0023221809673314177,-0.04214461398134956
1271,13.0,299.92694,2557.2048,0.0,-0.006354973744367887,-0.006354880222077197,0.0,0.0,0.0,-0.1901911676979068,-0.29558592712205967,-0.2915492907111747,-0.001047793822409199,0.0016186046185438384,-0.04638437663978155
1272,13.0,300.13223,2545.9982,0.0,-0.006359955243048776,-0.006359882432264152,0.0,0.0,0.0,-0.19091924868976282,-0.2967913097060217,-0.2862093106966597,-0.00040102869433595066,0.002389670618067128,-0.04775531719733286
1273,13.0,300.13568,2532.4293,0.0,-0.006364969731787018,-0.006364884642451107,0.0,0.0,0.0,-0.20212006993269782,-0.29308922821315475,-0.2745859844270267,-0.0016515132592666685,0.0014815681153943887,-0.048012115302676864
1274,13.0,299.88187,2605.406,0.0,-0.006369951230467907,-0.006369886852638285,0.0,0.0,0.0,-0.2088898674283248,-0.3005113358581597,-0.28257715359319374,-0.003401559416557777,-0.0008214990844356472,-0.04974782386972795
1275,13.0,299.86237,2642.4821,0.0,-0.006374965719206482,-0.00637488906282524,0.0,0.0,0.0,-0.20903840989298478,-0.2986894209858507,-0.2955207346106257,-0.0010806258614244689,-0.0031118813454687772,-0.038280369915978364
1276,13.0,299.97153,2567.9834,0.0,-0.006379980207944724,-0.006379891273012417,0.0,0.0,0.0,-0.19191672248570582,-0.2985219307443207,-0.29016417782447473,0.005269388197273125,-0.005340333537474885,-0.04537569224473215
1277,13.0,299.83563,2509.7506,0.0,-0.006384961706625614,-0.006384893483199594,0.0,0.0,0.0,-0.18837175555334482,-0.2910393827308507,-0.28349038577582275,0.0038085227065969263,-0.0059819829785757546,-0.04096261315669516
1278,13.0,299.91345,2560.0653,0.0,-0.006389976195364189,-0.006389895693386549,0.0,0.0,0.0,-0.2057864951545458,-0.2922627201065847,-0.2801467009758267,0.0005015160504782804,-0.002100350122938418,-0.04290543004418626
1279,13.0,300.11888999999996,2640.0148,0.0,-0.006394957694045078,-0.00639486499429609,0.0,0.0,0.0,-0.21706205372485682,-0.29833938360630474,-0.2870971406992817,-0.0006943439178514094,0.001999421800352568,-0.03347526436425137
1280,13.0,299.94367,2623.2607,0.0,-0.00639997218278332,-0.006399867204483267,0.0,0.0,0.0,-0.2124936129989868,-0.29728484356472973,-0.28762729341660376,-0.0005371023059153705,0.0053816567136531655,-0.04302942753842386
1281,13.0,300.19165,2583.6455,0.0,-0.006404953681464209,-0.006404869414670222,0.0,0.0,0.0,-0.19426701688766182,-0.2983100297509077,-0.2927866818657957,0.004594984940064706,0.006023988578696384,-0.04262728377248536
1282,13.0,300.10832,2557.8069,0.0,-0.006409968170202673,-0.0064098716248573995,0.0,0.0,0.0,-0.18946903448413782,-0.29121270929295673,-0.29682768538461174,-0.00033880763001270964,0.004407565791592876,-0.041597404211844165
1283,13.0,300.18244,2616.257,0.0,-0.006414949668883674,-0.006414873835044466,0.0,0.0,0.0,-0.19616364882234483,-0.2988323095149527,-0.3002808315929107,-0.0004065876680945786,-0.0011651687139931988,-0.04542698195154405
1284,13.0,300.03677999999996,2668.1366,0.0,-0.006419964157622138,-0.006419876045231643,0.0,0.0,0.0,-0.2184213692640108,-0.30227483686220374,-0.29035070703538374,-0.005192107409496105,-0.0032571911370097373,-0.041071483840189854
1285,13.0,300.11508,2600.7756,0.0,-0.00642497864636038,-0.00642487825541882,0.0,0.0,0.0,-0.21275161687194982,-0.29688971655573376,-0.28092949747308277,-0.0032458448637149476,-0.0035042866633711667,-0.05005118790991765
1286,13.0,300.0504,2501.3254,0.0,-0.006429960145041269,-0.006429880465605775,0.0,0.0,0.0,-0.2023002764629828,-0.2888104655583737,-0.26922971135090373,-0.0021985079157758377,0.00046965896070923056,-0.04303916487188486
1287,13.0,299.9192,2581.0836,0.0,-0.006434974633779844,-0.006434882675792952,0.0,0.0,0.0,-0.1922606398346478,-0.3036272015056717,-0.28869714366718974,0.0028448627890160973,-0.0009266328812965451,-0.04936093053104455
1288,13.0,299.86457,2669.44,0.0,-0.0064399561324607335,-0.006439884885979907,0.0,0.0,0.0,-0.2071001739091958,-0.30221597716389476,-0.30212696314260973,-0.00026955928107842974,-0.0013258103980972988,-0.04166990326974926
1289,13.0,299.88922,2632.2045,0.0,-0.0064449706211989755,-0.0064448870961668625,0.0,0.0,0.0,-0.19490911347603182,-0.3094246639403367,-0.2957906644372657,0.006273782896699165,0.001069131248315039,-0.048751468701895354
1290,13.0,299.6926,2544.4120000000003,0.0,-0.006449952119879865,-0.00644988930635404,0.0,0.0,0.0,-0.19957509978902882,-0.2966086916404987,-0.2772539226028317,0.002867375281062907,-0.0033650995368844664,-0.044754509138426164
1291,13.0,299.94896,2555.7949,0.0,-0.006454966608618329,-0.006454891516540995,0.0,0.0,0.0,-0.2056758482436258,-0.2891734522741977,-0.2820485207510217,0.004745518035871166,0.003038339855860797,-0.04024414689503806
1292,13.0,300.02092000000005,2616.9969,0.0,-0.006459981097356682,-0.006459893726728172,0.0,0.0,0.0,-0.2061758669029738,-0.2990337031048287,-0.2902921310471027,-0.004662417240844756,0.003122835186999837,-0.04529605686637276
1293,13.0,300.03426,2650.1249,0.0,-0.006464962596037571,-0.006464863027637713,0.0,0.0,0.0,-0.2030678742087388,-0.3002715096919907,-0.3022324120805167,-0.0015118727033602186,0.002734790390902797,-0.04217690524878646
1294,13.0,300.19645,2643.7627,0.0,-0.006469977084776035,-0.006469865237824779,0.0,0.0,0.0,-0.1978952121832368,-0.3003265089074187,-0.3054161249547247,-0.005877561476270154,0.0006157811052528634,-0.04205693238394606
1295,13.0,299.97535,2557.527,0.0,-0.0064749585834569245,-0.006474867448011845,0.0,0.0,0.0,-0.1976195270960288,-0.29248314253333874,-0.2873216769214417,-0.00022648062883689774,0.001255744153682299,-0.038840595896268364
1296,13.0,300.12854,2618.2168,0.0,-0.0064799730721952775,-0.006479869658198911,0.0,0.0,0.0,-0.21277050385381382,-0.2947930183888057,-0.2883089979513827,-0.006071139766799844,0.0018271445600501284,-0.042752047283798555
1297,13.0,300.19183,2731.1283,0.0,-0.006484954570876389,-0.006484871868386088,0.0,0.0,0.0,-0.23111160735893976,-0.30881826415298974,-0.29026494554691973,-0.0030213622424852373,8.132819908946832e-05,-0.04443480238737355
1298,13.0,300.01427,2714.1392,0.0,-0.006489969059614631,-0.006489874078573266,0.0,0.0,0.0,-0.21757752444822978,-0.3052180041626717,-0.30223501613327375,0.001010654588941342,2.121137151389938e-05,-0.03849754588941196
1299,13.0,299.99951,2621.0615,0.0,-0.00649495055829552,-0.006494876288760221,0.0,0.0,0.0,-0.1993000834468868,-0.3014785438736157,-0.2959586005088397,0.004432236101052646,0.0014962761498709585,-0.04658930545925646
1300,13.0,299.96008,2580.4013,0.0,-0.006499965047034095,-0.006499878498947398,0.0,0.0,0.0,-0.19057468286075682,-0.29813839531646874,-0.29566447426981174,0.007197793121966873,-0.003901245729872976,-0.03618233425891836
1301,13.0,299.99477,2652.8811,0.0,-0.006504979535772337,-0.006504880709134353,0.0,0.0,0.0,-0.2057965263305358,-0.30277217040878673,-0.2978409354846117,0.003234256423646257,-0.008175283700762682,-0.04555628887630565
1302,13.0,300.09372,2673.1929,0.0,-0.006509961034453227,-0.00650988291932153,0.0,0.0,0.0,-0.21536990579285478,-0.3066653407380127,-0.29054865557491977,0.0018133119736599584,-0.0057669583377544745,-0.037189373135805365
1303,13.0,299.72262,2602.6868,0.0,-0.006514975523191691,-0.006514885129508485,0.0,0.0,0.0,-0.2056982714683388,-0.29902702578666973,-0.28642650085559473,0.0023049924966100474,-0.002868477798496717,-0.05123637743263675
1304,13.0,300.08991000000003,2609.2929,0.0,-0.00651995702187258,-0.0065198873396955515,0.0,0.0,0.0,-0.20184951189099581,-0.2986841216878277,-0.2926262438449617,-0.0025646461433858677,0.0019847806403825983,-0.04376574726684296
1305,13.0,300.17688,2627.4239,0.0,-0.006524971510610933,-0.006524889549882729,0.0,0.0,0.0,-0.19688017876306083,-0.3072058691363587,-0.2945852210582977,-0.004356148313943366,0.003048456651484247,-0.05754988611673154
1306,13.0,300.1534,2648.1808,0.0,-0.006529953009291822,-0.006529891760069684,0.0,0.0,0.0,-0.2043429987970838,-0.2996046492711767,-0.3010332001896637,-0.008126694508117304,0.001185199756545109,-0.044625630818456864
1307,13.0,300.28321,2648.8545,0.0,-0.006534967498030286,-0.006534893970256861,0.0,0.0,0.0,-0.2116273956209978,-0.3005532438822957,-0.2930049967323417,-0.003550435341825687,0.006121824259327014,-0.04535792490422866
1308,13.0,300.2273,2586.1968,0.0,-0.006539948996711176,-0.006539863271166402,0.0,0.0,0.0,-0.2058381506446438,-0.29902712711167967,-0.2812739619770787,-0.0016755209031610386,0.006452756504262484,-0.042536434755269255
1309,13.0,299.96347000000003,2588.9586,0.0,-0.006544963485449529,-0.006544865481353357,0.0,0.0,0.0,-0.2067098193081708,-0.29521167306512375,-0.28505726559796174,0.0023534724608946476,0.0001949076543958878,-0.04531988952197486
1310,13.0,300.10305,2701.2026,0.0,-0.006549977974187993,-0.006549867691540534,0.0,0.0,0.0,-0.2086208393942738,-0.3090764200134677,-0.30340087183083475,0.0032412571712371768,0.0009411998206966901,-0.041862316423988966
1311,13.0,299.90089,2699.0878,0.0,-0.006554959472868882,-0.006554869901727711,0.0,0.0,0.0,-0.2061788965207728,-0.3085462166336407,-0.3057301919557207,0.004753989009357185,0.001225884686485399,-0.037553244418966666
1312,13.0,299.88691,2643.0786,0.0,-0.006559973961607235,-0.006559872111914666,0.0,0.0,0.0,-0.1990467607893858,-0.3044005646444967,-0.2999825814259757,0.008579607474291331,-8.492706586089883e-05,-0.042849924203708256
1313,13.0,300.04962,2665.3136,0.0,-0.006564955460288235,-0.0065648743221018435,0.0,0.0,0.0,-0.2064484210473728,-0.3087711277583377,-0.29496923271369674,0.0022681788913268275,-0.005988577615526594,-0.03877680774947296
1314,13.0,300.04477,2668.6262,0.0,-0.006569969949026588,-0.006569876532288799,0.0,0.0,0.0,-0.21871950797343478,-0.2979172433496427,-0.29455898801320873,0.0007009441378103003,-0.005162661449665016,-0.04130276830801586
1315,13.0,299.83332,2633.9217,0.0,-0.006574951447707478,-0.006574878742475976,0.0,0.0,0.0,-0.20412409624547978,-0.30476370334783576,-0.29175861804933373,-0.005778705351463814,-0.0027747867160751276,-0.04564622292868146
1316,13.0,299.85148,2632.7586,0.0,-0.006579965936445942,-0.006579880952663153,0.0,0.0,0.0,-0.2043057213259048,-0.30360907446138274,-0.2923780887629707,-0.004597957613208086,0.0006444631657010623,-0.04798637469713645
1317,13.0,300.01642000000004,2660.4068,0.0,-0.006584980425184517,-0.006584883162850108,0.0,0.0,0.0,-0.2010408065886828,-0.3047542598569037,-0.3029021805291177,-0.004994127053906965,-0.0010969750570880088,-0.05173350326294925
1318,13.0,300.09039,2647.4302,0.0,-0.006589961923865184,-0.006589885373037174,0.0,0.0,0.0,-0.20649760420722682,-0.3052733580156347,-0.2929817021125427,0.0024103046457535477,0.003205675678075557,-0.04815449011397816
1319,13.0,300.03002000000004,2658.8259999999996,0.0,-0.006594976412603648,-0.006594887583224351,0.0,0.0,0.0,-0.2080053710185318,-0.3058205029371337,-0.29439082902661273,1.1793021343380588e-05,0.005267019522514354,-0.047355707569894455
1320,13.0,300.05892,2721.3595,0.0,-0.0065999579112845375,-0.0065998897934113065,0.0,0.0,0.0,-0.22403704449823478,-0.3059414951315747,-0.29724678589097375,-0.0004728022854344526,0.005672183280375905,-0.03827480109342876
1321,13.0,300.18757999999997,2686.2853,0.0,-0.00660497240002289,-0.006604892003598484,0.0,0.0,0.0,-0.2075263975637608,-0.3127244750110027,-0.2963127719487937,0.000921540884111504,0.0026255822951247974,-0.048447008325097456
1322,13.0,300.14765,2637.2164,0.0,-0.00660995389870378,-0.0066098613045080246,0.0,0.0,0.0,-0.2007704815945038,-0.3035618468742217,-0.29731560583776573,0.0036095943542142263,-0.0007677986023233223,-0.038936109916944864
1323,13.0,300.17606,2655.8338,0.0,-0.006614968387442244,-0.00661486351469498,0.0,0.0,0.0,-0.1969619075161268,-0.3076699174171567,-0.3026753138317277,0.0034745224416836665,-0.002055984865984908,-0.04530101672561226
1324,13.0,299.88425,2627.5553,0.0,-0.006619949886123133,-0.006619865724882157,0.0,0.0,0.0,-0.19852827058071482,-0.3032596045018927,-0.29692331592904975,-0.003244365923868987,-0.002835538962920907,-0.04502668838028816
1325,13.0,299.87452,2614.1037,0.0,-0.006624964374861486,-0.006624867935069112,0.0,0.0,0.0,-0.2047056207428718,-0.3018399296542817,-0.2880767002334567,-0.0027161041338836073,-0.006794209932936313,-0.048902427768043856
1326,13.0,299.77742,2654.0667,0.0,-0.00662997886359995,-0.006629870145256289,0.0,0.0,0.0,-0.2149313103545688,-0.3011870014223427,-0.2906516929775887,-0.0019939597743635082,-0.002292713627923218,-0.047447600234713554
1327,13.0,299.77127,2691.8558,0.0,-0.0066349603622808395,-0.006634872355443244,0.0,0.0,0.0,-0.21518651765725583,-0.3062626244857677,-0.29680780541764973,0.003921018292324376,0.0028577391712868976,-0.04552681748389706
1328,13.0,299.78263,2698.1097,0.0,-0.0066399748510191925,-0.0066398745656304214,0.0,0.0,0.0,-0.2106366599382198,-0.3039288055304377,-0.30559252166463374,-0.0003325984739299136,-0.00033347245280366866,-0.046772712846607355
1329,13.0,299.9088,2734.5509,0.0,-0.006644956349700193,-0.006644876775817599,0.0,0.0,0.0,-0.2168538409618078,-0.3080144731136617,-0.3063668676560557,-0.0011380288100646988,-0.001157174576004239,-0.04173774137719436
1330,13.0,300.05868,2727.2843,0.0,-0.006649970838438657,-0.006649878986004554,0.0,0.0,0.0,-0.2153240359608278,-0.3090010848685327,-0.3047011959491667,0.002849233747297477,0.0015271790620208386,-0.039567149920223664
1331,13.0,300.18486,2659.5134,0.0,-0.006654952337119435,-0.006654881196191731,0.0,0.0,0.0,-0.21330857005441678,-0.3028069046222147,-0.29231018074126874,0.0042665168180474255,0.01066259900181659,-0.03860074439884686
1332,13.0,300.23595,2693.0165,0.0,-0.006659966825857899,-0.006659883406378797,0.0,0.0,0.0,-0.2131340883871968,-0.3087462727333847,-0.2967294001249117,-0.0029104977867687675,0.0036201463407556263,-0.03921550349951886
1333,13.0,300.20707999999996,2727.3771,0.0,-0.006664948324538789,-0.006664885616565974,0.0,0.0,0.0,-0.21115016495639882,-0.31169316879422065,-0.3062112121756937,-0.005040970011330005,0.001057281491045559,-0.04422877925779066
1334,13.0,300.10756000000003,2672.0685,0.0,-0.006669962813277142,-0.006669887826752929,0.0,0.0,0.0,-0.20036267882675682,-0.3102350512378157,-0.3016443926499837,-0.002058089183792588,0.0024376100134233776,-0.04288650151906816
1335,13.0,299.88738,2640.0986,0.0,-0.006674977302015606,-0.0066748900369398845,0.0,0.0,0.0,-0.19516278063856682,-0.3050408981776927,-0.3023203824541987,-0.0008247352026050271,-0.0015396920928057785,-0.05247689953006674
1336,13.0,299.86317,2708.862,0.0,-0.006679958800696495,-0.006679859337849647,0.0,0.0,0.0,-0.2096090115542988,-0.31015373791729073,-0.3036636683767707,0.004829107521420806,-0.005363678313153835,-0.04808265270838836
1337,13.0,300.04781,2736.8144,0.0,-0.006684973289434848,-0.0066848615480368245,0.0,0.0,0.0,-0.2194861026015918,-0.3131805895435177,-0.2992565573318227,-0.004374657556170086,-0.0035793297896273466,-0.05609419732081625
1338,13.0,299.8637,2677.7511,0.0,-0.006689954788115737,-0.00668986375822378,0.0,0.0,0.0,-0.21678389630740477,-0.30533015068373975,-0.29185544422888976,0.00101059083524505,0.0011439839848774289,-0.043374570919986866
1339,13.0,299.97272999999996,2680.2363,0.0,-0.006694969276854201,-0.006694865968410735,0.0,0.0,0.0,-0.2075170959278428,-0.3098974363044957,-0.2973103774672497,-0.0003118380939560237,0.003742067381563296,-0.04884112309724355
1340,13.0,299.99653,2703.7119,0.0,-0.006699950775535091,-0.00669986817859769,0.0,0.0,0.0,-0.20933797728504983,-0.3109590690967707,-0.3015638696645367,0.005644954311763615,0.003974939004345936,-0.04141294101788906
1341,13.0,299.84095,2708.9844,0.0,-0.006704965264273333,-0.006704870388784867,0.0,0.0,0.0,-0.2052435754859638,-0.3108325242917817,-0.3073875246142867,0.002994841940992887,-0.002993201185105957,-0.045468383350630054
1342,13.0,299.91487,2754.3191,0.0,-0.006709979753011908,-0.006709872598972044,0.0,0.0,0.0,-0.2181676717039728,-0.3156828309304697,-0.3033937284176297,0.007221103345817414,0.0008218693969496943,-0.04530999310824816
1343,13.0,300.12227,2729.7340000000004,0.0,-0.006714961251692908,-0.006714874809158999,0.0,0.0,0.0,-0.22135257008079778,-0.3094770084405027,-0.29894139602071873,0.0031357927306036476,0.005057649931826185,-0.04064644872799216
1344,13.0,300.02383,2669.6942,0.0,-0.006719975740431261,-0.0067198770193461765,0.0,0.0,0.0,-0.20871699682876382,-0.30827429070430373,-0.2945290870027577,0.006241644528702354,0.0012183015227369988,-0.04772715796380375
1345,13.0,300.07572999999996,2713.3234,0.0,-0.00672495723911215,-0.006724879229533243,0.0,0.0,0.0,-0.2075950655230378,-0.3094640895017277,-0.30772340688993566,-0.005505304129981214,0.0013363672482391788,-0.03991095885140496
1346,13.0,300.0905,2743.6923,0.0,-0.006729971727850614,-0.00672988143972042,0.0,0.0,0.0,-0.20995939343887882,-0.3108066965467327,-0.3132478693501577,-0.0058535031698707845,-0.004457755007471166,-0.04474952698768445
1347,13.0,300.05599,2682.0479,0.0,-0.006734953226531393,-0.006734883649907597,0.0,0.0,0.0,-0.2011082485153388,-0.3051150984825157,-0.3090522539985827,-0.007092952944719952,-0.0003554296432656747,-0.04021430769284316
1348,13.0,299.95699,2674.7664,0.0,-0.006739967715269857,-0.006739885860094552,0.0,0.0,0.0,-0.2124233035745478,-0.3074758192280007,-0.2931630738804427,-0.002162334481905798,-0.0019490754293837679,-0.05005340692763666
1349,13.0,299.8924,2740.4966,0.0,-0.006744949213950746,-0.006744888070281507,0.0,0.0,0.0,-0.2263039078869568,-0.3083950194537187,-0.29834361899172274,0.0002494211785209537,-0.00041796617287504965,-0.04311514039088306
1350,13.0,299.86457,2788.0263,0.0,-0.006749963702688988,-0.0067498902804686844,0.0,0.0,0.0,-0.2252401270044698,-0.31906546506430966,-0.3031847759820077,0.0015706262130587385,0.004543352754719006,-0.04725934647213436
1351,13.0,299.72154,2775.6349,0.0,-0.006754978191427563,-0.006754859581378225,0.0,0.0,0.0,-0.2159010008327698,-0.3147659814449837,-0.31305670958629167,-0.0014831919500046485,0.002986649003334307,-0.04393527312782386
1352,13.0,299.97646000000003,2748.2874,0.0,-0.0067599596901084524,-0.0067598617915654025,0.0,0.0,0.0,-0.2074011193213968,-0.31739438260188674,-0.3106152429403377,0.0077143087088429926,-0.0010866037330394388,-0.04776792000207666
1353,13.0,300.07711,2673.4993,0.0,-0.006764974178846694,-0.006764864001752358,0.0,0.0,0.0,-0.1960461827382518,-0.31166245718368973,-0.3049684001330377,0.0012192779918583688,-0.005178156475494256,-0.04800215201444355
1354,13.0,299.96002999999996,2680.3395,0.0,-0.006769955677527584,-0.006769866211939313,0.0,0.0,0.0,-0.20790186752081682,-0.3099301642827257,-0.2969242582516427,0.009361932202300772,-0.007390245590310452,-0.048116003835429855
1355,13.0,300.16074,2758.6695,0.0,-0.006774970166266159,-0.00677486842212649,0.0,0.0,0.0,-0.21566910841488382,-0.3190681603095757,-0.3038293752981247,-0.004189757043471826,-0.0025401559897938776,-0.04279531002331826
1356,13.0,299.8594,2694.2702,0.0,-0.006779951664947159,-0.006779870632313556,0.0,0.0,0.0,-0.21157722960854677,-0.3099623147083987,-0.2974513205561597,-0.005355452039566964,0.0028261840300476473,-0.045998252357924055
1357,13.0,299.88212999999996,2646.0951,0.0,-0.006784966153685512,-0.006784872842500622,0.0,0.0,0.0,-0.19880386447541382,-0.3081493063044687,-0.2973936868904717,-0.005214054609312125,-0.0020245149390790682,-0.04372510985833236
1358,13.0,299.8801,2730.156,0.0,-0.0067899476523664015,-0.006789875052687688,0.0,0.0,0.0,-0.2098954168275648,-0.31273810322484774,-0.3072657319522667,-0.0050527654583941255,0.0035127656415329766,-0.04523818306041105
1359,13.0,300.07858,2805.1291,0.0,-0.0067949621411048655,-0.0067948772628748655,0.0,0.0,0.0,-0.2184404791608968,-0.32144653187180267,-0.3128021912936727,0.004052096783560816,0.007426267441965533,-0.043450497802980256
1360,13.0,300.10816,2781.8235,0.0,-0.0067999766298432185,-0.006799879473062043,0.0,0.0,0.0,-0.22623789464294178,-0.3152068364309927,-0.30416015079326975,-0.001070088263034489,-0.0020482363398201878,-0.05127109340756295
1361,13.0,300.18925,2753.6711,0.0,-0.006804958128524108,-0.006804881683248998,0.0,0.0,0.0,-0.22343276240359677,-0.3147215909581027,-0.2988929018709327,0.0034449509401651866,0.0006992686173124393,-0.04521392787951725
1362,13.0,299.86711,2719.0466,0.0,-0.006809972617262572,-0.006809883893436175,0.0,0.0,0.0,-0.21584478571722182,-0.3135927290216927,-0.2970847671999837,0.0022095420067148176,-0.003970306323563726,-0.04865271633389925
1363,13.0,300.13728,2724.5505,0.0,-0.006814954115943239,-0.00681488610362313,0.0,0.0,0.0,-0.2066780437850348,-0.31437465412386273,-0.3071426321976177,0.003894808957287716,0.005167550178747495,-0.04163881473018106
1364,13.0,299.88425,2746.0893,0.0,-0.006819968604681814,-0.006819888313810307,0.0,0.0,0.0,-0.20029656425773182,-0.3222975707632937,-0.31214844232915273,-0.006335769890116805,-0.005791653471841694,-0.04900047086096995
1365,13.0,299.83925,2735.8288,0.0,-0.006824950103362704,-0.006824857614719848,0.0,0.0,0.0,-0.20868788615339082,-0.3169148619920617,-0.3060208832769097,-0.005277407159889535,-0.0023134832284730177,-0.04375896355742346
1366,13.0,299.96646,2700.7409,0.0,-0.0068299645921009455,-0.006829859824906803,0.0,0.0,0.0,-0.2068098169605398,-0.31501217082178073,-0.2991358083174057,-0.003987034576089676,0.002176446421348538,-0.048495955397678155
1367,13.0,299.98477,2727.4174,0.0,-0.0068349790808395205,-0.00683486203509398,0.0,0.0,0.0,-0.21489699157368178,-0.3170949165348317,-0.2970748778790077,0.001038183651835749,0.004414976094874215,-0.04957836488325366
1368,13.0,300.02772999999996,2820.1,0.0,-0.00683996057952041,-0.0068398642452809355,0.0,0.0,0.0,-0.2239676469988858,-0.3232325168955657,-0.3100398080760467,-0.005464667633395704,0.00031694337484987567,-0.04627475919096316
1369,13.0,300.19872999999995,2821.9845,0.0,-0.006844975068258652,-0.006844866455468113,0.0,0.0,0.0,-0.2195091337763648,-0.3231439892343287,-0.3151597000363407,-0.006054161342824204,-0.002327322806288878,-0.04600273598961655
1370,13.0,300.13107,2740.2523,0.0,-0.006849956566939763,-0.006849868665655179,0.0,0.0,0.0,-0.20768146535906482,-0.31982072142384765,-0.3054660883171557,0.003696137058505327,0.0030761610370434573,-0.04666049134503195
1371,13.0,300.30327,2720.3708,0.0,-0.006854971055678005,-0.006854870875842134,0.0,0.0,0.0,-0.21017499279515678,-0.3113007674279937,-0.3054490150529707,0.003048298280493617,0.003274436147086687,-0.04636376510624736
1372,13.0,300.15425,2752.5963,0.0,-0.006859952554359117,-0.006859873086029311,0.0,0.0,0.0,-0.21482775619434882,-0.3197942857287387,-0.3020984908147997,0.004646608614109566,-0.0018501079483914382,-0.04851690636999586
1373,13.0,300.11631,2739.7459999999996,0.0,-0.00686496704309747,-0.006864875296216488,0.0,0.0,0.0,-0.21498389803475879,-0.3154040554304567,-0.3024263988121617,-0.0034659310940857667,-0.0027225100023408177,-0.048105100251103754
1374,13.0,299.94345,2783.8511,0.0,-0.006869948541778359,-0.006869877506403443,0.0,0.0,0.0,-0.22163968462913378,-0.3156159462913687,-0.30896559071752966,-0.0038365835535413163,0.0011659318939685188,-0.046788524614417855
1375,13.0,299.83898,2791.2249,0.0,-0.006874963030516823,-0.006874879716590621,0.0,0.0,0.0,-0.2155813812212258,-0.3193615570085317,-0.3135197243519877,0.0030110830228707573,0.002012380255881468,-0.04595550029645475
1376,13.0,299.92958,2734.5982,0.0,-0.006879977519255176,-0.006879881926777576,0.0,0.0,0.0,-0.20736719570804882,-0.3114680854170067,-0.31241428875788974,-0.0017176804159718582,-0.004842479180340485,-0.04035545444502326
1377,13.0,299.92945,2794.9583,0.0,-0.006884959017936065,-0.006884884136964753,0.0,0.0,0.0,-0.2171921651701978,-0.3195410036012417,-0.3128643541873077,0.002386710103924948,-0.0062580925162506445,-0.044667107198050254
1378,13.0,299.86502,2873.1363,0.0,-0.006889973506674529,-0.00688988634715193,0.0,0.0,0.0,-0.23457156260791076,-0.32086398399180965,-0.31792615651936873,0.0025344580791815375,-0.003140387009207067,-0.03891085465820236
1379,13.0,300.02922,2813.9231,0.0,-0.006894955005355197,-0.006894855648061249,0.0,0.0,0.0,-0.22666700606029178,-0.3177151167885407,-0.31098022575885875,0.002335425362038538,5.332655837492155e-05,-0.04463415326504796
1380,13.0,300.12494,2741.3191,0.0,-0.006899969494093661,-0.006899857858248426,0.0,0.0,0.0,-0.2140237523724998,-0.3184991697159207,-0.3007696234411507,0.0024646332922653677,-0.006379030400486285,-0.046251680393435454
1381,13.0,300.07259,2761.0062,0.0,-0.006904950992774661,-0.006904860068435603,0.0,0.0,0.0,-0.21099175343576482,-0.3141653166532027,-0.3141198825187187,-0.002150481178260968,0.0006634518677426013,-0.04768373209101796
1382,13.0,300.24151,2806.7204,0.0,-0.006909965481512903,-0.006909862278622558,0.0,0.0,0.0,-0.2195570402410928,-0.3194664182613807,-0.31414944915663673,-0.0010246082283209591,0.009223206611234621,-0.04517734853765716
1383,13.0,300.03758999999997,2767.4636,0.0,-0.0069149469801940144,-0.0069148644888097355,0.0,0.0,0.0,-0.2112617339249098,-0.3213800221352387,-0.3085980747737587,-0.0007114697798491003,0.004675553420441196,-0.054186560476797145
1384,13.0,300.06604,2749.6531,0.0,-0.006919961468932256,-0.006919866698996802,0.0,0.0,0.0,-0.21353985452224278,-0.3178718665790107,-0.30441416246083874,-0.001068297140832719,-0.0009506764651719621,-0.053033076562957145
1385,13.0,300.04727,2750.9775,0.0,-0.006924975957670609,-0.006924868909183757,0.0,0.0,0.0,-0.21045496393028781,-0.3212800548803727,-0.30449345941366474,0.001053410166388489,-0.004140290781539886,-0.053111032985900856
1386,13.0,299.98028,2766.1852,0.0,-0.006929957456351721,-0.006929871119370934,0.0,0.0,0.0,-0.21382792152567281,-0.32115544538307467,-0.30586786224680773,0.002972996674136927,-0.0017023349458573783,-0.049615144848633545
1387,13.0,299.90911,2810.7644,0.0,-0.006934971945089963,-0.006934873329557889,0.0,0.0,0.0,-0.2177040489882168,-0.3200279108042957,-0.3166702431529197,-0.0028017584204870277,-0.0038821774775660866,-0.04587021199578746
1388,13.0,300.00558,2820.4961,0.0,-0.006939953443771074,-0.006939875539745066,0.0,0.0,0.0,-0.2215324726360528,-0.3223396510399467,-0.31348827306888366,0.0005670176335902835,-0.005939040020787614,-0.04562977889280855
1389,13.0,299.84528,2746.9745,0.0,-0.006944967932509316,-0.006944877749932021,0.0,0.0,0.0,-0.20926270293512078,-0.3172175197969317,-0.3085314333146817,0.002807219635876008,-0.0024560601831692674,-0.04360402241838195
1390,13.0,299.96245,2774.5464,0.0,-0.0069499494311903165,-0.0069498799601191985,0.0,0.0,0.0,-0.2179220294822298,-0.3154950148919337,-0.3099757605372257,0.003325654521091547,0.004403565986823126,-0.045211818292809056
1391,13.0,299.98287999999997,2876.7228,0.0,-0.0069549639199287805,-0.006954882170306376,0.0,0.0,0.0,-0.23044469627562078,-0.3251494543622527,-0.3188577487938097,0.0007712251709814984,0.01011515375298795,-0.04371706161278806
1392,13.0,299.8516,2801.3419,0.0,-0.0069599784086670224,-0.006959884380493331,0.0,0.0,0.0,-0.2205686995384358,-0.31607030790121066,-0.3148989907856107,-0.008558291123987571,0.0036049108082769968,-0.04730818006070386
1393,13.0,300.03415,2738.6579,0.0,-0.006964959907347912,-0.006964853681402872,0.0,0.0,0.0,-0.2079654894945958,-0.3170882493491737,-0.3074298784684667,0.0032470285424817673,0.0029791778037219574,-0.048253786597277956
1394,13.0,300.18941,2759.2765,0.0,-0.006969974396086487,-0.006969855891590049,0.0,0.0,0.0,-0.2147088310301118,-0.3102593185777107,-0.3137830072579717,-0.0025654206717623074,0.0028376706384812874,-0.04424429819632225
1395,13.0,299.96035,2786.7728,0.0,-0.006974955894767154,-0.006974858101777004,0.0,0.0,0.0,-0.2157547888433398,-0.3194059677604147,-0.31194857874692766,0.005885294297058324,-0.0014662202134796687,-0.04806564935846025
1396,13.0,299.98952,2817.4025,0.0,-0.006979970383505618,-0.006979860311964181,0.0,0.0,0.0,-0.22116100501689176,-0.3247327957886317,-0.3105262289190527,-0.005018939117055725,-0.007069179361598682,-0.04471542706881906
1397,13.0,300.06137,2829.4774,0.0,-0.0069849518821865075,-0.006984862522151247,0.0,0.0,0.0,-0.2206399715504698,-0.3224904733173317,-0.3169600326815197,-0.00020918684090013377,-0.0033679830440190464,-0.04486899322747486
1398,13.0,299.93202,2801.1813,0.0,-0.0069899663709248605,-0.006989864732338424,0.0,0.0,0.0,-0.21421821533169177,-0.32344742724177566,-0.3138235372619717,0.0013866556613022587,-0.0021277823495207677,-0.04274325125968046
1399,13.0,300.04134,2800.9381,0.0,-0.006994947869605972,-0.0069948669425253795,0.0,0.0,0.0,-0.2155418340698228,-0.3232763804923947,-0.3125970486784267,-0.00017158545392916585,0.0033591761781248766,-0.05371602840860925
1400,13.0,299.82807,2852.7817,0.0,-0.006999962358344214,-0.006999869152712557,0.0,0.0,0.0,-0.2226951973908048,-0.3292707072889887,-0.3152084880286557,-0.004828675572903176,-0.0016839838719712682,-0.04815250819678255
1401,13.0,299.70293,2850.0494,0.0,-0.007004976847082678,-0.007004871362899512,0.0,0.0,0.0,-0.21981507451155882,-0.3300934765026897,-0.3164353008522327,0.0003721459293079436,0.0038452051973172064,-0.053603718754275144
1402,13.0,299.87484,2747.3716,0.0,-0.007009958345763567,-0.007009873573086467,0.0,0.0,0.0,-0.2102134659014538,-0.3171935057695617,-0.30772540299263273,-0.002228683415678928,0.00939340942460733,-0.05005592688063536
1403,13.0,300.06633999999997,2719.0324,0.0,-0.007014972834502142,-0.007014875783273644,0.0,0.0,0.0,-0.21167384300558179,-0.3143557975395017,-0.3004883148158877,0.003319212378280757,0.0035436076573518464,-0.04968597508362395
1404,13.0,300.03598,2789.0847,0.0,-0.007019954333183032,-0.007019877993460821,0.0,0.0,0.0,-0.2126736776742578,-0.32047456158087667,-0.31466387623240666,-0.0028523313541781873,0.0014391987584878585,-0.04790817104116835
1405,13.0,300.1159,2832.7762,0.0,-0.007024968821921274,-0.007024880203647776,0.0,0.0,0.0,-0.2249194738778238,-0.3202911126502717,-0.3158826438501897,-0.0015844108727191785,-0.00019600809466699284,-0.045101470290668556
1406,13.0,300.09662000000003,2876.9689,0.0,-0.007029950320602163,-0.007029882413834954,0.0,0.0,0.0,-0.22572431869725582,-0.3281222997581497,-0.3206800892311607,0.0017809451177655984,-0.0023707881958285777,-0.04743921660338615
1407,13.0,300.05926,2904.1185,0.0,-0.007034964809340738,-0.00703488462402202,0.0,0.0,0.0,-0.2296858226132258,-0.3307607726210467,-0.32233290279428073,0.0023163101962520175,-0.0017793442839326083,-0.04408824754842126
1408,13.0,300.17753999999996,2888.4181,0.0,-0.007039946308021405,-0.00703985392493145,0.0,0.0,0.0,-0.2287535413287168,-0.33006328164970966,-0.3191901657541167,0.002849986794771797,-0.002619387385338408,-0.04489107802665446
1409,13.0,300.04458999999997,2846.2078,0.0,-0.007044960796759869,-0.007044856135118627,0.0,0.0,0.0,-0.2206366480901418,-0.3233770975523347,-0.3211623658812577,-0.00023847220059037378,-0.0005247057482294256,-0.03910594887220666
1410,13.0,300.04737,2846.7499,0.0,-0.007049975285498333,-0.007049858345305693,0.0,0.0,0.0,-0.2183676568762098,-0.32110529963562573,-0.3258679297431607,-0.0032607239348083975,0.005166933920036675,-0.03883132060485296
1411,13.0,299.78405,2793.3497,0.0,-0.007054956784179112,-0.00705486055549287,0.0,0.0,0.0,-0.2174689648325158,-0.3164862571997617,-0.3151533469582137,0.0026726132104413877,-0.002076269829011878,-0.04737138254894146
1412,13.0,299.72832999999997,2760.8577,0.0,-0.007059971272917576,-0.007059862765680047,0.0,0.0,0.0,-0.21583293069105178,-0.31730358526042574,-0.3060952862317527,-0.0008275832257211052,0.0007085625727946813,-0.051754640673285356
1413,13.0,299.73311,2820.5932,0.0,-0.007064952771598465,-0.007064864975867002,0.0,0.0,0.0,-0.21980658347572077,-0.32693695926116567,-0.3106463395859067,0.002139107648538488,-0.00010177188369160292,-0.05540728164077295
1414,13.0,299.99186000000003,2871.4495,0.0,-0.007069967260336929,-0.0070698671860541795,0.0,0.0,0.0,-0.22748487114350877,-0.32828679077938366,-0.3170772859830917,0.0008440159131928853,0.0038457644100473964,-0.04971965956994836
1415,13.0,299.7024,2866.6218,0.0,-0.007074948759017818,-0.007074869396241135,0.0,0.0,0.0,-0.2174364699018088,-0.3316641864102067,-0.32228081160663974,-0.003742410366722147,0.002229709838030228,-0.04946488492505405
1416,13.0,300.17929,2878.0743,0.0,-0.007079963247756393,-0.00707987160642809,0.0,0.0,0.0,-0.2174903038796218,-0.33314763521911167,-0.3242247623209927,-0.005174080676967005,-0.0027498280356368977,-0.04427246958885255
1417,13.0,300.13338999999996,2874.6856,0.0,-0.007084977736494635,-0.007084873816615267,0.0,0.0,0.0,-0.2218892278637618,-0.32920064104457364,-0.32274277259223166,-0.004549802192930516,-0.0001973082060028038,-0.04305850173679326
1418,13.0,300.15541,2854.1215,0.0,-0.007089959235175525,-0.007089876026802333,0.0,0.0,0.0,-0.21918341439921876,-0.3316705698858367,-0.3167276944335897,-0.005624057750976285,0.0005594155727275185,-0.04811832316490875
1419,13.0,300.19017,2874.256,0.0,-0.007094973723913989,-0.007094878236989399,0.0,0.0,0.0,-0.2316520141672738,-0.32978743444248565,-0.3122626153504207,-0.0032948433080757164,-0.0027190184438212273,-0.050971680029513154
1420,13.0,300.15544,2871.5865,0.0,-0.007099955222594989,-0.007099880447176465,0.0,0.0,0.0,-0.22787779939978778,-0.3288087868334007,-0.3162040062519057,-0.0017323190428165782,-0.0015412252415320884,-0.05096045929790575
1421,13.0,299.86894,2779.6779,0.0,-0.007104969711333231,-0.0071048826573636426,0.0,0.0,0.0,-0.21395366586308281,-0.3219910727405447,-0.3090079344392087,0.006761233911081833,0.001281974868296069,-0.05095382352300086
1422,13.0,299.8706,2786.2974,0.0,-0.0071099512100141204,-0.007109851958273183,0.0,0.0,0.0,-0.2083776796352758,-0.3185106397070527,-0.3200765265440937,0.004428196880854007,0.0032699383298927863,-0.04917251870144975
1423,13.0,299.86646,2869.6143,0.0,-0.0071149656987525844,-0.0071148541684601385,0.0,0.0,0.0,-0.2239685487914748,-0.32460546064856466,-0.32371709362338974,-0.0016211317656182485,-0.002297486441194258,-0.04668547099974726
1424,13.0,299.75195,2858.165,0.0,-0.007119947197433363,-0.007119856378647316,0.0,0.0,0.0,-0.22367212247471982,-0.3323747584403347,-0.31276391070489473,0.002180122695361358,-0.00021555266571339181,-0.054798243350165546
1425,13.0,299.70977999999997,2839.9988,0.0,-0.007124961686171827,-0.007124858588834493,0.0,0.0,0.0,-0.22833282975469577,-0.3215821452651867,-0.31337374541008073,0.00034170421820608067,0.0009202595584325473,-0.04671513794942516
1426,13.0,299.74164,2855.0883,0.0,-0.007129976174910291,-0.007129860799021448,0.0,0.0,0.0,-0.22600299287225878,-0.32975535494431973,-0.3121172139610707,0.003510905820974427,0.003385848973757277,-0.052100482184167254
1427,13.0,299.84412000000003,2855.1886,0.0,-0.00713495767359118,-0.007134863009208625,0.0,0.0,0.0,-0.22275746160944981,-0.3214266519048407,-0.3237219470913687,-0.004193394510005816,-0.003287544563630387,-0.04201766488957066
1428,13.0,300.02887000000004,2866.3966,0.0,-0.007139972162329533,-0.00713986521939558,0.0,0.0,0.0,-0.21727734910610477,-0.3295898405404847,-0.32444579269780666,-0.008341974791938812,-0.0016758657121700685,-0.048187985122533854
1429,13.0,300.13816,2889.0019,0.0,-0.0071449536610106446,-0.0071448674295827574,0.0,0.0,0.0,-0.2210175997302388,-0.33182240541332164,-0.3253444340789957,0.0017818136757513185,-0.0012070916329056688,-0.04395841576010786
1430,13.0,300.14858,2844.0959,0.0,-0.0071499681497488865,-0.007149869639769713,0.0,0.0,0.0,-0.22210031825709478,-0.3244013110184167,-0.3180324971173637,0.0019311550881151683,0.00100100863037436,-0.04897621568007615
1431,13.0,300.13357,2858.5969,0.0,-0.007154949648429776,-0.00715487184995689,0.0,0.0,0.0,-0.22894900740550778,-0.32971114684245667,-0.3102819241874417,0.004520216911210675,-0.003511905797498117,-0.05120918686620325
1432,13.0,300.22298,2871.116,0.0,-0.00715996413716824,-0.007159874060143956,0.0,0.0,0.0,-0.22511549724216978,-0.3307458879770777,-0.3168861971467327,-0.0004165696102622196,-0.009264395633099661,-0.05624842817153765
1433,13.0,300.00032000000004,2854.0705,0.0,-0.007164945635849129,-0.007164876270330911,0.0,0.0,0.0,-0.21930822654653678,-0.3263246015632307,-0.32193332761734567,0.0033696073852543564,0.0022882290843056277,-0.048227654877198954
1434,13.0,299.98334,2840.6979,0.0,-0.007169960124587482,-0.007169878480518088,0.0,0.0,0.0,-0.20903969672061182,-0.3344040248131077,-0.32005751797221765,-0.0025294999424672073,-0.00037769640189823264,-0.05222066783152865
1435,13.0,299.88932,2868.5768,0.0,-0.007174974613325946,-0.007174880690705265,0.0,0.0,0.0,-0.2196158796743998,-0.3282137455796747,-0.32414610371572966,9.76690688769366e-05,9.67495140136836e-05,-0.04543274835786316
1436,13.0,299.79424,2920.177,0.0,-0.007179956112006836,-0.007179849991614584,0.0,0.0,0.0,-0.22658244020694576,-0.33817384207515966,-0.3229046088982037,-0.008831353717286751,0.002178767169377578,-0.050956710272535746
1437,13.0,299.87871,2899.2698,0.0,-0.0071849706007451886,-0.007184852201801761,0.0,0.0,0.0,-0.23102625117051576,-0.33192254492070467,-0.3183568182093717,-0.0014867983097605687,0.008226259705343622,-0.042340869379968456
1438,13.0,299.85764,2873.8441,0.0,-0.007189952099426078,-0.0071898544119889385,0.0,0.0,0.0,-0.22282514671612977,-0.32853692169906973,-0.3222147882301237,-0.0014733665651099587,-9.40973105986815e-06,-0.05186433715561155
1439,13.0,299.90951,2925.1315,0.0,-0.007194966588164542,-0.007194856622175894,0.0,0.0,0.0,-0.2276750277897758,-0.3328386040711127,-0.3286533238705577,-0.0005845646023295345,-0.004712863822248446,-0.044352737235274366
1440,13.0,300.022,2917.8032,0.0,-0.00719994808684532,-0.007199858832363071,0.0,0.0,0.0,-0.22760506287037077,-0.3343025579480937,-0.3250316944356307,0.004886985583032925,-0.006077161005519094,-0.04934930145964686
1441,13.0,299.96661,2874.5105,0.0,-0.007204962575583784,-0.007204861042550026,0.0,0.0,0.0,-0.2202296863199778,-0.3272081353854287,-0.3263415937674077,0.0021576730248207476,-0.0026916446817696477,-0.04279676099746146
1442,13.0,300.04954,2873.1882,0.0,-0.007209977064322248,-0.007209863252737203,0.0,0.0,0.0,-0.22359521679212976,-0.33302983476248565,-0.3167524076035287,0.004438580059928745,0.0006158634622209913,-0.04754145455172625
1443,13.0,300.15692,2878.9411,0.0,-0.007214958563003138,-0.00721486546292438,0.0,0.0,0.0,-0.2252766242730718,-0.32912435344454466,-0.3207252295231157,-0.004786676052283146,8.704944485161132e-05,-0.04609907884887486
1444,13.0,300.12675,2855.3581,0.0,-0.007219973051741491,-0.007219867673111335,0.0,0.0,0.0,-0.21763950495684678,-0.3299637298273847,-0.3203543495890127,0.0005405787872734725,0.003256571534573587,-0.05138919986571915
1445,13.0,299.91272999999995,2897.8685,0.0,-0.007224954550422491,-0.0072248698832985125,0.0,0.0,0.0,-0.2265251915762958,-0.3328398908987397,-0.3215145716160177,-0.0006490137529601704,0.004629234414644866,-0.05021115882245555
1446,13.0,299.86932,2927.6259999999997,0.0,-0.007229969039160844,-0.007229872093485579,0.0,0.0,0.0,-0.22424278493103977,-0.33262944898547064,-0.3330529672622687,-0.000815596679688125,-0.0017300599003936183,-0.04893622371187925
1447,13.0,299.89495,2895.1403,0.0,-0.007234950537841733,-0.007234874303672534,0.0,0.0,0.0,-0.22510570924620377,-0.33675557564518765,-0.3181890645228157,0.0008296664780592061,-0.005049344624731515,-0.053800762461471856
1448,13.0,299.96872,2897.2256,0.0,-0.007239965026580197,-0.007239876513859711,0.0,0.0,0.0,-0.2247373016423448,-0.3373388733302547,-0.31860806370416767,-0.0006998245471123053,-0.003984692144508496,-0.05197750908578075
1449,13.0,299.86261,2898.6024,0.0,-0.007244946525261087,-0.007244878724046666,0.0,0.0,0.0,-0.2300039020846178,-0.3297365490224637,-0.32136229025848867,-0.0012234715300472388,0.0056164900899544155,-0.047264432987636364
1450,13.0,300.02067,2888.8599,0.0,-0.00724996101399944,-0.007249880934233843,0.0,0.0,0.0,-0.2194825562262418,-0.3356367448847677,-0.3230219635247857,-0.003071949463002807,-0.0023389060787820577,-0.05239197397293525
1451,13.0,300.01636,2911.9343,0.0,-0.007254975502737904,-0.007254850235143384,0.0,0.0,0.0,-0.22762264275960578,-0.3358598524242867,-0.3216728108841347,-0.001056284452947159,-0.0007935431696716132,-0.049373635674048455
1452,13.0,300.04711000000003,2941.5863,0.0,-0.007259957001418793,-0.007259852445330339,0.0,0.0,0.0,-0.22431999458865978,-0.3414858425445287,-0.3283629365243987,0.0005131118974052016,-0.0017826469726335583,-0.05115281165713945
1453,13.0,300.19073,2920.9123,0.0,-0.007264971490157146,-0.007264854655517516,0.0,0.0,0.0,-0.2300141764406318,-0.33823929803161973,-0.3196309498126187,0.0025829376381660977,0.004953841749806115,-0.046302295275680756
1454,13.0,300.10808,2912.9421,0.0,-0.007269952988838035,-0.0072698568657044715,0.0,0.0,0.0,-0.22496556662487277,-0.3344223139774127,-0.32607379176597767,0.0015430104868832785,-0.0014996602025549386,-0.04537884446579326
1455,13.0,300.00751,2954.0651,0.0,-0.007274967477576499,-0.007274859075891649,0.0,0.0,0.0,-0.22966604397127377,-0.34022043502464266,-0.3280755585310367,-0.002541948733195808,-0.0007516743380494813,-0.04486206057029066
1456,13.0,299.91521,2968.3249,0.0,-0.007279948976257389,-0.007279861286078826,0.0,0.0,0.0,-0.2267095929619948,-0.34045180055247665,-0.3351352570127747,0.003909912260628296,-0.0002034115483776568,-0.04693510137388386
1457,13.0,299.91061,2936.8049,0.0,-0.007284963464995742,-0.007284863496265781,0.0,0.0,0.0,-0.22741163342628076,-0.3344482937099767,-0.3308554304453887,0.0008213192426753984,0.0037029032386980965,-0.04811578396015816
1458,13.0,300.01591,2917.5786,0.0,-0.007289944963676742,-0.007289865706452958,0.0,0.0,0.0,-0.2257142165937588,-0.3349337823628907,-0.3262230435057077,-0.0012046687492665489,-0.0027910159429268273,-0.048831711017064655
1459,13.0,300.06129,2912.4087,0.0,-0.007294959452415095,-0.007294867916640024,0.0,0.0,0.0,-0.2337163693910098,-0.3325472744023607,-0.31903587816138973,-0.006868200900288654,-0.004419690747589516,-0.05114046216492066
1460,13.0,300.01038,2877.9963,0.0,-0.007299973941153559,-0.0072998701268272015,0.0,0.0,0.0,-0.22682317829820475,-0.33304315900130066,-0.3149726844653837,-0.0018008511252551687,0.002278981049317918,-0.048101356291984254
1461,13.0,299.97112000000004,2910.9732,0.0,-0.0073049554398344485,-0.007304872337014157,0.0,0.0,0.0,-0.2262659515382108,-0.3373512755114787,-0.3212459488820067,0.0004635545848192755,0.01025414775400559,-0.052696503250739955
1462,13.0,300.12754,2957.4429,0.0,-0.0073099699285728015,-0.007309874547201334,0.0,0.0,0.0,-0.2278458516241348,-0.33855228085500866,-0.3325906719041437,0.00024847888632545677,0.004587483241624345,-0.04374656340269966
1463,13.0,300.10372,2923.7781,0.0,-0.007314951427253691,-0.007314876757388289,0.0,0.0,0.0,-0.2212235225480618,-0.34189924858532866,-0.3256327746599527,0.0045578288562476855,-0.004105350067741507,-0.05207823729147186
1464,13.0,299.98477,2923.506,0.0,-0.007319965915992155,-0.007319878967575244,0.0,0.0,0.0,-0.2235103570962548,-0.34019864001499167,-0.3249638168114317,0.0007914138245864633,-0.002936534666638407,-0.05356112881282186
1465,13.0,299.8488,2938.9317,0.0,-0.007324947414673044,-0.007324848268485007,0.0,0.0,0.0,-0.2311280726730648,-0.3368568601251837,-0.32537692900970266,0.008397921294885303,0.002868193176543627,-0.04891346611463325
1466,13.0,299.96603,2920.5116,0.0,-0.007329961903411397,-0.007329850478671962,0.0,0.0,0.0,-0.22669857893340778,-0.33902388798155264,-0.3220401343103867,-0.0027653403880428472,-0.0037757341360109466,-0.052506428677731046
1467,13.0,300.02248,2885.5739,0.0,-0.007334976392149861,-0.007334852688858917,0.0,0.0,0.0,-0.2177697785222038,-0.33549148535043166,-0.3238811286820787,-0.005999523047081824,-0.0042103399020281965,-0.04944128329047475
1468,13.0,300.12992,2910.1218,0.0,-0.0073399578908307506,-0.007339854899046094,0.0,0.0,0.0,-0.2230977008605288,-0.33295225020232866,-0.3285544103957957,-0.007130580392483494,-0.0052353030718591854,-0.050186890469310456
1469,13.0,300.06277,2922.6078,0.0,-0.0073449723795689925,-0.0073448571092332715,0.0,0.0,0.0,-0.22192590751738175,-0.3390555419146767,-0.3274183341186737,-0.00036579077401823867,0.003911625767872406,-0.050996664750478954
1470,13.0,300.2055,2916.6765,0.0,-0.007349953878249882,-0.007349859319420338,0.0,0.0,0.0,-0.2259706803265698,-0.3333989415089137,-0.3272272148848117,-0.0025531700727532674,0.0005253795392809235,-0.05273253138454565
1471,13.0,300.07436,2968.4015,0.0,-0.007354968366988457,-0.007354861529607404,0.0,0.0,0.0,-0.23735340022745677,-0.33620562402091164,-0.32876092089867665,0.00046360020133877757,-0.002017204744907608,-0.051257203775192155
1472,13.0,299.84071,2994.1929,0.0,-0.007359949865669346,-0.00735986373979447,0.0,0.0,0.0,-0.2394446775063498,-0.3408304318498447,-0.3298847773795927,0.0034646263319319964,-0.0007039654570909814,-0.04834318768010115
1473,13.0,299.84535,2950.2888,0.0,-0.00736496435440781,-0.007364865949981647,0.0,0.0,0.0,-0.23047273290588777,-0.3370984696115287,-0.3292429138387457,0.007474862308811473,0.00035642772501167763,-0.04843190279260666
1474,13.0,299.9413,2967.6501,0.0,-0.0073699458530887,-0.007369868160168824,0.0,0.0,0.0,-0.22665907231200877,-0.34193632340648766,-0.3334961324585057,0.005707976137508385,-0.0014820364395906084,-0.04346472788738466
1475,13.0,300.07792,2970.0828,0.0,-0.007374960341827053,-0.007374870370355779,0.0,0.0,0.0,-0.22802919922972978,-0.3397707444977617,-0.3350310543724907,-0.001991513585972088,-0.0023175249817969077,-0.04723300906228505
1476,13.0,300.03503,2914.4568,0.0,-0.007379974830565517,-0.007379872580542957,0.0,0.0,0.0,-0.22544326338451776,-0.33240600707341866,-0.3280728227557667,0.0006758306226242894,-0.00100816420258056,-0.048005655833289355
1477,13.0,299.85817000000003,2920.1774,0.0,-0.007384956329246406,-0.007384874790729912,0.0,0.0,0.0,-0.2313636127913108,-0.3346402235439187,-0.3216571764350917,-0.0037849987883002965,0.006043624656359313,-0.05038958405906475
1478,13.0,299.81023999999996,2959.0388,0.0,-0.007389970817984648,-0.007389877000916867,0.0,0.0,0.0,-0.23159935555957678,-0.33680701835276466,-0.33106754422132273,-0.0009807731342172722,0.0001358842148707279,-0.05233037647285605
1479,13.0,300.21976,2933.4068,0.0,-0.007394952316665648,-0.00739484630182663,0.0,0.0,0.0,-0.22847955850167678,-0.33483099827274665,-0.32837185312527867,0.0020214486416264485,-0.002191583769892478,-0.05349933778197354
1480,13.0,300.03391,2912.6574,0.0,-0.007399966805404112,-0.007399848512013585,0.0,0.0,0.0,-0.2169120825775558,-0.33965040078338465,-0.3288126473162817,0.0015375605185704085,0.002981157086467297,-0.05748519009784654
1481,13.0,299.94808,2955.5101,0.0,-0.007404948304085002,-0.007404850722200762,0.0,0.0,0.0,-0.22624828045646675,-0.3408391458007047,-0.3313138349231297,0.004331893335699586,0.0016241811417941987,-0.05329590958589675
1482,13.0,299.91834,2954.6349,0.0,-0.007409962792823244,-0.007409852932387717,0.0,0.0,0.0,-0.22662300060844878,-0.34340400604383664,-0.3281082257142607,0.0009118168647568182,-0.0001975940539885148,-0.05477057452968485
1483,13.0,300.07264,2927.6238,0.0,-0.007414944291504133,-0.007414855142574783,0.0,0.0,0.0,-0.2275086419908548,-0.34071524557847666,-0.32170063473188065,-0.0036052473086352066,-0.0011485508044031389,-0.05040938093951855
1484,13.0,300.04943,2973.8503,0.0,-0.007419958780242708,-0.0074198573527619605,0.0,0.0,0.0,-0.23221062907990478,-0.3433693731554187,-0.3283962319226847,-0.00026497649273114375,0.0016898013460954083,-0.05120281149657405
1485,13.0,300.22775,2990.3529,0.0,-0.00742497326898095,-0.007424859562948916,0.0,0.0,0.0,-0.2335106188257038,-0.3413861083371857,-0.3340958650601947,-0.005609930410132025,0.001010100442461652,-0.04634830493622155
1486,13.0,299.95684,2960.2243,0.0,-0.007429954767662061,-0.007429861773136093,0.0,0.0,0.0,-0.22209390438396182,-0.3427210045489297,-0.3350193513338357,-0.004755701807326225,-0.004081436960081466,-0.05101010551305545
1487,13.0,299.84112000000005,3004.2574,0.0,-0.007434969256400303,-0.00743486398332327,0.0,0.0,0.0,-0.23180984813535077,-0.3425198440065767,-0.33888953101829267,-5.046755872051025e-05,-0.006382488116452534,-0.04903197787282946
1488,13.0,299.71391,3010.3183,0.0,-0.007439950755081304,-0.007439866193510225,0.0,0.0,0.0,-0.2387547149832558,-0.3420796678981347,-0.3342272025381567,0.006189643722970275,0.002642988107992617,-0.049349687507934954
1489,13.0,299.96173,2967.1795,0.0,-0.007444965243819768,-0.007444868403697402,0.0,0.0,0.0,-0.23532043549181877,-0.33795931676398766,-0.3286687252720777,0.004151342097730566,0.003855511369384346,-0.053029749049628754
1490,13.0,300.08366,2981.0456,0.0,-0.007449946742500657,-0.007449870613884357,0.0,0.0,0.0,-0.2356431151186648,-0.3396495699183027,-0.33087075078690065,-0.0002951360440776597,-0.000995824366635213,-0.05033720409514525
1491,13.0,300.02403,3000.3412,0.0,-0.007454961231238899,-0.0074548728240715345,0.0,0.0,0.0,-0.23253253863667478,-0.34429998257726263,-0.33519627493379667,-0.004629779644523675,-0.0019273151742111982,-0.04745783406072355
1492,13.0,300.01546,2974.0675,0.0,-0.007459975719977474,-0.00745987503425849,0.0,0.0,0.0,-0.2261344012777278,-0.34527157796565167,-0.33263626815864367,0.0014194384563626687,0.0037069170263192264,-0.04962158405301905
1493,13.0,300.14701,2998.3629,0.0,-0.0074649572186583635,-0.0074648443351680305,0.0,0.0,0.0,-0.22773586332577977,-0.3461748802973007,-0.33751670885530566,-0.00023742493568451681,0.0017699933027347384,-0.04917301722049895
1494,13.0,299.89076,3026.3998,0.0,-0.007469971707396605,-0.007469846545355208,0.0,0.0,0.0,-0.23310902728106977,-0.3490663515776667,-0.33777459113825664,0.0016933787268984684,-0.0017679338719064884,-0.04963778592211805
1495,13.0,300.00212999999997,3020.2899,0.0,-0.007474953206077495,-0.007474848755542385,0.0,0.0,0.0,-0.23777691850425475,-0.3423927419140327,-0.33792305254290866,-0.0003128360439795137,-0.0016061583609404883,-0.04755218993653575
1496,13.0,300.1336,3006.0348,0.0,-0.00747996769481607,-0.00747985096572934,0.0,0.0,0.0,-0.2299984204015768,-0.3490200764455997,-0.3347410317963677,0.001809579464266588,0.0014510761774850687,-0.05577463546452795
1497,13.0,300.03811,2989.3049,0.0,-0.007484949193496959,-0.007484853175916406,0.0,0.0,0.0,-0.2301431429133598,-0.34464644318395565,-0.3338844605593307,0.003198262537693937,0.0005894154155932725,-0.05209217859959775
1498,13.0,299.94442000000004,2959.821,0.0,-0.007489963682235201,-0.007489855386103361,0.0,0.0,0.0,-0.22096861922040478,-0.3416271605359757,-0.33711588738074766,-0.004158630709674896,-0.003022055204228627,-0.05579272603181335
1499,13.0,300.09287,2936.0962,0.0,-0.0074949451809163126,-0.007494857596290538,0.0,0.0,0.0,-0.2236935324493328,-0.34295578472960064,-0.3258506132989517,-0.001239855480189209,-0.0033210720975142966,-0.05581183288894904
1500,13.0,299.90614,2980.2913,0.0,-0.0074999596696545545,-0.0074998598064777156,0.0,0.0,0.0,-0.23140242027014077,-0.34435273237746866,-0.3301789846786287,-0.0029104547236395175,0.002248174395927538,-0.05463007119131825
1501,13.0,300.12632,3037.7379,0.0,-0.0075049741583929075,-0.007504862016664671,0.0,0.0,0.0,-0.2440893855672468,-0.34458134186503064,-0.3347257317198577,-5.046151671016396e-05,0.007741757755377003,-0.050818027744598857
1502,13.0,299.85573999999997,3011.8629,0.0,-0.007509955657074019,-0.007509864226851848,0.0,0.0,0.0,-0.2363101781894988,-0.3481606883732847,-0.33106025895310365,-0.0007105519171135143,0.0024194924936853175,-0.056485350362920045
1503,13.0,299.69037000000003,3010.9961,0.0,-0.007514970145812261,-0.007514866437038803,0.0,0.0,0.0,-0.23353778406088477,-0.3410870779676737,-0.3406427475338217,-0.00011917923669957489,0.0015940906535744984,-0.04666302852328236
1504,13.0,299.77549,3030.8788,0.0,-0.00751995164449315,-0.00751986864722598,0.0,0.0,0.0,-0.2316629167383498,-0.3438021525381307,-0.34584640487988266,-0.0003283320526613507,0.003242461013680987,-0.04908187537400395
1505,13.0,299.99555,3018.0097,0.0,-0.007524966133231725,-0.007524870857413157,0.0,0.0,0.0,-0.2317448177439328,-0.34808890973620066,-0.3375658514851557,0.0030385674318332574,-0.0027238761674506476,-0.04829617186221105
1506,13.0,299.99529,2978.4193,0.0,-0.007529947631912615,-0.0075298730676001124,0.0,0.0,0.0,-0.23045739229937376,-0.3398814116736837,-0.3350262819645197,-0.0014858860806955386,-0.006591876249617533,-0.05137685543975085
1507,13.0,300.1262,2989.27,0.0,-0.007534962120650857,-0.00753487527778729,0.0,0.0,0.0,-0.23005190987435575,-0.34651858486372167,-0.3320929533225227,0.003981939751936856,-0.007716620742921174,-0.05099057917037836
1508,13.0,300.11435,2982.6906,0.0,-0.007539943619331746,-0.0075398445786968304,0.0,0.0,0.0,-0.22981981480644978,-0.34176507400708667,-0.33507856566967964,-0.0002418065330919468,-0.0033969488246277466,-0.054292251581478046
1509,13.0,300.08698,3018.0169,0.0,-0.00754495810807021,-0.007544846788883786,0.0,0.0,0.0,-0.23661804409988277,-0.3483482510992957,-0.3324354926513287,0.0002603958018115647,0.001178387878772829,-0.05484596337687515
1510,13.0,300.11256000000003,3077.711,0.0,-0.007549972596808563,-0.007549848999070963,0.0,0.0,0.0,-0.2413236991542948,-0.35355348911551265,-0.3406701052865217,-0.0005983984147523254,0.00018781174235557582,-0.05760074721875115
1511,13.0,300.03487,3058.2787,0.0,-0.007554954095489452,-0.007554851209258029,0.0,0.0,0.0,-0.24223151044888877,-0.34601795825431364,-0.3413909010101587,0.0019202497812638982,0.006464630275559334,-0.051984099264431156
1512,13.0,299.90623,3029.1624,0.0,-0.007559968584227916,-0.007559853419445206,0.0,0.0,0.0,-0.23724974474222676,-0.3502015868572057,-0.33333840994793973,-0.0006714924227186423,0.008726392557977893,-0.051011556487198656
1513,13.0,299.89443,3052.9084,0.0,-0.007564950082908806,-0.007564855629632161,0.0,0.0,0.0,-0.2383475302980698,-0.3470988731959917,-0.3425615189831897,-0.0005124758093899246,0.0028255263294077373,-0.04850219600504405
1514,13.0,299.9203,3039.3379999999997,0.0,-0.007569964571647159,-0.007569857839819116,0.0,0.0,0.0,-0.23269724244042975,-0.3482006914872327,-0.3429849156699757,-0.005292326558336964,-0.003632893938938716,-0.04787361819950825
1515,13.0,299.83992,2975.2468,0.0,-0.00757494607032827,-0.0075748600500062935,0.0,0.0,0.0,-0.2224517032592738,-0.34783341872348567,-0.3341156234371447,-0.0027467887919619474,-0.007764089179630941,-0.05208666145280325
1516,13.0,299.88568,3000.7703,0.0,-0.007579960559066512,-0.007579862260193249,0.0,0.0,0.0,-0.2264482858937058,-0.3455896574370437,-0.3401213087673597,0.0015406663327769284,-0.004980110866598675,-0.05116340214718465
1517,13.0,300.02374,3047.7409,0.0,-0.007584975047804865,-0.007584864470380426,0.0,0.0,0.0,-0.23616677290284577,-0.3496500646952747,-0.34062030404410665,-7.070739260127633e-06,-0.004079866118451436,-0.05219958918969835
1518,13.0,299.98637,3029.4783,0.0,-0.007589956546485976,-0.007589866680567603,0.0,0.0,0.0,-0.2343664199926648,-0.3529061742891277,-0.33361316284505566,0.0038960734934125165,-0.002073932565006208,-0.057710036374537144
1519,13.0,300.27021,3017.9863,0.0,-0.00759497103522444,-0.007594868890754558,0.0,0.0,0.0,-0.23558352588028378,-0.34313295150958567,-0.3386760088247197,0.0037726112992027463,0.001760467231919588,-0.053339369909185946
1520,13.0,300.11134,3040.0321,0.0,-0.007599952533905108,-0.007599871100941735,0.0,0.0,0.0,-0.23935727455272376,-0.34578900426171766,-0.33894756998402065,0.006682585539644843,0.006302671771625274,-0.05363725733258515
1521,13.0,300.08357,3028.3085,0.0,-0.007604967022643572,-0.007604873311128801,0.0,0.0,0.0,-0.23479528822999077,-0.3460454173320237,-0.33968945144223867,-0.0017165514527104386,0.0006417583148241143,-0.05337767076296595
1522,13.0,300.00886,3051.7354,0.0,-0.007609948521324461,-0.007609842612038231,0.0,0.0,0.0,-0.2358227136988898,-0.3498204629645916,-0.34200819323608067,-0.0018876498778465384,-0.0036010859917995166,-0.05237962549396655
1523,13.0,299.9049,3097.8708,0.0,-0.007614963010062814,-0.007614844822225408,0.0,0.0,0.0,-0.24260517682076677,-0.35570276483012964,-0.3433674378477277,-0.0016081642921634584,-0.004709161913008095,-0.04973401833711545
1524,13.0,299.66412,3046.1162,0.0,-0.0076199445087437034,-0.0076198470324124745,0.0,0.0,0.0,-0.23521587821399978,-0.3468586011997787,-0.34386879399720766,-0.0014153812003122486,0.0005847941744046915,-0.04485868340770736
1525,13.0,300.00428,3016.3961,0.0,-0.007624958997482167,-0.007624849242599652,0.0,0.0,0.0,-0.22816612984824378,-0.35215408940240267,-0.3365888757387357,-0.0001401871536728949,-0.0019903858386107883,-0.05252045205911505
1526,13.0,299.83567,3053.8277,0.0,-0.00762997348622052,-0.007629851452786829,0.0,0.0,0.0,-0.23580549857969074,-0.35146786577217765,-0.34101401250296265,-0.0022138641263413777,0.0003729111256509626,-0.04892074226360136
1527,13.0,299.86002,3071.7235,0.0,-0.00763495498490141,-0.007634853662973784,0.0,0.0,0.0,-0.23519632248706981,-0.35364625216216766,-0.3448846785474677,-0.0018756811650153182,0.005688549397316115,-0.05437659451980205
1528,13.0,300.01297,3052.2527,0.0,-0.007639969473639874,-0.007639855873160739,0.0,0.0,0.0,-0.2350264916378088,-0.35406055999555663,-0.3387215645492157,1.6154710412845783e-05,0.005127391226934115,-0.05885024975181744
1529,13.0,300.09612999999996,3025.1846,0.0,-0.007644950972320763,-0.007644858083347694,0.0,0.0,0.0,-0.23927513036711676,-0.3461062427355267,-0.3341992064378937,-0.004210527454621706,0.0027115201904312075,-0.05896909284279635
1530,13.0,299.95185,3008.8139,0.0,-0.007649965461059116,-0.007649860293534871,0.0,0.0,0.0,-0.23415138805644278,-0.3480558879154417,-0.3323970195450317,-0.005525895094538384,-0.003243273741586197,-0.05854633450357335
1531,13.0,300.06616,3023.4085,0.0,-0.0076549469597401165,-0.007654862503722049,0.0,0.0,0.0,-0.23194695100638177,-0.35195850173559967,-0.3351352468802737,0.003420593623661307,0.00041455982868886964,-0.05702102326678685
1532,13.0,300.01614,3051.1506,0.0,-0.0076599614484786915,-0.007659864713909115,0.0,0.0,0.0,-0.23479525783248775,-0.35074934986126566,-0.34192898747576367,-0.00046853843782114355,-0.0016229455846222586,-0.049666299793182156
1533,13.0,300.15934,3081.4913,0.0,-0.007664942947159359,-0.007664866924096181,0.0,0.0,0.0,-0.23453051584635978,-0.3578429010288447,-0.34432300361953466,0.003919092711834336,-0.004122076395092266,-0.054903014423755656
1534,13.0,300.19055,3056.7145,0.0,-0.007669957435897823,-0.007669869134283247,0.0,0.0,0.0,-0.22964988263217878,-0.35486667137761363,-0.3446483379616427,-0.003717134539002617,-0.003319379767197277,-0.05370170611844574
1535,13.0,299.9434,3058.6041,0.0,-0.007674971924636398,-0.007674871344470424,0.0,0.0,0.0,-0.23693050003321978,-0.3545051234769317,-0.3383036394129697,0.0015416390528729283,0.00019377043314615285,-0.056715973178430745
1536,13.0,299.7675,3116.7555,0.0,-0.007679953423317065,-0.007679840645379854,0.0,0.0,0.0,-0.24276096402364178,-0.35576996357676166,-0.34888490888225965,0.0002803711662704797,0.0023249332585780474,-0.052032670421224746
1537,13.0,299.99232,3093.9957,0.0,-0.007684967912055529,-0.00768484285556692,0.0,0.0,0.0,-0.24070185743542374,-0.35435718896233165,-0.3454383994621157,-0.004678177231575146,-0.00031424962919402366,-0.05290547696461405
1538,13.0,299.75808,3017.4526,0.0,-0.007689949410736419,-0.007689845065754097,0.0,0.0,0.0,-0.23255077713847477,-0.3461445435893067,-0.3385349238807957,-0.007566618184867072,-0.003484925683110387,-0.05048872044884875
1539,13.0,299.83672,3060.865,0.0,-0.0076949638994747716,-0.0076948472759412745,0.0,0.0,0.0,-0.23426034283969577,-0.35163674416634466,-0.3445294634599107,-0.0016715084327650386,-0.002702881220078607,-0.050804446140258454
1540,13.0,299.99377999999996,3076.0545,0.0,-0.007699945398155661,-0.00769984948612823,0.0,0.0,0.0,-0.24238905057443674,-0.3505974535387747,-0.3420572446734217,-0.0028347179263648772,0.0015011504908020185,-0.048107017320292954
1541,13.0,299.99775,3099.4155,0.0,-0.007704959886894125,-0.007704851696315407,0.0,0.0,0.0,-0.24598925990224976,-0.35732982157570764,-0.3388258381170067,0.005560112955715425,-0.0017692602162873885,-0.05110018648669575
1542,13.0,300.07739,3162.8606,0.0,-0.007709974375632478,-0.007709853906502362,0.0,0.0,0.0,-0.25469443601638375,-0.3567073111117707,-0.3500289087751637,0.002123616473059628,0.001120790994063459,-0.047482743801181955
1543,13.0,300.12535,3116.7007,0.0,-0.007714955874313367,-0.007714856116689317,0.0,0.0,0.0,-0.24188119949181575,-0.35827109038860366,-0.3472469090356017,0.006515136740043933,0.003844954620567476,-0.04895400422463405
1544,13.0,299.89406,3053.6842,0.0,-0.007719970363051831,-0.007719858326876494,0.0,0.0,0.0,-0.2326331442391038,-0.3532816138486807,-0.34232899835024166,0.004955750206369465,0.00010387896767205591,-0.04820593180830505
1545,13.0,300.11393,3101.3821,0.0,-0.007724951861732943,-0.00772486053706356,0.0,0.0,0.0,-0.23314768277238476,-0.35993761322557666,-0.34965741075849965,-0.005114664704353105,-0.003201049988719037,-0.05509346085955125
1546,13.0,300.17245,3082.762,0.0,-0.007729966350471185,-0.0077298627472507375,0.0,0.0,0.0,-0.23905243826013878,-0.35728768050404863,-0.34074256280117265,-0.005220730204945955,-0.007294909496351513,-0.05190859591997955
1547,13.0,299.90779,2980.2035,0.0,-0.007734947849152074,-0.007734864957437693,0.0,0.0,0.0,-0.22847134104336578,-0.3488620195625007,-0.32857408771273766,-0.0065480163004888944,-0.0013600297791494886,-0.06214108038684714
1548,13.0,299.91289,3012.4086,0.0,-0.007739962337890538,-0.00773986716762487,0.0,0.0,0.0,-0.2297924165237458,-0.3519360481133837,-0.3339685197876267,-0.00025844225561876477,0.0026670731641946274,-0.054780417241156246
1549,13.0,299.86787000000004,3061.8685,0.0,-0.007744943836571316,-0.007744869377812047,0.0,0.0,0.0,-0.2347110364841758,-0.35405095438460865,-0.3419695782747697,0.0018818433468234784,0.002209990673859098,-0.059455715322572246
1550,13.0,299.92183,3094.6477,0.0,-0.00774995832530978,-0.007749871587999002,0.0,0.0,0.0,-0.2377748109440468,-0.3569077421140517,-0.34601306425633066,0.0013661377520772986,0.0006116553838931865,-0.05358359256753885
1551,13.0,300.00822,3116.7140000000004,0.0,-0.007754972814048244,-0.007754840888908543,0.0,0.0,0.0,-0.2365673207998768,-0.3623175755904607,-0.34851833526108167,0.00013957167516465187,-0.0014117197197508887,-0.055661751297387145
1552,13.0,299.90655,3118.2657,0.0,-0.007759954312729023,-0.00775984309909572,0.0,0.0,0.0,-0.24823816849919977,-0.35524942660288866,-0.3443873044708807,0.005450924314339345,0.004169681519240526,-0.045973469273728154
1553,13.0,299.99953999999997,3123.2508,0.0,-0.007764968801467487,-0.007764845309282675,0.0,0.0,0.0,-0.23954900173664578,-0.3632980369172246,-0.3465431967086507,0.0001156130320451179,-0.001111516918548179,-0.05629813011544286
1554,13.0,300.21412000000004,3126.0799,0.0,-0.007769950300148376,-0.007769847519469852,0.0,0.0,0.0,-0.24863289020815577,-0.35226468565081764,-0.34935265552592265,0.0014758125508513584,-0.0005699175148464795,-0.04531484657622716
1555,13.0,300.03487,3126.4704,0.0,-0.007774964788886729,-0.0077748497296568075,0.0,0.0,0.0,-0.24154277395841578,-0.3574526173553267,-0.35137354232036866,-0.007312749182912153,-0.000897690141995119,-0.051834383456155354
1556,13.0,300.05336,3073.3973,0.0,-0.007779946287567618,-0.007779851939843985,0.0,0.0,0.0,-0.2361345718146678,-0.34969205377941864,-0.3484094210078327,0.004109737440674506,-0.00029314020482568577,-0.04287345896378096
1557,13.0,300.08988,3040.6707,0.0,-0.007784960776306082,-0.007784854150031162,0.0,0.0,0.0,-0.2289455826201698,-0.35348538857629164,-0.34185699605615866,0.005309265769533735,-0.005653870304693555,-0.05556224304481644
1558,13.0,299.99536,3127.3325,0.0,-0.007789942274987194,-0.007789856360218117,0.0,0.0,0.0,-0.24510834026530975,-0.3574107093311906,-0.34811195104347464,0.005209005786713845,-0.003704420884697876,-0.048198039603276156
1559,13.0,300.04834,3155.1534,0.0,-0.007794956763725436,-0.007794858570405183,0.0,0.0,0.0,-0.24627246330519975,-0.36399897293890165,-0.34881640304299866,0.006264245072182853,-0.002180849702308108,-0.05895822674872394
1560,13.0,300.08738999999997,3121.9503,0.0,-0.007799971252463789,-0.007799860780592138,0.0,0.0,0.0,-0.2412378870033258,-0.36142536834740663,-0.3463316706177747,-0.0003396656805948926,0.006094707153525765,-0.049301557114934856
1561,13.0,300.0147,3091.0705,0.0,-0.007804952751144789,-0.0078048629907793154,0.0,0.0,0.0,-0.23663653591420777,-0.36069485555531067,-0.34227685650009565,-0.0015085364760809585,0.005359995453015365,-0.06069628605600704
1562,13.0,299.93158,3093.4576,0.0,-0.007809967239883142,-0.007809865200966493,0.0,0.0,0.0,-0.23339292982658877,-0.3553843611187057,-0.3515565758184327,-0.0049811767043788655,0.0008156609704069701,-0.05228702963357804
1563,13.0,299.93822,3101.1113,0.0,-0.007814948738564031,-0.007814867411153448,0.0,0.0,0.0,-0.24178787915760577,-0.35867294537826366,-0.3421995961799707,-0.009607760254112111,0.002832532244574167,-0.05957148218624754
1564,13.0,299.79077,3117.3549,0.0,-0.007819963227302495,-0.007819869621340625,0.0,0.0,0.0,-0.23818227933926078,-0.3595748291597727,-0.34984093061661165,-0.002377683869384128,0.0018402261254661784,-0.05379516628116955
1565,13.0,299.81314,3098.7618,0.0,-0.007824944725983274,-0.007824838922250166,0.0,0.0,0.0,-0.23995317706903477,-0.35853037095669266,-0.3434626529596247,0.003474281592134897,0.0006790847867779503,-0.057618529758006146
1566,13.0,299.94253,3062.5657,0.0,-0.007829959214721738,-0.007829841132437121,0.0,0.0,0.0,-0.23355369208745477,-0.3582640381679077,-0.3391257804116087,0.008828030662258792,-0.002378270642517038,-0.05332276577979725
1567,13.0,300.06548,3108.1036,0.0,-0.007834973703460202,-0.007834843342624298,0.0,0.0,0.0,-0.2373999894670548,-0.35959260156652667,-0.34779331428452764,0.00951899670825183,-0.003010141004252787,-0.05410467264346545
1568,13.0,300.14988,3155.7086,0.0,-0.00783995520214087,-0.007839845552811253,0.0,0.0,0.0,-0.24499561619168478,-0.35889606305028365,-0.3553649269817877,0.003049731320110047,0.00015974393438299885,-0.04952396753838505
1569,13.0,300.29811,3135.3599,0.0,-0.007844969690879444,-0.00784484776299843,0.0,0.0,0.0,-0.24271718148682075,-0.3625923487525787,-0.3477615995563977,-0.0030586519739904472,-0.0024015479357393276,-0.04978722308661635
1570,13.0,300.04292000000004,3119.094,0.0,-0.007849951189560334,-0.007849849973185608,0.0,0.0,0.0,-0.24102895483270576,-0.36045007459615264,-0.34664766279396064,-0.005256299032481325,-0.0015604468999041185,-0.052593194297044156
1571,13.0,299.95397,3161.3665,0.0,-0.007854965678298576,-0.007854852183372563,0.0,0.0,0.0,-0.24881236719836874,-0.36232820458400966,-0.34983589476361465,-0.0018789862855165082,0.0031014523674895173,-0.05157587599789265
1572,13.0,299.98929,3174.9508,0.0,-0.007859947176979687,-0.00785985439355974,0.0,0.0,0.0,-0.2535106255270508,-0.3598218291366497,-0.35177332014732365,-0.0026519834384053876,0.003935219803075957,-0.04845988977361875
1573,13.0,299.82931,3152.4791,0.0,-0.00786496166571804,-0.007864856603746806,0.0,0.0,0.0,-0.24489677364442974,-0.35924988998520363,-0.3541282552347377,0.0002985302799251447,0.004180688961701876,-0.05242846212228636
1574,13.0,299.82382,3146.8334,0.0,-0.00786994316439904,-0.007869858813933761,0.0,0.0,0.0,-0.24281624694909776,-0.36190821241755966,-0.35183429753834167,0.001926925275572718,0.0023241368439994477,-0.05006853576487975
1575,13.0,299.8166,3105.6007,0.0,-0.007874957653137393,-0.007874861024120938,0.0,0.0,0.0,-0.23774808140640877,-0.35902951822095464,-0.34724745619065567,0.0065273345487227635,0.0024469980795749076,-0.05550652239531725
1576,13.0,299.80445,3095.1251,0.0,-0.007879972141875635,-0.007879863234307893,0.0,0.0,0.0,-0.23773135264725778,-0.35895277465838066,-0.34415662795311464,-0.0007636737118287273,0.0013545490080335786,-0.05214056027862265
1577,13.0,299.92512999999997,3121.4918,0.0,-0.007884953640556747,-0.00788486544449507,0.0,0.0,0.0,-0.23870113431796777,-0.36425381547155267,-0.34590063402523463,-0.0013453495077256586,-0.006035085491141564,-0.05673402625546244
1578,13.0,300.15028,3135.5442,0.0,-0.0078899681292951,-0.007889867654682026,0.0,0.0,0.0,-0.23895156921268376,-0.3694133660407607,-0.3447621968753797,-0.0056621391347846245,-0.0037327761821213264,-0.05802959012482465
1579,13.0,299.92906,3108.0005,0.0,-0.007894949627975989,-0.007894836955591567,0.0,0.0,0.0,-0.23091780301231277,-0.36177010642892965,-0.3520666357862717,-0.0036109327562713167,0.0003785962895770446,-0.05813664405089004
1580,13.0,300.16193,3126.0902,0.0,-0.007899964116714453,-0.007899839165778744,0.0,0.0,0.0,-0.23592001610599275,-0.3667679220171756,-0.3475654242045367,0.004567846150711316,0.001203176738494299,-0.057425203665426354
1581,13.0,300.16145,3188.0849,0.0,-0.00790494561539512,-0.007904841375965699,0.0,0.0,0.0,-0.2456576434095218,-0.36611443649768166,-0.3573261130803417,0.0016465764008044385,0.005829367653813795,-0.049825336489127854
1582,13.0,300.18711,3164.4094,0.0,-0.007909960104133695,-0.007909843586152876,0.0,0.0,0.0,-0.24992724628339877,-0.36185015318682967,-0.3501240529595536,0.006689745570151484,0.002462490876253928,-0.05930087145554035
1583,13.0,299.98514,3122.4536,0.0,-0.007914941602814585,-0.007914845796340053,0.0,0.0,0.0,-0.24410840427162378,-0.3612130012589477,-0.3438265212030357,0.005988605479904344,0.0033341591344808867,-0.05215220049577145
1584,13.0,299.96695,3134.1991,0.0,-0.007919956091552827,-0.007919848006527008,0.0,0.0,0.0,-0.24508722413322576,-0.35560784356076164,-0.35202320788698566,0.0032590808484462366,0.0028838617721149975,-0.05561262791928904
1585,13.0,299.67228,3152.6133,0.0,-0.00792497058029129,-0.007924850216714185,0.0,0.0,0.0,-0.24212297109817676,-0.36209268473076567,-0.35410005648445464,-0.002980585309435867,-0.002906867412985477,-0.046227661299814954
1586,13.0,299.73696,3160.8803,0.0,-0.007929952078972291,-0.007929852426901252,0.0,0.0,0.0,-0.24224656734537475,-0.36449918411576865,-0.35408293255776463,-0.006737541793268603,-0.0018976263383311384,-0.05653463383453394
1587,13.0,299.78907999999996,3161.5123,0.0,-0.007934966567710533,-0.007934854637088429,0.0,0.0,0.0,-0.2474730633486898,-0.3582967053511316,-0.35525101740554565,-0.006565825386896515,-0.00017413693927097784,-0.045468113826103454
1588,13.0,299.87235,3114.9768,0.0,-0.007939948066391644,-0.007939856847275606,0.0,0.0,0.0,-0.24138248792509678,-0.3610919077394967,-0.34440079082971164,0.005257258985626065,-0.00025549514677540775,-0.058686346415641445
1589,13.0,300.02167000000003,3145.7131,0.0,-0.007944962555129886,-0.007944859057462561,0.0,0.0,0.0,-0.24685988491817376,-0.36132440810744265,-0.34803394091827566,0.004650334537377286,0.00028259252459721074,-0.04871028413833075
1590,13.0,300.13347000000005,3209.8336,0.0,-0.007949944053810998,-0.007949861267649516,0.0,0.0,0.0,-0.24736351074787777,-0.36847691016583967,-0.35986885407379066,0.01089411753041569,-0.0006289239925649653,-0.05792157462441434
1591,13.0,300.13515,3187.7729999999997,0.0,-0.00795495854254935,-0.007954863477836471,0.0,0.0,0.0,-0.24377489300120875,-0.3651358395511017,-0.36009264049087664,0.003118753207646977,0.001893231973972448,-0.051854310032621954
1592,13.0,300.10212,3098.6412,0.0,-0.007959973031287815,-0.007959865688023648,0.0,0.0,0.0,-0.2331849399785618,-0.35725871168368967,-0.3514658899344827,0.0017899451091288282,0.0017731150249678282,-0.06080732104171534
1593,13.0,300.07205,3126.6297,0.0,-0.007964954529968704,-0.007964834988933411,0.0,0.0,0.0,-0.24060180912054976,-0.3617864602855437,-0.34802907731779564,-0.006119092841032444,-0.001161769766532749,-0.056718983544477845
1594,13.0,300.02038999999996,3187.3521,0.0,-0.007969969018707057,-0.007969837199120366,0.0,0.0,0.0,-0.24946719020799477,-0.36897121409462363,-0.35043704591544367,-0.007915069726681562,-0.0014929518789428787,-0.06150354241067704
1595,13.0,300.02637000000004,3168.8833,0.0,-0.007974950517387946,-0.007974839409307322,0.0,0.0,0.0,-0.24823617239650275,-0.36032916346171967,-0.35469606032577566,-0.0033508117985493768,6.5500182800364734e-06,-0.055367451792592046
1596,13.0,299.8924,3114.647,0.0,-0.00797996500612641,-0.007979841619494499,0.0,0.0,0.0,-0.2323063812143548,-0.3671354480934476,-0.34733308595660667,0.0029398020942358774,-0.0026078774721524675,-0.06238265035643824
1597,13.0,299.70232999999996,3142.7096,0.0,-0.007984946504807078,-0.007984843829681565,0.0,0.0,0.0,-0.23642114934045075,-0.36107886721070964,-0.35780523852262763,0.004054586035081486,-0.0019182536785668982,-0.05042331718139396
1598,13.0,299.85812000000004,3212.9373,0.0,-0.007989960993545542,-0.007989846039868631,0.0,0.0,0.0,-0.24593005569890675,-0.36980456163936865,-0.36091810494984367,0.007259964628227723,-0.005985905472362874,-0.055905946597987345
1599,13.0,299.99879,3238.6051,0.0,-0.007994942492226431,-0.007994848250055697,0.0,0.0,0.0,-0.2541879629538988,-0.3699305390243016,-0.36033657031995064,0.00037210065729347566,0.004060430562983296,-0.04843696499010625
1600,13.0,300.10376,3199.5428,0.0,-0.007999956980964784,-0.007999850460242874,0.0,0.0,0.0,-0.25031430782159875,-0.3649872058939327,-0.3572796150332527,-0.0028933543043518375,0.002085174372215688,-0.051248488811082044
1601,13.0,299.91943,3154.533,0.0,-0.008004971469703248,-0.008004852670430052,0.0,0.0,0.0,-0.24705137905457278,-0.3612410986842206,-0.3506067754396947,-0.0008368662988972733,0.006019940137921834,-0.05074266625516125
1602,13.0,299.98568,3152.2581,0.0,-0.008009952968384138,-0.008009854880617007,0.0,0.0,0.0,-0.2439367090421788,-0.3590457808850596,-0.3552252605880037,-0.004329601667948416,-0.00022726701223950774,-0.056710214878112446
1603,13.0,299.97627,3212.3648,0.0,-0.00801496745712249,-0.008014857090804184,0.0,0.0,0.0,-0.2538098484140817,-0.3623048086392006,-0.3603640192651596,8.843868571921872e-05,-0.0007398875036112113,-0.04765167488435416
1604,13.0,300.06177,3231.3071,0.0,-0.008019948955803602,-0.008019859300991139,0.0,0.0,0.0,-0.25312473935896673,-0.36979852266877267,-0.35931341063397265,-0.0002689333356966537,-0.0004125510502331186,-0.05729119222045044
1605,13.0,300.0674,3177.2613,0.0,-0.008024963444542066,-0.008024861511178094,0.0,0.0,0.0,-0.2516232445657808,-0.35941444180144366,-0.35477040248561265,0.003470066674368916,3.881279231352436e-05,-0.050872949953019254
1606,13.0,300.0694,3177.7742,0.0,-0.008029944943222955,-0.008029863721365271,0.0,0.0,0.0,-0.24676270410108275,-0.3702147556773517,-0.3489865479997907,0.008495741979414452,-0.0009009584916501802,-0.05921817808837914
1607,13.0,300.06471,3234.2527,0.0,-0.008034959431961197,-0.008034865931552337,0.0,0.0,0.0,-0.24934182077312175,-0.37115543680518964,-0.36263478366676666,0.002140859659286398,0.001770924175601608,-0.053273587686193745
1608,13.0,300.18162,3239.3659,0.0,-0.008039940930642198,-0.00803983523246199,0.0,0.0,0.0,-0.24555192089408778,-0.37849904796494765,-0.36063537777444066,0.0009244414239802651,-0.002098918805847158,-0.06017511985382194
1609,13.0,300.04567000000003,3170.1856,0.0,-0.008044955419380662,-0.008044837442648944,0.0,0.0,0.0,-0.23943348109274476,-0.3689243310124966,-0.35529944062782465,-0.004958617704152465,-0.0015026254789725884,-0.053192356438926856
1610,13.0,299.8738,3146.3179,0.0,-0.008049969908118904,-0.00804983965283601,0.0,0.0,0.0,-0.24055112635054776,-0.36740448625999966,-0.34844645529898766,-0.005566271489823225,0.002026424408892518,-0.05921096476091724
1611,13.0,299.83204,3160.3779,0.0,-0.008054951406799793,-0.008054841863023188,0.0,0.0,0.0,-0.24438332942125676,-0.3649549237457467,-0.35133770366433165,-0.0012777988593339286,0.002863333933039057,-0.05504093194786704
1612,13.0,299.91867,3201.9059,0.0,-0.008059965895538368,-0.008059844073210143,0.0,0.0,0.0,-0.24883572261317374,-0.37243702592917266,-0.35202668333482867,-0.002578661824069107,0.0033171759482297776,-0.061556096653613744
1613,13.0,300.07176,3237.2655,0.0,-0.008064947394219035,-0.00806484628339732,0.0,0.0,0.0,-0.24766148733728577,-0.3728446767094047,-0.3635417134337736,0.0065233961469090725,0.003260800435190947,-0.060766046298891846
1614,13.0,300.13526,3225.5554,0.0,-0.0080699618829575,-0.008069848493584497,0.0,0.0,0.0,-0.24699132372114574,-0.37323995570591567,-0.36025700992209864,0.0027201448739573976,0.00011759909343362688,-0.06173936725220114
1615,13.0,300.16427999999996,3243.6824,0.0,-0.008074943381638389,-0.008074850703771452,0.0,0.0,0.0,-0.25000119327569675,-0.3741462572578606,-0.3618510043169137,0.0023739131604619875,0.0018066210779496181,-0.05516564074367485
1616,13.0,299.99756,3262.3998,0.0,-0.008079957870376742,-0.00807985291395863,0.0,0.0,0.0,-0.2594921043123768,-0.3692526443098986,-0.36294332845471766,0.001054313580177649,-0.004138368747425196,-0.052388542094846544
1617,13.0,299.98987,3243.8026,0.0,-0.008084972359115206,-0.008084855124145585,0.0,0.0,0.0,-0.25370249456598676,-0.3716060392571607,-0.36072646895843063,0.0015285398569051386,-0.0035400950232301765,-0.04838521324124875
1618,13.0,300.00857,3180.3611,0.0,-0.008089953857796317,-0.008089857334332762,0.0,0.0,0.0,-0.24909635080389575,-0.3653696368791757,-0.35228436296775967,-0.0013497089149558986,-0.0034991980200439568,-0.051520267819154544
1619,13.0,299.90664,3182.1577,0.0,-0.008094968346534559,-0.008094859544519939,0.0,0.0,0.0,-0.24378576517478176,-0.36262971741626665,-0.36088098959868065,0.0019784477259325883,-0.0005176577021238374,-0.04772342717693555
1620,13.0,299.8352,3206.0654,0.0,-0.008099949845215448,-0.008099861754706894,0.0,0.0,0.0,-0.24528579075532275,-0.36979983989390264,-0.3594781853652346,0.0015844931486272984,0.0027080607519397873,-0.05668512173938594
1621,13.0,299.87666,3239.9937,0.0,-0.008104964333954023,-0.00810486396489396,0.0,0.0,0.0,-0.2522682086519338,-0.3707666324768176,-0.36184234102855867,-0.0008258355010211182,0.0004227676104614146,-0.049089444352250954
1622,13.0,299.94948999999997,3253.0732,0.0,-0.008109945832634913,-0.008109833265803612,0.0,0.0,0.0,-0.2528509693144478,-0.3723292870460397,-0.36367277733420866,-0.0011770834205940888,0.006530374704322804,-0.061769372627412444
1623,13.0,299.96844,3223.9913,0.0,-0.008114960321373155,-0.008114835475990567,0.0,0.0,0.0,-0.25168688680456175,-0.37149751003894965,-0.35682845529372664,-0.001636957313630108,0.004383177368310925,-0.053303503895396245
1624,13.0,300.09488,3197.2431,0.0,-0.008119941820054044,-0.008119837686177633,0.0,0.0,0.0,-0.24562882657667778,-0.3730269300048916,-0.35322631065822263,-0.0007394854561040322,0.0039870844279945965,-0.06501437497366924
1625,13.0,300.03387000000004,3228.8117,0.0,-0.008124956308792619,-0.00812483989636481,0.0,0.0,0.0,-0.2453864267552548,-0.3727824124907596,-0.3633092941258356,-0.006216432535739124,-0.0012868590377530988,-0.06068666119330715
1626,13.0,299.96079,3231.1283,0.0,-0.008129970797530861,-0.008129842106551766,0.0,0.0,0.0,-0.24494096148129077,-0.37794747514051164,-0.35929389543704665,0.0009411374348880331,-0.001265421604062389,-0.06309615169260534
1627,13.0,300.07025,3167.0703,0.0,-0.00813495229621175,-0.008134844316738943,0.0,0.0,0.0,-0.24266578944174877,-0.36493425344370667,-0.3551102465691527,-0.00017039676970685184,-0.0049824543114299555,-0.05241417934887675
1628,13.0,299.97227999999996,3168.955,0.0,-0.008139966784950214,-0.008139846526925898,0.0,0.0,0.0,-0.24388806290487774,-0.36730564371274466,-0.3520894845760267,0.0025892355954876575,-0.003064754576692727,-0.058859453102475735
1629,13.0,299.92774,3234.9784,0.0,-0.008144948283630993,-0.008144848737113075,0.0,0.0,0.0,-0.25364679620798974,-0.37239517870004263,-0.35731069141381966,0.007628240205598692,-0.006561021365522394,-0.05576500553557755
1630,13.0,300.21184,3281.8212,0.0,-0.008149962772369457,-0.00814985094730003,0.0,0.0,0.0,-0.25909624776330875,-0.37556660085053767,-0.36292884911078865,0.004598028946015125,0.002327774918483498,-0.059010895488921945
1631,13.0,300.24342,3302.8806,0.0,-0.008154944271050568,-0.008154853157487207,0.0,0.0,0.0,-0.25018222053856276,-0.38079948032948263,-0.37301153873587267,0.0017911227083950482,0.005757142173435694,-0.05855773559369854
1632,13.0,300.05076,3272.5464,0.0,-0.00815995875978881,-0.008159855367674385,0.0,0.0,0.0,-0.25305765206984576,-0.3744908534843696,-0.36722388456217564,-0.003361524182581607,0.001090962025694569,-0.054854057218673945
1633,13.0,300.18671,3242.647,0.0,-0.0081649402584697,-0.00816485757786134,0.0,0.0,0.0,-0.24502661151224378,-0.3729557694503686,-0.3677013482742976,-0.01097718478686379,0.0013163824098918287,-0.05577844021865345
1634,13.0,299.9425,3232.5182,0.0,-0.008169954747208275,-0.008169859788048517,0.0,0.0,0.0,-0.25204110890702075,-0.37094296839172064,-0.3596207395218037,-0.005107936217064055,0.0025714958153868774,-0.054080240143804144
1635,13.0,299.95586000000003,3260.8697,0.0,-0.008174969235946516,-0.008174861998235583,0.0,0.0,0.0,-0.25471143835306176,-0.36903460302087965,-0.36747691337714766,-0.003418738666703237,0.002435434666783688,-0.05176300910586125
1636,13.0,299.80433,3258.1142,0.0,-0.008179950734627406,-0.008179831299145013,0.0,0.0,0.0,-0.25579465337246676,-0.3685941128049066,-0.3659966056435527,-0.004027191298752837,-0.0028371260165525373,-0.05091839118025395
1637,13.0,299.73287,3211.5129,0.0,-0.00818496522336587,-0.00818483350933219,0.0,0.0,0.0,-0.24424575032267876,-0.3683998119657307,-0.36357416783447666,0.0035001987058427167,-0.007283722201997413,-0.05906654622416424
1638,13.0,299.83564,3267.3611,0.0,-0.00818994672204676,-0.008189835719519256,0.0,0.0,0.0,-0.2526146185961218,-0.3741118574169657,-0.36646971238024467,0.004818700632293725,0.0039358075894589655,-0.05290406854697504
1639,13.0,299.85778,3291.7132,0.0,-0.008194961210785112,-0.008194837929706433,0.0,0.0,0.0,-0.25598065569332373,-0.37525202722449164,-0.3693659358035796,0.008086953116670133,0.002910378831207027,-0.054599208606522356
1640,13.0,299.89716,3243.7226,0.0,-0.008199942709466002,-0.008199840139893388,0.0,0.0,0.0,-0.24863124874299375,-0.37293352861067364,-0.36444589729300964,0.0007829429828229562,-0.0034015756285593764,-0.05573819696443174
1641,13.0,300.26382,3245.1423,0.0,-0.008204957198204466,-0.008204842350080344,0.0,0.0,0.0,-0.25123772316773274,-0.37573343247950264,-0.35947108248203363,-0.004987825854185086,-0.004843593755450485,-0.05728009206560495
1642,13.0,300.11261,3241.7329,0.0,-0.008209971686942819,-0.00820984456026752,0.0,0.0,0.0,-0.24362643159655675,-0.3805561280529656,-0.36122329587996366,-0.001783226349040738,0.005617316902036015,-0.06138443486142203
1643,13.0,300.34802,3227.8658,0.0,-0.008214953185623708,-0.008214846770454476,0.0,0.0,0.0,-0.2460963604378198,-0.37437086440752765,-0.3607233785456257,0.00016726318231509085,0.0063995869145400544,-0.06186437090378804
1644,13.0,300.2271,3284.9216,0.0,-0.008219967674362172,-0.008219848980641653,0.0,0.0,0.0,-0.2505847949357938,-0.37962425206849665,-0.36832510503585764,-0.00933666184613178,0.002297855365555668,-0.06126602138848554
1645,13.0,300.07799,3319.4371,0.0,-0.008224949173043061,-0.00822485119082883,0.0,0.0,0.0,-0.25695408506439377,-0.38407495313274664,-0.36799695385847164,-0.001101109725446069,-0.004369445498980696,-0.06094375212793004
1646,13.0,300.06233,3278.0236,0.0,-0.008229963661781414,-0.008229853401015785,0.0,0.0,0.0,-0.25515639700197573,-0.37301824645153464,-0.36826266856469564,0.0012513785656264487,0.0060728641158200244,-0.05290390946670935
1647,13.0,300.09537,3246.6146,0.0,-0.008234945160462526,-0.008234855611202962,0.0,0.0,0.0,-0.25197960462595076,-0.3752580965925907,-0.35965205908239467,0.01049393035042029,0.0015238420241414986,-0.056104485862331646
1648,13.0,299.89986,3297.2625,0.0,-0.008239959649200768,-0.008239857821390029,0.0,0.0,0.0,-0.2528762195069398,-0.37879767303441964,-0.37061158494651564,0.0006532787556785935,-0.004850572312864215,-0.051278527623546656
1649,13.0,300.02711,3334.57,0.0,-0.008244941147881657,-0.008244860031577206,0.0,0.0,0.0,-0.2547260595520047,-0.3867195054962436,-0.37218046087135165,0.0018177206248450584,-0.010099530145721021,-0.06243786032788704
1650,13.0,299.75022,3292.2712,0.0,-0.008249955636620121,-0.008249862241764383,0.0,0.0,0.0,-0.25549707195059773,-0.3791578226499636,-0.36611334218757363,0.004170700443541087,0.0015561117093512685,-0.05421797528289755
1651,13.0,299.83567,3282.8625,0.0,-0.008254970125358474,-0.008254831542673702,0.0,0.0,0.0,-0.25490698548986074,-0.37700802004529466,-0.36599323152071966,-0.00024976468043735477,0.004325776851470935,-0.05878731881460665
1652,13.0,299.88551,3281.1039,0.0,-0.008259951624039363,-0.008259833752860879,0.0,0.0,0.0,-0.25966213781165776,-0.37114199097636263,-0.36656951751509464,-0.005031042186850205,-0.0015640898379886484,-0.04851151283971355
1653,13.0,300.10847,3278.5392,0.0,-0.008264966112777827,-0.008264835963048056,0.0,0.0,0.0,-0.2536139567722488,-0.3782775514930876,-0.3647025434108387,-0.005634385099970515,-0.0014972878800958084,-0.05942448999424054
1654,13.0,300.10874,3309.8154,0.0,-0.008269947611458717,-0.008269838173235011,0.0,0.0,0.0,-0.25842203114676876,-0.37350196191677365,-0.37417724244591866,0.0029524717734862775,0.00942742524371443,-0.05115967237356655
1655,13.0,300.06917999999996,3309.3933,0.0,-0.00827496210019707,-0.008274840383421966,0.0,0.0,0.0,-0.2593938291851778,-0.37715466773226763,-0.36942443073185266,0.0033378020725654167,0.0008919062672442952,-0.05894832729524695
1656,13.0,300.10167,3260.667,0.0,-0.008279943598877959,-0.008279842593609144,0.0,0.0,0.0,-0.25143367560457175,-0.3772909802682206,-0.3624367034047176,-0.002074611239923188,-0.0026394731433957174,-0.05472999386317985
1657,13.0,300.21887000000004,3272.6146,0.0,-0.008284958087616423,-0.008284844803796099,0.0,0.0,0.0,-0.24539717733881578,-0.38528432792210265,-0.36411160582001767,-0.007083080646345634,-0.010872318467764291,-0.06214178864866704
1658,13.0,299.98801000000003,3317.6801,0.0,-0.008289939586297312,-0.008289847013983276,0.0,0.0,0.0,-0.25768101095113577,-0.3819057163911596,-0.3689051704531056,0.0026462193625615173,0.0026590554174783375,-0.05599465157799185
1659,13.0,299.93563,3288.2301,0.0,-0.008294954075035665,-0.008294849224170342,0.0,0.0,0.0,-0.24593641890953477,-0.38302261184388864,-0.37058083280598064,-0.006407900124985504,0.002996940179299967,-0.06041531686952754
1660,13.0,299.97132999999997,3251.4271,0.0,-0.00829996856377413,-0.008299851434357408,0.0,0.0,0.0,-0.2424245548579408,-0.3798280470611096,-0.36610003821376064,0.004791792965288146,0.001005063930852087,-0.06519551369404623
1661,13.0,299.82086,3261.3814,0.0,-0.008304950062455019,-0.008304853644544474,0.0,0.0,0.0,-0.24496266529843277,-0.38317081993601565,-0.3632450236719927,0.004130991273447095,-0.0042894155610323555,-0.06804815621733014
1662,13.0,299.99672000000004,3306.8507,0.0,-0.008309964551193372,-0.008309855854731651,0.0,0.0,0.0,-0.25659186841864573,-0.3790919512609627,-0.36951620079340963,0.01035829061253369,0.0005211437485628835,-0.05806746440031254
1663,13.0,299.95113,3296.6576,0.0,-0.008314946049874372,-0.008314858064918829,0.0,0.0,0.0,-0.2555014086610258,-0.3795377407749586,-0.36706243329124166,0.005466898506140874,-0.007037431500190414,-0.05718390727336224
1664,13.0,299.92655,3272.9231,0.0,-0.008319960538612725,-0.008319860275105784,0.0,0.0,0.0,-0.25751839444258673,-0.3718541842066507,-0.36551432899345565,-0.0035228083685741166,-0.002846123981415567,-0.04926476803030405
1665,13.0,299.96992,3298.0005,0.0,-0.008324942037293614,-0.008324829576015325,0.0,0.0,0.0,-0.2524376240686538,-0.37634695541505264,-0.37372522144380765,-0.005837399890006515,-0.003703521219934087,-0.05414249625644836
1666,13.0,300.10458,3338.1454,0.0,-0.008329956526032078,-0.008329831786202502,0.0,0.0,0.0,-0.26122710259110776,-0.3791642365230966,-0.37432150899515665,-0.004827634559750435,0.004584256344030876,-0.050485612810792044
1667,13.0,300.13228,3399.5172,0.0,-0.008334971014770431,-0.008334833996389457,0.0,0.0,0.0,-0.27101286940688774,-0.3862287986053146,-0.37612667484331264,-0.00959196094927784,-6.277232202689583e-05,-0.05745598822996453
1668,13.0,300.16889,3398.1565,0.0,-0.00833995251345132,-0.008339836206576634,0.0,0.0,0.0,-0.2683074004473788,-0.38519767477355066,-0.37944964881126464,-0.005233508403282065,-0.002553828280018228,-0.05276947954944215
1669,13.0,299.97914,3288.3696,0.0,-0.008344967002189785,-0.00834483841676359,0.0,0.0,0.0,-0.2510586413450588,-0.3841282602205076,-0.36439534624552067,-6.204941570330055e-05,-0.001069229837549769,-0.06558635060211884
1670,13.0,300.0621,3257.5859,0.0,-0.008349948500870674,-0.008349840626950766,0.0,0.0,0.0,-0.24755700098697375,-0.3758515875736636,-0.36681616285443663,0.008901826984266923,0.005681187223414525,-0.05122749426901004
1671,13.0,300.16496,3336.4121,0.0,-0.008354962989609027,-0.008354842837137721,0.0,0.0,0.0,-0.25740825415671675,-0.3837109227693197,-0.3730667811313247,0.01062371755572929,-0.0009908060327324423,-0.061507055348773744
1672,13.0,300.06762000000003,3315.2414,0.0,-0.008359944488289917,-0.008359845047324788,0.0,0.0,0.0,-0.25475344770220776,-0.37997341805295665,-0.3730237281345757,-0.00033945548186164765,-0.002826391948968167,-0.05657030834405474
1673,13.0,300.09347,3250.5685,0.0,-0.00836495897702838,-0.008364847257511965,0.0,0.0,0.0,-0.24792065644786376,-0.37838142989333967,-0.3617895709633506,-0.00025982807778053476,-0.0007374822403913302,-0.06634875240136204
1674,13.0,300.06261,3302.1342,0.0,-0.00836994047570927,-0.00836984946769892,0.0,0.0,0.0,-0.24888691200822577,-0.3826064700278186,-0.37227295034047964,-0.001982644202546748,0.004970440812944315,-0.05663359898505105
1675,13.0,299.83427,3357.3624,0.0,-0.008374954964447734,-0.008374851677886097,0.0,0.0,0.0,-0.2627206940335137,-0.3835520552861406,-0.3742815970737176,-0.002081287443507078,0.000994002421365401,-0.05783317463268994
1676,13.0,299.86301000000003,3362.1632,0.0,-0.008379969453186087,-0.008379853888073274,0.0,0.0,0.0,-0.25340445718157273,-0.38835540791519463,-0.38025380462062863,-0.007488481606055592,-0.003833950420506447,-0.057876612664476954
1677,13.0,299.75287000000003,3349.7487,0.0,-0.008384950951866976,-0.00838485609826023,0.0,0.0,0.0,-0.2562884608087017,-0.3890056510343686,-0.37294585986439066,0.0002963769613426287,0.0019838357846643485,-0.06119074399880624
1678,13.0,299.91747999999995,3311.4197,0.0,-0.00838996544060544,-0.008389858308447407,0.0,0.0,0.0,-0.25195579324860073,-0.38024430033469064,-0.3743888293318006,0.0006351936903412365,0.003076866765738107,-0.05801822449845294
1679,13.0,300.18859,3292.1168,0.0,-0.00839494693928633,-0.008394827609356947,0.0,0.0,0.0,-0.25874160009580777,-0.3810176128110106,-0.3609621104016867,0.006089394075301405,-0.0036839099668986063,-0.06040882294963664
1680,13.0,300.26759,3335.9666,0.0,-0.008399961428024683,-0.008399829819543903,0.0,0.0,0.0,-0.25124683228613176,-0.3858456583450016,-0.37695804655036264,0.0002644594514701157,-0.0039068906475050865,-0.06056576019137514
1681,13.0,300.19126,3320.1252,0.0,-0.008404942926705572,-0.00840483202973108,0.0,0.0,0.0,-0.26168025843333076,-0.3782241836103206,-0.36933070509760263,0.003943775788245366,-0.0009234692105093151,-0.05718796230026245
1682,13.0,300.25374,3291.6048,0.0,-0.008409957415444036,-0.008409834239918035,0.0,0.0,0.0,-0.24527469566672774,-0.3796528966488236,-0.37563807551259165,0.00022297336494075777,0.008508456241669252,-0.052869570420820355
1683,13.0,300.07165,3332.847,0.0,-0.008414938914124925,-0.008414836450105212,0.0,0.0,0.0,-0.26362315536757974,-0.37827562631789763,-0.3712034851249316,-0.003354541369517457,0.002009501409697348,-0.052439966563921754
1684,13.0,299.92787000000004,3453.1732,0.0,-0.008419953402863278,-0.00841983866029239,0.0,0.0,0.0,-0.2745947490403918,-0.3887750251791076,-0.38630864271319465,-0.0010619562217069189,0.002569552705670107,-0.05216887859241745
1685,13.0,299.84215,3446.2956,0.0,-0.008424967891601742,-0.008424840870479344,0.0,0.0,0.0,-0.2721659581531888,-0.3954404376494326,-0.3799813923312437,-0.007569053126182382,0.004361627159884086,-0.06210913970394485
1686,13.0,299.89395,3333.1344,0.0,-0.008429949390282632,-0.00842984308066641,0.0,0.0,0.0,-0.2555356159844018,-0.38282256587664565,-0.37483145750548463,0.0016804214872696882,0.0024969602261057876,-0.05896318255496304
1687,13.0,299.77349,3310.1185,0.0,-0.008434963879020874,-0.008434845290853588,0.0,0.0,0.0,-0.2539307190185107,-0.3825999446971747,-0.36966271675786966,-0.0058989817860341754,-0.004094450029790756,-0.061098372066689846
1688,13.0,299.73589,3317.7473,0.0,-0.008439945377701763,-0.008439847501040543,0.0,0.0,0.0,-0.25432967611288476,-0.3826782891949066,-0.37150436974212664,-0.0008908653655490661,-0.005878574118420094,-0.05666861488200685
1689,13.0,299.96906,3313.0013,0.0,-0.008444959866440338,-0.00844484971122772,0.0,0.0,0.0,-0.2547975544790608,-0.3817121450920556,-0.3705599699864216,0.004146597655462326,-0.006688609210164333,-0.06423591518684124
1690,13.0,300.14207000000005,3310.4829999999997,0.0,-0.008449941365121227,-0.008449851921414675,0.0,0.0,0.0,-0.25572928860851574,-0.3826057607527486,-0.36796910974572367,0.002895452238683887,-0.0013575539025301388,-0.05761952679610454
1691,13.0,300.04444,3277.4832,0.0,-0.008454955853859691,-0.008454854131601852,0.0,0.0,0.0,-0.24819000872194677,-0.38154663068822064,-0.36653642476682863,-0.0003753805174696726,-0.00028131989260411175,-0.06272412374613903
1692,13.0,300.05489,3334.6741,0.0,-0.008459970342598044,-0.008459856341788807,0.0,0.0,0.0,-0.25274231850622475,-0.3903111731257136,-0.37060416795578366,0.0047092431756661154,0.00029439583448210676,-0.06560438949364913
1693,13.0,299.98777,3445.9697,0.0,-0.008464951841278934,-0.008464825642698348,0.0,0.0,0.0,-0.2634941078348437,-0.40065498743406863,-0.38333964766767764,0.006701186987630664,0.008932240395293492,-0.06045588233728104
1694,13.0,300.04669,3460.0322,0.0,-0.008469966330017398,-0.008469827852885525,0.0,0.0,0.0,-0.2654433578472198,-0.39964846531473264,-0.38667156863401264,0.008984620156562971,0.0066439966188614145,-0.059372481893107745
1695,13.0,300.00411,3347.8899,0.0,-0.008474947828698287,-0.00847483006307248,0.0,0.0,0.0,-0.2610021509364067,-0.38277083945904067,-0.3739019322612476,-0.0029604964103032475,0.0004649638130583556,-0.05264008447192185
1696,13.0,299.98416000000003,3299.7787,0.0,-0.008479962317436529,-0.008479832273259658,0.0,0.0,0.0,-0.25496111331020277,-0.3812699222184116,-0.36681929379724565,-0.002204075319775298,-0.005768385297870305,-0.06013555953016764
1697,13.0,299.84382999999997,3351.159,0.0,-0.008484943816117418,-0.008484834483446835,0.0,0.0,0.0,-0.2631545879913358,-0.38021340633914164,-0.37530064296428967,-0.006543909496508584,-0.004979372511250805,-0.05654598831515454
1698,13.0,299.92546,3396.6998,0.0,-0.008489958304855993,-0.00848983669363379,0.0,0.0,0.0,-0.26171815398707077,-0.38709044622535266,-0.3837033233935696,-0.0010310064974024188,0.0002252572509311598,-0.05929645469835445
1699,13.0,299.9632,3386.7971,0.0,-0.008494939803536883,-0.008494838903820967,0.0,0.0,0.0,-0.2575086165791218,-0.3885148934809346,-0.38347824001635566,-0.006870115942977654,-0.004390939066726946,-0.05239835136906466
1700,13.0,299.90764,3355.7352,0.0,-0.008499954292275125,-0.008499841114008033,0.0,0.0,0.0,-0.25728471870452474,-0.38408691961642766,-0.37868805963860164,0.0029639644614205176,0.00026467810070919474,-0.06084223358716094
1701,13.0,299.96849,3361.4106,0.0,-0.0085049687810137,-0.00850484332419521,0.0,0.0,0.0,-0.26160539951594275,-0.38712799727405867,-0.37305147092231367,0.002624901492382607,0.0006066674576259164,-0.056029440506925245
1702,13.0,300.03494,3402.4207,0.0,-0.00850995027969459,-0.008509845534382166,0.0,0.0,0.0,-0.2661381029107857,-0.3925809952047276,-0.3755318261071056,0.009926059195475772,-0.0004006436592979506,-0.06059256268302035
1703,13.0,299.83878,3458.6256,0.0,-0.008514964768432831,-0.00851484774456912,0.0,0.0,0.0,-0.26793407858053475,-0.3990626547694176,-0.38433908716881465,0.004313859611744796,-0.0025665859093773075,-0.056189376968959745
1704,13.0,300.05377999999996,3395.5605,0.0,-0.008519946267113943,-0.008519849954756298,0.0,0.0,0.0,-0.26064751340140674,-0.3911277311163016,-0.3803903502041046,0.002129599410925098,-0.0030315805657687074,-0.06151894482544714
1705,13.0,299.85414,3330.2438,0.0,-0.008524960755852184,-0.008524852164943253,0.0,0.0,0.0,-0.24903139133998478,-0.3884780517072986,-0.3748015159650296,-0.000987197413428799,0.004507564862512015,-0.06109595039895085
1706,13.0,299.84452999999996,3357.4884,0.0,-0.008529942254533185,-0.00852985437513043,0.0,0.0,0.0,-0.2536534127311428,-0.38542490624097664,-0.3815143080100306,-0.006030976559336045,0.0013989715136177386,-0.055463335649555044
1707,13.0,299.97209,3425.2513,0.0,-0.008534956743271649,-0.008534856585317607,0.0,0.0,0.0,-0.26547603516294477,-0.39540553118348765,-0.3803092901961046,-0.0016550024873110284,0.0033237998681085066,-0.05761434098209275
1708,13.0,300.04115,3394.1587,0.0,-0.008539938241952538,-0.008539825886226926,0.0,0.0,0.0,-0.2595030879434608,-0.39284284942807063,-0.37939354515322765,-0.007570653453390323,-0.0027416065243254972,-0.06473094966894734
1709,13.0,299.99067,3325.7591,0.0,-0.00854495273069078,-0.008544828096414103,0.0,0.0,0.0,-0.2542254836051018,-0.3886267461594736,-0.36809549243069667,0.0025660608431754875,0.0017437285429176082,-0.06494689150375914
1710,13.0,300.0386,3331.4841,0.0,-0.008549967219429355,-0.00854983030660128,0.0,0.0,0.0,-0.24583400972192776,-0.3932114900794526,-0.37364248957314267,0.0006331665619261744,-0.0025590319272317877,-0.06474169822600814
1711,13.0,299.78123999999997,3408.5798,0.0,-0.008554948718110245,-0.008554832516788347,0.0,0.0,0.0,-0.2565559284375988,-0.3952898585520716,-0.38427735997272267,0.005285795148192365,0.00015764537183588683,-0.05893348622103225
1712,13.0,299.78781000000004,3490.2484,0.0,-0.008559963206848487,-0.008559834726975413,0.0,0.0,0.0,-0.26758409186349374,-0.4036257354022586,-0.3897385246991976,0.0028791439783243875,-0.0008523140667418492,-0.062218692304756844
1713,13.0,300.02785,3425.1089,0.0,-0.008564944705529376,-0.008564836937162479,0.0,0.0,0.0,-0.2724797313116557,-0.3898125628840046,-0.37885529656760664,-0.0017941352022673583,0.002439160387401388,-0.05318962876965765
1714,13.0,300.11638,3327.0716,0.0,-0.00856995919426784,-0.008569839147349656,0.0,0.0,0.0,-0.25528740010740475,-0.38205373196576764,-0.3740055472164736,-0.0031837519856618567,-0.001066601061490329,-0.054857774833290844
1715,13.0,300.05113,3399.9632,0.0,-0.00857494069294884,-0.008574841357536833,0.0,0.0,0.0,-0.26453568840763975,-0.3903554926850876,-0.37861274475866863,-0.0009989450046906957,-0.002005630085040278,-0.05338993716867654
1716,13.0,300.06335,3530.2748,0.0,-0.008579955181687082,-0.008579843567723788,0.0,0.0,0.0,-0.27351676239150274,-0.4007898408898776,-0.3988087950893636,0.0007534265210499083,0.003404168738215297,-0.056011442145398944
1717,13.0,299.96038,3457.4699,0.0,-0.008584969670425546,-0.008584845777910743,0.0,0.0,0.0,-0.26772253222465675,-0.3907787475168596,-0.39248324696758063,0.005925171464018894,0.004129972754446576,-0.058633837768959245
1718,13.0,300.04796,3305.0697,0.0,-0.008589951169106436,-0.008589847988097699,0.0,0.0,0.0,-0.25360205108357375,-0.3832949430732656,-0.36776166705275065,-0.003217413775184017,0.0046831568491915955,-0.05889604865633744
1719,13.0,300.10413,3326.1786,0.0,-0.008594965657844789,-0.008594850198284876,0.0,0.0,0.0,-0.25835625095027676,-0.38560394753364663,-0.3671150412364336,-0.007746757536670442,0.004886764289211086,-0.06150081474140785
1720,13.0,299.97595,3457.9590000000003,0.0,-0.0085999471565259,-0.008599852408472053,0.0,0.0,0.0,-0.27386702268607077,-0.4024722109584146,-0.37479393685428164,-0.0027307599859800274,-0.003662875198797637,-0.06630968654375653
1721,13.0,299.93922000000003,3468.1040000000003,0.0,-0.008604961645264142,-0.008604854618659119,0.0,0.0,0.0,-0.26935562794083073,-0.4023131104277126,-0.3825482892070766,-0.0012049600586702988,-0.004956845529727565,-0.06877169784873814
1722,13.0,299.99133,3380.9308,0.0,-0.008609943143945031,-0.008609823919568549,0.0,0.0,0.0,-0.25313455775243576,-0.39216581597625266,-0.38241816762923464,0.0002012520894995348,-0.0065871666631527334,-0.06535755872953884
1723,13.0,299.86084,3300.7727,0.0,-0.008614957632683606,-0.008614826129755726,0.0,0.0,0.0,-0.23970236727178176,-0.3901303789103706,-0.37351975458852965,0.002502091324612188,-0.0035024762894174965,-0.061228473379529844
1724,13.0,299.86582000000004,3347.2276,0.0,-0.008619939131364496,-0.008619828339942792,0.0,0.0,0.0,-0.25206403875678374,-0.39044520584894166,-0.3749643553886006,0.004445105491897756,0.0008112024369194473,-0.06259213474836274
1725,13.0,299.93855,3471.3622,0.0,-0.008624953620102738,-0.00862483055012997,0.0,0.0,0.0,-0.27248072429675374,-0.3984980819461986,-0.3842286125104116,0.007465070766470123,0.0017061344310823582,-0.05653617802768635
1726,13.0,299.88108,3463.2129,0.0,-0.008629968108841202,-0.008629832760316924,0.0,0.0,0.0,-0.2717751070596147,-0.39769828311226463,-0.38325687526700863,0.004744388059359645,0.0018024460822375782,-0.06216364951957453
1727,13.0,299.86809,3353.9897,0.0,-0.008634949607522091,-0.008634834970504102,0.0,0.0,0.0,-0.2548252162067907,-0.3908752190588806,-0.37382867427901767,-0.0024493144706285177,-0.002148504935265928,-0.06065246298918204
1728,13.0,300.00993,3380.7455,0.0,-0.008639964096260444,-0.008639837180691279,0.0,0.0,0.0,-0.24897536874195578,-0.3986950071031336,-0.37999182880727367,0.0004552414655663345,-0.0037928138849965868,-0.06872352793898413
1729,13.0,300.11185,3505.6511,0.0,-0.008644945594941333,-0.008644839390878234,0.0,0.0,0.0,-0.27316911628219276,-0.3953287673559116,-0.3971325146539276,-0.008348279234061012,-0.0037285625815804764,-0.056875729281947444
1730,13.0,300.18406,3497.594,0.0,-0.008649960083679797,-0.008649841601065411,0.0,0.0,0.0,-0.27680242849077275,-0.39719728160031964,-0.38918152085422564,-0.0012012643302555589,0.002790720985822717,-0.05734121739113754
1731,13.0,300.18679,3363.7913,0.0,-0.008654941582360687,-0.008654843811252366,0.0,0.0,0.0,-0.26425301189474176,-0.3842036865579516,-0.37405185274604363,-0.005831977178121334,0.007018752842546973,-0.05598154214819804
1732,13.0,299.86027,3345.935,0.0,-0.00865995607109904,-0.008659846021439543,0.0,0.0,0.0,-0.25935391726373874,-0.38703373461725565,-0.3706930502545556,-0.002005533420980738,0.007956258241921553,-0.06285048717936013
1733,13.0,299.79492,3457.5885,0.0,-0.008664937569780151,-0.008664848231626499,0.0,0.0,0.0,-0.26747387051761573,-0.39633563398028165,-0.38721105338475564,0.006128254851086665,0.000977877832851528,-0.056427619425222446
1734,13.0,299.86733,3530.6737,0.0,-0.008669952058518393,-0.008669850441813565,0.0,0.0,0.0,-0.27065570887913876,-0.4050350852313506,-0.3975458396347196,0.008677376381740372,-0.00036922981578514565,-0.06057241521803194
1735,13.0,299.95307,3507.0963,0.0,-0.008674966547256746,-0.008674852652000742,0.0,0.0,0.0,-0.2665359555625507,-0.4032077798685096,-0.3963259777068286,0.006283748718057714,-0.004165226967825896,-0.05112974704511315
1736,13.0,299.89222,3365.8604,0.0,-0.008679948045937746,-0.008679821952910172,0.0,0.0,0.0,-0.2584452548390608,-0.3895569097512736,-0.37513535147547666,-0.0023455317211859574,-0.00029076318088609173,-0.060679747787874855
1737,13.0,300.0478,3357.795,0.0,-0.008684962534676322,-0.008684824163097349,0.0,0.0,0.0,-0.2563618201159418,-0.38978793077407364,-0.3745360951013346,-0.0061892605117824535,-0.002082874902438748,-0.06039909169567624
1738,13.0,300.13565,3489.1134,0.0,-0.008689944033356989,-0.008689826373284415,0.0,0.0,0.0,-0.27318227840099174,-0.3991290429159696,-0.3882920291214397,-0.009265567659490331,-0.0026565132743024476,-0.06604064736395443
1739,13.0,300.17757,3522.9984,0.0,-0.008694958522095453,-0.00869482858347137,0.0,0.0,0.0,-0.2729930742098188,-0.40184310423632663,-0.39606737601630665,-0.0016577869999108382,0.00027939336979147876,-0.06255874106481704
1740,13.0,300.01845,3358.1939,0.0,-0.008699940020776342,-0.008699830793658547,0.0,0.0,0.0,-0.24673840636368477,-0.3935544853708036,-0.38051420989632867,-0.003257076943723467,0.0025241015485844274,-0.07195162420732243
1741,13.0,299.95609,3330.2290000000003,0.0,-0.008704954509514695,-0.008704833003845724,0.0,0.0,0.0,-0.24570553974174877,-0.3910454349431796,-0.3755554956294416,0.005660228347746045,0.0005724786767267465,-0.05989630179730475
1742,13.0,299.91769,3469.9811,0.0,-0.00870996899825316,-0.00870983521403268,0.0,0.0,0.0,-0.26976660218139076,-0.4005898759826426,-0.38443114094039965,5.026376575439745e-05,0.001218567095588209,-0.06173517948953785
1743,13.0,299.90297999999996,3567.9475,0.0,-0.008714950496934049,-0.008714837424219857,0.0,0.0,0.0,-0.2802803689290187,-0.40414462077846863,-0.4001419586434366,0.01033356123059309,-0.0005575255674484895,-0.053906005709608545
1744,13.0,299.84878,3517.3363,0.0,-0.008719964985672402,-0.008719839634406812,0.0,0.0,0.0,-0.27281612021235474,-0.4084831854541516,-0.3878831117785826,-0.0007428301541541283,0.003494568075037017,-0.06635774094299915
1745,13.0,299.79874,3404.8123,0.0,-0.008724946484353291,-0.008724841844593989,0.0,0.0,0.0,-0.2580175721043517,-0.3958879699536006,-0.38107236884641466,-0.00014992095089104586,0.0014102420971300587,-0.057856543219746245
1746,13.0,299.80506,3417.3173,0.0,-0.008729960973091755,-0.008729844054781166,0.0,0.0,0.0,-0.25200871530132374,-0.40036797421074266,-0.38640242914245065,-0.0006012358190073554,-0.002076408036325518,-0.06095190372498454
1747,13.0,299.87145,3507.0813,0.0,-0.008734942471772644,-0.008734846264968121,0.0,0.0,0.0,-0.27072379928585877,-0.4013492562700876,-0.39399209795649265,0.003193046123529117,0.0013125618490647689,-0.05737196142567175
1748,13.0,299.85417,3553.384,0.0,-0.008739956960510997,-0.008739848475155187,0.0,0.0,0.0,-0.27928182108796973,-0.4048540782334866,-0.39600410868006264,0.0030705441864391173,-0.001982371536944838,-0.061225544073490734
1749,13.0,299.95746,3414.3315,0.0,-0.008744938459191998,-0.008744850685342143,0.0,0.0,0.0,-0.26513041555383476,-0.3897691248522176,-0.38297197973639163,0.0022909007208442977,-0.003708616956011996,-0.06100309514653674
1750,13.0,300.08632,3326.1894,0.0,-0.008749952947930573,-0.008749819986251794,0.0,0.0,0.0,-0.25137035760582277,-0.3882789581951496,-0.37142919671720764,-0.004868050370464165,-0.0018934681625707582,-0.06346975321647694
1751,13.0,300.19288,3479.4329,0.0,-0.008754967436668815,-0.008754822196438972,0.0,0.0,0.0,-0.2670617614369437,-0.39920558382852367,-0.3913933647625176,-0.001215050104491109,0.004511182773319076,-0.06452568343718915
1752,13.0,300.2067,3633.8744,0.0,-0.008759948935349704,-0.008759824406626038,0.0,0.0,0.0,-0.2837272228541967,-0.4131584430055636,-0.40772141389647065,-0.0029044347008203874,0.008778064969352562,-0.060261112363308736
1753,13.0,300.08449,3533.1091,0.0,-0.008764963424088168,-0.008764826616812993,0.0,0.0,0.0,-0.27590714096741475,-0.4065392651373016,-0.39153054869355663,-0.002205839793499438,-0.0012807316104233688,-0.059443891707155354
1754,13.0,300.1313,3378.3627,0.0,-0.008769944922768946,-0.00876982882700017,0.0,0.0,0.0,-0.2572468231507848,-0.39366760461196765,-0.37602348545312864,-0.002674338572711667,-0.0051996042443359855,-0.05516033232640094
1755,13.0,299.99012,3440.0993,0.0,-0.00877495941150741,-0.008774831037187125,0.0,0.0,0.0,-0.2650037998213387,-0.39960130865507865,-0.3810991693115596,0.002792248561673477,-0.006905717802466283,-0.05838275743392954
1756,13.0,299.90193999999997,3544.6978,0.0,-0.0087799409101883,-0.008779833247374302,0.0,0.0,0.0,-0.2722607679650458,-0.4074430740940006,-0.39779577803688665,0.008102511673280643,0.0014602365663391285,-0.06351730909667035
1757,13.0,299.67599,3516.8973,0.0,-0.008784955398926653,-0.008784835457561257,0.0,0.0,0.0,-0.2718633814083267,-0.40179651499672864,-0.3953890557368616,0.005547280548498965,0.0013661320778767386,-0.06423541565454194
1758,13.0,299.69664,3390.2635,0.0,-0.008789936897607542,-0.008789837667748435,0.0,0.0,0.0,-0.2514367254873727,-0.3955495140226976,-0.38356920961033364,1.2993006344059886e-05,-0.0014747967676261085,-0.06800977531679223
1759,13.0,299.75166,3311.8604,0.0,-0.008794951386346006,-0.008794839877935612,0.0,0.0,0.0,-0.2505756655523928,-0.38481609491839164,-0.37133108371002466,-0.002223859939902888,0.0023361784095128576,-0.05966638319061354
1760,13.0,299.89935,3437.9546,0.0,-0.008799965875084359,-0.008799842088122567,0.0,0.0,0.0,-0.26124164273004274,-0.4010923973697376,-0.38271831257385663,-0.0026492960964901676,0.0016572195798548385,-0.07024334128072802
1761,13.0,299.94292,3612.9876,0.0,-0.008804947373765248,-0.008804844298309744,0.0,0.0,0.0,-0.2887827329031367,-0.4114927307686706,-0.3979825605603206,0.0035911933270981865,-0.004866669715877905,-0.05715819301232444
1762,13.0,300.07982000000004,3542.4187,0.0,-0.008809961862503712,-0.00880984650849681,0.0,0.0,0.0,-0.27205578746981574,-0.41060576202863364,-0.39414527097410956,-0.004292107766548056,-0.0037035119993581765,-0.06554368162715773
1763,13.0,300.08328,3404.6115,0.0,-0.008814943361184824,-0.008814848718683987,0.0,0.0,0.0,-0.2541929988068958,-0.40056000536969466,-0.3801638685417526,0.004009188884226136,-0.00017883471123961183,-0.06178458252466354
1764,13.0,300.06941,3462.906,0.0,-0.008819957849923066,-0.008819850928870943,0.0,0.0,0.0,-0.26082799350921876,-0.40222391402140956,-0.3895850578390516,0.007432171954273263,0.01123220666478249,-0.06441609537262365
1765,13.0,300.25711,3598.7861,0.0,-0.008824939348603955,-0.008824820229780483,0.0,0.0,0.0,-0.2834287599047407,-0.4076485308167776,-0.4028638321220646,0.001058379854153959,0.006371347735578063,-0.04965898716721045
1766,13.0,300.22907000000004,3537.1872,0.0,-0.008829953837342419,-0.00882982243996766,0.0,0.0,0.0,-0.2763276498914157,-0.40313889912671164,-0.3957500260849866,0.0048113598379692455,-0.0025438279068312674,-0.05946154961664804
1767,13.0,300.0475,3414.1189,0.0,-0.008834968326080772,-0.008834824650154616,0.0,0.0,0.0,-0.26603627127573576,-0.3911667513776526,-0.3806038825301786,-0.005919248409234334,-0.0054454140576455255,-0.05606618399530154
1768,13.0,299.87142,3398.8486,0.0,-0.008839949824761661,-0.00883982686034157,0.0,0.0,0.0,-0.26035230298477174,-0.39276679487556465,-0.3800460072901206,-0.002362270106212908,0.0024181105218739275,-0.06542671507536403
1769,13.0,299.83862999999997,3498.7846,0.0,-0.008844964313500125,-0.008844829070528748,0.0,0.0,0.0,-0.26727074427006875,-0.4022343504974396,-0.3940380488485276,-0.0031182886324761273,-0.007348136132054572,-0.06547254133763673
1770,13.0,299.87393,3613.5098,0.0,-0.008849945812180904,-0.008849831280715703,0.0,0.0,0.0,-0.28237995485873174,-0.4105691431700196,-0.40546764169904065,-0.00022717780570070376,0.0026141211192686675,-0.06385741459873613
1771,13.0,299.94313,3582.6777,0.0,-0.008854960300919368,-0.00885483349090288,0.0,0.0,0.0,-0.27679544719758375,-0.4101570948843536,-0.4020920192558926,-0.0014463267702913387,0.0006883954710193433,-0.062063218196162735
1772,13.0,299.9877,3401.975,0.0,-0.008859941799600257,-0.008859835701090057,0.0,0.0,0.0,-0.26501914042785274,-0.39273053065448565,-0.37636580186691265,0.004124137751095706,0.004474564218680106,-0.058266908496996145
1773,13.0,300.16199,3411.7376,0.0,-0.0088649562883385,-0.008864837911277124,0.0,0.0,0.0,-0.26218985230612374,-0.3963167976609226,-0.37857637921257964,0.0023836713668750477,-0.0007566001419531202,-0.06250480981499444
1774,13.0,300.05404,3580.2579,0.0,-0.0088699377870195,-0.00886984012146419,0.0,0.0,0.0,-0.2780977876836147,-0.40830025328109765,-0.4019109717280246,-0.0003086327583246817,-0.005485155651742715,-0.056955917894861444
1775,13.0,299.9601,3610.7645,0.0,-0.008874952275757964,-0.008874842331651256,0.0,0.0,0.0,-0.27405945914506274,-0.41689451903928565,-0.4066282791585866,0.0014958329542772186,-0.0016296068934296786,-0.06526757401465803
1776,13.0,299.95604,3478.0825,0.0,-0.008879966764496205,-0.008879844541838433,0.0,0.0,0.0,-0.25906069281729976,-0.40830699139426263,-0.3898825582009126,-0.006299452574732563,0.004850226085305045,-0.06418177723399823
1777,13.0,299.90348,3417.4702,0.0,-0.008884948263177317,-0.00888484675202561,0.0,0.0,0.0,-0.25825251440503877,-0.3976158349516276,-0.3829572774774406,-0.004121223542483096,0.0024976550116993577,-0.06428735789441824
1778,13.0,300.07329,3517.6482,0.0,-0.00888996275191567,-0.008889848962212565,0.0,0.0,0.0,-0.27092256855797575,-0.4046670829275316,-0.39368758590393965,-0.0055514793555883546,-0.001043612341896519,-0.05655888597567745
1779,13.0,300.10262,3576.3431,0.0,-0.00889494425059667,-0.008894818263122106,0.0,0.0,0.0,-0.28162218563894575,-0.40830263441883263,-0.3971941911875146,0.005956112271722515,-0.0012356590035750487,-0.06590404605172293
1780,13.0,300.07968999999997,3559.7311,0.0,-0.008899958739335023,-0.008899820473309283,0.0,0.0,0.0,-0.2706605623471178,-0.4095721861316276,-0.4018366194356866,0.007201681063925582,0.0006698121602103134,-0.06659341278375813
1781,13.0,300.07676000000004,3447.26,0.0,-0.008904940238015913,-0.008904822683496239,0.0,0.0,0.0,-0.26161500512689073,-0.3981990414441856,-0.38806691534672266,0.005624973121116625,-0.0037132938144985666,-0.06632651460141735
1782,13.0,299.92292000000003,3441.1299,0.0,-0.008909954726754377,-0.008909824893683416,0.0,0.0,0.0,-0.2596751580754428,-0.39830480448962363,-0.3880376020213296,0.00016238103935826086,0.0002944682413342527,-0.06311539635175464
1783,13.0,299.81921,3600.3773,0.0,-0.008914936225435155,-0.00891482710387037,0.0,0.0,0.0,-0.2827506625403178,-0.41432039769023965,-0.3973537274157596,-0.006195355717759005,0.0027340910456837776,-0.06266715274601643
1784,13.0,299.79097,3652.9761,0.0,-0.008919950714173619,-0.008919829314057326,0.0,0.0,0.0,-0.2880762544034127,-0.41427585521584365,-0.4080614099675256,-0.005323157023104695,0.005342303093019265,-0.05161628542513075
1785,13.0,299.87324,3505.3488,0.0,-0.008924965202912083,-0.008924831524244503,0.0,0.0,0.0,-0.27131636820934074,-0.4084590397042686,-0.38576308859435265,-0.006457118140642943,-0.0008794640423763432,-0.06318957841807585
1786,13.0,300.10204,3460.6376,0.0,-0.00892994670159275,-0.00892983373443157,0.0,0.0,0.0,-0.2563535621276268,-0.4026802008064416,-0.3929136553450586,-0.004271693006183276,-0.0008841511752189274,-0.05544427033567345
1787,13.0,300.04592,3559.9532,0.0,-0.008934961190331325,-0.008934835944618746,0.0,0.0,0.0,-0.26927168017004577,-0.40840190253112957,-0.4044632879349186,0.007385209534663433,-0.004608444042468016,-0.06577055744379864
1788,13.0,300.25462999999996,3612.0515,0.0,-0.008939942689012215,-0.008939838154805702,0.0,0.0,0.0,-0.27351219263355175,-0.4164661067645046,-0.4079951738084886,0.0052176442504413955,-7.014449468047264e-05,-0.06126712076484404
1789,13.0,300.3015,3529.699,0.0,-0.008944957177750457,-0.008944840364992879,0.0,0.0,0.0,-0.27295940390899576,-0.4052508264426426,-0.39473012906433064,0.003660364365049837,0.000985465566357879,-0.06927016623543314
1790,13.0,300.05972,3452.7008,0.0,-0.008949938676431568,-0.008949842575180056,0.0,0.0,0.0,-0.26566902890949173,-0.40005856816020663,-0.3838072220588236,-0.004526652670545836,0.0006286340003863453,-0.058914388483147444
1791,13.0,300.02898999999996,3468.3362,0.0,-0.008954953165169921,-0.008954844785367011,0.0,0.0,0.0,-0.26861201382494176,-0.4027935834926316,-0.38288201326001264,-0.003496519189429577,0.004233414950530526,-0.06867007392995864
1792,13.0,300.01386,3581.4367,0.0,-0.008959967653908163,-0.008959846995554188,0.0,0.0,0.0,-0.2748997981154977,-0.4126968771875106,-0.40107064289009065,-0.0014205899137763086,0.0006362324743437565,-0.06321151528274084
1793,13.0,299.85629,3645.6444,0.0,-0.008964949152589274,-0.008964816296463729,0.0,0.0,0.0,-0.2790132084864597,-0.42334574057097163,-0.4058259066693986,-0.00013168486062628388,-0.0014160139749996986,-0.06835613561172534
1794,13.0,299.87703,3552.8843,0.0,-0.008969963641327738,-0.008969818506650684,0.0,0.0,0.0,-0.27117375325776577,-0.41125785939549064,-0.3975564990257716,0.0014985226266676687,-0.001064614382019259,-0.059559884525602944
1795,13.0,299.87552999999997,3433.9871,0.0,-0.008974945140008628,-0.008974820716837861,0.0,0.0,0.0,-0.25904762189100977,-0.40310356709572465,-0.38169515288787864,0.002106679288363058,-0.002170670490478498,-0.06071956345055434
1796,13.0,299.82479,3521.7286,0.0,-0.00897995962874698,-0.008979822927024816,0.0,0.0,0.0,-0.27265212568366975,-0.40704521130973464,-0.39082020971095166,0.005217590953486135,0.004398023204801096,-0.05834440389114434
1797,13.0,299.89788,3641.0290000000005,0.0,-0.00898494112742787,-0.008984825137211994,0.0,0.0,0.0,-0.2853496997093227,-0.4150232487546056,-0.40640895104194064,0.0019357868569722884,0.001041487759086839,-0.05396716345914435
1798,13.0,300.01655,3573.4233,0.0,-0.008989955616166334,-0.008989827347398949,0.0,0.0,0.0,-0.27338487775848674,-0.4123947158751896,-0.4004518510540206,0.0038792805955301865,0.0018273428530946984,-0.061711517059952536
1799,13.0,299.98962,3477.3513,0.0,-0.008994937114847001,-0.008994829557586015,0.0,0.0,0.0,-0.2603314604302147,-0.4039042069272416,-0.39279230851308267,-0.007417061862157013,-0.0032728066382758667,-0.06555975177374374
1800,13.0,300.11306,3529.5593,0.0,-0.008999951603585576,-0.008999831767773192,0.0,0.0,0.0,-0.27309199781708177,-0.4026278157762716,-0.3971780805109246,-0.0016711096175256782,-0.0012224919198505588,-0.06496374185292214
1801,13.0,300.24505,3621.5891,0.0,-0.00900496609232404,-0.009004833977960147,0.0,0.0,0.0,-0.2812384070310697,-0.4200854361217046,-0.3995488121673976,-0.005155015261760395,-0.0035537444140022667,-0.06758539881715953
1802,13.0,300.12596,3632.28,0.0,-0.009009947591004708,-0.009009836188147324,0.0,0.0,0.0,-0.2906095519059297,-0.41229505259535365,-0.4012178073346146,0.0014701758405450587,0.001813948092072738,-0.05677111931512325
1803,13.0,300.17251,3566.1735,0.0,-0.009014962079743172,-0.009014838398334502,0.0,0.0,0.0,-0.2732148239942037,-0.4145274046856696,-0.3962854578353296,-0.0006406485121220854,0.0029209659775268977,-0.06338790388664903
1804,13.0,300.22412,3485.4794,0.0,-0.009019943578424172,-0.009019840608521457,0.0,0.0,0.0,-0.26689520338550576,-0.4050011413530006,-0.38760238070587666,0.003229121778764507,0.002173726756755128,-0.05986446446591265
1805,13.0,300.01183,3538.1485,0.0,-0.009024958067162414,-0.009024842818708634,0.0,0.0,0.0,-0.2616715546149717,-0.4126059278585346,-0.40123132409094864,0.0007310421646107443,0.0025830302492252373,-0.06819255752883144
1806,13.0,299.9382,3681.4829,0.0,-0.009029939565843526,-0.009029845028895589,0.0,0.0,0.0,-0.28624570664025173,-0.42560295781874163,-0.4072302003804916,0.004781057175178605,-0.0042032199962255155,-0.05857906552155364
1807,13.0,299.77546,3622.8445,0.0,-0.00903495405458199,-0.009034847239082766,0.0,0.0,0.0,-0.27974514996119676,-0.41486040933103463,-0.4066486961481016,-0.002052980883413438,-0.0061517379354042645,-0.06617012856773323
1808,13.0,299.87712,3460.9323,0.0,-0.009039935553262879,-0.009039816539992307,0.0,0.0,0.0,-0.2663162829408708,-0.4017519725223326,-0.3839687341247636,-0.006375188358757104,-0.003056411779344357,-0.05949935600437924
1809,13.0,299.84077,3504.6902,0.0,-0.009044950042001232,-0.009044818750179262,0.0,0.0,0.0,-0.26347408601286776,-0.4109760745426806,-0.39088815826265766,-0.0018731271668132583,-0.00044812197519619555,-0.06703218655406173
1810,13.0,299.93101,3643.0561,0.0,-0.009049964530739696,-0.00904982096036644,0.0,0.0,0.0,-0.2805526089658867,-0.4130824796455666,-0.41376298854522764,0.004345529858195405,0.003101665352660537,-0.06038085116737604
1811,13.0,299.85875,3631.0531,0.0,-0.009054946029420585,-0.009054823170553616,0.0,0.0,0.0,-0.2734098442409507,-0.42130404161947155,-0.4090355992761706,0.0004323108862632626,0.006070017490989084,-0.06842828915134634
1812,13.0,299.98815,3564.5251,0.0,-0.009059960518158827,-0.009059825380740572,0.0,0.0,0.0,-0.27223131278463875,-0.4098956662260526,-0.4013996350650596,0.004758386413466175,-0.001955009832569448,-0.06358265967511993
1813,13.0,299.90342000000004,3520.2143,0.0,-0.009064942016839828,-0.009064827590927749,0.0,0.0,0.0,-0.27480144192829076,-0.4077734949516106,-0.3874823004365256,0.0007771733239710351,-0.003547244211960747,-0.06551423151300123
1814,13.0,300.10271,3562.8527,0.0,-0.009069956505578292,-0.009069829801114815,0.0,0.0,0.0,-0.27489257364228475,-0.4128518639228066,-0.3952738188029886,-0.0006879072567236603,-0.0063189634146831345,-0.06048968740036735
1815,13.0,300.2423,3635.5553,0.0,-0.009074938004258959,-0.00907483201130177,0.0,0.0,0.0,-0.28390210982145675,-0.4154215978989196,-0.4057943337962826,0.0008485103056014472,-0.003347631105160466,-0.06316486828788714
1816,13.0,300.22076,3619.095,0.0,-0.009079952492997423,-0.009079834221488947,0.0,0.0,0.0,-0.27673873558948675,-0.4118713316685356,-0.4115044338073256,-0.004648606844631776,-0.0005359853091376315,-0.056168372294386745
1817,13.0,300.16382999999996,3496.6835,0.0,-0.009084966981735998,-0.009084836431675902,0.0,0.0,0.0,-0.2623836971827548,-0.4104167604874806,-0.39010401414276863,-0.0024466911661196176,0.007636964187634682,-0.06789390712810693
1818,13.0,300.30742000000004,3513.2531,0.0,-0.009089948480416665,-0.00908983864186308,0.0,0.0,0.0,-0.26305211800872275,-0.4072453991319916,-0.39764369932937765,-0.0006068268519991474,-4.527783153682406e-05,-0.06235736267369254
1819,13.0,300.1062,3662.8665,0.0,-0.00909496296915513,-0.009094840852050035,0.0,0.0,0.0,-0.28721838620624773,-0.42054919055997364,-0.4056523875897736,0.0040683044281853865,0.00038508296472972967,-0.06497687864046864
1820,13.0,300.01625,3699.2212,0.0,-0.009099944467836019,-0.009099843062237212,0.0,0.0,0.0,-0.2873464204888837,-0.42248714283373456,-0.4146373119240166,0.002221709823190688,-0.007882459893413223,-0.05927887075611903
1821,13.0,299.81725,3561.2209999999995,0.0,-0.009104958956574594,-0.009104845272424389,0.0,0.0,0.0,-0.2758264963919557,-0.4105127456694536,-0.3961830283827206,0.0024108022528776577,-0.0014163363911815186,-0.06809374740557964
1822,13.0,299.77254,3532.2697,0.0,-0.009109940455255483,-0.009109814573333708,0.0,0.0,0.0,-0.26609560720159176,-0.4104248056932746,-0.3972013751307236,-0.0036664567339261063,-0.001122252708657719,-0.06259675111581833
1823,13.0,299.87716,3610.2129,0.0,-0.009114954943993947,-0.009114816783520885,0.0,0.0,0.0,-0.27101104555670774,-0.41727859148969065,-0.40912494766998864,-0.0025309833406136073,0.0022578551900329577,-0.06914539867111953
1824,13.0,300.20455,3663.2699,0.0,-0.009119936442674836,-0.009119818993708062,0.0,0.0,0.0,-0.28148056367246876,-0.42535344498161654,-0.4067085792290116,-0.002090474784813798,-0.002116426855650068,-0.06514835602114215
1825,13.0,300.1214,3647.7983,0.0,-0.009124950931413078,-0.009124821203895017,0.0,0.0,0.0,-0.2844076709588517,-0.4230868754354236,-0.40134506141467363,0.004631530743346496,0.0009350116895534691,-0.06643096346147563
1826,13.0,300.08135,3538.1820000000002,0.0,-0.009129965420151653,-0.009129823414082194,0.0,0.0,0.0,-0.2721593011000317,-0.4105211049827786,-0.3928385836451496,0.0031358582878851173,-0.005176161082072325,-0.06087831744972214
1827,13.0,300.07415,3501.5519,0.0,-0.009134946918832543,-0.00913482562426926,0.0,0.0,0.0,-0.26324677348543374,-0.4100439047156826,-0.3910936555154386,0.0031682055880525467,-0.002005850466937028,-0.06417655088998243
1828,13.0,300.22346,3670.0544,0.0,-0.009139961407570785,-0.009139827834456438,0.0,0.0,0.0,-0.27727725775263473,-0.4209192193639926,-0.4174084293575046,-0.00037613306845144364,0.0006071987249183484,-0.06121641874309015
1829,13.0,300.16616,3721.2199,0.0,-0.009144942906251674,-0.009144830044643393,0.0,0.0,0.0,-0.28599584929809274,-0.42569586272041066,-0.4194662187205926,-0.0014126251600402487,0.00971130975338165,-0.06477933742747284
1830,13.0,300.07223,3584.1309,0.0,-0.009149957394990249,-0.009149832254830348,0.0,0.0,0.0,-0.2735760172573507,-0.41854851810502264,-0.39736177262155364,-0.004034729170221766,0.007867321632944192,-0.07088822228037284
1831,13.0,300.00061,3522.9968,0.0,-0.009154938893670916,-0.009154834465017525,0.0,0.0,0.0,-0.27289213423485675,-0.40874298277979165,-0.38926795108775564,-0.0069440544239748134,0.005084580396959015,-0.06833893670452794
1832,13.0,299.88732999999996,3640.1216,0.0,-0.00915995338240938,-0.00915983667520448,0.0,0.0,0.0,-0.2895943766307397,-0.4175397364379636,-0.3993719493624426,0.0007672852391601572,-0.007360863870535702,-0.05982444311346284
1833,13.0,299.78481,3690.5214,0.0,-0.00916493488109027,-0.009164838885391657,0.0,0.0,0.0,-0.2932987480688327,-0.41795639501158455,-0.41057122033272464,0.0028059922860298775,-0.006512867161144944,-0.060757973735345146
1834,13.0,300.05651,3643.0202,0.0,-0.009169949369828734,-0.009169841095578835,0.0,0.0,0.0,-0.2788880923641117,-0.41886634426388963,-0.4096327480901046,0.006226229245655984,-0.005588813872747985,-0.06229989315452074
1835,13.0,300.01454,3585.1467,0.0,-0.009174963858567087,-0.0091748433057659,0.0,0.0,0.0,-0.26773002014289576,-0.4161656882423556,-0.40589936730164866,-0.003086566811595427,-0.0018834605953080882,-0.06387233774620894
1836,13.0,300.02158,3586.0173,0.0,-0.009179945357248198,-0.00917981260667533,0.0,0.0,0.0,-0.27467264770807975,-0.4144547141234956,-0.40093234438394165,-0.0009982457607966859,0.0007831843389967763,-0.06304482044253934
1837,13.0,300.23797,3687.7007,0.0,-0.00918495984598644,-0.009184814816862508,0.0,0.0,0.0,-0.28524069426356474,-0.4270091868375256,-0.4087190498124296,-0.01058135762204869,0.004343947972139286,-0.06301017843487043
1838,13.0,300.0664,3741.748,0.0,-0.00918994134466733,-0.009189817027049574,0.0,0.0,0.0,-0.29327928353441174,-0.42772482511815363,-0.4163938518998736,0.0025179244719997973,-0.00046817814635058554,-0.05985472915895184
1839,13.0,300.08654,3617.4871,0.0,-0.009194955833405904,-0.009194819237236751,0.0,0.0,0.0,-0.27292094093519975,-0.4219065606589356,-0.4047982582854776,-0.0035954539424436762,-0.0042275937273810165,-0.05988679143186614
1840,13.0,300.18878,3496.1845,0.0,-0.009199937332086794,-0.009199821447423706,0.0,0.0,0.0,-0.25311815323331677,-0.4139256557162816,-0.39570898945593663,0.002837954551159307,-0.0034464464973127866,-0.06887007227444694
1841,13.0,300.09972999999997,3672.1131,0.0,-0.009204951820825036,-0.009204823657610883,0.0,0.0,0.0,-0.27596876683849675,-0.4272322943770446,-0.4130296183878496,0.0014248797107246785,0.00014277123527042386,-0.06792353962728144
1842,13.0,299.95142000000004,3767.4234,0.0,-0.0092099663095635,-0.00920982586779806,0.0,0.0,0.0,-0.2963131873813347,-0.4290196574209436,-0.4198697861029216,0.0048513464359406155,0.004934391299561505,-0.06815198091532684
1843,13.0,299.93605,3618.7529,0.0,-0.0092149478082445,-0.009214828077985016,0.0,0.0,0.0,-0.28109150603157174,-0.4191192818863526,-0.39979974355466263,-0.0004902461863735316,0.005313913953042475,-0.06326206734347994
1844,13.0,299.89673999999997,3507.1226,0.0,-0.009219962296982742,-0.009219830288172193,0.0,0.0,0.0,-0.2670750958082597,-0.4031619303014846,-0.39584067143893265,-0.002322766625889218,0.002204378889505258,-0.06159263039921934
1845,13.0,299.81434,3627.6762,0.0,-0.009224943795663632,-0.009224832498359148,0.0,0.0,0.0,-0.2847701105196217,-0.4123168678700066,-0.40563600333565664,-0.004426270084463845,-0.0006116982139749135,-0.05972163774506674
1846,13.0,299.87186,3751.0549,0.0,-0.009229958284402096,-0.009229834708546103,0.0,0.0,0.0,-0.2880496059257827,-0.42514727898376964,-0.42703014084959356,-0.0018835414526660683,-0.008353230885974701,-0.060432062853930234
1847,13.0,300.12151,3738.2776,0.0,-0.009234939783082985,-0.00923483691873328,0.0,0.0,0.0,-0.28730059118686074,-0.43132076866304564,-0.4177216857584206,2.027092546008458e-06,-0.007728181521262133,-0.06654495308447553
1848,13.0,300.02414,3626.8871,0.0,-0.009239954271821338,-0.009239839128920346,0.0,0.0,0.0,-0.27381264155320373,-0.4217882231797566,-0.4068822401636506,-0.005707789192864934,0.0008290822785815501,-0.06662437365381374
1849,13.0,299.94865,3557.0265,0.0,-0.00924493577050245,-0.009244841339107523,0.0,0.0,0.0,-0.2694717565347918,-0.4142582347966046,-0.3975172355843966,-0.0002100939834496618,0.007855916895118633,-0.06703451398954144
1850,13.0,300.03456,3623.68,0.0,-0.009249950259240691,-0.009249810640016953,0.0,0.0,0.0,-0.27929221703399576,-0.4204488382700696,-0.4017671915388346,-0.001023999062360839,0.0046546631418044855,-0.06802994304678264
1851,13.0,300.04374,3725.6157,0.0,-0.009254964747979044,-0.00925481285020402,0.0,0.0,0.0,-0.29044516220970573,-0.4225034358953426,-0.4195455359384206,0.005345141510524395,0.0042985128244051865,-0.06060259892526084
1852,13.0,299.968,3649.9961,0.0,-0.009259946246660156,-0.009259815060391197,0.0,0.0,0.0,-0.27863997781212474,-0.41893155704032553,-0.4119361492774326,0.004053461428795496,-0.004188206466843795,-0.06182586030723735
1853,13.0,299.77501,3508.7087,0.0,-0.009264960735398398,-0.009264817270578152,0.0,0.0,0.0,-0.26399483576926175,-0.40922834984269363,-0.3933366365993036,0.0028669147588924575,-0.006567046251942004,-0.07035043675004753
1854,13.0,300.00903999999997,3608.8763,0.0,-0.009269942234079287,-0.009269819480765329,0.0,0.0,0.0,-0.27669052514972875,-0.41503694789595763,-0.4052807983806006,-0.005848756802427354,-0.004393925216096656,-0.06766404222367103
1855,13.0,300.0707,3762.4445,0.0,-0.009274956722817751,-0.009274821690952506,0.0,0.0,0.0,-0.2944416637841297,-0.42755625069901665,-0.4216912652776876,-0.0021330039312610983,-0.0005196156660870735,-0.06489090436948364
1856,13.0,299.94739,3717.6876,0.0,-0.00927993822149864,-0.009279823901139461,0.0,0.0,0.0,-0.28951328622523675,-0.4237754599383816,-0.4167954738420106,-0.001096452524011439,0.005965000096299675,-0.06264666280249423
1857,13.0,300.09004,3641.4268,0.0,-0.009284952710236993,-0.009284826111326638,0.0,0.0,0.0,-0.27463106392397574,-0.41985969413192564,-0.4124120728494026,0.005369636223741835,0.007391241513833743,-0.06292444430415914
1858,13.0,299.90898,3628.3509,0.0,-0.009289934208917883,-0.009289828321513594,0.0,0.0,0.0,-0.27451515824503675,-0.42274221841390863,-0.40567069701908065,0.000921408624575951,-0.002542058366856628,-0.06656530319948394
1859,13.0,299.91891,3691.4098,0.0,-0.009294948697656347,-0.00929483053170077,0.0,0.0,0.0,-0.28093779599140173,-0.4272637051301446,-0.4138948934432456,0.0022009304954399276,-0.002314562238504508,-0.06841816779609743
1860,13.0,300.20581,3758.0405,0.0,-0.0092999631863947,-0.009299832741887726,0.0,0.0,0.0,-0.29003471485919774,-0.43579871602248454,-0.41651703271453056,0.0026084352663325173,-0.005004165018672635,-0.07078657809659133
1861,13.0,300.16899,3675.7097,0.0,-0.009304944685075589,-0.009304834952074792,0.0,0.0,0.0,-0.2839778705314337,-0.42083559583323965,-0.4125105100966176,0.0073907238443576525,-0.0008009576374108644,-0.06375106893449065
1862,13.0,299.97323,3523.278,0.0,-0.009309959173814053,-0.009309837162261969,0.0,0.0,0.0,-0.26463046782199373,-0.4089683296020316,-0.39738974845681463,-0.003177973319016547,0.004223084359135976,-0.06626053580790574
1863,13.0,300.03247999999996,3554.6578,0.0,-0.009314940672494942,-0.009314839372448924,0.0,0.0,0.0,-0.2652600305066267,-0.41046308628205264,-0.4048040946060536,-0.0048717270497770256,0.005826249579281064,-0.059701048503034745
1864,13.0,299.6929,3759.7406,0.0,-0.009319955161233295,-0.009319841582636101,0.0,0.0,0.0,-0.2900717390178517,-0.4282932989542576,-0.4245022338376086,-0.0027122713127303378,0.0017085444464452083,-0.06481491061198363
1865,13.0,299.78956,3809.3443,0.0,-0.009324936659914296,-0.009324810883545642,0.0,0.0,0.0,-0.2960448584898527,-0.4342686577089796,-0.42763202154149466,0.0005076335884870346,-0.005067642908287416,-0.06540241328496564
1866,13.0,299.95337,3656.1634,0.0,-0.009329951148652649,-0.009329813093732597,0.0,0.0,0.0,-0.2791215350546507,-0.4294009029035696,-0.4028599412416806,0.0044965836632282555,-0.008497167926280181,-0.07747961176464234
1867,13.0,299.9992,3598.9943,0.0,-0.009334965637391002,-0.009334815303919775,0.0,0.0,0.0,-0.27258333613438074,-0.4157160483779796,-0.4057050157999676,-0.004152499128019757,-0.0028963356914460774,-0.06245593063017044
1868,13.0,300.04561,3707.1681,0.0,-0.009339947136072002,-0.009339817514106952,0.0,0.0,0.0,-0.28448978474695574,-0.4250114832053676,-0.4173852765927196,-0.0025484603849634576,0.004606599623310986,-0.06650346657238114
1869,13.0,300.01436,3773.3803,0.0,-0.009344961624810355,-0.009344819724293907,0.0,0.0,0.0,-0.29001270706702575,-0.4296400603246726,-0.4273606427672116,-0.005152721466184016,0.005593610497396375,-0.05945058118431554
1870,13.0,300.08896,3674.0238,0.0,-0.009349943123491244,-0.009349821934481084,0.0,0.0,0.0,-0.2782129435574797,-0.4242520623879186,-0.41434649901281556,-0.001090813685879929,0.002360337534297178,-0.07050365232416873
1871,13.0,300.1986,3580.7563,0.0,-0.009354957612229708,-0.009354824144668039,0.0,0.0,0.0,-0.2737573079652427,-0.4165943335646595,-0.3981088723177866,0.0017131197772717584,-0.002404198192700888,-0.06628447181501804
1872,13.0,299.97812000000005,3611.5557,0.0,-0.009359939110910598,-0.009359826354855216,0.0,0.0,0.0,-0.2787668772546487,-0.41800828354920566,-0.4010476015828166,0.002229402215299868,-0.003339675065375267,-0.07437978991921372
1873,13.0,299.83642000000003,3790.0023,0.0,-0.00936495359964895,-0.009364828565042393,0.0,0.0,0.0,-0.2946169965814337,-0.4371752770783406,-0.4202737891827936,0.0053703964652918644,-0.007915923491215822,-0.06400755495880385
1874,13.0,299.79927000000004,3821.3435,0.0,-0.00936993509832984,-0.009369830775229349,0.0,0.0,0.0,-0.29633089899308274,-0.43616916025904456,-0.4290929559331776,0.0007087775236708952,-0.004000274005871306,-0.06560078232329314
1875,13.0,299.87117,3676.4891,0.0,-0.009374949587068304,-0.009374832985416526,0.0,0.0,0.0,-0.27702131077737474,-0.4261826078034486,-0.4143569658863486,0.002176099991139348,0.0006801836261138974,-0.06014252765110535
1876,13.0,300.1221,3607.7171,0.0,-0.009379964075806657,-0.009379835195603592,0.0,0.0,0.0,-0.2685773809365237,-0.4192966918463616,-0.4087818307886256,-0.004374721998876446,0.0038277507484445867,-0.06678199483936972
1877,13.0,300.32696,3779.6501,0.0,-0.009384945574487547,-0.009384837405790547,0.0,0.0,0.0,-0.2960658327669227,-0.4340411121340226,-0.4188122975035556,-0.005891781833473594,-0.001105586365712879,-0.06473169035477043
1878,13.0,300.00209,3818.0978,0.0,-0.00938996006322601,-0.009389839615977724,0.0,0.0,0.0,-0.29925075140874974,-0.4372642505696216,-0.42409138118706063,-0.0009324770444283192,-0.0024747625508650473,-0.07052769877554194
1879,13.0,300.01874,3690.0336,0.0,-0.0093949415619069,-0.009394808916887265,0.0,0.0,0.0,-0.2829945518393877,-0.42326890581588855,-0.4154146267382316,-0.0012756679943736289,-0.0009032359232374451,-0.06519649755989335
1880,13.0,300.01492,3611.4984,0.0,-0.009399956050645364,-0.00939981112707422,0.0,0.0,0.0,-0.27324057067924473,-0.41968402696208856,-0.40488072671111663,0.0001207090720980579,0.008805060282491792,-0.06528435951581464
1881,13.0,299.93254,3664.5823,0.0,-0.009404937549326253,-0.009404813337261397,0.0,0.0,0.0,-0.27586029841529175,-0.4231127437104766,-0.4149684623216986,-0.005648627850001165,0.0023550391481992677,-0.06166803951141164
1882,13.0,299.80516,3771.7493,0.0,-0.009409952038064606,-0.009409815547448352,0.0,0.0,0.0,-0.29109348015368974,-0.44027679510443657,-0.4151473313618516,-0.0049053743498227555,0.004927809226911905,-0.06966692153733983
1883,13.0,299.85256,3767.6916,0.0,-0.009414933536745496,-0.00941481775763553,0.0,0.0,0.0,-0.2947495803570187,-0.4316973025327066,-0.4188372741185206,0.003565846977171697,-0.0017428617074570583,-0.06746974239774514
1884,13.0,300.02685,3690.4525,0.0,-0.00941994802548396,-0.009419819967822485,0.0,0.0,0.0,-0.2858475196159537,-0.42979397301486255,-0.4061639269027586,0.005335732267445775,-0.008282425374286742,-0.07014892663641004
1885,13.0,300.11711,3643.8803,0.0,-0.009424962514222313,-0.009424822178009662,0.0,0.0,0.0,-0.27309755042762973,-0.42333952934785857,-0.4112115336009186,0.001949036317929908,-0.01094735977017029,-0.06962320486177534
1886,13.0,300.16972000000004,3743.3337,0.0,-0.009429944012903202,-0.009429824388196839,0.0,0.0,0.0,-0.2852898267609137,-0.4293200354130886,-0.42327011158350764,-0.003706484571176546,-0.009910646648204671,-0.06425517301824185
1887,13.0,300.1761,3805.9705,0.0,-0.009434958501641666,-0.009434826598383794,0.0,0.0,0.0,-0.2922634293816547,-0.43175001180290856,-0.4329065658645516,-0.00019748121845737882,0.0012485363990959487,-0.06380457461927123
1888,13.0,300.10736,3709.7712,0.0,-0.009439940000322555,-0.009439828808570971,0.0,0.0,0.0,-0.28572162329102874,-0.42503779731046465,-0.4169183709466397,-0.005588951674761584,0.007575480880841754,-0.06412232377113064
1889,13.0,299.85322,3622.8086,0.0,-0.009444954489060908,-0.009444831018758038,0.0,0.0,0.0,-0.27515045592523574,-0.42295818254022255,-0.4031347346688006,0.003587422516851036,0.011124720080924388,-0.07091175805369564
1890,13.0,299.96876000000003,3727.9293,0.0,-0.009449935987741798,-0.009449833228945215,0.0,0.0,0.0,-0.28724358573623476,-0.43103630882997157,-0.4149175363716726,-0.007098144736907343,0.005813290110502065,-0.06958571258157513
1891,13.0,299.6511,3792.5717,0.0,-0.009454950476480262,-0.00945483543913217,0.0,0.0,0.0,-0.28785840563191273,-0.4373779676283446,-0.42761073315689363,0.0016332625984654683,-0.00044589924898182955,-0.06609623629094064
1892,13.0,299.76381000000003,3771.3099,0.0,-0.009459964965218504,-0.009459837649319125,0.0,0.0,0.0,-0.28388572556733976,-0.4374630907692456,-0.42503522365521057,0.001072721497394369,-0.005730558037187045,-0.06372442248336084
1893,13.0,300.01785,3721.3958,0.0,-0.009464946463899615,-0.009464806950228888,0.0,0.0,0.0,-0.2824187116750567,-0.4288939232160346,-0.41989875492328055,0.003335014216240277,-0.0026828356880502675,-0.060741686753237746
1894,13.0,299.93306,3680.6669,0.0,-0.009469960952637968,-0.009469809160416065,0.0,0.0,0.0,-0.2792908592788617,-0.4279391680443076,-0.41160080402433663,0.002141521615576728,0.0008375651780212472,-0.06700983527010584
1895,13.0,299.85822,3767.0034,0.0,-0.009474942451318857,-0.00947481137060302,0.0,0.0,0.0,-0.29404008237199675,-0.43291582697046554,-0.4181190723151396,0.000994482782972809,5.087078666405575e-05,-0.06628269761409294
1896,13.0,300.13563,3863.1420000000003,0.0,-0.009479956940057321,-0.009479813580789975,0.0,0.0,0.0,-0.3026542078321447,-0.4397108645260836,-0.4319336228535296,0.005456545521919115,0.0029955956977422774,-0.07229559525851974
1897,13.0,300.04647,3758.1046,0.0,-0.00948493843873821,-0.00948481579097693,0.0,0.0,0.0,-0.2874894407404987,-0.4308936026858876,-0.4239868948367486,0.005594499219059084,-0.0036180097002697564,-0.06785194236196535
1898,13.0,300.06532999999996,3653.1119,0.0,-0.009489952927476564,-0.009489818001164108,0.0,0.0,0.0,-0.26912012835258875,-0.42617961871565363,-0.4151550523276136,0.001361235749418509,-0.005826785892558994,-0.07113289684827034
1899,13.0,300.15607,3709.6557,0.0,-0.009494934426157453,-0.009494820211351285,0.0,0.0,0.0,-0.2807816642834927,-0.42631594138410756,-0.42054510716207055,-0.0009093410489324741,-0.007552565013930133,-0.05934310979920894
1900,13.0,299.95191,3791.0506,0.0,-0.009499948914895917,-0.009499822421538351,0.0,0.0,0.0,-0.29341757190805967,-0.43527791560358553,-0.4236892222223706,-0.006208297049361214,-0.001126113799488779,-0.06612495990477543
1901,13.0,299.97562999999997,3785.4112,0.0,-0.009504963403634159,-0.009504824631725528,0.0,0.0,0.0,-0.2969301756322267,-0.4331202805756436,-0.4206200167419636,-0.0032767991476448976,0.006241452517808404,-0.06375855381297935
1902,13.0,299.96656,3739.9192,0.0,-0.00950994490231516,-0.009509826841912483,0.0,0.0,0.0,-0.2862325749189557,-0.4364943020836336,-0.4141151537499836,-0.002308484561754688,0.00932661830849056,-0.07294849207970563
1903,13.0,299.9726,3739.0359,0.0,-0.009514959391053623,-0.00951482905209966,0.0,0.0,0.0,-0.2828182361894867,-0.4335550560610526,-0.42020024749053564,-0.001121519520885359,0.007183062998638123,-0.06403328745834344
1904,13.0,299.77574,3790.8234,0.0,-0.009519940889734513,-0.009519831262286838,0.0,0.0,0.0,-0.28722190218409477,-0.4394027453031746,-0.4256910092524316,0.0015722048567145387,-0.005037361219773845,-0.07168960887721353
1905,13.0,299.67015,3812.1905,0.0,-0.009524955378472755,-0.009524833472473793,0.0,0.0,0.0,-0.2956940510402307,-0.4391040999687006,-0.42401257059428255,0.0069130485656147735,-0.0051389488641997655,-0.06770155375562313
1906,13.0,299.99643,3744.3035,0.0,-0.009529936877153866,-0.00952983568266097,0.0,0.0,0.0,-0.2933403014554337,-0.4302955115493606,-0.4145389456043086,0.0072534986740395825,-0.006409688004786953,-0.07129579200059684
1907,13.0,300.2118,3677.8595,0.0,-0.00953495136589222,-0.009534837892847925,0.0,0.0,0.0,-0.28214888317342673,-0.42846468007617156,-0.4073638784661846,0.0023611653596288776,-0.0057745373471774645,-0.06859844322738923
1908,13.0,300.1447,3726.7924,0.0,-0.009539932864573109,-0.009539807193757466,0.0,0.0,0.0,-0.28961689104796173,-0.4274825671517446,-0.4157523733940646,-0.002787224665027657,0.0033642651254271166,-0.06999255884122774
1909,13.0,300.0157,3851.7653,0.0,-0.009544947353311573,-0.009544809403944643,0.0,0.0,0.0,-0.29412846817821975,-0.43807169944181057,-0.4386403050004276,-0.004824963733811845,0.005186174120885535,-0.06400127483468404
1910,13.0,299.97502000000003,3808.6359,0.0,-0.009549961842049814,-0.009549811614131598,0.0,0.0,0.0,-0.29129390102346975,-0.4370880159797286,-0.4293483050908786,0.002348514020205288,0.005459012988562635,-0.06485125589307064
1911,13.0,299.95811000000003,3702.4013,0.0,-0.009554943340730815,-0.009554813824318553,0.0,0.0,0.0,-0.27755485788253176,-0.4328209158335986,-0.41506175225840564,-0.0001027738563179899,-0.0019225011216610882,-0.06232822261406664
1912,13.0,300.05419,3730.4025,0.0,-0.009559957829469279,-0.00955981603450573,0.0,0.0,0.0,-0.28960496509428474,-0.43312608649871653,-0.4112181602565726,0.004765161915559865,-0.0025988096943575473,-0.06351853310279114
1913,13.0,299.95866,3808.6496,0.0,-0.009564939328150168,-0.009564818244692797,0.0,0.0,0.0,-0.29578119054883073,-0.4458477961417515,-0.4161053998614056,0.0016387039541524884,-0.00030426380627849973,-0.07006428580255664
1914,13.0,299.78156,3794.9572,0.0,-0.00956995381688841,-0.009569820454879974,0.0,0.0,0.0,-0.2950608913177427,-0.4396476275873426,-0.41886369968112863,0.001355451408572639,0.005568557686023855,-0.07048409963698903
1915,13.0,299.89655,3751.5222,0.0,-0.0095749353155693,-0.009574822665066929,0.0,0.0,0.0,-0.2810645941089157,-0.43645520076227456,-0.4228492885519756,-0.0022854311968044977,0.002083849142409898,-0.07683106685263592
1916,13.0,300.20572999999996,3681.2469,0.0,-0.009579949804307875,-0.009579824875254106,0.0,0.0,0.0,-0.27301452471443577,-0.43162906013847163,-0.4143635621444996,-0.004655839322520565,-0.003260088626995697,-0.07076885635234234
1917,13.0,300.15727999999996,3688.7140000000004,0.0,-0.009584964293046117,-0.009584827085441283,0.0,0.0,0.0,-0.27957010087392076,-0.4288778733344506,-0.41282897460304757,-0.0014329438642955486,-0.0036243204245425768,-0.07405195588910903
1918,13.0,300.15631,3846.94,0.0,-0.009589945791727006,-0.009589829295628238,0.0,0.0,0.0,-0.30235757886536974,-0.4409083133617626,-0.4261078096810666,0.002382994819783278,-0.003129027259685947,-0.06361785289084324
1919,13.0,300.05352,3839.6916,0.0,-0.009594960280465581,-0.009594831505815415,0.0,0.0,0.0,-0.30217325853967875,-0.4371339466067616,-0.4278631641543066,0.002297303144251168,-0.004117299326170806,-0.06782053667511584
1920,13.0,299.85407999999995,3758.5513,0.0,-0.00959994177914647,-0.00959983371600237,0.0,0.0,0.0,-0.2823149447323157,-0.43987681462746153,-0.4203139949467616,-0.0027857850392855772,0.000863508524774156,-0.06486643032656823
1921,13.0,300.00119,3790.9149,0.0,-0.009604956267884712,-0.009604835926189548,0.0,0.0,0.0,-0.2824558776887247,-0.4383696456337156,-0.4315179370000046,-0.004227006143648026,0.007564138761872372,-0.06890000672215124
1922,13.0,300.08702,3867.2113,0.0,-0.009609937766565824,-0.009609805227099089,0.0,0.0,0.0,-0.2933887449427147,-0.44404421096375163,-0.4381027150273715,-0.0007954511601399172,0.005127136293208955,-0.05913369734804154
1923,13.0,300.03659,3833.9612,0.0,-0.009614952255304066,-0.009614807437286044,0.0,0.0,0.0,-0.29915386443418773,-0.4398109027084566,-0.4264636935136897,-0.005922517762006994,-0.0013918370170136187,-0.06252445369468314
1924,13.0,300.06321,3791.7435,0.0,-0.009619933753984955,-0.009619809647473221,0.0,0.0,0.0,-0.2950925756483697,-0.43653709163535664,-0.4209656971460796,0.002985805371301047,-0.0063736962466598435,-0.061688539587434844
1925,13.0,299.82141,3758.2287,0.0,-0.00962494824272353,-0.009624811857660398,0.0,0.0,0.0,-0.2948144688934227,-0.43316499530255653,-0.4144282176333806,0.0019688007743805082,0.00023674682818759278,-0.06984832471599293
1926,13.0,300.13211,3793.5677,0.0,-0.009629962731461994,-0.009629814067847353,0.0,0.0,0.0,-0.2915223686560177,-0.4315385262420366,-0.4300889605164756,0.004611166949461745,0.006321065402015583,-0.06686073551789085
1927,13.0,300.23919,3864.3159,0.0,-0.009634944230142661,-0.00963481627803442,0.0,0.0,0.0,-0.29376826790017074,-0.4434428774269045,-0.4374444064374016,-0.003078784442877367,0.002425486475976878,-0.07120718023960153
1928,13.0,299.91101000000003,3849.6173,0.0,-0.009639958718881236,-0.009639818488221374,0.0,0.0,0.0,-0.2934148867952947,-0.4361348718756606,-0.44063776545256156,-0.003020797254229477,-0.0007497976772742694,-0.061556661033919435
1929,13.0,299.82428,3761.2658,0.0,-0.009644940217562126,-0.009644820698408552,0.0,0.0,0.0,-0.28321570380621375,-0.4378048296304726,-0.42231036108878767,0.0007553211467493933,0.0012938771119207287,-0.07002893755956803
1930,13.0,299.89137999999997,3732.7065,0.0,-0.009649954706300368,-0.009649822908595729,0.0,0.0,0.0,-0.2861979116330347,-0.4328511512165826,-0.4156005176015776,0.00035049551044621366,-0.0035483395353188467,-0.06157236337071914
1931,13.0,299.91526,3836.5690000000004,0.0,-0.009654936204981257,-0.009654825118782684,0.0,0.0,0.0,-0.2974474600732787,-0.4443050114069906,-0.42446871552430054,-0.001091144005412529,-0.0028931079832525274,-0.07220600064492744
1932,13.0,300.10067999999995,3888.0936,0.0,-0.009659950693719721,-0.009659827328969861,0.0,0.0,0.0,-0.2991654864128347,-0.4481244171289365,-0.43459346516103564,-0.0035825684409219764,-0.005375221460943056,-0.06583987692288994
1933,13.0,299.65545,3768.5899,0.0,-0.009664932192400721,-0.009664829539156816,0.0,0.0,0.0,-0.2756007341371748,-0.44437695216409057,-0.42557955174143164,0.0009726823524337739,0.0016142783445918685,-0.07640849799118163
1934,13.0,299.76613,3743.6304,0.0,-0.009669946681138963,-0.009669831749343993,0.0,0.0,0.0,-0.2766796732411577,-0.4406954599132556,-0.42059504012699855,-0.002085643810987018,0.0068429456415461535,-0.06983944155236622
1935,13.0,299.88504,3808.4886,0.0,-0.009674961169877427,-0.00967483395953117,0.0,0.0,0.0,-0.2906864879860227,-0.4405458940659946,-0.4264530543876396,-0.0013321889088018088,-0.0007327360046704134,-0.06747320771308714
1936,13.0,300.18212,3863.3079,0.0,-0.009679942668558317,-0.00967980326044049,0.0,0.0,0.0,-0.30333127168146573,-0.4453828055383606,-0.4256350778469116,4.310335831872026e-05,-0.006134461615899224,-0.07073360740786354
1937,13.0,299.93947000000003,3831.5959,0.0,-0.00968495715729667,-0.009684805470627667,0.0,0.0,0.0,-0.2955612443496237,-0.4416959126644926,-0.4274523216362596,0.0017174332842724682,-0.0037333176629747666,-0.07115239279344444
1938,13.0,299.89359,3766.6504,0.0,-0.009689938655977781,-0.009689807680814844,0.0,0.0,0.0,-0.2867738024598707,-0.43485845032718756,-0.4233354054199516,0.006759922461477404,-0.0034891861971308663,-0.07072195908471393
1939,13.0,300.0453,3751.6715,0.0,-0.009694953144716245,-0.009694809891001799,0.0,0.0,0.0,-0.27905168159275673,-0.4317430913047256,-0.42961970413016365,-0.004253776312615036,-0.004339900747264856,-0.06527916052955153
1940,13.0,300.03911,3836.3187,0.0,-0.009699934643396912,-0.009699812101188976,0.0,0.0,0.0,-0.28970378737653774,-0.4404776820692626,-0.4359636224762596,-0.004132678436188606,-0.0027386263531313775,-0.06747964083797203
1941,13.0,299.83931,3919.974,0.0,-0.009704949132135487,-0.009704814311376042,0.0,0.0,0.0,-0.30486778439810774,-0.4517233193641205,-0.43498311048699057,0.0018613093269219281,0.006282535249737953,-0.06479705815847174
1942,13.0,299.93901,3867.8195,0.0,-0.009709963620873951,-0.009709816521562997,0.0,0.0,0.0,-0.30911794300256573,-0.43937563073049857,-0.4272269849465206,0.003913660779373247,0.009227142986548111,-0.06327743834749694
1943,13.0,299.68451,3782.4774,0.0,-0.009714945119554619,-0.009714818731750174,0.0,0.0,0.0,-0.2927379040059817,-0.43882424029108064,-0.4182165267097576,0.003846736319543316,0.004583676764973676,-0.06622242747164474
1944,13.0,299.76068,3840.8407,0.0,-0.009719959608293083,-0.00971982094193713,0.0,0.0,0.0,-0.2947667954762177,-0.44350478700801454,-0.42924807439098656,0.0002565175971863158,-0.003916321371485826,-0.06660269719442444
1945,13.0,299.84128,3899.9717,0.0,-0.009724941106973972,-0.009724823152124307,0.0,0.0,0.0,-0.2919942088300847,-0.4498829633399916,-0.4436168524690746,-0.0004243693055569896,-0.0006657335853777893,-0.07173101230279973
1946,13.0,299.91528999999997,3824.0009999999997,0.0,-0.009729955595712325,-0.009729825362311262,0.0,0.0,0.0,-0.2904757420977237,-0.4420798533923846,-0.42984522320492063,-0.0032724556484412266,-0.0043451020640031856,-0.06949064439094264
1947,13.0,300.13507000000004,3763.7899,0.0,-0.009734937094393215,-0.009734827572498439,0.0,0.0,0.0,-0.2858498804886867,-0.4375325693286026,-0.4207157080814076,-0.002873999606241677,-0.001908712307675238,-0.07438986365170792
1948,13.0,300.02767,3750.9052,0.0,-0.009739951583131679,-0.009739829782685616,0.0,0.0,0.0,-0.2958099364541677,-0.42969004395210564,-0.4146815504233826,-0.0014509016958178488,-0.005235524467006035,-0.06884758318847743
1949,13.0,299.93335,3809.5842,0.0,-0.009744933081812568,-0.009744831992872571,0.0,0.0,0.0,-0.28947571491152874,-0.44705594489848655,-0.4214868218050106,-0.0011696200230075088,2.8505296941753773e-06,-0.07798243712676733
1950,13.0,299.98305,3894.0611,0.0,-0.009749947570550921,-0.009749801293782112,0.0,0.0,0.0,-0.29415501533083976,-0.45091176682902656,-0.4386305575344656,0.005504954963996755,-0.00028348976769326177,-0.06919448151921363
1951,13.0,299.95332,3872.2415,0.0,-0.009754962059289385,-0.00975480350396929,0.0,0.0,0.0,-0.28897031589414973,-0.44745059567993556,-0.4406438044231576,0.00016057118216214185,-0.0031078487113957868,-0.07400213438169202
1952,13.0,299.80402000000004,3801.1426,0.0,-0.009759943557970496,-0.009759805714156355,0.0,0.0,0.0,-0.2844349476515437,-0.4451563542735116,-0.4258611238117206,0.004562897741197946,0.00044655676723672155,-0.07003276156544543
1953,13.0,299.93451,3792.3135,0.0,-0.009764958046708738,-0.009764807924343422,0.0,0.0,0.0,-0.29141909820582573,-0.43994585748927556,-0.4214036542368026,-0.0016451057696092984,0.002996460202727597,-0.06886195715439603
1954,13.0,299.93122999999997,3860.012,0.0,-0.009769939545389628,-0.009769810134530488,0.0,0.0,0.0,-0.3038981445824117,-0.44563193334044754,-0.42381720584250165,0.004688074658551946,0.007002152360858633,-0.06636516603973194
1955,13.0,300.04899,3859.3871,0.0,-0.009774954034128203,-0.009774812344717665,0.0,0.0,0.0,-0.3007789858720747,-0.44217963826223255,-0.43019869550230555,-0.006205794524264234,0.004329424146530896,-0.06543028880846674
1956,13.0,299.75022,3789.2677,0.0,-0.00977993553280887,-0.009779814554904842,0.0,0.0,0.0,-0.2809266502403017,-0.4396255792651666,-0.43129053328006156,-0.0024702967523743077,0.0010889304592440689,-0.07277002732634252
1957,13.0,299.65411,3813.362,0.0,-0.009784950021547334,-0.009784816765091797,0.0,0.0,0.0,-0.28585981033966673,-0.44409920004667863,-0.42920781796451357,-0.003584402626252997,0.0030235674800028773,-0.07288373323931444
1958,13.0,299.88481,3923.8341,0.0,-0.009789931520228223,-0.009789818975278752,0.0,0.0,0.0,-0.30331330675719276,-0.44352534585254355,-0.44590893565278555,0.0003197746388092997,-0.0015441362077443785,-0.06877152559622114
1959,13.0,300.09612999999996,3944.6844,0.0,-0.009794946008966576,-0.009794821185465707,0.0,0.0,0.0,-0.31372348894709773,-0.4467250376808286,-0.4386370220701036,0.007523710184207384,-0.004488481107478595,-0.06517469241774135
1960,13.0,300.08482000000004,3880.9717,0.0,-0.00979996049770504,-0.009799823395652885,0.0,0.0,0.0,-0.3071098434243817,-0.44040017856911357,-0.43220846694315457,0.0005878112582999545,-0.004121280791113746,-0.06613475499349214
1961,13.0,300.00417000000004,3834.6832,0.0,-0.00980494199638593,-0.009804825605840062,0.0,0.0,0.0,-0.29495043692434175,-0.43934353096733064,-0.4313539627363216,0.006276063418699233,0.003959501835097406,-0.06713279316974084
1962,13.0,300.16357999999997,3854.9079,0.0,-0.009809956485124283,-0.009809827816027128,0.0,0.0,0.0,-0.2852175009687757,-0.45090694375855056,-0.4356713099549106,-0.0009116295046808272,0.0006082986585644035,-0.06745546165083573
1963,13.0,300.10363,3930.4521,0.0,-0.009814937983805172,-0.009814830026214305,0.0,0.0,0.0,-0.29215509268096274,-0.4541919512452556,-0.4484122612173445,-0.0004221089674989117,0.003038262443553157,-0.06893409853501584
1964,13.0,300.089,3935.9517,0.0,-0.009819952472543636,-0.00981983223640126,0.0,0.0,0.0,-0.3001483288773337,-0.45690985278349155,-0.4393728645577256,-0.003027802561445847,0.0030449916401172777,-0.06810533797347353
1965,13.0,300.07561,3821.4519,0.0,-0.009824933971224747,-0.009824801537310801,0.0,0.0,0.0,-0.29391028503418676,-0.4463859231373606,-0.4213297477745086,3.027397768030897e-06,0.0011779362732032587,-0.07698705974528122
1966,13.0,300.05949,3806.4954,0.0,-0.00982994845996299,-0.009829803747497978,0.0,0.0,0.0,-0.2925635844587777,-0.4425873397049696,-0.4219286393786146,-0.0044990165780433656,0.0020769705927810383,-0.07365920495159753
1967,13.0,299.98306,3901.2276,0.0,-0.009834962948701342,-0.009834805957684933,0.0,0.0,0.0,-0.29538479697720965,-0.4516210722965296,-0.4388698872080856,-0.0012896531762288587,-0.001968799963780428,-0.07599840831795893
1968,13.0,300.16553999999996,3930.0583,0.0,-0.009839944447382454,-0.00983980816787211,0.0,0.0,0.0,-0.29570991853679673,-0.45259171522982455,-0.4463379457451256,0.0028546472386067473,0.0002975462418255277,-0.07421846530454224
1969,13.0,300.15379,3849.3394,0.0,-0.009844958936120696,-0.009844810378059288,0.0,0.0,0.0,-0.28405185805373573,-0.44750931352323053,-0.4385418778857136,0.0025653561277309373,-0.0024428633098918374,-0.07780525413478072
1970,13.0,300.30753,3844.1129,0.0,-0.009849940434801585,-0.009849812588246243,0.0,0.0,0.0,-0.2959762715905837,-0.4424315119720906,-0.43010656067071257,0.001009182184558527,-0.00943580664589161,-0.06604775632665603
1971,13.0,300.07918,3903.5914,0.0,-0.009854954923540049,-0.00985481479843342,0.0,0.0,0.0,-0.3097990193222827,-0.44301640045981455,-0.4337789032731446,0.0018695031765055981,-0.007862321142375683,-0.06210384952517274
1972,13.0,299.89547999999996,3948.6075,0.0,-0.009859936422220827,-0.009859817008620375,0.0,0.0,0.0,-0.30991738719896467,-0.4539172591431455,-0.4364434470611146,0.0034013139060585463,-0.005114114610873815,-0.06271256357574814
1973,13.0,300.00173,3962.9348,0.0,-0.009864950910959291,-0.00986481921880733,0.0,0.0,0.0,-0.3053302418762487,-0.45457055214512054,-0.4447324408291745,0.006093196904251714,0.002780252795064588,-0.06440592335486973
1974,13.0,300.07567,3905.9889,0.0,-0.00986993240964018,-0.009869821428994507,0.0,0.0,0.0,-0.2911437880211547,-0.4514572905503656,-0.4447220144856455,-0.0038094339224118558,0.004733304724465806,-0.06568238239359643
1975,13.0,300.01256,3862.9184,0.0,-0.009874946898378534,-0.009874823639181574,0.0,0.0,0.0,-0.28805528012634274,-0.44723800567645455,-0.4389374507247536,0.0016128194670978887,0.007197085974722083,-0.06701927065503703
1976,13.0,299.84085,3921.9594,0.0,-0.009879961387116998,-0.00987982584936875,0.0,0.0,0.0,-0.30326321167224873,-0.4483540094690956,-0.44056050513243655,-0.001165022198028739,0.006372126418279915,-0.06889682207708693
1977,13.0,299.98373,3934.9929,0.0,-0.009884942885797887,-0.009884828059555706,0.0,0.0,0.0,-0.3121296364072967,-0.4472002925077326,-0.4368096660447576,0.0025908129219183278,0.0054347321724413054,-0.06658532299495974
1978,13.0,300.0637,3818.1796,0.0,-0.00988995737453624,-0.009889830269742883,0.0,0.0,0.0,-0.28884708441698775,-0.44509661304761555,-0.42668757112328454,-0.0027724384076433673,-0.005296881320186485,-0.07276450815304784
1979,13.0,300.30399,3811.4305,0.0,-0.00989493887321724,-0.009894799570652424,0.0,0.0,0.0,-0.2872817751325037,-0.4418553678327296,-0.42944254748267957,-0.0028288642792121672,-0.007367556286121193,-0.07369583799571293
1980,13.0,300.08799,3914.4731,0.0,-0.009899953361955594,-0.009899801780839379,0.0,0.0,0.0,-0.2909395168009947,-0.45612011552305054,-0.4428424558151476,-0.00014974074436076087,-0.0007130701475870444,-0.07752132929775953
1981,13.0,300.19961,3975.6796,0.0,-0.009904934860636705,-0.009904803991026556,0.0,0.0,0.0,-0.3021649194913557,-0.46362535020625956,-0.4427170357177696,0.0014471427405968686,0.0014787997134711687,-0.07582203592605233
1982,13.0,300.13153,3915.205,0.0,-0.009909949349374947,-0.009909806201213733,0.0,0.0,0.0,-0.3006298455898557,-0.45532970951754353,-0.4341650224887516,-0.0016590132351818581,9.429386591933e-06,-0.07208791850477363
1983,13.0,300.12942000000004,3861.4676,0.0,-0.009914930848055836,-0.009914808411400688,0.0,0.0,0.0,-0.3000981729973837,-0.44881865556745254,-0.42487289085668956,-0.002103484612122768,-0.002288600136492248,-0.06929145664653434
1984,13.0,299.73579,3858.4216,0.0,-0.0099199453367943,-0.009919810621587866,0.0,0.0,0.0,-0.2947155148886567,-0.44999967961901055,-0.4281486372374806,0.0023384760554396177,1.6720648083949485e-05,-0.07081653990204834
1985,13.0,299.97021,3933.1697,0.0,-0.009924959825532653,-0.00992481283177482,0.0,0.0,0.0,-0.3001138378439297,-0.45692755426273857,-0.43854397531342054,0.0019235422361388382,0.0008898610421824472,-0.07170720903145053
1986,13.0,299.91254,3946.7555,0.0,-0.009929941324213543,-0.009929815041961998,0.0,0.0,0.0,-0.2983974529695357,-0.45628014824384455,-0.44503751016928256,-0.0014161948401425486,-0.0006687419147921883,-0.07309891108355084
1987,13.0,300.14981,3883.2816,0.0,-0.009934955812952007,-0.009934817252149175,0.0,0.0,0.0,-0.29657354199452973,-0.44700374225333456,-0.43684336674308355,-0.0027930500425025775,0.0009565322908123873,-0.06887989472091634
1988,13.0,299.91775,3834.6218,0.0,-0.009939937311632785,-0.00993981946233613,0.0,0.0,0.0,-0.2977521139808457,-0.44401261782563356,-0.42386455501967457,-0.0026126075262692876,0.006624015732189453,-0.07354511805658803
1989,13.0,299.81324,3949.5725,0.0,-0.009944951800371249,-0.009944821672523196,0.0,0.0,0.0,-0.3117623129810447,-0.4505215743480176,-0.4382875318456116,-0.002449088921156258,0.006657292891973653,-0.06444440456716753
1990,13.0,300.07231,4041.9875,0.0,-0.009949933299052138,-0.009949823882710152,0.0,0.0,0.0,-0.3160393936406597,-0.4621166816023656,-0.4505071963290985,-0.0002586643600406848,-0.003206212903278577,-0.06990290241937934
1991,13.0,300.25917000000004,3942.4434,0.0,-0.00995494778779038,-0.009954826092897329,0.0,0.0,0.0,-0.3017699647348767,-0.4525718960578686,-0.4440625001280566,0.003597104222881547,-0.007905378394775103,-0.06855409124401203
1992,13.0,300.03053,3871.3962,0.0,-0.009959962276528955,-0.009959828303084506,0.0,0.0,0.0,-0.2892047920997907,-0.4515750707419896,-0.4360279030626036,0.004775152966845906,-0.004140346104995346,-0.07831093990193802
1993,13.0,300.38259,3933.8109,0.0,-0.009964943775209845,-0.009964797603994047,0.0,0.0,0.0,-0.30160251502335067,-0.45735553083997654,-0.4368222506109996,0.006969485785584693,-0.0027431688546546876,-0.06987581925745642
1994,13.0,300.07582,3923.4501,0.0,-0.009969958263948087,-0.009969799814181002,0.0,0.0,0.0,-0.2998855728614017,-0.45463004005849156,-0.43811523879860764,-0.0006281491196834914,-0.002959412840646307,-0.07375625809917592
1995,13.0,300.17626,3926.1999,0.0,-0.009974939762629198,-0.009974802024368179,0.0,0.0,0.0,-0.3050004188361977,-0.4535387393032886,-0.4349275742490096,0.002011000411895288,-0.0005221125980435015,-0.06369764937596853
1996,13.0,300.31255,3938.191,0.0,-0.009979954251367551,-0.009979804234555134,0.0,0.0,0.0,-0.2982634506438107,-0.4587403498841475,-0.4401079167102696,-0.0004539204610134616,0.004731047608543045,-0.07122013869513043
1997,13.0,299.92021,3904.1145,0.0,-0.009984935750048551,-0.009984806444742311,0.0,0.0,0.0,-0.2928342235604877,-0.4517435843661206,-0.44217550420182455,0.0005911232182393195,0.002534242459560258,-0.07199786590213614
1998,13.0,299.98994,3972.0202,0.0,-0.009989950238786904,-0.009989808654929266,0.0,0.0,0.0,-0.2907100561833487,-0.46744059147029454,-0.4492443219344625,-0.0021630953314058883,5.3401472007814947e-05,-0.07598319234120722
1999,13.0,299.98431,4032.1752,0.0,-0.009994931737467794,-0.009994810865116444,0.0,0.0,0.0,-0.3089098923595327,-0.4627221694646226,-0.45404852569360055,-0.004644505106901966,-0.0026688297345679873,-0.06813539299793973
2000,13.0,299.80613999999997,3927.0279,0.0,-0.009999946226206258,-0.00999981307530362,0.0,0.0,0.0,-0.2994042790639017,-0.4519844643123936,-0.4423296702045396,-0.0005521528493232436,0.001152264872644689,-0.07251111051503943
2001,13.0,300.10759,3832.6076,0.0,-0.01000496071494461,-0.010004815285490576,0.0,0.0,0.0,-0.2903804053958147,-0.4471003353853676,-0.4275362896720466,0.00023410505212936977,0.0016269375873662383,-0.06932892764848243
2002,13.0,299.98855,3873.1905,0.0,-0.0100099422136255,-0.010009817495677753,0.0,0.0,0.0,-0.29256119318854173,-0.4467382909921366,-0.4380537243850366,-0.0012192962303601688,-0.004620358951718926,-0.06987079151046023
2003,13.0,299.81886000000003,3960.6082,0.0,-0.010014956702363964,-0.01001481970586482,0.0,0.0,0.0,-0.3025591953702677,-0.45431181873208554,-0.4470549721783906,0.004269189467836196,-0.007097123583456563,-0.06764578041711873
2004,13.0,299.96305,3994.3095,0.0,-0.010019938201044631,-0.010019821916051996,0.0,0.0,0.0,-0.3051774640261707,-0.4614529014618555,-0.44753998460375755,0.008048408576241083,-0.006976801248656675,-0.07409488020309533
2005,13.0,300.06984,3983.6722,0.0,-0.010024952689783206,-0.010024824126238951,0.0,0.0,0.0,-0.3137464593268647,-0.4516291377673256,-0.4455612591459726,0.008193494135534912,-0.0016357160822576084,-0.06971861654419173
2006,13.0,300.24837,3946.5039,0.0,-0.010029934188464096,-0.010029826336425907,0.0,0.0,0.0,-0.3023308797252347,-0.4555433127711246,-0.44176444890125655,-0.0002578246594178127,0.0019384842300634983,-0.06554885730866854
2007,13.0,300.18387,3954.1496,0.0,-0.010034948677202338,-0.010034828546613084,0.0,0.0,0.0,-0.3073021582933617,-0.4524220059705756,-0.44223858915305053,-0.0006411530600093804,0.007031025226433163,-0.06459500088978024
2008,13.0,299.92989,4037.6723,0.0,-0.01003993017588345,-0.010039797847522625,0.0,0.0,0.0,-0.3078460810795427,-0.4640423836824175,-0.4554630937607076,-0.0028327238501680775,0.007919563389550053,-0.06700279419516095
2009,13.0,299.93505,4004.5218,0.0,-0.010044944664621802,-0.01004480005770958,0.0,0.0,0.0,-0.3094893396942197,-0.46178363642699655,-0.4460016683019376,-0.002708046870413417,0.008720831030829011,-0.07145618239867613
2010,13.0,299.85933,3845.0184,0.0,-0.010049959153360044,-0.010049802267896757,0.0,0.0,0.0,-0.28209278964789075,-0.44958292985288056,-0.43711388425478154,-0.0024110313487252675,-0.004995449953237525,-0.07244796983505793
2011,13.0,299.80052,3851.6206,0.0,-0.010054940652041156,-0.010054804478083712,0.0,0.0,0.0,-0.2929767878495577,-0.45284128886195557,-0.42497842085460463,-0.0017714827803817382,-0.008788031803961212,-0.07827263904815802
2012,13.0,299.84993,4032.2479,0.0,-0.01005995514077962,-0.01005980668827089,0.0,0.0,0.0,-0.3112988017227997,-0.46335699091727456,-0.45104687359736056,-0.0010220877686972093,-0.005680634596809985,-0.07191781205148542
2013,13.0,299.86691,4033.5805,0.0,-0.010064936639460509,-0.010064808898458066,0.0,0.0,0.0,-0.3167192844577597,-0.4637191670330186,-0.44566930200413557,0.0012764769732534688,0.0016195524126873784,-0.07234733383512593
2014,13.0,300.0855,3913.2418,0.0,-0.010069951128198862,-0.010069811108645133,0.0,0.0,0.0,-0.29099003745098073,-0.4579442088830746,-0.44059356748319956,-0.0005520802600860794,0.0028406361175489577,-0.07333976975157173
2015,13.0,299.97682000000003,3940.3956,0.0,-0.010074932626879751,-0.010074813318832199,0.0,0.0,0.0,-0.2982975059796717,-0.45876407006898856,-0.4407202845407056,0.003527840269895727,0.003271546661776517,-0.07203119879067583
2016,13.0,300.2101,4035.5784,0.0,-0.010079947115618215,-0.010079815529019265,0.0,0.0,0.0,-0.30990005048975366,-0.46802019079249657,-0.44879484419010257,0.0016542405232358281,0.002189879280574258,-0.07630043588126673
2017,13.0,300.04425,4046.993,0.0,-0.010084961604356568,-0.010084817739206442,0.0,0.0,0.0,-0.3165005136286687,-0.4657050764340126,-0.4479792183896065,0.003753714995437827,0.0038682120540878065,-0.07549724671249813
2018,13.0,299.8795,3971.2193,0.0,-0.010089943103037458,-0.01008981994939362,0.0,0.0,0.0,-0.3069001513161867,-0.45460840716885653,-0.4456429473690346,-0.0025198032403352176,-0.005744166897955135,-0.06844253443450224
2019,13.0,299.95025,3875.6198,0.0,-0.010094957591775922,-0.010094822159580574,0.0,0.0,0.0,-0.2889193190166167,-0.45230024370605854,-0.4368720822509176,-0.001107619046738489,-0.003986143523951736,-0.07248995486620154
2020,13.0,299.85191000000003,3895.7253,0.0,-0.010099939090456589,-0.01009982436976753,0.0,0.0,0.0,-0.2902931746947057,-0.45294328261702155,-0.44096675762753057,-0.004426562305792686,0.0007915737965122514,-0.06984130390605003
2021,13.0,299.7896,4038.7842,0.0,-0.010104953579195053,-0.010104826579954485,0.0,0.0,0.0,-0.3112388578468837,-0.4653819509771226,-0.4510687395345186,0.0003202096169447287,0.005813556189978324,-0.07743983055246623
2022,13.0,299.80491,4058.3902,0.0,-0.010109935077875942,-0.010109795880864247,0.0,0.0,0.0,-0.3190203045073527,-0.46248578834879356,-0.4521432000730595,0.0026958203867567575,0.0015887437327967984,-0.06962702481465234
2023,13.0,299.72581,3917.8928,0.0,-0.010114949566614295,-0.010114798091051203,0.0,0.0,0.0,-0.3052380969121547,-0.4540072154870236,-0.4316962690176046,0.0017325129788857184,-0.0006243561901866585,-0.07533770744450283
2024,13.0,299.58515,3920.9444,0.0,-0.010119931065295407,-0.010119800301238158,0.0,0.0,0.0,-0.3004734403044197,-0.45930521654989553,-0.4320905448965166,0.0044918293924340455,-0.004096934620360966,-0.06891822597219933
2025,13.0,299.73705,4050.5029999999997,0.0,-0.01012494555403387,-0.010124802511425335,0.0,0.0,0.0,-0.3151827818736187,-0.46592998755870957,-0.4501390015077606,-0.0012928258649419788,-0.0015144363274382287,-0.07026741914285434
2026,13.0,299.66519,4031.9684,0.0,-0.010129960042772224,-0.010129804721612512,0.0,0.0,0.0,-0.3056582815961237,-0.46218565353667257,-0.4577737802162546,0.005214807960761475,-0.004598863661447505,-0.06754027271070594
2027,13.0,299.93769,3945.8226,0.0,-0.010134941541453113,-0.010134806931799578,0.0,0.0,0.0,-0.29295713079761776,-0.4612899201832706,-0.44518448209628764,0.0023569942142672175,-0.00013722608224315988,-0.07449766231659682
2028,13.0,299.94345,3929.9358,0.0,-0.010139956030191577,-0.010139809141986755,0.0,0.0,0.0,-0.29516634025564975,-0.45618456836191157,-0.44325143395301053,0.007419697933617173,0.004493206905944996,-0.07788853518699992
2029,13.0,300.04233999999997,3980.9503,0.0,-0.010144937528872466,-0.01014481135217371,0.0,0.0,0.0,-0.3067274327041407,-0.4594270801394225,-0.44395496389494354,-0.001010140597563115,0.001069419619293499,-0.07722338614560482
2030,13.0,300.04072,4004.5032,0.0,-0.010149952017610708,-0.010149813562360888,0.0,0.0,0.0,-0.3072859665567637,-0.4596232858887866,-0.4503597380420456,-0.004493731870821805,-0.0036595205303665565,-0.07680362702667783
2031,13.0,300.04092,4019.9551,0.0,-0.010154933516291709,-0.010154815772548065,0.0,0.0,0.0,-0.3088001979037067,-0.46203663484446555,-0.45112912924047854,-0.008458368553450982,-0.0029420523200579573,-0.06587363436322154
2032,13.0,299.9236,3955.1139,0.0,-0.010159948005030173,-0.01015981798273502,0.0,0.0,0.0,-0.29191154788692675,-0.4601804923837786,-0.45016381600270955,-0.0025766170853673076,-0.002276977955195228,-0.07076754925971333
2033,13.0,300.0306,3946.8424,0.0,-0.01016492950371084,-0.010164820192922197,0.0,0.0,0.0,-0.29867305699673574,-0.4596747285963636,-0.44139374121967057,-0.001164123647840059,0.002306302628989348,-0.07121606644297852
2034,13.0,300.0859,4061.5197,0.0,-0.010169943992449304,-0.010169822403109152,0.0,0.0,0.0,-0.3131413767646477,-0.46641008572109155,-0.45504912029985156,-0.0007290650400881173,-0.0010662823943338791,-0.07332476351759074
2035,13.0,299.93048,4097.5592,0.0,-0.010174958481187879,-0.010174824613296107,0.0,0.0,0.0,-0.3284673012846987,-0.4670436608761206,-0.4500447185859555,0.005211143035149776,0.0025873821584047377,-0.07270918773733814
2036,13.0,299.81534,4007.3266,0.0,-0.010179939979868546,-0.01017979391420587,0.0,0.0,0.0,-0.30572586537779367,-0.4594991931490396,-0.4529021750604646,0.008055135239679953,0.0008661615276434873,-0.07318092861289534
2037,13.0,299.83867999999995,3957.3413,0.0,-0.01018495446860701,-0.010184796124392825,0.0,0.0,0.0,-0.3018825976159927,-0.4579201137956966,-0.44313023910854954,0.006352888547906284,0.0016161285392744685,-0.07169851838534283
2038,13.0,299.73575,4009.0294,0.0,-0.010189935967288122,-0.010189798334580003,0.0,0.0,0.0,-0.2973247554861687,-0.45839804360286457,-0.46292202291434653,0.0005661822696778394,-0.0015610368141123385,-0.06264789998086634
2039,13.0,299.64922,4020.7795,0.0,-0.010194950456026475,-0.010194800544766958,0.0,0.0,0.0,-0.30276444944302466,-0.4618059684592006,-0.45764616136615954,-0.00043842782645445757,0.003084005315342627,-0.07220076822141103
2040,13.0,299.87854,4007.0049,0.0,-0.010199931954707364,-0.010199802754954024,0.0,0.0,0.0,-0.30237099429669373,-0.4630214531466596,-0.4526369872442925,-0.005137182363975425,0.003318796641764726,-0.07023321485922863
2041,13.0,299.80525,4008.2355,0.0,-0.010204946443445828,-0.010204804965141201,0.0,0.0,0.0,-0.3108629825897877,-0.4650512464094846,-0.44248926722779053,-0.006973438879524833,0.005215477313777535,-0.07910195689725533
2042,13.0,299.97831,4006.2237,0.0,-0.01020996093218407,-0.010209807175328156,0.0,0.0,0.0,-0.3073998153379997,-0.46360246088650053,-0.4467896931697095,-0.006252034091252724,0.0015049204904490885,-0.07052458201823433
2043,13.0,299.96338,4025.281,0.0,-0.01021494243086496,-0.010214809385515333,0.0,0.0,0.0,-0.3087866000873647,-0.46566583325763955,-0.4491324692559236,-0.003413868378772577,0.0006260441736607495,-0.07669825408252832
2044,13.0,300.11286,4082.5731,0.0,-0.010219956919603534,-0.01021981159570251,0.0,0.0,0.0,-0.30557242891515074,-0.46986257331682557,-0.46556526818521454,0.0023282538818057675,-0.0036368851310826164,-0.06932074869367523
2045,13.0,300.03213999999997,4036.5135,0.0,-0.010224938418284424,-0.010224813805889466,0.0,0.0,0.0,-0.3075331286536567,-0.4681545477557566,-0.45131164598099155,0.008181903162340973,-0.0016063671917860985,-0.07736369899295263
2046,13.0,300.17331,3967.1747,0.0,-0.010229952907022666,-0.010229816016076643,0.0,0.0,0.0,-0.29890709750483374,-0.46045055393293155,-0.44656437674497257,0.0070600576788984425,0.0033713638543027068,-0.07573231972244802
2047,13.0,300.00947,4004.5835,0.0,-0.010234934405703555,-0.010234818226263598,0.0,0.0,0.0,-0.3123130448078977,-0.46340910236991756,-0.4415712423721886,0.006825544286978774,0.007821630639559842,-0.07880970719741252
2048,13.0,299.90335,4077.1436,0.0,-0.01023994889444213,-0.010239820436450775,0.0,0.0,0.0,-0.3096507403026487,-0.4705890027110185,-0.4591101051106396,-0.004277630449119256,0.005390482122024165,-0.07356415803921713
2049,13.0,299.73864,4029.3944,0.0,-0.010244930393122798,-0.010244822646637952,0.0,0.0,0.0,-0.30779060563656774,-0.46804641370508454,-0.4489982541476775,-0.0076975388117379315,-0.0011140907764521988,-0.07410154941525353
2050,13.0,299.65386,3997.6745,0.0,-0.010249944881861262,-0.010249791947547271,0.0,0.0,0.0,-0.29457046813684173,-0.46600272878338855,-0.45462001901500254,-0.007417094387485222,-0.006465999480419463,-0.07015932156918593
2051,13.0,299.90474,4014.864,0.0,-0.010254959370599726,-0.010254794157734448,0.0,0.0,0.0,-0.3085168931757467,-0.46288977116366353,-0.4490117303740076,-0.0005009182531842825,0.0002445220534924477,-0.07126007392132172
2052,13.0,300.13365,4076.1253,0.0,-0.010259940869280615,-0.010259796367921625,0.0,0.0,0.0,-0.3169677941772857,-0.46946998956558056,-0.4526025266083916,0.0003875591554566107,0.0023982475775136077,-0.07234235472413453
2053,13.0,300.18292,4109.2393,0.0,-0.010264955358018968,-0.01026479857810858,0.0,0.0,0.0,-0.32126608216149366,-0.4747063039623646,-0.4531337533708196,-0.0005689591423718954,0.0013885284514620886,-0.07821200920192434
2054,13.0,300.13149,4094.2454,0.0,-0.01026993685670008,-0.010269800788295647,0.0,0.0,0.0,-0.31561703046897566,-0.4690470285763375,-0.4598843092470476,0.0017151158799687584,-0.0003480524124675987,-0.07183522811533502
2055,13.0,300.03446,3977.815,0.0,-0.010274951345438321,-0.010274802998482602,0.0,0.0,0.0,-0.29572323264311073,-0.46429820906766556,-0.44913498211617153,0.006203886067700884,-0.00014087981144125488,-0.07509670084196733
2056,13.0,300.07641,3974.9669,0.0,-0.01027993284411921,-0.010279805208669779,0.0,0.0,0.0,-0.2951373511702887,-0.4611878555006976,-0.4519654658730186,0.003405012572898577,-0.005319335550352545,-0.07003627855654253
2057,13.0,300.01687999999996,4094.1788,0.0,-0.010284947332857786,-0.010284807418856956,0.0,0.0,0.0,-0.3098207738019297,-0.47497452139633556,-0.45973283848959856,-0.001827519665237148,-0.007284817728005533,-0.07390809261341083
2058,13.0,299.64286,4071.9276,0.0,-0.010289928831538675,-0.010289809629043911,0.0,0.0,0.0,-0.3132977921825847,-0.4721350197135986,-0.45233151260414456,-0.0014681038454155686,-0.002506768791048818,-0.07183165640873253
2059,13.0,299.86672999999996,4002.9999,0.0,-0.010294943320276917,-0.010294811839231088,0.0,0.0,0.0,-0.30247637230709373,-0.4660758955731095,-0.4482597265472905,-0.0026096871368310676,0.0054453210412863445,-0.07500747201166112
2060,13.0,300.02064,3983.2198,0.0,-0.010299957809015381,-0.010299814049418043,0.0,0.0,0.0,-0.2986585371228027,-0.46735221579657255,-0.4447885951497166,-0.0018475250725615282,0.008226201848762913,-0.07338412781444953
2061,13.0,300.08471000000003,4051.1702,0.0,-0.01030493930769627,-0.01030481625960522,0.0,0.0,0.0,-0.3062179604213597,-0.4709602170176546,-0.4542763955085896,-0.0007224993820901372,-8.663271231073303e-05,-0.07287224703618082
2062,13.0,300.22696,4094.0214,0.0,-0.010309953796434623,-0.010309818469792398,0.0,0.0,0.0,-0.3075697069822667,-0.4718534071133056,-0.4650571739225696,-0.00038433533814344464,-0.0021186488117943577,-0.07553764094098472
2063,13.0,300.22965,4086.3075,0.0,-0.010314935295115513,-0.010314820679979353,0.0,0.0,0.0,-0.3150791669183927,-0.4723753018423126,-0.4546809660085176,0.005549268545195165,-0.0029010529786116374,-0.07323324575530864
2064,13.0,300.19965,4038.6615,0.0,-0.010319949783853977,-0.01031982289016653,0.0,0.0,0.0,-0.3066958395660227,-0.46631423226163154,-0.4546421787946896,0.003431928953855017,-0.0018340725562838683,-0.08014690855313401
2065,13.0,300.16499,4040.0274,0.0,-0.010324931282534866,-0.010324792191076071,0.0,0.0,0.0,-0.3103604409376907,-0.4682807176582085,-0.4494263117849236,-0.0006438977822777634,0.0005526240714147495,-0.07376602380363972
2066,13.0,299.93063,4100.0912,0.0,-0.010329945771273219,-0.010329794401263026,0.0,0.0,0.0,-0.3106750652262417,-0.4723586440106685,-0.4632916362858246,-0.007258060427314794,0.0033660017347735068,-0.07953039247678863
2067,13.0,299.87264,4114.0472,0.0,-0.010334960260011683,-0.010334796611450203,0.0,0.0,0.0,-0.3135196736894827,-0.4691756404115306,-0.4678723170729025,-0.0018836510863268884,0.002852071050227497,-0.06453889013899254
2068,13.0,299.99934,4039.5065,0.0,-0.010339941758692572,-0.01033979882163727,0.0,0.0,0.0,-0.3051534297337987,-0.46725002952398753,-0.4555056502649075,0.0018615912130997485,0.00016644387841673183,-0.07665815065682043
2069,13.0,299.97614,4026.1824,0.0,-0.010344956247430925,-0.010344801031824447,0.0,0.0,0.0,-0.3098416872839937,-0.46160944860230557,-0.45240775967416963,0.004430254183857046,-0.006011521853441014,-0.06646886205496592
2070,13.0,299.94545,4108.1816,0.0,-0.010349937746112037,-0.010349803242011402,0.0,0.0,0.0,-0.3172109944662877,-0.4731373368450196,-0.4584363039266406,0.0053765572285498844,-0.006405246929598654,-0.07487427521976564
2071,13.0,299.90684,4129.8619,0.0,-0.010354952234850279,-0.010354805452198357,0.0,0.0,0.0,-0.3145814280717697,-0.4775164517897046,-0.4632770150868815,-0.0009560945059741808,4.8549182438681254e-05,-0.07392554381988313
2072,13.0,299.88253,4055.3967,0.0,-0.010359933733531168,-0.010359807662385534,0.0,0.0,0.0,-0.30863737874513775,-0.4651076945725556,-0.45899427035920753,-0.0006834408401503593,0.004947649879770025,-0.07406156555305743
2073,13.0,299.79826,4041.5849,0.0,-0.010364948222269632,-0.010364809872572489,0.0,0.0,0.0,-0.3034770783708557,-0.46749259146542654,-0.4575712315212646,-0.005378217033538695,0.006010873981327074,-0.07890773002533663
2074,13.0,299.87404,4070.4113,0.0,-0.010369929720950521,-0.010369812082759666,0.0,0.0,0.0,-0.3119551851375797,-0.46855413306519256,-0.4567940889595665,-0.004680269289056615,0.008730154147649131,-0.07469289534586483
2075,13.0,300.01075,4084.6052,0.0,-0.010374944209688874,-0.010374814292946843,0.0,0.0,0.0,-0.30943658989401374,-0.47278881934062356,-0.4593925688410166,-0.0035946972472689965,0.0016453405396574686,-0.08036452833011143
2076,13.0,300.02185,4086.1622,0.0,-0.010379958698427338,-0.01037981650313391,0.0,0.0,0.0,-0.31046847366335273,-0.4733680944227936,-0.4582547193762196,0.0027376719728621876,0.0007847477129735693,-0.07305741038595502
2077,13.0,300.15339,4075.8755,0.0,-0.010384940197108228,-0.010384818713320976,0.0,0.0,0.0,-0.3076427420494747,-0.4733506361235706,-0.45797098908321754,0.007716612535595363,-0.0030578067207570276,-0.07630691257590592
2078,13.0,300.16579,4047.2539,0.0,-0.01038995468584658,-0.010389820923508042,0.0,0.0,0.0,-0.3011017566914297,-0.47196063937138855,-0.45720170934229554,0.005730131256244925,-0.004428648182448546,-0.07279167744122923
2079,13.0,300.06154,4105.067,0.0,-0.01039493618452747,-0.010394790224417583,0.0,0.0,0.0,-0.30768535934868074,-0.48094995107856453,-0.4592025641822645,-0.0004895843719382155,-0.002324749961634958,-0.07231448528013402
2080,13.0,300.1629,4170.5816,0.0,-0.010399950673265934,-0.01039979243460476,0.0,0.0,0.0,-0.3237728933063967,-0.4777990371100935,-0.46618073656095654,-0.0042540976142217465,0.0006198637634832904,-0.07326989095842523
2081,13.0,299.93551,4106.815,0.0,-0.010404932171946824,-0.010404794644791715,0.0,0.0,0.0,-0.3210347065011587,-0.47398554876873156,-0.45334896769205957,-0.0014250476062662486,0.0007493469430997852,-0.07372324438441773
2082,13.0,299.9364,4052.8107,0.0,-0.010409946660685176,-0.010409796854978892,0.0,0.0,0.0,-0.30846723378834573,-0.47240736107547654,-0.45107865925299756,-0.0035146118845401863,0.004023073450346437,-0.08205717072816222
2083,13.0,299.88271000000003,4073.2467,0.0,-0.010414928159366177,-0.01041479906516607,0.0,0.0,0.0,-0.3074778254631987,-0.4713139122300615,-0.4593735298716376,-0.0025063280272553177,-0.00027231462220786076,-0.07014849701836763
2084,13.0,299.92522,4095.4016,0.0,-0.01041994264810453,-0.010419801275353024,0.0,0.0,0.0,-0.3080089407681157,-0.4731842908546536,-0.4637065925992776,-0.005119920533946816,0.0017108660050743285,-0.07893663399768922
2085,13.0,299.87066,4074.5844,0.0,-0.010424957136842994,-0.01042480348553998,0.0,0.0,0.0,-0.3125336901496737,-0.46226446412945055,-0.46377376094840655,-0.0008631842543446532,0.007394051256361044,-0.06746980116625094
2086,13.0,300.07872000000003,4054.4124,0.0,-0.010429938635523883,-0.010429805695726935,0.0,0.0,0.0,-0.3108889825873537,-0.4672003296065826,-0.4543508288609356,0.005058833002642945,0.00957440021046973,-0.07665632275364002
2087,13.0,299.7985,4016.3363,0.0,-0.010434953124262236,-0.010434807905914112,0.0,0.0,0.0,-0.3058672340317457,-0.4683412492191826,-0.44665745389915856,0.0006518122990738654,-0.00030575219974789266,-0.07366749029766523
2088,13.0,299.99318,4136.2248,0.0,-0.010439934622943126,-0.010439810116101289,0.0,0.0,0.0,-0.3142504904566087,-0.4828426921328635,-0.4602158750772706,-3.5169925156501363e-06,-0.005327767108409675,-0.07410564902515812
2089,13.0,300.05259,4246.3611,0.0,-0.01044494911168159,-0.010444812326288355,0.0,0.0,0.0,-0.33050005323781567,-0.4883403338629385,-0.47194735566257756,-0.0026356349520169175,-0.008468760547801591,-0.07178934815080702
2090,13.0,300.16437,4144.0437,0.0,-0.010449930610362479,-0.010449814536475532,0.0,0.0,0.0,-0.3132187485422837,-0.4807769082264865,-0.46569015126003954,0.0007595452952237843,-0.007272291524969293,-0.06825695565218703
2091,13.0,300.29068,4021.9136,0.0,-0.010454945099100832,-0.010454816746662488,0.0,0.0,0.0,-0.2995538955736677,-0.47084579068386156,-0.45216161082737655,0.0003183231377760477,-0.002142703470493368,-0.07710313463698693
2092,13.0,300.17975,4049.9911,0.0,-0.010459959587839296,-0.010459818956849665,0.0,0.0,0.0,-0.30836065001032675,-0.46680668194273256,-0.45592882403667156,-0.0006003796936003624,0.004253261885539266,-0.07502706117584443
2093,13.0,300.02375,4167.0025,0.0,-0.010464941086520185,-0.010464788257759206,0.0,0.0,0.0,-0.3256729398939167,-0.47890933630467153,-0.4620824337489856,0.003855078204966596,0.008450617798136042,-0.08146556236577501
2094,13.0,300.19813999999997,4104.4469,0.0,-0.010469955575258538,-0.01046979046794616,0.0,0.0,0.0,-0.3183409507128057,-0.4735669751524215,-0.4557414538281796,0.0009031431500582891,0.00973732484837414,-0.08273028290209322
2095,13.0,300.07547999999997,4016.3526,0.0,-0.010474937073939428,-0.010474792678133338,0.0,0.0,0.0,-0.29726900646566673,-0.4718391912144026,-0.4517627043955076,0.002238803960327748,0.0042681022504788965,-0.07862922303660012
2096,13.0,299.83193,4038.3209,0.0,-0.010479951562677892,-0.010479794888320515,0.0,0.0,0.0,-0.2975258552335157,-0.4725439573214576,-0.4574789143046536,-0.0028506089303331973,-0.002945225920696167,-0.07350313606519474
2097,13.0,299.95743,4174.7295,0.0,-0.010484933061358781,-0.01048479709850747,0.0,0.0,0.0,-0.31577649576971367,-0.4807764421314406,-0.47246059723573053,-0.004209531125798376,-0.004552834445179776,-0.06620352427777913
2098,13.0,300.09438,4254.5204,0.0,-0.010489947550097245,-0.010489799308694647,0.0,0.0,0.0,-0.33651739094418065,-0.48313825718703357,-0.4736123180943965,-0.006389536385473144,-0.002125870245257058,-0.07415152898968613
2099,13.0,299.97077,4192.2449,0.0,-0.010494929048778134,-0.010494801518881602,0.0,0.0,0.0,-0.3277817970620447,-0.4810647117848905,-0.4654912705304115,-0.002119132740042118,0.00017059256002367485,-0.06878549324884964
2100,13.0,300.16547,4083.1841,0.0,-0.010499943537516487,-0.01049980372906878,0.0,0.0,0.0,-0.3130793151960227,-0.47999626995194355,-0.44811042414505564,0.0013101582171775488,0.0029710723095470073,-0.08002067582917582
2101,13.0,300.0982,4082.2847,0.0,-0.010504958026254951,-0.010504805939255735,0.0,0.0,0.0,-0.3115845585160017,-0.46967848603865753,-0.45964955946387953,0.0062626991565052845,0.0017138537756441984,-0.06922512422873783
2102,13.0,299.96557,4185.1908,0.0,-0.01050993952493584,-0.0105098081494428,0.0,0.0,0.0,-0.3192430168793327,-0.48048146476232856,-0.4724690274765625,0.004238498324957215,-0.0026707534912078475,-0.07630445645766352
2103,13.0,299.86647999999997,4130.7933,0.0,-0.010514954013674194,-0.010514810359629978,0.0,0.0,0.0,-0.3134156838317197,-0.4737417911921745,-0.46850055239990457,-0.0014297045037258485,-0.003638742317190906,-0.07118722833188243
2104,13.0,300.20406,3998.6441,0.0,-0.010519935512355083,-0.010519812569816933,0.0,0.0,0.0,-0.29690953572768974,-0.4694895959550155,-0.4490888285741165,-0.003345398104590087,-0.001110694463442009,-0.08098820808466384
2105,13.0,300.14585,4053.79,0.0,-0.010524950001093547,-0.01052481478000411,0.0,0.0,0.0,-0.3048101811299227,-0.4761029881652066,-0.4513377675685696,-0.004131008397373786,0.006133327687712313,-0.08006353225540543
2106,13.0,300.26001,4234.4673,0.0,-0.010529931499774436,-0.010529816990191287,0.0,0.0,0.0,-0.3313767070918347,-0.4816922074393195,-0.47410342015286455,-0.007249460669741062,0.0057450237022396945,-0.07586428541547204
2107,13.0,300.11649,4243.3394,0.0,-0.01053494598851279,-0.010534819200378243,0.0,0.0,0.0,-0.3229706626722227,-0.48840363159668554,-0.47849493727877357,-0.0017088561221759683,0.0035057280116384164,-0.07696061087792093
2108,13.0,299.98528999999996,4142.6577,0.0,-0.010539927487193679,-0.010539788501287783,0.0,0.0,0.0,-0.3094273591856027,-0.4792067252090216,-0.4706304142426055,0.0016779722591279682,0.00028145969072040873,-0.06703854976468973
2109,13.0,299.94993999999997,4099.1086,0.0,-0.010544941975932143,-0.01054479071147496,0.0,0.0,0.0,-0.3055210875325837,-0.4748612400351555,-0.4656443219580165,0.007098434627760953,-0.0027560657045775077,-0.07027483613358634
2110,13.0,300.07182,4108.2278,0.0,-0.010549956464670385,-0.010549792921661916,0.0,0.0,0.0,-0.3170324597986677,-0.4783277915422775,-0.4534384072783866,0.005085262820901365,-0.005714452528172555,-0.07275517713287692
2111,13.0,299.84066,4168.4419,0.0,-0.010554937963351496,-0.010554795131849093,0.0,0.0,0.0,-0.3227227203727527,-0.4796910891543245,-0.46468843194617754,0.0017026261539361185,0.0010327096694955089,-0.07979302386295833
2112,13.0,299.85509,4164.8738,0.0,-0.010559952452089849,-0.010559797342036048,0.0,0.0,0.0,-0.3216968451765067,-0.48349603579734357,-0.4608247573273625,-0.0007476402144988443,0.0066700951043371344,-0.07665872922262752
2113,13.0,299.93878,4067.5193,0.0,-0.010564933950770738,-0.010564799552223225,0.0,0.0,0.0,-0.3026695180411557,-0.4765210348914645,-0.45723374831045754,-0.0040757793768231056,0.0050633114667599345,-0.08327234738759083
2114,13.0,299.976,4085.6177,0.0,-0.010569948439509202,-0.010569801762410402,0.0,0.0,0.0,-0.3064111264204237,-0.4744387451409586,-0.46107589136464755,-0.0003894247211432276,-9.90583117710442e-07,-0.07821931574839543
2115,13.0,300.10494,4248.5542,0.0,-0.010574929938190092,-0.010574803972597357,0.0,0.0,0.0,-0.3301959160877997,-0.4883831740771665,-0.4728752901041575,-0.0037547861021185367,-0.007616366636951863,-0.07592899764635863
2116,13.0,300.24856,4298.5644,0.0,-0.010579944426928445,-0.010579806182784424,0.0,0.0,0.0,-0.3315171536881957,-0.4925881518596655,-0.4825509267665685,0.0025461051864310172,-0.005520826006938105,-0.07317086298640194
2117,13.0,300.29676,4187.8095,0.0,-0.010584958915666909,-0.010584808392971379,0.0,0.0,0.0,-0.3192033076079137,-0.48764237679655553,-0.4661438238598135,0.0007931029935631713,-0.0026934116886190374,-0.07165865813965894
2118,13.0,300.22114,4161.7512,0.0,-0.010589940414347798,-0.010589810603158556,0.0,0.0,0.0,-0.30976739578666174,-0.48799409617126754,-0.4673069539146056,0.0037042506586810768,0.0041381359025522155,-0.07283264820902273
2119,13.0,300.08936,4163.1412,0.0,-0.01059495490308604,-0.010594812813345733,0.0,0.0,0.0,-0.3175670302864257,-0.47691672932051654,-0.4710072014247915,-0.003433496350434707,0.006021160800317305,-0.07418462579095253
2120,13.0,300.17171,4157.0063,0.0,-0.01059993640176693,-0.010599815023532688,0.0,0.0,0.0,-0.3110581345590477,-0.48268983322277753,-0.46987814697086255,-0.002955880954772737,0.0025345017502608476,-0.07568330172236033
2121,13.0,300.03475,4163.6791,0.0,-0.010604950890505505,-0.010604817233719865,0.0,0.0,0.0,-0.31913952351411873,-0.4802993330568536,-0.4662156126293986,-0.006701146660276683,-0.0026597328764951973,-0.07785539076297883
2122,13.0,300.01309,4156.3018,0.0,-0.010609932389186394,-0.010609786534629406,0.0,0.0,0.0,-0.3206770697458627,-0.48371926492687456,-0.45901563980381654,-0.0016104449154885386,-0.006891111903599793,-0.08042420369475092
2123,13.0,299.99494,4124.0508,0.0,-0.010614946877924636,-0.010614788744816361,0.0,0.0,0.0,-0.3141607772927547,-0.4836919679691805,-0.4557557305220885,-0.0022238632836282177,-0.005260162149812586,-0.08697352810111891
2124,13.0,299.7985,4153.8019,0.0,-0.010619928376605747,-0.010619790955003539,0.0,0.0,0.0,-0.31603884648560565,-0.47790721169076955,-0.4687060192551825,-0.00023607678616146475,0.0017149354201259487,-0.07835536889232284
2125,13.0,299.68621,4235.1368,0.0,-0.0106249428653441,-0.010624793165190494,0.0,0.0,0.0,-0.3198208835438637,-0.48641148057507555,-0.4811434717151636,-0.002361777970639338,0.0035672579279359463,-0.07717040127137563
2126,13.0,299.95312,4199.7906,0.0,-0.010629957354082342,-0.01062979537537767,0.0,0.0,0.0,-0.3223305013915437,-0.4839864488457436,-0.4703145436564316,-1.014345018058059e-05,0.0034631243913087672,-0.07226202932245702
2127,13.0,299.93882,4122.7953,0.0,-0.010634938852763454,-0.010634797585564848,0.0,0.0,0.0,-0.3130871070892917,-0.47754086098461357,-0.4625988569274525,0.003650976400223317,-0.0006995924520443993,-0.07415127263741084
2128,13.0,300.14516000000003,4181.6136,0.0,-0.010639953341501696,-0.010639799795751914,0.0,0.0,0.0,-0.32598083620180374,-0.48298028136394255,-0.4621449918101595,0.002845813420259917,-0.002172874816071048,-0.07169302656980084
2129,13.0,299.94788,4225.9891,0.0,-0.010644934840182696,-0.01064480200593898,0.0,0.0,0.0,-0.3235994654192807,-0.4881325871949355,-0.47286310070545456,0.0028967097833829973,-0.0040042212229608656,-0.07301274632154703
2130,13.0,299.91492,4213.004,0.0,-0.01064994932892116,-0.010649804216126046,0.0,0.0,0.0,-0.3137656806812617,-0.49436529121005557,-0.4725170453988015,-0.0005949292895899494,-0.0036829951033833163,-0.07891908551920733
2131,13.0,300.13079,4200.2012,0.0,-0.01065493082760205,-0.010654806426313224,0.0,0.0,0.0,-0.3148407086398587,-0.48796503615839953,-0.47395052071277455,0.00018221542019826182,0.0033990926591893266,-0.07943789490165983
2132,13.0,300.12176,4110.2981,0.0,-0.010659945316340291,-0.010659808636500179,0.0,0.0,0.0,-0.3116905748739647,-0.47562339662787456,-0.46211402688710357,-0.0012929393489531787,0.005439674705104094,-0.08167094106829433
2133,13.0,300.04847,4088.7824,0.0,-0.01066492681502118,-0.010664810846687134,0.0,0.0,0.0,-0.3095949000896377,-0.4800015185874615,-0.45329133402637156,0.0014197238889158386,0.005119812217511125,-0.08254477910028542
2134,13.0,299.99057,4233.7071,0.0,-0.010669941303759756,-0.010669813056874311,0.0,0.0,0.0,-0.3279767362487837,-0.4877189987691175,-0.4712454975833096,-0.005935244791213054,-0.001024864985896299,-0.08349767799782921
2135,13.0,299.82003,4237.2821,0.0,-0.010674955792497998,-0.010674815267061266,0.0,0.0,0.0,-0.3258857122824157,-0.48662346262849654,-0.47551876842254853,0.002250329578890238,-0.0017573120724331986,-0.07581559469516663
2136,13.0,300.03097,4150.7288,0.0,-0.010679937291178887,-0.010679784567970807,0.0,0.0,0.0,-0.3077353733736167,-0.48243334922496456,-0.4715491787707805,0.0033618034343091663,-0.0045563734238040455,-0.07581302509291302
2137,13.0,300.15039,4193.8338,0.0,-0.010684951779917351,-0.010684786778157984,0.0,0.0,0.0,-0.3139181038938047,-0.47928537368178353,-0.4816172775944246,0.0024335055399182974,-0.004643251817853277,-0.06563136221131113
2138,13.0,300.03542000000004,4317.2615,0.0,-0.010689933278598351,-0.01068978898834494,0.0,0.0,0.0,-0.3378297322086987,-0.4906276345061775,-0.48388232726546754,-0.0008343716771510734,-0.0015928473957017985,-0.06729722744896924
2139,13.0,300.02227,4302.2813,0.0,-0.010694947767336593,-0.010694791198532116,0.0,0.0,0.0,-0.3340233264855357,-0.4927579928414275,-0.48100476790897456,-0.0019925004915694877,0.0033650951799090367,-0.07220681631125793
2140,13.0,300.03949,4223.7739,0.0,-0.010699929266017705,-0.010699793408719294,0.0,0.0,0.0,-0.3303136557494197,-0.48555383529293256,-0.4680543069233636,0.0033995412250085967,0.0041556290575786555,-0.07176565025746823
2141,13.0,299.94993999999997,4170.6727,0.0,-0.010704943754755947,-0.01070479561890636,0.0,0.0,0.0,-0.3119896964359857,-0.48809605952883056,-0.46769461327036455,0.0006056128871868385,0.0005919249321159424,-0.08105527409553272
2142,13.0,300.11047,4153.9343,0.0,-0.010709958243494522,-0.010709797829093537,0.0,0.0,0.0,-0.3044265241120587,-0.48425984398772554,-0.4740059252282426,0.004812034561210835,-0.0033405769592892774,-0.07942458687484642
2143,13.0,300.0459,4202.9998,0.0,-0.010714939742175411,-0.010714800039280492,0.0,0.0,0.0,-0.31259249918547766,-0.49168826418085354,-0.47332621679616055,-0.00013207061507185486,-0.0024091462982392276,-0.08472484343244101
2144,13.0,300.01313999999996,4234.7158,0.0,-0.010719954230913875,-0.01071980224946767,0.0,0.0,0.0,-0.32363278108256865,-0.48649595523591255,-0.4771191361604925,0.0013006609226652388,0.002182616202532448,-0.07196256325540203
2145,13.0,300.13866,4184.825,0.0,-0.010724935729594542,-0.010724804459654846,0.0,0.0,0.0,-0.32193508054001874,-0.4818877444436175,-0.4682594698036116,-0.002111950924658328,0.003464491873643727,-0.07803880625633051
2146,13.0,300.1313,4171.8309,0.0,-0.010729950218333117,-0.010729806669841802,0.0,0.0,0.0,-0.3184220816483127,-0.4839145182211445,-0.4657958231129686,-0.0025623264086069276,0.004059190446185906,-0.07638816712792512
2147,13.0,300.10355,4296.4339,0.0,-0.010734931717014007,-0.010734808880028757,0.0,0.0,0.0,-0.3330721176891587,-0.48954836102966154,-0.4833881449266956,-0.003269262289426067,0.004316885176543396,-0.07787284804895173
2148,13.0,299.95018,4338.6248,0.0,-0.010739946205752249,-0.010739811090215712,0.0,0.0,0.0,-0.33333173262978066,-0.4939405469006365,-0.4915613140758246,0.0005841249024486395,0.0029108593144044474,-0.07025356700073723
2149,13.0,299.89941,4208.4211,0.0,-0.010744927704433138,-0.010744813300402889,0.0,0.0,0.0,-0.3185345220119097,-0.4871755218129805,-0.47354489643274256,-0.00018786750150857881,-0.00043004608990474463,-0.07203180066123523
2150,13.0,299.82977999999997,4185.615,0.0,-0.010749942193171602,-0.010749782601312652,0.0,0.0,0.0,-0.3160766305818347,-0.48396589000121454,-0.4722799144778985,0.003562242339940947,-0.004884764133513685,-0.07764573411853733
2151,13.0,299.88588,4228.8898,0.0,-0.010754956681909955,-0.010754784811499607,0.0,0.0,0.0,-0.32786072924483467,-0.4879640938358066,-0.4696520706085505,-0.0018399245822364183,0.00024334799046907675,-0.07805798100122292
2152,13.0,300.11388999999997,4223.6447,0.0,-0.010759938180590845,-0.010759787021686562,0.0,0.0,0.0,-0.3225139199246457,-0.4929987106676845,-0.46836989379950955,-0.0006035260074133794,0.001329160405577919,-0.08432859982183483
2153,13.0,300.11061,4224.2751,0.0,-0.010764952669329308,-0.01076478923187374,0.0,0.0,0.0,-0.3189564393535497,-0.4859935047763245,-0.4791242162533786,-0.005195958165176145,-0.0028229161971501378,-0.07957698171638664
2154,13.0,299.92521,4207.0816,0.0,-0.010769934168010198,-0.010769791442060805,0.0,0.0,0.0,-0.3145672223053677,-0.4887663649999845,-0.4755141783995956,0.0036652005064521267,-0.003006464426264937,-0.08038870650399763
2155,13.0,300.01268,4158.1990000000005,0.0,-0.010774948656748773,-0.010774793652247983,0.0,0.0,0.0,-0.3116363153311097,-0.48091788171289956,-0.47143447885946055,7.271539592070083e-05,-0.0046354492854582255,-0.07573469478068243
2156,13.0,300.26975,4230.6755,0.0,-0.01077993015542944,-0.010779795862434938,0.0,0.0,0.0,-0.3248105019388007,-0.4879492598543425,-0.47325995023962053,0.005191070955968815,1.0933489389551389e-05,-0.07323635947286593
2157,13.0,300.26787,4326.5666,0.0,-0.010784944644168126,-0.010784798072622115,0.0,0.0,0.0,-0.33719715003876766,-0.49732631197728555,-0.48064475001594353,-0.0037038902456205066,0.003595281993901707,-0.07539765030716873
2158,13.0,300.23779,4273.5815,0.0,-0.010789926142848794,-0.010789800282809292,0.0,0.0,0.0,-0.3329856266606227,-0.4897868193081955,-0.4762896288336265,-0.00047125245861149656,0.004068532004157846,-0.07564021528835803
2159,13.0,300.19106,4221.5707,0.0,-0.010794940631587258,-0.010794802492996247,0.0,0.0,0.0,-0.3129311172363967,-0.49744051539605655,-0.4728804374146655,-0.0004988334809710315,0.005325972439832555,-0.08942087362415312
2160,13.0,300.06489,4257.1943,0.0,-0.010799955120325833,-0.010799804703183424,0.0,0.0,0.0,-0.3232310071529167,-0.4900459073587655,-0.48080385054664554,-0.004034756122674427,0.004662683320321015,-0.07565355472592451
2161,13.0,300.20666,4275.4914,0.0,-0.0108049366190065,-0.01080480691337038,0.0,0.0,0.0,-0.32336121992326766,-0.4940495320813925,-0.48223186444257954,0.001246705557490259,-0.004638363899370876,-0.07814796470285362
2162,13.0,300.04822,4220.7438,0.0,-0.010809951107744964,-0.010809809123557557,0.0,0.0,0.0,-0.31968300047025566,-0.49254356885526557,-0.4707741539017915,-0.002213392559744838,-0.006338866382422404,-0.07821662860913023
2163,13.0,299.94222,4204.6649,0.0,-0.010814932606425853,-0.010814811333744512,0.0,0.0,0.0,-0.3181050255595217,-0.48919301421959155,-0.47081507907333053,0.004588759936750345,-0.0014687535413796886,-0.07938601447003962
2164,13.0,299.86187,4216.6237,0.0,-0.010819947095164206,-0.010819813543931578,0.0,0.0,0.0,-0.3248544364631367,-0.48845912730466257,-0.4684347519384105,0.00019987246842837682,-0.0018185317315501082,-0.07609460932220323
2165,13.0,299.93765,4245.6963,0.0,-0.010824928593845096,-0.01082478284484123,0.0,0.0,0.0,-0.3181564682670987,-0.4882252995790855,-0.48420388218470256,0.002436456428184528,0.004922549040342766,-0.07684552086531243
2166,13.0,299.91932,4292.1893,0.0,-0.01082994308258356,-0.010829785055028185,0.0,0.0,0.0,-0.32682146901476766,-0.4921476312461896,-0.48574928110472154,-0.004070223726524806,0.0006667386281519793,-0.07774388664247422
2167,13.0,300.16067000000004,4310.1754,0.0,-0.010834957571321913,-0.010834787265215251,0.0,0.0,0.0,-0.3286533947980647,-0.5009802032953965,-0.4805520781617975,0.0015038028755887888,-0.00044641196366493053,-0.07534176855090363
2168,13.0,300.25253,4255.4431,0.0,-0.010839939070002802,-0.010839789475402428,0.0,0.0,0.0,-0.3265034503383817,-0.49083263526640947,-0.47621234824849956,-0.0017335894557919584,0.0013188025577556787,-0.07970757850852553
2169,13.0,300.15443,4259.8405,0.0,-0.010844953558741266,-0.010844791685589383,0.0,0.0,0.0,-0.3273976030216277,-0.49405585476201647,-0.47343168599906954,-0.002276635071361388,-0.0008355585881857122,-0.07791699130280832
2170,13.0,300.29717,4341.2301,0.0,-0.010849935057422377,-0.01084979389577656,0.0,0.0,0.0,-0.33450182371275966,-0.4985494872330035,-0.48657423893863855,-0.002134199363729078,0.003292866659780637,-0.07848628789799351
2171,13.0,300.22585,4273.2006,0.0,-0.01085494954616062,-0.010854796105963738,0.0,0.0,0.0,-0.3208842287288077,-0.49268398505412353,-0.48537805666558453,-0.0021705626806678576,0.005031037019274695,-0.07929916373771813
2172,13.0,300.21115,4191.839,0.0,-0.010859931044841509,-0.010859798316150693,0.0,0.0,0.0,-0.30763459551867073,-0.49246625787263554,-0.47411352225636155,0.004506876460394075,0.0049062584105350054,-0.07859827736529602
2173,13.0,300.00785,4247.4872,0.0,-0.010864945533580084,-0.01086480052633787,0.0,0.0,0.0,-0.3244788145185657,-0.48768408217067155,-0.47896715235537757,0.003387836261178406,-0.0028261844353476874,-0.07566055121786502
2174,13.0,299.97843,4325.4467,0.0,-0.010869927032260751,-0.010869802736524825,0.0,0.0,0.0,-0.3338623109121447,-0.49694712339236247,-0.48401835609139254,0.0008439579147571612,-0.0053824300261294845,-0.07444466325686623
2175,13.0,300.04981000000004,4332.4621,0.0,-0.010874941520999215,-0.010874804946712002,0.0,0.0,0.0,-0.3355349436472207,-0.5036671804405806,-0.4777581626010595,0.0013528074337616988,-0.0071403440704470925,-0.07775521477859222
2176,13.0,300.04135,4285.0945,0.0,-0.010879956009737679,-0.01087980715689918,0.0,0.0,0.0,-0.3298597399696217,-0.4885761070287075,-0.48412588219200453,0.0016094644946917785,0.0005068145784312045,-0.07233441793610124
2177,13.0,299.86147,4286.9355,0.0,-0.010884937508418457,-0.010884809367086135,0.0,0.0,0.0,-0.3227386891943287,-0.49991497346526653,-0.4804676946934695,0.0027543806696612074,0.004355083996038326,-0.08104012803303792
2178,13.0,299.92301000000003,4308.7731,0.0,-0.010889951997156921,-0.0108898115772732,0.0,0.0,0.0,-0.3288544236179047,-0.4944590269768065,-0.4864459918734816,0.0008463761171808192,0.0070275233327625536,-0.07911146118319333
2179,13.0,300.03427999999997,4356.4818,0.0,-0.01089493349583781,-0.010894780878182853,0.0,0.0,0.0,-0.3347305345253317,-0.5019723271308115,-0.48755882419330954,-0.0008069106540008812,0.005447521212553485,-0.08822888823301332
2180,13.0,299.97822,4296.0196,0.0,-0.010899947984576164,-0.010899783088369808,0.0,0.0,0.0,-0.33130777568753167,-0.4986966719425295,-0.4758782290280245,-0.006382534827282144,0.000969748709684246,-0.08211357633472902
2181,13.0,300.11371,4151.0134,0.0,-0.010904929483257053,-0.010904785298556985,0.0,0.0,0.0,-0.31246504245539874,-0.48272523618127156,-0.46661413402622953,-0.004798278880503255,-0.003213846222906927,-0.08092702095087513
2182,13.0,299.92772,4190.9189,0.0,-0.010909943971995517,-0.010909787508744051,0.0,0.0,0.0,-0.31302604863826566,-0.48797934324981157,-0.4729293267319905,-0.0030003736785888272,-0.003538682451265767,-0.07465335022096203
2183,13.0,300.12412,4349.3866,0.0,-0.010914925470676629,-0.010914789718931006,0.0,0.0,0.0,-0.32957523960654367,-0.4984342199016275,-0.4940954627084255,-0.004243804411755886,-0.0004612748024917786,-0.07969038770732892
2184,13.0,300.06192000000004,4382.2551,0.0,-0.01091993995941487,-0.010919791929118183,0.0,0.0,0.0,-0.3345454643945667,-0.5012988704518465,-0.4962517805112376,-0.0025434921157481273,0.0015212448614851785,-0.06976776525354234
2185,13.0,300.27116,4300.6711,0.0,-0.010924954448153223,-0.010924794139305138,0.0,0.0,0.0,-0.3258206210959917,-0.5020971595431315,-0.47937883587100755,-0.0040998574415994265,-0.004403993173065285,-0.08138673556099542
2186,13.0,299.85868,4311.3559,0.0,-0.010929935946834335,-0.010929796349492316,0.0,0.0,0.0,-0.3350038283423037,-0.49207082688860954,-0.4834698736797615,0.0028327781603734374,0.0025044890796488274,-0.07153745620244722
2187,13.0,300.02535,4375.9557,0.0,-0.010934950435572577,-0.01093479855967927,0.0,0.0,0.0,-0.3418653756344857,-0.5028732077947216,-0.48544269188946354,0.0032250557074382166,-0.003122453394362157,-0.07968088038164063
2188,13.0,299.73537999999996,4379.7433,0.0,-0.010939931934253466,-0.010939800769866448,0.0,0.0,0.0,-0.3368886559133217,-0.5035130954978735,-0.4909308597311035,0.006881004328552253,-0.002061000960604958,-0.07446623332499502
2189,13.0,300.01144,4317.9571,0.0,-0.01094494642299193,-0.010944802980053625,0.0,0.0,0.0,-0.3281362724770287,-0.4921418151906155,-0.49227307160856953,-0.0004231590289750446,-0.0041109435122685355,-0.07613698546788543
2190,13.0,299.82583999999997,4223.5749,0.0,-0.010949927921672709,-0.010949805190240691,0.0,0.0,0.0,-0.3159971917739947,-0.4924620934147245,-0.47540203187852753,0.004400588044779226,0.002314666501939798,-0.07989374396264862
2191,13.0,300.13018,4231.2343,0.0,-0.010954942410411173,-0.010954807400427757,0.0,0.0,0.0,-0.3140500087918227,-0.49286572159205955,-0.4792738530281465,-0.0035012829847747263,0.0032972029649085965,-0.08774921563567331
2192,13.0,300.04792000000003,4344.697,0.0,-0.010959956899149637,-0.010959809610614824,0.0,0.0,0.0,-0.33544438948578365,-0.4994895198807775,-0.48574549154934754,-0.007921197154011293,0.003166380420647417,-0.08115503160762802
2193,13.0,299.98207,4371.0667,0.0,-0.010964938397830415,-0.010964778911524364,0.0,0.0,0.0,-0.3297408958653927,-0.5113689653781875,-0.4875852700209196,-0.0018965709370269783,-0.0016574503982276186,-0.08042815942314133
2194,13.0,299.99228999999997,4260.8424,0.0,-0.010969952886568879,-0.01096978112171143,0.0,0.0,0.0,-0.3236635433556047,-0.49032240304605357,-0.48120376009611354,0.0001029803566883699,-0.0017444805771418283,-0.07795274687233712
2195,13.0,300.09401,4258.8299,0.0,-0.010974934385249768,-0.010974783331898497,0.0,0.0,0.0,-0.3193639989412727,-0.4970217593947285,-0.4781921882813946,0.009690450581523012,-0.0018723402767855985,-0.07818264420077622
2196,13.0,299.9447,4369.6011,0.0,-0.01097994887398801,-0.010979785542085674,0.0,0.0,0.0,-0.33895351776210764,-0.49958607248280656,-0.48971002508311656,0.0017865028958891083,-0.005492812782748415,-0.07797965676849292
2197,13.0,299.95833,4400.1231,0.0,-0.010984930372669122,-0.010984787752272629,0.0,0.0,0.0,-0.3379854484840667,-0.5045826924359346,-0.49495939014118856,-0.0017607958289270183,0.0006231108956812574,-0.07505256468086142
2198,13.0,299.97771,4311.8496,0.0,-0.010989944861407475,-0.010989789962459584,0.0,0.0,0.0,-0.33007299871816864,-0.5063798029457955,-0.4742417997190216,-0.0053215113022922755,0.0014856400635712586,-0.08471882877984742
2199,13.0,299.84081000000003,4263.388,0.0,-0.010994926360088586,-0.010994792172646761,0.0,0.0,0.0,-0.3276723863162467,-0.4890881934967465,-0.4792029153886455,-0.0005906448020721035,0.001145549456281929,-0.07628336363033184
2200,13.0,299.83342000000005,4268.3005,0.0,-0.010999940848826828,-0.010999794382833716,0.0,0.0,0.0,-0.32448153002883373,-0.49564415469126955,-0.47733108781641054,-0.0027484840607042574,0.0013712482816066688,-0.08329349493042792
2201,13.0,299.77917,4317.9862,0.0,-0.011004955337565292,-0.011004796593020894,0.0,0.0,0.0,-0.3257489336514167,-0.5019181283829626,-0.4848929125177045,-1.6831744877913885e-05,-0.004147010554878076,-0.07600542710140164
2202,13.0,299.8996,4383.2226,0.0,-0.011009936836246181,-0.01100979880320807,0.0,0.0,0.0,-0.33126434778824565,-0.5063636112091975,-0.4947622522017326,-0.0023762231680399676,0.0007590150614464543,-0.08263132079132643
2203,13.0,300.05521,4334.8614,0.0,-0.011014951324984534,-0.011014801013395137,0.0,0.0,0.0,-0.3249480101098717,-0.5097452523579395,-0.4829963515105285,-0.00033095985600069467,0.003740347997468606,-0.07979699985635072
2204,13.0,299.84053,4284.7168,0.0,-0.011019932823665424,-0.011019803223582314,0.0,0.0,0.0,-0.32501627276910866,-0.4980073781645015,-0.47942325675539155,-0.0005209898460051944,0.005872720167292354,-0.08217237929103242
2205,13.0,299.96623,4407.7739,0.0,-0.011024947312403888,-0.01102480543376927,0.0,0.0,0.0,-0.3392539565492587,-0.5102437511421376,-0.49035550592682053,-0.0016208013447606387,0.0036659688540029572,-0.07504977925633652
2206,13.0,300.12722,4432.1706,0.0,-0.011029928811084666,-0.011029807643956446,0.0,0.0,0.0,-0.34116781373564165,-0.5126909933136615,-0.49341038405081356,-0.0032059945478820273,-0.0013063821380298788,-0.07536024921947752
2207,13.0,300.10947999999996,4312.0833,0.0,-0.01103494329982313,-0.011034809854143623,0.0,0.0,0.0,-0.3283948741675507,-0.4966940945773905,-0.4856766918675575,0.001004091778176143,-0.006067079369674114,-0.07611458250817443
2208,13.0,300.03126000000003,4267.3325,0.0,-0.01103992479850402,-0.011039779155052942,0.0,0.0,0.0,-0.3198003753618397,-0.5014888852430995,-0.4758732539700335,0.003415921020825157,-0.005502919040570825,-0.07976682729487293
2209,13.0,299.95537,4320.4623,0.0,-0.011044939287242261,-0.01104478136524012,0.0,0.0,0.0,-0.3249194871195567,-0.5007669344143485,-0.48762624585496356,0.004104562671088796,0.0006453189972655263,-0.08190876201251542
2210,13.0,299.88217000000003,4363.0211,0.0,-0.011049953775980836,-0.011049783575427297,0.0,0.0,0.0,-0.3296468054611067,-0.5086837816856805,-0.48791888261634453,-0.0003064659837808377,0.007361366949210354,-0.08486265355204183
2211,13.0,300.09848999999997,4386.4635,0.0,-0.011054935274661726,-0.011054785785614252,0.0,0.0,0.0,-0.3342228962252317,-0.5126198631566415,-0.4865326247570315,0.00016042561865277585,0.008167915548685503,-0.08861540160290922
2212,13.0,299.72848999999997,4318.1066,0.0,-0.011059949763399968,-0.011059787995801429,0.0,0.0,0.0,-0.3297387275101787,-0.4973342862555726,-0.4855235796449466,0.0007385640064630921,0.004272518095739706,-0.07859138219836552
2213,13.0,299.70037,4282.9317,0.0,-0.01106493126208108,-0.011064790205988384,0.0,0.0,0.0,-0.3227066603586677,-0.4995301917397915,-0.4796674297644896,0.00018728520694111082,-0.005023044401160885,-0.07889291630887463
2214,13.0,300.02488999999997,4367.0443,0.0,-0.011069945750819543,-0.01106979241617534,0.0,0.0,0.0,-0.3252726149119077,-0.5081674598322234,-0.4940323372271956,-0.003118329669105177,-0.004567958722797426,-0.07461925030209662
2215,13.0,300.27885,4455.0378,0.0,-0.011074927249500433,-0.011074794626362516,0.0,0.0,0.0,-0.3430365407625707,-0.5093429414057346,-0.5018407566053265,-0.00905985286191286,-0.0067599943009094944,-0.07560018684315752
2216,13.0,300.16413,4403.6946,0.0,-0.011079941738238785,-0.011079796836549582,0.0,0.0,0.0,-0.3367226956794427,-0.5105726825221005,-0.4913178199442935,-0.0029768721531194067,-0.0016557809673628584,-0.07861403847060151
2217,13.0,299.9887,4286.6404,0.0,-0.01108495622697725,-0.01108479904673676,0.0,0.0,0.0,-0.3324089353662077,-0.49076118086935755,-0.4798615076886436,-0.0011668112937303088,-0.00025685512092712677,-0.08106930963591792
2218,13.0,299.99575,4342.0735,0.0,-0.011089937725658139,-0.011089801256923715,0.0,0.0,0.0,-0.3274402405858357,-0.5062012378806725,-0.4862404338256945,0.004484512105511886,0.005250500303484035,-0.08240997529373133
2219,13.0,300.08063,4444.6988,0.0,-0.011094952214396492,-0.011094803467110892,0.0,0.0,0.0,-0.3402942604269287,-0.5122069333433885,-0.49857626743314654,0.0065147991251106145,0.0005943015608879974,-0.08162875338713071
2220,13.0,299.93169,4418.541,0.0,-0.011099933713077381,-0.011099805677298069,0.0,0.0,0.0,-0.33207694397094273,-0.5106007292848685,-0.5004484699079186,0.00023972915760442576,0.0006859092389839715,-0.08495163312282342
2221,13.0,299.87406,4313.8848,0.0,-0.011104948201815845,-0.011104807887485024,0.0,0.0,0.0,-0.3231112916536017,-0.5028193130219025,-0.48538266695353954,-0.0007552899386463133,-0.0021526996893549183,-0.07870922622474583
2222,13.0,299.92541,4278.5636,0.0,-0.011109929700496513,-0.011109777188394565,0.0,0.0,0.0,-0.3161786547344037,-0.5003498198781825,-0.4840480139218195,-0.0012806937148696288,0.0007420323412903903,-0.08169872033303592
2223,13.0,299.80234,4336.9139,0.0,-0.011114944189235088,-0.011114779398581742,0.0,0.0,0.0,-0.3288118569812037,-0.5002566515314875,-0.4892450243472245,-0.006370844251603374,0.002907984521220727,-0.07309759385842084
2224,13.0,299.87628,4451.792,0.0,-0.011119925687915977,-0.011119781608768697,0.0,0.0,0.0,-0.3410520803092197,-0.5143828980656395,-0.49779862837889954,-0.0029669478750149574,0.005074838706522586,-0.07928445337276634
2225,13.0,299.93862,4447.6062,0.0,-0.011124940176654219,-0.011124783818955875,0.0,0.0,0.0,-0.3462051967402927,-0.5049813151577756,-0.5007746959101145,0.0035011109349077467,-0.0025873679729033375,-0.06768469732695953
2226,13.0,299.87102000000004,4307.4972,0.0,-0.011129954665392683,-0.01112978602914283,0.0,0.0,0.0,-0.3207267088682617,-0.5063652628068606,-0.48227961891979254,0.005009527239526845,-0.0013854095663292788,-0.08739404107812032
2227,13.0,299.85291,4373.7666,0.0,-0.011134936164073794,-0.011134788239330007,0.0,0.0,0.0,-0.33111747718625073,-0.5103134120865126,-0.4880849441752335,0.003892612940345986,-0.007476603275133293,-0.08128309324801672
2228,13.0,300.00327000000004,4501.9235,0.0,-0.011139950652812147,-0.011139790449516962,0.0,0.0,0.0,-0.34664582881127964,-0.5129951507286794,-0.5088313412977435,0.002140801802705688,0.0009043685443317262,-0.08426967324901921
2229,13.0,300.13667000000004,4421.1773,0.0,-0.011144932151493037,-0.011144792659704028,0.0,0.0,0.0,-0.33968796196459167,-0.5075644544327115,-0.49667508600551447,-2.7244405477563478e-05,0.0017815304723483682,-0.08007536600332334
2230,13.0,300.16201,4272.2268,0.0,-0.0111499466402315,-0.011149794869891205,0.0,0.0,0.0,-0.3184411611476957,-0.49988439357724856,-0.4803247048393576,0.003997444099667017,0.00976533665401369,-0.08890379081987101
2231,13.0,300.10056000000003,4317.7911,0.0,-0.01115492813891239,-0.01115479708007816,0.0,0.0,0.0,-0.3276919217781747,-0.5008493724424845,-0.48395938493557256,-0.0007839483498371783,0.006366591235633635,-0.07834562243961092
2232,13.0,300.03987,4441.3989,0.0,-0.011159942627650743,-0.011159799290265338,0.0,0.0,0.0,-0.3410979704062487,-0.5126015537273345,-0.49637482960338153,-0.004141069768216766,0.00017548283937880783,-0.08674951268951032
2233,13.0,300.03238999999996,4499.0841,0.0,-0.011164924126331632,-0.011164801500452515,0.0,0.0,0.0,-0.3459499894376057,-0.5145559409177175,-0.5071032736496964,0.0003031899232925157,-0.00019260578321621082,-0.07079860436202823
2234,13.0,300.10017999999997,4415.1478,0.0,-0.011169938615070096,-0.01116980371063947,0.0,0.0,0.0,-0.3346111635310507,-0.5139016650631455,-0.4935818563652365,-0.0024317529212203276,-9.007334488029701e-05,-0.08307796650165693
2235,13.0,299.83836,4327.9476,0.0,-0.011174953103808338,-0.011174805920826647,0.0,0.0,0.0,-0.3267675843744497,-0.5005489741853375,-0.4882714531211405,0.005954866582049574,0.001990802081751868,-0.07152940086415223
2236,13.0,299.89534,4372.5763,0.0,-0.011179934602489339,-0.011179775221736188,0.0,0.0,0.0,-0.33494268883126965,-0.5083938806995696,-0.4858174424389486,-0.0018585602780756183,0.0012387406011041787,-0.08844073147117061
2237,13.0,299.97414,4487.8997,0.0,-0.011184949091227803,-0.011184777431923143,0.0,0.0,0.0,-0.35082715733644465,-0.5137541459810865,-0.4996281324944576,0.003342259562405337,0.0033567027333057673,-0.07926840045143202
2238,13.0,300.02275,4436.0501,0.0,-0.01118993058990847,-0.01118977964211032,0.0,0.0,0.0,-0.3415666492400037,-0.5116230175757606,-0.4952587852807365,-0.0036920938866312966,0.0004058941693286356,-0.09153798675409591
2239,13.0,299.93825,4295.5282,0.0,-0.011194945078646934,-0.011194781852297275,0.0,0.0,0.0,-0.3236390125706837,-0.5028442795043665,-0.47925001125329353,-0.0017087743528928984,-0.0041672504282755955,-0.08256420006495213
2240,13.0,300.0618,4298.3082,0.0,-0.011199926577328045,-0.011199784062484452,0.0,0.0,0.0,-0.3166407474425087,-0.5028807058454615,-0.48705693102127656,-0.00017581353381394482,-0.0046763698973717755,-0.08726504927413982
2241,13.0,300.0752,4466.7411,0.0,-0.011204941066066398,-0.01120478627267163,0.0,0.0,0.0,-0.3403440110068387,-0.5121401702942996,-0.5052935887060944,0.005372530673977495,-0.0016895464123702483,-0.07138643532804263
2242,13.0,299.96878,4509.5614,0.0,-0.01120995555480464,-0.011209788482858585,0.0,0.0,0.0,-0.3390901140080887,-0.5250160864700535,-0.5066878715061995,0.011543935084547688,0.003343762820253697,-0.08166560630651783
2243,13.0,299.59255,4433.6333,0.0,-0.011214937053485752,-0.011214790693045762,0.0,0.0,0.0,-0.3368599201404857,-0.5173804768964775,-0.49347340820703356,0.0009460931195371209,0.002249646952297868,-0.07742048862130732
2244,13.0,299.80262999999997,4393.9224,0.0,-0.011219951542224105,-0.011219792903232828,0.0,0.0,0.0,-0.3294271835019317,-0.5184420995562515,-0.4877734001669865,0.0025364204406502075,-0.00016488382790026684,-0.08358744891693892
2245,13.0,300.01793,4392.3621,0.0,-0.011224933040904994,-0.011224795113419783,0.0,0.0,0.0,-0.3376894072023497,-0.5090474776765745,-0.4884315365044396,-0.004076871255130866,-0.003925692820335717,-0.07870185787001863
2246,13.0,300.17326,4458.4521,0.0,-0.011229947529643458,-0.01122979732360696,0.0,0.0,0.0,-0.3353277643992737,-0.5176674799873026,-0.5022628664644855,-0.004794750338355016,0.004578503515263115,-0.08290826129540832
2247,13.0,300.06796,4437.4619,0.0,-0.011234929028324347,-0.011234799533793915,0.0,0.0,0.0,-0.33900436265212563,-0.5096934651453285,-0.5001797965114025,-0.005003034028911016,-0.0009012348556149551,-0.07931050605933752
2248,13.0,300.03525,4352.7123,0.0,-0.01123994351706259,-0.011239801743981093,0.0,0.0,0.0,-0.32728278152029566,-0.5024106185940675,-0.4934224721245066,-0.002114955211204828,-0.0015709011078108685,-0.08419118993602351
2249,13.0,300.12472,4356.3291,0.0,-0.011244925015743479,-0.011244803954168048,0.0,0.0,0.0,-0.33468682291601765,-0.5030909755062135,-0.48643746030763957,0.001233051708417729,0.003558936003539637,-0.08479265620863362
2250,13.0,300.19956,4482.2507,0.0,-0.011249939504482054,-0.011249773255077589,0.0,0.0,0.0,-0.3490860592921117,-0.5144239346946895,-0.49898231727822057,0.006902815144904813,0.003875638974670786,-0.08478903181302591
2251,13.0,300.03808,4524.339,0.0,-0.011254953993220296,-0.011254775465264766,0.0,0.0,0.0,-0.34961887685719667,-0.5172585525119444,-0.5084086437535266,0.0012530043254118989,0.0016047674725282186,-0.07489651605946063
2252,13.0,299.93447000000003,4404.4518,0.0,-0.011259935491901185,-0.011259777675451721,0.0,0.0,0.0,-0.3228619409364927,-0.5144280079600916,-0.5015534292744696,0.0016905002860143886,-0.0050321759123870945,-0.07930380138342583
2253,13.0,299.83172,4377.0653,0.0,-0.01126494998063976,-0.011264779885638898,0.0,0.0,0.0,-0.3234188130589517,-0.5105052912579495,-0.4965944515625565,0.0021940599504868576,-0.0029010953324658173,-0.07265732250446943
2254,13.0,299.83889,4445.571,0.0,-0.01126993147932065,-0.011269782095826075,0.0,0.0,0.0,-0.3323755285104107,-0.5154302744290076,-0.5035367852852115,0.0008156568363465622,0.002213456901126188,-0.07794979020854534
2255,13.0,299.92077,4479.6606,0.0,-0.011274945968058891,-0.011274784306013141,0.0,0.0,0.0,-0.34311239266505666,-0.5209413923854125,-0.49765119035684857,-0.004528750706202895,0.0001367021610139529,-0.08405247903708382
2256,13.0,299.89369,4477.0851,0.0,-0.011279927466740003,-0.011279786516200208,0.0,0.0,0.0,-0.3438469077950477,-0.5188568126896805,-0.49821836723282453,-0.0016655992595068485,-0.0033239071712940966,-0.08988041598175642
2257,13.0,299.91062999999997,4420.3304,0.0,-0.011284941955478245,-0.011284788726387274,0.0,0.0,0.0,-0.3423756382523447,-0.5089873007531356,-0.4923071269444306,-0.006590898767246063,-0.0001973079324252768,-0.08840674807606673
2258,13.0,300.11752,4395.1148,0.0,-0.011289923454159245,-0.011289790936574451,0.0,0.0,0.0,-0.32688209176825067,-0.5138379924268616,-0.4952850689883305,0.0040113653454409365,0.001120298351864839,-0.08801233034214072
2259,13.0,300.06433,4434.3038,0.0,-0.01129493794289771,-0.011294793146761406,0.0,0.0,0.0,-0.3361521750781367,-0.5075237217786915,-0.5042417337772845,-0.00032816891939525073,-2.4404314083268276e-06,-0.07943371727149752
2260,13.0,300.04488,4523.3999,0.0,-0.011299952431635951,-0.011299795356948361,0.0,0.0,0.0,-0.3463140198010327,-0.5203451453640675,-0.5083414450068946,0.0015522848663735885,0.0008186149389535043,-0.07868536722464113
2261,13.0,299.99259,4458.1067,0.0,-0.01130493393031684,-0.011304797567135538,0.0,0.0,0.0,-0.3401938777395217,-0.5123689621668795,-0.5025902779692986,-0.0023734107910624077,0.0005290877104068915,-0.07745396133836083
2262,13.0,300.01837,4385.5588,0.0,-0.011309948419055416,-0.011309799777322493,0.0,0.0,0.0,-0.3340987528229797,-0.5128456051464205,-0.4861560098273625,0.001346553755469509,0.005006680108070855,-0.08353257433127322
2263,13.0,299.88241,4465.6639,0.0,-0.011314929917736305,-0.01131480198750967,0.0,0.0,0.0,-0.33940362372152966,-0.5173712157905636,-0.5006754683278215,-0.0005104585601633375,0.005146052152700805,-0.07733695425656313
2264,13.0,300.0409,4552.9401,0.0,-0.011319944406474547,-0.011319804197696848,0.0,0.0,0.0,-0.34568921939186964,-0.5215154998920725,-0.5167753740692586,-0.001163446999423279,-0.0020037356113283083,-0.07847162819554672
2265,13.0,299.74654,4488.6414,0.0,-0.011324925905155436,-0.011324773498606167,0.0,0.0,0.0,-0.3351868922378707,-0.5223543088548566,-0.5068937132640146,0.0021438150058530683,-0.0014234531559088888,-0.08008245571427303
2266,13.0,299.64745,4388.3164,0.0,-0.011329940393894011,-0.011329775708793344,0.0,0.0,0.0,-0.3326597046334567,-0.5087926959389295,-0.4924861986346035,0.0021711683002526277,-0.0006357578983944193,-0.0873770823111966
2267,13.0,299.91332,4410.032999999999,0.0,-0.011334954882632253,-0.011334777918980521,0.0,0.0,0.0,-0.3434918142975027,-0.5060473859854885,-0.4910007131929975,0.002187560457720408,-0.002896876057724407,-0.08370496870328721
2268,13.0,300.20219,4431.0856,0.0,-0.011339936381313143,-0.011339780129167587,0.0,0.0,0.0,-0.34934417462258566,-0.5093886085877415,-0.48820660511474057,-0.001217971811154459,-0.0030042163282680673,-0.09203301819645172
2269,13.0,300.04519,4501.354,0.0,-0.011344950870051607,-0.011344782339354764,0.0,0.0,0.0,-0.3497707529146857,-0.5175581503015125,-0.5009703038419195,-0.006915435884175383,0.0076610176304335725,-0.08761117348179961
2270,13.0,299.98442,4497.2566,0.0,-0.011349932368732496,-0.01134978454954172,0.0,0.0,0.0,-0.33978940856460366,-0.5180193006870245,-0.5092450107835695,-0.004016773466524676,0.005632223432207175,-0.08600065703085402
2271,13.0,299.89097999999996,4403.9142,0.0,-0.011354946857470849,-0.011354786759728897,0.0,0.0,0.0,-0.3279752265061347,-0.5149445223310675,-0.4957602123577235,-0.0005206596277976046,0.0025096103496292576,-0.08058816883918302
2272,13.0,300.12813,4450.4833,0.0,-0.01135992835615196,-0.011359788969916074,0.0,0.0,0.0,-0.3343336039311577,-0.5113049887668735,-0.5071972120664675,0.003108287144714057,-0.004236081115518656,-0.07642217686753162
2273,13.0,300.18203,4560.1759999999995,0.0,-0.011364942844890202,-0.011364791180103029,0.0,0.0,0.0,-0.35152507387282367,-0.5252539671960306,-0.5094006054689255,0.0046145840340989855,-0.0018538343782842082,-0.07869428078577083
2274,13.0,299.98281000000003,4500.9721,0.0,-0.011369924343571092,-0.011369793390290206,0.0,0.0,0.0,-0.3442137752587547,-0.5223478341867175,-0.5016215196811896,0.002289414282947598,0.0004215699184457116,-0.07940892912105112
2275,13.0,299.998,4398.9937,0.0,-0.011374938832309667,-0.011374795600477161,0.0,0.0,0.0,-0.3314018458268157,-0.5119509053081205,-0.49383148065987253,0.001886047118838358,0.001072693126391569,-0.08667669547107382
2276,13.0,299.99677,4450.5092,0.0,-0.011379953321047909,-0.011379797810664116,0.0,0.0,0.0,-0.33501899669630064,-0.5174509383084316,-0.5003737224480415,0.0026244116872842674,-0.002943528220153617,-0.07829218058958663
2277,13.0,299.88777000000005,4463.5263,0.0,-0.011384934819728798,-0.011384800020851293,0.0,0.0,0.0,-0.3418068097787057,-0.5119072139638086,-0.5030865172057736,0.002188190901932628,-0.0006670010295303765,-0.08511742110418542
2278,13.0,299.94302000000005,4480.5197,0.0,-0.011389949308467262,-0.01138980223103836,0.0,0.0,0.0,-0.3391695021534237,-0.5201892872336855,-0.5026073411009825,-0.001207415264987609,-0.004716974679229155,-0.08353639124439993
2279,13.0,299.82366,4488.4359,0.0,-0.011394930807148151,-0.01139477153194779,0.0,0.0,0.0,-0.34914446302787566,-0.5182323162555474,-0.4969956580721525,-0.003000906445491407,-0.005200371578636715,-0.08911773351223551
2280,13.0,299.88268999999997,4476.5971,0.0,-0.011399945295886504,-0.011399773742134967,0.0,0.0,0.0,-0.34457025690893667,-0.5121204220498505,-0.5040830385466225,-0.004112958461417396,0.0009172143568470092,-0.08022371797696452
2281,13.0,299.85868,4487.9795,0.0,-0.011404926794567394,-0.011404775952322033,0.0,0.0,0.0,-0.3402246298800567,-0.5252808588536845,-0.4987282144181425,-0.0005692914174771885,0.0027303171956863277,-0.09353976466490602
2282,13.0,300.07117,4556.7388,0.0,-0.011409941283305858,-0.01140977816250921,0.0,0.0,0.0,-0.34439817664445366,-0.5235456883224365,-0.5171909484652725,0.0014921546537641987,0.005932274853844944,-0.07784345771655113
2283,13.0,300.0354,4494.0249,0.0,-0.011414922781986747,-0.011414780372696165,0.0,0.0,0.0,-0.3376143051049377,-0.5231857008269084,-0.5052713377338985,5.539575490763535e-05,0.001068679541420459,-0.08100515975883683
2284,13.0,300.13106,4395.4709,0.0,-0.0114199372707251,-0.011419782582883342,0.0,0.0,0.0,-0.32388704606266266,-0.5117279092261124,-0.5004984434028505,0.005936526045964505,-0.003739966812780986,-0.07022091096326434
2285,13.0,299.95345,4439.7675,0.0,-0.011424951759463564,-0.01142478479307052,0.0,0.0,0.0,-0.33831501821159266,-0.5154318449666625,-0.4958315958272685,0.0025757238040791473,-0.004458405818010396,-0.08036481102688933
2286,13.0,299.91733999999997,4551.7731,0.0,-0.011429933258144453,-0.011429787003257474,0.0,0.0,0.0,-0.34748065570117065,-0.5252285244860195,-0.5109161945710026,0.005002437224602116,-0.0036549268597131966,-0.07588090271711202
2287,13.0,299.93592,4548.5936,0.0,-0.011434947746882917,-0.011434789213444652,0.0,0.0,0.0,-0.3438891805892197,-0.5297413479139005,-0.5090283475146865,-0.004929743825327836,-0.001053524460999769,-0.09114946208275151
2288,13.0,300.23661,4528.4432,0.0,-0.011439929245563807,-0.011439791423631607,0.0,0.0,0.0,-0.34394193038942567,-0.5219643291563686,-0.5106273878949995,0.00013720549300112788,0.004279541134832827,-0.08156461161605043
2289,13.0,300.22482,4531.7564,0.0,-0.01144494373430216,-0.011444793633818784,0.0,0.0,0.0,-0.34558193647128166,-0.5252758635306914,-0.5066829876407175,-0.0028018112108172373,0.0039513482115427065,-0.0931861008632521
2290,13.0,300.17928,4505.2937,0.0,-0.01144992523298305,-0.011449795844005739,0.0,0.0,0.0,-0.3441205866470577,-0.5197473784675726,-0.5056288022366775,0.0016127100360870885,-0.002369505927827028,-0.08171834800072302
2291,13.0,300.27605,4490.0456,0.0,-0.011454939721721513,-0.011454798054192805,0.0,0.0,0.0,-0.3430775165966147,-0.5229632924299585,-0.49882093693479357,-0.0024933900393784374,-0.004196892350676026,-0.08880332605920592
2292,13.0,299.99325,4547.5255,0.0,-0.011459954210459866,-0.011459800264379982,0.0,0.0,0.0,-0.34504465047325567,-0.5274043169557535,-0.5098852429917554,-0.002323273048289198,-0.003401411786018207,-0.07728767483794963
2293,13.0,299.85245,4502.4321,0.0,-0.011464935709140756,-0.011464769565289634,0.0,0.0,0.0,-0.3390363104277787,-0.5219958209694765,-0.5075947911407055,0.00043971468447896056,-0.0009177155508764731,-0.08681636693110832
2294,13.0,299.79645,4466.0219,0.0,-0.01146995019787922,-0.01146977177547659,0.0,0.0,0.0,-0.33263476854849566,-0.5253401542495365,-0.4995842283676245,0.0003073693266424907,0.0008031574033779643,-0.08207999823966512
2295,13.0,300.00698,4523.7307,0.0,-0.011474931696560109,-0.011474773985663655,0.0,0.0,0.0,-0.34131532268519965,-0.5241477311343535,-0.5096381112923656,-0.001122489606531099,0.007052528014755323,-0.08120590892164922
2296,13.0,299.92069,4568.5072,0.0,-0.011479946185298462,-0.01147977619585061,0.0,0.0,0.0,-0.3495967373425117,-0.5264144526680615,-0.5127009028996395,-0.0037768822496992566,-0.0006519915126190524,-0.07667500201923352
2297,13.0,300.0423,4517.8888,0.0,-0.011484927683979351,-0.011484778406037788,0.0,0.0,0.0,-0.3459437782144927,-0.5254082547887575,-0.5019733403809115,-0.00038750948593670864,-0.0014054153789536989,-0.08489488605097292
2298,13.0,300.04422999999997,4513.206,0.0,-0.011489942172717815,-0.011489780616224965,0.0,0.0,0.0,-0.34195818934364564,-0.5195841945389675,-0.5103595352310645,-0.0017115056698624584,-0.003383231850073987,-0.08728736610759232
2299,13.0,300.03148999999996,4551.2767,0.0,-0.011494923671398705,-0.01149478282641192,0.0,0.0,0.0,-0.3438826147285717,-0.5294021624429255,-0.5101897043818036,0.006149349502268545,-0.0028646281573917872,-0.08963179379146932
2300,13.0,300.13116,4509.5575,0.0,-0.011499938160137169,-0.011499785036599097,0.0,0.0,0.0,-0.3426246241994177,-0.5174343716692965,-0.5107338703480085,-0.0038244069217895763,0.002595552905886128,-0.08988311122702242
2301,13.0,300.03686,4511.1878,0.0,-0.011504952648875522,-0.011504787246786052,0.0,0.0,0.0,-0.3414949313979257,-0.5255559055933294,-0.5042376199818785,-0.0013934772662754986,0.0016607530869285686,-0.08986521824350652
2302,13.0,299.988,4517.6954,0.0,-0.011509934147556411,-0.01150978945697323,0.0,0.0,0.0,-0.35029365076129165,-0.5210933596354106,-0.5018795843491585,-0.0027470745284901474,0.0006057620882640635,-0.07888918349550622
2303,13.0,299.93684,4501.8333,0.0,-0.011514948636294875,-0.011514791667160407,0.0,0.0,0.0,-0.3424091565656527,-0.5216582465661606,-0.5043774991581835,-0.001187532663575349,0.0015093119163824885,-0.07634507360117213
2304,13.0,299.96657000000005,4519.7606,0.0,-0.011519930134975764,-0.011519793877347362,0.0,0.0,0.0,-0.3380294742009117,-0.5263732032564905,-0.5094916763879135,-0.0014862800323344185,-0.00044691313742939253,-0.07738988137553662
2305,13.0,300.06235,4612.9067,0.0,-0.011524944623714117,-0.011524796087534539,0.0,0.0,0.0,-0.3464283042798117,-0.5351484557475406,-0.5206317026248486,-0.001774893988168398,-0.0013860613901186085,-0.08417282173821072
2306,13.0,299.97912,4591.0753,0.0,-0.011529926122395007,-0.011529798297721605,0.0,0.0,0.0,-0.34717337747584465,-0.5308384444596755,-0.5175604402467385,-0.00016119988358418984,-0.0012305135169172288,-0.08158607326641851
2307,13.0,299.84792999999996,4523.9644,0.0,-0.01153494061113347,-0.01153480050790856,0.0,0.0,0.0,-0.34270285723963867,-0.5276732943272995,-0.5047960626419925,0.0029169461104051673,-0.0014731353414371387,-0.0945810706469249
2308,13.0,299.89515,4547.9463,0.0,-0.01153992210981436,-0.011539769808818212,0.0,0.0,0.0,-0.35380799727563067,-0.5229061957868235,-0.5057479199184335,0.003995298542580267,0.004179445298529136,-0.08031903644037172
2309,13.0,299.91686,4538.8577,0.0,-0.011544936598552713,-0.011544772019005278,0.0,0.0,0.0,-0.35029998357441666,-0.5241099977006295,-0.5052894343806845,-0.0006715138124282534,0.001896422799862358,-0.09059653859593222
2310,13.0,299.9608,4496.3096,0.0,-0.011549951087291177,-0.011549774229192233,0.0,0.0,0.0,-0.3375976776707967,-0.5231639463472615,-0.5060042316637294,-0.002256975891596178,-0.0036246575328508467,-0.08732049229311162
2311,13.0,300.16221,4500.0475,0.0,-0.011554932585972066,-0.01155477643937941,0.0,0.0,0.0,-0.3405191918166277,-0.5207394212429794,-0.5066434810193184,-0.0015324404644900987,0.0009148680546504472,-0.08839122711103492
2312,13.0,299.9917,4547.9619,0.0,-0.01155994707471042,-0.011559778649566366,0.0,0.0,0.0,-0.3410570756322127,-0.5258111736910225,-0.5155986158006215,0.0001736814732185268,0.004382919090860436,-0.08385655598449772
2313,13.0,300.13706,4533.9853,0.0,-0.01156492857339142,-0.011564780859753543,0.0,0.0,0.0,-0.3471981311757876,-0.5246432509632575,-0.5063769455805135,0.003008704823561047,0.0007834059975886521,-0.0883102400570421
2314,13.0,300.0315,4566.7215,0.0,-0.011569943062129773,-0.011569783069940498,0.0,0.0,0.0,-0.35181020245096367,-0.5292271234881505,-0.5071319587600276,-0.007286749691971203,0.004271515484765756,-0.07931284768031863
2315,13.0,300.10534,4609.8333,0.0,-0.011574924560810662,-0.011574785280127675,0.0,0.0,0.0,-0.35437810244439566,-0.5308465909904795,-0.5160495323601235,-0.0014546728100400287,0.005505576086308055,-0.07975109658707043
2316,13.0,300.03622,4571.2487,0.0,-0.011579939049549126,-0.011579787490314852,0.0,0.0,0.0,-0.3412050912068207,-0.5276451057095175,-0.5206952435386195,0.006291158312063984,0.004548791070655726,-0.07776271890883282
2317,13.0,299.9354,4556.6932,0.0,-0.011584953538287479,-0.011584789700501918,0.0,0.0,0.0,-0.34074327207624266,-0.5336658985987235,-0.5107117713633276,0.0069481083362999034,-0.0012289346706114087,-0.08679879109487373
2318,13.0,299.98127,4570.3631,0.0,-0.011589935036968368,-0.011589791910688985,0.0,0.0,0.0,-0.34576490917433966,-0.5291902817145145,-0.5143210695445375,0.0018085791837678684,-0.007507923139699322,-0.08320973663741163
2319,13.0,299.87846,4536.5789,0.0,-0.011594949525706832,-0.01159479412087605,0.0,0.0,0.0,-0.3529323364067096,-0.5245860732601144,-0.5014882975580415,-0.0022656772781549377,-0.008587861004305891,-0.08973720321262241
2320,13.0,299.94009,4512.8195,0.0,-0.011599931024387722,-0.011599796331063228,0.0,0.0,0.0,-0.3485079494475567,-0.5223615029305665,-0.5009150006514616,0.0005438528820566004,-0.0024003589880719875,-0.08280531103224792
2321,13.0,299.96201,4557.0851,0.0,-0.011604945513126075,-0.011604798541250183,0.0,0.0,0.0,-0.34933080985376663,-0.5262845337402395,-0.5096247465235465,0.0008375558257228241,-0.0002678711861468277,-0.08685859818202622
2322,13.0,299.88924,4579.2539,0.0,-0.011609927011806964,-0.011609767842159724,0.0,0.0,0.0,-0.34036261427867465,-0.5296999363823135,-0.5219162909691275,0.0027223544684504674,0.0012635057507733088,-0.08045020470556702
2323,13.0,299.8254,4538.6629,0.0,-0.011614941500545428,-0.011614770052346901,0.0,0.0,0.0,-0.3338844605593307,-0.5276101181835645,-0.5181456327094925,-0.002004477715701548,0.001035080066779449,-0.08803673143104893
2324,13.0,299.97028,4585.3662,0.0,-0.011619922999226318,-0.011619772262534078,0.0,0.0,0.0,-0.3402949494369967,-0.5341918057981265,-0.5193500628383606,0.002058831490815848,0.0032678561009372863,-0.08238777397079022
2325,13.0,299.9707,4614.784000000001,0.0,-0.01162493748796467,-0.011624774472721033,0.0,0.0,0.0,-0.35519223876724465,-0.5333731402473305,-0.5142137156964425,-9.50824865781608e-05,0.0008088654971538092,-0.08791255864454402
2326,13.0,300.13228,4585.2549,0.0,-0.011629951976703135,-0.011629776682907988,0.0,0.0,0.0,-0.3529955733454506,-0.5342483046237024,-0.5065591076834914,-0.005732621521015694,0.0013142644132077988,-0.08238552962181872
2327,13.0,300.01027,4553.0459,0.0,-0.011634933475384024,-0.011634778893094944,0.0,0.0,0.0,-0.3476391077518087,-0.5263818361473425,-0.5099913302772255,-0.0035632608589414665,0.0015782643962875685,-0.08321816789149371
2328,13.0,300.08107,4589.4242,0.0,-0.011639947964122266,-0.01163978110328212,0.0,0.0,0.0,-0.3438530075606497,-0.5272355804166005,-0.5239817607679735,-0.0026811909804879473,0.001057681724835059,-0.07950597416262872
2329,13.0,299.93074,4564.9157,0.0,-0.011644929462803377,-0.011644783313469298,0.0,0.0,0.0,-0.34065036717457364,-0.5296198693594115,-0.5173501705859864,0.002405214786526218,-0.0024840749272341074,-0.08758998642220861
2330,13.0,299.86228,4585.7737,0.0,-0.01164994395154173,-0.011649785523656364,0.0,0.0,0.0,-0.3433204331755887,-0.5339886592855775,-0.5166515954370425,0.0063861599321649145,-0.008510818634277403,-0.09136184133021172
2331,13.0,299.99074,4625.7543,0.0,-0.01165492545022262,-0.011654787733843541,0.0,0.0,0.0,-0.36727542859476264,-0.5280205047390665,-0.5108178789137995,0.007793753089558543,-0.008374970572170242,-0.08274670768621423
2332,13.0,299.81176,4579.8737,0.0,-0.011659939938961084,-0.011659789944030496,0.0,0.0,0.0,-0.3562146689131506,-0.5281098733978865,-0.5078427131751735,0.0018915673053831582,0.0007846801089268973,-0.08667634691303941
2333,13.0,300.04798999999997,4582.5949,0.0,-0.011664921437641973,-0.011664792154217674,0.0,0.0,0.0,-0.35216725152120165,-0.5308624078245405,-0.5099647729921045,0.002293954555320688,0.004163028316433906,-0.08209046207344782
2334,13.0,300.24734,4625.2644,0.0,-0.011669935926380326,-0.01166979436440485,0.0,0.0,0.0,-0.3487334482573117,-0.5311952706148915,-0.5260361760082285,-0.0040949013313852966,0.011044578077514989,-0.08489217965995582
2335,13.0,300.24942999999996,4620.5191,0.0,-0.01167495041511879,-0.011674796574591806,0.0,0.0,0.0,-0.3445469724216387,-0.5355224767569534,-0.5244529625944775,-0.003869969435061246,0.005639048583555765,-0.08116654314201413
2336,13.0,299.97831,4574.0953,0.0,-0.01167993191379968,-0.011679765875501347,0.0,0.0,0.0,-0.3399885324742557,-0.5316446571667425,-0.5187775663993595,-0.007512371814263373,0.0005028250885474726,-0.0891771819088526
2337,13.0,299.8833,4617.4929999999995,0.0,-0.011684946402537921,-0.011684768085688524,0.0,0.0,0.0,-0.35779103275622565,-0.5332760303577465,-0.5125355303508186,-0.005122244929676215,-0.0023144321371916677,-0.08361395351305471
2338,13.0,299.80887,4611.1775,0.0,-0.01168992790121881,-0.011689770295875479,0.0,0.0,0.0,-0.35406572757106664,-0.5333633319863625,-0.5142537694728955,0.000969448676197135,-0.0072217496980562035,-0.0901504886766605
2339,13.0,300.03785,4586.1691,0.0,-0.011694942389957386,-0.011694772506062656,0.0,0.0,0.0,-0.3487054521570487,-0.5296854063758795,-0.5156900413571445,0.009868909458035532,-0.004339747037224686,-0.08685005749693332
2340,13.0,299.85688999999996,4570.8368,0.0,-0.011699923888638275,-0.011699774716249611,0.0,0.0,0.0,-0.33975118877083166,-0.5336211737393094,-0.5160479111599635,0.007849794534039403,0.0035594565101160066,-0.0900803373192371
2341,13.0,300.01668,4581.6702,0.0,-0.011704938377376517,-0.011704776926436566,0.0,0.0,0.0,-0.33880112494706766,-0.5329372704518135,-0.5209749512287245,0.006044460283716785,0.0027540546057790278,-0.08569149112059173
2342,13.0,300.03823,4579.3499,0.0,-0.011709952866115092,-0.011709779136623744,0.0,0.0,0.0,-0.34639714683923667,-0.5355130535310235,-0.5100978228627355,-0.004012613061614076,7.900909151234023e-05,-0.0936584709671214
2343,13.0,300.13362,4611.6476,0.0,-0.011714934364795981,-0.01171478134681081,0.0,0.0,0.0,-0.3569964724253087,-0.5292073144486955,-0.5156219408179236,-0.005799347181176005,0.003277317121096017,-0.08279635592786412
2344,13.0,300.26165,4667.2777,0.0,-0.011719948853534223,-0.011719783556997987,0.0,0.0,0.0,-0.3642649004276467,-0.5368761991555555,-0.5175947691601265,-0.006952697953952863,0.0015165233186691988,-0.08727209338883501
2345,13.0,300.05931,4638.0093,0.0,-0.011724930352215335,-0.011724785767184942,0.0,0.0,0.0,-0.35265957961229066,-0.5309408536472825,-0.5262385727157035,-0.005908196890393635,-0.00025626977647685774,-0.08104445157121463
2346,13.0,299.87781,4606.9878,0.0,-0.011729944840953799,-0.01172978797737212,0.0,0.0,0.0,-0.3480871264160247,-0.5333393787539985,-0.5189827596771106,-0.0017138336119672081,0.006156310631780555,-0.08918859211822872
2347,13.0,300.18099,4640.0037,0.0,-0.011734926339634466,-0.011734790187559296,0.0,0.0,0.0,-0.34746724026984666,-0.5349978361201755,-0.5279801773850865,0.0033918733535518372,0.005288598507244035,-0.07784220533942753
2348,13.0,299.99133,4607.3628,0.0,-0.011739940828373041,-0.011739792397746251,0.0,0.0,0.0,-0.3491704427604397,-0.5333659157741175,-0.5179868969488265,0.007354373193045123,0.005938341891468714,-0.08652853398845142
2349,13.0,300.09695,4584.897,0.0,-0.01174492232705393,-0.011744794607933429,0.0,0.0,0.0,-0.3478318380533297,-0.5321916906307305,-0.5136706947028505,0.006679355602301073,-0.0019432651493353382,-0.08053171257011121
2350,13.0,300.03801,4624.5211,0.0,-0.011749936815792172,-0.01174976390884297,0.0,0.0,0.0,-0.35535358871316863,-0.5327006664209625,-0.5176846748414995,0.002263006452216348,-0.007459600431830243,-0.0899012453640621
2351,13.0,299.97871000000004,4639.4829,0.0,-0.011754951304530747,-0.011754766119029925,0.0,0.0,0.0,-0.3559619238082067,-0.5356516965422065,-0.5186733434940735,-0.0005229420141778586,-0.01008178773116998,-0.08052340898554172
2352,13.0,299.90054,4655.0141,0.0,-0.011759932803211637,-0.011759768329217102,0.0,0.0,0.0,-0.3489507600062587,-0.5409462322897365,-0.5251110482694256,-0.0004864707050434204,-0.0016818934356899583,-0.09170783786835891
2353,13.0,300.07614,4705.6995,0.0,-0.011764947291949879,-0.011764770539404057,0.0,0.0,0.0,-0.3554266744428817,-0.5399112074450875,-0.5350772647955144,0.005368331056288025,-0.0029915755266455174,-0.08303541202395712
2354,13.0,299.92585,4635.391,0.0,-0.011769928790630768,-0.011769772749591234,0.0,0.0,0.0,-0.34962092362239866,-0.5377769379644515,-0.5216452465673775,-0.0007411432852551473,-0.001890253322653478,-0.08826359711518882
2355,13.0,299.91421,4557.1291,0.0,-0.011774943279369232,-0.011774774959778411,0.0,0.0,0.0,-0.34680151468914466,-0.5251037528687055,-0.5133481771960205,-0.001153584732224949,0.002205734618139058,-0.07986333531389753
2356,13.0,300.12981,4602.0731,0.0,-0.011779924778050233,-0.011779777169965366,0.0,0.0,0.0,-0.3479799144229437,-0.5344147410851284,-0.5165206429941185,-0.00020933326567208478,0.0021188735506665383,-0.08700875880709592
2357,13.0,300.28452000000004,4648.231,0.0,-0.011784939266788474,-0.011784779380152433,0.0,0.0,0.0,-0.35367769331277066,-0.5345958798055055,-0.5246725946861535,0.0009733383001510111,0.002869442615241937,-0.08378501444793712
2358,13.0,300.25428,4623.5328,0.0,-0.011789920765469586,-0.011789781590339388,0.0,0.0,0.0,-0.3448600971000417,-0.5399557296544815,-0.5206226846989586,-0.000967489840838813,0.00017861549458047683,-0.09512115726822731
2359,13.0,300.09336,4633.999,0.0,-0.01179493525420805,-0.011794783800526565,0.0,0.0,0.0,-0.34991857597177467,-0.5376770517695935,-0.5210243674361015,-0.0055164503877062655,0.004549093221835545,-0.08538464656630851
2360,13.0,300.07371,4690.7376,0.0,-0.011799949742946403,-0.011799786010713742,0.0,0.0,0.0,-0.3624659863326077,-0.5420980240759095,-0.5213030821411084,-0.006820480873579055,0.007149555932406234,-0.08562539073706811
2361,13.0,300.01667000000003,4710.3898,0.0,-0.011804931241627292,-0.011804788220900697,0.0,0.0,0.0,-0.36382485604171766,-0.5387223307052544,-0.5292936838872194,-0.0027331656443674475,-0.0004980834833795126,-0.07872524773532702
2362,13.0,300.12926,4708.7264,0.0,-0.011809945730365756,-0.011809790431087874,0.0,0.0,0.0,-0.35883719321947366,-0.5427406272893296,-0.5297574281929874,0.002933746810313267,-0.004042350229523905,-0.08304678575632962
2363,13.0,300.04573999999997,4660.957,0.0,-0.011814927229046424,-0.01181479264127483,0.0,0.0,0.0,-0.35741175297879363,-0.5308239955132494,-0.5285788055441665,0.004113380682734066,-0.005104991610948445,-0.07880104998855812
2364,13.0,300.10039,4608.8163,0.0,-0.011819941717784999,-0.011819794851462007,0.0,0.0,0.0,-0.3447726434839107,-0.5298527547623955,-0.5263396545456795,0.006103599841703404,-0.0024788132207898177,-0.08813245215474583
2365,13.0,300.12712,4606.4832,0.0,-0.011824923216465888,-0.011824764152371547,0.0,0.0,0.0,-0.3488808356168577,-0.5336250848846955,-0.5177499585454425,0.002013312344648458,-0.001155438473282899,-0.08692735328081182
2366,13.0,300.06788,4654.4862,0.0,-0.01182993770520413,-0.011829766362558503,0.0,0.0,0.0,-0.35670608507914964,-0.5388177991296765,-0.5193237183357605,-0.0020387412744580983,0.0034978889009147566,-0.0922565756190151
2367,13.0,300.09837999999996,4646.3322,0.0,-0.011834952193942594,-0.01183476857274568,0.0,0.0,0.0,-0.3521240364044366,-0.5400895293301865,-0.5201553838853396,-0.002182524402073388,0.006135233003200354,-0.08477075075472172
2368,13.0,299.88092,4582.1122,0.0,-0.011839933692623483,-0.011839770782932857,0.0,0.0,0.0,-0.3441366871911467,-0.5361598212023545,-0.5125511951973645,-0.008392829105182742,0.005142987881748385,-0.09168353101171
2369,13.0,299.69728,4656.9736,0.0,-0.011844948181361836,-0.011844772993119923,0.0,0.0,0.0,-0.34705619510177965,-0.5422028447987545,-0.5263446600011735,-0.0043080568297471054,0.0017745947754138683,-0.08921776054885742
2370,13.0,299.77405,4742.5203,0.0,-0.011849929680042726,-0.01184977520330699,0.0,0.0,0.0,-0.35949079019647867,-0.5493778004793676,-0.5327391496597604,0.0014846355274221186,-0.004145928606421296,-0.09218060313976723
2371,13.0,299.84064,4687.5281,0.0,-0.01185494416878119,-0.011854777413494055,0.0,0.0,0.0,-0.35918334985113665,-0.5389929394094615,-0.5267152055627435,0.006349575220079284,-0.0018002435804952083,-0.08109157580686542
2372,13.0,300.11067,4632.1551,0.0,-0.011859925667462301,-0.01185977962368101,0.0,0.0,0.0,-0.35913540285640466,-0.5331408729269075,-0.5157832198363406,0.004524456653604105,0.0027226793164325277,-0.08569459673214823
2373,13.0,300.14711,4644.9943,0.0,-0.011864940156200654,-0.011864781833868188,0.0,0.0,0.0,-0.34923962747726767,-0.5354563317904255,-0.5272663224246344,-0.003967167680053966,-0.001019998345665999,-0.07567018621306593
2374,13.0,299.95653,4660.4412,0.0,-0.011869921654881543,-0.011869784044055143,0.0,0.0,0.0,-0.35223014395490865,-0.5422100895369694,-0.5222175302238575,-0.004772219709131415,-0.0025360550626641475,-0.08429583840635152
2375,13.0,299.93424,4693.2919,0.0,-0.011874936143620007,-0.01187478625424232,0.0,0.0,0.0,-0.35033989549585565,-0.5420200342157124,-0.5342836366546895,-0.003797758950784627,0.000948975552626595,-0.0876237671672925
2376,13.0,300.02816,4712.4328,0.0,-0.01187995063235825,-0.011879788464429275,0.0,0.0,0.0,-0.35907865071830364,-0.5465176892895965,-0.5268655820100845,0.005794108678159005,0.0012924323186031387,-0.0947015025140606
2377,13.0,299.95378999999997,4636.9685,0.0,-0.011884932131039139,-0.011884790674616452,0.0,0.0,0.0,-0.35140832719630166,-0.5391828427432035,-0.5189314892220506,0.002127882255980628,0.0001106088329812419,-0.09479221474251322
2378,13.0,300.02001,4639.5681,0.0,-0.011889946619777714,-0.01188979288480363,0.0,0.0,0.0,-0.36059213226017267,-0.5370718172198615,-0.5126489130370085,0.002687325399243367,0.0005746421683402664,-0.09086381674706051
2379,13.0,300.12327,4702.928,0.0,-0.011894928118458381,-0.011894762185712948,0.0,0.0,0.0,-0.36208757795026164,-0.5407164474320585,-0.5267686443730175,0.005209464789009145,0.0028032767757618774,-0.08218427484720642
2380,13.0,299.90028,4683.3215,0.0,-0.011899942607196845,-0.011899764395900125,0.0,0.0,0.0,-0.36034740196351966,-0.5368027587883074,-0.5264626327103165,0.003065266571968257,0.006613021867279444,-0.07878263619449083
2381,13.0,299.97688,4651.8558,0.0,-0.011904924105877734,-0.011904766606087303,0.0,0.0,0.0,-0.3426960684639687,-0.5430334363032274,-0.5283184914609755,-0.0017215743361061583,-0.0009569777763513532,-0.08338702500740862
2382,13.0,299.91877,4685.1092,0.0,-0.011909938594616087,-0.011909768816274369,0.0,0.0,0.0,-0.35488597379201864,-0.5429605025610295,-0.5263097332702266,-0.0061474373980048335,-0.009065472346967461,-0.08457844196524232
2383,13.0,299.83087,4762.8401,0.0,-0.011914920093296977,-0.011914771026461546,0.0,0.0,0.0,-0.3664796320987237,-0.5491135651182896,-0.5321912853306905,-0.0034470886952261666,-0.004020617433429046,-0.08522210605151702
2384,13.0,299.79765,4752.4381,0.0,-0.01191993458203544,-0.011919773236648501,0.0,0.0,0.0,-0.36948703945553163,-0.5446342600037164,-0.5305012145613935,0.0021733122361392177,-0.004232102386350986,-0.090765110988569
2385,13.0,299.85667,4694.8986,0.0,-0.011924949070773794,-0.011924775446835678,0.0,0.0,0.0,-0.3534589528811827,-0.5450641820211465,-0.5286087977471265,0.006987897350501774,0.004207504524273366,-0.08578292579636561
2386,13.0,299.83902,4619.0705,0.0,-0.011929930569454794,-0.011929777657022855,0.0,0.0,0.0,-0.3450130370701357,-0.5361415624355524,-0.5229275044364265,0.00013433657666798787,0.006655551723001814,-0.08996779360412992
2387,13.0,300.19067,4627.874,0.0,-0.011934945058193147,-0.01193477986720981,0.0,0.0,0.0,-0.3352797363445337,-0.5420403093502134,-0.5294381024239725,0.005247787427666295,0.004478394202733096,-0.08573098963598991
2388,13.0,300.1256,4656.714,0.0,-0.011939926556874259,-0.011939782077396766,0.0,0.0,0.0,-0.35147296242018067,-0.5408427085270194,-0.5232091069042185,0.002094898229450358,0.002935910403251797,-0.09148913391377451
2389,13.0,300.0822,4691.2016,0.0,-0.0119449410456125,-0.01194478428758372,0.0,0.0,0.0,-0.36252319443325365,-0.5415986437641245,-0.5218863088986685,-0.003999410210161056,-0.003640255910190286,-0.08910570319379822
2390,13.0,300.11011,4665.0698,0.0,-0.01194992254429339,-0.011949786497770898,0.0,0.0,0.0,-0.3605565671816626,-0.5413798830675345,-0.5161282720253945,-0.0058507761085516445,-0.01032519685101759,-0.08605105811732823
2391,13.0,299.92202000000003,4695.4707,0.0,-0.011954937033031965,-0.011954788707958075,0.0,0.0,0.0,-0.35933557041365966,-0.5443198788951895,-0.5236503975877705,-0.01034276356800129,-0.004624950494547076,-0.08448027829555432
2392,13.0,299.98877000000005,4783.2755,0.0,-0.011959951521770207,-0.011959790918145141,0.0,0.0,0.0,-0.36258178055403567,-0.5496356726298174,-0.5417788806919125,-0.0038997974915050463,0.002301453923285818,-0.08369230713003763
2393,13.0,299.89724,4774.247,0.0,-0.011964933020451096,-0.011964760219054571,0.0,0.0,0.0,-0.35502616707585466,-0.5521607020115185,-0.5440650059650355,0.0014815184661394884,0.0037847887415545668,-0.09042122403713002
2394,13.0,299.83862999999997,4714.3913,0.0,-0.01196994750918956,-0.011969762429241748,0.0,0.0,0.0,-0.35286347592991363,-0.5478193711630625,-0.5323743897562615,0.008156940428902342,0.0028141702275869774,-0.08556749261310402
2395,13.0,299.78519,4680.8545,0.0,-0.011974929007870339,-0.011974764639428814,0.0,0.0,0.0,-0.3607399147872577,-0.5419226710136035,-0.5202002911297715,0.00928776229498077,0.0059397659131592544,-0.09045679215539032
2396,13.0,299.90623999999997,4685.4585,0.0,-0.011979943496608803,-0.011979766849615991,0.0,0.0,0.0,-0.3628165911322096,-0.5418353288549835,-0.5196104782465616,0.006423678962167754,0.003356521564187887,-0.08497654691628222
2397,13.0,300.09722,4695.1639,0.0,-0.011984924995289692,-0.011984769059802947,0.0,0.0,0.0,-0.35972948152253564,-0.5442560441388895,-0.5232270515634895,-0.004353316482563886,0.0027028215396477174,-0.09156210109322582
2398,13.0,300.17672999999996,4726.718,0.0,-0.011989939484028045,-0.011989771269990124,0.0,0.0,0.0,-0.35506572435975864,-0.5466310618432855,-0.5351074596484945,-0.0060405250229784045,-0.002066752573472598,-0.08239862486611113
2399,13.0,299.8617,4718.3364,0.0,-0.011994920982709045,-0.011994773480177301,0.0,0.0,0.0,-0.3482272082423497,-0.5470171101313855,-0.5390121303663554,-0.007545852130692622,0.0037337243815649063,-0.08837701019888182
2400,13.0,299.9138,4728.1271,0.0,-0.011999935471447398,-0.011999775690364256,0.0,0.0,0.0,-0.3562797499670736,-0.5502075915162614,-0.5307452355829765,-0.0034013021523573864,0.0026010267869013576,-0.08476089689749922
2401,13.0,299.98501,4784.084,0.0,-0.012004949960185751,-0.012004777900551433,0.0,0.0,0.0,-0.36347690595737764,-0.5566824319077784,-0.5340827598223645,-0.003358253107283777,-0.003555245138725377,-0.09203391593604031
2402,13.0,300.20547999999997,4798.5767,0.0,-0.012009931458866752,-0.012009780110738388,0.0,0.0,0.0,-0.37532278247897466,-0.5535652895651405,-0.5297594344281854,0.005238261052876115,-0.00940593309451832,-0.08607074658002131
2403,13.0,300.22143,4708.2953,0.0,-0.012014945947605105,-0.012014782320925343,0.0,0.0,0.0,-0.3576244341747837,-0.5476866860624675,-0.5258930949616074,0.0024656231362880578,-0.005144490835621715,-0.09059043173757951
2404,13.0,299.74006,4648.4707,0.0,-0.012019927446286216,-0.01201978453111252,0.0,0.0,0.0,-0.34397992726817567,-0.5468154936264875,-0.5222236097244576,0.004043315654219186,0.0027033739636022373,-0.0893766300585366
2405,13.0,299.75869,4706.6165,0.0,-0.012024941935024458,-0.012024786741299587,0.0,0.0,0.0,-0.3463524422448247,-0.5519537760760965,-0.5323876734650725,-0.006238577623299674,0.0030686974368068567,-0.09466253190196451
2406,13.0,299.79843999999997,4755.7928,0.0,-0.012029923433705347,-0.012029788951486764,0.0,0.0,0.0,-0.36279444148502366,-0.5506387193013105,-0.5322090982674484,-0.003708851726060166,0.0026521618717479977,-0.08534650175304392
2407,13.0,299.90884,4736.0727,0.0,-0.012034937922443811,-0.012034791161673719,0.0,0.0,0.0,-0.36456035402430564,-0.5488842666206595,-0.5262032406847165,-0.0012227579993268189,0.0059936891583060635,-0.08834571394304311
2408,13.0,300.06223,4753.1528,0.0,-0.01203991942112459,-0.01203976046258326,0.0,0.0,0.0,-0.36909930917226563,-0.5492369992454714,-0.5265034666893464,0.001981913750549658,0.0043512073011557255,-0.08431535259002741
2409,13.0,300.10537999999997,4752.8271,0.0,-0.012044933909863054,-0.012044762672770437,0.0,0.0,0.0,-0.36129006906155364,-0.5465303447833455,-0.5369203565949134,0.0004029868305517036,-0.0008131868365777923,-0.08558030820036883
2410,13.0,300.23278999999997,4761.7935,0.0,-0.012049948398601518,-0.012049764882957392,0.0,0.0,0.0,-0.35684124250998867,-0.5522035422257465,-0.5384215474130695,0.0025645687310782276,-0.005943914767018714,-0.08495537302894252
2411,13.0,300.38381,4799.8975,0.0,-0.012054929897282296,-0.01205476709314457,0.0,0.0,0.0,-0.36104792255265566,-0.5503143982093025,-0.5476866556649646,0.0027414529156103377,0.0028463464911375274,-0.08306253470263393
2412,13.0,299.91194,4780.9359,0.0,-0.01205994438602076,-0.012059769303331747,0.0,0.0,0.0,-0.36893576047362464,-0.5508597192806215,-0.5334896437438285,0.00013915813740133888,0.006132494694805104,-0.08227197772286202
2413,13.0,299.87937999999997,4697.1818,0.0,-0.01206492588470165,-0.012064771513518702,0.0,0.0,0.0,-0.3535892467115417,-0.5487220351471485,-0.5255146967117625,-0.003734581895124536,-0.0007424447847435953,-0.09015028906639082
2414,13.0,299.74624,4696.6526,0.0,-0.012069940373439891,-0.012069773723705879,0.0,0.0,0.0,-0.36448175621404866,-0.5430885368436655,-0.5200948117943616,-0.004830778978785765,-0.008626811756700032,-0.08828563125186341
2415,13.0,299.85228,4775.7749,0.0,-0.012074921872121003,-0.012074775933892834,0.0,0.0,0.0,-0.3631024391179207,-0.5523489638800985,-0.5362648952377245,0.00018503597410412883,-0.005422496873508775,-0.08940696474003042
2416,13.0,300.01559,4753.7963,0.0,-0.012079936360859356,-0.012079778144080011,0.0,0.0,0.0,-0.35651131814492765,-0.5559163945671765,-0.5326076500617825,0.004579732182334376,-0.0016335047652393684,-0.09340229094433841
2417,13.0,299.98605,4707.8301,0.0,-0.012084950849597598,-0.012084780354267077,0.0,0.0,0.0,-0.34662222008394966,-0.5522333824411915,-0.5322071730922585,0.002082573764509028,-0.002397560999245848,-0.09511767371438351
2418,13.0,300.00445,4752.2015,0.0,-0.012089932348278709,-0.012089782564454143,0.0,0.0,0.0,-0.36379397217866966,-0.5520920239197405,-0.5286645872976324,0.0005211206869906074,-0.00017655644878726483,-0.08815981700019651
2419,13.0,300.14156,4791.9255,0.0,-0.012094946837017173,-0.01209478477464121,0.0,0.0,0.0,-0.36493683723146164,-0.5565358855458156,-0.5351529849754875,0.001964560728012048,0.007415677458545383,-0.08624711289242733
2420,13.0,300.01402,4757.7404,0.0,-0.012099928335698062,-0.012099786984828165,0.0,0.0,0.0,-0.3634829753254767,-0.5531425818884225,-0.5296087337408125,0.0002897694459830177,0.008454435521862822,-0.08833174122416411
2421,13.0,300.03126000000003,4784.1839,0.0,-0.012104942824436415,-0.012104789195015342,0.0,0.0,0.0,-0.35672191204571163,-0.5577120763943965,-0.5398384662204084,-0.004144841794364035,-5.839597730798424e-05,-0.09157405035165511
2422,13.0,299.9785,4775.3125,0.0,-0.012109924323117305,-0.012109758495924883,0.0,0.0,0.0,-0.35643717863511065,-0.5526533036801344,-0.5424852882641296,-0.004727383594856436,-0.011111279318347888,-0.08825043702289001
2423,13.0,299.91746,4727.6092,0.0,-0.012114938811855769,-0.012114760706111838,0.0,0.0,0.0,-0.35890585104624967,-0.5451511087472255,-0.5330181886047994,-0.001873995319498938,-0.00014081137652950087,-0.08818768036469642
2424,13.0,300.08037,4773.3407,0.0,-0.012119920310536547,-0.012119762916299015,0.0,0.0,0.0,-0.3662370701572847,-0.5505233709099264,-0.5342159312830075,-0.0012360238749360589,0.0054931887998605254,-0.08871083962982823
2425,13.0,299.9102,4791.4521,0.0,-0.012124934799275011,-0.012124765126486192,0.0,0.0,0.0,-0.3702450417228406,-0.5538316628839295,-0.5324050912342915,0.0024686499169867776,0.002909857007405527,-0.08555264647263881
2426,13.0,299.93165,4740.6276,0.0,-0.012129949288013475,-0.012129767336673147,0.0,0.0,0.0,-0.36149943692971664,-0.5476218380560675,-0.5319111419430425,0.0003453798234738347,0.001056823198025329,-0.08735818621008173
2427,13.0,299.79866,4792.8575,0.0,-0.012134930786694142,-0.012134769546860324,0.0,0.0,0.0,-0.36145804566313167,-0.5560860227664175,-0.5393649237861735,0.004181118883719306,0.00025654785283430175,-0.08633351576820461
2428,13.0,299.96281,4881.0022,0.0,-0.012139945275432718,-0.01213977175704728,0.0,0.0,0.0,-0.36970019687906863,-0.5635086269039715,-0.5504939765245255,0.009813203703312802,-0.004489242970228785,-0.09048826370349632
2429,13.0,300.10497000000004,4844.4193,0.0,-0.012144926774113607,-0.012144773967234457,0.0,0.0,0.0,-0.36808480264214166,-0.5603709966443114,-0.5441267027636245,0.0018248112477198485,-0.01086844075963159,-0.09258523443470122
2430,13.0,300.13242,4803.6264,0.0,-0.012149941262851849,-0.012149776177421634,0.0,0.0,0.0,-0.36728681752588666,-0.5549094468827985,-0.5379862247726065,0.0022984743600417577,-0.007381994086796092,-0.08345192671606393
2431,13.0,300.03764,4784.8556,0.0,-0.01215492276153296,-0.0121547783876087,0.0,0.0,0.0,-0.3669968152147656,-0.5491117615331115,-0.5383680478077896,-0.003460015030726897,0.0037398090497404164,-0.08546914858489822
2432,13.0,300.02259,4744.3188,0.0,-0.012159937250271424,-0.012159780597795766,0.0,0.0,0.0,-0.35973422353300366,-0.5491213164815545,-0.5332989196775055,0.0007504003280362463,0.014405382751200587,-0.08385486284358062
2433,13.0,300.25211,4743.0888,0.0,-0.012164918748952314,-0.012164782807982832,0.0,0.0,0.0,-0.34895331339651064,-0.5517941993178475,-0.5410330576908056,-0.004833715782875605,0.004759331877134485,-0.0982537030388855
2434,13.0,300.12057999999996,4805.8615,0.0,-0.012169933237690667,-0.012169785018169788,0.0,0.0,0.0,-0.3628589044563857,-0.5561651879967304,-0.5418378011852275,-0.0008089958720441762,0.0008216977219852512,-0.08607837635327432
2435,13.0,299.95169,4794.0873,0.0,-0.01217494772642913,-0.012174787228356965,0.0,0.0,0.0,-0.36798319392211365,-0.5563840297533285,-0.5329155970321745,-0.0034862711779181767,-0.0012724564981816786,-0.100547260501492
2436,13.0,299.80714,4773.1823,0.0,-0.01217992922511002,-0.012179756529266506,0.0,0.0,0.0,-0.36929067158615164,-0.5508874316708564,-0.5307501397134605,0.0030485109616896072,-0.0021838585484800577,-0.091504114816503
2437,13.0,299.97312999999997,4836.2793,0.0,-0.012184943713848373,-0.012184758739453683,0.0,0.0,0.0,-0.36792397958626966,-0.5613320947616645,-0.5408520608254425,-0.0012428905695387488,-0.0032501057830354664,-0.093720518350245
2438,13.0,299.81908,4827.103,0.0,-0.012189925212529262,-0.012189760949640638,0.0,0.0,0.0,-0.3616355265506477,-0.5547628397258295,-0.5509204129616114,-0.0030477247809370172,-0.004615044150969395,-0.07847708556058533
2439,13.0,299.88205,4798.13,0.0,-0.012194939701267726,-0.012194763159827593,0.0,0.0,0.0,-0.35125539735870864,-0.5585419282262966,-0.5487143749763924,3.417286375334907e-05,0.003269322780457037,-0.08737037662203483
2440,13.0,299.8836,4822.1904,0.0,-0.012199921199948394,-0.01219976537001477,0.0,0.0,0.0,-0.36233159897184464,-0.5550323135899246,-0.5484615589439414,-0.0028370956190495373,0.006906696703387894,-0.08510409686537042
2441,13.0,300.02965,4801.5277,0.0,-0.012204935688686969,-0.012204767580201725,0.0,0.0,0.0,-0.37454177943439565,-0.5503280770856525,-0.5346746701332815,-0.0014706345388653286,-0.0037302929087762466,-0.08895912846083241
2442,13.0,300.0467,4771.2013,0.0,-0.012209950177425433,-0.012209769790388902,0.0,0.0,0.0,-0.3699485546110796,-0.5530640347406705,-0.5273134790842885,-0.002430584745180038,-0.01004423972221428,-0.08875719278215291
2443,13.0,300.08955,4797.412,0.0,-0.0122149316761061,-0.01221477200057608,0.0,0.0,0.0,-0.37311121214820964,-0.5536545872964536,-0.5315276571776955,0.002123736745846498,0.0018369982146226082,-0.08916132150503732
2444,13.0,300.10808,4846.6157,0.0,-0.012219946164844564,-0.012219774210763146,0.0,0.0,0.0,-0.3647305395111017,-0.5603553723277693,-0.5481642409670985,-0.0015067548784301287,0.008498440669730793,-0.08645732783767392
2445,13.0,300.01117,4814.4597,0.0,-0.012224927663525675,-0.012224776420950323,0.0,0.0,0.0,-0.3531668328773526,-0.5614611726919035,-0.5488475261720335,-0.004270114666502506,0.004208424555364166,-0.0904132244275905
2446,13.0,300.05615,4813.7282,0.0,-0.012229942152264028,-0.012229778631137278,0.0,0.0,0.0,-0.3613809271980206,-0.5577909173846775,-0.5440813294241466,-0.011659572252210188,0.0008839601978400791,-0.08873124648684222
2447,13.0,299.82527999999996,4861.7135,0.0,-0.012234923650944918,-0.012234780841324455,0.0,0.0,0.0,-0.3756470731734796,-0.5607339732276345,-0.5414584606127896,0.0032743427254274668,0.001027190597525819,-0.09039703674399292
2448,13.0,299.69905,4834.1558,0.0,-0.012239938139683382,-0.01223978305151141,0.0,0.0,0.0,-0.3742205487551926,-0.5599989008100884,-0.5352432148968925,0.006517329007960294,0.0011230296688343989,-0.09090785158315641
2449,13.0,299.97289,4776.7876,0.0,-0.012244919638364271,-0.012244785261698587,0.0,0.0,0.0,-0.35972226718182365,-0.5574584193643625,-0.5348434775999416,0.005131866549975795,-0.006499110771162294,-0.090234704958722
2450,13.0,299.94077999999996,4789.1262,0.0,-0.012249934127102624,-0.012249787471885543,0.0,0.0,0.0,-0.35766073892586664,-0.5564713313819444,-0.5416427201434745,0.0020295371131997184,-0.007247154917813504,-0.08591234924488873
2451,13.0,300.02676,4801.2575,0.0,-0.012254948615841088,-0.012254756772795306,0.0,0.0,0.0,-0.3519741057871397,-0.5618431477146015,-0.5456451390984824,0.007256539944214733,-0.0003064885792580677,-0.09413309859221351
2452,13.0,300.10857999999996,4782.3366,0.0,-0.012259930114521977,-0.01225975898298226,0.0,0.0,0.0,-0.36265780470903863,-0.5574624824972634,-0.5335906242487944,-0.0015495739157310386,0.007137031755870192,-0.0945673937970751
2453,13.0,300.17227,4850.2875,0.0,-0.01226494460326022,-0.012264761193169216,0.0,0.0,0.0,-0.3726459682322937,-0.5651931450627204,-0.5365271851586105,-0.003710734952696027,-0.0019459183447221881,-0.1018001938993969
2454,13.0,300.09096,4863.9676,0.0,-0.01226992610194122,-0.012269763403356282,0.0,0.0,0.0,-0.3779293176987197,-0.5585831979028694,-0.5420121815274375,-0.015468436120115787,-0.0069100875448475435,-0.0930974110819991
2455,13.0,299.93609,4833.9259999999995,0.0,-0.012274940590679684,-0.012274765613543348,0.0,0.0,0.0,-0.3638698950086627,-0.5668556452967964,-0.5386672605623195,-0.002802392411074597,-0.0014418338166979187,-0.096162076188708
2456,13.0,299.79214,4856.5665,0.0,-0.012279922089360351,-0.012279767823730525,0.0,0.0,0.0,-0.3633957344918667,-0.5635988872228795,-0.5492803359522485,-0.0007846548486019042,0.0032122298863474065,-0.08555652215427133
2457,13.0,299.8416,4865.7253,0.0,-0.012284936578098815,-0.012284770033917591,0.0,0.0,0.0,-0.36129592564713164,-0.5591556943418705,-0.5586073740502555,0.003754005899541536,0.0015877888459025584,-0.08370278514932172
2458,13.0,299.9596,4808.781,0.0,-0.012289918076779927,-0.012289772244104769,0.0,0.0,0.0,-0.3683961338678676,-0.5509644488109575,-0.5423887660596035,-0.002152320936467538,0.005798072512550204,-0.07966382738245763
2459,13.0,300.04233,4836.6162,0.0,-0.01229493256551828,-0.012294774454291724,0.0,0.0,0.0,-0.36839109801487063,-0.5578589267313895,-0.5439605196147235,0.004728657148907126,0.004686475851219155,-0.08879027742441811
2460,13.0,299.98926,4901.4577,0.0,-0.012299947054256521,-0.0122997766644789,0.0,0.0,0.0,-0.38270351912239664,-0.5623822980928115,-0.5448349443185224,0.008082691589399553,0.0018604877837408483,-0.08618570487011683
2461,13.0,300.1165,4866.5172,0.0,-0.012304928552937633,-0.012304778874666078,0.0,0.0,0.0,-0.3700374166448497,-0.5625697594938125,-0.5466925154618505,0.003710314251254506,-0.01228386502307309,-0.09468691880537132
2462,13.0,300.2538,4869.0061,0.0,-0.012309943041675986,-0.012309781084853033,0.0,0.0,0.0,-0.3659214022211307,-0.5634796682161134,-0.5506551947479364,0.0010381257952550389,-0.01194360044074159,-0.0910685327840144
2463,13.0,300.16396000000003,4888.2104,0.0,-0.012314924540356875,-0.01231478329504021,0.0,0.0,0.0,-0.36584914735649965,-0.5660542252627024,-0.5539905303671084,-0.004320319689082356,-0.008406176851400061,-0.09540371523086359
2464,13.0,300.08661,4856.2291,0.0,-0.01231993902909534,-0.012319785505227165,0.0,0.0,0.0,-0.37328407261526964,-0.5601673435067125,-0.5427209702373895,-0.0009321040569340082,0.003897539767632226,-0.0907575359308214
2465,13.0,299.86542000000003,4788.2225,0.0,-0.012324920527776229,-0.012324754806136706,0.0,0.0,0.0,-0.36374341099867963,-0.5576950841902195,-0.5340615727627734,-0.00042382283951305756,0.002436718758635418,-0.0993138058235095
2466,13.0,299.89984,4832.835,0.0,-0.01232993501651447,-0.012329757016323883,0.0,0.0,0.0,-0.3708162412017137,-0.5579188807398064,-0.5403260219035265,0.0005484765043829165,0.011315716711524289,-0.08438573598172372
2467,13.0,300.08007000000003,4849.9046,0.0,-0.012334949505253046,-0.012334759226510839,0.0,0.0,0.0,-0.36497693153791866,-0.5620274883052945,-0.5472454764389234,0.004110173746167566,0.009334042493298271,-0.0965473402212306
2468,13.0,300.13403999999997,4855.4649,0.0,-0.012339931003933935,-0.012339761436698016,0.0,0.0,0.0,-0.36033033883183563,-0.5632008623185975,-0.5524088976235134,-0.0012727941131149988,0.004411875650893226,-0.08612077681695893
2469,13.0,300.15988,4864.7615,0.0,-0.012344945492672177,-0.01234476364688497,0.0,0.0,0.0,-0.36618979190761863,-0.5655575097986805,-0.5470187414640465,-0.0032048894973229665,-0.0031424850448641267,-0.09375916370905901
2470,13.0,300.05554,4900.6629,0.0,-0.012349926991353066,-0.012349765857072037,0.0,0.0,0.0,-0.37445487297331864,-0.5634576604239414,-0.5517666287826265,-0.006808857881681953,-0.005119689208948985,-0.08055336167174783
2471,13.0,300.03263,4870.303,0.0,-0.012354941480091641,-0.012354768067259214,0.0,0.0,0.0,-0.37090646099061764,-0.5658724076647585,-0.5436716217462114,-0.0017906014925436083,-0.0006194242865174174,-0.1008092981231031
2472,13.0,299.88039,4848.4012,0.0,-0.01235992297877253,-0.01235977027744617,0.0,0.0,0.0,-0.37331831033614865,-0.5595875617994925,-0.5408870280863934,-0.003605127745123406,0.003007886016155237,-0.09212144554592881
2473,13.0,299.90594,4860.5015,0.0,-0.012364937467510773,-0.012364772487633346,0.0,0.0,0.0,-0.3668157778193986,-0.5648920476630045,-0.5457632739276415,0.002752550942630627,-0.004996849352950635,-0.0964547575330934
2474,13.0,299.90972,4816.2167,0.0,-0.012369918966191884,-0.012369774697820524,0.0,0.0,0.0,-0.36176863721628466,-0.5579408176044715,-0.5443001711807445,0.005642013758648405,0.0007360664057615983,-0.08935527074642861
2475,13.0,299.89665,4812.7637,0.0,-0.012374933454930126,-0.012374776908007479,0.0,0.0,0.0,-0.3626841796091417,-0.5577149236271775,-0.5425608969865915,0.005051367071931116,0.0007890972612803362,-0.08987803383077132
2476,13.0,299.91324,4891.2003,0.0,-0.012379947943668479,-0.012379779118194656,0.0,0.0,0.0,-0.3744967100699476,-0.5631778311438245,-0.5491282065822345,0.0013187871563541587,-0.0006779257705185644,-0.08609644361580741
2477,13.0,300.19749,4938.3624,0.0,-0.01238492944234959,-0.012384781328381611,0.0,0.0,0.0,-0.37702453602192465,-0.5734255994752004,-0.5506887231937455,-0.005555312176741625,-0.0033402552523825266,-0.08689197362707012
2478,13.0,300.07216,4936.3197,0.0,-0.012389943931087832,-0.012389783538568788,0.0,0.0,0.0,-0.37899680707657263,-0.5729526953885284,-0.5485684264319886,-0.004045564258841106,0.005319048293949195,-0.08700109154358923
2479,13.0,300.15032,4979.2251,0.0,-0.012394925429768722,-0.012394752839478329,0.0,0.0,0.0,-0.37284894249232564,-0.5777322771702365,-0.5629788896191905,0.0011989634419284788,0.007900333422527201,-0.08671951744680002
2480,13.0,299.95502999999997,4921.5468,0.0,-0.012399939918507297,-0.012399755049665284,0.0,0.0,0.0,-0.3721634078721686,-0.5716867407135885,-0.5521771774581445,-6.811298801172853e-05,0.005979852822890525,-0.09183688945409532
2481,13.0,299.9998,4834.1853,0.0,-0.012404921417188186,-0.012404757259852461,0.0,0.0,0.0,-0.36109550477735164,-0.5631789659839365,-0.5451971406992685,-0.0005226812947946275,-0.004060316268372017,-0.0902926679306925
2482,13.0,299.99397,4831.4131,0.0,-0.012409935905926428,-0.012409759470039639,0.0,0.0,0.0,-0.37106339316610565,-0.5564802378503235,-0.5410853109984625,0.0018225200865937285,-0.008673513264409112,-0.09357122810701123
2483,13.0,299.81232,4837.5513,0.0,-0.012414917404607317,-0.012414761680226594,0.0,0.0,0.0,-0.36345080463480167,-0.5640733618472065,-0.5429706350620295,0.007099253840466804,-0.0002655529712430377,-0.09730342947235081
2484,13.0,299.72966,4824.0377,0.0,-0.012419931893345781,-0.01241976389041366,0.0,0.0,0.0,-0.36648561027431364,-0.5651559182540464,-0.5347454659177685,0.002993045245915567,-0.002310447531173418,-0.0994248570212194
2485,13.0,299.82509,4884.7753,0.0,-0.012424946382084134,-0.012424766100600615,0.0,0.0,0.0,-0.35902942702844565,-0.5714932504744925,-0.5543270307253184,-0.002259456226515968,-0.003966212185209666,-0.09888085621478071
2486,13.0,299.60711000000003,4940.1542,0.0,-0.012429927880765024,-0.012429768310787792,0.0,0.0,0.0,-0.38023451233872463,-0.5669381643849405,-0.5545108342934585,-0.003443624393134267,0.00024574252337039874,-0.08775645733413802
2487,13.0,299.93503,4933.0407,0.0,-0.012434942369503488,-0.01243477052097497,0.0,0.0,0.0,-0.3703502981432287,-0.5727388388224225,-0.5564320476755675,-0.00013352966481835186,0.005207067844572586,-0.09059238528377232
2488,13.0,300.13517,4912.035,0.0,-0.012439923868184377,-0.012439772731161924,0.0,0.0,0.0,-0.3777453925405676,-0.5690986567781644,-0.5462919371673165,0.004759495415700626,0.0067089077507426435,-0.08565295620603862
2489,13.0,300.20403999999996,4912.3374,0.0,-0.01244493835692273,-0.012444774941349102,0.0,0.0,0.0,-0.3669651308841387,-0.5697152903915215,-0.5565474872594605,-0.002217728763547788,-0.0006530833301318064,-0.08698908452990423
2490,13.0,300.24892,4882.7292,0.0,-0.012449919855603842,-0.012449777151536057,0.0,0.0,0.0,-0.3716142465829706,-0.5630522387939295,-0.5495612798074755,0.00047847652652445655,-0.0008849529904205602,-0.0875402054447956
2491,13.0,300.02814,4859.5159,0.0,-0.012454934344342083,-0.012454779361723234,0.0,0.0,0.0,-0.3571704879974827,-0.5681701650490295,-0.5518308485739645,-0.000992383430090619,0.0033508333807765072,-0.0952633274030084
2492,13.0,300.17681,4884.5484,0.0,-0.012459948833080547,-0.012459781571910411,0.0,0.0,0.0,-0.3753140887931167,-0.5635650446695395,-0.5459016129637945,4.598728797859196e-05,0.00012780268406064287,-0.0937627718926651
2493,13.0,300.04479,4868.7949,0.0,-0.012464930331761548,-0.01246475087281973,0.0,0.0,0.0,-0.36832699981354466,-0.5629755661588625,-0.5486895098189385,-0.004886623346122176,-0.0050083506535107255,-0.09571525518611022
2494,13.0,299.96132,4870.9702,0.0,-0.01246994482049979,-0.012469753083006907,0.0,0.0,0.0,-0.3733038917872257,-0.5617582474887225,-0.5455911632656555,-0.0005480389525922335,-0.003342087107238317,-0.09540188935418341
2495,13.0,299.80015,4983.154,0.0,-0.01247492631918068,-0.012474755293194084,0.0,0.0,0.0,-0.37918489669263566,-0.5738840242179434,-0.5616854758665404,0.0017619267173636284,0.005694265445105245,-0.09020551524984122
2496,13.0,299.791,4990.4223,0.0,-0.012479940807919143,-0.01247975750338115,0.0,0.0,0.0,-0.3779574252564936,-0.5765915196776524,-0.5624148335535224,0.004157679065180975,-0.001863114128000048,-0.0901428903141606
2497,13.0,299.85971,4903.751,0.0,-0.012484922306600033,-0.012484759713568327,0.0,0.0,0.0,-0.36095490619347564,-0.5711988202604344,-0.5584641308836185,0.006256602633303604,0.0027773647283045573,-0.08719312270254123
2498,13.0,300.05152000000004,4932.4329,0.0,-0.012489936795338386,-0.012489761923755283,0.0,0.0,0.0,-0.3759960263754187,-0.5682900122708574,-0.5550503899717085,0.001180285696210129,0.0036208230904974164,-0.08366767400685651
2499,13.0,299.88153,4963.5364,0.0,-0.012494918294019275,-0.01249476413394246,0.0,0.0,0.0,-0.3845894308710216,-0.5716655840515005,-0.5525361213060694,-0.0034151229850463974,0.005811721903322294,-0.08885885824418652
2500,13.0,299.90021,4910.4972,0.0,-0.012499932782757739,-0.012499766344129415,0.0,0.0,0.0,-0.3736824825545897,-0.5765481424408715,-0.5424379188219545,-0.005322783843092865,-0.001161367100943009,-0.09454467065033251
2501,13.0,299.95317,4880.7455,0.0,-0.012504947271496092,-0.01250476855431637,0.0,0.0,0.0,-0.36597303744622667,-0.5725125496775895,-0.5451391827935486,-0.0062276142572176745,-0.0020446691928431384,-0.0985877797028563
2502,13.0,300.04852,4929.5497,0.0,-0.012509928770176981,-0.012509770764503547,0.0,0.0,0.0,-0.36666099373412264,-0.5751648838018544,-0.5566341505405135,0.001087411496019159,-0.004036655358661866,-0.09406994068698031
2503,13.0,300.16602,4917.1531,0.0,-0.012514943258915445,-0.012514772974690502,0.0,0.0,0.0,-0.36617366096602666,-0.5739282829823115,-0.5545898171387534,-0.002518689982450348,0.0004087728736577416,-0.1006203948672098
2504,13.0,300.09431,4906.0393,0.0,-0.012519924757596335,-0.01251977518487768,0.0,0.0,0.0,-0.3736779837241456,-0.5672829328639665,-0.5503525470755675,-0.0019702847804769683,0.00010482444147286691,-0.09161666562436091
2505,13.0,299.88431,4952.1569,0.0,-0.012524939246334799,-0.012524777395064857,0.0,0.0,0.0,-0.38015956222882763,-0.5714432567145584,-0.5537292232988195,-0.0007905695643381413,0.0011786788842015488,-0.09424954332020571
2506,13.0,299.88969,4969.7911,0.0,-0.012529920745015688,-0.012529779605251923,0.0,0.0,0.0,-0.38488925157561166,-0.5722621249153745,-0.5535410222252455,0.004228905278310456,0.0023255010839340878,-0.09034173152703473
2507,13.0,299.89765,4976.4786,0.0,-0.012534935233754041,-0.0125347818154391,0.0,0.0,0.0,-0.38077009607658263,-0.5743326204347164,-0.5576225152180575,0.004212632076404416,0.004436775360175636,-0.0917990567218615
2508,13.0,300.21972,5030.1323,0.0,-0.01253991673243493,-0.01253975111634853,0.0,0.0,0.0,-0.38457883227497563,-0.5797010829095425,-0.5647546914794485,0.0008675338431814243,-0.003986111505248576,-0.08878250579615111
2509,13.0,300.10676,4971.7517,0.0,-0.012544931221173394,-0.012544753326535596,0.0,0.0,0.0,-0.37558757512760765,-0.5740176415086304,-0.5616831453913105,-0.006503411713861764,-0.0029208722518926475,-0.08156405331524533
2510,13.0,300.19479,4876.7034,0.0,-0.012549945709911747,-0.012549755536722773,0.0,0.0,0.0,-0.37165762381975165,-0.5651715020405844,-0.5455669465882655,-3.748288939827317e-05,-0.0013514710582048087,-0.08933767363194192
2511,13.0,300.19137,4950.8075,0.0,-0.012554927208592637,-0.012554757746909728,0.0,0.0,0.0,-0.37535302799445963,-0.5733234233351164,-0.5562454070071474,-0.00015023984096251784,0.0049370315253470754,-0.08888346400961492
2512,13.0,300.19248999999996,4989.4496,0.0,-0.0125599416973311,-0.012559759957096905,0.0,0.0,0.0,-0.3831655915654997,-0.5780508733991795,-0.5554516268788074,0.003799390080795606,-0.00015956415341775585,-0.10099553957098371
2513,13.0,299.98005,4900.2109,0.0,-0.01256492319601199,-0.012564762167284083,0.0,0.0,0.0,-0.36797197724350666,-0.5714323440109815,-0.5501374239468364,-0.003110864954293467,-0.003750259305971777,-0.095314431685052
2514,13.0,299.90594,4880.0306,0.0,-0.012569937684750343,-0.012569764377471038,0.0,0.0,0.0,-0.36236674861781365,-0.5711449558851185,-0.5498957536654855,0.006109782997788634,-0.002214913448144938,-0.100418506811285
2515,13.0,299.84283999999997,4933.7326,0.0,-0.012574919183431232,-0.012574766587657993,0.0,0.0,0.0,-0.37101898241422265,-0.5678895251688325,-0.5608229973814205,0.0011536160416530388,0.0013060356064956786,-0.08670736553835072
2516,13.0,300.04564,4967.621,0.0,-0.012579933672169696,-0.012579768797845059,0.0,0.0,0.0,-0.37972815073375066,-0.5759601534078415,-0.5543444484945375,0.004985015402382715,-0.004509198728298266,-0.095030995234579
2517,13.0,300.03737,4988.9545,0.0,-0.01258494816090805,-0.012584771008032125,0.0,0.0,0.0,-0.3796295918965236,-0.5717360758609574,-0.5651519361811534,-0.005597341081614555,-0.0036707311294729567,-0.08777758258547291
2518,13.0,299.93846,5002.6884,0.0,-0.01258992965958905,-0.012589773218219302,0.0,0.0,0.0,-0.3858944564698176,-0.5802414593203734,-0.5545564305479584,-0.00013191914431440587,0.0042309896350911655,-0.09714038739875981
2519,13.0,299.8753,4990.0227,0.0,-0.012594944148327403,-0.012594775428406368,0.0,0.0,0.0,-0.37643649632638965,-0.5792539052429094,-0.5611518882313795,0.004645046283780376,0.0077716102311482125,-0.09206243082035451
2520,13.0,299.91255,4986.5881,0.0,-0.012599925647008292,-0.012599777638593546,0.0,0.0,0.0,-0.3784652155441086,-0.5772980083098774,-0.5600350333086545,0.003090164761375517,-0.0006239778324668174,-0.0952827362086739
2521,13.0,299.98331,4987.2575,0.0,-0.012604940135746756,-0.0126047798487805,0.0,0.0,0.0,-0.37330501649483666,-0.5784904820875654,-0.5642062597303225,0.0006395513750463063,0.00040605802200230665,-0.08117615280596252
2522,13.0,299.95641,4902.6047,0.0,-0.012609921634427645,-0.012609749149690042,0.0,0.0,0.0,-0.3693177354963227,-0.5661758760697085,-0.5547757890621074,-0.005243220912115615,-0.00040194800601917963,-0.09001851994388622
2523,13.0,299.98278,4920.0061,0.0,-0.012614936123165998,-0.012614751359877219,0.0,0.0,0.0,-0.36309907512758866,-0.5746203328006114,-0.5578395939194815,-0.001063417328351119,0.008313652931768662,-0.09001840443337482
2524,13.0,300.1522,4998.9847,0.0,-0.012619917621846888,-0.012619753570064174,0.0,0.0,0.0,-0.3857446271775306,-0.5804422348276884,-0.5533796824118226,-0.005355048867352176,-0.0016466911007157585,-0.1016706093441079
2525,13.0,300.1355,5028.8985,0.0,-0.012624932110585352,-0.012624755780251351,0.0,0.0,0.0,-0.38573828423190465,-0.5755698899993255,-0.5673513981732234,0.0017130540173402684,-0.004690262569492875,-0.09089754682963941
2526,13.0,300.27226,4986.3087,0.0,-0.012629946599323705,-0.012629757990438528,0.0,0.0,0.0,-0.38148166109180864,-0.5765730886583335,-0.5576585869216174,0.004401326400127095,0.001163014138980559,-0.09912046149242791
2527,13.0,300.05512000000004,5017.1409,0.0,-0.012634928098004594,-0.012634760200625483,0.0,0.0,0.0,-0.38387612306562363,-0.5757617387732594,-0.5654476836203415,0.009576794520456032,0.0017697162801573983,-0.08146433734640413
2528,13.0,299.86817,5049.7036,0.0,-0.012639942586743058,-0.01263976241081266,0.0,0.0,0.0,-0.3847798509623146,-0.5811790905654105,-0.5690248617733815,0.005371014649177875,-0.005472736447917035,-0.092676546507213
2529,13.0,299.91981,5033.7841,0.0,-0.012644924085423948,-0.012644764620999616,0.0,0.0,0.0,-0.3815311380941916,-0.5838425805732764,-0.5647709642760544,-0.00040958074809497257,-0.0026735697185357875,-0.08678707083096701
2530,13.0,300.01043,4996.5413,0.0,-0.0126499385741623,-0.012649766831186793,0.0,0.0,0.0,-0.37432230946273565,-0.5808025161657454,-0.5636989456702545,0.0012310496275451388,0.005446086653061905,-0.09778841048696471
2531,13.0,300.05318,4972.8453,0.0,-0.012654920072843301,-0.012654769041373748,0.0,0.0,0.0,-0.3704372046043057,-0.5831533374577534,-0.5580302470582975,-0.0025430170027762374,0.008556852410170582,-0.0986434253718481
2532,13.0,299.95374,4934.7121,0.0,-0.012659934561581654,-0.012659771251560814,0.0,0.0,0.0,-0.3662378503598616,-0.5798071195325074,-0.5539842988789935,-0.007744076476905842,-0.0009892824693520782,-0.1063342449168729
2533,13.0,300.04631,4963.8937,0.0,-0.012664916060262543,-0.012664773461747991,0.0,0.0,0.0,-0.37702048302152463,-0.5698969863994534,-0.5619822669533314,-0.006534293854384594,-0.004958276846818825,-0.09160704278816122
2534,13.0,300.09742,4995.347,0.0,-0.012669930549001007,-0.012669775671934946,0.0,0.0,0.0,-0.37655825859090664,-0.5804140968724115,-0.5614884088545915,-0.0027063956780504577,-0.0002433943973236568,-0.0938952746082421
2535,13.0,300.07657,4958.2554,0.0,-0.012674945037739471,-0.012674777882122124,0.0,0.0,0.0,-0.3732845083128127,-0.5709498849758664,-0.5629514406739814,0.004262275859753876,0.0030617599160221768,-0.09185419069955282
2536,13.0,299.99817,4972.9668,0.0,-0.01267992653642025,-0.012679747183031664,0.0,0.0,0.0,-0.37662397799239267,-0.5792908990040605,-0.5557428552225495,0.00033192374055582264,-0.004496716398991355,-0.0974714395111821
2537,13.0,299.94223,5053.9403,0.0,-0.012684941025158714,-0.01268474939321862,0.0,0.0,0.0,-0.38704634958100065,-0.5833703350991694,-0.5658549696305374,0.004632543385496436,-0.0033907874534196665,-0.09406766492725573
2538,13.0,300.05933,5089.0070000000005,0.0,-0.012689922523839603,-0.012689751603405797,0.0,0.0,0.0,-0.3983343913925436,-0.5772693029345445,-0.5713273510356195,0.0066426021840737945,0.003910711613632187,-0.08814507218474132
2539,13.0,300.13795,5024.95,0.0,-0.012694937012577956,-0.012694753813592974,0.0,0.0,0.0,-0.38349516129302563,-0.5809503088253314,-0.5630138568801414,0.0015243106523127486,0.006488588979473874,-0.09490711223760272
2540,13.0,300.01788,4988.2062,0.0,-0.012699918511258845,-0.012699756023779929,0.0,0.0,0.0,-0.3784247159376116,-0.5778570994500555,-0.5600083240360184,-0.005379354204125926,0.0012655358986736688,-0.0872326536419426
2541,13.0,299.89307,5017.4155,0.0,-0.01270493299999731,-0.012704758233967106,0.0,0.0,0.0,-0.37886223733079166,-0.5748244621657574,-0.5714823175059135,-0.008895003758093522,-0.004978834475447706,-0.08851398236064992
2542,13.0,299.79502,5014.7415,0.0,-0.012709947488735551,-0.012709760444154061,0.0,0.0,0.0,-0.3772077721700086,-0.5826915385921775,-0.5644568770100564,0.0027099482342260676,0.004501133358827275,-0.09137394966890672
2543,13.0,299.7693,4990.8032,0.0,-0.01271492898741644,-0.012714762654341238,0.0,0.0,0.0,-0.37253472350381467,-0.5792053199006144,-0.5653394989071645,0.0028001689350551574,0.0007045225825259654,-0.09428790192924141
2544,13.0,299.8045,4978.5277,0.0,-0.012719943476155016,-0.012719764864528416,0.0,0.0,0.0,-0.3745251925302587,-0.5785738320407915,-0.5602490823922794,0.004163003187831426,-0.0005466519854578504,-0.096210357555973
2545,13.0,299.83099999999996,4968.2114,0.0,-0.012724924974835905,-0.01272476707471537,0.0,0.0,0.0,-0.37441839596971865,-0.5774309264579954,-0.5583628869336265,-0.004545820727987576,-0.006630596994238973,-0.09365812139583692
2546,13.0,300.04594,5038.0058,0.0,-0.012729939463574147,-0.012729769284902437,0.0,0.0,0.0,-0.38238922920637863,-0.5812212721670734,-0.5678174729542215,0.002790384992089557,0.004484986205233675,-0.0939666276802841
2547,13.0,300.27738,5097.9405,0.0,-0.012734920962255258,-0.012734771495089392,0.0,0.0,0.0,-0.3899540733929706,-0.5917258082062904,-0.5679667449589535,-0.0020413820068687183,0.003224161716874987,-0.09302414398051823
2548,13.0,300.20699,5033.9936,0.0,-0.012739935450993611,-0.01273977370527657,0.0,0.0,0.0,-0.3813646408377596,-0.5872199762040994,-0.5616237284054465,0.0016619399067706985,-0.0017084271120836286,-0.1017914900810379
2549,13.0,300.23078,4975.0996,0.0,-0.0127449169496745,-0.012744775915463746,0.0,0.0,0.0,-0.37378453710466164,-0.5792419488917295,-0.5592795641665954,-0.003059587913107817,-0.0031764553690417367,-0.0966231900972164
2550,13.0,300.10503,5031.6103,0.0,-0.012749931438412965,-0.012749778125650701,0.0,0.0,0.0,-0.38466097646058267,-0.5847296810358265,-0.5600932445268995,0.002270094643290898,0.002886918950316717,-0.1013877099161879
2551,13.0,299.8659,5051.7382,0.0,-0.012754945927151429,-0.012754747426560242,0.0,0.0,0.0,-0.38606159207381263,-0.5791063962933515,-0.5704342825299804,0.00918606045726858,-0.0010312894981553491,-0.09232198901897092
2552,13.0,299.73258,4976.2185,0.0,-0.012759927425832207,-0.01275974963674742,0.0,0.0,0.0,-0.37400249733367263,-0.5820560585269604,-0.5565876220959215,0.0006640748848315884,-0.005492191153812064,-0.0992684334972816
2553,13.0,299.89827,4959.8574,0.0,-0.012764941914570671,-0.012764751846934375,0.0,0.0,0.0,-0.3700731134458727,-0.5746222073132965,-0.5629774812015514,0.0013838695275022888,-0.004245555713228725,-0.09260237356014273
2554,13.0,299.93585,4980.279,0.0,-0.01276992341325156,-0.012769754057121552,0.0,0.0,0.0,-0.37334655974893666,-0.5760052430372914,-0.5645286657796414,-0.0036457811629855867,0.005897700531282724,-0.0907373793465821
2555,13.0,300.08575,5039.3131,0.0,-0.012774937901989802,-0.012774756267308507,0.0,0.0,0.0,-0.3782132911717456,-0.5873305521875124,-0.5662814972601324,-0.0005569499299341785,0.004717708981576626,-0.09381735770205231
2556,13.0,299.88183,5101.1216,0.0,-0.012779919400670692,-0.012779758477495684,0.0,0.0,0.0,-0.3927505322114596,-0.5834423974462815,-0.5744206516034045,-0.006814869089225213,-0.0008887297383132961,-0.08877113510352891
2557,13.0,299.9783,5103.4985,0.0,-0.012784933889409267,-0.012784760687682861,0.0,0.0,0.0,-0.3918932314343506,-0.5901358668118755,-0.5693070012637265,-0.004021768282892626,-0.006514033614660063,-0.0914710129489861
2558,13.0,300.28072000000003,5042.1785,0.0,-0.012789915388090156,-0.012789762897869927,0.0,0.0,0.0,-0.38769610634012663,-0.5848534596680425,-0.5601467846621835,0.002473144795755388,0.005667462345509984,-0.09316534240845342
2559,13.0,300.27246,5081.1748,0.0,-0.012794929876828398,-0.012794765108057105,0.0,0.0,0.0,-0.38778927468682167,-0.5857498617665104,-0.5710111359444114,0.006745798261708453,-0.00026584705695206176,-0.0954501312046945
2560,13.0,300.0801,5111.3476,0.0,-0.012799944365566973,-0.01279976731824406,0.0,0.0,0.0,-0.38664831454421766,-0.5917846273745955,-0.5752891082641145,0.0033031291607684664,-0.004721175614143756,-0.09634767016977472
2561,13.0,299.87239,5037.7264,0.0,-0.012804925864247862,-0.012804769528431237,0.0,0.0,0.0,-0.3670289453754367,-0.5913763686443034,-0.5729377094195495,0.0047628288058796054,-0.009276378531432282,-0.0974062064697441
2562,13.0,299.92053,4954.0394,0.0,-0.012809940352986326,-0.012809771738618192,0.0,0.0,0.0,-0.36528730017604966,-0.5771123200965514,-0.5635046549635795,0.0013579961861987888,0.0014347071221195687,-0.0942265293706844
2563,13.0,300.04225,5020.6738,0.0,-0.012814921851667216,-0.012814773948805147,0.0,0.0,0.0,-0.3736382744527266,-0.5891721646417654,-0.5633490298807204,0.003047020166817477,0.0015943881438038583,-0.09753869803957
2564,13.0,299.98516,5055.6611,0.0,-0.01281993634040568,-0.012819776158992324,0.0,0.0,0.0,-0.38904514752326663,-0.5830795221879684,-0.5646700749635974,-0.00977047839164614,-0.0009558232791874131,-0.09197478873970491
2565,13.0,299.89213,5047.4199,0.0,-0.012824917839086347,-0.012824745459901865,0.0,0.0,0.0,-0.38083108360010165,-0.5902375160619074,-0.5632210057305855,-0.003338425018726897,-0.002278320612902738,-0.097028040254172
2566,13.0,299.93599,5105.7722,0.0,-0.012829932327824922,-0.01282974767008882,0.0,0.0,0.0,-0.38709962627125866,-0.5915743881113464,-0.5733532331530585,-0.0051049743856967445,0.005777798796599344,-0.09034338312469772
2567,13.0,299.9037,5087.4442,0.0,-0.012834946816563386,-0.012834749880275997,0.0,0.0,0.0,-0.37970503849896964,-0.5877979847236444,-0.5789529902282115,0.003291604656781087,0.004004033163742306,-0.09657739524569682
2568,13.0,299.83449,5068.8328,0.0,-0.012839928315244054,-0.012839752090462953,0.0,0.0,0.0,-0.38241157137108367,-0.5897263415189585,-0.5686607098199424,-0.0015881934366674885,-0.003718129955900856,-0.09065037358699532
2569,13.0,300.16615,5091.0653,0.0,-0.012844942803982629,-0.01284475430065013,0.0,0.0,0.0,-0.3896800804334296,-0.5830053522806484,-0.5748712945853794,0.006450253675190473,-0.005940888087645004,-0.0985617401885364
2570,13.0,299.89926,5051.0503,0.0,-0.012849924302663518,-0.012849756510837307,0.0,0.0,0.0,-0.3914728947628666,-0.5793623128711084,-0.5645579689725334,0.003026861252102947,0.005312538871331765,-0.08699591079582791
2571,13.0,300.07061,4971.7416,0.0,-0.01285493879140176,-0.012854758721024373,0.0,0.0,0.0,-0.37364080757797663,-0.5812356299209905,-0.5564088746457805,0.0007806714179537703,0.004040723152513326,-0.1033722615620479
2572,13.0,300.0974,5023.0779,0.0,-0.01285992029008265,-0.01285976093121155,0.0,0.0,0.0,-0.3793833923872256,-0.5804696939053984,-0.5670371690522115,-0.007597821019046553,-0.00020064572010969085,-0.08768977433180691
2573,13.0,300.11751,5098.6047,0.0,-0.012864934778821113,-0.012864763141398505,0.0,0.0,0.0,-0.3812037265893786,-0.5950804057098634,-0.5735643742088964,-0.009242978464410951,-0.005148369557004515,-0.09882010984478551
2574,13.0,300.17274,5116.0053,0.0,-0.012869916277502114,-0.012869765351585682,0.0,0.0,0.0,-0.38414311446697363,-0.5941344658140064,-0.5768603045316795,-0.0013927317168519189,0.005509929718012724,-0.08360707861112622
2575,13.0,300.11197999999996,5093.7485,0.0,-0.012874930766240578,-0.01287476756177286,0.0,0.0,0.0,-0.38192553556311565,-0.5937977932032795,-0.5726490344660594,-0.0006822521153980413,0.0008588133568582792,-0.1009268503334546
2576,13.0,299.83997,5114.6741,0.0,-0.01287994525497882,-0.012879769771959815,0.0,0.0,0.0,-0.3920182766291916,-0.5960377953318504,-0.5666771511591805,-8.980561279312391e-05,-0.002658747592097958,-0.08875326137176492
2577,13.0,300.05006000000003,5097.3281,0.0,-0.012884926753659931,-0.01288477198214677,0.0,0.0,0.0,-0.3896622674966716,-0.5912037614897684,-0.5685944432634025,-0.0006595965321721094,-0.006201028499768864,-0.10595726521716789
2578,13.0,300.04908,5080.409000000001,0.0,-0.012889941242398284,-0.012889774192333836,0.0,0.0,0.0,-0.38428547610602365,-0.5880692419079154,-0.5719627601733295,0.005517760520085564,0.0037074063247925166,-0.0974731904073549
2579,13.0,299.77825,5105.1588,0.0,-0.012894922741079173,-0.012894743493243488,0.0,0.0,0.0,-0.3902047008052056,-0.5918289266689675,-0.5698071617780884,0.0029577595204581374,0.002123914875214078,-0.1026050691163319
2580,13.0,299.74302,5052.1944,0.0,-0.012899937229817637,-0.012899745703430665,0.0,0.0,0.0,-0.37705187350962266,-0.5842688346253444,-0.5744202361708635,-0.001109234977997969,-0.004701131298015535,-0.09337492204588732
2581,13.0,299.88761,4988.054,0.0,-0.012904918728498305,-0.01290474791361762,0.0,0.0,0.0,-0.36981157333006065,-0.5844257364033295,-0.5620065444257275,-0.002142017702825688,-0.0037948361295461665,-0.0982711876826111
2582,13.0,300.23508,5092.8158,0.0,-0.012909933217236769,-0.012909750123804575,0.0,0.0,0.0,-0.38610746190583967,-0.5882782754035454,-0.5737030982800874,0.003266717309149897,0.007215994234838183,-0.09047840680652351
2583,13.0,299.97073,5113.8327,0.0,-0.012914914715917769,-0.012914752333991752,0.0,0.0,0.0,-0.38968158004357767,-0.5958159239574534,-0.5689799443964485,-0.0005339396787757436,0.006209342824789425,-0.09730297047005551
2584,13.0,299.97966,5058.0706,0.0,-0.012919929204656011,-0.012919754544178819,0.0,0.0,0.0,-0.3768508142922796,-0.5932077168750434,-0.5674686312097935,0.00029436333955139976,-0.0024626310087427577,-0.099723650290208
2585,13.0,300.16597,5102.6933,0.0,-0.012924943693394475,-0.012924756754365996,0.0,0.0,0.0,-0.3818937803049816,-0.5953058741221154,-0.5738916945212005,-0.005991362432101434,-0.005864237744080204,-0.0960667749505525
2586,13.0,300.08734,5146.0652,0.0,-0.012929925192075364,-0.012929758964552951,0.0,0.0,0.0,-0.3892550220164796,-0.5989223055840295,-0.5760979959514454,0.001131743417044379,-0.0014565554287258285,-0.09589861393745631
2587,13.0,300.1446,5137.241,0.0,-0.012934939680813717,-0.012934761174740128,0.0,0.0,0.0,-0.3909115035449616,-0.5938605235169705,-0.5768209802952985,0.0011587665945613588,-0.0013936074689133487,-0.09610985631830431
2588,13.0,300.15265,5134.2958,0.0,-0.012939921179494829,-0.012939763384927305,0.0,0.0,0.0,-0.3983373095528316,-0.5887717180697445,-0.5735886922112965,-0.003211695599569677,-0.0036642821978864963,-0.0941303770024449
2589,13.0,299.78461,5118.1747,0.0,-0.01294493566823307,-0.01294476559511426,0.0,0.0,0.0,-0.39027541552968464,-0.5890842651955904,-0.5764376272524645,-0.0009275858531480961,-0.004580646539224615,-0.09556580687586082
2590,13.0,299.88383,5062.8577,0.0,-0.012949917166914182,-0.012949767805301438,0.0,0.0,0.0,-0.38265969605557165,-0.5819242448214514,-0.5743983803662065,0.0021864940119901578,0.003030855686647167,-0.09726835176713891
2591,13.0,299.97479,5082.1339,0.0,-0.012954931655652535,-0.012954770015488393,0.0,0.0,0.0,-0.37810325221088564,-0.5914439929559774,-0.5752945696821534,0.005797366783855555,0.0046513086760234254,-0.09843003591403822
2592,13.0,299.95448,5133.5133,0.0,-0.012959946144390777,-0.012959772225675459,0.0,0.0,0.0,-0.3916466570225156,-0.5888984351272504,-0.5799147570906305,-0.0009912184863181482,-0.007096424542212572,-0.09651075479986991
2593,13.0,300.01622000000003,5078.8735,0.0,-0.012964927643071888,-0.01296474152658511,0.0,0.0,0.0,-0.38058006102032765,-0.5903455589200705,-0.5729250843233035,0.0006067392058654974,-0.003205412334374567,-0.08960411889148802
2594,13.0,300.04753999999997,5036.8702,0.0,-0.01296994213181013,-0.012969743736772066,0.0,0.0,0.0,-0.37618676057424266,-0.5934989249537834,-0.5613970947555795,-0.0014097674907832187,0.001005754339205225,-0.0968018696596007
2595,13.0,300.21266,5157.1078,0.0,-0.01297492363049102,-0.012974745946959243,0.0,0.0,0.0,-0.3847960832289166,-0.5981232565551694,-0.5847126483016455,-0.0013304374046789488,0.006528052031118573,-0.09312109681633672
2596,13.0,300.33657,5205.6025,0.0,-0.012979938119229595,-0.01297974815714631,0.0,0.0,0.0,-0.3942440324613566,-0.6045781460522175,-0.5835509874594984,-0.006380504983356814,-0.0014642873375889087,-0.09904468963669981
2597,13.0,300.1074,5124.8398,0.0,-0.012984919617910262,-0.012984750367333264,0.0,0.0,0.0,-0.38275827515780064,-0.5953773285191675,-0.5796877384057255,-0.0012357042958545188,0.002247864341396938,-0.09973513851984181
2598,13.0,299.91991,5121.0961,0.0,-0.012989934106648726,-0.012989752577520441,0.0,0.0,0.0,-0.3898814233608006,-0.5888092792509514,-0.5779946481511304,0.004315972542178326,0.0067470826575352135,-0.0968824129100497
2599,13.0,299.95547999999997,5107.6741,0.0,-0.012994915605329616,-0.012994754787707397,0.0,0.0,0.0,-0.3908723110310936,-0.5892674506811694,-0.5724656463304604,0.0025530681397932077,0.006309512729675425,-0.09439589007189901
2600,13.0,299.92974,5084.8827,0.0,-0.012999930094067969,-0.012999756997894574,0.0,0.0,0.0,-0.3909281917741086,-0.5854109498730624,-0.5693382194993075,-0.00036492225656252264,-0.003272762865871547,-0.09578058347305761
2601,13.0,299.83124,5133.7969,0.0,-0.013004944582806433,-0.013004759208081751,0.0,0.0,0.0,-0.38852547181197866,-0.5912251917293835,-0.5807954132825445,-0.0036953252425252067,0.0016796013626387482,-0.09381121943294651
2602,13.0,299.76023,5153.7118,0.0,-0.013009926081487322,-0.013009761418268706,0.0,0.0,0.0,-0.38834924735458665,-0.5989205931913604,-0.5793298483379045,0.001045674609825049,0.0021168123973131178,-0.09453671461054731
2603,13.0,299.91843,5120.0383,0.0,-0.013014940570225675,-0.013014763628455883,0.0,0.0,0.0,-0.38431988607941964,-0.5919410934550374,-0.5801028163091905,-0.006482168013590175,0.0004740358971662005,-0.0968951991130616
2604,13.0,300.09201,5182.0788,0.0,-0.013019922068906675,-0.013019765838642838,0.0,0.0,0.0,-0.39060677870988764,-0.6045724313216534,-0.5800433486608214,-0.005631244328635545,-0.007522091922472673,-0.09379575824967061
2605,13.0,300.11306,5233.7834,0.0,-0.013024936557645028,-0.013024768048830015,0.0,0.0,0.0,-0.4038575264951346,-0.6055494172005744,-0.5815325223327914,-0.0030854732107624973,-0.0009284647361523351,-0.0936888998808745
2606,13.0,299.87101,5113.1344,0.0,-0.01302991805632614,-0.013029770259017193,0.0,0.0,0.0,-0.38500892654492264,-0.5916337746997075,-0.5776224915219015,0.005496245167462165,0.003820457374224786,-0.09310454537595322
2607,13.0,300.08128999999997,5047.8983,0.0,-0.013034932545064382,-0.013034772469204259,0.0,0.0,0.0,-0.37693015177510963,-0.5942761992379945,-0.5632286659013415,0.005859641236326564,0.004060382838903586,-0.1029178695547029
2608,13.0,300.21807,5106.9889,0.0,-0.013039914043745271,-0.013039741770113689,0.0,0.0,0.0,-0.3812260991515866,-0.5885472223775884,-0.5826237825579904,0.0023803182183191177,-0.006467442044586834,-0.09469091607701581
2609,13.0,300.10233,5135.6154,0.0,-0.013044928532483846,-0.013044743980300866,0.0,0.0,0.0,-0.39087583714144164,-0.5924161962944264,-0.5778068017150915,-0.002360213005859888,-0.0029435661157073568,-0.1046274555209259
2610,13.0,299.86787999999996,5108.9531,0.0,-0.013049943021222088,-0.013049746190487932,0.0,0.0,0.0,-0.38154800870835665,-0.5983401427390744,-0.5731060203936604,-0.0004373683113548916,0.0012946591383479087,-0.10172304503678291
2611,13.0,300.12455,5144.4098,0.0,-0.013054924519902977,-0.013054748400674998,0.0,0.0,0.0,-0.39935933439869764,-0.5936036342191174,-0.5708091546694775,-0.0037889136827116664,0.004305203618790516,-0.1023187043730699
2612,13.0,300.04287999999997,5174.1207,0.0,-0.013059939008641441,-0.013059750610862064,0.0,0.0,0.0,-0.3927566015795586,-0.6027425928335625,-0.5773042904604975,-0.001343734387066259,-0.0043048578978563965,-0.09826545977979581
2613,13.0,299.96873,5177.8263,0.0,-0.01306492050732222,-0.01306475282104902,0.0,0.0,0.0,-0.39171006621377363,-0.5998500677730925,-0.5823697607579205,-0.0024196403268749076,-0.0014889244124453986,-0.097849836747777
2614,13.0,299.86552,5232.2481,0.0,-0.013069934996060684,-0.013069755031236197,0.0,0.0,0.0,-0.39183805996640564,-0.6064094233554504,-0.5922252898430854,0.006080061231280323,0.0027408616841769875,-0.09352029202448423
2615,13.0,299.85496,5207.0593,0.0,-0.013074916494741573,-0.013074757241423152,0.0,0.0,0.0,-0.39107524476112165,-0.6058007741528815,-0.5859399981477755,0.005641147429812905,0.001019013567893809,-0.09619605857056182
2616,13.0,299.83324,5109.6849,0.0,-0.013079930983479926,-0.013079759451610329,0.0,0.0,0.0,-0.38091238678812567,-0.5959324173214504,-0.5763718065259684,0.005393800212126635,-0.0066884650246751024,-0.09427817371503132
2617,13.0,299.83976,5132.3732,0.0,-0.01308494547221839,-0.013084761661797284,0.0,0.0,0.0,-0.39132994543875865,-0.5961818490985674,-0.5726015231688705,-0.0038067502281969963,-0.0037429102029964763,-0.09435858422971721
2618,13.0,299.94171,5209.125,0.0,-0.01308992697089928,-0.013089763871984461,0.0,0.0,0.0,-0.39492035663810465,-0.5984532923777414,-0.5900702791329024,-0.00046386456842236867,0.0014197215584406085,-0.09454128436849832
2619,13.0,299.91483999999997,5145.4798,0.0,-0.013094941459637521,-0.013094766082171638,0.0,0.0,0.0,-0.38973159406851365,-0.5927294324303404,-0.5816363602030394,-0.007818356220536683,0.004490172323220506,-0.0958838123799955
2620,13.0,300.13662,5121.0499,0.0,-0.013099922958318633,-0.013099768292358704,0.0,0.0,0.0,-0.38184716066788066,-0.5988454201664414,-0.5759787161496734,-0.003077636531839077,-0.0025279003245343374,-0.09944121999708432
2621,13.0,300.06171,5190.7026,0.0,-0.013104937447057097,-0.013104770502545882,0.0,0.0,0.0,-0.3952941851299986,-0.5993295915942254,-0.5832202119643535,-0.002150178520456098,0.0009043106573535133,-0.09887757328445672
2622,13.0,300.0273,5217.5733,0.0,-0.013109918945738097,-0.013109739803455311,0.0,0.0,0.0,-0.40330569022567264,-0.6033465405556674,-0.5793597696133574,0.007856124206089091,0.004495899111460696,-0.1009913822058234
2623,13.0,300.07091,5244.7899,0.0,-0.013114933434476339,-0.013114742013642378,0.0,0.0,0.0,-0.3990907319296886,-0.6132005497656824,-0.5819938956333254,0.009545936697935601,0.0026461034467500774,-0.10273468406912391
2624,13.0,299.90782,5196.6629,0.0,-0.013119914933157228,-0.013119744223829555,0.0,0.0,0.0,-0.39366090702880663,-0.6006776701897705,-0.5853171837088085,0.007557923891059012,-0.006750518081999264,-0.098686669872866
2625,13.0,299.72829,5130.7172,0.0,-0.013124929421895692,-0.01312474643401651,0.0,0.0,0.0,-0.37536639276327866,-0.6036888974994554,-0.5805546245287805,0.0037786356789973065,-0.0032387075300105467,-0.0964196352448771
2626,13.0,299.84013999999996,5138.778,0.0,-0.013129943910634045,-0.013129748644203687,0.0,0.0,0.0,-0.3801790571607517,-0.5996044052863474,-0.5822767241337384,-0.0022007825609253275,-0.0006945862467453254,-0.1007898072441795
2627,13.0,299.89614,5192.1599,0.0,-0.013134925409314935,-0.013134750854390642,0.0,0.0,0.0,-0.3880288982029706,-0.5996073234466354,-0.5906507498501905,-0.004350966856906995,0.0047386095953643554,-0.09256450941715581
2628,13.0,299.90456,5173.6887,0.0,-0.013139939898053399,-0.013139753064577597,0.0,0.0,0.0,-0.3996448074818716,-0.5991082572423814,-0.5739191130689064,-0.005922474192252694,-0.0013988180062275886,-0.09921129227114221
2629,13.0,299.92692,5104.4456,0.0,-0.013144921396734177,-0.013144755274764774,0.0,0.0,0.0,-0.38639186094390765,-0.5903264591556854,-0.5749056741612725,0.0004715829503966136,0.001919745385364118,-0.0947134578519905
2630,13.0,300.0669,5138.4316,0.0,-0.013149935885472641,-0.01314975748495173,0.0,0.0,0.0,-0.39057957294470264,-0.5970868030278795,-0.5742885339228655,0.0017752961471330883,0.0045103490711367955,-0.10174341136379289
2631,13.0,300.17362,5252.7646,0.0,-0.01315491738415353,-0.013154759695138907,0.0,0.0,0.0,-0.3963549667921896,-0.6084932228486054,-0.5918610973596424,0.0017817516648451985,0.0064488915630810445,-0.09613329887261791
2632,13.0,300.1265,5257.5638,0.0,-0.013159931872891772,-0.013159761905326084,0.0,0.0,0.0,-0.39533807912433067,-0.6084973569090134,-0.5943326777985685,0.0005768648742896305,-0.003846760637545716,-0.1009887984180684
2633,13.0,299.99414,5211.601,0.0,-0.013164913371572884,-0.01316476411551315,0.0,0.0,0.0,-0.39915243886077867,-0.6047158872708114,-0.5803282340589374,0.00016436952241450883,-0.00014367551032216886,-0.09911682189806871
2634,13.0,300.02445,5200.9564,0.0,-0.013169927860311348,-0.013169766325700327,0.0,0.0,0.0,-0.40027877780443966,-0.5960676051497924,-0.5846144846319575,0.001086767271605579,0.0007761922344292093,-0.0969084007486145
2635,13.0,300.05825,5170.0574,0.0,-0.0131749423490497,-0.013174768535887282,0.0,0.0,0.0,-0.3947912077803586,-0.5966072114905474,-0.5801699441283155,-0.0027244847254607077,0.0037034261770747066,-0.09495468432979771
2636,13.0,300.0218,5177.5002,0.0,-0.01317992384773059,-0.013179737836796823,0.0,0.0,0.0,-0.3875051796237836,-0.5984330780382464,-0.5878925310904755,-0.0026020602006783474,-0.0028182904064686072,-0.09704245677659482
2637,13.0,300.0703,5234.4877,0.0,-0.013184938336469054,-0.013184740046984,0.0,0.0,0.0,-0.3950046590464246,-0.6015029826612224,-0.5946459139344824,0.0004123284087886456,-0.0007480318356624943,-0.08886196284249291
2638,13.0,299.89443,5182.6707,0.0,-0.013189919835149944,-0.013189742257170955,0.0,0.0,0.0,-0.3819661263621216,-0.6055972730027974,-0.5878391024127024,0.003448547370070127,0.0050664386605435655,-0.1030215959674399
2639,13.0,299.84326,5142.7968,0.0,-0.013194934323888297,-0.013194744467358133,0.0,0.0,0.0,-0.39023740851843364,-0.6004345914907804,-0.5726098014221874,0.001186840309782019,0.0023399955252895776,-0.09929374144502931
2640,13.0,299.69853,5234.2282,0.0,-0.013199915822569186,-0.01319974667754531,0.0,0.0,0.0,-0.40021753696839557,-0.6072690748727915,-0.5835880622806575,-0.0009402493110428822,-0.004573787443997676,-0.0985006483002571
2641,13.0,299.74244,5278.3182,0.0,-0.01320493031130765,-0.013204748887732265,0.0,0.0,0.0,-0.4055230766120116,-0.6125557376670444,-0.5863981189154884,-0.0013422854394232588,-0.0037368989954532166,-0.100982421021939
2642,13.0,299.81347,5198.5981,0.0,-0.013209944800046003,-0.013209751097919442,0.0,0.0,0.0,-0.3928031198916496,-0.5995681208002664,-0.5878727727135254,0.0003790588686451976,-0.0005927334854307403,-0.0995737926269182
2643,13.0,300.01651,5154.5856,0.0,-0.013214926298726892,-0.013214753308106397,0.0,0.0,0.0,-0.3826132689359896,-0.6013286225840144,-0.5829234107450614,-0.004206547408228905,-0.004420706632139776,-0.0986919641046385
2644,13.0,299.91777,5193.9519,0.0,-0.013219940787465356,-0.013219755518293463,0.0,0.0,0.0,-0.3842886070488326,-0.6013153287427024,-0.5932277488295205,-0.0016171354058988384,-0.004814235340428035,-0.09462456744721771
2645,13.0,300.08485,5219.564,0.0,-0.013224922286146024,-0.01322475772848053,0.0,0.0,0.0,-0.4031798040332486,-0.5958257119534194,-0.5876116075002504,-0.0008424409881649522,-0.001039469972837699,-0.0976314195429709
2646,13.0,299.97611,5237.5328,0.0,-0.013229936774884599,-0.013229759938667596,0.0,0.0,0.0,-0.39867317156347865,-0.6097473528948785,-0.5836586554151244,0.006943515374921614,0.005526249326773344,-0.0940201698420683
2647,13.0,300.1468,5209.2631,0.0,-0.013234918273565599,-0.013234762148854773,0.0,0.0,0.0,-0.3952558538787156,-0.5991538737618834,-0.5890761693272915,0.003691920114239147,0.003479071428007617,-0.09253965439220281
2648,13.0,300.0612,5187.5236,0.0,-0.013239932762303952,-0.013239764359041728,0.0,0.0,0.0,-0.38327170924847265,-0.6072373601446615,-0.5863685624100714,-0.0016017655164569486,-0.0017931424198193782,-0.0918849509460886
2649,13.0,300.11105,5261.2122,0.0,-0.013244914260984841,-0.013244766569228905,0.0,0.0,0.0,-0.39490518828410764,-0.6129961569555104,-0.5913757809592455,-0.0038876246087786765,-0.0003969144328349046,-0.10133012691300491
2650,13.0,299.91548,5338.3208,0.0,-0.013249928749723305,-0.013249768779416082,0.0,0.0,0.0,-0.4090632711364016,-0.6151628504393464,-0.5984901138863754,-0.003649707203148057,0.001072067241804799,-0.099736488168975
2651,13.0,299.96035,5234.0076,0.0,-0.013254943238461658,-0.013254738080325401,0.0,0.0,0.0,-0.40588669154289764,-0.6109235741409624,-0.5741973515463664,-0.004516560496899816,-0.0031904664900995272,-0.10408138464453288
2652,13.0,299.89248,5134.7088,0.0,-0.013259924737142548,-0.013259740290512578,0.0,0.0,0.0,-0.3887992621214996,-0.5949431609838185,-0.5770808384159445,-0.0016575328767857583,-0.0014054824561103188,-0.10044143463454781
2653,13.0,299.96977000000004,5210.5105,0.0,-0.013264939225881012,-0.013264742500699755,0.0,0.0,0.0,-0.3935595921513076,-0.6022024190727514,-0.5881030844612555,0.0025641128698582374,0.0037771414390748367,-0.096914019220419
2654,13.0,299.92068,5261.4708,0.0,-0.013269920724561901,-0.01326974471088671,0.0,0.0,0.0,-0.39345981741396063,-0.6079884520462884,-0.5979074849463744,0.008850151837116982,0.00963574064899856,-0.0993479503253793
2655,13.0,299.7261,5220.0892,0.0,-0.013274935213300254,-0.013274746921073888,0.0,0.0,0.0,-0.3830441535410147,-0.6020646879866585,-0.6016679296450015,0.003402575199783027,-0.004373935007523776,-0.09196704750894091
2656,13.0,299.96006,5228.7637,0.0,-0.013279916711981143,-0.013279749131260843,0.0,0.0,0.0,-0.39000851532084363,-0.6105540215644903,-0.5888510758175765,-0.0018854901352583883,-0.006201712139611334,-0.1000375359194361
2657,13.0,300.02083999999996,5242.6047,0.0,-0.013284931200719607,-0.01328475134144802,0.0,0.0,0.0,-0.40100634203874463,-0.6072199829054464,-0.5853945858839474,-0.004073276243776066,-0.0026111892801043176,-0.09268430901622911
2658,13.0,300.23611,5236.5205,0.0,-0.013289912699400275,-0.013289753551635086,0.0,0.0,0.0,-0.3971000095907196,-0.6113809045735974,-0.5832905517862955,-0.001949452662395998,0.005761251713191275,-0.1046271718108979
2659,13.0,300.11531,5295.4846,0.0,-0.01329492718813885,-0.013294755761822041,0.0,0.0,0.0,-0.40230868252477564,-0.6198764291095404,-0.5875099785152205,-0.0016678791735568583,0.0005453282957922125,-0.0994162281833678
2660,13.0,300.15837999999997,5260.5497,0.0,-0.013299941676877314,-0.013299757972009218,0.0,0.0,0.0,-0.3953105288541116,-0.6096850684112314,-0.5940801454761454,-0.004646149003864205,-0.002736374202134107,-0.09947310292473091
2661,13.0,300.19027,5172.4426,0.0,-0.013304923175558203,-0.013304760182196174,0.0,0.0,0.0,-0.38266460018605564,-0.6094536218233895,-0.5801751623663305,0.0032378899385048566,0.002131499761487648,-0.10311579782923691
2662,13.0,300.05622,5170.4177,0.0,-0.013309937664296445,-0.01330976239238335,0.0,0.0,0.0,-0.3898463142448356,-0.5999543008108795,-0.5818772502818135,0.002237328566857138,0.0036816922664047362,-0.1050231195524749
2663,13.0,299.9211,5266.0653,0.0,-0.013314919162977557,-0.013314764602570528,0.0,0.0,0.0,-0.40893959382919565,-0.6014554916290354,-0.5903572720912265,0.006377328950918364,0.0019413945883257281,-0.09775246949266761
2664,13.0,299.87678999999997,5288.3113,0.0,-0.01331993365171591,-0.013319766812757483,0.0,0.0,0.0,-0.39878294707931267,-0.6148985542832623,-0.5938331049692644,0.0004637860212746165,-0.0021603915748390477,-0.10121322115621721
2665,13.0,299.72442,5257.1178,0.0,-0.013324915150396799,-0.013324736113667024,0.0,0.0,0.0,-0.40005399840225564,-0.6037796847084154,-0.5941988578578614,0.0032059169329243667,0.0038622064194200963,-0.09342416701399742
2666,13.0,299.74618,5276.7248,0.0,-0.013329929639135263,-0.013329738323854201,0.0,0.0,0.0,-0.3932612203943606,-0.6123954820312284,-0.5983358769561534,-0.006329136749662164,0.004211607579228306,-0.0980318205187374
2667,13.0,299.89546,5290.1518,0.0,-0.013334944127873616,-0.013334740534041156,0.0,0.0,0.0,-0.39561203155386765,-0.6149972043129984,-0.5974648365076884,-0.0036753640129051864,-0.004260355142864316,-0.0960457489977274
2668,13.0,299.79208,5255.4978,0.0,-0.013339925626554505,-0.013339742744228333,0.0,0.0,0.0,-0.4003496039864296,-0.6056791436108775,-0.5915113538226254,-0.003756115891549777,-0.006883262559050123,-0.10030114103895191
2669,13.0,299.91445,5273.2109,0.0,-0.01334494011529297,-0.013344744954415289,0.0,0.0,0.0,-0.4063485005409746,-0.6161022346070565,-0.5804736861107925,0.0033516245264545866,1.314521981383219e-05,-0.10178514713541191
2670,13.0,300.01412,5208.7332,0.0,-0.013349921613973859,-0.013349747164602466,0.0,0.0,0.0,-0.39405050169225664,-0.6056448653599944,-0.5836294636797434,0.005900753960459074,0.002931602063826597,-0.1062314810917309
2671,13.0,299.8497,5166.4714,0.0,-0.0133549361027121,-0.013354749374789643,0.0,0.0,0.0,-0.39000634696562964,-0.6023358539784204,-0.5781360978650905,-5.004045049860795e-06,-0.003940347861832056,-0.1023539958740529
2672,13.0,300.01981,5281.3937,0.0,-0.013359917601393101,-0.013359751584976709,0.0,0.0,0.0,-0.39076860488335863,-0.6156269797801525,-0.5990162338682994,-0.0036572517620676467,-0.006146090079346864,-0.10148679564346691
2673,13.0,300.164,5331.3995,0.0,-0.013364932090131565,-0.013364753795163664,0.0,0.0,0.0,-0.4033378710488486,-0.6097018377003864,-0.6075726040727475,-0.0037570842546703464,-0.0028494425781430874,-0.09402823024661382
2674,13.0,300.17497000000003,5265.124,0.0,-0.013369913588812454,-0.013369756005350841,0.0,0.0,0.0,-0.3968030361189106,-0.6122632022306734,-0.5913999875041344,-0.006783973877776093,0.0025986190006887276,-0.1020682796108549
2675,13.0,300.1368,5276.709,0.0,-0.013374928077550696,-0.013374758215537796,0.0,0.0,0.0,-0.4042698990208326,-0.6095828517411435,-0.5901350258142924,-0.0024758104541184674,-0.0006147335465044773,-0.09750898144063722
2676,13.0,300.12654,5330.2869,0.0,-0.013379942566289271,-0.013379760425724974,0.0,0.0,0.0,-0.4038536153497486,-0.6158943967465443,-0.6005261082398125,-0.00017097196139111883,-0.003793777181866656,-0.09722203509181782
2677,13.0,299.84027000000003,5305.9848,0.0,-0.01338492406497016,-0.013384762635911929,0.0,0.0,0.0,-0.4054174959515916,-0.6145886314751754,-0.5928807512002745,0.008021869428296871,-0.002257889944511388,-0.09758814768420031
2678,13.0,299.89269,5270.8277,0.0,-0.013389938553708403,-0.013389764846099106,0.0,0.0,0.0,-0.39215189391987865,-0.6139936104864514,-0.5960545139585004,0.005937334923519334,-0.0020690031032697077,-0.1002360316140261
2679,13.0,299.92354,5206.0169,0.0,-0.013394920052389514,-0.013394734147008647,0.0,0.0,0.0,-0.3906024419994596,-0.6049421054881374,-0.5869546060029095,0.0024826327683667776,-0.0013043306105524088,-0.09558294600130231
2680,13.0,299.98264,5190.8644,0.0,-0.013399934541127756,-0.013399736357195602,0.0,0.0,0.0,-0.39021332356355665,-0.6070970554033145,-0.5805827827490594,-0.003638745964891267,-0.0006357712327657354,-0.1019890941155399
2681,13.0,300.05717000000004,5274.380999999999,0.0,-0.013404916039808756,-0.013404738567382779,0.0,0.0,0.0,-0.40309699110257563,-0.6077847989086895,-0.5923983326951635,-0.0005526934283840945,0.007627018023328072,-0.1016435049039329
2682,13.0,300.03821,5351.2031,0.0,-0.01340993052854722,-0.013409740777569734,0.0,0.0,0.0,-0.4064051817515686,-0.6231306945882115,-0.5970962363863104,-0.003486895339979777,0.009589623887922191,-0.10675950598384289
2683,13.0,299.83812,5289.7077,0.0,-0.01341491202722811,-0.013414742987756911,0.0,0.0,0.0,-0.40141383069896064,-0.6104453808887684,-0.5960798452110004,-0.006977273625853294,0.0026577323154977576,-0.09841356249391241
2684,13.0,299.96237,5238.4837,0.0,-0.013419926515966352,-0.013419745197944088,0.0,0.0,0.0,-0.3859326762635897,-0.6116051976157334,-0.5948303558501855,-0.005276178999443325,-0.0036504089801673166,-0.10010841175068101
2685,13.0,300.28364,5304.134,0.0,-0.013424941004704927,-0.013424747408131155,0.0,0.0,0.0,-0.4023393941353066,-0.6131082528140734,-0.5968766448246384,-0.002182638696684668,0.0003004521417873177,-0.0983868278900239
2686,13.0,300.19151,5351.9904,0.0,-0.013429922503385816,-0.013429749618318332,0.0,0.0,0.0,-0.4070048130282476,-0.6174450443020815,-0.6024215749368804,0.00932733021801082,-0.001170205073615249,-0.0980362504481746
2687,13.0,300.15545,5304.334,0.0,-0.013434936992124058,-0.013434751828505287,0.0,0.0,0.0,-0.4014726599997666,-0.6183417503755795,-0.5925706865371735,0.002548793845571368,-0.0017467751833182884,-0.09841424745098
2688,13.0,300.07108,5286.7267,0.0,-0.013439918490804947,-0.013439754038692464,0.0,0.0,0.0,-0.3966558818068876,-0.6178431300013694,-0.5925338751610404,0.0027537596486749173,-0.0004044893284624886,-0.0997915339939076
2689,13.0,299.9907,5312.4053,0.0,-0.013444932979543522,-0.01344475624887942,0.0,0.0,0.0,-0.4044832894918926,-0.6151550484135764,-0.5952002124016875,-0.0015463884600666585,0.0006838640443196265,-0.09535040915635272
2690,13.0,300.01972,5322.0252,0.0,-0.013449914478224412,-0.013449758459066374,0.0,0.0,0.0,-0.39769863774979963,-0.6218091530127854,-0.5982549689356684,-0.004372863090242986,0.0036725299523754865,-0.1078365908401429
2691,13.0,299.89695,5331.9396,0.0,-0.013454928966962654,-0.013454760669253552,0.0,0.0,0.0,-0.4057527196146756,-0.6166711745382064,-0.5983525955828034,-0.0034284215886338665,0.0013266231260025086,-0.0970929541218285
2692,13.0,299.96495,5291.7819,0.0,-0.013459943455701118,-0.013459762879440507,0.0,0.0,0.0,-0.3998685635014546,-0.6116793472580514,-0.5970216510464494,-0.005759801650973165,-0.0024445533097336276,-0.1044046924864409
2693,13.0,299.90645,5268.9341,0.0,-0.013464924954382007,-0.01346473218035027,0.0,0.0,0.0,-0.3943059015124626,-0.6119648304737264,-0.5953536589968315,0.0026274532614344475,0.006650321325985613,-0.09731645885538671
2694,13.0,300.10095,5317.4783,0.0,-0.013469939443120582,-0.013469734390537225,0.0,0.0,0.0,-0.4016797379227036,-0.6152143843394324,-0.5994865136372124,2.7465569603390675e-05,0.004453738990699816,-0.1059574476021859
2695,13.0,300.15531,5387.2304,0.0,-0.013474920941801471,-0.01347473660072429,0.0,0.0,0.0,-0.4099604635699476,-0.6224530734513354,-0.6051699955681284,0.004808558302767755,0.0018017889895477282,-0.0924342236927976
2696,13.0,300.1728,5332.5968,0.0,-0.013479935430539713,-0.013479738810911357,0.0,0.0,0.0,-0.3970326385915706,-0.6181556264647103,-0.6057880173341225,-0.0024648176024585577,-0.005102635399165905,-0.1020949686184889
2697,13.0,300.00428,5306.4675,0.0,-0.013484916929220603,-0.013484741021098534,0.0,0.0,0.0,-0.4009010045583486,-0.6146673103454404,-0.5974653026027344,0.0039038145215264963,-0.0012936229887956486,-0.09449765888544281
2698,13.0,299.81155,5351.5569,0.0,-0.013489931417959178,-0.0134897432312856,0.0,0.0,0.0,-0.40536155441357064,-0.6216028654249264,-0.5997752493857084,-0.0026273512271493774,-0.0051606420422157144,-0.1012938150691712
2699,13.0,299.69458,5377.3146,0.0,-0.013494912916640067,-0.013494745441472777,0.0,0.0,0.0,-0.4102663536426366,-0.6202695093533344,-0.6040335038584654,0.005173795649713875,-0.005794791608726405,-0.0953173255273376
2700,13.0,299.88544,5307.6703,0.0,-0.01349992740537831,-0.013499747651659733,0.0,0.0,0.0,-0.3985477008035956,-0.6160783725672014,-0.5987731450368085,0.002386273595781868,-0.007813342861691903,-0.1042383674825259
2701,13.0,299.85007,5277.210999999999,0.0,-0.013504941894116773,-0.01350474986184691,0.0,0.0,0.0,-0.3973180812772416,-0.6127157703878384,-0.5941065406412505,0.007358943254971153,0.004119457650208816,-0.1006170612743808
2702,13.0,299.96153,5293.9944,0.0,-0.013509923392797663,-0.013509752072034087,0.0,0.0,0.0,-0.3988920234525776,-0.6144049596295484,-0.5959451234777043,0.0003106716100434007,0.0018504098969212381,-0.1031423247168549
2703,13.0,299.93131,5306.7922,0.0,-0.013514937881536015,-0.013514754282221042,0.0,0.0,0.0,-0.4038906901709076,-0.6180819834474425,-0.5911596243154125,-0.005169738089688425,0.0017223416704068883,-0.1025240901683399
2704,13.0,299.99868,5374.6148,0.0,-0.013519919380216905,-0.013519756492407997,0.0,0.0,0.0,-0.4107676793946136,-0.6174716522497075,-0.6055093735566224,-0.006762711027077614,-0.0023682265982507677,-0.0993723139240338
2705,13.0,300.18272,5402.0778,0.0,-0.013524933868955369,-0.013524758702595174,0.0,0.0,0.0,-0.41132819921743263,-0.6244543538563464,-0.6063142183760544,-0.0006608891758546834,0.002501724730726008,-0.099546534172728
2706,13.0,299.93924,5307.4748,0.0,-0.013529915367636258,-0.01352976091278224,0.0,0.0,0.0,-0.3978920773263906,-0.6187778126886154,-0.5966699215392365,-0.0037733727566528967,0.0015275488983073383,-0.10282031383507491
2707,13.0,299.68361,5294.5899,0.0,-0.013534929856374833,-0.013534763122969307,0.0,0.0,0.0,-0.3970078544941246,-0.6126627470101054,-0.5997525019209634,-0.004366384166453566,-1.4475439876364686e-05,-0.10070692845225
2708,13.0,299.97637000000003,5347.5108,0.0,-0.013539911355055723,-0.013539732423878847,0.0,0.0,0.0,-0.4055220836269136,-0.6212297968706074,-0.5987578550927994,-0.0028822170645526773,-0.003624302186040777,-0.1022169436655269
2709,13.0,299.86911000000003,5312.415,0.0,-0.013544925843793965,-0.013544734634065914,0.0,0.0,0.0,-0.4034706473419526,-0.6146540063716274,-0.5967168350188664,0.007579142766703154,0.0024430868328638978,-0.1040559318020209
2710,13.0,300.09912,5303.0859,0.0,-0.013549940332532429,-0.01354973684425298,0.0,0.0,0.0,-0.39813263303263163,-0.6199341134377334,-0.5939389490747105,0.006209569083536754,-0.0009695575296553781,-0.1026659249173379
2711,13.0,300.09617000000003,5324.9505,0.0,-0.013554921831213318,-0.013554739054440046,0.0,0.0,0.0,-0.40499181945208057,-0.6168151776424184,-0.5968449807590134,0.003580333920476447,-0.002230698364827788,-0.1046108179542839
2712,13.0,300.0515,5358.1279,0.0,-0.013559936319951671,-0.013559741264627223,0.0,0.0,0.0,-0.4002038276945426,-0.6177813217452693,-0.6107519397065234,-0.002194442047099568,-0.004465314461167226,-0.09620259302045671
2713,13.0,300.11401,5384.5733,0.0,-0.01356491781863256,-0.013564743474814178,0.0,0.0,0.0,-0.40717236406478363,-0.6278301992145163,-0.6017732671253974,-0.004003008869216216,0.0048762469558231054,-0.1030805772557609
2714,13.0,300.19449,5409.5196,0.0,-0.013569932307371024,-0.013569745685001355,0.0,0.0,0.0,-0.4097771564943566,-0.6206841008967514,-0.6138976354369794,-0.0008293242325729291,0.006936667729420804,-0.0969919492988601
2715,13.0,299.97812000000005,5373.3034,0.0,-0.013574913806051914,-0.013574747895188533,0.0,0.0,0.0,-0.41572600862646264,-0.6203777852590204,-0.5972462581961164,-0.008043328241564692,0.0026038230532023274,-0.1032101922085529
2716,13.0,299.89898999999997,5359.7242,0.0,-0.013579928294790267,-0.013579750105375488,0.0,0.0,0.0,-0.40166961555420466,-0.6259828416321964,-0.6015698774328244,0.0026143404879153177,0.001206003402298269,-0.1024466474631969
2717,13.0,299.81062000000003,5377.2239,0.0,-0.01358494278352873,-0.013584752315562665,0.0,0.0,0.0,-0.4095091011804016,-0.6187855336543774,-0.6062471513519354,0.0013633542527275886,0.005156568168863655,-0.10204738639379289
2718,13.0,299.99549,5382.0537,0.0,-0.01358992428220962,-0.01358975452574962,0.0,0.0,0.0,-0.4022241673339346,-0.6250608549687033,-0.6087249024839705,0.01130732193444579,0.0011818439735389189,-0.10165879484794191
2719,13.0,300.10343,5312.2989,0.0,-0.013594938770947973,-0.013594756735936797,0.0,0.0,0.0,-0.3997079532281036,-0.6181462336362834,-0.5969520407645795,-0.0028953340937222273,-0.005917092719646584,-0.1054582294104169
2720,13.0,299.98275,5307.4077,0.0,-0.013599920269629084,-0.013599758946123863,0.0,0.0,0.0,-0.3979625792683486,-0.6168982033556124,-0.5984586423382694,-0.002351760473525688,-0.005952860245526563,-0.1015795384251199
2721,13.0,300.09205,5411.5407,0.0,-0.013604934758367326,-0.013604761156310818,0.0,0.0,0.0,-0.41245767923640364,-0.6338362797122704,-0.5986792775475445,-0.0052351306166921645,-0.0009437070574066351,-0.1063564654915659
2722,13.0,299.93035,5419.1611,0.0,-0.013609916257048216,-0.01360973045722047,0.0,0.0,0.0,-0.4085843787416386,-0.6275303278474214,-0.6111749614907724,0.0006924816350951164,-0.001199681430949339,-0.1055150119460209
2723,13.0,299.99537999999995,5374.0004,0.0,-0.01361493074578668,-0.013614732667407536,0.0,0.0,0.0,-0.40877943951838963,-0.6221512667765494,-0.6026312265150714,-0.005781019310717184,0.00013433448937278189,-0.1047228023553359
2724,13.0,300.24773,5355.4275,0.0,-0.013619912244467569,-0.013619734877594603,0.0,0.0,0.0,-0.3955789286731006,-0.6238802260846844,-0.6084570700850375,0.0010674613108252289,-0.0014552390141959087,-0.10006480551937741
2725,13.0,300.18955,5337.691999999999,0.0,-0.013624926733205922,-0.013624737087781669,0.0,0.0,0.0,-0.3985512066489416,-0.6155593858659815,-0.6084144831833344,0.0018013946326088082,0.006049415380680814,-0.09861917525720482
2726,13.0,300.07742,5404.271,0.0,-0.013629941221944386,-0.013629739297968624,0.0,0.0,0.0,-0.40916878086931463,-0.6273440012865324,-0.6062506673297824,0.0023913819974860275,0.002100645890642608,-0.09938095796063691
2727,13.0,300.06497,5468.2264,0.0,-0.013634922720625275,-0.013634741508155801,0.0,0.0,0.0,-0.4216892083799846,-0.6271780106551503,-0.6133370649516554,-0.0008185947448790113,-0.003285114789890587,-0.1013954106169479
2728,13.0,299.78208,5399.3288,0.0,-0.013639937209363628,-0.013639743718342978,0.0,0.0,0.0,-0.4075325136803276,-0.6239945409609664,-0.6097340793185684,-0.00017266239693045185,-0.002755430599414828,-0.100352574627278
2729,13.0,299.94735,5366.5187,0.0,-0.013644918708044518,-0.013644745928529933,0.0,0.0,0.0,-0.3998795066025346,-0.6317734139661814,-0.5996347521268424,0.0025977776991306977,0.0015826671706220886,-0.10622691133377989
2730,13.0,299.83092999999997,5440.7685,0.0,-0.013649933196782982,-0.01364974813871711,0.0,0.0,0.0,-0.4083069103342546,-0.6267691135772954,-0.6187817542315044,0.0018350417300045181,-0.0007372631047922033,-0.0995225971523656
2731,13.0,299.78961,5461.5567,0.0,-0.013654914695463871,-0.013654750348904066,0.0,0.0,0.0,-0.41176396768793966,-0.6334888869154854,-0.6149240172582754,-0.0036193052418476168,-0.004561986525383015,-0.09907989197167401
2732,13.0,300.01583,5375.903,0.0,-0.013659929184202224,-0.013659752559091243,0.0,0.0,0.0,-0.40884062969192864,-0.6229250656129174,-0.6023745601322404,0.0016156225221745284,-0.002236797623804738,-0.09773836099827522
2733,13.0,299.93162,5372.6704,0.0,-0.013664910682883225,-0.01366475476927842,0.0,0.0,0.0,-0.4010529211458416,-0.6257382734555593,-0.6063664412862084,0.000844358685569214,0.007391519448336174,-0.09762338750942821
2734,13.0,300.05223,5415.749,0.0,-0.013669925171621577,-0.013669756979465486,0.0,0.0,0.0,-0.40984862102390957,-0.6297938171133104,-0.6066100164777475,0.0008364781633139672,0.004012886436491056,-0.1036693262263659
2735,13.0,300.20567,5420.2532,0.0,-0.01367493966035993,-0.013674759189652441,0.0,0.0,0.0,-0.4080190257158426,-0.6262313918817264,-0.6133712216125264,-9.275048539351021e-05,-0.0008522777923882692,-0.10482370180029389
2736,13.0,299.8956,5391.3785,0.0,-0.01367992115904093,-0.013679728490562093,0.0,0.0,0.0,-0.4023592234397636,-0.6264085282642085,-0.6100766693098795,-0.004649448956789886,-0.0013460192660417587,-0.10860908258388191
2737,13.0,300.06003,5383.2219,0.0,-0.013684935647779284,-0.01368473070074916,0.0,0.0,0.0,-0.40534410624684863,-0.6261684487855144,-0.6048524936492934,0.004781429341940336,0.0015437148983527985,-0.10630411085889889
2738,13.0,300.04867,5361.1911,0.0,-0.013689917146460173,-0.013689732910936336,0.0,0.0,0.0,-0.4054414795814586,-0.6252091947833434,-0.5990175612259304,-0.0016426464089665785,-0.0015549670407132984,-0.10742337731686191
2739,13.0,299.87335,5392.6484,0.0,-0.013694931635198637,-0.013694735121123291,0.0,0.0,0.0,-0.4099473217161506,-0.6288591546910665,-0.6004239827622334,0.0004798367539887005,-0.003924475704315596,-0.10612594096131489
2740,13.0,299.93082000000004,5470.569,0.0,-0.013699913133879527,-0.013699737331310247,0.0,0.0,0.0,-0.4181803638136886,-0.6310921552614464,-0.6136438669494344,-0.0007739296672209112,-0.0028827080855511377,-0.09916618744294071
2741,13.0,299.95162999999997,5390.9917,0.0,-0.01370492762261788,-0.013704739541497424,0.0,0.0,0.0,-0.4057642706658156,-0.6261773856513964,-0.6067852074200375,0.003860838329135077,0.011241513366950989,-0.1034574961604599
2742,13.0,299.70496,5359.7557,0.0,-0.013709942111356344,-0.013709741751684379,0.0,0.0,0.0,-0.3984923165531296,-0.6247520062057224,-0.6059875668088164,0.001989322229980818,0.0026624894233922476,-0.1000728497119213
2743,13.0,300.00433,5439.5734,0.0,-0.013714923610037233,-0.013714743961871556,0.0,0.0,0.0,-0.4152969478716176,-0.6263508338035144,-0.6118466956445674,-0.004125918335496436,-0.005173362282646105,-0.0996782921494815
2744,13.0,299.99985,5452.3796,0.0,-0.013719938098775586,-0.013719746172058511,0.0,0.0,0.0,-0.4159290132839976,-0.6258445127285445,-0.6156137366013454,-0.002996495261181057,-0.0011660964457847589,-0.0973297385111973
2745,13.0,299.95838,5405.48,0.0,-0.013724919597456475,-0.013724748382245688,0.0,0.0,0.0,-0.40904875126246865,-0.6264441642702254,-0.6076380397642055,0.0014415914472739985,0.004117309053371767,-0.10522276021967789
2746,13.0,300.04269,5403.0128,0.0,-0.01372993408619494,-0.013729750592432866,0.0,0.0,0.0,-0.40745213254989465,-0.6238834279550004,-0.6110454174654874,0.001144243782203069,0.006081186445516374,-0.1040993495688059
2747,13.0,299.9089,5422.6746,0.0,-0.013734915584875829,-0.013734752802619932,0.0,0.0,0.0,-0.4048702497050826,-0.6327225253348514,-0.6107649093078034,-0.006416516195885844,-0.005815670234986964,-0.1107342936086239
2748,13.0,299.68129,5441.4238,0.0,-0.013739930073614182,-0.013739755012807109,0.0,0.0,0.0,-0.4073271582825606,-0.6285475397553124,-0.6181822546773384,0.001182837363936959,1.0790499535439389e-05,-0.1043075015368489
2749,13.0,299.70155,5475.316,0.0,-0.013744911572295182,-0.013744757222994064,0.0,0.0,0.0,-0.4163295510485276,-0.6351852297029015,-0.6128445544755484,0.0030997350098950272,0.002182419632013048,-0.10167357816690091
2750,13.0,299.83664,5427.0999,0.0,-0.013749926061033535,-0.013749759433181241,0.0,0.0,0.0,-0.40933485256070457,-0.6294587961002464,-0.6109091961220434,0.009158364177710172,-0.0018336227745644786,-0.0967381605463131
2751,13.0,300.01686,5365.2035,0.0,-0.013754940549771777,-0.013754728734090782,0.0,0.0,0.0,-0.40724342329429664,-0.6217793634598454,-0.6018651182469624,-0.0003014155095848947,-0.008472642612909722,-0.09929870130426881
2752,13.0,300.12685,5425.6122,0.0,-0.013759922048452888,-0.013759730944277737,0.0,0.0,0.0,-0.4035887011111036,-0.6343816210485914,-0.6112803091036694,0.0007573586103154752,-0.0008876455809712981,-0.0989165307243015
2753,13.0,300.04542000000004,5504.5902,0.0,-0.013764936537191352,-0.013764733154464914,0.0,0.0,0.0,-0.41530580367749165,-0.6351957776364424,-0.6227563898687704,0.004163763125406426,0.0030193360462602674,-0.1036920432936079
2754,13.0,300.14133,5479.2881,0.0,-0.01376991803587213,-0.01376973536465187,0.0,0.0,0.0,-0.40751281609838363,-0.6363423714496024,-0.6217115770281554,-0.0003670371020387416,0.0033671108383329664,-0.1056877710880709
2755,13.0,300.00325,5410.9159,0.0,-0.013774932524610595,-0.013774737574839047,0.0,0.0,0.0,-0.41234092242738063,-0.6293791242448834,-0.6030632864902125,-0.0026838574494511074,-0.005997299064437334,-0.10934659693416889
2756,13.0,300.00145,5442.5243,0.0,-0.013779914023291484,-0.013779739785026002,0.0,0.0,0.0,-0.4099504222614566,-0.6298868537374924,-0.6145542215017795,-0.00040232436763632364,-0.003254073873077087,-0.1061268427539039
2757,13.0,300.07676000000004,5437.5388,0.0,-0.013784928512029837,-0.013784741995213068,0.0,0.0,0.0,-0.4173520825194436,-0.6264794963012124,-0.6090444410355064,-0.00012455518709263987,0.003947096918098136,-0.1052482434596929
2758,13.0,300.04125,5428.1836,0.0,-0.013789910010710726,-0.013789744205400134,0.0,0.0,0.0,-0.4057931178961626,-0.6322154544548074,-0.6120237003045365,0.0004672185579758816,0.0009296884788281091,-0.10625142185369889
2759,13.0,299.73636,5424.95,0.0,-0.01379492449944919,-0.013794746415587311,0.0,0.0,0.0,-0.4052206518546646,-0.6281974821107644,-0.6156311847680674,-0.003612620830937916,-0.005555244288984925,-0.10544333463394691
2760,13.0,299.71866,5424.6865,0.0,-0.013799938988187432,-0.013799748625774377,0.0,0.0,0.0,-0.4100864308223796,-0.6290291071303394,-0.6098537036253745,0.0019093547082386381,0.003191084876635557,-0.1025677308501469
2761,13.0,299.77567999999997,5459.8914,0.0,-0.013804920486868322,-0.013804750835961555,0.0,0.0,0.0,-0.41686715115408457,-0.6313560055874864,-0.6114475055026705,0.005635792808334444,0.0014682235102523786,-0.1016398977335769
2762,13.0,299.83011,5537.0686,0.0,-0.013809934975606897,-0.01380975304614851,0.0,0.0,0.0,-0.42417400160021457,-0.6386837289856764,-0.6202728530786644,0.004769307223043975,0.0037172442739884467,-0.09982950351490491
2763,13.0,299.9123,5519.2667,0.0,-0.013814916474287786,-0.013814755256335687,0.0,0.0,0.0,-0.4208338125130636,-0.6375496488112514,-0.6193358095186854,0.002518555118862038,-0.004594426740584616,-0.10129319496011001
2764,13.0,300.05899,5432.8965,0.0,-0.013819930963026028,-0.013819757466522864,0.0,0.0,0.0,-0.40592469855414864,-0.6322175316175124,-0.6133226464027324,0.002069412456310108,0.0027041267071015278,-0.1023341057745899
2765,13.0,300.07591,5452.0652,0.0,-0.01382491246170714,-0.013824726767432183,0.0,0.0,0.0,-0.4059824031473436,-0.6346521486927904,-0.6166571410243215,0.002358602850125978,0.007213419161034043,-0.1062140329250089
2766,13.0,300.2222,5484.6725,0.0,-0.013829926950445603,-0.01382972897761936,0.0,0.0,0.0,-0.41562415672641057,-0.6348570886580164,-0.6167222423432465,-0.0024982857598866075,0.003423654550888397,-0.10333370739574291
2767,13.0,300.09572000000003,5449.1691,0.0,-0.013834941439183956,-0.013834731187806537,0.0,0.0,0.0,-0.4154364724103876,-0.6316160156956474,-0.6093588626740374,-0.0064442905970269635,-0.001911330647258648,-0.1036931477362169
2768,13.0,299.82262000000003,5423.0828,0.0,-0.013839922937864846,-0.013839733397993492,0.0,0.0,0.0,-0.4094629476383466,-0.6358524346287494,-0.6031663745553865,-0.006420063584485944,0.0015182095694856186,-0.10874214258701388
2769,13.0,299.91004,5434.8671,0.0,-0.01384493742660331,-0.01384473560818067,0.0,0.0,0.0,-0.4142648107897536,-0.6289660120466124,-0.6088330770646465,0.0018875275785594683,0.0005495183787982414,-0.101067290850315
2770,13.0,300.0256,5490.0221,0.0,-0.013849918925283977,-0.013849737818367625,0.0,0.0,0.0,-0.4048339145564966,-0.6460529449754614,-0.6179427831487044,-0.0025894440210332275,-0.00036048063421916866,-0.11211546495243489
2771,13.0,300.14558999999997,5528.0266,0.0,-0.013854933414022552,-0.01385474002855469,0.0,0.0,0.0,-0.41545273507449265,-0.6410505900267675,-0.6238787062095343,0.002751958596622167,-0.005614129723846464,-0.10389891856652489
2772,13.0,300.18923,5514.0315,0.0,-0.013859914912703442,-0.013859742238741757,0.0,0.0,0.0,-0.4148181871993676,-0.6421387801041634,-0.6191709233299124,0.0013630731771498488,-0.0003660720725110007,-0.1093077387928339
2773,13.0,300.18087,5420.9525,0.0,-0.013864929401441684,-0.013864744448928823,0.0,0.0,0.0,-0.40948293906281963,-0.6322757529682583,-0.6060755169174965,0.006699380666677393,0.007993025035050153,-0.09978611817212309
2774,13.0,300.18609,5388.5058,0.0,-0.013869910900122573,-0.013869746659116,0.0,0.0,0.0,-0.40257244165830663,-0.6246139204820944,-0.6107848500697715,0.0022358337189846075,0.005822322728518514,-0.1080122580099799
2775,13.0,300.1545,5495.6576,0.0,-0.013874925388861148,-0.013874748869302955,0.0,0.0,0.0,-0.4136775107667916,-0.6377044632940304,-0.6191607300339064,-0.002390453759069418,-0.0001247346539503519,-0.097455185966328
2776,13.0,299.87572,5514.1393,0.0,-0.01387993987759939,-0.013879751079490132,0.0,0.0,0.0,-0.4053722543346266,-0.6416557840464954,-0.6291326106280545,-0.0049695428707056954,0.0050220293272107055,-0.1070708676070719
2777,13.0,299.76792,5475.3496,0.0,-0.01388492137628028,-0.01388475328967731,0.0,0.0,0.0,-0.41124910491462663,-0.6377278592388393,-0.6153925947670205,0.00012062180086694487,0.0037518813167318563,-0.10293747594413791
2778,13.0,299.93507,5462.9687,0.0,-0.013889935865018743,-0.013889755499864265,0.0,0.0,0.0,-0.4153574389025876,-0.6352183629811714,-0.6100302624552993,-0.005559108318241275,-0.0005887393751265524,-0.1064947943952179
2779,13.0,299.92712,5510.1151,0.0,-0.013894917363699855,-0.013894724800773806,0.0,0.0,0.0,-0.4289440385659806,-0.6330081402730394,-0.6129852239869313,-0.004463952957007855,-0.007805432924786252,-0.10046631499075331
2780,13.0,300.07786,5538.2355,0.0,-0.013899931852438208,-0.013899727010960983,0.0,0.0,0.0,-0.4230149549433256,-0.6413430038731265,-0.6191273535756124,-0.0017764886411757784,-0.001158615113671409,-0.10386260368294091
2781,13.0,299.98989,5524.3214,0.0,-0.013904913351119097,-0.013904729221147938,0.0,0.0,0.0,-0.4182738260029126,-0.6395588426995433,-0.6214231047246854,0.006986496937538563,0.0058960272500675846,-0.09950985857210841
2782,13.0,299.96898,5487.5913,0.0,-0.013909927839857561,-0.013909731431335115,0.0,0.0,0.0,-0.40507584828287363,-0.6352125367930964,-0.6278023551017684,0.006949062007294023,0.0012507094152604088,-0.09896908598048831
2783,13.0,300.09427,5480.379,0.0,-0.013914909338538228,-0.01391473364152207,0.0,0.0,0.0,-0.41310045470234064,-0.6343662399120734,-0.6184316763219544,0.004655456313982766,-0.007018286747500973,-0.0986402660580363
2784,13.0,300.15424,5527.2977,0.0,-0.013919923827276803,-0.013919735851709247,0.0,0.0,0.0,-0.4168313530280516,-0.6408250000245034,-0.6225041311238744,0.001949815507256808,-0.0009512583848368931,-0.1044123931872009
2785,13.0,300.1269,5525.2548,0.0,-0.013924938316015267,-0.013924738061896313,0.0,0.0,0.0,-0.4268787308871506,-0.6381564336336364,-0.6145043189343544,-0.0006172373888265873,0.00098643282503584,-0.1043653479850579
2786,13.0,300.2189,5461.4176,0.0,-0.013929919814695935,-0.01392974027208349,0.0,0.0,0.0,-0.4061719315785486,-0.6399292058760954,-0.6140334514803835,0.0005232731341780375,0.00014738343826811286,-0.10984235994309689
2787,13.0,300.29602,5442.2371,0.0,-0.01393493430343451,-0.013934742482270446,0.0,0.0,0.0,-0.4046532419311656,-0.6369319918152935,-0.6127189519931524,-0.00927076796297856,-0.003083214372314567,-0.10527692857002391
2788,13.0,300.01247,5529.6401,0.0,-0.013939915802115399,-0.013939744692457401,0.0,0.0,0.0,-0.4071231302424246,-0.6480677927993114,-0.6256815922449654,-0.0007820473001320592,0.0036112033953730267,-0.10942902482980389
2789,13.0,299.98629,5566.6558,0.0,-0.013944930290853641,-0.013944746902644578,0.0,0.0,0.0,-0.42496632264841055,-0.6426497925270964,-0.6245082486291653,-0.0031782790165717167,0.006626905926774693,-0.1051575879732459
2790,13.0,299.87372999999997,5513.6398,0.0,-0.01394991178953453,-0.013949749112831755,0.0,0.0,0.0,-0.4198440191528786,-0.6399936688474573,-0.6161711254813553,0.0017545802488385881,0.0013085178665906588,-0.10792218007608989
2791,13.0,299.96691,5494.5215,0.0,-0.013954926278272994,-0.01395475132301871,0.0,0.0,0.0,-0.42765758584151753,-0.6340401456323904,-0.6084995961917344,-0.00024844746543985577,-0.006997336687108363,-0.1027675640348689
2792,13.0,299.97006,5533.4971,0.0,-0.013959940767011347,-0.013959753533205888,0.0,0.0,0.0,-0.4242115931789246,-0.6361162545572864,-0.6217171093737014,0.006388896416709984,0.001127962676946249,-0.10294195450957991
2793,13.0,300.04817,5548.1364,0.0,-0.013964922265692459,-0.013964722834115428,0.0,0.0,0.0,-0.4180838720066656,-0.6421472306099973,-0.6262638361499284,0.007506748782833424,0.007340410100042072,-0.1047876098317319
2794,13.0,300.03889,5559.3665,0.0,-0.0139699367544307,-0.013969725044302383,0.0,0.0,0.0,-0.4146857250137946,-0.6401678262746454,-0.6350550473300534,0.0009860257112781611,-0.0025985641838583177,-0.1026108649069039
2795,13.0,300.11371,5561.6497,0.0,-0.013974918253111812,-0.01397472725448956,0.0,0.0,0.0,-0.42020968084896665,-0.6435952460629054,-0.6267977074951174,-0.002062836665811128,-0.003126689793030257,-0.1051235832998899
2796,13.0,300.11446,5522.0503,0.0,-0.013979932741850165,-0.013979729464676516,0.0,0.0,0.0,-0.4175385002728416,-0.6423930653492593,-0.6186338501144074,-0.002174849437865928,-0.0014374402629393085,-0.1060579417471039
2797,13.0,300.15406,5552.5706,0.0,-0.013984914240531054,-0.013984731674863693,0.0,0.0,0.0,-0.4255950240704586,-0.6423258767351283,-0.6199219037740284,0.0024283079722053377,0.006049105022175184,-0.10523133231552391
2798,13.0,300.33455,5594.388000000001,0.0,-0.013989928729269518,-0.01398973388505087,0.0,0.0,0.0,-0.4258435135249826,-0.6461169418517774,-0.6285937844898764,-0.0025095799521262577,-0.0038320012312890762,-0.1025897487748199
2799,13.0,300.3225,5523.7856,0.0,-0.013994910227950186,-0.013994736095237936,0.0,0.0,0.0,-0.41555247941433654,-0.6396590328694314,-0.6238813811897984,-0.003587032618212556,-0.0022818229118733878,-0.1031006801377449
2800,13.0,300.16941,5484.7133,0.0,-0.01399992471668865,-0.013999738305425113,0.0,0.0,0.0,-0.40670851843400563,-0.6378178763777234,-0.6226894950971684,0.0005614186263202044,0.0027363034772771274,-0.10318380717594891
2801,13.0,299.98019,5540.6279,0.0,-0.014004939205427225,-0.014004740515612069,0.0,0.0,0.0,-0.4199062833715236,-0.6420764753555144,-0.6222297835267984,0.000980920399986806,0.006128418490977813,-0.1044531866362269
2802,13.0,300.09925,5586.8862,0.0,-0.014009920704107892,-0.014009742725799024,0.0,0.0,0.0,-0.42170095194864365,-0.6471609440923124,-0.6294120042106284,0.0021087408470165177,-0.002746333032066967,-0.1089060357906889
2803,13.0,300.08042,5579.2964,0.0,-0.014014935192846356,-0.0140147449359862,0.0,0.0,0.0,-0.42754959364585954,-0.6464652567061534,-0.6219519503493784,-0.003955161071669006,-0.004548595108086386,-0.1065873446593519
2804,13.0,299.9929,5543.7697,0.0,-0.014019916691527246,-0.014019747146173156,0.0,0.0,0.0,-0.4138882161250866,-0.6453342973420364,-0.6259450474034665,0.0025056359774370176,-0.0012125971273240189,-0.1125795740282389
2805,13.0,299.84499,5508.1289,0.0,-0.014024931180265598,-0.014024749356360333,0.0,0.0,0.0,-0.4113791150349576,-0.6406904910737284,-0.6222640313801784,0.0018990705236986683,0.005277830597106325,-0.1054086814805269
2806,13.0,299.82735,5532.0535,0.0,-0.01402991267894671,-0.014029751566547288,0.0,0.0,0.0,-0.4058997523366866,-0.6476503337581114,-0.6280560627943074,0.0024161465392050978,-0.0026982910958005973,-0.11349430582101588
2807,13.0,300.03406,5590.5509,0.0,-0.014034927167684952,-0.014034753776734465,0.0,0.0,0.0,-0.4254212922083126,-0.6454328561792634,-0.6285337291564494,-0.0033370084950870966,-0.0014748400334053786,-0.1012576937163563
2808,13.0,300.21564,5568.0439,0.0,-0.014039908666366063,-0.014039723077644006,0.0,0.0,0.0,-0.42410466489587156,-0.6443311088155295,-0.6241105175674124,0.0003827578698577606,-0.0011490619890785888,-0.1072982409295119
2809,13.0,300.1484,5488.1408,0.0,-0.014044923155104305,-0.014044725287830961,0.0,0.0,0.0,-0.42097536355203363,-0.6390632924731363,-0.6082191184315534,0.001887737827955218,0.006390070976225904,-0.1004888172489741
2810,13.0,300.19417000000004,5510.3606,0.0,-0.014049937643842658,-0.014049727498018139,0.0,0.0,0.0,-0.41420130027348556,-0.6377535653938764,-0.6230571630284545,-0.0004181795228161056,-0.0052304996584351246,-0.1034465327943779
2811,13.0,300.27756,5623.3531,0.0,-0.01405491914252377,-0.014054729708205316,0.0,0.0,0.0,-0.4262676194868386,-0.6490779018240014,-0.6340134059622514,-0.0018206216612063682,-0.0018591617433349782,-0.09965593782577531
2812,13.0,300.07147000000003,5607.6435,0.0,-0.014059933631262012,-0.014059731918392382,0.0,0.0,0.0,-0.4210532014247156,-0.6455440401127364,-0.6379863596043513,0.0003552474608976946,0.0017969508216452382,-0.1025037339738309
2813,13.0,300.13437000000005,5581.1364,0.0,-0.014064915129942901,-0.014064734128579559,0.0,0.0,0.0,-0.42249033457154955,-0.6477459339050464,-0.6262898260149934,0.008603043746454311,0.00945834203739068,-0.10654273125744888
2814,13.0,299.98575,5588.8792,0.0,-0.014069929618681476,-0.014069736338766514,0.0,0.0,0.0,-0.4262547410780676,-0.6464938708889774,-0.6261311206518304,0.0029349733495593173,-0.002056871763797438,-0.1068855036337779
2815,13.0,299.83516000000003,5599.5853,0.0,-0.014074911117362143,-0.014074738548953691,0.0,0.0,0.0,-0.4264008314774856,-0.6472649846125804,-0.6284682934649914,0.001872638374965018,-0.006171528635032454,-0.1075058153449979
2816,13.0,299.84105,5593.3968,0.0,-0.014079925606100607,-0.014079740759140646,0.0,0.0,0.0,-0.4227542456925956,-0.6503169141787825,-0.6271817900780233,-0.0024799589026778877,0.0001164732003200099,-0.10416223187001189
2817,13.0,300.13597000000004,5587.3248,0.0,-0.014084940094839071,-0.014084742969327602,0.0,0.0,0.0,-0.4221567017111226,-0.6458115685366395,-0.6304389433194795,-0.002489674653911758,0.005136450696078215,-0.10792979971684188
2818,13.0,300.11146,5513.6519,0.0,-0.01408992159351985,-0.014089745179514779,0.0,0.0,0.0,-0.41156522881332563,-0.6447937993411933,-0.6196534938225384,-0.002825359041816227,-0.001969300914629868,-0.10708708974117288
2819,13.0,300.29805,5511.8173,0.0,-0.014094936082258314,-0.014094747389701845,0.0,0.0,0.0,-0.4128075139659296,-0.6449360799202354,-0.6177112352358524,-0.00939789427219995,8.568209322591422e-05,-0.10855412389845791
2820,13.0,300.00421,5631.2589,0.0,-0.014099917580939203,-0.014099749599888911,0.0,0.0,0.0,-0.4259226382252916,-0.6554937710596984,-0.6303456939127764,0.0004923110684873195,0.004215335832971256,-0.1065666236948069
2821,13.0,299.98033,5640.0191,0.0,-0.014104932069677556,-0.014104751810076088,0.0,0.0,0.0,-0.43275346377444157,-0.6504269835371455,-0.6312445379439855,0.0008912598440779983,0.005958383167846634,-0.1049337103636509
2822,13.0,300.07175,5572.2804,0.0,-0.014109913568358556,-0.014109721110985518,0.0,0.0,0.0,-0.4161947887852276,-0.6498724621549183,-0.6277668305532623,0.003994116282363586,-0.002902395838969167,-0.10836338969963391
2823,13.0,300.19902,5540.6129,0.0,-0.01411492805709691,-0.014114723321172695,0.0,0.0,0.0,-0.4113583028779036,-0.6431047316894953,-0.6297449379284864,-0.001930474386697988,-0.004379543346827277,-0.10545118732222189
2824,13.0,299.90512,5616.5001,0.0,-0.01411990955577802,-0.014119725531359761,0.0,0.0,0.0,-0.4210396745358806,-0.6507663209956355,-0.6354698009934864,0.0005354004814449136,0.006460444134096193,-0.10735388862500389
2825,13.0,299.97021,5626.2465,0.0,-0.014124924044516263,-0.014124727741546828,0.0,0.0,0.0,-0.43193055270572656,-0.6457923066522384,-0.6325155791344274,-0.0025511033465242974,0.01091251105948099,-0.1059226019312469
2826,13.0,299.76059,5574.0188,0.0,-0.014129938533254838,-0.014129729951734005,0.0,0.0,0.0,-0.42365328224132365,-0.6461693978094544,-0.6245398417672834,0.0005389627648214835,-0.004918425821710836,-0.10596765103069292
2827,13.0,299.87012999999996,5546.1307,0.0,-0.014134920031935727,-0.01413473216192096,0.0,0.0,0.0,-0.4251059890421946,-0.6381674577947244,-0.6226117990795004,0.001201177089421949,-0.002184053295149278,-0.1011318054974321
2828,13.0,299.95104,5587.9016,0.0,-0.014139934520673969,-0.014139734372108137,0.0,0.0,0.0,-0.4208953978541416,-0.6448273885820084,-0.6328597801933974,0.005850540122603354,-0.002032291430946548,-0.0986173787647775
2829,13.0,299.76564,5625.8765,0.0,-0.014144916019354858,-0.014144736582295314,0.0,0.0,0.0,-0.4235252378261866,-0.6532674478074774,-0.6333332820976284,0.007224724296374774,0.00025432634252005575,-0.1011555814110286
2830,13.0,300.00261,5641.6639,0.0,-0.014149930508093322,-0.01414973879248227,0.0,0.0,0.0,-0.42452780827013253,-0.6503603724755714,-0.6400367522417093,-0.001141441740376529,-0.006967732660261674,-0.09902342455685109
2831,13.0,300.09462,5610.4872,0.0,-0.0141549120067741,-0.014154741002669446,0.0,0.0,0.0,-0.42381415595970057,-0.6522845546804734,-0.6293493144269414,0.0030537606104577074,-0.006890936611332494,-0.1114099591728069
2832,13.0,300.03524,5563.4489,0.0,-0.014159926495512565,-0.014159743212856402,0.0,0.0,0.0,-0.42031145168901063,-0.6460286067080594,-0.6248094878838955,0.0028033595582950474,0.007198108952023044,-0.10815658535422389
2833,13.0,300.12233,5625.0261,0.0,-0.014164907994193454,-0.014164745423043468,0.0,0.0,0.0,-0.4279313862835396,-0.6516369966740644,-0.6302990945406773,-0.0019340311985240179,0.007463084492299093,-0.11050845029383488
2834,13.0,300.01522,5635.5073,0.0,-0.014169922482931807,-0.014169747633230534,0.0,0.0,0.0,-0.4189996474470456,-0.6534922474746634,-0.6405616157935093,-0.004675648463300575,-0.0019611951164798884,-0.1042593924221009
2835,13.0,300.03891,5586.0397,0.0,-0.014174936971670271,-0.0141747498434176,0.0,0.0,0.0,-0.4172383046657146,-0.6460722777873693,-0.6347059928031044,-0.004845804667168685,-0.0017662748775177583,-0.1083183608651899
2836,13.0,300.19514,5600.4649,0.0,-0.01417991847035116,-0.014179719144327252,0.0,0.0,0.0,-0.4170591012530286,-0.6529035896965674,-0.6324387950418494,0.002084144910114088,0.004349445259231826,-0.1097608946350569
2837,13.0,300.20727999999997,5608.3325,0.0,-0.014184932959089402,-0.014184721354514318,0.0,0.0,0.0,-0.4241034084657476,-0.6535210643075073,-0.6271685772967194,0.004148188559444337,0.00035667933527650967,-0.1106981003150519
2838,13.0,300.11852999999996,5609.3026,0.0,-0.014189914457770514,-0.014189723564701273,0.0,0.0,0.0,-0.4262488236974836,-0.6530611602196184,-0.6257779320644734,-0.00044982189475646455,-0.004267094775904466,-0.10679676319001989
2839,13.0,300.31312,5615.0183,0.0,-0.014194928946508978,-0.01419472577488845,0.0,0.0,0.0,-0.4266668197612366,-0.6533626527868733,-0.6267958836449374,0.0022270261438153676,-0.005693610581565614,-0.1082597342144039
2840,13.0,300.19444,5638.1809,0.0,-0.014199910445189978,-0.014199727985075405,0.0,0.0,0.0,-0.42177768537871657,-0.6551914881573654,-0.6368970448193444,-0.00011066311278909887,0.004243484731349337,-0.1031523660253459
2841,13.0,300.02897,5606.4642,0.0,-0.01420492493392822,-0.014204730195262583,0.0,0.0,0.0,-0.4215292161891946,-0.6528741243836593,-0.6298217929485714,-0.0017278539536009084,0.003098882359935877,-0.10239814318090991
2842,13.0,299.8795,5633.7974,0.0,-0.014209939422666684,-0.01420973240544976,0.0,0.0,0.0,-0.42522099292854465,-0.6562776112045573,-0.6310351194133174,-0.006715085739252364,-0.006952272692885893,-0.1057514133268519
2843,13.0,299.69847999999996,5675.5614,0.0,-0.014214920921347574,-0.014214734615636715,0.0,0.0,0.0,-0.4366137440054216,-0.6503302384175974,-0.6382849644088214,-0.002109011992743278,-0.003217366659054367,-0.10709030174398988
2844,13.0,299.81564,5645.5407,0.0,-0.014219935410085927,-0.014219736825823892,0.0,0.0,0.0,-0.4350281899839396,-0.6505754449417974,-0.6304997687229824,0.0038485638174236766,0.0062120439469060046,-0.10973886657788288
2845,13.0,299.93203,5601.1237,0.0,-0.014224916908766816,-0.014224739036010847,0.0,0.0,0.0,-0.4231018310068996,-0.6507383248953724,-0.6287615989714384,0.008838575049424442,0.006649852089864305,-0.11409841566313689
2846,13.0,299.94664,5611.5911,0.0,-0.01422993139750528,-0.014229741246198024,0.0,0.0,0.0,-0.42322471797902755,-0.6441823940983523,-0.6383764710253523,-0.00022888645947683478,0.0029447508077242775,-0.1066969580551699
2847,13.0,300.09833,5629.7201,0.0,-0.014234912896186058,-0.01423474345638509,0.0,0.0,0.0,-0.4229820851100816,-0.6537896870415184,-0.6345225641375014,0.0036571945134369964,0.00021164162165240177,-0.10590829483983491
2848,13.0,300.12618,5612.7459,0.0,-0.014239927384924522,-0.014239745666572046,0.0,0.0,0.0,-0.4220890166044426,-0.6529202981907164,-0.6311252885397164,0.004207449808767966,0.006905478168817633,-0.1053814959803439
2849,13.0,299.97884,5636.2714,0.0,-0.014244908883605412,-0.014244747876759223,0.0,0.0,0.0,-0.4229516470770776,-0.6635144156712743,-0.6268197051547885,0.004679309842536925,-0.0032333087308277267,-0.1099444752881749
2850,13.0,300.04292000000004,5661.0106,0.0,-0.014249923372343654,-0.014249750086946178,0.0,0.0,0.0,-0.42998648040136156,-0.6603555983520234,-0.6304637983444323,-0.004992167630863585,-0.00928596448532834,-0.10432316638339491
2851,13.0,300.14779,5637.1003,0.0,-0.014254937861082229,-0.01425471938785594,0.0,0.0,0.0,-0.4139267094963856,-0.6613935920194653,-0.6382174312896564,-0.005944863169112314,-0.00877221770567548,-0.11098605586097089
2852,13.0,299.99431,5656.1061,0.0,-0.014259919359763229,-0.014259721598042896,0.0,0.0,0.0,-0.42384080443733063,-0.6597929709689964,-0.6356812561568553,-0.0009072039220865561,0.005019267511413136,-0.1090262883125569
2853,13.0,299.93437,5661.5237,0.0,-0.014264933848501582,-0.014264723808229851,0.0,0.0,0.0,-0.4251341371299726,-0.6550517204385714,-0.6407759789846653,-0.002929746701568487,0.001027295975536219,-0.10609472272573389
2854,13.0,299.93564,5612.8778,0.0,-0.014269915347182471,-0.014269726018417028,0.0,0.0,0.0,-0.42544724154337366,-0.6481152433014944,-0.6326122229289654,-0.0026360973993625574,0.0017531139746188786,-0.1073713165267239
2855,13.0,300.04641000000004,5618.4823,0.0,-0.014274929835920935,-0.014274728228604205,0.0,0.0,0.0,-0.4220173088948656,-0.6537087688885324,-0.6321522377810683,-0.0014277336309563386,-0.0005437790667868154,-0.10994682602840689
2856,13.0,299.99447000000004,5696.9339,0.0,-0.014279911334601825,-0.01427973043879116,0.0,0.0,0.0,-0.43580068172767855,-0.6513376521970213,-0.6445873091033144,0.0015941316902035483,0.009146729634761932,-0.1071269813976099
2857,13.0,300.11697999999996,5695.2867,0.0,-0.014284925823340178,-0.014284732648978338,0.0,0.0,0.0,-0.42747918289641057,-0.6626979083431913,-0.6410478441189964,0.002096944285377288,0.002864446380323847,-0.11023696006204088
2858,13.0,300.08453,5645.6211,0.0,-0.014289907322021067,-0.014289734859165293,0.0,0.0,0.0,-0.4226194732967946,-0.6571725136928774,-0.6363358562514594,-0.003643031607514226,0.0004738360335839755,-0.1046293806961159
2859,13.0,300.08025,5664.6145,0.0,-0.014294921810759531,-0.01429473706935247,0.0,0.0,0.0,-0.42938008061401456,-0.6565354124275004,-0.6359858492694165,-0.0015010019483373584,-0.004178683334453937,-0.1040734204987469
2860,13.0,300.16263,5713.6478,0.0,-0.014299936299497884,-0.014299739279539647,0.0,0.0,0.0,-0.43187617157285957,-0.6640402620756715,-0.6408898277659013,0.0026701831327265576,0.0019027666574134483,-0.10416808845558989
2861,13.0,299.82621,5671.346,0.0,-0.014304917798178773,-0.014304741489726713,0.0,0.0,0.0,-0.4312623041322756,-0.6593388120091743,-0.6333464746139305,0.0010971093127262587,-0.008148799268323872,-0.1077500491491019
2862,13.0,299.94178,5650.476,0.0,-0.014309932286917237,-0.01430974369991389,0.0,0.0,0.0,-0.4213518467591896,-0.6575978254223525,-0.6386539394327364,0.004454606231460405,-0.008698967728121272,-0.1060566143894729
2863,13.0,300.06366,5643.8795,0.0,-0.014314913785597905,-0.014314745910100846,0.0,0.0,0.0,-0.41988589677951166,-0.6573094341788904,-0.6384030992379804,0.0016770964057415281,-0.0024218660320445675,-0.1106729717125719
2864,13.0,299.87515,5624.6724,0.0,-0.01431992827433648,-0.0143197481202878,0.0,0.0,0.0,-0.4185860184912236,-0.6534968476301174,-0.6376770954088294,0.0017858164189463583,0.01075625877481009,-0.10768336716002089
2865,13.0,299.76452,5664.1924,0.0,-0.01432490977301748,-0.014324717421197564,0.0,0.0,0.0,-0.4264505415273916,-0.6589348190618034,-0.6363876839940744,-0.0002316576478378298,0.002285386309825068,-0.11162899344692388
2866,13.0,300.06307000000004,5704.6322,0.0,-0.014329924261755833,-0.014329719631384519,0.0,0.0,0.0,-0.4316077312238666,-0.6606443138355174,-0.6418137193395824,-0.0004188992748921396,0.0018784760127661482,-0.11016580964001889
2867,13.0,300.14634,5638.923000000001,0.0,-0.014334938750494075,-0.014334721841571696,0.0,0.0,0.0,-0.42554402719292556,-0.6554480937451904,-0.6330996570220714,0.005480735854806514,0.002159195331770988,-0.1157855682721459
2868,13.0,300.11235,5627.3794,0.0,-0.014339920249175186,-0.014339724051758651,0.0,0.0,0.0,-0.4174287450220096,-0.6607261033835894,-0.6324279633982803,0.0025400397700074077,0.006892684163779963,-0.11715506697480488
2869,13.0,300.08881,5691.2601,0.0,-0.01434493473791354,-0.014344726261945606,0.0,0.0,0.0,-0.4272360535349156,-0.6623257314489603,-0.6404391746514254,-0.0013640508621713386,-0.005242438683038415,-0.11364915070129789
2870,13.0,299.98065,5702.9637,0.0,-0.014349916236594429,-0.014349728472132783,0.0,0.0,0.0,-0.42832411188979863,-0.6666178994025644,-0.6386165505040464,-0.005744124442775944,-0.004985033235584475,-0.1045503775858189
2871,13.0,299.99327999999997,5640.3963,0.0,-0.014354930725332893,-0.014354730682319738,0.0,0.0,0.0,-0.4264282601576926,-0.6564914576381624,-0.6316199065760314,-0.0028102131819714472,0.0005947959458767895,-0.1046238483505699
2872,13.0,299.86076,5662.0831,0.0,-0.014359912224013782,-0.014359732892506916,0.0,0.0,0.0,-0.42560000926095054,-0.6575798604980795,-0.6379520104259614,-0.004356859818163586,0.005955870408923644,-0.0975303133949925
2873,13.0,299.92452000000003,5714.4292,0.0,-0.014364926712752135,-0.014364735102694093,0.0,0.0,0.0,-0.4356920917144616,-0.6620590946851455,-0.6392926011032674,-0.006354441049709504,-0.0003255156328158917,-0.10349586794174691
2874,13.0,300.13264,5774.8337,0.0,-0.014369908211433025,-0.014369737312881159,0.0,0.0,0.0,-0.43388756421386865,-0.6647617772068793,-0.6567559260467634,-0.008324288004818261,0.002161631387661408,-0.1017929086311779
2875,13.0,300.16253,5776.22,0.0,-0.014374922700171489,-0.014374739523068336,0.0,0.0,0.0,-0.4385917297906336,-0.6641297421920024,-0.6531051656714614,0.006671305330256573,0.004574403804033506,-0.10633844990478791
2876,13.0,300.16737,5713.8033,0.0,-0.01437993718890973,-0.014379741733255291,0.0,0.0,0.0,-0.43508889379743054,-0.6571606789317093,-0.6446039466699565,0.007839659398589143,0.00953501680028289,-0.1057662270433139
2877,13.0,300.16965,5629.3537,0.0,-0.014384918687590731,-0.014384743943442468,0.0,0.0,0.0,-0.4281520620228186,-0.6510846436470514,-0.6319462643007404,0.005214704203951235,-0.003700231399509406,-0.1115571742798359
2878,13.0,300.27807,5653.468000000001,0.0,-0.014389933176329195,-0.014389746153629424,0.0,0.0,0.0,-0.43358017453103154,-0.6545308389596645,-0.6304021116783444,0.003572422767670676,-0.007239094107967962,-0.1144259386254609
2879,13.0,300.04251,5699.3893,0.0,-0.014394914675010084,-0.014394715454538964,0.0,0.0,0.0,-0.43115471723665755,-0.6614890705763884,-0.6398282557686323,0.0034971149804883766,-0.0017666407621288681,-0.11465958396601987
2880,13.0,300.10412,5674.1258,0.0,-0.014399929163748326,-0.014399717664726142,0.0,0.0,0.0,-0.42012522645313155,-0.6668383420943204,-0.6378289815988194,0.003047420501931987,0.0005967906705536534,-0.1170152891235099
2881,13.0,299.78131,5662.2311,0.0,-0.014404910662429438,-0.014404719874913319,0.0,0.0,0.0,-0.4179822430216356,-0.6651408847317943,-0.6380537407360014,-0.004477716743716236,-0.0030488583038238873,-0.11151774871844489
2882,13.0,300.02235,5739.3291,0.0,-0.01440992515116779,-0.014409722085100274,0.0,0.0,0.0,-0.42962038300773064,-0.6670226826850134,-0.6479696696596274,-0.006334253966642193,-0.003915821332561476,-0.1033203426269239
2883,13.0,300.11225,5766.0847,0.0,-0.01441490664984868,-0.014414724295287229,0.0,0.0,0.0,-0.4347878673252216,-0.6720105684222794,-0.6459473237850374,0.0009227810718364009,0.0017282968452196183,-0.1031675850418479
2884,13.0,300.12427,5733.3096,0.0,-0.014419921138587144,-0.014419726505474295,0.0,0.0,0.0,-0.43392661487272255,-0.6638770274845613,-0.6449793153020025,-0.0003032349014644547,0.007052694897046794,-0.1076459984963329
2885,13.0,299.9681,5706.7748,0.0,-0.014424935627325497,-0.014424728715661472,0.0,0.0,0.0,-0.43202763219780765,-0.6620304298398164,-0.6406589992606204,0.0051164238078517145,-0.001060757546838619,-0.10941892272630689
2886,13.0,300.10322,5654.1438,0.0,-0.014429917126006386,-0.014429730925848538,0.0,0.0,0.0,-0.42249105397912057,-0.6589909024548384,-0.6372365849278544,-0.0026064187973085075,-0.0034850253869202264,-0.11417153179035289
2887,13.0,299.96648999999996,5672.9631,0.0,-0.01443493161474485,-0.014434733136035605,0.0,0.0,0.0,-0.4273720215658346,-0.6583154902031804,-0.6387516268748774,0.005767326654165824,0.006638994203117713,-0.11270318040793788
2888,13.0,299.96337,5762.4633,0.0,-0.01443991311342574,-0.014439735346222782,0.0,0.0,0.0,-0.4373857291241106,-0.6645139058349163,-0.6497453296648713,0.0015870742006070283,0.003227002464855347,-0.11255477979829188
2889,13.0,299.92215,5755.0421,0.0,-0.014444927602163982,-0.014444737556409737,0.0,0.0,0.0,-0.44347806760287756,-0.6635877851110153,-0.6423232422848684,-0.0035960663508041164,-0.000988529553600271,-0.1056022933096349
2890,13.0,300.01288999999997,5695.762,0.0,-0.014449909100844871,-0.014449739766596914,0.0,0.0,0.0,-0.43394111448165357,-0.6587668525927264,-0.6386614678809794,-0.002851124674634097,-0.006622193908509655,-0.10901370374631489
2891,13.0,299.97974,5744.5366,0.0,-0.014454923589583446,-0.014454741976784091,0.0,0.0,0.0,-0.43157548960568465,-0.6690811306606664,-0.6455390650547453,0.0005574466251331984,0.0013026051469571186,-0.1051337563308939
2892,13.0,299.995,5806.4656,0.0,-0.014459938078321688,-0.014459744186971046,0.0,0.0,0.0,-0.43621610413617756,-0.6724546252786043,-0.6563498052741824,0.002178428642519168,0.0011698838733335487,-0.10728554490575891
2893,13.0,300.07007000000004,5778.9138,0.0,-0.014464919577002577,-0.014464713487880587,0.0,0.0,0.0,-0.43179983331032556,-0.6686179335099524,-0.6562277289021343,-0.0025962818380080676,-0.004598094503296596,-0.10422023030573589
2894,13.0,300.20333,5711.6712,0.0,-0.014469934065741152,-0.014469715698067764,0.0,0.0,0.0,-0.4300607820311946,-0.6640314771973044,-0.6421131550091344,0.004196815951618486,-0.0023390036547666876,-0.1081656944726229
2895,13.0,300.07012000000003,5662.7029,0.0,-0.014474915564422042,-0.01447471790825472,0.0,0.0,0.0,-0.4233321934171346,-0.6583547536445554,-0.6396333267143944,0.0002099248517429698,0.006833642181777973,-0.1086462587300509
2896,13.0,300.14431,5671.4949,0.0,-0.014479930053160506,-0.014479720118441897,0.0,0.0,0.0,-0.42258093939549163,-0.6652436789544394,-0.6361682140224144,0.006510143950176184,0.004813766610931775,-0.1157492837860649
2897,13.0,300.33199,5736.1213,0.0,-0.014484911551841395,-0.014484722328628852,0.0,0.0,0.0,-0.43028670640599154,-0.6644433734954555,-0.6489075744821914,-0.006700859302548324,0.0015552126525375386,-0.11886785481134388
2898,13.0,300.13317,5754.9657,0.0,-0.014489926040579637,-0.014489724538815918,0.0,0.0,0.0,-0.43203419805845555,-0.6672216647396513,-0.6501099983758614,0.004072723617171526,-0.002042553729284358,-0.1190509693694159
2899,13.0,300.08591,5700.1599,0.0,-0.014494907539260637,-0.014494726749003095,0.0,0.0,0.0,-0.4272042476142766,-0.6632555809332294,-0.6422464581922903,0.0037412173660544058,0.004230577444950486,-0.1172423078084149
2900,13.0,299.99174,5698.0544,0.0,-0.014499922027999101,-0.01449972895919005,0.0,0.0,0.0,-0.4291069995795636,-0.6590642414970763,-0.6438950262374914,0.0010758322765263791,-5.348070512588465e-05,-0.11292573065990189
2901,13.0,299.93157,5808.6952,0.0,-0.014504936516737343,-0.014504731169377227,0.0,0.0,0.0,-0.44231775438336357,-0.6698341477374834,-0.6535463955600074,-0.0044728067363816555,-0.0029840412015519372,-0.1026363684119209
2902,13.0,299.99829,5855.1837,0.0,-0.014509918015418233,-0.014509733379564183,0.0,0.0,0.0,-0.4476622332283226,-0.6736763211891763,-0.6584910661805083,-0.005147313041125245,-0.005521672172096615,-0.10119087493851181
2903,13.0,299.97279,5776.544,0.0,-0.014514932504156808,-0.01451473558975136,0.0,0.0,0.0,-0.43253443963282556,-0.6706262965331624,-0.6527644197953324,0.0004989058270281715,0.0058798600341220045,-0.1037084680777289
2904,13.0,299.90009,5761.8618,0.0,-0.014519914002837697,-0.014519737799938537,0.0,0.0,0.0,-0.43032255519452955,-0.6718104312625274,-0.6493291169212944,-0.0018755479226271682,-0.0013752075563724189,-0.10783368281235589
2905,13.0,300.08456,5785.8473,0.0,-0.014524928491575939,-0.014524740010125492,0.0,0.0,0.0,-0.43521119308450057,-0.6669416632070173,-0.6566002503013995,-0.0044334963815270256,-6.869417104383683e-05,-0.10496486780422591
2906,13.0,300.13142,5776.3993,0.0,-0.014529909990256829,-0.01452974222031267,0.0,0.0,0.0,-0.4402738262816435,-0.6659637451380044,-0.6496435689573283,0.0016204600821269582,-0.0024172703348910077,-0.11243773927924089
2907,13.0,300.22285,5769.6275,0.0,-0.014534924478995292,-0.014534744430499624,0.0,0.0,0.0,-0.4374918670720856,-0.6681487379186464,-0.6481820772780904,0.0026578190497063173,0.01033263208025139,-0.1148515847274689
2908,13.0,299.99532,5725.8486,0.0,-0.014539905977676293,-0.014539713731409165,0.0,0.0,0.0,-0.4336275743707096,-0.6626282777963193,-0.6442591376609264,0.007386931249233353,0.005385717921378975,-0.11224002378722789
2909,13.0,299.91762,5709.2378,0.0,-0.014544920466414535,-0.014544715941596342,0.0,0.0,0.0,-0.4262118096713306,-0.6672587496933113,-0.6419951721674904,-0.0014436638477035284,0.00027031147742266577,-0.11522243426406889
2910,13.0,300.00843,5796.2394,0.0,-0.014549934955152999,-0.014549718151783297,0.0,0.0,0.0,-0.43416165849841964,-0.6715668358059863,-0.6561835613302754,-0.0014545751327303888,-0.0018480265300360183,-0.11142980874226589
2911,13.0,299.82826,5807.326,0.0,-0.014554916453833888,-0.014554720361970475,0.0,0.0,0.0,-0.4407872502398146,-0.6715232863166883,-0.6529715483807744,0.00036428973518759766,-0.0014747020287417588,-0.1090144130213849
2912,13.0,299.85468,5758.5978,0.0,-0.014559930942572463,-0.014559722572157652,0.0,0.0,0.0,-0.4298232964727566,-0.6727919159718924,-0.6478547164357824,0.004245877622785496,-0.007253352360725143,-0.1080641262825989
2913,13.0,299.97992,5736.9606,0.0,-0.014564912441253353,-0.014564724782344718,0.0,0.0,0.0,-0.4327237248840066,-0.6669466078675054,-0.6442224478748054,-0.002203657151459028,-0.0047105338536434956,-0.1048029403057449
2914,13.0,300.03046,5781.8715,0.0,-0.014569926929991595,-0.014569726992531673,0.0,0.0,0.0,-0.4365403948306826,-0.6733557389900374,-0.6476484389804243,2.116537502560988e-05,-0.0025377050391269876,-0.11035372700356491
2915,13.0,300.13685,5791.9324,0.0,-0.014574908428672484,-0.014574729202718628,0.0,0.0,0.0,-0.43646949772118554,-0.6743898215120934,-0.6497435058146913,0.0018148090506827084,0.008806025301887031,-0.1115699007010919
2916,13.0,300.2179,5707.5145,0.0,-0.014579922917411059,-0.014579731412905805,0.0,0.0,0.0,-0.4261907948642566,-0.6640942987035043,-0.6446568079276733,0.0018659079625007783,0.003157202907866667,-0.12063997857373888
2917,13.0,299.98286,5704.6814,0.0,-0.014584937406149301,-0.014584733623092982,0.0,0.0,0.0,-0.43045372041997465,-0.6658775276869954,-0.6377494414659693,-0.0022046628021832777,0.002047140307187018,-0.11275526146307789
2918,13.0,300.07451000000003,5779.9668,0.0,-0.01458991890483019,-0.014589735833279938,0.0,0.0,0.0,-0.4415532673154146,-0.6651264661828713,-0.6502858377982154,-0.0030723202112143974,-0.0032931025444039165,-0.11531961508115988
2919,13.0,300.02357,5812.6257,0.0,-0.014594933393568654,-0.014594738043467115,0.0,0.0,0.0,-0.44731281393133754,-0.6689206825073313,-0.6506595852301014,0.0016594571400506688,0.006181620403378434,-0.11048283533130689
2920,13.0,300.10122,5825.6267,0.0,-0.014599914892249544,-0.01459974025365407,0.0,0.0,0.0,-0.44062377246868056,-0.6754795517296414,-0.6547417267029774,-0.0028033396985930876,-0.0036531438435122264,-0.10719658154697889
2921,13.0,300.0975,5817.7614,0.0,-0.014604929380987897,-0.014604742463841247,0.0,0.0,0.0,-0.4389018755137426,-0.6700061570744593,-0.6595461635096384,-0.0010121136488203402,-0.001967427719169998,-0.1037462927039619
2922,13.0,300.12732,5798.8985,0.0,-0.014609910879668786,-0.014609711764750788,0.0,0.0,0.0,-0.4375643245867366,-0.6756157933380873,-0.6495402174471284,-0.000974319470752845,-0.002915749968662117,-0.10607192459848391
2923,13.0,300.23257,5837.8467,0.0,-0.01461492536840725,-0.014614713974937743,0.0,0.0,0.0,-0.4397925426166446,-0.6762110777718373,-0.6585560155119183,0.0014311886111473186,0.0026585978337331775,-0.1068632627940829
2924,13.0,300.21594,5806.0743,0.0,-0.01461990686708814,-0.01461971618512492,0.0,0.0,0.0,-0.44449278691552263,-0.6700792022741684,-0.6503296304675374,0.002223147726407598,0.0005325827950368295,-0.10504443833457891
2925,13.0,299.82945,5758.8276,0.0,-0.014624921355826714,-0.014624718395312097,0.0,0.0,0.0,-0.43221703903900055,-0.6740818238791964,-0.6442409194241284,-0.0036578423855509364,-0.001019224729214649,-0.11500831425293688
2926,13.0,299.85348999999997,5772.6492,0.0,-0.014629935844564956,-0.014629720605499164,0.0,0.0,0.0,-0.4320610694511076,-0.6752727473842314,-0.6474073867816343,0.001882730041985988,-0.0013049831436168086,-0.1147450212144519
2927,13.0,299.97409,5787.8474,0.0,-0.014634917343245846,-0.01463472281568634,0.0,0.0,0.0,-0.4284087486706516,-0.6758797956516424,-0.6550725528606274,0.0014100042873315887,0.004334711488202716,-0.11914080412328187
2928,13.0,300.04465,5792.3817,0.0,-0.01463993183198431,-0.014639725025873296,0.0,0.0,0.0,-0.4299126955290795,-0.6764339117338294,-0.6543927937660403,0.005100128922393535,0.0008164141090737993,-0.11389814678087189
2929,13.0,300.04876,5783.6031,0.0,-0.014644913330665199,-0.014644727236060251,0.0,0.0,0.0,-0.42865839323028965,-0.6709549847331013,-0.6584575579997013,0.0008288050837516932,-0.004347045781670016,-0.1114405897233299
2930,13.0,299.99532,5826.7344,0.0,-0.014649927819403552,-0.014649729446247428,0.0,0.0,0.0,-0.4407658503977026,-0.6785336192535543,-0.6518822943907734,0.006016468439104204,-0.001051318716857079,-0.11061987740733188
2931,13.0,300.06502,5838.3002,0.0,-0.014654909318084441,-0.014654731656434383,0.0,0.0,0.0,-0.4423085844699586,-0.6758532788965254,-0.6565356252100214,0.0044766584039867855,0.0023598301999721073,-0.11035304812599789
2932,13.0,300.25401,5823.281,0.0,-0.014659923806822905,-0.01465973386662156,0.0,0.0,0.0,-0.43842637750681457,-0.6775366419501604,-0.6541689870839524,0.0013061696594839087,-0.0004329032120067206,-0.10862843566079189
2933,13.0,300.31517,5824.3924,0.0,-0.014664905305503795,-0.014664736076808627,0.0,0.0,0.0,-0.4380213206468386,-0.6760499203434324,-0.6563985932664974,-0.006300610618271854,-0.001953883301108268,-0.1102630512521159
2934,13.0,300.31498,5851.51,0.0,-0.014669919794242148,-0.014669738286995693,0.0,0.0,0.0,-0.4409027303537115,-0.6768121275986564,-0.6609980901079324,-0.0014764944681686586,0.0016496043974032785,-0.1089589477109109
2935,13.0,300.24188,5817.5678,0.0,-0.014674934282980612,-0.01467474049718287,0.0,0.0,0.0,-0.43791354123370163,-0.6770085258655394,-0.6534732895652924,-0.004751900396926056,0.007569913679492312,-0.1152253828218599
2936,13.0,300.2622,5779.9577,0.0,-0.014679915781661501,-0.0146797097980923,0.0,0.0,0.0,-0.4387017282214896,-0.6703704610154134,-0.6478906158868254,-0.0034730122937346266,-0.0014183148633267787,-0.10796018708734088
2937,13.0,300.13947,5813.8288,0.0,-0.014684930270399854,-0.014684712008279366,0.0,0.0,0.0,-0.4405844279672976,-0.6745527926581774,-0.6521215531368864,-0.0018367840135514683,-0.005281328741751566,-0.11388279604185689
2938,13.0,299.85905,5854.6824,0.0,-0.014689911769080966,-0.014689714218466543,0.0,0.0,0.0,-0.44540091231764756,-0.6796775380864504,-0.6545988179088733,0.002151099767447018,-0.0012800413844552489,-0.10929329997890891
2939,13.0,299.89486,5856.8879,0.0,-0.014694926257819207,-0.01469471642865361,0.0,0.0,0.0,-0.4422672843958826,-0.6800948958026404,-0.6579855050431134,0.004478684802861776,-0.0014245960006966786,-0.11501219500081988
2940,13.0,300.03227000000004,5837.2433,0.0,-0.014699907756500097,-0.014699718638840786,0.0,0.0,0.0,-0.4379311008579346,-0.6759609772496544,-0.6604841392597093,0.0022756623512653878,-6.844241588424053e-05,-0.1022928867605219
2941,13.0,299.8516,5825.031999999999,0.0,-0.01470492224523856,-0.014704720849027741,0.0,0.0,0.0,-0.4384281000319846,-0.6791892629957614,-0.6530469139232123,-0.0022239129328831177,-0.0036641488541733365,-0.1133149504208149
2942,13.0,299.99557999999996,5851.9535,0.0,-0.014709936733977136,-0.014709723059214919,0.0,0.0,0.0,-0.4455421391165856,-0.6785714540122884,-0.6547341475922295,-0.0004217424242752366,-0.0004429009203459175,-0.1034870121358729
2943,13.0,299.89761,5850.1399,0.0,-0.014714918232657803,-0.014714725269402096,0.0,0.0,0.0,-0.4405976306161006,-0.6832547365044924,-0.6544440844861024,0.0005578699002299724,0.0012734040896751988,-0.11820165300309489
2944,13.0,299.87775,5781.9267,0.0,-0.014719932721396267,-0.014719727479589051,0.0,0.0,0.0,-0.4312589908044486,-0.6730865184384673,-0.6532158328473834,-0.000928868627774696,0.0014681451860196486,-0.1087617185789459
2945,13.0,299.76482999999996,5755.095,0.0,-0.014724914220077157,-0.014724729689776006,0.0,0.0,0.0,-0.42688957266322064,-0.6753482041191784,-0.6471673782304473,-0.0025583293396124474,-0.0002112218422684728,-0.11893484077545488
2946,13.0,299.85765,5842.0105,0.0,-0.01472992870881551,-0.014729731899963072,0.0,0.0,0.0,-0.4382142434658786,-0.6844058494130983,-0.6532052443838383,-0.0015917551120939986,0.006218053735899124,-0.11668676304358688
2947,13.0,299.92303,5861.0745,0.0,-0.014734910207496399,-0.01473473411015025,0.0,0.0,0.0,-0.44138666873397253,-0.6828414621862053,-0.6573921761820564,0.005240114388634026,0.005373900892087725,-0.11758881907761287
2948,13.0,300.14614,5822.0086,0.0,-0.014739924696234863,-0.014739736320337316,0.0,0.0,0.0,-0.44193012542510757,-0.6790321484352554,-0.6487829548523923,-0.005527945811415775,0.003281393426248317,-0.11421046085919488
2949,13.0,300.05936,5825.4986,0.0,-0.014744906194915752,-0.014744738530524382,0.0,0.0,0.0,-0.4433209733073736,-0.6734426454511143,-0.6540425030739694,-0.0026946425848405177,-0.0006608097066493402,-0.10883192667837491
2950,13.0,300.14665,5877.1377,0.0,-0.014749920683654105,-0.014749740740711559,0.0,0.0,0.0,-0.44750129871493965,-0.6791178592612144,-0.6598839608279764,-0.004395526455229686,0.002325999299008258,-0.10680606482593791
2951,13.0,299.92712,5885.9296,0.0,-0.01475493517239257,-0.014754710041620989,0.0,0.0,0.0,-0.4417282454751836,-0.6852549935269023,-0.6621923776032994,0.003160196757937137,0.0016727718543147285,-0.10776586598316289
2952,13.0,299.8944,5858.6142,0.0,-0.014759916671073459,-0.014759712251808055,0.0,0.0,0.0,-0.4416029773653206,-0.6732302580976534,-0.6660392018729513,0.0002648657850252177,-0.002150637522751398,-0.1053258786823549
2953,13.0,299.91281000000004,5850.7399,0.0,-0.014764931159811812,-0.014764714461995232,0.0,0.0,0.0,-0.4406114614799656,-0.6827973452768513,-0.6550700197353774,0.003738450281356316,-0.00869228696491193,-0.1080233530985749
2954,13.0,299.70357,5828.891,0.0,-0.014769912658492812,-0.014769716672182187,0.0,0.0,0.0,-0.44374056017378355,-0.6752171098212404,-0.6528796567292054,0.0020816999376227882,-0.0008276790893130662,-0.11018948929485589
2955,13.0,299.7867,5858.0071,0.0,-0.014774927147231387,-0.014774718882369364,0.0,0.0,0.0,-0.4419266094472606,-0.6797997360485103,-0.6589615485994413,0.003357965850880427,0.001104776373582939,-0.11810580967613588
2956,13.0,299.97249,5855.0424,0.0,-0.014779908645912054,-0.014779721092556541,0.0,0.0,0.0,-0.44510923814386155,-0.6809726946292723,-0.6537047564181363,8.381781335367411e-05,0.002778363083628088,-0.11698127431765289
2957,13.0,299.87752,5814.1665,0.0,-0.014784923134650518,-0.014784723302743497,0.0,0.0,0.0,-0.4333147739323386,-0.6731935683115323,-0.6608530838861213,-0.004975108754830006,-0.0022190597688791476,-0.11580177014124488
2958,13.0,300.00154,5817.9978,0.0,-0.014789904633331408,-0.014789725512930674,0.0,0.0,0.0,-0.4377686971319066,-0.6779473527456943,-0.6528100160498324,0.001105351696989719,0.005304216744285435,-0.11369931671374889
2959,13.0,300.22621000000004,5860.6424,0.0,-0.01479491912206976,-0.014794727723117629,0.0,0.0,0.0,-0.43688437297463056,-0.6850366786603563,-0.6595678875917823,-0.0014377983455246485,0.0018795385068210084,-0.1149033719400799
2960,13.0,299.98687,5876.4635,0.0,-0.014799933610808225,-0.014799729933304695,0.0,0.0,0.0,-0.44123299922380654,-0.6836212189331614,-0.6614439404169344,0.0021934150167982076,-0.0032704811279713566,-0.10858106621861689
2961,13.0,299.98002,5888.4668,0.0,-0.014804915109489114,-0.014804732143491872,0.0,0.0,0.0,-0.4388844577445236,-0.6857221930155113,-0.6653402315564684,-9.40023305608077e-05,-0.004425581581020896,-0.11197307291588189
2962,13.0,299.84527,5881.8728,0.0,-0.014809929598227467,-0.014809734353678827,0.0,0.0,0.0,-0.4435177464767936,-0.6802556479310053,-0.6641690562958824,0.007118202427936883,0.0021284365037853277,-0.1095377465655339
2963,13.0,299.88074,5865.5673,0.0,-0.014814911096908356,-0.014814736563866004,0.0,0.0,0.0,-0.4363056653125166,-0.6811677047435183,-0.6655126259284824,0.007009693778702914,0.0043969302119182254,-0.11531630175333289
2964,13.0,299.96816,5876.3177,0.0,-0.01481992558564682,-0.01481973877405296,0.0,0.0,0.0,-0.4381085817454506,-0.6880298599857604,-0.6601154074158184,0.00019251832960007984,0.0008042726067030262,-0.1171777739095459
2965,13.0,299.8888,5885.7262,0.0,-0.01482490708432771,-0.0148247080749625,0.0,0.0,0.0,-0.44640594495933655,-0.6795353993624224,-0.6631724538950253,-0.0019382031544857585,-0.00962121864724035,-0.11449794017756688
2966,13.0,300.06932,5894.5543,0.0,-0.014829921573065952,-0.014829710285149678,0.0,0.0,0.0,-0.4463380876001396,-0.6872861850748654,-0.6581730475041224,-0.0037983944612473464,-0.0008294188093372634,-0.11725432495460089
2967,13.0,300.19545,5863.3597,0.0,-0.014834936061804527,-0.014834712495336633,0.0,0.0,0.0,-0.4457029925699606,-0.6783869715665813,-0.6582249664392463,-0.0005819172027332564,0.003601044245895397,-0.11202150627066189
2968,13.0,299.93511,5870.5821,0.0,-0.014839917560485527,-0.01483971470552381,0.0,0.0,0.0,-0.44320534120596156,-0.6807920929314484,-0.6605129256950504,-0.0014632445005859885,-0.00017633837710074284,-0.11123488982052888
2969,13.0,300.14437999999996,5945.9143,0.0,-0.01484493204922388,-0.014844716915710987,0.0,0.0,0.0,-0.4476497601195916,-0.6898187834348133,-0.6699409544305244,-0.002740822370073107,-0.002890814592976187,-0.10659367747247689
2970,13.0,300.08378999999996,5947.045,0.0,-0.01484991354790477,-0.014849719125897942,0.0,0.0,0.0,-0.4524461517204586,-0.6839218603703323,-0.6713851701955573,0.001347793061666819,0.004877428912064756,-0.11267554907771088
2971,13.0,300.03379,5914.4928,0.0,-0.014854928036643233,-0.01485472133608512,0.0,0.0,0.0,-0.44692972433352957,-0.6865031960600904,-0.6644252160536633,0.006135253876152415,0.001122530035210089,-0.11224849455806389
2972,13.0,300.16211,5900.7543,0.0,-0.014859909535324012,-0.014859723546272074,0.0,0.0,0.0,-0.4424859640324646,-0.6878165100447043,-0.6633794912879584,0.0006682227254409484,-0.004986604178539515,-0.11697249957178688
2973,13.0,299.9953,5889.6644,0.0,-0.014864924024062476,-0.014864725756459252,0.0,0.0,0.0,-0.4434032796129965,-0.6833560209844883,-0.6635516019499443,0.0009126659582081171,-0.0097151889813895,-0.1128930837416799
2974,13.0,299.90589,5903.9234,0.0,-0.014869905522743365,-0.014869727966646429,0.0,0.0,0.0,-0.44098565474189555,-0.6906335479727244,-0.6630260696530783,-0.0028145245611469476,0.0007520787058993893,-0.1164038534831659
2975,13.0,300.1408,5861.6548,0.0,-0.014874920011481718,-0.014874730176833495,0.0,0.0,0.0,-0.4357602429161876,-0.6781097970017264,-0.6679266436292274,0.0021818837240351577,0.005663055315525045,-0.11418578821925991
2976,13.0,299.85265,5775.7837,0.0,-0.014879934500220182,-0.01487973238702045,0.0,0.0,0.0,-0.4261078806085736,-0.6776507744414243,-0.6519353886960133,-0.003187449537926777,-0.0013059009455573887,-0.11792784242857188
2977,13.0,299.90936,5801.3659,0.0,-0.014884915998901072,-0.014884734597207405,0.0,0.0,0.0,-0.43091417166291757,-0.6789226768944514,-0.6536335249361064,-0.000971556469452658,-0.004980374919574735,-0.11740773101974088
2978,13.0,299.99708,5942.9792,0.0,-0.014889930487639313,-0.014889736807394582,0.0,0.0,0.0,-0.4534011298072076,-0.6888846580351223,-0.6642314826345433,-0.0026881835207530572,-0.0018498086343118982,-0.11532587696677789
2979,13.0,299.92766,5978.8088,0.0,-0.014894911986320203,-0.014894706108304123,0.0,0.0,0.0,-0.4617263168688396,-0.6905826422877003,-0.6650996353202233,0.004353936388975066,0.004250844270800665,-0.1134604734001769
2980,13.0,300.05973,5936.7566,0.0,-0.014899926475058778,-0.0148997083184913,0.0,0.0,0.0,-0.4491803453231486,-0.6881229472724474,-0.6673224729921003,0.0005403131840247595,0.0006955309403435593,-0.1109018750426629
2981,13.0,299.91987,5916.5608,0.0,-0.014904907973739667,-0.014904710528678256,0.0,0.0,0.0,-0.4419698650940296,-0.6862283823679683,-0.6702884992148244,0.001039917626731879,-0.00018862301118064182,-0.11101554143888089
2982,13.0,299.9707,5958.6425,0.0,-0.014909922462478131,-0.014909712738865433,0.0,0.0,0.0,-0.4488329829238666,-0.6926825220599424,-0.6697630175804634,0.0001027470659853459,0.005138518536882295,-0.11487908433518289
2983,13.0,300.48034,5979.4705,0.0,-0.01491490396115902,-0.014914714949052388,0.0,0.0,0.0,-0.45580881469482754,-0.6852620153500953,-0.6765388945766904,0.0005894211505888385,0.00914332420250084,-0.11444037743938588
2984,13.0,300.19993999999997,5879.1475,0.0,-0.014919918449897485,-0.014919717159239565,0.0,0.0,0.0,-0.4449666333247876,-0.6874337953494334,-0.6547136191452034,0.0003357601587469476,0.001874361305435058,-0.11806257429436888
2985,13.0,300.19147999999996,5818.9702,0.0,-0.014924932938635838,-0.01492471936942652,0.0,0.0,0.0,-0.43747952568586757,-0.6761453381053494,-0.6551967773228874,-0.006076453858274305,-0.0072223028312857936,-0.1081457030481499
2986,13.0,300.10829,5883.7773,0.0,-0.014929914437316727,-0.014929721579613697,0.0,0.0,0.0,-0.43954003055922364,-0.6830300989573224,-0.6659512618967723,0.00041810799749154664,-0.0016109971367930386,-0.1157407420877219
2987,13.0,300.05271,5977.8358,0.0,-0.014934928926055191,-0.014934723789800874,0.0,0.0,0.0,-0.44492241509042363,-0.6969696237630463,-0.6752207777866023,0.0009109052943043532,0.00042592457353298266,-0.10901252837619889
2988,13.0,300.0137,6004.0466,0.0,-0.014939910424735858,-0.01493972599998794,0.0,0.0,0.0,-0.4566747179652855,-0.6897918309821534,-0.6786136862764564,0.0005513313973346725,-0.005935983450535954,-0.11216297624962389
2989,13.0,300.122,5965.9481,0.0,-0.014944924913474433,-0.014944728210175118,0.0,0.0,0.0,-0.44768706798827357,-0.6969567250892733,-0.6688554697308954,-0.004016190847717176,-0.008574540109216221,-0.1139370150547079
2990,13.0,299.79783,5919.0781,0.0,-0.014949906412155323,-0.014949730420362073,0.0,0.0,0.0,-0.45436005956934655,-0.6901904942339984,-0.6547013892164963,0.0008209356869825442,0.0006103746560317885,-0.11868318998061887
2991,13.0,299.94524,5970.7278,0.0,-0.014954920900893565,-0.014954732630549028,0.0,0.0,0.0,-0.45660784345868555,-0.6857246045507494,-0.6726197242498984,0.005258439523317575,0.0042657133107181265,-0.1136785856167029
2992,13.0,300.01047,5958.1742,0.0,-0.01495993538963214,-0.014959734840736205,0.0,0.0,0.0,-0.4459957509213536,-0.6941805008752813,-0.6709599192610883,0.0003722442854951506,-0.002919321472614597,-0.11460917477354489
2993,13.0,299.96148,5853.0413,0.0,-0.014964916888313029,-0.014964704141645746,0.0,0.0,0.0,-0.42594253845725555,-0.6830528565545684,-0.6701830300119154,0.00015850704985342784,-0.004434875921538175,-0.11585269609127088
2994,13.0,299.82583999999997,5833.7901,0.0,-0.014969931377051271,-0.014969706351832923,0.0,0.0,0.0,-0.4278651703895046,-0.6847371517982953,-0.6607241883409004,0.0001022584970521279,0.0024670969085585077,-0.11826526484437289
2995,13.0,300.14508,5922.5264,0.0,-0.014974912875732382,-0.014974708562019878,0.0,0.0,0.0,-0.4396901942240436,-0.6932737332282903,-0.6673362329284583,0.0005488383562586286,0.006109578726568474,-0.12289300096609489
2996,13.0,300.22512,6001.1602,0.0,-0.014979927364470624,-0.014979710772206833,0.0,0.0,0.0,-0.46545879586470656,-0.6902134747462664,-0.6685305812188314,-0.003498133398163887,-0.002028877690034638,-0.11386767835036489
2997,13.0,300.18992000000003,5990.3182,0.0,-0.014984908863151736,-0.01498471298239401,0.0,0.0,0.0,-0.4510104776537686,-0.6988268605338414,-0.6710698264994354,-0.005862103231419545,-0.0033545213071654763,-0.11718826104808089
2998,13.0,300.12331,5936.7975,0.0,-0.014989923351890089,-0.014989715192581077,0.0,0.0,0.0,-0.4463828124595536,-0.6872636301276394,-0.6709917555792304,0.0024175058142142476,0.0004098844495474456,-0.10936583855356789
2999,13.0,299.99745,5990.3271,0.0,-0.014994904850570978,-0.014994717402768143,0.0,0.0,0.0,-0.44830056052632056,-0.6940207113345114,-0.6785886083364813,0.004297557329560886,0.0011424384744998988,-0.1096717387587579
3000,13.0,300.11349,6040.5095,0.0,-0.014999919339309442,-0.01499971961295532,0.0,0.0,0.0,-0.4596937574332416,-0.6956262466479654,-0.6808440523965763,0.0038519805980858864,-0.005924027200680964,-0.1092210856442819
3001,13.0,300.00319,6007.1882,0.0,-0.015004933828047795,-0.015004721823142386,0.0,0.0,0.0,-0.45507572824747755,-0.6909021707067353,-0.6800573143564314,-0.006684654393699024,-0.002262910902731918,-0.11295738459302589
3002,13.0,299.84738,5924.6937,0.0,-0.015009915326728684,-0.015009724033329563,0.0,0.0,0.0,-0.45358966525331457,-0.6841628821716192,-0.6632064079058764,0.0019949062512819183,0.0046955948994691354,-0.11434974221794089
3003,13.0,299.80267000000003,5905.5864,0.0,-0.015014929815467148,-0.015014726243516519,0.0,0.0,0.0,-0.4406483032536016,-0.6865324485904774,-0.6679700512635114,0.001107049093557239,0.0078076357305036535,-0.12041378062141488
3004,13.0,299.81246,5936.2289,0.0,-0.015019911314147816,-0.015019728453703696,0.0,0.0,0.0,-0.4421559180773916,-0.6862937775294223,-0.6760156522250503,-0.0029257662498756473,-0.004478970742039995,-0.11324155058357088
3005,13.0,299.97974,5931.4554,0.0,-0.01502492580288628,-0.015024730663890873,0.0,0.0,0.0,-0.44170992591337555,-0.6920340825259463,-0.6692703348518394,-0.0014762510854946388,-0.006288111671663305,-0.11834790552252888
3006,13.0,300.1739,5960.1077,0.0,-0.01502990730156728,-0.015029732874077828,0.0,0.0,0.0,-0.4419501269820816,-0.6958401741415784,-0.6739336056545684,-0.003216419574185897,-0.0007896637288812423,-0.11191714151036189
3007,13.0,300.10819,5956.8077,0.0,-0.015034921790305522,-0.015034735084264783,0.0,0.0,0.0,-0.45054387598271856,-0.6945429607010534,-0.6656339626279574,0.0015318471052315386,0.004852032507583325,-0.12065141816736788
3008,13.0,300.28597,6010.7882,0.0,-0.015039903288986634,-0.015039704385174546,0.0,0.0,0.0,-0.4629190946215576,-0.6965786206819574,-0.6676317979826283,-0.0026442080611130173,-0.0005897599307597735,-0.10886115894375989
3009,13.0,300.27181,6024.7429,0.0,-0.015044917777724875,-0.015044706595361501,0.0,0.0,0.0,-0.4548869800188496,-0.6966913143580794,-0.6797930992603554,-0.003461090697033057,0.003965036409793627,-0.12066728566393388
3010,13.0,300.02887000000004,5992.4652,0.0,-0.015049932266463228,-0.015049708805548456,0.0,0.0,0.0,-0.4479853080227076,-0.6972005637258383,-0.6763739273279094,-0.0008716250431101942,0.006084888152106704,-0.1090437668767819
3011,13.0,300.13014,5965.0815,0.0,-0.01505491376514434,-0.015054711015735633,0.0,0.0,0.0,-0.44171903503177457,-0.6967732457611654,-0.6747435471220034,0.004591087777530086,0.001862873278451278,-0.1229945691561189
3012,13.0,300.13215,5945.6735,0.0,-0.015059928253882582,-0.0150597132259227,0.0,0.0,0.0,-0.4460823128773966,-0.6903129759060863,-0.6709409816167193,0.0033883222159263667,-0.006673452711193504,-0.11236393414195689
3013,13.0,299.99908999999997,5923.4633,0.0,-0.015064909752563693,-0.015064715436109877,0.0,0.0,0.0,-0.44298052127377363,-0.6934678111524443,-0.6641366120276804,0.0033197366338824966,-0.0006293333962678703,-0.1265651915810119
3014,13.0,300.05497,5962.8684,0.0,-0.015069924241302046,-0.015069717646296832,0.0,0.0,0.0,-0.45478147028593663,-0.6918812945433673,-0.6659003562117484,0.005419422166080324,0.005462626542394265,-0.11043637781422189
3015,13.0,300.01173,5979.3304,0.0,-0.015074905739982936,-0.015074719856484009,0.0,0.0,0.0,-0.44280222978617756,-0.6987718005234074,-0.6759930972778244,0.0011242672525065389,0.0051973738782158645,-0.12326688012049389
3016,13.0,299.89927,5983.8168,0.0,-0.0150799202287214,-0.015079722066670964,0.0,0.0,0.0,-0.4511375898788136,-0.6924169796062354,-0.6753763116769523,-0.0020469102994143183,-0.0024187521118372475,-0.1050911998266939
3017,13.0,299.83847000000003,6024.0605,0.0,-0.015084934717459642,-0.015084724276858141,0.0,0.0,0.0,-0.4510230115575056,-0.7007952508406063,-0.6793457189437023,-0.0007375187173949303,-2.8169350831348474e-05,-0.11383030968667689
3018,13.0,299.83237,6064.7988,0.0,-0.015089916216140531,-0.015089726487045318,0.0,0.0,0.0,-0.46332292544891257,-0.6999823810803824,-0.6802421007771684,-0.0007452231874453023,0.004356166552445166,-0.1071030180327449
3019,13.0,299.75816000000003,6043.7769,0.0,-0.015094930704879106,-0.015094728697232274,0.0,0.0,0.0,-0.46144995290406454,-0.6996442189920083,-0.6760630723297304,-0.000883836236822845,0.0022045822488003276,-0.1155057896545339
3020,13.0,299.83203,5965.905,0.0,-0.015099912203559773,-0.01509973090741945,0.0,0.0,0.0,-0.4572632136233655,-0.6886122356132364,-0.6676107021155463,-0.00018238689251268484,-0.00938624554375031,-0.1130638366485319
3021,13.0,300.04377,5929.8539,0.0,-0.015104926692298237,-0.015104733117606406,0.0,0.0,0.0,-0.4404675191707596,-0.6908810343096493,-0.6711789738002074,0.004575637132055226,0.0005212791390412456,-0.12199766278023189
3022,13.0,300.14684,5980.3983,0.0,-0.015109908190979127,-0.015109702418515947,0.0,0.0,0.0,-0.45252191243043555,-0.6909539781843483,-0.6744158519071624,0.0063767315386594045,0.0039336275818688165,-0.11699046449605989
3023,13.0,300.02435,5973.8503,0.0,-0.01511492267971748,-0.015114704628703124,0.0,0.0,0.0,-0.4427641113174156,-0.6997254005900203,-0.6734117919855693,0.0027250114128626875,0.0024840299389296675,-0.12161529258999487
3024,13.0,300.05109,5957.0262,0.0,-0.015119904178398591,-0.015119706838890079,0.0,0.0,0.0,-0.4505795018562345,-0.6940138617638354,-0.6661938441032134,-0.0025340909786703077,-0.007290625981553763,-0.1185420645066909
3025,13.0,300.00792,5958.5255,0.0,-0.015124918667136833,-0.015124709049077256,0.0,0.0,0.0,-0.4434624939488406,-0.6964364515604263,-0.6713440322414974,0.0024078835859646075,-0.003487009735916067,-0.11663418549589788
3026,13.0,300.04926,6004.7881,0.0,-0.015129933155875186,-0.015129711259264322,0.0,0.0,0.0,-0.45907692116986454,-0.6952916208024403,-0.6709371110013373,0.005714062933509105,-0.0005542675022819435,-0.11240819290632488
3027,13.0,299.82178999999996,6071.0569,0.0,-0.015134914654556186,-0.015134713469451277,0.0,0.0,0.0,-0.44925101951762353,-0.7051808303209294,-0.6910178534706524,0.0012476219408806988,0.0001114970885489059,-0.11246425603435789
3028,13.0,299.75034,6051.2872,0.0,-0.015139929143294761,-0.015139715679638455,0.0,0.0,0.0,-0.46065301143541254,-0.7017425788891003,-0.6770446178341014,-0.002372610120833388,-0.0040588084508982065,-0.1104130426644189
3029,13.0,299.73364,5996.8928,0.0,-0.01514491064197565,-0.01514471788982541,0.0,0.0,0.0,-0.44213840911566354,-0.6998190856942663,-0.6809481638443513,-0.001885499659809328,0.0019226782377785685,-0.11714450890876288
3030,13.0,299.96075,5983.5148,0.0,-0.015149925130713893,-0.015149720100012587,0.0,0.0,0.0,-0.4564434436299606,-0.6932906950349643,-0.6691049521705174,0.0027436611928782777,0.007759423061595432,-0.11457594017026489
3031,13.0,300.10143999999997,5993.41,0.0,-0.015154906629394782,-0.015154722310199764,0.0,0.0,0.0,-0.4509321128910346,-0.6982443835813553,-0.6726704779474073,-0.002463682559696538,0.0029092165320173174,-0.1219131273243889
3032,13.0,300.03333,6001.1401,0.0,-0.015159921118133357,-0.01515972452038672,0.0,0.0,0.0,-0.45729107800111557,-0.6954065334962813,-0.6714991203018034,-0.004636101919847636,-0.0017042314460695481,-0.11875817048801889
3033,13.0,299.98335,5990.5988,0.0,-0.015164902616814024,-0.015164726730573896,0.0,0.0,0.0,-0.44255017369130156,-0.6980729416644353,-0.6803693345922254,-0.0002691267043457377,0.0027079646958303076,-0.12404862283764588
3034,13.0,300.06385,6008.1581,0.0,-0.015169917105552488,-0.015169728940760852,0.0,0.0,0.0,-0.4521786334290566,-0.6993079922113253,-0.6748434029193584,0.0027200327071713274,0.007332907287026603,-0.11497973046761589
3035,13.0,300.10752,6073.471,0.0,-0.015174931594290952,-0.015174731150948029,0.0,0.0,0.0,-0.4509318798435116,-0.7049011327633253,-0.6903505168222913,0.0021556037654665277,0.0034157906155372862,-0.11234944466552689
3036,13.0,299.96407,6095.4575,0.0,-0.01517991309297173,-0.01517970045185757,0.0,0.0,0.0,-0.46723320957232756,-0.7052572496434714,-0.6803764273429254,-0.0021755142312565377,-0.00972201048503773,-0.1090572836331159
3037,13.0,299.72657999999996,6068.4715,0.0,-0.015184927581710195,-0.015184702662044525,0.0,0.0,0.0,-0.45904939116464755,-0.7033414976794014,-0.6822729072900934,0.001162555035360249,-0.005345106148095905,-0.10684456832973789
3038,13.0,300.04487,6055.7317,0.0,-0.015189909080391084,-0.015189704872231702,0.0,0.0,0.0,-0.4595824113797526,-0.6977325402933403,-0.6834762735063563,0.0005494479883137945,0.001016677418463249,-0.10955193206693391
3039,13.0,300.35125,6050.9072,0.0,-0.015194923569129437,-0.015194707082418879,0.0,0.0,0.0,-0.4518308454647325,-0.7025987448260973,-0.6848951073563844,-5.3026798465337546e-05,-0.0007914136219364432,-0.11013974884744689
3040,13.0,300.34347,6037.4408,0.0,-0.015199905067810437,-0.015199709292605945,0.0,0.0,0.0,-0.45305034262258753,-0.7017706357843693,-0.6804102597637643,-0.0042244122233920265,-0.0035809560560378464,-0.11615771476887389
3041,13.0,300.10489,6024.823,0.0,-0.015204919556549013,-0.0152047115027929,0.0,0.0,0.0,-0.44821562990293856,-0.6998676203740564,-0.6833125120251944,-0.0011000095384874889,0.003937554331306356,-0.12132216946856589
3042,13.0,300.18226,6039.8327,0.0,-0.015209934045287254,-0.015209713712980077,0.0,0.0,0.0,-0.4613002148042866,-0.7007554605091794,-0.6739026407315124,0.0016199085700975284,0.00930909972088661,-0.1217260813559289
3043,13.0,299.87875,5995.483,0.0,-0.015214915543968144,-0.015214715923167033,0.0,0.0,0.0,-0.4475401568562745,-0.6974398326044524,-0.6774971251962604,0.0024437914469834375,0.004331136133899856,-0.12355220121615287
3044,13.0,300.00029,6007.8105,0.0,-0.015219930032706608,-0.01521971813335421,0.0,0.0,0.0,-0.44841275770989364,-0.7017116848935513,-0.6760999242358674,0.003137477562869927,-0.0008529121680108773,-0.1191321205699249
3045,13.0,299.94572999999997,6022.1821,0.0,-0.015224911531387608,-0.015224720343541165,0.0,0.0,0.0,-0.44852871405133754,-0.6973323774313473,-0.6847318828977754,0.00042757115560798756,-0.0009828188760366708,-0.12132509776135489
3046,13.0,299.97754,6019.3362,0.0,-0.01522992602012585,-0.015229722553728342,0.0,0.0,0.0,-0.45134067559635654,-0.7000868775631953,-0.6783003386830314,0.006081353125157824,0.007224941233221182,-0.11275499801805189
3047,13.0,300.06389,6014.1305,0.0,-0.01523490751880674,-0.015234724763915297,0.0,0.0,0.0,-0.44955447779007257,-0.7032639739142503,-0.6753270474570904,-0.003441907542164827,0.0023614368093306678,-0.1158807225890369
3048,13.0,300.1466,6070.1095,0.0,-0.015239922007545204,-0.015239726974102474,0.0,0.0,0.0,-0.4655915924228125,-0.6996445837620443,-0.6799255310484253,-0.0014080758697412685,-0.002718592169504157,-0.10487710008056389
3049,13.0,300.10286,6112.6157,0.0,-0.015244903506225982,-0.015244729184289652,0.0,0.0,0.0,-0.4584769453881516,-0.7129246144751814,-0.6866809707901353,-0.00013884546868548088,-0.00023079433848762775,-0.11764737480089188
3050,13.0,299.83527999999995,6108.0492,0.0,-0.015249917994964446,-0.015249731394476718,0.0,0.0,0.0,-0.45806596101509056,-0.7119580245422863,-0.6866704431215963,0.004231564654522915,0.003953588507513806,-0.11751362578769188
3051,13.0,299.83213,6080.0574,0.0,-0.01525493248370291,-0.015254700695386147,0.0,0.0,0.0,-0.45253963417468457,-0.7055804561603692,-0.6900655503641674,-0.00013213440929815088,-0.0023624310103287876,-0.12178534635427787
3052,13.0,299.79384,6059.7916,0.0,-0.015259913982383688,-0.015259702905573325,0.0,0.0,0.0,-0.46072317900483756,-0.7068514061583023,-0.6744507381081053,-0.0013274354486076786,-0.008351710504199653,-0.12415689874333188
3053,13.0,299.97683,6026.9711,0.0,-0.015264928471122152,-0.01526470511576039,0.0,0.0,0.0,-0.45341967228403757,-0.6956898078267383,-0.6829392408208553,0.0016264197152401285,-0.002082495440276298,-0.11670806156068889
3054,13.0,300.10384,6017.231,0.0,-0.015269909969803264,-0.015269707325947568,0.0,0.0,0.0,-0.4608067012105806,-0.7016693715693754,-0.6666119009619723,0.005564134342712306,0.006224847679144634,-0.11939306286817788
3055,13.0,300.07594,6037.1949,0.0,-0.015274924458541506,-0.015274709536134523,0.0,0.0,0.0,-0.4494326142005456,-0.7014931876419873,-0.6842306990008123,-0.0007492857731912485,0.002763533864439557,-0.1097591113148809
3056,13.0,300.06747,6055.31,0.0,-0.015279905957222395,-0.0152797117463217,0.0,0.0,0.0,-0.4577282346242595,-0.7003166016258673,-0.6826182127916723,-0.003599647784607577,-0.002327902891971128,-0.1177218182857389
3057,13.0,300.21802,6110.8734,0.0,-0.015284920445960859,-0.015284713956508655,0.0,0.0,0.0,-0.45165034509191854,-0.7132338685382024,-0.6926687114610793,0.0004611555936175136,0.0014193490877038486,-0.1089063600307209
3058,13.0,300.11167,6130.9907,0.0,-0.015289901944641748,-0.01528971616669561,0.0,0.0,0.0,-0.4621068226788925,-0.7143698434903143,-0.6871914056605113,-0.00036577864541454167,0.003047599644549667,-0.1215607898671159
3059,13.0,299.81797,6102.7848,0.0,-0.015294916433380101,-0.015294718376882788,0.0,0.0,0.0,-0.4570643936887435,-0.7101030067892102,-0.6879267719205863,0.0009366270736578951,-0.006217223377442175,-0.11383618653725688
3060,13.0,299.92786,6073.7255,0.0,-0.015299930922118565,-0.015299720587069854,0.0,0.0,0.0,-0.46122214388408156,-0.7102320644544473,-0.6748066726032333,-0.002302529488266968,-0.007580725767334383,-0.12548000072391188
3061,13.0,299.88012000000003,6039.7875,0.0,-0.015304912420799455,-0.01530472279725692,0.0,0.0,0.0,-0.4482982097860886,-0.7018749701471664,-0.6857714065728684,0.003103256965917617,-0.0029870811545019576,-0.1194828874895429
3062,13.0,300.02515,6005.6513,0.0,-0.015309926909537808,-0.015309725007444097,0.0,0.0,0.0,-0.4490912198443526,-0.7037145257037163,-0.6727622784064674,0.0041417612100850066,0.005101423450721295,-0.12858930051077588
3063,13.0,300.02562,6026.5214,0.0,-0.015314908408218697,-0.015314727217631163,0.0,0.0,0.0,-0.4466422551476586,-0.6983348364177824,-0.6869349115301974,0.003624525607687827,0.00032502786435025264,-0.1150901240660109
3064,13.0,299.95378999999997,6064.7878,0.0,-0.015319922896957161,-0.01531972942781834,0.0,0.0,0.0,-0.46372326056342256,-0.6998968323744393,-0.6799239605107704,0.0012446337650107889,-0.0026713909268457573,-0.1224867484710009
3065,13.0,299.86559,6118.0545,0.0,-0.01532490439563794,-0.01532469872872777,0.0,0.0,0.0,-0.4595349608775696,-0.7136755645217944,-0.6865252747797693,0.002349718267949138,0.002379090564497958,-0.1132543783298369
3066,13.0,299.9676,6124.7967,0.0,-0.015329918884376403,-0.015329700938914836,0.0,0.0,0.0,-0.4713614235272505,-0.7048446643352524,-0.6855791828963973,0.005624511788346094,0.007291860120175563,-0.11526217393299089
3067,13.0,299.94781,6147.3762,0.0,-0.015334933373114867,-0.015334703149102014,0.0,0.0,0.0,-0.4549884164863605,-0.7134384943958973,-0.7002219539340263,-0.002477721747782098,0.0025904777387852477,-0.10695337112547591
3068,13.0,300.01177,6124.1709,0.0,-0.015339914871795757,-0.015339705359288969,0.0,0.0,0.0,-0.4612100051478836,-0.7091900481841084,-0.6911949898531343,-0.005388534554006954,-0.002111739459362458,-0.11540160727925187
3069,13.0,300.1587,6086.6975,0.0,-0.01534492936053411,-0.015344707569476146,0.0,0.0,0.0,-0.44573604478822254,-0.7087172150249433,-0.6957508054827582,-0.002495385838100408,-0.0036441259176222263,-0.1106418345369989
3070,13.0,300.25577999999996,6050.713000000001,0.0,-0.01534991085921511,-0.015349709779663323,0.0,0.0,0.0,-0.4531728952221826,-0.7079330810375554,-0.6781597097016523,-0.0017710697796409784,0.0034377334583778766,-0.12398596345146187
3071,13.0,300.37786,6070.9113,0.0,-0.015354925347953463,-0.015354711989850278,0.0,0.0,0.0,-0.4552859877757286,-0.7025298539517983,-0.6875896028173103,-0.0029233488377870672,-0.005646977468238285,-0.11736887287840589
3072,13.0,300.05875,6089.2233,0.0,-0.015359906846634352,-0.015359714200037233,0.0,0.0,0.0,-0.4650401918508935,-0.7047271779861572,-0.6812044654571464,-0.00012341143037975988,0.0012107489591416188,-0.1211464009737189
3073,13.0,300.00615,6121.6534,0.0,-0.015364921335372816,-0.0153647164102243,0.0,0.0,0.0,-0.4584427988597815,-0.7120172287456293,-0.6903697483091893,-0.006257248884217384,0.007358363979888983,-0.12103966520818489
3074,13.0,300.02207999999996,6123.5763,0.0,-0.015369902834053706,-0.015369718620411477,0.0,0.0,0.0,-0.46094500984923054,-0.7047368747896143,-0.6957323947284413,0.0028445465536598873,0.00970158174182157,-0.1147282721902989
3075,13.0,300.07265,6111.9182,0.0,-0.015374917322792059,-0.015374720830598654,0.0,0.0,0.0,-0.45763972722802454,-0.7090868081314193,-0.6911439727105994,-0.0029552477747852475,-0.000900743439448956,-0.11712410205174889
3076,13.0,299.90711,6150.6615,0.0,-0.015379931811530523,-0.015379723040785609,0.0,0.0,0.0,-0.46677520026212554,-0.7104695094828813,-0.6924028042373364,0.005310027733608935,-0.0033602645100572867,-0.1126463370773279
3077,13.0,299.95287,6133.6268,0.0,-0.015384913310211412,-0.015384725250972786,0.0,0.0,0.0,-0.46395916545170457,-0.7105451283378443,-0.6899650967492533,0.008767481369408041,-0.00949911461346462,-0.12339374916551489
3078,13.0,299.9086,6082.5883,0.0,-0.015389927798949765,-0.015389727461159741,0.0,0.0,0.0,-0.4567216618424186,-0.7120520440190653,-0.6801812449761623,0.005595830224390444,0.0029062918869286773,-0.1161877272368359
3079,13.0,300.05758,6087.5007,0.0,-0.015394909297630655,-0.015394696762069282,0.0,0.0,0.0,-0.44874327989251356,-0.7115469489767163,-0.6901579790382895,0.00028294204521920577,-0.001289104501299709,-0.12328073124936087
3080,13.0,300.11696,6122.0873,0.0,-0.015399923786369119,-0.01539969897225646,0.0,0.0,0.0,-0.46105019534211156,-0.7104646864124053,-0.6894467889256003,-0.0014639116244518284,-0.0009304176642625741,-0.11609369762755589
3081,13.0,300.04917,6123.6456,0.0,-0.015404905285050008,-0.015404701182443414,0.0,0.0,0.0,-0.4537192396761026,-0.7146888551517984,-0.6930272398764633,-0.007810702737231342,0.006549397259050183,-0.12564442081763888
3082,13.0,300.03845,6145.5556,0.0,-0.01540991977378836,-0.015409703392630592,0.0,0.0,0.0,-0.47051084059830456,-0.7074656485014233,-0.6901189486444373,-0.003365288406703107,0.00990949174574069,-0.11373625981239488
3083,13.0,300.15992,6176.4722,0.0,-0.015414901272469361,-0.015414705602817769,0.0,0.0,0.0,-0.46708318776252156,-0.7149494225475144,-0.6954607119791284,-0.004554508233019965,-0.00023356928600649376,-0.1194166209330029
3084,13.0,300.23762999999997,6200.5352,0.0,-0.015419915761207714,-0.015419707813004724,0.0,0.0,0.0,-0.47709152509526753,-0.7115429162413184,-0.6961734219669673,-0.001222180750744849,-0.003209793931781997,-0.1087107217014129
3085,13.0,300.20239,6213.7855,0.0,-0.015424930249946178,-0.015424710023191901,0.0,0.0,0.0,-0.46734154627301955,-0.7181873443020723,-0.7033067330684704,0.006066807312022264,-0.004537814329672405,-0.12040124671767789
3086,13.0,300.14306,6181.5571,0.0,-0.015429911748627068,-0.015429712233378856,0.0,0.0,0.0,-0.4700894298817146,-0.7141827772568523,-0.6947667977806444,0.007620818959216273,0.002840757910210977,-0.11182170348344289
3087,13.0,300.1339,6119.6575,0.0,-0.01543492623736542,-0.015434714443566033,0.0,0.0,0.0,-0.45568795422289954,-0.7110098250987064,-0.6935252928306174,0.004305942379438425,-0.0076641939668470535,-0.12082661924215887
3088,13.0,300.09807,6114.3118,0.0,-0.01543990773604631,-0.0154397166537531,0.0,0.0,0.0,-0.4577252759339676,-0.7158894349302863,-0.6849834121025994,0.0034853571250029664,-0.008295753970077173,-0.1160100335667989
3089,13.0,299.86361,6129.4328,0.0,-0.015444922224784774,-0.015444718863940055,0.0,0.0,0.0,-0.4588942017793316,-0.7172077239728913,-0.6870925935107594,0.001999295549390108,-0.0012912617107626086,-0.1278056832809389
3090,13.0,300.03235,6129.448,0.0,-0.015449903723465663,-0.015449721074127232,0.0,0.0,0.0,-0.4576260078216705,-0.7162879664596183,-0.6892851654021493,-0.002037967556681738,0.0036641069056191967,-0.12382548490062388
3091,13.0,299.98629,6085.5097,0.0,-0.015454918212204016,-0.015454723284314187,0.0,0.0,0.0,-0.44897451369783453,-0.7180246467335153,-0.6828438230589383,-0.004919276647819805,-0.0007293395194077063,-0.12176807044007289
3092,13.0,299.91637000000003,6110.7314,0.0,-0.01545993270094248,-0.015459725494501364,0.0,0.0,0.0,-0.45649813887035856,-0.7124242918408034,-0.6885873197932774,-0.011104662795194889,-0.0005735905261939774,-0.12066724513392989
3093,13.0,299.94192999999996,6183.8523,0.0,-0.01546491419962337,-0.015464694795410905,0.0,0.0,0.0,-0.4615657065954885,-0.7203525685732634,-0.6978183929743134,0.001886937259051208,0.002580497529275278,-0.11911794520102588
3094,13.0,300.05767000000003,6159.6755,0.0,-0.015469928688361612,-0.01546969700559786,0.0,0.0,0.0,-0.4677603326718505,-0.7139192511708443,-0.6907079509275673,-0.000985646603753246,0.006682082967595243,-0.1192412577381959
3095,13.0,300.12161000000003,6129.4757,0.0,-0.015474910187042612,-0.015474699215785037,0.0,0.0,0.0,-0.4571299408377126,-0.7105912008198914,-0.6954864181341653,0.009657019205073591,0.0015131147453327984,-0.1146407881766649
3096,13.0,300.07499,6114.7078,0.0,-0.015479924675781076,-0.015479701425972214,0.0,0.0,0.0,-0.46407288251042755,-0.7072995565450313,-0.6873460580232744,0.0010258936373978191,-0.004874861842936405,-0.1168028612400449
3097,13.0,299.79936000000004,6147.6878,0.0,-0.015484906174461965,-0.01548470363615917,0.0,0.0,0.0,-0.4610624860658246,-0.7138938388583363,-0.6937872585114714,0.006653974801871183,-0.003519114565334567,-0.12031942677210287
3098,13.0,299.79058,6198.7238,0.0,-0.015489920663200207,-0.015489705846346347,0.0,0.0,0.0,-0.4754118097419926,-0.7161297271915014,-0.6927157060007173,0.005685594760024515,-0.0017829462867130982,-0.11970992643944987
3099,13.0,299.8346,6178.8823,0.0,-0.015494902161881319,-0.015494708056533302,0.0,0.0,0.0,-0.4598719881258316,-0.7204537922582532,-0.6979001419923813,-0.0014661429024970386,-0.005011822656303386,-0.12083819055830088
3100,13.0,299.93258,6133.0259,0.0,-0.015499916650619672,-0.015499710266720479,0.0,0.0,0.0,-0.46593645209434753,-0.7123894968323692,-0.6859607830165583,-0.0006575760101476994,-0.0031114287266491066,-0.11332797068459989
3101,13.0,300.19251,6176.3748,0.0,-0.015504931139358136,-0.015504712476907656,0.0,0.0,0.0,-0.4584052579435765,-0.7189211602894943,-0.7001373070206723,-0.0030342793574100572,-0.00041597216760575666,-0.12176415929468687
3102,13.0,300.03573,6195.8063,0.0,-0.015509912638039025,-0.015509714687094722,0.0,0.0,0.0,-0.4744147615110915,-0.7150878629086773,-0.6938677916294193,0.003601251556865856,0.00988771315074131,-0.11189519451319589
3103,13.0,300.04067000000003,6202.0611,0.0,-0.015514927126777267,-0.015514716897281677,0.0,0.0,0.0,-0.46487001649659854,-0.7181255056484693,-0.7022761969217642,-0.0015356006902269884,0.0001870376294116768,-0.1190654081833409
3104,13.0,300.0535,6201.4324,0.0,-0.015519908625458267,-0.015519719107468632,0.0,0.0,0.0,-0.4737828278212246,-0.7133837383604933,-0.6979140336512523,-0.0031433238132969068,0.001714275591660828,-0.11340130972683789
3105,13.0,299.93556,6176.953,0.0,-0.015524923114196731,-0.01552472131765581,0.0,0.0,0.0,-0.46036895690237856,-0.7208974944770433,-0.6963730119716653,-0.0015510688649285785,0.0026673651828734474,-0.12553318622166088
3106,13.0,300.04463,6186.3588,0.0,-0.01552990461287762,-0.015529723527842987,0.0,0.0,0.0,-0.4704594485532326,-0.7162199469804054,-0.6938191961546234,-0.0019760556450965083,0.006938324697309333,-0.12367589878836088
3107,13.0,300.0548,6185.8827,0.0,-0.015534919101615863,-0.015534725738029942,0.0,0.0,0.0,-0.4594864667277836,-0.7164846383040283,-0.7043827742771673,0.0005315105129860035,0.0026028113229774777,-0.1254794333038559
3108,13.0,300.06163,6152.3508,0.0,-0.015539900600296752,-0.015539695038939483,0.0,0.0,0.0,-0.46232930200334954,-0.7188453185195093,-0.6889864187426653,-0.004558078723722346,-0.003686074370437216,-0.12341053871967189
3109,13.0,300.27727999999996,6109.8542,0.0,-0.015544915089035327,-0.01554469724912666,0.0,0.0,0.0,-0.4512651479339026,-0.7133740618220383,-0.6926039039846833,-0.0006940333668282604,-0.001051385490038669,-0.12737673398360488
3110,13.0,300.19115,6142.3006,0.0,-0.015549929577773569,-0.015549699459313615,0.0,0.0,0.0,-0.4603482764678376,-0.7188682078392683,-0.6878895349794114,-0.00012045034881752388,-0.0013330657754383488,-0.12126597461801987
3111,13.0,300.09943,6193.08,0.0,-0.015554911076454458,-0.015554701669500792,0.0,0.0,0.0,-0.46257882497297553,-0.7225384530139933,-0.6974244109379303,0.002807278303056797,0.001195002849937599,-0.12127328015124088
3112,13.0,300.08024,6236.0865,0.0,-0.015559925565193033,-0.015559703879687858,0.0,0.0,0.0,-0.47421621515399653,-0.7196536489192853,-0.7017447168468113,0.00035457615230894166,-0.004535627533306586,-0.11345309693944888
3113,13.0,299.9699,6217.5269,0.0,-0.015564907063873923,-0.015564706089874925,0.0,0.0,0.0,-0.46886690310606055,-0.7197924743154863,-0.7013135383992574,0.003473969916404137,0.001265704199515279,-0.11997989679609389
3114,13.0,299.89799,6228.4703,0.0,-0.015569921552612387,-0.015569708300062102,0.0,0.0,0.0,-0.47372867973588056,-0.7170588775332013,-0.7025118991600263,0.007552121413036353,0.004797730914849176,-0.10820120888862791
3115,13.0,299.97102,6242.4213,0.0,-0.015574903051293276,-0.015574710510249168,0.0,0.0,0.0,-0.47293380529743256,-0.7176221027337873,-0.7069843141739193,-0.0023531808475158677,-0.0016941775732773083,-0.12095805804513088
3116,13.0,299.91348,6252.8497,0.0,-0.015579917540031518,-0.015579712720436345,0.0,0.0,0.0,-0.4744498300970525,-0.7220263158834493,-0.7042340392949883,-0.001038630292479829,-0.004776111400115496,-0.11003862648746689
3117,13.0,300.2629,6218.6979,0.0,-0.015584932028770093,-0.0155847149306233,0.0,0.0,0.0,-0.4712697345257016,-0.7200472155231273,-0.6990119407971073,-0.006962635606958633,-0.0002337548931598118,-0.13235026196695387
3118,13.0,300.18777,6161.2327,0.0,-0.015589913527450983,-0.015589717140810477,0.0,0.0,0.0,-0.46504241086861253,-0.7128733744176243,-0.6949451196657433,0.0028302493920988672,0.005614594299017314,-0.11338570567529789
3119,13.0,300.12374,6147.6804,0.0,-0.015594928016189225,-0.015594719350997432,0.0,0.0,0.0,-0.4567648668266826,-0.7200298990789182,-0.6919465681148094,-0.0026560594395826577,0.004723736502446495,-0.12725120242871588
3120,13.0,299.93072,6222.2615,0.0,-0.015599909514870114,-0.015599721561184388,0.0,0.0,0.0,-0.4666485642646276,-0.7182049545888103,-0.7065585971444043,-0.002496949789629758,-0.006460410798167904,-0.1065868279018009
3121,13.0,299.72395,6221.743,0.0,-0.015604924003608689,-0.015604723771371565,0.0,0.0,0.0,-0.4604493481653125,-0.7269628906356513,-0.7038422560113223,-8.293649753594503e-05,-0.004330365253223776,-0.12520755803702388
3122,13.0,299.9332,6186.7071,0.0,-0.015609905502289578,-0.015609693072281106,0.0,0.0,0.0,-0.4618106800721655,-0.7199910105400803,-0.6988027857114654,0.0005006300949883436,0.0015338726935064486,-0.11581183171473788
3123,13.0,299.85388,6175.9909,0.0,-0.01561491999102782,-0.01561469528246806,0.0,0.0,0.0,-0.45762605848417554,-0.7234215815361513,-0.6962993689543974,0.004482897998102585,0.001819707000341098,-0.12541873962286587
3124,13.0,300.01185,6232.0141,0.0,-0.01561990148970871,-0.015619697492655238,0.0,0.0,0.0,-0.47165083815331355,-0.7293735240810624,-0.6933523310385473,-0.006116094937961574,-0.0013821224816798687,-0.12075108144720388
3125,13.0,300.02223,6240.9715,0.0,-0.015624915978447174,-0.015624699702842304,0.0,0.0,0.0,-0.47338553245701454,-0.7268588602478843,-0.6968550961042433,-0.0011372100026588888,0.006351012920646174,-0.12704085170795587
3126,13.0,300.07099,6202.6355,0.0,-0.015629930467185527,-0.01562970191302948,0.0,0.0,0.0,-0.46933741592249656,-0.7215596534173934,-0.6945492428516734,0.001140362223719989,0.005190094588172455,-0.11934865211629489
3127,13.0,300.10852,6150.6727,0.0,-0.015634911965866638,-0.015634704123216547,0.0,0.0,0.0,-0.45564043279320954,-0.7200622926846153,-0.6939481930248543,0.003195307799077327,0.0023743041736755776,-0.12329707497347389
3128,13.0,300.14724,6211.611,0.0,-0.01563992645460488,-0.015639706333403613,0.0,0.0,0.0,-0.4659077669840166,-0.7194445140986453,-0.7028223589906664,0.0005530255717668745,-0.006464658747887144,-0.11839068494175088
3129,13.0,299.92868,6282.5453,0.0,-0.01564490795328577,-0.01564470854359079,0.0,0.0,0.0,-0.4736516828607815,-0.7303727102696743,-0.7057124927809003,0.0037290456992281566,-0.0038993816536640065,-0.12625007079991188
3130,13.0,300.10611,6288.1928,0.0,-0.015649922442024344,-0.015649710753777746,0.0,0.0,0.0,-0.4832455097101186,-0.7215853595724303,-0.7066227460082353,0.004005225151159946,0.005557944701826434,-0.11679225251149788
3131,13.0,300.12306,6233.7962,0.0,-0.015654903940705234,-0.015654712963964923,0.0,0.0,0.0,-0.4705792552450565,-0.7239089649667523,-0.7004301869620774,0.0012521372873013287,0.0005337961417665775,-0.11822134045253788
3132,13.0,300.18621,6208.0698,0.0,-0.015659918429443476,-0.0156597151741521,0.0,0.0,0.0,-0.46979437145259456,-0.7188249116624953,-0.6984789205820023,-0.003866501079968947,-0.0003903508013371246,-0.10898488691347089
3133,13.0,300.17011,6267.5389,0.0,-0.015664899928124365,-0.015664717384339055,0.0,0.0,0.0,-0.4663908846316966,-0.7314076439218142,-0.7073767966001544,-0.005428089507435725,0.0022066955845338977,-0.11975331380873189
3134,13.0,299.95898,6288.8875,0.0,-0.01566991441686294,-0.01566971959452601,0.0,0.0,0.0,-0.4774375500044175,-0.7281089271612563,-0.7061182994459503,0.0012433884806378889,0.005873559037050145,-0.11112110183429891
3135,13.0,299.72603,6256.8612,0.0,-0.015674928905601182,-0.015674721804713077,0.0,0.0,0.0,-0.4690312624047815,-0.7277445218952924,-0.7051537866757603,0.00039608353735540164,0.004087193436549587,-0.12434503902189989
3136,13.0,299.90111,6226.3024,0.0,-0.01567991040428207,-0.01567969110562273,0.0,0.0,0.0,-0.4750966382983876,-0.7224222940225293,-0.6951215366406543,-0.002415884411404228,-0.005802992855035805,-0.12046091701606688
3137,13.0,299.91049,6244.1748,0.0,-0.015684924893020535,-0.015684693315809906,0.0,0.0,0.0,-0.46907479162907756,-0.7288831616951673,-0.7001152789634983,0.0027816293966504476,0.0014875587539606185,-0.12981195900894288
3138,13.0,300.17206,6287.3773,0.0,-0.015689906391701425,-0.01568969552599686,0.0,0.0,0.0,-0.4792470120329975,-0.7255238424461283,-0.7064348489096913,-0.004642284569307815,0.0023515155709765176,-0.12136904241819188
3139,13.0,300.10479,6261.4665,0.0,-0.015694920880439778,-0.015694697736183927,0.0,0.0,0.0,-0.4643912254268455,-0.7270360979553763,-0.7119021437992713,-5.740755487518455e-06,-0.004265805212502196,-0.12202119044755388
3140,13.0,300.07352000000003,6192.1587,0.0,-0.01569990237912089,-0.015699699946371104,0.0,0.0,0.0,-0.4583251909206746,-0.7219263587610844,-0.7020100870480013,-0.008723068489699832,-0.011579942953351387,-0.11966485707500188
3141,13.0,300.14307,6212.4613,0.0,-0.01570491686785913,-0.01570470215655806,0.0,0.0,0.0,-0.46161938858578655,-0.7242029898807704,-0.7026107214422793,0.003891329152469286,-0.0007454450284221962,-0.12557852916363588
3142,13.0,300.35892,6291.9481,0.0,-0.015709931356597484,-0.015709704366745236,0.0,0.0,0.0,-0.47540888144920357,-0.7333789523888673,-0.7038072887503714,0.005761577878398465,0.004648486065219855,-0.12286141796047789
3143,13.0,300.20898,6297.9831,0.0,-0.015714912855278595,-0.01571470657693219,0.0,0.0,0.0,-0.47936758879489755,-0.7301000750652673,-0.7049619277693253,-0.00023498511050372474,0.0017780943386092485,-0.12138792940005588
3144,13.0,300.05857000000003,6269.6098,0.0,-0.015719927344016837,-0.01571970878711937,0.0,0.0,0.0,-0.46812480886532154,-0.7316607233992912,-0.7060193049111803,0.00044033136875482254,-0.004032090869611386,-0.12166611721501087
3145,13.0,300.09094,6239.0584,0.0,-0.015724908842697727,-0.015724710997306546,0.0,0.0,0.0,-0.4651858364202675,-0.7289153526508443,-0.7024167651081373,-0.003389352691278067,0.0005920713974178974,-0.11989766141797789
3146,13.0,299.99687,6251.1577,0.0,-0.01572992333143619,-0.0157297132074935,0.0,0.0,0.0,-0.4666148534338006,-0.7214957072035822,-0.7120852786223453,0.002194270605182648,0.007648176306616232,-0.11538495958010889
3147,13.0,300.01545,6264.7466,0.0,-0.01573490483011708,-0.015734715417680678,0.0,0.0,0.0,-0.47223841175380254,-0.7240852704841523,-0.7080028737044434,-0.0025203217204113875,-0.004420462033565636,-0.1187202951992809
3148,13.0,299.99785,6272.7412,0.0,-0.015739919318855433,-0.015739717627867633,0.0,0.0,0.0,-0.47668366153251457,-0.7203557299135753,-0.7097173030061443,-0.0006542344126429094,-0.005562293672580645,-0.1187196771167199
3149,13.0,300.05735,6287.3251,0.0,-0.015744900817536323,-0.01574471983805481,0.0,0.0,0.0,-0.4775650979270056,-0.7272937978533093,-0.7063309299794353,-0.0005931207090889564,-0.004516123988756736,-0.12673352282012487
3150,13.0,299.92762999999997,6285.4213,0.0,-0.015749915306274787,-0.015749722048241876,0.0,0.0,0.0,-0.4758801339382125,-0.7273367191275454,-0.7073942650318783,0.005063188255547775,0.0004642054460210106,-0.11918557964520088
3151,13.0,299.95212999999995,6294.7504,0.0,-0.01575492979501314,-0.015754691349151306,0.0,0.0,0.0,-0.4750817739194206,-0.7279633636518903,-0.7104018142437003,-0.004077925035234866,-0.003061187227065657,-0.12230606571316889
3152,13.0,299.70189,6316.1733,0.0,-0.01575991129369403,-0.015759693559338483,0.0,0.0,0.0,-0.47379089329202057,-0.7369169076305363,-0.7092511775626413,-0.0023568380724268076,-0.006301747484884055,-0.11761155640985688
3153,13.0,299.6791,6290.8381,0.0,-0.015764925782432493,-0.01576469576952555,0.0,0.0,0.0,-0.4714736308433246,-0.7348968314361704,-0.7058872277606453,-1.4932833130505885e-06,0.002989684700633907,-0.12481347467563089
3154,13.0,299.91807,6252.0388,0.0,-0.015769907281113382,-0.015769697979712505,0.0,0.0,0.0,-0.46756065147464354,-0.7308197258162913,-0.7020833045002273,0.0007644416642120183,0.007105606310643743,-0.11909912914666888
3155,13.0,300.0462,6243.8928,0.0,-0.015774921769851735,-0.015774700189899682,0.0,0.0,0.0,-0.4637398069375556,-0.7311877078551083,-0.7030599864041184,-0.0060621157614092445,-0.0008634715512780071,-0.12684291330092087
3156,13.0,300.03196,6253.5854,0.0,-0.015779903268532736,-0.015779702400086637,0.0,0.0,0.0,-0.46589299379755855,-0.7279838515689123,-0.7070569743385903,-0.00890512156696707,0.0008305155512455031,-0.12458212941279888
3157,13.0,300.03677000000005,6268.7217,0.0,-0.01578491775727109,-0.015784704610273814,0.0,0.0,0.0,-0.4656028496314235,-0.7316632362595393,-0.7082687910606873,-0.0006186416622726785,0.0030715853009168673,-0.12699127338056287
3158,13.0,300.04717999999997,6263.0235,0.0,-0.015789899255951978,-0.01578970682046099,0.0,0.0,0.0,-0.46733773645264354,-0.7277096458268503,-0.7087553740237094,0.004877496293196405,0.005808690461673115,-0.1251700576508229
3159,13.0,299.98205,6300.5077,0.0,-0.015794913744690442,-0.015794709030647947,0.0,0.0,0.0,-0.4781501181372425,-0.7282495358776333,-0.7087973529753523,-0.0002034219341911818,-0.0003448948313134697,-0.11683162741038387
3160,13.0,299.89811000000003,6349.7244,0.0,-0.015799928233429017,-0.015799711240835124,0.0,0.0,0.0,-0.4780972163495215,-0.7397999081400662,-0.7122605404921423,0.0027864035271466174,-0.005702939169936275,-0.12588754004663288
3161,13.0,299.63866,6329.7505,0.0,-0.015804909732109684,-0.01580471345102208,0.0,0.0,0.0,-0.4830431231351446,-0.7280004182080473,-0.7130425669193223,0.0010386449846062791,-0.0006417423966650434,-0.1195866139022799
3162,13.0,299.7293,6293.3735,0.0,-0.01580992422084815,-0.015809715661209256,0.0,0.0,0.0,-0.4765031510271996,-0.7302952371670284,-0.7062300204019762,0.0017449736246404883,0.001001641283471798,-0.1273699249429329
3163,13.0,299.95116,6282.0921,0.0,-0.015814905719529038,-0.015814717871396433,0.0,0.0,0.0,-0.47536806773517554,-0.7273702678383562,-0.7068607989867294,0.0014622979223425686,-0.005379750384915025,-0.11199234493278389
3164,13.0,300.07757999999995,6306.115,0.0,-0.01581992020826739,-0.0158197200815835,0.0,0.0,0.0,-0.47534621193051857,-0.7320895612391143,-0.7094657332713163,-0.003050483658309297,-0.0021007040511983478,-0.12428806396877688
3165,13.0,300.03357,6328.3675,0.0,-0.01582490170694828,-0.01582468938249293,0.0,0.0,0.0,-0.4773433278776186,-0.7362399349737243,-0.7100824378121803,0.007665778487353433,0.0017955195045539782,-0.1125450829948349
3166,13.0,300.17778,6292.071999999999,0.0,-0.015829916195686744,-0.015829691592680106,0.0,0.0,0.0,-0.4696491929782665,-0.7307522332271303,-0.7122313386242602,-0.005191222639508785,0.0033960173438108165,-0.1251300140068709
3167,13.0,300.20223,6301.8571,0.0,-0.015834930684425097,-0.015834693802867172,0.0,0.0,0.0,-0.4675214082982706,-0.7330566172670553,-0.7150291653303843,-0.004073681543816066,-0.00022029296378872276,-0.1181399967345099
3168,13.0,300.17211000000003,6328.3753,0.0,-0.015839912183105986,-0.01583969601305435,0.0,0.0,0.0,-0.47230030106991056,-0.7372554142239444,-0.7141123462424014,-0.005934822468571375,-0.0027144781714481376,-0.12863413682770086
3169,13.0,299.96525,6348.7653,0.0,-0.01584492667184445,-0.015844698223241305,0.0,0.0,0.0,-0.4757543997333035,-0.7293829574394933,-0.7247287653576603,0.003828029290897076,0.004055755730996926,-0.12331394558763888
3170,13.0,299.88039,6313.6969,0.0,-0.01584990817052534,-0.01584970043342826,0.0,0.0,0.0,-0.4797644687265665,-0.7325105058606582,-0.7069312300011803,0.0007241959781900783,0.0003258962703484577,-0.1214946145030849
3171,13.0,299.76816,6285.5683,0.0,-0.015854922659263693,-0.015854702643615437,0.0,0.0,0.0,-0.4748657388655996,-0.7270950691111964,-0.7086950045827514,-0.001999305175266058,-0.007715244343985333,-0.1184152967866799
3172,13.0,299.81716,6286.4732,0.0,-0.015859904157944693,-0.015859704853802392,0.0,0.0,0.0,-0.47113544848994854,-0.7344495119145233,-0.7053459292922233,-0.0031116288435438567,-0.005616961555225944,-0.12290138054442187
3173,13.0,299.94457,6326.2767,0.0,-0.015864918646683268,-0.01586470706398957,0.0,0.0,0.0,-0.47129033390023456,-0.7397533796954743,-0.7119864259425893,-0.0018027230034899084,0.0008394292238327142,-0.12333391674710989
3174,13.0,299.9988,6345.6484,0.0,-0.015869900145363935,-0.015869709274176635,0.0,0.0,0.0,-0.4743436110890696,-0.7359193021120802,-0.7186557596908013,-0.003489025698315027,0.0017639702401653081,-0.12669894059421188
3175,13.0,300.08617999999996,6323.8743,0.0,-0.0158749146341024,-0.0158747114843637,0.0,0.0,0.0,-0.47572726489562556,-0.7347300302047083,-0.7118425748258923,-0.004367727026811096,-0.0069546560597711134,-0.1196690215329129
3176,13.0,300.21738,6309.5166,0.0,-0.015879929122840863,-0.01587971369455088,0.0,0.0,0.0,-0.47141911798794456,-0.7394428084073232,-0.7070735713752283,0.0046613153313610056,0.0026419760737927374,-0.12871275490295989
3177,13.0,300.15487,6371.5865,0.0,-0.015884910621521642,-0.015884715904737945,0.0,0.0,0.0,-0.4837359227585185,-0.7384379277531492,-0.7146293368409243,0.0037820556007348263,0.008341767075668312,-0.11539739215883588
3178,13.0,300.10786,6360.5857,0.0,-0.015889925110260106,-0.015889718114925122,0.0,0.0,0.0,-0.4741885230287636,-0.7404620569479152,-0.7188086489983904,0.005434127870081665,0.005419671729579955,-0.13068090202970087
3179,13.0,299.9348,6324.5512,0.0,-0.015894906608940995,-0.015894687415834552,0.0,0.0,0.0,-0.4752747271359636,-0.7293303596268023,-0.7179005539937683,-0.0069456652889837945,-0.0025970333656072375,-0.11381178747484888
3180,13.0,299.909,6295.5004,0.0,-0.015899921097679348,-0.015899689626021618,0.0,0.0,0.0,-0.46589056199731854,-0.7313585823519723,-0.7164257684732183,0.001898560757573358,-0.002043180931096258,-0.13176352936404787
3181,13.0,299.90128,6317.2021,0.0,-0.015904902596360238,-0.015904691836208795,0.0,0.0,0.0,-0.4821969377116326,-0.7275812873041824,-0.7104934728477463,0.0031915203715285364,0.0013585695844303789,-0.11492566344227989
3182,13.0,299.85822,6354.0754,0.0,-0.0159099170850987,-0.01590969404639575,0.0,0.0,0.0,-0.48152618641043454,-0.7344183544739483,-0.7155357194528773,0.0026034557500410776,-0.004527040644009126,-0.1256359500468029
3183,13.0,300.03833,6389.0579,0.0,-0.01591489858377959,-0.015914696256582928,0.0,0.0,0.0,-0.4922338689622005,-0.7361300074703753,-0.7137501903916593,-0.004417242634022906,-0.01091179266516009,-0.11595859085922189
3184,13.0,299.94192000000004,6370.5869999999995,0.0,-0.015919913072517833,-0.015919698466769883,0.0,0.0,0.0,-0.47557508486310657,-0.7459287236224333,-0.7149955659570684,0.0004124942069025086,0.0012786926472471388,-0.13077689734417489
3185,13.0,300.09012,6344.9124,0.0,-0.015924927561256408,-0.015924700676956838,0.0,0.0,0.0,-0.4750226102460815,-0.7374510424207513,-0.7162212946030383,-0.0010771081610522991,0.009069655144705271,-0.12129993876137188
3186,13.0,300.10497999999995,6381.422,0.0,-0.015929909059937408,-0.015929702887144015,0.0,0.0,0.0,-0.4722203961670246,-0.7471092207839393,-0.7204633370741953,0.0016863825389329984,0.007492660249467992,-0.12444054797632587
3187,13.0,300.05101,6384.1765,0.0,-0.01593492354867576,-0.01593470509733108,0.0,0.0,0.0,-0.4830045385713366,-0.7356223286402713,-0.7220033657686843,-0.009912582259870701,-0.003645432604951186,-0.12257731276493888
3188,13.0,300.10652000000005,6333.3646,0.0,-0.01593990504735665,-0.015939707307518258,0.0,0.0,0.0,-0.4778353823911805,-0.7367295272895432,-0.7106197846052124,0.0014059874599601588,0.0009742311052116241,-0.12415490264063488
3189,13.0,300.10317000000003,6272.5752,0.0,-0.015944919536095115,-0.015944709517705324,0.0,0.0,0.0,-0.4669988549566985,-0.7342248642348523,-0.7054825052732023,-0.0026918242296873674,0.002823027857311157,-0.1295294952785659
3190,13.0,299.96356000000003,6285.9918,0.0,-0.015949901034775893,-0.01594971172789239,0.0,0.0,0.0,-0.4686528438899345,-0.7300900438892773,-0.7120416683380413,0.00046112569260706247,0.002287382007222028,-0.12769659677517287
3191,13.0,299.85022000000004,6360.4478,0.0,-0.015954915523514357,-0.015954713938079568,0.0,0.0,0.0,-0.4742446266868005,-0.7371824804817463,-0.7219902137823863,-0.005401308901992684,-0.0069476958421841924,-0.12696817127828286
3192,13.0,299.83351,6373.5556,0.0,-0.01595993001225282,-0.015959716148266523,0.0,0.0,0.0,-0.4789977930384015,-0.7405764630167062,-0.7178274885290573,0.002168687661357808,0.0007746710825840832,-0.1271887456925519
3193,13.0,299.93127999999996,6369.9495,0.0,-0.015964911510933488,-0.015964685449176064,0.0,0.0,0.0,-0.48103749588720457,-0.7390148622275883,-0.7162532221136894,0.006284500853606943,0.0021689772482363884,-0.12123103775457189
3194,13.0,300.0725,6392.5201,0.0,-0.015969925999672063,-0.01596968765936324,0.0,0.0,0.0,-0.4855765320951726,-0.7428928236728133,-0.7146971232726143,0.004814334942912866,-0.0015314541668427586,-0.12315746937469588
3195,13.0,299.92765,6433.7467,0.0,-0.015974907498352953,-0.015974689869550196,0.0,0.0,0.0,-0.4886900976649575,-0.7429538517263363,-0.7240543967536053,0.0018174388399922483,-0.0009867979598418759,-0.11468440859346989
3196,13.0,300.12925,6441.0922,0.0,-0.015979921987091195,-0.015979692079737373,0.0,0.0,0.0,-0.48402594533464155,-0.7485456142582003,-0.7253596351349223,-0.0012324284582812188,-0.0029903279117973872,-0.12886285777277387
3197,13.0,300.165,6378.6939,0.0,-0.015984903485772084,-0.01598469428992455,0.0,0.0,0.0,-0.47921608763994555,-0.7392134389821863,-0.7205341531236843,-0.0009621118436805459,0.005882903736097395,-0.11450296589806289
3198,13.0,300.07842999999997,6299.3127,0.0,-0.01598991797451066,-0.015989696500111505,0.0,0.0,0.0,-0.4677000848209046,-0.7313465753382873,-0.7157871068026873,-0.0014081549032490689,-2.994465923880777e-05,-0.12585256265318087
3199,13.0,300.25883999999996,6318.9614,0.0,-0.01599489947319166,-0.015994698710298683,0.0,0.0,0.0,-0.4776061142910536,-0.7329834200798313,-0.7102169467629553,0.004878386838709296,-0.0016360226917378686,-0.11338819827054389
3200,13.0,300.0284,6375.8313,0.0,-0.015999913961930012,-0.015999700920485638,0.0,0.0,0.0,-0.48265402496424353,-0.7386382169004163,-0.7168012688277773,0.0021742331791551077,0.002101527823529648,-0.1280438679819459
3201,13.0,300.18404,6398.6081,0.0,-0.016004928450668254,-0.016004703130672704,0.0,0.0,0.0,-0.48622302618897656,-0.7390066751667803,-0.7197873979324853,0.0050872364294461455,0.0012922011962553288,-0.12308265098731187
3202,13.0,300.25493,6377.3034,0.0,-0.016009909949349366,-0.01600970534085988,0.0,0.0,0.0,-0.4786981141888255,-0.7412687560150303,-0.7185741119977433,-0.002141960758170068,-0.0023977458160640876,-0.13026624969127787
3203,13.0,299.94242,6400.1861,0.0,-0.01601492443808772,-0.016014707551046836,0.0,0.0,0.0,-0.4819895760786675,-0.7420375392634033,-0.7214696565435114,-0.004338876452738767,-0.006272653528137703,-0.12379754959536689
3204,13.0,299.87745,6460.6113,0.0,-0.016019905936768608,-0.016019709761234013,0.0,0.0,0.0,-0.4841236327767825,-0.7507420162349683,-0.7289988545915853,-3.314982160438267e-05,-0.0005464117438591404,-0.12491321901547488
3205,13.0,299.86311,6450.3387,0.0,-0.016024920425507072,-0.01602471197142097,0.0,0.0,0.0,-0.4842449998737606,-0.7496844364430933,-0.7268124635258053,0.0004970301693705586,0.004354506544806336,-0.12306292300786488
3206,13.0,299.90878,6374.0461,0.0,-0.01602990192418774,-0.016029714181608146,0.0,0.0,0.0,-0.4744426360213425,-0.7447475070533562,-0.7183607012616813,0.0005421309344391574,-0.0017588263747076482,-0.12170583661893089
3207,13.0,300.1157,6382.7282,0.0,-0.016034916412926314,-0.016034716391795323,0.0,0.0,0.0,-0.47266184897059255,-0.7476506408423733,-0.7198775265288804,-0.0017223001271527885,-0.0019975039205632882,-0.12424142406667389
3208,13.0,299.98011,6376.1587,0.0,-0.016039897911607204,-0.01603968569270464,0.0,0.0,0.0,-0.47355419806866056,-0.7459624040557572,-0.7186764401253424,-0.003461246737548457,0.0007897112908409363,-0.12724471762807588
3209,13.0,299.88414,6391.5104,0.0,-0.016044912400345446,-0.01604468790289182,0.0,0.0,0.0,-0.47787635822522456,-0.7443914003057113,-0.7205918070543743,0.0024917290184895075,0.002053166409506748,-0.12521964611071687
3210,13.0,300.23233999999997,6398.3548,0.0,-0.01604992688908402,-0.016049690113078996,0.0,0.0,0.0,-0.4789916324777936,-0.7464651787553773,-0.7194832709149702,-0.006390420547510404,-0.002091175953882998,-0.12702048538094587
3211,13.0,300.02622,6398.3763,0.0,-0.01605490838776491,-0.01605469232326595,0.0,0.0,0.0,-0.48399312616390255,-0.7415280669806222,-0.7194254447317634,0.002044105319162488,-0.002362764166961668,-0.12363068756889888
3212,13.0,300.0105,6429.7242,0.0,-0.016059922876503152,-0.016059694533453128,0.0,0.0,0.0,-0.48585561157021556,-0.7444799279669483,-0.7241400569170593,0.002876659793054217,-0.00032250545928631076,-0.12757298026297287
3213,13.0,299.89711,6465.2665,0.0,-0.016064904375184264,-0.016064696743640083,0.0,0.0,0.0,-0.48930835247847454,-0.7449354953444093,-0.7310357304726093,-0.0003794709067983626,0.0003187448929976717,-0.11907856016963889
3214,13.0,299.63847999999996,6448.7656,0.0,-0.016069918863922505,-0.01606969895382726,0.0,0.0,0.0,-0.48591954765152556,-0.7457570993204953,-0.7285870697509453,0.0030738727130176172,-0.006600233637767344,-0.12356666029507989
3215,13.0,299.83774,6419.0667,0.0,-0.016074900362603617,-0.016074701164014327,0.0,0.0,0.0,-0.4868197190403656,-0.7394037273509663,-0.7250125463131672,-0.0026069386959348176,-0.0003171780030430317,-0.11678324471810889
3216,13.0,300.08921000000004,6436.0299,0.0,-0.01607991485134197,-0.016079703374201282,0.0,0.0,0.0,-0.4809458879456635,-0.7503797995892203,-0.7250667146635132,0.004296042520661386,0.004025526224863506,-0.12253417870818188
3217,13.0,299.86347,6420.04,0.0,-0.016084929340080212,-0.01608470558438846,0.0,0.0,0.0,-0.4850838392340476,-0.7487505643559274,-0.7176974581437243,0.0014263869202484286,0.003765256522026887,-0.11896771060869887
3218,13.0,300.03769,6434.6333,0.0,-0.016089910838761323,-0.016089707794575414,0.0,0.0,0.0,-0.47825291235988754,-0.7529416504795553,-0.7247732774345533,-0.002106263349197008,0.0037817656085562066,-0.12266593161868489
3219,13.0,300.19419,6367.5508,0.0,-0.016094925327499676,-0.01609471000476259,0.0,0.0,0.0,-0.4745383678907905,-0.7409070358618314,-0.7201310417039003,-0.00940230626711038,-0.0016461791054402284,-0.12426443497644489
3220,13.0,300.06524,6338.1534,0.0,-0.016099906826180566,-0.01609971221494977,0.0,0.0,0.0,-0.4688853138603776,-0.7433656872294813,-0.7143893688197412,-0.006190418656646754,0.0035397377512449164,-0.12794442761713187
3221,13.0,299.96148,6373.9367,0.0,-0.01610492131491903,-0.016104714425136724,0.0,0.0,0.0,-0.47728394128925755,-0.7417032173929083,-0.7185304307859324,-0.006243439602579514,0.0025369167305491877,-0.13351918781231786
3222,13.0,299.84398,6441.0371,0.0,-0.016109902813599697,-0.016109683726046264,0.0,0.0,0.0,-0.4849266334810325,-0.7466981350858684,-0.7262896872692113,0.0014459422418783888,-0.004200341048716386,-0.12754189374990488
3223,13.0,299.76117999999997,6448.4707,0.0,-0.01611491730233816,-0.01611468593623344,0.0,0.0,0.0,-0.4882457672311055,-0.7475309253430583,-0.7243973819124553,-0.00011456776324195789,-0.0004543880658021106,-0.13419381986139886
3224,13.0,299.90221,6424.8579,0.0,-0.01611989880101916,-0.016119688146420397,0.0,0.0,0.0,-0.48417450806430357,-0.7447680355003823,-0.7240538192010484,0.006979412394164374,0.0015351239560549386,-0.12325989882730487
3225,13.0,299.91679,6439.1276,0.0,-0.016124913289757403,-0.016124690356607574,0.0,0.0,0.0,-0.4831133109695715,-0.7505362758021633,-0.7236844287445924,0.0025038591420616573,-0.00026046836065122576,-0.12867889208461789
3226,13.0,299.81178,6473.866999999999,0.0,-0.016129927778495867,-0.01612969256679453,0.0,0.0,0.0,-0.4904708847157076,-0.7495302400428753,-0.7278927806499244,7.733027187215362e-05,-0.003207125638968657,-0.11580570155163289
3227,13.0,299.86555,6465.6933,0.0,-0.016134909277176757,-0.016134694776981706,0.0,0.0,0.0,-0.48711242672925353,-0.7510205586874583,-0.7272763395540863,0.00012067589828978387,-0.0007826528893193263,-0.12678828898802988
3228,13.0,300.09139,6421.126,0.0,-0.01613992376591511,-0.016139696987168883,0.0,0.0,0.0,-0.4797055684982535,-0.7460162481660714,-0.7261401518194532,0.0027190359730479576,0.0026156994589494375,-0.11849564751960989
3229,13.0,300.06709,6406.9512,0.0,-0.01614490526459622,-0.01614469919735595,0.0,0.0,0.0,-0.4777132857541305,-0.7470698357525523,-0.7227700718543523,0.002092084231272638,0.0025757176232535377,-0.12433635546854288
3230,13.0,300.04128,6417.5825,0.0,-0.016149919753334463,-0.016149701407543127,0.0,0.0,0.0,-0.4782272771323576,-0.7457924718814862,-0.7267650839511294,4.311059393768436e-05,-0.0009218635434733481,-0.11977110648048789
3231,13.0,299.87793,6454.1695,0.0,-0.016154901252015574,-0.016154703617730082,0.0,0.0,0.0,-0.4862319630548585,-0.7487060117490303,-0.7269684027161953,0.002238520655599788,0.0015315003710473186,-0.12486249571546888
3232,13.0,299.95207,6503.1621,0.0,-0.016159915740753816,-0.016159705827917037,0.0,0.0,0.0,-0.4889342402765526,-0.7516540021199744,-0.7362106621783353,0.001007112357784251,0.0038135576476688365,-0.12601917136712387
3233,13.0,300.05224,6475.3334,0.0,-0.016164897239434817,-0.016164708038104214,0.0,0.0,0.0,-0.49332292030218156,-0.7498394535758922,-0.7251772906469263,0.00023473390553893273,0.0014536465903387486,-0.12788181889345288
3234,13.0,300.11598,6439.6523,0.0,-0.01616991172817328,-0.01616971024829117,0.0,0.0,0.0,-0.48430347453703154,-0.7472007071354683,-0.7259893295420683,-0.0047679027570803655,-0.002926080762706687,-0.1287793963620369
3235,13.0,300.24927,6449.433000000001,0.0,-0.016174926216911523,-0.016174712458478346,0.0,0.0,0.0,-0.4926278408660825,-0.7478510110496482,-0.7199877276097563,0.003887561381972436,0.001891330306184768,-0.12905692556442688
3236,13.0,300.45709,6481.7938,0.0,-0.016179907715592412,-0.016179681759387887,0.0,0.0,0.0,-0.4841146047183916,-0.7555850477379382,-0.7306038123524823,-0.0018792542901679584,-0.0007576771558819133,-0.13122641561853887
3237,13.0,300.08409,6439.3627,0.0,-0.016184922204330987,-0.016184683969574842,0.0,0.0,0.0,-0.48131949352253556,-0.7517837082652753,-0.7243022681255683,0.005029399505788085,-0.0008376877610183452,-0.12823005268782087
3238,13.0,299.98662,6409.9332,0.0,-0.016189903703011654,-0.01618968617976202,0.0,0.0,0.0,-0.47459345829872757,-0.7483780429566623,-0.7254881355126044,-0.004182500146255626,-0.004355221696726916,-0.12485915199013888
3239,13.0,300.0879,6446.0638,0.0,-0.01619491819175012,-0.016194688389949086,0.0,0.0,0.0,-0.4778775437278415,-0.7544990665457603,-0.7270658267133103,0.007855986708050523,0.0009525768765295181,-0.12977475246527087
3240,13.0,299.88187,6481.5263,0.0,-0.016199899690431008,-0.016199690600136152,0.0,0.0,0.0,-0.48747275872981555,-0.7487428839201693,-0.7340065189708033,0.005276938227743255,0.0015900501161507285,-0.12432977947539386
3241,13.0,300.03595,6512.6124,0.0,-0.01620491417916936,-0.01620469281032333,0.0,0.0,0.0,-0.48945966111590755,-0.7578354154150323,-0.7323764731374303,2.5751463528471575e-05,0.0025796186361385378,-0.12997350147238587
3242,13.0,300.03943,6505.2461,0.0,-0.016209928667907825,-0.016209695020510395,0.0,0.0,0.0,-0.48977462990949255,-0.7532445717294513,-0.7344131767659373,-0.010300258739556391,-0.0037063871978419366,-0.12045670189565089
3243,13.0,299.84275,6482.7065,0.0,-0.016214910166588714,-0.016214697230697572,0.0,0.0,0.0,-0.4887634367071956,-0.7508291050810633,-0.7309883610304343,-0.0029195517843623275,0.0007036130183086984,-0.1295860245016449
3244,13.0,300.06601,6501.3305,0.0,-0.016219924655327178,-0.016219699440884527,0.0,0.0,0.0,-0.4922260365389275,-0.7518772616470083,-0.7321388457239782,-0.0026911056327164474,0.004454325763832726,-0.11847259607983489
3245,13.0,300.19796,6543.2139,0.0,-0.016224906154008067,-0.016224701651071705,0.0,0.0,0.0,-0.49895443263546857,-0.7541540852842133,-0.7358651337617342,0.003422599554884277,-0.002747218410004347,-0.13151443195946388
3246,13.0,299.72875,6485.6041,0.0,-0.016229920642746642,-0.01622970386125866,0.0,0.0,0.0,-0.4945269349985086,-0.7475258388275563,-0.7294089371720572,0.0014479919455056786,-0.0016283391149045584,-0.11579442407801988
3247,13.0,299.83371,6413.7898,0.0,-0.016234902141427532,-0.016234706071445615,0.0,0.0,0.0,-0.4829140756024085,-0.7451781079483533,-0.7215397531854294,0.0013742413210770588,0.001913994684421568,-0.12974667530499986
3248,13.0,299.80142,6456.4865,0.0,-0.016239916630165774,-0.016239708281632792,0.0,0.0,0.0,-0.4787199294634785,-0.7500896858205883,-0.7338010622480263,0.007171220334119343,0.002725114055097817,-0.11785944804682189
3249,13.0,299.90497,6514.2368,0.0,-0.016244898128846663,-0.016244710491819858,0.0,0.0,0.0,-0.4895370632910465,-0.7557028684595662,-0.7349253949564893,-0.0012472871630476588,0.0017097785850670082,-0.12232160896970287
3250,13.0,299.90214,6538.2478,0.0,-0.016249912617585238,-0.016249712702007035,0.0,0.0,0.0,-0.4869420993874435,-0.7609304182429852,-0.7395915535220032,-0.0015257054924004087,-0.000858983856452606,-0.12012959436586788
3251,13.0,299.97445,6504.431,0.0,-0.01625492710632348,-0.016254682002916465,0.0,0.0,0.0,-0.48917532287284554,-0.7579738861736982,-0.7300353993113843,-0.004316273274808006,-0.003274484175141427,-0.12505117301658986
3252,13.0,300.15215,6495.1952,0.0,-0.01625990860500437,-0.01625968421310353,0.0,0.0,0.0,-0.4873198086272205,-0.7596058875797642,-0.7274514494363683,-0.005243440179437254,-0.0005533277736091994,-0.12845532858255387
3253,13.0,300.11736,6519.4534,0.0,-0.016264923093742834,-0.01626468642329071,0.0,0.0,0.0,-0.4923545571816115,-0.7618436706906163,-0.7275528251088733,-0.005727838879218684,0.00033676332700845267,-0.12803912597147787
3254,13.0,299.97334,6531.2356,0.0,-0.016269904592423612,-0.016269688633477886,0.0,0.0,0.0,-0.49175351748729357,-0.7586783685707253,-0.7349006513890474,0.0018785117804946782,0.0014495059438050985,-0.13359999450779286
3255,13.0,299.9928,6468.6812,0.0,-0.016274919081162076,-0.01627469084366484,0.0,0.0,0.0,-0.4853443964972626,-0.7560528855741103,-0.7249202898915623,-0.003149671419873367,-0.00042634908479487855,-0.12971801045967088
3256,13.0,300.09481,6399.0453,0.0,-0.016279900579842965,-0.016279693053852018,0.0,0.0,0.0,-0.4748448456485375,-0.7432017433633014,-0.7271034081595192,0.0029219563281746375,0.003696222070188716,-0.12926657714261788
3257,13.0,299.98427999999996,6413.0398,0.0,-0.016284915068581318,-0.016284695264038973,0.0,0.0,0.0,-0.4788944516607026,-0.7489856383791272,-0.7215238856888634,-2.6176425686662072e-05,-0.0007060803633622062,-0.12961400033690587
3258,13.0,300.00826,6499.6525,0.0,-0.01628989656726232,-0.01628969747422615,0.0,0.0,0.0,-0.4859168726712615,-0.7533881695336233,-0.7364270113396872,0.0061747842076037545,-4.261572360209446e-05,-0.1225151194738009
3259,13.0,299.8465,6560.4037,0.0,-0.016294911056000894,-0.016294699684413327,0.0,0.0,0.0,-0.49096234141171047,-0.7622096059642313,-0.7410269742761683,-0.0025001390956445177,-0.0033118213267513174,-0.12592516202284587
3260,13.0,299.85586,6544.0254,0.0,-0.016299925544739136,-0.016299701894600283,0.0,0.0,0.0,-0.4877565599503246,-0.7622983058779853,-0.7391654311924483,0.0036961779938093665,-0.0009967663244581772,-0.1179715540378859
3261,13.0,299.82806,6556.8758,0.0,-0.016304907043420025,-0.01630470410478746,0.0,0.0,0.0,-0.49207340054386356,-0.7598303528744172,-0.7412227544604904,-0.0011284578522701189,-0.006019788049081824,-0.12523751984248088
3262,13.0,299.81433,6603.6354,0.0,-0.01630992153215849,-0.016309706314974415,0.0,0.0,0.0,-0.4965229769005025,-0.7651500982844353,-0.7456671835066213,0.0025013855959175376,0.002000622299071048,-0.11572546227621389
3263,13.0,299.90889,6590.5479,0.0,-0.01631490303083949,-0.01631470852516148,0.0,0.0,0.0,-0.5064205558648175,-0.7594217395065903,-0.7375196901150263,0.002097432165300438,-0.0018712149612245383,-0.12330044909630687
3264,13.0,300.14146,6520.9798,0.0,-0.01631991751957773,-0.016319710735348658,0.0,0.0,0.0,-0.4942706739157175,-0.7532818998631353,-0.7346624464230382,0.0005701238125668394,0.002138818770934978,-0.1254445167054099
3265,13.0,300.07479,6445.0123,0.0,-0.01632489901825862,-0.016324680036258088,0.0,0.0,0.0,-0.49109914030771157,-0.7456506776624924,-0.7223729994051643,-0.0018090706100663682,0.0035937904897545064,-0.12925710325418288
3266,13.0,300.01234,6431.0149,0.0,-0.016329913506997085,-0.016329682246445154,0.0,0.0,0.0,-0.4793884212169535,-0.7446869045648753,-0.7307926112436153,0.0007591285251926523,-0.0011838771611895789,-0.13242905229472987
3267,13.0,299.98085,6492.3487,0.0,-0.016334927995735438,-0.01633468445663233,0.0,0.0,0.0,-0.4869003838808265,-0.7563793446238294,-0.7302321522158023,0.0037223355517659166,0.0026832405827902275,-0.13009716864709087
3268,13.0,300.13308,6566.281,0.0,-0.016339909494416327,-0.016339686666819286,0.0,0.0,0.0,-0.4865924369104345,-0.7672166117308843,-0.7421764153221092,0.00044432923821688164,-0.0018220266337950282,-0.13372170610980486
3269,13.0,299.64035,6551.7471,0.0,-0.01634492398315479,-0.016344688877006464,0.0,0.0,0.0,-0.49184419323874257,-0.7618688398231003,-0.7378544983455693,0.006348180076016594,-0.00036213111730705867,-0.1261741175724159
3270,13.0,299.87955,6524.1863,0.0,-0.01634990548183557,-0.01634969108719342,0.0,0.0,0.0,-0.47938388185650554,-0.7664495712726833,-0.7373562731388983,-0.0006116059068908034,0.0017211215146364684,-0.13527927416352487
3271,13.0,299.99751000000003,6568.2134,0.0,-0.016354919970574033,-0.016354693297380596,0.0,0.0,0.0,-0.4928433287648495,-0.7673355571601232,-0.7363939692539263,0.0035289170507769967,0.0016395980460407284,-0.12240007505744688
3272,13.0,300.10811,6595.7114,0.0,-0.016359901469255145,-0.016359695507567773,0.0,0.0,0.0,-0.4962713463706685,-0.7658312252666573,-0.7428289990490143,-0.006533381523994554,-0.002027420231090798,-0.12872683907934987
3273,13.0,300.0818,6551.5027,0.0,-0.016364915957993387,-0.016364697717754728,0.0,0.0,0.0,-0.49172590642206854,-0.7632660205184912,-0.7365012927045183,0.0007071163102644463,-0.0018532905669555383,-0.12490804130746389
3274,13.0,300.09781,6469.2947,0.0,-0.016369897456674276,-0.016369699927941905,0.0,0.0,0.0,-0.4829712026430465,-0.7551621070136973,-0.7283707408545953,-0.0023162994558009577,-0.0019643813827443482,-0.12914030591515588
3275,13.0,299.96906,6466.478,0.0,-0.01637491194541274,-0.01637470213812886,0.0,0.0,0.0,-0.4883082543647725,-0.7512295111230803,-0.7261100785564853,0.0012618396636338788,0.0025970259688815073,-0.13430817526768488
3276,13.0,300.0911,6540.6691,0.0,-0.016379926434151093,-0.016379704348316038,0.0,0.0,0.0,-0.4896413976538435,-0.7634526105244063,-0.7351060675818203,-0.004144619081992056,0.0014568513990800387,-0.13024673449435187
3277,13.0,300.11798999999996,6548.4706,0.0,-0.016384907932831982,-0.016384706558503104,0.0,0.0,0.0,-0.4964260088659326,-0.7547704453200432,-0.7393751030356412,0.002104014845900098,-9.89485859044651e-05,-0.13274789170369686
3278,13.0,300.01812,6554.9178,0.0,-0.016389922421570446,-0.01638970876869006,0.0,0.0,0.0,-0.49142599452496954,-0.7606533348706394,-0.7404519953744223,-0.0016505611081476985,0.0070738726347368735,-0.12573636313171288
3279,13.0,299.91491,6564.2038,0.0,-0.016394903920251336,-0.01639467806959971,0.0,0.0,0.0,-0.4922485509561495,-0.7603253052832654,-0.7427801907916972,0.006019117378840634,0.002944243169424177,-0.12363208585403689
3280,13.0,299.85437,6612.8124,0.0,-0.01639991840898969,-0.016399680279786888,0.0,0.0,0.0,-0.4990570647380975,-0.7631465076691963,-0.7479262651345753,-0.0015871240525119487,0.0006419708237675874,-0.11852270129727989
3281,13.0,300.00127000000003,6647.0735,0.0,-0.016404899907670578,-0.016404682489973954,0.0,0.0,0.0,-0.5038340829970525,-0.7682116537265873,-0.7484986399835643,-0.0018788128170993885,0.0017164293560733887,-0.11865875038820689
3282,13.0,300.02807,6594.8672,0.0,-0.016409914396409042,-0.01640968470016091,0.0,0.0,0.0,-0.49041788160297656,-0.7690815086724353,-0.7451755646906023,-0.003148757670933187,-0.0029911177402503373,-0.12417614036273089
3283,13.0,299.85537999999997,6483.6811,0.0,-0.01641489589508982,-0.016414686910347864,0.0,0.0,0.0,-0.48250919099494954,-0.7598276981591553,-0.7285402575963253,-0.005776760215246844,-0.0007607108976088202,-0.12326096273990989
3284,13.0,299.87827000000004,6477.3617,0.0,-0.016419910383828284,-0.01641968912053504,0.0,0.0,0.0,-0.4806060539946245,-0.7568588044386483,-0.7314913586450763,-0.004259856826465136,-0.00038148928073256067,-0.13362282303254588
3285,13.0,299.8141,6567.4009,0.0,-0.01642492487256675,-0.01642469133072222,0.0,0.0,0.0,-0.4967176526422155,-0.7636011023265613,-0.7360071306307483,-0.0020478222245043183,-0.001149826283629019,-0.12969263867716688
3286,13.0,300.1175,6548.729,0.0,-0.016429906371247638,-0.016429693540909174,0.0,0.0,0.0,-0.4900965293337615,-0.7650336454504423,-0.7355199093201633,0.004911832299335105,0.0014855798765153188,-0.14237253148857487
3287,13.0,300.33449,6522.467,0.0,-0.01643492085998599,-0.01643469575109635,0.0,0.0,0.0,-0.4884621366574595,-0.7639571280141982,-0.7302478373273503,0.00015468068310329485,-0.0007080359157902043,-0.13484854154601486
3288,13.0,300.22085,6562.5351,0.0,-0.01643990235866699,-0.016439697961283306,0.0,0.0,0.0,-0.4861681789610635,-0.7659381636822112,-0.7427404612552763,0.0049195933898010654,-0.0005249788191313754,-0.13841836350332887
3289,13.0,299.98528999999996,6605.6034,0.0,-0.016444916847405344,-0.016444700171470483,0.0,0.0,0.0,-0.5005623389541565,-0.7636521802641022,-0.7437239724648412,-0.001960030486814948,0.00027030510407953675,-0.12722777608640387
3290,13.0,300.17092,6616.8567,0.0,-0.016449898346086234,-0.01644970238165766,0.0,0.0,0.0,-0.4902157078105235,-0.7702331788685962,-0.7509103373415803,0.005787493978856184,0.0025242779554268376,-0.12650880421294688
3291,13.0,300.11322,6594.2264,0.0,-0.016454912834824698,-0.016454704591844727,0.0,0.0,0.0,-0.4972361631158885,-0.7664205213923163,-0.7408234832585853,-0.004777094759337545,-0.004803517788820296,-0.12035661305077287
3292,13.0,299.92008,6552.4433,0.0,-0.01645992732356305,-0.016459706802031904,0.0,0.0,0.0,-0.4912450483221115,-0.7659715097430022,-0.7345626007581844,0.004032586247585276,-0.0028104901032237777,-0.12343476552956288
3293,13.0,299.78443,6590.1959,0.0,-0.01646490882224394,-0.016464676102941334,0.0,0.0,0.0,-0.5025624642540535,-0.7616475460012603,-0.7390449760205603,-0.005409745526300315,-0.0033412339506541165,-0.1207926956288109
3294,13.0,299.93051,6661.8055,0.0,-0.016469923310982404,-0.0164696783131284,0.0,0.0,0.0,-0.5029737829996475,-0.7720077141662293,-0.7500410194182853,0.0015243610108427186,-0.0030698150516671567,-0.12559708177296688
3295,13.0,300.13909,6632.5274,0.0,-0.016474904809663293,-0.016474680523315577,0.0,0.0,0.0,-0.4976734818590486,-0.7702616613289073,-0.7481875519378622,0.00045752912084710866,-0.003962622037455346,-0.12609275358938588
3296,13.0,300.10791,6539.0673,0.0,-0.016479919298401646,-0.016479682733502532,0.0,0.0,0.0,-0.4845809936069206,-0.7607746817026153,-0.7423575135124824,0.0037997152327526964,0.002522900948540938,-0.13149120826717187
3297,13.0,300.00545,6576.6528,0.0,-0.016484900797082536,-0.016484684943689487,0.0,0.0,0.0,-0.4934298587177356,-0.7627902185365333,-0.7429181650578143,0.006080814684054683,0.0003911639345423746,-0.1283947159615719
3298,13.0,300.23565,6645.305,0.0,-0.016489915285821,-0.016489687153876664,0.0,0.0,0.0,-0.5048547906177886,-0.7676495431011113,-0.7475024631477493,0.002915345884522237,0.0023568475969777476,-0.13309949962089787
3299,13.0,300.00768999999997,6627.6231,0.0,-0.01649489678450189,-0.01649468936406362,0.0,0.0,0.0,-0.5026568282358665,-0.7652573812050233,-0.7467177110778003,-0.0011640197897048088,-0.00024307528433716274,-0.12489372408355089
3300,13.0,299.84267,6575.7808,0.0,-0.016499911273240242,-0.016499691574250797,0.0,0.0,0.0,-0.4909090444564505,-0.7674032017367993,-0.7405609096276713,-0.00014436243309496287,-0.0018662576351102882,-0.12828537614328087
3301,13.0,299.59668,6584.9519,0.0,-0.016504925761978706,-0.016504693784437863,0.0,0.0,0.0,-0.49499290845449656,-0.7651059611100793,-0.7415620716539782,0.0009301090586796172,0.0002991344809597747,-0.11961563338514389
3302,13.0,299.77109,6610.3617,0.0,-0.016509907260659595,-0.01650969599462504,0.0,0.0,0.0,-0.48819160901326053,-0.7732608816249072,-0.7479324054301814,-0.0029988791346913274,-0.005517285508438684,-0.13133602901435687
3303,13.0,300.08735,6654.1106,0.0,-0.01651492174939806,-0.016514698204812106,0.0,0.0,0.0,-0.5005386896968226,-0.7745162579688033,-0.7476285317251913,0.003001644699514267,-0.0037945912269969962,-0.12527532420371187
3304,13.0,300.21434,6645.934,0.0,-0.01651990324807895,-0.016519700414999172,0.0,0.0,0.0,-0.4943578336893195,-0.7782620916009882,-0.7475780617377102,0.0006603528423117513,-0.0008982288161457823,-0.13414725088680288
3305,13.0,299.93737999999996,6559.2901,0.0,-0.0165249177368173,-0.01652470262518635,0.0,0.0,0.0,-0.4937305609499125,-0.7646429970068883,-0.7354868571019013,0.005428479608724225,0.0029884660647386376,-0.12913241269687686
3306,13.0,300.19428999999997,6554.8951,0.0,-0.01652989923549819,-0.016529704835373304,0.0,0.0,0.0,-0.48672243689826455,-0.7678198400454183,-0.7379821577256683,-0.0018121208981674082,-0.0020095347456256384,-0.13663688744251087
3307,13.0,300.14243999999997,6611.847,0.0,-0.016534913724236655,-0.01653470704556048,0.0,0.0,0.0,-0.49759815684661457,-0.7640680789001483,-0.7481701544336453,-0.004566217148525546,0.003020599974435007,-0.1273900075599149
3308,13.0,299.96622,6640.0752,0.0,-0.016539895222917544,-0.016539676346470022,0.0,0.0,0.0,-0.4917244777394275,-0.7700182583898852,-0.7566743422579433,-0.004993783764773086,-0.0016205676892875782,-0.13038668459816388
3309,13.0,299.83963,6625.7043,0.0,-0.016544909711655897,-0.016544678556656978,0.0,0.0,0.0,-0.5038169084078575,-0.7630706658992112,-0.7471610789240574,0.0013378820571386786,0.004568626049313285,-0.12424501097202788
3310,13.0,299.89851,6634.0328,0.0,-0.01654992420039436,-0.016549680766844155,0.0,0.0,0.0,-0.5031759263945975,-0.7717930672650453,-0.7416113156088383,-0.0004609334182680865,0.0016854228897632887,-0.1241789673305099
3311,13.0,299.89113,6653.5171,0.0,-0.01655490569907525,-0.016554682977031332,0.0,0.0,0.0,-0.5095453178482076,-0.7664120100914763,-0.7465457321383273,0.0005421062921967255,-0.0001696965328277438,-0.12616311367632987
3312,13.0,299.89855,6690.6947,0.0,-0.016559920187813493,-0.016559685187218287,0.0,0.0,0.0,-0.5056540625616704,-0.7736127023246293,-0.7545373673995402,0.0027948280937780574,-0.002558667765145848,-0.1215798794989999
3313,13.0,299.94812,6688.3423,0.0,-0.016564901686494382,-0.016564687397405242,0.0,0.0,0.0,-0.5017555321394155,-0.7770748765913192,-0.7542586526945333,0.004906044412113886,-0.0007759787527656403,-0.12689496395855787
3314,13.0,300.14227,6590.6915,0.0,-0.016569916175232957,-0.01656968960759231,0.0,0.0,0.0,-0.4852670449846286,-0.7678993295157632,-0.7502392719328513,-0.0007968427172972532,-0.006246753234381544,-0.12629242465409188
3315,13.0,300.14326,6548.0005,0.0,-0.016574897673913846,-0.016574691817779486,0.0,0.0,0.0,-0.4908406906047046,-0.7635067687422512,-0.7360811890805573,-0.0037661476754898364,-0.004383821491399495,-0.13272089872103288
3316,13.0,300.00277,6604.7147,0.0,-0.01657991216265231,-0.016579694027966663,0.0,0.0,0.0,-0.49254253534016357,-0.7719847640514642,-0.7431410395498103,-0.004331629080073506,0.0054432752893344444,-0.13349203270963786
3317,13.0,299.90206,6667.9162,0.0,-0.016584926651390663,-0.016584696238153618,0.0,0.0,0.0,-0.5086524013300835,-0.7701667907220443,-0.7480608551453582,-0.005148164779159305,0.008238284754880403,-0.1316019666356029
3318,13.0,299.92836,6643.3155,0.0,-0.016589908150071553,-0.016589698448340795,0.0,0.0,0.0,-0.4978320960297025,-0.7730301341796343,-0.7485398083351273,-0.003036266340856157,0.004012692095121876,-0.13585563108540688
3319,13.0,300.01957000000004,6611.338000000001,0.0,-0.016594922638810017,-0.01659470065852775,0.0,0.0,0.0,-0.49562764884714056,-0.7702590775411523,-0.7437949303693443,-0.007638758146936733,1.4860249972842484e-05,-0.12936902686022886
3320,13.0,299.98382999999995,6668.1251,0.0,-0.016599904137490906,-0.016599702868714927,0.0,0.0,0.0,-0.49143217535057954,-0.7792299176990053,-0.7562814342666663,0.006315306291097203,-0.0015554365808096385,-0.1305389051606869
3321,13.0,300.08018,6732.4861,0.0,-0.016604918626229148,-0.016604705078902104,0.0,0.0,0.0,-0.5108881984707395,-0.7810870126147862,-0.7545324328715532,0.005829261971828365,-0.001958409894605008,-0.12329376164564687
3322,13.0,300.21285,6708.8273,0.0,-0.01660990012491015,-0.016609674379811423,0.0,0.0,0.0,-0.5030533231324975,-0.7822107171081872,-0.7540519294091312,0.008904613219391903,-0.007912643701967132,-0.13544965216783986
3323,13.0,300.07727,6626.2045,0.0,-0.016614914613648613,-0.0166146765899986,0.0,0.0,0.0,-0.49807768758894055,-0.7732287514642363,-0.7428942928854583,-0.0002867341438509568,-0.003942327144577397,-0.1285421438511219
3324,13.0,300.06314,6578.3209,0.0,-0.016619896112329502,-0.016619678800185778,0.0,0.0,0.0,-0.4882401031630465,-0.7690234798392083,-0.7423817200573712,-0.0031523759870402865,0.0005100078158563525,-0.13496154932966786
3325,13.0,299.96841,6650.5713,0.0,-0.016624910601067744,-0.016624681010372733,0.0,0.0,0.0,-0.4976960773362786,-0.7747693475787812,-0.7491421855195773,-0.004128389551165327,0.0009786512365203572,-0.12949205568737088
3326,13.0,299.89314,6666.9459,0.0,-0.01662992508980632,-0.01662968322055991,0.0,0.0,0.0,-0.49651155757187554,-0.7766197449114013,-0.7534537673450973,0.005106637737060905,-0.005086263810675155,-0.1321636618285379
3327,13.0,299.91591,6629.8623,0.0,-0.01663490658848721,-0.016634685430746865,0.0,0.0,0.0,-0.4968821335309485,-0.7697292997263673,-0.7487011684135523,-0.0006488356235925903,-0.0013055046634432787,-0.12682357035651187
3328,13.0,299.90632999999997,6612.2892,0.0,-0.01663992107722545,-0.01663968764093393,0.0,0.0,0.0,-0.49467837535845455,-0.7662503865680252,-0.7490420460121943,0.0095237870507496,-0.002097942235400778,-0.12939886707567386
3329,13.0,299.79524,6665.6363,0.0,-0.01664490257590656,-0.01664468985112111,0.0,0.0,0.0,-0.5076690218430315,-0.7673167411057662,-0.7512012313127894,0.0005193296661138475,0.0022868532933198477,-0.12997397769993288
3330,13.0,300.07452,6743.2991,0.0,-0.016649917064644804,-0.016649692061308063,0.0,0.0,0.0,-0.5086580350006396,-0.7805386821906702,-0.7605978391626623,0.0014074555580300485,0.001330743608859169,-0.1292954547704679
3331,13.0,300.10708999999997,6735.8723,0.0,-0.016654898563325804,-0.01665469427149524,0.0,0.0,0.0,-0.5067722144445236,-0.7788220946662562,-0.7619426753578873,-0.0036591098601010267,0.001066555971860879,-0.12898992946781487
3332,13.0,299.99247,6651.8607,0.0,-0.016659913052064268,-0.016659696481682196,0.0,0.0,0.0,-0.49387212212138354,-0.7777340971063793,-0.7503933366105563,-0.0007634773540918483,0.006935018563558044,-0.13002934168539687
3333,13.0,300.10152,6630.9994,0.0,-0.016664894550745157,-0.016664698691869373,0.0,0.0,0.0,-0.49633078362153454,-0.7719307578211343,-0.7473967102348124,-0.002202539637923738,0.003835053444565306,-0.12753972539469088
3334,13.0,300.12062000000003,6663.3609,0.0,-0.0166699090394834,-0.01666970090205655,0.0,0.0,0.0,-0.49473672843171357,-0.7814151739246733,-0.7493434372544393,0.00026630224942698574,-0.004300161078342855,-0.13527238406284486
3335,13.0,300.00626,6688.5915,0.0,-0.016674923528221974,-0.016674703112243505,0.0,0.0,0.0,-0.5014664518858856,-0.7791790322789832,-0.7525193075728733,0.0008556042823340683,-0.003105664346830207,-0.1358416482340269
3336,13.0,300.18736,6657.1648,0.0,-0.016679905026902864,-0.016679672413153046,0.0,0.0,0.0,-0.49370666851255457,-0.7791734290059302,-0.7507317824089583,0.005556254195359595,-0.0013129027063984086,-0.13849749833613886
3337,13.0,299.95968999999997,6603.4798,0.0,-0.016684919515641106,-0.016684674623340223,0.0,0.0,0.0,-0.49206176843271554,-0.7715941966679183,-0.7436370052087583,0.004536004968968836,0.0041397335953098965,-0.13410809890293887
3338,13.0,299.80666,6661.9503,0.0,-0.016689901014321995,-0.01668967683352718,0.0,0.0,0.0,-0.49759833923163255,-0.7770408212554583,-0.7504273818139163,0.0026179400588955677,-0.002021488057055338,-0.13566417747901188
3339,13.0,299.83087,6736.8299,0.0,-0.01669491550306057,-0.016694679043714356,0.0,0.0,0.0,-0.5093760037564975,-0.7783005241772812,-0.7601515227586143,0.002188262133414658,0.002878981655658367,-0.12661368573079787
3340,13.0,299.83403,6754.7883,0.0,-0.01669989700174146,-0.01669968125390131,0.0,0.0,0.0,-0.5070386688233205,-0.7836231269525813,-0.7626251904927462,-0.0007475119978311903,0.004698492997405155,-0.12556614724741388
3341,13.0,299.93171,6708.3129,0.0,-0.0167049114904797,-0.016704683464088488,0.0,0.0,0.0,-0.5081139602269436,-0.7765502764845452,-0.7544953783153963,-0.002467091943633018,0.006113743083154464,-0.12721417827006187
3342,13.0,300.01863,6696.5131,0.0,-0.016709925979218165,-0.016709685674275665,0.0,0.0,0.0,-0.4976488497491175,-0.7803840095629053,-0.7575399111558683,-0.005470615107507675,0.001192062296822389,-0.12922305805082288
3343,13.0,299.93782999999996,6731.0664,0.0,-0.016714907477899055,-0.01671468788446273,0.0,0.0,0.0,-0.5074112003550866,-0.7824941434261593,-0.7561707468257423,-0.0005326316742216535,0.0014235728207456987,-0.1304981015791599
3344,13.0,300.02252999999996,6746.2419,0.0,-0.016719921966637408,-0.016719690094649686,0.0,0.0,0.0,-0.5096401985875715,-0.7807970710986712,-0.7602518142535123,-0.001020892842854279,0.0017934853036532183,-0.12654002244852786
3345,13.0,300.18573,6684.5154,0.0,-0.01672490346531852,-0.01672469230483664,0.0,0.0,0.0,-0.5051653517734385,-0.7782437315091763,-0.7485166961003463,0.0012501589164810789,0.0024419074097474978,-0.13481605674780886
3346,13.0,299.96155,6611.2394,0.0,-0.01672991795405676,-0.01672969451502382,0.0,0.0,0.0,-0.4873433464270435,-0.7735059868240973,-0.7488023617010393,0.0006348042881953053,-0.007139856595823984,-0.12939646567293686
3347,13.0,300.15005,6639.0974,0.0,-0.01673489945273765,-0.016734696725210996,0.0,0.0,0.0,-0.4941537651191795,-0.7761255727051303,-0.7478404935136103,0.002077549462563168,-0.0027799717194868473,-0.13796389043597587
3348,13.0,299.87473,6726.1048,0.0,-0.016739913941476225,-0.01673969893539795,0.0,0.0,0.0,-0.4959531959717695,-0.7832201776528133,-0.7653945246060583,-0.0011826496086934288,-0.002028952366567008,-0.12926668860012888
3349,13.0,299.96027999999995,6753.9075,0.0,-0.016744895440157115,-0.016744701145585128,0.0,0.0,0.0,-0.5144459931493666,-0.7820577366080893,-0.7565155153047682,-0.00015358312046247384,-0.00012616008405853089,-0.13315118550849886
3350,13.0,299.87901,6697.8941,0.0,-0.016749909928895357,-0.01674967044649467,0.0,0.0,0.0,-0.5027112802962406,-0.7768878508878612,-0.7563934186677183,-0.003278623200474917,-0.0004439113232131366,-0.13017302054957686
3351,13.0,300.01626,6700.2797,0.0,-0.01675492441763382,-0.016754672656681624,0.0,0.0,0.0,-0.5055908965504365,-0.7831347606693833,-0.7479920757285703,0.002904590842660797,0.005024603995714805,-0.13245397824718988
3352,13.0,299.71443,6747.4546,0.0,-0.01675990591631471,-0.0167596748668688,0.0,0.0,0.0,-0.5093353825599884,-0.7785566636700603,-0.7631656783610883,0.0003283791079959947,0.003518324128931557,-0.1277555577984919
3353,13.0,299.97098,6810.3038,0.0,-0.016764920405053063,-0.016764677077055867,0.0,0.0,0.0,-0.5149879704953555,-0.7884192956384263,-0.7667550459128313,-0.002641642613184827,0.0004956691009087316,-0.12711776752304688
3354,13.0,299.81928999999997,6694.8646,0.0,-0.016769901903733953,-0.016769679287242933,0.0,0.0,0.0,-0.4942478960534695,-0.7821087537506243,-0.7587150178268423,-0.004311491443611076,-0.006172768751829844,-0.13607079474414185
3355,13.0,300.02051,6590.1753,0.0,-0.016774916392472417,-0.01677468149743011,0.0,0.0,0.0,-0.49129212392175753,-0.7723862948010922,-0.7395703157999073,-0.0018257656279890382,-0.003261020918412707,-0.13412672243977686
3356,13.0,300.11699,6689.3569,0.0,-0.016779897891153306,-0.016779683707617177,0.0,0.0,0.0,-0.4972025941400755,-0.7830805416565323,-0.7531143386940983,0.005072566695823355,-0.0012544950189590188,-0.13626042450035686
3357,13.0,300.3683,6773.4624,0.0,-0.01678491237989166,-0.016784685917804354,0.0,0.0,0.0,-0.5163835401230875,-0.7821243071396592,-0.7604555788486222,0.005843010357135224,-0.0013972277101956389,-0.13075626757213887
3358,13.0,299.9379,6754.1089,0.0,-0.01678989387857277,-0.01678968812799131,0.0,0.0,0.0,-0.5066868481235985,-0.7860913737986782,-0.7603022437109893,0.0028666497939913074,-0.0005332133507065605,-0.12923172133917787
3359,13.0,299.9965,6704.7454,0.0,-0.016794908367311012,-0.016794690338178264,0.0,0.0,0.0,-0.4993169228587435,-0.7796985154727523,-0.7590597457758643,0.0015519053028861284,0.001750557949916618,-0.12919793958084388
3360,13.0,300.03349,6738.4201,0.0,-0.016799922856049365,-0.01679969254836544,0.0,0.0,0.0,-0.5021120543196016,-0.7787360494677642,-0.7674633583952363,0.003148063898589717,-0.0017906605650244382,-0.12423782702881889
3361,13.0,300.00149,6808.6215,0.0,-0.016804904354730477,-0.016804694758552396,0.0,0.0,0.0,-0.5211330486418274,-0.7842810201100103,-0.7642368458368043,-0.0015280715327089186,0.001117966356759689,-0.13005165345259886
3362,13.0,299.95473,6816.7441,0.0,-0.01680991884346894,-0.016809696968739574,0.0,0.0,0.0,-0.5226461046186545,-0.7794085739566373,-0.7700653238570302,0.00039354209332208057,-0.0027098852100698474,-0.12758269733143188
3363,13.0,300.03382999999997,6720.0358,0.0,-0.016814900342149608,-0.01681469917892664,0.0,0.0,0.0,-0.5093144285479205,-0.7780098429885933,-0.7553988225020593,-0.002096578603416198,0.001166989119122859,-0.13516207152445786
3364,13.0,299.95786,6629.7129,0.0,-0.016819914830888072,-0.016819701389113817,0.0,0.0,0.0,-0.49522544935244656,-0.7702354688138223,-0.7498062696351173,-0.0017720939728420582,0.002184463762764788,-0.12938415468422187
3365,13.0,300.05259,6726.7903,0.0,-0.01682489632956896,-0.016824670690023247,0.0,0.0,0.0,-0.49758445770526255,-0.7881479573941472,-0.7590438681467973,-0.0015338226389515087,-0.0006270332273483614,-0.13680714385681386
3366,13.0,299.9089,6799.2474,0.0,-0.016829910818307314,-0.016829672900210313,0.0,0.0,0.0,-0.5070640406058246,-0.7932772624478702,-0.7664601192062243,-0.0016354382490801885,-0.006047841499300484,-0.13512984003877687
3367,13.0,299.82097999999996,6719.9112,0.0,-0.01683492530704578,-0.01683467511039749,0.0,0.0,0.0,-0.4978448021859565,-0.7875022232379183,-0.7573381933259603,0.002115440659327738,-0.0034085691820745874,-0.13866935568559985
3368,13.0,299.92001,6693.4563,0.0,-0.016839906805726668,-0.016839677320584556,0.0,0.0,0.0,-0.4989522136177495,-0.7846200333284682,-0.7510713326499692,0.007250675252635933,-0.0014039780836868486,-0.13192124174211287
3369,13.0,300.15871,6760.342,0.0,-0.01684492129446502,-0.016844679530771622,0.0,0.0,0.0,-0.5107316006677846,-0.7893105301613843,-0.7549330212985883,9.472846712572182e-05,-0.0014693111329097187,-0.13199953557733987
3370,13.0,299.94066000000004,6765.8599,0.0,-0.01684990279314591,-0.0168496817409588,0.0,0.0,0.0,-0.5116421072076446,-0.7791805825516362,-0.7658297661865132,0.0014366472934110486,0.0015053682456682787,-0.12799986253010287
3371,13.0,300.06428,6765.3714,0.0,-0.016854917281884374,-0.016854683951145755,0.0,0.0,0.0,-0.5053912964132375,-0.7884016853516882,-0.7627109925112143,-0.0031901651495197868,0.0045489964564509955,-0.13240653787750786
3372,13.0,299.86407,6728.8267,0.0,-0.016859898780565263,-0.016859686161332932,0.0,0.0,0.0,-0.4984857234042105,-0.7813331107990743,-0.7655764739265153,0.0006273228547569454,0.004136910072581237,-0.12935120379096987
3373,13.0,299.8606,6710.8543,0.0,-0.016864913269303616,-0.01686468837152011,0.0,0.0,0.0,-0.5047745006798645,-0.7794624585969553,-0.7556951677588063,-0.004715807111138925,0.0006615811952754804,-0.13306698442518888
3374,13.0,299.6605,6761.4833,0.0,-0.016869894767984617,-0.016869690581707064,0.0,0.0,0.0,-0.5097044487764125,-0.7855408952843502,-0.7600767651662362,-0.003399294194634216,8.926778673279462e-05,-0.13427010746142787
3375,13.0,299.77851,6779.5496,0.0,-0.016874909256723192,-0.01687469279189402,0.0,0.0,0.0,-0.5181285493128065,-0.7808955387433892,-0.7617896847252883,-0.0005747433717602544,0.0007889208240404232,-0.13490593203167886
3376,13.0,299.77969,6766.7839,0.0,-0.016879923745461434,-0.016879695002081085,0.0,0.0,0.0,-0.5035235725039076,-0.7878227142445482,-0.7655870522575592,-0.002809514140727458,0.00046334195428579056,-0.13175856443855788
3377,13.0,300.06962000000004,6734.3805,0.0,-0.016884905244142323,-0.016884697212268263,0.0,0.0,0.0,-0.5009410310465305,-0.7855886396290622,-0.7605538337108192,-4.9242400534346555e-05,-0.0037456709042189367,-0.13141398847705085
3378,13.0,299.91331,6754.871,0.0,-0.016889919732880898,-0.01688969942245544,0.0,0.0,0.0,-0.5021868220444805,-0.7867886823849972,-0.7643366205741513,-0.006291050299603323,-0.006679079187673794,-0.13114291367779787
3379,13.0,300.0679,6801.0881,0.0,-0.016894901231561565,-0.01689466872336476,0.0,0.0,0.0,-0.5144397819262535,-0.7901691481636233,-0.7627520190077632,0.0005475405044705404,-0.0006464549114226323,-0.13023214369291186
3380,13.0,300.11544,6801.6349,0.0,-0.01689991572030003,-0.016899670933551936,0.0,0.0,0.0,-0.5169875283751965,-0.7873868545815322,-0.7631527999523172,-0.0014629364725555886,-0.0008503377325543002,-0.12434138118903888
3381,13.0,299.93574,6788.2545,0.0,-0.01690489721898092,-0.016904673143739113,0.0,0.0,0.0,-0.5174808798488866,-0.7903138402779032,-0.7556651248933413,0.004768618719601026,0.005689823154016825,-0.12994399562947387
3382,13.0,299.88453,6819.0683,0.0,-0.016909911707719272,-0.016909675353926068,0.0,0.0,0.0,-0.5128892559607285,-0.7918796257899342,-0.7680576093138842,-0.0031638540841730876,0.0040761111149058464,-0.1324501076318079
3383,13.0,300.16887,6819.2925,0.0,-0.01691489320640016,-0.016914677564113245,0.0,0.0,0.0,-0.5071918519734385,-0.7918583374053333,-0.7738444528875013,0.003368177081413197,0.004480940500234396,-0.13966261436112687
3384,13.0,299.94703,6762.1821,0.0,-0.016919907695138625,-0.0169196797743002,0.0,0.0,0.0,-0.4976761365743105,-0.7915210669770473,-0.7663373031616032,-0.005187834331174385,0.0016830947450085182,-0.13525595927872386
3385,13.0,299.85519,6740.2656,0.0,-0.016924922183876978,-0.016924681984487377,0.0,0.0,0.0,-0.5009837496707465,-0.7875101367211993,-0.7603785414435192,0.0009011903334055611,-0.004151935051689087,-0.13556032947626287
3386,13.0,299.79417,6707.8188,0.0,-0.016929903682557867,-0.016929684194674555,0.0,0.0,0.0,-0.5038007369362615,-0.7809998832386873,-0.7542088007896133,-0.003172420303168507,-0.007167633732740372,-0.1308619596900699
3387,13.0,299.70198999999997,6735.5228,0.0,-0.01693491817129633,-0.01693468640486151,0.0,0.0,0.0,-0.5067473898170736,-0.7862924228835203,-0.7543909324950883,-0.0009451020798793131,-0.003340567738713367,-0.13526292030691087
3388,13.0,299.91008,6805.6359,0.0,-0.016939899669977443,-0.016939688615048687,0.0,0.0,0.0,-0.5079959773852994,-0.7911501971754452,-0.7695972124433312,-0.0016143599112249185,-0.001878654243458738,-0.13168079749338285
3389,13.0,300.0202,6838.1997,0.0,-0.016944914158715685,-0.016944690825235642,0.0,0.0,0.0,-0.5119298297060405,-0.7978039775346223,-0.7689081618453273,0.0015653549820635086,0.0014289838802547287,-0.13048817172817986
3390,13.0,300.0621,6852.6558,0.0,-0.016949895657396574,-0.016949693035422708,0.0,0.0,0.0,-0.5150884342427705,-0.7976148848009602,-0.7703329333409412,0.006804446697371604,0.005643489557419055,-0.13406660631134387
3391,13.0,300.12726000000004,6860.5,0.0,-0.016954910146135038,-0.016954695245609885,0.0,0.0,0.0,-0.5200721149921215,-0.7920649796307272,-0.7732835986921492,0.005923400910794155,0.006645233189283453,-0.12704638405350188
3392,13.0,300.19696,6814.5746,0.0,-0.01695992463487339,-0.01695969745579684,0.0,0.0,0.0,-0.5177416904246265,-0.7904745822737672,-0.7632442356413414,0.0009755416226259621,-4.6345156768160855e-05,-0.13015791299058588
3393,13.0,300.01327000000003,6773.6413,0.0,-0.01696490613355428,-0.016964666756706492,0.0,0.0,0.0,-0.5143043103878836,-0.7769381790203282,-0.7677753178360243,-0.0005559584140488235,-0.003632634242938087,-0.12384610454015889
3394,13.0,299.80741,6786.1177,0.0,-0.016969920622292745,-0.01696966896689356,0.0,0.0,0.0,-0.5070781957097216,-0.7910065588412692,-0.7647255667575373,-0.00025354127634257575,-0.0003195003216097267,-0.13822882493962285
3395,13.0,299.6458,6742.548000000001,0.0,-0.016974902120973523,-0.016974671177080514,0.0,0.0,0.0,-0.5011033942425546,-0.7819069447282073,-0.7665559017381772,-0.0023338843099614476,0.004179957699104706,-0.13144940156804588
3396,13.0,299.80636,6777.8958,0.0,-0.016979916609711987,-0.01697967338726769,0.0,0.0,0.0,-0.5022170270299615,-0.7903609564075532,-0.7677331058368583,-0.005750044863110245,0.0006671246359100754,-0.13757914924050488
3397,13.0,299.90475,6833.1143,0.0,-0.016984898108392876,-0.016984675597454646,0.0,0.0,0.0,-0.5124909372139176,-0.7955463955168163,-0.7690588017376943,-0.005510514565970444,-0.0039407334034951055,-0.1273547667214369
3398,13.0,300.08941,6840.8789,0.0,-0.01698991259713123,-0.016989677807641823,0.0,0.0,0.0,-0.5219007882425974,-0.7943334439546073,-0.7632221467891612,0.003474831685614187,-0.0018932192070211884,-0.12977149993244985
3399,13.0,300.1948,6847.8902,0.0,-0.01699489409581212,-0.016994680017829,0.0,0.0,0.0,-0.5177461689900685,-0.7956369598107542,-0.7682044900483803,0.004794154547296215,-0.002538928943922778,-0.12800127094774189
3400,13.0,300.25982,6829.7616,0.0,-0.016999908584550583,-0.016999682228015955,0.0,0.0,0.0,-0.5075582736071016,-0.7996976710440152,-0.7688210324692282,0.005562796649930285,-0.005146581879853085,-0.13398970062875387
3401,13.0,300.07806,6841.7143,0.0,-0.017004923073288825,-0.017004684438203133,0.0,0.0,0.0,-0.5080202447251946,-0.7983630686748002,-0.7733270063264333,0.004201700121075517,-0.0027725962720089475,-0.13390129455752886
3402,13.0,299.91037,6832.2032,0.0,-0.017009904571969936,-0.017009686648390088,0.0,0.0,0.0,-0.5077226227733215,-0.7987002175130742,-0.7703963425321992,0.007979434818083903,0.008479609315297282,-0.14080099071597588
3403,13.0,299.85796,6769.1208,0.0,-0.01701491906070829,-0.017014688858577265,0.0,0.0,0.0,-0.5054354234550925,-0.7895342253859613,-0.7626740595450693,0.005786430268901204,0.003911764279161076,-0.1339506094398959
3404,13.0,299.82577000000003,6735.3509,0.0,-0.01701990055938929,-0.017019691068764442,0.0,0.0,0.0,-0.5052588342276645,-0.7837625197688383,-0.7583571378915223,-0.0036861227024669865,0.0026860349239160074,-0.13307629619360786
3405,13.0,300.00453,6798.3644,0.0,-0.017024915048127642,-0.017024693278951508,0.0,0.0,0.0,-0.5116602038544306,-0.7865667502155943,-0.7683060683709053,-0.008893513064546402,-0.003117041422928037,-0.12931761455015486
3406,13.0,300.12608,6873.953,0.0,-0.01702989654680853,-0.017029695489138463,0.0,0.0,0.0,-0.5151520460840485,-0.7982742269060322,-0.7760837964035073,-0.0016502911783210586,0.0002351550528104968,-0.13620147360953888
3407,13.0,300.07427,6887.1664,0.0,-0.017034911035546996,-0.01703469769932542,0.0,0.0,0.0,-0.5167982127265126,-0.7988899485942993,-0.7778384517341783,-0.005100645274644495,0.0012653222042275788,-0.13180436334307788
3408,13.0,300.27276,6864.3502,0.0,-0.017039892534227774,-0.01703966700023518,0.0,0.0,0.0,-0.5163156219688845,-0.7958316051549643,-0.7744438308516552,-0.004675763264536905,-0.0037208280382671362,-0.13388116127804187
3409,13.0,300.11825,6882.3823,0.0,-0.017044907022966238,-0.017044669210422136,0.0,0.0,0.0,-0.5249612189771384,-0.7965410322124793,-0.7705701149243493,-0.0016083899429607286,-0.004772562288990225,-0.12362592529342889
3410,13.0,300.10882000000004,6890.6964,0.0,-0.017049921511704702,-0.01704967142060909,0.0,0.0,0.0,-0.5270010738134565,-0.8000628666450572,-0.7675357044523763,0.001199162545573129,0.003887538077220137,-0.13129594484040086
3411,13.0,299.97758,6849.4866,0.0,-0.01705490301038537,-0.01705467363079627,0.0,0.0,0.0,-0.5212248288358855,-0.7929458182076592,-0.7679022375435502,0.009816105550274191,-0.0035441290758533067,-0.12886934257341387
3412,13.0,299.94392999999997,6820.304,0.0,-0.017059917499123944,-0.017059675840983446,0.0,0.0,0.0,-0.5086339297807605,-0.7951832872109803,-0.7693849061498783,0.0005360305608870975,-0.004931247893776275,-0.13613978694345086
3413,13.0,299.86916,6804.217,0.0,-0.017064898997804834,-0.0170646780511704,0.0,0.0,0.0,-0.5077094201245185,-0.7906241886510322,-0.7699784680584583,0.004170727902618796,0.0014011760418603087,-0.14161655572146586
3414,13.0,299.97911,6848.1908,0.0,-0.017069913486543076,-0.017069680261357578,0.0,0.0,0.0,-0.5070165191761346,-0.7979920367531822,-0.7766704378139043,-0.0009648710351603571,0.0008228426743332492,-0.14216305216290087
3415,13.0,299.96305,6843.7213,0.0,-0.017074894985224187,-0.017074682471544644,0.0,0.0,0.0,-0.5161123741313255,-0.7969745614002652,-0.7672334519475463,-0.002164935089612458,0.005326478456932495,-0.14032650595914786
3416,13.0,299.99816,6806.9603,0.0,-0.01707990947396254,-0.01707968468173171,0.0,0.0,0.0,-0.5115200916306025,-0.7919295688873632,-0.7656963110158423,-0.011014200839516989,-0.0006099985882571735,-0.13054107351590086
3417,13.0,299.70827,6826.5782,0.0,-0.017084923962700782,-0.017084686891918888,0.0,0.0,0.0,-0.5086193997743266,-0.7964339316769092,-0.7700559918236093,-0.006358056022091275,-0.0014750783498288984,-0.13503974183988487
3418,13.0,299.76602,6905.8187,0.0,-0.017089905461381893,-0.017089689102105954,0.0,0.0,0.0,-0.5159949080472325,-0.8058805130217143,-0.7773210355706133,-0.004239125020144066,0.001908230811227718,-0.13432195546904488
3419,13.0,299.97899,6907.7813,0.0,-0.017094919950120135,-0.01709469131229313,0.0,0.0,0.0,-0.5133274663639765,-0.8073752190392303,-0.7790903323652293,0.007937621431507242,-0.0028078184666851073,-0.13784962622219887
3420,13.0,300.04445,6850.5972,0.0,-0.017099901448801247,-0.017099693522480086,0.0,0.0,0.0,-0.5159029758656595,-0.7994394037260263,-0.7670681300612302,0.007568214459074614,-0.0015059279650235186,-0.13099486770568688
3421,13.0,299.99767,6824.6857,0.0,-0.0171049159375396,-0.01710469573266704,0.0,0.0,0.0,-0.5196717697451104,-0.7908607622843803,-0.7640015083685783,0.005350342219312665,-0.0016417863622816985,-0.1301898506337379
3422,13.0,300.09531,6847.1593,0.0,-0.01710989743622049,-0.017109665033576804,0.0,0.0,0.0,-0.5202145070286746,-0.7966658443597973,-0.7644851123763062,0.004813547140960116,0.0005176641362619724,-0.13287996885423187
3423,13.0,300.16192,6855.3173,0.0,-0.017114911924958953,-0.01711466724376376,0.0,0.0,0.0,-0.5108948453913955,-0.7951051757607712,-0.7778452506423492,0.004328030117043316,0.002591848564845538,-0.13296540610266386
3424,13.0,300.21153,6865.4979,0.0,-0.01711989342363962,-0.017119669453950936,0.0,0.0,0.0,-0.5125532723600695,-0.7946418772850472,-0.7797447703398173,0.004573014435496386,0.001978455629283368,-0.13863551313225989
3425,13.0,299.96723,6859.5587,0.0,-0.017124907912378196,-0.01712467166413789,0.0,0.0,0.0,-0.5108808422750135,-0.7961045038043972,-0.7781492155398483,-0.0033311038814543567,0.0015486037287602886,-0.13659756320612984
3426,13.0,299.87156,6890.3916,0.0,-0.01712992240111666,-0.017129673874324847,0.0,0.0,0.0,-0.5170662275104635,-0.7979090110399882,-0.7795317345062922,-0.005147371201680985,-0.002687665344651917,-0.13827751160692786
3427,13.0,299.95948,6935.2876,0.0,-0.017134903899797327,-0.017134676084512024,0.0,0.0,0.0,-0.5268292367289975,-0.8033676933037183,-0.7779573465009123,-0.0072482220728188225,-0.006227866049867524,-0.13156767825221888
3428,13.0,300.09553999999997,6921.0713,0.0,-0.01713991838853579,-0.01713967829469909,0.0,0.0,0.0,-0.5221317079403875,-0.8036942638109482,-0.7780068842983013,-0.0037526117687289467,-0.0015179169428567384,-0.13285473892674188
3429,13.0,300.20915,6879.0225,0.0,-0.01714489988721679,-0.017144680504886267,0.0,0.0,0.0,-0.5121724727074876,-0.8017423489508092,-0.7771362592823773,-0.004822366165855485,0.002198570028006968,-0.1274029771611949
3430,13.0,300.15608,6869.4829,0.0,-0.017149914375955033,-0.017149682715073333,0.0,0.0,0.0,-0.5112718352236015,-0.8001904145676453,-0.7766890106882373,-0.0019242132103550582,0.005031121321683016,-0.1352260278707699
3431,13.0,300.28072000000003,6896.4013,0.0,-0.017154895874636145,-0.0171546849252604,0.0,0.0,0.0,-0.5136532971986335,-0.8044718522026902,-0.7782086426582132,0.002279029077372658,0.004843463856787665,-0.13602808625242688
3432,13.0,300.20276,6882.1608,0.0,-0.017159910363374387,-0.017159687135447577,0.0,0.0,0.0,-0.5199710331621455,-0.8002815260166373,-0.7717524562010373,0.007776980963303262,-0.0007990718675172532,-0.13598680644335287
3433,13.0,300.12054,6865.0019999999995,0.0,-0.017164891862055498,-0.017164689345634532,0.0,0.0,0.0,-0.5147180710662185,-0.7972193119619203,-0.7748518058719192,0.006361691563450074,-0.0014901938121706785,-0.13441871072109388
3434,13.0,299.95803,6839.1668,0.0,-0.01716990635079385,-0.01716969155582171,0.0,0.0,0.0,-0.5126909831811606,-0.7959081764650212,-0.7703367938238223,0.004514537948375206,-0.004383395622382465,-0.14028815444286286
3435,13.0,299.92031000000003,6851.9433,0.0,-0.017174920839532315,-0.017174693766008886,0.0,0.0,0.0,-0.5037074976620596,-0.8008606288462903,-0.7782515537999483,0.004927117379743625,-0.004514240458145845,-0.1391658178370969
3436,13.0,299.91095,6892.566,0.0,-0.017179902338213204,-0.017179663066918205,0.0,0.0,0.0,-0.5123925303642055,-0.8000178175456113,-0.7827576087171613,0.00035611065879038566,0.0014534839636976987,-0.13982130959178887
3437,13.0,299.9097,6937.8091,0.0,-0.017184916826951557,-0.017184665277105382,0.0,0.0,0.0,-0.5187808493296835,-0.8071165464212012,-0.7830233335558863,-0.0005549006822694334,0.004425668112579436,-0.13712475723315987
3438,13.0,299.99993,6900.6567,0.0,-0.017189898325632447,-0.01718966748729256,0.0,0.0,0.0,-0.5287224641433445,-0.7954625592035423,-0.7734423040553122,-0.003091603981817557,0.004278282374233596,-0.13287649340638888
3439,13.0,300.21776,6911.9967,0.0,-0.01719491281437091,-0.017194669697479514,0.0,0.0,0.0,-0.5267827994769145,-0.8008264721854191,-0.7734651427125663,-0.008991451083437131,0.0039526323033944365,-0.12764175967976088
3440,13.0,300.08377,6930.2077,0.0,-0.017199894313051578,-0.01719967190766647,0.0,0.0,0.0,-0.5247266515789886,-0.8031173698665132,-0.7787660822007283,-0.0014041427368280987,0.0006565871388451054,-0.13006692313160587
3441,13.0,299.99045,6936.9778,0.0,-0.017204908801790042,-0.017204674117853536,0.0,0.0,0.0,-0.5203633636008654,-0.8052414055211393,-0.7830632758748283,-0.0005659904209039054,-0.0013527115803022387,-0.1275176365425109
3442,13.0,300.30611,6927.2318,0.0,-0.017209923290528617,-0.017209676328040713,0.0,0.0,0.0,-0.5192352210720265,-0.8049126869236972,-0.7815575760937272,0.006121218943717275,0.002491872393378658,-0.13746269640651188
3443,13.0,300.12908999999996,6901.9768,0.0,-0.017214904789209284,-0.01721467853822789,0.0,0.0,0.0,-0.5166655681559215,-0.8048457414895902,-0.7765173154587922,0.004580561122241186,-0.0028547256641644875,-0.13872752637384086
3444,13.0,300.19514,6898.7667,0.0,-0.01721991927794775,-0.017219680748414845,0.0,0.0,0.0,-0.5179589211135656,-0.8042944321101803,-0.7747994715042543,0.006109167651002904,-0.00019087833365072482,-0.14184860012686687
3445,13.0,300.1897,6935.7026,0.0,-0.017224900776628638,-0.017224682958602022,0.0,0.0,0.0,-0.5180106576636715,-0.8066554973606992,-0.7836142407492043,0.003844465322094186,-0.002131284445841398,-0.13467343166373286
3446,13.0,300.07403999999997,6937.5768,0.0,-0.01722991526536699,-0.017229685168788977,0.0,0.0,0.0,-0.5152214942459025,-0.8088705127418042,-0.7847581089195953,-0.002695768001726588,-0.004516002601394756,-0.13903799633698188
3447,13.0,300.05535,6912.0539,0.0,-0.017234896764048102,-0.017234687378976155,0.0,0.0,0.0,-0.5147239377842975,-0.8044139956219802,-0.7819538379428352,-0.007831662626149923,-0.0004938599935176866,-0.13191987385447787
3448,13.0,300.11138,6883.845,0.0,-0.017239911252786566,-0.01723968958916333,0.0,0.0,0.0,-0.5117575163940346,-0.8026344143388493,-0.7781250596574643,-0.008207709021187812,-0.0011945715093700288,-0.13652425456139486
3449,13.0,299.85171,6903.948,0.0,-0.017244892751467455,-0.017244691799350287,0.0,0.0,0.0,-0.5186662406108725,-0.8039755217737062,-0.7759860279013583,-0.004847637028649526,0.007146283337233254,-0.13702431375074686
3450,13.0,300.07422,6983.9817,0.0,-0.017249907240205697,-0.017249661100259828,0.0,0.0,0.0,-0.5327214583130144,-0.8096502390912572,-0.7805843595051782,-0.003380942208823017,0.007427660559528024,-0.13653705191015786
3451,13.0,300.02401000000003,6934.5331,0.0,-0.017254921728944272,-0.017254663310447005,0.0,0.0,0.0,-0.5231292020013325,-0.8054944546011132,-0.7793012707710473,0.0002495668129578268,0.0029740246163633775,-0.13799954670699485
3452,13.0,299.9299,6895.9829,0.0,-0.017259903227625162,-0.01725966552063396,0.0,0.0,0.0,-0.5130018787093436,-0.8055130274754463,-0.7776917027221953,0.005670046538565025,-0.0004982637000422986,-0.13445186426436587
3453,13.0,299.92636,6914.5001,0.0,-0.017264917716363404,-0.017264667730821137,0.0,0.0,0.0,-0.5104573645282195,-0.8085072828459562,-0.7828707178258243,0.012446111695335589,-3.2290575387081674e-05,-0.1414866671911469
3454,13.0,300.01732999999996,6975.2692,0.0,-0.017269899215044293,-0.017269669941008092,0.0,0.0,0.0,-0.5226151599606005,-0.8106725071171472,-0.7870200175153282,0.01125755108953379,-0.0012869531686873887,-0.13287686830892587
3455,13.0,299.97827,6988.5098,0.0,-0.017274913703782868,-0.01727467215119527,0.0,0.0,0.0,-0.5276040690804675,-0.8085651292941651,-0.7881632878681603,0.002666285058266847,-0.0029443537150100874,-0.14238713242251588
3456,13.0,300.1534,6923.7663,0.0,-0.017279895202463535,-0.017279674361382336,0.0,0.0,0.0,-0.5231760344209545,-0.8027600168212452,-0.7787160276457883,-0.005068391801436325,0.0007400831115430164,-0.13155270241574088
3457,13.0,300.20331,6889.922,0.0,-0.017284909691202,-0.01728467657156929,0.0,0.0,0.0,-0.5169722080336845,-0.8040920759327093,-0.7732999728137652,-0.005034525740694005,-0.0006591856288590564,-0.13719843064793089
3458,13.0,300.21546,6967.7533,0.0,-0.01728989118988289,-0.017289678781756468,0.0,0.0,0.0,-0.5234569580111794,-0.8080187848402453,-0.7865472958136743,-0.0017061398013078887,0.0022785039098458275,-0.13217884031503588
3459,13.0,300.02744,6995.5517,0.0,-0.017294905678621242,-0.017294680991943423,0.0,0.0,0.0,-0.5250732641731966,-0.8108098025056972,-0.7905899610626543,-0.003933870356592776,-0.0024906746304354478,-0.13506059452694288
3460,13.0,299.96306,6936.3993,0.0,-0.017299920167359706,-0.0172996832021306,0.0,0.0,0.0,-0.5188120878302666,-0.8069693718441763,-0.7827107155025332,0.003009072228047307,-0.005609846411698735,-0.1324649720107749
3461,13.0,300.06175,6926.2654,0.0,-0.017304901666040817,-0.017304685412317777,0.0,0.0,0.0,-0.5170279570541865,-0.8097202040106622,-0.7786635615556102,0.0025768494236152375,0.003022618571284227,-0.13952123557467386
3462,13.0,300.05104,6970.7799,0.0,-0.01730991615477906,-0.017309687622504732,0.0,0.0,0.0,-0.5239269034075594,-0.8127279964025083,-0.7822881294158273,0.0027334408430946073,0.0025636414045867076,-0.14161449882376287
3463,13.0,299.97058,6987.815,0.0,-0.01731489765345995,-0.01731468983269191,0.0,0.0,0.0,-0.5269146537124275,-0.8087658136089713,-0.7884408069380493,0.003605485929033757,-0.004064009261011486,-0.13713287336646085
3464,13.0,299.86672000000004,6948.0497,0.0,-0.017319912142198524,-0.017319692042878865,0.0,0.0,0.0,-0.5192360620696095,-0.8060702846329432,-0.7867272794289373,-0.0016051934428702585,-0.005569058028923235,-0.13848777113517888
3465,13.0,299.91704,6901.3049,0.0,-0.017324893640879413,-0.017324661343788406,0.0,0.0,0.0,-0.5084872212987815,-0.8057539479517233,-0.7835831745011382,0.00046989507838003365,0.00017630173797712683,-0.13511263505207888
3466,13.0,299.94421,6892.1594,0.0,-0.017329908129617655,-0.017329663553975583,0.0,0.0,0.0,-0.5104944494818795,-0.8020098368447083,-0.7825400740531923,0.006369485381894264,-0.0021634962744704576,-0.13948843666893687
3467,13.0,300.0348,6956.8432,0.0,-0.01733492261835612,-0.017334665764162538,0.0,0.0,0.0,-0.5231512097935045,-0.8083439874598402,-0.7832114231719493,0.0016408338058626884,-0.0010711495411892288,-0.13700797002663387
3468,13.0,299.97727000000003,7015.7955,0.0,-0.01733990411703712,-0.017339667974349715,0.0,0.0,0.0,-0.5347687098750625,-0.8125475466921993,-0.7853103808866002,-0.002072239525414118,-0.004027370137395486,-0.13671519141023886
3469,13.0,300.05785,6999.0945,0.0,-0.01734491860577536,-0.017344670184536892,0.0,0.0,0.0,-0.5269253637659845,-0.8120225514178863,-0.7886020454264623,-0.0040626165487490365,0.003920346203533046,-0.13388922674883788
3470,13.0,299.93543999999997,6937.5165,0.0,-0.01734990010445625,-0.01734967239472396,0.0,0.0,0.0,-0.5186062359399505,-0.8082899305670053,-0.7819356197060372,-0.002995802299437667,0.005073263710567145,-0.13650349306684587
3471,13.0,300.10397,6969.5012,0.0,-0.017354914593194715,-0.017354674604910914,0.0,0.0,0.0,-0.5158693562273415,-0.8106998750023483,-0.7919850949928432,0.0014665268229599286,-0.0007845773451017553,-0.13523904813455487
3472,13.0,299.97917,6980.6575,0.0,-0.017359896091875493,-0.01735967681509787,0.0,0.0,0.0,-0.5269830784916805,-0.8055654530356202,-0.7893970313224212,0.001157482908009669,-0.0009602838797051401,-0.13276189482007889
3473,13.0,300.05325,6970.9346,0.0,-0.017364910580613957,-0.017364679025285046,0.0,0.0,0.0,-0.5188906957730245,-0.8137748357433232,-0.7863245429116903,-0.002775133551584357,-0.0016347170176590083,-0.1381063128700319
3474,13.0,299.91194,6943.8098,0.0,-0.01736989207929507,-0.017369681235472223,0.0,0.0,0.0,-0.5259039874001825,-0.8061831201640792,-0.7786576847050303,0.0005816943687712644,-0.001016940356864199,-0.13577079165453387
3475,13.0,299.90249,6975.7466,0.0,-0.01737490656803331,-0.017374683445659178,0.0,0.0,0.0,-0.5207148904580585,-0.8145374786960902,-0.7852004027207463,-0.0008712415887423501,-0.004300024188254346,-0.13697072295295787
3476,13.0,299.76905,7012.8606,0.0,-0.017379921056771663,-0.017379685655846355,0.0,0.0,0.0,-0.5322771988066695,-0.8117418710076852,-0.7877154617214632,0.0028259921204787076,-0.0006334605159126854,-0.13269265944074587
3477,13.0,299.90281,7056.419,0.0,-0.017384902555452775,-0.01738468786603342,0.0,0.0,0.0,-0.5263266038843915,-0.8191774852765232,-0.7994710880566532,-0.0030513900105237474,0.0004526187791399956,-0.13855816161962586
3478,13.0,299.88525,7029.8409,0.0,-0.017389917044191017,-0.017389690076220488,0.0,0.0,0.0,-0.5264272398843235,-0.8215874499768682,-0.7888814086115332,-0.0012692051812607987,0.0007355965920877313,-0.13804900344437587
3479,13.0,300.10787999999997,6994.3958,0.0,-0.017394898542871906,-0.01739465937713003,0.0,0.0,0.0,-0.5238412128466025,-0.8155536469563782,-0.7867268032013903,-0.007234920024181014,-0.005232301521087955,-0.13630800672505286
3480,13.0,300.0507,6978.0326,0.0,-0.01739991303161037,-0.017399661587317095,0.0,0.0,0.0,-0.5241035432974925,-0.8145797920202663,-0.7824643437407183,-0.005675189897397635,-0.0020743475922471682,-0.13719345558993987
3481,13.0,300.15814,6968.478,0.0,-0.01740489453029126,-0.01740466379750427,0.0,0.0,0.0,-0.5193493231657875,-0.8117494095884293,-0.7871445864826223,-0.005977110664144894,0.002331008604852638,-0.13913230965628987
3482,13.0,299.99215,6970.8038,0.0,-0.017409909019029612,-0.017409666007691338,0.0,0.0,0.0,-0.5190925351929445,-0.8115091477247173,-0.7883486011789493,-0.00022995912656269878,0.007522893605951793,-0.13549251264706988
3483,13.0,299.97357999999997,6994.1247,0.0,-0.017414890517710502,-0.017414668217878404,0.0,0.0,0.0,-0.5177223981427225,-0.8182816505981112,-0.7900352167654052,0.0019163623459302382,0.004806301186844995,-0.14049473587325087
3484,13.0,299.86115,7040.2627,0.0,-0.017419905006448966,-0.01741967042806558,0.0,0.0,0.0,-0.5296964508019695,-0.8156555697839372,-0.7947120549869733,0.007039999987868904,-0.0006973850259065434,-0.13350624860854088
3485,13.0,299.98239,7070.8641,0.0,-0.01742491949518732,-0.017424672638252536,0.0,0.0,0.0,-0.5326935432727595,-0.8214806128863242,-0.7951919606318362,0.004404714708461496,0.0015538298701260687,-0.13962457695237288
3486,13.0,300.01923999999997,7069.6393,0.0,-0.017429900993868208,-0.017429674848439713,0.0,0.0,0.0,-0.5329392057595045,-0.8227598512700752,-0.7932947511445962,0.0029517353433135968,-0.004776861813139556,-0.13438862732562487
3487,13.0,299.99279,7041.6987,0.0,-0.017434915482606672,-0.01743467705862667,0.0,0.0,0.0,-0.5305601451872094,-0.8162963795446803,-0.7936440488515691,-0.0003611327214535247,-0.007729396813432073,-0.13775363090772488
3488,13.0,300.07648,7033.7809,0.0,-0.01743989698128756,-0.017439679268813624,0.0,0.0,0.0,-0.5335391612762155,-0.8141929432645872,-0.7903616656826232,-0.0009073828924517191,-0.0024332612453191876,-0.12971753423212387
3489,13.0,300.10637,6982.3948,0.0,-0.017444911470025914,-0.0174446814790008,0.0,0.0,0.0,-0.5254046476184014,-0.8100767363233492,-0.7869922747275903,0.0017893023032653883,0.003954362326615176,-0.14133530789120885
3490,13.0,299.99509,6969.0758,0.0,-0.017449892968707026,-0.017449683689187867,0.0,0.0,0.0,-0.5219437196493345,-0.8113358110301102,-0.7851454845653262,-0.002028454252817848,0.002723976377885537,-0.13381160165867687
3491,13.0,299.93782999999996,7018.6882,0.0,-0.017454907457445268,-0.017454685899375044,0.0,0.0,0.0,-0.5234663001771015,-0.8167571144976512,-0.7932825313483902,-0.003358894595922087,0.0008929743037772023,-0.13875372902142688
3492,13.0,299.9091,7049.6821,0.0,-0.01745992194618362,-0.01745968810956211,0.0,0.0,0.0,-0.5302584601024355,-0.8169906686457012,-0.7956781889573232,0.0012825345876513088,-0.002845438619047927,-0.13378434523098687
3493,13.0,300.07622000000003,7053.278,0.0,-0.01746490344486462,-0.01746465741047154,0.0,0.0,0.0,-0.5284562934745755,-0.8231527085988471,-0.7924113997074163,-0.0013416870139141988,0.0034558082189617163,-0.14419830684376486
3494,13.0,300.31981,7040.4584,0.0,-0.017469917933602974,-0.017469659620658717,0.0,0.0,0.0,-0.5283818803872316,-0.8140060898136462,-0.7977355628878702,-0.0008005331362814693,0.004335147996345796,-0.13904587942275987
3495,13.0,300.23764,7003.6514,0.0,-0.017474899432283864,-0.017474661830845895,0.0,0.0,0.0,-0.5226427912908275,-0.8156871021270492,-0.7906052408741623,-0.002033719606962498,-0.005716634866237934,-0.14208257983995887
3496,13.0,300.00695,7004.1382,0.0,-0.017479913921022328,-0.01747966404103285,0.0,0.0,0.0,-0.5256792079979985,-0.8131571382173612,-0.7902467833862853,-0.0031549031341146973,-0.00048691174241444755,-0.14028293620484786
3497,13.0,300.06116000000003,7027.7024,0.0,-0.017484895419703217,-0.017484666251220027,0.0,0.0,0.0,-0.5275799435955865,-0.8145343882832852,-0.7941317261246993,0.0017140242043110182,-0.0025938190323150077,-0.14239514723080687
3498,13.0,300.03427999999997,7002.2337,0.0,-0.01748990990844157,-0.017489668461406982,0.0,0.0,0.0,-0.5197090877462934,-0.8197321485137643,-0.7890629728969523,0.0035894856967046565,-0.003100013451022507,-0.14047018482332785
3499,13.0,299.96999,6968.1003,0.0,-0.01749489140712246,-0.01749467067159416,0.0,0.0,0.0,-0.5162014692126186,-0.8111254603093502,-0.7908015580810372,0.006890375270777092,-0.003509885984748777,-0.13554698497244588
3500,13.0,299.92717000000005,7010.6797,0.0,-0.017499905895860923,-0.017499672881781336,0.0,0.0,0.0,-0.5239931395665965,-0.8160661184594552,-0.7910123242343382,0.008013506365946502,-0.0023547634428470574,-0.13563452978108587
3501,13.0,299.77423,7065.9838,0.0,-0.017504920384599276,-0.01750467509196829,0.0,0.0,0.0,-0.5293548132657525,-0.8197871071991882,-0.7987407171195712,0.0027434499302324273,0.004218911997874196,-0.13572616812012986
3502,13.0,299.99959,7106.63,0.0,-0.017509901883280166,-0.017509677302155247,0.0,0.0,0.0,-0.5387074055312815,-0.8251311300816022,-0.7963995217035132,-0.005511833007000564,0.006809450430340433,-0.13915709375373586
3503,13.0,300.12833,7113.1886,0.0,-0.01751491637201863,-0.017514679512342313,0.0,0.0,0.0,-0.5326055931640795,-0.8261929047288912,-0.8034332303201862,-0.005156471302154094,0.0021865366698193677,-0.13462010431096988
3504,13.0,300.06206000000003,7080.7299,0.0,-0.01751989787069952,-0.01751968172252949,0.0,0.0,0.0,-0.5365304782214355,-0.8195467338779652,-0.7962878818074952,-0.004949862311363375,0.0018856988647789879,-0.13495225782625087
3505,13.0,299.84136,7043.9337,0.0,-0.017524912359437872,-0.017524683932716667,0.0,0.0,0.0,-0.5249087224894575,-0.8214591117192022,-0.7948121336993502,0.0028708487024057074,0.0011958557025467688,-0.13687141431065689
3506,13.0,299.95826,7012.7937,0.0,-0.017529893858118872,-0.017529686142903622,0.0,0.0,0.0,-0.5310632542593625,-0.8124478834123632,-0.7882030275370823,0.0007090634729816162,-0.0035349892559762767,-0.13618912209081988
3507,13.0,300.04804,7011.9958,0.0,-0.017534908346857225,-0.0175346883530908,0.0,0.0,0.0,-0.5245371738102885,-0.8128035037999602,-0.7941309459221223,0.0032200886541230074,-0.0018366140915096986,-0.13270149498161787
3508,13.0,300.26578,7002.4629,0.0,-0.017539889845538115,-0.01753965765400034,0.0,0.0,0.0,-0.5288331718492705,-0.8123189169396352,-0.7874217914449803,0.0028087614985531774,-0.004753108191045256,-0.14041525653540687
3509,13.0,300.07457,7035.1371,0.0,-0.01754490433427658,-0.017544659864187295,0.0,0.0,0.0,-0.5195071672663655,-0.8230273594289763,-0.7959715045962712,0.00031853651811460673,-0.0017584937246998182,-0.14257893053394488
3510,13.0,300.03437,7080.2839,0.0,-0.01754991882301493,-0.017549662074374472,0.0,0.0,0.0,-0.5327149329823705,-0.8211515497838482,-0.7983630382772973,-0.0015071732493964188,0.003718904180302267,-0.14217659931673787
3511,13.0,299.83104,7093.4569,0.0,-0.01755490032169582,-0.017554664284561428,0.0,0.0,0.0,-0.5260255470146795,-0.8248941714132163,-0.8053140656858103,-0.0034489837768881967,-0.001873878694412428,-0.13616129824307385
3512,13.0,299.92801000000003,7071.2182,0.0,-0.017559914810434285,-0.017559666494748605,0.0,0.0,0.0,-0.5300582013526716,-0.8260202266468493,-0.7933953466145243,-0.00014335688369572285,0.000988943648651139,-0.13597751493993587
3513,13.0,299.88711,7071.7375,0.0,-0.017564896309115174,-0.017564668704935782,0.0,0.0,0.0,-0.5287401250925875,-0.8232004630760602,-0.7976910204134742,-0.002044332388509898,0.002754378541835997,-0.13841096677759887
3514,13.0,300.07478,7090.4804,0.0,-0.017569910797853527,-0.017569670915122737,0.0,0.0,0.0,-0.5358292483572296,-0.8265261018917752,-0.7929736217904032,0.001976078037923718,0.006115206925573934,-0.1403069299672159
3515,13.0,299.98689,7039.606,0.0,-0.017574892296534417,-0.017574673125309914,0.0,0.0,0.0,-0.5257453023020214,-0.8179404183619342,-0.7961787446392242,-0.0019267934517347082,0.0034652647808200063,-0.14016890503859386
3516,13.0,299.99604,7055.1371,0.0,-0.01757990678527288,-0.01757967533549687,0.0,0.0,0.0,-0.5323399595178635,-0.8197366068142042,-0.7925089554270442,0.00018131224958912583,0.001159514069160129,-0.13831426218805487
3517,13.0,300.10332,7067.6237,0.0,-0.017584921274011123,-0.017584677545684047,0.0,0.0,0.0,-0.5282616785278685,-0.8183664697639822,-0.8017529880768592,0.001252639150075859,-0.00098082296585719,-0.13808080936501488
3518,13.0,299.89441,7055.2114,0.0,-0.017589902772692123,-0.017589679755871113,0.0,0.0,0.0,-0.5261723162916645,-0.8235703702900672,-0.7948654103896082,0.002399378263300198,-0.0020885310671469683,-0.13713328879900188
3519,13.0,300.01783,7096.3014,0.0,-0.017594917261430587,-0.017594681966058068,0.0,0.0,0.0,-0.5338275018571725,-0.8226956314787373,-0.8005753077506312,-0.0022280146706129276,0.001007205789575972,-0.13744571433483588
3520,13.0,300.03336,7168.7741,0.0,-0.017599898760111476,-0.017599684176245245,0.0,0.0,0.0,-0.5419640724126895,-0.8329657217098162,-0.8041985381207163,-0.003972602854915377,-0.0014755967285800585,-0.13783141811790187
3521,13.0,300.01235,7126.4203,0.0,-0.01760491324884994,-0.0176046863864322,0.0,0.0,0.0,-0.5304262340539935,-0.8317021380401102,-0.8041254422585022,0.001881530252542578,0.006041025163227764,-0.14337584160509387
3522,13.0,299.94993,7073.9132,0.0,-0.01760989474753083,-0.01760965568734174,0.0,0.0,0.0,-0.5286952887756625,-0.8214884250445952,-0.8001092836321382,0.004939729202413315,0.007287298772200393,-0.13618147205256487
3523,13.0,300.03857,7094.6626,0.0,-0.017614909236269183,-0.017614657897528918,0.0,0.0,0.0,-0.5307539191363335,-0.8208531476293982,-0.8049932200416452,0.004159064482042706,0.005295987329623255,-0.1321540258200869
3524,13.0,300.09141,7089.4259999999995,0.0,-0.017619890734950072,-0.017619660107715873,0.0,0.0,0.0,-0.5310103322066395,-0.8236637919492872,-0.8003343366118493,-0.0022226499166334676,-0.008639745691576512,-0.13745242205049787
3525,13.0,300.05376,7063.589,0.0,-0.017624905223688536,-0.01762466231790305,0.0,0.0,0.0,-0.5288784641287405,-0.8225327515251623,-0.7957434625287652,-0.005968627025032624,-0.007719378607043353,-0.13905294177595687
3526,13.0,299.83203,7078.4378,0.0,-0.017629919712426778,-0.017629664528090228,0.0,0.0,0.0,-0.5324395417376915,-0.8268881766825092,-0.7923406140554302,-0.0019341452904852782,-0.0009673603880060371,-0.14561973461404887
3527,13.0,299.84394,7093.2441,0.0,-0.01763490121110778,-0.017634666738277183,0.0,0.0,0.0,-0.5315538294277785,-0.8249086507571453,-0.7997066079098972,-0.006480353890611134,-0.0008564998130374502,-0.14361054072575688
3528,13.0,300.14064,7094.8321,0.0,-0.017639915699846243,-0.01763966894846436,0.0,0.0,0.0,-0.5334743031373145,-0.8277903036440423,-0.7953871835286032,-0.0025308876898041677,-0.001003178657451025,-0.14676215383679686
3529,13.0,299.96072000000004,7121.941,0.0,-0.017644897198527132,-0.017644671158651315,0.0,0.0,0.0,-0.5296433970267335,-0.8291370650144573,-0.8061117772245383,-0.0005242162065761115,0.0022343424174874277,-0.13919023716450687
3530,13.0,299.97952000000004,7123.7133,0.0,-0.017649911687265374,-0.017649673368838492,0.0,0.0,0.0,-0.5354364822209665,-0.8281548608975212,-0.8018396209604093,0.006181820418948174,0.0030919352132752474,-0.13920147410811587
3531,13.0,299.86665,7088.719,0.0,-0.017654893185946263,-0.01765467557902567,0.0,0.0,0.0,-0.5303406549505475,-0.8226986610965362,-0.8017542749044863,0.007980509167164933,0.001313029058685879,-0.13389579260948586
3532,13.0,300.15225,7125.3077,0.0,-0.017659907674684838,-0.017659677789212735,0.0,0.0,0.0,-0.5365410970824835,-0.8314310936383602,-0.7979434210133842,-0.0016226463718677284,-0.0032768202232469766,-0.14177679109227984
3533,13.0,300.14781,7131.8694,0.0,-0.017664889173365728,-0.01766467999939969,0.0,0.0,0.0,-0.5295204999221045,-0.8260733817470952,-0.8123163432843812,-0.0018955069230969684,-0.0013952879442041988,-0.13526197798431788
3534,13.0,300.02009,7095.9581,0.0,-0.01766990366210419,-0.017669682209586646,0.0,0.0,0.0,-0.5354792616401884,-0.8262643489934421,-0.7952504454276083,-0.0030698988474504273,0.0024403742610211877,-0.13673251798694885
3535,13.0,299.79422,7118.9794,0.0,-0.017674918150842545,-0.017674684419773823,0.0,0.0,0.0,-0.5283540058769804,-0.8257059975258373,-0.8099319732815622,0.0015280210728539387,0.002300029192320208,-0.13396633508144787
3536,13.0,299.85712,7188.3471,0.0,-0.017679899649523434,-0.017679653720683586,0.0,0.0,0.0,-0.5481917912373174,-0.8313277826581643,-0.8055584312124272,-0.001056461467739629,-0.004470618318815675,-0.13428013863741786
3537,13.0,299.97181,7169.3974,0.0,-0.017684914138261898,-0.01768465593087054,0.0,0.0,0.0,-0.5355828461979114,-0.8363872342499933,-0.8073477092990152,-0.0008811851084661991,0.00033991629787462666,-0.14156020888340487
3538,13.0,300.09878,7133.6817,0.0,-0.017689895636942787,-0.017689658141057496,0.0,0.0,0.0,-0.5388407289794396,-0.8299193852841662,-0.7997010046368442,0.0012040208771526089,0.0011171713607312289,-0.14339674495465687
3539,13.0,300.0138,7176.5542,0.0,-0.01769491012568103,-0.017694660351244673,0.0,0.0,0.0,-0.5371909349016175,-0.8357644198110261,-0.8085379133964793,-0.0005300951545838185,0.0006250489695450303,-0.14234016828038087
3540,13.0,300.09312,7150.7355,0.0,-0.01769989162436192,-0.01769966256143163,0.0,0.0,0.0,-0.5433457807790535,-0.8251101862020352,-0.8051890610209732,-0.0003449478344262007,0.00045060929140917455,-0.13999635867906488
3541,13.0,300.13487000000003,7091.1766,0.0,-0.017704906113100494,-0.017704664771618805,0.0,0.0,0.0,-0.5252143592496215,-0.8252903218048132,-0.8050359487983623,-0.0025920518228155975,0.0009682431922881632,-0.14044033447538187
3542,13.0,300.26387,7100.0029,0.0,-0.017709920601838736,-0.01770966698180587,0.0,0.0,0.0,-0.5330586578137935,-0.8271138173472782,-0.7980511193665132,-0.003417894832019957,0.0070079290010037435,-0.13641661700327187
3543,13.0,300.3051,7129.6495,0.0,-0.017714902100519625,-0.01771466919199305,0.0,0.0,0.0,-0.5327218737455555,-0.8289769309686532,-0.8055366159377743,-0.006231547998080904,-0.001137421265304739,-0.13588282671809088
3544,13.0,299.95305,7114.4851,0.0,-0.0177199165892582,-0.017719671402180115,0.0,0.0,0.0,-0.5325528534963745,-0.8324276048467081,-0.7976453633639682,0.0026306269633976677,-0.006536188429421573,-0.14348763348862686
3545,13.0,300.02897,7143.9911,0.0,-0.01772489808793909,-0.01772467361236718,0.0,0.0,0.0,-0.5343734511435535,-0.8334931893143733,-0.8037282786168052,-0.0005866962778899145,0.0028152196507155473,-0.14535628958804886
3546,13.0,300.04901,7125.7394,0.0,-0.01772991257667733,-0.017729675822554358,0.0,0.0,0.0,-0.5298749550720865,-0.8298900212962682,-0.8062818816513262,0.005078035915888125,0.0035970949009806264,-0.14235993678983186
3547,13.0,300.08609,7097.3273,0.0,-0.017734894075358443,-0.017734678032741313,0.0,0.0,0.0,-0.5245348332025574,-0.8285057798046542,-0.8043696557976042,-0.0024603033706130377,0.0004371657423948996,-0.14291818693242686
3548,13.0,299.93613,7161.4617,0.0,-0.017739908564096685,-0.01773968024292849,0.0,0.0,0.0,-0.5407875167940724,-0.8316336929958552,-0.8044843253114212,-0.004704154025713856,-0.004307494881241646,-0.14127011537977485
3549,13.0,299.69744,7196.2966,0.0,-0.017744890062777685,-0.017744682453115446,0.0,0.0,0.0,-0.5440780667588244,-0.8300959339815903,-0.8133204842659821,0.001063309721190499,-0.0011235183593576292,-0.14089259865751688
3550,13.0,299.80237999999997,7169.9832,0.0,-0.01774990455151615,-0.017749651754024987,0.0,0.0,0.0,-0.5408761457803194,-0.8309335979717613,-0.8076861246999142,-0.0028468047841577575,0.0007974133493560702,-0.13612245023423986
3551,13.0,300.13014,7146.5582,0.0,-0.01775491904025439,-0.017754653964212164,0.0,0.0,0.0,-0.5361672381930864,-0.8296212465747422,-0.8065867382089132,0.0013083629406503688,-0.0003642277850764836,-0.14194168741355387
3552,13.0,299.97245,7193.3784,0.0,-0.01775990053893528,-0.01775965617439912,0.0,0.0,0.0,-0.5428205929872215,-0.8329883982470542,-0.8107984237070742,0.003789781531422316,-0.002561935800693378,-0.1306337149725439
3553,13.0,300.05277,7175.443,0.0,-0.017764915027673855,-0.017764658384586074,0.0,0.0,0.0,-0.5382910610651914,-0.8323281340843913,-0.8105363161712063,0.005845030372534584,0.005233838418839635,-0.14205238498697886
3554,13.0,300.13349,7147.2487,0.0,-0.017769896526354745,-0.01776966059477325,0.0,0.0,0.0,-0.5362917666303765,-0.8321963710413872,-0.8040970205931972,0.006856929100876214,0.005856709397162214,-0.13446327346049186
3555,13.0,300.12316,7175.3972,0.0,-0.017774911015092987,-0.017774662804960317,0.0,0.0,0.0,-0.5349005843755774,-0.8404306290390452,-0.8058103555847902,-0.004619420884776345,0.0013868920525505887,-0.14814415604568987
3556,13.0,299.98225,7175.8443,0.0,-0.017779892513773876,-0.017779665015147494,0.0,0.0,0.0,-0.5401477709459345,-0.8347792671362991,-0.8063504584180943,-0.004801652598036215,-0.007834623038967092,-0.13946883027950185
3557,13.0,299.6268,7143.2408,0.0,-0.01778490700251245,-0.01778466722533467,0.0,0.0,0.0,-0.5300098490578995,-0.8376398849511202,-0.8037170923357012,-0.0001473761226023909,-0.005982697218571245,-0.15330423350494984
3558,13.0,299.63476,7161.340999999999,0.0,-0.01778988850119334,-0.017789669435521627,0.0,0.0,0.0,-0.5359610823277404,-0.8281849645579922,-0.8127228085619962,0.0018603408624763482,-0.0013756244074635588,-0.13681739794782588
3559,13.0,299.89572000000004,7179.1391,0.0,-0.017794902989931582,-0.017794671645708804,0.0,0.0,0.0,-0.5324483772785634,-0.8374740564397543,-0.8123565895783532,8.78505436854236e-06,-0.006182273240417865,-0.1415470467646059
3560,13.0,300.06818,7143.7093,0.0,-0.017799917478670046,-0.01779967385589576,0.0,0.0,0.0,-0.5341081822673734,-0.8318638324910683,-0.8055372238878342,0.0010412213756355489,-0.005692277347084035,-0.13392018153939286
3561,13.0,300.04843999999997,7145.3419,0.0,-0.017804898977350936,-0.017804676066082936,0.0,0.0,0.0,-0.5336171004739075,-0.8312383532043383,-0.8071500546020082,0.0033324100621582673,0.0018079844059591685,-0.13996222228319588
3562,13.0,300.08447,7180.7472,0.0,-0.01780991346608929,-0.017809678276270113,0.0,0.0,0.0,-0.5439685344230144,-0.8329425790775322,-0.8058567421743682,0.004980713649083165,0.0024619782730283374,-0.1382668420833749
3563,13.0,299.89504,7158.2522,0.0,-0.0178148949647704,-0.01781468048645707,0.0,0.0,0.0,-0.5344604183996365,-0.8331709656500721,-0.8082985431928552,-0.004231794864945636,0.0024947157758092777,-0.14338568026356488
3564,13.0,299.98308,7188.215999999999,0.0,-0.017819909453508642,-0.017819682696644024,0.0,0.0,0.0,-0.5353401525339595,-0.8376326503454061,-0.8120653713671122,-0.005475680648732604,-0.001109431548517369,-0.14202215973649587
3565,13.0,299.86144,7239.1923,0.0,-0.01782489095218953,-0.017824651997553786,0.0,0.0,0.0,-0.5426157442145044,-0.8424099523143892,-0.8155080101718742,-0.004480100921201536,0.004856124518112175,-0.14075206086864686
3566,13.0,299.90358,7236.5185,0.0,-0.017829905440928107,-0.01782965420774074,0.0,0.0,0.0,-0.5500698604301685,-0.8355157277064823,-0.8141353298639012,-0.002051695271686558,0.005600535251229795,-0.13678251174688288
3567,13.0,299.89692,7181.1911,0.0,-0.01783491992966657,-0.01783465641792792,0.0,0.0,0.0,-0.5376166620636335,-0.8383052862917901,-0.8069808418353082,-0.002325019587486568,-0.004186908088165656,-0.14529145171414987
3568,13.0,300.02103999999997,7177.5844,0.0,-0.017839901428347238,-0.017839658628114874,0.0,0.0,0.0,-0.5480783882861255,-0.8318061785603782,-0.8019218563385253,0.0016132863727439685,-0.0015641262136672385,-0.13681921166550487
3569,13.0,300.08664,7191.5667,0.0,-0.017844915917085702,-0.01784466083830194,0.0,0.0,0.0,-0.5343838876195836,-0.8347075492942213,-0.8169652765981952,0.0024662945158043176,0.001783001812818578,-0.13872448662354087
3570,13.0,300.15893,7195.6831,0.0,-0.01784989741576659,-0.017849663048489117,0.0,0.0,0.0,-0.5371000565001485,-0.8376994843220023,-0.8125084453708402,0.005621963970969645,0.0007513973256046422,-0.13618291086770687
3571,13.0,300.24495,7179.1095,0.0,-0.017854911904504944,-0.017854665258676072,0.0,0.0,0.0,-0.5297079410581035,-0.8354158212466222,-0.8171462633310572,-0.003309649931787017,-0.002739293578322227,-0.14052185044592685
3572,13.0,300.03854,7179.8538,0.0,-0.017859893403185834,-0.01785966746886325,0.0,0.0,0.0,-0.5399267000391165,-0.8364838679120302,-0.8060857164319662,-0.0023959663462384674,-0.002136977492853258,-0.13644879782644787
3573,13.0,299.84117000000003,7200.0217,0.0,-0.017864907891924298,-0.017864669679050205,0.0,0.0,0.0,-0.5331850101012635,-0.8452429185339811,-0.8101988836229043,-0.003934112016741626,0.004874280440029025,-0.15104099755158584
3574,13.0,300.01923,7236.3983,0.0,-0.017869889390605187,-0.017869671889237382,0.0,0.0,0.0,-0.5502918128645735,-0.8333755408452621,-0.8160170467571122,-0.0022934749840483578,0.007639411693251232,-0.14182402881194187
3575,13.0,300.0296,7234.9132,0.0,-0.01787490387934354,-0.01787467409942456,0.0,0.0,0.0,-0.5357684634837304,-0.8449578406183461,-0.8185066630478182,0.0026897317669058573,0.0009086274979470523,-0.15193105670442786
3576,13.0,300.08942,7134.3405,0.0,-0.017879918368082004,-0.017879676309611514,0.0,0.0,0.0,-0.5279975546243014,-0.8313351185888882,-0.8093286841720222,0.001066402464470729,0.0012381685200977188,-0.14160658534048187
3577,13.0,300.1707,7165.4003,0.0,-0.017884899866762893,-0.01788467851979869,0.0,0.0,0.0,-0.5293464235549246,-0.8398445753137062,-0.8089117722858762,0.005661706071691885,0.003395073197367637,-0.14355172155745188
3578,13.0,300.14347999999995,7241.1455,0.0,-0.017889914355501246,-0.017889680729985646,0.0,0.0,0.0,-0.5472464896890235,-0.8399084809975131,-0.8139724600428272,-0.002176685649697148,-0.0014212784172192587,-0.13787316402202188
3579,13.0,299.95709,7216.3544,0.0,-0.017894895854182247,-0.017894650030895187,0.0,0.0,0.0,-0.5458450634757135,-0.8365713620581652,-0.8111751095642503,-0.006024495203746384,-0.0029484228260866774,-0.13914390123743386
3580,13.0,299.9039,7183.6413,0.0,-0.01789991034292082,-0.017899652241082364,0.0,0.0,0.0,-0.5419193779507785,-0.8364712934782892,-0.8052569082476693,-0.0012663630147302987,-0.002350262079277808,-0.14130095871281886
3581,13.0,299.86267000000004,7232.7906,0.0,-0.01790489184160149,-0.01790465445126932,0.0,0.0,0.0,-0.5417325650298415,-0.8395204467392172,-0.8173347379821583,-0.0014673414760403285,-0.00012190910472149188,-0.14309352986223187
3582,13.0,299.97764,7295.5166,0.0,-0.017909906330339953,-0.017909656661456497,0.0,0.0,0.0,-0.5443224930804474,-0.8446407642645533,-0.8286916301379962,-0.0002866300931981877,-0.0008021485203858951,-0.14022467432409785
3583,13.0,299.89442,7278.4672,0.0,-0.017914887829020842,-0.017914658871643563,0.0,0.0,0.0,-0.5478781295363615,-0.8437053317722333,-0.8208888241654192,0.0027638516196709173,-0.006733594880154073,-0.14397616189184087
3584,13.0,299.9575,7225.0627,0.0,-0.017919902317759195,-0.017919661081830518,0.0,0.0,0.0,-0.5445039864383594,-0.8354773153951913,-0.8162573491508283,0.005430032110527444,-0.004313527671012035,-0.13939203605442285
3585,13.0,300.08335,7150.2752,0.0,-0.01792491680649766,-0.017924663292017695,0.0,0.0,0.0,-0.5354924642889914,-0.8322142650381532,-0.8057983688361072,0.009043116807361142,0.0007505296390140084,-0.14628373766958086
3586,13.0,300.13114,7163.9416,0.0,-0.01792989830517855,-0.01792966550220465,0.0,0.0,0.0,-0.5356002031721244,-0.8389001958230032,-0.8031589637831182,0.002233612573440398,7.260048322685983e-05,-0.14373752122828887
3587,13.0,299.90106000000003,7254.1722,0.0,-0.017934912793916902,-0.017934667712391827,0.0,0.0,0.0,-0.5377423456060375,-0.8442618999196622,-0.8230829564619632,-0.006062963851742944,-0.0008037181258508032,-0.14997124862600986
3588,13.0,299.99595,7275.0123,0.0,-0.01793989429259779,-0.017939669922579005,0.0,0.0,0.0,-0.5417523031417895,-0.8470184164192093,-0.8226513828468702,-0.005976385785023354,-0.0023677126778000475,-0.13795358568245886
3589,13.0,299.92497000000003,7152.2591,0.0,-0.017944908781336255,-0.01794467213276596,0.0,0.0,0.0,-0.5275856177961465,-0.8388327437638462,-0.8076898027977772,-0.003278541735166877,-0.0019032893931400382,-0.14777945693719688
3590,13.0,299.91782,7185.5862,0.0,-0.017949890280017144,-0.017949674342953137,0.0,0.0,0.0,-0.5334488097647985,-0.8411811737856183,-0.8096087971621673,-0.001833637871990968,0.0003854097784169836,-0.13497088136308888
3591,13.0,300.16278,7337.8434,0.0,-0.017954904768755497,-0.017954676553140203,0.0,0.0,0.0,-0.5561134919766285,-0.8516519179340003,-0.8227557780046733,-0.0003371141243255737,0.0017761618680185284,-0.14557979229510687
3592,13.0,300.04655,7332.9653,0.0,-0.01795991925749396,-0.01795967876332727,0.0,0.0,0.0,-0.5566121934108466,-0.8485898963968022,-0.8238362673813091,8.412909290364502e-05,0.0014352730223004188,-0.13850077113396186
3593,13.0,300.08841,7250.8349,0.0,-0.017964900756175073,-0.01796464806423681,0.0,0.0,0.0,-0.5356954892115285,-0.8493435720861843,-0.8190336848223312,0.005681507714421155,0.004380492255545926,-0.14990592439206285
3594,13.0,300.29357000000005,7230.8752,0.0,-0.017969915244913315,-0.017969650274423876,0.0,0.0,0.0,-0.5377380494256134,-0.8426109710017281,-0.8176564854189122,0.005513364027901665,0.0033171269069249367,-0.14393498340777688
3595,13.0,299.92708999999996,7230.9926,0.0,-0.017974896743594204,-0.017974652484610942,0.0,0.0,0.0,-0.5388468287450415,-0.8418434543159802,-0.8173509094537542,0.0002724968755033477,-0.0065532982719351835,-0.14355591641286586
3596,13.0,300.07786,7285.6894,0.0,-0.01797991123233278,-0.01797965469479812,0.0,0.0,0.0,-0.5532554376845605,-0.8442892678048631,-0.8171229585787572,0.0003537252248749617,-0.007147878598190692,-0.14416867941084086
3597,13.0,300.23712,7302.6272,0.0,-0.017984892731013447,-0.017984656904985186,0.0,0.0,0.0,-0.5554853883721395,-0.8431596357983772,-0.8211712878957962,-0.004635653860653415,-0.0038193890033193464,-0.13462910197185787
3598,13.0,300.08747999999997,7227.5576,0.0,-0.01798990721975191,-0.017989659115172363,0.0,0.0,0.0,-0.5379238490964504,-0.8454532185922362,-0.8136199705980393,0.0038925820362179365,0.0018479741450058483,-0.14042453790632287
3599,13.0,300.00467000000003,7239.179,0.0,-0.0179948887184328,-0.017994661325359318,0.0,0.0,0.0,-0.5351153427342725,-0.8449975701547673,-0.8204167408113282,-0.0044415854610503555,0.005530401119058095,-0.13717574397819185
3600,13.0,299.89415,7374.383000000001,0.0,-0.017999903207171153,-0.017999663535546273,0.0,0.0,0.0,-0.5582673171841944,-0.8526678024842602,-0.8306931537230312,-0.005237309104407165,0.0026550571325837376,-0.14052530562876786
3601,13.0,299.84089,7389.0383,0.0,-0.018004917695909617,-0.01800466574573345,0.0,0.0,0.0,-0.5564005963924634,-0.8569696064463153,-0.8327129462073691,-0.004976267507644365,0.0016061261395873085,-0.13744898713265888
3602,13.0,299.98252,7247.5806,0.0,-0.018009899194590506,-0.018009667955920405,0.0,0.0,0.0,-0.5485303180957275,-0.8430420177267691,-0.8115111843574182,-0.0002448092997632968,0.0034760227611067363,-0.14497089991251388
3603,13.0,299.94497,7205.4873,0.0,-0.01801491368332886,-0.018014670166107583,0.0,0.0,0.0,-0.5375920806162074,-0.8426334854189502,-0.8100626420144582,0.0005694498492628244,-0.0031427543667407075,-0.14439379318555787
3604,13.0,300.05985,7275.6768,0.0,-0.01801989518200975,-0.01801967237629465,0.0,0.0,0.0,-0.5435778961119615,-0.8469701755819482,-0.8210760119888932,3.218149496081627e-05,-0.003752855252727976,-0.14983911068046887
3605,13.0,300.16733,7303.6466,0.0,-0.018024909670748213,-0.018024674586481826,0.0,0.0,0.0,-0.5385816105313664,-0.8525865296937392,-0.8289580642517912,0.0015788921047245183,-0.0005012905516685255,-0.1491126204912699
3606,13.0,299.99496,7243.5575,0.0,-0.018029891169429324,-0.018029676796668892,0.0,0.0,0.0,-0.5404415425474275,-0.8466188108447711,-0.8148002448445233,0.0027187331125930673,0.002357584128475438,-0.14816127997237985
3607,13.0,300.13111000000004,7228.5645,0.0,-0.018034905658167566,-0.018034679006855958,0.0,0.0,0.0,-0.5362100581423125,-0.8409364333564643,-0.8201566091131552,0.005677868525361994,0.0005761259717867065,-0.14177376147448087
3608,13.0,299.98585,7254.9909,0.0,-0.018039887156848455,-0.0180396483077655,0.0,0.0,0.0,-0.5511925314084675,-0.8463957539677571,-0.8077478012335012,0.002006781745103938,0.0013286221671247986,-0.14541460213130386
3609,13.0,300.07203,7365.9968,0.0,-0.01804490164558692,-0.018044650517952565,0.0,0.0,0.0,-0.5552479737412085,-0.8522721891152161,-0.8315589354034771,-0.0027797164817866572,0.0005198397666116905,-0.1381448771688379
3610,13.0,299.98242,7394.0238,0.0,-0.018049916134325272,-0.01804965272813963,0.0,0.0,0.0,-0.5562655098891315,-0.8537416550727411,-0.8375914515963402,-0.00843357381687893,0.003858282709732856,-0.14228768192520086
3611,13.0,299.97037,7275.7357,0.0,-0.01805489763300616,-0.01805465493832681,0.0,0.0,0.0,-0.5389220017699605,-0.8458728459886503,-0.8268471299209582,-0.005549658849133684,0.00043389156655176356,-0.13783528873328388
3612,13.0,299.92806,7202.1176,0.0,-0.018059912121744626,-0.018059657148513764,0.0,0.0,0.0,-0.5404067880689974,-0.8345740839910492,-0.8142830515959802,-0.0037565314254157864,-0.0008335179024843121,-0.14660046951833985
3613,13.0,299.86498,7336.548000000001,0.0,-0.018064893620425404,-0.01806465935870094,0.0,0.0,0.0,-0.5551339729724575,-0.8483483882354672,-0.8266450371885131,-0.0005335705517643135,0.001027422429148699,-0.13924661440007088
3614,13.0,299.90133,7347.299,0.0,-0.018069908109163868,-0.018069661568887896,0.0,0.0,0.0,-0.5656106243689225,-0.8464990649479532,-0.8212857547595932,0.0016533886838767586,0.00026433629092046073,-0.14526989988452285
3615,13.0,299.8898,7259.5276,0.0,-0.018074889607844757,-0.01807466377907485,0.0,0.0,0.0,-0.5426149437469255,-0.8427530995932552,-0.8213470665231443,0.005227267289291115,-0.003261114036096897,-0.14188628289808586
3616,13.0,299.7525,7244.6299,0.0,-0.01807990409658311,-0.018079665989262028,0.0,0.0,0.0,-0.5360820846546825,-0.8468191709195451,-0.8192853356171672,0.0033433188140598764,-0.0007072568277883143,-0.14959267812364788
3617,13.0,300.05852999999996,7313.4724,0.0,-0.018084918585321574,-0.018084668199449094,0.0,0.0,0.0,-0.5468556487279506,-0.8467168225269441,-0.8295405209392752,0.003858528017582067,0.0034288821108043165,-0.14006059873540488
3618,13.0,300.01957999999996,7367.8259,0.0,-0.018089900084002464,-0.01808967040963627,0.0,0.0,0.0,-0.5524157978566945,-0.8559242565831472,-0.8312950546799343,-0.003963714523713166,0.0011665272797272788,-0.14489000202452987
3619,13.0,299.83197,7343.1368,0.0,-0.018094914572740706,-0.01809467261982345,0.0,0.0,0.0,-0.5485352526237145,-0.8539891008796622,-0.8296058654382242,-0.005638326338884485,-0.004230042246247666,-0.13969695340701588
3620,13.0,300.23365,7293.9943,0.0,-0.018099896071421817,-0.018099674830010404,0.0,0.0,0.0,-0.5537991071582166,-0.8440584392995822,-0.8193345897045282,-0.003948394790151226,-0.0028495645734551273,-0.13994563537905885
3621,13.0,299.99023,7235.6848,0.0,-0.01810491056016017,-0.01810467704019758,0.0,0.0,0.0,-0.5335704808368065,-0.8476315644522221,-0.8182654588615131,0.0031593292132015174,-0.0019633529338928483,-0.14688976255439087
3622,13.0,299.64862999999997,7299.1686,0.0,-0.01810989205884117,-0.018109646341107122,0.0,0.0,0.0,-0.5430300317828916,-0.8534724142561692,-0.8222625379884942,0.003334952002684137,-0.002166768160368368,-0.14645021466101088
3623,13.0,299.91874,7388.0681,0.0,-0.018114906547579523,-0.018114648551294077,0.0,0.0,0.0,-0.5516935025229095,-0.8565112627635801,-0.8375834570530513,0.002214133144242928,-0.005582095011334885,-0.14901719259685184
3624,13.0,299.80187,7272.7601,0.0,-0.018119888046260413,-0.018119650761481254,0.0,0.0,0.0,-0.5406522985682275,-0.8517873489423662,-0.8182978119372062,0.0029381777530005674,-0.0014001095961300588,-0.15317583445227784
3625,13.0,299.93203,7210.026999999999,0.0,-0.018124902534998877,-0.01812465297166821,0.0,0.0,0.0,-0.5342718728210285,-0.8422356226346843,-0.8151606883025961,0.0034064245369129264,0.004227242737546376,-0.15192636535646487
3626,13.0,300.04609,7337.4616,0.0,-0.01812991702373723,-0.018129655181855386,0.0,0.0,0.0,-0.5607268298144295,-0.8494546749596492,-0.8202236052097672,-5.315825044056085e-05,0.0024022389723075276,-0.14333707465626785
3627,13.0,299.87108,7378.7078,0.0,-0.01813489852241812,-0.018134657392042564,0.0,0.0,0.0,-0.5553372309425175,-0.8516663162179212,-0.8359393675732921,-0.006873908943401993,-0.003035895997944607,-0.14107565242058287
3628,13.0,300.07989,7372.3381,0.0,-0.018139913011156583,-0.01813965960222952,0.0,0.0,0.0,-0.5548480540592394,-0.8545925723742201,-0.8315660585516803,-0.004763596140180336,0.0021403302361091476,-0.14168731097594886
3629,13.0,300.03535,7348.1125,0.0,-0.01814489450983725,-0.018144661812416696,0.0,0.0,0.0,-0.5499825588015526,-0.8515534300242801,-0.8321067288050402,0.0037920729965234662,0.002597807083383598,-0.13811844147372887
3630,13.0,300.1693,7314.0561,0.0,-0.018149908998575826,-0.01814966402260365,0.0,0.0,0.0,-0.5490742307494075,-0.8486996212501311,-0.8255165602871413,0.007413078269388864,0.0024037588474575275,-0.14142535542759588
3631,13.0,300.06167,7346.8848,0.0,-0.018154890497256715,-0.018154666232790717,0.0,0.0,0.0,-0.5528061524577195,-0.8548954328291101,-0.8255679421997122,0.0009123542216823512,-0.001992522681746678,-0.13690315943628986
3632,13.0,299.93638,7394.1921,0.0,-0.018159904985994957,-0.018159668442977894,0.0,0.0,0.0,-0.5595928104350105,-0.8587857356605532,-0.8292712193276972,0.0012993785533386786,-0.003966692567082077,-0.14762707425465785
3633,13.0,299.85292000000004,7352.8653,0.0,-0.018164886484676068,-0.01816467065316485,0.0,0.0,0.0,-0.5470520469948335,-0.8553290228119022,-0.8327063904792222,-0.0019210545044933182,6.403983204073933e-05,-0.14308960858434486
3634,13.0,299.97663,7219.3524,0.0,-0.01816990097341442,-0.018169672863352027,0.0,0.0,0.0,-0.5357460909215225,-0.8452568203253532,-0.8134999612561952,-0.0061746239114379336,-0.00020577264402567882,-0.15406174941221085
3635,13.0,299.65947,7267.4372,0.0,-0.018174915462152663,-0.01817467507353898,0.0,0.0,0.0,-0.5371332708384265,-0.8473859627604832,-0.8246001971617032,-0.003294065334648937,-0.006215050563927733,-0.14585735189499985
3636,13.0,299.88347999999996,7432.7506,0.0,-0.018179896960833775,-0.018179644374448523,0.0,0.0,0.0,-0.5582786959828174,-0.8653683554652072,-0.8357235351694912,-0.004066833594340226,-0.0010641105940695388,-0.15124509651922885
3637,13.0,299.72916000000004,7379.7921,0.0,-0.018184911449572017,-0.0181846465846357,0.0,0.0,0.0,-0.5534903090577404,-0.8540446168526411,-0.8357376092133803,0.0047517357437848054,0.0002644266019018737,-0.14220969206500386
3638,13.0,299.77286000000004,7281.1979,0.0,-0.018189892948253128,-0.018189648794822655,0.0,0.0,0.0,-0.5457086192172474,-0.8525245491851222,-0.8150691816860652,0.005445575164411426,0.0016103073161249585,-0.14516927401709187
3639,13.0,300.0899,7347.2901,0.0,-0.01819490743699148,-0.018194651005009832,0.0,0.0,0.0,-0.5454367236854135,-0.8530434750913363,-0.8349125196569502,0.0014758715220071785,-0.0018936598694896782,-0.13845817409975786
3640,13.0,300.33157,7418.8303,0.0,-0.01819988893567237,-0.01819965321519701,0.0,0.0,0.0,-0.5581488581150035,-0.8650382993776332,-0.8319520055147702,0.002264078470822148,-0.001228234616117319,-0.14313567093389087
3641,13.0,300.15252000000004,7411.661,0.0,-0.018204903424410834,-0.018204655425383964,0.0,0.0,0.0,-0.5495895900152694,-0.8642395036612982,-0.8391307912807612,-0.003010102703399007,0.0023707242597472674,-0.14533183986313586
3642,13.0,300.13723999999996,7375.2442,0.0,-0.018209917913149187,-0.01820965763557114,0.0,0.0,0.0,-0.5529380168257335,-0.8600048173858671,-0.8289472326082222,-0.006912419337302674,0.00044584588109906247,-0.14571713834616185
3643,13.0,300.11122,7338.6711,0.0,-0.018214899411830077,-0.018214659845758097,0.0,0.0,0.0,-0.5480744366107354,-0.8556517834987563,-0.8270465476731392,-0.006637652356010285,-0.0032145864021049767,-0.14832660185869587
3644,13.0,300.04149,7358.2647,0.0,-0.01821991390056854,-0.018219662055945274,0.0,0.0,0.0,-0.5521378126917594,-0.8565911271364622,-0.8279997931022173,-0.0010416271823005991,-0.001349938314778539,-0.14594029654818585
3645,13.0,300.03303,7441.4166,0.0,-0.018224895399249208,-0.01822466426613234,0.0,0.0,0.0,-0.5572689111981595,-0.8630017072066372,-0.8417342056901981,0.0034754857385537363,0.0036246572288758166,-0.14386863579122888
3646,13.0,299.90902,7407.9726,0.0,-0.018229909887987672,-0.018229666476319295,0.0,0.0,0.0,-0.5616036052584604,-0.8513603552177252,-0.8388747429804911,0.0005165036507899415,-0.0002843598658191337,-0.13812614217448888
3647,13.0,299.79301,7314.6677,0.0,-0.018234891386668672,-0.018234668686506472,0.0,0.0,0.0,-0.5431275165750125,-0.8527267837725813,-0.8276220129349332,-0.00029381144248693175,-0.003284820744711567,-0.14268385258179986
3648,13.0,299.80294,7355.0862,0.0,-0.018239905875406914,-0.018239670896693427,0.0,0.0,0.0,-0.5523419724544084,-0.8552253166641672,-0.8281952591790082,0.003182450769883437,-0.0036264807750807865,-0.14295362028842387
3649,13.0,300.02451,7481.4968,0.0,-0.018244887374088026,-0.018244673106880605,0.0,0.0,0.0,-0.5694928414645675,-0.8631235707961642,-0.8415718019641703,0.003731044537700426,0.002944845546608627,-0.14065626820419286
3650,13.0,300.055,7455.4342,0.0,-0.018249901862826268,-0.018249642407790145,0.0,0.0,0.0,-0.5606540379272454,-0.8673434534876341,-0.8382683431931442,-0.0026624565940890073,-0.002112509326788438,-0.14674559733016285
3651,13.0,299.99467000000004,7341.54,0.0,-0.018254916351564843,-0.0182546446179771,0.0,0.0,0.0,-0.5417959032935925,-0.8606834619053442,-0.8291654664147602,-0.007468550267313524,-0.0029599759037268773,-0.14637139393573187
3652,13.0,300.14779,7328.11,0.0,-0.018259897850245732,-0.018259646828164278,0.0,0.0,0.0,-0.5439282779965415,-0.8600198134873472,-0.8236143656094091,-0.003800052442385976,-0.0007747542501522914,-0.14774372973867086
3653,13.0,300.13711,7331.0674,0.0,-0.018264912338984196,-0.018264649038351455,0.0,0.0,0.0,-0.5414087505628835,-0.8601007620378361,-0.8269519202463003,0.0005856600270126444,0.004091708478995186,-0.15104604353708387
3654,13.0,300.02322999999996,7385.5935,0.0,-0.018269893837665085,-0.01826965124853841,0.0,0.0,0.0,-0.5517617651821465,-0.8641942417793311,-0.8290799785038232,0.0016625556588564683,0.003029106918299577,-0.15047490485321685
3655,13.0,300.05102,7405.6099,0.0,-0.01827490832640344,-0.018274653458725587,0.0,0.0,0.0,-0.5585367201207825,-0.8570177662235683,-0.8355660254414463,-0.00029834836100219074,-0.0007508167839598473,-0.14736770249405987
3656,13.0,299.92725,7338.7557,0.0,-0.018279889825084328,-0.018279655668912653,0.0,0.0,0.0,-0.5445647510468565,-0.8566869603309202,-0.8295467726923922,0.004873031710605785,-0.001912806446029298,-0.14742730186494188
3657,13.0,299.84061,7323.7951,0.0,-0.018284904313822792,-0.01828465787909972,0.0,0.0,0.0,-0.5453441632887785,-0.8528600768232363,-0.8280465951243362,0.0055027762736317345,0.0007667849975857873,-0.14542379230971086
3658,13.0,300.0633,7472.4955,0.0,-0.01828988581250346,-0.018289660089286897,0.0,0.0,0.0,-0.5619573207358695,-0.8629954554535202,-0.8464992675979731,0.0008148592058678421,-0.007497172860113354,-0.14040290501668787
3659,13.0,299.73695,7488.994000000001,0.0,-0.018294900301241923,-0.018294662299473963,0.0,0.0,0.0,-0.5670030326563424,-0.8675184620449062,-0.8419456811185692,-0.0029947319020320272,-0.004780772046600466,-0.14838049663151484
3660,13.0,300.07518999999996,7387.899,0.0,-0.018299914789980498,-0.01829966450966114,0.0,0.0,0.0,-0.5550272574719255,-0.8586637099510102,-0.8320458628715331,0.00026885998652191476,0.0019134351677163482,-0.14502189679004684
3661,13.0,300.17177000000004,7385.1704,0.0,-0.018304896288661165,-0.018304666719848095,0.0,0.0,0.0,-0.5515628033925105,-0.8627607158028533,-0.8305838645672452,0.004494965604143566,0.007532111851386563,-0.14839177410512785
3662,13.0,300.06154,7441.6144,0.0,-0.01830991077739963,-0.01830966893003505,0.0,0.0,0.0,-0.5578339703814265,-0.8637255933430793,-0.8405054068964252,-0.002432152749709788,0.001176264207888239,-0.14536234882364688
3663,13.0,300.00014,7441.7555,0.0,-0.01831489227608052,-0.018314671140222227,0.0,0.0,0.0,-0.5575089602793505,-0.8669861713698732,-0.8376127298484403,-0.0019810157069860283,-0.00018877027695017582,-0.14949210291872186
3664,13.0,300.05937,7395.6852,0.0,-0.018319906764819094,-0.018319673350409182,0.0,0.0,0.0,-0.5527808921327265,-0.8599581977487663,-0.8353645305265602,-0.0012396240538663688,-0.001270111736125269,-0.14512625141784585
3665,13.0,300.04938,7345.104,0.0,-0.018324888263499983,-0.018324642651318723,0.0,0.0,0.0,-0.5506561877330345,-0.8540999301756003,-0.8279720705794812,-0.0034088257369999067,0.0012081725681123488,-0.14094588548027587
3666,13.0,300.29889,7361.1056,0.0,-0.018329902752238447,-0.0183296448615059,0.0,0.0,0.0,-0.5559058972961405,-0.8559012558058772,-0.8257851323586473,0.003362314821634637,-0.004010473178727886,-0.14164069133884788
3667,13.0,299.90212,7446.098000000001,0.0,-0.01833491724097669,-0.018334647071692856,0.0,0.0,0.0,-0.5567160920761005,-0.8650536703816502,-0.8416580903426862,-0.002962625856713407,-0.001135310260046399,-0.14826352703997087
3668,13.0,300.04762,7487.0075,0.0,-0.01833989873965758,-0.018339649281880033,0.0,0.0,0.0,-0.5633062301964965,-0.8650120663325441,-0.8475450227611813,0.003439011470729007,0.0033289872019954567,-0.14755849748788985
3669,13.0,299.93532000000005,7398.4821,0.0,-0.018344913228396154,-0.0183446514920671,0.0,0.0,0.0,-0.5472822878150565,-0.8652336033344081,-0.8364379271524962,-0.0037074040956422967,0.006012561144068584,-0.14883514195138486
3670,13.0,299.82947,7358.1122,0.0,-0.018349894727077043,-0.018349653702254276,0.0,0.0,0.0,-0.5427894963416524,-0.8577349446443482,-0.8361579458848643,0.0017735733179880585,0.001061301054192259,-0.14721962612444586
3671,13.0,299.77943999999997,7462.294,0.0,-0.018354909215815285,-0.018354655912441453,0.0,0.0,0.0,-0.5634837313490144,-0.8690027518513941,-0.8358645694509101,-5.0342147742383154e-05,-0.0023100273363569476,-0.14886439448177186
3672,13.0,299.99707,7472.4328,0.0,-0.018359890714496174,-0.01835965812262841,0.0,0.0,0.0,-0.5617388437493075,-0.8692551929813082,-0.8404389579548672,0.0011313332534038988,0.0005384237461657865,-0.14452395529340387
3673,13.0,300.01153,7362.9116,0.0,-0.01836490520323475,-0.018364660332815586,0.0,0.0,0.0,-0.5445291251733405,-0.8637901880369542,-0.8298219511545503,-0.002165743663192258,0.002016243373212728,-0.14788925271803285
3674,13.0,299.93404,7360.0048,0.0,-0.018369886701915417,-0.01836966254300254,0.0,0.0,0.0,-0.5451767034447514,-0.8593121292200042,-0.8327688472153861,-0.0015584158400786686,-0.007476678762265742,-0.14143308652585887
3675,13.0,299.90556000000004,7430.8640000000005,0.0,-0.01837490119065388,-0.018374664753189718,0.0,0.0,0.0,-0.5554849932046005,-0.8649834521497203,-0.8383286619715972,-0.005179509974977835,-0.004184922827244726,-0.14525914930096187
3676,13.0,300.1893,7460.8386,0.0,-0.018379915679392345,-0.018379666963376673,0.0,0.0,0.0,-0.5602475827821315,-0.8647768403218292,-0.8428841938911932,0.0009093246241483532,0.0016794901077777683,-0.14546647040392285
3677,13.0,300.11394,7546.568,0.0,-0.018384897178073234,-0.018384669173563628,0.0,0.0,0.0,-0.5760538385120875,-0.8759035220549473,-0.8420108736300033,-0.003544798935494417,0.005684335898100275,-0.14292576604317486
3678,13.0,300.08027000000004,7535.2488,0.0,-0.018389911666811587,-0.018389671383750805,0.0,0.0,0.0,-0.5739933235062304,-0.8680453419644052,-0.8484888145668261,0.0027544910125970974,0.0006440035858532053,-0.14308293126618588
3679,13.0,300.10062999999997,7428.5892,0.0,-0.0183948931654927,-0.018394640684660568,0.0,0.0,0.0,-0.5533836644847154,-0.8688960870133671,-0.8358258835620922,0.001070548987854959,-0.00025187612139323775,-0.15195542536933285
3680,13.0,300.02628,7440.9028,0.0,-0.01839990765423094,-0.018399642894847523,0.0,0.0,0.0,-0.5532525499217754,-0.8681505477222882,-0.8404455542130183,0.0038065362297758764,0.004808883556049855,-0.15207926479655487
3681,13.0,300.1311,7502.7088,0.0,-0.01840488915291183,-0.01840464510503448,0.0,0.0,0.0,-0.5604573356853325,-0.8714744741453341,-0.8487043125980941,-0.0034262431009188664,-0.0016131397554544986,-0.14690740323863186
3682,13.0,299.97161,7417.2133,0.0,-0.018409903641650405,-0.018409647315221545,0.0,0.0,0.0,-0.5538124313970315,-0.8692195671077921,-0.8316156267465723,-0.005819729821512614,-0.005633279137486365,-0.14865833994143587
3683,13.0,299.76142999999996,7323.8933,0.0,-0.018414885140331294,-0.01841464952540872,0.0,0.0,0.0,-0.5484209985424385,-0.8540069847439271,-0.8238527022979312,-0.010856366871439989,-0.006828296172925364,-0.14668047574623586
3684,13.0,299.99408,7406.2072,0.0,-0.018419899629069536,-0.0184196517355959,0.0,0.0,0.0,-0.5528172982088194,-0.8671513716661772,-0.8313333960637183,0.005221236424695915,-0.004773955203902696,-0.14333429835099387
3685,13.0,300.0238,7488.2325,0.0,-0.018424914117808,-0.018424653945782854,0.0,0.0,0.0,-0.5589156351281784,-0.8698793246454052,-0.8474407289283883,0.0013768745554369388,0.004338304169082286,-0.14429993582879486
3686,13.0,299.93102999999996,7509.6296,0.0,-0.018429895616489,-0.01842965615597003,0.0,0.0,0.0,-0.5608461602787065,-0.8698363527086642,-0.8520573699615152,0.003125128678601187,-0.002995802907387727,-0.14415551729204185
3687,13.0,299.95956,7500.552,0.0,-0.018434910105227242,-0.018434658366156986,0.0,0.0,0.0,-0.5601212203621604,-0.8745065744070792,-0.8453527244473182,0.001982441755176768,0.0003003878713334747,-0.15391665199789084
3688,13.0,299.97994,7460.0702,0.0,-0.018439891603908132,-0.018439660576344163,0.0,0.0,0.0,-0.5596079078615005,-0.8647896376705922,-0.8432775071825102,0.004202100152214996,0.004082034473665436,-0.14473718364444785
3689,13.0,299.91691000000003,7446.3946,0.0,-0.018444906092646596,-0.01844466278653134,0.0,0.0,0.0,-0.5641659222438415,-0.8663851114105531,-0.8329669882724411,0.005524204486746535,0.004505124652296186,-0.15005627044190087
3690,13.0,299.86114,7506.3395,0.0,-0.018449887591327374,-0.018449664996718296,0.0,0.0,0.0,-0.5674104402565504,-0.8674035898810691,-0.8469257445650632,-0.0041916061235793165,-0.0050837355490256355,-0.14553394272808184
3691,13.0,299.89365,7490.9766,0.0,-0.018454902080065838,-0.018454667206905473,0.0,0.0,0.0,-0.5641049144553205,-0.8663874722832862,-0.8465774601081902,-0.0076863977215883925,-0.005403543625088235,-0.14710735801336586
3692,13.0,300.26256,7410.8771,0.0,-0.018459916568804302,-0.018459669417092428,0.0,0.0,0.0,-0.5444289654009554,-0.8648797257369831,-0.8434129077933732,0.00028421980425781074,-0.001058826089497999,-0.14725652869308786
3693,13.0,300.28445,7422.2869,0.0,-0.01846489806748519,-0.01846463871800197,0.0,0.0,0.0,-0.5508883841259504,-0.8679263458726612,-0.8373751530974932,-9.49581091151357e-05,0.0016066053055595986,-0.14412481581401188
3694,13.0,300.09379,7525.0062,0.0,-0.018469912556223766,-0.018469640928189146,0.0,0.0,0.0,-0.5675894815492204,-0.8725515995316381,-0.8472728840493232,0.0015298225302067287,-0.0015838048478343685,-0.14289735451037086
3695,13.0,299.96981,7530.840999999999,0.0,-0.018474894054904656,-0.0184746431383761,0.0,0.0,0.0,-0.5725236143686815,-0.8715651701617851,-0.8450988242372601,-0.003905124957880827,-0.000917654137787912,-0.14094041392973586
3696,13.0,300.07782000000003,7453.5921,0.0,-0.018479908543642898,-0.018479645348563167,0.0,0.0,0.0,-0.5560119643166085,-0.8647084459400791,-0.8449854719485733,0.007465329854520693,0.003369107650305037,-0.14692575319794285
3697,13.0,300.07689,7458.0326,0.0,-0.018484890042323787,-0.018484647558750344,0.0,0.0,0.0,-0.5553123151225585,-0.8656789875483641,-0.8460643705225522,0.004186311993131826,-0.0034664432920113166,-0.14386767320363386
3698,13.0,299.9856,7502.3564,0.0,-0.01848990453106225,-0.0184896497689373,0.0,0.0,0.0,-0.5551815957271574,-0.8722827234851022,-0.8530647026809312,0.0014169799063200286,-0.004521297339792305,-0.15338711736312985
3699,13.0,299.93105,7539.130999999999,0.0,-0.01849488602974314,-0.018494651979124477,0.0,0.0,0.0,-0.5672723545329225,-0.8782003371166252,-0.8462348903818813,-0.005504412672543235,-0.0026141159516931576,-0.15594112569769086
3700,13.0,299.97596,7541.8381,0.0,-0.018499900518481494,-0.018499654189311432,0.0,0.0,0.0,-0.5706513207014005,-0.8762299507071631,-0.8456491912940772,-0.003975507032351996,0.007478700398865263,-0.15428718742695988
3701,13.0,300.15229,7455.218000000001,0.0,-0.018504915007219958,-0.01850465639949861,0.0,0.0,0.0,-0.5622452256192835,-0.8665043405498201,-0.8374505591699352,-0.0032846291391176565,0.0036093088203360464,-0.14683193637118386
3702,13.0,300.08374,7407.5705,0.0,-0.018509896505900847,-0.018509658609685786,0.0,0.0,0.0,-0.5498557606840385,-0.867290470639905,-0.8345702235081682,0.002021452694626848,-0.0011309332222644189,-0.14794695731122787
3703,13.0,299.82788,7502.7322,0.0,-0.0185149109946392,-0.01851466081987274,0.0,0.0,0.0,-0.5601606155260485,-0.8726548497168282,-0.8478277803340871,0.0009811919611461071,0.0038476042695789765,-0.14839524955297087
3704,13.0,299.95715,7567.7476,0.0,-0.01851989249332009,-0.01851966303005992,0.0,0.0,0.0,-0.5660933975115685,-0.8774526497353341,-0.8568602463630222,0.0017299494561327183,-0.0006005536281125284,-0.14577911885477887
3705,13.0,300.1109,7477.7139,0.0,-0.018524906982058553,-0.018524665240246874,0.0,0.0,0.0,-0.5593197294005594,-0.8724507102191812,-0.8412678775966753,-0.0024118179347778976,-0.001993352837553608,-0.15151147997051884
3706,13.0,300.12008,7469.1118,0.0,-0.018529888480739443,-0.01852966745043405,0.0,0.0,0.0,-0.5612125616473674,-0.8692989755181292,-0.8399119361803542,-0.0025821063677840574,-0.004552055965127946,-0.14754741253179585
3707,13.0,300.37633,7573.3701,0.0,-0.018534902969477796,-0.018534669660621117,0.0,0.0,0.0,-0.5705347361448945,-0.8796551514777042,-0.8519255055935012,0.001271173622230069,-0.001025692000627919,-0.14672952718357687
3708,13.0,300.21414,7567.2659,0.0,-0.018539884468158907,-0.018539638961530658,0.0,0.0,0.0,-0.5715310548357234,-0.8736053087081312,-0.8551235052941192,0.004210841663477716,0.007948765865382111,-0.14817300327603686
3709,13.0,300.21731,7525.4436,0.0,-0.01854489895689715,-0.018544641171717724,0.0,0.0,0.0,-0.5611577549494584,-0.8733300795834682,-0.8530590994078782,0.00044289784006561363,-0.002243752471166128,-0.14668625127180585
3710,13.0,300.30817,7496.8174,0.0,-0.018549913445635613,-0.0185496433819049,0.0,0.0,0.0,-0.5591016881115405,-0.874995366255319,-0.8447482397026602,0.004541117626323415,-0.005035250822465565,-0.15363035818213586
3711,13.0,300.06681000000003,7491.0125,0.0,-0.018554894944316502,-0.018554645592091967,0.0,0.0,0.0,-0.5634792730485745,-0.8716173221444322,-0.8419841643573672,5.1943866142710445e-05,0.0006593682469245793,-0.14757538836705686
3712,13.0,299.81694,7544.951,0.0,-0.018559909433054855,-0.018559647802278922,0.0,0.0,0.0,-0.5723484335588924,-0.8741061177025573,-0.8470221451795772,0.0012549890797077788,0.004971113914985745,-0.15168739032037984
3713,13.0,299.90679,7599.8954,0.0,-0.018564890931735745,-0.018564650012465878,0.0,0.0,0.0,-0.5720810875200074,-0.8817214724066342,-0.8563758520202162,-0.007818118208088191,-0.005014650029382425,-0.13935959178622087
3714,13.0,299.74947000000003,7507.2774,0.0,-0.01856990542047421,-0.018569652222653055,0.0,0.0,0.0,-0.5593954293155304,-0.8717666549441703,-0.8508627886236191,-0.0069416467390871935,-0.0029951861420518568,-0.14691598546697884
3715,13.0,300.09382,7459.7094,0.0,-0.018574886919155098,-0.018574654432840232,0.0,0.0,0.0,-0.5476488513037335,-0.87591398892848,-0.8440025484240662,0.0016573045915382284,-0.001091012485549549,-0.14646377194734886
3716,13.0,300.20595,7522.2755,0.0,-0.01857990140789345,-0.018579656643027187,0.0,0.0,0.0,-0.5578070787237724,-0.8789976332228122,-0.8497791987016771,-0.0016279152723877287,0.0013196736488666487,-0.15042080743037786
3717,13.0,300.11559,7587.924,0.0,-0.018584915896631915,-0.018584658853214364,0.0,0.0,0.0,-0.5762479367012434,-0.8790901530894432,-0.8512013560120332,0.0003177216927816897,-0.006674291479626285,-0.14602589591663384
3718,13.0,300.06907,7552.8615,0.0,-0.018589897395312804,-0.01858966106340143,0.0,0.0,0.0,-0.5677180427219084,-0.8793428475318822,-0.8488204006620512,-0.0037765685474682965,-0.003145779323589247,-0.15385706275950986
3719,13.0,299.9775,7486.1717,0.0,-0.018594911884051157,-0.018594663273588496,0.0,0.0,0.0,-0.5576571481064755,-0.8745582906921832,-0.8433938181614892,0.0033253010994566666,0.005126729473293804,-0.15533521227039185
3720,13.0,299.68503,7540.2279,0.0,-0.018599893382732047,-0.018599665483775674,0.0,0.0,0.0,-0.5589952664535375,-0.8766920738127713,-0.8563536618430262,-0.00011947231929099989,0.007319609899339254,-0.14732821613766287
3721,13.0,299.7975,7592.7109,0.0,-0.01860490787147051,-0.01860466769396274,0.0,0.0,0.0,-0.5678119406086755,-0.8803366736274651,-0.8598459195051851,0.00011532710299939889,-0.0006747412774417794,-0.15057168037026786
3722,13.0,299.83938,7597.1043,0.0,-0.0186098893701514,-0.01860963699487228,0.0,0.0,0.0,-0.5712730509627605,-0.8794039465129122,-0.8586529998974531,-0.0034817656600235167,-0.0034353305357657264,-0.14413609328762486
3723,13.0,299.8962,7563.4531,0.0,-0.018614903858889864,-0.018614639205059347,0.0,0.0,0.0,-0.5768589062465415,-0.8722304296474411,-0.8500115572146091,0.0006491181379854723,-0.0015519378282143385,-0.14627936042914885
3724,13.0,300.11036,7496.8777,0.0,-0.018619885357570753,-0.018619641415246413,0.0,0.0,0.0,-0.5653766851858344,-0.8689668827978542,-0.8445200456476393,-0.0015191254462510087,0.004025527542088636,-0.14244700537092486
3725,13.0,300.01945,7527.8671,0.0,-0.018624899846309106,-0.01862464362543359,0.0,0.0,0.0,-0.5676650092116744,-0.8741853437278763,-0.8464332543539581,0.0021104045023557076,-0.002091269071567188,-0.14538740649861986
3726,13.0,300.02465,7601.7484,0.0,-0.01862991433504757,-0.018629645835620545,0.0,0.0,0.0,-0.5712052543985695,-0.8771044767359721,-0.8624319668079081,-0.0005812704857244305,-1.050214172923069e-05,-0.14384421646381887
3727,13.0,299.98729,7572.8918,0.0,-0.01863489583372846,-0.0186346480458075,0.0,0.0,0.0,-0.5657676983994244,-0.880096198981232,-0.8561061045785943,0.006926298431872433,0.001031144198091009,-0.14834836647084385
3728,13.0,299.90801,7473.5327,0.0,-0.018639910322466813,-0.018639650255994678,0.0,0.0,0.0,-0.5556214982580725,-0.8731992183330531,-0.8429466100973532,-0.0013286184180994287,0.004899466797764725,-0.15292610883263186
3729,13.0,299.9667,7514.243,0.0,-0.018644891821147702,-0.018644652466181633,0.0,0.0,0.0,-0.5697064953806535,-0.8742416601684343,-0.8401940756706991,-0.0025956971927003675,-0.005025759404803836,-0.15007765001901086
3730,13.0,300.0843,7621.3165,0.0,-0.018649906309886166,-0.01864965467636881,0.0,0.0,0.0,-0.5740234170342005,-0.8806458668954802,-0.8620206176648112,-0.0047500651983449355,-0.005317775043873535,-0.15495794886065886
3731,13.0,299.93303,7578.3981,0.0,-0.018654887808567056,-0.018654656886555876,0.0,0.0,0.0,-0.5709407353274635,-0.8796911725187592,-0.8530118718207171,0.002202635086083158,0.0028727028487636978,-0.14681119514163687
3732,13.0,300.03526,7519.1132,0.0,-0.01865990229730541,-0.018659659096743053,0.0,0.0,0.0,-0.5525653535714544,-0.8789062481962931,-0.8541510587756462,-0.003034955093901747,0.009786169076069691,-0.14844603364798284
3733,13.0,299.91327,7529.022,0.0,-0.018664883795986298,-0.01866466130693023,0.0,0.0,0.0,-0.5571185651483215,-0.8772342234112772,-0.8542818997610592,0.0004405877210301226,-0.00036358807975834964,-0.14533327867827786
3734,13.0,299.92962,7567.8305,0.0,-0.018669898284724762,-0.018669663517117185,0.0,0.0,0.0,-0.5660394014137394,-0.8846819460188102,-0.8497101558398632,-0.001901946026157458,-0.0003233238715245817,-0.15097010044208886
3735,13.0,299.83199,7612.6366,0.0,-0.018674912773463004,-0.018674665727304363,0.0,0.0,0.0,-0.5806203743277694,-0.8830196788322572,-0.8504113755715682,0.0035891269048442466,-0.0009819254630259982,-0.15238605666183286
3736,13.0,299.87525,7589.4547,0.0,-0.018679894272144115,-0.018679635028213903,0.0,0.0,0.0,-0.5706247026212735,-0.8817414942286101,-0.8546385333987563,-0.001263901019637319,0.0030387534645516167,-0.14786064866770984
3737,13.0,299.8832,7457.0286,0.0,-0.018684908760882468,-0.01868463723840086,0.0,0.0,0.0,-0.5555004351361245,-0.8693998546980852,-0.8418501924291452,-0.0006992716975927435,-0.0015455389511828187,-0.15611473596982486
3738,13.0,300.11086,7502.3942,0.0,-0.018689890259563358,-0.018689639448588036,0.0,0.0,0.0,-0.5493631691479235,-0.8754616538188382,-0.8557156689175611,-0.0023671124284408078,-0.004107648422943337,-0.15062612229814087
3739,13.0,300.20808999999997,7653.8928,0.0,-0.01869490474830182,-0.01869464165877499,0.0,0.0,0.0,-0.5755170287416085,-0.8835059882177521,-0.8675692765374212,0.004174599936550936,0.0031174884688721567,-0.15312298332706187
3740,13.0,300.12605,7663.0948,0.0,-0.01869988624698271,-0.018699643868962168,0.0,0.0,0.0,-0.5855098430828224,-0.8844184199328022,-0.8594612087072171,0.002939179553374437,0.004067896291045106,-0.14593322406248788
3741,13.0,299.96565,7562.4033,0.0,-0.018704900735721064,-0.018704646079149345,0.0,0.0,0.0,-0.5724143454778974,-0.8801689503384121,-0.8461984640407862,0.0023622342371593676,0.000977297179749222,-0.15163178315489184
3742,13.0,300.02497,7567.2982,0.0,-0.018709915224459528,-0.0187096482893363,0.0,0.0,0.0,-0.5717087687707624,-0.8791360938489772,-0.8494248246117033,-0.004529000269702526,-0.0008849658789618324,-0.14656777193761286
3743,13.0,299.82871,7621.7429,0.0,-0.018714896723140417,-0.018714650499523255,0.0,0.0,0.0,-0.5755118206360944,-0.8817762588395411,-0.8595314472041493,0.0022514512467509376,0.004663747334251026,-0.14372468334952185
3744,13.0,299.78322000000003,7613.2519999999995,0.0,-0.01871991121187866,-0.01871965270971032,0.0,0.0,0.0,-0.5632945676878455,-0.8841335244021852,-0.8668104028750261,0.001054657375936579,0.0028803009072885673,-0.14496841744976885
3745,13.0,300.0651,7595.1089,0.0,-0.01872489271055966,-0.0187246549198975,0.0,0.0,0.0,-0.5664929828210045,-0.8855287292598811,-0.8567017537823802,-0.0017170468306843285,-0.0006211340346036564,-0.14602215702376486
3746,13.0,300.00723999999997,7567.7495,0.0,-0.018729907199298124,-0.018729657130084676,0.0,0.0,0.0,-0.5678542944628555,-0.8788669442249142,-0.8536856527397142,-0.0053802811253174055,-0.0060806163910101145,-0.15258595064156086
3747,13.0,300.07858999999996,7600.6944,0.0,-0.018734888697979013,-0.01873465934027163,0.0,0.0,0.0,-0.5724899845978624,-0.8859565741146062,-0.8519747394158602,-0.00026387960896788974,-0.0023404421659336577,-0.15099084167163587
3748,13.0,300.14128999999997,7650.6418,0.0,-0.018739903186717255,-0.018739661550458808,0.0,0.0,0.0,-0.5720148918909744,-0.8900851427070642,-0.8635040360762132,0.003165849274944997,0.001136550680818819,-0.15635348809088784
3749,13.0,300.14671,7630.9077,0.0,-0.018744884685398366,-0.018744663760645763,0.0,0.0,0.0,-0.5696540596879784,-0.8880155489803111,-0.8619357782339381,-0.0004916519594297705,-0.003427022898195827,-0.14962690571202586
3750,13.0,300.21706,7536.9554,0.0,-0.01874989917413672,-0.018749633061555304,0.0,0.0,0.0,-0.5496942486180985,-0.8838137224056233,-0.8575382727999381,0.0018572435595706684,-0.006346124292888704,-0.15661130957883285
3751,13.0,300.30163,7506.4466,0.0,-0.01875491366287496,-0.01875463527174248,0.0,0.0,0.0,-0.5610030721891924,-0.8756182516217933,-0.8451509964849092,0.0021494439141335983,-0.00022591796092386683,-0.14994596803601484
3752,13.0,300.12542,7603.5173,0.0,-0.018759895161556073,-0.018759637481929436,0.0,0.0,0.0,-0.5720536993698044,-0.8840939975157841,-0.8551317024874281,0.003911381169298267,0.0025959588138761876,-0.14958734842812185
3753,13.0,300.11012999999997,7656.7135,0.0,-0.018764909650294315,-0.018764639692116614,0.0,0.0,0.0,-0.5816741139017654,-0.8898806891018862,-0.8558949027277503,0.0014998870692523284,0.0026582304292469172,-0.15020940292951385
3754,13.0,299.9371,7606.3008,0.0,-0.018769891148975315,-0.01876964190230379,0.0,0.0,0.0,-0.5703402225231975,-0.885633813427752,-0.8561514677855712,-0.005320742954741445,-0.0021543882706465682,-0.14902629158274985
3755,13.0,300.17764,7607.1586,0.0,-0.01877490563771378,-0.018774644112490746,0.0,0.0,0.0,-0.5674878120341865,-0.8838768681518552,-0.8610215935962152,-0.0038238008969047666,0.004905882190772875,-0.14488393265643087
3756,13.0,299.83657,7645.1799,0.0,-0.01877988713639467,-0.018779646322677923,0.0,0.0,0.0,-0.5658892884114245,-0.8904490210829761,-0.8676054698309931,0.0005079882766845396,0.0015781271008990184,-0.14725464404790184
3757,13.0,299.785,7655.5277,0.0,-0.01878490162513291,-0.018784648532864878,0.0,0.0,0.0,-0.5764233505585554,-0.8861779692614561,-0.8644879424533172,-9.55174191173353e-05,0.0062135786155074636,-0.14548447585819985
3758,13.0,299.88081,7650.7917,0.0,-0.0187898831238138,-0.018789650743051944,0.0,0.0,0.0,-0.5763149935928614,-0.8900809478516502,-0.8592536849542362,-0.0040116665846956666,-0.004870799824610516,-0.15227417358579085
3759,13.0,300.04447999999996,7584.3079,0.0,-0.018794897612552375,-0.01879465295323912,0.0,0.0,0.0,-0.5726450118631625,-0.8808821162887961,-0.8519130831472752,0.003459338990260177,0.003866077237452116,-0.15264192257708484
3760,13.0,299.92727,7517.4303,0.0,-0.018799912101290617,-0.018799655163426077,0.0,0.0,0.0,-0.5585760848871675,-0.8772780768756052,-0.8492569392026341,0.002204884805280188,0.0019701218498608883,-0.15674737893476184
3761,13.0,300.06627000000003,7626.3812,0.0,-0.018804893599971506,-0.018804657373613254,0.0,0.0,0.0,-0.5660260569099225,-0.8899887826225541,-0.8622146043964561,0.005026185983095935,-0.0014738445151821287,-0.15359059824821186
3762,13.0,299.90794,7708.2031,0.0,-0.01880990808871008,-0.01880965958380021,0.0,0.0,0.0,-0.5744290109167295,-0.8936409919454991,-0.8750312657063621,0.003227666548970887,-0.008235842112864331,-0.15511300652346185
3763,13.0,300.17115,7675.188,0.0,-0.01881488958739097,-0.018814661793987386,0.0,0.0,0.0,-0.5851846303307264,-0.8899683048380332,-0.8579125572543772,-0.0007830813927866162,0.0012611269435135388,-0.14654082961745385
3764,13.0,299.95495,7614.0012,0.0,-0.018819904076129212,-0.018819664004174563,0.0,0.0,0.0,-0.5684879608103934,-0.8904449680825761,-0.8555333244295651,0.0016736431480757186,0.0023223434926474577,-0.15337233404417083
3765,13.0,300.07653,7638.029,0.0,-0.018824885574810324,-0.018824633305083882,0.0,0.0,0.0,-0.5751049399259385,-0.8876577095749951,-0.8590074246499322,-0.0011787301546566087,0.0036339511640930563,-0.14779043043577986
3766,13.0,300.04955,7674.0537,0.0,-0.018829900063548566,-0.01882963551527106,0.0,0.0,0.0,-0.5668892649351144,-0.8966174343792511,-0.869214004364743,-0.0021819855556702078,0.0051711527894780455,-0.15098798430635385
3767,13.0,299.90594,7657.4421,0.0,-0.01883491455228692,-0.018834637725458236,0.0,0.0,0.0,-0.5663557178299574,-0.8899663897953441,-0.871349074312958,-0.0005173891199198305,0.0041872679946011754,-0.14566658729867285
3768,13.0,299.89329,7607.9008,0.0,-0.01883989605096803,-0.01883963993564519,0.0,0.0,0.0,-0.5609191548159105,-0.8872189520166932,-0.8644737772169191,0.00017416747862899183,0.0044384895766948155,-0.15271043854884686
3769,13.0,300.1223,7583.6142,0.0,-0.018844910539706494,-0.01884464214583237,0.0,0.0,0.0,-0.5718936869140125,-0.8810369915665811,-0.8522986653403293,-0.0003103425368084237,-0.0006820956189200963,-0.14877150984510487
3770,13.0,299.84142,7644.8816,0.0,-0.01884989203838716,-0.018849644356019435,0.0,0.0,0.0,-0.5722345037176485,-0.8908378051463463,-0.8607807947099502,-0.001194964853058849,-0.01121720043080149,-0.15591310933242586
3771,13.0,299.9607,7754.446999999999,0.0,-0.018854906527125737,-0.0188546465662065,0.0,0.0,0.0,-0.5934951759284135,-0.8936154985729832,-0.8700475748245102,0.0031340018110518975,0.00098464058825896,-0.14603138773217586
3772,13.0,299.90469,7711.5915,0.0,-0.018859888025806626,-0.018859648776393567,0.0,0.0,0.0,-0.5788431133873674,-0.8914478222365502,-0.8738403422013271,0.005012027738123625,-0.0004484845768769816,-0.15021253387232283
3773,13.0,299.74345,7608.9313,0.0,-0.018864902514544868,-0.018864650986580744,0.0,0.0,0.0,-0.5663502766769205,-0.8865373285419222,-0.8600375048340932,0.0066118107294349145,0.004026994626908426,-0.14729036111392688
3774,13.0,300.06021,7644.2752,0.0,-0.018869884013225757,-0.0188696531967677,0.0,0.0,0.0,-0.5707479037009325,-0.8892311552577822,-0.8636897344220402,0.0013141485987213687,-0.003871667743553856,-0.15109435530185183
3775,13.0,300.12754,7722.0584,0.0,-0.01887489850196422,-0.018874655406954655,0.0,0.0,0.0,-0.5907715495271124,-0.8892212558043051,-0.8673201284703321,0.0035337374868027365,0.00029836560651889265,-0.14478884926704685
3776,13.0,300.12602999999996,7669.5429,0.0,-0.018879912990702574,-0.018879657617141832,0.0,0.0,0.0,-0.5754355735660694,-0.8915964660262202,-0.8643174833889942,-0.0035825928602493864,0.001313603571492579,-0.15365632778219887
3777,13.0,299.9376,7584.7345,0.0,-0.018884894489383464,-0.01888465982732901,0.0,0.0,0.0,-0.5691477386130085,-0.8804957437606642,-0.8559264046733591,-0.00887759237235015,0.0032280460111333373,-0.15315060452478788
3778,13.0,299.97963,7600.5617,0.0,-0.018889908978121928,-0.018889662037515964,0.0,0.0,0.0,-0.5558507663581994,-0.8880566768018701,-0.8664735276142792,-0.002885912995617437,-0.002295561367329268,-0.15627868996850586
3779,13.0,300.08791,7667.4082,0.0,-0.018894890476802817,-0.018894631338425505,0.0,0.0,0.0,-0.5673611355066844,-0.8921239133657752,-0.8712155988772852,0.0017380549503076682,0.003603088579297156,-0.15116037867836787
3780,13.0,300.06293,7721.0059,0.0,-0.01889990496554117,-0.018899633548612682,0.0,0.0,0.0,-0.5786549832413005,-0.8975311326569261,-0.8708068943169491,0.0029916629701291476,0.0024406258510210176,-0.15655620903839484
3781,13.0,299.94849,7709.0187,0.0,-0.01890488646422228,-0.018904635758799637,0.0,0.0,0.0,-0.5878701889257705,-0.8926092196336712,-0.8628698023086191,-0.00020529706495874282,-0.004579666321077876,-0.15068172946362887
3782,13.0,299.91267,7623.7743,0.0,-0.018909900952960745,-0.018909637968986814,0.0,0.0,0.0,-0.5731112791616795,-0.8913252189744503,-0.8530005132870961,0.00042893359195744963,-0.005461116090470195,-0.15734620974386185
3783,13.0,299.81633,7614.4033,0.0,-0.018914882451641413,-0.01891464017917388,0.0,0.0,0.0,-0.5721871038779704,-0.8867898405993432,-0.8556115270722832,0.0025612996822805974,-0.0008017274440418384,-0.15008408415714586
3784,13.0,299.95155,7715.4093,0.0,-0.018919896940379988,-0.018919642389361058,0.0,0.0,0.0,-0.5720885754382464,-0.8968459932043081,-0.8763572047872221,0.004919125470904885,0.004269542788146066,-0.15801086127945785
3785,13.0,299.96615,7707.5243,0.0,-0.01892491142911845,-0.018924644599548124,0.0,0.0,0.0,-0.5777324392902524,-0.8931314487352111,-0.8720310422927632,0.0015044438576020485,0.0030747520114543974,-0.14881262753416286
3786,13.0,299.77289,7595.5529,0.0,-0.01892989292779912,-0.01892964680973519,0.0,0.0,0.0,-0.5656604053463354,-0.8854007760372531,-0.8577972291279952,-0.0010201914711350589,-0.0012399070546192988,-0.15756075532003586
3787,13.0,299.90726,7625.6807,0.0,-0.018934907416537583,-0.018934649019922367,0.0,0.0,0.0,-0.5709939005602105,-0.8892862152682162,-0.8577364138569932,0.001095518104769219,5.440968422831774e-05,-0.14684939467040686
3788,13.0,300.05562000000003,7732.6739,0.0,-0.018939888915218472,-0.018939651230109322,0.0,0.0,0.0,-0.5784697712555215,-0.8972572511548962,-0.8748127684547982,0.0027402132041129874,0.0017067264731157885,-0.15387659822143787
3789,13.0,300.0344,7780.0592,0.0,-0.018944903403956825,-0.018944653440296277,0.0,0.0,0.0,-0.5801989129486744,-0.9034204867431601,-0.8813243290299392,-0.005274004463403714,-0.001042343144821259,-0.14969705301644887
3790,13.0,300.13372000000004,7710.8454,0.0,-0.018949884902637715,-0.018949655650483455,0.0,0.0,0.0,-0.5682908532684405,-0.8992838729449082,-0.8763297457095123,-0.0004792758997933486,-0.0026354182178205277,-0.15018302802941086
3791,13.0,300.3065,7661.7373,0.0,-0.01895489939137618,-0.01895465786067041,0.0,0.0,0.0,-0.5703410331232774,-0.8903371481394352,-0.8682986240919022,-0.0050841209893636745,0.005244510779492915,-0.14324140358182588
3792,13.0,300.16857000000005,7707.6086,0.0,-0.01895991388011453,-0.018959660070857587,0.0,0.0,0.0,-0.5826058075012164,-0.8977957530530422,-0.8625189847264961,-0.002237246392274028,0.0048569165757153445,-0.15073871464925287
3793,13.0,300.06723,7800.5794,0.0,-0.01896489537879542,-0.018964629371767128,0.0,0.0,0.0,-0.5962024687381025,-0.9007143085085813,-0.8742645697531952,-0.0018369220182150882,-0.0022741811822692077,-0.15188443706732685
3794,13.0,299.96222,7780.2991,0.0,-0.018969909867533885,-0.018969631581954083,0.0,0.0,0.0,-0.5934057363420865,-0.9013053170269091,-0.8703055989624753,-0.0001219667991821859,-0.005614111181369635,-0.15584809920600987
3795,13.0,299.992,7632.2506,0.0,-0.018974891366214997,-0.01897463379214126,0.0,0.0,0.0,-0.5646608746526894,-0.8889007344001721,-0.8664519859171531,0.004608109163309965,0.0013399237560901786,-0.15677080527707385
3796,13.0,299.91795,7607.7041,0.0,-0.01897990585495324,-0.018979636002328326,0.0,0.0,0.0,-0.5505762625651465,-0.8962367563166812,-0.8657390631467933,0.0052423474905294145,-0.003064105387353657,-0.15608860424974585
3797,13.0,299.86066,7703.7884,0.0,-0.018984887353634128,-0.018984638212515503,0.0,0.0,0.0,-0.5735836056957945,-0.8946769895102441,-0.8734987249301122,0.002940019740357357,0.00015900223530979882,-0.15269438866726287
3798,13.0,300.0507,7762.1973,0.0,-0.018989901842372703,-0.01898964042270268,0.0,0.0,0.0,-0.5805390508747434,-0.8987605495332601,-0.8802145567254132,-0.0034361326245448865,-0.001023085313420659,-0.14802434935386585
3799,13.0,299.96689,7662.8346,0.0,-0.01899488334105337,-0.018994642632889636,0.0,0.0,0.0,-0.5739155058985504,-0.8954594921649711,-0.8599353793565142,-0.00040605109137162266,0.007781046730654522,-0.15524418188140784
3800,13.0,299.88083,7645.0206,0.0,-0.018999897829791834,-0.018999644843076813,0.0,0.0,0.0,-0.5677345080360334,-0.8943082981963572,-0.8618525498707242,-0.006849621135854973,0.003615526021624637,-0.15421770886760283
3801,13.0,300.09405,7776.2309,0.0,-0.01900491231853041,-0.019004647053263768,0.0,0.0,0.0,-0.5822225963133965,-0.9044762224198531,-0.8770812226461772,-0.0025796681840684274,0.0016953749309204787,-0.15702586059224585
3802,13.0,300.25846,7831.5422,0.0,-0.019009893817211077,-0.019009649263450945,0.0,0.0,0.0,-0.5873665833610684,-0.9076417778522691,-0.8855849241104271,-0.0013002038455451287,-0.0028278533595873976,-0.15098840987139586
3803,13.0,299.9477,7779.5364,0.0,-0.01901490830594954,-0.0190146514736379,0.0,0.0,0.0,-0.5921659235197264,-0.8988093172605731,-0.8738095799282912,0.0032766372302789164,-0.0020199648381800084,-0.14549317967655886
3804,13.0,299.99406,7682.2286,0.0,-0.01901988980463043,-0.019019653683825077,0.0,0.0,0.0,-0.5770632585267094,-0.8907985214399691,-0.8673438891851771,0.0012047434257989188,-0.002204083628426118,-0.14921841393421087
3805,13.0,299.93962999999997,7647.7725,0.0,-0.019024904293368783,-0.019024655894012032,0.0,0.0,0.0,-0.5756781051100055,-0.8923808330611311,-0.8566729166845342,-0.0012292499940425288,-0.004303766830148716,-0.15766565710288885
3806,13.0,300.06644,7737.6065,0.0,-0.019029885792049672,-0.0190296581041991,0.0,0.0,0.0,-0.5826896640794925,-0.8953010907768382,-0.8740484029768611,0.0047237950683022755,0.0037966477193999565,-0.15301724054662585
3807,13.0,299.92291,7814.39,0.0,-0.019034900280788136,-0.019034660314386276,0.0,0.0,0.0,-0.5839538050367534,-0.9077912221095181,-0.8836343974029253,0.0033047689034052968,0.001860466404163738,-0.15920972866527686
3808,13.0,299.74072,7718.0564,0.0,-0.019039881779469248,-0.019039629615295706,0.0,0.0,0.0,-0.5690150940424175,-0.9007003256572012,-0.8763809857670692,0.0009992827412140283,-0.0005409743601125125,-0.15039592200792187
3809,13.0,299.79908,7668.1748,0.0,-0.01904489626820749,-0.019044631825482772,0.0,0.0,0.0,-0.5684049148321975,-0.897964661844712,-0.8645640780658311,-0.006447790058897333,-0.007189183839842203,-0.15511576256373386
3810,13.0,299.92503,7798.0452,0.0,-0.019049910756945843,-0.01904963403566995,0.0,0.0,0.0,-0.5857914658156165,-0.903139664477945,-0.8814798831852912,-0.003143947671383477,-0.004529461805123076,-0.14173242087040086
3811,13.0,300.12961,7860.861999999999,0.0,-0.019054892255626954,-0.019054636245857126,0.0,0.0,0.0,-0.5988785230472085,-0.9083945213515591,-0.8822327077445893,0.0034964150273192962,0.005237655230641325,-0.15171841603844186
3812,13.0,299.94886,7777.7609,0.0,-0.019059906744365196,-0.01905963845604408,0.0,0.0,0.0,-0.5819975635986875,-0.9086453716788161,-0.8736021676328212,-0.0016860810970282484,0.0048721001284638445,-0.15284070198170285
3813,13.0,299.96455,7660.3453,0.0,-0.019064888243046085,-0.01906464066623126,0.0,0.0,0.0,-0.5663047006874224,-0.89712171882152,-0.8651272830014153,0.0001921434169305788,0.0005538206488553425,-0.16279683666929684
3814,13.0,300.09542999999996,7686.6359,0.0,-0.01906990273178455,-0.019069642876418214,0.0,0.0,0.0,-0.5723073158698345,-0.8965850813035582,-0.8676530013931841,-0.0019802089572564085,0.001060226907761249,-0.14912917699790387
3815,13.0,300.16147,7736.3664,0.0,-0.019074884230465328,-0.01907464508660539,0.0,0.0,0.0,-0.5826022509933654,-0.8981532783508271,-0.870906689319298,0.0011339822944653388,0.0024036295567447675,-0.15767595172390483
3816,13.0,299.97399,7772.1856,0.0,-0.01907989871920379,-0.019079647296792568,0.0,0.0,0.0,-0.5847142289718015,-0.900251536922909,-0.8775845748983541,0.0035772268903698067,-0.003072415558048807,-0.15403912353747787
3817,13.0,299.9953,7738.9556,0.0,-0.019084913207942256,-0.019084649506979523,0.0,0.0,0.0,-0.5775503278497794,-0.9024629552661592,-0.8724359775627273,-0.004124928390148736,-0.0013444907782659086,-0.16224541583237584
3818,13.0,299.8762,7685.1169,0.0,-0.019089894706623034,-0.0190896517171667,0.0,0.0,0.0,-0.5681204549991234,-0.8945164805619031,-0.873446694537477,0.0014176960714907085,0.003189566825335737,-0.15547959027714084
3819,13.0,299.89419,7793.7916,0.0,-0.019094909195361498,-0.019094653927353655,0.0,0.0,0.0,-0.5780596380125445,-0.9073504887135211,-0.8837078985651792,-0.0013785232146746487,-4.8937251147480656e-05,-0.15349217113349786
3820,13.0,299.72559,7862.5830000000005,0.0,-0.019099890694042387,-0.01909965613754072,0.0,0.0,0.0,-0.5927613802059934,-0.9052894265526101,-0.891978096543884,0.002121535865304288,0.003509503888136067,-0.14936908422408088
3821,13.0,299.97244,7778.7176,0.0,-0.01910490518278074,-0.0191046583477279,0.0,0.0,0.0,-0.5850534245752774,-0.9024841321932492,-0.8769983387879973,-0.0009509169904807002,-0.009125576417724272,-0.14418090933954786
3822,13.0,300.0324,7673.049,0.0,-0.01910988668146174,-0.01910962764863733,0.0,0.0,0.0,-0.5768670527773454,-0.8924682866772622,-0.8630799503793591,0.003209125997316077,-0.001097839055448279,-0.14617614064146184
3823,13.0,300.06781,7732.069,0.0,-0.019114901170200094,-0.019114629858824506,0.0,0.0,0.0,-0.5838142501004805,-0.8966728388947192,-0.8698688172418683,0.00011603937728969489,0.0007421095509480103,-0.14812519813631886
3824,13.0,300.00287000000003,7861.6861,0.0,-0.019119882668881205,-0.019119632069011572,0.0,0.0,0.0,-0.5898140180501115,-0.9142473376391871,-0.8856949022762811,0.0019531380556597183,0.003459948764170357,-0.15553832838543785
3825,13.0,300.11471,7859.9672,0.0,-0.019124897157619447,-0.019124634279198527,0.0,0.0,0.0,-0.5847321533660704,-0.9157863226860732,-0.8887152792343691,-0.001130154032937519,0.005546795910976135,-0.16267042358682085
3826,13.0,299.94867,7803.4936,0.0,-0.0191299116463578,-0.019129636489385704,0.0,0.0,0.0,-0.5826363671242325,-0.9075348293042141,-0.881895994603858,-0.004804773712319245,0.001906049182437408,-0.15435570339872184
3827,13.0,300.23972000000003,7743.2077,0.0,-0.0191348931450388,-0.01913463869957266,0.0,0.0,0.0,-0.5811013844152414,-0.9000065431812302,-0.8726338551747562,0.002343865127421478,-0.0011876667165635789,-0.15593145929173685
3828,13.0,300.0585,7737.7312,0.0,-0.019139907633777153,-0.019139640909759836,0.0,0.0,0.0,-0.5780474182163384,-0.8988001878771722,-0.8752294776909242,-0.0018899966664031483,-0.0014783540860771884,-0.15426530122479987
3829,13.0,299.998,7803.8416,0.0,-0.019144889132458043,-0.019144643119947014,0.0,0.0,0.0,-0.5836561830848804,-0.9089169024406141,-0.8795999090822522,0.005161955619645355,-0.0006556293135255753,-0.15754899148637486
3830,13.0,300.04624,7791.0021,0.0,-0.019149903621196507,-0.01914964533013397,0.0,0.0,0.0,-0.5763134433202085,-0.909086905542392,-0.8828697482149602,-0.002016121073925658,0.001054021561498829,-0.15209347056295686
3831,13.0,299.90612000000004,7683.1283,0.0,-0.019154885119877285,-0.019154647540321146,0.0,0.0,0.0,-0.5715165957567965,-0.8955751546638862,-0.8683873949331632,0.0006671758455701294,0.0019384112760562982,-0.15795515278895986
3832,13.0,299.87121,7748.2059,0.0,-0.01915989960861575,-0.019159649750508212,0.0,0.0,0.0,-0.5827387053843324,-0.9028786613846861,-0.8696437439971552,-0.002850186202391477,-0.0007382780571523714,-0.15606375935729386
3833,13.0,299.95392000000004,7881.9642,0.0,-0.01916488110729664,-0.019164651960695278,0.0,0.0,0.0,-0.5983687974519024,-0.9146170928656793,-0.8829344138363421,-0.0014224274428326588,-0.0028870861365832166,-0.15652072501989284
3834,13.0,300.02611,7884.2852,0.0,-0.01916989559603488,-0.019169654170882344,0.0,0.0,0.0,-0.5985787530051234,-0.9130543876339522,-0.8849926996919791,0.0028733403857266176,-0.003074514302980937,-0.15317880327507086
3835,13.0,300.12101,7802.8064,0.0,-0.019174910084773455,-0.01917465638106952,0.0,0.0,0.0,-0.5877745077188274,-0.908780032617106,-0.8753037691882561,0.0006990697264503104,-0.004582399563222626,-0.15809267109253186
3836,13.0,300.08673999999996,7747.2388,0.0,-0.019179891583454345,-0.01917962568197895,0.0,0.0,0.0,-0.5766110551395804,-0.9006084542706342,-0.8777476473694482,-0.003085400966030367,0.002181363825408848,-0.15697191515692185
3837,13.0,300.09873999999996,7762.2898,0.0,-0.019184906072192587,-0.01918462789216613,0.0,0.0,0.0,-0.5777653597860014,-0.9045531787649481,-0.8772237565377441,-0.0038253605927836966,0.0013139898224306986,-0.15504756069950285
3838,13.0,300.11829,7776.5433,0.0,-0.019189887570873698,-0.019189630102353195,0.0,0.0,0.0,-0.5837083249350264,-0.8997974387580931,-0.8803692192206772,-0.005040969099404915,0.0045365457405472055,-0.15365614539718087
3839,13.0,299.93325,7777.7472,0.0,-0.01919490205961205,-0.01919463231254015,0.0,0.0,0.0,-0.5866210440699894,-0.8994968885134311,-0.8781230058689932,0.002277501298871878,0.0005480175527501215,-0.15091761408690887
3840,13.0,299.91005,7743.116,0.0,-0.01919988355829305,-0.019199634522727105,0.0,0.0,0.0,-0.5786240081857434,-0.9030950510760423,-0.8719948489991912,-0.000990057473956065,0.0017782343697730683,-0.15626526440468086
3841,13.0,299.9556,7768.2639,0.0,-0.019204898047031405,-0.019204636732914282,0.0,0.0,0.0,-0.5768851190266284,-0.904709472592873,-0.8797636705634142,-0.00012076073772065689,-0.004560206650257356,-0.15466247499899785
3842,13.0,300.0664,7933.1509,0.0,-0.01920991253576987,-0.01920963894310146,0.0,0.0,0.0,-0.5858163715030744,-0.9296674336235322,-0.8959959979604202,0.0016818698269626285,-0.004538373542402595,-0.15424125679992687
3843,13.0,300.02109,7936.6923,0.0,-0.019214894034450758,-0.019214641153288414,0.0,0.0,0.0,-0.5956026652089065,-0.9221209191312492,-0.8948327159181132,0.0016728604123734685,0.0032925005725195065,-0.14988369368486887
3844,13.0,300.03073,7796.1308,0.0,-0.01921990852318911,-0.01921964336347559,0.0,0.0,0.0,-0.5845367480842855,-0.9090252898038111,-0.8762670559258251,-0.003321327132564466,0.0017285795419975183,-0.15438315234393085
3845,13.0,300.11112,7732.1256,0.0,-0.01922489002187,-0.019224645573662658,0.0,0.0,0.0,-0.5780412880532335,-0.9032544251842711,-0.8690774081187621,-0.0038744975484331368,-0.001111779856949129,-0.15823278331635984
3846,13.0,300.0292,7783.6437,0.0,-0.019229904510608464,-0.019229647783849835,0.0,0.0,0.0,-0.5858964081284734,-0.9021283192881331,-0.8780085998002022,-0.007177399031904133,0.0012521058765482286,-0.15240045494575385
3847,13.0,299.90783,7841.5189,0.0,-0.01923488600928913,-0.0192346499940369,0.0,0.0,0.0,-0.5828180732646654,-0.91196755531169,-0.8888403244292101,0.0019127582153245382,-0.0014616519754038187,-0.15854699217236987
3848,13.0,299.9824,7814.7488,0.0,-0.019239900498027707,-0.019239652204223967,0.0,0.0,0.0,-0.5772251150976835,-0.9131270883286272,-0.8851362974961512,0.004623021772981725,-0.0007618692957856452,-0.15848460636371284
3849,13.0,300.00138,7762.1625,0.0,-0.019244881996708596,-0.019244654414411144,0.0,0.0,0.0,-0.5772446910896154,-0.9039793651008171,-0.8782795226119402,0.0013716981646510688,-0.0019074548643011385,-0.15428760285950086
3850,13.0,300.23714,7800.7359,0.0,-0.019249896485446838,-0.019249623715320685,0.0,0.0,0.0,-0.5804704234454704,-0.9081181067242792,-0.8826403889223242,0.0036920478850767566,-0.0001054911397736649,-0.15288671366874385
3851,13.0,300.03918,7913.2167,0.0,-0.019254910974185302,-0.01925462592550764,0.0,0.0,0.0,-0.5932843591126075,-0.9211065949861431,-0.8910293195477471,-0.0035927987205566264,0.002283897440128128,-0.15483116087564586
3852,13.0,300.1205,7948.058000000001,0.0,-0.019259892472866302,-0.019259628135694817,0.0,0.0,0.0,-0.6041971336171145,-0.9201545046621792,-0.8916595307124442,-0.0003193486380697567,0.007387882387102223,-0.15385003080381585
3853,13.0,300.24935,7878.4554,0.0,-0.019264906961604544,-0.019264630345881772,0.0,0.0,0.0,-0.5902772861283324,-0.9180104370530761,-0.8865659933872513,-0.005030516715348345,-0.001040454243984839,-0.15655356445563384
3854,13.0,300.27777000000003,7792.9604,0.0,-0.019269888460285656,-0.01926963255606895,0.0,0.0,0.0,-0.5783938382930275,-0.9109954836957542,-0.8794760696550301,-0.001889281007857518,-0.0024648244925592378,-0.15538129488493985
3855,13.0,299.99608,7857.6775,0.0,-0.01927490294902412,-0.019274634766255905,0.0,0.0,0.0,-0.5934766131865814,-0.9116337299337441,-0.8834274106724971,-0.00010271353753953691,-0.008170535813444102,-0.15539590595138186
3856,13.0,299.9144,7912.1628,0.0,-0.01927988444770501,-0.01927963697644286,0.0,0.0,0.0,-0.5972944382383715,-0.9148500086661662,-0.8929554877228453,0.005276736793623375,-0.0074600952018540724,-0.15577409141870585
3857,13.0,299.86674,7799.691,0.0,-0.019284898936443362,-0.019284639186630037,0.0,0.0,0.0,-0.5920043303937785,-0.9038862778141301,-0.8750206873753181,0.006394739728711674,0.0005354183957066815,-0.15606641407255584
3858,13.0,300.03697999999997,7722.2119999999995,0.0,-0.01928988043512425,-0.019289641396817103,0.0,0.0,0.0,-0.5721747320942495,-0.9017037776287341,-0.8734811146433741,0.003181614331925887,0.0016509161509827383,-0.15729244669355585
3859,13.0,299.95541000000003,7812.0362,0.0,-0.019294894923862715,-0.01929464360700428,0.0,0.0,0.0,-0.5793805311079064,-0.9136675964619712,-0.8816158005537051,0.0025575884511393272,0.004753348229993946,-0.16131619456316884
3860,13.0,299.97647,7946.1396,0.0,-0.01929990941260107,-0.019299645817191458,0.0,0.0,0.0,-0.5888281966303184,-0.9266957332002481,-0.8999040934636191,-0.0013259681611378685,0.0037350266105934263,-0.16057063500708785
3861,13.0,299.85354,7921.0683,0.0,-0.019304890911281958,-0.019304648027378413,0.0,0.0,0.0,-0.5954984220386185,-0.9180343497554362,-0.8942742023304923,0.0010488243990859091,0.0007955143160186501,-0.15699408506910986
3862,13.0,299.94197,7851.8883,0.0,-0.019309905400020422,-0.01930965023756559,0.0,0.0,0.0,-0.5846694433173815,-0.9141992386569402,-0.8879093097073262,-0.0026134092097484076,-0.005424484262254915,-0.15313678379342385
3863,13.0,299.98576,7813.8547,0.0,-0.01931488689870109,-0.019314652447752545,0.0,0.0,0.0,-0.5863549240637254,-0.9121426550614711,-0.8767191478554432,-0.0007107189412599985,-0.001220810026009569,-0.15542508755426188
3864,13.0,300.23819,7892.1142,0.0,-0.019319901387439553,-0.019319654657939722,0.0,0.0,0.0,-0.5914311145472064,-0.9174328034360681,-0.8901417225926481,-0.0038418666395627164,-0.0014152866640779187,-0.15550669471731585
3865,13.0,300.14696000000004,7941.9159,0.0,-0.019324882886120442,-0.019324623958849263,0.0,0.0,0.0,-0.5973900282528054,-0.9184919233680952,-0.8982621824715752,0.005323440125182635,0.0007397750429826123,-0.15515608991771387
3866,13.0,300.11502,7832.3449,0.0,-0.019329897374858795,-0.019329626169036218,0.0,0.0,0.0,-0.5856293660646185,-0.9081977380496382,-0.8870101617010872,-0.0018253708657500782,-0.0002850838836780887,-0.15391262939499384
3867,13.0,299.96009,7774.98,0.0,-0.01933491186359726,-0.019334628379223395,0.0,0.0,0.0,-0.5775131314386084,-0.9107939786483671,-0.8750926483974201,0.0018317856508081685,-0.002342603023096918,-0.16284765116181185
3868,13.0,299.91001,7863.0859,0.0,-0.01933989336227837,-0.019339630589410572,0.0,0.0,0.0,-0.5913988020015174,-0.9124909395183443,-0.8862920206927122,-0.0009143596260152691,-0.004991978862369955,-0.15448923962940087
3869,13.0,299.89846,7963.2152,0.0,-0.019344907851016724,-0.019344632799597528,0.0,0.0,0.0,-0.6057671849120664,-0.9220657172658011,-0.8927856872710871,-0.0018512149241256882,0.002227856502272318,-0.15623578895927187
3870,13.0,299.93584,7917.936,0.0,-0.019349889349697613,-0.019349635009784483,0.0,0.0,0.0,-0.5905301122932844,-0.9218264483871872,-0.8944982623251051,0.002350887659889548,0.0024815447404093974,-0.15267420472527085
3871,13.0,299.9946,7838.4667,0.0,-0.019354903838436077,-0.01935463721997155,0.0,0.0,0.0,-0.5798367874954354,-0.9151463235254101,-0.8877150392656531,0.0024797957694117877,0.007417857871435573,-0.15756134300509383
3872,13.0,300.00201,7837.0747,0.0,-0.019359885337116967,-0.019359639430158726,0.0,0.0,0.0,-0.5797622325530775,-0.9157755011750051,-0.8867372833166561,-0.0008852421922641022,0.0027697648459295075,-0.15629308825242685
3873,13.0,299.86711,7907.4736,0.0,-0.01936489982585521,-0.019364641640345903,0.0,0.0,0.0,-0.5914726780663084,-0.9172268198232392,-0.8949750066296562,-0.001979834156044418,-0.0027664214245745372,-0.15702603284476285
3874,13.0,299.90405,7918.7651,0.0,-0.01936988132453621,-0.01936964385053286,0.0,0.0,0.0,-0.5970063509699395,-0.9179770707272831,-0.8921234472707292,-0.0015203051733424385,-0.0031804696632879168,-0.15564291606075986
3875,13.0,299.80689,7862.9861,0.0,-0.019374895813274673,-0.019374646060720035,0.0,0.0,0.0,-0.5898285075265415,-0.91829499821116,-0.8820279400318801,0.0014134695013485786,2.775421719912797e-05,-0.15592343435094486
3876,13.0,299.83981,7794.2084,0.0,-0.019379910302012915,-0.01937964827090699,0.0,0.0,0.0,-0.5716171405642194,-0.9193524057505181,-0.8782751859015121,0.0012316887857082189,0.002811222277746037,-0.16512883177444684
3877,13.0,299.80585,7842.6458,0.0,-0.019384891800693804,-0.019384650481094168,0.0,0.0,0.0,-0.5779865117528274,-0.9168548861090321,-0.8891271046050131,-0.0016318225674233485,0.003707654875042046,-0.15818351909649783
3878,13.0,299.88524,7950.6847,0.0,-0.01938990628943238,-0.019389652691281345,0.0,0.0,0.0,-0.5953099068575134,-0.9236235690295491,-0.8978761443159762,0.002315858489357438,0.0014254655719324986,-0.15859532420213984
3879,13.0,299.81888,7914.4079,0.0,-0.019394887788113047,-0.019394621992190664,0.0,0.0,0.0,-0.5957744820283635,-0.9189192514652691,-0.891088655473603,-0.0004015368493936016,-0.00038660721712016166,-0.15785332115390985
3880,13.0,300.23237,7860.1189,0.0,-0.01939990227685151,-0.01939962420237784,0.0,0.0,0.0,-0.5892611077355434,-0.917985703618135,-0.8820330670773862,0.004139372472974256,-0.006818301676588983,-0.15939589310614985
3881,13.0,299.99959,7882.5854,0.0,-0.019404883775532622,-0.019404626412565018,0.0,0.0,0.0,-0.5939786380811274,-0.9121587454730592,-0.8899717397558721,-0.002210051772840128,-0.007710539215820973,-0.15377935660934086
3882,13.0,300.04672,7975.4106,0.0,-0.019409898264270975,-0.019409628622751973,0.0,0.0,0.0,-0.5982355347987505,-0.9223041552793331,-0.9037859761867311,-0.0023842191298791074,-0.003263477543280157,-0.15312611426987086
3883,13.0,299.94965,7999.5918,0.0,-0.019414879762951864,-0.01941463083293915,0.0,0.0,0.0,-0.6019230862851834,-0.9246404465649071,-0.9051126144101602,-0.0021679364377336684,0.004536000611993406,-0.15519644766919685
3884,13.0,300.14822999999996,7904.2915,0.0,-0.01941989425169033,-0.019419633043126105,0.0,0.0,0.0,-0.5910543273650204,-0.9215181163817572,-0.8901347919619641,-0.004109497908350866,0.0036388732291038266,-0.15367973385950887
3885,13.0,300.25506,7855.3916,0.0,-0.01942490874042857,-0.019424635253313283,0.0,0.0,0.0,-0.5902838013264755,-0.9155061995634272,-0.8820528862493422,-0.005328451964152265,0.003410462439886437,-0.15890292666749786
3886,13.0,300.20279,7877.0159,0.0,-0.01942989023910946,-0.01942963746350035,0.0,0.0,0.0,-0.5989835869500775,-0.9109789373216212,-0.8844535999762743,-0.0012861589832590086,-0.0007153590187679383,-0.15388001287427486
3887,13.0,299.72597,7964.2291,0.0,-0.019434904727848035,-0.019434639673687304,0.0,0.0,0.0,-0.6017109522442474,-0.9246980599655932,-0.8945177775220311,0.0041971518440266364,0.001089103623686159,-0.15795819253925986
3888,13.0,299.90702999999996,7973.7504,0.0,-0.019439886226528924,-0.01943964188387448,0.0,0.0,0.0,-0.5939051267863724,-0.9258872001504521,-0.9040286698506832,0.007766667090535363,-0.004338934511969496,-0.15632445847552287
3889,13.0,299.83583,7872.3328,0.0,-0.019444900715267166,-0.019444644094061436,0.0,0.0,0.0,-0.5792008919976774,-0.9162662485959381,-0.8975254685888672,0.003516172694994227,-0.001042821500193469,-0.15858014571564186
3890,13.0,299.98418,7872.7361,0.0,-0.019449882213948055,-0.019449646304248613,0.0,0.0,0.0,-0.5821690460456115,-0.9180732585592761,-0.8928728774421922,0.00043999964080458355,-0.0016539893385360384,-0.15532705560708684
3891,13.0,300.0095,7978.0602,0.0,-0.01945489670268663,-0.01945464851443579,0.0,0.0,0.0,-0.5999990864652994,-0.9254310856179371,-0.8997009064210661,-0.002716765583548888,0.007008735750733364,-0.15758489093741784
3892,13.0,300.08171,7974.3926,0.0,-0.019459911191424872,-0.019459650724622746,0.0,0.0,0.0,-0.6000295751608085,-0.924664632844794,-0.899322021811173,-0.004105388976545346,0.0012544989706344087,-0.15744635938374585
3893,13.0,300.14922,7896.9252,0.0,-0.01946489269010576,-0.019464620025532287,0.0,0.0,0.0,-0.5889001475199194,-0.9250743810527331,-0.8864935358726002,-0.00017652838175949483,-0.0033514011048075363,-0.15521183893821586
3894,13.0,300.18453,7871.3476,0.0,-0.019469907178844226,-0.019469622235719464,0.0,0.0,0.0,-0.5823497895984495,-0.9174853809837571,-0.8928579421357182,-0.0028409381674037674,-0.0017086960286601686,-0.16107551726691585
3895,13.0,300.03112999999996,7938.2507,0.0,-0.019474888677525115,-0.01947462444590642,0.0,0.0,0.0,-0.5952315623597814,-0.9228863991842962,-0.8949120534009432,-0.004850194978526975,0.002111828726696268,-0.15944924072391484
3896,13.0,299.93561,8010.7857,0.0,-0.019479903166263468,-0.019479626656093596,0.0,0.0,0.0,-0.6004674309265214,-0.932015782585296,-0.9025956099692511,-0.0004204579169909656,-0.0036329655757207867,-0.16428852320151482
3897,13.0,299.79241,7950.3191,0.0,-0.01948488466494458,-0.019484628866280662,0.0,0.0,0.0,-0.5984439907418234,-0.9196220822646332,-0.8986324240581153,-0.0006667431371149245,0.003302137188920567,-0.15748913880296786
3898,13.0,299.93359,7856.9098,0.0,-0.01948989915368282,-0.01948963107646773,0.0,0.0,0.0,-0.5847827753410665,-0.9177035134652851,-0.8858181134884411,0.001970228139796378,0.0036757446909677564,-0.16040580961332085
3899,13.0,299.89797000000004,7869.6247,0.0,-0.01949488065236371,-0.019494633286654905,0.0,0.0,0.0,-0.5851330964306404,-0.9106773636943581,-0.8963589441462403,0.003695464969713997,0.002133724250757188,-0.15329476974901585
3900,13.0,300.09011,7991.7184,0.0,-0.019499895141102286,-0.01949963549684197,0.0,0.0,0.0,-0.5971097531426445,-0.925298907142392,-0.9068741801065132,-0.0017061537841592683,-0.002427132500764328,-0.15617937119370384
3901,13.0,300.02187000000004,8008.4633,0.0,-0.019504909629840528,-0.019504637707028927,0.0,0.0,0.0,-0.5995514528361214,-0.9262977184284671,-0.9085237006068081,0.002556915247772888,0.0006133166175646374,-0.15060422596347986
3902,13.0,300.03372,7938.1441,0.0,-0.019509891128521417,-0.019509639917215882,0.0,0.0,0.0,-0.5925353038436815,-0.9234740335797911,-0.8969882433858472,0.0015950734048464884,0.00039571260675879365,-0.15376643767056583
3903,13.0,300.05945,7956.4199,0.0,-0.01951490561725988,-0.01951464212740306,0.0,0.0,0.0,-0.5975133711874785,-0.9281410027453851,-0.8928986038622312,-0.002182003084896938,0.004311335099120646,-0.15674444050947187
3904,13.0,300.15185,8015.5392,0.0,-0.01951988711594077,-0.019519644337590236,0.0,0.0,0.0,-0.6083009383771285,-0.9297493852916201,-0.8984734349849242,0.0006170152641396654,0.001313772176309219,-0.15970616041927085
3905,13.0,300.168,8017.1849,0.0,-0.019524901604679124,-0.01952464654777719,0.0,0.0,0.0,-0.5986187155890674,-0.9315896805207431,-0.9068156243832342,0.0004768228213012486,0.0001983204935152088,-0.15905827817282983
3906,13.0,299.95038999999997,7940.0902,0.0,-0.019529883103360013,-0.01952964875796437,0.0,0.0,0.0,-0.5902731115379204,-0.9281457650208551,-0.8951702700564271,0.008751282945359382,-0.0019314449789687783,-0.16032448616029485
3907,13.0,299.94333,7873.6452,0.0,-0.019534897592098477,-0.019534650968151435,0.0,0.0,0.0,-0.5824205853829365,-0.9159876250834401,-0.8949833254129772,0.004593107488954415,-0.0028111701966908975,-0.16211208225171686
3908,13.0,299.94392999999997,7886.3638,0.0,-0.019539879090779366,-0.019539620269060864,0.0,0.0,0.0,-0.5870946878292345,-0.9210802504835431,-0.8890827242506331,0.004452218811574786,-0.0017075266367197585,-0.16472781778236986
3909,13.0,299.98811,7954.173000000001,0.0,-0.01954489357951772,-0.01954462247924804,0.0,0.0,0.0,-0.5994787318764445,-0.9227926127550401,-0.8955986215362022,-0.005330162127671046,0.0014609580004103285,-0.15725918169277284
3910,13.0,299.82952,7976.5132,0.0,-0.019549908068256183,-0.019549624689435108,0.0,0.0,0.0,-0.5995379056822845,-0.9275899872085042,-0.8975329362421041,-0.004805999744940246,0.005241124295008695,-0.16143541356993485
3911,13.0,299.99467000000004,7973.9353,0.0,-0.019554889566937073,-0.019554626899622285,0.0,0.0,0.0,-0.5904908387194084,-0.9324817459087831,-0.9009046272748642,-0.005163482384896035,0.003985797093742546,-0.15553116470723086
3912,13.0,299.93424,7969.355,0.0,-0.019559904055675426,-0.019559629109809462,0.0,0.0,0.0,-0.5970582901700654,-0.9287999395504172,-0.8966266954851653,-0.004195663683604766,0.0006036579123113974,-0.16537119106586584
3913,13.0,300.13622999999995,8045.0235,0.0,-0.019564885554356537,-0.019564631319996417,0.0,0.0,0.0,-0.6001285089005725,-0.9368361071535252,-0.908521643709105,-0.001048551024208929,-0.004548370875839256,-0.15710427601748483
3914,13.0,300.0355,8025.9527,0.0,-0.01956990004309478,-0.019569633530183594,0.0,0.0,0.0,-0.6024111688583534,-0.9383882948492142,-0.8988897389210101,0.002366520285082368,-0.006836029297688563,-0.16503796350547884
3915,13.0,300.07506,7951.1642,0.0,-0.01957488154177567,-0.01957463574037055,0.0,0.0,0.0,-0.5974819300368754,-0.928044531203364,-0.8914289251221852,0.00019859047400435381,-0.004399038886701336,-0.15423191463400485
3916,13.0,300.14833,7929.0934,0.0,-0.019579896030514132,-0.019579637950557727,0.0,0.0,0.0,-0.5930289187623975,-0.9276460604690381,-0.8895714249063642,0.0003016834027788337,-0.005581700857045985,-0.16354658094829083
3917,13.0,300.0766,7931.683000000001,0.0,-0.019584910519252485,-0.019584640160744682,0.0,0.0,0.0,-0.5904104677214764,-0.9201677073109821,-0.9004554028430292,-0.0014352424221473986,0.005374191289566385,-0.15065588145357786
3918,13.0,299.99985,7992.3263,0.0,-0.019589892017933375,-0.019589642370931637,0.0,0.0,0.0,-0.5953252981265325,-0.928500676133382,-0.9056416424198711,-0.0027797403944890176,0.002116175366975248,-0.15668513498111886
3919,13.0,300.08962,8047.6217,0.0,-0.01959490650667184,-0.019594644581118814,0.0,0.0,0.0,-0.5993240693811804,-0.930389161537261,-0.9165628269002081,0.0018659130287512781,-0.0031749348859416767,-0.15592636264373386
3920,13.0,300.00644,8013.4944,0.0,-0.019599888005352728,-0.01959964679130588,0.0,0.0,0.0,-0.6049886339327294,-0.929714438295671,-0.9011991182839282,-0.001098254791964309,-0.007526437752151573,-0.15866762972927584
3921,13.0,299.80093999999997,7997.7107,0.0,-0.01960490249409108,-0.019604649001493057,0.0,0.0,0.0,-0.6013165243778205,-0.9303382963822412,-0.8994495292037571,0.0016273080316027983,-0.004284035304326366,-0.15778297119946685
3922,13.0,299.68637,8053.878000000001,0.0,-0.01960988399277197,-0.019609618302402487,0.0,0.0,0.0,-0.6028574244673954,-0.9374730361663851,-0.9078473460325572,0.0016718779650765087,0.0016917331074110585,-0.15915510435238583
3923,13.0,299.87788,8062.4971,0.0,-0.019614898481510434,-0.019614620512589553,0.0,0.0,0.0,-0.6007625704156494,-0.940096056965257,-0.9099391805990052,-0.004285316052452766,0.007795248038756083,-0.15974121887273085
3924,13.0,299.99647999999996,7949.746,0.0,-0.019619879980191324,-0.01961962272277673,0.0,0.0,0.0,-0.5905312066033924,-0.9290153970516811,-0.8969776650548031,-0.0025787965863324075,0.007349284955017953,-0.15632295886537484
3925,13.0,300.01276,7888.3286,0.0,-0.019624894468929677,-0.019624624932963908,0.0,0.0,0.0,-0.5799643252855224,-0.923000247965532,-0.8948903394513001,-0.004142750547482646,0.002789023791905217,-0.16516829786584183
3926,13.0,300.06637,7925.6169,0.0,-0.01962990895766814,-0.019629627143150863,0.0,0.0,0.0,-0.5930536015348334,-0.9247320241089451,-0.891403999169725,-0.006682843006495254,0.00010372348444421088,-0.16102055858149186
3927,13.0,300.08493,8002.6455,0.0,-0.01963489045634903,-0.01963462935333804,0.0,0.0,0.0,-0.6005275369224534,-0.9297999160741071,-0.902276942812801,-0.0033486680653128068,-0.008584531971102342,-0.16387196595290385
3928,13.0,299.96171,8038.2895,0.0,-0.019639904945087494,-0.019639631563524995,0.0,0.0,0.0,-0.6003594691283665,-0.9356898375803971,-0.90738999533492,-0.0005894944693660744,-0.005091017777494336,-0.16315511177215583
3929,13.0,300.02533999999997,8018.2462,0.0,-0.019644886443768383,-0.019644633773712172,0.0,0.0,0.0,-0.5968923603336895,-0.9309092932110942,-0.9095449857801012,0.0033001484829492966,0.002077511465684418,-0.15554942347403283
3930,13.0,299.71892,8006.6044,0.0,-0.019649900932506736,-0.01964963598389935,0.0,0.0,0.0,-0.5929445352940693,-0.9301606635072102,-0.9107026138868501,0.002029577237903678,0.006933057012689453,-0.15785046378862785
3931,13.0,299.95979,8078.9329,0.0,-0.019654882431187626,-0.019654638194086305,0.0,0.0,0.0,-0.6006471510967585,-0.9432542055394421,-0.911892524141785,0.0030096823059325172,0.0014786571491820987,-0.16110583370990786
3932,13.0,300.01136,8079.1312,0.0,-0.01965989691992609,-0.01965964040427326,0.0,0.0,0.0,-0.6120526083298895,-0.93644220617715,-0.9073593343868942,-0.0025240655782058775,-0.0027349957766980675,-0.16220547351343384
3933,13.0,299.91346,8000.0269,0.0,-0.01966487841860698,-0.019664642614460326,0.0,0.0,0.0,-0.6044851195605364,-0.9307325013336462,-0.8965907859016212,0.0014698255599854884,-0.005310814724961604,-0.16094983372451185
3934,13.0,300.15342999999996,7939.3675,0.0,-0.019669892907345332,-0.019669644824647503,0.0,0.0,0.0,-0.5907660475790694,-0.9284670159650602,-0.8941364205818942,0.0005383601951195145,-0.001991979883668108,-0.15945236153422285
3935,13.0,300.29586,7974.0041,0.0,-0.019674907396083796,-0.01967464703483468,0.0,0.0,0.0,-0.5935681805981184,-0.9284619598470611,-0.9018679950724411,-0.0003171943265021426,-0.0005627572107623124,-0.15493672127106384
3936,13.0,300.0786,8075.8144,0.0,-0.019679888894764686,-0.01967961633574411,0.0,0.0,0.0,-0.6030836528172224,-0.9366812521407422,-0.9150810195564651,-0.00029112344195914675,0.0046147312593385155,-0.15531300182819985
3937,13.0,300.12291,8064.0671,0.0,-0.01968490338350304,-0.019684618545931176,0.0,0.0,0.0,-0.6027283262721544,-0.937319569306239,-0.9112271531986181,-0.0016633523774100985,0.0042390793225645556,-0.16029786808016785
3938,13.0,299.96348,8010.8938,0.0,-0.019689884882183928,-0.019689620756118353,0.0,0.0,0.0,-0.6060536003178334,-0.9289768530178771,-0.9000812197136001,0.00016315205175685383,0.003166275549262067,-0.15842538189536787
3939,13.0,299.99018,8047.0336,0.0,-0.019694899370922392,-0.01969462296630531,0.0,0.0,0.0,-0.6035942700726165,-0.9410828409726452,-0.9014201790582451,0.005306317617042775,-0.007186692055196284,-0.16787294609276984
3940,13.0,300.04736,8080.1181,0.0,-0.01969988086960328,-0.019699625176492486,0.0,0.0,0.0,-0.6107731267661144,-0.9379414515551142,-0.907439563529812,0.006009834589374494,-0.0024952536089623573,-0.15854656660732785
3941,13.0,300.08109,8078.6543,0.0,-0.019704895358341745,-0.01970462738667944,0.0,0.0,0.0,-0.6036801430185914,-0.9382621350792631,-0.913766905104272,0.003008075595248947,-0.0027433958226770875,-0.16543178342184583
3942,13.0,299.96961,8011.7686,0.0,-0.019709909847080098,-0.019709629596866618,0.0,0.0,0.0,-0.5956277836788855,-0.9307117195740952,-0.9090381074175762,0.0003874416589750146,-0.0007226467289196792,-0.15436275561941787
3943,13.0,299.85791,7950.1017,0.0,-0.019714891345760988,-0.019714631807053795,0.0,0.0,0.0,-0.5862484922732214,-0.9319851722997752,-0.8983987179225502,-0.0006396095153370444,0.00011997756632086388,-0.16306642199090285
3944,13.0,299.74553,8008.9443,0.0,-0.01971990583449945,-0.01971963401724075,0.0,0.0,0.0,-0.5975512160787134,-0.9403673850770352,-0.8966004725725771,-0.004300396253691065,-0.0008096921268503913,-0.15977149478571884
3945,13.0,299.90578,8117.894,0.0,-0.01972488733318034,-0.019724636227427927,0.0,0.0,0.0,-0.6100942086691105,-0.9464663299464542,-0.9110765437037541,0.006662159025578904,-6.803998638177383e-05,-0.16374153026753083
3946,13.0,300.14251,8092.7983,0.0,-0.019729901821918694,-0.019729638437614883,0.0,0.0,0.0,-0.6085137918256355,-0.9423910380442541,-0.9091037660240561,-0.0019111126971621383,0.004169837559755926,-0.15633733688429385
3947,13.0,300.21462,7983.8187,0.0,-0.019734883320599583,-0.01973464064780195,0.0,0.0,0.0,-0.5864117471293334,-0.9390233594818901,-0.9014464019708331,3.044134633182697e-05,-0.002858531026240047,-0.16050212916782686
3948,13.0,300.14257000000003,7994.353,0.0,-0.019739897809338047,-0.019739642857989126,0.0,0.0,0.0,-0.5903153438020884,-0.9317286579044591,-0.9080396811665392,-0.0050100888840572755,-0.0034797034934199965,-0.15965125239635183
3949,13.0,300.06172999999995,8151.6287,0.0,-0.019744879308018937,-0.01974464506817608,0.0,0.0,0.0,-0.6157957973793134,-0.948238129468817,-0.9138576619157291,-0.0028533185637506175,-0.0017272110464124583,-0.15866766012677885
3950,13.0,300.26466,8185.1467,0.0,-0.01974989379675729,-0.019749614369085733,0.0,0.0,0.0,-0.6230555316957934,-0.945417160130409,-0.9196075421256982,0.00045692047164453954,0.002367298765134198,-0.16341854666565483
3951,13.0,300.12469,8067.4038,0.0,-0.019754908285495754,-0.0197546165792728,0.0,0.0,0.0,-0.6075035916084365,-0.9380318334640342,-0.9067538870546412,0.0027601136387270077,-0.0013624515482134987,-0.16449993783487982
3952,13.0,299.96157999999997,8002.9059,0.0,-0.019759889784176643,-0.019759618789459754,0.0,0.0,0.0,-0.6024518609823694,-0.9331437629941192,-0.8970879471956871,0.004783473067392035,-0.001081032276039579,-0.15993212532407186
3953,13.0,299.95252,8035.5573,0.0,-0.019764904272914885,-0.01976462099964693,0.0,0.0,0.0,-0.5970583205675685,-0.9328098666886662,-0.9127405840779822,0.0051956362556193755,-0.006608468118680024,-0.15687807806516085
3954,13.0,299.83606000000003,8083.5338,0.0,-0.019769885771595996,-0.019769623209833886,0.0,0.0,0.0,-0.6018488454503564,-0.9387638154687751,-0.9165797785743812,0.0028440298974338972,-0.0008987988605195411,-0.15618454890171485
3955,13.0,299.9362,8065.7037,0.0,-0.01977490026033435,-0.019774625420021064,0.0,0.0,0.0,-0.5993299867617644,-0.941902155003505,-0.9105403722808381,-0.0013511212842702888,0.0015920924230522885,-0.16147956087679186
3956,13.0,300.00588999999997,8009.1174,0.0,-0.01977988175901524,-0.01977962763020824,0.0,0.0,0.0,-0.5931733474316515,-0.9385758271777221,-0.9028225171966452,-0.003916485416677017,0.0026658970848035574,-0.16330947029238985
3957,13.0,299.92132000000004,8003.1136,0.0,-0.019784896247753703,-0.019784629840395196,0.0,0.0,0.0,-0.5903859977315614,-0.94244024146911,-0.8999204473202331,-0.0029745259725128567,0.005317436415690114,-0.16773643090679682
3958,13.0,300.0667,8133.9567,0.0,-0.019789877746434592,-0.019789632050582373,0.0,0.0,0.0,-0.6144629884627755,-0.9429148174184472,-0.9151419057549741,-0.008396293305949633,0.006129689410578244,-0.15662715681039685
3959,13.0,300.1997,8171.1444,0.0,-0.019794892235172945,-0.01979463426076944,0.0,0.0,0.0,-0.6090325961418374,-0.9495418986374891,-0.9252493693450032,-0.0053661716176749055,-0.0005251327926165715,-0.16522198998864085
3960,13.0,300.07243,8063.4196,0.0,-0.01979990672391141,-0.019799636470956616,0.0,0.0,0.0,-0.6004192204867634,-0.9384846144037201,-0.9121743596571001,-0.0056971933325942045,-0.003126417228753357,-0.16047192418234585
3961,13.0,300.29172,8039.2624,0.0,-0.0198048882225923,-0.019804638681143683,0.0,0.0,0.0,-0.5986545035825994,-0.9319059564069571,-0.9131745590958121,-0.00019219076610775182,-0.0022570509734285878,-0.16235749142593683
3962,13.0,300.11978,8115.2542,0.0,-0.01980990271133054,-0.01980964089133075,0.0,0.0,0.0,-0.6060067273682075,-0.9446266730648941,-0.9162012182045202,0.008907967178547912,0.00047858393103505654,-0.16587787691087183
3963,13.0,299.97132999999997,8111.7023,0.0,-0.01981488421001143,-0.019814643101517704,0.0,0.0,0.0,-0.6121182568038684,-0.9385270290529061,-0.9151096641367921,0.004893570391457796,-0.0009690668531619521,-0.16744457434799284
3964,13.0,300.19856,8089.5754,0.0,-0.019819898698750005,-0.01981964531170466,0.0,0.0,0.0,-0.6082260287972354,-0.9387825301981221,-0.912020355774401,0.004060130336978666,0.00011662892672787888,-0.16148202307453485
3965,13.0,299.93798,8025.6559,0.0,-0.019824880197430894,-0.019824614612614422,0.0,0.0,0.0,-0.5942137830318345,-0.9362843722090731,-0.9091008478637681,-7.625029520006823e-06,-0.0006127397134877015,-0.15926360317309385
3966,13.0,299.72263,8004.6953,0.0,-0.019829894686169136,-0.0198296168228016,0.0,0.0,0.0,-0.5936479031159864,-0.9299482153587432,-0.9096313754836273,-0.002158632775315468,0.001077968106412169,-0.15727464388929885
3967,13.0,299.91598,8170.7628,0.0,-0.01983490917490771,-0.019834619032988554,0.0,0.0,0.0,-0.6099211658170325,-0.9495896024521971,-0.9241970787186502,-0.007216790852066803,0.001035569263927729,-0.15612724960855984
3968,13.0,299.90952999999996,8245.9295,0.0,-0.0198398906735886,-0.01983962124317551,0.0,0.0,0.0,-0.6196771430798724,-0.9545594523376831,-0.9323200615903261,-0.006414073655194784,0.004374206558550576,-0.16160232625890783
3969,13.0,299.96811,8122.4294,0.0,-0.019844905162326842,-0.019844623453362686,0.0,0.0,0.0,-0.6134830134960594,-0.9444100199285121,-0.9111226972458092,-0.0039124485269536055,0.009298619269802272,-0.15934044806067785
3970,13.0,300.11005,8039.2408,0.0,-0.019849886661007954,-0.01984962566354964,0.0,0.0,0.0,-0.6017347332240944,-0.9386817422106751,-0.9033119777899511,0.0011180627168441988,0.006805267328627592,-0.16254059585150785
3971,13.0,300.02155,8121.6267,0.0,-0.019854901149746196,-0.01985462787373682,0.0,0.0,0.0,-0.6106482842212934,-0.9367160775466791,-0.9214073580133262,0.006638989339517234,0.00092590268261198,-0.16053315488588885
3972,13.0,299.9794,8174.8269,0.0,-0.019859882648427196,-0.019859630083923885,0.0,0.0,0.0,-0.6145393672553134,-0.94461801990904,-0.9257858548754501,0.0005029654439513245,-0.0023173073356754278,-0.16505635399479385
3973,13.0,300.00153,8059.7146,0.0,-0.01986489713716566,-0.019864632294111062,0.0,0.0,0.0,-0.5968910633735615,-0.9389958902716791,-0.9140650336811952,0.0037693796393338066,-0.00827168826695207,-0.16468047873769784
3974,13.0,299.98562000000004,7994.8276,0.0,-0.01986987863584655,-0.01986963450429824,0.0,0.0,0.0,-0.5907144326189755,-0.936446117322536,-0.9030674197458151,0.0038173306870662063,-0.008051589674930032,-0.16803668730892982
3975,13.0,300.11401,8057.1283,0.0,-0.01987489312458479,-0.019874636714485194,0.0,0.0,0.0,-0.6020395188541744,-0.9429941852987801,-0.9041321125533921,0.0018116358553445383,-0.0015987530225846387,-0.16641944895682084
3976,13.0,300.005,8165.516,0.0,-0.019879907613323367,-0.01987963892467237,0.0,0.0,0.0,-0.6128552341316024,-0.9518163816669631,-0.9174413653994131,0.001194827760320319,-6.820048722411403e-05,-0.16251784838676286
3977,13.0,299.99301,8237.6875,0.0,-0.019884889112004256,-0.019884641134859327,0.0,0.0,0.0,-0.6165528775890314,-0.958734458182224,-0.9287639590393661,-0.003708114383962397,0.0003293692154637107,-0.16194065046729786
3978,13.0,299.78983999999997,8163.1288,0.0,-0.019889903600742498,-0.01988964334504628,0.0,0.0,0.0,-0.6104023785545245,-0.9508474511263371,-0.9201375023255011,-0.004673489126012465,0.0005583441316742754,-0.15453107672602984
3979,13.0,300.04592,8083.6772,0.0,-0.019894885099423387,-0.019894612645956045,0.0,0.0,0.0,-0.6008480887240895,-0.9451841632699141,-0.9112037775188111,-0.0026058139883238175,-0.006509251783463134,-0.16049240196686684
3980,13.0,299.95989,8167.8001,0.0,-0.019899899588161962,-0.019899614856143,0.0,0.0,0.0,-0.6147889104899414,-0.9492404668652401,-0.9187779030763191,0.001121265600410299,-0.005155340515042495,-0.16168392328946082
3981,13.0,300.23847,8230.3495,0.0,-0.01990488108684285,-0.019904617066330177,0.0,0.0,0.0,-0.6248112306740674,-0.9464004686899542,-0.9306090469414622,0.0029285515730755373,-0.001127119348888019,-0.15733094006485485
3982,13.0,300.05462,8085.2823,0.0,-0.019909895575581094,-0.019909619276517132,0.0,0.0,0.0,-0.6029088266449685,-0.9419067855564621,-0.9129083174995362,0.004640174171999536,0.0011792805521109288,-0.16349763083595983
3983,13.0,299.89455,8022.9955,0.0,-0.019914877074262205,-0.019914621486704087,0.0,0.0,0.0,-0.5919962547904815,-0.9370628421284021,-0.9097311907509782,0.0037966563320258064,0.0033911792772333372,-0.16472741248232983
3984,13.0,299.7967,8145.0842,0.0,-0.019919891563000447,-0.019919623696891264,0.0,0.0,0.0,-0.6131461483678134,-0.9435176809629451,-0.9192383948492662,0.004306866463529626,0.000988708898867971,-0.16420204230547983
3985,13.0,300.07321,8223.3397,0.0,-0.019924906051739022,-0.01992462590707833,0.0,0.0,0.0,-0.6151139509895205,-0.9578913834365191,-0.9266846077141502,0.004887309113789855,0.0016208741974428284,-0.16140739720466984
3986,13.0,299.6944,8145.3843,0.0,-0.01992988755041991,-0.019929628117265508,0.0,0.0,0.0,-0.6114614883540505,-0.9482821957156661,-0.9162497427518091,-0.0006928522617166944,-0.0036947510336935367,-0.16386997998270786
3987,13.0,299.89743,8122.6204,0.0,-0.019934902039158375,-0.019934630327452685,0.0,0.0,0.0,-0.6065977662840385,-0.951270969403135,-0.9112050542139372,0.001164899493441629,-0.0006518155921366903,-0.16112105272640986
3988,13.0,300.10582,8114.6334,0.0,-0.019939883537839043,-0.01993963253763964,0.0,0.0,0.0,-0.6027111922129634,-0.945382496844488,-0.9185522522790492,-0.0007041804687622014,-0.0018675483130876683,-0.15967739424893185
3989,13.0,300.20307,8175.3393,0.0,-0.019944898026577618,-0.019944634747826817,0.0,0.0,0.0,-0.6118286192627834,-0.949412455937214,-0.9238579439101801,-0.006728203173721953,0.0007757632142043683,-0.16177036365549183
3990,13.0,300.40817000000004,8239.9119,0.0,-0.019949879525258507,-0.019949636958013772,0.0,0.0,0.0,-0.6172650505543175,-0.9574064419386591,-0.9300559846393791,-0.007588505096302142,-0.002290064890836808,-0.16397720210828984
3991,13.0,300.26474,8133.4837,0.0,-0.01995489401399675,-0.01995463916820095,0.0,0.0,0.0,-0.6036487930604975,-0.9460472699700961,-0.9226798886814153,-0.0019774314360822883,-0.0024148719719043078,-0.16443203994567884
3992,13.0,299.88568,8054.595,0.0,-0.019959908502735213,-0.019959641378388127,0.0,0.0,0.0,-0.5996777645935875,-0.9426275914126001,-0.9060903906241591,0.0034374294833478766,0.0012186539311217787,-0.16536327758258484
3993,13.0,299.92115,8137.3374,0.0,-0.019964890001416102,-0.019964610679297445,0.0,0.0,0.0,-0.6061310531554774,-0.9468747305317602,-0.9205415763328801,0.006072670382400905,0.005713456604649265,-0.16389887787555985
3994,13.0,299.95757000000003,8211.945,0.0,-0.019969904490154455,-0.019969612889484623,0.0,0.0,0.0,-0.6143937733484445,-0.949178668741641,-0.9326537957757631,0.005071073266500965,0.003419468308100247,-0.15966952129565484
3995,13.0,299.94299,8169.0302,0.0,-0.019974885988835345,-0.0199746150996718,0.0,0.0,0.0,-0.6043489792771004,-0.9529827135920712,-0.9258495072467322,-0.0005395741295343204,0.0022513429303152475,-0.16140367857680285
3996,13.0,299.84119,8119.8086,0.0,-0.01997990047757381,-0.019979617309858755,0.0,0.0,0.0,-0.6082130085334504,-0.9438244221657182,-0.9161816219475861,-0.004790390221849706,-0.00013526633495974786,-0.16138419377737984
3997,13.0,299.73729,8170.1237,0.0,-0.019984881976254698,-0.01998461952004582,0.0,0.0,0.0,-0.6109265024337515,-0.9503757021447792,-0.9222113922326782,0.003195930137288747,-0.0015966798115550286,-0.15984503647797685
3998,13.0,300.09497000000005,8240.5817,0.0,-0.01998989646499305,-0.019989621730232887,0.0,0.0,0.0,-0.6265897987070984,-0.9560834412830892,-0.922257829484761,-0.0009163694987811282,-0.005001803841964605,-0.15950691491960686
3999,13.0,300.13221,8246.0829,0.0,-0.019994877963674162,-0.019994623940419953,0.0,0.0,0.0,-0.6149584069666694,-0.9595436498445851,-0.932101229966229,0.004797493611675756,-0.0038787301980758664,-0.16249430045443886
4000,13.0,300.15594,8175.5899,0.0,-0.019999892452412626,-0.01999962615060713,0.0,0.0,0.0,-0.6050871015774475,-0.951820647449884,-0.9282674462253642,-0.0005742941979909245,0.001044853573269019,-0.15830306234329586
4001,13.0,300.13923,8089.3819,0.0,-0.02000490694115087,-0.020004628360794086,0.0,0.0,0.0,-0.5994456188631764,-0.9408988448869862,-0.9186256521162931,-0.0035108927500481367,0.009463772956601672,-0.16578617777682184
4002,13.0,299.87316,8124.9359,0.0,-0.020009888439831758,-0.020009630570981263,0.0,0.0,0.0,-0.6067854506000614,-0.9432081026598921,-0.9197840806906211,-0.006604435788582064,0.0028688844157618468,-0.16744322672535986
4003,13.0,299.98872,8227.68,0.0,-0.020014902928570333,-0.020014632781168218,0.0,0.0,0.0,-0.6213031865753504,-0.9542758335021921,-0.9254302446203541,-0.003991774661382486,0.0020055320024305982,-0.17059548831646384
4004,13.0,299.982,8191.6303,0.0,-0.020019884427251,-0.020019634991355395,0.0,0.0,0.0,-0.6204721897708374,-0.9495377848420831,-0.9200410915784861,-0.0002063491326700738,-0.001999590506494218,-0.16484678347661086
4005,13.0,299.82288,8101.6355,0.0,-0.020024898915989464,-0.020024637201542572,0.0,0.0,0.0,-0.6000125626916295,-0.949703582955946,-0.9129787586464881,0.003967384211600336,-0.005057571911568485,-0.17027750003758083
4006,13.0,299.82401,8160.1805,0.0,-0.020029880414670354,-0.020029639411729527,0.0,0.0,0.0,-0.6076935456046834,-0.9490482938512741,-0.9237492728369551,0.0024760883886208976,-0.006103154112984415,-0.15742344979898484
4007,13.0,300.0196,8254.2628,0.0,-0.020034894903408706,-0.020034641621916705,0.0,0.0,0.0,-0.6164703585008875,-0.9566462611836352,-0.9359731828383611,-0.0005155245573508125,-0.0029334055476795875,-0.15802554327340684
4008,13.0,299.96496,8243.1337,0.0,-0.020039876402089596,-0.020039610922826245,0.0,0.0,0.0,-0.6158138838935985,-0.9626151047402142,-0.9272778352501971,0.001889810836334808,-0.0006001943194945675,-0.16276069403822982
4009,13.0,299.93595,8171.9798,0.0,-0.02004489089082806,-0.0200446131330132,0.0,0.0,0.0,-0.6140072285677954,-0.9508803513570842,-0.9191902249395122,0.0013277031492840987,0.005497183842354805,-0.16692815116952586
4010,13.0,299.82421,8165.0141,0.0,-0.020049905379566413,-0.020049615343200378,0.0,0.0,0.0,-0.6184530558990644,-0.9506947442037662,-0.9128126058950901,0.0004378012123276155,0.0013637069650873986,-0.16252743373270884
4011,13.0,300.19225,8169.4159,0.0,-0.020054886878247302,-0.020054617553387444,0.0,0.0,0.0,-0.6083954340814544,-0.950401732539848,-0.9245012563986701,-0.0027803772221768673,3.8648180715528466e-05,-0.17020690690311385
4012,13.0,300.05894,8209.2659,0.0,-0.020059901366985766,-0.02005961976357451,0.0,0.0,0.0,-0.6121798624099484,-0.956739318072819,-0.9264926778802081,-0.0036720042782236065,-0.001985925714320608,-0.16363686153220083
4013,13.0,299.88456,8206.9109,0.0,-0.020064882865666878,-0.020064621973761576,0.0,0.0,0.0,-0.6086551098170825,-0.9539223916023102,-0.9321184957479332,-0.002782588539195107,8.628294344246351e-05,-0.16407283265272785
4014,13.0,300.03,8134.0907,0.0,-0.02006989735440512,-0.02006962418394853,0.0,0.0,0.0,-0.6101071478728874,-0.9443963917146672,-0.9180569148351632,-5.579476773076485e-05,0.0006681943443056474,-0.16201818436494983
4015,13.0,300.16857999999996,8173.1744,0.0,-0.02007487885308601,-0.02007462639413571,0.0,0.0,0.0,-0.6130005341959424,-0.9548722933060582,-0.9165681059332291,0.005582646016739265,0.00037246628859206063,-0.16733589314226682
4016,13.0,300.08072000000004,8284.1728,0.0,-0.020079893341824584,-0.020079628604322663,0.0,0.0,0.0,-0.6283147658098395,-0.9612374595067511,-0.9286294500885912,0.01161753655856159,0.0007057834202879004,-0.15806449260725086
4017,13.0,300.19284,8281.5692,0.0,-0.020084907830562826,-0.02008463081450984,0.0,0.0,0.0,-0.6141488201367694,-0.965485915851041,-0.937755499896762,0.007056493571671692,-0.0008921053100939392,-0.15934548391367487
4018,13.0,299.96151000000003,8185.3717,0.0,-0.020089889329243715,-0.020089633024697018,0.0,0.0,0.0,-0.6047514219518184,-0.9583882812855591,-0.9250089149637721,0.002231072558089718,-0.0036335038141739064,-0.15584562687576586
4019,13.0,299.90398999999996,8196.6768,0.0,-0.02009490381798229,-0.020094635234883973,0.0,0.0,0.0,-0.6010964971186055,-0.9527209302962352,-0.9377676487654611,-0.008209361226800872,-0.002150716353609178,-0.15784747470083285
4020,13.0,299.89468999999997,8257.1921,0.0,-0.020099885316662958,-0.02009963744507115,0.0,0.0,0.0,-0.6210317368735604,-0.9604526973043012,-0.9284957821353992,-0.012056386322622688,0.0014365424220256987,-0.16290780782024883
4021,13.0,299.91483,8249.4597,0.0,-0.02010489980540142,-0.020104639655258216,0.0,0.0,0.0,-0.6159777061697664,-0.9641734023340061,-0.9274786411550151,-0.00954089415748794,0.0062750762091268045,-0.17107762311154684
4022,13.0,299.85971,8205.0812,0.0,-0.02010988130408231,-0.020109608956167646,0.0,0.0,0.0,-0.6231589034709953,-0.950603338912245,-0.9203775615391931,-0.004343699421889756,0.007011081627364884,-0.16986753904712085
4023,13.0,300.12793,8179.9191,0.0,-0.020114895792820664,-0.020114611166354823,0.0,0.0,0.0,-0.6066753001816905,-0.9521516357275501,-0.9276642179108301,0.002287948008727888,0.0051570498679611955,-0.16410827614122583
4024,13.0,300.08229,8176.0635,0.0,-0.020119877291501553,-0.02011961337654189,0.0,0.0,0.0,-0.6090863895896464,-0.953178655896409,-0.9230541022083472,0.0039833194945980265,-0.003066693633409097,-0.16323196679224083
4025,13.0,299.87907,8268.1395,0.0,-0.020124891780240017,-0.020124615586729067,0.0,0.0,0.0,-0.6093412523872994,-0.9611642217895231,-0.942802468247359,0.008552592808075191,-0.005731244108829754,-0.15549542737620387
4026,13.0,300.01426000000004,8335.5401,0.0,-0.02012990626897837,-0.020129617796916133,0.0,0.0,0.0,-0.6297767945116304,-0.9691612576737691,-0.934858009910802,0.0026775211912757678,-0.005628862076325435,-0.15999790552056384
4027,13.0,300.07912999999996,8220.5817,0.0,-0.02013488776765937,-0.0201346200071032,0.0,0.0,0.0,-0.6137774234451154,-0.9584100965602121,-0.9266640488696211,0.0028891824497151073,-0.0016061451886891884,-0.16149558036087283
4028,13.0,299.78253,8180.3515,0.0,-0.020139902256397724,-0.020139622217290154,0.0,0.0,0.0,-0.6119801001527334,-0.9575909142518652,-0.9170515782184441,-6.502476787994494e-05,-0.002870764703972417,-0.16827393981984484
4029,13.0,299.57113,8289.5935,0.0,-0.020144883755078835,-0.02014462442747733,0.0,0.0,0.0,-0.6148704973879934,-0.9674614901010151,-0.937497445361294,0.0006786486434049064,0.003299040291314927,-0.16375184515354885
4030,13.0,299.84805,8288.7194,0.0,-0.020149898243817077,-0.020149626637664286,0.0,0.0,0.0,-0.6179406553234944,-0.9627094585895261,-0.9389136042310582,-0.0023362300852679575,0.005821715690383604,-0.16523597284002084
4031,13.0,299.73314,8177.3915,0.0,-0.020154879742497966,-0.020154628847851463,0.0,0.0,0.0,-0.6028470791838744,-0.954824538828845,-0.9280512085215232,0.000936581680053415,0.004107624611565986,-0.16371339231225385
4032,13.0,300.013,8161.5653,0.0,-0.02015989423123643,-0.02015963105803842,0.0,0.0,0.0,-0.6167858440520234,-0.9482412401466241,-0.9158849828483101,-0.0038441761405156464,0.0031260263168647775,-0.16602597354548784
4033,13.0,299.87306,8238.4242,0.0,-0.02016487572991721,-0.020164633268225596,0.0,0.0,0.0,-0.6176930271315554,-0.9584244948441331,-0.9281577112395341,-0.0012103534876275889,0.0013629168326594189,-0.1717614453390348
4034,13.0,299.84962,8289.5482,0.0,-0.020169890218655673,-0.020169635478412662,0.0,0.0,0.0,-0.6269182335945124,-0.9651440148697981,-0.927753424449634,0.00023603909325774474,0.005024420496121695,-0.17149508215274684
4035,13.0,299.73309,8333.8041,0.0,-0.020174904707394137,-0.02017463768859984,0.0,0.0,0.0,-0.6247170389447715,-0.96727125239474,-0.9412800599721091,-0.005159975931599975,0.0025438778600611976,-0.16634213797419084
4036,13.0,300.01055,8248.707,0.0,-0.020179886206074915,-0.02017960698950927,0.0,0.0,0.0,-0.6167443717254304,-0.9619551445525811,-0.9287014516406971,-0.00014882273977016085,-0.007270932148635134,-0.16610302108309183
4037,13.0,300.16632999999996,8161.8231,0.0,-0.02018490069481338,-0.020184609199696335,0.0,0.0,0.0,-0.5987139509659665,-0.9602985920965921,-0.9219778786146321,-0.0004779133519863755,-0.010087959640179101,-0.16400832915136185
4038,13.0,300.14555,8280.1835,0.0,-0.02018988219349427,-0.020189611409883512,0.0,0.0,0.0,-0.6205171172802715,-0.9686686053426481,-0.9277833051950832,0.0031815644800209666,-0.005832917474214135,-0.16123990696313983
4039,13.0,299.83706,8359.3927,0.0,-0.02019489668223262,-0.02019461362007069,0.0,0.0,0.0,-0.6315921435232914,-0.968251500938983,-0.9412029921695031,0.005410428558192725,-0.005123981944322646,-0.16171433092496185
4040,13.0,299.94416,8265.845,0.0,-0.020199878180913622,-0.020199615830257645,0.0,0.0,0.0,-0.6185943536255094,-0.964584498164578,-0.9294316401927611,0.0006708470431999484,-0.002651087927967008,-0.16567402112325283
4041,13.0,300.11317,8209.9196,0.0,-0.020204892669651975,-0.02020461804044482,0.0,0.0,0.0,-0.6094009733481934,-0.9567212214260331,-0.9294883518008581,0.0009454214056483281,0.0008851881961662733,-0.16493770240808384
4042,13.0,300.06392,8285.7826,0.0,-0.020209907158390217,-0.020209620250631777,0.0,0.0,0.0,-0.6180904035557734,-0.962239796903174,-0.9383408342145302,0.0018090506490393982,0.004492845378309316,-0.16664419796150184
4043,13.0,299.9764,8313.7699,0.0,-0.020214888657071328,-0.020214622460818954,0.0,0.0,0.0,-0.6223690040905384,-0.961249365195426,-0.9435600956121312,-0.0011613648717927888,0.005242357319055385,-0.16344376646064385
4044,13.0,299.75073,8289.7253,0.0,-0.020219903145809792,-0.02021962467100591,0.0,0.0,0.0,-0.6274202584890584,-0.962056145322549,-0.9303931132126511,-0.0039110122449368566,-0.0026118812285976073,-0.16565321909869984
4045,13.0,299.67733,8264.1504,0.0,-0.02022488464449068,-0.020224626881192864,0.0,0.0,0.0,-0.6196772748023853,-0.9623094173175452,-0.9301086837770801,-0.005829628971014584,-0.0051126099344753154,-0.16779991102556183
4046,13.0,300.18397999999996,8234.6612,0.0,-0.020229899133229035,-0.02022962909138004,0.0,0.0,0.0,-0.6162746796415753,-0.9645099736197231,-0.9223467320485351,0.0023839267059002477,0.003278948048456977,-0.16610822918860585
4047,13.0,300.0043,8255.9566,0.0,-0.020234880631909924,-0.020234631301567108,0.0,0.0,0.0,-0.6129545427739035,-0.9641630570504851,-0.9324870553393071,0.003320671255774737,0.002156362993766458,-0.16768814953953184
4048,13.0,299.99261,8370.0939,0.0,-0.020239895120648388,-0.020239633511754285,0.0,0.0,0.0,-0.6343307964235754,-0.9717319035749722,-0.9382368544892682,0.0038574881190044366,0.0008263509210819863,-0.16378957858727283
4049,13.0,300.07941,8325.8948,0.0,-0.020244876619329166,-0.020244635721941462,0.0,0.0,0.0,-0.6190002008205634,-0.9699045678146281,-0.9419593529716501,0.001912838363407448,-0.0052299224098531555,-0.16379564795537185
4050,13.0,300.10837999999995,8167.8514,0.0,-0.02024989110806763,-0.02024960502285078,0.0,0.0,0.0,-0.6070553702942004,-0.953876471107778,-0.9218910228160602,0.002672297887010268,5.945968017021354e-05,-0.16468990196362784
4051,13.0,300.04908,8241.8403,0.0,-0.020254905596806094,-0.020254607233037958,0.0,0.0,0.0,-0.6065745324592454,-0.9620104781405421,-0.9367286317154181,0.0014507787885807187,-0.001258206351425299,-0.16563127210153383
4052,13.0,300.02669,8383.0353,0.0,-0.02025988709548676,-0.020259609443225135,0.0,0.0,0.0,-0.6306523033930365,-0.9684733520483781,-0.9491077412346411,-0.004539306543094675,0.00014675875944896184,-0.16372060665296584
4053,13.0,299.99351,8326.7948,0.0,-0.020264901584225337,-0.02026461165341209,0.0,0.0,0.0,-0.6156790000402864,-0.9686147105698291,-0.946843998656227,-0.007309358442777514,0.004275966895105076,-0.16611633518940583
4054,13.0,299.97099,8219.1739,0.0,-0.020269883082906226,-0.020269613863599267,0.0,0.0,0.0,-0.6105433723059395,-0.96114119061475,-0.926739090172027,-0.004868921461575136,0.008773393177116492,-0.17148220374397583
4055,13.0,299.95412999999996,8251.818000000001,0.0,-0.020274897571644468,-0.020274616073786222,0.0,0.0,0.0,-0.6171333280413174,-0.9595334565485791,-0.9316798496471421,0.0014594338696099086,0.009567423274256161,-0.16491199625304684
4056,13.0,299.89105,8320.9762,0.0,-0.02027987907032558,-0.0202796182839734,0.0,0.0,0.0,-0.6275971111615124,-0.9682696077182701,-0.9335022812770022,-0.0034975036632267364,0.0004186642110014406,-0.16979085627955284
4057,13.0,300.02171,8366.2637,0.0,-0.020284893559064043,-0.020284620494160577,0.0,0.0,0.0,-0.6295039971872074,-0.9700764656940931,-0.943554786181607,-0.0024670926529080876,-0.004449154540622366,-0.16463836806354185
4058,13.0,299.8898,8354.1217,0.0,-0.020289875057744933,-0.020289622704347532,0.0,0.0,0.0,-0.6267197986949284,-0.9737401146106671,-0.9389844709430522,-0.0023515766699575475,-0.0028085532756576275,-0.16748174036166083
4059,13.0,299.81093,8241.3531,0.0,-0.020294889546483286,-0.020294624914534598,0.0,0.0,0.0,-0.6062529471425074,-0.9638698022065431,-0.935042786199038,0.006964562605998813,-0.002203810050899118,-0.15863154789321485
4060,13.0,299.78597,8256.1177,0.0,-0.02029990403522175,-0.020299627124721664,0.0,0.0,0.0,-0.6163036484619344,-0.9638248949621111,-0.9295250719844821,0.003615145546212087,-0.0034552063484023167,-0.16515264315179684
4061,13.0,299.73285,8405.2229,0.0,-0.02030488553390264,-0.02030462933490873,0.0,0.0,0.0,-0.6327250280625984,-0.9731160032115721,-0.949136862042515,0.00032167000418135765,0.0010121338732923361,-0.16122142528131583
4062,13.0,299.97152,8363.3016,0.0,-0.020309900022640992,-0.020309631545095908,0.0,0.0,0.0,-0.6362938063723094,-0.9666524200286661,-0.9392886283580701,0.005952027151294344,0.0024679568539183777,-0.16603046224343085
4063,13.0,300.03765,8258.2974,0.0,-0.02031488152132188,-0.020314633755282863,0.0,0.0,0.0,-0.6104128960905625,-0.964720060895457,-0.9351832530604011,0.0005338861589054615,0.004587123132538806,-0.16922633411883883
4064,13.0,299.8795,8285.366,0.0,-0.020319896010060345,-0.02031963596547004,0.0,0.0,0.0,-0.6195915335789234,-0.9650463476926591,-0.9339064971393951,0.0017496109663731583,-0.002422796296961378,-0.16884766229146683
4065,13.0,300.05149,8381.4254,0.0,-0.020324877508741013,-0.02032460526637958,0.0,0.0,0.0,-0.6227823290713304,-0.972314725032492,-0.952646993436438,-0.003148703766027867,-0.003725995208477096,-0.17036109317083084
4066,13.0,300.26249,8358.4259,0.0,-0.020329891997479588,-0.020329607476566536,0.0,0.0,0.0,-0.6285169294697914,-0.972857077281018,-0.939378756954465,-0.005872217189942714,0.004182236194604576,-0.16743230388928185
4067,13.0,299.92385,8275.5679,0.0,-0.020334906486218052,-0.020334609686753713,0.0,0.0,0.0,-0.6115808492158304,-0.9662407061155331,-0.9377444656031731,-0.00962499513168806,0.0035710382627340363,-0.16999599889479886
4068,13.0,299.89772,8267.4072,0.0,-0.02033988798489872,-0.020339611896940668,0.0,0.0,0.0,-0.6199640245806853,-0.9666259134060502,-0.9264954035229771,-0.003021914970414787,0.0014363096784777286,-0.16774099053224684
4069,13.0,300.07659,8325.4835,0.0,-0.020344902473637183,-0.020344614107127845,0.0,0.0,0.0,-0.6170726951553335,-0.974908209590949,-0.9387582020632211,-8.839183404784481e-05,-0.0013411183779580785,-0.16928379553200984
4070,13.0,300.0224,8397.7922,0.0,-0.020349883972318183,-0.020349616317315022,0.0,0.0,0.0,-0.6285978070927734,-0.978214566257261,-0.9459067727112301,0.008552140695880572,-0.0016445330806527782,-0.16662173420678483
4071,13.0,300.20679,8404.7347,0.0,-0.020354898461056647,-0.020354618527501978,0.0,0.0,0.0,-0.6209320938587264,-0.9778450643432941,-0.956052324372518,0.004406700172032446,-0.005713197415273684,-0.16387376953808183
4072,13.0,300.1714,8326.5463,0.0,-0.020359879959737537,-0.020359620737689155,0.0,0.0,0.0,-0.6182175157808184,-0.972062851322634,-0.9407817942354341,0.006727954826122443,-0.007848087004970883,-0.16303012737232084
4073,13.0,300.22536,8349.8266,0.0,-0.020364894448476,-0.02036462294787622,0.0,0.0,0.0,-0.6248483460252304,-0.9729720406373642,-0.9403184146997022,0.00017394915362994482,-0.002556475294579468,-0.16964758271541286
4074,13.0,300.26932999999997,8477.6268,0.0,-0.02036987594715689,-0.020369625158063287,0.0,0.0,0.0,-0.6501397777963004,-0.975460359967942,-0.95138673322706,-0.0007100785266667943,0.0051891251104767755,-0.16540287539649284
4075,13.0,300.26223999999996,8418.6434,0.0,-0.020374890435895243,-0.020374627368250353,0.0,0.0,0.0,-0.6351805586199404,-0.9719119175877381,-0.9519648836016191,-0.010338659905096291,0.003548394149499236,-0.16559991201093885
4076,13.0,300.04435,8292.1116,0.0,-0.020379904924633707,-0.02037962957843731,0.0,0.0,0.0,-0.6141533696297183,-0.9715447664140031,-0.9348967464621252,-0.0061634335773335346,0.0005067914661964236,-0.17210965886840082
4077,13.0,300.06511,8298.3782,0.0,-0.020384886423314597,-0.020384631788624485,0.0,0.0,0.0,-0.6116744025975634,-0.9674711463744682,-0.9433542234568131,-0.0011770840285441487,-0.00041916156481302565,-0.16889130297327382
4078,13.0,299.82502999999997,8377.8904,0.0,-0.02038990091205295,-0.02038963399881144,0.0,0.0,0.0,-0.6337372041174925,-0.9705365420344991,-0.9423957496572191,0.005160708916722315,0.0013677716178635486,-0.16323413514745486
4079,13.0,300.06185,8400.7038,0.0,-0.02039488241073384,-0.020394603299721203,0.0,0.0,0.0,-0.6276637830180923,-0.9785380463516861,-0.9474023602563332,0.004396659572816516,0.0014708322239598386,-0.16584205851983685
4080,13.0,300.09815,8374.7546,0.0,-0.020399896899472303,-0.02039960550990816,0.0,0.0,0.0,-0.6312826969427514,-0.9730169782792991,-0.941416595423084,0.008203343939757012,-0.0025552106571296576,-0.16362147026318183
4081,13.0,299.94887,8346.1606,0.0,-0.02040487839815297,-0.020404607720095114,0.0,0.0,0.0,-0.6164355736249544,-0.9781337291642831,-0.9424551261130792,-0.0008320642026983431,0.008681264627674112,-0.16921616108783483
4082,13.0,299.99692999999996,8356.8223,0.0,-0.020409892886891434,-0.02040960993028229,0.0,0.0,0.0,-0.6245706547028245,-0.9686859319193581,-0.947008722724984,0.0018105204696344582,0.004868491235582676,-0.16769685335789083
4083,13.0,300.00105,8394.0663,0.0,-0.020414874385572324,-0.020414612140469468,0.0,0.0,0.0,-0.6161615097379064,-0.9767944151821031,-0.958630640576978,0.0015680844751828887,0.001011687597418292,-0.17545933197648783
4084,13.0,300.08822999999995,8380.9181,0.0,-0.0204198888743109,-0.020419614350656423,0.0,0.0,0.0,-0.6300690259729714,-0.9721424725154921,-0.9453783323865772,-0.0017216574226143584,-0.003766047667704966,-0.16454876635719884
4085,13.0,300.36457,8298.3133,0.0,-0.02042490336304914,-0.0204246165608436,0.0,0.0,0.0,-0.6158307849052664,-0.9666998603983481,-0.9399493788807811,-0.001184000676376769,-0.0042291588948104855,-0.17599005211386584
4086,13.0,300.11982,8292.5922,0.0,-0.020429884861730252,-0.020429618771030666,0.0,0.0,0.0,-0.6271928547691155,-0.966944712285013,-0.9266034058511361,-0.0010959387048857289,-0.003353408150605617,-0.16971435589700284
4087,13.0,299.96161,8383.8294,0.0,-0.020434899350468605,-0.020434620981217844,0.0,0.0,0.0,-0.6297315224971624,-0.97167058167892,-0.9470726892037972,-0.004960813822419205,0.0018695430985595381,-0.16962953673113185
4088,13.0,300.03694,8443.7772,0.0,-0.020439880849149494,-0.02043962319140491,0.0,0.0,0.0,-0.6365419614543003,-0.9749663600141881,-0.955189096082324,-0.0016689181602093982,0.002133988607708278,-0.16484600327403384
4089,13.0,299.9691,8396.8709,0.0,-0.02044489533788796,-0.020444625401591976,0.0,0.0,0.0,-0.6180095461977935,-0.981678088146584,-0.9527514595217481,-0.004657957015229566,0.004471792675681576,-0.16899783608878782
4090,13.0,299.7357,8386.654,0.0,-0.020449876836568848,-0.02044962761177893,0.0,0.0,0.0,-0.6349357776607825,-0.9690652319617921,-0.945332381494542,0.0009353974845290441,-0.0005956316948242715,-0.16284729652427685
4091,13.0,299.78109,8424.4637,0.0,-0.02045489132530709,-0.020454629821966108,0.0,0.0,0.0,-0.6338611651347265,-0.9779962817882182,-0.9489691691509652,0.0026256505881815375,-0.006074274965259264,-0.16108597400794783
4092,13.0,299.70874,8416.4529,0.0,-0.020459905814045665,-0.020459632032153063,0.0,0.0,0.0,-0.6357006902937734,-0.978535969188981,-0.9441548531558291,0.0063602136368542134,-0.0026676310596996876,-0.16685337331214584
4093,13.0,299.98706,8430.4352,0.0,-0.020464887312726554,-0.020464601333062826,0.0,0.0,0.0,-0.6234040086701854,-0.982034995361808,-0.9572027989335611,0.005768246786581634,0.003021988431047037,-0.16646862198417384
4094,13.0,300.00932,8388.862,0.0,-0.020469901801464796,-0.02046960354324978,0.0,0.0,0.0,-0.6212546214980574,-0.9798086518445851,-0.948941325038217,0.004559770446089306,0.0027606576527056973,-0.17167939234593682
4095,13.0,299.99795,8305.5632,0.0,-0.020474883300145685,-0.020474605753436736,0.0,0.0,0.0,-0.6053693119952994,-0.972876410092926,-0.9464380906661671,-0.0004010917488896736,0.0018161008432351982,-0.17565017763282284
4096,13.0,300.01927,8362.6667,0.0,-0.02047989778888426,-0.020479607963623914,0.0,0.0,0.0,-0.6283440791352324,-0.973019470874545,-0.9406783008702201,0.0018109056059974684,-0.0050177486495132356,-0.17015537300302783
4097,13.0,300.07169,8471.1702,0.0,-0.02048487928756515,-0.02048461017381087,0.0,0.0,0.0,-0.6375775435865043,-0.987945435182623,-0.9495012369109761,-0.005587617731004934,-0.0025350740339173277,-0.17367049971994383
4098,13.0,299.95893,8413.3427,0.0,-0.02048989377630339,-0.020489612383998046,0.0,0.0,0.0,-0.6375797828692253,-0.970828915350854,-0.9490374216777012,-0.0045174982598673655,-0.004700411485144496,-0.16391955831010083
4099,13.0,300.0047,8379.9345,0.0,-0.020494875274984503,-0.020494614594185112,0.0,0.0,0.0,-0.6182498181940064,-0.981937784147214,-0.9471032386943121,-0.008193206372506513,-0.004913603359184895,-0.17324183413263783
4100,13.0,299.95581,8433.7462,0.0,-0.020499889763722745,-0.02049961680437229,0.0,0.0,0.0,-0.6283478788231074,-0.97790865591957,-0.957391719414706,0.0010499989586018291,0.0027466324474715175,-0.15946699286566685
4101,13.0,299.90869,8471.3335,0.0,-0.020504904252461098,-0.020504619014559466,0.0,0.0,0.0,-0.6246850405066134,-0.987312701025177,-0.9630761132707121,0.004962670096602405,0.006648742479679794,-0.17135511178393284
4102,13.0,300.22028,8435.0649,0.0,-0.02050988575114221,-0.02050962122474642,0.0,0.0,0.0,-0.6331014910047524,-0.9855242538036711,-0.9454233510885202,0.006181786576394834,0.004541021671538946,-0.16557075067306085
4103,13.0,300.15064,8408.0011,0.0,-0.02051490023988045,-0.0205146234349336,0.0,0.0,0.0,-0.6363579856336434,-0.9740675463804821,-0.9453968444659041,0.002047205763143478,-0.0012072286243191889,-0.16976025612653284
4104,13.0,299.9604,8386.7123,0.0,-0.02051988173856134,-0.020519625645120554,0.0,0.0,0.0,-0.6311802776226434,-0.9764624744493431,-0.9417083810543811,-0.00017432415749195484,-0.003850153708155587,-0.16625593065568284
4105,13.0,299.94183,8362.2229,0.0,-0.020524896227299916,-0.02052462785530773,0.0,0.0,0.0,-0.6170283553309575,-0.9789370338435631,-0.9459415474546621,-0.0031272701826875367,-0.007440984089067953,-0.17609812536953182
4106,13.0,300.01399,8471.6658,0.0,-0.020529877725980805,-0.020529630065494686,0.0,0.0,0.0,-0.6287280603931283,-0.981701747536419,-0.9647450476429231,-0.006503132259484182,-0.0003146850531594967,-0.16572313335559985
4107,13.0,299.84463,8463.5371,0.0,-0.020534892214719047,-0.020534632275681752,0.0,0.0,0.0,-0.6281870962972395,-0.987624549008454,-0.9568922985729171,-0.006693080986830665,0.0007326176570587332,-0.17032641975240884
4108,13.0,299.88689,8367.3785,0.0,-0.020539873713399937,-0.020539601576591404,0.0,0.0,0.0,-0.6275747993943104,-0.9738240522489512,-0.9420752890480922,-0.00023273800549195278,0.0020255986100610177,-0.16350464252665184
4109,13.0,299.8328,8397.5703,0.0,-0.02054488820213851,-0.02054460378677836,0.0,0.0,0.0,-0.6329945424566974,-0.9798878677374031,-0.9397692838080072,0.005119671274422214,0.0025695518950700274,-0.16976635589213485
4110,13.0,299.89973,8511.9527,0.0,-0.020549902690876753,-0.020549605996965536,0.0,0.0,0.0,-0.6420399274244074,-0.992952917176823,-0.9524282226073472,0.0038952429323055463,0.002232603882965848,-0.16394754427786284
4111,13.0,300.0959,8459.6201,0.0,-0.020554884189557865,-0.02055460820715249,0.0,0.0,0.0,-0.6263019343536884,-0.9867150253211909,-0.958496293746219,0.005558160422772725,0.0011059710967758491,-0.1715450657801798
4112,13.0,300.03837999999996,8417.4795,0.0,-0.020559898678296107,-0.020559610417339558,0.0,0.0,0.0,-0.6209934258872795,-0.9866450705342871,-0.9510650972478172,-0.00033941788015043675,0.000991218212740621,-0.17049917889445884
4113,13.0,299.9781,8447.2736,0.0,-0.020564880176976996,-0.020564612627526735,0.0,0.0,0.0,-0.6237764388769413,-0.98624537376734,-0.9577384232014231,0.0016063834037876984,0.001191558508872669,-0.18000974698307884
4114,13.0,299.8213,8416.4193,0.0,-0.02056989466571535,-0.020569614837713912,0.0,0.0,0.0,-0.6334742353190395,-0.9806150975991751,-0.9442919661593611,0.0013658474559236488,0.002259838120478658,-0.17073520537275283
4115,13.0,300.05472000000003,8405.8049,0.0,-0.02057487616439646,-0.020574617047900867,0.0,0.0,0.0,-0.6287903955392804,-0.9846744814748052,-0.9416899297700602,-0.002099756257054808,0.0029363394133441376,-0.17637880577973283
4116,13.0,299.99377999999996,8462.3617,0.0,-0.020579890653134703,-0.020579619258088044,0.0,0.0,0.0,-0.6406729719794994,-0.9780062420367012,-0.9536674274796471,-0.0013188530176106588,-0.0013226655737619286,-0.16336552328792187
4117,13.0,299.98082,8433.7186,0.0,-0.020584905141873278,-0.020584621468275,0.0,0.0,0.0,-0.6255496062869395,-0.9819180257702641,-0.9561722222568511,-0.0005456470845386746,-0.0019489634652477181,-0.17004031845417283
4118,13.0,299.9843,8388.8193,0.0,-0.020589886640554167,-0.020589623678462177,0.0,0.0,0.0,-0.6185412491877684,-0.9790850798156739,-0.9523652795111351,-0.0011712360555919989,-0.0013623393814274287,-0.16429949670009786
4119,13.0,300.12239,8507.7438,0.0,-0.02059490112929241,-0.020594625888649354,0.0,0.0,0.0,-0.6326159212918304,-0.9870612224828581,-0.966464533062623,-0.0005861858227545365,-0.0018438734205261384,-0.16500486062471184
4120,13.0,300.13603,8565.0311,0.0,-0.0205998826279733,-0.02059962809883631,0.0,0.0,0.0,-0.6508615665050353,-0.9945084891278461,-0.95818554007305,-0.01069348286486459,0.0024715160975446477,-0.16521652857060184
4121,13.0,300.03337,8468.7241,0.0,-0.020604897116711762,-0.020604630309023375,0.0,0.0,0.0,-0.6417875369569983,-0.9818704334130671,-0.950622671724153,-0.0067737595061680145,0.0012690509645955788,-0.16860282053730283
4122,13.0,299.95275,8448.7176,0.0,-0.02060987861539265,-0.020609599609933027,0.0,0.0,0.0,-0.6353558610197414,-0.984742176713986,-0.9481011583202992,-0.006170265010832744,0.005867135335391175,-0.17292630805149783
4123,13.0,299.77556,8464.5979,0.0,-0.020614893104131005,-0.020614601820119982,0.0,0.0,0.0,-0.6286311632860654,-0.987911734484297,-0.956483502820072,0.007075994887071323,0.0027278283494656975,-0.16893807459788984
4124,13.0,299.78397,8432.501,0.0,-0.020619874602811894,-0.02061960403030716,0.0,0.0,0.0,-0.6196052023227724,-0.9817616508823311,-0.961902881112423,0.005023807682461215,0.0004618630347048325,-0.17879905496859283
4125,13.0,299.98728,8433.0373,0.0,-0.020624889091550358,-0.020624606240494114,0.0,0.0,0.0,-0.6249992898926274,-0.9864270799077731,-0.952006386325715,0.008360594579751442,-0.005544066924481805,-0.17252451385684384
4126,13.0,300.00402,8439.6271,0.0,-0.02062990358028871,-0.02062960845068118,0.0,0.0,0.0,-0.6359891423322414,-0.9815759424040031,-0.9478708161750661,0.004002337388374946,-0.005150169697132175,-0.17403934302134585
4127,13.0,299.91201,8411.6563,0.0,-0.0206348850789696,-0.020634610660868358,0.0,0.0,0.0,-0.6307932971444514,-0.9804420851446001,-0.9456980938531351,0.0031711900148970874,0.0009788833518532651,-0.16447031040195584
4128,13.0,300.08887000000004,8452.4968,0.0,-0.020639899567708064,-0.020639612871055313,0.0,0.0,0.0,-0.6345301128507465,-0.9875591437144992,-0.9472587117896561,-0.005043072505287505,0.002072289174669018,-0.17341148259688086
4129,13.0,300.03746,8571.3387,0.0,-0.020644881066388954,-0.02064461508124249,0.0,0.0,0.0,-0.6381808732260484,-0.9929865773451451,-0.9743054879014651,-0.007969944008372233,-0.0035723093849844866,-0.16210175723319784
4130,13.0,299.87446,8504.1348,0.0,-0.020649895555127418,-0.020649617291429445,0.0,0.0,0.0,-0.6326992915100584,-0.9882879441139261,-0.9640574054625581,-0.009181690410912291,-0.0012758996233464888,-0.17111762622549484
4131,13.0,300.03832,8433.7724,0.0,-0.020654877053808418,-0.020654619501616622,0.0,0.0,0.0,-0.6218170766285673,-0.9875866433222131,-0.9542525186173911,0.0014437624369382587,0.0003158952689464357,-0.16880125543688684
4132,13.0,300.00274,8485.2578,0.0,-0.02065989154254666,-0.0206596217118038,0.0,0.0,0.0,-0.6432871369724974,-0.9844809000432001,-0.9515384471645332,0.0058502602629257345,0.006115333581836434,-0.17104377042570584
4133,13.0,300.05373,8508.1597,0.0,-0.02066487304122755,-0.020664623921990755,0.0,0.0,0.0,-0.6407475674518615,-0.988892509918592,-0.9566280226818351,0.0017735473787854983,0.004201642264494806,-0.17259397215119882
4134,13.0,299.93376,8425.728000000001,0.0,-0.020669887529966013,-0.020669626132177932,0.0,0.0,0.0,-0.6345274176054804,-0.978857959805759,-0.9478255644256002,0.0030030955723324574,0.003730246096621627,-0.17296555122787083
4135,13.0,299.96477000000004,8431.0039,0.0,-0.020674902018704366,-0.020674628342364998,0.0,0.0,0.0,-0.6186573676492284,-0.9865087073358291,-0.9576485884475572,-0.0038243143107304363,-0.0025106029294272177,-0.17152746562594284
4136,13.0,299.842,8489.8755,0.0,-0.020679883517385256,-0.020679597643274428,0.0,0.0,0.0,-0.6275310776524954,-0.991181137919462,-0.9619979442368051,-5.757088268530375e-05,-0.008048828365757514,-0.16772834517099883
4137,13.0,299.88738,8528.2146,0.0,-0.02068489800612372,-0.020684599853461605,0.0,0.0,0.0,-0.6396187156479524,-0.9903897794588611,-0.9623558039071232,-0.0005764621276398825,-0.012715166073889186,-0.16757673255853583
4138,13.0,299.67066,8559.2465,0.0,-0.02068987950480461,-0.02068960206364867,0.0,0.0,0.0,-0.6520379397386344,-0.993552923356039,-0.9562063383877181,-0.0038350202099620262,-0.002199992124522318,-0.16595689015366985
4139,13.0,299.67914,8545.5264,0.0,-0.020694893993542962,-0.020694604273835848,0.0,0.0,0.0,-0.6466761241844644,-0.987956479608713,-0.9629940400126121,0.0008583648417015143,0.004112203488767886,-0.16287261764427585
4140,13.0,299.87462,8490.0443,0.0,-0.02069987549222385,-0.020699606484022803,0.0,0.0,0.0,-0.6316261887266514,-0.99221422745642,-0.956921054610755,-0.0008094033201743883,0.012206288568916887,-0.17084804090388883
4141,13.0,300.0163,8496.8329,0.0,-0.020704889980962315,-0.02070460869420998,0.0,0.0,0.0,-0.6259166561356644,-0.9974771903308342,-0.9594311790834851,0.0011834330536707488,0.009031323082822191,-0.17624209807624083
4142,13.0,300.04741,8557.1799,0.0,-0.02070990446970067,-0.020709610904396936,0.0,0.0,0.0,-0.6370793082473324,-0.994386757260832,-0.9697029614422311,-0.004836264410852136,0.0032690657189066667,-0.17259554268885383
4143,13.0,300.08952,8461.148000000001,0.0,-0.02071488596838167,-0.02071461311458389,0.0,0.0,0.0,-0.6308685816268813,-0.9894134927225091,-0.9516956427850471,0.0004595062858997396,0.0006601165625209324,-0.17379376159460883
4144,13.0,300.07621,8403.224,0.0,-0.020719900457120022,-0.020719615324771068,0.0,0.0,0.0,-0.6232681419642764,-0.986615128993832,-0.9444869864061081,-0.0006162075416899493,-0.0008369973324002051,-0.17971329026882082
4145,13.0,300.25228,8511.161,0.0,-0.02072488195580091,-0.020724617534958245,0.0,0.0,0.0,-0.6356781758765514,-0.9905213195868431,-0.9609809248464332,0.0055119779017648645,-0.007845389023929611,-0.17268309762999481
4146,13.0,300.00151,8555.6662,0.0,-0.020729896444539375,-0.0207296197451452,0.0,0.0,0.0,-0.6358507526335834,-0.99637513899207,-0.968483008321831,0.004347959733260216,-0.002330431356270668,-0.16929345180546285
4147,13.0,299.76967,8533.5731,0.0,-0.020734877943220265,-0.020734621955332377,0.0,0.0,0.0,-0.6315261302792764,-0.9929311930946791,-0.9695358055732342,0.0026470355355170676,-0.005594249250259415,-0.17315202977627484
4148,13.0,299.87613,8569.1576,0.0,-0.020739892431958618,-0.020739624165519444,0.0,0.0,0.0,-0.6342031877059814,-0.998679259586969,-0.9719275013742761,0.004804401241582486,-0.0007719492395029582,-0.16778548234413784
4149,13.0,300.05382000000003,8564.2333,0.0,-0.020744873930639507,-0.02074462637570662,0.0,0.0,0.0,-0.6451870011749994,-0.9974961685052071,-0.96062990461429,-0.003268840574734447,-0.0033210632822384266,-0.16729434988816685
4150,13.0,299.88645,8568.9107,0.0,-0.02074988841937797,-0.02074959567661605,0.0,0.0,0.0,-0.6470976564910664,-0.994906655887142,-0.9627305949866121,-0.0016169776428582683,0.0024235976764654674,-0.16251824355430183
4151,13.0,300.33394,8601.2862,0.0,-0.020754902908116324,-0.020754597886803117,0.0,0.0,0.0,-0.6498439188996015,-0.9969760874938791,-0.9677562344226041,-0.008514397028330562,0.007365593519352482,-0.17057245714169084
4152,13.0,300.18405,8564.6095,0.0,-0.020759884406797213,-0.020759600096990294,0.0,0.0,0.0,-0.6364157814193474,-0.996233628483104,-0.970778019798331,-0.009363822926987371,0.007535767759072372,-0.16746753459525884
4153,13.0,300.01408,8483.011999999999,0.0,-0.020764898895535677,-0.02076460230717747,0.0,0.0,0.0,-0.6218460353164255,-0.9933474362357589,-0.963430365770674,-0.00982919947734146,0.0026266963636097473,-0.17887714615379985
4154,13.0,300.14857,8529.9933,0.0,-0.020769880394216567,-0.020769604517364426,0.0,0.0,0.0,-0.6339231861733473,-0.9963291779675342,-0.9626525949939141,-0.005049449800091895,-4.834318565360095e-05,-0.17232547100719983
4155,13.0,300.14142999999996,8606.8733,0.0,-0.02077489488295492,-0.020774606727551603,0.0,0.0,0.0,-0.6530004868036303,-0.9914011550461761,-0.9718729378563911,0.006371266776895073,0.002027269256825898,-0.16505959639511386
4156,13.0,300.03747000000004,8530.9235,0.0,-0.02077987638163592,-0.02077960893773856,0.0,0.0,0.0,-0.6358343481144644,-0.9983129392783161,-0.959040449579923,0.0035270951257721866,-0.004969803579956425,-0.17327758159616585
4157,13.0,300.00428,8495.3051,0.0,-0.020784890870374273,-0.020784611147925514,0.0,0.0,0.0,-0.6266446560675124,-0.9951025272639731,-0.9606134393001652,0.005596306147962415,-0.0067498596720842845,-0.17203233775326987
4158,13.0,299.91387000000003,8579.3263,0.0,-0.020789872369055162,-0.02078961335811269,0.0,0.0,0.0,-0.6379208935153904,-0.9990757139535962,-0.9709043416882981,-0.0003676589437576126,-0.008469469518896561,-0.17434251758376684
4159,13.0,299.93182,8598.2687,0.0,-0.020794886857793626,-0.020794615568299646,0.0,0.0,0.0,-0.6380364141592914,-1.00445053963905,-0.9711720220997161,0.0013041508599846688,0.00026287126299837375,-0.17505808493688782
4160,13.0,300.03853,8555.0771,0.0,-0.02079990134653198,-0.020799617778486823,0.0,0.0,0.0,-0.6432536085266883,-0.995861188143847,-0.9614150113217741,-0.005303587718623355,0.0026438338678510874,-0.18290606159892284
4161,13.0,300.05182,8535.6967,0.0,-0.02080488284521287,-0.02080461998867389,0.0,0.0,0.0,-0.6425025875525684,-0.996072207609673,-0.9560638551586561,-0.0016136541825302684,0.0009652320561709872,-0.16939718835070083
4162,13.0,299.8817,8476.794,0.0,-0.020809897333951333,-0.020809622198861066,0.0,0.0,0.0,-0.6353230013189984,-0.98914843662885,-0.9522622826384701,-0.001194657331653499,0.008052112106681593,-0.17411992680179883
4163,13.0,299.98823,8517.9889,0.0,-0.020814878832632222,-0.020814624409048244,0.0,0.0,0.0,-0.6321281528261914,-0.9894885948199211,-0.9676391939035531,0.005156161754248545,0.006834707006308063,-0.16875360228468383
4164,13.0,300.12811,8605.8217,0.0,-0.020819893321370575,-0.0208196266192352,0.0,0.0,0.0,-0.6405892673887383,-0.999536195594042,-0.9758294464493681,0.0006878749847079753,0.004332906991099626,-0.17226414911114785
4165,13.0,300.23036,8604.6717,0.0,-0.020824874820051464,-0.02082459592014474,0.0,0.0,0.0,-0.6352764019468994,-1.0005083887999902,-0.9798205575332601,-0.003606796770688127,-0.002000494122933398,-0.17090350621436284
4166,13.0,300.17774,8535.4793,0.0,-0.02082988930878993,-0.020829598130331917,0.0,0.0,0.0,-0.6424444776593333,-0.9909101441802171,-0.9612179544423262,-0.005661232883895184,0.0005213637352920945,-0.1712507166261298
4167,13.0,300.09604,8618.4243,0.0,-0.02083490379752817,-0.020834600340518872,0.0,0.0,0.0,-0.6533181609749824,-1.000047593052013,-0.9664200311182312,0.0027038343844476773,0.007326792525323124,-0.16591210449924984
4168,13.0,300.08432,8670.3909,0.0,-0.02083988529620917,-0.02083960255070605,0.0,0.0,0.0,-0.6607574128116794,-0.9989173226979641,-0.9759075781645791,0.0027646414481238674,-0.0031526133915387167,-0.16532213962852485
4169,13.0,299.98983,8589.1439,0.0,-0.020844899784947635,-0.020844604760893004,0.0,0.0,0.0,-0.6356887238100923,-1.001608099531023,-0.973588451335699,0.0037310355197745365,-0.011891829440132189,-0.17309943196358385
4170,13.0,299.77284,8539.0186,0.0,-0.020849881283628524,-0.02084960697108018,0.0,0.0,0.0,-0.6269201992997064,-1.003069398692742,-0.9656588472456081,0.003520113325958137,-0.011324799485420688,-0.17398599540358084
4171,13.0,299.96241000000003,8567.8387,0.0,-0.020854895772366766,-0.020854609181267136,0.0,0.0,0.0,-0.6373887446953713,-0.9963613993207141,-0.9706588818515731,0.004184915531844006,-0.002055523533214378,-0.17433516138804084
4172,13.0,299.91686,8547.981,0.0,-0.020859877271047877,-0.020859611391454203,0.0,0.0,0.0,-0.6442200363395674,-0.9985250733192521,-0.955627661123107,-0.000979723143668646,-0.0018676389989716181,-0.17899341660277482
4173,13.0,299.84233,8545.8152,0.0,-0.02086489175978623,-0.02086461360164127,0.0,0.0,0.0,-0.6424461393894975,-0.9939568555084041,-0.9613114368965521,-0.007140428980805472,0.0053663925061967046,-0.17789391865426285
4174,13.0,300.02935,8599.0468,0.0,-0.02086987325846712,-0.020869615811828335,0.0,0.0,0.0,-0.6401577039061463,-0.9990802533140442,-0.9746575619137121,-0.0037759589762081363,0.009301271553264032,-0.17139960359582385
4175,13.0,299.99816,8564.3587,0.0,-0.020874887747205362,-0.020874618022015512,0.0,0.0,0.0,-0.6290549247428874,-1.0009795804939932,-0.9733166773938771,-0.0034207505761017967,0.011572100397577388,-0.17301337663259084
4176,13.0,300.01351,8579.6604,0.0,-0.020879902235944048,-0.02087962023220269,0.0,0.0,0.0,-0.6259590505198485,-1.002407695714937,-0.9796357812450242,0.003625632887397106,0.0026821783927103975,-0.17143092315641484
4177,13.0,300.20221000000004,8684.045,0.0,-0.020884883734624826,-0.020884622442389644,0.0,0.0,0.0,-0.6523497269269054,-1.00857679802128,-0.9788063245806631,0.0014656483351232286,-0.003994537490430156,-0.17254288408115684
4178,13.0,300.04804,8651.261999999999,0.0,-0.02088989822336329,-0.02088962465257682,0.0,0.0,0.0,-0.6553101397440754,-1.003303044033301,-0.97115443207798,0.008591884721778001,-0.0017170176490814487,-0.16905053522648883
4179,13.0,300.21263999999996,8525.1342,0.0,-0.02089487972204418,-0.020894593953486362,0.0,0.0,0.0,-0.6422221503223914,-0.9929579631623211,-0.9562478107143112,0.0072550226021899835,0.0019937308811659184,-0.17380707570092283
4180,13.0,300.34572000000003,8582.2587,0.0,-0.02089989421078242,-0.020899596163673317,0.0,0.0,0.0,-0.6398229564706094,-1.003032982484148,-0.9659363967130001,0.0021138147982172777,-0.005516077815644495,-0.16934886645343183
4181,13.0,300.12576,8648.2019,0.0,-0.02090487570946331,-0.020904598373860495,0.0,0.0,0.0,-0.6449524033793463,-1.001954164970177,-0.9819308636490311,-0.003020432484193477,-0.007782744836497113,-0.17223207974548282
4182,13.0,299.94845,8619.1356,0.0,-0.020909890198201886,-0.02090960058404745,0.0,0.0,0.0,-0.6350786256598804,-1.0051486790904511,-0.979774697833734,-0.0013326530786726188,-0.005575873351745855,-0.17058212354764485
4183,13.0,299.90693999999996,8603.4554,0.0,-0.020914871696882775,-0.020914602794234627,0.0,0.0,0.0,-0.6451070760071114,-1.00276692327289,-0.9673616140386582,-0.002203806403198758,0.004854033879180845,-0.17584272554932584
4184,13.0,299.79407000000003,8624.6791,0.0,-0.020919886185621017,-0.020919605004421804,0.0,0.0,0.0,-0.6547513829764304,-0.994327340274968,-0.972608354778971,-0.0026809953218936374,0.0033053439228370464,-0.16634910913487885
4185,13.0,300.12705,8636.7379,0.0,-0.020924900674359592,-0.02092460721460876,0.0,0.0,0.0,-0.6515398462544764,-1.004835301099523,-0.9689775250331362,-0.004008875688620226,0.0034526515396001768,-0.17715252355609284
4186,13.0,299.92767000000003,8644.7028,0.0,-0.02092988217304048,-0.020929609424795936,0.0,0.0,0.0,-0.6432658384553954,-1.002200698852008,-0.9823072556636779,0.0008575909010101322,0.004870906823821075,-0.16886083454276682
4187,13.0,299.96617000000003,8680.5283,0.0,-0.020934896661778724,-0.020934611634983002,0.0,0.0,0.0,-0.6392579580823484,-1.013741120998459,-0.9856648118575431,0.002643889089981538,0.006224980414907735,-0.17380097593532082
4188,13.0,300.18851,8638.9542,0.0,-0.020939878160459835,-0.020939613845169958,0.0,0.0,0.0,-0.6311105660157634,-1.014445431142969,-0.980470364954891,-0.0016289709776669185,-0.0054614642432045555,-0.17009778999984485
4189,13.0,299.98999,8580.6876,0.0,-0.0209448926491983,-0.020944616055357135,0.0,0.0,0.0,-0.6388694070665014,-1.002839107210014,-0.9666062462216091,-0.004935788166149365,-0.009142475909517122,-0.17475733204220584
4190,13.0,299.9975,8656.1592,0.0,-0.020949874147879077,-0.02094961826554409,0.0,0.0,0.0,-0.6552455754477035,-1.010312434647574,-0.965698242409496,0.001127796301279829,-0.009182998516791392,-0.17550596174608982
4191,13.0,300.14867000000004,8635.9888,0.0,-0.02095488863661754,-0.020954620475731267,0.0,0.0,0.0,-0.6487629228979154,-1.006705406146588,-0.969656615382657,0.003897305402884096,-0.0009592824542338071,-0.17935871352882685
4192,13.0,299.94712999999996,8553.9892,0.0,-0.020959903125356005,-0.020959622685918222,0.0,0.0,0.0,-0.6325333616736825,-1.0039352107706911,-0.963730530980298,0.0016575590186383381,-0.00046841516581397753,-0.1838553654851118
4193,13.0,299.91641,8648.5559,0.0,-0.020964884624036673,-0.020964591986827763,0.0,0.0,0.0,-0.6362003036530814,-1.010235914000022,-0.9825088417710731,-0.0023818425517695575,0.0013804828403680487,-0.17779754843725185
4194,13.0,300.16152999999997,8689.5242,0.0,-0.020969899112775248,-0.02096959419701494,0.0,0.0,0.0,-0.6490105814873575,-1.006777904191243,-0.985609903834624,-7.955315818003542e-05,0.004951353511535545,-0.17638450024529484
4195,13.0,299.96611,8580.8571,0.0,-0.020974880611456137,-0.020974596407201895,0.0,0.0,0.0,-0.6433781774939824,-1.000450978049324,-0.9645371388549041,0.0005237183765369795,0.007919463483090193,-0.17013194666071585
4196,13.0,300.16271,8636.1241,0.0,-0.02097989510019438,-0.020979598617389073,0.0,0.0,0.0,-0.6494120514419794,-1.003950085282159,-0.971803955789583,-0.0036875094365538463,-0.00040015987290520464,-0.17374302816210183
4197,13.0,300.04891000000003,8700.0158,0.0,-0.02098487659887527,-0.02098460082757625,0.0,0.0,0.0,-0.6557931358017434,-1.004866397745092,-0.9839280302586361,-0.005817725308839785,0.0004884483361910975,-0.16478989961599685
4198,13.0,299.67803,8662.259,0.0,-0.020989891087613732,-0.020989603037763205,0.0,0.0,0.0,-0.6447746793118063,-1.007232235403582,-0.9811035145448781,-0.004984511209132955,-0.0038340113168374565,-0.17505068821115782
4199,13.0,299.83184,8668.0303,0.0,-0.020994872586294733,-0.020994605247950382,0.0,0.0,0.0,-0.6412769298341054,-1.006286721072767,-0.987301129709035,-0.00038620213999518367,0.004775849170989615,-0.16901200132518585
4200,13.0,299.93424,8663.392,0.0,-0.020999887075032975,-0.020999607458137448,0.0,0.0,0.0,-0.6524483566916395,-1.0055535434329081,-0.975452953109711,-0.0006767790449828914,-0.0024202164608817674,-0.17061239946063284
4201,13.0,299.95921,8602.1528,0.0,-0.02100490156377144,-0.021004609668324625,0.0,0.0,0.0,-0.6472255489186884,-1.002816136830247,-0.9647979595631451,0.0015923912305067785,-0.003983739182789447,-0.16737399134602682
4202,13.0,299.95994,8607.9168,0.0,-0.02100988306245255,-0.02100961187851158,0.0,0.0,0.0,-0.6513939281075753,-0.9968358435475381,-0.9683620059948891,0.0034422189139205568,-0.006413893094026964,-0.17735998651406784
4203,13.0,300.03173,8702.0179,0.0,-0.021014897551190903,-0.021014614088698536,0.0,0.0,0.0,-0.6491202658106824,-1.014858837183769,-0.981217039086082,0.003912399282998746,0.0036821601853009164,-0.17735513304608883
4204,13.0,300.16997000000003,8624.6718,0.0,-0.021019879049871792,-0.021019616298885713,0.0,0.0,0.0,-0.6387630563360054,-1.0049618459045122,-0.977959966904634,0.004820361551857645,-0.0003058297235130437,-0.1823509120016338
4205,13.0,300.27923,8601.7343,0.0,-0.021024893538610256,-0.021024618509072668,0.0,0.0,0.0,-0.6314737148516034,-1.008617206435268,-0.9746215307401561,-0.004487596945441336,0.0060937300764543345,-0.17968697616372384
4206,13.0,299.95829,8679.7087,0.0,-0.021029875037290924,-0.021029620719259845,0.0,0.0,0.0,-0.6504628525906854,-1.009986046525362,-0.977965813357711,-0.004728013228468575,0.005976901934624294,-0.17517564221348983
4207,13.0,299.79191000000003,8692.6761,0.0,-0.0210348895260295,-0.021034622929447022,0.0,0.0,0.0,-0.6546533510292554,-1.00632667352421,-0.981376453724315,-0.004846128501900645,0.007842723973516591,-0.16939335826532284
4208,13.0,299.79396,8640.6103,0.0,-0.021039871024710388,-0.02103959223035634,0.0,0.0,0.0,-0.6405233959997374,-1.013827551231989,-0.972178787399076,0.0026714542549770076,-0.0003729738863621566,-0.17682069428084382
4209,13.0,299.79921,8677.0452,0.0,-0.02104488551344863,-0.021044594440543518,0.0,0.0,0.0,-0.6420787653007404,-1.0114089131107882,-0.984117386437324,0.003269203216945237,-0.004346180972709666,-0.17354424875748384
4210,13.0,299.83642000000003,8729.6509,0.0,-0.021049900002187094,-0.021049596650730695,0.0,0.0,0.0,-0.6469180579108414,-1.014901292362959,-0.9917765642082261,0.007817917584568393,-0.006087087208798734,-0.17235414598502982
4211,13.0,299.90491000000003,8686.189,0.0,-0.021054881500867983,-0.02105459886091765,0.0,0.0,0.0,-0.6502480131719823,-1.015157036688199,-0.9749795221329871,0.001363757120967349,0.0005348289273285054,-0.17549406618991584
4212,13.0,300.11257,8675.7845,0.0,-0.021059895989606336,-0.021059601071104828,0.0,0.0,0.0,-0.6560172261938593,-1.003119574837694,-0.978085042496978,0.0028086027222625075,-5.6926596463467644e-05,-0.17044366292147983
4213,13.0,300.08988,8687.5336,0.0,-0.021064877488287226,-0.021064603281291894,0.0,0.0,0.0,-0.6616736644796063,-1.006718811445411,-0.9724008208934891,-0.0014212394070904086,0.003031660105901557,-0.16742375205843785
4214,13.0,300.10087000000004,8697.9315,0.0,-0.02106989197702569,-0.02106960549147907,0.0,0.0,0.0,-0.6506278299719673,-1.008295347541003,-0.9850308010049711,-0.0016616007719622284,0.0027144058253909973,-0.16860687353770282
4215,13.0,299.98629,8738.4718,0.0,-0.0210748734757068,-0.021074607701666248,0.0,0.0,0.0,-0.6527338703048173,-1.009828790109842,-0.993714557011991,-0.003334968923960807,0.004341811230328406,-0.17267294486399284
4216,13.0,299.95596,8768.3592,0.0,-0.021079887964445154,-0.021079609911853203,0.0,0.0,0.0,-0.6532696465601944,-1.0192075039629491,-0.992885110480131,-0.0024280255794024677,0.002728470851354107,-0.17232431590208583
4217,13.0,300.0288,8686.8566,0.0,-0.021084902453183396,-0.02108461212204038,0.0,0.0,0.0,-0.6502825852653944,-1.007646452044462,-0.9826584582808391,-0.004586876811439496,-0.0023330696568810475,-0.17282420283892083
4218,13.0,299.82791000000003,8621.3897,0.0,-0.021089883951864508,-0.021089614332227336,0.0,0.0,0.0,-0.6469932005382574,-1.0060192939738741,-0.9676746880545561,-0.00016140964661989183,0.000991173204171179,-0.17689933262110483
4219,13.0,299.79481,8681.4607,0.0,-0.02109489844060275,-0.02109461654241429,0.0,0.0,0.0,-0.6551467430329494,-1.0106411532450161,-0.9731593703158521,-0.0004631000205594136,0.0027083335188667077,-0.17867863019420785
4220,13.0,299.99716,8685.7405,0.0,-0.02109987993928364,-0.021099618752601468,0.0,0.0,0.0,-0.6437930730124294,-1.011905253672273,-0.9845498821100079,0.0030310808308193875,-0.006232485862373464,-0.17622265380682184
4221,13.0,299.91694,8649.8261,0.0,-0.021104894428022214,-0.021104620962788423,0.0,0.0,0.0,-0.6305712231200343,-1.022025048516019,-0.976734876606227,0.001953517720472188,-0.0067344535082888134,-0.18466813392032583
4222,13.0,299.82306,8662.8082,0.0,-0.02110987592670288,-0.021109590263698186,0.0,0.0,0.0,-0.6335670591607004,-1.016258844846939,-0.983451427809099,0.005103001385102025,-0.005998187279474994,-0.17500140372629383
4223,13.0,299.86764,8705.7163,0.0,-0.021114890415441345,-0.02111459247388514,0.0,0.0,0.0,-0.6503140466809995,-1.0191871376359392,-0.9768191688820461,0.004464468397333726,-0.0005323968940409825,-0.18038443673755783
4224,13.0,300.12361,8732.6227,0.0,-0.021119871914122235,-0.021119594684072207,0.0,0.0,0.0,-0.6550665746850374,-1.022463583159299,-0.9769690893668421,0.00016907596780399884,0.003105487028062707,-0.17655557739217884
4225,13.0,300.18937,8739.9275,0.0,-0.021124886402860588,-0.021124596894259273,0.0,0.0,0.0,-0.6604255227414244,-1.0135671459562892,-0.9827270755776112,0.0034720655128411865,0.006629388794819733,-0.1753483000305298
4226,13.0,300.27239,8722.6573,0.0,-0.02112990089159905,-0.02112959910444634,0.0,0.0,0.0,-0.6442851477909934,-1.020524931742969,-0.9866598943832501,0.0017605728125800082,0.008085089243111182,-0.16981069571651083
4227,13.0,300.13318,8661.5064,0.0,-0.02113488239027994,-0.021134601314633517,0.0,0.0,0.0,-0.6380054998987404,-1.008635880634611,-0.9862402771193371,-0.0008577326243016191,0.006442249100725484,-0.17572983935568484
4228,13.0,299.91716,8736.3891,0.0,-0.021139896879018294,-0.021139603524820694,0.0,0.0,0.0,-0.6463898810312144,-1.015035548001209,-0.994218719864248,-0.005897549557017824,-0.0037874194427891966,-0.17190789037598783
4229,13.0,299.66002000000003,8770.4604,0.0,-0.021144878377699405,-0.02114460573500765,0.0,0.0,0.0,-0.6685596918942044,-1.0140437788033292,-0.983397451976272,-0.005268414767902055,-0.0025160280731126375,-0.16885203953189884
4230,13.0,299.81,8714.1307,0.0,-0.021149892866437647,-0.021149607945194826,0.0,0.0,0.0,-0.6620247860367593,-1.0088155805398462,-0.9780377743798131,-0.0017891790920532284,0.0009389189237940831,-0.17238488799306384
4231,13.0,299.87509,8701.5842,0.0,-0.02115487436511876,-0.02115461015538178,0.0,0.0,0.0,-0.6528329357670943,-1.019433154760219,-0.9727981973177071,0.001990536407575648,0.0038563996857470164,-0.17314188714277384
4232,13.0,300.08772999999997,8740.7925,0.0,-0.021159888853857,-0.02115961236556896,0.0,0.0,0.0,-0.6499486788274403,-1.016721089542559,-0.9903128737762711,0.0038147481152113268,0.000980533206726093,-0.17308878270503283
4233,13.0,300.04497000000003,8733.1594,0.0,-0.02116487035253789,-0.021164614575755913,0.0,0.0,0.0,-0.6428466974190294,-1.017154659260349,-0.9946609934003972,0.0038426025631103466,-0.004753323304041485,-0.17069477669376282
4234,13.0,299.91454,8671.8476,0.0,-0.021169884841276465,-0.02116961678594298,0.0,0.0,0.0,-0.6352424985985534,-1.018699561687819,-0.9820830842115541,0.0064808740932124735,-0.0019273682685164383,-0.17632973407738983
4235,13.0,300.11599,8725.8043,0.0,-0.021174899330014707,-0.021174618996130046,0.0,0.0,0.0,-0.6550456713354743,-1.013600785859609,-0.98378013627404,0.0015577003841830584,-0.004377153292491396,-0.16923317355701384
4236,13.0,300.08907,8745.4792,0.0,-0.021179880828695596,-0.02117958829703981,0.0,0.0,0.0,-0.6587586857969204,-1.020904292580409,-0.978744354204547,-0.004126646153043266,-0.002888196354717787,-0.17895290686377682
4237,13.0,299.87723,8726.8458,0.0,-0.02118489531743406,-0.021184590507226764,0.0,0.0,0.0,-0.6507801619920014,-1.0207927337443992,-0.9811703282564721,-0.010568601816539791,-0.0003308650867188417,-0.17885193649131184
4238,13.0,299.90492,8778.6212,0.0,-0.02118987681611484,-0.02118959271741383,0.0,0.0,0.0,-0.6538183316218453,-1.016536171399309,-0.9981271497399801,-0.003166398861799237,0.009214438046194231,-0.18065037435880382
4239,13.0,300.02677,8762.7423,0.0,-0.021194891304853303,-0.021194594927600785,0.0,0.0,0.0,-0.6434059101492193,-1.0287435046290792,-0.9915054286139671,-0.0024345416894705576,0.005438187152632285,-0.18033413900259382
4240,13.0,300.14092999999997,8666.5077,0.0,-0.021199872803534192,-0.021199597137787962,0.0,0.0,0.0,-0.6418294449811345,-1.012423450038415,-0.9801490430831792,-0.0005070569883851286,-0.001066903617970189,-0.18242192056864182
4241,13.0,300.34741,8708.0864,0.0,-0.021204887292272545,-0.02120459934797514,0.0,0.0,0.0,-0.6559309783453474,-1.013619125686419,-0.9774907307833242,0.007112445343518702,-0.004479220609514656,-0.17430538196760184
4242,13.0,300.25441,8730.0575,0.0,-0.02120990178101101,-0.021209601558162094,0.0,0.0,0.0,-0.6604170013080833,-1.017431175212639,-0.975871293678498,0.0033369487133311972,-0.003932186942876637,-0.17873784453005184
4243,13.0,300.09163,8695.0494,0.0,-0.0212148832796919,-0.02121460376834927,0.0,0.0,0.0,-0.6464558436127243,-1.013996966648709,-0.982625041292541,0.005753492953200544,-0.0008757669967364731,-0.1758282056753928
4244,13.0,300.10274,8753.4241,0.0,-0.02121989776843025,-0.021219605978536227,0.0,0.0,0.0,-0.6505965509413804,-1.024605593870699,-0.9856201883231391,-0.0009696853004929881,0.00010841125563435791,-0.17916929655513283
4245,13.0,299.93068999999997,8828.1606,0.0,-0.021224879267111252,-0.021224608188723404,0.0,0.0,0.0,-0.6564958348785943,-1.025082226717739,-1.001962352030985,-0.001004940962819951,-0.003716818303646406,-0.16983994824689785
4246,13.0,299.98682,8782.388,0.0,-0.021229893755849605,-0.02122961039891058,0.0,0.0,0.0,-0.6586343093471454,-1.014981845745909,-0.996010490546082,-0.0024570865041955575,0.0006142263236369184,-0.16942564041350883
4247,13.0,300.11904,8767.3174,0.0,-0.021234875254530716,-0.021234612609097536,0.0,0.0,0.0,-0.6618069271327583,-1.020224503088319,-0.9830141698609451,-0.0009680773131142922,0.0005571871317825885,-0.17244191370869186
4248,13.0,300.24705,8807.0088,0.0,-0.021239889743268958,-0.021239614819284713,0.0,0.0,0.0,-0.6682426662029164,-1.014913451364159,-0.9939546060931821,-0.002408503999000838,0.0014655358643621285,-0.17063323188268884
4249,13.0,299.93116000000003,8770.5311,0.0,-0.021244871241949848,-0.02124461702947178,0.0,0.0,0.0,-0.6616008523274204,-1.016878041983049,-0.9875436105904661,0.00042250326364282563,-0.0013050519432985987,-0.17704367009784985
4250,13.0,299.80478,8723.8247,0.0,-0.02124988573068831,-0.021249619239658735,0.0,0.0,0.0,-0.6414842509370664,-1.0216525777792589,-0.98868801578341,-0.0025589694097006175,0.0036400197215919763,-0.18226879821352981
4251,13.0,299.93847999999997,8776.9379,0.0,-0.021254900219426665,-0.021254588540568387,0.0,0.0,0.0,-0.6518580067858764,-1.021317495971189,-0.9947944992335731,-0.005303045731144865,0.001156759042138229,-0.1800029784724108
4252,13.0,299.96876000000003,8776.5995,0.0,-0.021259881718107554,-0.021259590750755453,0.0,0.0,0.0,-0.6519466560371253,-1.026639693446449,-0.9892807164294051,-0.004565333290463315,-0.0009704481967582801,-0.17856001913750183
4253,13.0,299.95498,8702.2605,0.0,-0.021264896206846018,-0.021264592960942408,0.0,0.0,0.0,-0.6528013122314733,-1.014755789648599,-0.9777128554702461,0.0035259673784108865,-0.003673754667771356,-0.17470766252230382
4254,13.0,299.89245,8771.4243,0.0,-0.021269877705526796,-0.021269595171129585,0.0,0.0,0.0,-0.6533781048508984,-1.021101471049869,-0.9918143787019581,0.0014265161096361785,-0.0009852121829053721,-0.17130277741626784
4255,13.0,300.05655,8822.1833,0.0,-0.02127489219426526,-0.02127459738131654,0.0,0.0,0.0,-0.6569910507324683,-1.031014704728229,-0.993717728484804,0.0059375308860886745,-0.0003836873748369956,-0.18005308368985581
4256,13.0,300.19018,8782.9283,0.0,-0.02127987369294615,-0.021279599591503717,0.0,0.0,0.0,-0.6406001091648084,-1.0273655858180892,-1.001825218762451,0.0012578798822430789,-0.002888784749050857,-0.17738114317615583
4257,13.0,300.10674,8781.7176,0.0,-0.02128488818168439,-0.021284601801690672,0.0,0.0,0.0,-0.6535919614170044,-1.023247028136619,-0.9925838610929001,0.007715185068854483,-0.006218113011029974,-0.18248186444455783
4258,13.0,299.87404,8817.046,0.0,-0.021289869680365503,-0.02128960401187785,0.0,0.0,0.0,-0.6643255527738274,-1.022302375068389,-0.993533864121658,0.0011558000009185788,0.0006216072224003564,-0.17145196836099186
4259,13.0,299.85014,8727.7239,0.0,-0.021294884169103856,-0.021294606222065027,0.0,0.0,0.0,-0.6583156219256934,-1.012774835040594,-0.981919667235426,-0.0009424411331291982,0.0033628807218154867,-0.17511594151759785
4260,13.0,299.80724,8751.4715,0.0,-0.021299898657842098,-0.021299608432251982,0.0,0.0,0.0,-0.6550812060164813,-1.0198972233060188,-0.9852503419041381,-0.0030418264494548974,0.004755656413721746,-0.17317390584593384
4261,13.0,300.02743,8853.113000000001,0.0,-0.02130488015652321,-0.02130461064243916,0.0,0.0,0.0,-0.6666412953473734,-1.0198644953277891,-1.004619478828223,-0.004312077507468916,-7.485415916553032e-05,-0.17650094294678684
4262,13.0,299.98924,8812.5384,0.0,-0.021309894645261673,-0.021309612852626225,0.0,0.0,0.0,-0.6524703644838113,-1.026230847031099,-1.000090392736237,-0.0006295217594614603,0.002195143216168768,-0.17593049327298785
4263,13.0,299.93595,8770.8742,0.0,-0.021314876143942563,-0.021314615062813402,0.0,0.0,0.0,-0.6518976957922934,-1.027448773651299,-0.9867803090251339,-0.0017492732501148283,0.00016504268525094484,-0.18082662921369883
4264,13.0,300.05442999999997,8865.7456,0.0,-0.021319890632680916,-0.021319617273000357,0.0,0.0,0.0,-0.6697186676235863,-1.025973886805739,-0.999272699905537,0.004260722952650615,0.0019122149106209185,-0.17211240477617182
4265,13.0,299.96587,8856.6606,0.0,-0.021324872131361805,-0.0213245865739099,0.0,0.0,0.0,-0.6674814924627943,-1.030028508405899,-0.9946936808486231,-0.0005214932995823815,-0.0034204611918732366,-0.17082915392202486
4266,13.0,300.01061,8764.5115,0.0,-0.02132988662010027,-0.021329588784097075,0.0,0.0,0.0,-0.6493007459184944,-1.021086576273399,-0.993805293558446,0.0048920455513823055,0.0006244365713170914,-0.17198860587895384
4267,13.0,300.20989,8800.879,0.0,-0.021334901108838622,-0.02133459099428414,0.0,0.0,0.0,-0.6470827009195904,-1.026810324763289,-1.0013544627659912,0.0024355023518903675,-0.002928154379036337,-0.17449033050835483
4268,13.0,300.01365,8797.0197,0.0,-0.02133988260751951,-0.021339593204471208,0.0,0.0,0.0,-0.6464979340218784,-1.0289867859780892,-0.998589566688117,0.0016415084277792682,-0.003183924744803907,-0.18369204983399381
4269,13.0,300.00422000000003,8775.2761,0.0,-0.021344897096257975,-0.021344595414658163,0.0,0.0,0.0,-0.6546054040345234,-1.023816474692819,-0.989042987690943,-0.0027302609603057776,-0.002012953958088088,-0.18029158249839383
4270,13.0,299.93905,8802.9924,0.0,-0.021349878594938643,-0.021349597624845118,0.0,0.0,0.0,-0.6665427973051523,-1.026718625629239,-0.982628415415374,-0.0027623421809969476,0.003779301992263067,-0.1851022710581718
4271,13.0,299.92084,8831.7714,0.0,-0.021354893083677218,-0.021354599835032295,0.0,0.0,0.0,-0.6658880654880354,-1.0281609871465889,-0.990588903368513,-0.003766829998107176,0.004179734176132646,-0.17660537863459383
4272,13.0,299.94392,8767.402,0.0,-0.021359874582358107,-0.021359602045219472,0.0,0.0,0.0,-0.6476466860577514,-1.029814509984779,-0.9876100696645251,-0.005944241641500974,0.002523846817509288,-0.18367899917270583
4273,13.0,299.81748,8796.3262,0.0,-0.02136488907109635,-0.021364604255406427,0.0,0.0,0.0,-0.6427738346043383,-1.033021649201299,-0.9980679860666409,-0.002259038970124788,0.002189038485641278,-0.1773035687484998
4274,13.0,299.84674,8876.9615,0.0,-0.02136987056977746,-0.021369606465593605,0.0,0.0,0.0,-0.6591507223931113,-1.0329129274655688,-1.006311008677664,-0.0004892136034616235,0.00016132626626916285,-0.18302889790854582
4275,13.0,300.03078,8809.5598,0.0,-0.021374885058515924,-0.02137460867578067,0.0,0.0,0.0,-0.6583667910557434,-1.0249182828515588,-0.994601120451988,0.004626410689266185,-0.004241147062043625,-0.17335310925861985
4276,13.0,300.0162,8761.8599,0.0,-0.021379899547254277,-0.021379610885967848,0.0,0.0,0.0,-0.6623302100144024,-1.021472725886509,-0.9795836900573831,-0.0006003602797284464,-0.002937949467753037,-0.1816622768361708
4277,13.0,300.16326000000004,8858.603000000001,0.0,-0.021384881045935167,-0.021384613096155025,0.0,0.0,0.0,-0.6708856074987544,-1.022080473296489,-0.999828001490341,0.0016971753750231683,-0.0014901219727385885,-0.16725265464655184
4278,13.0,300.31428999999997,8855.6221,0.0,-0.02138989553467363,-0.02138961530634198,0.0,0.0,0.0,-0.6647565184388603,-1.024050231490889,-1.00308123345391,0.002174444847100998,0.0032694027258899265,-0.17682828352409283
4279,13.0,300.04900000000004,8817.0616,0.0,-0.02139487703335452,-0.02139458460725152,0.0,0.0,0.0,-0.6472503634136374,-1.0231180413988892,-1.009798179824321,0.0004887099776319195,-0.0005296097368584115,-0.17391421676649682
4280,13.0,300.23079,8857.8727,0.0,-0.021399891522092873,-0.0213995868174387,0.0,0.0,0.0,-0.6596570637330834,-1.027720426003109,-1.005194609717484,-0.0035376764965664867,-0.0038584548609248465,-0.1815224179248678
4281,13.0,299.85922,8828.5324,0.0,-0.021404873020773763,-0.021404589027625653,0.0,0.0,0.0,-0.6654107537634283,-1.0267295687303188,-0.9915130887847231,-0.005649589120371035,-0.0035004481680173368,-0.17807196696183483
4282,13.0,299.94961,8778.1682,0.0,-0.021409887509512227,-0.02140959123781283,0.0,0.0,0.0,-0.6641868489676384,-1.022468446759779,-0.9816886867426301,-0.004533912911487366,0.001830471060128428,-0.18441847922818683
4283,13.0,300.09546,8862.0188,0.0,-0.021414869008192894,-0.021414593447999786,0.0,0.0,0.0,-0.6677382500381344,-1.031841314159809,-0.994252846127616,-0.004431767574206406,0.0050560881081220446,-0.18074279290042483
4284,13.0,300.08224,8879.8912,0.0,-0.02141988349693147,-0.02141959565818674,0.0,0.0,0.0,-0.6564648294255344,-1.030491462376589,-1.012308912247111,-0.004482691801707236,-0.0011018622662953388,-0.17547689160072083
4285,13.0,299.79238,8797.0471,0.0,-0.021424897985669933,-0.021424597868373918,0.0,0.0,0.0,-0.6356973769659463,-1.033915842414549,-1.0044694772834188,0.002605775991445068,-0.006518516233102464,-0.17946375716669383
4286,13.0,299.92578,8813.187,0.0,-0.0214298794843506,-0.021429600078560984,0.0,0.0,0.0,-0.6431579171872445,-1.0331479001637591,-1.002682995767107,0.0034433169730539266,-0.0017658229679731584,-0.17858272607224285
4287,13.0,299.93133,8865.5228,0.0,-0.021434893973089064,-0.02143460228874805,0.0,0.0,0.0,-0.6687262600781434,-1.028943520198819,-0.9972277585537171,0.005412068908779615,-0.0015935900067000884,-0.17894094038009584
4288,13.0,299.8223,8814.8751,0.0,-0.021439875471770176,-0.021439604498935116,0.0,0.0,0.0,-0.6597415586589224,-1.032494556499279,-0.9872658280755511,-0.00019670397457067083,-0.001177511113461299,-0.18061496126780882
4289,13.0,299.81462,8805.4656,0.0,-0.02144488996050853,-0.021444606709122294,0.0,0.0,0.0,-0.6608626894970693,-1.028436489848779,-0.987342541240622,-0.001083275713085989,0.0025263277603791378,-0.18691602926717582
4290,13.0,299.70001,8873.6706,0.0,-0.021449871459189418,-0.02144960891930947,0.0,0.0,0.0,-0.6532532623060774,-1.037367884180239,-1.0067532011538052,0.001152372074505269,0.005979084272689675,-0.17803764818094783
4291,13.0,300.03199,8850.4663,0.0,-0.021454885947927882,-0.021454611129496426,0.0,0.0,0.0,-0.6498737591150464,-1.030591166186429,-1.0098558641525142,-0.003115904049690787,0.0025988984550663076,-0.18296917694765183
4292,13.0,300.05877000000004,8878.0093,0.0,-0.021459900436666235,-0.021459613339683603,0.0,0.0,0.0,-0.6581668768110134,-1.0342747355999689,-1.00625149036679,0.0006750081269881153,-0.002236425355717998,-0.17555424311335482
4293,13.0,299.96909,8927.7854,0.0,-0.021464881935347124,-0.021464582640593144,0.0,0.0,0.0,-0.6811108107504034,-1.028725570102309,-1.003987474210849,-0.000899105115362266,-3.5458365035968164e-06,-0.17526048164436284
4294,13.0,300.04492,8919.1788,0.0,-0.02146989642408559,-0.0214695848507801,0.0,0.0,0.0,-0.6759008003262154,-1.032701462169699,-1.002605370676946,0.004253363514524296,0.0032157319826680367,-0.16983315947122785
4295,13.0,299.97199,8860.5115,0.0,-0.021474877922766478,-0.021474587060967276,0.0,0.0,0.0,-0.6702990370158644,-1.027471673103559,-0.995603478113413,0.0013095127768638487,0.0014576691932357486,-0.17407632664999584
4296,13.0,300.00037000000003,8881.0239,0.0,-0.02147989241150472,-0.02147958927115423,0.0,0.0,0.0,-0.6564284942769484,-1.031854587736119,-1.0113264548176502,-0.0010403354910731189,-0.0019237593756352683,-0.16924702468588082
4297,13.0,299.96311000000003,8855.6972,0.0,-0.02148487391018572,-0.02148459148134141,0.0,0.0,0.0,-0.6516708189624024,-1.031974252572929,-1.008265709975578,-0.002412691964314158,-0.0005017660294104516,-0.17361785124474782
4298,13.0,299.99168,8825.9568,0.0,-0.021489888398924184,-0.021489593691528586,0.0,0.0,0.0,-0.6523182655113005,-1.031191314220659,-0.9993609337242451,0.0033511769738854163,-0.0011799944881313888,-0.1785634236578378
4299,13.0,300.08217,8903.8912,0.0,-0.02149486989760485,-0.02149459590171554,0.0,0.0,0.0,-0.6736687522109295,-1.038804571497029,-0.9940873114587792,-0.0025083427737541577,0.0019050758543913482,-0.18265136092128584
4300,13.0,300.18176,8942.2686,0.0,-0.021499884386343315,-0.021499598111902607,0.0,0.0,0.0,-0.6800853307216964,-1.037854041578219,-1.0002869835206392,-0.0002861266598860027,-0.004803711623564425,-0.1839805525349668
4301,13.0,300.12599,8870.7997,0.0,-0.02150489887508189,-0.021504600322089562,0.0,0.0,0.0,-0.6641986735963054,-1.042134719275689,-0.990168232324496,-0.005372589138508265,-0.0005673415595147524,-0.18600468172973283
4302,13.0,300.00844,8864.1206,0.0,-0.02150988037376278,-0.02150960253227674,0.0,0.0,0.0,-0.6483626485784114,-1.041646535377509,-1.004462171750198,0.004234998457786806,0.0018005250613729882,-0.1907627927418218
4303,13.0,299.78933,8913.9764,0.0,-0.02151489486250102,-0.021514604742463916,0.0,0.0,0.0,-0.6577686695217134,-1.038428351734899,-1.013429141292669,0.00044262266160345555,0.0028306160873100574,-0.17818586640557585
4304,13.0,299.89975,8851.8797,0.0,-0.021519876361182133,-0.02151960695265087,0.0,0.0,0.0,-0.6570677740300404,-1.0328978300390792,-1.0007848439572742,-0.0002198571649207128,0.0001918788066669638,-0.18379861334701084
4305,13.0,300.02111,8831.3706,0.0,-0.021524890849920486,-0.02152460916283805,0.0,0.0,0.0,-0.6575399891066444,-1.033463628894919,-0.993512555472055,-0.0007964348537345001,9.644710344183801e-06,-0.17337468135324885
4306,13.0,299.73503999999997,8876.7086,0.0,-0.021529872348601375,-0.021529611373025004,0.0,0.0,0.0,-0.6655086843855934,-1.032768539326319,-1.000020569671846,0.001048135186367889,-0.0005105311088704975,-0.17935822716877883
4307,13.0,299.84827,8923.6321,0.0,-0.02153488683733984,-0.02153461358321218,0.0,0.0,0.0,-0.6673345104032884,-1.039185857509659,-1.006040957261012,0.0003300690875727827,0.0002478734288607027,-0.17192420370259784
4308,13.0,300.02657,8932.2503,0.0,-0.02153986833602073,-0.021539582884121722,0.0,0.0,0.0,-0.6591052578611244,-1.039371687577999,-1.016704168265889,-0.0016854760853935386,-0.004601721229379525,-0.1860558305947808
4309,13.0,300.13435,8975.9146,0.0,-0.02154488282475897,-0.021544585094308677,0.0,0.0,0.0,-0.6682185103205324,-1.043577486093079,-1.016657964061329,0.0013030758016285688,0.0004907975160179435,-0.17273916075802784
4310,13.0,300.12777,8942.2931,0.0,-0.021549897313497546,-0.021549587304495854,0.0,0.0,0.0,-0.6719380805101254,-1.0397544934657792,-1.0065411887028812,0.0013331478486964489,0.002214261827005628,-0.18185485515017683
4311,13.0,300.01874,8920.2279,0.0,-0.021554878812178435,-0.02155458951468303,0.0,0.0,0.0,-0.6758325680644813,-1.036048024599979,-0.999645940712373,0.004374776309081806,-0.0012565545511122789,-0.17352157222024583
4312,13.0,299.9057,8957.6023,0.0,-0.021559893300916677,-0.021559591724869986,0.0,0.0,0.0,-0.6793532169944424,-1.038976621364009,-1.004557609777117,0.0035425835654757766,-0.0036510689099574466,-0.17817247123925384
4313,13.0,300.01881000000003,8946.7854,0.0,-0.021564874799597566,-0.021564593935057164,0.0,0.0,0.0,-0.6705134002070204,-1.037171111010819,-1.011914818753217,0.001152412300534239,0.0024635034170788577,-0.17220648504795683
4314,13.0,300.08012,8830.6687,0.0,-0.02156988928833614,-0.02156959614524423,0.0,0.0,0.0,-0.6481904771214194,-1.030367643214369,-1.0057447031967741,-0.0007626890353815473,-0.00093625070190825,-0.18224376080355884
4315,13.0,299.80769,8871.6358,0.0,-0.02157487078701703,-0.021574598355431185,0.0,0.0,0.0,-0.6535505194879144,-1.038558858347779,-1.004646329955873,-0.005274781524905405,0.004584218549802146,-0.17898737763217884
4316,13.0,299.65429,8976.2615,0.0,-0.021579885275755273,-0.021579600565618362,0.0,0.0,0.0,-0.6729866018461064,-1.0405540491196892,-1.015018728049549,-0.0033526317983789966,0.0020868393447800084,-0.17873289986956384
4317,13.0,299.97165,8946.7747,0.0,-0.021584899764493737,-0.021584602775805317,0.0,0.0,0.0,-0.6691074245007614,-1.045265864734709,-1.005222808467767,0.0009218787928873531,0.006587042641340494,-0.18480374731370983
4318,13.0,300.12065,8862.6643,0.0,-0.021589881263174626,-0.021589604985992494,0.0,0.0,0.0,-0.6546980657561684,-1.040351905724739,-0.998978695256521,0.0013728468862894388,0.0017377164234492583,-0.18399353226874782
4319,13.0,299.9893,8908.3818,0.0,-0.02159489575191298,-0.02159460719617945,0.0,0.0,0.0,-0.6606799802390374,-1.0405863717978792,-1.0066592323395311,0.0017106263714256782,-0.003523988906265627,-0.18219331108107983
4320,13.0,299.98731000000004,8908.4605,0.0,-0.02159987725059409,-0.021599609406366627,0.0,0.0,0.0,-0.6524907105458193,-1.045951936377419,-1.009506910950575,0.005971476588288854,-0.006446198040340213,-0.1857103325756828
4321,13.0,300.02265,8879.7165,0.0,-0.021604891739332333,-0.021604611616553804,0.0,0.0,0.0,-0.6617554236301754,-1.035142482985609,-1.002314172730707,0.006042161523214914,0.00045363961848324464,-0.18549967787989283
4322,13.0,300.25832,8926.7363,0.0,-0.021609873238013222,-0.021609580917463123,0.0,0.0,0.0,-0.6645453368530184,-1.039380198878839,-1.009579419127731,0.0028222727833366375,0.0030399020848649767,-0.18193071718516382
4323,13.0,300.00192999999996,8918.1184,0.0,-0.021614887726751797,-0.0216145831276503,0.0,0.0,0.0,-0.6760304862065144,-1.036663979335769,-0.9981908325087651,-0.0067842180710501925,0.004354308150436755,-0.18005934557547382
4324,13.0,299.73129,8886.0532,0.0,-0.021619869225432686,-0.021619585337837477,0.0,0.0,0.0,-0.6602640005429833,-1.034049287452719,-1.006824949393386,-0.0007124255786684303,0.008410245253201581,-0.17742790466827082
4325,13.0,299.84261000000004,8974.7342,0.0,-0.021624883714170928,-0.021624587548024432,0.0,0.0,0.0,-0.6772388680107724,-1.0392114927371892,-1.011644787601567,-0.003450212139984426,0.008742642657781652,-0.17618524461312982
4326,13.0,299.90204,9033.3533,0.0,-0.021629898202909392,-0.02162958975821161,0.0,0.0,0.0,-0.6645754101159863,-1.046779559059099,-1.034558850928009,0.0004660422252722866,0.0019306131006366779,-0.17495986047219383
4327,13.0,299.902,8935.2155,0.0,-0.021634879701590393,-0.021634591968398675,0.0,0.0,0.0,-0.6721870765896993,-1.038187907486169,-1.0057074257255951,-0.0024049849814035376,-0.006593797169157113,-0.17897006118796982
4328,13.0,300.14418,8938.8099,0.0,-0.021639894190328635,-0.021639594178585853,0.0,0.0,0.0,-0.6669330404486663,-1.044195264679049,-1.006046722654081,-0.0013748797699650688,-3.289537423927067e-05,-0.17631902402383282
4329,13.0,299.90851000000004,8995.8054,0.0,-0.021644875689009524,-0.02164459638877303,0.0,0.0,0.0,-0.6876000595583424,-1.038992022765529,-1.007908123882787,0.0005115738344159065,0.001973784850297398,-0.1799170447314298
4330,13.0,300.22025,8985.3379,0.0,-0.021649890177747988,-0.021649598598959985,0.0,0.0,0.0,-0.6694995421569604,-1.046342848265999,-1.015475906494669,0.0025082431712693276,0.001186182507817099,-0.17458295169999585
4331,13.0,300.01895,8940.9422,0.0,-0.021654871676428877,-0.02165460080914694,0.0,0.0,0.0,-0.6679315477597113,-1.039134891029629,-1.010756754948925,-0.004109725180348296,-0.0004757740770502455,-0.18107043745276083
4332,13.0,299.7832,8948.5214,0.0,-0.02165988616516723,-0.021659603019333895,0.0,0.0,0.0,-0.6570351068468164,-1.0422158806086992,-1.0208760229026188,-0.0005676897223816135,-0.0014265653535910387,-0.17710287430119284
4333,13.0,299.88496000000004,8925.4636,0.0,-0.02166486766384834,-0.021664605229521072,0.0,0.0,0.0,-0.6702636847198754,-1.0405747194217292,-1.002279691829804,-0.0019377864047196284,-0.0013860728398447386,-0.18848349677437282
4334,13.0,300.27099999999996,8958.0113,0.0,-0.021669882152586584,-0.02166960743970825,0.0,0.0,0.0,-0.6734215597165334,-1.044016831336439,-1.005573342339862,0.00042303454106775855,-0.0058295177161536045,-0.18453016978670983
4335,13.0,300.16956,9003.7761,0.0,-0.021674896641325048,-0.021674609649895205,0.0,0.0,0.0,-0.6823371068164293,-1.050065427808389,-1.004520565353461,-0.0018354749957472782,-0.004997102665475635,-0.1854322663507398
4336,13.0,300.0818,8921.9965,0.0,-0.021679878140006048,-0.021679578950804745,0.0,0.0,0.0,-0.6608559919139084,-1.045581694790879,-1.0056264163801,-0.0019503013606797582,-3.521251104495427e-05,-0.18277851367633483
4337,13.0,299.78605,8873.5695,0.0,-0.02168489262874429,-0.021684581160991923,0.0,0.0,0.0,-0.6502254480922554,-1.041312162844509,-1.0058059845628222,-0.001936820473399298,0.002402164903725218,-0.18231883250346784
4338,13.0,299.94704,9015.3558,0.0,-0.02168987412742518,-0.021689583371178878,0.0,0.0,0.0,-0.6633563182581714,-1.051614079261229,-1.025472631981269,-0.0025339161930280573,-0.003312172113935937,-0.1832640124617498
4339,13.0,299.95537,9063.9329,0.0,-0.021694888616163643,-0.021694585581366055,0.0,0.0,0.0,-0.6833721620585813,-1.050544897755709,-1.021292164718689,-0.0005497249804936315,-0.0032922901204737367,-0.17886131918723783
4340,13.0,299.89545,8957.8646,0.0,-0.021699870114844533,-0.02169958779155312,0.0,0.0,0.0,-0.6714123658282414,-1.042794547740809,-1.008760267216887,0.001080003523213049,-0.001179565680689069,-0.18699592403756082
4341,13.0,299.97083,8968.9527,0.0,-0.021704884603582886,-0.021704590001740298,0.0,0.0,0.0,-0.6775691470133683,-1.040749201088949,-1.008019348346264,0.0057095879144424535,0.0031962071598660873,-0.17276365101294483
4342,13.0,300.03958,9008.2677,0.0,-0.02170989909232135,-0.021709592211927475,0.0,0.0,0.0,-0.6750874340734423,-1.0418266912452891,-1.021374237976789,0.0011407891059871187,0.0004975179783662016,-0.1801185497788168
4343,13.0,300.01111000000003,8994.0479,0.0,-0.02171488059100224,-0.02171459442211443,0.0,0.0,0.0,-0.6697008952168323,-1.043232373109019,-1.021032671368079,-0.0005155074232916216,-0.0015722545059694386,-0.17061386867327785
4344,13.0,300.16411,9011.9099,0.0,-0.021719895079740592,-0.021719596632301608,0.0,0.0,0.0,-0.6693205616592963,-1.0465547188619089,-1.023520301688589,-0.0007875818545632771,-0.0021662849413956776,-0.17981785767914082
4345,13.0,300.10537999999997,9014.2041,0.0,-0.02172487657842148,-0.021724598842488563,0.0,0.0,0.0,-0.6774982499038714,-1.051993744073699,-1.010600937348547,-0.0011554415130331987,-0.0026230362002735174,-0.17549139120965185
4346,13.0,299.93065,8972.4044,0.0,-0.021729891067159945,-0.021729601052675518,0.0,0.0,0.0,-0.6719029409966574,-1.0497576024280089,-1.005726383634966,-0.003302659620672127,-0.0049462578767826455,-0.18745103545247682
4347,13.0,299.95137,9062.702,0.0,-0.021734872565840835,-0.021734603262862695,0.0,0.0,0.0,-0.6831259929467864,-1.054268693198219,-1.017440497113559,-0.004509751456227815,-0.00022949319363671476,-0.17885723578933485
4348,13.0,299.97877,9085.6069,0.0,-0.0217398870545793,-0.02173960547304976,0.0,0.0,0.0,-0.6748503132850404,-1.0560559650496089,-1.030891392191059,-0.003087486437386187,0.0059521244233039445,-0.18217681536945185
4349,13.0,299.95176000000004,8950.1451,0.0,-0.021744868553260188,-0.021744607683236827,0.0,0.0,0.0,-0.6515123061167584,-1.047188709449479,-1.0219195691806089,0.0012429773037473087,0.004220053424111846,-0.17609048546377784
4350,13.0,299.89322000000004,8869.9199,0.0,-0.02174988304199854,-0.021749609893423894,0.0,0.0,0.0,-0.6486085441126794,-1.038864150602909,-1.008761462852005,-0.0018514549630743783,-0.0008401453079433862,-0.18008463629796984
4351,13.0,299.67512999999997,8991.0302,0.0,-0.021754897530737005,-0.021754579194333434,0.0,0.0,0.0,-0.6716535598820453,-1.048386168417659,-1.013008895813694,0.0031988701837789065,-0.003105505266564507,-0.18082457231599583
4352,13.0,299.80478999999997,9036.1276,0.0,-0.021759879029417895,-0.0217595814045205,0.0,0.0,0.0,-0.6818426610326314,-1.050449246946269,-1.014465189519919,0.007670658806460082,-0.0013308975215493585,-0.18731800584684782
4353,13.0,299.96971,8983.0595,0.0,-0.021764893518156248,-0.021764583614707567,0.0,0.0,0.0,-0.6720534390340104,-1.054639948034859,-1.003932393935413,0.007469169768424663,-3.313966782513057e-05,-0.19237211761064982
4354,13.0,300.0822,8968.0331,0.0,-0.021769875016837137,-0.021769585824894744,0.0,0.0,0.0,-0.6630066355161603,-1.047083331439079,-1.015968143393249,0.004686067410103845,-0.0035397730123483966,-0.18491557972724681
4355,13.0,299.91125,8997.5733,0.0,-0.0217748895055756,-0.02177458803508192,0.0,0.0,0.0,-0.6661740451962593,-1.052045521153809,-1.016818057577129,-0.005871968234393145,-0.0008652041481540011,-0.18326500544684782
4356,13.0,299.98028,9028.5062,0.0,-0.02177987100425649,-0.021779590245268876,0.0,0.0,0.0,-0.6712742091771063,-1.049488787176479,-1.023677456779099,-0.008597605734492622,0.003233955792341587,-0.18046278123528983
4357,13.0,300.07889,9053.3799,0.0,-0.021784885492994843,-0.021784592455456053,0.0,0.0,0.0,-0.6814434708907344,-1.050970868097749,-1.019587168775419,-0.0036516265014874764,0.0004854366630513686,-0.1831065939262138
4358,13.0,300.0712,8982.1355,0.0,-0.021789866991675733,-0.02178959466564301,0.0,0.0,0.0,-0.6692850269782894,-1.044626706571629,-1.016433123864139,-0.002292437922571008,0.0030427769793737076,-0.17748130294854084
4359,13.0,300.02537,8910.6573,0.0,-0.021794881480414197,-0.021794596875830186,0.0,0.0,0.0,-0.6661259462140124,-1.0383916720812791,-1.004099711924426,0.002863971470001977,-0.0015905084091709584,-0.18266339833247383
4360,13.0,300.0988,9057.5393,0.0,-0.02179989596915255,-0.021799599086017363,0.0,0.0,0.0,-0.6689872023763963,-1.0508288104337289,-1.0334497473685489,0.0038589153830952965,0.0029536496767275273,-0.1771435056302028
4361,13.0,300.30092,9143.0567,0.0,-0.02180487746783355,-0.021804601296204318,0.0,0.0,0.0,-0.6863079528983214,-1.060151319303789,-1.032801672604589,0.004125650938795046,-0.0014922154487701988,-0.17720120009089682
4362,13.0,300.1986,9057.8523,0.0,-0.021809891956571903,-0.021809603506391384,0.0,0.0,0.0,-0.6704937330225794,-1.0554834787431089,-1.0273837229948792,0.0019115410993044183,-0.002470924055511218,-0.17511308415231583
4363,13.0,300.08742,9007.534,0.0,-0.021814873455252792,-0.02181460571657834,0.0,0.0,0.0,-0.6795518950740503,-1.0505411487303389,-1.007972343674125,-0.001099312827718729,-0.003003631176335317,-0.1848022679685638
4364,13.0,299.94144,9070.6728,0.0,-0.021819887943991256,-0.021819607926765516,0.0,0.0,0.0,-0.6814805659768953,-1.0579964403161188,-1.017781050472169,-0.0005913270132319324,0.0003281448547053757,-0.18257453629870382
4365,13.0,299.90378,9058.7877,0.0,-0.021824869442672146,-0.021824577227675057,0.0,0.0,0.0,-0.6834697785732153,-1.053823977729329,-1.016351557231089,-0.0018004008369107282,-0.004378654321189536,-0.19236093132954582
4366,13.0,299.96002000000004,9042.4353,0.0,-0.0218298839314105,-0.021829579437862234,0.0,0.0,0.0,-0.6645866065295913,-1.0585934472750391,-1.0254945181834292,0.00011207644469108389,-0.003069233344784747,-0.18287620111847583
4367,13.0,299.89305,8984.2551,0.0,-0.021834898420148963,-0.02183458164804919,0.0,0.0,0.0,-0.6646634412846744,-1.048876784116079,-1.017449008414399,-0.0015460087952541886,-0.005187924206458255,-0.1864876879199018
4368,13.0,299.99492000000004,8946.8581,0.0,-0.021839879918829852,-0.021839583858236367,0.0,0.0,0.0,-0.6587514106612024,-1.0447625834100391,-1.016107465281999,-0.004626339964409206,0.005831114193011165,-0.1755456102225028
4369,13.0,300.00766,9024.8339,0.0,-0.021844894407568205,-0.02184458606842332,0.0,0.0,0.0,-0.6717151654881254,-1.059400602304699,-1.0122083471746859,-0.005700313028327094,0.002956141967998497,-0.19432130682801982
4370,13.0,300.09264,9149.9381,0.0,-0.021849875906249094,-0.0218495882786105,0.0,0.0,0.0,-0.6851758890915953,-1.0632008981297592,-1.032975850296779,0.00032570954862002965,0.008848001011129711,-0.17755437854575282
4371,13.0,299.99976000000004,9094.403,0.0,-0.02185489039498756,-0.021854590488797454,0.0,0.0,0.0,-0.6770797066850643,-1.0617104072326589,-1.025681361501869,0.001933302570377108,0.007535230432544343,-0.19170330161714283
4372,13.0,299.86077,8986.7647,0.0,-0.021859871893668448,-0.02185959269898463,0.0,0.0,0.0,-0.6605384798625724,-1.0537868927756688,-1.0174267169121989,0.001127275693378449,0.0024651542041417775,-0.18673956162975983
4373,13.0,299.91115,9048.9449,0.0,-0.0218648863824068,-0.02186459490917181,0.0,0.0,0.0,-0.6764374682416804,-1.051738810348539,-1.022477059385629,0.0008128648358285133,-0.007971203174271503,-0.18473361014178782
4374,13.0,300.08288999999996,9126.8586,0.0,-0.0218698678810878,-0.021869597119358763,0.0,0.0,0.0,-0.6902900257913214,-1.057294865946879,-1.026752265532559,-0.005425061510836885,-0.005414821098701235,-0.17799345021158583
4375,13.0,300.01185,9046.9431,0.0,-0.021874882369826154,-0.02187459932954594,0.0,0.0,0.0,-0.6850808766297183,-1.049076597035799,-1.015887286035269,0.003832376640451126,-0.0034627612424729267,-0.17802003789420984
4376,13.0,300.25178,8995.7422,0.0,-0.021879896858564396,-0.021879601539733007,0.0,0.0,0.0,-0.6761608104343764,-1.047027298708549,-1.0112929365043422,-0.0009686289771312372,0.005302506884741685,-0.18115766815386986
4377,13.0,300.35857999999996,9046.6481,0.0,-0.021884878357245507,-0.021884603749919962,0.0,0.0,0.0,-0.6725994592478983,-1.0519792545972688,-1.0253763732217689,0.0022511740215235775,0.0005847567145484945,-0.17560626337348884
4378,13.0,300.03303,9096.5136,0.0,-0.02188989284598386,-0.02188960596010714,0.0,0.0,0.0,-0.6754182703635934,-1.055918568336049,-1.033776216550769,-0.003105723723286067,0.0007772508274711843,-0.1830086126415438
4379,13.0,300.08389,9165.9808,0.0,-0.02189487434466475,-0.02189457526101668,0.0,0.0,0.0,-0.6837181971002323,-1.064881576070629,-1.037629505356059,-0.002486302152278918,-0.001360473886668319,-0.17706057110951784
4380,13.0,299.91062999999997,9125.7616,0.0,-0.021899888833403214,-0.021899577471203857,0.0,0.0,0.0,-0.6853943660781574,-1.058388568104819,-1.030220721949869,-0.0002118691672273588,0.002218361031610188,-0.1893242511773488
4381,13.0,299.82999,8982.22,0.0,-0.021904870332084103,-0.021904579681390812,0.0,0.0,0.0,-0.6669627489415983,-1.052988249046849,-1.010419616243152,-0.0026142219376536174,0.0008755589258284381,-0.18457650571378284
4382,13.0,299.79717,8969.5236,0.0,-0.021909884820822456,-0.021909581891577767,0.0,0.0,0.0,-0.6623134711227504,-1.060299760443439,-1.0038980143595202,-6.491051886491944e-05,0.0051134640029846055,-0.1953915319811428
4383,13.0,300.29026,9117.9183,0.0,-0.021914866319503346,-0.021914584101764945,0.0,0.0,0.0,-0.6739107365998114,-1.061801701066669,-1.035907081511069,0.004046162988325197,0.0007184525219857433,-0.17810023663962485
4384,13.0,300.18689,9101.6283,0.0,-0.02191988080824181,-0.0219195863119519,0.0,0.0,0.0,-0.6768101213634584,-1.063015777336489,-1.026841836841399,0.0027858728880692475,0.002739207046763687,-0.18525758203349982
4385,13.0,300.12075,9013.4311,0.0,-0.02192489529698005,-0.021924588522139077,0.0,0.0,0.0,-0.6663243000535883,-1.0551446479096689,-1.0183891018571791,0.006800827266689394,-0.00941251405259281,-0.1803979332288898
4386,13.0,299.83781,9044.5096,0.0,-0.02192987679566094,-0.021929590732326254,0.0,0.0,0.0,-0.6800441927676364,-1.051515388701489,-1.017745485393659,0.005232646127446965,-0.007292762115414583,-0.18296682620741986
4387,13.0,299.98131,9190.1231,0.0,-0.021934891284399516,-0.02193459294251321,0.0,0.0,0.0,-0.6909685183232833,-1.071130796062379,-1.031468640773029,0.003636307375875597,-0.0011261880707211088,-0.18146127841383383
4388,13.0,299.64977999999996,9190.4816,0.0,-0.021939872783080405,-0.021939595152700386,0.0,0.0,0.0,-0.6881474881898693,-1.0666589180710389,-1.038870534078539,0.0005811330586133675,0.0027341788944674475,-0.18663285626172882
4389,13.0,299.77837,9091.216999999999,0.0,-0.021944887271818647,-0.021944597362887452,0.0,0.0,0.0,-0.6675752282295454,-1.061049565517439,-1.0348782273595292,-0.001195331852245069,0.001918364122827798,-0.18524778390503283
4390,13.0,299.70921,8984.7839,0.0,-0.02194986877049976,-0.02194959957307463,0.0,0.0,0.0,-0.6651144591691864,-1.047793214459139,-1.018242281917689,-0.004473449643570105,0.004213288865119236,-0.18320186983311681
4391,13.0,299.95126,8991.6508,0.0,-0.02195488325923811,-0.021954601783261807,0.0,0.0,0.0,-0.6636217289893653,-1.049165155094539,-1.020450457860619,-0.00016139309011325783,0.0001311455785255609,-0.18272165008072283
4392,13.0,299.99651,9142.7989,0.0,-0.021959897747976576,-0.021959603993448762,0.0,0.0,0.0,-0.6918907582993014,-1.063172932426999,-1.024118828522659,-0.0012158570568707489,-0.0002002164364398238,-0.18144874451009682
4393,13.0,300.19397999999995,9204.9974,0.0,-0.021964879246657465,-0.021964573294358303,0.0,0.0,0.0,-0.7008518003286873,-1.062227874058729,-1.035009645897499,0.0024954299144797575,-0.006314273079970234,-0.18003328478290181
4394,13.0,299.97652999999997,9073.9112,0.0,-0.02196989373539593,-0.02196957550454548,0.0,0.0,0.0,-0.6778380331924053,-1.060566143894729,-1.019838252150199,0.006914075190616094,-0.002211807633938418,-0.18141575308684083
4395,13.0,300.00937000000005,9073.1881,0.0,-0.021974875234076707,-0.021974577714732435,0.0,0.0,0.0,-0.6674945228590803,-1.062464163982049,-1.028064019112019,0.004678174698449896,-0.0016920512679424583,-0.18368064063786782
4396,13.0,299.79915,9254.6254,0.0,-0.02197988972281517,-0.02197957992491939,0.0,0.0,0.0,-0.6952844571242333,-1.0691118952381289,-1.048778701506399,0.0010096411159263201,0.004363898765283276,-0.1807975590683298
4397,13.0,300.06237999999996,9236.7815,0.0,-0.02198487122149606,-0.021984582135106345,0.0,0.0,0.0,-0.6940946380618074,-1.0712584655749788,-1.042397860326659,-0.004360929537190235,-0.003218306448522117,-0.1859021306871118
4398,13.0,300.15999,9061.6684,0.0,-0.021989885710234303,-0.021989584345293522,0.0,0.0,0.0,-0.6748581153108104,-1.0581393085802189,-1.021523489716519,0.0007323539587202083,-0.0019101879037958683,-0.18816087794253283
4399,13.0,300.3884,8998.6528,0.0,-0.021994867208915192,-0.0219945865554807,0.0,0.0,0.0,-0.6692080807656954,-1.051325505632749,-1.0148320873811292,0.0024651862228449377,-0.0026481202197491177,-0.18934560035695583
4400,13.0,300.0878,9044.5329,0.0,-0.021999881697653767,-0.021999588765667655,0.0,0.0,0.0,-0.6630009917131034,-1.062680999503449,-1.023630239324439,0.0043362937795588755,0.0013545861943122487,-0.18745179539005183
4401,13.0,300.02184,9116.5924,0.0,-0.02200489618639201,-0.022004590975854832,0.0,0.0,0.0,-0.6695843815878334,-1.0674587776999789,-1.034173309264959,-0.0018338113404080883,0.0034012510845523466,-0.1890087250962088
4402,13.0,299.87397999999996,9164.7138,0.0,-0.0220098776850729,-0.022009593186041898,0.0,0.0,0.0,-0.6773680573985223,-1.068786641956029,-1.039689442809359,-0.004998787903041955,0.005224421779035285,-0.18073287318194584
4403,13.0,300.14512,9132.4084,0.0,-0.022014892173811473,-0.022014595396229075,0.0,0.0,0.0,-0.6823836352610214,-1.0643064553138688,-1.029334026787359,0.0010266955235269592,0.004542241016709286,-0.1795887820965328
4404,13.0,299.93542,9084.2638,0.0,-0.022019873672492363,-0.022019597606416252,0.0,0.0,0.0,-0.6793085833275374,-1.063098357219639,-1.018982461115739,1.4197887369222388e-05,0.005323042323193375,-0.1844005345689158
4405,13.0,299.87307000000004,9193.89,0.0,-0.022024888161230827,-0.022024599816603208,0.0,0.0,0.0,-0.6973161755622483,-1.066601568115379,-1.030795234756569,0.0010240032166862491,-0.002127732497615848,-0.18427218617874883
4406,13.0,299.92864,9282.1158,0.0,-0.022029869659911716,-0.022029602026790385,0.0,0.0,0.0,-0.7019322086453154,-1.0731944825410489,-1.046404757847109,0.0005325034879515025,-0.004038356301604736,-0.18042165341373084
4407,13.0,300.16823,9113.8419,0.0,-0.02203488414865018,-0.02203460423697734,0.0,0.0,0.0,-0.6760148416249703,-1.058385325704499,-1.035980238168289,-0.003091309430013487,-0.002749369134666607,-0.18224581770126183
4408,13.0,299.93001,9024.6753,0.0,-0.022039865647330847,-0.02203957353788688,0.0,0.0,0.0,-0.6681396895952534,-1.0557947491738289,-1.019341455626169,-2.4596249996710876e-05,0.002412434598788758,-0.18224326431100984
4409,13.0,300.0572,9155.694,0.0,-0.022044880136069422,-0.022044575748074058,0.0,0.0,0.0,-0.6842950505146633,-1.061987733785029,-1.036819614551129,-0.0039020711234044364,0.005054588903274085,-0.18165935867588281
4410,13.0,300.14754,9208.7057,0.0,-0.022049894624807886,-0.022049577958261013,0.0,0.0,0.0,-0.6910907264178443,-1.070075192108199,-1.0380507134226291,-0.005203637891659075,0.0038337677315134168,-0.18437392662128982
4411,13.0,299.97697,9146.9762,0.0,-0.022054876123488554,-0.02205458016844819,0.0,0.0,0.0,-0.6797056253792224,-1.066260913431759,-1.034485896920809,0.0002983659611564277,-0.0018312133671516883,-0.18724316719446182
4412,13.0,299.74145,9122.134,0.0,-0.02205989061222713,-0.022059582378635145,0.0,0.0,0.0,-0.6730478528146513,-1.065919752123089,-1.033933371641279,0.002501375058116498,-0.0013468727266009886,-0.18724058340670682
4413,13.0,299.78866,9092.765,0.0,-0.022064872110908018,-0.02206458458882221,0.0,0.0,0.0,-0.6677577855000624,-1.063595153743669,-1.0326206048117188,0.003792299964545866,-0.0026885586259400773,-0.18796376026807882
4414,13.0,299.80778,9116.3629,0.0,-0.02206988659964626,-0.022069586799009278,0.0,0.0,0.0,-0.6814317982495823,-1.062978996357859,-1.026735952205949,-0.00018357054088200182,-0.0006630953354299144,-0.1890925208794788
4415,13.0,300.09278,9224.1769,0.0,-0.02207486809832715,-0.022074589009196344,0.0,0.0,0.0,-0.6930065594419224,-1.074105293055939,-1.036807556874939,-0.0027564099056364773,0.0038149649507327266,-0.18214239526355483
4416,13.0,300.09317999999996,9164.3674,0.0,-0.022079882587065613,-0.02207959121938352,0.0,0.0,0.0,-0.6910731161311063,-1.068814911633819,-1.0258507769185892,0.001006075144319386,0.004015053069179886,-0.1891119651488978
4417,13.0,300.06326,9059.7505,0.0,-0.022084897075803966,-0.022084593429570698,0.0,0.0,0.0,-0.6692661298639243,-1.0616502201767188,-1.023021579989369,0.002162328503730208,0.0033319437644622465,-0.18624678770862682
4418,13.0,300.1494,9155.5022,0.0,-0.022089878574485078,-0.022089595639757653,0.0,0.0,0.0,-0.6826920077964553,-1.0665684348371092,-1.033783714601509,0.0007550928108393583,-0.007002141924382603,-0.19289071927683182
4419,13.0,300.11211000000003,9290.0809,0.0,-0.02209489306322332,-0.02209459784994483,0.0,0.0,0.0,-0.6908862018851593,-1.078537147668329,-1.054529301123939,-0.0012138715932997989,-0.0063517204731910045,-0.18222749813945383
4420,13.0,300.03175,9186.2586,0.0,-0.02209987456190443,-0.022099600060131785,0.0,0.0,0.0,-0.6879591452612813,-1.066631053693289,-1.037802973773179,-0.005343028276115835,-0.0002650207210980087,-0.18655374169392083
4421,13.0,299.89462000000003,9121.9021,0.0,-0.022104889050642784,-0.022104602270318963,0.0,0.0,0.0,-0.6750972524669113,-1.0677043895242189,-1.0300288123809291,0.0017297394093869884,0.0021145088745357777,-0.18482985876878683
4422,13.0,299.94439,9160.601,0.0,-0.022109870549323674,-0.022109571571228503,0.0,0.0,0.0,-0.6904573437803343,-1.060829284945699,-1.033307284404489,0.0004759284457029805,0.003931639787822637,-0.17879298560049384
4423,13.0,300.19908,9204.0956,0.0,-0.022114885038062138,-0.02211457378141546,0.0,0.0,0.0,-0.6842500318127204,-1.073766563547509,-1.039798671170139,-0.0017209412574436783,0.0023029901117624274,-0.17981592237144983
4424,13.0,299.91164,9217.3942,0.0,-0.022119866536742805,-0.022119575991602636,0.0,0.0,0.0,-0.6849420816310203,-1.073412939262609,-1.043502606910689,0.003063950968038417,5.324943281705985e-05,-0.18354227120421182
4425,13.0,300.03078,9248.3228,0.0,-0.02212488102548127,-0.022124578201789813,0.0,0.0,0.0,-0.6878986542303114,-1.0738583640065689,-1.0495021620777991,-0.005742121956603314,-0.0017274597993120085,-0.18410392586714283
4426,13.0,300.13917000000004,9175.8775,0.0,-0.022129895514219844,-0.022129580411976768,0.0,0.0,0.0,-0.6877346394366244,-1.0701892840694591,-1.031313714832739,-0.0006309446463118885,-0.008401067132470772,-0.18497465220807682
4427,13.0,300.01264,9115.3655,0.0,-0.02213487701290051,-0.022134582622163834,0.0,0.0,0.0,-0.6800246978357123,-1.0643958239726887,-1.026423060575069,-0.0037028369721415566,-0.002898833555592597,-0.18950061748975483
4428,13.0,299.87628,9212.2802,0.0,-0.022139891501638975,-0.02213958483235079,0.0,0.0,0.0,-0.6894598395868884,-1.072589268256319,-1.038253971392689,0.001133138865082099,0.0017164803225534185,-0.1850635243743478
4429,13.0,299.71898,9191.9811,0.0,-0.022144873000319865,-0.022144587042537967,0.0,0.0,0.0,-0.6824520600402744,-1.074262650796469,-1.0374180400601891,0.0035053123764473967,0.0027635979018458775,-0.1914042408501278
4430,13.0,299.6505,9127.8441,0.0,-0.022149887489058218,-0.022149589252725144,0.0,0.0,0.0,-0.6699022280117023,-1.066650406770199,-1.038084049350919,0.004511941089693916,-0.002962803378130927,-0.18632822261916382
4431,13.0,299.8882,9195.4472,0.0,-0.022154868987739107,-0.0221545914629121,0.0,0.0,0.0,-0.6790037470349524,-1.078490031538679,-1.0376925295122792,0.0027694189223453672,-0.0032705398964771567,-0.1918523000443478
4432,13.0,299.90916,9241.2562,0.0,-0.02215988347647757,-0.022159593673099276,0.0,0.0,0.0,-0.6940391423538304,-1.071707031394249,-1.043365007547109,0.007048378856920833,-0.004921558689695025,-0.1828950881003398
4433,13.0,300.03859,9227.3999,0.0,-0.022164864975158682,-0.02216459588328623,0.0,0.0,0.0,-0.6872740463386673,-1.077909945856429,-1.039715179361899,-0.0013886877343778086,0.0023280736246129776,-0.19253449093917482
4434,13.0,300.16431,9240.975,0.0,-0.022169879463897035,-0.022169598093473408,0.0,0.0,0.0,-0.6885065840253093,-1.079671785130309,-1.040847283698629,-0.0004382498896043966,-0.0025607041951968275,-0.17860368008431082
4435,13.0,300.07525,9213.2249,0.0,-0.022174893952635277,-0.022174600303660585,0.0,0.0,0.0,-0.6871456270209934,-1.071966119444819,-1.041478538510929,-0.003422394067763997,0.002538333051538968,-0.18723852650900383
4436,13.0,300.08482999999995,9174.2203,0.0,-0.02217987545131639,-0.022179569604569904,0.0,0.0,0.0,-0.6787862225034843,-1.072924248739379,-1.037023379146239,-0.00043758770026654356,0.0025027492279021176,-0.18118177337374883
4437,13.0,299.83862,9206.0334,0.0,-0.02218488994005463,-0.02218457181475708,0.0,0.0,0.0,-0.6868788484021644,-1.074749517469519,-1.036775842146809,-0.001170998347118539,-0.0011636503587183489,-0.19305065067261581
4438,13.0,299.94382,9282.3224,0.0,-0.02218987143873552,-0.02218957402494426,0.0,0.0,0.0,-0.7041691811560873,-1.073296719476139,-1.044128288847439,-0.0014208311686251186,-0.005815008278696635,-0.17885381100399683
4439,13.0,299.97624,9204.5053,0.0,-0.022194885927474095,-0.022194576235131214,0.0,0.0,0.0,-0.6926031744446113,-1.073480928344319,-1.031855600986219,-0.00013827276959645985,0.001015805719402219,-0.1951446535942778
4440,13.0,299.99937,9173.9395,0.0,-0.022199867426154762,-0.02219957844531839,0.0,0.0,0.0,-0.6867387260458353,-1.063972893380949,-1.037936824111389,0.0035592534547959666,0.0026965924833329577,-0.18140088870787383
4441,13.0,299.91837999999996,9247.146,0.0,-0.022204881914893226,-0.022204580655505457,0.0,0.0,0.0,-0.6853868882924192,-1.0726573586630388,-1.052857235808919,-0.0005649104280198185,0.0077116052562511824,-0.18618735045776083
4442,13.0,299.98626,9282.056,0.0,-0.0222098964036318,-0.022209582865692634,0.0,0.0,0.0,-0.6922215540594484,-1.075404887634199,-1.053886900560539,-0.0018628082277948581,-0.002159875627888128,-0.17827855852472385
4443,13.0,299.92289,9195.8171,0.0,-0.02221487790231247,-0.02221458507587959,0.0,0.0,0.0,-0.6805666245191964,-1.0700284812785887,-1.044703713579229,-0.004586647107641825,-0.0018395561645000583,-0.1897349518403818
4444,13.0,299.70746,9204.3272,0.0,-0.022219892391050933,-0.022219587286066544,0.0,0.0,0.0,-0.6917492680553373,-1.0774606707620888,-1.028675718197389,-2.8522449239446572e-05,-0.0029217149720008172,-0.18839227386786983
4445,13.0,299.74687,9189.1744,0.0,-0.022224873889731822,-0.02222458949625372,0.0,0.0,0.0,-0.6844439070868543,-1.072454911293059,-1.036380775932819,0.001014130107711849,0.0003639692543134686,-0.1892369698137348
4446,13.0,299.93572,9190.8386,0.0,-0.022229888378470175,-0.022229591706440677,0.0,0.0,0.0,-0.6854309140092643,-1.079094131248299,-1.029260363505089,0.0013402961255019287,-0.0015667129398475286,-0.1901336454897298
4447,13.0,299.98447000000004,9235.1206,0.0,-0.022234869877151175,-0.022234593916627854,0.0,0.0,0.0,-0.6757737286311744,-1.081758675036269,-1.049713728698679,0.0012527481757866187,0.004225722254446317,-0.18945166737742383
4448,13.0,300.13077000000004,9234.1535,0.0,-0.02223988436588953,-0.02223959612681503,0.0,0.0,0.0,-0.6880699238947143,-1.0721309752360888,-1.046751188056299,0.002247113827047868,0.0025380116486072475,-0.18569204341137782
4449,13.0,300.15972,9189.2598,0.0,-0.02224486586457064,-0.022244598337001986,0.0,0.0,0.0,-0.6770407269537173,-1.076307997448329,-1.039956738185739,0.0017556787132719984,0.002303841444496448,-0.1911972946497038
4450,13.0,300.12155,9261.954,0.0,-0.022249880353308882,-0.022249600547189163,0.0,0.0,0.0,-0.6970003049760743,-1.0744948877193887,-1.0439076029756589,0.0024632538535792276,-0.0054464338938711755,-0.1899911318631648
4451,13.0,299.87962999999996,9347.9718,0.0,-0.022254894842047457,-0.022254569848098704,0.0,0.0,0.0,-0.7028224096531713,-1.083877684970399,-1.054849893455579,0.001060248591313389,-0.000961789964521279,-0.18451787906299683
4452,13.0,300.00496,9264.1184,0.0,-0.022259876340728346,-0.02225957205828566,0.0,0.0,0.0,-0.6977194085720443,-1.075984973316449,-1.042356317072559,0.0022929123262678277,-0.0009327011246879341,-0.18663344394678683
4453,13.0,299.8084,9219.5111,0.0,-0.022264890829466588,-0.022264574268472836,0.0,0.0,0.0,-0.6782765475706833,-1.074917311686079,-1.049307314083569,-0.0019115896339842082,0.004913369805036844,-0.18161494792399985
4454,13.0,299.79666000000003,9256.5073,0.0,-0.022269872328147478,-0.022269576478659903,0.0,0.0,0.0,-0.6937394939017574,-1.076286415221199,-1.0437212662822688,-0.004261714823173506,0.0020432249061505983,-0.17913222173397383
4455,13.0,299.84619,9295.463,0.0,-0.02227488681688594,-0.02227457868884708,0.0,0.0,0.0,-0.6931736747809153,-1.0827015042543189,-1.049713526048659,-0.0063410003884580134,0.005017795461667855,-0.18180550987030683
4456,13.0,299.90341,9267.7178,0.0,-0.02227986831556672,-0.022279580899034257,0.0,0.0,0.0,-0.6974505831880133,-1.078371987902029,-1.0413323265214989,-0.005020064635266806,0.001991044248525768,-0.1902205519508068
4457,13.0,299.96443,9281.3279,0.0,-0.022284882804305184,-0.022284583109221212,0.0,0.0,0.0,-0.6948769380665143,-1.0817188543073388,-1.044696114203479,-0.004331645900025166,-0.0009906131099134022,-0.18439119240299384
4458,13.0,300.31486,9231.321,0.0,-0.022289864302986073,-0.022289585319408167,0.0,0.0,0.0,-0.6883418092940474,-1.0751889640378889,-1.042560284317689,0.0011551472652041588,-0.00952454587374949,-0.1882376215051068
4459,13.0,300.0131,9211.366,0.0,-0.022294878791724426,-0.022294587529595122,0.0,0.0,0.0,-0.6727030843356254,-1.080301317417439,-1.047020813907909,0.002058972636554778,-0.0005305999456511375,-0.18746649764900283
4460,13.0,299.83533,9284.2004,0.0,-0.02229989328046289,-0.0222995897397823,0.0,0.0,0.0,-0.6942229256569683,-1.077676695683409,-1.050265443378129,0.008244604395754102,0.0013994197754619788,-0.19155068588708082
4461,13.0,300.06747,9270.1744,0.0,-0.02230487477914378,-0.022304591949969477,0.0,0.0,0.0,-0.6902881715436384,-1.074411699886179,-1.0532017408429188,0.0007474196198195733,-0.0012652948464748788,-0.18864959886326582
4462,13.0,299.92848,9144.1055,0.0,-0.022309889267882133,-0.022309594160156432,0.0,0.0,0.0,-0.6784776270530283,-1.075172144086229,-1.025930013076409,0.0008440631205150443,-0.0036170684922518666,-0.19723671107574783
4463,13.0,299.83259,9226.5597,0.0,-0.022314870766563133,-0.02231459637034361,0.0,0.0,0.0,-0.6850139007981084,-1.078765027615819,-1.040864914250369,9.497504761705741e-05,0.002293670642642668,-0.19007198922114482
4464,13.0,299.96875,9367.4171,0.0,-0.022319885255301597,-0.022319598580530675,0.0,0.0,0.0,-0.7020812780000274,-1.091715782443959,-1.053663884213529,0.0044931929230936155,0.0013356749957708586,-0.18795411412712681
4465,13.0,299.78734,9308.4491,0.0,-0.022324866753982597,-0.022324567881440216,0.0,0.0,0.0,-0.6919656172166894,-1.0860525249850388,-1.0515179218267392,-0.005584171160789785,-0.0028745277121937974,-0.18884890515793581
4466,13.0,300.05798,9292.9455,0.0,-0.02232988124272084,-0.022329570091627282,0.0,0.0,0.0,-0.6914569555339883,-1.084309836138049,-1.049056636008829,-0.005720683205687475,-0.002115414618800168,-0.18145614123582682
4467,13.0,300.01785,9305.3643,0.0,-0.022334895731459303,-0.02233457230181435,0.0,0.0,0.0,-0.6904697560940594,-1.0880171156039289,-1.050111530687939,-0.0013022869864257188,0.008704572926349461,-0.18660678533665584
4468,13.0,299.94302000000005,9281.3327,0.0,-0.022339877230140193,-0.022339574512001525,0.0,0.0,0.0,-0.6939764627026443,-1.082621153521389,-1.0446957089034392,0.007045014055988753,0.008806744912108052,-0.18441250105259682
4469,13.0,300.17415,9307.0574,0.0,-0.022344891718878546,-0.022344576722188703,0.0,0.0,0.0,-0.6983601575377814,-1.0830210833358591,-1.0477318115030791,0.0024868111078041478,-0.0010367110954654188,-0.19077081768261384
4470,13.0,300.07608,9324.8316,0.0,-0.022349873217559435,-0.022349578932375658,0.0,0.0,0.0,-0.7018702787992034,-1.080717155258479,-1.051928490767259,-3.2374010453316075e-05,-0.00988548126474604,-0.17993000420020883
4471,13.0,300.0479,9256.8432,0.0,-0.0223548877062979,-0.022354581142562835,0.0,0.0,0.0,-0.6881649464890923,-1.0779079193562289,-1.047776394507479,0.005525814946455474,-0.001801098155629548,-0.19125433049783283
4472,13.0,300.0173,9257.212,0.0,-0.022359869204978677,-0.02235958335274979,0.0,0.0,0.0,-0.6897873220192083,-1.0812350273845888,-1.042938935880059,0.002955855015570177,0.0013160393234079688,-0.18654318362787883
4473,13.0,299.78614,9351.2014,0.0,-0.02236488369371714,-0.022364585562936967,0.0,0.0,0.0,-0.6964515388544154,-1.0873039901835488,-1.0587761362680688,0.0006776814151244485,0.002001486500081338,-0.19271078632407382
4474,13.0,299.90131,9359.383,0.0,-0.02236986519239803,-0.022369587773123922,0.0,0.0,0.0,-0.7073358106336093,-1.083874442570079,-1.0538084750027992,-0.009498177661097151,0.0008945744486001241,-0.18335216522044984
4475,13.0,300.10173,9261.9497,0.0,-0.022374879681136273,-0.02237458998331099,0.0,0.0,0.0,-0.6820326048963774,-1.0889448473954888,-1.044423955226619,-0.0018998926748298082,0.0070403591850293525,-0.1944362803168668
4476,13.0,299.8594,9273.6602,0.0,-0.022379894169874848,-0.022379592193498166,0.0,0.0,0.0,-0.6890113142976224,-1.085685931098859,-1.044263861710819,0.0005303487406863455,0.0036879223359695965,-0.18111934703508784
4477,13.0,299.92014,9332.9507,0.0,-0.022384875668555848,-0.02238459440368512,0.0,0.0,0.0,-0.6929377901576353,-1.0884098513426888,-1.0556362768581888,0.003836346351692906,-0.004374964976250425,-0.18773155374266182
4478,13.0,299.894,9282.3955,0.0,-0.0223898901572942,-0.022389596613872298,0.0,0.0,0.0,-0.6874691679104243,-1.088097263686839,-1.046050018987099,0.0013390973493086187,-0.005910448028140805,-0.18603749076797083
4479,13.0,299.98647,9280.2293,0.0,-0.02239487165597509,-0.02239456591478184,0.0,0.0,0.0,-0.6839127917819373,-1.085103616266389,-1.051941561693549,0.0036778819394036864,0.0024086773660929478,-0.19169705999652684
4480,13.0,300.13181000000003,9333.4209,0.0,-0.022399886144713554,-0.022399568124968794,0.0,0.0,0.0,-0.6990854520918623,-1.0909046757389091,-1.047136729719349,-0.0011831491409927289,0.0072743516650726125,-0.1886534188161428
4481,13.0,300.29322,9283.7451,0.0,-0.022404867643394444,-0.02240457033515597,0.0,0.0,0.0,-0.6933158641674483,-1.0793110680947091,-1.0493998238176991,0.0014313256025608387,-0.0014412917278944187,-0.19277531009044183
4482,13.0,300.13824,9328.8142,0.0,-0.022409882132132797,-0.022409572545343148,0.0,0.0,0.0,-0.6996763795501824,-1.086367949741169,-1.0496823179455792,0.001112183434463959,-0.0035156984939474266,-0.1901304537519148
4483,13.0,299.92785,9393.2541,0.0,-0.022414863630813686,-0.022414574755530103,0.0,0.0,0.0,-0.7060833017874963,-1.088382290939969,-1.060849144647659,0.007037490066046192,-0.0002925203794745137,-0.1859170963910888
4484,13.0,300.13273,9332.9496,0.0,-0.02241987811955215,-0.02241957696571728,0.0,0.0,0.0,-0.6956374025315663,-1.084101815892519,-1.057244406091899,0.003795722622058656,-0.001891468716148428,-0.18822485455384683
4485,13.0,300.12761,9256.2992,0.0,-0.022424892608290503,-0.022424579175904236,0.0,0.0,0.0,-0.6782364836617294,-1.0862868897331688,-1.049160392819069,-0.0006485486508992684,-0.0038897036966588664,-0.18526104734884183
4486,13.0,299.9782,9346.4488,0.0,-0.022429874106971393,-0.022429581386091413,0.0,0.0,0.0,-0.7031045187460133,-1.0836607481239888,-1.054321787503459,-0.006260201393683775,-0.0014452666067117084,-0.18829746405601283
4487,13.0,300.03193999999996,9399.4726,0.0,-0.022434888595709856,-0.02243458359627859,0.0,0.0,0.0,-0.7000315946377393,-1.093189250739379,-1.063984140457059,-0.0019605073223120085,0.007886448957731914,-0.1819531708073798
4488,13.0,299.95831,9302.3197,0.0,-0.022439870094390524,-0.022439585806465545,0.0,0.0,0.0,-0.6971307609264494,-1.0858563597656792,-1.0446857790524589,-0.005398962113436074,0.003261779741412597,-0.1921510771013348
4489,13.0,300.04561,9346.791,0.0,-0.0224448845831291,-0.02244458801665261,0.0,0.0,0.0,-0.6923019757198853,-1.0878008880325887,-1.061088271671259,-0.002365973332678388,-0.007759056873009293,-0.18294898287315883
4490,13.0,300.07289,9350.9971,0.0,-0.0224498660818101,-0.022449590226839566,0.0,0.0,0.0,-0.6994696461322794,-1.0883328443350888,-1.054667204462549,0.00023429826879093875,-0.008116746114660473,-0.19129235777408582
4491,13.0,299.83616,9325.5405,0.0,-0.022454880570548452,-0.022454592437026744,0.0,0.0,0.0,-0.6863184704343593,-1.094298556948859,-1.0541144765329988,0.005237460078672065,-0.0013385619479557788,-0.19709485606174781
4492,13.0,299.64538,9365.4159,0.0,-0.022459895059286694,-0.02245959464721392,0.0,0.0,0.0,-0.7074847280008064,-1.083434590701669,-1.055933260462499,0.003780414338222846,0.004075922245087207,-0.1935242944318608
4493,13.0,299.72575,9342.7223,0.0,-0.022464876557967806,-0.02246456394812346,0.0,0.0,0.0,-0.6929890910101983,-1.095530162445409,-1.051435037968559,-0.004878487150469195,-0.0034811390661616762,-0.1953100362755998
4494,13.0,299.72852,9219.2344,0.0,-0.02246989104670616,-0.022469566158310417,0.0,0.0,0.0,-0.6886465037316184,-1.077770016017619,-1.036000503170289,-3.276562959046587e-05,0.002792168008290528,-0.1921850108471838
4495,13.0,300.10472999999996,9310.4215,0.0,-0.022474872545387048,-0.022474568368497594,0.0,0.0,0.0,-0.6900362573037764,-1.083616570419629,-1.0564828473167391,0.0003483142058959357,0.004037332007078646,-0.18883117328118582
4496,13.0,299.92596000000003,9420.1428,0.0,-0.022479887034125512,-0.02247957057868455,0.0,0.0,0.0,-0.7056797040076643,-1.098869024174929,-1.058939472184189,0.0033197280212566467,-0.0008791920455194991,-0.1855519818500548
4497,13.0,299.87687,9323.3886,0.0,-0.0224848685328064,-0.022484572788871726,0.0,0.0,0.0,-0.6843252757651463,-1.0847915352355888,-1.0649605082534188,-0.007711372107403173,-0.007945223948332553,-0.1864828243194218
4498,13.0,300.11545,9319.761,0.0,-0.022489883021544754,-0.02248957499905868,0.0,0.0,0.0,-0.6916745509929634,-1.0945146831951889,-1.046785435909679,-0.006603692468308704,0.0019909326896897584,-0.1883226534534988
4499,13.0,300.07117999999997,9414.7447,0.0,-0.022494864520225644,-0.02249457720924586,0.0,0.0,0.0,-0.7043251507439804,-1.090544161353329,-1.066977990527529,0.00028217320117582674,0.007008092539569884,-0.18324238970461584
4500,13.0,300.05958,9408.2241,0.0,-0.022499879008964108,-0.022499579419433036,0.0,0.0,0.0,-0.7097940567012193,-1.090472625896269,-1.059598490049229,-0.0004328718316511236,0.007818109696787354,-0.18744077122896383
4501,13.0,300.11565,9331.5868,0.0,-0.02250489349770246,-0.02250458162961999,0.0,0.0,0.0,-0.6867102638505264,-1.095754090717509,-1.054105053307069,0.0013513515960180186,-0.000988768599563863,-0.19518149536791382
4502,13.0,299.97456,9344.7891,0.0,-0.02250987499638335,-0.022509583839807168,0.0,0.0,0.0,-0.6952312513614823,-1.090257816875069,-1.055093478779619,0.0037329230020608163,-0.0010853677705674589,-0.1941159109002488
4503,13.0,299.99832000000004,9345.3501,0.0,-0.022514889485121814,-0.022514586049994234,0.0,0.0,0.0,-0.6910098082648584,-1.091114418509609,-1.058628809703529,0.006207367797694504,0.0036025442613434365,-0.1950634821287668
4504,13.0,300.21455,9352.8855,0.0,-0.022519870983802703,-0.02251958826018141,0.0,0.0,0.0,-0.7037339395756324,-1.089283678228929,-1.050026012379499,0.002419986047809028,-0.0025587378820527674,-0.1945346972990798
4505,13.0,299.9913,9446.9077,0.0,-0.022524885472540945,-0.022524590470368366,0.0,0.0,0.0,-0.7086722469855052,-1.0970878318241388,-1.065864023367589,-0.0004301522683827236,-0.004857898415062245,-0.18559328192413083
4506,13.0,300.01658,9410.3125,0.0,-0.022529866971222057,-0.02252959268055532,0.0,0.0,0.0,-0.7058247406269783,-1.094259749470029,-1.060415574929869,-0.006610439396749574,0.0014898197202337586,-0.18493171066883882
4507,13.0,300.06854,9322.2977,0.0,-0.02253488145996041,-0.0225345948907425,0.0,0.0,0.0,-0.6871139629553683,-1.088963389872319,-1.057668349933739,-0.00036892376359244064,0.005602008820850225,-0.1906492682006178
4508,13.0,299.91695,9416.4896,0.0,-0.0225398629586413,-0.02253956419165204,0.0,0.0,0.0,-0.7004023023193253,-1.096941619834709,-1.065033766235649,-0.0049523874319375855,0.003862124447487007,-0.18497368962048183
4509,13.0,299.79121000000004,9477.1018,0.0,-0.022544877447379763,-0.022544566401838995,0.0,0.0,0.0,-0.7050073821688113,-1.1047604655563688,-1.071034435977869,-0.0038105284351698764,-0.0051539723234324646,-0.19144246064389983
4510,13.0,299.90504,9346.8497,0.0,-0.022549891936118116,-0.022549568612026172,0.0,0.0,0.0,-0.6890676104731783,-1.0915460630522091,-1.060595224172599,-0.0016427425664010686,-0.006225972589405655,-0.1880943074109628
4511,13.0,299.92136,9283.5798,0.0,-0.022554873434799005,-0.022554570822213127,0.0,0.0,0.0,-0.6847541946649773,-1.089513584676619,-1.047708709400799,0.004440092031727965,8.476907483905633e-05,-0.1990967950793238
4512,13.0,299.97056000000003,9404.8065,0.0,-0.02255988792353747,-0.022559573032400304,0.0,0.0,0.0,-0.7066442978378623,-1.093737115068449,-1.058444904810379,0.002735481224820977,-0.0023302392440517077,-0.18962719269224682
4513,13.0,300.13299,9401.1651,0.0,-0.02256486942221836,-0.02256457524258748,0.0,0.0,0.0,-0.7001421706211524,-1.092763787022389,-1.064813485663909,0.004088198681973796,-0.004668938214513326,-0.1991035737224928
4514,13.0,300.20271,9412.7311,0.0,-0.0225698839109566,-0.022569577452774436,0.0,0.0,0.0,-0.7013286864882524,-1.1022452748331388,-1.057661257183039,0.004301713580146076,0.0005163393421537255,-0.1954675054736408
4515,13.0,300.14322000000004,9473.8212,0.0,-0.0225748654096376,-0.022574579662961614,0.0,0.0,0.0,-0.7116294072698544,-1.0951251663804389,-1.0730504997018389,0.01023610886247529,0.0070065952598971125,-0.18761533395619184
4516,13.0,300.02441,9440.7313,0.0,-0.022579879898376065,-0.02257958187314868,0.0,0.0,0.0,-0.7115869520906644,-1.0985581590442488,-1.059601428474519,-0.0012195812576132987,0.002221492379719228,-0.18284445599284282
4517,13.0,300.10683,9395.9724,0.0,-0.022584894387114307,-0.022584584083335857,0.0,0.0,0.0,-0.7017654580763584,-1.094077769752069,-1.060297835268249,-0.0015374791545873785,-0.007474283641679363,-0.18400641067751883
4518,13.0,300.11442999999997,9474.4095,0.0,-0.022589875885795196,-0.022589586293523034,0.0,0.0,0.0,-0.7163233694181124,-1.0969333111838888,-1.066727211127779,-0.0027024000276061172,-0.004375582856161405,-0.18272551056360384
4519,13.0,300.05384,9411.5079,0.0,-0.02259489037453377,-0.02259458850370999,0.0,0.0,0.0,-0.6981309806301634,-1.100120084073399,-1.062612402471679,0.00013534115334713187,0.002285288835165448,-0.19181101010277282
4520,13.0,300.16976,9307.7511,0.0,-0.02259987187321466,-0.022599590713896944,0.0,0.0,0.0,-0.6907830124949753,-1.087735128101099,-1.050805809656459,-0.0017222617249739983,0.0020009165469000883,-0.1971895442835928
4521,13.0,300.15031,9398.871,0.0,-0.022604886361952903,-0.0226045929240839,0.0,0.0,0.0,-0.6969068934493553,-1.098345376523249,-1.061769783688519,-0.003977475270671246,-0.003138418770887817,-0.19609872988843782
4522,13.0,300.05925,9432.7294,0.0,-0.022609867860634014,-0.022609562224993662,0.0,0.0,0.0,-0.7055699082268283,-1.099740216610909,-1.0620041484366491,-0.002357712507263108,0.0025815499921541473,-0.19418397090946582
4523,13.0,300.07819,9380.4436,0.0,-0.022614882349372256,-0.02261456443518084,0.0,0.0,0.0,-0.6934521260408963,-1.0963380267501388,-1.061630563124779,0.001998874543973558,0.005103290870655594,-0.19147079111669582
4524,13.0,299.81501000000003,9399.0047,0.0,-0.022619863848053257,-0.022619566645367795,0.0,0.0,0.0,-0.7048107001919003,-1.095619936404269,-1.0566322003814792,-0.0004833710108675045,0.0004469507999356096,-0.19095989015127382
4525,13.0,299.85228,9480.0122,0.0,-0.02262487833679172,-0.02262456885555475,0.0,0.0,0.0,-0.7058930539487203,-1.102703162553329,-1.073090827055819,-0.0006395080991345353,-0.006975805629108414,-0.18487710662094983
4526,13.0,300.01138,9438.4539,0.0,-0.022629892825529963,-0.022629571065741927,0.0,0.0,0.0,-0.7085655416174743,-1.0989856492614387,-1.061503096262199,0.001009008878261423,-0.0005856653161781664,-0.18787902216221583
4527,13.0,300.1753,9446.3764,0.0,-0.022634874324210852,-0.022634573275928993,0.0,0.0,0.0,-0.6996357583536733,-1.1050958513394689,-1.066730960153149,0.005953073028047564,0.005937445570430255,-0.1904051965165298
4528,13.0,300.16398,9491.5987,0.0,-0.022639888812949427,-0.02263957548611606,0.0,0.0,0.0,-0.7191854868430814,-1.099345657021969,-1.066677865847909,0.0025847458842945576,-0.0021369346323740278,-0.18754636202188482
4529,13.0,300.11646,9420.4194,0.0,-0.022644870311630316,-0.022644577696303125,0.0,0.0,0.0,-0.6987596313897063,-1.097783529342799,-1.067029159657579,-0.0005547006363021905,-0.0038701089596000163,-0.18829012812528884
4530,13.0,300.1099,9379.6476,0.0,-0.022649884800368558,-0.022649579906490303,0.0,0.0,0.0,-0.6961293151901143,-1.103444658976509,-1.051604656035299,0.0006453819302292374,-0.0017445507953737585,-0.19636658255237283
4531,13.0,300.07776,9455.5752,0.0,-0.022654866299049448,-0.02265458211667748,0.0,0.0,0.0,-0.6966439043859004,-1.100042671765759,-1.0775721282730888,0.0022830296927424877,0.007668123553384872,-0.19098996341424182
4532,13.0,299.75178,9454.4664,0.0,-0.022659880787788023,-0.022659584326864435,0.0,0.0,0.0,-0.7050479729678173,-1.102882305171009,-1.065991388905159,-0.0007321644201565022,0.003714153962508457,-0.19489506982964583
4533,13.0,299.9807,9414.6046,0.0,-0.022664862286468912,-0.022664586537051612,0.0,0.0,0.0,-0.6968755536237623,-1.0956285490301187,-1.069300663731759,-0.0054917079348393745,-0.0005187859054476824,-0.19314421418684982
4534,13.0,299.9943,9456.6871,0.0,-0.022669876775207154,-0.022669588747238567,0.0,0.0,0.0,-0.7133521148248723,-1.0956283463800989,-1.0656162837181389,-0.002658312705155037,0.00029289705519918867,-0.18584826631179582
4535,13.0,300.10343,9466.8758,0.0,-0.022674891263945618,-0.022674590957425744,0.0,0.0,0.0,-0.7098446482787123,-1.103114035468879,-1.064735161431179,0.0025922324853084274,-0.002551577243596068,-0.18513489771139183
4536,13.0,300.18042,9454.479,0.0,-0.022679872762626507,-0.022679560258335285,0.0,0.0,0.0,-0.7098545274671872,-1.096006187342389,-1.068064802584789,0.007975711123966403,-0.006562443158062714,-0.18612186410379783
4537,13.0,300.18521,9507.1914,0.0,-0.022684887251365082,-0.02268456246852224,0.0,0.0,0.0,-0.7073513133601393,-1.110182265516459,-1.072415293214149,0.0018453306768199582,-0.00807649576768807,-0.19177382382410282
4538,13.0,300.24242000000004,9525.3872,0.0,-0.02268986875004597,-0.022689564678709417,0.0,0.0,0.0,-0.7142749931484533,-1.1049445730995389,-1.0762602733686188,0.004385028373593606,0.0013344949647043987,-0.19400332868163783
4539,13.0,300.04233,9446.8021,0.0,-0.022694883238784214,-0.022694566888896373,0.0,0.0,0.0,-0.6973347889665853,-1.104589935564539,-1.069667257617939,-0.0033252095016476266,0.008269791665414892,-0.1994552829647038
4540,13.0,300.07367,9424.5037,0.0,-0.022699864737465103,-0.02269956909908344,0.0,0.0,0.0,-0.7042122645503394,-1.1018076521149491,-1.058793868144819,-0.006007813864700064,0.0017424197277634383,-0.19786947563069682
4541,13.0,300.02556,9477.1464,0.0,-0.022704879226203678,-0.022704571309270616,0.0,0.0,0.0,-0.7088373459567994,-1.100123529123739,-1.071854965908849,-0.004838489812046765,-0.0015789477321550085,-0.19275979723141082
4542,13.0,300.01717,9404.9284,0.0,-0.02270989371494192,-0.02270957351945757,0.0,0.0,0.0,-0.6954822030137493,-1.099553981242529,-1.0638271880165688,-0.004063975823758187,0.00036081536138970365,-0.18942425896221882
4543,13.0,300.11852999999996,9392.7546,0.0,-0.02271487521362281,-0.022714575729644748,0.0,0.0,0.0,-0.6925979866040993,-1.100987527484009,-1.061577367494529,-0.0013964054577394885,-0.0004362245546420116,-0.19032791593140283
4544,13.0,299.97155,9502.7598,0.0,-0.022719889702361273,-0.022719577939831925,0.0,0.0,0.0,-0.7098508088393203,-1.102054479839309,-1.076696376211659,-0.002758984675465588,-0.006958067774182823,-0.18180283489004284
4545,13.0,299.78517,9490.7572,0.0,-0.022724871201042163,-0.02272458015001888,0.0,0.0,0.0,-0.7136640438681574,-1.1052395302036488,-1.066049549460899,0.0007505026460313443,-0.0004138293260292746,-0.19189219170078484
4546,13.0,300.09316,9496.1684,0.0,-0.022729885689780516,-0.022729582360206058,0.0,0.0,0.0,-0.7134930376487804,-1.104941026724189,-1.068163999769579,0.0030135075277100366,0.0009267952647575709,-0.19150884879045182
4547,13.0,299.91206,9547.4556,0.0,-0.022734867188461405,-0.022734584570393013,0.0,0.0,0.0,-0.7172724098592753,-1.1072084777979687,-1.077707194511419,0.0036293792783168464,0.006671860084686323,-0.1951246621698048
4548,13.0,299.85011000000003,9538.0491,0.0,-0.02273988167719987,-0.02273958678058019,0.0,0.0,0.0,-0.7100378750727823,-1.113727120991309,-1.075563765249879,-0.0002829735167673117,-0.0052113601746462054,-0.19384834194634182
4549,13.0,300.25291,9420.6032,0.0,-0.02274486317588076,-0.022744588990767367,0.0,0.0,0.0,-0.6985578122347883,-1.096527707168859,-1.068542651331949,0.0006083041706449473,-0.0009637018863999711,-0.2010951167940428
4550,13.0,300.17547,9412.6115,0.0,-0.022749877664619333,-0.022749591200954322,0.0,0.0,0.0,-0.6947883192127683,-1.100773427737879,-1.065637156670199,0.004308537110294506,0.004051593502236147,-0.19361182910799982
4551,13.0,300.20552000000004,9435.3291,0.0,-0.022754892153357575,-0.022754560501863863,0.0,0.0,0.0,-0.6989087108769192,-1.102453599053699,-1.066742105904249,-0.001990954170591878,0.005922091791664954,-0.1931576093531718
4552,13.0,300.26676000000003,9434.6714,0.0,-0.022759873652038465,-0.02275956271205104,0.0,0.0,0.0,-0.7079098573452633,-1.095493888091829,-1.064500796683049,-0.012067012276421388,-0.0015138210819775088,-0.1894551833552708
4553,13.0,299.84087,9480.2213,0.0,-0.02276488814077693,-0.022764564922237995,0.0,0.0,0.0,-0.7042433307984054,-1.112484369743659,-1.065022924459579,-0.008668004628915451,0.0007296588350442202,-0.19537586713459681
4554,13.0,299.75818,9523.7585,0.0,-0.02276986963945793,-0.022769567132425172,0.0,0.0,0.0,-0.7155498948217763,-1.105139623743789,-1.0742952774496888,0.0017734346040493684,0.007071064006784682,-0.18383194927530083
4555,13.0,299.84798,9525.7021,0.0,-0.02277488412819617,-0.02277456934261224,0.0,0.0,0.0,-0.7026612522247664,-1.1167080014604989,-1.076206368463299,0.0036378383967766966,0.0060546584433232645,-0.1988876805236858
4556,13.0,299.98854,9564.1692,0.0,-0.02277986562687706,-0.022779571552799194,0.0,0.0,0.0,-0.7133263276098273,-1.116423784807449,-1.077518527342799,0.004864765514964975,-0.01032684642218039,-0.1885584266192678
4557,13.0,300.12178,9601.7718,0.0,-0.022784880115615525,-0.02278457376298637,0.0,0.0,0.0,-0.7220659846248643,-1.1080654847325488,-1.088567411733239,-0.0005775343995582074,-0.004758255298903236,-0.19256035921422782
4558,13.0,300.10362000000003,9476.1263,0.0,-0.022789861614296414,-0.022789575973173326,0.0,0.0,0.0,-0.7114508016747273,-1.104438353349579,-1.064616611169479,0.006524078266876394,0.0033295315199491768,-0.1959716379283948
4559,13.0,300.0694,9406.0213,0.0,-0.022794876103034767,-0.022794578183360503,0.0,0.0,0.0,-0.6937618056689593,-1.0968436385500389,-1.068590172761639,0.004006074457393766,0.004749535471192655,-0.1967397929617058
4560,13.0,300.16033,9528.2925,0.0,-0.02279989059177323,-0.02279958039354746,0.0,0.0,0.0,-0.7133724507543794,-1.103543552186269,-1.079447046258129,-0.0029563425915182973,-0.007059284467747133,-0.1913814731203808
4561,13.0,300.28123999999997,9535.4171,0.0,-0.02280487209045412,-0.022804582603734636,0.0,0.0,0.0,-0.7103531681063994,-1.107698181571299,-1.0804773189598091,-0.0036464697677535463,-0.00030592190900714176,-0.19182700932185182
4562,13.0,300.11419,9476.3657,0.0,-0.022809886579192473,-0.022809584813921813,0.0,0.0,0.0,-0.7021446162637783,-1.106276895656029,-1.072157015763659,0.003892619729121656,0.0028343171859503274,-0.18690978764655983
4563,13.0,300.10741,9530.8502,0.0,-0.022814868077873585,-0.022814587024108768,0.0,0.0,0.0,-0.7127973907926253,-1.1101813535913687,-1.0741617310865093,0.0003929770949338196,0.0032995239155876564,-0.18771404478093381
4564,13.0,300.15257,9607.2313,0.0,-0.022819882566611827,-0.022819589234295945,0.0,0.0,0.0,-0.7224837983035993,-1.117497221963389,-1.0803773111749388,0.0030881944965560674,-0.01049280969580969,-0.1897591178552668
4565,13.0,300.06545,9599.1284,0.0,-0.022824864065292716,-0.022824558535205486,0.0,0.0,0.0,-0.7230157748711014,-1.1169919141385187,-1.077887654354229,-0.0015478546329613584,-0.0012908283436948386,-0.1913729516870398
4566,13.0,299.98387,9596.3124,0.0,-0.02282987855403118,-0.02282956074539244,0.0,0.0,0.0,-0.7213143455681833,-1.1187318672102389,-1.076993157165949,0.007052352114537964,0.006007243607543785,-0.1931709842544918
4567,13.0,299.86859,9533.9116,0.0,-0.022834893042769533,-0.022834562955579618,0.0,0.0,0.0,-0.7067844911216983,-1.108645367764779,-1.082641215873369,0.006882887352538093,0.0039890443576630265,-0.1926174558573628
4568,13.0,299.78475,9450.1622,0.0,-0.022839874541450422,-0.022839565165766684,0.0,0.0,0.0,-0.6997151566315093,-1.1039934352306688,-1.0689047869176889,0.004646232293022426,-0.008311266221158112,-0.1976062940497228
4569,13.0,300.05699,9504.5876,0.0,-0.022844889030188886,-0.02284456737595364,0.0,0.0,0.0,-0.7051655302444192,-1.1085806210833888,-1.075411068459809,-0.0003933750185130917,-0.006183383458552434,-0.2003295759459898
4570,13.0,300.08864,9503.2665,0.0,-0.022849870528869776,-0.022849569586140817,0.0,0.0,0.0,-0.7103090005345403,-1.0987547295636488,-1.079692050132309,0.004934173349464995,-0.001025995570357879,-0.1953359045506528
4571,13.0,300.21367999999995,9416.5933,0.0,-0.02285488501760813,-0.02285457179632777,0.0,0.0,0.0,-0.6922782454025433,-1.1089015173900592,-1.061229518735199,-0.0014877138825509285,-0.0008413994582546612,-0.2050716674739978
4572,13.0,300.31233,9467.1889,0.0,-0.022859866516289018,-0.02285957400651495,0.0,0.0,0.0,-0.7046006838436734,-1.1048683766920189,-1.068319938959969,-0.0024934321905825977,-0.006352651852682924,-0.1950706762044768
4573,13.0,300.17404,9610.2522,0.0,-0.022864881005027482,-0.022864576216701904,0.0,0.0,0.0,-0.7187396871965843,-1.1212640805351488,-1.081272922938329,-0.005319327241701725,-0.0012020891158369589,-0.1958665030980188
4574,13.0,300.09986000000004,9612.6807,0.0,-0.02286986250370837,-0.02286957842688908,0.0,0.0,0.0,-0.7229289393375313,-1.1199444236049092,-1.079141551352979,0.003101519748621167,0.007008567449891754,-0.19032982084159084
4575,13.0,300.147,9561.4831,0.0,-0.022874876992446724,-0.02287458063707626,0.0,0.0,0.0,-0.7101275071766283,-1.1126555076855489,-1.083669056774809,-0.0044720331199303055,0.003166289025488397,-0.19067958464360982
4576,13.0,299.97167,9582.9559,0.0,-0.02287989148118519,-0.022879582847263213,0.0,0.0,0.0,-0.7120695023182884,-1.1170997239491591,-1.083809999863719,-0.0010275979240660191,-0.005010403498213326,-0.18609010884566382
4577,13.0,299.96335,9607.4015,0.0,-0.022884872979866078,-0.02288458505745039,0.0,0.0,0.0,-0.7183299085911423,-1.116421555657229,-1.085658674671169,-0.0008487047685606391,0.001043732817333409,-0.19174586825384382
4578,13.0,299.9402,9573.2826,0.0,-0.02288988746860443,-0.022889587267637457,0.0,0.0,0.0,-0.7160090187070883,-1.105506116304959,-1.088523740653929,0.008659552299231271,0.01016363817557299,-0.1915482743518428
4579,13.0,300.0079,9543.515,0.0,-0.02289486896728543,-0.022894556568546887,0.0,0.0,0.0,-0.7116376348606663,-1.1123897321843188,-1.076962860987959,0.0024527530361678775,0.0056969418439193845,-0.19658194886112781
4580,13.0,300.29073999999997,9502.3778,0.0,-0.022899883456023784,-0.022899558778734064,0.0,0.0,0.0,-0.7060372495704513,-1.103845298066049,-1.0786031102498388,-2.793534072075347e-05,-0.003304878638391127,-0.19083332508128284
4581,13.0,300.16174,9482.9924,0.0,-0.022904864954704673,-0.02290456098892113,0.0,0.0,0.0,-0.7029825538314763,-1.107879249364169,-1.071731146746629,-7.852392000670753e-05,-0.003029597432672987,-0.1968267602177888
4582,13.0,299.94572,9620.7649,0.0,-0.022909879443443137,-0.022909563199108307,0.0,0.0,0.0,-0.7177043178469014,-1.122697424126609,-1.0840706077894389,0.0017734213304730585,0.0026721930156249174,-0.19636068543679083
4583,13.0,299.93942999999996,9662.7804,0.0,-0.022914860942124027,-0.022914565409295484,0.0,0.0,0.0,-0.7267644658685682,-1.119826886593309,-1.0906526804390388,-0.006651328395260003,-0.0013650962322995087,-0.1909051645133728
4584,13.0,299.90808,9564.4524,0.0,-0.02291987543086238,-0.02291956761948244,0.0,0.0,0.0,-0.7117935335210523,-1.124628780142219,-1.070932401692799,-0.00866058378783307,-0.005146546517424595,-0.1966113027165248
4585,13.0,299.89649,9548.2985,0.0,-0.022924889919600844,-0.022924569829669617,0.0,0.0,0.0,-0.7119450650735073,-1.1153238004988888,-1.0751754878115591,-0.0024024727291055976,0.006248314652785645,-0.19343506762805482
4586,13.0,299.84053,9628.8753,0.0,-0.022929871418281733,-0.02292957203985657,0.0,0.0,0.0,-0.7235551177668303,-1.119460191382119,-1.0839223692998092,0.0012649967482954588,0.012220669627586188,-0.18703183362110481
4587,13.0,299.93456000000003,9584.2059,0.0,-0.022934885907020086,-0.022934574250043527,0.0,0.0,0.0,-0.7092385625988963,-1.118798539066819,-1.085322174312959,0.001811968404027358,0.0027421269295768574,-0.19494744472731482
4588,13.0,300.0349,9514.1589,0.0,-0.022939867405700975,-0.022939576460230704,0.0,0.0,0.0,-0.6983606135003263,-1.1093256638819189,-1.084380459670019,-0.005843234994682395,-0.008871642669087961,-0.19197618000157382
4589,13.0,300.35612000000003,9536.9057,0.0,-0.02294488189443944,-0.02294457867041777,0.0,0.0,0.0,-0.7046938319253663,-1.116042802769849,-1.078244521039449,0.004871537369358305,-0.004777303894158185,-0.2010982274718498
4590,13.0,300.18712999999997,9573.3144,0.0,-0.02294986339312033,-0.022949580880604836,0.0,0.0,0.0,-0.7125237018081143,-1.1163388744490688,-1.081185986079749,0.005066595916959086,0.0008454319707376393,-0.1994369127403908
4591,13.0,300.07399,9580.5602,0.0,-0.022954877881858682,-0.022954583090791902,0.0,0.0,0.0,-0.7206068436858584,-1.113244408643669,-1.078399852279779,0.0040346323035122065,-0.008163136554588852,-0.2033900674755368
4592,13.0,299.9781,9644.824,0.0,-0.022959892370597146,-0.02295958530097908,0.0,0.0,0.0,-0.7240402619147103,-1.126830065984469,-1.0809153469780388,-0.002916535946764687,-0.005350361471064565,-0.1963539270586238
4593,13.0,299.92629,9614.103000000001,0.0,-0.022964873869278035,-0.02296455460188862,0.0,0.0,0.0,-0.7174203241088732,-1.116542335069149,-1.088484629200069,-0.00027788891630800073,0.0028810483818873375,-0.1976405317706018
4594,13.0,299.86572,9548.1709,0.0,-0.022969888358016277,-0.022969556812075576,0.0,0.0,0.0,-0.7065996641709573,-1.1200784765931389,-1.075727405141029,0.001951258983349268,0.008764096100823942,-0.19636138457935984
4595,13.0,299.98227,9633.4627,0.0,-0.02297486985669739,-0.022974559022262753,0.0,0.0,0.0,-0.7214951499160273,-1.1205266371123688,-1.086310295810479,-0.0030715908737924172,-0.0045797325876344155,-0.19102865943556083
4596,13.0,299.9417,9656.5396,0.0,-0.022979884345435853,-0.02297956123244993,0.0,0.0,0.0,-0.7290328389999393,-1.116460059161029,-1.089853935385209,-0.0036406683029809868,-0.0025616807656432075,-0.19094473192977782
4597,13.0,299.99384,9554.1663,0.0,-0.02298486584411663,-0.022984563442636885,0.0,0.0,0.0,-0.7147790648082013,-1.116660682680829,-1.0727881692509489,0.0015059187444476083,0.003063448497313827,-0.19498839016385583
4598,13.0,300.14878,9559.7116,0.0,-0.022989880332855095,-0.022989565652824062,0.0,0.0,0.0,-0.7096139109659404,-1.113625897306319,-1.082673842526589,0.002272405360143948,0.01025627963221599,-0.1978921015054298
4599,13.0,300.27487,9636.5719,0.0,-0.022994861831535984,-0.022994567863011017,0.0,0.0,0.0,-0.7167693109196234,-1.1181918049069388,-1.094316187500599,0.0014147412315490887,-0.001023146716376719,-0.19230640834166482
4600,13.0,300.05621,9619.7691,0.0,-0.022999876320274337,-0.022999570073198194,0.0,0.0,0.0,-0.7073189501519453,-1.125595015437579,-1.0912555642485389,-0.00036939558350150564,-0.003799535076884916,-0.1980134989999108
4601,13.0,300.26759,9606.6211,0.0,-0.0230048908090128,-0.02300457228338515,0.0,0.0,0.0,-0.7127205256400393,-1.117567845495359,-1.089884535538229,0.0035462002603827165,-0.001163229555951819,-0.19440050245583582
4602,13.0,300.03341,9590.998,0.0,-0.02300987230769369,-0.023009574493572216,0.0,0.0,0.0,-0.7135123299306844,-1.122226668130149,-1.079684957381609,0.005710948506676734,-0.002258599320906398,-0.20078927738385882
4603,13.0,300.01956,9594.6437,0.0,-0.023014886796431933,-0.023014576703759393,0.0,0.0,0.0,-0.7223300173359224,-1.1177262164859887,-1.076475892989899,0.0007544989550882493,-0.00890918794226839,-0.19485291862548582
4604,13.0,300.04261,9637.7435,0.0,-0.023019868295112822,-0.023019578913946348,0.0,0.0,0.0,-0.7208989738221894,-1.1233134801874092,-1.085420966197709,-0.003353972530911317,-0.005588906787782155,-0.20006229070211082
4605,13.0,299.97787,9665.2826,0.0,-0.023024882783851397,-0.023024581124133525,0.0,0.0,0.0,-0.7201502123957924,-1.130036293275899,-1.0878180119592789,-0.0025615582637061175,0.0027540803423315675,-0.1911310382256648
4606,13.0,299.89332,9628.8399,0.0,-0.023029864282532286,-0.023029583334320702,0.0,0.0,0.0,-0.7101533349216773,-1.1227822331599788,-1.093991339518539,-0.005249474083782755,0.01081946227629779,-0.1942100418345388
4607,13.0,300.09215,9628.7657,0.0,-0.02303487877127053,-0.023034585544507657,0.0,0.0,0.0,-0.7159932424030313,-1.123415311822459,-1.087495798427479,-0.005170988035011785,-0.0012912399258854588,-0.18750568003036983
4608,13.0,299.86575,9665.2424,0.0,-0.02303986026995164,-0.0230395548454172,0.0,0.0,0.0,-0.7234551201144613,-1.122172661899819,-1.0923645664829889,0.001003428687045701,0.003079495136497507,-0.1904791637738298
4609,13.0,300.00046000000003,9688.7592,0.0,-0.023044874758690104,-0.023044557055604376,0.0,0.0,0.0,-0.7314184350353794,-1.118313901543989,-1.095408471108399,0.004434772671352985,0.0026071831931839475,-0.19162941541985082
4610,13.0,300.18003,9603.6934,0.0,-0.023049889247428457,-0.02304955926579133,0.0,0.0,0.0,-0.7119207774686104,-1.124777829231929,-1.082584372542759,0.008727800772966872,0.0036843538717674165,-0.2026498882774868
4611,13.0,300.1639,9588.171,0.0,-0.023054870746109346,-0.023054561475978508,0.0,0.0,0.0,-0.7105835203841334,-1.116448508109889,-1.087532478081099,-0.001288270900442439,-0.005346503217333785,-0.1977333657447638
4612,13.0,300.13653,9648.8802,0.0,-0.02305988523484781,-0.023059563686165463,0.0,0.0,0.0,-0.7178924378604673,-1.121715787429729,-1.093410443236209,0.001060391155602459,-0.003324911099493177,-0.1951427790815928
4613,13.0,300.17875,9651.3004,0.0,-0.02306486673352859,-0.02306456589635264,0.0,0.0,0.0,-0.7180567566291843,-1.125969613999549,-1.089727887072769,0.0037329079046343264,0.0025223635206878974,-0.1922941581479558
4614,13.0,299.94899,9643.2034,0.0,-0.023069881222267052,-0.023069568106539817,0.0,0.0,0.0,-0.7224612230913713,-1.1213905341476291,-1.087441285572099,0.003198789731720967,0.000957755759910634,-0.18842365422346682
4615,13.0,299.97738,9669.2574,0.0,-0.023074862720947942,-0.023074570316726772,0.0,0.0,0.0,-0.7254615376974793,-1.131178631438639,-1.082572618841599,0.00039703423952672863,-0.005766576545116795,-0.1963133767896218
4616,13.0,299.84944,9658.3447,0.0,-0.023079877209686184,-0.02307957252691395,0.0,0.0,0.0,-0.7192886255707603,-1.1272796450538387,-1.089327349308239,-0.0056558373271126845,-0.001141246588407269,-0.1971826643154138
4617,13.0,299.81005,9662.2218,0.0,-0.02308489169842476,-0.023084574737101016,0.0,0.0,0.0,-0.7185709709224334,-1.128476698721979,-1.090026390552229,-0.0013356816832215187,0.009963627976058521,-0.2036510604362948
4618,13.0,300.08267,9699.0026,0.0,-0.023089873197105648,-0.02308957694728797,0.0,0.0,0.0,-0.7199612007221383,-1.134991390239929,-1.093302025475509,-0.005869369754511694,0.005836563452048964,-0.1966023759831438
4619,13.0,300.12834,9629.4043,0.0,-0.02309488768584389,-0.023094579157475148,0.0,0.0,0.0,-0.7155472603715164,-1.120227019057799,-1.091324161280309,-0.0028986843038528672,0.0012801273080637287,-0.1986140624666818
4620,13.0,299.9711,9575.2097,0.0,-0.02309986918452478,-0.023099581367662103,0.0,0.0,0.0,-0.7071082042636463,-1.1219898715817789,-1.081526539438359,-0.0018593480800283683,-0.0013078684746015688,-0.1950888944412748
4621,13.0,300.09972,9679.1858,0.0,-0.023104883673263243,-0.02310458357784928,0.0,0.0,0.0,-0.7211632395807703,-1.1249117808951488,-1.096155743057149,0.006521825710579084,0.0015106793987174486,-0.19977285581104579
4622,13.0,300.09182999999996,9734.2042,0.0,-0.023109865171944355,-0.02310955287875882,0.0,0.0,0.0,-0.7235570328095192,-1.131670564362189,-1.1037274570794189,0.004765328291226285,-0.005195638079469555,-0.2001023343460628
4623,13.0,300.0605,9678.3764,0.0,-0.023114879660682708,-0.023114555088945776,0.0,0.0,0.0,-0.7200228063282184,-1.1341408681059888,-1.087821051709579,0.0028050201738839373,-0.009788702910594761,-0.20129722979148978
4624,13.0,299.92874,9653.3285,0.0,-0.023119861159363597,-0.023119557299132953,0.0,0.0,0.0,-0.7193520752920223,-1.123702264250779,-1.091316460579549,-0.003241952767430827,-0.002574953632678138,-0.1934597909304948
4625,13.0,299.83448,9648.4517,0.0,-0.02312487564810206,-0.02312455950931991,0.0,0.0,0.0,-0.7251989235365613,-1.121435623777079,-1.0862538577799092,0.0027526662504920073,0.005660114255784785,-0.19034403674049383
4626,13.0,299.84532,9682.9923,0.0,-0.023129890136840414,-0.023129561719507086,0.0,0.0,0.0,-0.7255137504751322,-1.1277552646507791,-1.090118900286359,-0.0018470495542895983,0.0049535485152271755,-0.19329265532649983
4627,13.0,300.05602000000005,9714.8802,0.0,-0.023134871635521304,-0.023134563929694263,0.0,0.0,0.0,-0.7297453564702593,-1.1254611650993689,-1.097874519201779,-0.0012906998635821587,-0.0024828485906380777,-0.19264462109254382
4628,13.0,300.03073,9699.0564,0.0,-0.023139886124259768,-0.023139566139881218,0.0,0.0,0.0,-0.7214014952092843,-1.132799730273629,-1.094069663751269,-0.002124777961649258,-0.0015200574336929884,-0.2028564393103718
4629,13.0,299.92643,9659.1778,0.0,-0.023144867622940435,-0.023144568350068395,0.0,0.0,0.0,-0.7179484807234984,-1.1257486241527388,-1.092451807316599,0.00017299734701600882,0.0064611014294360634,-0.19820515525632582
4630,13.0,299.96282,9689.9546,0.0,-0.02314988211167901,-0.02314957056025546,0.0,0.0,0.0,-0.7176489437289363,-1.1280446488793388,-1.099810637492859,-0.0035867526572099266,0.007603815507963164,-0.2021926490373608
4631,13.0,300.04882000000003,9721.6954,0.0,-0.0231548636103599,-0.02315457277044264,0.0,0.0,0.0,-0.7270707105787922,-1.131568631402129,-1.0965133190174388,-0.004413605876763985,0.0015527894649233886,-0.19814783569816882
4632,13.0,300.00302999999997,9651.0677,0.0,-0.02315987809909814,-0.023159574980629594,0.0,0.0,0.0,-0.7158294910543703,-1.1223350858908487,-1.095519016694309,-5.181687449442735e-05,0.001079635308126709,-0.1959580401120528
4633,13.0,300.12412,9621.6736,0.0,-0.02316485959777903,-0.02316457719081655,0.0,0.0,0.0,-0.7065884373598493,-1.132084375703029,-1.086075728412329,0.007946395062798131,-0.0004118392825678726,-0.1999959734830658
4634,13.0,300.14542,9678.3658,0.0,-0.023169874086517495,-0.023169579401003726,0.0,0.0,0.0,-0.7171493405021294,-1.130645357911009,-1.094186795462829,0.005504086811311074,-0.008309828824566252,-0.19906310451349882
4635,13.0,300.05357999999995,9743.97,0.0,-0.023174888575255848,-0.02317458161119068,0.0,0.0,0.0,-0.7256440443054913,-1.137361280898819,-1.0989182681297889,-0.0003760411261373697,-0.016723825636263085,-0.1983079798764738
4636,13.0,300.23242,9737.6318,0.0,-0.02317987007393696,-0.023179550912100444,0.0,0.0,0.0,-0.7302233470724333,-1.1367146246849988,-1.093058946776519,-0.0013981757069891987,-0.008176138174572013,-0.2009689975540958
4637,13.0,300.01973,9722.8255,0.0,-0.0231848845626752,-0.0231845531222874,0.0,0.0,0.0,-0.7316690624476143,-1.124021944657329,-1.099805165942319,-0.0018209712324908681,0.006609355725767624,-0.1948977650749118
4638,13.0,300.00539,9725.8586,0.0,-0.023189866061356312,-0.023189555332474354,0.0,0.0,0.0,-0.7275879544898403,-1.132148514434359,-1.096681721184059,0.002562651864539047,0.01086561987135319,-0.19581011572995383
4639,13.0,299.88745,9739.135,0.0,-0.023194880550094665,-0.02319455754266153,0.0,0.0,0.0,-0.7243670958669663,-1.132688070112609,-1.103398657421969,-0.004706520775297436,0.003111487393829897,-0.19572106117866483
4640,13.0,299.77754,9755.5343,0.0,-0.023199862048775555,-0.02319955975284871,0.0,0.0,0.0,-0.7286519684198502,-1.1329375322872288,-1.103849351066449,-0.0041695179806743865,0.00039765175466767254,-0.19576823810332084
4641,13.0,300.08437000000004,9723.8368,0.0,-0.02320487653751402,-0.023204561963035664,0.0,0.0,0.0,-0.7228245441797283,-1.1344905407154988,-1.0984884474373688,0.0016983909711681385,0.006177534168375154,-0.1965339410713898
4642,13.0,300.2385,9643.0158,0.0,-0.02320989102625226,-0.02320956417322284,0.0,0.0,0.0,-0.7164741309004914,-1.123858304766179,-1.090903561163799,0.0008632854172346373,0.0015438596917920885,-0.1986177912270498
4643,13.0,300.0115,9669.7965,0.0,-0.02321487252493315,-0.023214566383409907,0.0,0.0,0.0,-0.7222221264652743,-1.125911656093829,-1.0912428986222888,-0.001060646595952669,-0.0037457204521488263,-0.19557910483965482
4644,13.0,300.00315,9808.5795,0.0,-0.023219887013671725,-0.023219568593597084,0.0,0.0,0.0,-0.7300576198860773,-1.145153782117879,-1.1063517748384188,0.0008116617938522822,-0.002270353528691448,-0.19982481527617382
4645,13.0,299.88773,9794.5576,0.0,-0.023224868512352392,-0.02322457080378426,0.0,0.0,0.0,-0.7309865777102582,-1.140205777904549,-1.106108594814419,0.004978117398351935,0.002924379515788787,-0.19703266277060982
4646,13.0,299.93687,9710.9127,0.0,-0.023229883001090856,-0.023229573013971216,0.0,0.0,0.0,-0.7198439474205663,-1.1393801817230689,-1.0926508096362388,0.004918810451448795,-0.0005865985296527674,-0.2030382366433138
4647,13.0,300.0226,9704.1654,0.0,-0.023234864499771746,-0.023234575224158394,0.0,0.0,0.0,-0.7252929632783424,-1.1303697538838091,-1.0941612615603091,-0.0014756348267838187,-0.008430279234178781,-0.2017570325543688
4648,13.0,299.98314,9721.3733,0.0,-0.0232398789885101,-0.02323957743434535,0.0,0.0,0.0,-0.7247955486717512,-1.133336347526589,-1.096922874707859,0.00046944371599048755,-0.0048847849051407355,-0.2012963685289048
4649,13.0,299.77279,9715.9427,0.0,-0.02324486048719121,-0.023244579644532304,0.0,0.0,0.0,-0.7287499091745163,-1.1333388806518387,-1.0913151433544188,-0.002449312444128318,0.00853781627789186,-0.2048892317934928
4650,13.0,299.84734,9713.609,0.0,-0.023249874975929452,-0.02324958185471948,0.0,0.0,0.0,-0.7189979038520683,-1.132277703822109,-1.101418969376589,0.0029757457229832368,0.0032458948169448772,-0.19692707197768883
4651,13.0,299.84491,9658.8052,0.0,-0.023254889464667805,-0.023254551155629022,0.0,0.0,0.0,-0.7149039478830264,-1.1271157011876591,-1.094015961495969,-0.0038275182075466364,-0.002465703385695978,-0.20200573479141382
4652,13.0,299.89148,9706.5651,0.0,-0.023259870963348916,-0.023259553365815977,0.0,0.0,0.0,-0.7157051146045953,-1.1365844220471488,-1.098263809890199,-0.003418241566204177,-0.0023399949173395175,-0.1985353531989138
4653,13.0,299.78696,9820.6353,0.0,-0.02326488545208716,-0.023264555576003154,0.0,0.0,0.0,-0.7356065422037134,-1.1405317404617188,-1.1090895766086188,0.002169018690165478,-0.0013037863939236987,-0.2030910371060248
4654,13.0,300.02385,9836.8992,0.0,-0.02326986695076827,-0.02326955778619022,0.0,0.0,0.0,-0.7349775165416333,-1.143086143963819,-1.112108048656519,0.0008724545808345632,-0.003233059369978117,-0.19287563198284283
4655,13.0,299.95685,9736.3119,0.0,-0.023274881439506512,-0.023274559996377397,0.0,0.0,0.0,-0.7296099558593963,-1.136157945080059,-1.093827800952399,0.003087954862907417,-0.0035178888366885967,-0.1986630429765158
4656,13.0,300.04666000000003,9739.0943,0.0,-0.0232798629381874,-0.023279562206564353,0.0,0.0,0.0,-0.7190444221641593,-1.1335410240467887,-1.107855944611869,0.0025010024860547277,-0.004426462905957876,-0.19344023520356482
4657,13.0,299.95171,9817.0057,0.0,-0.023284877426925976,-0.02328456441675153,0.0,0.0,0.0,-0.7391848855943682,-1.143938895247979,-1.101000801060319,0.006201309474021594,0.004936277869922695,-0.19653618035411083
4658,13.0,300.08625,9810.641,0.0,-0.023289858925606644,-0.023289566626938707,0.0,0.0,0.0,-0.7320508854827973,-1.1382024811318388,-1.1119365054145889,-0.002049930190012358,-0.0006164884450151724,-0.19250509655377382
4659,13.0,300.05027,9749.5236,0.0,-0.023294873414345107,-0.023294568837125662,0.0,0.0,0.0,-0.7301906596242073,-1.1403814754718888,-1.0930395936996091,-0.0003641800812617756,-0.005341570107896925,-0.19540187726466382
4660,13.0,300.11249,9730.2165,0.0,-0.02329988790308357,-0.02329957104731284,0.0,0.0,0.0,-0.7202145031146373,-1.1335712188997689,-1.1039571608770888,-0.00023099177026961277,-0.003951362599694126,-0.1965571546311808
4661,13.0,300.06964,9769.2456,0.0,-0.02330486940176435,-0.023304573257499794,0.0,0.0,0.0,-0.7288031352022692,-1.1358654197761888,-1.104938189623909,-0.0016870427726981584,0.003854667737351087,-0.1978088528772138
4662,13.0,299.89984,9824.5952,0.0,-0.023309883890502814,-0.02330957546768697,0.0,0.0,0.0,-0.7237110366922183,-1.1511039920051187,-1.1116165210330091,0.0015823682618425884,0.0037287246002714663,-0.2052919581782388
4663,13.0,299.88507000000004,9815.1006,0.0,-0.023314865389183703,-0.023314577677873927,0.0,0.0,0.0,-0.7359862576786883,-1.1393840320734487,-1.108175219718379,-0.005908007513949944,-0.0012605345975050788,-0.1984715589726178
4664,13.0,299.86167,9744.9769,0.0,-0.023319879877922056,-0.023319579888060993,0.0,0.0,0.0,-0.7228733321720433,-1.1436072584902488,-1.095749024467009,0.002186544471845138,0.0036318862617142665,-0.20212620009580282
4665,13.0,300.08162000000004,9722.0634,0.0,-0.023324861376603057,-0.023324549188970645,0.0,0.0,0.0,-0.7255595291146504,-1.1382050142570888,-1.0914999601726592,-0.0024698200182022576,0.006185622639948425,-0.2006318993783268
4666,13.0,300.00138,9810.6641,0.0,-0.02332987586534141,-0.023329551399157822,0.0,0.0,0.0,-0.7324946282315913,-1.144653945843549,-1.105048329909779,0.0032727614473214064,0.0026450641561225076,-0.19874452854955782
4667,13.0,300.14774,9847.242,0.0,-0.023334890354079763,-0.023334553609344777,0.0,0.0,0.0,-0.7340078463284343,-1.1502849819492886,-1.109022904752039,-0.002738917865185148,-0.012056281957862389,-0.19855112950297082
4668,13.0,299.97231,9747.5769,0.0,-0.023339871852760763,-0.023339555819531843,0.0,0.0,0.0,-0.7223059019835423,-1.1390940398948288,-1.1016200995214387,0.006436719085654714,-0.006259199897284933,-0.2027588227957378
4669,13.0,299.92486,9728.4005,0.0,-0.023344886341499338,-0.023344558029718798,0.0,0.0,0.0,-0.7224299136632814,-1.1400691917910688,-1.094691697987659,0.0013366976690967888,0.005778159918934984,-0.20231463421689982
4670,13.0,300.14326,9769.5944,0.0,-0.023349867840180227,-0.023349560239905975,0.0,0.0,0.0,-0.7279917853171953,-1.137626144474959,-1.1040948615656792,0.0006868186917437274,0.0037656612141168267,-0.2042831562461778
4671,13.0,300.20401,9808.9754,0.0,-0.02335488232891847,-0.023354562450093153,0.0,0.0,0.0,-0.7330089033198463,-1.1390406416145589,-1.109634097212359,-0.007107575055588043,0.0015606125662954685,-0.1981725995306128
4672,13.0,300.00601,9785.6981,0.0,-0.02335986382759936,-0.023359564660280108,0.0,0.0,0.0,-0.7297091530441864,-1.1378878669757888,-1.1070107927034591,-0.0067768547825734935,0.0020618441873381777,-0.20202261553807982
4673,13.0,299.99152000000004,9788.7786,0.0,-0.023364878316337823,-0.023364566870467285,0.0,0.0,0.0,-0.7256044262265813,-1.139263151336519,-1.1106766302402489,-0.0009245732072882711,0.007188361486061044,-0.1952224509369558
4674,13.0,299.96565,9775.5697,0.0,-0.0233698598150186,-0.02336956908065424,0.0,0.0,0.0,-0.7285664805089134,-1.1415223950844888,-1.101440146303679,-0.005495420685855796,0.003109961135204267,-0.2013085781926098
4675,13.0,299.95347999999996,9839.1521,0.0,-0.023374874303757065,-0.023374571290841417,0.0,0.0,0.0,-0.7395215075425903,-1.145433641795499,-1.1059013851689687,-0.0034470607295234066,-0.0034988562507852266,-0.1955159489609218
4676,13.0,300.00172000000003,9893.7392,0.0,-0.02337988879249553,-0.023379573501028594,0.0,0.0,0.0,-0.7452877112116703,-1.1495811784298289,-1.112580831153179,0.003142466097087257,-0.001871350331437898,-0.19776022700491483
4677,13.0,299.88642999999996,9781.4837,0.0,-0.023384870291176307,-0.02338457571121555,0.0,0.0,0.0,-0.7297676175749563,-1.143766338755949,-1.099792804291099,0.004597634589076206,0.008415716702416571,-0.19533971437102882
4678,13.0,299.97306000000003,9745.0593,0.0,-0.02338988477991477,-0.023389577921402727,0.0,0.0,0.0,-0.7153860016181013,-1.142701818200889,-1.1041669036477888,0.005203935483213446,0.002830441099017787,-0.2026710550720758
4679,13.0,300.20968,9838.2197,0.0,-0.02339486627859566,-0.023394547222312267,0.0,0.0,0.0,-0.7264485851498933,-1.1452404150014288,-1.1188840573752592,-0.004197791610139776,-0.007886471755859163,-0.2004089742238258
4680,13.0,300.11875,9837.0094,0.0,-0.023399880767333903,-0.023399549432499223,0.0,0.0,0.0,-0.7300153572244064,-1.146678216893329,-1.1135117040200488,0.0036599191429558964,-0.004431833840762946,-0.2021409124872548
4681,13.0,300.21193,9784.6144,0.0,-0.023404862266015014,-0.0234045516426864,0.0,0.0,0.0,-0.7264102437661093,-1.141229261830559,-1.1066389299167592,-0.0019511035507839283,-0.001998908994476958,-0.2012828112425668
4682,13.0,299.94841,9785.9689,0.0,-0.023409876754753478,-0.023409553852873466,0.0,0.0,0.0,-0.7240867700943002,-1.1452988795321988,-1.105304580860069,-0.0005677569819232515,-0.0003863567315629406,-0.2025366879763148
4683,13.0,299.90209,9829.6472,0.0,-0.02341485825343448,-0.02341455606306042,0.0,0.0,0.0,-0.7413088199239843,-1.143215536001589,-1.1034429364513387,-0.0075210517199200124,-0.00025310840576735476,-0.1978977554409878
4684,13.0,299.92627000000005,9876.3095,0.0,-0.02341987274217272,-0.023419558273247598,0.0,0.0,0.0,-0.7280673737746554,-1.153158255257859,-1.1209258576517689,-0.0028949222075565773,0.001153963383787319,-0.20132800219702682
4685,13.0,300.18489,9849.8094,0.0,-0.023424887230911184,-0.023424560483434553,0.0,0.0,0.0,-0.7298789636284453,-1.154853929300209,-1.109363255460629,0.0003073089166715287,0.004218765583234746,-0.2016466693534768
4686,13.0,299.9993,9776.9716,0.0,-0.023429868729592074,-0.02342956269362173,0.0,0.0,0.0,-0.7209129364085672,-1.1421296358694188,-1.1089126631411592,0.0015967578318127286,-0.003074087015413767,-0.1979402207526788
4687,13.0,300.04885,9760.9894,0.0,-0.023434883218330427,-0.023434564903808686,0.0,0.0,0.0,-0.7299106682240744,-1.140323517566169,-1.0968628903019388,0.001974221054465448,-0.005796468740291925,-0.2014586000024158
4688,13.0,299.88974,9829.2413,0.0,-0.023439864717011316,-0.023439567113995863,0.0,0.0,0.0,-0.7368775124666482,-1.1431418727193188,-1.107824533858769,0.001927196117324448,-0.004157077802571636,-0.19820764785157183
4689,13.0,300.02525,9904.608,0.0,-0.02344487920574978,-0.02344456932418304,0.0,0.0,0.0,-0.7508749343830863,-1.1450941016869889,-1.114784548795669,-0.0002864249607154427,0.0063629163801709535,-0.1979217492033558
4690,13.0,299.88021000000003,9843.9184,0.0,-0.02344986070443056,-0.023449571534369995,0.0,0.0,0.0,-0.7235526454365863,-1.1495594948776888,-1.119193301305779,0.0016472529478962082,0.0031211424513827774,-0.2030325219127498
4691,13.0,299.9524,9824.7811,0.0,-0.023454875193169022,-0.023454573744557172,0.0,0.0,0.0,-0.7303915972515383,-1.1433946786192688,-1.1127018132151187,-0.001010765539827292,-0.0022776059676072077,-0.19712914444513183
4692,13.0,299.68303,9891.7843,0.0,-0.023459889681907486,-0.02345957595474424,0.0,0.0,0.0,-0.7363092818105682,-1.151729977916899,-1.118816169618559,4.188366256384566e-05,-0.00024434391399236676,-0.19448418678159482
4693,13.0,299.89935,9928.6535,0.0,-0.023464871180588154,-0.023464545255653668,0.0,0.0,0.0,-0.7472757484378744,-1.155439587858009,-1.115347510551229,0.0007866645795127493,-0.002188536825516768,-0.1951621321585028
4694,13.0,299.96759,9879.7276,0.0,-0.02346988566932673,-0.023469547465840845,0.0,0.0,0.0,-0.7384307134124373,-1.152090188327449,-1.112669591861939,0.0015285107766272684,-0.0006170600801915885,-0.2006968892397408
4695,13.0,299.86315,9828.1104,0.0,-0.02347486716800773,-0.02347454967602791,0.0,0.0,0.0,-0.7396490655976793,-1.1475193158013388,-1.1003317520192888,-0.005990905861606374,-0.0030456063789529473,-0.20532866822936183
4696,13.0,300.13812,9843.1356,0.0,-0.023479881656746082,-0.02347955188621509,0.0,0.0,0.0,-0.7262696249172313,-1.1531355584556189,-1.112662195136209,0.0009092492180759111,0.001108032047479249,-0.2082508612527598
4697,13.0,300.2546,9825.0695,0.0,-0.02348486315542697,-0.023484554096402266,0.0,0.0,0.0,-0.7286565280453003,-1.149336579855689,-1.108582748908599,-0.0017846135897526482,0.0026734122594702474,-0.2047835092780588
4698,13.0,299.97598,9829.0808,0.0,-0.023489877644165436,-0.02348955630658922,0.0,0.0,0.0,-0.7235782502666133,-1.1515412094232689,-1.1126756713625388,0.005215218732352015,-0.0025129508325589375,-0.2076997545233698
4699,13.0,299.94817,9823.6531,0.0,-0.023494859142846325,-0.023494558516776176,0.0,0.0,0.0,-0.7280660970795293,-1.145458770397979,-1.112620347907079,0.008177427839299293,-0.006308051521706213,-0.2018051112716138
4700,13.0,300.02359,9801.0662,0.0,-0.023499873631584678,-0.02349956072696313,0.0,0.0,0.0,-0.7303064335806333,-1.1488515370328187,-1.100121401298529,0.0025968747919665877,0.0015229807615564986,-0.20657150053701984
4701,13.0,300.0297,9863.5791,0.0,-0.023504888120323142,-0.02350456293715031,0.0,0.0,0.0,-0.7369720892309822,-1.148596501982649,-1.112713161616239,0.006201122934678184,0.002063099401562058,-0.2039173932250798
4702,13.0,300.34291,9965.9883,0.0,-0.02350986961900403,-0.023509565147337486,0.0,0.0,0.0,-0.7414587910712853,-1.1607620893082988,-1.127190681695059,-0.003895401100646156,0.0006549703767205434,-0.2028883060260168
4703,13.0,300.31991,9905.6299,0.0,-0.023514884107742384,-0.02351456735752444,0.0,0.0,0.0,-0.7384722465340363,-1.152830468850509,-1.1197614306368489,-0.006262617792522254,-0.0005732501349553835,-0.1982037873686908
4704,13.0,300.20167999999995,9848.8168,0.0,-0.023519865606423274,-0.023519569567711618,0.0,0.0,0.0,-0.7345994121343173,-1.145710056422779,-1.1134849542174092,-0.004789154158052715,0.0019138707639343381,-0.1954752669694068
4705,13.0,300.06687999999997,9904.4942,0.0,-0.023524880095161738,-0.023524571777898684,0.0,0.0,0.0,-0.7413098331740843,-1.1509079281107688,-1.1185011501624689,-0.0016181509864740685,0.003111784580084227,-0.18894004700443082
4706,13.0,299.85209,9908.4873,0.0,-0.023529861593842405,-0.02352957398808586,0.0,0.0,0.0,-0.7443649747431034,-1.1512549662700189,-1.1163127325964888,-0.0007344193778565494,-0.002247696344530358,-0.20004719327562082
4707,13.0,299.96452999999997,9920.2565,0.0,-0.02353487608258098,-0.02353457619827304,0.0,0.0,0.0,-0.7396180196146153,-1.155041076593679,-1.120851181119399,0.00047480121509923157,-0.004946348765316615,-0.20029491266006882
4708,13.0,300.12681000000003,9908.189,0.0,-0.02353985758126198,-0.023539545499182357,0.0,0.0,0.0,-0.7349239460088463,-1.153840679200209,-1.123077392914109,0.0036404584588852766,0.0016042503096771784,-0.2044139263040838
4709,13.0,299.85676,9845.2997,0.0,-0.023544872070000333,-0.023544547709369534,0.0,0.0,0.0,-0.7324124131184773,-1.1479985830986388,-1.1123142450518688,0.0039175154867286755,7.359092000085832e-05,-0.2001443234302068
4710,13.0,299.91515,9823.6005,0.0,-0.023549886558738575,-0.02354954991955671,0.0,0.0,0.0,-0.7246492454898124,-1.143852262364429,-1.117627829901279,-0.0005782566036994835,0.0015172432328652485,-0.20202758046356983
4711,13.0,300.12574,9924.9101,0.0,-0.023554868057419687,-0.023554552129743667,0.0,0.0,0.0,-0.7408152252702703,-1.1582909749644188,-1.117818624895109,-0.0016252761611772683,-0.0019632277975054984,-0.2000441332603188
4712,13.0,300.16146000000003,9932.7083,0.0,-0.02355988254615804,-0.023559554339930844,0.0,0.0,0.0,-0.7408285292440833,-1.156348473197709,-1.122118351694459,-0.002240798745799618,0.005949524524872354,-0.2043156815743878
4713,13.0,300.27709,9855.5727,0.0,-0.02356486404483893,-0.0235645565501178,0.0,0.0,0.0,-0.7320945565621073,-1.153684334709779,-1.1100690854802888,-0.003516047659931887,-0.0004142261147684345,-0.20776134999694879
4714,13.0,300.08527999999995,9860.3784,0.0,-0.023569878533577393,-0.023569558760304754,0.0,0.0,0.0,-0.7244242431726063,-1.1610508655867988,-1.111833761854449,-0.0024223047693378674,-0.004966860797690996,-0.21223148519811683
4715,13.0,299.79764,9902.8747,0.0,-0.023574860032258282,-0.02357456097049193,0.0,0.0,0.0,-0.7393793384210593,-1.154244864665099,-1.1166024208000789,-0.0013525496629362588,-0.005266037784492465,-0.2037214813182448
4716,13.0,299.96682000000004,9900.3808,0.0,-0.023579874520996635,-0.023579563180678997,0.0,0.0,0.0,-0.7311375925051623,-1.162703577824909,-1.115627370228849,0.001083700771502939,0.0003694988235541946,-0.20582473521331981
4717,13.0,299.94176,9849.0056,0.0,-0.0235848890097351,-0.023584565390866175,0.0,0.0,0.0,-0.7364480565442643,-1.1493323242052689,-1.108071361583129,0.0014807654186651687,0.0003204973799731287,-0.1999021667888078
4718,13.0,299.82637,9858.5626,0.0,-0.02358987050841599,-0.02358956760105313,0.0,0.0,0.0,-0.7340877410988192,-1.1498619500325389,-1.1128070899005091,-0.0041051333335451155,-0.0010131243050000842,-0.20201039574187382
4719,13.0,299.75489,9898.3245,0.0,-0.02359488499715423,-0.023594569811240307,0.0,0.0,0.0,-0.7355151267796912,-1.155463804535399,-1.1178645251246389,0.0005690901961398295,-0.002356692367062428,-0.2043479130600688
4720,13.0,299.97997999999995,9963.8823,0.0,-0.02359986649583523,-0.023599572021427484,0.0,0.0,0.0,-0.7422846608302923,-1.153805114121699,-1.132681585311969,-0.0015700192762488384,0.007699757221506873,-0.20065463671057082
4721,13.0,299.89013,10006.167,0.0,-0.023604880984573695,-0.02360457423161444,0.0,0.0,0.0,-0.7524919092901693,-1.1596165087452388,-1.129516597299609,-0.0041391260505499365,0.003191019623329117,-0.19927792366719982
4722,13.0,300.17822,9932.5395,0.0,-0.023609862483254584,-0.02360954353252398,0.0,0.0,0.0,-0.7417624621262553,-1.1534485514115091,-1.124032887758409,-0.0014546745325651987,-0.0023616318599749176,-0.20122561327442182
4723,13.0,300.09132999999997,9881.1912,0.0,-0.023614876971992826,-0.023614545742711157,0.0,0.0,0.0,-0.7431328220914992,-1.1465274452784489,-1.113975164615789,0.0011648199533087788,0.0017879438388563181,-0.1973009207345848
4724,13.0,300.06357,9974.5813,0.0,-0.023619858470673938,-0.023619547952898112,0.0,0.0,0.0,-0.7478008551696983,-1.159624817396059,-1.124597977339179,0.007186183403646082,0.005245081441949235,-0.1994552525672008
4725,13.0,299.91382000000004,9990.952,0.0,-0.02362487295941229,-0.02362455016308529,0.0,0.0,0.0,-0.7470903641995783,-1.161842213914899,-1.128067345681579,-0.0012806154919619088,0.000900674933609695,-0.1973445310188888
4726,13.0,300.07499,9869.8877,0.0,-0.023629887448150533,-0.023629552373272245,0.0,0.0,0.0,-0.7296262185235013,-1.1543443658249188,-1.116228835488209,-0.006220328178398594,0.0017624151039118282,-0.2063553641581888
4727,13.0,299.90193999999997,9860.017,0.0,-0.023634868946831644,-0.02363455458345942,0.0,0.0,0.0,-0.7273897222402763,-1.154492908289579,-1.115316302448149,-0.0016962575730825884,0.0017715149004099084,-0.20300534654506783
4728,13.0,299.9087,9917.5091,0.0,-0.023639883435569997,-0.0236395567936466,0.0,0.0,0.0,-0.7351014471613643,-1.157717070107779,-1.1218566291936292,-5.8298096335074144e-05,0.0036248121548161064,-0.2059690929550668
4729,13.0,299.59392,9940.355,0.0,-0.023644864934250887,-0.023644559003833554,0.0,0.0,0.0,-0.7418809313279473,-1.159590974842719,-1.1201477828999788,-0.001093985969293009,-0.0009904674653440282,-0.2045267415702178
4730,13.0,299.75107,9975.8043,0.0,-0.02364987942298935,-0.02364956121402062,0.0,0.0,0.0,-0.7435993021725373,-1.1662664691515388,-1.122529629910049,-0.0009781494345408332,-0.005949488453168794,-0.21287595279172078
4731,13.0,299.79783,9927.0446,0.0,-0.02365486092167024,-0.023654563424207575,0.0,0.0,0.0,-0.7367024329818693,-1.1557863220422289,-1.1250849453372387,0.005914089851650224,0.0011741997108094889,-0.2069270195996068
4732,13.0,300.01474,9889.4843,0.0,-0.023659875410408482,-0.023659565634394752,0.0,0.0,0.0,-0.7289279878795913,-1.160383944370979,-1.116844283598949,0.01078140662904199,0.004925569032265815,-0.2111335375222578
4733,13.0,299.93363999999997,9952.3687,0.0,-0.02366485690908937,-0.02366456784458193,0.0,0.0,0.0,-0.7340820263682553,-1.1616123074672091,-1.1295771896555888,0.004174779180493626,-0.0019315335370275182,-0.2016746147912348
4734,13.0,299.96815,10014.366,0.0,-0.023669871397827946,-0.023669570054768885,0.0,0.0,0.0,-0.7536754664669773,-1.162535074333279,-1.1279066442157188,-0.004093102103182726,-0.003919370443686746,-0.20063431091356482
4735,13.0,299.9645,9948.9844,0.0,-0.023674885886566188,-0.023674572264956062,0.0,0.0,0.0,-0.7479522448671393,-1.154588052473969,-1.121702513853419,0.0023720654989046377,0.0028042795893858472,-0.1962656020474068
4736,13.0,300.08633,9866.216,0.0,-0.023679867385247078,-0.023679541565865603,0.0,0.0,0.0,-0.7311477047411603,-1.1505213731976187,-1.117414236780199,-0.001991256321771698,0.004890375816542516,-0.2023995344427788
4737,13.0,299.94236,9941.3531,0.0,-0.023684881873985653,-0.023684543776052558,0.0,0.0,0.0,-0.7355209529677663,-1.1641660016942388,-1.1222361926810889,0.0004284979450769546,0.0009586416444730641,-0.1977637429827618
4738,13.0,299.91432000000003,10025.581,0.0,-0.023689863372666542,-0.023689545986239735,0.0,0.0,0.0,-0.7442691922111503,-1.163007958154949,-1.1402491450088288,-0.007555120430682332,-0.0006087985353687373,-0.2035487627061988
4739,13.0,299.94145,10010.298,0.0,-0.023694877861404784,-0.02369454819642669,0.0,0.0,0.0,-0.7447188827380313,-1.164432891770579,-1.133728880615329,-0.0007276241072534083,0.0016441434859893285,-0.1996263601115878
4740,13.0,300.02856,9951.6173,0.0,-0.023699859360085895,-0.023699550406613867,0.0,0.0,0.0,-0.7450315615863903,-1.1571029392221688,-1.122908585447449,0.004051945707970906,0.0014137653703777788,-0.2023983084101578
4741,13.0,299.76482999999996,9953.325,0.0,-0.023704873848824137,-0.023704552616801045,0.0,0.0,0.0,-0.7490242026779332,-1.154051435221009,-1.122486668105809,0.004775990114078526,-0.0015107317837476184,-0.19520499263773283
4742,13.0,299.80232,9994.9054,0.0,-0.023709888337562712,-0.023709554826988,0.0,0.0,0.0,-0.7451605280591183,-1.164918441218499,-1.128122669137039,5.886367632889254e-05,-0.007776684283673983,-0.2074417709154088
4743,13.0,299.90994,10063.845,0.0,-0.0237148698362436,-0.023714557037175177,0.0,0.0,0.0,-0.7542278802889962,-1.1671236787361388,-1.137805895042699,0.0036540468520013464,-0.002801468428308407,-0.19949210447333782
4744,13.0,300.10983,9980.9273,0.0,-0.023719884324981844,-0.023719559247362243,0.0,0.0,0.0,-0.7359674821543354,-1.163232190402079,-1.134752972491399,0.0005806162706648645,0.00025799161263678977,-0.2087402407860578
4745,13.0,300.01714,9866.6754,0.0,-0.023724865823662733,-0.023724561457549198,0.0,0.0,0.0,-0.7233694498185063,-1.1594133521001888,-1.116440098134059,0.005311581755287305,-0.003935033973007616,-0.20657789414515082
4746,13.0,299.91288,9915.7739,0.0,-0.023729880312401308,-0.023729563667736375,0.0,0.0,0.0,-0.7339009687078863,-1.162169088397159,-1.1180776116206688,-0.002287087354092948,-0.0037270095731522066,-0.2105880948609268
4747,13.0,299.85458,10021.591999999999,0.0,-0.023734861811082197,-0.02373456587792333,0.0,0.0,0.0,-0.7530859676912983,-1.1684252998145988,-1.124802451209359,0.0007967984484003841,-0.0005992638519277374,-0.2079248480330848
4748,13.0,300.13045,10007.305,0.0,-0.02373987629982044,-0.023739568088110508,0.0,0.0,0.0,-0.7433936529322412,-1.1732143250872387,-1.1253628798396689,-0.0002578404255893687,0.0013096899943063388,-0.2127847197527168
4749,13.0,300.14007000000004,9892.0738,0.0,-0.02374485779850133,-0.023744570298297463,0.0,0.0,0.0,-0.7307945262863044,-1.1608215670891688,-1.1153273468742388,-0.007802977009193873,0.0017250773443518784,-0.21495355119426376
4750,13.0,300.0232,9907.6155,0.0,-0.023749872287239904,-0.02374957250848464,0.0,0.0,0.0,-0.7262148080868214,-1.1610075998075289,-1.124445280549109,-0.0014965753626254884,-0.001974666681859428,-0.2070906088282518
4751,13.0,299.94864,10007.413,0.0,-0.023754886775978146,-0.02375454180939418,0.0,0.0,0.0,-0.7478879642807953,-1.159600904693699,-1.134514960042909,0.0005169310599471235,0.004384969706412816,-0.2057013112186388
4752,13.0,299.8327,10059.502,0.0,-0.023759868274659035,-0.023759544019581136,0.0,0.0,0.0,-0.7600452733531282,-1.1599802655311389,-1.137811873218289,0.0025195935988895275,0.003977728076571196,-0.19504336911428183
4753,13.0,300.03403,10032.966,0.0,-0.0237648827633975,-0.023764546229768313,0.0,0.0,0.0,-0.7535721656192822,-1.164836367960399,-1.131362637656799,0.004329691137932246,-0.005193950815403035,-0.2033195250035748
4754,13.0,299.96496,9967.3226,0.0,-0.02376986426207839,-0.02376954843995549,0.0,0.0,0.0,-0.7441225141266743,-1.158228254783229,-1.1274663870472688,-0.0001229713758613299,-0.0037002634182125667,-0.2014814285271688
4755,13.0,299.94826,9999.0913,0.0,-0.023774878750816963,-0.023774550650142445,0.0,0.0,0.0,-0.7426434628232033,-1.170190888113849,-1.126639777615689,0.0033293794311091665,0.001056458731964359,-0.2049335310878648
4756,13.0,299.82886,10080.295,0.0,-0.023779860249497853,-0.023779552860329622,0.0,0.0,0.0,-0.7546889090844963,-1.1672676615753488,-1.142201373976499,-0.0009541510314873751,0.0036529909440721365,-0.20046827975217882
4757,13.0,300.06237000000004,10057.841999999999,0.0,-0.023784874738236095,-0.02378455507051669,0.0,0.0,0.0,-0.7543655201825803,-1.168151316987559,-1.134815793997599,-0.007879416900712902,0.003129232442831197,-0.19749263778600581
4758,13.0,299.92215,9936.8091,0.0,-0.023789856236916984,-0.023789557280703866,0.0,0.0,0.0,-0.7402307623475882,-1.164469368774179,-1.115841773950009,-0.004061971919035416,-0.002090480864314398,-0.20142367327146882
4759,13.0,300.15407000000005,9931.9991,0.0,-0.02379487072565556,-0.023794559490891043,0.0,0.0,0.0,-0.7366515678268494,-1.156837771670999,-1.1255904558121288,-0.0036002501617920265,0.005081770654431715,-0.2006866655462318
4760,13.0,300.19948,10072.94,0.0,-0.0237998852143938,-0.023799561701077998,0.0,0.0,0.0,-0.7503602337297893,-1.175068674095249,-1.136493330863159,0.0029203090874870673,0.004708251102493206,-0.20373861537743582
4761,13.0,300.19112,10073.795,0.0,-0.02380486671307469,-0.023804563911264953,0.0,0.0,0.0,-0.7508238868430483,-1.171239399317329,-1.1401188410459688,-0.0014536144703105785,-0.004101417948078436,-0.20874075754360882
4762,13.0,300.32915,9988.4519,0.0,-0.023809881201813154,-0.02380956612145191,0.0,0.0,0.0,-0.7331862018223443,-1.1701594773607489,-1.1328942665079589,0.0006578306095003264,-0.006103638243882194,-0.2124365467533548
4763,13.0,300.30638999999996,9938.139000000001,0.0,-0.023814862700494044,-0.023814568331639085,0.0,0.0,0.0,-0.7339652492942303,-1.1663662742863887,-1.120614587221049,0.006576942159043655,-0.0022451695014309783,-0.20842267807221682
4764,13.0,299.9595,9997.8327,0.0,-0.023819877189232397,-0.023819570541826263,0.0,0.0,0.0,-0.7444573324897182,-1.1654870771746189,-1.129147166313149,0.009429062351901002,0.0018989198534087978,-0.2052228443889178
4765,13.0,300.00212,10081.51,0.0,-0.023824858687913286,-0.02382453984273558,0.0,0.0,0.0,-0.7512567270207663,-1.1801790009745987,-1.133091444977419,0.0015366378530293485,-0.0020171899514561478,-0.21110189372163482
4766,13.0,300.0405,10052.938,0.0,-0.02382987317665175,-0.02382954205292276,0.0,0.0,0.0,-0.7516922320462472,-1.1748839586020188,-1.1292659192248689,-0.002289613082617218,-0.005413415112862475,-0.2079223149078348
4767,13.0,299.91199,9948.4332,0.0,-0.023834887665390103,-0.023834544263109936,0.0,0.0,0.0,-0.7360359981260973,-1.1628209121864888,-1.125218390375409,-0.0035211333648338065,0.0033228203592368375,-0.20807788932818883
4768,13.0,300.08637999999996,9943.4228,0.0,-0.023839869164071215,-0.023839546473297002,0.0,0.0,0.0,-0.7395927187596183,-1.161417763448009,-1.1215418123875591,-0.0039053668206796965,0.002855478812963817,-0.20334008384810381
4769,13.0,300.04307,10098.11,0.0,-0.023844883652809457,-0.023844548683484068,0.0,0.0,0.0,-0.7651258106795383,-1.161561037012149,-1.1428864323691088,-0.0033607942372095674,-0.0003472876619546236,-0.1956416223708248
4770,13.0,299.76787,10169.096,0.0,-0.023849865151490346,-0.023849550893671134,0.0,0.0,0.0,-0.7699485771805082,-1.1755781362455289,-1.1456245381143388,-0.005718758537122525,-0.0016570693148650084,-0.1994705019812058
4771,13.0,299.96137999999996,10072.505,0.0,-0.02385487964022881,-0.02385455310385831,0.0,0.0,0.0,-0.7526424579900273,-1.171788479546519,-1.137359153073609,0.003098323957805767,0.005073609228851245,-0.20024446293758982
4772,13.0,299.85795,9981.4446,0.0,-0.0238598611389097,-0.02385955531404549,0.0,0.0,0.0,-0.7439713372117543,-1.159883398821579,-1.1302551552974989,0.0018780946254285083,0.006129356659245404,-0.20351718983308278
4773,13.0,300.07742,10088.298,0.0,-0.023864875627648052,-0.023864557524232444,0.0,0.0,0.0,-0.7530754096252563,-1.1721873961108888,-1.141327952390299,0.0025285595450493976,-0.0034774626908238467,-0.2059126143944928
4774,13.0,300.17068,10125.642,0.0,-0.02386985712632894,-0.02386955973441962,0.0,0.0,0.0,-0.7551050407680653,-1.177727442357649,-1.1451100097135591,0.001976778599042858,-0.008413461106368961,-0.2115199911103978
4775,13.0,300.23402000000004,10045.562,0.0,-0.023874871615067406,-0.023874561944606576,0.0,0.0,0.0,-0.7504678003604053,-1.1731879805846388,-1.1299442901668189,0.0036549163219121565,0.002257554862703318,-0.2025203341197008
4776,13.0,299.98044,9985.0911,0.0,-0.02387988610380576,-0.02387956415479353,0.0,0.0,0.0,-0.7370608499397423,-1.1698867104338289,-1.128270806301659,0.004437012865999076,0.0015879421506426884,-0.21200640182090277
4777,13.0,300.15049,9998.6353,0.0,-0.023884867602486648,-0.02388456636498071,0.0,0.0,0.0,-0.7413623093967633,-1.1673501401334887,-1.130623066408809,-0.0025243932632882174,-0.0011938296076468087,-0.2020927729750038
4778,13.0,299.92582000000004,10065.917,0.0,-0.023889882091225112,-0.023889568575167774,0.0,0.0,0.0,-0.7435560059957643,-1.1812623679815188,-1.134969098737729,-0.0030973012844798375,-0.0019432570433345383,-0.2142955161818208
4779,13.0,299.87438,10132.568000000001,0.0,-0.023894863589906,-0.023894537876077426,0.0,0.0,0.0,-0.7483894926827923,-1.1836091565381288,-1.148048941628609,-0.0011800622745630788,0.004866771750162975,-0.20682483332702178
4780,13.0,299.7275,10059.747,0.0,-0.023899878078644354,-0.02389954008626438,0.0,0.0,0.0,-0.7446473675459733,-1.1780700222164588,-1.135194546884979,-0.00045551925821375055,0.0009027253566445561,-0.2131367228374568
4781,13.0,299.88192999999995,9995.5966,0.0,-0.023904859577325466,-0.023904542296451448,0.0,0.0,0.0,-0.7363616871057402,-1.1757379257862988,-1.1263121938583591,-0.002088288191097998,-0.004954502186221295,-0.2094280957489438
4782,13.0,299.90495,10051.329,0.0,-0.023909874066063708,-0.023909544506638625,0.0,0.0,0.0,-0.7479163251510943,-1.172954831736629,-1.1344818267646388,0.003711799979876137,-0.0030583143590571273,-0.2115481898606808
4783,13.0,300.1,10112.384,0.0,-0.023914855564744597,-0.02391454671682558,0.0,0.0,0.0,-0.7563377405747232,-1.1771459381252591,-1.140428490276529,0.00044197207397924754,0.005642610866932334,-0.2049528132372678
4784,13.0,299.76369,10030.095,0.0,-0.02391987005348306,-0.023919548927012757,0.0,0.0,0.0,-0.7483694303308123,-1.169802408025509,-1.130726417919009,0.0024326342461573076,0.0035135110896315465,-0.20506323723316583
4785,13.0,300.0985,10016.511,0.0,-0.023924884542221636,-0.023924551137199934,0.0,0.0,0.0,-0.7434072203510803,-1.1656726032679288,-1.1356893169088091,-0.007269862764479593,-0.0009851076965550602,-0.20658750988859978
4786,13.0,299.95622000000003,10067.854,0.0,-0.023929866040902303,-0.02392955334738689,0.0,0.0,0.0,-0.7573964450742092,-1.1712693915202887,-1.1317103850911188,0.0006616193340092444,-0.0046271335418875265,-0.2008162703665228
4787,13.0,299.99327999999997,10132.646,0.0,-0.023934880529640767,-0.023934555557574066,0.0,0.0,0.0,-0.7612104197756193,-1.174410872130329,-1.144450079923429,0.004415773320052896,0.0024883184186529077,-0.1997957451308048
4788,13.0,299.82069,10161.82,0.0,-0.023939862028321657,-0.02393955776776102,0.0,0.0,0.0,-0.7612340589004523,-1.1804484241761888,-1.1472569853504488,0.00894179858613681,-2.7195356066722676e-05,-0.19476002385631783
4789,13.0,300.28019,10089.4,0.0,-0.02394487651706001,-0.0239445599779482,0.0,0.0,0.0,-0.7556820259050093,-1.174726803511509,-1.136516838265479,-0.0018555071528742982,-0.006425913786588314,-0.20051512230430182
4790,13.0,300.17839,10033.283000000001,0.0,-0.0239498580157409,-0.023949562188135376,0.0,0.0,0.0,-0.7419439656166683,-1.172050506022379,-1.1358729178269291,0.00025840835227041874,-0.0026433895576822375,-0.2005040778782118
4791,13.0,300.49532,10070.097,0.0,-0.023954872504479363,-0.02395456439832233,0.0,0.0,0.0,-0.7453192942172873,-1.1760739195194592,-1.139664905001169,0.00039846791749072164,0.007092062601857083,-0.2101431767420168
4792,13.0,300.10323999999997,10141.558,0.0,-0.023959886993217716,-0.023959566608509397,0.0,0.0,0.0,-0.7562787086238972,-1.1821743943965288,-1.144327274011309,-0.0004520871166800246,0.0026550478106828175,-0.2102520605977628
4793,13.0,300.05995,10096.438,0.0,-0.023964868491898605,-0.02396453590941905,0.0,0.0,0.0,-0.7525261875410523,-1.1806779253238386,-1.135861062800759,-0.0049997013480071045,-0.007149822214532513,-0.21262874003232282
4794,13.0,299.82718,9977.4715,0.0,-0.02396988298063707,-0.023969538119606004,0.0,0.0,0.0,-0.7348821393097204,-1.1738531792752886,-1.1241669407466388,-0.002232295246985388,-0.007127370821466733,-0.2174070957814098
4795,13.0,299.87701,10014.726,0.0,-0.02397486447931796,-0.02397454032979307,0.0,0.0,0.0,-0.7442021353195323,-1.170039508548909,-1.1299850228208388,0.0045013134133700455,0.0012888502768496186,-0.2081766508154358
4796,13.0,299.77173999999997,10107.731,0.0,-0.023979878968056312,-0.023979542539980025,0.0,0.0,0.0,-0.7436592865784573,-1.1838509180119887,-1.144987609101479,0.0030644357068862573,-0.003044573978426057,-0.21437894719505482
4797,13.0,299.91126,10121.780999999999,0.0,-0.023984860466737312,-0.023984544750167203,0.0,0.0,0.0,-0.7531271867053663,-1.183056732583609,-1.1405848347669592,-0.00024051835784231378,-0.0037313574293313064,-0.2087471714167418
4798,13.0,300.0866,10091.235999999999,0.0,-0.023989874955475665,-0.02398954696035438,0.0,0.0,0.0,-0.7517600995379453,-1.180050622186929,-1.135673104907209,-0.003284236200728877,0.0005025497378327975,-0.2116610253918168
4799,13.0,300.07642999999996,10058.669,0.0,-0.023994856454156555,-0.023994549170541335,0.0,0.0,0.0,-0.7490199976900183,-1.1770968968204187,-1.131467306392129,0.0032456535620960674,0.0051758951039210755,-0.20667224799446282
4800,13.0,300.28131,10093.369,0.0,-0.02399987094289502,-0.023999551380728512,0.0,0.0,0.0,-0.7533101188784203,-1.177219500082519,-1.137602333097609,-0.0035006986434420566,0.0013735331605821688,-0.2057994039608198
4801,13.0,300.20352,10186.166,0.0,-0.024004885431633483,-0.024004553590915467,0.0,0.0,0.0,-0.7629909839113472,-1.184333427709609,-1.1490155822240091,-0.005288917073075475,-0.003285416738420387,-0.2023143099768678
4802,13.0,299.99527,10190.626,0.0,-0.02400986693031426,-0.024009555801102644,0.0,0.0,0.0,-0.7586889975642742,-1.179767114808949,-1.159239782358059,-0.004302773845050716,-0.0008640740601849701,-0.2066564818229068
4803,13.0,299.90196000000003,10102.868,0.0,-0.024014881419052725,-0.02401455801128982,0.0,0.0,0.0,-0.7573595627705693,-1.169560443901629,-1.1440994953888288,-0.0025208573244142477,0.005829014536153944,-0.2054552636968558
4804,13.0,299.89215,10089.601,0.0,-0.024019862917733614,-0.024019560221476777,0.0,0.0,0.0,-0.7532794275328913,-1.176572945193709,-1.137134616851449,-0.0024938238117462475,0.001069022931879349,-0.20606273752930881
4805,13.0,299.60277,10181.948,0.0,-0.024024877406471967,-0.024024562431663954,0.0,0.0,0.0,-0.7659363094345283,-1.178286047137779,-1.1508355820536291,0.0005869985810572494,-0.0032898645010593468,-0.2065779448076558
4806,13.0,299.9013,10239.294,0.0,-0.024029858905152857,-0.02402956464185102,0.0,0.0,0.0,-0.7732644178677562,-1.1853944018893188,-1.153830749349229,0.0008846865867042682,-0.0001286882038530369,-0.20389023812239981
4807,13.0,299.93352000000004,10119.999,0.0,-0.02403487339389132,-0.024034566852037975,0.0,0.0,0.0,-0.7528761235955883,-1.177439274029209,-1.145911490542659,0.001860512101743248,0.0014587529655427085,-0.20918228127468383
4808,13.0,300.13236,10075.399,0.0,-0.02403985489257221,-0.024039536152947627,0.0,0.0,0.0,-0.7430385087721912,-1.1775317837633388,-1.1420992383664188,-0.0011630980360888387,-0.004065056657639856,-0.2054879815425848
4809,13.0,300.30039,10116.489,0.0,-0.024044869381310452,-0.024044538363134693,0.0,0.0,0.0,-0.7473471116424173,-1.184103419936909,-1.143709596750349,-0.004644432558194806,-0.0005222439355214636,-0.2051319254574448
4810,13.0,300.20769,10177.511,0.0,-0.024049883870049027,-0.02404954057332187,0.0,0.0,0.0,-0.7576055190998433,-1.189583583102759,-1.1465202512027388,-0.0031515335709071473,0.0051707286429861846,-0.20957081202552882
4811,13.0,299.97432000000003,10177.524,0.0,-0.024054865368729916,-0.024054542783508825,0.0,0.0,0.0,-0.7535661570461893,-1.190999093492459,-1.149147811362059,-0.0016854140744874185,0.007807809705545822,-0.2123062934529998
4812,13.0,299.96987,10075.588,0.0,-0.02405987985746838,-0.02405954499369578,0.0,0.0,0.0,-0.7488478667630303,-1.1792983853126888,-1.134581023949429,-0.005267707519332255,-0.0006000803389908185,-0.2101896241266008
4813,13.0,299.97247000000004,10058.122,0.0,-0.02406486135614927,-0.024064547203882958,0.0,0.0,0.0,-0.7364726075941873,-1.1807970835355988,-1.1401482252988688,-0.0007262415781544634,-0.005696987136198854,-0.2114814876065978
4814,13.0,299.9606,10178.28,0.0,-0.024069875844887734,-0.024069549414069913,0.0,0.0,0.0,-0.7545121070745473,-1.1892678543715989,-1.150162986637249,0.001984475956077528,-0.003161576500598307,-0.20861905607409778
4815,13.0,300.02205,10248.401,0.0,-0.024074857343568512,-0.02407455162425709,0.0,0.0,0.0,-0.7685189623494163,-1.191744744241049,-1.154994163114049,0.003273440730188447,1.026851868017389e-05,-0.2051908763482628
4816,13.0,300.02241000000004,10139.08,0.0,-0.024079871832306976,-0.024079553834444267,0.0,0.0,0.0,-0.7580822735368953,-1.1789356417768888,-1.145009191328609,-0.0008977000819786001,-0.0036608692675746666,-0.2029033730550038
4817,13.0,300.15828999999997,10058.053,0.0,-0.02408488632104544,-0.024084556044631222,0.0,0.0,0.0,-0.7485890725549893,-1.175652914102909,-1.1331549757586887,0.0001848106374143898,-0.0027305553094598275,-0.2085644621587098
4818,13.0,300.01523,10180.916,0.0,-0.02408986781972622,-0.0240895582548184,0.0,0.0,0.0,-0.7642762308681913,-1.1817273484524091,-1.148740586146869,0.0065961103178104035,0.002083781963928268,-0.20179349942546781
4819,13.0,299.87428,10270.101,0.0,-0.024094882308464682,-0.024094560465005466,0.0,0.0,0.0,-0.7702374041215132,-1.1913816967302189,-1.160235199256299,0.004601577145215306,0.0004096825290675175,-0.2060879066617928
4820,13.0,299.71615,10205.81,0.0,-0.024099863807145572,-0.024099562675192643,0.0,0.0,0.0,-0.7591799476352272,-1.190517394394919,-1.152614139954159,-0.0005813709596043464,-0.0027131426064913276,-0.20260940893599183
4821,13.0,299.7426,10113.919,0.0,-0.024104878295883814,-0.024104564885379598,0.0,0.0,0.0,-0.7572199774367933,-1.1803604740675089,-1.136798521793279,-0.004033482973923776,-0.0031785485410983174,-0.20571306491979882
4822,13.0,299.83532,10126.524,0.0,-0.024109859794564703,-0.02410953418628914,0.0,0.0,0.0,-0.7515287745401152,-1.1838938798162288,-1.142787843134379,-0.0002439278228388018,0.005351844565235935,-0.2052825856148138
4823,13.0,300.00239,10178.879,0.0,-0.024114874283303278,-0.024114536396476316,0.0,0.0,0.0,-0.7623066347938072,-1.1869589613687288,-1.1448595342888388,-0.0014144893375742289,0.004817319369757405,-0.2121331087459078
4824,13.0,300.17548999999997,10212.252,0.0,-0.024119855781984167,-0.024119538606663493,0.0,0.0,0.0,-0.7598829810846113,-1.187672492089149,-1.1567141551587987,-0.001108261244651869,-0.001280491875449709,-0.2058007414509518
4825,13.0,300.06358,10135.869,0.0,-0.02412487027072263,-0.02412454081685045,0.0,0.0,0.0,-0.7506604901319223,-1.1839582211975788,-1.1464324024190689,-0.002155497374206028,-0.006672321924081903,-0.21587308579251477
4826,13.0,299.99508,10082.284,0.0,-0.024129884759460984,-0.024129543027037403,0.0,0.0,0.0,-0.7438685125916064,-1.1817605830556888,-1.1391335566487288,0.007055492480572893,-0.001873687190143528,-0.2110915889681178
4827,13.0,299.94322999999997,10155.608,0.0,-0.024134866258141985,-0.02413454523722436,0.0,0.0,0.0,-0.7588909889717093,-1.1884799510938386,-1.1396802050776789,0.006873572747018812,-0.0018127044288999983,-0.21454025661097478
4828,13.0,300.04994,10240.043,0.0,-0.024139880746880338,-0.024139547447411536,0.0,0.0,0.0,-0.7600630558923833,-1.195445741556309,-1.1572085198825888,0.0026629815589658177,-0.0043424241453138964,-0.2107922850210788
4829,13.0,299.89569,10203.071,0.0,-0.024144862245561227,-0.024144549657598713,0.0,0.0,0.0,-0.7577366640602863,-1.1948947361519289,-1.148847382707409,-0.0022365257688029077,-0.0003105688056882547,-0.2128234563040398
4830,13.0,299.98814,10120.674,0.0,-0.02414987673429969,-0.02414955186778578,0.0,0.0,0.0,-0.7399924864540722,-1.187765508448329,-1.148674116940309,-0.0021070238947220677,0.0068083097133778536,-0.2104485905871588
4831,13.0,299.9537,10176.783000000001,0.0,-0.02415485823298036,-0.024154554077972845,0.0,0.0,0.0,-0.7534392272061623,-1.191555570447379,-1.148493150472449,-0.0016545749970938385,0.004204388780215866,-0.21283198786988178
4832,13.0,300.25376,10234.261999999999,0.0,-0.024159872721718934,-0.02415955628815991,0.0,0.0,0.0,-0.7638861397121922,-1.1865866932819888,-1.1604873972061889,-0.006152812892435354,0.0004708954804687655,-0.2024638352941248
4833,13.0,300.3136,10215.392,0.0,-0.024164854220399823,-0.02416455849834709,0.0,0.0,0.0,-0.7683299608082632,-1.1885920165548989,-1.1483020515035887,-0.0025141832486555676,-0.0017854192249071585,-0.20605980923651981
4834,13.0,300.23407000000003,10193.225,0.0,-0.024169868709138065,-0.024169560708534266,0.0,0.0,0.0,-0.7599828571469682,-1.179214386879399,-1.159288621012879,0.0021053290312797977,0.004695683356202866,-0.1997099836423408
4835,13.0,299.82204,10146.926,0.0,-0.02417488319787664,-0.02417456291872122,0.0,0.0,0.0,-0.7578127692752973,-1.1807133890773387,-1.145885855315129,0.004285592872380086,0.0016638451209337285,-0.20794353236492882
4836,13.0,299.992,10208.24,0.0,-0.02417986469655753,-0.02417953221963076,0.0,0.0,0.0,-0.7585026000758783,-1.1891862877385488,-1.1553611623002689,0.0017119146176028186,-0.0006034316434315665,-0.2055837134120328
4837,13.0,299.89709,10290.176,0.0,-0.02418487918529577,-0.02418453442981794,0.0,0.0,0.0,-0.7757988502103852,-1.1914571838626689,-1.160700585027229,0.0011922212757630789,-0.002127860977728528,-0.2079618823242398
4838,13.0,299.83536000000004,10279.67,0.0,-0.024189860683976883,-0.024189536640004894,0.0,0.0,0.0,-0.7774282880936982,-1.193795359793429,-1.1535395412704887,-0.0013331584878224986,-0.0016114436761121085,-0.2059123002869618
4839,13.0,299.72246,10168.408000000001,0.0,-0.024194875172715125,-0.02419453885019207,0.0,0.0,0.0,-0.7603496131531643,-1.184465048897599,-1.146127312813959,0.0007655197521859173,-0.0018373710906594083,-0.21296039705505482
4840,13.0,300.29646,10172.13,0.0,-0.024199856671396236,-0.024199541060379026,0.0,0.0,0.0,-0.7536471461266823,-1.185850871059369,-1.152575636450359,-0.004790798561640005,-0.0024787299316315977,-0.2045276028328028
4841,13.0,300.10053999999997,10230.452,0.0,-0.02420487116013459,-0.024204543270566203,0.0,0.0,0.0,-0.7551416190966752,-1.1939768328863387,-1.1606834611005388,0.0035543603687380565,-0.0005139420633446326,-0.2127144305932798
4842,13.0,300.00466,10243.545,0.0,-0.02420988564887283,-0.02420954548075316,0.0,0.0,0.0,-0.7541702567558093,-1.1922136763873288,-1.167397965538209,-0.001153926805458709,0.003885640057132816,-0.2090060568172918
4843,13.0,300.03925,10173.934000000001,0.0,-0.024214867147553942,-0.024214547690940225,0.0,0.0,0.0,-0.7527695803475734,-1.192734689588749,-1.1471176634616989,0.0016018508321153685,0.003465501172068337,-0.2186276872493728
4844,13.0,299.93039,10143.08,0.0,-0.024219881636292295,-0.024219549901127402,0.0,0.0,0.0,-0.7562481591333823,-1.186801907603229,-1.140193112278299,-0.0033288609510329966,-0.0005335398908162875,-0.2083597755060088
4845,13.0,299.71949,10187.377,0.0,-0.024224863134973185,-0.024224552111314357,0.0,0.0,0.0,-0.7612486497018923,-1.190669685884949,-1.144790025331979,-0.0003762373825492387,0.00015765973972230486,-0.21740295158850081
4846,13.0,300.04681,10287.141,0.0,-0.02422987762371165,-0.024229554321501534,0.0,0.0,0.0,-0.7705634477386912,-1.1987596773333689,-1.157710990607179,-0.0008515784978317542,0.0022476697973777375,-0.2123144602488058
4847,13.0,299.75989,10283.271,0.0,-0.024234859122392316,-0.02423455653168871,0.0,0.0,0.0,-0.7653550483821623,-1.1943941906025288,-1.1661084021359387,-0.0019278648623904484,-0.0037159604861117467,-0.21180832155885382
4848,13.0,299.86352,10206.058,0.0,-0.02423987361113078,-0.024239558741875666,0.0,0.0,0.0,-0.7501958642985672,-1.1927772460929489,-1.1594136560752188,-0.004975742542767555,-0.004815047257733166,-0.21152456086834878
4849,13.0,300.11688,10203.528,0.0,-0.02424485510981178,-0.024244560952062844,0.0,0.0,0.0,-0.7641898208996633,-1.1875574882027988,-1.1498702586833591,0.0014467192020550686,-0.000913373794462975,-0.20342892561687181
4850,13.0,300.02737,10281.466,0.0,-0.024249869598550022,-0.0242495631622498,0.0,0.0,0.0,-0.7803959456490833,-1.187282390800649,-1.1576306398742489,0.0029670220449222774,0.004216581927944236,-0.2032342093451548
4851,13.0,300.0848,10292.061,0.0,-0.024254884087288486,-0.02425453246315934,0.0,0.0,0.0,-0.7764834019779453,-1.1930138399912988,-1.1590321674125688,0.0033212190187787965,-0.0016005430302112984,-0.2027044011328668
4852,13.0,300.16934,10202.129,0.0,-0.024259865585969376,-0.024259534673346517,0.0,0.0,0.0,-0.7546786853909873,-1.1857441758238387,-1.160769486034029,-0.00017557597732799983,-0.005136174990726005,-0.20544852558369078
4853,13.0,299.9621,10207.440999999999,0.0,-0.02426488007470773,-0.024264536883533472,0.0,0.0,0.0,-0.7521629880427073,-1.1896365760829888,-1.1610077011325388,0.0012212925357071888,-0.0006349011751698673,-0.2059403977122348
4854,13.0,299.89162000000005,10297.404,0.0,-0.02426986157338884,-0.02426953909372065,0.0,0.0,0.0,-0.7562766821236974,-1.201850394113399,-1.1720266946450288,-0.0019195953230243081,0.00048256163682012555,-0.21215754833831985
4855,13.0,300.06897999999995,10312.601,0.0,-0.024274876062127082,-0.024274541303907826,0.0,0.0,0.0,-0.7812963804829492,-1.1944003714281388,-1.159076649091959,-0.0066190162548710445,0.0013327513639323188,-0.20915915890740183
4856,13.0,300.09684,10253.673,0.0,-0.024279857560808193,-0.02427954351409478,0.0,0.0,0.0,-0.7674969679010533,-1.1975723508661886,-1.1517911782229389,-0.0020208026946876984,0.0007612722077667173,-0.21310851395467278
4857,13.0,299.99127000000004,10207.872,0.0,-0.024284872049546546,-0.024284545724281847,0.0,0.0,0.0,-0.7609095250259234,-1.1933131540708388,-1.148715558869399,0.00013241147240549488,0.0024620214374825975,-0.2094027746289448
4858,13.0,299.84631,10223.085,0.0,-0.024289853548227436,-0.024289547934468803,0.0,0.0,0.0,-0.7564640725971913,-1.195848407146049,-1.1552502114143188,0.005222627617083215,0.0009599309444303082,-0.20826632344928583
4859,13.0,299.91427999999996,10287.867,0.0,-0.0242948680369659,-0.02429455014465598,0.0,0.0,0.0,-0.7599441104631444,-1.2049743454967088,-1.1623362746636592,-0.0030374254989705574,-0.007061702589110783,-0.21096421329804682
4860,13.0,299.94045,10280.436,0.0,-0.024299882525704142,-0.024299552354843157,0.0,0.0,0.0,-0.7571600943558833,-1.1998530755162788,-1.1679826108459088,0.003156562736453487,-0.007341111978386342,-0.20816722758950582
4861,13.0,299.90468,10189.862,0.0,-0.02430486402438503,-0.024304554565030112,0.0,0.0,0.0,-0.7569300359206783,-1.1954171679034886,-1.1451163931891888,-0.0009062031045652831,0.0005781425725332295,-0.21305496368688778
4862,13.0,299.90584,10200.338,0.0,-0.024309878513123606,-0.02430955677521729,0.0,0.0,0.0,-0.7588892259165353,-1.1950943464216288,-1.146664436691969,0.001148063127130009,0.0035329243535974866,-0.2164799922049118
4863,13.0,300.1644,10307.053,0.0,-0.024314860011804273,-0.024314558985404244,0.0,0.0,0.0,-0.7698927065699943,-1.2022660293044187,-1.160928059674679,-0.005715955279395865,-0.0012128926923781888,-0.2140464491747398
4864,13.0,300.25386000000003,10300.469000000001,0.0,-0.024319874500542737,-0.02431956119559142,0.0,0.0,0.0,-0.7609763083400143,-1.2071312509845789,-1.1629776619769592,-0.00047902984213906455,0.001053617578683959,-0.2145281989347848
4865,13.0,299.98124,10248.744,0.0,-0.024324855999223627,-0.024324530496500962,0.0,0.0,0.0,-0.7503115065324802,-1.1967241592074789,-1.168326507929849,0.005772693839945524,0.005065370492288146,-0.2113715803682508
4866,13.0,299.9714,10279.973,0.0,-0.02432987048796198,-0.024329532706687917,0.0,0.0,0.0,-0.7628868420660693,-1.200488383328979,-1.161479977004149,0.006147888294299334,0.00036280490835855666,-0.2085147419763028
4867,13.0,300.04182000000003,10310.931999999999,0.0,-0.024334884976700444,-0.024334534916875095,0.0,0.0,0.0,-0.7814073516339013,-1.196414307326899,-1.1564443266571687,0.0006792031445221313,-0.0024055314271824676,-0.2055804406142098
4868,13.0,299.95574,10314.062,0.0,-0.024339866475381333,-0.024339537127062272,0.0,0.0,0.0,-0.7779396551541662,-1.197783005561979,-1.159494614758209,-0.0014106448640448088,-0.002732742207150657,-0.2062026268381148
4869,13.0,300.08506,10318.926,0.0,-0.024344880964119686,-0.024344539337249227,0.0,0.0,0.0,-0.7746618721406743,-1.2027764033797887,-1.1592576155598189,0.003388142465358627,0.005336010708573255,-0.2060992753279148
4870,13.0,299.94641,10290.662,0.0,-0.024349862462800687,-0.024349541547436404,0.0,0.0,0.0,-0.7612704244465412,-1.198271189460159,-1.168562696528159,-0.000949713462144421,0.0015014649023080485,-0.20878919089838882
4871,13.0,300.09467,10300.661,0.0,-0.02435487695153926,-0.02435454375762347,0.0,0.0,0.0,-0.7628174749642234,-1.2003444004897688,-1.1679819015708388,-0.0017867947119179085,-0.004930129063015855,-0.20579407426529378
4872,13.0,300.45138,10348.054,0.0,-0.02435985845022015,-0.024359545967810647,0.0,0.0,0.0,-0.7725176930740603,-1.204464072746349,-1.168568168078699,-0.001177861799320909,-0.008793158849467212,-0.2144345138305388
4873,13.0,300.33148,10288.676,0.0,-0.024364872938958393,-0.024364548177997603,0.0,0.0,0.0,-0.7738693889724623,-1.1913461316517089,-1.162285105533609,0.0029172149256566976,0.0022005676505791175,-0.20943581671470582
4874,13.0,300.27937000000003,10249.222,0.0,-0.024369854437639282,-0.024369550388184558,0.0,0.0,0.0,-0.7612124665408213,-1.2023529661629988,-1.151942051162829,0.001875733246070458,0.0024751198228503074,-0.22256933146338279
4875,13.0,300.12504,10273.749,0.0,-0.024374868926377857,-0.024374552598371735,0.0,0.0,0.0,-0.7647295792279333,-1.1959316963042688,-1.162301925485269,-0.003224270134635687,0.0017869630127595182,-0.21118197087703777
4876,13.0,300.06647999999996,10310.08,0.0,-0.0243798834151161,-0.02437955480855869,0.0,0.0,0.0,-0.7582347676769453,-1.2069670031433688,-1.168805065952079,-0.006304195294475634,-0.0025984286109949377,-0.2165718129289738
4877,13.0,299.96629,10304.054,0.0,-0.02438486491379699,-0.024384557018745867,0.0,0.0,0.0,-0.7590960403944462,-1.207617915007609,-1.165461239297069,0.0027581732647855074,0.007971387991089743,-0.2092575049621078
4878,13.0,300.02212000000003,10291.780999999999,0.0,-0.024389879402535453,-0.024389559228933044,0.0,0.0,0.0,-0.7670903607684243,-1.201048913284299,-1.1603051135131988,-0.0010854478173253589,-0.0009835526312290872,-0.21335654744665178
4879,13.0,299.96103999999997,10303.568000000001,0.0,-0.02439486090121623,-0.024394528529842363,0.0,0.0,0.0,-0.7726630235359032,-1.2026455927918789,-1.156718917434269,0.0015992068573044283,-0.005898016563988915,-0.2091502220415198
4880,13.0,300.1545,10320.116,0.0,-0.024399875389954695,-0.02439953074002954,0.0,0.0,0.0,-0.7697632132072142,-1.204406013515619,-1.1628882933181388,-0.0015183087666704085,-0.006028126996079814,-0.2131996659336688
4881,13.0,299.85795,10337.677,0.0,-0.024404856888635584,-0.024404532950216717,0.0,0.0,0.0,-0.7710452785587443,-1.202089318486979,-1.169261028497079,0.006960383658611384,0.010298091397592489,-0.20858996566372678
4882,13.0,299.88129,10342.554,0.0,-0.024409871377373937,-0.024409535160403784,0.0,0.0,0.0,-0.7602294518238053,-1.2087290450672687,-1.1749197263305489,0.003940033146350996,0.0042988144689599566,-0.21298989276546582
4883,13.0,299.96675,10318.155999999999,0.0,-0.024414852876054938,-0.02441453737059085,0.0,0.0,0.0,-0.7691811922172732,-1.195438750130619,-1.1718419791517989,-0.0008186533512647953,8.756814176330272e-05,-0.20624838521263078
4884,13.0,299.87531,10252.246,0.0,-0.024419867364793513,-0.024419539580777916,0.0,0.0,0.0,-0.7655807903719413,-1.1913432945514288,-1.1595026194339988,-0.005875507111692405,-0.0006849295578597844,-0.2123259403724388
4885,13.0,300.08816,10320.116,0.0,-0.024424881853531755,-0.024424541790965093,0.0,0.0,0.0,-0.7766580660301833,-1.199581220514449,-1.1608182233638387,-0.0025235770903326675,0.003175285571801287,-0.2061418014346118
4886,13.0,300.07636,10365.264000000001,0.0,-0.024429863352212644,-0.02442954400115227,0.0,0.0,0.0,-0.7751533491016793,-1.2055967850331386,-1.1700314025481091,0.0006649708816300165,0.0018028514836025884,-0.2168842688623108
4887,13.0,300.17746,10353.257,0.0,-0.024434877840951108,-0.024434546211339225,0.0,0.0,0.0,-0.7756128276245262,-1.207539894749909,-1.1639788544007688,-0.0032488484409863767,-0.006987649306877294,-0.2056387126274608
4888,13.0,300.26423,10303.854,0.0,-0.02443985933963211,-0.02443954842152618,0.0,0.0,0.0,-0.7580166453279183,-1.202639006666229,-1.1714585653139589,0.001261103638761239,-0.0027426918165076074,-0.2160468480521638
4889,13.0,300.17053,10315.914,0.0,-0.02444487382837035,-0.024444550631713136,0.0,0.0,0.0,-0.7673262453917042,-1.201747346578229,-1.1667068276449988,-0.0004459785560671566,0.004485031193538116,-0.2018810746316108
4890,13.0,299.92336,10357.134,0.0,-0.02444985532705124,-0.024449552841900313,0.0,0.0,0.0,-0.7722906642566543,-1.2109105725325688,-1.165108932237299,0.0057701949625489045,-0.0002830838090406967,-0.2182585602379428
4891,13.0,299.90079,10350.885,0.0,-0.024454869815789704,-0.02445455505208749,0.0,0.0,0.0,-0.7718603774691882,-1.2035144547526289,-1.1710358373722387,-0.0026812649477452473,-0.005341448112584885,-0.20875586510259983
4892,13.0,299.70033,10299.780999999999,0.0,-0.024459884304528057,-0.024459557262274556,0.0,0.0,0.0,-0.7610370425510083,-1.2100247892951488,-1.159814295164759,0.0013347242632020288,-0.007633052434298623,-0.2233071092586958
4893,13.0,299.78479,10292.988000000001,0.0,-0.024464865803208946,-0.024464526563183986,0.0,0.0,0.0,-0.7581835681493923,-1.2041413525894988,-1.1664863444232387,-0.0004871837494037925,0.003172057762282727,-0.2139927671844418
4894,13.0,299.85177999999996,10336.142,0.0,-0.02446988029194741,-0.024469528773371163,0.0,0.0,0.0,-0.7624492801428853,-1.2119491538850689,-1.167530701301309,0.0013436166474046387,0.005552919285305465,-0.2187399046979478
4895,13.0,299.91862000000003,10368.413,0.0,-0.02447486179062819,-0.02447453098355823,0.0,0.0,0.0,-0.7733480515310103,-1.211493090015059,-1.1668975213138189,-0.002274733302248698,0.003936175703220296,-0.21084246116603078
4896,13.0,300.0525,10354.87,0.0,-0.024479876279366652,-0.024479533193745406,0.0,0.0,0.0,-0.7778663363769303,-1.2043652808615988,-1.165390413115079,0.0004923075018469675,0.005048111600684825,-0.21037027648692977
4897,13.0,300.00478,10331.67,0.0,-0.024484857778047764,-0.02448453540393236,0.0,0.0,0.0,-0.7677045321840383,-1.2089109234602187,-1.1639542324233387,-0.003171290225331977,0.012526775522546487,-0.2141938365342858
4898,13.0,300.01777999999996,10366.524,0.0,-0.024489872266786006,-0.02448953761411954,0.0,0.0,0.0,-0.7705602965308802,-1.208970603891109,-1.171633654931239,0.0016628318708337287,0.0006506138775180903,-0.21051180726089783
4899,13.0,300.03028,10439.471,0.0,-0.024494853765466895,-0.024494539824306716,0.0,0.0,0.0,-0.7764561252852533,-1.2129061686045188,-1.1839761557243489,-0.0036363777967575468,-0.005628403074030135,-0.2105453053092038
4900,13.0,299.92262,10377.051,0.0,-0.02449986825420536,-0.02449954203449367,0.0,0.0,0.0,-0.7695078336520103,-1.2119084212310487,-1.1729481442859688,0.0033184779746082776,-0.003991693905349517,-0.21046568411634578
4901,13.0,299.97881,10311.943000000001,0.0,-0.024504882742943712,-0.024504544244680848,0.0,0.0,0.0,-0.7723418131217022,-1.198578204240459,-1.1636532971436389,0.002777738110966407,0.005086432820791836,-0.20785646378383582
4902,13.0,299.83643,10335.301,0.0,-0.0245098642416246,-0.024509546454867803,0.0,0.0,0.0,-0.7707742138919923,-1.2053240181062188,-1.165575331258329,0.0038300384645203666,0.004333667536624686,-0.2128772396193478
4903,13.0,299.79247999999995,10407.021,0.0,-0.024514878730363066,-0.02451454866505498,0.0,0.0,0.0,-0.7785557416124692,-1.2136946798323387,-1.171224099240819,0.0007595683263985573,0.00016603176933605986,-0.2120579357209888
4904,13.0,299.8068,10414.268,0.0,-0.024519860229043955,-0.024519550875241936,0.0,0.0,0.0,-0.7754711347305422,-1.2100113130688188,-1.180194807676159,0.0018140703913598082,0.0001031590230785029,-0.2150304163468498
4905,13.0,299.7048,10350.37,0.0,-0.024524874717782308,-0.024524553085429,0.0,0.0,0.0,-0.7675989515236182,-1.2089383825379287,-1.169716788392059,0.0006834068354770033,0.0017357625732814283,-0.2081412883869458
4906,13.0,299.87618,10330.916,0.0,-0.024529856216463197,-0.02452955529561618,0.0,0.0,0.0,-0.7622600151567063,-1.2081319367833387,-1.1699484173649188,-0.006136373618837925,-0.0055186295846963345,-0.2152243929459938
4907,13.0,299.96306,10354.675,0.0,-0.02453487070520166,-0.024534557505803134,0.0,0.0,0.0,-0.7786601063727692,-1.2041974866450387,-1.164705253397459,-0.002894354584850557,-0.004120783082664626,-0.2057876502596598
4908,13.0,299.85434,10387.507,0.0,-0.02453985220388244,-0.024539526806712675,0.0,0.0,0.0,-0.7692052163771442,-1.218579761214459,-1.169757723696099,-0.0024825321526318477,0.0013015715305301088,-0.2185103832852958
4909,13.0,300.05228999999997,10386.074,0.0,-0.024544866692620904,-0.024544529016899852,0.0,0.0,0.0,-0.7742235198824122,-1.211982084513319,-1.1709016830589989,0.006099664682290035,0.009253381401862642,-0.2115806138638808
4910,13.0,300.23034,10368.973,0.0,-0.024549881181359368,-0.024549531227086807,0.0,0.0,0.0,-0.7610452802743213,-1.2159770256825886,-1.1748864917272688,0.0019274883386532883,0.0028375410437934973,-0.2149743633513178
4911,13.0,300.05152999999996,10372.38,0.0,-0.024554862680040257,-0.024554533437273984,0.0,0.0,0.0,-0.7661485751979773,-1.2146101512976888,-1.172185774910729,0.003822842058335137,-0.006864112030835113,-0.21301890211582877
4912,13.0,299.95504,10419.573,0.0,-0.02455987716877861,-0.02455953564746116,0.0,0.0,0.0,-0.7748889718855873,-1.2120704399220388,-1.180330583189559,0.0007940022124969173,-0.006399032261435313,-0.2119349271588488
4913,13.0,299.82875,10418.85,0.0,-0.02456485866745961,-0.024564537857648117,0.0,0.0,0.0,-0.7856501641751342,-1.213156846679259,-1.1682633824486188,0.008679055438481081,0.0031142671441542367,-0.2137376916042678
4914,13.0,299.9893,10404.325,0.0,-0.024569873156197963,-0.024569540067835294,0.0,0.0,0.0,-0.7798737064150422,-1.2085387566984886,-1.174242469963709,0.0012782768094060989,-0.0004103439584677956,-0.2078221450029488
4915,13.0,299.91407999999996,10412.96,0.0,-0.024574854654878853,-0.02457454227802225,0.0,0.0,0.0,-0.7797050002733922,-1.2143150928685689,-1.1712597656443389,-0.000984768338831568,0.0006200201890337284,-0.21287853657947578
4916,13.0,299.84639,10381.581,0.0,-0.024579869143617317,-0.024579544488209426,0.0,0.0,0.0,-0.7705675007390913,-1.208502482344909,-1.1766712304534088,0.003922545665525116,0.0013457233970125585,-0.2116800643611958
4917,13.0,299.88931,10411.335,0.0,-0.02458488363235567,-0.024584546698396603,0.0,0.0,0.0,-0.7729767865618693,-1.2108195826735888,-1.180989398404579,0.006005377910134654,0.0037699599276660766,-0.21223628800359082
4918,13.0,300.0682,10420.279,0.0,-0.02458986513103656,-0.02458954890858356,0.0,0.0,0.0,-0.7805497164842592,-1.2114351321093388,-1.175519874364779,-0.0012912892711653288,-0.003126215997283497,-0.2091908027080248
4919,13.0,300.15528,10405.455,0.0,-0.024594879619775023,-0.024594551118770624,0.0,0.0,0.0,-0.7842393552658983,-1.2100217495448489,-1.168737482170409,-0.0023261298056211376,-0.0050165877688736656,-0.2137522418757038
4920,13.0,300.20081,10415.546,0.0,-0.024599861118455912,-0.02459955332895758,0.0,0.0,0.0,-0.7753772773737794,-1.2182313045050688,-1.172457123287509,-0.003383314227307117,0.0014543164499798585,-0.21515554260169878
4921,13.0,300.1134,10418.005,0.0,-0.024604875607194265,-0.024604555539144757,0.0,0.0,0.0,-0.7750648011754403,-1.2169056693992388,-1.1748429219729688,-0.00025249407223172475,0.008480081793818912,-0.2169319422795158
4922,13.0,300.06163,10432.723,0.0,-0.024609857105875155,-0.02460952484005441,0.0,0.0,0.0,-0.7693278703017493,-1.2174252640505188,-1.1845343552044387,-0.0008649701380434061,0.0024456506595919277,-0.2185290068221338
4923,13.0,300.02721,10376.476,0.0,-0.02461487159461362,-0.024614527050241475,0.0,0.0,0.0,-0.7669851144805372,-1.2106162233785187,-1.1765882452702188,0.0012969736042263288,-0.0029077215828197775,-0.21308899875774678
4924,13.0,299.8261,10347.662,0.0,-0.024619853093294508,-0.02461952926042843,0.0,0.0,0.0,-0.7678026350587203,-1.210218421389259,-1.1674097192393689,0.005370076075610245,-0.0022640705674713676,-0.21771249949405078
4925,13.0,299.88795,10371.639000000001,0.0,-0.02462486758203286,-0.024624531470615607,0.0,0.0,0.0,-0.7719569604687202,-1.210736698815409,-1.1700256270225389,0.00945045824233761,-0.002069140905283308,-0.2151195620906478
4926,13.0,300.09362000000004,10451.867,0.0,-0.024629882070771325,-0.024629533680802562,0.0,0.0,0.0,-0.7803522644372722,-1.216919652250619,-1.179834698590619,0.002109259225767678,0.0006550877212146243,-0.2191626731696718
4927,13.0,299.91094,10478.099,0.0,-0.024634863569452214,-0.02463453589098974,0.0,0.0,0.0,-0.7782627299485513,-1.2248072976540687,-1.1820104505303488,-0.0027433562045981776,-0.0016955027017580883,-0.21618096183539978
4928,13.0,300.01456,10451.096,0.0,-0.024639878058190456,-0.024639538101176695,0.0,0.0,0.0,-0.7713131413551803,-1.2177391689314987,-1.187819919978699,-0.006089821261543563,0.007614632256755693,-0.21565387926588078
4929,13.0,300.05557000000005,10429.53,0.0,-0.024644859556871568,-0.02464454031136387,0.0,0.0,0.0,-0.7711159122232153,-1.2156282649981687,-1.183572679534529,-0.004608434011292026,0.00991515956282506,-0.21279542980627378
4930,13.0,300.19841,10450.601,0.0,-0.02464987404560992,-0.02464954252155105,0.0,0.0,0.0,-0.7811894319348942,-1.213351795998499,-1.1821805752221388,-0.0034146404753487773,0.003948478788584516,-0.2053310797645998
4931,13.0,300.35846000000004,10489.774,0.0,-0.02465485554429081,-0.024654544731738004,0.0,0.0,0.0,-0.7853125188443113,-1.219371616167609,-1.1839452515962987,-0.0012281315685821487,-0.004760913560540586,-0.20925152678651782
4932,13.0,300.00046000000003,10443.059000000001,0.0,-0.024659870033029274,-0.02465954694192518,0.0,0.0,0.0,-0.7796498288054472,-1.215063682042449,-1.1797156417038688,0.007761416732492191,-0.001042190245381169,-0.20912373568390583
4933,13.0,300.12119,10401.981,0.0,-0.024664851531710164,-0.024664549152112247,0.0,0.0,0.0,-0.7689931633962163,-1.214788685965309,-1.178160606775399,0.007331305541268524,-0.0014853454104421784,-0.21924409794770777
4934,13.0,300.13214,10414.751,0.0,-0.024669866020448517,-0.024669551362299424,0.0,0.0,0.0,-0.7700947993024393,-1.2163745236968186,-1.1793549246682689,0.005574560584916295,0.0011720510126474288,-0.21479436960355378
4935,13.0,299.82007999999996,10466.393,0.0,-0.02467488050918698,-0.02467455357248638,0.0,0.0,0.0,-0.7821175386289912,-1.217307119088859,-1.182097590038949,0.00045717765478492156,-0.0016152327248610584,-0.2143271397174418
4936,13.0,300.05607000000003,10504.177,0.0,-0.02467986200786787,-0.02467952287339592,0.0,0.0,0.0,-0.7859085226856323,-1.2210329410315688,-1.186066085380609,-0.005135193759329165,0.0034139084021515267,-0.20935053145378882
4937,13.0,300.1191,10477.052,0.0,-0.024684876496606112,-0.024684525083583098,0.0,0.0,0.0,-0.7826678448908022,-1.2244740396961789,-1.1776204431470887,-0.005982863796887684,-0.0017415628221538683,-0.21392146477490478
4938,13.0,299.8683,10448.103000000001,0.0,-0.024689857995287112,-0.024689527293770053,0.0,0.0,0.0,-0.7785609902479872,-1.2194326138236289,-1.1779687985314689,-0.005016773193641965,-0.003031114166747677,-0.2159318441658138
4939,13.0,299.99742000000003,10474.82,0.0,-0.024694872484025576,-0.024694529503957008,0.0,0.0,0.0,-0.7801989596971423,-1.223888685113409,-1.179996210656559,-0.0025176616349238574,-0.004599093973195236,-0.21430270012502978
4940,13.0,299.94755,10458.008,0.0,-0.024699853982706466,-0.024699531714144185,0.0,0.0,0.0,-0.7678392336523323,-1.222810789657029,-1.1883232013033689,0.0017779729512472683,0.003545895069452596,-0.2173883911845638
4941,13.0,299.96597,10415.245,0.0,-0.024704868471444708,-0.02470453392433114,0.0,0.0,0.0,-0.7721024226530763,-1.2176965111022888,-1.1761755485044887,0.003798755178282946,0.0006837262119085233,-0.21319525829573382
4942,13.0,300.24408999999997,10431.612,0.0,-0.024709882960183283,-0.024709536134518317,0.0,0.0,0.0,-0.7689225297317452,-1.2225122861775688,-1.1795146128840288,0.001181802632934839,0.005779204782438104,-0.21666373497804578
4943,13.0,300.01462999999995,10449.242,0.0,-0.024714864458864172,-0.024714538344705494,0.0,0.0,0.0,-0.7827873070775923,-1.2191852794742186,-1.174335891622929,0.0023506676832928375,0.002160550047154688,-0.22039657874394877
4944,13.0,300.19057999999995,10454.424,0.0,-0.024719878947602636,-0.02471954055489256,0.0,0.0,0.0,-0.7788015662192302,-1.220909425844379,-1.178172867101609,0.002364431875301258,0.001138276549714149,-0.21602113176462578
4945,13.0,300.32336000000004,10466.165,0.0,-0.024724860446283525,-0.024724542765079627,0.0,0.0,0.0,-0.7779490885125973,-1.2259179210886788,-1.177585688668659,0.002236637530288938,-1.8721016563870483e-05,-0.22210211170977176
4946,13.0,300.32911,10469.940999999999,0.0,-0.024729874935021767,-0.024729544975266693,0.0,0.0,0.0,-0.7773737955033202,-1.2193424345647288,-1.1858845109626888,-0.0015512866123750687,-0.0035827795009178067,-0.2123380689761358
4947,13.0,300.37019,10493.684,0.0,-0.024734856433702768,-0.02473454718545387,0.0,0.0,0.0,-0.7898560234852202,-1.220665536545309,-1.1792961561624689,-0.0013113199084171987,0.0006538533799428044,-0.2131860681173268
4948,13.0,300.15989,10508.371000000001,0.0,-0.02473987092244123,-0.024739549395641047,0.0,0.0,0.0,-0.7895205363771103,-1.2191855834492487,-1.185576381607279,-0.005957244477384255,0.0039147086826266655,-0.2052563120397208
4949,13.0,300.10185,10489.219,0.0,-0.02474485242112212,-0.024744551605828002,0.0,0.0,0.0,-0.7849579725018202,-1.221071849835409,-1.1824308479968388,0.0036391618027323065,0.0012854009708591987,-0.2169846616822188
4950,13.0,300.01502,10512.686000000002,0.0,-0.024749866909860363,-0.024749520906737543,0.0,0.0,0.0,-0.7835833670186572,-1.227053774450779,-1.184956981821149,-0.0003256205143337427,-0.0029560636437657674,-0.20993780107924778
4951,13.0,299.86148,10508.437,0.0,-0.024754881398598938,-0.02475452311692472,0.0,0.0,0.0,-0.7775083753816022,-1.2227684358028488,-1.1940255702161489,0.004357071992734526,-0.0034076235157562565,-0.22243577496770178
4952,13.0,299.99192999999997,10508.08,0.0,-0.024759862897279827,-0.024759525327111676,0.0,0.0,0.0,-0.7795754055856022,-1.2256734238395488,-1.1889450328897386,-0.0015516521930111484,-0.00085800104438561,-0.2120405382167718
4953,13.0,300.12577000000005,10473.452,0.0,-0.02476487738601807,-0.024764527537298853,0.0,0.0,0.0,-0.7789617407950382,-1.2244117248150288,-1.1802945114859988,-0.0017917655142584883,0.0033428403573626565,-0.2172660209699868
4954,13.0,299.93816,10467.051,0.0,-0.02476985888469896,-0.024769529747485808,0.0,0.0,0.0,-0.7749404551231682,-1.224545676478249,-1.1822360000026089,-0.005616430510848535,0.002231933820674718,-0.21067634894463677
4955,13.0,299.82604,10485.678,0.0,-0.024774873373437534,-0.024774531957672763,0.0,0.0,0.0,-0.7840759484222712,-1.2267233535931688,-1.176584800219879,-0.0012374620821279988,0.0036394986070655464,-0.2182843981154928
4956,13.0,299.92677000000003,10535.385,0.0,-0.024779854872118423,-0.02477953416785994,0.0,0.0,0.0,-0.7841175930013813,-1.2274477260896588,-1.190928571285499,0.002958482778379517,0.003831082010798356,-0.2112186606631588
4957,13.0,300.11832999999996,10508.148000000001,0.0,-0.024784869360856887,-0.024784536378047006,0.0,0.0,0.0,-0.7747640280157563,-1.2317714669163788,-1.1876792808648189,0.006801959978976183,-0.0015699295022899786,-0.21930881423159482
4958,13.0,300.12836,10497.626,0.0,-0.024789850859537776,-0.024789538588234183,0.0,0.0,0.0,-0.7757178003348862,-1.2266397604599188,-1.1886585870864688,0.0016429214050437185,-0.006014486420583594,-0.21732702875850782
4959,13.0,299.98895,10521.598,0.0,-0.02479486534827602,-0.02479454079842114,0.0,0.0,0.0,-0.7872598234164953,-1.2259523715920788,-1.185090933484369,0.0005622009972524185,-0.007028022662411833,-0.2131521242389768
4960,13.0,300.05014,10524.288999999999,0.0,-0.024799879837014593,-0.024799543008608316,0.0,0.0,0.0,-0.7863941329285582,-1.228987866241659,-1.183739156525959,-0.0015289546814960784,-8.991869758378451e-05,-0.2193782623934488
4961,13.0,300.04412,10496.985,0.0,-0.024804861335695483,-0.024804545218795493,0.0,0.0,0.0,-0.7811011879836852,-1.227002402670709,-1.1827175977751387,-0.004211528039095456,0.003651838980033447,-0.2148815699071598
4962,13.0,300.22525,10486.635,0.0,-0.024809875824433725,-0.024809547428982448,0.0,0.0,0.0,-0.7721333166486253,-1.2258554035575089,-1.189686427987909,-7.684437386619923e-05,0.0005669589866744955,-0.2215424024870328
4963,13.0,299.76995,10523.323999999999,0.0,-0.024814857323114614,-0.024814549639169625,0.0,0.0,0.0,-0.7760471572798913,-1.2313321216730189,-1.191448368586799,0.003083744302116867,0.003099597917156497,-0.21627070539675677
4964,13.0,299.67835,10562.409,0.0,-0.02481987181185319,-0.02481955184935658,0.0,0.0,0.0,-0.7895005348201363,-1.2268629794569488,-1.194345047972679,0.006501499305623024,0.003457046207933897,-0.21578042407086978
4965,13.0,299.94572999999997,10541.832,0.0,-0.02482485331053408,-0.02482452115026612,0.0,0.0,0.0,-0.7907778277636952,-1.2266394564848888,-1.187036272351359,0.00100162144403484,-0.005257060489931475,-0.2098993077079488
4966,13.0,300.05939,10479.985999999999,0.0,-0.02482986779927232,-0.0248295233604533,0.0,0.0,0.0,-0.7824290623722362,-1.2190066434815887,-1.1842182211732388,0.0028016872903300076,-0.008528163550814212,-0.21171495056213882
4967,13.0,300.06905,10519.752,0.0,-0.024834882288010784,-0.024834525570640253,0.0,0.0,0.0,-0.7867092739746602,-1.2269163777372187,-1.1841161868881689,-0.0022076039632485476,-0.0017912984059623883,-0.21480953795755078
4968,13.0,299.98552,10570.746000000001,0.0,-0.024839863786691674,-0.02483952778082743,0.0,0.0,0.0,-0.7838098182835063,-1.2345615523917388,-1.1948713300746188,0.004498478542240266,0.005679858447233384,-0.2205101742126598
4969,13.0,299.73255,10553.139,0.0,-0.024844878275430027,-0.024844529991014386,0.0,0.0,0.0,-0.7831026507737143,-1.2303931428053487,-1.1943948998775988,-0.004761968151244665,0.0029644431207677575,-0.22164633154978977
4970,13.0,299.73027,10499.223,0.0,-0.024849859774111138,-0.024849532201201452,0.0,0.0,0.0,-0.7771171392529903,-1.2274595811158289,-1.186924916165369,-0.000899199752921606,-0.0042417880440568856,-0.2168353187499798
4971,13.0,299.7058,10491.325,0.0,-0.02485487426284938,-0.02485453441138863,0.0,0.0,0.0,-0.7783555335252103,-1.2292162528141988,-1.1815290554078388,-0.0002668238300484618,-0.0014991511457046987,-0.2199904275738648
4972,13.0,299.72532,10521.947,0.0,-0.02485985576153027,-0.024859536621575584,0.0,0.0,0.0,-0.7846654168004472,-1.2265860582046189,-1.187157862363359,0.0032071032461414473,0.002161910132763918,-0.2157093547088558
4973,13.0,300.09038,10548.538,0.0,-0.024864870250268845,-0.02486453883176276,0.0,0.0,0.0,-0.7862165101860282,-1.2328055899684387,-1.1874701460441788,0.0017713371763423682,-0.0006498846515536215,-0.2166248059092038
4974,13.0,300.02015,10515.503,0.0,-0.024869851748949734,-0.02486954104194994,0.0,0.0,0.0,-0.7728759175144142,-1.2302931350204789,-1.1932812366926886,0.0028642985471342575,-0.0009440663254945921,-0.21647433826935378
4975,13.0,300.02686,10536.452,0.0,-0.024874866237687976,-0.024874543252136894,0.0,0.0,0.0,-0.7838788915428233,-1.230898855930259,-1.1880406058504789,0.0021294813672884483,0.0043407405289477355,-0.21892454926367078
4976,13.0,300.18755,10619.142,0.0,-0.02487988072642644,-0.02487954546232407,0.0,0.0,0.0,-0.7949424072647072,-1.2388140617364287,-1.1941976200831288,0.001995298379070618,0.002772390683563657,-0.2133248023210188
4977,13.0,299.81944,10603.483,0.0,-0.02488486222510744,-0.024884547672511026,0.0,0.0,0.0,-0.7968064125461702,-1.2351429552991189,-1.1912447053166988,-0.003547590338194906,0.0030487039858336567,-0.21791699362923278
4978,13.0,299.88067,10575.663999999999,0.0,-0.024889876713845682,-0.024889549882698203,0.0,0.0,0.0,-0.7923691370457452,-1.231868232300929,-1.1905005744432589,-0.005612714517431796,0.0002557773166632558,-0.2125000674021238
4979,13.0,299.99115,10537.45,0.0,-0.02489485821252657,-0.024894519183607744,0.0,0.0,0.0,-0.7849580839593313,-1.2328869539514686,-1.1852765609026887,-0.0054553272913238846,0.005087668073988745,-0.22020742521528078
4980,13.0,299.77936,10500.322,0.0,-0.024899872701265036,-0.0248995213937947,0.0,0.0,0.0,-0.7727531622647992,-1.2269824416437387,-1.192100192376129,-0.002365953371651418,0.007339498681577124,-0.21717691575619277
4981,13.0,299.82202,10531.44,0.0,-0.024904854199945925,-0.024904523603981876,0.0,0.0,0.0,-0.7834012150481803,-1.2308478894502288,-1.1870456955772888,-0.0031469949197342165,0.0012285001889685288,-0.2191408274975158
4982,13.0,299.77511,10570.544,0.0,-0.024909868688684278,-0.024909525814169053,0.0,0.0,0.0,-0.7871522466533782,-1.228804163998529,-1.1972251100569187,-0.0058067407658306935,-0.004286725483341866,-0.20866286900842182
4983,13.0,299.81052999999997,10530.316,0.0,-0.02491485018736539,-0.02491452802435601,0.0,0.0,0.0,-0.7843323310950743,-1.229722472564159,-1.1868983690127488,8.817086345278672e-05,-0.0011753373880217688,-0.22342473746280478
4984,13.0,299.97936,10547.85,0.0,-0.02491986467610363,-0.024919530234543186,0.0,0.0,0.0,-0.7875224477099143,-1.2302715527933488,-1.188488969019729,0.004166710365972296,-0.0011901078387044988,-0.2144266206122598
4985,13.0,300.08834,10588.044,0.0,-0.024924879164841984,-0.024924532444730252,0.0,0.0,0.0,-0.7883035926095072,-1.2346323785737288,-1.1955648997680688,0.006344643022567514,0.0018561260460353782,-0.2235684872544918
4986,13.0,299.85297,10643.971000000001,0.0,-0.024929860663523096,-0.024929534654917207,0.0,0.0,0.0,-0.7920707551562972,-1.2396913336730089,-1.203739294949819,0.004307010041068795,-0.00035449332924576764,-0.21710235068133382
4987,13.0,300.18381,10641.937,0.0,-0.024934875152261338,-0.024934536865104384,0.0,0.0,0.0,-0.7954883160210843,-1.2371266963448988,-1.2022680558046188,0.003847377909506636,0.007842125750657554,-0.2213814882386518
4988,13.0,300.19223999999997,10566.171999999999,0.0,-0.024939856650942227,-0.02493953907529134,0.0,0.0,0.0,-0.7868966745806553,-1.235611178170329,-1.189344456079159,-0.0006751484621269654,0.0021689959933632375,-0.21703053151424578
4989,13.0,300.13611000000003,10514.686000000002,0.0,-0.02494487113968069,-0.024944541285478516,0.0,0.0,0.0,-0.7819655511139912,-1.2305970087254687,-1.1836392500660988,-0.00016734433351559984,-0.001112227713493329,-0.22225127225699282
4990,13.0,300.03692,10563.198,0.0,-0.02494985263836158,-0.02494954349566547,0.0,0.0,0.0,-0.7897290632476903,-1.2314275698324386,-1.1897918059983088,-0.005173280108062995,-0.0050071341454406655,-0.2161755814773688
4991,13.0,299.75621,10638.487,0.0,-0.024954867127099933,-0.02495454570585265,0.0,0.0,0.0,-0.7901125480130372,-1.2421362048392988,-1.201585530537259,-0.002113307869192248,0.0013999526436895688,-0.21956015091889977
4992,13.0,299.96018,10605.59,0.0,-0.024959881615838397,-0.024959547916039826,0.0,0.0,0.0,-0.7829662065152483,-1.2384370313742188,-1.2024311890707189,-0.0011160559750211488,-0.001112511018221289,-0.2184950933412868
4993,13.0,299.87689,10547.353000000001,0.0,-0.024964863114519287,-0.024964517216949145,0.0,0.0,0.0,-0.7769526786292592,-1.2318296274721188,-1.197349537169199,-0.0024101148640098178,0.0005929179070814414,-0.2142083766732208
4994,13.0,299.82017,10598.761,0.0,-0.02496987760325764,-0.024969519427136322,0.0,0.0,0.0,-0.7820310779979582,-1.2369412715765988,-1.202786434555779,0.0021803877615875177,0.0010161148620077291,-0.22037970812978377
4995,13.0,299.80911000000003,10696.878999999999,0.0,-0.02497485910193853,-0.0249745216373235,0.0,0.0,0.0,-0.8026235928277812,-1.2408476546871288,-1.2081126850314388,0.003113242646978127,0.0033081051306845573,-0.20942414407355378
4996,13.0,300.12007,10645.75,0.0,-0.024979873590676993,-0.024979523847510454,0.0,0.0,0.0,-0.7945252420660363,-1.2414141628180386,-1.2001026390159089,0.008324388215253152,-0.0018210585746494881,-0.22023475257047778
4997,13.0,299.88319,10530.068000000001,0.0,-0.024984855089357882,-0.02498452605769763,0.0,0.0,0.0,-0.7783164119388493,-1.2318610382252186,-1.1907002860379687,0.002132246121511308,-0.004630355069255465,-0.21443608436819378
4998,13.0,300.21921000000003,10550.463,0.0,-0.024989869578096235,-0.024989528267884697,0.0,0.0,0.0,-0.7841471697718002,-1.2306849588341489,-1.192245289790449,0.004634671109381426,-0.006590439460975734,-0.2215102520613598
4999,13.0,299.9715,10634.225,0.0,-0.024994851076777236,-0.024994530478071875,0.0,0.0,0.0,-0.7916152688388443,-1.240060865984479,-1.200862576590909,0.0002071505020416628,-0.0013986983413907788,-0.2169896570052118
5000,13.0,300.20167000000004,10661.999,0.0,-0.02499986556551559,-0.02499953268825883,0.0,0.0,0.0,-0.7930887472667653,-1.2425782858579288,-1.2053144935552789,-0.0023584732554381878,-5.862643496372864e-05,-0.21969803399250776
5001,13.0,300.25261,10613.399,0.0,-0.025004880054253942,-0.025004534898445785,0.0,0.0,0.0,-0.7905359345673222,-1.237660273847559,-1.1980120000845789,-0.005829149602392275,0.004493036679928196,-0.2151824545243548
5002,13.0,300.3322,10568.676000000001,0.0,-0.025009861552934942,-0.025009537108632962,0.0,0.0,0.0,-0.7856444798420733,-1.2349408119041687,-1.192028454269049,-0.0002396500126391148,0.002101500263126928,-0.2210934009702198
5003,13.0,300.1005,10637.228000000001,0.0,-0.025014876041673517,-0.025014539318819917,0.0,0.0,0.0,-0.7925273357838583,-1.2351891595036788,-1.2057352963218089,-0.0027805218129661373,0.0011261435890417189,-0.2176080840712458
5004,13.0,300.10078,10725.533000000001,0.0,-0.025019857540354185,-0.025019541529007094,0.0,0.0,0.0,-0.8059189658630092,-1.2511049880994487,-1.203270261478529,0.003946428983632216,-0.002339670575982508,-0.2186836389198948
5005,13.0,299.94473,10640.756000000001,0.0,-0.02502487202909265,-0.02502454373919427,0.0,0.0,0.0,-0.7907669657226232,-1.2370794788902388,-1.206677720239819,-0.0007663073312236452,-0.0010037353775859692,-0.2194161275496858
5006,13.0,299.99473,10548.355,0.0,-0.025029853527773538,-0.025029545949381338,0.0,0.0,0.0,-0.7771453886657783,-1.2392832978577388,-1.1900077295946188,0.006353136490205754,-0.0024773486690952778,-0.2190559070066348
5007,13.0,300.03859,10600.658000000001,0.0,-0.02503486801651189,-0.025034548159568404,0.0,0.0,0.0,-0.7904757677763843,-1.2407852384809688,-1.191074377974889,-0.0014971904054361886,0.0024315132875716776,-0.2174634426194708
5008,13.0,299.91922,10674.961000000001,0.0,-0.02503984951519278,-0.025039517460477945,0.0,0.0,0.0,-0.7962295388667372,-1.2439524556435488,-1.2047395754485388,0.004139295972591706,-0.00042180555988896763,-0.2184833497726278
5009,13.0,299.84809,10648.096000000001,0.0,-0.025044864003931244,-0.02504451967066501,0.0,0.0,0.0,-0.7972569744681373,-1.241049291457029,-1.198449014852709,-0.001077829493798489,0.0015655383803316084,-0.2189167877679048
5010,13.0,299.99983,10588.118999999999,0.0,-0.025049878492669597,-0.025049521880852077,0.0,0.0,0.0,-0.7851870480844283,-1.2387526587803688,-1.194584073671269,0.0020218292183640085,0.000860608197687916,-0.22084138540534778
5011,13.0,300.17823,10614.645,0.0,-0.025054859991350487,-0.025054524091039143,0.0,0.0,0.0,-0.7880725310567033,-1.2390923002138887,-1.199422342898769,-0.001816135395063608,-0.002415296321046188,-0.21910577917655677
5012,13.0,300.11222000000004,10699.628,0.0,-0.02505987448008895,-0.02505952630122632,0.0,0.0,0.0,-0.7918925649937112,-1.2519594619087788,-1.2085676343263387,-0.0023776217571529978,-0.004157590203147206,-0.2232226852603638
5013,13.0,300.05813,10728.473999999998,0.0,-0.02506485597876984,-0.025064528511413497,0.0,0.0,0.0,-0.8033173246412472,-1.247204481839499,-1.210666277933459,-0.0039828023317469855,0.004077065697825056,-0.2160727163272168
5014,13.0,300.11377999999996,10668.738000000001,0.0,-0.025069870467508193,-0.025069530721600453,0.0,0.0,0.0,-0.7888477484432113,-1.2490444426960887,-1.205137681412829,-0.003156460094218357,-0.0013954705318722186,-0.2195199147574288
5015,13.0,300.34334,10598.408000000001,0.0,-0.025074851966189193,-0.02507453293178763,0.0,0.0,0.0,-0.7937437323964073,-1.2346977332051787,-1.1932101065356688,0.0029651335493858975,0.0035654249585050464,-0.21751361876442282
5016,13.0,300.38075,10641.195,0.0,-0.02507986645492777,-0.025079535141974585,0.0,0.0,0.0,-0.7911717388725712,-1.2428270387574787,-1.200658609345779,0.00031846762724030767,3.343065805509907e-05,-0.22361964625204078
5017,13.0,299.91778,10719.355,0.0,-0.02508488094366601,-0.02508453735216154,0.0,0.0,0.0,-0.8015373076605732,-1.251459422984429,-1.205419567590649,0.010059825737902501,0.0030721409672717073,-0.22188350300069679
5018,13.0,299.61564,10688.366000000002,0.0,-0.0250898624423469,-0.025089539562348717,0.0,0.0,0.0,-0.7963815162492363,-1.2463148482516988,-1.2063000819275487,-0.0006444326972705553,-0.0034286814872845173,-0.2205768258042378
5019,13.0,299.96766,10611.841999999999,0.0,-0.025094876931085364,-0.025094541772535783,0.0,0.0,0.0,-0.7902295581345853,-1.239647257293659,-1.195858033021999,0.003187637495820327,-0.005475929705607184,-0.2167038698145068
5020,13.0,300.12293999999997,10603.766000000001,0.0,-0.025099858429766142,-0.02509954398272296,0.0,0.0,0.0,-0.7862291758122782,-1.2397022767740888,-1.197348726569119,-0.0036263200736149264,-0.003179227216015297,-0.2197296271306258
5021,13.0,300.07066000000003,10647.963,0.0,-0.025104872918504606,-0.025104546192909916,0.0,0.0,0.0,-0.7956845420354502,-1.235192199253979,-1.2058383438569789,-0.0012645521341515787,0.003683012531285036,-0.2171957216780488
5022,13.0,300.04311,10686.201000000001,0.0,-0.025109854417185495,-0.025109515493819456,0.0,0.0,0.0,-0.7912732766650922,-1.247956414738709,-1.209108405904709,0.0016326186780269186,-0.00040361446806114665,-0.2228913828751668
5023,13.0,299.90848,10698.123,0.0,-0.02511486890592385,-0.025114517704006634,0.0,0.0,0.0,-0.7937505009070752,-1.2443921048619389,-1.213819714894679,-0.00015883751124104185,0.00048691807522757246,-0.2185926287959128
5024,13.0,299.79227000000003,10676.885,0.0,-0.025119850404604738,-0.02511951991419359,0.0,0.0,0.0,-0.7938910488284462,-1.2478695792051386,-1.203745779750459,-0.001061562574043069,-0.0006314274498520374,-0.2237469712596068
5025,13.0,299.71345,10653.642,0.0,-0.0251248648933432,-0.025124522124380766,0.0,0.0,0.0,-0.7924833809945203,-1.2446398445113886,-1.2013179311858488,-0.0011875848459554988,0.003970836253366026,-0.2152371700297548
5026,13.0,300.02212000000003,10677.771,0.0,-0.025129879382081444,-0.025129524334567943,0.0,0.0,0.0,-0.7887347507920592,-1.2471649650855987,-1.209875841530449,-0.0016848459451563485,0.01044509574860069,-0.22051253508539279
5027,13.0,300.03716000000003,10735.213,0.0,-0.025134860880762333,-0.025134526544754898,0.0,0.0,0.0,-0.8007262110880242,-1.250070054447309,-1.212440478858559,0.0023895557155057877,0.003114600402112127,-0.2111408430554788
5028,13.0,300.29146000000003,10708.941,0.0,-0.025139875369500908,-0.025139528754942075,0.0,0.0,0.0,-0.7972181365918043,-1.2465681607766987,-1.2114643137122187,1.1961137773472388e-06,0.0037101498007632767,-0.2273285874480848
5029,13.0,299.9946,10663.745,0.0,-0.02514485686818191,-0.02514453096512903,0.0,0.0,0.0,-0.7898842931630102,-1.246500374345009,-1.205127548911829,0.005760355696127845,0.0022432799926444978,-0.2155731536304138
5030,13.0,300.03956,10642.815,0.0,-0.02514987135692026,-0.025149533175316208,0.0,0.0,0.0,-0.7905159127453463,-1.2403634224643387,-1.204270643302259,0.0025838401400301676,-0.0021739663904037777,-0.2200989162620718
5031,13.0,300.04629,10732.006000000001,0.0,-0.02515485285560115,-0.025154535385503163,0.0,0.0,0.0,-0.7998964403161323,-1.2444121672139188,-1.2179530660276088,-0.002316857452631028,-0.004677087582417605,-0.21133459673960078
5032,13.0,299.99515,10735.865,0.0,-0.025159867344339615,-0.02515953759569023,0.0,0.0,0.0,-0.7996655510158452,-1.2522006154325789,-1.2115685771475089,-0.005236603274387505,-0.004694039256590605,-0.22374744748715378
5033,13.0,299.74031,10677.2,0.0,-0.025164848843020393,-0.025164539805877406,0.0,0.0,0.0,-0.7959253915842203,-1.2435267892765387,-1.2061500195877388,-0.002839850443421417,0.003759377036996626,-0.21572980209587378
5034,13.0,300.02366,10666.248,0.0,-0.025169863331758857,-0.02516954201606436,0.0,0.0,0.0,-0.7885957328783393,-1.2489858768403088,-1.2046914460687888,-0.0033535625699208566,0.007341000318225322,-0.2284126130675698
5035,13.0,299.72619,10700.101,0.0,-0.02517487782049732,-0.02517454422625154,0.0,0.0,0.0,-0.7987968613076123,-1.2504143568312887,-1.2033524360616388,-0.004330520483139096,-0.0017739447754747182,-0.22172435180748976
5036,13.0,300.10803,10753.61,0.0,-0.0251798593191781,-0.02517951352716108,0.0,0.0,0.0,-0.8067119961862752,-1.2529092825525188,-1.2092077044145089,-0.0013284158694044387,-0.0012785526160833188,-0.2232579564963448
5037,13.0,300.20966,10690.348,0.0,-0.025184873807916563,-0.025184515737348034,0.0,0.0,0.0,-0.7980583134422232,-1.2450891196057288,-1.206451360167479,0.0027002152577404975,-0.001104990878629109,-0.21818706531088677
5038,13.0,300.02973,10614.178999999998,0.0,-0.025189855306597453,-0.02518951794753521,0.0,0.0,0.0,-0.7879445980990772,-1.2386817312733687,-1.1998189289879089,0.010660347560094388,0.0015027556816104386,-0.2162893593310978
5039,13.0,300.12732,10703.662,0.0,-0.025194869795335695,-0.02519452015772239,0.0,0.0,0.0,-0.7975065075702642,-1.2453674594081987,-1.210772162568909,0.0035210433882249263,-0.002179895929988978,-0.21759124385458378
5040,13.0,300.08452,10803.493999999999,0.0,-0.025199851294016584,-0.025199522367909344,0.0,0.0,0.0,-0.8043551865861762,-1.2603516045370187,-1.2192856925591289,0.004777161633844146,0.002697733098970528,-0.22593606770315378
5041,13.0,299.8154,10759.488000000001,0.0,-0.02520486578275516,-0.02520452457809652,0.0,0.0,0.0,-0.8088085828956922,-1.2520966559723188,-1.2097105804391388,-0.002145047523274708,0.001819508707296528,-0.2268442437677838
5042,13.0,299.93978,10668.608999999999,0.0,-0.0252098802714934,-0.025209526788283476,0.0,0.0,0.0,-0.7928887722270292,-1.249826570448279,-1.2002753981579588,-0.002095267761761828,0.0008132225131138132,-0.2207254898589098
5043,13.0,299.98843,10657.03,0.0,-0.025214861770174513,-0.025214528998470653,0.0,0.0,0.0,-0.7910283031884152,-1.2488009586970588,-1.199641610220409,-0.0022762535826987376,-0.00948215726509106,-0.2209041765140448
5044,13.0,299.76119,10747.907,0.0,-0.025219876258912755,-0.02521953120865783,0.0,0.0,0.0,-0.8030794033852663,-1.250355790975509,-1.2136602293289387,-0.004348898408152856,-0.0024590106661354577,-0.21531786526771882
5045,13.0,299.9914,10797.403999999999,0.0,-0.025224857757593866,-0.025224533418844786,0.0,0.0,0.0,-0.8023030511586462,-1.263019289400299,-1.2168188338656687,0.003259280256065917,0.000916289918118274,-0.2232897117544788
5046,13.0,300.07736,10715.204,0.0,-0.02522987224633222,-0.025229535629031852,0.0,0.0,0.0,-0.7896040788478552,-1.2517304673861789,-1.2158199719170888,-0.003133798249106807,-0.0003152816750833787,-0.21924686412048078
5047,13.0,300.0568,10679.487,0.0,-0.02523485374501311,-0.02523453783921903,0.0,0.0,0.0,-0.7939840753201273,-1.2511596022798386,-1.201153784669649,8.020964595957572e-05,-0.001070750016674799,-0.22768834189608977
5048,13.0,300.15457999999995,10750.323999999999,0.0,-0.025239868233751572,-0.025239540049405984,0.0,0.0,0.0,-0.8001749625036203,-1.2541243720724387,-1.2135306346411487,-0.0006893485239309022,0.0013432731556207386,-0.22186091765596777
5049,13.0,300.17009,10792.641000000001,0.0,-0.02524484973243224,-0.02524454225959316,0.0,0.0,0.0,-0.8092000419393263,-1.252715143833359,-1.2187781555840387,0.004177137520101376,0.003524966692612127,-0.22002131143691278
5050,13.0,300.12907,10771.712,0.0,-0.025249864221170815,-0.025249544469780116,0.0,0.0,0.0,-0.8010534604728212,-1.2580561877604788,-1.2152217490580488,-0.001049569036584399,-0.00032434989870834264,-0.21550978496915982
5051,13.0,299.94051,10700.636,0.0,-0.02525487870990928,-0.025254513770689657,0.0,0.0,0.0,-0.7913099563187123,-1.2512416755379387,-1.2101745476599288,0.003845856615806496,-0.007719242527554924,-0.22127743758588278
5052,13.0,299.90484,10748.04,0.0,-0.025259860208589946,-0.025259515980876834,0.0,0.0,0.0,-0.7944651867326092,-1.2596468890924688,-1.2130237056161188,-0.0016104857494675686,-0.004155293975770587,-0.2241109712255308
5053,13.0,299.98748,10798.969,0.0,-0.02526487469732852,-0.02526451819106379,0.0,0.0,0.0,-0.8102672172096482,-1.2567004591266788,-1.2156493406002489,0.005484160640144516,0.002213686604923858,-0.2274063543932598
5054,13.0,299.8767,10760.692,0.0,-0.02526985619600941,-0.025269520401250967,0.0,0.0,0.0,-0.7970232784650733,-1.254346983119409,-1.219611452466279,-0.0032276608747703267,0.004600354456319636,-0.21830260621978978
5055,13.0,300.08439,10710.263,0.0,-0.025274870684747652,-0.025274522611437922,0.0,0.0,0.0,-0.7966300361012633,-1.249728285188579,-1.2092941346480386,-0.0006429949359086594,-0.0006798141241999303,-0.2180835516806708
5056,13.0,299.89243,10714.648000000001,0.0,-0.025279852183428764,-0.0252795248216251,0.0,0.0,0.0,-0.7896071388631573,-1.2501260871778388,-1.2172523022584487,-0.002166135790980958,0.0008000326109970713,-0.21557637576573177
5057,13.0,299.94045,10757.421999999999,0.0,-0.025284866672167006,-0.025284527031812276,0.0,0.0,0.0,-0.7962637968526183,-1.2577497809302387,-1.215974188582309,0.0038155461509900863,0.0024717421536419575,-0.2231888629720258
5058,13.0,299.96416,10785.517,0.0,-0.025289848170848117,-0.02528952924199923,0.0,0.0,0.0,-0.8019810200118642,-1.256068697689329,-1.220478085276809,-0.0038319737722113667,0.003298435482330237,-0.2216609628812338
5059,13.0,300.08444,10775.485,0.0,-0.02529486265958647,-0.02529453145218641,0.0,0.0,0.0,-0.8048746191174402,-1.256491020331009,-1.214112848148609,0.00016425635251083985,-0.00030989926015467567,-0.2271805009459698
5060,13.0,299.68911,10732.146999999999,0.0,-0.025299877148324712,-0.025299533662373475,0.0,0.0,0.0,-0.7975654787260843,-1.2530767727940488,-1.2116624041067687,-0.00014261056420206687,0.0023527699746003178,-0.22476490257506876
5061,13.0,299.70738,10732.002,0.0,-0.025304858647005823,-0.02530453587256065,0.0,0.0,0.0,-0.8010069522932313,-1.2505187215915887,-1.2107350776152488,0.007015199779746312,0.005958013838185184,-0.22284731662831778
5062,13.0,299.68167,10790.625,0.0,-0.025309873135744176,-0.025309538082747607,0.0,0.0,0.0,-0.8017738204989152,-1.2544661413311688,-1.2238404544086487,0.00035771255653598065,-0.00016691030783526483,-0.2159408215616998
5063,13.0,299.89105,10847.193000000001,0.0,-0.025314854634425066,-0.025314540292934562,0.0,0.0,0.0,-0.8014251712720063,-1.2693690238019688,-1.2264815921193088,0.002862500940131847,-0.009886817437652911,-0.22530152996052977
5064,13.0,299.81905,10780.008,0.0,-0.02531986912316353,-0.02531954250312174,0.0,0.0,0.0,-0.8023440371251912,-1.2576860474989489,-1.2168232921661088,-0.0034588159505585564,-0.0030499462304562574,-0.2250691410500948
5065,13.0,300.04705,10707.715,0.0,-0.025324850621844197,-0.025324511804031502,0.0,0.0,0.0,-0.7956480852968523,-1.2527082537326788,-1.2065214770743988,-0.003054599378890487,6.453364859622524e-05,-0.22647390085623378
5066,13.0,299.91643,10743.649,0.0,-0.02532986511058266,-0.025329514014218457,0.0,0.0,0.0,-0.8015314612074963,-1.2503690645518186,-1.2139003696026387,-0.007953982380871942,0.0033715093570170673,-0.2190927285152688
5067,13.0,299.84891,10825.136999999999,0.0,-0.025334879599321236,-0.025334516224405412,0.0,0.0,0.0,-0.8096495602136902,-1.259451433148179,-1.221470259774729,-0.01124359154290609,0.00028774241889296574,-0.2164976227566518
5068,13.0,300.04086,10833.437,0.0,-0.025339861098001903,-0.025339518434592367,0.0,0.0,0.0,-0.8048941039168632,-1.2635329058759885,-1.2246672664902487,-0.003362809591658467,0.003999997692569036,-0.22357401960003778
5069,13.0,300.07127,10778.434,0.0,-0.025344875586740367,-0.025344520644779545,0.0,0.0,0.0,-0.7984871006195412,-1.2603319474850787,-1.2175557706633988,0.0034308426484228067,0.0029930490962659473,-0.2252029711233028
5070,13.0,300.15639,10789.261999999999,0.0,-0.025349857085421257,-0.025349522854966722,0.0,0.0,0.0,-0.8038244664487982,-1.259519016929849,-1.2163228479417187,0.008358917245535903,0.0007257425322152113,-0.22494142087498978
5071,13.0,300.09496,10840.903999999999,0.0,-0.02535487157415961,-0.025354525065153788,0.0,0.0,0.0,-0.8116305958817033,-1.263029523226309,-1.2207041413741189,0.007645512978728382,-0.0065250625380235345,-0.22360349504544677
5072,13.0,299.99728,10858.998,0.0,-0.02535985307284072,-0.025359527275340854,0.0,0.0,0.0,-0.8133584102172252,-1.2630199986753687,-1.2244857933973388,0.0044357993976793155,-0.0020297059206663783,-0.2231175402974868
5073,13.0,300.05025,10788.773000000001,0.0,-0.025364867561578963,-0.02536452948552792,0.0,0.0,0.0,-0.8035262872093702,-1.258530084832249,-1.2174613357540789,0.001704195678341018,0.0016927722967136182,-0.2217240984949648
5074,13.0,300.13006,10710.05,0.0,-0.025369849060260075,-0.025369531695715097,0.0,0.0,0.0,-0.7847684542031163,-1.2535899839696987,-1.217229504131199,-0.0008551877960129641,0.0025258069498277375,-0.2216582777684688
5075,13.0,299.87467000000004,10761.88,0.0,-0.025374863548998428,-0.025374533905902275,0.0,0.0,0.0,-0.7931105422764163,-1.2612804509036886,-1.2169518736037988,-0.004536316239399556,-0.0009585589429999021,-0.2286601804645028
5076,13.0,299.86694,10852.775,0.0,-0.02537987803773689,-0.02537953611608923,0.0,0.0,0.0,-0.8089791027550213,-1.2663121495752787,-1.2236813741429489,-0.0016784558834006987,-0.003454061882414367,-0.2252962509275088
5077,13.0,299.86999,10817.874,0.0,-0.02538485953641778,-0.025384538326276185,0.0,0.0,0.0,-0.8089333950430102,-1.260849616961169,-1.2185804704895289,-0.0026350087634551176,0.0018764391774151283,-0.2277263691723428
5078,13.0,299.82752,10755.489,0.0,-0.025389874025156023,-0.025389540536463362,0.0,0.0,0.0,-0.7984274303211523,-1.2570574271369088,-1.213915264379109,-0.00013675097940377086,0.002296581507529948,-0.21964247748952478
5079,13.0,299.96292,10793.518999999998,0.0,-0.025394855523836912,-0.025394509837372903,0.0,0.0,0.0,-0.8008801643082182,-1.2598511603126288,-1.2202289270772189,0.00023334945126479774,-0.0015203377999956586,-0.2254167871594048
5080,13.0,299.8117,10889.649,0.0,-0.025399870012575487,-0.02539951204756008,0.0,0.0,0.0,-0.8061065285890202,-1.274394642972959,-1.2296802200349888,-0.0015035900930677887,0.0074477064968564025,-0.22224608441648078
5081,13.0,300.09497000000005,10866.245,0.0,-0.025404851511256155,-0.025404514257747035,0.0,0.0,0.0,-0.8138569393989262,-1.2703787275266187,-1.2188315538643089,0.00039882713491617365,0.0014467299425061288,-0.2309473392527278
5082,13.0,300.04881,10769.187,0.0,-0.02540986599999462,-0.02540951646793399,0.0,0.0,0.0,-0.8007763872329763,-1.2551420804728788,-1.217645544622259,0.003187505469332297,-0.0005473316634924295,-0.22106995436290577
5083,13.0,299.95833999999996,10754.367,0.0,-0.025414847498675508,-0.025414518678121167,0.0,0.0,0.0,-0.7991882595562403,-1.258084558763279,-1.2117862232689889,0.0012794666689985288,-0.0022979387560388975,-0.2255025689128708
5084,13.0,299.95929,10877.636999999999,0.0,-0.02541986198741386,-0.025419520888308234,0.0,0.0,0.0,-0.8103889490766623,-1.2626874499925487,-1.233453462082379,0.004978318731146805,-0.0038405142546542466,-0.21385494490583978
5085,13.0,300.15862999999996,10917.946000000002,0.0,-0.025424876476152325,-0.02542452309849541,0.0,0.0,0.0,-0.8135470368558413,-1.2683989381562288,-1.236837008141309,0.002227729238059758,0.0018581931775643883,-0.2194643278569428
5086,13.0,299.89344,10846.393999999998,0.0,-0.025429857974833214,-0.025429525308682366,0.0,0.0,0.0,-0.8004784207760692,-1.265152383510819,-1.2314021372549289,-0.003194415632364277,0.0015299222340165685,-0.2156452869050328
5087,13.0,299.88135,10815.018,0.0,-0.025434872463571567,-0.025434527518869543,0.0,0.0,0.0,-0.8070205207092241,-1.259277964731059,-1.221196986222759,-0.001055484289343189,0.004690480519589386,-0.2226790259192088
5088,13.0,299.80635,10867.583,0.0,-0.025439853962252568,-0.02543952972905672,0.0,0.0,0.0,-0.8083181090522862,-1.273408953275679,-1.221746674402009,-0.009102866949858021,0.0033017397922313466,-0.22757826240522577
5089,13.0,299.84933,10897.089,0.0,-0.025444868450991143,-0.025444531939243675,0.0,0.0,0.0,-0.8155653195975302,-1.2705769192461789,-1.2263006256514488,0.0013482303804099789,0.002190989904008868,-0.2257683444141008
5090,13.0,299.88552000000004,10858.511,0.0,-0.025449849949672032,-0.025449534149430852,0.0,0.0,0.0,-0.8077827583619512,-1.2659660233411187,-1.2269672428922387,-0.003818876400093757,-0.002620597205957808,-0.2183357597630618
5091,13.0,299.90227999999996,10775.607,0.0,-0.025454864438410274,-0.025454536359617808,0.0,0.0,0.0,-0.7945106917946003,-1.263080185731309,-1.2179245936997989,0.0036232236826343367,0.0018897963468583782,-0.22929441423209676
5092,13.0,300.00735,10791.337,0.0,-0.02545987892714885,-0.025459538569804985,0.0,0.0,0.0,-0.7985161707649102,-1.2597267332003488,-1.2220540944823488,0.004544022107735066,-0.0017884879541600182,-0.22661059842722478
5093,13.0,300.01963,10843.341999999999,0.0,-0.02546486042582974,-0.025464507870714526,0.0,0.0,0.0,-0.8054454842237803,-1.2682355009150987,-1.2224243360688887,0.006224692347904305,0.006741234177958014,-0.2295224056370978
5094,13.0,300.0888,10848.171999999999,0.0,-0.02546987491456798,-0.02546951008090148,0.0,0.0,0.0,-0.8065835870011022,-1.264899172310829,-1.2260907815557387,0.0038612556868512665,-0.001870444080548458,-0.2250124395744988
5095,13.0,300.13261,10851.576000000001,0.0,-0.02547485641324887,-0.025474512291088658,0.0,0.0,0.0,-0.8071006586596332,-1.2604035842671488,-1.2311039377504986,6.675448408590463e-05,-0.004748169914032886,-0.2241818075400218
5096,13.0,299.94491,10858.29,0.0,-0.025479870901987334,-0.025479514501275835,0.0,0.0,0.0,-0.8080363039344742,-1.269239733089209,-1.2233731434625288,-0.0005194806201137455,-0.0025242493817740175,-0.2232056525261828
5097,13.0,299.93686,10883.578000000001,0.0,-0.025484852400668112,-0.02548451671146279,0.0,0.0,0.0,-0.8028669045742942,-1.2685897331500589,-1.2368792606704788,-0.0017165462851349283,-0.002909536820373927,-0.22243877418799776
5098,13.0,300.09074,10912.114,0.0,-0.025489866889406576,-0.025489518921649856,0.0,0.0,0.0,-0.8133013642365953,-1.273564487166029,-1.2301444912308088,-0.0035787012705903168,-0.003887615388202767,-0.22450977633238978
5099,13.0,299.9865,10889.428,0.0,-0.025494848388087465,-0.02549452113183681,0.0,0.0,0.0,-0.8107817253454263,-1.2702339340873288,-1.2290987158025988,-0.0026955835902083875,-0.00024202604359361077,-0.22517842007337976
5100,13.0,300.00354,10822.594,0.0,-0.02549986287682582,-0.02549952334202399,0.0,0.0,0.0,-0.8088215119669683,-1.2613174345323386,-1.2196594805210188,0.0018162013576451183,0.0004810857772544695,-0.2272032788082178
5101,13.0,299.82675,10806.476,0.0,-0.025504877365564282,-0.025504525552211166,0.0,0.0,0.0,-0.8024361820892852,-1.264329523104609,-1.2181332218953886,0.0025965642308109376,0.005504707528322335,-0.22140254357572978
5102,13.0,299.72935,10874.562,0.0,-0.025509858864245394,-0.02550952776239812,0.0,0.0,0.0,-0.8108975600968583,-1.2615550416807888,-1.2331427996017188,-0.004488216345227465,-0.0002996043351636457,-0.2237044654179118
5103,13.0,299.67079,10921.305,0.0,-0.025514873352983636,-0.025514529972585298,0.0,0.0,0.0,-0.8062206813452862,-1.2693233262224588,-1.244260078373909,-0.0008891308941603872,-0.0005661812462952385,-0.21858783612293978
5104,13.0,299.87029,10867.788,0.0,-0.025519854851664525,-0.025519532182772253,0.0,0.0,0.0,-0.8145071014580922,-1.2652462104700788,-1.223782800477959,4.3725694503640055e-05,0.001104025555258839,-0.22797370352175278
5105,13.0,299.64692,10854.25,0.0,-0.02552486934040299,-0.02552453439295943,0.0,0.0,0.0,-0.8041251788134762,-1.2654251504377387,-1.2298705084037689,0.0020058058839326283,0.0019859410143971182,-0.2175569352061978
5106,13.0,299.93547,10893.633,0.0,-0.02552985083908399,-0.025529536603146608,0.0,0.0,0.0,-0.8109891883034012,-1.2709098732290387,-1.2294933767165488,-0.0013358786590409585,-0.007078556180674103,-0.22599948702691278
5107,13.0,299.95707999999996,10936.641000000001,0.0,-0.02553486532782223,-0.025534538813333563,0.0,0.0,0.0,-0.8163677731467263,-1.2714143704538288,-1.2366837034011788,-0.0026616443728088475,-0.0026703497110429973,-0.2203575483500968
5108,13.0,300.08567999999997,10954.586000000001,0.0,-0.02553984682650312,-0.025539508114243104,0.0,0.0,0.0,-0.8158930857398782,-1.2759113770476487,-1.2381161350675487,0.007495761098749024,8.562234085426712e-05,-0.22417360021421182
5109,13.0,299.98616,10846.083999999999,0.0,-0.025544861315241585,-0.02554451032443028,0.0,0.0,0.0,-0.8026999918853212,-1.2690832872737687,-1.2251555517134387,-0.003948583761294876,0.004007229258532736,-0.2267528080787598
5110,13.0,299.89439,10752.757,0.0,-0.025549875803979938,-0.025549512534617236,0.0,0.0,0.0,-0.7981156026028773,-1.2578533350904588,-1.212600572374359,-0.0016133551724257585,-0.0003926214745462226,-0.22938723807375777
5111,13.0,299.83497,10847.683,0.0,-0.025554857302660827,-0.025554514744804413,0.0,0.0,0.0,-0.8016002000942802,-1.2711029986980988,-1.2247214753705988,-0.006814497733063563,-0.0031270779691435673,-0.23226521286279178
5112,13.0,299.94879,10963.201000000001,0.0,-0.02555987179139929,-0.02555951695499148,0.0,0.0,0.0,-0.8189646014305132,-1.2763143466124187,-1.2372603440330887,0.005242001161645235,0.0035340810799116473,-0.23005387557954976
5113,13.0,299.89475,10900.142,0.0,-0.02556485329008007,-0.025564519165178434,0.0,0.0,0.0,-0.8103247090203222,-1.2698781819772187,-1.2331681308542186,-0.004118041430544046,0.0016490857146770886,-0.22494894932323278
5114,13.0,299.78544,10823.037,0.0,-0.025569867778818534,-0.02556952137536561,0.0,0.0,0.0,-0.7912238097952102,-1.2764839646791588,-1.2222250297742188,0.0034570403310833168,-0.0033275721982308068,-0.22733550794626778
5115,13.0,299.66994,10929.611,0.0,-0.025574849277499645,-0.025574523585552567,0.0,0.0,0.0,-0.8119189769926642,-1.275041805811829,-1.235368200796349,-0.0022360625108571877,-0.0012293284196002688,-0.22492064924793978
5116,13.0,300.04111,11069.82,0.0,-0.025579863766237887,-0.025579525795739744,0.0,0.0,0.0,-0.8355199630919001,-1.2843697862324288,-1.2450592287277789,0.001993001239768908,-0.0008026922405220562,-0.2225870430751308
5117,13.0,299.96616,10985.333999999999,0.0,-0.02558487825497624,-0.0255845280059267,0.0,0.0,0.0,-0.8200054727282393,-1.2812377288483188,-1.2380241319584688,0.0026671891813310777,0.0019601175249985385,-0.2231013890908928
5118,13.0,300.11372,10867.5,0.0,-0.02558985975365724,-0.025589530216113876,0.0,0.0,0.0,-0.8069097319432902,-1.2704621180098488,-1.2260769000293688,-0.0009633713540848501,-0.002121895974389828,-0.22257534003647578
5119,13.0,300.08248,10852.816,0.0,-0.025594874242395593,-0.025594532426301053,0.0,0.0,0.0,-0.8019856809623243,-1.2690014166656887,-1.2279980222189688,0.003262913162974457,0.0014077134301804988,-0.22089779303841478
5120,13.0,300.07018999999997,10924.461000000001,0.0,-0.025599855741076483,-0.02559953463648801,0.0,0.0,0.0,-0.8137707118154162,-1.2747688362348888,-1.2322239844110388,-0.003377784110911337,0.005284776629191844,-0.2232331521338968
5121,13.0,300.10996,10974.733,0.0,-0.025604870229814947,-0.025604536846675185,0.0,0.0,0.0,-0.8214890431271562,-1.2722217281335089,-1.2423340925838289,0.00046582418398326747,0.006525386879380545,-0.2243183531234978
5122,13.0,300.17829,10905.639,0.0,-0.025609851728495836,-0.025609506147584726,0.0,0.0,0.0,-0.8124314586282423,-1.2748880957716588,-1.227722316866759,-0.004712852879147365,-0.0005074748324613665,-0.22743106756319878
5123,13.0,299.88055,10830.466999999999,0.0,-0.02561486621723419,-0.025614508357771792,0.0,0.0,0.0,-0.7929683731548852,-1.2712229675099387,-1.2280000487191687,-0.001803167414983768,0.0024885193461477374,-0.2297280143473898
5124,13.0,299.9615,10968.178999999998,0.0,-0.02561984771591508,-0.02561951056795886,0.0,0.0,0.0,-0.8197534875608702,-1.278597300412729,-1.2357018640542787,0.0012545117375856688,0.0025292872612712176,-0.2268420247500648
5125,13.0,299.81067,11081.892,0.0,-0.025624862204653542,-0.025624512778145925,0.0,0.0,0.0,-0.8268201977333002,-1.2862510876930988,-1.2555472791878688,0.0016957914780365885,0.0013549433649724986,-0.22210448271500577
5126,13.0,299.82984,10974.412,0.0,-0.025629876693391895,-0.025629514988333102,0.0,0.0,0.0,-0.8151614381076703,-1.2826890069665489,-1.2380967819906388,-0.001087092930187719,-0.004371948125402685,-0.22234856453159482
5127,13.0,299.92973,10817.055,0.0,-0.025634858192072785,-0.025634517198520057,0.0,0.0,0.0,-0.7955213581068452,-1.2689322116838588,-1.223661210465959,0.005785328460742464,-0.005074556617694745,-0.2235207125122768
5128,13.0,299.81411,10867.082,0.0,-0.02563987268081125,-0.025639519408707234,0.0,0.0,0.0,-0.8081479539629932,-1.2677920013463289,-1.2273816621831386,0.003838797505009816,-0.0002738854638378907,-0.22952087562944679
5129,13.0,299.99369,10976.786,0.0,-0.025644854179492138,-0.02564452161889419,0.0,0.0,0.0,-0.8142255192553023,-1.280897580789749,-1.2415457840060289,0.003096059951782327,0.004701663152993025,-0.2231723469953958
5130,13.0,300.02698,10964.875,0.0,-0.02564986866823049,-0.025649523829081144,0.0,0.0,0.0,-0.8193974618732333,-1.277600059664309,-1.2360506247386989,-0.0034477013062366273,-0.0008771688485148252,-0.23239153475275878
5131,13.0,299.83182,10918.913,0.0,-0.02565485016691149,-0.02565452603926832,0.0,0.0,0.0,-0.8000955338282812,-1.2770654689115488,-1.241915924267559,-0.001076409626433359,0.009416402703826592,-0.2251352961491238
5132,13.0,300.0648,10909.265,0.0,-0.025659864655649844,-0.0256595282494555,0.0,0.0,0.0,-0.8093260395892612,-1.277914167195309,-1.2289039691333787,-0.0020568658869468577,0.005759916249559474,-0.23005310550947378
5133,13.0,300.22197,10981.591,0.0,-0.025664846154330734,-0.025664530459642565,0.0,0.0,0.0,-0.8191063652520042,-1.275974806503909,-1.2430483325793187,0.002931045384221657,0.0014542964889528887,-0.22288774530730776
5134,13.0,300.13031,11018.536,0.0,-0.025669860643069198,-0.025669532669829742,0.0,0.0,0.0,-0.8270205983380782,-1.281874455211159,-1.2404647474743387,-0.0007037559777653073,-0.0038850612886756966,-0.22869022332996777
5135,13.0,300.17822,10988.285,0.0,-0.02567487513180755,-0.025674534880016697,0.0,0.0,0.0,-0.8201234555698832,-1.2793928030662387,-1.2406479430924189,0.008608343652427372,-0.0004984913266772636,-0.2206778164417048
5136,13.0,299.99795,10931.513,0.0,-0.02567985663048844,-0.025679504180926238,0.0,0.0,0.0,-0.8213152707350062,-1.2699390783082287,-1.2316528153296686,0.008214999254332302,0.0006585284956392024,-0.22559224154672075
5137,13.0,299.79426,10975.942,0.0,-0.025684871119226904,-0.025684506391113415,0.0,0.0,0.0,-0.8122630260641192,-1.2819762868462088,-1.2421730871429388,0.00101136779542173,-0.0028307228838705973,-0.2215043549457778
5138,13.0,299.98852,11032.013,0.0,-0.025689852617907794,-0.02568950860130037,0.0,0.0,0.0,-0.8289078881068392,-1.2819349462421288,-1.242613749611429,-0.00012909026149271686,-0.003741774450959387,-0.2252696733773858
5139,13.0,299.83107,10990.225,0.0,-0.025694867106646146,-0.025694510811487548,0.0,0.0,0.0,-0.8148343812403923,-1.2792417274763288,-1.246677794437519,-0.004148820422206696,0.0017269776949144283,-0.22547565699021477
5140,13.0,299.916,10886.118999999999,0.0,-0.025699848605327036,-0.025699513021674725,0.0,0.0,0.0,-0.8069582159605753,-1.275883006044849,-1.2262671883981489,0.004069214124125166,0.003033525499335657,-0.23596587580551878
5141,13.0,299.99972,10907.893999999998,0.0,-0.0257048630940655,-0.02570451523186168,0.0,0.0,0.0,-0.8113482436088372,-1.2741877373025388,-1.2301913033854288,-0.004548943260820746,-0.0017602918383272782,-0.22935763090583577
5142,13.0,299.93502,10952.726,0.0,-0.025709877582803742,-0.025709517442048857,0.0,0.0,0.0,-0.8173075930119793,-1.2792174094739288,-1.2328302119458687,-0.0008001980443408983,0.00028696641117137976,-0.2324644988924598
5143,13.0,299.98185,10955.442,0.0,-0.025714859081484742,-0.025714519652235812,0.0,0.0,0.0,-0.8021273333263043,-1.2879892169146387,-1.2400644123598288,-0.006124752552116014,0.0024279456339695777,-0.2304169940178868
5144,13.0,300.08157,10966.381000000001,0.0,-0.025719873570223206,-0.025719521862422767,0.0,0.0,0.0,-0.8150267062418732,-1.2811535277650088,-1.237325597339529,0.0014161742711655185,0.004066884763470276,-0.2259573054252498
5145,13.0,299.97992,10960.366000000002,0.0,-0.025724855068904096,-0.025724524072609944,0.0,0.0,0.0,-0.8124006051626972,-1.2838676194828689,-1.2354095414004287,-0.0036559856047426865,-0.001918733351164238,-0.22817564426668277
5146,13.0,300.02913,10993.318000000001,0.0,-0.02572986955764256,-0.02572952628279701,0.0,0.0,0.0,-0.8187150277983822,-1.2805555075559887,-1.242423562567659,0.004271411120005456,-0.008350948945424493,-0.22855315085643976
5147,13.0,300.05955,11068.548999999999,0.0,-0.02573485105632345,-0.025734528492984188,0.0,0.0,0.0,-0.8255388619218422,-1.2850179623213986,-1.254005720485729,0.006192942054695795,0.001929797535631188,-0.22505564455876279
5148,13.0,300.03904,11063.76,0.0,-0.025739865545061802,-0.025739530703171143,0.0,0.0,0.0,-0.8261792866475471,-1.2882471903900987,-1.2486802806101487,0.0036878256719100563,0.002295138031437488,-0.2284513394863918
5149,13.0,300.17417,10950.288999999999,0.0,-0.02574484704374269,-0.02574453291335832,0.0,0.0,0.0,-0.8109400051435472,-1.2730481349150689,-1.2446262669600487,-0.0025935528515137374,-0.0018313777163179081,-0.2277384471135348
5150,13.0,299.96776,10908.594,0.0,-0.025749861532481155,-0.025749535123545497,0.0,0.0,0.0,-0.8136231724683552,-1.2757557418322887,-1.226561334902179,-0.0034446554764360274,0.0018664271518520183,-0.2307039464462068
5151,13.0,299.87953999999996,10970.635,0.0,-0.025754876021219508,-0.025754504424454816,0.0,0.0,0.0,-0.8104618828188602,-1.2824172532897287,-1.2419200785929687,-0.0029990699296851566,0.007048294250537484,-0.22843373933215477
5152,13.0,299.66507,11039.52,0.0,-0.025759857519900398,-0.025759506634641993,0.0,0.0,0.0,-0.8260325984305702,-1.2833921012109386,-1.2463138350015988,-0.0016437085990464084,0.0035342553589288463,-0.2225673353606858
5153,13.0,299.77914,11035.507,0.0,-0.02576487200863886,-0.02576450884482917,0.0,0.0,0.0,-0.8181659273041902,-1.292205046605709,-1.244147506287799,-0.0006619915919634835,-0.004820550117701256,-0.23145957770828177
5154,13.0,300.02191,10993.712,0.0,-0.02576985350731975,-0.025769511055016125,0.0,0.0,0.0,-0.8194261976460692,-1.2777818367322489,-1.244606001958049,-0.0002896980827784747,-0.004292346792246647,-0.2215581889235908
5155,13.0,300.13658,10981.35,0.0,-0.025774867996057993,-0.025774513265203303,0.0,0.0,0.0,-0.8069804871977733,-1.2842992640254687,-1.246776484997259,0.0055866072166802045,0.003374518811139077,-0.23182207806405777
5156,13.0,300.06102999999996,11061.52,0.0,-0.025779849494738882,-0.025779515475390258,0.0,0.0,0.0,-0.8263041697223722,-1.2880062395163188,-1.248115393679399,-0.0009259085290650571,0.002031667674184988,-0.22183588024599682
5157,13.0,300.1351,11100.765,0.0,-0.025784863983477457,-0.025784517685577435,0.0,0.0,0.0,-0.8233092456067962,-1.2888399416985987,-1.2622063588450687,0.0031513602038150366,-0.006168356452944384,-0.22902982423348378
5158,13.0,300.04424,11021.678,0.0,-0.025789845482158347,-0.02578951989576439,0.0,0.0,0.0,-0.8265110855252933,-1.2885870344736388,-1.235216922556419,-0.0034651593014845966,-0.0038079452553649363,-0.2283433472907338
5159,13.0,299.96054,10927.021999999999,0.0,-0.02579485997089659,-0.025794522105951567,0.0,0.0,0.0,-0.8055910173356432,-1.2795664741333788,-1.236384287996629,0.005146811887625786,-0.0020156567014048277,-0.23509856411742178
5160,13.0,299.9775,11002.585,0.0,-0.025799874459635164,-0.025799524316138633,0.0,0.0,0.0,-0.8185544681875362,-1.2857566216442988,-1.240200187873229,-0.003986536867640556,-0.002987174474836167,-0.2314771778625188
5161,13.0,299.85714,11073.94,0.0,-0.025804855958316053,-0.02580452652632559,0.0,0.0,0.0,-0.8177714487752582,-1.3004729647716888,-1.2479568200387487,-0.00018935660425304182,-0.0008204372895233563,-0.23495032562779178
5162,13.0,299.85695,11001.1,0.0,-0.025809870447054517,-0.025809528736512766,0.0,0.0,0.0,-0.8199836169235822,-1.2797625380277289,-1.2443133753291689,-0.006177700138741534,-0.0013389573181447985,-0.2298158327335568
5163,13.0,299.99484,10957.652,0.0,-0.025814851945735406,-0.025814530946699943,0.0,0.0,0.0,-0.8035543542371403,-1.2878650937773888,-1.2394332588725387,0.004873076192285175,0.003046787423269507,-0.22689274805007076
5164,13.0,299.92208,11037.433,0.0,-0.02581986643447365,-0.025819533156886898,0.0,0.0,0.0,-0.8224486416343613,-1.286637237306209,-1.246018269947429,-0.0030773800782387672,0.001058492831540109,-0.2239403703061938
5165,13.0,299.98464,11147.508999999998,0.0,-0.02582484793315465,-0.02582450245779644,0.0,0.0,0.0,-0.8284682084909462,-1.2948485147915987,-1.2652476290202186,0.0027503395242873775,-0.005699120635609415,-0.2248305915790518
5166,13.0,299.85187,11140.271,0.0,-0.025829862421893113,-0.025829504667983616,0.0,0.0,0.0,-0.8308662979001191,-1.3016047651333889,-1.253893047074609,0.0005038203534581975,0.00016594177246217784,-0.22659538954322378
5167,13.0,300.01582,11020.495,0.0,-0.025834876910631355,-0.02583450687817057,0.0,0.0,0.0,-0.8172758985488512,-1.2826643849891188,-1.2500149336418689,0.005217873751589045,0.004394052075009176,-0.2256418705366188
5168,13.0,300.02047000000005,10933.747,0.0,-0.025839858409312244,-0.02583950908835775,0.0,0.0,0.0,-0.8117264493411632,-1.2773419848638385,-1.2345174760123887,0.002284648765077278,0.0030254830293169267,-0.2259714098666418
5169,13.0,300.17685,11044.51,0.0,-0.02584487289805082,-0.025844511298544703,0.0,0.0,0.0,-0.8177866779242612,-1.2939060908735887,-1.2455624087274386,-0.0007136459472213714,-0.003061549160001377,-0.23145776399060278
5170,13.0,300.01869,11117.793,0.0,-0.02584985439673171,-0.02584951350873188,0.0,0.0,0.0,-0.8409072821510872,-1.2853834416324688,-1.253240514010209,0.0015682610846753185,-0.0026739498899733074,-0.22645771925213676
5171,13.0,299.90514,11018.883999999998,0.0,-0.02585486888546995,-0.025854515718919058,0.0,0.0,0.0,-0.8153665199279103,-1.2920894347692988,-1.2420095485767988,0.0031193666292575173,-0.004576336781249276,-0.23595914782485475
5172,13.0,299.72328999999996,10954.345,0.0,-0.02585985038415084,-0.025859517929106013,0.0,0.0,0.0,-0.8166282594824342,-1.2783433799376687,-1.2348756599227388,-0.001131364258856959,0.0005670483148033116,-0.23041755130544175
5173,13.0,299.67688,11080.322,0.0,-0.025864864872889415,-0.02586452013929319,0.0,0.0,0.0,-0.8229259736239702,-1.2934090916995387,-1.2518060558436388,-0.006058862012688124,-0.004908581387714266,-0.2277826856129008
5174,13.0,299.99335,11168.961000000001,0.0,-0.025869846371570304,-0.025869522349480256,0.0,0.0,0.0,-0.8342274308668373,-1.3050971342530588,-1.2557607709839387,-0.004362949045964545,0.005956407431476644,-0.2256159617315618
5175,13.0,300.03317999999996,11094.306999999999,0.0,-0.025874860860308768,-0.02587452455966721,0.0,0.0,0.0,-0.8208543331320153,-1.2917687411126486,-1.2597692897045487,-0.004300737921624786,0.004374225405002436,-0.22401346616840778
5176,13.0,299.9685,11007.348,0.0,-0.02587987534904701,-0.02587952676985439,0.0,0.0,0.0,-0.8208355272101592,-1.2845331221485488,-1.2405903904867388,0.0008862374875723301,0.0013766581252155786,-0.2195966279224998
5177,13.0,300.03146,10995.372,0.0,-0.0258848568477279,-0.025884528980041344,0.0,0.0,0.0,-0.8083563389785592,-1.291894485450059,-1.2420676078075288,-0.0034999959544977067,-0.0005093519289341215,-0.23198624484525976
5178,13.0,300.25565,11059.934,0.0,-0.025889871336466475,-0.02588953119022852,0.0,0.0,0.0,-0.8215842075765483,-1.2912205728085486,-1.2491389789304188,0.004213016300842336,0.0002853971806090087,-0.23251319569226578
5179,13.0,300.0716,11093.123,0.0,-0.025894852835147364,-0.02589450049113806,0.0,0.0,0.0,-0.8227306088721892,-1.2971660204203186,-1.2521357674261788,0.004047302185412626,0.0004181197207952036,-0.23796193797251475
5180,13.0,300.03728,11074.302,0.0,-0.025899867323885606,-0.025899502701325017,0.0,0.0,0.0,-0.8259794331978232,-1.2887840102930788,-1.2515479810431687,0.0038321997269836665,0.0028819473373760574,-0.2281828788723968
5181,13.0,299.9322,10992.583,0.0,-0.025904848822566495,-0.025904504911512194,0.0,0.0,0.0,-0.8159523507382273,-1.2856136520551886,-1.2399047241440688,-0.0014720973680346985,-0.0055709684106617745,-0.2354024276899108
5182,13.0,299.72968,11090.193000000001,0.0,-0.02590986331130507,-0.02590950712169915,0.0,0.0,0.0,-0.8321858028428442,-1.2920812274434885,-1.2468746689319488,-0.0006909473515286944,0.0054482272452231655,-0.22316730100989776
5183,13.0,299.71419,11173.22,0.0,-0.02591484480998596,-0.025914509331886326,0.0,0.0,0.0,-0.8286667244505382,-1.3002858174782188,-1.267427231310329,-0.0022890058418322877,0.005405328667789405,-0.23095874844885378
5184,13.0,299.82388,11103.895,0.0,-0.0259198592987242,-0.025919511542073503,0.0,0.0,0.0,-0.8284397665606392,-1.2908131449433387,-1.2560538029128587,-0.0005970746034966754,0.0006829081036452823,-0.22111181172453678
5185,13.0,299.85201,11049.365,0.0,-0.025924873787462666,-0.02592451375226057,0.0,0.0,0.0,-0.8160686819822083,-1.2894447506832887,-1.2532176145579488,-0.004291023284966026,-0.0008462703237378783,-0.23371148552552778
5186,13.0,300.01777999999996,11111.851,0.0,-0.025929855286143555,-0.025929515962447636,0.0,0.0,0.0,-0.8290352131144052,-1.2926968782042487,-1.2559932105568787,-0.0005365257868734725,-0.0001087020989430619,-0.2205050876971578
5187,13.0,300.13071,11147.458999999999,0.0,-0.025934869774881908,-0.025934518172634702,0.0,0.0,0.0,-0.8282354345454732,-1.3029263472388186,-1.2573875440194886,0.004774007690257875,-0.0006226844896416745,-0.23343739124097676
5188,13.0,300.10423,11132.69,0.0,-0.02593985127356302,-0.02593952038282188,0.0,0.0,0.0,-0.8345836693369952,-1.292661009150709,-1.256814956387979,0.00045787904676914353,-0.001084426765199589,-0.22396760646888178
5189,13.0,300.16416,11106.428999999998,0.0,-0.02594486576230126,-0.025944522593008834,0.0,0.0,0.0,-0.8179321198436152,-1.3017921150768788,-1.256352711692359,0.004101818181867936,-0.0029866530563347074,-0.24263338570355078
5190,13.0,300.08977999999996,11046.588,0.0,-0.02594984726098215,-0.02594952480319601,0.0,0.0,0.0,-0.8234346657041741,-1.2909169017535789,-1.2435351992523687,-0.004026436832728376,0.0006279742124512295,-0.2322946984407018
5191,13.0,299.98236,11040.018999999998,0.0,-0.025954861749720726,-0.025954527013382966,0.0,0.0,0.0,-0.8089609351807282,-1.2969403696230488,-1.2499889944393088,0.0004419812844226565,0.00010714272730416389,-0.24189394617807378
5192,13.0,299.8742,11123.216,0.0,-0.02595987623845919,-0.02595952922356992,0.0,0.0,0.0,-0.8332308993934872,-1.2952028483515687,-1.252746047961409,-0.0018095123871099683,-0.002257637949211518,-0.2255070170808098
5193,13.0,299.85217,11134.858999999999,0.0,-0.025964857737139857,-0.025964498524479684,0.0,0.0,0.0,-0.8337457824318022,-1.2945802061651186,-1.2563932416963588,-0.00013959670244212185,0.001019164238183679,-0.2263712586211038
5194,13.0,299.8357,11071.021999999999,0.0,-0.02596987222587832,-0.02596950073466664,0.0,0.0,0.0,-0.8241817147379021,-1.2942086473534486,-1.2469239128868088,-0.0009091045056966291,-0.0008599627573742161,-0.2273272904879568
5195,13.0,300.00821,11093.511999999999,0.0,-0.02597485372455921,-0.025974502944853595,0.0,0.0,0.0,-0.8137113049620532,-1.2965058879801687,-1.261933591918149,-0.0005613129949972795,-0.0008692108531569322,-0.2299379597681098
5196,13.0,299.99029,11211.187,0.0,-0.025979868213297563,-0.025979505155040772,0.0,0.0,0.0,-0.8363430058831283,-1.3028261368039287,-1.2687517518410487,0.0004507447629475445,-0.003232530757400947,-0.22412595719450978
5197,13.0,300.16593,11212.364,0.0,-0.025984849711978453,-0.02598450736522795,0.0,0.0,0.0,-0.8347432156977412,-1.3092584510887488,-1.2642771380744386,0.0032490933435355466,-0.004786975265037675,-0.23246769063027478
5198,13.0,300.14047999999997,11130.011999999999,0.0,-0.025989864200716917,-0.025989509575415015,0.0,0.0,0.0,-0.8346262663711993,-1.294495903756799,-1.2541234601473488,-0.0009985787755745522,-0.00015751441939296283,-0.2285852810171108
5199,13.0,300.17649,11054.024,0.0,-0.025994845699397806,-0.025994511785602192,0.0,0.0,0.0,-0.8199492272151883,-1.2986268230894886,-1.2415712165835389,0.0014610292318923584,-0.0013263705227525787,-0.2339284325044388
5200,13.0,300.18971,11047.034,0.0,-0.02599986018813616,-0.025999513995789147,0.0,0.0,0.0,-0.8180309725233712,-1.2911033397719789,-1.248888098205659,-0.0007183152772596984,-0.00017511816053531682,-0.23071712883000775
5201,13.0,300.1047,11178.845,0.0,-0.026004874676874623,-0.026004516205976325,0.0,0.0,0.0,-0.8256701791348022,-1.305068763250259,-1.2673509335777988,0.0026245777589756574,0.0035148305439117664,-0.23479088059205575
5202,13.0,300.07783,11173.023000000001,0.0,-0.026009856175555512,-0.026009518416163502,0.0,0.0,0.0,-0.8393753087948932,-1.2982833313055886,-1.2586615033702186,0.00018049288489576087,0.0015639311630229885,-0.22940920533592576
5203,13.0,300.04981000000004,11060.625,0.0,-0.026014870664293865,-0.026014520626350457,0.0,0.0,0.0,-0.8136987406608133,-1.2909666523334886,-1.2574883624044388,-0.0012073550779316687,0.0014116355186675786,-0.23060292541123678
5204,13.0,299.93281,11073.171,0.0,-0.026019852162974977,-0.026019522836537634,0.0,0.0,0.0,-0.8281190019764822,-1.2930554674146388,-1.2447929466014989,0.0012933008765888586,-0.00014958352847524488,-0.22352836255053177
5205,13.0,299.88806,11256.393999999998,0.0,-0.02602486665171344,-0.02602452504672459,0.0,0.0,0.0,-0.8438370340202311,-1.3083587863249588,-1.2694669037616289,-0.0008591827169172322,0.000978512411124156,-0.22560518075049776
5206,13.0,299.84108,11273.123,0.0,-0.026029848150394108,-0.026029527256911544,0.0,0.0,0.0,-0.8481250071184211,-1.3077573210655986,-1.2708655941996687,0.0018235721441725583,0.0005282049567872704,-0.2279903208233928
5207,13.0,299.93605,11078.688,0.0,-0.026034862639132572,-0.02603452946709872,0.0,0.0,0.0,-0.8084076600961243,-1.3061889112358087,-1.253047895166199,-0.005969467617315584,-0.0018943648889092582,-0.23809532221567878
5208,13.0,299.93971,11011.511999999999,0.0,-0.02603984413781346,-0.026039498768008262,0.0,0.0,0.0,-0.8131680509209382,-1.2892808068171089,-1.2447759239998188,-0.001151118886781589,-0.00096458664625479,-0.23107670089299479
5209,13.0,299.90856,11136.581,0.0,-0.026044858626551814,-0.02604450097819544,0.0,0.0,0.0,-0.8232518145911282,-1.3016849132162986,-1.2603059069575089,-0.0016672962507743284,0.0019363794056307681,-0.23311348558150977
5210,13.0,299.93822,11216.278999999999,0.0,-0.02604987311529028,-0.026049503188382395,0.0,0.0,0.0,-0.8502238837730642,-1.3050982488281686,-1.2541466635746388,0.005156538987260775,-0.0016463860111106483,-0.22900582033861477
5211,13.0,300.00414,11146.839,0.0,-0.026054854613971168,-0.02605450539856946,0.0,0.0,0.0,-0.8319227935143872,-1.2969387484228887,-1.2594991572278886,-0.001080898527026379,-0.004846701393507185,-0.23276508966712575
5212,13.0,300.04464,11067.677,0.0,-0.02605986910270952,-0.026059507608756638,0.0,0.0,0.0,-0.8166605314981192,-1.2961548981455286,-1.251481917136649,0.005640520835951064,0.0004348614090174796,-0.2284336684046478
5213,13.0,299.97605,11101.046999999999,0.0,-0.02606485060139041,-0.026064509818943593,0.0,0.0,0.0,-0.8186075726252772,-1.2946274236197788,-1.2612059770213386,-0.004701685444495226,0.0015120876137064286,-0.23251814035275378
5214,13.0,299.86437,11264.96,0.0,-0.026069865090128874,-0.02606951202913077,0.0,0.0,0.0,-0.8448481968250252,-1.3046827149621587,-1.2747357029566189,-0.0015929373723106784,0.00017610731554793883,-0.22583551276322977
5215,13.0,299.78654,11301.393,0.0,-0.026074846588809764,-0.026074514239317947,0.0,0.0,0.0,-0.8451638343636763,-1.3168094948089788,-1.2733678153216188,-0.0027253351462696376,-0.0017892636984365782,-0.23165306794737778
5216,13.0,300.07943,11140.441,0.0,-0.026079861077548117,-0.026079516449504903,0.0,0.0,0.0,-0.8330424855373921,-1.2991220997383688,-1.2542514336349788,-0.00015287663183024885,-0.003964410727856877,-0.2266270637413498
5217,13.0,300.20861,11062.598,0.0,-0.02608487556628658,-0.02608451865969208,0.0,0.0,0.0,-0.8119760229732942,-1.3006738922665189,-1.2501037956756387,0.002036921781253528,-0.0017456610135083283,-0.23804448745816179
5218,13.0,299.99777,11189.604,0.0,-0.026089857064967692,-0.026089520869879035,0.0,0.0,0.0,-0.8285122950027972,-1.3081940318586989,-1.2646540671116386,0.0005828764263379245,-0.0031114972223558668,-0.2353269506899618
5219,13.0,299.81597999999997,11237.86,0.0,-0.026094871553705934,-0.026094523080066212,0.0,0.0,0.0,-0.8306436159256422,-1.3056324342808887,-1.279752709501759,0.00012977578598037285,0.0004000496920893306,-0.23395884013993978
5220,13.0,299.91652999999997,11130.551000000001,0.0,-0.026099853052386823,-0.026099525290253167,0.0,0.0,0.0,-0.8180220457899903,-1.3027030269167788,-1.2626846128922686,0.0019091972491730982,0.0010047878100673362,-0.23017764407926478
5221,13.0,300.0454,11105.787,0.0,-0.0261048675411254,-0.026104527500440233,0.0,0.0,0.0,-0.8231980008783172,-1.2955468467605187,-1.2571369672697588,-0.001016092266530499,0.0014792739145179686,-0.2227597414221748
5222,13.0,299.94732999999997,11172.473999999998,0.0,-0.026109849039806066,-0.026109496801349885,0.0,0.0,0.0,-0.8432904159887843,-1.2988376804352988,-1.2540249722376289,0.004017905874836436,-0.0018555593352544484,-0.22821251643782178
5223,13.0,299.85817000000003,11219.136999999999,0.0,-0.02611486352854453,-0.026114499011537062,0.0,0.0,0.0,-0.8375971764594052,-1.3079314987577886,-1.264808790401909,0.00046123354294770656,-0.003893297694763566,-0.23450064523341177
5224,13.0,299.67143,11281.673999999999,0.0,-0.02611984502722542,-0.026119501221724017,0.0,0.0,0.0,-0.8415872945581991,-1.3126124102447587,-1.275147386472249,0.0005699102397107614,-0.004466176230377276,-0.2337600607353218
5225,13.0,299.94199,11243.431,0.0,-0.026124859515963772,-0.026124503431911084,0.0,0.0,0.0,-0.8294334102712042,-1.3128809215212587,-1.2754078930729589,-0.004238733500305425,-0.00011632419176030388,-0.23198536331767278
5226,13.0,300.13167999999996,11132.815,0.0,-0.026129874004702236,-0.02612950564209804,0.0,0.0,0.0,-0.8207931328259752,-1.307424569732759,-1.255880030520709,-0.002044761601252258,0.007688788485199343,-0.2409243671573838
5227,13.0,300.1167,11160.898000000001,0.0,-0.026134855503383125,-0.026134507852285216,0.0,0.0,0.0,-0.8326080038945123,-1.304084897403159,-1.255941332151759,-0.0002963926667191787,0.005960544430309933,-0.2336844114828558
5228,13.0,299.85977,11225.618,0.0,-0.02613986999212148,-0.026139510062472393,0.0,0.0,0.0,-0.8418186904835362,-1.3073988331802187,-1.2630901155822887,-0.0013612229824672487,0.0025195873167389075,-0.23265998523425277
5229,13.0,300.06162,11172.501,0.0,-0.026144851490802368,-0.026144512272659348,0.0,0.0,0.0,-0.8237695347297231,-1.3072960896200787,-1.2650955401802089,0.003563500492590117,-0.0005369531757656525,-0.23176937892635677
5230,13.0,300.12748,11118.203000000001,0.0,-0.02614986597954083,-0.026149514482846525,0.0,0.0,0.0,-0.8195371991945243,-1.3006696366160988,-1.2594493053229687,-0.0004968514320529186,-0.0017649503569870384,-0.23256232818961478
5231,13.0,299.89117000000005,11193.323999999999,0.0,-0.02615484747822172,-0.02615451669303348,0.0,0.0,0.0,-0.8224910056210422,-1.3097398462112588,-1.270260177264919,0.0041197953664671464,0.004663499290626545,-0.2269568462513968
5232,13.0,299.86382000000003,11268.723999999998,0.0,-0.026159861966960185,-0.026159518903220658,0.0,0.0,0.0,-0.8375526947800152,-1.3129910618071288,-1.274866918844569,-0.003497906734116517,0.004125660260695965,-0.2264471003910888
5233,13.0,300.00631,11321.983999999999,0.0,-0.026164843465641074,-0.026164521113407835,0.0,0.0,0.0,-0.8481726501381233,-1.320166189740259,-1.2732617280361487,0.003118753207646977,0.005114171960829475,-0.22391662985635077
5234,13.0,299.84446,11299.261,0.0,-0.02616985795437954,-0.02616952332359479,0.0,0.0,0.0,-0.8503827411237421,-1.3172088166733888,-1.2671016740531988,0.0016244020303159985,-0.0011739250187073789,-0.23511087510613676
5235,13.0,299.87751000000003,11223.61,0.0,-0.02617487244311789,-0.026174525533781967,0.0,0.0,0.0,-0.8314724241099393,-1.3115861905434787,-1.2686386731298886,0.005602100418659265,-0.005906019821228775,-0.23437394844090778
5236,13.0,299.86744,11176.71,0.0,-0.02617985394179878,-0.026179494834691508,0.0,0.0,0.0,-0.8284026106794722,-1.310460773657409,-1.2585774036119186,0.0033812352407519364,-0.004891096237363615,-0.24313246204030578
5237,13.0,299.81687,11232.32,0.0,-0.026184868430537245,-0.026184497044878463,0.0,0.0,0.0,-0.8253158151773292,-1.3093533926231187,-1.279675398519129,0.001099827457444519,-0.0008683631377257693,-0.22993329881764976
5238,13.0,300.06276,11223.892,0.0,-0.026189849929218023,-0.02618949925506564,0.0,0.0,0.0,-0.8344750489262752,-1.3108091290417885,-1.2664985875936787,0.0008525455842571983,0.005603003427148385,-0.23955846549257975
5239,13.0,300.06636000000003,11114.426000000001,0.0,-0.026194864417956487,-0.026194501465252706,0.0,0.0,0.0,-0.8264142390807352,-1.2989774076240888,-1.2531163908729588,-0.006152786851907784,0.005103306880007175,-0.22588130153524877
5240,13.0,300.05494,11126.348,0.0,-0.026199845916637376,-0.026199503675439884,0.0,0.0,0.0,-0.8250535151239422,-1.3059292152351787,-1.2511492671288187,-0.003007080684975757,0.002308015528283398,-0.23665115711315077
5241,13.0,300.11259,11283.328000000001,0.0,-0.02620486040537573,-0.02620450588562684,0.0,0.0,0.0,-0.8360101228277751,-1.3184986840506887,-1.2753413225413888,-0.004030528539282196,-0.00022290954031695877,-0.2268678626276148
5242,13.0,300.01812,11347.778,0.0,-0.026209874894114193,-0.026209508095813794,0.0,0.0,0.0,-0.8417826390449782,-1.3238283795766888,-1.2838303318791888,-8.858475585363472e-05,0.0005048956245968186,-0.24081970855455478
5243,13.0,300.01709,11302.236,0.0,-0.026214856392795083,-0.02621451030600097,0.0,0.0,0.0,-0.836181301299669,-1.3193052311302886,-1.2801110960621287,0.0025420772133084874,-0.0009128916799328942,-0.2334025354375368
5244,13.0,299.97859,11261.876,0.0,-0.026219870881533325,-0.026219512516187926,0.0,0.0,0.0,-0.8387223096354471,-1.3161171410156487,-1.2684896240401788,0.001765629943829108,0.0005569715121613084,-0.23664975882801279
5245,13.0,299.98566,11213.415,0.0,-0.026224852380214436,-0.026224514726375103,0.0,0.0,0.0,-0.8402695526706482,-1.3057112651386689,-1.2626173330856287,0.0028442512925807473,0.0003125221897610387,-0.22936514922157777
5246,13.0,299.91754,11204.696000000002,0.0,-0.02622986686895279,-0.02622951693656228,0.0,0.0,0.0,-0.8317839985156892,-1.3121014282193288,-1.2620624773308688,0.0003004968970442347,-0.002477976985482288,-0.24047269066030674
5247,13.0,299.91643999999997,11219.473,0.0,-0.02623484836763379,-0.026234519146749347,0.0,0.0,0.0,-0.8283270931495191,-1.310750765836029,-1.2713616814486288,0.0012775727019116087,-0.0024011181150469076,-0.2347733108353218
5248,13.0,299.99192,11149.313999999998,0.0,-0.026239862856372143,-0.026239521356936413,0.0,0.0,0.0,-0.8203281726200872,-1.3008335804822788,-1.2679512842620488,0.0022955813283562377,-0.0035210642611769867,-0.2364371992220348
5249,13.0,300.07249,11167.374,0.0,-0.026244844355053032,-0.02624452356712348,0.0,0.0,0.0,-0.8176763147233692,-1.3080877419232089,-1.2688386886996288,-0.004606846653685366,-0.0009125155007007682,-0.2336714722790788
5250,13.0,299.84965,11326.851999999999,0.0,-0.026249858843791496,-0.026249525777310656,0.0,0.0,0.0,-0.8531988367291692,-1.3135470321369989,-1.2763342063143788,-0.0013935788952605286,0.0024256024931133277,-0.2236285831179228
5251,13.0,299.64448,11391.416000000001,0.0,-0.02625487333252985,-0.026254495078220197,0.0,0.0,0.0,-0.8578488238230872,-1.3219731186435886,-1.2828839562857888,-0.0015791686206768085,0.0015121648233640485,-0.2244724380662048
5252,13.0,299.91526,11321.213,0.0,-0.02625985483121074,-0.026259497288407152,0.0,0.0,0.0,-0.842577442555919,-1.3202387384474188,-1.2785498803080488,0.007518987121516253,0.006433262686913594,-0.2237704989269288
5253,13.0,300.16975,11287.489,0.0,-0.026264869319949202,-0.02626449949859433,0.0,0.0,0.0,-0.8325191418607423,-1.3183742569384087,-1.2802214389980187,-0.0015754175688066083,0.001167453288993669,-0.22996284519056576
5254,13.0,300.10668,11312.263,0.0,-0.02626985081862987,-0.026269501708781506,0.0,0.0,0.0,-0.8336007154149853,-1.3230746228272987,-1.2819700046955886,0.002990695822908697,-0.0014167816132754586,-0.23405250497918378
5255,13.0,300.17357999999996,11294.302,0.0,-0.026274865307368445,-0.02627450391896846,0.0,0.0,0.0,-0.8363877408750432,-1.3171040466130488,-1.2796938396709487,-0.002244885183452918,-0.004232916026181285,-0.24037903595356377
5256,13.0,300.17933,11240.198999999999,0.0,-0.026279846806049334,-0.026279506129155417,0.0,0.0,0.0,-0.8407749516880272,-1.3127224492056186,-1.263242305747309,-0.0006294604274329074,-0.0014842494791340185,-0.23533236144549577
5257,13.0,300.01999,11181.706,0.0,-0.026284861294787576,-0.026284508339342372,0.0,0.0,0.0,-0.8362917860905732,-1.3061511170070788,-1.2565166555585388,-0.001122217650204259,-0.003430141074053567,-0.2360031532766978
5258,13.0,300.07858999999996,11203.25,0.0,-0.026289842793468687,-0.02628951054952955,0.0,0.0,0.0,-0.8304662971581422,-1.3126600329994589,-1.2623817524373788,-0.0040625067124381966,-0.001103898797671329,-0.23536245497346575
5259,13.0,299.96897,11287.503,0.0,-0.02629485728220704,-0.026294512759716726,0.0,0.0,0.0,-0.8368943861900452,-1.3171260341402187,-1.277098703514829,0.0032869068240174468,-0.0006677516350719553,-0.2353850403181948
5260,13.0,299.85155,11404.416000000001,0.0,-0.026299871770945282,-0.026299514969903792,0.0,0.0,0.0,-0.8414522384523703,-1.3263402265745887,-1.2988651395130089,0.0018965710383519881,-0.0006837730645931474,-0.2308774452608298
5261,13.0,299.98277,11335.986,0.0,-0.026304853269626394,-0.02630451718009097,0.0,0.0,0.0,-0.8415869905831691,-1.3201415677628288,-1.2841280247585687,0.007805609838253712,-0.001118267899989449,-0.23136014747596878
5262,13.0,299.97822,11255.08,0.0,-0.026309867758364636,-0.026309519390277925,0.0,0.0,0.0,-0.8417901877582231,-1.318148302166109,-1.2613248312580687,-0.004890017227332125,-0.004248955268639235,-0.23465083929573477
5263,13.0,299.89555,11299.306,0.0,-0.026314849257045747,-0.0263145216004651,0.0,0.0,0.0,-0.8434718282866882,-1.3170126514540288,-1.2742224917809688,-0.0020928755796007377,0.001107414572868309,-0.23318622680618878
5264,13.0,300.25943,11338.883,0.0,-0.0263198637457841,-0.02631952381065228,0.0,0.0,0.0,-0.8491488862119702,-1.3221353399845988,-1.2754530840274187,-0.007205554617732873,0.008778288897624663,-0.23186989333627678
5265,13.0,300.0584,11277.339,0.0,-0.02632484524446499,-0.026324493111561598,0.0,0.0,0.0,-0.8299492761621162,-1.3187685125523188,-1.279311844383249,0.0027639014715758374,0.005741968651863183,-0.23522256566465977
5266,13.0,300.05268,11248.228000000001,0.0,-0.026329859733203453,-0.026329495321748775,0.0,0.0,0.0,-0.8299553860602192,-1.313513189583659,-1.2757120707529788,-0.0022037570579188878,0.0034605182107265565,-0.2378295771119518
5267,13.0,300.10318,11314.988000000001,0.0,-0.026334874221941806,-0.026334497531935952,0.0,0.0,0.0,-0.8396193906114823,-1.3198769068367087,-1.2799774483739386,-0.002142436073791978,-0.009640565138024701,-0.2328835183388138
5268,13.0,300.08945,11305.858,0.0,-0.026339855720622696,-0.026339499742122907,0.0,0.0,0.0,-0.8524263956479353,-1.3136497756971388,-1.2706223128506589,-0.001001509824403824,-0.007931522375180312,-0.23404363904080877
5269,13.0,300.02297999999996,11371.267,0.0,-0.02634487020936116,-0.026344501952310084,0.0,0.0,0.0,-0.8493032345997032,-1.3295586128672188,-1.2777193192010787,0.003129775950184837,-0.01027103660667239,-0.23473781668431878
5270,13.0,300.05574,11392.284,0.0,-0.026349851708041827,-0.02634950416249704,0.0,0.0,0.0,-0.8521381361269863,-1.3278037650190289,-1.2830279391249988,-0.0004553337827829455,-0.002227668341728748,-0.2343701284880308
5271,13.0,299.84021,11301.582,0.0,-0.026354866196780402,-0.026354506372684217,0.0,0.0,0.0,-0.8276726653074322,-1.3244975299427288,-1.2832284613197886,-0.0027012370191413374,0.0019019458235074382,-0.2329524700081188
5272,13.0,300.13613,11305.076000000001,0.0,-0.02635984769546129,-0.02635950858287117,0.0,0.0,0.0,-0.8279036255352262,-1.3265359864939088,-1.2820210725006287,-0.0024074145524933177,0.007829293140791073,-0.23762407985917078
5273,13.0,300.08718999999996,11365.61,0.0,-0.026364862184199533,-0.026364510793058238,0.0,0.0,0.0,-0.8424598650143151,-1.3246739367851386,-1.2877277983888387,0.005890419518714145,0.006215196066642094,-0.23018659107764777
5274,13.0,299.88541000000004,11298.993999999999,0.0,-0.026369843682880645,-0.026369513003245415,0.0,0.0,0.0,-0.8456969255062882,-1.3215212090989887,-1.2673938953820387,-0.0017632819393723783,-0.001017152430110129,-0.23882884436057178
5275,13.0,299.9367,11217.444,0.0,-0.026374858171618887,-0.02637451521343237,0.0,0.0,0.0,-0.8324450226159272,-1.3167038128235486,-1.2606739193938288,0.002235716080647998,-0.008121094781439653,-0.23886167366381175
5276,13.0,299.83769,11273.777,0.0,-0.02637987266035724,-0.026379517423619547,0.0,0.0,0.0,-0.8398175620660403,-1.3167871019817687,-1.2703419465479886,-0.003634978701019466,-0.0005749668744673124,-0.23869461911982479
5277,13.0,299.80351,11349.568000000001,0.0,-0.02638485415903835,-0.026384519633806724,0.0,0.0,0.0,-0.8380557025271581,-1.3258313723743687,-1.2860982895780186,-0.0034210492822312768,0.004524402951348806,-0.2357900465156658
5278,13.0,299.73162,11379.428,0.0,-0.026389868647776815,-0.02638952184399368,0.0,0.0,0.0,-0.8421134956001312,-1.3279920268876089,-1.2889562628100788,-0.001202615904563949,0.0012352352623832288,-0.23806736664541978
5279,13.0,299.83456,11353.651000000002,0.0,-0.026394850146457705,-0.02639449114490322,0.0,0.0,0.0,-0.8478313469744392,-1.3168850832664385,-1.2865098717686387,-0.002402085464917378,-0.002074661497128148,-0.2305429511378178
5280,13.0,299.90147,11317.771999999999,0.0,-0.026399864635196058,-0.026399493355090398,0.0,0.0,0.0,-0.8483242728830873,-1.319194888194399,-1.2728011045406888,0.0032090422015328066,0.0028167999155715075,-0.23267554875578877
5281,13.0,300.04859,11303.771,0.0,-0.026404846133876947,-0.026404495565277353,0.0,0.0,0.0,-0.8425649390496852,-1.3199603986449489,-1.273538851938499,-0.0012538464375700087,-0.0035394209079386467,-0.2353290278526668
5282,13.0,299.87302,11388.558,0.0,-0.02640986062261541,-0.02640949777546453,0.0,0.0,0.0,-0.8506775766378403,-1.3255723856488089,-1.2855873075525885,0.004868250386033905,0.0017107730900401583,-0.2306046074064028
5283,13.0,299.96924,11402.59,0.0,-0.026414842121296078,-0.026414499985651485,0.0,0.0,0.0,-0.8433208945517922,-1.3307132113561688,-1.2920685618172385,0.0025774674048512276,-0.0015130768497790585,-0.23403814722526678
5284,13.0,299.97258,11261.208999999999,0.0,-0.026419856610034542,-0.026419502195838662,0.0,0.0,0.0,-0.8242956141816432,-1.314496548805709,-1.2843341198289089,0.0017497971004165282,0.01319125581887559,-0.22887462471566677
5285,13.0,300.13674,11279.17,0.0,-0.026424871098773117,-0.02642450440602584,0.0,0.0,0.0,-0.8328496539108612,-1.3245161737445688,-1.2712201304096589,-0.0017835287028705783,0.004526546684585376,-0.23614005349770878
5286,13.0,300.15592999999996,11435.319,0.0,-0.026429852597453785,-0.026429506616212795,0.0,0.0,0.0,-0.8552050921921711,-1.3287024165327186,-1.2921440489496887,-0.002108048797198218,-0.0015700714586289884,-0.22995842742012979
5287,13.0,300.24039,11431.833999999999,0.0,-0.02643486708619225,-0.02643450882639986,0.0,0.0,0.0,-0.8577555946813862,-1.3322863834614287,-1.2849501758897088,-0.00027659632328793174,-0.003088398767776227,-0.2390831093406658
5288,13.0,299.94924,11342.441,0.0,-0.026439848584873138,-0.026439511036586816,0.0,0.0,0.0,-0.8423032773438612,-1.3267948718944589,-1.2787206129498987,0.0014315544957584285,-0.0014554474397414788,-0.23641142213949076
5289,13.0,299.92327,11372.56,0.0,-0.02644486307361149,-0.026444513246773993,0.0,0.0,0.0,-0.8405613990969512,-1.3264372959341686,-1.2899756937356888,0.002179674838817158,0.0014553318279050687,-0.23987692999900975
5290,13.0,299.73767000000004,11375.829,0.0,-0.026449844572292602,-0.02644951545696117,0.0,0.0,0.0,-0.8379178397185522,-1.3297048248566488,-1.290345428697179,-0.003334362291125937,0.0014744026133372086,-0.23658153669877974
5291,13.0,299.88196,11341.788,0.0,-0.026454859061031066,-0.026454517667148125,0.0,0.0,0.0,-0.8402718527483752,-1.3280821048214988,-1.2792664507787688,0.0034642279219926765,0.002113259942462518,-0.23823075322404477
5292,13.0,300.02717,11363.338,0.0,-0.02645987354976931,-0.026459519877335302,0.0,0.0,0.0,-0.8461233315458712,-1.324161130909529,-1.2838863646097187,0.004765840489151836,0.0066374863856439046,-0.2323583508119838
5293,13.0,299.94696,11324.732,0.0,-0.026464855048450198,-0.026464489178244843,0.0,0.0,0.0,-0.8419345454999703,-1.3264510761355288,-1.2740502392639688,0.0016557000086798684,0.0005990724185863444,-0.23652983054617674
5294,13.0,299.87908999999996,11337.798999999999,0.0,-0.026469869537188773,-0.0264694913884318,0.0,0.0,0.0,-0.8400995293038681,-1.3236977716387988,-1.282610581408809,1.818492822746268e-05,-0.007578181395008273,-0.23458118848386078
5295,13.0,300.14771,11446.681999999999,0.0,-0.026474851035869662,-0.026474493598618976,0.0,0.0,0.0,-0.8498158884877981,-1.3312844817625487,-1.2984052252926186,-0.0013171257301651889,-0.0005659835206707245,-0.23844407276759774
5296,13.0,300.03492,11457.086000000001,0.0,-0.026479865524607904,-0.02647949580880593,0.0,0.0,0.0,-0.8583334917434202,-1.3308437179690489,-1.2934906583325887,0.003073650203295657,0.01052543432252949,-0.23218049502193078
5297,13.0,300.09126000000003,11358.581,0.0,-0.026484847023288793,-0.026484498018993108,0.0,0.0,0.0,-0.8456864687652562,-1.3247380755164686,-1.282300526878209,-0.002085499828147808,0.0038533687507228864,-0.23841074697180875
5298,13.0,300.02519,11365.698999999999,0.0,-0.02648986151202737,-0.026489500229180285,0.0,0.0,0.0,-0.8488826040856903,-1.3262279584635088,-1.2797779394292488,-0.008305761233364812,-0.0008874853050704802,-0.2355285773273608
5299,13.0,299.9002,11424.194,0.0,-0.026494843010708036,-0.02649450243936724,0.0,0.0,0.0,-0.8547735996370861,-1.3307787686376387,-1.2871174165285988,-0.003956523487753466,-0.002605490457566888,-0.23701449846650977
5300,13.0,299.89142999999996,11406.423,0.0,-0.0264998574994465,-0.026499504649554417,0.0,0.0,0.0,-0.8463189597426782,-1.3299177087026588,-1.2910311963648589,0.004126218460176056,0.0007818093180810723,-0.23058150530412277
5301,13.0,300.01147000000003,11366.94,0.0,-0.026504871988184964,-0.026504506859741483,0.0,0.0,0.0,-0.8365038289390003,-1.3308869837483188,-1.2878752262783888,0.01022730777210669,-0.001201856169638969,-0.24090082935756077
5302,13.0,300.01984,11368.063,0.0,-0.026509853486865742,-0.02650950906992844,0.0,0.0,0.0,-0.8454224259216971,-1.3252499694669886,-1.284934977138209,-0.0016045817437848886,-0.006340009429860214,-0.2319549759471738
5303,13.0,300.19319,11368.386,0.0,-0.026514867975604206,-0.026514511280115616,0.0,0.0,0.0,-0.8416935034336813,-1.3356201789404487,-1.2783918132924488,0.003144002184238857,0.0003669716663472836,-0.24097921438529676
5304,13.0,300.18532999999996,11397.696000000002,0.0,-0.026519849474285317,-0.02651951349030257,0.0,0.0,0.0,-0.8490199298717431,-1.3295215279135588,-1.286073566275579,0.0003169931963572927,0.004686644253385776,-0.2362523418737908
5305,13.0,300.111,11462.127,0.0,-0.02652486396302356,-0.026524515700489748,0.0,0.0,0.0,-0.8553080991973372,-1.3383678092366187,-1.2905244699898488,-0.0017905039165589784,-0.0011753378946468191,-0.23812539547864678
5306,13.0,300.03357,11413.872,0.0,-0.02652984546170445,-0.026529517910676703,0.0,0.0,0.0,-0.8415629157607932,-1.3345262741324888,-1.2934428329278689,-0.006838168065999644,-0.008227907655306262,-0.24034415988512178
5307,13.0,299.8855,11370.761999999999,0.0,-0.026534859950443024,-0.02653452012086388,0.0,0.0,0.0,-0.8336688666167112,-1.3340374822842487,-1.2887212901118885,-0.0011225838387903988,-0.0029735789889693974,-0.24383245573938975
5308,13.0,299.815,11442.925,0.0,-0.026539841449123913,-0.02653948942177342,0.0,0.0,0.0,-0.8533349972776072,-1.3324008807227288,-1.2926274705723988,0.003484061684750116,0.0032970922166726665,-0.2385504741605988
5309,13.0,299.7861,11445.771,0.0,-0.026544855937862155,-0.026544491631960376,0.0,0.0,0.0,-0.8558863914269101,-1.3344656817765088,-1.2888766213522187,-0.0045511032060589155,-0.0012744611121795187,-0.23819943366345378
5310,13.0,299.88108,11333.368,0.0,-0.02654987042660073,-0.026549493842147553,0.0,0.0,0.0,-0.8422829819443582,-1.3245001643929886,-1.2782778226561988,-0.003078505697774857,-0.005611994805885765,-0.23299309120462774
5311,13.0,299.87476000000004,11358.909,0.0,-0.02655485192528162,-0.02655449605233473,0.0,0.0,0.0,-0.8424560855914421,-1.3308157522662887,-1.279552795257029,-0.004280563200208696,0.0017103478289731886,-0.2315491591496228
5312,13.0,299.92925,11455.442,0.0,-0.02655986641401986,-0.026559498262521797,0.0,0.0,0.0,-0.8492751777044342,-1.3305960796446088,-1.3022969162766989,0.008340212243389862,0.00973417769356354,-0.23106617322445577
5313,13.0,300.06863,11453.416000000001,0.0,-0.02656484791270075,-0.026564500472708974,0.0,0.0,0.0,-0.8512918493784641,-1.3349213403464788,-1.2953393331400387,-0.00045589167828800556,0.00020236859991722584,-0.2379303954969018
5314,13.0,300.03431,11442.6,0.0,-0.026569862401439215,-0.02656950268289593,0.0,0.0,0.0,-0.8522921906721902,-1.3358084408090287,-1.2901640569292787,0.0014604299957832188,-0.0061236853971106935,-0.2352355656634428
5315,13.0,300.05809,11448.083,0.0,-0.026574843900119993,-0.026574504893083106,0.0,0.0,0.0,-0.8575604325796252,-1.3330408494858887,-1.2893301520969789,0.000996457354105184,-0.0029208157125370673,-0.24376450718768375
5316,13.0,300.09468,11432.919,0.0,-0.026579858388858457,-0.026579507103270283,0.0,0.0,0.0,-0.8502258697432602,-1.334657084720399,-1.2904390530064187,0.0019698803923620585,0.0032878778215882777,-0.23225774520955478
5317,13.0,299.9384,11424.038,0.0,-0.02658487287759692,-0.02658450931345724,0.0,0.0,0.0,-0.8488884100087631,-1.3331809819747187,-1.2905530436426687,-0.003161298464770867,-0.0011635014109536487,-0.23966240468783778
5318,13.0,299.93278,11461.382,0.0,-0.02658985437627781,-0.026589511523644194,0.0,0.0,0.0,-0.8448938640070321,-1.3354226964959588,-1.3036575085109787,-0.0030722686367843067,-0.0057738743776370345,-0.2359350426049758
5319,13.0,300.05162,11389.461000000001,0.0,-0.026594868865016164,-0.02659451373383115,0.0,0.0,0.0,-0.8456713612062652,-1.3310901403933686,-1.2853503083541988,0.0010434775796332191,0.004760657714890336,-0.24464547748712875
5320,13.0,299.84529,11350.704,0.0,-0.026599850363697275,-0.026599515944018326,0.0,0.0,0.0,-0.8367902342122662,-1.332219306304809,-1.2813209166815287,0.004897197624165775,0.00896540265251635,-0.23997907574159075
5321,13.0,299.77123,11455.376,0.0,-0.026604864852435517,-0.026604518154205503,0.0,0.0,0.0,-0.8575033359364902,-1.3373632730874787,-1.2872816643698088,0.0014293960703954088,-0.0024454199425441576,-0.23840366435360977
5322,13.0,299.89734,11496.188999999998,0.0,-0.026609846351116406,-0.026609487455115044,0.0,0.0,0.0,-0.8577512579709582,-1.3388325870574886,-1.2979706423247288,-0.0015242478308065484,-0.004520725461435866,-0.23198642723027776
5323,13.0,299.82327999999995,11419.354,0.0,-0.02661486083985487,-0.026614489665302,0.0,0.0,0.0,-0.8418164309358132,-1.3354365780223287,-1.2939456076274887,0.0025048663126610573,0.004019097254304016,-0.23571190466795378
5324,13.0,299.80607000000003,11421.876,0.0,-0.02661984233853587,-0.026619491875489176,0.0,0.0,0.0,-0.8387943314525552,-1.3340409273345886,-1.2991298004391287,0.006627275053786124,0.007400131567561123,-0.23776765739834077
5325,13.0,299.86407,11476.93,0.0,-0.026624856827274113,-0.026624494085676242,0.0,0.0,0.0,-0.8545961187495702,-1.3362386668014887,-1.2978654669643488,-0.0032588840752768174,0.0003472109589220536,-0.23662374869794578
5326,13.0,299.94535,11494.517,0.0,-0.026629871316012577,-0.02662949629586342,0.0,0.0,0.0,-0.8557579011817292,-1.3393521817087688,-1.298936168345019,-0.0038672041742133364,-0.007965306362664534,-0.24045114896318076
5327,13.0,299.92686000000003,11471.178,0.0,-0.026634852814693466,-0.026634498506050375,0.0,0.0,0.0,-0.8609899092655882,-1.3343430785144088,-1.2916186787728388,-0.002436030356517478,0.0006437507495557523,-0.23933654345567776
5328,13.0,299.96172,11432.091999999999,0.0,-0.02663986730343182,-0.026639500716237552,0.0,0.0,0.0,-0.8541490728054502,-1.3288403198713288,-1.2920812274434885,0.0048525430843087145,0.0036467057537018363,-0.23465858052649877
5329,13.0,299.98267000000004,11401.798999999999,0.0,-0.02664484880211271,-0.02664450292642473,0.0,0.0,0.0,-0.8429155134517842,-1.3296029932215987,-1.2933436357430788,0.0018458864444998082,-0.0029364323283783073,-0.23561076204297177
5330,13.0,300.00678999999997,11457.153999999999,0.0,-0.026649863290851172,-0.026649505136611684,0.0,0.0,0.0,-0.8489976586345451,-1.3328806546450787,-1.3008105797050087,-0.004597463957759366,-0.003909659454728346,-0.23455329370860778
5331,13.0,299.94961,11518.998,0.0,-0.02665484478953206,-0.02665450734679886,0.0,0.0,0.0,-0.8583465018747042,-1.3433458056529088,-1.2997955057548287,0.001165157264267069,0.0057664717750564535,-0.23870850064619475
5332,13.0,299.80977,11467.024,0.0,-0.026659859278270415,-0.026659509556985816,0.0,0.0,0.0,-0.8522485905203873,-1.3401756500650386,-1.2932648048852988,0.001024879272722709,0.003960480432043986,-0.2425099617088698
5333,13.0,300.03826000000004,11439.226999999999,0.0,-0.026664840776951526,-0.02666451176717277,0.0,0.0,0.0,-0.8549916409261051,-1.3348018781596886,-1.2874458108860087,0.0007442174455285433,0.001908153500245088,-0.24086262982879078
5334,13.0,300.09307,11518.938999999998,0.0,-0.026669855265689768,-0.02666951397735995,0.0,0.0,0.0,-0.8597859958942712,-1.3427249873166387,-1.2989587638222488,-0.0035166917830204572,-0.004195344915123306,-0.23740625135267276
5335,13.0,300.24369,11535.431,0.0,-0.02667486975442812,-0.026674516187547015,0.0,0.0,0.0,-0.8583320123982742,-1.3399186898396789,-1.3082322313874688,0.001091527925875419,0.0019504035976148483,-0.23521192653860976
5336,13.0,300.1458,11470.069,0.0,-0.02667985125310912,-0.026679485488456667,0.0,0.0,0.0,-0.8475186985235831,-1.3397551512735386,-1.2993406577849387,0.002201400947461358,0.003712308124801286,-0.24093618165354977
5337,13.0,300.13022,11459.681999999999,0.0,-0.026684865741847474,-0.026684487698643622,0.0,0.0,0.0,-0.8507219569922203,-1.3375057360515386,-1.2952292941791788,0.0015862969364553185,-0.003065063719298237,-0.23603926551026175
5338,13.0,300.22565,11462.711000000001,0.0,-0.026689847240528364,-0.026689489908830688,0.0,0.0,0.0,-0.8539365030669712,-1.3380146915767688,-1.2924267457275886,-0.00045540491293996556,-0.005360209451436485,-0.24488906281116876
5339,13.0,300.22999,11475.867,0.0,-0.026694861729266828,-0.026694492119017865,0.0,0.0,0.0,-0.8594433147104512,-1.3408181519534486,-1.2881156705271186,-0.0026010296240016376,-0.0001015631744360049,-0.23600729746960677
5340,13.0,300.08353999999997,11535.636999999999,0.0,-0.026699843227947717,-0.02669949432920482,0.0,0.0,0.0,-0.8562391139192213,-1.3467420173380886,-1.3035643908267887,0.0007217498201961613,0.0006733954583939574,-0.24099581142193477
5341,13.0,299.94214,11521.681,0.0,-0.02670485771668607,-0.026704496539391998,0.0,0.0,0.0,-0.8535336044297082,-1.3450726877983386,-1.3036969239398686,-0.0030663673668768973,-0.0020011207167952376,-0.23049739541332176
5342,13.0,299.88147000000004,11469.612,0.0,-0.026709872205424534,-0.026709498749579175,0.0,0.0,0.0,-0.8458866464550122,-1.3418147847518087,-1.2987741496540288,0.0005273370979441195,-0.0025505512265448075,-0.2401467483681388
5343,13.0,299.92784,11553.766000000001,0.0,-0.026714853704105423,-0.02671450095976613,0.0,0.0,0.0,-0.8599960527725021,-1.3482641216383087,-1.3037962224496686,0.0014039604531351085,0.0025444362621913075,-0.2358288641269968
5344,13.0,300.07316000000003,11598.571000000002,0.0,-0.026719868192843776,-0.026719503169953307,0.0,0.0,0.0,-0.8708580026519931,-1.3493409025195788,-1.3054771030405588,0.0019700425123780584,0.002360498843713098,-0.2375007774545018
5345,13.0,300.02533,11513.963,0.0,-0.026724849691524666,-0.026724505380140262,0.0,0.0,0.0,-0.8653734622457112,-1.3444964524664687,-1.2900872525716989,-0.0007420899648235772,-0.003887558038247106,-0.23371876066124578
5346,13.0,300.10836,11461.579,0.0,-0.02672986418026313,-0.02672950759032744,0.0,0.0,0.0,-0.8456139403230982,-1.3421356810584788,-1.2962840875332788,0.001118769357463939,-0.0034211215269634066,-0.23813251862684975
5347,13.0,300.21811,11510.873,0.0,-0.02673484567894402,-0.026734509800514616,0.0,0.0,0.0,-0.8542513198730413,-1.3410828128795687,-1.3036838530135788,-0.0009148834661844682,0.0016630032114256384,-0.23448795934215977
5348,13.0,300.2085,11541.42,0.0,-0.026739860167682372,-0.02673951201070157,0.0,0.0,0.0,-0.8546514726025332,-1.3469900609625687,-1.3066618963824888,-0.0033495460465244567,0.0019135672955293884,-0.24267405756256477
5349,13.0,300.16794,11524.94,0.0,-0.026744841666363373,-0.026744514220888638,0.0,0.0,0.0,-0.8518795040389611,-1.3479765612599288,-1.3034377345642887,-0.005355493278846035,-0.0007287975319292163,-0.24427234813780377
5350,13.0,299.97787999999997,11510.253,0.0,-0.026749856155101726,-0.026749516431075593,0.0,0.0,0.0,-0.8572972915286551,-1.3455362497190886,-1.2959961218548588,0.005476055855244635,-0.0004790935249078495,-0.24526203004047775
5351,13.0,299.93867,11503.008999999998,0.0,-0.02675487064384019,-0.026754485731985245,0.0,0.0,0.0,-0.8585294137827562,-1.3412679336728386,-1.2968300266871589,0.003469842847421827,0.000991080025691983,-0.24078220816835377
5352,13.0,299.98798999999997,11529.588,0.0,-0.02675985214252108,-0.02675948794217231,0.0,0.0,0.0,-0.8474590180926931,-1.3493923756246589,-1.3078555050002887,0.004471300641433016,0.001151033064498119,-0.2417510272514688
5353,13.0,300.08657,11582.446000000002,0.0,-0.026764866631259432,-0.026764490152359488,0.0,0.0,0.0,-0.8587683482888372,-1.3457596713661386,-1.3162464317284088,-0.004259618104741576,-0.005780614618627244,-0.2352298408003778
5354,13.0,300.03837000000004,11535.688,0.0,-0.02676984812994032,-0.026769492362546443,0.0,0.0,0.0,-0.8523916209045032,-1.3460532099201088,-1.3081162142510185,0.000944696891296824,0.003251840163231637,-0.2369056247432648
5355,13.0,300.05363,11441.491000000002,0.0,-0.026774862618678785,-0.02677449457273362,0.0,0.0,0.0,-0.8483135020345242,-1.3381746837675588,-1.2914393335051386,0.0020571680381266783,0.0033983291752389764,-0.24177687526151978
5356,13.0,300.16628,11525.238000000001,0.0,-0.026779844117359675,-0.026779496782920575,0.0,0.0,0.0,-0.8599265742131451,-1.3482839813402687,-1.295173869398709,0.0006958011640127283,0.003955548031882196,-0.24069137029688878
5357,13.0,300.04506000000003,11616.203000000001,0.0,-0.026784858606098028,-0.026784498993107753,0.0,0.0,0.0,-0.8776336769982003,-1.3452216355630386,-1.3081804543073587,-0.007843979086415463,-0.006199585732951474,-0.23142852159271676
5358,13.0,299.90756,11566.81,0.0,-0.026789840104778917,-0.026789501203294708,0.0,0.0,0.0,-0.8536563900768261,-1.3541017594394387,-1.3082634394905488,-0.0017738988752451883,-0.001009154705215815,-0.24301090242580875
5359,13.0,300.09975,11522.321000000002,0.0,-0.02679485459351738,-0.026794503413481885,0.0,0.0,0.0,-0.8532423456884632,-1.3461964834842486,-1.303058981676909,0.001991440733289898,0.003181484230613047,-0.23596676746560677
5360,13.0,300.11342,11547.243,0.0,-0.026799869082255623,-0.026799505623669062,0.0,0.0,0.0,-0.8580878495216772,-1.3436542389833486,-1.3083314285722587,-0.0004664357310811225,0.001925938572625338,-0.24455474094067375
5361,13.0,300.18692999999996,11576.403999999999,0.0,-0.026804850580936623,-0.026804507833856128,0.0,0.0,0.0,-0.8666023319669911,-1.3476494841276487,-1.3046859573624787,-0.0023988433685724077,-0.006528988274210974,-0.23892595425015578
5362,13.0,300.42655,11568.863000000001,0.0,-0.026809865069675087,-0.026809510044043194,0.0,0.0,0.0,-0.8667114083402562,-1.3448215030985486,-1.3051126369795887,-0.004164181091072676,-0.002077648457097938,-0.2428076039257448
5363,13.0,299.96677,11557.97,0.0,-0.026814846568355977,-0.02681451225423026,0.0,0.0,0.0,-0.8612514493814002,-1.3493027029908087,-1.3027801352493886,0.001023813738917549,0.007032497073528423,-0.23578990466065178
5364,13.0,300.03222999999997,11525.288,0.0,-0.02681986105709444,-0.026819514464417216,0.0,0.0,0.0,-0.8505926865444622,-1.3475756181953586,-1.3052315925413287,-0.004159242510085277,0.0011628307407124591,-0.2439810893965588
5365,13.0,299.96312,11530.862,0.0,-0.02682484255577533,-0.026824483765326868,0.0,0.0,0.0,-0.8515347963549411,-1.3483170132935287,-1.3052424343173987,-0.0038773198552616763,-0.0035011230939089467,-0.23878892230663176
5366,13.0,299.84752000000003,11602.238000000001,0.0,-0.026829857044513683,-0.026829485975513934,0.0,0.0,0.0,-0.8607725265891343,-1.3599115328628186,-1.3061066353276887,-0.002283378453426908,-0.0019611650229519185,-0.24596070651443178
5367,13.0,300.08223,11620.421,0.0,-0.026834871533252147,-0.02683448818570111,0.0,0.0,0.0,-0.8687537659043211,-1.3554228349198187,-1.3081412415284885,0.004798308163431146,-0.0010764317152855388,-0.2423064402937838
5368,13.0,300.0073,11526.131000000001,0.0,-0.026839853031933036,-0.026839490395888066,0.0,0.0,0.0,-0.8610122615627942,-1.3487027576065986,-1.2939409466770289,0.003963628194804647,-0.006762533606985104,-0.24355304189181376
5369,13.0,299.8538,11526.831,0.0,-0.02684486752067128,-0.02684449260607502,0.0,0.0,0.0,-0.8586354909357251,-1.3445872396754286,-1.3006459265637589,3.1452126128083173e-05,-0.01034773051999149,-0.2387647562917468
5370,13.0,299.88916,11573.111,0.0,-0.02684984901935228,-0.026849494816262198,0.0,0.0,0.0,-0.8562558224133703,-1.3480241840146288,-1.3136566657978186,0.00090367673769345,0.003430579406046827,-0.2413215814615858
5371,13.0,300.0647,11549.606000000002,0.0,-0.026854863508090743,-0.026854497026449153,0.0,0.0,0.0,-0.8557646899573992,-1.3480878161209087,-1.3069393242598686,-0.0007570374404312784,0.012908382735458187,-0.24009187074272278
5372,13.0,300.05852999999996,11556.777,0.0,-0.026859845006771632,-0.02685949923663633,0.0,0.0,0.0,-0.8598003840456911,-1.3448296090993486,-1.3083417637232788,0.0014267147066557785,0.0044560747348303354,-0.24342277845895774
5373,13.0,300.08187999999996,11577.98,0.0,-0.026864859495509874,-0.026864501446823508,0.0,0.0,0.0,-0.8688648991752892,-1.3460096401658088,-1.3045422784982987,-0.0022803485316528777,-0.005427048696933005,-0.23757935499975677
5374,13.0,300.24636,11581.19,0.0,-0.026869840994190763,-0.026869503657010574,0.0,0.0,0.0,-0.8656024972983152,-1.3535380884088088,-1.3012518501235588,0.0012816300592870386,-0.0027073424589438974,-0.24544091934563275
5375,13.0,300.45673999999997,11655.082,0.0,-0.02687485548292934,-0.02687450586719775,0.0,0.0,0.0,-0.8695763628655052,-1.3545592418595886,-1.3187181540223487,0.005405086602340515,-0.0005510308065600065,-0.2346500286956548
5376,13.0,300.40745,11693.626,0.0,-0.02687986997166758,-0.026879508077384706,0.0,0.0,0.0,-0.8690627767873182,-1.3653519766247488,-1.3201554492891987,-0.0005697677564816994,-0.0013567528270010784,-0.24012400090339375
5377,13.0,300.05995,11592.261999999999,0.0,-0.026884851470348692,-0.026884510287571883,0.0,0.0,0.0,-0.8618311398961112,-1.3533785015180588,-1.3085486693936987,0.002655473679699848,-0.008889480126498381,-0.23381206073045377
5378,13.0,300.13093,11549.233,0.0,-0.026889865959087045,-0.02688951249775906,0.0,0.0,0.0,-0.8548741647095112,-1.3538737781669388,-1.3019306263655488,-0.0019599403075560478,-0.0013955780377078286,-0.24207831716626976
5379,13.0,300.04192,11616.013,0.0,-0.026894847457767934,-0.02689448179866838,0.0,0.0,0.0,-0.8672682298002101,-1.3578431854336885,-1.3058664950539887,-0.0025649340077392776,0.0016392879915101282,-0.23767156075885676
5380,13.0,300.14822000000004,11623.75,0.0,-0.026899861946506398,-0.026899484008855556,0.0,0.0,0.0,-0.8669641635777012,-1.3509508556034686,-1.3154148573713387,-0.005903027592358464,-0.0020900866087004877,-0.23654334730251078
5381,13.0,299.85975,11571.665,0.0,-0.026904843445187288,-0.026904486219042734,0.0,0.0,0.0,-0.8510155360761943,-1.3533218608374686,-1.3131598692737887,-0.0005918545011014914,-0.003069556267591617,-0.2396430414784268
5382,13.0,299.70159,11568.776000000002,0.0,-0.02690985793392553,-0.02690948842922969,0.0,0.0,0.0,-0.8485545137033101,-1.3517395694813088,-1.316324958611159,0.006644595348345503,0.01045272045560319,-0.24232269282538774
5383,13.0,299.8409,11643.782,0.0,-0.02691483943260653,-0.026914490639416644,0.0,0.0,0.0,-0.863106619121991,-1.3601373863101087,-1.3161749975963588,0.008113185351159053,0.009955205537252291,-0.24403761861963777
5384,13.0,300.14024,11635.956,0.0,-0.026919853921344994,-0.02691949284960382,0.0,0.0,0.0,-0.8613005109512422,-1.3629666845643387,-1.3127728077355887,0.003769117004907887,0.0012600154081538388,-0.24895955190789476
5385,13.0,299.98742999999996,11629.662,0.0,-0.026924868410083236,-0.026924495059790776,0.0,0.0,0.0,-0.871199508465697,-1.3558990624668186,-1.3080281628173287,-0.003010092469572997,-0.006199066239625204,-0.2399949432381568
5386,13.0,300.11142,11627.837,0.0,-0.026929849908764125,-0.026929497269977953,0.0,0.0,0.0,-0.8631144211477612,-1.3615589762004088,-1.309898622501929,0.0008677434136996072,0.0026620638583502478,-0.24221122518188679
5387,13.0,300.23615,11595.243,0.0,-0.0269348643975027,-0.02693449948016502,0.0,0.0,0.0,-0.8540703736701832,-1.3587127566695087,-1.3118811476475887,0.002299694718462198,0.005008987075898535,-0.23999263302792875
5388,13.0,300.1947,11637.381000000001,0.0,-0.02693984589618359,-0.026939501690352197,0.0,0.0,0.0,-0.8586701035591411,-1.358472312420779,-1.3203310455315287,-0.004804616861203766,0.0015367640026667986,-0.23888157389577577
5389,13.0,300.1138,11692.742,0.0,-0.02694486038492183,-0.026944503900539152,0.0,0.0,0.0,-0.8755150115691042,-1.3585140583248987,-1.3202725810007587,-0.006430862500076714,-0.007865940269082862,-0.23573987037071376
5390,13.0,299.96016000000003,11641.753999999999,0.0,-0.026949841883602943,-0.02694950611072633,0.0,0.0,0.0,-0.8680114183510571,-1.3580828190823386,-1.3127082637042187,-0.0006930817831293464,-0.004502838962720606,-0.24388643157221676
5391,13.0,299.78637000000003,11607.445,0.0,-0.026954856372341185,-0.026954508320913506,0.0,0.0,0.0,-0.8720353486056882,-1.3498291877427686,-1.3065089969423986,0.003615049794077637,-0.00021388430889373778,-0.2405456244025048
5392,13.0,299.7939,11685.867,0.0,-0.026959870861079538,-0.02695951053110046,0.0,0.0,0.0,-0.8707337781897333,-1.3601966614409589,-1.321281474125329,0.004465750361360246,-0.0028544973789169574,-0.24103161968046874
5393,13.0,299.76338,11636.402,0.0,-0.02696485235976065,-0.026964479832010002,0.0,0.0,0.0,-0.8655986570804362,-1.3511748852005787,-1.3204020743635387,0.003125690424456627,-0.005521345398939365,-0.2373701999141148
5394,13.0,300.03233,11582.205,0.0,-0.02696986684849889,-0.02696948204219718,0.0,0.0,0.0,-0.8521821618438312,-1.3550671841347186,-1.3134516853025886,-0.0007967394569795622,0.006662686422255953,-0.2443520605231708
5395,13.0,300.01407,11636.721000000001,0.0,-0.02697484834717978,-0.026974484252384134,0.0,0.0,0.0,-0.8663595065805262,-1.3601130683077087,-1.3107999084658788,-0.0011931064510504387,0.0047157544221337255,-0.2438696724155628
5396,13.0,300.01975,11668.777,0.0,-0.026979862835918356,-0.02697948646257131,0.0,0.0,0.0,-0.8703831024626243,-1.3593681268341886,-1.3172654573539788,-0.008829364504690431,-0.0015524919746940286,-0.24316962805397374
5397,13.0,300.06077,11659.577,0.0,-0.026984844334599245,-0.026984488672758267,0.0,0.0,0.0,-0.8747168339353302,-1.3651102151508887,-1.3043931280835788,-0.007495866071459382,-0.006786208904846674,-0.24341696240338379
5398,13.0,300.01231,11655.964,0.0,-0.026989858823337487,-0.026989490882945444,0.0,0.0,0.0,-0.8635183229026231,-1.3575892649586287,-1.3220144592476688,-0.0016890328972195684,0.005229889985849955,-0.24211228130962176
5399,13.0,299.9636,11632.218,0.0,-0.026994840322018376,-0.0269944930931324,0.0,0.0,0.0,-0.8584470669471291,-1.3614070900104187,-1.3160497598839986,0.002795380517732578,0.0027221206103273878,-0.24369106682043576
5400,13.0,300.0717,11589.635,0.0,-0.02699985481075695,-0.026999495303319465,0.0,0.0,0.0,-0.8519468649056091,-1.3579543389696587,-1.3130585442637885,0.0030839024704574767,-0.0029606290447413376,-0.24694558561163177
5401,13.0,300.04677999999996,11637.946000000002,0.0,-0.027004869299495193,-0.027004497513506642,0.0,0.0,0.0,-0.8614462669781271,-1.3591215017598488,-1.3170771954853988,0.0017485900155723984,-0.004729166104432355,-0.2449165016238768
5402,13.0,300.18287999999995,11682.181,0.0,-0.027009850798176083,-0.027009499723693597,0.0,0.0,0.0,-0.8738741442246631,-1.3660050163141988,-1.3112120986065587,0.0006404918636566254,-0.0001243500140798909,-0.24907290419658173
5403,13.0,300.0397,11636.12,0.0,-0.027014865286914547,-0.027014501933880775,0.0,0.0,0.0,-0.8702940175138322,-1.355359101488529,-1.3114368374787386,0.0032965398940431566,0.0034314301308307864,-0.24380786415946276
5404,13.0,299.72442,11627.646,0.0,-0.027019846785595436,-0.027019504144067952,0.0,0.0,0.0,-0.8603148212539622,-1.3579729827714986,-1.3162263693764287,-0.003256229056039787,-0.0006682193513181154,-0.24312985798754877
5405,13.0,299.9346,11708.327,0.0,-0.02702486127433379,-0.027024506354254907,0.0,0.0,0.0,-0.8686030449519462,-1.3629087266586186,-1.3275272490667387,0.006583674496683084,0.002071661972857118,-0.2339561043646698
5406,13.0,299.87917999999996,11739.868,0.0,-0.0270298427730149,-0.027029508564442084,0.0,0.0,0.0,-0.8740470958842322,-1.3613807455078186,-1.3331990178264987,-0.0025381686010477376,0.004712297922067596,-0.23608742528751475
5407,13.0,299.98214,11713.116000000002,0.0,-0.027034857261753142,-0.02703451077462904,0.0,0.0,0.0,-0.8756693092943322,-1.3639369728600987,-1.3208883330865289,-0.002099730317852248,-0.0005830590545359485,-0.2409027241352478
5408,13.0,300.009,11672.464,0.0,-0.027039838760434032,-0.02703948007553858,0.0,0.0,0.0,-0.8766256755337182,-1.3553010422577987,-1.316210967974909,-0.01023623450548769,-0.006982286883373064,-0.24235360708593875
5409,13.0,300.08221000000003,11632.309,0.0,-0.027044853249172607,-0.027044482285725757,0.0,0.0,0.0,-0.8694197447975481,-1.3568073398564588,-1.3097042811327486,-0.005099598688616205,-0.003964473549363076,-0.24094044743647078
5410,13.0,300.15201,11647.392,0.0,-0.02704986773791107,-0.027049484495912712,0.0,0.0,0.0,-0.8594137379400322,-1.3630008310927089,-1.3181017939865187,0.003137666128713537,0.0038399740910259363,-0.24782965645638277
5411,13.0,300.18592,11710.813999999998,0.0,-0.027054849236591738,-0.02705448670609989,0.0,0.0,0.0,-0.8703956059688581,-1.3636898411607088,-1.3257094783873387,0.003796798491014837,0.0022036947430377376,-0.24439865989526977
5412,13.0,299.99093999999997,11646.719,0.0,-0.027059863725330202,-0.027059488916287067,0.0,0.0,0.0,-0.8578826967739301,-1.3617751024467386,-1.3206539683383987,6.309924818491095e-05,-0.002351597238934578,-0.24540949846003177
5413,13.0,299.97393,11623.583999999999,0.0,-0.02706484522401109,-0.027064491126474022,0.0,0.0,0.0,-0.8580980833476871,-1.3653839953279088,-1.3097970948419089,0.002053232270763248,-0.004694762717162005,-0.24322694761213076
5414,13.0,299.97165,11731.708,0.0,-0.027069859712749444,-0.027069493336661088,0.0,0.0,0.0,-0.8733661918170321,-1.3688680557967587,-1.3239119727099387,0.0029703656689272673,0.01015780793449759,-0.24505943068298275
5415,13.0,299.92367,11799.965,0.0,-0.027074841211430334,-0.027074495546848265,0.0,0.0,0.0,-0.878546747060813,-1.3774558570193087,-1.3308922526488385,0.003940280886000447,0.0007064497842161653,-0.24257364447765475
5416,13.0,300.0531,11698.723999999998,0.0,-0.027079855700168798,-0.02707949775703522,0.0,0.0,0.0,-0.8618499964804722,-1.3632951802467588,-1.3309749338569987,-0.002801191709706097,-0.003068353235747887,-0.24290617289547278
5417,13.0,300.04205,11632.447,0.0,-0.02708487018890715,-0.027084499967222397,0.0,0.0,0.0,-0.8550369534705773,-1.3641237148535288,-1.3168128385343087,-0.005896505098814744,-0.0011765599755924287,-0.2433682656035778
5418,13.0,300.11839,11688.306,0.0,-0.02708985168758804,-0.027089502177409353,0.0,0.0,0.0,-0.8622593900508762,-1.3663518518234288,-1.3243420973773887,0.0017120210088633185,-0.0006788867267809034,-0.24210055800596478
5419,13.0,300.22851,11751.313,0.0,-0.027094866176326504,-0.02709450438759653,0.0,0.0,0.0,-0.8849365656364392,-1.3661727092057487,-1.3209965481972088,-0.004688484619542406,-0.0008989771418746361,-0.2462688054723388
5420,13.0,300.2455,11756.258999999998,0.0,-0.027099847675007394,-0.027099506597783485,0.0,0.0,0.0,-0.8800622145728781,-1.372667743671759,-1.3208791125106187,-0.003756468097284536,-0.004695564704616155,-0.24516604485850477
5421,13.0,300.08924,11691.964,0.0,-0.027104862163745747,-0.027104508807970662,0.0,0.0,0.0,-0.8739007521722891,-1.3635899347008487,-1.3165744207857788,0.0003168462750927927,0.001060539596742109,-0.24574361768050673
5422,13.0,299.89797999999996,11686.661,0.0,-0.027109843662426858,-0.027109478108880203,0.0,0.0,0.0,-0.8605353855357302,-1.3687075569809186,-1.3232102970156887,0.005553912169078454,0.0092928764722105,-0.24051015051650376
5423,13.0,299.97144,11738.253999999999,0.0,-0.027114858151165322,-0.027114480319067158,0.0,0.0,0.0,-0.8721967086841133,-1.3703760759205885,-1.3255631650728987,0.006103041743548324,0.0005913007396568394,-0.24396533335750376
5424,13.0,299.79142,11804.825,0.0,-0.02711983964984599,-0.027119482529254335,0.0,0.0,0.0,-0.8787248257658883,-1.3697397548577885,-1.3399075440885788,0.004516930535836336,-0.007432295773435483,-0.23311795401445076
5425,13.0,300.17954,11748.912,0.0,-0.027124854138584453,-0.027124484739441512,0.0,0.0,0.0,-0.8813724178796851,-1.3706571514983288,-1.319346166434329,-0.0007530954314472322,-0.0023261578726489077,-0.24195359621146076
5426,13.0,300.02679,11686.72,0.0,-0.02712986862732303,-0.02712948694962858,0.0,0.0,0.0,-0.8671192212405041,-1.3649811270881487,-1.3203705622854287,0.003125932793880547,-0.0016694344111353484,-0.23923471182062778
5427,13.0,300.0236,11740.683,0.0,-0.027134850126003696,-0.027134489159815645,0.0,0.0,0.0,-0.8749954777128303,-1.369029162562659,-1.3248497356774886,-0.0029050140772275673,-0.003655316251726627,-0.24542890219944677
5428,13.0,299.86371,11783.044,0.0,-0.02713986461474216,-0.02713949137000271,0.0,0.0,0.0,-0.872632000927073,-1.3758503622358589,-1.3332687294333787,-0.0008878324445547401,-0.002158001115203128,-0.24148565705027877
5429,13.0,299.93027,11733.601,0.0,-0.02714484611342305,-0.027144493580189888,0.0,0.0,0.0,-0.8681572757029522,-1.3721628411469289,-1.3264017308556588,-0.0025575932134147975,0.0037648014714069763,-0.25061886040415576
5430,13.0,299.90798,11662.476,0.0,-0.027149860602161402,-0.027149495790376843,0.0,0.0,0.0,-0.8610271158092603,-1.3690458811893087,-1.3150286064332188,-0.0007222363524966783,0.00865162665694907,-0.24962228840080175
5431,13.0,299.86381,11662.785,0.0,-0.02715484210084229,-0.027154498000563798,0.0,0.0,0.0,-0.8671678572453042,-1.3689616801059987,-1.3090657309197287,-0.002300113292078508,-0.0015599401735291085,-0.25139021730778277
5432,13.0,299.70167999999995,11717.274,0.0,-0.027159856589580755,-0.027159500210750975,0.0,0.0,0.0,-0.8712046051137001,-1.3668207839697089,-1.323733336717309,-0.004795680907246855,-0.0035093129918172265,-0.24413854846209876
5433,13.0,299.86147,11765.72,0.0,-0.027164838088261645,-0.02716450242093793,0.0,0.0,0.0,-0.8719727196170072,-1.3781290603857488,-1.3263831883788286,0.005556461405005045,0.0020743036171928277,-0.24992942477111374
5434,13.0,300.03353,11758.938999999998,0.0,-0.027169852576999998,-0.027169504631125108,0.0,0.0,0.0,-0.8716663330517691,-1.3681350706744186,-1.3346225328919885,0.0013813050928241988,0.0029934372723792574,-0.24263932334913677
5435,13.0,299.94794,11725.053,0.0,-0.02717486706573846,-0.027174506841312285,0.0,0.0,0.0,-0.8652171886827881,-1.3711963018765385,-1.3277099380597686,0.005989897576431864,2.139288615006348e-05,-0.24556864965323874
5436,13.0,300.04757,11756.546999999999,0.0,-0.027179848564419573,-0.027179476142221604,0.0,0.0,0.0,-0.8714647165468712,-1.3725808068131788,-1.3296511226013488,0.0015670034386511987,-0.004358925632467466,-0.24037095021776578
5437,13.0,299.98851,11841.768,0.0,-0.027184863053157815,-0.02718447835240878,0.0,0.0,0.0,-0.8900416337477701,-1.3711638778733386,-1.3383962815644288,0.0017419270855648184,0.0027273758319710374,-0.24144206703097676
5438,13.0,300.06366,11834.561000000002,0.0,-0.027189844551838704,-0.027189480562595958,0.0,0.0,0.0,-0.8870347938110181,-1.3784274625401987,-1.3319487685281088,-0.003498208682646317,-0.003281969357605157,-0.24508747744575077
5439,13.0,300.09882999999996,11687.853000000001,0.0,-0.02719485904057728,-0.027194482772783024,0.0,0.0,0.0,-0.8650875331999921,-1.3655986016990886,-1.3221292604839987,-0.0033994118329708266,-0.004933148041688805,-0.24528309551005678
5440,13.0,300.16724,11667.625,0.0,-0.027199840539257947,-0.0271994849829702,0.0,0.0,0.0,-0.8635680329525293,-1.3615387111984087,-1.3215597126027887,-0.007339266039354164,-0.0034817002040670566,-0.2426889219415318
5441,13.0,299.93568999999997,11769.184,0.0,-0.02720485502799641,-0.027204487193157156,0.0,0.0,0.0,-0.8743417794108151,-1.3734209937960988,-1.3297754483886186,0.0024890626508513574,0.0070453048587674535,-0.24375259136650776
5442,13.0,299.86345,11838.128999999999,0.0,-0.027209869516734875,-0.027209489403344334,0.0,0.0,0.0,-0.8869347049661402,-1.3765501127549187,-1.3350107090052987,0.0017728263500143384,0.004009347559191796,-0.2467008046524738
5443,13.0,299.881,11810.343,0.0,-0.027214851015415653,-0.02721449161353151,0.0,0.0,0.0,-0.8824226414758343,-1.3749330669203288,-1.3326938113266387,-0.0034916732195013167,-0.0016640033905993485,-0.24231484013711277
5444,13.0,300.00661,11727.748,0.0,-0.027219865504154117,-0.027219493823718466,0.0,0.0,0.0,-0.8719911607688271,-1.3666671752545487,-1.3262842951690688,0.004843101518551905,-0.004855389709139655,-0.24639362775215776
5445,13.0,300.08117000000004,11722.006000000001,0.0,-0.027224847002835006,-0.02722449603390542,0.0,0.0,0.0,-0.8616934392075213,-1.3708634492186886,-1.3306403586739788,0.003226158123547017,0.003934277683132976,-0.24543757562030274
5446,13.0,300.09878,11781.184,0.0,-0.02722986149157336,-0.027229498244092376,0.0,0.0,0.0,-0.8661601901533552,-1.3792755528738987,-1.3357500776032687,0.007114820705728134,0.003127922614426927,-0.24987490178323277
5447,13.0,300.00685,11823.258999999998,0.0,-0.02723484299025425,-0.027234500454279553,0.0,0.0,0.0,-0.8752328315487551,-1.3795532847263088,-1.3391894537427087,-0.005795438872890285,-0.003284060300511517,-0.24537842207946478
5448,13.0,300.26791000000003,11715.676000000001,0.0,-0.027239857478992713,-0.02723950266446673,0.0,0.0,0.0,-0.8679151393265552,-1.3688443457444186,-1.3245134379692989,-0.005301188646361585,-0.006038720120575275,-0.24849874602741676
5449,13.0,300.35075,11666.715,0.0,-0.027244838977673824,-0.027244504874653797,0.0,0.0,0.0,-0.8672076171792281,-1.3679448836306487,-1.3112375311840687,-0.004252076382922266,0.0011839599437227489,-0.2508890030133168
5450,13.0,300.08373,11783.755,0.0,-0.027249853466412066,-0.027249507084840974,0.0,0.0,0.0,-0.8778031532099262,-1.3749554597475386,-1.3292087376076887,-0.0008158032813835153,-0.00015425822873910185,-0.24911199538543974
5451,13.0,299.90205,11903.351999999999,0.0,-0.02725486795515042,-0.027254476385750404,0.0,0.0,0.0,-0.8856697230112961,-1.3897043282031385,-1.3429476996886187,-0.002256126180062318,-0.005757706857716425,-0.24686835568900975
5452,13.0,299.85332,11871.589,0.0,-0.02725984945383142,-0.02725947859593747,0.0,0.0,0.0,-0.8810102316314401,-1.3851789506065186,-1.3424774503172088,0.0025034422909705175,-0.0011701641383112089,-0.24405904885925275
5453,13.0,299.95232999999996,11798.375,0.0,-0.027264863942569773,-0.027264480806124647,0.0,0.0,0.0,-0.8750668003873691,-1.3741525603682987,-1.3371919324955686,0.0035262991164936265,0.010595000021395089,-0.24278312380332875
5454,13.0,300.09632,11783.411,0.0,-0.027269845441250662,-0.027269483016311602,0.0,0.0,0.0,-0.8766769155912751,-1.3753418120106686,-1.3298439440953789,0.0048725802063612255,0.0038207368286023663,-0.24249017293441674
5455,13.0,300.01433,11805.855,0.0,-0.027274859929989126,-0.02727448522649878,0.0,0.0,0.0,-0.882649781750751,-1.3729970499542588,-1.3330382150356288,-0.006081231129845785,-0.002396590103000028,-0.24441168015905476
5456,13.0,300.06282999999996,11860.918,0.0,-0.027279841428669904,-0.027279487436685956,0.0,0.0,0.0,-0.8885989682553902,-1.3830887169752288,-1.3337353311044289,-0.00022454659784102373,-0.0021007434666272377,-0.24179733278103877
5457,13.0,299.9886,11792.344,0.0,-0.027284855917408368,-0.02728448964687291,0.0,0.0,0.0,-0.8755272313653102,-1.3730232931318487,-1.336027606805659,0.0016918025150429086,0.0034793646625865568,-0.24543173929972675
5458,13.0,299.95468999999997,11739.428,0.0,-0.027289837416089258,-0.02728949185706009,0.0,0.0,0.0,-0.8628092606151441,-1.3802278053178787,-1.325455861887309,0.0008824596149719832,0.002835743639441107,-0.24553651949256777
5459,13.0,299.90193,11815.296999999999,0.0,-0.02729485190482761,-0.027294494067247044,0.0,0.0,0.0,-0.8733624934541673,-1.3837038611109387,-1.3344887838787887,-0.0048609528574886955,-0.007286681702889493,-0.24477111036702778
5460,13.0,299.89468999999997,11933.088,0.0,-0.027299866393566075,-0.02729949627743422,0.0,0.0,0.0,-0.8920310084641062,-1.3905632603129088,-1.3447663822931089,-0.0024831992764976878,-0.0035989963661182864,-0.24392315175584078
5461,13.0,299.84977000000003,11880.961000000001,0.0,-0.027304847892246964,-0.027304498487621176,0.0,0.0,0.0,-0.8879981818735971,-1.3874083034765385,-1.3361091734387087,-0.0014397118683384985,0.005324462595858546,-0.24819887466032178
5462,13.0,300.05823,11744.355,0.0,-0.027309862380985206,-0.027309500697808242,0.0,0.0,0.0,-0.8699527447476512,-1.3717257250537886,-1.3283121125941988,0.0014097698212584488,0.002026602740910118,-0.24766242965987878
5463,13.0,299.99075,11737.008999999998,0.0,-0.027314843879666317,-0.02731450290799542,0.0,0.0,0.0,-0.8640581318933983,-1.3740968316127988,-1.3296025879215587,-0.0020613443510638482,-0.002844482921553607,-0.2460089574841938
5464,13.0,300.09017,11786.445,0.0,-0.02731985836840467,-0.027319505118182374,0.0,0.0,0.0,-0.8664288635498711,-1.3793509386813385,-1.3370050891771288,0.002456128273575988,-0.005268412437426826,-0.24791795107009676
5465,13.0,300.05159,11821.641000000001,0.0,-0.02732483986708567,-0.027324474419092026,0.0,0.0,0.0,-0.8768663832274741,-1.3817090756390686,-1.3349083707451987,0.005250140498373525,0.002496310327491648,-0.2451457798565048
5466,13.0,300.09213,11797.543,0.0,-0.027329854355824024,-0.027329476629279092,0.0,0.0,0.0,-0.8756011884901093,-1.3812309229168787,-1.3293262746192887,0.0019092957370828185,-0.0014824358627800285,-0.24882639057975278
5467,13.0,299.8393,11759.542,0.0,-0.027334868844562266,-0.027334478839466048,0.0,0.0,0.0,-0.8740120070332691,-1.3737145323500686,-1.3268805928529186,0.0015117045038436185,-0.007687448157967062,-0.24571076811226478
5468,13.0,299.79666000000003,11833.843,0.0,-0.027339850343243377,-0.027339481049653225,0.0,0.0,0.0,-0.8765738376586022,-1.3862307042103186,-1.3343881681438587,0.0016918754690501082,-0.0026408905789606077,-0.24951208731992577
5469,13.0,299.80703,11955.726,0.0,-0.02734486483198173,-0.027344483259840402,0.0,0.0,0.0,-0.8920674550702031,-1.3931040862636688,-1.3490705673928989,0.004194364696976566,0.005510531588572124,-0.24243590325906078
5470,13.0,299.96272,11950.076000000001,0.0,-0.02734984633066262,-0.027349485470027357,0.0,0.0,0.0,-0.8903417178973861,-1.391697796449879,-1.3504852671825187,-0.0013312642167605485,-0.0004942906146776855,-0.24536625294576375
5471,13.0,300.03713999999997,11800.275,0.0,-0.027354860819401083,-0.027354487680214534,0.0,0.0,0.0,-0.8789706503726491,-1.3780640097293289,-1.3299542870312688,-0.009401275994408702,-0.004121516067786966,-0.23854841726289577
5472,13.0,300.15382,11775.552,0.0,-0.02735984231808175,-0.02735948989040149,0.0,0.0,0.0,-0.8762485945090032,-1.3779017883883187,-1.3253232274492186,-0.005676557785032635,-0.003171585283761097,-0.24593275094417277
5473,13.0,299.97631,11890.825,0.0,-0.027364856806820326,-0.027364492100588667,0.0,0.0,0.0,-0.8912845268504341,-1.3786765194147788,-1.3445529918220487,0.0021063368098292582,0.003532280737133966,-0.24534938233159878
5474,13.0,300.13903,11894.607,0.0,-0.027369838305501215,-0.027369494310775844,0.0,0.0,0.0,-0.8837239180492602,-1.3876013276205885,-1.3443380814758386,0.004905574770692535,5.744579898695895e-05,-0.2506327824605297
5475,13.0,299.9631,11830.403,0.0,-0.027374852794239457,-0.0273744965209628,0.0,0.0,0.0,-0.8753779694930792,-1.3810295901220089,-1.3397397498720187,0.006538829465807223,-0.004705974937468566,-0.24845274447287674
5476,13.0,300.05132000000003,11803.082,0.0,-0.027379867282978032,-0.027379498731149865,0.0,0.0,0.0,-0.8688853870923112,-1.3822670724691386,-1.3366897657460088,0.004800047305902786,-0.0017176301587668982,-0.25396812821220277
5477,13.0,299.88104,11830.49,0.0,-0.02738484878165892,-0.02738450094133682,0.0,0.0,0.0,-0.8763197651960273,-1.3813058020992686,-1.3385478637793886,0.003507574558620656,0.004475162036239105,-0.2507423249288408
5478,13.0,300.04481,11887.47,0.0,-0.027389863270397163,-0.027389503151523997,0.0,0.0,0.0,-0.8842290130916092,-1.3880557702904386,-1.3412092664920487,-0.003274342624102457,0.002147160352383228,-0.25351366527735075
5479,13.0,300.06113,11918.774,0.0,-0.027394844769078275,-0.02739447245243365,0.0,0.0,0.0,-0.8857619895654022,-1.3925004931790987,-1.3447470292161987,-0.00810372037932493,-0.003155131014062187,-0.24561527942284075
5480,13.0,300.1033,11825.767,0.0,-0.027399859257816517,-0.027399474662620715,0.0,0.0,0.0,-0.8742825144124662,-1.3842451393143589,-1.3362101944736788,-0.002226811740094208,0.0003921962134792526,-0.25089469747887877
5481,13.0,299.85631,11786.298,0.0,-0.027404840756497628,-0.02740447687280767,0.0,0.0,0.0,-0.8674473014903831,-1.3819809306408988,-1.3333119952126486,-0.0009677948595164158,0.007485147405276533,-0.24672711875757075
5482,13.0,299.78387999999995,11879.499,0.0,-0.02740985524523598,-0.027409479082994848,0.0,0.0,0.0,-0.8820753905340631,-1.3840402601441386,-1.3449555560867787,0.0017714950407079484,-0.0022069416016581777,-0.24921532663063775
5483,13.0,299.81761,11946.72,0.0,-0.02741483674391687,-0.027414481293181803,0.0,0.0,0.0,-0.8954463097811701,-1.3885371654129486,-1.3475210040149685,-0.0013862752872147186,-0.004980745667786325,-0.24489647980190074
5484,13.0,299.9109,11882.885,0.0,-0.027419851232655335,-0.02741948350336898,0.0,0.0,0.0,-0.8854997401745202,-1.3866470486764089,-1.3399533429930988,-0.002022318314187278,-0.0001008287626575241,-0.2494201754033548
5485,13.0,300.06402,11825.788999999999,0.0,-0.027424865721393688,-0.027424485713555935,0.0,0.0,0.0,-0.8765892897226272,-1.3804305566628885,-1.3377245980731385,0.004660218690777776,0.005258773490550535,-0.2520192429698628
5486,13.0,300.12747,11888.696000000002,0.0,-0.027429847220074577,-0.027429487923743112,0.0,0.0,0.0,-0.8842192250956431,-1.3890315301367386,-1.3406160085584988,-0.0011845434744553389,0.0035400125446720366,-0.24875372028258078
5487,13.0,300.23304,11947.586000000001,0.0,-0.02743486170881304,-0.02743449013393029,0.0,0.0,0.0,-0.8901920507251151,-1.3893225355654586,-1.3522531859569988,-0.0013481488137769286,-0.004378828093581685,-0.24753886381018375
5488,13.0,299.92922000000004,11949.083999999999,0.0,-0.027439843207493708,-0.027439492344117355,0.0,0.0,0.0,-0.8921384535047102,-1.3940858242855587,-1.3459990010397587,-0.0020335932546750282,-0.0017086689748824985,-0.24499705500682675
5489,13.0,300.07804,11884.795,0.0,-0.027444857696232172,-0.02744449455430442,0.0,0.0,0.0,-0.8863453683104772,-1.3858096987937687,-1.3405258292995987,0.002078172104749618,-0.00025610233689783273,-0.2449881890684518
5490,13.0,300.00174,11810.855,0.0,-0.027449839194913173,-0.027449496764491488,0.0,0.0,0.0,-0.8741328776376981,-1.3838656771519087,-1.3322064380285388,0.0008466711756099393,-0.0029729544216077573,-0.24212087367046978
5491,13.0,300.03141,11874.008999999998,0.0,-0.027454853683651415,-0.027454498974678665,0.0,0.0,0.0,-0.8790238865329032,-1.3890278824363789,-1.3413505135559884,-0.0018233906710796483,-0.004867707587955335,-0.24961422293000574
5492,13.0,299.96671000000003,11978.677,0.0,-0.02745986817238988,-0.02745950118486562,0.0,0.0,0.0,-0.8909851519758882,-1.3933423013621788,-1.3568911356397286,-0.0005410205541845715,0.0055963250957392855,-0.2465261507327368
5493,13.0,299.87958,11942.24,0.0,-0.027464849671070768,-0.02746447048577516,0.0,0.0,0.0,-0.8839230824889162,-1.4006248338059086,-1.3455948155748687,-0.0010311411583407092,0.008065688847421513,-0.25389523500000877
5494,13.0,299.85007,11835.026000000002,0.0,-0.027469864159809343,-0.027469472695962338,0.0,0.0,0.0,-0.8753695899147522,-1.3833114293472089,-1.338871293211309,-0.006024142896686614,0.0045485236739543355,-0.24876019495071977
5495,13.0,300.00094,11855.517,0.0,-0.027474845658490232,-0.027474474906149293,0.0,0.0,0.0,-0.8807418419449522,-1.3868018732916887,-1.3362374509013686,-0.0025684067198070075,-0.006309986626747193,-0.25259160768635075
5496,13.0,300.02439,11928.792,0.0,-0.027479860147228696,-0.02747947711633647,0.0,0.0,0.0,-0.8817484653892981,-1.3938518648374687,-1.3504546670294988,0.004940045539094535,-0.0012443107408789088,-0.24819272423221478
5497,13.0,299.97545,11909.521,0.0,-0.027484841645909586,-0.027484479326523426,0.0,0.0,0.0,-0.8841216288460111,-1.3918721767920885,-1.3442032178875287,0.005435249335292345,0.0007293853183122263,-0.25216172619892474
5498,13.0,299.87647999999996,11856.231000000002,0.0,-0.02748985613464794,-0.02748948153671038,0.0,0.0,0.0,-0.8728996712059901,-1.3909308674491887,-1.3401676453892486,0.006018882710117474,-0.0030186635521688974,-0.25165956958186575
5499,13.0,299.9499,11871.186000000002,0.0,-0.027494837633328828,-0.027494483746897558,0.0,0.0,0.0,-0.8866808250210841,-1.3846876256330287,-1.3371758218189789,0.0017527819325611081,-0.006798331226393054,-0.24945900314718675
5500,13.0,300.122,11947.093,0.0,-0.027499852122067292,-0.027499485957084735,0.0,0.0,0.0,-0.893680893734437,-1.3906569859471587,-1.3472799518161787,0.0044421934111103555,0.0016940877993184484,-0.2467895754937348
5501,13.0,300.0562,12018.813999999998,0.0,-0.027504866610805534,-0.0275044881672718,0.0,0.0,0.0,-0.902860443147888,-1.4023400635751886,-1.3482188293588386,0.0036598735467013965,0.001171302727448579,-0.24532484141417676
5502,13.0,300.01606,11990.995,0.0,-0.027509848109486423,-0.02750949037745898,0.0,0.0,0.0,-0.8912605432205671,-1.3956526129151885,-1.3580498884540886,-0.01041754142538129,0.0013765125211762086,-0.24276653689919175
5503,13.0,300.09219,11900.73,0.0,-0.027514862598225,-0.027514492587645933,0.0,0.0,0.0,-0.8793222380248481,-1.3918328626882088,-1.3463695466013288,-0.004425033412716796,-0.0037518181912506265,-0.2469745037694858
5504,13.0,300.06697,11925.618999999999,0.0,-0.027519844096905666,-0.02751949479783311,0.0,0.0,0.0,-0.8804293860116151,-1.3967433766478385,-1.3479175901041087,-0.003024474136192357,0.01015856179257199,-0.24844010924412976
5505,13.0,300.02045,11988.871000000001,0.0,-0.02752485858564413,-0.027524497008020288,0.0,0.0,0.0,-0.8928950270893782,-1.3939069856429087,-1.3575156016763588,0.009001360872065151,0.00993673905417979,-0.24836536178425275
5506,13.0,299.84319,11963.885,0.0,-0.02752984008432502,-0.027529499218207243,0.0,0.0,0.0,-0.8933588828526571,-1.3964104226649787,-1.3469530773339187,-0.0017497277941096883,0.0015686340620371286,-0.24832338283260977
5507,13.0,299.64837,11857.99,0.0,-0.027534854573063594,-0.027534501428394198,0.0,0.0,0.0,-0.8767325835517691,-1.388083837318209,-1.3397165464447287,-0.0002415645588355658,-0.0068896201968025724,-0.25368929191718376
5508,13.0,299.72697999999997,11868.885,0.0,-0.027539836071744483,-0.02753947072930396,0.0,0.0,0.0,-0.8769242600731861,-1.3869699714832788,-1.3439504119875787,-2.1224780865722783e-05,-0.002527050309025448,-0.24784003213740674
5509,13.0,299.96267,11983.005,0.0,-0.027544850560482947,-0.027544472939490916,0.0,0.0,0.0,-0.8860056255519471,-1.3984890039201185,-1.3580396546280789,0.008909750498723912,0.002279544720348548,-0.25085068189453474
5510,13.0,299.93249,12016.202,0.0,-0.02754986504922119,-0.027549475149678093,0.0,0.0,0.0,-0.8942562374062191,-1.3977008979923384,-1.3606682280374987,-0.0005490208831316424,-0.001002924433000935,-0.24603501827676574
5511,13.0,299.9462,11992.169,0.0,-0.02755484654790208,-0.02755447735986505,0.0,0.0,0.0,-0.8939362732896412,-1.3998994480593185,-1.3514842304561088,0.00042036819369461065,-0.003955287221306456,-0.2531326629747488
5512,13.0,300.05044,11939.612,0.0,-0.027559861036640654,-0.027559479570052003,0.0,0.0,0.0,-0.8950753589195601,-1.3894726992302786,-1.3447959691960287,-0.0018356925405437483,0.005331474083900525,-0.24683586075830277
5513,13.0,300.28479,11946.277,0.0,-0.027564842535321543,-0.02756448178023918,0.0,0.0,0.0,-0.8876431593035591,-1.3958057150052987,-1.3479208325044287,0.004896760406747625,0.004177047847467526,-0.24964043571009278
5514,13.0,300.00161,11990.758,0.0,-0.027569857024059785,-0.027569483990426247,0.0,0.0,0.0,-0.8867578826911893,-1.3997233451919386,-1.3584096935645986,0.0005572025230516075,-0.0007137350119051613,-0.24855742334070777
5515,13.0,299.90205,11987.37,0.0,-0.027574838522740674,-0.027574486200613424,0.0,0.0,0.0,-0.8844951229653721,-1.3980606017778385,-1.3613052583753686,-0.004005480996810196,-0.004067816244287207,-0.24565575876433576
5516,13.0,299.8164,11895.813,0.0,-0.02757985301147925,-0.02757948841080038,0.0,0.0,0.0,-0.8737084069058062,-1.3952719348526186,-1.3470497413934588,-0.0015863497267855286,0.0011270233941035488,-0.25441582263638673
5517,13.0,300.03494,11873.337,0.0,-0.02758486750021749,-0.027584490620987556,0.0,0.0,0.0,-0.8807683587000691,-1.3868179839682788,-1.3416117294317687,0.00046090966768574254,0.0036530794008058664,-0.24806486220209578
5518,13.0,299.91163,11961.243999999999,0.0,-0.02758984899889838,-0.027589492831174733,0.0,0.0,0.0,-0.8965043759330932,-1.3890459182881587,-1.350369148721059,-0.003386831826354277,-0.0007552068825356162,-0.2530693855060037
5519,13.0,299.95072000000005,12016.089,0.0,-0.027594863487636845,-0.02759449504136169,0.0,0.0,0.0,-0.8961280953759571,-1.3999630801655987,-1.3564999197761187,-0.000963409310433596,-0.008949789380400442,-0.24906470700327277
5520,13.0,299.68112,11985.777,0.0,-0.027599844986317623,-0.027599497251548866,0.0,0.0,0.0,-0.8877835755024172,-1.3987838596992186,-1.3568094676816687,-0.0018274946379596784,-0.004537772685093295,-0.2563846587731957
5521,13.0,299.72938999999997,11981.063999999998,0.0,-0.027604859475056087,-0.02760449946173582,0.0,0.0,0.0,-0.8853331719905811,-1.3993678970568588,-1.3572432400494787,0.009994207965401531,-0.0047581060471635055,-0.24886396189346077
5522,13.0,299.9054,11998.839,0.0,-0.0276098409737372,-0.02760946876264536,0.0,0.0,0.0,-0.8877515669317582,-1.4053135473186487,-1.3542824219322687,0.004141990508582636,-0.0024490934807817077,-0.2533848609246388
5523,13.0,300.11697000000004,11979.006000000001,0.0,-0.02761485546247544,-0.02761447097283254,0.0,0.0,0.0,-0.896058201384059,-1.3987665331225088,-1.3464938723885989,0.0012141796213301988,-0.0026683724547978574,-0.25310352190187274
5524,13.0,300.07962000000003,11980.516000000001,0.0,-0.02761983696115633,-0.027619473183019494,0.0,0.0,0.0,-0.8938055437617393,-1.4010802897258587,-1.3468917757028687,-0.002009083140056068,0.006843158829367192,-0.24914656747885178
5525,13.0,299.93377999999996,11956.003999999999,0.0,-0.027624851449894905,-0.02762447539320667,0.0,0.0,0.0,-0.88426600685276,-1.3970022620483886,-1.3530583144864587,-0.0031033503875768373,0.0072071801748683035,-0.2532411010004507
5526,13.0,299.92264,11934.403999999999,0.0,-0.027629865938633147,-0.027629477603393626,0.0,0.0,0.0,-0.8798962948690032,-1.3940628235082886,-1.3538018374098386,-0.0024648713047138574,-0.00018725753508087983,-0.24913768127547478
5527,13.0,299.95941,12020.239,0.0,-0.027634847437314036,-0.027634479813580692,0.0,0.0,0.0,-0.8873198818591541,-1.4031053713757187,-1.3634273080597987,-0.0060979309100439244,-0.005680861564832385,-0.25248610808593874
5528,13.0,300.27616,12058.751,0.0,-0.0276398619260525,-0.02763948202376787,0.0,0.0,0.0,-0.8973662363356522,-1.4039926744882887,-1.3642002152360788,0.0032021415630517675,0.0007104365585896295,-0.24494375805156676
5529,13.0,300.1248,11971.704,0.0,-0.0276448434247335,-0.027644484233954825,0.0,0.0,0.0,-0.8969459300616711,-1.3993980919098385,-1.3427549795195985,0.0037579368033044866,0.0026863397095460875,-0.25166761478765975
5530,13.0,299.99806,11958.08,0.0,-0.027649857913471743,-0.027649486444142002,0.0,0.0,0.0,-0.8927384394189242,-1.3956842263183087,-1.3465351116676687,0.004603628571367766,0.0029905380598681274,-0.24836959716967075
5531,13.0,299.94763,12062.671,0.0,-0.027654839412152632,-0.02765448865432918,0.0,0.0,0.0,-0.8967997484697442,-1.4083558307438986,-1.3615952505539886,0.0026840278781179276,-0.0026051459525328878,-0.25148385174952376
5532,13.0,300.04578,12058.903999999999,0.0,-0.027659853900891096,-0.027659490864516134,0.0,0.0,0.0,-0.8894848122878161,-1.4102017697760787,-1.3659191940307287,0.005200760565350105,0.0025646730958385276,-0.25450239472493075
5533,13.0,299.82155,11993.593,0.0,-0.027664835399571874,-0.02766449307470331,0.0,0.0,0.0,-0.8826037295337061,-1.4019810690647587,-1.3611680643118287,-0.0017076135735783384,0.001989972229919968,-0.24809540156010976
5534,13.0,299.88964,12005.947,0.0,-0.02766984988831034,-0.027669495284890266,0.0,0.0,0.0,-0.8889289838129601,-1.4069990888599986,-1.3535799356379388,-0.002300767750318098,-0.004529608726387576,-0.24974898519330574
5535,13.0,299.8994,12006.68,0.0,-0.027674864377048802,-0.027674497495077444,0.0,0.0,0.0,-0.8996643990199631,-1.3975751536549288,-1.3524912997304985,-0.004208814048702605,-0.00025748656825694575,-0.2450397837635438
5536,13.0,299.96305,12029.556999999999,0.0,-0.02767984587572969,-0.027679466795986984,0.0,0.0,0.0,-0.8933709911913521,-1.4076407801483286,-1.3556733103445386,-0.002070674256659638,0.0068542231151591535,-0.2532580222771208
5537,13.0,299.96997000000005,12060.548999999999,0.0,-0.027684860364468045,-0.02768446900617394,0.0,0.0,0.0,-0.8937821072869261,-1.4076007567693787,-1.3647229509626686,0.003021827526931157,0.006887449511113343,-0.25105626020732374
5538,13.0,299.98736,12015.178,0.0,-0.027689841863149156,-0.027689471216361117,0.0,0.0,0.0,-0.8883262925209792,-1.4025147478924287,-1.3614731539169387,-0.0016176958345291484,0.0055199638324280155,-0.25113329761242675
5539,13.0,300.12816000000004,11960.006000000001,0.0,-0.027694856351887398,-0.027694473426548294,0.0,0.0,0.0,-0.8817579291452322,-1.4030549115207385,-1.3507303723817088,0.006292189091390714,-6.843018392903333e-05,-0.25494443521355675
5540,13.0,300.08122000000003,12039.577,0.0,-0.027699837850568287,-0.02769947563673536,0.0,0.0,0.0,-0.8981879416367481,-1.4013436334268485,-1.3601992958912186,0.0014626019986975784,-0.0019383423750494982,-0.24569570108327776
5541,13.0,299.8564,12084.447,0.0,-0.02770485233930675,-0.027704477846922426,0.0,0.0,0.0,-0.9067588317151292,-1.4050096736136588,-1.3616017353546286,0.002366145179895348,-0.0005867227338500255,-0.24815301496079575
5542,13.0,299.72659,12024.607,0.0,-0.027709866828045104,-0.027709480057109492,0.0,0.0,0.0,-0.890715779436803,-1.4078662282955787,-1.3565983063608287,-0.004344728580016327,-0.0034667159576132266,-0.24997978330108378
5543,13.0,299.7256,12016.315,0.0,-0.027714848326725994,-0.027714482267296447,0.0,0.0,0.0,-0.8845845118891942,-1.4032289878879185,-1.3648463648248488,0.0003609028859333417,0.002755598393631387,-0.25405255221053474
5544,13.0,299.83482999999995,12067.233,0.0,-0.027719862815464458,-0.027719484477483625,0.0,0.0,0.0,-0.8945516099428701,-1.4095183325836287,-1.3640674794729788,-0.003236028395421137,0.003969985123282027,-0.25250694050799477
5545,13.0,299.95954,12052.753,0.0,-0.027724844314145347,-0.02772448668767058,0.0,0.0,0.0,-0.8903362159493432,-1.4098605071423986,-1.3635393735208587,0.005387664273496065,0.006773724751689583,-0.24887053788660976
5546,13.0,300.05462,12002.002,0.0,-0.0277298588028837,-0.027729488897857757,0.0,0.0,0.0,-0.8971994655016932,-1.4003964472333685,-1.3507131471300087,-0.004711098031299175,-0.0024987726265596577,-0.24921427285053374
5547,13.0,299.89501,12036.898000000001,0.0,-0.02773484030156459,-0.027734491108044712,0.0,0.0,0.0,-0.8966059947856221,-1.4090344043358687,-1.3532759606079388,0.0009107327074148201,-0.0032959402526339765,-0.24581683513273275
5548,13.0,300.01876,12050.207,0.0,-0.027739854790303053,-0.02773949331823189,0.0,0.0,0.0,-0.8985062034931581,-1.4049872807864487,-1.3594684385940887,-0.0034081762436858065,-0.0034771133221893668,-0.25371351872707476
5549,13.0,300.17131,12122.243,0.0,-0.027744836288983943,-0.027744495528419066,0.0,0.0,0.0,-0.8985028597678282,-1.4130579191579586,-1.3732984918590088,-0.000996270075089201,-0.00023523131001302274,-0.24690585607521076
5550,13.0,299.94102000000004,12146.864,0.0,-0.027749850777722296,-0.027749497738606133,0.0,0.0,0.0,-0.9045851062755991,-1.4162158144196186,-1.3715424281106987,0.0011151066610024592,-0.0030785468357289168,-0.2545272700148858
5551,13.0,299.89065,12071.083,0.0,-0.02775486526646076,-0.027754467039515562,0.0,0.0,0.0,-0.8991039703896531,-1.402264779092759,-1.3679392094300886,0.0026153485704398078,0.001084930147849269,-0.24992148089032976
5552,13.0,300.00532000000004,11988.999,0.0,-0.02775984676514165,-0.02775946924970274,0.0,0.0,0.0,-0.8933823193274703,-1.4026997673606887,-1.3482743554643186,0.0038988378423353365,-0.002085938869416138,-0.25364245949756176
5553,13.0,300.09922,12020.865,0.0,-0.027764861253880113,-0.027764471459889806,0.0,0.0,0.0,-0.8985041364629541,-1.3997518175197488,-1.3557868956807488,0.0005337923420787026,-0.00025665441634731875,-0.24660766670328177
5554,13.0,299.97733999999997,12070.216,0.0,-0.027769842752561003,-0.027769473670076983,0.0,0.0,0.0,-0.8911411620937851,-1.4100902109400686,-1.3678129584676288,0.002860771423536157,-0.001895799144425808,-0.2520939600322368
5555,13.0,300.0526,12027.479,0.0,-0.027774857241299356,-0.027774475880263938,0.0,0.0,0.0,-0.8861479770584962,-1.4068621987714887,-1.3630430836218788,0.0018515847604121882,5.044026885556695e-06,-0.25527251546343577
5556,13.0,299.73167,12033.3,0.0,-0.027779838739980245,-0.027779478090451115,0.0,0.0,0.0,-0.8856459825614531,-1.4086625415491687,-1.3635142449183786,-0.0016730609345682584,0.0025905109733885276,-0.25800554482566473
5557,13.0,299.84664,12085.823999999999,0.0,-0.02778485322871871,-0.02778448030063807,0.0,0.0,0.0,-0.897876732001034,-1.4138898988150685,-1.3620220314961087,-0.004095608478630087,0.0035227906366973667,-0.2525343286581978
5558,13.0,299.87903,12097.155,0.0,-0.027789834727399598,-0.027789482510825025,0.0,0.0,0.0,-0.9050470267311872,-1.4098671945930588,-1.3623187111253885,-0.0015620934313166183,-0.0013059811949653088,-0.24945122138641876
5559,13.0,300.0035,12111.812,0.0,-0.02779484921613795,-0.027794484721012203,0.0,0.0,0.0,-0.8983751193277211,-1.4157230708959885,-1.3675902460956488,0.003031340830795047,0.002266117535323388,-0.24892732042221374
5560,13.0,299.94433,12078.198,0.0,-0.027799863704876415,-0.027799486931199158,0.0,0.0,0.0,-0.8925917917319511,-1.4148728527370786,-1.3640060765169186,0.005274400137567765,-0.0058475633964595744,-0.25186156098930074
5561,13.0,300.21632999999997,12035.419,0.0,-0.027804845203557305,-0.027804489141386335,0.0,0.0,0.0,-0.8855165297286771,-1.4036205077265587,-1.3693297938673288,-0.00028684990767488175,-0.0031458269463439472,-0.24939185506305978
5562,13.0,300.24419,12069.736,0.0,-0.027809859692295658,-0.027809491351573512,0.0,0.0,0.0,-0.8959583861167081,-1.4087263763054685,-1.3642136914624088,0.004747139134706155,-0.005895415247007184,-0.25741108112449573
5563,13.0,300.03853,12111.149,0.0,-0.027814841190976547,-0.027814493561760578,0.0,0.0,0.0,-0.9026031586824962,-1.4121107329644786,-1.3667729585649886,0.001828028519437368,0.0004520870862825216,-0.25661807106623175
5564,13.0,299.87245,12076.124,0.0,-0.02781985567971501,-0.027819495771947755,0.0,0.0,0.0,-0.906424519977135,-1.4067144669069087,-1.3577010264446587,0.0023275072178070774,0.0029350186418387867,-0.2536187595777228
5565,13.0,299.99251,12070.031,0.0,-0.0278248371783959,-0.027824465072857185,0.0,0.0,0.0,-0.8930191096966242,-1.4131660329436289,-1.3628029433481788,-0.004444430971306186,0.0016133080562961083,-0.25365499340129877
5566,13.0,299.82703,12112.771999999999,0.0,-0.027829851667134364,-0.02782946728304425,0.0,0.0,0.0,-0.8926506615627612,-1.4130835543854885,-1.376246036399909,-0.0027781743151344576,0.0025477475635181076,-0.24769572505816476
5567,13.0,299.87861000000004,12118.291000000001,0.0,-0.027834866155872717,-0.02783446949323143,0.0,0.0,0.0,-0.8953271515694101,-1.4179808960938185,-1.3703497314179887,-0.004145080110787556,0.001192424736383159,-0.2517026935061218
5568,13.0,299.87987999999996,12117.045,0.0,-0.027839847654553607,-0.027839471703418384,0.0,0.0,0.0,-0.9003027871129672,-1.4148415433089887,-1.3681347666993886,0.0007066415417975903,0.0013522421415309088,-0.2512304480320148
5569,13.0,300.05127999999996,12095.038999999999,0.0,-0.02784486214329207,-0.02784447391360556,0.0,0.0,0.0,-0.9069213874286721,-1.4104482935254088,-1.3592201923195886,-0.009883837773083841,0.0009906061488852151,-0.25283966144333175
5570,13.0,300.1247,12092.278999999999,0.0,-0.02784984364197296,-0.027849476123792738,0.0,0.0,0.0,-0.9054724195206701,-1.4124969839025987,-1.3577814785025988,-0.0006037040962509554,0.0011793440828921989,-0.24870596580536775
5571,13.0,300.17315,12091.294,0.0,-0.027854858130711313,-0.027854478333979693,0.0,0.0,0.0,-0.8939336084418782,-1.4085950590925087,-1.3729229813719486,0.0003711994422570326,0.0017370223471307583,-0.2568723056488228
5572,13.0,300.16782,12129.05,0.0,-0.027859839629392202,-0.02785948054416687,0.0,0.0,0.0,-0.8975414880729482,-1.4171570224375087,-1.3722297156535288,0.003313986642215017,-0.0014121163058400286,-0.25282010571640173
5573,13.0,300.14117999999996,12132.338,0.0,-0.027864854118130666,-0.027864482754353825,0.0,0.0,0.0,-0.8947159996390941,-1.4137817850293988,-1.3794300735141487,0.0031654516756057572,-0.004678263459158655,-0.25381636361222476
5574,13.0,300.00899,12104.278999999999,0.0,-0.027869835616811556,-0.02786948496454078,0.0,0.0,0.0,-0.9004928728317272,-1.4120946222878885,-1.3668110567687486,-0.00039478511814725764,-0.007183671657973192,-0.25892060085847374
5575,13.0,300.07812,12089.374,0.0,-0.02787485010554991,-0.027874487174727958,0.0,0.0,0.0,-0.8981376337692832,-1.4138247468336387,-1.3629053829332887,0.0008322089353426271,0.002306372644571258,-0.25525086230879873
5576,13.0,299.93158,12108.51,0.0,-0.027879864594288373,-0.027879489384915024,0.0,0.0,0.0,-0.9072233562234742,-1.4129500080223087,-1.3605113769220187,-0.0007480675020660144,0.003129276620535557,-0.25365028178833376
5577,13.0,299.9151,12142.386,0.0,-0.027884846092969262,-0.0278844915951022,0.0,0.0,0.0,-0.8942486481629701,-1.4216180586527787,-1.3751154519383288,-0.0023481009181395176,0.0023622381888347577,-0.24825461354832276
5578,13.0,299.91425,12132.991000000002,0.0,-0.027889860581707504,-0.027889493805289156,0.0,0.0,0.0,-0.8973360212176701,-1.4225996953496587,-1.3681904954548887,-0.00921163681496777,-0.004018786693148366,-0.25260264197993976
5579,13.0,299.99377999999996,12137.336000000001,0.0,-0.027894842080388615,-0.027894463106198697,0.0,0.0,0.0,-0.8915257310367393,-1.4213893681052088,-1.3765321782281488,-0.0067416772722267435,0.002170894013450558,-0.24690827774294977
5580,13.0,299.86095,12152.621000000001,0.0,-0.02789985656912697,-0.027899465316385874,0.0,0.0,0.0,-0.9045557422877012,-1.4203347774011288,-1.3692028336297986,-0.0026823316974505275,0.0007451672965697862,-0.25309175806821177
5581,13.0,300.161,12203.427,0.0,-0.027904838067807858,-0.02790446752657283,0.0,0.0,0.0,-0.9172132828019031,-1.4215760087736287,-1.3707478373822788,0.0005368891282268315,0.0010629574141307288,-0.24607670338587975
5582,13.0,300.22738,12192.721000000001,0.0,-0.027909852556546322,-0.027909469736760006,0.0,0.0,0.0,-0.9152377794794361,-1.4188347619530886,-1.3722103625766187,0.0018411713864844685,-0.0021637631645467976,-0.25556237591954273
5583,13.0,300.17832000000004,12144.73,0.0,-0.02791483405522721,-0.027914471946947184,0.0,0.0,0.0,-0.8994519002089911,-1.4181159623321486,-1.3741268238157587,0.0026124633407800576,-0.003451885015899527,-0.2526141727660778
5584,13.0,300.14227999999997,12122.457,0.0,-0.027919848543965564,-0.02791947415713414,0.0,0.0,0.0,-0.8978827101766241,-1.4136502651664187,-1.3733913055681686,0.003186340637017337,0.0007665592961260122,-0.25516765421058674
5585,13.0,300.18813,12134.532,0.0,-0.027924863032704028,-0.027924476367321316,0.0,0.0,0.0,-0.8930921042338282,-1.4165288073755087,-1.3789737056691087,0.0064022412245020146,-0.005907420335516994,-0.2531620472276488
5586,13.0,300.14529,12111.64,0.0,-0.027929844531384918,-0.02792947857750827,0.0,0.0,0.0,-0.9025409451263562,-1.4114292209472186,-1.3676661385281386,0.004150409907638566,-0.004143423142899026,-0.25737704605363676
5587,13.0,300.18964,12114.858999999999,0.0,-0.02793485902012316,-0.027934480787695448,0.0,0.0,0.0,-0.9012032726093382,-1.4143566018111289,-1.3670548447428088,-0.001375295911781139,0.003118532319125177,-0.2532992007611848
5588,13.0,300.09353,12149.222,0.0,-0.02793984051880416,-0.027939482997882403,0.0,0.0,0.0,-0.9027920791636411,-1.4237861098917486,-1.3664817504862488,-0.00028138478114051574,0.0036721838261413267,-0.2512536413268038
5589,13.0,300.05742000000004,12203.192,0.0,-0.027944855007542624,-0.02794448520806947,0.0,0.0,0.0,-0.9046299729900271,-1.4241263592753288,-1.3807094030904088,-0.0003981320352150726,0.008385890064522913,-0.24734299243335278
5590,13.0,299.9615,12238.053999999998,0.0,-0.027949836506223513,-0.027949487418256647,0.0,0.0,0.0,-0.9101445765267762,-1.4296216198676686,-1.3802967063246787,0.0019206393759273483,0.005639967702721474,-0.24981031722185876
5591,13.0,299.89543,12202.597,0.0,-0.027954850994961755,-0.027954489628443602,0.0,0.0,0.0,-0.9031645600329022,-1.4242153226341085,-1.3819048355583887,-0.0009892087452748023,0.005295237524549255,-0.2530303652446527
5592,13.0,299.92985,12163.649,0.0,-0.02795986548370033,-0.02795949183863078,0.0,0.0,0.0,-0.9103243676245202,-1.4173470068312586,-1.3697740027111687,-0.00011147969104468887,0.0016661313171343582,-0.25323194121954673
5593,13.0,300.12854,12146.333,0.0,-0.02796484698238122,-0.02796446113954032,0.0,0.0,0.0,-0.9039876230891322,-1.4189540214898588,-1.3692404252085089,0.00019540695364766484,-0.002103813107805188,-0.2549207251612168
5594,13.0,300.06338999999997,12155.938999999998,0.0,-0.02796986147111946,-0.027969463349727275,0.0,0.0,0.0,-0.905204475664226,-1.4157650194501288,-1.3741323966913088,0.004819806392127856,-0.007875236737425352,-0.25797621123526976
5595,13.0,300.3595,12169.901000000002,0.0,-0.027974842969800573,-0.027974465559914452,0.0,0.0,0.0,-0.9026151049011751,-1.4177219093682587,-1.3790089667725884,0.002009427746415078,-0.004583537341759915,-0.2568782534269098
5596,13.0,300.20206,12186.059,0.0,-0.027979857458538926,-0.02797946777010163,0.0,0.0,0.0,-0.9023197830270293,-1.4227268582372088,-1.3792110088425287,0.006168725275980785,-0.0016648800545858683,-0.2548222676489998
5597,13.0,300.2312,12186.328000000001,0.0,-0.027984838957219815,-0.027984469980288584,0.0,0.0,0.0,-0.8986245207073351,-1.4238069828438087,-1.3819079766336988,-0.0005071893188481886,-0.0006654263375499664,-0.25778498054389676
5598,13.0,300.23757,12199.915,0.0,-0.02798985344595828,-0.02798947219047576,0.0,0.0,0.0,-0.9045896355035461,-1.4264714253067685,-1.3774084369146287,0.003241696212505507,0.001945915710271928,-0.24968521123201176
5599,13.0,300.02853,12218.774,0.0,-0.02799483494463917,-0.027994474400662717,0.0,0.0,0.0,-0.9097522866180601,-1.4264807472076886,-1.3779691695199687,0.0008738026492976073,0.004727159261284295,-0.25515896052472875
5600,13.0,299.77612999999997,12234.219,0.0,-0.02799984943337741,-0.027999476610849894,0.0,0.0,0.0,-0.9106564096822902,-1.4270997416937787,-1.3811409463079987,0.0008184331112230592,0.007728122043481263,-0.2468894414235908
5601,13.0,300.07515,12150.928,0.0,-0.028004863922115986,-0.02800447882103707,0.0,0.0,0.0,-0.9021231821101261,-1.4185325094482588,-1.3729231840219687,-0.003546152738953027,0.003208115888291387,-0.25453204242285676
5602,13.0,300.17387,12098.831,0.0,-0.028009845420796875,-0.028009481031224137,0.0,0.0,0.0,-0.8967958069268552,-1.4127724866047886,-1.368174182128279,-0.004130332255582056,0.0011159137147071089,-0.25430363558531477
5603,13.0,300.11847,12149.945,0.0,-0.028014859909535117,-0.028014483241411203,0.0,0.0,0.0,-0.9010579016174911,-1.4168014729774188,-1.3754206428684486,-0.0016142607140401286,-0.0005211087205069265,-0.26000970286095976
5604,13.0,299.99773,12197.343,0.0,-0.028019841408216006,-0.02801948545159827,0.0,0.0,0.0,-0.9141897039734992,-1.4181400776845288,-1.3753579226872588,0.0008623876067185302,-0.002126899808683668,-0.2572860764596588
5605,13.0,299.82439,12199.623,0.0,-0.02802485589695458,-0.028024487661785225,0.0,0.0,0.0,-0.9097800192732971,-1.4231065230496787,-1.3754942048257088,-2.1546229393697278e-05,-0.0038872997607966166,-0.2591658985751828
5606,13.0,299.84064,12220.026000000002,0.0,-0.02802983739563547,-0.0280294898719724,0.0,0.0,0.0,-0.9096524916157112,-1.4290855092397587,-1.3758445867102886,0.004044355147496776,-0.0035451575247048062,-0.25675735242497777
5607,13.0,299.77346,12238.416000000001,0.0,-0.028034851884373713,-0.028034492082159357,0.0,0.0,0.0,-0.9079037739306262,-1.4311214326656887,-1.3811477350836687,0.0032467632736055867,-0.003283104704342207,-0.25534226760031975
5608,13.0,299.88075,12234.999,0.0,-0.028039833383054824,-0.028039461383068898,0.0,0.0,0.0,-0.907558012466502,-1.4298196089372088,-1.3817565970687586,0.005736030600977145,0.00025137273874355773,-0.2525648173537067
5609,13.0,300.0056,12226.218,0.0,-0.028044847871793066,-0.028044463593256075,0.0,0.0,0.0,-0.9069073843122902,-1.4305715418364187,-1.378986067320329,-0.00021574475766734979,3.897895418417327e-05,-0.25322473701133574
5610,13.0,300.16353,12194.77,0.0,-0.02804986236053142,-0.02804946580344303,0.0,0.0,0.0,-0.9053190945155383,-1.4268567643197987,-1.374729707625259,-0.004818862954959746,0.004195164759255526,-0.2504187333769048
5611,13.0,300.1395,12193.761,0.0,-0.02805484385921253,-0.028054468013630207,0.0,0.0,0.0,-0.9023654299440341,-1.4279753924301988,-1.3762580940760987,-0.006752542657024073,-1.9414981424859483e-05,-0.25471777116618677
5612,13.0,300.23163,12224.909,0.0,-0.028059858347950994,-0.028059470223817162,0.0,0.0,0.0,-0.9090458891783442,-1.4295536307859589,-1.3774674080704488,-0.003388608155104587,0.0005757497621570775,-0.25883140445217073
5613,13.0,299.98417,12222.733,0.0,-0.028064839846631662,-0.02806447243400434,0.0,0.0,0.0,-0.9040022949505802,-1.4286341063202086,-1.3827691378936886,-0.0026277653424652474,0.0006208811071136944,-0.25667927137227176
5614,13.0,300.07997,12199.747,0.0,-0.028069854335370237,-0.028069474644191517,0.0,0.0,0.0,-0.9047689199762402,-1.4270982218186288,-1.3765513286550386,-0.0021193833167918483,-0.001937127285529578,-0.26351209302411877
5615,13.0,299.90257,12198.928,0.0,-0.028074835834051126,-0.028074476854378583,0.0,0.0,0.0,-0.905190999437896,-1.4236432416276485,-1.3793352333047886,0.0004146781155055436,0.0008595464635706312,-0.25999820247232475
5616,13.0,299.94433,12230.526000000002,0.0,-0.028079850322789368,-0.02807947906456576,0.0,0.0,0.0,-0.9160242642070562,-1.4234402876326184,-1.3783099255285987,0.00010719194086152089,0.002288882326645098,-0.25897367489871176
5617,13.0,299.91549,12244.481000000002,0.0,-0.028084864811527832,-0.028084481274752715,0.0,0.0,0.0,-0.9073713211355772,-1.4263479101195786,-1.3882971264642587,0.007471526892132293,-0.00022941194111119576,-0.25226025463864876
5618,13.0,300.06227,12245.107,0.0,-0.02808984631020872,-0.028089483484939892,0.0,0.0,0.0,-0.9143164716935102,-1.4251740598787286,-1.3827161449134588,0.005920426819100635,0.0005462955544701736,-0.25161698268016275
5619,13.0,299.73457,12264.591999999999,0.0,-0.028094860798947074,-0.028094485695126847,0.0,0.0,0.0,-0.9076849828365331,-1.4321282992900588,-1.3883164795411687,0.006557570337006804,-0.0023053617249464875,-0.25145286656146576
5620,13.0,300.11582000000004,12278.743999999999,0.0,-0.028099842297627964,-0.028099487905313802,0.0,0.0,0.0,-0.914598722641366,-1.4311115028147088,-1.3867213199087387,-0.0008026101166014513,-0.001924280996786748,-0.24613280704391677
5621,13.0,300.29609,12283.696000000002,0.0,-0.028104856786366428,-0.02810449011550098,0.0,0.0,0.0,-0.9142349658554663,-1.4309044958192787,-1.3887973680386287,-0.0035200100757729466,0.0018350148788768682,-0.2530914236956788
5622,13.0,300.10379,12264.961000000001,0.0,-0.028109838285047317,-0.028109459416410743,0.0,0.0,0.0,-0.9118958577346141,-1.4342006997195886,-1.3821452798071185,-0.002170866250397818,0.006610643566644724,-0.25313338238231975
5623,13.0,300.00916,12251.153999999999,0.0,-0.02811485277378567,-0.028114461626597698,0.0,0.0,0.0,-0.9088882781252892,-1.4321824068453988,-1.3829744223639486,-0.0029061597591156373,0.004757794776732786,-0.25981402400164777
5624,13.0,300.11117,12238.483,0.0,-0.02811983427246678,-0.028119463836784653,0.0,0.0,0.0,-0.9099726482498082,-1.4281393362963788,-1.3820814450508188,-0.004703976706946355,0.004261557262782956,-0.25589506645737675
5625,13.0,299.93012000000004,12214.327,0.0,-0.028124848761205246,-0.028124466046971608,0.0,0.0,0.0,-0.8996638619974101,-1.4307727733062787,-1.3824137910836185,0.0009610981477505021,-0.007786364469829342,-0.2653376353317858
5626,13.0,299.98892,12249.329,0.0,-0.028129863249943488,-0.028129468257158785,0.0,0.0,0.0,-0.9065687966588742,-1.4287221577538987,-1.3881993478296089,0.002227001217862908,-0.004425079414271336,-0.2592256701985818
5627,13.0,299.82386,12288.208,0.0,-0.028134844748624488,-0.028134470467345962,0.0,0.0,0.0,-0.9105140683082421,-1.4368547057065186,-1.3879395505039687,0.006310697624342364,-0.001170911410259959,-0.26350527385094574
5628,13.0,299.89509,12310.139,0.0,-0.028139859237362952,-0.02813947267753303,0.0,0.0,0.0,-0.9159154715438191,-1.4380945185288787,-1.3879649830814789,0.0009279010549892041,0.0025731331262234675,-0.25448878677608777
5629,13.0,300.10255,12290.896,0.0,-0.02814484073604362,-0.028144474887720206,0.0,0.0,0.0,-0.9125039192521253,-1.4327163896480986,-1.3909051308966487,0.001008550838553718,3.9922983090341665e-05,-0.2563075301755837
5630,13.0,300.19308,12285.435,0.0,-0.028149855224782083,-0.02814947709790716,0.0,0.0,0.0,-0.9126642762129512,-1.4354231859652387,-1.3863778281248385,-0.0021082807301461078,-0.00046767021420795655,-0.24862705388757975
5631,13.0,300.09737,12261.583999999999,0.0,-0.028154836723462973,-0.028154479308094338,0.0,0.0,0.0,-0.9034877766823012,-1.4352169895698885,-1.3885107195853386,0.0038099028545581365,0.0013777946878527488,-0.25829171705140774
5632,13.0,300.38969,12278.083999999999,0.0,-0.028159851212201326,-0.028159481518281515,0.0,0.0,0.0,-0.9118982084748463,-1.4332798580287087,-1.3870529566664687,-0.0027647819859127373,-0.0009266783559610332,-0.24798841248205078
5633,13.0,300.19046000000003,12268.733,0.0,-0.028164832710882215,-0.02816448372846847,0.0,0.0,0.0,-0.9127293471343731,-1.4339531627201587,-1.3827060124124588,-0.004353343840316586,-0.004937380488681515,-0.26280219987155773
5634,13.0,300.06604,12270.257,0.0,-0.02816984719962068,-0.028169485938655647,0.0,0.0,0.0,-0.9153259423706371,-1.4309020640190384,-1.3836238143530386,-0.005442814159213934,-0.001959299933492848,-0.25709698372599676
5635,13.0,299.92912,12276.628,0.0,-0.028174861688359032,-0.028174488148842602,0.0,0.0,0.0,-0.9168006366986781,-1.4322513078521986,-1.3827363085904487,0.0013307477631845786,0.0011445584976841289,-0.2671836554239737
5636,13.0,299.96967,12296.01,0.0,-0.02817984318703992,-0.028179457449752143,0.0,0.0,0.0,-0.917724467477353,-1.4289230852487287,-1.3910323951092087,0.0005282401064332395,0.003576818753229527,-0.25495141650674574
5637,13.0,299.93717000000004,12291.302,0.0,-0.028184857675778385,-0.02818445965993932,0.0,0.0,0.0,-0.9113061664414162,-1.4335856569088885,-1.3913571417662587,-0.0015269223044454985,-0.005487804591479145,-0.2620043363453148
5638,13.0,300.22121,12306.733999999999,0.0,-0.028189839174459497,-0.028189461870126276,0.0,0.0,0.0,-0.9169400599124381,-1.4329090084921088,-1.3910908596399787,0.0016750308954126786,0.003911997225359066,-0.25564360818005977
5639,13.0,300.01113,12312.513,0.0,-0.02819485366319774,-0.02819446408031334,0.0,0.0,0.0,-0.9122363806957212,-1.4376280181828387,-1.3928319272868088,0.0040783716758789465,0.0037633885954675363,-0.2582912408238608
5640,13.0,300.00862,12317.309,0.0,-0.028199835161878628,-0.028199466290500408,0.0,0.0,0.0,-0.916595929780975,-1.4403627802027386,-1.3871956222805486,0.0053454463974794844,0.003106588126946377,-0.25489586000376274
5641,13.0,299.90943,12311.462,0.0,-0.028204849650617203,-0.028204468500687474,0.0,0.0,0.0,-0.9133924787948191,-1.4411893896343184,-1.3877951623647187,-0.0018938250292559783,-0.0025247129436947674,-0.25408826927655975
5642,13.0,299.77727999999996,12272.204,0.0,-0.028209864139355445,-0.02820947071087465,0.0,0.0,0.0,-0.9100079600157932,-1.4359266699399287,-1.3845087869903787,-0.004607800122029465,-0.001239095542614209,-0.2568123415079048
5643,13.0,299.69862,12279.428999999998,0.0,-0.028214845638036334,-0.028214472921061606,0.0,0.0,0.0,-0.9004187434544111,-1.4404279321841686,-1.3917930419592786,-0.0010524347105172192,-0.004250691371360576,-0.26067884309449874
5644,13.0,300.12601,12297.476,0.0,-0.02821986012677491,-0.028219475131248783,0.0,0.0,0.0,-0.9158205097444471,-1.4365960229559884,-1.3857090830588386,-0.006034642599522854,0.00042868540647795556,-0.25943071148881774
5645,13.0,299.90406,12298.885,0.0,-0.028224841625455577,-0.02822447734143596,0.0,0.0,0.0,-0.9105315570049681,-1.4359456177167986,-1.3920765493372587,-0.0004671269399018395,-0.004687174791138136,-0.2578738628426688
5646,13.0,300.16696,12331.616000000002,0.0,-0.02822985611419404,-0.028229479551622916,0.0,0.0,0.0,-0.9212162083819612,-1.4384344639374287,-1.3888527928190986,-0.003343082524136557,0.003103990356339997,-0.26205809939562075
5647,13.0,300.20871,12328.726999999999,0.0,-0.02823483761287493,-0.028234481761810093,0.0,0.0,0.0,-0.9151793554786701,-1.4342355555230286,-1.3982100561675885,0.0043098198849211055,0.0022961676961891077,-0.25762517073812474
5648,13.0,300.18474,12325.518,0.0,-0.028239852101613283,-0.028239483971997048,0.0,0.0,0.0,-0.9168779274163061,-1.4337535524504588,-1.3960180922262586,0.0041030082441103856,-0.0037451881918712966,-0.25393969641439673
5649,13.0,300.12322,12353.293,0.0,-0.028244833600294172,-0.028244486182184225,0.0,0.0,0.0,-0.9133883042044072,-1.4388806992814684,-1.4028236878479186,0.0069364867629529425,-0.0017451224710801783,-0.25465070414206775
5650,13.0,300.10067000000004,12332.383,0.0,-0.028249848089032636,-0.02824948839237129,0.0,0.0,0.0,-0.9197552537252762,-1.4353781976607987,-1.3936032132629286,0.000959814218018788,0.003684278992585027,-0.25592230262006477
5651,13.0,299.87538,12339.0,0.0,-0.02825486257777099,-0.02825445769328072,0.0,0.0,0.0,-0.9105223364290581,-1.4449354765790285,-1.3952899707043986,0.004120080697695306,0.003755291511268416,-0.2585105892055088
5652,13.0,300.21051,12348.523000000001,0.0,-0.02825984407645199,-0.0282594599034679,0.0,0.0,0.0,-0.9236466002043222,-1.4400317513950687,-1.3899643281787986,-0.005537429325726724,0.004986450265849326,-0.2616241547752937
5653,13.0,299.98266,12310.788999999999,0.0,-0.028264858565190343,-0.028264462113655076,0.0,0.0,0.0,-0.9124804827773121,-1.4415645961463486,-1.3881272044224886,0.001983807109686518,0.0016734759618092184,-0.2592959998880227
5654,13.0,300.08142000000004,12296.729,0.0,-0.028269840063871454,-0.02826946432384203,0.0,0.0,0.0,-0.9138040407204371,-1.4376085637809186,-1.3864860432355186,-0.002278509482721378,0.0018860311094867782,-0.25896427193778376
5655,13.0,299.98442,12321.059,0.0,-0.028274854552609696,-0.028274466534029097,0.0,0.0,0.0,-0.909687479141664,-1.4400416812460486,-1.3955651694315587,-0.002356975469140368,-0.0015620559410629187,-0.25764639832771974
5656,13.0,300.14044,12302.31,0.0,-0.028279836051290586,-0.028279468744216052,0.0,0.0,0.0,-0.9128228599861021,-1.4347746045762286,-1.3919975158294589,-0.005097401962399405,-0.004182824487612636,-0.2591083459695028
5657,13.0,300.35306,12329.411,0.0,-0.02828485054002905,-0.02828447095440345,0.0,0.0,0.0,-0.908930672509473,-1.4413270903229087,-1.3975752549799385,0.0053801519359296555,-0.00028348133745242975,-0.25895301472917276
5658,13.0,300.12921,12387.737,0.0,-0.028289832038709828,-0.028289473164590406,0.0,0.0,0.0,-0.9230914810045361,-1.4434232008047787,-1.3990479126752786,0.002432348104329068,-0.0005865219279452074,-0.26066108082024575
5659,13.0,299.71013999999997,12393.698,0.0,-0.028294846527448292,-0.02829447537477736,0.0,0.0,0.0,-0.9220919908408941,-1.4450336605137186,-1.4002491206688286,0.000979402581734509,-0.005336089134130995,-0.2616688289722027
5660,13.0,299.90868,12378.368,0.0,-0.028299861016186756,-0.02829947758496454,0.0,0.0,0.0,-0.9158176726441672,-1.4463092410646088,-1.4005877488522487,-0.0032834442444507166,-0.002946767986023357,-0.25654792376180874
5661,13.0,299.85596,12341.291000000001,0.0,-0.028304842514867534,-0.028304479795151494,0.0,0.0,0.0,-0.912284611400481,-1.4420851027227186,-1.3970745067805186,0.003139329986702747,0.003560167609036187,-0.26201495520636275
5662,13.0,299.8898,12353.462,0.0,-0.028309857003605998,-0.02830948200533867,0.0,0.0,0.0,-0.9152207568777562,-1.4406556094816385,-1.3992674839719486,-0.0018759003310119483,0.0036471186531175865,-0.2571133173176088
5663,13.0,300.1759,12345.785,0.0,-0.028314838502286888,-0.028314484215525848,0.0,0.0,0.0,-0.9173852009463701,-1.4465111818095386,-1.3889137904751185,-0.0013627883525467387,0.0026504906170330576,-0.26113556557707374
5664,13.0,300.13093,12319.271999999999,0.0,-0.02831985299102524,-0.028319486425712914,0.0,0.0,0.0,-0.9194498094826311,-1.4375411826492686,-1.3877602052362688,-0.006986879338126304,0.00010621425584003089,-0.25675754494249675
5665,13.0,300.0792,12323.19,0.0,-0.02832483448970624,-0.028324455726622344,0.0,0.0,0.0,-0.9177162196215392,-1.4379372621133588,-1.3902884668857887,-0.005727276120113144,0.000969767130571064,-0.2611306107840847
5666,13.0,300.11321,12367.453000000001,0.0,-0.028329848978444594,-0.02832945793680952,0.0,0.0,0.0,-0.9171719624628252,-1.4425900052475484,-1.3996348884582088,-0.0027034776190874668,-0.0025463028715255274,-0.25139532408828674
5667,13.0,300.02468,12436.023000000001,0.0,-0.028334863467182836,-0.028334460146996587,0.0,0.0,0.0,-0.9258819211174312,-1.4429597402090384,-1.4113989247692287,-5.974954265282074e-05,-0.005018576474844935,-0.25798282775842274
5668,13.0,300.19271000000003,12488.47,0.0,-0.028339844965863947,-0.028339462357183653,0.0,0.0,0.0,-0.9283456792655852,-1.4514939405012985,-1.4163432812821986,9.18134580455328e-05,-0.001351349569517819,-0.25470251161968077
5669,13.0,299.89527000000004,12402.401000000002,0.0,-0.0283448594546023,-0.02834446456737072,0.0,0.0,0.0,-0.920463424352667,-1.4461423587731386,-1.4034143113312088,0.005225472215413955,-0.0007522013395589923,-0.25933157509903376
5670,13.0,299.7618,12339.273000000001,0.0,-0.0283498409532833,-0.028349466777557675,0.0,0.0,0.0,-0.9205791679115902,-1.4380721257016686,-1.3921796981974386,0.005227911513704695,0.0020574153724760877,-0.2577505908355027
5671,13.0,299.8726,12386.365,0.0,-0.028354855442021654,-0.028354468987744852,0.0,0.0,0.0,-0.9225638208824601,-1.4483586407168687,-1.3942233223241287,0.003626974025229466,0.0004864623558625965,-0.2609337464221558
5672,13.0,300.01552999999996,12392.358999999999,0.0,-0.028359836940702543,-0.028359471197931807,0.0,0.0,0.0,-0.9252008144002111,-1.4468657180195288,-1.3949011866410288,0.003418175704947677,-0.00030609198303642676,-0.25421544229661075
5673,13.0,300.03131,12359.555,0.0,-0.028364851429441007,-0.028364473408118984,0.0,0.0,0.0,-0.9145985909188531,-1.4469856868313684,-1.3954117633664187,-0.0026359492621979377,0.004133320532776976,-0.25973662182650875
5674,13.0,299.97602,12359.806,0.0,-0.028369832928121785,-0.02836947561830594,0.0,0.0,0.0,-0.9090187239431631,-1.4530291157278088,-1.3950244991781986,-0.0011834550411979187,0.0015871535380898583,-0.2637976876973048
5675,13.0,299.91899,12391.538,0.0,-0.02837484741686025,-0.028374477828493117,0.0,0.0,0.0,-0.9153010974781852,-1.4504238470706885,-1.4009932515422685,-0.001792976956078048,0.0015173857971543187,-0.2611377136672857
5676,13.0,300.26998,12438.588,0.0,-0.028379861905598713,-0.028379480038680294,0.0,0.0,0.0,-0.9255586234080241,-1.4553862394354387,-1.4000753482766786,0.0005558590243465144,0.0020191312373227382,-0.26442000564372276
5677,13.0,300.27577,12424.407,0.0,-0.02838484340427938,-0.02838448224886736,0.0,0.0,0.0,-0.9196259731450172,-1.4526335428887687,-1.4044499542584186,-0.002328664653396308,1.5789122684015085e-05,-0.26318081090392376
5678,13.0,300.07833999999997,12373.117,0.0,-0.028389857893017956,-0.028389484459054537,0.0,0.0,0.0,-0.9176005469901231,-1.4453292255678885,-1.3981887779154887,0.002324829907067848,-0.0030890978090202166,-0.25921459537498875
5679,13.0,299.99945,12375.669,0.0,-0.028394839391698845,-0.028394453759963967,0.0,0.0,0.0,-0.9160357645956911,-1.4454622653060185,-1.4003962445833487,-0.00029804618955736866,-0.001985833711211528,-0.25590905944125775
5680,13.0,300.17142,12431.531,0.0,-0.028399853880437087,-0.028399455970151033,0.0,0.0,0.0,-0.9257622866781241,-1.4466171677699986,-1.4064956048853088,0.007953066909406592,-0.0050784221668262455,-0.25955205832079375
5681,13.0,300.06964,12438.318000000001,0.0,-0.0284048353791182,-0.02840445818033821,0.0,0.0,0.0,-0.9285245077757341,-1.4501759047712186,-1.4022376239900787,0.002951871625452047,-0.0019435274797862281,-0.2541278974879707
5682,13.0,299.96148999999997,12402.841999999999,0.0,-0.02840984986785655,-0.028409460390525165,0.0,0.0,0.0,-0.9263217425883381,-1.4485766921383887,-1.3952558241760287,0.007330872782150813,-0.002308286268710118,-0.2615385452743447
5683,13.0,299.88982999999996,12424.033000000001,0.0,-0.028414831366537552,-0.028414462600712342,0.0,0.0,0.0,-0.922832109243938,-1.4524860136742086,-1.4012777721703487,-0.0018380313244245681,0.002143670415063798,-0.26042982674992277
5684,13.0,300.06338999999997,12477.002,0.0,-0.028419845855275905,-0.02841946481089952,0.0,0.0,0.0,-0.9334139562657852,-1.4554250469142687,-1.4038581148750087,-0.0004706539621749296,0.001242582845483379,-0.26222364419695876
5685,13.0,299.94087,12464.705,0.0,-0.02842486034401437,-0.028424467021086475,0.0,0.0,0.0,-0.9214998474824542,-1.4539183440155685,-1.4135410368056385,-0.0008066663188717671,0.004030198219749597,-0.25495037285914274
5686,13.0,299.95878,12382.848999999998,0.0,-0.028429841842695258,-0.02842946923127343,0.0,0.0,0.0,-0.9145451115785751,-1.4503446109128686,-1.3991871332390187,-0.0020520998624514878,-0.001777618009737238,-0.26032796471736974
5687,13.0,299.94054,12366.115,0.0,-0.02843485633143361,-0.028434471441460496,0.0,0.0,0.0,-0.9131136931623052,-1.4490739952874685,-1.3968024491286688,-0.0007384002044519263,-0.0016733154629933785,-0.25518338998463974
5688,13.0,300.03817000000004,12413.045,0.0,-0.0284398378301145,-0.028439473651647562,0.0,0.0,0.0,-0.9209708194727432,-1.4494532547998986,-1.4028314898736884,-0.003397341661691517,-0.00021431142420839081,-0.25923414096941777
5689,13.0,300.09018,12456.278,0.0,-0.028444852318852965,-0.02844447586183474,0.0,0.0,0.0,-0.92482863750598,-1.4533888195133087,-1.4081799305265386,0.003302057344812687,0.002906269899401507,-0.26196697781412775
5690,13.0,300.00805,12430.178,0.0,-0.028449833817533632,-0.028449478072021805,0.0,0.0,0.0,-0.9192022927482032,-1.4527933324295386,-1.4064681458075987,0.004202802841159346,-0.0012254450372670088,-0.26183172919077974
5691,13.0,299.90346,12441.343,0.0,-0.028454848306272207,-0.028454480282208983,0.0,0.0,0.0,-0.923491633734028,-1.4499410333980385,-1.4084249344007187,0.007005265875765914,-0.0011544428537346389,-0.2599980707498118
5692,13.0,300.03282,12477.161,0.0,-0.02845986279501067,-0.028459482492395938,0.0,0.0,0.0,-0.924285261874853,-1.4577265431914088,-1.4107335234285587,0.005735832713232614,-0.003985268481165377,-0.26384963702993175
5693,13.0,299.97277,12433.161,0.0,-0.028464844293691338,-0.02846445179330548,0.0,0.0,0.0,-0.9274962007792481,-1.4500705267608187,-1.4018038516222686,0.004969478934624385,0.006692134205937224,-0.26305327311383675
5694,13.0,299.9179,12418.965,0.0,-0.028469858782429913,-0.028469454003492656,0.0,0.0,0.0,-0.9204776199865681,-1.4528664890867586,-1.4017113418881386,-0.0017399985666494884,0.0010163311909040789,-0.26225257248731376
5695,13.0,300.04351,12408.954,0.0,-0.028474840281110803,-0.02847445621367961,0.0,0.0,0.0,-0.9225915738026992,-1.4479817116796685,-1.4014389802612588,-0.006947933246682623,0.002506058502728718,-0.2618390448565018
5696,13.0,299.78437,12437.556999999999,0.0,-0.028479854769849045,-0.028479458423866788,0.0,0.0,0.0,-0.9222609097650651,-1.4516488664415885,-1.4067970467900588,-0.01060200157958609,0.0035742719491031767,-0.26050719852755877
5697,13.0,299.96492,12482.953000000001,0.0,-0.028484836268530156,-0.028484460634053965,0.0,0.0,0.0,-0.9263079522544772,-1.4525236052529185,-1.4156744348911885,-0.008358719661766403,0.005683284853771545,-0.26169904409018474
5698,13.0,299.77111,12483.594,0.0,-0.02848985075726862,-0.02848946284424092,0.0,0.0,0.0,-0.9269176552371501,-1.4534431297186687,-1.4143400858344988,0.00027206239386046773,-0.0018637632160141081,-0.25822356584968176
5699,13.0,299.95883,12456.466,0.0,-0.02849483225594951,-0.028494465054428098,0.0,0.0,0.0,-0.9308404023367951,-1.4476566610475885,-1.4079574208045786,0.0006193431150519063,-0.00013979060811375885,-0.26134277522252375
5700,13.0,300.24044,12453.306999999999,0.0,-0.028499846744687862,-0.028499467264615053,0.0,0.0,0.0,-0.927924572524025,-1.4488550319408586,-1.4087147239293185,0.011941310495515589,-0.004253170085080206,-0.26031787274637375
5701,13.0,300.20867999999996,12461.271999999999,0.0,-0.028504861233426326,-0.02850446947480212,0.0,0.0,0.0,-0.931418279133827,-1.4478882900204486,-1.4086090419438886,-0.001133972972564419,0.0003350202632589257,-0.26078833490030473
5702,13.0,300.06766,12464.806999999999,0.0,-0.028509842732107216,-0.028509471684989185,0.0,0.0,0.0,-0.9265609202744431,-1.4523079856316385,-1.4101210137431088,0.004526050394686396,-0.0014767972272985387,-0.2596249920629917
5703,13.0,300.10318,12451.598,0.0,-0.02851485722084557,-0.02851447389517625,0.0,0.0,0.0,-0.9215915972790091,-1.4562077826165185,-1.4071755970274187,-0.0005501168853673094,-0.0013472673875149388,-0.26340148664320273
5704,13.0,299.90317000000005,12458.07,0.0,-0.028519838719526458,-0.028519476105363428,0.0,0.0,0.0,-0.9235167116740032,-1.4564121551616886,-1.4070133756864087,0.0026791358053101177,-0.002120272747729628,-0.26180660058829974
5705,13.0,300.02131,12498.696000000002,0.0,-0.028524853208264922,-0.028524478315550383,0.0,0.0,0.0,-0.9256271495122872,-1.4635301357891786,-1.4101340846693986,-0.0008105992390024162,-0.0003291255896096667,-0.26495075617860375
5706,13.0,299.92246,12503.553,0.0,-0.02852983470694559,-0.02852948052573756,0.0,0.0,0.0,-0.9213455193597232,-1.4671476412961988,-1.4122745755056487,-0.0029006121134931276,-0.0026039466697145275,-0.26289267297298674
5707,13.0,299.85368,12487.405,0.0,-0.028534849195684053,-0.028534482735924738,0.0,0.0,0.0,-0.9252148479140961,-1.4595146256428786,-1.4111299068676786,-0.006255509437770714,0.0015662509991269385,-0.25880736002729776
5708,13.0,300.19365,12480.148000000001,0.0,-0.028539830694365054,-0.028539452036834057,0.0,0.0,0.0,-0.9202882030128742,-1.4596655999077786,-1.4136995091212787,0.00016174187106267985,0.003436629117093887,-0.26289156853037776
5709,13.0,299.77792,12413.206,0.0,-0.028544845183103296,-0.028544454247021234,0.0,0.0,0.0,-0.9161607489955261,-1.4542879776520485,-1.4028561118511185,-0.004072500702149526,0.005777662818435925,-0.26131695760997575
5710,13.0,299.82068,12443.809,0.0,-0.02854985967184176,-0.02854945645720841,0.0,0.0,0.0,-0.9288292528758101,-1.4509263177952787,-1.4028517548756887,-0.0008119485334980812,0.0007517391556583783,-0.26593673971841275
5711,13.0,300.25518,12546.101,0.0,-0.02855484117052287,-0.028554458667395366,0.0,0.0,0.0,-0.9371406496035811,-1.4605691150219486,-1.4159916834974986,0.0005250621488195995,-0.0017388017156313685,-0.2614359334367178
5712,13.0,300.11574,12507.468,0.0,-0.028559855659261224,-0.028559460877582543,0.0,0.0,0.0,-0.9344306615486261,-1.4593058961222787,-1.4082214737806384,0.006865871134333724,-0.0009851501922642542,-0.2681677239210937
5713,13.0,300.16405,12517.045,0.0,-0.028564837157942113,-0.0285644630877695,0.0,0.0,0.0,-0.9344708166500891,-1.4596596217321884,-1.4107384883540488,0.0027420431337935878,-0.0035127757740339763,-0.25887716282668677
5714,13.0,300.10719,12550.438999999998,0.0,-0.028569851646680577,-0.028569465297956675,0.0,0.0,0.0,-0.9339707371957351,-1.4617663713401086,-1.4192829224723187,0.0002762688915181168,-0.0036087119147021366,-0.26437962762723777
5715,13.0,299.98001,12531.94,0.0,-0.028574833145361467,-0.028574467508143853,0.0,0.0,0.0,-0.9337282664468051,-1.4614922871880587,-1.4141762432933287,-0.0007793658249349184,-0.0013348432187637687,-0.2545092240306048
5716,13.0,300.03983999999997,12541.82,0.0,-0.02857984763409971,-0.028579469718330808,0.0,0.0,0.0,-0.9336877060453022,-1.4640033235858785,-1.4147091115209185,0.0024511330519079977,0.00011051070984155791,-0.25609225505933775
5717,13.0,299.92478,12539.341,0.0,-0.028584862122838284,-0.028584471928517874,0.0,0.0,0.0,-0.926375586698652,-1.4649339938027288,-1.4203369052263384,-0.0025468637054558776,0.0012601556419676787,-0.25610799083339075
5718,13.0,299.80685,12481.801000000001,0.0,-0.028589843621519173,-0.02858947413870483,0.0,0.0,0.0,-0.9166963428658851,-1.4594561611121086,-1.4180033902460385,-0.001332868900943919,0.0006506832344874353,-0.25299805269896375
5719,13.0,300.17983,12520.648000000001,0.0,-0.028594858110257415,-0.028594476348892006,0.0,0.0,0.0,-0.9237162104861921,-1.4614809387869385,-1.4207671312187986,-0.005698768024574614,0.003840337949136846,-0.2565992043493697
5720,13.0,299.88813,12528.591999999999,0.0,-0.028599839608938304,-0.028599478559079183,0.0,0.0,0.0,-0.9237866111031401,-1.4627744538645986,-1.4218180742225186,0.0009224255629063151,0.0019505413996284485,-0.25978405206368976
5721,13.0,300.16614,12531.413999999999,0.0,-0.02860485409767688,-0.02860448076926614,0.0,0.0,0.0,-0.9344315836062171,-1.4627205489592785,-1.4120848950869287,0.008342758540891162,0.002373415046712828,-0.26892992104381674
5722,13.0,300.02565,12530.838,0.0,-0.028609835596357547,-0.02860945007017568,0.0,0.0,0.0,-0.9319938963831361,-1.4631364881253288,-1.4139313407441587,0.0037121810632387464,0.0032684149083674367,-0.26939880252759174
5723,13.0,299.92464,12522.925,0.0,-0.02861485008509601,-0.028614452280362856,0.0,0.0,0.0,-0.9349182577617481,-1.4634251630788186,-1.4083132742396987,0.005729193999902425,-0.0006196532405100134,-0.27153879687129273
5724,13.0,299.85986,12528.573999999999,0.0,-0.028619831583777122,-0.02861945449054981,0.0,0.0,0.0,-0.9337388954403542,-1.4630460048913985,-1.4115889091629787,0.0016381148505443487,-0.0003125757298963227,-0.26853955631029075
5725,13.0,299.79436,12510.389,0.0,-0.028624846072515475,-0.02862445670073699,0.0,0.0,0.0,-0.9276483402817631,-1.4628090056930088,-1.4123885661418987,0.0008954115350377381,-0.0033528493431754665,-0.26556000319873174
5726,13.0,299.66754,12487.864,0.0,-0.028629860561253717,-0.028629458910923944,0.0,0.0,0.0,-0.9187772444637541,-1.4589429499364586,-1.4182785889731986,0.0011348959420805088,-0.0006852199756034464,-0.2596508603380448
5727,13.0,299.94998,12511.937,0.0,-0.02863484205993483,-0.02863446112111112,0.0,0.0,0.0,-0.9262860356548142,-1.4606096450259485,-1.4164208962398588,-0.006087593124573665,-0.001086291348033609,-0.2597241487177777
5728,13.0,299.83552000000003,12518.826000000001,0.0,-0.02863985654867307,-0.028639463331298298,0.0,0.0,0.0,-0.9291749332799262,-1.4587015937626386,-1.4175340527997187,-0.004019156124134827,0.0035690291904357566,-0.2564867031907668
5729,13.0,299.97935,12572.58,0.0,-0.02864483804735396,-0.028644465541485364,0.0,0.0,0.0,-0.9356239864563981,-1.4670400341355787,-1.4190862506279087,-0.0013470491334433988,0.0026049160460851974,-0.2635304733809328
5730,13.0,299.97005,12589.163,0.0,-0.028649852536092535,-0.02864946775167254,0.0,0.0,0.0,-0.9363455623826121,-1.4670875555652687,-1.4233580117244988,-0.0026453923478298976,0.0010700646543071591,-0.25929301080022776
5731,13.0,299.90227000000004,12515.36,0.0,-0.028654834034773424,-0.028654469961859497,0.0,0.0,0.0,-0.9301183299180321,-1.4600273301934785,-1.4142113017467886,0.006352864939178953,-0.0017852658188420181,-0.26535332044333376
5732,13.0,299.93661000000003,12520.479,0.0,-0.028659848523511666,-0.028659472172046452,0.0,0.0,0.0,-0.9296026768096411,-1.4613633004503288,-1.4149469213193886,0.003553169698545546,0.0007824169439010402,-0.26497854962884676
5733,13.0,300.08446000000004,12561.476999999999,0.0,-0.028664830022192556,-0.02866447438223363,0.0,0.0,0.0,-0.9415659180903211,-1.4633032690917884,-1.4135061810021985,0.007416379235564643,0.0029045727054840074,-0.27186393869588177
5734,13.0,300.00677,12560.535,0.0,-0.02866984451093113,-0.028669476592420584,0.0,0.0,0.0,-0.9354726170239591,-1.4661382415465787,-1.4164781448705088,-0.0007245109571161643,0.0014287424227558984,-0.26520602427629675
5735,13.0,300.13732000000005,12561.171999999999,0.0,-0.028674858999669373,-0.02867447880260776,0.0,0.0,0.0,-0.9385415185293361,-1.4624294422055486,-1.4173118470527886,0.002891408357534787,0.0008917054816044791,-0.2676650100164797
5736,13.0,300.02362,12563.184,0.0,-0.028679840498350262,-0.028679448103517302,0.0,0.0,0.0,-0.9337197652784661,-1.4654416321028287,-1.4197327041917087,-0.0013086488798285888,0.0005195700394350705,-0.26217414692957375
5737,13.0,300.13496000000004,12537.507,0.0,-0.028684854987088726,-0.028684450313704257,0.0,0.0,0.0,-0.9275560838601582,-1.4692128476500186,-1.4143200234825186,0.002733749175100037,-0.0012536562505262388,-0.26157542757798474
5738,13.0,300.05948,12567.696000000002,0.0,-0.028689836485769615,-0.028689452523891434,0.0,0.0,0.0,-0.9263590605895211,-1.4705911717610485,-1.4233154552202987,-0.0001946134470968518,-0.002593095166443568,-0.26000800060079177
5739,13.0,299.95162,12607.936000000002,0.0,-0.02869485097450797,-0.02869445473407839,0.0,0.0,0.0,-0.9332231916694582,-1.4754781783183588,-1.4237964450427687,0.001164069945584759,-0.0033640313686290465,-0.25856835459370975
5740,13.0,299.88972,12594.653999999999,0.0,-0.02869983247318908,-0.028699456944265567,0.0,0.0,0.0,-0.9307104023489651,-1.4713462457355684,-1.4264036388750787,-0.003193841727507637,0.007100912226905473,-0.2647633657051097
5741,13.0,300.04206,12564.133,0.0,-0.02870484696192732,-0.028704459154452744,0.0,0.0,0.0,-0.9313695114065141,-1.4677301587786884,-1.4200830860762885,-0.004845067629045945,8.895948512486762e-05,-0.26657996101439374
5742,13.0,299.8613,12556.196000000002,0.0,-0.028709861450665675,-0.02870946136463981,0.0,0.0,0.0,-0.9291870821486251,-1.4687745156567587,-1.4188085187754986,-0.005731253633380694,0.005656667482919615,-0.2684214721436367
5743,13.0,300.03546,12574.632,0.0,-0.028714842949346786,-0.028714463574826987,0.0,0.0,0.0,-0.9385465239848301,-1.4634655917578088,-1.4203620338288185,-0.002423081932164568,0.001049146916592739,-0.26250008922174173
5744,13.0,300.01982999999996,12584.184,0.0,-0.028719857438085028,-0.028719465785013942,0.0,0.0,0.0,-0.9401338005314822,-1.4649143367507886,-1.4202296020407488,0.005163116297634905,0.003480922939915346,-0.2643586432176668
5745,13.0,300.11044,12565.105,0.0,-0.028724838936765917,-0.02872446799520112,0.0,0.0,0.0,-0.9380607718868901,-1.4669886623555088,-1.4144287452182487,0.0013620345957973488,-0.0012737949002387687,-0.26268804711529176
5746,13.0,300.08647,12531.476,0.0,-0.02872985342550438,-0.028729470205388297,0.0,0.0,0.0,-0.9276715133115501,-1.4639788029334588,-1.4176053856067587,0.000963810587870699,-0.002498727638255218,-0.26475907965718676
5747,13.0,300.1775,12604.655,0.0,-0.028734834924185382,-0.028734472415575252,0.0,0.0,0.0,-0.9372310315125012,-1.4700561757082486,-1.4242132961339087,0.001866065218916298,-0.004213621819102096,-0.26063475658264773
5748,13.0,299.95347999999996,12649.518999999998,0.0,-0.028739849412923624,-0.028739474625762207,0.0,0.0,0.0,-0.9434024034990681,-1.4705519589821787,-1.4311835448968184,0.0005615767946608145,0.0015623266814896385,-0.26373998310410973
5749,13.0,299.99227,12640.173999999999,0.0,-0.028744830911604513,-0.028744476835949273,0.0,0.0,0.0,-0.9365352124038291,-1.4801527063296984,-1.4256092507966787,0.002148975995237418,-0.0026324314605007575,-0.26147669648824073
5750,13.0,300.13327999999996,12570.773000000001,0.0,-0.028749845400342977,-0.02874947904613634,0.0,0.0,0.0,-0.9334942056737051,-1.4669892703055685,-1.4207175832889087,-0.004922687146331395,0.0012793970587166587,-0.2611513520136317
5751,13.0,299.87005,12590.553999999998,0.0,-0.02875485988908133,-0.02875444834704588,0.0,0.0,0.0,-0.9312844186631162,-1.4719305870682384,-1.4239989937377588,-0.0003284136192944007,-0.0014630122636630687,-0.25700676393709276
5752,13.0,299.93958,12637.545,0.0,-0.02875984138776222,-0.028759450557232946,0.0,0.0,0.0,-0.9398791606488511,-1.4777460346921787,-1.4238729454253185,-0.0015910720802015884,0.004085357224718366,-0.2654038512258208
5753,13.0,299.90713,12611.27,0.0,-0.028764855876500683,-0.028764452767420012,0.0,0.0,0.0,-0.9422387364217231,-1.4680565266358987,-1.4232159540604787,-0.002553993034484488,0.0029783901030942172,-0.26644765081633576
5754,13.0,299.92249,12565.537,0.0,-0.028769837375181573,-0.02876945497760719,0.0,0.0,0.0,-0.9313468348692762,-1.4707656534282685,-1.4174968665210486,-0.0012616315420633387,0.002144177952038888,-0.27446806238038873
5755,13.0,299.83874,12516.973999999998,0.0,-0.028774851863919926,-0.028774457187794256,0.0,0.0,0.0,-0.9241475915837661,-1.4663132298388486,-1.4143867966641086,9.5779108180912e-06,-0.0013315194544607388,-0.27425734688959275
5756,13.0,299.94064,12590.028999999999,0.0,-0.028779833362601037,-0.028779459397981433,0.0,0.0,0.0,-0.9323092704767612,-1.4732145775949588,-1.4215306151691487,0.0023244196421023577,0.0026972795682257676,-0.26673468430466374
5757,13.0,299.90631,12658.173,0.0,-0.02878484785133928,-0.028784461608168388,0.0,0.0,0.0,-0.9367776020927511,-1.4795013891654185,-1.4314895464270185,0.004021490551040215,-0.007586496125328873,-0.2673684925072157
5758,13.0,300.08057,12622.999,0.0,-0.02878982935002017,-0.028789463818355565,0.0,0.0,0.0,-0.9315089852827791,-1.4751611323620686,-1.4304064833951287,-0.0017618622746572684,-0.0019210068817386182,-0.25899709110852276
5759,13.0,300.08611,12590.068000000001,0.0,-0.028794843838758633,-0.028794466028542742,0.0,0.0,0.0,-0.9322382011147471,-1.4726497919892185,-1.4221781833080587,-0.004788404150328696,-0.0016508016537214384,-0.26081762796069574
5760,13.0,300.18027,12676.855,0.0,-0.028799858327496985,-0.028799468238729697,0.0,0.0,0.0,-0.9380130174096771,-1.4832909445394185,-1.4321434980415588,-0.004168930194291376,0.004957913495332965,-0.2613308087388428
5761,13.0,299.98621,12721.239,0.0,-0.028804839826177875,-0.028804470448916875,0.0,0.0,0.0,-0.951408609296719,-1.4840483489891685,-1.4314819470512687,-0.002768064206961667,0.00046370682564680053,-0.26197500275491975
5762,13.0,300.09702999999996,12657.723999999998,0.0,-0.02880985431491634,-0.02880947265910383,0.0,0.0,0.0,-0.94485481645741,-1.4738484668575187,-1.4289286581242786,-0.001041176286006099,0.0005172294621015735,-0.25922056341807775
5763,13.0,299.93305,12592.046,0.0,-0.028814835813597228,-0.028814474869290896,0.0,0.0,0.0,-0.9369302786178191,-1.4702199169244086,-1.4205174663941587,0.008115684431205692,0.001053308334753439,-0.2601001860948898
5764,13.0,299.90977999999996,12583.38,0.0,-0.02881985030233558,-0.028819477079477962,0.0,0.0,0.0,-0.9387445434518732,-1.4636811100540787,-1.4226077000254487,0.0019190340837939184,0.00040379723811418463,-0.2632047337387847
5765,13.0,299.91362999999996,12636.101999999999,0.0,-0.02882483180101647,-0.028824446380387503,0.0,0.0,0.0,-0.9472985629160892,-1.4700100728286987,-1.4237507474632587,0.007000723880867654,-0.0038011384438431566,-0.2678425213014987
5766,13.0,300.03081000000003,12672.778999999999,0.0,-0.028829846289754935,-0.02882944859057468,0.0,0.0,0.0,-0.9410382478357442,-1.4741894255161687,-1.4369807540189588,0.0001143531366057759,0.00016543266494943286,-0.26744244963201474
5767,13.0,299.83495,12657.612,0.0,-0.028834860778493288,-0.028834450800761746,0.0,0.0,0.0,-0.9420387512494862,-1.4734278667410086,-1.4321315416903786,0.008091124768656841,0.0027553024232771775,-0.26946769340189075
5768,13.0,300.01227,12636.188999999998,0.0,-0.028839842277174177,-0.0288394530109487,0.0,0.0,0.0,-0.9331887107685551,-1.4758335251284287,-1.4320637552586886,0.003296612949375367,0.0013539399433984687,-0.2675124145514198
5769,13.0,300.0206,12655.858999999999,0.0,-0.02884485676591264,-0.02884445522113588,0.0,0.0,0.0,-0.9384140921967602,-1.4792721919927987,-1.4293786424936885,0.001169755291895859,-0.0070778581526802125,-0.2637439955745058
5770,13.0,299.84522000000004,12704.485,0.0,-0.02884983826459353,-0.028849457431322834,0.0,0.0,0.0,-0.937717371295499,-1.4902750748286986,-1.4338538642103587,-0.0029784764320027373,-0.0064280318845973535,-0.2614760885381808
5771,13.0,299.95176000000004,12654.925,0.0,-0.028854852753331994,-0.02885445964151001,0.0,0.0,0.0,-0.9374706043661452,-1.4800170321413086,-1.4292935294852884,-0.00047696258902004253,-0.0015504280855653386,-0.2617733862500217
5772,13.0,300.16024,12588.66,0.0,-0.028859834252012884,-0.028859461851697188,0.0,0.0,0.0,-0.9225665363927281,-1.4807271178113885,-1.4233446368231788,0.004773564393339125,0.004399913828162686,-0.27216232058532974
5773,13.0,300.05981,12613.331,0.0,-0.028864848740751237,-0.028864464061884143,0.0,0.0,0.0,-0.9349907456739021,-1.4797590586658484,-1.4193878951826786,0.0007626362247863352,-0.0001094235938092679,-0.27332013107709674
5774,13.0,300.17771,12679.758999999998,0.0,-0.028869830239432126,-0.02886946627207132,0.0,0.0,0.0,-0.9390673142712281,-1.4814472346574588,-1.4338155633565788,0.0016297956619233086,0.004845862523749396,-0.27400792524497675
5775,13.0,300.06337,12673.298,0.0,-0.02887484472817059,-0.028874468482258275,0.0,0.0,0.0,-0.9464969503644761,-1.4744402049159184,-1.4314289540710385,0.004211711336038546,0.0039042462673941065,-0.26534276237729176
5776,13.0,300.02436,12654.583999999999,0.0,-0.028879859216908943,-0.028879470692445453,0.0,0.0,0.0,-0.9450189021786042,-1.4733206648804285,-1.4283381359659986,-0.0003679159850429807,0.0031995839171493467,-0.26746439662918076
5777,13.0,300.10796,12685.267,0.0,-0.028884840715589832,-0.02888447290263263,0.0,0.0,0.0,-0.9479777545906201,-1.4749116701874487,-1.4331150022374386,-0.0010839823537057288,-0.006575341933160724,-0.2580043694555488
5778,13.0,299.87779,12717.229,0.0,-0.028889855204328296,-0.028889475112819585,0.0,0.0,0.0,-0.9439862179416861,-1.4826976866058685,-1.4390360305217986,-0.005900913446024813,-0.005905825783834625,-0.2669585821792608
5779,13.0,299.85053,12776.597,0.0,-0.028894836703009186,-0.028894444413729126,0.0,0.0,0.0,-0.949904338198259,-1.4873674523417384,-1.4464947671579185,-0.0017830598720493082,0.0014605107518161884,-0.2560520290303677
5780,13.0,300.01096,12733.624,0.0,-0.02889985119174754,-0.028899446623916303,0.0,0.0,0.0,-0.9450100058427261,-1.4868081382865383,-1.4388855628819486,0.002007529726327758,0.0011482081232193188,-0.2670049687688387
5781,13.0,299.77128999999996,12652.73,0.0,-0.028904832690428428,-0.02890444883410337,0.0,0.0,0.0,-0.9411417614659602,-1.4796882324838587,-1.4252838961895686,0.0016003656101187887,-0.0009800500282834072,-0.25602387081008876
5782,13.0,300.13576,12623.44,0.0,-0.028909847179166892,-0.028909451044290324,0.0,0.0,0.0,-0.9400968067703311,-1.4742673444488585,-1.4228463204239985,0.0008536564812693351,0.0006608418064125085,-0.2641260719222137
5783,13.0,300.23157000000003,12659.011,0.0,-0.02891482867784778,-0.02891445325447728,0.0,0.0,0.0,-0.9415186297081541,-1.4794308669584588,-1.4270738024912186,-8.312571185961902e-05,0.0017890861770190583,-0.2614187081850178
5784,13.0,300.14196,12681.555,0.0,-0.028919843166586245,-0.028919455464664456,0.0,0.0,0.0,-0.939322389851402,-1.4816988246572884,-1.4338547761354485,0.0017387069767470184,0.005052907617383156,-0.2765695430877887
5785,13.0,300.0867,12696.587,0.0,-0.0289248576553246,-0.028924457674851634,0.0,0.0,0.0,-0.9431937651709771,-1.4834767746077588,-1.4327748541788685,-0.0029492486249181773,0.0037771206674477864,-0.27552056578926276
5786,13.0,299.96705,12671.863000000001,0.0,-0.028929839154005488,-0.02892945988503859,0.0,0.0,0.0,-0.9340256350861532,-1.4849978656578786,-1.4329063740418486,-0.0024673850768869477,0.0040380785697523265,-0.27860265981094173
5787,13.0,299.71653,12690.356000000002,0.0,-0.028934853642743952,-0.028934462095225766,0.0,0.0,0.0,-0.9424765766176961,-1.4839300013774885,-1.4311447374179886,-0.006570328067690895,0.0022208387320797177,-0.26787336463454275
5788,13.0,299.88924,12780.376,0.0,-0.02893983514142484,-0.02893946430541272,0.0,0.0,0.0,-0.9528112919401531,-1.4922921518027685,-1.4398117747983588,-0.0007343955462141973,-0.0006840184940323693,-0.2678164605089267
5789,13.0,299.65041,12747.576000000001,0.0,-0.028944849630163194,-0.028944466515599898,0.0,0.0,0.0,-0.94737811318144,-1.4892087304234587,-1.4383578622298685,-0.001066626392742829,-0.0028169673044880278,-0.26385167366263274
5790,13.0,299.53938999999997,12660.786,0.0,-0.028949831128844083,-0.028949468725787075,0.0,0.0,0.0,-0.9322207326830232,-1.4848621914694884,-1.4314800218760786,0.005216978443800685,-0.006801999191755055,-0.2641732691118717
5791,13.0,299.68042,12687.833,0.0,-0.028954845617582547,-0.02895447093597414,0.0,0.0,0.0,-0.93787058484312,-1.4837954417642085,-1.4351185016601686,0.0018938036496788683,-0.0017148849602709683,-0.2637571678258057
5792,13.0,299.98714,12760.18,0.0,-0.0289598601063209,-0.02895947314616132,0.0,0.0,0.0,-0.949297452050864,-1.4874851920033587,-1.4419934035886686,0.0007499631916781042,-0.001086525307481699,-0.2677903997163547
5793,13.0,299.98972000000003,12732.338,0.0,-0.02896484160500179,-0.02896444244707075,0.0,0.0,0.0,-0.9526242561041941,-1.4834281386029586,-1.4342604814754885,-0.0012625873408826688,0.002012959530963638,-0.25813358924080176
5794,13.0,300.09947999999997,12671.333999999999,0.0,-0.028969856093740254,-0.028969444657257815,0.0,0.0,0.0,-0.9403839314511682,-1.4795241872926685,-1.4318611052386885,-0.000993263285814954,-0.00043742022015751456,-0.2618409700316917
5795,13.0,300.14197,12681.992,0.0,-0.028974837592421143,-0.028974446867444992,0.0,0.0,0.0,-0.9399118987595821,-1.4793760501280486,-1.4357209801696287,-0.000993079188404285,0.0017410008736484085,-0.2616366988115318
5796,13.0,300.01727999999997,12787.537,0.0,-0.028979852081159385,-0.028979449077631947,0.0,0.0,0.0,-0.947860866059084,-1.4921438119881285,-1.4470874171414088,0.0028474062494171174,-0.0006463084663856794,-0.26847720089913674
5797,13.0,300.07022,12855.552,0.0,-0.028984833579840497,-0.028984451287819124,0.0,0.0,0.0,-0.9607825406093541,-1.4939550978668885,-1.4530293183778287,0.002037605319770988,-0.001959949122831918,-0.27091230433446273
5798,13.0,300.20576,12768.173999999999,0.0,-0.02898984806857885,-0.02898945349800608,0.0,0.0,0.0,-0.9468001755894021,-1.4911720038172185,-1.4432337230360786,0.006614813597431274,-0.002497603538594278,-0.27130119985534373
5799,13.0,300.17582999999996,12647.786,0.0,-0.02899482956725974,-0.028994455708193034,0.0,0.0,0.0,-0.9480091349462172,-1.4719397063191384,-1.4246622672532188,0.0004933629335486304,0.006891887850526374,-0.26536395956938374
5800,13.0,300.222,12697.636999999999,0.0,-0.028999844055998203,-0.02899945791838021,0.0,0.0,0.0,-0.941233774707541,-1.4812554264135287,-1.4372753058230285,0.005120035537833165,0.0014209871078155085,-0.26812911909228376
5801,13.0,300.041,12768.716999999999,0.0,-0.029004858544736556,-0.029004460128567167,0.0,0.0,0.0,-0.946617213018845,-1.4936151524583385,-1.4411387271293186,-0.0006920319040382314,-0.0018045814054983183,-0.26904274644245174
5802,13.0,299.63555,12732.983999999999,0.0,-0.029009840043417445,-0.029009462338754344,0.0,0.0,0.0,-0.931494455276345,-1.4969704288394785,-1.4420443700686987,0.004317191887348666,-0.0076373381782465916,-0.26945733798586874
5803,13.0,299.8222,12663.067,0.0,-0.02901485453215591,-0.02901446454894152,0.0,0.0,0.0,-0.9325586515913731,-1.4893233290097685,-1.4273743324708785,0.003133825302884477,-0.005114387783100776,-0.2715759527524597
5804,13.0,299.8393,12654.284,0.0,-0.0290198360308368,-0.029019466759128587,0.0,0.0,0.0,-0.9319950920182541,-1.4852168290044885,-1.4293743868432687,0.0009608277619613173,-0.005554356681897324,-0.2741655869605367
5805,13.0,299.93775,12764.237,0.0,-0.02902485051957504,-0.029024468969315764,0.0,0.0,0.0,-0.9564523149819941,-1.4876729472468884,-1.4358839107857089,-0.006025479778868555,0.0043646770426850855,-0.2656865682687227
5806,13.0,300.08522,12824.046999999999,0.0,-0.02902983201825604,-0.02902947117950272,0.0,0.0,0.0,-0.953095133690666,-1.4940374751000187,-1.4510573310332089,-0.004004773646915386,0.0056119131379277045,-0.26844988367644074
5807,13.0,300.00809,12754.913999999999,0.0,-0.029034846506994505,-0.029034473389689897,0.0,0.0,0.0,-0.9478589712813972,-1.4866225108682185,-1.4426938633827986,-0.0014092225648794387,0.01285096083904109,-0.2689768243909457
5808,13.0,300.28069,12742.267,0.0,-0.029039828005675394,-0.029039442690599437,0.0,0.0,0.0,-0.9433824019420942,-1.4866018405661787,-1.4433467004222287,-0.0016924335672051885,-0.0006709331593259474,-0.26865493509917776
5809,13.0,300.17805,12817.67,0.0,-0.029044842494413636,-0.029044444900786393,0.0,0.0,0.0,-0.9588369180323362,-1.4905408503299287,-1.4468738240203287,-0.0006896934849274474,-0.006046917415209284,-0.26809332096625077
5810,13.0,299.75377000000003,12853.469,0.0,-0.02904985698315221,-0.02904944711097357,0.0,0.0,0.0,-0.9637150586512712,-1.4911761581426286,-1.4522424283501687,0.0011982360296816888,-0.0058313173496562145,-0.2603214089892228
5811,13.0,299.8477,12820.026000000002,0.0,-0.0290548384818331,-0.029054449321160747,0.0,0.0,0.0,-0.9623772746767422,-1.4919064074896986,-1.4426841361818386,0.0003491318075341267,0.0002562409393790118,-0.25975931862874874
5812,13.0,299.90795,12747.238000000001,0.0,-0.029059852970571343,-0.029059451531347702,0.0,0.0,0.0,-0.9438020597360111,-1.4868088475616086,-1.4442311664345187,0.0042963499407417255,0.00047148339857428856,-0.26153549539154375
5813,13.0,299.81835,12740.0,0.0,-0.029064834469252454,-0.029064453741534657,0.0,0.0,0.0,-0.945865016674609,-1.4871154570418685,-1.4396613071585087,-0.0014001656288605887,0.003102094666727907,-0.2644139768056278
5814,13.0,300.04854,12800.428999999998,0.0,-0.029069848957990696,-0.029069455951721723,0.0,0.0,0.0,-0.9455693097654252,-1.4979262276588088,-1.4475154139836486,0.005893156205909234,0.0032154910317942573,-0.27027362239892977
5815,13.0,300.09582,12814.133999999998,0.0,-0.029074830456671696,-0.02907445816190879,0.0,0.0,0.0,-0.951151041121299,-1.4977188153633385,-1.4463068092643687,0.0013074145385567689,0.004524369007470455,-0.26721842003490476
5816,13.0,300.05421,12769.122,0.0,-0.02907984494541016,-0.029079460372095967,0.0,0.0,0.0,-0.9469327694974882,-1.4906184652875885,-1.4439428967810686,0.0016375309145117184,4.313510141785306e-05,-0.2707932677127147
5817,13.0,300.11922999999996,12712.261999999999,0.0,-0.029084859434148624,-0.029084462582283033,0.0,0.0,0.0,-0.9426008112124572,-1.4855323550856285,-1.4360772389047887,-0.003102480613690997,0.00017162733155579884,-0.26905576670623677
5818,13.0,299.95729,12756.325,0.0,-0.02908984093282929,-0.02908946479247021,0.0,0.0,0.0,-0.9422014386855421,-1.4911889250938886,-1.4442139411828185,3.0720616297888768e-06,0.0027577496249186974,-0.27323576787377074
5819,13.0,299.85726,12848.441,0.0,-0.029094855421567867,-0.029094467002657165,0.0,0.0,0.0,-0.9537350416588202,-1.5007291814104387,-1.4511411268164787,0.0012548182457409187,0.006008188564587045,-0.27353515288081776
5820,13.0,299.7397,12805.291000000001,0.0,-0.029099836920248756,-0.029099469212844342,0.0,0.0,0.0,-0.9459294695134702,-1.4974393609857586,-1.4491198955169986,0.0017638698270803983,-0.0033089163387146165,-0.2773391166712398
5821,13.0,299.88577999999995,12709.412,0.0,-0.029104851408986998,-0.02910447142303152,0.0,0.0,0.0,-0.9426736942921501,-1.4898753476642486,-1.4307949634834687,0.0015859751282235584,-0.004903868052224095,-0.27179915148448774
5822,13.0,300.10221,12692.031,0.0,-0.029109832907667887,-0.029109440723940838,0.0,0.0,0.0,-0.9413939898133531,-1.4859685592536787,-1.4306980967739087,0.0061661774586043334,-0.005354601213457995,-0.2703111633151347
5823,13.0,300.19203999999996,12796.021,0.0,-0.029114847396406462,-0.029114442934128015,0.0,0.0,0.0,-0.951596293612742,-1.4956986986389684,-1.4423758041764088,0.0030934083775956372,-0.002972405746678607,-0.26399130965891376
5824,13.0,300.20527999999996,12858.341999999999,0.0,-0.029119828895087352,-0.029119445144315192,0.0,0.0,0.0,-0.9492736609385161,-1.5039761413558885,-1.4553651638333587,-0.002529445328286818,-0.0034169124860480068,-0.26433840861316976
5825,13.0,300.11016,12845.133,0.0,-0.029124843383825594,-0.029124447354502148,0.0,0.0,0.0,-0.956977533171329,-1.4954526815146885,-1.4521693730179586,-0.006621376317003964,-0.0037712392572423364,-0.26517482630571776
5826,13.0,299.92616,12822.716999999999,0.0,-0.029129857872564058,-0.029129449564689325,0.0,0.0,0.0,-0.947439779582526,-1.4975948948761086,-1.4527511812253786,0.0021943762871680776,0.003782368087065666,-0.26848675584757975
5827,13.0,299.92485,12843.76,0.0,-0.029134839371244947,-0.02913445177487628,0.0,0.0,0.0,-0.963094321375009,-1.4940846925546787,-1.4470033173831087,-0.003163657007028637,0.0035927734906291368,-0.2646557078819847
5828,13.0,300.01831,12889.43,0.0,-0.0291398538599833,-0.029139453985063457,0.0,0.0,0.0,-0.9668041035686361,-1.4957025489893485,-1.4555582893024186,0.0005071071746625815,0.0035055049952914066,-0.26452964943704377
5829,13.0,300.0151,12874.175,0.0,-0.02914483535866441,-0.029144456195250523,0.0,0.0,0.0,-0.9636191443968051,-1.4966356510064385,-1.4531728959169987,-0.007712282107317983,-0.005517237480383944,-0.26440485755472776
5830,13.0,300.04748,12760.652,0.0,-0.029149849847402876,-0.02914945840543748,0.0,0.0,0.0,-0.942391818246831,-1.4891094319136589,-1.4474184459490786,0.002526789397124698,0.004423759656016086,-0.26909353053746377
5831,13.0,300.01842,12731.271999999999,0.0,-0.029154831346083543,-0.029154460615624656,0.0,0.0,0.0,-0.94156823843305,-1.4919360957176286,-1.4364844641199785,0.0005412877482359415,0.0025722487615361875,-0.2706664189326958
5832,13.0,299.85287999999997,12833.043,0.0,-0.029159845834822118,-0.02915946282581161,0.0,0.0,0.0,-0.9485016656873262,-1.5048184561640185,-1.4476044786674385,0.0031482860030116375,0.001041830338945649,-0.2785976847529507
5833,13.0,299.73132999999996,12867.296999999999,0.0,-0.029164827333503007,-0.029164465035998788,0.0,0.0,0.0,-0.9651802588258751,-1.5028388694436485,-1.4433180254443987,-0.004049789410433095,-0.004903045799767945,-0.27230807661221473
5834,13.0,299.90412000000003,12819.745,0.0,-0.02916984182224125,-0.029169467246185965,0.0,0.0,0.0,-0.9503393365986901,-1.5002598439641186,-1.4462829978870186,0.001948371625864308,0.0026685443020148174,-0.26989178923124574
5835,13.0,299.86343999999997,12776.67,0.0,-0.029174856310979713,-0.02917446945637292,0.0,0.0,0.0,-0.9436176583503122,-1.5017447619856685,-1.4384263579366288,0.010385603782229292,0.004759772944903015,-0.26988679390825276
5836,13.0,299.88568,12804.473,0.0,-0.029179837809660603,-0.02917943875728246,0.0,0.0,0.0,-0.9421318790661771,-1.4950708888770086,-1.4550373774260086,-0.001991959112041058,-0.0014829728853330286,-0.26368262301594875
5837,13.0,299.96809,12885.743999999999,0.0,-0.029184852298398956,-0.029184440967469638,0.0,0.0,0.0,-0.9574142946269341,-1.5031376768981384,-1.4563922954597286,-0.006011822788720714,-0.004801537290174835,-0.27158419047577276
5838,13.0,300.22871000000004,12858.113000000001,0.0,-0.029189833797079845,-0.029189443177656593,0.0,0.0,0.0,-0.955389648674617,-1.4995941386484184,-1.4535614773303487,-0.010166121651568091,0.0028302564848495674,-0.26839289849081677
5839,13.0,299.9822,12743.662,0.0,-0.02919484828581831,-0.02919444538784377,0.0,0.0,0.0,-0.9493159742626921,-1.4898990577165885,-1.4345401385030885,-0.006407748137470504,0.006029988133863494,-0.27559556656166473
5840,13.0,300.10079,12778.026000000002,0.0,-0.0291998297844992,-0.029199447598030726,0.0,0.0,0.0,-0.9427530216424791,-1.4954790260172885,-1.4459687890310087,-0.006526871392102055,-0.0029694866744655176,-0.26782891335265574
5841,13.0,300.01243,12909.242,0.0,-0.02920484427323755,-0.029204449808217903,0.0,0.0,0.0,-0.959874131497201,-1.5043241927652384,-1.4598890215548286,-0.005947000417548244,-0.006758991081985483,-0.2709660065897627
5842,13.0,300.10759,12956.492,0.0,-0.029209858761976015,-0.02920945201840508,0.0,0.0,0.0,-0.9630282777334911,-1.5054275207991286,-1.4699940634771185,0.0034658997846576767,0.002129436277658998,-0.25903976920273475
5843,13.0,300.31984,12895.507,0.0,-0.029214840260657127,-0.029214454228592146,0.0,0.0,0.0,-0.9602824206249961,-1.5017456739107586,-1.4578839009319386,0.01031047230056439,0.001021693614408309,-0.26834097955569275
5844,13.0,300.3432,12821.975,0.0,-0.02921985474939537,-0.0292194564387791,0.0,0.0,0.0,-0.949487568167127,-1.4970975917270286,-1.4509751564500986,0.01001540860254387,0.00024069789562753278,-0.2658637958437137
5845,13.0,300.34732,12886.676000000001,0.0,-0.02922483624807637,-0.029224458648966056,0.0,0.0,0.0,-0.965837979730787,-1.5002511300132586,-1.4511384923662185,0.0034676156223770174,-0.007212833299826224,-0.2657719649871507
5846,13.0,300.34873999999996,12988.528999999999,0.0,-0.029229850736814833,-0.029229460859153233,0.0,0.0,0.0,-0.9640041085072981,-1.5112415498729286,-1.4729428239181384,-0.0005608378212303835,0.002193813832037568,-0.2612318547340768
5847,13.0,300.03161,12883.453000000001,0.0,-0.0292348322354955,-0.02923446306934041,0.0,0.0,0.0,-0.9555545247308891,-1.5013968119013286,-1.4592965742213586,0.001877138117334108,0.0024876023548072376,-0.26864880493607274
5848,13.0,299.95377,12771.237,0.0,-0.029239846724233964,-0.029239465279527366,0.0,0.0,0.0,-0.9372456223139412,-1.4970378099711288,-1.4478537381920387,-0.0013646908309344987,-0.004528592841837316,-0.2728749697781627
5849,13.0,300.11717999999996,12798.303999999998,0.0,-0.029244828222914854,-0.029244467489714543,0.0,0.0,0.0,-0.945237642610192,-1.4974970149164486,-1.4476301138949685,0.0023523917283379877,-0.005686967105959954,-0.27607471226895275
5850,13.0,299.96322999999995,12873.222,0.0,-0.029249842711653207,-0.029249469699901498,0.0,0.0,0.0,-0.9547524359517292,-1.5041688615249087,-1.4542167461700186,-0.003204494735084007,0.005134917952651945,-0.28058415144149973
5851,13.0,300.20721000000003,12909.885,0.0,-0.02925485720039167,-0.02925443900081104,0.0,0.0,0.0,-0.9668049040362151,-1.5072703187559986,-1.4502075181743386,0.005519842141091005,0.008771149436095053,-0.2789935818320227
5852,13.0,299.98748,12829.867,0.0,-0.02925983869907256,-0.029259441210998216,0.0,0.0,0.0,-0.948831042897333,-1.4993417380485086,-1.4517863644801587,-0.001134060416048049,0.0015256621252961286,-0.2752663717366758
5853,13.0,299.83957000000004,12781.204,0.0,-0.029264853187810913,-0.02926444342118517,0.0,0.0,0.0,-0.942927868079735,-1.4996431799532586,-1.4425958820981286,0.0052801481027350446,-0.007875532302479523,-0.27125096291538575
5854,13.0,300.01532000000003,12869.669,0.0,-0.029269834686491802,-0.02926944563137235,0.0,0.0,0.0,-0.9499433381946081,-1.5063182689620385,-1.4557962004258986,0.0039017256051203366,-0.0037008606278215064,-0.2669699103153787
5855,13.0,299.91604,12968.247,0.0,-0.029274849175230266,-0.029274447841559526,0.0,0.0,0.0,-0.965185406136383,-1.5163392111260288,-1.4604984914899786,-0.0015550035177168983,-0.002939827425488377,-0.2661851683779307
5856,13.0,300.05615,12947.888,0.0,-0.029279830673911378,-0.02927945005174659,0.0,0.0,0.0,-0.9659662571934472,-1.5091639818678884,-1.4607042825852885,-0.000873829338305241,-0.0017041404562105685,-0.26777396479973276
5857,13.0,300.21817000000004,12860.963,0.0,-0.02928484516264962,-0.02928445226193377,0.0,0.0,0.0,-0.9543935630313111,-1.5045019168327787,-1.4505161541547986,-0.006643834498845413,-0.004418790576200675,-0.2716954554692538
5858,13.0,300.04035,12876.946000000002,0.0,-0.02928982666133051,-0.029289454472120724,0.0,0.0,0.0,-0.9503323451730001,-1.5052474662563586,-1.4586903466865286,0.00017031853666663084,0.005656777623205485,-0.26997756085221075
5859,13.0,300.16899,12970.18,0.0,-0.029294841150069084,-0.0292944566823079,0.0,0.0,0.0,-0.9682241026562791,-1.5067736235569786,-1.4676132297171487,-0.0057727803715040635,0.003591158876594786,-0.26937342061258673
5860,13.0,300.32672,12942.05,0.0,-0.029299855638807326,-0.029299458892494856,0.0,0.0,0.0,-0.9651457779249721,-1.5022552373860485,-1.4666590520979788,-0.0015744572103618285,0.0025643668916583073,-0.26778088529791577
5861,13.0,299.98711000000003,12841.315,0.0,-0.029304837137488216,-0.02930446110268181,0.0,0.0,0.0,-0.9558739112949101,-1.4998167496953885,-1.4477484615066487,0.002690977963203847,-0.003982476267864806,-0.27036836128327973
5862,13.0,299.95702,12867.038,0.0,-0.02930985162622679,-0.02930946331286899,0.0,0.0,0.0,-0.9584799905521101,-1.5007302959855486,-1.4520480869809884,0.0037908436201771365,0.00903859852251522,-0.26890475191133273
5863,13.0,299.92225,12964.198999999999,0.0,-0.029314833124907458,-0.029314465523055944,0.0,0.0,0.0,-0.9655021987801481,-1.5144959065441086,-1.4607947658192184,0.005856608882752295,0.0062055879225688445,-0.27044564186840675
5864,13.0,299.82099,13027.176000000001,0.0,-0.029319847613645922,-0.02931946773324312,0.0,0.0,0.0,-0.963915074221011,-1.5224665371307486,-1.4735545230035088,-0.004833108136790635,-0.0002673091261838568,-0.26740511136582973
5865,13.0,300.1807,13007.225,0.0,-0.02932482911232681,-0.02932443703415266,0.0,0.0,0.0,-0.9693617393385552,-1.5185149630657586,-1.4659949679824384,0.0011922276592387089,-0.0026782292504456476,-0.26685806776934073
5866,13.0,300.19002,12874.468,0.0,-0.029329843601065164,-0.029329439244339728,0.0,0.0,0.0,-0.9450795249320871,-1.5091503029915385,-1.4592869483454087,0.0031492587231076374,0.0007865793347818362,-0.27092352101306977
5867,13.0,300.23764,12809.906,0.0,-0.029334858089803628,-0.029334441454526794,0.0,0.0,0.0,-0.9426946280392162,-1.5046124624186885,-1.4465843384667587,0.006928918797956043,0.0015065508098599885,-0.27733444558827874
5868,13.0,300.11741,12909.233,0.0,-0.029339839588484518,-0.02933944366471397,0.0,0.0,0.0,-0.9562492495294531,-1.5057221739282087,-1.4621129028743087,-0.003613326863607596,-0.0036742531868205566,-0.2769915313569357
5869,13.0,300.19569,12955.796,0.0,-0.02934485407722287,-0.029344445874901037,0.0,0.0,0.0,-0.9583638822231509,-1.5155951815775985,-1.4642794342381287,0.001155082315872749,-0.0050443379533373954,-0.2787032958108737
5870,13.0,300.2667,12845.971000000001,0.0,-0.02934983557590387,-0.029349448085088214,0.0,0.0,0.0,-0.94945973418688,-1.5026818156781485,-1.4527128803715985,-0.002407462175248018,0.007060856119977243,-0.2792407135314127
5871,13.0,300.05261,12819.893999999998,0.0,-0.029354850064642224,-0.02935445029527517,0.0,0.0,0.0,-0.9536675997321641,-1.4969994077923385,-1.4462605037347986,-0.0006119148975087985,0.002562911763189698,-0.2738223586216627
5872,13.0,299.97828,12946.118,0.0,-0.029359831563323335,-0.029359452505462347,0.0,0.0,0.0,-0.9645566641843311,-1.5077790716312087,-1.4629609932080088,-0.008225053228449552,0.002402197733028458,-0.2708741656006987
5873,13.0,299.84174,13041.347,0.0,-0.029364846052061577,-0.029364454715649524,0.0,0.0,0.0,-0.97900782962805,-1.5127831085750685,-1.4724529174947885,-0.004233482027687146,-0.003478357694637177,-0.26893646663946275
5874,13.0,299.95302999999996,13036.281,0.0,-0.029369827550742467,-0.02936945692583648,0.0,0.0,0.0,-0.9725365660093861,-1.5157771612955586,-1.4743901503609786,0.0015705277251490185,0.00045306787184931754,-0.26284015622030377
5875,13.0,299.97134,12929.502,0.0,-0.02937484203948093,-0.029374459136023434,0.0,0.0,0.0,-0.9565121271353971,-1.5109974579238383,-1.4627360516858086,0.0067619712531796035,0.004801081732929875,-0.27196946869379673
5876,13.0,300.11082999999996,12916.312,0.0,-0.029379856528219284,-0.0293794613462105,0.0,0.0,0.0,-0.9582914652385042,-1.5072925089331886,-1.4606524041801685,-0.0015027740214372486,-0.0016793836151922583,-0.26473933141273776
5877,13.0,300.06282000000004,12982.192,0.0,-0.029384838026900173,-0.029384463556397566,0.0,0.0,0.0,-0.9666695135578531,-1.5147844801725883,-1.4648082494653185,0.0038271483712601366,-0.0014428183918200885,-0.27244536186826374
5878,13.0,300.10096,13005.024,0.0,-0.029389852515638637,-0.029389465766584744,0.0,0.0,0.0,-0.9674162180865471,-1.5140102557711785,-1.4717761677529986,-0.001068429471295779,0.0017813706828075984,-0.26618348638276473
5879,13.0,300.01558,12882.143999999998,0.0,-0.029394834014319415,-0.029394435067494284,0.0,0.0,0.0,-0.9585976592862231,-1.5025038889605884,-1.4547486011475086,0.008036688211009373,0.0017613812848347981,-0.2747846726391357
5880,13.0,300.07554,12855.482,0.0,-0.02939984850305788,-0.02939943727768135,0.0,0.0,0.0,-0.9446219817169311,-1.5067021894249286,-1.4564212744125884,-0.0029164207402283173,-0.005543927095968005,-0.27670829755648274
5881,13.0,300.08367999999996,13003.073,0.0,-0.02940483000173877,-0.029404439487868417,0.0,0.0,0.0,-0.963160648726555,-1.5198947057269288,-1.4695542116087088,0.00036421224181994963,-0.001959834017620558,-0.2819401637853277
5882,13.0,300.05481000000003,13071.816,0.0,-0.02940984449047712,-0.029409441698055483,0.0,0.0,0.0,-0.972185930812281,-1.5213265294432383,-1.4799932207639586,0.0008979651988672651,0.008939224626907782,-0.2776899747833667
5883,13.0,300.06016,12983.815,0.0,-0.029414825989158122,-0.02941444390824266,0.0,0.0,0.0,-0.962738133567356,-1.5185568102948885,-1.4654607825297186,0.0008436597152527313,0.006140029526523734,-0.27483770614936975
5884,13.0,299.87012000000004,12899.899,0.0,-0.029419840477896475,-0.029419446118429615,0.0,0.0,0.0,-0.9513397285549211,-1.5116408717373384,-1.4582664028446886,0.002625557774472378,0.0017169073061455583,-0.27450801483183174
5885,13.0,300.21236,12937.728000000001,0.0,-0.029424854966634717,-0.029424448328616792,0.0,0.0,0.0,-0.9631203619025791,-1.5106440362889586,-1.4589820613903186,-0.003956965264797067,-0.005399777171816515,-0.26948974172406676
5886,13.0,300.26221,13001.381000000001,0.0,-0.02942983646531583,-0.02942945053880397,0.0,0.0,0.0,-0.9565756579166672,-1.5207988287911587,-1.4747206725435986,0.0051641814261400255,-0.0004421797902497476,-0.27703610422883473
5887,13.0,300.09367000000003,13032.572,0.0,-0.02943485095405418,-0.029434452748990925,0.0,0.0,0.0,-0.9673008190326581,-1.5230426711376086,-1.4712329643743884,0.001087400856893109,-0.005760734449015224,-0.27132829416301774
5888,13.0,300.12332000000004,12954.452,0.0,-0.029439832452735182,-0.029439454959178102,0.0,0.0,0.0,-0.9611174704299091,-1.5105309575777985,-1.4661815073258486,0.0020605414516846076,-0.007170948073817474,-0.27411882546842176
5889,13.0,300.28058,12890.446000000002,0.0,-0.029444846941473535,-0.029444457169365057,0.0,0.0,0.0,-0.9570073632542732,-1.5084398120214186,-1.4529265748176885,-0.0008713882262968223,-0.004868187969827745,-0.27411027363757773
5890,13.0,300.27918999999997,12969.774,0.0,-0.029449828440154424,-0.029449459379552123,0.0,0.0,0.0,-0.9672675236343721,-1.5115850416568286,-1.4636349058495186,-0.0019015538983687581,0.0013143867124948687,-0.2674777613979998
5891,13.0,300.03323,13075.007,0.0,-0.029454842928892888,-0.0294544615897393,0.0,0.0,0.0,-0.987406132816898,-1.5154717677154186,-1.4715977344103885,-0.0014242221114097787,0.004843899858305696,-0.2697778999200057
5892,13.0,300.03136,13057.673999999999,0.0,-0.02945985741763124,-0.029459463799926255,0.0,0.0,0.0,-0.9730141411790191,-1.5198976441522185,-1.4762950605489786,-0.0006058847117911654,-0.002281679638309248,-0.2678774176349427
5893,13.0,300.08126,12949.739,0.0,-0.02946483891631213,-0.029464433100835907,0.0,0.0,0.0,-0.9647906641624251,-1.5110038413994686,-1.4606026536002588,0.002916796858665437,0.0012429089093655588,-0.27915539787299276
5894,13.0,300.01192000000003,12974.171999999999,0.0,-0.029469853405050594,-0.029469435311022973,0.0,0.0,0.0,-0.9632416783370521,-1.5151228043809786,-1.4654599719296386,0.008069914809613582,0.004502912220702837,-0.2694660012742237
5895,13.0,299.94944,13035.239,0.0,-0.029474834903731262,-0.02947443752120993,0.0,0.0,0.0,-0.9658437856538601,-1.5239331153254885,-1.4726102752353185,0.0023834557472537676,0.008238710421247412,-0.27422231883363574
5896,13.0,300.06073,13018.213,0.0,-0.029479849392469837,-0.029479439731397106,0.0,0.0,0.0,-0.964900672725782,-1.5228821723217685,-1.4694289738963486,0.0025404689827497676,-0.0006324614006515803,-0.27217296984388073
5897,13.0,299.94809,12986.58,0.0,-0.029484830891150726,-0.02948444194158406,0.0,0.0,0.0,-0.9622587345475431,-1.5215794366681985,-1.4637580157366685,-0.0007978834974024701,-0.006154065776184004,-0.27723746742120775
5898,13.0,299.91625,12934.758,0.0,-0.029489845379888968,-0.029489444151771238,0.0,0.0,0.0,-0.948140837194215,-1.5171513310811786,-1.4665512422873384,0.008457455513785872,-0.00031274905645842867,-0.27732973397531374
5899,13.0,299.90265,12964.333,0.0,-0.02949482687857008,-0.029494446361958415,0.0,0.0,0.0,-0.9567304116044402,-1.5223988520240685,-1.4617041577839684,0.0008983760616503141,-0.003747091582184147,-0.27574835454424373
5900,13.0,299.66829,13049.601999999999,0.0,-0.029499841367308433,-0.02949944857214537,0.0,0.0,0.0,-0.960425167299084,-1.5271649778444485,-1.4791631662820386,0.002184972920940038,-0.004193711353312086,-0.2763083474770108
5901,13.0,299.90961,13034.222,0.0,-0.029504855856046897,-0.029504450782332547,0.0,0.0,0.0,-0.9738303343995711,-1.5188769973264884,-1.4693706106905886,-0.006049135318353174,0.003530229918931567,-0.26929650479749573
5902,13.0,299.92429,12945.048999999999,0.0,-0.029509837354727786,-0.029509452992519503,0.0,0.0,0.0,-0.9561814630977632,-1.5193246512206684,-1.4594654830130287,0.0009773386926058192,0.0094990039665537,-0.27626344023257876
5903,13.0,300.09575,12970.098,0.0,-0.02951485184346625,-0.02951445520270668,0.0,0.0,0.0,-0.9685261018485841,-1.5140765223277184,-1.4599832538141286,-0.005572301239843314,0.010934178399619389,-0.27273184820153773
5904,13.0,300.04204,13082.143,0.0,-0.02951983334214714,-0.029519457412893857,0.0,0.0,0.0,-0.9712722224021051,-1.5273280097855384,-1.4780446394966487,-0.0072415468824850344,-0.0009282580128669332,-0.2837618456101137
5905,13.0,300.09129,13076.228000000001,0.0,-0.029524847830885492,-0.029524459623080923,0.0,0.0,0.0,-0.981004043782561,-1.5205671998182986,-1.4732755752509785,0.0017833284846508184,-0.0023465709104885176,-0.27612830306674174
5906,13.0,299.92921,12966.333,0.0,-0.02952982932956638,-0.029529461833267878,0.0,0.0,0.0,-0.9577940911619172,-1.5149878394676588,-1.4686595117704087,0.003259907559202827,-0.0035757276855218467,-0.2769709826449077
5907,13.0,299.85886,12947.373,0.0,-0.029534843818304846,-0.029534464043454833,0.0,0.0,0.0,-0.9606438570681671,-1.5114261640411486,-1.4636079533968587,0.006741474115581693,0.0002314729526096018,-0.26378233695828973
5908,13.0,300.0457,13049.92,0.0,-0.029539825316985513,-0.029539433344364596,0.0,0.0,0.0,-0.972840166136849,-1.5159222587098786,-1.4780874999758786,0.0037044082190716265,-0.006802329105987614,-0.26456939923846673
5909,13.0,300.03926,13141.596000000001,0.0,-0.029544839805724088,-0.029544435554551773,0.0,0.0,0.0,-0.9804146868618961,-1.5303723197109884,-1.4839299000524786,0.0022422262125404977,0.003012854082720547,-0.26813897801575676
5910,13.0,299.93077,13101.071000000002,0.0,-0.029549854294462552,-0.02954943776473873,0.0,0.0,0.0,-0.9732557405328631,-1.5267171213002486,-1.4824256289540185,0.005713634531366824,0.002757446561813787,-0.27033508614999574
5911,13.0,299.67862,12986.041000000001,0.0,-0.02955483579314322,-0.029554439974925684,0.0,0.0,0.0,-0.9616075085757722,-1.5177461088898787,-1.4680786154880787,-0.0024470172300017977,0.005286539380390815,-0.27484100934469574
5912,13.0,299.67438,13002.24,0.0,-0.029559850281881683,-0.02955944218511286,0.0,0.0,0.0,-0.959117294467507,-1.5264433411232285,-1.4667955368864487,0.002539810268859758,-0.00045266063650162654,-0.2806752324929887
5913,13.0,299.83961,13093.565,0.0,-0.029564831780562684,-0.029564444395299816,0.0,0.0,0.0,-0.9739598581598542,-1.5264954221783684,-1.4796614826812184,-0.006849913053208784,-0.001205346309608419,-0.27598267876236976
5914,13.0,299.88664,13060.628,0.0,-0.029569846269301148,-0.029569446605486993,0.0,0.0,0.0,-0.9680102460901732,-1.5249450482003586,-1.4771496356833187,0.0005506774153226294,-0.0002129783214493238,-0.27638000452408273
5915,13.0,299.90886,12947.33,0.0,-0.029574827767982037,-0.029574448815673948,0.0,0.0,0.0,-0.9521384026812441,-1.5179245422324885,-1.4656019282686485,-0.0019458047593859781,-0.0026667436552621072,-0.27746264199093074
5916,13.0,299.85688,12930.122,0.0,-0.0295798422567205,-0.029579451025861125,0.0,0.0,0.0,-0.9505866506830981,-1.5151161169303184,-1.4647316477577588,0.0025986674340435076,0.0011954643853581486,-0.28551582206321774
5917,13.0,300.11524,13088.215,0.0,-0.029584856745458854,-0.029584453236048303,0.0,0.0,0.0,-0.9728249065903432,-1.5280666691084384,-1.4775988094526484,0.004741166937291745,0.0005232683009750604,-0.2745790132663387
5918,13.0,300.03447,13144.253999999999,0.0,-0.029589838244139743,-0.02958945544623537,0.0,0.0,0.0,-0.9733712510442631,-1.5323872688598486,-1.4897666259285185,0.0016101361781830684,-0.003323648387218557,-0.2776015484471398
5919,13.0,300.31047,13101.556999999999,0.0,-0.029594852732878207,-0.029594457656422546,0.0,0.0,0.0,-0.976669511842276,-1.5265343309822086,-1.4793423088997186,-0.0031760131866980968,-0.002048436760689968,-0.2640688232915637
5920,13.0,300.01836000000003,13067.618,0.0,-0.029599834231559097,-0.0295994598666095,0.0,0.0,0.0,-0.9709497555577801,-1.5255634347363884,-1.4757163934168687,-0.003530856310143387,-0.005433452234914984,-0.2718564913076468
5921,13.0,300.12937999999997,13115.722,0.0,-0.02960484872029745,-0.029604462076796678,0.0,0.0,0.0,-0.9775055951622911,-1.5321259516590586,-1.4772204618653086,-0.0035962822744004266,0.0027655343241119873,-0.2695884120188048
5922,13.0,299.71231,13135.435,0.0,-0.02960983021897834,-0.02960943137770622,0.0,0.0,0.0,-0.9809799486951831,-1.5307300983212984,-1.4811342417015685,-0.001187243279346789,0.00046489789100684955,-0.27783470742765076
5923,13.0,299.84967,13108.743999999999,0.0,-0.029614844707716803,-0.029614433587893174,0.0,0.0,0.0,-0.978227738508561,-1.5263079709098684,-1.4801951615088884,-0.0024305964988811978,0.0030808765003588374,-0.27493479577395175
5924,13.0,299.7961,12997.513,0.0,-0.02961982620639747,-0.02961943579808035,0.0,0.0,0.0,-0.966018865138639,-1.5171583225068686,-1.4677420138048587,6.614828796182774e-05,0.0018878636736176383,-0.27941462777857673
5925,13.0,299.9867,12987.632,0.0,-0.029624840695135934,-0.029624438008267306,0.0,0.0,0.0,-0.9665117201197801,-1.5152552361690486,-1.4661487793476184,0.00033894639461390467,0.00031032083299128174,-0.2723659129279227
5926,13.0,300.00428999999997,13092.425,0.0,-0.02962985518387451,-0.02962944021845426,0.0,0.0,0.0,-0.9734056002226531,-1.5227301848067685,-1.4836343349983085,0.0066753159768023936,-0.0004767749351015226,-0.26906845259748874
5927,13.0,300.09627,13171.42,0.0,-0.0296348366825554,-0.02963444242864144,0.0,0.0,0.0,-0.9785215506400581,-1.5337732936716384,-1.4914879351983985,-0.004828971441932375,0.0007497556780576243,-0.2707710066080178
5928,13.0,300.12538,13102.839,0.0,-0.02963985117129364,-0.029639444638828505,0.0,0.0,0.0,-0.965753961032495,-1.5394121318031486,-1.4777698460695288,0.004857417526564785,0.0020984645658273277,-0.2801020369114187
5929,13.0,300.13687000000004,13049.701000000001,0.0,-0.029644832669974752,-0.02964444684901557,0.0,0.0,0.0,-0.9653764341777361,-1.5304355465172286,-1.4709712418735588,-0.0016400544138857683,0.002402419229500318,-0.2805141257270887
5930,13.0,300.03307,13112.742,0.0,-0.029649847158713105,-0.029649449059202748,0.0,0.0,0.0,-0.9707548366360431,-1.5392754443646586,-1.4759159023615587,0.006709311328257474,-0.0016937224213323886,-0.2759352890551927
5931,13.0,299.94466,13120.867,0.0,-0.029654828657393995,-0.029654451269389814,0.0,0.0,0.0,-0.9757466335186951,-1.5333377987786587,-1.4793315684486588,-0.005653953796501795,-0.004800569332354305,-0.2752711644096487
5932,13.0,299.91519,13092.973,0.0,-0.02965984314613246,-0.02965945347957699,0.0,0.0,0.0,-0.96541305303635,-1.5358492404765185,-1.4786745770838186,-0.004944670924476025,-0.006105146061356004,-0.2790296231380797
5933,13.0,300.01416,13034.917,0.0,-0.029664824644813348,-0.029664455689763947,0.0,0.0,0.0,-0.9626765178287751,-1.5300889136580185,-1.4695239154307187,0.001075945760537579,-0.0017442535077944186,-0.2808003486153367
5934,13.0,300.03952000000004,13013.491000000002,0.0,-0.02966983913355159,-0.029669457899951124,0.0,0.0,0.0,-0.9597966989245591,-1.5206409644255787,-1.4753385524545786,0.002713698171521157,8.207556020422713e-05,-0.27957499487190374
5935,13.0,300.23101,13135.989,0.0,-0.029674853622290165,-0.0296744601101383,0.0,0.0,0.0,-0.9756347707076551,-1.5315294513251885,-1.4858485904418386,0.003093735657377937,0.001833006718503678,-0.27639698659575873
5936,13.0,300.22377,13198.918,0.0,-0.029679835120971054,-0.02967942941104762,0.0,0.0,0.0,-0.985593114280467,-1.5351511111576184,-1.4913974519644686,-0.005355936879739814,-0.00019397698417903783,-0.27406150591026474
5937,13.0,300.16866,13134.566,0.0,-0.029684849609709296,-0.029684431621234797,0.0,0.0,0.0,-0.9829971979217701,-1.5279090073928785,-1.4816736960548087,7.842057862900853e-05,0.0008683642826983822,-0.2669957684579307
5938,13.0,300.07214,13071.071000000002,0.0,-0.029689831108390186,-0.029689433831421974,0.0,0.0,0.0,-0.9678745719017832,-1.5284968951008986,-1.4769077728844486,0.004654642370177436,-0.004693134930876356,-0.27258681158222375
5939,13.0,300.01444,13148.037,0.0,-0.02969484559712876,-0.02969443604160893,0.0,0.0,0.0,-0.9802118544568782,-1.5328412049046485,-1.4836217706970687,0.0035500046092081764,-0.008156139657348311,-0.2695143130389917
5940,13.0,300.00437,13221.913,0.0,-0.02969982709580965,-0.029699438251796106,0.0,0.0,0.0,-0.9852264697317821,-1.5410470108394987,-1.4928579506586086,0.0038861894413370363,-0.007104477651357353,-0.2779871711701977
5941,13.0,300.10446,13129.806,0.0,-0.029704841584547892,-0.02970444046198306,0.0,0.0,0.0,-0.974899141002554,-1.5327469726453484,-1.4834869071087586,9.55803378955449e-07,-0.0008867012926731041,-0.27549268114651077
5942,13.0,299.94338,13048.817,0.0,-0.029709856073286356,-0.02970944267217024,0.0,0.0,0.0,-0.9702860970072822,-1.5235102860587586,-1.4727181863709686,0.0024298378785313273,0.0015058281598886688,-0.27600882061494975
5943,13.0,299.91335,13074.615,0.0,-0.029714837571967356,-0.029714444882357194,0.0,0.0,0.0,-0.9729430616845042,-1.5214739573327885,-1.4799395185086588,-0.003170225198151867,0.0025961770679477276,-0.27418754409020374
5944,13.0,300.10488,13134.874,0.0,-0.029719852060705598,-0.02971944709254426,0.0,0.0,0.0,-0.9731983905772031,-1.5383508536484085,-1.4811244131755985,-0.002242825651299658,-2.0795713018127078e-05,-0.28303089712047474
5945,13.0,300.06232,13152.486,0.0,-0.02972483355938671,-0.029724449302731437,0.0,0.0,0.0,-0.9731504030524671,-1.5370256238426183,-1.4878512792644885,-0.0027780805895002074,0.002065993243847658,-0.2814124023382417
5946,13.0,300.04492,13090.046,0.0,-0.02972984804812495,-0.029729451512918392,0.0,0.0,0.0,-0.9648669720274561,-1.5316912673661587,-1.4824887544352485,0.0006481430975467434,-0.0007835097442663913,-0.2837141620604077
5947,13.0,299.93134,13061.726999999999,0.0,-0.02973482954680584,-0.02973445372310557,0.0,0.0,0.0,-0.962773698645866,-1.5284554531718086,-1.4792097757866385,0.004680366358416195,0.0025977708090300176,-0.27937904243506473
5948,13.0,299.89231,13177.753,0.0,-0.029739844035544416,-0.029739455933292747,0.0,0.0,0.0,-0.9783066706913511,-1.5395021084120286,-1.4878990033441986,-0.0017544013088709282,0.0011775748468925889,-0.2780546434943567
5949,13.0,300.04287,13266.333,0.0,-0.029744825534225305,-0.029744458143479702,0.0,0.0,0.0,-0.9907304037449781,-1.5449922014288586,-1.4969112550336385,0.0017536718701239382,0.0035453833781520965,-0.27293628154171373
5950,13.0,300.2207,13172.441,0.0,-0.029749840022963547,-0.02974946035366688,0.0,0.0,0.0,-0.977492645826013,-1.5384960523877385,-1.4881043891394685,-0.005464436308397875,-0.0025949614718027577,-0.27819379313058973
5951,13.0,300.09483,13079.152,0.0,-0.02975485451170201,-0.02975442965457642,0.0,0.0,0.0,-0.966672289863127,-1.5309799657959586,-1.4780835483004886,0.001171849274552519,-0.005665556118096854,-0.27443633751975777
5952,13.0,300.08362999999997,13148.208,0.0,-0.029759836010383012,-0.029759431864763375,0.0,0.0,0.0,-0.9754029289522742,-1.5327836522989684,-1.4885402893324886,-0.0014641835807786688,-0.0029697615692176474,-0.28160067433932273
5953,13.0,300.07831,13222.133,0.0,-0.029764850499121254,-0.029764434074950552,0.0,0.0,0.0,-0.9827195673943699,-1.5361653745077184,-1.5003133435693987,-0.0022209858559942377,0.004476682823314196,-0.2717418217938297
5954,13.0,299.79463,13151.517,0.0,-0.029769831997802143,-0.029769436285137507,0.0,0.0,0.0,-0.9816073227596,-1.5292427484995086,-1.4868826121688885,-0.003167541402611997,0.007018871392808674,-0.27262549747104176
5955,13.0,300.03965,13131.805,0.0,-0.029774846486540607,-0.029774438495324684,0.0,0.0,0.0,-0.9764328064864152,-1.5306010102585588,-1.4847069615541686,-0.004999098768172635,0.0007192764260395563,-0.27054503157071574
5956,13.0,299.93483,13161.999,0.0,-0.029779827985221496,-0.02977944070551175,0.0,0.0,0.0,-0.9809359432433401,-1.5345849070017386,-1.4853979981223684,0.002993013328537417,0.005469907757612864,-0.28056717950232474
5957,13.0,299.96511,13220.303,0.0,-0.02978484247395985,-0.029784442915698706,0.0,0.0,0.0,-0.9832832992200061,-1.5441975093754285,-1.4911610607161385,0.0023350689006533575,0.002902289650358687,-0.27810210412904074
5958,13.0,300.0097,13276.575,0.0,-0.02978982397264096,-0.029789445125885883,0.0,0.0,0.0,-0.9897181263650741,-1.5486736430171884,-1.4973556665274985,0.0022940417961542976,-0.0015513412265554583,-0.27604104196812973
5959,13.0,300.02144,13190.809,0.0,-0.029794838461379203,-0.029794447336072838,0.0,0.0,0.0,-0.9802251280331881,-1.5362783518938685,-1.4931729701146985,-0.0012168227855410588,-0.0018690012124060584,-0.2722089706199337
5960,13.0,299.95569,13083.975,0.0,-0.029799852950117778,-0.029799449546260015,0.0,0.0,0.0,-0.9680642421880021,-1.5304716182207885,-1.4786657618079486,-0.0001087144707267829,0.0006367529707876254,-0.2773882593010898
5961,13.0,300.20016,13136.826000000001,0.0,-0.029804834448798667,-0.029804451756447192,0.0,0.0,0.0,-0.969523879619557,-1.5367743378178185,-1.4869687384273886,0.002423889188519238,-0.00048825898001240953,-0.28360639277977173
5962,13.0,300.14725,13204.454,0.0,-0.02980984893753691,-0.029809453966634147,0.0,0.0,0.0,-0.978383019086386,-1.5433907596458085,-1.4920504916539186,-0.004609147339362425,-0.00047830350393738045,-0.28001530270285874
5963,13.0,300.2228,13143.438,0.0,-0.0298148304362178,-0.029814456176821325,0.0,0.0,0.0,-0.970887025244089,-1.5392451481866685,-1.4851448882473886,0.0037067767925053866,-0.004009536429010436,-0.28732226460649973
5964,13.0,300.2191,13079.036,0.0,-0.029819844924956262,-0.02981945838700828,0.0,0.0,0.0,-0.9658615783256161,-1.5338787730070484,-1.4759600800659185,0.0009494634832122499,-0.004312569845692506,-0.2849161299915327
5965,13.0,300.01895,13154.978000000001,0.0,-0.029824826423637152,-0.02982442768791782,0.0,0.0,0.0,-0.970216892025452,-1.5435863169151085,-1.4849816536562785,0.006070580655394665,0.0017006218439133084,-0.2822043586164017
5966,13.0,299.84862000000004,13254.538999999999,0.0,-0.029829840912375505,-0.029829429898104998,0.0,0.0,0.0,-0.987215347955569,-1.5462396136269685,-1.4955939285786286,-0.0019876032511861683,0.0015672509756506285,-0.27078334799423576
5967,13.0,300.06958,13261.816,0.0,-0.02983485540111397,-0.029834432108291953,0.0,0.0,0.0,-0.9888875855231061,-1.5451353736679885,-1.4972380281908886,-0.004492172985542956,-0.0005436497152790495,-0.2774948633441107
5968,13.0,300.02443999999997,13240.518999999998,0.0,-0.029839836899794858,-0.02983943431847913,0.0,0.0,0.0,-0.990520954816807,-1.5413651713708985,-1.4929009124628485,0.000967616314716295,0.001964877469993308,-0.2718261748646547
5969,13.0,299.85989,13194.906,0.0,-0.02984485138853321,-0.029844436528666307,0.0,0.0,0.0,-0.9816619673374931,-1.5410993958696684,-1.4881607258450287,0.0035546184435385265,-0.0010923640598579389,-0.2769261159304797
5970,13.0,299.80071,13192.357,0.0,-0.0298498328872141,-0.029849438738853373,0.0,0.0,0.0,-0.9814939299409091,-1.5371199574269288,-1.4915332274778685,0.0037326942101882365,0.0006058252340102953,-0.27445393767399473
5971,13.0,299.93894,13254.091999999999,0.0,-0.029854847375952565,-0.02985444094904055,0.0,0.0,0.0,-0.9839457216053821,-1.5424794425058685,-1.5024878796090086,0.0005724608637899885,-0.008028090378610832,-0.27388347786769474
5972,13.0,299.95853999999997,13219.271999999999,0.0,-0.029859828874633454,-0.029859443159227506,0.0,0.0,0.0,-0.9830740022793502,-1.5360068008670686,-1.4992479110892485,0.0015744191121580687,0.0019183555102019485,-0.2749271761331998
5973,13.0,300.23649,13134.833999999999,0.0,-0.029864843363371918,-0.02986444536941446,0.0,0.0,0.0,-0.9672029796030022,-1.5410172212865587,-1.4844413887029586,0.0016758935765478187,0.0046983778921937955,-0.2812220734394577
5974,13.0,300.03331000000003,13148.328000000001,0.0,-0.02986982486205292,-0.029869447579601638,0.0,0.0,0.0,-0.973240541781363,-1.5414050934248384,-1.4821178035736386,0.0005741938862310244,0.001176798393340959,-0.2808507780728137
5975,13.0,300.04616,13274.06,0.0,-0.02987483935079116,-0.029874449789788593,0.0,0.0,0.0,-0.9855912195027801,-1.5528670798810484,-1.4965247001204884,5.909851021181885e-05,-0.0002417233857887408,-0.2843026273209847
5976,13.0,300.07952,13317.413999999999,0.0,-0.029879853839529624,-0.02987945199997577,0.0,0.0,0.0,-0.990007692978652,-1.5548909456307884,-1.5032627119604787,-0.004798687422943575,-0.0003913782673360276,-0.28089384120206373
5977,13.0,300.07547,13233.198,0.0,-0.029884835338210514,-0.029884454210162725,0.0,0.0,0.0,-0.9767407737218091,-1.5483668308869085,-1.4974540531122087,0.004142303501538527,0.0002616974228900248,-0.28079990278529277
5978,13.0,299.96841,13186.813,0.0,-0.029889849826948867,-0.029889456420349902,0.0,0.0,0.0,-0.971375452322293,-1.5437061844019384,-1.4933802810851586,-0.006160881808281693,-0.0015788594780712984,-0.2747398160572087
5979,13.0,300.0445,13192.538999999999,0.0,-0.029894831325629756,-0.029894425721259443,0.0,0.0,0.0,-0.974802608665527,-1.5431314689452185,-1.4922682391004087,0.0052911982030256054,-0.0013461323447529188,-0.28054754271538673
5980,13.0,299.85911,13234.258,0.0,-0.02989984581436822,-0.0298994279314464,0.0,0.0,0.0,-0.987981223176155,-1.5439923262301785,-1.4909102813163886,-0.0011492589648980289,0.0006736114934477785,-0.28222187771063073
5981,13.0,299.99406,13241.368,0.0,-0.02990482731304911,-0.029904430141633576,0.0,0.0,0.0,-0.9779841025220161,-1.5468744148146185,-1.5001866873068985,0.007753457045006632,0.004266917153161936,-0.2866868858662927
5982,13.0,300.21714,13165.473999999998,0.0,-0.029909841801787462,-0.029909432351820753,0.0,0.0,0.0,-0.9737648683106102,-1.5386621240791285,-1.4895483718569786,1.6300756229259385e-05,-0.0021253867223093377,-0.2785905312072447
5983,13.0,299.97581,13164.5,0.0,-0.02991482330046835,-0.02991443456200782,0.0,0.0,0.0,-0.963355567648292,-1.5446918740992184,-1.4936318710849885,-0.0025829551673928275,-0.005842859281545314,-0.2827347139837437
5984,13.0,299.91652999999997,13303.94,0.0,-0.029919837789206816,-0.029919436772194996,0.0,0.0,0.0,-0.9942369077035431,-1.5474323103196785,-1.5023963831249785,-0.0003021899265038237,0.0006236522448121843,-0.27321941401715677
5985,13.0,299.79829,13361.526000000002,0.0,-0.02992485227794517,-0.02992443898238195,0.0,0.0,0.0,-0.9979824069631951,-1.5537317875163885,-1.5098560316861884,0.0004453169138843576,0.00013243446305026386,-0.2729150235546158
5986,13.0,299.82517,13271.163999999999,0.0,-0.02992983377662617,-0.02992944119256913,0.0,0.0,0.0,-0.9951567969393291,-1.5484534637704586,-1.4904921130001185,-3.4966529384427764e-06,-0.00100948304891072,-0.27172096910677174
5987,13.0,299.97591,13221.825,0.0,-0.029934848265364522,-0.029934443402756084,0.0,0.0,0.0,-0.973820870643637,-1.5460747578356986,-1.4992090022854088,0.0012388923859691589,-0.003179178073385447,-0.27943681795576675
5988,13.0,300.08441,13301.011,0.0,-0.02993982976404541,-0.02993944561294304,0.0,0.0,0.0,-0.9898378621293912,-1.5537763705207885,-1.4995609040451385,0.004066404077622837,0.003672652758287606,-0.27786394982553675
5989,13.0,300.13142999999997,13321.252,0.0,-0.029944844252783875,-0.029944447823130216,0.0,0.0,0.0,-0.9870220502339919,-1.5540883502265785,-1.5082175049494786,0.0062110782182356935,0.0028426213784698874,-0.27816822883056674
5990,13.0,300.08575,13229.138,0.0,-0.029949825751464765,-0.029949450033317282,0.0,0.0,0.0,-0.9813673446059161,-1.5483110008063985,-1.4916492446143184,-0.004288739115265596,-0.005918928931477805,-0.28222653866109076
5991,13.0,300.02328,13170.628,0.0,-0.029954840240203118,-0.029954452243504348,0.0,0.0,0.0,-0.9687628578669502,-1.5479790600736385,-1.4868002349357587,-0.004384292956671026,-0.0018355964844342682,-0.2852294370549537
5992,13.0,300.00006,13178.832,0.0,-0.029959854728941582,-0.029959454453691525,0.0,0.0,0.0,-0.9780857315070461,-1.5424259429005884,-1.4855241477598187,-0.0032397454020879767,0.0006886695957013974,-0.2871269910472277
5993,13.0,300.08945,13268.877,0.0,-0.02996483622762247,-0.029964423754600955,0.0,0.0,0.0,-0.97848154752611,-1.5535918576775785,-1.5013338890701184,0.0028981848728785774,0.005525937245742545,-0.28575309483913475
5994,13.0,299.96182999999996,13323.315,0.0,-0.029969850716360824,-0.02996942596478802,0.0,0.0,0.0,-0.9909585572699949,-1.5527644376459184,-1.5062321427035386,-0.0032945024507420773,-0.0018160639609315582,-0.28173800012537575
5995,13.0,299.89861,13258.571000000002,0.0,-0.029974832215041713,-0.0299744281749752,0.0,0.0,0.0,-0.976954751877927,-1.5477586781768884,-1.5055611684873185,0.0017935585616354484,0.0008689153894277723,-0.2762681518455437
5996,13.0,299.97553,13235.416000000001,0.0,-0.029979846703780177,-0.029979430385162265,0.0,0.0,0.0,-0.980158233261586,-1.5515050690966286,-1.4915727442317686,0.002135805567787598,-0.0012883063641959387,-0.28183244516719674
5997,13.0,300.03362999999996,13307.615,0.0,-0.029984828202461067,-0.02998443259534944,0.0,0.0,0.0,-0.991756360001232,-1.5492704473260883,-1.5041558919236286,0.002318703898288258,0.0026012754384758976,-0.27170273060497174
5998,13.0,300.0766,13364.487,0.0,-0.02998984269119942,-0.029989434805536397,0.0,0.0,0.0,-1.002807493806894,-1.5569041722544785,-1.5027586200357286,-0.002322932190955558,-0.004481242246114176,-0.2788143682868357
5999,13.0,300.07498,13298.296999999999,0.0,-0.02999482418988042,-0.029994437015723574,0.0,0.0,0.0,-0.9848646482535731,-1.5553143828475784,-1.5021711376277485,-0.007245948339594423,2.1085391089216078e-05,-0.28075439772330174
6000,13.0,300.05261,13225.796999999999,0.0,-0.029999838678618773,-0.02999943922591075,0.0,0.0,0.0,-0.983247683478991,-1.5459200345454285,-1.4911443420894885,-0.003609596076739397,0.009005095002658682,-0.28353905217812575
6001,13.0,300.08351,13245.366000000002,0.0,-0.030004853167357015,-0.030004441436097706,0.0,0.0,0.0,-0.9795563525696851,-1.5488336352079786,-1.4978706002283186,-0.001809232020807298,0.006169296242412134,-0.27914644074210876
6002,13.0,300.20308,13279.076000000001,0.0,-0.030009834666038127,-0.030009443646284883,0.0,0.0,0.0,-0.9894338185195151,-1.5458395824874884,-1.5012342865852883,0.0016219807678770385,0.0006754851651351953,-0.27889695830248673
6003,13.0,300.0851,13295.588,0.0,-0.03001484915477648,-0.03001444585647184,0.0,0.0,0.0,-0.986046786880241,-1.5534363237872286,-1.5020434681151484,0.0036027624140899665,-0.001113771298695669,-0.28111554032394376
6004,13.0,300.03087,13330.591999999999,0.0,-0.03001983065345737,-0.030019448066658905,0.0,0.0,0.0,-0.9920883817940002,-1.5562233695122885,-1.5038552606189586,0.005321570070798074,0.0015015082694123283,-0.27880906898881275
6005,13.0,300.23879,13315.738000000001,0.0,-0.030024845142195833,-0.03002445027684597,0.0,0.0,0.0,-0.9853494377639181,-1.5509191065637984,-1.5113832022369087,0.004043067914569736,0.005488465534519375,-0.2785899637871887
6006,13.0,300.15467,13309.438,0.0,-0.030029826640876722,-0.030029452487033037,0.0,0.0,0.0,-0.9867747361495841,-1.5561174848768384,-1.5028445436442086,-0.005880022660763055,-0.003074566282711067,-0.27808869883021775
6007,13.0,299.87947,13366.57,0.0,-0.030034841129615075,-0.030034454697220214,0.0,0.0,0.0,-0.988640636208734,-1.5600913504440286,-1.5143714794318286,-0.003563309697596286,0.0007794573315514493,-0.27909349842438375
6008,13.0,299.79348999999996,13354.445,0.0,-0.030039822628295965,-0.030039423998129755,0.0,0.0,0.0,-0.99211958989708,-1.5608492615188285,-1.5064487755749185,-0.00879002304305773,0.0001273503286859989,-0.27889529657232276
6009,13.0,299.74709,13251.846000000001,0.0,-0.03004483711703443,-0.03004442620831671,0.0,0.0,0.0,-0.983006874460225,-1.5524599559908685,-1.4927634144242785,0.0003676809008872796,0.003578557186426096,-0.2851231977819687
6010,13.0,300.06223,13247.403999999999,0.0,-0.03004985160577267,-0.030049428418503887,0.0,0.0,0.0,-0.983827617173726,-1.5449096215457088,-1.4981427592051786,0.0012121865583834988,-0.005828956274273194,-0.28293276384828975
6011,13.0,299.96825,13301.157,0.0,-0.03005483310445367,-0.030054430628690842,0.0,0.0,0.0,-0.9815880811402011,-1.5586989421566084,-1.5029324937528885,0.006688734853176734,-0.0003589641534570037,-0.2868906200638997
6012,13.0,300.07624,13301.079,0.0,-0.030059847593192135,-0.03005943283887802,0.0,0.0,0.0,-0.9826759976400702,-1.5549541724370286,-1.5055657281127686,0.0013510679873150286,0.0007279660690296573,-0.2861632382146127
6013,13.0,300.22961000000004,13295.1,0.0,-0.030064829091873024,-0.030064435049065197,0.0,0.0,0.0,-0.9823268620531131,-1.5496961136930985,-1.5093553848117784,0.0036785434903939766,0.001985907982443858,-0.28044118185238975
6014,13.0,300.1946,13326.661,0.0,-0.030069843580611266,-0.030069437259252152,0.0,0.0,0.0,-0.9900327202561221,-1.5600267050876484,-1.5009127823285586,0.00036899121565159764,-0.001103887145295179,-0.2786806800686417
6015,13.0,300.20441,13346.915,0.0,-0.030074825079292378,-0.03007443946943933,0.0,0.0,0.0,-0.9930951774908631,-1.5563064560204884,-1.5077273958761086,-0.0033954096977258466,-0.0008934241665566002,-0.27598309419491074
6016,13.0,300.26546,13446.108999999999,0.0,-0.03007983956803073,-0.030079441679626284,0.0,0.0,0.0,-1.003427400218074,-1.5702468522212985,-1.5136070835563884,0.0009788896340038851,0.0017564174739199082,-0.27643455790946675
6017,13.0,300.03215,13443.955,0.0,-0.030084854056768973,-0.03008444388981346,0.0,0.0,0.0,-1.0025500168239831,-1.5632674842074885,-1.5208089612921585,-0.0024906873973867074,-0.0021603121360312077,-0.27715698496576474
6018,13.0,300.01087,13331.368,0.0,-0.030089835555450084,-0.030089446100000528,0.0,0.0,0.0,-0.994635601352891,-1.5503920138617786,-1.5073753927913685,0.00010647981855873991,-0.007627493136299963,-0.2775122912458307
6019,13.0,299.90421000000003,13273.836000000001,0.0,-0.030094850044188548,-0.030094448310187483,0.0,0.0,0.0,-0.9803494234229551,-1.5553594724770285,-1.4992058612100987,-0.0014161687996149788,-0.004308965107136746,-0.2844024932508407
6020,13.0,299.99235,13310.15,0.0,-0.030099831542869326,-0.03009945052037466,0.0,0.0,0.0,-0.9908979953115181,-1.5502032453681487,-1.5048518934173185,0.001027558305987109,-0.0029797783570562272,-0.2828695674395527
6021,13.0,299.99504,13336.41,0.0,-0.03010484603160779,-0.030104452730561615,0.0,0.0,0.0,-0.9915168479425941,-1.5613862840718287,-1.5010323458403585,0.001159262580485309,0.0038431501234643863,-0.28630575184117774
6022,13.0,299.99962999999997,13287.776000000002,0.0,-0.03010982753028868,-0.030109422031471378,0.0,0.0,0.0,-0.985134993512754,-1.5564181161815087,-1.4975989478765088,-0.0011706355022577288,-0.002966581281128777,-0.28634971676301674
6023,13.0,299.96834,13318.928999999998,0.0,-0.03011484201902692,-0.030114424241658333,0.0,0.0,0.0,-0.984873291276926,-1.5590749592687185,-1.5046736627247286,0.0008826914364623622,-0.0024344546512869675,-0.2895207741434757
6024,13.0,300.18833,13374.858999999999,0.0,-0.03011982351770781,-0.030119426451845288,0.0,0.0,0.0,-0.988861170092999,-1.5680041244499585,-1.5087577699027985,0.005097332858742585,0.002062808902758388,-0.2870632677484387
6025,13.0,299.98787999999996,13416.645,0.0,-0.030124838006446386,-0.030124428662032465,0.0,0.0,0.0,-0.991768833109963,-1.5709224873879786,-1.5156337864064087,0.0031585820425777773,0.0025837980901510173,-0.28164210613591173
6026,13.0,300.21827,13442.893,0.0,-0.030129852495184628,-0.030129430872219642,0.0,0.0,0.0,-1.00397451474207,-1.5648461278632886,-1.5174832718139384,0.0018944148421391881,-0.0003912328760791786,-0.27953463712042076
6027,13.0,300.08603,13396.718,0.0,-0.030134833993865517,-0.030134433082406598,0.0,0.0,0.0,-0.994386250635782,-1.5636387390441286,-1.5142427966691285,-0.005977865535469394,0.0012831336211104286,-0.2756087388129647
6028,13.0,300.14725,13318.373,0.0,-0.030139848482604092,-0.030139435292593775,0.0,0.0,0.0,-0.987858599649053,-1.5550414132706383,-1.5055526571864786,0.0005929100949231704,0.0012552238497559487,-0.2843499967631597
6029,13.0,300.17566,13345.835,0.0,-0.030144829981284982,-0.03014443750278073,0.0,0.0,0.0,-0.988724320534493,-1.5579340396561185,-1.5101423761644486,-0.006265622383043784,-0.001875015054399578,-0.27816753982049874
6030,13.0,300.29669,13388.987,0.0,-0.030149844470023224,-0.030149439712967907,0.0,0.0,0.0,-0.9941947564993829,-1.5616732365001484,-1.5140497725250786,-0.005160267139678715,-0.004665885798587076,-0.28300252611767474
6031,13.0,300.03471,13345.844,0.0,-0.030154825968704335,-0.030154441923155084,0.0,0.0,0.0,-0.989629943208871,-1.5563067599955185,-1.5108667486609384,-0.002223210750563818,-0.004052782956528536,-0.2803955248028837
6032,13.0,300.10457,13374.079,0.0,-0.0301598404574428,-0.03015944413334215,0.0,0.0,0.0,-0.9964701413214462,-1.5682707105512685,-1.5006450816521386,0.004251454551335896,0.004330457155007845,-0.28440815731889973
6033,13.0,299.81222,13423.091,0.0,-0.030164821956123578,-0.030164446343529328,0.0,0.0,0.0,-1.001641840759353,-1.5653622774642286,-1.5132804117241487,0.005967139776535844,0.0031383707428330773,-0.27789205738331074
6034,13.0,299.83139,13471.905,0.0,-0.03016983644486204,-0.030169448553716283,0.0,0.0,0.0,-1.01010376592198,-1.5713546385556285,-1.5136642308620287,0.0024273591648116977,-0.0026752429997509274,-0.28027116861811074
6035,13.0,299.95356,13452.479,0.0,-0.030174850933600506,-0.030174450763903238,0.0,0.0,0.0,-0.997756654840915,-1.5670395103547585,-1.5244214005486787,0.0013666162087745187,0.0023398555954507677,-0.2838158417079427
6036,13.0,300.09118,13377.736,0.0,-0.030179832432281173,-0.030179420064813,0.0,0.0,0.0,-0.99367898180098,-1.5581997138323385,-1.5146189151062486,0.0003463826573628067,-0.0016236334801151484,-0.28059554037262374
6037,13.0,300.07327999999995,13333.208,0.0,-0.030184846921019748,-0.030184422274999956,0.0,0.0,0.0,-0.9794626674654391,-1.5613656137697884,-1.5121338179109884,-0.002789346917362107,0.0032873799104891368,-0.2817140671580137
6038,13.0,300.21988,13347.338,0.0,-0.030189828419700637,-0.03018942448518691,0.0,0.0,0.0,-0.994767192143378,-1.5546485762068685,-1.5078417918123985,-0.008403307631091893,-0.0023378403423268777,-0.2799331990472558
6039,13.0,300.06787,13431.685,0.0,-0.03019484290843888,-0.030194426695374088,0.0,0.0,0.0,-0.998118830956659,-1.5669136646923383,-1.5178643551765487,-0.0019586693879556183,0.0034746863855498467,-0.28623498645419376
6040,13.0,300.15218,13423.875,0.0,-0.03019982440711977,-0.030199428905561043,0.0,0.0,0.0,-1.003878377572582,-1.5655898534366885,-1.5110545039044685,0.0016996352422909385,0.006911781395039713,-0.28663065048574277
6041,13.0,300.04482,13373.816,0.0,-0.030204838895858233,-0.03020443111574822,0.0,0.0,0.0,-0.981962416257145,-1.5663933607659883,-1.5169504035863486,0.002265995438686338,-0.0008296783736153801,-0.29041015441875073
6042,13.0,300.08056,13432.13,0.0,-0.030209853384596586,-0.030209433325935175,0.0,0.0,0.0,-0.9910201932735782,-1.5758024011945884,-1.5162094137882185,0.0033061311168397366,-0.01027229303679639,-0.2899153134674137
6043,13.0,300.20625,13493.002,0.0,-0.030214834883277475,-0.030214435536122353,0.0,0.0,0.0,-0.9991974052906061,-1.5761648407553586,-1.5261735126215985,-0.003006805587573607,-0.004215320836869776,-0.28431861640756273
6044,13.0,300.21868,13467.524,0.0,-0.03021984937201594,-0.03021943774630953,0.0,0.0,0.0,-1.0069331442390639,-1.5685991049086785,-1.5182588134404786,0.004342731058769186,0.0008826376430145531,-0.27926188032600174
6045,13.0,299.93471,13363.027,0.0,-0.03022483087069705,-0.030224439956496596,0.0,0.0,0.0,-0.9932566996893041,-1.5617132598790986,-1.5070564216598885,-0.004808913446927805,0.001033364431710129,-0.2790621991287947
6046,13.0,299.98336,13335.523000000001,0.0,-0.030229845359435403,-0.030229442166683773,0.0,0.0,0.0,-0.9908455697513441,-1.5545445154215984,-1.5082757668302287,-0.0026107916807650774,0.0009215378139637011,-0.27747996856764073
6047,13.0,299.96873999999997,13389.284,0.0,-0.030234826858116293,-0.03023444437687073,0.0,0.0,0.0,-0.985736945132162,-1.5657397131264785,-1.5185313777173788,-1.957969637436558e-05,0.00016153603943736586,-0.28382235690608576
6048,13.0,300.00381,13494.205,0.0,-0.030239841346854757,-0.030239446587057905,0.0,0.0,0.0,-1.0055332581659062,-1.5714087461109685,-1.5249593350267685,0.004585424520071165,0.0039103177633183165,-0.28145286141473475
6049,13.0,299.75141,13476.08,0.0,-0.030244822845535424,-0.03024444879724486,0.0,0.0,0.0,-1.004203620722181,-1.5655956289622586,-1.5265925928629587,0.0017961607905422684,-0.0030670797830222073,-0.2822303586139677
6050,13.0,299.74425,13368.591,0.0,-0.030249837334274,-0.030249451007431816,0.0,0.0,0.0,-0.9924032492625752,-1.5635365021090384,-1.5077781597061184,-0.004176893022852245,-0.008093170216633713,-0.28423174034398874
6051,13.0,300.06692000000004,13385.386999999999,0.0,-0.030254851823012463,-0.03025442030834158,0.0,0.0,0.0,-0.9923916880789341,-1.5651876944719987,-1.5112439816731684,-0.0045806236397723556,0.002029120363433588,-0.28689677049200674
6052,13.0,300.27171,13497.71,0.0,-0.03025983332169313,-0.030259422518528756,0.0,0.0,0.0,-1.009977585887027,-1.5723561349544686,-1.5206331623998086,-0.0015748789250534486,0.0020745825649453576,-0.28384279416060276
6053,13.0,300.27687000000003,13465.26,0.0,-0.030264847810431594,-0.03026442472871571,0.0,0.0,0.0,-1.000343624201229,-1.5721973586637985,-1.5205618295927685,-0.005893560290049115,0.00014828418720950988,-0.28588484774963774
6054,13.0,300.09168,13345.466999999999,0.0,-0.030269829309112484,-0.030269426938902666,0.0,0.0,0.0,-0.9856659973601601,-1.5626986456013485,-1.5083240988599986,-0.0004039145826082657,-0.0036845208553838967,-0.28321031331568175
6055,13.0,299.92016,13365.097,0.0,-0.030274843797850837,-0.030274429149089732,0.0,0.0,0.0,-0.981536314192592,-1.5719530640646884,-1.5091663123431185,0.004317843305837956,-0.002363955749079268,-0.2882966869626677
6056,13.0,299.88138,13488.43,0.0,-0.030279825296531726,-0.03027943135927691,0.0,0.0,0.0,-1.005816583158868,-1.5709242099131486,-1.5234052120233885,0.013235776001769386,0.003371898951680517,-0.2780159880030417
6057,13.0,299.86005,13542.537,0.0,-0.03028483978527019,-0.030284433569463975,0.0,0.0,0.0,-1.007505012463003,-1.5798826580222787,-1.5292053595708186,0.004796277914205776,-0.0028896678978380173,-0.28217874365387374
6058,13.0,299.86348,13459.753,0.0,-0.0302898212839513,-0.03028943577965104,0.0,0.0,0.0,-0.9986316874947742,-1.5728223313254786,-1.5199746511598184,0.003115544548555307,-0.001129360556784209,-0.28625598099626576
6059,13.0,300.08866,13395.956,0.0,-0.030294835772689654,-0.03029443798983822,0.0,0.0,0.0,-0.9855799014991631,-1.5697678888990285,-1.5166883771104884,-0.005547145482260635,0.0015350521166228486,-0.29032930719327177
6060,13.0,300.24885,13441.921999999999,0.0,-0.030299850261427896,-0.030299440200025174,0.0,0.0,0.0,-0.9984032705247311,-1.5721811466621984,-1.5154241449607186,-0.0004793263191183245,0.005677910473916134,-0.28450148778561074
6061,13.0,300.28127,13513.57,0.0,-0.030304831760109008,-0.03030444241021235,0.0,0.0,0.0,-1.0070962876376652,-1.5731365401814885,-1.5275551804579586,-0.009025649996837302,-0.004428218159106106,-0.2837058027470827
6062,13.0,300.06928,13502.445,0.0,-0.03030984624884725,-0.030309444620399528,0.0,0.0,0.0,-1.008332057592126,-1.5735763920498984,-1.5224976439088185,-0.0028606956324286775,-0.007120416278080373,-0.28158203053748276
6063,13.0,300.14018,13404.42,0.0,-0.03031482774752814,-0.030314446830586483,0.0,0.0,0.0,-0.9881616019589571,-1.5687251532211184,-1.5177221961875187,0.0014161453935376688,0.0016156991238820884,-0.28185435163435874
6064,13.0,299.91251,13394.678999999998,0.0,-0.030319842236266714,-0.03031944904077366,0.0,0.0,0.0,-0.9938559661959472,-1.5651135245646786,-1.5126783385147287,0.005612841882969365,0.004632068373849556,-0.28239296499001576
6065,13.0,300.00092,13541.878999999999,0.0,-0.03032482373494738,-0.0303244183416832,0.0,0.0,0.0,-1.0078835323028599,-1.5762786287415884,-1.5322309243694185,0.005395758723244925,-0.002111594361948138,-0.27854274633252873
6066,13.0,300.13667000000004,13615.856000000002,0.0,-0.030329838223685845,-0.030329420551870157,0.0,0.0,0.0,-1.0178572468796891,-1.5845211143300586,-1.5365018748659287,-0.004288089824601516,-0.004374332505538005,-0.28229180210003174
6067,13.0,300.10422,13482.408000000001,0.0,-0.03033485271242442,-0.030334422762057334,0.0,0.0,0.0,-0.993891065179411,-1.5769850667113086,-1.5274390619964986,0.0030358058186857073,0.002138916752219648,-0.28671421322148977
6068,13.0,299.95215,13404.097,0.0,-0.030339834211105088,-0.03033942497224429,0.0,0.0,0.0,-0.995997257499776,-1.5692397829469085,-1.5092737168537185,-0.0006631699005047734,0.003699353924922806,-0.2858704595982177
6069,13.0,300.17213,13473.27,0.0,-0.030344848699843552,-0.030344427182431355,0.0,0.0,0.0,-1.001870592101929,-1.5697501570222787,-1.5239170046488986,-0.0033103395498050767,-0.0015127294063197684,-0.2826613344115017
6070,13.0,299.94563999999997,13483.165,0.0,-0.03034983019852444,-0.030349429392618532,0.0,0.0,0.0,-1.006251723414313,-1.5724829938669884,-1.5198109099436587,-0.0007886813119817852,-0.002321672417106228,-0.2896421817704577
6071,13.0,299.98,13449.753999999999,0.0,-0.030354844687262794,-0.030354431602805487,0.0,0.0,0.0,-0.990854597809735,-1.5752548408405485,-1.5222799977873385,-0.0003169525954257857,0.0026734058759946173,-0.2890757344345537
6072,13.0,299.9285,13441.017,0.0,-0.030359826185943906,-0.030359433812992664,0.0,0.0,0.0,-0.995283888899372,-1.5707306791440485,-1.5197192108096087,0.0009405142759440322,0.005450064672954505,-0.28846838219211274
6073,13.0,299.66636,13467.943000000001,0.0,-0.030364840674682148,-0.03036443602317962,0.0,0.0,0.0,-0.9947019996319441,-1.5735334302456585,-1.5256829982481885,0.0023973628075262877,-0.004908176290324286,-0.2843431167949807
6074,13.0,299.75192000000004,13533.559,0.0,-0.03036982217336326,-0.030369438233366797,0.0,0.0,0.0,-1.0066524232988592,-1.5769557837834183,-1.5302558972744986,-0.000982364939991871,-0.003971892667920286,-0.2870335187255027
6075,13.0,299.83096,13572.823999999999,0.0,-0.0303748366621015,-0.030374440443553974,0.0,0.0,0.0,-1.006108064815135,-1.5845495866578685,-1.5351418905817085,0.004779325733407725,0.0004521640020976126,-0.28300303274272476
6076,13.0,299.80618,13493.488000000001,0.0,-0.030379851150839854,-0.03037944265374093,0.0,0.0,0.0,-0.998769935338418,-1.5779906161105486,-1.5249227566981587,-0.003969331374317506,0.002805036385885537,-0.28440975825405773
6077,13.0,300.05541,13481.953000000001,0.0,-0.030384832649520965,-0.030384444863928106,0.0,0.0,0.0,-0.997889015701478,-1.5772283480603184,-1.5230597950642986,-0.0012159547341803888,-0.0029694702598138975,-0.28137502354205274
6078,13.0,299.98154,13520.559,0.0,-0.030389847138259207,-0.03038944707411506,0.0,0.0,0.0,-1.0079976039991179,-1.5762299927367884,-1.5256848220983685,-0.002483262098003888,0.00016243019212061185,-0.28745015703412174
6079,13.0,300.13755,13538.485,0.0,-0.030394828636940097,-0.030394416375024602,0.0,0.0,0.0,-1.009576865737479,-1.5782628764124185,-1.5275217432046586,0.003834738627759236,0.007093508104449743,-0.28357210439638775
6080,13.0,300.09339,13523.666000000001,0.0,-0.03039984312567856,-0.03039941858521178,0.0,0.0,0.0,-1.004434013529919,-1.5789453003547684,-1.5274774641752884,-0.0006112984969429643,0.003148984942930617,-0.28312902026015874
6081,13.0,299.94948999999997,13494.371000000001,0.0,-0.03040482462435934,-0.030404420795398734,0.0,0.0,0.0,-1.0028450955181052,-1.5757806163174384,-1.5233261785155885,-0.0033695747586011365,-0.002840082275044297,-0.28053402595905275
6082,13.0,300.16053,13502.398000000001,0.0,-0.030409839113097803,-0.03040942300558591,0.0,0.0,0.0,-1.004568015855644,-1.5750225025926183,-1.5248014706611883,-0.005012578439552975,-0.0069136086902700546,-0.2848448275819957
6083,13.0,300.27834,13551.431999999999,0.0,-0.030414820611778692,-0.03041442521577309,0.0,0.0,0.0,-1.004187043950545,-1.5837739437063185,-1.5313360218810985,0.00012006861697484987,-0.0009197705335367841,-0.2864068235386527
6084,13.0,299.82613,13582.573,0.0,-0.030419835100517045,-0.030419427425960155,0.0,0.0,0.0,-1.0129223237251501,-1.5853115507330684,-1.5305290695014586,-0.002192056147089098,-3.7096982965187164e-05,-0.2846619967339517
6085,13.0,300.06762000000003,13556.33,0.0,-0.03042484958925551,-0.03042442963614711,0.0,0.0,0.0,-1.008548862716023,-1.5810512393626086,-1.5311858582162785,0.00041089758818993455,-0.003211765412501567,-0.28833682179912873
6086,13.0,299.96891,13457.677,0.0,-0.0304298310879364,-0.030429431846334065,0.0,0.0,0.0,-0.995977083690285,-1.5768490885478883,-1.5179714557121184,0.006376335357870304,0.0067342143812652135,-0.2884966822674057
6087,13.0,299.86832999999996,13436.351,0.0,-0.03043484557667475,-0.030434434056521242,0.0,0.0,0.0,-0.9873872458350341,-1.5779338741049487,-1.5189941290380486,0.005902771037433145,0.008088254535098571,-0.2901975441502677
6088,13.0,299.97123,13551.931,0.0,-0.030439827075355752,-0.03043943626670842,0.0,0.0,0.0,-0.998839221380256,-1.5881378092369987,-1.5324716725931786,0.004212912138732056,0.0031972937692733273,-0.28245811697144574
6089,13.0,299.82578,13574.719,0.0,-0.030444841564094105,-0.030444438476895375,0.0,0.0,0.0,-1.001527657605584,-1.5889531715924685,-1.5358947354060086,-0.005306900438500294,-0.004888933556350175,-0.2891922784610557
6090,13.0,299.92502,13507.258,0.0,-0.030449823062775216,-0.030449440687082552,0.0,0.0,0.0,-1.002784057332081,-1.5823903506947683,-1.5206948693308986,-0.001956729723289188,-0.004943305265991246,-0.2899297117513347
6091,13.0,300.12785,13476.229,0.0,-0.03045483755151346,-0.030454442897269507,0.0,0.0,0.0,-1.00272163099342,-1.5750136873167484,-1.5187017050591884,-0.001826554240541868,0.0038981971642971062,-0.2905716968821937
6092,13.0,299.92879,13537.463,0.0,-0.030459852040251922,-0.030459445107456684,0.0,0.0,0.0,-1.0111145031617321,-1.5793924476238985,-1.5245436998357487,-0.004593069897375706,0.001980928972777468,-0.2889617944608087
6093,13.0,299.87945,13627.388,0.0,-0.030464833538932812,-0.030464414408366225,0.0,0.0,0.0,-1.012545962108006,-1.5892711294738484,-1.5405686554672884,-0.003842116203062346,-0.0038459814482188163,-0.2854643286931357
6094,13.0,300.09327,13627.925,0.0,-0.030469848027671165,-0.03046941661855318,0.0,0.0,0.0,-1.015619180058809,-1.5896970998158886,-1.5372325295130385,-0.0027992154667110573,0.001922327045293908,-0.2862269007183957
6095,13.0,299.89293,13531.28,0.0,-0.030474829526352054,-0.030474418828740357,0.0,0.0,0.0,-0.9980199174818971,-1.5818470459911484,-1.5333043615253585,0.0051329292466806755,0.001837750147521818,-0.28080605321339974
6096,13.0,300.10008999999997,13520.205,0.0,-0.030479844015090518,-0.030479421038927534,0.0,0.0,0.0,-1.003620464892128,-1.5780496885913786,-1.5281346581901485,0.0005463631787818475,0.002161545160077898,-0.2834598970803137
6097,13.0,299.9554,13611.845,0.0,-0.030484825513771296,-0.0304844232491146,0.0,0.0,0.0,-1.0111145842217402,-1.5897615425222484,-1.5367848756188587,-0.0022463538894728677,-0.0013777177821701586,-0.2821249502060647
6098,13.0,300.06721,13599.293,0.0,-0.03048984000250976,-0.030489425459301778,0.0,0.0,0.0,-1.013876389886809,-1.5881764140658086,-1.5317926937011686,-0.0012963290758377188,-0.002098591931364898,-0.28802530818838473
6099,13.0,300.22676,13509.13,0.0,-0.03049482150119065,-0.030494427669488733,0.0,0.0,0.0,-0.9960531787727951,-1.5814166173486686,-1.5289684616974384,-0.0007590760489699733,0.0016090377137496583,-0.2894529269167797
6100,13.0,300.27348,13499.867,0.0,-0.030499835989928892,-0.030499429879675688,0.0,0.0,0.0,-0.9988015284765361,-1.5812523695074585,-1.5235685479395087,-0.00029243802250638576,-0.0018212635551447182,-0.2847659156642077
6101,13.0,300.11903,13591.758999999998,0.0,-0.030504850478667467,-0.030504432089862865,0.0,0.0,0.0,-1.005526469390236,-1.5860822287591285,-1.5399466212308985,-0.0026076704651570378,-0.005705584056672305,-0.2872197236963797
6102,13.0,300.11009,13634.403,0.0,-0.030509831977348356,-0.03050943430004982,0.0,0.0,0.0,-1.017386288233209,-1.5886564919631885,-1.5384753820856985,-0.00033897858556958173,-0.000993158728537135,-0.2888356448233587
6103,13.0,299.96598,13595.934,0.0,-0.030514846466086598,-0.030514436510236997,0.0,0.0,0.0,-1.0095085726807391,-1.5852254244745685,-1.5380903470476985,0.004821129088808396,0.004490861333288506,-0.2926534496101467
6104,13.0,299.91181,13565.466,0.0,-0.03051982796476771,-0.030519438720423953,0.0,0.0,0.0,-1.008647431685751,-1.5817784489593785,-1.5331371752588585,-0.00026814521963637274,0.004520460395209706,-0.28481781433432973
6105,13.0,300.01394,13622.128999999999,0.0,-0.030524842453506174,-0.03052444093061113,0.0,0.0,0.0,-1.0096136669811109,-1.5940419162446884,-1.5371317111280884,-0.002242285386346338,0.0015629270321738887,-0.2900942534350737
6106,13.0,299.92843,13684.976,0.0,-0.030529823952187063,-0.030529443140798307,0.0,0.0,0.0,-1.018204994314009,-1.5992123288549684,-1.5424734643302787,0.0013446112537027987,-0.004522532694314225,-0.2882690657649417
6107,13.0,299.91472999999996,13629.853000000001,0.0,-0.030534838440925416,-0.030534445350985373,0.0,0.0,0.0,-1.011570425176728,-1.5894195706134986,-1.5421450699728685,0.007570048847055652,0.0008514118485878073,-0.2861000823358797
6108,13.0,300.16978,13518.237,0.0,-0.030539819939606305,-0.030539414651894803,0.0,0.0,0.0,-1.001319546167545,-1.5817798675095185,-1.5261071447400485,0.003947743675636966,-0.007940975593313273,-0.2860007230310737
6109,13.0,300.204,13509.36,0.0,-0.03054483442834477,-0.03054441686208198,0.0,0.0,0.0,-0.998596497318801,-1.5825723304127286,-1.5253394051392786,0.005349806919284834,-0.008665702727338272,-0.29002711548344773
6110,13.0,300.16579,13619.077,0.0,-0.030549848917083122,-0.030549419072269046,0.0,0.0,0.0,-1.010151358279177,-1.5900570062514086,-1.5396509548517183,-0.003178061877075287,0.00016799007780432984,-0.29460732004297874
6111,13.0,300.25667000000004,13656.767,0.0,-0.03055483041576401,-0.030554421282456223,0.0,0.0,0.0,-1.014161214489919,-1.5943525787253485,-1.5428022639877286,0.005349230886602985,0.007203505927355683,-0.2875376917102607
6112,13.0,300.19911,13569.282,0.0,-0.030559844904502476,-0.03055942349264318,0.0,0.0,0.0,-1.010560204694527,-1.5796321825975586,-1.5345305967963787,-0.005002790646236995,0.0038668122490746557,-0.2852239553719127
6113,13.0,300.11761,13599.632,0.0,-0.030564826403183143,-0.030564425702830356,0.0,0.0,0.0,-1.01043611195478,-1.5868788459877485,-1.5366336987039384,-0.008557616806046022,-0.0009390809931475782,-0.28173611548018973
6114,13.0,300.22657000000004,13676.87,0.0,-0.030569840891921718,-0.030569427913017533,0.0,0.0,0.0,-1.021106233325339,-1.5920803653760986,-1.5442403698546585,-0.007043772014016174,-0.002847477582224157,-0.2846017184855027
6115,13.0,299.95763,13690.693000000001,0.0,-0.030574822390602607,-0.030574430123204488,0.0,0.0,0.0,-1.019743006640799,-1.5910237481718184,-1.5508622632331885,0.0006501835502006203,0.007044889426226452,-0.28531241210564273
6116,13.0,300.02274,13675.267,0.0,-0.03057983687934085,-0.030579432333391443,0.0,0.0,0.0,-1.020473661287909,-1.5953982528285484,-1.5410678837915586,0.001096464379037609,-0.003909836165545786,-0.28202184187588875
6117,13.0,299.99202,13570.958,0.0,-0.030584851368079424,-0.03058443454357851,0.0,0.0,0.0,-1.004884068826836,-1.5840958532630884,-1.5362525140163186,0.0003533698274023867,-0.002148894428604368,-0.29289647764663174
6118,13.0,299.89405,13536.391000000001,0.0,-0.030589832866760425,-0.030589436753765686,0.0,0.0,0.0,-1.001190792477338,-1.5869178561165984,-1.5266162015902884,0.002275405998990088,-5.853603076330644e-05,-0.28502858048763074
6119,13.0,299.9303,13584.419,0.0,-0.030594847355498778,-0.030594438963952753,0.0,0.0,0.0,-0.9988258464789361,-1.5956505521034483,-1.5348477440776784,0.008285449115235162,0.003595345322032957,-0.2970663361806647
6120,13.0,299.95463,13648.756000000001,0.0,-0.030599828854179667,-0.03059944117413982,0.0,0.0,0.0,-1.013691775718589,-1.5927852834706684,-1.5424037527233985,0.0006294882614131545,-0.004177454160757626,-0.2792348468133337
6121,13.0,299.88747,13618.083999999999,0.0,-0.03060484334291813,-0.030604443384326996,0.0,0.0,0.0,-0.998175562829758,-1.6022650487562484,-1.5391167693989984,-0.0017298172269946685,-0.005469654039787825,-0.30058256734018973
6122,13.0,299.94315,13595.721000000001,0.0,-0.03060982484159902,-0.030609412685236426,0.0,0.0,0.0,-1.004574713438805,-1.5947628436908383,-1.5334221011869786,-0.004299672185169605,-0.006290927696341223,-0.2867987182798297
6123,13.0,300.02261,13650.821000000002,0.0,-0.030614839330337373,-0.030614414895423492,0.0,0.0,0.0,-1.005603040700293,-1.5957957508427785,-1.5481098706615486,-0.003716726401862337,0.006521611408182934,-0.2902461193600617
6124,13.0,300.2247,13709.617,0.0,-0.030619820829018263,-0.03061941710561067,0.0,0.0,0.0,-1.024573879142569,-1.5952522434891383,-1.5475550149067883,4.101634074324766e-06,0.0018570767786042083,-0.28006994728075174
6125,13.0,300.25865,13661.0,0.0,-0.030624835317756727,-0.030624419315797624,0.0,0.0,0.0,-1.017577995152129,-1.5918926101325686,-1.5431320768952785,-0.0026576210606367775,0.0007645023072305033,-0.28768992240528474
6126,13.0,300.18431,13615.313,0.0,-0.03062984980649508,-0.0306294215259848,0.0,0.0,0.0,-1.0138609884852892,-1.5887908489264486,-1.5360633402226485,0.0025133725472505576,0.0024308725082084377,-0.2892980921689987
6127,13.0,300.12408,13625.524,0.0,-0.03063483130517597,-0.03063442373617198,0.0,0.0,0.0,-1.0086024636463131,-1.5920507784731786,-1.5411656624262087,0.0009361295678587952,0.004784731929316275,-0.2909911722910927
6128,13.0,300.04752,13678.588,0.0,-0.030639845793914433,-0.030639425946358934,0.0,0.0,0.0,-1.019414612283389,-1.5932790402443986,-1.5452555451298486,-0.00040653833294720964,-0.0029749758555572573,-0.28877541723741473
6129,13.0,299.88912999999997,13693.696000000002,0.0,-0.0306448272925951,-0.03064442815654611,0.0,0.0,0.0,-1.018694292787299,-1.5993053452141486,-1.5445421157344386,-0.0023021418187787078,-0.0057405089637691245,-0.29108830244567874
6130,13.0,299.88816,13608.948,0.0,-0.030649841781333786,-0.030649430366733066,0.0,0.0,0.0,-1.012109616084942,-1.5883413711820884,-1.5363294196989088,0.0016082358276205183,-0.0002659482603720498,-0.2915774691964557
6131,13.0,299.80814,13569.067,0.0,-0.030654823280014676,-0.030654432576920132,0.0,0.0,0.0,-1.004525641736462,-1.5887203267194883,-1.5314114076885386,0.0029794989026786477,0.004544068210614616,-0.28590426162155375
6132,13.0,299.74421,13679.761,0.0,-0.03065983776875303,-0.03065943478710731,0.0,0.0,0.0,-1.013683163092739,-1.5953944024781683,-1.5492280934719087,0.004617141477351386,-0.0008362108172750822,-0.2866761656802347
6133,13.0,299.96927,13742.74,0.0,-0.030664819267433918,-0.030664436997294264,0.0,0.0,0.0,-1.0205168257421688,-1.6017464673550685,-1.5551865106849587,0.0010717038903189388,-0.003160817677598417,-0.28521530221605873
6134,13.0,299.87017000000003,13692.86,0.0,-0.030669833756172382,-0.03066943920748144,0.0,0.0,0.0,-1.016486623469419,-1.5994605751294686,-1.5463404320119185,0.006611194268074073,0.00046206137841190754,-0.2903518216104937
6135,13.0,300.02841,13628.48,0.0,-0.030674848244910735,-0.030674441417668397,0.0,0.0,0.0,-1.0082219679687612,-1.5935727814483884,-1.5409227863772383,-0.0024693192700028376,0.0041434672192783755,-0.2900093126791907
6136,13.0,299.95456,13656.454,0.0,-0.030679829743591625,-0.030679410718577937,0.0,0.0,0.0,-1.018736342666449,-1.5944731554872484,-1.5380115161899186,-0.005517689085953515,-0.003027856871651207,-0.28871768224671673
6137,13.0,300.07664,13726.866000000002,0.0,-0.03068484423233009,-0.030684412928765115,0.0,0.0,0.0,-1.019886482854959,-1.6037046744983285,-1.5490333468026884,-0.007132720275369683,0.002273581642185038,-0.2970553322845787
6138,13.0,300.04238,13715.747,0.0,-0.030689825731010978,-0.03068941513895207,0.0,0.0,0.0,-1.018568751099909,-1.5997277691808385,-1.5509481868416686,-0.0007101567597070154,0.007546958295826793,-0.29547058886317673
6139,13.0,300.17888,13649.181,0.0,-0.03069484021974922,-0.030694417349139247,0.0,0.0,0.0,-1.00028547377799,-1.6023962646441985,-1.5463285769857487,6.807352090708343e-05,0.005308365395494875,-0.2958199473651557
6140,13.0,299.99947000000003,13591.444,0.0,-0.03069982171843022,-0.030699419559326424,0.0,0.0,0.0,-1.004667324497945,-1.5873550735347486,-1.5394371590806186,-0.0014007544284936988,-0.0055109882603921944,-0.28995746467157374
6141,13.0,299.92077,13705.47,0.0,-0.030704836207168684,-0.03070442176951338,0.0,0.0,0.0,-1.01262675867098,-1.6020277455828287,-1.5514660589677784,0.0003664258487834156,-0.008130549519447762,-0.28829335336983875
6142,13.0,299.70591,13774.781,0.0,-0.030709850695906926,-0.030709423979700556,0.0,0.0,0.0,-1.034824119804189,-1.6019058515957985,-1.5504594963184384,0.006932842001018233,-0.002825429260048157,-0.2834847723702687
6143,13.0,299.72357999999997,13714.309,0.0,-0.030714832194587816,-0.03071442618988751,0.0,0.0,0.0,-1.016615306232119,-1.5992706920607285,-1.5529215927364286,0.002182300676451308,0.0007247100708933152,-0.2822751037383837
6144,13.0,299.90997000000004,13657.185,0.0,-0.03071984668332639,-0.03071942840007469,0.0,0.0,0.0,-1.012764854527109,-1.5961482605525685,-1.5425300036858587,-0.003569749205956817,-0.0044699016470199455,-0.28754277822576274
6145,13.0,299.88524,13701.551000000001,0.0,-0.03072482818200728,-0.030724430610261866,0.0,0.0,0.0,-1.015562134078179,-1.5957323213865184,-1.5536349208068285,-0.0022337624331301878,0.0015610824103668385,-0.2872156706959797
6146,13.0,299.78316,13757.365,0.0,-0.030729842670745522,-0.030729432820448932,0.0,0.0,0.0,-1.028137986369319,-1.6035222894803287,-1.5502350614212885,-0.0017340916225415184,0.0058946251145792035,-0.2932996701264237
6147,13.0,299.92713,13716.658000000001,0.0,-0.030734824169426633,-0.030734435030635887,0.0,0.0,0.0,-1.022327807645899,-1.5979902479093586,-1.5492035728194884,0.0027971607981582777,0.002183991993518228,-0.2887298209829147
6148,13.0,300.03036000000003,13676.698999999999,0.0,-0.030739838658164986,-0.030739437240822842,0.0,0.0,0.0,-1.015928018689289,-1.5967290555098885,-1.5447178133017785,-0.007599646389101702,-0.0055070832958318055,-0.2911073920775627
6149,13.0,300.12937,13664.157,0.0,-0.030744820156845876,-0.03074443945101002,0.0,0.0,0.0,-1.014975056970239,-1.5975004428110184,-1.5410870342184484,0.002232677343598098,-0.00011757383310863387,-0.2922727208850717
6150,13.0,300.0779,13733.928999999998,0.0,-0.03074983464558434,-0.030749441661197197,0.0,0.0,0.0,-1.015106880808249,-1.6060347444282885,-1.5536296519063086,0.002135360244368648,0.0036325524736550165,-0.2933411019230127
6151,13.0,300.06057000000004,13765.031,0.0,-0.03075484913432258,-0.030754410962106515,0.0,0.0,0.0,-1.0186315726061088,-1.6076609095137786,-1.5579333303810485,0.002761720552060597,0.002308947819700408,-0.28825888260143673
6152,13.0,299.90448,13720.053999999998,0.0,-0.03075983063300347,-0.030759413172293693,0.0,0.0,0.0,-1.0134899362986691,-1.6076290934606383,-1.5494347964923088,-0.0027334612094216176,-0.014522776894536488,-0.2862991657155277
6153,13.0,299.82635,13659.742,0.0,-0.030764845121742046,-0.03076441538248087,0.0,0.0,0.0,-1.0060076922602292,-1.6025175506811684,-1.5436953426258684,0.0022247625430919676,-0.005077046781140506,-0.28958083960940373
6154,13.0,299.89954,13702.508,0.0,-0.030769826620422935,-0.030769417592667825,0.0,0.0,0.0,-1.016940458189209,-1.6084328034399586,-1.5398469174210587,0.005495974832335484,-0.003619440916036007,-0.28984048494752873
6155,13.0,299.7371,13749.43,0.0,-0.030774841109161177,-0.030774419802855002,0.0,0.0,0.0,-1.021184050933019,-1.6078146195539484,-1.5504846249209183,0.006036759177656744,-0.002922494363977737,-0.2905927623517727
6156,13.0,299.87196,13726.108,0.0,-0.030779822607842067,-0.030779422013041957,0.0,0.0,0.0,-1.0166285798084291,-1.6051454148155184,-1.5506201977842986,-0.0017188981399420386,0.0013288118475435185,-0.2944700145219277
6157,13.0,299.88701000000003,13685.931,0.0,-0.03078483709658064,-0.030784424223229134,0.0,0.0,0.0,-1.0093641946739902,-1.6047932090807586,-1.5460239940056886,-0.002815042331948047,0.0037315680840270963,-0.2978616969791607
6158,13.0,300.00757999999996,13693.048999999999,0.0,-0.03078981859526153,-0.03078942643341631,0.0,0.0,0.0,-1.020257636366589,-1.5937482763657087,-1.5483390678341684,8.323529789768432e-05,0.008042516628234592,-0.2904653258866957
6159,13.0,300.1969,13778.378,0.0,-0.030794833083999773,-0.030794428643603378,0.0,0.0,0.0,-1.025313551715569,-1.6060085012506984,-1.5569608129350685,-0.004825257981640885,0.0009150071840216781,-0.28580844869209776
6160,13.0,299.98609,13749.083,0.0,-0.030799847572738237,-0.030799430853790555,0.0,0.0,0.0,-1.022317168519849,-1.6027770440317786,-1.5542836035208485,0.001105270738306729,-0.007996417700359982,-0.28716650780112774
6161,13.0,300.09013,13757.975,0.0,-0.030804829071419126,-0.03080443306397751,0.0,0.0,0.0,-1.022260122539219,-1.6049400290202485,-1.5548807118047787,-0.003848041892297166,-0.004283736598196886,-0.28980367357139575
6162,13.0,300.01847999999995,13783.011,0.0,-0.03080984356015748,-0.030809435274164465,0.0,0.0,0.0,-1.0177521728443188,-1.6148521481234985,-1.5570868612475086,0.002395834826375488,0.0016529657532850183,-0.29140453780188874
6163,13.0,299.78116,13766.082,0.0,-0.03081482505883859,-0.030814437484351642,0.0,0.0,0.0,-1.023522530838809,-1.6049735675985586,-1.5560491918200985,0.001966563822134738,0.0006438637472069044,-0.28479050724413474
6164,13.0,299.9406,13790.89,0.0,-0.030819839547576833,-0.030819439694538597,0.0,0.0,0.0,-1.0185871922517291,-1.6151434575272485,-1.5583554503727086,0.0012037383830247289,0.004094592087454776,-0.28895647489778375
6165,13.0,300.13642000000004,13765.353000000001,0.0,-0.030824821046257722,-0.03082440899544836,0.0,0.0,0.0,-1.0250708783166191,-1.6099765912923185,-1.5492760202016385,0.000996579724319761,0.0025110578787221178,-0.2856449709209637
6166,13.0,299.86854,13713.748,0.0,-0.030829835534996297,-0.030829411205635315,0.0,0.0,0.0,-1.018570980250129,-1.6045815411348683,-1.5454843370024285,-0.00023098229638117778,0.0031391630030862673,-0.2959988468028117
6167,13.0,300.13067,13730.758,0.0,-0.03083485002373454,-0.03083441341582227,0.0,0.0,0.0,-1.020944619934389,-1.6060723360069986,-1.5467905177063384,-0.001242133063763989,-0.0024103208577551474,-0.2914952540833417
6168,13.0,299.8063,13767.421999999999,0.0,-0.03083983152241543,-0.030839415626009448,0.0,0.0,0.0,-1.018956724563199,-1.6122364429903484,-1.5537595505691286,-0.0016965473626111883,-0.006902990538497123,-0.3019150621491967
6169,13.0,299.76332,13786.631000000001,0.0,-0.030844846011153892,-0.030844417836196514,0.0,0.0,0.0,-1.0239483998558392,-1.6109271212111287,-1.5559159494319486,-0.0025253003247777375,-0.0013592138088439588,-0.2964782052926207
6170,13.0,299.8426,13763.441,0.0,-0.030849827509834893,-0.03084942004638358,0.0,0.0,0.0,-1.017890076182929,-1.6143820000770983,-1.5514705172682186,0.0002410353889708408,0.002776211447040737,-0.29888714661036475
6171,13.0,299.81086,13724.155,0.0,-0.030854841998573135,-0.030854422256570757,0.0,0.0,0.0,-1.016517628922479,-1.6041787742201183,-1.5511041260320586,0.002207561102769318,0.0025903740833000174,-0.2864615593090547
6172,13.0,299.71743,13750.633999999998,0.0,-0.030859823497254024,-0.030859424466757823,0.0,0.0,0.0,-1.020983731388249,-1.6048055707319786,-1.5540601818737985,0.0015979238800278084,0.006279549201693254,-0.2866641384015477
6173,13.0,299.98881,13828.508,0.0,-0.030864837985992488,-0.030864426676945,0.0,0.0,0.0,-1.023633684374779,-1.6171835352785884,-1.5627038131768587,-4.200246107182016e-05,-0.0002074365830748968,-0.2885604055661947
6174,13.0,299.95108,13814.586000000001,0.0,-0.030869819484673378,-0.030869428887131956,0.0,0.0,0.0,-1.026829171215149,-1.6104008391091884,-1.5620592847882486,-0.004134714866239586,0.0009251115571989022,-0.2853246420343497
6175,13.0,300.16499,13783.971000000001,0.0,-0.03087483397341173,-0.03087443109731891,0.0,0.0,0.0,-1.0226085792486088,-1.6125415325954584,-1.5548328864000587,-0.0058458628588167446,-0.001282437315641709,-0.2886466838122097
6176,13.0,299.90651,13762.123,0.0,-0.030879848462150195,-0.030879433307506088,0.0,0.0,0.0,-1.025415383350619,-1.6059873243236085,-1.5519388414644384,-0.004610326255853776,-0.002761755407864037,-0.28890645074034677
6177,13.0,299.95142000000004,13802.353000000001,0.0,-0.030884829960831084,-0.030884435517693265,0.0,0.0,0.0,-1.027912943522109,-1.6130506907707087,-1.5546070329527686,-0.002270068805413348,-0.0024855383643535376,-0.29520521866198673
6178,13.0,299.9272,13823.444,0.0,-0.030889844449569548,-0.03088943772788022,0.0,0.0,0.0,-1.0296054764891491,-1.6110799193262086,-1.5612964087879586,-0.0036490158626048264,-0.003954412077195086,-0.2955371188647427
6179,13.0,299.89342,13806.421999999999,0.0,-0.03089482594825055,-0.030894407028789983,0.0,0.0,0.0,-1.024721813657169,-1.6109206364104884,-1.5611649902499884,0.004819168247214875,-0.005094034527017065,-0.29445705505314873
6180,13.0,299.95463,13761.891000000001,0.0,-0.03089984043698879,-0.030899409238976938,0.0,0.0,0.0,-1.016803973400739,-1.6079810965453785,-1.5584861596356088,-0.0016542994943916482,0.0005333705159295716,-0.2952194548258917
6181,13.0,300.03019,13801.653,0.0,-0.03090482193566968,-0.030904411449163893,0.0,0.0,0.0,-1.0267817511104689,-1.6085276436493183,-1.5600484899647984,0.0052771873859428445,0.002195438578572918,-0.2929080084327697
6182,13.0,299.80371,13858.216999999999,0.0,-0.030909836424408144,-0.03090941365935096,0.0,0.0,0.0,-1.023449374181589,-1.6210274008579484,-1.5680750519569586,-0.004751084629270545,0.0014601352413291285,-0.2917292743264377
6183,13.0,299.97255,13817.376,0.0,-0.030914817923089033,-0.030914415869538137,0.0,0.0,0.0,-1.030606567587949,-1.6100378929233685,-1.5594929249349685,-0.002212357322117668,-0.0014871397750442685,-0.2810185722893737
6184,13.0,300.12286,13785.827,0.0,-0.030919832411827386,-0.030919418079725203,0.0,0.0,0.0,-1.015240325846419,-1.6144237459812183,-1.5608830027471585,0.00021820497957265476,-0.0019051385745725382,-0.29238798821644774
6185,13.0,299.97136,13769.362,0.0,-0.03092484690056585,-0.03092442028991227,0.0,0.0,0.0,-1.018548688747929,-1.6111902622620984,-1.5558033773458384,0.004267387503858356,-0.0002144790563049348,-0.29085426193758074
6186,13.0,299.90044,13801.586000000001,0.0,-0.03092982839924674,-0.030929422500099446,0.0,0.0,0.0,-1.014577153655969,-1.6192810643105984,-1.5614795030810287,0.0025498875477293075,-0.003117561524204367,-0.2990188589908637
6187,13.0,299.93037999999996,13819.472,0.0,-0.030934842887985092,-0.0309344247102864,0.0,0.0,0.0,-1.031014096778169,-1.6122872068203584,-1.5574729095356086,-0.0016493138985996083,-0.006640796977695634,-0.29565724979659874
6188,13.0,299.99413,13778.669,0.0,-0.03093982438666598,-0.03093942692047358,0.0,0.0,0.0,-1.020565765721999,-1.6089232164883587,-1.5588821377746884,-0.000996390753176111,0.002868611040884867,-0.30345836364150874
6189,13.0,299.96471,13772.087,0.0,-0.030944838875404446,-0.030944429130660756,0.0,0.0,0.0,-1.0290408935334292,-1.6094931696696086,-1.5478364957845685,-0.0026989189055625575,0.003257156382531307,-0.29961646376734274
6190,13.0,300.10997000000003,13827.44,0.0,-0.030949820374085335,-0.03094943134084771,0.0,0.0,0.0,-1.024720293782019,-1.6085051494970983,-1.5699711468690885,-0.004151552245801306,0.0039048179431005266,-0.2920388931594947
6191,13.0,300.10544,13885.643999999998,0.0,-0.0309548348628238,-0.030954433551034888,0.0,0.0,0.0,-1.031611205062099,-1.6217763953318685,-1.5675014510753484,-0.004818207280820035,-0.00016673065859253484,-0.2880357243994127
6192,13.0,300.07101,13889.421,0.0,-0.030959849351562152,-0.030959435761221843,0.0,0.0,0.0,-1.025615094945329,-1.6228261224354683,-1.5735959477768287,-0.0009885278006775981,-0.00046070290387033655,-0.28366946759849676
6193,13.0,300.07375,13890.653999999999,0.0,-0.03096483085024304,-0.030964405062131384,0.0,0.0,0.0,-1.0337660840497689,-1.6238847661399485,-1.5647611161798984,0.0038029343283203965,-0.0026196755536668477,-0.2880994375657007
6194,13.0,300.08224,13851.086000000001,0.0,-0.030969845338981394,-0.03096940727231856,0.0,0.0,0.0,-1.026594705142009,-1.6211965122996383,-1.5625929636159184,0.004028811688312757,-0.004508350840614586,-0.28753828952781973
6195,13.0,299.73575,13859.891000000001,0.0,-0.030974826837662395,-0.030974409482505516,0.0,0.0,0.0,-1.035334088579519,-1.6186620698245084,-1.5590645227926883,0.0005177751175454255,-0.001960151266226868,-0.2902864163165387
6196,13.0,299.96589,13893.131000000001,0.0,-0.030979841326400748,-0.030979411692692693,0.0,0.0,0.0,-1.0283440814396592,-1.6223078450093182,-1.5725128847449383,0.001136706316034179,0.0032130890211071973,-0.2938572717889547
6197,13.0,299.96036000000004,13866.071000000002,0.0,-0.030984822825081637,-0.03098441390287976,0.0,0.0,0.0,-1.027517674658099,-1.6201231764687085,-1.5672984970803183,-0.005501150919146324,0.002931248743516727,-0.2969611810852867
6198,13.0,299.96665,13770.7,0.0,-0.0309898373138201,-0.030989416113066715,0.0,0.0,0.0,-1.013898073438949,-1.6115635435989384,-1.5604873285831087,-0.002891065777675977,0.0014958311304270387,-0.2997894964869197
6199,13.0,299.83091,13772.183,0.0,-0.03099481881250099,-0.03099441832325389,0.0,0.0,0.0,-1.0207430844894991,-1.6082593350228385,-1.5573972197531383,-0.006081035876551514,-0.002469287048649658,-0.2938843762291297
6200,13.0,299.89286,13862.782,0.0,-0.030999833301239343,-0.030999420533440847,0.0,0.0,0.0,-1.027423949023849,-1.6230373850813185,-1.5634783415532985,0.0004476751724320996,0.0003257325291322977,-0.2988854848802007
6201,13.0,299.80688,13863.451000000001,0.0,-0.031004847789977807,-0.031004422743628024,0.0,0.0,0.0,-1.036435086138179,-1.6147220468106585,-1.5629858006796884,0.0035857629145122465,-0.006038372474465964,-0.2943757518651247
6202,13.0,299.8669,13864.33,0.0,-0.031009829288658697,-0.0310094249538152,0.0,0.0,0.0,-1.0230692027440689,-1.6297815777469185,-1.5615592458638985,0.007029865257718683,-0.0012379647555026089,-0.2975368895271047
6203,13.0,299.88257999999996,13860.372,0.0,-0.03101484377739705,-0.031014427164002156,0.0,0.0,0.0,-1.033196130868519,-1.6173133326163984,-1.5626977336762586,0.004046767493334856,-0.003971880407594076,-0.2885078685485097
6204,13.0,300.15627,13893.508999999998,0.0,-0.03101982527607805,-0.031019429374189333,0.0,0.0,0.0,-1.0259640582797689,-1.6256063793848585,-1.5717092760906286,0.003683887472746387,0.0023149380529665976,-0.2943751135175617
6205,13.0,300.03869,13911.948999999999,0.0,-0.031024839764816403,-0.03102443158437629,0.0,0.0,0.0,-1.0350767230541191,-1.6257583668998585,-1.5680499233544785,-0.0038574648142521363,0.0007860272958623542,-0.29412179086006074
6206,13.0,299.92909,13873.208999999999,0.0,-0.031029821263497293,-0.031029433794563466,0.0,0.0,0.0,-1.0271843153751992,-1.6171403708243286,-1.5727844357717384,-0.0054300144799757045,-0.0035865854709434264,-0.2967314266251117
6207,13.0,300.27338,13837.426000000001,0.0,-0.031034835752235757,-0.031034436004750532,0.0,0.0,0.0,-1.030509700878389,-1.6169049928260986,-1.5588171884432787,-0.004156197997509806,-0.003250649087739087,-0.2951589029999157
6208,13.0,300.14955,13833.671,0.0,-0.031039817250916646,-0.03103940530565996,0.0,0.0,0.0,-1.022263972889599,-1.6149203398552285,-1.5679061431652883,-0.0044655217721376855,-0.0026605155108724377,-0.29819466109452175
6209,13.0,300.00682,13922.696000000002,0.0,-0.031044831739655,-0.03104440751584714,0.0,0.0,0.0,-1.0387442831160791,-1.6220947585132883,-1.5713129939765185,0.0006745142384918723,-0.0015661170474637184,-0.29311260389296173
6210,13.0,299.85952000000003,13948.928999999998,0.0,-0.031049846228393463,-0.031049409726034316,0.0,0.0,0.0,-1.032944236893659,-1.6243336359342484,-1.5828482384149587,-0.003179368057779197,0.002832972299092597,-0.28986449897489874
6211,13.0,299.8206,13904.688,0.0,-0.031054827727074352,-0.031054411936221382,0.0,0.0,0.0,-1.0320472065801292,-1.6226615706192284,-1.5719692760662884,0.0012104206661092188,0.0053024020133563355,-0.2885784920804797
6212,13.0,299.75953,13895.231000000002,0.0,-0.031059842215812705,-0.031059414146408337,0.0,0.0,0.0,-1.027833099414229,-1.6253056467551785,-1.5706644125875084,0.00017552152526762585,0.0010926556732367189,-0.29122258848143173
6213,13.0,300.08515,13953.793,0.0,-0.031064823714493595,-0.031064416356595292,0.0,0.0,0.0,-1.042455919557389,-1.6283334407039984,-1.5708153868524086,-0.0005489178153314704,0.00043427691569729456,-0.2911972470964307
6214,13.0,300.17373,13926.811000000002,0.0,-0.03106983820323206,-0.03106941856678247,0.0,0.0,0.0,-1.031591041385109,-1.6272689201489383,-1.5745427286702685,9.336989125914081e-05,-0.006965006004242573,-0.2946392070236257
6215,13.0,300.16244,13870.241000000002,0.0,-0.031074819701912948,-0.031074420776969647,0.0,0.0,0.0,-1.031645047615439,-1.6227570187786484,-1.5618048576881383,0.003249657825166257,-0.002098502562706078,-0.2939463567377467
6216,13.0,300.04717,13822.785,0.0,-0.0310798341906513,-0.031079422987156602,0.0,0.0,0.0,-1.015577434154689,-1.6179989989590684,-1.5682049506197786,0.00019465742215119181,0.001155379907427119,-0.3001906320690087
6217,13.0,300.10602,13843.418,0.0,-0.031084848679389765,-0.03108442519734378,0.0,0.0,0.0,-1.023725484833839,-1.6221964888233285,-1.5621314281953684,0.0005205013783969865,0.0002341598284297758,-0.2993511644936597
6218,13.0,300.01399,13898.523000000001,0.0,-0.031089830178070654,-0.031089427407530734,0.0,0.0,0.0,-1.0222572854389391,-1.6266386785867384,-1.5759078805299984,0.0012500108806414688,0.0061010575972025045,-0.3008873529702697
6219,13.0,299.94692000000003,13916.271,0.0,-0.031094844666808896,-0.03109442961771791,0.0,0.0,0.0,-1.0366387494082792,-1.6219918123031285,-1.5715684343267287,0.002221925240161948,0.004005589921195946,-0.2967045957624637
6220,13.0,299.94458,13910.325,0.0,-0.031099826165490008,-0.03109943182790509,0.0,0.0,0.0,-1.027320090888599,-1.6252989593045184,-1.5757723076666186,0.0023385656267484577,0.0026854109645044273,-0.2984109595933687
6221,13.0,299.81105,13865.073999999999,0.0,-0.03110484065422836,-0.031104434038092155,0.0,0.0,0.0,-1.0373774087311791,-1.6161090848725483,-1.5611497914984884,-0.002408900179789938,-0.0010438566364956291,-0.29597955452090774
6222,13.0,299.9317,13928.096000000001,0.0,-0.03110982215290925,-0.031109403339001584,0.0,0.0,0.0,-1.029137861567999,-1.6243741659382485,-1.5802812706116185,-0.0026517664002339673,-0.003126498998036427,-0.2921672922121667
6223,13.0,300.05146,13988.214,0.0,-0.031114836641647714,-0.03111440554918876,0.0,0.0,0.0,-1.045802481987669,-1.6271387175110883,-1.5791264694726483,-0.0032134496368177866,0.0019463963961193682,-0.2903790881706847
6224,13.0,299.86225,13968.363000000001,0.0,-0.031119818140328603,-0.031119407759375828,0.0,0.0,0.0,-1.032372763837259,-1.6314283118094384,-1.5822325876541985,-0.0015220249627371687,0.003409696321485827,-0.2935368618423327
6225,13.0,299.63478,13939.917,0.0,-0.031124832629066956,-0.031124409969563005,0.0,0.0,0.0,-1.0343462710570293,-1.6315986391512485,-1.5714416767392183,0.002243476867138928,0.0005425560536511135,-0.29501044159526374
6226,13.0,300.04937,13945.048999999999,0.0,-0.03112984711780542,-0.03112941217974996,0.0,0.0,0.0,-1.037034220922309,-1.6260827082568685,-1.5758299615973086,0.003942832249752246,-0.003105318017946027,-0.2912146142031447
6227,13.0,300.02622,13954.598,0.0,-0.03113482861648631,-0.031134414389937137,0.0,0.0,0.0,-1.039813160646569,-1.6285732770026684,-1.5734628067136884,0.005120814220535015,-0.0007238644630223602,-0.29477477988700573
6228,13.0,300.18059,13921.558,0.0,-0.03113984310522455,-0.031139416600124092,0.0,0.0,0.0,-1.026163972524499,-1.6249574940208185,-1.5806845441514186,0.0008902874988845352,-0.004129406854265726,-0.2951412927131777
6229,13.0,300.00701000000004,13894.062,0.0,-0.031144824603905552,-0.031144418810311048,0.0,0.0,0.0,-1.0280701999376292,-1.6220562550094884,-1.5733214583247384,-0.004829147038174705,-0.00047145260590374956,-0.29631288340630474
6230,13.0,300.0685,13904.868999999999,0.0,-0.031149839092644016,-0.031149421020498225,0.0,0.0,0.0,-1.026587916366339,-1.6248083436060985,-1.5753367114486285,-0.0009562527553747992,-0.0009383300633659671,-0.2934376747900437
6231,13.0,299.95164,13983.136,0.0,-0.031154820591324905,-0.03115442323068529,0.0,0.0,0.0,-1.045165552974809,-1.6310619205732786,-1.5742968128709984,-0.005362506388088176,0.0027955709074263674,-0.29680246558962275
6232,13.0,299.84122,14019.007,0.0,-0.031159835080063147,-0.031159425440872357,0.0,0.0,0.0,-1.042610744172669,-1.6377055988289586,-1.5811118317185884,0.004324277747947985,0.0007233352526276312,-0.29352621258378175
6233,13.0,299.74983,13957.415,0.0,-0.03116481657874426,-0.031164427651059534,0.0,0.0,0.0,-1.036804111824599,-1.6345315928907087,-1.5713698373071285,-0.0016727376064613487,-0.0035462142432340967,-0.29866409986585174
6234,13.0,299.91321,13938.398000000001,0.0,-0.031169831067482612,-0.0311694298612466,0.0,0.0,0.0,-1.0254729359562988,-1.6321463008302985,-1.5793057134153385,0.007608596021934963,0.0003209856651963187,-0.2968494094667557
6235,13.0,299.71696000000003,13941.999,0.0,-0.031174845556221076,-0.031174432071433777,0.0,0.0,0.0,-1.0331627949402291,-1.6335632297701383,-1.5712937422246185,-0.0006095968548575254,-0.0002514023155139768,-0.29539557795827376
6236,13.0,299.88145,13945.612,0.0,-0.031179827054901965,-0.031179401372343207,0.0,0.0,0.0,-1.026559748013559,-1.6348890675259882,-1.5776692131788286,0.005217889254315575,0.006433461993208264,-0.2985620655807817
6237,13.0,300.01392999999996,13917.622,0.0,-0.03118484154364043,-0.031184403582530273,0.0,0.0,0.0,-1.035216551567919,-1.6260382265774784,-1.5693547868332587,-0.006208068054838614,-0.0005109762904344336,-0.2946590565930847
6238,13.0,300.01726,13903.338,0.0,-0.031189823042321208,-0.03118940579271745,0.0,0.0,0.0,-1.031491641550299,-1.6237177825234683,-1.5710582629013785,0.002236227163998438,-0.0033355947072225673,-0.29097501095199774
6239,13.0,300.1271,13939.538999999999,0.0,-0.03119483753105967,-0.031194408002904406,0.0,0.0,0.0,-1.037312155424739,-1.6260984136334182,-1.5738611153279984,-0.0041146791627372165,-0.0027073707286216875,-0.29361343315238975
6240,13.0,300.03479,14024.456,0.0,-0.03119981902974056,-0.031199410213091583,0.0,0.0,0.0,-1.040008211290819,-1.6363306184432584,-1.5867455022745884,-0.0026944633408978276,-0.008856590737527452,-0.2968147563133357
6241,13.0,299.99342,14059.243999999999,0.0,-0.031204833518478803,-0.03120441242327876,0.0,0.0,0.0,-1.0454819909810389,-1.6413757933411786,-1.5868012310300883,-0.006077376422490354,-0.005146074646853026,-0.29559185463514476
6242,13.0,300.17109,14023.421999999999,0.0,-0.031209848007217378,-0.031209414633465715,0.0,0.0,0.0,-1.042758678687269,-1.6366373292485286,-1.5833741152168586,-0.004810029440587945,-0.0014586851791110185,-0.2911922517734377
6243,13.0,300.02295,13970.094,0.0,-0.031214829505898267,-0.03121441684365267,0.0,0.0,0.0,-1.041550073967989,-1.6338353887469985,-1.5711742800378286,0.003181865617950687,0.005852185235465714,-0.2944839568433037
6244,13.0,299.80924,13944.815,0.0,-0.03121984399463651,-0.031219419053839736,0.0,0.0,0.0,-1.0351564658369892,-1.6301237523056884,-1.5735955424767882,-9.417081480068581e-05,-0.0015760383871428784,-0.29154433591818574
6245,13.0,299.86961,13967.721000000001,0.0,-0.0312248254933174,-0.031224421264026914,0.0,0.0,0.0,-1.034993737870929,-1.6323783351031984,-1.5784663370324985,0.003127946729779307,0.0005858232008087485,-0.29392348768298976
6246,13.0,299.9801,13956.813,0.0,-0.031229839982055974,-0.03122942347421398,0.0,0.0,0.0,-1.026975484529589,-1.6343512343729085,-1.5811961341269085,-0.002094552001891188,-0.005450795327601615,-0.2973284234515307
6247,13.0,300.01928,13952.425,0.0,-0.031234821480736863,-0.031234425684401046,0.0,0.0,0.0,-1.030848835686859,-1.6351433933010884,-1.5751966802848087,0.0032716746352641473,0.0013986933764652887,-0.2996394848096147
6248,13.0,299.92376,13982.128,0.0,-0.031239835969475105,-0.031239427894588223,0.0,0.0,0.0,-1.031155445167119,-1.6371512496992484,-1.5819110833974683,0.0015593291837188085,-0.0016842112452937082,-0.3033683363701237
6249,13.0,299.9952,14004.663,0.0,-0.031244817468156216,-0.031244430104775178,0.0,0.0,0.0,-1.045510564633859,-1.6359693947826084,-1.5755880987984383,9.8430581042592e-05,0.0028510421960759574,-0.29854781928437574
6250,13.0,300.04777,14015.435,0.0,-0.03124983195689468,-0.031249432314962355,0.0,0.0,0.0,-1.042668195453339,-1.6339293170312685,-1.5837448634284483,-0.0019123508887843382,0.005383048615315535,-0.2975571849266077
6251,13.0,300.12697000000003,14019.845,0.0,-0.03125484644563303,-0.031254401615871896,0.0,0.0,0.0,-1.044039832113709,-1.6368436269688884,-1.5807994467127586,-0.001984185963898908,0.004886347134144915,-0.2957901882097187
6252,13.0,300.17587000000003,13993.63,0.0,-0.03125982794431392,-0.03125940382605885,0.0,0.0,0.0,-1.033111727135189,-1.6343128321941185,-1.5862896410545984,-0.003748786040326377,0.0008598135765619933,-0.3018122780590527
6253,13.0,300.06349,13980.444,0.0,-0.03126484243305239,-0.03126440603624603,0.0,0.0,0.0,-1.033940464391979,-1.6340627620694383,-1.5817025565268883,-0.003202348975347237,-0.003181550801144617,-0.29633252019324274
6254,13.0,300.02522,14017.667,0.0,-0.031269823931733054,-0.031269408246433206,0.0,0.0,0.0,-1.042367969448709,-1.6328762462023383,-1.5857766325289684,-0.004140555543791016,-0.0008278630651337231,-0.2945057011904497
6255,13.0,299.78317999999996,14023.001,0.0,-0.03127483842047163,-0.03127441045662016,0.0,0.0,0.0,-1.047892614293949,-1.6304662308394884,-1.5842834058565984,0.0019998293295427883,0.0012168867216223688,-0.2902828091461827
6256,13.0,299.66892,13996.313999999998,0.0,-0.03127981991915252,-0.03127941266680734,0.0,0.0,0.0,-1.0399894661639688,-1.6327183818367585,-1.5818221200386884,0.0018710508147083383,-0.0007303097266434584,-0.29114730399900174
6257,13.0,299.85931,14032.151000000002,0.0,-0.03128483440789076,-0.03128441487699429,0.0,0.0,0.0,-1.042721391083589,-1.6355953028456884,-1.5871067259352385,0.005954275755916265,0.004069097803013687,-0.2952456878709807
6258,13.0,299.86917,14101.563999999998,0.0,-0.03128981590657165,-0.03128941708718147,0.0,0.0,0.0,-1.049377836290529,-1.6428280847095085,-1.5943173176218686,-0.0017140431520878887,0.003069181770354657,-0.29155397192663673
6259,13.0,299.82473,14067.794,0.0,-0.031294830395310114,-0.031294419297368536,0.0,0.0,0.0,-1.046808740661979,-1.6422994721323383,-1.5871498903894985,0.0036448717710208366,0.003868048414196656,-0.3054676588548107
6260,13.0,300.04200000000003,14014.655,0.0,-0.03129984488404847,-0.03129942150755549,0.0,0.0,0.0,-1.038521469419089,-1.6387994023119086,-1.5827840996836287,-0.0035969109960874764,-0.006505655657533223,-0.2992353297422277
6261,13.0,300.16006,13990.178999999998,0.0,-0.031304826382729356,-0.03130442371774267,0.0,0.0,0.0,-1.041161188579609,-1.6341021774983284,-1.5774019178024485,0.0003261978338432197,-0.002994494598858607,-0.3007594200126437
6262,13.0,300.10546,13994.171999999999,0.0,-0.03130984087146782,-0.031309425927929624,0.0,0.0,0.0,-1.036181874938189,-1.6315360202950684,-1.5861608569668884,-0.003155757101298977,-0.005007647457941325,-0.2897598606370717
6263,13.0,300.19043,14025.957,0.0,-0.03131482237014893,-0.0313144281381168,0.0,0.0,0.0,-1.033302420804009,-1.6414810700265683,-1.5887572090231286,-0.0039039740070922362,-0.0025523223877196074,-0.2971401413179487
6264,13.0,299.85052,14045.003999999999,0.0,-0.031319836858887284,-0.03131943034830398,0.0,0.0,0.0,-1.033308601629619,-1.6428400410606885,-1.5931819708848185,0.00021227168082958378,-0.00026436642497843475,-0.3002318916130807
6265,13.0,299.99537999999995,14054.336000000001,0.0,-0.031324818357568174,-0.0313243996492133,0.0,0.0,0.0,-1.0397313913634991,-1.6449790120217882,-1.5874569051697984,0.0015657450833520086,0.0008379296035522132,-0.3028195803809657
6266,13.0,299.93276000000003,14044.99,0.0,-0.03132983284630664,-0.031329401859400474,0.0,0.0,0.0,-1.041448242332939,-1.6449437509183085,-1.5829342633484484,0.009370334376105002,0.003753959492686956,-0.3022658189363137
6267,13.0,299.74035,14011.998,0.0,-0.03133484733504488,-0.03133440406958765,0.0,0.0,0.0,-1.040054314170369,-1.6411229874412283,-1.5781203121233485,0.0012327545221633989,-0.002892815052648617,-0.2998506359979537
6268,13.0,299.8192,14016.687,0.0,-0.03133982883372588,-0.031339406279774606,0.0,0.0,0.0,-1.034368157259189,-1.6433291368839584,-1.5830256585074685,0.003702154953499246,-0.0019012609677648484,-0.3006663428584577
6269,13.0,300.06624,14047.936000000002,0.0,-0.031344843322464344,-0.031344408489961784,0.0,0.0,0.0,-1.039987540988779,-1.6434592381967985,-1.5867749878524986,-0.0016754723684812485,-0.004082478885159295,-0.2926763794599097
6270,13.0,299.9723,14066.493,0.0,-0.03134982482114501,-0.03134941070014874,0.0,0.0,0.0,-1.0452911959872089,-1.6411667598455484,-1.5894046758370286,0.0004517038852272026,-0.00021345605873897278,-0.29147740061657973
6271,13.0,300.02406,14094.68,0.0,-0.031354839309883475,-0.031354412910335916,0.0,0.0,0.0,-1.051651468189919,-1.6440100409511587,-1.5887691653743086,-0.004518962507586876,-0.004893295395380655,-0.2989928589932977
6272,13.0,299.86395,14110.098,0.0,-0.031359820808564365,-0.03135941512052309,0.0,0.0,0.0,-1.0522551625994991,-1.6455862528067182,-1.5912760474467182,-0.0013604303169140186,-0.003948615881323047,-0.2963213136471367
6273,13.0,299.90592000000004,14093.024,0.0,-0.03136483529730272,-0.03136441733071016,0.0,0.0,0.0,-1.049527189355269,-1.6449881312726882,-1.5894120725627587,0.0036977948369939363,-0.005387544000709194,-0.2963411733490967
6274,13.0,300.06635,14090.076000000001,0.0,-0.03136981679598361,-0.031369419540897114,0.0,0.0,0.0,-1.042971765183299,-1.6410614831601587,-1.5989980264588184,0.002910264333945727,0.0007632248015044232,-0.2906176376417277
6275,13.0,300.16759,14077.782,0.0,-0.03137483128472207,-0.03137442175108407,0.0,0.0,0.0,-1.0422558026626392,-1.6421550839930883,-1.5948834204527385,8.769853387892142e-05,0.001119106263122189,-0.2943756505401147
6276,13.0,300.02169,14012.825,0.0,-0.031379845773460424,-0.03137942396127125,0.0,0.0,0.0,-1.033479030296439,-1.6413319196118483,-1.5847379498514587,-0.004140023688813527,0.004036131913660207,-0.3025575741701077
6277,13.0,300.17726,14025.74,0.0,-0.031384827272141536,-0.031384426171458424,0.0,0.0,0.0,-1.041578140995759,-1.6448248966815786,-1.5770716995948586,-0.004475725605944726,0.004478823719450485,-0.3033662592074187
6278,13.0,300.26942,14090.42,0.0,-0.03138984176087978,-0.03138942838164538,0.0,0.0,0.0,-1.052048662229119,-1.6450145771002984,-1.5860725015581685,-0.0002303057290244058,-0.00036560466023987065,-0.3021312795880357
6279,13.0,300.02349,14091.862,0.0,-0.03139482325956089,-0.03139439768255514,0.0,0.0,0.0,-1.048045412409029,-1.6497876943463683,-1.5857409661254485,0.0020651501184394483,-0.001206902053811959,-0.3005624137957007
6280,13.0,300.00501,14094.548,0.0,-0.03139983774829913,-0.0313993998927421,0.0,0.0,0.0,-1.035928359763169,-1.6503102274229384,-1.5981519626253184,0.0019379823672889683,-0.0008114143784428644,-0.3022000488723227
6281,13.0,300.13977,14093.76,0.0,-0.03140481924698002,-0.03140440210292905,0.0,0.0,0.0,-1.036159684760999,-1.6515123473415785,-1.5964791880352285,0.0026504370161027674,-0.0017487227513354982,-0.2942573231934367
6282,13.0,300.08976,14091.371000000001,0.0,-0.031409833735718595,-0.03140940431311623,0.0,0.0,0.0,-1.040124228427269,-1.6471600328620384,-1.5961406611768183,0.00024355059995907275,0.0018398066399247784,-0.2996371138043807
6283,13.0,300.09132999999997,14102.261999999999,0.0,-0.03141481523439926,-0.031414406523303184,0.0,0.0,0.0,-1.0475294654581089,-1.6462842808006086,-1.5929216669341286,-0.0006536258850303523,0.001135494772889609,-0.2973237523685697
6284,13.0,300.01956,14071.875,0.0,-0.03141982972313773,-0.03141940873349036,0.0,0.0,0.0,-1.0457731990597792,-1.6452874453522284,-1.5864379808692384,-0.006668218362501914,0.0006363515008330034,-0.3092003303681967
6285,13.0,299.99271,14054.488000000001,0.0,-0.0314248442118763,-0.03142441094367754,0.0,0.0,0.0,-1.041339115297169,-1.6432387549750382,-1.5876356424874383,-0.004576750693915126,-0.0014558954989356988,-0.3018048914658237
6286,13.0,300.02306,14102.138,0.0,-0.03142982571055697,-0.031429413153864605,0.0,0.0,0.0,-1.043062755042279,-1.6466774218394085,-1.5969575434074383,-0.003843759897374566,-0.00017621088997316084,-0.2953166457754837
6287,13.0,299.96837999999997,14146.667,0.0,-0.03143484019929543,-0.03143441536405178,0.0,0.0,0.0,-1.0513381712589989,-1.6489997910686085,-1.5998956647224087,0.0016236930592210283,-0.001217626292870359,-0.2977185146075297
6288,13.0,299.78241,14159.211000000001,0.0,-0.03143982169797632,-0.03143941757423874,0.0,0.0,0.0,-1.050328974159399,-1.6511624720820484,-1.6025551422598785,-0.0012517011844582887,0.002191787939787628,-0.2931913030282287
6289,13.0,299.96054,14134.378999999999,0.0,-0.031444836186714675,-0.031444419784425914,0.0,0.0,0.0,-1.0546676097625889,-1.6481201886567984,-1.5937105834619885,0.004338022688204506,-0.0009424988073248902,-0.3003087365006647
6290,13.0,300.04957,14117.33,0.0,-0.031449817685395676,-0.03144942199461287,0.0,0.0,0.0,-1.051627454162549,-1.6446458553889085,-1.5950426020434485,-0.0006299281639440693,0.0014975686516985184,-0.2943296895155787
6291,13.0,299.99741,14151.883,0.0,-0.03145483217413403,-0.031454424204799825,0.0,0.0,0.0,-1.054525653423579,-1.6493363927518285,-1.5979569119810684,0.005385373821645016,-0.002658050577354167,-0.2988888894005367
6292,13.0,299.98464,14156.167,0.0,-0.03145984666287238,-0.031459426414987,0.0,0.0,0.0,-1.050019324928839,-1.6500629943985383,-1.6030388678576184,-0.0014606592942808486,-0.002183921572636278,-0.3000012657578197
6293,13.0,300.00344,14075.415,0.0,-0.03146482816155338,-0.03146439571589654,0.0,0.0,0.0,-1.041444695957589,-1.6449199395409586,-1.5922101627139087,-0.0034405862640344265,-0.005156732011404825,-0.2988739236965597
6294,13.0,300.09872,14051.831,0.0,-0.03146984265029196,-0.0314693979260835,0.0,0.0,0.0,-1.035316255377759,-1.6443087470806383,-1.5917808486465383,-0.006123493487541754,0.0009953377938046921,-0.3010340209222447
6295,13.0,300.04792000000003,14108.003999999999,0.0,-0.031474824148972846,-0.031474400136270675,0.0,0.0,0.0,-1.0481726766215889,-1.6526867042074784,-1.5876214569860385,0.0006101568275252904,-0.00011148981341318788,-0.3045366947954317
6296,13.0,299.98701,14165.617,0.0,-0.03147983863771109,-0.03147940234645774,0.0,0.0,0.0,-1.049400229117739,-1.6568069844141184,-1.5997865376866383,0.001145013446979029,-0.0011815929914891488,-0.3070404560575337
6297,13.0,299.94916,14138.937,0.0,-0.03148482013639198,-0.03148440455664492,0.0,0.0,0.0,-1.045743612156859,-1.6535334773160484,-1.5986068105952085,0.005174129920921865,-0.0029154928057867372,-0.3000816671532547
6298,13.0,299.86606,14119.618,0.0,-0.03148983462513044,-0.031489406766831984,0.0,0.0,0.0,-1.036298297374679,-1.6527002817588183,-1.6030128273300484,0.005229490258685505,0.005600305446107115,-0.29699734398135574
6299,13.0,299.74938,14144.247,0.0,-0.03149481612381122,-0.03149440897701905,0.0,0.0,0.0,-1.0444978211589089,-1.6531513807033382,-1.6018486029651484,0.002874989551589377,-0.000951782772161146,-0.2922472680425597
6300,13.0,299.95157,14182.073,0.0,-0.031499830612549684,-0.03149941118720623,0.0,0.0,0.0,-1.049910197893069,-1.6594987846297786,-1.6015871844393483,-0.003085884590303097,-0.0014318412455367286,-0.2980499588477407
6301,13.0,299.94304,14165.665,0.0,-0.03150484510128815,-0.03150441339739318,0.0,0.0,0.0,-1.057184928311029,-1.6521252623270684,-1.5966981513818383,-0.0038216562517431065,-0.0035842995787178263,-0.2971251553489697
6302,13.0,300.03134,14143.535,0.0,-0.031509826599968926,-0.03150941560758036,0.0,0.0,0.0,-1.050487243825019,-1.6520881773734084,-1.5967060547326184,-0.0011423246865136687,0.003707353230487277,-0.2972961615683467
6303,13.0,300.02168,14168.15,0.0,-0.03151484108870739,-0.03151441781776754,0.0,0.0,0.0,-1.0558287943771891,-1.6541527757771683,-1.5967822511401384,-0.0035587629404225567,-0.004139401350602106,-0.30452706891948167
6304,13.0,300.06692999999996,14182.321000000002,0.0,-0.03151982258738828,-0.03151942002795449,0.0,0.0,0.0,-1.0509072359914688,-1.6572069142285883,-1.6029575038745885,0.0008433486272070291,-0.0012304826127891787,-0.30150900217162174
6305,13.0,300.10311,14191.49,0.0,-0.03152483707612663,-0.03152442223814145,0.0,0.0,0.0,-1.054886573109199,-1.6565981535685084,-1.6023738718169884,-0.003320377311920727,-0.002744397927025987,-0.3018493427477107
6306,13.0,300.15803,14184.566,0.0,-0.03152981857480763,-0.031529424448328514,0.0,0.0,0.0,-1.0529429567673791,-1.6560270858121484,-1.6027838328074486,0.005060237975231605,0.007994479150268663,-0.29801258005155173
6307,13.0,300.04461000000003,14139.628999999999,0.0,-0.03153483306354621,-0.03153442665851569,0.0,0.0,0.0,-1.0541669628881791,-1.6527264236113983,-1.5912009656143085,-0.004833985104752185,-0.003124688421432737,-0.3039559302356147
6308,13.0,300.25095,14160.753,0.0,-0.0315398145622271,-0.03153939595942534,0.0,0.0,0.0,-1.052416775990449,-1.6555685901418984,-1.5965300531902484,0.0008233104108444112,-0.002442703824326098,-0.30462649915179474
6309,13.0,299.95491,14183.41,0.0,-0.03154482905096534,-0.0315443981696123,0.0,0.0,0.0,-1.050064414558289,-1.6561520195494785,-1.6051859448195185,-0.0016605213566306986,-0.007164244715130903,-0.2964077844106707
6310,13.0,299.97508999999997,14149.813,0.0,-0.031549843539703804,-0.031549400379799364,0.0,0.0,0.0,-1.0449237915009488,-1.6561462440239085,-1.6001198969695385,0.007673085641774592,0.0044048054956704556,-0.3008855899150957
6311,13.0,299.91835,14144.507,0.0,-0.03155482503838469,-0.03155440258998654,0.0,0.0,0.0,-1.0421906506812089,-1.6570949500925383,-1.6002913388864586,0.002001372914745128,0.002105349194956788,-0.29542422253860073
6312,13.0,299.89522999999997,14148.534,0.0,-0.031559839527123046,-0.031559404800173496,0.0,0.0,0.0,-1.047588639263949,-1.6602474751286682,-1.5929648313883884,0.00045174160852842554,0.004359188064243366,-0.3069286337764977
6313,13.0,299.87908,14193.1,0.0,-0.031564821025803935,-0.03156440701036067,0.0,0.0,0.0,-1.0569234084602188,-1.6592174050770085,-1.5982072860807786,-0.0025715488083671075,0.004289333082474215,-0.2992429291179777
6314,13.0,300.02404,14227.979,0.0,-0.0315698355145424,-0.03156940922054763,0.0,0.0,0.0,-1.056771116970189,-1.6596484416695485,-1.6085306833996185,0.0017729610109526281,0.005175865415693145,-0.3090023615636587
6315,13.0,299.80126,14187.206,0.0,-0.03157481701322318,-0.031574411430734806,0.0,0.0,0.0,-1.052335108032389,-1.6563619649701984,-1.6038591951385786,0.001782258796520248,-0.005550746877091064,-0.3011371393849217
6316,13.0,300.10022999999995,14157.358,0.0,-0.03157983150196164,-0.03157941364092198,0.0,0.0,0.0,-1.042402723927139,-1.6577851760606586,-1.6032955241079485,-0.003396259105284677,-0.008345339491545882,-0.3031477112933497
6317,13.0,300.14299,14164.902,0.0,-0.031584845990700106,-0.03158441585110894,0.0,0.0,0.0,-1.047644469344459,-1.6522073355851683,-1.6059246041424184,-0.002805472083428537,-0.0013234080834352087,-0.29400033257057373
6318,13.0,300.12127000000004,14198.508999999998,0.0,-0.03158982748938077,-0.031589418061296115,0.0,0.0,0.0,-1.054406089911779,-1.6608003043832285,-1.6007858049352586,0.0008400032401468653,0.008103516614729822,-0.2996849392091007
6319,13.0,299.97638,14245.523000000001,0.0,-0.03159484197811935,-0.03159442027148307,0.0,0.0,0.0,-1.064105325169019,-1.6594618010011286,-1.6067161551205382,0.0024786220204959476,0.0009536037244458601,-0.29731567676527276
6320,13.0,300.02812,14210.079,0.0,-0.03159982347680024,-0.03159942248167025,0.0,0.0,0.0,-1.054192902090739,-1.6629167811921084,-1.6023996083695287,0.0022052686244180683,-0.0006920632945263294,-0.3067865355824737
6321,13.0,300.09015,14174.627,0.0,-0.0316048379655387,-0.031604424691857314,0.0,0.0,0.0,-1.049836129310759,-1.6546497749512183,-1.6042468646268384,0.0036350523643017365,-0.003457503386379017,-0.2967556534350027
6322,13.0,300.01771,14220.812,0.0,-0.03160981946421959,-0.03160939399276674,0.0,0.0,0.0,-1.050395848665999,-1.6614810058004086,-1.6108950011829586,0.0037711300288815566,-0.0039061956592614964,-0.30197593821520474
6323,13.0,299.98498,14262.303,0.0,-0.031614833952958055,-0.03161439620295392,0.0,0.0,0.0,-1.055857773330049,-1.6644294622663984,-1.6150968480226484,-0.0030418384058060774,-0.005495274777841395,-0.3001791722103777
6324,13.0,300.18807999999996,14227.532,0.0,-0.031619815451638944,-0.03161939841314099,0.0,0.0,0.0,-1.059181031008029,-1.6573378261415086,-1.6082957107014284,-0.003634469137544176,-0.0027770625771247376,-0.3055445645374007
6325,13.0,300.24361,14161.493999999999,0.0,-0.0316248299403773,-0.03162440062332794,0.0,0.0,0.0,-1.051683588218089,-1.6554197437022085,-1.5976373328995286,-0.003977357632334636,0.004304940781714576,-0.3018295134432537
6326,13.0,300.17068,14170.011999999999,0.0,-0.03162984442911576,-0.03162940283351512,0.0,0.0,0.0,-1.049412286793929,-1.6556464077495785,-1.6022711282568485,-0.0024890523157003377,0.005158412081395635,-0.30547165106020474
6327,13.0,299.76809,14246.945,0.0,-0.03163482592779665,-0.031634405043702074,0.0,0.0,0.0,-1.060696447857589,-1.6575355112360184,-1.6124835746897384,0.0007172510302821654,-0.0016948772224713582,-0.2997881083342827
6328,13.0,299.8344,14275.573999999999,0.0,-0.031639840416535,-0.03163940725388925,0.0,0.0,0.0,-1.055096417204909,-1.6710817531479285,-1.6132399658893883,0.0019058171481645082,-0.0014569261769374186,-0.3059470984046277
6329,13.0,299.97591,14212.7,0.0,-0.03164482191521589,-0.03164440946407643,0.0,0.0,0.0,-1.0555052636202589,-1.6605985662883183,-1.6042019776474086,0.004794911546445926,0.004729821879897076,-0.2967237461893537
6330,13.0,299.93172999999996,14197.04,0.0,-0.03164983640395436,-0.031649411674263384,0.0,0.0,0.0,-1.049274079480289,-1.6639996415739786,-1.6022720401819384,-0.0009310434576568351,0.0020934712693345277,-0.30556771730218574
6331,13.0,299.99699,14258.783000000001,0.0,-0.031654817902635024,-0.03165441388445056,0.0,0.0,0.0,-1.063305364215069,-1.6648869446865482,-1.6061217826118785,-0.008651749260211172,-0.002661568379051347,-0.30275899815748675
6332,13.0,300.0594,14269.363000000001,0.0,-0.0316598323913736,-0.031659416094637516,0.0,0.0,0.0,-1.056232067916989,-1.6704820104137383,-1.6108158663501484,-0.006036512653907415,-0.006371797821272484,-0.3034522132134017
6333,13.0,300.24127000000004,14208.921999999999,0.0,-0.03166481389005449,-0.03166441830482469,0.0,0.0,0.0,-1.054026121124279,-1.6600771477868586,-1.6050541209815086,0.0021449955435445776,0.00016086662562629983,-0.2951792895919277
6334,13.0,300.40466000000004,14191.476,0.0,-0.03166982837879295,-0.03166942051501187,0.0,0.0,0.0,-1.0427325368346891,-1.6616311694652286,-1.6094906365443586,0.006057266751730683,0.0029702154039374373,-0.2997000062380877
6335,13.0,300.23054,14236.015,0.0,-0.031674842867531194,-0.031674422725198936,0.0,0.0,0.0,-1.061389206950959,-1.6579125415982285,-1.6080914394812684,-0.0009304805870937842,-0.002779832498923107,-0.2960322739236107
6336,13.0,300.07126,14317.456,0.0,-0.031679824366212306,-0.031679392026108366,0.0,0.0,0.0,-1.064347187967889,-1.6734584325824884,-1.6143436992233184,0.0005435919194933455,-0.0014937691664735386,-0.30297338161364473
6337,13.0,300.04225,14322.677,0.0,-0.03168483885495066,-0.03168439423629554,0.0,0.0,0.0,-1.067986073052019,-1.6691988304870984,-1.6165511658911784,0.0005907027701103244,0.0029757155281302573,-0.3001612782136117
6338,13.0,299.83917,14232.005,0.0,-0.03168982035363155,-0.03168939644648261,0.0,0.0,0.0,-1.052127999711949,-1.6686221898551885,-1.6054239572680087,0.0013104236887037488,0.0004204626083389286,-0.3045814399198477
6339,13.0,299.80341,14205.585,0.0,-0.03169483484237001,-0.03169439865666979,0.0,0.0,0.0,-1.049700759097399,-1.6645260250009284,-1.6039162411192085,-0.008564457358796131,-0.004447334135492706,-0.3048687368532017
6340,13.0,299.95632,14255.063999999998,0.0,-0.0316998163410509,-0.03169940086685674,0.0,0.0,0.0,-1.055669916761509,-1.6676761182368185,-1.6098375733785986,-9.74814027994154e-05,-0.0005971609932002015,-0.3049284476815947
6341,13.0,300.15171000000004,14267.388,0.0,-0.031704830829789254,-0.0317044030770437,0.0,0.0,0.0,-1.0634626206305888,-1.6651061106831784,-1.6083607613578486,-0.0003422257279000497,0.007047835450892203,-0.2995811520013577
6342,13.0,300.13709,14215.452,0.0,-0.03170984531852772,-0.031709405287230874,0.0,0.0,0.0,-1.0544499636411089,-1.6655184021488683,-1.6011741836985884,0.005319924046010625,0.0061899735358778235,-0.3055657921269957
6343,13.0,300.13875,14197.841999999999,0.0,-0.03171482681720861,-0.03171440749741783,0.0,0.0,0.0,-1.048799979758499,-1.6633197507568787,-1.6036697173698786,-0.004252766304915356,-0.005446120799590275,-0.30491480933524867
6344,13.0,300.20291000000003,14278.617,0.0,-0.03171984130594696,-0.031719409707605006,0.0,0.0,0.0,-1.059652597604569,-1.6713803579523985,-1.6093101767015485,0.004925984667456836,-0.002996552611136717,-0.3074210834575987
6345,13.0,299.9905,14350.773000000001,0.0,-0.03172482280462785,-0.03172441191779207,0.0,0.0,0.0,-1.065919144173029,-1.6727019400578282,-1.6236556702923384,0.006251577419432655,0.000995869000302118,-0.2987463960389737
6346,13.0,299.71936,14310.534,0.0,-0.031729837293366314,-0.03172941412797914,0.0,0.0,0.0,-1.061541093140949,-1.6735919789456684,-1.6149121325294185,0.009857349490294652,-0.004345374222980046,-0.30545359494342267
6347,13.0,299.78521,14242.433,0.0,-0.031734818792047204,-0.031734416338166316,0.0,0.0,0.0,-1.056111187180059,-1.6661130786325586,-1.6071197326353686,-0.007879240189895461,-0.007511388657691343,-0.2976803049462587
6348,13.0,299.86768,14214.117,0.0,-0.031739833280785446,-0.03173941854835338,0.0,0.0,0.0,-1.0535318577254988,-1.6623695248130985,-1.6048352589599086,-0.004331459360681756,-0.004268027067321475,-0.3075062977910087
6349,13.0,300.0156,14313.765,0.0,-0.03174481477946656,-0.03174442075854056,0.0,0.0,0.0,-1.064795753787159,-1.6725026337631588,-1.6137287577376285,-0.006243790389764134,0.005444890106018814,-0.3017892468842797
6350,13.0,300.00498,14356.636999999999,0.0,-0.03174982926820491,-0.031749422968727514,0.0,0.0,0.0,-1.0682461743526888,-1.6704046994311086,-1.6254083903153185,0.004444348188773015,0.0025194086807462774,-0.3062261474821677
6351,13.0,300.13937999999996,14271.763,0.0,-0.03175484375694315,-0.031754392269637055,0.0,0.0,0.0,-1.056183127937159,-1.6689544345629783,-1.6131221249027585,-0.002056790399814408,0.002104237152972038,-0.3023370909483477
6352,13.0,300.03619,14220.541000000001,0.0,-0.03175982525562426,-0.03175939447982423,0.0,0.0,0.0,-1.051562302181119,-1.6661789398890587,-1.6049481350210484,0.0005330365790941144,0.001020363318352019,-0.3035040814860207
6353,13.0,300.13381,14305.962,0.0,-0.031764839744362616,-0.03176439669001119,0.0,0.0,0.0,-1.067276088706949,-1.6670064612457285,-1.6143726781761785,-0.0002110746879564498,0.007715244242660322,-0.2970195645560487
6354,13.0,299.82268,14384.216,0.0,-0.031769821243043506,-0.031769398900198365,0.0,0.0,0.0,-1.069973664448179,-1.6802183306246383,-1.6222504950536587,0.0020024496956263984,-0.003440073559483827,-0.3013295150489077
6355,13.0,299.86863,14354.615,0.0,-0.03177483573178197,-0.03177440111038532,0.0,0.0,0.0,-1.065961396702199,-1.6766179490443085,-1.6208652808419484,-0.0014886734303956287,-0.006626266261986562,-0.3051216035481577
6356,13.0,299.86499,14271.131000000001,0.0,-0.03177981723046286,-0.031779403320572275,0.0,0.0,0.0,-1.052456191419339,-1.6691434057066286,-1.6164679780579683,-0.002334272790049788,-0.01040716169135689,-0.3064953579012367
6357,13.0,300.12872000000004,14264.781,0.0,-0.0317848317192011,-0.03178440553075945,0.0,0.0,0.0,-1.051676090167349,-1.6720299525915086,-1.6124312909845786,0.0025028850034155177,0.0012385113026065488,-0.3079699711692697
6358,13.0,300.04232,14300.961000000001,0.0,-0.0317898132178821,-0.03178940774094652,0.0,0.0,0.0,-1.061054733092949,-1.6669969366947883,-1.6190834805410985,-0.0016996047434629281,0.00025592546396037674,-0.3016301970160827
6359,13.0,299.90717,14350.378,0.0,-0.031794827706620565,-0.031794409951133695,0.0,0.0,0.0,-1.069113617763299,-1.6780298117336485,-1.6150133562144084,0.0024803504225165275,0.0007769435695108601,-0.3053727983804487
6360,13.0,299.87245,14297.042,0.0,-0.03179984219535881,-0.03179941216132076,0.0,0.0,0.0,-1.058269308568049,-1.6662110599172286,-1.6214633010509685,0.002715181468342547,-0.0003338075042142357,-0.30080192585433874
6361,13.0,300.04242,14200.411,0.0,-0.0318048236940397,-0.03180441437150783,0.0,0.0,0.0,-1.050200291396699,-1.6618883323406086,-1.6044817360000185,0.0038708478215729366,0.007911328807312363,-0.30876234287997073
6362,13.0,300.02252000000004,14272.405,0.0,-0.03180983818277827,-0.031809416581695005,0.0,0.0,0.0,-1.053094437657329,-1.6715568661198184,-1.6138035355950084,-0.005633287750112214,-0.00024996036942916773,-0.3074999649778837
6363,13.0,299.91465,14409.378,0.0,-0.03181481968145916,-0.03181441879188196,0.0,0.0,0.0,-1.0760270231955988,-1.6801069744386485,-1.6239572135220983,-0.002086513787522878,-0.0030791051365340175,-0.30775855653590467
6364,13.0,299.74101,14375.372,0.0,-0.0318198341701974,-0.03181942100206914,0.0,0.0,0.0,-1.0727382160210188,-1.6772987517864986,-1.6197171671536383,-0.006511253053735644,-0.0014439753207842686,-0.3004496086620677
6365,13.0,299.74781,14312.232,0.0,-0.031824815668878514,-0.03182439030297868,0.0,0.0,0.0,-1.0656790038993291,-1.6740366944145586,-1.6108456559030884,0.001994325152349568,0.007981184802331613,-0.30285966455492175
6366,13.0,299.77738,14324.515,0.0,-0.03182983015761687,-0.03182939251316563,0.0,0.0,0.0,-1.060985629436129,-1.6716111763251784,-1.6216981724241486,-0.005716686541993035,-0.002448028757576628,-0.2976755122732857
6367,13.0,299.82777999999996,14379.393,0.0,-0.03183484464635533,-0.03183439472335281,0.0,0.0,0.0,-1.0676430878931689,-1.6786498194698385,-1.6246835111937785,0.0013175278891298789,-0.0014428293349211688,-0.3013357262720207
6368,13.0,299.88344,14396.183,0.0,-0.03183982614503622,-0.03183939693353999,0.0,0.0,0.0,-1.065847608715969,-1.6795976136133783,-1.6306348356561287,0.003748608316258837,-0.006064522939671814,-0.3013114893296287
6369,13.0,299.87102999999996,14314.726999999999,0.0,-0.03184484063377446,-0.03184439914372694,0.0,0.0,0.0,-1.062076291843769,-1.6701162271276384,-1.6191271516204087,0.006462615225085463,0.0059389980722334736,-0.3069100406371627
6370,13.0,299.95076,14273.858999999999,0.0,-0.03184982213245535,-0.03184940135391412,0.0,0.0,0.0,-1.052503307548989,-1.6731482767268786,-1.6132453361149184,-0.0009555913361070221,-0.0016698287680742684,-0.3065553727046597
6371,13.0,300.26484,14318.021,0.0,-0.03185483662119393,-0.031854403564101075,0.0,0.0,0.0,-1.062296065790459,-1.6748529686951183,-1.6151717272050383,-0.0032734151962859268,-0.002174060521338068,-0.3104305274471077
6372,13.0,300.13743,14397.719,0.0,-0.031859818119874816,-0.03185940577428814,0.0,0.0,0.0,-1.0639792768565792,-1.6853730378583685,-1.6271946489166085,-0.0026278614998997375,0.00045076227190927256,-0.3029630464626247
6373,13.0,300.02058,14391.006000000001,0.0,-0.03186483260861306,-0.03186440798447532,0.0,0.0,0.0,-1.0641759487009887,-1.6829841994226087,-1.6273462311315683,0.0006631970150774493,0.00869533360531261,-0.30670519186444567
6374,13.0,300.17426,14341.392,0.0,-0.03186981410729395,-0.03186941019466227,0.0,0.0,0.0,-1.059010095716159,-1.6784449402996184,-1.6219701287509882,0.0024792573283086475,0.0025626862137174376,-0.3036834672837247
6375,13.0,299.83106000000004,14339.835,0.0,-0.03187482859603252,-0.03187441240484945,0.0,0.0,0.0,-1.0639363150523389,-1.6795579955344684,-1.6154574637332384,-0.0018239751137373282,0.0002953579053195557,-0.3069233952734807
6376,13.0,299.93782999999996,14417.743,0.0,-0.031879843084770765,-0.031879414615036406,0.0,0.0,0.0,-1.073824420128219,-1.6795294218816486,-1.6292801202724285,0.004331925658377775,0.005570301286795934,-0.2988503656317347
6377,13.0,299.98965,14416.126,0.0,-0.031884824583451654,-0.03188441682522358,0.0,0.0,0.0,-1.073806688251469,-1.6821406687143585,-1.6261949763679484,0.003073943640524617,0.006617537720325123,-0.3033741828232007
6378,13.0,299.75539,14330.348,0.0,-0.03188983907219012,-0.03188941903541076,0.0,0.0,0.0,-1.060826447845419,-1.6745186974871284,-1.6207228178778883,0.0004483705051807236,-0.0019263934205952286,-0.2998896765243067
6379,13.0,299.85517999999996,14323.483,0.0,-0.03189482057087101,-0.03189438833632008,0.0,0.0,0.0,-1.061229924035239,-1.6726622206539083,-1.6200889286153286,-0.009398274342312461,-0.008499202025855931,-0.3066455114335557
6380,13.0,300.20061,14363.926000000001,0.0,-0.03189983505960958,-0.031899390546507256,0.0,0.0,0.0,-1.064537881636709,-1.674505119935788,-1.6272318351952784,-0.0037193511249213767,-0.006798869566171183,-0.3052141639447927
6381,13.0,299.87996,14361.376,0.0,-0.03190481655829047,-0.03190439275669443,0.0,0.0,0.0,-1.065746283705969,-1.6774478008762084,-1.6223056158590985,0.0028238476779670675,0.0026241742827858377,-0.3108055414416187
6382,13.0,300.08006,14389.271999999999,0.0,-0.031909831047028714,-0.03190939496688139,0.0,0.0,0.0,-1.0720877094568189,-1.6749614877808283,-1.6269300893154983,0.0036475797832380965,0.004216761171886926,-0.3082551098799107
6383,13.0,299.9037,14386.145,0.0,-0.0319148125457096,-0.031914397177068565,0.0,0.0,0.0,-1.071337499082779,-1.6806950647966883,-1.6209961927548684,0.002332764364625918,0.0032337861742748465,-0.3074310639710837
6384,13.0,299.98125,14372.248,0.0,-0.03191982703444818,-0.03191939938725552,0.0,0.0,0.0,-1.068154779193669,-1.6794276915716084,-1.6212220462021585,0.0007408731527784873,0.006551567032814323,-0.30539969003810274
6385,13.0,300.30381,14447.851,0.0,-0.03192484152318642,-0.0319244015974427,0.0,0.0,0.0,-1.071851824833539,-1.6892043391364882,-1.6307296758654883,-0.000984860858698199,0.005215249535155055,-0.3022299802802767
6386,13.0,300.23939,14475.265,0.0,-0.03192982302186731,-0.031929403807629764,0.0,0.0,0.0,-1.069537865580169,-1.6924367082804983,-1.6381444374472682,0.0008672332118767542,-0.0032138372049810367,-0.3042269442398617
6387,13.0,300.13619,14380.862,0.0,-0.031934837510605774,-0.03193440601781672,0.0,0.0,0.0,-1.0636414592732388,-1.6799132410195285,-1.6278683589080984,-0.004342491931745586,-0.004064720765231706,-0.30873319167459373
6388,13.0,300.25335,14342.338,0.0,-0.03193981900928666,-0.031939408228003896,0.0,0.0,0.0,-1.059822519646339,-1.6823198113320381,-1.6175703941667685,-0.0021382584436296782,-0.003592445501571767,-0.3097634238462697
6389,13.0,300.2093,14345.627,0.0,-0.031944833498025016,-0.03194441043819085,0.0,0.0,0.0,-1.065702106001609,-1.6727145043590683,-1.6222957873331285,0.0013306245519724188,0.001020631525653489,-0.3089664013176097
6390,13.0,300.17812999999995,14376.133999999998,0.0,-0.031949814996705905,-0.03194941264837803,0.0,0.0,0.0,-1.0644084895989387,-1.6825417131039384,-1.6230356625561484,0.00037438374281629865,0.000889064414821326,-0.3056957009223167
6391,13.0,299.94043,14393.556,0.0,-0.03195482948544437,-0.031954414858565205,0.0,0.0,0.0,-1.0667347091785189,-1.6824109025160283,-1.6261359038871184,0.0027511369521160778,-0.003165416110527247,-0.3089800092664527
6392,13.0,299.95009,14422.288999999999,0.0,-0.03195984397418272,-0.03195941706875216,0.0,0.0,0.0,-1.0664382321992592,-1.6840570286284882,-1.6335202679658984,0.0018642146189336581,0.004223920189143466,-0.3046771008617887
6393,13.0,299.97265,14438.696000000002,0.0,-0.031964825472863834,-0.0319643863696617,0.0,0.0,0.0,-1.068883508665589,-1.6919828735607083,-1.6281365662095686,0.0011221824904257887,0.006430382523504343,-0.31100359130616473
6394,13.0,300.04163,14461.178999999998,0.0,-0.031969839961602076,-0.03196938857984888,0.0,0.0,0.0,-1.075288161222679,-1.6883040664226383,-1.6322449913900383,-0.004274129973998786,0.000995556564633783,-0.30044414724402874
6395,13.0,299.94082000000003,14484.848999999998,0.0,-0.031974821460282965,-0.031974390790035834,0.0,0.0,0.0,-1.084660623322669,-1.6911200911005584,-1.6272516948972382,0.0004931633942064375,0.00047488239669724367,-0.30474918347390273
6396,13.0,300.21263999999996,14409.143,0.0,-0.03197983594902143,-0.03197939300022301,0.0,0.0,0.0,-1.0759319803362188,-1.6781735919228384,-1.6259141034402285,-0.0009506069359501,0.0018425557900960982,-0.29672713044468774
6397,13.0,300.23174,14337.097,0.0,-0.03198481744770243,-0.031984395210409966,0.0,0.0,0.0,-1.057307126273089,-1.6797531475037284,-1.6210592169110882,0.0017504287605288682,0.005083211192098885,-0.30638654497299767
6398,13.0,300.28052,14361.073999999999,0.0,-0.03198983193644067,-0.03198939742059714,0.0,0.0,0.0,-1.057178646160409,-1.6784035996955384,-1.6298256541262686,-0.006330807599077063,-0.0032452691350081265,-0.3081997458944467
6399,13.0,300.09182000000004,14425.546,0.0,-0.03199481343512156,-0.03199439963078432,0.0,0.0,0.0,-1.064828887065429,-1.6851045265818683,-1.6350721618190585,0.007419215829219592,-0.006374768771890693,-0.3142089877325127
6400,13.0,300.15999,14412.582,0.0,-0.031999827923860025,-0.031999401840971387,0.0,0.0,0.0,-1.0678968057182092,-1.6846553528125385,-1.6285130899467286,0.0012414700942235588,0.0014469645099042788,-0.3123343433249997
6401,13.0,300.06027,14397.421,0.0,-0.03200484241259838,-0.03200440405115834,0.0,0.0,0.0,-1.071124209936729,-1.6829056725398586,-1.6224266992460483,0.0060378284604872745,0.0021216028411358977,-0.31019814866917367
6402,13.0,300.01802000000004,14443.061000000002,0.0,-0.03200982391127927,-0.03200940626134552,0.0,0.0,0.0,-1.072973087394199,-1.6836807075413482,-1.6336760045062684,-0.006220813525196494,-0.003719136923850237,-0.3022995905621467
6403,13.0,299.96211,14482.148000000001,0.0,-0.03201483840001773,-0.032014408471532474,0.0,0.0,0.0,-1.073859174606649,-1.6910416655428182,-1.6373105326149684,-0.0016475051458460987,-0.0031483079905388067,-0.3059633509362317
6404,13.0,299.96702,14527.65,0.0,-0.03201981989869862,-0.03201941068171965,0.0,0.0,0.0,-1.076512471318509,-1.6959208700743584,-1.6436094018616185,0.0023680498874333275,0.006213461585120914,-0.2983497086248237
6405,13.0,300.04591,14481.935,0.0,-0.03202483438743697,-0.032024412891906606,0.0,0.0,0.0,-1.078267015191669,-1.6881234039298083,-1.6357564096115884,0.0057305393933852035,0.0037995717565385357,-0.3054367648592617
6406,13.0,300.06251000000003,14430.089,0.0,-0.032029815886118085,-0.03202941510209378,0.0,0.0,0.0,-1.068005932753979,-1.6911334660018786,-1.6272474392468184,0.005068497584746765,-0.002176678962246488,-0.3024110987356517
6407,13.0,299.91763,14421.745,0.0,-0.03203483037485633,-0.03203441731228085,0.0,0.0,0.0,-1.075956804963669,-1.6816938254202585,-1.6261998399684285,0.0001284200370815709,-0.009129146908426651,-0.30890996328703973
6408,13.0,300.02462,14484.104,0.0,-0.032039811873537216,-0.03203938661319028,0.0,0.0,0.0,-1.077921800882599,-1.6903266149472482,-1.6345576334182785,0.0030314711347579066,0.002100005921879448,-0.30752968360331673
6409,13.0,299.94507000000004,14420.553999999998,0.0,-0.03204482636227568,-0.03204438882337746,0.0,0.0,0.0,-1.0639976166833889,-1.6849380495904382,-1.6345526684927882,-0.001011565926346284,0.00022036919059374577,-0.3124762793990077
6410,13.0,299.79442,14384.382,0.0,-0.03204984085101403,-0.03204939103356452,0.0,0.0,0.0,-1.053525879549909,-1.6860513074753087,-1.6329157629562385,-0.006838545602986903,0.003689507059125996,-0.3092339601390157
6411,13.0,299.84126000000003,14457.521999999999,0.0,-0.03205482234969492,-0.03205439324375159,0.0,0.0,0.0,-1.065244522256449,-1.6942078694552982,-1.6352732919639086,-0.006829439524338203,-0.003430297519869007,-0.31247361455124467
6412,13.0,299.91972999999996,14502.858,0.0,-0.032059836838433386,-0.032059395453938766,0.0,0.0,0.0,-1.076772673944189,-1.6908403327479482,-1.6408937902686085,0.002220141717335928,0.0016215371669832585,-0.3014148104423257
6413,13.0,300.04575,14504.21,0.0,-0.032064818337114276,-0.03206439766412583,0.0,0.0,0.0,-1.079211161634849,-1.6969062557966084,-1.6328003537698486,0.002199260659275128,-0.0004202578304937186,-0.3049833050420087
6414,13.0,300.19969,14501.493,0.0,-0.03206983282585263,-0.03206939987431301,0.0,0.0,0.0,-1.082544754463849,-1.6908499586238983,-1.6346972592820586,0.0035291844474783867,-0.0011461736183435288,-0.3024888859458287
6415,13.0,300.09362999999996,14512.258999999998,0.0,-0.03207481432453352,-0.032074402084499964,0.0,0.0,0.0,-1.0780181609671091,-1.6951945724026785,-1.6381516315229785,-0.0013742475019026688,-0.004603528867557926,-0.3064538045146357
6416,13.0,300.1739,14503.605,0.0,-0.03207982881327198,-0.03207940429468714,0.0,0.0,0.0,-1.075874022430499,-1.6979685472014485,-1.6348911953511984,0.003231833641332147,0.006165750778987224,-0.3131399582145077
6417,13.0,300.02758,14493.966,0.0,-0.032084843302010335,-0.0320844065048741,0.0,0.0,0.0,-1.0710923938835888,-1.6933832865239185,-1.6413282719114883,-0.00046125677677249957,0.0014622139239092785,-0.3134975037772947
6418,13.0,299.71668,14413.669,0.0,-0.032089824800691225,-0.03208940871506105,0.0,0.0,0.0,-1.0673466109139091,-1.6872030688639785,-1.6268457869071786,-0.0013867811016646389,0.0009102827027804082,-0.3151070920911487
6419,13.0,299.70369,14375.223999999998,0.0,-0.03209483928942969,-0.03209441092524823,0.0,0.0,0.0,-1.0611908125813792,-1.6842542070979483,-1.6242641269773883,-0.006733383414858204,-0.005968495707819665,-0.3092377598268907
6420,13.0,300.05305,14468.381000000001,0.0,-0.03209982078811058,-0.032099413135435295,0.0,0.0,0.0,-1.075793773022579,-1.6879230843850386,-1.6343096911188086,-0.003515108681064216,0.003126892544375267,-0.3106986536885697
6421,13.0,299.91098999999997,14542.798999999999,0.0,-0.03210483527684893,-0.03210441534562247,0.0,0.0,0.0,-1.079532969866609,-1.6985346500323184,-1.6425801424100384,-0.006700599505222683,-0.0022965743134542374,-0.3055778802006887
6422,13.0,300.23082,14521.875,0.0,-0.03210981677552993,-0.0321093846465319,0.0,0.0,0.0,-1.0762754721201189,-1.6950495763133684,-1.6429623403477587,-0.0015727446150428084,0.0015114462263931287,-0.3096288237029857
6423,13.0,300.09515,14522.258,0.0,-0.032114831264268284,-0.03211438685671897,0.0,0.0,0.0,-1.0716393462875689,-1.6973370897391284,-1.6454272738660285,-0.001962794937062778,0.0013488732875984286,-0.30244318836631867
6424,13.0,300.28456,14577.473999999998,0.0,-0.032119812762949174,-0.032119389066906145,0.0,0.0,0.0,-1.0885420804807389,-1.7009044393661983,-1.6417415766272785,0.0012199478514994787,0.007619575903993593,-0.30487684285400174
6425,13.0,300.25397999999996,14568.947,0.0,-0.03212482725168764,-0.03212439127709332,0.0,0.0,0.0,-1.0859333667732791,-1.6985096227548484,-1.6441532131902883,0.0018964327297133381,0.0024488112906288577,-0.2986758333020097
6426,13.0,300.0413,14484.091,0.0,-0.0321298417404261,-0.03212939348728028,0.0,0.0,0.0,-1.076222783114919,-1.6978957958442684,-1.6286834172885385,-0.000970363478917419,-0.004851328602738856,-0.3109585422067187
6427,13.0,299.79446,14479.579,0.0,-0.03213482323910688,-0.032134395697467455,0.0,0.0,0.0,-1.069312620082939,-1.6976927405242284,-1.6344249989801882,0.006611525499531763,-0.003190692343546817,-0.3120767143545737
6428,13.0,299.98613,14494.124,0.0,-0.032139837727845344,-0.03213939790765441,0.0,0.0,0.0,-1.0748241940018888,-1.6950367080370983,-1.6359908756847283,0.002735257803173927,0.005585767941622375,-0.3175578705055217
6429,13.0,300.02384,14485.188,0.0,-0.03214481922652623,-0.03214440011784159,0.0,0.0,0.0,-1.0659412330252092,-1.6985708230608885,-1.6386232994445287,0.0062130267995030046,0.005411657225263985,-0.3177751619894667
6430,13.0,300.19917000000004,14517.728000000001,0.0,-0.032149833715264586,-0.032149402328028764,0.0,0.0,0.0,-1.075944848612489,-1.6954914546819784,-1.6415905010373684,-0.0040025697266228765,0.0018035253962440986,-0.30882440444859566
6431,13.0,300.10669,14514.221000000001,0.0,-0.032154815213945476,-0.03215440453821572,0.0,0.0,0.0,-1.073958473116449,-1.6940027876350585,-1.6439994018251085,-0.0045363799728308455,0.0013634784771898488,-0.3026746653516637
6432,13.0,299.96252000000004,14494.106000000002,0.0,-0.03215982970268394,-0.032159406748402675,0.0,0.0,0.0,-1.0748952228338988,-1.6948999192735985,-1.6360512653906885,-0.005840239928711805,0.0002616566902360048,-0.30044401552151573
6433,13.0,299.84272999999996,14566.517,0.0,-0.03216481120136483,-0.03216440895858985,0.0,0.0,0.0,-1.085348214840529,-1.6961114624181683,-1.6463978661368184,-0.008262562531251431,-0.0023095672194865377,-0.30460284989446074
6434,13.0,299.79711000000003,14612.803,0.0,-0.03216982569010318,-0.03216941116877692,0.0,0.0,0.0,-1.091328011630689,-1.7039614149178985,-1.6466380064105184,-0.006507155774306274,-0.0006266279070433594,-0.3071553991488777
6435,13.0,299.99172000000004,14547.551000000001,0.0,-0.032174840178841646,-0.032174413378964095,0.0,0.0,0.0,-1.0790552224444592,-1.6997377832010583,-1.6432991446809986,0.004255654878300436,-0.003148354904018437,-0.3151594771213187
6436,13.0,299.92375,14494.816,0.0,-0.032179821677522535,-0.032179382679873525,0.0,0.0,0.0,-1.0774726271132689,-1.6936291009981783,-1.6349602990080183,0.007906739797609462,0.007820184326367103,-0.3107262039587887
6437,13.0,300.03783,14513.704,0.0,-0.03218483616626078,-0.03218438489006059,0.0,0.0,0.0,-1.076745012216459,-1.6970433485351384,-1.6380154507095384,0.00984990240603468,0.001120697572404239,-0.31183567228828474
6438,13.0,299.95751,14541.245,0.0,-0.03218981766494189,-0.03218938710024777,0.0,0.0,0.0,-1.078911746230299,-1.6975044786556484,-1.6437592615514085,0.0027269537119793776,-0.006411321161298134,-0.3104740870689067
6439,13.0,300.2794,14530.215,0.0,-0.03219483215368035,-0.03219438931043472,0.0,0.0,0.0,-1.0738475222304988,-1.7013480402599783,-1.6416270793659784,0.0036361574148607964,-0.001085598386290219,-0.3132800603058347
6440,13.0,300.02676,14509.969,0.0,-0.03219981365236113,-0.0321993915206219,0.0,0.0,0.0,-1.074811731025659,-1.6949349777270586,-1.6409216546463585,0.0005022714892228365,-0.00013674465672314687,-0.3099316537603727
6441,13.0,299.74447999999995,14518.208,0.0,-0.032204828141099595,-0.032204393730808856,0.0,0.0,0.0,-1.071240024423159,-1.6962774327845485,-1.6456552551385286,-0.002309799760384488,0.002243445963010878,-0.3085431971483427
6442,13.0,299.57219,14566.152,0.0,-0.03220984262983806,-0.03220939594099603,0.0,0.0,0.0,-1.079522736040599,-1.7029528257683584,-1.6452709293755985,-0.011578951994753589,0.0032754249778592774,-0.3081769173696937
6443,13.0,300.01149,14659.088,0.0,-0.03221482412851884,-0.03221439815118321,0.0,0.0,0.0,-1.087198713498159,-1.7095087565653784,-1.6592891431840884,-0.004674964012858026,0.007342463856669763,-0.3010188525682477
6444,13.0,299.96353,14629.331,0.0,-0.0322198386172573,-0.032219400361370165,0.0,0.0,0.0,-1.089594138059569,-1.7079568627122181,-1.6494005314831586,0.0005425447457799975,0.002121898304865058,-0.3057460087897817
6445,13.0,299.99249,14529.753999999999,0.0,-0.03222482011593819,-0.03222440257155734,0.0,0.0,0.0,-1.0749275455120888,-1.7011003006105283,-1.6406544605949884,0.003317622082248807,-0.004299117633389876,-0.3114246676502217
6446,13.0,299.95167000000004,14523.251,0.0,-0.03222983460467643,-0.0322294047817443,0.0,0.0,0.0,-1.078072876472509,-1.7001099499627883,-1.6365227306622183,0.009049707999261641,-0.009728723064300211,-0.31686164609680967
6447,13.0,300.12051,14570.188,0.0,-0.03223481610335732,-0.032234406991931475,0.0,0.0,0.0,-1.080149937852499,-1.7011747744928785,-1.6476487233852684,0.003352240481190377,-0.0037095636355804263,-0.3134741382299887
6448,13.0,300.13035,14528.843,0.0,-0.0322398305920959,-0.03223940920211854,0.0,0.0,0.0,-1.077700912360799,-1.7002129974979585,-1.6384915769315285,0.007696441765854664,-0.00044938432270077956,-0.3150594896014507
6449,13.0,300.09162000000003,14481.278999999999,0.0,-0.03224481209077679,-0.032244411412305496,0.0,0.0,0.0,-1.0677567745543888,-1.6935502701403984,-1.6406399711185586,-0.003988629431747076,0.0006962107501006514,-0.30987286498957073
6450,13.0,299.83921000000004,14523.888,0.0,-0.03224982657951503,-0.03224941362249267,0.0,0.0,0.0,-1.0770773582492592,-1.6967736213585183,-1.6410483109088585,-0.0025083488532547577,0.002009372828259658,-0.3058271903877937
6451,13.0,299.74908,14636.418,0.0,-0.032254841068253604,-0.032254382923402325,0.0,0.0,0.0,-1.083213803504879,-1.7077676889185482,-1.6581240068940983,-0.006096188119871925,0.003148367569644687,-0.30327916022882273
6452,13.0,299.8945,14696.733,0.0,-0.032259822566934604,-0.03225938513358939,0.0,0.0,0.0,-1.0971679799070488,-1.7114800346349286,-1.6587916373849885,-0.0003300663315325107,0.007345669476011133,-0.3081607155005947
6453,13.0,299.98087000000004,14699.023000000001,0.0,-0.03226483705567296,-0.032264387343776346,0.0,0.0,0.0,-1.0912966008775888,-1.7173188883361785,-1.6595203668569085,-0.0037129326921629268,0.0012981114840886288,-0.3057185091820677
6454,13.0,299.86498,14570.493999999999,0.0,-0.032269818554353846,-0.0322693895539633,0.0,0.0,0.0,-1.0828815587970888,-1.7016463410894183,-1.6445383495532984,0.003272573489427857,-0.001930569733532398,-0.3122345077926467
6455,13.0,299.98185,14544.25,0.0,-0.03227483304309231,-0.03227439176415048,0.0,0.0,0.0,-1.0731709751387288,-1.7043311498793883,-1.6435867050593784,-0.0024032765404099275,0.003780522046708476,-0.3077874240312537
6456,13.0,300.00779,14619.608999999999,0.0,-0.03227981454177309,-0.032279393974337656,0.0,0.0,0.0,-1.087514543554329,-1.7090247269926087,-1.6474568138163284,-0.0017294916697375385,0.0008573976539510602,-0.3112188968199137
6457,13.0,299.83372,14588.626,0.0,-0.03228482903051155,-0.03228439618452461,0.0,0.0,0.0,-1.078539174168529,-1.7049964498950485,-1.6510425032702085,-0.004255378261023136,-0.0014329952360756185,-0.3111587401614767
6458,13.0,299.87032,14482.958,0.0,-0.03228981052919244,-0.03228939839471179,0.0,0.0,0.0,-1.070838878708569,-1.7003012515816684,-1.6313174622484985,0.004637158942351956,-0.004911015315779475,-0.3233834506304617
6459,13.0,300.17282,14554.093,0.0,-0.032294825017930684,-0.03229440060489874,0.0,0.0,0.0,-1.074562066201019,-1.7050115473215381,-1.6445073441002385,0.008457267961192361,5.712310010836104e-05,-0.31191760369137067
6460,13.0,300.08116,14658.685,0.0,-0.03229983950666926,-0.03229940281508592,0.0,0.0,0.0,-1.090703646919069,-1.709666418280938,-1.6555042487605485,0.006841108619114853,-0.0005198936411195075,-0.3157909852461437
6461,13.0,300.09843,14676.018999999998,0.0,-0.03230482100535015,-0.0323044050252731,0.0,0.0,0.0,-1.0870675989352188,-1.7165087948812283,-1.6575667193390984,-0.0007720802223433852,0.0008865051781162491,-0.3074760421430227
6462,13.0,300.16639,14614.475,0.0,-0.03230983549408839,-0.032309407235460164,0.0,0.0,0.0,-1.081710849631549,-1.7061603702849182,-1.6545640539927586,0.0001985859245114048,0.005014238649841825,-0.3071805176188567
6463,13.0,300.13851,14605.841999999999,0.0,-0.03231481699276928,-0.03231440944564712,0.0,0.0,0.0,-1.077807303621299,-1.7113590525729883,-1.6506448026059586,-0.004126367610590776,0.005231312791640375,-0.3078490499023357
6464,13.0,299.97986000000003,14634.751,0.0,-0.032319831481507744,-0.032319411655834296,0.0,0.0,0.0,-1.0862268040022387,-1.7106484602778584,-1.6517236099874284,-0.004208977283293716,-0.002267232819708458,-0.3117731344921127
6465,13.0,299.95179,14650.951000000001,0.0,-0.032324812980188855,-0.03232438095674384,0.0,0.0,0.0,-1.088202033747179,-1.7089411338593585,-1.6563801021469884,-0.007796048708985103,-0.0035921402093166367,-0.31596128219045067
6466,13.0,299.78159,14641.409,0.0,-0.03232982746892721,-0.032329383166931014,0.0,0.0,0.0,-1.088313997883229,-1.7143817802713084,-1.6479270631877383,-0.0039290568106677155,-0.005028298406904415,-0.3144207874009157
6467,13.0,300.08286,14535.473999999998,0.0,-0.03233484195766545,-0.03233438537711797,0.0,0.0,0.0,-1.077324388623639,-1.6964188824985087,-1.6446780767420883,0.006282639411848234,0.0023249874674583977,-0.31041886493845666
6468,13.0,300.21781,14550.169,0.0,-0.03233982345634656,-0.032339387587304924,0.0,0.0,0.0,-1.074838582153309,-1.704363371232568,-1.6436860035691785,-0.0008831431534894431,0.001078347973874659,-0.3053045762512157
6469,13.0,300.05936,14679.216,0.0,-0.032344837945084914,-0.0323443897974921,0.0,0.0,0.0,-1.0874999527528888,-1.7135741186165983,-1.6610410526069885,0.008281383449208911,0.0017230761754043786,-0.3076899189741307
6470,13.0,299.99355,14717.24,0.0,-0.032349819443765804,-0.032349392007679056,0.0,0.0,0.0,-1.095636553705909,-1.7172835259076884,-1.6607534922286085,0.0016855070908465984,0.001027519194533249,-0.30675639139199873
6471,13.0,299.98613,14662.962,0.0,-0.03235483393250427,-0.032354394217866234,0.0,0.0,0.0,-1.0827577396348689,-1.7185591064585783,-1.6558574677454085,0.006079145759814974,0.0050620278815332554,-0.3134416838292857
6472,13.0,300.0218,14658.318000000001,0.0,-0.032359815431184935,-0.0323593964280533,0.0,0.0,0.0,-1.090224784921809,-1.7087123419867785,-1.6568256282159586,-0.0026448768061790176,-0.01033311945354949,-0.3056295356907867
6473,13.0,299.98492999999996,14670.608,0.0,-0.03236482991992351,-0.032364398638240366,0.0,0.0,0.0,-1.088753039151559,-1.7150346173107385,-1.6557107491309284,-0.005645484241565915,-0.004263852882209517,-0.3126587657420177
6474,13.0,299.94567,14651.131000000001,0.0,-0.0323698114186044,-0.03236940084842754,0.0,0.0,0.0,-1.0820238425874389,-1.7158779453689685,-1.6556763999525383,-0.006345639554040864,-0.0026062480646666573,-0.3118622093084037
6475,13.0,300.09779,14591.053,0.0,-0.03237482590734264,-0.03237440305861461,0.0,0.0,0.0,-1.076232814290909,-1.7060204404461086,-1.6530624173445585,-0.0015131998583411987,0.0038424978943750166,-0.3135631117212697
6476,13.0,299.99436000000003,14579.418,0.0,-0.032379840396081105,-0.032379405268801786,0.0,0.0,0.0,-1.077484482139439,-1.7102694034154482,-1.6440250370526384,9.62258835872553e-05,0.0026125286954115077,-0.31531300477647073
6477,13.0,300.02279,14604.675,0.0,-0.032384821894761995,-0.03238440747898874,0.0,0.0,0.0,-1.082311098990789,-1.7093582889255283,-1.6477872346739382,-0.0015531450143834787,0.0016331469866290587,-0.32136342509860066
6478,13.0,300.16151,14651.303999999998,0.0,-0.03238983638350035,-0.03238940968917592,0.0,0.0,0.0,-1.091002555698569,-1.7119873689599985,-1.6506405469555383,0.0006636938318664814,0.0026255449061961074,-0.31506826434731666
6479,13.0,300.35693,14700.107,0.0,-0.03239481788218146,-0.03239437899008546,0.0,0.0,0.0,-1.087829765660439,-1.7181029412635584,-1.6625329620542284,-0.001061264982488699,-0.0005780086107375085,-0.3101336046378037
6480,13.0,299.98325,14687.508,0.0,-0.0323998323709197,-0.032399381200272415,0.0,0.0,0.0,-1.0915135377239988,-1.7075060677427285,-1.6656161807835184,-0.003913387100521236,-0.0060126576054781045,-0.3058989487598757
6481,13.0,299.98335,14698.08,0.0,-0.03240481386960081,-0.03240438341045959,0.0,0.0,0.0,-1.090356406109799,-1.7173086545101683,-1.6601842483224287,0.0004007036842338746,-0.0023866449519435173,-0.30636326048569973
6482,13.0,299.89213,14710.498,0.0,-0.032409828358339166,-0.03240938562064655,0.0,0.0,0.0,-1.0965509105961488,-1.7132118817058484,-1.6618613798879482,0.002122320627506738,0.003052286432887217,-0.31057738791660167
6483,13.0,300.01876,14674.822,0.0,-0.032414809857020055,-0.032414387830833724,0.0,0.0,0.0,-1.0914528440430091,-1.7106022560732985,-1.6587243575783484,0.007881056339374703,0.004052892894164386,-0.3101967199865327
6484,13.0,299.87616,14657.23,0.0,-0.03241982434575852,-0.03241939004102068,0.0,0.0,0.0,-1.093269702797319,-1.7152715151841185,-1.6468907109854585,0.0018107832053853882,-0.0025917216046080077,-0.3167053117388807
6485,13.0,299.90033999999997,14645.418,0.0,-0.03242483883449676,-0.032424392251207745,0.0,0.0,0.0,-1.080925276829019,-1.7126069713961485,-1.6583091276873683,-0.0017021149692606685,0.0012555666322647788,-0.3143454117259767
6486,13.0,299.7136,14611.392,0.0,-0.03242982033317765,-0.03242939446139492,0.0,0.0,0.0,-1.083188472252379,-1.7137795044118682,-1.6445302435524984,-0.005870843932082184,0.004908879891193725,-0.3186617558269667
6487,13.0,300.02567999999997,14624.25,0.0,-0.032434834821916225,-0.0324343966715821,0.0,0.0,0.0,-1.0770021750918388,-1.7120258724637984,-1.6563788862468685,-0.004607288734703996,0.005890447180441874,-0.31205547663247774
6488,13.0,300.06843,14697.691,0.0,-0.03243981632059689,-0.032439398881769055,0.0,0.0,0.0,-1.094038151673159,-1.7180361680819685,-1.6556568442256085,-0.0050138167325001854,0.0003189475734151747,-0.3127633838148427
6489,13.0,300.14047,14767.853000000001,0.0,-0.03244483080933536,-0.03244440109195623,0.0,0.0,0.0,-1.0928307628539988,-1.7279708826624482,-1.6682570145191484,-0.001262354799984719,-0.003680018073264506,-0.3108578960742857
6490,13.0,300.00795,14710.767,0.0,-0.032449812308016246,-0.03244940330214319,0.0,0.0,0.0,-1.094678525736359,-1.7166197457671784,-1.6604074673194584,0.012599344494708488,0.0005023716084652175,-0.3125611390948827
6491,13.0,300.08709,14699.883999999998,0.0,-0.0324548267967546,-0.032454405512330364,0.0,0.0,0.0,-1.0830941386680688,-1.7189069552179084,-1.6663964846855284,0.0007958554266648152,-0.003754425790382976,-0.3069606828771607
6492,13.0,299.89243,14722.581,0.0,-0.03245984128549306,-0.03245940772251754,0.0,0.0,0.0,-1.094083139977599,-1.7205328163283684,-1.6606808421964385,0.006733277124922713,-0.006820700140900693,-0.3119947829514877
6493,13.0,300.04317000000003,14710.513,0.0,-0.03246482278417395,-0.03246437702342686,0.0,0.0,0.0,-1.0887049097718091,-1.719685232619718,-1.6632384880988587,-0.0014222370531388685,-0.0012939068001486588,-0.3133307329433357
6494,13.0,299.93742000000003,14669.498,0.0,-0.032469837272912305,-0.03246937923361404,0.0,0.0,0.0,-1.088849804536109,-1.7178216630357985,-1.6524897283880382,0.004435886739837936,0.00909844198534631,-0.3209583986361277
6495,13.0,299.75312,14648.301000000001,0.0,-0.03247481877159342,-0.032474381443801215,0.0,0.0,0.0,-1.084349656866979,-1.7106531212283183,-1.6577150591537384,-0.0015046904826763888,0.0028176087931263377,-0.3152480959750647
6496,13.0,299.96034,14676.275,0.0,-0.03247983326033166,-0.03247938365398817,0.0,0.0,0.0,-1.0913629687591389,-1.7154463008263683,-1.6544118638277383,-0.009432617643851882,-0.003147841388867757,-0.3158305830600517
6497,13.0,299.8772,14738.926000000001,0.0,-0.03248481475901277,-0.03248438586417535,0.0,0.0,0.0,-1.092352610131809,-1.7236671028626984,-1.6642457600232685,-0.0033422972553090566,-0.0037554861566126267,-0.3115386177564677
6498,13.0,300.04337000000004,14762.265,0.0,-0.03248982924775101,-0.0324893880743623,0.0,0.0,0.0,-1.101958119754799,-1.7178264253112685,-1.6675756038268983,-0.0014550505496773087,0.003357709802580157,-0.3075587030861807
6499,13.0,300.30645,14741.327,0.0,-0.0324948107464319,-0.03249439028454937,0.0,0.0,0.0,-1.0876854788461991,-1.7244597684159284,-1.6688500698026785,0.003746391730340077,0.0017565900304119383,-0.3051624577921897
6500,13.0,299.87416,14730.024,0.0,-0.032499825235170476,-0.032499392494736545,0.0,0.0,0.0,-1.0923275828543388,-1.7218739541607284,-1.6633579502856484,-0.0029330083536403873,-0.007226493228399353,-0.3045503027442747
6501,13.0,299.85972000000004,14791.958999999999,0.0,-0.03250483972390872,-0.0325043947049235,0.0,0.0,0.0,-1.0976138099510488,-1.728120235727188,-1.6706522364305385,0.006804103610887744,-0.0008469783829077583,-0.31221010873023874
6502,13.0,300.1549,14769.857,0.0,-0.03250982122258961,-0.03250939691511068,0.0,0.0,0.0,-1.093089749579559,-1.7313507810210182,-1.6652270927451183,0.0013882922628637787,0.006633752660350415,-0.3149825737863597
6503,13.0,299.8466,14640.681999999999,0.0,-0.03251483571132807,-0.03251439912529763,0.0,0.0,0.0,-1.0773102031222388,-1.7141060749190984,-1.6589853708041085,0.008080327271616212,0.001828379306621988,-0.3194647666637177
6504,13.0,300.10086,14667.02,0.0,-0.03251981721000885,-0.03251940133548481,0.0,0.0,0.0,-1.0836183942698092,-1.7200716862078584,-1.6547176627079183,-0.007830064426767192,-0.00014164318393409384,-0.3184148470425987
6505,13.0,299.93692999999996,14726.923,0.0,-0.032524831698747314,-0.03252440354567199,0.0,0.0,0.0,-1.093788588173529,-1.7216304701616982,-1.6611979037224684,-0.0014107736481325187,-0.0009999156577564922,-0.3267321003559477
6506,13.0,299.91168999999996,14745.678999999998,0.0,-0.0325298131974282,-0.03252940575585894,0.0,0.0,0.0,-1.097913731980649,-1.7199940712501984,-1.6644104131645185,-0.0006788517088574474,0.009116969567399841,-0.3182268182215417
6507,13.0,300.0181,14719.626,0.0,-0.032534827686166556,-0.03253440796604612,0.0,0.0,0.0,-1.088864192687529,-1.7252947878233382,-1.6602398757529186,0.003058968817296717,-0.0004865574088544775,-0.32343183332273673
6508,13.0,299.99757999999997,14723.907,0.0,-0.03253980918484756,-0.03253937726695566,0.0,0.0,0.0,-1.089590693009229,-1.7219947335726482,-1.6641145441353182,-0.005074154965355105,-0.008882986713232533,-0.3046149481006547
6509,13.0,299.81955,14774.988000000001,0.0,-0.03254482367358591,-0.032544379477142615,0.0,0.0,0.0,-1.091336218956499,-1.7329773514065483,-1.6669139515115985,0.003789264064596247,-0.004576646937104885,-0.3119269762547957
6510,13.0,300.10171,14834.192,0.0,-0.03254983816232426,-0.03254938168732979,0.0,0.0,0.0,-1.103304019862629,-1.7315999392206085,-1.6743198978175085,-0.0015806561731486184,0.0028058307739639373,-0.3059419814916227
6511,13.0,299.94201,14797.469,0.0,-0.03255481966100526,-0.03255438389751675,0.0,0.0,0.0,-1.096241464015609,-1.7259982873677682,-1.6758213318156883,0.0014352301618211886,-0.0028129819891947075,-0.3107302366941867
6512,13.0,300.14681,14761.596000000001,0.0,-0.03255983414974384,-0.032559386107703925,0.0,0.0,0.0,-1.094453482889149,-1.7267397837909484,-1.6659634215927883,-0.008381114008851553,-0.0025710903126968574,-0.3116183909368407
6513,13.0,300.10459,14759.805,0.0,-0.03256481564842473,-0.03256438831789099,0.0,0.0,0.0,-1.088276304979509,-1.7252310543920486,-1.6731047069725786,0.002307608100418188,0.0024028410455169476,-0.3239239182338017
6514,13.0,300.20817999999997,14779.874,0.0,-0.03256983013716297,-0.03256939052807817,0.0,0.0,0.0,-1.0980779798218592,-1.7264732990146483,-1.6681613637097086,-0.001128997306623359,0.012241205167362887,-0.3159187864812567
6515,13.0,300.21679,14729.753,0.0,-0.03257481163584386,-0.03257439273826512,0.0,0.0,0.0,-1.089653717165449,-1.7217684748253184,-1.6660550194018284,0.0010304451568470192,-2.4150349025203878e-05,-0.3201832623096277
6516,13.0,300.41513,14705.753999999999,0.0,-0.03257982612458232,-0.03257939494845208,0.0,0.0,0.0,-1.095985618365359,-1.7146422868720186,-1.6595542094102484,-0.0007694495312412562,-0.0035645955119731868,-0.3134996822650097
6517,13.0,300.00867,14756.361,0.0,-0.032584840613320676,-0.032584397158639256,0.0,0.0,0.0,-1.0981722120811592,-1.7269698928886585,-1.6604231726960086,-0.00034436513455869265,-0.0004685722297119786,-0.3192282335603737
6518,13.0,299.82442000000003,14803.243999999999,0.0,-0.032589822112001565,-0.03258939936882643,0.0,0.0,0.0,-1.1059167865704889,-1.7254010777588284,-1.6684988773180183,0.007795266986532952,0.007020513972545784,-0.3090213296055307
6519,13.0,299.86572,14822.204,0.0,-0.03259483660074003,-0.03259440157901339,0.0,0.0,0.0,-1.0966576058316788,-1.7289324570073483,-1.6799898427270883,-0.004983252245883705,-0.007074144287088683,-0.3103445025136177
6520,13.0,299.97071,14841.441,0.0,-0.03259981809942081,-0.032599403789200565,0.0,0.0,0.0,-1.0954567018131591,-1.7372367508519182,-1.6787342232031683,-0.0033313232501010065,-0.002808516292028977,-0.3048361507299857
6521,13.0,299.95231,14822.775,0.0,-0.03260483258815927,-0.03260440599938752,0.0,0.0,0.0,-1.090334215932609,-1.7311927140054184,-1.6842263427201984,-0.0020567380147842383,-0.005883418872448235,-0.31270529418660964
6522,13.0,300.1193,14778.372,0.0,-0.03260981408684016,-0.03260937530029706,0.0,0.0,0.0,-1.0983554076992388,-1.7282590509908884,-1.6656414107110087,0.002213285053909228,0.004172381324131976,-0.3157070577403607
6523,13.0,299.97942,14759.828000000001,0.0,-0.0326148285755784,-0.03261437751048424,0.0,0.0,0.0,-1.090078268957349,-1.7254366428373384,-1.6711044499501684,4.6257267454486864e-06,-0.008592488821487623,-0.3212242146673617
6524,13.0,300.06706,14769.813999999998,0.0,-0.032619810074259514,-0.032619379720671304,0.0,0.0,0.0,-1.099908517452519,-1.7226002518324086,-1.6671459857844986,-0.0024662586467507773,-0.0069770148417777535,-0.31741905524182173
6525,13.0,300.20142999999996,14766.933,0.0,-0.03262482456299798,-0.03262438193085837,0.0,0.0,0.0,-1.085485510229079,-1.7334597597791586,-1.6698336316747482,0.0007534842763056083,0.004102128033748516,-0.3271653863637097
6526,13.0,300.20023,14740.358999999999,0.0,-0.03262983905173633,-0.03262938414104555,0.0,0.0,0.0,-1.094465540565339,-1.7210186697513181,-1.6652170615691284,0.0018492858985853084,0.01001350683343118,-0.31754176996143274
6527,13.0,300.05405,14806.056999999999,0.0,-0.03263482055041722,-0.032634386351232614,0.0,0.0,0.0,-1.0970769900480688,-1.7326029554945983,-1.6709915738890286,-0.002441809327137818,0.00038051274068368366,-0.3107621642048377
6528,13.0,300.01736,14890.872,0.0,-0.032639835039155685,-0.03263938856141979,0.0,0.0,0.0,-1.118997541386459,-1.7334543895536285,-1.6740014333110784,-0.007001345408478993,-0.004053118544961656,-0.3089664114501107
6529,13.0,299.91625,14895.468,0.0,-0.032644816537836574,-0.032644390771606746,0.0,0.0,0.0,-1.1058159681855388,-1.7391422689899783,-1.6828921963135284,-0.0010079258050970322,0.0009196064680805923,-0.31556588160392773
6530,13.0,299.84042999999997,14845.793,0.0,-0.03264983102657493,-0.0326493929817937,0.0,0.0,0.0,-1.100157169027059,-1.7399369610434083,-1.6726560398282986,0.0006198351695654684,0.002918178627826807,-0.3146921459101967
6531,13.0,299.9885,14810.046999999999,0.0,-0.032654812525255816,-0.03265439519198088,0.0,0.0,0.0,-1.081797583840109,-1.7339080216233984,-1.6861788756628986,0.0019664668541001682,-0.007003836585174852,-0.3175089507906937
6532,13.0,299.96027999999995,14821.133999999998,0.0,-0.03265982701399428,-0.032659397402167833,0.0,0.0,0.0,-1.093160271786519,-1.7340238361098284,-1.6780706457126784,0.000963918357151335,-0.005234926548122025,-0.3164704707632037
6533,13.0,299.97697,14822.413999999999,0.0,-0.03266480851267506,-0.03266439961235501,0.0,0.0,0.0,-1.093570536752009,-1.7378418638116384,-1.6742315424087886,0.003099100816657437,0.0003178345587103287,-0.3222966791032057
6534,13.0,300.08071,14758.321000000002,0.0,-0.03266982300141352,-0.03266940182254208,0.0,0.0,0.0,-1.099898992901579,-1.7236002283560985,-1.6626618474669483,0.008101411790297091,0.0015238191246892386,-0.3179340193401447
6535,13.0,300.06676,14718.385,0.0,-0.03267483749015199,-0.032674404032729254,0.0,0.0,0.0,-1.089834784958319,-1.7261548345082183,-1.6580318011349984,0.0006947556114995404,-0.002945658679813877,-0.3231211505770747
6536,13.0,300.01547,14824.462,0.0,-0.032679818988832654,-0.032679373333638684,0.0,0.0,0.0,-1.106099272913499,-1.7322610849108582,-1.6679060246845085,0.0016847499903718784,-0.0015254230995975387,-0.31789030773083066
6537,13.0,300.13031,14926.979,0.0,-0.03268483347757123,-0.03268437554382575,0.0,0.0,0.0,-1.107511338252859,-1.7419864620206782,-1.6879310890608283,0.002773173520590917,0.007299352699365024,-0.3212127852062337
6538,13.0,300.10492,14871.874,0.0,-0.03268981497625223,-0.03268937775401293,0.0,0.0,0.0,-1.102752001208149,-1.7383742254141785,-1.6795521186838884,-0.0033726922251838065,0.006041126994862814,-0.3148532628085977
6539,13.0,300.0493,14822.181999999999,0.0,-0.03269482946499058,-0.03269437996419999,0.0,0.0,0.0,-1.097351479500159,-1.7305281232648284,-1.6776935140254585,-0.002038149739049718,0.001036446231889279,-0.3120400144359517
6540,13.0,299.96387000000004,14867.62,0.0,-0.03269981096367147,-0.03269938217438706,0.0,0.0,0.0,-1.108663099641529,-1.7335930021673083,-1.6771291337197587,-0.010380250781950989,-0.006231705457146444,-0.3085563187371377
6541,13.0,299.71698,14878.069,0.0,-0.032704825452409936,-0.03270438438457424,0.0,0.0,0.0,-1.103647106346489,-1.7398620818610182,-1.6790523837345683,0.0017536209036439084,0.002048589052179998,-0.3201121321526077
6542,13.0,299.79933,14859.855,0.0,-0.03270983994114829,-0.03270938659476119,0.0,0.0,0.0,-1.096263248892759,-1.7375418404570284,-1.6832198813958683,-0.005609296115569425,-0.005425220388452564,-0.3159727521815827
6543,13.0,299.90201,14770.621000000001,0.0,-0.03271482143982918,-0.03271438880494837,0.0,0.0,0.0,-1.0819225175774387,-1.7298587702487684,-1.6781187750924287,0.0014322477614768486,-0.00918723471280947,-0.3187862437342527
6544,13.0,299.84542999999996,14741.78,0.0,-0.03271983592856764,-0.032719391015135324,0.0,0.0,0.0,-1.0865545904095888,-1.7261147098042584,-1.6684638188645586,-0.0017841789054597482,-0.007191874728132774,-0.3114067432559527
6545,13.0,300.17683,14851.141000000001,0.0,-0.03272481742724853,-0.0327243932253225,0.0,0.0,0.0,-1.104867870066969,-1.7326733763765483,-1.6768346832406984,0.003766006428425897,0.012158771192227288,-0.3192884814113197
6546,13.0,300.07155,14928.043,0.0,-0.032729831915986884,-0.032729395435509456,0.0,0.0,0.0,-1.1211145248203889,-1.7413052539784484,-1.6753324386424382,0.004355200317149806,0.006001746117801224,-0.3138530025748797
6547,13.0,300.01482000000004,14898.013,0.0,-0.032734813414667774,-0.03273439764569652,0.0,0.0,0.0,-1.106151556618659,-1.7417670933740286,-1.6807053999477084,-0.002630013947087168,-0.00034026734850427264,-0.3198160098108827
6548,13.0,300.02561000000003,14904.487,0.0,-0.03273982790340624,-0.0327393998558837,0.0,0.0,0.0,-1.105061502161079,-1.7448089714992383,-1.6807215106242985,0.0017223927382119283,0.0002566041490098577,-0.3151859330814297
6549,13.0,299.87546000000003,14956.046999999999,0.0,-0.032744809402086905,-0.03274440206607088,0.0,0.0,0.0,-1.105679382072059,-1.7467237102132083,-1.6938618445461486,0.0005618292560557305,0.008049561756179893,-0.3224678778401017
6550,13.0,299.78869,14946.889,0.0,-0.03274982389082548,-0.032749371366980196,0.0,0.0,0.0,-1.1099512444936592,-1.7434354096636786,-1.6900942766993186,-0.0006992736227679334,0.0047799175727911355,-0.3119900206760177
6551,13.0,299.79084,14837.401000000002,0.0,-0.032754838379563944,-0.03275437357716737,0.0,0.0,0.0,-1.095385267681109,-1.7347703987835086,-1.6800438489574183,-0.005033053386973695,-0.003334488339438377,-0.3172087450510657
6552,13.0,299.75793,14800.143,0.0,-0.032759819878244834,-0.03275937578735455,0.0,0.0,0.0,-1.0993314715205689,-1.7295472971680284,-1.6699950424156784,0.0012758868563952288,-0.0028426528905479975,-0.3163491543287307
6553,13.0,300.07048,14834.046999999999,0.0,-0.032764834366983075,-0.032764377997541505,0.0,0.0,0.0,-1.093902781459799,-1.7377017313228087,-1.6775753690637984,0.003828710397614296,0.006622100993475483,-0.3183652484502037
6554,13.0,300.28232,14841.371000000001,0.0,-0.03276981586566419,-0.03276938020772868,0.0,0.0,0.0,-1.0998236070941387,-1.7383720975889685,-1.6732102876329984,0.005454554384147605,-0.006267875547291154,-0.3217775505469717
6555,13.0,300.11028999999996,14902.96,0.0,-0.03277483035440254,-0.03277438241791564,0.0,0.0,0.0,-1.097316015746659,-1.7461081607774582,-1.686703637889688,-0.00042391769998741954,-0.008672635485847482,-0.3165733561783577
6556,13.0,300.0258,14929.148000000001,0.0,-0.03277981185308343,-0.032779384628102815,0.0,0.0,0.0,-1.112221836642749,-1.7462736245187884,-1.6795927500128984,0.004333416757224936,-0.007516137355610002,-0.3225498295081897
6557,13.0,300.05237999999997,14939.044,0.0,-0.03278482634182189,-0.03278438683828999,0.0,0.0,0.0,-1.112571914552299,-1.7466855106844383,-1.6818388215095683,0.006043726690644385,0.0073206775609696234,-0.3168832688539437
6558,13.0,300.05317,14944.823,0.0,-0.03278980784050278,-0.03278938904847695,0.0,0.0,0.0,-1.1175866919472188,-1.7421538509371985,-1.6831125782102787,0.0011378708443741089,0.0024754203528299674,-0.32413728843985967
6559,13.0,299.78332,14935.78,0.0,-0.032794822329241136,-0.032794391258664124,0.0,0.0,0.0,-1.105652632269419,-1.745072416525238,-1.6893790234537283,-0.004430090645290905,-0.004703262669600886,-0.3101935181162167
6560,13.0,299.80856,14890.16,0.0,-0.0327998368179796,-0.03279939346885108,0.0,0.0,0.0,-1.095704644112629,-1.7390833991591685,-1.6914488907580083,-0.0007055554491479013,0.0010188253060252291,-0.3216266978720837
6561,13.0,300.05458,14856.833999999999,0.0,-0.03280481831666049,-0.032804395679038145,0.0,0.0,0.0,-1.089841168433949,-1.7372946074326283,-1.6889708863134485,0.0006717976947087702,0.008721319822677253,-0.3167454668403437
6562,13.0,300.02426,14872.112,0.0,-0.03280983280539873,-0.03280939788922532,0.0,0.0,0.0,-1.098849063147959,-1.7390463142055084,-1.6828554153348985,0.002259559274051138,-0.0020351598406546383,-0.3167805455588057
6563,13.0,300.067,14864.749,0.0,-0.03281481430407973,-0.03281440009941228,0.0,0.0,0.0,-1.0943812381570188,-1.7420857605304783,-1.6820455245299684,-0.007274546614391852,-0.0032187279605637165,-0.3131584804263357
6564,13.0,299.87872999999996,14863.231000000002,0.0,-0.032819828792818195,-0.032819402309599455,0.0,0.0,0.0,-1.103566958263579,-1.7459628607131181,-1.6685212701452286,0.004150399572487546,-0.0008349628781869203,-0.3217882909980317
6565,13.0,299.98328,14970.901000000002,0.0,-0.032824810291499085,-0.032824371610508996,0.0,0.0,0.0,-1.1104615172440189,-1.7541690719480083,-1.6861495927350083,0.003240699681032157,0.008817837467577803,-0.32211333149761073
6566,13.0,300.01842999999997,14969.836000000001,0.0,-0.03282982478023733,-0.03282937382069595,0.0,0.0,0.0,-1.1168100357455688,-1.7518010051392983,-1.6818455089602284,0.0035436702762080266,-0.0011255639086595087,-0.3211411382916627
6567,13.0,300.09899,14907.966,0.0,-0.0328348392689759,-0.03283437603088313,0.0,0.0,0.0,-1.1024930144825889,-1.7449837571414881,-1.684172539139888,-0.0007865694657258623,-0.006974934740647462,-0.3203763371161827
6568,13.0,299.94305,14933.167,0.0,-0.03283982076765679,-0.03283937824107008,0.0,0.0,0.0,-1.111622296558579,-1.7458054016475786,-1.6818820872888383,-0.0006668585868313183,-0.003090085322567677,-0.3200742973938737
6569,13.0,300.1571,14959.761,0.0,-0.03284483525639503,-0.03284438045125726,0.0,0.0,0.0,-1.1150023975671688,-1.7403281769070185,-1.6920631229686285,0.004778187042945346,0.009962987500670309,-0.3204486426433187
6570,13.0,300.05233,14907.089,0.0,-0.032849816755076144,-0.03284938266144444,0.0,0.0,0.0,-1.1087666538017489,-1.7387217701984785,-1.6838945033124484,0.00017141583586242584,0.002869246247372557,-0.32226245151482774
6571,13.0,300.06665,14861.896999999999,0.0,-0.0328548312438145,-0.03285438487163139,0.0,0.0,0.0,-1.0947493519183489,-1.7396603437661085,-1.6832357894224383,-0.008642426650016102,0.003500031519576216,-0.3178978868415787
6572,13.0,299.8925,14907.873,0.0,-0.03285981274249539,-0.03285938708181857,0.0,0.0,0.0,-1.0969338178089387,-1.7452388935166685,-1.6894484310855784,-0.0006439960270074594,-0.003129659325098327,-0.32256683184486773
6573,13.0,299.88754,14966.735,0.0,-0.03286482723123385,-0.032864389292005525,0.0,0.0,0.0,-1.102602040193349,-1.7566910514469085,-1.6902206289867885,-0.0033527564281412964,0.005145210749817765,-0.3163419197230167
6574,13.0,299.63911,14990.97,0.0,-0.03286980872991474,-0.0328693915021927,0.0,0.0,0.0,-1.114418360209529,-1.7533970766968183,-1.6890652198977585,-0.0023915980224073477,-0.0066975567151723835,-0.31847102162814267
6575,13.0,299.9692,14997.178999999998,0.0,-0.03287482321865298,-0.03287439371237977,0.0,0.0,0.0,-1.115042420946119,-1.7548898980691485,-1.6888355161000883,-0.005396536291371666,-0.008155336555319052,-0.3140108061454537
6576,13.0,300.12072,14946.428999999998,0.0,-0.03287983770739156,-0.03287939592256672,0.0,0.0,0.0,-1.108095882235549,-1.7523619403946584,-1.6828834823626684,-0.0042136626530811265,0.0018178176942046384,-0.32079328953233266
6577,13.0,300.16825,14944.668,0.0,-0.032884819206072446,-0.0328843981327539,0.0,0.0,0.0,-1.104196591875719,-1.7516411142735182,-1.6869680961657882,0.004947949903124635,0.013202972029781887,-0.32088447190883174
6578,13.0,300.19518999999997,15015.072,0.0,-0.03288983369481069,-0.032889400342940855,0.0,0.0,0.0,-1.1199121009267188,-1.7489319874811484,-1.6953627719192783,0.0024063983639680277,0.0006733431848212983,-0.3180942344459567
6579,13.0,300.26597000000004,14937.848,0.0,-0.03289481519349158,-0.03289436964385062,0.0,0.0,0.0,-1.107251236952189,-1.7400487225294383,-1.6934330371038286,0.0015207001382314188,0.0031004860308691475,-0.3183233708235707
6580,13.0,300.28817999999995,14895.969,0.0,-0.03289982968223015,-0.032899371854037573,0.0,0.0,0.0,-1.1042233416783591,-1.7414001955128182,-1.6823789851378785,6.402253383503213e-05,-0.0002074686727055638,-0.3221973805934057
6581,13.0,300.47355,14976.366000000002,0.0,-0.03290481118091104,-0.03290437406422453,0.0,0.0,0.0,-1.1057669268806989,-1.7540027976065984,-1.6926713770036586,0.004608975593470475,0.008274689412423262,-0.3272966022516597
6582,13.0,299.98951,15005.921999999999,0.0,-0.032909825669649284,-0.032909376274411706,0.0,0.0,0.0,-1.116765554066179,-1.752049758038848,-1.6926101766976183,-0.006288837361384925,-0.005008795166329595,-0.3196111407731637
6583,13.0,300.0277,14958.688,0.0,-0.032914807168330396,-0.03291437848459888,0.0,0.0,0.0,-1.099748930561769,-1.7544442706751684,-1.6928744323236984,-0.0006971089456517964,-0.002082400498741928,-0.3284523355807217
6584,13.0,300.20264,14950.608999999999,0.0,-0.03291982165706864,-0.03291938069478584,0.0,0.0,0.0,-1.1080770357836889,-1.7511459389496484,-1.6853889458849383,-0.001026819950639239,-0.000986148659045295,-0.3169327965188317
6585,13.0,300.07052999999996,14966.618999999999,0.0,-0.03292483614580721,-0.032924382904973015,0.0,0.0,0.0,-1.1037317127298387,-1.7559955565782683,-1.6897510888904481,0.0015857342786747884,0.004473604670835405,-0.3194064845179657
6586,13.0,300.17792000000003,14992.675,0.0,-0.0329298176444881,-0.03292938511516008,0.0,0.0,0.0,-1.1168403319235591,-1.7531687914492884,-1.6873898108574086,0.0029042445137766174,-0.0039337684236327155,-0.31274988732351067
6587,13.0,300.04295,14998.286,0.0,-0.032934832133226344,-0.03293438732534715,0.0,0.0,0.0,-1.112506762570869,-1.7509682148821082,-1.6956296619956182,0.0014373889924842486,-0.004935645804510316,-0.3143665481230627
6588,13.0,299.77509,14981.548,0.0,-0.03293981363190723,-0.032939389535534325,0.0,0.0,0.0,-1.111309506252709,-1.7502403973352785,-1.6924667004834586,0.007196246395689223,0.001155338465498029,-0.3202999785886467
6589,13.0,299.83398,14962.622,0.0,-0.03294482812064581,-0.03294439174572139,0.0,0.0,0.0,-1.1027659840595292,-1.747989664888148,-1.6975077210559681,-0.0036490792920610866,0.0016540140618384787,-0.3201556411119017
6590,13.0,299.91077,14979.758,0.0,-0.0329498096193267,-0.03294939395590857,0.0,0.0,0.0,-1.1116399271103188,-1.7471781528830583,-1.6946544087743682,0.001103277979335059,-0.0037296060265334563,-0.3251784839776177
6591,13.0,299.6623,15023.827,0.0,-0.03295482410806494,-0.03295439616609552,0.0,0.0,0.0,-1.115918780957609,-1.7526781757508683,-1.698271407656338,-0.005531906403406655,-0.005329043398235635,-0.31796388995309266
6592,13.0,300.04307,14992.987,0.0,-0.032959838596803404,-0.03295939837628248,0.0,0.0,0.0,-1.1145440032219291,-1.7476899455085684,-1.6952597243841083,0.00876221388743818,-0.0009121594648806299,-0.3270230956521667
6593,13.0,300.16868999999997,14948.684,0.0,-0.032964820095484404,-0.03296436767719224,0.0,0.0,0.0,-1.105457075000119,-1.7533184484890587,-1.6852510425463285,0.0007706841663556053,0.003346943007017557,-0.3200394922529387
6594,13.0,300.00512000000003,15010.124,0.0,-0.032969834584222646,-0.032969369887379196,0.0,0.0,0.0,-1.1099670511952189,-1.7574890872256683,-1.6952467547828283,-0.0002649519112837177,-0.0013917576795307888,-0.3233722136868527
6595,13.0,299.93596,15085.643999999998,0.0,-0.032974816082903535,-0.03297437209756637,0.0,0.0,0.0,-1.1156993109859488,-1.7611163199336486,-1.7088433552247084,-0.0018601242296049684,0.001001063254687251,-0.3117583815706567
6596,13.0,299.97617,15055.111,0.0,-0.032979830571642,-0.03297937430775333,0.0,0.0,0.0,-1.116302498770479,-1.7627889931987282,-1.6972862245841085,7.835662937544722e-05,0.007050061662686914,-0.31513104532351266
6597,13.0,300.00128,15005.858999999999,0.0,-0.03298481207032289,-0.032984376517940284,0.0,0.0,0.0,-1.1129259441372388,-1.7512283161827786,-1.6972520780557385,-0.0005423830918590435,0.002708112022394847,-0.3129316643914507
6598,13.0,300.11685,15029.407,0.0,-0.032989826559061464,-0.03298937872812746,0.0,0.0,0.0,-1.1198782583733788,-1.7553959151690883,-1.6932900675147182,-0.002472377157479628,-0.006071355690396155,-0.3126188639530797
6599,13.0,300.11035,15016.011,0.0,-0.03299480805774235,-0.03299438093831453,0.0,0.0,0.0,-1.109536521227729,-1.7569138651438982,-1.6980421091587083,2.5904642625589178e-05,-0.0012276912100886888,-0.32370328302452667
6600,13.0,299.91354,15017.138,0.0,-0.032999822546480595,-0.032999383148501704,0.0,0.0,0.0,-1.1129537071899789,-1.7542266245536882,-1.6976546423204681,0.007456044531929303,-0.0016205219917080685,-0.32366669456341574
6601,13.0,300.00872000000004,15015.2,0.0,-0.03300483703521906,-0.03300438535868877,0.0,0.0,0.0,-1.104085438339749,-1.7577568892270983,-1.7024033402391283,0.0012740863109675289,0.002997455822275857,-0.3309451942717477
6602,13.0,299.79193,14982.678,0.0,-0.03300981853390006,-0.033009387568875836,0.0,0.0,0.0,-1.1121857649391889,-1.747884185552738,-1.6942901453634185,-0.0013295296339143586,0.002102256755651588,-0.3210562684632867
6603,13.0,299.95893,15028.153,0.0,-0.0330148330226383,-0.033014389779063014,0.0,0.0,0.0,-1.1116738709886689,-1.7626785489378283,-1.6938307377680786,-0.005590042033194194,-0.0020421449841940176,-0.3286114766414277
6604,13.0,300.11595,15066.628,0.0,-0.03301981452131919,-0.03301939198924997,0.0,0.0,0.0,-1.1246801519222889,-1.7588924386141684,-1.6963061077623784,-0.0027777650634190675,0.005277367035185576,-0.3143491100888417
6605,13.0,300.0893,15023.615,0.0,-0.033024829010057655,-0.033024394199437146,0.0,0.0,0.0,-1.110580067505719,-1.7610414407512582,-1.6951824134014786,-0.003840361963164216,-0.003512066701613997,-0.3253048767950917
6606,13.0,300.14565,15019.678999999998,0.0,-0.033029810508738544,-0.0330293964096241,0.0,0.0,0.0,-1.111524720573949,-1.7642302401409682,-1.689852312575438,-0.002432153661634878,-0.004212979722513726,-0.3169821012686977
6607,13.0,300.19072,15046.301000000001,0.0,-0.0330348249974769,-0.033034398619811056,0.0,0.0,0.0,-1.111517830473269,-1.7617286269690782,-1.7004533404216786,-0.0033595490541616767,-0.007309528668794313,-0.3233977273243707
6608,13.0,299.96839,15043.204,0.0,-0.033039806496157786,-0.03303936792072082,0.0,0.0,0.0,-1.116488126188799,-1.7633132488004681,-1.6929571135318586,0.005155570522815196,0.0017072513366675885,-0.3176656600511597
6609,13.0,300.18591000000004,15016.731000000002,0.0,-0.03304482098489625,-0.033044370130907996,0.0,0.0,0.0,-1.112602818680349,-1.7552574038804185,-1.6968511349911681,0.00901250794039028,0.005250240303508375,-0.3205569185490047
6610,13.0,299.99394,15032.063,0.0,-0.0330498354736346,-0.03304937234109495,0.0,0.0,0.0,-1.117987736336799,-1.7555829611375484,-1.6958012052375484,-0.0007219987048182244,0.0019579749063370782,-0.3214998997545697
6611,13.0,299.75059,15055.719,0.0,-0.03305481697231549,-0.033054374551281906,0.0,0.0,0.0,-1.1151971442363888,-1.7606400923866483,-1.7007251954235085,0.002184366693405208,0.004778484634499715,-0.3269758883300077
6612,13.0,299.97598999999997,15066.71,0.0,-0.03305983146105396,-0.03305937676146897,0.0,0.0,0.0,-1.1121062248063387,-1.7599435842679085,-1.7078538151770486,-0.007867656208127212,0.007660011270434253,-0.3318243812510167
6613,13.0,300.06487000000004,15081.206,0.0,-0.033064812959734846,-0.03306437897165615,0.0,0.0,0.0,-1.116752077839849,-1.7571310046403283,-1.7104268624809882,0.005156328737865025,0.0018522465140524982,-0.3226284273184467
6614,13.0,300.16792999999996,15103.908000000001,0.0,-0.03306982744847331,-0.03306938118184333,0.0,0.0,0.0,-1.1244217731467887,-1.7647707077443084,-1.7020184065261381,-0.010662224099279591,-0.009989895471650922,-0.32422138819815965
6615,13.0,300.30985,15036.848999999998,0.0,-0.0330748089471542,-0.03307438339203028,0.0,0.0,0.0,-1.120347697144709,-1.7561808800215586,-1.6942979473891882,0.0027350890970322776,-0.003903103219956296,-0.31900542999588466
6616,13.0,300.04058,15035.448,0.0,-0.03307982343589255,-0.03307938560221746,0.0,0.0,0.0,-1.1146301294804288,-1.763274947946688,-1.6924957807613286,-0.0031120219845826567,0.001106547129457699,-0.3213891616511407
6617,13.0,299.77725,15089.233,0.0,-0.033084837924631016,-0.033084387812404414,0.0,0.0,0.0,-1.117953691133439,-1.763512149795098,-1.7052843142484586,0.003909528340165406,0.003001686749393417,-0.3174321970956187
6618,13.0,299.74751000000003,15085.845,0.0,-0.033089819423311906,-0.03308939002259159,0.0,0.0,0.0,-1.1135222418210888,-1.7649718378891583,-1.7072261067400982,-0.001065763204982639,-0.0028037586775094374,-0.3228074280811127
6619,13.0,299.88678,15062.442,0.0,-0.03309483391205026,-0.03309439223277877,0.0,0.0,0.0,-1.109002335775009,-1.7671042227246083,-1.7024995989986285,0.0024226099602679876,-0.0005231169822051265,-0.3259871994124317
6620,13.0,299.78603,15036.541000000001,0.0,-0.03309981541073115,-0.033099394442965724,0.0,0.0,0.0,-1.117682241431649,-1.7541783938489284,-1.6988725689406683,0.0031671971002280174,0.004002186920735095,-0.3203954166155657
6621,13.0,299.72443,15065.056,0.0,-0.03310482989946961,-0.0331043966531529,0.0,0.0,0.0,-1.1181877519065389,-1.7555370609080183,-1.7056760367371184,0.003074002510355427,-0.0034404921331001367,-0.3177874020506747
6622,13.0,300.00232,15105.809,0.0,-0.0331098113981505,-0.03310936595406244,0.0,0.0,0.0,-1.1235498714357388,-1.7618620720072482,-1.7063766991812683,0.00095978789378119,0.002316311006852098,-0.3222559464491857
6623,13.0,300.18154,15127.78,0.0,-0.033114825886888855,-0.0331143681642494,0.0,0.0,0.0,-1.113119576231349,-1.7665791565227882,-1.7187686465792582,-0.0024421933489257174,0.0008148164872436262,-0.3227677289421947
6624,13.0,300.16555,15110.742,0.0,-0.033119807385569966,-0.033119370374436574,0.0,0.0,0.0,-1.113315640125699,-1.7683180963444085,-1.7116546176271583,0.0037197003922308457,0.007773531150687793,-0.3273751899294157
6625,13.0,299.93613999999997,15113.681,0.0,-0.03312482187430821,-0.03312437258462353,0.0,0.0,0.0,-1.119194111905859,-1.7644247841601683,-1.7105626379943881,-0.010130861054713142,-0.0006285134641544494,-0.3186136669772207
6626,13.0,300.02192,15158.95,0.0,-0.03312983636304656,-0.033129374794810595,0.0,0.0,0.0,-1.132949387313399,-1.771651993148438,-1.7033410018816686,-0.002411165807013538,-0.0063878129483780546,-0.3199232420689657
6627,13.0,299.8728,15130.457,0.0,-0.03313481786172756,-0.03313437700499777,0.0,0.0,0.0,-1.125919559444609,-1.7707319620576383,-1.7026294976614484,-0.003327174598891567,-0.006702816800416514,-0.31988019920471766
6628,13.0,299.87757999999997,15049.825,0.0,-0.033139832350465914,-0.03313937921518473,0.0,0.0,0.0,-1.114358375803609,-1.7603608406590883,-1.7000517894070486,0.002033763379366818,0.005955411609278365,-0.32384424637843867
6629,13.0,300.05343,15076.436000000002,0.0,-0.033144813849146804,-0.033144381425371905,0.0,0.0,0.0,-1.1071416032913688,-1.7669567948350584,-1.7087616872666485,0.001072833360205409,-0.002361034853015998,-0.3221840664870917
6630,13.0,300.36159,15152.25,0.0,-0.03314982833788527,-0.03314938363555886,0.0,0.0,0.0,-1.119011220262809,-1.7680469506176482,-1.7188473761120284,0.0019380886572244582,0.0026531158467171475,-0.3259183288031347
6631,13.0,300.09819,15125.264,0.0,-0.03315480983656616,-0.03315438584574604,0.0,0.0,0.0,-1.1201136363716089,-1.7638510819535482,-1.7137378598327586,0.005170736141036926,0.0009000564254836533,-0.3214941039639977
6632,13.0,300.2507,15112.207,0.0,-0.03315982432530451,-0.033159388055933214,0.0,0.0,0.0,-1.1249463327235592,-1.7649913936160884,-1.7037958498515586,0.0073457564128697125,0.0018628816884271081,-0.3224670976375247
6633,13.0,300.12223,15159.111,0.0,-0.0331648058239854,-0.03316439026612017,0.0,0.0,0.0,-1.133138257132039,-1.760550115777768,-1.7143028480885183,-0.0012926466209992888,-0.004362931415412806,-0.31840189770632066
6634,13.0,299.88356,15209.171,0.0,-0.03316982031272386,-0.03316939247630735,0.0,0.0,0.0,-1.135198093260329,-1.7758073318085383,-1.7122027859312583,-0.0069856015284251935,-0.003175953303617187,-0.3229373267439327
6635,13.0,300.01426000000004,15177.163,0.0,-0.033174834801462216,-0.0331743946864943,0.0,0.0,0.0,-1.121279785911699,-1.7794781342708181,-1.7127205567323585,-0.007535604119181223,-0.0019010188009909482,-0.3269602640134657
6636,13.0,299.96293,15111.011999999999,0.0,-0.033179816300143106,-0.03317936398740384,0.0,0.0,0.0,-1.115965289137199,-1.7677334510367084,-1.7096713832064283,-0.004002241332265466,0.0037543708722275566,-0.3213137454461977
6637,13.0,299.76332,15088.957,0.0,-0.03318483078888157,-0.03318436619759102,0.0,0.0,0.0,-1.116749240739569,-1.771199880953818,-1.6987172377003383,-0.0002035548016767948,-0.008174429328278362,-0.3245207833377077
6638,13.0,299.93211,15112.282,0.0,-0.03318981228756246,-0.033189368407777975,0.0,0.0,0.0,-1.126425880519579,-1.7630339970729085,-1.7042965980509786,0.0004296618452018225,-0.006363738227327063,-0.3176958650366407
6639,13.0,300.12748,15136.822,0.0,-0.03319482677630081,-0.03319437061796515,0.0,0.0,0.0,-1.1256481097428188,-1.7728335440900485,-1.7027342677217885,0.005944979388898785,-0.003619511944868017,-0.32579450964091466
6640,13.0,299.88456,15134.673999999999,0.0,-0.03319980827498181,-0.03319937282815233,0.0,0.0,0.0,-1.117311087920019,-1.7728253367642381,-1.710426659830968,0.006344347356188333,0.005977460438079415,-0.31964563180656774
6641,13.0,300.07383,15156.491000000002,0.0,-0.033204822763720165,-0.033204375038339395,0.0,0.0,0.0,-1.1148570975028291,-1.7756632476443184,-1.7166743599475682,0.005431872881984115,0.001074039330474429,-0.33044894490277166
6642,13.0,300.22458,15180.198,0.0,-0.03320983725245863,-0.03320937724852635,0.0,0.0,0.0,-1.1202208382321888,-1.7763621875632984,-1.7178181166604483,-0.004271359950875406,0.003204011921411357,-0.3289146613363497
6643,13.0,299.94376,15171.911,0.0,-0.03321481875113952,-0.033214379458713306,0.0,0.0,0.0,-1.1280699801318388,-1.7733450327405282,-1.7104672911599783,-0.00035569921845477967,0.004797316394233265,-0.3296674858956477
6644,13.0,300.01013,15132.69,0.0,-0.03321983323987798,-0.03321938166890048,0.0,0.0,0.0,-1.1225956938165689,-1.769853980845988,-1.7075103233931483,-0.003990918465047986,0.005064822121334025,-0.32148028323263367
6645,13.0,299.76905,15079.49,0.0,-0.03322481473855876,-0.03322438387908766,0.0,0.0,0.0,-1.124580954737499,-1.7667011518348283,-1.6925063185623686,-0.0026752219241488475,-0.0069458733092293235,-0.3266835555436567
6646,13.0,299.7131,15133.242,0.0,-0.033229829227297225,-0.033229386089274615,0.0,0.0,0.0,-1.1182672920393888,-1.7704848303582483,-1.7113756698746283,-0.005204971531440695,-0.004598598899196376,-0.3241047023166437
6647,13.0,299.77235,15172.901000000002,0.0,-0.033234810725978114,-0.03323438829946179,0.0,0.0,0.0,-1.1223011420124989,-1.7790105193496684,-1.7108712739748484,0.002255514177001918,-0.0025019685187000675,-0.32785426470919665
6648,13.0,300.03247999999996,15153.128999999999,0.0,-0.03323982521471647,-0.03323939050964886,0.0,0.0,0.0,-1.114389685231699,-1.7748076592598785,-1.7169754978772882,0.0016748946132742284,0.003290846239081237,-0.3204008679011037
6649,13.0,299.98795,15150.792,0.0,-0.03324480671339736,-0.033244392719835925,0.0,0.0,0.0,-1.121407759399329,-1.7729044715970486,-1.7111503230523881,-0.0005544740735798304,-0.0037367198528355365,-0.3226571934887857
6650,13.0,300.11712,15172.083,0.0,-0.03324982120213582,-0.0332493949300231,0.0,0.0,0.0,-1.1260320302057092,-1.7754699195252381,-1.7104324353565383,-0.0019122809745274383,-0.0018581620707863182,-0.32523954242864367
6651,13.0,300.00423,15185.764,0.0,-0.03325483569087406,-0.03325436423093253,0.0,0.0,0.0,-1.1319775791424889,-1.7719741053552285,-1.7121414843002085,0.0018768306972537679,0.0008667399921255773,-0.3244612244968297
6652,13.0,300.20984,15210.792,0.0,-0.03325981718955506,-0.0332593664411196,0.0,0.0,0.0,-1.125175327246159,-1.7776561079409983,-1.7208695193365984,0.0005409355323686805,0.005193959833328925,-0.3250177419817537
6653,13.0,300.15991,15172.694,0.0,-0.03326483167829353,-0.033264368651306775,0.0,0.0,0.0,-1.1167360684882688,-1.7759442218970485,-1.7194399247705083,0.0024526337766311076,-0.0002521101011063298,-0.3303084273789037
6654,13.0,299.90771,15129.872,0.0,-0.03326981317697442,-0.03326937086149384,0.0,0.0,0.0,-1.116728874412559,-1.7710119230602681,-1.7113624976233281,-0.00042026448754687565,0.0026898593350934475,-0.32810185237113165
6655,13.0,299.72778,15164.533000000001,0.0,-0.03327482766571288,-0.03327437307168102,0.0,0.0,0.0,-1.1221706353996188,-1.7747406834282684,-1.7127281561081085,0.0037046326539687765,0.006701469481758544,-0.32699076284147566
6656,13.0,299.6517,15188.014,0.0,-0.03327980916439377,-0.03327937528186797,0.0,0.0,0.0,-1.135028677843609,-1.7658983537805986,-1.7158498783411982,-0.003297655482403257,0.011133839331824389,-0.3185199109454677
6657,13.0,299.80779,15209.177,0.0,-0.033284823653132234,-0.03328437749205493,0.0,0.0,0.0,-1.131832279078149,-1.7761878072210884,-1.7151900498760784,-0.004728947343735766,0.0014607316403379884,-0.3216660727709697
6658,13.0,300.07043,15215.86,0.0,-0.03328980515181301,-0.033289379702242106,0.0,0.0,0.0,-1.126081679460609,-1.779917884814218,-1.7192418343759586,-0.0036234170107534167,-0.004353430473200136,-0.3238437194883867
6659,13.0,299.86397999999997,15204.898000000001,0.0,-0.033294819640551476,-0.03329438191242906,0.0,0.0,0.0,-1.121269856060719,-1.7793065910288883,-1.7213329799323385,0.0012766369654442587,-0.004775644798444446,-0.3265834059037727
6660,13.0,299.94796,15207.622,0.0,-0.03329983412928994,-0.03329938412261624,0.0,0.0,0.0,-1.126742723825849,-1.7792382979721484,-1.7167562305556483,0.008536528740989792,-0.0017052693181469785,-0.3234792736924187
6661,13.0,300.14595,15220.115,0.0,-0.03330481562797072,-0.033304386332803304,0.0,0.0,0.0,-1.1310676805526887,-1.7723123282386084,-1.7231550062621583,0.003166017677111617,-0.0049923067501023155,-0.3231428341292147
6662,13.0,300.1182,15222.448999999999,0.0,-0.03330983011670918,-0.03330938854299048,0.0,0.0,0.0,-1.1337671814691088,-1.7790706050805984,-1.7144066048987583,0.003104523629867627,0.002179351308060228,-0.3261573241042217
6663,13.0,299.84446,15203.667,0.0,-0.03331481161539007,-0.03331439075317755,0.0,0.0,0.0,-1.1296677742145291,-1.7747097793002184,-1.7171574775952485,-0.0009269742959177401,0.006356217783759854,-0.3254494675843617
6664,13.0,299.85486000000003,15214.573999999999,0.0,-0.033319826104128314,-0.033319392963364614,0.0,0.0,0.0,-1.127416535142349,-1.7763076747079185,-1.7211263782369484,-0.0013747856390307787,0.008022359740020262,-0.32543752136568266
6665,13.0,300.1253,15247.162,0.0,-0.0333248076028092,-0.033324362264274154,0.0,0.0,0.0,-1.132368795006099,-1.777456700321318,-1.7249311323624483,-0.008429289288831082,-0.0037242128002261867,-0.3248638090265617
6666,13.0,300.17941,15243.091,0.0,-0.03332982209154778,-0.03332936447446133,0.0,0.0,0.0,-1.134258911742639,-1.7793723509603783,-1.7198877813147084,-0.002984871762658907,-0.0033912372351390563,-0.3252967201317867
6667,13.0,300.00879,15195.986,0.0,-0.03333483658028602,-0.03333436668464829,0.0,0.0,0.0,-1.125303199408779,-1.7797098645686882,-1.7141871349270983,-0.0005170180981307136,0.0006057503244304024,-0.3230532222903707
6668,13.0,300.11055,15188.083,0.0,-0.03333981807896713,-0.033339368894835464,0.0,0.0,0.0,-1.131541780274479,-1.776128532090238,-1.7091276732027683,0.004343351978430466,0.002266452617131458,-0.3221004530888397
6669,13.0,300.014,15261.957,0.0,-0.033344832567705485,-0.03334437110502242,0.0,0.0,0.0,-1.1343345002000988,-1.7842461852663882,-1.7206730501422085,-0.002042173557846838,-0.0007749630607328992,-0.32355511546240373
6670,13.0,299.98601,15265.368,0.0,-0.033349814066386485,-0.033349373315209596,0.0,0.0,0.0,-1.125093253988059,-1.7880889362706383,-1.7271087081523584,-0.00011063185402351389,-0.0004100828033870216,-0.3315248543889557
6671,13.0,300.04263,15198.766000000001,0.0,-0.03335482855512484,-0.03335437552539677,0.0,0.0,0.0,-1.1204584453806388,-1.7838176817990983,-1.7157690209832184,0.005619778694478974,0.006909054941670634,-0.3294670954233707
6672,13.0,299.77545,15182.6,0.0,-0.03335981005380573,-0.03335937773558373,0.0,0.0,0.0,-1.1173173700706387,-1.7790252114761185,-1.7187887089312384,0.005057145535926405,-0.0004092455852268946,-0.32681743627936966
6673,13.0,300.00095,15221.402,0.0,-0.03336482454254419,-0.033364379945770684,0.0,0.0,0.0,-1.1308643212576188,-1.7794306128411284,-1.7166311954933087,0.002794115272332708,-0.0012004650785766788,-0.32481446374669165
6674,13.0,300.00664,15260.271999999999,0.0,-0.03336980604122486,-0.03336938215595775,0.0,0.0,0.0,-1.132462824615379,-1.7809300203391083,-1.7253487940536683,-0.0006896059705163104,0.0014429674409097985,-0.3243565253639967
6675,13.0,299.93405,15236.51,0.0,-0.033374820529963434,-0.03337438436614493,0.0,0.0,0.0,-1.128624835886599,-1.7824564816147586,-1.7204372668439385,0.001081568791967529,0.006690238009700083,-0.3301864624643667
6676,13.0,300.06272,15225.999,0.0,-0.0333798350187019,-0.033379386576332104,0.0,0.0,0.0,-1.1282199411466387,-1.7785070353749783,-1.7215965262833484,0.0015796220500965586,0.0043117484038364354,-0.3239641239977697
6677,13.0,300.11386,15254.582,0.0,-0.033384816517382565,-0.03338438878651906,0.0,0.0,0.0,-1.135205692636079,-1.7847818905942583,-1.7170245391821284,-0.003790590814277186,-0.006246396063721294,-0.3274934868785907
6678,13.0,300.34862000000004,15294.753999999999,0.0,-0.03338983100612114,-0.033389390996706236,0.0,0.0,0.0,-1.1349663629624591,-1.792152575796688,-1.7221043672334682,0.0005698438211667065,-0.008244733179841812,-0.3241404092501677
6679,13.0,300.30941,15292.327,0.0,-0.03339481250480203,-0.03339436029761578,0.0,0.0,0.0,-1.136497789163599,-1.7901441114484682,-1.7218437593077485,-0.0032138858409858375,0.0017774365366443282,-0.3274575165000407
6680,13.0,300.13522,15258.358,0.0,-0.03339982699354027,-0.03339936250780273,0.0,0.0,0.0,-1.1280995670347589,-1.7869704094852485,-1.7230897529557183,0.0008948237993172331,-0.0014970271708450785,-0.3206203885352687
6681,13.0,300.31417999999996,15250.748,0.0,-0.03340480849222116,-0.03340436471798991,0.0,0.0,0.0,-1.126597423761509,-1.7860723659216182,-1.7231766898142984,-0.005383628599672775,0.0008637973922451651,-0.3293487782091937
6682,13.0,300.14555,15305.835,0.0,-0.033409822980959625,-0.033409366928176865,0.0,0.0,0.0,-1.135353627150679,-1.7853003706704285,-1.7319377568039485,-7.473823220833923e-05,0.004567347631662115,-0.3214402091911787
6683,13.0,299.99203,15278.684,0.0,-0.033414804479640736,-0.03341436913836404,0.0,0.0,0.0,-1.134383338854919,-1.7878036050424782,-1.7221513820381085,0.0026694079964000575,0.005616978881802655,-0.33043887319677767
6684,13.0,300.07839,15218.819,0.0,-0.03341981896837909,-0.03341937134855122,0.0,0.0,0.0,-1.127318148557639,-1.7757760223804482,-1.7230467911514784,0.007087075992814943,-0.0025490213202188174,-0.3232007920349347
6685,13.0,300.06703999999996,15223.931,0.0,-0.03342483345711733,-0.033424373558738174,0.0,0.0,0.0,-1.1309374779148387,-1.7804838863200785,-1.7162735182080082,0.006495605837741384,-0.0020990062493307883,-0.3302013977708407
6686,13.0,299.86159,15281.283000000001,0.0,-0.03342981495579844,-0.03342937576892535,0.0,0.0,0.0,-1.134596222700929,-1.7837739093947782,-1.7267584275927883,0.003750969492966867,-0.0032215534084675673,-0.3265032274233597
6687,13.0,300.08423,15315.745,0.0,-0.033434829444536796,-0.033434377979112306,0.0,0.0,0.0,-1.136495053388329,-1.7883355613449783,-1.7307734311140381,-0.0011424958244555588,0.008492795245473632,-0.3286424415644837
6688,13.0,300.04609,15297.128999999999,0.0,-0.033439810943217685,-0.03343938018929937,0.0,0.0,0.0,-1.135182691858809,-1.7862798795420982,-1.7284826752879585,-0.0073854050919327325,0.0013844837597129086,-0.3292993518693157
6689,13.0,299.99618,15271.392,0.0,-0.03344482543195615,-0.03344438239948655,0.0,0.0,0.0,-1.128712076720209,-1.7888461380703684,-1.7245635252261682,-0.002979080734362377,-0.0003693000542820776,-0.3317405246727407
6690,13.0,299.94473,15303.71,0.0,-0.033449806930636816,-0.033449384609673505,0.0,0.0,0.0,-1.1339380154359688,-1.7898666835710884,-1.7281411086792482,-0.0025521193323995678,0.0005224885340956036,-0.3323893897717787
6691,13.0,300.20429,15319.633,0.0,-0.03345482141937539,-0.03345438681986068,0.0,0.0,0.0,-1.139057056266179,-1.7889695519325484,-1.7287592925652586,0.0032738739959312074,0.004997480202462896,-0.3239142214303447
6692,13.0,300.23019,15290.719,0.0,-0.033459835908113855,-0.03345938903004764,0.0,0.0,0.0,-1.131078522328759,-1.7849396536348283,-1.7319785907829783,0.0023676374946426278,-0.005610676972805704,-0.3232314327179587
6693,13.0,300.12367,15243.781,0.0,-0.03346481740679452,-0.03346435833095718,0.0,0.0,0.0,-1.125608896963949,-1.781701407640238,-1.7264184821842383,0.0011321793172373988,-0.0038106787001597063,-0.3209612965314137
6694,13.0,300.01317,15237.139,0.0,-0.03346983189553299,-0.033469360541144355,0.0,0.0,0.0,-1.1276393488393388,-1.7788360376824481,-1.7252341954673585,0.003180057777122267,-0.003215522138572327,-0.3274560371548947
6695,13.0,299.96904,15317.778,0.0,-0.033474813394213876,-0.03347436275133131,0.0,0.0,0.0,-1.134806269446659,-1.7866811265816982,-1.7347345297299683,0.0003278477697760557,0.0028344360401870573,-0.3270779530125807
6696,13.0,299.99366000000003,15363.155,0.0,-0.03347982788295223,-0.03347936496151849,0.0,0.0,0.0,-1.146893532539579,-1.7919010871218681,-1.7312207810331883,-0.0035073061486691664,-0.005291357587266335,-0.3292979029216727
6697,13.0,299.96994,15338.598,0.0,-0.03348480938163334,-0.033484367171705665,0.0,0.0,0.0,-1.1422646007827388,-1.7902532384842382,-1.7300330492659681,-0.00929152722837734,-0.008164414161639941,-0.3298384515850207
6698,13.0,299.93344,15318.24,0.0,-0.03348982387037158,-0.03348936938189262,0.0,0.0,0.0,-1.138481732859399,-1.7897752884120681,-1.7281053409507183,0.00034982874121790866,-0.0013404619945432987,-0.3296853292299087
6699,13.0,300.08932999999996,15321.284,0.0,-0.033494805369052694,-0.0334943715920798,0.0,0.0,0.0,-1.1387182254327388,-1.789599793494748,-1.7289697446110284,-0.004777267214504565,0.005470716736492704,-0.33092383495963973
6700,13.0,300.13347000000005,15315.052,0.0,-0.03349981985779105,-0.03349937380226675,0.0,0.0,0.0,-1.134504320916859,-1.7887816953640086,-1.7321073748706883,6.994758370903903e-05,0.002149908387979438,-0.32890004013740665
6701,13.0,300.17285,15312.302,0.0,-0.03350483434652951,-0.03350437601245393,0.0,0.0,0.0,-1.130926129513719,-1.7937739786067084,-1.7298573516986284,-0.004495391473160595,-0.0018959858864192381,-0.3332124021655037
6702,13.0,299.99902000000003,15315.038,0.0,-0.0335098158452104,-0.033509378222641106,0.0,0.0,0.0,-1.1315165503469888,-1.7949043604182684,-1.7289682247358784,0.006603661158880614,0.0005415818238124645,-0.32675893121859567
6703,13.0,299.85609,15294.563999999998,0.0,-0.03351483033394864,-0.03351438043282817,0.0,0.0,0.0,-1.1306832534647488,-1.7923554284667085,-1.7261268688054585,0.004762146483262265,0.002064820710831938,-0.32675007541272166
6704,13.0,299.83357,15315.323999999999,0.0,-0.03351981183262953,-0.03351938264301513,0.0,0.0,0.0,-1.132104640705029,-1.7907108222293981,-1.7326605081002786,0.003371783238519097,-0.0073313213479700825,-0.31804249789585065
6705,13.0,299.90569,15369.701000000001,0.0,-0.033524826321368106,-0.03352438485320208,0.0,0.0,0.0,-1.1420220287087988,-1.7933549996903584,-1.7366281928418585,-0.005802523010964434,-0.007908349649368342,-0.3222924639827897
6706,13.0,299.79791,15375.725,0.0,-0.033529807820048774,-0.03352938706338926,0.0,0.0,0.0,-1.140050547989229,-1.7956364336155182,-1.7381495878670083,0.0024670466513535476,-0.0014374101694113385,-0.3241503188361457
6707,13.0,299.93784,15351.268999999998,0.0,-0.03353482230878724,-0.03353438927357644,0.0,0.0,0.0,-1.1363958562035388,-1.7962238146984881,-1.7337828852360484,0.005437455890035115,0.007653591824425703,-0.3355192990656767
6708,13.0,300.09282,15337.684,0.0,-0.03353980380746813,-0.03353935857448598,0.0,0.0,0.0,-1.138194780431079,-1.7963146019074483,-1.7277634703669784,0.0025314313998078277,0.005478543586890155,-0.33519018530069566
6709,13.0,300.1143,15338.327,0.0,-0.03354481829620648,-0.03354436078467293,0.0,0.0,0.0,-1.1395768535674788,-1.7955932691612584,-1.7272981859210583,-0.001046618046993159,0.0022949675014456578,-0.3327730366571417
6710,13.0,299.95462000000003,15345.053999999998,0.0,-0.033549832784944944,-0.03354936299486011,0.0,0.0,0.0,-1.1371579216037488,-1.7973065737553482,-1.7300486533175083,0.0019046591046252182,0.0024758883730511575,-0.3281206380279857
6711,13.0,299.98037,15314.98,0.0,-0.03355481428362583,-0.033554365205047065,0.0,0.0,0.0,-1.135942832083829,-1.7945234797056782,-1.7249050918348785,-0.003497450872896527,0.005595534861986296,-0.3293565194399577
6712,13.0,300.00912999999997,15326.223,0.0,-0.033559828772364186,-0.03355936741523424,0.0,0.0,0.0,-1.1309789198439288,-1.7949619130239483,-1.7328482633438085,-0.00017312768137637183,-0.0034633869244096766,-0.3242516539786467
6713,13.0,299.94894,15373.572,0.0,-0.03356481027104519,-0.03356436962542131,0.0,0.0,0.0,-1.134656713731899,-1.8043717640526282,-1.7341535321226282,-0.00820921116446106,0.0007527279965634694,-0.3292575857001937
6714,13.0,300.08367999999996,15437.981000000002,0.0,-0.03356982475978376,-0.033569371835608486,0.0,0.0,0.0,-1.1440653488604589,-1.8035960197760683,-1.7450993689778984,0.0015165526015970886,0.0034823598298821565,-0.3233922659063317
6715,13.0,300.17205,15440.846000000001,0.0,-0.03357480625846465,-0.03357437404579555,0.0,0.0,0.0,-1.1454796433500387,-1.8057918340677785,-1.7423599460075385,0.006686334058389793,0.0038929608904303263,-0.32538724389572066
6716,13.0,300.02194,15371.612,0.0,-0.03357982074720289,-0.03357937625598262,0.0,0.0,0.0,-1.139938685178189,-1.795532778130288,-1.7371147555398785,0.0013395001162233688,-0.0028812462696318672,-0.3226159744747177
6717,13.0,300.03006,15328.157,0.0,-0.03358483523594147,-0.033584378466169795,0.0,0.0,0.0,-1.1350375944444888,-1.7889486789804883,-1.7353906091697182,0.004229714865140356,-0.002460104976243458,-0.3302723658078447
6718,13.0,299.78747000000004,15364.208999999999,0.0,-0.03358981673462236,-0.03358938067635675,0.0,0.0,0.0,-1.138301576991619,-1.7986610864890284,-1.7333732282206182,0.002000896889848148,-0.0006745793600757994,-0.3378846503641187
6719,13.0,299.73731000000004,15379.281,0.0,-0.0335948312233606,-0.033594382886543706,0.0,0.0,0.0,-1.1386376720497888,-1.797819784930998,-1.7384598450476283,0.0005842855937819985,0.0071537850356736135,-0.3396538863637287
6720,13.0,299.97078,15333.996000000001,0.0,-0.03359981272204149,-0.03359938509673088,0.0,0.0,0.0,-1.1396754428022091,-1.7936129731658181,-1.727863376826838,-0.002531648944604297,0.0013721325449689388,-0.3353200738310147
6721,13.0,300.11925,15314.216,0.0,-0.03360482721077995,-0.03360438730691784,0.0,0.0,0.0,-1.1353047884958591,-1.7888299260687683,-1.7310043508118285,0.0014149650584961786,0.005922390396469425,-0.3295288226194627
6722,13.0,300.08024,15359.826000000001,0.0,-0.03360980870946073,-0.0336093566078276,0.0,0.0,0.0,-1.141283470710909,-1.7914801830303282,-1.7362399154035384,-0.0011613482544911488,0.005695248601677275,-0.3263327379615337
6723,13.0,300.02187999999995,15440.505,0.0,-0.033614823198199195,-0.033614358818014556,0.0,0.0,0.0,-1.143844359013649,-1.8018523176789785,-1.7478313952225284,0.0023792872363423674,0.0004154214661764066,-0.32336629630626873
6724,13.0,300.11237,15459.095,0.0,-0.033619804696880085,-0.03361936102820151,0.0,0.0,0.0,-1.1464215606429988,-1.8033868849554284,-1.7493705221244282,-0.0013068670795277387,-0.009366283402205201,-0.3268240122725187
6725,13.0,300.30492000000004,15442.827,0.0,-0.03362481918561844,-0.03362436323838869,0.0,0.0,0.0,-1.1457976012314188,-1.8029560510129083,-1.745480047040468,0.004542544383789226,-0.005060937421775635,-0.32850247119566967
6726,13.0,300.221,15407.319,0.0,-0.0336298336743569,-0.033629365448575754,0.0,0.0,0.0,-1.142879846243459,-1.8030666979238283,-1.7374937110772783,0.0015600149513864884,0.00015950498974441683,-0.33590618835135966
6727,13.0,300.18874,15395.458,0.0,-0.03363481517303801,-0.03363436765876293,0.0,0.0,0.0,-1.1444231274707688,-1.7971773843675982,-1.7382343969003784,0.00034484950863649674,-0.0004930193809697244,-0.3307937741768037
6728,13.0,299.9547,15360.719,0.0,-0.033639829661776255,-0.03363936986895011,0.0,0.0,0.0,-1.134025661569619,-1.795628023639688,-1.7396211309872383,-0.005777033184823785,-0.0037763270899694662,-0.32990659265424566
6729,13.0,299.96024,15352.238000000001,0.0,-0.033644811160457144,-0.033644372079137064,0.0,0.0,0.0,-1.1360839778227592,-1.7926027628161183,-1.7380102659782584,0.0006162424684208965,-0.005223105465830375,-0.3270426311140947
6730,13.0,300.20608,15388.521,0.0,-0.03364982564919572,-0.03364937428932424,0.0,0.0,0.0,-1.1383162691180688,-1.7979434014431983,-1.7414664620693585,0.004340252041074527,0.002211232310531638,-0.3349733801767987
6731,13.0,300.12485,15429.508999999998,0.0,-0.03365480714787661,-0.033654376499511196,0.0,0.0,0.0,-1.147008536425929,-1.8029524033125484,-1.7402246227467983,-0.0011737393912890587,0.0014268037713395687,-0.3299618654472007
6732,13.0,299.75572,15446.783000000001,0.0,-0.03365982163661485,-0.03365937870969837,0.0,0.0,0.0,-1.1441527923440888,-1.8067794489402484,-1.7445041858691583,-0.0046732246677363655,-0.0027236283264761873,-0.3330388830858787
6733,13.0,299.74188,15462.671,0.0,-0.03366480313529574,-0.03366438091988555,0.0,0.0,0.0,-1.148982347620729,-1.8081590902764082,-1.7431244432079882,-0.005629624141725645,0.0024659163708669976,-0.3219415856056607
6734,13.0,299.98607999999996,15403.76,0.0,-0.033669817624034204,-0.033669383130072505,0.0,0.0,0.0,-1.137736994035899,-1.8024006886330983,-1.7422206241187885,-0.0026697032574791975,0.012300856213999989,-0.3279073286169337
6735,13.0,300.0484,15394.26,0.0,-0.03367483211277256,-0.03367438534025946,0.0,0.0,0.0,-1.1391208910224788,-1.804552325220448,-1.7357975304098785,-0.0023886343671898577,0.0015847380511764685,-0.3251276694851027
6736,13.0,299.96341,15423.596000000001,0.0,-0.033679813611453446,-0.033679354641169224,0.0,0.0,0.0,-1.142826143988159,-1.8067919119164784,-1.7387698995782284,-0.0005091387309805804,-0.005542255841253065,-0.33409146755476066
6737,13.0,300.18592,15423.245,0.0,-0.03368482810019191,-0.03368435685135618,0.0,0.0,0.0,-1.1458217165837987,-1.8073564948721983,-1.735103150116348,0.0008790073502912712,-0.01067140313193549,-0.3345418065617057
6738,13.0,300.43813,15405.49,0.0,-0.03368980959887269,-0.033689359061543134,0.0,0.0,0.0,-1.142405847846679,-1.8029606106383582,-1.7375180290796783,0.008679912952040712,-0.0022190484204780278,-0.3401376018289677
6739,13.0,300.33609,15388.171,0.0,-0.03369482408761115,-0.03369436127173031,0.0,0.0,0.0,-1.141748451181799,-1.796397688415648,-1.7394736017726784,0.0026022736924744177,-0.003097967597745597,-0.33543774256512765
6740,13.0,300.02128999999996,15404.265,0.0,-0.033699805586292264,-0.03369936348191738,0.0,0.0,0.0,-1.138357711047159,-1.8018117876749782,-1.7423423154557984,0.003015358735642737,0.0005622691889841484,-0.33348567571747373
6741,13.0,300.0283,15451.743,0.0,-0.033704820075030506,-0.033704365692104554,0.0,0.0,0.0,-1.144374288815949,-1.8049898466136285,-1.7475798052226983,-0.004128829504358746,0.0018332726966549283,-0.3283055663037367
6742,13.0,299.9839,15480.003999999999,0.0,-0.03370983456376886,-0.03370936790229151,0.0,0.0,0.0,-1.1465742574330688,-1.8096823091517382,-1.7492782150403183,-0.004137187399133606,0.01038734555915119,-0.3298981826784157
6743,13.0,300.09017,15469.72,0.0,-0.03371481606244986,-0.03371437011247869,0.0,0.0,0.0,-1.1489485050673889,-1.809037679438118,-1.7444223152610783,-0.001111598181206199,0.0003462609558932957,-0.3304049901134337
6744,13.0,299.94954,15441.356000000002,0.0,-0.03371983055118821,-0.03371937232266564,0.0,0.0,0.0,-1.1388520757709488,-1.8108618335931481,-1.7440727439765782,-0.006856931127376414,-0.0035651012250980966,-0.32994002990754573
6745,13.0,299.95981,15442.469,0.0,-0.0337248120498691,-0.03372437453285282,0.0,0.0,0.0,-1.143876884341859,-1.8078865259995083,-1.7423616685327084,0.0001958570292095838,-0.003855211548679756,-0.3253262057096967
6746,13.0,299.72632999999996,15491.068000000001,0.0,-0.033729826538607566,-0.033729376743039996,0.0,0.0,0.0,-1.1425331120592388,-1.816799985804198,-1.7495647621685984,3.900499775149356e-05,0.0031608118007478373,-0.3309059713603767
6747,13.0,300.00372000000004,15482.173,0.0,-0.033734808037288455,-0.03373437895322695,0.0,0.0,0.0,-1.1497449196459888,-1.8064928004869583,-1.749956282007238,0.0029874345761368376,-0.002141868147110928,-0.3252140287911257
6748,13.0,299.84628,15432.023000000001,0.0,-0.03373982252602681,-0.03373938116341413,0.0,0.0,0.0,-1.1443164322352388,-1.8094528080040881,-1.7371804141463585,-0.000984297147137565,-0.007561524779264393,-0.3370095873127567
6749,13.0,299.90559,15437.127,0.0,-0.0337448040247077,-0.03374438337360108,0.0,0.0,0.0,-1.1469450056446588,-1.8034716939887985,-1.7420842406553283,0.006130136456522364,-0.0007465821280819193,-0.3296470486411307
6750,13.0,300.04602,15487.559,0.0,-0.03374981851344616,-0.03374938558378815,0.0,0.0,0.0,-1.1469846237235688,-1.8111765490742084,-1.749670038853988,-0.0015647872580324786,0.003366914369138577,-0.33910411712447064
6751,13.0,300.08296,15505.181,0.0,-0.033754833002184514,-0.0337543548846978,0.0,0.0,0.0,-1.148010336799799,-1.8109891991307183,-1.7541882223748986,-0.0016464094171879584,0.000999180980506485,-0.3277214276210867
6752,13.0,300.08544,15480.591,0.0,-0.033759814500865404,-0.03375935709488476,0.0,0.0,0.0,-1.139083704743809,-1.8110012568069085,-1.7556279494419884,-0.009400972120703711,0.004139466502583536,-0.3319418777326127
6753,13.0,300.04532,15491.676000000001,0.0,-0.03376482898960387,-0.033764359305071934,0.0,0.0,0.0,-1.150862027881239,-1.8107112646282881,-1.7475092830157384,0.005298239784595555,0.0023024482256089477,-0.3245971216002417
6754,13.0,300.12179,15504.545,0.0,-0.03376981048828476,-0.033769361515259,0.0,0.0,0.0,-1.151045122174309,-1.8125982402895184,-1.7493511690475183,0.0024947303666107176,0.004146299962582946,-0.3329772977448007
6755,13.0,300.08306,15522.508,0.0,-0.03377482497702311,-0.033774363725445955,0.0,0.0,0.0,-1.158658278125669,-1.811024764209228,-1.7487718939653483,0.0029898429702995273,-0.008339409040035592,-0.3267339343386287
6756,13.0,300.05041,15493.6,0.0,-0.03377980647570411,-0.03377936593563313,0.0,0.0,0.0,-1.148189276767459,-1.8131638364953382,-1.7483144115451983,-0.0002824114669368417,-0.012754569343777987,-0.3334254683965317
6757,13.0,300.00524,15446.336000000001,0.0,-0.033784820964442464,-0.03378436814582009,0.0,0.0,0.0,-1.142167936723199,-1.8058224342207985,-1.7473101793710883,0.004348530598366557,-0.0029825802975577574,-0.3289210853419837
6758,13.0,300.12523,15450.458999999999,0.0,-0.03378980246312335,-0.033789370356007264,0.0,0.0,0.0,-1.140580173816499,-1.8071632680781284,-1.7488101948191284,0.006117218530997464,0.0013201312326118087,-0.3371002124017007
6759,13.0,299.99802999999997,15494.321000000002,0.0,-0.03379481695186182,-0.03379437256619444,0.0,0.0,0.0,-1.153479354214549,-1.8091235017215883,-1.7472837335434785,0.0018915632523827585,-0.0015589682640331885,-0.3299711569506177
6760,13.0,300.10444,15503.598,0.0,-0.03379983144060017,-0.0337993747763814,0.0,0.0,0.0,-1.1546693151319887,-1.8093644525953683,-1.7486731020805986,-0.009054947414203731,0.003908802853093806,-0.3385578537305587
6761,13.0,300.04117,15503.788999999999,0.0,-0.03380481293928106,-0.033804376986568574,0.0,0.0,0.0,-1.152932503135579,-1.8107819894852681,-1.7490502337678182,-0.0009494723390181242,0.004041780681642696,-0.3324470335699677
6762,13.0,299.94409,15502.111,0.0,-0.03380982742801952,-0.03380937919675553,0.0,0.0,0.0,-1.1435813192876887,-1.817248855598498,-1.7514243800771283,-0.0028442822980338073,0.01093169289712409,-0.3393588988621157
6763,13.0,299.89806,15525.478000000001,0.0,-0.03381480892670041,-0.033814381406942706,0.0,0.0,0.0,-1.151213220365899,-1.8128241950618182,-1.7553203267116284,-0.0014818402743712485,-0.0027746632008879375,-0.32694370750683166
6764,13.0,300.07482000000005,15541.167,0.0,-0.033819823415438766,-0.03381938361712988,0.0,0.0,0.0,-1.1492948339515687,-1.8204842644928085,-1.7543476066156285,0.00018181283566852982,-0.002122246558924428,-0.3330815307825877
6765,13.0,300.13512000000003,15493.546999999999,0.0,-0.033824804914119655,-0.03382435291803931,0.0,0.0,0.0,-1.1516187230559187,-1.8104480222523083,-1.7475847701481884,-0.000991209134019725,0.002092451331783868,-0.3248728674824557
6766,13.0,300.00264,15456.497,0.0,-0.03382981940285812,-0.03382935512822638,0.0,0.0,0.0,-1.138155668977219,-1.8145435791565085,-1.7456898911361785,0.00930100405523763,0.002804008544984097,-0.3348929483838607
6767,13.0,300.08853,15486.162,0.0,-0.03383483389159647,-0.033834357338413557,0.0,0.0,0.0,-1.148856704608329,-1.8104793316803984,-1.7480705222461284,-0.002254978978299098,-0.006796328942870444,-0.3299695762804617
6768,13.0,300.28249,15534.118,0.0,-0.03383981539027736,-0.03383935954860062,0.0,0.0,0.0,-1.1437878196580689,-1.8178614666089583,-1.7603345974814986,0.0012146125830979288,-0.0004372181476900716,-0.3357273902387137
6769,13.0,300.15012,15559.118999999999,0.0,-0.033844829879015825,-0.03384436175878758,0.0,0.0,0.0,-1.1526473745574388,-1.8196438748598684,-1.7572924153812584,-0.00027343584423851676,0.002860582553717517,-0.3341634995043697
6770,13.0,300.15693,15579.32,0.0,-0.033849811377696715,-0.033849363968974755,0.0,0.0,0.0,-1.1535180603683688,-1.8205212481214583,-1.7616850572147782,0.004827054068768146,0.0062224660347845835,-0.33654575181447965
6771,13.0,300.03691000000003,15563.076000000001,0.0,-0.03385482586643496,-0.03385436617916171,0.0,0.0,0.0,-1.164746999301579,-1.8178957144623382,-1.7481437802283584,0.0002449301703677258,-0.002253260911429538,-0.3345589912834017
6772,13.0,299.95604,15528.571000000002,0.0,-0.03385980736511607,-0.03385936838934889,0.0,0.0,0.0,-1.1543932044797387,-1.8144016228174982,-1.7515029069598784,0.0007708482419442982,0.0034961791426960163,-0.33375330546638665
6773,13.0,300.17357000000004,15511.058,0.0,-0.03386482185385442,-0.03386437059953584,0.0,0.0,0.0,-1.155123960451859,-1.8126699783965983,-1.7471803820332785,-0.0027370064701965073,0.007476513095874393,-0.3309979238069517
6774,13.0,300.06349,15505.576000000001,0.0,-0.03386980335253531,-0.03386937280972302,0.0,0.0,0.0,-1.140493338282929,-1.816096283609748,-1.7567182065495883,0.0034892828611904065,0.006222875286499974,-0.3331348378703487
6775,13.0,299.75535,15526.545,0.0,-0.033874817841273774,-0.033874375019910086,0.0,0.0,0.0,-1.1493793390099092,-1.8142449743520381,-1.7560577701344087,-0.0025898015969935176,-0.001090913389689769,-0.33127642572943766
6776,13.0,299.95333,15558.339,0.0,-0.03387983233001213,-0.03387937723009726,0.0,0.0,0.0,-1.1538478732759188,-1.8175759327307783,-1.7579228595934786,-0.0012650941216300689,-0.004704097182383246,-0.3328443897291837
6777,13.0,299.99816,15566.431,0.0,-0.03388481382869302,-0.03388437944028433,0.0,0.0,0.0,-1.158533141738319,-1.8181270394601683,-1.7551463516694583,0.001958788343517358,-0.004795405505869675,-0.3300338669993067
6778,13.0,299.88892999999996,15553.461000000001,0.0,-0.03388982831743148,-0.033889381650471395,0.0,0.0,0.0,-1.154173531858059,-1.8195711235026883,-1.7541191187180785,0.00043270878957753255,-0.0017596680815657184,-0.33429561718490863
6779,13.0,300.0378,15584.108999999999,0.0,-0.03389480981611237,-0.033894350951380936,0.0,0.0,0.0,-1.1572486445865489,-1.8241324714778582,-1.7557990873838782,-0.0005814249759671775,-0.006991578386790063,-0.3336912540302627
6780,13.0,300.12752,15614.458,0.0,-0.03389982430485061,-0.033899353161568,0.0,0.0,0.0,-1.152363056579379,-1.8259316996804285,-1.7681103800739082,-0.0012964009152698088,-0.003505710989036737,-0.3353246334564647
6781,13.0,300.11903,15595.793,0.0,-0.03390480580353161,-0.03390435537175507,0.0,0.0,0.0,-1.159516602285379,-1.8229215362833482,-1.7582934051550485,0.0014232930623930887,0.003646142994596296,-0.33385927116184466
6782,13.0,299.96161,15534.336000000001,0.0,-0.033909820292270076,-0.033909357581942245,0.0,0.0,0.0,-1.146547304980409,-1.818153586612788,-1.7573492587118682,-0.00013664956320126186,0.004064543547789215,-0.33760429419394966
6783,13.0,299.86526000000003,15533.377,0.0,-0.033914801790950966,-0.0339143597921292,0.0,0.0,0.0,-1.1580249968131688,-1.8176984346678684,-1.7460354094202786,-0.0030932241687274572,0.001002622960698682,-0.3331756819818797
6784,13.0,299.98791,15581.401000000002,0.0,-0.03391981627968921,-0.03391936200231638,0.0,0.0,0.0,-1.152010749519609,-1.8231668441325584,-1.7611792427648585,-0.00020710709440737883,0.002111530932491878,-0.33425716434361363
6785,13.0,299.80266,15576.704,0.0,-0.03392483076842778,-0.03392436421250333,0.0,0.0,0.0,-1.156091107672309,-1.8170914978579682,-1.7617464601708381,-0.0011540780836986387,0.008342669374882362,-0.3294205061837727
6786,13.0,299.95921,15574.714,0.0,-0.03392981226710867,-0.03392936642269029,0.0,0.0,0.0,-1.138783580064189,-1.8276025490953283,-1.7679380262318982,-0.0037149626374132667,0.0031252915078922574,-0.3352377776578927
6787,13.0,300.04676,15576.713,0.0,-0.033934826755847136,-0.033934368632877465,0.0,0.0,0.0,-1.154791513094049,-1.8201788709126683,-1.7599613161446583,-0.0027213836735296574,-0.004905801840039945,-0.3256987068439597
6788,13.0,300.18185,15603.991000000002,0.0,-0.033939808254528026,-0.03393937084306453,0.0,0.0,0.0,-1.1542689800174788,-1.8292965006125084,-1.7596582530397482,0.00042486070145798663,-0.008956630439775601,-0.33550066539633766
6789,13.0,300.04352,15635.945,0.0,-0.03394482274326638,-0.03394437305325171,0.0,0.0,0.0,-1.173217060862509,-1.8248336405470584,-1.7548859463937583,0.004664153444891106,-0.004855648391890186,-0.3290645818211457
6790,13.0,300.33131000000003,15599.893,0.0,-0.03394980424194727,-0.033949375263438886,0.0,0.0,0.0,-1.161538542859929,-1.8191856831646482,-1.7612538179722181,0.0007364989622292884,-0.00869964316063793,-0.3366417167314507
6791,13.0,299.99618,15546.11,0.0,-0.03395481873068573,-0.03395437747362584,0.0,0.0,0.0,-1.1525186917947388,-1.8210957609281586,-1.7520146995853885,-0.0038806378440391365,0.0004581449134628826,-0.3314157678831897
6792,13.0,299.94352000000003,15568.813999999998,0.0,-0.033959833219423974,-0.03395937968381302,0.0,0.0,0.0,-1.145049822657619,-1.818571045653988,-1.7689097330777983,0.0027750287815240175,0.009302532340363462,-0.33735786163712866
6793,13.0,299.66177000000005,15617.252,0.0,-0.03396481471810486,-0.03396434898472256,0.0,0.0,0.0,-1.161434887374699,-1.8207282551168882,-1.7650915027259682,-0.0024385134272125377,0.009203851609149431,-0.3334318822696647
6794,13.0,299.7636,15600.973999999998,0.0,-0.03396982920684344,-0.033969351194909514,0.0,0.0,0.0,-1.1562796735159189,-1.8250798603213585,-1.7609469045169281,-0.0020427674237304483,0.004118830752371946,-0.3393808559917827
6795,13.0,299.88291,15562.862,0.0,-0.03397481070552433,-0.03397435340509669,0.0,0.0,0.0,-1.1603425024418887,-1.8177611548490586,-1.7526179886949285,-0.005439417846203745,0.0011646429385163087,-0.33420800144876167
6796,13.0,299.97579,15570.663,0.0,-0.03397982519426257,-0.033979355615283646,0.0,0.0,0.0,-1.151955730039179,-1.8236436796296183,-1.7574934442010983,0.002421080763217068,0.0019630184600348383,-0.33320640372491167
6797,13.0,299.9087,15613.312,0.0,-0.03398480669294346,-0.03398435782547082,0.0,0.0,0.0,-1.1505744675028589,-1.8293947858722084,-1.7660876288992784,-0.0032502597970506665,-0.0006342002188831885,-0.3369880962781357
6798,13.0,299.86478,15637.081,0.0,-0.033989821181682034,-0.033989360035658,0.0,0.0,0.0,-1.149547943826549,-1.829035386061738,-1.7746987348741283,-0.002341735883661338,-0.0023782844227183977,-0.3335021410315987
6799,13.0,299.99065,15645.811000000002,0.0,-0.03399480268036292,-0.033994362245844956,0.0,0.0,0.0,-1.158166243877109,-1.8332011611978682,-1.7645686656743682,-0.003792593503099837,-0.00876744681757963,-0.3351596560751827
6800,13.0,299.97039,15607.669,0.0,-0.03399981716910139,-0.03399936445603191,0.0,0.0,0.0,-1.1580189173125688,-1.8268666255476984,-1.7594559069947782,0.007160923889253164,-0.0005333357614511415,-0.33637245564987667
6801,13.0,299.88066000000003,15611.563,0.0,-0.03400483165783963,-0.03400436666621898,0.0,0.0,0.0,-1.168657942037559,-1.8215349035214985,-1.7553323843878184,0.0013703158888646485,-0.0023479567326502877,-0.3383532177403627
6802,13.0,299.98892,15645.7,0.0,-0.03400981315652052,-0.034009368876406154,0.0,0.0,0.0,-1.160291941261899,-1.8263707409487582,-1.7692395459853483,0.0029458879783115072,-0.005138767188456835,-0.33706367460309467
6803,13.0,300.1861,15639.518,0.0,-0.034014827645259094,-0.03401437108659333,0.0,0.0,0.0,-1.159019096486279,-1.819561092326698,-1.7754426630975484,-0.005175377029144945,0.0039967762665261055,-0.3325255401877157
6804,13.0,300.15455,15614.251,0.0,-0.03401980914393998,-0.034019373296780286,0.0,0.0,0.0,-1.148850422457709,-1.8244181066810483,-1.7730737856887584,0.005471900212609505,0.005511970910339175,-0.33308942400086666
6805,13.0,299.98879,15599.193000000001,0.0,-0.034024823632678225,-0.034024375506967464,0.0,0.0,0.0,-1.1588009437397488,-1.8249983950133182,-1.7579657200727083,-0.0006337723638959624,0.003909704949657837,-0.33688069176753566
6806,13.0,299.95766000000003,15656.222,0.0,-0.034029805131359114,-0.03402937771715442,0.0,0.0,0.0,-1.163509111654409,-1.829330343165848,-1.7662612999664182,-0.006642886502051854,0.001085747739354959,-0.3347334830831227
6807,13.0,299.82372000000004,15697.243999999999,0.0,-0.03403481962009769,-0.034034379927341596,0.0,0.0,0.0,-1.1769699365828887,-1.8346793917687583,-1.7599209887906782,-0.0062434608808316135,2.3193839917553778e-05,-0.33544119774796866
6808,13.0,299.89757000000003,15694.678,0.0,-0.03403980111877858,-0.03403934922825114,0.0,0.0,0.0,-1.158681684202979,-1.8367287914210182,-1.775379740266338,0.0015301473781887886,-0.0003172692664795387,-0.33549550795332866
6809,13.0,299.82797,15657.143999999998,0.0,-0.03404481560751682,-0.03404435143843809,0.0,0.0,0.0,-1.155961715634539,-1.8316610210458681,-1.7717580804339084,0.0003585059313642807,-0.0014806807109568085,-0.3370856216002607
6810,13.0,300.0521,15657.308,0.0,-0.034049830096255285,-0.03404935364862527,0.0,0.0,0.0,-1.1498112875275388,-1.8330229305052785,-1.7765964509864183,0.0067655591717837036,-0.005554589121470265,-0.33507334743166467
6811,13.0,299.9698,15644.101999999999,0.0,-0.034054811594936174,-0.034054355858812446,0.0,0.0,0.0,-1.166022073227419,-1.8238934457792682,-1.7655008557663683,-5.667424044656204e-05,0.0004829705744279845,-0.3380436191723077
6812,13.0,300.08882,15634.56,0.0,-0.03405982608367453,-0.0340593580689994,0.0,0.0,0.0,-1.160745370681649,-1.8268261968687083,-1.7649442774864383,0.004942594572371105,0.0012980921310117189,-0.3370685584685767
6813,13.0,300.13465,15614.29,0.0,-0.03406480758235564,-0.03406436027918658,0.0,0.0,0.0,-1.165693374894979,-1.8244516452593584,-1.7562092510243585,0.001260201035572159,0.001952209817243108,-0.34288200998981966
6814,13.0,300.0223,15602.066,0.0,-0.03406982207109388,-0.034069362489373534,0.0,0.0,0.0,-1.147544039103779,-1.8264612241826883,-1.7686332171255084,-0.002222247453693748,0.0011703905997085587,-0.3383991584998967
6815,13.0,300.04668,15671.825,0.0,-0.03407480356977477,-0.03407436469956071,0.0,0.0,0.0,-1.154316602772179,-1.8344624549223483,-1.7750643155102084,-0.0015949937633886284,-0.0006993190771674193,-0.33944868295347663
6816,13.0,300.03853,15722.858999999999,0.0,-0.034079818058513345,-0.03407936690974778,0.0,0.0,0.0,-1.1610743729891189,-1.8369264765155282,-1.7813557880311284,-0.004776462187300115,0.0022181082257102377,-0.3324861450238277
6817,13.0,299.84531,15719.122,0.0,-0.03408483254725159,-0.03408436911993473,0.0,0.0,0.0,-1.167534652976699,-1.8406445977574781,-1.7700413307894785,-0.0032249761673053667,0.0032833940885707673,-0.33727543374149366
6818,13.0,299.78191,15679.23,0.0,-0.034089814045932476,-0.03408937133012191,0.0,0.0,0.0,-1.1638539206634388,-1.8364069831892582,-1.7658334044491881,-0.002311061155433978,-0.001067933991996879,-0.3350475703491207
6819,13.0,299.92409,15666.255,0.0,-0.03409482853467094,-0.034094373540308864,0.0,0.0,0.0,-1.1658118238316688,-1.8325981760633583,-1.7637403337176183,-0.001068338582761809,0.007146958465774883,-0.33464760000464666
6820,13.0,299.82637,15683.817,0.0,-0.03409981003335194,-0.03409937575049604,0.0,0.0,0.0,-1.153111645753259,-1.8369750111953183,-1.7774018834909084,0.00038972734855059467,0.0001167611659984299,-0.33444742231489066
6821,13.0,300.08411,15690.607,0.0,-0.03410482452209018,-0.03410437796068322,0.0,0.0,0.0,-1.162126227917929,-1.8327901869573082,-1.7746364199929783,0.0017098501205240683,-0.001972071444378298,-0.33335027510661064
6822,13.0,300.02036,15674.556,0.0,-0.03410980602077107,-0.03410934726159254,0.0,0.0,0.0,-1.157193422456099,-1.8324369679724481,-1.7750433412331381,0.0017273488484260582,-0.004556054959297616,-0.33349297111819365
6823,13.0,300.1391,15687.876,0.0,-0.034114820509509536,-0.034114349471779715,0.0,0.0,0.0,-1.1713565310288887,-1.8327781292811183,-1.7645880187512784,0.006579289150250284,-0.0008205935326887762,-0.33348254477466466
6824,13.0,300.00306,15742.204,0.0,-0.034119802008190425,-0.03411935168196689,0.0,0.0,0.0,-1.175289055991999,-1.8375024078723683,-1.7724453679767382,0.0007708475934642342,0.00025978140748092877,-0.33792128948773464
6825,13.0,300.04566,15779.83,0.0,-0.03412481649692878,-0.03412435389215385,0.0,0.0,0.0,-1.1755506771678188,-1.8455593673675283,-1.7755642531095486,-0.001149701856516739,-0.002274613840061908,-0.3394650064125877
6826,13.0,300.18361,15765.306999999999,0.0,-0.03412983098566724,-0.034129356102341024,0.0,0.0,0.0,-1.159744583557879,-1.846115540347418,-1.7863994430538983,-0.001159044934363829,-0.002168390779078508,-0.3402784739903707
6827,13.0,300.08128,15702.501,0.0,-0.03413481248434813,-0.03413435831252809,0.0,0.0,0.0,-1.1589675220561888,-1.8404911916923383,-1.7737093974764881,-0.003223977609331817,0.0020670088244228884,-0.33933727610498166
6828,13.0,299.96823,15655.886,0.0,-0.034139826973086485,-0.034139360522715156,0.0,0.0,0.0,-1.1510944674541788,-1.8361831562421682,-1.7717206915052184,-0.0036497606014283266,-0.004075049228801046,-0.3366290409726997
6829,13.0,300.01241,15669.238000000001,0.0,-0.034144808471767596,-0.034144362732902334,0.0,0.0,0.0,-1.1646518551171887,-1.8355521040798881,-1.7628531319300584,-0.0043950076711784854,-0.0030456661607088467,-0.34120706704451564
6830,13.0,299.87082000000004,15661.362,0.0,-0.03414982296050584,-0.0341493649430894,0.0,0.0,0.0,-1.164389220691269,-1.8320525408845083,-1.764221323540088,-0.00046170033713627555,0.0001221373697040199,-0.33745681564189467
6831,13.0,299.80372,15678.121000000001,0.0,-0.03415480445918673,-0.034154367153276355,0.0,0.0,0.0,-1.160892899896209,-1.833054949208438,-1.7718095535389882,0.005852688618115395,0.0037740022889400267,-0.3415154902424547
6832,13.0,300.03861,15700.651000000002,0.0,-0.03415981894792519,-0.03415936936346331,0.0,0.0,0.0,-1.155229743762299,-1.837119399334568,-1.7802568169726682,0.0015683940230884386,0.0015440665974625087,-0.3379857017965917
6833,13.0,299.99245,15706.446000000002,0.0,-0.03416480044660608,-0.03416437157365049,0.0,0.0,0.0,-1.164325284609959,-1.8343625484624881,-1.7756795609709284,0.00090267128961922,-0.00012525409661411687,-0.34302699594662867
6834,13.0,299.96215,15765.4,0.0,-0.034169814935344434,-0.034169373783837664,0.0,0.0,0.0,-1.1698000775502788,-1.8380990095312482,-1.784388952205478,-0.0008303957141561762,-0.002113944392905068,-0.3381301912608517
6835,13.0,299.95304,15754.368999999999,0.0,-0.0341748294240829,-0.03417437599402462,0.0,0.0,0.0,-1.1801599518727188,-1.8390129611214483,-1.769761876411898,0.0005171665899328686,0.0004010234760979356,-0.3399565340360977
6836,13.0,300.09276,15708.723999999998,0.0,-0.03417981092276379,-0.03417934529493416,0.0,0.0,0.0,-1.166418152691509,-1.8386811217136982,-1.769960676081518,-0.0010909329454166989,-0.0041662189396737956,-0.33533802862278667
6837,13.0,299.96542999999997,15673.081,0.0,-0.03418482541150214,-0.03418434750512134,0.0,0.0,0.0,-1.155521053166049,-1.8381768271389283,-1.7705274881874582,0.0007511689592971042,-0.0047909738539073056,-0.34460559907242466
6838,13.0,299.9632,15690.961000000001,0.0,-0.03418980691018303,-0.03418934971530829,0.0,0.0,0.0,-1.152324350425559,-1.8350983706851085,-1.7822377209181681,0.001958969006010188,-0.0027034662706863473,-0.33086018258835764
6839,13.0,300.1554,15727.038,0.0,-0.03419482139892149,-0.03419435192549547,0.0,0.0,0.0,-1.1637207796002988,-1.835011636476548,-1.7818944317842884,-0.0005460249153684636,0.0004628746230746686,-0.3338802657039167
6840,13.0,300.32509,15747.156,0.0,-0.03419980289760238,-0.034199354135682536,0.0,0.0,0.0,-1.165164357017769,-1.8393042705251983,-1.782273691296718,9.315270110020581e-05,-0.0017740759913626686,-0.3346642882337937
6841,13.0,300.1884,15745.076000000001,0.0,-0.034204817386340736,-0.03420435634586971,0.0,0.0,0.0,-1.175573880595109,-1.8409331713859585,-1.7696028974712081,-0.0016512631891419883,-0.0028657855929810176,-0.3382256596852737
6842,13.0,300.22627,15785.412,0.0,-0.0342098318750792,-0.03420935855605678,0.0,0.0,0.0,-1.1741996094844789,-1.838553857501138,-1.7856177206017483,-0.002180023092876528,-0.0006801421233898013,-0.3365753488499007
6843,13.0,300.00231,15825.553,0.0,-0.03421481337376009,-0.034214360766243845,0.0,0.0,0.0,-1.1729947537905687,-1.8489148463986882,-1.7886633477523284,0.0008582798908131302,0.003308652184413547,-0.3414331738043307
6844,13.0,299.81692999999996,15799.313999999998,0.0,-0.03421982786249844,-0.03421936297643102,0.0,0.0,0.0,-1.1680465469272188,-1.8423224385980683,-1.7922280629291383,-0.0016774668499780884,-0.0025464864724436473,-0.34170423847108267
6845,13.0,299.90597,15733.361,0.0,-0.03422480936117944,-0.03422436518661798,0.0,0.0,0.0,-1.1638866486416688,-1.842561768271688,-1.7761006677124882,0.0025445533939028675,-0.0011246317185675087,-0.3481513056773587
6846,13.0,299.97666,15669.175,0.0,-0.03422982384991802,-0.034229367396805155,0.0,0.0,0.0,-1.1560972884979188,-1.8368581834587883,-1.7700823674185282,0.0001090065907306129,0.001055803767099719,-0.3410357872476117
6847,13.0,299.82144,15713.011999999999,0.0,-0.034234805348598685,-0.03423436960699211,0.0,0.0,0.0,-1.1751359539018886,-1.8360586278048783,-1.7651688137085983,0.005758297177224684,-0.0004800868545108836,-0.3369462794465087
6848,13.0,299.94414,15790.492,0.0,-0.03423981983733715,-0.034239371817179065,0.0,0.0,0.0,-1.1686075835075886,-1.8459894920349782,-1.7853183051971984,-0.0028843296910111772,-0.0038170664314401263,-0.3357644346623697
6849,13.0,299.9648,15753.723,0.0,-0.03424480133601804,-0.03424437402736624,0.0,0.0,0.0,-1.1604322764007489,-1.8487820093105782,-1.7795241358253584,0.0007437576630306662,-0.004545178428749186,-0.34050957607317867
6850,13.0,300.06978,15753.056,0.0,-0.03424981582475639,-0.03424937623755331,0.0,0.0,0.0,-1.1587867582383489,-1.8445586815687682,-1.785190331709568,-0.004527680714097296,-0.0009210353736366142,-0.33375356891141267
6851,13.0,300.22375,15829.226,0.0,-0.034254830313494855,-0.03425434553846296,0.0,0.0,0.0,-1.169899680035109,-1.8541556798909182,-1.7876341896257584,-0.00024289759066712578,0.004860222912116655,-0.3383657921741037
6852,13.0,300.09089,15867.478000000001,0.0,-0.034259811812175744,-0.034259347748649915,0.0,0.0,0.0,-1.182144706168599,-1.8562562486732284,-1.7849161462325083,-0.0040936352753853465,0.0008930803707976702,-0.33886713819108266
6853,13.0,300.1965,15822.329,0.0,-0.0342648263009141,-0.03426434995883698,0.0,0.0,0.0,-1.1841148696630388,-1.8482442774825083,-1.7772336839743084,0.00099199161640945,-0.002791772334126477,-0.34091668983085766
6854,13.0,300.04708999999997,15757.768999999998,0.0,-0.03426980779959499,-0.03426935216902416,0.0,0.0,0.0,-1.164696032821549,-1.847418579976018,-1.7778535903854882,-0.0005959550431961834,-0.0010288417898887791,-0.3429631307928257
6855,13.0,299.95945,15735.697,0.0,-0.03427482228833345,-0.034274354379211336,0.0,0.0,0.0,-1.162463437551209,-1.8357198982964482,-1.7850755304732384,0.004647421949964836,0.003174605174359137,-0.3392668653555327
6856,13.0,300.01395,15800.178,0.0,-0.03427980378701434,-0.03427935658939829,0.0,0.0,0.0,-1.1730998278259388,-1.844213365934688,-1.7855463877947084,-0.0023883480227115976,0.007030269240533554,-0.34354995458824067
6857,13.0,299.96589,15819.687,0.0,-0.03428481827575269,-0.03428435879958547,0.0,0.0,0.0,-1.1718633587289091,-1.851820442385448,-1.7851061306262583,-0.003345769663401757,0.0019297084709473983,-0.33987369070792167
6858,13.0,299.94368,15757.861,0.0,-0.034289799774433694,-0.03428936100977242,0.0,0.0,0.0,-1.1727990951962588,-1.8405921114022983,-1.7766049622872586,-0.0038267926191500267,-0.0009050189191734131,-0.33726947583090566
6859,13.0,299.87419,15768.996000000001,0.0,-0.03429481426317227,-0.0342943632199596,0.0,0.0,0.0,-1.1719043953579589,-1.848507621183498,-1.7729691169534283,0.003897392745042716,0.005235663991544805,-0.33170443270417865
6860,13.0,300.06314,15838.186000000002,0.0,-0.03429982875191051,-0.03429936543014678,0.0,0.0,0.0,-1.168116765159149,-1.8536605045670485,-1.7926358960943882,0.000973367198043863,0.0016746967255296984,-0.3380420587671537
6861,13.0,299.92132999999995,15887.795,0.0,-0.0343048102505914,-0.03430436764033373,0.0,0.0,0.0,-1.174836437172329,-1.8594119147846684,-1.795244508476838,0.005279519178397974,-0.0028900002438708174,-0.3353254947190497
6862,13.0,300.18489,15841.184,0.0,-0.034309824739329864,-0.03430936985052069,0.0,0.0,0.0,-1.165469243972859,-1.857963271116698,-1.7918919678709682,-0.0016589384573244786,-0.004630254960145586,-0.34470277988951564
6863,13.0,300.16719,15798.795,0.0,-0.03431480623801064,-0.034314372060707754,0.0,0.0,0.0,-1.169132345734379,-1.8518636068397083,-1.7814433328397683,0.005210201827131885,0.0019830647013382484,-0.3386785014199657
6864,13.0,300.18908999999996,15796.748,0.0,-0.034319820726749106,-0.03431937427089493,0.0,0.0,0.0,-1.1759256810298289,-1.848337293841688,-1.7775539723309184,-0.0017766347518401984,0.001109918313865409,-0.3470735824734957
6865,13.0,300.03142,15817.461000000001,0.0,-0.034324802225429996,-0.03432434357180458,0.0,0.0,0.0,-1.1790445661626388,-1.848417644574618,-1.7806510725865783,0.0010965590165969488,-0.0027231121768752473,-0.34349012216983565
6866,13.0,299.99792,15802.123,0.0,-0.03432981671416835,-0.03432934578199154,0.0,0.0,0.0,-1.1675730551554888,-1.8408654862792782,-1.7950121702289084,-0.004314745800282256,-0.002893308201472287,-0.3438910348369027
6867,13.0,299.78831,15777.246000000001,0.0,-0.03433483120290681,-0.034334347992178604,0.0,0.0,0.0,-1.169338339479709,-1.840879367805648,-1.7856711188820185,0.0014460875419427287,0.0012301877570100787,-0.33622387265521264
6868,13.0,299.64237,15791.145,0.0,-0.0343398127015877,-0.03433935020236578,0.0,0.0,0.0,-1.1654115900421687,-1.8476328823721684,-1.7870692013699983,0.0015373791468025087,0.007557038918421674,-0.3411972993135517
6869,13.0,299.91674,15851.063999999998,0.0,-0.034344827190325944,-0.03434435241255274,0.0,0.0,0.0,-1.1803811443695489,-1.8479608714295381,-1.7899857404578383,-0.003165800638940197,0.0018946560969879981,-0.34063285821284567
6870,13.0,299.85278,15875.716999999999,0.0,-0.03434980868900683,-0.034349354622739914,0.0,0.0,0.0,-1.1879325933898188,-1.8562566539732683,-1.7816324053084285,-0.0040895382999310064,0.0031817776678420067,-0.3385458365843727
6871,13.0,299.98332,15853.934,0.0,-0.03435482317774541,-0.03435435683292687,0.0,0.0,0.0,-1.1769506848309887,-1.8497633420324284,-1.792485935079588,-0.0024441460845184377,0.0002099508720055378,-0.3334593312148737
6872,13.0,300.01142000000004,15834.118999999999,0.0,-0.03435980467642641,-0.034359359043114046,0.0,0.0,0.0,-1.1644540686976688,-1.856130808310848,-1.7925918197150383,0.0012881359355291187,0.0030692260493840272,-0.3397854264917107
6873,13.0,300.16442,15830.171,0.0,-0.03436481916516476,-0.03436436125330122,0.0,0.0,0.0,-1.170269313671589,-1.8474484708539682,-1.7942588187795585,0.0008882432465427831,-0.006307349440711925,-0.3371450791161287
6874,13.0,299.92744,15834.861,0.0,-0.03436980066384565,-0.03436936346348818,0.0,0.0,0.0,-1.163721286225349,-1.8506286576178281,-1.7990525050026582,0.002012180341636738,-0.006136012597827295,-0.34245984946815566
6875,13.0,299.96616,15838.488000000001,0.0,-0.034374815152584115,-0.034374365673675356,0.0,0.0,0.0,-1.181372812242419,-1.8516886185474382,-1.7814435354897882,0.0034087959474469664,-0.0038860704857752964,-0.34293291567484363
6876,13.0,299.73772,15813.011,0.0,-0.03437982964132247,-0.03437936788386231,0.0,0.0,0.0,-1.1795029605078788,-1.8459540282814784,-1.7813034030009585,0.004952164516915585,-0.0012634147609143288,-0.34567441580790864
6877,13.0,299.86181,15829.605,0.0,-0.03438481114000336,-0.03438437009404949,0.0,0.0,0.0,-1.1782603105852387,-1.8493859063701783,-1.7841582351577083,0.0023101166036907576,-0.0027950420921991773,-0.3474535208634927
6878,13.0,299.85124,15853.837,0.0,-0.03438982562874182,-0.034389372304236554,0.0,0.0,0.0,-1.171065626925179,-1.8537902005798483,-1.7943148515100882,0.0007004623677852534,-1.1621840844986389e-05,-0.34602912427041566
6879,13.0,299.87116000000003,15902.333,0.0,-0.0343948071274226,-0.034394341605145984,0.0,0.0,0.0,-1.176524714488949,-1.8563913149115585,-1.8009962226694884,-0.004958720346387595,0.005048439792392215,-0.3387114219157147
6880,13.0,299.85267999999996,15898.133999999998,0.0,-0.034399821616161064,-0.03439934381533316,0.0,0.0,0.0,-1.1682687526741489,-1.8678925141466383,-1.7964743914482184,-0.003674786865648226,0.006207297883437604,-0.3495096687614187
6881,13.0,299.90477999999996,15850.638,0.0,-0.03440480311484195,-0.03440434602552023,0.0,0.0,0.0,-1.181384059318529,-1.8543320867333282,-1.782481914192268,-0.006209469177076894,0.0032340078733967266,-0.34015822146850266
6882,13.0,299.96472,15826.305,0.0,-0.034409817603580195,-0.03440934823570718,0.0,0.0,0.0,-1.1774271150280091,-1.8521713308950785,-1.7812029899160482,-0.0021652405845176076,0.0015354665359137484,-0.34277498038175663
6883,13.0,299.85545,15859.801000000001,0.0,-0.034414799102261084,-0.03441435044589436,0.0,0.0,0.0,-1.169208542141899,-1.8600856247761584,-1.791689317850968,-6.680527730016754e-05,-0.0008622951881769093,-0.3367915460237377
6884,13.0,299.82764,15880.412,0.0,-0.03441981359099966,-0.034419352656081315,0.0,0.0,0.0,-1.170030287972999,-1.855126373486718,-1.8020918500026182,0.0006515460270800864,-0.003908881785276596,-0.34031683563915666
6885,13.0,300.0217,15867.128,0.0,-0.0344248280797379,-0.03442435486626849,0.0,0.0,0.0,-1.167640638937159,-1.8549701303212984,-1.8005998392303684,0.0016063307147824984,-0.01019111143878439,-0.34089495561621264
6886,13.0,300.06734,15840.907,0.0,-0.03442980957841901,-0.03442935707645567,0.0,0.0,0.0,-1.170259383820609,-1.8526991328721683,-1.7922816638594283,0.0027375980056048876,-0.006876818693714165,-0.34364913150802867
6887,13.0,300.02134,15860.216,0.0,-0.034434824067157366,-0.034434359286642624,0.0,0.0,0.0,-1.1898570593047488,-1.8454387906056284,-1.7858138858211083,0.001901312542194938,-0.0037959351006046265,-0.33997766030068266
6888,13.0,299.8505,15937.516000000001,0.0,-0.034439805565838366,-0.0344393614968298,0.0,0.0,0.0,-1.1890300445731288,-1.8631524288538284,-1.7924243294735085,-0.0006173077286485294,0.0005656076454136284,-0.3439821462858947
6889,13.0,299.80006000000003,15956.0,0.0,-0.03444482005457672,-0.03444436370701687,0.0,0.0,0.0,-1.1880628973526788,-1.8604306364352083,-1.8017319435670982,-0.0008422528985488892,0.0010426993022314092,-0.33849304625416266
6890,13.0,299.80201,15897.791000000001,0.0,-0.03444980155325761,-0.034449365917203933,0.0,0.0,0.0,-1.1774016824504987,-1.8595695765002282,-1.7955601358829882,-0.0040192332324674365,0.0025998740122625875,-0.3416864154018237
6891,13.0,299.82113,15880.893999999998,0.0,-0.03445481604199607,-0.03445436812739111,0.0,0.0,0.0,-1.1683668352838288,-1.8629434966832081,-1.7960848981097781,0.005993435744456055,0.006257492266891404,-0.3376830034617177
6892,13.0,299.94908,15902.503999999999,0.0,-0.034459830530734425,-0.03445937033757818,0.0,0.0,0.0,-1.171762439018949,-1.8657197006321984,-1.7964820921489784,-0.0008748397411724601,0.001049035053781699,-0.34419911352980764
6893,13.0,299.99237,15927.466999999999,0.0,-0.034464812029415315,-0.03446433963848772,0.0,0.0,0.0,-1.1875429987263688,-1.864272171539338,-1.7897370888832984,-0.0033547324684863166,-0.006936522024056424,-0.3374718725383807
6894,13.0,299.98573999999996,15892.188999999998,0.0,-0.03446982651815378,-0.034469341848674784,0.0,0.0,0.0,-1.175486741086509,-1.862928399256718,-1.7924134876974382,-0.0008968810516577681,-0.0023898169313815677,-0.3438563310209777
6895,13.0,300.12182,15874.178,0.0,-0.034474808016834446,-0.03447434405886185,0.0,0.0,0.0,-1.1681378407612288,-1.8627615169652483,-1.7944545786988781,0.000973071410074671,0.0007827713787860202,-0.3342840256037647
6896,13.0,300.10665,15881.469,0.0,-0.03447982250557302,-0.03447934626904903,0.0,0.0,0.0,-1.167337677157259,-1.8631229432759182,-1.7971092939608782,0.0033845330658524068,-0.0015210291405388886,-0.3469382629226407
6897,13.0,299.91459,15947.986,0.0,-0.03448480400425391,-0.03448434847923598,0.0,0.0,0.0,-1.1736652213817387,-1.8658860762986182,-1.8082382251092182,-0.005831097677034535,-0.0022745184932274976,-0.3424194714516707
6898,13.0,300.05331,15947.303999999998,0.0,-0.03448981849299215,-0.03448935068942294,0.0,0.0,0.0,-1.1882945263255387,-1.863241189562588,-1.7960463946059784,0.005736035667227645,-0.004671178003859375,-0.34656444456324764
6899,13.0,299.75922,15903.908000000001,0.0,-0.034494799991673264,-0.034494352899610115,0.0,0.0,0.0,-1.1901460382332687,-1.8547941287789282,-1.7894506430800283,0.0026266032459255576,-3.2158909616087265e-05,-0.3426704433689397
6900,13.0,299.69786,15913.291000000001,0.0,-0.034499814480411506,-0.03449935510979707,0.0,0.0,0.0,-1.1817077927254789,-1.8616388358544482,-1.7938965818688084,0.003841054823582596,0.0017722735207597782,-0.34351706448999464
6901,13.0,300.07117999999997,15957.311000000002,0.0,-0.03450482896914986,-0.03450435731998425,0.0,0.0,0.0,-1.1854703956468187,-1.8635231770654184,-1.8016307198821082,-0.0026077015719351074,-0.0011895617982256089,-0.3408789766621357
6902,13.0,300.06885,15967.329,0.0,-0.03450981046783097,-0.03450935953017131,0.0,0.0,0.0,-1.182260419330019,-1.8626729589065083,-1.8087358322333282,-0.0015232803796110686,0.0073339201318265625,-0.3405606945407237
6903,13.0,300.02332,15919.784,0.0,-0.03451482495656921,-0.03451436174035849,0.0,0.0,0.0,-1.176182337280159,-1.8611840892095681,-1.8018504938287985,-0.0007862171789310943,0.006779625312321924,-0.3414277427837947
6904,13.0,300.17037,15889.567,0.0,-0.034519806455250324,-0.03451936395054567,0.0,0.0,0.0,-1.1752043482836387,-1.8569839648950484,-1.797843292333318,0.002971348014899217,0.002027359132109768,-0.3396084319642427
6905,13.0,300.15906,15908.207,0.0,-0.03452482094398868,-0.03452436616073262,0.0,0.0,0.0,-1.1831040513632791,-1.8576138011572083,-1.7949799488757283,-0.0031392497372948274,-0.003543104477352187,-0.3406088340529747
6906,13.0,300.01757000000003,15983.573999999999,0.0,-0.034529802442669566,-0.0345293683709198,0.0,0.0,0.0,-1.184210317822459,-1.8664634262055984,-1.8079335408041484,0.0037164567760107265,-0.0032002087884860173,-0.3382055568032897
6907,13.0,299.96159,15988.355,0.0,-0.03453481693140803,-0.034534370581106755,0.0,0.0,0.0,-1.1875953837565387,-1.8642541356875584,-1.808211171331548,0.0012257314830702787,0.0012405113569789387,-0.3396601381168457
6908,13.0,299.63948999999997,15924.205,0.0,-0.0345397984300887,-0.034539339882016296,0.0,0.0,0.0,-1.179553521687869,-1.8634307686562983,-1.7975764022569782,0.006076162447545544,0.0011522219108404488,-0.34438839878098865
6909,13.0,299.89261,15939.141000000001,0.0,-0.03454481291882716,-0.03454434209220347,0.0,0.0,0.0,-1.1795633502138387,-1.867158414449188,-1.798379098986198,0.0006941681392240614,-0.0030644667123393174,-0.34788301731588067
6910,13.0,300.03981,15961.575,0.0,-0.034549827407565736,-0.03454934430239043,0.0,0.0,0.0,-1.187630644860019,-1.8663629117956781,-1.7979265814915382,0.0029387914785861374,0.0013846836739576389,-0.34720307583627563
6911,13.0,300.08411,15955.389,0.0,-0.034554808906246404,-0.034554346512577605,0.0,0.0,0.0,-1.1868069738537288,-1.864996544035828,-1.7982363320471082,-0.004552882878534555,0.0030970905284590368,-0.34626124973582467
6912,13.0,300.03407000000004,15910.001,0.0,-0.03455982339498487,-0.03455934872276456,0.0,0.0,0.0,-1.176622493123599,-1.8634161778548584,-1.7962045629465881,-1.9355645499003482e-05,-0.0009557973298523521,-0.34981315743137065
6913,13.0,300.01047,15878.662,0.0,-0.03456480489366576,-0.034564350932951515,0.0,0.0,0.0,-1.1751914800073688,-1.8580677372020082,-1.793457439275468,-0.005164544777625886,0.002178752173276098,-0.34317161713340166
6914,13.0,300.06517,15917.528,0.0,-0.03456981938240411,-0.03456935314313869,0.0,0.0,0.0,-1.1750648237448689,-1.8647332003348382,-1.7987329259211184,0.003698633706751727,0.002219286635576538,-0.3485467467938857
6915,13.0,300.12512999999996,15977.831,0.0,-0.03457480088108522,-0.03457435535332576,0.0,0.0,0.0,-1.181519632181909,-1.867793215636838,-1.8075489110661882,-0.0006515979156177074,0.004524565780639875,-0.34503878375517666
6916,13.0,300.23867,16012.412,0.0,-0.03457981536982346,-0.034579357563512936,0.0,0.0,0.0,-1.188658384436449,-1.8732234255727584,-1.8054917093881586,-0.0013424233427618687,3.5167207619733166e-06,-0.34320717207941065
6917,13.0,299.94189,15993.758,0.0,-0.034584829858561816,-0.03458435977370011,0.0,0.0,0.0,-1.186443926342899,-1.871083340036548,-1.804175801483288,-0.0009146308122720332,-0.003947573044320127,-0.3379638966544397
6918,13.0,299.95267,15986.587,0.0,-0.03458981135724293,-0.03458936198388707,0.0,0.0,0.0,-1.1857886575032288,-1.8688411188902583,-1.8048934865291184,0.004530110487837095,-0.00042825955772592757,-0.3382711140847596
6919,13.0,300.097,16019.407,0.0,-0.03459482584598139,-0.034594364194074245,0.0,0.0,0.0,-1.194596739297519,-1.8672569023589083,-1.8076459804257683,0.006120431243089535,0.0024335241837201375,-0.3337712703906597
6920,13.0,300.25557000000003,16027.765,0.0,-0.03459980734466228,-0.0345993664042612,0.0,0.0,0.0,-1.1873054929029287,-1.8736463561644983,-1.8110885989655283,0.005223881412756956,-0.00026210896455064074,-0.34339502864795063
6921,13.0,299.9981,15960.428,0.0,-0.03460482183340052,-0.03460436861444838,0.0,0.0,0.0,-1.1851389615391088,-1.866832958517068,-1.7995996600566584,-0.0007763409187488833,-0.0020644003133654483,-0.34849363222364366
6922,13.0,299.87587,15935.829,0.0,-0.03460980333208141,-0.03460933791535792,0.0,0.0,0.0,-1.182796023332879,-1.8658839484734082,-1.7954140252185682,8.159075853488091e-05,-0.0008200755693701571,-0.3503365619030267
6923,13.0,299.76875,15990.368,0.0,-0.03461481782081999,-0.034614340125544873,0.0,0.0,0.0,-1.182423349946099,-1.8727730359033083,-1.8054763079866383,0.0006739752907636825,0.0005629128561101735,-0.3464815505725667
6924,13.0,299.95627,15996.678999999998,0.0,-0.034619799319500655,-0.03461934233573205,0.0,0.0,0.0,-1.188521190372909,-1.8694777439280879,-1.8045921459493786,-0.0038181142333685364,-0.002741301637370407,-0.3458015584304567
6925,13.0,299.88273,15981.118999999999,0.0,-0.03462481380823912,-0.03462434454591923,0.0,0.0,0.0,-1.1842269351240988,-1.8706637531701382,-1.8029704391643284,-0.002044631905239458,-0.0028042811092609974,-0.3425281323923947
6926,13.0,299.81525,15948.688,0.0,-0.034629828296977694,-0.03462934675610618,0.0,0.0,0.0,-1.1740931168989688,-1.871034096081688,-1.8028755989549683,-0.0028401408409000775,-0.0013960959098339386,-0.34541431450723864
6927,13.0,300.06687999999997,15975.165,0.0,-0.03463480979565836,-0.03463434896629336,0.0,0.0,0.0,-1.180990715629709,-1.8731482424153383,-1.801912200759888,0.0026616892597882778,0.003321548629036327,-0.3419759617503997
6928,13.0,300.21668999999997,16040.026000000002,0.0,-0.034639824284396825,-0.034639351176480315,0.0,0.0,0.0,-1.1885630376020389,-1.8781520767091784,-1.8090521689145485,-0.004507999344154896,-0.000932888727943949,-0.34123241856201764
6929,13.0,300.14112,16080.538,0.0,-0.034644805783077715,-0.03464435338666738,0.0,0.0,0.0,-1.1910814707255888,-1.8836389273256882,-1.8133616229148584,-0.0007961527446416583,0.0003026081049525947,-0.34016887072705365
6930,13.0,300.13908,16001.671999999999,0.0,-0.03464982027181607,-0.03464935559685456,0.0,0.0,0.0,-1.1847187667226389,-1.8709529347486784,-1.808437126103848,1.056833938476389e-05,-0.001002994337125334,-0.3395087484194047
6931,13.0,300.01435,15954.04,0.0,-0.03465480177049707,-0.034654357807041514,0.0,0.0,0.0,-1.176061456543229,-1.8681908149760782,-1.8053777187519084,0.004461983705438506,0.004486982611905705,-0.34531699183513365
6932,13.0,300.00833,16040.178999999998,0.0,-0.03465981625923564,-0.03465936001722869,0.0,0.0,0.0,-1.185749951349409,-1.8735983281097583,-1.8164656132711983,0.003884617181156866,-0.003086094941023857,-0.34647901744731663
6933,13.0,299.85972000000004,16072.053,0.0,-0.03466479775791653,-0.034664362227415646,0.0,0.0,0.0,-1.1987371831811489,-1.8750211339001783,-1.8117446784052784,-0.0014548478996573087,0.0006789049348852003,-0.35070827270221167
6934,13.0,299.65443999999997,16010.296,0.0,-0.034669812246654774,-0.03466936443760282,0.0,0.0,0.0,-1.1846197721878688,-1.8743006117540681,-1.8078099242919483,-0.0023003035804472875,-0.00032896278058359865,-0.3451238764985747
6935,13.0,299.74392,15997.803,0.0,-0.03467482673539335,-0.03467436664779,0.0,0.0,0.0,-1.1839348151202689,-1.870766598055288,-1.8082312336835282,-0.0031621453392044474,0.0038622090538703562,-0.34496413762030964
6936,13.0,299.85728,16064.646,0.0,-0.03467980823407424,-0.03467933594869932,0.0,0.0,0.0,-1.1972988746641988,-1.873609372535848,-1.812343103914338,-0.0027514137720433974,-0.001999060880666948,-0.3331425892336137
6937,13.0,299.74854,16087.625,0.0,-0.03468482272281248,-0.034684338158886496,0.0,0.0,0.0,-1.1925674019972388,-1.879696472511598,-1.817972518819918,0.0013924899553780586,-0.005587358845604385,-0.34247546365219667
6938,13.0,300.02578,16105.473999999998,0.0,-0.03468980422149337,-0.03468934036907367,0.0,0.0,0.0,-1.1928557729756988,-1.8820438690182684,-1.8207623003202484,0.004244541348553616,-0.003376703581004697,-0.3380075576012487
6939,13.0,299.92449,16047.785,0.0,-0.034694818710231834,-0.03469434257926063,0.0,0.0,0.0,-1.1903017747736389,-1.8761974159412682,-1.8116268374186484,0.0018677187417544883,0.001027465188302919,-0.34433713845842967
6940,13.0,300.1553,16059.756000000001,0.0,-0.03469980020891261,-0.034699344789447806,0.0,0.0,0.0,-1.1904187038351788,-1.8785879769021983,-1.8127582324803087,0.0039463552190249366,0.0003377136745422447,-0.34382536609792164
6941,13.0,300.14986,16071.656,0.0,-0.034704814697651076,-0.03470434699963487,0.0,0.0,0.0,-1.195065874093819,-1.8735477669297682,-1.8167685750510982,-0.0056269125831330345,-0.00015304118364648886,-0.35243194284482465
6942,13.0,300.11484,16025.962,0.0,-0.03470982918638954,-0.03470934920982194,0.0,0.0,0.0,-1.189551057774549,-1.8729747739982183,-1.8089662453060682,-0.0019335921572556883,0.0012120083276909088,-0.3456089395864467
6943,13.0,300.08319,15925.183,0.0,-0.03471481068507032,-0.034714351420009004,0.0,0.0,0.0,-1.172133389880559,-1.8653047747162481,-1.8034199169086882,-0.006270617098086724,0.0006698056348796693,-0.35639267669071867
6944,13.0,300.17663,15969.082,0.0,-0.03471982517380878,-0.03471935363019596,0.0,0.0,0.0,-1.1791264367707188,-1.8689679778027783,-1.8061078667739683,-0.0017266614595582183,-0.0017483112704698887,-0.34945299768332566
6945,13.0,299.80818999999997,16063.638,0.0,-0.034724806672489894,-0.034724355840383136,0.0,0.0,0.0,-1.193452982584639,-1.8806283586285681,-1.8088634004209183,-0.0005238459852545736,-0.005010687714866375,-0.35553845619391367
6946,13.0,299.93784,16095.678999999998,0.0,-0.034729821161228136,-0.03472935805057009,0.0,0.0,0.0,-1.1935818679973589,-1.8797038692373282,-1.8193986683356682,-0.0007698375958970552,0.0007904185799407403,-0.34478500513513066
6947,13.0,300.03489,16073.383,0.0,-0.034734802659909025,-0.03473436026075727,0.0,0.0,0.0,-1.1895026244197688,-1.8835546249173682,-1.8128499316143585,-0.0014709452013459885,0.0022312869618108778,-0.3474207016927537
6948,13.0,299.83277999999996,16066.236,0.0,-0.03473981714864749,-0.034739362470944446,0.0,0.0,0.0,-1.189793731173499,-1.8767303854938682,-1.8172105547447182,0.002937232694632297,0.0035511295194691965,-0.3360404034596057
6949,13.0,299.87406,16100.827,0.0,-0.03474479864732849,-0.0347443646811314,0.0,0.0,0.0,-1.1889688442670887,-1.8827622633391683,-1.8225183640685583,0.004583426897499016,0.001069943773570229,-0.34415358820281466
6950,13.0,300.14322000000004,16111.448999999999,0.0,-0.03474981313606673,-0.03474936689131858,0.0,0.0,0.0,-1.195784572389749,-1.881624586126888,-1.8200690346018285,0.008760384869682673,-0.0012365246231354787,-0.3403999120148557
6951,13.0,300.02614,16089.934,0.0,-0.034754827624805196,-0.03475433619222812,0.0,0.0,0.0,-1.192912818956329,-1.881170852732108,-1.816854498659578,0.0014956386129080386,0.0032504131017907965,-0.34528874242234564
6952,13.0,300.19826,16068.353000000001,0.0,-0.034759809123486085,-0.034759338402415074,0.0,0.0,0.0,-1.195797238015999,-1.8745747972311284,-1.814006151303468,-0.0033587284229056867,0.0016570292914860583,-0.34533580788949064
6953,13.0,299.99805,16045.611,0.0,-0.03476482361222444,-0.03476434061260225,0.0,0.0,0.0,-1.194530270090959,-1.8745395361276482,-1.8083951775497085,-0.006341619686919134,-0.0007994924980312664,-0.3491540179763187
6954,13.0,299.94923,16069.846000000001,0.0,-0.03476980511090533,-0.03476934282278932,0.0,0.0,0.0,-1.1922376904146987,-1.8744997153987182,-1.8180946154569684,-0.0018989596741377283,0.002139281015630598,-0.34735247956352067
6955,13.0,300.05171,16122.848999999998,0.0,-0.03477481959964379,-0.034774345032976495,0.0,0.0,0.0,-1.1904684544150888,-1.8854084673003282,-1.8250665867450484,0.0005551187336909535,0.0015220830219678985,-0.34810265954005765
6956,13.0,299.9198,16130.117,0.0,-0.03477980109832457,-0.03477934724316356,0.0,0.0,0.0,-1.201343363763359,-1.8847336427337282,-1.8170757924814183,-0.0026325402835614973,0.002224140508855578,-0.34797851613780567
6957,13.0,299.96497999999997,16106.024,0.0,-0.034784815587063034,-0.03478434945335063,0.0,0.0,0.0,-1.191158072433149,-1.885044406539398,-1.8196267509331783,0.001281070846556849,-0.0007501937770033613,-0.35402250232180066
6958,13.0,300.02235,16111.697,0.0,-0.034789797085744145,-0.034789351663537804,0.0,0.0,0.0,-1.192935414433559,-1.886788412611518,-1.817829650555818,0.002227334577145808,0.00016531754960557186,-0.34777351537757367
6959,13.0,300.14349,16089.562,0.0,-0.03479481157448239,-0.03479435387372476,0.0,0.0,0.0,-1.187240847546549,-1.885486284908008,-1.8180981618323182,0.003303584110063367,0.0015977506142607085,-0.34735880224414467
6960,13.0,299.87982,16060.71,0.0,-0.03479982606322074,-0.034799356083911714,0.0,0.0,0.0,-1.185083435433629,-1.881621343726568,-1.8153501262361083,0.002082424006144248,-0.0023236063062470878,-0.3424379835309977
6961,13.0,300.01982999999996,16063.327,0.0,-0.03480480756190174,-0.03480435829409889,0.0,0.0,0.0,-1.181842251013749,-1.8872455910566384,-1.8137624646544181,0.002457457759032198,-0.0013993841090584587,-0.35048810358798266
6962,13.0,299.82698999999997,16082.021999999999,0.0,-0.034809822050640093,-0.03480936050428585,0.0,0.0,0.0,-1.1932975500192988,-1.883011117563728,-1.8122243510026181,-0.00017808030601015784,0.006342722204352944,-0.3432384713749997
6963,13.0,299.91296,16136.253,0.0,-0.03481480354932098,-0.034814362714473024,0.0,0.0,0.0,-1.191346030326699,-1.8929905164736183,-1.8206814429622682,0.003962464983689846,0.0013006643677155787,-0.35724286445212566
6964,13.0,299.91328,16179.568000000001,0.0,-0.03481981803805945,-0.03481936492466009,0.0,0.0,0.0,-1.2068279852296488,-1.8851396520487984,-1.8262171322335983,-0.0014702799013303284,0.0024505879233541975,-0.3461259403174707
6965,13.0,299.98868999999996,16173.462,0.0,-0.034824799536740336,-0.03482433422556952,0.0,0.0,0.0,-1.204369029886969,-1.8872185372789683,-1.8247412321379382,0.002003422719697428,-0.004669114621355735,-0.3520305134202067
6966,13.0,300.09592999999995,16142.495,0.0,-0.03482981402547869,-0.0348293364357567,0.0,0.0,0.0,-1.1981904334271887,-1.8817514450394084,-1.8269736247582584,0.0009051777663915902,-0.002029444806115608,-0.3464811047425227
6967,13.0,300.31097,16155.832,0.0,-0.03483482851421715,-0.03483433864594376,0.0,0.0,0.0,-1.196375905148109,-1.886717687754538,-1.8278759239723081,0.0034302064286850166,0.0014959700470157486,-0.3419190373597817
6968,13.0,300.06714,16170.971000000001,0.0,-0.03483981001289804,-0.03483934085613094,0.0,0.0,0.0,-1.2034590299721588,-1.8862279839812082,-1.8258842795757484,0.0002769042702583237,0.0018757387176209983,-0.3385497882597627
6969,13.0,300.20023,16162.265,0.0,-0.034844824501636396,-0.03484434306631812,0.0,0.0,0.0,-1.1990252501845788,-1.8881539697712884,-1.825745869612088,-0.0007527743122255402,-0.001193236957663319,-0.3425837598228847
6970,13.0,300.21841,16108.532,0.0,-0.034849806000317285,-0.03484934527650507,0.0,0.0,0.0,-1.196514213786759,-1.880781055418638,-1.8192963300755682,-0.0044828373044215955,0.0025417857012547175,-0.3413339766195407
6971,13.0,299.87062000000003,16105.588,0.0,-0.03485482048905575,-0.03485434748669225,0.0,0.0,0.0,-1.1911305120304287,-1.887210127303138,-1.8173558548090585,0.0003910234575485106,0.0001970923938640048,-0.34435577212776863
6972,13.0,299.99978,16162.931,0.0,-0.03485980198773664,-0.034859349696879205,0.0,0.0,0.0,-1.192832569548409,-1.8907533615778283,-1.8295414031616783,-0.002212589559040588,-0.0003320054693088887,-0.34596658647424366
6973,13.0,300.04033,16172.0,0.0,-0.03486481647647499,-0.03486435190706638,0.0,0.0,0.0,-1.197099365719509,-1.8952597913975784,-1.8235249267178983,0.003054802738185557,-0.0015341336054071988,-0.34978411768350465
6974,13.0,299.97005,16151.521999999999,0.0,-0.03486979797515599,-0.03486935411725334,0.0,0.0,0.0,-1.192841384824279,-1.8887214911522983,-1.8280966098440883,5.711133323494975e-06,0.002206549271219458,-0.3491061925715987
6975,13.0,300.05016,16109.969,0.0,-0.034874812463894345,-0.03487435632744029,0.0,0.0,0.0,-1.189984323517309,-1.886157157799218,-1.8208869300825483,-0.002346090528616108,-0.0012821648526898188,-0.35660203442638067
6976,13.0,299.87465,16130.03,0.0,-0.03487982695263259,-0.03487935853762747,0.0,0.0,0.0,-1.197571438941099,-1.8856268226968784,-1.8199278888628982,-0.006189429521899135,-0.001962303409439268,-0.3510224612932197
6977,13.0,299.79082999999997,16166.618,0.0,-0.0348848084513137,-0.034884360747814536,0.0,0.0,0.0,-1.1999793264787388,-1.8873447882414283,-1.8269239755033582,-0.005390758131351405,-0.0007996574044850412,-0.35645779827464563
6978,13.0,300.11672999999996,16152.566,0.0,-0.03488982294005205,-0.03488936295800171,0.0,0.0,0.0,-1.196477736783159,-1.889350618139388,-1.8241483795044282,0.0015251654300971083,0.005574919275451694,-0.35071183934256367
6979,13.0,300.17812000000004,16102.758999999998,0.0,-0.03489480443873294,-0.03489433225891114,0.0,0.0,0.0,-1.188395952660549,-1.8869612730785783,-1.819479424368638,-0.0016656339126602685,0.0035217675580713967,-0.3525911345680357
6980,13.0,300.03312999999997,16133.035,0.0,-0.034899818927471404,-0.03489933446909821,0.0,0.0,0.0,-1.194785710441169,-1.8884623017767181,-1.8207917858981586,-0.0017271686925582784,0.001970038155402628,-0.34493187573712564
6981,13.0,300.10829,16217.091999999999,0.0,-0.034904800426152294,-0.034904336679285386,0.0,0.0,0.0,-1.2018543457887887,-1.8999332048338082,-1.8278032739401382,-0.0006287011788679753,-0.006047032216445614,-0.3477385481166227
6982,13.0,300.18121,16205.753999999999,0.0,-0.03490981491489065,-0.03490933888947256,0.0,0.0,0.0,-1.2048079698302887,-1.892560999756228,-1.8287755887360984,0.003504164870709147,-0.0008846321954389002,-0.3416361075343587
6983,13.0,300.17855,16177.541000000001,0.0,-0.034914796413571536,-0.03491434109965952,0.0,0.0,0.0,-1.1919927878655288,-1.8976634232847982,-1.8279124009759082,0.003481835979580457,-0.003070887374247987,-0.34646687871111864
6984,13.0,299.88003,16202.841,0.0,-0.03491981090231,-0.034919343309846695,0.0,0.0,0.0,-1.1996540731966387,-1.8932168765459583,-1.832388129317628,-0.0017010102226766386,-0.005255436148696165,-0.3456112599291757
6985,13.0,299.85289,16217.433,0.0,-0.03492482539104824,-0.03492434552003365,0.0,0.0,0.0,-1.210774087744099,-1.8885944295897585,-1.8303260640391184,-0.0026807855791229377,-0.006608999264382443,-0.34768909137924164
6986,13.0,299.87053,16187.686000000002,0.0,-0.03492980688972924,-0.03492934773022083,0.0,0.0,0.0,-1.204184719693779,-1.8905431121820782,-1.825924505604718,0.0007104165266351522,0.0026257924431955376,-0.3471333439643937
6987,13.0,300.02797000000004,16167.35,0.0,-0.034934821378467706,-0.034934349940408005,0.0,0.0,0.0,-1.2047519370997588,-1.8844350379292583,-1.825283827566488,-0.0008245575899949983,-0.0009310411271816052,-0.34738126599886165
6988,13.0,299.85024,16141.586000000001,0.0,-0.034939802877148596,-0.03493935215059496,0.0,0.0,0.0,-1.1971919767786487,-1.8834877504107683,-1.8259594627331681,-0.002196203177098378,8.732443180950042e-05,-0.35436916557851367
6989,13.0,300.02272,16178.083999999999,0.0,-0.03494481736588684,-0.03494435436078214,0.0,0.0,0.0,-1.1931415095038989,-1.8980950678273985,-1.8264968905862082,-0.006861777705254733,0.0014641675714270885,-0.35357911421054167
6990,13.0,300.05351,16242.364,0.0,-0.03494979886456795,-0.03494935657096909,0.0,0.0,0.0,-1.2012981728088987,-1.896915340735968,-1.8390595706260482,7.420353202456842e-05,0.008064382768042612,-0.3517318782182337
6991,13.0,300.01623,16202.265,0.0,-0.0349548133533063,-0.03495435878115616,0.0,0.0,0.0,-1.1982706828351088,-1.9005679046964483,-1.8262454019113883,-0.0005784284610489444,0.0026428399708279975,-0.3515541237531907
6992,13.0,300.09412000000003,16159.973,0.0,-0.034959827842044766,-0.034959360991343336,0.0,0.0,0.0,-1.189385898008249,-1.900119744177218,-1.8227226352887183,0.0024530673463488977,0.0031062684465398274,-0.3493793344010557
6993,13.0,300.26391,16179.645,0.0,-0.034964809340725655,-0.034964330292252765,0.0,0.0,0.0,-1.192988204763769,-1.897507078794368,-1.827712790706208,0.0024661524581402975,-0.0029475661231271274,-0.3499397832963677
6994,13.0,299.91967,16191.918,0.0,-0.03496982382946401,-0.03496933250243983,0.0,0.0,0.0,-1.1965531225905988,-1.898857437202638,-1.8265282000142984,0.0024104138741143275,0.0005329596531465225,-0.3486046743021027
6995,13.0,299.81428,16203.091,0.0,-0.0349748053281449,-0.03497433471262701,0.0,0.0,0.0,-1.194613356599159,-1.8940376091269582,-1.8366840057665983,0.0030306289212747865,-0.002208436652180728,-0.35192594600988664
6996,13.0,299.91413,16227.253,0.0,-0.03497981981688336,-0.034979336922813964,0.0,0.0,0.0,-1.204625483487279,-1.8957585130967982,-1.8322957209085085,-0.0015233583998687686,-0.0005814017218773825,-0.34857446931662167
6997,13.0,299.86021,16202.938999999998,0.0,-0.03498480131556425,-0.03498433913300114,0.0,0.0,0.0,-1.208703612489759,-1.8895619821102483,-1.8270232740131584,-0.001024344580644939,0.003978855317307446,-0.3515045454257977
6998,13.0,299.91598,16199.202,0.0,-0.03498981580430249,-0.034989341343188096,0.0,0.0,0.0,-1.2084499959897288,-1.886531857686198,-1.829171060250128,-0.005698736208521475,0.002210794282513408,-0.3461086137407607
6999,13.0,299.85377,16238.391000000001,0.0,-0.034994797302983494,-0.03499434355337527,0.0,0.0,0.0,-1.2089950232185187,-1.8955977103059283,-1.8314728605022983,0.0034767309216016265,0.003257336133099047,-0.34781368061153767
7000,13.0,299.6278,16265.357,0.0,-0.03499981179172196,-0.03499934576356245,0.0,0.0,0.0,-1.206064602604309,-1.8954633533426681,-1.8427344260887282,-0.004708347361252706,-0.002197273473179008,-0.3441201002870096
7001,13.0,300.07538999999997,16254.118999999999,0.0,-0.0350048262804602,-0.035004347973749406,0.0,0.0,0.0,-1.2035287415790388,-1.900937740982948,-1.8363799294115881,0.002068336384703908,-0.0016551590344514784,-0.34864595411117666
7002,13.0,300.267,16202.565,0.0,-0.03500980777914109,-0.03500935018393658,0.0,0.0,0.0,-1.202283761181169,-1.8978084193741083,-1.8250831027216785,-0.004149716945895176,-0.0014823503444715885,-0.34973944348659564
7003,13.0,299.90129,16216.008,0.0,-0.035014822267879664,-0.03501435239412365,0.0,0.0,0.0,-1.2027606980032388,-1.893926556915998,-1.832574162035988,0.002222900493383198,0.0015012761338144187,-0.3433744596709207
7004,13.0,300.06113,16258.46,0.0,-0.03501980376656055,-0.035019354604310715,0.0,0.0,0.0,-1.2009003708196389,-1.908286236008188,-1.832979462075988,0.003327417373615527,-0.002296924391363788,-0.35102712224367966
7005,13.0,300.09575,16230.368999999999,0.0,-0.03502481825529902,-0.03502435681449778,0.0,0.0,0.0,-1.1994648994029686,-1.898873851854258,-1.8352882537538482,0.0003303006557506367,0.0005934446046159224,-0.34320020091872266
7006,13.0,300.16714,16206.321000000002,0.0,-0.03502979975397991,-0.035029359024684736,0.0,0.0,0.0,-1.187383310510609,-1.9038384733692282,-1.8350951282847883,0.0012860956551277588,-0.004134606752453916,-0.3540881406632787
7007,13.0,300.11734,16207.864,0.0,-0.03503481424271815,-0.035034361234871914,0.0,0.0,0.0,-1.1949024368526886,-1.902856228722288,-1.8290274827109585,-0.0008472145309760641,3.8494813153892265e-05,-0.35186873790924067
7008,13.0,300.01761,16253.508999999998,0.0,-0.03503979574139915,-0.035039330535781565,0.0,0.0,0.0,-1.206938429490549,-1.8995080450918482,-1.8342143099728583,0.004036016403148806,0.002146409432734118,-0.35648435555976665
7009,13.0,300.01499,16315.392,0.0,-0.03504481023013761,-0.03504433274596863,0.0,0.0,0.0,-1.216154040475059,-1.905477506730988,-1.8378401241306983,7.933445321220092e-05,0.0032426504914496866,-0.3533174423722167
7010,13.0,299.91524,16279.423,0.0,-0.035049824718875855,-0.03504933495615559,0.0,0.0,0.0,-1.212524781266879,-1.904780897287238,-1.8312323149285583,0.0039052411776672965,0.0020625328934311482,-0.35646349274020767
7011,13.0,299.85866,16219.868999999999,0.0,-0.035054806217556744,-0.03505433716634254,0.0,0.0,0.0,-1.199779310908999,-1.8972862915975783,-1.8333696646894984,0.0004932767059651205,0.0020727350047130178,-0.3492135058896897
7012,13.0,299.89673,16264.566,0.0,-0.03505982070629532,-0.03505933937652972,0.0,0.0,0.0,-1.1968058271655386,-1.9094845055764482,-1.8377317063699983,0.0009640771841045101,-0.002336506398570228,-0.3544908569155237
7013,13.0,299.78519,16318.518999999998,0.0,-0.03506480220497621,-0.035064341586716896,0.0,0.0,0.0,-1.213448156083009,-1.9049593306298482,-1.8420148158677083,-0.0028669794042488375,0.0013881373369234885,-0.3476423400196276
7014,13.0,299.72787999999997,16279.991000000002,0.0,-0.03506981669371445,-0.03506934379690385,0.0,0.0,0.0,-1.2098387565767887,-1.902524794614578,-1.8363471001083482,-1.2981938613217587e-05,-0.0032316080918598873,-0.34760496122343865
7015,13.0,300.06271,16188.645,0.0,-0.03507479819239534,-0.03507434600709103,0.0,0.0,0.0,-1.1984949150822386,-1.8973562058544782,-1.8250927285976282,-0.0024263858367656378,0.002888404172313297,-0.3492174879625827
7016,13.0,300.15727000000004,16213.848999999998,0.0,-0.035079812681133915,-0.035079348217278095,0.0,0.0,0.0,-1.2003839172436688,-1.8951154032583282,-1.8331059156884681,-0.0007682673216870812,0.004393627928517316,-0.3409611512452457
7017,13.0,300.37187,16327.898000000001,0.0,-0.03508482716987216,-0.03508435042746527,0.0,0.0,0.0,-1.2124853658379888,-1.9061714817244781,-1.8446166394744883,0.001897730095141378,0.004018079545903576,-0.34687918030930964
7018,13.0,300.15654,16340.973,0.0,-0.03508980866855327,-0.03508935263765234,0.0,0.0,0.0,-1.208296387274569,-1.9073888003946182,-1.8515625702349983,0.003144437577806827,0.0024418543154422576,-0.34525136362615666
7019,13.0,300.04562999999996,16274.245,0.0,-0.03509482315729151,-0.035094354847839404,0.0,0.0,0.0,-1.206982809844929,-1.8985356289708781,-1.8414458759365586,-0.001928041674532898,-0.0012249054815887588,-0.34721882174282964
7020,13.0,300.09264,16263.4,0.0,-0.0350998046559724,-0.03509935705802658,0.0,0.0,0.0,-1.2066338465104887,-1.902718528033698,-1.8343150270327981,0.0017885724592183582,-0.0038580203792819663,-0.3519109499084067
7021,13.0,300.10257,16327.696000000002,0.0,-0.035104819144710975,-0.035104359268213536,0.0,0.0,0.0,-1.2160264722874687,-1.907232759879218,-1.8399527505891982,-0.003504570677374197,-0.0026909939725554273,-0.35495683037151166
7022,13.0,299.83317999999997,16347.027,0.0,-0.035109800643391864,-0.03510932856912308,0.0,0.0,0.0,-1.2164728089565189,-1.9090131416299283,-1.8436019708243483,0.003299898108849587,-0.003275890160980187,-0.35723559944890865
7023,13.0,299.85081,16264.013,0.0,-0.035114815132130106,-0.035114330779310254,0.0,0.0,0.0,-1.2015356786323388,-1.905448629103138,-1.8368696331849181,-0.008703363409705091,0.0003233249860996917,-0.35465368620659365
7024,13.0,299.99575,16162.92,0.0,-0.035119796630810995,-0.03511933298949721,0.0,0.0,0.0,-1.1863121025048888,-1.8967013423148482,-1.8301106470678583,-0.0012625542076043989,0.005621414992065464,-0.35561807738677165
7025,13.0,300.2144,16231.403999999999,0.0,-0.03512481111954957,-0.035124335199684165,0.0,0.0,0.0,-1.2024884377013687,-1.9036185980975282,-1.8278345833682283,-0.003275231244440157,0.004210520767171046,-0.34871423703541565
7026,13.0,300.19309,16356.335,0.0,-0.03512982560828781,-0.03512933740987134,0.0,0.0,0.0,-1.2133037679437588,-1.9144135620129084,-1.8442000923583781,0.0025958431007147673,0.0012541621663011687,-0.35368378294587166
7027,13.0,300.12402000000003,16327.216999999999,0.0,-0.0351348071069687,-0.0351343396200583,0.0,0.0,0.0,-1.214793144265749,-1.9073966024203883,-1.8408763280553482,0.00027621594920039175,0.002067801287326098,-0.3449606925699697
7028,13.0,300.07623,16280.931999999999,0.0,-0.035139821595707166,-0.035139341830245474,0.0,0.0,0.0,-1.1982820312362288,-1.906461372578088,-1.8442534906386483,-0.0008157945269026512,-0.001943006973209858,-0.35059096873813467
7029,13.0,299.78226,16318.018999999998,0.0,-0.035144803094388055,-0.03514434404043254,0.0,0.0,0.0,-1.2071305417095088,-1.9026343269503883,-1.850505446405668,0.0027311643740949377,0.001191730052114599,-0.3453030799112607
7030,13.0,299.81707,16391.126,0.0,-0.03514981758312641,-0.03514934625061972,0.0,0.0,0.0,-1.213477337685889,-1.9152461496200783,-1.8537697329278282,-0.0014010040933183387,-0.0024124354093888376,-0.3511559975238987
7031,13.0,299.8088,16418.57,0.0,-0.03515479908180752,-0.035154348460806895,0.0,0.0,0.0,-1.2324719267105089,-1.908931676321888,-1.8494317052746985,0.0036215629657204364,-0.00025928742779217676,-0.35008968351616165
7032,13.0,300.08201,16310.832,0.0,-0.03515981357054576,-0.03515935067099385,0.0,0.0,0.0,-1.2120512894951487,-1.9041872340536483,-1.8418470216511484,-0.00099026615281416,-0.0032552026336884867,-0.35400076810715564
7033,13.0,300.14022,16215.183,0.0,-0.03516479506922665,-0.03516435288118103,0.0,0.0,0.0,-1.205004439024679,-1.8982000405377584,-1.8258061579930382,0.00045583817868272554,-0.002069635067357078,-0.35657583177879465
7034,13.0,300.06855,16273.997,0.0,-0.035169809557965226,-0.03516935509136798,0.0,0.0,0.0,-1.200463457376519,-1.9051061505693379,-1.841319118349048,-0.0015448361609134585,-0.005745804816741785,-0.3554146268991927
7035,13.0,299.90574,16347.508999999998,0.0,-0.03517482404670369,-0.03517435730155516,0.0,0.0,0.0,-1.2054898871475888,-1.9114770618980983,-1.8522675896545782,-0.00020966919861023877,0.0002138537492707218,-0.3511636982246587
7036,13.0,300.16996,16351.228000000001,0.0,-0.03517980554538436,-0.0351793266024647,0.0,0.0,0.0,-1.210012224993909,-1.9109757057486183,-1.8493769897692982,-0.0014431995765077086,-0.0002787631282292787,-0.3494774879382427
7037,13.0,299.88255,16304.04,0.0,-0.03518482003412282,-0.035184328812651655,0.0,0.0,0.0,-1.2094322406366689,-1.907570881437588,-1.8390178247219282,-0.002414605081827968,0.0026262495203156475,-0.34699251233299466
7038,13.0,299.77496,16295.853000000001,0.0,-0.03518980153280382,-0.03518933102283883,0.0,0.0,0.0,-1.205834290856579,-1.9127748326261784,-1.8349230784178086,-0.004124313853963086,0.000969021074522434,-0.35457482495131065
7039,13.0,299.6571,16405.083,0.0,-0.035194816021542064,-0.03519433323302601,0.0,0.0,0.0,-1.219755333980479,-1.9172034448382482,-1.8497769195837683,0.0015109001859142383,0.0024605800892153478,-0.34870891747239063
7040,13.0,299.7505,16447.957,0.0,-0.03519979752022295,-0.035199335443212965,0.0,0.0,0.0,-1.2169964566081988,-1.922773483287968,-1.8599982826175383,0.0008325702907257902,0.005027609498161425,-0.35295939018437966
7041,13.0,299.91112999999996,16359.918,0.0,-0.03520481200896142,-0.03520433765339992,0.0,0.0,0.0,-1.2082804792479989,-1.9139215277643482,-1.8508045578351882,0.0015866894695440587,0.0034565393802338767,-0.35586004151065165
7042,13.0,300.07386,16263.778,0.0,-0.03520982649769977,-0.035209339863586986,0.0,0.0,0.0,-1.197619770970869,-1.9050345137872682,-1.8411282220302083,-3.114072802785057e-06,-0.0015724789408665886,-0.35815957208259763
7043,13.0,299.95452,16271.208,0.0,-0.03521480799638066,-0.03521434207377416,0.0,0.0,0.0,-1.2100653192991488,-1.9050986525185982,-1.830876968118488,-0.0002734732432997077,0.0012908159820436188,-0.3573596415261507
7044,13.0,299.9987,16384.147,0.0,-0.03521982248511912,-0.03521934428396134,0.0,0.0,0.0,-1.2190627775371288,-1.9117245988975282,-1.8495841994147482,0.0002020246927007848,-0.003057525746504297,-0.3547925116027947
7045,13.0,299.99199,16398.133,0.0,-0.03522480398380001,-0.035224346494148295,0.0,0.0,0.0,-1.2218090906081687,-1.912747981498528,-1.8500659998372981,-0.001196722841982349,-0.0011736961255097887,-0.35359330984444265
7046,13.0,300.00423,16308.181,0.0,-0.035229818472538366,-0.03522934870433547,0.0,0.0,0.0,-1.1970864974432387,-1.9109280829939181,-1.8492653296082784,0.0032824017114228272,-0.0062535283311751936,-0.3508857839872307
7047,13.0,300.10205,16322.556,0.0,-0.03523479997121948,-0.03523435091452243,0.0,0.0,0.0,-1.2021017814632091,-1.911237225599428,-1.848310442714038,0.0011840131393529988,-0.001900164023206588,-0.34977411690501764
7048,13.0,299.84035,16449.512,0.0,-0.03523981445995794,-0.035239353124709605,0.0,0.0,0.0,-1.2227523251262589,-1.9219784872595083,-1.855509888649568,0.003791062380873726,-0.00016161436367009586,-0.34528202457418267
7049,13.0,299.72672,16520.387,0.0,-0.03524479595863861,-0.03524435533489678,0.0,0.0,0.0,-1.2413754566642188,-1.9258377542403882,-1.8545719230319984,0.0005130872652952704,-0.0006315279642619574,-0.3508776475889277
7050,13.0,300.08168,16424.957,0.0,-0.03524981044737707,-0.03524935754508374,0.0,0.0,0.0,-1.2279546551146887,-1.9182330082648582,-1.8465891334441584,-0.0019263576528666985,0.0012856560059093687,-0.3527260589513517
7051,13.0,299.99739,16303.765,0.0,-0.03525482493611565,-0.03525432684599328,0.0,0.0,0.0,-1.206060954903949,-1.910050608407318,-1.839825993001688,-0.006076455580799473,0.0017045158653726182,-0.35161986341967866
7052,13.0,299.6813,16325.117,0.0,-0.035259806434796315,-0.035259329056180455,0.0,0.0,0.0,-1.200917697396349,-1.9080261347075183,-1.8534839963996281,0.00036436482715250865,0.0029962416446810275,-0.35210385246244463
7053,13.0,299.7274,16415.616,0.0,-0.03526482092353478,-0.03526433126636741,0.0,0.0,0.0,-1.2163894184732889,-1.9143496259315982,-1.8591983216635883,-0.0034149521510795366,-6.902213476995433e-05,-0.3540122178332856
7054,13.0,299.89207999999996,16390.624,0.0,-0.03526980242221567,-0.03526933347655459,0.0,0.0,0.0,-1.2165758564916889,-1.915800296099768,-1.849964472177278,0.002143185169590908,-0.002815930243010677,-0.35389597778181364
7055,13.0,300.1211,16302.794,0.0,-0.03527481691095402,-0.03527433568674154,0.0,0.0,0.0,-1.208068203352049,-1.910140686341208,-1.8374335068655683,0.0006334845096750535,-0.0007239614513219324,-0.35722275143764065
7056,13.0,300.27715,16339.823,0.0,-0.03527979840963491,-0.03527933789692861,0.0,0.0,0.0,-1.2097972133226886,-1.918171807958818,-1.8389290640131681,0.003103223326014297,0.002216213853323278,-0.3587533265086967
7057,13.0,299.98261,16473.379,0.0,-0.035284812898373374,-0.035284340107115786,0.0,0.0,0.0,-1.2234191450170688,-1.924763202509338,-1.8593135281999582,0.0007949796847358862,-0.005628071842572444,-0.3559341303579637
7058,13.0,299.91447999999997,16531.742,0.0,-0.035289794397054264,-0.03528934231730274,0.0,0.0,0.0,-1.217823370014809,-1.935303941974628,-1.872109559737828,-0.00040743321517052757,-0.005680115002158704,-0.35255351259182266
7059,13.0,299.96303,16390.433999999997,0.0,-0.03529480888579262,-0.03529434452748992,0.0,0.0,0.0,-1.2101654284090289,-1.922428572953928,-1.8496885641750482,-0.0001981140336748328,0.0006550140376673524,-0.35320695758131265
7060,13.0,299.91904,16296.136,0.0,-0.03529982337453108,-0.03529934673767687,0.0,0.0,0.0,-1.205329894956799,-1.9075374441842883,-1.8407511916679982,0.001791609068443048,0.0017065819836515283,-0.35181463035390065
7061,13.0,300.013,16389.256999999998,0.0,-0.03530480487321197,-0.03530434894786405,0.0,0.0,0.0,-1.221327290185619,-1.913495152122268,-1.8471024459448182,-0.002370584532558478,0.005250270498361355,-0.3573156766043117
7062,13.0,300.37276,16475.441000000003,0.0,-0.035309819361950434,-0.03530935115805123,0.0,0.0,0.0,-1.2328797598757588,-1.9163908182580482,-1.8588519927794085,-0.0007395359767540183,0.0024891723858371877,-0.3567557444665507
7063,13.0,300.33333999999996,16398.97,0.0,-0.035314800860631324,-0.03531435336823818,0.0,0.0,0.0,-1.2113206348480388,-1.9136607171886082,-1.859895944357438,0.0034802381854977674,0.004123799730862346,-0.3534499146902907
7064,13.0,300.3141,16333.623,0.0,-0.0353198153493699,-0.03531935557842536,0.0,0.0,0.0,-1.1972384849582387,-1.9144084957624083,-1.8533663580630182,0.0013220879198799188,0.0031334354042459973,-0.3569849720366736
7065,13.0,300.06862,16394.854,0.0,-0.035324796848050566,-0.0353243248793349,0.0,0.0,0.0,-1.2092029421390387,-1.9156020030551981,-1.858821189976368,-0.0004738147350668736,-0.007845685703558893,-0.35130751894385265
7066,13.0,299.9456,16534.531000000003,0.0,-0.03532981133678903,-0.035329327089521856,0.0,0.0,0.0,-1.235026836837659,-1.929312796783348,-1.8617448218149084,-0.004776980160751235,-0.007978609931177492,-0.35285709245428365
7067,13.0,300.11009,16571.267,0.0,-0.035334825825527494,-0.03533432929970903,0.0,0.0,0.0,-1.2414407099706588,-1.934393131459738,-1.8614173393825881,-0.0033429644804999063,0.0007352882600823012,-0.35174747213727264
7068,13.0,299.89834,16423.778000000002,0.0,-0.03533980732420827,-0.0353393315098961,0.0,0.0,0.0,-1.2200980151642988,-1.9195090954407983,-1.8528112996582382,-0.0038929799395322063,0.002470337383703318,-0.35137606531311766
7069,13.0,299.73151,16349.173999999999,0.0,-0.035344821812946736,-0.035344333720083165,0.0,0.0,0.0,-1.1988579625930686,-1.9227882767394282,-1.8480942151426982,-0.0008918759811988061,-0.0017848834182542783,-0.3534626715090497
7070,13.0,299.93298,16435.083,0.0,-0.035349803311627626,-0.03534933593027034,0.0,0.0,0.0,-1.209355132304059,-1.9194179029317981,-1.8670819140666384,-0.004484177530328866,-0.0015588547800219885,-0.3484825675325517
7071,13.0,300.01526,16472.525,0.0,-0.03535481780036598,-0.03535433814045741,0.0,0.0,0.0,-1.219661304371199,-1.9239345665775582,-1.8636404101019883,0.007066690211403024,-0.0018089122390757383,-0.3479948801269207
7072,13.0,300.01489,16411.679,0.0,-0.03535979929904687,-0.035359340350644364,0.0,0.0,0.0,-1.2185723644887287,-1.9235784091674084,-1.8465899440442382,-0.00018927342655233282,0.0051768087515362445,-0.3552325154587197
7073,13.0,300.05584,16380.213,0.0,-0.03536481378778533,-0.03536434256083132,0.0,0.0,0.0,-1.221903221542459,-1.918830420523818,-1.8384420960151084,0.0021461266346312078,0.0005883903915271104,-0.35980973093045565
7074,13.0,299.90567999999996,16452.131,0.0,-0.03536979528646622,-0.035369344771018496,0.0,0.0,0.0,-1.2219931981513386,-1.9284107002193183,-1.8506332172432784,-0.0065720261735334835,-0.001220340080613189,-0.36168265281279866
7075,13.0,299.91514,16547.549,0.0,-0.035374809775204685,-0.03537434698120567,0.0,0.0,0.0,-1.223924655491959,-1.934759117395858,-1.8713579308136483,-0.004099050489219786,0.0048111755277760555,-0.36350865108301067
7076,13.0,300.07343,16528.118000000002,0.0,-0.03537982426394304,-0.03537934919139263,0.0,0.0,0.0,-1.216933128476949,-1.932129632061348,-1.875072404355238,-0.0033405354160351763,0.00034117090414844667,-0.35783639596320266
7077,13.0,300.04508,16422.87,0.0,-0.03538480576262415,-0.035384351401579806,0.0,0.0,0.0,-1.2136506034529888,-1.9268297260882878,-1.8516621727198284,0.0028712139790667574,-0.005952932692908714,-0.35941582995408067
7078,13.0,300.02927,16388.994,0.0,-0.03538982025136239,-0.03538935361176687,0.0,0.0,0.0,-1.2146061996222988,-1.9164583007147082,-1.8507804424828085,0.0021008783302155476,-0.005156357615492875,-0.3499723086245777
7079,13.0,300.05032,16429.045,0.0,-0.03539480175004328,-0.0353943229126763,0.0,0.0,0.0,-1.2299468061362988,-1.9166495010085782,-1.8474232409264784,0.005588565119848434,-0.004232149705130655,-0.35104557352800064
7080,13.0,299.9604,16499.884,0.0,-0.035399816238781745,-0.03539932512286348,0.0,0.0,0.0,-1.2235677888067387,-1.927870840566038,-1.8641142058487483,0.0007342349663383494,-0.0005257384122013415,-0.34964520109479463
7081,13.0,300.086,16510.705,0.0,-0.03540479773746252,-0.035404327333050545,0.0,0.0,0.0,-1.217351398118229,-1.9281190868405382,-1.8733714614123682,-0.00028053639696428676,-0.006104150745782775,-0.3556546253178786
7082,13.0,299.98515,16487.889,0.0,-0.03540981222620099,-0.03540932954323772,0.0,0.0,0.0,-1.2142437600615288,-1.9296080578624881,-1.8680547354876482,-0.001049878989789989,-0.002113094276071168,-0.35520103377811263
7083,13.0,299.93841000000003,16506.016,0.0,-0.03541479372488188,-0.0354143317534249,0.0,0.0,0.0,-1.2304252628335188,-1.9294727889741383,-1.8575186569728181,-0.0036965578612718564,0.0032579820800377967,-0.35355771436842964
7084,13.0,299.8864,16552.938000000002,0.0,-0.03541980821362023,-0.035419333963611854,0.0,0.0,0.0,-1.2383738045679789,-1.9317187591457983,-1.8615872614243585,-0.002102690021394348,0.0046141974791858355,-0.35409914455936464
7085,13.0,299.97456,16527.065,0.0,-0.035424822702358694,-0.03542433617379903,0.0,0.0,0.0,-1.2359295413517488,-1.933223435544298,-1.8546621022908982,-0.003310861474931587,-0.0006916046570010653,-0.3583909578754337
7086,13.0,300.17731000000003,16446.78,0.0,-0.03542980420103958,-0.03542933838398599,0.0,0.0,0.0,-1.2141875246809788,-1.9228395471944881,-1.8623832707029184,-0.0006593389842616913,0.004053407726540196,-0.35758888936127564
7087,13.0,300.002,16413.772,0.0,-0.035434818689777825,-0.03543434059417294,0.0,0.0,0.0,-1.2013817659421488,-1.928423872470618,-1.8595710963753782,0.0005938177137002455,0.0014082795330113685,-0.36193701911790266
7088,13.0,300.0803,16452.748,0.0,-0.035439800188458936,-0.03543934280436012,0.0,0.0,0.0,-1.210749263116649,-1.9225347615644084,-1.8679405422013782,-0.0032563272399744768,0.0011101593660641988,-0.35433339784998363
7089,13.0,300.26628,16539.198,0.0,-0.03544481467719729,-0.035444345014547074,0.0,0.0,0.0,-1.222881007888959,-1.9378142690973783,-1.866807728589578,-0.0011809878785294288,-0.006744408386546283,-0.3585493693960677
7090,13.0,300.18575,16504.984,0.0,-0.03544979617587829,-0.03544934722473425,0.0,0.0,0.0,-1.2285423401726887,-1.9292374109759083,-1.8593231540759083,-0.0005747134707498035,-0.0007613053309124863,-0.35125322900349465
7091,13.0,300.27255,16463.293999999998,0.0,-0.03545481066461664,-0.03545434943492132,0.0,0.0,0.0,-1.2217221537495888,-1.924373202545848,-1.8583350325783883,0.0024885946306301677,-0.0023599218991061576,-0.35331154525663466
7092,13.0,300.13218,16516.318,0.0,-0.035459825153354996,-0.035459351645108494,0.0,0.0,0.0,-1.2172303147312789,-1.937883879379248,-1.865434166754018,0.0005758824371251715,0.0022108064415146075,-0.35664742803086064
7093,13.0,299.91362000000004,16564.036,0.0,-0.035464806652035996,-0.035464320946017924,0.0,0.0,0.0,-1.2191396832197188,-1.936054557648708,-1.8798588965026282,-0.0004343926592562176,-0.0014068745604227085,-0.3589223062278737
7094,13.0,300.10317000000003,16570.119,0.0,-0.03546982114077435,-0.03546932315620499,0.0,0.0,0.0,-1.2282054345144389,-1.9358477533032983,-1.872849333635838,0.0022043630828036983,0.0022857473308356977,-0.35507233075041067
7095,13.0,299.9498,16486.237,0.0,-0.03547480263945524,-0.03547432536639217,0.0,0.0,0.0,-1.2283799161816589,-1.9231469672748283,-1.8598774018806083,0.002229311732065938,0.0014610466597940784,-0.35170834041841065
7096,13.0,299.90505,16474.95,0.0,-0.0354798171281937,-0.035479327576579345,0.0,0.0,0.0,-1.2353471251942687,-1.9161584800101181,-1.8564678152941083,-0.0016605913722126083,0.003494795651009476,-0.3536465156071937
7097,13.0,300.1059,16548.221,0.0,-0.03548479862687437,-0.0354843297867663,0.0,0.0,0.0,-1.2347803130883288,-1.9297278240243083,-1.865737837808988,-0.0027859331764501973,-0.0014388962020079985,-0.35346094898387964
7098,13.0,300.08266000000003,16581.048,0.0,-0.035489813115612945,-0.03548933199695348,0.0,0.0,0.0,-1.2238667989112488,-1.935101494604648,-1.8812561683905282,-0.003989550577412986,-0.0008675844854214223,-0.36212801676175266
7099,13.0,299.93251000000004,16521.698,0.0,-0.035494794614293834,-0.03549433420714043,0.0,0.0,0.0,-1.2149576960819888,-1.931682991417268,-1.8755429577016784,-0.0005420285252515505,-0.002329397435868628,-0.3549365755020127
7100,13.0,300.19693,16449.532,0.0,-0.035499809103032076,-0.03549933641732761,0.0,0.0,0.0,-1.213133744576979,-1.9311480966894783,-1.8559651419194982,0.0004489596391863665,-0.003371808873746627,-0.36157175258935365
7101,13.0,300.20302999999996,16489.998,0.0,-0.03550482359177065,-0.035504338627514787,0.0,0.0,0.0,-1.2246887473923687,-1.929794293230868,-1.8580646974517085,0.0008771630527242532,0.0017511305375481285,-0.35436521390312364
7102,13.0,300.08592999999996,16566.063000000002,0.0,-0.03550980509045154,-0.03550934083770174,0.0,0.0,0.0,-1.2329360965813188,-1.941870106597658,-1.8608633955529184,0.004227607203607346,-0.00025300263258941575,-0.36019653915613065
7103,13.0,299.80397,16580.854,0.0,-0.03551481957918978,-0.0355143430478887,0.0,0.0,0.0,-1.2263732756836188,-1.9419173240523182,-1.871875093664688,0.0002919702252002177,0.00044855356907629057,-0.35378997155635167
7104,13.0,299.73507,16518.499,0.0,-0.035519801077870894,-0.03551934525807576,0.0,0.0,0.0,-1.209907049633529,-1.9352851968477784,-1.8760189825986584,-0.0029038469144373772,-0.002026211322396488,-0.36107304102263466
7105,13.0,299.76965,16525.389,0.0,-0.035524815566609136,-0.03552434746826294,0.0,0.0,0.0,-1.2156526843255788,-1.9389031076548382,-1.8687497237312383,0.0015688859560119884,-0.003212007477950457,-0.3582319789347437
7106,13.0,299.99643,16571.749,0.0,-0.03552979706529025,-0.03552934967845012,0.0,0.0,0.0,-1.2311308902031588,-1.934172546912968,-1.872094462311338,-0.004838960466718215,-0.00024696565809611274,-0.35748573036859466
7107,13.0,300.06718,16594.917,0.0,-0.0355348115540286,-0.03553435188863707,0.0,0.0,0.0,-1.2424230559426088,-1.9398296235462782,-1.8621877134336182,-0.0009132432777175943,0.0012430862281330587,-0.3546127711675557
7108,13.0,300.25306,16547.858,0.0,-0.03553979305270949,-0.03553932118954661,0.0,0.0,0.0,-1.2399191122954887,-1.9308230460573983,-1.8593934736328481,-0.0027863851873198074,0.0034245702250037665,-0.35718029625845066
7109,13.0,299.95852,16519.543,0.0,-0.035544807541447954,-0.03554432339973379,0.0,0.0,0.0,-1.226448661491059,-1.931871151960838,-1.863208866884398,0.0018155079906016882,0.007271141080805753,-0.35883698043695267
7110,13.0,300.00928999999996,16552.453,0.0,-0.03554982203018631,-0.035549325609920746,0.0,0.0,0.0,-1.217631055145829,-1.9440414002369482,-1.8698599418658084,0.000972269827920561,0.0024797038676277177,-0.35994716817401967
7111,13.0,300.03807,16616.561,0.0,-0.035554803528867196,-0.03555432782010792,0.0,0.0,0.0,-1.2287875466968887,-1.940082632096248,-1.882149247028668,0.0006258795610495034,-0.0013449269824339588,-0.3583364247550517
7112,13.0,300.07833,16624.163,0.0,-0.03555981801760566,-0.03555933003029488,0.0,0.0,0.0,-1.2303713579281987,-1.9470144786803683,-1.8759447113663283,-0.0038256858460657965,-0.004082691971655326,-0.35495086232842266
7113,13.0,299.7684,16545.208,0.0,-0.03556479951628633,-0.035564332240482055,0.0,0.0,0.0,-1.2328239297952488,-1.937307745372388,-1.8591983216635883,0.003335761893489067,-0.0010414858339116491,-0.3571363819991167
7114,13.0,299.67477,16540.893,0.0,-0.0355698140050249,-0.03556933445066923,0.0,0.0,0.0,-1.229938294835459,-1.9331686187138881,-1.8649115323524381,-0.0009776479466688402,0.0007696112662222182,-0.3531088749716327
7115,13.0,299.66821,16588.993000000002,0.0,-0.03557479550370579,-0.03557433666085619,0.0,0.0,0.0,-1.227154390185709,-1.9433134813651083,-1.8721717732939682,-0.0012424021829905488,0.0003882684001291076,-0.3565377031775317
7116,13.0,300.10731,16608.83,0.0,-0.035579809992444034,-0.035579338871043364,0.0,0.0,0.0,-1.221111366589309,-1.941283536114768,-1.886274694810818,-0.0027781672223837575,-0.0008085540848680752,-0.3576782073575907
7117,13.0,299.89752000000004,16527.6,0.0,-0.0355848244811825,-0.03558434108123032,0.0,0.0,0.0,-1.2232881317791386,-1.930030887129218,-1.8706585855946283,-0.006340402976199055,-0.00013232296500925988,-0.35730266647302766
7118,13.0,299.95585,16520.534,0.0,-0.03558980597986339,-0.035589343291417386,0.0,0.0,0.0,-1.2232101115214387,-1.934759016070848,-1.8638608933237482,0.0027192729722463472,0.00011778833815480386,-0.3642259713588047
7119,13.0,299.92082,16595.286,0.0,-0.03559482046860174,-0.03559434550160456,0.0,0.0,0.0,-1.2412099929228888,-1.9311362416633084,-1.8722063251223784,-0.005024721127426365,-0.00038169135320000367,-0.35628489727758167
7120,13.0,300.10822,16675.236,0.0,-0.03559980196728285,-0.03559934771179152,0.0,0.0,0.0,-1.2403713258151188,-1.9523256317295379,-1.8761583044874084,0.002798548545495237,0.0034960334373316366,-0.36389519586365965
7121,13.0,299.99188,16657.967,0.0,-0.035604816456021315,-0.035604349921978695,0.0,0.0,0.0,-1.2308690663773187,-1.9490341901046984,-1.8837027620819882,-0.006447553768974014,0.0090298874087555,-0.35927395467507867
7122,13.0,300.01801,16592.806,0.0,-0.035609797954702205,-0.035609319222888236,0.0,0.0,0.0,-1.219830922437939,-1.9447060923025483,-1.8792617882186982,-0.0003244257303458267,0.007608223145898162,-0.35946606689403865
7123,13.0,299.9462,16563.887,0.0,-0.03561481244344056,-0.03561432143307519,0.0,0.0,0.0,-1.2203647025906188,-1.943129272496928,-1.871513971329048,-0.002734302207004617,0.00012121189746018289,-0.35424888265914267
7124,13.0,300.19698,16616.755,0.0,-0.03561979394212145,-0.03561932364326237,0.0,0.0,0.0,-1.2328178502946487,-1.9395724606708982,-1.878688389987108,0.002828662135817217,-0.00018263561501473183,-0.35472263787589864
7125,13.0,300.04748,16630.483,0.0,-0.03562480843085991,-0.03562432585344932,0.0,0.0,0.0,-1.2442014111931188,-1.9395307147667782,-1.8715195442045982,0.005138510532206505,-0.0024020904298428674,-0.3507747621737736
7126,13.0,299.89526,16541.8,0.0,-0.03562982291959815,-0.0356293280636365,0.0,0.0,0.0,-1.2272509529202387,-1.9316183460608882,-1.8694250549228884,0.003958723253720566,-0.0037018899885980965,-0.3542540907646567
7127,13.0,299.66882999999996,16559.896,0.0,-0.03563480441827904,-0.03563433027382368,0.0,0.0,0.0,-1.2218627928634689,-1.9367647446437983,-1.875167345889608,0.0012353750908970288,-0.0025369432777018076,-0.35911032491642964
7128,13.0,300.01872000000003,16681.016,0.0,-0.03563981890701762,-0.03563933248401063,0.0,0.0,0.0,-1.233398746576979,-1.946280581632938,-1.8909330108205582,0.00044396271525820857,-1.1468036572557089e-05,-0.35893758603938164
7129,13.0,299.97234,16735.842,0.0,-0.035644800405698285,-0.03564433469419781,0.0,0.0,0.0,-1.2396480678937387,-1.9519018905377181,-1.8957280142687882,-0.003035589084489317,0.003957643534414006,-0.36089686722774766
7130,13.0,300.07479,16655.326,0.0,-0.03564981489443675,-0.035649336904384876,0.0,0.0,0.0,-1.2333810147002289,-1.9487066063473681,-1.8807158021121984,-0.003911414201251527,-0.002362277401613628,-0.36308278206598066
7131,13.0,300.03298,16594.866,0.0,-0.03565479639311764,-0.03565433911457194,0.0,0.0,0.0,-1.2354312249525687,-1.9386398652788583,-1.8703537999645483,-0.0025406022251379177,-0.0051739288921020254,-0.35926302170649965
7132,13.0,300.13493,16612.436,0.0,-0.03565981088185599,-0.03565934132475912,0.0,0.0,0.0,-1.2277469388441888,-1.945904868495858,-1.8761141267830483,0.0024435506987596774,0.0013206854804165087,-0.36102929901581765
7133,13.0,300.03377,16614.078,0.0,-0.0356647923805371,-0.035664343534946186,0.0,0.0,0.0,-1.2271963387398488,-1.9443308857905182,-1.8787375326169582,0.0020288462792815384,0.006907533749295503,-0.3564781342041527
7134,13.0,300.15869,16609.237,0.0,-0.03566980686927557,-0.03566934574513314,0.0,0.0,0.0,-1.227740960668599,-1.9415516420912282,-1.879500712592278,-0.002116300807337628,0.004292679746229506,-0.35928197961587066
7135,13.0,299.88897000000003,16593.536,0.0,-0.03567482135801381,-0.035674347955320096,0.0,0.0,0.0,-1.224097921259059,-1.943474689456018,-1.876447891365988,-0.004619456652504876,0.00021473093001479277,-0.35170256489284063
7136,13.0,299.83225,16612.64,0.0,-0.0356798028566947,-0.03567931725622986,0.0,0.0,0.0,-1.2331725891546588,-1.946597323614198,-1.8700580322603582,-0.0014737795658507184,-0.0016382229643300181,-0.36617661965631865
7137,13.0,299.76415,16734.595,0.0,-0.03568481734543327,-0.035684319466416814,0.0,0.0,0.0,-1.2539160478518787,-1.950782958452288,-1.8821999095336681,0.0011666954792438789,0.0027410007020907076,-0.35484215072519365
7138,13.0,299.85515,16772.635,0.0,-0.03568979884411416,-0.03568932167660377,0.0,0.0,0.0,-1.2452109122677488,-1.9585674549955583,-1.8946839613657482,0.003795019933114306,-0.004429063412339527,-0.36320157550770465
7139,13.0,299.85199,16650.335,0.0,-0.035694813332852404,-0.035694323886790946,0.0,0.0,0.0,-1.2318796820270588,-1.950003566475368,-1.879402832632618,0.0020761844120284483,-0.0005230580718443125,-0.3603753170037747
7140,13.0,299.96457000000004,16591.631,0.0,-0.035699794831533294,-0.03569932609697812,0.0,0.0,0.0,-1.221874749214649,-1.9418680800974581,-1.8796984990117982,-0.0015521746247627085,-0.00045119223445670654,-0.3633852574858326
7141,13.0,299.99467999999996,16649.756,0.0,-0.03570480932027187,-0.03570432830716508,0.0,0.0,0.0,-1.2305804927488386,-1.9510771049563178,-1.8794523805625083,0.005932923333908944,0.0036734522126165067,-0.36207016018104266
7142,13.0,300.00329,16668.785,0.0,-0.03570982380901011,-0.035709330517352256,0.0,0.0,0.0,-1.2410787770349387,-1.9453361312147284,-1.8804796135138881,-0.0009972811365689849,-0.0013892362066569386,-0.35785489791002867
7143,13.0,300.15311,16639.744,0.0,-0.035714805307691,-0.03571433272753932,0.0,0.0,0.0,-1.239930156721579,-1.946995936203538,-1.8711406899922083,0.0005389926556994335,-0.0044803067122968455,-0.36120459128311766
7144,13.0,300.11747,16609.567,0.0,-0.035719819796429464,-0.0357193349377265,0.0,0.0,0.0,-1.2259858088453788,-1.947795390532438,-1.8751125290591981,-0.002157334497962338,-0.0004586261160678736,-0.36007209177884864
7145,13.0,299.96231,16655.407,0.0,-0.03572480129511024,-0.035724337147913676,0.0,0.0,0.0,-1.2346862834790489,-1.9473586797393379,-1.8807829805938283,-0.0003935149584844026,0.006168478853556464,-0.3608276825109197
7146,13.0,299.98906,16741.994,0.0,-0.035729815783848706,-0.03572933935810063,0.0,0.0,0.0,-1.2402055580987588,-1.9604394345553084,-1.8885031357557482,0.002624582014626077,0.0026352351235274575,-0.35737713022287665
7147,13.0,300.19272,16764.224,0.0,-0.03573479728252982,-0.03573434156828781,0.0,0.0,0.0,-1.2432878649029588,-1.9604911103104083,-1.8921265181133482,-0.0039419871991688464,0.0006905467833666613,-0.3609866614516096
7148,13.0,300.14464,16674.096999999998,0.0,-0.03573981177126806,-0.035739343778474764,0.0,0.0,0.0,-1.237176446924809,-1.9506383676630181,-1.8806943212100784,0.0019470260297315082,0.0022705322660090876,-0.36126584225166264
7149,13.0,300.06609,16641.871,0.0,-0.03574479326994895,-0.03574434598866172,0.0,0.0,0.0,-1.2368328538158988,-1.9484281652198878,-1.8734521161203281,-0.0007612940230413703,0.0016745305525132982,-0.3650026984879617
7150,13.0,300.03756,16732.846999999998,0.0,-0.035749807758687524,-0.035749348198848896,0.0,0.0,0.0,-1.239802183233949,-1.951469131420008,-1.8950961515064282,-0.004032274571854517,-0.0036654837098550764,-0.36011778935835864
7151,13.0,300.05374,16743.75,0.0,-0.035754822247425766,-0.03575431749975844,0.0,0.0,0.0,-1.2463243728026387,-1.9514224205903983,-1.8919352164944683,-0.002998835058311977,-0.009289843206711142,-0.36117052581475567
7152,13.0,299.95602,16677.822,0.0,-0.035759803746106655,-0.035759319709945614,0.0,0.0,0.0,-1.2243274224067089,-1.9530364266746878,-1.8922776950282683,-0.0035271604804036367,-0.004540584352795785,-0.36309319827700864
7153,13.0,300.14655,16645.063000000002,0.0,-0.03576481823484523,-0.03576432192013257,0.0,0.0,0.0,-1.2303613267522089,-1.948016076404218,-1.8813061216204585,0.00016487756601464885,0.0019383648692017183,-0.3586570170866916
7154,13.0,300.38662,16704.608,0.0,-0.03576979973352612,-0.035769324130319524,0.0,0.0,0.0,-1.2382112792519389,-1.9533098015516683,-1.8862627384596382,0.0028363836082042674,0.002110638968428848,-0.3541299169649017
7155,13.0,300.41377,16745.501,0.0,-0.03577481422226436,-0.0357743263405067,0.0,0.0,0.0,-1.2477964225479188,-1.958989271012188,-1.883428677929938,0.0028529742613666374,0.004539225483086676,-0.35975225938478367
7156,13.0,300.02457999999996,16724.538,0.0,-0.03577979572094525,-0.03577932855069377,0.0,0.0,0.0,-1.2395845371124687,-1.955145810732868,-1.889111491115788,0.005532292958319805,0.004335701028250376,-0.35819021276562163
7157,13.0,300.12532000000004,16690.973,0.0,-0.035784810209683715,-0.035784330760880945,0.0,0.0,0.0,-1.2383458388652187,-1.956409637582598,-1.8788834406313584,0.00035664934307354966,0.005172357645171955,-0.36276690134730566
7158,13.0,300.06332000000003,16661.998,0.0,-0.03578979170836449,-0.03578933297106812,0.0,0.0,0.0,-1.2259071806376187,-1.949950472170128,-1.8889737904271984,-0.003563246876090087,-0.0039287751271399165,-0.3641118490000416
7159,13.0,300.17053,16722.978,0.0,-0.03579480619710296,-0.03579433518125508,0.0,0.0,0.0,-1.2378374912900487,-1.9553326540513083,-1.890197593897978,-0.004216913767351986,-0.00916061369425718,-0.3679924448955267
7160,13.0,300.17187,16790.622,0.0,-0.03579982068584142,-0.035799337391442254,0.0,0.0,0.0,-1.2496982929856189,-1.9561454832815284,-1.898086151226518,-0.0002574147389573568,0.0004314692604652005,-0.35826191034269766
7161,13.0,299.92728,16706.991,0.0,-0.03580480218452231,-0.03580433960162921,0.0,0.0,0.0,-1.237803040786649,-1.949883698988538,-1.8908214519845483,-0.0006550426011876714,0.003459530595854087,-0.36149337769411866
7162,13.0,299.89191,16630.709,0.0,-0.035809816673260664,-0.035809341811816386,0.0,0.0,0.0,-1.2272880378738988,-1.9488409633106283,-1.879191164686728,-1.0301250711404291e-05,-0.002077459688604308,-0.35924870448258667
7163,13.0,300.0736,16742.518,0.0,-0.035814798171941775,-0.035814344022003564,0.0,0.0,0.0,-1.2366427680971388,-1.953492997169748,-1.8991717473836585,0.00029686005872530676,-0.006326868893288344,-0.3542559044823357
7164,13.0,299.90117000000004,16794.592,0.0,-0.03581981266068002,-0.03581934623219052,0.0,0.0,0.0,-1.2383310454137588,-1.964503175406368,-1.9023021835676084,0.003341642999719487,-3.5032849643223066e-05,-0.35849557594825865
7165,13.0,299.81366,16736.928,0.0,-0.035824794159360906,-0.03582431553310006,0.0,0.0,0.0,-1.2397657062303489,-1.9599908687360381,-1.8878516159414482,0.0035562221144717966,0.0037912126458635566,-0.35700955348409963
7166,13.0,299.88555,16694.57,0.0,-0.03582980864809937,-0.03582931774328724,0.0,0.0,0.0,-1.2390675769114488,-1.9540280945475583,-1.8816366438030783,-0.002076746968483968,-0.0020606994173751982,-0.35990846202019966
7167,13.0,300.12018,16725.726000000002,0.0,-0.03583482313683772,-0.03583431995347419,0.0,0.0,0.0,-1.246001956620819,-1.9575084059910381,-1.880692700009918,-2.3471170522924177e-05,0.00047701811512552256,-0.3596433451315346
7168,13.0,300.21955,16758.994,0.0,-0.03583980463551861,-0.03583932216366115,0.0,0.0,0.0,-1.2482506625677487,-1.9565593959473782,-1.8895055440796782,-0.004319239463150746,0.003626343277042216,-0.3645855940842967
7169,13.0,300.13981,16795.909,0.0,-0.03584481912425708,-0.03584432437384821,0.0,0.0,0.0,-1.251499952988429,-1.959026457290858,-1.895010430547968,0.006091011627761045,0.005506180388667695,-0.36281269011932465
7170,13.0,300.10278,16774.805,0.0,-0.035849800622937966,-0.03584932658403539,0.0,0.0,0.0,-1.239684646222349,-1.9619712660564879,-1.8974659408403085,-0.002840745852534787,-0.0027635542307665674,-0.36914849233211966
7171,13.0,300.08797000000004,16686.652,0.0,-0.03585481511167632,-0.03585432879422257,0.0,0.0,0.0,-1.2385295411083488,-1.9498173311069882,-1.8839785687592083,0.0019980606001682283,-0.006806308443105344,-0.36325976646094765
7172,13.0,300.03525,16719.07,0.0,-0.03585979661035721,-0.03585933100440952,0.0,0.0,0.0,-1.244092588132379,-1.9549247195610482,-1.8831623958036583,-6.182559382246104e-05,0.0007049405380597142,-0.36542113024925765
7173,13.0,300.00799,16812.009,0.0,-0.03586481109909567,-0.0358643332145967,0.0,0.0,0.0,-1.251265689565309,-1.961659387675708,-1.8975057615692381,0.00040062466085857563,0.004842772414919426,-0.3577983382894467
7174,13.0,299.93627999999995,16728.986,0.0,-0.03586979259777656,-0.035869335424783655,0.0,0.0,0.0,-1.2411577092177288,-1.956370222153708,-1.887666191173148,-0.0018352658609266386,-0.0025474258566113577,-0.3610149007318966
7175,13.0,299.88259,16678.105,0.0,-0.035874807086514915,-0.03587433763497083,0.0,0.0,0.0,-1.2262265570691386,-1.959069925720148,-1.884431086253868,-0.0009157707085020323,-0.005599950504597084,-0.36094018366952263
7176,13.0,299.74138999999997,16747.796000000002,0.0,-0.03587982157525338,-0.03587933984515801,0.0,0.0,0.0,-1.2359647011302188,-1.960982232633878,-1.893964857769778,0.004664395915640035,-2.5843365312541573e-05,-0.3641902340277776
7177,13.0,299.91874,16832.444,0.0,-0.03588480307393427,-0.035884342055344964,0.0,0.0,0.0,-1.2509203739312287,-1.9695151157010085,-1.8962072815660882,0.00892063604719823,-0.001889443431848548,-0.36144906826724565
7178,13.0,300.27752000000004,16795.863,0.0,-0.03588981756267262,-0.03588934426553214,0.0,0.0,0.0,-1.2469455964389489,-1.9669855368263585,-1.891591927360588,0.005768896786520785,-0.0006372143136906563,-0.36730814644049165
7179,13.0,299.9771,16712.834,0.0,-0.03589479906135362,-0.03589431356644168,0.0,0.0,0.0,-1.2376411234206688,-1.957041095044918,-1.8856020993944382,0.0032129867841721067,-0.002297339114629718,-0.36469749742534063
7180,13.0,299.83736,16709.236,0.0,-0.035899813550091975,-0.03589931577662864,0.0,0.0,0.0,-1.2361110144446588,-1.956875124678538,-1.8862043752538782,-0.002827116524114677,0.006617449770216444,-0.36506908663451365
7181,13.0,299.91295,16778.248,0.0,-0.035904795048772864,-0.035904317986815815,0.0,0.0,0.0,-1.2427799226278289,-1.9573782033531881,-1.9000104144914283,-0.008267189132533043,0.0034266724149862367,-0.36238526069714067
7182,13.0,299.78352,16828.159,0.0,-0.03590980953751133,-0.03590932019700288,0.0,0.0,0.0,-1.2422815049036389,-1.966031663182218,-1.9070268674588982,-0.007961517516565602,-0.0032319129788149765,-0.36414958243376566
7183,13.0,299.93708,16818.973,0.0,-0.03591479103619222,-0.03591432240718995,0.0,0.0,0.0,-1.2523599996733088,-1.9640814607147479,-1.8961062605311183,-0.0044044616999115264,-0.004606995702775076,-0.36338094104040664
7184,13.0,300.06868,16771.683999999997,0.0,-0.03591980552493057,-0.03591932461737701,0.0,0.0,0.0,-1.241458948472459,-1.961204235730788,-1.8955098615222585,0.0028257000004748775,-0.0018104459957521083,-0.3582479781538227
7185,13.0,299.86804,16769.765,0.0,-0.035924820013669034,-0.03592432682756397,0.0,0.0,0.0,-1.2449249730895289,-1.963933526200148,-1.8887312183532583,0.007342994394422123,-0.002707891032548037,-0.35922834828807765
7186,13.0,300.0294,16822.235,0.0,-0.035929801512349924,-0.035929329037751145,0.0,0.0,0.0,-1.2439533675686387,-1.966106441039598,-1.9034794788587983,0.004682876989513975,-0.0028438828748443873,-0.35270831694210064
7187,13.0,300.19054,16774.047,0.0,-0.03593481600108828,-0.0359343312479381,0.0,0.0,0.0,-1.2366977875775689,-1.964219060078328,-1.897974491065498,0.008203603737082652,-0.0059010574288640245,-0.36461730881242665
7188,13.0,299.92503999999997,16726.543999999998,0.0,-0.035939797499769166,-0.03593933345812528,0.0,0.0,0.0,-1.2304374218347187,-1.963811834863138,-1.8902023561734482,0.002671680615049347,0.005621537190027525,-0.36743889623339565
7189,13.0,299.99751000000003,16766.608,0.0,-0.03594481198850763,-0.035944335668312455,0.0,0.0,0.0,-1.2491973421361788,-1.958324072321538,-1.8891089579905382,-0.0018483612065440481,0.0008781736481089912,-0.36937788202225863
7190,13.0,300.09661,16821.103,0.0,-0.03594979348718852,-0.03594933787849941,0.0,0.0,0.0,-1.2508974744789687,-1.9688064485810681,-1.8934912646730382,-0.0029551850546040573,-0.003313153953282837,-0.3722605278942537
7191,13.0,299.88454,16833.032,0.0,-0.03595480797592687,-0.03595434008868659,0.0,0.0,0.0,-1.2520571392184188,-1.9686435179649882,-1.8961206486825384,-0.005755762937399575,-0.002718217773592208,-0.36665987915901266
7192,13.0,299.81202,16852.674,0.0,-0.035959822464665336,-0.03595934229887365,0.0,0.0,0.0,-1.2458744897582388,-1.965087010113988,-1.9118305848579882,-0.0003284358196040917,0.004729051607171055,-0.36128849852389866
7193,13.0,299.94757999999996,16835.112,0.0,-0.035964803963346226,-0.03596431159978308,0.0,0.0,0.0,-1.244666087688979,-1.9668485454128382,-1.905938839501518,0.0026506922538029574,0.0013190310456532288,-0.36339238063403567
7194,13.0,299.96234,16802.756,0.0,-0.03596981845208469,-0.03596931380997026,0.0,0.0,0.0,-1.2403705152150388,-1.9620874858429584,-1.9051602581246783,-0.0008873963417117001,8.381331553648022e-05,-0.35810349882206366
7195,13.0,300.21019,16822.502,0.0,-0.03597479995076558,-0.035974316020157326,0.0,0.0,0.0,-1.2493702026032387,-1.969077189007788,-1.895173259839038,0.004945495304757385,0.0002701116949004487,-0.36566997434131665
7196,13.0,300.05798,16819.713,0.0,-0.03597981443950393,-0.035979318230344504,0.0,0.0,0.0,-1.2442499458729088,-1.9690429411544084,-1.8994798767390682,0.0017027423737225884,0.0028504921025966673,-0.36073285243406067
7197,13.0,299.99474,16788.131,0.0,-0.03598479593818482,-0.03598432044053157,0.0,0.0,0.0,-1.2475766486012287,-1.9656715540966783,-1.8899245229960282,0.0030640970787028372,-0.003011302594167427,-0.36480336179578865
7198,13.0,300.02627,16804.281000000003,0.0,-0.035989810426923285,-0.035989322650718636,0.0,0.0,0.0,-1.2414961347511289,-1.969967734520678,-1.8966179518316182,-0.002194166747047398,-0.005471947328739155,-0.36042160226834263
7199,13.0,299.98269,16861.771,0.0,-0.035994791925604175,-0.03599432486090559,0.0,0.0,0.0,-1.245562104752409,-1.9711186853092681,-1.9088765555164482,-0.004272436427781646,-0.00021929618913534878,-0.3640890103427877
7200,13.0,300.01639,16885.433,0.0,-0.03599980641434253,-0.035999327071092546,0.0,0.0,0.0,-1.2528720962738489,-1.9730974614295582,-1.906780445034578,0.0017448944898076782,0.003960901741435566,-0.36352344453447066
7201,13.0,299.90742,16888.069,0.0,-0.03600482090308099,-0.03600432928127972,0.0,0.0,0.0,-1.2553280118662287,-1.9733249360770082,-1.904898535623848,-0.0038843762302830866,0.00017377656674041184,-0.3683207480604277
7202,13.0,299.89285,16867.195,0.0,-0.03600980240176188,-0.0360093314914669,0.0,0.0,0.0,-1.260630349639529,-1.9665054589289783,-1.9000703988973482,0.0006933854744493184,0.003707926426068846,-0.36527523236735865
7203,13.0,300.06423,16838.215,0.0,-0.03601481689050012,-0.036014333701653856,0.0,0.0,0.0,-1.2516479888280387,-1.9697600182501782,-1.8969889026932283,-0.0021363262770139877,-0.0006525043590246664,-0.36550774286780563
7204,13.0,299.92212,16839.951,0.0,-0.036019798389181124,-0.03601933591184103,0.0,0.0,0.0,-1.243103960009809,-1.969276090002418,-1.9065445604112983,-0.0041087690775539355,0.0021433464790068277,-0.36170411344991665
7205,13.0,299.76373,16872.231,0.0,-0.03602481287791959,-0.0360243381220281,0.0,0.0,0.0,-1.2459011382358687,-1.9729763780426084,-1.909859306788438,-0.006244353756819734,-0.005199469988697735,-0.3620274111593237
7206,13.0,299.85516,16849.575,0.0,-0.03602979437660048,-0.036029340332215276,0.0,0.0,0.0,-1.244253694898279,-1.9739690591655783,-1.9036273120483882,-0.003543443510835647,-0.005114411391828105,-0.36472505782806064
7207,13.0,299.96266,16808.996,0.0,-0.03603480886533894,-0.03603434254240245,0.0,0.0,0.0,-1.2446436948617687,-1.967018467454608,-1.8978530023785085,0.004927440707850535,-0.0018258857994508982,-0.36410925507978564
7208,13.0,300.08027999999996,16856.333,0.0,-0.03603979036401983,-0.03603931184331177,0.0,0.0,0.0,-1.247798753023149,-1.9759563465867083,-1.9001492297551281,0.005356529327073285,0.0002990426298382097,-0.36671518234947065
7209,13.0,300.125,16896.018,0.0,-0.03604480485275818,-0.03604431405349895,0.0,0.0,0.0,-1.2575861410390887,-1.9721168379827783,-1.9062644980836583,0.007913887263814862,-0.004798791078428805,-0.36299999953281065
7210,13.0,300.05512999999996,16865.154,0.0,-0.03604981934149665,-0.036049316263686126,0.0,0.0,0.0,-1.2486424863814187,-1.970557446078878,-1.9073857606443183,0.003360115663617597,-0.003928279951816046,-0.36461716695741264
7211,13.0,300.00498,16850.517,0.0,-0.03605480084017754,-0.03605431847387308,0.0,0.0,0.0,-1.2488030865222688,-1.9691418343641682,-1.9041914897040682,0.005453296130173426,0.0027235016702136876,-0.36610449651420063
7212,13.0,299.89979,16882.172,0.0,-0.03605981532891589,-0.03605932068406026,0.0,0.0,0.0,-1.2529857829350688,-1.9679150924680981,-1.9108578647619883,-0.004336762407730126,0.0036488860652670167,-0.36217371434126266
7213,13.0,300.00234,16896.814,0.0,-0.03606479682759678,-0.036064322894247214,0.0,0.0,0.0,-1.252615946648569,-1.9775408670930879,-1.9060527288127584,-0.004897544561000016,1.5330206514973583e-05,-0.36992218984347763
7214,13.0,300.14247,16919.949,0.0,-0.03606981131633524,-0.03606932510443439,0.0,0.0,0.0,-1.2575548316109988,-1.976747492264788,-1.9089396809976782,-0.007554871475132763,-0.0008458916215130032,-0.3670346702385016
7215,13.0,299.91756000000004,16884.432,0.0,-0.03607479281501613,-0.036074327314621346,0.0,0.0,0.0,-1.2513458376482187,-1.972846986004838,-1.9082529000798985,-0.000977519476688661,-0.0006694941415339275,-0.3663198222929517
7216,13.0,299.83689,16821.894,0.0,-0.036079807303754374,-0.0360793295248083,0.0,0.0,0.0,-1.2384252776730589,-1.971684281515088,-1.9033260727936583,0.00035663730566236167,0.0007556346564628343,-0.36272704008837164
7217,13.0,299.86135,16883.269,0.0,-0.03608482179249295,-0.03608433173499548,0.0,0.0,0.0,-1.2469601872403886,-1.9751019741023879,-1.910030140755298,0.0033834109926916666,-0.004010065446887646,-0.3637315762375117
7218,13.0,299.88473999999997,16938.279,0.0,-0.03608980329117384,-0.036089333945182545,0.0,0.0,0.0,-1.2537971936151489,-1.9821878347017083,-1.9128287375314983,0.011186936676814689,0.005209611304973605,-0.36471132828920566
7219,13.0,299.96402,16915.689,0.0,-0.03609481777991208,-0.03609433615536972,0.0,0.0,0.0,-1.2578650887916187,-1.9806761668775181,-1.903405916901538,0.0022455119799647777,0.004107384268642266,-0.3714082629701417
7220,13.0,299.97865,16860.756,0.0,-0.03609979927859297,-0.0360993383655569,0.0,0.0,0.0,-1.2491365471301787,-1.9713816237102182,-1.9047305387572682,-0.002998768487780407,0.00033430032879787363,-0.36473761199679966
7221,13.0,299.98703,16896.129,0.0,-0.036104813767331545,-0.036104340575743854,0.0,0.0,0.0,-1.2546689940011886,-1.977545021418498,-1.9037872029141683,-0.01015240528496439,-0.006062288723201314,-0.3671304325054527
7222,13.0,299.98847,16957.615,0.0,-0.036109795266012434,-0.036109309876653395,0.0,0.0,0.0,-1.251284941317209,-1.9788938599516182,-1.9245126257596081,-0.004824354263876695,-0.0013675133404130587,-0.36511716535175864
7223,13.0,300.18064,16917.918,0.0,-0.0361148097547509,-0.03611431208684057,0.0,0.0,0.0,-1.2544885341583787,-1.9777682404155281,-1.9103677556886183,0.0003532738118229107,-0.0014340424300539685,-0.36573658540289067
7224,13.0,300.0837,16890.448,0.0,-0.03611979125343179,-0.03611931429702753,0.0,0.0,0.0,-1.2478047311987388,-1.9758978820559379,-1.9105717229337482,0.004497193133163406,0.004335158230171806,-0.36577032663122067
7225,13.0,299.98436,16912.01,0.0,-0.03612480574217003,-0.036124316507214704,0.0,0.0,0.0,-1.2590363045822088,-1.9734355829879282,-1.9083567582151482,0.003394598185720757,0.00024215504046384178,-0.36549869454441264
7226,13.0,300.0051,16963.685,0.0,-0.036129820230908605,-0.03612931871740166,0.0,0.0,0.0,-1.2566615503228387,-1.9878353867840781,-1.9120396183536184,0.003080463702268097,0.005564728512570944,-0.3693547900524797
7227,13.0,300.01493999999997,16964.956000000002,0.0,-0.036134801729589494,-0.03613432092758884,0.0,0.0,0.0,-1.2568986508462388,-1.9830435244111584,-1.9169808337912781,-0.005171888307725635,0.0030764585272728172,-0.37069897776764066
7228,13.0,299.85957,16944.981,0.0,-0.036139816218327736,-0.036139323137776014,0.0,0.0,0.0,-1.2527714805389187,-1.9780577259690981,-1.920021698666388,-0.0011791453845475888,-0.0023554627880660777,-0.3631622512713237
7229,13.0,299.86048,16883.487,0.0,-0.036144797717008625,-0.03614432534796297,0.0,0.0,0.0,-1.2486342790556089,-1.9796810539543082,-1.9038430329946783,-0.008937994946586422,-0.0016303670336546984,-0.36964810569142764
7230,13.0,300.03491,16897.521,0.0,-0.0361498122057472,-0.036149327558150035,0.0,0.0,0.0,-1.2533746683234488,-1.976249581165648,-1.9068002034115283,0.001122928749124439,0.0006878798989709604,-0.36431827844291464
7231,13.0,299.94782999999995,16976.261000000002,0.0,-0.03615479370442809,-0.03615432976833699,0.0,0.0,0.0,-1.266340824553109,-1.9884516454948982,-1.9055669767148182,0.003316817460344397,0.002387442683747248,-0.36872306914513364
7232,13.0,299.86088,16950.256999999998,0.0,-0.03615980819316633,-0.03615933197852417,0.0,0.0,0.0,-1.2622104118454687,-1.9762651852171877,-1.9139793843450583,0.008787316652040631,0.004753311043715276,-0.3648492518928177
7233,13.0,299.98861,16924.751,0.0,-0.03616478969184744,-0.036164334188711345,0.0,0.0,0.0,-1.2503400855989588,-1.979566354042988,-1.9147951520005682,0.005901327763990704,-0.0016611582856435583,-0.36631065237954663
7234,13.0,300.09143,16952.884,0.0,-0.036169804180585685,-0.0361693363988983,0.0,0.0,0.0,-1.2518561103985788,-1.9834015056714878,-1.9179959077414583,0.001954292552823658,-0.0035971690708879464,-0.36769626175879566
7235,13.0,300.14855,17002.47,0.0,-0.03617481866932404,-0.03617433860908548,0.0,0.0,0.0,-1.2598400145615287,-1.983248302256368,-1.9252381128312082,-0.002209244516485458,-0.004157939369131666,-0.36620706782182366
7236,13.0,300.36265,16978.781000000003,0.0,-0.03617980016800515,-0.03617930790999502,0.0,0.0,0.0,-1.2600387129061388,-1.9851614197701781,-1.915925331162108,-0.0057971289740570845,-0.006230949369921824,-0.36696804904442665
7237,13.0,300.13066000000003,16936.883,0.0,-0.03618481465674339,-0.03618431012018197,0.0,0.0,0.0,-1.2609952210005386,-1.980960890155618,-1.906433508200338,-0.002949258352119137,-0.0015705931811054786,-0.36573769997800065
7238,13.0,299.95342,16875.18,0.0,-0.03618979615542428,-0.03618931233036915,0.0,0.0,0.0,-1.244749984797259,-1.978475691635348,-1.906407771647798,-0.0016893349470743784,0.004228635449808826,-0.37251002046637666
7239,13.0,300.11585,16895.404,0.0,-0.036194810644162856,-0.036194314540556105,0.0,0.0,0.0,-1.242454466695709,-1.9840387386593783,-1.9092879350570484,0.003169720092977017,0.002144404210786218,-0.3681222624983387
7240,13.0,299.94503,17004.692,0.0,-0.036199792142843745,-0.03619931675074328,0.0,0.0,0.0,-1.2549849253823686,-1.988966579195718,-1.9250502562626681,0.0015415063171098284,0.0009265016350110923,-0.3698942748032226
7241,13.0,299.86366,17020.295,0.0,-0.03620480663158199,-0.03620431896093046,0.0,0.0,0.0,-1.2637393049213588,-1.984884701167868,-1.925120778469628,0.005276413262866445,-0.0013993743818574986,-0.3607760270208216
7242,13.0,299.96469,16947.073,0.0,-0.03620982112032045,-0.036209321171117415,0.0,0.0,0.0,-1.2591622515696388,-1.986778668254788,-1.9055460024377484,0.001915246250945088,0.0032538965543095874,-0.37575103263373966
7243,13.0,300.11106,16984.287,0.0,-0.03621480261900145,-0.03621432338130459,0.0,0.0,0.0,-1.2701970517836887,-1.9787407578615084,-1.9138615433584283,-0.004916953366665516,0.005660970046819244,-0.36193428334263267
7244,13.0,300.11226,17088.836,0.0,-0.036219817107739694,-0.03621932559149166,0.0,0.0,0.0,-1.271788462390749,-1.9921638898862681,-1.9306269821630482,-0.008780984142890661,0.0047416259395870455,-0.36651113404433266
7245,13.0,300.2669,17081.78,0.0,-0.03622479860642058,-0.036224327801678724,0.0,0.0,0.0,-1.2674737394899187,-1.989963515969108,-1.934997332494368,-0.01019792047945639,0.004942973122608465,-0.36010013854161665
7246,13.0,300.02513999999996,16960.117,0.0,-0.03622981309515905,-0.03622933001186579,0.0,0.0,0.0,-1.2471252456816788,-1.9830025891071181,-1.9253242390897083,0.0003388240142668267,-0.001155938410882239,-0.3684997589555946
7247,13.0,299.86227,16904.148,0.0,-0.036234794593839936,-0.036234332222052745,0.0,0.0,0.0,-1.2483864380811487,-1.981585862817298,-1.908466695850998,0.0050377353117107655,-0.0031007305281182773,-0.36916478539372766
7248,13.0,299.79609,16911.215,0.0,-0.03623980908257829,-0.03623933443223992,0.0,0.0,0.0,-1.253773483562809,-1.9764554735859678,-1.9103581298126682,0.007136480547815794,-0.007062506400415113,-0.3676173701060096
7249,13.0,299.79496,16981.126,0.0,-0.0362447905812594,-0.03624433664242688,0.0,0.0,0.0,-1.2649633110421588,-1.9907532430970483,-1.9061218324695781,0.006729394046564484,-0.005193630425721415,-0.37154774697890763
7250,13.0,299.85778999999997,17013.772,0.0,-0.03624980506999764,-0.036249338852614055,0.0,0.0,0.0,-1.2572453850304588,-1.9942809746452081,-1.9202354944374882,-0.0019317482447237082,-0.0006514136662195234,-0.37114474701663464
7251,13.0,299.93298,16982.513,0.0,-0.036254819558735996,-0.036254308153523596,0.0,0.0,0.0,-1.2507774043421187,-1.9900011075478181,-1.9214814880854585,-0.006550925240200983,0.0027828185469678073,-0.3703755584682217
7252,13.0,300.11615,16970.627,0.0,-0.03625980105741711,-0.03625931036371055,0.0,0.0,0.0,-1.2435158461754587,-1.993363274029638,-1.9217678325637182,-0.0069782740076770235,0.0016495661978745085,-0.3673135875935286
7253,13.0,300.06194,17071.926,0.0,-0.03626481554615557,-0.03626431257389773,0.0,0.0,0.0,-1.271382149100649,-1.9899153865893582,-1.928141682317768,-0.005509028229398754,0.0029722826367914574,-0.36727535766725566
7254,13.0,300.09221,17129.986,0.0,-0.03626979704483624,-0.036269314784084905,0.0,0.0,0.0,-1.2805039331258987,-1.9992266483833083,-1.9273573254153582,0.004912723655448075,0.0012263699319582887,-0.36785875667733264
7255,13.0,300.05451,16990.501,0.0,-0.0362748115335747,-0.03627431699427186,0.0,0.0,0.0,-1.2670935680523987,-1.9866081382629583,-1.9109864461996782,0.005705370260901205,-0.0003405632175334727,-0.37038790998694066
7256,13.0,300.13596,16940.478,0.0,-0.03627979303225559,-0.03627931920445904,0.0,0.0,0.0,-1.2469281685372289,-1.9831646077981082,-1.9193895319289984,0.005598747878053395,0.00039631733468347563,-0.36991142912741565
7257,13.0,300.10512,17009.541,0.0,-0.036284807520993945,-0.036284321414646103,0.0,0.0,0.0,-1.2551904125026487,-1.991137670184988,-1.9241478557236082,0.0029050762907837074,-0.0052950363944044045,-0.3680412126228397
7258,13.0,299.76307,17025.323,0.0,-0.036289789019674834,-0.03628932362483328,0.0,0.0,0.0,-1.2543443486691488,-1.9938932038319381,-1.9270353145335781,0.0014650825362673887,-0.011194908928601489,-0.37117609697472864
7259,13.0,299.71894,16964.871,0.0,-0.0362948035084133,-0.03629432583502035,0.0,0.0,0.0,-1.2580089703058188,-1.986414404843838,-1.9124737960214682,-0.0026210319915757176,-0.0067216839225785535,-0.3685440683824676
7260,13.0,299.93397000000004,16972.983,0.0,-0.03629981799715165,-0.03629932804520741,0.0,0.0,0.0,-1.2620115108508387,-1.9916610138616382,-1.9056903905769982,0.0038763587875418263,-0.002825637482943708,-0.36975648292212365
7261,13.0,300.00059,17036.958,0.0,-0.03630479949583254,-0.03630433025539437,0.0,0.0,0.0,-1.2719454148312388,-1.9896636952645181,-1.917200607737968,-0.0022922246334249577,0.003215458810441077,-0.36786773407321866
7262,13.0,299.9657,17099.654,0.0,-0.036309813984571004,-0.03630933246558132,0.0,0.0,0.0,-1.264900489535959,-2.003508541980898,-1.9294587047977483,0.002196710207448418,0.003913005409208567,-0.37235310855589066
7263,13.0,299.98495,17116.381999999998,0.0,-0.036314795483251894,-0.03631433467576872,0.0,0.0,0.0,-1.2681679171334288,-1.999819197041788,-1.934965820416258,-0.0014219299370335585,0.008512884347256272,-0.36604681218600765
7264,13.0,299.86283,17042.859,0.0,-0.03631980997199025,-0.03631933688595568,0.0,0.0,0.0,-1.262339905208249,-1.9890484498037981,-1.929215220798718,0.004549059075307176,0.008281952794440101,-0.36407253489616165
7265,13.0,300.16302,16986.634,0.0,-0.03632479147067136,-0.03632430618686522,0.0,0.0,0.0,-1.2610773955836487,-1.9934349108117082,-1.9090002733536584,-0.0013179030956419087,0.003631498389575987,-0.36811072157969965
7266,13.0,300.09417,17032.087,0.0,-0.03632980595940982,-0.036329308397052174,0.0,0.0,0.0,-1.2676675742340489,-1.9898987692877181,-1.9197629145908481,-0.004804605816777676,-0.004080645206453326,-0.3697493496414197
7267,13.0,300.06417999999996,17099.345,0.0,-0.036334820448148064,-0.03633431060723935,0.0,0.0,0.0,-1.2692831001934886,-1.9991738580530982,-1.9293169511087582,-0.005985855823107974,-0.005892404678310064,-0.37138744068058666
7268,13.0,300.16601,17016.384,0.0,-0.036339801946828953,-0.036339312817426306,0.0,0.0,0.0,-1.2473762277314489,-1.9967403352879283,-1.9284393751971483,-0.0006372370611554014,-0.007458828943204102,-0.3723407874346747
7269,13.0,300.26431,16963.37,0.0,-0.03634481643556753,-0.03634431502761348,0.0,0.0,0.0,-1.2372521367072788,-1.9918236405026881,-1.9273651274411283,0.0013814907202425186,-0.003076279182005117,-0.37312784971485163
7270,13.0,300.06337,17035.89,0.0,-0.036349797934248196,-0.03634931723780055,0.0,0.0,0.0,-1.2565691419137188,-1.9973155573696981,-1.9246004745432783,0.007402662767635933,-0.007000915081161524,-0.37233953100455064
7271,13.0,299.92797,17090.826,0.0,-0.03635481242298666,-0.036354319447987726,0.0,0.0,0.0,-1.271711556708159,-1.9987653156127783,-1.9247074737538379,0.007609162530065872,0.001044478873382039,-0.3651464989421537
7272,13.0,299.931,17074.959,0.0,-0.03635979392166755,-0.0363593216581749,0.0,0.0,0.0,-1.2751174955942988,-1.9954080127314382,-1.919835564623018,0.004333706952053576,0.0040747542716969365,-0.36501284112146265
7273,13.0,300.01664,17110.572,0.0,-0.0363648084104059,-0.03636432386836186,0.0,0.0,0.0,-1.2724248847785589,-1.999777451137668,-1.9289843011009282,0.001976129511028798,0.007399645308838133,-0.3624883588948157
7274,13.0,299.94811,17112.831000000002,0.0,-0.03636978990908679,-0.036369326078549036,0.0,0.0,0.0,-1.2647811286741788,-1.9959381451837581,-1.9411539414269783,-0.008636687905424732,-0.0019060214193846684,-0.36774108794321964
7275,13.0,299.99625,17098.167,0.0,-0.036374804397825256,-0.03637432828873599,0.0,0.0,0.0,-1.2626336464122385,-2.000506687234638,-1.9342754931231283,-0.008202807322504052,0.0014187069911154788,-0.3661083671295826
7276,13.0,300.10452999999995,17121.698,0.0,-0.03637981888656361,-0.03637933049892317,0.0,0.0,0.0,-1.274767519009759,-1.9975593453437581,-1.9322416975224084,-0.007788941063508632,0.006457855584065723,-0.36805541838924166
7277,13.0,300.14636,17083.262,0.0,-0.0363848003852445,-0.03638433270911012,0.0,0.0,0.0,-1.278068687835559,-1.9895465635529583,-1.9252696249093182,-0.0003667394192918626,0.00923994611083668,-0.3682332437817917
7278,13.0,299.98761,17018.181,0.0,-0.03638981487398296,-0.03638933491929708,0.0,0.0,0.0,-1.261462025321609,-1.9979282697051681,-1.9137118863186584,0.003772004463717856,0.001108399249315489,-0.3768277324550016
7279,13.0,300.21581000000003,17084.532,0.0,-0.03639479637266407,-0.03639430422020684,0.0,0.0,0.0,-1.2640288917999387,-1.998648487876248,-1.930593747559768,0.003186607729743697,-0.0026137607062080973,-0.3730159869038116
7280,13.0,300.37181,17128.552,0.0,-0.036399810861402315,-0.036399306430393796,0.0,0.0,0.0,-1.2606179879883088,-2.001621768969688,-1.9444124524235682,0.007427199328082504,-0.007330533951317373,-0.3714071179975286
7281,13.0,300.27025,17100.984,0.0,-0.036404792360083205,-0.03640430864058086,0.0,0.0,0.0,-1.2602604120280188,-2.003710482725828,-1.934301027025648,0.0024458488513114875,-0.007568728075550304,-0.37333768367806064
7282,13.0,300.25988,17086.821,0.0,-0.03640980684882178,-0.03640931085076793,0.0,0.0,0.0,-1.2674173014593488,-1.994866937178038,-1.931682687442238,0.0003612543519955287,-0.006891267336165134,-0.36690610906581367
7283,13.0,300.11215,17121.151,0.0,-0.03641478834750245,-0.036414313060954995,0.0,0.0,0.0,-1.2780053597043088,-2.004016180280998,-1.922380950199228,-0.0018883252090381882,0.0008078409999776992,-0.37251238133910963
7284,13.0,300.15806000000003,17152.066000000003,0.0,-0.03641980283624091,-0.03641931527114217,0.0,0.0,0.0,-1.2824301215659988,-2.000528978736838,-1.9308405752841282,-0.003848821486924106,0.008386929963100543,-0.3663676780951746
7285,13.0,300.20355,17131.707,0.0,-0.036424817324979375,-0.03642431748132935,0.0,0.0,0.0,-1.2693569661257789,-2.0022259700043183,-1.9360282131461082,-0.0015923945742321083,0.004974599292679725,-0.3734148832031796
7286,13.0,300.04566,17093.633,0.0,-0.03642979882366015,-0.036429319691516304,0.0,0.0,0.0,-1.2583035221098888,-2.001664325473888,-1.9360697564002083,-0.005262994994442165,-0.0026034000212855775,-0.37382245292340366
7287,13.0,299.97215,17061.666,0.0,-0.03643481331239862,-0.03643432190170348,0.0,0.0,0.0,-1.258604153414559,-1.993290421347448,-1.9344259607629781,-0.003172416858118167,-0.0016909712446608683,-0.37626411208687666
7288,13.0,300.05565,17068.17,0.0,-0.03643979481107951,-0.036439324111890437,0.0,0.0,0.0,-1.2644875901202088,-1.996612361800298,-1.927197535874588,-0.00042281609447869956,0.0020935954937967884,-0.3744586827936946
7289,13.0,299.87245,17124.626,0.0,-0.03644480929981786,-0.036444326322077614,0.0,0.0,0.0,-1.2783201765103789,-1.999736921133668,-1.9274016044447284,-0.001898538972696208,0.002896976369484307,-0.3736622580825936
7290,13.0,299.90412000000003,17154.75,0.0,-0.03644979079849875,-0.03644932853226479,0.0,0.0,0.0,-1.2733487662197387,-2.002530755634398,-1.938736124038358,-0.004899249354293265,-0.0028811567996480368,-0.36672130238007467
7291,13.0,299.88122999999996,17097.526,0.0,-0.03645480528723721,-0.036454330742451746,0.0,0.0,0.0,-1.2604572865224488,-2.004715120199978,-1.932048470728338,0.005270817994489235,-0.004559656860753095,-0.3677549492045876
7292,13.0,300.04213,17136.043999999998,0.0,-0.036459819775975455,-0.03645933295263881,0.0,0.0,0.0,-1.2576811838984687,-2.003148432895358,-1.948099770862478,0.007234911107580133,0.0014261162811467186,-0.3610238375977787
7293,13.0,299.7859,17177.223,0.0,-0.036464801274656566,-0.036464302253548464,0.0,0.0,0.0,-1.2744141986998887,-2.0041908645982383,-1.9428420160935782,0.007462856105726554,-0.005089469126041495,-0.36280575948864063
7294,13.0,299.67842,17148.429,0.0,-0.03646981576339492,-0.03646930446373542,0.0,0.0,0.0,-1.2740742532913385,-2.007867341261078,-1.9307526251754479,0.002787595210589227,-0.0037578535141462666,-0.36794897646623664
7295,13.0,299.92107999999996,17108.073,0.0,-0.03647479726207592,-0.036474306673922596,0.0,0.0,0.0,-1.2815503165041686,-1.9955715512975782,-1.923305236940448,-0.0002276534050326418,0.003840031137006566,-0.37110640563285063
7296,13.0,299.97256,17127.988999999998,0.0,-0.03647981175081427,-0.03647930888410955,0.0,0.0,0.0,-1.2727509486607387,-2.006602399836238,-1.9271276216176882,0.0004648103664632115,0.012684786809390988,-0.37723547442774263
7297,13.0,299.86859,17104.828999999998,0.0,-0.03648479324949516,-0.03648431109429662,0.0,0.0,0.0,-1.2631585099640386,-1.9983691348236783,-1.937913263632148,-0.009434665523628991,0.002158587483035998,-0.38060838136062264
7298,13.0,300.07087,17123.652,0.0,-0.036489807738233626,-0.036489313304483795,0.0,0.0,0.0,-1.2593334908365386,-2.005431386695668,-1.9403978542023583,-0.009281385202826401,-0.005968489223019025,-0.3808814117325686
7299,13.0,300.09853,17154.45,0.0,-0.036494789236914404,-0.03649431551467075,0.0,0.0,0.0,-1.2630133112247088,-2.010007021497248,-1.941504120661538,-0.0027804869571626976,-0.007299823050061443,-0.3760620193544317
7300,13.0,300.23502,17117.306,0.0,-0.03649980372565287,-0.03649931772485793,0.0,0.0,0.0,-1.267939226585859,-2.000698292828548,-1.9345960854547681,0.005715826799283184,0.0013745183436543985,-0.36931762403881163
7301,13.0,299.9891,17142.749,0.0,-0.03650481821439133,-0.03650431993504488,0.0,0.0,0.0,-1.272974066332759,-2.0105821422540084,-1.9274116356207183,0.012348989646750387,0.0008271340620842763,-0.36634814263324667
7302,13.0,299.807,17210.121,0.0,-0.03650979971307211,-0.03650932214523206,0.0,0.0,0.0,-1.2828066453031588,-2.008648759738198,-1.9399918448872882,0.002149754069989208,-0.001785166722982238,-0.3665547645936386
7303,13.0,299.94822,17220.897,0.0,-0.036514814201810575,-0.036514324355419236,0.0,0.0,0.0,-1.2744643545798386,-2.014639398304428,-1.945618827992628,0.006971172239051134,0.0007720273712181693,-0.36549121675867463
7304,13.0,299.98296,17152.264,0.0,-0.036519795700491464,-0.03651932656560619,0.0,0.0,0.0,-1.2633910508619888,-2.009589258481018,-1.9408795532998984,0.0006001177279195085,0.008335436998318582,-0.37288048496793863
7305,13.0,299.77031,17171.818,0.0,-0.036524810189229706,-0.03652432877579337,0.0,0.0,0.0,-1.271027815540679,-2.005918456018738,-1.9428577214701281,8.852194853293612e-05,0.0016829322196924784,-0.36982756241663867
7306,13.0,300.06397000000004,17212.825,0.0,-0.03652979168791082,-0.036529330985980435,0.0,0.0,0.0,-1.2803862947892886,-2.013162484958668,-1.9387202160117882,-0.007295878771397174,-0.006451308265894554,-0.37622426096044365
7307,13.0,300.09252999999995,17198.424,0.0,-0.03653480617664917,-0.0365343331961675,0.0,0.0,0.0,-1.2870330127952687,-2.0083670762103982,-1.9324914636720583,0.002251411122046978,-0.0005293280634631125,-0.37287958317534964
7308,13.0,300.27746,17184.328,0.0,-0.03653978767533017,-0.03653930249707704,0.0,0.0,0.0,-1.2722963033408687,-2.0096847066404377,-1.9416257106735382,0.0018224193695337884,0.01157760133237029,-0.37949922713865764
7309,13.0,300.32728,17170.498,0.0,-0.036544802164068524,-0.03654430470726411,0.0,0.0,0.0,-1.2666847216370487,-2.007794792553918,-1.9449231304739683,0.0017887577826616484,0.0009797612013424022,-0.36603315357465965
7310,13.0,300.21722,17136.987,0.0,-0.03654981665280688,-0.036549306917451285,0.0,0.0,0.0,-1.2568362346400788,-2.0036396565438377,-1.9487403475756981,-0.006605769428363683,-0.0005519269046834445,-0.37399807956323666
7311,13.0,300.11884,17195.466,0.0,-0.03655479815148788,-0.03655430912763824,0.0,0.0,0.0,-1.2718128817181589,-2.0143637942772283,-1.9408157185435981,-0.002979473064801097,-0.0030072428049917575,-0.3656701364613327
7312,13.0,300.17069,17243.161,0.0,-0.03655981264022623,-0.036559311337825195,0.0,0.0,0.0,-1.2843915711095788,-2.015656600079818,-1.9414420084304083,-0.0024233340287894475,0.00997289708664831,-0.3746360522236996
7313,13.0,299.83482000000004,17212.086,0.0,-0.03656479413890712,-0.03656431354801237,0.0,0.0,0.0,-1.2875007290414289,-2.009002789323138,-1.9355409411730182,-0.0011199546574309188,-0.0024227351979803475,-0.36610616837686566
7314,13.0,299.98472000000004,17209.835,0.0,-0.036569808627645584,-0.03656931575819933,0.0,0.0,0.0,-1.2725567086165688,-2.020796716512108,-1.9380065839663583,-0.0005403383126272394,-0.004942113582548636,-0.37972466515340664
7315,13.0,300.14554,17226.686,0.0,-0.03657479012632625,-0.036574317968386505,0.0,0.0,0.0,-1.276173910148559,-2.008928923390848,-1.9513795601111679,0.0034017307571496866,-0.0014022175616380987,-0.37361326744025863
7316,13.0,300.11863999999997,17204.505,0.0,-0.036579804615064826,-0.03657932017857368,0.0,0.0,0.0,-1.2621258054621187,-2.014379904953818,-1.9532342130942084,0.0034857894788206368,0.007325851722605273,-0.3743986578577706
7317,13.0,300.00049,17178.332,0.0,-0.03658481910380329,-0.03658432238876064,0.0,0.0,0.0,-1.2685080651919989,-2.0104732178682583,-1.9428027019896983,0.002752476367423268,-0.0017433060176259084,-0.37865033633737866
7318,13.0,300.04625,17237.81,0.0,-0.03658980060248396,-0.036589324598947814,0.0,0.0,0.0,-1.2866055225780788,-2.006854192486088,-1.946404096820128,-0.0022142376103282376,-0.004017877605158646,-0.37041239010935667
7319,13.0,300.19535,17250.988,0.0,-0.03659481509122253,-0.03659432680913488,0.0,0.0,0.0,-1.2895769798213386,-2.014089811450188,-1.9402027022330983,-0.001001090815089971,-0.0036064258198265165,-0.37602879488365265
7320,13.0,300.04965,17162.074,0.0,-0.03659979658990342,-0.03659932901932206,0.0,0.0,0.0,-1.2706163346750687,-2.004292696233288,-1.9419329281038584,-0.005064160570343735,0.003239965581334707,-0.3720008926886296
7321,13.0,300.00122000000005,17223.906000000003,0.0,-0.036604811078641664,-0.036604331229509124,0.0,0.0,0.0,-1.2745214005604686,-2.009862025407938,-1.951254018423778,-0.007047710010529823,-0.0013655317271924886,-0.37053520615397767
7322,13.0,300.00931,17260.703999999998,0.0,-0.036609792577322775,-0.036609300530418554,0.0,0.0,0.0,-1.2700441523435988,-2.018889678498898,-1.9578892867036282,-0.0040600732909980355,0.0014402890155954585,-0.36942245489415765
7323,13.0,299.89078,17231.315,0.0,-0.03661480706606102,-0.03661430274060573,0.0,0.0,0.0,-1.2803562012613188,-2.012691728962208,-1.9448416651659282,0.0037952452799365458,0.004405629875951816,-0.37140600342241864
7324,13.0,299.80381,17253.932,0.0,-0.03661978856474213,-0.03661930495079291,0.0,0.0,0.0,-1.282223519870609,-2.0275315872767883,-1.9350093901705583,0.01118373075349829,0.012744774255061288,-0.3795594445921006
7325,13.0,299.91638,17265.217,0.0,-0.03662480305348048,-0.03662430716097986,0.0,0.0,0.0,-1.2919110014266888,-2.018760691761168,-1.937523364993668,0.008199224672800471,-0.0040743916294861465,-0.3709063090031027
7326,13.0,299.87462,17220.049,0.0,-0.036629817542218945,-0.03662930937116704,0.0,0.0,0.0,-1.270778353366059,-2.0151402478288585,-1.948546208856538,0.003805231163647077,-0.006760502141859613,-0.3801895848292906
7327,13.0,299.96324,17220.448,0.0,-0.036634799040899835,-0.036634311581353995,0.0,0.0,0.0,-1.2710835442961788,-2.016175080155988,-1.947327471636258,-0.0017685812373953783,-0.002993944302729297,-0.37362204218612466
7328,13.0,300.02849,17249.05,0.0,-0.03663981352963819,-0.03663931379154095,0.0,0.0,0.0,-1.2659256959871388,-2.017482375435008,-1.9598724197993482,-0.005592885314299805,0.005027057074206905,-0.37965972595449765
7329,13.0,300.0037,17199.175,0.0,-0.03664479502831908,-0.03664431600172813,0.0,0.0,0.0,-1.276224572653559,-2.0079858915227784,-1.943909171098898,-0.009053860906121501,-0.0014152733905016084,-0.37011803082280564
7330,13.0,300.2138,17213.705,0.0,-0.03664980951705754,-0.03664931821191508,0.0,0.0,0.0,-1.2726141598972387,-2.020022897410738,-1.939899537803178,-0.008967198131693553,0.0004729551544770396,-0.38186443658208563
7331,13.0,300.29367,17273.917,0.0,-0.03665479101573821,-0.03665432042210226,0.0,0.0,0.0,-1.2855724127761188,-2.017522804113998,-1.947744221402388,0.002935346022946097,0.0025103998741071772,-0.3733212588939397
7332,13.0,300.09072000000003,17276.657,0.0,-0.03665980550447667,-0.036659322632289326,0.0,0.0,0.0,-1.2761415874703688,-2.026911680865608,-1.948618960213718,0.004987931130870475,0.0034206949486713066,-0.38017820603066765
7333,13.0,300.28024,17244.865,0.0,-0.03666478700315767,-0.0366643248424765,0.0,0.0,0.0,-1.271266435939229,-2.020194744627698,-1.950547175154018,0.006936308430935343,-0.003682381276472736,-0.37262024181225467
7334,13.0,300.12487999999996,17259.478,0.0,-0.036669801491895915,-0.03666932705266368,0.0,0.0,0.0,-1.272117363373209,-2.023239662503208,-1.9510931143078982,-0.0005923799624708504,-0.0068139969848641435,-0.3730097148856927
7335,13.0,299.91831,17292.036,0.0,-0.03667481598063438,-0.036674329262850636,0.0,0.0,0.0,-1.2880687570474887,-2.0241643545444683,-1.944114050269118,0.006323827825763214,0.0041449917553788365,-0.37240029561304766
7336,13.0,299.97029,17280.699,0.0,-0.03667979747931527,-0.036679298563760176,0.0,0.0,0.0,-1.2888695286015188,-2.020832281590618,-1.9431989841038082,0.0028486446436893375,0.010094161338741161,-0.3771191735812646
7337,13.0,299.85525,17280.869,0.0,-0.03668481196805362,-0.036684300773947354,0.0,0.0,0.0,-1.2835294979244989,-2.021348735166588,-1.9480745409349882,0.0012866347041809588,0.003969203400829876,-0.37324186061610365
7338,13.0,299.84051,17251.584,0.0,-0.03668979346673473,-0.03668930298413431,0.0,0.0,0.0,-1.2773466458142988,-2.0127767406455983,-1.953927478812628,-0.004988508683427475,0.0007979019385542902,-0.37371760180305563
7339,13.0,300.02659,17234.633,0.0,-0.036694807955473197,-0.036694305194321486,0.0,0.0,0.0,-1.2678263505247187,-2.016672889930118,-1.9543986401091282,-0.004688265048245735,0.0027631736540290074,-0.3707977291223866
7340,13.0,300.02657999999997,17231.647,0.0,-0.036699789454154086,-0.03669930740450844,0.0,0.0,0.0,-1.2667589928693788,-2.0165080341388477,-1.954723285441168,-0.0029346341134258375,0.0033053979290673767,-0.37827612281044665
7341,13.0,300.09195,17324.253,0.0,-0.03670480394289244,-0.03670430961469562,0.0,0.0,0.0,-1.2926643528760386,-2.018274433038178,-1.955201640813378,-0.005170364176925215,-0.003051746066608887,-0.3664785580536177
7342,13.0,300.08442,17323.778000000002,0.0,-0.0367098184316309,-0.03670931182488257,0.0,0.0,0.0,-1.2852325686925787,-2.029901072635638,-1.950862295935118,-0.0002633164242973077,-0.006637024039623274,-0.3780669474598027
7343,13.0,300.24848,17276.762,0.0,-0.03671479993031179,-0.03671431403506964,0.0,0.0,0.0,-1.284388328709259,-2.025293419130898,-1.9420226007377082,0.0005401546711791155,-0.003080627240834237,-0.37354369768839263
7344,13.0,300.15402,17303.526,0.0,-0.036719814419050034,-0.036719316245256706,0.0,0.0,0.0,-1.2756113536930387,-2.027131860112338,-1.9570965198253882,0.007521285375393072,-0.0012363012014884288,-0.38094365568621164
7345,13.0,300.17236,17294.683999999997,0.0,-0.036724795917730924,-0.03672431845544377,0.0,0.0,0.0,-1.2774737073768387,-2.0254730683736284,-1.9542051093400281,0.005503902501117886,-0.007426117278300713,-0.3718156401728467
7346,13.0,300.05388999999997,17273.345,0.0,-0.0367298104064695,-0.03672932066563095,0.0,0.0,0.0,-1.2700052435397589,-2.029622935483188,-1.9510373855523984,0.006883072574656373,-0.004609966248093246,-0.38094285521863264
7347,13.0,299.95345,17298.307,0.0,-0.036734791905150166,-0.036734322875818126,0.0,0.0,0.0,-1.2878656004024387,-2.0196464749985883,-1.950741212548168,0.005184364253556915,0.005444767198781684,-0.3703469848154016
7348,13.0,299.76743999999997,17282.264,0.0,-0.03673980639388863,-0.03673932508600508,0.0,0.0,0.0,-1.283162296088259,-2.019028088462558,-1.9511864346421082,0.0024664582570204777,0.009015219802957922,-0.37607714717842466
7349,13.0,300.02979,17249.549,0.0,-0.03674478789256952,-0.03674432729619226,0.0,0.0,0.0,-1.2790388748063088,-2.015158587655668,-1.9492347122994882,-0.004340440505593126,0.004651525308894806,-0.3722146175322226
7350,13.0,299.66584,17289.828999999998,0.0,-0.03674980238130787,-0.036749329506379214,0.0,0.0,0.0,-1.2781615015447187,-2.016691229756928,-1.9608235576682183,-0.006146391419926603,-0.0019459083135461984,-0.37224298853502263
7351,13.0,299.90087,17397.379,0.0,-0.036754816870046336,-0.036754298807288754,0.0,0.0,0.0,-1.291369115273209,-2.028923590264168,-1.9680761992339983,-0.003453663776450077,-0.003774946739358236,-0.3789317969501566
7352,13.0,299.88961,17366.651,0.0,-0.03675979836872745,-0.03675930101747593,0.0,0.0,0.0,-1.2912427629857386,-2.0297937694500483,-1.9579919289387582,-0.0006796537267091002,-0.0015723083095497484,-0.3730977257893786
7353,13.0,299.93621,17308.904,0.0,-0.03676481285746569,-0.03676430322766289,0.0,0.0,0.0,-1.2890544467447687,-2.025370730113528,-1.9470493344838082,0.001090580334381899,-0.002103194518619138,-0.37763219223939565
7354,13.0,299.93644,17344.105,0.0,-0.03676979435614658,-0.036769305437850064,0.0,0.0,0.0,-1.2901867537315188,-2.025316825208208,-1.9566710561083982,0.005730386696595135,-0.002819681598855907,-0.36939280719623163
7355,13.0,300.03783,17333.394,0.0,-0.036774808844885154,-0.03677430764803724,0.0,0.0,0.0,-1.2838203007031987,-2.027325289556428,-1.9577733708921878,0.007501881129353022,0.005532402490655615,-0.3769029054799206
7356,13.0,300.09544,17279.973,0.0,-0.03677979034356604,-0.036779309858224196,0.0,0.0,0.0,-1.2706308241514988,-2.0220182908326683,-1.9600310947650081,0.004089383677965745,0.0022423226739500175,-0.37095239161765065
7357,13.0,300.37715,17319.506999999998,0.0,-0.036784804832304285,-0.03678431206841137,0.0,0.0,0.0,-1.276724307602879,-2.029764993147208,-1.958208460485128,-0.0015659912018012984,-0.0023540219464238776,-0.38053480927086164
7358,13.0,300.09477999999996,17330.25,0.0,-0.036789786330985175,-0.03678931427859833,0.0,0.0,0.0,-1.2789812208756188,-2.028835944130518,-1.960145896001338,-0.002943863605936717,-0.008914144964407612,-0.37450783555604567
7359,13.0,299.93897000000004,17332.727,0.0,-0.03679480081972375,-0.036794316488785395,0.0,0.0,0.0,-1.2887088271356588,-2.027327620031658,-1.9526796613144781,-0.0036382995268972066,0.003812912511330166,-0.38133282478461966
7360,13.0,299.87785,17392.603,0.0,-0.03679981530846199,-0.03679931869897257,0.0,0.0,0.0,-1.2895575254194187,-2.0354838780366182,-1.9618756152470482,-0.0011333395899269089,0.005235163344670395,-0.3807567414402646
7361,13.0,299.84767,17337.008,0.0,-0.03680479680714288,-0.03680432090915953,0.0,0.0,0.0,-1.287094213101309,-2.0264393036689876,-1.9564839088149284,-0.007495669298289962,0.008931583302603642,-0.37818221479117864
7362,13.0,299.94741,17298.027,0.0,-0.036809811295881345,-0.036809323119346704,0.0,0.0,0.0,-1.2721778544041789,-2.030655437335088,-1.955334984526538,-0.005467438264469145,-0.0014684845234781386,-0.3849985609963996
7363,13.0,299.94379,17353.232,0.0,-0.03681479279456212,-0.03681432532953366,0.0,0.0,0.0,-1.2858194431504988,-2.027976910695738,-1.9611527626257081,0.0008320980655166853,0.0012790247906299189,-0.37900084994447164
7364,13.0,299.91012,17411.968,0.0,-0.03681980728330059,-0.036819327539720836,0.0,0.0,0.0,-1.2962177196517288,-2.0360811889705683,-1.960504383886718,0.0044433974562041855,3.766128727712966e-05,-0.3808096634929876
7365,13.0,300.16542999999996,17319.543,0.0,-0.0368247887819817,-0.03682429684063038,0.0,0.0,0.0,-1.286229910766009,-2.028081680756078,-1.950397011489198,0.0007558023088243802,-0.0044045106398913556,-0.3733869073679187
7366,13.0,300.24286,17258.122,0.0,-0.03682980327071994,-0.03682929905081733,0.0,0.0,0.0,-1.2754132632984887,-2.022706186325558,-1.9479187030696081,0.003193388500737907,-0.005027010160727275,-0.37130475947242664
7367,13.0,300.10776,17371.213,0.0,-0.036834817759458294,-0.03683430126100451,0.0,0.0,0.0,-1.2793461935616386,-2.037388484249588,-1.963680112350138,-0.0003173446725519807,0.0018043428864247782,-0.3724357897640506
7368,13.0,300.0393,17456.174,0.0,-0.036839799258139405,-0.03683930347119169,0.0,0.0,0.0,-1.2918036982410988,-2.0371151093726083,-1.9773221063964983,0.008207437875461052,0.0038997914120044467,-0.36988664502996965
7369,13.0,299.95072999999996,17458.546000000002,0.0,-0.03684481374687765,-0.03684430568137864,0.0,0.0,0.0,-1.2938930199472987,-2.042641172767988,-1.9704278513910882,-0.0009612098180440232,0.0025382086244266876,-0.37965578441160863
7370,13.0,299.98353,17419.01,0.0,-0.036849795245558536,-0.03684930789156582,0.0,0.0,0.0,-1.3028390050801988,-2.034852724549328,-1.9572521550407482,0.0015036763206512985,-0.002715749395023597,-0.3747414403666007
7371,13.0,299.95846,17398.638,0.0,-0.036854809734297,-0.036854310101752885,0.0,0.0,0.0,-1.2936319053965288,-2.0378841661985083,-1.957235335089088,-0.004051268552929076,0.00013407689079985885,-0.38294408496113863
7372,13.0,299.97742999999997,17407.418,0.0,-0.036859791232978,-0.03685931231194006,0.0,0.0,0.0,-1.2981930507216788,-2.033921649032438,-1.9593057090184183,-0.002304889145099848,0.0019918500863302982,-0.37501697346629365
7373,13.0,300.03443,17414.464,0.0,-0.03686480572171624,-0.03686431452212702,0.0,0.0,0.0,-1.289007229290109,-2.034838133747888,-1.9697169551209281,-0.002890469885292167,-0.0017959099098175085,-0.37680390081264964
7374,13.0,300.11899,17304.396,0.0,-0.03686978722039713,-0.03686931673231397,0.0,0.0,0.0,-1.2730483375650885,-2.025919405042678,-1.9611366519491182,-0.0037711639727599066,-0.003433682991103127,-0.3759436818752526
7375,13.0,300.17983,17290.095,0.0,-0.036874801709135596,-0.03687431894250115,0.0,0.0,0.0,-1.2685516349462986,-2.030409926835858,-1.956795685870698,-0.0009805749931602172,0.0059915701483719335,-0.38028455676116363
7376,13.0,300.03425,17388.531000000003,0.0,-0.03687981619787395,-0.036879321152688105,0.0,0.0,0.0,-1.2928494736693088,-2.035439599007248,-1.9573902610293783,0.006476406166896524,0.0024835018329775476,-0.3822465331947956
7377,13.0,299.87582000000003,17446.936,0.0,-0.03688479769655484,-0.03688432336287528,0.0,0.0,0.0,-1.2983374388609288,-2.0386981100038377,-1.9663973451433083,0.005765203084606245,0.0012176792858505888,-0.37614228902735364
7378,13.0,299.75011,17395.276,0.0,-0.0368898121852933,-0.03688932557306246,0.0,0.0,0.0,-1.2861541196585289,-2.0385618278653883,-1.9630135964343582,0.006053784109811974,-0.0045853897655927355,-0.3796315879992206
7379,13.0,299.72547000000003,17366.351000000002,0.0,-0.03689479368397419,-0.03689429487397178,0.0,0.0,0.0,-1.2742126632549988,-2.035159840654638,-1.969564460980878,0.0033454845348236165,-0.002836246414140727,-0.37277104382463766
7380,13.0,299.85691,17427.87,0.0,-0.036899808172712545,-0.036899297084158955,0.0,0.0,0.0,-1.2801687499928187,-2.043946137571778,-1.9735225198465083,0.0009514971572229582,-0.003075770631779927,-0.3788126590033986
7381,13.0,300.12734,17456.377,0.0,-0.036904789671393656,-0.03690429929434613,0.0,0.0,0.0,-1.2997610552514287,-2.035250425213578,-1.9712910391512781,-0.0012144837990102188,0.0012657371301435288,-0.37375138356138965
7382,13.0,300.07903,17424.436999999998,0.0,-0.0369098041601319,-0.03690930150453309,0.0,0.0,0.0,-1.2987227778739587,-2.034845733123638,-1.9630250461604881,-0.0022055040024162977,0.004668385891883816,-0.3792762918516556
7383,13.0,300.23476,17388.127,0.0,-0.03691478565881279,-0.036914303714720265,0.0,0.0,0.0,-1.2931500036489687,-2.031714790314638,-1.9606916325051982,-0.003662057404641926,0.004159643453149846,-0.37879885853703665
7384,13.0,300.07543,17371.996,0.0,-0.03691980014755125,-0.03691930592490733,0.0,0.0,0.0,-1.2866356161060488,-2.029010020497698,-1.965007469981138,-0.001187805937127319,0.0007355237394055413,-0.37374996501124963
7385,13.0,299.9071,17453.398,0.0,-0.036924814636289605,-0.03692430813509451,0.0,0.0,0.0,-1.2883131529716088,-2.041626706767868,-1.9754574222374681,0.0022603697728061276,-0.0035111690633504067,-0.3761005735207366
7386,13.0,299.85242999999997,17515.815,0.0,-0.036929796134970494,-0.036929310345281685,0.0,0.0,0.0,-1.296677228572079,-2.042204157999858,-1.9854890035275081,0.0048180667430311646,0.0007992501184748452,-0.3724360329440746
7387,13.0,299.86494,17467.186,0.0,-0.03693481062370896,-0.03693431255546864,0.0,0.0,0.0,-1.2954062076466386,-2.0445295669793584,-1.969652715064588,-0.002081853850312978,-0.001040794696018439,-0.38264704056182264
7388,13.0,300.09402,17404.64,0.0,-0.03693979212238985,-0.03693931476565582,0.0,0.0,0.0,-1.2925994035446287,-2.041139536119788,-1.9568372291247982,-0.0019879650827968783,-0.00017046735270881782,-0.3794834508346006
7389,13.0,300.17612,17417.666,0.0,-0.0369448066111282,-0.03694431697584277,0.0,0.0,0.0,-1.2918773615233687,-2.037806348590828,-1.9648518347657782,-0.002193361821167958,0.0007713095949798301,-0.3804416206591646
7390,13.0,300.20075,17441.64,0.0,-0.03694978810980909,-0.03694931918602973,0.0,0.0,0.0,-1.288965179410959,-2.042767626380468,-1.9700903377827783,0.0016297271662165484,-0.0023782143058114777,-0.37807086873768964
7391,13.0,300.13897000000003,17426.512,0.0,-0.036954802598547554,-0.036954321396216905,0.0,0.0,0.0,-1.2827237614449787,-2.0356489364779082,-1.9788518100724681,0.005501207255851885,-0.0037816877909485264,-0.37956424739757466
7392,13.0,300.08231,17430.822,0.0,-0.03695981708728591,-0.03695932360640386,0.0,0.0,0.0,-1.2823312283562387,-2.041297704460398,-1.9749056062330081,0.0016572780443856081,-0.0024094723621214077,-0.38247393691473863
7393,13.0,299.89547999999996,17400.702,0.0,-0.036964798585966796,-0.0369642929073134,0.0,0.0,0.0,-1.2945243760846088,-2.035994657412028,-1.958859676324398,0.0015431011727672285,-0.0006366917096865794,-0.38276915746387463
7394,13.0,299.77107,17439.651,0.0,-0.03696981307470526,-0.03696929511750058,0.0,0.0,0.0,-1.2985047264524385,-2.039557447413648,-1.963156262048438,-0.0008740938168463432,0.004521925352204285,-0.38367047382532765
7395,13.0,299.889,17480.971,0.0,-0.03697479457338615,-0.03697429732768753,0.0,0.0,0.0,-1.3049538606889188,-2.043718966899358,-1.965105755240838,-0.007736564038014423,0.0034265475825739165,-0.3835030545113047
7396,13.0,300.19382,17444.915,0.0,-0.03697980906212461,-0.03697929953787471,0.0,0.0,0.0,-1.2900996142229186,-2.042755670029288,-1.969963276220238,-0.005988242939018564,-0.0027476494465968875,-0.37930596994708465
7397,13.0,300.21987,17400.441000000003,0.0,-0.0369847905608055,-0.036984301748061776,0.0,0.0,0.0,-1.2856946107381788,-2.036176231829948,-1.9674288337451085,-0.004666134146186586,-0.0030661147636269668,-0.37859870111228267
7398,13.0,300.10142,17483.637,0.0,-0.036989805049543856,-0.036989303958248954,0.0,0.0,0.0,-1.2937292787311387,-2.048680953964068,-1.972178848888898,0.004632918895983496,0.0025432632225505375,-0.3784781547478856
7399,13.0,299.90103,17511.014,0.0,-0.036994786548224745,-0.03699430616843613,0.0,0.0,0.0,-1.3073994411302787,-2.039122965770768,-1.9763887004043783,0.0057477642397851655,-0.0026896090623187473,-0.37696750017379566
7400,13.0,299.84927999999996,17513.468999999997,0.0,-0.03699980103696321,-0.036999308378623086,0.0,0.0,0.0,-1.3045395427230289,-2.048061554177938,-1.9710560664530878,0.005317829962028954,-0.0004473521989627246,-0.3807933197688746
7401,13.0,299.79486,17463.816000000003,0.0,-0.03700481552570156,-0.03700431058881026,0.0,0.0,0.0,-1.289344134948359,-2.0419223731470484,-1.9772973830940583,0.0029358827415240673,-0.002093176616205448,-0.3771940122336506
7402,13.0,299.83641,17408.837,0.0,-0.03700979702438245,-0.03700931279899722,0.0,0.0,0.0,-1.2839013607111989,-2.0329030287069085,-1.975047157271978,0.0020105686660276782,0.001958331671697288,-0.37738013614451965
7403,13.0,299.91954,17446.238999999998,0.0,-0.037014811513120915,-0.037014315009184395,0.0,0.0,0.0,-1.2794738630742386,-2.0456761607925182,-1.9780711008704182,-0.003351574573224656,-0.009780515951111771,-0.37966721387273666
7404,13.0,300.13318,17484.786,0.0,-0.037019793011801805,-0.03701931721937135,0.0,0.0,0.0,-1.2991305097141987,-2.040592381065788,-1.9752154581135881,-0.00927332692610611,-0.004335031168609266,-0.37891640568113766
7405,13.0,299.9744,17479.075,0.0,-0.03702480750054016,-0.03702431942955842,0.0,0.0,0.0,-1.2957607438566288,-2.050691039512448,-1.9667506654531781,-0.0076248879689678525,-0.002092050388719298,-0.37907452335924263
7406,13.0,300.02637999999996,17449.529,0.0,-0.03702978899922105,-0.03702932163974548,0.0,0.0,0.0,-1.2965836042628387,-2.047849075631968,-1.9597884213660581,-0.0013991286687082486,0.006690651719715914,-0.38331785265802665
7407,13.0,299.97722000000005,17502.043,0.0,-0.03703480348795951,-0.03703432384993255,0.0,0.0,0.0,-1.293282334112029,-2.050493050442908,-1.9764086614313479,0.00025208436455378974,0.0009892741708337589,-0.38095099161693563
7408,13.0,300.05541,17553.696,0.0,-0.0370397849866404,-0.0370392931508422,0.0,0.0,0.0,-1.2967397461032488,-2.0569725821823877,-1.982172939925238,0.0004106142530644717,-0.0007454702583496864,-0.38161186372965866
7409,13.0,300.0069,17545.79,0.0,-0.037044799475378754,-0.03704429536102927,0.0,0.0,0.0,-1.291978281233329,-2.0566619197017277,-1.9848417393636282,0.008207251336117643,0.002397226930687878,-0.37642338487009563
7410,13.0,300.14275,17476.75,0.0,-0.03704981396411722,-0.03704929757121622,0.0,0.0,0.0,-1.2937930121624288,-2.0479028792122778,-1.9707996128527783,0.0035682046075043764,0.004901752082040266,-0.3870726434210956
7411,13.0,300.32622000000003,17463.048,0.0,-0.03705479546279811,-0.0370542997814034,0.0,0.0,0.0,-1.2989856149498988,-2.043467579549548,-1.9658773451919882,0.003909294076742286,-0.005842538182588624,-0.3800478311403006
7412,13.0,300.39414,17482.642,0.0,-0.03705980995153657,-0.037059301991590576,0.0,0.0,0.0,-1.2972203306256789,-2.0452860595040177,-1.971780337624568,-0.005533388788302954,-0.005064775613154435,-0.38541214942221763
7413,13.0,300.22254,17510.666,0.0,-0.03706479145021746,-0.03706430420177753,0.0,0.0,0.0,-1.2930689436409688,-2.048892621909958,-1.980843657119048,0.0011896283687571787,-0.0005342568969845504,-0.3777132826448986
7414,13.0,300.07144,17515.697,0.0,-0.03706980593895581,-0.03706930641196471,0.0,0.0,0.0,-1.2914521004563988,-2.050599644353428,-1.9822827762360782,0.001881119278302018,-0.00025174379093017776,-0.38421555171662264
7415,13.0,300.07318,17539.444,0.0,-0.0370747874376367,-0.037074308622151664,0.0,0.0,0.0,-1.2984967217766488,-2.051116097929398,-1.981940297702278,0.0045105826252848456,-0.0017611383074608183,-0.37364290500568365
7416,13.0,300.04399,17572.258,0.0,-0.03707980192637517,-0.03707931083233884,0.0,0.0,0.0,-1.3132198536797088,-2.053220517062088,-1.9750873833009481,-0.0030100782840715968,0.00026264352490589773,-0.3824333866457366
7417,13.0,300.08952999999997,17587.658,0.0,-0.03708481641511352,-0.03708431304252602,0.0,0.0,0.0,-1.3149143118219386,-2.053526822567318,-1.977767835115488,0.003997786274225786,0.005120703573624094,-0.37471212704120765
7418,13.0,300.07424,17557.63,0.0,-0.03708979791379441,-0.03708931525271297,0.0,0.0,0.0,-1.3071493710055988,-2.052776409543258,-1.9771551227800181,-0.002802657375975747,0.006711144905638433,-0.37908853660812564
7419,13.0,300.06872000000004,17513.314,0.0,-0.03709481240253287,-0.03709431746290015,0.0,0.0,0.0,-1.2935323029116987,-2.046728522346378,-1.983349424616348,0.0005066247662899715,-0.004494994583096426,-0.37728543779017365
7420,13.0,300.02394,17486.592,0.0,-0.03709979390121376,-0.037099319673087106,0.0,0.0,0.0,-1.2849538235900688,-2.044462185847708,-1.986071419684988,-0.0014062371247847987,-0.0017338437815670581,-0.3746835837858907
7421,13.0,300.00351,17496.027,0.0,-0.037104808389952004,-0.03710432188327417,0.0,0.0,0.0,-1.290192731907109,-2.048168756038518,-1.979993945585188,-0.0008458710829334763,0.002163587770954488,-0.38353309737676966
7422,13.0,299.88992,17496.178,0.0,-0.037109789888633005,-0.037109291184183824,0.0,0.0,0.0,-1.2994641729721288,-2.042105771415148,-1.9768313893730682,0.004049737228052947,0.004564133703669926,-0.3844511424973736
7423,13.0,300.02891,17510.547,0.0,-0.03711480437737147,-0.03711429339437089,0.0,0.0,0.0,-1.3015086076988986,-2.053347375974608,-1.9679129646428881,-0.001881999589988898,-0.0012949270416743488,-0.3944500363391876
7424,13.0,299.96187000000003,17531.56,0.0,-0.03711978587605236,-0.037119295604557845,0.0,0.0,0.0,-1.3014192390400787,-2.047604983682878,-1.9801321528988283,-0.0017035501367023084,0.00043493869973510753,-0.3790458078514086
7425,13.0,300.11126,17561.956000000002,0.0,-0.03712480036479082,-0.03712429781474502,0.0,0.0,0.0,-1.2947130432532288,-2.056840454369348,-1.9868425030110881,0.0020416707831472183,-0.003463577618078497,-0.3858038313808736
7426,13.0,300.19026,17604.936,0.0,-0.037129814853529175,-0.03712930002493198,0.0,0.0,0.0,-1.292885950672909,-2.066213321769378,-1.9923616763057879,-0.0010143476525083192,-0.0011847721650029089,-0.37645486655070265
7427,13.0,300.33248,17602.931,0.0,-0.037134796352210064,-0.037134302235119154,0.0,0.0,0.0,-1.3049322784617885,-2.056494226810178,-1.9894250748659679,-0.002204938102235448,-0.007839511768049572,-0.37814272843478164
7428,13.0,300.17334,17582.424,0.0,-0.03713981084094853,-0.03713930444530611,0.0,0.0,0.0,-1.3103271259692186,-2.056542761489968,-1.977747975413528,-0.002971464741310737,0.0013156046391150688,-0.37477053077697164
7429,13.0,300.14616,17504.554,0.0,-0.03714479233962942,-0.03714430665549329,0.0,0.0,0.0,-1.2998810240632688,-2.0472289665707684,-1.9738371340025582,0.004437918508938456,0.0026881903095287273,-0.3821827085709967
7430,13.0,299.95385,17534.782,0.0,-0.03714980682836766,-0.037149308865680464,0.0,0.0,0.0,-1.2977037522483887,-2.048958989791508,-1.983473243778568,0.002677611573184687,0.004331774684112876,-0.3776306318342416
7431,13.0,300.00934,17579.651,0.0,-0.03715478832704866,-0.03715431107586742,0.0,0.0,0.0,-1.2948587486176089,-2.055774312614128,-1.993141980207798,0.006097650239766224,-0.000976878342687886,-0.38408095157333866
7432,13.0,299.84536,17573.41,0.0,-0.037159802815787124,-0.037159313286054596,0.0,0.0,0.0,-1.2935340254368688,-2.054094850573378,-1.9942489559420482,0.0026749156186436176,0.0008148639478783103,-0.37822364658776764
7433,13.0,299.82621,17551.396,0.0,-0.03716478431446801,-0.03716431549624166,0.0,0.0,0.0,-1.3024291454147487,-2.055225637684978,-1.9775313425421481,0.0017886167382477284,0.0001201315600710619,-0.3869906816205066
7434,13.0,300.07211,17606.264,0.0,-0.037169798803206255,-0.03716931770642884,0.0,0.0,0.0,-1.3142058473520186,-2.058008225109598,-1.9796505551262982,-0.004088802275058366,-0.0012879020774060387,-0.38287682541950063
7435,13.0,299.93244,17615.144,0.0,-0.03717481329194483,-0.037174319916615794,0.0,0.0,0.0,-1.3182595570270887,-2.057615793345868,-1.9786885754813583,-0.0077157270563329725,-0.006308137647964713,-0.38549628971052163
7436,13.0,299.96771,17605.872,0.0,-0.03717979479062572,-0.037179289217525335,0.0,0.0,0.0,-1.3072703530675387,-2.059715247553068,-1.9847599700805583,-0.003991394287294946,-7.095874144758254e-05,-0.37541525168310064
7437,13.0,300.17107000000004,17578.155,0.0,-0.03718480927936396,-0.03718429142771251,0.0,0.0,0.0,-1.2973883274922589,-2.053478997162598,-1.992452767489778,-0.0005840062103319255,0.00032325926669820573,-0.37707782284468366
7438,13.0,300.08916,17537.773999999998,0.0,-0.03718979077804507,-0.03718929363789958,0.0,0.0,0.0,-1.2915848362194988,-2.052057812572338,-1.987402830316388,0.0024910474051472375,0.002093326374570228,-0.38378326882645963
7439,13.0,300.07743999999997,17570.734,0.0,-0.037194805266783426,-0.037194295848086645,0.0,0.0,0.0,-1.3005037675747289,-2.060247305180578,-1.980313423341718,0.003020019179477687,-0.00034305746437713567,-0.3856943598400696
7440,13.0,300.18441,17614.373,0.0,-0.037199786765464316,-0.0371992980582736,0.0,0.0,0.0,-1.3118424414937688,-2.0589427456768283,-1.9835443739355878,0.008085326242309572,0.004480276720093886,-0.38970792454617764
7441,13.0,299.95133,17607.487,0.0,-0.03720480125420278,-0.037204300268460555,0.0,0.0,0.0,-1.3018213980047686,-2.0697436877677977,-1.980671303277038,0.004091377652837536,8.565203718819793e-05,-0.3903347818530436
7442,13.0,300.27721,17533.635,0.0,-0.037209815742941243,-0.03720930247864773,0.0,0.0,0.0,-1.2896876267322588,-2.055803696867028,-1.984295698884738,-0.0013317624318347188,-0.0037138396523274365,-0.3910467217708066
7443,13.0,299.92048,17562.764,0.0,-0.03721479724162191,-0.03721430468883491,0.0,0.0,0.0,-1.2882852885938587,-2.058210571154568,-1.9921459553594982,-0.003915458589025676,-0.004611719981366326,-0.37937975481936664
7444,13.0,299.7988,17604.359,0.0,-0.037219811730360486,-0.037219306899021865,0.0,0.0,0.0,-1.3063620756778989,-2.0597341953299377,-1.9851893854729379,-0.004554795489423316,-0.0017682693590145985,-0.38243813878870564
7445,13.0,299.86422000000005,17614.959,0.0,-0.037224793229041375,-0.03722430910920904,0.0,0.0,0.0,-1.3135840157656489,-2.054245115563208,-1.986678660469918,0.0044832239606597555,0.0017029928491473082,-0.37804006593464967
7446,13.0,299.91919,17602.785,0.0,-0.03722980771777962,-0.03722931131939611,0.0,0.0,0.0,-1.3189558624958087,-2.058841420666828,-1.973009916620918,-0.00892031008464106,0.0005534069489720135,-0.38360604125146863
7447,13.0,299.82672,17600.761000000002,0.0,-0.03723478921646051,-0.037234313529583285,0.0,0.0,0.0,-1.3093247176452887,-2.057364912621108,-1.983502222731428,-0.002126608195304888,-0.0007383534024298073,-0.38082916855741267
7448,13.0,299.83147,17667.928,0.0,-0.03723980370519908,-0.03723931573977046,0.0,0.0,0.0,-1.3062658169183987,-2.0673184736534482,-1.9970246532659879,-0.0020803119876358083,-0.0008981335909013841,-0.37886081878065164
7449,13.0,299.85528999999997,17684.803,0.0,-0.03724478520387997,-0.03724431794995742,0.0,0.0,0.0,-1.3010277192014386,-2.069250640269138,-2.0054601629985083,-0.0001243783749501899,0.004434799623805646,-0.3851004736914576
7450,13.0,300.1773,17649.962,0.0,-0.03724979969261821,-0.03724932016014437,0.0,0.0,0.0,-1.3068033460964488,-2.061609113314978,-1.996735370362438,-0.0014732110312196086,-0.00018952362839952584,-0.3817976127379907
7451,13.0,300.12725,17570.647,0.0,-0.03725481418135668,-0.037254289461054135,0.0,0.0,0.0,-1.2969845473274089,-2.060268482107668,-1.9837849195093282,0.0011178957332277188,-0.0026502644596107373,-0.3905035690547016
7452,13.0,299.87054,17589.112,0.0,-0.037259795680037566,-0.03725929167124109,0.0,0.0,0.0,-1.3057592931934088,-2.060049620086068,-1.980841934593878,-0.0009418327777691582,1.930695680519828e-05,-0.3812503968889846
7453,13.0,299.91353,17676.608,0.0,-0.03726481016877592,-0.03726429388142827,0.0,0.0,0.0,-1.3076623795312288,-2.066754397322778,-1.998830670244228,0.005288005249310485,0.002186067332373048,-0.38575343232089965
7454,13.0,300.12016,17662.602,0.0,-0.03726979166745703,-0.03726929609161522,0.0,0.0,0.0,-1.3055514755978987,-2.061444764148758,-2.0019936317563882,0.0019204674273853783,-0.0035257469965141366,-0.3753759679767236
7455,13.0,299.93006,17613.878,0.0,-0.037274806156195495,-0.03727429830180218,0.0,0.0,0.0,-1.2939991072327688,-2.060517437657238,-1.9996625485763282,0.0005405375074643985,0.0006300105107796964,-0.3797347267268996
7456,13.0,299.8318,17674.201,0.0,-0.03727978765487616,-0.037279300511989355,0.0,0.0,0.0,-1.3115393783888587,-2.063401958041918,-1.9975745440952584,-0.004085735470980696,0.0019290278708552285,-0.37451637725438863
7457,13.0,300.00382,17733.791,0.0,-0.03728480214361474,-0.03728430272217631,0.0,0.0,0.0,-1.3204168678149988,-2.0752210138333678,-1.994991769590358,-0.00040312023505986966,0.0038348764297728368,-0.3895367359417826
7458,13.0,299.91952000000003,17705.337,0.0,-0.037289783642295626,-0.03728930493236349,0.0,0.0,0.0,-1.320791365051959,-2.068872495331818,-1.9923162827013081,-0.005198340113511225,-0.0014544840415463985,-0.3858871002740916
7459,13.0,299.98726,17658.616,0.0,-0.03729479813103387,-0.03729430714255055,0.0,0.0,0.0,-1.3095152086640887,-2.065741653847828,-1.9925212631965379,-0.0013590761081553686,0.0027640166781122077,-0.39104845442847763
7460,13.0,300.26568,17599.912,0.0,-0.03729981261977233,-0.03729930935273773,0.0,0.0,0.0,-1.292036340464059,-2.061932441421888,-1.995965097636418,0.0019611480003502383,-0.0020962909417128078,-0.38165223161364265
7461,13.0,300.23242999999997,17568.909,0.0,-0.03730479411845333,-0.03730431156292491,0.0,0.0,0.0,-1.2891068317749386,-2.059280259285138,-1.9921224479571782,0.008195214228904672,0.0020550423407418882,-0.3877385412543147
7462,13.0,300.21927999999997,17678.365,0.0,-0.037309808607191575,-0.03730931377311186,0.0,0.0,0.0,-1.3143382791400886,-2.066065184604758,-1.9933779661560882,0.006051419285403584,-0.004615476808762095,-0.3780509786382267
7463,13.0,300.08616,17710.872,0.0,-0.037314790105872464,-0.03731431598329904,0.0,0.0,0.0,-1.3257482858661687,-2.063846268210768,-1.9940681921242083,0.007781382217762633,-0.006805168131442804,-0.38509856878126963
7464,13.0,299.7569,17646.476000000002,0.0,-0.03731980459461093,-0.037319318193485995,0.0,0.0,0.0,-1.3145812565140687,-2.060540539759518,-1.988966173895678,0.0008312036696534152,-0.0014112511929046485,-0.37577894767399467
7465,13.0,300.18246,17695.979,0.0,-0.03732478609329182,-0.037324287494395536,0.0,0.0,0.0,-1.3149231270978088,-2.069318426700828,-1.9948943962557482,-0.001138554686866599,0.002102980418873008,-0.38716789906299665
7466,13.0,299.98232,17788.761000000002,0.0,-0.03732980058203017,-0.03732928970458271,0.0,0.0,0.0,-1.3128186066401089,-2.079620951067608,-2.014899499605098,0.0014192144267655587,-0.004982989510132776,-0.3754470170737356
7467,13.0,299.99557000000004,17741.634,0.0,-0.037334815070768634,-0.03733429191476967,0.0,0.0,0.0,-1.3113147408416888,-2.073281045191908,-2.0084180426904283,-0.0048304379188021055,0.002111436700232578,-0.38561257029199764
7468,13.0,300.1312,17692.926,0.0,-0.037339796569449746,-0.037339294124956846,0.0,0.0,0.0,-1.3148929322448288,-2.066671716114618,-1.996642961953318,0.0005785912092800065,-0.00026648360092988374,-0.3834641457074647
7469,13.0,300.06431000000003,17629.39,0.0,-0.03734481105818799,-0.03734429633514402,0.0,0.0,0.0,-1.3047964016233786,-2.0686707572369083,-1.985427195271408,-0.002146990531666468,0.009087118712828792,-0.3949693776779426
7470,13.0,300.00641,17603.942,0.0,-0.03734979255686899,-0.03734929854533098,0.0,0.0,0.0,-1.3060987319769088,-2.064076478633488,-1.9809836882828682,-0.0003439776879854547,0.0023684204329948977,-0.3915492228928996
7471,13.0,300.18799,17709.948,0.0,-0.03735480704560745,-0.037354300755518044,0.0,0.0,0.0,-1.3085850450722887,-2.070621365004418,-2.004175564521728,0.005849723746997785,0.003964720073112406,-0.3865690277238926
7472,13.0,299.72534,17714.225,0.0,-0.03735978854428812,-0.037359302965705,0.0,0.0,0.0,-1.3047688412206588,-2.0727510140645977,-2.007162220516488,0.001132627781731659,0.003928199601083117,-0.3841059991158106
7473,13.0,300.07434,17676.487,0.0,-0.03736480303302658,-0.037364305175892176,0.0,0.0,0.0,-1.3007378283478288,-2.072026337593078,-2.000446601503708,0.0038078075546763464,0.0026197403003482378,-0.38654054526358167
7474,13.0,299.95874,17672.093,0.0,-0.03736978453170747,-0.03736930738607935,0.0,0.0,0.0,-1.3112294251832686,-2.067996033995318,-1.992649540659198,0.00017985909695821082,-0.012023888352165389,-0.3879391546416136
7475,13.0,299.98634,17764.91,0.0,-0.037374799020445826,-0.03737430959626631,0.0,0.0,0.0,-1.3237913959480385,-2.078313453138568,-1.997984201110688,0.0008427501307704622,-0.0023417841143660977,-0.38469926718186165
7476,13.0,300.28287,17817.63,0.0,-0.03737981350918429,-0.037379311806453486,0.0,0.0,0.0,-1.3332238424539489,-2.0782108109034376,-2.0046798590964983,0.0025127154545607077,-0.001008779985063833,-0.38596066223135167
7477,13.0,300.45492,17733.613999999998,0.0,-0.03738479500786518,-0.03738431401664044,0.0,0.0,0.0,-1.3115041172853787,-2.072336898748728,-2.0067348316243083,-0.0006094451105225495,0.007226773493377013,-0.38450585800277365
7478,13.0,300.19721,17666.957,0.0,-0.03738980949660353,-0.03738931622682762,0.0,0.0,0.0,-1.297250525478659,-2.069662627759798,-2.0034007321702583,-0.004522507160411706,-0.0007876309363981213,-0.38729119133516465
7479,13.0,300.28016,17692.433,0.0,-0.03739479099528442,-0.03739428552773716,0.0,0.0,0.0,-1.3042070953652187,-2.068455238940638,-2.005395618967138,-0.005873007626345724,-0.0018878568848419682,-0.38196433290944465
7480,13.0,300.09272999999996,17723.874,0.0,-0.037399805484022886,-0.037399287737924114,0.0,0.0,0.0,-1.3171952391220487,-2.071220398463538,-1.999199391955618,0.00017449337025865483,-0.0023056998465048576,-0.39038409673541064
7481,13.0,300.06019,17747.474,0.0,-0.037404786982704,-0.03740428994811129,0.0,0.0,0.0,-1.3208612793088588,-2.077199182003598,-1.9967285815867681,-0.0028181005233998673,0.005343661658753345,-0.38573092803617864
7482,13.0,300.05332000000004,17705.317,0.0,-0.03740980147144224,-0.03740929215829847,0.0,0.0,0.0,-1.3220736330535088,-2.068488068243878,-1.991412666262128,-0.0037972821152875667,-0.004869271843459715,-0.3852392281601516
7483,13.0,300.00757999999996,17715.683999999997,0.0,-0.03741478297012313,-0.03741429436848542,0.0,0.0,0.0,-1.3045004312691686,-2.074210904808678,-2.006414441942688,-0.003173713818246167,0.0007970606775262643,-0.38042885370790464
7484,13.0,300.1191,17827.873,0.0,-0.0374197974588617,-0.0374192965786726,0.0,0.0,0.0,-1.319908824214859,-2.084020179026778,-2.015299125444538,0.004916343086130285,0.0031388421067795966,-0.38393569203900263
7485,13.0,300.1406,17855.391,0.0,-0.037424811947599945,-0.03742429878885967,0.0,0.0,0.0,-1.3248352462010589,-2.084797848478528,-2.017959920207138,0.0012757569577324086,0.0032673712607644368,-0.38696196611267264
7486,13.0,300.21282,17743.782,0.0,-0.037429793446280835,-0.03742930099904662,0.0,0.0,0.0,-1.3180737269587488,-2.079578293238398,-1.9960145442412982,0.0004263946709168775,-0.013521224766940987,-0.3893327686966526
7487,13.0,300.24976000000004,17673.648999999998,0.0,-0.03743480793501941,-0.0374343032092338,0.0,0.0,0.0,-1.3051274304310487,-2.0742525493877877,-1.9929680051656282,-0.003707013791703777,-0.002655946462196508,-0.3910220896608756
7488,13.0,300.03724,17738.206000000002,0.0,-0.03743978943370008,-0.037439305419420754,0.0,0.0,0.0,-1.3143661435178386,-2.077287638737328,-2.0003179187410085,0.0013929489576733586,0.0027196726994107973,-0.3872633573549176
7489,13.0,299.94903,17781.866,0.0,-0.03744480392243854,-0.03744430762960793,0.0,0.0,0.0,-1.3086029795990588,-2.078838316690368,-2.017801954516548,-0.0003669691028245307,0.007259208743653123,-0.38929651460807463
7490,13.0,299.96975,17690.763,0.0,-0.03744978542111943,-0.037449309839794886,0.0,0.0,0.0,-1.2998059422308588,-2.0730525572943583,-2.004691612797658,-0.006265375453994414,-0.005967125692359455,-0.38314223615069465
7491,13.0,299.90894,17644.366,0.0,-0.03745479990985778,-0.037454312049982064,0.0,0.0,0.0,-1.3041372824333288,-2.065948660843258,-1.9933607409043879,-0.0003785212482746386,-0.0004903843126271636,-0.3879799278256376
7492,13.0,300.00872000000004,17752.709,0.0,-0.03745981439859625,-0.03745931426016924,0.0,0.0,0.0,-1.3206593385639287,-2.0758680753472283,-1.999852735620098,0.002680947395163907,0.0017696980416555983,-0.3867587689376186
7493,13.0,300.25635,17827.746,0.0,-0.03746479589727714,-0.03746428356107856,0.0,0.0,0.0,-1.3312877241628687,-2.0848140604801277,-2.003087941864388,0.005156561785388025,0.004488427810523336,-0.38848570174555364
7494,13.0,300.00447,17854.775,0.0,-0.03746981038601549,-0.03746928577126574,0.0,0.0,0.0,-1.3268395562238686,-2.082533031855008,-2.0180330768643584,-0.0009221836393124391,-0.01006733483306859,-0.3781442888399356
7495,13.0,300.11202000000003,17832.424,0.0,-0.03747479188469649,-0.037474287981452914,0.0,0.0,0.0,-1.3192655117263685,-2.0822437489514583,-2.019102562344908,-0.0024993897971955677,-0.0018577232321680083,-0.37898740411564463
7496,13.0,300.11924,17783.341,0.0,-0.03747980637343484,-0.03747929019163987,0.0,0.0,0.0,-1.3143389884151588,-2.083265713002318,-2.0080870138827582,0.0012012085001750488,0.0008560740453454302,-0.3864472350618726
7497,13.0,300.15292,17770.363999999998,0.0,-0.037484787872115954,-0.037484292401827046,0.0,0.0,0.0,-1.318320554683109,-2.074788862665718,-2.008637613987098,0.00016426268532396485,0.0032289031193929265,-0.3894024296410276
7498,13.0,300.36964,17790.272,0.0,-0.037489802360854196,-0.03748929461201411,0.0,0.0,0.0,-1.3244496032129986,-2.081930755995568,-2.001418207024598,-0.0015274715873247085,-0.006060863282960635,-0.39179546293220163
7499,13.0,300.16087000000005,17708.771,0.0,-0.037494783859535086,-0.03749429682220129,0.0,0.0,0.0,-1.3123259644414886,-2.0742832508658178,-1.9964147780307984,-0.0006661778854141385,-0.0013861197533243685,-0.39232002250897163
7500,13.0,300.13701000000003,17708.186999999998,0.0,-0.03749979834827366,-0.037499299032388356,0.0,0.0,0.0,-1.3019934478717488,-2.074453780857648,-2.006399445841208,0.003235952401663637,0.005850410933215604,-0.38812370801482765
7501,13.0,300.15868,17790.698,0.0,-0.0375048128370119,-0.03750430124257542,0.0,0.0,0.0,-1.3030633386523387,-2.085140428337338,-2.019724191281258,0.00048821684907325157,0.0014861801258745585,-0.38806757395928765
7502,13.0,299.95876,17867.988,0.0,-0.03750979433569279,-0.03750930345276238,0.0,0.0,0.0,-1.3242592135192088,-2.083600389510348,-2.0235624839850677,-0.0034550856703154066,-0.005011535501225045,-0.37821728337713967
7503,13.0,300.0591,17895.337,0.0,-0.037514808824431256,-0.03751430566294933,0.0,0.0,0.0,-1.3257132274127088,-2.093220084634738,-2.020802289387658,-0.0054479128337171345,0.005398305223396245,-0.38758402061406466
7504,13.0,300.00437999999997,17869.515,0.0,-0.037519790323112034,-0.03751930787313651,0.0,0.0,0.0,-1.3334657052528187,-2.0909587130615583,-2.007462041221078,-6.336753755963903e-05,0.008080971901329831,-0.3881991748822756
7505,13.0,299.80667,17798.545,0.0,-0.0375248048118505,-0.037524310083323686,0.0,0.0,0.0,-1.3196322069375588,-2.082965689647708,-2.0077155563960982,-0.002164323998477148,0.002328292283984558,-0.38918337510190865
7506,13.0,300.19526,17784.608,0.0,-0.03752978631053139,-0.03752931229351064,0.0,0.0,0.0,-1.3167503210031386,-2.0860711998791976,-2.0032553307809082,-0.001160819540588969,-0.009226590866568622,-0.38834673449433865
7507,13.0,300.06088,17771.641,0.0,-0.03753480079926974,-0.03753431450369782,0.0,0.0,0.0,-1.3031016395061186,-2.080960467699808,-2.018072897593288,0.0015013864767503085,-0.001172641838780739,-0.38793622634882463
7508,13.0,299.89897,17735.839,0.0,-0.03753978229795074,-0.03753928380460736,0.0,0.0,0.0,-1.3178260886343087,-2.076020164187238,-1.9974058379536082,0.002215104547113798,-0.0002073677935256078,-0.3926233997214126
7509,13.0,299.93722,17766.695,0.0,-0.037544796786689094,-0.037544286014794315,0.0,0.0,0.0,-1.3132202589797488,-2.085208924044098,-2.0022025639270082,-0.0007838504800100193,-0.003444139732135127,-0.3959702762592236
7510,13.0,300.02834,17808.452,0.0,-0.037549811275427336,-0.03754928822498149,0.0,0.0,0.0,-1.3307770461124686,-2.078442034576258,-2.004105751589838,0.0015465663867842185,-0.004737714388901006,-0.39227989780501166
7511,13.0,299.85791,17908.255,0.0,-0.03755479277410845,-0.03755429043516856,0.0,0.0,0.0,-1.3314322136271286,-2.094401128951298,-2.0178289069692084,-0.003077255752451497,0.002063377336064488,-0.3822463913397816
7512,13.0,299.79961000000003,17923.067,0.0,-0.0375598072628468,-0.037559292645355735,0.0,0.0,0.0,-1.3279380206572788,-2.094220263808448,-2.026006544551278,0.005948450986391404,0.0031152444238756872,-0.3869855343099986
7513,13.0,299.61354,17826.198,0.0,-0.0375647887615278,-0.03756429485554291,0.0,0.0,0.0,-1.3120049668098088,-2.0808361419125383,-2.025877963113588,-0.005482267382332665,-0.0025158452827945977,-0.3759571175715787
7514,13.0,299.8168,17794.618000000002,0.0,-0.037569803250266154,-0.03756929706572987,0.0,0.0,0.0,-1.3197043503446788,-2.0825754870341977,-2.006839804334668,-0.001060047866468579,-0.004968291810807225,-0.3884578475003046
7515,13.0,299.84942,17816.873,0.0,-0.03757478474894704,-0.037574299275917045,0.0,0.0,0.0,-1.3196191360112688,-2.083023546228418,-2.0132417211164877,-0.001145185395520999,0.002371690596367638,-0.3839188822198436
7516,13.0,300.08557,17776.346999999998,0.0,-0.03757979923768551,-0.037579301486104,0.0,0.0,0.0,-1.3225030484458888,-2.083998698124658,-1.9970636633948382,0.0040945003883207255,0.011486012642581188,-0.4010230404003926
7517,13.0,299.95386,17777.865,0.0,-0.03758481372642386,-0.037584303696290955,0.0,0.0,0.0,-1.3107710308380287,-2.086335962130328,-2.006920155067598,0.0005106548571052104,-0.004935220644768355,-0.3950256535884967
7518,13.0,300.0755,17799.845,0.0,-0.03758979522510475,-0.03758930590647813,0.0,0.0,0.0,-1.3115708904669687,-2.080764099830428,-2.0183735288979583,-0.0009891297624295072,-0.006992508854356893,-0.3931226989731897
7519,13.0,300.07388,17843.835,0.0,-0.037594809713843214,-0.0375943081166652,0.0,0.0,0.0,-1.310426323154009,-2.094183786804848,-2.019470068156178,0.0022578735298597677,-0.0012686291485789487,-0.39221717762382163
7520,13.0,300.05387,17897.814,0.0,-0.03759979121252399,-0.037599310326852264,0.0,0.0,0.0,-1.3303986985251288,-2.090823241523188,-2.019266810186118,0.0036034330843311567,0.0027778721639546374,-0.3871619411524086
7521,13.0,300.01714,17942.12,0.0,-0.037604805701262456,-0.03760431253703933,0.0,0.0,0.0,-1.3324465783022386,-2.102666716642048,-2.018843170319308,-0.0011046736300227991,0.0012494741620634989,-0.39145834449143063
7522,13.0,299.99711,17909.68,0.0,-0.037609787199943345,-0.03760928183794887,0.0,0.0,0.0,-1.3400374427513986,-2.093068705069798,-2.010989367469198,-0.0037584880113588864,0.002190000262636198,-0.38429555794451864
7523,13.0,299.9708,17900.124,0.0,-0.03761480168868159,-0.03761428404813594,0.0,0.0,0.0,-1.3259224635583589,-2.088638978282618,-2.026629288062738,0.0018623331148229683,0.009021837440686032,-0.38429802014226166
7524,13.0,299.98315,17888.308,0.0,-0.0376197831873627,-0.037619286258323004,0.0,0.0,0.0,-1.3191419965391786,-2.0930540129433477,-2.025403052791718,-0.00017965264725033583,0.007016081003358284,-0.38582807845576667
7525,13.0,299.7409,17802.273,0.0,-0.03762479767610105,-0.03762428846851018,0.0,0.0,0.0,-1.3075049204656888,-2.080909906519818,-2.023031540932668,0.003545690291607387,-0.008977782035613101,-0.3869482771038216
7526,13.0,299.86726,17788.887,0.0,-0.037629812164839294,-0.03762929067869736,0.0,0.0,0.0,-1.3135344678357588,-2.0839038579152978,-2.009939133740548,0.0017696279247486782,-0.0015384922020373582,-0.38711751013552365
7527,13.0,299.92912,17851.057,0.0,-0.037634793663520405,-0.03763429288888431,0.0,0.0,0.0,-1.324384248581549,-2.090701651511188,-2.011189484363948,0.005424948432125725,0.0017272903838952886,-0.3935600481138526
7528,13.0,299.814,17877.255,0.0,-0.03763980815225887,-0.03763929509907149,0.0,0.0,0.0,-1.3311649182507488,-2.089377333630488,-2.013696771736398,-0.00010269476201518392,0.0046657437409230555,-0.39314061323495764
7529,13.0,300.14725,17891.745,0.0,-0.03764478965093976,-0.037644297309258445,0.0,0.0,0.0,-1.3230637810512287,-2.094579359643888,-2.021000481107218,-0.000986382051073329,-0.0034267369590176063,-0.3932201027053026
7530,13.0,300.01057000000003,17917.078999999998,0.0,-0.03764980413967811,-0.03764929951944562,0.0,0.0,0.0,-1.3214992215718186,-2.0941394064504677,-2.030706201165098,-0.001116246060739909,0.0016443475545594684,-0.38614424288446964
7531,13.0,299.94659,17908.392,0.0,-0.037654785638359,-0.03765430172963258,0.0,0.0,0.0,-1.3231583172855588,-2.090904706831228,-2.029641072659978,0.003219210774236367,0.004388485988234846,-0.38684435817356566
7532,13.0,299.97986000000003,17928.136000000002,0.0,-0.037659800127097465,-0.037659303939819755,0.0,0.0,0.0,-1.3317067030792187,-2.099097441839788,-2.0189016348500783,-0.005372999808773796,0.007685780145652443,-0.38822159810698864
7533,13.0,300.03499,17928.405,0.0,-0.03766478162577813,-0.03766430615000682,0.0,0.0,0.0,-1.3401975362671987,-2.092945189882608,-2.016644721577338,-0.0015412151090310885,-0.004920882750553315,-0.3898317031783936
7534,13.0,300.04209,17906.619,0.0,-0.03766979611451671,-0.037669308360193776,0.0,0.0,0.0,-1.3354646450500987,-2.092873755750558,-2.014826545597898,-0.005198870245963545,0.002297115389007638,-0.39074133832316765
7535,13.0,300.14427,17874.1,0.0,-0.03767481060325517,-0.03767431057038095,0.0,0.0,0.0,-1.314902558120779,-2.095551066489788,-2.0228262564624084,0.004113540269624816,0.003088341924445617,-0.39880472182396165
7536,13.0,300.01945,17849.093999999997,0.0,-0.03767979210193584,-0.037679279871290494,0.0,0.0,0.0,-1.3119771024320588,-2.089758315668088,-2.023943466022668,-0.0015960280890907083,0.0008923101487341553,-0.3947735772286186
7537,13.0,300.16014,17864.819,0.0,-0.03768480659067441,-0.03768428208147745,0.0,0.0,0.0,-1.3075499087701288,-2.098546537760418,-2.0243625462640282,-0.0025031949566211077,-0.009897989837230541,-0.39562028954218265
7538,13.0,300.16342000000003,17918.337,0.0,-0.0376897880893553,-0.037689284291664626,0.0,0.0,0.0,-1.3341248244428687,-2.092077543821978,-2.020524557535248,0.0016178913917984487,-0.0006796718942833934,-0.38440443166776367
7539,13.0,300.00088,17969.429,0.0,-0.037694802578093545,-0.037694286501851804,0.0,0.0,0.0,-1.3373128132324987,-2.1007091174488477,-2.0242359913265378,0.006973635348719223,0.004895548964928066,-0.3899057210981986
7540,13.0,299.94465,17973.889,0.0,-0.037699784076774656,-0.03769928871203876,0.0,0.0,0.0,-1.3420567488756887,-2.098109421667278,-2.023447176123688,0.002121399380515818,0.002453477307339358,-0.38523778934500963
7541,13.0,299.92683999999997,17947.528000000002,0.0,-0.03770479856551312,-0.037704290922225936,0.0,0.0,0.0,-1.3243858697817088,-2.091061355296688,-2.040153238472448,-0.002354273435098698,-0.009417726211107211,-0.38501446902296965
7542,13.0,299.92352,17960.798,0.0,-0.03770981305425147,-0.03770929313241289,0.0,0.0,0.0,-1.3308213251418386,-2.097892991445918,-2.030919895611188,-0.004437228485620355,0.002108013434769728,-0.3861871438937036
7543,13.0,299.89482000000004,17966.227,0.0,-0.03771479455293236,-0.03771429534260007,0.0,0.0,0.0,-1.3268783637026988,-2.096069749215978,-2.038336379718138,-0.0006306365473539814,-0.002840835119868597,-0.38863184280747665
7544,13.0,299.79379,17894.031000000003,0.0,-0.037719809041670826,-0.037719297552787245,0.0,0.0,0.0,-1.3363083784083687,-2.094533560739368,-2.008496670898188,-0.005972706876560275,0.0002925924012916217,-0.3968846432819646
7545,13.0,299.91895,17881.275,0.0,-0.037724790540351716,-0.0377242997629742,0.0,0.0,0.0,-1.3276374906776187,-2.094467800807878,-2.013355813077748,-0.007188974705021564,-0.009421395088394301,-0.3927994519262876
7546,13.0,300.18088,17889.527,0.0,-0.03772980502909007,-0.03772930197316138,0.0,0.0,0.0,-1.3325564146130788,-2.0906791573589683,-2.014734035863768,-0.0023964916150903074,0.00018744101440898783,-0.3982875691054226
7547,13.0,300.0822,17907.714,0.0,-0.03773478652777096,-0.037734304183348444,0.0,0.0,0.0,-1.3135916151413987,-2.1028554851356778,-2.027050698779328,0.007924530240215243,0.004573582058202405,-0.39258922279553965
7548,13.0,300.02851,17935.606,0.0,-0.03773980101650942,-0.03773930639353551,0.0,0.0,0.0,-1.3218562909070588,-2.1007054697484877,-2.029414712587638,0.002267216911681888,0.004899195956012996,-0.3990464934303226
7549,13.0,300.08267,18012.678,0.0,-0.03774478251519009,-0.037744308603722576,0.0,0.0,0.0,-1.3277977868434387,-2.107746747343408,-2.039859902568498,0.005566579619178635,-0.003230688567394137,-0.38379274271489466
7550,13.0,300.11296,17988.216,0.0,-0.037749797003928554,-0.03774931081390953,0.0,0.0,0.0,-1.3429084869097487,-2.102786989428918,-2.022272920582798,-0.0001255951565977769,0.004444776894890326,-0.39132174824544963
7551,13.0,299.83119,17972.01,0.0,-0.03775481149266713,-0.037754280114819294,0.0,0.0,0.0,-1.3298145598424786,-2.101696124371258,-2.031531493371548,0.008872707189643022,0.002870076909804537,-0.38252059708184366
7552,13.0,300.03907999999996,17976.141,0.0,-0.037759792991347796,-0.03775928232500625,0.0,0.0,0.0,-1.3364303737204088,-2.104631813885988,-2.023235710827818,-0.0025781678646453576,-0.00044581420690093665,-0.39615448512740364
7553,13.0,299.75104,17939.099,0.0,-0.03776480748008626,-0.037764284535193204,0.0,0.0,0.0,-1.3158582556150988,-2.0996888759231584,-2.037490923834698,-0.00041146224207316167,-0.008941792709286231,-0.39078915359538663
7554,13.0,299.77997999999997,17912.161,0.0,-0.03776978897876737,-0.03776928674538038,0.0,0.0,0.0,-1.3280840299966887,-2.091896476029108,-2.0248689686640082,-0.0015344748680408786,0.0013252838120203286,-0.39748492303870764
7555,13.0,299.68188,17919.162,0.0,-0.037774803467505724,-0.03777428895556734,0.0,0.0,0.0,-1.3271646068559486,-2.097818517563568,-2.021994783430348,-0.0014159269368161085,0.004997142384879556,-0.39839021134055264
7556,13.0,299.84127,17938.968999999997,0.0,-0.037779784966186614,-0.037779291165754514,0.0,0.0,0.0,-1.3444193441338588,-2.0949119083267083,-2.013667387483498,-0.0031928546192602166,0.0058814391844028546,-0.39102946612160366
7557,13.0,300.04154,17971.017,0.0,-0.03778479945492508,-0.03778429337594169,0.0,0.0,0.0,-1.3309853703330288,-2.1050248535997778,-2.026730106447688,-0.004388935972604256,-0.0027717027880707675,-0.3925958899811976
7558,13.0,300.07014,18013.921000000002,0.0,-0.03778978095360597,-0.037789295586128646,0.0,0.0,0.0,-1.3444672708635885,-2.101851759586618,-2.029463247267428,0.0014223257125226187,0.005191060519492785,-0.3812506805990126
7559,13.0,300.06302,18025.685,0.0,-0.03779479544234432,-0.03779429779631582,0.0,0.0,0.0,-1.3285975451473686,-2.104841050031638,-2.0459196447915478,0.0005473904421307305,-0.0013463999441043286,-0.38778081404848663
7560,13.0,299.86791,18023.816000000003,0.0,-0.037799809931082784,-0.03779930000650289,0.0,0.0,0.0,-1.3326650350237987,-2.111161501505418,-2.034963371460248,0.0011571041551222889,-0.0015563867054284085,-0.3818053641012556
7561,13.0,299.94419,18033.525,0.0,-0.03780479142976367,-0.03780430221669007,0.0,0.0,0.0,-1.3347311533027089,-2.108036942172048,-2.038973207405988,0.0018437472708886884,-0.004922229359936215,-0.3917383966865696
7562,13.0,300.16557,18022.3,0.0,-0.037809805918501915,-0.03780930442687702,0.0,0.0,0.0,-1.346636335352659,-2.103084783633308,-2.028608064183028,0.002879233549633227,0.0033130023710678767,-0.3869536675943536
7563,13.0,300.29483,17962.888,0.0,-0.037814787417182805,-0.0378143066370642,0.0,0.0,0.0,-1.3284469761825088,-2.1016928819709375,-2.030129661858198,0.0003005568105226477,0.006806027063552572,-0.40069199132772065
7564,13.0,300.06748,17939.688000000002,0.0,-0.03781980190592138,-0.037819308847251154,0.0,0.0,0.0,-1.3232904450985987,-2.099204643700368,-2.030722311841688,-0.0026217502845716075,0.002808250415202737,-0.39439209869846964
7565,13.0,300.33272,17949.979,0.0,-0.03782478340460205,-0.03782427814816092,0.0,0.0,0.0,-1.3131053564184088,-2.1065191948472584,-2.036720853758698,-0.002165529259471098,0.0005357737830467554,-0.4016369990334856
7566,13.0,300.17122,17979.346,0.0,-0.03782979789334051,-0.03782928035834787,0.0,0.0,0.0,-1.3276238118012689,-2.105544448251058,-2.032103878353038,-0.0063738882575537946,0.0006246880802569134,-0.3943756131193426
7567,13.0,300.10955,18016.631999999998,0.0,-0.037834812382078975,-0.03783428256853483,0.0,0.0,0.0,-1.3406864294404488,-2.106775445797548,-2.0291442761359484,-0.0006581495299693014,0.004574453655938426,-0.40105184710073566
7568,13.0,300.0093,18066.639,0.0,-0.037839793880759975,-0.03783928477872178,0.0,0.0,0.0,-1.3527704501330486,-2.1135067701868784,-2.025530013029248,-0.008539246885708052,0.0026578809592874273,-0.39036370001089765
7569,13.0,300.01436,18058.808999999997,0.0,-0.03784480836949822,-0.03784428698890896,0.0,0.0,0.0,-1.3396269751358887,-2.109078157974808,-2.0407218744285682,-0.0013932784666058787,-0.002216851694261228,-0.38689100820816963
7570,13.0,299.86127999999997,18052.191000000003,0.0,-0.03784978986817933,-0.03784928919909614,0.0,0.0,0.0,-1.3343424705643487,-2.1100457104952977,-2.043027221056088,-0.0009533306839414131,-0.0013073941722297586,-0.3820283196532596
7571,13.0,299.98632000000003,18064.376,0.0,-0.03785480435691757,-0.03785429140928309,0.0,0.0,0.0,-1.3303858302488587,-2.109553270946698,-2.051180236660728,0.002885354492162317,-0.0013804345083382786,-0.38874465807361064
7572,13.0,300.00691,18022.826,0.0,-0.03785978585559846,-0.03785929361947027,0.0,0.0,0.0,-1.3376869051694187,-2.102538945804438,-2.038263223060918,0.0025043377000838877,-0.003332659625657897,-0.3873857073044927
7573,13.0,300.00145,17968.51,0.0,-0.037864800344337035,-0.037864295829657335,0.0,0.0,0.0,-1.3338125407620487,-2.103819491280818,-2.024346435587438,-0.0008504598494563522,-0.0014325113078278585,-0.3942982818717106
7574,13.0,300.02397,17996.027,0.0,-0.037869781843017924,-0.03786929803984451,0.0,0.0,0.0,-1.3436724774851487,-2.103714113270418,-2.022956155125228,0.004097448946111726,0.0020093580348081986,-0.3943396934032976
7575,13.0,300.08169,18018.893,0.0,-0.037874796331756166,-0.03787430025003169,0.0,0.0,0.0,-1.3323735229700289,-2.110749615339768,-2.034170401931988,-0.001958327010746828,0.004853398571368146,-0.4000204395589436
7576,13.0,299.96177,17997.151,0.0,-0.03787981082049474,-0.037879302460218645,0.0,0.0,0.0,-1.3344410597990788,-2.106011049922108,-2.030232405418338,-0.004439603847829785,-0.0011988716414694188,-0.3978383142760846
7577,13.0,300.20934,18024.764,0.0,-0.03788479231917563,-0.03788430467040582,0.0,0.0,0.0,-1.3218327835047385,-2.111127456302058,-2.0461179378361183,-0.0021951514234945777,-0.001944517526458938,-0.3941262624022336
7578,13.0,300.23248,18058.834,0.0,-0.03788980680791387,-0.03788930688059278,0.0,0.0,0.0,-1.3426253848318088,-2.116984143205068,-2.0298249775531283,-0.002058815988089318,0.0019128088778295384,-0.3916374769766096
7579,13.0,299.94096,18093.727,0.0,-0.03789478830659476,-0.03789427618150232,0.0,0.0,0.0,-1.3432015188386688,-2.116239911006618,-2.0405997777915177,0.0015710897749794885,-0.0009549063081119152,-0.39174418234464065
7580,13.0,299.97766,18073.692,0.0,-0.037899802795333226,-0.037899278391689495,0.0,0.0,0.0,-1.3545972387383387,-2.110761774340968,-2.028592054831448,0.0001164614770163529,-0.001144400430668529,-0.3925376888954536
7581,13.0,299.94032999999996,18016.663,0.0,-0.037904784294014116,-0.03790428060187645,0.0,0.0,0.0,-1.3251650591086088,-2.111076996447078,-2.040373620369198,-0.00047024685854975154,0.0019194230705073083,-0.3888433283683486
7582,13.0,299.95155,17994.078999999998,0.0,-0.03790979878275247,-0.03790928281206363,0.0,0.0,0.0,-1.3269497978347489,-2.1073441830786783,-2.0354566216089283,0.0007495573343505493,-0.0012865515163477488,-0.3925077777525016
7583,13.0,299.94991,18052.474,0.0,-0.03791478028143358,-0.03791428502225058,0.0,0.0,0.0,-1.3206107025591287,-2.1217171357471782,-2.045173588742918,-0.0009065209611216531,0.004508656943469796,-0.39808628697305765
7584,13.0,299.93154,18081.111,0.0,-0.03791979477017182,-0.03791928723243765,0.0,0.0,0.0,-1.3516279093202885,-2.1114838163622283,-2.033094532975808,0.004421822119174866,-0.0013862884594660187,-0.3977952612793356
7585,13.0,299.97656,18040.721999999998,0.0,-0.037924809258910175,-0.037924289442624715,0.0,0.0,0.0,-1.3434377074369788,-2.1115396464427376,-2.028951657291938,0.0003739916150275986,-0.002711765396955407,-0.3937263832502686
7586,13.0,300.12518,18038.686,0.0,-0.037929790757591286,-0.03792929165281178,0.0,0.0,0.0,-1.3466848700324487,-2.113521766288358,-2.023103481689768,0.005820684100456794,-0.002527748539669357,-0.39781136182342464
7587,13.0,300.10393,18123.484,0.0,-0.03793480524632953,-0.03793429386299896,0.0,0.0,0.0,-1.3388988536140287,-2.120252989352678,-2.049934648312798,-0.0027225026056150875,-0.0033053815144157566,-0.3921067232304206
7588,13.0,300.13704,18110.979,0.0,-0.03793978674501042,-0.037939296073186135,0.0,0.0,0.0,-1.3384616361958788,-2.117625935818408,-2.0491977115150677,0.003361442717273567,-0.003496182689071367,-0.39304962337597765
7589,13.0,300.09756,18039.408,0.0,-0.03794480123374888,-0.03794429828337309,0.0,0.0,0.0,-1.3231594318606688,-2.112110612874088,-2.048259543247478,-0.004484751840485545,-0.0013651218675270387,-0.3875454461827576
7590,13.0,300.01808,18018.006999999998,0.0,-0.03794978273242988,-0.03794930049356027,0.0,0.0,0.0,-1.3369760088992588,-2.1073677918060083,-2.032680417659938,0.0011078488518611689,0.0018380653696279281,-0.3892401171075086
7591,13.0,300.02603,18070.031000000003,0.0,-0.037954797221168124,-0.03795430270374722,0.0,0.0,0.0,-1.3429730309411185,-2.116449147152268,-2.0334160372325383,-0.007683046700857674,0.007242621940841133,-0.39126162198451564
7592,13.0,300.10038,18121.414,0.0,-0.03795981170990659,-0.0379593049139344,0.0,0.0,0.0,-1.3499043709001886,-2.1168831221700977,-2.041669769897118,0.0026375232449032775,-0.0011654160483426088,-0.3943057495249476
7593,13.0,300.13959,18096.814,0.0,-0.03796479320858748,-0.03796427421484394,0.0,0.0,0.0,-1.3337413092800188,-2.118569575636538,-2.048668794962868,-0.0016222455301281686,0.007599222141284832,-0.39844969925392365
7594,13.0,299.9199,18080.039,0.0,-0.03796980769732583,-0.037969276425030896,0.0,0.0,0.0,-1.3296925645304387,-2.117070877413628,-2.049116955482098,0.003488773703015156,-0.0014376619620611888,-0.39655391844932464
7595,13.0,299.94096,18112.486,0.0,-0.03797478919600672,-0.03797427863521807,0.0,0.0,0.0,-1.333211784777759,-2.122104197285378,-2.050427391836428,0.004643646174792196,0.002039876013245088,-0.4025181821154516
7596,13.0,299.84004,18135.145,0.0,-0.037979803684745184,-0.03797928084540525,0.0,0.0,0.0,-1.3550149004295586,-2.1217733711277282,-2.0358429738720583,0.0017218275473061483,-0.003049173424604987,-0.39250769669249364
7597,13.0,300.05616000000003,18122.223,0.0,-0.03798478518342607,-0.037984283055592205,0.0,0.0,0.0,-1.3591898961415987,-2.112863153723358,-2.0366502302267278,0.003513662874496527,0.0014166905220914688,-0.3979878497258426
7598,13.0,299.99847,18052.74,0.0,-0.037989799672164426,-0.03798928526577927,0.0,0.0,0.0,-1.3387342004727787,-2.112635172450858,-2.036212911483568,-0.0009292243798848059,-0.008530858492105182,-0.3891363704297697
7599,13.0,299.74712999999997,18016.471,0.0,-0.03799478117084554,-0.037994287475966226,0.0,0.0,0.0,-1.321917085913059,-2.116459482303288,-2.038180643177768,-0.003243370709620767,0.0017884616096574184,-0.4012964963373806
7600,13.0,299.8951,18128.188000000002,0.0,-0.03799979565958378,-0.037999289686153404,0.0,0.0,0.0,-1.3282516215632287,-2.121510230076758,-2.0607546395056477,-0.004780587229782226,-0.0017263796747054084,-0.3893560430514496
7601,13.0,300.03549,18157.256999999998,0.0,-0.03800481014832224,-0.03800429189634058,0.0,0.0,0.0,-1.3420501627500385,-2.122507369500168,-2.054795107717488,-0.005059099588744255,0.003312479027391227,-0.3975528209279086
7602,13.0,300.04082,18091.077,0.0,-0.03800979164700313,-0.038009294106527536,0.0,0.0,0.0,-1.3464999518891987,-2.113863028922038,-2.038872591671058,-0.0015935836232244583,-0.0014048145216443986,-0.3888792278193916
7603,13.0,300.0073,18081.58,0.0,-0.038014806135741486,-0.03801429631671471,0.0,0.0,0.0,-1.3456839815836688,-2.117388531319978,-2.033276310043748,0.003484943212337117,0.0032766240580276167,-0.39902659319835865
7604,13.0,300.00362,18134.988,0.0,-0.038019787634422375,-0.03801929852690167,0.0,0.0,0.0,-1.3442814407952486,-2.1232026617187882,-2.045099418835598,-0.0011943465678478289,-0.002298297041274258,-0.3947405554078596
7605,13.0,299.9785,18185.154,0.0,-0.03802480212316084,-0.038024300737088845,0.0,0.0,0.0,-1.3465587203949987,-2.121487330624498,-2.0597867830101277,0.00021769037011186684,-0.0026470579283442773,-0.3962510377294326
7606,13.0,300.2414,18197.042,0.0,-0.03802978362184173,-0.03802930294727602,0.0,0.0,0.0,-1.3467119238101186,-2.125518140847308,-2.059216424528838,-0.001043190627204899,-0.003568647600448096,-0.39466252501765864
7607,13.0,299.91514,18121.658,0.0,-0.03803479811058008,-0.03803430515746298,0.0,0.0,0.0,-1.3443982685317788,-2.1177046653511784,-2.046428600316778,0.0001454687806141509,0.003153674365718427,-0.39241659537600265
7608,13.0,300.0354,18088.874,0.0,-0.03803977960926097,-0.03803927445837252,0.0,0.0,0.0,-1.3463360080230187,-2.117080199314548,-2.035149809478648,0.001232231178486749,-0.003503575159150947,-0.39561923576207864
7609,13.0,299.99832999999995,18164.793,0.0,-0.038044794097999435,-0.038044276668559696,0.0,0.0,0.0,-1.3520820480151088,-2.124435685765478,-2.045125763338198,-0.002346775688333728,0.0015774183324540685,-0.39206259618856565
7610,13.0,299.98569,18209.221,0.0,-0.03804980858673779,-0.03804927887874665,0.0,0.0,0.0,-1.3527332638543788,-2.125198359115748,-2.057216775456488,0.0002243259322342458,0.0019078087925610684,-0.3941318859402886
7611,13.0,300.00386000000003,18116.109,0.0,-0.03805479008541868,-0.03805428108893383,0.0,0.0,0.0,-1.3246720116099489,-2.1270514922236377,-2.055121272924678,-0.001966464523624938,0.003133882652840137,-0.3943511937919326
7612,13.0,299.92241,18084.66,0.0,-0.03805980457415714,-0.038059283299120894,0.0,0.0,0.0,-1.3222619962470987,-2.129967929986468,-2.045055139806228,-0.0005652240998532754,-0.0018481428511474983,-0.40150466857042566
7613,13.0,299.86863999999997,18171.15,0.0,-0.03806478607283803,-0.03806428550930807,0.0,0.0,0.0,-1.3448999286562886,-2.126505249094728,-2.052170587308468,-0.004330484614085556,-0.0034396732243693173,-0.3927828954196536
7614,13.0,299.86181,18207.679,0.0,-0.038069800561576495,-0.038069287719495026,0.0,0.0,0.0,-1.3627091163889187,-2.128145903656648,-2.043824851534808,0.0013510951424177086,-0.0007436352522860852,-0.3980895192408766
7615,13.0,299.92656,18169.545,0.0,-0.038074782060257384,-0.03807428992968198,0.0,0.0,0.0,-1.3520594525378788,-2.122573129431658,-2.048455201841788,-0.000868405359857436,0.003540253698195837,-0.3935332476487076
7616,13.0,299.96044,18099.345,0.0,-0.03807979654899574,-0.03807929213986916,0.0,0.0,0.0,-1.3435298118710688,-2.119524361205768,-2.038694766278508,0.005882649916947345,0.0014336244643877185,-0.39751131820381264
7617,13.0,299.99818999999997,18095.897,0.0,-0.0380848110377342,-0.038084294350056114,0.0,0.0,0.0,-1.3257804058943388,-2.123639271186878,-2.051281055045678,-0.0011848192811325588,0.0011126505427600589,-0.3960272614448476
7618,13.0,300.16327,18183.686999999998,0.0,-0.03808979253641509,-0.03808929656024329,0.0,0.0,0.0,-1.3533183144621186,-2.1179846263538082,-2.0560839618446876,0.0013106867284297088,-0.004680939655322776,-0.4028848874591426
7619,13.0,300.13666,18240.253,0.0,-0.03809480702515344,-0.03809429877043047,0.0,0.0,0.0,-1.3585964355580287,-2.129416012656998,-2.056569004667558,-0.0034855119496182466,0.0013860159965141286,-0.39881777248524963
7620,13.0,299.92505,18129.237,0.0,-0.03809978852383433,-0.03809930098061742,0.0,0.0,0.0,-1.3533289535881685,-2.1250344152495684,-2.0324718907893584,0.0017520367884375685,-0.00017939993254289483,-0.4079931473082886
7621,13.0,299.9633,18077.126,0.0,-0.0381048030125728,-0.0381043031908046,0.0,0.0,0.0,-1.3279193768554387,-2.120289162381248,-2.046786480252098,-0.0004586478806800216,5.2354905231276854e-05,-0.39726480458698366
7622,13.0,299.77277999999995,18188.398,0.0,-0.038109784511253686,-0.03810927249171414,0.0,0.0,0.0,-1.3429556030393988,-2.132021787939168,-2.053841436723368,-0.002137645224669158,-0.00045745847705013664,-0.4010317746162546
7623,13.0,299.79084,18280.057,0.0,-0.03811479899999204,-0.038114274701901096,0.0,0.0,0.0,-1.3462098583855686,-2.132430026404458,-2.078041091511688,-0.0017482609119399183,0.0014641536899007187,-0.3855810987438916
7624,13.0,299.95358999999996,18210.686,0.0,-0.03811978049867293,-0.038119276912088274,0.0,0.0,0.0,-1.3486348698498987,-2.1289228638333277,-2.0580361908123583,-0.003909757841313056,-0.0037343333448750064,-0.3922615681107026
7625,13.0,299.92036,18166.561999999998,0.0,-0.03812479498741139,-0.03812427912227534,0.0,0.0,0.0,-1.3482291645098587,-2.126107143130438,-2.047844819981548,0.0015624031818721885,0.0037460480359061566,-0.3849936366009136
7626,13.0,300.07388,18230.733,0.0,-0.038129809476149634,-0.03812928133246252,0.0,0.0,0.0,-1.3644052970563187,-2.124438016240708,-2.052844195974948,0.0024275200689275775,0.007230724966116993,-0.39315552827642963
7627,13.0,300.10397,18286.258,0.0,-0.038134790974830746,-0.038134283542649694,0.0,0.0,0.0,-1.3660013686138386,-2.1343762771965378,-2.058188178327358,0.0011838612531630088,0.008438420192107231,-0.39640367372449664
7628,13.0,299.97874,18254.143,0.0,-0.0381398054635691,-0.03813928575283665,0.0,0.0,0.0,-1.3537178389765487,-2.1310138067396878,-2.064072020333048,-0.0014871438280446687,-0.002269597036166788,-0.4012541222181986
7629,13.0,299.96768,18164.692,0.0,-0.03814478696224999,-0.038144287963023604,0.0,0.0,0.0,-1.3355101399795886,-2.127502185868118,-2.058600672443068,-0.0005611036271291165,0.0005461267672685154,-0.39912746224581364
7630,13.0,299.93511,18113.069,0.0,-0.03814980145098845,-0.03814929017321056,0.0,0.0,0.0,-1.3323659235942786,-2.128730143664308,-2.044824828058498,0.0011806088216670188,-0.0045283823897915455,-0.4056197609365536
7631,13.0,299.9693,18186.907,0.0,-0.03815478294966934,-0.03815429238339774,0.0,0.0,0.0,-1.3511857269766487,-2.124356449607658,-2.052823525672908,0.002281315881523348,-0.0021105998569749883,-0.4015516935075666
7632,13.0,300.14108,18285.474,0.0,-0.038159797438407694,-0.038159294593584914,0.0,0.0,0.0,-1.3626775029857987,-2.140076518284108,-2.0555734864443083,-0.0035733541471625963,-0.0024265388375307377,-0.39857088396588364
7633,13.0,300.01082,18208.244,0.0,-0.038164778937088584,-0.03816429680377187,0.0,0.0,0.0,-1.3465391646680687,-2.129511764791448,-2.058800586687798,0.002707711180655287,-0.0004400923025262286,-0.3973641030967836
7634,13.0,300.01501,18138.615,0.0,-0.03816979342582705,-0.038169299013959046,0.0,0.0,0.0,-1.3307999455647288,-2.1259975094696184,-2.056888685074108,-0.0055329723425118545,-0.0009262378657450601,-0.3933790613809906
7635,13.0,300.13022,18240.752,0.0,-0.0381748079145654,-0.03817430122414611,0.0,0.0,0.0,-1.341589843229609,-2.136798046260548,-2.0663450442823783,-0.0014128438194118285,-0.004346418883833146,-0.39749114439432165
7636,13.0,299.94953,18324.978,0.0,-0.03817978941324629,-0.03817927052505565,0.0,0.0,0.0,-1.3627324211412186,-2.137352902015308,-2.070250515467818,-0.004290107205550615,-0.006271202047369454,-0.3879670899468706
7637,13.0,299.83111,18230.819,0.0,-0.038184803901984754,-0.03818427273524272,0.0,0.0,0.0,-1.3566289065138488,-2.133977157982148,-2.051107789278578,0.0039626995510879965,0.0016084408081157484,-0.40253262092937664
7638,13.0,299.99849,18196.404,0.0,-0.03818978540066564,-0.038189274945429785,0.0,0.0,0.0,-1.3501139110208686,-2.131177649280858,-2.049960790165378,0.003267546553031737,0.003573706555547377,-0.3986379408575016
7639,13.0,299.99962,18183.606,0.0,-0.038194799889403885,-0.03819427715561696,0.0,0.0,0.0,-1.3501223209966988,-2.1256434798846775,-2.051596277151788,0.005690841369042314,0.003818933952699436,-0.4068726041551996
7640,13.0,299.83883,18237.182,0.0,-0.038199781388085,-0.03819927936580414,0.0,0.0,0.0,-1.3486532096767088,-2.135843058041298,-2.059151880497468,-0.004809656463226136,0.0006341677442174834,-0.40054494847320865
7641,13.0,300.08871,18295.573,0.0,-0.03820479587682335,-0.038204281575991095,0.0,0.0,0.0,-1.3539015412196789,-2.135459036253398,-2.072036774069108,0.0013647444318647887,0.001970906004113278,-0.39801881464889866
7642,13.0,300.21727000000004,18263.45,0.0,-0.03820981036556159,-0.03820928378617827,0.0,0.0,0.0,-1.3527565686066787,-2.1355994727172583,-2.063276821654568,-0.0030703751763224373,0.004856178828317535,-0.38885980381497465
7643,13.0,300.35424,18190.756,0.0,-0.0382147918642427,-0.03821428599636523,0.0,0.0,0.0,-1.347659717953659,-2.130612965000128,-2.051263120518908,0.002219399308987658,-0.004917699422714145,-0.3936907472442516
7644,13.0,300.41155,18272.005,0.0,-0.038219806352981056,-0.038219288206552404,0.0,0.0,0.0,-1.3587189374951185,-2.132879808123848,-2.062634319766158,-0.001183573287484589,-0.001189562102200639,-0.3898772690353906
7645,13.0,300.22967,18357.084,0.0,-0.038224787851661945,-0.03822429041673936,0.0,0.0,0.0,-1.359159802613629,-2.1472592455929878,-2.073676010080888,0.0002849501245323877,-0.000924443815250501,-0.39213168971288465
7646,13.0,300.16254,18282.881,0.0,-0.03822980234040041,-0.038229292626926425,0.0,0.0,0.0,-1.3457898662191188,-2.1428667050844776,-2.068882931807848,-0.003989087623442297,-0.00013303650586218087,-0.39679253884787463
7647,13.0,300.3539,18224.878,0.0,-0.0382347838390813,-0.03823429483711349,0.0,0.0,0.0,-1.3416518541357287,-2.137695380549108,-2.0605607034365083,-0.006056665590446354,-0.006215825700254234,-0.40152826716525464
7648,13.0,300.15987,18257.665,0.0,-0.03823979832781954,-0.03823929704730056,0.0,0.0,0.0,-1.3591756093151885,-2.1362481554312778,-2.0544506026834877,-0.0015088586896127587,-0.0009405492128074801,-0.4055405754412386
7649,13.0,300.01804,18310.286,0.0,-0.03824477982650054,-0.038244299257487735,0.0,0.0,0.0,-1.3657899033179686,-2.137717165426258,-2.062362667414348,0.0017230443593512382,0.0015954773876613582,-0.4041755046415166
7650,13.0,299.90317000000005,18269.221999999998,0.0,-0.038249794315239005,-0.03824930146767491,0.0,0.0,0.0,-1.3577868487281288,-2.139922808243938,-2.055677547229578,0.0013485659688430988,0.004436783567501446,-0.4082527723814116
7651,13.0,300.09483,18248.629,0.0,-0.03825480880397725,-0.03825427076858423,0.0,0.0,0.0,-1.3458166160217588,-2.1334586779059777,-2.0678523551311376,0.0018047854740684583,-0.0004026931400102186,-0.4010617262892106
7652,13.0,300.00082000000003,18236.593,0.0,-0.038259790302658137,-0.03825927297877141,0.0,0.0,0.0,-1.3432665694950885,-2.132848498695758,-2.067353734756928,-0.005318995706269005,0.003117335062807017,-0.39602237757936565
7653,13.0,299.99112,18276.655,0.0,-0.03826480479139671,-0.038264275188958585,0.0,0.0,0.0,-1.3478096789684588,-2.138484297076968,-2.069352775879218,-0.003919080958133176,0.0005753409056092264,-0.3901728746195646
7654,13.0,300.16065,18358.471,0.0,-0.0382697862900776,-0.03826927739914554,0.0,0.0,0.0,-1.3679979779358886,-2.143902753311728,-2.0686161430565178,-0.0046697975519231355,0.0005067525371275815,-0.39381620787163363
7655,13.0,300.36136,18351.793,0.0,-0.03827480077881584,-0.03827427960933272,0.0,0.0,0.0,-1.3667795446906386,-2.145043976899358,-2.0666633061387882,0.0017370577095592483,-0.005434764191144465,-0.3887851374151056
7656,13.0,300.19731,18304.729,0.0,-0.038279782277496954,-0.03827928181951967,0.0,0.0,0.0,-1.3602190542681687,-2.142714920219498,-2.061246572429198,0.001848580372540678,-0.0039010992139085167,-0.4008743864782216
7657,13.0,300.36865,18328.531000000003,0.0,-0.038284796766235196,-0.03828428402970685,0.0,0.0,0.0,-1.3527173558278087,-2.142799222627818,-2.075899182125298,0.003734324630924147,-0.005497781659913805,-0.3967792855365666
7658,13.0,300.24989,18318.006999999998,0.0,-0.0382897782649162,-0.03828928623989403,0.0,0.0,0.0,-1.3484835916099687,-2.143228334045168,-2.076504599060048,0.0017790294671265383,0.004009707364302306,-0.4035813449153776
7659,13.0,300.00383,18289.1,0.0,-0.03829479275365466,-0.03829428845008098,0.0,0.0,0.0,-1.3481469899267486,-2.1385940320627976,-2.0726885978584377,0.0026449984975160275,0.0029709889190637773,-0.40026898980847364
7660,13.0,299.93311,18254.087,0.0,-0.038299807242393125,-0.03829929066026805,0.0,0.0,0.0,-1.3603596933820488,-2.132627204873918,-2.055799745191638,-0.0009537854305862931,0.006655158176662974,-0.4048262645182416
7661,13.0,299.90827,18251.986,0.0,-0.03830478874107379,-0.038304292870455,0.0,0.0,0.0,-1.3595221408493885,-2.1330862071692183,-2.0555397452159783,-0.0006521527916374694,-0.0003554666471593267,-0.39940453548565863
7662,13.0,300.10145,18269.691000000003,0.0,-0.03830980322981237,-0.03830929508064218,0.0,0.0,0.0,-1.3574873319985687,-2.1357015070023277,-2.0603410308148282,-0.0025353409239936677,0.0016762326100312783,-0.3999929906137346
7663,13.0,299.96623999999997,18339.261000000002,0.0,-0.038314784728493256,-0.03831429729082936,0.0,0.0,0.0,-1.3474705441599888,-2.1520448258152878,-2.075161941352538,-0.0016132854608188786,-0.002802069690917747,-0.4015357652159946
7664,13.0,299.98924,18378.362,0.0,-0.0383197992172315,-0.03831929950101631,0.0,0.0,0.0,-1.3540403564833787,-2.1533021678643776,-2.079220615953098,-0.003681688618704377,0.0016055303485285085,-0.39567114456470165
7665,13.0,300.1777,18357.126,0.0,-0.03832478071591239,-0.038324268801925854,0.0,0.0,0.0,-1.3556640897686287,-2.152335831244008,-2.072108208201158,-0.0006315129884254795,-0.0027914866989232874,-0.39903632039931863
7666,13.0,300.14263,18301.948,0.0,-0.03832979520465096,-0.03832927101211303,0.0,0.0,0.0,-1.3603867471597186,-2.1459314826619478,-2.057016962536768,-0.0015949002404043984,0.00031096614158246865,-0.4000636040132036
7667,13.0,300.22117000000003,18331.976000000002,0.0,-0.038334809693389205,-0.038334273222299986,0.0,0.0,0.0,-1.3630414624217186,-2.150950313057268,-2.058471077755278,0.004212200330536806,-0.003248291964031457,-0.4066035862536496
7668,13.0,300.15873,18356.596,0.0,-0.038339791192070094,-0.03833927543248716,0.0,0.0,0.0,-1.3647614544664686,-2.146396057832798,-2.0687894088236183,0.0008000521869890033,-0.003478144405491127,-0.40150407075286665
7669,13.0,299.9391,18267.339,0.0,-0.03834480568080856,-0.03834427764267412,0.0,0.0,0.0,-1.3479821341354787,-2.1370426448346875,-2.067790242900008,0.005271920917223085,-0.006635858092733204,-0.4080825362321106
7670,13.0,299.95165,18246.561,0.0,-0.03834978717948945,-0.038349279852861295,0.0,0.0,0.0,-1.3432080036393088,-2.1348324423915583,-2.0684582786909376,0.0032970945471478973,0.008286871718375562,-0.3972446105124906
7671,13.0,299.79864,18287.473,0.0,-0.0383548016682278,-0.03835428206304847,0.0,0.0,0.0,-1.3575393117286987,-2.133059052066538,-2.0683366886789383,0.004500749641014406,0.004698931836023465,-0.4033757260725846
7672,13.0,299.77607,18382.694,0.0,-0.03835978316690891,-0.03835928427323543,0.0,0.0,0.0,-1.3723311419885387,-2.148403306280898,-2.067145410536368,-0.0014776510931578085,0.00983865026367418,-0.3987908909600966
7673,13.0,300.00459,18389.917,0.0,-0.038364797655647376,-0.038364286483422605,0.0,0.0,0.0,-1.3767935967539486,-2.143445777516628,-2.069836096176918,-0.0009515223972829489,-0.0014448423588948388,-0.4020147994657716
7674,13.0,300.15999,18376.873,0.0,-0.03836977915432804,-0.03836928869360967,0.0,0.0,0.0,-1.3611836683633687,-2.152857553720498,-2.072069096747298,-0.0029823651845615274,0.004698038960035345,-0.3955845522111556
7675,13.0,300.06914,18347.674,0.0,-0.03837479364306662,-0.038374290903796626,0.0,0.0,0.0,-1.3491187980976589,-2.1502626202143977,-2.077853437593168,-0.002769478906751287,-0.002378085927023808,-0.40210990312015765
7676,13.0,300.03033,18407.994,0.0,-0.03837980813180508,-0.0383792931139838,0.0,0.0,0.0,-1.3521750643742885,-2.1605738585320378,-2.082821605483488,-0.008257439741395853,-0.002512495680614018,-0.3968136955099626
7677,13.0,300.15899,18401.898999999998,0.0,-0.03838478963048575,-0.03838429532417076,0.0,0.0,0.0,-1.3617792567721487,-2.153724794481088,-2.078213648003718,-0.0034341203098462864,-0.00977438771318196,-0.4000330747876906
7678,13.0,300.28468,18304.726000000002,0.0,-0.03838980411922421,-0.038389297534357936,0.0,0.0,0.0,-1.3582753366013385,-2.143973478168708,-2.061930718896718,-0.003990620772168606,-0.0006180645454132214,-0.3983543017570086
7679,13.0,300.11007,18262.326,0.0,-0.0383947856179051,-0.038394266835267477,0.0,0.0,0.0,-1.3531021882157888,-2.141477843172408,-2.056711062331578,0.01012475804671082,-0.0043580930448602955,-0.4069418091370296
7680,13.0,300.11253999999997,18345.929,0.0,-0.038399800106643456,-0.03839926904545443,0.0,0.0,0.0,-1.3588756872855887,-2.1421517558139183,-2.075676773728348,0.0013125510072886989,-0.004056426299913106,-0.4032477424524536
7681,13.0,299.92737,18437.006999999998,0.0,-0.038404781605324345,-0.03840427125564161,0.0,0.0,0.0,-1.3586550014138088,-2.155460086602348,-2.090274769244058,0.005892843820903405,-0.006721360594471644,-0.4045623837946986
7682,13.0,300.04992999999996,18395.736,0.0,-0.03840979609406281,-0.038409273465828564,0.0,0.0,0.0,-1.3563041598567986,-2.1490876553984375,-2.086452688541848,0.001952928008913988,-0.0015857227276236485,-0.4008467652804956
7683,13.0,299.81906000000004,18365.666,0.0,-0.0384147775927437,-0.03841427567601574,0.0,0.0,0.0,-1.3560576361074685,-2.147833961049708,-2.078812478812818,0.0013890745932659885,0.005378559106772454,-0.3980958723190036
7684,13.0,300.02729,18396.758,0.0,-0.03841979208148205,-0.03841927788620292,0.0,0.0,0.0,-1.3696686247007686,-2.1521540541760684,-2.070332386075898,-0.008874801070974672,0.0036808298892446263,-0.4005222010084636
7685,13.0,300.16667,18430.03,0.0,-0.038424806570220515,-0.03842428009638987,0.0,0.0,0.0,-1.3713022878369987,-2.1572107801251277,-2.0737560568387883,-0.01174315119995879,-0.001946240659578998,-0.4024007464288616
7686,13.0,299.98611,18406.396,0.0,-0.03842978806890163,-0.03842928230657705,0.0,0.0,0.0,-1.3654094279054187,-2.152262269286748,-2.077413180424718,-0.005331905424468095,0.004574357295853915,-0.40145191877021963
7687,13.0,299.82571,18372.432,0.0,-0.03843480255763987,-0.03843428451676412,0.0,0.0,0.0,-1.3526115725173686,-2.152957764155388,-2.079191231700198,-0.004127053276933446,-0.001964976363203068,-0.40106560703709365
7688,13.0,300.12781,18352.728,0.0,-0.03843978405632087,-0.038439286726951294,0.0,0.0,0.0,-1.3539447056739387,-2.147329666474938,-2.077496773557968,0.0009768802982605793,-0.005914706313011064,-0.40056216359240765
7689,13.0,299.99048,18368.138,0.0,-0.03844479854505933,-0.03844428893713847,0.0,0.0,0.0,-1.3607375343443386,-2.1491973903842685,-2.073520476190538,-0.0015724982939434985,-0.01063148006474539,-0.3988156547925406
7690,13.0,300.04898,18422.814,0.0,-0.03844978004374,-0.038449291147325426,0.0,0.0,0.0,-1.3729249065471387,-2.151019619364108,-2.0761309124231677,0.006873222466459244,-0.0013351551984695587,-0.4039029910271216
7691,13.0,300.16378,18405.662,0.0,-0.038454794532478465,-0.03845429335751238,0.0,0.0,0.0,-1.3704046495734088,-2.148176034283468,-2.076280873437968,0.0030589340628182867,-0.0012153314840438788,-0.40157822039518465
7692,13.0,299.97106,18394.668999999998,0.0,-0.03845980902121704,-0.038459295567699336,0.0,0.0,0.0,-1.3622481889184288,-2.156213843351738,-2.073057927519888,0.0030681411625019576,0.0023959135559082577,-0.41151770738363563
7693,13.0,300.22927999999996,18438.232,0.0,-0.03846479051989771,-0.0384642648686091,0.0,0.0,0.0,-1.3581358120625686,-2.157588621087418,-2.089037692196968,-0.004454821344456636,0.0003079571130255007,-0.40349690065204363
7694,13.0,300.27695,18452.256999999998,0.0,-0.03846980500863617,-0.038469267078796276,0.0,0.0,0.0,-1.3625552036987287,-2.1597509981258276,-2.0867190719931377,-0.005406461684051225,-0.0010592243981123088,-0.4104808688213076
7695,13.0,299.99498,18416.157,0.0,-0.03847478650731706,-0.03847426928898323,0.0,0.0,0.0,-1.3637559050672288,-2.158992985726018,-2.0753028844414483,-0.008549746993844332,-0.0017620098038718282,-0.4019120255081286
7696,13.0,299.88437999999996,18403.876,0.0,-0.03847980099605541,-0.03847927149917019,0.0,0.0,0.0,-1.3699999574834687,-2.153393563023398,-2.070925238709408,-0.005081864582715985,-0.004021892304704866,-0.4042333409572246
7697,13.0,299.97576000000004,18417.056,0.0,-0.0384847824947363,-0.038484273709357364,0.0,0.0,0.0,-1.3637102074877185,-2.160951395519298,-2.073663445779648,-0.0020270638710306282,0.0013901848114005585,-0.40180467166003364
7698,13.0,299.80278,18400.816000000003,0.0,-0.03848979698347477,-0.03848927591954443,0.0,0.0,0.0,-1.3567265838234885,-2.1558996344957277,-2.080762377305258,0.004310347281598155,0.004243473686923246,-0.40183900057342165
7699,13.0,299.93438,18466.308999999997,0.0,-0.03849477848215588,-0.038494278129731496,0.0,0.0,0.0,-1.3593347909058988,-2.163989524619138,-2.089972516739228,-0.0011954728966589888,0.007179106054347603,-0.40199810110412365
7700,13.0,300.03749,18469.421000000002,0.0,-0.03849979297089412,-0.03849928033991856,0.0,0.0,0.0,-1.3696882817527087,-2.155761123207058,-2.0887934989228683,0.003137593276031347,0.0003760176795300557,-0.3981817047349746
7701,13.0,300.04997000000003,18401.917,0.0,-0.03850480745963247,-0.03850428255010574,0.0,0.0,0.0,-1.3668803630755886,-2.149997756638258,-2.076845051093648,-0.003214366830808307,-0.0008522157510846462,-0.40358240882798263
7702,13.0,300.18067,18426.23,0.0,-0.038509788958313584,-0.03850928476029292,0.0,0.0,0.0,-1.3681898875048286,-2.156614786416308,-2.076309041790748,0.007396108255389054,0.003226316899837687,-0.39821210223797465
7703,13.0,300.3965,18496.981,0.0,-0.038514803447051826,-0.03851428697047987,0.0,0.0,0.0,-1.3744570420233486,-2.158916586668478,-2.089246928342618,-0.0038039671341473266,0.0017549618388262485,-0.4080184988257906
7704,13.0,300.23593,18505.221999999998,0.0,-0.038519784945732716,-0.03851928918066705,0.0,0.0,0.0,-1.3719718435030788,-2.1589334066201378,-2.094220061158428,0.004912093515210885,-0.003926431479658616,-0.40130572704579165
7705,13.0,300.20339,18444.319,0.0,-0.03852479943447129,-0.038524291390854004,0.0,0.0,0.0,-1.3609520393905088,-2.158443601521798,-2.087216679117248,-0.005337098939180655,-0.0009648431403851041,-0.4100585259146256
7706,13.0,300.12254,18429.696,0.0,-0.03852978093315196,-0.03852929360104096,0.0,0.0,0.0,-1.3630882745763384,-2.1520497907407776,-2.087029227848748,0.004069094256638337,-0.00015384905808371984,-0.4007568899966256
7707,13.0,300.02949,18412.556,0.0,-0.03853479542189042,-0.038534295811228136,0.0,0.0,0.0,-1.3702688740600086,-2.150356649823678,-2.076331738592988,-0.003185510785185437,0.0009207193611954262,-0.40364476423913664
7708,13.0,299.9792,18470.785,0.0,-0.03853977692057131,-0.03853926511213768,0.0,0.0,0.0,-1.3724428021495587,-2.162310873178468,-2.079903647845508,-0.00022223461442534876,-0.0010713790423368791,-0.39914470776251565
7709,13.0,299.84278,18496.401,0.0,-0.038544791409309664,-0.038544267322324854,0.0,0.0,0.0,-1.3764670262467185,-2.160698792269368,-2.0852782303509376,-0.0002926288175002157,0.0035028395395783466,-0.39875643032419567
7710,13.0,299.8823,18472.388,0.0,-0.03854980589804813,-0.03854926953251181,0.0,0.0,0.0,-1.3569285245684186,-2.167419072232608,-2.0907969983455983,-0.0008577181145601873,-0.00023621897554799778,-0.4050537594306936
7711,13.0,300.22289,18478.895,0.0,-0.03855478739672902,-0.038554271742698876,0.0,0.0,0.0,-1.3588651494845487,-2.163793359399778,-2.094464051782508,0.0014201819792860487,0.001027403380046819,-0.4041661422105926
7712,13.0,300.17346000000003,18537.182,0.0,-0.03855980188546737,-0.03855927395288605,0.0,0.0,0.0,-1.3736856547222187,-2.164994972693368,-2.096159725824858,0.002942765850778377,-0.004692176598931776,-0.40687094242503563
7713,13.0,300.13719,18506.098,0.0,-0.03856478338414837,-0.03856427616307301,0.0,0.0,0.0,-1.3802455371946287,-2.161238753247658,-2.083907302965638,0.004271264300065966,-0.0005561789783305915,-0.4071117615763026
7714,13.0,300.13945,18435.383,0.0,-0.038569797872886724,-0.038569278373260185,0.0,0.0,0.0,-1.3650513453200788,-2.156840031913538,-2.0820047232528682,0.0059907713019930935,-0.007132903977612813,-0.4061560134194776
7715,13.0,299.92266,18436.491,0.0,-0.038574779371567836,-0.03857428058344736,0.0,0.0,0.0,-1.3653301917475986,-2.158308535283468,-2.080594279113668,-0.00012528918546507987,0.0027059939243858073,-0.40423781952266663
7716,13.0,299.91508999999996,18489.038,0.0,-0.03857979386030608,-0.03857928279363432,0.0,0.0,0.0,-1.3632093579632887,-2.1592193457983577,-2.097777278284498,-0.0016169430910298584,-0.0016717056112344982,-0.4005637138650606
7717,13.0,299.9613,18529.256,0.0,-0.03858480834904443,-0.038584285003821495,0.0,0.0,0.0,-1.3699768553811886,-2.170247357236738,-2.092207037184758,-0.007901118387379672,0.0017682860776412482,-0.40243873317511064
7718,13.0,299.9872,18507.074,0.0,-0.03858978984772543,-0.03858928721400845,0.0,0.0,0.0,-1.3732756937317587,-2.1663514106022377,-2.086061371353228,-0.0036835976832177864,-0.0004953305841828224,-0.4036899146635926
7719,13.0,299.85143,18510.008,0.0,-0.038594804336463784,-0.03859428942419563,0.0,0.0,0.0,-1.3695781414668386,-2.169770116439638,-2.087231877868748,-0.0037709450094132965,0.0025775485661842373,-0.3996274403751576
7720,13.0,300.05716,18507.867,0.0,-0.03859978583514467,-0.038599291634382804,0.0,0.0,0.0,-1.3740620771343688,-2.171327583168348,-2.080539867583298,0.004176977933210626,-0.0008162030693429712,-0.40601777570833464
7721,13.0,300.12397999999996,18508.252,0.0,-0.03860480032388314,-0.03860429384456976,0.0,0.0,0.0,-1.3685562787409886,-2.166064660823938,-2.091425517382628,-0.0016772428203809787,0.005308864927794175,-0.4021359841777316
7722,13.0,300.11503999999996,18478.848,0.0,-0.038609781822563916,-0.0386092631454793,0.0,0.0,0.0,-1.3602730604984987,-2.1642830631731083,-2.092552454143848,0.0026300620764669177,-0.00046396832523260857,-0.4100042258417666
7723,13.0,300.0674,18426.962,0.0,-0.03861479631130238,-0.03861426535566648,0.0,0.0,0.0,-1.3579592025701386,-2.155897202695488,-2.087480022818238,-0.0017530091032335283,0.002148965356111368,-0.4066454841452846
7724,13.0,300.0286,18452.799,0.0,-0.03861977780998327,-0.03861926756585343,0.0,0.0,0.0,-1.3740582267839887,-2.1521450362501775,-2.082986765249788,0.0041189287336566155,1.971437555115738e-05,-0.4122003947710116
7725,13.0,300.00759,18534.793,0.0,-0.03862479229872162,-0.03862426977604061,0.0,0.0,0.0,-1.3823454980268788,-2.1676491813303183,-2.084119680186598,0.0006712488171296004,0.001023680293879379,-0.4059068856173906
7726,13.0,300.0599,18544.049,0.0,-0.038629806787460086,-0.038629271986227676,0.0,0.0,0.0,-1.3809239081365787,-2.1661087372032877,-2.089895408406618,-0.0037452048091729364,-0.007044631756726024,-0.4089741659226076
7727,13.0,299.88844,18531.285,0.0,-0.038634788286140975,-0.03863427419641463,0.0,0.0,0.0,-1.3720508770108786,-2.1682590565655078,-2.092738081562168,-0.006563334412850674,-0.006191396645643274,-0.3990879049619096
7728,13.0,299.89414,18546.123,0.0,-0.03863980277487922,-0.03863927640660181,0.0,0.0,0.0,-1.3651481107046286,-2.174974371603258,-2.097435813000798,0.0005125308592678576,0.0006638174990411864,-0.4047480213455196
7729,13.0,299.74561,18562.74,0.0,-0.03864478427356033,-0.03864427861678876,0.0,0.0,0.0,-1.3722537296808988,-2.168235751813208,-2.102119966888088,-0.005515848821121895,0.005241459984766825,-0.39907706318583963
7730,13.0,299.81612,18539.522,0.0,-0.03864979876229868,-0.03864928082697594,0.0,0.0,0.0,-1.3711541506723788,-2.175836850088378,-2.088560552724878,0.00035156511751677563,0.002821062253442167,-0.4074988636445066
7731,13.0,300.09081000000003,18509.273,0.0,-0.03865478026097968,-0.038654283037162895,0.0,0.0,0.0,-1.3715541818118588,-2.169544262992348,-2.085258269323968,-0.005071959151063396,0.0028719110951355574,-0.4022936864232956
7732,13.0,299.86326,18492.891,0.0,-0.038659794749718035,-0.03865928524735007,0.0,0.0,0.0,-1.3707796534354186,-2.1674003271057583,-2.083197217295558,0.004830148230598515,-0.0015612159567300185,-0.4079290592394636
7733,13.0,299.96907999999996,18532.801,0.0,-0.038664776248398924,-0.03866428745753725,0.0,0.0,0.0,-1.3682569646614486,-2.172562836365258,-2.092689040257328,-0.0003220439137332597,-0.0041845720400601055,-0.4080251052164426
7734,13.0,300.18709,18555.803,0.0,-0.03866979073713739,-0.038669289667724205,0.0,0.0,0.0,-1.3697288117567088,-2.167555253046048,-2.103216607471318,0.0034661593793332965,-0.0023976976866843377,-0.4045990938458216
7735,13.0,299.90259,18528.373,0.0,-0.03867480522587574,-0.03867429187791138,0.0,0.0,0.0,-1.3727327943281789,-2.1674533200859876,-2.091976522787008,-0.0006556819316032684,0.003199585639674517,-0.4054538412326786
7736,13.0,299.92964,18532.609,0.0,-0.03867978672455663,-0.03867926117882092,0.0,0.0,0.0,-1.3752273147493688,-2.1678565936257876,-2.090366367053098,-0.0004718626783517206,0.004116711742437816,-0.4077927973660156
7737,13.0,300.14043,18570.965,0.0,-0.038684801213295095,-0.03868426338900788,0.0,0.0,0.0,-1.3861842973557386,-2.168363826625848,-2.090561417697348,0.0014952969449743188,0.004870012326632795,-0.4080641964053006
7738,13.0,300.03301,18588.721,0.0,-0.03868978271197576,-0.038689265599195055,0.0,0.0,0.0,-1.3791646019879487,-2.1778774344647682,-2.093464987183908,-0.0029156013248724474,-0.005073658067506065,-0.4060702823285166
7739,13.0,299.97902999999997,18549.455,0.0,-0.03869479720071434,-0.03869426780938212,0.0,0.0,0.0,-1.3729507444246887,-2.1674283941335277,-2.098191798900408,0.0015720679666260285,-0.004468589589465456,-0.4056678497862996
7740,13.0,299.91684,18550.921000000002,0.0,-0.038699778699395226,-0.0386992700195693,0.0,0.0,0.0,-1.3658604255249287,-2.1743242703390977,-2.098832071638598,-0.00014856022693425286,-0.0060824711453181645,-0.4054664257989206
7741,13.0,299.79697000000004,18537.236,0.0,-0.03870479318813347,-0.038704272229756254,0.0,0.0,0.0,-1.3748645712135688,-2.171870583896938,-2.088121815431578,0.0018173714588605983,-0.002171817590916708,-0.40921525865140157
7742,13.0,299.92245,18553.343999999997,0.0,-0.03870980767687204,-0.03870927443994321,0.0,0.0,0.0,-1.3705087103586788,-2.168947762658478,-2.100297028633178,-0.003834988697883916,-0.006039171016869774,-0.4044006386812356
7743,13.0,299.9471,18564.302,0.0,-0.03871478917555293,-0.038714276650130386,0.0,0.0,0.0,-1.3765454518044589,-2.174073085639308,-2.0924655172852678,-0.00020350512202439182,-0.0005788245303805336,-0.4072178285967706
7744,13.0,299.9969,18574.27,0.0,-0.0387198036642914,-0.03871927886031734,0.0,0.0,0.0,-1.3702364500568087,-2.172088939293488,-2.103788789802788,-0.001102286311462189,0.0030265035748176473,-0.4065063041115486
7745,13.0,299.89576,18589.622,0.0,-0.038724785162972286,-0.03872428107050452,0.0,0.0,0.0,-1.373775226031059,-2.1756930698991876,-2.101312811858428,0.007230542783749014,-0.002166846788576128,-0.4081260147939016
7746,13.0,299.94349,18572.352,0.0,-0.03872979965171075,-0.038729283280691695,0.0,0.0,0.0,-1.3709252574747886,-2.1749456966254277,-2.099660403595348,0.0030888958682752867,-0.003324378737890637,-0.4058929128985116
7747,13.0,300.1224,18602.815,0.0,-0.03873478115039164,-0.03873428549087865,0.0,0.0,0.0,-1.3845685687462788,-2.1710603891169775,-2.099162087196168,-0.0033236046148142364,-0.00026339851782040973,-0.3994620374288336
7748,13.0,299.96522000000004,18627.235,0.0,-0.03873979563912999,-0.03873928770106583,0.0,0.0,0.0,-1.3791203229585787,-2.182010076322628,-2.101083918660838,-0.0015191001149985088,0.005568445620562796,-0.4084648557598426
7749,13.0,299.93711,18599.485,0.0,-0.03874477713781088,-0.038744289911252894,0.0,0.0,0.0,-1.3817160670647588,-2.1761855094477878,-2.095877333021988,-0.001919457824985738,0.0018435906224232282,-0.4079024512918376
7750,13.0,300.01908,18593.793,0.0,-0.038749791626549346,-0.03874929212144007,0.0,0.0,0.0,-1.3716899573252588,-2.1779331632202683,-2.102425765768268,-0.003300255887459897,-0.0015367087805363486,-0.4094429359488716
7751,13.0,300.05964,18611.538,0.0,-0.0387548061152877,-0.0387542614223495,0.0,0.0,0.0,-1.3765578134556788,-2.181879164409708,-2.099005844030748,0.0042088712973332556,-0.0026569777481482873,-0.4057099807254576
7752,13.0,300.0807,18584.735,0.0,-0.03875978761396859,-0.03875926363253657,0.0,0.0,0.0,-1.3696140105203787,-2.174919048147798,-2.104762421823878,0.003139480251692577,-0.001028026934158359,-0.40905032180012363
7753,13.0,300.0971,18549.108,0.0,-0.03876480210270705,-0.038764265842723744,0.0,0.0,0.0,-1.3699066371492588,-2.1778174500588476,-2.090741674890138,0.008842177052204931,-0.0005913233148690675,-0.40446430118501864
7754,13.0,300.0834,18557.907,0.0,-0.03876978360138772,-0.03876926805291092,0.0,0.0,0.0,-1.3678968555759088,-2.176165447095808,-2.0970778317404677,0.0012085538541249789,1.5705897360551385e-05,-0.40601214203777863
7755,13.0,299.92401,18615.459,0.0,-0.038774798090126184,-0.038774270263097876,0.0,0.0,0.0,-1.3838559499509486,-2.1719059463254275,-2.1028728117123876,0.007388089191447633,-0.00032974311488311167,-0.39818123863992866
7756,13.0,299.76169,18667.418,0.0,-0.038779779588807184,-0.03877927247328483,0.0,0.0,0.0,-1.3826524114821686,-2.184832788451208,-2.106943543989138,-0.002575317490789047,0.008711159558624513,-0.4071967631271916
7757,13.0,299.87352999999996,18693.924,0.0,-0.03878479407754565,-0.03878427468347201,0.0,0.0,0.0,-1.3914634317017487,-2.181767706898708,-2.109254868792248,0.0003051965739230567,0.0027505075211539574,-0.4052911436641216
7758,13.0,300.06572,18641.906000000003,0.0,-0.03878977557622654,-0.038789276893658964,0.0,0.0,0.0,-1.3874847025340789,-2.177031674606298,-2.102157659791808,-0.007986156212622253,0.0015446605646711286,-0.4094891097559286
7759,13.0,299.91591,18608.102,0.0,-0.038794790064965,-0.03879427910384614,0.0,0.0,0.0,-1.3833972516306787,-2.1789575590713683,-2.094043552991008,-0.0068721647346798535,-0.002738412050735227,-0.4100667028429326
7760,13.0,300.19872999999995,18636.328,0.0,-0.038799804553703354,-0.03879928131403321,0.0,0.0,0.0,-1.3857356302114587,-2.1770493051580377,-2.102193326195328,-0.001009829002892363,0.0045086960549236554,-0.4121934742728286
7761,13.0,300.08107,18624.665,0.0,-0.038804786052384244,-0.03880428352422027,0.0,0.0,0.0,-1.383792723144709,-2.182150006161438,-2.095490372808798,-0.0017101919911078085,-0.0013388788925870587,-0.4117554563870996
7762,13.0,300.13752,18562.588,0.0,-0.03880980054112271,-0.03880928573440734,0.0,0.0,0.0,-1.3645783601733987,-2.1779666004735683,-2.1000182835306678,-0.0008069783188425592,-0.0005911093772429535,-0.41442848107840663
7763,13.0,300.06215,18571.413,0.0,-0.0388147820398036,-0.03881428794459452,0.0,0.0,0.0,-1.3722965901601287,-2.178557933231928,-2.094391097775308,0.005177150014169925,-0.006109927993877944,-0.4094491471719846
7764,13.0,299.77836,18624.915,0.0,-0.03881979652854195,-0.038819290154781694,0.0,0.0,0.0,-1.3742976577826185,-2.182629476108758,-2.104582063306078,0.002683338766724917,0.006228629432492864,-0.41246042514417464
7765,13.0,299.73789,18686.37,0.0,-0.03882477802722284,-0.03882425945569101,0.0,0.0,0.0,-1.3848306965471486,-2.1870337703184277,-2.108325414475518,0.005512078821474825,-0.0028136695807125674,-0.4060439580909186
7766,13.0,299.96654,18686.876,0.0,-0.0388297925159613,-0.03882926166587819,0.0,0.0,0.0,-1.3789709698938386,-2.1915087893850775,-2.109864034752368,-0.005696331158084115,0.0009484973999044052,-0.4019963988439556
7767,13.0,299.9942,18682.894,0.0,-0.038834807004699545,-0.03883426387606537,0.0,0.0,0.0,-1.387987071933659,-2.1803509806088877,-2.110795211594268,-0.0019638809385199582,0.0003898404880567606,-0.4025639303574666
7768,13.0,299.80621,18665.017,0.0,-0.038839788503380435,-0.03883926608625232,0.0,0.0,0.0,-1.3741203390151187,-2.1807202089453277,-2.118858453240048,-0.004938720714588785,0.002301486651264048,-0.4062200001632926
7769,13.0,299.93151,18640.63,0.0,-0.03884480299211901,-0.0388442682964395,0.0,0.0,0.0,-1.3889513820538286,-2.180859429509068,-2.0964752519059977,-0.0014506378454918086,-0.002213930696872948,-0.4137165411606436
7770,13.0,300.25744,18649.54,0.0,-0.03884978449079968,-0.038849270506626454,0.0,0.0,0.0,-1.3794964413956987,-2.1799288606172276,-2.109569077648258,-0.006606445671480425,-8.318213874443793e-05,-0.4124823214788356
7771,13.0,300.18233,18641.233,0.0,-0.03885479897953814,-0.03885427271681363,0.0,0.0,0.0,-1.3883092854654586,-2.180116413210738,-2.098043459085768,0.0031978194434252073,-0.005434411276134635,-0.4143455465577216
7772,13.0,299.93017000000003,18652.148999999998,0.0,-0.03885978047821925,-0.03885927492700059,0.0,0.0,0.0,-1.3767053426702387,-2.183941027038198,-2.1091411821310277,0.0006901856103685164,0.0014564948363698486,-0.4096734503466216
7773,13.0,299.9509,18710.354,0.0,-0.038864794966957605,-0.03886427713718765,0.0,0.0,0.0,-1.3884654273058685,-2.185370925579318,-2.1136441669004378,0.003906279049744726,-0.01186415555340099,-0.4093061370528706
7774,13.0,299.89362,18739.881,0.0,-0.038869776465638495,-0.03886927934737483,0.0,0.0,0.0,-1.3791110010576588,-2.193498407281438,-2.123846379507318,0.003132576573461237,-0.003485536267620647,-0.4035993807671576
7775,13.0,300.10139,18730.792,0.0,-0.03887479095437696,-0.038874281557561785,0.0,0.0,0.0,-1.3923968376938685,-2.1884594132091277,-2.1128369105457683,0.003297134874501877,-0.0038379991652560267,-0.4042883604376546
7776,13.0,300.16727000000003,18723.824,0.0,-0.0388798054431152,-0.03887928376774896,0.0,0.0,0.0,-1.3819729259651088,-2.1905286725633477,-2.119073160936238,0.0035310181261843567,0.008829046952109091,-0.40507378125266963
7777,13.0,299.90288,18719.186,0.0,-0.03888478694179609,-0.03888428597793614,0.0,0.0,0.0,-1.3950168998024488,-2.189408929877838,-2.1057392962452877,-0.0017658844722542282,-0.0019814990272837285,-0.4060936681408246
7778,13.0,299.82867999999996,18690.803,0.0,-0.038889801430534665,-0.038889288188123095,0.0,0.0,0.0,-1.3797292862686787,-2.183841221903348,-2.117966691827038,-0.0035539517249727265,-0.00017544836861040585,-0.4030957853349566
7779,13.0,299.94677,18667.409,0.0,-0.038894782929215554,-0.038894257489032635,0.0,0.0,0.0,-1.3780892396568185,-2.186183248184488,-2.110153824280968,-0.0027540055644741874,-0.0018932959100537584,-0.4102705282330486
7780,13.0,300.08768,18672.638,0.0,-0.038899797417953796,-0.03889925969921981,0.0,0.0,0.0,-1.3741290529659786,-2.1833713778319774,-2.1185152654311783,-0.005124662949714855,0.010569607973889089,-0.41476571097668863
7781,13.0,299.92407000000003,18668.648999999998,0.0,-0.038904778916634686,-0.03890426190940677,0.0,0.0,0.0,-1.3932376326268485,-2.185645820331448,-2.095919686876168,-0.003783767486778777,0.0014987713795672187,-0.4214221967136326
7782,13.0,299.85337000000004,18692.603,0.0,-0.03890979340537326,-0.038909264119593945,0.0,0.0,0.0,-1.3863664797237185,-2.190371821447868,-2.1053463578565084,-0.007380292130603123,0.006000596990862814,-0.41706529221113964
7783,13.0,300.04805,18740.426,0.0,-0.03891477490405393,-0.0389142663297809,0.0,0.0,0.0,-1.4014926825165588,-2.187932523157128,-2.107196248564078,0.0038570513068863265,-0.00011955448374160888,-0.4123568811164556
7784,13.0,300.02432999999996,18742.387,0.0,-0.03891978939279239,-0.03891926853996808,0.0,0.0,0.0,-1.3866502910767287,-2.1912606444355878,-2.119306816409298,0.0017539859776549381,0.003044338499102817,-0.4067654630896256
7785,13.0,300.14578,18739.078,0.0,-0.038924803881530856,-0.038924270750155254,0.0,0.0,0.0,-1.3902352712555386,-2.189239919761158,-2.1167365048806284,0.005695377892390035,-0.00966416900175422,-0.3993670047019546
7786,13.0,300.26085,18728.715,0.0,-0.038929785380211857,-0.03892927296034221,0.0,0.0,0.0,-1.3810805566020388,-2.1878159993956277,-2.124165147988778,0.006860035827007824,-0.006700164415629743,-0.4025691080654776
7787,13.0,300.06077999999997,18717.115,0.0,-0.0389347998689501,-0.038934275170529276,0.0,0.0,0.0,-1.3901130732934788,-2.191146147174288,-2.108276271845668,0.0036110525224331367,-0.0007481404966032183,-0.4073546072277696
7788,13.0,300.15702999999996,18756.214,0.0,-0.03893978136763121,-0.03893927738071645,0.0,0.0,0.0,-1.3890859416671089,-2.1935068172572683,-2.118827954412038,0.0001006697188688277,0.01172468775663659,-0.4146332183936126
7789,13.0,299.98121000000003,18748.082,0.0,-0.03894479585636945,-0.03894427959090341,0.0,0.0,0.0,-1.3950587470315787,-2.194753520180308,-2.109136419855558,-0.006187216685005744,-0.0007705945849142643,-0.4115141914057886
7790,13.0,299.77706,18659.453,0.0,-0.03894977735505034,-0.038949281801090585,0.0,0.0,0.0,-1.3729408145737088,-2.1885670203697476,-2.1104998491901177,-0.01147949845768829,-0.00016314565814872284,-0.4158109696473476
7791,13.0,299.87149,18688.293,0.0,-0.038954791843788916,-0.03895428401127754,0.0,0.0,0.0,-1.3792626845976288,-2.190881486248168,-2.110630153152978,0.0017245381939736686,-0.006529278469039614,-0.40946503493355263
7792,13.0,299.96541,18740.363999999998,0.0,-0.03895980633252716,-0.03895928622146472,0.0,0.0,0.0,-1.3825182571689287,-2.1945505661852778,-2.119533885756708,0.004485382487347785,0.003098647488562697,-0.4122143776223916
7793,13.0,299.99559,18783.769,0.0,-0.03896478783120805,-0.03896425552237426,0.0,0.0,0.0,-1.3978057693776884,-2.195776801456298,-2.116214073129068,0.0014033825966030785,-0.0049629460046046354,-0.4083209539806406
7794,13.0,300.18101,18784.275,0.0,-0.03896980231994651,-0.03896925773256121,0.0,0.0,0.0,-1.3903088332127986,-2.1985813764080877,-2.121060245707348,-0.0007989227677650383,-0.004468429394624646,-0.41222951557888565
7795,13.0,300.04165,18755.483,0.0,-0.03897478381862751,-0.03897425994274839,0.0,0.0,0.0,-1.3979202666389887,-2.1913065446651183,-2.111971493635358,0.0024077687847282774,-6.749507466349524e-05,-0.40907206614726965
7796,13.0,300.32327000000004,18795.71,0.0,-0.038979798307365754,-0.038979262152935346,0.0,0.0,0.0,-1.3863065966428088,-2.198203636770808,-2.1289162777076776,0.0008734477077875773,0.0019119929075240084,-0.4072035417703606
7797,13.0,300.15693,18778.476000000002,0.0,-0.03898477980604664,-0.03898426436312252,0.0,0.0,0.0,-1.3930519038835185,-2.196074190360648,-2.119061711210108,0.0017728571528173784,-0.007905516500763732,-0.4072431801142726
7798,13.0,299.93679,18706.388,0.0,-0.03898979429478511,-0.0389892665733097,0.0,0.0,0.0,-1.3751708767187987,-2.1924736061302976,-2.118630370642538,0.0027711728582684673,-0.006757948852932624,-0.4095910528484896
7799,13.0,300.09884,18694.457,0.0,-0.038994775793466,-0.038994268783496655,0.0,0.0,0.0,-1.3854692467601686,-2.190591190094518,-2.1065876905540177,0.008613265616113133,0.003324216719199647,-0.41740672709733656
7800,13.0,299.99906,18705.965,0.0,-0.03899979028220435,-0.03899927099368383,0.0,0.0,0.0,-1.3801158411818288,-2.195931220771538,-2.110099007450558,0.005918350163020684,0.006500356258185213,-0.4196265148864126
7801,13.0,299.98162,18754.499,0.0,-0.039004804770942814,-0.0390042732038709,0.0,0.0,0.0,-1.3980243274242588,-2.1905512680405774,-2.112323598045108,-0.007748631846705423,-0.0018772068156908883,-0.41481441790899565
7802,13.0,300.06889,18796.688000000002,0.0,-0.0390097862696237,-0.039009275414058076,0.0,0.0,0.0,-1.3863386153459687,-2.199793020877668,-2.127592162476998,-0.009282493394460772,-0.0008277306941406593,-0.4096532157421246
7803,13.0,299.94697,18756.324,0.0,-0.03901480075836228,-0.03901427762424503,0.0,0.0,0.0,-1.3918762297924887,-2.1943101219365477,-2.1152676975356677,-0.008128657274886012,0.002032905460507148,-0.40656105001445164
7804,13.0,299.63257000000004,18789.127,0.0,-0.03901978225704317,-0.039019279834431986,0.0,0.0,0.0,-1.3900704154642687,-2.193038391736038,-2.128316433648478,0.0031178036909782674,0.004074061816578596,-0.4036986387469536
7805,13.0,299.99629,18860.046000000002,0.0,-0.03902479674578141,-0.03902428204461916,0.0,0.0,0.0,-1.4048938591272286,-2.204807088997518,-2.123282100526628,-0.00030287108388354873,-0.004338681604744536,-0.41023694912473463
7806,13.0,299.92471,18815.693,0.0,-0.0390297782444623,-0.03902928425480612,0.0,0.0,0.0,-1.3939630183734386,-2.198272639102618,-2.1272651866697276,0.002036585686195358,-0.004566932807071176,-0.4053737235472716
7807,13.0,300.08546,18782.106,0.0,-0.03903479273320076,-0.039034286464993295,0.0,0.0,0.0,-1.3973919580368486,-2.1987190770966776,-2.113180301004658,0.005332091051886415,0.007170728806495832,-0.4135292317471576
7808,13.0,300.08926,18777.471999999998,0.0,-0.03903977423188165,-0.039039255765902836,0.0,0.0,0.0,-1.3841786701077987,-2.201942833614838,-2.121761212126528,0.005421781316288155,0.008367871843294652,-0.4134485871716986
7809,13.0,299.98013,18789.168999999998,0.0,-0.039044788720620005,-0.03904425797608979,0.0,0.0,0.0,-1.3991580529611487,-2.198303036605618,-2.1139771208832983,0.0013863786387249188,0.004166186718320615,-0.41428054656380664
7810,13.0,300.01604,18795.798,0.0,-0.03904980320935847,-0.03904926018627697,0.0,0.0,0.0,-1.3871231748983988,-2.2050836049498077,-2.121246481075728,-0.0060336206354719936,-0.00015856321430647086,-0.4140673790077686
7811,13.0,300.19678,18777.82,0.0,-0.03905478470803936,-0.039054262396464146,0.0,0.0,0.0,-1.3939189419940887,-2.198801454329808,-2.115267900185688,-0.0035825861727987263,0.007867904353076702,-0.4149512674675016
7812,13.0,299.8954,18759.791,0.0,-0.03905979919677771,-0.0390592646066511,0.0,0.0,0.0,-1.3841091611509386,-2.1970108387530876,-2.121387930789688,-0.0052146284128437555,-0.0007819573539206823,-0.4135398708732076
7813,13.0,299.81342,18797.818,0.0,-0.0390647806954586,-0.03906426681683828,0.0,0.0,0.0,-1.3969647717946885,-2.201251999696658,-2.115850417668178,-0.00972619470132568,-0.0016940229513120483,-0.4142984405605726
7814,13.0,299.98983,18843.463,0.0,-0.039069795184197065,-0.039069269027025344,0.0,0.0,0.0,-1.3911923872999987,-2.2022056706907778,-2.1345441727381083,-0.00013978336337554386,-0.0019331429834863582,-0.4115896177432326
7815,13.0,299.74449,18804.689,0.0,-0.039074776682877954,-0.03907427123721252,0.0,0.0,0.0,-1.3992693078221285,-2.195787541907358,-2.121098951861168,-0.004552157188812935,0.009108724346036101,-0.4038380112982086
7816,13.0,299.90853,18795.362,0.0,-0.03907979117161642,-0.0390792734473997,0.0,0.0,0.0,-1.3864225124542486,-2.2014033792615977,-2.125494836095008,0.008693216115253633,0.0008609099942302011,-0.4146073703835616
7817,13.0,299.87313,18801.09,0.0,-0.03908480566035477,-0.03908427565758665,0.0,0.0,0.0,-1.3966362761122686,-2.196246138902618,-2.1221793804427977,1.5400478449158884e-05,-0.006168675829375904,-0.4071961653096326
7818,13.0,300.03846,18824.854,0.0,-0.03908978715903566,-0.03908927786777361,0.0,0.0,0.0,-1.3922932835336486,-2.207435865056958,-2.122556512130018,0.00873467141924495,-0.005135708490379965,-0.4182691346549496
7819,13.0,300.2528,18820.282,0.0,-0.039094801647774124,-0.039094280077960786,0.0,0.0,0.0,-1.3959329792178587,-2.201024626374218,-2.1239381799663777,0.0001005052268343436,-0.0007624642357143614,-0.4104257480158676
7820,13.0,300.38024,18802.272,0.0,-0.039099783146455014,-0.03909928228814774,0.0,0.0,0.0,-1.3901854193506187,-2.205241773290418,-2.119993901302108,0.0013885244997866987,-0.0018455015107868185,-0.4178017325163206
7821,13.0,300.20269,18810.843999999997,0.0,-0.03910479763519337,-0.03910428449833492,0.0,0.0,0.0,-1.3982334622448986,-2.206323823072208,-2.113469482583198,-0.0036621482931758972,-0.00042351472029014854,-0.41189303548567757
7822,13.0,300.215,18849.433,0.0,-0.039109779133874256,-0.03910925379924446,0.0,0.0,0.0,-1.3947926675553186,-2.2062882579936978,-2.128675934783958,0.0033333410363501474,-0.006447816606049954,-0.4132138981835366
7823,13.0,300.07944,18906.691000000003,0.0,-0.03911479362261272,-0.039114256009431414,0.0,0.0,0.0,-1.4010583021986884,-2.2139143835463377,-2.132189379505708,0.0029480295837228674,0.004952872170785425,-0.4071868535412136
7824,13.0,300.18816,18916.15,0.0,-0.03911977512129361,-0.03911925821961859,0.0,0.0,0.0,-1.3974368450162786,-2.212098639367138,-2.140501982001098,-0.0028623266611146475,-0.004725780633198235,-0.4071713305496816
7825,13.0,300.06185,18848.894,0.0,-0.03912478961003196,-0.03912426042980566,0.0,0.0,0.0,-1.393157180568909,-2.204570292449148,-2.131865646098758,-0.005878895622676824,-0.004340283857127666,-0.4038115452055966
7826,13.0,299.99831,18795.338,0.0,-0.03912980409877043,-0.039129262639992723,0.0,0.0,0.0,-1.3856564953786488,-2.203612771104648,-2.1240441659268376,-0.0073595461387806526,-0.005152237841911284,-0.4149769634900376
7827,13.0,299.80453,18846.413,0.0,-0.039134785597451316,-0.03913426485017979,0.0,0.0,0.0,-1.4018344517752885,-2.202654236510048,-2.124350066132028,0.0025874606852874875,0.006474402464823774,-0.4109054003482056
7828,13.0,299.99846,18877.78,0.0,-0.03913980008618967,-0.03913926706036697,0.0,0.0,0.0,-1.3930846318617487,-2.2125176182834876,-2.132771289038138,0.005391158669115935,0.001136789098567349,-0.4211540603396697
7829,13.0,299.92967000000004,18844.279,0.0,-0.03914478158487067,-0.039144269270554144,0.0,0.0,0.0,-1.3956130961612885,-2.208866067573108,-2.123711110618968,0.0013922856841578986,-0.0026664494074330673,-0.4186896233139486
7830,13.0,299.86342,18779.168,0.0,-0.03914979607360902,-0.0391492714807411,0.0,0.0,0.0,-1.3784926145216287,-2.202412475036188,-2.127492965292208,0.005879068685793905,-0.005889493205472724,-0.42108977975332557
7831,13.0,299.79236000000003,18777.61,0.0,-0.03915477757228991,-0.039154273690928276,0.0,0.0,0.0,-1.3849019280291786,-2.201085826680258,-2.1219366057188376,0.00012282078663146788,0.004023610472899436,-0.4106873185291826
7832,13.0,299.91432000000003,18869.256,0.0,-0.039159792061028376,-0.03915927590111523,0.0,0.0,0.0,-1.3969016463134587,-2.207044750518358,-2.131836059195838,0.0007067287218361943,-0.003332501355992277,-0.41110357180276363
7833,13.0,299.78542000000004,18943.045,0.0,-0.039164773559709265,-0.03916427811130241,0.0,0.0,0.0,-1.4128941779417987,-2.208944797105878,-2.1363737984436777,-0.011020937939431888,-5.952678772433654e-06,-0.4041577018372596
7834,13.0,299.95552000000004,18897.62,0.0,-0.03916978804844762,-0.039169280321489364,0.0,0.0,0.0,-1.3988923787849288,-2.210781414237138,-2.134730914731538,-0.0027752643621722674,0.00012016639560949989,-0.41404748890830556
7835,13.0,299.83666,18854.655,0.0,-0.03917480253718608,-0.03917428253167643,0.0,0.0,0.0,-1.4013803130804685,-2.2025698327767183,-2.127394274732468,-0.002023857339764168,0.009622450354061911,-0.4115404244508776
7836,13.0,299.88121,18927.848,0.0,-0.03917978403586697,-0.03917925183258608,0.0,0.0,0.0,-1.3987778815236287,-2.2169191767178877,-2.1378959027438977,-0.00042554220334274553,-0.0002466958802569877,-0.41563215126969966
7837,13.0,300.16911,18968.631999999998,0.0,-0.039184798524605324,-0.03918425404277304,0.0,0.0,0.0,-1.4101809981490288,-2.216976729323568,-2.138832652461348,0.0009519050410507131,-0.0020469961216977883,-0.4168751456973736
7838,13.0,299.98285,18852.413,0.0,-0.039189780023286214,-0.039189256252960214,0.0,0.0,0.0,-1.3927854191072186,-2.2099507518051578,-2.127926535009998,0.0029069948798480572,-0.0028280205458538978,-0.41731791572607163
7839,13.0,300.02292,18761.839,0.0,-0.03919479451202468,-0.03919425846314728,0.0,0.0,0.0,-1.3840121931163685,-2.203875405530568,-2.115242872908218,0.007465848131946843,0.01068264007554449,-0.4191520909245906
7840,13.0,300.12644,18828.558,0.0,-0.03919977601070557,-0.039199260673334235,0.0,0.0,0.0,-1.3851855367321686,-2.2073459897730876,-2.1308799564014778,0.0038722706273633563,-0.0004552422964314166,-0.41423004617882264
7841,13.0,299.88561,18921.796000000002,0.0,-0.03920479049944392,-0.03920426288352141,0.0,0.0,0.0,-1.4042854024421787,-2.210834305892358,-2.136633697094328,-0.003261289733664237,0.0008546558295779634,-0.4114068679551966
7842,13.0,299.83447,18954.766,0.0,-0.039209804988182384,-0.03920926509370859,0.0,0.0,0.0,-1.3994071098357288,-2.217392465839598,-2.144975886492638,-0.0034956590414196866,-0.0007833052096012052,-0.4112713356218206
7843,13.0,299.90547999999995,18914.868000000002,0.0,-0.03921478648686327,-0.039214267303895545,0.0,0.0,0.0,-1.4047013416082288,-2.2083825446253877,-2.1365636815124183,-0.0026314649212303676,0.0007306671607487344,-0.40820276848897663
7844,13.0,299.88937999999996,18910.316000000003,0.0,-0.039219800975601515,-0.03921926951408272,0.0,0.0,0.0,-1.4024304454841088,-2.2133228481379583,-2.1325106811124184,-0.003136024764876547,-0.004171773171421956,-0.4104145819997656
7845,13.0,299.85801000000004,18969.29,0.0,-0.03922478247428263,-0.03922427172426968,0.0,0.0,0.0,-1.4116741234963885,-2.215937337370988,-2.1385791372863276,-0.002692421439296307,-0.001943272748711088,-0.4155498044340726
7846,13.0,299.92017000000004,18986.466,0.0,-0.03922979696302098,-0.039229273934456854,0.0,0.0,0.0,-1.4110665787364287,-2.222714055364798,-2.137630836517738,0.005407975074400584,0.0028897441955705472,-0.42009215396986754
7847,13.0,299.8677,18886.045,0.0,-0.03923477846170187,-0.03923427614464403,0.0,0.0,0.0,-1.4024607416620987,-2.2107597306849978,-2.127665623109248,0.002129255716491178,0.01049193323447319,-0.4179469008581476
7848,13.0,300.05427000000003,18782.924,0.0,-0.03923979295044033,-0.039239278354830986,0.0,0.0,0.0,-1.384069543072029,-2.2017527478960774,-2.123717696744618,0.0049093230867874645,-0.0014062157452076887,-0.4214702754308776
7849,13.0,300.04692,18850.796000000002,0.0,-0.03924477444912122,-0.03924428056501805,0.0,0.0,0.0,-1.4008649740796089,-2.203985849791468,-2.125320557077808,-0.001999102727896078,-0.005664844005926575,-0.4134041358898116
7850,13.0,299.99464,18965.625,0.0,-0.039249788937859575,-0.03924928277520501,0.0,0.0,0.0,-1.4059973898111386,-2.2115468233626774,-2.1475322151699276,0.002186643365054898,-0.004854145438016855,-0.4131329901630516
7851,13.0,299.78193,18950.247,0.0,-0.03925480342659804,-0.03925425207611466,0.0,0.0,0.0,-1.4048738981002589,-2.214762575205048,-2.140765325702088,0.004194008539566416,-0.0005600618641713025,-0.4079580077948206
7852,13.0,300.01863,18929.661,0.0,-0.03925978492527893,-0.03925925428630184,0.0,0.0,0.0,-1.3997041947650486,-2.214087851963458,-2.1403521223113082,-0.0038437267640962962,-0.001965419356146788,-0.41489208352916057
7853,13.0,299.73289,19001.536,0.0,-0.03926479941401717,-0.0392642564964889,0.0,0.0,0.0,-1.4156575136145186,-2.2148394808876377,-2.145495379818908,-0.003111597736765787,0.0023203318872239277,-0.4054199378843326
7854,13.0,299.7955,19047.121,0.0,-0.03926978091269817,-0.03926925870667586,0.0,0.0,0.0,-1.4123218942853186,-2.230035293962348,-2.147491887815948,-0.001810547422087118,0.0022674916037839976,-0.4178267192637866
7855,13.0,299.88929,19006.667,0.0,-0.039274795401436635,-0.039274260916863035,0.0,0.0,0.0,-1.4173586592074088,-2.217475653672808,-2.142717858644788,0.002014288003169748,0.004345479398340425,-0.4100871400974496
7856,13.0,299.8924,18919.229,0.0,-0.039279776900117525,-0.03927926312704999,0.0,0.0,0.0,-1.4012363302412587,-2.2138047498855182,-2.1359320214000777,-0.003994804076531466,-0.0022464951365368077,-0.42093622170067063
7857,13.0,299.99511,18858.941000000003,0.0,-0.039284791388855766,-0.03928426533723717,0.0,0.0,0.0,-1.3949171959926088,-2.2121172831689777,-2.125612879731658,-0.0040357076658433366,-0.005966314383004385,-0.4181282928910496
7858,13.0,300.24093,18900.623,0.0,-0.03928977288753688,-0.03928926754742412,0.0,0.0,0.0,-1.3960441327538287,-2.215416121519548,-2.133857087845298,-0.0024048828457934575,-0.0005799437968384965,-0.42564889857827554
7859,13.0,300.01001,18962.517,0.0,-0.03929478737627523,-0.0392942697576113,0.0,0.0,0.0,-1.4008242414255887,-2.219643400936748,-2.143664132913178,-0.00040120300375065364,0.004775956271525186,-0.4186820948657056
7860,13.0,300.05136,18965.468999999997,0.0,-0.03929980186501347,-0.03929927196779848,0.0,0.0,0.0,-1.3992682945720287,-2.219812107078398,-2.1459487079136483,-0.002126390447858398,0.0014772136730896387,-0.4203711827824056
7861,13.0,300.06514,18928.414,0.0,-0.039304783363694584,-0.03930427417798543,0.0,0.0,0.0,-1.3955214983522488,-2.2145652954105777,-2.1436785210645977,-0.001156051894893439,0.001189045243324629,-0.4130077727156936
7862,13.0,299.81561,18956.428,0.0,-0.03930979785243305,-0.03930927638817261,0.0,0.0,0.0,-1.3944743043738985,-2.225692909333788,-2.142113556285148,0.0012933055375393188,0.0029259110433149374,-0.4142299752513156
7863,13.0,299.89224,19051.965,0.0,-0.03931477935111383,-0.039314278598359675,0.0,0.0,0.0,-1.4108403199890986,-2.223547048272008,-2.156934365497848,0.003829273460694866,0.0032933489668282366,-0.4088399609468626
7864,13.0,299.80054,19069.537,0.0,-0.03931979383985229,-0.03931928080854685,0.0,0.0,0.0,-1.4178972016355587,-2.2262673208154777,-2.152498559210068,-0.004076081730652946,-0.0007507703669727664,-0.4145379526192106
7865,13.0,299.73264,18975.553,0.0,-0.03932477533853318,-0.03932425010945628,0.0,0.0,0.0,-1.4084909983072385,-2.218772005850748,-2.140831186958588,-0.005007518268553575,-0.003664083499541887,-0.42001666683741756
7866,13.0,299.89907,18931.166,0.0,-0.03932978982727142,-0.03932925231964335,0.0,0.0,0.0,-1.4044658622849886,-2.2113529886185477,-2.138782901881438,-0.005008603560735686,0.004064199650705276,-0.41809116740738556
7867,13.0,300.14737,18949.403000000002,0.0,-0.03933480431601,-0.039334254529830526,0.0,0.0,0.0,-1.4035789644724588,-2.218149059689268,-2.138417321245358,0.0015986714559515884,0.0026463986065042074,-0.41584445756315264
7868,13.0,299.92444,18984.851000000002,0.0,-0.039339785814690886,-0.03933925674001748,0.0,0.0,0.0,-1.4032427680892787,-2.2198839465104876,-2.147793836345748,0.0004966110485991945,-0.005114103667772735,-0.4173596413651896
7869,13.0,300.11036,19021.05,0.0,-0.03934480030342913,-0.03934425895020466,0.0,0.0,0.0,-1.4087256670303987,-2.224256424667018,-2.1489421526840777,0.0038972715603307565,-0.008917720116060452,-0.41262994188590457
7870,13.0,300.07066000000003,18972.97,0.0,-0.03934978180211002,-0.03934926116039161,0.0,0.0,0.0,-1.4027583332164686,-2.2249597215614276,-2.1395911714862077,0.0060306971049584645,-0.005460373175496875,-0.42414486052733863
7871,13.0,300.03702000000004,18997.178,0.0,-0.03935479629084859,-0.03935426337057857,0.0,0.0,0.0,-1.4061908192552288,-2.2230917950020777,-2.1453850368830185,0.003056699846347787,-0.0057668042224142645,-0.41322453730958664
7872,13.0,299.92742000000004,19095.522,0.0,-0.03935977778952948,-0.039359265580765745,0.0,0.0,0.0,-1.4209111140580089,-2.2321520747462578,-2.1514986840113877,-0.001189639109208239,0.001999494551709748,-0.4204510167577846
7873,13.0,299.86655,19079.963,0.0,-0.039364792278267724,-0.03936426779095292,0.0,0.0,0.0,-1.4166139203839088,-2.232076486288798,-2.1511419186511778,-0.0019150085424716281,0.00048155784034355854,-0.4111379311136546
7874,13.0,299.70394,18965.561,0.0,-0.039369773776948835,-0.03936927000113988,0.0,0.0,0.0,-1.3959549667450288,-2.219204258343408,-2.1498976475283778,0.00044767264943935053,0.00929365505358734,-0.41878982361633754
7875,13.0,300.01861,18922.696,0.0,-0.0393747882656873,-0.039374272211327055,0.0,0.0,0.0,-1.3980441871262186,-2.2207420680201775,-2.133240930459488,-0.0016926869810551983,-0.002309006689531218,-0.4159548004990426
7876,13.0,299.94811,18969.927,0.0,-0.03937980275442565,-0.03937927442151412,0.0,0.0,0.0,-1.4032965716695887,-2.2183508991091876,-2.144736759469038,-0.002521314300209348,-0.001120932646427439,-0.42077863091261763
7877,13.0,300.05037000000004,18983.558,0.0,-0.03938478425310654,-0.0393842766317013,0.0,0.0,0.0,-1.4072949578891987,-2.2204629176176276,-2.142769635724898,0.0016835123053747286,-0.005086438900292435,-0.4301217999522166
7878,13.0,300.03758999999997,18984.321,0.0,-0.039389798741845006,-0.039389278841888475,0.0,0.0,0.0,-1.4063224404432186,-2.228344382195468,-2.136092722865938,0.0011355507042951289,0.0024803346158149674,-0.4214891016177356
7879,13.0,300.24981,18998.525,0.0,-0.03939478024052567,-0.039394248142797794,0.0,0.0,0.0,-1.4057126665330384,-2.221566549626548,-2.1477980919961683,0.005568169307260525,-0.0012193837751688088,-0.42387912555611257
7880,13.0,300.13055,19063.842,0.0,-0.03939979472926425,-0.03939925035298497,0.0,0.0,0.0,-1.4078200240910186,-2.2337791517568375,-2.153332768017398,5.871678039564505e-05,-0.0015270006286782288,-0.4109957315946206
7881,13.0,300.23854,19131.172,0.0,-0.03940477622794514,-0.03940425256317215,0.0,0.0,0.0,-1.4181158610071387,-2.2377787538765683,-2.159503866426438,0.008053680111211341,-0.004650456228714296,-0.4170674301688507
7882,13.0,299.96386,19087.521,0.0,-0.03940979071668338,-0.039409254773359104,0.0,0.0,0.0,-1.4215754008235686,-2.225350734775018,-2.1552037343270483,0.0004583457497652036,0.0008056765356440832,-0.4058883330080596
7883,13.0,300.10748,19008.014,0.0,-0.03941477221536427,-0.03941425698354628,0.0,0.0,0.0,-1.4048219183701287,-2.231750017106578,-2.1413896904137077,0.005236499416252254,-0.004391216291954305,-0.4202894540293396
7884,13.0,300.02238,18978.769,0.0,-0.039419786704102844,-0.039419259193733236,0.0,0.0,0.0,-1.4100492756360288,-2.215475497975408,-2.143546899876608,-0.003475168388622416,0.0033402280972798467,-0.4134569971475286
7885,13.0,299.9723,19047.253,0.0,-0.039424801192841086,-0.03942426140392041,0.0,0.0,0.0,-1.4075584029151986,-2.233948972473598,-2.148381926703788,0.003050795131390037,0.00884096530641034,-0.42283255979282464
7886,13.0,299.98602,19071.221999999998,0.0,-0.039429782691521975,-0.03942926361410737,0.0,0.0,0.0,-1.4124690181998385,-2.231090087316448,-2.153616376720388,-0.0034652773451212464,0.012943291227903386,-0.41978066062412556
7887,13.0,299.92659,19013.208,0.0,-0.03943479718026044,-0.039434265824294434,0.0,0.0,0.0,-1.4043427523978387,-2.224661015431948,-2.150536603041438,-0.003660646251227656,0.0016790452909838684,-0.41808838096961065
7888,13.0,300.05971,19013.125,0.0,-0.03943977867894155,-0.03943926803448161,0.0,0.0,0.0,-1.401064077724259,-2.233210211825688,-2.145241054043808,-0.0057799845797150634,0.0006413358199299173,-0.42270329947756763
7889,13.0,300.16331,19085.634,0.0,-0.039444793167679904,-0.03944427024466857,0.0,0.0,0.0,-1.4158621901347186,-2.233991731627818,-2.151702347281488,0.0015552517639913985,-0.010859745047273389,-0.41861049861363964
7890,13.0,300.1443,19106.213,0.0,-0.03944977466636079,-0.039449272454855744,0.0,0.0,0.0,-1.4179933590700486,-2.232460913376738,-2.1573572960895877,-0.00033078812024124566,0.00045082964290842157,-0.41939493657605764
7891,13.0,300.0063,19097.683999999997,0.0,-0.03945478915509926,-0.03945427466504292,0.0,0.0,0.0,-1.4125184648047187,-2.242219829064868,-2.1504807729609277,0.002714514445801717,-0.004623328990412045,-0.41969597318076757
7892,13.0,300.10778,19054.938000000002,0.0,-0.0394598036438375,-0.039459276875229876,0.0,0.0,0.0,-1.4095718321889088,-2.2272486535373277,-2.155404763146888,-0.002144761989396528,0.005143034187277955,-0.41619225565997764
7893,13.0,300.23,18993.977,0.0,-0.0394647851425185,-0.03946424617613942,0.0,0.0,0.0,-1.3998197052764487,-2.229784615887608,-2.144090407230248,0.005076546134266095,0.005449831625431505,-0.4191177924087056
7894,13.0,300.11651,19028.784,0.0,-0.03946979963125696,-0.039469248386326594,0.0,0.0,0.0,-1.4043809519266086,-2.229758068734988,-2.150136065276908,0.0011700914882790388,0.006242146391476884,-0.4158273336364626
7895,13.0,299.96918,19068.872,0.0,-0.03947478112993763,-0.03947425059651355,0.0,0.0,0.0,-1.4109501562999385,-2.2294037351750178,-2.1561068441411777,0.003323941115172447,-0.004604810122309375,-0.4225238326198556
7896,13.0,299.96654,19068.387,0.0,-0.039479795618676095,-0.039479252806700726,0.0,0.0,0.0,-1.4184082849859987,-2.2307843897612774,-2.147120936954338,-0.004185449413321696,-0.002245418558305558,-0.41931029979520457
7897,13.0,299.96299,19073.131,0.0,-0.039484777117356984,-0.03948425501688768,0.0,0.0,0.0,-1.4099079272470787,-2.2335031424295977,-2.154344599567258,0.002325943772902778,-0.004453803433406176,-0.42600950415636457
7898,13.0,300.03982,19120.551,0.0,-0.03948979160609534,-0.03948925722707486,0.0,0.0,0.0,-1.4228151123209185,-2.232395052120238,-2.156959899400368,-0.006618584103703394,0.008569765168119973,-0.40838676457463563
7899,13.0,300.03189,19154.327,0.0,-0.039494773104776226,-0.039494259437261814,0.0,0.0,0.0,-1.4150408496036588,-2.241061481550548,-2.1663348946256082,-0.007960917773831414,-0.0010399194505820591,-0.4166953242021266
7900,13.0,299.84207000000004,19129.981,0.0,-0.03949978759351469,-0.03949926164744899,0.0,0.0,0.0,-1.4220311607185485,-2.231341069366218,-2.1616643182896578,-0.005103186809870325,0.002684264573341287,-0.40119377304224263
7901,13.0,299.97163,19124.157,0.0,-0.03950480208225304,-0.03950426385763606,0.0,0.0,0.0,-1.4140021669261487,-2.2437985740456776,-2.155465355502868,0.000942024616410591,0.0013389178013908985,-0.41761952988333856
7902,13.0,299.98347,19083.567,0.0,-0.039509783580934155,-0.03950926606782301,0.0,0.0,0.0,-1.4168170770289588,-2.232469019377538,-2.151641856250518,0.007711118896203182,0.004076545697873736,-0.40652927449131565
7903,13.0,299.8387,19058.811999999998,0.0,-0.0395147980696724,-0.03951426827801019,0.0,0.0,0.0,-1.4059374054052185,-2.2359497361210576,-2.151515706613068,0.003729183805216786,-0.011558962596780789,-0.42713269189221453
7904,13.0,299.84967,19100.438000000002,0.0,-0.03951977956835351,-0.03951927048819737,0.0,0.0,0.0,-1.4160398128772487,-2.236743212274368,-2.153273188911518,0.001989971216669868,-0.0006675376771808393,-0.4191069303676336
7905,13.0,300.18735,19076.513,0.0,-0.03952479405709175,-0.03952427269838432,0.0,0.0,0.0,-1.4052153633839588,-2.234951482122538,-2.158616664638878,0.002706387268074628,0.001892023875878218,-0.43050484902002056
7906,13.0,300.20632,19019.982,0.0,-0.03952977555577264,-0.0395292749085715,0.0,0.0,0.0,-1.4009524175632386,-2.231801490211658,-2.148845691274558,0.001210848460301439,0.01206014649374379,-0.42049621784474556
7907,13.0,300.0663,19068.709,0.0,-0.039534790044511214,-0.039534277118758454,0.0,0.0,0.0,-1.4098921205455186,-2.233976228901288,-2.152543040889458,-0.0067209171962278845,-0.003579052260424957,-0.42590234282578865
7908,13.0,299.95602,19160.816000000003,0.0,-0.03953977154319188,-0.039539246419667995,0.0,0.0,0.0,-1.4252133739826087,-2.2394421052407276,-2.1597540378761275,-0.008186493185293972,-0.003141981662214447,-0.4200670051023856
7909,13.0,299.9795,19147.125,0.0,-0.039544786031930346,-0.03954424862985517,0.0,0.0,0.0,-1.4194227509861186,-2.2409288471124578,-2.1598962981901684,0.0007032399700193814,-0.002144462168691938,-0.4235923352478086
7910,13.0,300.0645,19113.421000000002,0.0,-0.03954980052066892,-0.03954925084004213,0.0,0.0,0.0,-1.4211558139571587,-2.2341302429164878,-2.154716563678968,0.0033420092896306367,-6.648387031544713e-05,-0.4122325451966846
7911,13.0,299.88041,19097.55,0.0,-0.03955478201934959,-0.039554253050229304,0.0,0.0,0.0,-1.4082955423629486,-2.237069276156548,-2.159813616982008,0.002867311344981597,-0.006555008334128953,-0.41688192434054255
7912,13.0,299.73319,19138.533,0.0,-0.03955979650808805,-0.03955925526041648,0.0,0.0,0.0,-1.4223340211734385,-2.235712128972608,-2.1595898913599276,-0.00030095040752399266,-0.0012976975714227789,-0.4119648141227616
7913,13.0,299.97145,19175.633,0.0,-0.03956477800676894,-0.03956425747060344,0.0,0.0,0.0,-1.4165080357484587,-2.2437554095914183,-2.168650272429118,0.005511754581442825,0.002044583370559668,-0.4200790019835696
7914,13.0,299.92967999999996,19133.194,0.0,-0.039569792495507294,-0.039569259680790614,0.0,0.0,0.0,-1.4204979106672286,-2.2394025884868274,-2.156112720991758,0.004313153072450066,0.0026034831077937776,-0.4138753985113216
7915,13.0,300.02154,19076.982,0.0,-0.039574773994188406,-0.03957426189097768,0.0,0.0,0.0,-1.4036518171546486,-2.237082549732858,-2.1581919101969578,0.005683303598898395,-0.005651361598770965,-0.4272694502582116
7916,13.0,300.04859,19104.165,0.0,-0.03957978848292665,-0.039579264101164635,0.0,0.0,0.0,-1.4211498357815686,-2.234454178973458,-2.151585012919908,-4.361551267451596e-05,-0.005609753294014545,-0.4177973248783856
7917,13.0,299.99428,19195.996,0.0,-0.039584802971665,-0.03958426631135181,0.0,0.0,0.0,-1.4187804517477287,-2.248773834686698,-2.167549274870458,-0.00019532625840970084,0.004820455378816905,-0.4298825817361076
7918,13.0,299.9349,19179.896,0.0,-0.039589784470346,-0.03958926852153877,0.0,0.0,0.0,-1.4329381900949887,-2.2364579823712183,-2.1608132895306684,-0.003095704503647247,0.01001031884464155,-0.4137745902588726
7919,13.0,300.24202,19124.752,0.0,-0.039594798959084354,-0.039594270731725945,0.0,0.0,0.0,-1.4095853084152385,-2.246838425670688,-2.157023328856628,-0.0067695214862997545,0.0024795312098106776,-0.42868496064791156
7920,13.0,300.03147,19142.893,0.0,-0.039599780457765466,-0.0395992729419129,0.0,0.0,0.0,-1.4210427352459987,-2.239049774802008,-2.1588689639137777,-0.003143915956655347,-0.0030527937672122866,-0.41654376225216866
7921,13.0,300.18025,19204.387,0.0,-0.03960479494650371,-0.03960427515210008,0.0,0.0,0.0,-1.421833171649009,-2.248191925154268,-2.1676291189783377,-0.0027240138681392375,-0.0013976070710330784,-0.42473196803278157
7922,13.0,300.44551,19194.6,0.0,-0.0396097764451846,-0.03960924445300962,0.0,0.0,0.0,-1.4254387208048487,-2.2489012002242683,-2.160338987158858,0.002434358797827508,-0.003794145092977966,-0.4197373543148516
7923,13.0,300.15029,19101.462,0.0,-0.03961479093392317,-0.03961424666319657,0.0,0.0,0.0,-1.4009455274625588,-2.2420903357020876,-2.163331722654218,-0.0007719679846298084,-0.0036070116810343372,-0.4268019569270736
7924,13.0,300.15712,19087.872,0.0,-0.03961977243260384,-0.03961924887338375,0.0,0.0,0.0,-1.4104127284468988,-2.2375455037035477,-2.154278231685708,0.0028950626440204376,9.2477979885116e-05,-0.4246185346840866
7925,13.0,300.09292,19147.1,0.0,-0.0396247869213423,-0.03962425108357093,0.0,0.0,0.0,-1.4091287379201787,-2.244208839011168,-2.1669025173316276,0.0010012782156959658,0.00936737507786294,-0.4239749992805746
7926,13.0,300.2112,19233.125,0.0,-0.03962980141008077,-0.03962925329375788,0.0,0.0,0.0,-1.4284467563767185,-2.2467853313654476,-2.171157762451588,0.0028823592235417074,0.003795235755385606,-0.4180977839305386
7927,13.0,300.12411000000003,19234.8,0.0,-0.039634782908761546,-0.03963425550394506,0.0,0.0,0.0,-1.4254193677279385,-2.2471191972733977,-2.174360139392638,-0.005114396598376645,-0.0037284943898487468,-0.4188322180005216
7928,13.0,300.1185,19188.271,0.0,-0.03963979739750001,-0.039639257714132126,0.0,0.0,0.0,-1.4259650029067885,-2.2407449422193078,-2.166045206422018,-7.051698770873484e-05,-0.006032519739238344,-0.41388843904010864
7929,13.0,300.05432,19209.019,0.0,-0.0396447788961809,-0.0396442599243193,0.0,0.0,0.0,-1.4239340444063486,-2.247343834820568,-2.167784247568648,-0.006622360486826093,7.758021635382122e-05,-0.42292276944922763
7930,13.0,300.14037,19306.221,0.0,-0.03964979338491925,-0.03964926213450626,0.0,0.0,0.0,-1.4480410881355286,-2.246972985283968,-2.173595135567138,-0.0017260209841700085,-0.0007552624491711002,-0.41332775709727365
7931,13.0,299.90963,19245.04,0.0,-0.03965477488360025,-0.03965426434469321,0.0,0.0,0.0,-1.4250021113367588,-2.249707139353808,-2.175302259335618,-0.010270282748597991,3.5693619417685965e-05,-0.4258840536614836
7932,13.0,299.814,19138.707,0.0,-0.039659789372338605,-0.03965926655488039,0.0,0.0,0.0,-1.4181018781557588,-2.243608387001908,-2.155978769328538,0.003356893426974587,0.002330490732726528,-0.42228734004651564
7933,13.0,299.80573,19124.862,0.0,-0.03966477087101972,-0.039664268765067345,0.0,0.0,0.0,-1.4045516845684587,-2.2414960645184374,-2.167432953758978,0.0046751108327975155,0.004454994610223736,-0.42917043916832465
7934,13.0,299.92232,19182.039,0.0,-0.03966978535975796,-0.03966927097525452,0.0,0.0,0.0,-1.4195651126251687,-2.2436371633047476,-2.1676587058812578,0.008831544309630561,-0.006177200302467204,-0.41612903898623854
7935,13.0,300.08097000000004,19199.189,0.0,-0.03967479984849642,-0.0396742731854417,0.0,0.0,0.0,-1.4083099305143687,-2.254257138927858,-2.173507084133448,-0.0018021632841346686,-0.01033450051343579,-0.4289483752764086
7936,13.0,300.16862000000003,19200.629,0.0,-0.03967978134717731,-0.03967924248635102,0.0,0.0,0.0,-1.4246572010027185,-2.2461996728076477,-2.1656550038085083,0.004120048375017117,-0.004351260598110986,-0.4157682712881336
7937,13.0,300.1782,19215.304,0.0,-0.039684795835915665,-0.039684244696538196,0.0,0.0,0.0,-1.4158999843634485,-2.256759866674858,-2.168312758820808,-0.0013463086502703188,0.006511672741927063,-0.4275494112608416
7938,13.0,299.85058,19241.088,0.0,-0.039689777334596554,-0.03968924690672537,0.0,0.0,0.0,-1.4341220715118288,-2.2507451127562477,-2.1639431177645583,0.002112266045439428,0.0023058202206167376,-0.41593595404718264
7939,13.0,299.99441,19276.78,0.0,-0.03969479182333502,-0.03969424911691244,0.0,0.0,0.0,-1.4244574894080089,-2.254379134239898,-2.1808231551554877,-0.006913307045715283,0.0032133094030039468,-0.42176554664251864
7940,13.0,299.79983,19257.432,0.0,-0.0396997733220158,-0.039699251327099505,0.0,0.0,0.0,-1.4284897181809588,-2.253953467872888,-2.171335385194118,0.002334031129900938,-0.002231887312495128,-0.4207467034019666
7941,13.0,299.79762999999997,19176.831000000002,0.0,-0.03970478781075426,-0.03970425353728657,0.0,0.0,0.0,-1.4122757914057686,-2.244595799224358,-2.172406086574788,-0.002233946743323378,0.006352393575232433,-0.4258441214750426
7942,13.0,299.98569,19197.44,0.0,-0.039709802299492725,-0.03970925574747375,0.0,0.0,0.0,-1.4297058209509785,-2.2484556741552977,-2.157381006141928,0.005126803744526135,-0.0036392891682698767,-0.4297510416081256
7943,13.0,300.13721,19272.742,0.0,-0.0397147837981735,-0.039714257957660926,0.0,0.0,0.0,-1.4301611755459185,-2.2533205918604278,-2.174950458900898,-0.005238813780805665,-0.001899782129243898,-0.4230370133980026
7944,13.0,299.89214,19262.09,0.0,-0.03971979828691197,-0.03971926016784788,0.0,0.0,0.0,-1.4343343474077788,-2.2513492124658683,-2.1695109270640582,0.0011198584999964289,-0.0012495781215237588,-0.4238609985118236
7945,13.0,300.25007999999997,19231.671000000002,0.0,-0.039724779785592856,-0.03972426237803506,0.0,0.0,0.0,-1.4171392905607587,-2.252689134398108,-2.176119242891248,-0.002123965943019118,0.005398831708148205,-0.4150125994960546
7946,13.0,299.92239,19248.788,0.0,-0.0397297942743311,-0.03972926458822201,0.0,0.0,0.0,-1.4246909422310485,-2.252337029988358,-2.1741229375442277,0.007228835558655523,-0.004095108338380725,-0.41701809502148157
7947,13.0,300.25055,19299.497,0.0,-0.03973477577301221,-0.03973426679840897,0.0,0.0,0.0,-1.4249233818039886,-2.2568978713384777,-2.184743825092428,-0.00027792132004619873,-0.0033725668861464366,-0.4137869519100926
7948,13.0,300.27584,19309.241,0.0,-0.039739790261750674,-0.039739269008596145,0.0,0.0,0.0,-1.4350221415756588,-2.260356499229818,-2.1741485727717578,0.0057398336325774745,-0.0017823772454569381,-0.4271832834697076
7949,13.0,300.46121,19276.238999999998,0.0,-0.03974477176043156,-0.03974427121878321,0.0,0.0,0.0,-1.4297449324048386,-2.251562602936928,-2.178187792970398,-0.0013010472749283688,0.006681934019830544,-0.42058742048624664
7950,13.0,300.16953,19234.277,0.0,-0.039749786249169916,-0.03974927342897039,0.0,0.0,0.0,-1.4341071767353586,-2.250168269474318,-2.1624645832186378,-0.004771285188564185,0.0012142877351158687,-0.4309378817152576
7951,13.0,300.35438,19221.145,0.0,-0.03975480073790838,-0.03975424272987982,0.0,0.0,0.0,-1.4137277787990685,-2.248668558001308,-2.180351689883958,-0.007781894820988222,0.005777790183973495,-0.4260569546585476
7952,13.0,300.03078999999997,19253.822,0.0,-0.03975978223658927,-0.039759244940066885,0.0,0.0,0.0,-1.4244485728071286,-2.252804442259488,-2.175428104998038,-0.005165601192180146,0.004341618408834376,-0.4263785298427846
7953,13.0,300.16272999999995,19312.678,0.0,-0.03976479672532762,-0.03976424715025406,0.0,0.0,0.0,-1.4192965000236588,-2.262486857565068,-2.188788516841608,-0.003838251261880906,0.007640161700975252,-0.4223823322433906
7954,13.0,299.75678999999997,19262.159,0.0,-0.03976977822400851,-0.03976924936044102,0.0,0.0,0.0,-1.4328527731115588,-2.253117131240348,-2.169245556862868,0.0007579410974004623,-0.008600025274406412,-0.4247975455792536
7955,13.0,299.95026,19253.012,0.0,-0.039774792712746976,-0.039774251570628194,0.0,0.0,0.0,-1.4212332262647986,-2.256309274355388,-2.1748926023201878,0.0015652030958735184,-0.007330318838321143,-0.4179466678106246
7956,13.0,299.89601,19290.534,0.0,-0.03977977421142764,-0.03977925378081537,0.0,0.0,0.0,-1.4380209565716187,-2.2557132806465683,-2.170106515472838,0.0076124441431647425,-0.007360842592283603,-0.4231150539207046
7957,13.0,300.03252000000003,19320.045,0.0,-0.03978478870016622,-0.039784255991002326,0.0,0.0,0.0,-1.4260540675905786,-2.258057941377968,-2.1886992495077977,0.005406219618602335,0.004930749273402065,-0.4157391910102636
7958,13.0,299.94265,19296.205,0.0,-0.03978977019884711,-0.039789258201189504,0.0,0.0,0.0,-1.4303227889368686,-2.2627334826394083,-2.1725083235098777,0.0036537114662182468,-0.0017031842520911983,-0.4261424527019856
7959,13.0,300.03559,19291.519,0.0,-0.03979478468758535,-0.03979426041137646,0.0,0.0,0.0,-1.4246072477727885,-2.2542071856979278,-2.185325633299848,-0.0012983446329366388,0.003994320857558777,-0.4188545905627296
7960,13.0,300.02891,19295.571,0.0,-0.039799799176323924,-0.039799262621563636,0.0,0.0,0.0,-1.4382581584200287,-2.257054722453958,-2.170058791393128,0.0009382605544091072,0.003857908820445956,-0.43084452085104363
7961,13.0,300.11579,19333.94,0.0,-0.039804780675004925,-0.03980426483175059,0.0,0.0,0.0,-1.4382501537442385,-2.2601874891131377,-2.1785973486608183,-0.0035177699824518664,0.002371491999348038,-0.42289844131432663
7962,13.0,300.01731,19326.231,0.0,-0.03980979516374328,-0.03980926704193766,0.0,0.0,0.0,-1.4424424760329886,-2.2547728832287577,-2.177476086100158,-0.0024032529316825976,-0.004370885530022816,-0.4285217564543046
7963,13.0,300.11467999999996,19276.318,0.0,-0.03981477666242417,-0.039814269252124834,0.0,0.0,0.0,-1.4177082304919086,-2.257315735679718,-2.184495376167908,-0.006468787640719635,-0.0016201014929165685,-0.4186145921440436
7964,13.0,300.03578999999996,19255.377,0.0,-0.03981979115116263,-0.03981927146231179,0.0,0.0,0.0,-1.4204784562653088,-2.257476741120608,-2.175198705175398,0.007209659293887972,0.00035994999514179864,-0.4263193763019466
7965,13.0,300.1962,19324.155,0.0,-0.03982477264984352,-0.03982424076322144,0.0,0.0,0.0,-1.4250919866206286,-2.263367067926938,-2.1856016426270877,0.0014573531605295586,0.004615830027746955,-0.4155518106692706
7966,13.0,300.14936,19393.968,0.0,-0.039829787138581874,-0.03982924297340851,0.0,0.0,0.0,-1.4449442918548987,-2.2737250170741876,-2.176612898339968,0.0038230049889512157,-0.007343963872117803,-0.4245012205875086
7967,13.0,299.97893999999997,19313.424,0.0,-0.03983480162732034,-0.03983424518359546,0.0,0.0,0.0,-1.4293504741409087,-2.261780216945328,-2.1796679487164776,0.00012723188988180987,-0.00921342023646878,-0.4253459165333736
7968,13.0,299.93507999999997,19294.15,0.0,-0.03983978312600123,-0.03983924739378264,0.0,0.0,0.0,-1.4324977302765187,-2.2650504816430774,-2.167391714479908,0.0014920552539293887,-0.0015339095758100884,-0.42996697533693656
7969,13.0,300.07885,19308.497,0.0,-0.03984479761473958,-0.03984424960396982,0.0,0.0,0.0,-1.4175745828037185,-2.262952243335998,-2.1887739260401684,0.0035335289599321565,0.005599175368270585,-0.43103482948482563
7970,13.0,299.9381,19301.958,0.0,-0.03984977911342047,-0.03984925181415677,0.0,0.0,0.0,-1.4271139271951787,-2.260481230317128,-2.1797181045964273,-0.002875963588910507,0.004822505994369285,-0.42848464110314155
7971,13.0,300.06654,19297.854,0.0,-0.03985479360215893,-0.03985425402434395,0.0,0.0,0.0,-1.4216539277063187,-2.264580738896718,-2.179831183307588,-0.005722298630321905,0.006235703032765974,-0.4280869303063906
7972,13.0,299.93906,19275.457,0.0,-0.0398597751008396,-0.039859256234530904,0.0,0.0,0.0,-1.4355977689574686,-2.248929368577048,-2.174730380979178,-0.0031568736015841667,0.007136020126970353,-0.42121135963282463
7973,13.0,299.86708,19277.681,0.0,-0.039864789589578065,-0.03986425844471808,0.0,0.0,0.0,-1.4286725084989986,-2.256827146481498,-2.174434106649938,-0.0044954476072161355,0.005326279049312814,-0.42406197666915857
7974,13.0,299.64382,19346.835,0.0,-0.039869771088259176,-0.03986926065490526,0.0,0.0,0.0,-1.4365113152476288,-2.263108283851398,-2.181335150431018,-0.003172301246281757,-0.007247041028502263,-0.42440118240513564
7975,13.0,300.03222999999997,19436.706000000002,0.0,-0.03987478557699753,-0.039874262865092214,0.0,0.0,0.0,-1.4341448696390788,-2.272653809068468,-2.201474509418618,-0.0010477502526548988,-0.008344209109734322,-0.41966107684732357
7976,13.0,299.97348999999997,19376.718999999997,0.0,-0.03987980006573577,-0.03987926507527939,0.0,0.0,0.0,-1.4366879247400588,-2.269805563037368,-2.183545352874148,0.0017993235494044083,0.0018309361419243282,-0.4215803549217416
7977,13.0,299.91164,19325.768,0.0,-0.03988478156441688,-0.03988426728546646,0.0,0.0,0.0,-1.4243296172453885,-2.260107037055198,-2.190114253272448,0.006375556472518433,0.004437749498821776,-0.4159306142191556
7978,13.0,299.99843,19355.289,0.0,-0.039889796053155235,-0.03988926949565341,0.0,0.0,0.0,-1.4431681657546087,-2.264105524599818,-2.176250864079238,0.0027311764317711276,-0.0009285799325562041,-0.42716229906013664
7979,13.0,300.16982,19322.09,0.0,-0.039894777551836125,-0.039894238796563064,0.0,0.0,0.0,-1.4293918147449887,-2.260364402580598,-2.1836766700871078,0.0036460674061388368,-0.002035557338668868,-0.42186927305525557
7980,13.0,300.11262999999997,19332.372,0.0,-0.03989979204057459,-0.03989924100675013,0.0,0.0,0.0,-1.4315730382352587,-2.263194916734948,-2.181790403700948,0.0038805330739787964,0.0013278359863722088,-0.4339222578972926
7981,13.0,300.09941000000003,19372.28,0.0,-0.03990477353925548,-0.039904243216937085,0.0,0.0,0.0,-1.4248717060488885,-2.269314846013938,-2.194502842105568,0.0026583879896374674,0.0010649045768478989,-0.42795574481594356
7982,13.0,299.9618,19331.878,0.0,-0.03990978802799383,-0.03990924542712426,0.0,0.0,0.0,-1.4331434745652485,-2.260526927896638,-2.1827377925444478,-0.004721076619608985,-0.005334429633117215,-0.43106731428303163
7983,13.0,299.99439,19351.941000000003,0.0,-0.03991476952667472,-0.03991424763731122,0.0,0.0,0.0,-1.4271992428535987,-2.264886132476858,-2.190421470702768,-0.00035767902809017164,-0.005650627600398524,-0.4261835197285386
7984,13.0,300.00627000000003,19416.566000000003,0.0,-0.039919784015413184,-0.039919249847498395,0.0,0.0,0.0,-1.4532332856229586,-2.2675360854633877,-2.181381962585638,-0.0060336393805988445,0.005766660746200105,-0.4229210266590556
7985,13.0,299.9994,19398.217,0.0,-0.039924798504151426,-0.03992425205768535,0.0,0.0,0.0,-1.4369975739706187,-2.2658717208491277,-2.193704299701758,-0.0008974160578430691,0.0015419648127800785,-0.4246224964919776
7986,13.0,299.79514,19354.518,0.0,-0.039929780002832316,-0.03992925426787253,0.0,0.0,0.0,-1.434520582776159,-2.271648563644258,-2.177120941940108,-0.005369674727245635,-0.0033164710301352074,-0.42271593470631463
7987,13.0,299.80904,19392.144,0.0,-0.03993479449157089,-0.039934256478059704,0.0,0.0,0.0,-1.4238096172940686,-2.272255399129148,-2.198662639066108,0.007603729787004702,-0.0048163101726578054,-0.42881158651290857
7988,13.0,299.97583,19416.808999999997,0.0,-0.03993977599025178,-0.03993925868824666,0.0,0.0,0.0,-1.4414470591347486,-2.271741681328448,-2.189036560466088,0.003286110308113837,0.004261993466951006,-0.4254878728723836
7989,13.0,300.19299,19369.265,0.0,-0.03994479047899002,-0.03994426089843384,0.0,0.0,0.0,-1.4269925398331986,-2.273365515938708,-2.187414955006048,0.007957179894212511,-0.0004222923353695086,-0.42607452441528154
7990,13.0,300.05602999999996,19321.836,0.0,-0.039949771977671134,-0.0399492631086209,0.0,0.0,0.0,-1.4419570279100786,-2.258302134652068,-2.173096312542908,0.0005844494971181744,-0.00026554118714437476,-0.4274326341868166
7991,13.0,299.99993,19348.752,0.0,-0.039954786466409487,-0.03995426531880808,0.0,0.0,0.0,-1.4254025477762786,-2.265071253270128,-2.191063567291138,0.005961750501903964,0.00023719911263472978,-0.4267570395501406
7992,13.0,300.0012,19361.246,0.0,-0.03995980095514773,-0.039959267528995035,0.0,0.0,0.0,-1.4324931706510686,-2.2704045964964874,-2.1824375665398184,0.0001234364171272259,0.007026710807507363,-0.43461752985091057
7993,13.0,299.9065,19427.485,0.0,-0.03996478245382884,-0.039964236829904576,0.0,0.0,0.0,-1.4330098268770586,-2.269252936432828,-2.203207673714668,0.002843827348738907,0.0010078618386182192,-0.4264843536832286
7994,13.0,299.85894,19480.683,0.0,-0.03996979694256708,-0.03996923904009175,0.0,0.0,0.0,-1.4532585155504487,-2.279405601109818,-2.1889771840102275,-0.006655332860980213,-0.002087206039991198,-0.43471830770585657
7995,13.0,299.74962999999997,19397.721,0.0,-0.03997477844124797,-0.03997424125027893,0.0,0.0,0.0,-1.4387320554917986,-2.269983185779898,-2.187707581634928,0.0018085943825193681,-0.004630379691232896,-0.4208150775187146
7996,13.0,299.69697,19362.759,0.0,-0.039979792929986546,-0.039979243460465885,0.0,0.0,0.0,-1.4412839258686485,-2.2701955630008577,-2.174315860363268,-3.317546696441367e-05,0.008639899502941691,-0.4269460512237946
7997,13.0,299.70709,19456.495,0.0,-0.039984774428667436,-0.03998424567065284,0.0,0.0,0.0,-1.4346105593850385,-2.2773949076113778,-2.202283082998418,0.0026476344676511776,0.0019238031480395882,-0.4203542209757316
7998,13.0,300.03026,19447.14,0.0,-0.03998978891740568,-0.039989247880839796,0.0,0.0,0.0,-1.4327204426484987,-2.277911766487388,-2.2008125531282876,-0.0005497418207102935,-0.0023915667129792576,-0.42215943748639256
7999,13.0,299.77887999999996,19342.997,0.0,-0.03999477041608657,-0.03999425009102697,0.0,0.0,0.0,-1.4178160403025486,-2.2727851262814274,-2.1891869267809274,-0.0002325117366121218,-0.005953374368627305,-0.4341202773643356
8000,13.0,299.89695,19391.109,0.0,-0.03999978490482514,-0.03999925230121415,0.0,0.0,0.0,-1.4380342301479285,-2.271129576943038,-2.185249234242308,0.005583774777350665,0.003942759802370095,-0.4284783082900166
8001,13.0,299.88257999999996,19440.671000000002,0.0,-0.040004799393563384,-0.040004254511401216,0.0,0.0,0.0,-1.4451004336953086,-2.276112740934838,-2.188265477139988,0.0026784913782465177,-0.00015042300618309487,-0.43014670563967455
8002,13.0,299.99736,19433.566000000003,0.0,-0.04000978089224427,-0.04000925672158828,0.0,0.0,0.0,-1.4500542134342087,-2.272420761545468,-2.184843630227278,-0.0016229057638933284,0.006809493797444713,-0.4222486845552006
8003,13.0,300.06776,19455.308999999997,0.0,-0.04001479538098274,-0.04001425893177535,0.0,0.0,0.0,-1.4339830535981088,-2.2771481812120276,-2.2027969021241276,-0.0025818864925123575,0.0028622724522342972,-0.4331371207923056
8004,13.0,299.93863999999996,19441.856,0.0,-0.04001977687966363,-0.040019261141962525,0.0,0.0,0.0,-1.4323531394872486,-2.277389638710858,-2.200095982657568,-0.0024091063761852876,0.008562787218656302,-0.4200899248196476
8005,13.0,299.85202999999996,19429.074,0.0,-0.04002479136840198,-0.0400242633521497,0.0,0.0,0.0,-1.4291492426710486,-2.275838555457778,-2.200965452568378,-0.0015926953068617887,-0.006180357387128785,-0.43316217846727856
8006,13.0,300.01837,19499.165,0.0,-0.04002977286708309,-0.04002926556233666,0.0,0.0,0.0,-1.4579048752090087,-2.274632585188758,-2.1947219067771875,-0.002118060822761328,-0.009031870136551181,-0.42641088291847756
8007,13.0,299.9538,19466.238999999998,0.0,-0.04003478735582133,-0.040034267772523835,0.0,0.0,0.0,-1.4538958498633485,-2.2742098572470377,-2.189144876901778,0.004259311089961276,-0.009420497146155681,-0.43367256267514964
8008,13.0,299.95344,19382.376,0.0,-0.04003976885450222,-0.040039237073433376,0.0,0.0,0.0,-1.4402320709398384,-2.265125360825468,-2.1864009956309776,0.004106679451872706,0.0024452490072522878,-0.4215214141634246
8009,13.0,299.86834,19391.631,0.0,-0.0400447833432408,-0.04004423928362033,0.0,0.0,0.0,-1.4215119713673088,-2.2743253677584376,-2.198734478498198,0.0027108698865170276,-0.00031749239428405967,-0.4300043440006246
8010,13.0,299.60854,19492.77,0.0,-0.04004979783197904,-0.04004924149380751,0.0,0.0,0.0,-1.4328256180088788,-2.280239809917148,-2.212250120257088,-0.0029836779513910876,0.005502981051476944,-0.41503944049120356
8011,13.0,299.97332,19520.476000000002,0.0,-0.04005477933065993,-0.04005424370399446,0.0,0.0,0.0,-1.4406388908549885,-2.283607346624498,-2.209491040234788,0.0023223550436985976,0.0069071140611040825,-0.4306650539933316
8012,13.0,299.95817,19468.566000000003,0.0,-0.04005979381939839,-0.04005924591418142,0.0,0.0,0.0,-1.4425679163953686,-2.2824268089329878,-2.192963107253608,0.0002189062195693618,0.006776698843383103,-0.42617702479539754
8013,13.0,299.92739,19474.58,0.0,-0.04006477531807939,-0.040064248124368596,0.0,0.0,0.0,-1.4502393342274786,-2.277943481215518,-2.191603224294398,0.002065341318733318,-0.004817609057960996,-0.4329627708475986
8014,13.0,300.05944,19529.941000000003,0.0,-0.040069789806817635,-0.04006925033455566,0.0,0.0,0.0,-1.4560225604982384,-2.281334727975208,-2.1992569102497583,-0.0037945150305894767,-0.003457655373894017,-0.42287817631232655
8015,13.0,299.93351,19477.42,0.0,-0.040074771305498524,-0.04007425254474284,0.0,0.0,0.0,-1.4345817830821985,-2.280432530086168,-2.205634914329218,0.0001104369351017769,-0.006111586785616655,-0.43350961179406755
8016,13.0,299.99877999999995,19447.759,0.0,-0.04007978579423699,-0.040079254754929794,0.0,0.0,0.0,-1.4349524299687786,-2.270702086725848,-2.2059785074381275,-0.0069327964047637336,0.0015550041256669584,-0.4274819389366826
8017,13.0,299.88968,19424.231,0.0,-0.04008480028297534,-0.04008425696511697,0.0,0.0,0.0,-1.4311401777925385,-2.2785216417225778,-2.194819482761818,-0.005352741291574434,0.00012474493843886688,-0.42975824581633665
8018,13.0,299.80467999999996,19410.693,0.0,-0.04008978178165623,-0.04008925917530415,0.0,0.0,0.0,-1.4451487657250786,-2.2716806836724275,-2.183536436273268,-0.001238294264435129,-0.0005029647650737576,-0.4310700804558046
8019,13.0,299.96258,19495.927,0.0,-0.040094796270394695,-0.0400942613854911,0.0,0.0,0.0,-1.4490565673857487,-2.284322802520108,-2.1928954221469277,0.0019890474365536984,0.0030159632406523973,-0.4354280184733996
8020,13.0,299.93579,19521.896,0.0,-0.040099777769075584,-0.04009926359567828,0.0,0.0,0.0,-1.4526631297916885,-2.2839425297575775,-2.1975632627076083,0.0015314854762708485,-0.0017017091625956182,-0.4257991838331076
8021,13.0,299.66565,19492.288,0.0,-0.04010479225781416,-0.040104265805865236,0.0,0.0,0.0,-1.4259577075060685,-2.285495234210818,-2.2137158878517478,0.0031323382570377168,-0.006072136703573234,-0.42664616972419855
8022,13.0,299.91566,19516.375,0.0,-0.04010977375649505,-0.04010923510677478,0.0,0.0,0.0,-1.4423627332501185,-2.283064852520958,-2.2070631916701777,-0.0026296777507039872,0.003227848326038827,-0.4202054758610516
8023,13.0,299.83037,19546.464,0.0,-0.04011478824523329,-0.040114237316961954,0.0,0.0,0.0,-1.4467316650312985,-2.284250456462968,-2.210654757974638,0.003534252521828567,0.006810579900226904,-0.4259575244262346
8024,13.0,300.04253,19522.105,0.0,-0.04011976974391418,-0.04011923952714891,0.0,0.0,0.0,-1.4579964730180486,-2.276967518719198,-2.199268663950918,-0.004171852002279736,0.005008724644122635,-0.42223641409648965
8025,13.0,300.16772000000003,19494.66,0.0,-0.040124784232652644,-0.040124241737336086,0.0,0.0,0.0,-1.4492190927017885,-2.280393519957318,-2.196277144355678,-0.001787298398542618,-0.0013409403499155088,-0.43305996179719064
8026,13.0,300.13566000000003,19500.796000000002,0.0,-0.040129798721391,-0.04012924394752326,0.0,0.0,0.0,-1.4496892407481885,-2.2786534655605877,-2.199412342815098,-0.003859473886550416,-0.0036424284197296964,-0.4276702818652706
8027,13.0,300.09266,19501.3,0.0,-0.040134780220071886,-0.04013424615771022,0.0,0.0,0.0,-1.4351680495900587,-2.2853164968931776,-2.2074237060557578,0.00034741691213737965,-0.0014085203825601389,-0.4383197633312925
8028,13.0,300.16725,19485.086,0.0,-0.04013979470881035,-0.040139248367897284,0.0,0.0,0.0,-1.4358905982363686,-2.284019638090188,-2.2030694664010277,-0.0028100739614077075,0.0003190910597618357,-0.4289913674781516
8029,13.0,300.01217,19489.72,0.0,-0.04014477620749124,-0.04014425057808424,0.0,0.0,0.0,-1.4421456950786986,-2.2837097862096076,-2.198532841728298,0.003310550508475897,0.0007701430401397003,-0.4336489032853146
8030,13.0,299.88057000000003,19516.493000000002,0.0,-0.04014979069622959,-0.04014925278827142,0.0,0.0,0.0,-1.4522037221963486,-2.2845537222178978,-2.195768999430528,0.0017506596802266583,0.0018041926214349487,-0.4284428344040156
8031,13.0,299.81345,19512.841,0.0,-0.04015477219491048,-0.040154254998458594,0.0,0.0,0.0,-1.4494392719485185,-2.2882843064360774,-2.1936928499756276,0.0025861860166616875,-0.0023398523530504477,-0.43495509412172556
8032,13.0,299.86043,19550.69,0.0,-0.040159786683648946,-0.04015925720864555,0.0,0.0,0.0,-1.4473488356672088,-2.2873459355184678,-2.208226808085018,-0.00037469405065942366,-0.005707195124331306,-0.4255260420036506
8033,13.0,299.8101,19589.561,0.0,-0.040164768182329835,-0.040164259418832726,0.0,0.0,0.0,-1.4406957341855986,-2.290489543953718,-2.223552114522508,-0.0025173219934903376,-0.0059859061816379434,-0.42634359297933655
8034,13.0,299.88705,19557.654,0.0,-0.0401697826710683,-0.04016926162901968,0.0,0.0,0.0,-1.4402567942422788,-2.289617642242668,-2.215164024894668,-0.002114283831688568,-0.003156011021774037,-0.4270181844984136
8035,13.0,299.97076,19520.766,0.0,-0.04017479715980665,-0.04017426383920686,0.0,0.0,0.0,-1.4453819145730886,-2.282728554812768,-2.2057149610871183,-0.004732398777551395,0.0033051944684472966,-0.4332067817366806
8036,13.0,300.19074,19556.491,0.0,-0.04017977865848754,-0.0401792331401164,0.0,0.0,0.0,-1.4566644544365885,-2.2851929817059875,-2.202827603602158,0.0022760705897306777,0.004925645329998345,-0.43007093479719655
8037,13.0,300.08459,19515.127,0.0,-0.040184793147226006,-0.040184235350303354,0.0,0.0,0.0,-1.4491114855411686,-2.2826748525574683,-2.2003247745301477,-0.006437297854111833,0.002466871156436228,-0.4367319092320836
8038,13.0,300.19982000000005,19532.483,0.0,-0.040189774645906895,-0.04018923756049053,0.0,0.0,0.0,-1.4444703947831286,-2.286725725132258,-2.206190884659088,0.0012816500203140086,-0.004176164597355356,-0.4341297816502736
8039,13.0,299.97044,19596.764,0.0,-0.04019478913464525,-0.04019423977067771,0.0,0.0,0.0,-1.4493380482635287,-2.296650307211738,-2.2109385693276478,-0.001318957990321019,-0.003281514408310257,-0.43837504625674856
8040,13.0,300.10111,19579.275,0.0,-0.04019977063332614,-0.040199241980864664,0.0,0.0,0.0,-1.4475052814826486,-2.287668655675318,-2.216436667020268,0.007359205484097033,-0.005281399162633515,-0.4205871671737216
8041,13.0,299.9939,19553.131999999998,0.0,-0.0402047851220646,-0.04020424419105184,0.0,0.0,0.0,-1.4483723195932185,-2.2903393802888976,-2.204952287736848,0.0008444150222747742,-0.004988070047459186,-0.42815950941105363
8042,13.0,299.867,19609.398,0.0,-0.040209799610802954,-0.04020924640123891,0.0,0.0,0.0,-1.4577781176214986,-2.291006504154738,-2.211982723555698,0.008185870441782513,-0.0003207155023221557,-0.41843121414094564
8043,13.0,299.91922,19609.462,0.0,-0.040214781109483844,-0.04021424861142586,0.0,0.0,0.0,-1.4538823736370186,-2.2927889124056477,-2.2141157163412077,-0.0027634890787851378,7.600814767792013e-05,-0.43117977491163056
8044,13.0,299.84882999999996,19557.705,0.0,-0.04021979559822231,-0.04021925082161304,0.0,0.0,0.0,-1.4397388207911588,-2.290925545471748,-2.2143894965182276,0.004285285350974736,-0.001201126832216989,-0.4268428415686086
8045,13.0,299.9972,19554.677,0.0,-0.0402247770969032,-0.040224253031799995,0.0,0.0,0.0,-1.4417954145191287,-2.2851909552057874,-2.217147157990388,-0.006279673730130545,0.0038054288487415866,-0.4309658778155206
8046,13.0,300.0429,19580.646,0.0,-0.04022979158564155,-0.04022925524198717,0.0,0.0,0.0,-1.4500789367366487,-2.286825023642058,-2.215123393565658,0.0016811821341197587,0.003201033979367457,-0.4291256940439086
8047,13.0,300.01293,19531.273,0.0,-0.04023477308432255,-0.04023425745217413,0.0,0.0,0.0,-1.4452709636871386,-2.2914771588261877,-2.2002710722748478,-0.004414716094898556,0.004324932104862566,-0.44092084726549957
8048,13.0,300.05557999999996,19522.064,0.0,-0.0402397875730609,-0.040239259662361304,0.0,0.0,0.0,-1.4549739479697485,-2.2817128729125273,-2.197533169179638,-0.0017543178170626884,0.0024998099920120376,-0.4355492842453676
8049,13.0,300.15165,19631.617,0.0,-0.04024476907174179,-0.04024426187254848,0.0,0.0,0.0,-1.4564321161886589,-2.298619153481048,-2.212470096853798,0.00034083397822519466,0.0007011666880622643,-0.43335319637613057
8050,13.0,300.13334,19642.485,0.0,-0.04024978356048026,-0.040249264082735436,0.0,0.0,0.0,-1.4546667305394287,-2.3028706495756377,-2.213287485709468,-0.0007659976110655783,5.388747640502985e-06,-0.4332394793174075
8051,13.0,300.16194,19599.623,0.0,-0.04025479804921861,-0.04025423338364498,0.0,0.0,0.0,-1.4456322886727986,-2.2986376959578774,-2.213526207433028,0.003204131991548207,0.006373489543639444,-0.43098617321502364
8052,13.0,300.16979,19641.042,0.0,-0.0402597795478995,-0.040259235593832154,0.0,0.0,0.0,-1.4585836514509987,-2.297797002349908,-2.214005677380348,0.0002860726029931677,-0.005049594289556154,-0.4254255478587326
8053,13.0,300.05702,19629.417,0.0,-0.04026479403663796,-0.04026423780401911,0.0,0.0,0.0,-1.4579902921924386,-2.294531297277608,-2.214330930662448,-0.001120246068159679,0.0019142110133179185,-0.41957372455620257
8054,13.0,299.9962,19622.742,0.0,-0.04026977553531885,-0.04026924001420629,0.0,0.0,0.0,-1.4607415701889686,-2.2971352487095977,-2.2069466679086776,0.00017093793645276087,-0.007373152567748504,-0.42488928524330755
8055,13.0,300.0646,19671.53,0.0,-0.040274790024057205,-0.04027424222439335,0.0,0.0,0.0,-1.4509747511500588,-2.303641428926708,-2.225037843144138,-6.545879862653044e-05,0.004764526303772135,-0.42935519519155857
8056,13.0,300.00085,19609.023,0.0,-0.040279771522738095,-0.04027924443458053,0.0,0.0,0.0,-1.4500667777354486,-2.2915167769050977,-2.2190700027051578,-0.0005044775880030615,-0.00018433984088792583,-0.43100062216144963
8057,13.0,299.80484,19565.92,0.0,-0.04028478601147656,-0.04028424664476771,0.0,0.0,0.0,-1.4405654302227386,-2.294800213854148,-2.212185576225718,-0.0024012911781639877,0.004417095611433396,-0.4349315056593976
8058,13.0,299.89779,19622.107,0.0,-0.04028976751015745,-0.04028924885495466,0.0,0.0,0.0,-1.4626753580048186,-2.2887144311035277,-2.2132406735548478,-0.0010591266194776591,0.0013881144374712287,-0.43527972932126463
8059,13.0,299.8466,19640.144,0.0,-0.0402947819988958,-0.04029425106514162,0.0,0.0,0.0,-1.4589624043383786,-2.3017605327660773,-2.209390525824868,-0.003596090770131527,0.00013691024205448885,-0.43839262614598357
8060,13.0,300.01653,19573.127,0.0,-0.040299796487634265,-0.04029925327532857,0.0,0.0,0.0,-1.4572611574204788,-2.2930000737264877,-2.199480737196848,0.0025309660140368975,-0.002902485511603017,-0.4332596531268986
8061,13.0,300.15083,19615.217,0.0,-0.040304777986315155,-0.04030425548551575,0.0,0.0,0.0,-1.4405097014672386,-2.2985580545000177,-2.223468521389258,-0.0025029295864199175,0.0017295229791656284,-0.42895658260221853
8062,13.0,299.96646,19657.907,0.0,-0.040309792475053396,-0.04030925769570293,0.0,0.0,0.0,-1.4523094041817786,-2.3067601114094978,-2.216443151820908,0.004379446986742766,0.0018313387061890582,-0.43152934619613054
8063,13.0,300.08644,19619.183999999997,0.0,-0.04031477397373451,-0.04031425990588999,0.0,0.0,0.0,-1.4388026790237687,-2.303222044710318,-2.2217173212414276,-0.007554285309949913,0.0026936200128395973,-0.43487517908633855
8064,13.0,300.00177,19599.498,0.0,-0.04031978846247286,-0.04031926211607706,0.0,0.0,0.0,-1.4500691082106787,-2.3008338142246183,-2.206855171424648,0.004699893613018386,-0.003739662533775957,-0.43213132821304157
8065,13.0,299.92861,19620.373,0.0,-0.04032476996115375,-0.0403242314169866,0.0,0.0,0.0,-1.4584403778868589,-2.2944973533992576,-2.211165740000068,-0.0023042654896632975,-0.003635730127293627,-0.4285235600394826
8066,13.0,299.90578999999997,19626.374,0.0,-0.040329784449892214,-0.040329233627173666,0.0,0.0,0.0,-1.4601530745308886,-2.2944971507492378,-2.2112772988360776,0.002281096918176738,-0.007542553393667062,-0.43113846470505357
8067,13.0,299.78531,19625.423,0.0,-0.04033479893863068,-0.04033423583736084,0.0,0.0,0.0,-1.4467628731343787,-2.3031486854030776,-2.215726986650228,-0.0015067353227031987,-0.004275024876487106,-0.4413905697468576
8068,13.0,299.57203,19649.509,0.0,-0.04033978043731146,-0.0403392380475478,0.0,0.0,0.0,-1.4543542442085884,-2.295757836523658,-2.222848108353028,-0.0003239647623453327,-0.0025102028982877376,-0.43169228694471157
8069,13.0,299.86281,19654.738999999998,0.0,-0.04034479492604992,-0.040344240257734976,0.0,0.0,0.0,-1.4544157484896587,-2.2992924581724976,-2.220841670505008,-0.003052106378344447,0.0002402279400986518,-0.4368025226315526
8070,13.0,299.93408,19655.291,0.0,-0.04034977642473081,-0.04034924246792215,0.0,0.0,0.0,-1.4654518659288385,-2.2992577036940682,-2.210008101760818,0.0028449865068533075,-0.0010623080221416389,-0.43530130141589357
8071,13.0,300.05672000000004,19682.645,0.0,-0.04035479091346905,-0.04035424467810911,0.0,0.0,0.0,-1.4697470331027385,-2.296897844211168,-2.2163877270404377,-0.0014191581913850088,0.002138062075760298,-0.4359891462462786
8072,13.0,300.04098,19651.506999999998,0.0,-0.04035977241215005,-0.040359246888296285,0.0,0.0,0.0,-1.4535320930774487,-2.3041306260749876,-2.215904609392758,0.003825114170359376,-0.007348326521748362,-0.4307988739340386
8073,13.0,299.85142,19578.173,0.0,-0.040364786900888516,-0.04036424909848324,0.0,0.0,0.0,-1.4334237395429088,-2.296806145077118,-2.221045840400158,-0.002837395135779097,0.0004872188078572525,-0.4287339715552486
8074,13.0,300.0268,19659.392,0.0,-0.040369768399569406,-0.040369251308670195,0.0,0.0,0.0,-1.4482577210069087,-2.3038171264940477,-2.223889425480798,0.005170468136385475,0.0016987902930325482,-0.42947077663046557
8075,13.0,299.9135,19712.235,0.0,-0.04037478288830765,-0.04037425351885737,0.0,0.0,0.0,-1.4553960679614089,-2.3102384976777874,-2.226392761177858,0.0007245627443287753,0.00028523200057770673,-0.4355228789477616
8076,13.0,299.94782999999995,19656.192,0.0,-0.04037979737704622,-0.04037925572904444,0.0,0.0,0.0,-1.4612436356135186,-2.300312193073138,-2.213435622874088,-0.0018218796112055183,-0.0028160058314681377,-0.4311923189478686
8077,13.0,299.90328,19681.139,0.0,-0.04038477887572711,-0.040384257939231616,0.0,0.0,0.0,-1.4621571819036787,-2.307617320994098,-2.2128001124113683,-0.0002669320451591418,-0.002244742315188818,-0.43519760540065955
8078,13.0,299.9264,19724.665,0.0,-0.040389793364465354,-0.04038926014941857,0.0,0.0,0.0,-1.4683066980855886,-2.3030916394224477,-2.2244071962818976,0.005058957632405245,0.001255011776510019,-0.4313828910266766
8079,13.0,299.83227999999997,19689.962,0.0,-0.040394774863146465,-0.04039422945032811,0.0,0.0,0.0,-1.4530426932791487,-2.305113681322008,-2.227100516372708,-0.0036536548255376566,0.002098952445750478,-0.4395191576071636
8080,13.0,299.9919,19697.45,0.0,-0.04039978935188493,-0.04039923166051529,0.0,0.0,0.0,-1.4519813137993987,-2.308976190703208,-2.226575551495898,-0.003611524595654726,-0.004169459313493595,-0.43437537320951164
8081,13.0,299.88694,19684.069,0.0,-0.04040477085056571,-0.040404233870702244,0.0,0.0,0.0,-1.4525092171014986,-2.3001037675275677,-2.230852480167998,-0.006495264372457683,0.0017306404927009183,-0.4336966982925316
8082,13.0,300.0567,19687.197,0.0,-0.04040978533930417,-0.04040923608088942,0.0,0.0,0.0,-1.4670111565077286,-2.3072391760567776,-2.210165966126398,-0.001335566983310199,0.007535146130136024,-0.4321790522927516
8083,13.0,300.08414,19699.275,0.0,-0.04041476683798506,-0.0404142382910766,0.0,0.0,0.0,-1.4657622244344686,-2.3052469237101576,-2.217078459633608,0.0030357658966317673,0.004878046285350685,-0.4352863255794156
8084,13.0,299.93384,19739.961,0.0,-0.0404197813267233,-0.040419240501263554,0.0,0.0,0.0,-1.4654889508824986,-2.308805052761318,-2.2261613348550178,-0.0012976086080639987,9.722338676745121e-05,-0.4292470206108826
8085,13.0,300.02581000000004,19707.613,0.0,-0.04042479581546188,-0.04042424271145073,0.0,0.0,0.0,-1.4462484460586087,-2.310770656630308,-2.233603150214468,0.0005453308694474665,0.0006405936750266734,-0.4272633403601086
8086,13.0,300.03215,19679.956000000002,0.0,-0.04042977731414277,-0.040429244921637686,0.0,0.0,0.0,-1.4518191937833986,-2.302672761831108,-2.2277234625341875,0.003115243511950597,0.0014842067199797985,-0.43351398903449956
8087,13.0,299.77006,19764.724,0.0,-0.04043479180288101,-0.04043424713182486,0.0,0.0,0.0,-1.4638364412944087,-2.3120799784095274,-2.2320660498127682,-2.6130338005863572e-05,-0.0007076343749080754,-0.4298500361428956
8088,13.0,299.97212,19788.447,0.0,-0.0404397733015619,-0.04043924934201204,0.0,0.0,0.0,-1.4870388553343086,-2.3068722781955677,-2.221282535623518,0.0007803398622560483,-0.006604026942166713,-0.43401055251100656
8089,13.0,299.857,19745.218,0.0,-0.040444787790300474,-0.040444251552198995,0.0,0.0,0.0,-1.4633079300422487,-2.308908404271518,-2.229836899592768,-0.0005461776324235354,-0.0004237334809867386,-0.43103607578244857
8090,13.0,300.00796,19743.201,0.0,-0.04044976928898136,-0.04044925376238606,0.0,0.0,0.0,-1.4633152254429684,-2.315425831564738,-2.2226990592633182,0.0015062773336579987,0.0061657550346376445,-0.4448285172036566
8091,13.0,300.12527,19762.784,0.0,-0.040454783777719605,-0.04045425597257302,0.0,0.0,0.0,-1.4576219757810884,-2.3051187475725077,-2.244652034604908,0.0033086919038174665,-2.4328279795764273e-06,-0.42987595508045356
8092,13.0,299.97236000000004,19711.002,0.0,-0.04045979826645807,-0.040459258182760194,0.0,0.0,0.0,-1.4508955149922385,-2.311559573158168,-2.2291973361296478,-0.001997693702307018,-0.008034359154329512,-0.4347503973365236
8093,13.0,300.04379,19703.205,0.0,-0.04046477976513918,-0.040464227483669735,0.0,0.0,0.0,-1.4533139403309185,-2.3071010700681476,-2.2288674218970876,0.0023136426127137477,0.0013511306061712086,-0.4268215227865046
8094,13.0,300.05317,19756.277,0.0,-0.040469794253877533,-0.04046922969385691,0.0,0.0,0.0,-1.4758818571581986,-2.305829035892608,-2.223703798062478,-0.001349857254770539,0.0024664808524977075,-0.4329986702986416
8095,13.0,299.99638,19766.784,0.0,-0.04047477575255842,-0.04047423190404387,0.0,0.0,0.0,-1.4649915464084087,-2.318913438408938,-2.224703774586168,-0.0036331800807669567,-0.002186534339344138,-0.4368883043850186
8096,13.0,300.11315,19743.427,0.0,-0.04047979024129689,-0.040479234114231044,0.0,0.0,0.0,-1.4604776185379185,-2.312881357913618,-2.228149736851258,-0.007241663811546573,-0.0005740134263882144,-0.44010229317221455
8097,13.0,300.17399,19795.958,0.0,-0.040484771739977554,-0.040484236324418,0.0,0.0,0.0,-1.4539252341162485,-2.319105651952908,-2.2444461421845876,0.0008047181733020001,0.0047977727620783055,-0.43557902313580255
8098,13.0,300.09434,19782.452,0.0,-0.04048978622871613,-0.040489238534605176,0.0,0.0,0.0,-1.4594084370323985,-2.320389946454658,-2.233573056686498,0.0014512434650765784,0.0017600624385046386,-0.4420020155197026
8099,13.0,300.16056000000003,19747.721,0.0,-0.04049476772739702,-0.04049424074479213,0.0,0.0,0.0,-1.4647800811125384,-2.308314335737888,-2.2297196665561976,-0.00098036882716237,-0.002930663490258967,-0.43597552816493457
8100,13.0,299.84765,19771.218,0.0,-0.04049978221613526,-0.04049924295497931,0.0,0.0,0.0,-1.4810451770177786,-2.311385192815958,-2.217526113527788,0.001092300529076669,-0.0037969306188278765,-0.43598864975372953
8101,13.0,299.98586,19742.771,0.0,-0.040504796704873725,-0.040504245165166486,0.0,0.0,0.0,-1.4597099802621587,-2.310959729098968,-2.230639798972008,0.003026674206134487,0.0012763369420896488,-0.4340528354376796
8102,13.0,299.98053,19716.262,0.0,-0.040509778203554614,-0.04050924737535344,0.0,0.0,0.0,-1.4541405497624986,-2.310836112586768,-2.228274670588588,-0.0005778614158954815,0.003942127635632706,-0.43891852321288555
8103,13.0,299.79598,19773.083,0.0,-0.04051479269229297,-0.04051424958554062,0.0,0.0,0.0,-1.4532576036253586,-2.314201926768948,-2.243063866398168,-0.0012669646826396787,-0.009364392474868581,-0.4363302062299386
8104,13.0,299.75498999999996,19769.798,0.0,-0.040519774190973856,-0.040519251795727684,0.0,0.0,0.0,-1.4638194186927287,-2.3070600334390976,-2.238645386687098,-0.005103665570542575,0.00012381064078665886,-0.43215388316026754
8105,13.0,299.90065,19722.403000000002,0.0,-0.04052478867971232,-0.04052425400591464,0.0,0.0,0.0,-1.4618469247230585,-2.3129575543211374,-2.220313665877898,0.00013200641554551884,0.005616889918443875,-0.43695931295202656
8106,13.0,300.15532,19809.488999999998,0.0,-0.04052977017839343,-0.04052925621610182,0.0,0.0,0.0,-1.4744384823907486,-2.3213248723219277,-2.225826658346988,0.002258476920294318,0.005506059811905795,-0.43831981399379755
8107,13.0,300.07147000000003,19858.388,0.0,-0.040534784667131785,-0.04053425842628877,0.0,0.0,0.0,-1.4755230652977884,-2.3247021362302376,-2.236228785198598,0.000986930178847425,0.0016755900068178584,-0.44131805143720054
8108,13.0,300.06998,19783.14,0.0,-0.040539766165812674,-0.040539227727198535,0.0,0.0,0.0,-1.4636680391277885,-2.322190086582318,-2.2277224492840877,0.0014779101812083786,0.0013282305459611486,-0.4400719361992186
8109,13.0,300.21862999999996,19741.841,0.0,-0.04054478065455114,-0.04054422993738549,0.0,0.0,0.0,-1.4524158967672887,-2.312404117116518,-2.2362067976714277,0.006662761301438343,0.00022536829300961875,-0.4421828198675466
8110,13.0,300.17973,19813.246,0.0,-0.04054979514328938,-0.040549232147572445,0.0,0.0,0.0,-1.4620242434905586,-2.321529650167138,-2.2391782549146875,0.00047245565257524253,0.0013731202611664188,-0.4329361223699686
8111,13.0,300.2591,19838.157,0.0,-0.04055477664197038,-0.04055423435775962,0.0,0.0,0.0,-1.4749300100142588,-2.3197982083962576,-2.2355760494841777,0.0007092275485703094,-0.006527814626620144,-0.43484014089788053
8112,13.0,300.11476,19834.041,0.0,-0.040559791130708844,-0.04055923656794658,0.0,0.0,0.0,-1.4763456217289685,-2.3182638437698273,-2.234443641172418,-0.003100623934207757,-0.0007979143407355143,-0.4319649829441246
8113,13.0,299.9802,19822.898,0.0,-0.04056477262938951,-0.040564238778133754,0.0,0.0,0.0,-1.4698100572589587,-2.320210195886918,-2.235645862416068,0.0018466412144992983,0.00026032053759413677,-0.4378786347677566
8114,13.0,300.15321,19822.995,0.0,-0.040569787118127976,-0.04056924098832093,0.0,0.0,0.0,-1.4668815618199385,-2.319991333865318,-2.2388226041295876,0.0004430807114436616,-0.0004905154879851095,-0.4353049896462576
8115,13.0,300.14904,19823.828,0.0,-0.040574768616808865,-0.040574243198508,0.0,0.0,0.0,-1.4595112819175484,-2.324322471417768,-2.2421151603295377,0.0007396667366794232,-0.003213974297719567,-0.43835812498007853
8116,13.0,300.04508,19843.307,0.0,-0.04057978310554722,-0.040579245408695064,0.0,0.0,0.0,-1.4706563237424786,-2.323533554889908,-2.2376800633168275,0.001078630771977569,0.0028332704985970275,-0.4332425190677076
8117,13.0,300.11146,19822.686,0.0,-0.04058479759428568,-0.04058424761888213,0.0,0.0,0.0,-1.4706163003635286,-2.3173802896826277,-2.237604880159408,0.0016417225275253983,0.0032477274824007467,-0.43615363726751255
8118,13.0,299.86222999999995,19782.387,0.0,-0.04058977909296657,-0.04058924982906931,0.0,0.0,0.0,-1.4677334011790089,-2.321449502084228,-2.224168778533368,-0.004949176239720665,0.0030897384870584473,-0.44078892210247955
8119,13.0,299.96065,19851.119,0.0,-0.040594793581704924,-0.040594252039256484,0.0,0.0,0.0,-1.4708524889618386,-2.320227319813608,-2.2431647861081276,-0.0026325171814592175,-0.004649830040152496,-0.4340408284239946
8120,13.0,300.09909,19893.625,0.0,-0.040599775080386036,-0.04059925424944344,0.0,0.0,0.0,-1.4745644293781788,-2.3250284027624377,-2.2475724240431276,-0.004567449767272196,0.0014382997016741286,-0.4349769296613806
8121,13.0,300.02862000000005,19771.763,0.0,-0.04060478956912428,-0.040604256459630395,0.0,0.0,0.0,-1.4520030986765486,-2.314592737332518,-2.243526313743808,0.010163430459302491,0.002670106328368977,-0.4381173666238176
8122,13.0,300.10798,19782.561,0.0,-0.04060977106780539,-0.04060922576054016,0.0,0.0,0.0,-1.4654656461301987,-2.3089600800266177,-2.238978847295008,0.00040047839820664063,0.004662731753675796,-0.43561885399723355
8123,13.0,300.22635,19897.428,0.0,-0.04061478555654363,-0.04061422797072711,0.0,0.0,0.0,-1.4762456139440985,-2.327412681572748,-2.2446628763809775,0.0046182268708585055,-0.0023900628471808377,-0.43397173489967555
8124,13.0,300.00462999999996,19841.317,0.0,-0.04061976705522452,-0.04061923018091407,0.0,0.0,0.0,-1.4754354191641386,-2.3209479432847275,-2.2348814665406276,-0.002995986812280877,-0.0029722387630621273,-0.43233556903569864
8125,13.0,300.09668999999997,19844.953999999998,0.0,-0.040624781543963095,-0.040624232391101245,0.0,0.0,0.0,-1.4625539706428385,-2.330038620531908,-2.2397780989738876,0.003402186213069637,0.006972174951350093,-0.4374293799384186
8126,13.0,299.85657000000003,19857.598,0.0,-0.04062979603270134,-0.0406292346012882,0.0,0.0,0.0,-1.4649529415795985,-2.326452728428008,-2.244808277770328,-0.0036731470216863865,-1.5510260044493485e-05,-0.4383970540489206
8127,13.0,299.70937000000004,19845.601000000002,0.0,-0.04063477753138223,-0.04063423681147538,0.0,0.0,0.0,-1.4557843453997286,-2.3292378489778773,-2.247544964965418,-0.00024008573044711676,-0.004342476935644105,-0.43981522928638356
8128,13.0,300.04995,19879.733,0.0,-0.0406397920201208,-0.04063923902166244,0.0,0.0,0.0,-1.4754391681895087,-2.329304115534418,-2.238199151343058,-0.008577421488525592,-8.032338530980092e-05,-0.43829406730875653
8129,13.0,300.0508,19912.125,0.0,-0.04064477351880147,-0.04064424123184962,0.0,0.0,0.0,-1.4751935563652685,-2.330038721856918,-2.2475565160165583,0.003097854924334477,0.0014701104859136083,-0.4348061767545286
8130,13.0,299.97167,19868.49,0.0,-0.04064978800753993,-0.040649243442036576,0.0,0.0,0.0,-1.4792788794434588,-2.3225244591153182,-2.237721403920908,-0.003974068521185026,0.004819972565144256,-0.4367330846021996
8131,13.0,300.18611,19806.162,0.0,-0.04065476950622082,-0.04065424565222375,0.0,0.0,0.0,-1.4609645865359786,-2.320000453116218,-2.2396136484826576,0.002975876026946097,-0.0008813975667471671,-0.43588000907800756
8132,13.0,300.13869,19822.56,0.0,-0.040659783994959176,-0.04065924786241093,0.0,0.0,0.0,-1.4690791999618287,-2.3195704297737776,-2.2369136409411876,0.0030857349332633274,-0.0013120875466929589,-0.43752492942284854
8133,13.0,300.22046,19876.729,0.0,-0.04066476549364029,-0.040664250072597885,0.0,0.0,0.0,-1.4662583116834287,-2.3270880362407076,-2.248682844827718,0.001072278808425679,0.0037078965351908964,-0.44081212552976956
8134,13.0,300.15708,19862.822,0.0,-0.04066977998237853,-0.04066925228278506,0.0,0.0,0.0,-1.4816258706500884,-2.3209854335384277,-2.2351906091461378,0.003518071829656656,0.002576704326200918,-0.4406811528218436
8135,13.0,299.92627000000005,19869.626,0.0,-0.04067479447111688,-0.04067425449297202,0.0,0.0,0.0,-1.4724502830445287,-2.330314528534138,-2.237105449185118,-0.0005488556727028374,-0.0034100755809982567,-0.4434694245795246
8136,13.0,300.00997,19858.087,0.0,-0.04067977596979788,-0.04067922379388156,0.0,0.0,0.0,-1.4726631668905383,-2.3272778179844376,-2.2364214040426083,-0.002959001562430717,0.0005508165142963574,-0.4380954601566556
8137,13.0,300.08676,19818.685,0.0,-0.04068479045853646,-0.040684226004068735,0.0,0.0,0.0,-1.4604447892346786,-2.3240753397183775,-2.239865238482488,0.004068588746163447,0.0002426006070628158,-0.4453751960301095
8138,13.0,299.87363999999997,19890.712,0.0,-0.04068977195721735,-0.04068922821425569,0.0,0.0,0.0,-1.4743118261282486,-2.326955300477608,-2.2450124476654776,-0.0005828773281305135,0.001084616141643279,-0.43545392727845655
8139,13.0,299.87984,19914.609,0.0,-0.04069478644595559,-0.04069423042444287,0.0,0.0,0.0,-1.4778899162063788,-2.328455619900678,-2.247198332106208,-0.0008787838881142173,-0.0003270111899634917,-0.4437694276691326
8140,13.0,299.74871,19831.112,0.0,-0.04069976794463648,-0.04069923263462982,0.0,0.0,0.0,-1.4736076173087487,-2.3237647785627273,-2.2307904692618776,0.0022459389635569177,0.0029256947144185876,-0.4343688377463666
8141,13.0,299.80861,19851.314,0.0,-0.04070478243337494,-0.04070423484481689,0.0,0.0,0.0,-1.4657326375315487,-2.330380896415688,-2.238190133417168,-0.0034052136017184167,0.0053107736883325546,-0.44657179373570455
8142,13.0,299.84767999999997,19945.995,0.0,-0.040709796922113295,-0.040709237055004066,0.0,0.0,0.0,-1.4824242104038787,-2.330088776411858,-2.250571441689108,-0.0023942868841977175,-0.00028469372159458273,-0.43059378198129755
8143,13.0,299.9706,19943.528000000002,0.0,-0.040714778420794184,-0.04071423926519102,0.0,0.0,0.0,-1.4762614206456586,-2.3359786979181476,-2.2500945048670378,-0.00015200806371202787,-0.004246223445044626,-0.4438730730218616
8144,13.0,300.13419,19892.372,0.0,-0.04071979290953265,-0.0407192414753782,0.0,0.0,0.0,-1.4694618031995885,-2.3310420421059375,-2.246280530165628,0.003070020741437457,-0.002434374300554038,-0.4349469475909216
8145,13.0,300.20104,19927.42,0.0,-0.04072477440821343,-0.040724243685565376,0.0,0.0,0.0,-1.4720947335844385,-2.336661020535488,-2.248682135552648,0.0030675742490710073,0.004057661553110016,-0.4461097010275996
8146,13.0,300.09619,19986.743000000002,0.0,-0.04072978889695189,-0.04072924589575233,0.0,0.0,0.0,-1.4872875069088487,-2.337400389133458,-2.250782906984978,-0.0005106681205490195,-0.002081719392024708,-0.4313026821487606
8147,13.0,300.08113,19962.316000000003,0.0,-0.04073477039563278,-0.04073424810593951,0.0,0.0,0.0,-1.4799493470346285,-2.337200576213738,-2.250895783046118,0.0009385006237553001,0.00031460020359612266,-0.4434054884982146
8148,13.0,299.85125,19885.09,0.0,-0.04073978488437113,-0.04073925031612646,0.0,0.0,0.0,-1.4702485919022383,-2.3280695716125774,-2.246252767112888,-0.00028881367756119076,0.00040554927925959755,-0.43363788925672764
8149,13.0,300.21994,19802.814,0.0,-0.04074476638305213,-0.04074425252631364,0.0,0.0,0.0,-1.4600076731415386,-2.3188752388801683,-2.240678067712708,-0.0004919377263554735,0.00023598055779946775,-0.44519370267219754
8150,13.0,299.91934,19857.495,0.0,-0.040749780871790486,-0.04074925473650082,0.0,0.0,0.0,-1.4641156930219685,-2.326714248278818,-2.245352595724048,0.000861352521078875,-0.005561433321920734,-0.43330782303665255
8151,13.0,299.80616000000003,19972.303,0.0,-0.04075479536052895,-0.040754224037410136,0.0,0.0,0.0,-1.4860760650892884,-2.3336774042910275,-2.251328136863788,-0.004735209128028755,-0.0012254084589383989,-0.44464060997261157
8152,13.0,299.90762,19994.202,0.0,-0.04075977685920984,-0.04075922624759731,0.0,0.0,0.0,-1.4879720586764087,-2.3355263830735082,-2.2542397110261376,0.0028925949747268974,-0.0027639492969805573,-0.4386174055481675
8153,13.0,299.95751,19918.881,0.0,-0.040764791347948304,-0.04076422845778449,0.0,0.0,0.0,-1.4691100027648685,-2.338024551195058,-2.247707895581498,-0.0030220699976800875,0.0025592859490318576,-0.4484822767992546
8154,13.0,299.9405,19913.952,0.0,-0.04076977284662919,-0.040769230667971446,0.0,0.0,0.0,-1.4702146480238885,-2.328227030678118,-2.2549025792415582,0.0009115342794364292,0.0016136816416079784,-0.4330844621846086
8155,13.0,300.18377000000004,19999.196,0.0,-0.040774787335367546,-0.04077423287815851,0.0,0.0,0.0,-1.4820943974963285,-2.335796920850208,-2.261364885729338,7.465329550545663e-05,-0.0024590959817938777,-0.4365632638854396
8156,13.0,299.88399,19967.595,0.0,-0.040779768834048435,-0.04077923508834547,0.0,0.0,0.0,-1.4759304931629986,-2.335455455566508,-2.258264239098328,0.002037785475638768,0.0003007360139353337,-0.4325136578732746
8157,13.0,300.03468,19889.797,0.0,-0.0407847833227869,-0.040784237298532644,0.0,0.0,0.0,-1.4685403535586485,-2.329259228554988,-2.248201956330258,0.0028417730854861673,-0.0007383993330568404,-0.4390709160279256
8158,13.0,300.05695,19910.083,0.0,-0.04078976482146768,-0.04078923950871982,0.0,0.0,0.0,-1.4795044289157187,-2.329302089034218,-2.243361761927568,0.0007655622377626102,-0.003998209711442576,-0.4378475583871896
8159,13.0,299.823,19959.449,0.0,-0.04079477931020614,-0.040794241718906776,0.0,0.0,0.0,-1.4751244527084486,-2.340983444137078,-2.2510662117129376,-0.003159338433777427,0.0006497197653648484,-0.43933356058634654
8160,13.0,299.78035,19977.44,0.0,-0.040799793798944606,-0.040799243929093953,0.0,0.0,0.0,-1.4800276712673586,-2.338604636877308,-2.254010513853518,0.00032062008456023867,-0.004516217207765936,-0.4440645570257596
8161,13.0,299.74101,19994.429,0.0,-0.04080477529762527,-0.04080424613928091,0.0,0.0,0.0,-1.4705531748822986,-2.3462637943832076,-2.260990287167368,-5.772641049615315e-06,0.0038662921477983264,-0.4436450005568526
8162,13.0,299.92717999999996,19989.617,0.0,-0.04080978978636385,-0.040809248349468086,0.0,0.0,0.0,-1.4834118252763486,-2.3380917296766874,-2.2548409736354778,-0.004601938672850985,-0.004531513839225595,-0.43724878837309555
8163,13.0,300.09365,19979.054,0.0,-0.04081477128504474,-0.04081425055965526,0.0,0.0,0.0,-1.4814479439325285,-2.3405236312416977,-2.2511618625223777,0.0025933278086665273,0.0018236836016835584,-0.4424135267828156
8164,13.0,300.08997999999997,19991.456000000002,0.0,-0.0408197857737832,-0.04081925276984222,0.0,0.0,0.0,-1.4911863919686386,-2.335786889674218,-2.249930358350838,-0.004267245547519346,0.0013722363017791785,-0.44058338431969457
8165,13.0,300.21315,19971.855,0.0,-0.04082476727246409,-0.04082422207075176,0.0,0.0,0.0,-1.4771321064565885,-2.3381516127575974,-2.255661604891468,0.0018653278768185281,0.005178989772376495,-0.44196330936588263
8166,13.0,300.12942000000004,19945.411,0.0,-0.040829781761202555,-0.040829224280938936,0.0,0.0,0.0,-1.4724662923961087,-2.3366538264597776,-2.2537867882314377,0.0024537120773875276,-0.0035868634054458566,-0.4327472728163306
8167,13.0,300.03628,19948.763,0.0,-0.04083479624994091,-0.04083422649112589,0.0,0.0,0.0,-1.4667832765602384,-2.336785954272818,-2.260356499229818,0.0012062163874692886,0.0016550279198885387,-0.43896813193778156
8168,13.0,299.77137999999997,20011.643,0.0,-0.0408397777486218,-0.04083922870131307,0.0,0.0,0.0,-1.4848160885899384,-2.3418981050023477,-2.256325587681998,0.0063637342756516745,-0.0036374221536356163,-0.4383713276288816
8169,13.0,299.82287,19995.875,0.0,-0.04084479223736026,-0.040844230911500135,0.0,0.0,0.0,-1.4819821293852486,-2.3451540828736874,-2.2511103894172977,0.001023556880017199,0.0020582214129306383,-0.4447026208787316
8170,13.0,299.8319,19984.315,0.0,-0.04084977373604115,-0.04084923312168731,0.0,0.0,0.0,-1.4843422928431786,-2.339592049099758,-2.250798409711508,0.0035251495842551763,0.00010305662402339689,-0.4431024253933046
8171,13.0,300.1314,20008.881,0.0,-0.040854788224779504,-0.04085423533187427,0.0,0.0,0.0,-1.4804429011583384,-2.345688876276468,-2.2560683234816077,-0.007856335063434904,4.635255856014136e-06,-0.4449525086183936
8172,13.0,300.08022,19968.113,0.0,-0.04085976972346039,-0.04085923754206122,0.0,0.0,0.0,-1.4746593709125486,-2.3364087212605877,-2.258739858695268,-0.004230626587580336,0.0012401406087673488,-0.44342041367218754
8173,13.0,300.13504,19968.81,0.0,-0.04086478421219886,-0.0408642397522484,0.0,0.0,0.0,-1.4711370095899186,-2.341393405127538,-2.257489305421848,-0.006015410605999805,-0.00035361186245377364,-0.44361107694350455
8174,13.0,300.08916,20028.498,0.0,-0.040869765710879524,-0.040869241962435354,0.0,0.0,0.0,-1.4905967817354486,-2.3392604123420275,-2.2583061876524684,-0.0013384630547460185,0.0017631575122600983,-0.43901311010972055
8175,13.0,300.27729,20056.924,0.0,-0.0408747801996181,-0.04087424417262253,0.0,0.0,0.0,-1.4925071634739886,-2.342600287321648,-2.261696421162058,-0.0007932331759360193,0.0033714908145402365,-0.44338646979383756
8176,13.0,300.11242999999996,20006.08,0.0,-0.04087979468835656,-0.04087924638280971,0.0,0.0,0.0,-1.4837274526824986,-2.3396699680324478,-2.257951347467448,0.006389299082299724,0.0006534151695395563,-0.4487791286810516
8177,13.0,300.07817,19998.953,0.0,-0.04088477618703745,-0.040884248592996775,0.0,0.0,0.0,-1.4808542806989384,-2.341908946778418,-2.256419110666228,-0.0005849543489804994,0.006228710796475894,-0.4438282063074336
8178,13.0,300.14738,20036.69,0.0,-0.040889790675775695,-0.04088925080318384,0.0,0.0,0.0,-1.4773562373787088,-2.3434373332292577,-2.2698599745677375,0.003843028938752426,-0.005596110590693115,-0.4351078111767976
8179,13.0,300.09418,20040.406000000003,0.0,-0.040894772174456806,-0.04089422010409338,0.0,0.0,0.0,-1.4817495884872987,-2.350411432342548,-2.259622095557338,-0.0013745311106056588,0.0010439640410062289,-0.4475295278627256
8180,13.0,300.03469,20016.771,0.0,-0.04089978666319516,-0.04089922231428045,0.0,0.0,0.0,-1.4851572498986088,-2.3430033582114276,-2.256438058443098,0.0024025275459360076,-0.0036570614736988667,-0.4378181336042856
8181,13.0,300.05022,19985.855,0.0,-0.04090476816187605,-0.040904224524467514,0.0,0.0,0.0,-1.4857468601317987,-2.3362883471487077,-2.253165665920138,-0.0025646496897612178,-0.0018030802754751684,-0.4447977954606246
8182,13.0,299.85792999999995,19995.729,0.0,-0.04090978265061451,-0.04090922673465458,0.0,0.0,0.0,-1.4802486611141685,-2.3397925712945478,-2.258161191563158,-0.0034272826955214666,-0.0026701865777768977,-0.4355323731011986
8183,13.0,299.96407999999997,20066.77,0.0,-0.0409147641492954,-0.04091422894484176,0.0,0.0,0.0,-1.4896166649137186,-2.342123654474608,-2.2680564907147476,-0.0062569196792598945,0.0037374006555777263,-0.4406577771420366
8184,13.0,300.07901,20119.016,0.0,-0.040919778638033755,-0.040919231155028934,0.0,0.0,0.0,-1.4910072493509587,-2.347889047543608,-2.276782093950898,0.0014643516789702587,0.005196148250894905,-0.4391241825856826
8185,13.0,299.88041,20032.05,0.0,-0.04092479312677222,-0.04092423336521589,0.0,0.0,0.0,-1.4814265643554185,-2.3394109813068877,-2.2684053527241774,-0.0028487750489772073,0.008357655343861362,-0.4390883743271486
8186,13.0,299.99714,20046.121,0.0,-0.04092977462545311,-0.040929235575402845,0.0,0.0,0.0,-1.4888956361425587,-2.345070692390458,-2.259553802500598,0.006189226669229114,-0.0006937096030238074,-0.43660251719431364
8187,13.0,300.03038,20116.87,0.0,-0.04093478911419146,-0.0409342377855898,0.0,0.0,0.0,-1.4930615126036986,-2.353536498300968,-2.2684281508514275,-0.0016457201031449286,0.0022043184997992977,-0.44547069485203455
8188,13.0,300.05626,20098.134,0.0,-0.04093977061287235,-0.04093923999577698,0.0,0.0,0.0,-1.4894573819979986,-2.3560523982992683,-2.2638210039717377,0.0017695752357434784,-0.0041183207835966155,-0.4445201750657256
8189,13.0,299.97277,20010.98,0.0,-0.040944785101610814,-0.040944242205964154,0.0,0.0,0.0,-1.4739579991933287,-2.3487442306280077,-2.260136117333068,0.002886027492878737,-0.004566278855456635,-0.4414050085607826
8190,13.0,300.07427,19993.925,0.0,-0.040949766600291704,-0.04094924441615122,0.0,0.0,0.0,-1.4717553961259486,-2.343479991058468,-2.2624186658333376,0.0014699581944235785,2.2517696099323577e-05,-0.43886826600792556
8191,13.0,300.14509,20065.981,0.0,-0.040954781089029946,-0.0409542466263384,0.0,0.0,0.0,-1.4832181931822384,-2.3501418064909374,-2.266196974131228,0.005798690088486155,0.0046655528446042155,-0.43923640003425757
8192,13.0,300.28398,20115.422,0.0,-0.04095979557776852,-0.04095924883652535,0.0,0.0,0.0,-1.4907938588798986,-2.357094526027118,-2.266697722330648,0.001304064632401159,0.0026961802931922776,-0.44642418346113655
8193,13.0,300.22675,20080.267,0.0,-0.04096477707644941,-0.040964218137434893,0.0,0.0,0.0,-1.4904475299957185,-2.3485498892588277,-2.264902445803468,0.00045437475169579655,0.004363341072428236,-0.4397807585179816
8194,13.0,300.05489,20015.939,0.0,-0.04096979156518765,-0.04096922034762207,0.0,0.0,0.0,-1.4811898691320586,-2.345177995576048,-2.257977894620068,-6.452450705382304e-05,-0.0038332026419326463,-0.4460166644034176
8195,13.0,300.08301,20051.768,0.0,-0.040974773063868764,-0.040974222557809026,0.0,0.0,0.0,-1.4852184502046486,-2.344607231794718,-2.265411097353668,-0.003146219580757697,-0.0010234872697353291,-0.4443169677581706
8196,13.0,300.04386,20126.664,0.0,-0.040979787552607116,-0.0409792247679962,0.0,0.0,0.0,-1.4916508658144787,-2.3586105508267377,-2.2677416739086778,-0.0011732415815149287,-0.0006383889947965885,-0.44964679500668353
8197,13.0,300.10772000000003,20117.945,0.0,-0.040984769051288006,-0.04098422697818338,0.0,0.0,0.0,-1.4940035312216686,-2.3497556568778277,-2.271593746813848,0.0011950344633407189,-0.0004140923150927296,-0.4379954523717856
8198,13.0,300.02869,20029.303,0.0,-0.04098978354002647,-0.040989229188370335,0.0,0.0,0.0,-1.4849009989483186,-2.348003038179858,-2.255503841850898,0.004802443845039305,-0.0037497270456942466,-0.44622141185112457
8199,13.0,299.83617999999996,20032.283,0.0,-0.04099476503870736,-0.04099423139855751,0.0,0.0,0.0,-1.4820407965660385,-2.349121767615268,-2.258151160387168,0.002327682104774338,-0.0003464296316374427,-0.44363679323104255
8200,13.0,300.05844,20134.276,0.0,-0.0409997795274456,-0.04099923360874447,0.0,0.0,0.0,-1.4919661892455984,-2.360309061969368,-2.2680420012383182,0.004614218554787916,-0.0018597697947199882,-0.44683853182452954
8201,13.0,300.1563,20161.006,0.0,-0.041004794016184176,-0.041004235818931645,0.0,0.0,0.0,-1.4929903824466786,-2.3575201923941274,-2.277931727514358,-0.0046905341205196755,0.005236979392824625,-0.4292144344876666
8202,13.0,299.98262,20085.521,0.0,-0.041009775514865066,-0.0410092380291186,0.0,0.0,0.0,-1.4866115677671385,-2.3495440902569475,-2.2693411905165375,-0.0043655921088503954,0.0006283475241855724,-0.4385936853633266
8203,13.0,300.05894,20098.085,0.0,-0.04101479000360331,-0.041014240239305666,0.0,0.0,0.0,-1.4912664387265384,-2.3496589928182874,-2.2683906605977278,-0.0030933306613129667,0.003340449999051747,-0.4345565423273916
8204,13.0,299.99197999999996,20130.911,0.0,-0.0410197715022842,-0.04101924244949284,0.0,0.0,0.0,-1.4905124793271285,-2.3591208235770975,-2.2696608709230874,-0.0007517939826212892,0.001062749596535219,-0.4530112514337295
8205,13.0,300.00525,20159.155,0.0,-0.04102478599102277,-0.0410242446596798,0.0,0.0,0.0,-1.4972667031687186,-2.358795266319968,-2.271817675085948,-0.0034504061773785767,0.0011310171193726988,-0.4439836591377756
8206,13.0,300.06408,20145.46,0.0,-0.04102976748970366,-0.041029246869866975,0.0,0.0,0.0,-1.4917766101518883,-2.3581383762801376,-2.273801922756778,-0.0022398304840040577,-0.005944249443526744,-0.44968946296839457
8207,13.0,300.10867,20073.88,0.0,-0.0410347819784419,-0.04103424908005415,0.0,0.0,0.0,-1.4860068601074587,-2.350133396515108,-2.2658180185938277,0.0011894603718905989,-0.0007722409542067483,-0.4427467442107016
8208,13.0,299.8882,20059.549,0.0,-0.041039763477123015,-0.04103921838096347,0.0,0.0,0.0,-1.4829047949263088,-2.3494163194193374,-2.265280894715818,0.004622388086369186,-0.0005044150907368935,-0.44681193400940455
8209,13.0,300.09197,20170.376,0.0,-0.04104477796586137,-0.04104422059115065,0.0,0.0,0.0,-1.5002749413906087,-2.359184557008388,-2.2718310499872683,0.0007628723525896393,-0.006994694941447643,-0.43714493023784556
8210,13.0,300.08588,20173.735,0.0,-0.04104979245459983,-0.041049222801337826,0.0,0.0,0.0,-1.4952419254938885,-2.3595696933713977,-2.2774999816467476,0.0003292237431468537,-0.004545314812212646,-0.44499575413266157
8211,13.0,300.02256,20119.37,0.0,-0.04105477395328072,-0.04105422501152478,0.0,0.0,0.0,-1.4875642255111587,-2.3588532242256877,-2.269368750919258,-0.0015634688170023585,-0.0039827840932451855,-0.44417133332129755
8212,13.0,299.92058,20106.843999999997,0.0,-0.04105978844201896,-0.04105922722171196,0.0,0.0,0.0,-1.4860790035145786,-2.354852912830888,-2.271046591759848,0.0045427987095643255,0.001829909415597998,-0.4435954222294596
8213,13.0,300.11835,20138.902,0.0,-0.04106476994069985,-0.04106422943189891,0.0,0.0,0.0,-1.4909986367251087,-2.352347145333588,-2.278377658883368,-0.0062907077197445135,0.0029835677097802076,-0.4354992195579266
8214,13.0,299.89263,20168.5,0.0,-0.04106978442943843,-0.04106923164208609,0.0,0.0,0.0,-1.4970857367008588,-2.3579469733362477,-2.2756877838428977,-0.003057106159637887,0.005508937239539775,-0.4414598963186996
8215,13.0,299.98118,20155.531000000003,0.0,-0.04107476592811932,-0.04107423385227327,0.0,0.0,0.0,-1.4997786514916287,-2.354479226194008,-2.272520262705288,-0.0005495931059931165,0.0046351485528285455,-0.4466892294222946
8216,13.0,299.88947,20120.512,0.0,-0.04107978041685756,-0.04107923606246022,0.0,0.0,0.0,-1.4885413025825884,-2.3587374097392577,-2.268854425168498,0.00034344295537768073,0.004602989615854706,-0.4521633941475526
8217,13.0,300.01216,20108.35,0.0,-0.04108479490559602,-0.04108423827264729,0.0,0.0,0.0,-1.4875164001064385,-2.3584975734405873,-2.266422320953468,0.0028847036816230876,-0.003326274123527697,-0.4481301014619976
8218,13.0,299.85015,20180.959,0.0,-0.04108977640427702,-0.041089240482834244,0.0,0.0,0.0,-1.4927941159023088,-2.3633074716652875,-2.278406029886168,-0.01023047924491969,-0.0027412862359688876,-0.4443627160001856
8219,13.0,300.06158999999997,20219.694,0.0,-0.041094790893015265,-0.04109424269302142,0.0,0.0,0.0,-1.4988536554753384,-2.366194423850208,-2.2812340109152682,0.0006768009007875483,-0.001153647857706179,-0.4413620163590396
8220,13.0,299.95745,20114.766,0.0,-0.041099772391696154,-0.0410992449032086,0.0,0.0,0.0,-1.4874035240452987,-2.3557875347231274,-2.2711955395245482,-0.003254378456057147,-0.001126481609275079,-0.44380092961474155
8221,13.0,300.25278,20100.754,0.0,-0.04110478688043462,-0.04110424711339555,0.0,0.0,0.0,-1.4880262675567588,-2.355613559680958,-2.2664873716098874,0.00925520575866769,-0.0002529714650163397,-0.4402398722707926
8222,13.0,300.02752999999996,20206.729,0.0,-0.04110976837911551,-0.041109216414305094,0.0,0.0,0.0,-1.4928833832361186,-2.366104852541368,-2.283352716874368,0.0038838536972065165,0.0007031009014431564,-0.4473791210178816
8223,13.0,299.98332,20229.613,0.0,-0.04111478286785408,-0.04111421862449227,0.0,0.0,0.0,-1.5014482850064088,-2.364084837142008,-2.283764096414968,0.008607769443595701,0.002356918929784788,-0.4472125123039386
8224,13.0,299.87505,20153.458,0.0,-0.04111976436653497,-0.041119220834679227,0.0,0.0,0.0,-1.4873397906140087,-2.3646703943747975,-2.274137916489938,0.0014471766844752186,0.0037117860983497666,-0.4488560343636416
8225,13.0,299.87257999999997,20115.02,0.0,-0.041124778855273214,-0.041124223044866404,0.0,0.0,0.0,-1.4912266179976086,-2.3530894523568477,-2.2701476362711275,0.002222622356230748,0.0011094804884971988,-0.4430253069281936
8226,13.0,299.8709,20117.433,0.0,-0.04112979334401179,-0.04112922525505336,0.0,0.0,0.0,-1.4903614037372186,-2.3565110966195375,-2.268324596691208,-0.008917791144892462,0.0050854547304703054,-0.44693220679627454
8227,13.0,299.73003,20180.441000000003,0.0,-0.04113477484269268,-0.041134227465240536,0.0,0.0,0.0,-1.4992868198930884,-2.3619602543323275,-2.2731029828377975,-0.007442801049147273,-2.6006606996402277e-05,-0.44914428375208953
8228,13.0,299.81669,20223.868000000002,0.0,-0.04113978933143092,-0.04113922967542771,0.0,0.0,0.0,-1.4991830630828487,-2.3671193185414876,-2.281248601716708,-0.0069842861271453725,0.005101614549690155,-0.4515847979429496
8229,13.0,299.92382000000003,20149.286,0.0,-0.04114477083011181,-0.04114423188561467,0.0,0.0,0.0,-1.4895863687357287,-2.3601956792831777,-2.275097768309668,-0.001301885232761069,-0.002133106168196188,-0.44138061963087555
8230,13.0,299.91972999999996,20105.331000000002,0.0,-0.041149785318850274,-0.041149234095801845,0.0,0.0,0.0,-1.4788315295243086,-2.3607585397137276,-2.2719283219968682,0.003633922185140197,-0.0031458708200732773,-0.44406671524847263
8231,13.0,299.87214,20240.488,0.0,-0.04115476681753116,-0.04115423630598891,0.0,0.0,0.0,-1.5029331017029486,-2.3668883988436975,-2.2827813451429777,0.008348929639300201,-0.002119439957472438,-0.4385129394628575
8232,13.0,299.74211,20321.067,0.0,-0.041159781306269516,-0.04115923851617609,0.0,0.0,0.0,-1.5117627657243686,-2.3728716406841976,-2.292462645873448,0.006251659594015764,0.0013536473167695886,-0.44096415357477353
8233,13.0,299.89837,20222.465,0.0,-0.041164762804950406,-0.041164240726363044,0.0,0.0,0.0,-1.4939805304443987,-2.3704924281243875,-2.2826514464801577,0.008553126892202901,0.0023772702606933076,-0.44526977748970553
8234,13.0,300.00458,20131.978,0.0,-0.04116977729368887,-0.04116924293655,0.0,0.0,0.0,-1.4796577336558485,-2.364979030355258,-2.274982055148248,0.00034393450326619267,0.0016707458607397785,-0.44814620200608657
8235,13.0,300.04141,20178.156000000003,0.0,-0.04117479178242722,-0.041174245146737176,0.0,0.0,0.0,-1.4900970467861288,-2.3647402073066877,-2.278818422676868,-0.0013637407063157288,0.0003237420803708557,-0.4507666086197005
8236,13.0,299.89108,20262.321,0.0,-0.041179773281108334,-0.04117921444764672,0.0,0.0,0.0,-1.5032480198340286,-2.369364275463048,-2.286627439872558,-0.008652894232824173,0.0007811467335756803,-0.4448014431609846
8237,13.0,299.95178,20256.731,0.0,-0.041184787769846576,-0.04118421665783367,0.0,0.0,0.0,-1.5086244261896387,-2.3671546809699775,-2.281761407592318,-0.0011347471969658288,-0.002843291744736047,-0.4416040210129236
8238,13.0,299.94541,20198.143,0.0,-0.041189769268527465,-0.04118921886802085,0.0,0.0,0.0,-1.4932248485198185,-2.3676343535673183,-2.2788719222821476,-0.0006658094575452773,0.0014020132904179385,-0.4449912147722136
8239,13.0,299.9693,20212.54,0.0,-0.04119478375726593,-0.041194221078207804,0.0,0.0,0.0,-1.4890511700329088,-2.3700632153820274,-2.2849931687862677,0.0006388194031740665,-0.00027062957715905974,-0.4478147881633786
8240,13.0,299.73999,20286.387,0.0,-0.04119976525594693,-0.04119922328839498,0.0,0.0,0.0,-1.4996876616326484,-2.373420923563408,-2.2934466130455577,0.00021372898778590878,0.0016366702598767785,-0.4492542416529416
8241,13.0,300.14446,20340.685,0.0,-0.04120477974468517,-0.04120422549858216,0.0,0.0,0.0,-1.5113584789344685,-2.3765248125947376,-2.2951770415663377,0.0007219896767598333,-0.00017782114703208086,-0.44532559743771455
8242,13.0,300.21435,20235.588,0.0,-0.041209794233423636,-0.041209227708769225,0.0,0.0,0.0,-1.4992774979921684,-2.3681113917143977,-2.2837244783360577,-0.0007565005901307954,0.004350896638675066,-0.44600088809936056
8243,13.0,300.26467,20111.872,0.0,-0.041214775732104525,-0.04121422991895629,0.0,0.0,0.0,-1.4922072414443883,-2.3563286102765275,-2.2649710428352376,0.007269420379485932,-0.0023469001154460076,-0.44439703478107256
8244,13.0,300.18399,20176.608,0.0,-0.04121979022084288,-0.04121923212914336,0.0,0.0,0.0,-1.4932282935701586,-2.364289817637238,-2.275666809565828,0.001149520383423829,0.0014100286053339887,-0.44867514895578964
8245,13.0,300.01114,20280.75,0.0,-0.04122477171952377,-0.041224234339330534,0.0,0.0,0.0,-1.5031538888997384,-2.3705926385592777,-2.291095062213478,0.0049303608946387354,-0.0011463950134903789,-0.4493035464028076
8246,13.0,299.87407,20269.253,0.0,-0.04122978620826223,-0.04122923654951771,0.0,0.0,0.0,-1.4980381917948586,-2.372957260317648,-2.2903513366400774,-0.003082394956958697,0.00043377506305526556,-0.45441524116979254
8247,13.0,300.13989,20245.695,0.0,-0.04123476770694312,-0.04123423875970467,0.0,0.0,0.0,-1.4956268592068787,-2.375245786993508,-2.283313098795458,-0.0008391723851973661,0.0018152363382498784,-0.4541852941920986
8248,13.0,299.99161000000004,20243.121,0.0,-0.041239782195681474,-0.04123924096989162,0.0,0.0,0.0,-1.5023755101729186,-2.3666303240432276,-2.284397479052478,-0.005171913740303145,-0.0010551712963872992,-0.4449765327782646
8249,13.0,299.97741,20306.843999999997,0.0,-0.041244763694362585,-0.04124424318007858,0.0,0.0,0.0,-1.5129578942173185,-2.3738072758265374,-2.286008141411438,-8.000240692987283e-05,-0.0024919492990612474,-0.4453174002444056
8250,13.0,299.91001,20330.488,0.0,-0.04124977818310083,-0.041249245390265754,0.0,0.0,0.0,-1.5068018932347684,-2.3791464959034774,-2.294012411901398,-0.009071746594236681,-0.0011067292105006689,-0.4447375172121756
8251,13.0,299.92856,20257.633,0.0,-0.04125479267183918,-0.04125421469117552,0.0,0.0,0.0,-1.4971057990528385,-2.371945631417808,-2.288763168433338,5.324491777461424e-05,0.0046661673807898655,-0.44921436012900556
8252,13.0,299.98012,20186.013,0.0,-0.04125977417052018,-0.04125921690136247,0.0,0.0,0.0,-1.4905362907044786,-2.3677394276026877,-2.2777682902732277,-0.0023732881878003077,0.003042437337940187,-0.44885658151869556
8253,13.0,299.99824,20206.456000000002,0.0,-0.04126478865925853,-0.04126421911154943,0.0,0.0,0.0,-1.4933295172551486,-2.3671623816707377,-2.2817662711927977,0.0037787783446113863,0.005007127052689965,-0.44914209513187353
8254,13.0,300.00895,20303.697,0.0,-0.04126977015793942,-0.041269221321736604,0.0,0.0,0.0,-1.5090730933339185,-2.3750494191241276,-2.2876945948778773,0.004330194723231946,0.0023951104538789975,-0.4448042701287636
8255,13.0,300.1019,20340.106,0.0,-0.04127478464667789,-0.04127422353192367,0.0,0.0,0.0,-1.5126754000894385,-2.3778754749780378,-2.2923333551606877,0.007676550146516512,-0.0008233653999273384,-0.4487207756077926
8256,13.0,300.19241,20282.12,0.0,-0.041279766145358776,-0.04127922574211085,0.0,0.0,0.0,-1.4949894235689685,-2.3765110323933776,-2.293757680826258,-9.539438623719292e-05,-0.0037919412740104663,-0.44654852951340857
8257,13.0,300.43003,20289.892,0.0,-0.04128478063409713,-0.0412842279522978,0.0,0.0,0.0,-1.4984896960394185,-2.379917984529618,-2.2892127475027078,-0.0052345101023309245,-0.0060894241688293745,-0.45087033503243756
8258,13.0,300.14457999999996,20321.938000000002,0.0,-0.04128976213277802,-0.04128923016248498,0.0,0.0,0.0,-1.4999828213867785,-2.375518351270408,-2.301860540550948,-0.005767769343134515,-0.002895550118643547,-0.4507720193752346
8259,13.0,299.9325,20357.413,0.0,-0.04129477662151648,-0.04129423237267216,0.0,0.0,0.0,-1.5098258368332087,-2.3826646015756876,-2.2956547889884877,-0.008796568436053712,-0.0026375552636064372,-0.4478404335234095
8260,13.0,300.07842999999997,20319.077,0.0,-0.041299791110254835,-0.04129923458285911,0.0,0.0,0.0,-1.5136579487114088,-2.371777533226218,-2.2910565587096774,-0.0028830102367309574,-0.0025914271541289478,-0.44343915879903756
8261,13.0,300.05188,20219.35,0.0,-0.041304772608935725,-0.04130423679304629,0.0,0.0,0.0,-1.5037808880616186,-2.364392763847398,-2.2780038709214776,0.0014504143225197487,-0.0008803702527357791,-0.44344083066170253
8262,13.0,300.12921,20244.25,0.0,-0.04130978709767419,-0.041309239003233245,0.0,0.0,0.0,-1.4907076312963885,-2.3787088731852877,-2.284329895270808,0.0034125752689949567,0.0023002129958883477,-0.45333756862843455
8263,13.0,300.07981,20358.588,0.0,-0.04131476859635508,-0.04131424121342042,0.0,0.0,0.0,-1.5113725631108588,-2.3792367764873874,-2.297893159784398,0.005363800612440905,0.003340173685749477,-0.44735249280525363
8264,13.0,299.89807,20405.617,0.0,-0.04131978308509343,-0.04131924342360738,0.0,0.0,0.0,-1.5089511993468885,-2.3877412885517177,-2.306105551844898,-0.0026166611346193475,0.0006960969013194153,-0.4524581789991456
8265,13.0,299.79008999999996,20326.133,0.0,-0.04132476458377443,-0.04132421272451692,0.0,0.0,0.0,-1.5058854085193185,-2.3797394498619977,-2.293011928752658,-0.0007100695391384072,0.0012614274734931987,-0.45097247064251755
8266,13.0,299.86237,20258.688000000002,0.0,-0.041329779072512784,-0.041329214934704095,0.0,0.0,0.0,-1.4990999765746487,-2.371748959573398,-2.287286356412588,0.002221829589352508,-0.0016816835915942482,-0.4504183849578336
8267,13.0,299.68686,20319.856,0.0,-0.041334793561251026,-0.04133421714489105,0.0,0.0,0.0,-1.5056780975488586,-2.3793682963503677,-2.291682544621458,0.004371278265761576,0.0027852753744852777,-0.44726084433370855
8268,13.0,299.63825,20412.526,0.0,-0.04133977505993214,-0.041339219355078116,0.0,0.0,0.0,-1.5113363900822885,-2.3872460119028376,-2.3063156999156376,-0.0027994796210121273,-0.004148145901615126,-0.4467495887307516
8269,13.0,299.67762,20348.94,0.0,-0.0413447895486706,-0.04134422156526529,0.0,0.0,0.0,-1.5011148243984986,-2.3811037911216477,-2.303351031448048,-0.003716371561677316,-0.0026562380755752873,-0.4488433991348945
8270,13.0,300.01711,20253.575,0.0,-0.04134977104735138,-0.04134922377545225,0.0,0.0,0.0,-1.4887008894733385,-2.3774505178860976,-2.2904297621978182,0.0006778507697461623,0.001062556065766119,-0.4457556410451566
8271,13.0,300.08623,20284.957,0.0,-0.041354785536089844,-0.041354225985639426,0.0,0.0,0.0,-1.5017173029079587,-2.3731086398825876,-2.291294571158168,-0.001113123831881769,0.005234423064147335,-0.44692889346844755
8272,13.0,299.95828,20383.303,0.0,-0.041359767034770734,-0.0413592281958266,0.0,0.0,0.0,-1.5208438170955985,-2.3800138379890776,-2.295157485839408,0.0029654739000944874,0.0028037054818791872,-0.4441823372173836
8273,13.0,299.84246,20441.58,0.0,-0.04136478152350909,-0.04136423040601356,0.0,0.0,0.0,-1.5205155240631985,-2.3904936811233575,-2.3027206885608376,-0.0033715666056477168,0.001041087119997299,-0.4535302381349496
8274,13.0,300.12639,20364.179,0.0,-0.041369763022189976,-0.041369232616200735,0.0,0.0,0.0,-1.5061861411489985,-2.385487617679298,-2.298528163622068,0.008356855484232423,0.002820129658050127,-0.45610987156453964
8275,13.0,300.13103,20291.389,0.0,-0.04137477751092844,-0.04137423482638769,0.0,0.0,0.0,-1.4943377011046486,-2.382897345123658,-2.2908406351133683,0.004544676261999626,0.003106416989004487,-0.4576317833472406
8276,13.0,300.04323999999997,20353.019,0.0,-0.04137979199966668,-0.04137923703657487,0.0,0.0,0.0,-1.5021228055979787,-2.380734461460198,-2.3039521927323774,0.005262929538485705,-0.005534219856034975,-0.44830670082192653
8277,13.0,300.07511,20429.283,0.0,-0.04138477349834768,-0.041384239246762045,0.0,0.0,0.0,-1.5208812060242884,-2.3880682643589877,-2.3010423410951977,-0.0051213201363099455,-0.001895613517007488,-0.44807754417931056
8278,13.0,300.08111,20373.413,0.0,-0.041389787987086146,-0.041389241456949,0.0,0.0,0.0,-1.5105506146297385,-2.3829507434039274,-2.299507469843718,0.0003850753856189817,0.0004526366528717596,-0.44459671597827954
8279,13.0,300.01029,20278.535,0.0,-0.041394769485767036,-0.04139421075785854,0.0,0.0,0.0,-1.4995624239202885,-2.376136737806438,-2.2884692245793277,0.0017369954960031082,0.007664029516355822,-0.4462836254072646
8280,13.0,300.0206,20324.206000000002,0.0,-0.04139978397450528,-0.04139921296804572,0.0,0.0,0.0,-1.4957337570924285,-2.385611436841518,-2.296705833317218,-0.002988441240111187,0.001918430288059328,-0.4529388445815836
8281,13.0,299.69572,20392.185,0.0,-0.04140476547318639,-0.04140421517823267,0.0,0.0,0.0,-1.5093829452144987,-2.3893331044588177,-2.2999988961422178,-0.0038490793590745566,0.0014103822296188887,-0.4540103970923376
8282,13.0,299.69118,20435.612,0.0,-0.04140977996192485,-0.04140921738841985,0.0,0.0,0.0,-1.5102183699219485,-2.392934195314218,-2.3087633068571978,-0.005169926554207025,0.004168605548959336,-0.45574755359378155
8283,13.0,299.96963999999997,20371.115,0.0,-0.04141476146060563,-0.041414219598606916,0.0,0.0,0.0,-1.5171003646011485,-2.3847675008332274,-2.290442326499058,0.00927842934963468,0.005913477848589824,-0.45575583184709856
8284,13.0,299.85112999999996,20295.703,0.0,-0.041419775949344095,-0.04141922180879387,0.0,0.0,0.0,-1.5030967415940986,-2.3771042903269275,-2.289185997700068,0.01066340048264569,-0.0012353593855204787,-0.4543500587908595
8285,13.0,299.96166,20355.593999999997,0.0,-0.04142479043808256,-0.04142422401898105,0.0,0.0,0.0,-1.5103932568892087,-2.3859309145980476,-2.2912682266555677,0.0026307127856811377,0.0035307410022820066,-0.4598764160287686
8286,13.0,300.09938999999997,20430.008,0.0,-0.04142977193676334,-0.041429226229168004,0.0,0.0,0.0,-1.5095442546304185,-2.3883468068114775,-2.3123211319333277,0.003849570785373056,-0.0008710416744976202,-0.44909486754471256
8287,13.0,300.10598999999996,20405.389,0.0,-0.0414347864255018,-0.04143422843935518,0.0,0.0,0.0,-1.5121831631908587,-2.386657921544798,-2.303887648701008,-0.004139557593767526,0.0024570019991372177,-0.45219629437829956
8288,13.0,299.91646000000003,20348.511000000002,0.0,-0.04143976792418269,-0.041439230649542136,0.0,0.0,0.0,-1.5016667417279683,-2.3837451314823275,-2.300027469795038,-0.0025047831248278477,-0.005922909585820665,-0.44294445970271457
8289,13.0,300.03864,20365.923,0.0,-0.04144478241292093,-0.04144423285972931,0.0,0.0,0.0,-1.5148935058833484,-2.3807687093135774,-2.295069738380748,-0.004827853117797006,-0.001020484199088949,-0.44407170043896455
8290,13.0,299.98966,20456.088,0.0,-0.04144976391160182,-0.04144923506991649,0.0,0.0,0.0,-1.5156690475098886,-2.3938388250034977,-2.3086319896442378,-0.001826059369193028,0.00048290440919645454,-0.44297591098581857
8291,13.0,300.03636,20467.748,0.0,-0.0414547784003404,-0.041454237280103445,0.0,0.0,0.0,-1.5194858593115788,-2.394268949670948,-2.307929402024898,-0.0025166125157703176,0.006483601762481674,-0.45103660937384754
8292,13.0,299.84737,20395.831000000002,0.0,-0.04145979288907864,-0.04145923949029062,0.0,0.0,0.0,-1.5080865930365586,-2.386414842845808,-2.3053218028925477,0.005194942280625885,-0.006445442561065654,-0.4524098368368746
8293,13.0,299.93405,20379.207,0.0,-0.04146477438775953,-0.04146420879120016,0.0,0.0,0.0,-1.5067742315070385,-2.3933436496796276,-2.2946520766895278,-0.0005983187226319604,0.0027621992114078373,-0.4625142505441025
8294,13.0,299.96699,20392.846999999998,0.0,-0.041469788876498104,-0.04146921100138723,0.0,0.0,0.0,-1.5159466780372886,-2.381134897899718,-2.301834803998408,0.0024174857518622674,-0.004170295548801126,-0.4524470636455486
8295,13.0,300.17772,20448.565,0.0,-0.041474770375179104,-0.041474213211574296,0.0,0.0,0.0,-1.5236338012459485,-2.3900115767257777,-2.3022079840102374,-0.0035660459794913373,0.004566947195222596,-0.4534240900544736
8296,13.0,300.11225,20420.788,0.0,-0.04147978486391746,-0.04147921542176136,0.0,0.0,0.0,-1.5124378942659986,-2.388901459916218,-2.306070290741418,-0.0011424785992038588,-0.0032813312126921765,-0.4485745230883586
8297,13.0,299.93717000000004,20357.131,0.0,-0.041484766362598346,-0.04148421763194854,0.0,0.0,0.0,-1.5043023065630787,-2.3804399096561273,-2.3033173915447276,0.0015025182771120087,-0.0017494200700543185,-0.44807462601902254
8298,13.0,300.15554,20424.066000000003,0.0,-0.04148978085133681,-0.041489219842135494,0.0,0.0,0.0,-1.5029112155007884,-2.3983850755521776,-2.307109682693998,0.0015149351504624585,-0.0014258895157743387,-0.4504833545542456
8299,13.0,300.03493,20520.488,0.0,-0.04149476235001759,-0.04149422205232245,0.0,0.0,0.0,-1.5199457735319686,-2.4005428929651376,-2.3172273902425378,-0.004653881925977385,0.005634478622954745,-0.45000533355456857
8300,13.0,300.20071,20534.663,0.0,-0.04149977683875605,-0.041499224262509626,0.0,0.0,0.0,-1.5228535986689486,-2.399101139397848,-2.320070164723098,-0.0010025989973338173,-0.006132914180346505,-0.4494186718791696
8301,13.0,300.12641,20415.797,0.0,-0.04150479132749452,-0.04150422647269658,0.0,0.0,0.0,-1.5135688840276185,-2.3960763851993274,-2.296247337646968,0.0036777705832176967,0.0006231412729192554,-0.4550629308987146
8302,13.0,300.05163999999996,20338.212,0.0,-0.041509772826175184,-0.04150922868288376,0.0,0.0,0.0,-1.4996238268763487,-2.3798942744772775,-2.302790400167718,0.007776211095877283,0.003005281760748217,-0.4516023170371785
8303,13.0,299.94704,20429.431,0.0,-0.04151478731491376,-0.041514230893070936,0.0,0.0,0.0,-1.5141660936365586,-2.3916125118837774,-2.3042581942625775,0.0003044856675203957,0.001964047516836398,-0.45600353096654456
8304,13.0,300.11633,20518.345,0.0,-0.04151976881359465,-0.041519233103258,0.0,0.0,0.0,-1.5159932875418884,-2.399569463594068,-2.321501785789388,-0.005530163005284595,-0.004850404417322645,-0.4536524563620116
8305,13.0,299.80664,20454.182,0.0,-0.04152478330233289,-0.04152423531344507,0.0,0.0,0.0,-1.5204357812803286,-2.389354788010958,-2.3077701191091777,-0.002406947241547198,-0.00043715302610614456,-0.4537154805182316
8306,13.0,299.98451,20394.456000000002,0.0,-0.04152976480101378,-0.041529237523632134,0.0,0.0,0.0,-1.5115229294256984,-2.3893845775638978,-2.298497766119068,0.0028111004850840176,-0.0005378128678129975,-0.4478357219104446
8307,13.0,299.84516,20458.225,0.0,-0.041534779289752355,-0.04153423973381931,0.0,0.0,0.0,-1.5193457268227486,-2.3916951930919375,-2.307748638207058,0.0004786016831768086,0.0046552956125169055,-0.4462071148922136
8308,13.0,299.87703,20585.13,0.0,-0.041539760788433355,-0.04153920903472885,0.0,0.0,0.0,-1.5279197478439384,-2.4058909283179477,-2.323554833142008,0.001059412862630909,-0.004975383041632075,-0.4430713692777396
8309,13.0,299.95047999999997,20577.049,0.0,-0.04154477527717171,-0.04154421124491581,0.0,0.0,0.0,-1.5236013772427486,-2.4116336245847076,-2.319674085259008,-0.0016765810667406685,-0.00021585617464834584,-0.45214672618340757
8310,13.0,299.99871,20443.349,0.0,-0.04154978976590995,-0.041549213455102985,0.0,0.0,0.0,-1.5048941459464884,-2.3957511319172275,-2.3136224490367576,0.0018835613123680283,-0.001993393266232598,-0.45009854243126757
8311,13.0,300.06144,20386.33,0.0,-0.04155477126459106,-0.04155421566529016,0.0,0.0,0.0,-1.5042127352542385,-2.3970867981990476,-2.295635739886608,-0.0019971634685296883,0.0051806108712114845,-0.45810659234410056
8312,13.0,300.06757999999996,20461.031000000003,0.0,-0.041559785753329415,-0.04155921787547712,0.0,0.0,0.0,-1.5132749401736085,-2.3981338908523875,-2.3082337823549377,-0.0029772146316532073,-0.0029096574984608377,-0.4555528474545656
8313,13.0,300.16702000000004,20507.772,0.0,-0.041564767252010304,-0.041564220085664294,0.0,0.0,0.0,-1.5234881972065786,-2.400152082401568,-2.310210430650018,-0.003421028003979177,0.0036849233183236167,-0.4576544902819815
8314,13.0,300.04069,20442.5,0.0,-0.04156978174074877,-0.04156922229585125,0.0,0.0,0.0,-1.5073474270886087,-2.3971908589843176,-2.309471163377058,0.005300432863111995,0.005602304588554415,-0.4547373027140776
8315,13.0,300.05334,20401.539,0.0,-0.041574763239429435,-0.041574224506038204,0.0,0.0,0.0,-1.5139654701167586,-2.3877388567514775,-2.2998542040279375,0.005986244708496354,0.006159351699305683,-0.45709683795694556
8316,13.0,299.9714,20503.056,0.0,-0.04157977772816801,-0.04157922671622538,0.0,0.0,0.0,-1.5168790707793085,-2.403009447683568,-2.312528442903788,0.0047166693869740255,-0.0017214741256712683,-0.4581247903158966
8317,13.0,300.13313,20615.726000000002,0.0,-0.041584792216906474,-0.04158422892641245,0.0,0.0,0.0,-1.5379037063792784,-2.408494069149858,-2.320268255117648,-0.004531187471368385,-0.003452251103160656,-0.4549192419020336
8318,13.0,300.04472000000004,20584.577,0.0,-0.04158977371558714,-0.041589231136599625,0.0,0.0,0.0,-1.5299227406416185,-2.4042984031357775,-2.3229764699849276,-0.0027727510966242272,-0.003356722187707687,-0.4519056435871146
8319,13.0,299.77772999999996,20476.543,0.0,-0.041594788204325606,-0.04159423334678658,0.0,0.0,0.0,-1.5176484315802385,-2.3972977568698677,-2.3094115842711775,-0.0015699849270704486,-0.0026185346340542475,-0.4487627038969306
8320,13.0,299.83881,20432.113999999998,0.0,-0.041599769703006495,-0.04159923555697376,0.0,0.0,0.0,-1.5093764604138586,-2.392069285028858,-2.3094069233207177,0.0025357937454633574,-0.007131412270815592,-0.4509677894270556
8321,13.0,299.89941,20505.135,0.0,-0.04160478419174485,-0.041604237767160934,0.0,0.0,0.0,-1.5159273249603786,-2.4022284345064873,-2.3148934699621977,0.0016302214296153282,-0.002234943477446748,-0.4520155609579626
8322,13.0,300.06248999999997,20553.854,0.0,-0.04160976569042596,-0.04160920706807025,0.0,0.0,0.0,-1.5226655394503885,-2.403358512343018,-2.321834334472208,0.0015266276513164188,0.0015206082364473488,-0.4547152239943986
8323,13.0,299.98761,20508.303,0.0,-0.0416147801791642,-0.04161420927825743,0.0,0.0,0.0,-1.5240061706576986,-2.3959536806122177,-2.3140521684041677,0.004522115133948016,0.005134423689253165,-0.45304408073696956
8324,13.0,299.98827,20451.287,0.0,-0.04161976167784531,-0.04161921148844461,0.0,0.0,0.0,-1.5150969665034286,-2.3966552549814577,-2.304928459203728,-0.0005395933914187215,0.0034265019863194165,-0.4581625237496205
8325,13.0,299.84209,20501.277,0.0,-0.041624776166583666,-0.04162421369863156,0.0,0.0,0.0,-1.5183921571536385,-2.3983581230995177,-2.315126112185158,0.001006041909716106,0.007752191900931773,-0.4547859691163806
8326,13.0,300.13966,20619.531000000003,0.0,-0.04162979065532191,-0.04162921590881874,0.0,0.0,0.0,-1.5281644477430885,-2.411875892683618,-2.327782416534238,-0.0029679155288604574,0.002972660173778717,-0.4507368494642636
8327,13.0,300.10092000000003,20601.556,0.0,-0.04163477215400302,-0.041634218119005695,0.0,0.0,0.0,-1.5279982747266885,-2.4074561970724275,-2.326904131347558,0.001036136380008699,-0.0015565721301967084,-0.4502697107706606
8328,13.0,299.94827999999995,20531.783,0.0,-0.04163978664274126,-0.04163922032919287,0.0,0.0,0.0,-1.5219345808282487,-2.402030546761958,-2.3171842257882775,0.0002969061413398547,-0.0038749623262540065,-0.4586945408471266
8329,13.0,299.99686,20481.566000000003,0.0,-0.04164476814142215,-0.04164422253937983,0.0,0.0,0.0,-1.5219435987541385,-2.3979833218875273,-2.305957617330298,0.007138544842244523,-0.0017952864570309785,-0.4586112618214076
8330,13.0,299.96619,20515.036,0.0,-0.041649782630160725,-0.04164922474956689,0.0,0.0,0.0,-1.5123205599044185,-2.4055613180604176,-2.318176805586238,0.006274413644886414,0.002218072660631728,-0.45971643397047957
8331,13.0,299.76595,20585.403000000002,0.0,-0.04165476412884139,-0.04165422695975407,0.0,0.0,0.0,-1.5234017669730486,-2.409983445471848,-2.3240631807171774,0.004560829799068855,0.003065912518907007,-0.4524136871872545
8332,13.0,299.84684,20568.712,0.0,-0.04165977861757986,-0.041659229169941026,0.0,0.0,0.0,-1.5215399199142985,-2.406665963319438,-2.324168862702608,0.004859421836587595,0.004599964051056105,-0.45539883343936555
8333,13.0,299.87511,20492.125,0.0,-0.041664760116260746,-0.0416642313801282,0.0,0.0,0.0,-1.5133871069596787,-2.4005719732430078,-2.315135130111048,-0.0020805316602574876,0.003914474216553527,-0.4513976506494796
8334,13.0,300.0057,20514.589,0.0,-0.0416697746049991,-0.04166923359031538,0.0,0.0,0.0,-1.5211042223712985,-2.404589915189548,-2.3102287704768276,-0.0064231729450678135,0.0061830699589714945,-0.4572474879818136
8335,13.0,300.21786000000003,20674.115,0.0,-0.04167478909373756,-0.041674235800502335,0.0,0.0,0.0,-1.5445040175306786,-2.410354295008448,-2.3295565161343275,-0.004419858237831045,0.0015291818521684986,-0.4472905528266406
8336,13.0,300.2639,20711.643,0.0,-0.04167977059241845,-0.041679205101411876,0.0,0.0,0.0,-1.5406208378474384,-2.4164889164138876,-2.338712548012958,-0.004341343514082246,0.0018093252398164981,-0.4532748991097496
8337,13.0,300.19115,20594.795,0.0,-0.041684785081156805,-0.04168420731159905,0.0,0.0,0.0,-1.5279004960920386,-2.405986680452398,-2.326416352749418,0.003949738055808796,-0.0005822966547632054,-0.44735541096554154
8338,13.0,299.95079,20522.754,0.0,-0.04168976657983792,-0.04168920952178601,0.0,0.0,0.0,-1.5151545191091085,-2.4022071562543874,-2.3210431887941274,0.003464883596132387,0.001066429315598379,-0.45347127711163054
8339,13.0,299.92309,20581.439,0.0,-0.04169478106857616,-0.041694211731973185,0.0,0.0,0.0,-1.5244320396747286,-2.4092043574699575,-2.322607140323478,0.005880718662256744,-0.003624125779198366,-0.4503875821547936
8340,13.0,300.01232999999996,20591.194,0.0,-0.04169976256725727,-0.04169921394216014,0.0,0.0,0.0,-1.5252121409267183,-2.4120191662477577,-2.3219775067113377,-0.0024658002524055376,-0.003753651971281606,-0.46223921393695855
8341,13.0,300.0662,20558.362,0.0,-0.04170477705599551,-0.04170421615234732,0.0,0.0,0.0,-1.5215953446947685,-2.409395456438818,-2.318238005892278,-0.0017619548857164082,-0.003044194009638557,-0.4618384228599035
8342,13.0,300.00711,20505.685,0.0,-0.04170979154473409,-0.041709218362534495,0.0,0.0,0.0,-1.5079853693515686,-2.4114880205453377,-2.3137428231486377,-0.0048926478272417456,0.002163952642315498,-0.4617726325309105
8343,13.0,300.11027,20501.631999999998,0.0,-0.04171477304341498,-0.04171422057272145,0.0,0.0,0.0,-1.5142219237170687,-2.4043153244124476,-2.313446852794428,-0.002784544213213117,-0.0005359023543519445,-0.45557757075700556
8344,13.0,299.88432,20629.256999999998,0.0,-0.04171978753215322,-0.04171922278290863,0.0,0.0,0.0,-1.5213598653715286,-2.4183293838955278,-2.331089766185648,-0.0014486912907246987,0.003146078435018767,-0.4572142837760365
8345,13.0,300.04767000000004,20734.728,0.0,-0.04172476903083411,-0.04172422499309569,0.0,0.0,0.0,-1.5416752259014985,-2.423424917323418,-2.3377392199668976,0.0027651412843981977,-0.002034773083091468,-0.44766923478651355
8346,13.0,299.88406000000003,20637.986,0.0,-0.04172978351957268,-0.04172922720328265,0.0,0.0,0.0,-1.5299543540447385,-2.4154770848640275,-2.328001075905818,0.005206232014565095,0.001035031126799619,-0.4543553479563816
8347,13.0,299.89702,20554.157,0.0,-0.04173476501825335,-0.041734229413469826,0.0,0.0,0.0,-1.5208165606679087,-2.409903905338998,-2.317230126017808,0.006048856674575675,-0.004752595182519625,-0.45673673900390654
8348,13.0,300.15424,20658.825,0.0,-0.041739779506991814,-0.04173923162365678,0.0,0.0,0.0,-1.5336111736556384,-2.4156975680857875,-2.330458106073308,0.0019026065638976482,-0.003254734106842247,-0.45932972706981456
8349,13.0,300.35402,20689.531000000003,0.0,-0.041744761005672704,-0.04174423383384396,0.0,0.0,0.0,-1.5369269332828785,-2.4171414494782875,-2.3350322209997376,-0.00036574878493409466,-0.008301336370178112,-0.45203317124470055
8350,13.0,300.22362999999996,20565.825,0.0,-0.04174977549441106,-0.04174923604403091,0.0,0.0,0.0,-1.5212045341311986,-2.4068068050833378,-2.323486033460218,-0.007251029586195904,-0.002243339470425368,-0.45992975351403254
8351,13.0,300.04105,20514.501,0.0,-0.04175478998314952,-0.041754205344940454,0.0,0.0,0.0,-1.5181429989540487,-2.4021097829197777,-2.3156431737111878,-0.0006465814359626194,-0.004597984363010725,-0.45465204785066354
8352,13.0,299.86177000000004,20577.375,0.0,-0.04175977148183041,-0.04175920755512763,0.0,0.0,0.0,-1.5227274490314986,-2.4125847624535774,-2.319695870136158,-0.004028957292352126,0.0011346818423343791,-0.4660811746061305
8353,13.0,299.8032,20666.655,0.0,-0.04176478597056876,-0.041764209765314586,0.0,0.0,0.0,-1.5309439954174087,-2.4172321353622377,-2.3339710441700077,0.0028923514907278672,0.002066663508788808,-0.45984096240776956
8354,13.0,299.95641,20717.713,0.0,-0.04176976746924976,-0.04176921197550176,0.0,0.0,0.0,-1.5370912824490985,-2.4241445275444375,-2.336431620712848,-8.870735708923451e-05,0.0027553601785328774,-0.45701916220427957
8355,13.0,299.97904,20650.154,0.0,-0.04177478195798834,-0.04177421418568894,0.0,0.0,0.0,-1.5315762634798087,-2.4137386516674577,-2.331816367832358,0.007294656487801543,-0.0017262942577219783,-0.44760489340516363
8356,13.0,300.14072000000004,20602.356,0.0,-0.04177976345666923,-0.04177921639587601,0.0,0.0,0.0,-1.5212588443365587,-2.415462696712608,-2.325880242121508,1.062645231774919e-05,0.002162770990048878,-0.45445991536670155
8357,13.0,300.19723,20659.514,0.0,-0.04178477794540747,-0.04178421860606307,0.0,0.0,0.0,-1.5325695525528384,-2.4170062819149476,-2.330400452142618,0.002821016758512677,-0.0008294874063690332,-0.4490417023119656
8358,13.0,300.28902999999997,20733.335,0.0,-0.04178975944408836,-0.04178922081625014,0.0,0.0,0.0,-1.5398136828177786,-2.4214038886739577,-2.341198455808298,-0.004698029232834386,0.001968319075282968,-0.4561117055472206
8359,13.0,300.30397999999997,20644.361,0.0,-0.04179477393282682,-0.041794223026437316,0.0,0.0,0.0,-1.5280830837600587,-2.4174154323053276,-2.3298718395654476,0.0019506249927616983,-0.0005438620621025066,-0.4648261326347676
8360,13.0,300.03234,20522.095,0.0,-0.041799788421565176,-0.04179922523662427,0.0,0.0,0.0,-1.5139315262384085,-2.4078488314861777,-2.316424186888268,-0.0003504050576097867,0.0046293007825264154,-0.47098979378807354
8361,13.0,299.81067,20582.301,0.0,-0.041804769920246065,-0.041804227446811226,0.0,0.0,0.0,-1.5222349081578885,-2.410640639486708,-2.323630117624438,0.0016955320860109883,0.0007162537388712403,-0.46050010186282153
8362,13.0,299.90279,20676.729,0.0,-0.04180978440898453,-0.0418092296569984,0.0,0.0,0.0,-1.5333613061809785,-2.416692377033968,-2.335155837511938,-0.0018119200719975883,-0.0004878029465399025,-0.46022984779614956
8363,13.0,299.94024,20678.152,0.0,-0.04181476590766531,-0.04181423186718536,0.0,0.0,0.0,-1.5360170346930786,-2.419277583339108,-2.3303473578373777,0.0006582617980803814,0.001080733975210139,-0.45443091614883957
8364,13.0,300.19115,20675.008,0.0,-0.04181978039640377,-0.041819234077372536,0.0,0.0,0.0,-1.5303624911850187,-2.4212143095802476,-2.333109376284968,-0.003727371404762916,0.003547559130091827,-0.4617804041591776
8365,13.0,300.23264,20661.244,0.0,-0.04182476189508466,-0.04182420337828208,0.0,0.0,0.0,-1.5285769418587984,-2.4182763909152976,-2.3336488306382077,1.2261282718094388e-05,0.0013713369409904187,-0.44981760870854154
8366,13.0,299.82979,20682.95,0.0,-0.041829776383823014,-0.04182920558846903,0.0,0.0,0.0,-1.5306928107176183,-2.421166382850518,-2.3352413558203775,-0.0019248667566695583,0.0012012765905817689,-0.4530666154191935
8367,13.0,299.76691,20822.21,0.0,-0.04183479087256148,-0.04183420779865621,0.0,0.0,0.0,-1.5486716165169885,-2.4300046594977878,-2.350755633401518,0.003212302333729557,-0.0021473397989759378,-0.44062597122139757
8368,13.0,299.8416,20722.765,0.0,-0.04183977237124248,-0.041839210008843386,0.0,0.0,0.0,-1.5391011653474587,-2.4182012077578774,-2.3419006381275977,0.004613676465984416,0.0009537953908347759,-0.4548381413640296
8369,13.0,299.85508,20560.776,0.0,-0.04184478685998083,-0.04184421221903045,0.0,0.0,0.0,-1.5241514707220385,-2.4069586912733274,-2.318852238102898,0.008081074036939914,-0.0017040441974510686,-0.45508888023377553
8370,13.0,300.1525,20612.161,0.0,-0.04184976835866172,-0.04184921442921763,0.0,0.0,0.0,-1.5222161630310385,-2.4131615044104975,-2.330204793548308,0.0028700791389547576,-0.0015719140539358384,-0.46915279162177553
8371,13.0,300.16396000000003,20712.81,0.0,-0.041854782847400185,-0.041854216639404584,0.0,0.0,0.0,-1.5385794428709685,-2.4176304439765475,-2.339967255611788,-0.005091869819503425,-0.001011399348029844,-0.4639938895326316
8372,13.0,300.2589,20694.926,0.0,-0.041859764346081074,-0.04185921884959176,0.0,0.0,0.0,-1.5322096461173185,-2.4245640130858375,-2.3339668898445978,-0.004895985473071145,0.0004030347066189286,-0.4685526638525475
8373,13.0,300.17472999999995,20633.331000000002,0.0,-0.04186477883481943,-0.04186422105977894,0.0,0.0,0.0,-1.5278466925117287,-2.416865541476058,-2.327305277062148,-0.007619396052100843,-0.0013505331939122488,-0.4602318438988465
8374,13.0,300.00647000000004,20655.529,0.0,-0.04186976033350032,-0.041869223269965894,0.0,0.0,0.0,-1.5301652113905486,-2.421549594038338,-2.3270501406869677,-0.0004960982933860896,0.0009377267742564273,-0.4558624156251176
8375,13.0,300.10827,20747.32,0.0,-0.04187477482223878,-0.04187422548015307,0.0,0.0,0.0,-1.5381919760327287,-2.430673404563788,-2.3378017374980677,0.0034329667246074365,0.0025230833335589376,-0.4537595062350766
8376,13.0,300.05171,20814.683999999997,0.0,-0.041879789310977134,-0.041879227690340026,0.0,0.0,0.0,-1.5400767225437386,-2.439061798166658,-2.3480057739551277,0.004776693613622956,0.0053118795494916955,-0.45595942418969154
8377,13.0,299.68959,20748.304,0.0,-0.04188477080965802,-0.04188422990052698,0.0,0.0,0.0,-1.5376079386750883,-2.4304821029449077,-2.338876187904108,0.0048247871243194155,0.0026645774278733175,-0.45748055576981556
8378,13.0,299.71075,20616.835,0.0,-0.04188978529839649,-0.04188923211071416,0.0,0.0,0.0,-1.5185336068675985,-2.4171199685761677,-2.3313494621862776,0.0017204132528165685,-0.0015254467083248683,-0.4526208867002036
8379,13.0,299.8934,20614.553,0.0,-0.041894766797077154,-0.0418942014116237,0.0,0.0,0.0,-1.5209787820089185,-2.4166631954310875,-2.3286674904965876,-0.0006859289365659154,0.002097130723395688,-0.46078361937330253
8380,13.0,299.89596,20733.293,0.0,-0.04189978128581573,-0.041899203621810654,0.0,0.0,0.0,-1.5395105183878586,-2.4211767180015378,-2.341716226609398,-0.003229249448277107,-0.0031015239029465774,-0.45653735164922854
8381,13.0,299.95973,20739.476000000002,0.0,-0.04190476278449673,-0.04190420583199783,0.0,0.0,0.0,-1.5381355380021586,-2.4265590012077274,-2.339588502724408,0.0002626142115805048,-0.002819951123382507,-0.46303042041004455
8382,13.0,299.67838,20651.994,0.0,-0.04190977727323508,-0.0419092080421849,0.0,0.0,0.0,-1.5193165452198685,-2.426554340257268,-2.3318194075826577,0.0004213351686625437,-0.005776725156793385,-0.4627277930026775
8383,13.0,299.83742,20716.063000000002,0.0,-0.04191475877191597,-0.041914210252372075,0.0,0.0,0.0,-1.5334072064105086,-2.424891090218118,-2.3388673726282376,0.008195581025440872,0.004482968013684496,-0.4604153840219606
8384,13.0,300.00604,20848.746,0.0,-0.041919773260654436,-0.04191921246255903,0.0,0.0,0.0,-1.5463558334134384,-2.4407166382299774,-2.3504257191689577,0.0012107201828387788,0.0049981849179074455,-0.45619877412831356
8385,13.0,300.18384,20834.682,0.0,-0.04192478774939279,-0.04192421467274621,0.0,0.0,0.0,-1.5499714137452685,-2.4367051810840774,-2.3465463898360976,-0.0018770925210796082,0.006559481022720374,-0.4524498500833236
8386,13.0,300.01187999999996,20756.985,0.0,-0.04192976924807368,-0.041929216882933384,0.0,0.0,0.0,-1.5404778682583287,-2.427778245053058,-2.341349024773158,-0.003937685648519316,0.002946898188661207,-0.4514306420727356
8387,13.0,299.95687999999996,20706.424,0.0,-0.04193478373681214,-0.04193421909312034,0.0,0.0,0.0,-1.5319332314900385,-2.429758743698518,-2.3325437800791478,-0.003825248527322637,0.006323715658977144,-0.4538631211903026
8388,13.0,299.98037999999997,20692.164,0.0,-0.04193976523549303,-0.04193922130330752,0.0,0.0,0.0,-1.5229177374002785,-2.4258866084413677,-2.341096826823268,-0.0014747048658420386,-0.00035873716516960166,-0.4656317171267726
8389,13.0,300.20203,20749.987,0.0,-0.041944779724231385,-0.04194422351349447,0.0,0.0,0.0,-1.5372271592875086,-2.4324830692423873,-2.337767793619718,-0.003188217480177567,-0.002628184118731577,-0.46640329694542154
8390,13.0,300.02362999999997,20741.488999999998,0.0,-0.041949761222912274,-0.04194922572368165,0.0,0.0,0.0,-1.5309030601133684,-2.4274245194431474,-2.346567262788158,0.0015836137488655084,-0.005940247713581805,-0.4639099620268486
8391,13.0,299.87405,20633.448,0.0,-0.04195477571165074,-0.041954227933868604,0.0,0.0,0.0,-1.5281020315369287,-2.414282361671118,-2.3296685815953877,0.0029183884719225176,0.0007854486591277472,-0.46295892548298856
8392,13.0,299.81346,20688.027,0.0,-0.04195979020038909,-0.04195923014405567,0.0,0.0,0.0,-1.5283114703325986,-2.4256080659888775,-2.334723990319318,0.008426571853387892,-0.001181310497361269,-0.46239433239476757
8393,13.0,299.95234,20857.78,0.0,-0.04196477169906998,-0.04196419944496532,0.0,0.0,0.0,-1.5515965655806585,-2.434898860130808,-2.353748774196918,0.004139472480759126,-0.002334617599058818,-0.45575730105974355
8394,13.0,299.97307,20867.307,0.0,-0.041969786187808444,-0.0419692016551525,0.0,0.0,0.0,-1.5463376962366486,-2.4421317433196377,-2.354670730462908,0.00031372562690480866,-0.006453466387282544,-0.45665984345381755
8395,13.0,300.00234,20747.543999999998,0.0,-0.041974767686489334,-0.041974203865339454,0.0,0.0,0.0,-1.5340517347991185,-2.4342886809205875,-2.338394792781598,-0.002207815732519448,0.0004208631765009616,-0.4600578789891776
8396,13.0,299.98441,20747.263,0.0,-0.041979782175227576,-0.04197920607552652,0.0,0.0,0.0,-1.5361841196345685,-2.431799226749898,-2.3386666477834277,-0.0037403132429901765,-0.00039863275301698964,-0.4543035303462676
8397,13.0,299.99634,20791.077,0.0,-0.04198476367390869,-0.041984208285713476,0.0,0.0,0.0,-1.5452754048318085,-2.4367504733635474,-2.337942376611948,-0.0072420067967054235,0.003797559340514927,-0.45768127048212454
8398,13.0,300.01516000000004,20754.081000000002,0.0,-0.04198977816264704,-0.04198921049590065,0.0,0.0,0.0,-1.5376301288522787,-2.427853833510518,-2.3432384322346276,-0.0010714708427959389,-0.0034779485442467967,-0.4584509656555875
8399,13.0,300.232,20770.375,0.0,-0.04199475966132793,-0.04199421270608783,0.0,0.0,0.0,-1.5341742367362086,-2.4332506061931376,-2.346250622131908,-0.0019502481650495083,0.003949004564061406,-0.46336251313031956
8400,13.0,300.12465,20755.874,0.0,-0.041999774150066393,-0.041999214916274785,0.0,0.0,0.0,-1.5367132388367883,-2.4283217524066973,-2.344232329257718,0.004543605661943965,-0.005123081063658735,-0.4679348548690746
8401,13.0,299.98635,20748.756999999998,0.0,-0.042004788638804746,-0.04200421712646196,0.0,0.0,0.0,-1.5366325841288284,-2.4271004820611677,-2.3433709653477077,0.0016741661877773383,-0.0007422311510925113,-0.46644315820435556
8402,13.0,300.0289,20842.771,0.0,-0.042009770137485636,-0.04200921933664892,0.0,0.0,0.0,-1.5449549138251786,-2.4372032948332376,-2.3535236300246978,0.0009763025227885572,-0.0065148598187916035,-0.45884558603953357
8403,13.0,299.88971000000004,20866.258,0.0,-0.0420147846262241,-0.042014221546836095,0.0,0.0,0.0,-1.5569313273571586,-2.4315974886549876,-2.3542925855255876,-0.0033645245174527163,-0.0031265848203198975,-0.4512755134824255
8404,13.0,299.74125,20750.456000000002,0.0,-0.04201976612490499,-0.04201922375702327,0.0,0.0,0.0,-1.5361144080276883,-2.429541908177118,-2.341964168908868,-0.001057905349132129,-0.003641901529677697,-0.45967061480095756
8405,13.0,300.01041000000004,20762.69,0.0,-0.04202478061364334,-0.04202422596721023,0.0,0.0,0.0,-1.5366792949584385,-2.4378481271968777,-2.336811792150368,-0.0026133540889429676,0.0026718589470669475,-0.4621872139418266
8406,13.0,299.99965,20841.474,0.0,-0.04202976211232423,-0.042029228177397404,0.0,0.0,0.0,-1.5444805101283587,-2.4374876128112977,-2.353319561454558,0.005342360949599975,0.002011758930920148,-0.46444749120489853
8407,13.0,299.98413999999997,20825.902,0.0,-0.042034776601062696,-0.04203423038758447,0.0,0.0,0.0,-1.5432361376805486,-2.4424720940282274,-2.344845852193268,-0.0021831091487060977,0.0074413688201309235,-0.46493975850098157
8408,13.0,300.21335,20790.706000000002,0.0,-0.042039758099743585,-0.0420391996884939,0.0,0.0,0.0,-1.5323169493029087,-2.4405711355156177,-2.346967496577658,-0.0020772966566632183,0.0015280868327854284,-0.4670398814532476
8409,13.0,300.15824,20789.617,0.0,-0.04204477258848183,-0.04204420189868108,0.0,0.0,0.0,-1.5421438540727486,-2.434259195342677,-2.3431215031730876,-0.0059061921750707845,-0.00010354561852165689,-0.4590347902307066
8410,13.0,300.0165,20815.712,0.0,-0.0420497870772204,-0.04204920410886814,0.0,0.0,0.0,-1.5354063488578087,-2.4369052979788273,-2.3551451341597276,-0.0014066956204550486,-0.0004366631298152955,-0.4591975789917726
8411,13.0,300.16146000000003,20853.539,0.0,-0.04205476857590129,-0.0420542063190551,0.0,0.0,0.0,-1.5428873769961287,-2.4411584152735775,-2.354909452186468,-0.0007815685191948072,0.0016211587180709084,-0.46240263091308653
8412,13.0,300.04319,20913.076,0.0,-0.04205978306463953,-0.042059208529242276,0.0,0.0,0.0,-1.5492038767945184,-2.446374728113388,-2.3614745022343877,0.002076547864839318,-0.0006469121101327544,-0.45887610513254556
8413,13.0,300.0689,20878.881,0.0,-0.042064764563320645,-0.04206421073942923,0.0,0.0,0.0,-1.5472732300539787,-2.4436305428675578,-2.3557546040948774,-0.001158649766824829,0.004277878999368785,-0.4616763028439036
8414,13.0,299.9394,20803.01,0.0,-0.042069779052059,-0.04206921294961641,0.0,0.0,0.0,-1.5390786711952384,-2.4350555085962675,-2.3494613077237774,0.005114109848598346,-0.003073664996747117,-0.45181327570799856
8415,13.0,299.89297999999997,20863.351000000002,0.0,-0.04207476055073989,-0.04207421515980336,0.0,0.0,0.0,-1.5509736194191786,-2.4419475344514576,-2.3490164909298774,0.0031618654795268273,0.0015768052148185585,-0.4572302931276166
8416,13.0,299.95455,20930.147,0.0,-0.04207977503947835,-0.04207921736999054,0.0,0.0,0.0,-1.5546060197026685,-2.4427426318049275,-2.3648934107218076,0.005101708072674385,-0.004659471418829026,-0.4548897259266205
8417,13.0,300.03628,20822.387,0.0,-0.04208478952821659,-0.04208421958017772,0.0,0.0,0.0,-1.5402469485605383,-2.442481111954118,-2.346757753806958,0.0009738066750097361,0.003787127322785366,-0.4692483917687106
8418,13.0,300.08171,20742.574,0.0,-0.04208977102689748,-0.042089221790364784,0.0,0.0,0.0,-1.5262091790251184,-2.4359118062557776,-2.343103467321308,-0.002039240300132348,0.0014866759091484885,-0.4664086975684546
8419,13.0,300.165,20817.333,0.0,-0.04209478551563606,-0.04209422400055185,0.0,0.0,0.0,-1.5379395754328185,-2.4410267940855874,-2.348982952351568,-0.006998185284067113,0.004243997638549956,-0.4687626092732675
8420,13.0,299.99406,20862.28,0.0,-0.04209976701431695,-0.042099226210738916,0.0,0.0,0.0,-1.5443951944699383,-2.4455209635791273,-2.351695929494318,-0.003584693530356707,-0.001812210064176208,-0.46370489033910955
8421,13.0,300.03708,20877.221999999998,0.0,-0.04210478150305519,-0.04210422842092609,0.0,0.0,0.0,-1.5521850612387385,-2.4411185945446476,-2.352850527983268,-0.0026528366963145976,0.0022919908766268877,-0.45950932565003955
8422,13.0,299.90514,20868.21,0.0,-0.04210976300173608,-0.04210919772183552,0.0,0.0,0.0,-1.5417337917572786,-2.4425473785106577,-2.3591334892033475,0.004662384816841556,-0.0005728988512782144,-0.4620667081074336
8423,13.0,299.73926,20831.439,0.0,-0.04211477749047465,-0.04211419993202259,0.0,0.0,0.0,-1.5434493255015884,-2.4370041911885876,-2.351783980928008,0.0026129449385525875,0.003755717886910496,-0.4617958967532066
8424,13.0,299.89252,20891.509,0.0,-0.04211975898915554,-0.042119202142209766,0.0,0.0,0.0,-1.5436516715465587,-2.4430215795574575,-2.3638237225912375,0.004758009281778956,0.0002933036623318177,-0.4706919691861805
8425,13.0,300.0452,20950.697,0.0,-0.042124773477893784,-0.04212420435239694,0.0,0.0,0.0,-1.5593375936946385,-2.4483001059534075,-2.3608510494478576,-0.0027393736250801277,-0.0034517153978327864,-0.46297073997915456
8426,13.0,299.95693,20847.863,0.0,-0.04212978796663225,-0.0421292065625839,0.0,0.0,0.0,-1.5501511643130086,-2.437619031349268,-2.349459483873598,7.064246049511804e-05,-0.0074167808879042835,-0.46450526672560055
8427,13.0,300.00164,20754.547,0.0,-0.04213476946531314,-0.042134208772770854,0.0,0.0,0.0,-1.5354470815118286,-2.4359084625304477,-2.3375084015941177,0.001253641761049809,-0.005902584092789694,-0.46119649852405054
8428,13.0,300.2656,20846.628,0.0,-0.04213978395405171,-0.04213921098295781,0.0,0.0,0.0,-1.5400458184156884,-2.4439509325491775,-2.352857620733968,0.005419592797397165,-0.001954793301023078,-0.46362336423606354
8429,13.0,300.16526,20977.502999999997,0.0,-0.0421447654527326,-0.042144213193144986,0.0,0.0,0.0,-1.5553972667057585,-2.4521517735585374,-2.369088164810798,0.002319082955150668,0.002143050913952658,-0.46113986797596157
8430,13.0,300.10098,20949.361,0.0,-0.042149779941470844,-0.04214921540333216,0.0,0.0,0.0,-1.5481543523409385,-2.4561408378772276,-2.363787346912648,-0.0003322613656216437,0.004594881183254466,-0.46289123024380757
8431,13.0,300.07864,20907.835,0.0,-0.04215476144015173,-0.04215421761351923,0.0,0.0,0.0,-1.5486983663196285,-2.4459300126444976,-2.360831291070908,-0.0038243412631830966,0.007851003138758682,-0.46269228871917356
8432,13.0,300.0368,20923.336,0.0,-0.04215977592889031,-0.042159219823706406,0.0,0.0,0.0,-1.5552675706929586,-2.440909358398998,-2.363994759208118,-0.002862931064799297,0.0002882282824484167,-0.4555384694356466
8433,13.0,300.04056,20922.836,0.0,-0.0421647574275712,-0.04216422203389336,0.0,0.0,0.0,-1.5460540875336588,-2.449858991232258,-2.364106622019158,-0.0014776345771811785,-0.004396522986703036,-0.46657752530011654
8434,13.0,300.00268,20903.022,0.0,-0.04216977191630944,-0.04216922424408054,0.0,0.0,0.0,-1.5490545237297786,-2.440354705294258,-2.3645876118416274,0.0024863771327863177,-0.004392697663600505,-0.4634593899723805
8435,13.0,300.07086,20856.084,0.0,-0.042174786405047904,-0.042174226454267716,0.0,0.0,0.0,-1.5454029730193986,-2.4401153756206377,-2.3542105122674877,0.0015868834056131987,-0.001660242814178208,-0.46890548766986856
8436,13.0,300.02766,20803.293,0.0,-0.042179767903728904,-0.042179195755177035,0.0,0.0,0.0,-1.5374074164802987,-2.4395793663177376,-2.346694830975748,-0.001194443637207409,0.0019962653236410477,-0.4700429014371226
8437,13.0,300.00184,20879.135,0.0,-0.042184782392467146,-0.04218419796536421,0.0,0.0,0.0,-1.5492120841203287,-2.4458134888829974,-2.3517102163207273,-0.0008576736734108012,0.001012549478085853,-0.46880845884029254
8438,13.0,300.00802999999996,20998.657000000003,0.0,-0.04218976389114826,-0.04218920017555139,0.0,0.0,0.0,-1.5614569076037985,-2.4582177979322077,-2.3633926859986976,-4.9213204745965155e-05,0.0020465248590762776,-0.4612892210407016
8439,13.0,299.76788999999997,20978.822,0.0,-0.0421947783798865,-0.042194202385738344,0.0,0.0,0.0,-1.5530202832961686,-2.4569266133297774,-2.367091251513718,0.0007889677273875522,0.0008715592831787043,-0.4570233165296896
8440,13.0,299.98661,20912.131999999998,0.0,-0.04219975987856739,-0.04219920459592552,0.0,0.0,0.0,-1.5426050855182685,-2.4525309317459576,-2.361629833474718,0.0007131636097762684,-0.0008138411022998633,-0.46073920862141954
8441,13.0,300.02595,20944.78,0.0,-0.042204774367305964,-0.042204206806112476,0.0,0.0,0.0,-1.5504844222708984,-2.4547320149381875,-2.3614738942843276,0.0007775102802917902,-0.0027072816639378975,-0.4563498091882196
8442,13.0,300.00708,20965.07,0.0,-0.042209788856044206,-0.04220920901629943,0.0,0.0,0.0,-1.5459128404697184,-2.4557228722109774,-2.3712219681963878,-0.001007260261901348,0.0018446132957491584,-0.46210709625641955
8443,13.0,300.07505,20910.225,0.0,-0.042214770354725095,-0.04221421122648661,0.0,0.0,0.0,-1.5525885374285586,-2.4484026468635274,-2.355195087389658,-0.0023849730892785176,-0.00040302946811591165,-0.46212992478117254
8444,13.0,300.20612,20899.773999999998,0.0,-0.04221978484346367,-0.042219213436673675,0.0,0.0,0.0,-1.5505925360565684,-2.4448480641877177,-2.3575688283989273,-0.003320533656411157,0.0019421234191226583,-0.46357818341410456
8445,13.0,300.09746,20911.252,0.0,-0.04222476634214456,-0.04222421564686085,0.0,0.0,0.0,-1.5524975475695786,-2.447886699912608,-2.356114003905348,-0.00011019782834317888,-0.0003286397868492217,-0.46872986103003556
8446,13.0,300.05976,20908.369,0.0,-0.0422297808308828,-0.04222921785704781,0.0,0.0,0.0,-1.5429166599240185,-2.453491087540718,-2.359214245236318,0.003639653026380786,0.004393212192001285,-0.4705125529909735
8447,13.0,299.84372,20983.908,0.0,-0.04223476232956369,-0.042234220067234984,0.0,0.0,0.0,-1.5546411794811386,-2.459506044109348,-2.3644368402267477,0.0007702211921199133,-0.0015967213548091286,-0.4716208358178525
8448,13.0,299.94408,21059.353,0.0,-0.042239776818302155,-0.04223922227742216,0.0,0.0,0.0,-1.5590634082175785,-2.465034032679918,-2.3774199177330773,-0.002536368764895107,0.0036991792406055666,-0.46663058920785355
8449,13.0,300.01219,20965.011000000002,0.0,-0.042244758316983044,-0.04224422448760912,0.0,0.0,0.0,-1.5598670168718884,-2.4581080629463776,-2.354864666532048,-0.004648486774494925,-0.004637886962548806,-0.46632126421732556
8450,13.0,299.9004,20890.387,0.0,-0.0422497728057214,-0.042249226697796294,0.0,0.0,0.0,-1.5401754131034786,-2.4544805262633678,-2.355500075669758,-0.0006321614380919763,0.004808733696360065,-0.45753494703518355
8451,13.0,299.995,20978.351000000002,0.0,-0.04225478729445986,-0.042254195998705835,0.0,0.0,0.0,-1.5494255759163984,-2.456396582202468,-2.371072817781668,-0.0022549050110417974,-0.0004231804490821586,-0.45802258377830957
8452,13.0,299.7897,20985.257999999998,0.0,-0.04225976879314075,-0.04225919820889279,0.0,0.0,0.0,-1.5519576879162984,-2.451232046442768,-2.3758047970736778,-0.001025929405126349,0.0013101872974554186,-0.45472873061823155
8453,13.0,299.93914,20947.736,0.0,-0.042264783281879104,-0.04226420041907997,0.0,0.0,0.0,-1.5464826923259587,-2.453220144463977,-2.367885740917128,-0.002163133429609648,-0.0018282375529329981,-0.4645058037481536
8454,13.0,300.40005,20931.233,0.0,-0.042269764780560215,-0.04226920262926692,0.0,0.0,0.0,-1.5462023260232884,-2.4515145405706473,-2.364855312518048,-0.0022707867944342076,-0.002116128960120668,-0.46746192038489953
8455,13.0,300.37673,20943.42,0.0,-0.04227477926929846,-0.0422742048394541,0.0,0.0,0.0,-1.5587573053623685,-2.448910589138658,-2.358608726976558,0.002161249797673748,-0.006270355172935874,-0.4705296870501645
8456,13.0,300.11606,21007.995,0.0,-0.042279760767979346,-0.042279207049641276,0.0,0.0,0.0,-1.5576454660276384,-2.4618769480183373,-2.366383394993858,-0.004388432387304556,0.0028845484517077673,-0.47518386899949655
8457,13.0,300.24752,21065.955,0.0,-0.04228477525671781,-0.04228420925982823,0.0,0.0,0.0,-1.5727407646924285,-2.4618727936929274,-2.3689106433932774,0.006651137802916192,-0.005443293527836245,-0.46929056323787255
8458,13.0,300.09185,20984.5,0.0,-0.04228975675539881,-0.0422892114700153,0.0,0.0,0.0,-1.5516759030634883,-2.4616952722754077,-2.365392943021108,-0.0006034513410135105,0.005170910926679175,-0.4689930831410135
8459,13.0,300.05755,20897.575,0.0,-0.04229477124413705,-0.04229421368020225,0.0,0.0,0.0,-1.5388493726976087,-2.452404275483458,-2.3610873393711778,0.0030009532576460276,0.000910551345779421,-0.45965748307966153
8460,13.0,300.02502000000004,20982.802000000003,0.0,-0.04229978573287552,-0.04229921589038943,0.0,0.0,0.0,-1.5454496838490086,-2.4606928639514773,-2.372105319633568,0.0014340761712822985,0.004017109156282806,-0.4632536394070746
8461,13.0,299.94118,21066.727000000003,0.0,-0.042304767231556406,-0.04230421810057661,0.0,0.0,0.0,-1.5681333138377085,-2.4615309231091875,-2.374094633554898,0.0012884065746308288,0.0012222901817556487,-0.45486915694959057
8462,13.0,299.93192999999997,20997.743,0.0,-0.04230978172029476,-0.04230922031076356,0.0,0.0,0.0,-1.5464650617742184,-2.4574436748558077,-2.378880821727258,0.0025549728473311874,0.005591201697933645,-0.4644965021122356
8463,13.0,300.02526,20940.155,0.0,-0.04231476321897565,-0.04231422252095074,0.0,0.0,0.0,-1.5469685457489086,-2.4521325218066377,-2.3661829741240776,0.0037238994019702567,-0.005584169944889666,-0.4600341486718356
8464,13.0,300.15146,20998.807999999997,0.0,-0.04231977770771411,-0.042319224731137695,0.0,0.0,0.0,-1.5482631754016785,-2.459115537520808,-2.3757344775167377,-0.004540103970923376,0.0034918817463718966,-0.4716846300441485
8465,13.0,300.13917999999995,21066.222999999998,0.0,-0.042324759206395,-0.042324194032047235,0.0,0.0,0.0,-1.5630608825120984,-2.4607074547529177,-2.379837431146668,0.004911720943149115,-0.006332639048632813,-0.46775427343625253
8466,13.0,300.05624,21015.374,0.0,-0.042329773695133355,-0.04232919624223441,0.0,0.0,0.0,-1.5610268842613586,-2.4593969170735774,-2.367724938126258,-0.002150405488478498,0.001192368197027579,-0.47785970039358056
8467,13.0,300.18277,20986.947999999997,0.0,-0.04233478818387182,-0.04233419845242137,0.0,0.0,0.0,-1.5622738911594287,-2.4541852651842277,-2.3630491942147978,0.0021180862553388377,-0.0015486144692113486,-0.4659740943355626
8468,13.0,300.13546,20982.752,0.0,-0.04233976968255271,-0.042339200662608545,0.0,0.0,0.0,-1.5551965418609484,-2.4594294424017877,-2.363606684419818,-0.0012665073015445387,0.002298060852675948,-0.47332583176112253
8469,13.0,300.028,21005.961,0.0,-0.04234478417129106,-0.04234420287279572,0.0,0.0,0.0,-1.5597720753375186,-2.4596903543025377,-2.365825195513768,0.0014073710529717085,0.002233407086320118,-0.46067582982766453
8470,13.0,299.99705,21095.322999999997,0.0,-0.04234976566997206,-0.04234920508298268,0.0,0.0,0.0,-1.5623348888154485,-2.4667645625257077,-2.383351990443528,-0.004543391258222806,0.01025790488537639,-0.4607274346552576
8471,13.0,299.95894,21069.699,0.0,-0.042354780158710414,-0.042354207293169854,0.0,0.0,0.0,-1.5568039618195884,-2.465236074749858,-2.3826222477215078,0.002182000653096698,0.0023441518771997777,-0.4582452454877846
8472,13.0,299.96176,20969.935,0.0,-0.042359761657391304,-0.04235920950335692,0.0,0.0,0.0,-1.5452689200311684,-2.4622549916306475,-2.366812607736218,-0.004842387379881425,0.003050559753391807,-0.4672001674865665
8473,13.0,300.01997,21044.732000000004,0.0,-0.04236477614612977,-0.042364211713543876,0.0,0.0,0.0,-1.5582025509326185,-2.4633378520125175,-2.375532435446798,0.0019469132549953783,-0.006197575242103055,-0.46474481931424255
8474,13.0,299.94428999999997,21084.933999999997,0.0,-0.04236975764481066,-0.04236921392373105,0.0,0.0,0.0,-1.5629967437807684,-2.467547298227958,-2.378749504514298,0.002143133696485828,-2.9049621988224474e-05,-0.47198525121631757
8475,13.0,299.70285,21009.351000000002,0.0,-0.04237477213354901,-0.04237421613391801,0.0,0.0,0.0,-1.5598652943467184,-2.4587081096555976,-2.3677444938531877,0.008097142055700703,-0.007129072676334693,-0.4689395430057296
8476,13.0,299.90731,20985.682,0.0,-0.042379786622287474,-0.042379218344105185,0.0,0.0,0.0,-1.5465964803121885,-2.4631841419723477,-2.369342591910908,0.003992860156214616,-0.0016619597664726585,-0.47761015715895255
8477,13.0,300.30142,21015.333,0.0,-0.042384768120968364,-0.04238422055429214,0.0,0.0,0.0,-1.5612581079341785,-2.458611850896098,-2.368266520304708,0.0017840951096764785,-0.0035487412889834966,-0.46824451423213553
8478,13.0,300.15778,21034.984,0.0,-0.042389782609706717,-0.04238922276447932,0.0,0.0,0.0,-1.5565417326937085,-2.4635110164546075,-2.3740571433011977,-0.001155918855155309,0.0030142507466583875,-0.47296556055556654
8479,13.0,299.94207,21077.295,0.0,-0.042394764108387606,-0.04239419206538886,0.0,0.0,0.0,-1.5630168061327485,-2.4678141883042977,-2.376140284181788,-0.004747213507263495,-0.004400050008976126,-0.46085069652992255
8480,13.0,300.0526,21088.637000000002,0.0,-0.04239977859712607,-0.04239919427557581,0.0,0.0,0.0,-1.5591997916810385,-2.4699864951936874,-2.3812328791843878,-0.0046015378311114255,0.004064719042706536,-0.47059190060630457
8481,13.0,299.86672000000004,21048.557,0.0,-0.04240476009580696,-0.04240419648576299,0.0,0.0,0.0,-1.5616585443736986,-2.463468257300388,-2.373108842532608,0.002804941950976217,0.0008144836649832792,-0.4568051131206545
8482,13.0,299.91857000000005,21022.147999999997,0.0,-0.04240977458454531,-0.04240919869595017,0.0,0.0,0.0,-1.5462404242270484,-2.4692893791248873,-2.374678366937508,0.0020551775083052282,0.0030335822413412573,-0.4713444313230735
8483,13.0,299.89732999999995,21085.437,0.0,-0.04241475608322631,-0.042414200906137234,0.0,0.0,0.0,-1.5616527688481285,-2.4686965264913776,-2.3790971506236076,0.004252295447593886,-0.0012881212434026688,-0.46232428641535456
8484,13.0,299.8732,21073.423,0.0,-0.042419770571964666,-0.04241920311632441,0.0,0.0,0.0,-1.5554159105075986,-2.470708030589898,-2.3796705488551977,-0.0007186188469896584,0.005169390342254105,-0.47251960892155453
8485,13.0,299.87702,21023.34,0.0,-0.04242478506070313,-0.042424205326511366,0.0,0.0,0.0,-1.5533550611292086,-2.4666249366619275,-2.3705903080840476,-0.0005909904926087204,0.0006253221417719903,-0.46904026006566957
8486,13.0,299.93217999999996,21055.534,0.0,-0.04242976655938402,-0.04242920753669854,0.0,0.0,0.0,-1.5589177028531984,-2.4674196287153576,-2.3740191464224476,-0.0031547595565755275,-0.0052675682987685145,-0.46677476456458256
8487,13.0,299.83702999999997,21112.517999999996,0.0,-0.04243478104812248,-0.04243420974688572,0.0,0.0,0.0,-1.5722419416681985,-2.4618391537896076,-2.3835971969677274,-0.0033379045121505273,-0.007003097013926864,-0.4647377772260476
8488,13.0,299.95332,21166.589,0.0,-0.04243976254680326,-0.042439211957072676,0.0,0.0,0.0,-1.5714882862438184,-2.4749368298822474,-2.387689612796618,-0.002489833632852448,-0.004413644582917806,-0.46725589624206654
8489,13.0,299.94178999999997,21132.944,0.0,-0.042444777035541725,-0.04244421416725963,0.0,0.0,0.0,-1.5768151446695384,-2.4653686078629375,-2.381703635180848,-0.0008883490298532231,-0.0022067397622382583,-0.46583271554910954
8490,13.0,300.05024,21094.572999999997,0.0,-0.042449758534222615,-0.042449216377446586,0.0,0.0,0.0,-1.5606690043260385,-2.4695785607034275,-2.381975895482718,-0.0017474011692300683,0.0013035536503757286,-0.4661242174703786
8491,13.0,300.1088,21062.517000000003,0.0,-0.04245477302296097,-0.04245421858763376,0.0,0.0,0.0,-1.5560251777927285,-2.4697768537479976,-2.3766772054097776,0.005479409206450584,0.005595193396702594,-0.46956252969721357
8492,13.0,300.10978,21081.703999999998,0.0,-0.04245978751169943,-0.04245922079782094,0.0,0.0,0.0,-1.5569782408367883,-2.4723374380757077,-2.3789960282636273,0.005260212609667565,0.006904053944477072,-0.4701626169364375
8493,13.0,300.22137000000004,21113.964,0.0,-0.04246476901038032,-0.04246419009873026,0.0,0.0,0.0,-1.5641321918428286,-2.474955169709058,-2.379030377442018,0.001026410394948819,0.0018101581313986982,-0.4704659434863735
8494,13.0,300.19827000000004,21042.426,0.0,-0.04246978349911856,-0.042469192308917436,0.0,0.0,0.0,-1.5511269241593086,-2.4696261834581277,-2.375618967005338,-0.002814919323385907,-0.0047670056254418254,-0.4733559860840985
8495,13.0,299.82379,21020.619,0.0,-0.04247476499779956,-0.04247419451910461,0.0,0.0,0.0,-1.5541319199808785,-2.4627366907281876,-2.372874579109488,-0.007534583877655533,-0.0027051406664765974,-0.47343075380897753
8496,13.0,299.89304,21175.107999999997,0.0,-0.04247977948653803,-0.04247919672929168,0.0,0.0,0.0,-1.5642367592531485,-2.4786888950025476,-2.3937783339725276,-0.006646604825943822,0.0012055023501238188,-0.4737402409195215
8497,13.0,299.99242999999996,21216.517999999996,0.0,-0.04248476098521892,-0.04248419893947886,0.0,0.0,0.0,-1.5771922763567587,-2.4753466895476977,-2.3967527296410776,-0.005587894449607244,0.004022025344442996,-0.46355040009636256
8498,13.0,299.97692,21133.732999999997,0.0,-0.04248977547395716,-0.04248920114966581,0.0,0.0,0.0,-1.5673595960613484,-2.4705211872714576,-2.3862465420041974,0.0005473363548403925,-0.0009018501720031821,-0.46583890650722054
8499,13.0,300.01831,21107.727000000003,0.0,-0.04249475697263827,-0.04249420335985299,0.0,0.0,0.0,-1.5674657846718285,-2.465110634387478,-2.3836456303225075,0.00859275165856356,0.002173100973493368,-0.4618352615195916
8500,13.0,300.15992,21128.79,0.0,-0.042499771461376734,-0.042499205570040166,0.0,0.0,0.0,-1.5687416691977485,-2.470932668137068,-2.3829503381038877,0.009671048969933222,-0.0007060023329720053,-0.4663342743486095
8501,13.0,299.97854,21182.937,0.0,-0.04250478595011509,-0.04250420778022712,0.0,0.0,0.0,-1.5732420195168986,-2.4804437428507375,-2.3853982490204775,0.007147678278645924,-0.004746663211134186,-0.46994659201511757
8502,13.0,299.98822,21185.835,0.0,-0.042509767448795976,-0.0425092099904143,0.0,0.0,0.0,-1.5646716461960686,-2.4792469931576275,-2.3960461903463477,-0.0014269669046056688,-0.003470739067135277,-0.46938833174002154
8503,13.0,300.00254,21117.352000000003,0.0,-0.04251478193753444,-0.042514212200601253,0.0,0.0,0.0,-1.5586913427808586,-2.4774086535011977,-2.3830476101134876,-0.0013343241307375389,0.004840907730760396,-0.47117458020881053
8504,13.0,299.83449,21079.303,0.0,-0.04251976343621522,-0.04251921441078821,0.0,0.0,0.0,-1.5547343984903386,-2.4714171030098773,-2.381430158978858,-0.0015161488214322383,0.005557035613836714,-0.46580980596434857
8505,13.0,300.06331,21161.486,0.0,-0.04252477792495368,-0.042524216620975386,0.0,0.0,0.0,-1.5695695958544587,-2.4765400955154777,-2.3864536503246376,-0.004938804510372056,0.005683745679917024,-0.4685931938565476
8506,13.0,300.1029,21216.637000000002,0.0,-0.04252975942363457,-0.04252921883116245,0.0,0.0,0.0,-1.5790002185101883,-2.4809846157541178,-2.389343034309798,0.0002029733683719118,-0.006504685977187523,-0.46460063382501254
8507,13.0,300.07077000000004,21146.547000000002,0.0,-0.042534773912372814,-0.04253422104134963,0.0,0.0,0.0,-1.5671022305359485,-2.479116182569718,-2.3818037442907274,-0.001005900156027116,0.0006085614348453374,-0.4771120231447905
8508,13.0,300.00612,21119.644,0.0,-0.042539755411053704,-0.04253919034225906,0.0,0.0,0.0,-1.5618373830163486,-2.4757434782868577,-2.382263557186108,0.004533876637133785,-0.0034044161738897164,-0.4729869907951816
8509,13.0,299.94605,21154.082000000002,0.0,-0.04254476989979228,-0.042544192552446125,0.0,0.0,0.0,-1.5684070940147286,-2.476922901403258,-2.3849828164794773,0.0025775572801350977,-0.003568321637890926,-0.4716194476652156
8510,13.0,299.89766000000003,21153.678,0.0,-0.04254978438853052,-0.0425491947626333,0.0,0.0,0.0,-1.5670534932061384,-2.4741883420333775,-2.3889481707458278,-0.0001114478243290439,-0.001949118289862998,-0.46980916490405455
8511,13.0,300.04079,21129.466,0.0,-0.04255476588721141,-0.04255419697282026,0.0,0.0,0.0,-1.5599881002588383,-2.480091334465958,-2.3827504238591577,-0.002134998210107918,0.0015858778562139583,-0.47573363823875453
8512,13.0,299.69565,21121.081000000002,0.0,-0.042559780375949985,-0.042559199183007435,0.0,0.0,0.0,-1.5621380143210184,-2.4747130029351574,-2.383430213351248,0.0030391933164200273,0.002451729349591848,-0.4701356442187755
8513,13.0,299.85173,21175.146,0.0,-0.042564761874630985,-0.04256420139319461,0.0,0.0,0.0,-1.5640061435303885,-2.4848376005843775,-2.387871997814618,-0.005198145265516995,0.005205883051230655,-0.4757183989572505
8514,13.0,300.06981,21193.027000000002,0.0,-0.04256977636336934,-0.04256920360338157,0.0,0.0,0.0,-1.5641538753949684,-2.4854809130728674,-2.392516229647968,0.006817280320488183,-0.0034727242267311967,-0.47118643523498055
8515,13.0,300.22451,21186.252,0.0,-0.04257475786205023,-0.042574205813568744,0.0,0.0,0.0,-1.5686950596931486,-2.480727959503788,-2.390668365440598,-0.0025042644421016578,0.005029238702997215,-0.46670016909222056
8516,13.0,300.28289,21189.561,0.0,-0.04257977235078869,-0.0425792080237557,0.0,0.0,0.0,-1.5650750210608786,-2.4811691285973274,-2.394853291003618,0.0016505654651231283,0.0026672645671385175,-0.4604556404484335
8517,13.0,300.17277,21154.687,0.0,-0.042584786839527045,-0.042584210233942876,0.0,0.0,0.0,-1.5697421523464885,-2.477376736123048,-2.3833775243460478,-0.004216236916285186,0.004830029680336816,-0.46613448169389154
8518,13.0,299.81726000000003,21217.582000000002,0.0,-0.042589768338207934,-0.042589212444130053,0.0,0.0,0.0,-1.5728388473021087,-2.486186641767518,-2.390589433257808,-0.002021986677429548,0.001950570074606278,-0.4662652213542946
8519,13.0,299.79904,21273.942000000003,0.0,-0.0425947828269464,-0.04259421465431701,0.0,0.0,0.0,-1.5812965472118183,-2.490223126190888,-2.395227484265548,-0.0024279477617947876,0.003554780664879537,-0.47902187799327856
8520,13.0,299.762,21170.367000000002,0.0,-0.042599764325627065,-0.042599216864504075,0.0,0.0,0.0,-1.5715351997234484,-2.476385777525248,-2.3873420680123183,0.007254449102633383,-0.003155229907271947,-0.4767856958175845
8521,13.0,299.74928,21092.531000000003,0.0,-0.04260477881436564,-0.04260421907469103,0.0,0.0,0.0,-1.5550417172456685,-2.4756045616981477,-2.3809563632320976,0.0035803836710563567,0.0005041197485977455,-0.47501184953001957
8522,13.0,300.04562000000004,21150.265,0.0,-0.04260976031304653,-0.04260918837560068,0.0,0.0,0.0,-1.5577672586896585,-2.4768344446695276,-2.394550633198748,0.007048333868616393,-0.006987998878161795,-0.46934390072313653
8523,13.0,300.21828999999997,21210.111,0.0,-0.04261477480178477,-0.04261419058578775,0.0,0.0,0.0,-1.5642466891041285,-2.4841415990906874,-2.398955940658518,-0.0006385931241617344,0.0037480925719579365,-0.46981825375745156
8524,13.0,300.04174,21231.228,0.0,-0.04261975630046566,-0.0426191927959747,0.0,0.0,0.0,-1.5683566341597486,-2.4901049812292273,-2.3953015528478576,0.0017790360532521881,0.001192432031783879,-0.46689458138890755
8525,13.0,300.026,21247.064,0.0,-0.042624770789204125,-0.04262419500616188,0.0,0.0,0.0,-1.5674612250463786,-2.490892175231918,-2.4002236178586274,-0.0036333251781812768,0.0016614976231020483,-0.4690728563213866
8526,13.0,300.17053,21250.097999999998,0.0,-0.04262978527794248,-0.04262919721634906,0.0,0.0,0.0,-1.5761682858056985,-2.489383445833018,-2.393947344089208,-0.0024249138883453676,-0.005672368603819194,-0.46950111660865257
8527,13.0,300.10469,21245.807999999997,0.0,-0.04263476677662359,-0.04263419942653601,0.0,0.0,0.0,-1.5719939993687284,-2.4895770779271276,-2.3966240468783777,-0.004267094877229476,-0.002223152488683068,-0.47159008367731753
8528,13.0,300.01144,21279.287999999997,0.0,-0.04263978126536183,-0.04263920163672319,0.0,0.0,0.0,-1.5822242790033785,-2.4886117545568576,-2.397536073293388,0.0017197126916974283,-0.004463213284434856,-0.4652084825600025
8529,13.0,299.85525,21239.355,0.0,-0.04264476276404294,-0.042644203846910145,0.0,0.0,0.0,-1.5793414811438684,-2.486273375976077,-2.3906187161856978,-0.0023505056646018476,0.0017175616630601385,-0.4703594103708595
8530,13.0,299.78227999999996,21156.58,0.0,-0.042649777252781296,-0.04264920605709732,0.0,0.0,0.0,-1.5689772498459986,-2.4802486922064872,-2.381846098144908,0.0018350633122316484,0.005052987866791076,-0.4748208316211675
8531,13.0,299.87972,21181.546000000002,0.0,-0.042654758751462185,-0.0426542082672845,0.0,0.0,0.0,-1.5670467044304683,-2.4822194636509876,-2.389394912714918,-0.0006018213762401454,0.01090822095855759,-0.48167901492301757
8532,13.0,299.88771,21258.908,0.0,-0.04265977324020065,-0.042659210477471454,0.0,0.0,0.0,-1.5784269216036086,-2.483358154113368,-2.4003920200252478,0.002995166788974947,0.00036325447729542565,-0.4720598669536815
8533,13.0,299.9993,21260.718999999997,0.0,-0.042664754738881316,-0.04266421268765863,0.0,0.0,0.0,-1.5746952228103184,-2.486185527192408,-2.4018470471688476,-0.0025610736261832876,-0.005231361731620206,-0.46988277752381963
8534,13.0,300.00786,21256.862999999998,0.0,-0.04266976922761989,-0.0426692148978457,0.0,0.0,0.0,-1.5686194712356885,-2.490237007717258,-2.4026989878529275,0.005320858667902865,-0.01143032543033529,-0.4681173310795836
8535,13.0,300.16402999999997,21270.602000000003,0.0,-0.042674783716358355,-0.04267421710803265,0.0,0.0,0.0,-1.5777881687405684,-2.4873574522580677,-2.400586361394428,0.00016985169181555685,-0.005415253351193895,-0.46150635040463056
8536,13.0,300.24343,21264.842,0.0,-0.04267976521503902,-0.042679186408942305,0.0,0.0,0.0,-1.5720336174476384,-2.4934137494307773,-2.398533719341848,0.0004725112597407306,0.0013581077450347985,-0.4691181384683556
8537,13.0,300.15487,21245.109,0.0,-0.04268477970377749,-0.04268418861912937,0.0,0.0,0.0,-1.5736948409865885,-2.4892554723453877,-2.395032433621298,-0.0023649140810238474,0.0029286929214644873,-0.4700915881044275
8538,13.0,300.10676,21245.715,0.0,-0.042689761202458376,-0.04268919082931655,0.0,0.0,0.0,-1.5783185038429086,-2.486335488207208,-2.3935130650963474,0.00013757365742496288,0.0015766604213792684,-0.4806329963147835
8539,13.0,300.05664,21236.553,0.0,-0.04269477569119673,-0.0426941930395035,0.0,0.0,0.0,-1.5705820353543785,-2.4928911150291975,-2.391908583562998,-0.002420105712645838,0.0008396406891285842,-0.47951056851650853
8540,13.0,299.81395,21192.661,0.0,-0.04269975718987784,-0.04269919524969046,0.0,0.0,0.0,-1.5710217858977786,-2.482609463614477,-2.3884085137425677,0.0015568530031244284,-0.004003051831020456,-0.47801970271687155
8541,13.0,299.96447,21280.222,0.0,-0.04270477167861608,-0.042704197459877635,0.0,0.0,0.0,-1.5803774280461085,-2.4914182546838375,-2.3968603368016974,-0.005590458681635314,-0.0030614941405209474,-0.4751855408621615
8542,13.0,300.01628999999997,21290.408,0.0,-0.042709786167354435,-0.04270919967006459,0.0,0.0,0.0,-1.5793936635240184,-2.4886507646857075,-2.4037079823025076,-5.808205013550205e-05,0.0011202772762627588,-0.4757213272500395
8543,13.0,299.90644,21230.087000000003,0.0,-0.04271476766603555,-0.04271420188025177,0.0,0.0,0.0,-1.5650018644036587,-2.4856759637171177,-2.4027386059318374,0.002175974550776968,0.0052170290049806745,-0.47781965674962856
8544,13.0,300.04898,21270.245,0.0,-0.04271978215477401,-0.042719204090438945,0.0,0.0,0.0,-1.5732307724407886,-2.489587514403158,-2.4028050751383976,0.0005523189007496316,0.0005721604756653425,-0.47093783432294556
8545,13.0,300.02242,21327.597,0.0,-0.0427247636534549,-0.04272420630062601,0.0,0.0,0.0,-1.5729763453406786,-2.495025222389818,-2.4150555728224274,0.0025542744140372576,-0.0021435810464049783,-0.47019658107978957
8546,13.0,300.08912999999995,21326.804,0.0,-0.04272977814219314,-0.04272920851081319,0.0,0.0,0.0,-1.5800252223113485,-2.499146110546518,-2.403644654171258,0.002055617461498648,-0.0009347019491304001,-0.4667652602786445
8547,13.0,299.98323999999997,21307.55,0.0,-0.04273475964087403,-0.04273421072100014,0.0,0.0,0.0,-1.5776055810725484,-2.4955631568679078,-2.4037944125360378,0.006774989389139394,0.003994686640844876,-0.4676387730573535
8548,13.0,299.86048999999997,21304.637000000002,0.0,-0.04273977412961261,-0.04273921293118732,0.0,0.0,0.0,-1.5801052690692485,-2.4945753393454178,-2.4013972654494578,-0.001085351761215879,-0.0003773438313934367,-0.46604345130490754
8549,13.0,299.94011,21284.965,0.0,-0.042744755628293274,-0.0427442151413745,0.0,0.0,0.0,-1.5766103668243285,-2.493753086889268,-2.3997343193853378,-0.0025353928023987876,0.003286904290892197,-0.4767004308216696
8550,13.0,299.98248,21328.088,0.0,-0.04274977011703174,-0.04274921735156145,0.0,0.0,0.0,-1.5811180125441986,-2.495461426557868,-2.4066268518655773,-0.0029477601605212775,0.005467568669757015,-0.47815719062294054
8551,13.0,300.0984,21356.853,0.0,-0.04275478460577031,-0.042754186652470993,0.0,0.0,0.0,-1.5821101870421184,-2.4983288230158576,-2.4115112239726275,0.003139882208007247,0.0057722224759990046,-0.47623070834031156
8552,13.0,300.41692,21305.095,0.0,-0.04275976610445098,-0.04275918886265817,0.0,0.0,0.0,-1.5837546919544183,-2.4896272338070773,-2.4028349660163477,0.002989468777037597,0.002107519981971028,-0.4714579558642776
8553,13.0,300.33328,21267.909,0.0,-0.042764780593189444,-0.042764191072845126,0.0,0.0,0.0,-1.5736330327304884,-2.4884716220680274,-2.402808621513748,0.004671748868965715,-0.0029710135410412073,-0.47069698477417554
8554,13.0,300.2279,21333.74,0.0,-0.042769762091870334,-0.04276919328303208,0.0,0.0,0.0,-1.5785061577614286,-2.4977073967295276,-2.408710803346248,0.0012849482507145188,-0.003133776768204687,-0.4759424082893586
8555,13.0,299.92944,21347.303,0.0,-0.04277477658060869,-0.042774195493219036,0.0,0.0,0.0,-1.5783497119459884,-2.499710490852218,-2.4109868670458776,0.004297693510374326,-0.001961539621513888,-0.4753111838745615
8556,13.0,299.7912,21307.056,0.0,-0.0427797580792898,-0.04277919770340621,0.0,0.0,0.0,-1.5681554026898885,-2.5019442006976678,-2.4067132820991075,-0.0027536660243656775,0.0048837347727370955,-0.4780529170551496
8557,13.0,299.92787999999996,21321.45,0.0,-0.04278477256802826,-0.04278419991359339,0.0,0.0,0.0,-1.5708767898084686,-2.505163397590377,-2.405148114669638,-0.0019644953733805983,-0.0005650274482738674,-0.4750325198320596
8558,13.0,300.09415,21331.171000000002,0.0,-0.04278975406670915,-0.042789202123780457,0.0,0.0,0.0,-1.5831080357405984,-2.4989640295035476,-2.4020713807409875,1.6357343207594085e-06,0.004809215395457605,-0.47048564106831753
8559,13.0,300.02906,21338.069,0.0,-0.04279476855544739,-0.042794204333967634,0.0,0.0,0.0,-1.5828209819872683,-2.500285206308938,-2.403134077445868,0.001035402786936299,0.00044112909042605164,-0.4736880281418685
8560,13.0,299.97243,21351.487999999998,0.0,-0.04279978304418597,-0.04279920654415459,0.0,0.0,0.0,-1.5874705840461485,-2.4971844583529177,-2.4056642642705772,0.0007163248487632583,-0.00038452649790731065,-0.4711344453723495
8561,13.0,299.88265,21356.862,0.0,-0.04280476454286686,-0.042804208754341766,0.0,0.0,0.0,-1.5852109349981383,-2.4927259552628978,-2.4140159782198274,9.515756942382092e-05,-0.0037214040709489865,-0.47734193972498157
8562,13.0,300.03287,21338.862,0.0,-0.0428097790316051,-0.04280921096452894,0.0,0.0,0.0,-1.5763192600705984,-2.5014842864772775,-2.408677568742968,-0.006199939053261344,0.007194664408308093,-0.4777895936191615
8563,13.0,299.86099,21352.86,0.0,-0.04281476053028599,-0.0428142131747159,0.0,0.0,0.0,-1.5810844739658885,-2.4948547937229977,-2.414796991396908,0.0005248747076836005,0.0028069252867219574,-0.4749909664454586
8564,13.0,299.74491,21393.26,0.0,-0.04281977501902445,-0.042819215384903075,0.0,0.0,0.0,-1.5941004821004683,-2.496919493451768,-2.4119969760705677,6.0494772902619246e-05,0.005231101528994525,-0.46907051571365554
8565,13.0,299.80967999999996,21343.048,0.0,-0.04282475651770523,-0.042824184685812616,0.0,0.0,0.0,-1.5816761106992785,-2.4982670147597577,-2.4078104293073874,0.008639145442217272,-0.004766326139924766,-0.47298609913509354
8566,13.0,299.72966,21307.342999999997,0.0,-0.042829771006443695,-0.04282918689599957,0.0,0.0,0.0,-1.5768047081935086,-2.499878791693827,-2.4002168290829577,0.007312130492401093,-0.0047604459456194355,-0.4754077364765905
8567,13.0,299.85913999999997,21374.842,0.0,-0.04283478549518216,-0.04283418910618675,0.0,0.0,0.0,-1.5750815750734484,-2.5047404669986375,-2.417596196123168,0.006462430104292194,-0.005316575558405155,-0.4724408489912816
8568,13.0,299.78097,21388.287999999997,0.0,-0.04283976699386294,-0.042839191316373704,0.0,0.0,0.0,-1.5778741936740586,-2.5081970683897774,-2.4154341230597876,-0.0002785064111839427,0.004290813136895286,-0.4751833421094445
8569,13.0,299.84063,21366.517999999996,0.0,-0.0428447814826014,-0.04284419352656088,0.0,0.0,0.0,-1.5800284647116685,-2.5042653540267477,-2.4105940299821076,-0.002457908554001688,0.003997077505780836,-0.4741794443078675
8570,13.0,299.87183999999996,21365.373,0.0,-0.04284976298128251,-0.042849195736747836,0.0,0.0,0.0,-1.5882957749275883,-2.5021929535972176,-2.404051068786368,-0.0069821560727851536,0.008146878652759322,-0.4767111408752266
8571,13.0,299.96682999999996,21355.356,0.0,-0.042854777470020755,-0.0428541979469349,0.0,0.0,0.0,-1.5843149179347087,-2.4965341544387374,-2.4106460097122375,-0.0027330538828814173,-0.0006161091753702414,-0.4718916877020836
8572,13.0,299.89117999999996,21354.26,0.0,-0.042859758968701644,-0.04285920015712208,0.0,0.0,0.0,-1.5858831251144785,-2.4975039361094478,-2.407774762903868,-0.0028898509921310876,-4.789826044194025e-05,-0.47786912361951056
8573,13.0,300.17953,21408.692000000003,0.0,-0.04286477345744022,-0.042864202367309034,0.0,0.0,0.0,-1.5738591901528085,-2.5092999911236276,-2.424548510359308,0.003202745460111367,-0.009117684921970442,-0.4820077031229565
8574,13.0,300.06658,21394.202,0.0,-0.04286975495612111,-0.04286920457749621,0.0,0.0,0.0,-1.5792038817802883,-2.5056916048675077,-2.4184078094532677,-0.00029237992274565175,-0.001032637627413399,-0.48429593595628756
8575,13.0,300.13063999999997,21346.832000000002,0.0,-0.04287476944485935,-0.04287420678768339,0.0,0.0,0.0,-1.5759916763132684,-2.5032635536528773,-2.409648667638808,0.0043911811321758355,-0.003479355847310687,-0.4794002458456206
8576,13.0,299.7991,21368.11,0.0,-0.042879783933597815,-0.042879208997870344,0.0,0.0,0.0,-1.5902485105203086,-2.500327458838108,-2.404795807609868,-0.0008000629781025683,0.005766977082881324,-0.4743958339992236
8577,13.0,299.88214,21424.642000000003,0.0,-0.042884765432278704,-0.04288421120805752,0.0,0.0,0.0,-1.5930704120488086,-2.5068591729577374,-2.4126265083576977,0.003226530898258807,-0.0009202357470551973,-0.4738998582077746
8578,13.0,299.87825,21415.371,0.0,-0.04288977992101706,-0.042889213418244476,0.0,0.0,0.0,-1.5891849018903383,-2.506504839397768,-2.4140484022230275,-0.003276781314443137,0.005603975235319295,-0.4752115915222325
8579,13.0,299.78232,21395.504,0.0,-0.04289476141969795,-0.04289418271915402,0.0,0.0,0.0,-1.5737273663147984,-2.5071122828327175,-2.4228593211175977,0.002773052437203967,0.0005817760975243304,-0.47071540566099357
8580,13.0,299.64588,21426.025,0.0,-0.04289977590843641,-0.042899184929341194,0.0,0.0,0.0,-1.5863376691093385,-2.5086917370885975,-2.417947185957808,-0.004780483675622006,0.0026998097550504775,-0.4685534237901226
8581,13.0,300.01766000000003,21426.583,0.0,-0.04290475740711719,-0.04290418713952815,0.0,0.0,0.0,-1.5906058838305785,-2.5022948865572774,-2.420245338509618,0.0041840006683287155,-0.0048667570580365254,-0.47224784511223356
8582,13.0,299.86247000000003,21417.535,0.0,-0.04290977189585565,-0.042909189349715327,0.0,0.0,0.0,-1.5941646208317986,-2.506530170650268,-2.4097010526689773,-0.0016458208202048683,0.002105432281464988,-0.4772261961660585
8583,13.0,299.95583999999997,21424.745,0.0,-0.04291475339453654,-0.042914191559902504,0.0,0.0,0.0,-1.5916075828794385,-2.5039808333986677,-2.416999087839238,0.007649252986172492,-0.0007280318188286462,-0.47537922361877655
8584,13.0,299.91898,21426.862999999998,0.0,-0.042919767883275006,-0.04291919377008946,0.0,0.0,0.0,-1.5932914018956186,-2.5048388535833475,-2.415101067751918,0.0014009084425088986,0.001125779021655739,-0.4815292768232396
8585,13.0,299.99804,21413.2,0.0,-0.04292478237201336,-0.042924195980276525,0.0,0.0,0.0,-1.5733596578535085,-2.5139777615352874,-2.421740794332208,-0.00017053669954566184,-0.0029956778723253872,-0.4865977564734595
8586,13.0,300.08553,21426.604,0.0,-0.04292976387069436,-0.04292919819046348,0.0,0.0,0.0,-1.5892385028206284,-2.5054166087903678,-2.418497482087118,-0.004233529853091866,-0.00037994480387013263,-0.48297637021855655
8587,13.0,299.91755,21439.96,0.0,-0.04293477835943271,-0.04293420040065066,0.0,0.0,0.0,-1.5844479576728385,-2.5118195388222877,-2.4209450890286774,-0.0008148186961288443,0.00017852391703643882,-0.47511245513244854
8588,13.0,299.83682999999996,21383.238999999998,0.0,-0.0429397598581136,-0.042939202610837834,0.0,0.0,0.0,-1.5829081214958685,-2.5058003266032376,-2.411262268423058,-0.0026710310204102377,0.004317791934057886,-0.4753111028145535
8589,13.0,300.13716,21428.146,0.0,-0.042944774346852066,-0.04294420482102479,0.0,0.0,0.0,-1.5853593761377884,-2.513498291587968,-2.414763655468618,0.0029499204097344772,-0.0047782283835494255,-0.47531758761519355
8590,13.0,300.06908,21483.933999999997,0.0,-0.042949755845532955,-0.04294920703121197,0.0,0.0,0.0,-1.5880498591283185,-2.5169852904821077,-2.425544535207608,-0.0007937294151724942,0.003931759250009426,-0.47693885870270053
8591,13.0,299.99929,21446.467,0.0,-0.04295477033427131,-0.04295420924139892,0.0,0.0,0.0,-1.5793668123963684,-2.5175065063335476,-2.4223170296640775,-0.0037585633971663262,-0.0014928255266554087,-0.47681467477044454
8592,13.0,299.93325,21449.728,0.0,-0.04295978482300977,-0.0429592114515861,0.0,0.0,0.0,-1.5908293054776286,-2.5122776291924978,-2.417074777621708,-0.0015253715251674488,-0.0022361026355611478,-0.47687184234108654
8593,13.0,299.86186000000004,21498.71,0.0,-0.04296476632169066,-0.04296418075249564,0.0,0.0,0.0,-1.5961420797269588,-2.5135796555709975,-2.4253493832383475,-0.006627401102098563,-0.005944858305511834,-0.4758803467207336
8594,13.0,300.03831,21481.752999999997,0.0,-0.042969780810429015,-0.042969182962682595,0.0,0.0,0.0,-1.5999525080530184,-2.512442991608818,-2.4175212156157677,0.004198960292805116,0.002380482364835318,-0.47735306521107956
8595,13.0,300.04966,21464.819,0.0,-0.042974762309109904,-0.04297418517286977,0.0,0.0,0.0,-1.5939120175818684,-2.5107484321415776,-2.4201086510711276,0.0054232403964321555,-0.0005356789631023976,-0.4709545732145975
8596,13.0,299.84915,21479.426,0.0,-0.04297977679784837,-0.04297918738305695,0.0,0.0,0.0,-1.5915815423518684,-2.5083626334561178,-2.429265189574808,0.003990576695789256,0.0063929837662883736,-0.4770904409176605
8597,13.0,300.05407,21457.898999999998,0.0,-0.04298475829652926,-0.042984189593244015,0.0,0.0,0.0,-1.5856925327706684,-2.5086455328840374,-2.428327527932268,0.0014184397970641084,-0.0029900854410484573,-0.47811039873332256
8598,13.0,299.97376,21415.515,0.0,-0.04298977278526761,-0.04298919180343108,0.0,0.0,0.0,-1.5854484408215785,-2.5074358135896477,-2.4168975601792178,0.0018719374085458382,0.0003280189077179457,-0.47614525082687753
8599,13.0,299.9262,21456.83,0.0,-0.04299475428394861,-0.04299419401361815,0.0,0.0,0.0,-1.5879697110454085,-2.5122094374607675,-2.4221612931237075,0.0008397766774245052,-0.0006137851545433784,-0.47462643958948253
8600,13.0,300.21859,21498.956000000002,0.0,-0.042999768772686964,-0.042999196223805325,0.0,0.0,0.0,-1.5959886736618183,-2.5194014866705676,-2.419755634736288,0.0002801278139939627,-0.004599491977834516,-0.47352850204612457
8601,13.0,300.14859,21453.102000000003,0.0,-0.043004783261425206,-0.04300419843399228,0.0,0.0,0.0,-1.5835517379593884,-2.5190832248141577,-2.418572361269508,-0.006030044369244045,-0.001000262847903257,-0.4824441099410266
8602,13.0,300.14767,21480.151,0.0,-0.04300976476010632,-0.043009200644179235,0.0,0.0,0.0,-1.5850744502096683,-2.5221249002893478,-2.422230092805498,-0.006553679253972784,0.002920995260454787,-0.47905390682893956
8603,13.0,299.97007,21508.832000000002,0.0,-0.04301477924884467,-0.04301420285436641,0.0,0.0,0.0,-1.5882060009687284,-2.5212853212564874,-2.4286565302397376,-0.0023722676422995876,0.005116797393163585,-0.4816180881945045
8604,13.0,299.86692,21490.171000000002,0.0,-0.04301976074752556,-0.04301920506455337,0.0,0.0,0.0,-1.5945694142467484,-2.5167778781866375,-2.421128081996738,-0.003960581757053986,0.001033951103518029,-0.47721612446006456
8605,13.0,300.09439,21517.158,0.0,-0.04302477523626402,-0.043024207274740545,0.0,0.0,0.0,-1.5970074966373684,-2.518223076804268,-2.425448276448108,0.004381604601505706,-0.0016496803911607786,-0.4798822185206875
8606,13.0,299.94366,21482.738999999998,0.0,-0.04302975673494491,-0.04302920948492772,0.0,0.0,0.0,-1.6004126249234285,-2.5084863512933273,-2.421317154465398,0.0032748726552297674,0.003645389845796966,-0.4774095336391525
8607,13.0,299.87113999999997,21433.616,0.0,-0.043034771223683266,-0.04303421169511479,0.0,0.0,0.0,-1.5814855183554684,-2.5099361095364077,-2.4238623373915877,0.004181097301492176,0.0015689406715173886,-0.4793190237176046
8608,13.0,300.10201,21522.442000000003,0.0,-0.043039752722364155,-0.04303918099602422,0.0,0.0,0.0,-1.5916697964355786,-2.5163638641957773,-2.4342511906668873,-0.0013667836990160485,-0.00012774256793220988,-0.48039157934595755
8609,13.0,299.95962000000003,21582.287,0.0,-0.04304476721110262,-0.043044183206211395,0.0,0.0,0.0,-1.6016072467913285,-2.518338485990658,-2.440530808161638,-0.00943920984900248,-0.00042590223136827765,-0.4800735910670746
8610,13.0,299.88911,21504.369,0.0,-0.04304978169984097,-0.04304918541639846,0.0,0.0,0.0,-1.5949021655795883,-2.5182228741542474,-2.4236662734972376,-0.0016274013519370085,0.0001073433609564649,-0.47725628969402856
8611,13.0,300.17365,21454.112999999998,0.0,-0.04305476319852186,-0.04305418762658564,0.0,0.0,0.0,-1.5855432810309384,-2.5172448851577274,-2.4187265779347276,0.0016710816518229186,0.00022586486661862679,-0.4725978622267776
8612,13.0,300.08218,21536.522999999997,0.0,-0.043059777687260326,-0.04305918983677259,0.0,0.0,0.0,-1.6009432640007986,-2.5209112293195677,-2.424710731700318,0.006542849028953924,-0.003467164624757507,-0.4743928449114285
8613,13.0,300.19187,21597.578999999998,0.0,-0.043064759185941215,-0.04306419204695977,0.0,0.0,0.0,-1.6018791017931586,-2.5275093113207476,-2.435736210013448,0.0007888209682430683,-0.0014260971307198285,-0.47653909100824654
8614,13.0,299.97217,21541.009,0.0,-0.04306977367467946,-0.04306919425714695,0.0,0.0,0.0,-1.5958919082772685,-2.5217273009501078,-2.4303096477778876,0.0042860188427221255,0.004666534379976086,-0.4760038112454186
8615,13.0,299.79508,21509.582000000002,0.0,-0.04307475517336057,-0.0430741964673339,0.0,0.0,0.0,-1.5904263359128585,-2.5164800839822474,-2.4314693125173377,0.0011979665051550887,0.004515712001266076,-0.4796523424705006
8616,13.0,299.84137000000004,21534.281000000003,0.0,-0.04307976966209892,-0.04307919867752086,0.0,0.0,0.0,-1.5962932566418786,-2.5212125698993075,-2.4283779877872473,-0.003385067251305127,-0.0019436844322267182,-0.4818096127284065
8617,13.0,299.8817,21552.621,0.0,-0.043084784150837385,-0.04308420088770781,0.0,0.0,0.0,-1.5978530538458184,-2.5221840740951875,-2.431421588437628,-0.004682808392482206,0.0017524707634553982,-0.4845783287591575
8618,13.0,300.18832000000003,21581.033,0.0,-0.043089765649518275,-0.04308920309789499,0.0,0.0,0.0,-1.6056157655119385,-2.5236078931357078,-2.430871596283348,0.0037561919866322866,4.044353830271646e-05,-0.4823714903063595
8619,13.0,300.08338,21484.96,0.0,-0.04309478013825663,-0.04309420530808217,0.0,0.0,0.0,-1.5822592361318286,-2.5197568334806375,-2.4288752909363276,0.003190896513441967,0.005848087550736305,-0.4824769696417695
8620,13.0,300.14684,21422.132999999998,0.0,-0.04309976163693752,-0.043099207518269234,0.0,0.0,0.0,-1.5750192601922985,-2.5205524374591577,-2.4162217223625175,0.005315912690189735,-0.005467661584791184,-0.4840192984139856
8621,13.0,300.25255,21553.73,0.0,-0.04310477612567598,-0.04310420972845641,0.0,0.0,0.0,-1.5898811060340485,-2.5284783837163873,-2.433436334936468,-0.002160239384674028,0.0016368236659419187,-0.47751626940468656
8622,13.0,300.09575,21625.406000000003,0.0,-0.04310975762435687,-0.04310917902936584,0.0,0.0,0.0,-1.6069649080200883,-2.533272677889548,-2.4333459530275476,-0.0012102253114899388,0.002790548226680667,-0.4753624847271245
8623,13.0,299.91478,21547.653,0.0,-0.04311477211309511,-0.04311418123955291,0.0,0.0,0.0,-1.5977516275108086,-2.524661571914698,-2.4275353690040875,-0.00036925614002274366,0.002358115375502868,-0.47170590829624853
8624,13.0,300.01155,21514.307999999997,0.0,-0.04311975361177611,-0.043119183449740084,0.0,0.0,0.0,-1.5980226719125585,-2.5218459525368178,-2.4199436939548478,0.0016007466934813985,-0.0017227730109744582,-0.47688664592504754
8625,13.0,299.72997999999995,21599.276,0.0,-0.04312476810051458,-0.04312418565992704,0.0,0.0,0.0,-1.5986156258710784,-2.5295246657696477,-2.437500177112538,-0.007120184547782503,0.0003345070216857727,-0.4777396910517366
8626,13.0,299.69651,21620.755,0.0,-0.04312978258925282,-0.043129187870114216,0.0,0.0,0.0,-1.6096524525853286,-2.522232507449968,-2.440284791037358,0.0014909926585495185,0.0002515557317116177,-0.48268615512491453
8627,13.0,299.87131,21596.07,0.0,-0.04313476408793371,-0.04313419008030139,0.0,0.0,0.0,-1.6017100916764786,-2.522982616498998,-2.4399732166316075,-0.007848527059489312,0.0005038491804235424,-0.48669669021322354
8628,13.0,299.95592999999997,21529.706000000002,0.0,-0.04313977857667228,-0.04313919229048835,0.0,0.0,0.0,-1.5982785175628085,-2.520602086714058,-2.425612524289318,0.004756970497776435,-0.005755683498591734,-0.4847333053619526
8629,13.0,299.99213,21512.118,0.0,-0.04314476007535317,-0.043144194500675526,0.0,0.0,0.0,-1.5958835996264484,-2.5190235443832676,-2.424239570403818,0.00039381295533881256,-8.636579588989043e-05,-0.48448477537742457
8630,13.0,299.99672999999996,21576.432,0.0,-0.043149774564091414,-0.04314919671086248,0.0,0.0,0.0,-1.6008727417938382,-2.5260032163721076,-2.431820606327008,0.011636148949648489,0.0015286653985925286,-0.47924089200239356
8631,13.0,300.34834,21666.78,0.0,-0.043154756062772526,-0.04315419892104966,0.0,0.0,0.0,-1.6016649007220185,-2.5365001834330774,-2.4479949150232874,0.003389597796477257,0.00017488008729182083,-0.4755308666287426
8632,13.0,300.14817999999997,21604.72,0.0,-0.04315977055151088,-0.04315920113123661,0.0,0.0,0.0,-1.5953549870492785,-2.5319543381844376,-2.4399860849078774,0.00022399591667667578,-0.006739128644250213,-0.4753454215954406
8633,13.0,299.98891000000003,21543.892999999996,0.0,-0.04316475205019177,-0.04316420334142368,0.0,0.0,0.0,-1.5860666247075883,-2.5333299265201976,-2.429408969763998,-0.006368896987561194,0.004170132820835067,-0.47824269879887954
8634,13.0,300.17282,21631.982999999997,0.0,-0.04316976653893023,-0.043169205551610856,0.0,0.0,0.0,-1.6069332946169685,-2.5302672767679373,-2.4383821099995777,-0.0051047853132280855,0.0019492804098789982,-0.47601721654424156
8635,13.0,300.01099,21673.463,0.0,-0.043174781027668474,-0.04317420776179781,0.0,0.0,0.0,-1.6083936919860986,-2.532172997556018,-2.4476249774117775,-0.01115621594703279,0.007542812279067612,-0.47270651303500055
8636,13.0,299.95906,21588.351000000002,0.0,-0.04317976252634936,-0.04317917706270735,0.0,0.0,0.0,-1.5979028044257284,-2.5275070821705277,-2.436909756279268,0.0006639119744805104,-0.0035371929736187665,-0.4828176141928885
8637,13.0,299.98215,21534.519,0.0,-0.04318477701508794,-0.04318417927289453,0.0,0.0,0.0,-1.5862461726253085,-2.5200936378138774,-2.4396162486213777,0.0039965433203281156,0.003756589079346476,-0.4880965458888785
8638,13.0,299.99585,21578.596,0.0,-0.04318975851376883,-0.043189181483081485,0.0,0.0,0.0,-1.5984944411591184,-2.5269636761418974,-2.433896350481868,0.006241880109350604,-0.004449844867915496,-0.4871273113732225
8639,13.0,300.06031,21609.313,0.0,-0.04319477300250707,-0.04319418369326866,0.0,0.0,0.0,-1.5998807699459383,-2.5262901688004273,-2.442520730033028,0.001113516871595559,-0.007610900152662363,-0.48795670724257756
8640,13.0,300.22266,21652.743,0.0,-0.04319975450118796,-0.04319918590345584,0.0,0.0,0.0,-1.6096276279578785,-2.5318708463761976,-2.4403947286732075,-0.0012602943559063687,-0.01096007301917499,-0.47981984284453155
8641,13.0,299.89923999999996,21639.659,0.0,-0.043204768989926534,-0.043204188113642794,0.0,0.0,0.0,-1.6040696471843485,-2.5327844939913677,-2.441062055189068,0.0027506321509162576,0.0002023325586111688,-0.4772021720061876
8642,13.0,299.65201,21586.825,0.0,-0.043209783478664776,-0.04320919032382997,0.0,0.0,0.0,-1.5968465925214885,-2.5268643776320974,-2.438144908151168,0.0016003864830708486,0.006044862240031454,-0.4700986403251235
8643,13.0,299.79945,21650.232000000004,0.0,-0.04321476497734589,-0.043214192534016926,0.0,0.0,0.0,-1.5954126409799685,-2.5369758030300176,-2.4487413763719577,-0.004141317203891186,0.006926564106048653,-0.4776594315113155
8644,13.0,299.91207,21733.734,0.0,-0.04321977946608413,-0.043219194744204104,0.0,0.0,0.0,-1.6121763572594183,-2.5429963324741975,-2.4513398562534077,-0.0016345578360682982,-0.004427941440503795,-0.4742486796872005
8645,13.0,299.9607,21675.492000000002,0.0,-0.04322476096476502,-0.04322419695439128,0.0,0.0,0.0,-1.6064096469652884,-2.5371777437749476,-2.4452211428745376,-0.0009349664985990089,0.0004835588167735395,-0.4809613805396925
8646,13.0,300.16098999999997,21578.397,0.0,-0.043229775453503594,-0.043229199164578236,0.0,0.0,0.0,-1.5989887045578985,-2.5313119376210373,-2.4289933345729775,0.006750175806115484,-0.0005232541864011674,-0.4871242108279165
8647,13.0,300.09382,21574.478,0.0,-0.04323475695218448,-0.0432342013747653,0.0,0.0,0.0,-1.5992087824796184,-2.5253147129291578,-2.4335790005505475,0.000855056488932505,7.349943972882994e-05,-0.4829750327284245
8648,13.0,299.96204,21637.578999999998,0.0,-0.043239771440922725,-0.04323920358495226,0.0,0.0,0.0,-1.6060648379562585,-2.5290566455484575,-2.4421623434726576,0.001290990261060819,-0.006491331239544514,-0.4882064835247285
8649,13.0,300.01032000000004,21639.807,0.0,-0.043244752939603615,-0.043244205795139434,0.0,0.0,0.0,-1.5976068340715184,-2.5335711813690076,-2.4467829665786773,-0.000927572457981774,0.003920886164511336,-0.48772788497249453
8650,13.0,300.03981,21590.905,0.0,-0.04324976742834219,-0.04324920800532661,0.0,0.0,0.0,-1.5929325087101984,-2.5338576271722775,-2.436305859219668,0.0006653424201766844,0.009354249132092513,-0.4915636040210505
8651,13.0,299.94313999999997,21629.237,0.0,-0.04325478191708043,-0.04325417730623615,0.0,0.0,0.0,-1.6002160544040285,-2.5327776038906875,-2.4417542063323774,-0.005632440470378594,0.0002553100665121418,-0.4820746384245625
8652,13.0,299.86275,21696.345,0.0,-0.04325976341576132,-0.04325917951642311,0.0,0.0,0.0,-1.6154262556301586,-2.5353383908684175,-2.444382475766768,-0.0046161930752577855,-0.0032637012689022363,-0.4836905899490445
8653,13.0,299.95155,21706.152000000002,0.0,-0.043264777904499785,-0.043264181726610285,0.0,0.0,0.0,-1.6094959054448785,-2.5424704556722975,-2.4461618442673774,-0.0032689526401955067,0.003465018155745666,-0.47326123706724754
8654,13.0,299.98676,21718.137000000002,0.0,-0.043269759403180785,-0.04326918393679724,0.0,0.0,0.0,-1.6085838790298683,-2.5465021778201975,-2.4466850866190177,0.005307878832796855,0.004273228384059806,-0.47852840492957655
8655,13.0,300.09119,21708.377999999997,0.0,-0.04327477389191903,-0.04327418614698442,0.0,0.0,0.0,-1.6013429911652484,-2.5437030744189477,-2.4537587882171374,-0.0032701943781930573,-0.0005210681601054236,-0.47961415307423155
8656,13.0,299.97868,21682.721,0.0,-0.04327975539060014,-0.04327918835717137,0.0,0.0,0.0,-1.6057450562246984,-2.5427984447296677,-2.442462265502258,-0.002861804938638157,0.0004288207158963096,-0.48396444105357156
8657,13.0,300.13117,21686.197999999997,0.0,-0.04328476987933838,-0.04328419056735855,0.0,0.0,0.0,-1.6095447440996984,-2.5353486246944277,-2.447169420166818,0.0017021444548385783,0.005876247696190494,-0.4837876897061275
8658,13.0,299.94631,21640.557999999997,0.0,-0.04328975137801927,-0.043289192777545726,0.0,0.0,0.0,-1.6110697868252086,-2.5331135976238475,-2.4340059841426878,0.003081959968690767,0.009192836769962352,-0.48475537394913054
8659,13.0,299.899,21594.037,0.0,-0.043294765866757845,-0.04329419498773279,0.0,0.0,0.0,-1.5985361870632384,-2.5303524911013473,-2.435159164081498,0.002822538457512857,-0.006571849462716044,-0.4838158276614046
8660,13.0,299.97317999999996,21682.306,0.0,-0.04329978035549609,-0.04329919719791986,0.0,0.0,0.0,-1.6118915326563086,-2.5319864582126077,-2.447001625950258,0.0003197462374089967,-0.008374122076536502,-0.48379188456154154
8661,13.0,299.89592000000005,21789.148999999998,0.0,-0.043304761854176976,-0.043304199408106925,0.0,0.0,0.0,-1.6118830213554682,-2.5479442353625177,-2.4635300655564873,-0.0004812257374907825,-0.001949208975746948,-0.4833616281715786
8662,13.0,299.73814,21739.507999999998,0.0,-0.04330977634291544,-0.0433092016182941,0.0,0.0,0.0,-1.6111137618795484,-2.5477296289913376,-2.449424205614348,-0.0015745739367733485,0.002942607479787747,-0.48879917403822254
8663,13.0,300.05112,21689.822999999997,0.0,-0.04331475784159644,-0.04331420382848106,0.0,0.0,0.0,-1.6021384938187584,-2.5432218819464576,-2.4478042213544677,-0.0021654074668090778,-0.0040656684580502355,-0.4805234031839676
8664,13.0,299.86411,21684.222,0.0,-0.04331977233033468,-0.04331920603866801,0.0,0.0,0.0,-1.6124899581653684,-2.5378272370890476,-2.4411447363972276,0.0003077113593462467,-0.0017528052373134084,-0.4812214210453566
8665,13.0,299.88237999999996,21683.171000000002,0.0,-0.04332475382901557,-0.043324175339577775,0.0,0.0,0.0,-1.6027344875275784,-2.5385960912649272,-2.449811976427618,0.0014759671728166186,0.002698298999151377,-0.4720921085718635
8666,13.0,300.12006,21659.016,0.0,-0.043329768317754036,-0.04332917754976473,0.0,0.0,0.0,-1.5955654390950484,-2.5429117260908476,-2.4453226705345577,0.003811755278390956,0.004684842897357995,-0.48345170610546856
8667,13.0,300.07453,21640.017999999996,0.0,-0.04333478280649239,-0.043334179759951685,0.0,0.0,0.0,-1.5870228288269586,-2.5423300192084373,-2.4486723740401475,0.00013112579988360887,-0.004245665042914516,-0.4823143531332206
8668,13.0,299.92235,21666.551,0.0,-0.04333976430517328,-0.04333918197013886,0.0,0.0,0.0,-1.6018554930658286,-2.540680650695658,-2.4435545491100576,-0.000897188471738108,-0.002731127491791297,-0.4921251269614685
8669,13.0,300.01549,21752.046000000002,0.0,-0.04334477879391174,-0.04334418418032582,0.0,0.0,0.0,-1.6139848060378985,-2.5457263322186274,-2.4523675958298377,0.0018396264840569983,0.0024920730168984575,-0.4856207199320336
8670,13.0,299.97391,21781.264,0.0,-0.04334976029259263,-0.043349186390512995,0.0,0.0,0.0,-1.6221553508692683,-2.5442834640762277,-2.454521461567408,-0.0019473730678907582,0.006194721828496444,-0.4861168882410015
8671,13.0,300.13066000000003,21763.396,0.0,-0.043354774781330985,-0.04335418860070017,0.0,0.0,0.0,-1.6123944086809383,-2.5402131370995176,-2.4629215075464272,-0.0029316714714584476,-0.009329774177252021,-0.4787535896318005
8672,13.0,300.24197000000004,21725.884,0.0,-0.043359756280012096,-0.04335919081088724,0.0,0.0,0.0,-1.6064740896716485,-2.5427824353780872,-2.454869614301768,-0.0018230415050951882,-0.007755402282548613,-0.4793328343164676
8673,13.0,300.07563999999996,21726.874,0.0,-0.04336477076875034,-0.043364193021074415,0.0,0.0,0.0,-1.6085920863556786,-2.5396037684893775,-2.4562314224361677,0.005291797033834705,0.0015989318612272885,-0.4820225877669256
8674,13.0,300.04036,21764.049,0.0,-0.04336975226743123,-0.04336919523126137,0.0,0.0,0.0,-1.6174509319799784,-2.546901094384568,-2.4513753200069077,-0.0008821751247414061,0.005674072789162384,-0.4848678143127275
8675,13.0,299.74036,21692.284,0.0,-0.04337476675616969,-0.04337419744144855,0.0,0.0,0.0,-1.6091444089851883,-2.540245054477668,-2.4445231148806474,0.0017036236986595684,-0.0013218580134322286,-0.4839019336549026
8676,13.0,299.85033,21736.881,0.0,-0.043379781244908266,-0.043379199651635725,0.0,0.0,0.0,-1.6137155854863285,-2.546764913571127,-2.446988555023968,-0.008126534718576533,0.0005995153811325615,-0.4780032678002495
8677,13.0,299.85271,21769.59,0.0,-0.043384762743588934,-0.04338420186182268,0.0,0.0,0.0,-1.6104862560926183,-2.5530015692616375,-2.4539239479834376,0.0070315458343345435,0.001046402123396849,-0.48284309743290355
8678,13.0,299.83715,21728.612,0.0,-0.0433897772323274,-0.043389204072009635,0.0,0.0,0.0,-1.6010608010123986,-2.5508261212969376,-2.4530686635740273,-0.0025995899982595573,0.004331917755026996,-0.4822641972532706
8679,13.0,300.13271000000003,21745.804,0.0,-0.04339475873100829,-0.0433941733729194,0.0,0.0,0.0,-1.6022236068271585,-2.5507053418850174,-2.4572523732369276,0.0013995761199524087,-0.0056284183741066455,-0.4903064240919765
8680,13.0,300.25277,21779.287999999997,0.0,-0.04339977321974664,-0.04339917558310635,0.0,0.0,0.0,-1.6158545564474285,-2.550191725409327,-2.454313238671858,-0.002666561168919097,-0.0006962789418323812,-0.4891869752489955
8681,13.0,300.02493,21727.363999999998,0.0,-0.04340475471842753,-0.04340417779329353,0.0,0.0,0.0,-1.6104222186862984,-2.5487792547699275,-2.4453747515896977,0.0033955731349669762,0.0035131692190478064,-0.49460045642576456
8682,13.0,300.12235,21726.99,0.0,-0.043409769207165994,-0.043409180003480485,0.0,0.0,0.0,-1.6117130993136985,-2.5472147966155276,-2.4455346424554776,0.0006257340178051394,0.006256192368338114,-0.4902840109997645
8683,13.0,299.9775,21776.592999999997,0.0,-0.04341475070584688,-0.04341418221366744,0.0,0.0,0.0,-1.6155666920940184,-2.5478519282784076,-2.4561220927503773,0.0025832882227006977,-0.0004629409402937136,-0.4856727199271655
8684,13.0,299.72324,21767.863999999998,0.0,-0.043419765194585236,-0.04341918442385462,0.0,0.0,0.0,-1.6116293035304283,-2.5505745312971073,-2.454683277608378,-0.006337444184582044,0.0011786218382209188,-0.4842779912970165
8685,13.0,299.88104,21740.359,0.0,-0.0434247796833237,-0.043424186634041684,0.0,0.0,0.0,-1.6085572305522382,-2.546891063208577,-2.4530780867999575,0.003299769831386927,-0.0029705778434982073,-0.48368378090837255
8686,13.0,299.68951,21756.654,0.0,-0.04342976118200459,-0.04342918884422886,0.0,0.0,0.0,-1.6143486641488085,-2.5453564959321278,-2.453774290943668,-0.002339017840268088,0.005539356223441895,-0.4852945344598415
8687,13.0,299.71325,21775.857000000004,0.0,-0.04343477567074294,-0.043434191054415816,0.0,0.0,0.0,-1.6154961698870585,-2.5483778050803076,-2.4554430125333577,-6.260924448955134e-05,-0.005744343203472535,-0.48183406245331956
8688,13.0,299.97832,21794.787999999997,0.0,-0.04343975716942394,-0.04343919326460299,0.0,0.0,0.0,-1.6159436211312184,-2.552228256785318,-2.4568994582270975,-0.004944050207464766,-0.0010043720836838072,-0.48125648963131756
8689,13.0,300.03312,21834.566000000003,0.0,-0.04344477165816252,-0.04344419547479017,0.0,0.0,0.0,-1.6150906671970384,-2.5568164558881374,-2.4652558331268075,0.00030050201395723973,0.007775244961906932,-0.4828523484063165
8690,13.0,300.1619,21823.042,0.0,-0.043449753156843185,-0.043449197684977126,0.0,0.0,0.0,-1.6167435820851686,-2.5503308446480575,-2.4665854199080277,0.0031477126047800468,0.008458074102971922,-0.4837274925176865
8691,13.0,300.02392000000003,21774.907000000003,0.0,-0.04345476764558165,-0.0434541998951643,0.0,0.0,0.0,-1.6083319850550084,-2.5506875086832577,-2.4600084135089273,0.0031914674798733168,-0.004796379441865796,-0.48288565393710353
8692,13.0,300.0607,21815.83,0.0,-0.04345978213432011,-0.04345920210535126,0.0,0.0,0.0,-1.6207990142854085,-2.5540978045448273,-2.4565709625446774,-0.003538545054552207,-0.005257165867941875,-0.49010233525683455
8693,13.0,300.03271,21857.276,0.0,-0.04346476363300089,-0.0434641714062608,0.0,0.0,0.0,-1.6214225683969483,-2.5540461287897274,-2.4685975319566076,0.0029168960558502268,-0.0075634214821265824,-0.4886128474773335
8694,13.0,300.02038999999996,21790.627,0.0,-0.043469778121739355,-0.043469173616447976,0.0,0.0,0.0,-1.6151365674265683,-2.5538065964660874,-2.4548634334761577,-0.0005629163416905175,0.002281798897846018,-0.4874782910753615
8695,13.0,299.69669,21732.271,0.0,-0.043474759620420245,-0.04347417582663493,0.0,0.0,0.0,-1.5997867403366586,-2.5478883039569977,-2.4583926848994677,0.0026452894016197374,-0.002726306143840467,-0.48786230273076053
8696,13.0,299.78257,21791.033,0.0,-0.0434797741091586,-0.04347917803682211,0.0,0.0,0.0,-1.6142289993119985,-2.5509067760048976,-2.4587940332640774,-0.0034447747359727964,0.0024190692591185476,-0.48468158907684855
8697,13.0,299.68531,21826.315,0.0,-0.04348475560783949,-0.04348418024700906,0.0,0.0,0.0,-1.6103524057544085,-2.5630439923277475,-2.4612584601572975,-0.0018594430215627383,0.0021408381783842778,-0.4914182127642015
8698,13.0,299.94109,21814.939,0.0,-0.04348977009657795,-0.04348918245719613,0.0,0.0,0.0,-1.6159603397578686,-2.5536005013957475,-2.4616358958195477,-0.0029172478562849474,0.004773135585896805,-0.4887949893153095
8699,13.0,299.7625,21828.866,0.0,-0.04349475159525884,-0.04349418466738331,0.0,0.0,0.0,-1.6115386176464785,-2.5602289808999275,-2.463662497344558,0.0009223933415531351,-0.005480293773787885,-0.4878577228403085
8700,13.0,300.08114,21840.017999999996,0.0,-0.04349976608399719,-0.04349918687757026,0.0,0.0,0.0,-1.6189072763487085,-2.5538879604491176,-2.4660249912777177,8.113339567824272e-05,-0.005006466413624766,-0.4795536012482556
8701,13.0,300.11305,21871.679,0.0,-0.04350478057273566,-0.04350418908775744,0.0,0.0,0.0,-1.6182410644079586,-2.5598618803886977,-2.4703412340536977,0.002279924283836008,0.00016498541635529283,-0.4838394363887345
8702,13.0,300.17132999999995,21888.292,0.0,-0.04350976207141677,-0.043509191297944616,0.0,0.0,0.0,-1.6225309626813382,-2.5606956838959873,-2.470267368121408,-0.0014101216216931688,0.0038331992982073163,-0.4813499416880406
8703,13.0,300.06759,21821.089,0.0,-0.04351477656015501,-0.04351419350813157,0.0,0.0,0.0,-1.6168712515977686,-2.550931701957358,-2.465263331177548,0.002267137168899018,-0.0037192677344381466,-0.48642124830603956
8704,13.0,299.95821,21780.343999999997,0.0,-0.0435197580588359,-0.04351919571831875,0.0,0.0,0.0,-1.6141179471010385,-2.5534404078799473,-2.4531222645043176,0.0002172219648556388,-0.0013396010359333285,-0.48631426936048155
8705,13.0,299.83017,21864.746,0.0,-0.043524772547574364,-0.0435241979285057,0.0,0.0,0.0,-1.6232451013518183,-2.5623245847567473,-2.460767236508818,0.0027064145245023177,0.0035079618228088766,-0.49335871842821455
8706,13.0,299.95277999999996,21933.127,0.0,-0.04352975404625514,-0.04352920013869288,0.0,0.0,0.0,-1.6296477274087084,-2.5627036416191578,-2.4747716701159477,-0.0026643462042004974,0.0028957926907174874,-0.48286804365036556
8707,13.0,299.7101,21865.442000000003,0.0,-0.043534768534993606,-0.04353420234888006,0.0,0.0,0.0,-1.6206239246681284,-2.5628844054369977,-2.4630401591331377,-0.003568072479691337,-0.0027653547761942675,-0.4886401748325305
8708,13.0,299.59047000000004,21825.422000000002,0.0,-0.043539750033674496,-0.04353917164978938,0.0,0.0,0.0,-1.6138040422200586,-2.557270594582958,-2.463308771734648,-0.0008161800179031963,0.0006199935506885994,-0.4841752477368766
8709,13.0,299.70367000000005,21861.44,0.0,-0.04354476452241285,-0.043544173859976554,0.0,0.0,0.0,-1.6213996689446883,-2.5593478586129677,-2.4645843522855375,0.003330724317966897,0.006892261030538203,-0.4936243926044346
8710,13.0,299.86101,21889.98,0.0,-0.04354977901115131,-0.04354917607016373,0.0,0.0,0.0,-1.6221679151705086,-2.5663832593573077,-2.465456051346568,0.0027833274011680276,0.0054545355376957455,-0.48470961557461456
8711,13.0,299.91098999999997,21849.409,0.0,-0.0435547605098322,-0.043554178280350686,0.0,0.0,0.0,-1.6132555699409286,-2.560171124319218,-2.468248061997118,0.004704500759898075,-0.005439879989574355,-0.4935653910511116
8712,13.0,300.04368999999997,21831.781000000003,0.0,-0.043559774998570444,-0.04355918049053786,0.0,0.0,0.0,-1.6117382279161785,-2.5572498229559075,-2.4673281322313274,-0.0013426326802325286,-0.001795409060293078,-0.47979894962746955
8713,13.0,299.86512,21802.856,0.0,-0.043564756497251333,-0.04356418270072493,0.0,0.0,0.0,-1.6094060301610085,-2.5564847178053975,-2.4616329573942575,0.002317147850109688,0.004440174104986066,-0.4956709652889155
8714,13.0,299.89657,21863.652000000002,0.0,-0.04356977098598991,-0.043569184910911885,0.0,0.0,0.0,-1.6180275726118882,-2.5620475621794077,-2.4659291378182577,-0.0036475345922836367,0.004511156023516436,-0.4895678356965836
8715,13.0,299.97305,21928.661,0.0,-0.04357475248467091,-0.04357418712109906,0.0,0.0,0.0,-1.6256554206896985,-2.5704612870347776,-2.4696488802603676,-0.0025945589075380276,-0.002450242810370138,-0.49771784194842655
8716,13.0,300.16879,21948.377999999997,0.0,-0.04357976697340926,-0.04357918933128602,0.0,0.0,0.0,-1.6356244844485683,-2.5637532673977477,-2.472381210480027,-0.004325037685522986,-0.0045859789705258855,-0.48568270044065054
8717,13.0,300.01889,21914.479,0.0,-0.043584781462147615,-0.043584191541473194,0.0,0.0,0.0,-1.6234447116215185,-2.5692364703138977,-2.4687733308489577,-0.002359239171188778,0.0047354347788260255,-0.4955783339647735
8718,13.0,300.01543,21895.856,0.0,-0.043589762960828615,-0.04358919375166015,0.0,0.0,0.0,-1.6272002217921584,-2.5590396279325476,-2.4695538374009876,-0.0007621279278736703,0.0028154192609852473,-0.4824090413550655
8719,13.0,299.97391,21943.828999999998,0.0,-0.04359477744956697,-0.043594195961847326,0.0,0.0,0.0,-1.6247590996512384,-2.5665991829536177,-2.4790179986350274,-0.0006219614850328194,-0.0008132880602627821,-0.4814117094141365
8720,13.0,299.76268999999996,21916.355,0.0,-0.04359975894824786,-0.0435991981720345,0.0,0.0,0.0,-1.6268396060815684,-2.5633925503621477,-2.4717925121719277,0.0028450023135548675,-0.0016208696378173786,-0.4864517977965545
8721,13.0,299.83785,21870.952,0.0,-0.04360477343698632,-0.04360420038222157,0.0,0.0,0.0,-1.6201146651678684,-2.5606942653458473,-2.467414258489827,0.003775183941206647,0.007884883992952462,-0.48950629088550945
8722,13.0,299.84407000000004,21900.287,0.0,-0.0436097549356671,-0.043609169683131,0.0,0.0,0.0,-1.6274072287875883,-2.5621444288889674,-2.4675887401570478,0.005581639251439905,0.002170504925412158,-0.48695141115586255
8723,13.0,299.77757,21900.912999999997,0.0,-0.043614769424405564,-0.04361417189331818,0.0,0.0,0.0,-1.6187368476818884,-2.5673278111005273,-2.4712659260949574,-0.0005558306026812095,-0.004674037902266626,-0.48959338986410555
8724,13.0,299.84694,21899.931,0.0,-0.04361975092308645,-0.04361917410350524,0.0,0.0,0.0,-1.6231040569378985,-2.5629140936649275,-2.471014234770118,0.0012848900901587788,-0.008246126196079293,-0.48693397312164155
8725,13.0,300.093,21920.181,0.0,-0.043624765411824695,-0.04362417631369242,0.0,0.0,0.0,-1.6163296694193183,-2.5717625028131974,-2.475095403522898,0.0011990771285896988,-0.003403224389122097,-0.48866361130734354
8726,13.0,299.97487,21911.333,0.0,-0.04362977990056327,-0.043629178523879375,0.0,0.0,0.0,-1.6228306820609184,-2.5652931035747177,-2.472374421704358,0.003079094801382997,-0.005585272968948525,-0.4931848649760565
8727,13.0,300.2179,21910.906000000003,0.0,-0.04363476139924416,-0.04363418073406655,0.0,0.0,0.0,-1.6206492559206285,-2.5686777642087577,-2.4710412885477875,-0.003482068419153397,-0.0027867346572792973,-0.4960390486527425
8728,13.0,300.18646,21939.217,0.0,-0.0436397758879824,-0.04363918294425351,0.0,0.0,0.0,-1.6299024584838484,-2.5670463302227478,-2.4720251543948875,-0.000997458131096453,0.0003993254107853496,-0.49165073339714954
8729,13.0,300.003,21943.127999999997,0.0,-0.04364475738666351,-0.04364418515444046,0.0,0.0,0.0,-1.6230358652061685,-2.5676095959533374,-2.4795176322593373,-0.004117329014398736,0.013050481942732289,-0.49438200983670555
8730,13.0,300.07322999999997,21910.882999999998,0.0,-0.043649771875401866,-0.04364918736462764,0.0,0.0,0.0,-1.6208123891867285,-2.5644139064629474,-2.4751349202767976,-0.003939282632001926,0.0056753691413403235,-0.4887260376460045
8731,13.0,300.08999,21915.662,0.0,-0.043654753374082866,-0.043654189574814595,0.0,0.0,0.0,-1.6147621715146183,-2.569240219339268,-2.4778116230659677,-0.004588740279698405,-8.237641949016962e-05,-0.48796545159094057
8732,13.0,300.01459,21968.664,0.0,-0.04365976786282122,-0.04365919178500177,0.0,0.0,0.0,-1.6302404787172087,-2.571503110787597,-2.476181708955108,0.0014295902091145687,-0.005085457466245575,-0.48468564207724857
8733,13.0,299.92958,21997.304,0.0,-0.04366474936150211,-0.04366419399518895,0.0,0.0,0.0,-1.6339670099349883,-2.5798341544348076,-2.4728299789493176,0.0006745084325687993,-0.0012322076710844288,-0.4933666724414995
8734,13.0,299.70216,21996.898999999998,0.0,-0.04366976385024057,-0.043669196205376015,0.0,0.0,0.0,-1.6376068069442085,-2.573722432481627,-2.475178692681118,0.007676659476202303,-0.0046842445731739455,-0.4876295591827905
8735,13.0,299.68503,21958.988999999998,0.0,-0.043674778338978926,-0.04367419841556319,0.0,0.0,0.0,-1.6253932928888284,-2.5722643655877273,-2.477326681568108,-0.0012604067253424588,-0.003034456878827577,-0.48741835733194655
8736,13.0,299.86003,21906.476000000002,0.0,-0.043679759837659815,-0.04367916771647262,0.0,0.0,0.0,-1.6195045872826586,-2.5625553018045175,-2.4769619115321078,0.006862944868044923,-0.0035435302450442067,-0.4830255027159056
8737,13.0,299.90724,21943.689,0.0,-0.04368477432639828,-0.04368416992665969,0.0,0.0,0.0,-1.6248713677623186,-2.5628226985059075,-2.4826393544924277,0.0016481570709604386,0.0053902672116779545,-0.4858252140672155
8738,13.0,299.98421,22017.25,0.0,-0.043689755825078946,-0.043689172136846866,0.0,0.0,0.0,-1.6391164482681984,-2.5717178184837874,-2.481860063840518,0.0012840180871227188,0.0006168426569851303,-0.48684361147772354
8739,13.0,300.02167000000003,21972.697,0.0,-0.04369477031381752,-0.04369417434703382,0.0,0.0,0.0,-1.6317083741370786,-2.570404342379158,-2.477038614564677,-0.005048651156363076,-0.0015660735790344286,-0.4937388999982355
8740,13.0,300.09184,21921.093999999997,0.0,-0.04369975181249841,-0.043699176557221,0.0,0.0,0.0,-1.6220400430078883,-2.5692609909663178,-2.472164070983598,-0.0010892622986518191,0.003219377656527837,-0.4938502055217205
8741,13.0,300.06633999999997,21974.857000000004,0.0,-0.04370476630123665,-0.043704178767408175,0.0,0.0,0.0,-1.6233667926888284,-2.5767700861324077,-2.479671038324477,-0.006485429361687045,0.014202366947914486,-0.4957740330890875
8742,13.0,299.99163,22006.498,0.0,-0.04370978078997512,-0.04370918097759513,0.0,0.0,0.0,-1.6242634177023185,-2.5783881452170974,-2.4867742255005076,-0.00022645155869152877,0.004319704747596666,-0.48937032285459053
8743,13.0,300.03278,21938.838,0.0,-0.043714762288656006,-0.04371418318778231,0.0,0.0,0.0,-1.6186578141740884,-2.5761149186177477,-2.4740861050982876,-0.006289161905391954,0.002088307240199878,-0.49008603206272555
8744,13.0,299.9153,21968.642000000003,0.0,-0.04371977677739436,-0.04371918539796926,0.0,0.0,0.0,-1.6266973457675284,-2.5760958695158678,-2.475125497050868,0.0071644102801972425,-0.009173166140471012,-0.4845329959496835
8745,13.0,300.24111,22016.428,0.0,-0.04372475827607547,-0.04372418760815622,0.0,0.0,0.0,-1.6344580309334484,-2.579597155236418,-2.478389074297958,0.005465531226455935,-0.005316746696347045,-0.4936435835613285
8746,13.0,300.21431,22001.497000000003,0.0,-0.04372977276481371,-0.043729189818343395,0.0,0.0,0.0,-1.6310879611008484,-2.577114692491418,-2.479703259677658,0.0060852724778696346,-0.0067372927363940245,-0.48688108146642156
8747,13.0,300.14258,22026.648999999998,0.0,-0.043734754263494824,-0.04373419202853046,0.0,0.0,0.0,-1.6337217020857786,-2.5735198837866378,-2.4883096033770373,-0.00044549413132684756,-0.004816968987872826,-0.49058919179738353
8748,13.0,299.8391,22028.199,0.0,-0.04373976875223318,-0.04373919423871764,0.0,0.0,0.0,-1.6311692237588684,-2.5713413960716376,-2.4935116293904374,-0.002856236724038617,0.0007647963422770224,-0.4799453541344185
8749,13.0,299.89232000000004,22002.522999999997,0.0,-0.043744750250914066,-0.04374419644890459,0.0,0.0,0.0,-1.6282755841232883,-2.575203702802818,-2.4847382007495677,-0.002345163607424628,0.008091198330614101,-0.4902684272132265
8750,13.0,299.76088,22030.757999999998,0.0,-0.04374976473965253,-0.04374919865909177,0.0,0.0,0.0,-1.6385103220583783,-2.5747549343335274,-2.4835350675808274,0.0006835992415384925,-0.0006725075371988264,-0.4892790898155865
8751,13.0,300.02976,22066.495,0.0,-0.04375477922839077,-0.04375416796000131,0.0,0.0,0.0,-1.6426625196431683,-2.5818606546348075,-2.483140305341868,-0.0026407161986183973,0.0026207028879432375,-0.49525689050304955
8752,13.0,300.0651,22034.248,0.0,-0.04375976072707166,-0.043759170170188266,0.0,0.0,0.0,-1.6369862925829683,-2.580479696073518,-2.4803952081709477,0.0029563644777204573,0.0019116009823853279,-0.4901735363413615
8753,13.0,300.16749,21994.754,0.0,-0.04376477521581024,-0.04376417238037544,0.0,0.0,0.0,-1.6251411962639486,-2.5754688703539874,-2.4852460416996873,0.0016447692692510884,0.006415788580989034,-0.4890455964625425
8754,13.0,300.05709,22010.241,0.0,-0.043769756714490904,-0.04376917459056262,0.0,0.0,0.0,-1.6253908610885883,-2.5776824165224475,-2.4874905933212075,0.0025472460047186074,-0.0018212786525712082,-0.48541816110454256
8755,13.0,300.15948,22021.251,0.0,-0.04377477120322937,-0.043774176800749576,0.0,0.0,0.0,-1.6288970104096183,-2.5789469526472475,-2.486066470305658,0.0017246527925599785,-0.00903512327732224,-0.48539354925961353
8756,13.0,300.04104,22018.65,0.0,-0.04377975270191026,-0.04377917901093675,0.0,0.0,0.0,-1.6320354512693587,-2.5777014656243273,-2.4833828774158078,0.003009904207704417,-0.008547097446157842,-0.4888944094151215
8757,13.0,299.96578999999997,22053.882999999998,0.0,-0.04378476719064861,-0.04378418122112371,0.0,0.0,0.0,-1.6343755523753085,-2.5875872402249773,-2.4818668526161876,0.0048782249213433155,-0.0031602857212959167,-0.49695691138832854
8758,13.0,299.78404,22015.447999999997,0.0,-0.04378974868932972,-0.043789183431310885,0.0,0.0,0.0,-1.6254510481445286,-2.5802831255541174,-2.4864124952148074,0.0067105043289252125,-0.0031252819833413174,-0.5029620495634896
8759,13.0,299.84204,21956.607000000004,0.0,-0.043794763178067964,-0.04379418564149784,0.0,0.0,0.0,-1.6191180323695085,-2.5753654175187775,-2.4797769229599274,-0.0036868449471382666,-8.727046002967382e-05,-0.5023908804821196
8760,13.0,299.92601,22013.496,0.0,-0.04379977766680632,-0.043799187851684906,0.0,0.0,0.0,-1.6271989045670285,-2.5798509743864675,-2.4845032280513775,-0.004049185209398466,-0.0006611010565830944,-0.49820327993883556
8761,13.0,300.10107,22037.958,0.0,-0.04380475916548743,-0.043804190061872084,0.0,0.0,0.0,-1.6329169788563584,-2.5776013565144473,-2.4884706088179276,-0.005812656930514574,0.009458473151953622,-0.4923480419834685
8762,13.0,299.94863,21976.212000000003,0.0,-0.04380977365422589,-0.04380919227205904,0.0,0.0,0.0,-1.6282831834990383,-2.5726905385797876,-2.4792459799075273,0.00015577093007839384,0.0024439510338741875,-0.4963379472997415
8763,13.0,299.97309,22065.249,0.0,-0.04381475515290678,-0.043814194482246216,0.0,0.0,0.0,-1.6340831283964485,-2.5853254633517575,-2.4878761349842575,0.0005286426706979696,0.0006299497765687024,-0.48762528326736854
8764,13.0,300.07271000000003,22127.889,0.0,-0.04381976964164502,-0.04381919669243339,0.0,0.0,0.0,-1.6437446707499683,-2.5833163910534775,-2.4992645594832075,-0.0023781030509504976,-0.001245437171015079,-0.4871122139467326
8765,13.0,300.00317,22091.975,0.0,-0.04382475114032591,-0.04382416599334271,0.0,0.0,0.0,-1.6338195820454384,-2.5852310284424376,-2.4963582542213776,-0.0018170632281801784,0.002130296121693858,-0.48367760008276256
8766,13.0,300.17447999999996,22079.93,0.0,-0.04382976562906449,-0.04382916820352989,0.0,0.0,0.0,-1.6361832918787185,-2.5852077236901376,-2.4903564699040475,-0.002370039302679668,-0.0005732937452396873,-0.48501511047976453
8767,13.0,300.24435,22100.767999999996,0.0,-0.04383478011780273,-0.043834170413717066,0.0,0.0,0.0,-1.6451538989890484,-2.5823390100070176,-2.490588808151977,0.0015138232098027187,-0.0007645881599114763,-0.4826846555147666
8768,13.0,300.27977999999996,22084.019,0.0,-0.04383976161648362,-0.04383917262390402,0.0,0.0,0.0,-1.6459182948644884,-2.5807019018204476,-2.4863701413606276,0.007451502334381023,-0.0006674590084430754,-0.4893943571469625
8769,13.0,300.09719,22067.347999999998,0.0,-0.043844776105222194,-0.0438441748340912,0.0,0.0,0.0,-1.6349016318272285,-2.5849543098401275,-2.488066727328068,0.001107009779453359,0.002400268808813088,-0.4998686882006986
8770,13.0,299.98846000000003,22047.218999999997,0.0,-0.04384975760390286,-0.043849177044278154,0.0,0.0,0.0,-1.6293920844084784,-2.5836956505659074,-2.4887163219671775,-0.0015953656261753284,-0.005279016403698354,-0.5024053800910505
8771,13.0,299.74043,22028.958,0.0,-0.043854772092641325,-0.04385417925446533,0.0,0.0,0.0,-1.6237348051251483,-2.582025611751088,-2.4904926507174876,-0.0007887924148552502,-0.006198787291872674,-0.4977332332174455
8772,13.0,300.00196,22056.877999999997,0.0,-0.043859753591322215,-0.04385918146465251,0.0,0.0,0.0,-1.6302084600140485,-2.5834085968125775,-2.4911230949297076,-0.0008466655419393834,0.0013328278643148686,-0.4957741952091035
8773,13.0,299.8993,22117.542999999998,0.0,-0.04386476808006057,-0.043864183674839574,0.0,0.0,0.0,-1.6388327382401986,-2.5891997264341176,-2.4951484336019774,0.0025364635037794575,0.004287070798975947,-0.48971343973595355
8774,13.0,300.04375,22074.601000000002,0.0,-0.04386974957874157,-0.04386918588502664,0.0,0.0,0.0,-1.6319760748134984,-2.5916582764767573,-2.4864932512477775,-0.004617245740786676,0.0035058696640023965,-0.4930460801098595
8775,13.0,299.96747,22040.283,0.0,-0.04387476406748014,-0.043874188095213706,0.0,0.0,0.0,-1.6211225450423383,-2.5914468111808877,-2.487126431235268,-0.004005307528393076,0.0008806487546582652,-0.4920408853481545
8776,13.0,300.12607,22129.196,0.0,-0.043879778556218385,-0.04387919030540066,0.0,0.0,0.0,-1.6293860049078785,-2.6003073793303577,-2.4970296337376374,-0.0029412486100786374,0.004162951512076326,-0.4984198621477105
8777,13.0,300.17506000000003,22161.574,0.0,-0.043884760054899274,-0.04388419251558784,0.0,0.0,0.0,-1.6411565260195384,-2.593847504642818,-2.5015611921598677,-0.0006834829609570163,0.005118837774889955,-0.4910045534108765
8778,13.0,299.99174,22098.234,0.0,-0.04388977454363785,-0.043889194725774794,0.0,0.0,0.0,-1.6352738999139684,-2.5910109109878676,-2.491026430870168,-0.003910644435150557,-0.0015332539016703786,-0.49408613067500456
8779,13.0,299.83094,22065.958,0.0,-0.04389475604231874,-0.043894164026684335,0.0,0.0,0.0,-1.6420633848590382,-2.5806714029924374,-2.4847653558522476,-0.0012380937422403386,-0.0075368380551530025,-0.4926475789780305
8780,13.0,299.93554,22110.464,0.0,-0.04389977053105698,-0.04389916623687151,0.0,0.0,0.0,-1.6422417168766383,-2.5870500150219575,-2.491737225815318,0.005388958396523785,-0.005656293492307705,-0.4921711994435155
8781,13.0,299.73824,22112.269,0.0,-0.04390475202973787,-0.04390416844705847,0.0,0.0,0.0,-1.6427672897035084,-2.5834349413151774,-2.4953753002993677,0.008470965582669212,-0.002753262953475898,-0.4947150651445755
8782,13.0,300.0231,22159.802000000003,0.0,-0.043909766518476334,-0.043909170657245644,0.0,0.0,0.0,-1.6381283267706785,-2.590751113662227,-2.5071470373111477,0.0015942112303363985,-0.0017106664961296385,-0.4945567650814525
8783,13.0,299.8903,22156.697999999997,0.0,-0.04391474801715711,-0.0439141728674326,0.0,0.0,0.0,-1.6483707654065285,-2.5825679032046076,-2.5041441693147877,0.002154152386023288,-0.004371865646844546,-0.4873024921830115
8784,13.0,299.78931,22149.048,0.0,-0.043919762505895577,-0.043919175077619776,0.0,0.0,0.0,-1.6453837041117285,-2.589197801258927,-2.4981759235757677,-0.002399013189289168,0.003847470013940726,-0.4854268750554025
8785,13.0,300.0008,22151.305,0.0,-0.04392477699463404,-0.043924177287806954,0.0,0.0,0.0,-1.6448276324568485,-2.5923314798431973,-2.4962844896140974,0.006122113035605514,0.003748355713008906,-0.4894161014941085
8786,13.0,300.14831000000004,22160.572999999997,0.0,-0.04392975849331482,-0.04392917949799402,0.0,0.0,0.0,-1.6426740706943084,-2.594170934074737,-2.4994157363981273,-0.0019787506877124877,0.0034330420090898667,-0.48970737036785456
8787,13.0,299.90205,22147.501,0.0,-0.04393477298205328,-0.0439341817081812,0.0,0.0,0.0,-1.6373304936419384,-2.5986759453443478,-2.4962808419137374,-0.003196983714742727,-0.0013129980532328189,-0.4944605873819605
8788,13.0,300.16459,22105.853,0.0,-0.043939754480734394,-0.04393918391836815,0.0,0.0,0.0,-1.6282843993991585,-2.5986796943697175,-2.4926632350817077,-0.003214027493349817,0.0015758118244205185,-0.5022820675538805
8789,13.0,300.01563,22093.675,0.0,-0.043944768969472636,-0.04394418612855533,0.0,0.0,0.0,-1.6273545397823883,-2.5946405754960877,-2.4939305069817777,0.007344763731746742,0.0026447511631666177,-0.4975591467177645
8790,13.0,300.18952,22125.845,0.0,-0.043949750468153526,-0.043949188338742284,0.0,0.0,0.0,-1.6357599559869385,-2.5932080425047075,-2.4967363991586975,0.0026031345497593773,-0.001192843816624519,-0.5003439835576065
8791,13.0,299.95945,22118.968999999997,0.0,-0.04395476495689199,-0.04395419054892924,0.0,0.0,0.0,-1.6356663316776985,-2.592175135352768,-2.4957727983135976,0.0059931981373076045,-0.008151749244665012,-0.4952197244893815
8792,13.0,299.81997,22121.362999999998,0.0,-0.04395977944563034,-0.04395919275911642,0.0,0.0,0.0,-1.6348694104740484,-2.5936667408249776,-2.4958057289418476,-0.006558142418013264,-0.00037682674960240464,-0.5072113063753585
8793,13.0,299.93402000000003,22189.06,0.0,-0.04396476094431123,-0.04396416206002618,0.0,0.0,0.0,-1.6448588405599285,-2.592688447853427,-2.5073730934084577,0.0009316459665637982,0.0016616434297914383,-0.4921294231418925
8794,13.0,299.97823,22186.487999999998,0.0,-0.043969775433049696,-0.043969164270213135,0.0,0.0,0.0,-1.6364111718262084,-2.5978437630372175,-2.509883521856218,-0.008000178074131102,0.0011400663546907888,-0.5018464206733855
8795,13.0,299.93087,22205.382999999998,0.0,-0.043974756931730585,-0.04397416648040009,0.0,0.0,0.0,-1.6504613030128483,-2.5929496637292075,-2.5064707941944078,-0.0013836294885535988,-0.0008999561643862582,-0.48265199846404355
8796,13.0,299.78623999999996,22220.827,0.0,-0.04397977142046894,-0.043979168690587045,0.0,0.0,0.0,-1.6507398454653384,-2.5998711751623076,-2.503965431997148,-0.0013577188596464189,0.001968851436885508,-0.4921835002997295
8797,13.0,299.71612000000005,22166.916,0.0,-0.04398475291914983,-0.04398417090077422,0.0,0.0,0.0,-1.6489777022164285,-2.5971364131424077,-2.4920749420736477,0.006125366581676614,0.0037890909001541562,-0.48625321090945556
8798,13.0,300.15156,22147.352000000003,0.0,-0.04398976740788829,-0.0439891731109614,0.0,0.0,0.0,-1.6389695270036986,-2.5993412453600073,-2.4939311149318373,-9.250116000765372e-05,-0.0014080998837686387,-0.49911143573846356
8799,13.0,300.29427999999996,22192.202999999998,0.0,-0.04399474890656907,-0.043994175321148465,0.0,0.0,0.0,-1.6460142496489585,-2.5984326639953377,-2.5014286590467876,0.008211711460407823,-0.0023001176490539377,-0.4880097812828156
8800,13.0,300.10005,22177.153,0.0,-0.043999763395307534,-0.04399917753133564,0.0,0.0,0.0,-1.6423098072833586,-2.5989632017476976,-2.5000278407835377,-0.0033250609591829665,0.007315255761009533,-0.5001931410152195
8801,13.0,299.90771,22135.442000000003,0.0,-0.044004777884046,-0.0440041797415226,0.0,0.0,0.0,-1.6410796203369484,-2.5879153306073577,-2.4996267963939576,-0.0005135776276811655,0.001038739622165619,-0.49413685397501056
8802,13.0,299.84058,22136.328999999998,0.0,-0.04400975938272689,-0.044009181951709775,0.0,0.0,0.0,-1.6404743047272086,-2.5903412539967774,-2.498075611815868,-0.006671240380925164,-0.001355996030501389,-0.49904116684402855
8803,13.0,299.84645,22216.08,0.0,-0.04401477387146524,-0.04401418416189695,0.0,0.0,0.0,-1.6465718411789885,-2.5975963273627976,-2.508965314615598,0.0019492845642044081,-0.003091811596763047,-0.4975456502264325
8804,13.0,300.00914,22214.651,0.0,-0.04401975537014624,-0.04401918637208391,0.0,0.0,0.0,-1.6448305708821385,-2.599086514284868,-2.5087821189975177,0.004416909477390026,0.007369592716172173,-0.5020912826925514
8805,13.0,300.01672,22188.697999999997,0.0,-0.044024769858884594,-0.04402418858227086,0.0,0.0,0.0,-1.6362937361396184,-2.6037258825177374,-2.504790420228568,0.0044866889720267256,0.002029072943328908,-0.5002638557396986
8806,13.0,300.06569,22193.458,0.0,-0.04402975135756548,-0.04402919079245804,0.0,0.0,0.0,-1.6368922629736884,-2.5999636848964376,-2.509401113483608,-0.0038006565420955966,0.0006117587759333905,-0.49551859273887755
8807,13.0,300.00081,22191.457000000002,0.0,-0.04403476584630395,-0.044034193002644995,0.0,0.0,0.0,-1.6410477029587984,-2.6040601537257273,-2.5005410519591873,-0.0007658487646258884,-0.007281511087629192,-0.4956031585922235
8808,13.0,300.04917,22212.888,0.0,-0.044039747344984836,-0.04403916230355476,0.0,0.0,0.0,-1.6381489970727183,-2.6137105503281473,-2.5003038501107775,-0.0004680015267256546,-0.003071672845725507,-0.4906157288175025
8809,13.0,300.18703,22227.422000000002,0.0,-0.04404476183372319,-0.04404416451374171,0.0,0.0,0.0,-1.6518021368701785,-2.6049031778089273,-2.4998757519435277,-0.0005601742437398935,-0.01014947901867559,-0.49562077901146256
8810,13.0,300.17615,22201.083,0.0,-0.04404977632246165,-0.04404916672392878,0.0,0.0,0.0,-1.6422340161758784,-2.6030868256796675,-2.503253826451918,-0.006271330122182094,-0.006157380218586114,-0.49358252511030254
8811,13.0,299.93191,22212.843999999997,0.0,-0.04405475782114254,-0.044054168934115845,0.0,0.0,0.0,-1.6469054031119086,-2.5996619390166575,-2.5055825791567474,-0.0013080990903243288,0.0030101390790775967,-0.49572912584465556
8812,13.0,299.96262,22287.932,0.0,-0.044059772309880896,-0.04405917114430291,0.0,0.0,0.0,-1.6534922380369785,-2.5997100683964076,-2.521772390579558,4.4978137488496555e-05,0.014201755958104184,-0.4937394876832935
8813,13.0,299.88147000000004,22273.906000000003,0.0,-0.044064753808561785,-0.04406417335449009,0.0,0.0,0.0,-1.6575536484128086,-2.5994423677199876,-2.513715127109368,0.0028746602453068775,0.011119734890432388,-0.49543871823349456
8814,13.0,299.85504,22220.415,0.0,-0.04406976829730025,-0.04406917556467704,0.0,0.0,0.0,-1.6492320279915285,-2.5963166938115076,-2.5089024931093973,0.001083775752010339,-0.0009018412250047991,-0.4927804160661405
8815,13.0,299.72982,22227.808999999997,0.0,-0.04407474979598114,-0.04407417777486422,0.0,0.0,0.0,-1.6560238434118286,-2.5957427889548677,-2.5049322752425676,0.0007637489963111572,-0.0030942720719808773,-0.49445132627604654
8816,13.0,299.7407,22281.947999999997,0.0,-0.04407976428471949,-0.0440791799850514,0.0,0.0,0.0,-1.6519209911069086,-2.6094298726306775,-2.5118049480208473,-0.002082672961693818,-0.0020155347060927882,-0.4966335934139195
8817,13.0,299.82461,22262.972999999998,0.0,-0.044084778773457955,-0.04408418219523835,0.0,0.0,0.0,-1.6524346075825984,-2.6054617825890576,-2.5094915967175377,8.096227597485453e-05,-0.005419543654767315,-0.4987070070935495
8818,13.0,300.06262000000004,22247.012000000002,0.0,-0.044089760272138845,-0.04408918440542553,0.0,0.0,0.0,-1.6429219116687686,-2.608966108059908,-2.5106482217066874,-0.005517443068829234,-0.0031640875369961267,-0.49093603743911457
8819,13.0,299.85168999999996,22236.115,0.0,-0.04409477476087709,-0.044094186615612485,0.0,0.0,0.0,-1.6457632675991885,-2.6089872849869975,-2.504473272947268,0.0026201384063125276,-0.0014531720853169189,-0.49880149266537455
8820,13.0,299.92294,22227.197,0.0,-0.0440997562595582,-0.04409918882579966,0.0,0.0,0.0,-1.6385910780913484,-2.6099281890298576,-2.5079936077696976,0.0034824198142880767,0.0032539806540678867,-0.4923779531264205
8821,13.0,300.04865,22253.553,0.0,-0.04410477074829655,-0.04410419103598662,0.0,0.0,0.0,-1.6478357693537284,-2.6140943694660272,-2.5025945046118476,0.005443962070252224,0.0030086742234080276,-0.5042924672097915
8822,13.0,300.27993,22267.888,0.0,-0.04410975224697744,-0.04410916033689616,0.0,0.0,0.0,-1.6450867205074184,-2.6040735286270476,-2.519721775027177,0.0025396183592908176,-7.481885347904593e-07,-0.49311192110135754
8823,13.0,300.03904,22223.857999999997,0.0,-0.044114766735715905,-0.044114162547083335,0.0,0.0,0.0,-1.6430944681607984,-2.6070168175175272,-2.5053867179124176,-0.002092330653696958,0.004047466838553876,-0.5083112298889125
8824,13.0,299.99441,22248.638,0.0,-0.044119748234396794,-0.04411916475727051,0.0,0.0,0.0,-1.6423940083666684,-2.6064747287140273,-2.5141617677534476,-0.008153770881264533,0.0049399436061344755,-0.5003304262712686
8825,13.0,299.98287999999997,22312.936,0.0,-0.04412476272313515,-0.04412416696745747,0.0,0.0,0.0,-1.6531824874814085,-2.612318446015758,-2.5170744564909078,-0.0019427494050344382,-0.0008748404504475303,-0.5062257990630965
8826,13.0,300.07392000000004,22306.795,0.0,-0.04412977721187361,-0.044129169177644534,0.0,0.0,0.0,-1.6489855042421984,-2.6183615709371675,-2.5133617054744875,-0.0034673438687001963,-0.002454119403927728,-0.4961461795858156
8827,13.0,299.79677999999996,22245.356,0.0,-0.0441347587105545,-0.04413417138783149,0.0,0.0,0.0,-1.6500818408503986,-2.6040617749258876,-2.5078891416843874,0.0066704695002490835,-0.0019823638362440783,-0.4966173408823155
8828,13.0,299.87661,22256.017000000003,0.0,-0.04413977319929285,-0.044139173598018666,0.0,0.0,0.0,-1.6434388718697883,-2.606994019390277,-2.5148405439954375,0.004813813423086395,-0.004425912001878506,-0.4944153254999935
8829,13.0,299.99497,22274.176,0.0,-0.04414475469797374,-0.04414417580820584,0.0,0.0,0.0,-1.6476220749076385,-2.6065797014243874,-2.5165915414932476,0.002640404320237617,-0.002369517681528188,-0.4900830429749305
8830,13.0,300.02701,22274.959,0.0,-0.04414976918671221,-0.0441491780183928,0.0,0.0,0.0,-1.6474122308119286,-2.605528454445637,-2.5180905436911876,0.0033582742842108663,-0.005811512565851635,-0.4914786835301695
8831,13.0,300.0751,22298.167,0.0,-0.044154750685393096,-0.044154180228579976,0.0,0.0,0.0,-1.6529317080816586,-2.6137791473599177,-2.5113751273284275,0.002101336015285718,0.003576335128956796,-0.49207544730906555
8832,13.0,300.07484,22280.535,0.0,-0.04415976517413134,-0.04415918243876693,0.0,0.0,0.0,-1.6523840464026085,-2.6051079556541374,-2.515234394309308,0.0015277454688267383,-0.0007184690379623734,-0.49643199717402353
8833,13.0,300.16888,22271.135,0.0,-0.04416474667281245,-0.04416418464895411,0.0,0.0,0.0,-1.6553079822161785,-2.6079567083102875,-2.5066042392325776,-0.0026512038437784477,0.00016752652601608085,-0.49969449024350654
8834,13.0,300.06157,22325.932,0.0,-0.0441697611615508,-0.044169186859141285,0.0,0.0,0.0,-1.6556497514749087,-2.6131334030711875,-2.5177427962568677,0.0014307251505515785,-0.00045216126632234257,-0.5024031914708345
8835,13.0,300.01968999999997,22324.863999999998,0.0,-0.044174775650289266,-0.04417418906932835,0.0,0.0,0.0,-1.6564906477328984,-2.608938446332177,-2.520771907430818,0.003005237887018887,0.004456915935063356,-0.5017269382215934
8836,13.0,299.92721,22273.703999999998,0.0,-0.044179757148970156,-0.04417915837023778,0.0,0.0,0.0,-1.6465525894270883,-2.6107560143615576,-2.513341237822468,0.002513373965800698,0.001041982427785659,-0.5059143259823565
8837,13.0,299.84425,22310.961,0.0,-0.04418477163770851,-0.04418416058042496,0.0,0.0,0.0,-1.6516282631530184,-2.6156034028399575,-2.5147433733108473,-0.007074837958107144,0.002602351915382138,-0.5031075421453485
8838,13.0,299.97844,22328.187,0.0,-0.0441897531363894,-0.044189162790612024,0.0,0.0,0.0,-1.6574799851305382,-2.6096056715230276,-2.520125757842048,-0.007132555419578413,0.001108903138590219,-0.4952376590161515
8839,13.0,299.87002,22289.451,0.0,-0.04419476762512786,-0.04419416500079909,0.0,0.0,0.0,-1.6458905318117483,-2.6173352499108775,-2.5122105520358775,-0.006811019650770304,0.0020094111291134383,-0.4974250531995305
8840,13.0,300.00369,22315.377,0.0,-0.04419974912380875,-0.04419916721098616,0.0,0.0,0.0,-1.6465978817065585,-2.6154305423728976,-2.5212890702818576,-0.002393469697992068,-0.003210827548209007,-0.49384365992607454
8841,13.0,300.2351,22366.404,0.0,-0.04420476361254699,-0.04420416942117311,0.0,0.0,0.0,-1.6515742569226883,-2.6247861845212275,-2.5224680880982175,-0.003363656162117017,-0.004749638316077806,-0.4988332175260055
8842,13.0,300.25732999999997,22348.938,0.0,-0.04420977810128557,-0.04420917163136029,0.0,0.0,0.0,-1.6525586293948382,-2.621967930693087,-2.5189924376051978,0.005445273722506676,-0.0034086642249339665,-0.4977935013333935
8843,13.0,300.06923,22365.625,0.0,-0.04421475959996646,-0.044214173841547244,0.0,0.0,0.0,-1.6611758148702882,-2.617285398005958,-2.5201303174674976,0.005404517763734375,0.0017475221512920085,-0.5009539094553015
8844,13.0,300.20321,22379.836,0.0,-0.0442197740887047,-0.04421917605173442,0.0,0.0,0.0,-1.6653788776100982,-2.616017112855787,-2.5215154303541976,0.005616977361927505,0.0018710833400365483,-0.4995189446636815
8845,13.0,300.03454,22343.795,0.0,-0.04422475558738559,-0.044224178261921376,0.0,0.0,0.0,-1.6638805846872287,-2.6064603405626077,-2.5216147288639976,-0.0014752605321968787,0.0012747090544789888,-0.4974201794665495
8846,13.0,299.90355,22347.826,0.0,-0.044229770076124164,-0.044229180472108554,0.0,0.0,0.0,-1.6567044435039984,-2.6083641361754974,-2.528112397780268,-0.004080374060726566,0.0009436451782230281,-0.4962671008527495
8847,13.0,299.8685,22370.369,0.0,-0.044234751574805053,-0.04423418268229573,0.0,0.0,0.0,-1.6627136245470586,-2.612245086708518,-2.5250747753054776,-0.01076179010710599,0.0032732699975465966,-0.4984230944155295
8848,13.0,299.85732,22355.414,0.0,-0.04423976606354352,-0.0442391848924828,0.0,0.0,0.0,-1.6520495725445983,-2.615068609437177,-2.5283693580056275,0.002285175553804268,0.00042122335651400856,-0.4956270206320786
8849,13.0,299.96612999999996,22325.51,0.0,-0.04424474756222441,-0.044244187102669974,0.0,0.0,0.0,-1.6557679977615785,-2.6191967929945976,-2.511432679934108,-0.001994216734588868,0.005017437581732535,-0.49740084665464157
8850,13.0,299.76797999999997,22337.615,0.0,-0.04424976205096265,-0.04424918931285693,0.0,0.0,0.0,-1.6513700870275383,-2.6179870737002076,-2.5207200290256977,0.0070695973272649325,0.003182940574981777,-0.4924294262315005
8851,13.0,299.7833,22369.507999999998,0.0,-0.044254776539701224,-0.04425415861376647,0.0,0.0,0.0,-1.6549463532554882,-2.6237650310704472,-2.5210604810592976,0.0007939541236471713,0.004148151474490676,-0.49773506720012656
8852,13.0,299.96547999999996,22383.331000000002,0.0,-0.04425975803838211,-0.04425916082395365,0.0,0.0,0.0,-1.6471400718350684,-2.631662099699827,-2.5251715406900272,0.006674134324535773,-0.007935970644444323,-0.4994561028924795
8853,13.0,300.10775,22343.047000000002,0.0,-0.044264772527120355,-0.0442641630341406,0.0,0.0,0.0,-1.6497556756432086,-2.6201110485598273,-2.5218617592383774,0.004728515192568116,-0.008542058452085532,-0.5048517204699855
8854,13.0,300.12987000000004,22342.18,0.0,-0.044269754025801245,-0.04426916524432778,0.0,0.0,0.0,-1.6456027687833483,-2.6221843609144475,-2.5236778073926076,0.002999341582036967,-0.007831056297290083,-0.5052472426465205
8855,13.0,300.04295,22311.833,0.0,-0.04427476851453982,-0.044274167454514735,0.0,0.0,0.0,-1.6539158779037884,-2.6123370898175975,-2.515987137808598,-0.002872342537028137,3.172056343732587e-05,-0.5073512159491665
8856,13.0,300.10568,22365.617000000002,0.0,-0.04427975001322071,-0.04427916966470191,0.0,0.0,0.0,-1.6584631417025684,-2.6155750318371576,-2.5245511276537975,-0.005606668048785055,-0.0035350760915098464,-0.5018101767173084
8857,13.0,299.86942,22392.195,0.0,-0.04428476450195895,-0.04428417187488887,0.0,0.0,0.0,-1.6598283948873085,-2.6190200821771574,-2.5278196698263775,-0.005561741349951135,0.002257333771531498,-0.5003170311049465
8858,13.0,299.81186,22363.237999999998,0.0,-0.04428974600063984,-0.04428917408507582,0.0,0.0,0.0,-1.6532534149884084,-2.6124034576991475,-2.5322090692595776,-0.0014492234496772186,0.005325444840505485,-0.4942917393852965
8859,13.0,299.95875,22414.205,0.0,-0.044294760489378415,-0.044294176295263,0.0,0.0,0.0,-1.6582203669786084,-2.6277487251636074,-2.527389545158927,0.002324337264869228,0.0069446695681105244,-0.5036818219045255
8860,13.0,300.0524,22486.555,0.0,-0.04429977497811666,-0.044299178505450176,0.0,0.0,0.0,-1.6698303892744284,-2.6320621308393077,-2.5334589132579275,0.0006422688408869994,-0.0005769219405352624,-0.4955934111262615
8861,13.0,299.91146000000003,22457.381,0.0,-0.04430475647679777,-0.04430418071563724,0.0,0.0,0.0,-1.6726257436503087,-2.6285323727909478,-2.525324946755168,0.00016748377699436184,0.00044590653425004864,-0.49775578816467153
8862,13.0,300.05074,22421.556,0.0,-0.04430977096553601,-0.04430918292582442,0.0,0.0,0.0,-1.6654099843881682,-2.626573355047608,-2.5236098183108977,0.0016541018092971385,-0.0008437699771286133,-0.4919905470831865
8863,13.0,300.11724,22400.666,0.0,-0.0443147524642169,-0.044314185136011375,0.0,0.0,0.0,-1.6546868599048785,-2.6239587644895677,-2.5305973936505177,0.0014719737515224986,-0.0028889278199649773,-0.5000384785199555
8864,13.0,300.33231,22383.38,0.0,-0.044319766952955475,-0.04431918734619855,0.0,0.0,0.0,-1.6513725188277784,-2.622191048365108,-2.5304250398085077,-0.0023989696195348678,-0.007961426628031633,-0.5011746662545885
8865,13.0,300.32112,22394.707000000002,0.0,-0.044324748451636364,-0.04432415664710809,0.0,0.0,0.0,-1.6517868367936686,-2.6268917182290275,-2.528753177143508,3.699406107302956e-05,-0.007509282110733442,-0.5032975974666055
8866,13.0,299.98686000000004,22389.61,0.0,-0.044329762940374606,-0.04432915885729505,0.0,0.0,0.0,-1.6601586130948986,-2.6225283593233977,-2.5231952976949876,0.005281780347321135,-0.0028274509979726876,-0.5070553874499705
8867,13.0,300.06995,22377.796000000002,0.0,-0.04433477742911318,-0.044334161067482225,0.0,0.0,0.0,-1.6617107095980785,-2.6201289830865977,-2.520451619074208,-0.0005815657062735665,0.005647671443231775,-0.5008652399390505
8868,13.0,299.98069,22387.07,0.0,-0.04433975892779407,-0.0443391632776694,0.0,0.0,0.0,-1.6601452381935784,-2.6281188654251375,-2.5168462725683876,-0.006193810612681514,-0.001047147368845399,-0.5108344860829385
8869,13.0,299.82581,22452.161,0.0,-0.04434477341653231,-0.04434416548785636,0.0,0.0,0.0,-1.6624166409427485,-2.6286737211798976,-2.533805850092168,-0.008201490198699061,0.0032047209938313374,-0.49990326029411053
8870,13.0,299.9244,22481.943,0.0,-0.0443497549152132,-0.044349167698043535,0.0,0.0,0.0,-1.6665939671300185,-2.634282769758468,-2.5330724596697873,-0.006075362790566624,0.004627092201283446,-0.5072685854035115
8871,13.0,300.12057999999996,22428.97,0.0,-0.044354769403951666,-0.04435416990823049,0.0,0.0,0.0,-1.6580720271639684,-2.6325092781084374,-2.5272656246716974,0.0023696014773114575,0.007397113804788294,-0.5049685583390165
8872,13.0,300.03927999999996,22389.142999999996,0.0,-0.044359750902632555,-0.044359172118417556,0.0,0.0,0.0,-1.6570377014618882,-2.625940175060118,-2.5227626399022873,0.0027472296570804577,0.00025894331792571573,-0.5045856612587275
8873,13.0,299.98629,22425.121,0.0,-0.04436476539137091,-0.04436417432860462,0.0,0.0,0.0,-1.6647808574010785,-2.6256370106301974,-2.5262591633473677,-0.001180662422597309,-0.002652482362754628,-0.4970475770072766
8874,13.0,300.02546,22452.043999999998,0.0,-0.04436974689005202,-0.04436917653879169,0.0,0.0,0.0,-1.6628947936649383,-2.6274494110840676,-2.5345164423872975,0.0030691767041041568,-0.0041168590690023555,-0.49996202879991053
8875,13.0,300.03256,22448.273999999998,0.0,-0.04437476137879026,-0.044374178748978865,0.0,0.0,0.0,-1.6558413570688184,-2.6279157087800873,-2.5399575954242977,-0.0027097454828810576,0.00041495691127055865,-0.5003003327432985
8876,13.0,300.14558999999997,22448.241,0.0,-0.044379775867528615,-0.04437918095916582,0.0,0.0,0.0,-1.6592392912791685,-2.6222434333952775,-2.542221905422768,0.0030606950914920873,-0.00859094189255995,-0.5006922376169765
8877,13.0,300.00543,22485.086,0.0,-0.044384757366209726,-0.044384183169353,0.0,0.0,0.0,-1.6674543177899286,-2.6301455682751573,-2.5373049066624977,-0.0027201921927370674,-0.00821200165523646,-0.5009647917613755
8878,13.0,299.9448,22480.957000000002,0.0,-0.04438977185494797,-0.044389185379540175,0.0,0.0,0.0,-1.6722618855393983,-2.626872365152118,-2.5345153278121875,0.0015587601424626484,0.001072047179452819,-0.5000852298795696
8879,13.0,300.00779,22509.691000000003,0.0,-0.04439475335362886,-0.044394154680449494,0.0,0.0,0.0,-1.6744189936772884,-2.6341738453727177,-2.5337911579657177,0.00015425304089858986,0.0013721594974215989,-0.5030478414494566
8880,13.0,299.96451,22482.516,0.0,-0.04439976784236732,-0.04439915689063667,0.0,0.0,0.0,-1.6672655492962984,-2.6306852252784174,-2.5361727010007575,0.003501140927110707,0.003997364458209156,-0.4982646322323905
8881,13.0,299.63223999999997,22435.923,0.0,-0.04440474934104832,-0.04440415910082385,0.0,0.0,0.0,-1.6573591043936085,-2.6308700420966575,-2.531731220512418,-0.0035982186966665368,0.004033638507814127,-0.5031261555496855
8882,13.0,299.91521,22487.627999999997,0.0,-0.044409763829786564,-0.0444091613110108,0.0,0.0,0.0,-1.6581633209979785,-2.6370797453345074,-2.5404342282713372,0.0014486747747480687,0.008267067643846052,-0.5020945656228755
8883,13.0,300.02951,22488.588,0.0,-0.04441474532846745,-0.04441416352119798,0.0,0.0,0.0,-1.6631304756381984,-2.6325302523855076,-2.5403085852589378,-0.0015067329922279686,0.009128023416715772,-0.5050999160819805
8884,13.0,300.13589,22447.013,0.0,-0.04441975981720592,-0.044419165731384935,0.0,0.0,0.0,-1.6534162442794784,-2.6381373757888875,-2.5317779313420274,-0.0025697451218640974,-0.004044791858289876,-0.5059457772654605
8885,13.0,300.17167,22448.32,0.0,-0.04442477430594427,-0.04442416794157211,0.0,0.0,0.0,-1.6607742638556586,-2.6291318115501077,-2.5338226700438273,-0.0028296234061870877,-0.005984364825585824,-0.5040565724540105
8886,13.0,299.99737999999996,22517.174,0.0,-0.04442975580462516,-0.04442917015175918,0.0,0.0,0.0,-1.6601795873719685,-2.6417280301682577,-2.5427511259499975,-0.002173645392772098,-0.004776480324476905,-0.5034806106996675
8887,13.0,300.14205,22508.769,0.0,-0.044434770293363623,-0.044434172361946245,0.0,0.0,0.0,-1.6632226813972983,-2.6414292227137675,-2.5374518279269975,0.0014257280037083984,-0.004618283714189116,-0.5132603182798495
8888,13.0,300.16778999999997,22475.99,0.0,-0.04443975179204451,-0.04443917457213331,0.0,0.0,0.0,-1.6602575063046585,-2.6323218268399375,-2.539560502710108,-0.0001126070533709509,-0.007592908174611692,-0.5052308381274015
8889,13.0,299.96963,22477.245,0.0,-0.044444766280782866,-0.044444176782320266,0.0,0.0,0.0,-1.6707411997893185,-2.6307736820121477,-2.5310062400658677,0.008693484423880111,-0.0033241857137465873,-0.5042794165485035
8890,13.0,300.00802000000004,22509.977000000003,0.0,-0.04444974777946398,-0.04444917899250744,0.0,0.0,0.0,-1.6722407086123083,-2.6331806576246977,-2.5370494663122876,0.0016318765736536784,0.004935021946423745,-0.5036895023402835
8891,13.0,300.01797999999997,22493.257,0.0,-0.04445476226820222,-0.04445418120269462,0.0,0.0,0.0,-1.6688008258478184,-2.6272495981643478,-2.5413379460355277,-0.0024109739987696077,0.005552482473187355,-0.5022201377077685
8892,13.0,299.88664,22527.387000000002,0.0,-0.04445977675694068,-0.044459183412881575,0.0,0.0,0.0,-1.6685934135523484,-2.6375494880808676,-2.5416203388383978,-0.010807583945375489,0.0007236348301521973,-0.49535446648767956
8893,13.0,299.99687,22533.526,0.0,-0.04446475825562157,-0.044464152713791116,0.0,0.0,0.0,-1.6699820728143984,-2.633694476750408,-2.5459527936159776,-0.003938060449731306,-0.0012403018168582588,-0.4959843128823405
8894,13.0,299.83387999999997,22509.937,0.0,-0.04446977274436015,-0.044469154923978294,0.0,0.0,0.0,-1.6720370453422086,-2.6357077033740977,-2.5347141274818075,-0.00017771698492180085,0.007407146905953482,-0.4990223305246696
8895,13.0,299.98913,22549.568,0.0,-0.044474754243040815,-0.04447415713416525,0.0,0.0,0.0,-1.6757191962056086,-2.6407022157670177,-2.5380842986394176,0.0017173639779656281,-0.0002127924204534768,-0.5014667051984105
8896,13.0,300.06675,22558.622000000003,0.0,-0.04447976873177928,-0.044479159344352426,0.0,0.0,0.0,-1.6754550419045382,-2.636207742298448,-2.545595015005668,-0.004487295908836626,-0.0022664108712273376,-0.5004655837021075
8897,13.0,299.99967000000004,22524.307999999997,0.0,-0.04448475023046017,-0.04448416155453938,0.0,0.0,0.0,-1.6628815200886284,-2.6418203372523674,-2.542125241363227,0.004667814418827415,-0.0066619428993325725,-0.5028611399860305
8898,13.0,300.14743,22534.07,0.0,-0.04448976471919852,-0.04448916376472656,0.0,0.0,0.0,-1.6647544115734683,-2.6393356453571477,-2.545704547341477,0.0028514854929947075,-0.00035674324096031666,-0.5083681441470295
8899,13.0,300.08632,22571.737999999998,0.0,-0.04449474621787941,-0.044494165974913735,0.0,0.0,0.0,-1.6684909739672382,-2.6445259176693874,-2.5482276414154876,0.004644617881638095,-0.004700640986292146,-0.5097142266398775
8900,13.0,300.1309,22515.013,0.0,-0.044499760706617875,-0.0444991681851008,0.0,0.0,0.0,-1.6707624780414183,-2.6387119899205977,-2.5345272841633677,-0.004101759413362136,-0.004524410246749526,-0.5144751544872446
8901,13.0,300.25604,22488.817000000003,0.0,-0.04450477519535623,-0.04450417039528787,0.0,0.0,0.0,-1.6664625485920486,-2.6346021461899873,-2.5349740261324576,-0.001082665229900739,-8.029596777534503e-05,-0.5076509049312435
8902,13.0,300.0537,22523.798,0.0,-0.04450975669403712,-0.044509172605474934,0.0,0.0,0.0,-1.6713591810253088,-2.639108677334747,-2.5362043144038773,0.0021865217750428978,0.007003350731751904,-0.5140965231898765
8903,13.0,300.07223,22557.429,0.0,-0.04451477118277558,-0.04451417481566189,0.0,0.0,0.0,-1.6662300076940983,-2.6432776948711973,-2.5473874544325676,0.0048911052552895054,0.004983395114147806,-0.5067247132798355
8904,13.0,300.12616,22556.874,0.0,-0.04451975268145647,-0.044519177025849066,0.0,0.0,0.0,-1.6682229693157882,-2.6438605163287177,-2.5446428638866974,-0.0063308848087346836,0.00036770103416676665,-0.5076353616747095
8905,13.0,300.09994,22583.95,0.0,-0.044524767170194934,-0.04452417923603602,0.0,0.0,0.0,-1.6699061803819086,-2.6435450915725873,-2.5515055054889872,0.0017676999124583983,-0.003939834751981416,-0.4993368332232085
8906,13.0,300.09882999999996,22595.392000000003,0.0,-0.044529748668875824,-0.0445291814462232,0.0,0.0,0.0,-1.6786663354464686,-2.6432967439730772,-2.5464718816422076,-0.0008514126895853902,0.0036331837284673167,-0.5041446137551996
8907,13.0,300.1306,22566.235,0.0,-0.0445347631576144,-0.04453418365641015,0.0,0.0,0.0,-1.6703622442519184,-2.640936783165168,-2.5482728323699475,0.0021555925183904183,-0.0030236935283153173,-0.49956425720815356
8908,13.0,300.04278999999997,22619.457000000002,0.0,-0.044539744656295066,-0.044539152957319694,0.0,0.0,0.0,-1.6856551266862083,-2.6389056220147076,-2.5511891688077677,0.00044572595281722655,-0.0035291589135758666,-0.5012721510467094
8909,13.0,299.96446000000003,22606.917999999998,0.0,-0.04454475914503353,-0.04454415516750687,0.0,0.0,0.0,-1.6764345507762084,-2.6400210077247874,-2.5554830187565374,-0.005326684349352814,-0.002036967073532998,-0.49821516536250854
8910,13.0,299.88388,22526.759,0.0,-0.044549773633771994,-0.04454915737769383,0.0,0.0,0.0,-1.6682398905924583,-2.6369433618710474,-2.5423889903642576,0.0014172686825985287,0.0065850969984984735,-0.5066898980063995
8911,13.0,299.78805,22562.678,0.0,-0.04455475513245277,-0.044554159587881004,0.0,0.0,0.0,-1.6685360635966882,-2.6405853880304875,-2.549369371628168,0.005015901798555965,-0.0007623139605920303,-0.5049732496869795
8912,13.0,299.97753,22636.549,0.0,-0.044559769621191236,-0.04455916179806818,0.0,0.0,0.0,-1.6860497876001583,-2.6446813502347273,-2.5502143208865578,0.004540216543009485,0.0006067553773370935,-0.5020510060010764
8913,13.0,300.07791000000003,22618.244,0.0,-0.044564751119872126,-0.04456416400825525,0.0,0.0,0.0,-1.6742396484095883,-2.6484170007034074,-2.5527248506593274,2.5365926931672076e-05,-0.0026931183527150876,-0.5034891220005075
8914,13.0,300.26384,22568.236,0.0,-0.04456976560861048,-0.044569166218442424,0.0,0.0,0.0,-1.6698945280057584,-2.6440698537993774,-2.5462158333419374,-0.002138876120890638,0.003446985242390957,-0.5055709557884684
8915,13.0,300.17094,22602.724,0.0,-0.04457474710729137,-0.04457416842862938,0.0,0.0,0.0,-1.6683068664240683,-2.653797358734408,-2.5485596834732576,-0.0030401493178893774,-0.006478825098860254,-0.5098023388685735
8916,13.0,300.25292,22607.197,0.0,-0.04457976159602983,-0.044579170638816557,0.0,0.0,0.0,-1.6692090643131086,-2.6510837736415973,-2.5517304470111872,-0.006863984563972534,-0.007669282711499274,-0.5036435717132505
8917,13.0,300.11127,22585.232000000004,0.0,-0.044584776084768074,-0.04458417284900351,0.0,0.0,0.0,-1.6658384878554586,-2.6542088396000176,-2.5452990446514576,-0.0018766979614906684,-0.003030370745149307,-0.5120029255682546
8918,13.0,300.08324,22554.931,0.0,-0.044589757583449185,-0.04458917505919069,0.0,0.0,0.0,-1.6603288391116982,-2.6504750129815178,-2.545332076604718,-0.0012623667563358987,0.005362929825304965,-0.5074258924815365
8919,13.0,300.08896,22528.865,0.0,-0.04459477207218754,-0.044594177269377644,0.0,0.0,0.0,-1.6583892757702785,-2.6466769463066773,-2.5431461921639875,0.0036735007472962966,0.0013337447543303586,-0.5167385728256265
8920,13.0,300.13145,22605.937,0.0,-0.04459975357086865,-0.04459917947956471,0.0,0.0,0.0,-1.6731605370530882,-2.6509929864326374,-2.5474868542673774,0.0012638115496534888,0.001172992828615379,-0.5062015418557025
8921,13.0,300.05442,22676.668999999998,0.0,-0.04460476805960689,-0.044604181689751776,0.0,0.0,0.0,-1.6855928118050585,-2.650712518804957,-2.5568359102900575,0.004402827834125276,0.001958747712188348,-0.5093489905088315
8922,13.0,299.87484,22623.105,0.0,-0.04460974955828778,-0.04460915099066132,0.0,0.0,0.0,-1.6784133268964985,-2.6463628387756772,-2.552082855395968,-0.0025948321810899976,0.003872667314777506,-0.5030196730966765
8923,13.0,299.92857000000004,22541.436,0.0,-0.044614764047026245,-0.04461415320084838,0.0,0.0,0.0,-1.6713535068247483,-2.6386720678666578,-2.5420079070016475,-0.002367045452609198,-0.0030219110187393976,-0.5035728367237695
8924,13.0,300.13717,22662.892999999996,0.0,-0.044619745545707024,-0.04461915541103545,0.0,0.0,0.0,-1.6864570128153484,-2.646913540205027,-2.5555829252163975,-0.002747125900270217,-0.0029652427777466773,-0.4965981397929205
8925,13.0,299.94593,22727.396,0.0,-0.04462476003444549,-0.044624157621222627,0.0,0.0,0.0,-1.6920683918691484,-2.6547062440741076,-2.561786143653608,0.0060935273251093245,-0.0012337431502859688,-0.5023862397966615
8926,13.0,299.91025,22687.486,0.0,-0.04462977452318395,-0.04462915983140969,0.0,0.0,0.0,-1.6823636850613684,-2.6565197591030874,-2.5575456919851076,-2.028088368206738e-05,0.001052576464206209,-0.5004787863509105
8927,13.0,300.07711,22645.119,0.0,-0.04463475602186473,-0.04463416204159687,0.0,0.0,0.0,-1.6760058446588983,-2.6538644358910273,-2.553680446828637,-0.0022934971742255474,-0.0014253312149692385,-0.5090717247514676
8928,13.0,300.00563,22639.534,0.0,-0.044639770510603194,-0.044639164251783825,0.0,0.0,0.0,-1.6743630622717685,-2.6565033444514676,-2.5509867214377873,-0.0014983147077471486,-0.0009941517440326382,-0.5022518727009005
8929,13.0,300.07454,22625.979,0.0,-0.04464475200928408,-0.044644166461971,0.0,0.0,0.0,-1.6743068268912182,-2.6517267821550576,-2.5516991375830975,0.006798910906775263,0.007794801398112003,-0.5052752590117855
8930,13.0,300.06062000000003,22627.588,0.0,-0.044649766498022325,-0.04464916867215818,0.0,0.0,0.0,-1.6700579652468883,-2.652289946560637,-2.5558738293201078,0.005352749498900245,0.006661703670983963,-0.5086379321186555
8931,13.0,300.01628,22617.666,0.0,-0.044654747996703215,-0.044654170882345134,0.0,0.0,0.0,-1.6694945981912885,-2.6545627678599475,-2.5511484361537478,0.00011919641128876989,0.0012041619215665289,-0.5097646155673505
8932,13.0,300.16149,22579.356,0.0,-0.04465976248544179,-0.04465917309253231,0.0,0.0,0.0,-1.6728169439441785,-2.6447139768879473,-2.5460293953235373,-0.006128701694380764,0.001068519346579649,-0.5084448978421046
8933,13.0,299.83891,22613.502,0.0,-0.04466474398412279,-0.04466417530271927,0.0,0.0,0.0,-1.6699100307322883,-2.6562601644274677,-2.5477697536952975,0.003270148781938557,0.007097892640282463,-0.5135618311121065
8934,13.0,299.80067,22680.967999999997,0.0,-0.04466975847286114,-0.04466917751290633,0.0,0.0,0.0,-1.6814340280946183,-2.656219229123427,-2.5567947723359974,0.0006681690941131553,0.00085503667989305,-0.5129774999119375
8935,13.0,299.89187999999996,22709.48,0.0,-0.044674772961599496,-0.0446741797230934,0.0,0.0,0.0,-1.6779594921767087,-2.6634145207335473,-2.5617409526991475,0.0005625450564563745,-0.0057801576428321445,-0.5069993445869395
8936,13.0,299.98877999999996,22640.759,0.0,-0.044679754460280496,-0.04467914902400294,0.0,0.0,0.0,-1.6725083079637184,-2.6550473040577676,-2.5546696829012676,-0.001042234828385569,-0.008810627382516222,-0.5083954613697256
8937,13.0,299.92244,22632.365,0.0,-0.04468476894901885,-0.04468415123419012,0.0,0.0,0.0,-1.6702341694392784,-2.6514608040038077,-2.5579789577278675,0.003366178141615917,0.002175136998244308,-0.5035751671989995
8938,13.0,299.94107,22683.888,0.0,-0.04468975044769974,-0.04468915344437707,0.0,0.0,0.0,-1.6811137397380083,-2.656338792635227,-2.5578828002933776,0.002139949355396558,0.0013668136912190088,-0.5108449326914695
8939,13.0,299.88227,22688.297000000002,0.0,-0.0446947649364382,-0.04469415565456414,0.0,0.0,0.0,-1.6799742386755485,-2.6521545763472774,-2.5645470475260876,-0.0031874256252244168,-0.004582313538289136,-0.5039014337311996
8940,13.0,300.10111,22688.895,0.0,-0.04469974643511898,-0.044699157864751315,0.0,0.0,0.0,-1.6885624451981383,-2.6480773592698874,-2.5602176324988077,-0.0018369476534426184,-0.00013231713882118487,-0.5018639904301195
8941,13.0,300.26178,22632.692000000003,0.0,-0.044704760923857445,-0.04470416007493827,0.0,0.0,0.0,-1.6783241608876984,-2.6466277023518177,-2.5548212651162276,0.004042529270816576,0.008850945211945281,-0.5015859343376775
8942,13.0,300.05515,22662.429,0.0,-0.04470977541259591,-0.04470916228512545,0.0,0.0,0.0,-1.6832448073483284,-2.6487182399581375,-2.5568492851913773,0.006932750909834243,0.004147838278884766,-0.5026388329140905
8943,13.0,300.16891,22809.466,0.0,-0.044714756911276576,-0.044714164495312625,0.0,0.0,0.0,-1.6958561233929683,-2.6645970849252576,-2.5730548019907378,-0.0018437897260678783,-0.0016257048672945783,-0.5041945264551255
8944,13.0,300.07608,22819.62,0.0,-0.04471977140001515,-0.04471916670549958,0.0,0.0,0.0,-1.7041239402339383,-2.662327607351277,-2.5701432278283876,-0.004214622302250836,-0.006175531884852545,-0.5049763400997845
8945,13.0,299.91772000000003,22674.388,0.0,-0.04472475289869604,-0.04472416891568676,0.0,0.0,0.0,-1.676419149374688,-2.6563863140649175,-2.5596423090920273,-0.004934066958204496,0.0035315356943354365,-0.5142663337741354
8946,13.0,299.8921,22618.292999999998,0.0,-0.04472976738743428,-0.04472917112587371,0.0,0.0,0.0,-1.6662242321685283,-2.659393336386687,-2.5497788259935774,0.002049992302243488,-0.003001730623122747,-0.5179523653854186
8947,13.0,299.90967,22693.854,0.0,-0.044734748886115394,-0.04473417333606089,0.0,0.0,0.0,-1.6719153540051985,-2.6622669136702872,-2.564182480140108,0.001183239320251629,-0.006736648208005415,-0.5119609567491125
8948,13.0,299.71114,22713.586,0.0,-0.044739763374853636,-0.044739175546247956,0.0,0.0,0.0,-1.6746869983287385,-2.6663716911503976,-2.563304194953427,0.005059624452296055,-0.007703299239881442,-0.5087349609482315
8949,13.0,300.01441,22627.976000000002,0.0,-0.04474474487353475,-0.04474417775643502,0.0,0.0,0.0,-1.6641770616664882,-2.6580873583327973,-2.5560752634399875,0.0009123191024338851,0.003018643591141927,-0.5107425944313695
8950,13.0,299.9468,22591.191000000003,0.0,-0.0447497593622731,-0.04474917996662209,0.0,0.0,0.0,-1.6641901325927786,-2.6568343732591377,-2.5461333547837977,0.006800112722718874,0.0026349615460004574,-0.5149485449339645
8951,13.0,299.9295,22715.32,0.0,-0.044754773851011564,-0.04475414926753174,0.0,0.0,0.0,-1.6821056102608984,-2.6658248400714273,-2.556959526802258,-0.002982842425358627,-0.0008572618581726583,-0.5087159929063595
8952,13.0,300.18048,22851.321,0.0,-0.044759755349692454,-0.044759151477718806,0.0,0.0,0.0,-1.6999330364953282,-2.674977730874747,-2.571320219144548,-0.0014992004909845688,0.004322336968706446,-0.5100429452373195
8953,13.0,300.34938,22820.152000000002,0.0,-0.04476476983843081,-0.04476415368790576,0.0,0.0,0.0,-1.6974640499766585,-2.670032665086708,-2.5692596737411875,-0.007651470382691332,0.01046533339284799,-0.5022987051205225
8954,13.0,300.16238,22707.673,0.0,-0.044769751337111696,-0.044769155898092716,0.0,0.0,0.0,-1.6838064518787583,-2.6568304215837473,-2.5619285052926575,-0.0025249292725911176,0.005392548544278104,-0.5085602462334885
8955,13.0,300.27145,22698.63,0.0,-0.04477476582585016,-0.04477415810827989,0.0,0.0,0.0,-1.6823843553634084,-2.6546146462650677,-2.5628176322554075,-0.0067418114265399825,0.003360905492070546,-0.5022555406662625
8956,13.0,300.21911,22777.249,0.0,-0.04477974732453083,-0.04477916031846707,0.0,0.0,0.0,-1.6956164897443184,-2.6600437416258775,-2.568054716722268,0.00014057158076083486,-0.0015385389128669685,-0.5089781815022355
8957,13.0,300.21862000000004,22826.101000000002,0.0,-0.0447847618132694,-0.044784162528654026,0.0,0.0,0.0,-1.7033994664124383,-2.6619823930422077,-2.5731828768033775,0.0026009685250206072,0.002925602103359447,-0.5072450374711875
8958,13.0,300.15807,22737.631,0.0,-0.04478974331195029,-0.0447891647388412,0.0,0.0,0.0,-1.6871603097097587,-2.6641155884777374,-2.560396065841418,-3.510321580966766e-05,-0.01097455236310399,-0.5081051753485765
8959,13.0,300.10105,22654.408,0.0,-0.044794757800688534,-0.04479416694902816,0.0,0.0,0.0,-1.6715036704895683,-2.6555435939567476,-2.5593271883109274,0.004440205110439126,-0.004627106589434866,-0.5029907042763175
8960,13.0,299.82662999999997,22782.607000000004,0.0,-0.044799772289427,-0.044799169159215335,0.0,0.0,0.0,-1.6856499591106984,-2.667418277178687,-2.572275410013818,0.0034856720431340467,-0.006243230873058914,-0.5000705174881176
8961,13.0,299.91332,22875.072999999997,0.0,-0.04480475378810789,-0.04480417136940251,0.0,0.0,0.0,-1.6937318445583183,-2.679722274467997,-2.5799967810758573,0.007161781706787823,0.006455550642738244,-0.5049235497695745
8962,13.0,299.9212,22777.87,0.0,-0.04480976827684624,-0.04480917357958958,0.0,0.0,0.0,-1.6878394912517884,-2.6712480585816576,-2.5648159641026274,-0.001871449427297678,-0.003643378645673476,-0.5133318841344126
8963,13.0,299.92438,22696.368,0.0,-0.04481474977552735,-0.044814175789776645,0.0,0.0,0.0,-1.6775747611137384,-2.6645276772934077,-2.5570267052838873,-0.0036620232581135565,0.0029876030796284667,-0.5146313773876625
8964,13.0,299.88576,22708.196,0.0,-0.044819764264265816,-0.04481917799996371,0.0,0.0,0.0,-1.6799213470203282,-2.667773826638777,-2.5550293866867677,-6.392177928483844e-05,0.001980422955677528,-0.5147572331825835
8965,13.0,300.06821,22791.421000000002,0.0,-0.044824745762946705,-0.04482414730087325,0.0,0.0,0.0,-1.6833177613555284,-2.6686901087042076,-2.5760150121578875,-0.0024419442920511378,0.007449619614370212,-0.5143881669661595
8966,13.0,300.1255,22812.857000000004,0.0,-0.04482976025168506,-0.04482914951106043,0.0,0.0,0.0,-1.6876748381105384,-2.6701610438743772,-2.5767029076507773,-0.002124169707614228,0.005223163626386115,-0.5123766324701365
8967,13.0,300.26962000000003,22724.707000000002,0.0,-0.04483477474042352,-0.044834151721247384,0.0,0.0,0.0,-1.6738650498476182,-2.6625125254945274,-2.5713658153990475,-0.009187044120465662,-2.951497634840137e-05,-0.5069530897198745
8968,13.0,299.96583,22681.875,0.0,-0.04483975623910441,-0.04483915393143456,0.0,0.0,0.0,-1.6745140365366686,-2.6633642635285875,-2.5568454348409975,0.0015837050426995185,-0.003157883203983807,-0.5194548025011976
8969,13.0,299.99527,22823.042,0.0,-0.04484477072784265,-0.044844156141621516,0.0,0.0,0.0,-1.6923481502217583,-2.6729741301270074,-2.5723126976174977,-3.707251094877197e-05,-0.0055684562596888445,-0.5101959865324235
8970,13.0,299.86785,22936.256,0.0,-0.04484975222652354,-0.04484915835180847,0.0,0.0,0.0,-1.7119833159595983,-2.6815343709468373,-2.5785314187812376,0.006450086792899004,-0.01004466863098161,-0.5112447307834266
8971,13.0,299.82722,22837.275,0.0,-0.04485476671526212,-0.04485416056199565,0.0,0.0,0.0,-1.6936647674016982,-2.671417068698337,-2.5768795171432077,0.0023361845903384676,-0.006369929894713134,-0.4980443212631475
8972,13.0,299.91135,22717.009,0.0,-0.044859748213942785,-0.044859162772182604,0.0,0.0,0.0,-1.6804665768991385,-2.6581869608176274,-2.566750055893508,0.0077285843895018936,0.001068973991899519,-0.5039600705144865
8973,13.0,300.07517,22795.014,0.0,-0.04486476270268125,-0.04486416498236978,0.0,0.0,0.0,-1.6827020092697587,-2.667868768173147,-2.5785443883825176,0.0034966139283139266,0.008560345387240311,-0.5001182213028255
8974,13.0,299.97091,22880.312,0.0,-0.04486974420136214,-0.04486916719255696,0.0,0.0,0.0,-1.7030689442298184,-2.6704926806321074,-2.5814816990974077,-0.0013426760473368086,0.0007675119944000362,-0.5100167324572324
8975,13.0,300.00953,22865.624,0.0,-0.04487475869010049,-0.044874169402744024,0.0,0.0,0.0,-1.7020001680243382,-2.6706856034511475,-2.5778928685682176,-0.004833194364374146,0.0022060688893470477,-0.5109819038399875
8976,13.0,300.06419,22772.104,0.0,-0.044879773178838955,-0.0448791716129312,0.0,0.0,0.0,-1.6948258506912885,-2.6643864302294675,-2.5629388169673675,-0.004834262633954576,-0.0028661618127431474,-0.5140648287267485
8977,13.0,299.83959,22689.343999999997,0.0,-0.04488475467752007,-0.044884173823118156,0.0,0.0,0.0,-1.6726683001545084,-2.6629226891350073,-2.5614031351158077,-0.004924947909954515,0.0052263534390259245,-0.5202578133379485
8978,13.0,299.69518999999997,22759.806,0.0,-0.04488976916625831,-0.044889176033305334,0.0,0.0,0.0,-1.6801355480914686,-2.670131659621477,-2.568145402606218,-0.003354549678168277,0.000955121461638149,-0.5141866517862715
8979,13.0,299.82251,22897.244,0.0,-0.04489475066493931,-0.044894145334214874,0.0,0.0,0.0,-1.6898852432036882,-2.680713739690847,-2.5895915502477873,-0.006052270719462615,0.0015251932944748583,-0.5170532781741856
8980,13.0,299.71509,22799.475,0.0,-0.04489976515367777,-0.04489914754440183,0.0,0.0,0.0,-1.6862680416716982,-2.6785957430068175,-2.5656074137557376,0.004239277210309087,0.0008015803707898233,-0.5137879176069196
8981,13.0,299.88936,22687.343999999997,0.0,-0.04490474665235866,-0.04490414975458901,0.0,0.0,0.0,-1.6700435770954682,-2.6713857592702475,-2.5549566353295874,0.003306985590649067,-0.0015866864297937587,-0.5208152326154615
8982,13.0,300.05163999999996,22802.085,0.0,-0.044909761141096904,-0.044909151964776184,0.0,0.0,0.0,-1.6912565758890286,-2.673961744999477,-2.5660460497240276,0.009678762538969491,-0.0014596358103548385,-0.5102979904199905
8983,13.0,300.02737,22958.261000000002,0.0,-0.044914742639777794,-0.04491415417496314,0.0,0.0,0.0,-1.7054800741677787,-2.6882057109302475,-2.585052493774818,0.0024597656387849677,-0.002795178273012617,-0.5065309494632125
8984,13.0,299.80674,22899.577,0.0,-0.04491975712851637,-0.044919156385150094,0.0,0.0,0.0,-1.6938972069746383,-2.680138314959058,-2.5868642862786273,0.007189408173414343,0.0026369369783954175,-0.5085789913603386
8985,13.0,300.06272,22785.755,0.0,-0.04492477161725461,-0.04492415859533716,0.0,0.0,0.0,-1.6776875358498684,-2.6727953928093675,-2.5758177323634177,0.0005714137914016505,0.00035917058289987666,-0.5133502847562286
8986,13.0,300.00665,22769.904,0.0,-0.0449297531159355,-0.044929160805524226,0.0,0.0,0.0,-1.6824793982227884,-2.6714889081304274,-2.567514147793918,-0.0038227546148515063,-0.0002039599801267828,-0.5101371268341145
8987,13.0,299.96002999999996,22868.197999999997,0.0,-0.044934767604673964,-0.044934163015711404,0.0,0.0,0.0,-1.7025342521520486,-2.6721296874936677,-2.5766972334502176,-0.004276414650324267,-0.002792619005910037,-0.5087141690561795
8988,13.0,300.0799,22982.266,0.0,-0.04493974910335474,-0.04493916522589847,0.0,0.0,0.0,-1.7163209383126883,-2.684426490707268,-2.5852877704480375,-0.0036800148308641866,0.004262568385057746,-0.5110997144291145
8989,13.0,300.06816000000003,22893.762000000002,0.0,-0.044944763592093206,-0.04494416743608565,0.0,0.0,0.0,-1.7013106513312886,-2.6741562890186774,-2.5836650504128875,-0.003516980863273987,0.005661663109887645,-0.5027277050803615
8990,13.0,300.01383,22764.807,0.0,-0.04494974509077432,-0.0449491696462726,0.0,0.0,0.0,-1.6778538101912785,-2.6685112700615576,-2.573567607866347,-0.0016441600019659584,0.0004732332612319865,-0.5068167062564145
8991,13.0,300.02311000000003,22856.451,0.0,-0.04495475957951256,-0.04495417185645978,0.0,0.0,0.0,-1.6886867709854085,-2.6778371226569475,-2.581266586101177,0.00038813704238614363,-0.003303202418750697,-0.5062120087292356
8992,13.0,299.93363999999997,23023.673,0.0,-0.04495977406825091,-0.044959174066646956,0.0,0.0,0.0,-1.7149974310320681,-2.6884060304750177,-2.5952181280530873,0.00921630506082849,0.0008833539196427441,-0.5052028521596396
8993,13.0,299.77069,22946.467,0.0,-0.044964755566932024,-0.044964143367556275,0.0,0.0,0.0,-1.7049854054689584,-2.6885446430886972,-2.581622844836337,0.004768656209854725,-0.004732684412754586,-0.5161635229963735
8994,13.0,299.82478,22750.22,0.0,-0.044969770055670266,-0.04496914557774345,0.0,0.0,0.0,-1.6846214089341882,-2.6699829145067975,-2.560894483565608,0.005742685121008895,-0.0005497997380860095,-0.5118822474813445
8995,13.0,299.90058,22753.836,0.0,-0.044974751554351156,-0.04497414778793063,0.0,0.0,0.0,-1.6755121892101783,-2.6709118621984773,-2.5701740306314274,-0.002824749774531097,-0.003139216604016557,-0.5196332358438075
8996,13.0,300.15904,22892.987999999998,0.0,-0.04497976604308973,-0.044979149998117585,0.0,0.0,0.0,-1.6906281581770084,-2.6863939184264374,-2.5818747388111976,0.0014582928486722986,0.001190942655461889,-0.5194516310283845
8997,13.0,299.91423,22930.504,0.0,-0.04498474754177062,-0.04498415220830476,0.0,0.0,0.0,-1.6881398185814285,-2.6875534818408773,-2.5946075435428275,-0.0059186001318203545,-0.0018155962446853983,-0.5231193937403645
8998,13.0,299.99829,22867.889,0.0,-0.04498976203050886,-0.04498915441849172,0.0,0.0,0.0,-1.6928065445669984,-2.6827221027140578,-2.575738394880587,-0.006434897363299924,0.0010594026288048989,-0.5154796805038835
8999,13.0,300.16929,22794.125,0.0,-0.04499474352918975,-0.044994156628678894,0.0,0.0,0.0,-1.6833989226885384,-2.6733111371102676,-2.5721348722249475,-0.0005366698710376925,-0.0002126443136863598,-0.5102847067111794
9000,13.0,300.24072,22842.831000000002,0.0,-0.044999758017928215,-0.04499915883886585,0.0,0.0,0.0,-1.6973009167105584,-2.674438884471568,-2.5719106399778178,-0.005778168835535864,0.007105412678549634,-0.5109039747747965
9001,13.0,299.96227999999996,23008.985,0.0,-0.04500477250666657,-0.045004161049052915,0.0,0.0,0.0,-1.702924758740588,-2.6923859755428077,-2.5988461713611475,0.0026097833955905677,0.0015059488379755785,-0.5064253282727885
9002,13.0,300.10977,22993.042,0.0,-0.04500975400534746,-0.04500916325924009,0.0,0.0,0.0,-1.707520861194188,-2.6862017048824676,-2.5955880656645975,-0.006246238402005734,0.0036581430168556063,-0.5106532359050505
9003,13.0,299.86881,22826.741,0.0,-0.04501476849408592,-0.04501416546942705,0.0,0.0,0.0,-1.6841404191117182,-2.6770306769023575,-2.5775881842631474,0.002007774932851958,-0.0013619488748388888,-0.5078080093592485
9004,13.0,299.85695,22847.374,0.0,-0.04501974999276681,-0.045019167679614225,0.0,0.0,0.0,-1.6942669419361285,-2.6806327810078576,-2.5701315754522374,-0.004617552350266936,0.0008146174849239863,-0.5200443012768765
9005,13.0,299.80336,22976.316000000003,0.0,-0.045024764481505164,-0.0450241698898014,0.0,0.0,0.0,-1.7098986552038586,-2.6810279485468578,-2.5932995389887377,0.0031956779393388568,-0.004001307318323286,-0.5060946237051505
9006,13.0,299.87044,22972.414,0.0,-0.045029745980186275,-0.04502917209998836,0.0,0.0,0.0,-1.7060219603212583,-2.6903398182908678,-2.5866785575352975,0.0011708997578838089,0.001088243577001279,-0.5122594703610736
9007,13.0,299.72576000000004,22881.027000000002,0.0,-0.04503476046892452,-0.045034174310175534,0.0,0.0,0.0,-1.6864969348692884,-2.678691596466277,-2.5900723374202372,0.0025400279149812373,-0.006183797573868305,-0.5139540399608146
9008,13.0,300.13791000000003,22858.842,0.0,-0.04503974196760541,-0.045039143611085075,0.0,0.0,0.0,-1.6870447991983584,-2.677063303555577,-2.5844091812863272,0.001032796403704069,-0.0014497850942076485,-0.5206954867186435
9009,13.0,299.87046000000004,22887.173,0.0,-0.04504475645634387,-0.04504414582127203,0.0,0.0,0.0,-1.6920005041124482,-2.680537738148477,-2.5845908570292573,-0.001162612790615949,-0.005308254444608925,-0.5152674147404345
9010,13.0,299.96904,22984.283,0.0,-0.045049770945082224,-0.04504914803145921,0.0,0.0,0.0,-1.7086306740287183,-2.6866422660259475,-2.5913750730738077,0.0018291457289976282,0.005733784326830455,-0.5126550634651155
9011,13.0,299.95448999999996,23010.243,0.0,-0.04505475244376311,-0.04505415024164616,0.0,0.0,0.0,-1.7078650622531586,-2.6929205662955673,-2.593753880333577,-0.002966723237467787,-0.0009043616440985451,-0.5087322859679675
9012,13.0,299.99183,22910.273999999998,0.0,-0.04505976693250158,-0.04505915245183334,0.0,0.0,0.0,-1.6938259754926086,-2.6884724996815774,-2.5818526499590178,-0.006793336106050073,0.0024250772242614877,-0.5151266945665465
9013,13.0,299.9481,22884.411,0.0,-0.045064748431182466,-0.04506415466202052,0.0,0.0,0.0,-1.6815456882556383,-2.6909907301551077,-2.583753000521568,-0.002149333469872698,-0.004714475903157545,-0.5220456728743965
9014,13.0,300.15446000000003,22986.061,0.0,-0.04506976291992082,-0.04506915687220758,0.0,0.0,0.0,-1.7012610020763883,-2.6941205583889976,-2.5918071229164474,0.004437792865926056,0.0023560060927696976,-0.5212475965656325
9015,13.0,299.89676000000003,22990.18,0.0,-0.04507474441860171,-0.04507415908239454,0.0,0.0,0.0,-1.7005997550611285,-2.6958834109129772,-2.591957387906277,0.008964875255839302,-0.0007019651190085632,-0.5177455103775035
9016,13.0,299.86792,22882.026,0.0,-0.04507975890734017,-0.04507916129258149,0.0,0.0,0.0,-1.6978376352885283,-2.6819718923400173,-2.5757550121822272,0.0031006511906354474,-0.0024885570390514576,-0.5179457792597685
9017,13.0,299.86915,22873.532000000003,0.0,-0.045084773396078526,-0.04508416350276867,0.0,0.0,0.0,-1.6966206205934184,-2.6791561716371275,-2.5772058850004176,0.004759270372853415,-0.005401339806120735,-0.5106185118241235
9018,13.0,299.83402,22971.882,0.0,-0.045089754894759415,-0.04508916571295585,0.0,0.0,0.0,-1.7034930907216785,-2.6827002165118974,-2.5966854155228978,-0.0014241246367501586,0.0009687594837441171,-0.5066346454784465
9019,13.0,300.0655,23068.971,0.0,-0.04509476938349788,-0.0450941679231428,0.0,0.0,0.0,-1.7111090837733183,-2.6953436525847074,-2.6059383141110875,0.0004010011339332306,-0.005244069813049396,-0.5100685500673465
9020,13.0,299.96002999999996,23068.974,0.0,-0.04509975088217877,-0.04509917013332998,0.0,0.0,0.0,-1.7151201356191785,-2.6967768948511575,-2.6004950332488774,-0.0064060050433234735,-0.004113159591562246,-0.5144181186391156
9021,13.0,299.9241,22992.818,0.0,-0.04510476537091712,-0.045104172343516935,0.0,0.0,0.0,-1.7098191150710087,-2.6890657576151273,-2.5903575673233874,-0.00961498553792519,-0.006746211161124204,-0.5109613145979556
9022,13.0,300.08921000000004,22975.7,0.0,-0.04510974686959812,-0.045109141644426476,0.0,0.0,0.0,-1.7097220457114284,-2.686837114020177,-2.5874797343893676,0.002298489153493218,0.004923078058219976,-0.5108477495267475
9023,13.0,300.1725,23016.772,0.0,-0.045114761358336475,-0.04511414385461365,0.0,0.0,0.0,-1.7101288656265783,-2.6958564584603177,-2.5905386351162574,0.003444551516975767,0.001094098541379119,-0.5112159950105906
9024,13.0,299.9469,23004.056,0.0,-0.045119742857017364,-0.04511914606480061,0.0,0.0,0.0,-1.6979416960737985,-2.6997794588724875,-2.594937559100398,0.0037295356056515063,0.004118314400120986,-0.5168706398436606
9025,13.0,299.9666,22914.712000000003,0.0,-0.04512475734575583,-0.045124148274987785,0.0,0.0,0.0,-1.6833099593297587,-2.6903605899179177,-2.5918298197186873,-0.002110250893640548,-0.0015289807220236484,-0.5189772374640655
9026,13.0,299.87057000000004,22871.953999999998,0.0,-0.04512977183449418,-0.04512915048517496,0.0,0.0,0.0,-1.6823460545096283,-2.6877492417601974,-2.5824076070387876,0.00024553710717762576,0.006340816686214884,-0.5203493604844835
9027,13.0,299.80532,22976.785,0.0,-0.04513475333317507,-0.04513415269536203,0.0,0.0,0.0,-1.6983624988403283,-2.6947025692464375,-2.5913038415917775,-0.002354506786596728,0.0025029962582764974,-0.5204118476181505
9028,13.0,300.03995,23085.029,0.0,-0.045139767821913535,-0.045139154905549206,0.0,0.0,0.0,-1.7166053576157585,-2.7001936755133675,-2.600473147046718,-0.003079147794363227,0.0008326115300048601,-0.5157525892858175
9029,13.0,299.92256000000003,23038.202,0.0,-0.045144749320594424,-0.04514415711573616,0.0,0.0,0.0,-1.7044876970198384,-2.7022295989392973,-2.5963209494619273,-0.004478054966599615,-0.0016141523976044385,-0.5157981652753155
9030,13.0,300.0329,22972.297000000002,0.0,-0.04514976380933278,-0.045149159325923116,0.0,0.0,0.0,-1.6964475574763382,-2.6920492725345775,-2.5945078397329873,-0.0054076866020971144,-0.0017840132390683982,-0.5128965209639454
9031,13.0,300.12737000000004,22999.373,0.0,-0.045154745308013666,-0.04515416153611029,0.0,0.0,0.0,-1.6982391863031587,-2.6955764974576875,-2.5974195152203476,0.004513477176845516,-0.0028405106771865777,-0.5172985454933915
9032,13.0,300.17035,23026.804,0.0,-0.04515975979675213,-0.04515916374629725,0.0,0.0,0.0,-1.7051425605594683,-2.7010211968700375,-2.5934095779495974,-0.0005619451414696675,-0.002296528615874728,-0.5185196537189055
9033,13.0,300.10361,23043.88,0.0,-0.04516474129543302,-0.045164165956484426,0.0,0.0,0.0,-1.7133030742148485,-2.6971761153905573,-2.594284823385977,0.0058079092458460145,0.0021859252747090277,-0.5173421659101964
9034,13.0,300.04393999999996,23020.828999999998,0.0,-0.04516975578417137,-0.04516916816667138,0.0,0.0,0.0,-1.7163150614621083,-2.6895397560119076,-2.5919025710758676,-0.005325593990920204,0.0049994377003310855,-0.5124204555369616
9035,13.0,300.00327000000004,22947.775,0.0,-0.04517477027290984,-0.04517417037685856,0.0,0.0,0.0,-1.6981914622234484,-2.6826923131611173,-2.5946669199986876,-0.0006163578674747854,0.006114554088534504,-0.5155571130765255
9036,13.0,299.88178999999997,23022.95,0.0,-0.045179751771590726,-0.0451791396777681,0.0,0.0,0.0,-1.6998220856093786,-2.6938431305116173,-2.6047364981674774,-0.0034516061694720066,0.0008985754490049922,-0.5144048855928095
9037,13.0,299.74203,23094.907000000003,0.0,-0.04518476626032919,-0.045184141887955054,0.0,0.0,0.0,-1.7098047269195882,-2.6974347981410873,-2.6130354217865177,0.0018933386692079784,-0.0008722276736071691,-0.5128939675736934
9038,13.0,299.85483999999997,23088.562,0.0,-0.04518974775901008,-0.04518914409814223,0.0,0.0,0.0,-1.7119961842358684,-2.6983245330538974,-2.6080258119671074,0.0006971899955272953,0.0014478248605641886,-0.5098330099491005
9039,13.0,299.85242,23037.935,0.0,-0.04519476224774843,-0.04519414630832941,0.0,0.0,0.0,-1.7070835424510282,-2.699215990491877,-2.5966574498201376,0.0026832540590165576,-0.005840441261506675,-0.5156633320845085
9040,13.0,299.89285,23055.138,0.0,-0.04519974374642932,-0.045199148518516474,0.0,0.0,0.0,-1.7128832846984183,-2.7012358032412176,-2.5940670759394875,-0.0006520051610978994,-0.006330045736326874,-0.5175970591053525
9041,13.0,299.99131,23093.727000000003,0.0,-0.045204758235167786,-0.04520415072870365,0.0,0.0,0.0,-1.7119045864268285,-2.7037642675407576,-2.604247503669218,0.0018192942022503583,-4.713909395026636e-05,-0.5174056054989575
9042,13.0,300.14246,23071.216,0.0,-0.04520977272390614,-0.04520915293889061,0.0,0.0,0.0,-1.7077970731714485,-2.7029294507833677,-2.6023469504566474,0.00038721473148261865,0.004232196213310246,-0.5158735612152565
9043,13.0,300.1117,23036.357000000004,0.0,-0.04521475422258703,-0.045214155149077784,0.0,0.0,0.0,-1.6985519766090287,-2.7034876502634577,-2.6004376832932175,3.3899116000332266e-07,0.003113212654775167,-0.5243761785018994
9044,13.0,299.95196,23011.046000000002,0.0,-0.04521976871132549,-0.04521915735926496,0.0,0.0,0.0,-1.7004904253753383,-2.6986687341128675,-2.595624238693168,-0.0031391963390145572,-0.006535286940807604,-0.5206107790102835
9045,13.0,300.14277000000004,23033.894,0.0,-0.04522475021000638,-0.045224159569451916,0.0,0.0,0.0,-1.701226146272948,-2.7033275567476576,-2.597175017971218,0.003993514209154166,-0.0020400308378603683,-0.5222752044195494
9046,13.0,299.89987,23063.216,0.0,-0.04522976469874462,-0.04522916177963887,0.0,0.0,0.0,-1.7118566596970983,-2.6957704335268273,-2.6030147835975574,0.0036890434972052465,-0.0015565310935676587,-0.5102753645452576
9047,13.0,299.81822999999997,23078.279,0.0,-0.045234746197425624,-0.04523416398982594,0.0,0.0,0.0,-1.7066670966599287,-2.7025681257977077,-2.6059854302407377,0.0017461149495531284,-0.001039262560542229,-0.5162858526809465
9048,13.0,299.84053,23037.057999999997,0.0,-0.04523976068616409,-0.045239166200013003,0.0,0.0,0.0,-1.7011425531396984,-2.697582631330677,-2.6039654148413773,-0.002037001220061368,-0.005401483484984915,-0.5142199573170585
9049,13.0,299.76636,23054.982000000004,0.0,-0.04524474218484498,-0.04524416841020018,0.0,0.0,0.0,-1.7008705968128583,-2.7023114695473773,-2.604956677414208,-0.0019225577623416782,0.007263244924101463,-0.5156791590510705
9050,13.0,299.91073,23153.297000000002,0.0,-0.04524975667358344,-0.04524917062038725,0.0,0.0,0.0,-1.7273888718050083,-2.7059508612565577,-2.6046845184373475,0.002160803359679688,0.002942292561656667,-0.5111656972756266
9051,13.0,300.16016,23176.912999999997,0.0,-0.045254771162321794,-0.04525413992129679,0.0,0.0,0.0,-1.7304307499302185,-2.7060776188440676,-2.608694354383087,-0.004717500657356066,0.00040441244304490056,-0.5159118418040346
9052,13.0,299.9373,23093.318,0.0,-0.04525975266100268,-0.045259142131483854,0.0,0.0,0.0,-1.7196105560873485,-2.702547455495668,-2.5976340202665176,-0.0035303466453430873,-0.006892315847368613,-0.5192466707981566
9053,13.0,299.87807000000004,23070.385,0.0,-0.04526476714974115,-0.04526414434167092,0.0,0.0,0.0,-1.7071758495351383,-2.703428273807597,-2.6022167478187974,-0.004074828036304216,-0.0002976912176498357,-0.5194808632937695
9054,13.0,300.09888,23094.623,0.0,-0.04526974864842204,-0.0452691465518581,0.0,0.0,0.0,-1.7077866366954184,-2.7041471747535475,-2.6082548064897075,0.005799564827297484,-0.0015248103872620685,-0.5212217485555816
9055,13.0,300.19653,23083.29,0.0,-0.04527476313716039,-0.04527414876204505,0.0,0.0,0.0,-1.7051057795808382,-2.7042823423168874,-2.6073557496759774,0.0036331301275370266,0.0006309858957234594,-0.5220951600092805
9056,13.0,300.08754,23073.145,0.0,-0.04527974463584128,-0.04527915097223223,0.0,0.0,0.0,-1.7077716405939385,-2.7032798326679472,-2.6026084703074575,0.002343715267731688,-0.003763798151157957,-0.5148651848482375
9057,13.0,299.97175,23018.224,0.0,-0.04528475912457974,-0.04528415318241941,0.0,0.0,0.0,-1.6946987891287484,-2.7012478609174075,-2.6010186809005575,-0.0007308288551996923,0.0013539070127702186,-0.5122188491645645
9058,13.0,300.09975,23051.874,0.0,-0.04528974062326063,-0.04528915539260636,0.0,0.0,0.0,-1.6990711659602682,-2.7050607210437074,-2.603062001052218,0.0026852964672431276,0.003458444493071897,-0.5098199592878124
9059,13.0,299.91147,23185.822,0.0,-0.045294755111998874,-0.04529415760279354,0.0,0.0,0.0,-1.7117285848844583,-2.7169373294408374,-2.6192449223743477,-0.007302780524453324,0.005467048771130705,-0.5212753697508735
9060,13.0,299.83994,23232.605,0.0,-0.04529976960073745,-0.045299159812980494,0.0,0.0,0.0,-1.7299847172361982,-2.7166410551115976,-2.6155059281803377,-0.005299115131356945,-0.0014175874510799886,-0.5209777376664995
9061,13.0,299.71979,23108.86,0.0,-0.04530475109941834,-0.04530416202316756,0.0,0.0,0.0,-1.7109976262623183,-2.7127774311552875,-2.6007414556731976,-0.009949570042846112,0.006181581899874634,-0.5261913755260454
9062,13.0,299.73442,23076.504,0.0,-0.04530976558815658,-0.04530916423335474,0.0,0.0,0.0,-1.7143873531468585,-2.7023537220765474,-2.5979400217967177,0.001104734830328839,0.001007449648477539,-0.5165797965349566
9063,13.0,300.01214,23176.122000000003,0.0,-0.04531474708683769,-0.04531416644354169,0.0,0.0,0.0,-1.7206139776613782,-2.7116225286913074,-2.6127258738809678,0.0017209547336700084,-0.0034472002540621763,-0.5218687594069364
9064,13.0,300.09974,23171.229,0.0,-0.045319761575576045,-0.04531916865372887,0.0,0.0,0.0,-1.7228385682559284,-2.7097419365057074,-2.610894626975237,0.006241490616012165,-0.006005597886731364,-0.5157152712846345
9065,13.0,300.00592,23077.449,0.0,-0.045324743074256935,-0.04532413795463841,0.0,0.0,0.0,-1.7004600278723385,-2.7082909623625073,-2.6062171605386077,0.005600226412599315,-0.0038826158095593465,-0.5173928486801985
9066,13.0,300.01268,23064.324,0.0,-0.0453297575629954,-0.045329140164825366,0.0,0.0,0.0,-1.7072967302720683,-2.7020693027734772,-2.6016125467841675,0.005241127740059035,-0.004507094917115636,-0.5166437326162665
9067,13.0,300.05182,23157.517000000003,0.0,-0.04533477205173364,-0.04533414237501254,0.0,0.0,0.0,-1.7161860747243785,-2.7101269715437075,-2.6129937772074077,-0.004911677474719826,-0.0008296113977837701,-0.5173971245956205
9068,13.0,300.04977,23203.012000000002,0.0,-0.04533975355041453,-0.0453391445851995,0.0,0.0,0.0,-1.7231668612883282,-2.715777360726358,-2.6141919454506577,-0.0034676634477817368,-0.003193295788353757,-0.5178244222952915
9069,13.0,300.13279,23176.394,0.0,-0.045344768039153105,-0.045344146795386675,0.0,0.0,0.0,-1.7171048899150585,-2.7116872753726975,-2.616252896154058,-0.003804148100615186,0.008122752863903293,-0.5144812745178485
9070,13.0,299.79201,23117.401,0.0,-0.045349749537833994,-0.04534914900557385,0.0,0.0,0.0,-1.7019781804971685,-2.710841819489257,-2.6142928651606177,-0.0006506385704230273,0.0022678413777185175,-0.5209909301828015
9071,13.0,299.81739,23111.025,0.0,-0.045354764026572236,-0.04535415121576081,0.0,0.0,0.0,-1.7031331842861586,-2.714360026486477,-2.6076811042830874,0.0003123788655343937,0.0016569241161256782,-0.5254814215784784
9072,13.0,299.92885,23201.514,0.0,-0.045359745525253126,-0.045359153425947984,0.0,0.0,0.0,-1.7199697532477982,-2.7174618890176077,-2.6152492719300073,-0.0015809494077275584,-0.0032926553971347867,-0.5261269834821906
9073,13.0,300.10477000000003,23212.017999999996,0.0,-0.0453647600139917,-0.04536415563613494,0.0,0.0,0.0,-1.7254851775171283,-2.716463635019087,-2.613925258024337,0.005953043441144645,0.003959362513208656,-0.5189930948281305
9074,13.0,299.93933,23086.686,0.0,-0.04536974151267259,-0.04536915784632212,0.0,0.0,0.0,-1.7103240175958383,-2.708327135391077,-2.599125017788668,0.0014204602177635087,-0.0009165318315796492,-0.5213845271841465
9075,13.0,300.01667000000003,23087.11,0.0,-0.04537475600141083,-0.045374160056509294,0.0,0.0,0.0,-1.7048269331533181,-2.705949544031427,-2.6071284776785473,0.0006358436193528794,0.003106577791795357,-0.5185723832541095
9076,13.0,299.93883,23226.756,0.0,-0.045379770490149296,-0.04537916226669636,0.0,0.0,0.0,-1.7181931205224583,-2.721115668878207,-2.621045163827018,-0.0024549535114100473,-0.005653133367895824,-0.5199058102532085
9077,13.0,300.17374,23238.862999999998,0.0,-0.045384751988830296,-0.045384164476883315,0.0,0.0,0.0,-1.7185002366277682,-2.7212047335619975,-2.6243292087261274,-0.0016506610146075583,-0.0007252314893947753,-0.5197476520450995
9078,13.0,300.10933,23152.907000000003,0.0,-0.04538976647756854,-0.04538916668707027,0.0,0.0,0.0,-1.7124552878561785,-2.716322489280157,-2.6091277214508573,0.0013106871337297487,-0.0025503019670202074,-0.5228490484811835
9079,13.0,300.12257999999997,23178.679,0.0,-0.04539474797624965,-0.04539413598798003,0.0,0.0,0.0,-1.7153535884422182,-2.7207457312666974,-2.6096403246764477,-0.0012674023053578687,-0.003018913318318547,-0.5260532391399124
9080,13.0,299.87847,23193.605,0.0,-0.04539976246498789,-0.0453991381981671,0.0,0.0,0.0,-1.7304262916297783,-2.709845490665927,-2.6100048920624275,0.00031400209219459367,-0.0007733091021971663,-0.5176374168568355
9081,13.0,299.88961,23225.967,0.0,-0.04540474396366878,-0.045404140408354166,0.0,0.0,0.0,-1.721657523939368,-2.7177740713734173,-2.6206823189662076,-0.006050313930869494,0.009334818440224851,-0.5148718317688935
9082,13.0,299.8662,23207.017999999996,0.0,-0.045409758452407356,-0.04540914261854112,0.0,0.0,0.0,-1.7179439623228685,-2.7144921542995175,-2.621917876138147,0.0005871070292154524,0.007872352521015702,-0.5145420796563496
9083,13.0,299.96557,23156.349,0.0,-0.045414739951088245,-0.0454141448287283,0.0,0.0,0.0,-1.7081099648023284,-2.7120858879620373,-2.6187559278760877,-0.004829270249386865,0.0025293998333573275,-0.5181213755020985
9084,13.0,299.89415,23177.695,0.0,-0.04541975443982649,-0.04541914703891525,0.0,0.0,0.0,-1.7157643600327586,-2.7188571344053076,-2.6108188358677578,0.0010645362604365489,-0.004343316312026946,-0.5254844917262815
9085,13.0,300.05663,23256.416,0.0,-0.04542476892856495,-0.04542414924910243,0.0,0.0,0.0,-1.7326398377982384,-2.715734398922118,-2.6209954132471074,0.002138472746025828,0.0001825695004457068,-0.5188578360722814
9086,13.0,300.0879,23241.504,0.0,-0.04542975042724595,-0.045429151459289385,0.0,0.0,0.0,-1.7276485678056381,-2.7222429096144576,-2.6149453982250175,0.006012475220460104,-0.0022447621748907776,-0.5234338356438974
9087,13.0,300.20897,23174.96,0.0,-0.045434764915984194,-0.04543415366947656,0.0,0.0,0.0,-1.7099279381317483,-2.7195681320004774,-2.6151130911165676,0.005424284651985215,-0.00011039772232290688,-0.5226687406258885
9088,13.0,300.3672,23198.813,0.0,-0.04543974641466508,-0.04543915587966374,0.0,0.0,0.0,-1.7088917885794885,-2.7222749283176175,-2.6206930594172677,0.0018828531518731383,-0.004627143471738505,-0.5272361883666605
9089,13.0,300.11859,23236.833,0.0,-0.04544476090340355,-0.045444158089850806,0.0,0.0,0.0,-1.7175107979051183,-2.7243571572731176,-2.6215490531017474,0.0003627831234814066,0.001194569482869829,-0.5188319677972285
9090,13.0,300.03907999999996,23237.622000000003,0.0,-0.045449742402084436,-0.04544916030003798,0.0,0.0,0.0,-1.7179118422946984,-2.7228807505524077,-2.6228642517315475,-0.0023523170518056176,0.0006908977326712972,-0.5284090557549135
9091,13.0,300.09227999999996,23228.193,0.0,-0.04545475689082279,-0.04545416251022494,0.0,0.0,0.0,-1.7246359726083182,-2.7192634476954076,-2.616891142392048,-0.0038795991613616264,-0.0031982390302916167,-0.5213009644483996
9092,13.0,300.14168,23216.947999999997,0.0,-0.04545977137956125,-0.04545916472041189,0.0,0.0,0.0,-1.7237194878928683,-2.7235295345914374,-2.6101235436491375,-0.004977593142750195,0.003175007333323827,-0.5256844059710115
9093,13.0,300.0434,23196.625,0.0,-0.04546475287824214,-0.045464134021321656,0.0,0.0,0.0,-1.7137978442386785,-2.7150514683547176,-2.6223453663553373,-0.007631680797638253,0.009233179626668883,-0.5160479314249655
9094,13.0,299.8472,23203.501,0.0,-0.045469767366980496,-0.04546913623150861,0.0,0.0,0.0,-1.7087251089380384,-2.7246259725246476,-2.6199338311173377,-0.00038553005120385363,0.008239792268379183,-0.5229984522084284
9095,13.0,299.75442999999996,23275.847,0.0,-0.04547474886566161,-0.04547413844169579,0.0,0.0,0.0,-1.7227365339708582,-2.7251306723994575,-2.627409185055097,0.002722118178527148,-0.002048240088845558,-0.5148244521942175
9096,13.0,299.91485,23292.004,0.0,-0.04547976335440007,-0.04547914065188274,0.0,0.0,0.0,-1.7277597213416083,-2.728448661176918,-2.6239793334665973,0.00994011986446345,-0.0057482424938323645,-0.5226403392255855
9097,13.0,299.78985,23249.267000000003,0.0,-0.04548474485308074,-0.0454841428620697,0.0,0.0,0.0,-1.7315145222371784,-2.7226250062271675,-2.613057206663668,0.00814415422589044,-0.007242484341477553,-0.5192028781288345
9098,13.0,299.94427,23299.131,0.0,-0.0454897593418192,-0.045489145072256876,0.0,0.0,0.0,-1.7345744362141684,-2.7198781865310773,-2.6279013206286677,0.0015449717337768386,-0.0032563726335789575,-0.5209254742263415
9099,13.0,300.14242,23316.484,0.0,-0.04549474084050009,-0.04549414728244394,0.0,0.0,0.0,-1.7283063697705585,-2.7263573129705176,-2.632965240653437,-0.0009747822322060159,-0.003438125687491587,-0.5216775591130665
9100,13.0,300.15561,23221.311,0.0,-0.045499755329238445,-0.04549914949263101,0.0,0.0,0.0,-1.7144094419990383,-2.722183330508577,-2.6221059353567076,-0.004746389734932196,0.0007791300011066443,-0.5243973047664845
9101,13.0,300.2862,23215.405,0.0,-0.04550476981797691,-0.045504151702818185,0.0,0.0,0.0,-1.7167986857348385,-2.718409987136177,-2.6216946571411177,0.0008088791557651572,0.003969172192726796,-0.5209721445259475
9102,13.0,300.21782,23223.63,0.0,-0.0455097513166578,-0.04550915391300525,0.0,0.0,0.0,-1.7190259107796484,-2.7203096284236574,-2.6200681880805976,-0.0037383974910261066,-0.0029424823434003973,-0.5242353874005046
9103,13.0,300.08842000000004,23248.299,0.0,-0.04551476580539615,-0.04551415612319243,0.0,0.0,0.0,-1.7286027454248083,-2.7193576799547077,-2.6189420619194577,-0.00042086710791134957,-0.007350617885524503,-0.5193984657956375
9104,13.0,300.02737,23323.347,0.0,-0.04551974730407704,-0.045519158333379384,0.0,0.0,0.0,-1.7280850759487183,-2.7338088555309272,-2.6278210712207475,0.0027492009351500076,-0.0036611030243727367,-0.5281683277961555
9105,13.0,299.73188,23318.646,0.0,-0.045524761792815505,-0.04552416054356656,0.0,0.0,0.0,-1.7225441177768681,-2.731397928242987,-2.634344172714527,0.0005837130061504885,0.004808946985506115,-0.5195575055313335
9106,13.0,299.80606,23272.593999999997,0.0,-0.045529743291496394,-0.04552916275375374,0.0,0.0,0.0,-1.7165889429641383,-2.7269229091763374,-2.6307757085123478,-0.0013034486776653687,0.003093804659709747,-0.5270071735790585
9107,13.0,299.9403,23306.444,0.0,-0.04553475778023475,-0.04553416496394069,0.0,0.0,0.0,-1.7204555053457384,-2.731958863498347,-2.632162746574237,-0.005777182841863555,-0.0049196185184035455,-0.5190018797064975
9108,13.0,300.02569,23326.583,0.0,-0.04553973927891586,-0.045539134264850234,0.0,0.0,0.0,-1.728037149218988,-2.7284679129288176,-2.634193705074677,-0.0027547650967491475,-0.00010415090373389391,-0.5185908548034326
9109,13.0,300.13532000000004,23262.295,0.0,-0.04554475376765432,-0.04554413647503741,0.0,0.0,0.0,-1.7269865101902981,-2.723841108997187,-2.620329302631368,0.001827447521830028,-0.0027524663362472777,-0.5186656630583155
9110,13.0,300.18904,23230.002,0.0,-0.045549768256392564,-0.045549138685224366,0.0,0.0,0.0,-1.7179301821215085,-2.7240014051630075,-2.6194088662405277,-0.0009175025555729523,0.006521541088625994,-0.5246329766072435
9111,13.0,299.92329,23296.832000000002,0.0,-0.045554749755073454,-0.04555414089541132,0.0,0.0,0.0,-1.7286255435520586,-2.7239478042327177,-2.6290819596451875,-0.003888608271975756,-0.0014866985046257187,-0.5237294614930734
9112,13.0,299.95423999999997,23375.356,0.0,-0.04555976424381203,-0.0455591431055985,0.0,0.0,0.0,-1.7325052781849584,-2.7403707645035373,-2.632648498672177,-0.003781541274984066,0.0062197330966148635,-0.5260614059357185
9113,13.0,299.89745,23355.269,0.0,-0.045564745742492696,-0.045564145315785565,0.0,0.0,0.0,-1.7337463069074381,-2.736660647937377,-2.6290115387632373,-0.0003059167718291347,0.0023005105874427177,-0.5261407028885445
9114,13.0,300.02317,23319.952999999998,0.0,-0.04556976023123116,-0.04556914752597263,0.0,0.0,0.0,-1.7319433296794984,-2.7303088870355072,-2.6264312973835877,-0.0026973352969812676,0.0009932479148109371,-0.5216348911513554
9115,13.0,299.99317,23311.193,0.0,-0.04557474172991205,-0.0455741497361597,0.0,0.0,0.0,-1.7356003519404184,-2.7264806255076874,-2.6239397153876873,-0.0013458258365976689,-0.005512147114531564,-0.5184090980004945
9116,13.0,299.87056,23304.286,0.0,-0.0455797562186504,-0.045579151946346874,0.0,0.0,0.0,-1.7222581785986486,-2.7265969466191677,-2.6350660120857676,-0.003641908723753406,0.0003223669581301417,-0.5209371772649966
9117,13.0,299.71226,23300.985,0.0,-0.045584770707388866,-0.04558415415653383,0.0,0.0,0.0,-1.7152879298357384,-2.7341807183176274,-2.6334488649261676,0.005053512325042835,-0.00024128568201054273,-0.5271225625004465
9118,13.0,300.08237,23321.131,0.0,-0.045589752206069756,-0.045589156366721006,0.0,0.0,0.0,-1.7143784365459787,-2.732589409035577,-2.6420734471273475,0.0028274486674974577,0.006573381598192254,-0.5257054613080895
9119,13.0,300.1999,23299.257999999998,0.0,-0.04559476669480811,-0.045594158576908184,0.0,0.0,0.0,-1.7207221927720586,-2.7315531581583077,-2.6301172985973675,0.006426583950204453,-0.0012218628941884787,-0.5247095377847995
9120,13.0,299.97151,23299.362,0.0,-0.045599748193489,-0.04559916078709514,0.0,0.0,0.0,-1.7267136419383684,-2.735055153153927,-2.620655569163568,-0.004043813058693276,0.00020861311842851178,-0.5231174989626775
9121,13.0,299.93217999999996,23365.382999999998,0.0,-0.04560476268222746,-0.045604162997282316,0.0,0.0,0.0,-1.7361006948397983,-2.7371937188149875,-2.6291986860567076,-0.002104438789741938,-0.0044159903582243155,-0.5239952167293015
9122,13.0,300.09783,23368.445,0.0,-0.045609744180908574,-0.04560913229819186,0.0,0.0,0.0,-1.7271607892074983,-2.7429768437607374,-2.633286238285118,-0.0007835062485535463,-0.0016594054642955684,-0.5270819007739335
9123,13.0,300.13962999999995,23356.866,0.0,-0.045614758669646815,-0.04561413450837881,0.0,0.0,0.0,-1.7358151609616184,-2.7345335320024473,-2.629555451416918,-0.002082509423127678,-0.006329727575795473,-0.5304150477728896
9124,13.0,300.23216,23405.674,0.0,-0.045619740168327705,-0.04561913671856599,0.0,0.0,0.0,-1.7372183097000982,-2.7374868520689177,-2.640035193226187,-0.0009407250826273372,-0.001036660635610439,-0.5248922673078336
9125,13.0,299.9348,23351.072,0.0,-0.04562475465706628,-0.045624138928752944,0.0,0.0,0.0,-1.7388094163321284,-2.7311697443204674,-2.6281636510795576,0.0007258606062493643,-0.005808073797662254,-0.5285484789686735
9126,13.0,299.78397,23319.438,0.0,-0.04562976914580452,-0.04562914113894012,0.0,0.0,0.0,-1.7288115762704186,-2.7273805942465077,-2.6323347964412176,0.004595352851176016,0.007285355865133643,-0.5150004334715855
9127,13.0,299.9739,23362.772999999997,0.0,-0.04563475064448541,-0.04563414334912719,0.0,0.0,0.0,-1.7362053635751282,-2.7317159874493773,-2.6337783738586875,0.002776846552203417,-0.0022230046554934783,-0.5211845116144065
9128,13.0,300.00166,23367.228,0.0,-0.045639765133223875,-0.04563914555931414,0.0,0.0,0.0,-1.7263795733803984,-2.731475644525658,-2.645198513085768,0.0038610163571776465,0.0025367050626032973,-0.5182347987182926
9129,13.0,299.86059,23324.492000000002,0.0,-0.045644746631904654,-0.04564414776950132,0.0,0.0,0.0,-1.7237884902246785,-2.7336493699651876,-2.632625396569898,0.00046139056631570364,-0.002920388627619917,-0.5295650829265045
9130,13.0,299.98475,23372.248,0.0,-0.04564976112064312,-0.045649149979688275,0.0,0.0,0.0,-1.7204938061995185,-2.7447508420358178,-2.6393351387320974,0.001216941437127769,0.0005114938180555095,-0.5260850146630485
9131,13.0,299.79065,23444.61,0.0,-0.04565474261932401,-0.04565415218987545,0.0,0.0,0.0,-1.7437315826679085,-2.7449543026558976,-2.6378900414394773,-0.00023436823371034376,-0.0053839475708042555,-0.5272437877424105
9132,13.0,300.08693999999997,23425.183999999997,0.0,-0.04565975710806236,-0.04565915440006263,0.0,0.0,0.0,-1.7414198525647586,-2.7432226582349974,-2.6360283970307474,-0.002563010555074448,0.004973113969358136,-0.5239736041046685
9133,13.0,300.20858,23368.901,0.0,-0.04566473860674325,-0.045664156610249584,0.0,0.0,0.0,-1.7300760110702085,-2.7441735934538474,-2.6293126766929578,0.0005754056624231174,0.003915672486121786,-0.5265599857799246
9134,13.0,300.14794,23371.474,0.0,-0.04566975309548171,-0.04566915882043676,0.0,0.0,0.0,-1.7257555126438084,-2.7386133835300974,-2.6399756141203077,-0.002075908808001248,0.003140777211820577,-0.5247379594501045
9135,13.0,299.91631,23394.282000000003,0.0,-0.045674767584219955,-0.04567416103062372,0.0,0.0,0.0,-1.7283976636045681,-2.7434780985852076,-2.6394018105886774,0.0030347922646106773,-0.0017879498170319083,-0.5275224923149164
9136,13.0,299.95077000000003,23433.981,0.0,-0.04567974908290107,-0.04567913033153326,0.0,0.0,0.0,-1.733597359142738,-2.7449189402274077,-2.6448288794492876,-0.0014917728611265183,-0.0020914970528396882,-0.5298048280326655
9137,13.0,300.01867000000004,23424.447,0.0,-0.04568476357163942,-0.045684132541720435,0.0,0.0,0.0,-1.7394558698959284,-2.7407223622882375,-2.6402686460492273,-0.0006316464739936534,0.00017371114118145485,-0.5287914158126495
9138,13.0,300.24492000000004,23367.205,0.0,-0.04568974507032042,-0.04568913475190739,0.0,0.0,0.0,-1.7233393164553483,-2.7445212395631575,-2.6351862848726375,-0.004416656772815086,0.005710174383600334,-0.5264733427638735
9139,13.0,300.00858,23385.933999999997,0.0,-0.04569475955905877,-0.04569413696209457,0.0,0.0,0.0,-1.7241471807600786,-2.741494864164477,-2.643098045628468,-0.003754405626705986,0.0033775969636178666,-0.5245825876797705
9140,13.0,299.89234,23468.879,0.0,-0.04569974105773966,-0.045699139172281744,0.0,0.0,0.0,-1.7337810613858684,-2.7454690337066974,-2.6547030016737874,-0.0016520243426171083,0.005203702638340465,-0.5210956495806365
9141,13.0,300.04443,23440.681,0.0,-0.045704755546478126,-0.04570414138246881,0.0,0.0,0.0,-1.7372766729058582,-2.743906906027527,-2.6441980299370273,0.0035132202868528462,-0.0005401937623679736,-0.5264713770586794
9142,13.0,299.98361,23370.319,0.0,-0.04570977003521648,-0.045709143592655765,0.0,0.0,0.0,-1.7304134233535087,-2.7364703595685973,-2.6371096362124575,0.004927209585502725,0.002146828512975478,-0.5194593722591485
9143,13.0,299.81254,23383.662999999997,0.0,-0.04571475153389737,-0.04571414580284294,0.0,0.0,0.0,-1.7401852073179085,-2.7376295176829974,-2.6302348356089675,-0.001031287370330139,0.0014228181520712186,-0.5255044628857526
9144,13.0,299.9075,23464.295,0.0,-0.04571976602263583,-0.0457191480130299,0.0,0.0,0.0,-1.747746991489198,-2.7390607334492474,-2.6457519502903875,-0.005573189049580934,0.003671427232291656,-0.5229255995262385
9145,13.0,299.91548,23466.543999999998,0.0,-0.04572474752131661,-0.045724150223217075,0.0,0.0,0.0,-1.7447146379149285,-2.7415643731213373,-2.6469644053600474,-0.005826096274540934,0.0060128105049181944,-0.5281382849306905
9146,13.0,299.88877,23412.58,0.0,-0.045729762010055075,-0.04572915243340403,0.0,0.0,0.0,-1.7354775460282985,-2.7407663373425772,-2.640595723181508,-0.005836419367884744,0.0014241672945793685,-0.5244196671961915
9147,13.0,299.99605,23413.459,0.0,-0.045734743508735964,-0.04573415464359121,0.0,0.0,0.0,-1.7345804143897585,-2.7406661269076875,-2.6418604619563273,0.003182435165831897,-0.005886847710786634,-0.5293054375883794
9148,13.0,300.07828,23446.168999999998,0.0,-0.045739757997474206,-0.04573915685377816,0.0,0.0,0.0,-1.7401886523682484,-2.7475211691342274,-2.639340103657587,0.0014068634146716086,-0.0023510855476340776,-0.5332067443159085
9149,13.0,299.99239,23482.537999999997,0.0,-0.04574473949615532,-0.04574415906396534,0.0,0.0,0.0,-1.7450455653975883,-2.752492072799818,-2.6405675548287273,0.00898250084265381,-0.001166675822191939,-0.5345981190882264
9150,13.0,300.02389,23450.226000000002,0.0,-0.04574975398489367,-0.04574916127415252,0.0,0.0,0.0,-1.7281494173300682,-2.7494020652948574,-2.6507316692318477,0.004048813954561826,-0.0037351248958531267,-0.5263792624920884
9151,13.0,299.97649,23383.749,0.0,-0.04575476847363191,-0.045754130575061835,0.0,0.0,0.0,-1.7212397609231382,-2.747535354635627,-2.6393005869036874,0.002604825562851267,-0.0019502537379250582,-0.5236265456804164
9152,13.0,299.98609,23418.721,0.0,-0.045759749972313024,-0.04575913278524901,0.0,0.0,0.0,-1.7220062846237885,-2.7464497584784873,-2.650250375434348,-0.0021385376953572378,-0.002526429693339198,-0.5228528481690585
9153,13.0,300.13347999999996,23514.376,0.0,-0.04576476446105138,-0.04576413499543619,0.0,0.0,0.0,-1.7465291661940086,-2.7519220182935573,-2.649332066868718,-0.00042681453136081464,-0.0005237213453597726,-0.5245619579077345
9154,13.0,299.96665,23501.147,0.0,-0.04576974595973238,-0.045769137205623256,0.0,0.0,0.0,-1.7415784262054084,-2.753090498308877,-2.6490930411701274,-0.005868488125599684,-0.0026702256892307576,-0.5265419397956436
9155,13.0,299.90424,23452.867000000002,0.0,-0.04577476044847073,-0.04577413941581043,0.0,0.0,0.0,-1.7425938041306182,-2.746379540246558,-2.6401125042088176,-0.003156051551778037,0.004179948579853807,-0.5282430347260285
9156,13.0,300.02199,23509.049,0.0,-0.04577974194715162,-0.04577914162599739,0.0,0.0,0.0,-1.7392515986757684,-2.756105322656418,-2.650806852389268,-0.004921961051309736,0.004932917121991016,-0.5306023571863755
9157,13.0,299.95997,23525.658,0.0,-0.045784756435890084,-0.045784143836184565,0.0,0.0,0.0,-1.7479681839860282,-2.751578019884607,-2.6516663924490973,-0.0004320266898752146,0.0013405534910273286,-0.5315171903041624
9158,13.0,300.07117999999997,23482.324,0.0,-0.04578973793457075,-0.04578914604637152,0.0,0.0,0.0,-1.7394121988166185,-2.7476415432461074,-2.650986298981977,-6.808181942540244e-05,-0.004501087863897786,-0.5241632135958815
9159,13.0,300.0233,23449.553,0.0,-0.045794752423309326,-0.045794148256558476,0.0,0.0,0.0,-1.7414724402449482,-2.7441815981296376,-2.6424246396120075,0.0025252698259497276,-0.007145246174430893,-0.5280957182939895
9160,13.0,299.84424,23450.407000000003,0.0,-0.04579976691204779,-0.04579915046674565,0.0,0.0,0.0,-1.738763212127568,-2.743751878762227,-2.645823080447408,0.004933514432924965,-0.008355716895095053,-0.5237740140999705
9161,13.0,299.94347,23456.042,0.0,-0.04580474841072846,-0.04580415267693272,0.0,0.0,0.0,-1.7399451683692182,-2.7477208807289375,-2.6423851228581077,-0.005296831772256595,-0.0017072812275455386,-0.5315172510991685
9162,13.0,300.02205,23508.142999999996,0.0,-0.04580976289946703,-0.045809154887119785,0.0,0.0,0.0,-1.7353294088636786,-2.7520676223329272,-2.6584914424726773,-0.001002316239760911,7.809106159048772e-05,-0.5193347424968485
9163,13.0,299.96775,23519.406000000003,0.0,-0.04581474439814792,-0.04581415709730696,0.0,0.0,0.0,-1.7407940693029982,-2.7525201398275874,-2.6559980366265976,-0.0047669878935650755,0.005210583011819505,-0.5228774296164845
9164,13.0,300.12157,23505.825,0.0,-0.045819758886886164,-0.04581915930749403,0.0,0.0,0.0,-1.7334668525298584,-2.7613891179528873,-2.6503279903920074,0.0015519502911905687,0.010674072032698888,-0.5227679378106785
9165,13.0,300.11652999999995,23517.058999999997,0.0,-0.045824740385567275,-0.04582412860840346,0.0,0.0,0.0,-1.7394679275721183,-2.7590650261985177,-2.6500658625911373,0.0012289724648401389,0.005814660024637265,-0.5316251824998205
9166,13.0,300.07468,23540.487,0.0,-0.04582975487430552,-0.045829130818590635,0.0,0.0,0.0,-1.7465711147481482,-2.7605513627702076,-2.6485978658462574,0.001802185879611898,0.0030502752327637266,-0.5290416885873495
9167,13.0,300.20025,23530.53,0.0,-0.04583476936304387,-0.0458341330287777,0.0,0.0,0.0,-1.7457911148211682,-2.7602748468179175,-2.6466277023518177,-0.005362798710742025,0.0006250583218434534,-0.5322078215723225
9168,13.0,300.12581,23452.048,0.0,-0.04583975086172498,-0.04583913523896488,0.0,0.0,0.0,-1.7290176713407583,-2.7516890720955676,-2.6481303522501176,-0.0006817062167741653,-0.005122117564138645,-0.5378097774001925
9169,13.0,299.99621,23451.996,0.0,-0.045844765350463446,-0.045844137449151834,0.0,0.0,0.0,-1.7350707261131482,-2.751411441568168,-2.642339121303568,-0.002208285171290778,0.0007116170354861333,-0.5307400781399675
9170,13.0,299.93002,23487.592,0.0,-0.045849746849144335,-0.04584913965933901,0.0,0.0,0.0,-1.7403000085542382,-2.7438462123465372,-2.6554953632519873,0.0035723662283150964,-0.0036908942998379064,-0.5302976931463075
9171,13.0,299.89119,23526.812,0.0,-0.04585476133788269,-0.04585414186952619,0.0,0.0,0.0,-1.7535316363100981,-2.7462748715112273,-2.6517569770080374,0.0035988728509310968,0.002108810659948408,-0.5251693304151774
9172,13.0,299.93142,23561.042999999998,0.0,-0.04585974283656358,-0.04585914407971314,0.0,0.0,0.0,-1.7505359623894483,-2.757103677979947,-2.6543290110618774,0.004882701561610125,0.0008492132782558253,-0.5299076830503164
9173,13.0,300.02966000000004,23560.834,0.0,-0.04586475732530204,-0.0458641462899001,0.0,0.0,0.0,-1.7466248170034484,-2.757480201717107,-2.6578003045794674,0.0026396247256106776,0.003585769095337856,-0.5259268868524425
9174,13.0,300.13385,23579.11,0.0,-0.04586973882398271,-0.045869148500087276,0.0,0.0,0.0,-1.7430390262245585,-2.7669069740224574,-2.6575144667262576,-0.0005537295880688554,2.8328813092336175e-06,-0.5279860441031655
9175,13.0,300.28353,23611.575,0.0,-0.045874753312721284,-0.04587415071027434,0.0,0.0,0.0,-1.7595194377760484,-2.7600262965683875,-2.657783484627808,-0.002103224916122138,0.004514529437074366,-0.5182773248249894
9176,13.0,300.00401,23584.787999999997,0.0,-0.04587976780145975,-0.04587915292046141,0.0,0.0,0.0,-1.7493682929742085,-2.7631414326758272,-2.6566770155186075,-0.0001763528260471688,-0.0007023824463272502,-0.5283868250477195
9177,13.0,300.00458,23501.201,0.0,-0.045884749300140415,-0.045884155130648474,0.0,0.0,0.0,-1.745016789094748,-2.7560981285807076,-2.6426633613355675,0.001334093008389729,0.00025802714731779677,-0.5300836845926865
9178,13.0,300.11447000000004,23468.54,0.0,-0.04588976378887888,-0.04588915734083565,0.0,0.0,0.0,-1.7389641396223985,-2.7474316991503973,-2.6474543117833975,0.005202447424116585,-0.003941283395649386,-0.5311448006274105
9179,13.0,300.06228,23558.877,0.0,-0.04589474528755977,-0.04589412664174519,0.0,0.0,0.0,-1.7433749186327083,-2.7580940286276876,-2.6598414969059174,0.0012779543932242786,-0.0026100382279907173,-0.5335343280732385
9180,13.0,300.09346,23564.836,0.0,-0.04589975977629812,-0.04589912885193215,0.0,0.0,0.0,-1.7412060567936585,-2.7551514490122773,-2.666764122914127,0.005860672319628324,-0.0027410676779223175,-0.5345588860443544
9181,13.0,299.97378,23537.36,0.0,-0.04590474127497923,-0.045904131062119324,0.0,0.0,0.0,-1.7427863216496182,-2.7555276687744077,-2.656455721696768,0.00027911257792376677,-0.004108162444719066,-0.5308801093037875
9182,13.0,299.8763,23533.826,0.0,-0.0459097557637177,-0.04590913327230628,0.0,0.0,0.0,-1.7353140074621585,-2.7629044334774373,-2.655476922100168,0.0025688249894482876,-0.003581663304607647,-0.5317686587139805
9183,13.0,300.00957999999997,23563.17,0.0,-0.045914737262398586,-0.04591413548249346,0.0,0.0,0.0,-1.7526947930525083,-2.758479468965727,-2.6514409443018474,0.0012568474817161888,0.0018553386493826685,-0.5258526966801205
9184,13.0,299.98303,23603.504,0.0,-0.04591975175113694,-0.045919137692680634,0.0,0.0,0.0,-1.7450298600210383,-2.7707934974310273,-2.6590523777280373,-0.0012366014274930587,0.0018996671253575482,-0.5341525018267475
9185,13.0,299.8659,23641.458,0.0,-0.0459247662398754,-0.04592413990286759,0.0,0.0,0.0,-1.753042641811838,-2.7725796547073074,-2.6607907095995973,-0.0026782513392978277,0.000892848245332261,-0.5272438282724146
9186,13.0,299.92842,23581.354,0.0,-0.04592974773855629,-0.045929142113054766,0.0,0.0,0.0,-1.7405047863994483,-2.765773349810577,-2.6618647547055976,0.002770910223842547,-0.003472741958607947,-0.5267120340899305
9187,13.0,300.09553999999997,23538.487999999998,0.0,-0.045934762227294534,-0.04593414432324172,0.0,0.0,0.0,-1.7447949886478584,-2.7612808015171977,-2.6490367044645677,0.002059089464291308,0.006073702884252805,-0.5263894253905914
9188,13.0,300.17017000000004,23581.595,0.0,-0.045939743725975424,-0.0459391465334289,0.0,0.0,0.0,-1.7454604913135383,-2.7594717447886574,-2.6632837101456373,-0.0028156189725799577,0.004653260601016065,-0.5299250501570305
9189,13.0,300.0162,23614.058999999997,0.0,-0.045944758214714,-0.045944148743615965,0.0,0.0,0.0,-1.7562445121278383,-2.7569893833686674,-2.6648504987752677,-0.005574601520220334,0.005850750169349084,-0.5258779671376145
9190,13.0,299.92952,23576.911,0.0,-0.045949739713394666,-0.04594915095380292,0.0,0.0,0.0,-1.7370301491565285,-2.7630130538881574,-2.6667491268126473,-0.00972450612003403,-0.0001062473992508019,-0.5341287512444035
9191,13.0,300.23722999999995,23593.842999999997,0.0,-0.04595475420213313,-0.0459541531639901,0.0,0.0,0.0,-1.7471558613808582,-2.7573705680562877,-2.6674127043031373,-0.0009404397615316782,0.0024688257158791277,-0.5299200244365345
9192,13.0,300.17417,23634.18,0.0,-0.045959768690871705,-0.04595915537417705,0.0,0.0,0.0,-1.7476455651541882,-2.7676596161967373,-2.6688952918494575,-0.0022174112109664477,-0.0035405132928714566,-0.5343509975213374
9193,13.0,300.08887000000004,23600.122000000003,0.0,-0.04596475018955237,-0.045964124675086815,0.0,0.0,0.0,-1.7524222287756084,-2.7650748151916376,-2.6563507489864073,0.0029109971164180473,-0.001961734773483148,-0.5297153884463385
9194,13.0,300.10125,23583.425,0.0,-0.045969764678290836,-0.04596912688527377,0.0,0.0,0.0,-1.7470528138456882,-2.7677685405824874,-2.653950866124558,0.004733726945782475,-0.0034489337223332565,-0.5289552583538195
9195,13.0,299.95155,23621.347999999998,0.0,-0.04597474617697195,-0.045974129095460725,0.0,0.0,0.0,-1.7570191418292884,-2.7736230996602873,-2.649657522800837,0.005898407982502544,0.004306179986586876,-0.5336138175435835
9196,13.0,299.93837,23629.397999999997,0.0,-0.04597976066571019,-0.0459791313056479,0.0,0.0,0.0,-1.7458738973543382,-2.7700315333558274,-2.6668414338967574,0.004482701123608155,0.004873830860959655,-0.5327190974402815
9197,13.0,300.01686,23602.525,0.0,-0.04598474216439108,-0.04598413351583508,0.0,0.0,0.0,-1.7483271784964585,-2.7673765141187974,-2.6588746536604972,-0.0005622622380884625,0.0008112684602959633,-0.5336505174622055
9198,13.0,299.76061,23618.13,0.0,-0.045989756653129654,-0.045989135726022035,0.0,0.0,0.0,-1.7467668746674683,-2.7655817442166675,-2.666973257734768,-0.0023721150468345277,-0.0017078919133808085,-0.5254550466783755
9199,13.0,299.76546,23645.736,0.0,-0.045994738151810544,-0.04599413793620921,0.0,0.0,0.0,-1.7510747074676183,-2.7640926718697076,-2.6725460319597576,-0.0036158797472345466,-0.0013209896580965287,-0.5306903072950555
9200,13.0,299.92574,23614.767999999996,0.0,-0.045999752640548786,-0.04599914014639617,0.0,0.0,0.0,-1.7487333904615483,-2.7670444720610274,-2.6625218473954475,0.0009568864318548382,-0.003269143739164367,-0.5320196812937545
9201,13.0,300.2272,23639.474,0.0,-0.04600476712928736,-0.046004142356583344,0.0,0.0,0.0,-1.7561215035656983,-2.758910606883277,-2.6707779105352576,-0.0015740884886504387,-0.0041826194057923965,-0.5294005615077675
9202,13.0,300.06346,23661.766,0.0,-0.04600974862796825,-0.04600914456677052,0.0,0.0,0.0,-1.7498746140491785,-2.769783895031387,-2.6729274192973977,0.003099746155646127,-0.001215434936879089,-0.5343485859860995
9203,13.0,300.01909,23630.955,0.0,-0.04601476311670649,-0.04601414677695759,0.0,0.0,0.0,-1.7502987605410383,-2.769425305820997,-2.6634960873665974,-0.001122603090542299,0.0004102665258951536,-0.5294495724151045
9204,13.0,300.00667000000004,23635.287999999997,0.0,-0.04601974461538738,-0.04601914898714454,0.0,0.0,0.0,-1.7502177005330384,-2.767621517992977,-2.6666981603326176,0.003309657531162767,0.0008525156933792484,-0.5358609022903534
9205,13.0,299.93361,23689.725,0.0,-0.046024759104125845,-0.0460241511973315,0.0,0.0,0.0,-1.7623332333037482,-2.773223473820847,-2.6655282617671574,0.001148655574463479,-0.0003877800743759136,-0.5235577561311275
9206,13.0,299.89037,23684.778,0.0,-0.046029740602806624,-0.046029153407518675,0.0,0.0,0.0,-1.7580233740033984,-2.7727309329472374,-2.6688266948176875,0.004125867470341416,-0.005538189871251785,-0.5330081675613104
9207,13.0,300.02013,23694.593999999997,0.0,-0.04603475509154509,-0.04603415561770585,0.0,0.0,0.0,-1.7617190010931285,-2.7721957342444177,-2.6686502879752774,0.0013057999245224188,-0.0016410364558826884,-0.5255132173666165
9208,13.0,299.90441,23682.214,0.0,-0.0460397365902262,-0.04603912491861539,0.0,0.0,0.0,-1.7483668979003784,-2.7762577525703076,-2.6741771619707375,0.002080559423310228,0.0015699666885686486,-0.5374790424350514
9209,13.0,300.09852,23660.879,0.0,-0.04604475107896444,-0.04604412712880235,0.0,0.0,0.0,-1.7597114486699983,-2.7624753220600873,-2.670129633121277,0.0032183201273984666,0.001117125055201659,-0.5228815940743955
9210,13.0,300.27473,23644.334,0.0,-0.046049765567702794,-0.046049129338989525,0.0,0.0,0.0,-1.7434814112182184,-2.772328571332527,-2.6714772557542776,-0.004084186920852866,0.0003427023303495867,-0.5359462584787775
9211,13.0,300.26905,23669.178,0.0,-0.046054747066383905,-0.04605413154917648,0.0,0.0,0.0,-1.7548754085927185,-2.7730557809292975,-2.6669078017783074,-0.0017851906356845981,-0.004758622804714506,-0.5302697071785455
9212,13.0,300.22296,23662.275,0.0,-0.04605976155512215,-0.04605913375936366,0.0,0.0,0.0,-1.7480416446182785,-2.7711230063635472,-2.6735760006864075,-0.0041160615398486465,-0.0019241839274271684,-0.5378288771645775
9213,13.0,299.82991,23630.006,0.0,-0.04606474305380304,-0.04606413596955061,0.0,0.0,0.0,-1.7449607563642182,-2.7724865370231173,-2.6654842867128177,0.0007249167029862083,0.0025634716851949575,-0.5332159952893215
9214,13.0,300.00404,23658.701,0.0,-0.04606975754254161,-0.04606913817973779,0.0,0.0,0.0,-1.7465879346998083,-2.7703276050350474,-2.6747388065011677,-0.0006462140213438584,0.002135380205395618,-0.5371779146378325
9215,13.0,299.93728,23706.232000000004,0.0,-0.0460747390412225,-0.04607414038992497,0.0,0.0,0.0,-1.7582426413250385,-2.7773567236287673,-2.6705031171081375,0.00034124968434372173,0.004529194712396716,-0.5324660483603075
9216,13.0,300.00161,23694.915,0.0,-0.04607975352996074,-0.04607914260011203,0.0,0.0,0.0,-1.7526196098950881,-2.7786141670028672,-2.6714287210744874,0.0016668730162075582,0.008848836030537122,-0.5370374883064735
9217,13.0,300.17686000000003,23713.088,0.0,-0.04608476801869921,-0.04608414481029921,0.0,0.0,0.0,-1.7653653842279982,-2.7723246196571374,-2.6704964296574776,0.005829854925786884,0.004911545042931755,-0.5287442287554924
9218,13.0,300.02029,23705.635,0.0,-0.046089749517380096,-0.046089147020486165,0.0,0.0,0.0,-1.7583743638380382,-2.7764751960417677,-2.6710714490892276,0.0015493526219091988,0.0014450945568447288,-0.5305573182194305
9219,13.0,299.75175,23699.977000000003,0.0,-0.04609476400611845,-0.04609414923067334,0.0,0.0,0.0,-1.756971417749578,-2.777346692452777,-2.6698831093719475,0.003926362173351777,-0.005539204641226934,-0.5328769618058614
9220,13.0,299.91017,23744.629,0.0,-0.04609974550479934,-0.0460991514408603,0.0,0.0,0.0,-1.7536184718436683,-2.783563589766337,-2.6805922510038576,-0.002226885606026498,0.0004860728726566575,-0.5324459556108245
9221,13.0,299.84292,23741.673,0.0,-0.0461047599935378,-0.04610415365104725,0.0,0.0,0.0,-1.7693154384178382,-2.776327464177187,-2.6712329611551677,0.0018642144162836383,0.002378007096166028,-0.5306770742487495
9222,13.0,299.90751,23706.806,0.0,-0.04610974149221869,-0.046109122951957016,0.0,0.0,0.0,-1.7515349256630384,-2.7761436606090473,-2.678598377457077,-0.006925343241003164,0.003589495221255596,-0.5299532286423115
9223,13.0,300.16402999999997,23688.314,0.0,-0.046114755980957045,-0.04611412516214397,0.0,0.0,0.0,-1.7589692429717483,-2.7760984696545874,-2.6655883474980873,-0.002917653054999937,-0.002314966626619418,-0.5329760374006395
9224,13.0,300.22631,23719.741,0.0,-0.046119737479638157,-0.04611912737233115,0.0,0.0,0.0,-1.7516413169235383,-2.782068437918777,-2.6764993285499177,-0.002275012148676218,0.00015397905807154984,-0.5339184815836515
9225,13.0,300.19364,23745.361,0.0,-0.0461247519683764,-0.0461241295825181,0.0,0.0,0.0,-1.7638885722072482,-2.7792584927414574,-2.674849757387118,0.004594587340725465,-0.0008002432758253622,-0.5304510384164415
9226,13.0,300.35337999999996,23733.918999999998,0.0,-0.04612976645711486,-0.04612913179270517,0.0,0.0,0.0,-1.7565862813865682,-2.784661952874737,-2.6732704044562476,0.00041334395896637255,0.00048159445920217255,-0.5374773401748835
9227,13.0,300.14383,23709.397,0.0,-0.04613474795579575,-0.046134134002892235,0.0,0.0,0.0,-1.761168704963818,-2.7786468949810974,-2.6672492670620076,0.007040663464034384,-0.004292748647236306,-0.5320428137935375
9228,13.0,300.13308,23733.754,0.0,-0.046139762444534105,-0.04613913621307941,0.0,0.0,0.0,-1.7483753078762083,-2.788733191776537,-2.677360185834877,0.002419377996424018,0.0038705687724953962,-0.5367920993972555
9229,13.0,299.95524,23760.778,0.0,-0.046144743943214994,-0.04614413842326648,0.0,0.0,0.0,-1.7617142388176583,-2.7874734179272074,-2.673495447303458,0.01083768659259639,0.0007058563337650964,-0.5349208392450765
9230,13.0,300.02779,23766.606,0.0,-0.04614975843195346,-0.046149140633453656,0.0,0.0,0.0,-1.7595311914772085,-2.7828090224168673,-2.6821145579540975,0.0023058272120424278,-0.004323000343546915,-0.5377333580776504
9231,13.0,299.87111,23709.033,0.0,-0.04615473993063435,-0.04615414284364061,0.0,0.0,0.0,-1.7551263906424883,-2.7816499656274773,-2.6701775598510076,-0.0005976249401559895,-0.012992519984011889,-0.5407962611424355
9232,13.0,300.1067,23669.176,0.0,-0.0461597544193727,-0.04615914505382779,0.0,0.0,0.0,-1.7479157989558582,-2.775865523456597,-2.671057060937808,-0.004119700424932776,-0.0031995377129447867,-0.5354545890002536
9233,13.0,299.99537999999995,23717.553,0.0,-0.04616473591805359,-0.046164147264014965,0.0,0.0,0.0,-1.7593237791817382,-2.774388103485787,-2.6758321033590677,-0.0008030138866338002,0.0006347585500857914,-0.5346281923511945
9234,13.0,300.11908,23792.822,0.0,-0.046169750406792054,-0.04616914947420192,0.0,0.0,0.0,-1.7635912846279085,-2.7804299111820674,-2.688402585424677,-0.0052065940488258255,0.004422380723954996,-0.5310268076532655
9235,13.0,300.07659,23781.616,0.0,-0.04617476489553041,-0.046174151684388876,0.0,0.0,0.0,-1.7705553525652085,-2.7764335514626572,-2.6820285330206075,-0.0022486748401519276,0.0035652864472163768,-0.5314729518047965
9236,13.0,300.27267,23769.709,0.0,-0.046179746394211296,-0.04617912098529864,0.0,0.0,0.0,-1.7596326178122181,-2.7839569334551575,-2.6818083537738775,-0.0028234194784748073,0.009298287025094481,-0.5301184289386155
9237,13.0,300.18653,23829.009,0.0,-0.04618476088294976,-0.046184123195485594,0.0,0.0,0.0,-1.7723297561403282,-2.787235000178677,-2.6838589693262573,0.0017599148079650683,0.005133097142222245,-0.5304242176862944
9238,13.0,300.37604,23841.569,0.0,-0.04618974238163065,-0.04618912540567277,0.0,0.0,0.0,-1.7682842537910684,-2.7886706742453673,-2.6902865213356075,0.0018665524908893884,-0.0004315887125194896,-0.5282570682399135
9239,13.0,300.15361,23775.246,0.0,-0.046194756870369,-0.046194127615859726,0.0,0.0,0.0,-1.7613850338601682,-2.7861359277952076,-2.6795600531269876,-0.000937078983202495,-0.009051531241491582,-0.5338256172119865
9240,13.0,300.20572000000004,23764.037,0.0,-0.04619973836905,-0.04619912982604679,0.0,0.0,0.0,-1.7540477859110382,-2.7826639250025473,-2.6869620477575076,-0.00020352212436106982,0.001238760055506099,-0.5360251197340605
9241,13.0,299.94652,23751.283,0.0,-0.046204752857788356,-0.04620413203623397,0.0,0.0,0.0,-1.7602553613236787,-2.7833170660170072,-2.6762243324727772,-0.002618825335507938,0.00021643661496813083,-0.5347046623362415
9242,13.0,300.05171,23765.465,0.0,-0.04620976734652682,-0.046209134246420924,0.0,0.0,0.0,-1.7522525093838586,-2.788939388171887,-2.6829160387831976,-0.002152167631727408,0.0012424511229703788,-0.5422170708301585
9243,13.0,300.14678,23781.477000000003,0.0,-0.04621474884520771,-0.0462141364566081,0.0,0.0,0.0,-1.7667174651614383,-2.7813214699450577,-2.680936350737818,-0.006513899359021814,-0.007833522953333524,-0.5368764018055755
9244,13.0,300.08272,23773.569,0.0,-0.04621976333394606,-0.04621913866679506,0.0,0.0,0.0,-1.7611710354390482,-2.786879248068568,-2.6785209651494375,-0.004449665522647796,0.0023819480311049676,-0.5384935388326745
9245,13.0,299.9345,23770.047000000002,0.0,-0.04622474483262695,-0.046224140876982234,0.0,0.0,0.0,-1.7576638728679184,-2.7855785389151975,-2.682258439468298,0.0013709046884977589,0.0039438048685232355,-0.5381491959186905
9246,13.0,299.86359,23794.596,0.0,-0.046229759321365416,-0.04622914308716941,0.0,0.0,0.0,-1.7544970610053783,-2.788855187088577,-2.6896106835189073,-0.0012454621982925487,0.002292886893690318,-0.5367133597319845
9247,13.0,299.68307999999996,23808.99,0.0,-0.046234740820046305,-0.046234145297356366,0.0,0.0,0.0,-1.7679485640329382,-2.7890256157553974,-2.6803641684063475,0.0001044821554565859,-0.001004639318265181,-0.5384198147553985
9248,13.0,299.72499,23797.254,0.0,-0.04623975530878466,-0.04623914750754354,0.0,0.0,0.0,-1.759775688726338,-2.7871292168682373,-2.6868660929730375,0.0008362807213994813,0.005850794448378454,-0.5334377450737066
9249,13.0,299.97206,23753.818,0.0,-0.04624473680746555,-0.0462441497177305,0.0,0.0,0.0,-1.7646521574826086,-2.7893083125332976,-2.6666069678236175,0.006815811817118253,0.005798423502384844,-0.5378192816861305
9250,13.0,299.92235,23755.527000000002,0.0,-0.04624975129620401,-0.046249151927917675,0.0,0.0,0.0,-1.7575297185546783,-2.784350378468987,-2.6792070367921474,-3.079998924447227e-05,-0.00099172117995776,-0.5318551497425165
9251,13.0,299.99641,23823.465,0.0,-0.046254765784942364,-0.046254121228827216,0.0,0.0,0.0,-1.7663437785245586,-2.789519980479187,-2.6858747290751976,0.0007836143927367193,-0.008243861379455772,-0.5382248249061545
9252,13.0,300.11047,23833.93,0.0,-0.046259747283623254,-0.04625912343901417,0.0,0.0,0.0,-1.7645710974746083,-2.7918744697365576,-2.688474019556727,-0.0023277230400783775,-0.005982291513231204,-0.5307254974710285
9253,13.0,300.02182999999997,23826.609,0.0,-0.04626476177236172,-0.04626412564920135,0.0,0.0,0.0,-1.7695143394124682,-2.7879123578705274,-2.685267589615277,-0.002777069973850467,-0.002449042615626688,-0.5356691852389325
9254,13.0,300.07658,23838.408,0.0,-0.04626974327104261,-0.046269127859388415,0.0,0.0,0.0,-1.761529219349398,-2.7957960515985874,-2.6889555160042473,-0.005092583856848896,-0.003810415356458716,-0.5325460748532055
9255,13.0,299.86841,23823.939,0.0,-0.04627475775978107,-0.04627413006957537,0.0,0.0,0.0,-1.7743232243870681,-2.7901497154163373,-2.677409632439758,-0.001929733396899858,-0.005238490452698755,-0.5354433216591415
9256,13.0,299.94139,23865.227000000003,0.0,-0.04627973925846196,-0.04627913227976255,0.0,0.0,0.0,-1.7718059058386284,-2.789753433302227,-2.6928738554659577,0.0014348074338794686,0.003735132900528916,-0.5333459547471474
9257,13.0,300.01294,23846.284,0.0,-0.04628475374720031,-0.0462841344899495,0.0,0.0,0.0,-1.7674197488057484,-2.7971221933294674,-2.6841329521532975,0.008552838926524482,0.0008678860083861801,-0.5411220210495855
9258,13.0,300.15406,23778.775,0.0,-0.0462897352458812,-0.04628913670013668,0.0,0.0,0.0,-1.7545266479082986,-2.788152599469237,-2.6854746979357174,0.004876568662729856,-0.0024407639570096476,-0.5350862320588995
9259,13.0,300.04227000000003,23802.968999999997,0.0,-0.04629474973461967,-0.046294138910323857,0.0,0.0,0.0,-1.7605631867040585,-2.7937711725987473,-2.6811739578862674,0.005112517222091165,-0.002139423782569688,-0.5397208886788045
9260,13.0,300.0167,23860.246,0.0,-0.04629976422335802,-0.04629914112051081,0.0,0.0,0.0,-1.7690092342376182,-2.794230580194087,-2.6896789765756473,0.003578731060143257,0.006203834290620775,-0.5382661553777335
9261,13.0,299.9685,23836.412999999997,0.0,-0.04630474572203891,-0.04630414333069799,0.0,0.0,0.0,-1.7710755551665482,-2.7880211809312674,-2.6865777219945772,0.0012013806513670388,0.008389529354907083,-0.5346882882146254
9262,13.0,300.10562999999996,23820.767999999996,0.0,-0.04630976021077737,-0.046309145540884944,0.0,0.0,0.0,-1.7543234912632484,-2.7933018351524272,-2.6932934423323673,-0.005013711759789825,-0.0022117386316066077,-0.5384218716531015
9263,13.0,300.03994,23843.832000000002,0.0,-0.04631474170945826,-0.04631414775107212,0.0,0.0,0.0,-1.7638895854573484,-2.788896730342677,-2.695143231714927,-0.0004265217527444196,-0.007477794046650812,-0.5354311423929394
9264,13.0,299.85277,23884.06,0.0,-0.046319756198196504,-0.0463191499612593,0.0,0.0,0.0,-1.7677879638920881,-2.792998366747477,-2.699371524382227,-0.0020851089162592282,-0.0025569427068505976,-0.5382654663676655
9265,13.0,299.93825,23902.072,0.0,-0.046324737696877505,-0.04632411926216862,0.0,0.0,0.0,-1.774554752034918,-2.7960271739463973,-2.695051329930857,0.002299725521265238,5.9417252348776245e-05,-0.5380650657628875
9266,13.0,300.03002999999995,23866.833,0.0,-0.04632975218561597,-0.046329121472355794,0.0,0.0,0.0,-1.7725839805904184,-2.790598990510677,-2.6917384074038972,-0.0016608588702390085,-0.0027037006354344775,-0.5360495897239755
9267,13.0,300.15349,23864.345,0.0,-0.04633476667435421,-0.04633412368254297,0.0,0.0,0.0,-1.7735638947621284,-2.7964490912880375,-2.6841521025801875,-0.0017342560730327482,0.007605855687039513,-0.5325822174842725
9268,13.0,300.11085,23895.514,0.0,-0.04633974817303532,-0.04633912589273004,0.0,0.0,0.0,-1.765945368585238,-2.7982221776380274,-2.699471937467137,0.0014642146875567385,0.01003574301217572,-0.5336631020284475
9269,13.0,300.02419,23935.82,0.0,-0.046344762661773675,-0.046344128102917215,0.0,0.0,0.0,-1.7786345022375585,-2.7964984365679073,-2.7007585624441175,-0.0016211697624969985,0.008609842148000263,-0.5332530701104805
9270,13.0,300.10952000000003,23918.645,0.0,-0.046349744160454565,-0.04634913031310417,0.0,0.0,0.0,-1.7677873559420285,-2.804335318141347,-2.6985480560259574,-7.781287174903252e-05,-0.003879855817611956,-0.5384066627691005
9271,13.0,300.32114,23880.894,0.0,-0.04635475864919303,-0.046354132523291125,0.0,0.0,0.0,-1.7682331859860283,-2.7953089822755177,-2.6956534031402772,3.3257056902215972e-06,-0.002133469924982088,-0.5366433137525715
9272,13.0,299.96785,23895.2,0.0,-0.04635974014787392,-0.0463591347334783,0.0,0.0,0.0,-1.7689667790584285,-2.7982926998449873,-2.6962847592775874,0.007539830385348322,0.006413410280354314,-0.5376729278416865
9273,13.0,299.96607,23952.467,0.0,-0.04636475463661216,-0.04636413694366526,0.0,0.0,0.0,-1.7812305503187684,-2.802796089914437,-2.696925133340787,0.0035786940765146066,1.2408582938131789e-05,-0.5309978388329064
9274,13.0,299.78989,23898.276,0.0,-0.04636973613529316,-0.046369139153852434,0.0,0.0,0.0,-1.7625952597796082,-2.7978733156285975,-2.7040106899650773,0.003100033513374487,-0.007029196208677653,-0.5376705669689535
9275,13.0,300.06692999999996,23843.925,0.0,-0.046374750624031624,-0.04637414136403939,0.0,0.0,0.0,-1.7610125631234084,-2.7985174387171674,-2.6884277140271573,-0.0027016229661044272,-0.0008659748363125622,-0.5365903916998486
9276,13.0,300.17152999999996,23887.766,0.0,-0.046379765112769866,-0.04637914357422657,0.0,0.0,0.0,-1.7612519941220381,-2.8049220912742574,-2.695110301086677,0.004060525301867647,0.001999987801858428,-0.5448146387865185
9277,13.0,300.08409,23928.138,0.0,-0.046384746611450756,-0.046384145784413744,0.0,0.0,0.0,-1.7796223197600485,-2.8054630655026473,-2.6884710811314374,-0.0016345907666965483,0.0016099096154607083,-0.5422548042638824
9278,13.0,299.87136,23928.252999999997,0.0,-0.04638976110018933,-0.04638914799460081,0.0,0.0,0.0,-1.7762965289568184,-2.8088220909091572,-2.6884727023315973,-0.005090587450176865,-0.007060812448897933,-0.5462670112148565
9279,13.0,299.96895,23920.822999999997,0.0,-0.04639474259887022,-0.04639411729551024,0.0,0.0,0.0,-1.7726220787941784,-2.8023174305671974,-2.696393278363298,-0.0018432571618153186,0.0009610121228170121,-0.5378943635185405
9280,13.0,299.96291,23874.02,0.0,-0.04639975708760846,-0.04639911950569742,0.0,0.0,0.0,-1.7576517138667183,-2.8019247961534473,-2.6975293343754174,0.0005713234398902335,0.004109516248177676,-0.5390083712084844
9281,13.0,299.88018,23924.157000000003,0.0,-0.04640473858628957,-0.04640412171588448,0.0,0.0,0.0,-1.7705169503864182,-2.8029711795317174,-2.6988581105565577,0.0034419225382663066,-0.0001144583018336549,-0.5372864438560435
9282,13.0,299.62442000000004,23964.459,0.0,-0.046409753075027926,-0.04640912392607166,0.0,0.0,0.0,-1.7771007455611882,-2.801650205376347,-2.7058461925212276,-0.0024112106939929677,-0.008235408948446581,-0.5375885747708614
9283,13.0,299.6683,23922.859,0.0,-0.046414734573708816,-0.046414126136258615,0.0,0.0,0.0,-1.7793814702112785,-2.8002183816600374,-2.6923520316644574,-0.003151083181237697,0.005851462788144414,-0.5362021750565346
9284,13.0,300.10969,23876.543999999998,0.0,-0.04641974906244728,-0.04641912834644579,0.0,0.0,0.0,-1.7692596083373284,-2.7959405410628473,-2.692673029296137,0.0015857308336244486,-0.0010529934166223591,-0.5376211406290754
9285,13.0,299.93155,23945.832000000002,0.0,-0.046424763551185744,-0.04642413055663275,0.0,0.0,0.0,-1.7754903871772585,-2.805168513698577,-2.6982759983741076,-0.005668179219955735,-0.0028136945066650275,-0.5361150862104395
9286,13.0,300.02682000000004,24007.388,0.0,-0.04642974504986641,-0.0464291327668197,0.0,0.0,0.0,-1.7763580332378883,-2.8123126361786475,-2.7089760207551175,-0.002289463729552478,-0.012775901298133288,-0.5375373549783066
9287,13.0,299.98322,23972.193,0.0,-0.046434759538604986,-0.04643413497700688,0.0,0.0,0.0,-1.778591236458288,-2.8056191060180473,-2.7027375412144274,-0.0017419115828382883,0.002882777290532967,-0.5385014928459595
9288,13.0,300.00993,23919.142000000003,0.0,-0.046439741037285875,-0.046439137187193946,0.0,0.0,0.0,-1.7668153451210984,-2.8090008282267975,-2.695005531026337,0.0019873934070904578,0.004558943127382656,-0.5457738826561885
9289,13.0,300.15762,23912.557999999997,0.0,-0.04644475552602412,-0.04644413939738112,0.0,0.0,0.0,-1.7781399348637483,-2.8007007900326473,-2.689979810530337,-0.004704295374102806,-0.004639990571081415,-0.5418700225384074
9290,13.0,300.18922000000003,23944.652000000002,0.0,-0.04644973702470501,-0.04644914160756819,0.0,0.0,0.0,-1.7705411670638085,-2.805712629002277,-2.7023224126484577,-0.005349699514774235,-0.007507388042321513,-0.5425375010417824
9291,13.0,299.9563,23943.201,0.0,-0.04645475151344358,-0.046454143817755256,0.0,0.0,0.0,-1.7738018058856084,-2.799574461221487,-2.7047590764889375,0.0007552167414590893,0.008553527835267472,-0.5366548242737075
9292,13.0,300.06321,23944.78,0.0,-0.046459766002181824,-0.04645914602794243,0.0,0.0,0.0,-1.764073287700478,-2.804081296341277,-2.710460533476627,0.004232280515718566,0.005274296279432515,-0.5392279425051545
9293,13.0,299.9598,23926.467,0.0,-0.04646474750086271,-0.04646411532885186,0.0,0.0,0.0,-1.766283794118638,-2.8039615301794574,-2.7028031998209077,-0.0040205603874484165,-0.0006785577954009402,-0.5369283410057015
9294,13.0,299.9465,23990.871,0.0,-0.04646976198960118,-0.04646911753903893,0.0,0.0,0.0,-1.7771872771197286,-2.810597507734377,-2.7048407444469973,0.0003500653756462627,-0.004702796979854926,-0.5434419990085494
9295,13.0,299.85805,24042.64,0.0,-0.046474743488282066,-0.046474119749226106,0.0,0.0,0.0,-1.7910913989669583,-2.8071516467942974,-2.710119169517937,0.002475365130699518,0.007393520515958663,-0.5353104845710315
9296,13.0,299.87189,24005.272,0.0,-0.04647975797702042,-0.04647912195941306,0.0,0.0,0.0,-1.7752461939031585,-2.813140866810387,-2.7086161143195975,0.002335031410399658,0.0006429940138510684,-0.5422799429988635
9297,13.0,300.05657,23967.99,0.0,-0.04648473947570153,-0.04648412416960024,0.0,0.0,0.0,-1.7719462409774782,-2.805168513698577,-2.708555623288627,-0.0005849549670630604,-0.008533821843347642,-0.5387830243862445
9298,13.0,300.00571,23976.98,0.0,-0.046489753964439995,-0.046489126379787415,0.0,0.0,0.0,-1.769879109448468,-2.8075308049817176,-2.7109934017042177,-0.003135343354184297,-0.006868816652374424,-0.5396369206430175
9299,13.0,300.04418,24004.583,0.0,-0.04649473546312066,-0.04649412858997437,0.0,0.0,0.0,-1.7820049773701983,-2.807369900865837,-2.7074191619764676,0.0018790200267448382,0.011274222093429091,-0.5357713208490126
9300,13.0,300.12772,24039.201,0.0,-0.04649974995185924,-0.04649913080016155,0.0,0.0,0.0,-1.7907828643115085,-2.810648879514447,-2.7058850000000576,-0.0016047001927215784,0.008200719723323022,-0.5416619313653704
9301,13.0,299.93432,24045.944,0.0,-0.0465047644405977,-0.0465041330103485,0.0,0.0,0.0,-1.7924427706253283,-2.815226034191177,-2.701697946611827,-0.008167043646974452,0.0001789679029652568,-0.5396932370835755
9302,13.0,299.90209,23992.847,0.0,-0.04650974593927837,-0.04650913522053557,0.0,0.0,0.0,-1.7764053520175584,-2.811056510029677,-2.7057644232381577,9.76797991954956e-05,-0.004014534791753736,-0.5410139477939194
9303,13.0,300.1255,24008.588,0.0,-0.04651476042801683,-0.046514137430722746,0.0,0.0,0.0,-1.7736107069167482,-2.8129566579422076,-2.7114437913736675,0.00919399866385202,0.009820731543605741,-0.5349971876401115
9304,13.0,300.05847,24042.208,0.0,-0.04651974192669783,-0.0465191396409097,0.0,0.0,0.0,-1.776854323136868,-2.8144192844615574,-2.716957290467808,0.006181371143853834,-0.001097105462375879,-0.5437356591525315
9305,13.0,299.94915,24042.66,0.0,-0.046524756415436075,-0.04652414185109688,0.0,0.0,0.0,-1.7821269726822382,-2.812289635401377,-2.713951788021187,-0.0017874319449057983,-0.010028406777476689,-0.5414029649048125
9306,13.0,300.16492,23951.921000000002,0.0,-0.046529737914116964,-0.046529144061283834,0.0,0.0,0.0,-1.7766292802896584,-2.807183564172447,-2.6969730600705177,0.0005837104932902403,-0.004079812112221106,-0.5495975237635525
9307,13.0,299.81236,23952.966,0.0,-0.04653475240285543,-0.04653414627147101,0.0,0.0,0.0,-1.7762941984815883,-2.8045127382338575,-2.700296520398518,0.007964006058811202,0.013988573203314685,-0.5401834474819555
9308,13.0,299.84087999999997,24048.642000000003,0.0,-0.04653973390153632,-0.04653911557238055,0.0,0.0,0.0,-1.7813275183533381,-2.812420952614337,-2.7164381011165677,0.0013739236671707086,0.004270059950997105,-0.5431794557751385
9309,13.0,299.81723999999997,24065.82,0.0,-0.04654474839027467,-0.04654411778256751,0.0,0.0,0.0,-1.7806971754661285,-2.8214872105341073,-2.7132239704743575,-0.004135525364994576,-0.006540269598174354,-0.5379755248515505
9310,13.0,299.88712000000004,24029.286,0.0,-0.046549762879013135,-0.046549119992754684,0.0,0.0,0.0,-1.7700213697625082,-2.8218034458903176,-2.7124782184007574,-0.004213279137918276,-0.0028490921962585074,-0.5438255243039004
9311,13.0,299.91182000000003,24028.865,0.0,-0.046554744377694024,-0.04655412220294186,0.0,0.0,0.0,-1.7870814616962083,-2.8153754885809272,-2.7017181102888177,0.002106213294642068,0.01107308384257829,-0.5361323722571455
9312,13.0,300.1535,24067.222,0.0,-0.04655975886643249,-0.046559124413128816,0.0,0.0,0.0,-1.787415631579188,-2.8234566647534773,-2.7049622331339873,-0.00017457474437418584,-0.0028686060759593774,-0.5442899170897324
9313,13.0,299.95215,24084.886000000002,0.0,-0.04656474036511349,-0.04656412662331599,0.0,0.0,0.0,-1.7927387409795381,-2.8191354570520075,-2.7093295437150076,-0.009758655181529281,-0.005482377015993484,-0.5416373296529424
9314,13.0,300.12883999999997,24098.438,0.0,-0.04656975485385195,-0.04656912883350295,0.0,0.0,0.0,-1.781773855022388,-2.8236827208507873,-2.7198667368049474,0.0019072614348570479,0.001028321992587479,-0.5462605568117195
9315,13.0,300.09522999999996,24027.043999999998,0.0,-0.04657473635253262,-0.046574131043690126,0.0,0.0,0.0,-1.7791822652416183,-2.8119455356674177,-2.7124937211272875,0.007734581715518782,0.010863530549646989,-0.5414029750373135
9316,13.0,300.15332,23979.148999999998,0.0,-0.046579750841271084,-0.04657913325387719,0.0,0.0,0.0,-1.7652115728628182,-2.8116543275886774,-2.7121965348729575,0.0028831871501984172,-0.006090806951240844,-0.5480155971774285
9317,13.0,299.99377000000004,24053.416,0.0,-0.04658476533000966,-0.04658413546406415,0.0,0.0,0.0,-1.7881566213773183,-2.8171110846772174,-2.7063702454729475,-0.0001223040594779709,-0.01901914007454298,-0.5425989141303434
9318,13.0,299.79351,24083.089,0.0,-0.046589746828690326,-0.046589137674251324,0.0,0.0,0.0,-1.7885890765199983,-2.8182195802866175,-2.713849145786057,0.001167177583641459,-0.005849999958975045,-0.5470820189327915
9319,13.0,299.68442999999996,24045.431,0.0,-0.04659476131742879,-0.04659413988443828,0.0,0.0,0.0,-1.7830000902934084,-2.816532822845147,-2.7096776964493676,0.005172562423017165,0.007303937656067523,-0.5384872465495535
9320,13.0,299.92244,24046.012000000002,0.0,-0.04659974281610968,-0.046599142094625456,0.0,0.0,0.0,-1.7713183298905082,-2.8192276628111075,-2.7188412263787374,0.0002125220143992898,-0.0005840494457136924,-0.5400058551369284
9321,13.0,299.80946,24094.113999999998,0.0,-0.04660475730484803,-0.046604144304812634,0.0,0.0,0.0,-1.779732966670968,-2.823325550190537,-2.7209504077868973,-0.0060846384872820635,-0.002080984481727178,-0.5342589944122575
9322,13.0,299.93299,24096.315,0.0,-0.04660973880352892,-0.04660911360572195,0.0,0.0,0.0,-1.7793015247783883,-2.8245852227148576,-2.720791428846207,-0.0019927563372197383,0.0015126718537140885,-0.5415267232720264
9323,13.0,300.05248,24110.362999999998,0.0,-0.046614753292267386,-0.04661411581590913,0.0,0.0,0.0,-1.7932096996260183,-2.8202893462658873,-2.715449270343977,0.004448243324807436,0.012619089699407187,-0.5399034662143235
9324,13.0,300.15315,24095.019,0.0,-0.046619734790948275,-0.04661911802609631,0.0,0.0,0.0,-1.7922541034567085,-2.8194204843051374,-2.7126094342887073,-0.0019548891544825383,-0.0015151613078847785,-0.5429798049754344
9325,13.0,300.23677000000004,24049.915,0.0,-0.04662474927968674,-0.04662412023628326,0.0,0.0,0.0,-1.7804218754139585,-2.8198433135718677,-2.7103083433116075,-0.0006686686568099584,-0.006836640591473894,-0.5470788575924795
9326,13.0,300.27875,24048.775,0.0,-0.04662976376842509,-0.04662912244647044,0.0,0.0,0.0,-1.7695456488405583,-2.819346415722827,-2.7213351388498674,-0.0010664956834799289,0.002730900625093907,-0.5468148046164195
9327,13.0,300.06076,24118.357999999997,0.0,-0.046634745267106203,-0.046634124656657394,0.0,0.0,0.0,-1.7816444629846182,-2.825165916347167,-2.724568115943937,0.00022288378349941682,0.007259743435730893,-0.5422237278833155
9328,13.0,299.97227999999996,24119.602000000003,0.0,-0.046639759755844445,-0.04663912686684457,0.0,0.0,0.0,-1.7848213060231481,-2.8253394860892973,-2.7215960507506174,-0.003194562553628777,-0.0026442163697638376,-0.5439396973251684
9329,13.0,300.15147,24071.946,0.0,-0.046644741254525335,-0.04664412907703175,0.0,0.0,0.0,-1.7893365511187684,-2.8194795567859674,-2.708454399603637,-0.0029655999484069274,-0.007390375590298284,-0.5426918899595194
9330,13.0,300.01845,24126.067000000003,0.0,-0.04664975574326391,-0.046649131287218815,0.0,0.0,0.0,-1.7903095751897982,-2.8294097117409973,-2.7140024505261873,0.0016239210404935284,-0.0010188974494323491,-0.5412777981199595
9331,13.0,299.93052,24180.747000000003,0.0,-0.04665473724194458,-0.04665413349740599,0.0,0.0,0.0,-1.7925610169119983,-2.8272265630755373,-2.7305558160848773,-0.0008321145409633114,0.006482436727516694,-0.5380773767516024
9332,13.0,299.90767999999997,24125.202999999998,0.0,-0.04665975173068304,-0.04665913570759295,0.0,0.0,0.0,-1.7787840579523182,-2.827922159269187,-2.7267528858095575,-0.008416186445162932,0.004496417084911815,-0.5402888862873615
9333,13.0,299.84386,24086.682999999997,0.0,-0.04666473322936393,-0.0466641379177799,0.0,0.0,0.0,-1.7771196933380584,-2.822264170710787,-2.7223663234766375,-0.006407811668251774,-0.0012454708109183987,-0.5370881508114734
9334,13.0,299.76489,24078.769,0.0,-0.046669747718102284,-0.04666914012796708,0.0,0.0,0.0,-1.782705538489338,-2.8193238202455975,-2.7173152717281375,0.00043514159293513166,0.007875468974348272,-0.5416723678414005
9335,13.0,299.79832999999996,24064.945,0.0,-0.04667476220684075,-0.046674142338154034,0.0,0.0,0.0,-1.787755576987738,-2.8194218015302677,-2.7079652024553575,0.004169176008765636,0.0036631789711776166,-0.5423810349613405
9336,13.0,299.96929,24143.127999999997,0.0,-0.04667974370552164,-0.046679111639063575,0.0,0.0,0.0,-1.7975868387330083,-2.8240891354658975,-2.717232083894927,-0.002891583345827057,-0.011701693058867188,-0.5494699454434615
9337,13.0,299.97604,24186.992000000002,0.0,-0.04668475819425999,-0.04668411384925075,0.0,0.0,0.0,-1.7953297228102485,-2.831003858123327,-2.7259080378761773,0.00017370422068327184,-0.015913605525050584,-0.5464717383975615
9338,13.0,299.95777000000004,24084.771,0.0,-0.04668973969294099,-0.04668911605943771,0.0,0.0,0.0,-1.7801288434850384,-2.824157732497668,-2.716882613935437,0.0017413619959840481,-0.007042644266654873,-0.5462874282043715
9339,13.0,299.92959,24116.466,0.0,-0.04669475418167934,-0.046694118269624885,0.0,0.0,0.0,-1.7804260297393681,-2.828626773388727,-2.7217506727158773,0.0027140425752301476,0.0063165862286235245,-0.5419685003156265
9340,13.0,299.93242999999995,24227.212000000003,0.0,-0.046699735680360455,-0.04669912047981195,0.0,0.0,0.0,-1.8034724032638683,-2.8357574196424675,-2.7252375702850076,-0.0031440807111216065,0.00017828579313043785,-0.5404207202578725
9341,13.0,299.76065,24203.292999999998,0.0,-0.0467047501690987,-0.04670412268999902,0.0,0.0,0.0,-1.800687181388988,-2.8357912621958077,-2.7207183735139977,9.318780008366981e-05,-0.004363493059943236,-0.5423611043318735
9342,13.0,300.12381,24116.652000000002,0.0,-0.04670976465783705,-0.046709124900186194,0.0,0.0,0.0,-1.7874462317322084,-2.827831372060227,-2.7155824114071176,-0.004225767445400776,0.004286450791239756,-0.5453074735026575
9343,13.0,300.17436000000004,24108.221,0.0,-0.04671474615651816,-0.04671412711037326,0.0,0.0,0.0,-1.777373816463138,-2.8321568354121176,-2.7187665498463676,0.0005673947855425054,0.0014940244041737288,-0.5433176428237765
9344,13.0,300.0732,24133.068,0.0,-0.0467197606452564,-0.04671912932056044,0.0,0.0,0.0,-1.7772158507725484,-2.830227911196747,-2.728406307322737,-0.006178858587580864,-0.006308879752337954,-0.5472301864949145
9345,13.0,300.09501,24159.979,0.0,-0.04672474214393729,-0.04672413153074739,0.0,0.0,0.0,-1.7826701760608483,-2.8318553935073676,-2.729504670431137,-0.0006296201865761744,-0.007651354162904862,-0.5471276253197924
9346,13.0,299.96305,24185.637000000002,0.0,-0.046729756632675756,-0.04672913374093457,0.0,0.0,0.0,-1.7955304476550584,-2.8318497193068075,-2.724449667007247,0.004069351723488746,0.0013626323120313386,-0.5440609023021304
9347,13.0,299.90379,24170.991,0.0,-0.046734738131356535,-0.046734135951121525,0.0,0.0,0.0,-1.7968613516614083,-2.825853507865027,-2.724662956153298,0.003171044512182727,0.002220969643992638,-0.5452660113085654
9348,13.0,299.81975,24156.536,0.0,-0.046739752620095,-0.04673913816130848,0.0,0.0,0.0,-1.7937637447806982,-2.832245697445887,-2.7169744143944974,0.0024078933131655676,-0.0034139274512534064,-0.5482082058889375
9349,13.0,299.79085,24257.574,0.0,-0.04674473411877589,-0.04674414037149566,0.0,0.0,0.0,-1.8014755912917984,-2.8360238030937572,-2.7361974913166676,-0.001389120088195479,-0.007058165130361664,-0.5464022902357075
9350,13.0,299.85072,24281.842,0.0,-0.04674974860751424,-0.04674914258168272,0.0,0.0,0.0,-1.8037296674642582,-2.8361089161021575,-2.741234965513827,0.0012842554916211487,0.003156334045905917,-0.5408251185052835
9351,13.0,299.86827,24113.792,0.0,-0.046754763096252705,-0.046754111882592375,0.0,0.0,0.0,-1.7817909789490782,-2.8273006316578475,-2.720899036006827,0.0017501068509720985,0.0007014832071285023,-0.5421411885301695
9352,13.0,299.79126,24095.957000000002,0.0,-0.046759744594933594,-0.04675911409277933,0.0,0.0,0.0,-1.7831821713363782,-2.8249561735764672,-2.7164308057158473,-0.0008946950050970222,0.003432172133879017,-0.5408893078991185
9353,13.0,299.91446,24233.69,0.0,-0.046764759083671836,-0.046764116302966396,0.0,0.0,0.0,-1.7962723493782784,-2.840362540021957,-2.7298016540354473,-0.0008242337957930423,0.0006908038145195285,-0.5476936369581535
9354,13.0,299.95814,24254.384,0.0,-0.04676974058235295,-0.046769118513153574,0.0,0.0,0.0,-1.7982534559737984,-2.8374210749816573,-2.7370525730760575,-0.0016931022109461782,0.010137783072771292,-0.5432373731508545
9355,13.0,300.06966,24160.665,0.0,-0.0467747550710913,-0.04677412072334064,0.0,0.0,0.0,-1.7773289294837082,-2.8333631096561676,-2.7335468290550677,0.0005676423225419355,0.007116953090563582,-0.5513905002130054
9356,13.0,300.1056,24167.854,0.0,-0.0467797365697723,-0.046779122933527706,0.0,0.0,0.0,-1.776968313773118,-2.8341309505819474,-2.7353248803305474,0.0004034702015119086,0.0016788702013665884,-0.5416001940367775
9357,13.0,299.95204,24229.908,0.0,-0.046784751058510654,-0.04678412514371488,0.0,0.0,0.0,-1.790381211971868,-2.8407051198807673,-2.7342006793445974,0.0007147768052604784,-0.004238690031876136,-0.5499266577935356
9358,13.0,299.98999,24252.615,0.0,-0.04678973255719154,-0.04678912735390184,0.0,0.0,0.0,-1.8034573058373784,-2.8352065155630974,-2.7335254494779577,0.0007991157108490801,0.0018025789193256883,-0.5413650693510724
9359,13.0,299.83034,24244.192000000003,0.0,-0.04679474704593001,-0.046794129564089015,0.0,0.0,0.0,-1.802194694887768,-2.843312313713077,-2.7241218805998977,0.0020848147697551983,0.002441807705937658,-0.5509570824827306
9360,13.0,299.90636,24164.118,0.0,-0.04679976153466836,-0.04679913177427619,0.0,0.0,0.0,-1.7942232537010483,-2.8292828528284772,-2.7217824887690174,-0.004848862554645475,0.0033443349012601564,-0.5448700838319904
9361,13.0,299.765,24128.694,0.0,-0.04680474303334925,-0.04680413398446315,0.0,0.0,0.0,-1.7787948997283882,-2.837296141244327,-2.7184294415380976,0.0017324652548060084,-0.0007501862992176234,-0.5580220397324875
9362,13.0,299.85157000000004,24208.205,0.0,-0.046809757522087714,-0.046809136194650325,0.0,0.0,0.0,-1.794312825009888,-2.836368004152727,-2.7280088093085078,0.003211430229368487,0.002741063523596907,-0.5455640284279775
9363,13.0,300.07576,24264.39,0.0,-0.04681473902076849,-0.04681413840483728,0.0,0.0,0.0,-1.8037623954424882,-2.836338417249807,-2.735667764164387,0.003356313037317307,-0.004673112095650256,-0.5457621796175335
9364,13.0,300.06484,24202.79,0.0,-0.046819753509506956,-0.046819140615024346,0.0,0.0,0.0,-1.7941624586950484,-2.8382928753676975,-2.7245884822709474,-0.0018224694240887283,-0.0028809880935063872,-0.5483935495972295
9365,13.0,300.06484,24193.815,0.0,-0.046824735008187846,-0.046824109915934,0.0,0.0,0.0,-1.7917368392806585,-2.8330072562210473,-2.729571443612727,-0.0024505088898463976,-0.0036086895218749265,-0.5497699991955745
9366,13.0,300.31256,24306.417,0.0,-0.04682974949692609,-0.04682911212612095,0.0,0.0,0.0,-1.8021818266114984,-2.8463048465584175,-2.7400572649225974,-0.00017789707999457481,0.006520510309299264,-0.5393829191079494
9367,13.0,299.94079,24279.665,0.0,-0.04683476398566466,-0.04683411433630802,0.0,0.0,0.0,-1.7952336667007684,-2.8422345195817074,-2.742943811807477,-0.0037437206004264562,0.004596921463655826,-0.5450696535716865
9368,13.0,300.09752000000003,24256.054,0.0,-0.04683974548434555,-0.046839116546495196,0.0,0.0,0.0,-1.794842754812188,-2.8417891961627575,-2.7366025887066474,-0.0003946125211252236,6.402363726439103e-05,-0.5477528816915005
9369,13.0,300.15639,24227.031000000003,0.0,-0.046844759973083794,-0.04684411875668215,0.0,0.0,0.0,-1.7947929029072682,-2.843041269311327,-2.7265784041423373,0.002274446957770438,-0.009299569293096032,-0.5501465735952396
9370,13.0,300.15466000000004,24223.58,0.0,-0.046849741471764905,-0.04684912096686933,0.0,0.0,0.0,-1.8010840714531586,-2.8360232964687073,-2.726255987960518,0.0030817655259965772,-0.005725891209876464,-0.5452444696114395
9371,13.0,300.04817,24300.697999999997,0.0,-0.04685475596050337,-0.046854123177056284,0.0,0.0,0.0,-1.802050306748518,-2.8481867559691474,-2.7365683408532675,0.004125959169475465,-0.0015622647719085285,-0.5513389561804185
9372,13.0,299.83437999999995,24320.373,0.0,-0.04685973745918426,-0.04685912538724346,0.0,0.0,0.0,-1.8020319669217084,-2.8462557039285676,-2.7444983401108973,-0.004816559634832425,0.004927150715671916,-0.5478497180035575
9373,13.0,299.55649,24247.167999999998,0.0,-0.04686475194792261,-0.04686412759743064,0.0,0.0,0.0,-1.7860359902430283,-2.8416861486275873,-2.7428114813444178,-0.005441064884241295,0.003836981659505606,-0.5517973809231614
9374,13.0,299.7159,24218.552000000003,0.0,-0.0468697334466035,-0.04686912980761759,0.0,0.0,0.0,-1.7889633711069381,-2.8393345977955073,-2.7335370005290973,-0.003098612531434247,0.003093232882678317,-0.5444844408439306
9375,13.0,299.81262999999996,24278.863999999998,0.0,-0.046874747935341965,-0.04687413201780477,0.0,0.0,0.0,-1.7952697384043284,-2.8414753926067875,-2.7434234844048175,-0.003063536751397537,0.003014916147999057,-0.5439313177468414
9376,13.0,299.9381,24314.947,0.0,-0.04687976242408032,-0.046879134227991726,0.0,0.0,0.0,-1.8081509842756085,-2.841223194656897,-2.7417626661659074,-0.0030253647830302574,-0.005405422393423655,-0.5395988224392575
9377,13.0,300.01114,24269.113999999998,0.0,-0.04688474392276121,-0.0468841364381789,0.0,0.0,0.0,-1.7863265903717085,-2.8496524222387976,-2.7412256436129074,0.0010853004907608191,-0.0066257888185394425,-0.5482645831245015
9378,13.0,299.97242,24226.545,0.0,-0.04688975841149967,-0.04688913864836597,0.0,0.0,0.0,-1.7900110717103384,-2.8367018700606774,-2.7375519027253374,-0.0014103463605653487,0.0005438215928935125,-0.5415943070536965
9379,13.0,300.05228999999997,24327.638,0.0,-0.04689473991018034,-0.0468941079492754,0.0,0.0,0.0,-1.7968600344362784,-2.849178018541977,-2.7489564379008775,0.006354770558642024,0.0008260305314003662,-0.5486710382696154
9380,13.0,299.98717,24378.342999999997,0.0,-0.046899754398918914,-0.046899110159462576,0.0,0.0,0.0,-1.813322511460998,-2.852434300388347,-2.744650631600927,0.00015710435707749285,-0.00019381698185574683,-0.5503213491049884
9381,13.0,300.16218,24325.026,0.0,-0.0469047358975998,-0.04690411236964975,0.0,0.0,0.0,-1.8050903610235483,-2.8475886344351173,-2.7415216139671177,0.002012797208297618,-0.0038070423482008267,-0.5524930683093204
9382,13.0,300.05535,24292.855,0.0,-0.046909750386338045,-0.04690911457983682,0.0,0.0,0.0,-1.8056788566816284,-2.8475849867347574,-2.731157483994257,0.0004408877747822356,-0.0005372121422262104,-0.5512283295345005
9383,13.0,299.81617,24267.074,0.0,-0.046914731885019156,-0.046914116790023774,0.0,0.0,0.0,-1.796223308073438,-2.8415338571375575,-2.7388272806262073,0.0003950499209283916,0.006631577617685754,-0.5504964691197715
9384,13.0,299.54931,24326.936,0.0,-0.04691974637375762,-0.04691911900021073,0.0,0.0,0.0,-1.7999643287676483,-2.853089569228018,-2.7417272024124077,0.0003790573285050457,0.004561013703962005,-0.5474646424355535
9385,13.0,299.97664,24352.014,0.0,-0.04692476086249597,-0.04692412121039791,0.0,0.0,0.0,-1.7983037131787583,-2.8531093276049675,-2.750991044101677,-0.0059517304716650635,0.001092307925802399,-0.5458780447664685
9386,13.0,300.09852,24309.287,0.0,-0.04692974236117686,-0.046929123420585084,0.0,0.0,0.0,-1.7991968931419084,-2.8489664519210973,-2.7412530013656076,-0.0038657745796472466,0.0015356918827359885,-0.5424556405662034
9387,13.0,300.18892,24296.811,0.0,-0.04693475684991533,-0.04693412563077204,0.0,0.0,0.0,-1.8009238766123483,-2.852707168640277,-2.731992807376697,-0.000966093085708464,0.0009028559341849432,-0.5522089327162785
9388,13.0,300.08939,24363.873,0.0,-0.046939738348596216,-0.046939127840959216,0.0,0.0,0.0,-1.8143020203326683,-2.8480473327553875,-2.743659673003127,0.0020000990567194082,-5.666686905208455e-05,-0.5495070911921275
9389,13.0,299.96825,24394.898999999998,0.0,-0.04694475283733457,-0.04694413005114617,0.0,0.0,0.0,-1.8057323562869085,-2.8544934272415676,-2.755214371843487,0.0015547615535930184,-0.005856185952160555,-0.5518940551152025
9390,13.0,299.94178,24301.949,0.0,-0.04694973433601546,-0.04694913226133335,0.0,0.0,0.0,-1.7928455375400785,-2.8506126793585675,-2.743727560759827,-0.0007570712525871152,-0.005994216858958144,-0.5508510965222705
9391,13.0,299.87681000000003,24250.01,0.0,-0.04695474882475392,-0.046954134471520526,0.0,0.0,0.0,-1.7869604796342682,-2.842885836745987,-2.7415513021950475,-0.005244907568232075,0.0001091484254796109,-0.5497330459644274
9392,13.0,299.71828,24310.749,0.0,-0.046959763313492164,-0.04695913668170759,0.0,0.0,0.0,-1.8102127455790882,-2.8505307074254773,-2.7291171022678875,-0.0006115772724429773,0.00027758776824577975,-0.5522096926538534
9393,13.0,299.73528,24357.366,0.0,-0.046964744812173054,-0.04696410598261702,0.0,0.0,0.0,-1.8131933220732483,-2.853708766364127,-2.7371289721335974,-0.0037573042312670562,0.0006307397874066704,-0.5522325009136044
9394,13.0,299.93773,24349.112,0.0,-0.04696975930091163,-0.0469691081928042,0.0,0.0,0.0,-1.8096379287973583,-2.8554929984652175,-2.7363910220857677,0.0019235559150151882,0.00028669096926419574,-0.5488241808897296
9395,13.0,300.02732000000003,24336.263,0.0,-0.046974740799592296,-0.046974110402991265,0.0,0.0,0.0,-1.7970459658296283,-2.8562667162415774,-2.744303593441677,-0.001852014581104608,-0.0004311629245624676,-0.5528315749027285
9396,13.0,300.01782000000003,24326.213,0.0,-0.04697975528833076,-0.04697911261317844,0.0,0.0,0.0,-1.7946181172650184,-2.8505036536478077,-2.7494394542235474,0.0025726408893248873,8.050648568237152e-05,-0.5452491305618994
9397,13.0,299.89248,24370.476000000002,0.0,-0.04698473678701187,-0.0469841148233654,0.0,0.0,0.0,-1.7975204708514583,-2.856568766096387,-2.7539270375914375,-5.2552157667994154e-05,-0.007421482976318342,-0.5480264997485045
9398,13.0,299.99832999999995,24433.081000000002,0.0,-0.046989751275750224,-0.04698911703355235,0.0,0.0,0.0,-1.8177824331011585,-2.855381338304197,-2.7538826572370576,0.0017366635552703486,-0.003008286857894797,-0.5414303834525185
9399,13.0,300.06622999999996,24379.117000000002,0.0,-0.046994732774431114,-0.04699411924373953,0.0,0.0,0.0,-1.8091575469249481,-2.8559018448805675,-2.745583328317977,0.001081413562052209,0.002305392629074538,-0.5518709023504175
9400,13.0,300.14918,24311.237,0.0,-0.04699974726316958,-0.046999121453926485,0.0,0.0,0.0,-1.8028402365264784,-2.8526603564856576,-2.7345084033999676,0.0028410602640408173,0.0015568962689036985,-0.5562061030357685
9401,13.0,300.25129,24338.937,0.0,-0.04700476175190782,-0.04700412366411366,0.0,0.0,0.0,-1.8022698780451882,-2.8482488682002773,-2.747910459822647,-0.004269669140433536,-0.0016244374940694983,-0.5546066573554155
9402,13.0,300.30322,24401.388,0.0,-0.04700974325058882,-0.04700912587430073,0.0,0.0,0.0,-1.805267071840988,-2.8575567862688973,-2.754588689906737,-0.001035611212481869,-0.0050239199505722944,-0.5519810223712854
9403,13.0,300.0381,24375.995,0.0,-0.047014757739327284,-0.047014128084487794,0.0,0.0,0.0,-1.7988299952806983,-2.8574536374087174,-2.7534100773904173,0.0006941821220754413,0.0017555544888097382,-0.5493086157625394
9404,13.0,299.97951,24398.214,0.0,-0.047019739238008174,-0.04701913029467497,0.0,0.0,0.0,-1.8152567045768881,-2.8571699273807174,-2.7440210993137977,0.0005234411411771186,0.006097530169629374,-0.5475763025965735
9405,13.0,300.01795,24423.077,0.0,-0.047024753726746416,-0.04702413250486204,0.0,0.0,0.0,-1.8093430730182585,-2.8605130447606575,-2.7541494459883875,0.004108091618537076,0.008232085082818542,-0.5464510883605235
9406,13.0,300.04452000000003,24439.26,0.0,-0.047029735225427305,-0.047029134715049214,0.0,0.0,0.0,-1.8151698690433182,-2.8559879711390677,-2.7577669514954075,-0.0012162562774101489,0.0016759845664067981,-0.5520932904823654
9407,13.0,299.931,24457.011000000002,0.0,-0.04703474971416588,-0.04703413692523617,0.0,0.0,0.0,-1.8024958328174883,-2.8629995605060574,-2.7688252591117775,-0.0013172506639025187,0.004531123535287076,-0.5492575884875035
9408,13.0,299.94202,24409.301,0.0,-0.04703973121284655,-0.04703910622614571,0.0,0.0,0.0,-1.7970082729259083,-2.8616251880704175,-2.7611846440827073,-0.004547554398908676,0.0004777408360243495,-0.5527753699196815
9409,13.0,299.99197000000004,24352.757999999998,0.0,-0.04704474570158501,-0.04704410843633289,0.0,0.0,0.0,-1.7956546721173183,-2.852624284782097,-2.7543513867333176,-0.0008673413560599273,-0.0036845106215578865,-0.5483508613705165
9410,13.0,299.84426,24364.757999999998,0.0,-0.047049760190323475,-0.04704911064651984,0.0,0.0,0.0,-1.813881926841208,-2.8513538718067175,-2.741042346669818,-0.002930692671861847,-0.0008504006351205083,-0.5484460055549065
9411,13.0,299.95751,24440.874,0.0,-0.047054741689004476,-0.04705411285670702,0.0,0.0,0.0,-1.8166163848860784,-2.8637209945772577,-2.7490779265878675,0.0037203290125928865,0.004948056598360165,-0.5497492680985284
9412,13.0,299.8911,24411.602000000003,0.0,-0.04705975617774272,-0.0470591150668942,0.0,0.0,0.0,-1.8136692456452184,-2.860449412654377,-2.7463986906734474,0.008618308967160872,0.0034393808003904567,-0.5573782003539455
9413,13.0,299.94777,24397.824,0.0,-0.04706473767642383,-0.04706411727708115,0.0,0.0,0.0,-1.8020355132970585,-2.860614065795627,-2.7536797032420273,0.0017694784703589283,-0.0023461148466185078,-0.5525212873246055
9414,13.0,300.09934,24464.217,0.0,-0.04706975216516207,-0.04706911948726811,0.0,0.0,0.0,-1.8129907733782584,-2.8659699031742076,-2.757550419949037,-0.0012576355876439689,-0.006878861304590754,-0.5527478703119675
9415,13.0,300.17334,24475.188,0.0,-0.04707473366384296,-0.047074121697455173,0.0,0.0,0.0,-1.8122359020537584,-2.865242896227457,-2.7623673095994272,-0.002027326809431578,0.0041545308971202765,-0.5455470463563015
9416,13.0,300.04392,24417.222999999998,0.0,-0.047079748152581535,-0.04707912390764235,0.0,0.0,0.0,-1.8124806019529083,-2.8598948608746473,-2.7498505297891174,-0.003378490650206067,0.007892309393660292,-0.5496033600841285
9417,13.0,300.2062,24425.245,0.0,-0.04708476264131978,-0.04708412611782942,0.0,0.0,0.0,-1.8056669003304482,-2.8623620235431373,-2.7566356577587574,-0.005376506667369895,0.0007337336811163764,-0.5480750546932965
9418,13.0,300.10719,24416.757,0.0,-0.04708974414000067,-0.04708912832801648,0.0,0.0,0.0,-1.8105306021354586,-2.8631166922176177,-2.748437147224627,-0.003749863935782757,0.0014399260694096386,-0.5585228081969095
9419,13.0,300.02821,24440.037999999997,0.0,-0.04709475862873924,-0.04709413053820366,0.0,0.0,0.0,-1.7976857319427682,-2.8676123815863073,-2.7638632720470677,-0.0034738194487642865,0.0037661622662912763,-0.5554219893133825
9420,13.0,299.80464,24478.487,0.0,-0.04709974012742013,-0.047099132748390615,0.0,0.0,0.0,-1.809949300553088,-2.873890681855927,-2.757008837770587,0.0015271258663905884,-0.0038437811756266665,-0.5571160218905705
9421,13.0,299.87077999999997,24443.4,0.0,-0.04710475461615837,-0.04710413495857779,0.0,0.0,0.0,-1.8074982485611881,-2.865950854072327,-2.7567339430184576,5.4144621041908054e-05,-0.008179714136824931,-0.5488941458091344
9422,13.0,300.10663999999997,24433.417,0.0,-0.04710973611483926,-0.04710910425948733,0.0,0.0,0.0,-1.8179161821143583,-2.864358024915127,-2.7448744585480176,0.00045122689774262757,-0.009726888980294201,-0.5513435563358725
9423,13.0,300.00456,24447.834,0.0,-0.047114750603577726,-0.04711410646967429,0.0,0.0,0.0,-1.8146119735382584,-2.8629964194307473,-2.753922579290997,0.0017083753350035182,-0.0009298668007132082,-0.5491835401701954
9424,13.0,300.1259,24499.69,0.0,-0.047119732102258616,-0.047119108679861466,0.0,0.0,0.0,-1.820702721214368,-2.867319754957427,-2.759271627893907,-0.001102343458767829,0.0035919226645201668,-0.5553948544757045
9425,13.0,300.22932000000003,24506.307999999997,0.0,-0.04712474659099697,-0.04712411089004864,0.0,0.0,0.0,-1.8118809605437283,-2.8685527790041174,-2.768871969941387,0.00018699974399043784,-0.0041688229924307955,-0.5475072901322625
9426,13.0,299.96859,24469.126,0.0,-0.04712976107973543,-0.0471291131002356,0.0,0.0,0.0,-1.811766361957418,-2.8655393732067176,-2.7606973721096177,-0.003324954162622427,-0.0015149809493669787,-0.5563430235217816
9427,13.0,299.78185,24449.787,0.0,-0.04713474257841632,-0.047134115310422775,0.0,0.0,0.0,-1.807488622685238,-2.8660594744830474,-2.7585765383253076,-0.0014234975362632685,-0.0008732098574591033,-0.5496453289032706
9428,13.0,299.95945,24436.802000000003,0.0,-0.047139757067154675,-0.04713911752060973,0.0,0.0,0.0,-1.8126069542403784,-2.8673660604869973,-2.7482045050016675,0.0005263039577446565,-0.0017291645926052585,-0.5595143139497635
9429,13.0,299.95893,24467.874,0.0,-0.047144738565835786,-0.047144119730796796,0.0,0.0,0.0,-1.8083415766194182,-2.869620237984467,-2.7596608172573176,-0.006838013748009414,0.0005800252013515305,-0.5531416699633325
9430,13.0,300.08476,24491.675,0.0,-0.04714975305457403,-0.04714912194098397,0.0,0.0,0.0,-1.8155417318300182,-2.8692129114442677,-2.7601029996009574,-0.002480968302427508,-0.0025425239552775776,-0.5581168900743485
9431,13.0,300.05125,24475.341,0.0,-0.04715473455325492,-0.04715412415117093,0.0,0.0,0.0,-1.8060914521223483,-2.870769162272857,-2.7630319003400174,0.003586906367250096,-0.0008497714068084082,-0.5526424112415594
9432,13.0,300.0405,24491.417,0.0,-0.04715974904199338,-0.047159126361358106,0.0,0.0,0.0,-1.8187656909981982,-2.868970035395297,-2.7570434909240076,0.005222470461992705,-0.0019445705194391682,-0.5534799941717224
9433,13.0,300.11188,24553.264,0.0,-0.04716473054067438,-0.04716412857154506,0.0,0.0,0.0,-1.8216729081851182,-2.872220339066077,-2.7696858124217076,0.006866311999452234,-0.01033882607811269,-0.5448341033209395
9434,13.0,300.06619,24518.307999999997,0.0,-0.047169745029412624,-0.04716913078173224,0.0,0.0,0.0,-1.8205382707231381,-2.872381243181957,-2.7600339972691477,0.0031557961114278272,-0.005810624046838944,-0.5506762399525135
9435,13.0,300.03907000000004,24508.607999999997,0.0,-0.04717475951815109,-0.047174132991919415,0.0,0.0,0.0,-1.8086189031717883,-2.867364439286837,-2.774021610924618,0.0038897324729617066,0.006418659523822374,-0.5514655415154115
9436,13.0,299.79286,24514.967999999997,0.0,-0.04717974101683198,-0.047179102292828734,0.0,0.0,0.0,-1.8075949126207282,-2.874538249994837,-2.7698049706334675,-0.00036903351884327266,0.007475646057763822,-0.5588863015377835
9437,13.0,299.95467,24492.779,0.0,-0.04718475550557033,-0.04718410450301591,0.0,0.0,0.0,-1.8055268691666284,-2.8696102068084772,-2.7700561553332577,-0.006634287453753193,0.008199184852071544,-0.5551255731291285
9438,13.0,299.91946,24505.83,0.0,-0.04718973700425122,-0.04718910671320309,0.0,0.0,0.0,-1.8170693076807785,-2.8651143147897677,-2.7669768882793577,-0.008495387240554443,0.004399533758050175,-0.5592605251972165
9439,13.0,300.03877,24526.431,0.0,-0.047194751492989684,-0.047194108923390043,0.0,0.0,0.0,-1.8187195881186484,-2.8725003000687073,-2.7642027108305673,-0.006813461887486333,0.0024891082471058578,-0.5582119329337285
9440,13.0,300.01981,24541.192000000003,0.0,-0.04719973299167057,-0.04719911113357722,0.0,0.0,0.0,-1.8237052852356983,-2.870886496634437,-2.7653176912406074,-0.007276029505913203,-0.005745935424679676,-0.5472667141610195
9441,13.0,300.15292,24523.625,0.0,-0.047204747480408926,-0.047204113343764176,0.0,0.0,0.0,-1.813973727300268,-2.870901695385937,-2.7696940197475173,0.001084040007636419,-0.008601060005408532,-0.5502807279084796
9442,13.0,300.16867,24557.691000000003,0.0,-0.04720976196914739,-0.04720911555395135,0.0,0.0,0.0,-1.8168268369318483,-2.8790925052193073,-2.7690054149795578,0.0019849627214255684,-0.0027381032121047474,-0.5465356744788715
9443,13.0,300.17514,24576.397999999997,0.0,-0.04721474346782828,-0.04721411776413853,0.0,0.0,0.0,-1.8194325108890084,-2.872221858941227,-2.778956746861677,0.008007384410167313,0.005271189958600945,-0.5497993733159734
9444,13.0,300.03605,24551.412,0.0,-0.047219757956566744,-0.047219119974325596,0.0,0.0,0.0,-1.8236118635764784,-2.8748048360961476,-2.764599600894737,0.005068634170860245,0.00015104655016213382,-0.5530259669344134
9445,13.0,299.88318,24534.26,0.0,-0.04722473945524763,-0.04722412218451255,0.0,0.0,0.0,-1.813505099129018,-2.8779306113296372,-2.7663669117191576,0.003529401688299827,-0.005423408291973725,-0.5605643551608944
9446,13.0,299.87125,24504.463,0.0,-0.047229753943985986,-0.047229124394699507,0.0,0.0,0.0,-1.8165456600290983,-2.872564337475027,-2.7596348780547575,0.0004862220332038785,-0.0016273074236527385,-0.5583455096944114
9447,13.0,299.80865,24525.871,0.0,-0.047234735442666875,-0.047234126604886684,0.0,0.0,0.0,-1.8064050530282985,-2.879879800547007,-2.7689674181008077,0.001031355866036899,0.006506982305889155,-0.5598298704284065
9448,13.0,300.10691,24550.971,0.0,-0.04723974993140534,-0.04723912881507386,0.0,0.0,0.0,-1.8159364940689784,-2.8767747969405675,-2.770170855244577,-0.005377066184075115,0.007689364213906163,-0.5564028762051885
9449,13.0,299.90114,24547.868,0.0,-0.04724473143008623,-0.047244131025260816,0.0,0.0,0.0,-1.818314896028708,-2.8781466362509573,-2.7654772781313577,-0.007145208076227133,0.002273226092724948,-0.5551694975209636
9450,13.0,300.05321000000004,24541.437,0.0,-0.04724974591882458,-0.04724913323544799,0.0,0.0,0.0,-1.8235033444907685,-2.877011897463967,-2.7594687050383575,-0.008190367549701342,0.0035956570990887267,-0.5531986652814574
9451,13.0,300.00388,24566.977000000003,0.0,-0.047254760407563046,-0.047254102536357534,0.0,0.0,0.0,-1.8245566179697181,-2.877576581744697,-2.765614370869887,-0.0014960356042972188,0.003206133261820717,-0.5519254962658054
9452,13.0,300.01296,24614.193,0.0,-0.047259741906243935,-0.04725910474654449,0.0,0.0,0.0,-1.8330357987815482,-2.882162450372287,-2.7669018064469473,0.002211528382210858,-0.006935192437275203,-0.5543357142786755
9453,13.0,300.04239,24608.35,0.0,-0.04726475639498229,-0.047264106956731666,0.0,0.0,0.0,-1.8219750593649382,-2.883878997366697,-2.7744698727688575,0.0038530345808399065,-0.009705806285463501,-0.5506204402695065
9454,13.0,300.13828,24561.237,0.0,-0.04726973789366318,-0.04726910916691862,0.0,0.0,0.0,-1.8119007189206782,-2.881269067759117,-2.7728327645822874,0.00906081119385744,-0.004775748656579696,-0.5558423766473715
9455,13.0,300.16294,24550.807,0.0,-0.04727475238240164,-0.0472741113771058,0.0,0.0,0.0,-1.8136321606915586,-2.878923697752647,-2.7702764359049974,0.00960438795512929,0.007268614035056353,-0.5556772270135725
9456,13.0,300.10702000000003,24600.797000000002,0.0,-0.04727973388108253,-0.047279113587292976,0.0,0.0,0.0,-1.8282486986840982,-2.8770726924699677,-2.772706513619827,0.0003900239977823716,0.006178987675643604,-0.5548404445509885
9457,13.0,300.05085,24584.601000000002,0.0,-0.047284748369820995,-0.04728411579748004,0.0,0.0,0.0,-1.8210633369249583,-2.8832327464529173,-2.7688086418101374,-0.0034792720515274167,0.0008141076174736663,-0.5600040278555944
9458,13.0,300.05683999999997,24557.845,0.0,-0.047289729868501884,-0.04728911800766722,0.0,0.0,0.0,-1.8227526274916783,-2.8733892243814374,-2.7688297174122174,-0.0005310712893326554,0.003996788222877286,-0.5565104631008065
9459,13.0,300.05056,24563.998,0.0,-0.04729474435724024,-0.047294120217854174,0.0,0.0,0.0,-1.8124195029718784,-2.8743014534464675,-2.7801210725515872,0.0016296949448633684,0.0023615464429914876,-0.5532569170297065
9460,13.0,299.92667,24643.561,0.0,-0.0472997588459787,-0.04729912242804113,0.0,0.0,0.0,-1.8254300395559184,-2.886500376700407,-2.779096676700487,-0.004418884403159936,-0.002037231126509058,-0.5504488970275765
9461,13.0,299.81568,24684.686,0.0,-0.04730474034465959,-0.047304124638228306,0.0,0.0,0.0,-1.8315593920608382,-2.8839094961947076,-2.7880591778100174,-0.005902342837940885,-0.007560975293735164,-0.5518389748397665
9462,13.0,299.84006,24640.667,0.0,-0.04730975483339794,-0.04730912684841526,0.0,0.0,0.0,-1.8321085736150384,-2.8842120526745676,-2.7738269655804073,-0.0007422835462551823,0.0023822009383299278,-0.5502426702347234
9463,13.0,299.98046,24589.509,0.0,-0.04731473633207883,-0.04731412905860244,0.0,0.0,0.0,-1.8193565171315085,-2.8860565731566075,-2.7691837469971574,0.004053043260479226,0.006683680052402864,-0.5632894811723435
9464,13.0,300.15443,24593.56,0.0,-0.0473197508208173,-0.047319131268789505,0.0,0.0,0.0,-1.8255159631643982,-2.875655763530127,-2.7746565134372774,0.004131042949202197,0.0008737365853910872,-0.5569650476256705
9465,13.0,300.05777,24633.002,0.0,-0.047324732319498186,-0.047324100569698935,0.0,0.0,0.0,-1.8148629555880282,-2.892642090856547,-2.7803125768204873,0.0033599333799246064,-0.003908208987210197,-0.5665804567021375
9466,13.0,300.06995,24573.729,0.0,-0.04732974680823654,-0.04732910277988611,0.0,0.0,0.0,-1.8126946003740285,-2.8746427160801473,-2.782462794857697,0.005136905544048105,-5.580031122206195e-05,-0.5569261084243274
9467,13.0,300.31335,24539.593999999997,0.0,-0.047334761296975,-0.04733410499007318,0.0,0.0,0.0,-1.8102864088613586,-2.8767786472909473,-2.772358766185507,0.005462236441105764,0.0010876066479884189,-0.5614700690277814
9468,13.0,300.07687000000004,24639.701,0.0,-0.04733974279565589,-0.047339107200260355,0.0,0.0,0.0,-1.826167381653688,-2.8869079058906273,-2.7767783604716874,-0.0014272211290557587,-0.0036722486741477263,-0.5518075134241615
9469,13.0,299.67096000000004,24693.061,0.0,-0.047344757284394134,-0.04734410941044742,0.0,0.0,0.0,-1.837131760985788,-2.883358896090367,-2.785583402515677,-0.004929046303958995,-0.001156671497329589,-0.5547488974044534
9470,13.0,299.76516000000004,24697.689,0.0,-0.047349738783075246,-0.04734911162063449,0.0,0.0,0.0,-1.8335739359096583,-2.8917656295200476,-2.7821412906009675,-0.0024721572822079276,0.005127940205838295,-0.5498664707375955
9471,13.0,299.94194,24675.132999999998,0.0,-0.0473547532718136,-0.047354113830821665,0.0,0.0,0.0,-1.824737483112568,-2.891252215694377,-2.784634595122037,-0.0012415878338851787,-0.0003905772728669756,-0.5557566252914085
9472,13.0,299.87089,24655.891,0.0,-0.04735973477049449,-0.04735911604100862,0.0,0.0,0.0,-1.8324067731194682,-2.8825091845565076,-2.7798592487257476,-0.004646290250928146,-0.01121183932452239,-0.5464935435397135
9473,13.0,300.06637,24634.367000000002,0.0,-0.04736474925923295,-0.0473641182511958,0.0,0.0,0.0,-1.8244883249129782,-2.894135520178937,-2.7696086027640874,-0.003916616835214986,-0.01153377623904509,-0.5644362675030224
9474,13.0,299.95462000000003,24631.293999999998,0.0,-0.04736973075791384,-0.047369120461382974,0.0,0.0,0.0,-1.8276150120715586,-2.883748085453777,-2.775935235063477,0.0016699885576150384,-0.0016020733418373283,-0.5533292732193474
9475,13.0,300.03126000000003,24636.459,0.0,-0.047374745246652195,-0.04737412267156993,0.0,0.0,0.0,-1.8271183168725385,-2.8908036498751075,-2.770946599521137,0.003906341769925916,0.005477699650881865,-0.5661531590024664
9476,13.0,300.00685,24620.938,0.0,-0.04737975973539066,-0.047379124881756884,0.0,0.0,0.0,-1.8162171643466785,-2.8902429172697675,-2.7776904882117077,0.0017993578985827981,0.0022275246628645677,-0.5589921861732335
9477,13.0,300.07611,24622.637000000002,0.0,-0.04738474123407155,-0.04738412709194395,0.0,0.0,0.0,-1.8133749978161784,-2.8861521226410374,-2.785139598971877,0.007374574360288822,0.0003239648535378417,-0.5654327685788695
9478,13.0,299.94111000000004,24699.187,0.0,-0.0473897557228099,-0.04738912930213113,0.0,0.0,0.0,-1.8311822603736183,-2.8938794718786673,-2.7828743770483175,0.002261382313631058,0.0014129157601689287,-0.5513771658416895
9479,13.0,299.94107,24702.572,0.0,-0.04739473722149079,-0.04739409860304056,0.0,0.0,0.0,-1.830109937792788,-2.892701163337377,-2.786153862321977,0.003303083260538937,-0.001066205286001269,-0.5580323039560005
9480,13.0,299.86647999999997,24667.619,0.0,-0.047399751710229254,-0.047399100813227735,0.0,0.0,0.0,-1.8309446532251683,-2.892508443168357,-2.7748871291600374,-0.004908000288781915,-0.005853697511239964,-0.5497971340332525
9481,13.0,299.75316000000004,24669.759,0.0,-0.047404733208910144,-0.0474041030234148,0.0,0.0,0.0,-1.8277682154866783,-2.8931453721812175,-2.7780771444498673,-0.004827710857482965,-0.0024318885954087177,-0.5614317580415005
9482,13.0,299.85821,24656.142000000003,0.0,-0.047409747697648386,-0.04740910523360198,0.0,0.0,0.0,-1.8206470937838781,-2.8882498543230675,-2.7859546573523177,-0.004022220293762236,0.006936564783210644,-0.5555033634289135
9483,13.0,299.81514,24655.523999999998,0.0,-0.0474147291963295,-0.04741410744378893,0.0,0.0,0.0,-1.8214006478832483,-2.895550219968557,-2.777712982363927,-0.007069944365424183,0.005982585254435194,-0.5616909980795854
9484,13.0,299.79974,24693.547000000002,0.0,-0.04741974368506785,-0.04741910965397611,0.0,0.0,0.0,-1.8336988696469882,-2.8879598621444473,-2.7845628570149574,-0.007200654844224303,-0.0076928469571498825,-0.5573100491522195
9485,13.0,299.99776,24688.885,0.0,-0.04742475817380609,-0.047424111864163065,0.0,0.0,0.0,-1.8245459788436682,-2.8935030494665175,-2.7867556315563675,0.002650740889807758,-0.009594209756549782,-0.5598298805609074
9486,13.0,300.1102,24651.805,0.0,-0.0474297396724872,-0.04742911407435024,0.0,0.0,0.0,-1.8280166644111981,-2.890607079355707,-2.7749095219872473,0.011266851712201688,0.005785789388212954,-0.5549270875670396
9487,13.0,300.00165,24716.459,0.0,-0.047434754161225556,-0.04743411628453742,0.0,0.0,0.0,-1.8354122755660882,-2.8862951935551573,-2.791478998222527,0.005330384738718015,0.006260781175390993,-0.5529944345913015
9488,13.0,300.09232000000003,24800.933999999997,0.0,-0.047439735659906446,-0.047439118494724375,0.0,0.0,0.0,-1.8418172320982082,-2.899306844714307,-2.7977404785404874,-0.0040631507342017556,0.0009340689008654232,-0.5513087410624364
9489,13.0,300.07148,24714.806,0.0,-0.04744475014864491,-0.04744412070491155,0.0,0.0,0.0,-1.827755955160468,-2.8925398539214573,-2.792388086212247,-0.008018974471436163,0.003749444652891376,-0.5613471111281465
9490,13.0,300.00318,24683.778,0.0,-0.0474497316473258,-0.04744912291509851,0.0,0.0,0.0,-1.8308288387387381,-2.886356900486247,-2.7860663175133373,0.0062632337472580445,0.008173364909048311,-0.5556516424485475
9491,13.0,299.98541,24743.827,0.0,-0.04745474613606404,-0.047454125125285684,0.0,0.0,0.0,-1.8341618236176782,-2.8963928387517175,-2.7909509935954175,-0.002421776460735728,0.0003541094797103847,-0.5624885069682934
9492,13.0,299.68435,24704.563,0.0,-0.047459760624802616,-0.04745912733547275,0.0,0.0,0.0,-1.8386028988059784,-2.890413345936587,-2.7805539329943074,-0.002584567146976918,-0.013368114570830187,-0.5585283810724595
9493,13.0,300.02827,24667.212000000003,0.0,-0.047464742123483505,-0.04746409663638218,0.0,0.0,0.0,-1.819680047888438,-2.899145737948407,-2.7793908232045172,-0.003856584097265216,-0.01042689169730409,-0.5699599193631645
9494,13.0,300.2172,24678.467,0.0,-0.04746975661222175,-0.04746909884656936,0.0,0.0,0.0,-1.8182303909703683,-2.8988030567645873,-2.784604298944047,0.003224940196926817,0.0035841119247993066,-0.5621308904779995
9495,13.0,300.13832,24683.767999999996,0.0,-0.04747473811090264,-0.047474101056756424,0.0,0.0,0.0,-1.8191559949367182,-2.8956317866016072,-2.7884612354496974,0.0059969887059317046,0.0013954836027985087,-0.5644203088139474
9496,13.0,300.22778,24766.713,0.0,-0.04747975259964121,-0.04747910326694338,0.0,0.0,0.0,-1.8330515041580984,-2.9024651452760075,-2.7929456777422774,0.0037769232863283067,-0.003895677920573476,-0.5574836695568545
9497,13.0,300.21485,24793.045,0.0,-0.0474847340983221,-0.047484105477130556,0.0,0.0,0.0,-1.8356353932381084,-2.902222674527077,-2.7986085299011574,0.0012579453381995388,0.0004275884821846975,-0.5584630771035144
9498,13.0,299.94692000000003,24716.667999999998,0.0,-0.04748974858706034,-0.04748910768731751,0.0,0.0,0.0,-1.8336949179715982,-2.8943414125992573,-2.785213566229177,0.005631932933403505,0.0024062045292238977,-0.5496558667043104
9499,13.0,300.25227,24718.087000000003,0.0,-0.047494730085741454,-0.04749410989750469,0.0,0.0,0.0,-1.8278497821197284,-2.896448263532187,-2.7893832930406974,-0.0007154406056659903,0.0013283546690983988,-0.5555496588259824
9500,13.0,299.9673,24817.673,0.0,-0.04749974457447981,-0.047499112107691865,0.0,0.0,0.0,-1.8459158287527082,-2.8976214044979676,-2.8004155601294975,-0.002667756804037097,-0.0036889004262911267,-0.5556767102560215
9501,13.0,299.85345,24814.945,0.0,-0.04750475906321805,-0.04750411431787882,0.0,0.0,0.0,-1.8459257586036881,-2.9051467116656573,-2.7920511805539974,0.0018547128661209084,0.0024420339646849874,-0.5617627361866654
9502,13.0,299.93605,24739.879,0.0,-0.04750974056189916,-0.047509116528066,0.0,0.0,0.0,-1.8396034832797283,-2.8982351300835374,-2.7824668478580974,0.0020446736511435777,0.009659235081717281,-0.5598060185210525
9503,13.0,300.09402,24752.1,0.0,-0.047514755050637625,-0.04751411873825295,0.0,0.0,0.0,-1.8370393525766684,-2.899634327146627,-2.7873466603396975,-0.0009204682778206462,-0.0029240892196351377,-0.5613160043500764
9504,13.0,300.00471,24814.886000000002,0.0,-0.04751973654931829,-0.04751912094844013,0.0,0.0,0.0,-1.8486614325486785,-2.9064992992241474,-2.7879449845237474,-0.0012152610631619286,-0.009573516555057521,-0.5562532495629214
9505,13.0,300.19268999999997,24788.211,0.0,-0.04752475103805687,-0.04752412315862731,0.0,0.0,0.0,-1.832740335052388,-2.900256158732997,-2.802000688585937,-0.007055176650516723,0.0008252335696667123,-0.5613910861824865
9506,13.0,300.01218,24758.785,0.0,-0.04752973253673776,-0.04752912536881437,0.0,0.0,0.0,-1.8288471241931585,-2.9062106242706576,-2.7909944620247074,0.003455228437254497,0.004428110653270496,-0.5550970704038154
9507,13.0,299.96299,24744.129,0.0,-0.047534747025476,-0.04753412757900133,0.0,0.0,0.0,-1.8275878569688782,-2.899694818177597,-2.7943146799523872,-0.0013563672853380286,-0.00046118130990505156,-0.5588167013884145
9508,13.0,300.15079,24768.507999999998,0.0,-0.04753972852415689,-0.04753909687991098,0.0,0.0,0.0,-1.8358507088843583,-2.9032631810547675,-2.789894072416107,0.004507976242052616,-0.004610507222321636,-0.5602981743596245
9509,13.0,300.12971,24769.6,0.0,-0.04754474301289546,-0.047544099090098046,0.0,0.0,0.0,-1.834881433838698,-2.908608885932347,-2.7858494819919373,0.006078102112211974,0.002793445514016607,-0.5674161245896114
9510,13.0,299.97055,24764.134,0.0,-0.047549757501633705,-0.047549101300285,0.0,0.0,0.0,-1.8377862192253782,-2.8968170865685874,-2.7930750697800475,0.008730842752417091,0.007161125424698054,-0.5556385512572555
9511,13.0,299.9264,24748.037999999997,0.0,-0.047554739000314594,-0.04755410351047196,0.0,0.0,0.0,-1.8222344513905382,-2.906733258672237,-2.7938178834283574,-0.0007524380246498512,0.0007657549477991293,-0.5664932462660305
9512,13.0,299.91809,24742.877999999997,0.0,-0.04755975348905306,-0.047559105720659134,0.0,0.0,0.0,-1.8316956741992882,-2.900850835216687,-2.7886704715953474,-0.0020969673874795683,-0.0026396728549904274,-0.5668297668892425
9513,13.0,299.81562,24819.107999999997,0.0,-0.04756473498773395,-0.04756410793084631,0.0,0.0,0.0,-1.839062610376348,-2.907718340419457,-2.797608148077427,0.0005537215529955624,0.0036868515332639166,-0.5658047529555815
9514,13.0,300.1231,24815.792999999998,0.0,-0.0475697494764723,-0.047569110141033266,0.0,0.0,0.0,-1.8438261017464683,-2.907861816633617,-2.791693401943687,-0.0038981517706926268,0.001969693346393598,-0.5629496269563025
9515,13.0,299.98197999999996,24777.967,0.0,-0.04757473097515341,-0.04757411235122044,0.0,0.0,0.0,-1.839670256461318,-2.8997603754590675,-2.7924524275935974,-0.0065945808167844535,-0.002299669893834748,-0.5541056963734745
9516,13.0,299.97966,24829.725,0.0,-0.047579745463891876,-0.0475791145614074,0.0,0.0,0.0,-1.8417106381876882,-2.906663648390367,-2.799242115188687,-0.004098368470577476,-0.009694406208588401,-0.5585386148984695
9517,13.0,300.06109,24851.846,0.0,-0.04758475995263023,-0.047584116771594576,0.0,0.0,0.0,-1.8367771234507881,-2.9078562437580673,-2.809707367521527,0.004492374318337826,0.005435962562037735,-0.5539225615504005
9518,13.0,300.09857999999997,24828.534,0.0,-0.04758974145131112,-0.04758911898178175,0.0,0.0,0.0,-1.8426563045060182,-2.8996345297966473,-2.804963533203347,0.005051347820179215,0.005191618212347825,-0.5561619253314085
9519,13.0,300.08222,24842.599,0.0,-0.04759475594004958,-0.04759412119196882,0.0,0.0,0.0,-1.8375416206512383,-2.9091631337370476,-2.804825021914677,0.001794893619967208,-0.0029657921619508977,-0.5581121277988784
9520,13.0,300.16115,24818.134,0.0,-0.04759973743873025,-0.047599123402155996,0.0,0.0,0.0,-1.8427291571882083,-2.9070883015072773,-2.7942756698235374,-0.007541941593256682,-0.004845617013250165,-0.5672757185232544
9521,13.0,299.9693,24794.757,0.0,-0.047604751927468714,-0.04760412561234295,0.0,0.0,0.0,-1.8371218311348083,-2.9045320741549974,-2.7953330976278976,0.002327446625451098,0.006713729503993514,-0.5626422575384675
9522,13.0,300.10476,24840.575,0.0,-0.0476097334261496,-0.04760909491325249,0.0,0.0,0.0,-1.8433768266521282,-2.911280319820997,-2.796257384369117,-0.0008713805661260662,0.007739051060384873,-0.5665521059643395
9523,13.0,299.97481,24874.857999999997,0.0,-0.047614747914887956,-0.04761409712343967,0.0,0.0,0.0,-1.836522595025668,-2.909034653624367,-2.8157785594707074,-0.007119901952329613,0.0027632255324341274,-0.5558302987061795
9524,13.0,299.84955,24838.506,0.0,-0.047619729413568845,-0.047619099333626624,0.0,0.0,0.0,-1.8373404905063881,-2.915481761360647,-2.7974634559631473,-0.005540861811765485,-0.005348037885935245,-0.5642501841221574
9525,13.0,299.94942000000003,24821.911,0.0,-0.04762474390230731,-0.0476241015438138,0.0,0.0,0.0,-1.8288280750912784,-2.913982151212647,-2.802430914578397,-0.00019102120191482483,0.0010527117330945588,-0.5646319970248395
9526,13.0,299.97514,24857.928,0.0,-0.04762975839104566,-0.04762910375400076,0.0,0.0,0.0,-1.8463192036175182,-2.910939361162347,-2.7989307434329573,0.004034849037708596,0.0024524582817137875,-0.5566004599746884
9527,13.0,299.89544,24870.708,0.0,-0.04763473988972655,-0.04763410596418771,0.0,0.0,0.0,-1.8421221190532984,-2.917281698838287,-2.8006701898796273,0.0024320142384211176,-0.007222725457902503,-0.5606664907709744
9528,13.0,300.20146,24825.426,0.0,-0.047639754378465016,-0.04763910817437489,0.0,0.0,0.0,-1.8350813480834283,-2.9123981373313175,-2.7988300263730177,0.0032425350822632964,-0.006063523672423194,-0.5628754266514795
9529,13.0,300.24922000000004,24808.892999999996,0.0,-0.04764473587714613,-0.047644110384561955,0.0,0.0,0.0,-1.8288594858443785,-2.9106979036635177,-2.8017264017838674,0.0032559172789840174,0.003782836816561926,-0.5640076829757245
9530,13.0,300.01854,24840.728,0.0,-0.04764975036588437,-0.04764911259474913,0.0,0.0,0.0,-1.8436285179769683,-2.909453632540717,-2.7978788885041475,0.006191675086770754,0.0001040844953223399,-0.5625340322952864
9531,13.0,300.17176,24896.183999999997,0.0,-0.04765473186456537,-0.0476541148049362,0.0,0.0,0.0,-1.847667839500618,-2.9122287219145973,-2.8079217168702972,-0.002786540417235127,-0.002975201911654567,-0.5633898942572535
9532,13.0,300.18806,24918.049,0.0,-0.04765974635330383,-0.047659117015123265,0.0,0.0,0.0,-1.8594028968587784,-2.9187441227076176,-2.7963178754000872,-0.003968016175687706,0.0014265425554637887,-0.5663159578960335
9533,13.0,300.04811,24888.36,0.0,-0.0476647278519845,-0.04766411922531044,0.0,0.0,0.0,-1.8499006374209783,-2.9089050589365772,-2.8066342812932374,-0.002003264855331848,0.007230082160253553,-0.5608317923922884
9534,13.0,300.00686,24853.736,0.0,-0.047669742340722965,-0.0476691214354974,0.0,0.0,0.0,-1.8449177774042085,-2.909525269322787,-2.800472099485077,-0.001040714851910559,0.00854939894243498,-0.5579508183829585
9535,13.0,299.93156,24874.496,0.0,-0.04767475682946154,-0.047674123645684574,0.0,0.0,0.0,-1.8433027580698182,-2.911435853711347,-2.806487157378718,-0.0046611425722189554,-0.002147451763111988,-0.5557999113356805
9536,13.0,299.85669,24912.458,0.0,-0.04767973832814221,-0.047679092946594115,0.0,0.0,0.0,-1.8493104192377283,-2.914372049851127,-2.8090828001598873,-0.0013743356546613687,-0.011092244401969289,-0.5596674869673804
9537,13.0,299.9146,24864.392999999996,0.0,-0.04768475281688067,-0.04768409515678107,0.0,0.0,0.0,-1.8357896099033282,-2.9180926028933176,-2.8042724966351473,0.002377391850705308,-0.0018284438506533582,-0.5647131178278455
9538,13.0,299.90551,24839.214,0.0,-0.04768973431556156,-0.04768909736696825,0.0,0.0,0.0,-1.8388804280083682,-2.914701356133627,-2.7969190366844177,0.005313179144069954,0.0004304522005448245,-0.5679999086347265
9539,13.0,300.05823,24908.561,0.0,-0.047694748804299913,-0.047694099577155424,0.0,0.0,0.0,-1.8461592114267282,-2.9162927667406873,-2.8091287003894174,0.009791817236102122,-0.001009540530588893,-0.5640331459507375
9540,13.0,300.02438,24933.083,0.0,-0.0476997303029808,-0.04769910178734238,0.0,0.0,0.0,-1.8462048076812283,-2.924692711394697,-2.8081369311915374,0.004200127151620277,0.003552171140571997,-0.5714930984869775
9541,13.0,300.09066,24899.119,0.0,-0.04770474479171927,-0.047704103997529335,0.0,0.0,0.0,-1.8394071154103482,-2.919569718889097,-2.809733408049097,0.005678632718587415,0.005344473880033505,-0.5678225999997274
9542,13.0,300.07017,24896.047000000002,0.0,-0.04770975928045762,-0.0477091062077164,0.0,0.0,0.0,-1.8378411373807984,-2.920338674389987,-2.8095968219356173,5.070705659364685e-05,-0.0001276286887534709,-0.5709147859924025
9543,13.0,299.87887,24895.815,0.0,-0.04771474077913862,-0.04771410841790358,0.0,0.0,0.0,-1.8365656581549181,-2.918120365946057,-2.8130200873984674,-0.003696462514437447,0.001137768404788999,-0.5671736335756795
9544,13.0,299.82518,24890.671000000002,0.0,-0.04771975526787697,-0.047719110628090755,0.0,0.0,0.0,-1.8442642310897084,-2.916274426913877,-2.805603704616527,0.0005331250966228504,-0.0018411839507857081,-0.5687609607848364
9545,13.0,299.90634,24905.892999999996,0.0,-0.047724736766558085,-0.04772411283827771,0.0,0.0,0.0,-1.8350092046763085,-2.920976920627977,-2.8147834465474975,-0.0010057359385834091,0.006120046714676584,-0.5606544533597865
9546,13.0,299.85857000000004,24914.119,0.0,-0.04772975125529633,-0.04772911504846489,0.0,0.0,0.0,-1.8449297337553883,-2.915924652979357,-2.8124155823888075,-0.005810992261925285,0.0032994317098285564,-0.5586510755270685
9547,13.0,299.79332999999997,24898.173,0.0,-0.047734732753977216,-0.04773411725865184,0.0,0.0,0.0,-1.8435647845456782,-2.9101289637323675,-2.8147291363421374,0.0001897644880807968,-0.0030066298900062673,-0.5561095200362365
9548,13.0,300.18507,24956.661,0.0,-0.04773974724271579,-0.04773911946883902,0.0,0.0,0.0,-1.852829842135068,-2.9210891887390575,-2.8122828466257075,7.134918420136623e-05,-0.00011504314979137489,-0.5657167825818994
9549,13.0,300.21854,25007.817000000003,0.0,-0.04774472874139646,-0.0477441216790262,0.0,0.0,0.0,-1.8543312761332482,-2.922902298467997,-2.8245184495332674,0.004844384901128566,0.0024838100636579677,-0.5603802273527224
9550,13.0,300.05273,24970.55,0.0,-0.04774974323013492,-0.04774912388921315,0.0,0.0,0.0,-1.8498838174693184,-2.926663786814227,-2.813876081082947,0.004207165592114916,-0.001052507563199409,-0.5612919295277005
9551,13.0,299.95341,24970.243,0.0,-0.047754757718873386,-0.04775409319012269,0.0,0.0,0.0,-1.8469282682526282,-2.9250880815837177,-2.8183141165209475,-0.000994260638020885,0.003577382221610137,-0.5579288916507944
9552,13.0,299.98822,24978.547000000002,0.0,-0.047759739217554165,-0.04775909540030987,0.0,0.0,0.0,-1.8554171762654184,-2.921751043704377,-2.8156862523865973,-0.003170099149839427,-0.0018822757006411483,-0.5606795819622665
9553,13.0,299.70666,24926.292,0.0,-0.04776475370629263,-0.047764097610496825,0.0,0.0,0.0,-1.846336226219198,-2.920609313491697,-2.8100249201028675,0.0012548700228210289,-0.0013633679316039386,-0.5597125461993274
9554,13.0,299.77867000000003,24899.481,0.0,-0.04776973520497352,-0.047769099820684,0.0,0.0,0.0,-1.839614831680848,-2.921749219854197,-2.8074563310993677,-0.002999924200844467,-0.0034935855264150465,-0.5717138654187655
9555,13.0,299.64245,24939.727000000003,0.0,-0.04777474969371187,-0.04777410203087096,0.0,0.0,0.0,-1.8432920176187582,-2.924400692715877,-2.813361654007177,0.004763736880619225,-0.008080793974612272,-0.5618627642365375
9556,13.0,299.77995,24965.655,0.0,-0.04777973119239287,-0.047779104241058135,0.0,0.0,0.0,-1.8468413313940482,-2.9269482061172973,-2.8151462914083076,-0.0024676843909664874,-0.0008698689388318801,-0.5738570413677805
9557,13.0,299.83218,24933.951,0.0,-0.047784745681131224,-0.0477841064512452,0.0,0.0,0.0,-1.8404330311365982,-2.920461885602147,-2.818403789154797,0.0005990868877977724,-0.0010912772478006787,-0.5621379933612005
9558,13.0,300.0212,24916.981,0.0,-0.047789727179812336,-0.047789108661432156,0.0,0.0,0.0,-1.845674067278848,-2.9232340365507374,-2.8052318418298268,-0.002186409506931818,0.0008212640306774492,-0.5711858810566575
9559,13.0,299.90844,24974.6,0.0,-0.04779474166855058,-0.04779411087161933,0.0,0.0,0.0,-1.8472933422636584,-2.9302761247457374,-2.8140853172285976,0.0006847919990262084,0.0018578463420551585,-0.5630001476062885
9560,13.0,299.95013,25001.341,0.0,-0.04779975615728893,-0.04779911308180629,0.0,0.0,0.0,-1.8578797793084583,-2.9318170754978174,-2.8100865257089476,0.0001889622675791238,0.0013778978367129286,-0.5759631222306345
9561,13.0,300.10607999999996,24994.951,0.0,-0.04780473765596993,-0.047804115291993465,0.0,0.0,0.0,-1.8569507302917683,-2.9276379254603673,-2.8132521216713675,-0.001021256498315169,-0.0029575133006838374,-0.5662616274256715
9562,13.0,300.04726,24960.462000000003,0.0,-0.047809752144708284,-0.04780911750218064,0.0,0.0,0.0,-1.852468314499388,-2.9228958136673575,-2.8119930570971072,0.0027867042597762974,-0.006644213555707823,-0.5641074273155684
9563,13.0,300.03426,24942.037999999997,0.0,-0.04781473364338917,-0.0478141197123676,0.0,0.0,0.0,-1.8465586346161484,-2.920570404687857,-2.814627608682118,0.0007641500001707332,-0.006338036023965454,-0.5636194865974125
9564,13.0,300.04196,25021.602000000003,0.0,-0.04781974813212764,-0.047819121922554775,0.0,0.0,0.0,-1.8637972612174682,-2.9228467723625173,-2.819298286343077,0.0011822346827774788,0.0016216840882477585,-0.5601976599497045
9565,13.0,299.97156,25043.597999999998,0.0,-0.047824729630808416,-0.047824091223464316,0.0,0.0,0.0,-1.8664514698544181,-2.9250328594532675,-2.821144022725237,-0.007062344483049134,-0.002389548622755088,-0.5656338784587175
9566,13.0,299.70004,24967.295,0.0,-0.04782974411954688,-0.04782909343365127,0.0,0.0,0.0,-1.855299841903838,-2.9246264448381574,-2.8095079599018473,-0.0028653160528846772,-0.0005450766652623785,-0.5631089807995295
9567,13.0,300.01695,24989.572999999997,0.0,-0.047834758608285344,-0.04783409564383845,0.0,0.0,0.0,-1.8482074965038782,-2.9272794375749873,-2.820719369608327,-0.003098961292118667,0.0025275832785780473,-0.5676774012603975
9568,13.0,299.90896000000004,25025.102000000003,0.0,-0.04783974010696612,-0.0478390978540254,0.0,0.0,0.0,-1.8482011130282483,-2.9331073481751573,-2.8256975686746375,0.0016859143160617884,0.0013230868831535087,-0.5657892907590555
9569,13.0,299.88289,25018.575,0.0,-0.047844754595704586,-0.04784410006421258,0.0,0.0,0.0,-1.8474044957996283,-2.9339302085813674,-2.8236874831262573,-0.004436437137292256,0.0015601965258044087,-0.5652128122471615
9570,13.0,300.25037000000003,24992.32,0.0,-0.047849736094385475,-0.04784910227439976,0.0,0.0,0.0,-1.8448678241742782,-2.9289217133370675,-2.823251582933237,-0.0010735115284973389,0.003974638170391246,-0.5658249571625754
9571,13.0,300.40275,24982.354,0.0,-0.04785475058312372,-0.047854104484586824,0.0,0.0,0.0,-1.8454868186603683,-2.9345788912953874,-2.8139459953398474,0.00030273858116797175,0.004858024969999736,-0.5727688208928815
9572,13.0,300.20657,25016.805,0.0,-0.04785973208180483,-0.04785910669477378,0.0,0.0,0.0,-1.8478769743212582,-2.9364272621278076,-2.8201797126050674,0.0003103675742183947,0.004776580332261776,-0.5725398061052794
9573,13.0,300.18847,25028.308999999997,0.0,-0.04786474657054318,-0.047864108904960734,0.0,0.0,0.0,-1.8520230924054482,-2.934244518762387,-2.821713367956427,-0.0007827163795705922,-0.0043005032529016265,-0.5710652738972544
9574,13.0,299.99104,24989.869,0.0,-0.04786972806922418,-0.04786911111514791,0.0,0.0,0.0,-1.8397204123412683,-2.9307701854944974,-2.825805581135297,-0.007452432700622843,-0.005030896582810836,-0.5677888182413935
9575,13.0,299.80599,24982.441000000003,0.0,-0.047874742557962535,-0.04787411332533509,0.0,0.0,0.0,-1.8483872470716183,-2.9258845974873267,-2.8197664078892775,0.00012085337917729987,-0.0012663424457532689,-0.5652097724968614
9576,13.0,300.07217,25050.99,0.0,-0.047879757046701,-0.04787911553552204,0.0,0.0,0.0,-1.8565675191039483,-2.934793193691537,-2.8235147239842076,0.004772538173637845,0.0020179188835780884,-0.5706290697292045
9577,13.0,299.9973,25098.68,0.0,-0.04788473854538189,-0.04788411774570922,0.0,0.0,0.0,-1.8675415243119984,-2.9367454226592073,-2.825085058989187,0.003510995290958257,-0.0014703935879915484,-0.5650535293314415
9578,13.0,300.00955,25063.381,0.0,-0.04788975303412024,-0.04788911995589629,0.0,0.0,0.0,-1.8599578539385482,-2.9326987044098267,-2.8259854330280474,7.746117567907283e-06,-0.0013237812634470387,-0.5663488175967765
9579,13.0,300.02973,25028.92,0.0,-0.04789473453280113,-0.047894089256805716,0.0,0.0,0.0,-1.8517761633560783,-2.932467784712037,-2.8239228611244873,0.0025434464181686178,-0.0005731235394878895,-0.5655119135441804
9580,13.0,300.27412000000004,25072.534,0.0,-0.047899749021539595,-0.047899091466992894,0.0,0.0,0.0,-1.8521258359655879,-2.9360306760386674,-2.833267560171737,0.002052231686289498,0.0038609687344229467,-0.5603973006169075
9581,13.0,300.1172,25070.322999999997,0.0,-0.04790473052022026,-0.04790409367717996,0.0,0.0,0.0,-1.858461283540848,-2.932894970954197,-2.8293959315396373,0.0022292590430607376,0.0003131397555644877,-0.5604254689696875
9582,13.0,300.28959,25055.792999999998,0.0,-0.04790974500895884,-0.047909095887367026,0.0,0.0,0.0,-1.8580041050957283,-2.937292375063187,-2.821039050014877,0.0013903587864427288,0.0008406637880195562,-0.5623836862454484
9583,13.0,300.27066,25050.795,0.0,-0.04791472650763973,-0.0479140980975542,0.0,0.0,0.0,-1.8604788671399681,-2.933060536020537,-2.821276758488337,0.0011443556450141089,0.002938719031203987,-0.5659083172483024
9584,13.0,300.3025,25062.38,0.0,-0.04791974099637797,-0.04791910030774127,0.0,0.0,0.0,-1.8655496772654183,-2.937180005627097,-2.8156079281538675,0.0014593724666538488,0.0004867272599687405,-0.5699498983196755
9585,13.0,300.13767,25091.514,0.0,-0.047924755485116544,-0.047924102517928446,0.0,0.0,0.0,-1.8528012684822481,-2.942847620061447,-2.831544933676727,0.002186736584064098,-0.003302186230225407,-0.5686189740483235
9586,13.0,300.15803,25084.215,0.0,-0.04792973698379743,-0.0479291047281154,0.0,0.0,0.0,-1.8581758509876782,-2.9366337624981873,-2.8301654949905872,0.0020640503367809083,-0.0026058883608811576,-0.5663477942141755
9587,13.0,299.93917000000005,25087.59,0.0,-0.047934751472535675,-0.04793410693830258,0.0,0.0,0.0,-1.8523373012614583,-2.943931595018427,-2.8297319252727973,0.0025023872949663977,-0.0006133704616749514,-0.5681067659902724
9588,13.0,300.00852000000003,25067.941000000003,0.0,-0.047939732971216786,-0.047939109148489534,0.0,0.0,0.0,-1.856571977404388,-2.941213045000127,-2.8222431964337176,0.0011283059660801291,-0.00022415823934269577,-0.5724053782145124
9589,13.0,299.98727,25039.202999999998,0.0,-0.04794474745995525,-0.04794411135867649,0.0,0.0,0.0,-1.8555219463257584,-2.9405178541065173,-2.8152525813437976,-0.0005422308814290216,-0.0032589516590584866,-0.5750359477266295
9590,13.0,299.93357000000003,25051.87,0.0,-0.04794972895863614,-0.047949113568863666,0.0,0.0,0.0,-1.8531335131900384,-2.939783450434037,-2.8222259711820175,-0.003949302256940786,-0.005446599458937515,-0.5761574433348124
9591,13.0,300.00527999999997,25042.171000000002,0.0,-0.04795474344737449,-0.04795411577905073,0.0,0.0,0.0,-1.846362976021838,-2.938675866749727,-2.827156040868577,-0.001112919965961649,0.003777968555131466,-0.5695089622736584
9592,13.0,299.86976,25033.362999999998,0.0,-0.04795975793611296,-0.04795911798923791,0.0,0.0,0.0,-1.8460528201662283,-2.942740519525877,-2.8207240305587873,-0.0002782603433971577,0.008576835120692721,-0.5704010377941995
9593,13.0,300.18105,25101.407000000003,0.0,-0.047964739434793846,-0.04796408729014734,0.0,0.0,0.0,-1.8596584385339985,-2.9384706836044767,-2.8320718237287275,-0.001166133733388439,0.002063578871509378,-0.5611727713159405
9594,13.0,300.23229,25160.262000000002,0.0,-0.0479697539235322,-0.047969089500334405,0.0,0.0,0.0,-1.868209661427938,-2.9473112907269767,-2.8325705454279473,0.0017911386164216182,0.0018269510292810282,-0.5607172546009844
9595,13.0,300.10206,25177.286,0.0,-0.04797473542221309,-0.04797409171052158,0.0,0.0,0.0,-1.8775730042770284,-2.9437582279263173,-2.8319349336402175,0.0007086948728602384,0.005143384569162535,-0.5617418125721005
9596,13.0,300.09539,25184.707000000002,0.0,-0.04797974991095155,-0.04797909392070865,0.0,0.0,0.0,-1.8690533947862082,-2.9435459520303673,-2.8429228203746373,0.0026682232030581276,0.004305079394328256,-0.5671725291330705
9597,13.0,300.25351,25151.275,0.0,-0.04798473140963222,-0.047984096130895715,0.0,0.0,0.0,-1.8602894906962784,-2.9464051411625474,-2.8386648394794074,-0.007650274443598304,0.001123367587742749,-0.5639987157123395
9598,13.0,300.10053,25094.895,0.0,-0.047989745898370795,-0.04798909834108289,0.0,0.0,0.0,-1.8548618138856083,-2.936900247274487,-2.836459297986737,-0.0011216033166686291,-0.001034275343550029,-0.5670780638262474
9599,13.0,300.04546,25103.173,0.0,-0.047994727397051684,-0.04799410055126985,0.0,0.0,0.0,-1.8575712446530082,-2.9384857810309675,-2.8346806387611974,0.0011856426481638188,-0.0006319297787216134,-0.5653063858938965
9600,13.0,299.80803,25092.521,0.0,-0.047999741885789926,-0.047999102761457024,0.0,0.0,0.0,-1.8632528419387382,-2.9374689845556174,-2.8267778959312575,-0.0005968716089716415,-0.0012610381828047788,-0.5687307051368504
9601,13.0,299.91238,25071.34,0.0,-0.04800475637452839,-0.0480041049716442,0.0,0.0,0.0,-1.859568157950088,-2.9377121645796174,-2.8237809047854774,-0.003357514751935907,-0.01108984603898259,-0.5699280425150185
9602,13.0,300.08581000000004,25088.818,0.0,-0.0480097378732095,-0.04800910718183116,0.0,0.0,0.0,-1.8537131935722482,-2.9441562325655974,-2.828504879401697,0.0014782048343374584,-0.0024401863031276376,-0.5753692766120264
9603,13.0,300.14968,25151.487,0.0,-0.048014752361947854,-0.04801410939201811,0.0,0.0,0.0,-1.8585088049705383,-2.951488110289197,-2.8354268974598473,0.0003043199808640437,0.004139468731733756,-0.5768455110802194
9604,13.0,300.12307999999996,25168.988999999998,0.0,-0.048019733860628744,-0.04801911160220518,0.0,0.0,0.0,-1.8626197632762582,-2.9512365202893673,-2.8368881054290576,-0.0020151348776033277,0.003233192409716247,-0.5716085684683735
9605,13.0,300.08152,25135.821,0.0,-0.04802474834936721,-0.048024113812392355,0.0,0.0,0.0,-1.8540708708575484,-2.955852583769937,-2.8307385892471473,-0.00931443397603806,-0.0020645561512308277,-0.5762310660870785
9606,13.0,300.04106,25129.394,0.0,-0.0480297298480481,-0.04802911602257953,0.0,0.0,0.0,-1.8651038472214183,-2.941717744874937,-2.831886905585477,-0.002143184662965858,-0.0027710356642049274,-0.5626497251917045
9607,13.0,299.96133,25139.231,0.0,-0.04803474433678645,-0.04803411823276649,0.0,0.0,0.0,-1.8627411506382383,-2.9457507842479673,-2.8332065625157172,0.003417017965383416,0.0007408359462348152,-0.5774718313645325
9608,13.0,299.7621,25145.637000000002,0.0,-0.04803972583546734,-0.04803908753367603,0.0,0.0,0.0,-1.8610001843164181,-2.9472341823943675,-2.8354113947333177,0.0005747114239846014,-0.0004008837793066486,-0.5691214650379154
9609,13.0,299.86525,25131.248,0.0,-0.048044740324205804,-0.048044089743863205,0.0,0.0,0.0,-1.8570756640290982,-2.9429937307258673,-2.8392026726324873,-0.002573163523726468,-0.0070971776910119045,-0.5775945359516425
9610,13.0,299.96328,25136.832000000002,0.0,-0.048049754812944045,-0.04804909195405016,0.0,0.0,0.0,-1.8608592412275082,-2.941832546111267,-2.8382773726411674,-0.0009231761279178902,-0.000939436350090149,-0.5627986222938995
9611,13.0,299.9614,25133.119,0.0,-0.048054736311624935,-0.04805409416423734,0.0,0.0,0.0,-1.8629053984794481,-2.9438109169315174,-2.833124286607597,0.0005543271827128335,0.0008930793372825683,-0.5722495200841304
9612,13.0,300.11107000000004,25203.83,0.0,-0.04805975080036351,-0.04805909637442429,0.0,0.0,0.0,-1.8756291852851883,-2.949661524333927,-2.8360443720707873,0.0025175607152138975,-0.006404908706715274,-0.5595727379505295
9613,13.0,300.22866,25226.885,0.0,-0.04806473229904418,-0.04806409858461147,0.0,0.0,0.0,-1.8720308302050583,-2.9561485541241472,-2.8401638416773474,-0.0016048562332369785,-0.007881545739173003,-0.5703502739641895
9614,13.0,300.14626,25163.855,0.0,-0.04806974678778264,-0.04806910079479865,0.0,0.0,0.0,-1.8600719458998083,-2.949251462018457,-2.839860170622377,0.002086384699460138,0.0015632196588027684,-0.5691026185860555
9615,13.0,300.02247,25167.877,0.0,-0.04807472828646375,-0.0480741030049856,0.0,0.0,0.0,-1.861282171819248,-2.954670526203277,-2.8344533667637672,-0.0016596006162648282,0.003878635155216486,-0.5748889960646265
9616,13.0,299.99292,25222.497000000003,0.0,-0.048079742775202106,-0.04807910521517278,0.0,0.0,0.0,-1.8703302925622285,-2.9507546185418074,-2.845924472470877,-0.00040263827251730357,-0.00043768313829346253,-0.5679211284394514
9617,13.0,299.65211,25192.167,0.0,-0.04808475726394035,-0.048084107425359734,0.0,0.0,0.0,-1.8630017585639582,-2.9530673618950574,-2.841720599130987,-0.002695923839591967,-0.007817182066320804,-0.5714809800157814
9618,13.0,299.75124,25135.839,0.0,-0.04808973876262146,-0.04808910963554691,0.0,0.0,0.0,-1.8589609171651582,-2.9487879000977073,-2.832918495512287,2.9088826661093674e-06,-0.0001838311488077218,-0.5679153731788834
9619,13.0,299.81122999999997,25146.097,0.0,-0.0480947532513597,-0.04809411184573398,0.0,0.0,0.0,-1.8572110342424581,-2.9470948605056173,-2.8394795938848176,0.00039097386908861664,0.0012375774913143888,-0.5694609848814234
9620,13.0,299.74082000000004,25186.09,0.0,-0.04809973475004059,-0.04809911405592093,0.0,0.0,0.0,-1.861546528770338,-2.9560361846880574,-2.8383598511993076,-0.0017044772605438086,-0.002875176192257797,-0.5698927206165324
9621,13.0,299.82318,25215.926,0.0,-0.048104749238779165,-0.04810411626610811,0.0,0.0,0.0,-1.8658330833183883,-2.9567346179819873,-2.842444059702387,-0.006205042287389994,-0.002154366384444408,-0.5755450451068734
9622,13.0,299.96716000000004,25228.821,0.0,-0.048109730737460055,-0.04810908556701765,0.0,0.0,0.0,-1.8688189287130683,-2.9542560055873675,-2.845856584714177,0.0026655638268456676,0.005240846056531235,-0.5697273885977154
9623,13.0,300.02041,25240.499,0.0,-0.0481147452261983,-0.048114087777204606,0.0,0.0,0.0,-1.8697504095299982,-2.963325505907457,-2.8394054239774973,0.0005340222282613904,0.0092684693038017,-0.5735936267392834
9624,13.0,300.21166,25254.277000000002,0.0,-0.048119726724879186,-0.04811908998739178,0.0,0.0,0.0,-1.8781115467051783,-2.9564360131775174,-2.8421220488206074,0.0004225111061985996,-0.00046518850126803056,-0.5628306004670555
9625,13.0,300.14082,25269.612,0.0,-0.04812474121361776,-0.04812409219757874,0.0,0.0,0.0,-1.8718351716107482,-2.964048763828837,-2.8454470290237572,0.0015644377880729885,-0.0035055523140710763,-0.5754700240694693
9626,13.0,300.02617000000004,25257.982999999997,0.0,-0.048129755702356,-0.048129094407765916,0.0,0.0,0.0,-1.8744086242147284,-2.954426535579197,-2.848960980370557,-0.004826903702453305,0.0026130367390116475,-0.5656770631779795
9627,13.0,300.12552,25215.815,0.0,-0.04813473720103689,-0.04813409661795309,0.0,0.0,0.0,-1.8683613449679084,-2.9511574867815673,-2.845459390674977,-0.0013356126808897085,0.0032556118854038772,-0.5762243685039175
9628,13.0,299.95766000000003,25190.749,0.0,-0.048139751689775356,-0.04813909882814005,0.0,0.0,0.0,-1.867269567985158,-2.951882264578097,-2.8382070530842274,-0.005289787657561396,-0.002239441193315638,-0.5679084425481994
9629,13.0,299.88824,25203.412,0.0,-0.04814473318845636,-0.048144101038327225,0.0,0.0,0.0,-1.8676141743441683,-2.944958118694737,-2.8486357270884572,0.0009487292213947841,0.0012442033363683088,-0.5725815722744014
9630,13.0,299.91702000000004,25212.232000000004,0.0,-0.0481497476771946,-0.04814910324851418,0.0,0.0,0.0,-1.8686846730748181,-2.9525745170464175,-2.842629687120707,0.01005655476392968,0.004738905667043576,-0.5679425282815634
9631,13.0,299.89422,25251.345,0.0,-0.04815472917587571,-0.04815410545870136,0.0,0.0,0.0,-1.8670847511669182,-2.958077073039477,-2.8506164283839373,0.0044149032421920255,0.006221453189984624,-0.5758475306592264
9632,13.0,299.92614,25278.776,0.0,-0.04815974366461395,-0.048159107668888534,0.0,0.0,0.0,-1.875006340448718,-2.956055233789937,-2.8530552200496273,0.002248941628903258,-0.003388227173066987,-0.5738369688832995
9633,13.0,299.91163,25265.362999999998,0.0,-0.04816472516329484,-0.0481641098790756,0.0,0.0,0.0,-1.8674141587744282,-2.9655394573759573,-2.847085758410487,-0.0031498434697403467,-0.0029921304837252872,-0.5783109746998494
9634,13.0,300.0295,25276.891,0.0,-0.048169739652033416,-0.048169112089262556,0.0,0.0,0.0,-1.8705141974553783,-2.959507072905607,-2.8535225309957473,-0.0006102907386585065,0.004880499363842785,-0.5777393395234334
9635,13.0,300.17424,25293.79,0.0,-0.04817475414077166,-0.04817411429944951,0.0,0.0,0.0,-1.8778134485257583,-2.961353822537867,-2.849513303000067,-0.0025037472792506176,0.0021676226341776983,-0.5736735215096684
9636,13.0,300.17304,25222.338,0.0,-0.04817973563945255,-0.048179083600359274,0.0,0.0,0.0,-1.8669745095560382,-2.9559160132261972,-2.8440704274378974,-0.004728412955633026,-0.004403038184846036,-0.5735131949463455
9637,13.0,300.04306,25146.839,0.0,-0.04818475012819112,-0.04818408581054645,0.0,0.0,0.0,-1.855779717151198,-2.9478937068844573,-2.8403377153945075,-0.003553229378976437,-0.002323183173005328,-0.5701109341580685
9638,13.0,299.84652,25225.536,0.0,-0.04818973162687201,-0.048189088020733406,0.0,0.0,0.0,-1.8657193966571683,-2.9561030591946573,-2.8461107078392573,0.007192413473210943,0.004302995645497606,-0.5711821218987865
9639,13.0,299.90457999999995,25315.655,0.0,-0.048194746115610254,-0.04819409023092036,0.0,0.0,0.0,-1.8734779539978783,-2.961552926182517,-2.8602961079142473,-0.00036705583703309065,0.005921441690400794,-0.5699109489858315
9640,13.0,299.90994,25320.866,0.0,-0.048199727614291143,-0.04819909244110754,0.0,0.0,0.0,-1.8802557865667981,-2.966233938994497,-2.850421377739687,0.0006589329749466214,0.0027316382711667074,-0.5698634072911395
9641,13.0,299.99225,25314.432,0.0,-0.04820474210302961,-0.04820409465129449,0.0,0.0,0.0,-1.8783528015539879,-2.966151663086377,-2.8504508633175973,-0.0032714041988124573,0.0028803379922422274,-0.5735261341501224
9642,13.0,300.189,25356.18,0.0,-0.04820975659176796,-0.04820909686148167,0.0,0.0,0.0,-1.8853140323910085,-2.963830611082307,-2.8585010340370873,0.004816035683205716,0.007468117406870803,-0.5692364993217685
9643,13.0,300.20822000000004,25364.131,0.0,-0.04821473809044885,-0.04821409907166874,0.0,0.0,0.0,-1.8783748904061681,-2.968878825730527,-2.862808765512227,2.5246576202393075e-05,0.004169217248044706,-0.5732373882691254
9644,13.0,299.99969,25327.327,0.0,-0.048219752579187314,-0.0482191012818558,0.0,0.0,0.0,-1.8825011487883982,-2.9631546719405972,-2.853218961265787,-0.002217215147072098,-0.004957177673110345,-0.5712452473800165
9645,13.0,300.10276,25282.732000000004,0.0,-0.0482247340778682,-0.04822410349204298,0.0,0.0,0.0,-1.8676241041951482,-2.9623965582157767,-2.855298657096037,0.0007035333768508384,-0.005313628115189265,-0.5780631134603875
9646,13.0,299.98219,25208.25,0.0,-0.04822974856660678,-0.048229105702230046,0.0,0.0,0.0,-1.867974891379768,-2.956457088779597,-2.838246569838127,-0.001103741845230839,0.0010952607392438192,-0.5749057552212804
9647,13.0,299.94524,25255.943,0.0,-0.04823473006528767,-0.04823410791241722,0.0,0.0,0.0,-1.8743967691885581,-2.9585507674612272,-2.8442283931284873,0.002183363778456228,-0.0015254200598472385,-0.5779359303078354
9648,13.0,300.00435,25350.325,0.0,-0.04823974455402591,-0.04823911012260418,0.0,0.0,0.0,-1.882850010797828,-2.9702696128177872,-2.852746178769127,-0.004661635518392606,-0.002242835581150638,-0.5776373761658704
9649,13.0,300.08432999999997,25306.784,0.0,-0.0482447260527068,-0.048244112332791356,0.0,0.0,0.0,-1.8715740570599781,-2.9687186308897173,-2.852337838978827,-0.006077344606437214,0.0041318153497534255,-0.5746292696664935
9650,13.0,299.93256,25292.816000000003,0.0,-0.04824974054144526,-0.04824911454297831,0.0,0.0,0.0,-1.8665292874620982,-2.9702209768129872,-2.851634136784377,-0.005445980363126416,-0.0023027785451415475,-0.5758786273047954
9651,13.0,299.95625,25393.985,0.0,-0.048254755030183616,-0.04825408384388785,0.0,0.0,0.0,-1.8777787953723382,-2.9768447953667074,-2.8645137614554974,0.0005905268394954615,-0.004625077961409655,-0.5718749721846654
9652,13.0,299.8743,25404.01,0.0,-0.048259736528864505,-0.04825908605407503,0.0,0.0,0.0,-1.8902347801766484,-2.973767250837977,-2.8581827721806774,0.0020022919325858282,-0.004713852956996065,-0.5770370964091275
9653,13.0,299.81847,25319.176,0.0,-0.04826475101760297,-0.048264088264261984,0.0,0.0,0.0,-1.879909457682618,-2.9687606807688676,-2.847727145723787,0.006920884129963083,0.00017698830611238587,-0.5674139359693954
9654,13.0,299.59695,25284.357999999997,0.0,-0.04826973251628386,-0.04826909047444894,0.0,0.0,0.0,-1.8731256469381083,-2.9665899950796373,-2.846097940887997,0.001969061382306228,0.003243325012041257,-0.5792175802268245
9655,13.0,299.79114,25291.666,0.0,-0.04827474700502221,-0.048274092684636116,0.0,0.0,0.0,-1.875338382506488,-2.956736644482187,-2.8559600054363075,0.0010638354966673888,-0.0016489685829655283,-0.5660421675865125
9656,13.0,299.94057000000004,25315.622000000003,0.0,-0.0482797285037031,-0.04827909489482318,0.0,0.0,0.0,-1.8684151485482183,-2.968597648827777,-2.858304058217647,-0.003389722020939517,-0.001198330565916019,-0.5798121351205024
9657,13.0,300.00181000000003,25351.25,0.0,-0.048284742992441565,-0.04828409710501036,0.0,0.0,0.0,-1.8736788814927083,-2.969077524075137,-2.8633905737196472,-0.004339404761340906,0.001972044187950608,-0.5712064399011865
9658,13.0,299.74922000000004,25326.847999999998,0.0,-0.048289724491122454,-0.04828909931519754,0.0,0.0,0.0,-1.875548429252218,-2.9673571267303473,-2.855823723297857,-0.007206459450072173,-0.0017631966237139582,-0.5715623743963145
9659,13.0,299.91549,25345.197,0.0,-0.04829473897986092,-0.04829410152538449,0.0,0.0,0.0,-1.8782766051464683,-2.9696274149044073,-2.8564029983800268,-0.008036676355983203,-0.006208514796807703,-0.5695394611016684
9660,13.0,299.98471,25409.254,0.0,-0.04829975346859927,-0.04829910373557167,0.0,0.0,0.0,-1.886904429747968,-2.9696232605789974,-2.8672510566006473,-0.002032775865819358,-0.001984030328683548,-0.5759086701702605
9661,13.0,300.24504,25435.955,0.0,-0.04830473496728016,-0.048304105945758624,0.0,0.0,0.0,-1.887693751575868,-2.975459175854957,-2.8687422567728174,0.011996946032006389,0.0029230292587055277,-0.5720942395063054
9662,13.0,300.13558,25359.561,0.0,-0.048309749456018625,-0.0483091081559458,0.0,0.0,0.0,-1.8713101054089283,-2.9708787787779074,-2.866484431574987,0.0025726124169970772,-0.003600765399467877,-0.5751092259738615
9663,13.0,300.30304,25344.213,0.0,-0.048314730954699514,-0.04831411036613298,0.0,0.0,0.0,-1.8731118667367481,-2.9672792077976573,-2.863616832466977,0.004828069244043336,-0.012139247889300488,-0.5740768659769755
9664,13.0,300.02198,25342.193,0.0,-0.04831974544343787,-0.048319112576319934,0.0,0.0,0.0,-1.8847977814650583,-2.9656655056883974,-2.8529305902873268,-0.004623947579598095,-0.008420855805598763,-0.5719885169908715
9665,13.0,300.09238,25363.696,0.0,-0.048324726942118756,-0.048324081877229474,0.0,0.0,0.0,-1.8787448280176782,-2.968816612174387,-2.862368710993797,0.0016909043701542681,0.007189828368230812,-0.5746517030237074
9666,13.0,300.04554,25325.82,0.0,-0.04832974143085722,-0.04832908408741665,0.0,0.0,0.0,-1.8755328252006782,-2.967116277181577,-2.855767690567327,-0.007292365529325443,0.005103136147365325,-0.5794975614944564
9667,13.0,299.95117,25333.604,0.0,-0.04833475591959557,-0.04833408629760361,0.0,0.0,0.0,-1.8705864421875082,-2.9726501426027268,-2.8575463497928673,-0.009656416321264091,0.0014725146244258787,-0.5768821603363364
9668,13.0,299.85458,25400.942000000003,0.0,-0.04833973741827646,-0.048339088507790784,0.0,0.0,0.0,-1.8761571899122982,-2.9786911396989266,-2.866403878192037,-0.005964685887443665,0.008669856140823181,-0.5798465248288964
9669,13.0,299.83165,25394.517000000003,0.0,-0.04834475190701493,-0.04834409071797774,0.0,0.0,0.0,-1.8834627231332983,-2.975613189870157,-2.8602231539070475,0.0033515517750974068,0.008763000270840792,-0.5740755892818495
9670,13.0,299.70204,25402.505,0.0,-0.048349733405695816,-0.048349092928164805,0.0,0.0,0.0,-1.8867699714596984,-2.9772423947059474,-2.857714751959487,0.007302295886930493,-0.005105210270320026,-0.5761584565849124
9671,13.0,300.12699,25422.254,0.0,-0.04835474789443417,-0.04835409513835198,0.0,0.0,0.0,-1.8889200881718982,-2.974189269504627,-2.864620963316077,-0.003907669938156996,-0.013827550537172986,-0.5679188688917284
9672,13.0,300.22051,25394.101000000002,0.0,-0.04835972939311506,-0.04835909734853894,0.0,0.0,0.0,-1.886748693207598,-2.975764366785077,-2.8566595533053474,0.003986013219988876,-0.0024455141748034575,-0.5769571104462335
9673,13.0,300.01952,25397.798,0.0,-0.04836474388185352,-0.048364099558726115,0.0,0.0,0.0,-1.882525872090838,-2.9718354895223267,-2.865935047370767,-0.0006694669357687424,0.0023673783052670476,-0.5745358986697784
9674,13.0,300.04631,25399.92,0.0,-0.04836972538053441,-0.04836910176891307,0.0,0.0,0.0,-1.8806399096797084,-2.977072067364137,-2.8632294669537472,0.002024740589876338,0.0014006329398067085,-0.5821894529026255
9675,13.0,299.82657,25374.168999999998,0.0,-0.048374739869272876,-0.04837410397910025,0.0,0.0,0.0,-1.881966355385618,-2.976165715149687,-2.8549817124647574,-0.0034293478005502772,-0.0003323790242232557,-0.5805167492400424
9676,13.0,299.8859,25386.217,0.0,-0.04837975435801123,-0.048379106189287424,0.0,0.0,0.0,-1.8827558798635382,-2.9742063934313174,-2.8598139021916573,0.0047783264661591055,0.004261233022750956,-0.5801633276051624
9677,13.0,300.0262,25409.387000000002,0.0,-0.04838473585669212,-0.04838410839947438,0.0,0.0,0.0,-1.8832808447403482,-2.980164911969377,-2.860373621546897,0.004251353530300926,0.00969572373769343,-0.5720817663975745
9678,13.0,300.08562,25383.688,0.0,-0.04838975034543058,-0.048389110609661556,0.0,0.0,0.0,-1.8824695353852785,-2.974531545388407,-2.8590063418619573,-0.0007678348969419042,0.0005501171792098385,-0.5759928915185725
9679,13.0,300.24751000000003,25456.19,0.0,-0.04839473184411147,-0.0483940799105711,0.0,0.0,0.0,-1.8822134870850082,-2.9835526123537175,-2.8722799181719574,-0.006350926186437614,-0.002560642893565778,-0.5788250167405815
9680,13.0,300.14231,25497.852000000003,0.0,-0.048399746332849825,-0.04839908212075805,0.0,0.0,0.0,-1.8889947647042682,-2.9888548488020072,-2.8728606118042674,-0.008169114426203822,0.005656457030873844,-0.5799454788336624
9681,13.0,300.17779,25450.485,0.0,-0.048404727831530714,-0.04840408433094523,0.0,0.0,0.0,-1.8903182719848879,-2.980027920555857,-2.8659657488487973,0.00041041136999694867,0.0064385601610864145,-0.5757795618425184
9682,13.0,300.26648,25387.772999999997,0.0,-0.04840974232026918,-0.048409086541132185,0.0,0.0,0.0,-1.879104227828148,-2.978331233263407,-2.859813800866647,0.0004778193527745986,-0.004901764443691486,-0.5762676950781935
9683,13.0,300.09231,25408.262000000002,0.0,-0.04841472381895007,-0.04841408875131936,0.0,0.0,0.0,-1.8842505250860482,-2.9750000722346472,-2.8642267077021675,0.0061000503252780945,-0.008661016850925811,-0.5698761539773974
9684,13.0,299.82799,25441.146,0.0,-0.04841973830768842,-0.04841909096150643,0.0,0.0,0.0,-1.8865731982902785,-2.978765410931257,-2.868134408037827,0.00944780099395036,-0.0009929321151522699,-0.5779472280464504
9685,13.0,299.92,25440.267999999996,0.0,-0.048424752796426884,-0.04842409317169338,0.0,0.0,0.0,-1.8783508763787984,-2.9835271797762073,-2.871328071028018,0.009135286697407602,0.0027353470705077376,-0.5817670188034344
9686,13.0,299.93458,25434.929,0.0,-0.048429734295107774,-0.04842909538188056,0.0,0.0,0.0,-1.8804587405618283,-2.981247063076177,-2.8698775021848575,0.00027725567552550474,-0.002333351239083838,-0.5834483249593665
9687,13.0,300.15954,25455.662999999997,0.0,-0.048434748783846016,-0.048434097592067515,0.0,0.0,0.0,-1.8884385917243784,-2.980456930648197,-2.8689905030473177,-0.0014325589305825587,0.0005484709923023724,-0.5744044092043015
9688,13.0,300.03664,25467.811,0.0,-0.04843973028252713,-0.04843909980225469,0.0,0.0,0.0,-1.8815980389742681,-2.9893119259221175,-2.870668647862937,-0.004038702934463946,0.006572208558551484,-0.5777647315709394
9689,13.0,300.1474,25460.261000000002,0.0,-0.04844474477126548,-0.04844410201244187,0.0,0.0,0.0,-1.886947492877218,-2.978088863839487,-2.8742472445661176,-0.004172038136323106,0.002860996365058357,-0.5703243144966275
9690,13.0,300.27952999999997,25486.678,0.0,-0.04844972626994637,-0.048449104222628825,0.0,0.0,0.0,-1.8870320992605683,-2.9843993854622872,-2.8758821236024676,-0.00912359743895396,-0.006567340905071083,-0.5713823097210434
9691,13.0,300.21494,25498.037999999997,0.0,-0.04845474075868483,-0.048454106432816,0.0,0.0,0.0,-1.883104843197978,-2.991699244482727,-2.875962778310427,-0.004419914675861615,-0.00013654539095848088,-0.5793153183314704
9692,13.0,300.10328,25447.712000000003,0.0,-0.0484597552474233,-0.04845910864300296,0.0,0.0,0.0,-1.8856255054717481,-2.982227889172977,-2.867615725311637,0.0004388038536990686,0.007973048302703602,-0.5824579641791254
9693,13.0,300.06475,25500.671000000002,0.0,-0.048464736746104076,-0.0484640779439125,0.0,0.0,0.0,-1.892973088571898,-2.9874581848641673,-2.871136161459077,0.003074501637354687,0.0050146644175338454,-0.5815128956783545
9694,13.0,299.84615,25486.942000000003,0.0,-0.04846975123484254,-0.048469080154099675,0.0,0.0,0.0,-1.8888911092190381,-2.983938660641817,-2.8745641891973976,0.0018744713443959182,-0.009162373912330901,-0.5757564293427355
9695,13.0,299.93514,25460.17,0.0,-0.04847473273352343,-0.04847408236428674,0.0,0.0,0.0,-1.887452598052068,-2.982987218797917,-2.8688162240301174,0.005462424095024286,-0.012080276733480489,-0.5743019392216884
9696,13.0,299.94965,25513.007999999998,0.0,-0.04847974722226167,-0.04847908457447381,0.0,0.0,0.0,-1.894322940355118,-2.9840788944556573,-2.8769153347294374,0.005922396678620045,-0.004258901432945846,-0.5718672005563985
9697,13.0,299.84924,25513.123,0.0,-0.04848472872094267,-0.048484086784660985,0.0,0.0,0.0,-1.8883472978903681,-2.987025932371507,-2.879978997731797,0.004884907407077825,-0.005305236985811125,-0.5787579699814644
9698,13.0,299.96833,25477.904,0.0,-0.048489743209681135,-0.04848908899484805,0.0,0.0,0.0,-1.892602644335338,-2.9861495723600173,-2.8658944160417574,-0.003913472314854646,-0.0016238049220320685,-0.5801935224581425
9699,13.0,300.14229,25529.087000000003,0.0,-0.048494724708362025,-0.04849409120503523,0.0,0.0,0.0,-1.8929974065742983,-2.9892937887453273,-2.8779137913779773,-0.0038697570578402857,0.008051668809762843,-0.5775472880994795
9700,13.0,300.17177999999996,25518.695,0.0,-0.04849973919710027,-0.04849909341522218,0.0,0.0,0.0,-1.889974577550968,-2.989990398189077,-2.877081001120787,-0.0014206641850086387,0.014530896067587788,-0.5799815708022245
9701,13.0,300.16514,25452.047000000002,0.0,-0.04850475368583884,-0.04850409562540914,0.0,0.0,0.0,-1.883569823668868,-2.985876096158027,-2.8673407292344972,-0.004092896514737436,0.006174293693230344,-0.5804735037257744
9702,13.0,300.10161,25476.326,0.0,-0.04850973518451973,-0.048509097835596315,0.0,0.0,0.0,-1.8825916320223282,-2.9878077561486673,-2.8737676732937874,-0.007975907390510772,-0.007002305158973713,-0.5832781698700735
9703,13.0,300.32297,25525.096,0.0,-0.04851474967325797,-0.04851410004578327,0.0,0.0,0.0,-1.8907778822302483,-2.9951672955999973,-2.873046745847637,-0.005014276545395565,-0.0012725106057370188,-0.5845168275873195
9704,13.0,300.14005,25520.58,0.0,-0.048519731171939084,-0.04851910225597045,0.0,0.0,0.0,-1.8943968062874084,-2.9890706710733075,-2.8741514924316673,0.0014201960634624387,0.0001069061840683189,-0.5817155254333524
9705,13.0,300.05734,25518.124,0.0,-0.04852474566067755,-0.048524104466157514,0.0,0.0,0.0,-1.8868476877423683,-2.9921583481030374,-2.8778665739233174,0.002900525075309537,-0.005907139766564305,-0.5817986322065545
9706,13.0,299.79371000000003,25545.547000000002,0.0,-0.04852972715935833,-0.04852910667634458,0.0,0.0,0.0,-1.8901814832213881,-2.992444996556327,-2.882582037238697,-5.0393434409444746e-05,-0.007758298860609482,-0.5736001925999314
9707,13.0,299.96128999999996,25550.327,0.0,-0.04853474164809679,-0.04853410888653176,0.0,0.0,0.0,-1.892482574198488,-2.986333173278137,-2.8878456688581773,0.007195482709088853,-0.0024255708797102076,-0.5731521536707135
9708,13.0,299.94513,25564.209,0.0,-0.04853972314677768,-0.04853907818744119,0.0,0.0,0.0,-1.892029144778738,-2.9960318005853175,-2.8828202523372073,0.004845344752948295,0.0019309652050464282,-0.5765110574872114
9709,13.0,300.0971,25581.977000000003,0.0,-0.04854473763551592,-0.048544080397628364,0.0,0.0,0.0,-1.8971443352585682,-2.993698285605017,-2.8854396051707174,-0.0038594517976982363,-0.0057913124118580345,-0.5781411539830895
9710,13.0,300.02371,25546.831000000002,0.0,-0.0485497521242545,-0.04854908260781543,0.0,0.0,0.0,-1.8995600248219782,-2.989887857278957,-2.876150837528987,-0.004028729108429606,-0.0048758975871886255,-0.5769321743612724
9711,13.0,300.07231,25535.529,0.0,-0.048554733622935387,-0.048554084818002496,0.0,0.0,0.0,-1.889366931465998,-2.9951150118948373,-2.8776813518050375,-0.01001311875864288,0.007148088847586442,-0.5835224239391795
9712,13.0,299.98221,25570.322,0.0,-0.04855974811167363,-0.048559087028189674,0.0,0.0,0.0,-1.9001970551598482,-2.9877808036960074,-2.884761538203797,-0.0032606156183727073,0.009266023419385311,-0.5773550238930045
9713,13.0,300.14505,25580.609,0.0,-0.04856472961035452,-0.04856408923837663,0.0,0.0,0.0,-1.894171256815148,-2.997268168357337,-2.8844267603707574,-0.004904855464446545,-0.0013139473672515087,-0.5870708865843854
9714,13.0,300.13761,25524.068,0.0,-0.04856974409909309,-0.048569091448563806,0.0,0.0,0.0,-1.8908452633618982,-2.989106844101877,-2.8787272285582572,0.0030847272560388774,0.00046179109394773254,-0.5828626258715625
9715,13.0,300.0327,25531.382,0.0,-0.04857472559777398,-0.04857409365875076,0.0,0.0,0.0,-1.8981473515325584,-2.9864429082639674,-2.876312349594927,0.005737052362377984,0.0023605032006885278,-0.5836070201900285
9716,13.0,299.97151,25592.451,0.0,-0.048579740086512224,-0.048579095868937716,0.0,0.0,0.0,-1.898350710827628,-2.996988207354707,-2.884127142316187,0.006152507600180224,0.001196795289364499,-0.5791350307411774
9717,13.0,299.89243999999997,25578.863999999998,0.0,-0.04858475457525069,-0.04858409807912489,0.0,0.0,0.0,-1.8908745462897882,-2.9941114889957974,-2.8903500178053374,0.0006404692884443973,-0.007444613753576174,-0.5806949292701274
9718,13.0,299.81113999999997,25586.009,0.0,-0.0485897360739318,-0.04858910028931196,0.0,0.0,0.0,-1.8899004076436483,-2.9966553546968573,-2.8909519896897473,0.0033426989076486974,-0.008372528132804192,-0.5777630799732765
9719,13.0,299.92488,25598.818,0.0,-0.04859475056267015,-0.04859410249949914,0.0,0.0,0.0,-1.8940504774032283,-2.9979431955739573,-2.8894077965373475,0.006033175109403024,0.004221286549483546,-0.5820971458185155
9720,13.0,299.91585,25591.121,0.0,-0.04859973206135104,-0.048599104709686314,0.0,0.0,0.0,-1.895401038461518,-2.9984898440029073,-2.8851710938942174,0.003696898718605497,0.003415525447986117,-0.5803155481676855
9721,13.0,299.9163,25573.949,0.0,-0.048604746550089506,-0.04860410691987327,0.0,0.0,0.0,-1.9018124797942781,-2.9985558065844176,-2.873473425464747,-0.0024255177854049675,-0.001075247631218679,-0.5838008042716535
9722,13.0,300.13824,25614.451,0.0,-0.04860972804877017,-0.04860907622078281,0.0,0.0,0.0,-1.9020834228710182,-2.996840171515097,-2.8872301194224272,-0.007130237812624683,-0.0013104567206570087,-0.5777850978979494
9723,13.0,300.06158,25585.334,0.0,-0.04861474253750875,-0.04861407843096999,0.0,0.0,0.0,-1.8941239380354782,-2.9963991037465676,-2.8867795271029575,-0.0003256541441045617,0.008877798062120452,-0.5777273730397524
9724,13.0,300.00922,25569.533,0.0,-0.04861972403618964,-0.04861908064115694,0.0,0.0,0.0,-1.8960029090209183,-2.995834318140827,-2.8806624349242473,-0.0025483782103803477,0.006653320546281614,-0.5772793847730394
9725,13.0,300.15291,25634.159,0.0,-0.04862473852492788,-0.04862408285134412,0.0,0.0,0.0,-1.9001054573508085,-2.998345658513677,-2.893693236510287,-0.007323468659695082,0.0009103217230417591,-0.5780826793198184
9726,13.0,300.12021,25658.702,0.0,-0.048629753013666344,-0.048629085061531074,0.0,0.0,0.0,-1.9102694704289183,-3.004013880898087,-2.885321358884047,-0.006395148575127024,-0.0018975981699783581,-0.5778865647629635
9727,13.0,299.96839,25637.74,0.0,-0.048634734512347344,-0.04863408727171825,0.0,0.0,0.0,-1.9024763612597981,-3.002396125788427,-2.888360399908977,0.001957543869744538,2.8376614179053777e-05,-0.5774072974656634
9728,13.0,299.81357,25621.627999999997,0.0,-0.048639749001085586,-0.04863908948190543,0.0,0.0,0.0,-1.8969978192941082,-3.0002281758744673,-2.8911091447802573,0.006530351095595473,-0.005855367955354824,-0.5777950682789335
9729,13.0,299.80748,25616.447,0.0,-0.048644730499766475,-0.048644091692092384,0.0,0.0,0.0,-1.887534164685118,-3.008985291188727,-2.8902406881195475,0.003934735165553127,-0.007502389578253202,-0.5841329983169384
9730,13.0,299.89094,25607.857000000004,0.0,-0.04864974498850494,-0.04864909390227956,0.0,0.0,0.0,-1.8920422157050283,-2.999214115174387,-2.8928927689312873,0.006436403255598544,-0.005789310330985444,-0.5798285903021264
9731,13.0,300.00658,25632.609,0.0,-0.04865472648718605,-0.048654096112466516,0.0,0.0,0.0,-1.893647913138498,-3.008531051168897,-2.8894940241208573,0.007028746730933294,0.007794270759034632,-0.5863669006799074
9732,13.0,299.93146,25610.341,0.0,-0.048659740975924404,-0.04865909832265358,0.0,0.0,0.0,-1.902345854646918,-3.004653444361207,-2.877904874777097,0.0025107089153876775,0.01012591274652478,-0.5816963547414604
9733,13.0,300.03279,25571.817000000003,0.0,-0.04866472247460529,-0.04866410053284076,0.0,0.0,0.0,-1.8960046315460883,-2.998468971050847,-2.8787201358075576,-0.004040735919464586,-0.00044707747646311163,-0.5830356585911395
9734,13.0,300.12113999999997,25638.332000000002,0.0,-0.04866973696334376,-0.048669102743027715,0.0,0.0,0.0,-1.8942672115996182,-3.010847138247477,-2.8882984903278675,-0.011188981415516488,-0.002144728552143228,-0.5829290646806194
9735,13.0,300.07847999999996,25697.947,0.0,-0.048674751452082,-0.04867410495321489,0.0,0.0,0.0,-1.9060357062110782,-3.0069426803121373,-2.898555722415177,-0.009819433671552651,-0.0008079729352732201,-0.5798509932618374
9736,13.0,300.06414,25650.966,0.0,-0.048679732950763,-0.04867907425412443,0.0,0.0,0.0,-1.8997125189620283,-3.003783467825347,-2.8937571725915974,-0.0009725310235313391,-0.0031599771866404665,-0.5850242835024014
9737,13.0,299.9933,25602.119,0.0,-0.04868474743950146,-0.04868407646431139,0.0,0.0,0.0,-1.8973722152060581,-3.001487240448727,-2.883545435433777,-0.0019216509035021782,-0.003657301309997536,-0.5850164004166235
9738,13.0,300.11211000000003,25636.311,0.0,-0.04868972893818213,-0.048689078674498565,0.0,0.0,0.0,-1.9081348564432483,-2.9951381139971174,-2.889525637523977,0.01054631234083999,-0.003127215163207107,-0.5832632142985975
9739,13.0,299.8622,25662.735,0.0,-0.048694743426920595,-0.04869408088468552,0.0,0.0,0.0,-1.9076482937452284,-3.004660334461887,-2.8885219119749173,0.00966976275025628,0.0009625927828405109,-0.5789143347368965
9740,13.0,299.95322000000004,25679.054,0.0,-0.048699724925601484,-0.0486990830948727,0.0,0.0,0.0,-1.9024102973532784,-3.005032703873637,-2.898348107469687,0.005304029495666955,-0.0002756206242366377,-0.5825312930888624
9741,13.0,299.83682000000005,25676.116,0.0,-0.04870473941433984,-0.048704085305059874,0.0,0.0,0.0,-1.8999321915837082,-3.0046349018843768,-2.9003310379153873,0.0007483599361773752,-0.006345609967137943,-0.5737289260251365
9742,13.0,299.87625,25629.675,0.0,-0.0487097539030783,-0.04870908751524683,0.0,0.0,0.0,-1.8964047640105783,-3.006052033474237,-2.888324530855437,-0.002165494302342648,0.00024023615755696277,-0.5805214304555045
9743,13.0,300.00608,25672.499,0.0,-0.04871473540175919,-0.04871408972543401,0.0,0.0,0.0,-1.9040165014117982,-3.007954815837027,-2.8918274377761475,-0.008426625150343151,0.004093060661253636,-0.5762699748909185
9744,13.0,300.09584,25733.394,0.0,-0.04871974989049754,-0.04871909193562096,0.0,0.0,0.0,-1.9189107712567481,-3.010164410330097,-2.8932341328899773,-0.004826778768715976,0.002655774412329528,-0.5796113494806864
9745,13.0,300.03871000000004,25693.135,0.0,-0.048724731389178655,-0.04872409414580814,0.0,0.0,0.0,-1.9031663845778983,-3.012241573035097,-2.894663626131057,-0.007279519848532674,0.003986147475627126,-0.5800636643253264
9746,13.0,300.04667,25619.613999999998,0.0,-0.0487297458779169,-0.048729096355995205,0.0,0.0,0.0,-1.8867554819832684,-3.003790357926027,-2.897177094329117,0.0004016548525002476,0.002878405926951547,-0.5801273268291095
9747,13.0,299.79885,25648.499,0.0,-0.04873472737659801,-0.04873409856618216,0.0,0.0,0.0,-1.8919626755721783,-3.0096042856748175,-2.8949361904079574,-0.004629064897903135,-0.004013566935258216,-0.5891762480396685
9748,13.0,300.02813,25705.852000000003,0.0,-0.04873974186533625,-0.04873910077636934,0.0,0.0,0.0,-1.9023849661007783,-3.009047200769837,-2.902505067329947,-0.002685949810907607,-0.005941165312872364,-0.5855049794823425
9749,13.0,300.23832000000004,25672.617000000002,0.0,-0.04874472336401725,-0.04874410298655629,0.0,0.0,0.0,-1.905927896400438,-3.0097598195651676,-2.8881470094379176,-0.0009085074176777009,-0.005409741169324885,-0.5939641384721964
9750,13.0,300.09161,25636.333,0.0,-0.048749737852755715,-0.04874910519674347,0.0,0.0,0.0,-1.8985298534453086,-3.009139102553907,-2.8851361367657673,0.007659128222972102,0.00014186313013330086,-0.5884870454541494
9751,13.0,299.90767999999997,25686.31,0.0,-0.04875475234149396,-0.04875407449765301,0.0,0.0,0.0,-1.901361988799818,-3.007914792458077,-2.8987202742314175,0.003187900940846327,0.0034095503121464167,-0.5861391524549304
9752,13.0,299.97665,25738.076,0.0,-0.048759733840174846,-0.048759076707839966,0.0,0.0,0.0,-1.9008706638263284,-3.020033263654077,-2.9028284967618676,0.0011510674136765088,0.0034415522966797668,-0.5805504499383685
9753,13.0,299.7171,25737.236,0.0,-0.04876474832891342,-0.04876407891802714,0.0,0.0,0.0,-1.904657584750068,-3.0148790630453974,-2.903940538746617,-0.004901356002576175,0.00035855222676134965,-0.5794155085013585
9754,13.0,299.94616,25741.806,0.0,-0.04876972982759409,-0.04876908112821432,0.0,0.0,0.0,-1.9090342172320083,-3.013609055370057,-2.902222978502107,0.0002037459411756588,0.0026036049004557974,-0.5742681270658515
9755,13.0,299.90927999999997,25710.874,0.0,-0.04877474431633255,-0.048774083338401275,0.0,0.0,0.0,-1.913854551932738,-3.010749359612827,-2.8908598852556575,-0.003554375972789596,-0.0014234712930856785,-0.5776684728114395
9756,13.0,300.0477,25740.713,0.0,-0.04877972581501344,-0.04877908554858845,0.0,0.0,0.0,-1.913406594063528,-3.012245626035497,-2.898881684972347,-0.004811552862113296,-0.005986198402966785,-0.5789354711339825
9757,13.0,300.16064,25801.386000000002,0.0,-0.048784740303751795,-0.04878408775877552,0.0,0.0,0.0,-1.917748776042068,-3.019379616014567,-2.905848590009927,-0.005883082574740045,-0.004593284199771856,-0.5836361106003994
9758,13.0,300.1174,25759.9,0.0,-0.048789721802432906,-0.048789089968962585,0.0,0.0,0.0,-1.9053204529654881,-3.014348119992997,-2.910697701013497,-0.0014202469286174585,-0.0016917350325862481,-0.5811482674973685
9759,13.0,300.07241,25687.384,0.0,-0.04879473629117115,-0.04879409217914976,0.0,0.0,0.0,-1.896971778766538,-3.014225010105847,-2.8971265331491267,0.0046894899662916255,-0.0022457058147089077,-0.5890966673768144
9760,13.0,300.11331,25723.821,0.0,-0.0487997507799095,-0.04879909438933683,0.0,0.0,0.0,-1.905783508261188,-3.017543404183347,-2.896072347745087,0.006810619619630823,-0.0037371142097744566,-0.5894544662521265
9761,13.0,299.98462,25751.312,0.0,-0.0488047322785905,-0.048804096599524005,0.0,0.0,0.0,-1.9211300929507784,-3.0127777849880175,-2.8938479598005573,0.010898240445072592,0.0003846495976619597,-0.5877725420136335
9762,13.0,299.80656,25694.22,0.0,-0.048809746767328854,-0.04880909880971096,0.0,0.0,0.0,-1.9013998843535582,-3.0149141214988573,-2.894087188149167,0.004874535475079196,0.001764112601804358,-0.5851224674370915
9763,13.0,299.83969,25705.775,0.0,-0.048814728266009966,-0.048814101019897915,0.0,0.0,0.0,-1.8989160030584182,-3.0204245808426973,-2.8945730415721176,0.0014654689898555286,0.007104771595211362,-0.5843610099869414
9764,13.0,299.9279,25788.013,0.0,-0.04881974275474821,-0.04881910323008509,0.0,0.0,0.0,-1.9056129782693583,-3.0179962256530373,-2.9153027200679773,-0.009568854287372391,0.0018823467294731581,-0.5785524423311804
9765,13.0,299.99849,25792.261000000002,0.0,-0.0488247242534291,-0.04882407253099463,0.0,0.0,0.0,-1.905918777149538,-3.0273917898553075,-2.906892744237977,-0.004724849456356335,0.0016995751565600083,-0.5865384844518414
9766,13.0,300.05469,25789.576,0.0,-0.04882973874216767,-0.04882907474118159,0.0,0.0,0.0,-1.9077381690290982,-3.0255426084228074,-2.906106259510357,-0.009226466338131331,-0.002104584089806278,-0.5870592240757345
9767,13.0,300.19319,25815.498,0.0,-0.048834753230905914,-0.048834076951368766,0.0,0.0,0.0,-1.920773834215618,-3.020624089787387,-2.905868956336937,0.0016844734744195882,-0.004520339413147766,-0.5869654072489755
9768,13.0,300.28123999999997,25783.745,0.0,-0.0488397347295868,-0.04883907916155572,0.0,0.0,0.0,-1.9118222762071682,-3.021770480950527,-2.9040220040546574,0.0015413404480684584,-0.0025023841538910877,-0.5901874513744665
9769,13.0,300.17434,25699.861,0.0,-0.04884474921832527,-0.0488440813717429,0.0,0.0,0.0,-1.8992395338153483,-3.0123390476947174,-2.9005374369607573,0.005120936925122125,-0.00034987849179781864,-0.5891948411790034
9770,13.0,299.95311,25732.754,0.0,-0.048849730717006046,-0.048849083581929964,0.0,0.0,0.0,-1.9038245918428582,-3.014585119191387,-2.903704856773357,0.002235658730692338,0.0018050136579909784,-0.5850757768724835
9771,13.0,299.95473,25759.311,0.0,-0.04885474520574451,-0.04885408579211714,0.0,0.0,0.0,-1.9083904994434784,-3.0178674415653273,-2.9039293929955177,0.0018504284393980682,0.004177442001756426,-0.5845817769187295
9772,13.0,300.04505,25745.966,0.0,-0.0488597267044254,-0.04885908800230421,0.0,0.0,0.0,-1.909883118165788,-3.016251307655827,-2.8999961587573373,0.0044441464506781055,0.0034156864534270067,-0.5861015811412225
9773,13.0,299.96137999999996,25813.32,0.0,-0.04886474119316375,-0.048864090212491273,0.0,0.0,0.0,-1.9235910747936584,-3.017598524988787,-2.9054150202921374,0.0045695977561591855,-0.0005195568165212654,-0.5807679542048345
9774,13.0,299.88403,25886.827,0.0,-0.04886972269184475,-0.04886909242267845,0.0,0.0,0.0,-1.923238058458818,-3.025731376916437,-2.9199795785545475,-0.001160390429171619,0.0032272235560271666,-0.5776931150538714
9775,13.0,299.93439,25842.365,0.0,-0.048874737180583105,-0.048874094632865406,0.0,0.0,0.0,-1.9095977869376282,-3.023091252455877,-2.9227446367524372,-0.0020510221696451282,0.0006522363949032204,-0.5790951492172414
9776,13.0,299.82356,25845.932999999997,0.0,-0.04887975166932135,-0.04887909684305258,0.0,0.0,0.0,-1.9126827281920882,-3.0233357497050073,-2.920499781155887,-0.002826000530454537,0.002928338182604477,-0.5843846085817704
9777,13.0,299.70682999999997,25847.397,0.0,-0.04888473316800246,-0.04888409905323954,0.0,0.0,0.0,-1.9143040296770981,-3.0252478539687173,-2.9174115975011072,-0.0036328883660631667,0.0018567946897763681,-0.5847170964695844
9778,13.0,299.50092,25727.111,0.0,-0.04888974765674092,-0.04888910126342649,0.0,0.0,0.0,-1.9049721989061184,-3.016339055114487,-2.899088185342727,-0.002894084655023917,-0.002059263236683458,-0.5952321601773404
9779,13.0,299.827,25756.975,0.0,-0.04889472915542181,-0.048894070564336256,0.0,0.0,0.0,-1.9073189874627283,-3.021755788824077,-2.900402370722427,-0.004077869407804376,-0.005106358384008336,-0.5904591239912785
9780,13.0,299.84688,25826.263,0.0,-0.048899743644160165,-0.04889907277452343,0.0,0.0,0.0,-1.9135584802535182,-3.023955757441197,-2.9130247311931576,0.0005512078517499795,-0.0013909657232526289,-0.5941271602807854
9781,13.0,299.93023999999997,25784.813,0.0,-0.048904725142841055,-0.04890407498471039,0.0,0.0,0.0,-1.906331980540318,-3.025879716731077,-2.905727709272997,0.003316007265564437,0.001426328861017699,-0.5884587555113574
9782,13.0,299.94083,25752.363999999998,0.0,-0.04890973963157952,-0.048909077194897344,0.0,0.0,0.0,-1.900668520431378,-3.0215141286752267,-2.9058929703643073,0.006688431182121763,0.0005398644560854735,-0.5916928269155355
9783,13.0,300.02334,25848.827999999998,0.0,-0.0489147211302603,-0.04891407940508441,0.0,0.0,0.0,-1.916736741842188,-3.026173457935067,-2.914488168312587,0.004362572724877405,0.00037270865801598065,-0.5858633255127085
9784,13.0,300.08943999999997,25889.635,0.0,-0.04891973561899876,-0.04891908161527159,0.0,0.0,0.0,-1.9235220724618483,-3.033839505541647,-2.912440896485537,0.007076871855032874,-0.00030135561637148375,-0.5878024632890865
9785,13.0,300.15735,25839.514,0.0,-0.048924750107737225,-0.048924083825458764,0.0,0.0,0.0,-1.9169306779113284,-3.024796552374177,-2.9128399143749175,0.003714960104288017,-0.003821459883873726,-0.5846782788582534
9786,13.0,299.77052000000003,25832.578999999998,0.0,-0.048929731606418,-0.04892908603564572,0.0,0.0,0.0,-1.9121282777373683,-3.027497370515727,-2.9128333282492678,-0.005642447227041184,-0.0018961239924078683,-0.5843414643925124
9787,13.0,299.75596,25859.667999999998,0.0,-0.04893474609515647,-0.048934088245832896,0.0,0.0,0.0,-1.9198307010225382,-3.022653123112637,-2.9182094306298474,-0.008511942024663271,-0.004893589136584646,-0.5846401907869944
9788,13.0,299.723,25853.147999999997,0.0,-0.04893972759383736,-0.04893909045601985,0.0,0.0,0.0,-1.9127976307534282,-3.030310254118337,-2.9156035540226677,-0.00920116913083469,0.000952431039442625,-0.5904304692784504
9789,13.0,299.72603,25849.535,0.0,-0.0489447420825756,-0.04894409266620703,0.0,0.0,0.0,-1.9181260090542982,-3.026323216299847,-2.9131639517568972,-0.009146187039333382,0.003985214778910077,-0.5919713997655284
9790,13.0,299.93601,25870.2,0.0,-0.04894972358125671,-0.048949094876394206,0.0,0.0,0.0,-1.9270849637884784,-3.023483684219607,-2.9133260717728975,-0.001094248907693959,0.0012669182757850989,-0.5856736146964855
9791,13.0,300.10367,25801.897,0.0,-0.048954738069995174,-0.04895409708658116,0.0,0.0,0.0,-1.9138229385296182,-3.0255456481731073,-2.9037636252791574,0.003907273250742846,-0.00023370945902532775,-0.5907686921618305
9792,13.0,299.93147,25854.745,0.0,-0.04895975255873353,-0.04895909929676834,0.0,0.0,0.0,-1.9155427279243482,-3.029237728887487,-2.914416328880497,0.004897392066859965,0.0013200704376058088,-0.5832689898241674
9793,13.0,300.01249,25930.714,0.0,-0.048964734057414416,-0.04896406859767788,0.0,0.0,0.0,-1.9239522984543083,-3.034488694880717,-2.9238486740613974,0.011299128794137189,-4.436713247944506e-05,-0.5865635725243175
9794,13.0,300.15677,25883.27,0.0,-0.04896974854615288,-0.048969070807864834,0.0,0.0,0.0,-1.910965370597598,-3.037592279937017,-2.919310124213477,-0.0027913698711867574,-0.001898165286059328,-0.5889581459556434
9795,13.0,300.17339,25874.02,0.0,-0.04897473004483377,-0.04897407301805201,0.0,0.0,0.0,-1.919029828143498,-3.0367122722251674,-2.9093139053519272,-0.001035334291229539,-0.0017426796264140884,-0.5898296221016515
9796,13.0,300.1693,25957.868,0.0,-0.04897974453357212,-0.048979075228238966,0.0,0.0,0.0,-1.922648954850678,-3.042759146171947,-2.925135501688397,-0.0075226002700478425,0.0026113070197659374,-0.5900002331534895
9797,13.0,299.81118,25891.595,0.0,-0.04898472603225301,-0.04898407743842603,0.0,0.0,0.0,-1.9108599925871983,-3.036377494392127,-2.9231607785685076,-0.003032026598462727,0.002785675101649727,-0.5882657111023054
9798,13.0,299.87053,25822.437,0.0,-0.048989740520991476,-0.04898907964861321,0.0,0.0,0.0,-1.899785776944258,-3.029954805983257,-2.919635478820587,-0.009865761897924891,-0.003732306642024986,-0.5919342438843614
9799,13.0,299.86027,25891.305,0.0,-0.04899472201967214,-0.048994081858800165,0.0,0.0,0.0,-1.9132330243213982,-3.034299217112017,-2.922777972680727,-0.0004024476801734936,-0.003065011131618047,-0.5906764357402254
9800,13.0,299.74773999999996,25855.987999999998,0.0,-0.04899973650841072,-0.04899908406898734,0.0,0.0,0.0,-1.907932915698318,-3.027528071993757,-2.924113740287557,-0.002968738997216727,0.0008120905404995964,-0.5878856308572945
9801,13.0,299.85766,25796.257,0.0,-0.04900475099714918,-0.0490040862791743,0.0,0.0,0.0,-1.9144295713644883,-3.0268057259974674,-2.9001825967757373,0.005209924500579515,-0.0032171227697552966,-0.5899394888099945
9802,13.0,300.01799,25887.868,0.0,-0.04900973249582985,-0.049009088489361474,0.0,0.0,0.0,-1.9174669911892581,-3.0318902149992675,-2.919908144422497,0.0008049905754588841,-0.008046756269303013,-0.5878177025705905
9803,13.0,300.06761,25966.632999999998,0.0,-0.049014746984568425,-0.04901409069954865,0.0,0.0,0.0,-1.9338985640859283,-3.028633527852857,-2.930676054560207,0.008362849973149032,0.0007695854486096703,-0.5803815208816965
9804,13.0,300.20151,25952.158,0.0,-0.049019728483249425,-0.049019092909735607,0.0,0.0,0.0,-1.922583498894218,-3.0414557012433074,-2.9247687051521973,0.0033606897711242565,0.0029719266820313274,-0.5876790291619044
9805,13.0,299.92569,25946.327999999998,0.0,-0.04902474297198778,-0.049024095119922784,0.0,0.0,0.0,-1.9247978556627583,-3.035201313676047,-2.927036662851027,0.007186743224326333,-0.0019876995099456685,-0.5837813093397295
9806,13.0,299.8975,25970.447,0.0,-0.04902972447066867,-0.04902909733010974,0.0,0.0,0.0,-1.923074013267628,-3.0437557789703074,-2.9275375123754572,-0.0002938977815279527,-0.005274828843685075,-0.5930684659138005
9807,13.0,299.95366,25918.093999999997,0.0,-0.04903473895940713,-0.049034099540296916,0.0,0.0,0.0,-1.926598299765448,-3.033752872658097,-2.9181022287692677,0.0025513110627947973,0.001118194540682209,-0.5896559510345115
9808,13.0,299.77081,25873.589,0.0,-0.04903972045808802,-0.04903906884120646,0.0,0.0,0.0,-1.9133254327305182,-3.036294914508977,-2.915304746568177,0.0013563711356884087,0.007212055630374473,-0.5985546781827474
9809,13.0,299.71436,25877.338,0.0,-0.049044734946826374,-0.04904407105139341,0.0,0.0,0.0,-1.9150406624997982,-3.0312169103078173,-2.919807022062517,-0.0076829942145024924,0.004261908049967576,-0.5906974201497964
9810,13.0,300.00257999999997,25848.686,0.0,-0.04904974943556484,-0.04904907326158059,0.0,0.0,0.0,-1.911598955885128,-3.0273821639793574,-2.9183741850961074,-0.004072936703667557,-0.0034089324322354366,-0.5953903589154534
9811,13.0,300.16013,25898.466,0.0,-0.04905473093424573,-0.049054075471767766,0.0,0.0,0.0,-1.915052821500998,-3.036788569957697,-2.920645790495297,-0.006775352234000203,-0.004428295064788696,-0.5886959370947654
9812,13.0,300.21787,26018.972999999998,0.0,-0.04905974542298408,-0.04905907768195483,0.0,0.0,0.0,-1.9328811596605182,-3.0492542819629675,-2.9269828592707174,0.004597534277316306,-0.0026534870002287774,-0.5936522398264144
9813,13.0,300.1102,26024.497000000003,0.0,-0.04906472692166497,-0.04906407989214179,0.0,0.0,0.0,-1.940279101290638,-3.042109450207827,-2.9284085021614175,0.004081054154193686,-0.007935811766828641,-0.5830804645105614
9814,13.0,300.117,25985.648999999998,0.0,-0.049069741410403434,-0.04906908210232874,0.0,0.0,0.0,-1.9248929998471482,-3.0511774306527673,-2.922917902519537,0.006287041882207724,-0.0017909645400544382,-0.5961327875287254
9815,13.0,300.08241,26008.304,0.0,-0.0490747229090841,-0.04907408431251592,0.0,0.0,0.0,-1.9292343712256084,-3.0455711178494673,-2.9310697022240575,0.0024883704997080472,0.006081946991041433,-0.5852275212074595
9816,13.0,299.89345,25983.746,0.0,-0.049079737397822565,-0.0490790865227031,0.0,0.0,0.0,-1.9279416667480282,-3.040272427776527,-2.930195976662827,0.008612380542150782,0.007370754812711862,-0.5932617028403714
9817,13.0,299.90233,25930.502999999997,0.0,-0.04908475188656114,-0.04908408873289005,0.0,0.0,0.0,-1.9184623067624882,-3.041706277993037,-2.9220568425845572,-0.002117464322427458,-0.003601945835834376,-0.5912091013177955
9818,13.0,299.95435,25888.898999999998,0.0,-0.04908973338524203,-0.04908909094307723,0.0,0.0,0.0,-1.9215735925195483,-3.031375382623457,-2.916629875048957,-0.00025269282123883974,-0.008074301777246542,-0.5903574240787415
9819,13.0,299.89936,25914.446,0.0,-0.04909474787398027,-0.049094093153264295,0.0,0.0,0.0,-1.9254646755535683,-3.033968694929397,-2.9179110284753973,-0.004438012538547736,-0.003156970974918777,-0.5817047647172904
9820,13.0,299.83689,25944.592999999997,0.0,-0.04909972937266138,-0.04909909536345136,0.0,0.0,0.0,-1.9188185654976482,-3.0400690684814573,-2.927620801533677,-0.0023619803166843078,0.005174654581823645,-0.5904016119156025
9821,13.0,299.94481,26019.947999999997,0.0,-0.049104743861399736,-0.04910409757363854,0.0,0.0,0.0,-1.9321739110907181,-3.044589481152587,-2.932651182980137,-0.004895031903402035,0.0034993284253318265,-0.5862711181479544
9822,13.0,300.04249,26047.091,0.0,-0.049109725360080625,-0.04910906687454797,0.0,0.0,0.0,-1.9323459609576983,-3.051180065103027,-2.9341393434020073,-0.006192247978377295,0.004686872133333266,-0.5921586889140125
9823,13.0,300.20512,25998.925,0.0,-0.04911473984881909,-0.049114069084735035,0.0,0.0,0.0,-1.9275549091848583,-3.0472182572120268,-2.9282506377958373,-0.0027040092714149372,0.009234323788681801,-0.5882166393999624
9824,13.0,300.06285,25974.784,0.0,-0.04911972134749998,-0.04911907129492221,0.0,0.0,0.0,-1.9242274971814683,-3.048356238399337,-2.923101908737697,0.005803686526054265,0.004864915779954805,-0.5966809659653264
9825,13.0,300.11066,26017.607999999997,0.0,-0.04912473583623833,-0.04912407350510928,0.0,0.0,0.0,-1.9342308087937181,-3.045374648655077,-2.929097714879437,0.003015170068474117,-0.007076657046011675,-0.5897674592080164
9826,13.0,300.13428,25981.857999999997,0.0,-0.049129750324976795,-0.049129075715296455,0.0,0.0,0.0,-1.917368807254568,-3.048705100408767,-2.9317621573423973,0.004999582797745405,-0.010174265142621791,-0.5951311999373764
9827,13.0,300.12877000000003,25908.409,0.0,-0.049134731823657685,-0.04913407792548341,0.0,0.0,0.0,-1.908092806564098,-3.0447387328923177,-2.9226777622458373,0.0062253418412184045,-0.0014952566176203385,-0.5938702000554255
9828,13.0,299.90852,25944.609,0.0,-0.04913974631239593,-0.049139080135670365,0.0,0.0,0.0,-1.9082367894033083,-3.046046129496347,-2.9322303802136074,0.0002488500601020888,0.005311409401445295,-0.5950113223180454
9829,13.0,299.61622,26001.455,0.0,-0.049144727811076816,-0.04914408234585754,0.0,0.0,0.0,-1.9244727037056681,-3.0467726298180473,-2.932547831469937,-0.003812572363271596,0.00034041672183401467,-0.5907530374477854
9830,13.0,299.80365,26010.693,0.0,-0.04914974229981539,-0.0491490845560445,0.0,0.0,0.0,-1.9283044102838283,-3.046230844989577,-2.932065929722377,-0.0019883741318622483,-0.004489006173680416,-0.5889954335593234
9831,13.0,299.98545,25999.257999999998,0.0,-0.04915472379849628,-0.049154086766231675,0.0,0.0,0.0,-1.9312367560732282,-3.043072341777857,-2.9288162340016575,0.0006604801673193173,0.0029065993070090173,-0.5854241221243625
9832,13.0,299.87597,26005.683999999997,0.0,-0.04915973828723452,-0.04915908897641874,0.0,0.0,0.0,-1.9237157045559583,-3.049716627983597,-2.931646444180977,-0.002260792500747848,0.002665176765307467,-0.5879341047420785
9833,13.0,300.09547000000003,26052.363999999998,0.0,-0.049164719785915634,-0.04916409118660592,0.0,0.0,0.0,-1.937109249677798,-3.051066885066857,-2.9310920950512673,-0.0025539848271586775,-0.0017094859584381285,-0.5903810733360755
9834,13.0,300.12663,26088.857000000004,0.0,-0.04916973427465399,-0.049169093396792984,0.0,0.0,0.0,-1.9347139264413982,-3.053548030586727,-2.942099132212577,-0.0014621912271070387,0.00031537758933784473,-0.5918824364067484
9835,13.0,300.09153,26068.322,0.0,-0.04917474876339223,-0.04917409560698005,0.0,0.0,0.0,-1.9448689215936183,-3.050470891358037,-2.9287792503730072,0.0025656070084556976,0.007948208881802143,-0.5906935799319174
9836,13.0,300.20014,25995.697999999997,0.0,-0.04917973026207334,-0.04917906490788959,0.0,0.0,0.0,-1.9268186816621984,-3.0431472209602473,-2.9320769741484676,0.003004987918219217,0.0007126149247146174,-0.5922744932679415
9837,13.0,300.24754,25976.694,0.0,-0.04918474475081158,-0.04918406711807677,0.0,0.0,0.0,-1.9222352448348483,-3.044377914531707,-2.9296531785842572,-0.0015783290416439485,-0.006964994554516443,-0.5909141340811844
9838,13.0,300.15738999999996,26028.674,0.0,-0.04918972624949247,-0.049189069328263724,0.0,0.0,0.0,-1.9220791029944382,-3.045786636145737,-2.944201119545027,0.0037059866600774065,-0.0042276050757821355,-0.5915508300465215
9839,13.0,300.13136000000003,26050.11,0.0,-0.049194740738231046,-0.0491940715384509,0.0,0.0,0.0,-1.9301978707456982,-3.050026074564137,-2.938358820793437,0.001027302662986879,0.0026464102588803573,-0.5926507940900795
9840,13.0,299.92281,26017.337000000003,0.0,-0.049199722236911936,-0.049199073748637856,0.0,0.0,0.0,-1.9206743330557983,-3.0543267132885767,-2.933619850075737,-0.0034472301449401267,-0.00026161970660735476,-0.5969970797315245
9841,13.0,300.04984,26030.172000000002,0.0,-0.04920473672565018,-0.04920407595882503,0.0,0.0,0.0,-1.9369471296617982,-3.049147586727437,-2.926427598215917,-0.009661836803999051,-0.0027672670831079974,-0.5917527606589504
9842,13.0,299.99606,26060.68,0.0,-0.04920975121438875,-0.04920907816901221,0.0,0.0,0.0,-1.9290818770855582,-3.0592506021495267,-2.9334635055853076,-0.002889880984334047,-0.002050969277989908,-0.5959612240217934
9843,13.0,299.78185,26059.612999999998,0.0,-0.04921473271306964,-0.049214080379199165,0.0,0.0,0.0,-1.9332404581459783,-3.0567590201536268,-2.9314722664887873,-0.0015586501035017887,0.0031353271421826973,-0.5924801526407385
9844,13.0,299.82931,26094.601000000002,0.0,-0.049219747201807884,-0.04921908258938612,0.0,0.0,0.0,-1.9324721105951481,-3.056850719287677,-2.942784393255207,0.0024922735390932476,-0.0035025832886280564,-0.5922896413569364
9845,13.0,300.12331,26060.587000000003,0.0,-0.049224728700488773,-0.04922408479957319,0.0,0.0,0.0,-1.9309904349739182,-3.0518188179660672,-2.938958563527627,-0.0033105680377026273,-0.008304025434618502,-0.5918499820060454
9846,13.0,300.20617999999996,26010.905,0.0,-0.04922974318922724,-0.049229087009760364,0.0,0.0,0.0,-1.9227040756561182,-3.048101304674177,-2.9358603486968575,0.003033583558566387,-0.0011143378068265788,-0.5933549927770785
9847,13.0,300.17992000000004,26072.146,0.0,-0.04923472468790813,-0.04923408921994754,0.0,0.0,0.0,-1.939812803594618,-3.049654110452427,-2.935814549792337,0.0033805313359074663,0.006694436310164424,-0.5899389213899385
9848,13.0,300.00225,26123.833,0.0,-0.0492397391766467,-0.049239091430134496,0.0,0.0,0.0,-1.9421941439796382,-3.054381732769007,-2.9444170431413372,0.0036584263215835664,0.0009484295526777091,-0.5918846655569684
9849,13.0,300.11339,26096.552000000003,0.0,-0.04924472067532759,-0.04924409364032167,0.0,0.0,0.0,-1.9337188135181882,-3.057240009976097,-2.9417412522772572,-0.005749623351068644,-0.00974487346029413,-0.5928797987451805
9850,13.0,299.96893,26052.375,0.0,-0.04924973516406583,-0.04924909585050863,0.0,0.0,0.0,-1.9230009579354184,-3.057006455828047,-2.9392642610827973,0.0019225830935941783,-0.004536486364091345,-0.5912177038111444
9851,13.0,299.92982,26121.286,0.0,-0.04925474965280441,-0.04925406515141817,0.0,0.0,0.0,-1.9331080263579083,-3.061052667452377,-2.9460581030032973,-0.0008684184510487281,0.0026077615563410276,-0.5929557013101715
9852,13.0,299.80017999999995,26142.252,0.0,-0.0492597311514853,-0.049259067361605346,0.0,0.0,0.0,-1.9410480567915283,-3.0578143201327768,-2.9477294590432472,0.001811301381486528,0.0013030477346007987,-0.5898371910798984
9853,13.0,300.0063,26106.014,0.0,-0.04926474564022354,-0.0492640695717923,0.0,0.0,0.0,-1.939977051435828,-3.057413883693257,-2.9381853523763173,-0.004339916047341366,-0.003289471157370527,-0.5905538628756284
9854,13.0,300.02879,26093.789,0.0,-0.04926972713890443,-0.04926907178197948,0.0,0.0,0.0,-1.9321512142884782,-3.054847726489997,-2.9448613533101873,8.258872274387233e-06,0.007388807788418553,-0.5906502736226434
9855,13.0,300.21461,26098.533,0.0,-0.04927474162764289,-0.049274073992166656,0.0,0.0,0.0,-1.9333903178357683,-3.0563879679670074,-2.9435240658282074,-0.0011928734035274388,0.007971648801665482,-0.5951563082748544
9856,13.0,300.12742000000003,26127.39,0.0,-0.04927972312632389,-0.04927907620235361,0.0,0.0,0.0,-1.9283902325672981,-3.064024935295717,-2.949659193858697,0.0021507875850912076,0.00028969593468826274,-0.5995430428602915
9857,13.0,300.15766,26154.307999999997,0.0,-0.049284737615062135,-0.04928407841254079,0.0,0.0,0.0,-1.9390156797409484,-3.0630647795009573,-2.9481759983623177,0.0009316341216701291,-0.0023905326912522077,-0.5983272744628044
9858,13.0,299.8815,26112.214,0.0,-0.049289719113743025,-0.04928908062272774,0.0,0.0,0.0,-1.9332696397488585,-3.0606996511175373,-2.943491844475027,0.0030189888054509974,-0.003061032706425407,-0.5980228333377584
9859,13.0,299.83408,26067.695,0.0,-0.04929473360248149,-0.04929408283291481,0.0,0.0,0.0,-1.934048018475678,-3.0586475156900073,-2.931232734165147,0.004382697189088535,-0.0015217776283877587,-0.5965306503129915
9860,13.0,299.81186,26138.074,0.0,-0.04929974809121984,-0.04929908504310199,0.0,0.0,0.0,-1.930475399948088,-3.065077803474627,-2.949768624869497,-0.0003026572273174427,-0.0045806045906704755,-0.5958878545820524
9861,13.0,299.91868,26198.275,0.0,-0.04930472958990073,-0.04930408725328894,0.0,0.0,0.0,-1.942899163399218,-3.0660425188948373,-2.954679848104197,0.001110288150151909,-0.005208780743866635,-0.5930442391039094
9862,13.0,299.90727000000004,26124.901,0.0,-0.049309744078639195,-0.04930908946347612,0.0,0.0,0.0,-1.9292881748059183,-3.062013836497237,-2.950015655243877,4.737964357700675e-05,0.002705804953242157,-0.5920298440312964
9863,13.0,299.67092,26081.891,0.0,-0.049314725577320084,-0.049314091673663074,0.0,0.0,0.0,-1.9341338407591482,-3.056488887676967,-2.9376207694205974,0.00036539657919933464,0.006989679454777653,-0.5929790060624714
9864,13.0,299.78733,26129.874,0.0,-0.04931974006605866,-0.04931909388385025,0.0,0.0,0.0,-1.937709803012068,-3.0591588016904674,-2.945960729668687,0.002870995826320227,-0.002074089112146658,-0.5917851643971485
9865,13.0,299.93424,26156.854,0.0,-0.04932472156473955,-0.04932406318475979,0.0,0.0,0.0,-1.9456054530913083,-3.061778661149027,-2.943646466440287,0.001991990826769188,-0.003097229445047747,-0.5935968555759484
9866,13.0,299.91524,26146.484,0.0,-0.04932973605347779,-0.04932906539494675,0.0,0.0,0.0,-1.9327186343444782,-3.064125247055617,-2.9510345795444373,0.000978721495282291,0.0036320616553065766,-0.5933545570795354
9867,13.0,299.90713999999997,26134.924,0.0,-0.049334750542216255,-0.049334067605133924,0.0,0.0,0.0,-1.937388400080348,-3.0624425426145474,-2.9445334655778272,0.002107344791028738,0.0036661560012964263,-0.5997719563228835
9868,13.0,299.95219,26130.407000000003,0.0,-0.049339732040897144,-0.0493390698153211,0.0,0.0,0.0,-1.9294305364449682,-3.064949222036937,-2.948611493255297,-0.0015915825556019685,0.0017420598213279184,-0.5973505114989054
9869,13.0,300.01722,26144.173,0.0,-0.0493447465296355,-0.04934407202550806,0.0,0.0,0.0,-1.943527074486188,-3.060732176445747,-2.9429166223932572,-0.0005221739503370566,-0.003770377893332327,-0.6013673794003395
9870,13.0,300.20333999999997,26226.043999999998,0.0,-0.049349728028316386,-0.049349074235695234,0.0,0.0,0.0,-1.945002163981768,-3.068451521007587,-2.958608928016967,0.001878344695553188,0.0003991053733936336,-0.5904399634318874
9871,13.0,299.95661,26188.111,0.0,-0.04935474251705485,-0.04935407644588219,0.0,0.0,0.0,-1.9445761936397283,-3.066813602220937,-2.9491419296826473,-0.0040208547366024664,-0.0005908275214626365,-0.5930361736331133
9872,13.0,299.97717,26130.825,0.0,-0.04935972401573574,-0.049359078656069366,0.0,0.0,0.0,-1.9252100458034378,-3.064647172182127,-2.953260993989167,-0.005347365290518865,-0.004597168696680225,-0.5881373424471364
9873,13.0,299.97997000000004,26151.487,0.0,-0.04936473850447409,-0.04936408086625654,0.0,0.0,0.0,-1.9372818061698283,-3.065413695882777,-2.9467035433169975,0.00011118940502353992,-0.0031302963554361973,-0.5946974174370655
9874,13.0,300.03607999999997,26209.106,0.0,-0.04936972000315498,-0.04936908307644361,0.0,0.0,0.0,-1.939484713212238,-3.070139494349177,-2.957289473736747,0.006847045048800734,0.004665727326271436,-0.5924841043161284
9875,13.0,299.99272,26186.19,0.0,-0.049374734491893446,-0.049374085286630565,0.0,0.0,0.0,-1.9423575812207683,-3.0729675767032867,-2.944622631586627,0.007114149630186903,0.004023386544627337,-0.6020705547047374
9876,13.0,299.94439,26160.058999999997,0.0,-0.0493797489806318,-0.04937908749681752,0.0,0.0,0.0,-1.9365781039753782,-3.069171941828687,-2.946254572197687,0.0024070571791830475,-0.002739923617234407,-0.6012511596138694
9877,13.0,299.83132,26173.174,0.0,-0.0493847304793128,-0.0493840897070047,0.0,0.0,0.0,-1.937580309649288,-3.0706546307000173,-2.947756411495907,0.0009180580699402772,-0.005387399308594915,-0.6009291689970915
9878,13.0,299.93675,26185.479,0.0,-0.04938974496805115,-0.049389091917191874,0.0,0.0,0.0,-1.934412889836688,-3.0702842877884673,-2.9550345869642074,-0.003121295756122907,-0.0004159581036943686,-0.5975909050851305
9879,13.0,300.13282000000004,26217.007999999998,0.0,-0.04939472646673204,-0.04939406121810119,0.0,0.0,0.0,-1.9457188357774982,-3.067846306722857,-2.9557506508098768,-0.0012788166690593788,0.004367366613750526,-0.5959771523133653
9880,13.0,300.25464,26210.231,0.0,-0.049399740955470506,-0.04939906342828837,0.0,0.0,0.0,-1.944947144501338,-3.0653701261284767,-2.956938281252087,-0.006649047974584943,0.0024455639253833676,-0.5931723645790544
9881,13.0,300.1317,26170.153,0.0,-0.049404722454151395,-0.04940406563847555,0.0,0.0,0.0,-1.9464807998526983,-3.061116806183707,-2.947475437243177,-0.004857891930261605,0.000995375962935959,-0.5940275273984524
9882,13.0,300.21727999999996,26236.252,0.0,-0.04940973694288975,-0.0494090678486625,0.0,0.0,0.0,-1.9444949309817083,-3.0701277406480174,-2.960542817157827,0.0034057386679202366,0.005695918663968405,-0.5918649274450204
9883,13.0,300.17432,26294.824,0.0,-0.04941471844157064,-0.04941407005884968,0.0,0.0,0.0,-1.9484782197748283,-3.0762656044537766,-2.9682259886910973,0.0033263897353641068,-0.0003093487107128407,-0.5903236524529084
9884,13.0,299.86149,26234.087000000003,0.0,-0.0494197329303091,-0.049419072269036746,0.0,0.0,0.0,-1.936115757954748,-3.072128808270507,-2.9662627152973373,0.002337116780430468,-0.006536672762969374,-0.5923255408079795
9885,13.0,299.86772,26170.556,0.0,-0.049424747419047454,-0.04942407447922381,0.0,0.0,0.0,-1.9389827491126983,-3.067440702707827,-2.9487721947211574,-0.0006805424889018144,-0.007238769867935963,-0.5974167881879465
9886,13.0,299.7538,26190.599,0.0,-0.049429728917728344,-0.04942907668941099,0.0,0.0,0.0,-1.9390744482467481,-3.071241606482947,-2.950972163338277,0.0017228082720779385,0.004561368544147026,-0.6028671618008564
9887,13.0,300.03016,26245.928,0.0,-0.04943474340646681,-0.049434078899598055,0.0,0.0,0.0,-1.9553012432982082,-3.0716823702764473,-2.9511230362781675,0.0006801688934574433,0.0016077786491753984,-0.6020632491715164
9888,13.0,300.24264,26268.408,0.0,-0.0494397249051477,-0.04943908110978523,0.0,0.0,0.0,-1.946371672816928,-3.078333546582867,-2.960234890452437,-0.003403283664252947,-0.002018156389401528,-0.6019931829271015
9889,13.0,300.20551,26237.525,0.0,-0.04944473939388605,-0.04944408331997219,0.0,0.0,0.0,-1.9428389763432783,-3.074583102662727,-2.958130369994737,-0.004675098977771346,-0.003451280713539887,-0.5905028254680914
9890,13.0,300.05484,26225.236,0.0,-0.04944972089256705,-0.04944908553015914,0.0,0.0,0.0,-1.938701268234918,-3.069860850571677,-2.9632545784004574,-0.004070843430285966,-9.032968499659582e-05,-0.5888594452634024
9891,13.0,300.0616,26285.326,0.0,-0.049454735381305404,-0.04945408774034632,0.0,0.0,0.0,-1.9472285784264982,-3.075567677784897,-2.9672864018733676,0.0004937977292990415,-0.001956383698380038,-0.5895504413015984
9892,13.0,299.93355,26293.701,0.0,-0.049459749870043646,-0.049459089950533275,0.0,0.0,0.0,-1.9535104250714683,-3.078325643232087,-2.960792583307477,0.003000396375391067,-0.0017996096912326481,-0.5978894288295925
9893,13.0,300.16771,26273.708,0.0,-0.04946473136872476,-0.04946405925144304,0.0,0.0,0.0,-1.9509031299141482,-3.078767318950677,-2.9568808299714173,0.004322974505669366,-0.0029662501509960973,-0.6019047565908744
9894,13.0,300.00917000000004,26201.927000000003,0.0,-0.04946974585746311,-0.04946906146162999,0.0,0.0,0.0,-1.9359226324856882,-3.076962416547547,-2.951846598174577,0.001048388904192929,0.0015643732440416185,-0.6045573946901694
9895,13.0,299.97887000000003,26185.49,0.0,-0.049474727356144,-0.04947406367181695,0.0,0.0,0.0,-1.9316932252432784,-3.077488394674457,-2.950553387071947,-0.0011903465604280589,-5.248583639594875e-06,-0.6020544338956464
9896,13.0,299.88892000000004,26262.543999999998,0.0,-0.04947974184488246,-0.049479065882004125,0.0,0.0,0.0,-1.9405060693130383,-3.080527840999427,-2.962123689963847,-0.0006552858825366813,9.159286741926222e-05,-0.5975059339317444
9897,13.0,300.01416,26298.071,0.0,-0.04948472334356335,-0.04948406809219119,0.0,0.0,0.0,-1.9516880947666182,-3.079564848104387,-2.962703876971107,2.4718975862072977e-06,0.001074825308576999,-0.5949674080587114
9898,13.0,300.07268999999997,26256.0,0.0,-0.049489737832301706,-0.04948907030237837,0.0,0.0,0.0,-1.950237829898488,-3.079419345390027,-2.951511111066467,0.001033792833852409,0.005007068081534146,-0.5988084466702924
9899,13.0,300.29804,26285.06,0.0,-0.049494719330982595,-0.049494072512565546,0.0,0.0,0.0,-1.9550794428513179,-3.078019641701887,-2.956902918823597,0.003740011395785387,2.4801055199673576e-05,-0.5950949762463014
9900,13.0,300.24192999999997,26341.734,0.0,-0.04949973381972106,-0.0494990747227525,0.0,0.0,0.0,-1.9565405494955181,-3.0830856895518672,-2.9676030425296176,0.0015064945744794386,-0.005005201674849945,-0.5956337010594693
9901,13.0,300.27762,26331.611,0.0,-0.04950474830845941,-0.04950407693293968,0.0,0.0,0.0,-1.9569962080654881,-3.0802961107015574,-2.966860127556297,-0.001135729846912809,-0.0035525383424082364,-0.5905266469779424
9902,13.0,299.97289,26243.126,0.0,-0.0495097298071403,-0.04950907914312663,0.0,0.0,0.0,-1.937622967478498,-3.075470405775297,-2.9641616398899773,-0.0035004337798659165,0.001934825991902458,-0.5952952957910714
9903,13.0,300.03287,26196.057,0.0,-0.049514744295878765,-0.04951408135331381,0.0,0.0,0.0,-1.9346946746894982,-3.072830281314737,-2.9554222564524677,0.0005024093418989416,0.006030370230476203,-0.5987075573578354
9904,13.0,299.96422,26266.621,0.0,-0.049519725794559655,-0.049519083563500765,0.0,0.0,0.0,-1.9405879399211183,-3.086226764861867,-2.957581999040617,-0.0015723831887321388,-0.0008685506295242731,-0.6077641590041524
9905,13.0,300.06754,26352.488999999998,0.0,-0.0495247402832979,-0.04952408577368794,0.0,0.0,0.0,-1.954415764035818,-3.089497333534647,-2.9665856381042075,0.005032802100948895,-0.002134372426846158,-0.6046124445681025
9906,13.0,300.13302000000004,26330.93,0.0,-0.04952972178197901,-0.0495290879838749,0.0,0.0,0.0,-1.948775811329198,-3.089330653893197,-2.965838872780507,0.0003491898464998547,0.0018287713330856783,-0.6047395162631435
9907,13.0,300.02465,26241.071,0.0,-0.04953473627071736,-0.049534090194061964,0.0,0.0,0.0,-1.9348348071783281,-3.0788242636062972,-2.962971172347487,0.0030701390890491374,0.00023137138441957776,-0.5959264999408664
9908,13.0,299.85182000000003,26272.842,0.0,-0.04953971776939825,-0.049539059494971616,0.0,0.0,0.0,-1.9389514396846081,-3.080613055332837,-2.966723338792797,-0.0023432693363626775,0.00021761081984651582,-0.5935674003955413
9909,13.0,300.04541,26386.852000000003,0.0,-0.049544732258136714,-0.04954406170515857,0.0,0.0,0.0,-1.9585745477462582,-3.089219703007247,-2.973149776227037,0.0015924495937125387,0.0003045224282340237,-0.5886576362409854
9910,13.0,299.97538,26392.702999999998,0.0,-0.04954974674687518,-0.04954906391534564,0.0,0.0,0.0,-1.9607276028837481,-3.0862399371131675,-2.9757551462091674,0.0026000302554280074,-0.0005350565033009654,-0.5969651724858754
9911,13.0,299.85523,26312.839,0.0,-0.04955472824555596,-0.049554066125532814,0.0,0.0,0.0,-1.953523293347738,-3.0828129226249468,-2.9621098084374773,0.003452837065693486,9.61689531171367e-05,-0.6019953715473174
9912,13.0,299.91232,26253.398999999998,0.0,-0.04955974273429442,-0.04955906833571999,0.0,0.0,0.0,-1.943614213994788,-3.076039244381437,-2.960724188925727,-0.0015984276679775285,-0.004214716331860116,-0.6041317181906584
9913,13.0,300.06987999999996,26275.02,0.0,-0.04956472423297531,-0.049564070545906946,0.0,0.0,0.0,-1.9439550713284282,-3.0774113876668574,-2.9655836350803173,0.0017663615104013084,-0.0050700255658975655,-0.6040335342559684
9914,13.0,300.34145,26348.967,0.0,-0.04956973872171355,-0.049569072756094124,0.0,0.0,0.0,-1.9466871988980683,-3.0858051514952574,-2.976935683900677,0.0009510032788592161,0.003411458768709767,-0.6013481681784434
9915,13.0,300.216,26333.963,0.0,-0.04957472022039455,-0.04957407496628108,0.0,0.0,0.0,-1.9564701286135682,-3.080032463025537,-2.968364702629787,0.004401570593401196,0.0075427600966874635,-0.5992824248020704
9916,13.0,300.0616,26295.02,0.0,-0.049579734709133017,-0.049579077176468256,0.0,0.0,0.0,-1.9426643933510481,-3.084227014464507,-2.9661381868600474,0.00015954203416807284,0.004597352297598346,-0.5999682026022514
9917,13.0,299.89142999999996,26362.266,0.0,-0.04958474919787126,-0.04958407938665543,0.0,0.0,0.0,-1.958266418390848,-3.0887271621336367,-2.966477119018497,0.0007962294071442242,0.005268977729657615,-0.5966019729875304
9918,13.0,300.06186,26449.789,0.0,-0.04958973069655215,-0.04958908159684239,0.0,0.0,0.0,-1.9639434560511282,-3.0915725710644573,-2.984559478978087,-0.004470666448195426,0.0016913822189014284,-0.5970278420045605
9919,13.0,300.07464,26416.971,0.0,-0.04959474518529072,-0.049594083807029565,0.0,0.0,0.0,-1.962550642463668,-3.091283389485917,-2.9762657229345573,-0.0036982451253383766,0.0009481831201208882,-0.5940700940351534
9920,13.0,300.00965,26308.688,0.0,-0.04959972668397161,-0.04959908601721652,0.0,0.0,0.0,-1.940760800388178,-3.088325003168947,-2.968098319178497,0.000950102935217859,-0.004395667499643606,-0.6016690644851135
9921,13.0,299.68446,26289.965,0.0,-0.049604741172709854,-0.04960408822740359,0.0,0.0,0.0,-1.9461882745488284,-3.086606936299387,-2.958697688725727,0.0017396319727633084,-0.0052588886970869044,-0.6013412071502564
9922,13.0,299.68588,26390.881,0.0,-0.049609722671390966,-0.04960905752831324,0.0,0.0,0.0,-1.954652053959138,-3.0939619161252674,-2.973554974942027,0.008497310389244242,-0.0038719747583341557,-0.6080733016096624
9923,13.0,299.53362000000004,26396.476000000002,0.0,-0.04961473716012943,-0.049614059738500194,0.0,0.0,0.0,-1.959974150109388,-3.0904354004772268,-2.9734600334076573,0.0023070463545627477,-0.005270185118476775,-0.6073265970809684
9924,13.0,299.45251,26315.322999999997,0.0,-0.04961971865881021,-0.04961906194868737,0.0,0.0,0.0,-1.943609147744288,-3.085416367431887,-2.970175380558487,0.003098679000640807,-0.004266890606009315,-0.6052599012495015
9925,13.0,299.70934,26308.674,0.0,-0.04962473314754867,-0.04962406415887444,0.0,0.0,0.0,-1.9449255622742083,-3.084869415027907,-2.9673849911080974,-0.008501096600892911,0.0008107276583200903,-0.6030345608498774
9926,13.0,299.87537000000003,26389.795,0.0,-0.049629747636287136,-0.04962906636906139,0.0,0.0,0.0,-1.9556583126334484,-3.092387021494837,-2.9737932913655474,-0.004645003929926196,0.006483639252735374,-0.5944772280578344
9927,13.0,299.80672000000004,26468.134,0.0,-0.0496347291349678,-0.04963406857924857,0.0,0.0,0.0,-1.9723642736571982,-3.093417699496557,-2.979869954865267,-0.005995026648438064,0.007090652563017923,-0.5931829631751004
9928,13.0,299.84297999999995,26461.285,0.0,-0.04963974362370638,-0.049639070789435524,0.0,0.0,0.0,-1.968938171094068,-3.0934501234997573,-2.9811815057947073,0.001236804482813099,0.002801404897527137,-0.5881935879601874
9929,13.0,300.03798,26342.997000000003,0.0,-0.04964472512238727,-0.0496440729996227,0.0,0.0,0.0,-1.9510677830553982,-3.092258541382157,-2.964286978927347,0.0018342249490989084,-0.0037757958429420362,-0.6046879317005525
9930,13.0,300.08491000000004,26324.267999999996,0.0,-0.04964973961112551,-0.04964907520980988,0.0,0.0,0.0,-1.9456798256486483,-3.090397504923487,-2.965842824455897,0.0025418015079562775,-0.0014539367851673886,-0.6013893263975054
9931,13.0,300.13862,26455.257,0.0,-0.0496547211098064,-0.049654077419996834,0.0,0.0,0.0,-1.9631828092010581,-3.099420902364027,-2.9791337273426075,0.004592258790670656,-0.0015001996569081785,-0.6118611749884963
9932,13.0,299.94127000000003,26451.584,0.0,-0.049659735598544974,-0.04965907963018401,0.0,0.0,0.0,-1.967505232802648,-3.0986409024370474,-2.974475006032827,0.0018080778276183885,-0.006854041338091213,-0.6042726410145663
9933,13.0,300.04896,26365.8,0.0,-0.04966471709722586,-0.049664081840370966,0.0,0.0,0.0,-1.954202170914738,-3.094583747711637,-2.965759028672627,-0.001002803795444029,-0.004553744951719636,-0.6061928208815734
9934,13.0,300.0989,26357.703999999998,0.0,-0.049669731585964105,-0.04966908405055814,0.0,0.0,0.0,-1.9458205660875383,-3.095138400816377,-2.9711249985522072,-0.0030918876918455567,-0.0018303055963870983,-0.6028599879901484
9935,13.0,300.05428,26411.146,0.0,-0.04967474607470257,-0.04967408626074521,0.0,0.0,0.0,-1.953697775014958,-3.0919329841250267,-2.982698138544387,-0.0029797698457553873,-9.18461829840125e-05,-0.5965676542066434
9936,13.0,300.01493999999997,26515.136000000002,0.0,-0.04967972757338368,-0.04967905556165475,0.0,0.0,0.0,-1.9613194422671583,-3.1029415411614867,-2.995678277625427,-0.0029296117366551674,-0.0036363369627785166,-0.6001602641587065
9937,13.0,299.78758,26501.937,0.0,-0.049684742062122034,-0.049684057771841816,0.0,0.0,0.0,-1.9604622326825583,-3.1026629987089973,-2.992801863241547,-0.0004817872604312005,0.004360041524802596,-0.5957970876380945
9938,13.0,299.76468,26384.534,0.0,-0.04968972356080292,-0.049689059982028994,0.0,0.0,0.0,-1.9500475415297083,-3.0945276136560973,-2.975664460325217,0.0011910924138266688,0.009635370610062042,-0.6049738810112735
9939,13.0,299.89802000000003,26382.174,0.0,-0.04969473804954139,-0.04969406219221606,0.0,0.0,0.0,-1.9552571669188583,-3.092770131357647,-2.971494733513697,0.001894783867825608,0.006289568218682055,-0.6019853707688304
9940,13.0,299.93523999999996,26444.617000000002,0.0,-0.049699719548222054,-0.049699064402403015,0.0,0.0,0.0,-1.9592224198601982,-3.097639710013237,-2.981641116040067,-0.001067298076234119,-0.0035144112610203866,-0.6041908717314964
9941,13.0,299.92035,26453.646,0.0,-0.04970473403696063,-0.04970406661258997,0.0,0.0,0.0,-1.9594487799325382,-3.0979527029691267,-2.9838463535577073,0.003560892893457767,-0.002421599749918288,-0.6063283937449534
9942,13.0,300.17832999999996,26405.031000000003,0.0,-0.04970974852569909,-0.04970906882277715,0.0,0.0,0.0,-1.9431753753764782,-3.0995128041480973,-2.983781910851347,-0.001266720793340609,-0.005288209115230605,-0.6112389381020864
9943,13.0,300.05062000000004,26403.722,0.0,-0.04971473002437976,-0.049714071032964324,0.0,0.0,0.0,-1.9578577746255181,-3.096225820823697,-2.971988692937447,0.0019423181657918784,-0.0029451931927179376,-0.6027395530832624
9944,13.0,299.9974,26522.436,0.0,-0.049719744513118225,-0.04971907324315128,0.0,0.0,0.0,-1.9739026912840283,-3.0972441371741968,-2.991011450314847,-0.0023161640855875977,-0.005215255614655655,-0.5963583977959914
9945,13.0,300.01311,26589.171000000002,0.0,-0.049724726011799114,-0.04972407545333846,0.0,0.0,0.0,-1.985548886608418,-3.102955827987897,-2.9939393378038073,0.0075188834660310224,-0.0005050304780526275,-0.5941400994845624
9946,13.0,299.9033,26503.107999999997,0.0,-0.04972974050053747,-0.04972907766352552,0.0,0.0,0.0,-1.9639064724224782,-3.101072601352037,-2.991303874293707,0.003101783902922237,0.007817738137975682,-0.5940556754862304
9947,13.0,300.12867,26497.696,0.0,-0.049734721999218356,-0.0497340798737127,0.0,0.0,0.0,-1.9625198396606283,-3.1022843471466266,-2.9898337497236174,-0.003900298239704466,0.003213271406125197,-0.5970700134737225
9948,13.0,300.30751000000004,26483.392999999996,0.0,-0.04973973648795682,-0.049739082083899766,0.0,0.0,0.0,-1.958886426127038,-3.102054542023947,-2.989349416175817,-0.008002837146368532,-0.0034612235341211664,-0.6018914019545565
9949,13.0,300.13063999999997,26429.557999999997,0.0,-0.04974471798663793,-0.04974408429408683,0.0,0.0,0.0,-1.9597632927635782,-3.0991948462667174,-2.9749673442564175,-0.008221307850779914,0.0013477892113164386,-0.6084946211337434
9950,13.0,299.99701,26449.61,0.0,-0.049749732475376285,-0.04974908650427401,0.0,0.0,0.0,-1.9602213831337882,-3.105523809041337,-2.9742760037131872,0.0015030275366122686,0.004449473005128796,-0.6118714898745145
9951,13.0,299.83224,26441.307,0.0,-0.04975474696411453,-0.04975405580518344,0.0,0.0,0.0,-1.961891117973578,-3.102443123437297,-2.973162847153327,0.0007112942646667784,-0.0001343664472809359,-0.6101019904298784
9952,13.0,299.79517000000004,26397.59,0.0,-0.04975972846279564,-0.049759058015370505,0.0,0.0,0.0,-1.9468953204686081,-3.1015202552462173,-2.975792636462867,0.0019489257723439982,-0.0025717594630628973,-0.6079838113608304
9953,13.0,299.92632000000003,26480.722999999998,0.0,-0.04976474295153388,-0.04976406022555768,0.0,0.0,0.0,-1.9573414223745584,-3.103345827951387,-2.9887914193457474,0.0019925148797209085,-0.0013287720268145887,-0.6067053025171514
9954,13.0,299.87672000000003,26528.861,0.0,-0.04976972445021488,-0.04976906243574464,0.0,0.0,0.0,-1.9579375174083882,-3.1090618757405175,-2.9971119251919176,0.00936904602860285,0.005032994719792905,-0.6013622016923285
9955,13.0,299.93601,26497.974,0.0,-0.049774738938953345,-0.049774064645931815,0.0,0.0,0.0,-1.9640824739648481,-3.1057611122147573,-2.9848789567346175,-0.0011287174469457389,-0.0003605984650732976,-0.6019985328876295
9956,13.0,300.16312999999997,26518.208,0.0,-0.04977972043763401,-0.04977906685611877,0.0,0.0,0.0,-1.970555622228698,-3.102721868539807,-2.987595581577727,0.0003569721341579067,-0.006233224116396324,-0.5981720850774884
9957,13.0,300.12991,26525.678,0.0,-0.049784734926372476,-0.049784069066305725,0.0,0.0,0.0,-1.978075660495868,-3.1052090935602767,-2.979859113089197,-0.003040276784751957,0.005708424703327655,-0.6051407633027435
9958,13.0,300.0354,26504.895,0.0,-0.049789716425053365,-0.0497890712764929,0.0,0.0,0.0,-1.9596518352525782,-3.105535562742497,-2.9916386521267473,0.0002895490235562637,0.01137496651112179,-0.6045364710756044
9959,13.0,300.02311000000003,26500.894,0.0,-0.04979473091379172,-0.04979407348667997,0.0,0.0,0.0,-1.955340962702128,-3.109319139940907,-2.9909500473587873,-0.004631980119765846,0.004216525185938636,-0.6100596872382034
9960,13.0,299.67534,26529.941000000003,0.0,-0.04979974540253018,-0.049799075696867146,0.0,0.0,0.0,-1.9578250466472882,-3.116604306834897,-2.9900102578910372,0.00035457673999399967,-0.00031968844162329267,-0.6062843680281085
9961,13.0,299.63549,26507.502,0.0,-0.04980472690121107,-0.04980407790705432,0.0,0.0,0.0,-1.9725153492471081,-3.1001983691657573,-2.9849048959371767,-0.0028019799169588873,0.0026391511325139375,-0.6041091936409354
9962,13.0,299.76597000000004,26492.002,0.0,-0.049809741389949425,-0.04980908011724128,0.0,0.0,0.0,-1.9700968225834181,-3.101674775886467,-2.9811356055651768,0.01021393895028729,0.0015275978382871687,-0.6013615734772665
9963,13.0,299.85972000000004,26528.307999999997,0.0,-0.049814722888630536,-0.049814082327428455,0.0,0.0,0.0,-1.9718974693361282,-3.102777597295307,-2.9892682548428073,0.0001042931640479339,-0.005900373687696545,-0.6001121854414614
9964,13.0,300.04323999999997,26548.896,0.0,-0.04981973737736878,-0.04981908453761541,0.0,0.0,0.0,-1.9645949758654282,-3.110127409545677,-2.995478971330757,0.003025158181334867,-0.009192641010043032,-0.6011499865913844
9965,13.0,299.99287999999996,26535.139,0.0,-0.04982471887604989,-0.04982405383852495,0.0,0.0,0.0,-1.9614759894076084,-3.1125099658308173,-2.9920336170157267,-0.0024074726117240476,-0.006395928271078974,-0.6046233674041804
9966,13.0,299.87067,26555.072999999997,0.0,-0.04982973336478813,-0.04982905604871213,0.0,0.0,0.0,-1.964761756831888,-3.111538461634937,-2.995778792035347,0.002389369480137408,0.005165819851551725,-0.6046733814291164
9967,13.0,300.07745,26565.717999999997,0.0,-0.049834747853526484,-0.04983405825889908,0.0,0.0,0.0,-1.9746329406310983,-3.1168247900566572,-2.9838571953337767,-0.0035240817199747865,0.0008453789169624033,-0.6063122222733575
9968,13.0,300.10717999999997,26508.292,0.0,-0.049839729352207596,-0.04983906046908626,0.0,0.0,0.0,-1.960689606004998,-3.1117664429074368,-2.985402908361327,0.0036315541183314865,0.0026778005443283378,-0.6104129163555644
9969,13.0,300.05994,26516.429,0.0,-0.04984474384094584,-0.04984406267927344,0.0,0.0,0.0,-1.9646405721199283,-3.111971322077657,-2.983720406570277,-0.001044257579560199,0.0025723026664415077,-0.6112740674830535
9970,13.0,300.01752,26524.397999999997,0.0,-0.04984972533962673,-0.04984906488946039,0.0,0.0,0.0,-1.953196621515498,-3.1142851800060174,-2.995273078910437,-2.6827395306157775e-05,-0.001969265248226348,-0.6158395292536294
9971,13.0,299.99388999999996,26500.354,0.0,-0.0498547398283653,-0.04985406709964735,0.0,0.0,0.0,-1.9556457483322083,-3.1084406521042074,-2.9913596030492076,-0.003261392983849427,-0.0034123973422773967,-0.6079201792545504
9972,13.0,300.12646,26527.282000000003,0.0,-0.04985972132704597,-0.049859069309834414,0.0,0.0,0.0,-1.9566029657016784,-3.113558375709287,-2.9934700003574872,-0.003980565683476246,-0.004119179209081336,-0.6059323345458654
9973,13.0,300.07577000000003,26607.264,0.0,-0.04986473581578443,-0.04986407152002159,0.0,0.0,0.0,-1.981024826236928,-3.1107741670845073,-2.9961447779714674,0.007396482955276034,0.004222085902487437,-0.5912239049017565
9974,13.0,299.8219,26612.168999999998,0.0,-0.04986971731446532,-0.04986907373020877,0.0,0.0,0.0,-1.976894717504318,-3.1129684615010675,-2.9995717924596867,0.004695531267362855,0.003933935204599176,-0.5943427596370634
9975,13.0,299.7141,26619.677000000003,0.0,-0.049874731803203676,-0.04987407594039572,0.0,0.0,0.0,-1.9765678430220583,-3.119835156103757,-2.995314318189507,0.006413085533697264,-0.004169349274532736,-0.5970173346010234
9976,13.0,299.75711,26639.077,0.0,-0.04987974629194214,-0.0498790781505829,0.0,0.0,0.0,-1.9696817953424581,-3.1236678759320173,-3.0042644576478175,-0.0026311963086288574,-0.006501026219151333,-0.6090906047100624
9977,13.0,299.7386,26614.088,0.0,-0.04988472779062303,-0.049884080360769856,0.0,0.0,0.0,-1.9725433149498681,-3.1197887492491767,-2.9976862353485974,0.0023512436146496778,-0.004472840781585016,-0.6090958736105824
9978,13.0,299.97074,26557.074,0.0,-0.04988974227936138,-0.04988908257095703,0.0,0.0,0.0,-1.9713326837303882,-3.114193176896937,-2.987161403909877,-0.006789592450905603,-0.0002850509125198347,-0.6129265061436364
9979,13.0,299.9662,26538.32,0.0,-0.04989472377804238,-0.049894051871866574,0.0,0.0,0.0,-1.972691148139458,-3.1063231620452267,-2.987972409289917,-0.009349649280613543,0.0012495949414754188,-0.6055052394962145
9980,13.0,300.17451,26515.141,0.0,-0.049899738266780735,-0.04989905408205353,0.0,0.0,0.0,-1.961747439109398,-3.1094768016564673,-2.988716438838347,-0.004819397545712506,0.001962247072733708,-0.6072000117459754
9981,13.0,300.27131,26542.353,0.0,-0.04990471976546185,-0.049904056292240706,0.0,0.0,0.0,-1.961027322263328,-3.112952452149487,-2.994232977682787,-0.0012251187707348087,0.002994072985491997,-0.6059838076509455
9982,13.0,300.164,26633.85,0.0,-0.04990973425420009,-0.04990905850242788,0.0,0.0,0.0,-1.9652346406535581,-3.119205015866567,-3.0115856962453673,0.004122537525212776,0.003921962438767556,-0.6061716642194854
9983,13.0,299.97823999999997,26661.263,0.0,-0.04991471575288098,-0.04991406071261484,0.0,0.0,0.0,-1.9742031199386783,-3.125490104911857,-3.0046650967373574,0.003305210477798877,-0.005809569760109895,-0.6078125315639265
9984,13.0,299.95659,26593.686,0.0,-0.04991973024161944,-0.049919062922802016,0.0,0.0,0.0,-1.969701351069388,-3.118852607481787,-2.995262541109397,0.004903246321962735,0.0003192591174234217,-0.6083015260621865
9985,13.0,299.91355,26585.869,0.0,-0.049924744730357795,-0.04992406513298897,0.0,0.0,0.0,-1.970389651862318,-3.120141866909027,-2.9909089094047268,0.002065573049031188,0.0033879542034900463,-0.6081895416611345
9986,13.0,300.10866,26633.397999999997,0.0,-0.049929726229038685,-0.04992906734317615,0.0,0.0,0.0,-1.976100836050968,-3.1243921471034968,-2.9953950742224773,0.002199162981965488,0.0060300768945722545,-0.6055872823568115
9987,13.0,300.08867999999995,26606.968999999997,0.0,-0.04993474071777715,-0.049934069553363214,0.0,0.0,0.0,-1.9681950534707282,-3.117168484490577,-3.0024906620227574,-0.004682644448616026,0.0029259042545392677,-0.6094015610332515
9988,13.0,300.19872999999995,26578.317000000003,0.0,-0.04993972221645793,-0.04993907176355017,0.0,0.0,0.0,-1.9596323808506584,-3.1214720616403073,-2.9980404675835572,-0.004721760766076506,-4.044771187987836e-05,-0.6151039400785324
9989,13.0,300.13232,26608.838,0.0,-0.04994473670519639,-0.049944073973737346,0.0,0.0,0.0,-1.970092668258008,-3.114001267327997,-3.004328292404117,-0.004738153227519316,-0.0005569005238593024,-0.6100890613586024
9990,13.0,300.36233,26681.226000000002,0.0,-0.04994971820387728,-0.0499490761839243,0.0,0.0,0.0,-1.9878148178070483,-3.1187137922180868,-3.003897863761637,0.0013164475618732587,-0.0006347233092473134,-0.6073684544425995
9991,13.0,300.08597000000003,26699.978,0.0,-0.04995473269261563,-0.04995407839411148,0.0,0.0,0.0,-1.987170897368498,-3.123037026419757,-3.0059186897610766,0.0034249980191959867,-0.0005367413254347446,-0.6017446225450704
9992,13.0,299.95196,26693.273999999998,0.0,-0.0499597471813541,-0.049959080604298656,0.0,0.0,0.0,-1.982080126216078,-3.121252186368607,-3.0107562497135074,-0.0007222017094757593,0.0014373668023070585,-0.5980619447916184
9993,13.0,299.84264,26657.877999999997,0.0,-0.04996472868003499,-0.049964049905207975,0.0,0.0,0.0,-1.9688046247308881,-3.124369247651237,-3.010155291079197,-0.0016530596815692885,-0.005006737964651566,-0.6016969491278654
9994,13.0,299.84336,26641.578999999998,0.0,-0.04996974316877345,-0.04996905211539515,0.0,0.0,0.0,-1.964297282986048,-3.126206270082537,-3.007871121378767,0.0012849066061354087,-0.0048097381311841955,-0.6094809390460854
9995,13.0,299.77875,26679.686,0.0,-0.04997472466745434,-0.04997405432558233,0.0,0.0,0.0,-1.982348738817588,-3.125745646587077,-3.0018638655108973,-0.0020482984520513183,-0.0018582168876167284,-0.6096739125276305
9996,13.0,299.99215,26687.416,0.0,-0.049979739156192804,-0.049979056535769284,0.0,0.0,0.0,-1.9855383488073783,-3.1260147658136366,-3.0007550659264672,0.007649455129567442,-0.001019028158695249,-0.6106889966103115
9997,13.0,299.76076,26626.702999999998,0.0,-0.04998472065487369,-0.04998405874595646,0.0,0.0,0.0,-1.9755956295511081,-3.118992739970617,-2.9992645750293674,-0.0032279934234531473,0.0015240357575606186,-0.6089193553106614
9998,13.0,299.85115,26635.682999999997,0.0,-0.049989735143612046,-0.04998906095614353,0.0,0.0,0.0,-1.9665596678093282,-3.126284290340237,-3.0037384795209072,0.0008169914792457814,0.0037677957267774863,-0.6081461036293474
9999,13.0,300.11604,26685.749,0.0,-0.049994716642292936,-0.04999406316633059,0.0,0.0,0.0,-1.9673430114616381,-3.1268161453177266,-3.0176421960680972,9.360721875056321e-05,0.0006991831699315063,-0.6079651675589904
10000,13.0,299.9587,26681.278,0.0,-0.0499997311310314,-0.04999906537651777,0.0,0.0,0.0,-1.9657784519822283,-3.130473775528707,-3.014189951652387,-0.00019068808581194883,0.005681074144703364,-0.6135666268943114
10001,13.0,300.0684,26664.617000000002,0.0,-0.05000474561976975,-0.05000406758670484,0.0,0.0,0.0,-1.977253914664768,-3.127870026746737,-3.0002538111019974,-0.003145106728172867,-0.0015956928046326182,-0.6122438694187654
10002,13.0,300.10995,26690.638,0.0,-0.05000972711845064,-0.05000906979689179,0.0,0.0,0.0,-1.9822725424100678,-3.1293710554448766,-3.001643787589177,-0.0030714482081783375,-0.0036121802697944368,-0.6142510469393585
10003,13.0,300.00521000000003,26679.777000000002,0.0,-0.050014741607189106,-0.05001407200707875,0.0,0.0,0.0,-1.9794028154768482,-3.128508374309737,-3.002075026831737,0.002512747878563908,-0.006510072110744093,-0.6062174428590035
10004,13.0,300.1541,26686.767999999996,0.0,-0.05001972310586977,-0.050019074217265924,0.0,0.0,0.0,-1.975030337320318,-3.1282249682567675,-3.008855696500937,0.007840056187328304,-0.004289988857938936,-0.6081457185943093
10005,13.0,299.84123,26702.896,0.0,-0.05002473759460835,-0.0500240764274531,0.0,0.0,0.0,-1.9684920370750383,-3.1277881561386573,-3.0207332168231575,0.008235254731781362,-0.005718688420215604,-0.6049529472642075
10006,13.0,299.79165,26673.925,0.0,-0.05002971909328924,-0.050029078637640056,0.0,0.0,0.0,-1.9696424812385782,-3.130065233088387,-3.0084995390907867,0.0014881499853939685,0.0013154543741252388,-0.6148535051838164
10007,13.0,299.91024,26666.846,0.0,-0.0500347335820277,-0.050034080847827234,0.0,0.0,0.0,-1.978860827998358,-3.121696192562427,-3.005498292294587,-8.739778605048992e-05,0.0015310833173061585,-0.6102251104495294
10008,13.0,299.90457999999995,26727.042,0.0,-0.05003971508070859,-0.050039050148736774,0.0,0.0,0.0,-1.991931855613368,-3.1246849763823974,-3.0077363591154676,-0.0035476891300796564,0.0035489152640256665,-0.6098974861621954
10009,13.0,299.85078,26720.806,0.0,-0.050044729569447055,-0.05004405235892373,0.0,0.0,0.0,-1.988984108422448,-3.1279929339838675,-3.005480661742847,-0.004036153191912306,0.002940900153369247,-0.6057230578702114
10010,13.0,299.87385,26682.04,0.0,-0.05004974405818541,-0.05004905456911091,0.0,0.0,0.0,-1.9714200258890082,-3.127324492892897,-3.0119291880292676,-0.007285100627433452,0.0008804443111855882,-0.6081383320010805
10011,13.0,299.96635,26730.088,0.0,-0.0500547255568663,-0.05005405677929797,0.0,0.0,0.0,-1.970151842063848,-3.1369389191167674,-3.018188743172037,-0.005521352086390025,0.00015201791250299984,-0.6073823461014705
10012,13.0,299.97168,26791.465,0.0,-0.05005974004560476,-0.05005905898948515,0.0,0.0,0.0,-1.9878050906060882,-3.137443720316587,-3.018687566196267,-0.003974924616194517,0.0012454475061660988,-0.6098212796221744
10013,13.0,299.76477,26766.501,0.0,-0.05006472154428565,-0.050064061199672216,0.0,0.0,0.0,-1.988676587017098,-3.136625723510857,-3.0110456339420675,0.006880452715197813,0.0007292256807589715,-0.6143142737455984
10014,13.0,299.83218999999997,26733.009,0.0,-0.050069736033024004,-0.05006906340985928,0.0,0.0,0.0,-1.985957125073708,-3.137434094440637,-3.002775891925907,0.0014406415253052486,0.0036517958155791864,-0.6167096780420065
10015,13.0,300.08342000000005,26697.831000000002,0.0,-0.05007471753170489,-0.05007406562004646,0.0,0.0,0.0,-1.9779494095334083,-3.126484001934947,-3.0110405676915675,0.003896257398305666,-0.00011440053644545388,-0.6109182039154325
10016,13.0,299.95742,26668.385,0.0,-0.05007973202044336,-0.050079067830233415,0.0,0.0,0.0,-1.9709437983420082,-3.126838031519887,-3.0087411992396373,0.0026004770987221072,-0.00037411248563202766,-0.6106687518733134
10017,13.0,300.14691,26698.005,0.0,-0.05008474650918171,-0.05008407004042059,0.0,0.0,0.0,-1.968131522689458,-3.1275062699608367,-3.019889078164847,0.0027301772658475175,-0.0027127167374742973,-0.6121888600708364
10018,13.0,300.06711,26739.939,0.0,-0.0500897280078626,-0.05008907225060755,0.0,0.0,0.0,-1.9862855194311182,-3.1289427546276074,-3.013045485664437,-0.0014232448316883286,-0.0018181879357911782,-0.6141495496768414
10019,13.0,300.08565,26750.863999999998,0.0,-0.050094742496601063,-0.0500940744607945,0.0,0.0,0.0,-1.9852469380786182,-3.137409573788217,-3.0089380737340674,-0.0014348953839881486,0.001138374530998819,-0.6167690038353614
10020,13.0,300.02227,26802.111,0.0,-0.05009972399528173,-0.05009907667098168,0.0,0.0,0.0,-1.997809922093488,-3.135408708815747,-3.013954067029107,-0.0014266193598213687,0.005036054329794866,-0.6083711059465534
10021,13.0,299.99037999999996,26852.105,0.0,-0.050104738484020306,-0.050104078881168745,0.0,0.0,0.0,-1.9972284178610982,-3.1418773987791573,-3.023263504972877,0.0012229982409255288,-0.00019276349559427583,-0.6098484549898564
10022,13.0,299.88888,26821.98,0.0,-0.050109719982701306,-0.050109048182078175,0.0,0.0,0.0,-1.981824280565828,-3.139678544737147,-3.031709147206397,0.0013586345337617887,-0.0014324719937239788,-0.6032566247417934
10023,13.0,300.13013,26760.926,0.0,-0.05011473447143966,-0.05011405039226535,0.0,0.0,0.0,-1.9730435565242381,-3.137110968983747,-3.024498656844777,-0.0024444707298504776,-0.006165715011258693,-0.6102788937648375
10024,13.0,299.8464,26718.659,0.0,-0.05011971597012055,-0.05011905260245242,0.0,0.0,0.0,-1.9781283495010682,-3.1284214374511574,-3.0152551814825173,-0.0031752600378987675,-0.006828138916509844,-0.6041231866248165
10025,13.0,299.76872000000003,26754.53,0.0,-0.05012473045885901,-0.050124054812639596,0.0,0.0,0.0,-1.9909144511879584,-3.130697197175757,-3.0110973096971674,-0.003593910458566346,-0.005714285240581045,-0.6129811912515334
10026,13.0,299.99686,26744.232999999997,0.0,-0.050129744947597366,-0.05012905702282677,0.0,0.0,0.0,-1.9888317156074082,-3.130105357792347,-3.010642056427237,0.0013270407876937289,0.00017704625388560483,-0.6136980656972834
10027,13.0,300.11652000000004,26729.843999999997,0.0,-0.050134726446278255,-0.05013405923301373,0.0,0.0,0.0,-1.9835187387080582,-3.131789278133537,-3.009897216278727,0.005859412951079035,0.00010033300471484661,-0.6152299985234734
10028,13.0,299.90986000000004,26792.782000000003,0.0,-0.05013974093501672,-0.050139061443200905,0.0,0.0,0.0,-1.9733124731007783,-3.1417327066648766,-3.029291431142787,0.0022891217576437276,-0.0009036960705053581,-0.6109801438940454
10029,13.0,299.90292999999997,26826.97,0.0,-0.05014472243369761,-0.05014406365338786,0.0,0.0,0.0,-1.9792485988116282,-3.149827359063757,-3.0256531540087175,0.0024028083175387177,-0.002871129170033387,-0.6134498498202864
10030,13.0,300.33067,26853.514,0.0,-0.05014973692243596,-0.05014906586357504,0.0,0.0,0.0,-1.9859247010705081,-3.1486465173972173,-3.0282264039626767,0.0032124952565485967,0.0012520433590170587,-0.6134944429571874
10031,13.0,300.32698999999997,26820.627,0.0,-0.05015471842111685,-0.050154068073762215,0.0,0.0,0.0,-1.988554895680088,-3.149236938230487,-3.0150090630332267,-0.0027256343590241674,0.004152966540290886,-0.6141102051754584
10032,13.0,300.09643,26766.47,0.0,-0.050159732909855315,-0.05015907028394917,0.0,0.0,0.0,-1.9847006949497084,-3.1415209373939765,-3.010116888900407,-0.0085482805169746,0.006937657370793473,-0.6075474856027684
10033,13.0,300.0925,26777.986,0.0,-0.05016471440853598,-0.050164072494136125,0.0,0.0,0.0,-1.9843587230409583,-3.1361855676674173,-3.019294908306207,-0.009226587624168302,0.005101983676701585,-0.6107957931708514
10034,13.0,300.16429,26820.299,0.0,-0.050169728897274446,-0.05016907470432319,0.0,0.0,0.0,-1.9810994014442882,-3.144252963638607,-3.027348929376077,-0.004115407588234106,0.0006571782689534454,-0.6060809682030345
10035,13.0,299.91132999999996,26743.054,0.0,-0.05017474338601302,-0.05017407691451037,0.0,0.0,0.0,-1.9719954506207984,-3.137892792760907,-3.019332398559907,0.0012641641606882888,-0.0013903919197209985,-0.6134649269817743
10036,13.0,300.18967999999995,26777.113999999998,0.0,-0.05017972488469391,-0.05017904621542002,0.0,0.0,0.0,-1.9816821215767981,-3.1356440868139765,-3.022247924397647,0.008662125751835252,-0.004041696176584356,-0.6071504435510834
10037,13.0,299.92939,26862.077999999998,0.0,-0.05018473937343215,-0.050184048425606975,0.0,0.0,0.0,-1.997072073370668,-3.149871536768117,-3.018457153123527,0.006705771539033124,-0.004923983194534305,-0.6232838777383295
10038,13.0,299.82934,26860.526,0.0,-0.050189720872113264,-0.05018905063579404,0.0,0.0,0.0,-2.0049407709972478,-3.141007726218327,-3.018980902100217,0.0036982926467680668,0.0003188853193290307,-0.6108332428945474
10039,13.0,300.13754,26839.932,0.0,-0.05019473536085162,-0.05019405284598122,0.0,0.0,0.0,-1.9897068597187781,-3.146985901808327,-3.021976272045837,-0.00018069939539864185,0.00014777337743659687,-0.6189743122805085
10040,13.0,300.02072999999996,26797.307,0.0,-0.050199716859532506,-0.050199055056168174,0.0,0.0,0.0,-1.9844868991786082,-3.139936518212607,-3.021288781852987,-0.004866883511649005,-0.0006229510858754854,-0.6070840858020344
10041,13.0,299.78082,26825.636000000002,0.0,-0.05020473134827097,-0.05020405726635535,0.0,0.0,0.0,-1.9838658781923182,-3.1461258551234472,-3.0243317745533074,-0.008049797944778201,-0.0012877190844379788,-0.6136241491024884
10042,13.0,299.90901,26881.558999999997,0.0,-0.05020974583700921,-0.050209059476542306,0.0,0.0,0.0,-1.9973806080261183,-3.147887390422297,-3.026054806348357,-0.0077775919531135615,-0.0016911687271053582,-0.6065339720577424
10043,13.0,299.85337000000004,26851.487999999998,0.0,-0.0502147273356901,-0.05021406168672948,0.0,0.0,0.0,-1.990469533069048,-3.145732815409657,-3.025979521865927,0.002086940365814978,0.004360730433545586,-0.6100403138962914
10044,13.0,299.8946,26806.062,0.0,-0.050219741824428676,-0.05021906389691666,0.0,0.0,0.0,-1.9895951995577583,-3.1377379681456268,-3.021040332928467,0.003898675519669316,0.004751722571533505,-0.6054791179086364
10045,13.0,300.1567,26782.757,0.0,-0.050224723323109566,-0.050224066107103615,0.0,0.0,0.0,-1.9744031355084182,-3.146457897181217,-3.0204282285430573,0.004950069622333836,0.0014345699280560286,-0.6179860793254774
10046,13.0,300.13217000000003,26823.406000000003,0.0,-0.05022973781184781,-0.05022906831729079,0.0,0.0,0.0,-1.976571896022458,-3.150269946707437,-3.026803800822277,0.0020889137717097377,-0.0031338928866661473,-0.6198251282569774
10047,13.0,300.28505,26867.701,0.0,-0.0502347193105287,-0.05023407052747775,0.0,0.0,0.0,-1.9850097362302082,-3.153134100765107,-3.028966481835717,0.007353252741084543,-0.0027015230596445674,-0.6212950400445464
10048,13.0,300.0596,26865.01,0.0,-0.05023973379926727,-0.050239072737664925,0.0,0.0,0.0,-1.9913049577764983,-3.1500096427567468,-3.024977417517027,0.004637425933753305,-0.005131545754994135,-0.6184226381310625
10049,13.0,299.91414,26839.16,0.0,-0.05024471529794816,-0.05024407494785199,0.0,0.0,0.0,-1.984696033999248,-3.149192861851137,-3.0245455703244075,0.0033705369408960966,-0.002007601464434838,-0.6173503459477354
10050,13.0,299.97442,26906.947999999997,0.0,-0.0502497297866864,-0.050249077158038946,0.0,0.0,0.0,-1.998173678879388,-3.150428317698067,-3.030438328930977,-0.0027328355274848673,-0.003217119122054937,-0.6072913055799855
10051,13.0,299.76193,26936.459,0.0,-0.05025474427542487,-0.0502540464589486,0.0,0.0,0.0,-1.9969029619289782,-3.150005083131297,-3.0411026849084672,-0.0018871375785959785,0.002966431218788967,-0.6129574204041874
10052,13.0,299.90316,26914.651,0.0,-0.05025972577410587,-0.050259048669135664,0.0,0.0,0.0,-2.002047840636738,-3.142671584207537,-3.0366625216452574,0.0016798517367384582,0.0006761766779309424,-0.6020723785549174
10053,13.0,300.16279,26881.813,0.0,-0.05026474026284433,-0.05026405087932262,0.0,0.0,0.0,-1.9952766955184782,-3.146586883918947,-3.0295362323669472,0.0035502003691274967,0.0019229430000296983,-0.6155343281910085
10054,13.0,300.01714,26848.803,0.0,-0.05026972176152522,-0.050269053089509796,0.0,0.0,0.0,-1.994824380673838,-3.139660812860397,-3.0268807065048673,-0.003461396495913237,-0.003372488156613667,-0.6108284806190775
10055,13.0,300.13979,26873.999,0.0,-0.05027473625026346,-0.05027405529969675,0.0,0.0,0.0,-1.989110764684948,-3.1519470782729573,-3.0279668092870575,-0.0051457840467243445,-0.0009306432846623411,-0.6185944853480224
10056,13.0,300.44917000000004,26919.782000000003,0.0,-0.05027971774894435,-0.05027905750988393,0.0,0.0,0.0,-1.994866734528018,-3.1508029162600373,-3.037271890255397,-0.006091962259004865,-0.0031386006492807672,-0.6112343987416383
10057,13.0,300.40252000000004,26920.815,0.0,-0.05028473223768293,-0.050284059720071106,0.0,0.0,0.0,-1.9856790892462681,-3.158539891373617,-3.039036465304547,0.0005755657762039194,-6.275958547313884e-05,-0.6199408414183973
10058,13.0,300.33547000000004,26877.176,0.0,-0.05028971373636382,-0.05028906193025806,0.0,0.0,0.0,-1.9895208270004183,-3.152979377474837,-3.0274900751150073,0.004851172460898445,-0.00023784828170879773,-0.6157774980825074
10059,13.0,299.98613,26915.112,0.0,-0.05029472822510206,-0.05029406414044524,0.0,0.0,0.0,-1.995242346340088,-3.156908964012657,-3.029370565975597,0.003279051501292187,0.0013769048516149285,-0.6170985127678814
10060,13.0,299.98804,26988.637000000002,0.0,-0.050299742713840634,-0.050299066350632304,0.0,0.0,0.0,-2.005002579253348,-3.1588096185502366,-3.040059645255527,0.0032901198400845464,0.0024031910221014876,-0.6130985864081194
10061,13.0,300.00857,26945.882999999998,0.0,-0.05030472421252152,-0.05030406856081937,0.0,0.0,0.0,-2.001003787733698,-3.154822884706777,-3.035049123511027,0.0027061382112000473,0.003570116103818027,-0.6170572836213124
10062,13.0,300.1604,26856.175,0.0,-0.050309738701259765,-0.05030907077100655,0.0,0.0,0.0,-1.9808192377916383,-3.1548497358344267,-3.0279376276841767,-0.0008887239729202272,-1.221500555952719e-05,-0.6153480522926243
10063,13.0,299.8983,26820.328999999998,0.0,-0.050314720199940655,-0.050314072981193614,0.0,0.0,0.0,-1.9807488169096878,-3.150820952111817,-3.021140442038347,-0.007780910651166092,-0.002114172576827588,-0.6168496585433214
10064,13.0,299.77923,26918.136000000002,0.0,-0.05031973468867912,-0.05031907519138057,0.0,0.0,0.0,-1.997201972033488,-3.153735160724427,-3.0315041667111675,-0.009241534988318492,-0.005557219113429824,-0.6135608615012424
10065,13.0,299.9643,26956.446,0.0,-0.05032471618736001,-0.05032404449229022,0.0,0.0,0.0,-1.9982384255607781,-3.162771933066287,-3.033076021591297,-0.005813853274907644,0.0006990681559126554,-0.6200307065697664
10066,13.0,299.97046,26930.859,0.0,-0.05032973067609858,-0.05032904670247729,0.0,0.0,0.0,-1.9966778177567581,-3.1558513335582767,-3.0337794198107173,0.004582070256940126,0.0023411576218292677,-0.6151423118598194
10067,13.0,299.75012000000004,26920.081000000002,0.0,-0.050334745164836825,-0.050334048912664464,0.0,0.0,0.0,-1.9903315284054282,-3.154613243261087,-3.038087556585897,0.00013915234161076688,0.0012133724663005389,-0.6148854428269684
10068,13.0,300.03193,26996.151,0.0,-0.050339726663517714,-0.05033905112285142,0.0,0.0,0.0,-1.9969186673055281,-3.163274403790877,-3.045962941663137,0.0063202458853347035,-0.0014191299217072187,-0.6073090678542384
10069,13.0,300.07597000000004,27035.131,0.0,-0.05034474115225629,-0.050344053333038374,0.0,0.0,0.0,-2.004210521650178,-3.1596692599350766,-3.0541248738686573,0.0011785188920107588,-0.0029145186671405967,-0.6070482066159935
10070,13.0,300.20317,26979.909,0.0,-0.05034972265093718,-0.05034905554322555,0.0,0.0,0.0,-2.013328354000038,-3.1556666180650472,-3.0322235742821673,0.007049658085172083,-0.006236126571307774,-0.6055330836089624
10071,13.0,300.18975,26877.017999999996,0.0,-0.05035473713967542,-0.05035405775341251,0.0,0.0,0.0,-1.9925135624957782,-3.1511203675163673,-3.0263085241733974,-0.004738277350656565,-0.005640719027670625,-0.6131333611515515
10072,13.0,300.11737999999997,26883.678,0.0,-0.05035971863835631,-0.050359059963599684,0.0,0.0,0.0,-1.998868363147948,-3.1477959952632766,-3.025302468149107,-0.004353045235512116,-0.004688851922703656,-0.6175201565319944
10073,13.0,300.19287,27024.392999999996,0.0,-0.050364733127094774,-0.05036406217378675,0.0,0.0,0.0,-2.005738401475968,-3.1649621744824468,-3.0440400969483674,-0.007997678690109433,0.0024718482409274278,-0.6234608621332964
10074,13.0,299.90269,27010.842,0.0,-0.050369714625775774,-0.05036906438397393,0.0,0.0,0.0,-1.995959626085878,-3.168491121930727,-3.046170657933637,0.00035890357123352466,0.003732344537578726,-0.6247443460349664
10075,13.0,299.99298,26884.022,0.0,-0.050374729114514016,-0.05037406659416099,0.0,0.0,0.0,-1.983575278063638,-3.157273328748617,-3.031222685833387,0.0013069323328341786,-0.0013346656973462487,-0.6232865831160964
10076,13.0,300.05028,26915.557,0.0,-0.05037974360325248,-0.05037906880434806,0.0,0.0,0.0,-1.987475176373528,-3.1619510991602766,-3.0322308696828872,-0.00019325846826812583,-0.0018057801816916284,-0.6216767820197214
10077,13.0,299.9441,27015.191000000003,0.0,-0.05038472510193337,-0.05038407101453524,0.0,0.0,0.0,-1.9998763443474283,-3.165257131586557,-3.046809917421727,-0.00015046250267199287,0.0034208355877851865,-0.6177074760779814
10078,13.0,299.80818999999997,27043.517999999996,0.0,-0.05038973959067172,-0.05038907322472219,0.0,0.0,0.0,-2.004896187992848,-3.167534005886267,-3.048123900151407,0.0019149720654680282,0.0038132813343665665,-0.6142128068805844
10079,13.0,299.93639,26988.317000000003,0.0,-0.050394721089352834,-0.05039404252563173,0.0,0.0,0.0,-1.9970380281673081,-3.1573102110522573,-3.049426331829947,0.0020110324305984482,0.0034409118212915565,-0.6103645539282915
10080,13.0,299.68232,26930.328999999998,0.0,-0.050399735578091076,-0.05039904473581891,0.0,0.0,0.0,-1.9866906168210983,-3.159698137562927,-3.039758811300837,0.0042834330284669256,-0.002770008329928537,-0.6134769339954593
10081,13.0,300.11927000000003,26968.772999999997,0.0,-0.050404717076771965,-0.050404046946005865,0.0,0.0,0.0,-2.000626453396458,-3.159192829738057,-3.0380140959536472,0.0033592690931590467,-0.0016601712787211484,-0.6133872208316055
10082,13.0,300.19962000000004,27064.721,0.0,-0.05040973156551043,-0.05040904915619304,0.0,0.0,0.0,-2.019331354217488,-3.161246485040737,-3.046421639983407,-0.001892596260859708,0.0025328161073944876,-0.6134689090546674
10083,13.0,299.98783,27057.472,0.0,-0.05041471306419143,-0.05041405136638,0.0,0.0,0.0,-2.0088319553562783,-3.1689295552489973,-3.0470342509938675,-0.0013767610714257386,0.00014098609124424383,-0.6188661073023294
10084,13.0,300.20917000000003,26970.354,0.0,-0.05041972755292967,-0.05041905357656695,0.0,0.0,0.0,-2.005092758512248,-3.156097249357547,-3.037124259715827,-0.005800571187296805,0.0028070709920863376,-0.6236072058452394
10085,13.0,300.18757999999997,26952.609,0.0,-0.050424742041668136,-0.05042405578675413,0.0,0.0,0.0,-1.989629751386168,-3.160365869378827,-3.042924609913277,-0.0055435434794801446,0.0037661338952884762,-0.6226884615820664
10086,13.0,299.91042000000004,27014.923,0.0,-0.050429723540349025,-0.050429057996941196,0.0,0.0,0.0,-2.004191776523328,-3.164138300826137,-3.0435320533482266,-0.003096337987609767,0.0014950185038468385,-0.6196234002945684
10087,13.0,299.90218,27054.624,0.0,-0.05043473802908738,-0.05043406020712837,0.0,0.0,0.0,-2.005015548854628,-3.165241426210007,-3.053673166974077,-0.002102272967653188,-0.003637929791935716,-0.6108020246589665
10088,13.0,300.03467,26994.467,0.0,-0.05043971952776827,-0.05043906241731555,0.0,0.0,0.0,-2.001294489187388,-3.162805775619627,-3.0415436513519873,0.005008152461791165,-0.005176665072672066,-0.6128392146475214
10089,13.0,299.82025,26995.382999999998,0.0,-0.05044473401650673,-0.050444064627502505,0.0,0.0,0.0,-1.9937538819431881,-3.1639892517364268,-3.0481792236068674,0.012082631526712887,0.003135325217007507,-0.6118140487263455
10090,13.0,299.89062,27040.984,0.0,-0.05044971551518762,-0.05044906683768968,0.0,0.0,0.0,-2.007869975711338,-3.168077918539947,-3.043835927053217,0.007018552117702164,0.009437680145326512,-0.6199212451614634
10091,13.0,300.10216,27098.623,0.0,-0.050454730003925974,-0.05045406904787664,0.0,0.0,0.0,-2.002685782899698,-3.177547449999517,-3.057071405159457,0.0004361801033601246,-0.0014528458187847185,-0.6221100578949824
10092,13.0,300.0478,27094.796000000002,0.0,-0.05045974449266444,-0.050459071258063815,0.0,0.0,0.0,-2.008357450334448,-3.1777756339220367,-3.050008342687387,-0.0038672870580715164,-0.0037896662235609364,-0.6272733574895605
10093,13.0,299.92157000000003,26986.429,0.0,-0.05046472599134533,-0.050464040558973355,0.0,0.0,0.0,-1.9991011066959181,-3.165166141727577,-3.0389333164443673,-0.003119289622249917,-0.0003393953556007137,-0.6215550197552043
10094,13.0,300.13399,26964.569,0.0,-0.05046974048008368,-0.05046904276916031,0.0,0.0,0.0,-2.000071293666668,-3.164490101260857,-3.031994174459527,-0.0003841652337166566,-0.0017870344468915683,-0.6236003258770605
10095,13.0,300.02237,27046.251,0.0,-0.05047472197876468,-0.05047404497934749,0.0,0.0,0.0,-2.0074465384945483,-3.1634727981604573,-3.050465622457517,-0.007271565227297614,-0.005144771505899415,-0.6129269013111753
10096,13.0,299.97081000000003,27122.019,0.0,-0.050479736467503034,-0.050479047189534665,0.0,0.0,0.0,-2.011462048640848,-3.1801610273074568,-3.052793361912247,-0.0033476432641616665,-0.0028127020281920774,-0.6184232156836194
10097,13.0,300.1809,27127.231,0.0,-0.05048471796618392,-0.05048404939972162,0.0,0.0,0.0,-2.0014645125541684,-3.1789143243844173,-3.065622121428347,-0.0014957949573984686,0.0021556679041978576,-0.6100429179490484
10098,13.0,300.12217000000004,27126.588,0.0,-0.05048973245492239,-0.0504890516099088,0.0,0.0,0.0,-2.014057184796968,-3.1790208169699268,-3.0527273993307373,0.007705872084535362,0.0020587363466314577,-0.6141584358802183
10099,13.0,300.05912,27151.745,0.0,-0.050494713953603276,-0.05049405382009575,0.0,0.0,0.0,-2.016615641299468,-3.1758275592797767,-3.0610091990230868,0.0020166805906308783,-0.007889828754765472,-0.6086524145718164
10100,13.0,300.07282000000004,27137.32,0.0,-0.05049972844234163,-0.05049905603028282,0.0,0.0,0.0,-2.017692320855728,-3.175840326231037,-3.055535216682847,0.0047772821092810355,-0.005542495677551734,-0.6147863874971924
10101,13.0,299.9095,27058.885,0.0,-0.05050474293108009,-0.050504058240469996,0.0,0.0,0.0,-2.004033000232658,-3.1701010750146175,-3.0510913043942676,0.004868719115530165,-0.001160508776783299,-0.6147013251512974
10102,13.0,299.96632999999997,27020.876,0.0,-0.05050972442976098,-0.05050906045065695,0.0,0.0,0.0,-2.0038073494353883,-3.163147038253307,-3.0467170023875574,0.007699569567588352,-0.0012181465967967089,-0.6226665956449083
10103,13.0,299.98775,27025.336,0.0,-0.050514738918499336,-0.05051406266084413,0.0,0.0,0.0,-1.992299361424638,-3.170161870020617,-3.0525661912398268,-0.003350357761179567,-0.001936162874084398,-0.6275275515421473
10104,13.0,299.93765,27013.442000000003,0.0,-0.050519720417180225,-0.05051906487103108,0.0,0.0,0.0,-1.9994252454029082,-3.1684345825751468,-3.0435522170252174,-0.0038751299178205463,0.0018186037736322184,-0.6265510418907734
10105,13.0,299.98897,27099.246,0.0,-0.05052473490591869,-0.05052406708121826,0.0,0.0,0.0,-2.002298417386468,-3.178307083599487,-3.056888716166427,-0.008411755603800643,0.006514639335569844,-0.6229459081674744
10106,13.0,300.16997000000003,27125.136000000002,0.0,-0.05052971640459958,-0.05052906929140544,0.0,0.0,0.0,-2.012251674443778,-3.181553942219927,-3.051558311365357,-0.0030085440207701774,0.004223435146320596,-0.6164037677043154
10107,13.0,300.15713,27109.264,0.0,-0.05053473089333793,-0.05053407150159239,0.0,0.0,0.0,-2.006556600931718,-3.176950037740557,-3.057032800330647,-0.006194057541730884,-0.003476242433728417,-0.6181092702726354
10108,13.0,300.17462,27154.693,0.0,-0.05053971239201893,-0.05053904080250193,0.0,0.0,0.0,-2.006154543292038,-3.1870483922121866,-3.0611456838115574,0.0002007557894680538,0.003445467697716187,-0.6159150062535784
10109,13.0,300.20786,27143.581000000002,0.0,-0.050544726880757285,-0.05054404301268911,0.0,0.0,0.0,-2.0039816284525878,-3.186335165466797,-3.060653953538027,-0.0035052638417676064,0.003876295864710616,-0.6198475109516864
10110,13.0,300.1679,27119.178,0.0,-0.05054974136949553,-0.050549045222876066,0.0,0.0,0.0,-2.012676732860728,-3.178420060985637,-3.052456152278967,0.0029908263295215774,0.0016492311160664385,-0.6182071400997945
10111,13.0,300.2312,27063.874,0.0,-0.05055472286817664,-0.05055404743306324,0.0,0.0,0.0,-2.0026946995005783,-3.170124683741947,-3.053922527823687,0.0026175591781829777,-0.006065907647258474,-0.6223017952114054
10112,13.0,299.93325,27036.956000000002,0.0,-0.0505597373569151,-0.0505590496432502,0.0,0.0,0.0,-2.005600396812348,-3.168314208463267,-3.044644804608047,0.002818366501551117,0.0017303056135428683,-0.6248591574037974
10113,13.0,299.88941,27097.211,0.0,-0.05056471885559588,-0.050564051853437375,0.0,0.0,0.0,-2.004777029781088,-3.173875634287137,-3.058222862573097,0.0018561175347345381,0.002003154309745938,-0.6222579417470774
10114,13.0,299.86474,27151.916,0.0,-0.050569733344334344,-0.05056905406362444,0.0,0.0,0.0,-2.009870030083728,-3.183267348139027,-3.0603670011097073,-0.008640974257322761,-4.257241323982006e-05,-0.6251900342239525
10115,13.0,300.07227,27148.032000000003,0.0,-0.050574714843015234,-0.050574056273811396,0.0,0.0,0.0,-2.012371339280588,-3.176224753318977,-3.063727647716377,-0.004052031327604355,-0.003484119034705777,-0.6166572119518284
10116,13.0,300.02634,27135.325,0.0,-0.05057972933175359,-0.050579058483998574,0.0,0.0,0.0,-2.020600956592788,-3.173324831532777,-3.054535544134187,-0.008034161165259972,0.004940060737846036,-0.6197912755711364
10117,13.0,299.89498,27142.587000000003,0.0,-0.05058474382049205,-0.05058406069418553,0.0,0.0,0.0,-2.007676242292218,-3.180841830049647,-3.0621505239357267,0.0024764827455598178,0.010384200430840792,-0.6138110836134374
10118,13.0,299.85572,27162.923,0.0,-0.05058972531917294,-0.050589062904372706,0.0,0.0,0.0,-2.018260956811848,-3.1817196086112767,-3.056869768389557,-0.008187155040259292,0.0018047715925420882,-0.6199843503776914
10119,13.0,300.09967,27196.939,0.0,-0.05059473980791129,-0.05059406511455988,0.0,0.0,0.0,-2.0126957819626083,-3.186762757008997,-3.0677319107865673,0.0013046195894809286,-0.007293528233815192,-0.6171592165813724
10120,13.0,300.08101,27133.29,0.0,-0.05059972130659218,-0.05059906732474684,0.0,0.0,0.0,-2.008876943660718,-3.183466553108687,-3.055499246304297,0.003345863895661057,-0.0008695962023024632,-0.6247230779153674
10121,13.0,300.19511,27098.001,0.0,-0.050604735795330646,-0.050604069534934015,0.0,0.0,0.0,-2.002055946637538,-3.180644144955137,-3.0544156766473574,0.011827743397807388,-0.002039139481747398,-0.6213361476011033
10122,13.0,300.23598,27095.74,0.0,-0.050609717294011536,-0.050609038835843556,0.0,0.0,0.0,-2.0087610278492782,-3.1796428512063173,-3.048024601641607,0.0025036194070879978,-0.004358036606829725,-0.6264057620914354
10123,13.0,300.02875,27132.604,0.0,-0.05061473178274978,-0.05061404104603051,0.0,0.0,0.0,-2.000406375474738,-3.187228041454917,-3.059999697948457,-0.0009006113724309223,-0.009016992484007872,-0.6244692385003154
10124,13.0,299.97979,27142.285,0.0,-0.05061971328143089,-0.05061904325621769,0.0,0.0,0.0,-2.0174960543113585,-3.1811258440526764,-3.0519549987795074,0.004085122758645226,0.0015078007551833487,-0.6243263702362154
10125,13.0,299.97636,27129.193,0.0,-0.05062472777016935,-0.050624045466404755,0.0,0.0,0.0,-1.9994583786811784,-3.183302001292447,-3.063836977402167,0.002363394408523868,0.005200167003441525,-0.6263457168905093
10126,13.0,299.88824,27167.476000000002,0.0,-0.050629742258907706,-0.05062904767659193,0.0,0.0,0.0,-2.016878579700418,-3.186074456216067,-3.055281194882777,-0.004169650007162416,-0.0006428068868226003,-0.6257598252851864
10127,13.0,300.0232,27225.228,0.0,-0.050634723757588596,-0.050634049886779,0.0,0.0,0.0,-2.018597761145088,-3.184682858528727,-3.072508777058007,-0.00926548892995756,-0.006095430006147103,-0.6171065073111704
10128,13.0,299.96661,27246.58,0.0,-0.05063973824632706,-0.050639052096966064,0.0,0.0,0.0,-2.027703535818758,-3.190785359905997,-3.0637908745226174,-0.0032366414117316372,0.003835689562978087,-0.6178991525993984
10129,13.0,299.96556,27229.846,0.0,-0.05064471974500784,-0.05064405430715324,0.0,0.0,0.0,-2.013910871482528,-3.1864549316286173,-3.0768273503092174,0.005659110530235724,0.006298355934149334,-0.6170776499483224
10130,13.0,300.03877,27217.803,0.0,-0.0506497342337463,-0.050649056517340196,0.0,0.0,0.0,-2.0219651965274283,-3.187411034422977,-3.064156353833687,0.0034613634639599766,0.00016722240913106683,-0.6180134269456764
10131,13.0,300.07666,27209.142999999996,0.0,-0.05065471573242719,-0.05065405872752715,0.0,0.0,0.0,-2.003109220116488,-3.190989023176097,-3.076801816406697,0.001150830211828099,-0.004339544589854707,-0.6206238429133044
10132,13.0,300.0578,27215.312,0.0,-0.05065973022116543,-0.05065906093771433,0.0,0.0,0.0,-2.024382405965988,-3.1836277611995967,-3.064765013168757,0.002062105707188988,-0.001037196442263319,-0.6180660348908684
10133,13.0,300.09106,27196.02,0.0,-0.050664711719846434,-0.050664063147901284,0.0,0.0,0.0,-2.017153373127538,-3.182353193898807,-3.0674046310042673,0.006894237577508274,0.003400924818020147,-0.6183333201347474
10134,13.0,299.91455,27156.52,0.0,-0.0506697262085849,-0.05066906535808846,0.0,0.0,0.0,-2.015198205734578,-3.181774830741727,-3.0579310465442973,0.0012836262633090488,-0.001107991922775289,-0.6170602929741095
10135,13.0,299.99127999999996,27211.78,0.0,-0.05067474069732314,-0.05067406756827553,0.0,0.0,0.0,-2.0102801937242085,-3.1918851415645366,-3.069536205239637,-0.0021715097655363278,-0.001882693362332368,-0.6209924632996844
10136,13.0,299.96873,27294.007,0.0,-0.05067972219600403,-0.05067903686918496,0.0,0.0,0.0,-2.027434517917208,-3.194035967551807,-3.075226111176187,-0.004561216860607056,0.008239685370493632,-0.6182813404046175
10137,13.0,300.02788,27292.439,0.0,-0.050684736684742604,-0.050684039079372134,0.0,0.0,0.0,-2.013220645514408,-3.199920012207517,-3.083079407401247,-0.0026032901849747376,0.005357488570942954,-0.6264671954449984
10138,13.0,299.89181,27216.974,0.0,-0.050689718183423604,-0.0506890412895592,0.0,0.0,0.0,-2.020089670592328,-3.190160792544357,-3.063029923697517,-0.002182912578186698,0.004327389236355066,-0.6224814545866364
10139,13.0,299.8071,27183.007999999998,0.0,-0.05069473267216196,-0.05069404349974638,0.0,0.0,0.0,-2.007212883021488,-3.1902647520046172,-3.0654779359391173,-0.004270679046808206,-0.0023210794631477074,-0.6281956683930854
10140,13.0,299.9255,27192.676,0.0,-0.05069971417084285,-0.050699045709933555,0.0,0.0,0.0,-2.015826015496538,-3.187003505232757,-3.063064880825967,-0.004339255914901216,0.0024330095539943477,-0.6212482886849324
10141,13.0,300.10114,27201.917999999998,0.0,-0.05070472865958131,-0.05070404792012051,0.0,0.0,0.0,-2.013554106122318,-3.1895659134106467,-3.065583921899577,-0.0014350123130496887,0.002897673384228097,-0.6267889732792553
10142,13.0,300.08444,27186.941000000003,0.0,-0.050709743148319664,-0.05070905013030769,0.0,0.0,0.0,-2.013765672743198,-3.185785375962537,-3.064600360027507,0.004531497728549006,0.0014176870535648188,-0.6240899080603785
10143,13.0,300.33142000000004,27170.773999999998,0.0,-0.05071472464700055,-0.05071405234049464,0.0,0.0,0.0,-2.0041281444170482,-3.191989911624877,-3.063118887056297,0.005275919506092715,-0.0021568082158603978,-0.6289010120526974
10144,13.0,300.21346,27233.855,0.0,-0.05071973913573902,-0.05071905455068182,0.0,0.0,0.0,-2.027373925561228,-3.188471096677597,-3.0625669697268267,-0.0007357455297199302,0.0009219070929626461,-0.6223433384655054
10145,13.0,300.24212,27333.086,0.0,-0.050724720634419684,-0.050724056760868774,0.0,0.0,0.0,-2.033571368472868,-3.195205156842197,-3.079799010202497,0.0033952668294617463,-0.005763467488509954,-0.6245591036516844
10146,13.0,299.97721,27352.558999999997,0.0,-0.05072973512315826,-0.05072905897105573,0.0,0.0,0.0,-2.037563877841898,-3.198893995156257,-3.078037069603607,-0.0017794166299897485,-0.00943768683277717,-0.6151719696902465
10147,13.0,300.0491,27242.257999999998,0.0,-0.05073471662183915,-0.05073406118124291,0.0,0.0,0.0,-2.015509476165298,-3.190966630348887,-3.074490086303547,0.0027763661703310077,-0.005068263929273706,-0.6211648272741954
10148,13.0,299.77842999999996,27200.562,0.0,-0.05073973111057739,-0.05073906339142997,0.0,0.0,0.0,-2.013028735945468,-3.1910354300306767,-3.064227483990707,-0.0002850624129084698,0.0017929352101739282,-0.6220018934468075
10149,13.0,299.84623999999997,27294.622000000003,0.0,-0.05074471260925828,-0.05074406560161715,0.0,0.0,0.0,-2.028024128150398,-3.195660714087157,-3.0731988003761073,-0.0061929535044219245,0.005883729230953864,-0.6248041784533714
10150,13.0,299.82717,27318.11,0.0,-0.050749727097996855,-0.05074906781180433,0.0,0.0,0.0,-2.043486122026378,-3.193222631696537,-3.067314451745367,-0.002020868150644158,0.002703830432772287,-0.6202212887810754
10151,13.0,299.93947000000003,27226.597999999998,0.0,-0.0507547415867351,-0.050754037112713646,0.0,0.0,0.0,-2.010295291150698,-3.196930113812437,-3.068980437559787,0.0033923400565478968,-0.00015958116588693486,-0.6296545560195663
10152,13.0,300.10207,27189.205,0.0,-0.05075972308541621,-0.05075903932290082,0.0,0.0,0.0,-2.008683210241598,-3.191491493900687,-3.0646647014088573,0.004315731793954566,-0.0005325107326897175,-0.6228929962472524
10153,13.0,300.13398,27276.76,0.0,-0.05076473757415445,-0.050764041533088,0.0,0.0,0.0,-2.009296327877108,-3.201988258311637,-3.080169353114047,0.0045852360555525655,-0.008090847644754491,-0.6289555958355844
10154,13.0,300.13093,27374.75,0.0,-0.05076971907283556,-0.050769043743274955,0.0,0.0,0.0,-2.026619155561738,-3.2089420924229266,-3.0856791031828172,-0.0012396131107652887,-0.006740924832702484,-0.6242612587847894
10155,13.0,299.98621,27344.401,0.0,-0.050774733561573915,-0.05077404595346213,0.0,0.0,0.0,-2.020730044655528,-3.2093122326844568,-3.0819730396170573,0.0027558138106026477,0.0018597769887956986,-0.6307290874856144
10156,13.0,299.83646,27229.212000000003,0.0,-0.050779715060254804,-0.05077904816364909,0.0,0.0,0.0,-2.0193485794691877,-3.194240644072007,-3.063411311035157,-0.0011606818399003788,-0.002892635200755867,-0.6267075181037164
10157,13.0,299.87096,27219.722999999998,0.0,-0.05078472954899327,-0.050784050373836265,0.0,0.0,0.0,-2.0040170922060883,-3.1981097395788574,-3.071989283731737,0.0012180493247871088,-0.004188262499574326,-0.6308721685322354
10158,13.0,300.07223,27331.015,0.0,-0.050789711047673936,-0.05078905258402344,0.0,0.0,0.0,-2.030421275236978,-3.198038913396867,-3.079485814596587,-0.006235375145033614,-0.004177114924624146,-0.6200053550522644
10159,13.0,299.74336,27366.452,0.0,-0.05079472553641251,-0.0507940547942104,0.0,0.0,0.0,-2.025673286593388,-3.2023595131482767,-3.090685166626877,0.004366149497730405,0.007160685572829644,-0.6215145809437134
10160,13.0,299.90707000000003,27265.127,0.0,-0.050799740025150975,-0.05079905700439735,0.0,0.0,0.0,-2.018509507061378,-3.195659802162067,-3.073748285905337,-0.0037235681705125663,0.005431629195335064,-0.6255679765112524
10161,13.0,299.82253,27229.822,0.0,-0.05080472152383164,-0.05080405921458453,0.0,0.0,0.0,-2.014448198010558,-3.196059934626557,-3.066677928032547,-0.0025011122210405576,0.006024429950439944,-0.6254078222004464
10162,13.0,300.09656,27378.726000000002,0.0,-0.050809736012570106,-0.050809061424771595,0.0,0.0,0.0,-2.043108078414068,-3.199758905441617,-3.079582174681097,-0.007792616020296322,0.00021529465170792777,-0.6254397598435985
10163,13.0,300.193,27438.362999999998,0.0,-0.050814717511250995,-0.05081406363495877,0.0,0.0,0.0,-2.037063433617508,-3.207780806483317,-3.0957330773000673,-0.001972341272879928,0.0025797810601295677,-0.6259631744477554
10164,13.0,300.08844,27340.687,0.0,-0.05081973199998935,-0.05081906584514573,0.0,0.0,0.0,-2.0264352506685883,-3.2042806353378768,-3.0801701637141266,0.003939456404394076,-0.0037187531047123564,-0.6189171751073693
10165,13.0,299.82428,27299.527000000002,0.0,-0.05082471349867046,-0.05082403514605527,0.0,0.0,0.0,-2.013604059352248,-3.201274524941197,-3.0834959545173573,0.0074779771409438835,0.00013124220205509686,-0.6213461078495864
10166,13.0,300.00669,27371.892999999996,0.0,-0.0508297279874087,-0.050829037356242446,0.0,0.0,0.0,-2.034292295919018,-3.2014531609338266,-3.084626538978937,0.0071618625641458045,-0.0014015457768217986,-0.6176990863671534
10167,13.0,300.1086,27400.324,0.0,-0.050834742476147055,-0.0508340395664294,0.0,0.0,0.0,-2.035995569337118,-3.204792326638377,-3.088226515259227,-0.002331371145738418,0.0025901405291519674,-0.6280062514193914
10168,13.0,300.26707000000005,27392.242000000002,0.0,-0.050839723974828166,-0.05083904177661658,0.0,0.0,0.0,-2.035582669921368,-3.204438094403417,-3.0865367180674568,-0.004724490259195886,0.001864455164507398,-0.6216974016592564
10169,13.0,300.19574,27337.35,0.0,-0.05084473846356641,-0.05084404398680353,0.0,0.0,0.0,-2.018376467323248,-3.211336098434197,-3.080159220613047,-0.007181155555324874,-0.0017618403884551081,-0.6297187960759064
10170,13.0,300.02216,27298.205,0.0,-0.05084971996224752,-0.05084904619699071,0.0,0.0,0.0,-2.020461634704038,-3.201078562371857,-3.0764323854202367,0.0006967392816178133,-0.0015724116610599487,-0.6226667374999224
10171,13.0,299.89736,27351.887000000002,0.0,-0.05085473445098576,-0.05085404840717789,0.0,0.0,0.0,-2.019535422787628,-3.209898296542297,-3.084856850726667,-0.002750733779901287,0.004179724144956655,-0.6345877161189314
10172,13.0,299.92714,27370.567000000003,0.0,-0.05085971594966676,-0.05085905061736484,0.0,0.0,0.0,-2.025921735517908,-3.212992964997717,-3.081054325751387,-9.85889996559767e-05,-0.0013013320995314786,-0.6246547139311205
10173,13.0,299.86616000000004,27322.301,0.0,-0.050864730438405226,-0.05086405282755202,0.0,0.0,0.0,-2.0190424766139783,-3.207605412891007,-3.078649275314027,0.002917519812611787,0.0014470479003875088,-0.6340338432167685
10174,13.0,299.77547000000004,27325.37,0.0,-0.05086971193708589,-0.050869055037738975,0.0,0.0,0.0,-2.024857417612868,-3.210272793779257,-3.071099852793957,0.007575994598642452,-0.002582064317904908,-0.6291533417251004
10175,13.0,299.9118,27394.125,0.0,-0.05087472642582436,-0.05087405724792615,0.0,0.0,0.0,-2.034326341122378,-3.210358210762687,-3.082445416813677,0.00953967997989311,0.0006608426474100914,-0.6287219910250295
10176,13.0,300.13383,27415.55,0.0,-0.05087974091456293,-0.05087905945811322,0.0,0.0,0.0,-2.037188570004858,-3.207026441783867,-3.089427621927767,0.0015817416679807486,-0.005970553112147714,-0.6199117307430244
10177,13.0,300.11271,27364.892999999996,0.0,-0.0508847224132436,-0.05088406166830017,0.0,0.0,0.0,-2.025374783113928,-3.2076603310464264,-3.0852089551364172,-0.0036942600126950763,-0.0028890222548742972,-0.6268007269804153
10178,13.0,300.17383,27355.317000000003,0.0,-0.05088973690198206,-0.05088906387848735,0.0,0.0,0.0,-2.0286442372115983,-3.202776566889437,-3.0839124003084573,-0.0022295119502856978,-0.004790363877347105,-0.6219891062305455
10179,13.0,299.96982,27374.464,0.0,-0.05089471840066295,-0.050894033179397,0.0,0.0,0.0,-2.0323310490254585,-3.2070853116146765,-3.081737053668767,-0.003295050011096117,0.002277047869452128,-0.6289362224936724
10180,13.0,299.95138,27429.183999999997,0.0,-0.050899732889401306,-0.05089903538958407,0.0,0.0,0.0,-2.037500853685678,-3.2089033862691068,-3.091382890645737,-0.0024928963839297175,-0.0014790846393992886,-0.6220029674919134
10181,13.0,299.85496,27435.481,0.0,-0.05090471438808242,-0.050904037599771024,0.0,0.0,0.0,-2.035568788394998,-3.2172340246162765,-3.0868984483531574,-0.0045401512897030455,-0.001153012347243459,-0.6290444578693544
10182,13.0,299.91175,27412.452999999998,0.0,-0.05090972887682066,-0.05090903980995798,0.0,0.0,0.0,-2.032204899388008,-3.2140688339538968,-3.0864273883816673,0.005506404215614785,-0.001133086986676979,-0.6258349881776044
10183,13.0,300.04004,27370.431,0.0,-0.05091471037550177,-0.050914042020145156,0.0,0.0,0.0,-2.020344300342458,-3.2113469402102672,-3.088236343785197,0.005591005836689315,0.004011723833326316,-0.6308816018906664
10184,13.0,300.32166,27408.412,0.0,-0.05091972486424001,-0.05091904423033233,0.0,0.0,0.0,-2.035979256010508,-3.209294906107747,-3.086198596509087,0.004804348349927266,-0.0014139016525162287,-0.6217863548855355
10185,13.0,300.17458,27426.647999999997,0.0,-0.05092473935297859,-0.05092404644051929,0.0,0.0,0.0,-2.030678438112358,-3.211816885606647,-3.0945210275304467,-0.0033226144668165166,0.0007866545078067551,-0.6309158396115454
10186,13.0,300.39502000000005,27376.375,0.0,-0.05092972085165948,-0.050929048650706465,0.0,0.0,0.0,-2.0303481185797585,-3.209990097001357,-3.081396297660137,-0.004185021821779497,0.001099737075535599,-0.6279716793259795
10187,13.0,299.95418,27339.087000000003,0.0,-0.05093473534039772,-0.05093405086089353,0.0,0.0,0.0,-2.0196038171693784,-3.211229909823717,-3.079565861354487,-0.0001689442047609948,0.00899336045192557,-0.6369851367830384
10188,13.0,299.89542,27404.646,0.0,-0.05093971683907861,-0.05093905307108071,0.0,0.0,0.0,-2.035765966864458,-3.207213893052367,-3.087348230072547,-0.0031997530285910367,0.0050874017918624646,-0.6275523559045955
10189,13.0,300.04014,27459.463,0.0,-0.05094473132781718,-0.050944055281267775,0.0,0.0,0.0,-2.027094775158678,-3.2222698776132765,-3.097626537761937,-0.0009158278051451671,0.0005487042728728954,-0.6331111371457043
10190,13.0,299.91197999999997,27443.807,0.0,-0.05094971282649785,-0.05094905749145484,0.0,0.0,0.0,-2.0383537062948482,-3.2154894105940968,-3.0883889392502573,-0.003523243762142087,-0.003423979297545447,-0.6286083246288113
10191,13.0,299.84805,27436.974,0.0,-0.050954727315236314,-0.050954059701641796,0.0,0.0,0.0,-2.028935343965328,-3.2169743286156467,-3.094245322178237,-0.00028534348848620973,-0.002923123186989797,-0.6293698428739675
10192,13.0,300.02412999999996,27432.937,0.0,-0.05095974180397478,-0.05095906191182897,0.0,0.0,0.0,-2.0359821944357983,-3.213404344538317,-3.0895412072639767,0.001806416198779398,-0.0025805238737778772,-0.6284909902672314
10193,13.0,299.89767,27467.39,0.0,-0.05096472330265556,-0.050964031212738514,0.0,0.0,0.0,-2.038815343040408,-3.213335646181537,-3.097249608724737,-0.00023394727895629876,0.005200168219341645,-0.6241152899753835
10194,13.0,300.0373,27462.272999999997,0.0,-0.05096973779139402,-0.05096903342292569,0.0,0.0,0.0,-2.035535959091758,-3.215119270332567,-3.0971900296188575,-0.0012535675911424888,0.0035595006878203664,-0.6278332389648165
10195,13.0,300.27619,27405.845,0.0,-0.05097471929007491,-0.050974035633112647,0.0,0.0,0.0,-2.027305125879438,-3.212091476383747,-3.091295852462147,0.0013660800981466084,0.0014797613891410783,-0.6199253690893705
10196,13.0,299.82391,27404.222,0.0,-0.05097973377881326,-0.0509790378432996,0.0,0.0,0.0,-2.0331592796571982,-3.210200853022157,-3.086838970572287,0.004399237179745906,-0.004806309596820826,-0.6237114490155274
10197,13.0,299.81189,27504.868,0.0,-0.050984715277494264,-0.05098404005348678,0.0,0.0,0.0,-2.041932809623078,-3.216119753481307,-3.1027406136666573,0.0028723259197264974,-0.005889308489979495,-0.6222826143870124
10198,13.0,299.97225,27528.781000000003,0.0,-0.05098972976623284,-0.050989042263673734,0.0,0.0,0.0,-2.045826020482308,-3.219732395387847,-3.102503614468267,-0.0026127301295313875,-0.006288062731683474,-0.6304640313919554
10199,13.0,300.34061,27494.199,0.0,-0.05099471126491373,-0.05099404447386091,0.0,0.0,0.0,-2.034280339567838,-3.224111358345017,-3.099158369263117,-0.005831564278705584,-0.002289898109870348,-0.6262890964749214
10200,13.0,300.12261,27473.183999999997,0.0,-0.05099972575365197,-0.05099904668404798,0.0,0.0,0.0,-2.035790690166898,-3.221400509027477,-3.0939707314011367,0.0008282460027440163,-0.0022984617957405177,-0.6330302493902215
10201,13.0,300.24167,27487.22,0.0,-0.051004740242390434,-0.051004048894235154,0.0,0.0,0.0,-2.040066909563928,-3.217979371389837,-3.097382243162827,0.0015849179030692185,0.0018912389110257483,-0.6299261374438694
10202,13.0,299.82238,27441.58,0.0,-0.05100972174107132,-0.05100905110442233,0.0,0.0,0.0,-2.037472077382838,-3.2193062223957867,-3.0847768039687673,0.004176875493625516,-0.004584613514691126,-0.6323276313733784
10203,13.0,299.72756,27414.498,0.0,-0.051014736229809676,-0.05101405331460929,0.0,0.0,0.0,-2.0197446589332784,-3.219723478786967,-3.093854511614667,-0.002158583126060568,-0.002347013802107228,-0.6330521355923814
10204,13.0,299.75877,27408.682,0.0,-0.051019717728490566,-0.051019055524796464,0.0,0.0,0.0,-2.023627534641488,-3.2191746012077966,-3.0887527973611673,0.0006791282146772364,0.00011972254140319488,-0.6264228860181255
10205,13.0,299.96937,27429.726000000002,0.0,-0.05102473221722903,-0.05102405773498342,0.0,0.0,0.0,-2.0250020084021383,-3.218886230229337,-3.0940636464353073,0.004698280822834215,0.000992923968621466,-0.6324676017421924
10206,13.0,299.87417,27492.232000000004,0.0,-0.05102971371590981,-0.051029059945170596,0.0,0.0,0.0,-2.0392351325568376,-3.224044382513407,-3.0936724305716967,0.0036965697162980268,0.0029160061182873973,-0.6260215376535154
10207,13.0,300.11186000000004,27516.743,0.0,-0.05103472820464827,-0.05103406215535755,0.0,0.0,0.0,-2.043301203883128,-3.2276734390715673,-3.093428237297597,-0.0018097026754787483,-0.0008787609886619573,-0.6312346790205124
10208,13.0,299.92816,27500.334,0.0,-0.05103970970332916,-0.05103903145626709,0.0,0.0,0.0,-2.041067190062648,-3.223942956178397,-3.0944047064189673,-4.0152117441455464e-05,-0.003727683992418767,-0.6269364720963124
10209,13.0,299.96218999999996,27531.556,0.0,-0.051044724192067514,-0.05104403366645427,0.0,0.0,0.0,-2.038973511381018,-3.225897718271317,-3.104034331394337,-0.005246923226656005,-0.0006242184388355635,-0.6303208388878234
10210,13.0,299.98913,27585.286,0.0,-0.05104973868080598,-0.051049035876641224,0.0,0.0,0.0,-2.050826511050818,-3.2293346626105173,-3.1050768644222266,-0.0022474987607608576,0.0015207352980098887,-0.6257055049473255
10211,13.0,300.11016,27537.497000000003,0.0,-0.05105472017948709,-0.0510540380868284,0.0,0.0,0.0,-2.0397527007079184,-3.223431264877897,-3.107527409789077,-0.00876174130759154,0.003928275594840616,-0.6244077443517464
10212,13.0,300.22005,27471.151,0.0,-0.05105973466822533,-0.05105904029701536,0.0,0.0,0.0,-2.037594376669908,-3.221031989966107,-3.0919175827235073,-0.0065631496973574425,0.004073202377843777,-0.6250587676734974
10213,13.0,300.39592999999996,27487.452999999998,0.0,-0.05106471616690622,-0.05106404250720242,0.0,0.0,0.0,-2.044417197543268,-3.217845115751587,-3.093237037003727,-0.0006153366430964984,-5.3823136036929954e-05,-0.6234558668103034
10214,13.0,300.11929,27552.471,0.0,-0.051069730655644685,-0.0510690447173896,0.0,0.0,0.0,-2.045301967530588,-3.2235336031379966,-3.106427729455547,0.006433264612088784,-0.0007370003994387764,-0.6291422972990104
10215,13.0,300.16656,27543.183999999997,0.0,-0.051074712154325574,-0.05107404692757678,0.0,0.0,0.0,-2.040062856563528,-3.227591568463487,-3.104785757668497,0.006026117417156484,-0.0052648046591207654,-0.6297619200001624
10216,13.0,299.9699,27523.765,0.0,-0.05107972664306393,-0.05107904913776373,0.0,0.0,0.0,-2.0345129817907983,-3.2276008903644073,-3.104423318107727,0.004989230826773745,-0.005583681355691444,-0.6337224511960363
10217,13.0,300.07442000000003,27547.737,0.0,-0.05108474113180239,-0.05108405134795091,0.0,0.0,0.0,-2.036487299610648,-3.227701708749357,-3.1096353752971173,0.002228403657326318,0.004097933077009506,-0.6344474823050914
10218,13.0,299.96146,27555.202,0.0,-0.05108972263048328,-0.051089053558137865,0.0,0.0,0.0,-2.0457042278202877,-3.2319661744452266,-3.098422952340537,0.0026017255241703174,0.005002772103760165,-0.6343250310305064
10219,13.0,299.86523,27543.562,0.0,-0.051094737119221634,-0.05109405576832504,0.0,0.0,0.0,-2.048080400629798,-3.224786182911617,-3.099688400390427,-0.0041546470155817364,0.007738146126720562,-0.6323725183528084
10220,13.0,300.00505,27546.111,0.0,-0.05109971861790252,-0.05109905797851222,0.0,0.0,0.0,-2.040289013985848,-3.2321297130113673,-3.1009111906111073,-0.007954762380798923,0.001964166877698178,-0.6344642617267474
10221,13.0,300.28253,27537.209,0.0,-0.05110473310664099,-0.051104060188699174,0.0,0.0,0.0,-2.0378273228678982,-3.229021568329617,-3.103775040693747,-0.005936106256448074,0.0032629289696760166,-0.6314179759636024
10222,13.0,300.17114,27522.542,0.0,-0.051109714605321654,-0.051109029489608715,0.0,0.0,0.0,-2.037073160818468,-3.2240962609185266,-3.1049962097142676,-0.0007872850026814802,0.0007839633864686622,-0.6310118349260194
10223,13.0,300.24088,27553.617000000002,0.0,-0.05111472909406023,-0.05111403169979589,0.0,0.0,0.0,-2.035881578700868,-3.229686564370247,-3.110043512437397,0.005719976261092704,-0.006149868488969764,-0.6280870581148664
10224,13.0,300.11635,27554.727000000003,0.0,-0.05111971059274123,-0.05111903390998285,0.0,0.0,0.0,-2.043162591269448,-3.227016650356747,-3.1057695221905868,0.003705256917355386,-0.006404455074645504,-0.6290466464895703
10225,13.0,300.00971,27581.886000000002,0.0,-0.05112472508147958,-0.051124036120170024,0.0,0.0,0.0,-2.044119808638918,-3.230894257164437,-3.109190457178207,0.005194129451395665,-0.0025258203247290577,-0.6301045302564754
10226,13.0,300.05354,27597.42,0.0,-0.051129739570217936,-0.05112903833035698,0.0,0.0,0.0,-2.047721710094398,-3.2341081851566265,-3.107096677171567,0.0043607338785959255,-0.0024982227357303877,-0.6375474196610313
10227,13.0,299.99675,27581.647,0.0,-0.051134721068898936,-0.051134040540544046,0.0,0.0,0.0,-2.0470843757814983,-3.2286932752972173,-3.108354525845707,0.0017440113410205184,-0.002009694940466448,-0.6279335405922154
10228,13.0,299.92576,27561.932,0.0,-0.05113973555763729,-0.05113904275073122,0.0,0.0,0.0,-2.038845031268338,-3.235420040061097,-3.1038740352285172,0.002827167794569737,0.001995877856802808,-0.6376720392908304
10229,13.0,299.99086,27624.818,0.0,-0.05114471705631818,-0.05114404496091818,0.0,0.0,0.0,-2.043231593601258,-3.2385137965914264,-3.115509490101847,0.003982615995053596,0.004956320767500776,-0.6249630459365504
10230,13.0,299.97062,27644.732000000004,0.0,-0.05114973154505664,-0.051149047171105355,0.0,0.0,0.0,-2.055110025848568,-3.2335864626801367,-3.114611750513247,-0.0036737384557697567,0.005656543866407415,-0.6279633808076603
10231,13.0,300.0654,27584.666,0.0,-0.05115471304373753,-0.05115404938129231,0.0,0.0,0.0,-2.044223666774168,-3.231807195504537,-3.109018711286257,-0.0010469434016002691,0.00038655771985277666,-0.6261787738040334
10232,13.0,300.10264,27542.66,0.0,-0.051159727532475885,-0.05115905159147949,0.0,0.0,0.0,-2.038249240209538,-3.2300811239591867,-3.103950738261087,-0.006041334103183254,-9.37562637872728e-05,-0.6411006040517034
10233,13.0,300.10179,27580.154,0.0,-0.051164709031156774,-0.051164053801666665,0.0,0.0,0.0,-2.041462053626618,-3.2314961277238368,-3.110720160854177,-0.0015807054171034784,0.0011946492256526989,-0.6333469913714813
10234,13.0,300.14416,27628.099,0.0,-0.05116972351989524,-0.05116905601185362,0.0,0.0,0.0,-2.038142646299018,-3.242246002009767,-3.117863472734167,-0.0037347884968199265,0.00030972905440287767,-0.6414013468138844
10235,13.0,300.13974,27606.346,0.0,-0.05117473800863359,-0.0511740582220408,0.0,0.0,0.0,-2.0456565037405783,-3.2294720593240767,-3.116511189150707,0.0004072290250103757,0.0006695656871234883,-0.6295663525983614
10236,13.0,300.18177000000003,27579.011000000002,0.0,-0.05117971950731448,-0.05117902752295034,0.0,0.0,0.0,-2.045392552089528,-3.2304571410712972,-3.107481104259507,0.0028276678334940874,0.0017694836379344382,-0.6350827394552864
10237,13.0,300.1174,27611.709,0.0,-0.051184733996052945,-0.05118402973313729,0.0,0.0,0.0,-2.0470228715004284,-3.2381521676307368,-3.108094829845077,0.004000547279423276,0.0027102880783096074,-0.6315341045575634
10238,13.0,300.0847,27675.891,0.0,-0.051189715494733834,-0.05118903194332447,0.0,0.0,0.0,-2.054615965099808,-3.244398043897157,-3.1137657880047573,0.0018378661646582682,0.0049215529141694555,-0.6369787938374124
10239,13.0,299.90355,27726.88,0.0,-0.051194729983472076,-0.051194034153511536,0.0,0.0,0.0,-2.0596858633001682,-3.2520650034288265,-3.116528211752387,0.002172578845716838,-0.0008780500417292922,-0.6317500686838774
10240,13.0,300.06588,27654.539,0.0,-0.05119971148215319,-0.0511990363636986,0.0,0.0,0.0,-2.044560775082438,-3.244152128097887,-3.117576520305847,0.0011411676562244788,0.0006296567446397824,-0.6335315751421984
10241,13.0,300.04128,27561.702999999998,0.0,-0.05120472597089154,-0.05120403857388567,0.0,0.0,0.0,-2.040222240804258,-3.232507047348607,-3.105340106798207,0.0019351788055872784,-0.0023258024245138274,-0.6262440676404775
10242,13.0,300.00301,27628.308999999997,0.0,-0.05120974045962978,-0.051209040784072846,0.0,0.0,0.0,-2.046898748363178,-3.237259696942657,-3.114157510493417,-0.00026863148849186374,-0.0014385783454516287,-0.6296156877457304
10243,13.0,299.87748,27692.145,0.0,-0.051214721958310894,-0.0512140429942598,0.0,0.0,0.0,-2.0549060586034376,-3.2377495020409968,-3.125064945169897,-0.006727380515965763,-0.0035310765907151267,-0.6271828235931254
10244,13.0,300.16501,27660.717,0.0,-0.05121973644704925,-0.051219045204446756,0.0,0.0,0.0,-2.0516101586781583,-3.2406879273309968,-3.1158689912373267,-0.004613124649979956,0.002271684331372788,-0.6353615554853034
10245,13.0,300.09062,27610.27,0.0,-0.051224717945730136,-0.05122404741463393,0.0,0.0,0.0,-2.042625163416408,-3.235270585671347,-3.114937003795347,-0.0052862904248412446,0.002234804864833068,-0.6360646699946955
10246,13.0,300.06498,27634.97,0.0,-0.0512297324344686,-0.05122904962482111,0.0,0.0,0.0,-2.041615966316808,-3.241555472066617,-3.1171692950906573,0.0024979175448002675,0.0004332103889070367,-0.6383046417257634
10247,13.0,299.89947,27684.801,0.0,-0.05123471393314949,-0.051234051835008065,0.0,0.0,0.0,-2.059591428390848,-3.238005043716217,-3.117891742411957,0.002455415249480618,-0.001984097000540128,-0.6308778933953004
10248,13.0,299.96563,27722.727000000003,0.0,-0.05123972842188784,-0.05123905404519524,0.0,0.0,0.0,-2.058865941319248,-3.2434670697052765,-3.124683760482277,0.005005776288981655,0.0015980735370675783,-0.6322094560142154
10249,13.0,299.79717999999997,27640.928,0.0,-0.05124470992056873,-0.05124405625538231,0.0,0.0,0.0,-2.055184195755888,-3.240346158072267,-3.106621564199677,0.005442560745363925,-0.006371277112046094,-0.6358666099976484
10250,13.0,300.08108,27593.533,0.0,-0.051249724409307196,-0.051249058465569486,0.0,0.0,0.0,-2.038185506778248,-3.2422183402820366,-3.107341073095687,0.0051276223492819255,-0.003221714920533507,-0.6397472666881394
10251,13.0,299.7502,27652.461,0.0,-0.05125473889804544,-0.051254027766478916,0.0,0.0,0.0,-2.0473686937595583,-3.2446490259469267,-3.113639942342337,-0.002241920211010298,-0.0036790340047673864,-0.6395163368578484
10252,13.0,299.88035,27727.261000000002,0.0,-0.05125972039672633,-0.05125902997666598,0.0,0.0,0.0,-2.048861413806878,-3.250436609193117,-3.129097072617837,-0.0034264438257636766,9.668527497059371e-05,-0.6353569451973484
10253,13.0,300.06925,27666.697999999997,0.0,-0.0512647348854649,-0.05126403218685316,0.0,0.0,0.0,-2.050560938199608,-3.241635316174497,-3.1177891001768265,-0.006065856782103454,-0.0005946737884447335,-0.6300478591783825
10254,13.0,300.08873,27607.837000000003,0.0,-0.05126971638414579,-0.051269034397040225,0.0,0.0,0.0,-2.0351489988785683,-3.244103086793047,-3.112840893313477,-0.002968613759504367,-0.0015120472863524486,-0.6366298203704714
10255,13.0,300.06939,27679.097999999998,0.0,-0.05127473087288403,-0.05127403660722729,0.0,0.0,0.0,-2.050197080088698,-3.245790553509587,-3.117766909999637,-0.002285910058801758,-0.0007598605882574012,-0.6318185441256354
10256,13.0,300.11152000000004,27754.112999999998,0.0,-0.051279712371565145,-0.05127903881741447,0.0,0.0,0.0,-2.0588218649398984,-3.249764621726797,-3.1279707438066766,-0.0027065648908171573,0.004701196449996965,-0.6389889908433034
10257,13.0,299.96482000000003,27748.207000000002,0.0,-0.0512847268603035,-0.051284041027601424,0.0,0.0,0.0,-2.061444966798778,-3.248817536858327,-3.124499652939107,-1.6738141846925988e-05,0.003056678264120657,-0.6333582485800924
10258,13.0,300.00673,27689.104,0.0,-0.05128970835898439,-0.05128904323778838,0.0,0.0,0.0,-2.053008950441208,-3.2440464461124567,-3.119740721194437,0.0016212988505597385,0.00046950609166664353,-0.6363532841531794
10259,13.0,299.95592999999997,27636.122000000003,0.0,-0.05129472284772285,-0.051294045447975556,0.0,0.0,0.0,-2.051403658307778,-3.2385989095998267,-3.110688344801037,0.009077516749581151,-0.0012015481416085688,-0.6310385644636574
10260,13.0,299.74429,27691.317000000003,0.0,-0.05129973733646109,-0.05129904765816251,0.0,0.0,0.0,-2.050715458839858,-3.244243016631857,-3.122510541667797,0.01036968663640839,0.0009364059216910691,-0.6316348520150064
10261,13.0,299.65148,27801.255,0.0,-0.05130471883514198,-0.05130404986834969,0.0,0.0,0.0,-2.070224474940248,-3.248699189246647,-3.1319637598007573,0.008655569314413181,-0.002163484014144248,-0.6302200306353745
10262,13.0,299.50273,27751.234,0.0,-0.05130973332388056,-0.051309052078536754,0.0,0.0,0.0,-2.055637118550588,-3.2515013323981967,-3.1285437367382265,0.002959729481302557,-0.005065681154768805,-0.6362896216493964
10263,13.0,299.82915,27628.304,0.0,-0.05131471482256145,-0.05131405428872393,0.0,0.0,0.0,-2.038487961933098,-3.2448800469697265,-3.114946528346287,-0.0004071697194820226,-0.0027209577031876175,-0.6420963451899754
10264,13.0,299.93563,27675.821,0.0,-0.05131972931129969,-0.05131905649891111,0.0,0.0,0.0,-2.045149169415508,-3.244825128814307,-3.1227843218448172,-0.0003858448984074267,0.003378588327515707,-0.6371792552371963
10265,13.0,299.9368,27800.767999999996,0.0,-0.05132471080998058,-0.05132402579982043,0.0,0.0,0.0,-2.0667862133759183,-3.2576064682257266,-3.126346402571367,-0.008826682938300781,0.005248444723006165,-0.6334547505196164
10266,13.0,300.06325,27767.203999999998,0.0,-0.05132972529871915,-0.051329028010007605,0.0,0.0,0.0,-2.056031982114558,-3.255131807506497,-3.129372980620067,-0.010741367038090388,0.004056657624910936,-0.6351915321185234
10267,13.0,300.23753,27678.881,0.0,-0.051334739787457395,-0.05133403022019478,0.0,0.0,0.0,-2.0466558723142083,-3.2526582613623765,-3.114374548664837,-0.0013014134635145086,0.0036072240582552964,-0.6377767384236633
10268,13.0,300.16177000000005,27698.744,0.0,-0.051339721286138285,-0.05133903243038174,0.0,0.0,0.0,-2.044769504603038,-3.253237637769557,-3.121719395989717,0.0009761293583464671,0.0077490981444014425,-0.6394539915791954
10269,13.0,300.14911,27784.126,0.0,-0.05134473577487675,-0.051344034640568914,0.0,0.0,0.0,-2.0596560737472283,-3.2546760476115173,-3.1313484130150266,0.006194657385790084,0.003533494610753767,-0.6378752567308864
10270,13.0,299.93405,27809.322,0.0,-0.05134971727355775,-0.05134903685075587,0.0,0.0,0.0,-2.066787429276038,-3.257327621798207,-3.129224539480417,0.0023836767371005776,0.0050945761091955154,-0.6400550008760104
10271,13.0,299.6942,27783.432999999997,0.0,-0.05135473176229621,-0.051354039060943046,0.0,0.0,0.0,-2.062524888755358,-3.254486063217767,-3.128458826379847,0.008150832658624553,0.004381635302983735,-0.6318750632162135
10272,13.0,299.66832999999997,27696.119,0.0,-0.0513597132609771,-0.05135904127113,0.0,0.0,0.0,-2.049414344386448,-3.2480212236047366,-3.1214928332673573,0.005837927489333584,-0.0018989652470132782,-0.6345509959353074
10273,13.0,299.93942999999996,27725.067000000003,0.0,-0.051364727749715344,-0.05136404348131718,0.0,0.0,0.0,-2.057942971803158,-3.2475595868591767,-3.1222253117646472,0.005077047287765555,-0.0038423875514391266,-0.6334840841100113
10274,13.0,299.93904,27833.673,0.0,-0.051369709248396234,-0.051369045691504134,0.0,0.0,0.0,-2.0642393079245585,-3.2548753539061868,-3.141626822029427,-0.005778188492587805,-0.006674879367334304,-0.6325284170131944
10275,13.0,300.04859,27799.195,0.0,-0.05137472373713481,-0.0513740479016912,0.0,0.0,0.0,-2.063992480200198,-3.2533570999563466,-3.132911452619287,-0.0036074409951017067,-0.002481538255608758,-0.6365588624659684
10276,13.0,300.03484,27679.311,0.0,-0.05137973822587305,-0.05137905011187838,0.0,0.0,0.0,-2.046596698508368,-3.245716282277257,-3.121506410818697,-0.006094517675757064,0.005628642505028765,-0.6351733037492243
10277,13.0,300.03483,27691.495,0.0,-0.05138471972455394,-0.051384052322065554,0.0,0.0,0.0,-2.0510634089241977,-3.2507690565509266,-3.115690760544737,0.0009390521053872271,0.003747414099690976,-0.6409214209040193
10278,13.0,299.89287,27830.335,0.0,-0.051389734213292404,-0.05138905453225251,0.0,0.0,0.0,-2.0670279748497777,-3.2568879725798174,-3.1358108677804366,0.001076140000581749,0.001713823783441238,-0.6323083796214783
10279,13.0,300.21013999999997,27870.564,0.0,-0.051394715711973404,-0.05139402383316205,0.0,0.0,0.0,-2.075640702024788,-3.2621554545496765,-3.134159472767457,-0.003512031440510517,-0.0013275990884988288,-0.6417811940113725
10280,13.0,300.00166,27755.613999999998,0.0,-0.051399730200711646,-0.05139902604334923,0.0,0.0,0.0,-2.0483513437065377,-3.257401386405487,-3.131260868206387,0.009526448757437292,0.00019466297476173982,-0.6403558449632014
10281,13.0,300.16229,27697.196,0.0,-0.051404711699392536,-0.05140402825353618,0.0,0.0,0.0,-2.0502581790697283,-3.2479912314017767,-3.121006574544367,0.003479172347717577,-0.0005336128853534914,-0.6424507294124504
10282,13.0,300.18212,27779.211,0.0,-0.051409726188131,-0.05140903046372336,0.0,0.0,0.0,-2.052593011275158,-3.255819500349367,-3.135774086801807,0.008986824887455561,0.0006944573208026014,-0.6352219093565215
10283,13.0,300.17854,27855.181,0.0,-0.05141470768681189,-0.051414032673910315,0.0,0.0,0.0,-2.065644787138268,-3.263551814512487,-3.138082777154657,-0.0007469468575879152,-0.004360097962833166,-0.6399664630822723
10284,13.0,300.05605,27826.612999999998,0.0,-0.051419722175550464,-0.05141903488409749,0.0,0.0,0.0,-2.0626017944379478,-3.2579788376374768,-3.138014889397957,0.0038209672416751063,-0.0011592063451047589,-0.6318258597913574
10285,13.0,299.95097999999996,27727.655,0.0,-0.051424736664288706,-0.05142403709428467,0.0,0.0,0.0,-2.047119738209988,-3.258077629522227,-3.1233173927224267,-0.0023186645841843777,-0.005351241174801386,-0.6351481143517383
10286,13.0,299.84337,27732.869,0.0,-0.051429718162969595,-0.051429039304471624,0.0,0.0,0.0,-2.043662224893758,-3.2545546602495365,-3.1318828011177673,0.003189045913459327,-0.003955276784830426,-0.6347169257716834
10287,13.0,300.25385,27891.315,0.0,-0.05143473265170817,-0.0514340415146588,0.0,0.0,0.0,-2.070775581669638,-3.266676069870827,-3.140811864973997,-0.007737398753446804,0.0026628187296747477,-0.6344409468419464
10288,13.0,300.21887000000004,27922.807999999997,0.0,-0.05143971415038906,-0.05143904372484576,0.0,0.0,0.0,-2.0710645605981584,-3.271395079561557,-3.145376657999507,-0.0035049806383646563,0.0038904094253535164,-0.6359852311868553
10289,13.0,300.10809,27809.484,0.0,-0.0514447286391273,-0.05144404593503282,0.0,0.0,0.0,-2.0667360574959677,-3.2585175827156467,-3.1281350929728973,-0.004548493985726406,0.0026928109326347476,-0.6393615933025764
10290,13.0,300.15848,27757.632999999998,0.0,-0.05144971013780819,-0.05144904814522,0.0,0.0,0.0,-2.059651716771798,-3.255592127026927,-3.1223833787802473,0.0004509857644838296,-0.0016132597242663384,-0.6409612517654504
10291,13.0,300.11400000000003,27817.814,0.0,-0.051454724626546655,-0.051454050355406955,0.0,0.0,0.0,-2.067411895312668,-3.257507473690957,-3.131001678830807,0.0019121829932427679,0.0016675527043746386,-0.6434940527754184
10292,13.0,299.97916000000004,27874.303,0.0,-0.05145973911528501,-0.05145905256559413,0.0,0.0,0.0,-2.064728707722858,-3.2628682759950265,-3.145495005611187,-0.00015339140341105284,0.0032579268579073463,-0.6424259858450084
10293,13.0,299.85962,27832.914,0.0,-0.0514647206139659,-0.05146402186650367,0.0,0.0,0.0,-2.0620805785865084,-3.263132328971087,-3.1352980619048267,0.0012662944176985288,0.0006644957483931244,-0.6413659134578874
10294,13.0,299.7922,27780.202,0.0,-0.05146973510270436,-0.05146902407669063,0.0,0.0,0.0,-2.0512694026695284,-3.257513249216527,-3.135705084469997,0.0013863193635940687,-0.004850736864680455,-0.6381566362836564
10295,13.0,299.81909,27808.326,0.0,-0.05147471660138525,-0.051474026286877805,0.0,0.0,0.0,-2.061379409517308,-3.260539117990157,-3.1311183039173174,0.005336671448963465,0.002765296615638528,-0.6372925669958794
10296,13.0,300.13863,27926.4,0.0,-0.051479731090123604,-0.05147902849706476,0.0,0.0,0.0,-2.077077895966628,-3.269641042313447,-3.1422092381869073,0.0008787675747876072,-0.003698977806485687,-0.6314464178939093
10297,13.0,300.02716000000004,27939.759,0.0,-0.051484712588804715,-0.05148403070725194,0.0,0.0,0.0,-2.0722727600173982,-3.272365570507337,-3.148350851018037,-0.004026642117198637,-0.002234439790822038,-0.6320244466784564
10298,13.0,299.9868,27863.123,0.0,-0.05148972707754296,-0.051489032917439115,0.0,0.0,0.0,-2.0616029324893677,-3.2709405355666967,-3.137150181762617,-0.0062849895441301745,-0.003744514583204817,-0.6367470736720433
10299,13.0,299.95804,27856.543999999998,0.0,-0.05149470857622385,-0.05149403512762607,0.0,0.0,0.0,-2.061863540415088,-3.2671660776191866,-3.138664382712057,-8.023008422734283e-05,0.003847756054443956,-0.6398652697947854
10300,13.0,300.17838,27916.35,0.0,-0.05149972306496231,-0.05149903733781325,0.0,0.0,0.0,-2.072069907347378,-3.2712923360014172,-3.1425111867167073,-0.002096102375869198,-0.0014843851533224085,-0.6419561924361434
10301,13.0,299.95425,27908.857999999997,0.0,-0.051504737553700664,-0.05150403954800031,0.0,0.0,0.0,-2.074378192400188,-3.268888906764217,-3.1403288486513268,0.0002471151530158668,-0.0029029723782760673,-0.6441632943339675
10302,13.0,300.05002,27835.126,0.0,-0.05150971905238155,-0.05150904175818738,0.0,0.0,0.0,-2.066696236767038,-3.2593359848214174,-3.135151140640327,3.1363593400595674e-05,-0.0053790527622211756,-0.6443483948622354
10303,13.0,299.88156000000004,27799.183999999997,0.0,-0.05151473354112002,-0.051514043968374446,0.0,0.0,0.0,-2.059316837613748,-3.260391690100607,-3.1305493639861672,0.0075420593329183026,0.0073599399890945235,-0.6391098107852273
10304,13.0,299.98713,27856.3,0.0,-0.051519715039800906,-0.0515190461785614,0.0,0.0,0.0,-2.061450742324348,-3.257300466695527,-3.1488685204941267,0.004520067051520886,0.0020467198083955183,-0.6406326243605174
10305,13.0,300.09227999999996,27949.606,0.0,-0.05152472952853926,-0.05152404838874858,0.0,0.0,0.0,-2.0675815133794084,-3.271200332892337,-3.1572004760664267,-0.002281715203387758,-0.0009267791642134822,-0.6375548873142685
10306,13.0,299.94977,27952.977000000003,0.0,-0.05152971102722015,-0.05152905059893553,0.0,0.0,0.0,-2.066952285067308,-3.275574837549067,-3.154479798222917,-0.0036750615577503367,-0.007991572946331842,-0.6423452500770404
10307,13.0,299.90982,27910.556,0.0,-0.05153472551595861,-0.05153405280912271,0.0,0.0,0.0,-2.0723644591514483,-3.267270645029507,-3.144476891910707,0.0012091986864886189,-0.0020511698001846983,-0.6350686046163914
10308,13.0,300.03222,27911.923,0.0,-0.0515397070146395,-0.05153902211003225,0.0,0.0,0.0,-2.071135488105158,-3.2743110106993365,-3.139081233803197,0.0012705056877641487,-0.002925374324736967,-0.6388662862561933
10309,13.0,300.04132000000004,27937.727000000003,0.0,-0.051544721503377855,-0.051544024320219206,0.0,0.0,0.0,-2.072195753009798,-3.2725736920778767,-3.1476019578691266,-0.0024171441852535577,-0.003962331336001656,-0.6349301439902264
10310,13.0,299.95239,27952.347999999998,0.0,-0.05154973599211632,-0.05154902653040638,0.0,0.0,0.0,-2.063324545734278,-3.280133145773937,-3.1533582316872266,-0.003507660887529176,-0.0013172245220499387,-0.6414420490704015
10311,13.0,299.83429,27861.967,0.0,-0.05155471749079721,-0.05155402874059356,0.0,0.0,0.0,-2.055653431877198,-3.270700901918047,-3.142987920888757,-0.002327631442269338,0.00950944925785957,-0.6423889920838574
10312,13.0,299.81585,27829.134,0.0,-0.05155973197953556,-0.051559030950780516,0.0,0.0,0.0,-2.058381101146398,-3.262758541009197,-3.1382223016934265,0.0038455839502045865,0.004458229107192956,-0.6448929053334743
10313,13.0,299.91539,27895.175,0.0,-0.05156471347821656,-0.05156403316096769,0.0,0.0,0.0,-2.077613499969488,-3.264787473009437,-3.1370357858263267,0.0005615999474255994,0.0021079342999369183,-0.6442225694648174
10314,13.0,300.11428,27947.007999999998,0.0,-0.051569727966954915,-0.05156903537115476,0.0,0.0,0.0,-2.077103429869148,-3.2709975815473267,-3.147091381143737,0.003218658552931867,0.0010025486286713461,-0.6435388485623394
10315,13.0,300.07577000000003,27948.51,0.0,-0.051574709465635804,-0.051574037581341936,0.0,0.0,0.0,-2.0736098448493583,-3.2723223047280667,-3.149717016127867,0.0013138301342149388,0.00968309681759725,-0.6427880302382395
10316,13.0,300.09072000000003,27959.517000000003,0.0,-0.05157972395437427,-0.05157903979152911,0.0,0.0,0.0,-2.070959891862828,-3.2720824684293968,-3.155952658568277,0.005043609021215456,0.008060845917243552,-0.6394315784869834
10317,13.0,300.16167,27987.242000000002,0.0,-0.05158473844311273,-0.05158404200171607,0.0,0.0,0.0,-2.071983578438858,-3.278700410132537,-3.156738636670847,-0.0027868749924181476,0.001949380113688838,-0.6394245971937944
10318,13.0,300.17625,27966.037,0.0,-0.05158971994179351,-0.051589044211903246,0.0,0.0,0.0,-2.068456758815788,-3.280824486317167,-3.151695690923147,0.0008677609023963333,-0.001113842327527679,-0.6381922621571724
10319,13.0,299.9143,27939.052000000003,0.0,-0.051594734430531974,-0.0515940464220902,0.0,0.0,0.0,-2.075110569572468,-3.274666762809447,-3.142996938814647,-0.0030280917430243874,0.0025380951404154876,-0.6375742099936753
10320,13.0,299.97342000000003,27936.077999999998,0.0,-0.051599715929212864,-0.051599048632277156,0.0,0.0,0.0,-2.0739028767782783,-3.273696069213647,-3.144271303465417,0.004481311856396046,-0.0010964065224568988,-0.6387930080089614
10321,13.0,299.79672,27872.522,0.0,-0.05160473041795122,-0.05160405084246433,0.0,0.0,0.0,-2.0679115289369783,-3.266707784598957,-3.137931296264707,-0.002958690899950057,-0.0069106588152539235,-0.6396563578891674
10322,13.0,300.04697999999996,27900.151,0.0,-0.051609711916632106,-0.051609020143373874,0.0,0.0,0.0,-2.062854093712848,-3.2723554380063367,-3.1457395028603172,0.005604601119906064,-0.002020226459355828,-0.6428937324886713
10323,13.0,300.11668,27989.397,0.0,-0.05161472640537057,-0.05161402235356105,0.0,0.0,0.0,-2.073823944595488,-3.2769987579145967,-3.157254988921807,-0.0017360084890806983,0.0026946035747116674,-0.6423934098542934
10324,13.0,299.91483999999997,28008.002999999997,0.0,-0.05161970790405146,-0.051619024563748006,0.0,0.0,0.0,-2.076486157908228,-3.2786735590048868,-3.1585739365769765,0.003598683373162397,0.0028593277447936773,-0.6446895257734023
10325,13.0,299.82556,28006.027000000002,0.0,-0.05162472239278981,-0.05162402677393496,0.0,0.0,0.0,-2.0876090095559676,-3.276028672268857,-3.149495418330997,-4.048147235996026e-05,-0.007034903035890874,-0.6427362328931273
10326,13.0,300.2103,28017.158,0.0,-0.051629736881528276,-0.05162902898412214,0.0,0.0,0.0,-2.079908410120978,-3.282366551644357,-3.1542415831244073,0.008168463210364553,-0.002991444006782537,-0.6432406693229114
10327,13.0,300.23498,27977.303,0.0,-0.051634718380209166,-0.051634031194309205,0.0,0.0,0.0,-2.074571013894218,-3.2796305737243365,-3.150199931125527,0.007472171724495932,0.006580432197688094,-0.6417726320480275
10328,13.0,300.33085,28007.307999999997,0.0,-0.05163973286894741,-0.05163903340449638,0.0,0.0,0.0,-2.0663278190306777,-3.287520650928027,-3.159673920885537,-1.4010135165442686e-05,0.0013168493155379089,-0.6387612831483304
10329,13.0,300.19757000000004,28013.838,0.0,-0.05164471436762852,-0.05164403561468356,0.0,0.0,0.0,-2.072143367979628,-3.2859863876266067,-3.157377592183907,-0.0039447199346885455,-0.003386771132673286,-0.6388135972509934
10330,13.0,300.07274,27929.732999999997,0.0,-0.05164972885636698,-0.051649037824870514,0.0,0.0,0.0,-2.062807788183278,-3.2795427249406672,-3.147590812118027,-0.007320752237501994,0.0004216344016820756,-0.6410349657102254
10331,13.0,300.20566,27910.234,0.0,-0.05165471035504776,-0.05165404003505769,0.0,0.0,0.0,-2.065338684283058,-3.277424322956597,-3.141251210217357,0.002342871939673458,0.00027394980521924073,-0.6390498365118085
10332,13.0,300.03148,28000.28,0.0,-0.051659724843786226,-0.051659042245244646,0.0,0.0,0.0,-2.0728682471011677,-3.2823958345722466,-3.156121972659987,-0.007377122684290323,-0.005499202033903985,-0.6393547538644014
10333,13.0,299.77841,28107.463,0.0,-0.051664706342467115,-0.05166404445543182,0.0,0.0,0.0,-2.090563038897508,-3.288664306315897,-3.164739664760487,-0.002482828933586138,-0.01031564190257459,-0.6421389928866844
10334,13.0,299.99033,28042.014,0.0,-0.05166972083120547,-0.05166904666561878,0.0,0.0,0.0,-2.078857365792248,-3.282024478410597,-3.163190000057547,-0.0035355634648079467,-0.008146853929456882,-0.6409497108468114
10335,13.0,300.10146000000003,27961.889,0.0,-0.05167473531994393,-0.051674048875805845,0.0,0.0,0.0,-2.0702697672197177,-3.2764603168114568,-3.152985963600487,0.006339154753400864,0.0014753915454348086,-0.6454697587479055
10336,13.0,300.09916,27987.053,0.0,-0.05167971681862482,-0.0516790181767155,0.0,0.0,0.0,-2.072596088124308,-3.2805375338888467,-3.1542316532734267,-0.00013889943438580686,0.00048421483541828366,-0.6432198065033523
10337,13.0,300.20052000000004,28047.741,0.0,-0.05168473130736306,-0.051684020386902674,0.0,0.0,0.0,-2.0880251513720376,-3.281799638213407,-3.1559880209967672,0.003701763838960647,-0.002172973303980768,-0.6453075374068954
10338,13.0,299.80817,28043.802000000003,0.0,-0.051689712806044064,-0.05168902259708963,0.0,0.0,0.0,-2.084021293601888,-3.286008983103837,-3.1545853788833367,-0.0028070287395571673,0.00852773139964656,-0.6477265706956354
10339,13.0,299.9535,27993.92,0.0,-0.05169472729478253,-0.051694024807276584,0.0,0.0,0.0,-2.0771222763210084,-3.2817077364293366,-3.1506225577422367,1.7376599854186885e-05,0.008890028092152462,-0.6448448063512274
10340,13.0,300.00002,27948.653,0.0,-0.05169970879346342,-0.05169902701746365,0.0,0.0,0.0,-2.059603486067038,-3.281248531484017,-3.1548405152585173,-0.006795163198630393,0.004321956898593936,-0.6444257666398714
10341,13.0,300.05081,28019.077999999998,0.0,-0.05170472328220166,-0.05170402922765083,0.0,0.0,0.0,-2.0719649346370184,-3.2884965120993366,-3.156638730210987,-0.01042117088723949,0.0004018721541166936,-0.6425793209826414
10342,13.0,299.95333999999997,28107.615,0.0,-0.051709737770940234,-0.051709031437838004,0.0,0.0,0.0,-2.0816834216461584,-3.293317454750127,-3.169012236457157,-0.008621757766526243,-0.0007467965318030793,-0.6426190505190623
10343,13.0,299.93657,28053.644,0.0,-0.051714719269621234,-0.05171403364802496,0.0,0.0,0.0,-2.0829809897242177,-3.2906718587390267,-3.153954326721057,0.0014874281460227287,-0.004010580684563496,-0.6392091396925303
10344,13.0,299.73738,27976.189,0.0,-0.05171973375835959,-0.05171903585821214,0.0,0.0,0.0,-2.063411077292818,-3.2862714148797365,-3.154380398388107,0.0005981288091657175,-0.001273444721004209,-0.6399667366597993
10345,13.0,300.04837000000003,28049.116,0.0,-0.05172471525704048,-0.05172403806839909,0.0,0.0,0.0,-2.076473593606988,-3.287296114705867,-3.162461169260617,0.006719121210425633,-0.004014483622623686,-0.6450310417196073
10346,13.0,299.92602999999997,28107.683999999997,0.0,-0.05172972974577894,-0.05172904027858627,0.0,0.0,0.0,-2.0828973965909676,-3.289351593858727,-3.1717849953558073,0.004098671027057336,0.003982849346551626,-0.6454166644426654
10347,13.0,299.72782,28056.153,0.0,-0.05173471124445972,-0.051734042488773446,0.0,0.0,0.0,-2.082327240759698,-3.2855292091814867,-3.160513499918397,0.003236786002520907,0.002240162424736818,-0.6518014775627974
10348,13.0,299.95302000000004,28006.952999999998,0.0,-0.05173972573319818,-0.0517390446989604,0.0,0.0,0.0,-2.077425440750928,-3.282747533681957,-3.153241302625687,0.0020974048075477376,0.0016129459207103684,-0.6441338898160653
10349,13.0,300.21758,28029.74,0.0,-0.05174470723187907,-0.05174404690914758,0.0,0.0,0.0,-2.082115978113848,-3.2856579932691967,-3.152567187334157,0.0025551015300938878,-0.0009216051545653472,-0.6482003563098944
10350,13.0,300.24871,28093.557,0.0,-0.051749721720617314,-0.051749049119334534,0.0,0.0,0.0,-2.089954379562438,-3.2890881488327266,-3.160697404811547,6.657519252045993e-05,0.0026284626611840674,-0.6389356634905404
10351,13.0,300.12733,28146.047000000002,0.0,-0.05175473620935589,-0.051754018420244075,0.0,0.0,0.0,-2.0918919164036582,-3.296867984425537,-3.166935681702217,-0.0026794874030948174,-0.0006018493318104045,-0.6439058274835574
10352,13.0,299.9767,28080.476000000002,0.0,-0.05175971770803678,-0.05175902063043125,0.0,0.0,0.0,-2.078905697822018,-3.291960408891197,-3.1648976304510765,-0.001050625856438699,0.005220468077145085,-0.6387624585184464
10353,13.0,299.8803,28057.307999999997,0.0,-0.05176473219677502,-0.05176402284061832,0.0,0.0,0.0,-2.074551964792338,-3.2948879924051266,-3.1592810838217673,0.0005108513262996005,0.0012895450624431889,-0.6413565611594644
10354,13.0,300.05165,28110.849,0.0,-0.05176971369545591,-0.051769025050805384,0.0,0.0,0.0,-2.081556968033678,-3.296307859770257,-3.167131238971517,0.004566212791550116,0.0012949144773731088,-0.6367975740570274
10355,13.0,299.91711000000004,28128.946,0.0,-0.051774728184194485,-0.05177402726099245,0.0,0.0,0.0,-2.089763989868648,-3.295149613580947,-3.1655836007687768,-5.8922033455151934e-05,-0.009159787186150611,-0.6387182301515814
10356,13.0,299.89159,28092.338,0.0,-0.051779709682875485,-0.051779029471179405,0.0,0.0,0.0,-2.077577326940918,-3.2950521389213265,-3.166739820457887,0.004507978471202836,-0.006427162313361535,-0.6407992533394623
10357,13.0,300.0254,28016.577999999998,0.0,-0.05178472417161384,-0.05178403168136658,0.0,0.0,0.0,-2.071674233183328,-3.285317845210627,-3.159348160978387,0.0036834765998308367,-0.006459599894112874,-0.6509790427216294
10358,13.0,300.21266,28057.9,0.0,-0.05178970567029473,-0.05178903389155354,0.0,0.0,0.0,-2.0728612556754777,-3.2952643134922672,-3.160775425069247,0.0025397083358996977,0.0026257664026679674,-0.6526637533978973
10359,13.0,300.05799,28125.037999999997,0.0,-0.05179472015903319,-0.051794036101740715,0.0,0.0,0.0,-2.0931022436481084,-3.2924203231115867,-3.163786804366447,-0.0055763678177946545,-3.479222908897566e-05,-0.6492211855206423
10360,13.0,299.892,28140.993,0.0,-0.051799734647771545,-0.05179903831192789,0.0,0.0,0.0,-2.091608814325718,-3.297970704509367,-3.164579571244687,-0.0006358518165461884,0.004168587918407596,-0.6496336695038514
10361,13.0,299.78801,28085.257999999998,0.0,-0.051804716146452434,-0.05180404052211485,0.0,0.0,0.0,-2.085465174994388,-3.2922079458906266,-3.159543819572697,-0.0037415302576852866,0.002022299265085398,-0.6425336639331354
10362,13.0,299.69489,28080.721,0.0,-0.0518097306351909,-0.051809042732302024,0.0,0.0,0.0,-2.075007927337338,-3.2967777038416264,-3.164052377217657,0.0037754744400103164,0.006421515774529264,-0.6410870670303673
10363,13.0,299.86593,28146.112,0.0,-0.051814712133871565,-0.05181404494248909,0.0,0.0,0.0,-2.085860342533388,-3.2980884441709866,-3.1717665542039866,0.0006579258550097263,0.001951863285708908,-0.6455166823600365
10364,13.0,299.91817000000003,28171.091,0.0,-0.05181972662261014,-0.051819047152676156,0.0,0.0,0.0,-2.083725931197738,-3.3028791919687968,-3.176703108691187,-0.0013524183457232987,0.0034527208459070166,-0.6439526396381774
10365,13.0,299.79819,28105.021,0.0,-0.05182470812129103,-0.0518240164535857,0.0,0.0,0.0,-2.084369648986268,-3.297058880744377,-3.161796071894977,-0.0013649866999636987,-0.0014340939031590486,-0.6463867602209064
10366,13.0,300.10311,28094.591,0.0,-0.05182972261002927,-0.05182901866377276,0.0,0.0,0.0,-2.080751434204178,-3.2931223027808674,-3.166180607727697,-0.00013396731793404487,0.00024981713639503177,-0.6394973384184733
10367,13.0,300.10492,28133.202,0.0,-0.051834737098767736,-0.05183402087395994,0.0,0.0,0.0,-2.0896018698526477,-3.291315475202547,-3.1708735768908567,0.0026871642924774673,-0.0036317793638287166,-0.6399458839727413
10368,13.0,299.89723,28137.468999999997,0.0,-0.051839718597448625,-0.05183902308414701,0.0,0.0,0.0,-2.086566071228038,-3.289791344402127,-3.176730567768897,-0.0005087782064624995,-0.0006907519462469094,-0.6416601916844304
10369,13.0,299.95221000000004,28155.992000000002,0.0,-0.05184473308618698,-0.05184402529433407,0.0,0.0,0.0,-2.083471706747648,-3.2961983274344466,-3.179048580022667,0.006696841461926794,-0.001169398222560619,-0.6509111650974303
10370,13.0,299.9524,28148.067000000003,0.0,-0.05184971458486809,-0.05184902750452103,0.0,0.0,0.0,-2.0849344345920082,-3.3002857783378468,-3.171089196512137,0.00013773505803339186,0.002162509976823118,-0.6538345638884474
10371,13.0,299.85791,28183.804,0.0,-0.05185472907360633,-0.05185402971470798,0.0,0.0,0.0,-2.0948441218950182,-3.303582894163247,-3.1687455490308367,0.006860559981284555,0.006997374177362063,-0.6550372005646383
10372,13.0,300.08786000000003,28202.188,0.0,-0.05185971057228744,-0.05185903192489516,0.0,0.0,0.0,-2.097589624365978,-3.3013909302219173,-3.173780388777737,-0.007820967771344422,0.0029325375976439272,-0.6466383907507404
10373,13.0,300.17575,28157.034,0.0,-0.051864725061025796,-0.05186403413508234,0.0,0.0,0.0,-2.088356382829728,-3.301755497607897,-3.168923475748397,0.0006484934591663214,0.0036554173740866065,-0.6452581515970214
10374,13.0,300.14364,28128.002,0.0,-0.051869706559706685,-0.05186903634526929,0.0,0.0,0.0,-2.074557841642918,-3.300102177419727,-3.175550232727407,-0.007478901326360092,0.004463938771506456,-0.6434941135704243
10375,13.0,299.99605,28152.664,0.0,-0.05187472104844515,-0.05187403855545647,0.0,0.0,0.0,-2.075808090941308,-3.304609721814587,-3.177289273874037,0.002424689554773228,0.0014363553760572386,-0.6441562218482694
10376,13.0,299.74415,28184.762000000002,0.0,-0.05187973553718339,-0.051879040765643536,0.0,0.0,0.0,-2.084524676251568,-3.3084843901969867,-3.174454706719287,-0.009618252458897612,-0.0028143708511067776,-0.6483953258941364
10377,13.0,299.8188,28173.374,0.0,-0.05188471703586439,-0.05188404297583071,0.0,0.0,0.0,-2.091704262485138,-3.298609558697417,-3.173688486993667,-0.003512888143470067,-0.006830536671546483,-0.6488196953010184
10378,13.0,299.80613999999997,28151.02,0.0,-0.051889731524602856,-0.05188904518601789,0.0,0.0,0.0,-2.083267435527488,-3.302751826431227,-3.1711877857468673,0.0008839722453837681,-0.005118612630717735,-0.6508463474885334
10379,13.0,299.9807,28152.31,0.0,-0.05189471302328352,-0.05189401448692721,0.0,0.0,0.0,-2.086575595778978,-3.2969656617351766,-3.174057816655117,0.004014529016228167,-0.0035712411154040567,-0.6441089537311043
10380,13.0,299.97261000000003,28196.762000000002,0.0,-0.05189972751202199,-0.051899016697114386,0.0,0.0,0.0,-2.089782329695458,-3.2983924192009866,-3.182936825956407,0.008097071938793781,-0.0019092472024030281,-0.6486740405991434
10381,13.0,300.16161,28254.243,0.0,-0.051904709010702876,-0.05190401890730156,0.0,0.0,0.0,-2.097329219090278,-3.3077664011761265,-3.1834886419608672,-0.00028990379281377675,-0.0033526939106101267,-0.6468068537123665
10382,13.0,299.99881,28205.645,0.0,-0.05190972349944123,-0.05190902111748852,0.0,0.0,0.0,-2.096930910475968,-3.3031055520411368,-3.173775322527237,0.004012439289221926,0.004008825228765246,-0.6528295515117604
10383,13.0,300.15747000000005,28210.737999999998,0.0,-0.05191470499812234,-0.051914023327675696,0.0,0.0,0.0,-2.097995329706018,-3.306512706827397,-3.170851994663727,0.0005008232913849104,-0.0017494148011537984,-0.6476559066336615
10384,13.0,300.012,28273.583,0.0,-0.05191971948686058,-0.05191902553786265,0.0,0.0,0.0,-2.105021509874448,-3.3102727766234867,-3.179168751484527,-0.0012766912756496187,0.002253984270675928,-0.6454435561003193
10385,13.0,300.03437,28283.351000000002,0.0,-0.051924733975598936,-0.051924027748049606,0.0,0.0,0.0,-2.102010535877288,-3.3099080065874866,-3.185514128910767,-0.00856146512992582,-0.0026146482119706878,-0.6399675472598794
10386,13.0,300.02416,28231.764,0.0,-0.05192971547428005,-0.05192902995823678,0.0,0.0,0.0,-2.0832085656966783,-3.312070180975877,-3.186472460855347,-0.0017506603895017284,-0.00029078937340117674,-0.6458524937081784
10387,13.0,299.92735,28202.452,0.0,-0.05193472996301851,-0.05193403216842374,0.0,0.0,0.0,-2.084541090903188,-3.306027562679517,-3.182272640515857,-0.002266736124509438,0.002074134303101118,-0.6465456986315924
10388,13.0,299.86976,28225.421000000002,0.0,-0.0519397114616994,-0.051939034378610915,0.0,0.0,0.0,-2.0858608491584376,-3.311646743759087,-3.1823155009950868,0.0038399242391210166,-0.003943071782075886,-0.6514023076859023
10389,13.0,300.00899,28234.251,0.0,-0.05194472595043764,-0.05194403658879798,0.0,0.0,0.0,-2.093574722169738,-3.309461973893467,-3.179470497364307,-0.0003173114784787047,-0.007104963302130284,-0.6497286819657284
10390,13.0,299.84789,28215.31,0.0,-0.05194970744911853,-0.05194903879898516,0.0,0.0,0.0,-2.0934932568616977,-3.305523470754767,-3.1777327734428074,0.0006125715443686045,-0.0014462340579071888,-0.6529154345902364
10391,13.0,299.98705,28204.52,0.0,-0.05195472193785711,-0.051954041009172336,0.0,0.0,0.0,-2.093965532733308,-3.3029196206477867,-3.176584659754497,0.003882362497034346,0.0014501703318956687,-0.6484626766282834
10392,13.0,300.12683,28206.839,0.0,-0.05195973642659535,-0.05195904321935929,0.0,0.0,0.0,-2.081443078722438,-3.3097120440181467,-3.183019507164567,0.003924096647453187,0.0034934470151263765,-0.6579460592167203
10393,13.0,300.19696,28239.486,0.0,-0.05196471792527624,-0.05196401252026883,0.0,0.0,0.0,-2.092799180543198,-3.3088735795603967,-3.1824257426059672,-0.005405915643572334,0.003268316623107737,-0.6494748121531734
10394,13.0,300.02407999999997,28283.381,0.0,-0.05196973241401481,-0.05196901473045601,0.0,0.0,0.0,-2.099589374763338,-3.313890890080567,-3.1839614244575265,-0.001075334162777219,0.001987232198999548,-0.6559661685213204
10395,13.0,299.87606,28265.654,0.0,-0.05197471391269548,-0.051974016940642964,0.0,0.0,0.0,-2.1012560698528278,-3.309445863216877,-3.181351190874917,-0.007960701140960032,0.0038322302258116765,-0.6473321124317054
10396,13.0,299.77395,28232.166,0.0,-0.051979728401433944,-0.05197901915083014,0.0,0.0,0.0,-2.093886600550518,-3.307211241446337,-3.180775664818117,0.0028186003596741976,0.0003223948934353987,-0.6487892775330164
10397,13.0,299.7707,28269.27,0.0,-0.051984709900114834,-0.051984021361017096,0.0,0.0,0.0,-2.094811697891818,-3.306913244591927,-3.191427355169357,0.0016437419349746986,-0.0021786370680647376,-0.6415768113337014
10398,13.0,299.77357,28259.444,0.0,-0.05198972438885319,-0.051989023571204274,0.0,0.0,0.0,-2.085066562405048,-3.3142491753159264,-3.190849701287347,0.002835112789928847,0.001888037547334798,-0.6492715643156144
10399,13.0,299.89239,28248.499,0.0,-0.0519947058875343,-0.05199402578139145,0.0,0.0,0.0,-2.090155509707288,-3.312408201209237,-3.184274620063437,0.001151010367695879,0.004679517153507386,-0.6477133781793334
10400,13.0,300.0637,28281.422000000002,0.0,-0.05199972037627254,-0.051999027991578406,0.0,0.0,0.0,-2.093418377679308,-3.3163655507997967,-3.187062172413547,0.003938848150359046,-0.0027853200588146875,-0.6498443849946474
10401,13.0,300.03317000000004,28287.212000000003,0.0,-0.052004734865011004,-0.05200403020176536,0.0,0.0,0.0,-2.100315267134978,-3.313804662497057,-3.1844862880093268,0.0007855161415844072,-0.0001971727851269388,-0.6496905128344614
10402,13.0,300.10712,28300.443,0.0,-0.052009716363691894,-0.05200903241195243,0.0,0.0,0.0,-2.102329810983798,-3.3123880375322465,-3.187910161422237,-0.0014190042786948187,-0.006555265193029304,-0.6444230511296034
10403,13.0,299.9889,28317.804,0.0,-0.05201473085243047,-0.052014034622139604,0.0,0.0,0.0,-2.101593178161098,-3.3177208741335567,-3.188591268139457,0.002016729125310668,-0.0012981040873628988,-0.6454114259396484
10404,13.0,299.93736,28312.16,0.0,-0.05201971235111136,-0.05201903683232678,0.0,0.0,0.0,-2.092247668513768,-3.3230398292084966,-3.190902086317517,-0.0016416623404694583,-0.0026386644684909077,-0.6523948773513614
10405,13.0,299.88313,28289.377999999997,0.0,-0.0520247268398496,-0.05202403904251374,0.0,0.0,0.0,-2.0960754234165377,-3.3135921839510867,-3.189596817538697,0.002154842915966438,0.006447073589751624,-0.6483462339267914
10406,13.0,300.00131,28306.269,0.0,-0.05202970833853049,-0.052029041252700914,0.0,0.0,0.0,-2.092944075307498,-3.323820234435517,-3.187634557395037,0.0001258305751260109,-0.002279772802946058,-0.6566218730585334
10407,13.0,299.83785,28302.736,0.0,-0.05203472282726895,-0.05203404346288787,0.0,0.0,0.0,-2.099218626551748,-3.315591326398387,-3.188515071731937,-0.001861523325343048,0.0035904474736995766,-0.6445925374738304
10408,13.0,299.77378999999996,28264.808999999997,0.0,-0.05203970432594973,-0.05203901276379741,0.0,0.0,0.0,-2.0889931091925678,-3.3177286761593265,-3.1850744796923767,-0.005088125252433865,-0.005669108978247495,-0.6544699223636524
10409,13.0,299.88624,28286.061,0.0,-0.052044718814688196,-0.05204401497398459,0.0,0.0,0.0,-2.089476024190228,-3.322558636736007,-3.1862214788055767,0.002497308682815178,-0.0013623633954547986,-0.6457581601238684
10410,13.0,299.9631,28315.071,0.0,-0.05204973330342666,-0.05204901718417154,0.0,0.0,0.0,-2.0956955559540478,-3.3195821132422467,-3.1917968874808267,-9.482297296254882e-05,0.0005235675035970894,-0.6578338012381414
10411,13.0,300.03504,28331.187,0.0,-0.05205471480210744,-0.05205401939435872,0.0,0.0,0.0,-2.107808352949488,-3.3201894553521867,-3.1839756099589267,0.0017134757320318886,0.002391182285891318,-0.6478177125421304
10412,13.0,300.11088,28330.29,0.0,-0.0520597292908459,-0.052059021604545896,0.0,0.0,0.0,-2.0999569818996178,-3.3216987927011465,-3.1900450793829367,-0.002038203846605058,-0.004869069193439715,-0.6584457739010384
10413,13.0,300.04703,28323.338,0.0,-0.05206471078952679,-0.05206402381473285,0.0,0.0,0.0,-2.107188953163358,-3.312754935393457,-3.189643731018327,-0.0026368319043600474,-0.00021829063973610879,-0.6471521490814445
10414,13.0,300.13163,28311.722,0.0,-0.052069725278265255,-0.05206902602492003,0.0,0.0,0.0,-2.1016325935899878,-3.313539190970857,-3.190884658415797,0.003330103803605656,-0.0015189882521874686,-0.6491986609709194
10415,13.0,300.27353,28321.482000000004,0.0,-0.052074706776946145,-0.052074028235107095,0.0,0.0,0.0,-2.100327628786198,-3.315754459664487,-3.192941150818757,0.001787255234088358,0.004377415622942286,-0.6467799113922074
10416,13.0,299.97006,28297.931,0.0,-0.05207972126568472,-0.05207903044529405,0.0,0.0,0.0,-2.098611081791788,-3.316984545285887,-3.186268898910257,-0.0013652570350903787,-0.0005980092355214164,-0.6489469189835744
10417,13.0,299.99566,28345.584,0.0,-0.05208473575442296,-0.05208403265548123,0.0,0.0,0.0,-2.102848696360008,-3.324477327125367,-3.189023824607147,-0.006275738570717174,0.0032456219486929473,-0.6519897799613814
10418,13.0,299.82583,28360.611,0.0,-0.05208971725310385,-0.05208903486566818,0.0,0.0,0.0,-2.096651658748408,-3.324240935877037,-3.200024883592867,0.0007758216078076312,-0.00017228689657589283,-0.6508229718087264
10419,13.0,299.92935,28357.4,0.0,-0.052094731741842315,-0.05209403707585536,0.0,0.0,0.0,-2.0989770677279083,-3.329112135732787,-3.191852210936287,-0.002483952323972008,0.0038731394893241062,-0.6535747969603104
10420,13.0,299.84058,28368.019,0.0,-0.052099713240523204,-0.052099039286042315,0.0,0.0,0.0,-2.097352219867548,-3.325266952928297,-3.2005501524447073,0.0031160571517808975,-0.0025413462546863474,-0.6477702417749454
10421,13.0,299.82367999999997,28353.37,0.0,-0.05210472772926156,-0.05210404149622949,0.0,0.0,0.0,-2.095972983831428,-3.325156609992407,-3.1975868012022466,-0.004855901501765165,-0.0004365604673151636,-0.6538705849295025
10422,13.0,299.9493,28356.66,0.0,-0.05210970922794245,-0.05210901079713903,0.0,0.0,0.0,-2.100800107307828,-3.327742322922597,-3.1911741439693673,0.0040377585853707465,-0.0003393934405580247,-0.6540688779740723
10423,13.0,300.17413999999997,28374.535,0.0,-0.05211472371668091,-0.05211401300732599,0.0,0.0,0.0,-2.106654767710638,-3.320903594022667,-3.197591766127737,-0.0028502490238976773,0.0032539194537618468,-0.6534750931504704
10424,13.0,300.17357000000004,28371.632,0.0,-0.05211970521536169,-0.052119015217513165,0.0,0.0,0.0,-2.0974610429282876,-3.3293486283061267,-3.197457915789527,0.0026772062731446875,-0.002696873153610657,-0.6565835418072503
10425,13.0,300.21395,28371.932,0.0,-0.05212471970410015,-0.05212401742770034,0.0,0.0,0.0,-2.106344713180038,-3.319758925384697,-3.198255140968207,-0.0054643992234442145,-0.0017355630643367383,-0.6494537466835943
10426,13.0,300.04225,28394.677000000003,0.0,-0.05212973419283862,-0.0521290196378873,0.0,0.0,0.0,-2.097733303230158,-3.327757825649127,-3.2057816640360173,-0.003195991236269777,-0.003454920206574077,-0.6518732359348794
10427,13.0,299.94043999999997,28390.89,0.0,-0.052134715691519506,-0.052134021848074474,0.0,0.0,0.0,-2.108803972497748,-3.328186937066477,-3.193130831237477,-0.0018178372499315684,0.0044671004157934855,-0.6495551426211014
10428,13.0,300.06735,28379.646,0.0,-0.05213973018025786,-0.05213902405826154,0.0,0.0,0.0,-2.103895485038318,-3.3195300321871066,-3.203278227013947,0.0024605636745637276,0.0008993813476045283,-0.6532450245827643
10429,13.0,299.8064,28366.55,0.0,-0.05214471167893886,-0.05214402626844872,0.0,0.0,0.0,-2.109264292018178,-3.323148753594247,-3.1903096389840466,-0.001204890549713439,-0.0003912302517614196,-0.6522419576462694
10430,13.0,299.70461,28396.357999999997,0.0,-0.05214972616767721,-0.052149028478635784,0.0,0.0,0.0,-2.098625672593228,-3.327950545818147,-3.205207657854367,-0.0012372548724825488,-0.0032345733682775366,-0.6510025805214524
10431,13.0,299.7904,28424.931,0.0,-0.0521547076663581,-0.05215403068882285,0.0,0.0,0.0,-2.1153484535686378,-3.3262883090290973,-3.198832490875187,-0.0008491997209694873,0.001855911844964238,-0.6477412020270794
10432,13.0,299.80166,28416.558999999997,0.0,-0.052159722155096566,-0.052159032899009805,0.0,0.0,0.0,-2.103462117970548,-3.3328596412276363,-3.201602716648587,0.0008810322495561132,-0.010144205051905091,-0.6513998758856624
10433,13.0,299.86739,28416.089,0.0,-0.052164703653777456,-0.05216403510919676,0.0,0.0,0.0,-2.115416847950388,-3.324125526690647,-3.198239030291617,-0.00014365253994240185,-0.004175438704983716,-0.6489324801696494
10434,13.0,299.93543999999997,28417.029,0.0,-0.05216971814251581,-0.05216903731938394,0.0,0.0,0.0,-2.109897978630718,-3.330024871422867,-3.198144190082257,-0.0007292758366389214,-0.004588631659287685,-0.6553084881464124
10435,13.0,300.04736,28407.564,0.0,-0.05217473263125427,-0.052174039529571115,0.0,0.0,0.0,-2.106040028874968,-3.3349856425874567,-3.194164447664487,0.0008823449555906672,-0.0008874803502774912,-0.6585023031241174
10436,13.0,300.17402000000004,28418.156000000003,0.0,-0.05217971412993516,-0.052179008830480655,0.0,0.0,0.0,-2.105090309556238,-3.3312394543177364,-3.202079957445687,-0.005294274430329205,-0.004774097970841785,-0.6548887796899904
10437,13.0,300.16757,28405.543999999998,0.0,-0.052184728618673515,-0.05218401104066761,0.0,0.0,0.0,-2.098563965662138,-3.3314968198431365,-3.2045154053860467,-0.0003029848110747727,-0.0025174899903569175,-0.6555275122880283
10438,13.0,299.82777999999996,28358.443,0.0,-0.052189710117354404,-0.05218901325085479,0.0,0.0,0.0,-2.088399040658938,-3.326346773559867,-3.2055127474594767,0.0006111592257167194,3.5709062362460065e-06,-0.6517374502889783
10439,13.0,299.98639,28436.738999999998,0.0,-0.05219472460609287,-0.05219401546104174,0.0,0.0,0.0,-2.104314767929698,-3.334793023743447,-3.2049507989540174,0.0026399766273704074,0.003139660407560357,-0.6563910749507554
10440,13.0,299.98444,28508.085,0.0,-0.05219970610477376,-0.05219901767122892,0.0,0.0,0.0,-2.113032569140078,-3.3410815578390762,-3.211631967463397,0.0007420166561788422,-0.004597524043490295,-0.6495695003750184
10441,13.0,300.20372000000003,28454.859,0.0,-0.05220472059351211,-0.052204019881415986,0.0,0.0,0.0,-2.109092951426268,-3.3357828677661368,-3.204690697653347,0.002052423291883408,-0.0028752174315368672,-0.6545434741884114
10442,13.0,300.23492000000005,28441.576,0.0,-0.052209735082250575,-0.05220902209160316,0.0,0.0,0.0,-2.104317909005008,-3.3388874660725367,-3.202323644094737,0.004381393136209836,0.002744323047843597,-0.6465537944998914
10443,13.0,300.12455,28466.971,0.0,-0.052214716580931464,-0.05221402430179034,0.0,0.0,0.0,-2.111540963667868,-3.337025821663807,-3.2046815784024467,0.00039393075579543857,0.005064172425369905,-0.6512768977210254
10444,13.0,300.02529,28478.053,0.0,-0.05221973106966982,-0.052219026511977296,0.0,0.0,0.0,-2.111118235726148,-3.340050474537317,-3.205448304753117,-0.006958938561318764,0.003613784244702736,-0.6512758236759193
10445,13.0,300.33428,28468.977000000003,0.0,-0.05222471256835082,-0.05222402872216447,0.0,0.0,0.0,-2.1233518121335084,-3.335758853738767,-3.194747471772027,-0.004425719687009526,0.000905961403886429,-0.6519192172244174
10446,13.0,300.11467999999996,28464.592,0.0,-0.05222972705708917,-0.05222903093235143,0.0,0.0,0.0,-2.114886006222998,-3.332025027120267,-3.205614072469477,-0.0025526347727254377,0.0034128513796472075,-0.6622730120462573
10447,13.0,299.95641,28430.626,0.0,-0.05223470855577006,-0.05223403314253838,0.0,0.0,0.0,-2.1073944402836378,-3.3326257831045565,-3.2021802692055865,0.0018588312211523582,0.0005884568202036665,-0.6569206197180174
10448,13.0,299.87776,28457.16,0.0,-0.052239723044508524,-0.05223903535272556,0.0,0.0,0.0,-2.1042010812684784,-3.330586211978267,-3.215478771468047,-0.002254116094513938,-0.0031198979776099573,-0.6554874787765774
10449,13.0,299.76133,28489.917,0.0,-0.05224470454318941,-0.052244037562912515,0.0,0.0,0.0,-2.105945087340598,-3.335742641737167,-3.2185355443697268,0.002111814541194868,0.002159472455673338,-0.6495187872075134
10450,13.0,300.02461,28469.197999999997,0.0,-0.052249719031927766,-0.05224903977309969,0.0,0.0,0.0,-2.106231229168838,-3.3349368039326364,-3.212757181699447,0.003494853000965137,0.0018251549421537683,-0.6528189934457184
10451,13.0,300.1116,28449.229,0.0,-0.05225473352066623,-0.05225400907400923,0.0,0.0,0.0,-2.113030846614908,-3.3341043176504765,-3.2007201758114867,0.006591845750789524,0.00015280258351294085,-0.6466978786641113
10452,13.0,300.02391,28479.414,0.0,-0.05225971501934712,-0.0522590112841963,0.0,0.0,0.0,-2.114606146545378,-3.340626912519207,-3.201797767292837,-0.0015563026056701085,-0.002425983880450968,-0.6545445988960223
10453,13.0,299.98675,28539.926,0.0,-0.05226472950808547,-0.052264013494383366,0.0,0.0,0.0,-2.120884548140008,-3.342791316057817,-3.211748896524937,-0.0012633947998873588,-0.0005336796889325845,-0.6541770221572454
10454,13.0,299.99899,28501.45,0.0,-0.05226971100676636,-0.05226901570457043,0.0,0.0,0.0,-2.112579342370348,-3.338652088074307,-3.212497688348837,-0.004557573415897476,0.007798832816284872,-0.6552485746679994
10455,13.0,299.91757,28474.789,0.0,-0.052274725495504826,-0.05227401791475761,0.0,0.0,0.0,-2.1064015565106478,-3.3403844417702766,-3.2088390448877573,0.00010388329424998291,0.0034038001178289166,-0.6641766962016363
10456,13.0,300.07229,28496.397,0.0,-0.052279706994185715,-0.052279020124944786,0.0,0.0,0.0,-2.111724159285948,-3.3350299216168264,-3.215439254714147,-0.003012445540280227,0.005688368228198235,-0.6551615567494113
10457,13.0,300.09843,28497.138,0.0,-0.05228472148292418,-0.05228402233513174,0.0,0.0,0.0,-2.119887206066578,-3.3374728676079264,-3.2050582034646173,-0.0014947897119742587,0.0004977347530925954,-0.6630032309958244
10458,13.0,300.07363,28502.731,0.0,-0.05228970298160507,-0.05228902454531892,0.0,0.0,0.0,-2.111167986306058,-3.3406879101752267,-3.2122627156506467,0.0017736444481450781,0.0018191856831646482,-0.6536088928261753
10459,13.0,300.11848,28515.677000000003,0.0,-0.05229471747034342,-0.052294026755505874,0.0,0.0,0.0,-2.1157308541563777,-3.334586016748017,-3.217737001965917,0.002171658105350968,-0.006452255756063063,-0.6540461305093274
10460,13.0,300.1491,28520.484,0.0,-0.052299731959081885,-0.05229902896569305,0.0,0.0,0.0,-2.1085088127436182,-3.3435245038301766,-3.217481865590737,0.004437619701483966,-0.005515483139160805,-0.6468363798202804
10461,13.0,299.93334,28530.545,0.0,-0.052304713457762775,-0.05230403117588023,0.0,0.0,0.0,-2.114844969593948,-3.339916522874097,-3.2178115771732765,0.005140550711282855,-0.004092438019067186,-0.6504733701267235
10462,13.0,299.95175,28618.583,0.0,-0.05230972794650113,-0.05230903338606718,0.0,0.0,0.0,-2.1271173534801378,-3.350466685565317,-3.2217505869370267,-0.0007496737365220372,0.0037348978265057163,-0.6511638392748673
10463,13.0,299.95187000000004,28619.447,0.0,-0.05231470944518202,-0.05231403559625425,0.0,0.0,0.0,-2.134125599121798,-3.348536950749867,-3.2169347105367367,0.0014342612920755689,-0.002964781343651137,-0.6492924575326764
10464,13.0,299.99762000000004,28531.406000000003,0.0,-0.05231972393392048,-0.052319037806441204,0.0,0.0,0.0,-2.113169155253558,-3.342755041704237,-3.216910899159387,0.0012922676654618887,-0.0013287395014863787,-0.6555262051953994
10465,13.0,300.108,28502.765,0.0,-0.05232470543260137,-0.052324007107350856,0.0,0.0,0.0,-2.111066762621068,-3.3450910898097868,-3.2079711961771067,0.001724700719289708,-0.002184434378511888,-0.6607723683831553
10466,13.0,300.15246,28543.825,0.0,-0.05232971992133961,-0.05232900931753792,0.0,0.0,0.0,-2.108165320959718,-3.342349539014217,-3.226095302040817,-0.005106038602276776,0.0012703818686019288,-0.6609053878562833
10467,13.0,300.18515,28540.982999999997,0.0,-0.05233473441007819,-0.05233401152772499,0.0,0.0,0.0,-2.113382748374638,-3.346072523856647,-3.216291094073217,-0.005451561851302265,-0.002387628513815588,-0.6588232196957894
10468,13.0,300.27674,28520.174,0.0,-0.05233971590875908,-0.052339013737912055,0.0,0.0,0.0,-2.111965819434798,-3.345552726555347,-3.211902201265067,0.00022948018350543077,0.0014912198292219387,-0.6579113452682943
10469,13.0,300.30206,28563.022999999997,0.0,-0.05234473039749732,-0.05234401594809923,0.0,0.0,0.0,-2.1241363716859376,-3.344690856020287,-3.213618444284447,0.004809917071151856,0.0016075004106979385,-0.6561791739573424
10470,13.0,300.03391,28611.509,0.0,-0.05234971189617821,-0.05234901815828619,0.0,0.0,0.0,-2.1173602616421876,-3.3541839962071864,-3.225639947445877,0.004149690297417546,0.0038297655962684363,-0.6526372163777784
10471,13.0,299.98634,28643.37,0.0,-0.05235472638491678,-0.052354020368473364,0.0,0.0,0.0,-2.120696792896478,-3.359674291874037,-3.226498068955567,0.0018207818560471783,-0.004765662866409306,-0.6545114858827543
10472,13.0,299.78357,28632.804,0.0,-0.05235970788359767,-0.05235902257866032,0.0,0.0,0.0,-2.110758937240688,-3.357811127590157,-3.235087390053267,-0.0015708682785076286,-0.0012033981336411488,-0.6503798978049984
10473,13.0,299.87743,28572.75,0.0,-0.05236472237233614,-0.052364024788847496,0.0,0.0,0.0,-2.1136531848263282,-3.356045741940927,-3.2157036116652367,0.0017391717545678883,-0.002042061087085738,-0.6566324513895774
10474,13.0,299.88447,28497.971,0.0,-0.052369703871017026,-0.052369026999034674,0.0,0.0,0.0,-2.116339513491448,-3.3410121502072267,-3.205320128615467,-0.0013123269776915887,0.0008023393964397333,-0.6535772591580534
10475,13.0,300.01856000000004,28523.246,0.0,-0.05237471835975538,-0.05237402920922163,0.0,0.0,0.0,-2.122530167627418,-3.343442329247067,-3.204382061672887,-0.004807480711286405,-0.0002699057923476277,-0.6592980286926494
10476,13.0,299.98239,28560.572999999997,0.0,-0.05237973284849384,-0.052379031419408806,0.0,0.0,0.0,-2.123636332761588,-3.344297512331467,-3.2137671893991264,-0.009281514594864173,-0.0005588449508012025,-0.6555692987221523
10477,13.0,300.1413,28557.137000000002,0.0,-0.05238471434717473,-0.05238403362959587,0.0,0.0,0.0,-2.111839061847288,-3.3464079096397468,-3.222409807452087,-0.00031075723980935173,-0.002002040950536058,-0.6624097805447553
10478,13.0,299.98154,28596.379,0.0,-0.052389728835912974,-0.05238903583978283,0.0,0.0,0.0,-2.113802132591028,-3.3536641989058866,-3.225118630269427,-0.0008291896932246512,0.001992969525040778,-0.6615383651937533
10479,13.0,300.02973,28653.325,0.0,-0.052394710334593864,-0.05239400514069248,0.0,0.0,0.0,-2.131998381861858,-3.3522850641947763,-3.225611880418107,0.003100820099427117,-0.00100408961995343,-0.6585238853512473
10480,13.0,299.92208999999997,28657.927000000003,0.0,-0.05239972482333244,-0.052399007350879545,0.0,0.0,0.0,-2.135687118850908,-3.354735812211647,-3.220871187175237,-0.002187141276154038,0.0013910386772598286,-0.6561336081003454
10481,13.0,299.9467,28607.228,0.0,-0.05240470632201333,-0.05240400956106661,0.0,0.0,0.0,-2.1246633630629477,-3.3547785713658667,-3.216441156413027,0.0026783422278317975,0.0016650709509047083,-0.6597621175034514
10482,13.0,299.67775,28575.787999999997,0.0,-0.05240972081075157,-0.05240901177125368,0.0,0.0,0.0,-2.1193873697922476,-3.344736654924807,-3.222201888531567,0.0023146336726365575,0.0037558853771520267,-0.6542621858281503
10483,13.0,299.72988,28559.112999999998,0.0,-0.05241470230943246,-0.05241401398144063,0.0,0.0,0.0,-2.1074129827604677,-3.353575032897087,-3.2202693166158367,0.002971348825499297,-0.002984937421265387,-0.6583680474858674
10484,13.0,299.78436,28546.382999999998,0.0,-0.052419716798171034,-0.05241901619162781,0.0,0.0,0.0,-2.1021167244877677,-3.3502623130201465,-3.2250085913085673,-0.0043792280233961554,-0.004803538053822295,-0.6609533753810194
10485,13.0,300.04684,28586.458,0.0,-0.052424731286909276,-0.052424018401814765,0.0,0.0,0.0,-2.1192533168040177,-3.3542511746888173,-3.216064835325887,-0.002613497666482138,-0.007182871190394193,-0.6578159275063774
10486,13.0,300.06342,28636.694,0.0,-0.05242971278559039,-0.05242902061200194,0.0,0.0,0.0,-2.1294326299586377,-3.3553685868990972,-3.220038802218087,0.0013495862103687889,0.0019208179105949684,-0.6610455912726204
10487,13.0,299.94397000000004,28641.099,0.0,-0.05243472727432863,-0.05243402282218912,0.0,0.0,0.0,-2.127965241163818,-3.354285625192217,-3.223928061401927,0.003005117918207047,0.002286700495204768,-0.6587169500253014
10488,13.0,299.99433,28650.757,0.0,-0.05243970877300952,-0.052439025032376074,0.0,0.0,0.0,-2.126732521092158,-3.354485134136907,-3.2278970633686366,-0.003401422627794277,0.0004083965019080967,-0.6582846367376354
10489,13.0,300.11836,28707.912999999997,0.0,-0.052444723261748094,-0.05244402724256325,0.0,0.0,0.0,-2.1220632619813378,-3.363668929068277,-3.240756423037757,-0.0029843146777539273,0.002213232364904028,-0.6564713040936734
10490,13.0,300.13367999999997,28664.47,0.0,-0.05244970476042898,-0.05244902945275032,0.0,0.0,0.0,-2.118051500860408,-3.358683839901287,-3.236547787422397,-0.006331576655902964,0.004641799323834925,-0.6585337746722233
10491,13.0,300.09221,28613.877999999997,0.0,-0.052454719249167225,-0.052454031662937495,0.0,0.0,0.0,-2.124903199361618,-3.3513194368494763,-3.221681888580247,0.004343142742284816,-0.0004557153119755996,-0.6524362280879423
10492,13.0,300.06764,28635.627,0.0,-0.0524597337379058,-0.05245903387312456,0.0,0.0,0.0,-2.128423736834068,-3.350536599822217,-3.225555442387537,0.001159495830658329,-0.0013107207736330689,-0.6559672729639294
10493,13.0,299.73771,28604.912,0.0,-0.05246471523658669,-0.05246400317403399,0.0,0.0,0.0,-2.121482872324058,-3.3533087507708066,-3.220387461577497,0.0026912212445528573,-0.004390786977886936,-0.6575336968235234
10494,13.0,299.87724,28654.228,0.0,-0.05246972972532493,-0.05246900538422117,0.0,0.0,0.0,-2.1223008691297878,-3.3595885709155766,-3.228280477206477,0.0035241002624516165,-0.001903795410239978,-0.6530529528938084
10495,13.0,300.03011000000004,28701.126,0.0,-0.05247471122400582,-0.052474007594408345,0.0,0.0,0.0,-2.116477112855028,-3.364544579804697,-3.2434039442240468,-2.8420854704919974e-05,-0.001015325641504839,-0.6586023210414884
10496,13.0,299.88876,28636.676,0.0,-0.052479725712744285,-0.0524790098045953,0.0,0.0,0.0,-2.118946605998748,-3.359223496904547,-3.2266644446219868,0.002444630316741228,-0.0014677119202768888,-0.6594677784819024
10497,13.0,299.98578,28639.168999999998,0.0,-0.052484707211425286,-0.052484012014782255,0.0,0.0,0.0,-2.129338701674368,-3.3592665600337965,-3.2169869942418967,-0.007157245386090122,-0.0005859451353257824,-0.6603604214224994
10498,13.0,300.10347,28732.359,0.0,-0.05248972170016353,-0.05248901422496943,0.0,0.0,0.0,-2.1406348190892084,-3.366012069924527,-3.227272698657017,0.001020695563059809,0.008773378890290081,-0.6556493252150504
10499,13.0,300.05071,28744.326,0.0,-0.05249470319884464,-0.05249401643515639,0.0,0.0,0.0,-2.1374681085516776,-3.3670241041244067,-3.2330650441786766,-0.0033427000222238067,0.0038347388304092564,-0.6588567988041033
10500,13.0,300.23022000000003,28679.855,0.0,-0.05249971768758288,-0.052499018645343565,0.0,0.0,0.0,-2.1227775019768282,-3.361955827124207,-3.233226454919607,0.0026201623190148875,0.0060659791827155345,-0.6578934107415244
10501,13.0,300.12745,28641.16,0.0,-0.052504732176321234,-0.05250402085553052,0.0,0.0,0.0,-2.1074308159622284,-3.3621047748889072,-3.236661980708667,-0.004051218194399106,0.007968160789521242,-0.6656307303601383
10502,13.0,300.07501,28677.542,0.0,-0.052509713675002345,-0.0525090230657177,0.0,0.0,0.0,-2.121378608888768,-3.362565702359397,-3.2333122772030767,0.0015884145278393083,0.007662974520351702,-0.6596795680178044
10503,13.0,300.01954,28692.081000000002,0.0,-0.05251472816374059,-0.05251402527590476,0.0,0.0,0.0,-2.1300626688708184,-3.3635402463055764,-3.228073267561027,-0.0023672624907806177,0.0018047159651115984,-0.6604183084007124
10504,13.0,299.94105,28695.787999999997,0.0,-0.05251970966242148,-0.05251902748609194,0.0,0.0,0.0,-2.133280649863408,-3.366108227359017,-3.2234142422762173,0.005214135669320125,-0.007828497536812553,-0.6619008452845274
10505,13.0,299.95234,28650.298,0.0,-0.05252472415115994,-0.05252402969627912,0.0,0.0,0.0,-2.1270679068752583,-3.359380044044997,-3.2225272431386767,0.0034732232524054465,-0.005221844172105895,-0.6617660526237245
10506,13.0,299.96675,28635.337000000003,0.0,-0.05252970564984094,-0.05252903190646607,0.0,0.0,0.0,-2.112882506800268,-3.3663936599121866,-3.225151256922647,0.0029598242201869067,-0.005137476003854405,-0.6632012808603703
10507,13.0,300.0576,28739.716,0.0,-0.05253472013857918,-0.05253403411665325,0.0,0.0,0.0,-2.121049099956248,-3.3728011495695567,-3.2423058850906767,-0.0019184382927351182,-0.0034081691509351064,-0.6608901283097773
10508,13.0,300.09962,28845.221,0.0,-0.05253970163726007,-0.05253900341756279,0.0,0.0,0.0,-2.1461854031370082,-3.3739427784572267,-3.248098737237387,-0.0028718178761263573,-0.0036802185954592963,-0.6599611096905904
10509,13.0,300.07344,28744.742000000002,0.0,-0.052544716125998536,-0.052544005627749746,0.0,0.0,0.0,-2.1364857625797278,-3.369537572322467,-3.231660274240037,0.0019341248228332583,0.004575847685426005,-0.6573955199073863
10510,13.0,300.24029,28675.468999999997,0.0,-0.05254973061473689,-0.05254900783793692,0.0,0.0,0.0,-2.1291123416020277,-3.359644603646107,-3.227869502965917,0.003948311095692966,0.002966511265546867,-0.6614205748696285
10511,13.0,300.30646,28731.992000000002,0.0,-0.05255471211341778,-0.05255401004812388,0.0,0.0,0.0,-2.1338137207410184,-3.3628461699870766,-3.237148138106647,0.0005878412201054114,0.0006307521490578903,-0.6552634694444693
10512,13.0,300.13293,28748.866,0.0,-0.05255972660215624,-0.052559012258311055,0.0,0.0,0.0,-2.125617642007128,-3.3692229581664166,-3.244096703317417,-0.00011199827244586889,-0.007136234024066463,-0.6656450881140553
10513,13.0,299.92221,28699.147,0.0,-0.05256470810083713,-0.05256401446849801,0.0,0.0,0.0,-2.1188371749879478,-3.366343504032237,-3.238643492604227,-0.0004907540475886535,-0.0008751625930518232,-0.6616811726628474
10514,13.0,299.9554,28668.156000000003,0.0,-0.052569722589575485,-0.05256901667868508,0.0,0.0,0.0,-2.1276150619292578,-3.3632991941067862,-3.223489121458607,0.0002855441120060097,0.00015972423680105484,-0.6684989576832103
10515,13.0,299.91472000000005,28705.711,0.0,-0.052574704088256596,-0.05257401888887214,0.0,0.0,0.0,-2.128331733724988,-3.3661785469159566,-3.2313090817553767,-4.3530270983353254e-05,-0.0003936897441266526,-0.6596428883641844
10516,13.0,300.0375,28788.411,0.0,-0.05257971857699484,-0.05257902109905921,0.0,0.0,0.0,-2.1417555750248183,-3.374761484538027,-3.234441139139487,-0.001062442277779889,-0.0066980715475481924,-0.6648590897464833
10517,13.0,299.92883,28859.388,0.0,-0.05258473306573319,-0.052584023309246386,0.0,0.0,0.0,-2.1406056374863276,-3.376952333904247,-3.254975260366047,0.0035170416582799863,-0.0023243783014982775,-0.6582946476486233
10518,13.0,300.00399,28796.369,0.0,-0.05258971456441419,-0.05258902551943356,0.0,0.0,0.0,-2.1274033939833683,-3.3768078444399863,-3.249165993567717,-0.00013645745098230186,-0.0002520364479565608,-0.6611551742709354
10519,13.0,299.92783,28716.603,0.0,-0.05259472905315277,-0.05259402772962052,0.0,0.0,0.0,-2.123229107546398,-3.366973340294397,-3.238927709257277,-0.003490968301406747,0.0028899855517443675,-0.6570997522031964
10520,13.0,300.05487999999997,28755.502999999997,0.0,-0.052599710551833434,-0.052599029939807695,0.0,0.0,0.0,-2.135399254497498,-3.3674720619936167,-3.2380837732489867,-0.006042561959654433,-0.0014219740134129087,-0.6607562577065654
10521,13.0,300.10773,28810.685,0.0,-0.0526047250405719,-0.05260403214999465,0.0,0.0,0.0,-2.141018638227088,-3.3701989206627365,-3.246511278305717,-0.002890308373226227,0.00905455640099014,-0.6564045309120834
10522,13.0,300.06843,28719.662,0.0,-0.05260970653925279,-0.05260900145090419,0.0,0.0,0.0,-2.131691468406568,-3.364206356921317,-3.2341623940369764,0.001906533515985208,0.0014362014633670485,-0.6630063112761284
10523,13.0,300.05236,28676.571,0.0,-0.05261472102799114,-0.05261400366109137,0.0,0.0,0.0,-2.121665865292118,-3.3594320237751267,-3.2358637422798866,0.0014434323200556785,-0.004007211830631016,-0.6640352464876764
10524,13.0,300.18813,28760.486,0.0,-0.05261970252667203,-0.052619005871278324,0.0,0.0,0.0,-2.122888655512798,-3.3754315468291565,-3.244149290997607,0.001898135293856368,-0.012275234158721289,-0.6720436307730423
10525,13.0,300.33552000000003,28853.787999999997,0.0,-0.052624717015410494,-0.0526240080814655,0.0,0.0,0.0,-2.143635457935348,-3.3804183585213172,-3.246777256456967,-0.0034404986179007767,-0.004666828425155106,-0.6643159268978773
10526,13.0,300.03706,28870.965,0.0,-0.05262973150414885,-0.05262901029165268,0.0,0.0,0.0,-2.146733064816058,-3.380623035041517,-3.2486962508213573,0.004149436376942486,0.0015786799301535784,-0.6656420179662523
10527,13.0,300.00068999999996,28840.303,0.0,-0.052634713002829736,-0.05263401250183963,0.0,0.0,0.0,-2.1468881934063684,-3.378705661877287,-3.2411381143504268,-0.005157226781428655,0.003926827559122706,-0.6590971822578273
10528,13.0,299.96019,28761.662999999997,0.0,-0.0526397274915682,-0.0526390147120267,0.0,0.0,0.0,-2.135476058855078,-3.367788905299887,-3.239562307794907,0.003328518573824207,0.001099343731846779,-0.6556361529637504
10529,13.0,300.06228,28797.492000000002,0.0,-0.05264470899024909,-0.052644016922213765,0.0,0.0,0.0,-2.1266997931139278,-3.373931328731097,-3.2530874741047366,-0.006551234484131504,0.005475221342462275,-0.6569814755190234
10530,13.0,299.92177999999996,28870.388,0.0,-0.05264972347898744,-0.05264901913240083,0.0,0.0,0.0,-2.1357564251577483,-3.3790749915387366,-3.2610457430401567,0.004708382318381155,0.0061688005604632135,-0.6601196124037334
10531,13.0,299.64957999999996,28786.811,0.0,-0.05265470497766844,-0.05265402134258801,0.0,0.0,0.0,-2.135655100147748,-3.3669382818409366,-3.247878254015627,-0.004616220230360465,-0.0006143479845764254,-0.6623515389290074
10532,13.0,299.68462999999997,28745.996,0.0,-0.05265971946640702,-0.052659023552774964,0.0,0.0,0.0,-2.1319651472585774,-3.3706241817297067,-3.235475566166577,0.0018646203242736984,-0.004338389282090686,-0.6673513202224474
10533,13.0,300.11812000000003,28819.256,0.0,-0.052664700965087685,-0.05266402576296214,0.0,0.0,0.0,-2.136925715773148,-3.380891546318017,-3.242517046411517,-0.0012507496412893788,-0.0025995127886019377,-0.6684288205112884
10534,13.0,300.08326,28858.998,0.0,-0.05266971545382615,-0.052669027973149096,0.0,0.0,0.0,-2.141811607755348,-3.3804275790972267,-3.250175595967357,0.002832668628037627,-0.004487440296975876,-0.6590422438374054
10535,13.0,299.88894,28836.468999999997,0.0,-0.05267472994256461,-0.05267403018333627,0.0,0.0,0.0,-2.129048810820758,-3.384789823427747,-3.251727895120557,0.0004533906021386686,-0.0049911400939371756,-0.6723212410354403
10536,13.0,300.06968,28831.333,0.0,-0.05267971144124539,-0.052678999484245814,0.0,0.0,0.0,-2.132387165925228,-3.383117048837657,-3.2485009975270867,0.0002807714811199877,-0.007916156133438783,-0.6587384207949204
10537,13.0,300.04281000000003,28835.546000000002,0.0,-0.052684725929983856,-0.05268400169443277,0.0,0.0,0.0,-2.1428519116330182,-3.380319262661537,-3.2421148874468266,0.0005566129330834195,0.0022459917538871278,-0.6638189581213304
10538,13.0,300.07499,28899.377,0.0,-0.052689707428664745,-0.05268900390461995,0.0,0.0,0.0,-2.148012901017368,-3.385494538872297,-3.2511814493416265,-0.0004157796196892536,0.0021492179593612976,-0.6548517960613404
10539,13.0,300.06812,28930.607000000004,0.0,-0.0526947219174031,-0.052694006114807124,0.0,0.0,0.0,-2.153849322918378,-3.383888132163757,-3.2564447769860765,0.0033537419151885564,-0.0023273732661438576,-0.6570036758287144
10540,13.0,300.05589,28900.712000000003,0.0,-0.05269970341608399,-0.05269900832499408,0.0,0.0,0.0,-2.1409764870229275,-3.3851835724166066,-3.2589348391068267,-0.0007382191569240584,-0.004676184776578505,-0.6561655457434974
10541,13.0,300.07379,28819.869,0.0,-0.05270471790482245,-0.052704010535181256,0.0,0.0,0.0,-2.125628585108208,-3.3790601980872763,-3.255831659350567,0.002048561086477238,0.0018391098278310084,-0.6669305377209194
10542,13.0,300.1358,28838.23,0.0,-0.052709732393560804,-0.05270901274536832,0.0,0.0,0.0,-2.131432886981048,-3.383150992716007,-3.251518051024847,-0.0003497182057644997,0.0006853498742662664,-0.6655352315382134
10543,13.0,300.35351,28896.799,0.0,-0.052714713892241694,-0.05271401495555539,0.0,0.0,0.0,-2.144574538128028,-3.389855668627707,-3.249475338823247,0.000994273911597195,-0.0008812263578777701,-0.6689422748669623
10544,13.0,300.21201,28826.318,0.0,-0.05271972838098016,-0.052719017165742454,0.0,0.0,0.0,-2.1432893317011876,-3.376503464109947,-3.242687880378377,-0.0022389704373191777,-0.002217121725412878,-0.6676381611932564
10545,13.0,300.02238,28788.953999999998,0.0,-0.05272470987966127,-0.05272401937592941,0.0,0.0,0.0,-2.1372027383504877,-3.376680174927387,-3.2372401412157266,0.007227215574395643,0.003976690204493766,-0.6623632014376584
10546,13.0,299.96332,28856.212000000003,0.0,-0.05272972436839951,-0.05272902158611659,0.0,0.0,0.0,-2.1369114289467377,-3.381177282846217,-3.253479297918407,0.002011759133570168,0.0021000988369136177,-0.6608369124145254
10547,13.0,300.1114,28946.284,0.0,-0.0527347058670804,-0.05273402379630354,0.0,0.0,0.0,-2.142285808802148,-3.387607874605867,-3.2690537625554867,-0.0002698006372522497,0.0013222675691226485,-0.6589619640319824
10548,13.0,300.06548,28960.02,0.0,-0.052739720355818864,-0.05273902600649072,0.0,0.0,0.0,-2.149813851745108,-3.391794117394017,-3.2615147765114467,-0.004080365954725766,-0.002053516183441268,-0.6653453586019744
10549,13.0,300.05355,28926.731,0.0,-0.05274470185449964,-0.052744028216677896,0.0,0.0,0.0,-2.1485090895913377,-3.387175216813167,-3.257319617122417,0.0016452706254005687,0.007877381889212063,-0.6638626899956463
10550,13.0,299.71941,28851.764,0.0,-0.05274971634323811,-0.05274903042686485,0.0,0.0,0.0,-2.144515566972208,-3.379615763117107,-3.246084396038587,-0.0017201590283664784,0.004366211913936566,-0.6662662408228583
10551,13.0,299.96294,28849.785,0.0,-0.05275473083197657,-0.05275399972777439,0.0,0.0,0.0,-2.134416503225508,-3.3850566121790764,-3.250141145463957,0.0023683031999583277,-0.0038622702541763966,-0.6677782430195813
10552,13.0,300.07304,28877.365,0.0,-0.05275971233065735,-0.05275900193796157,0.0,0.0,0.0,-2.135930704174948,-3.3838979606897266,-3.258169126006257,0.001007550000767443,-0.002929020201246787,-0.6667362672792463
10553,13.0,299.81717000000003,28875.782000000003,0.0,-0.05276472681939581,-0.052764004148148524,0.0,0.0,0.0,-2.130723915886078,-3.386999924545867,-3.259792859291507,0.0025134381045320278,0.0009537607478138573,-0.6678327660074623
10554,13.0,299.77137,28838.771,0.0,-0.0527697083180767,-0.0527690063583357,0.0,0.0,0.0,-2.1392063390982274,-3.3786641186231865,-3.248396024816727,-0.0004064216673306957,0.0017207874460784982,-0.6639763462593633
10555,13.0,300.18742000000003,28898.347,0.0,-0.052774722806814944,-0.05277400856852277,0.0,0.0,0.0,-2.1410058712758278,-3.389668825309267,-3.2537010983652968,-0.0036147188665949766,-0.004516989912292196,-0.6650779720330854
10556,13.0,300.19635,29016.985,0.0,-0.052779704305495945,-0.052779010778709945,0.0,0.0,0.0,-2.166640997480818,-3.392815574819827,-3.2609822122588867,0.0015484806188731386,-0.001263722991594749,-0.6571849969341094
10557,13.0,300.23001,29015.35,0.0,-0.05278471879423441,-0.05278401298889712,0.0,0.0,0.0,-2.157387896242608,-3.3930219738651965,-3.269532016602687,0.0015836685656959186,-0.0024570565119925976,-0.6616873433559564
10558,13.0,300.10819,28911.453999999998,0.0,-0.05278970029291541,-0.05278901519908408,0.0,0.0,0.0,-2.145811007225058,-3.3867818731243466,-3.2557670139941868,0.0018828069476685783,-0.0018289322372015584,-0.6595881829912854
10559,13.0,299.89812,28871.437,0.0,-0.05279471478165376,-0.05279401740927103,0.0,0.0,0.0,-2.132717688107848,-3.384316230331007,-3.2591620097792466,-0.002087825845077368,-0.003751036975423527,-0.6677727816015424
10560,13.0,300.00501,28938.209,0.0,-0.052799729270392115,-0.05279901961945799,0.0,0.0,0.0,-2.150551801792938,-3.3877001816899766,-3.258240965438347,-0.00018725902455852682,0.005915001270115175,-0.6698974556037314
10561,13.0,300.05747,28952.67,0.0,-0.052804710769073115,-0.052804021829645165,0.0,0.0,0.0,-2.147439300135758,-3.3908524027510767,-3.262597130268267,0.00024484115634644077,0.006322578691039933,-0.6727438372546474
10562,13.0,299.91483999999997,28894.153,0.0,-0.05280972525781147,-0.05280902403983234,0.0,0.0,0.0,-2.150299502518038,-3.382678311544357,-3.2501232109371867,-0.004291957096258186,0.004237429042126686,-0.6662878433149904
10563,13.0,299.93956000000003,28855.372000000003,0.0,-0.05281470675649236,-0.0528140262500193,0.0,0.0,0.0,-2.137164944121758,-3.384960657394607,-3.249186967844787,-0.003033632701196237,-0.005619543620455776,-0.6698217759537624
10564,13.0,299.9812,28938.432999999997,0.0,-0.05281972124523082,-0.052819028460206474,0.0,0.0,0.0,-2.1424116544645684,-3.3910681236973668,-3.2630812611660467,-0.004962045529240766,-0.006478118660890534,-0.6617928024263643
10565,13.0,299.84551,29063.805,0.0,-0.0528247027439116,-0.052823997761116015,0.0,0.0,0.0,-2.156025581483158,-3.4036922066932673,-3.274953208612717,0.00039053840459313965,-0.004413555923534055,-0.6633271569202934
10566,13.0,299.93178,29051.29,0.0,-0.052829717232650064,-0.05282899997130297,0.0,0.0,0.0,-2.155457958777138,-3.402956992420707,-3.2724518994158567,2.6068482127008877e-05,3.779809529238156e-05,-0.6582330319100423
10567,13.0,299.93147,28925.057,0.0,-0.05283473172138853,-0.05283400218149015,0.0,0.0,0.0,-2.1451079129806683,-3.3933447953470566,-3.2540424623239868,0.00034976778409189266,-0.006447316668450614,-0.6671269967828083
10568,13.0,300.10036,28910.422000000002,0.0,-0.052839713220069195,-0.05283900439167721,0.0,0.0,0.0,-2.145547967499098,-3.393585644895827,-3.2489128836927366,0.002030546816924368,-0.0021156298331214077,-0.6636408692837544
10569,13.0,299.94333,29009.432999999997,0.0,-0.05284472770880777,-0.05284400660186439,0.0,0.0,0.0,-2.154693157601658,-3.3970210693598766,-3.266429039496447,-0.0007518426186260893,-0.006392580087448534,-0.6645275948437673
10570,13.0,300.08867000000004,29039.792,0.0,-0.05284970920748866,-0.05284900881205157,0.0,0.0,0.0,-2.147401201931998,-3.4041405698625167,-3.2758297712742266,0.0035738632040128366,0.0040044369439071565,-0.6640783805444334
10571,13.0,300.20013,28929.822,0.0,-0.0528547236962269,-0.05285401102223852,0.0,0.0,0.0,-2.135116557719598,-3.3973329477406566,-3.2614939035593866,-0.0017925545321113583,-0.0018768492397305983,-0.6717131592529274
10572,13.0,300.45729,28901.734,0.0,-0.05285970519490801,-0.0528590132324257,0.0,0.0,0.0,-2.135330860115748,-3.391997375364076,-3.258077325547197,-0.003724824701961577,0.0076716435842322725,-0.6701831516019273
10573,13.0,300.20509,28995.6,0.0,-0.052864719683646366,-0.052864015442612655,0.0,0.0,0.0,-2.154207912128768,-3.4045092915739072,-3.255221277490327,-0.0015179086342059188,0.005876349223850515,-0.6748521168702183
10574,13.0,300.06414,29076.507999999998,0.0,-0.05286970118232737,-0.05286901765279983,0.0,0.0,0.0,-2.168009695715898,-3.4048819649606865,-3.2656406295936367,-0.0002964242801222987,0.005433132858483464,-0.6615248788349224
10575,13.0,299.89767,29023.058999999997,0.0,-0.05287471567106572,-0.05287401986298679,0.0,0.0,0.0,-2.155645714020668,-3.396651537048407,-3.269988080472697,0.0026453460423003275,-0.004164614660790465,-0.6692236746847343
10576,13.0,300.04985,28959.137000000002,0.0,-0.05287973015980396,-0.052879022073173854,0.0,0.0,0.0,-2.142448638093218,-3.395908723400097,-3.264497176855787,-0.0013241503904584686,-0.005420577169869314,-0.6595680801093013
10577,13.0,300.06797,28959.405,0.0,-0.05288471165848507,-0.05288402428336092,0.0,0.0,0.0,-2.1420412102280078,-3.395653890999947,-3.2652410037541966,0.004111756442823767,0.00011242376656036189,-0.6660487872188974
10578,13.0,300.08637999999996,29077.196,0.0,-0.052889726147223426,-0.052889026493547986,0.0,0.0,0.0,-2.159315604557858,-3.4037900866529265,-3.2756358352050867,-0.001057296183172009,0.004979736065386685,-0.6599818610526383
10579,13.0,299.96112999999997,29080.693,0.0,-0.052894707645904315,-0.05289399579445764,0.0,0.0,0.0,-2.160968418120978,-3.404597545657617,-3.2742385633171867,0.0030747885897830073,0.0005840957005807574,-0.6707237407952794
10580,13.0,299.95113,28946.464,0.0,-0.05289972213464278,-0.05289899800464459,0.0,0.0,0.0,-2.147208988388028,-3.3929624960843263,-3.258830676996547,-0.002118916816445808,0.0002958209200852517,-0.6662648324052194
10581,13.0,300.01863,28939.451,0.0,-0.05290470363332345,-0.05290400021483166,0.0,0.0,0.0,-2.133461413681248,-3.3998197674610866,-3.2635894060911967,0.003084512548342687,-0.0018916821066194882,-0.6717396152130384
10582,13.0,300.05417,29011.797000000002,0.0,-0.05290971812206202,-0.052909002425018836,0.0,0.0,0.0,-2.147001677417568,-3.400227499301327,-3.271632686710007,0.0014071564466005288,0.0023314047856417375,-0.6678753630416664
10583,13.0,299.8469,29051.202,0.0,-0.05291469962074291,-0.05291400463520601,0.0,0.0,0.0,-2.148762807416378,-3.4075646459254467,-3.274512444819217,0.0006832784972193374,-0.0039140403428607065,-0.6708534266755783
10584,13.0,299.82847999999996,29042.507,0.0,-0.05291971410948115,-0.05291900684539297,0.0,0.0,0.0,-2.157533702931998,-3.403502627599557,-3.2671605047436367,0.0006754468440164134,0.004430676303848706,-0.6716809581647494
10585,13.0,299.98256000000003,29028.203999999998,0.0,-0.05292472859821962,-0.052924009055580146,0.0,0.0,0.0,-2.158599338062168,-3.4011562443429866,-3.2640938019909767,-0.0007148982230199614,-0.0001968676245943218,-0.6668901191744304
10586,13.0,300.00244,29004.75,0.0,-0.052929710096900506,-0.0529290112657671,0.0,0.0,0.0,-2.156231575228488,-3.403799611203867,-3.256688362310117,-0.0025080656498518076,0.004521032476216165,-0.6747187123620523
10587,13.0,300.12453,29053.124,0.0,-0.05293472458563886,-0.05293401347595428,0.0,0.0,0.0,-2.148986431713448,-3.4055342953750674,-3.276903613730207,-0.00037792711894600264,-0.004925135462548026,-0.6684921790400414
10588,13.0,300.11557999999997,29097.949,0.0,-0.05293970608431997,-0.052939015686141455,0.0,0.0,0.0,-2.153945885652908,-3.4104640610865973,-3.280640074798967,0.0039277364444624055,-0.003240784794040557,-0.6690821135132634
10589,13.0,300.05608,29012.682,0.0,-0.05294472057305821,-0.05294401789632841,0.0,0.0,0.0,-2.1479060031318182,-3.4019382707701666,-3.2692867087534765,0.004010619390717316,-0.007421815930301202,-0.6689715375298504
10590,13.0,300.17877000000004,28965.624,0.0,-0.052949702071739324,-0.052949020106515476,0.0,0.0,0.0,-2.148338458274498,-3.395069853642307,-3.261418213776917,0.002002680716649198,-0.0014699891998766388,-0.6688868703514944
10591,13.0,300.07621,29031.88,0.0,-0.05295471656047768,-0.05295402231670243,0.0,0.0,0.0,-2.154059774964148,-3.4023717391629464,-3.268535079829297,0.0026201923112178474,0.004250010163318345,-0.6671325899233604
10592,13.0,300.02317999999997,29144.55,0.0,-0.05295973104921614,-0.05295902452688961,0.0,0.0,0.0,-2.1660876616012077,-3.408591270926767,-3.2845366293835268,0.0013523777143942888,0.008210735700561522,-0.6631977547500224
10593,13.0,299.86188,29139.107999999997,0.0,-0.05296471254789703,-0.05296399382779926,0.0,0.0,0.0,-2.157008130105128,-3.4108641935510864,-3.289688904817017,0.0007877438225917622,0.007313881793873932,-0.6638472683291244
10594,13.0,299.81537000000003,29076.372000000003,0.0,-0.05296972703663527,-0.05296899603798633,0.0,0.0,0.0,-2.155481263529438,-3.407862034829797,-3.275147853956927,-0.0009038805124210611,0.0028602961079142474,-0.6641990586313433
10595,13.0,299.86942999999997,29087.461,0.0,-0.05297470853531627,-0.05297399824817328,0.0,0.0,0.0,-2.1552731419588977,-3.4073978649589867,-3.2791908231809366,-0.002425050778433878,-0.0015764668906101686,-0.6711984585996303
10596,13.0,299.94186,29128.725,0.0,-0.05297972302405474,-0.05297900045836046,0.0,0.0,0.0,-2.171212984582038,-3.408744778316917,-3.274447292837787,-0.004237488621232566,-0.004088349352263666,-0.6695681797187343
10597,13.0,299.89148,29142.865,0.0,-0.052984704522735404,-0.052984002668547414,0.0,0.0,0.0,-2.1659808650406682,-3.4153722445709964,-3.277350153049277,-0.0011908809485307989,-0.007050175551998154,-0.6729428598392894
10598,13.0,300.18842,29044.562,0.0,-0.05298971901147387,-0.05298900487873459,0.0,0.0,0.0,-2.1499897519624684,-3.403381037587557,-3.275450714411817,0.0016434598461468584,0.0019359537392637583,-0.6738893570227014
10599,13.0,300.11541,28966.722999999998,0.0,-0.05299470051015476,-0.052994007088921546,0.0,0.0,0.0,-2.131472302409938,-3.4027541397506864,-3.2709342534160766,0.0005082446086948375,0.0027715645807571275,-0.6757430778156494
10600,13.0,299.90473,29060.178,0.0,-0.05299971499889311,-0.052999009299108724,0.0,0.0,0.0,-2.148107741226728,-3.4075788314268465,-3.2778819067017566,0.004629416191712805,0.007395247600754113,-0.6710500073274794
10601,13.0,299.97294,29215.539,0.0,-0.053004729487631574,-0.0530040115092959,0.0,0.0,0.0,-2.1677738110926184,-3.4209579883972667,-3.292062443176267,0.0009812621489805342,-0.0010429475485059091,-0.6694644938360014
10602,13.0,299.91927999999996,29137.338,0.0,-0.053009710986312464,-0.053009013719482856,0.0,0.0,0.0,-2.162009228623698,-3.4163968430721168,-3.278616918324297,0.0053965946545774255,0.0038199747632021563,-0.6721155512651404
10603,13.0,300.04554,29009.558999999997,0.0,-0.05301472547505082,-0.05301401592967003,0.0,0.0,0.0,-2.142997211697358,-3.407022253146917,-3.268162001142477,-0.001072457140443279,0.003166078978742667,-0.6699060276995774
10604,13.0,299.81465,29080.662,0.0,-0.05301970697373193,-0.0530190181398571,0.0,0.0,0.0,-2.1511115211481777,-3.409163757233267,-3.2795199268134168,-0.0018141872190963382,0.0037566984090322665,-0.6706666441521444
10605,13.0,299.83487,29189.808999999997,0.0,-0.05302472146247039,-0.053024020350044276,0.0,0.0,0.0,-2.168847653548598,-3.4150830629924567,-3.289042451253217,-0.006619601305478785,-0.004498261605393856,-0.6637106720831434
10606,13.0,299.73319,29148.773999999998,0.0,-0.05302970296115128,-0.05302902256023123,0.0,0.0,0.0,-2.163938355489088,-3.414947287479057,-3.281613808145067,0.00045300010568262954,-0.000937101072054675,-0.6706732201452934
10607,13.0,299.80147999999997,29063.257999999998,0.0,-0.053034717449889524,-0.05303402477041819,0.0,0.0,0.0,-2.153833313566798,-3.405569759128567,-3.275101649752367,0.004809475800733306,-0.001119974111832839,-0.6724430235649593
10608,13.0,300.00175,29068.015,0.0,-0.05303969894857041,-0.05303899407132795,0.0,0.0,0.0,-2.1651273031564275,-3.4063324324788367,-3.264490793380157,0.002321220203586598,-0.006520075118381313,-0.6727084950911594
10609,13.0,299.96977000000004,29143.076,0.0,-0.05304471343730899,-0.053043996281514905,0.0,0.0,0.0,-2.166916905483048,-3.413225674234147,-3.278624923000087,-0.0012735750249670689,-0.006824071527958424,-0.6696355811153863
10610,13.0,299.90902,29229.395,0.0,-0.05304972792604723,-0.05304899849170186,0.0,0.0,0.0,-2.166113195503728,-3.422971721646007,-3.295921203532097,-0.0025709875691367176,0.00035994613465891763,-0.6707721032225523
10611,13.0,299.88989,29177.172000000002,0.0,-0.05305470942472812,-0.05305400070188904,0.0,0.0,0.0,-2.1567550202301478,-3.415053374764527,-3.297323136370457,-0.0007234596493424083,0.0067190982096483635,-0.6672731783747354
10612,13.0,299.86393,29076.115,0.0,-0.053059723913466694,-0.05305900291207599,0.0,0.0,0.0,-2.1525255116627275,-3.411151044654397,-3.2747364744163265,-0.001042861624897429,0.0016502270395897286,-0.6667698565200614
10613,13.0,300.12332000000004,29148.583,0.0,-0.05306470541214736,-0.05306400512226317,0.0,0.0,0.0,-2.1570739913616275,-3.4185096721806367,-3.284857627015207,-0.004025894338624836,-0.0012634351272413388,-0.6716465785888563
10614,13.0,300.10897,29254.159,0.0,-0.053069719900885826,-0.053069007332450346,0.0,0.0,0.0,-2.182254472246748,-3.4269699052155964,-3.283309482187417,1.5553801427790686e-05,-0.002876654220178667,-0.6749307248129763
10615,13.0,299.87655,29188.195,0.0,-0.053074701399566715,-0.0530740095426373,0.0,0.0,0.0,-2.159128761239418,-3.4247306224945966,-3.288623269686847,0.0016959315092004083,-0.003347983817520277,-0.6740348192070573
10616,13.0,300.12334,29091.368,0.0,-0.05307971588830507,-0.05307901175282448,0.0,0.0,0.0,-2.1489379983586683,-3.4191276534166266,-3.274983606115717,0.0012955484679606786,-0.006269781166754224,-0.6754172165834894
10617,13.0,300.04666000000003,29077.673,0.0,-0.05308473037704353,-0.053084013963011545,0.0,0.0,0.0,-2.145367608981298,-3.4101352614291467,-3.2833837534197468,0.0004782576746353575,-0.004868211578555075,-0.6727414561169124
10618,13.0,299.76623,29125.458,0.0,-0.05308971187572464,-0.05308901617319872,0.0,0.0,0.0,-2.1583856436160778,-3.415760927309357,-3.279265398388297,0.0017052241271925184,-6.231113516438024e-05,-0.6819300639862573
10619,13.0,299.94178,29187.9,0.0,-0.053094726364462885,-0.0530940183833859,0.0,0.0,0.0,-2.166157069233058,-3.420630100664907,-3.2856056082390266,0.005299925224811895,0.0053380705447015455,-0.6764106272465313
10620,13.0,299.70059,29165.543999999998,0.0,-0.053099707863143775,-0.053099020593572854,0.0,0.0,0.0,-2.167271846993078,-3.4187792980322467,-3.2795460686659967,0.0014684768227773788,-0.0035907045352499465,-0.6724581007264474
10621,13.0,299.77617999999995,29139.644,0.0,-0.05310472235188235,-0.05310402280375981,0.0,0.0,0.0,-2.154080850566228,-3.417155666072007,-3.2864875411260672,-5.520208025702114e-05,-0.005788604095665745,-0.6643484522260874
10622,13.0,300.02966000000004,29209.39,0.0,-0.05310970385056324,-0.05310899210466957,0.0,0.0,0.0,-2.1637594155214277,-3.4200619713338365,-3.2951038146764264,-0.005354560683453994,-0.003034837252915117,-0.6688702733148564
10623,13.0,299.89158,29292.866,0.0,-0.05311471833930148,-0.05311399431485653,0.0,0.0,0.0,-2.172511059285148,-3.424793747975827,-3.3069949125499867,-0.0014100985195908888,0.004362661789561196,-0.6559264896474044
10624,13.0,299.85764,29277.982999999997,0.0,-0.05311969983798237,-0.053118996525043705,0.0,0.0,0.0,-2.1752268735281777,-3.4258918071091964,-3.2986571814521173,-0.0024762475702116075,0.003097488127798277,-0.6681160707354223
10625,13.0,300.1761,29182.903,0.0,-0.053124714326720834,-0.05312399873523066,0.0,0.0,0.0,-2.170735034509868,-3.4177900619596167,-3.282348819767607,-0.003678233638513397,0.0035961589618632565,-0.6665840061867193
10626,13.0,300.02035,29144.54,0.0,-0.05312972881545919,-0.053129000945417615,0.0,0.0,0.0,-2.1620171319744776,-3.419289064157557,-3.277906123379147,-0.0019090300629065983,-0.0008182637869988483,-0.6819223531529963
10627,13.0,299.72429,29240.224,0.0,-0.05313471031414008,-0.05313400315560479,0.0,0.0,0.0,-2.165824013925188,-3.4257933191994763,-3.296680735807057,-0.003068380086875537,0.0015707617859221186,-0.6697947931035994
10628,13.0,299.67241,29240.671000000002,0.0,-0.05313972480287854,-0.05313900536579175,0.0,0.0,0.0,-2.166854793251918,-3.424852921781667,-3.296726230736547,0.005511487691366485,-0.006844071767707294,-0.6741461247305424
10629,13.0,299.7915,29134.564,0.0,-0.05314470630155932,-0.053144007575978924,0.0,0.0,0.0,-2.149552129244278,-3.4197209113501765,-3.286906925342457,0.002155114973618288,-0.0006384352395311524,-0.6732772526372913
10630,13.0,299.96049,29133.855,0.0,-0.05314972079029778,-0.05314900978616599,0.0,0.0,0.0,-2.1587266022747276,-3.4185982302393763,-3.2786397164515466,0.00865900058455182,0.006592205150599994,-0.6790538522523973
10631,13.0,300.05019,29263.181,0.0,-0.053154702288978894,-0.05315401199635317,0.0,0.0,0.0,-2.1786836775693375,-3.4272372005919762,-3.289355444209107,0.0021118956012028682,0.010684630098740888,-0.6751503569046523
10632,13.0,300.04192,29336.681,0.0,-0.053159716777717136,-0.053159014206540345,0.0,0.0,0.0,-2.183857129929918,-3.434688945802407,-3.299072512668107,0.0002590595073146827,-0.002377503105566288,-0.6729576330257474
10633,13.0,299.97835,29306.607000000004,0.0,-0.053164698276398026,-0.0531640164167273,0.0,0.0,0.0,-2.167466694987308,-3.4360367710854267,-3.3049733772754766,-0.004248772376996186,-0.004089684511920435,-0.6725847468564463
10634,13.0,300.05008,29205.799,0.0,-0.0531697127651366,-0.05316901862691448,0.0,0.0,0.0,-2.159700335620828,-3.4255560160260567,-3.292577376877087,-0.00017010974635102484,-0.001987508816276848,-0.6716114289428874
10635,13.0,300.01399,29142.113999999998,0.0,-0.05317472725387484,-0.05317402083710143,0.0,0.0,0.0,-2.1507951844669577,-3.4210603266573667,-3.286619466289087,-0.004757453919399145,0.0056952043226479055,-0.6736252128541323
10636,13.0,300.03817000000004,29224.115,0.0,-0.05317970875255573,-0.05317899013801097,0.0,0.0,0.0,-2.1731497108231776,-3.4244260395145365,-3.2858254835107266,-0.004048591039539826,0.0008328099649044442,-0.6718182738183014
10637,13.0,300.02079,29268.343999999997,0.0,-0.053184723241294196,-0.05318399234819815,0.0,0.0,0.0,-2.177010497679208,-3.4288131084725073,-3.291022139298597,-0.0055258834421622344,0.005926198899620295,-0.6770263286697964
10638,13.0,299.95504,29196.462000000003,0.0,-0.053189704739975086,-0.053188994558385105,0.0,0.0,0.0,-2.1630693922033277,-3.427923981509757,-3.284002038630767,0.006173920817193545,0.0009604311049446701,-0.6794868545501314
10639,13.0,299.86465,29183.776,0.0,-0.05319471922871344,-0.05319399676857228,0.0,0.0,0.0,-2.155983024978958,-3.422990365447847,-3.292165896011477,-0.0014764046942097985,-0.002086242641796118,-0.6736135098154774
10640,13.0,299.96932999999996,29332.897,0.0,-0.05319970072739433,-0.05319899897875924,0.0,0.0,0.0,-2.180475306396158,-3.433726358207407,-3.3022666822833466,0.005977772519110214,-0.01176053654517459,-0.6653764045850383
10641,13.0,299.88257999999996,29375.196,0.0,-0.05320471521613279,-0.053204001188946304,0.0,0.0,0.0,-2.174562485437608,-3.4416991166192568,-3.313064483299007,-0.0009135126705216809,-0.0069370027099038625,-0.6691096637834824
10642,13.0,299.73605,29305.52,0.0,-0.053209729704871145,-0.05320900339913348,0.0,0.0,0.0,-2.1751027503909275,-3.436484526304617,-3.296559145795057,0.01013405228590309,0.0026132273313554575,-0.6716443697036384
10643,13.0,299.63477,29244.822,0.0,-0.053214711203552034,-0.053214005609320436,0.0,0.0,0.0,-2.1677480745400777,-3.4241241923097467,-3.2978232766198174,0.0022654962103620677,0.004901213742262135,-0.6735020624369784
10644,13.0,299.93666,29228.932999999997,0.0,-0.0532197256922905,-0.05321900781950761,0.0,0.0,0.0,-2.167866928776808,-3.425777917797957,-3.291221141618237,-0.0009148075129569723,0.0011248747972664988,-0.6739435152405463
10645,13.0,300.05191,29252.894,0.0,-0.05322470719097139,-0.05322401002969479,0.0,0.0,0.0,-2.160261777501238,-3.4312203880600864,-3.3006670643504767,-0.003308894553837467,0.002030441236263948,-0.6762513139333084
10646,13.0,300.21074,29252.433999999997,0.0,-0.05322972167970974,-0.053229012239881746,0.0,0.0,0.0,-2.162312697028648,-3.4289122043322866,-3.300784702687087,0.002392004538347468,-0.0004937610091154175,-0.6743544185535993
10647,13.0,300.15314,29211.317000000003,0.0,-0.05323470317839074,-0.05323401445006892,0.0,0.0,0.0,-2.156236438828968,-3.4305976445486266,-3.2926766753868866,-0.002212170681449248,-0.0015752608190161387,-0.6769647027987143
10648,13.0,299.90091,29240.84,0.0,-0.053239717667129094,-0.05323901666025588,0.0,0.0,0.0,-2.172826889341318,-3.4297294918629464,-3.285928733695917,0.00046263307438332963,-0.007958581117775804,-0.6754890661480804
10649,13.0,299.88435,29385.372000000003,0.0,-0.05324469916580998,-0.053244018870443055,0.0,0.0,0.0,-2.185053271672968,-3.443218485144207,-3.304147679768987,0.0013049001584336188,0.0070909978786520035,-0.6811063220524604
10650,13.0,299.97557,29398.213,0.0,-0.05324971365454845,-0.05324902108063023,0.0,0.0,0.0,-2.184908984858728,-3.4450407141240467,-3.306372878313597,-0.0022960493485774274,0.004096286646922016,-0.6773567393949054
10651,13.0,299.87982999999997,29252.447999999997,0.0,-0.0532547281432868,-0.05325399038153955,0.0,0.0,0.0,-2.166150381782398,-3.428270006418907,-3.297593471497137,0.004010050248136146,0.0005932538400195954,-0.6757507582514074
10652,13.0,299.85232,29221.076,0.0,-0.05325970964196769,-0.05325899259172673,0.0,0.0,0.0,-2.162763289348118,-3.4261356964082674,-3.2935785693008968,0.0019644790600539877,-0.007566238418729593,-0.6694464985142253
10653,13.0,299.78673,29292.944,0.0,-0.053264724130706154,-0.053263994801913905,0.0,0.0,0.0,-2.172790817637758,-3.4316856725060068,-3.299847041044547,0.007627072029558403,-0.0035669353091041067,-0.6733067787452054
10654,13.0,299.85418,29310.042999999998,0.0,-0.05326970562938704,-0.05326899701210086,0.0,0.0,0.0,-2.176800248283458,-3.433028228888507,-3.2996927230543167,0.0028304966251232674,-0.0023831613980997176,-0.6786823238382304
10655,13.0,300.19924,29305.606,0.0,-0.053274720118125396,-0.05327399922228804,0.0,0.0,0.0,-2.170612127272738,-3.4390222111800672,-3.2985382258903764,-0.004039501172892725,0.0019671706576196283,-0.6796375552375044
10656,13.0,300.27398999999997,29309.498,0.0,-0.053279701616806285,-0.053279001432475104,0.0,0.0,0.0,-2.167932384733268,-3.4357416113312964,-3.305681436445357,-0.004871375654642345,0.004101806225516756,-0.6786496971850104
10657,13.0,300.06476000000004,29316.815,0.0,-0.05328471610554475,-0.05328400364266206,0.0,0.0,0.0,-2.1699160244540376,-3.4381928659732166,-3.3034707273771766,-0.007798153533417832,0.011032159684289389,-0.6796986339535324
10658,13.0,299.9842,29372.347,0.0,-0.05328969760422564,-0.053289005852849236,0.0,0.0,0.0,-2.1777050806227582,-3.443687315965476,-3.307067562582157,-0.005072061185348465,0.003519112842809397,-0.6739572549119024
10659,13.0,299.90495,29408.298,0.0,-0.05329471209296399,-0.05329400806303619,0.0,0.0,0.0,-2.185649468031808,-3.4439522808666267,-3.3097866192255068,-0.0031522404141769065,-0.0050331713292853355,-0.6697857954427113
10660,13.0,299.89825,29316.539,0.0,-0.053299726581702456,-0.05329901027322337,0.0,0.0,0.0,-2.177617231839088,-3.4401809639944267,-3.293697626187647,0.0012456728529883388,-0.004967550010409015,-0.6729089868884464
10661,13.0,299.80657,29290.449,0.0,-0.053304708080383345,-0.053304012483410323,0.0,0.0,0.0,-2.169820069669568,-3.435203372878177,-3.298541670940717,0.005547285006799405,-0.003198626801104887,-0.6791383167807333
10662,13.0,299.89747,29383.446,0.0,-0.05330972256912159,-0.0533090146935975,0.0,0.0,0.0,-2.178281113304608,-3.4446373392592364,-3.3089154267895267,0.0064307895460695135,-0.0008271174650476384,-0.6732710312816774
10663,13.0,300.08169,29376.99,0.0,-0.0533147040678027,-0.05331401690378468,0.0,0.0,0.0,-2.1747298743541275,-3.4397151729234565,-3.3154264706071173,0.003062629892558037,0.0008599477410077341,-0.6800329659565284
10664,13.0,300.19768,29306.203999999998,0.0,-0.05331971855654105,-0.05331901911397163,0.0,0.0,0.0,-2.165939220461558,-3.436135968270217,-3.306279152679347,0.0034882043577839665,0.0007999702555859172,-0.6779100854070164
10665,13.0,299.9974,29296.45,0.0,-0.05332470005522194,-0.053323988414881174,0.0,0.0,0.0,-2.171842010244118,-3.4343271141916967,-3.299220244532687,0.005009256600425135,0.008167111332081133,-0.6850510566792753
10666,13.0,299.94549,29345.102000000003,0.0,-0.053329714543960405,-0.05332899062506835,0.0,0.0,0.0,-2.177176062745548,-3.438509202654436,-3.3044930967280766,0.000996709754705094,-0.00019198186433463482,-0.6804195816646843
10667,13.0,299.91937,29346.07,0.0,-0.05333472903269876,-0.053333992835255306,0.0,0.0,0.0,-2.170914683752598,-3.441913013715367,-3.307644912489137,-0.0041336156925311065,-0.005621882809636635,-0.6845247340473313
10668,13.0,300.03700000000003,29411.935,0.0,-0.05333971053137965,-0.05333899504544248,0.0,0.0,0.0,-2.182106537732148,-3.448844353674436,-3.309542932576457,-0.01070289494504349,0.0014294394374996886,-0.6761440715427244
10669,13.0,299.93786,29403.838,0.0,-0.05334472502011811,-0.05334399725562955,0.0,0.0,0.0,-2.1796502168397276,-3.4446968170401067,-3.3136856056103072,-0.0048061143435265555,0.0045923424851289155,-0.6754987629515373
10670,13.0,300.03913,29358.502,0.0,-0.053349706518799,-0.05334899946581673,0.0,0.0,0.0,-2.179379375087998,-3.4422837619269573,-3.3025884905151073,-0.000982592597024339,0.002911065510799797,-0.6715050376823873
10671,13.0,300.03889,29391.799,0.0,-0.053354721007537353,-0.05335400167600368,0.0,0.0,0.0,-2.182037434075328,-3.444000106271347,-3.308335442432287,-0.0022100717338670983,-0.005627737774014474,-0.6703635709147333
10672,13.0,300.06156,29452.289,0.0,-0.05335970250621824,-0.05335900388619064,0.0,0.0,0.0,-2.187090107023988,-3.447349607126917,-3.3183209208427766,0.008426308104386862,-0.007905576079869612,-0.6754729048089854
10673,13.0,300.05055,29399.525,0.0,-0.05336471699495671,-0.053364006096377814,0.0,0.0,0.0,-2.1720554007151778,-3.4480667855476965,-3.316599104947847,0.008043442941476013,-0.006296557009921795,-0.6844684682692783
10674,13.0,299.88701000000003,29335.914,0.0,-0.053369698493637596,-0.05336900830656477,0.0,0.0,0.0,-2.1682390955385378,-3.438703746673637,-3.3104423946902264,0.008031946504516402,-0.0014220072480161886,-0.6816649673625944
10675,13.0,299.66556,29381.874,0.0,-0.05337471298237584,-0.053374010516751946,0.0,0.0,0.0,-2.173613982018998,-3.4401784308691763,-3.317563516393027,0.002068083072178908,0.0008754071004334542,-0.6796261257763764
10676,13.0,299.75708,29426.773999999998,0.0,-0.05337972747111441,-0.05337901272693912,0.0,0.0,0.0,-2.184589608427208,-3.4438616963076867,-3.3165532047183173,-0.00017141734560507485,0.013132469074573789,-0.6781814033862933
10677,13.0,299.7111,29440.661,0.0,-0.0533847089697953,-0.05338401493712608,0.0,0.0,0.0,-2.185502648092318,-3.449199700484507,-3.3145232594679768,-0.0006501465057769644,0.00867085966372222,-0.6761295719337933
10678,13.0,299.72671,29445.941000000003,0.0,-0.05338972345853377,-0.053389017147313256,0.0,0.0,0.0,-2.1854222973593878,-3.4497428025381067,-3.315665597630717,-0.005800623065701925,0.002124182474565488,-0.6758242188836573
10679,13.0,300.1222,29451.191000000003,0.0,-0.053394704957214656,-0.0533939864482228,0.0,0.0,0.0,-2.189624549499118,-3.447497744291537,-3.315304171320047,-0.003763639273542277,-0.01108558228256179,-0.6698029295019023
10680,13.0,300.03968,29421.963,0.0,-0.05339971944595301,-0.05339898865840975,0.0,0.0,0.0,-2.179479281547858,-3.4491649460060767,-3.314897858029947,-0.0009663751340063001,-0.0051013572854897654,-0.6774679030633763
10681,13.0,300.02102,29450.816000000003,0.0,-0.0534047009446339,-0.05340399086859693,0.0,0.0,0.0,-2.180682820016638,-3.4567364573783266,-3.3148932984044968,0.0017288287001971082,0.00010122839558971481,-0.6816078909844614
10682,13.0,300.2337,29444.944,0.0,-0.05340971543337236,-0.053408993078783995,0.0,0.0,0.0,-2.1915801221921183,-3.4494427791834967,-3.309504935697707,0.0054971813092295554,0.0037370244358155965,-0.6817242627584463
10683,13.0,300.07955,29355.105,0.0,-0.05341469693205325,-0.05341399528897117,0.0,0.0,0.0,-2.179894308788818,-3.4397205431489866,-3.3036040710903367,0.005984414373515714,0.003668341683087136,-0.6817199361805193
10684,13.0,300.05438,29365.387000000002,0.0,-0.053419711420791494,-0.05341899749915835,0.0,0.0,0.0,-2.171036577739628,-3.448195164335367,-3.3071127535366167,0.004895488271247076,0.006640732028364223,-0.6881619574012973
10685,13.0,300.01324,29469.208,0.0,-0.05342472590953007,-0.053423999709345305,0.0,0.0,0.0,-2.183485571118248,-3.450041002042537,-3.3243768127154465,0.006241317046270034,0.00012492293608393389,-0.6834440014906714
10686,13.0,299.78227000000004,29472.148999999998,0.0,-0.05342970740821096,-0.05342900191953248,0.0,0.0,0.0,-2.1787654468524082,-3.4571937371484567,-3.3228379897885767,-0.004917109812480956,0.0014649143367507886,-0.6831941542810133
10687,13.0,299.84294,29457.36,0.0,-0.0534347218969492,-0.05343400412971944,0.0,0.0,0.0,-2.184382196131738,-3.4519308148040464,-3.317988980110017,0.002298759387294888,-0.005135930392151865,-0.6746725081574924
10688,13.0,300.08689,29487.395,0.0,-0.05343970339563009,-0.05343900633990639,0.0,0.0,0.0,-2.194858290240648,-3.450878047950147,-3.317695441556047,-0.0026268181562717676,0.003001458869445927,-0.6708765895728643
10689,13.0,299.85539,29484.336,0.0,-0.053444717884368664,-0.05344400855009357,0.0,0.0,0.0,-2.188231127961598,-3.4569667691260566,-3.3173041243674266,0.0014495288432573583,0.0009244561059742141,-0.6763841510214184
10690,13.0,300.05206,29494.901,0.0,-0.053449699383049554,-0.053449010760280524,0.0,0.0,0.0,-2.1885932635473377,-3.4553795128444067,-3.3217406399302765,-0.004436943357042216,0.0017122948903653486,-0.6735084155151053
10691,13.0,300.20358,29504.41,0.0,-0.05345471387178802,-0.0534540129704677,0.0,0.0,0.0,-2.187164783556358,-3.4558007209109767,-3.325638410414957,0.0006546182216482884,-0.005728554639089324,-0.6808051030627323
10692,13.0,300.16602,29466.422000000002,0.0,-0.05345972836052626,-0.05345901518065477,0.0,0.0,0.0,-2.1818991254366775,-3.4515326075147468,-3.3236247784912267,-0.0015574269079810686,-0.0002232337803489588,-0.6821153570320443
10693,13.0,300.28063,29470.197,0.0,-0.05346470985920726,-0.05346398448156431,0.0,0.0,0.0,-2.181413575988758,-3.4574343840472066,-3.3193560571449368,0.004704542303152175,0.0013510951424177086,-0.6888461747963243
10694,13.0,300.3036,29517.25,0.0,-0.053469724347945724,-0.053468986691751375,0.0,0.0,0.0,-2.1943516651906476,-3.4583229030598965,-3.319832588666967,-0.0006182913107856013,0.0034797941793039467,-0.6816532643239394
10695,13.0,299.86127999999997,29512.87,0.0,-0.05347470584662661,-0.05347398890193844,0.0,0.0,0.0,-2.192959459553248,-3.455614080242557,-3.3226021051652967,0.0026053204342001072,0.0013016693091647588,-0.6802517570506214
10696,13.0,299.95707000000004,29498.876,0.0,-0.053479720335364855,-0.05347899111212562,0.0,0.0,0.0,-2.185362819578518,-3.4560104636816766,-3.325548332481067,-0.0016481952704892082,0.005523638890540715,-0.6774954432010943
10697,13.0,299.96092999999996,29493.725,0.0,-0.053484701834045745,-0.053483993322312795,0.0,0.0,0.0,-2.1814440748167683,-3.4568048517600767,-3.3271072177599166,0.005101147036094015,0.00021021373947898082,-0.6813826961497363
10698,13.0,299.90234,29496.525,0.0,-0.05348971632278432,-0.05348899553249975,0.0,0.0,0.0,-2.178023747779208,-3.456025054483117,-3.332158269508417,-0.0006156340421333494,-0.002036797151491228,-0.6738011536014964
10699,13.0,300.12892999999997,29492.156000000003,0.0,-0.05349469782146521,-0.05349399774268693,0.0,0.0,0.0,-2.187218485811658,-3.4580818508611073,-3.319578668191907,-0.0007364459591165574,-0.01016476389643409,-0.6821918371495924
10700,13.0,300.01342,29504.699,0.0,-0.05349971231020345,-0.05349899995287388,0.0,0.0,0.0,-2.196151805318308,-3.4551783826995566,-3.3173614743230866,-0.002180533770926928,-0.0013304201794272486,-0.6764500122779183
10701,13.0,300.10407999999995,29507.641,0.0,-0.053504726798941915,-0.05350400216306106,0.0,0.0,0.0,-2.194584814038658,-3.456854602339986,-3.318146439175557,-0.004721321218183126,0.00093223478646191,-0.6811104662453693
10702,13.0,300.36363,29532.226000000002,0.0,-0.053509708297622915,-0.053509004373248015,0.0,0.0,0.0,-2.187083216923308,-3.4664807822650165,-3.323495285128447,-0.006723637063471313,0.002101907488342118,-0.6841372976065944
10703,13.0,300.14105,29532.666,0.0,-0.05351472278636116,-0.05351400658343508,0.0,0.0,0.0,-2.185343466501608,-3.4620266361504264,-3.329822930677937,-0.00810497174319843,0.00037855342909781463,-0.6881578841358954
10704,13.0,299.93356,29551.944,0.0,-0.05351970428504227,-0.05351900879362226,0.0,0.0,0.0,-2.190674276602718,-3.463779558823427,-3.328599127207157,-0.0005578296336709985,0.0035300392252627464,-0.6837731760506583
10705,13.0,300.22949,29545.462000000003,0.0,-0.05352471877378051,-0.05352401100380921,0.0,0.0,0.0,-2.198136356964168,-3.462835817680287,-3.320110523169397,0.004033878749412836,-0.005695683488620194,-0.6824293429730323
10706,13.0,300.11111,29484.578999999998,0.0,-0.0535297002724614,-0.05352901321399639,0.0,0.0,0.0,-2.195421555971238,-3.4533038700145564,-3.313850258751557,0.008255199445424752,-0.0031807577302913467,-0.6765566163209393
10707,13.0,299.98546,29514.808999999997,0.0,-0.053534714761199975,-0.05353401542418357,0.0,0.0,0.0,-2.187672827156498,-3.4595280627288365,-3.3245639600089167,0.0037184941179867963,-0.003349817192251217,-0.6750070529430093
10708,13.0,299.81421,29556.505,0.0,-0.053539696259880865,-0.053538984725092886,0.0,0.0,0.0,-2.187740208288148,-3.4594059660917864,-3.337293421015217,0.005285514984539714,0.0036064795220818163,-0.6779072787042394
10709,13.0,299.95047,29568.298,0.0,-0.053544710748619107,-0.053543986935280063,0.0,0.0,0.0,-2.1828772157582077,-3.464753697469567,-3.3403932570461468,-0.006478888224341483,0.005072286937470746,-0.6818409790374654
10710,13.0,300.15096,29581.39,0.0,-0.05354972523735768,-0.05354898914546724,0.0,0.0,0.0,-2.190524518237938,-3.465837773751557,-3.335641620702197,-0.005516661853002135,-0.0034788101108068265,-0.6808633244134783
10711,13.0,300.12574,29553.976000000002,0.0,-0.05355470673603857,-0.053553991355654196,0.0,0.0,0.0,-2.1916086958449377,-3.464766971045876,-3.3272951756534668,-0.007582722376656432,-0.008383107983723343,-0.6799428170951314
10712,13.0,300.18127000000004,29542.596,0.0,-0.05355972122477681,-0.05355899356584137,0.0,0.0,0.0,-2.1938549699916274,-3.468164601281197,-3.318192035430057,-0.004502439336881166,-0.003633744562397666,-0.6872465973934584
10713,13.0,300.07948,29581.53,0.0,-0.0535647027234577,-0.05356399577602833,0.0,0.0,0.0,-2.194364837441948,-3.468218911486557,-3.329462720267387,0.0044781198146060155,-0.006308316993232414,-0.6803283587581813
10714,13.0,300.06422000000003,29560.84,0.0,-0.053569717212196166,-0.053568997986215505,0.0,0.0,0.0,-2.191471907081438,-3.464739309318147,-3.329546009425607,0.0008454884898282172,0.0033214410218757066,-0.6847723115767653
10715,13.0,299.92106,29497.783,0.0,-0.053574698710877056,-0.05357400019640268,0.0,0.0,0.0,-2.175883966218028,-3.4625150226986263,-3.328190382116817,0.005615638757220395,0.005632499441534416,-0.6845765820549483
10716,13.0,299.7749,29537.536,0.0,-0.05357971319961541,-0.05357900240658964,0.0,0.0,0.0,-2.193886279419718,-3.4605059504003473,-3.3242810605809967,0.005013940652987416,0.007517081603378193,-0.6860038562783094
10717,13.0,299.79008,29646.716,0.0,-0.05358472768835387,-0.053584004616776815,0.0,0.0,0.0,-2.211898117172348,-3.4641416944091667,-3.335821472594947,-0.0012984637911483989,-0.0002568613929452457,-0.6795796479942894
10718,13.0,299.94916,29605.61,0.0,-0.05358970918703476,-0.05358900682696388,0.0,0.0,0.0,-2.203937213786668,-3.4668762537790467,-3.328552619027567,0.0035662265406591564,-0.006565802082144213,-0.6815974950384354
10719,13.0,300.18711,29537.961,0.0,-0.053594723675773115,-0.053594009037150836,0.0,0.0,0.0,-2.185221977814618,-3.460262567726327,-3.333317934247867,0.0013760709467826287,-0.003882699504017606,-0.6779478593707443
10720,13.0,300.11421,29592.767000000003,0.0,-0.053599705174454226,-0.05359901124733801,0.0,0.0,0.0,-2.1871490781798077,-3.4707025901316766,-3.337610669621527,-0.0017931022951154184,0.00027744037075373273,-0.6833007177940303
10721,13.0,299.9051,29650.827,0.0,-0.05360471966319247,-0.05360401345752497,0.0,0.0,0.0,-2.1979839641491274,-3.4734948034322466,-3.341632259268427,-0.0034179989941302367,0.002188626194175588,-0.6854406412102243
10722,13.0,299.92056,29626.321,0.0,-0.05360970116187336,-0.05360898275843451,0.0,0.0,0.0,-2.200775670824648,-3.4764214750210862,-3.3284645675938767,-0.0032729957107445274,0.006087931043482014,-0.6867310152125743
10723,13.0,300.03716000000003,29605.194,0.0,-0.05361471565061182,-0.053613984968621686,0.0,0.0,0.0,-2.198375382662758,-3.472520056836047,-3.3283441934819966,0.005102842811461375,0.006049988272287354,-0.6811598520552434
10724,13.0,300.14126,29598.26,0.0,-0.05361969714929282,-0.05361898717880864,0.0,0.0,0.0,-2.195236941803018,-3.4702994179168867,-3.331595713052897,0.001059784624092599,-0.0013572423281243888,-0.6832870895801854
10725,13.0,300.21427,29601.351000000002,0.0,-0.053624711638031064,-0.05362398938899582,0.0,0.0,0.0,-2.190636482373988,-3.4736154815191562,-3.3338195943723767,0.002109623793153658,-0.0038929199551262857,-0.6788086558606984
10726,13.0,300.31859,29651.242000000002,0.0,-0.05362972612676953,-0.053628991599182774,0.0,0.0,0.0,-2.1960960765628084,-3.4705022705869064,-3.346638829337537,-0.0016995300669305584,-0.004349158509453526,-0.6808403844312144
10727,13.0,300.28067000000004,29663.531000000003,0.0,-0.05363470762545042,-0.05363399380936995,0.0,0.0,0.0,-2.1976865752447776,-3.4732809063361367,-3.3460051427249966,-0.0020520325826448482,0.002973115731023677,-0.6845192017017854
10728,13.0,300.13795,29601.01,0.0,-0.05363972211418877,-0.05363899601955713,0.0,0.0,0.0,-2.191970831430678,-3.474505115106957,-3.331492057567667,0.002530314494222598,0.002900012877383987,-0.6894412261825513
10729,13.0,299.87561,29611.494,0.0,-0.05364470361286966,-0.05364399822974408,0.0,0.0,0.0,-2.200812249153258,-3.4677403534643263,-3.332602275702237,0.002346389741370638,0.0005845176685849025,-0.6880594975511853
10730,13.0,300.05556,29703.514,0.0,-0.053649718101608124,-0.05364900043993126,0.0,0.0,0.0,-2.2065479539943276,-3.4817606950980267,-3.3408179101630573,0.004071548652355566,-0.0033217721520083865,-0.6878446378674803
10731,13.0,299.83056,29658.425,0.0,-0.05365469960028901,-0.053654002650118326,0.0,0.0,0.0,-2.1983361698838877,-3.4743065180873574,-3.3427778398314865,0.0068027556842797125,-0.002851119101758547,-0.6843448720220804
10732,13.0,299.94731,29626.331000000002,0.0,-0.053659714089027366,-0.053659004860305504,0.0,0.0,0.0,-2.1889523593827778,-3.4764608904499767,-3.340251706007177,-0.00048137886997839545,-0.0007315657717324203,-0.6818499057708464
10733,13.0,299.9971,29667.938,0.0,-0.05366469558770848,-0.05366400707049246,0.0,0.0,0.0,-2.2003462554322684,-3.478049666606777,-3.339916421549087,-0.005448510752601145,0.0013607241594430185,-0.6835207957157503
10734,13.0,299.86924,29638.486,0.0,-0.05366971007644672,-0.053669009280679414,0.0,0.0,0.0,-2.200095273382498,-3.471716752156767,-3.337547746790317,-0.008391184397620422,0.0028417372164326275,-0.6792673339159664
10735,13.0,299.75936,29629.118,0.0,-0.05367472456518518,-0.05367401149086659,0.0,0.0,0.0,-2.198757377950458,-3.474409666947537,-3.333345190675557,-0.0073124460184822325,0.00882299126288644,-0.6840510294930804
10736,13.0,300.02509,29647.2,0.0,-0.05367970606386607,-0.053678980791776354,0.0,0.0,0.0,-2.199058617205188,-3.4708131357175867,-3.342136756493217,0.004440064977950295,0.00035154519701980963,-0.6814111684775463
10737,13.0,299.99857000000003,29610.278,0.0,-0.05368472055260465,-0.05368398300196331,0.0,0.0,0.0,-2.193614019117848,-3.471005349261557,-3.3361657749789266,0.004887867515919965,-0.007262929499345332,-0.6862715873522323
10738,13.0,300.01664,29635.377,0.0,-0.053689702051285315,-0.053688985212150264,0.0,0.0,0.0,-2.1938801999191178,-3.476935699446837,-3.337598814595357,0.013562088130223885,-0.005580013289004434,-0.6929547519643093
10739,13.0,300.15395,29737.212000000003,0.0,-0.05369471654002378,-0.05369398742233722,0.0,0.0,0.0,-2.209975171132568,-3.4800553951797264,-3.3493394448290665,0.0015931281673045084,0.0007062417234406312,-0.6885916261062023
10740,13.0,300.34317999999996,29743.872000000003,0.0,-0.05369969803870467,-0.053698989632524396,0.0,0.0,0.0,-2.2096388734243777,-3.4880940148480764,-3.3436613939186866,0.0005068833071854875,0.006028294182346313,-0.6917368861391153
10741,13.0,300.16809,29691.965,0.0,-0.05370471252744302,-0.053703991842711574,0.0,0.0,0.0,-2.1998628338095583,-3.484284295797087,-3.3414688220272972,-0.008087877707386382,0.0037224208674243365,-0.6844378478512563
10742,13.0,300.24921,29692.298,0.0,-0.053709727016181485,-0.05370899405289853,0.0,0.0,0.0,-2.204649528606968,-3.4768460268129866,-3.3442215185739674,-0.0005316874467184655,0.0004446259077136605,-0.6842431214470384
10743,13.0,300.02505,29706.677000000003,0.0,-0.053714708514862375,-0.053713996263085706,0.0,0.0,0.0,-2.197789926754978,-3.4855396113459767,-3.3467584941743467,-0.007327818238399353,-0.003475522215557337,-0.6770284970250104
10744,13.0,299.91303999999997,29663.205,0.0,-0.05371972300360073,-0.05371899847327277,0.0,0.0,0.0,-2.195614174815248,-3.4745335874347667,-3.3467256648711072,0.0022372272418471383,-0.007417731620473113,-0.6840518806231644
10745,13.0,299.83717,29676.475,0.0,-0.05372470450228162,-0.05372400068345995,0.0,0.0,0.0,-2.196414743719258,-3.4815977644819465,-3.342894768893027,-0.005432421354263244,-0.005638382979565074,-0.6821221863377184
10746,13.0,300.06949,29679.757999999998,0.0,-0.05372971899102008,-0.053729002893647126,0.0,0.0,0.0,-2.199089723983258,-3.4827619888468466,-3.340053514287617,0.002758181269461297,-0.0006509769250289204,-0.6901398519940003
10747,13.0,299.88976,29656.145,0.0,-0.05373470048970097,-0.05373400510383408,0.0,0.0,0.0,-2.1919709327556878,-3.478014608153317,-3.344742126475347,-0.004970146565115276,0.010902749408017592,-0.6863079123683173
10748,13.0,300.01842999999997,29729.197999999997,0.0,-0.053739714978439435,-0.05373900731402126,0.0,0.0,0.0,-2.206091282174258,-3.4861013572014166,-3.344741113225247,-0.0025621033922599177,0.005396894576607025,-0.6921662103389863
10749,13.0,300.23652999999996,29811.415,0.0,-0.053744696477120324,-0.053744009524208214,0.0,0.0,0.0,-2.209202365281298,-3.4900944745205065,-3.3626288278406262,-0.004789993737085576,-0.004344080809227396,-0.6817391474024154
10750,13.0,300.15368,29724.696,0.0,-0.0537497109658589,-0.05374901173439517,0.0,0.0,0.0,-2.2083508298972583,-3.483514023071067,-3.343700404047537,0.004338305992932465,-0.011564701645347189,-0.6876082871491543
10751,13.0,299.89766000000003,29683.145,0.0,-0.05375472545459714,-0.05375398103530493,0.0,0.0,0.0,-2.2031236752813776,-3.478199526296567,-3.3416114876413765,0.008850482561949622,-0.008983732144175331,-0.6814872331625533
10752,13.0,299.86136,29734.5,0.0,-0.05375970695327803,-0.05375898324549189,0.0,0.0,0.0,-2.212492996306058,-3.481970741843757,-3.3440817913851766,0.004825334988648486,-0.0027214303843592674,-0.6859787074108273
10753,13.0,300.00364,29736.982999999997,0.0,-0.053764721442016494,-0.05376398545567884,0.0,0.0,0.0,-2.2066141192258577,-3.4852103050634766,-3.347475773920136,-0.00023307968355817376,0.0026423945460840375,-0.6821625035591973
10754,13.0,299.77088,29697.052000000003,0.0,-0.05376970294069727,-0.05376898766586602,0.0,0.0,0.0,-2.205755389766108,-3.480541552577707,-3.3408653302677367,-0.0015546206105041085,0.00046141694121580655,-0.6879443720748233
10755,13.0,299.82322,29710.35,0.0,-0.05377471742943574,-0.053773989876053085,0.0,0.0,0.0,-2.1970676820836976,-3.4802824645271366,-3.3538544872746674,-0.001203090814885819,0.00987852439088445,-0.6853430854905963
10756,13.0,299.96565,29699.468999999997,0.0,-0.053779698928116626,-0.05377899208624015,0.0,0.0,0.0,-2.198217112997138,-3.482092737155797,-3.3475871301061266,-0.0049391373630299044,-0.002187251213789888,-0.6880720415874233
10757,13.0,300.11139,29745.732999999997,0.0,-0.05378471341685498,-0.05378399429642722,0.0,0.0,0.0,-2.201466403417818,-3.487858130224797,-3.3526356487293762,-0.005361899248628255,-0.007012721167351693,-0.6873707813257144
10758,13.0,300.14937000000003,29839.827,0.0,-0.05378969491553587,-0.053788996506614395,0.0,0.0,0.0,-2.212096916841968,-3.5007443410215666,-3.357720847006247,-0.00930410297934347,-0.006724837764839812,-0.6916664956546684
10759,13.0,300.07499,29773.102000000003,0.0,-0.05379470940427433,-0.05379399871680157,0.0,0.0,0.0,-2.207646215777718,-3.489254388862597,-3.3533789690027365,0.0059752198381332845,0.0019651939079995385,-0.6869114243928794
10760,13.0,299.88851,29716.106,0.0,-0.053799723893012574,-0.05379900092698853,0.0,0.0,0.0,-2.200790261626088,-3.485860608977657,-3.346303342229427,0.0054147887760230455,0.006253687715415925,-0.6861285063056114
10761,13.0,299.99883,29782.597999999998,0.0,-0.053804705391693575,-0.053804003137175704,0.0,0.0,0.0,-2.209286769014628,-3.491361138470517,-3.352518213042787,0.003875464796978596,0.003699119256199647,-0.6855817565516514
10762,13.0,300.0455,29801.717,0.0,-0.05380971988043204,-0.05380900534736266,0.0,0.0,0.0,-2.213552349285608,-3.491379579622336,-3.354045788893547,0.0047793948370645455,-0.004810262082810906,-0.6825663546515544
10763,13.0,299.92049,29744.001,0.0,-0.05381470137911315,-0.05381400755754984,0.0,0.0,0.0,-2.205256465416868,-3.4890683561442364,-3.3471088760589263,0.0013126703681504788,0.00043498517751719456,-0.6886303930550284
10764,13.0,299.88932,29749.153,0.0,-0.05381971586785139,-0.05381900976773679,0.0,0.0,0.0,-2.202352895930308,-3.4889411932566867,-3.351705485137577,0.002977498341681207,-0.004161022689185966,-0.6890157016705553
10765,13.0,300.04632000000004,29799.426,0.0,-0.05382469736653228,-0.05382397906864633,0.0,0.0,0.0,-2.212973175528448,-3.491504108059626,-3.353804128744697,-0.00881776603344575,0.001961364531896608,-0.6917682056997063
10766,13.0,300.4079,29812.987999999998,0.0,-0.053829711855270745,-0.05382898127883351,0.0,0.0,0.0,-2.208092147146728,-3.496912127818357,-3.357399646724547,-0.00877188059736721,0.005712587742688515,-0.6887200048938724
10767,13.0,300.24672999999996,29794.946,0.0,-0.0538347263440091,-0.05383398348902069,0.0,0.0,0.0,-2.208452357557278,-3.4920578492392766,-3.356409397401817,-0.0025786480438677478,0.01095498751692309,-0.6861659053668023
10768,13.0,300.17005,29809.626,0.0,-0.05383970784268999,-0.05383898569920764,0.0,0.0,0.0,-2.213388709394458,-3.4913911306734766,-3.356602117570837,0.0013191825265431788,0.0072076343135631235,-0.6851027223018743
10769,13.0,300.21061000000003,29798.709,0.0,-0.05384472233142845,-0.05384398790939471,0.0,0.0,0.0,-2.212786433535018,-3.4902896264897665,-3.3549875035364867,0.002003698526374648,-0.003486886018078857,-0.6817252658760453
10770,13.0,299.95139,29780.882,0.0,-0.05384970383010923,-0.05384899011958166,0.0,0.0,0.0,-2.205406122456638,-3.4970180124538066,-3.3502204657910166,0.0026257294190393174,-0.004829785993687765,-0.6929020325616064
10771,13.0,299.83089,29821.586,0.0,-0.053854718318847694,-0.05385399232976884,0.0,0.0,0.0,-2.212984827904598,-3.492728620805476,-3.3593040502874967,0.0012258291603799189,0.0016299121856848085,-0.6829897918683443
10772,13.0,299.93552999999997,29815.027000000002,0.0,-0.053859699817528583,-0.05385899453995602,0.0,0.0,0.0,-2.2154997146527977,-3.493954653426477,-3.3535693586965265,0.006737092822149294,0.0005959986332154854,-0.6884601163757234
10773,13.0,299.84758,29781.343999999997,0.0,-0.053864714306266825,-0.05386399675014297,0.0,0.0,0.0,-2.211130276246568,-3.4928418008416466,-3.3488129600771073,-0.0038264885427950163,-0.0018771602061862882,-0.6883792590177433
10774,13.0,299.77429,29805.915,0.0,-0.053869695804947715,-0.05386899896033015,0.0,0.0,0.0,-2.2104847346078578,-3.4958714186406468,-3.3538978543789466,0.004180086787167446,0.0012785565677587087,-0.6965514047842714
10775,13.0,300.0191,29818.139,0.0,-0.05387471029368629,-0.053874001170517105,0.0,0.0,0.0,-2.2066446180538684,-3.4921664696499968,-3.3651586093652965,-0.004445568547193456,-0.004232270079242536,-0.6871020775316954
10776,13.0,300.1495,29806.257,0.0,-0.05387972478242453,-0.05387900338070428,0.0,0.0,0.0,-2.202834696352858,-3.502274449997577,-3.3552489220622865,0.0011855628040559388,-0.007520284790919323,-0.6955470206226463
10777,13.0,300.08601,29825.728,0.0,-0.05388470628110564,-0.05388400559089146,0.0,0.0,0.0,-2.206647961779198,-3.495240163828347,-3.364388336639277,-0.003778484400757376,-0.01375627447213859,-0.6876495973557313
10778,13.0,300.0788,29833.756,0.0,-0.053889720769843996,-0.053889007801078415,0.0,0.0,0.0,-2.2105234407616776,-3.4955687608357766,-3.362624673515217,0.004344809437374306,0.0007076015658698373,-0.6869604150352143
10779,13.0,299.97848999999997,29842.645,0.0,-0.053894702268525,-0.053893977101987955,0.0,0.0,0.0,-2.208884204749898,-3.4968120187084764,-3.365722888345987,-0.0029931237727983174,0.005255852594487265,-0.6800620361018974
10780,13.0,299.85562000000004,29900.129,0.0,-0.05389971675726335,-0.05389897931217513,0.0,0.0,0.0,-2.2257243200868877,-3.4986335384132463,-3.3645349539287466,0.0010994934902115588,0.0041500592217789565,-0.6849729553615673
10781,13.0,299.90002999999996,29899.166,0.0,-0.05390469825594424,-0.05390398152236209,0.0,0.0,0.0,-2.219186019841608,-3.4999816676712965,-3.3694320929870565,-0.0038357468116087365,-0.004432501876553876,-0.6843527247103554
10782,13.0,299.87074,29811.557999999997,0.0,-0.0539097127446827,-0.053908983732549265,0.0,0.0,0.0,-2.2108322793921578,-3.4928701718444466,-3.358266684835117,0.01012373132038449,-0.003140582769126387,-0.6916066024412573
10783,13.0,299.73483,29812.158,0.0,-0.05391469424336348,-0.05391398594273633,0.0,0.0,0.0,-2.2047613914180078,-3.496628519115367,-3.3607617118813566,0.003524579428423906,-0.00788950664255868,-0.6897783952858274
10784,13.0,299.8708,29858.282000000003,0.0,-0.053919708732101945,-0.053918988152923286,0.0,0.0,0.0,-2.218772512475798,-3.4957504365787067,-3.3616490149939264,-0.0007093843895532884,-0.005504120451214395,-0.6917586304862613
10785,13.0,300.03222,29879.186,0.0,-0.05392472322084041,-0.05392399036311046,0.0,0.0,0.0,-2.220832855229138,-3.4965990335374566,-3.3650946732839864,-0.001914179805214838,-0.0026501618173756076,-0.6898279837457213
10786,13.0,299.94822999999997,29831.827,0.0,-0.05392970471952108,-0.05392899257329742,0.0,0.0,0.0,-2.214011858205958,-3.4956794077466964,-3.3584390386771266,-0.0036976075883754568,0.009167913350627601,-0.6958808257355904
10787,13.0,300.06915,29848.666,0.0,-0.05393471920825965,-0.053933994783484596,0.0,0.0,0.0,-2.210464368280848,-3.5016096566069668,-3.3611752192471673,-0.0025304881652897376,0.007735732261007332,-0.6886427040437433
10788,13.0,300.04663999999997,29920.496,0.0,-0.05393970070694054,-0.05393899699367155,0.0,0.0,0.0,-2.2185176800756476,-3.505003943116957,-3.3715621473472766,-0.01086612750965329,-0.004314708006053526,-0.6900996766275354
10789,13.0,300.0098,29956.711,0.0,-0.05394471519567878,-0.05394399920385873,0.0,0.0,0.0,-2.221697968164518,-3.5128765924189262,-3.3715175643428767,-0.003358662156349147,-0.008514106225551862,-0.6912156702876754
10790,13.0,299.79731,29874.654,0.0,-0.053949696694359894,-0.053949001414045905,0.0,0.0,0.0,-2.2150534793087577,-3.5031289238069068,-3.3629664427739465,-0.0016179062865749186,-0.0008251322345242113,-0.6905275417472624
10791,13.0,300.02329,29812.251,0.0,-0.05395471118309825,-0.05395400362423286,0.0,0.0,0.0,-2.212354383692378,-3.4956503274688266,-3.354175180931317,0.008060721794106303,0.002189335975870638,-0.6873160050253083
10792,13.0,299.94721,29847.34,0.0,-0.05395972567183649,-0.05395900583442004,0.0,0.0,0.0,-2.2080094659385683,-3.5052869438698866,-3.359549662111737,-0.006323560327736813,0.002559116533615138,-0.6955149816544843
10793,13.0,299.94986,29909.551,0.0,-0.0539647071705176,-0.05396397513532958,0.0,0.0,0.0,-2.2184071344897376,-3.507732929611287,-3.3656166997355066,0.0013741802220960287,-0.0003578694481814646,-0.6962274687273013
10794,13.0,299.91424,29936.929,0.0,-0.053969721659256065,-0.05396897734551653,0.0,0.0,0.0,-2.216028225904958,-3.5114429448524365,-3.3726077201254667,-0.004494016898074936,0.003042871718258057,-0.6923972617592894
10795,13.0,300.04067000000003,29874.583,0.0,-0.053974703157936954,-0.05397397955570371,0.0,0.0,0.0,-2.2086546022772375,-3.5031638809353565,-3.369308780449887,0.0032501765078924473,-0.0015049814881051085,-0.6924498393069783
10796,13.0,299.93879,29875.332000000002,0.0,-0.05397971764667531,-0.05397898176589078,0.0,0.0,0.0,-2.209986924833728,-3.504381402255517,-3.3669867151957167,-0.005417172852183335,-0.0037340563222976663,-0.6872708849983554
10797,13.0,300.03643,29977.767000000003,0.0,-0.053984699145356196,-0.053983983976077954,0.0,0.0,0.0,-2.228705403206098,-3.511276467861007,-3.3725107520908963,-0.00014656689041002587,-0.0008734779026405571,-0.6895831926540623
10798,13.0,299.99287999999996,29989.424,0.0,-0.05398971363409466,-0.05398898618626513,0.0,0.0,0.0,-2.228843407869718,-3.511030450736726,-3.3761623028012764,-0.0008190644166978644,0.007295769847011424,-0.6867396785009294
10799,13.0,299.89128,29883.984,0.0,-0.05399469513277533,-0.053993988396452086,0.0,0.0,0.0,-2.219363743909148,-3.5029697422161967,-3.3616513454691566,0.004074552432277016,0.003939106022509496,-0.6929077472921703
10800,13.0,299.98528999999996,29883.506,0.0,-0.0539997096215139,-0.05399899060663904,0.0,0.0,0.0,-2.216996082400478,-3.5028730781566564,-3.363970573623047,-0.00016051117749121984,-0.001911337537359328,-0.6869482762990163
10801,13.0,300.12469,29951.849,0.0,-0.05400472411025237,-0.054003992816825996,0.0,0.0,0.0,-2.220539519325188,-3.513939694423847,-3.3701348832564166,6.150195262127014e-05,-0.007583032329862024,-0.6975483415576613
10802,13.0,299.89876,29956.172000000002,0.0,-0.054009705608933034,-0.054008995027013174,0.0,0.0,0.0,-2.2241473989562577,-3.505015088868057,-3.3767656932358268,0.0014417565057152886,-0.0025544920601587376,-0.6881016892853493
10803,13.0,299.96421000000004,29956.452,0.0,-0.0540147200976715,-0.05401399723720035,0.0,0.0,0.0,-2.225040984219448,-3.5089651430578965,-3.372007369441217,-0.00019337494136712082,-0.007263176732369733,-0.6931986412633794
10804,13.0,300.15872,29956.392999999996,0.0,-0.05401970159635239,-0.054018999447387306,0.0,0.0,0.0,-2.220435458539918,-3.5090405288653366,-3.376519574786537,-0.00021180509942353578,0.00014643202682171588,-0.6905654474335033
10805,13.0,300.13254,29911.488999999998,0.0,-0.05402471608509074,-0.05402400165757448,0.0,0.0,0.0,-2.212872661118528,-3.5077705211899968,-3.3717025838111367,0.002937373941696237,0.0006299649043926954,-0.6991380600370544
10806,13.0,300.10132000000004,29946.931,0.0,-0.05402969758377185,-0.05402900386776155,0.0,0.0,0.0,-2.2143260670619678,-3.5125160780333466,-3.376277205362617,0.00017277871804193185,0.007927595929717804,-0.6936278438732384
10807,13.0,300.08969,29971.902000000002,0.0,-0.054034712072510316,-0.054034006077948726,0.0,0.0,0.0,-2.224633759004258,-3.5085341064653566,-3.3775418428124264,-0.0023877682410043777,-0.002990037919618767,-0.6910551309418314
10808,13.0,299.95232999999996,29930.967999999997,0.0,-0.054039693571191205,-0.054038975378858156,0.0,0.0,0.0,-2.2218698153814778,-3.5099846753085164,-3.3664125063640467,0.0010119199356662222,-0.005962967516599074,-0.6920415400466824
10809,13.0,299.93761,29917.828999999998,0.0,-0.05404470805992956,-0.05404397758904522,0.0,0.0,0.0,-2.2162397925258377,-3.5112011833785766,-3.366832093230457,0.0004250235915440625,-0.0047947758722575355,-0.6917263990005804
10810,13.0,299.83276,29985.832000000002,0.0,-0.05404972254866802,-0.0540489797992324,0.0,0.0,0.0,-2.223132527656098,-3.5155262414304262,-3.376285311363417,0.00025597377572514476,-0.0006383278147555504,-0.6909926539406653
10811,13.0,299.69096,30014.61,0.0,-0.05405470404734891,-0.05405398200941958,0.0,0.0,0.0,-2.2250362219439777,-3.521010254946656,-3.377645599622667,-0.005379785747343515,-0.0021974051956920077,-0.6929064908620464
10812,13.0,299.85085,29999.328999999998,0.0,-0.054059718536087153,-0.05405898421960653,0.0,0.0,0.0,-2.2246448034303477,-3.5140783070375265,-3.3803238222869867,-0.0003136839519281957,0.007118682100534223,-0.6923860856106864
10813,13.0,300.02849,29959.142000000003,0.0,-0.05406470003476804,-0.05406398642979371,0.0,0.0,0.0,-2.219630937960518,-3.5110916510427668,-3.3761083978959565,0.0015672076085463487,0.0036928412599050568,-0.6950143043825714
10814,13.0,300.13013,29925.879,0.0,-0.05406971452350662,-0.054068988639980664,0.0,0.0,0.0,-2.220355715757048,-3.5065196639415466,-3.3698444857777567,0.0016745010669353886,0.004984626516994335,-0.6913450319279423
10815,13.0,300.18034,29983.007,0.0,-0.054074696022187285,-0.05407399085016762,0.0,0.0,0.0,-2.2232211870398477,-3.5140278471825463,-3.3768365194178167,-0.00030411572990888576,-0.004134041865523166,-0.6920364636636813
10816,13.0,299.9962,30037.221,0.0,-0.05407971051092575,-0.054078993060354796,0.0,0.0,0.0,-2.230533002411468,-3.5195007149476765,-3.380531437232477,0.001066811108236059,-0.0008952416636584731,-0.6896767156382924
10817,13.0,300.18657,30019.851000000002,0.0,-0.054084724999664324,-0.05408399527054186,0.0,0.0,0.0,-2.2249384433093278,-3.5198597094581068,-3.3804870568780965,-7.160394466075913e-05,0.0032641240981689666,-0.6985173430257943
10818,13.0,299.93865,29953.046000000002,0.0,-0.05408970649834499,-0.05408899748072893,0.0,0.0,0.0,-2.214645038193448,-3.5146098580399863,-3.375723058882927,0.0032787205738095274,0.0096206730120615,-0.6937526256230534
10819,13.0,299.95161,30028.673,0.0,-0.054094720987083456,-0.054093999690915995,0.0,0.0,0.0,-2.2237540552674377,-3.526064751745497,-3.3781479690222467,-0.0004082774551538476,0.0023917245773448378,-0.6948262046340073
10820,13.0,299.9474,30064.414,0.0,-0.05409970248576457,-0.05409900190110317,0.0,0.0,0.0,-2.233239190778548,-3.5192307851210365,-3.386361171682826,-0.004492925729042245,-0.001220135404092989,-0.6906178324636734
10821,13.0,299.93757,29996.104,0.0,-0.05410471697450281,-0.05410400411129035,0.0,0.0,0.0,-2.221976713267028,-3.519653614387767,-3.3764363869533267,0.0018292416837820983,-0.006145802620293494,-0.6971421194600703
10822,13.0,299.86924,29938.766,0.0,-0.05410969847318381,-0.05410897341219967,0.0,0.0,0.0,-2.212299769511988,-3.514109008515557,-3.374228616310437,-0.002117811563236728,-0.0036657548555818365,-0.6917937092047233
10823,13.0,300.14729,29976.104,0.0,-0.05411471296192227,-0.054113975622386845,0.0,0.0,0.0,-2.214098997714558,-3.5179066698903565,-3.379981546403207,0.0016062414474486883,-0.005529884969457155,-0.6944164158960643
10824,13.0,300.20286,30035.499,0.0,-0.05411969446060316,-0.05411897783257402,0.0,0.0,0.0,-2.224801857195848,-3.5226136219048962,-3.3826260278391964,-0.0036586108344267764,0.00045156988290147754,-0.6932918805375814
10825,13.0,300.09372,30081.005,0.0,-0.054124708949341405,-0.05412398004276098,0.0,0.0,0.0,-2.239968792642708,-3.521584767753357,-3.382320938234087,0.005254349235313895,0.0031705772012366067,-0.6991598651792063
10826,13.0,299.92031000000003,30075.325,0.0,-0.05412972343807998,-0.054128982252948155,0.0,0.0,0.0,-2.235687810970208,-3.5221937310634566,-3.3842660744510566,0.0035289200905272962,0.005289958896828295,-0.6947143316904664
10827,13.0,299.69137,29988.283,0.0,-0.05413470493676087,-0.05413398446313511,0.0,0.0,0.0,-2.223361116878658,-3.522658914184367,-3.3696690921854464,0.004052181997894226,-0.00022122011802772583,-0.6984339525425644
10828,13.0,299.82222,30036.584,0.0,-0.05413971942549911,-0.05413898667332229,0.0,0.0,0.0,-2.223766518243668,-3.5222315252921863,-3.3843732763116363,-0.002736294256701217,-0.003032109988945957,-0.6940042561528874
10829,13.0,299.88572,30135.027000000002,0.0,-0.05414470092418,-0.054143988883509464,0.0,0.0,0.0,-2.240587888453808,-3.5296440577237465,-3.3900636888732367,-0.004568514693127296,-0.001088088651060989,-0.6970287469063814
10830,13.0,300.1279,30051.964,0.0,-0.054149715412918575,-0.05414899109369642,0.0,0.0,0.0,-2.2281198459733083,-3.5176737236923667,-3.389253088793237,-0.004881019161144085,0.002790052950031787,-0.6896054638912604
10831,13.0,300.09503,29929.982000000004,0.0,-0.05415469691159924,-0.054153993303883485,0.0,0.0,0.0,-2.2172639857269183,-3.5107073252798364,-3.3699958653426965,0.003075070881260867,0.0026785660547788874,-0.6938879553064093
10832,13.0,300.28008,30035.726000000002,0.0,-0.05415971140033771,-0.05415899551407044,0.0,0.0,0.0,-2.227224538184948,-3.520043209051217,-3.3828428633605965,-0.002835761269992847,0.0037689926791206166,-0.6907346804652054
10833,13.0,300.16962,30155.402000000002,0.0,-0.054164692899018596,-0.05416399772425762,0.0,0.0,0.0,-2.2425649420489275,-3.530301150413597,-3.3936232364745367,0.0002254476406249498,-0.0036740801237034764,-0.6993374271267303
10834,13.0,299.96227000000005,30110.24,0.0,-0.05416970738775706,-0.054168999934444795,0.0,0.0,0.0,-2.231513828508268,-3.527233941035887,-3.394013135113017,-0.0015614245849256084,-0.007428231931259413,-0.6940855390759093
10835,13.0,299.86604,30069.401,0.0,-0.05417472187649541,-0.05417400214463175,0.0,0.0,0.0,-2.228224312058618,-3.527787682215536,-3.3843350767828673,0.0009900929985045708,-0.002958778951383747,-0.6994458043574263
10836,13.0,300.00847000000005,30076.051,0.0,-0.054179703375176524,-0.05417897144554129,0.0,0.0,0.0,-2.226786510166718,-3.5273356713459267,-3.3882464248188864,0.003593778128103286,-0.0006911301013167304,-0.6960535342151354
10837,13.0,300.22342000000003,30087.033,0.0,-0.054184717863914766,-0.05418397365572847,0.0,0.0,0.0,-2.2297994093390683,-3.5293111037408864,-3.386596043056007,-0.0008318752518196951,0.0034485706748224264,-0.7001466086565903
10838,13.0,300.1456,30114.347,0.0,-0.054189699362595656,-0.05418897586591542,0.0,0.0,0.0,-2.2343012795333683,-3.529312522291026,-3.390395832256017,-0.005037918811303875,0.004909157521721125,-0.6985398878405193
10839,13.0,300.13915,30068.831000000002,0.0,-0.05419471385133423,-0.0541939780761026,0.0,0.0,0.0,-2.2277463619864477,-3.5233132710989463,-3.3891142735295365,-0.0007288459855489984,0.002669251347934597,-0.6945681703635413
10840,13.0,300.14352,30028.895,0.0,-0.05419969535001512,-0.054198980286289555,0.0,0.0,0.0,-2.218869277860348,-3.5237000286621165,-3.3854651546193972,0.005757346444655855,-0.0006601293598696953,-0.6985109899476674
10841,13.0,300.0631,30097.782000000003,0.0,-0.05420470983875336,-0.05420398249647673,0.0,0.0,0.0,-2.2284290899038277,-3.5268702855749967,-3.3936749122296366,-0.00024537363953899274,-0.006081799867126915,-0.6948108032324873
10842,13.0,299.68724,30171.937,0.0,-0.054209724327491826,-0.05420898470666391,0.0,0.0,0.0,-2.2376498684638477,-3.5337780168067368,-3.400087569462517,-0.0004336252033654756,-0.000989082200469813,-0.6936576334261784
10843,13.0,299.93575,30144.3,0.0,-0.054214705826172715,-0.054213986916850865,0.0,0.0,0.0,-2.2362377017994777,-3.532135943694677,-3.3947410539848573,-0.0038919501734555766,0.0033963859641971965,-0.6920531417603273
10844,13.0,300.0328,30118.916,0.0,-0.05421972031491107,-0.05421898912703804,0.0,0.0,0.0,-2.233519861056248,-3.5325219919827764,-3.389356541628447,0.000900464896996466,0.004896016579849215,-0.7000787006348883
10845,13.0,300.06992,30133.118,0.0,-0.05422470181359196,-0.05422399133722511,0.0,0.0,0.0,-2.2373692995111583,-3.530884985121217,-3.3914610620861465,-0.0024382222191337974,-0.0026294488575063974,-0.6972415800898863
10846,13.0,300.05519,30149.381,0.0,-0.05422971630233042,-0.05422899354741206,0.0,0.0,0.0,-2.242266641219488,-3.5303624520446464,-3.3920297993672763,0.004069792183307216,-0.0017334408120022883,-0.7001093109204094
10847,13.0,299.91147,30122.845,0.0,-0.05423469780101131,-0.05423399575759924,0.0,0.0,0.0,-2.235359720587828,-3.5267592333640367,-3.3944737586084766,-0.0004886912831675745,0.0007229860663781692,-0.6926664113833523
10848,13.0,299.94795,30069.075,0.0,-0.054239712289749664,-0.054238997967786196,0.0,0.0,0.0,-2.228901872400488,-3.521295383524797,-3.390050820596967,0.009111520814987091,-0.0009288919426594972,-0.7007633030649533
10849,13.0,300.07148,30092.939,0.0,-0.054244693788430776,-0.05424400017797337,0.0,0.0,0.0,-2.232696494024988,-3.5274154141287966,-3.3873902284843864,0.0018680773309648782,-0.000968664532077246,-0.6911283382615564
10850,13.0,300.06079,30132.397,0.0,-0.05424970827716902,-0.05424900238816033,0.0,0.0,0.0,-2.2367185902969378,-3.5306444395474768,-3.392133454852507,0.0037466968199451863,0.004894481911247756,-0.7010003934558523
10851,13.0,300.01929,30196.322,0.0,-0.05425472276590737,-0.05425397168906987,0.0,0.0,0.0,-2.2433942872557777,-3.536941282293926,-3.398592214964937,-0.006618753012495064,0.007318419330471753,-0.6901770484051714
10852,13.0,300.14591,30204.425,0.0,-0.05425970426458837,-0.054258973899257046,0.0,0.0,0.0,-2.241487147917558,-3.540366776906996,-3.3995371720081966,-0.0013889285839265785,0.0010392958964705189,-0.7017209054694613
10853,13.0,300.11237,30149.664,0.0,-0.054264718753326724,-0.054263976109444,0.0,0.0,0.0,-2.2346311937659276,-3.5365403392293566,-3.3935736885446466,-0.0024242318697030576,-0.0038065995579071262,-0.6896059097213043
10854,13.0,300.01277999999996,30151.67,0.0,-0.05426970025200761,-0.05426897831963118,0.0,0.0,0.0,-2.2334518719745375,-3.5382371278468168,-3.3936656916537267,0.006618028133373524,-0.007007162274653073,-0.7001147014109413
10855,13.0,300.00802999999996,30183.787999999997,0.0,-0.05427471474074608,-0.054273980529818355,0.0,0.0,0.0,-2.2388270624300275,-3.535991765625217,-3.4002992374084067,0.00029602524196791673,0.0008062185231225733,-0.6936279249332463
10856,13.0,299.98511,30157.093999999997,0.0,-0.05427969623942697,-0.05427898274000531,0.0,0.0,0.0,-2.2342544673787477,-3.5372426228736664,-3.395506260460377,-0.00022993214371253576,0.0004522060114467586,-0.7048999877907123
10857,13.0,299.84693,30114.837000000003,0.0,-0.05428471072816532,-0.05428398495019249,0.0,0.0,0.0,-2.229538396113308,-3.533104002840217,-3.3915161828915865,-0.0017689056800773983,0.003257517707516966,-0.6997475401047053
10858,13.0,299.76752999999997,30102.326,0.0,-0.05428969222684621,-0.054288987160379554,0.0,0.0,0.0,-2.227853158546988,-3.5314823973801763,-3.391019994317617,0.0012578275985379187,0.004191028773672336,-0.7004430147083434
10859,13.0,299.97127,30152.892000000003,0.0,-0.05429470671558467,-0.05429398937056673,0.0,0.0,0.0,-2.239071661004168,-3.531706832277327,-3.3949476556802467,0.0009610335023941221,0.0023037467056120976,-0.6979994303696804
10860,13.0,299.91219,30237.835,0.0,-0.054299721204323026,-0.05429899158075391,0.0,0.0,0.0,-2.245675113230878,-3.540791632673926,-3.405079954030227,-0.0014336455399897984,-0.0025340904720452576,-0.6973449721300904
10861,13.0,299.94723999999997,30247.162,0.0,-0.054304702703003915,-0.05430399379094086,0.0,0.0,0.0,-2.245334255897238,-3.5445802761228364,-3.4044673430197667,0.000903824408763024,-0.0012584725322265689,-0.6951051321215354
10862,13.0,300.08459,30203.476000000002,0.0,-0.05430971719174238,-0.05430899600112782,0.0,0.0,0.0,-2.2424738508649376,-3.5384316718660167,-3.400197000473317,0.002135261756458928,-0.0036157112437429167,-0.6932579771892353
10863,13.0,300.25355,30216.222,0.0,-0.05431469869042327,-0.05431399821131477,0.0,0.0,0.0,-2.242137451831738,-3.5380326539766362,-3.4048069844532867,-0.001832401605543958,0.005901812806813574,-0.6966340049324233
10864,13.0,300.16396000000003,30240.145,0.0,-0.05431971317916162,-0.05431900042150195,0.0,0.0,0.0,-2.244887615253158,-3.541417618585707,-3.4059438510654867,-0.0034400421487307264,0.0015867958608045585,-0.6920334745758864
10865,13.0,300.05136,30201.102000000003,0.0,-0.05432469467784262,-0.05432396972241149,0.0,0.0,0.0,-2.240450289090228,-3.536923246442146,-3.4030074522756864,-0.0018251150200998283,-0.000960293049618545,-0.6995133374765914
10866,13.0,300.12068999999997,30145.908,0.0,-0.054329709166580975,-0.05432897193259845,0.0,0.0,0.0,-2.227945769606128,-3.5377568472994168,-3.3979005704466765,-0.0010794475528831788,-0.005954813285094313,-0.7005160497755513
10867,13.0,300.05552,30136.078999999998,0.0,-0.05433472365531944,-0.054333974142785624,0.0,0.0,0.0,-2.228743602734868,-3.5335556084097868,-3.3983164082877173,0.0025486945470615673,-0.0036076313847954967,-0.7063635161026514
10868,13.0,300.0334,30213.043999999998,0.0,-0.05433970515400033,-0.0543389763529728,0.0,0.0,0.0,-2.241463843165258,-3.537752794299017,-3.4047945214770565,-0.0005599872788314415,-0.005632040236589094,-0.7033010183379063
10869,13.0,299.88306,30259.685,0.0,-0.05434471964273868,-0.05434397856315987,0.0,0.0,0.0,-2.246565658743768,-3.5439896526395467,-3.4076332429572167,-0.002128179644884978,0.0024127100001659378,-0.7055033072977553
10870,13.0,299.7006,30200.298,0.0,-0.05434970114141957,-0.05434898077334693,0.0,0.0,0.0,-2.240230109843498,-3.5442434717895965,-3.3956630102508467,0.0013268900160788488,0.0009255165937938761,-0.7032316715010624
10871,13.0,300.01507999999995,30187.874,0.0,-0.054354715630158035,-0.054353982983534,0.0,0.0,0.0,-2.2430895016256978,-3.539116324958586,-3.3941541795269363,0.0035324639327520466,0.008787838374517121,-0.6983194755462663
10872,13.0,300.31698,30274.28,0.0,-0.054359697128838924,-0.05435898519372118,0.0,0.0,0.0,-2.245559805369498,-3.5520646479864864,-3.4050008191974164,0.0051308288805483855,0.002447624065486688,-0.7001941199537794
10873,13.0,300.12491,30279.127999999997,0.0,-0.05436471161757728,-0.054363987403908354,0.0,0.0,0.0,-2.2507226186040277,-3.5455491458684563,-3.407826875051327,-0.002917980334782237,-0.0031860170049353973,-0.6986849041948313
10874,13.0,300.02151000000003,30236.303,0.0,-0.05436969311625828,-0.05436898961409531,0.0,0.0,0.0,-2.2383049346534976,-3.5485952796440867,-3.404180897216497,-0.004745063593201315,-0.007108005788205554,-0.7021164783085013
10875,13.0,300.00385,30173.891,0.0,-0.05437470760499663,-0.054373991824282486,0.0,0.0,0.0,-2.233408099570218,-3.540782209447997,-3.397919112923507,-0.002050180361462048,0.002027281821127138,-0.6976786151230183
10876,13.0,299.93724,30188.968999999997,0.0,-0.05437972209373498,-0.05437899403446944,0.0,0.0,0.0,-2.2377482550485577,-3.5408907285337063,-3.398053875186807,0.0012655233343724288,0.002746276898011427,-0.6999833943304824
10877,13.0,299.99571000000003,30306.732000000004,0.0,-0.05438470359241587,-0.054383996244656396,0.0,0.0,0.0,-2.254693140445888,-3.5500805016406667,-3.407716126815397,-0.0014771019116036086,-0.0018759772366945383,-0.6941730332220443
10878,13.0,299.62082999999996,30305.162,0.0,-0.05438971808115434,-0.05438899845484357,0.0,0.0,0.0,-2.246470210584348,-3.551310789912087,-3.414231527608417,0.0007546449644276593,-0.008521300199936853,-0.7007546499090993
10879,13.0,299.57442000000003,30229.017999999996,0.0,-0.054394699579835226,-0.054393967755753114,0.0,0.0,0.0,-2.2367886058788478,-3.546777204989657,-3.4053009438770365,0.003175400575687637,-0.0012505197348416889,-0.6998228245871353
10880,13.0,299.82103,30250.235,0.0,-0.05439971406857369,-0.05439896996594029,0.0,0.0,0.0,-2.242895261581528,-3.5443673922768264,-3.408053539098697,0.007558654140406082,-0.0018959049277362482,-0.7014584128985554
10881,13.0,299.85061,30332.732999999997,0.0,-0.05440469556725458,-0.05440397217612725,0.0,0.0,0.0,-2.2560730857570777,-3.5500123099089365,-3.414308027990967,-0.0014690204314560286,-0.0034897880676902668,-0.6973294795360614
10882,13.0,300.0844,30282.146,0.0,-0.05440971005599293,-0.05440897438631431,0.0,0.0,0.0,-2.251935377648718,-3.5498814993210264,-3.4031993618446266,-0.0039005671562810065,-0.0014096058773922686,-0.7030749115780913
10883,13.0,299.93385,30252.869,0.0,-0.05441469155467382,-0.05441397659650149,0.0,0.0,0.0,-2.244017334742268,-3.548187953103886,-3.4039113726898966,0.00032622098660800466,0.0018596217588803783,-0.6949730245734973
10884,13.0,300.08476,30265.292999999998,0.0,-0.054419706043412286,-0.054418978806688445,0.0,0.0,0.0,-2.2410693849013277,-3.5508362848902566,-3.4079877791672066,0.01000166609408759,0.0023157676008234676,-0.7008716498981463
10885,13.0,300.07622000000003,30288.065,0.0,-0.05442472053215064,-0.05442398101687562,0.0,0.0,0.0,-2.243709610686898,-3.5498681244197066,-3.413237731910337,0.0020626416151668784,-0.009081603997834533,-0.6969459947707143
10886,13.0,300.19414,30305.568,0.0,-0.05442970203083153,-0.0544289832270628,0.0,0.0,0.0,-2.242510935818598,-3.5553119119069665,-3.4143131955664767,-0.0002385152434546218,-0.01130533900400009,-0.7020902857934164
10887,13.0,300.01067,30294.722999999998,0.0,-0.05443471651956999,-0.054433985437249754,0.0,0.0,0.0,-2.2420999615780377,-3.551562582561936,-3.4151766873016967,-0.007511511666253482,0.0014160038424986987,-0.6967890727277273
10888,13.0,300.02508,30270.659,0.0,-0.05443969801825088,-0.05443898764743693,0.0,0.0,0.0,-2.240324544752818,-3.547971421557517,-3.4132284100094172,-0.0017514166793763683,0.005546631055184864,-0.6981776711947714
10889,13.0,299.81649,30305.189,0.0,-0.054444712506989124,-0.05444398985762389,0.0,0.0,0.0,-2.249503780058738,-3.5489211408762467,-3.4135959158206863,-0.007270429981885573,0.0027115453190336876,-0.6971167983400713
10890,13.0,299.81439,30343.127999999997,0.0,-0.054449694005670124,-0.054448992067811064,0.0,0.0,0.0,-2.2529238031212677,-3.5551088565869264,-3.4155205843856367,-0.005245983741163285,0.0015511637051379386,-0.7033279099955603
10891,13.0,299.84648,30302.82,0.0,-0.05445470849440859,-0.05445399427799824,0.0,0.0,0.0,-2.248905962499738,-3.549041109688087,-3.4133534450717566,0.0003839097021739376,0.0038199487226745865,-0.7005842516397823
10892,13.0,299.95104,30295.332000000002,0.0,-0.05445972298314683,-0.054458996488185196,0.0,0.0,0.0,-2.249289680312608,-3.552131826468117,-3.4076028454542167,-0.0014284485802268986,-0.0017581959304954283,-0.7048956206827813
10893,13.0,299.93791,30334.658,0.0,-0.05446470448182794,-0.05446396578909474,0.0,0.0,0.0,-2.2543742706394183,-3.5518063705359966,-3.414797731764297,0.004848940574903175,-0.008179370847691053,-0.6988177311504403
10894,13.0,299.94119,30360.142000000003,0.0,-0.054469718970566294,-0.054468967999281914,0.0,0.0,0.0,-2.256120708511778,-3.557037375502257,-3.415566991240217,-0.0006968072099045173,-0.005943016723455084,-0.7001523943146614
10895,13.0,300.16944,30331.186,0.0,-0.054474700469247184,-0.05447397020946887,0.0,0.0,0.0,-2.2489656429306275,-3.554833961834797,-3.416123670845157,0.003951126512420826,0.0036531140539592865,-0.7017055749954483
10896,13.0,299.99615,30322.778,0.0,-0.05447971495798565,-0.054478972419655936,0.0,0.0,0.0,-2.2468931411760877,-3.555411919691837,-3.415062392690417,-0.0025687144438623776,0.00016259136981401883,-0.7008203287805814
10897,13.0,299.94902,30310.284,0.0,-0.05448469645666654,-0.05448397462984289,0.0,0.0,0.0,-2.247675066278258,-3.5565555750797064,-3.4093387455255364,-0.0016428834081649683,-0.006273373037033713,-0.7065586376744083
10898,13.0,299.99194,30311.75,0.0,-0.05448971094540489,-0.05448897684003007,0.0,0.0,0.0,-2.244450701810038,-3.5545600803327666,-3.415004434784697,-0.003194856700132807,-0.005331275081580885,-0.7015612172537014
10899,13.0,299.97941000000003,30319.298,0.0,-0.05449469244408578,-0.054493979050217245,0.0,0.0,0.0,-2.247443741280428,-3.5527540633545267,-3.416111613168967,0.002075746080035188,0.0024311729368630876,-0.6994528768431243
10900,13.0,299.92432,30329.089,0.0,-0.05449970693282424,-0.0544989812604042,0.0,0.0,0.0,-2.2456767344310378,-3.5566758478665763,-3.4169331563500465,-0.0049340278467506354,6.748356211585903e-05,-0.7007635867749813
10901,13.0,300.41705,30339.847,0.0,-0.054504721421562485,-0.05450398347059138,0.0,0.0,0.0,-2.250831948289818,-3.5581902514660366,-3.4135336009395365,0.001088478245724439,-0.0038293140920238767,-0.7070550592959013
10902,13.0,300.2596,30352.395,0.0,-0.054509702920243375,-0.05450898568077833,0.0,0.0,0.0,-2.2534568739988776,-3.5596928000393264,-3.413220304008617,-0.0006659193242536203,0.0028810372361362372,-0.7078329415301724
10903,13.0,300.20852,30406.632999999998,0.0,-0.05451471740898195,-0.05451398789096551,0.0,0.0,0.0,-2.2624122823577077,-3.5668250674932263,-3.413619929848057,0.009165093374274291,0.004319989977499816,-0.7101877246300713
10904,13.0,300.19163,30402.475,0.0,-0.05451969890766284,-0.05451899010115269,0.0,0.0,0.0,-2.2552197265228577,-3.5645962212482565,-3.421777302428126,0.0030458678988037574,-0.0009237744926319442,-0.7060524685869533
10905,13.0,300.06843,30342.595,0.0,-0.05452471339640108,-0.05452399231133964,0.0,0.0,0.0,-2.2516185343424477,-3.558675496938926,-3.4130969914714466,0.0015815593842877585,-0.007400349720307654,-0.7034775366378273
10906,13.0,299.99152000000004,30344.326,0.0,-0.05452969489508219,-0.05452899452152682,0.0,0.0,0.0,-2.242551364497588,-3.557947172767047,-3.423418868915136,0.0016051829050692185,-0.0029292967171990775,-0.7029154564098543
10907,13.0,300.1375,30354.06,0.0,-0.054534709383820545,-0.054533996731713885,0.0,0.0,0.0,-2.247990997659438,-3.554085170010896,-3.4248002327764673,0.004253790903416476,0.005242688854488105,-0.6939830690932963
10908,13.0,299.76122999999995,30395.191000000003,0.0,-0.054539690882501435,-0.054538966032623315,0.0,0.0,0.0,-2.2540936003617182,-3.563503025715367,-3.4217823686786266,-0.0005614521041035085,0.0035267116106093366,-0.7002591807427003
10909,13.0,299.74484,30438.055,0.0,-0.0545447053712399,-0.05454396824281049,0.0,0.0,0.0,-2.2646914871326476,-3.5640978035240667,-3.423619492434937,-0.004175954043984576,-0.0035376472136385965,-0.6961505529122103
10910,13.0,300.06614,30417.657000000003,0.0,-0.05454971985997814,-0.05454897045299756,0.0,0.0,0.0,-2.257226164370878,-3.5661625032528366,-3.4228194301559767,-0.008592471900210952,0.004388118279773556,-0.7063953321557913
10911,13.0,299.95211,30369.281000000003,0.0,-0.05455470135865903,-0.054553972663184735,0.0,0.0,0.0,-2.250805097162168,-3.5619126283584066,-3.418785377532847,-0.0029802603601287968,-0.0017516768820020482,-0.6986488020937683
10912,13.0,299.88495,30419.925,0.0,-0.054559715847397605,-0.05455897487337169,0.0,0.0,0.0,-2.250932462699738,-3.565282292890967,-3.4306829602070468,-0.0026448276635491676,-0.0019182599607175182,-0.6999918853663203
10913,13.0,299.9188,30446.244,0.0,-0.054564697346078495,-0.054563977083558646,0.0,0.0,0.0,-2.258406904712408,-3.5705204919329367,-3.425970435316957,-0.0017163571113412584,-0.005813666026289165,-0.7032986777301753
10914,13.0,299.96189,30395.154,0.0,-0.054569711834816736,-0.05456897929374582,0.0,0.0,0.0,-2.2566298666870277,-3.5635418331941966,-3.419196149123387,0.004972985185270425,0.002218388288037878,-0.7086761986608954
10915,13.0,300.20251,30379.918999999998,0.0,-0.054574693333497626,-0.05457398150393278,0.0,0.0,0.0,-2.2551684560677976,-3.5608610774046263,-3.418707053300117,0.0013006993248440286,0.0030973046282051666,-0.7071390171991874
10916,13.0,300.09137000000004,30378.03,0.0,-0.0545797078222362,-0.054578983714119955,0.0,0.0,0.0,-2.2543078014328577,-3.561827819325037,-3.4180270611580066,0.0036836610113490363,-0.0013975279362002685,-0.7085407980500323
10917,13.0,300.21837,30429.955,0.0,-0.05458472231097444,-0.05458398592430713,0.0,0.0,0.0,-2.251623296617918,-3.565401856402767,-3.432921128352937,-0.0007377582598510714,-0.005799572325348224,-0.7058436782713473
10918,13.0,300.13015,30456.897,0.0,-0.05458970380965533,-0.05458898813449409,0.0,0.0,0.0,-2.2584369982403776,-3.5642582010148964,-3.435440878701617,-0.004380315646053496,0.0020627017008978082,-0.7029404431573203
10919,13.0,299.98298,30463.197,0.0,-0.054594718298393796,-0.054593990344681265,0.0,0.0,0.0,-2.256667154290708,-3.572659868194076,-3.4307240981611073,-0.0012155249134879688,-0.0008070998885895573,-0.7021890675456653
10920,13.0,299.81833,30382.113999999998,0.0,-0.0545996997970748,-0.05459899255486833,0.0,0.0,0.0,-2.2558686118868976,-3.5592311632937665,-3.4203042394327468,-0.008814150655763941,-0.0009094932086999911,-0.7030896543670464
10921,13.0,299.91084,30417.068,0.0,-0.05460471428581304,-0.05460399476505551,0.0,0.0,0.0,-2.258115696633668,-3.5667729864380866,-3.4211402720902564,-0.0018359301476921985,-0.002028299833502608,-0.7065484849084063
10922,13.0,299.96623999999997,30510.595,0.0,-0.05460969578449415,-0.05460896406596494,0.0,0.0,0.0,-2.269526919259868,-3.5704045761214966,-3.434527535061477,0.004283261890525036,0.002738866797380107,-0.7089926265346242
10923,13.0,300.22393999999997,30497.005,0.0,-0.05461471027323239,-0.054613966276152004,0.0,0.0,0.0,-2.264630185501598,-3.5690767118654465,-3.4366211124180963,0.0026782934905019875,0.0024740947177241375,-0.7011740746554933
10924,13.0,300.05766,30422.69,0.0,-0.05461969177191328,-0.05461896848633918,0.0,0.0,0.0,-2.2556698122172776,-3.5609290664863362,-3.4311390240770567,0.0018489933732814383,-0.00829352907550759,-0.7029192966277333
10925,13.0,300.11838,30438.908,0.0,-0.054624706260651856,-0.05462397069652636,0.0,0.0,0.0,-2.256170256441668,-3.567669611451576,-3.4288281045739866,0.006057548739233514,-0.006444955593067593,-0.7008815797491263
10926,13.0,300.01945,30482.057999999997,0.0,-0.05462972074939032,-0.05462897290671331,0.0,0.0,0.0,-2.2654297411555078,-3.5693487695172967,-3.431006085663937,0.006679900629529864,0.002028880425809908,-0.7024428157682083
10927,13.0,299.77427,30480.855,0.0,-0.05463470224807099,-0.05463397511690027,0.0,0.0,0.0,-2.2681020869692476,-3.567932347202507,-3.4293842775538765,0.005099125399494495,0.0024539381334848375,-0.7108495593303894
10928,13.0,299.83177,30461.787999999997,0.0,-0.05463971673680945,-0.054638977327087224,0.0,0.0,0.0,-2.256228518322418,-3.5722886133574363,-3.431105890798787,-0.0065449687481631234,0.0026605751913033274,-0.7054395839989663
10929,13.0,299.81712999999996,30403.624,0.0,-0.05464469823549045,-0.0546439795372744,0.0,0.0,0.0,-2.247405339101638,-3.569413009573637,-3.425124270158447,0.00019527576815721784,-0.002387613821689138,-0.7115990908268623
10930,13.0,300.05522,30452.854,0.0,-0.054649712724228694,-0.05464898174746158,0.0,0.0,0.0,-2.2465865316958276,-3.576628059560707,-3.4336927183040866,-0.0020476933390915983,0.0033795080546314767,-0.7014846966061493
10931,13.0,300.16426,30519.307,0.0,-0.05465469422290958,-0.054653983957648644,0.0,0.0,0.0,-2.262919312707748,-3.5787128216414565,-3.4354751265549965,-0.00014986464458298886,-0.0014962768591460286,-0.7122827205368314
10932,13.0,300.17782,30525.446,0.0,-0.05465970871164805,-0.05465898616783571,0.0,0.0,0.0,-2.265399141002488,-3.5755300004273365,-3.4380441208585366,-0.0005570787241543895,-0.002233884023142188,-0.6984742596315423
10933,13.0,300.33917,30487.078999999998,0.0,-0.05466469021032894,-0.054663988378022776,0.0,0.0,0.0,-2.267065228141918,-3.5770171475991064,-3.423228479221347,0.0009788148257490023,0.0004983559564639035,-0.7150130343887923
10934,13.0,300.21438,30496.185,0.0,-0.05466970469906729,-0.054668990588209954,0.0,0.0,0.0,-2.265072570495258,-3.5731381222412764,-3.4318678548739867,0.003939181914941987,0.0019928047705745178,-0.7034263573752763
10935,13.0,299.78972000000005,30535.091,0.0,-0.054674719187805754,-0.05467399279839713,0.0,0.0,0.0,-2.2654889149613475,-3.578308129551517,-3.4381081582648574,0.001035979934193259,0.005296255840899755,-0.7133088287806003
10936,13.0,299.9397,30528.362,0.0,-0.05467970068648664,-0.05467896209930645,0.0,0.0,0.0,-2.259827582677618,-3.5773230478042968,-3.4427091243189367,-0.0025724082471019274,0.005297538818176375,-0.7015575695533414
10937,13.0,299.8681,30438.847999999998,0.0,-0.054684715175224996,-0.05468396430949363,0.0,0.0,0.0,-2.2542909814811978,-3.571758886205157,-3.4265998662790764,0.0025080548080757374,-0.0004269818189523245,-0.7115167541237364
10938,13.0,299.91577,30426.083,0.0,-0.054689696673905885,-0.054688966519680804,0.0,0.0,0.0,-2.258649476786348,-3.5686942099526964,-3.4214259072934468,-0.0013338439515151487,0.0024479512439439777,-0.7038991297394352
10939,13.0,300.14569,30479.367000000002,0.0,-0.05469471116264457,-0.05469396872986776,0.0,0.0,0.0,-2.2707498108055577,-3.5686912715274066,-3.425525213223017,0.002125585420653948,0.0014829664005323888,-0.7093464534695443
10940,13.0,300.14742,30527.903,0.0,-0.05469969266132524,-0.054698970940054936,0.0,0.0,0.0,-2.2679573948549683,-3.572617413014887,-3.4391454223922264,-0.0027005757721260777,-0.0023338604985840977,-0.7063014038715214
10941,13.0,300.0137,30557.201,0.0,-0.0547047071500637,-0.05470397315024189,0.0,0.0,0.0,-2.2635789385228477,-3.585381121874567,-3.439665928968597,-0.004212359816102546,0.00025971572860944675,-0.7142639487223633
10942,13.0,300.08905,30555.635,0.0,-0.05470972163880228,-0.05470897536042907,0.0,0.0,0.0,-2.2604037166844777,-3.5801515354584468,-3.4475949149761265,0.0009627682777578311,-0.007480351388578203,-0.7037822108103964
10943,13.0,299.80752,30536.333,0.0,-0.054714703137482945,-0.054713977570616024,0.0,0.0,0.0,-2.267677636502358,-3.5796885814877566,-3.434916319124847,0.004849746514032715,-0.004704301554928415,-0.7095019670948923
10944,13.0,299.82496000000003,30583.591,0.0,-0.05471971762622141,-0.05471897978080309,0.0,0.0,0.0,-2.2735076749277376,-3.5828877160284867,-3.440252600776497,0.0028286876697197374,-0.002741319571897177,-0.7015379530314053
10945,13.0,299.79129,30560.537,0.0,-0.0547246991249023,-0.05472398199099027,0.0,0.0,0.0,-2.2715947600639477,-3.5793858223578767,-3.438659467644267,0.0026070209718429375,0.00019975026033381581,-0.7077615783256294
10946,13.0,299.87619,30496.222999999998,0.0,-0.05472971361364065,-0.05472898420117722,0.0,0.0,0.0,-2.255959095120828,-3.5818271471488172,-3.4323040590420364,-0.0025089949015185175,0.0025570319741844076,-0.7088179523498853
10947,13.0,300.0314,30492.761000000002,0.0,-0.05473469511232154,-0.0547339864113644,0.0,0.0,0.0,-2.2484276071275278,-3.578287560574487,-3.442322873380817,0.00023513700682621576,0.005639119004437715,-0.7104511189935664
10948,13.0,300.15782,30530.835,0.0,-0.054739709601060005,-0.054738988621551576,0.0,0.0,0.0,-2.260136623958118,-3.5764467891178167,-3.4440279706490973,0.006837660934324594,0.0036434164399022063,-0.7028004322585023
10949,13.0,300.03285,30571.146,0.0,-0.054744691099740894,-0.05474399083173853,0.0,0.0,0.0,-2.260694620788188,-3.5879262034757464,-3.4442442995454465,0.0004608880043986046,-0.00012080077123210789,-0.7072320842208724
10950,13.0,299.93752,30578.43,0.0,-0.05474970558847925,-0.05474899304192571,0.0,0.0,0.0,-2.273543240006248,-3.581014013943567,-3.4405221253030964,0.0004959871702476226,-0.0025130824537469274,-0.7045390275750884
10951,13.0,299.77299,30533.717,0.0,-0.05475472007721771,-0.05475396234283525,0.0,0.0,0.0,-2.264259335964998,-3.5784625488667565,-3.4387656562547466,-0.0006343053638460654,-0.00012405079119285988,-0.7101379943151633
10952,13.0,299.9995,30550.903,0.0,-0.05475970157589882,-0.054758964553022205,0.0,0.0,0.0,-2.267260177461158,-3.579522307146347,-3.439929070019567,0.002133282271063568,0.0026682589707866574,-0.7089965275475093
10953,13.0,299.94019,30589.662999999997,0.0,-0.054764716064637065,-0.05476396676320938,0.0,0.0,0.0,-2.2631907624095375,-3.584769422789196,-3.450533644241157,-0.006808654826361915,0.0012474824163419289,-0.7098803552122362
10954,13.0,299.94409,30590.369,0.0,-0.054769697563317954,-0.05476896897339634,0.0,0.0,0.0,-2.2695486028120078,-3.5830438578688963,-3.4461157724801468,-0.005281394197708025,-0.0034560568705362567,-0.7067541645462053
10955,13.0,300.22095,30573.777000000002,0.0,-0.05477471205205653,-0.054773971183583514,0.0,0.0,0.0,-2.266583529044378,-3.5861323454987066,-3.4409488049202066,-0.0007705339216307772,0.0007228412121438734,-0.7010515423209004
10956,13.0,300.19847000000004,30558.391,0.0,-0.054779693550737196,-0.05477897339377069,0.0,0.0,0.0,-2.2758832397871878,-3.5784087452864464,-3.434695835903087,0.0047990505717794155,-0.0008129208888240453,-0.7016555812355143
10957,13.0,300.18294,30619.734,0.0,-0.05478470803947566,-0.054783975603957646,0.0,0.0,0.0,-2.274211073147158,-3.5922569357281566,-3.441166653691707,0.008343122500327082,-0.002280536996171478,-0.7070759930429673
10958,13.0,300.15466000000004,30681.157000000003,0.0,-0.05478968953815655,-0.05478897781414471,0.0,0.0,0.0,-2.2773368483806475,-3.595951346917767,-3.453017424211287,0.0016758782764713083,0.0001002923521075845,-0.7078925915635593
10959,13.0,300.0277,30637.115,0.0,-0.0547947040268949,-0.05479398002433167,0.0,0.0,0.0,-2.265278766890608,-3.5974317053138667,-3.450207479033967,-0.0018681073231678381,0.00973012763158883,-0.7095043279676253
10960,13.0,300.02491000000003,30542.236,0.0,-0.05479971851563337,-0.054798982234518845,0.0,0.0,0.0,-2.2567975595785774,-3.5833347619726066,-3.443944782815887,0.000984536284293666,0.0002455815483270118,-0.7101467893260313
10961,13.0,300.22551,30554.509,0.0,-0.054804700014314256,-0.05480398444470602,0.0,0.0,0.0,-2.2631124381768077,-3.582816180571426,-3.441879069837017,-0.003019241611350947,0.003559596946579867,-0.7057082776604843
10962,13.0,300.08839,30588.838,0.0,-0.05480971450305261,-0.05480898665489298,0.0,0.0,0.0,-2.267887075298028,-3.5868287522924365,-3.4435270197996566,-0.003438381026516787,-0.0025178868804210876,-0.7125851756916813
10963,13.0,299.98364,30611.662,0.0,-0.0548146960017335,-0.054813988865080154,0.0,0.0,0.0,-2.272949982072698,-3.5899479414002764,-3.4422830526518866,-0.0045301085626619055,0.0004702938632218905,-0.7114072724504313
10964,13.0,299.83407,30634.891,0.0,-0.05481971049047196,-0.05481899107526711,0.0,0.0,0.0,-2.269532998760468,-3.5938437867097663,-3.4488651253014866,-0.007758819164535832,0.00020511664564593679,-0.7135469121565974
10965,13.0,299.91679,30614.82,0.0,-0.054824691989153074,-0.05482396037617665,0.0,0.0,0.0,-2.271643598718768,-3.5863378326189865,-3.4481592952818265,-0.0006406938854615635,-0.002028243598122058,-0.7119907626530173
10966,13.0,300.10961000000003,30598.392999999996,0.0,-0.054829706477891316,-0.05482896258636383,0.0,0.0,0.0,-2.2680844564175078,-3.587221285381176,-3.4458416883280965,0.0026064839492899376,-0.0009280931064131582,-0.7136640742656604
10967,13.0,300.08635,30627.653,0.0,-0.05483472096662967,-0.05483396479655078,0.0,0.0,0.0,-2.278225063418308,-3.5903220333371966,-3.441494744074087,-0.00015101818929183486,0.005978055418538134,-0.7088340326289723
10968,13.0,299.98741,30616.688,0.0,-0.05483970246531078,-0.05483896700673796,0.0,0.0,0.0,-2.270623255868068,-3.5895378790848067,-3.446547417022747,0.0015932730620688085,0.0005767147612873154,-0.7112196590619153
10969,13.0,300.02997,30579.529,0.0,-0.05484471695404902,-0.05484396921692514,0.0,0.0,0.0,-2.269641315196158,-3.5851529379520466,-3.440619093337667,-0.003356866575846937,0.0026342209615023674,-0.7136596868927273
10970,13.0,299.7074,30608.335,0.0,-0.05484969845272991,-0.05484897142711209,0.0,0.0,0.0,-2.265509078638338,-3.5896783155486665,-3.4489820543630265,-0.0008676591720862932,-0.0012878382426497388,-0.7119752497939863
10971,13.0,299.81827000000004,30635.95,0.0,-0.054854712941468375,-0.05485397363729927,0.0,0.0,0.0,-2.2689273791756976,-3.588892236121086,-3.4547443063567167,0.00017705973011193486,0.002751270903779297,-0.7138868271676443
10972,13.0,300.03418,30653.174,0.0,-0.054859694440149154,-0.054858975847486335,0.0,0.0,0.0,-2.2670192265873776,-3.5960422354517365,-3.454738226856117,-0.0040933406222562665,-0.004681196210248095,-0.7080833257623833
10973,13.0,300.10669,30666.888,0.0,-0.05486470892888762,-0.05486397805767351,0.0,0.0,0.0,-2.279162522410828,-3.5929746207739863,-3.4498311579468264,0.0006388745847745124,-0.005267718361108326,-0.7097896794607873
10974,13.0,300.03397,30685.563,0.0,-0.05486969042756851,-0.05486898026786047,0.0,0.0,0.0,-2.2818790459289273,-3.5940320485783466,-3.4517337376595965,-0.0004344878439706116,-0.008307261248812852,-0.7045861335722373
10975,13.0,300.13948,30682.206000000002,0.0,-0.05487470491630686,-0.05487398247804742,0.0,0.0,0.0,-2.2762419303225876,-3.5971561012866666,-3.453226457706917,0.0028047910780363275,0.006214704235043555,-0.7099219896588453
10976,13.0,300.07453,30651.313,0.0,-0.054879719405045324,-0.0548789846882346,0.0,0.0,0.0,-2.267520582736858,-3.5932184087480468,-3.456494594579457,-0.001021382343977589,-0.002910546118798537,-0.7097435461837343
10977,13.0,299.93709,30673.512000000002,0.0,-0.05488470090372621,-0.054883986898421555,0.0,0.0,0.0,-2.274419802667758,-3.5958239813801964,-3.4537379463573967,-0.005497380716849235,-0.0027141887872195775,-0.7107080690864254
10978,13.0,300.05134,30645.12,0.0,-0.054889715392464455,-0.05488898910860873,0.0,0.0,0.0,-2.274649405140418,-3.590858954565187,-3.449843012972997,-0.0003331195073963357,-0.005458733838160085,-0.7105779981710884
10979,13.0,299.83502000000004,30593.216,0.0,-0.05489469689114557,-0.05489395840951827,0.0,0.0,0.0,-2.269526716609848,-3.5869600695053965,-3.4430870666062363,0.007672011495343582,0.009266104175418281,-0.7122565888167524
10980,13.0,299.7775,30677.107000000004,0.0,-0.05489971137988392,-0.05489896061970523,0.0,0.0,0.0,-2.2695650174636275,-3.601127636378626,-3.4543818667959467,0.008105653761840742,0.002470652200509388,-0.7142348988419963
10981,13.0,299.84325,30733.053,0.0,-0.05490469287856492,-0.054903962829892405,0.0,0.0,0.0,-2.2788466923546578,-3.5962732564745363,-3.4669606575123764,-0.0005693799856684294,-0.0035132270756285167,-0.7078219275015853
10982,13.0,299.76544,30723.201,0.0,-0.05490970736730327,-0.05490896504007958,0.0,0.0,0.0,-2.273876295314118,-3.6055598962910564,-3.4596497540658464,-0.0011953502933968888,-0.003844876600309777,-0.7146934350422502
10983,13.0,299.75779,30720.745,0.0,-0.05491468886598416,-0.05491396725026654,0.0,0.0,0.0,-2.2767395374466974,-3.597380637508827,-3.4642190053917967,-0.004309782901292456,0.0027276268140208073,-0.7050353073415673
10984,13.0,300.08601,30711.317000000003,0.0,-0.05491970335472263,-0.054918969460453715,0.0,0.0,0.0,-2.2773934890612377,-3.601384596603986,-3.456695319424267,-0.0015810153703090686,0.0025888830857778676,-0.7111357112911303
10985,13.0,299.92996,30691.896,0.0,-0.05492471784346098,-0.05492397167064078,0.0,0.0,0.0,-2.2826506358800778,-3.5967083460674765,-3.450210924084307,-0.006301136089773713,-0.0007940964852862213,-0.7048052793038653
10986,13.0,299.91261000000003,30723.33,0.0,-0.05492969934214187,-0.05492897388082796,0.0,0.0,0.0,-2.2862877984390377,-3.595416553514986,-3.457420705170857,0.0018744720536709883,-0.0036217831449671663,-0.7113934010565622
10987,13.0,300.01296,30702.267999999996,0.0,-0.05493471383088033,-0.054933976091015135,0.0,0.0,0.0,-2.2782823120489577,-3.5970505206262464,-3.457390206342847,0.001292035935164019,0.0067592438878854326,-0.7087794893760894
10988,13.0,300.09254,30636.476000000002,0.0,-0.05493969532956111,-0.05493897830120209,0.0,0.0,0.0,-2.2654409882316178,-3.593599998735707,-3.4536827242269466,0.005573448846906574,-0.0003889395668628467,-0.7182687285501044
10989,13.0,300.0827,30717.818,0.0,-0.054944709818299575,-0.054943980511389046,0.0,0.0,0.0,-2.270094339315868,-3.6014946355648467,-3.4658605718788067,0.0017455931257516282,-0.008112428959959402,-0.7114699824991203
10990,13.0,300.09808,30818.977000000003,0.0,-0.054949691316980465,-0.054948982721576,0.0,0.0,0.0,-2.2941779769677377,-3.6109977056027267,-3.4630239782238568,0.0012937962545627488,-0.00012102563169429987,-0.7161247622660113
10991,13.0,299.88883,30764.626,0.0,-0.05495470580571871,-0.05495398493176318,0.0,0.0,0.0,-2.2847488741871578,-3.6056510888000566,-3.4612780469765467,0.0006716480781990044,0.007571690818842703,-0.7090036405632113
10992,13.0,300.08783999999997,30696.013,0.0,-0.05495972029445728,-0.054958987141950355,0.0,0.0,0.0,-2.2751620083660082,-3.600506818042357,-3.4551525448220066,0.0019050192137107583,0.0025663096974000476,-0.7140080220121053
10993,13.0,300.05097,30746.45,0.0,-0.05496470179313817,-0.054963956442859896,0.0,0.0,0.0,-2.273273816804658,-3.6043285947695365,-3.468550852219317,-0.006676625298581614,-0.003946580768497196,-0.7110145367116714
10994,13.0,300.02594,30771.769,0.0,-0.05496971628187641,-0.05496895865304685,0.0,0.0,0.0,-2.2809069337829877,-3.6038609798483865,-3.4690813899716764,-0.0013683215086928186,-0.005158624863916635,-0.7155548496147653
10995,13.0,300.16826000000003,30752.118,0.0,-0.054974697780557524,-0.05497396086323403,0.0,0.0,0.0,-2.2804291863608377,-3.6040838948703864,-3.463362809057297,-0.0034307915806177664,0.004139806346667076,-0.7130718498472124
10996,13.0,300.03682000000003,30682.097,0.0,-0.05497971226929588,-0.054978963073421094,0.0,0.0,0.0,-2.2779934344454476,-3.5954694451702065,-3.4531284764222465,-0.00029774324804247073,-0.0007659337357792742,-0.7193773052195123
10997,13.0,299.7742,30697.517999999996,0.0,-0.05498469376797688,-0.05498396528360816,0.0,0.0,0.0,-2.2789473080895877,-3.5987957425984867,-3.4535359042874565,-0.0023019992544896376,-0.006551659542548454,-0.7113477946695613
10998,13.0,299.90033,30796.242000000002,0.0,-0.05498970825671523,-0.05498896749379523,0.0,0.0,0.0,-2.285059536667818,-3.611311306508676,-3.4649177426607567,0.004007792422938316,-0.0006361846894690404,-0.7164813249762013
10999,13.0,299.65646,30815.552000000003,0.0,-0.05499468975539612,-0.054993969703982404,0.0,0.0,0.0,-2.288838858215808,-3.6057975034395064,-3.472522083336247,0.0008800269939994022,0.004268126467156286,-0.7107991501379144
11000,13.0,299.7262,30759.914,0.0,-0.054999704244134584,-0.05499897191416958,0.0,0.0,0.0,-2.2748888361390476,-3.607721766704417,-3.4676351781039463,0.0008639922706368983,-0.005559454647125454,-0.7144327156590192
11001,13.0,299.93897000000004,30709.569,0.0,-0.05500471873287294,-0.055003974124356536,0.0,0.0,0.0,-2.2799216493857477,-3.599623973230227,-3.4553965354460865,0.0021638495947803277,-0.005898522277113824,-0.7102451556457394
11002,13.0,299.90315,30772.356,0.0,-0.055009700231553826,-0.05500897633454371,0.0,0.0,0.0,-2.284240323961968,-3.6087190074528364,-3.4610685068558666,0.0028858560509618172,0.0016837574105739185,-0.7155106415129023
11003,13.0,300.06099,30836.467999999997,0.0,-0.05501471472029229,-0.05501397854473067,0.0,0.0,0.0,-2.295242193547768,-3.610096926263827,-3.468177266907447,0.008613802436016112,0.006810336720202904,-0.7109118843440403
11004,13.0,300.07578,30773.651,0.0,-0.05501969621897296,-0.055018980754917846,0.0,0.0,0.0,-2.2810999579270375,-3.606291969488306,-3.467029659844187,-0.0002849828119806137,0.003621941211982767,-0.7109497393677763
11005,13.0,299.93601,30718.539,0.0,-0.05502471070771153,-0.0550239829651048,0.0,0.0,0.0,-2.272987371001388,-3.602920379780557,-3.4617610632992166,-0.003605402538550527,-0.007498223499142043,-0.7159224060885403
11006,13.0,299.8723,30803.702999999998,0.0,-0.05502969220639242,-0.05502898517529187,0.0,0.0,0.0,-2.2818385159249277,-3.6109320469962465,-3.4707858792898967,-0.004779569116081746,-0.0028962645612890573,-0.7181855001868903
11007,13.0,300.20392999999996,30855.624,0.0,-0.055034706695130664,-0.055033987385479044,0.0,0.0,0.0,-2.295264485049968,-3.6120032550019667,-3.472071389691767,3.7603813704957464e-06,0.00032836814462991264,-0.7205256924853493
11008,13.0,300.08867999999995,30818.537,0.0,-0.055039688193811775,-0.055038956686388474,0.0,0.0,0.0,-2.2937097540965277,-3.6113135356588963,-3.4630426220256965,-0.005409965502897025,-0.0028671630051669574,-0.7144478029530084
11009,13.0,299.96628,30775.95,0.0,-0.05504470268255002,-0.05504395889657554,0.0,0.0,0.0,-2.2826567153806776,-3.609009202281477,-3.4634544068663367,0.0005019504713261546,-0.005153718200307385,-0.7163044520387454
11010,13.0,299.92837000000003,30785.881,0.0,-0.05504971717128837,-0.05504896110676272,0.0,0.0,0.0,-2.282400464430388,-3.6070210029352565,-3.468717633185777,-0.0025061546601632075,0.004360511368873965,-0.7071003921053753
11011,13.0,299.97733999999997,30811.87,0.0,-0.05505469866996948,-0.05505396331694967,0.0,0.0,0.0,-2.276430090866158,-3.6136032782348764,-3.476005738505057,0.006895404942948482,0.005495749080213204,-0.7144058949288723
11012,13.0,299.86863,30866.557999999997,0.0,-0.055059713158707946,-0.05505896552713685,0.0,0.0,0.0,-2.287955405453618,-3.616258398796917,-3.4784489884711864,0.0019181175990784683,-0.0007148974225523823,-0.7070639454992783
11013,13.0,299.90435,30851.338,0.0,-0.055064694657388835,-0.05506396773732403,0.0,0.0,0.0,-2.2926046022124575,-3.612433582319436,-3.4729983108832463,-0.0003044345186553477,-0.002760179803958537,-0.7113596294307294
11014,13.0,299.92046,30808.28,0.0,-0.05506970914612719,-0.05506896994751098,0.0,0.0,0.0,-2.289230276729438,-3.6132239173974363,-3.4624937444465265,-0.001831978877602238,0.0027334015289907274,-0.7133792091325464
11015,13.0,300.05082000000004,30838.952999999998,0.0,-0.05507469064480808,-0.05507397215769816,0.0,0.0,0.0,-2.2891572213972275,-3.616300246026047,-3.4688140945952965,0.0023854520526007876,0.004929573295336006,-0.7171562610003123
11016,13.0,299.94212000000005,30923.533,0.0,-0.05507970513354654,-0.055078974367885114,0.0,0.0,0.0,-2.295816199729418,-3.6236674861781366,-3.4804982867984364,-0.0025092027191140273,-0.0014329969586007888,-0.7117075288525644
11017,13.0,300.03962,30869.368,0.0,-0.05508471962228478,-0.05508397657807229,0.0,0.0,0.0,-2.2886576890979278,-3.6131960530196863,-3.481663220438407,-0.002354172718038758,-0.0028034452792535074,-0.7111740932049183
11018,13.0,300.11042000000003,30780.914,0.0,-0.055089701120965784,-0.05508897878825947,0.0,0.0,0.0,-2.2782587033216277,-3.612529537103907,-3.465841016151876,0.0013363363441111287,0.006805580625558513,-0.7180929904527603
11019,13.0,300.03213,30787.42,0.0,-0.05509471560970425,-0.055093980998446423,0.0,0.0,0.0,-2.285322069768728,-3.6095771289625262,-3.4637077193913366,0.004128053050807116,-0.001165145003940859,-0.7088357754191443
11020,13.0,299.89668,30866.104,0.0,-0.055099697108384915,-0.05509898320863349,0.0,0.0,0.0,-2.2949933393232076,-3.615951485341627,-3.471579862068257,0.006526925904957433,-0.007419820536879273,-0.7207932614392563
11021,13.0,299.78685,30924.158,0.0,-0.05510471159712338,-0.055103985418820445,0.0,0.0,0.0,-2.293451273996018,-3.625423549926446,-3.481296930527257,-0.003712719099041846,-0.01068409408943799,-0.7090167824170083
11022,13.0,299.86163999999997,30874.398999999998,0.0,-0.05510969309580427,-0.0551089547197301,0.0,0.0,0.0,-2.286388920799018,-3.6178085701249065,-3.4808487700080266,0.0012908805260749888,0.004578103484123635,-0.7176679928308163
11023,13.0,299.7806,30822.188,0.0,-0.05511470758454262,-0.055113956929917274,0.0,0.0,0.0,-2.274495897750268,-3.617813535050397,-3.476866089164967,-0.0030116385879005877,0.0014559528488913586,-0.7095624378608604
11024,13.0,299.98426,30835.328999999998,0.0,-0.05511968908322373,-0.05511895914010434,0.0,0.0,0.0,-2.281867798852818,-3.6194615863380464,-3.4718406726439968,-4.739890444815766e-05,0.0017331523396988183,-0.7190010246623763
11025,13.0,299.81736,30952.993,0.0,-0.0551247035719622,-0.055123961350291295,0.0,0.0,0.0,-2.3071602438739878,-3.6233765820744264,-3.4784002511413767,-0.00016875628739744885,-0.003285765093804767,-0.7114216909993543
11026,13.0,299.91738,30944.267999999996,0.0,-0.05512971806070044,-0.05512896356047847,0.0,0.0,0.0,-2.307893634296368,-3.622131196376517,-3.4762599629551465,0.008004896779846803,0.004427070552042845,-0.7195368313152564
11027,13.0,299.95316,30812.517999999996,0.0,-0.05513469955938144,-0.05513396577066543,0.0,0.0,0.0,-2.287533690761998,-3.6159921166706366,-3.462710275992897,0.0010950278943708388,-0.0003298589597670447,-0.7164316453237983
11028,13.0,300.05002,30793.25,0.0,-0.0551397140481199,-0.055138967980852605,0.0,0.0,0.0,-2.2799513376136775,-3.608964923252107,-3.4714629330067166,-0.0011587594004856489,-0.002905593858934787,-0.7166263818605173
11029,13.0,299.97727000000003,30931.757,0.0,-0.05514469554680079,-0.05514397019103956,0.0,0.0,0.0,-2.2908798478922376,-3.623491484635767,-3.488110429499697,-0.002128220985489058,0.0034390585868586568,-0.7138350602200353
11030,13.0,300.08822999999995,30944.362999999998,0.0,-0.055149710035539035,-0.05514897240122674,0.0,0.0,0.0,-2.299803744172958,-3.6225165353895465,-3.4839934930183865,-0.0028229925962076773,0.011931412055288687,-0.7165493545879152
11031,13.0,300.32162999999997,30885.257999999998,0.0,-0.055154691534219924,-0.055153974611413914,0.0,0.0,0.0,-2.2944058569152275,-3.620778000867966,-3.473163470649547,-0.0014615954360482385,0.0029274957664713374,-0.7191807144351103
11032,13.0,300.11315,30871.546000000002,0.0,-0.0551597060229585,-0.05515897682160087,0.0,0.0,0.0,-2.288405491148038,-3.624839309918787,-3.470934320429547,-0.005492025892720754,-0.00825851267192674,-0.7177609889249943
11033,13.0,300.03938999999997,30930.185,0.0,-0.055164687521639166,-0.055163979031788046,0.0,0.0,0.0,-2.290801321009488,-3.6244462702049964,-3.4867563220660567,0.0041621903586012065,-0.0067443189165624536,-0.7190279973800383
11034,13.0,299.98997,30977.708,0.0,-0.05516970201037763,-0.05516898124197511,0.0,0.0,0.0,-2.2950257633264077,-3.633125973211617,-3.4882980834182167,0.009211581187537283,0.003064627515130187,-0.7159852579922433
11035,13.0,299.90386,30935.313,0.0,-0.055174716499116205,-0.05517398345216229,0.0,0.0,0.0,-2.2895381021098182,-3.6251973925041265,-3.488827405270457,0.005340580365199245,-0.0001938174986132978,-0.7154199961589564
11036,13.0,299.96663,30876.37,0.0,-0.05517969799779687,-0.05517895275307172,0.0,0.0,0.0,-2.290415475371408,-3.619038655746307,-3.4761914672483867,-0.007943030261866053,-0.005540349613839935,-0.7109391306392294
11037,13.0,299.94959,30854.727000000003,0.0,-0.05518471248653534,-0.055183954963258786,0.0,0.0,0.0,-2.292158670843448,-3.621721336711067,-3.4651865579122867,-0.0038890201581414058,0.0003209903160142777,-0.7207650829539753
11038,13.0,299.73009,30958.152000000002,0.0,-0.05518969398521645,-0.05518895717344596,0.0,0.0,0.0,-2.3030078436391777,-3.6223570498238065,-3.4851403908065763,-0.0024723144372984377,0.009064732269094421,-0.7156272362019093
11039,13.0,299.87979,31009.109,0.0,-0.05519470847395469,-0.05519395938363292,0.0,0.0,0.0,-2.306098053794158,-3.6331275944117767,-3.486769392992347,-0.002096949047652758,0.0035543588488629063,-0.7241981769427953
11040,13.0,299.99823,30887.269,0.0,-0.05519968997263558,-0.05519896159381987,0.0,0.0,0.0,-2.285190144605708,-3.623699707531317,-3.4800686687560365,-0.006515122149242494,-0.008090810762450853,-0.7199982654107964
11041,13.0,300.01596,30884.679,0.0,-0.055204704461374154,-0.05520396380400705,0.0,0.0,0.0,-2.285857065821528,-3.6245692787671366,-3.4777446783266766,0.0035949242152913965,0.00028971025191217573,-0.7247029072151083
11042,13.0,300.05279,31017.069,0.0,-0.055209718950112396,-0.055208966014194005,0.0,0.0,0.0,-2.304822473243268,-3.633692683992546,-3.4898993225512465,0.004905747428509575,0.01024327152743219,-0.7132761919948793
11043,13.0,300.02077,30997.129,0.0,-0.055214700448793286,-0.05521396822438118,0.0,0.0,0.0,-2.3026197688508776,-3.632325708282636,-3.487407740555347,0.00884581816643928,0.0006052205871456215,-0.7187787885179433
11044,13.0,300.04195,30956.988999999998,0.0,-0.05521971493753186,-0.05521897043456836,0.0,0.0,0.0,-2.289551173036108,-3.633065887480686,-3.487534599467867,-0.006310933610290654,-0.005555784655263255,-0.7125297711762133
11045,13.0,300.24433,30937.211,0.0,-0.05522469643621275,-0.055223972644755315,0.0,0.0,0.0,-2.291663394194568,-3.6274267453741467,-3.485049400947597,-1.929498322876658e-05,0.0005723642402604524,-0.7154636267082622
11046,13.0,300.28872,30947.801,0.0,-0.05522971092495099,-0.05522897485494249,0.0,0.0,0.0,-2.289508920506938,-3.6307127154484466,-3.4871371014536368,0.0036505724174084467,0.0005934094043074485,-0.7147495488327883
11047,13.0,300.01563,30985.161,0.0,-0.05523469242363188,-0.05523397706512956,0.0,0.0,0.0,-2.2992786779711376,-3.6319329725438765,-3.4875035940148065,0.002773883302285967,-0.005368312007186145,-0.7205129457990913
11048,13.0,300.05048999999997,31008.678,0.0,-0.055239706912370345,-0.055238979275316735,0.0,0.0,0.0,-2.3060623873906376,-3.6313365735350165,-3.488464763059667,-0.0050130003568946155,-0.0076652256580988735,-0.7181715983955184
11049,13.0,300.04363,30948.707000000002,0.0,-0.055244688411051124,-0.05524398148550391,0.0,0.0,0.0,-2.2950159348004378,-3.6317258642234362,-3.4808924410873363,-0.0003700401321551176,0.001122976067904109,-0.7215299955869664
11050,13.0,300.06861000000004,30935.819,0.0,-0.05524970289978959,-0.05524898369569087,0.0,0.0,0.0,-2.2915454518829277,-3.6308623724882167,-3.4813086842284173,1.8948468919818284e-05,0.007622992785980812,-0.7248463226342623
11051,13.0,299.97733,31037.708,0.0,-0.05525471738852805,-0.05525395299660041,0.0,0.0,0.0,-2.304790758515138,-3.631387742665067,-3.4985096179260164,0.00012310372658939187,-0.0036641304130215165,-0.7199531960463483
11052,13.0,299.74279,31056.812,0.0,-0.05525969888720894,-0.055258955206787586,0.0,0.0,0.0,-2.3034323954310776,-3.6349004781117467,-3.502162384536517,-0.002967953323089187,-0.0077553388530923525,-0.7228621458909393
11053,13.0,299.88141,30980.086,0.0,-0.055264713375947294,-0.05526395741697454,0.0,0.0,0.0,-2.2949880704226877,-3.631155505742146,-3.491029096412747,-0.006757197426658463,-0.0007798960181822442,-0.7146554280309994
11054,13.0,300.07375,30952.542999999998,0.0,-0.055269694874628406,-0.05526895962716172,0.0,0.0,0.0,-2.294164804716438,-3.6299821621263466,-3.4846532201584965,-0.0006095696693573425,0.0025598154735341173,-0.7201370705419953
11055,13.0,300.07512,31003.078999999998,0.0,-0.05527470936336665,-0.05527396183734867,0.0,0.0,0.0,-2.2975414606746876,-3.6357620446717767,-3.4908583637708963,-0.0012780663573603288,0.0002947930589188097,-0.7122501242811143
11056,13.0,300.06647999999996,31027.502,0.0,-0.05527969086204754,-0.05527896404753563,0.0,0.0,0.0,-2.302204538959898,-3.632309394956026,-3.497072018684136,0.0018124553720254182,0.0012826636757140488,-0.7183405882471963
11057,13.0,300.01488,31011.053,0.0,-0.05528470535078611,-0.055283966257722805,0.0,0.0,0.0,-2.2940468624047976,-3.6376429408324067,-3.494895760119357,0.006293688194913665,0.0028820176569329973,-0.7158168152956194
11058,13.0,299.84468,31016.626,0.0,-0.055289686849467,-0.05528896846790987,0.0,0.0,0.0,-2.299551850198098,-3.637042691473167,-3.491685378502517,0.0007581329867044003,0.0015847507168027185,-0.7284411313390423
11059,13.0,299.89487,31049.626,0.0,-0.05529470133820524,-0.05529397067809694,0.0,0.0,0.0,-2.303520852164808,-3.637599979028167,-3.4971900623207866,-0.004683017324652826,-0.00964361491950069,-0.7204663565594933
11060,13.0,299.6965,31043.482999999997,0.0,-0.05529971582694371,-0.055298972888284004,0.0,0.0,0.0,-2.308954304501048,-3.6380303063456365,-3.4894590653827966,0.0015355412124461185,-0.004624882606790376,-0.7290751016616104
11061,13.0,299.82534,31081.175,0.0,-0.0553046973256246,-0.05530397509847118,0.0,0.0,0.0,-2.307863034143348,-3.6373673368052066,-3.502670732111687,-0.0037135647575753062,0.008080341761092642,-0.7161425346727653
11062,13.0,299.82796,31029.511000000002,0.0,-0.05530971181436295,-0.05530897730865836,0.0,0.0,0.0,-2.3042512028368876,-3.6306686390690968,-3.4972767965293463,0.0025851985031142277,0.005122659956917175,-0.7218110711647063
11063,13.0,299.96153,30992.365,0.0,-0.05531469331304384,-0.05531397951884531,0.0,0.0,0.0,-2.292022186054978,-3.6306558721178366,-3.4982271237981366,-0.0006893830656268114,-0.0045657097128754655,-0.7164189290350433
11064,13.0,300.11426,31051.276,0.0,-0.0553197078017823,-0.05531898172903249,0.0,0.0,0.0,-2.305215107657018,-3.6350787088043366,-3.498518737176917,0.0038929648421057164,-0.00017974794342224084,-0.7205790097056113
11065,13.0,300.18543,31076.576,0.0,-0.05532468930046319,-0.05532395102994203,0.0,0.0,0.0,-2.310806627008858,-3.6392272586887664,-3.4964693375246565,0.005152164381279035,0.0024910950279019377,-0.7163914598248323
11066,13.0,300.05697000000004,31050.826,0.0,-0.055329703789201545,-0.055328953240128986,0.0,0.0,0.0,-2.307348404417558,-3.644624234021407,-3.486703025110797,0.000920581457856816,-0.0014370867399794186,-0.7230279237398003
11067,13.0,300.13723,31067.947999999997,0.0,-0.05533471827794001,-0.055333955450316163,0.0,0.0,0.0,-2.306035333612968,-3.6477097832259266,-3.490135105849517,-0.0059932648091641835,-0.007933854978235523,-0.7194397619556763
11068,13.0,299.8907,31059.896,0.0,-0.0553396997766209,-0.05533895766050312,0.0,0.0,0.0,-2.3065461129883778,-3.6402700956916867,-3.494616609716807,-0.0022815092096424277,-0.004738035994482746,-0.7164202259951713
11069,13.0,299.9483,31057.716,0.0,-0.05534471426535925,-0.055343959870690296,0.0,0.0,0.0,-2.298052949325168,-3.6426254968741465,-3.5000918079571672,0.0049410064041643656,0.004134588412627106,-0.7238490008258343
11070,13.0,299.97011000000003,31062.292999999998,0.0,-0.05534969576404025,-0.05534896208087725,0.0,0.0,0.0,-2.3025929177232274,-3.638377547154907,-3.501190981665647,0.00025949280345494575,0.00035842930939171863,-0.7205027119730814
11071,13.0,300.04168,31047.031000000003,0.0,-0.055354710252778605,-0.05535396429106432,0.0,0.0,0.0,-2.304904850476398,-3.638486370215647,-3.4941309589438765,-0.0007069193243125052,0.0001009152273415575,-0.7304395239812683
11072,13.0,300.0442,31058.307,0.0,-0.055359691751459494,-0.055358966501251494,0.0,0.0,0.0,-2.3062241021065977,-3.6408121844951866,-3.4939135154724164,-0.0009637006299698472,0.0025670890893769675,-0.7234703289984623
11073,13.0,300.09697,31088.381,0.0,-0.05536470624019796,-0.05536396871143845,0.0,0.0,0.0,-2.3119486611965683,-3.641245754212976,-3.496896929066857,0.0014290905754902588,0.012569815347044187,-0.7237963624831394
11074,13.0,300.19481,31141.595,0.0,-0.05536968773887885,-0.055368970921625627,0.0,0.0,0.0,-2.3105135950799376,-3.6511481461152666,-3.504605533177636,-0.0022094351088292677,0.0013778927704624286,-0.7146510811880703
11075,13.0,300.25349,31100.074,0.0,-0.0553747022276172,-0.055373973131812804,0.0,0.0,0.0,-2.2982942041739776,-3.6497436801516563,-3.505608042826576,-0.005831187856293434,-0.0077724206285781925,-0.7230164841461713
11076,13.0,300.04638,31087.623,0.0,-0.055379716716355665,-0.05537897534199976,0.0,0.0,0.0,-2.298484492542758,-3.6480568213851763,-3.5033196174757264,-0.0027996276568517373,-0.0007367737455239073,-0.7166494434327934
11077,13.0,300.08441,31144.897999999997,0.0,-0.055384698215036554,-0.055383977552186936,0.0,0.0,0.0,-2.3181666730852375,-3.6524194710157367,-3.496685261120967,0.004851861470966445,0.0009781432638477242,-0.7246539165727733
11078,13.0,300.03201,31143.002999999997,0.0,-0.05538971270377491,-0.05538897976237389,0.0,0.0,0.0,-2.3159416771906476,-3.6485126826051664,-3.5022408100942566,0.0036373417015776763,-0.002891687102637297,-0.7195740479914293
11079,13.0,299.85879,31052.863999999998,0.0,-0.055394694202455796,-0.05539394906328343,0.0,0.0,0.0,-2.304801701616218,-3.6457269541052364,-3.4887665089394466,-0.003701150620000126,-0.008204752560046031,-0.7264093014435163
11080,13.0,299.97647,31034.936,0.0,-0.05539970869119426,-0.05539895127347061,0.0,0.0,0.0,-2.2888370343656277,-3.6401681627316265,-3.504840404550817,0.003800220540577566,-0.001020163100132259,-0.7139797523343153
11081,13.0,299.93946,31110.092,0.0,-0.05540469018987515,-0.055403953483657564,0.0,0.0,0.0,-2.3024738608364776,-3.6440077726605664,-3.510209616830717,0.0024731012260010878,0.004228265917497355,-0.7211778506472123
11082,13.0,299.76172,31168.891,0.0,-0.0554097046786135,-0.05540895569384474,0.0,0.0,0.0,-2.308843556265118,-3.652665386815007,-3.5130557350366067,0.0011872852279009288,-0.0027140822946340676,-0.7208380369611753
11083,13.0,299.87746,31144.389,0.0,-0.0554146861772945,-0.05541395790403192,0.0,0.0,0.0,-2.3186867743615682,-3.6459610148783366,-3.5024687913667565,-0.006329491285872154,-0.006284984680529694,-0.7267729163744023
11084,13.0,299.86638999999997,31120.212000000003,0.0,-0.055419700666032856,-0.055418960114218874,0.0,0.0,0.0,-2.3116015217123076,-3.646227195679607,-3.5019386589144363,-0.0024442304882517675,0.006252260248675045,-0.7210486308619592
11085,13.0,299.67505,31114.509,0.0,-0.05542471515477132,-0.05542396232440605,0.0,0.0,0.0,-2.310602659763728,-3.6466503289213668,-3.5007808180251665,-0.0017173924502934383,0.006601598283002024,-0.7262819257734453
11086,13.0,299.72798,31155.857999999997,0.0,-0.05542969665345221,-0.05542896453459312,0.0,0.0,0.0,-2.310548754858408,-3.6471637427470363,-3.5128904739452964,0.003077360927811877,-0.0025088192039511774,-0.7201144649322643
11087,13.0,299.76342,31148.453999999998,0.0,-0.05543471114219056,-0.05543396674478007,0.0,0.0,0.0,-2.3062831745874277,-3.649329868810817,-3.5127392970303766,-0.0036662613793068265,0.00020627991755574283,-0.7199279458538563
11088,13.0,299.98107000000005,31095.104,0.0,-0.05543969264087145,-0.05543896895496725,0.0,0.0,0.0,-2.305993790358868,-3.644273649486807,-3.501867832732447,0.004122272155011587,0.0032753930604811268,-0.7198854400121613
11089,13.0,300.01361,31130.993,0.0,-0.055444707129609916,-0.055443971165154204,0.0,0.0,0.0,-2.310040508608248,-3.6521337344875366,-3.500870288008997,-0.0027072036436801977,0.004113998967945087,-0.7256743404834813
11090,13.0,300.07085,31230.703999999998,0.0,-0.055449688628290805,-0.05544897337534138,0.0,0.0,0.0,-2.328313663561668,-3.6568594316289262,-3.5081811914555265,-0.005295775661677365,-0.003984136782128687,-0.7247817988678943
11091,13.0,299.97502000000003,31231.616,0.0,-0.05545470311702916,-0.05545397558552834,0.0,0.0,0.0,-2.315942791765758,-3.658667981732416,-3.519020535725287,-0.004050260571729596,-0.007219331678017563,-0.7233140959655433
11092,13.0,300.02681,31145.156000000003,0.0,-0.05545971760576762,-0.055458977795715514,0.0,0.0,0.0,-2.302097742399358,-3.6513934539644763,-3.5138585330908367,0.004351872702496396,0.003457797127583007,-0.7176712757611403
11093,13.0,300.10369,31157.453999999998,0.0,-0.05546469910444851,-0.055463947096625055,0.0,0.0,0.0,-2.300862793177478,-3.653779353974947,-3.5164457658961763,0.005574031263064056,0.004341584464956026,-0.7239989213106304
11094,13.0,299.9827,31181.533,0.0,-0.055469713593186865,-0.05546894930681201,0.0,0.0,0.0,-2.324299977265548,-3.648651193893836,-3.5054561566365865,0.0025447744850746875,-0.0008385260734885802,-0.7227736486272053
11095,13.0,299.76875,31177.522,0.0,-0.055474695091867754,-0.05547395151699919,0.0,0.0,0.0,-2.3175793933272777,-3.6539183718886665,-3.5056906227097264,-0.0033844792622720965,-0.002812101373532797,-0.7292600096723593
11096,13.0,299.67093,31136.621,0.0,-0.05547970958060622,-0.055478953727186364,0.0,0.0,0.0,-2.320831824823268,-3.6458552315678965,-3.498068144857447,0.001176627052749049,0.002178872142087938,-0.7256272952813383
11097,13.0,299.8462,31139.728,0.0,-0.05548469107928711,-0.05548395593737332,0.0,0.0,0.0,-2.3057205168068977,-3.6540239525490863,-3.505955384960857,-0.0038045711325319365,-0.0039547084528493365,-0.7266258532548884
11098,13.0,299.96637999999996,31152.347999999998,0.0,-0.05548970556802557,-0.055488958147560496,0.0,0.0,0.0,-2.305763579936148,-3.654315160627826,-3.509457177306457,-0.001351330013790889,-0.005209294562992345,-0.7268122811407873
11099,13.0,300.01568,31235.817000000003,0.0,-0.05549468706670646,-0.05549396035774756,0.0,0.0,0.0,-2.313857016434908,-3.661157233253087,-3.519894058636497,-0.0005793151359464524,-0.0032621381279729664,-0.7201108678944093
11100,13.0,300.01249,31267.117000000002,0.0,-0.055499701555444814,-0.05549896256793474,0.0,0.0,0.0,-2.3252417932334977,-3.6640475291633368,-3.5151334043666562,0.0024584513520802577,0.007634346152026304,-0.7199151687700953
11101,13.0,300.01464,31204.43,0.0,-0.05550471604418328,-0.055503964778121695,0.0,0.0,0.0,-2.3172217160419772,-3.6587704213175263,-3.5093754080233865,-0.005774318890455905,0.005001271581687075,-0.7238882440022073
11102,13.0,300.29368999999997,31238.972,0.0,-0.05550969754286417,-0.05550896698830865,0.0,0.0,0.0,-2.321526914391868,-3.6609445520570962,-3.5133960857451965,-0.002158651621767328,0.005812826345931295,-0.7245393686489683
11103,13.0,300.20215,31248.042,0.0,-0.05551471203160252,-0.05551396919849583,0.0,0.0,0.0,-2.3166314978587277,-3.659596726774076,-3.5223962797584467,-0.0023229120272785678,0.0005583008050999994,-0.7203085124589153
11104,13.0,299.95047,31193.978,0.0,-0.05551969353028341,-0.05551897140868278,0.0,0.0,0.0,-2.304802512216298,-3.6545821520291764,-3.5228057341238563,0.002914170311756217,0.0012027632311284889,-0.7222665473496583
11105,13.0,299.74997,31194.636000000002,0.0,-0.05552470801902187,-0.05552397361886996,0.0,0.0,0.0,-2.3111595420186877,-3.6601367890773764,-3.5110940828430066,-0.002234300266283268,-0.008432219405470263,-0.7277801882988123
11106,13.0,299.98301000000004,31205.475,0.0,-0.05552968951770276,-0.05552897582905714,0.0,0.0,0.0,-2.3210066104655183,-3.656483313191807,-3.5081951743069064,0.002409286734703088,-0.005382888825774765,-0.7247970989444042
11107,13.0,300.18343,31221.397999999997,0.0,-0.055534704006441005,-0.05553397803924409,0.0,0.0,0.0,-2.324795355239438,-3.6613925099263067,-3.504337629851197,-0.0003434636763422257,0.0014514053824425585,-0.7301327726459943
11108,13.0,300.0091,31223.836,0.0,-0.055539685505122005,-0.05553894734015363,0.0,0.0,0.0,-2.321467132635968,-3.659643944228736,-3.510155407950367,0.0016614477711971284,0.003974561771333707,-0.7221518575708393
11109,13.0,299.76487000000003,31269.107000000004,0.0,-0.05554469999386047,-0.05554394955034081,0.0,0.0,0.0,-2.3180364704473875,-3.6666228056174965,-3.5203685636583266,0.0014842827137372984,-0.0032708438715071566,-0.7309242932266112
11110,13.0,299.98003,31289.417999999998,0.0,-0.05554971448259871,-0.055548951760527876,0.0,0.0,0.0,-2.3089773052783182,-3.6717406305475864,-3.530483738081617,-0.0017880779931695582,-0.0012794993969767587,-0.7250139851283093
11111,13.0,300.05844,31236.679,0.0,-0.05555469598127982,-0.05555395397071494,0.0,0.0,0.0,-2.315472035769298,-3.6588041625458567,-3.5208941364851962,0.0038647031689915067,-0.0025482615852938377,-0.7271528446318983
11112,13.0,299.88718,31251.106,0.0,-0.055559710470018175,-0.05555895618090201,0.0,0.0,0.0,-2.3205345372439274,-3.660319579395417,-3.5187019698938466,-0.008257891448290432,-0.0014418674566012385,-0.7166312961235023
11113,13.0,299.75402,31254.137000000002,0.0,-0.055564691968699065,-0.055563958391089185,0.0,0.0,0.0,-2.326686079926038,-3.6585577401215366,-3.515233310826517,-0.0033655514464290665,-0.00019290787360102483,-0.7279108772967102
11114,13.0,299.7439,31235.656000000003,0.0,-0.05556970645743753,-0.05556896060127636,0.0,0.0,0.0,-2.315307281303038,-3.6627237179076864,-3.516828571783957,-0.0025529501974815676,0.0002056126923648928,-0.7234688091233122
11115,13.0,300.06021,31260.346,0.0,-0.05557468795611842,-0.05557396281146332,0.0,0.0,0.0,-2.3144295027414077,-3.6639409352528163,-3.5239939725161262,0.008198719871600653,0.0015569841176873685,-0.7283532622903702
11116,13.0,300.16503,31310.481,0.0,-0.05557970244485677,-0.055578965021650495,0.0,0.0,0.0,-2.3211493774046077,-3.6655535227869667,-3.5309013997728367,0.003134316830507987,0.0019181236785790685,-0.7219782776962083
11117,13.0,299.96266,31280.292999999998,0.0,-0.055584716933595235,-0.05558396723183745,0.0,0.0,0.0,-2.3204607726366477,-3.665218744953926,-3.522748485493207,0.006756460287210713,-0.007627395357665312,-0.7289528530370453
11118,13.0,299.94916,31326.879,0.0,-0.055589698432276125,-0.055588969442024405,0.0,0.0,0.0,-2.3292899300330183,-3.6750778710769465,-3.518221081396386,-0.004474603836759016,0.0009117988187725371,-0.7267029818525004
11119,13.0,300.18875,31345.439,0.0,-0.055594712921014366,-0.05559397165221158,0.0,0.0,0.0,-2.3312589789523477,-3.668741308926576,-3.528230371184226,-0.004237694108352846,0.0021111188436762083,-0.7223830711111583
11120,13.0,300.11382000000003,31302.655,0.0,-0.055599694419695256,-0.05559897386239865,0.0,0.0,0.0,-2.323176384229658,-3.6664681836522366,-3.525580924822747,-0.006248696445423324,0.0063274513094458236,-0.7224589432786463
11121,13.0,300.1084,31289.599,0.0,-0.05560470890843383,-0.055603976072585826,0.0,0.0,0.0,-2.307583883740798,-3.6704132729165866,-3.533259536730567,-0.007141241404735653,0.0002047935303215478,-0.7284362677385623
11122,13.0,299.73433,31324.325,0.0,-0.05560969040711472,-0.055608945373495255,0.0,0.0,0.0,-2.3191410143813975,-3.672480607095617,-3.530191010127727,-0.00021379296439722278,0.002990788231317817,-0.7285702295342833
11123,13.0,299.84366,31297.566000000003,0.0,-0.05561470489585296,-0.05561394758368232,0.0,0.0,0.0,-2.319980897389288,-3.669261714177937,-3.5244359522097466,0.0009731184147468102,-0.003982888559330496,-0.7248774294123322
11124,13.0,299.79848,31248.584,0.0,-0.055619686394534074,-0.0556189497938695,0.0,0.0,0.0,-2.3238683327229475,-3.6605477633179366,-3.5143732641416365,0.0014107450744796988,-0.003744149610518796,-0.7267405835637113
11125,13.0,299.78217,31301.49,0.0,-0.05562470088327243,-0.055623952004056454,0.0,0.0,0.0,-2.3280132349070177,-3.6671842474979064,-3.5196738793897664,0.0004188491798071956,-0.0028591190152730778,-0.7206375451638883
11126,13.0,299.85744,31311.539,0.0,-0.05562971537201067,-0.05562895421424363,0.0,0.0,0.0,-2.3255871088675777,-3.6694306229696068,-3.5229082750339766,0.0003468367656601236,0.0026959242448920074,-0.7315279268411853
11127,13.0,300.11827999999997,31330.616,0.0,-0.05563469687069178,-0.05563395642443081,0.0,0.0,0.0,-2.3185773433507677,-3.6728512539821967,-3.5322964425105168,0.003852058314368556,-0.0004819922814564345,-0.7259758330507363
11128,13.0,300.02934,31375.922000000002,0.0,-0.05563971135943002,-0.05563895863461776,0.0,0.0,0.0,-2.3382401708163374,-3.6716637248649966,-3.527592935546317,0.001020760613716229,-0.0001977210446235478,-0.7344807402826052
11129,13.0,300.25492,31382.096,0.0,-0.05564469285811091,-0.05564396084480494,0.0,0.0,0.0,-2.3402921035938475,-3.6703687912371965,-3.5287126782318263,0.001430802056234169,-0.002337221651815818,-0.7249290241074243
11130,13.0,300.18586,31320.111,0.0,-0.055649707346849486,-0.055648963054991896,0.0,0.0,0.0,-2.332367879861788,-3.670148915965497,-3.5180147836760263,0.0004728177982934836,0.004078300545721926,-0.7363606434581373
11131,13.0,299.92099,31335.213,0.0,-0.055654688845530376,-0.05565396526517907,0.0,0.0,0.0,-2.3235494629164775,-3.6726174971841266,-3.5289554529557865,-0.0036988669569247468,0.0014790583962216988,-0.7186517066904013
11132,13.0,299.9602,31343.639,0.0,-0.05565970333426862,-0.05565896747536603,0.0,0.0,0.0,-2.3218380834975774,-3.672739796471197,-3.5331056240403766,-0.0013751090684626988,0.0039798795105085265,-0.7306395192860063
11133,13.0,299.96597,31340.404,0.0,-0.05566468483294951,-0.055663969685553094,0.0,0.0,0.0,-2.3150506250527076,-3.6776300454288267,-3.5340194743055666,-0.006022340426083724,-0.001973924577486188,-0.7236159026403294
11134,13.0,299.78959,31330.173,0.0,-0.05566969932168808,-0.05566897189574027,0.0,0.0,0.0,-2.326029291211218,-3.6762787750954664,-3.5212824139235166,-0.0006444780402125303,-0.0004406461652958905,-0.7366150908232493
11135,13.0,300.10811,31368.582000000002,0.0,-0.055674713810426324,-0.055673974105927226,0.0,0.0,0.0,-2.333385689587238,-3.6782133735113964,-3.523666490083807,-0.0031618992207551565,-0.0020518051079973978,-0.7276943862803443
11136,13.0,300.27686,31380.851000000002,0.0,-0.05567969530910721,-0.05567894340683688,0.0,0.0,0.0,-2.3351557361869277,-3.679542453667567,-3.524296934296026,-0.002148548505020228,0.0004481753430789626,-0.7321047701231153
11137,13.0,300.15688,31362.316000000003,0.0,-0.05568470979784568,-0.055683945617023944,0.0,0.0,0.0,-2.3310530865320276,-3.672462368593817,-3.529845289193607,-0.00027568475283546676,-0.004797224999074246,-0.7245502610875433
11138,13.0,300.09022999999996,31355.312,0.0,-0.05568969129652657,-0.0556889478272109,0.0,0.0,0.0,-2.3164796116687376,-3.675852500778396,-3.5388997934122166,-0.00040025480430707364,0.0022056538621060876,-0.7310612035801233
11139,13.0,300.31862,31313.07,0.0,-0.05569470578526492,-0.05569395003739808,0.0,0.0,0.0,-2.311295520182108,-3.6716952369431066,-3.5354007368418863,-0.00046727516825896857,0.0011771904198046488,-0.7291601437425033
11140,13.0,299.89797999999996,31333.72,0.0,-0.05569968728394603,-0.055698952247585254,0.0,0.0,0.0,-2.322111559699568,-3.6751542701344864,-3.527402545852526,0.0005331575510235535,-0.004559663142903715,-0.7360899435614213
11141,13.0,299.98775,31452.368,0.0,-0.05570470177268427,-0.05570395445777221,0.0,0.0,0.0,-2.344306296515018,-3.679856763848586,-3.5365713446824163,0.003152004022928577,-0.003385489371296786,-0.7334098058544123
11142,13.0,299.88077999999996,31417.121,0.0,-0.05570971626142285,-0.055708956667959386,0.0,0.0,0.0,-2.336698713439208,-3.6780683774220866,-3.535253308952336,-0.0006246596281941054,-0.001028480160928089,-0.7299219153001844
11143,13.0,299.99935,31330.996,0.0,-0.05571469776010374,-0.05571395887814634,0.0,0.0,0.0,-2.3187292295407578,-3.6755634205248664,-3.5295477989642468,0.004208646963761116,-0.004020557955648176,-0.7235958706858523
11144,13.0,300.0195,31389.302000000003,0.0,-0.0557197122488422,-0.05571896108833352,0.0,0.0,0.0,-2.312383750789508,-3.6846006994917766,-3.5445795668477666,-0.008340476904315983,-0.005156092751916735,-0.7270711868063393
11145,13.0,300.03632999999996,31463.682,0.0,-0.05572469374752287,-0.055723963298520696,0.0,0.0,0.0,-2.334122018434908,-3.6861180415165262,-3.5439335185840064,0.00041774659144587864,-0.005047053666255415,-0.7213623736229233
11146,13.0,299.89279,31403.528,0.0,-0.05572970823626133,-0.05572896550870765,0.0,0.0,0.0,-2.336942197438238,-3.6809568494821567,-3.527989318985437,-0.005791724601998715,0.004695428929102755,-0.7288611843004983
11147,13.0,300.04442,31338.472,0.0,-0.05573468973494233,-0.05573396771889483,0.0,0.0,0.0,-2.329939220697098,-3.673622235983286,-3.522551408348757,-0.005331803288858015,0.006712437914091044,-0.7301500080301953
11148,13.0,299.88139,31354.032000000003,0.0,-0.055739704223680575,-0.055738969929081894,0.0,0.0,0.0,-2.322145199602888,-3.6811015415964365,-3.5275960766216268,-0.003167022213260757,0.0008847866350191422,-0.7312379447950663
11149,13.0,300.02808999999996,31443.606,0.0,-0.055744685722361464,-0.05574397213926885,0.0,0.0,0.0,-2.327374786019008,-3.6859499433249363,-3.5447463478142263,-0.002692592982538237,0.00014956837025374887,-0.7320396688041904
11150,13.0,300.08645,31488.554,0.0,-0.05574970021109993,-0.055748974349456026,0.0,0.0,0.0,-2.324420554027448,-3.6921106052579464,-3.5552028861962066,0.006639627079130174,0.0018387503266955282,-0.7314889167123353
11151,13.0,300.03075,31418.557,0.0,-0.05575471469983828,-0.05575394365036557,0.0,0.0,0.0,-2.3279761499533578,-3.681616171322226,-3.5408644853561166,0.003101654814859497,-0.0076392182638071425,-0.7297094671517174
11152,13.0,300.15067999999997,31400.308999999997,0.0,-0.05575969619851917,-0.05575894586055252,0.0,0.0,0.0,-2.3308241933344376,-3.6837026559281467,-3.5303830210216764,-0.0005580912649793194,-0.005064787670830625,-0.7310689042808832
11153,13.0,300.19989,31451.765,0.0,-0.055764710687257635,-0.0557639480707397,0.0,0.0,0.0,-2.343381503148748,-3.6865252667317163,-3.5306445408724865,-0.0014184854946436185,-0.001060131155626799,-0.7337834114312842
11154,13.0,299.89578,31478.487,0.0,-0.055769692185938524,-0.055768950280926655,0.0,0.0,0.0,-2.342939726105148,-3.6855349160839768,-3.5401994893154867,0.000863743294822326,0.0039208764373103765,-0.7267184541815273
11155,13.0,299.85400000000004,31419.627,0.0,-0.0557747066746771,-0.05577395249111383,0.0,0.0,0.0,-2.326496602157338,-3.680226397485067,-3.5440591615964068,-0.004026313114891165,-0.00023631314701229178,-0.7244531208004563
11156,13.0,299.90446000000003,31359.515,0.0,-0.05577968817335799,-0.05577895470130079,0.0,0.0,0.0,-2.3130919112843977,-3.683753014458117,-3.5356643845179065,-0.0017155892704154782,-0.004235832159969086,-0.7293431873730682
11157,13.0,299.78069,31418.522999999997,0.0,-0.05578470266209645,-0.055783956911487964,0.0,0.0,0.0,-2.3352165311929274,-3.6785958754241466,-3.536634166188617,0.002888544203477117,0.002247371192573268,-0.7270308999823633
11158,13.0,299.9137,31554.72,0.0,-0.05578968416077712,-0.05578895912167514,0.0,0.0,0.0,-2.3565814161764775,-3.690360621010236,-3.5449048201298665,0.0005575540296437985,0.0023263418788670677,-0.7359555764656603
11159,13.0,299.95797000000005,31511.819,0.0,-0.055794698649515584,-0.055793961331862096,0.0,0.0,0.0,-2.3481750880468377,-3.691338306031726,-3.5392927318009963,0.001159947030927859,0.0006338667278777754,-0.7308264436644543
11160,13.0,300.03157999999996,31462.034,0.0,-0.05579971313825416,-0.055798963542049274,0.0,0.0,0.0,-2.331783741179138,-3.690952055093607,-3.5409368314132568,-0.003908844598997926,-0.0013781874235915088,-0.7358099622937893
11161,13.0,300.11043,31521.71,0.0,-0.055804694636934826,-0.05580396575223634,0.0,0.0,0.0,-2.3306858846957876,-3.6978931222536366,-3.553233634626857,-0.0018033107898729186,0.003786008593349957,-0.7240112930943513
11162,13.0,300.09938999999997,31497.068,0.0,-0.05580970912567329,-0.05580896796242352,0.0,0.0,0.0,-2.331832985133998,-3.6885260303791765,-3.5539631746988563,0.0014430740348203186,0.003608643722970406,-0.7318907109069893
11163,13.0,300.10084,31497.576,0.0,-0.05581469062435418,-0.05581397017261047,0.0,0.0,0.0,-2.336274769597368,-3.6925102310973865,-3.5456916088325166,-0.001267306958523459,-0.004485074054017346,-0.7239074349591014
11164,13.0,300.09086,31473.314,0.0,-0.05581970511309253,-0.05581897238279743,0.0,0.0,0.0,-2.3412093989093776,-3.687982016400486,-3.537909949389527,0.0009100953629694191,-0.002766883770595167,-0.7353233995957692
11165,13.0,300.03215,31425.667,0.0,-0.05582468661177342,-0.05582394168370719,0.0,0.0,0.0,-2.333445066043098,-3.688294401406317,-3.5308786016455866,0.0008535058312444673,0.0005868271796703335,-0.7319944981147323
11166,13.0,299.9178,31436.715,0.0,-0.055829701100511886,-0.05582894389389437,0.0,0.0,0.0,-2.3235388237904275,-3.6927586800219063,-3.539678982739117,0.005728741685057785,0.0022445933674241176,-0.7423882453880153
11167,13.0,299.93698,31525.238999999998,0.0,-0.05583471558925024,-0.05583394610408132,0.0,0.0,0.0,-2.3292518318292577,-3.697721781661726,-3.5559118572911763,-0.0036429484196810165,-0.0010203410268498192,-0.7279924844597643
11168,13.0,299.83495,31500.467,0.0,-0.05583969708793124,-0.05583894831426828,0.0,0.0,0.0,-2.330707466922918,-3.6958632783283063,-3.5487846560877765,0.004185248384501856,-0.0014176642554375688,-0.7359812015606894
11169,13.0,299.96751,31458.665,0.0,-0.05584471157666959,-0.05584395052445523,0.0,0.0,0.0,-2.3368405684532076,-3.693297323775067,-3.5325106435816562,-0.0033324356973857966,0.0025684670081879577,-0.7332837778069743
11170,13.0,299.8244,31463.088,0.0,-0.055849693075350704,-0.05584895273464241,0.0,0.0,0.0,-2.343234683209258,-3.6870317904567065,-3.5337267463516766,0.001273331338318019,0.0038665518437989567,-0.7348342733749963
11171,13.0,299.94302999999996,31529.068,0.0,-0.055854707564088946,-0.05585395494482959,0.0,0.0,0.0,-2.3447043011542976,-3.6933457571298467,-3.545999434212897,-0.0044913381687855655,-0.0028298657756110073,-0.7323028199876613
11172,13.0,299.98467999999997,31530.266,0.0,-0.055859689062769835,-0.05585895715501665,0.0,0.0,0.0,-2.340868744225758,-3.692259451697636,-3.551285256009567,0.0008895327288850452,0.0004647978730894786,-0.7327029727171533
11173,13.0,299.93029,31507.352000000003,0.0,-0.05586470355150841,-0.05586395936520372,0.0,0.0,0.0,-2.3332254947464275,-3.689653676415466,-3.554569300908676,-9.792943463588271e-05,0.001281548188678959,-0.7292869621250192
11174,13.0,299.98593,31510.452,0.0,-0.05586968505018908,-0.055868961575390785,0.0,0.0,0.0,-2.335423132888318,-3.6914871524714163,-3.5514802053288066,0.0017219572433189484,-0.003483321708202087,-0.7256938759454094
11175,13.0,300.11354,31495.063,0.0,-0.05587469953892754,-0.05587396378557796,0.0,0.0,0.0,-2.341328861096168,-3.6879732011246165,-3.544410658056097,0.0003251798417327517,-0.006320437794903644,-0.7334687364802283
11176,13.0,300.00327000000004,31557.48,0.0,-0.055879714027666005,-0.05587896599576514,0.0,0.0,0.0,-2.345506389933458,-3.7026225684203964,-3.544556971370536,-0.0005775782428900345,-0.005745640974200614,-0.7306417788337294
11177,13.0,300.17412,31591.978,0.0,-0.055884695526346784,-0.055883968205952095,0.0,0.0,0.0,-2.3486421963429374,-3.704731344528516,-3.5497990207628862,0.001987445386820588,0.005391968965220905,-0.7406569961346543
11178,13.0,300.13647000000003,31529.65,0.0,-0.05588971001508525,-0.05588897041613927,0.0,0.0,0.0,-2.3292171786758376,-3.703714750703186,-3.551294273935457,-0.001846977816182518,0.007692573886247932,-0.7310172487907853
11179,13.0,300.0258,31514.082000000002,0.0,-0.05589469151376614,-0.05589393971704881,0.0,0.0,0.0,-2.3282717150075274,-3.7046293102434467,-3.546592996121477,-0.0024365224920910476,0.005330316040361235,-0.7362830994279843
11180,13.0,300.09297999999995,31617.642000000003,0.0,-0.05589970600250449,-0.05589894192723577,0.0,0.0,0.0,-2.350664947517568,-3.697461984336086,-3.562846946275617,-0.005082863343339555,0.0003130338303990337,-0.7201712677328703
11181,13.0,300.05772,31585.009,0.0,-0.05590468750118549,-0.055903944137422945,0.0,0.0,0.0,-2.3538298342049178,-3.7002726387884763,-3.5469515853318674,0.001074941629688479,0.004517917441433736,-0.7346534892921543
11182,13.0,299.8633,31534.327999999998,0.0,-0.05590970198992384,-0.0559089463476099,0.0,0.0,0.0,-2.338702212861938,-3.694790753097456,-3.5521554351954463,-0.0005948403363636704,-0.0038306574590064564,-0.7286052575902403
11183,13.0,299.68206000000004,31555.171000000002,0.0,-0.055914683488604955,-0.055913948557796855,0.0,0.0,0.0,-2.340488572788238,-3.693011587246867,-3.5584838913450167,0.002380288327441168,-0.008626908420759572,-0.7379017158002293
11184,13.0,299.64907,31574.818,0.0,-0.0559196979773432,-0.05591895076798403,0.0,0.0,0.0,-2.332777334227198,-3.7013566137454568,-3.5638224021468865,0.0026103605428475277,-0.003547609184646767,-0.7349676677506614
11185,13.0,299.73841,31536.824,0.0,-0.05592471246608155,-0.0559239529781711,0.0,0.0,0.0,-2.333433211016928,-3.697618936776576,-3.5553548737112064,0.003231111092685837,0.0075654549737522725,-0.7414238947378413
11186,13.0,299.94467000000003,31543.349,0.0,-0.05592969396476266,-0.055928955188358276,0.0,0.0,0.0,-2.3393645744523077,-3.6969324598338265,-3.552093322964317,0.0029649418424669773,0.0005352735313398845,-0.7319133469142234
11187,13.0,299.84397,31513.859,0.0,-0.0559347084535009,-0.05593395739854523,0.0,0.0,0.0,-2.3418062032182774,-3.6961422260808368,-3.5414779069666564,-0.0020420862156882184,-0.004867614166296115,-0.7364544906823993
11188,13.0,299.99363999999997,31539.326,0.0,-0.05593968995218179,-0.05593895960873241,0.0,0.0,0.0,-2.3403461098241776,-3.7001654369278967,-3.5466560202776964,0.005548815926375494,-0.010323545253354589,-0.7306014717447513
11189,13.0,299.99082999999996,31667.18,0.0,-0.055944704440920257,-0.055943961818919585,0.0,0.0,0.0,-2.354081120229718,-3.711867563657807,-3.5600834079528765,0.003172908081766647,0.0016604269217213785,-0.7344680746563552
11190,13.0,299.88707,31695.174,0.0,-0.055949685939601035,-0.05594896402910654,0.0,0.0,0.0,-2.3517255163972375,-3.7080543995564765,-3.5747616528765063,-0.0003459291671480507,0.0023674021166443975,-0.7243428487920733
11191,13.0,299.77311000000003,31610.635,0.0,-0.0559547004283395,-0.05595396623929372,0.0,0.0,0.0,-2.344356959020018,-3.7068644386390366,-3.5576223247849863,-0.002559843844536918,-0.004756544628759405,-0.7326948261863493
11192,13.0,299.86227,31589.285,0.0,-0.05595971491707796,-0.05595896844948067,0.0,0.0,0.0,-2.3497900060562182,-3.695792249496296,-3.5567717013260367,-0.007052120890865144,0.003362112070289627,-0.7268898454359423
11193,13.0,300.08805,31645.151,0.0,-0.05596469641575874,-0.055963937750390214,0.0,0.0,0.0,-2.3563802860316274,-3.7021652886502667,-3.560790048572617,-0.008834551433277342,0.009936901782145851,-0.7325239415569843
11194,13.0,300.23837000000003,31603.366,0.0,-0.055969710904497205,-0.05596893996057739,0.0,0.0,0.0,-2.3464839736299377,-3.7054097154704664,-3.554740337525557,0.002456127868275948,0.0009020334993437751,-0.7349425999431873
11195,13.0,299.97771,31523.752,0.0,-0.055974692403178095,-0.055973942170764346,0.0,0.0,0.0,-2.325656415174418,-3.698677884456086,-3.5580991602820466,-0.0026525582551871177,-0.005854137059133345,-0.7423104885753413
11196,13.0,300.05938,31589.607999999997,0.0,-0.05597970689191634,-0.05597894438095152,0.0,0.0,0.0,-2.3375920960523775,-3.7066110247890265,-3.5582490199718366,0.0057255771023454645,-0.004770422000803996,-0.7417357021911143
11197,13.0,300.09076,31605.793999999998,0.0,-0.05598468839059745,-0.0559839465911387,0.0,0.0,0.0,-2.3424557978573874,-3.711631983009556,-3.553284499781876,0.003919616764786056,0.0021887049237083577,-0.7408785128715163
11198,13.0,299.89287,31607.724,0.0,-0.0559897028793358,-0.055988948801325655,0.0,0.0,0.0,-2.354238579295258,-3.7060437060580362,-3.547676565778417,-0.000875944599214001,0.002504137583189138,-0.7368295046769103
11199,13.0,299.82748,31683.467999999997,0.0,-0.0559946843780168,-0.05599395101151272,0.0,0.0,0.0,-2.3565589220242575,-3.7186132761985564,-3.5558110389062265,-0.0028533264671013973,-0.003113336879237427,-0.7343963466817763
11200,13.0,299.89403,31646.46,0.0,-0.055999698866755154,-0.05599895322169968,0.0,0.0,0.0,-2.3525644874800378,-3.708553222580707,-3.5586158165080364,-8.586317621753572e-06,0.0003154982674247547,-0.7306091724455113
11201,13.0,299.73181,31583.289,0.0,-0.05600471335549362,-0.056003955431886854,0.0,0.0,0.0,-2.330672205819438,-3.707294968606526,-3.5625641481727066,0.0026905472305863375,0.0074389477603419825,-0.7365806909823542
11202,13.0,299.96759,31637.824,0.0,-0.05600969485417451,-0.05600895764207403,0.0,0.0,0.0,-2.3425185180385775,-3.7050322798082167,-3.569557600362906,-0.0007853024775358202,-0.0008492390350733672,-0.7331954426632563
11203,13.0,300.17262999999997,31661.447,0.0,-0.05601470934291286,-0.056013959852260986,0.0,0.0,0.0,-2.352163544415468,-3.706354064563666,-3.565771794014277,-0.007319402385718774,-0.007116497229343593,-0.7368633978927553
11204,13.0,300.14885,31599.93,0.0,-0.05601969084159375,-0.05601896206244816,0.0,0.0,0.0,-2.3498747137645775,-3.7069169249942164,-3.548798030989097,0.0006848138446983645,0.00012116139707519888,-0.7364638429808223
11205,13.0,300.09323,31621.306,0.0,-0.056024705330332214,-0.05602396427263512,0.0,0.0,0.0,-2.347553459110488,-3.710244640972636,-3.554289339906047,0.004097519164343656,0.004541810588066806,-0.7413996577954493
11206,13.0,299.87442999999996,31696.366,0.0,-0.05602968682901299,-0.056028966482822296,0.0,0.0,0.0,-2.355809420925288,-3.709661312890067,-3.569433173250626,0.006999322758629373,0.004338629928989436,-0.7277593153467523
11207,13.0,299.84063,31740.622000000003,0.0,-0.056034701317751456,-0.05603396869300947,0.0,0.0,0.0,-2.349205462073528,-3.7233931822202964,-3.575757779049817,-0.0015972482448611287,-0.0031219189049344065,-0.7350472078835113
11208,13.0,300.07666,31730.613999999998,0.0,-0.056039682816432346,-0.05603893799391879,0.0,0.0,0.0,-2.354316092927908,-3.7170140635657263,-3.5739841860747763,0.002978036681459337,0.0015111139816853386,-0.7274173029079983
11209,13.0,299.9438,31724.884,0.0,-0.05604469730517059,-0.05604394020410597,0.0,0.0,0.0,-2.359562499295688,-3.719674757003317,-3.564335309347507,0.002674214044274378,0.005386354141116764,-0.7351678961029223
11210,13.0,299.98308,31676.702,0.0,-0.05604971179390916,-0.056048942414293146,0.0,0.0,0.0,-2.358734369988958,-3.7110308217252266,-3.559161350361876,-0.0025733111542660374,0.0008935726380937531,-0.7317560803662022
11211,13.0,299.97241,31655.497000000003,0.0,-0.05605469329259005,-0.0560539446244801,0.0,0.0,0.0,-2.3486952906481777,-3.711378670484556,-3.5624065877821565,-0.0014020848258749987,-0.0076592229618564515,-0.7430672648100294
11212,13.0,300.12257,31692.216,0.0,-0.056059707781328294,-0.05605894683466728,0.0,0.0,0.0,-2.3460395621360774,-3.7144308837607865,-3.573171863469607,0.00046436004772126854,0.0004972983462745255,-0.7355108609967703
11213,13.0,300.02495,31624.607000000004,0.0,-0.056064689280009405,-0.056063949044854344,0.0,0.0,0.0,-2.331567513607798,-3.7100173689752065,-3.5715058776551865,0.0059971968275022445,0.007500336125600544,-0.7465533112490752
11214,13.0,300.03895,31591.272,0.0,-0.05606970376874787,-0.0560689512550413,0.0,0.0,0.0,-2.328396040794798,-3.7103980470377764,-3.5641638674305867,0.0006468686923659693,-0.002214124126317038,-0.7407108199799662
11215,13.0,299.86672000000004,31694.156000000003,0.0,-0.05607468526742876,-0.05607395346522848,0.0,0.0,0.0,-2.3559746820165977,-3.712312481776716,-3.5659448571313566,-0.0026703879105717675,-0.0032034581802317073,-0.7450956800527183
11216,13.0,299.9125,31807.297000000002,0.0,-0.05607969975616711,-0.05607895567541543,0.0,0.0,0.0,-2.3703992091151878,-3.722463930553586,-3.575760818800117,-0.007007146062651473,-0.0017588490715098886,-0.7338651503168513
11217,13.0,299.83592000000004,31758.394,0.0,-0.056084714244905576,-0.05608395788560261,0.0,0.0,0.0,-2.363192670428958,-3.723022332683697,-3.5675436644641465,0.01050144562641199,0.007973231700971702,-0.7434654113043233
11218,13.0,299.93917000000005,31728.584,0.0,-0.056089695743586465,-0.056088960095789564,0.0,0.0,0.0,-2.3511435055397976,-3.720162636926467,-3.5733913334412666,-0.0015816720576988786,0.005975958092156145,-0.7264038400254773
11219,13.0,299.79891000000003,31724.824,0.0,-0.05609471023232482,-0.05609396230597674,0.0,0.0,0.0,-2.347850949339848,-3.722023268085097,-3.5736802110447763,0.003482591154879987,-0.002768219943502037,-0.7350259296314113
11220,13.0,300.05688,31716.127,0.0,-0.05609969173100571,-0.05609896451616392,0.0,0.0,0.0,-2.351855212410038,-3.7155326919195266,-3.573522650654226,-0.0032974701589599665,0.00026020722583545373,-0.7283291570704914
11221,13.0,300.06583,31713.799,0.0,-0.05610470621974417,-0.05610396672635087,0.0,0.0,0.0,-2.3612267625849377,-3.7143892391816764,-3.5645868993473364,0.0002146180742186548,0.005179368423938865,-0.7395558263234773
11222,13.0,300.07297,31696.087000000003,0.0,-0.05610968771842484,-0.056108936027260414,0.0,0.0,0.0,-2.356967160489548,-3.7136761137612964,-3.5641759251067766,-0.00027507627588541474,-0.004025168547578206,-0.7400075332180573
11223,13.0,300.21101,31691.168999999998,0.0,-0.056114702207163414,-0.05611393823744759,0.0,0.0,0.0,-2.3520842069326378,-3.7153048119720364,-3.5659351299303967,-0.0042115867062762465,-0.008682941657914622,-0.7431192749376623
11224,13.0,300.02083,31780.216,0.0,-0.0561196837058443,-0.05611894044763455,0.0,0.0,0.0,-2.352451814068918,-3.7259883183764164,-3.5819520808861465,-0.0031691310906938872,0.0003601141416579986,-0.7418373818386492
11225,13.0,299.83465,31818.601000000002,0.0,-0.056124698194582545,-0.056123942657821724,0.0,0.0,0.0,-2.356443918137908,-3.727682168568586,-3.5879341068265265,0.001129057898979339,0.003448570269522387,-0.7381930859989854
11226,13.0,300.16547,31754.932,0.0,-0.05612971268332101,-0.05612894486800879,0.0,0.0,0.0,-2.357919311608518,-3.719585185694476,-3.5752019100449566,0.001790762396659488,0.004188414993714376,-0.7401482736569474
11227,13.0,300.10117,31706.718999999997,0.0,-0.05613469418200212,-0.05613394707819597,0.0,0.0,0.0,-2.3549703485174778,-3.718446089932056,-3.564634420777027,0.0013830364332700687,-0.004178603591671066,-0.7352606084870723
11228,13.0,299.81157,31748.824,0.0,-0.056139708670740474,-0.056138949288383144,0.0,0.0,0.0,-2.362008890337128,-3.7176135023248866,-3.571227436527707,0.0014705698935089486,0.0026198830672873276,-0.7388291436167592
11229,13.0,299.8828,31794.009,0.0,-0.05614469016942136,-0.0561439514985701,0.0,0.0,0.0,-2.363055172390388,-3.7206378512233664,-3.580891714656497,-0.0004523826412041906,0.0008373833705558042,-0.7354667643524183
11230,13.0,299.8194,31725.67,0.0,-0.05614970465815983,-0.056148953708757054,0.0,0.0,0.0,-2.344312882640668,-3.724235395703417,-3.5752631103509964,0.002227748084511618,-0.0025895927661479076,-0.7447833355768922
11231,13.0,299.85143999999997,31714.805,0.0,-0.056154686156840716,-0.05615395591894401,0.0,0.0,0.0,-2.342948440056008,-3.7233826444192566,-3.5741779194938967,-0.002276489062021978,-0.0028906103217560273,-0.7397806259906633
11232,13.0,299.99059,31749.09,0.0,-0.05615970064557907,-0.05615895812913119,0.0,0.0,0.0,-2.3546122659321376,-3.7246090823402964,-3.5717093382752667,0.0008641016307201911,0.0012177668306592288,-0.7427959468307523
11233,13.0,299.89276,31773.861,0.0,-0.05616468214425996,-0.056163960339318364,0.0,0.0,0.0,-2.3587882748942777,-3.727403524791086,-3.5722684496804464,-0.004551467368144856,-0.0005935446022682914,-0.7414762291055063
11234,13.0,299.92222000000004,31830.089,0.0,-0.05616969663299842,-0.05616896254950543,0.0,0.0,0.0,-2.370126948813318,-3.729429417041026,-3.575995892823317,-0.0015265234892061388,-0.0039021253322847863,-0.7391639011847974
11235,13.0,300.08918,31821.256,0.0,-0.056174711121736665,-0.056173964759692496,0.0,0.0,0.0,-2.3631684537515683,-3.7263287704100163,-3.5833699217510766,0.002026482062823208,-0.004954462365492365,-0.7365097736078553
11236,13.0,300.05431,31751.763,0.0,-0.056179692620417554,-0.05617893406060204,0.0,0.0,0.0,-2.351911751765618,-3.7221100022936566,-3.5777214577436167,0.001212476955862159,0.0056387729795285635,-0.7420402243761683
11237,13.0,300.13783,31817.751,0.0,-0.05618470710915613,-0.0561839362707891,0.0,0.0,0.0,-2.358156412131918,-3.7272570088266264,-3.586388495123986,-0.001196852841970179,0.0017458929464562183,-0.7366128819380313
11238,13.0,300.08988,31854.847999999998,0.0,-0.056189688607836796,-0.05618893848097628,0.0,0.0,0.0,-2.373172170663858,-3.726180734570406,-3.5837254712111664,-0.005336314582278246,0.0006415809555266104,-0.7384037204297733
11239,13.0,299.91102,31763.376,0.0,-0.05619470309657526,-0.056193940691163236,0.0,0.0,0.0,-2.358081330299508,-3.7211009065190663,-3.5760908343576867,-0.002048883198684028,-6.943786824623403e-05,-0.7349541915243314
11240,13.0,299.92658,31734.88,0.0,-0.05619968459525637,-0.05619894290135041,0.0,0.0,0.0,-2.358275367693658,-3.7245248812569867,-3.5638109524207566,0.0038043116391813267,0.0007622045903762363,-0.7432893793644503
11241,13.0,299.92593999999997,31852.34,0.0,-0.056204699083994725,-0.05620394511153759,0.0,0.0,0.0,-2.363054868415358,-3.7328464003532567,-3.5864146369765666,0.00041179108226061564,-0.0010058384693610281,-0.7376779395156443
11242,13.0,299.91641,31877.555,0.0,-0.05620971357273297,-0.056208947321724545,0.0,0.0,0.0,-2.3617915481906775,-3.739520476111936,-3.5886685104990064,-0.0015733472962022885,-0.004669173187211516,-0.7460562918100233
11243,13.0,300.12137,31827.207000000002,0.0,-0.05621469507141408,-0.05621394953191172,0.0,0.0,0.0,-2.3548651731570978,-3.7347901180200864,-3.585020911464017,-0.0005375909153785925,-0.0036417676793394863,-0.7380382816487072
11244,13.0,299.97202999999996,31820.214,0.0,-0.05621970956015232,-0.05621895174209868,0.0,0.0,0.0,-2.358242943690458,-3.7316032438055666,-3.582704317760386,-0.0024497598953724777,0.005746769836137025,-0.7412480350504853
11245,13.0,300.01891,31816.582000000002,0.0,-0.05622469105883332,-0.05622395395228563,0.0,0.0,0.0,-2.363617526195888,-3.728666642365746,-3.5791622993858168,0.001053761865498199,-0.002031322561200928,-0.7373177696350983
11246,13.0,300.0963,31830.597,0.0,-0.056229705547571784,-0.05622895616247281,0.0,0.0,0.0,-2.3598911976281274,-3.7337641009688265,-3.5820513793959465,-0.0034415595920804865,-0.0015692092841188983,-0.7405323258423503
11247,13.0,300.10281000000003,31859.833,0.0,-0.056234687046252674,-0.056233958372659876,0.0,0.0,0.0,-2.366318040362408,-3.7282715761517564,-3.5900040754558167,-0.0017806273625342382,0.0029779112410969573,-0.7435870317138263
11248,13.0,300.00006,31817.838,0.0,-0.056239701534990916,-0.05623896058284705,0.0,0.0,0.0,-2.353101611358048,-3.731554709125777,-3.5871719401013067,0.005308216143755145,0.0024641863476462574,-0.7486898605424362
11249,13.0,300.02901,31762.3,0.0,-0.056244683033671805,-0.05624396279303401,0.0,0.0,0.0,-2.3533006136776877,-3.7252999162584763,-3.5763455654328262,0.0012319875931627088,0.0008755185174144502,-0.7482607795225893
11250,13.0,299.87289,31844.284,0.0,-0.05624969752241038,-0.056248965003221185,0.0,0.0,0.0,-2.3605794984210577,-3.7354810532632765,-3.5838068351941965,0.0005556317219515814,-0.002922820934484967,-0.7421191261614553
11251,13.0,299.79433,31889.8,0.0,-0.05625471201114862,-0.056253934304130726,0.0,0.0,0.0,-2.372372918984978,-3.733340055801976,-3.5879899369070363,0.0013246619804339588,-0.004182624472042896,-0.7338182368372214
11252,13.0,299.97123,31842.035,0.0,-0.05625969350982951,-0.05625893651431768,0.0,0.0,0.0,-2.3624786330834877,-3.7312204379177865,-3.5854844733847666,-0.0019287104195988983,0.0006744533218958602,-0.7330417427555873
11253,13.0,299.86704,31827.452999999998,0.0,-0.056264707998568086,-0.05626393872450486,0.0,0.0,0.0,-2.3611131772487277,-3.7293220125304263,-3.5843158920444362,0.004425426553755596,0.002626118101777677,-0.7354566723814223
11254,13.0,299.93542,31896.004,0.0,-0.056269689497248976,-0.056268940934692036,0.0,0.0,0.0,-2.3704137999166273,-3.7329653559149962,-3.592209718273496,-0.0037119235963883365,0.0013017620215489089,-0.7371432981003794
11255,13.0,300.05812000000003,31937.895,0.0,-0.05627470398598722,-0.05627394314487899,0.0,0.0,0.0,-2.3733271979291577,-3.739832557142736,-3.5951628356899468,0.004176336647222337,0.0063963312406437435,-0.7385889020180493
11256,13.0,300.27152,31928.982999999997,0.0,-0.05627968548466833,-0.05627894535506617,0.0,0.0,0.0,-2.3704249456677275,-3.740867490794876,-3.594321128831876,-0.003097387005438297,0.002989006431016967,-0.7430465033154803
11257,13.0,300.18266,31891.49,0.0,-0.05628469997340657,-0.05628394756525312,0.0,0.0,0.0,-2.3682371360518077,-3.7362310609872966,-3.5897483311305765,0.0005120346402963846,-0.0026303569322460177,-0.7414542922408414
11258,13.0,300.1303,31810.527000000002,0.0,-0.05628968147208746,-0.0562889497754403,0.0,0.0,0.0,-2.353003731398388,-3.7315824721785162,-3.585019594238886,-0.0037713194053252464,-0.00980309075803973,-0.7442397066332402
11259,13.0,300.00518,31830.717,0.0,-0.056294695960826036,-0.056293951985627255,0.0,0.0,0.0,-2.354505874671638,-3.7329974759431668,-3.5882399057067067,0.001064894849646939,-0.00029308714091794873,-0.7455590190584462
11260,13.0,300.32219,31955.403,0.0,-0.05629971044956428,-0.05629895419581443,0.0,0.0,0.0,-2.3728901831610276,-3.7440466643086365,-3.5967076367924067,0.0005049910018287316,0.0024388905588997576,-0.7508664534797493
11261,13.0,300.12976000000003,31911.478,0.0,-0.05630469194824517,-0.0563039564060015,0.0,0.0,0.0,-2.371775506726018,-3.7421709357235162,-3.5863461412698068,-0.0014445447673404686,-0.0004260296982308576,-0.7488382510195812
11262,13.0,300.06395,31826.635,0.0,-0.05630970643698374,-0.056308958616188454,0.0,0.0,0.0,-2.3567903483470976,-3.7407885586120866,-3.576923523289867,9.533029918161801e-05,0.00029414503481735467,-0.7499448113212903
11263,13.0,300.02612,31911.656000000003,0.0,-0.05631468793566463,-0.05631396082637563,0.0,0.0,0.0,-2.366823246862268,-3.7422902965852964,-3.5912331478271167,0.0036480140622309563,-0.0003271976482468937,-0.7372685864752443
11264,13.0,299.89271,31988.492000000002,0.0,-0.05631970242440287,-0.05631896303656281,0.0,0.0,0.0,-2.3739668627172876,-3.749449617816867,-3.600286537470617,0.004353926763099116,0.005142066026807405,-0.7375321328262543
11265,13.0,299.86759,31953.341,0.0,-0.05632468392308376,-0.05632393233747213,0.0,0.0,0.0,-2.3684917658019375,-3.7455522526322262,-3.5989737706410567,-0.003973149402019316,-0.007825958332061952,-0.7343834176105003
11266,13.0,299.83128,31902.85,0.0,-0.05632969841182223,-0.056328934547659304,0.0,0.0,0.0,-2.371252163049368,-3.7379078885777868,-3.5885096328833264,-0.003135152863165497,-0.005181109491585695,-0.7473553797632333
11267,13.0,299.8016,31902.664,0.0,-0.05633471290056058,-0.05633393675784648,0.0,0.0,0.0,-2.3691968865465274,-3.7376735238296566,-3.5907428361037264,-0.005959913783447695,0.0009517590418438041,-0.7419045603202793
11268,13.0,300.01247,31949.31,0.0,-0.05633969439924147,-0.056338938968033436,0.0,0.0,0.0,-2.3779742668627875,-3.746100522261336,-3.587717575280157,0.0028715369018736275,-0.005617223885676834,-0.7506468416530753
11269,13.0,300.44991,31993.214,0.0,-0.05634470888797993,-0.05634394117822061,0.0,0.0,0.0,-2.3824292235774576,-3.744987872326526,-3.597721089542426,-0.003275271369144117,-0.006009202827937144,-0.7408438597180963
11270,13.0,300.13687999999996,31928.174,0.0,-0.05634969038666082,-0.05634894338840757,0.0,0.0,0.0,-2.374338218878938,-3.737638262726176,-3.593391167890097,4.5986809724544756e-05,-0.0024385206212882474,-0.7382744601145163
11271,13.0,300.17312000000004,31871.353,0.0,-0.056354704875399175,-0.056353945598594746,0.0,0.0,0.0,-2.358857581201118,-3.7382389173854564,-3.5909989857290063,0.005019655991501474,0.003197854704528687,-0.7360957697494963
11272,13.0,299.98308,31942.272999999997,0.0,-0.05635968637408029,-0.05635894780878192,0.0,0.0,0.0,-2.373185849540208,-3.742592853065157,-3.5938746908378163,0.0015193188756950987,0.002273406147267718,-0.7431862102392683
11273,13.0,299.95318,32065.134,0.0,-0.05636470086281853,-0.05636395001896888,0.0,0.0,0.0,-2.3799812113358576,-3.7572242858341665,-3.6097945724339864,-0.0036139347123425873,-0.0019286789075207882,-0.7444053020970833
11274,13.0,299.86536,31992.037,0.0,-0.05636968236149942,-0.056368952229156055,0.0,0.0,0.0,-2.3764332147856977,-3.751046195999436,-3.5973010973759765,-0.0018230626820222784,-0.005593496912060165,-0.7480109829754363
11275,13.0,300.09526,31860.84,0.0,-0.05637469685023788,-0.05637395443934312,0.0,0.0,0.0,-2.3553287350778476,-3.7402861892125068,-3.5892847692098266,-0.0014866066028416485,0.003650506758801966,-0.7437357160335003
11276,13.0,299.81489,31876.276,0.0,-0.056379711338976235,-0.056378956649530076,0.0,0.0,0.0,-2.3582574331668877,-3.739298473015026,-3.5920359458813467,0.004121037509764736,0.0005835992890917655,-0.7442614712453882
11277,13.0,299.84398999999996,31993.472,0.0,-0.056384692837657124,-0.056383958859717254,0.0,0.0,0.0,-2.367702747949068,-3.7539405449100864,-3.6035732168199863,-0.0008171919710430682,-0.00010337626389994291,-0.7448132568523452
11278,13.0,299.94645,31983.47,0.0,-0.05638970732639559,-0.05638896106990421,0.0,0.0,0.0,-2.371627065586368,-3.750988136768706,-3.599561050399017,-0.0004751557006467166,0.004272756716138256,-0.7499262992419633
11279,13.0,300.05095,31933.612,0.0,-0.05639468882507648,-0.05639393037081397,0.0,0.0,0.0,-2.3661567309464875,-3.746579282933586,-3.5942846518282767,0.0031418532834267773,0.0026503483567190175,-0.7491759267479072
11280,13.0,300.07828,31954.217999999997,0.0,-0.05639970331381483,-0.05639893258100093,0.0,0.0,0.0,-2.3688746730147274,-3.7486915040920468,-3.5957182993947665,-0.002391648279612308,-0.0024918799927544076,-0.7496672922514013
11281,13.0,299.95555,32003.276,0.0,-0.05640468481249572,-0.05640393479118788,0.0,0.0,0.0,-2.3815156772872976,-3.7462930397803365,-3.6003881664556467,-0.003483086127553837,-0.001988541622103778,-0.7407406500629103
11282,13.0,299.80016,32081.857000000004,0.0,-0.056409699301234184,-0.05640893700137506,0.0,0.0,0.0,-2.387126144416008,-3.754366515252126,-3.610590885687577,-0.006528861009998414,0.00015875794071068883,-0.7382322177178473
11283,13.0,300.0174,32046.841,0.0,-0.05641468079991507,-0.056413939211562014,0.0,0.0,0.0,-2.383290587487468,-3.748204130793946,-3.6099446347737962,0.0036813389460948662,0.004560560983817326,-0.7340765852152182
11284,13.0,299.91455,31942.03,0.0,-0.056419695288653426,-0.05641894142174919,0.0,0.0,0.0,-2.367351150164368,-3.7438375294879966,-3.5983908478585263,-0.0022926050075124976,0.00045666311625164053,-0.7427195275082104
11285,13.0,299.94,31981.193,0.0,-0.05642470977739189,-0.05642394363193637,0.0,0.0,0.0,-2.373922279712888,-3.749676788489286,-3.597885033408607,0.006238352479127454,9.63549169344899e-05,-0.7493404177691413
11286,13.0,300.0074,32086.273999999998,0.0,-0.05642969127607278,-0.056428945842123324,0.0,0.0,0.0,-2.3830807433917576,-3.758240271709436,-3.6121051879620265,0.005512685454309695,0.0019221681676782282,-0.7445067284320933
11287,13.0,299.95137,32004.504,0.0,-0.056434705764811244,-0.0564339480523105,0.0,0.0,0.0,-2.3783141109463277,-3.7489772406202464,-3.6012787119685363,0.004512215072520956,0.008297203626995242,-0.7480747164067263
11288,13.0,300.26568,31947.818,0.0,-0.05643968726349213,-0.05643895026249757,0.0,0.0,0.0,-2.3643532470934976,-3.7482474978982263,-3.5987380886677967,-0.0034942452535551565,0.0007682713138924752,-0.7446393628701833
11289,13.0,300.12624,31969.206000000002,0.0,-0.056444701752230486,-0.056443952472684744,0.0,0.0,0.0,-2.3680980168130774,-3.7537238107136965,-3.5960186267244065,-0.00011960703089179488,-0.0029273273643047166,-0.7496867061233172
11290,13.0,299.82255,32034.102000000003,0.0,-0.056449683250911376,-0.0564489546828717,0.0,0.0,0.0,-2.3750742437515777,-3.7562054628586163,-3.606287511187867,-0.003471016191037626,-0.003142486260764247,-0.7443227424789354
11291,13.0,299.93282,32089.013,0.0,-0.05645469773964984,-0.056453956893058876,0.0,0.0,0.0,-2.3760077510687077,-3.7657891876044567,-3.6124618519972262,0.004532179139241256,4.831264528233685e-05,-0.7545524242960263
11292,13.0,299.87127999999996,32049.982000000004,0.0,-0.05645971222838819,-0.05645895910324583,0.0,0.0,0.0,-2.3763837681808178,-3.7613574343170764,-3.604653037451557,-0.0008964438038421151,-0.0023540188053485676,-0.7474730890273503
11293,13.0,299.8113,31989.771,0.0,-0.05646469372706908,-0.056463928404155594,0.0,0.0,0.0,-2.3736287411589183,-3.751007287195596,-3.5994554697385968,-8.464776144433362e-05,-0.001903349174895938,-0.7494959009969863
11294,13.0,300.01007000000004,31985.867000000002,0.0,-0.056469708215807546,-0.05646893061434255,0.0,0.0,0.0,-2.3723021941279976,-3.750497419745276,-3.600105165702717,0.003830495642965486,0.0002332200997570318,-0.7441036575423132
11295,13.0,299.64524,32048.211,0.0,-0.056474689714488435,-0.056473932824529505,0.0,0.0,0.0,-2.377567953572688,-3.7548519633750366,-3.609435881898586,0.002149786899292448,0.006429589857951114,-0.7445851843873362
11296,13.0,299.82656000000003,32086.571,0.0,-0.05647970420322679,-0.05647893503471646,0.0,0.0,0.0,-2.381974679582598,-3.7590353690629064,-3.6125063336766168,-0.003192293380029827,-5.310071404688245e-05,-0.7476133127086894
11297,13.0,299.88594,32024.942000000003,0.0,-0.05648468570190768,-0.05648393724490364,0.0,0.0,0.0,-2.371776925276158,-3.756833272620576,-3.6061726086265264,-0.0024692317251941978,-0.0030552861598082673,-0.7505663997276363
11298,13.0,300.01704,32016.629,0.0,-0.05648970019064614,-0.056488939455090814,0.0,0.0,0.0,-2.375825974000768,-3.753137138905797,-3.6032928505173167,-0.003267126966165327,0.0014648203071415088,-0.7474467343922493
11299,13.0,300.04172,32104.386000000002,0.0,-0.05649468168932703,-0.05649394166527788,0.0,0.0,0.0,-2.3950438833474275,-3.7539632417123263,-3.609924471096807,0.0016414493552984384,0.004916042454825615,-0.7412321270239153
11300,13.0,300.02201,32147.307999999997,0.0,-0.056499696178065495,-0.05649894387546506,0.0,0.0,0.0,-2.3965194794680578,-3.760747457756876,-3.614712077819307,0.0019170882383018782,0.0014370083144216786,-0.7407451387608532
11301,13.0,299.9876,32109.572999999997,0.0,-0.05650471066680385,-0.05650394608565201,0.0,0.0,0.0,-2.393058622426498,-3.757990201584757,-3.609459490625917,-0.0023424772787595076,-8.399720827062903e-05,-0.7418675665591283
11302,13.0,300.06976000000003,32066.515,0.0,-0.05650969216548474,-0.05650894829583919,0.0,0.0,0.0,-2.3806613048029774,-3.7549878402134467,-3.6117707141040167,0.002542316340332088,0.0024785126908101578,-0.7462081678675123
11303,13.0,299.96622,32040.254,0.0,-0.0565147066542232,-0.05651395050602637,0.0,0.0,0.0,-2.3704938466745276,-3.758821167991767,-3.6101221561913173,-0.0003478486985349937,-0.0002198031992203868,-0.7514426381491143
11304,13.0,299.82043999999996,32092.816000000003,0.0,-0.05651968815290409,-0.05651895271621332,0.0,0.0,0.0,-2.3796895979570776,-3.761492297905386,-3.6142328105220067,-0.0021795746283822678,-6.634421608066433e-05,-0.7544677571176703
11305,13.0,299.91655,32138.127999999997,0.0,-0.056524702641642444,-0.0565239549264005,0.0,0.0,0.0,-2.3830363630373776,-3.769810878576367,-3.616341282655097,-0.002426095135311948,-0.002164044645424578,-0.7497216632517673
11306,13.0,300.00158,32037.22,0.0,-0.05652968414032333,-0.056528957136587454,0.0,0.0,0.0,-2.3780205723923578,-3.756148214227966,-3.6043461239962666,0.0013636343150552287,0.0066335475785301735,-0.7543412325776833
11307,13.0,299.96921000000003,31976.14,0.0,-0.0565346986290618,-0.05653395934677441,0.0,0.0,0.0,-2.360224455586018,-3.7562023217833063,-3.6035214397398763,0.003917260147703476,0.0066312134555998135,-0.7527267705308482
11308,13.0,299.81126,32068.942000000003,0.0,-0.056539680127742686,-0.05653892864768417,0.0,0.0,0.0,-2.373364384207828,-3.7643478393372063,-3.6104454842982263,0.007111214244647203,0.005334577364981795,-0.7528640051243923
11309,13.0,299.89473,32200.482000000004,0.0,-0.05654469461648104,-0.05654393085787113,0.0,0.0,0.0,-2.379606308798858,-3.7760763105697164,-3.6324599639208865,-0.0005402429759253305,-0.00041396758400541966,-0.7508778221458713
11310,13.0,299.94646,32151.682999999997,0.0,-0.0565497091052195,-0.056548933068058305,0.0,0.0,0.0,-2.383268701285308,-3.770898298583686,-3.6191417032814766,-0.003268008189777297,0.0005110012873144004,-0.7478370079332662
11311,13.0,299.82138,32081.646,0.0,-0.05655469060390039,-0.05655393527824526,0.0,0.0,0.0,-2.3793078053193977,-3.7639072781937264,-3.6088042217862464,-0.0075690186756789835,-0.0026382204622970875,-0.7411908168173383
11312,13.0,299.93253,32123.665,0.0,-0.056559705092638746,-0.056558937488432326,0.0,0.0,0.0,-2.395612823278577,-3.7579893909846764,-3.611189817821687,-0.002196669576119408,-0.002240136789509288,-0.7383393790484234
11313,13.0,299.87936,32200.062,0.0,-0.056564686591319746,-0.0565639396986195,0.0,0.0,0.0,-2.3951842184862775,-3.772956209536786,-3.619874485753796,0.0007932887223065014,-0.0045580256294171055,-0.7455111024612173
11314,13.0,299.86036,32187.123,0.0,-0.0565697010800581,-0.05656894190880646,0.0,0.0,0.0,-2.3892017872458577,-3.7689756565189363,-3.6259043370988966,0.006155170117467994,-0.003197693597762787,-0.7474028100004143
11315,13.0,299.98109,32101.123,0.0,-0.05657468257873899,-0.056573944118993635,0.0,0.0,0.0,-2.3763228718498075,-3.761410731272336,-3.6202063251615466,0.0016527176083355286,-0.001007885194033024,-0.7532635499038243
11316,13.0,300.11185,32039.065,0.0,-0.05657969706747745,-0.05657894632918081,0.0,0.0,0.0,-2.373037104425528,-3.7595527345639668,-3.6064858042324364,-0.0003405385246285357,0.004859322740727815,-0.7513756319200013
11317,13.0,300.08008,32116.676,0.0,-0.056584711556215805,-0.05658394853936777,0.0,0.0,0.0,-2.389316689807198,-3.7609809105799163,-3.6123697475631364,0.004340642851638096,0.002657718535296398,-0.7493644216640103
11318,13.0,300.12055,32257.531000000003,0.0,-0.056589693054896695,-0.056588950749554945,0.0,0.0,0.0,-2.405549969659298,-3.773090363850026,-3.6268436199415968,-0.002076008207836058,0.0036999015866018563,-0.7437192507193753
11319,13.0,299.93602999999996,32211.35,0.0,-0.05659470754363516,-0.0565939529597419,0.0,0.0,0.0,-2.394560259074698,-3.7712389532673063,-3.6256468702484868,-6.362165865821885e-05,-0.0008946561064256832,-0.7443395320330923
11320,13.0,299.85567000000003,32144.022999999997,0.0,-0.05659968904231605,-0.05659895516992908,0.0,0.0,0.0,-2.377010868667708,-3.7755574251935067,-3.618411960559457,-0.002587430591759517,-0.0034130960795463565,-0.7473201389247552
11321,13.0,300.03758999999997,32190.713,0.0,-0.0566047035310544,-0.05660395738011603,0.0,0.0,0.0,-2.380699706981768,-3.777977775707376,-3.6264953658822265,-0.001233503313987299,-0.0027109790135527974,-0.7504213124458172
11322,13.0,300.00485,32226.984,0.0,-0.05660968502973529,-0.05660892668102557,0.0,0.0,0.0,-2.392529503224278,-3.7768992723009362,-3.6267696526842967,-0.0011331214371803789,-0.0036529130251394468,-0.7472719386174983
11323,13.0,300.06841000000003,32161.35,0.0,-0.056614699518473754,-0.05661392889121275,0.0,0.0,0.0,-2.384260470483188,-3.7739499039098567,-3.6180370580224563,0.004107268758130866,-0.004663869633538095,-0.7574549298699813
11324,13.0,300.16095,32094.998,0.0,-0.056619681017154644,-0.05661893110139993,0.0,0.0,0.0,-2.3829446639033276,-3.7665987744343568,-3.606534440237237,-0.0025133745737507575,0.0013701503237983086,-0.7515356747732963
11325,13.0,300.38146,32076.156000000003,0.0,-0.056624695505892886,-0.05662393331158688,0.0,0.0,0.0,-2.376543355071568,-3.765254191551656,-3.608553138411467,-0.00039272267796621065,-0.005776861945556885,-0.7599434417180783
11326,13.0,300.23282,32142.658,0.0,-0.05662970999463146,-0.05662893552177395,0.0,0.0,0.0,-2.378479068062608,-3.772135476955786,-3.6199508848113364,-0.0034170733901638865,-0.002974079433193787,-0.7534844282931232
11327,13.0,300.03327,32237.132,0.0,-0.05663469149331235,-0.056633937731960904,0.0,0.0,0.0,-2.3872665808798677,-3.7773795528483367,-3.6346369317607365,-0.005527734954069965,0.003252333514705327,-0.7559036642318833
11328,13.0,299.711,32262.337000000003,0.0,-0.05663970598205059,-0.05663893994214808,0.0,0.0,0.0,-2.3991693311295776,-3.7781176042211757,-3.6296580234193567,-0.00023618158661930773,0.005922798837584734,-0.7423411191258643
11329,13.0,299.95981,32207.125,0.0,-0.056644687480731704,-0.05664394215233526,0.0,0.0,0.0,-2.396855574526228,-3.7731594675068463,-3.6201467460556667,0.0028547214085140674,0.0037398116841906763,-0.7478431684938742
11330,13.0,299.97553,32204.409,0.0,-0.05664970196947006,-0.05664894436252221,0.0,0.0,0.0,-2.3971914669343777,-3.770096311129536,-3.622048515168357,0.005439979794709205,0.0027116518116191974,-0.7394481887653543
11331,13.0,300.08824,32255.648999999998,0.0,-0.056654683468150946,-0.05665394657270939,0.0,0.0,0.0,-2.401232510983198,-3.7748249466962167,-3.6288545160900565,0.006885927102838093,0.001110053684078769,-0.7497561137551674
11332,13.0,300.10273,32255.905,0.0,-0.05665969795688941,-0.056658948782896346,0.0,0.0,0.0,-2.395601981502508,-3.7745734580213965,-3.634814250528237,0.001150850476830099,0.0033643459827850963,-0.7464812792994663
11333,13.0,300.13619,32171.568,0.0,-0.0566646794555703,-0.05666395099308352,0.0,0.0,0.0,-2.3844693013287976,-3.770056693050626,-3.6248274548926167,-0.003750333881179137,0.001056237336817509,-0.7519250566542253
11334,13.0,299.86139,32137.127,0.0,-0.05666969394430854,-0.0566689532032707,0.0,0.0,0.0,-2.3788213439463877,-3.770775999296617,-3.6192869020208063,-0.0066141577206415446,0.0009378587399494511,-0.7536550089474583
11335,13.0,299.92831,32197.396,0.0,-0.056674708433047116,-0.056673955413457655,0.0,0.0,0.0,-2.3867890361077375,-3.773669942907226,-3.626745334681897,-0.0032797236914085277,0.0009878520743184093,-0.7501801386570153
11336,13.0,299.83017,32269.398999999998,0.0,-0.056679689931728006,-0.056678924714367196,0.0,0.0,0.0,-2.3926234315085475,-3.7863440804580666,-3.6301239158153367,-0.0008114241968363332,0.0027659866389566274,-0.7551830204957614
11337,13.0,299.63962999999995,32235.746,0.0,-0.05668470442046625,-0.05668392692455437,0.0,0.0,0.0,-2.390815894655158,-3.7803229430638265,-3.6277230197033865,0.0032228635408468667,-0.0029450395840027776,-0.7502445307008703
11338,13.0,299.77576,32167.761000000002,0.0,-0.05668968591914714,-0.05668892913474133,0.0,0.0,0.0,-2.3774073534318374,-3.7804117037725864,-3.6203771591284064,0.009712222185096701,-0.0016275526301769384,-0.7588615033937993
11339,13.0,300.04758,32170.066000000003,0.0,-0.05669470040788571,-0.056693931344928505,0.0,0.0,0.0,-2.375402232808948,-3.7794522572528964,-3.624042186065117,0.008692829155040441,-0.003929165329753426,-0.7515936428115172
11340,13.0,299.85835,32259.322999999997,0.0,-0.0566996819065666,-0.05669893355511557,0.0,0.0,0.0,-2.3924067986371678,-3.779925647699616,-3.633696230367897,0.0036499393387459662,0.0009157187490369042,-0.7460216487891043
11341,13.0,300.10621000000003,32319.181,0.0,-0.05670469639530484,-0.05670393576530275,0.0,0.0,0.0,-2.397170492657308,-3.7909342047360766,-3.6361192153320268,-0.004068051014335376,-0.004244618152911196,-0.7486059634341562
11342,13.0,299.83362,32212.662999999997,0.0,-0.05670971088404331,-0.056708937975489704,0.0,0.0,0.0,-2.3960518645469078,-3.774593723023396,-3.6211994115845565,-0.002252223545977158,-0.00048028314132025543,-0.7548238942628183
11343,13.0,299.95234,32207.387000000002,0.0,-0.05671469238272431,-0.05671394018567666,0.0,0.0,0.0,-2.384295630261658,-3.7786317273219168,-3.6273142746130467,-0.006482548286352703,0.001050496869700969,-0.7575925798960663
11344,13.0,300.11777,32285.046000000002,0.0,-0.05671970687146255,-0.056718942395863836,0.0,0.0,0.0,-2.401778348812068,-3.782870557790256,-3.6291988184740367,-0.001088605712587019,0.0016089131853123683,-0.7579838160246782
11345,13.0,300.09285,32306.453999999998,0.0,-0.05672468837014366,-0.05672394460605079,0.0,0.0,0.0,-2.3984322930068376,-3.7838174400087063,-3.638105692153076,0.0017507915040646685,-0.0008697085413410501,-0.7549584234785952
11346,13.0,299.92375,32246.502999999997,0.0,-0.056729702858882125,-0.05672894681623797,0.0,0.0,0.0,-2.3970546781708775,-3.777039506114776,-3.628037633859436,0.002838474855085657,-0.005138857570365756,-0.7473988583250243
11347,13.0,299.90716000000003,32232.491,0.0,-0.05673468435756279,-0.056733949026425146,0.0,0.0,0.0,-2.3877609456036577,-3.780119077143706,-3.629992395952357,-0.00019950466877457782,-0.002276766793874388,-0.7442646224531992
11348,13.0,299.60999,32258.49,0.0,-0.05673969884630137,-0.0567389512366121,0.0,0.0,0.0,-2.4004860496345275,-3.7752651025396564,-3.630024212005497,0.0028509798811948072,-0.004511877558912645,-0.7420142547761053
11349,13.0,299.80185,32352.521,0.0,-0.05674468034498226,-0.05674395344679928,0.0,0.0,0.0,-2.399036494041468,-3.7925026145658665,-3.6428194329432864,0.0018537049862464383,-0.0015048477390919087,-0.7485647342875873
11350,13.0,299.95108,32355.259,0.0,-0.0567496948337205,-0.056748955656986344,0.0,0.0,0.0,-2.4033962052467377,-3.7931514999299067,-3.6386432213311264,-0.0006477052417810304,-0.004645252074875685,-0.7550814320407353
11351,13.0,299.75166,32235.936,0.0,-0.05675470932245896,-0.056753924957895885,0.0,0.0,0.0,-2.385668989447198,-3.7828500901382363,-3.6304006344176463,-0.001806221553435188,-0.0009313124248958801,-0.7570123016962973
11352,13.0,300.11825,32246.964,0.0,-0.05675969082113996,-0.05675892716808295,0.0,0.0,0.0,-2.3886671964930977,-3.7892640645962463,-3.624340689544576,0.0021416830263176583,0.007401992401369774,-0.7598865983874683
11353,13.0,300.08467,32288.89,0.0,-0.056764705309878205,-0.05676392937827002,0.0,0.0,0.0,-2.395249370467708,-3.7865821942315665,-3.6331846403924066,0.0017382951919063783,0.0030882503266365774,-0.7537789091696864
11354,13.0,300.06052999999997,32297.952999999998,0.0,-0.056769686808559094,-0.056768931588457194,0.0,0.0,0.0,-2.3934758788176773,-3.7936800111820665,-3.6306153421138365,0.002837143748429287,-0.003212474079621507,-0.7579958939658703
11355,13.0,300.17274,32260.361,0.0,-0.05677470129729756,-0.05677393379864437,0.0,0.0,0.0,-2.3863384437882678,-3.7843189988082067,-3.6356867601893463,-0.0003156471746594507,-0.003202158889628477,-0.7581487326109543
11356,13.0,299.98017999999996,32257.755,0.0,-0.05677968279597845,-0.05677893600883133,0.0,0.0,0.0,-2.3860572668855182,-3.7838892794407966,-3.635605396206317,0.0018984876009161386,0.001018094550053109,-0.7536765911745883
11357,13.0,299.70426000000003,32333.817000000003,0.0,-0.0567846972847168,-0.05678393821901828,0.0,0.0,0.0,-2.398116969575718,-3.7861099183599563,-3.644446003328817,-0.0075648114586137636,-0.0031199511732402075,-0.7544367921946143
11358,13.0,299.9608,32410.276,0.0,-0.05678967878339791,-0.05678894042920524,0.0,0.0,0.0,-2.406249821503368,-3.7941364803521163,-3.6515284188777963,-0.01285450721439109,-0.004069690452997176,-0.7492540685956193
11359,13.0,300.02232000000004,32346.475,0.0,-0.056794693272136376,-0.056793942639392414,0.0,0.0,0.0,-2.4023127369148076,-3.7876432697362863,-3.6425648031931566,-0.004039958655312876,0.006118536161427505,-0.7511641463591293
11360,13.0,300.128,32288.29,0.0,-0.05679970776087473,-0.05679894484957959,0.0,0.0,0.0,-2.3954728934397678,-3.7845575178817468,-3.6348036114021864,0.0007906946095329821,0.007800255318100263,-0.7496248472047123
11361,13.0,300.16465,32322.126,0.0,-0.05680468925955562,-0.05680394705976666,0.0,0.0,0.0,-2.396146096806208,-3.7890425681243864,-3.6399304542581667,0.00912176092314771,0.004596980941436696,-0.7577067529173344
11362,13.0,300.03896000000003,32366.521,0.0,-0.05680970374829408,-0.056808949269953835,0.0,0.0,0.0,-2.4082613256018877,-3.7907993411477667,-3.6395536265459763,-0.0025574722313528573,-0.003459503643401427,-0.7547736370578583
11363,13.0,300.15102,32397.365,0.0,-0.05681468524697475,-0.05681395148014079,0.0,0.0,0.0,-2.4123851521838775,-3.794048124943396,-3.6415567206686665,0.0054133870458347045,0.006479507624127614,-0.7559730515987313
11364,13.0,299.95785,32310.583,0.0,-0.056819699735713214,-0.05681895369032797,0.0,0.0,0.0,-2.403236415705968,-3.786258764799646,-3.632115256236867,-0.0020509168929597377,0.0033924747174861867,-0.7521904977829222
11365,13.0,299.82178,32283.174,0.0,-0.056824681234394214,-0.05682392299123751,0.0,0.0,0.0,-2.3995786841699775,-3.7837150004235967,-3.6299853032016562,-0.004240539111983626,-0.0023856735490726476,-0.7486539509588923
11366,13.0,299.75247,32378.501,0.0,-0.056829695723132456,-0.05682892520142446,0.0,0.0,0.0,-2.4010968367948076,-3.7930081250407564,-3.648150850994457,-0.007360882210362513,-0.006968404343752963,-0.7498765891920572
11367,13.0,299.89012,32435.717999999997,0.0,-0.05683471021187092,-0.05683392741161164,0.0,0.0,0.0,-2.405557569035048,-3.7988353263658565,-3.655255355395617,-0.004680090045113925,0.0014502879702322786,-0.7525319833316243
11368,13.0,300.04359,32388.564,0.0,-0.05683969171055181,-0.05683892962179882,0.0,0.0,0.0,-2.400851022320548,-3.795085997020826,-3.6493775928905263,0.005464692356698145,-8.266657480205572e-05,-0.7566776150557663
11369,13.0,300.15297999999996,32338.422000000002,0.0,-0.05684470619929016,-0.05684393183198577,0.0,0.0,0.0,-2.3981342961524277,-3.7937962309685362,-3.6381421691566764,-0.0017246589733855885,-0.006690322109458384,-0.7611911984212223
11370,13.0,299.8401,32337.891,0.0,-0.05684968769797105,-0.05684893404217295,0.0,0.0,0.0,-2.3975435713441273,-3.797005599335276,-3.6353622161823167,0.006067853492750515,-0.0005348123201593665,-0.7655147062004192
11371,13.0,299.81225,32353.985,0.0,-0.056854702186709516,-0.056853936252359905,0.0,0.0,0.0,-2.4026097205191177,-3.7989135492735766,-3.6332801898768365,0.0032001352265287573,-0.00012154717178577188,-0.7588395867941363
11372,13.0,299.82698,32392.153,0.0,-0.05685968368539063,-0.05685893846254708,0.0,0.0,0.0,-2.394857951954078,-3.809338271602416,-3.642209355058076,0.006556767538952573,0.0052590501078278356,-0.7588406304417393
11373,13.0,299.98238,32343.897,0.0,-0.05686469817412887,-0.05686394067273404,0.0,0.0,0.0,-2.3941133144555873,-3.7933752255519866,-3.644248318234307,-0.0053712760677036755,-0.006719935559531003,-0.7525075640042144
11374,13.0,299.75336,32338.569,0.0,-0.05686967967280987,-0.0568689428829211,0.0,0.0,0.0,-2.4005768368434874,-3.793691764883226,-3.635848880205347,-0.00036401168922765663,-0.006626444290029134,-0.7555447203839584
11375,13.0,299.93354,32429.057999999997,0.0,-0.056874694161548334,-0.05687394509310828,0.0,0.0,0.0,-2.4108676075091076,-3.7969176492265966,-3.649838621686026,-0.002304183923030248,0.007782843831031882,-0.7499713280764073
11376,13.0,299.86172999999997,32512.088,0.0,-0.056879708650286576,-0.056878947303295235,0.0,0.0,0.0,-2.4292402636223476,-3.7979784207562863,-3.6556440381339765,0.00036136133094108664,0.004142330150016155,-0.7466024032164202
11377,13.0,299.83758,32494.427000000003,0.0,-0.056884690148967465,-0.05688394951348241,0.0,0.0,0.0,-2.419071792243798,-3.7998324657892666,-3.6585902654497464,0.0037690809332043265,-0.0046166170190996255,-0.7490720787451584
11378,13.0,300.10442,32400.464,0.0,-0.05688970463770604,-0.05688895172366959,0.0,0.0,0.0,-2.407125168264758,-3.7927889590441266,-3.6490178891050262,0.00046738248157705955,-0.005160723507523755,-0.7564117584945284
11379,13.0,300.20195,32414.379,0.0,-0.05689468613638671,-0.05689392102457891,0.0,0.0,0.0,-2.402349213918408,-3.800330072913376,-3.6504826434495867,0.002110730160937848,0.004195408141929546,-0.7526689848776453
11380,13.0,299.95448,32420.539,0.0,-0.05689970062512517,-0.056898923234766086,0.0,0.0,0.0,-2.4128847858081874,-3.7970004317597663,-3.6451489962481967,-0.0037334106793339462,0.0016038159293593084,-0.7590216273071022
11381,13.0,299.85819,32413.0,0.0,-0.05690468212380606,-0.05690392544495326,0.0,0.0,0.0,-2.4056521052693776,-3.7987118111786664,-3.6483787309419466,-0.006266128906768774,0.0020969972783575178,-0.7588287348855652
11382,13.0,299.84258,32363.952,0.0,-0.056909696612544414,-0.05690892765514022,0.0,0.0,0.0,-2.404190390675118,-3.7978807434466466,-3.6357620446717767,7.446227557010443e-05,0.005484418613619975,-0.7612203293615973
11383,13.0,299.90209,32372.498,0.0,-0.0569146781112253,-0.056913929865327395,0.0,0.0,0.0,-2.394391755583068,-3.7998216240131963,-3.6462176711286665,0.002387773408579888,0.014203748007800786,-0.7516270597998153
11384,13.0,300.0475,32423.335,0.0,-0.05691969259996377,-0.05691893207551435,0.0,0.0,0.0,-2.3936406332839377,-3.802593369661747,-3.6596502263793567,0.004424470146986206,0.006178984635893304,-0.7563585729967793
11385,13.0,299.97047000000003,32507.69,0.0,-0.05692470708870212,-0.05692393428570153,0.0,0.0,0.0,-2.4122474514952876,-3.8083567362305466,-3.6609219565798665,-0.001898210578338798,-0.002198911797265698,-0.7490895775743853
11386,13.0,299.96449,32511.017999999996,0.0,-0.05692968858738312,-0.056928936495888705,0.0,0.0,0.0,-2.407057787133108,-3.814875278098876,-3.6606047079735564,0.0017569876297511783,-0.0018782978833985682,-0.7618950627356883
11387,13.0,299.92438,32444.188,0.0,-0.05693470307612147,-0.05693393870607566,0.0,0.0,0.0,-2.4096299225119577,-3.801881460141486,-3.6507115366471767,0.0002869289614476837,0.0030382928410561567,-0.7585189843299953
11388,13.0,300.2762,32467.089,0.0,-0.056939684574802585,-0.056938940916262726,0.0,0.0,0.0,-2.4107113643436877,-3.8085690121264966,-3.649903874992467,-0.0018459507858811584,-0.0059893163761745045,-0.7648737849821653
11389,13.0,300.40285,32492.322,0.0,-0.05694469906354083,-0.05694394312644968,0.0,0.0,0.0,-2.413819813000468,-3.803846760035446,-3.6591879816837363,-0.0016954373471266384,-0.01329865019697459,-0.7576971574388872
11390,13.0,300.21066,32448.853,0.0,-0.056949680562221716,-0.05694894533663686,0.0,0.0,0.0,-2.404615955717118,-3.8009049910201167,-3.658120218728357,-0.001089886258063399,-0.009408378067009622,-0.7601512187835843
11391,13.0,299.99787000000003,32413.479,0.0,-0.05695469505096029,-0.056953947546824035,0.0,0.0,0.0,-2.4051345371182977,-3.796670517527206,-3.651083196783856,0.006416977427331364,0.004693740854436155,-0.7487339673192893
11392,13.0,300.02587,32457.408,0.0,-0.05695970953969853,-0.05695894975701099,0.0,0.0,0.0,-2.406958488623308,-3.7997966980607365,-3.6594862825131766,-0.002097586381965658,0.003622500931338006,-0.7499854426503003
11393,13.0,299.85197999999997,32512.45,0.0,-0.05696469103837942,-0.05696391905792053,0.0,0.0,0.0,-2.4197496565606977,-3.808957897514876,-3.6542655113729263,-0.0005126101967506875,0.004935124386008855,-0.7549287656481682
11394,13.0,299.86501,32562.065,0.0,-0.056969705527117886,-0.05696892126810771,0.0,0.0,0.0,-2.422328276740188,-3.8131226594009062,-3.6626038504208567,-0.0015673285906082886,0.0025819184098905077,-0.7511285711481183
11395,13.0,299.95075,32537.696,0.0,-0.056974687025798665,-0.056973923478294664,0.0,0.0,0.0,-2.4168496334494876,-3.813472028035386,-3.6603252535959765,0.004432690543722496,0.004167335946584035,-0.7543635342123843
11396,13.0,299.86782,32484.27,0.0,-0.05697970151453713,-0.05697892568848184,0.0,0.0,0.0,-2.4079402266451977,-3.811435294009376,-3.655031325798507,0.0022725389065071278,-0.006731510928673404,-0.7493246313325832
11397,13.0,300.14266000000003,32517.737999999998,0.0,-0.05698468301321802,-0.056983927898668796,0.0,0.0,0.0,-2.4164011689552276,-3.8073411556553163,-3.6608380594715864,-0.0012936757791258587,-0.005404733180705635,-0.7592484028119832
11398,13.0,300.10942,32516.447,0.0,-0.05698969750195637,-0.05698893010885597,0.0,0.0,0.0,-2.410857475008108,-3.8139743974349667,-3.6593558772253068,-0.004363355561904666,-0.0032825396147614368,-0.7581712368956753
11399,13.0,300.09736000000004,32449.667999999998,0.0,-0.05699467900063737,-0.05699393231904315,0.0,0.0,0.0,-2.4104890572717474,-3.8056343358618667,-3.6477655119814263,-0.0030808720420583973,0.0032812750786366373,-0.7673136405604603
11400,13.0,300.00195,32401.125,0.0,-0.056999693489375725,-0.056998934529230105,0.0,0.0,0.0,-2.4005022616361273,-3.803231717224746,-3.6453990663728764,-0.0030335146575595873,-0.0017873165357194085,-0.7667349025008432
11401,13.0,299.85572,32443.289,0.0,-0.057004707978113967,-0.05700393673941728,0.0,0.0,0.0,-2.4058295253618875,-3.808410742460876,-3.647709479250896,-0.004162210927578236,-0.007734233664109432,-0.7665545642480454
11402,13.0,299.90305,32513.093999999997,0.0,-0.05700968947679508,-0.05700893894960435,0.0,0.0,0.0,-2.4076963373461275,-3.813007250214517,-3.6624652378071767,-0.001947591321962298,-0.004961853315696795,-0.7633626136505243
11403,13.0,299.74119,32517.697999999997,0.0,-0.05701470396553343,-0.057013941159791526,0.0,0.0,0.0,-2.410899524887258,-3.8147286608094064,-3.6589401407092765,0.0025415211416536074,0.0021507212172096578,-0.7555049097875294
11404,13.0,299.68183,32520.141,0.0,-0.05701968546421454,-0.05701894336997848,0.0,0.0,0.0,-2.4022116145548273,-3.8232430013997063,-3.6598561187996768,0.0037072441034515066,0.005236244887827135,-0.7596833201524064
11405,13.0,300.02996,32554.269,0.0,-0.057024699952952784,-0.057023945580165436,0.0,0.0,0.0,-2.419026195989298,-3.814078863520276,-3.6625798363934865,0.0024781642341007676,0.004312564779442006,-0.7522346248247772
11406,13.0,300.14602,32598.391,0.0,-0.057029681451633674,-0.05702894779035261,0.0,0.0,0.0,-2.4212998278886877,-3.824685869542107,-3.663111286070936,0.003831593296798816,0.004587032851954896,-0.7612303098750823
11407,13.0,300.13217000000003,32583.837000000003,0.0,-0.05703469594037214,-0.05703395000053957,0.0,0.0,0.0,-2.424639297568268,-3.814553064567076,-3.6654804674547568,0.0015550694802984085,0.0018796314218551783,-0.7510116826165822
11408,13.0,300.11408,32532.764,0.0,-0.057039677439052916,-0.05703891930144911,0.0,0.0,0.0,-2.416802415994827,-3.8072376014950966,-3.6651078953929863,-0.004425168174980096,-0.005313055527557755,-0.7576052961848213
11409,13.0,299.91038,32492.581000000002,0.0,-0.05704469192779138,-0.057043921511636286,0.0,0.0,0.0,-2.4135071240196075,-3.805907812063856,-3.6575183481689564,-0.008501639905596532,-0.012621522512897288,-0.7584843919715812
11410,13.0,299.6167,32520.46,0.0,-0.057049706416529844,-0.05704892372182324,0.0,0.0,0.0,-2.4148381293509678,-3.8079725117926264,-3.6625971629701963,-0.002119488694802248,-0.0013162863537823487,-0.7632977352466213
11411,13.0,299.99502,32588.587000000003,0.0,-0.05705468791521062,-0.05705392593201042,0.0,0.0,0.0,-2.4235374894095276,-3.815711108106367,-3.6668681134667067,-0.0023420877854210677,0.001111128641109859,-0.7607344759386473
11412,13.0,300.17831,32552.957000000002,0.0,-0.057059702403949086,-0.057058928142197596,0.0,0.0,0.0,-2.4185590876931977,-3.812423314181886,-3.664303577463607,0.005829060639033495,0.002241666391860248,-0.7609636325812633
11413,13.0,300.22512,32570.359,0.0,-0.057064683902629976,-0.05706393035238466,0.0,0.0,0.0,-2.4165316755681077,-3.8213096188838964,-3.662734762333776,0.004333093226468006,0.0011007826483137887,-0.7588976865548703
11414,13.0,300.11843999999996,32595.283,0.0,-0.05706969839136822,-0.05706893256257173,0.0,0.0,0.0,-2.4205201319367378,-3.8213737576152265,-3.6662582382315168,0.0054167408023406945,0.008142921201843753,-0.7561998575011153
11415,13.0,300.19965,32620.55,0.0,-0.05707467989004933,-0.057073934772758794,0.0,0.0,0.0,-2.414993257941277,-3.8268792520335766,-3.6739602562166467,0.004621571204138565,0.008942711727126932,-0.7591754082747793
11416,13.0,300.03378,32573.528,0.0,-0.05707969437878768,-0.05707893698294597,0.0,0.0,0.0,-2.4084089561414577,-3.8265168124728066,-3.6666133823915663,-0.0044290730382154754,0.005553332691346265,-0.7625680330546053
11417,13.0,300.05559,32557.474,0.0,-0.057084708867525924,-0.05708393919313315,0.0,0.0,0.0,-2.4089765788474775,-3.8217091433983263,-3.6659734136284063,0.0003503020607371217,-0.0037171255210767264,-0.7606162093869753
11418,13.0,299.99099,32550.379,0.0,-0.057089690366207035,-0.057088941403320104,0.0,0.0,0.0,-2.4082797667537075,-3.821055090458776,-3.6651673731738565,-0.003596377823884856,-0.005660522494250074,-0.7617597026548293
11419,13.0,300.08212000000003,32544.718999999997,0.0,-0.0570947048549455,-0.05709394361350706,0.0,0.0,0.0,-2.4152009742117775,-3.8130989493485665,-3.664482010806217,0.0052980721930290155,-0.001261166460267439,-0.7561712027882873
11420,13.0,299.81111,32567.156000000003,0.0,-0.05709968635362639,-0.057098945823694014,0.0,0.0,0.0,-2.4169296802073874,-3.8128881933277667,-3.669784551229536,-0.0036779956260649064,-0.004880146043532915,-0.7595047246897803
11421,13.0,300.16985,32595.766,0.0,-0.05710470084236474,-0.05710394803388119,0.0,0.0,0.0,-2.4238733818176774,-3.817093789192826,-3.6673317767124667,0.0029777452707305772,-0.0058764631131617544,-0.7535136909560113
11422,13.0,300.07952,32607.402000000002,0.0,-0.05710968234104563,-0.057108917334790954,0.0,0.0,0.0,-2.4211499681988977,-3.8199713181518162,-3.670714613496327,-0.0027190587711752074,-0.00047578705678402657,-0.7641214163854123
11423,13.0,299.88417999999996,32650.484,0.0,-0.057114696829784095,-0.05711391954497791,0.0,0.0,0.0,-2.4351549084310773,-3.8227313100992064,-3.6670455335592163,0.0015555394256947885,0.005463025762933666,-0.7561153220452722
11424,13.0,299.66085,32700.374,0.0,-0.057119678328464873,-0.057118921755164864,0.0,0.0,0.0,-2.430853560431568,-3.8273122138013065,-3.6819312921033265,-0.003102480208390957,0.0035938028514057264,-0.7627108709212023
11425,13.0,299.95063,32659.257,0.0,-0.05712469281720334,-0.05712392396535204,0.0,0.0,0.0,-2.4369811904113177,-3.822455199446957,-3.6681621351694167,-0.0015467343836507985,0.004393777281582056,-0.7538160447858513
11426,13.0,300.02742,32619.821,0.0,-0.0571297073059418,-0.05712892617553911,0.0,0.0,0.0,-2.4220049486332775,-3.8277594623954463,-3.6658465547158867,-0.002526368087733118,0.007906933227053553,-0.7607755733627033
11427,13.0,300.46467,32600.921000000002,0.0,-0.05713468880462247,-0.057133928385726285,0.0,0.0,0.0,-2.4195851047444576,-3.8198460804394565,-3.670434855143717,0.0016577156671037983,0.005309599838091705,-0.7584185205825803
11428,13.0,300.29862,32563.174,0.0,-0.057139703293361044,-0.05713893059591324,0.0,0.0,0.0,-2.410530195225808,-3.8218157373088464,-3.666045861010557,0.002297163721037408,-0.0018606165678285583,-0.7632357040754993
11429,13.0,300.09821,32581.507,0.0,-0.05714468479204193,-0.05714393280610042,0.0,0.0,0.0,-2.4116729386885876,-3.824173367641526,-3.668118362765097,0.005201816270629295,-0.01082472915031759,-0.7677738283583773
11430,13.0,300.1323,32617.112999999998,0.0,-0.057149699280780175,-0.057148935016287594,0.0,0.0,0.0,-2.417765712864898,-3.8225967504859266,-3.674425439337557,0.004108663496893516,-0.006540474072044534,-0.7588764589652753
11431,13.0,300.17183,32622.187,0.0,-0.05715468077946129,-0.05715393722647455,0.0,0.0,0.0,-2.4183338421959677,-3.8284903196925764,-3.669506008777047,0.0009049340594775382,-0.0012797794593043988,-0.7683532858255653
11432,13.0,299.82737000000003,32615.587000000003,0.0,-0.05715969526819975,-0.057158939436661726,0.0,0.0,0.0,-2.4148051987227177,-3.8276294624076166,-3.6718891730122465,-0.002930171456010407,-0.001115782194844129,-0.7630532177324892
11433,13.0,299.8678,32677.002999999997,0.0,-0.05716467676688064,-0.05716394164684868,0.0,0.0,0.0,-2.425044597608268,-3.8305534995461965,-3.677394768755607,-0.0014813448963973584,0.0025403890373168776,-0.7731300203744923
11434,13.0,299.81767,32691.847,0.0,-0.05716969125561899,-0.05716894385703564,0.0,0.0,0.0,-2.4317251581675876,-3.8334147151785762,-3.672365197909226,-0.0018566113928332783,0.0035644905392628267,-0.7637221654485092
11435,13.0,300.03471,32621.472999999998,0.0,-0.05717470574435746,-0.057173946067222814,0.0,0.0,0.0,-2.4206426338738276,-3.823827748032416,-3.671642953237946,0.005710147228497655,0.007144920617173763,-0.7681864035340953
11436,13.0,299.99721,32617.981,0.0,-0.057179687243038346,-0.057178915368132355,0.0,0.0,0.0,-2.4192157750830074,-3.8232200006224364,-3.672615977308977,0.0008231369525597922,-0.0012113773768536388,-0.7603920075373484
11437,13.0,299.98767000000004,32652.819,0.0,-0.0571847017317767,-0.05718391757831953,0.0,0.0,0.0,-2.428619546611088,-3.8213574442886165,-3.6756648468598763,0.0005920551550187944,-0.002258850302956168,-0.7576736601690682
11438,13.0,300.14617999999996,32691.875,0.0,-0.05718968323045759,-0.05718891978850649,0.0,0.0,0.0,-2.4256019864882776,-3.8287585269940463,-3.683153271723926,-0.0046263896136641055,-0.0017091061923006482,-0.7612216161892242
11439,13.0,300.08256,32696.517000000003,0.0,-0.05719469771919605,-0.05719392199869355,0.0,0.0,0.0,-2.430361627508018,-3.8309144192318163,-3.677648689230667,-0.007990782408603823,0.0016771708796238785,-0.7612287393374273
11440,13.0,300.19886,32759.401,0.0,-0.05719967921787672,-0.05719892420888073,0.0,0.0,0.0,-2.438312499717708,-3.835247177984426,-3.6844800214048665,-0.006508901604228574,-0.0057671914866024845,-0.7617573823121003
11441,13.0,300.19063,32772.127,0.0,-0.057204693706615295,-0.057203926419067685,0.0,0.0,0.0,-2.4345764439489876,-3.8408777074651166,-3.686454136574697,-0.003134115801688147,-0.009233924568142402,-0.7560024966466373
11442,13.0,300.1191,32726.832000000002,0.0,-0.05720970819535376,-0.05720892862925486,0.0,0.0,0.0,-2.425938689496508,-3.8368490250675165,-3.6853520244409266,0.0034919130557999867,-0.003981849876652986,-0.7626302770082483
11443,13.0,299.92161,32710.69,0.0,-0.057214689694034426,-0.05721393083944204,0.0,0.0,0.0,-2.4293564834088177,-3.8276142636561166,-3.6862621256807464,0.0014230055020147086,0.0006782758686931163,-0.7537888998156722
11444,13.0,300.02459,32679.759,0.0,-0.05721970418277289,-0.057218933049628995,0.0,0.0,0.0,-2.422194629051998,-3.8333961727017467,-3.6782400219890263,0.004546077384237905,0.004273697518856106,-0.7654557755746033
11445,13.0,299.87854,32666.736,0.0,-0.057224685681454,-0.05722393525981617,0.0,0.0,0.0,-2.427200996471088,-3.8308654792519863,-3.6718056812040065,0.00017137893329378383,0.0051838544874316045,-0.7677541713064373
11446,13.0,299.95581,32660.132,0.0,-0.057229700170192355,-0.05722893747000313,0.0,0.0,0.0,-2.4262482374020578,-3.827646383684286,-3.6739700847426167,0.0013528242537133586,0.007145861926516664,-0.7718359682742794
11447,13.0,299.94317,32672.5,0.0,-0.057234681668873244,-0.057233939680190304,0.0,0.0,0.0,-2.419925455453048,-3.835213943381146,-3.676484667515786,-0.0037983396444169364,0.0006611792794908144,-0.7681255072030853
11448,13.0,300.08831000000004,32662.486,0.0,-0.05723969615761171,-0.05723894189037748,0.0,0.0,0.0,-2.4185795553452176,-3.8332148009338467,-3.6767856027954866,-0.001828239984733238,-0.004061863197299686,-0.7639460734556073
11449,13.0,300.14473,32748.417999999998,0.0,-0.0572446776562926,-0.05724394410056444,0.0,0.0,0.0,-2.428037535753648,-3.840928977920176,-3.6857347290036966,-0.007405385168004612,-0.0035191905590920666,-0.7633798389022243
11450,13.0,300.0335,32759.645,0.0,-0.05724969214503095,-0.0572489463107515,0.0,0.0,0.0,-2.4320622664758575,-3.841855088511576,-3.684196818001917,0.0030647619734184574,-0.0036912982826527766,-0.7670627801007023
11451,13.0,300.02385,32731.765,0.0,-0.057254706633769414,-0.057253915611661155,0.0,0.0,0.0,-2.4333653061044576,-3.8369228909998063,-3.6793509493986662,0.0007876704024895164,-0.0007321294934255553,-0.7623644711095153
11452,13.0,299.88405,32736.722,0.0,-0.057259688132450304,-0.05725891782184811,0.0,0.0,0.0,-2.432808525174508,-3.8351018779200863,-3.6832355476320466,0.007274497674412024,-0.004000716897490017,-0.7596769670742793
11453,13.0,299.79086,32751.845,0.0,-0.057264702621188546,-0.05726392003203529,0.0,0.0,0.0,-2.4350044407912277,-3.8320855336973962,-3.688653193266726,0.005812468769971005,-0.002032219084889408,-0.7565801403961463
11454,13.0,299.92328,32741.682999999997,0.0,-0.057269684119869435,-0.05726892224222235,0.0,0.0,0.0,-2.430743116170668,-3.8334312311552066,-3.6884797248496066,0.0035584062763873566,-0.0007182997036056613,-0.7603898695796373
11455,13.0,299.77912000000003,32745.941000000003,0.0,-0.05727469860860801,-0.05727392445240931,0.0,0.0,0.0,-2.4286500454390976,-3.8320732733711864,-3.6932249777179265,0.0026253189514238075,0.002392569931903268,-0.7566653040670513
11456,13.0,300.03794,32819.339,0.0,-0.05727968010728868,-0.057278926662596485,0.0,0.0,0.0,-2.437707589408008,-3.8437569589492764,-3.6947950087478767,0.0015763845133770387,0.005185213965090775,-0.7660278869785663
11457,13.0,300.08567999999997,32800.3,0.0,-0.05728469459602714,-0.05728392887278344,0.0,0.0,0.0,-2.4438655155657476,-3.840329133860976,-3.686277628407276,-0.0014599620768870386,0.008517919896278241,-0.7628095310834393
11458,13.0,299.9644,32744.188,0.0,-0.05728967609470825,-0.05728893108297062,0.0,0.0,0.0,-2.425957535948368,-3.841138923340896,-3.6863191716613763,-0.005641451202192884,0.0035080214019147567,-0.7738346142290303
11459,13.0,299.96546,32753.295,0.0,-0.057294690583446606,-0.05729393329315757,0.0,0.0,0.0,-2.430101424882338,-3.8421603807667064,-3.6839219232497866,-0.0009977603025412751,0.0058248495716178945,-0.7648752541948103
11460,13.0,300.20504,32790.394,0.0,-0.05729970507218485,-0.05729893550334475,0.0,0.0,0.0,-2.430599741281518,-3.8446007936325564,-3.6922605662727466,-0.004957991008965615,-0.003243272829661107,-0.7663482462626833
11461,13.0,299.96836,32763.545,0.0,-0.05730468657086596,-0.05730393771353193,0.0,0.0,0.0,-2.4275980891852775,-3.844168338489876,-3.687533045281176,0.0006102452133315134,-0.006852337355398044,-0.7683692343821392
11462,13.0,300.04202999999995,32753.307999999997,0.0,-0.0573097010596042,-0.05730893992371888,0.0,0.0,0.0,-2.426772695653818,-3.8426485646648865,-3.6867667242305466,-0.002175059281961638,-0.01020957488210659,-0.7665467622222752
11463,13.0,299.9962,32767.238999999998,0.0,-0.05731468255828509,-0.05731394213390606,0.0,0.0,0.0,-2.436178088382058,-3.8406244962651264,-3.683619772069967,0.007023799537320044,-0.0029072781845760173,-0.7663614185139833
11464,13.0,300.03447,32797.489,0.0,-0.057319697047023666,-0.057318944344093126,0.0,0.0,0.0,-2.4272383853997774,-3.848255282768226,-3.6941241358566668,0.0042316350754048665,-0.0030909912694820872,-0.7641261989258843
11465,13.0,299.90271,32822.982,0.0,-0.057324678545704555,-0.057323913645002555,0.0,0.0,0.0,-2.439370839447158,-3.841030404255186,-3.6969655931120964,-0.0012521513714777188,-0.003842068681632656,-0.7682980130326102
11466,13.0,299.65317000000005,32800.801,0.0,-0.0573296930344428,-0.05732891585518973,0.0,0.0,0.0,-2.4280811055079474,-3.8452998348765464,-3.6972435276145266,-0.0003071636064746877,-0.00026585049186990075,-0.7687486560145853
11467,13.0,299.72679,32754.577999999998,0.0,-0.05733470752318137,-0.0573339180653768,0.0,0.0,0.0,-2.4268541609618577,-3.839729391126786,-3.689990379423697,-0.006784279777981283,0.007668723600094093,-0.7731386330003422
11468,13.0,299.81882,32807.682,0.0,-0.05733968902186226,-0.057338920275563976,0.0,0.0,0.0,-2.437081704821238,-3.8435585645796966,-3.6920759521045268,0.0005613214961656186,0.007370872451048473,-0.7661620514243073
11469,13.0,299.90146,32868.035,0.0,-0.0573447035106005,-0.05734392248575093,0.0,0.0,0.0,-2.453551882546718,-3.847863864254596,-3.6896460770397166,-0.008839799562170292,-0.0017063888581824683,-0.7728987156416643
11470,13.0,299.9785,32822.122,0.0,-0.05734968500928139,-0.057348924695937886,0.0,0.0,0.0,-2.4364354539074577,-3.8437541218489963,-3.6969160451822063,-0.0015015465702661085,-0.00017070559820483086,-0.7634165084233433
11471,13.0,300.14715,32769.212,0.0,-0.05735469949801986,-0.05735392690612506,0.0,0.0,0.0,-2.4392750873127076,-3.835520451536396,-3.6862265606022366,-0.0031353329177082672,-0.0018349492202703885,-0.7637643774476753
11472,13.0,300.23431,32852.068999999996,0.0,-0.05735968099670086,-0.05735892911631202,0.0,0.0,0.0,-2.4341710425839773,-3.8501537081555863,-3.7018839090974964,0.0041608634062702465,-0.0057414056901076245,-0.7580607318397693
11473,13.0,300.32601,32912.712999999996,0.0,-0.0573646954854391,-0.057363931326499196,0.0,0.0,0.0,-2.4522126698895477,-3.852938119430386,-3.6994920309114363,0.004107284767482446,-0.007384993509742113,-0.7635822761397033
11474,13.0,300.02122,32875.51,0.0,-0.05736967698412021,-0.05736893353668637,0.0,0.0,0.0,-2.442563185212218,-3.8588620861400362,-3.6919087658380265,0.006929714199284544,0.0005428281619654686,-0.7652675643685283
11475,13.0,299.84085,32820.784,0.0,-0.05737469147285845,-0.05737393574687344,0.0,0.0,0.0,-2.4413227644397977,-3.852468883309076,-3.682907051949626,0.003455800416935947,0.007389988832735112,-0.7708629340707482
11476,13.0,299.84538,32814.782,0.0,-0.05737970596159703,-0.057378937957060505,0.0,0.0,0.0,-2.4235220880080077,-3.854128890947906,-3.6972234652625464,-0.0006597854425207534,0.0009169213249180891,-0.7709652925958503
11477,13.0,300.03316,32844.24,0.0,-0.05738468746027792,-0.05738394016724757,0.0,0.0,0.0,-2.4320225470719374,-3.858119272491726,-3.693687019763526,-0.0051878291635988755,-0.0019265594922866182,-0.7709755669518642
11478,13.0,299.99109,32839.566,0.0,-0.05738970194901616,-0.05738894237743475,0.0,0.0,0.0,-2.422851823066858,-3.854428509002476,-3.7051278292926466,-0.000987160369005143,0.003249802517280537,-0.7717916487149052
11479,13.0,299.95955,32771.99,0.0,-0.05739468344769705,-0.05739391167834429,0.0,0.0,0.0,-2.4255378477569476,-3.8479443163125366,-3.6883842766901864,-0.0018992046780119084,0.0011019182990258689,-0.7699923495848283
11480,13.0,300.21906,32772.602,0.0,-0.05739969793643562,-0.057398913888531244,0.0,0.0,0.0,-2.4304286033396276,-3.846802079474806,-3.684821891988607,-0.0028546454147565675,-0.0025563139851635477,-0.7736855448743182
11481,13.0,300.20429,32884.316,0.0,-0.05740467943511651,-0.05740391609871842,0.0,0.0,0.0,-2.4457647515531877,-3.853266311137776,-3.696979778613496,-0.0002410167958315058,-0.004674881128999845,-0.7701922232995543
11482,13.0,300.19771000000003,32934.26,0.0,-0.057409693923854754,-0.0574089183089056,0.0,0.0,0.0,-2.4481573390143176,-3.8591514703685963,-3.703883862144876,0.005300315326100395,0.0030726775845246667,-0.7667188931492633
11483,13.0,299.99632,32876.196,0.0,-0.057414675422535644,-0.057413920519092554,0.0,0.0,0.0,-2.4401776905017876,-3.8515475349931467,-3.7018174398909363,-0.0020882197967162478,0.0016288825209331884,-0.7631965926216393
11484,13.0,299.9826,32847.698,0.0,-0.05741968991127411,-0.05741892272927951,0.0,0.0,0.0,-2.4301657662636877,-3.852540824066176,-3.7021732933260565,-0.0009453340432247061,-0.001044285038637909,-0.7669709391116383
11485,13.0,299.96779,32940.751000000004,0.0,-0.05742470440001246,-0.057423924939466686,0.0,0.0,0.0,-2.4489488899924376,-3.8595705506099565,-3.7046463328451265,-0.003549872988020187,-0.003922598050555286,-0.7690828765600702
11486,13.0,300.16609,32943.301,0.0,-0.05742968589869335,-0.05742892714965364,0.0,0.0,0.0,-2.4530367461958775,-3.8506273012523264,-3.7102767610008063,0.009222098318275241,0.0026320658798646775,-0.7662046585910123
11487,13.0,299.98859,32850.152,0.0,-0.057434700387431814,-0.05743392935984082,0.0,0.0,0.0,-2.4397104808806778,-3.850199101760067,-3.695716458388817,0.006133839986962874,0.0022476162977724578,-0.7637601623272592
11488,13.0,300.01491,32815.891,0.0,-0.0574396818861127,-0.057438931570027885,0.0,0.0,0.0,-2.4338621026284875,-3.8425353846287167,-3.6988138626195064,0.002696320223031088,-0.004164696835373577,-0.7633564530899162
11489,13.0,299.8354,32878.654,0.0,-0.057444696374851056,-0.05744393378021506,0.0,0.0,0.0,-2.443075383137768,-3.846206491066026,-3.7050079618058165,-0.004022308243870916,-0.0016621222917886985,-0.7610612997584023
11490,13.0,300.15247999999997,32960.019,0.0,-0.05744967787353217,-0.05744893599040202,0.0,0.0,0.0,-2.4454977601518375,-3.861228126448547,-3.7122969790501865,-0.0034894655501834368,0.004305920290586246,-0.7650039673550133
11491,13.0,300.00487000000004,32986.925,0.0,-0.05745469236227041,-0.057453938200589194,0.0,0.0,0.0,-2.4539571825867177,-3.862767050700426,-3.7104771818705866,-0.0009366722646123551,0.006455360860994514,-0.7649643695411052
11492,13.0,300.26385,32964.79,0.0,-0.057459706851008874,-0.05745894041077637,0.0,0.0,0.0,-2.4475373312781277,-3.8670273620708864,-3.7059082345196668,-0.005653196392052045,-0.005297826783854795,-0.7691392537956343
11493,13.0,300.06059,32930.525,0.0,-0.05746468834968976,-0.05746390971168569,0.0,0.0,0.0,-2.4424488906009376,-3.867082077576286,-3.7005262552885068,-0.004781417689564185,-0.005367869419542464,-0.7739344497613833
11494,13.0,300.22452000000004,32955.382000000005,0.0,-0.057469702838428116,-0.05746891192187287,0.0,0.0,0.0,-2.4415191323091774,-3.8644377987903162,-3.7116561996869466,0.0008073861621403103,-0.0017068994349078584,-0.7716292145913742
11495,13.0,300.00312,32930.611000000004,0.0,-0.057474684337109005,-0.057473914132060044,0.0,0.0,0.0,-2.4389037311510577,-3.864320160453706,-3.7068594737135467,0.004141028934237736,-0.003612767448227387,-0.7750911558105412
11496,13.0,300.03495,32841.047999999995,0.0,-0.05747969882584747,-0.057478916342247,0.0,0.0,0.0,-2.4248060785347274,-3.8567611120576863,-3.7012914617640265,0.0033929304773811664,-0.004515763879671196,-0.7741767989203012
11497,13.0,299.94448,32807.484,0.0,-0.05748468032452836,-0.05748391855243418,0.0,0.0,0.0,-2.4331785641110275,-3.8530291092893667,-3.6864481583991067,0.00028103363931836076,0.0003813930219730607,-0.7772719233382662
11498,13.0,300.07104,32887.859,0.0,-0.05748969481326671,-0.05748892076262113,0.0,0.0,0.0,-2.436506381414458,-3.8572355157545064,-3.703345927666786,0.0018184428695163382,0.006636671732563504,-0.7675075158345943
11499,13.0,299.89074,32945.61,0.0,-0.0574946763119476,-0.05749392297280831,0.0,0.0,0.0,-2.451333776752808,-3.8599617664735666,-3.703347244891917,-0.002292630845390048,0.0016092900130245584,-0.7715615801471993
11500,13.0,300.0067,32974.852999999996,0.0,-0.057499690800686065,-0.057498925182995264,0.0,0.0,0.0,-2.4417251260545076,-3.8660136053458367,-3.7157931985202364,-0.0035422896216217668,-0.003125029988041447,-0.7632538513847902
11501,13.0,300.15755,33012.863,0.0,-0.05750470528942442,-0.05750392739318233,0.0,0.0,0.0,-2.458955747980038,-3.864439318665466,-3.7116909541653764,-0.003534511508554127,-0.004042203916209465,-0.7749004925392242
11502,13.0,300.01937000000004,33026.335,0.0,-0.05750968678810531,-0.05750892960336951,0.0,0.0,0.0,-2.456169107555018,-3.8665419139479758,-3.7164701509120466,-0.0022958327157060476,0.0025955461171104574,-0.7613820238125553
11503,13.0,300.10222000000005,32981.287000000004,0.0,-0.05751470127684377,-0.05751393181355646,0.0,0.0,0.0,-2.4613241187637773,-3.865361376256467,-3.6988022102433566,0.0016898502860752383,0.002938077339915657,-0.7729746080741543
11504,13.0,299.99806,32967.479,0.0,-0.05751968277552466,-0.05751893402374364,0.0,0.0,0.0,-2.4449612442238875,-3.8640064582227467,-3.712322816927736,0.0022294536884049482,-0.004315338754240776,-0.7632225014266963
11505,13.0,299.88771,32939.54,0.0,-0.057524697264263125,-0.05752393623393082,0.0,0.0,0.0,-2.4477007685192578,-3.864226840119496,-3.7008698483974163,0.006275550612823624,-0.00027513217689343174,-0.7728970843090033
11506,13.0,299.86322,32891.567,0.0,-0.057529678762944014,-0.05752893844411777,0.0,0.0,0.0,-2.4304741995941272,-3.8619054841403964,-3.705835483162486,-0.004577240904313506,0.0025065066632479474,-0.7684734775524272
11507,13.0,300.07557,32910.529,0.0,-0.05753469325168237,-0.05753394065430495,0.0,0.0,0.0,-2.437343224672048,-3.871422435704646,-3.6952134810391764,-0.0035868959307740664,-0.00037433454952394364,-0.7758004004830382
11508,13.0,300.00833,32966.013,0.0,-0.05753967475036326,-0.05753890995521449,0.0,0.0,0.0,-2.444686754771798,-3.8720725369688065,-3.704085296264757,-0.00835166166554483,-5.319371926031134e-05,-0.7695828850869172
11509,13.0,300.16425,33004.941,0.0,-0.05754468923910172,-0.057543912165401445,0.0,0.0,0.0,-2.454185062534208,-3.8745045398588265,-3.703988429555196,0.004091517582676346,0.004581014652985945,-0.7741330771784862
11510,13.0,300.04374,32994.053,0.0,-0.057549703727840074,-0.05754891437558862,0.0,0.0,0.0,-2.4397414863337374,-3.877345389164196,-3.7122814763236565,0.005595113248619684,0.01008483710734593,-0.7734759338261312
11511,13.0,299.97646000000003,32997.691,0.0,-0.05755468522652096,-0.05755391658577558,0.0,0.0,0.0,-2.447067081906718,-3.867156855433666,-3.7162502756403466,-0.0003484185706562357,-0.0008184908360812563,-0.7719097936765653
11512,13.0,300.28406,33029.191,0.0,-0.05755969971525943,-0.057558918795962755,0.0,0.0,0.0,-2.4416225851443873,-3.874227922581526,-3.724198918699817,0.0009833776429368172,-0.006399157904447714,-0.7791061795967933
11513,13.0,300.30183999999997,33010.956,0.0,-0.057564681213940316,-0.05756392100614993,0.0,0.0,0.0,-2.4487730911000876,-3.8718156780684563,-3.7139175712601262,0.002059755878882078,-0.0038545424996387265,-0.7795592746440103
11514,13.0,300.02436,32987.051,0.0,-0.05756969570267867,-0.05756892321633689,0.0,0.0,0.0,-2.4526107758538376,-3.8632494590730357,-3.7113794810846366,0.004684556958179775,0.0030251852351125368,-0.7745781776824143
11515,13.0,300.00236,32975.846,0.0,-0.05757467720135956,-0.05757392542652395,0.0,0.0,0.0,-2.447967759920608,-3.8652313762686363,-3.710634640936126,0.0003719493283910406,-0.0017244090045859185,-0.7685557433280462
11516,13.0,299.93885,32974.475,0.0,-0.05757969169009802,-0.05757892763671113,0.0,0.0,0.0,-2.441293076211868,-3.862527619701796,-3.719596331445576,0.0005850511346300515,0.0013012895430272787,-0.7670832781502253
11517,13.0,299.96754,33081.64,0.0,-0.057584706178836376,-0.057583929846898085,0.0,0.0,0.0,-2.4567529422626375,-3.8717146570334866,-3.727525013478076,0.003354191798232957,0.0052142962694609754,-0.7582851870019213
11518,13.0,299.8418,33123.522000000004,0.0,-0.057589687677517376,-0.05758893205708526,0.0,0.0,0.0,-2.4611261296942377,-3.8802746952032963,-3.727322768758117,0.002767755469656198,0.0037581491805254467,-0.7666844223808612
11519,13.0,299.84856,33058.457,0.0,-0.05759470216625573,-0.05759393426727222,0.0,0.0,0.0,-2.4605740097147475,-3.869809544195466,-3.7185619044184866,0.0012740728347411987,-0.002311027616855668,-0.7622316340214053
11520,13.0,299.9494,33068.526,0.0,-0.05759968366493662,-0.057598936477459395,0.0,0.0,0.0,-2.464831889284968,-3.871744446586426,-3.715429847034376,-0.005486226454448395,-0.004492810623830886,-0.7686009646800093
11521,13.0,300.17845,33130.62,0.0,-0.05760469815367508,-0.05760393868764635,0.0,0.0,0.0,-2.4639708293499876,-3.8778636665903465,-3.7290467124782567,-0.0026083045570696175,-0.002297916363211688,-0.7652419696710023
11522,13.0,300.07247,33063.01,0.0,-0.05760967965235597,-0.05760890798855589,0.0,0.0,0.0,-2.4531533712823874,-3.8708541037235564,-3.7263217789843264,-0.0025362566994340473,0.0013366634212434087,-0.7748278627720563
11523,13.0,300.18699,32969.946,0.0,-0.057614694141094325,-0.05761391019874307,0.0,0.0,0.0,-2.4399346118027974,-3.8661542444597163,-3.7159513668608466,-0.0040561798774887865,-0.004928692375699065,-0.7773228391557913
11524,13.0,300.07147000000003,32986.62,0.0,-0.057619675639775214,-0.05761891240893002,0.0,0.0,0.0,-2.439487363208658,-3.8673632544790366,-3.7202580850858866,-0.0008760275438671872,-0.0035856304827241764,-0.7825289992295993
11525,13.0,300.03397,33042.32,0.0,-0.05762469012851368,-0.0576239146191172,0.0,0.0,0.0,-2.4531168942787875,-3.871181383505857,-3.719741935484947,-0.0017038826853851285,0.00040409437370600963,-0.7799091499035402
11526,13.0,299.97186,33041.344,0.0,-0.05762970461725203,-0.05762891682930438,0.0,0.0,0.0,-2.4534283673595274,-3.875419302049106,-3.7148958642316763,0.005783844049345965,0.0060972920558558736,-0.7799181982269333
11527,13.0,299.95815,33087.904,0.0,-0.05763468611593292,-0.057633919039491444,0.0,0.0,0.0,-2.4561970732577776,-3.8805803927584663,-3.721119246345876,0.005651425636177285,0.0005223823657501254,-0.7736477607780893
11528,13.0,300.02999,33096.996,0.0,-0.057639700604671384,-0.05763892124967851,0.0,0.0,0.0,-2.4480568246043974,-3.8835613745526665,-3.729042355502826,-0.00015425052803834185,0.003964088311675057,-0.7676495431011113
11529,13.0,300.02853,33093.742,0.0,-0.057644682103352274,-0.057643923459865576,0.0,0.0,0.0,-2.4517707915209375,-3.884097687830596,-3.7238025352606963,-4.6570846068934656e-05,0.0008048065185782192,-0.7692103130251473
11530,13.0,299.88837,33141.994,0.0,-0.057649696592090516,-0.05764892567005275,0.0,0.0,0.0,-2.455291126343368,-3.888359823051236,-3.730687569690196,-0.004778697113045686,0.005279783737999085,-0.7670730747217183
11531,13.0,299.78737,33108.627,0.0,-0.05765467809077163,-0.05765392788023971,0.0,0.0,0.0,-2.4700879215286977,-3.876694477299956,-3.717413385430136,-0.0008969884663008692,0.0005875952029811315,-0.7719713384876393
11532,13.0,299.83027999999996,33040.129,0.0,-0.05765969257950998,-0.05765893009042666,0.0,0.0,0.0,-2.458618133046718,-3.871506738112966,-3.7132493328191765,-0.004377710276071365,-0.003569467927729056,-0.7698493293332133
11533,13.0,299.7009,33065.186,0.0,-0.05766467407819087,-0.05766393230061384,0.0,0.0,0.0,-2.466716129170927,-3.8693717188272565,-3.7149029569823764,0.0008497828666670392,-0.001868567744013278,-0.7738056150111683
11534,13.0,299.97147,33133.238,0.0,-0.057669688566929334,-0.057668934510800796,0.0,0.0,0.0,-2.464508662503068,-3.878263393754797,-3.7289049587892666,-0.006100472546594764,-0.0045522392620710355,-0.7787533659119733
11535,13.0,300.07559,33075.781,0.0,-0.0576747030556678,-0.05767393672098797,0.0,0.0,0.0,-2.456553534642958,-3.8764290057737565,-3.7212289813317065,0.0015974963898106184,-0.0027381305698574478,-0.7781695109393513
11536,13.0,300.29485,33068.15,0.0,-0.057679684554348576,-0.057678906021897514,0.0,0.0,0.0,-2.4503006669508474,-3.880500852625617,-3.7210901660680062,-0.0013205305544762187,-0.0002662146032933358,-0.7805208388564092
11537,13.0,299.82695,33112.924,0.0,-0.05768469904308704,-0.05768390823208447,0.0,0.0,0.0,-2.4632294342518177,-3.880376830813376,-3.721895699897507,0.004506103147917755,0.0027504284876461575,-0.7762109998210612
11538,13.0,299.92377999999997,33136.948,0.0,-0.05768968054176793,-0.057688910442271646,0.0,0.0,0.0,-2.4574614067325578,-3.888468139486926,-3.7268751148639363,0.0014283831242704386,0.0030691983876562972,-0.7756754667457082
11539,13.0,300.03067999999996,33128.165,0.0,-0.05769469503050628,-0.05769391265245882,0.0,0.0,0.0,-2.4554633788603675,-3.8902452788373165,-3.7244261906972462,0.00020782462746569378,-0.0039530011264308365,-0.7754125688747623
11540,13.0,300.05422000000004,33094.375,0.0,-0.05769967652918717,-0.05769891486264589,0.0,0.0,0.0,-2.4466775885682774,-3.8846258951077264,-3.728560149780236,-0.00024866148412597776,-0.0058791849055803745,-0.7741818955683043
11541,13.0,299.8539,33033.916,0.0,-0.057704691017925636,-0.057703917072833066,0.0,0.0,0.0,-2.435834089973108,-3.8843521149307065,-3.721299300888646,-0.0024104420424671076,-0.0037625422276590065,-0.7806874171728493
11542,13.0,299.89967,33078.013999999996,0.0,-0.05770970550666388,-0.05770891928302002,0.0,0.0,0.0,-2.444757580953788,-3.887657539406926,-3.722475380279717,0.001104578485838409,0.0002801300634091847,-0.7795736627954303
11543,13.0,300.03454,33149.175,0.0,-0.05771468700534477,-0.0577139214932072,0.0,0.0,0.0,-2.4636959345978577,-3.883405334037266,-3.7294202977901265,-0.003187373746819297,-0.0005788754664630604,-0.7769479062212882
11544,13.0,300.29354,33161.116,0.0,-0.05771970149408334,-0.057718923703394376,0.0,0.0,0.0,-2.4667877659529975,-3.8856668069354563,-3.7276967593700263,0.0017842631065430584,0.0017104076107290883,-0.7758922009420982
11545,13.0,300.17028,33150.115,0.0,-0.05772468299276423,-0.05772392591358133,0.0,0.0,0.0,-2.4653490521360077,-3.8807324815984763,-3.730725566568946,0.0006933307184139142,-0.0027903327083843976,-0.7745001878222173
11546,13.0,300.29572,33216.648,0.0,-0.05772969748150247,-0.057728928123768286,0.0,0.0,0.0,-2.4695097610216377,-3.887118996978776,-3.740402712974006,-0.001131470852767479,-0.0037233238759134565,-0.7759383139541493
11547,13.0,299.91354,33281.407999999996,0.0,-0.057734678980183585,-0.05773393033395546,0.0,0.0,0.0,-2.467566549979858,-3.895251342281376,-3.7538991029809963,-0.002177618042439168,-0.004350116436098066,-0.7708440977513893
11548,13.0,299.93549,33236.091,0.0,-0.05773969346892205,-0.05773893254414242,0.0,0.0,0.0,-2.470465357190948,-3.8868786540550566,-3.745597848886726,0.0002272766279829568,-0.0004048259706757126,-0.7702132786366322
11549,13.0,299.92961,33181.077000000005,0.0,-0.05774467496760283,-0.057743934754329596,0.0,0.0,0.0,-2.4643332689107575,-3.886588763201446,-3.7352968443950965,0.007297927461774363,-0.001886214001129828,-0.7645836712135333
11550,13.0,300.05677000000003,33153.148,0.0,-0.05774968945634129,-0.05774893696451666,0.0,0.0,0.0,-2.4626443836440775,-3.8863238996253067,-3.7287607733000367,0.006055805543761474,0.0012337128541079789,-0.7721318271709783
11551,13.0,299.87349,33104.802,0.0,-0.057754703945079755,-0.05775390626542609,0.0,0.0,0.0,-2.4588634408959273,-3.8797612813776263,-3.7244084588204966,-0.0002427986670598627,-0.004347695072334096,-0.7656066687794952
11552,13.0,299.97546,33170.138,0.0,-0.05775968544376042,-0.05775890847561327,0.0,0.0,0.0,-2.4574443841308775,-3.891081412819836,-3.734367896703417,-0.0078107850131394615,-0.007238100920219943,-0.7790982559810112
11553,13.0,299.80158,33223.428,0.0,-0.057764699932499,-0.057763910685800335,0.0,0.0,0.0,-2.4630562698097274,-3.8915196434880865,-3.744516508380007,-0.007817289065531363,-0.0034486552812057767,-0.7719307679536352
11554,13.0,299.99695,33133.715,0.0,-0.05776968143117989,-0.05776891289598751,0.0,0.0,0.0,-2.4564576811834975,-3.887672434183396,-3.7276918957695466,-0.004973780485273915,0.007275683379679044,-0.7859776871374582
11555,13.0,300.12181,33161.363,0.0,-0.05777469591991813,-0.05777391510617447,0.0,0.0,0.0,-2.4606300424452776,-3.8913039225417965,-3.7282925504288267,-0.0011572756983642188,0.007135955684263993,-0.7749235845090033
11556,13.0,300.19912,33238.082,0.0,-0.05777967741859902,-0.057778917316361644,0.0,0.0,0.0,-2.475589464271658,-3.8871849595602863,-3.740772549260506,-0.0033098211710539164,0.006069782011665844,-0.7855320698759793
11557,13.0,300.09974,33237.89,0.0,-0.05778469190733759,-0.05778391952654882,0.0,0.0,0.0,-2.4788317632666477,-3.8908025663923165,-3.733854381552736,0.001159565339615189,0.0018129589573251182,-0.7751066484045702
11558,13.0,300.27099999999996,33176.702000000005,0.0,-0.05778967340601848,-0.05778892173673578,0.0,0.0,0.0,-2.4589895905333776,-3.8919886769593757,-3.7339108195833064,0.007185649623493403,0.0006141315340900635,-0.7892217593201232
11559,13.0,300.1637,33151.491,0.0,-0.057794687894756724,-0.057793923946922954,0.0,0.0,0.0,-2.455794205018018,-3.8871833383601264,-3.7342481305415967,0.007536313292926213,-0.005152807997742555,-0.7722179838269813
11560,13.0,299.93551,33188.746,0.0,-0.05779970238349519,-0.05779892615710991,0.0,0.0,0.0,-2.4611029262669475,-3.8966073748902064,-3.7308398611802267,0.004412733671077905,-0.005386789332034715,-0.7779966606047922
11561,13.0,299.79421,33259.345,0.0,-0.05780468388217608,-0.057803928367297086,0.0,0.0,0.0,-2.4716971653375177,-3.896949042823926,-3.741364287318907,-0.003003241682996877,-0.00014836716226019885,-0.7671682898336153
11562,13.0,300.01187999999996,33252.443,0.0,-0.05780969837091465,-0.05780893057748404,0.0,0.0,0.0,-2.4732380147645876,-3.898400118292136,-3.736274225441557,-0.0025288629121293375,0.004143978910578877,-0.7691581711750013
11563,13.0,299.72279,33199.676,0.0,-0.05781467986959554,-0.05781393278767111,0.0,0.0,0.0,-2.4657162539722477,-3.8943344522658863,-3.731821903177146,-0.004356553107358316,0.003960789473324486,-0.7681070964487683
11564,13.0,299.95756,33235.398,0.0,-0.057819694358334006,-0.057818934997858284,0.0,0.0,0.0,-2.4621860906238475,-3.8970712407859867,-3.7434738740271065,-0.0067336121054057735,-0.0007614708858463253,-0.7731897514678873
11565,13.0,300.05033,33329.366,0.0,-0.057824675857014673,-0.057823904298767714,0.0,0.0,0.0,-2.480378388219288,-3.9056232742800066,-3.7452933672316764,-0.005615332553040175,0.0013312443570585887,-0.7809974919684513
11566,13.0,300.17141000000004,33314.797999999995,0.0,-0.05782969034575325,-0.05782890650895489,0.0,0.0,0.0,-2.4817297598776578,-3.8946148185685563,-3.750522143047717,-0.00016353595195474184,0.0019315882525329181,-0.7758932952522063
11567,13.0,300.04226,33184.174,0.0,-0.05783470483449171,-0.05783390871914196,0.0,0.0,0.0,-2.467262980249898,-3.8907044837826357,-3.729192823142676,0.004410748916782026,-0.00014546707835398287,-0.7879589153229902
11568,13.0,300.01804,33147.013,0.0,-0.05783968633317238,-0.05783891092932891,0.0,0.0,0.0,-2.4589921236586276,-3.8906592928281762,-3.7262130572485965,0.003116245210999457,-0.0018846272514732284,-0.7851910402898222
11569,13.0,300.01887,33240.924,0.0,-0.057844700821910844,-0.05784391313951609,0.0,0.0,0.0,-2.4741139694760377,-3.8930838989924665,-3.7372131029842164,0.0007081676788332084,-0.002458535857138598,-0.7864233550614422
11570,13.0,299.95364,33262.794,0.0,-0.057849682320591844,-0.05784891534970327,0.0,0.0,0.0,-2.458784711363158,-3.9095303666656065,-3.7427438273300564,-6.505184597561734e-05,-0.0049776392456297456,-0.7891744912029582
11571,13.0,300.06076,33162.774,0.0,-0.057854696809330086,-0.05785391755989022,0.0,0.0,0.0,-2.4535089207424776,-3.893518684610376,-3.7336276161803563,0.0025688432279500875,-0.005655857490789675,-0.7814567779737793
11572,13.0,300.13327999999996,33150.733,0.0,-0.057859678308010976,-0.0578589197700774,0.0,0.0,0.0,-2.4441231850661773,-3.9002580136754967,-3.7326138594553067,0.0009407390452137152,-0.006972985348780073,-0.7805765372144062
11573,13.0,299.88403999999997,33219.4,0.0,-0.05786469279674944,-0.057863921980264355,0.0,0.0,0.0,-2.4632090679248075,-3.896169549521996,-3.738489392810176,0.0011644489011221589,0.0023875809923858977,-0.7725653563587643
11574,13.0,299.89276,33343.589,0.0,-0.05786967429543033,-0.05786892419045153,0.0,0.0,0.0,-2.4749075469543578,-3.906213391138246,-3.754497629815067,-0.007194921571183473,0.005362131890851215,-0.7695107720773002
11575,13.0,299.91606,33369.844,0.0,-0.057874688784168904,-0.05787392640063871,0.0,0.0,0.0,-2.482016408330948,-3.9125430631879365,-3.7490397581514165,-0.003949033745664286,-0.004986216914351295,-0.7707732310393952
11576,13.0,299.72005,33283.166,0.0,-0.057879703272907146,-0.057878928610825664,0.0,0.0,0.0,-2.4644016632925076,-3.902417756263646,-3.7504318624638064,-0.0017522656816351583,-0.0029205634132621673,-0.7774404876249023
11577,13.0,300.08046,33282.083,0.0,-0.05788468477158826,-0.05788393082101273,0.0,0.0,0.0,-2.469436604364418,-3.904030343797796,-3.7434551289002562,0.0031178728959600967,0.001161427186673939,-0.7816422838020873
11578,13.0,300.05903,33358.507000000005,0.0,-0.05788969926032661,-0.05788893303119991,0.0,0.0,0.0,-2.4797841170356376,-3.908031060492636,-3.7523378872269166,0.0035776264148842368,0.0028349974820674672,-0.7808158871530282
11579,13.0,300.11215,33368.464,0.0,-0.0578946807590075,-0.05789390233210934,0.0,0.0,0.0,-2.4900969765534375,-3.8976175852399066,-3.7554650810105463,-0.0037705861162278765,0.0017827887263225483,-0.7776162358547473
11580,13.0,300.12203999999997,33249.186,0.0,-0.057899695247745964,-0.057898904542296514,0.0,0.0,0.0,-2.471713883964168,-3.891765356637336,-3.743443172549076,0.0020429539630738578,0.0016270549217278184,-0.7783047089001943
11581,13.0,300.0064,33203.81,0.0,-0.05790467674642663,-0.05790390675248358,0.0,0.0,0.0,-2.4620253891579877,-3.890957492332606,-3.740146360698706,-0.0001189647620509079,0.0006553734780078264,-0.7773262740736302
11582,13.0,300.03594,33321.882000000005,0.0,-0.057909691235165095,-0.057908908962670536,0.0,0.0,0.0,-2.4757138913839376,-3.902926813113886,-3.750379376108626,0.0025042437717996175,-0.0037015392014134764,-0.7789784898191913
11583,13.0,300.09214,33401.983,0.0,-0.057914672733845984,-0.05791391117285771,0.0,0.0,0.0,-2.481378567392998,-3.9140496647616265,-3.7579406536548667,-0.006252506367124334,-0.011224705574292188,-0.7777373699042023
11584,13.0,299.85048,33324.236000000004,0.0,-0.05791968722258434,-0.05791891338304467,0.0,0.0,0.0,-2.4702854039731874,-3.907033617094196,-3.752416616759686,0.0061434753874638134,-0.0036645321666861665,-0.7762639117412832
11585,13.0,299.98036,33317.628,0.0,-0.0579247017113228,-0.057923915593231845,0.0,0.0,0.0,-2.467842154007058,-3.9138279656397463,-3.7460567498570168,0.005025929124195585,0.005203365834007225,-0.7707775778823243
11586,13.0,300.05339,33317.782999999996,0.0,-0.05792968321000369,-0.0579289178034188,0.0,0.0,0.0,-2.4712144529898774,-3.908448519533836,-3.7481111144347663,0.005145298193301395,0.008441059911267751,-0.7788716223311443
11587,13.0,299.84542000000005,33357.109,0.0,-0.057934697698742044,-0.05793392001360598,0.0,0.0,0.0,-2.4735978198750974,-3.9114501716300762,-3.7546802174830867,-0.006876033526211674,0.005352833801308564,-0.7821420390164092
11588,13.0,300.09594,33385.872,0.0,-0.057939679197423155,-0.057938922223793154,0.0,0.0,0.0,-2.477249167935458,-3.916177591296636,-3.755044582219046,-0.003375830159418497,0.007234437007858343,-0.7893244116877542
11589,13.0,299.8949,33301.826,0.0,-0.0579446936861614,-0.05794392443398022,0.0,0.0,0.0,-2.4732437902901574,-3.902205885667736,-3.7474738814468758,-0.004004815190169486,0.008257373981464363,-0.7847208719784202
11590,13.0,299.8466,33244.77,0.0,-0.05794967518484251,-0.05794892664416729,0.0,0.0,0.0,-2.4641233234900377,-3.902314506078456,-3.7391422298496066,0.0052410887299301845,0.00015699398374409985,-0.7937842826654092
11591,13.0,300.1837,33310.295,0.0,-0.05795468967358075,-0.05795392885435435,0.0,0.0,0.0,-2.4814953951295275,-3.8982790349051863,-3.745723390574117,0.00034578341112116565,-0.005766372172571625,-0.7785156270410103
11592,13.0,299.95837,33378.896,0.0,-0.0579597041623191,-0.05795893106454153,0.0,0.0,0.0,-2.484167436968238,-3.9040119026459763,-3.758171573352657,0.0016566115284698283,-0.008551194218962162,-0.7753510139311873
11593,13.0,299.99688,33404.894,0.0,-0.057964685661000215,-0.05796390036545096,0.0,0.0,0.0,-2.4795026361578576,-3.914882353693806,-3.7598687672701567,0.004436042780353336,-0.004177123435924986,-0.7765650598035042
11594,13.0,300.06459,33383.66,0.0,-0.05796970014973846,-0.057968902575638026,0.0,0.0,0.0,-2.4768112412422374,-3.9104229386786966,-3.7605649714138667,0.0035276195840239465,-0.0009430402881783301,-0.7762946132193133
11595,13.0,300.15823,33411.488,0.0,-0.057974681648419346,-0.0579739047858252,0.0,0.0,0.0,-2.4814210225721873,-3.916331503986826,-3.758505540585617,0.0006163491636564265,-0.003318588520194187,-0.7764638462510153
11596,13.0,299.96692,33406.099,0.0,-0.05797969613715792,-0.05797890699601216,0.0,0.0,0.0,-2.481755699080218,-3.9104910290854162,-3.7623733188673363,-0.003915783842307776,0.002374803807299888,-0.7719443151074723
11597,13.0,300.1232,33412.678,0.0,-0.05798467763583859,-0.057983909206199336,0.0,0.0,0.0,-2.4888727677826177,-3.9113922137243566,-3.7563549172483666,-0.006604841696572124,0.005608445593435484,-0.7767655819982943
11598,13.0,299.95962000000003,33381.717000000004,0.0,-0.05798969212457705,-0.05798891141638629,0.0,0.0,0.0,-2.4786698459006677,-3.9106919565802465,-3.757846522720576,0.0005048169153290506,0.002172054083490048,-0.7790162029879133
11599,13.0,300.12833,33297.919,0.0,-0.05799467362325794,-0.057993913626573246,0.0,0.0,0.0,-2.4647686624787277,-3.9060215828943163,-3.7509457829145267,-0.002276104026983978,-0.0005712596152664344,-0.7917074745979442
11600,13.0,299.9755,33300.729,0.0,-0.057999688111996295,-0.05799891583676042,0.0,0.0,0.0,-2.4638071894588376,-3.9066108891524762,-3.7521722208355666,0.002289518850357918,0.0016287122949163887,-0.7841459133416763
11601,13.0,299.97758999999996,33417.443,0.0,-0.05800470260073476,-0.0580039180469476,0.0,0.0,0.0,-2.480293477860908,-3.9182114882223664,-3.7595631710399964,0.003209417408044837,0.007978502425341883,-0.7969689783922143
11602,13.0,299.86787999999996,33446.491,0.0,-0.05800968409941565,-0.058008920257134666,0.0,0.0,0.0,-2.4844907650751478,-3.9179839122499063,-3.7644233264696565,0.0003053233517755687,0.004176179086831785,-0.7834497902579742
11603,13.0,299.91445,33354.848,0.0,-0.058014698588154,-0.05801392246732184,0.0,0.0,0.0,-2.4746665960805774,-3.919694987693776,-3.744679236346067,0.00036399969234647263,-0.006108312873218545,-0.7884186572908632
11604,13.0,299.98691,33374.092000000004,0.0,-0.058019680086835,-0.0580189246775088,0.0,0.0,0.0,-2.4700505326000077,-3.917371098589426,-3.7574689857333166,0.0009809659253137992,-0.007167937505120353,-0.7773445227079313
11605,13.0,300.09103,33432.759,0.0,-0.058024694575573355,-0.058023926887695976,0.0,0.0,0.0,-2.4800725893391076,-3.922785096523746,-3.7598662341449067,0.0007546852613841363,0.003017459304425047,-0.7852673582873543
11606,13.0,299.90463,33430.091,0.0,-0.058029676074254466,-0.05802892909788315,0.0,0.0,0.0,-2.4740171027664775,-3.926977418812496,-3.760918393048746,0.00013717344390046487,0.0011814017911952789,-0.7796757072130013
11607,13.0,299.85398,33387.789,0.0,-0.05803469056299271,-0.05803393130807011,0.0,0.0,0.0,-2.4728848971047377,-3.9223503109058364,-3.753819056223096,-0.0011371550845034688,-0.0031521508428680673,-0.7870031469011632
11608,13.0,299.774,33384.58,0.0,-0.0580396720616736,-0.05803890060897965,0.0,0.0,0.0,-2.4771485522005277,-3.917143826591996,-3.7537863282448667,0.002152980562282638,-0.0003597938229038857,-0.7759215446649943
11609,13.0,299.72144,33409.541,0.0,-0.05804468655041217,-0.058043902819166826,0.0,0.0,0.0,-2.484203407346788,-3.9144718860782963,-3.7569911369861564,0.0023804870257857777,0.0014376947913644286,-0.7831068354966273
11610,13.0,299.71184,33483.392,0.0,-0.058049701039150414,-0.05804890502935378,0.0,0.0,0.0,-2.4853632747362577,-3.920641059312146,-3.7721107536533465,-0.0028204348489802473,0.001206121040634879,-0.7766957082713982
11611,13.0,299.94637,33503.773,0.0,-0.058054682537831304,-0.05805390723954096,0.0,0.0,0.0,-2.493237342588368,-3.9199670453456257,-3.7711060148541864,-0.004770798017916106,-0.006293668841836754,-0.7825244092066462
11612,13.0,300.02106000000003,33455.209,0.0,-0.05805969702656977,-0.05805890944972791,0.0,0.0,0.0,-2.4858328148325977,-3.912946539377756,-3.7707688052209063,-0.0010759554877385388,0.005420086148870855,-0.7769550293694912
11613,13.0,300.14362,33450.596,0.0,-0.058064678525250546,-0.05806391165991487,0.0,0.0,0.0,-2.4887691122973874,-3.919257770275626,-3.760119242694876,0.004056408264061327,0.00934136819019626,-0.7854529654406722
11614,13.0,300.20279,33491.256,0.0,-0.05806969301398901,-0.058068913870102046,0.0,0.0,0.0,-2.4994727823787577,-3.918298931705996,-3.7627338332529163,0.004115798905422726,0.002168502439239528,-0.7781138429788572
11615,13.0,300.17792000000003,33500.102,0.0,-0.0580746745126699,-0.05807391608028911,0.0,0.0,0.0,-2.4914368984856776,-3.928001409363556,-3.7637562026038167,-0.0020107932022498383,-0.01004363116420422,-0.7847121073650553
11616,13.0,299.93276000000003,33438.181000000004,0.0,-0.05807968900140825,-0.05807891829047629,0.0,0.0,0.0,-2.4774809995583373,-3.923789531347876,-3.763101440389196,0.00036833523753685766,-0.004807577476670956,-0.7825372977479182
11617,13.0,299.8474,33432.626000000004,0.0,-0.058084703490146716,-0.058083920500663244,0.0,0.0,0.0,-2.4748518181988577,-3.924055813474156,-3.763775960980767,0.0009992957513453122,0.0056947921325072245,-0.7886190984256453
11618,13.0,299.89956,33445.692,0.0,-0.058089684988827606,-0.05808892271085042,0.0,0.0,0.0,-2.4740574301204576,-3.9293574419723862,-3.7632402556528963,-0.003951639115646417,0.007882577531749832,-0.7854789755707393
11619,13.0,299.88406000000003,33447.062999999995,0.0,-0.05809469947756585,-0.0580939249210376,0.0,0.0,0.0,-2.478026837387208,-3.9248062264982164,-3.7642390162764667,-0.006037847610914165,0.0007004786405818594,-0.7874633650965833
11620,13.0,300.01997,33493.157,0.0,-0.05809968097624696,-0.058098927131224554,0.0,0.0,0.0,-2.4884799307188477,-3.9234029764347262,-3.769200496716126,-0.007861819988876221,0.00048139435243992355,-0.7825767739718142
11621,13.0,299.98514,33486.906,0.0,-0.05810469546498542,-0.05810392934141173,0.0,0.0,0.0,-2.484594825860418,-3.924448650537926,-3.770139678233817,0.0019005138984661183,0.0016702144110623282,-0.7841529351648692
11622,13.0,300.03772000000004,33454.534,0.0,-0.05810967696366631,-0.05810889864232127,0.0,0.0,0.0,-2.479679549625318,-3.9222616515220867,-3.767401775138607,0.0026050677296251675,-0.004523860558570276,-0.7868586979669073
11623,13.0,299.9895,33505.559,0.0,-0.058114691452404665,-0.05811390085250823,0.0,0.0,0.0,-2.4830642102593576,-3.9262787828685464,-3.7755103090638564,0.0029303650881045175,-0.013846009927494789,-0.7850908197224312
11624,13.0,300.03472,33554.248999999996,0.0,-0.058119672951085555,-0.058118903062695404,0.0,0.0,0.0,-2.4908538743781374,-3.9256202716285564,-3.783179903045786,0.003189320504236427,-0.004927457021177146,-0.7833736039829553
11625,13.0,299.94719,33542.773,0.0,-0.05812468743982402,-0.05812390527288236,0.0,0.0,0.0,-2.496245682135268,-3.926868798401776,-3.773051049746146,0.0006341877153769544,0.0058335903736055445,-0.7850181291602573
11626,13.0,299.89454,33489.441,0.0,-0.05812970192856237,-0.058128907483069536,0.0,0.0,0.0,-2.4925430636198476,-3.919827723456876,-3.7675830455814965,0.0012184644533530789,0.002340642181503398,-0.7868940603953972
11627,13.0,299.9735,33497.111000000004,0.0,-0.05813468342724326,-0.05813390969325649,0.0,0.0,0.0,-2.4879521287417576,-3.925818868648156,-3.7685143237484064,-0.009239660779608522,-0.003599846584277197,-0.7827171091106643
11628,13.0,300.30177000000003,33522.571,0.0,-0.058139697915981725,-0.05813891190344367,0.0,0.0,0.0,-2.492757467341008,-3.9274810041121966,-3.7697859526239066,-0.006799548646388203,0.002163635191059168,-0.7857063083631752
11629,13.0,299.99577,33564.449,0.0,-0.0581446794146625,-0.058143914113630735,0.0,0.0,0.0,-2.493092650474088,-3.9346033417151167,-3.7750582981942467,0.0031127198099265272,0.005948143768961084,-0.7857524923027333
11630,13.0,299.95611,33538.998999999996,0.0,-0.05814969390340097,-0.05814891632381769,0.0,0.0,0.0,-2.489677085711998,-3.9319161011249064,-3.773425040358057,0.0026135390070862173,0.0074278909726007624,-0.7858152834114303
11631,13.0,300.13414,33481.778,0.0,-0.05815467540208186,-0.05815391853400487,0.0,0.0,0.0,-2.483740149401068,-3.9244625320642963,-3.769421689212957,0.0026740963046127577,-0.0019534541896909182,-0.7803232044244043
11632,13.0,299.72857,33504.793,0.0,-0.0581596898908201,-0.058158920744192044,0.0,0.0,0.0,-2.4835741790346875,-3.930287706889196,-3.7707586727199067,-0.0006447599162578493,0.00033691446339336866,-0.7826608129351083
11633,13.0,299.88962000000004,33636.054,0.0,-0.05816467138950121,-0.058163922954379,0.0,0.0,0.0,-2.496438199654268,-3.942928204536716,-3.7851543221906465,0.0023007340090897676,-0.0017989908993965781,-0.7892269572931362
11634,13.0,299.84304,33559.287000000004,0.0,-0.058169685878239674,-0.058168925164566176,0.0,0.0,0.0,-2.489842448128318,-3.9365029830025966,-3.774839942797696,-0.002244479376787868,-0.005516610582547075,-0.7878866199283553
11635,13.0,299.82238,33409.554,0.0,-0.05817470036697803,-0.05817392737475313,0.0,0.0,0.0,-2.470411756260658,-3.9257902949953363,-3.7594680268556067,0.00023984380685324077,-0.009704045560764731,-0.7975202979041252
11636,13.0,300.06495,33493.696,0.0,-0.058179681865658917,-0.05817889667566267,0.0,0.0,0.0,-2.4798622386183475,-3.934550855359936,-3.7668341524325863,-0.0024286253221366574,-0.0019461008310651983,-0.7881132738432243
11637,13.0,300.1438,33559.434,0.0,-0.05818469635439738,-0.05818389888584985,0.0,0.0,0.0,-2.498160826149278,-3.9327595305081466,-3.7703096002755867,0.001064712667278959,0.011502427294201189,-0.7950373082690733
11638,13.0,299.94181000000003,33568.511,0.0,-0.05818967785307827,-0.058188901096036805,0.0,0.0,0.0,-2.4883630016573077,-3.9411635281625563,-3.7744625071354463,-0.0037089305569179467,0.007901278480895472,-0.7863256574868002
11639,13.0,300.19687000000005,33537.252,0.0,-0.05819469234181662,-0.05819390330622398,0.0,0.0,0.0,-2.487501941722327,-3.937244378100767,-3.769740862994457,0.0028674242210427374,-0.0007089133397142994,-0.7893007725629212
11640,13.0,300.1599,33547.402,0.0,-0.05819967384049751,-0.05819890551641116,0.0,0.0,0.0,-2.4929392444089475,-3.9336910113250765,-3.7709421723130165,-0.00035004588071433864,0.0014561359431844285,-0.7786608865753463
11641,13.0,300.27022999999997,33578.994,0.0,-0.058204688329235976,-0.058203907726598114,0.0,0.0,0.0,-2.495926204378738,-3.9367112058981464,-3.7745381969179164,-0.0003655296392024667,-0.002301992769688998,-0.7896344560858533
11642,13.0,300.14052999999996,33641.699,0.0,-0.05820970281797433,-0.05820890993678529,0.0,0.0,0.0,-2.5072974036259876,-3.937687472369496,-3.781251485455466,-0.003471712597831356,-0.0014326409025156486,-0.7812765511784923
11643,13.0,300.08172,33625.231,0.0,-0.05821468431665522,-0.05821391214697236,0.0,0.0,0.0,-2.5062381519714476,-3.9331477066214564,-3.7818447433890165,-0.004881857422951816,-0.0037712001457884765,-0.7827701831509022
11644,13.0,300.02657,33539.09,0.0,-0.05821969880539368,-0.05821891435715931,0.0,0.0,0.0,-2.482945153372608,-3.9347894757584863,-3.7773112597915968,0.003090217247730697,0.0012712013852828087,-0.7822108488307002
11645,13.0,299.8638,33550.08,0.0,-0.05822468030407435,-0.05822391656734649,0.0,0.0,0.0,-2.4859943268985374,-3.9371165059381465,-3.7752758429907165,0.005056244047312435,0.004426705275381795,-0.7882672067984162
11646,13.0,299.92019,33662.2,0.0,-0.058229694792812925,-0.058228918777533445,0.0,0.0,0.0,-2.5018211921355276,-3.9445991552766264,-3.7860478061288267,0.0014797949277193887,-0.0042441956276194955,-0.7799418880142712
11647,13.0,299.98613,33661.83,0.0,-0.058234676291493925,-0.05823392098772062,0.0,0.0,0.0,-2.4979425720777373,-3.9454771364882766,-3.788935974213867,0.004542377096197716,-0.012763789919687988,-0.7852971478402943
11648,13.0,299.82493999999997,33570.028,0.0,-0.05823969078023228,-0.05823892319790758,0.0,0.0,0.0,-2.485936267667808,-3.9389919305482364,-3.7795221715097966,-0.0006314221201565113,0.0005238331271108044,-0.7854539381607683
11649,13.0,300.06614,33575.161,0.0,-0.05824467227891317,-0.058243925408094754,0.0,0.0,0.0,-2.4886689018624977,-3.9381042221356255,-3.7792373469066867,0.001205903799813439,0.004725150796936076,-0.7865405577005092
11650,13.0,299.96791,33591.727999999996,0.0,-0.05824968676765163,-0.05824892761828193,0.0,0.0,0.0,-2.483966813448437,-3.9426593892851862,-3.784420323818207,-0.009789776753050742,0.004500298846044915,-0.7903710281135472
11651,13.0,300.02155,33588.532,0.0,-0.058254701256389985,-0.05825389691919125,0.0,0.0,0.0,-2.490291824547668,-3.939949553217746,-3.779833745915546,-0.009917692282775021,0.004387132083451226,-0.7866640830202002
11652,13.0,300.2443,33611.324,0.0,-0.058259682755070874,-0.05825889912937843,0.0,0.0,0.0,-2.4935136558906374,-3.9426918132883864,-3.780797752060686,-0.004614483621014076,0.002307925855649548,-0.7950005678204473
11653,13.0,300.40144,33610.056000000004,0.0,-0.05826469724380934,-0.058263901339565605,0.0,0.0,0.0,-2.4942378257371076,-3.9420739333774066,-3.7803062244371763,0.0019148912081100482,0.0003462542380451327,-0.7888898793823692
11654,13.0,300.32482999999996,33591.748,0.0,-0.05826967874249023,-0.05826890354975267,0.0,0.0,0.0,-2.4956656977780276,-3.941878274783096,-3.7735086334913066,-0.0016782542466307984,-0.009322502385259352,-0.7997713545912872
11655,13.0,300.20968999999997,33674.038,0.0,-0.05827469323122858,-0.05827390575993974,0.0,0.0,0.0,-2.5006009350400973,-3.943005920819386,-3.792459956736656,0.006272887994210843,-0.014711618342173684,-0.7859040035901862
11656,13.0,299.94829,33725.291,0.0,-0.05827967472990947,-0.0582789079701268,0.0,0.0,0.0,-2.5056766087660276,-3.9474087964789164,-3.798560938238776,-0.001199020183934079,-0.0034412420394991467,-0.7885464585259763
11657,13.0,299.88574,33639.747,0.0,-0.058284689218647934,-0.05828391018031398,0.0,0.0,0.0,-2.4955818006697474,-3.9394901456224063,-3.7905711572252465,0.004097419663183836,0.002201299217151318,-0.7801994257921883
11658,13.0,299.98501,33615.184,0.0,-0.0582896707173286,-0.058288912390500935,0.0,0.0,0.0,-2.494049969168568,-3.9408177059034264,-3.783308788458507,-0.0008839760450716431,0.00018076983654559379,-0.7877146207238802
11659,13.0,299.9803,33666.321,0.0,-0.058294685206067065,-0.05829391460068789,0.0,0.0,0.0,-2.5045634522061677,-3.9368561006624465,-3.7923013830960066,-0.003831903857954466,0.008731788824035462,-0.7777105593065563
11660,13.0,299.9814,33698.145,0.0,-0.05829969969480564,-0.05829891681087507,0.0,0.0,0.0,-2.512305392245237,-3.9443260843746764,-3.7867629580494064,-0.0016823723990122285,0.0071557258149151535,-0.7900703258813703
11661,13.0,299.92807999999997,33710.391,0.0,-0.05830468119348653,-0.05830391902106202,0.0,0.0,0.0,-2.4993192749886077,-3.953459520776076,-3.794338319772036,-0.0014399427880362888,0.008856868976004913,-0.7854398235868753
11662,13.0,300.06059,33664.708,0.0,-0.05830969568222477,-0.0583089212312492,0.0,0.0,0.0,-2.499019960909068,-3.9489881494097863,-3.7852226152473865,-0.0018321737255964682,0.0008679364885061621,-0.7919892493182532
11663,13.0,300.15788,33645.778,0.0,-0.05831467718090588,-0.05831392344143638,0.0,0.0,0.0,-2.4936565241547375,-3.9481940653064163,-3.7856257874621764,-0.003280894805874107,-0.006640322067373764,-0.7878048506452852
11664,13.0,300.06037000000003,33681.99,0.0,-0.058319691669644236,-0.05831892565162344,0.0,0.0,0.0,-2.5016117533398576,-3.948928671628916,-3.7879435970659263,-0.001277377347292329,-0.008301103727955152,-0.7959863487102362
11665,13.0,299.92727,33751.562999999995,0.0,-0.058324673168325125,-0.05832389495253287,0.0,0.0,0.0,-2.512381689977768,-3.955998421551646,-3.7912523652674763,0.001116330160498209,-0.004547981483825826,-0.7909192774776552
11666,13.0,299.87421,33663.772000000004,0.0,-0.05832968765706359,-0.05832889716272005,0.0,0.0,0.0,-2.4964846065088473,-3.9493064112661966,-3.787154984513096,0.002049758038820368,-0.0038628922884127864,-0.7975343111530082
11667,13.0,300.00247,33561.27,0.0,-0.05833470214580183,-0.058333899372907116,0.0,0.0,0.0,-2.4773717711975576,-3.9417128110417665,-3.782703371523757,0.0008897794147543911,-0.005233371310543534,-0.7973366969860052
11668,13.0,299.7767,33657.847,0.0,-0.05833968364448283,-0.058338901583094294,0.0,0.0,0.0,-2.4916033754771076,-3.9465533094194862,-3.7929883666638067,0.0013622694671705285,-0.0056529750982302045,-0.7915926226991092
11669,13.0,299.79426,33763.51,0.0,-0.058344698133221295,-0.05834390379328125,0.0,0.0,0.0,-2.507290513525308,-3.953220697727507,-3.8027525512524565,0.0005239050780004055,-0.0007525013122510972,-0.7854621961490833
11670,13.0,299.9062,33699.211,0.0,-0.058349679631902185,-0.058348906003468426,0.0,0.0,0.0,-2.4988374745660575,-3.956726644398516,-3.7881544544117363,0.0018451607547781885,0.0009036793316137061,-0.7937050363750883
11671,13.0,300.1376,33658.915,0.0,-0.05835469412064043,-0.0583539082136556,0.0,0.0,0.0,-2.5024096877936075,-3.947435242306526,-3.7816248681173166,-0.00015828410443392485,0.001984892503193638,-0.7872291422034673
11672,13.0,300.18182,33734.297,0.0,-0.058359675619321316,-0.05835891042384256,0.0,0.0,0.0,-2.5105747610744378,-3.953927743647286,-3.789881336557167,-0.0025324576195091073,0.001128301507779689,-0.7926778034237082
11673,13.0,300.20129,33768.527,0.0,-0.05836469010805989,-0.058363912634029735,0.0,0.0,0.0,-2.5075987442057275,-3.9590259115254365,-3.798164250824626,-0.0018800052098170684,0.0037543013632706963,-0.7920689110411152
11674,13.0,300.0518,33749.48,0.0,-0.05836967160674078,-0.05836891484421669,0.0,0.0,0.0,-2.5042004046953377,-3.9587268000959166,-3.7960720920181465,-0.004831925471273915,0.0014590585617728685,-0.7897745075146753
11675,13.0,299.88208,33738.528,0.0,-0.05837468609547902,-0.058373917054403646,0.0,0.0,0.0,-2.502660973818408,-3.952926551223476,-3.8000826372389565,0.002950033184470607,0.0001263724308819879,-0.7858564112329892
11676,13.0,300.27139,33728.744,0.0,-0.0583797005842176,-0.05837891926459082,0.0,0.0,0.0,-2.504107996286218,-3.9532223189276663,-3.7953655527234167,-0.0009731024459252341,-0.0013173038595327689,-0.7872891164768863
11677,13.0,300.05593,33742.098,0.0,-0.05838468208289849,-0.05838392147477789,0.0,0.0,0.0,-2.513737317286558,-3.951078180391056,-3.791939652810307,0.0006426282710949723,-0.0014285212302590686,-0.7873658904369633
11678,13.0,299.80503,33829.615,0.0,-0.05838969657163673,-0.058388923684965066,0.0,0.0,0.0,-2.5111246519037076,-3.9639842508897862,-3.8082493317199466,-0.00021141192798723282,-0.006183057799970295,-0.7933358992311572
11679,13.0,299.82966,33789.525,0.0,-0.05839467807031784,-0.058393892985874496,0.0,0.0,0.0,-2.5009320651727776,-3.960822606602756,-3.8094172037852063,-0.001914026804449738,-0.0035772164538937765,-0.7920821542199222
11680,13.0,299.69548,33663.566,0.0,-0.05839969255905608,-0.05839889519606156,0.0,0.0,0.0,-2.4861575614896476,-3.952028305009826,-3.7946977195825067,0.0005828328261861214,-0.0026380574303559974,-0.7893833828435742
11681,13.0,299.82587,33763.383,0.0,-0.05840467405773697,-0.05840389740624874,0.0,0.0,0.0,-2.500909469695548,-3.960067431303226,-3.8022484593277066,-0.00043420310042750965,0.002120984657249888,-0.7927903248473133
11682,13.0,300.13056,33806.809,0.0,-0.05840968854647555,-0.058408899616435694,0.0,0.0,0.0,-2.5144440592313075,-3.960443955040386,-3.801537563057546,0.002272612873764428,0.008293353783240292,-0.7933224635348312
11683,13.0,300.06441,33705.335,0.0,-0.058414670045156436,-0.05841390182662287,0.0,0.0,0.0,-2.501430786871998,-3.959647641786796,-3.784501687801236,-0.002272124487216228,0.006185875851148414,-0.7990871473287612
11684,13.0,299.96987,33747.474,0.0,-0.05841968453389468,-0.05841890403681005,0.0,0.0,0.0,-2.4986284410704274,-3.9636705486588264,-3.796090533169967,-0.0013198774134617587,0.005156166921824055,-0.8023210160829192
11685,13.0,300.24003,33807.232,0.0,-0.05842469902263325,-0.058423906246997004,0.0,0.0,0.0,-2.5151537396013475,-3.9596029574573866,-3.801797563033207,-0.007272630355802732,0.002496281044563758,-0.7947683410300282
11686,13.0,300.00708,33773.477999999996,0.0,-0.05842968052131414,-0.05842890845718418,0.0,0.0,0.0,-2.506725626594558,-3.959920611363736,-3.799647851621047,0.001030656216842849,-0.005111049529321315,-0.7937537939699002
11687,13.0,300.10681,33817.922999999995,0.0,-0.058434695010052384,-0.058433910667371136,0.0,0.0,0.0,-2.5116609651816377,-3.9592182263944165,-3.8089249668866265,0.004554157952460396,-0.007178908267928083,-0.7823607186529913
11688,13.0,300.06982,33835.079,0.0,-0.058439676508733274,-0.05843891287755831,0.0,0.0,0.0,-2.5237113459709177,-3.960152746961646,-3.8011549598197862,0.0045193230219724555,-0.0008466211818500051,-0.7855620620789393
11689,13.0,299.92306,33794.824,0.0,-0.05844469099747174,-0.05844391508774527,0.0,0.0,0.0,-2.517480871106018,-3.953366403091886,-3.8019354663718166,0.004688548555623715,0.0023972321995883975,-0.7843639039681902
11690,13.0,299.89069,33811.337999999996,0.0,-0.05844967249615274,-0.058448917297932335,0.0,0.0,0.0,-2.508810490000318,-3.959624337034496,-3.8093675545303065,-0.0006336364971900535,0.0004448937806425975,-0.7966083626816243
11691,13.0,299.93072,33843.087,0.0,-0.05845468698489098,-0.05845391950811951,0.0,0.0,0.0,-2.5206644015952078,-3.9578414221585363,-3.8089474610388465,-0.0016359836816090185,0.0027727128970954575,-0.7844623006854012
11692,13.0,299.86552,33826.181000000004,0.0,-0.058459701473629444,-0.05845892171830647,0.0,0.0,0.0,-2.5048371310581774,-3.962469340665276,-3.815008013861976,-0.00016566857997021584,-0.0033987565641311565,-0.7919039843223382
11693,13.0,300.02457999999996,33779.025,0.0,-0.05846468297231033,-0.05846389101921612,0.0,0.0,0.0,-2.5097890869468973,-3.9579049529398063,-3.8002861991840464,-0.00038840415537750564,0.00017395477716799986,-0.7865200697834872
11694,13.0,299.98685,33804.205,0.0,-0.05846969746104891,-0.058468893229403185,0.0,0.0,0.0,-2.5170747604659374,-3.964897493204916,-3.7936619753302865,-0.0028792962698144173,-0.0025222602705027076,-0.7983359338371222
11695,13.0,299.97176,33822.336,0.0,-0.0584746789597298,-0.05847389543959014,0.0,0.0,0.0,-2.510952500711718,-3.9661466279281963,-3.8040465729551665,-0.002949581781551057,-0.0021603795171628577,-0.7947104743168173
11696,13.0,300.06552,33818.742,0.0,-0.05847969344846804,-0.05847889764977732,0.0,0.0,0.0,-2.505371012535868,-3.972430501073366,-3.8022516004030167,0.0011786029917690588,-0.0018813053110203783,-0.8019746568012363
11697,13.0,300.09002999999996,33853.224,0.0,-0.05848467494714893,-0.058483899859964494,0.0,0.0,0.0,-2.5093187362504774,-3.9743858711163464,-3.8068302749548963,-0.0025956167406424274,-0.0016601296341420386,-0.7989743320626272
11698,13.0,300.12086,33811.327000000005,0.0,-0.05848968943588739,-0.05848890207015145,0.0,0.0,0.0,-2.5044872557986477,-3.963970774663456,-3.8093412100277066,0.006120220487068734,-0.0033635445019559967,-0.7964949394654303
11699,13.0,300.1633,33766.761,0.0,-0.058494670934568394,-0.05849390428033863,0.0,0.0,0.0,-2.5020205997552076,-3.9626968153127264,-3.799534874234896,-0.003388845154302977,-0.0013300828684689586,-0.7869125724747242
11700,13.0,299.91831,33810.302,0.0,-0.058499685423306635,-0.05849890649052558,0.0,0.0,0.0,-2.5139596243584976,-3.958449777518576,-3.8050780615569666,0.0018954205941884485,-0.002074196314007238,-0.7879251234321553
11701,13.0,299.93122999999997,33896.522000000004,0.0,-0.0585046999120451,-0.05850390870071276,0.0,0.0,0.0,-2.5135955635975678,-3.9740741953855863,-3.816026634187507,-0.0014233375440724787,0.00043366406150681055,-0.7952171905593263
11702,13.0,299.80872,33840.282,0.0,-0.05850968141072599,-0.058508910910899936,0.0,0.0,0.0,-2.5111185724031078,-3.970768365609326,-3.8047136968210067,-0.0017198844375893784,0.0013261167036025287,-0.7983375043747772
11703,13.0,299.98846000000003,33811.007000000005,0.0,-0.05851469589946434,-0.05851391312108689,0.0,0.0,0.0,-2.5089198196861076,-3.966468233509936,-3.8023137126341466,-0.00030160490629358675,0.0007185370371765844,-0.7977032098121772
11704,13.0,299.90112999999997,33870.781,0.0,-0.05851967739814523,-0.05851891533127407,0.0,0.0,0.0,-2.5191710735978274,-3.970412613499216,-3.806288084826386,0.001150298660825639,-0.006208863456167114,-0.7930348828914493
11705,13.0,299.99912,33878.105,0.0,-0.058524691886883695,-0.058523917541461135,0.0,0.0,0.0,-2.5297071521126577,-3.9698107429398166,-3.7985800886656667,0.0037586655327764063,0.006236066688226864,-0.7898553344751522
11706,13.0,300.00572999999997,33862.377,0.0,-0.058529673385564585,-0.05852891975164809,0.0,0.0,0.0,-2.5236376826886477,-3.9699552324040757,-3.7997241493535765,0.0009656056516153582,0.0007694790370841684,-0.7903473383262093
11707,13.0,300.32173,33855.801,0.0,-0.05853468787430316,-0.05853392196183527,0.0,0.0,0.0,-2.5152686421626878,-3.967827508519086,-3.808221973967246,-0.0003058471108847597,0.005737366672559005,-0.7939252966818263
11708,13.0,300.1428,33840.856,0.0,-0.05853966937298405,-0.05853889126274481,0.0,0.0,0.0,-2.5075259928485476,-3.9668102054186862,-3.8124389182334264,-0.0062585276058435835,0.003046117968928437,-0.7924009936288893
11709,13.0,300.112,33878.674,0.0,-0.05854468386172229,-0.058543893472931985,0.0,0.0,0.0,-2.5060298277508877,-3.9732789967071067,-3.8189621210522167,0.0005216001164079237,-0.00016707085731360984,-0.7990036757855232
11710,13.0,299.91957,33918.128,0.0,-0.058549698350460755,-0.05854889568311894,0.0,0.0,0.0,-2.5135832019463473,-3.9752512880267563,-3.821429689020746,0.0014174482305162486,0.0019429634034555583,-0.7885803314768193
11711,13.0,299.91721,33877.089,0.0,-0.058554679849141644,-0.058553897893305895,0.0,0.0,0.0,-2.5186544173718373,-3.9696095114699563,-3.8095252162458664,-0.002007987918022978,-0.0013328536008674087,-0.7885825099645342
11712,13.0,299.86418,33865.367999999995,0.0,-0.05855969433788,-0.05855890010349307,0.0,0.0,0.0,-2.5077664370972776,-3.9757225506482667,-3.810737164690476,0.006427520395946874,-0.005764459764332885,-0.7957709520039782
11713,13.0,300.04907000000003,33919.831,0.0,-0.05856467583656089,-0.05856390231368003,0.0,0.0,0.0,-2.5131708091556475,-3.9835536566961363,-3.8140571799681364,-0.0034727282797315964,0.0014146960405946288,-0.8041999364058543
11714,13.0,300.20297,33952.86,0.0,-0.05856969032529935,-0.058568904523867205,0.0,0.0,0.0,-2.519800099259908,-3.985320055595466,-3.815701583555426,0.0030503605484221473,0.002944153192815297,-0.7992656313338763
11715,13.0,300.17627000000005,33913.961,0.0,-0.05857467182398024,-0.05857390673405438,0.0,0.0,0.0,-2.5131621965297977,-3.9818575773537463,-3.8139775385102763,0.0013624515482134987,0.0003069932690003767,-0.8010108431736153
11716,13.0,300.23795,33888.282,0.0,-0.05857968631271859,-0.05857890894424145,0.0,0.0,0.0,-2.5188095459621476,-3.9721037279161164,-3.810278365045196,-0.0014471890461264386,-0.0015836152687406584,-0.7918774979647243
11717,13.0,300.05072,33916.77,0.0,-0.05858470080145706,-0.058583911154428514,0.0,0.0,0.0,-2.5226903951701574,-3.9755869777848862,-3.8115738052980466,0.0014085006241831887,-0.0008842504230662223,-0.7915160412565513
11718,13.0,299.88617,33909.84,0.0,-0.058589682300137946,-0.05858891336461558,0.0,0.0,0.0,-2.5146653530531475,-3.9714081317224665,-3.8216710451945666,0.006786519060702285,-0.00016529032357538484,-0.7916534582351132
11719,13.0,299.88865,33935.05,0.0,-0.0585946967888763,-0.05859391557480276,0.0,0.0,0.0,-2.515512632786768,-3.977947546542856,-3.821947662471867,0.005704451141735494,0.0006820654544646193,-0.7945555990390323
11720,13.0,300.05817,33943.159,0.0,-0.0585996782875573,-0.05859891778498971,0.0,0.0,0.0,-2.5218352120857577,-3.973386502542717,-3.822651162016296,0.0018756260442098784,-0.005825197623027245,-0.7893361349914112
11721,13.0,299.87152000000003,33907.362,0.0,-0.05860469277629565,-0.05860391999517667,0.0,0.0,0.0,-2.5164423910785274,-3.9710140787585764,-3.819534810008736,0.00011792845037863189,0.0006462956386394135,-0.7970738295125622
11722,13.0,299.99133,33914.682,0.0,-0.05860967427497654,-0.05860888929608643,0.0,0.0,0.0,-2.5209629050746676,-3.975232644224916,-3.8130209290908663,-0.0016652263834700482,0.003591978697250697,-0.7930919491370813
11723,13.0,300.13991,33964.072,0.0,-0.058614688763715006,-0.05861389150627361,0.0,0.0,0.0,-2.5291300048556975,-3.975532059629466,-3.8195678419619963,-0.0027124951396774273,0.004513150707663296,-0.7930581369812443
11724,13.0,300.08157,33967.386,0.0,-0.058619670262395895,-0.05861889371646056,0.0,0.0,0.0,-2.524952070718368,-3.9816570551589563,-3.8186282551442665,-0.004591131347284386,0.003206062739613757,-0.7970490960776212
11725,13.0,300.1195,33947.888,0.0,-0.05862468475113425,-0.05862389592664752,0.0,0.0,0.0,-2.5188019465863976,-3.9825054494676864,-3.8180027758575363,-0.005583588136682245,0.002279196466289178,-0.8061273407460743
11726,13.0,300.17572,33976.521,0.0,-0.05862969923987271,-0.05862889813683447,0.0,0.0,0.0,-2.5233353288588076,-3.9816149039547963,-3.8230635548069962,-0.0018015499638491385,-0.0025026414180914776,-0.7950728733475833
11727,13.0,300.10787,33954.913,0.0,-0.0586346807385536,-0.05863390034702165,0.0,0.0,0.0,-2.5163316428425975,-3.984247631689626,-3.820866423290157,0.0020621517087435278,-0.006758346857571903,-0.8002304278140943
11728,13.0,300.07367,33925.776,0.0,-0.058639695227291955,-0.05863890255720883,0.0,0.0,0.0,-2.520320808486298,-3.9758158709824762,-3.8164519965794863,0.0028928937821813875,-0.0049988413013222245,-0.7924360115523452
11729,13.0,300.06051,33946.504,0.0,-0.058644676725972844,-0.058643904767395894,0.0,0.0,0.0,-2.5164020637245477,-3.980994794893596,-3.8214927131769665,0.004477661420260776,-0.001071913531764629,-0.7990220662748383
11730,13.0,299.71691,33942.105,0.0,-0.05864969121471131,-0.05864890697758307,0.0,0.0,0.0,-2.5132324147617275,-3.9832743036435665,-3.8210455659078364,0.001154380741503509,0.005939515235084515,-0.8000552368718042
11731,13.0,299.78255,33912.068,0.0,-0.0586546727133922,-0.058653909187770026,0.0,0.0,0.0,-2.5076723061629873,-3.980458380290656,-3.820291099883376,-0.0009890173119334092,0.0040932177150191365,-0.8037301733944923
11732,13.0,299.82121,33980.51,0.0,-0.05865968720213055,-0.0586589113979572,0.0,0.0,0.0,-2.518088719841008,-3.9903288548147966,-3.820808870684476,-0.0026588298680060777,-0.00042546481130010757,-0.7985861863468202
11733,13.0,299.89105,34013.587,0.0,-0.05866466870081155,-0.05866391360814438,0.0,0.0,0.0,-2.5276007064797676,-3.984417857706426,-3.8272626658714164,-6.600614011854883e-05,0.006757559460919193,-0.7959300626671812
11734,13.0,299.98467999999997,33968.886,0.0,-0.058669683189549904,-0.058668915818331335,0.0,0.0,0.0,-2.530580573698858,-3.9793567747819356,-3.8157557924357763,-0.0038796045315871563,0.007652716376339303,-0.7954345529707783
11735,13.0,300.05556,33977.987,0.0,-0.05867469767828826,-0.05867391802851851,0.0,0.0,0.0,-2.5229397560197677,-3.9848305544721563,-3.8206894084976866,0.0035652777332655164,0.0053620560997437346,-0.7949044002534562
11736,13.0,299.92706,34054.966,0.0,-0.05867967917696926,-0.05867888732942805,0.0,0.0,0.0,-2.5360371281373775,-3.9826286606798464,-3.833193624006756,-0.0025677482085670173,0.0003314437943809557,-0.7930536077532973
11737,13.0,299.90932000000004,34099.77,0.0,-0.05868469366570761,-0.05868388953961501,0.0,0.0,0.0,-2.5371219136944374,-3.9968772875610763,-3.831479508812586,0.0006471850391796904,-0.001059150532180019,-0.7953308873530472
11738,13.0,299.96955,34029.977,0.0,-0.0586896751643885,-0.058688891749802186,0.0,0.0,0.0,-2.527238976194068,-3.9888620739700364,-3.828162229310196,0.0007172559648101522,-0.008388790796909192,-0.7939201088413143
11739,13.0,300.24421,33989.46,0.0,-0.058694689653126964,-0.05869389395998914,0.0,0.0,0.0,-2.5216519151426677,-3.984855075124576,-3.8254400315915364,-0.00020049317530713583,-0.01010902055013265,-0.7927329343616493
11740,13.0,300.15368,33989.304,0.0,-0.05869967115180785,-0.058698896170176096,0.0,0.0,0.0,-2.524426497891498,-3.983731988713736,-3.8237410138238563,0.0025057298043962774,-0.0050454127077184645,-0.7936368345108572
11741,13.0,300.08463,34004.543,0.0,-0.058704685640546206,-0.05870389838036327,0.0,0.0,0.0,-2.5151468495006677,-3.9903949187213166,-3.830990109014286,0.0028596250323730176,0.0005518943185602286,-0.8059845940719862
11742,13.0,299.89285,34048.268,0.0,-0.05870970012928467,-0.05870890059055034,0.0,0.0,0.0,-2.5271595373862277,-3.992272977781666,-3.8303908729051463,0.002172168074126298,0.006158988753119864,-0.8041751624409091
11743,13.0,299.93696,34024.278,0.0,-0.05871468162796556,-0.058713902800737516,0.0,0.0,0.0,-2.517565984114418,-3.9930328140316558,-3.831932228957266,-0.002331896313265248,-2.7418453473740672e-05,-0.8100891587695752
11744,13.0,300.05542,33970.858,0.0,-0.05871969611670391,-0.05871890501092447,0.0,0.0,0.0,-2.5123003259947376,-3.988709579829986,-3.8252827751760163,-0.0044744894408227254,-0.0014585213365698488,-0.8012673778339332
11745,13.0,300.00691,34055.581,0.0,-0.0587246776153848,-0.05872390722111165,0.0,0.0,0.0,-2.525351291257768,-3.9936132036889362,-3.833081862520726,-0.0011792101312289788,0.003643106891996656,-0.7985697412976972
11746,13.0,299.85303999999996,34114.172,0.0,-0.058729692104123266,-0.058728909431298826,0.0,0.0,0.0,-2.5437972053532376,-3.990729899204376,-3.835329251242526,-0.003670073226183027,0.003490861910146247,-0.7913345073686352
11747,13.0,299.98073,34026.915,0.0,-0.058734673602804155,-0.05873391164148578,0.0,0.0,0.0,-2.5198170205365775,-3.9912704681327265,-3.8322449179381257,0.004084848066543116,-0.0009561018419049052,-0.7993780007699662
11748,13.0,300.20705,34015.63,0.0,-0.0587396880915424,-0.05873891385167296,0.0,0.0,0.0,-2.5267427876200976,-3.9896532196481167,-3.8235060411256665,-0.00011437298617523491,0.0007902886914104213,-0.7991268160701763
11749,13.0,300.07324,34114.229,0.0,-0.05874466959022351,-0.05874391606185991,0.0,0.0,0.0,-2.5372958887366077,-3.9927414033028965,-3.839836694312376,0.007022354338702414,4.494827295504916e-05,-0.7976656486309702
11750,13.0,300.20045,34115.716,0.0,-0.05874968407896186,-0.05874891827204709,0.0,0.0,0.0,-2.539763152730108,-3.9925702653610062,-3.8379925791303764,0.0009497632836518381,-0.004190202265565766,-0.7981923259004492
11751,13.0,299.95515,34045.068,0.0,-0.0587546985677001,-0.05875388757295663,0.0,0.0,0.0,-2.5288367702767576,-3.984416236506266,-3.835597559869006,0.0045243899817475255,-0.0046521755114839755,-0.7945075000567853
11752,13.0,299.98011,34085.11,0.0,-0.058759680066381215,-0.058758889783143586,0.0,0.0,0.0,-2.5308175728972473,-3.992211473500596,-3.8379933897304563,0.005568471053140305,-0.0015850843800606484,-0.7959244289966252
11753,13.0,300.06516,34120.486000000004,0.0,-0.05876469455511968,-0.058763891993330764,0.0,0.0,0.0,-2.5304207841580872,-4.000049165674117,-3.841305906957376,0.0016735781987443083,0.007138237928789233,-0.8025681680473112
11754,13.0,300.23498,34117.883,0.0,-0.05876967605380046,-0.05876889420351794,0.0,0.0,0.0,-2.5407934254317874,-3.991386890569216,-3.8388039898104567,-0.003870591671947656,0.0069594900733481934,-0.8014342702579043
11755,13.0,300.08297000000005,34114.806000000004,0.0,-0.05877469054253892,-0.058773896413704896,0.0,0.0,0.0,-2.5364873151568075,-3.9962057053947966,-3.8373561567425667,-0.008357084174779992,0.0008041976565931294,-0.8023229007281052
11756,13.0,300.24343999999996,34052.808,0.0,-0.05877967204121981,-0.05877889862389196,0.0,0.0,0.0,-2.5314947279390774,-3.9865085979627666,-3.8331999061573763,-0.005631722886657775,0.008146852814881773,-0.7977824155724942
11757,13.0,300.11352,34018.875,0.0,-0.05878468652995805,-0.05878390083407892,0.0,0.0,0.0,-2.5288886486818773,-3.9864111233031463,-3.8255885740561966,-0.0021158080638139978,0.005786000245558765,-0.7994841083204383
11758,13.0,299.97808,34132.473,0.0,-0.05878966802863905,-0.058788903044266094,0.0,0.0,0.0,-2.5340825686944775,-4.002215595712926,-3.8391213397417765,-0.0021135023118864383,-0.003798815162688866,-0.8022805975364302
11759,13.0,300.03489,34154.247,0.0,-0.05879468251737752,-0.05879390525445327,0.0,0.0,0.0,-2.5356135895955774,-4.002616640102507,-3.843808128079326,-0.0014956632348854684,-0.0060303530052245044,-0.8060749962459083
11760,13.0,300.1737,34081.111000000004,0.0,-0.05879969700611576,-0.05879890746464023,0.0,0.0,0.0,-2.5251893738917874,-4.003500700814756,-3.831116461301756,0.0007992274014076032,-0.006050505435138394,-0.8076166866705612
11761,13.0,300.00782999999996,34077.301,0.0,-0.05880467850479665,-0.058803909674827404,0.0,0.0,0.0,-2.521082063286427,-4.003757762365126,-3.833808768142467,0.0053156806559168344,-0.0033771705879757866,-0.8103868212514522
11762,13.0,300.02716000000004,34166.861000000004,0.0,-0.05880969299353522,-0.05880891188501436,0.0,0.0,0.0,-2.536993534906768,-4.0032842705933955,-3.8455948933056665,-0.0030197426635253976,-0.00039038837265083264,-0.7991797989179052
11763,13.0,300.01502,34141.769,0.0,-0.05881467449221611,-0.058813914095201536,0.0,0.0,0.0,-2.5359719761559476,-4.003114652526656,-3.839158526020446,0.005964147547665535,-0.0016445295342774283,-0.8006452625375352
11764,13.0,299.80911000000003,34112.318,0.0,-0.058819688980954354,-0.05881891630538871,0.0,0.0,0.0,-2.5279612208653477,-4.002097754726296,-3.8392338105028765,0.0035871665698757773,0.004055701724766596,-0.7968113369416562
11765,13.0,299.9737,34171.219,0.0,-0.058824670479635466,-0.05882388560629803,0.0,0.0,0.0,-2.5402488035030375,-4.006161394252346,-3.8407870215811664,0.007208251281549014,0.007132662216138953,-0.8011712710619483
11766,13.0,300.06293999999997,34126.971,0.0,-0.05882968496837393,-0.05882888781648521,0.0,0.0,0.0,-2.5371647741736676,-4.000260732294996,-3.8363214257404463,0.0012659468729142287,0.002080949524598728,-0.7979643344954482
11767,13.0,300.13986,34109.066,0.0,-0.05883469945711228,-0.058833890026672386,0.0,0.0,0.0,-2.5303509712261976,-3.999371807982266,-3.8385813787634864,-0.0032699909175729768,0.0008540672731248773,-0.7997202665212453
11768,13.0,300.09501,34185.176,0.0,-0.05883968095579317,-0.05883889223685945,0.0,0.0,0.0,-2.5451676261134875,-4.002241230940457,-3.844031144426336,-0.006060793470028744,0.004092294948153066,-0.7960060057621763
11769,13.0,300.07486,34150.686,0.0,-0.058844695444531636,-0.05884389444704652,0.0,0.0,0.0,-2.5377312823045775,-4.001006180393566,-3.842218439997436,-0.00014118719099159087,-0.0007822023172648582,-0.7981496072762333
11770,13.0,300.02972,34121.237,0.0,-0.058849676943212303,-0.058848896657233585,0.0,0.0,0.0,-2.528784081271558,-4.003982602562316,-3.839237356878226,-0.00010438467066446489,-0.004083013678562076,-0.8069445168192233
11771,13.0,300.07006,34190.185,0.0,-0.05885469143195088,-0.05885389886742054,0.0,0.0,0.0,-2.5392275487272475,-4.006621511122756,-3.847113349905526,0.0025598214517097073,-0.011069817124255888,-0.8048544351754482
11772,13.0,299.94775,34204.966,0.0,-0.05885967293063177,-0.05885890107760772,0.0,0.0,0.0,-2.543818888905377,-4.0060775984690755,-3.8475590786245166,0.0017794806673960685,-0.005146708130815545,-0.8102221377126992
11773,13.0,300.06924,34170.788,0.0,-0.05886468741937001,-0.05886390328779467,0.0,0.0,0.0,-2.5317213919864474,-4.009641807020836,-3.8457030070913363,0.002038499816959268,-0.0033963145300651473,-0.8012717854718682
11774,13.0,300.08405,34136.531,0.0,-0.0588696689180509,-0.05886890549798185,0.0,0.0,0.0,-2.5335838469952576,-4.002954761660876,-3.8401145274897965,-0.0029417958664576475,0.0007541504882463583,-0.8060564841665813
11775,13.0,299.98451,34165.355,0.0,-0.058874683406789474,-0.058873907708168804,0.0,0.0,0.0,-2.5329860294362576,-4.008619437669936,-3.8438094453044567,0.00022017678453225683,0.00012300833922497789,-0.7951970370148372
11776,13.0,300.11284,34189.047,0.0,-0.058879697895527716,-0.05887890991835598,0.0,0.0,0.0,-2.5369319293006876,-4.009965033802736,-3.845719523067966,-0.0025815353000276974,0.006639458474313534,-0.8043084858890672
11777,13.0,300.05431,34212.551,0.0,-0.058884679394208606,-0.05888391212854316,0.0,0.0,0.0,-2.5423542358858273,-4.011211838050786,-3.846195041339896,0.0023835700418650477,0.004016055984128866,-0.8024481283079643
11778,13.0,299.81237999999996,34177.214,0.0,-0.05888969388294707,-0.058888914338730225,0.0,0.0,0.0,-2.537219084379027,-4.008643553022316,-3.8431569122400564,-0.000945555843671596,0.0026686176613220573,-0.8101414019447313
11779,13.0,300.08621,34160.886,0.0,-0.05889467538162818,-0.058893883639639655,0.0,0.0,0.0,-2.534962373756308,-4.006117520523016,-3.842976452397246,-0.0003777845039944276,-0.00033084118414898264,-0.8038986363561182
11780,13.0,299.87071000000003,34206.789,0.0,-0.058899689870366534,-0.05889888584982683,0.0,0.0,0.0,-2.5430957323090078,-4.0087967564374365,-3.846117325057226,-0.0013833689819528888,-0.0006231669486767894,-0.8028041337305992
11781,13.0,299.96721,34265.901,0.0,-0.05890467136904742,-0.0589038880600139,0.0,0.0,0.0,-2.5423038773558577,-4.014669148716996,-3.859005359704176,-0.0016539255037797383,-0.0028232978884628075,-0.7997406024507523
11782,13.0,300.25006,34222.47,0.0,-0.05890968585778589,-0.058908890270201075,0.0,0.0,0.0,-2.539656862794618,-4.0128998113923755,-3.8502197720621067,-0.0009556098785838522,-0.005706305288093484,-0.7992056874579602
11783,13.0,300.08166,34155.219,0.0,-0.058914667356466555,-0.05891389248038803,0.0,0.0,0.0,-2.5293677133291577,-4.004016039815617,-3.8489500683617965,0.0006915221581779233,-0.003363732662499567,-0.7985505503408032
11784,13.0,299.98681,34242.422,0.0,-0.05891968184520513,-0.05891889469057521,0.0,0.0,0.0,-2.5457603774219875,-4.013804441081656,-3.8492766388690263,0.0016554613882813186,0.0029954101716489667,-0.8014192133614182
11785,13.0,300.07915,34280.37,0.0,-0.058924696333943594,-0.058923896900762385,0.0,0.0,0.0,-2.5518287322708875,-4.013039437256157,-3.855508329634046,-0.0015385759978206286,0.0035414014065841062,-0.8000545377292353
11786,13.0,299.89513,34209.474,0.0,-0.05892967783262426,-0.05892889911094934,0.0,0.0,0.0,-2.5448481483569574,-4.0128560389880565,-3.841121495439176,0.0009587693747806701,0.0017909033397483982,-0.8002794995164372
11787,13.0,299.84027000000003,34185.174,0.0,-0.058934692321362725,-0.058933901321136295,0.0,0.0,0.0,-2.5320404644429373,-4.008719648104826,-3.8506791796574467,0.0005082281433807125,0.004202670206721256,-0.8036080159624363
11788,13.0,300.00793999999996,34220.981,0.0,-0.058939673820043725,-0.05893890353132325,0.0,0.0,0.0,-2.5445533939028677,-4.008773553010146,-3.8489968805164163,0.005382558607567175,0.007954925919365061,-0.8061094366168072
11789,13.0,299.85376,34247.475,0.0,-0.05894468830878197,-0.05894390574151043,0.0,0.0,0.0,-2.542257977126327,-4.015626062111436,-3.852493302636486,0.00023107419816524775,-0.0010053276291906122,-0.8099415180975043
11790,13.0,299.95786,34249.428,0.0,-0.05894966980746286,-0.058948907951697604,0.0,0.0,0.0,-2.5451700579137277,-4.014772196252166,-3.8510286496169357,-0.0014080846850171387,-0.007219639300747924,-0.8117313433391462
11791,13.0,299.68318999999997,34207.648,0.0,-0.05895468429620132,-0.05895391016188467,0.0,0.0,0.0,-2.5416990683711678,-4.010368813967586,-3.846203046015686,-0.0036807958440412667,-0.005014261751944105,-0.8043699395076322
11792,13.0,299.88061,34197.381,0.0,-0.058959698784939674,-0.05895891237207185,0.0,0.0,0.0,-2.5343735741231974,-4.010185820999526,-3.8505906215987062,0.0008475330157474961,-0.005062478473852725,-0.8061468255454972
11793,13.0,300.0099,34274.287000000004,0.0,-0.058964680283620785,-0.05896388167298128,0.0,0.0,0.0,-2.5378114303874875,-4.021324985973876,-3.8593910026922367,-0.00021640350195486276,-0.002261698650312278,-0.8006661962846012
11794,13.0,300.01515,34316.917,0.0,-0.05896969477235903,-0.058968883883168344,0.0,0.0,0.0,-2.5482136585641078,-4.018919530236476,-3.864352888431936,0.007420437200890133,0.0038536714085277562,-0.7969202714599072
11795,13.0,299.8097,34272.326,0.0,-0.05897467627104014,-0.05897388609335552,0.0,0.0,0.0,-2.5453787874343274,-4.017790668300067,-3.8547618682853764,0.005737159462913555,0.00943404065229232,-0.7972813937955472
11796,13.0,300.02515,34256.687000000005,0.0,-0.05897969075977838,-0.058978888303542476,0.0,0.0,0.0,-2.5418103232321476,-4.021659561156897,-3.8497075741365565,0.0010568795347308888,0.003534533192106267,-0.8053286159572463
11797,13.0,300.02926,34302.565,0.0,-0.05898467225845938,-0.05898389051372965,0.0,0.0,0.0,-2.5583995578443774,-4.017674752488626,-3.851049015943946,-0.0015385644467694885,-0.0033684929114693664,-0.8034401609508702
11798,13.0,300.2495,34365.905,0.0,-0.058989686747197845,-0.05898889272391683,0.0,0.0,0.0,-2.555236393682198,-4.026378976147666,-3.864761633522276,-0.00023987168136349179,-0.006274564416501294,-0.8039809831917453
11799,13.0,300.10668,34278.951,0.0,-0.05899466824587851,-0.058993894934103785,0.0,0.0,0.0,-2.5425102764012277,-4.018584549753417,-3.8588503324388763,0.0013857019903081387,0.004612553176923556,-0.8087783576452092
11800,13.0,299.89344,34246.802,0.0,-0.058999682734616976,-0.05899889714429096,0.0,0.0,0.0,-2.5436109699848575,-4.016251338748146,-3.850310356621047,0.004563910991297946,-0.0005998927458673044,-0.8015887402356492
11801,13.0,299.86381,34292.632000000005,0.0,-0.05900469722335555,-0.05900389935447792,0.0,0.0,0.0,-2.5442510400730276,-4.020831229200146,-3.859021673030786,-0.0026969032471386273,-0.000980287209866815,-0.8110124423931963
11802,13.0,299.92617,34281.907,0.0,-0.05900967872203622,-0.05900890156466487,0.0,0.0,0.0,-2.5483721308797476,-4.0187595380456855,-3.8537120398567666,0.0006366145405589636,-0.0025619764320223876,-0.8050460509018592
11803,13.0,300.01055,34303.513999999996,0.0,-0.05901469321077468,-0.05901390377485205,0.0,0.0,0.0,-2.5463270882029176,-4.023024915666646,-3.8580597947108566,0.0007887289246039842,0.0008307967788107581,-0.8093627192428813
11804,13.0,300.05228999999997,34329.484,0.0,-0.05901967470945557,-0.059018905985039116,0.0,0.0,0.0,-2.5434827938472075,-4.023128875126906,-3.8686941584853862,0.002957886987320717,0.0033246645757438464,-0.8009370785663352
11805,13.0,300.07032999999996,34271.093,0.0,-0.059024689198193925,-0.05902390819522629,0.0,0.0,0.0,-2.5351740417021977,-4.023059670145076,-3.8593227096354967,-0.008979931341725221,0.004837293872953735,-0.8107047183378262
11806,13.0,300.16147,34292.932,0.0,-0.059029670696875036,-0.05902891040541325,0.0,0.0,0.0,-2.5466701746867777,-4.019425547336416,-3.8580993114647564,0.0004934143458587045,0.008512699530438032,-0.8041285934663133
11807,13.0,299.99772,34368.752,0.0,-0.05903468518561328,-0.059033912615600426,0.0,0.0,0.0,-2.5518912498020576,-4.027919116299667,-3.8674321554858366,-0.002314587265781978,0.008563030601330322,-0.8062840398740393
11808,13.0,300.22854,34357.309,0.0,-0.05903966668429439,-0.059038881916509967,0.0,0.0,0.0,-2.554654484149768,-4.029714798126886,-3.8593946503925967,0.004738782658481436,0.002227357577923078,-0.8101739982004482
11809,13.0,300.12869,34309.89,0.0,-0.05904468117303263,-0.05904388412669692,0.0,0.0,0.0,-2.5450064180225773,-4.028145780347036,-3.8561976436770764,0.0032212421380368467,-0.005131396401929395,-0.8112246676266412
11810,13.0,300.08429,34320.559,0.0,-0.059049695661770985,-0.0590488863368841,0.0,0.0,0.0,-2.5425189903520873,-4.025052429116746,-3.8650214308479165,0.005770544432508394,-0.0042121085300777465,-0.8081470521704043
11811,13.0,299.83616,34356.395,0.0,-0.059054677160452096,-0.059053888547071276,0.0,0.0,0.0,-2.5497515695658874,-4.026488407158467,-3.8672461227674764,0.003129022700060497,0.0014151805767924487,-0.8007741175527523
11812,13.0,300.03855,34350.273,0.0,-0.05905969164919034,-0.05905889075725823,0.0,0.0,0.0,-2.550423557032208,-4.022400246979996,-3.8688015629959867,0.0002289582583789208,-0.0035253640893013463,-0.8070452946741692
11813,13.0,299.75964,34365.402,0.0,-0.05906467314787123,-0.05906389296744541,0.0,0.0,0.0,-2.5580897059637975,-4.026425281677237,-3.8617090149460065,-0.004220637258819466,-0.0005278834221330376,-0.8029785242053102
11814,13.0,299.90178,34380.928,0.0,-0.0590696876366098,-0.05906889517763236,0.0,0.0,0.0,-2.5596159645894274,-4.025712662881906,-3.8656147901064766,-0.0049287264209024245,-0.00012646627810624988,-0.8060784412962482
11815,13.0,300.01072999999997,34384.293,0.0,-0.05907466913529047,-0.05907389738781954,0.0,0.0,0.0,-2.5550843048421874,-4.026609591870426,-3.870272599491166,0.0008416568440450632,-0.0005673184675449735,-0.8022190425928553
11816,13.0,300.24143,34422.929,0.0,-0.059079683624028934,-0.05907889959800672,0.0,0.0,0.0,-2.5506781867823376,-4.036788195749976,-3.8762445942555566,0.003762833739712777,-0.004350186046379936,-0.8047073315259302
11817,13.0,300.04681,34392.284,0.0,-0.0590846981127674,-0.05908390180819367,0.0,0.0,0.0,-2.552540641791148,-4.029814096636686,-3.872040923565686,0.004595010473967225,-0.003462204866843017,-0.8076332026471912
11818,13.0,300.21293,34345.5,0.0,-0.059089679611448176,-0.05908890401838074,0.0,0.0,0.0,-2.5469733391166973,-4.028703270552056,-3.864497681871226,0.0021387683110799982,-0.0007311688107407435,-0.8086109889936912
11819,13.0,300.16736000000003,34342.428,0.0,-0.05909469410018664,-0.059093906228567694,0.0,0.0,0.0,-2.550697742509268,-4.0257873394142765,-3.862755398324276,-0.003084997388515537,0.0021004424300225277,-0.8112883098654222
11820,13.0,300.09013,34411.687999999995,0.0,-0.05909967559886753,-0.05909890843875487,0.0,0.0,0.0,-2.5636558940631375,-4.031375616365796,-3.8652624830467066,0.0009129699129731151,-0.0006804131677915513,-0.8077294107441862
11821,13.0,299.84689,34433.931000000004,0.0,-0.05910469008760588,-0.05910391064894205,0.0,0.0,0.0,-2.5604412567958774,-4.034502100874357,-3.872111749747676,0.0027662337706560176,0.0031415577183726067,-0.8155289844489443
11822,13.0,299.94139,34400.456,0.0,-0.05910967158628688,-0.05910887994985159,0.0,0.0,0.0,-2.5542022706301375,-4.025129537449357,-3.877547836534176,0.003692538906075216,0.001869370339417488,-0.8041147423374463
11823,13.0,299.7631,34378.018,0.0,-0.059114686075025236,-0.059113882160038544,0.0,0.0,0.0,-2.5516081477241177,-4.027334268341946,-3.8711166368244663,0.0005527960706192244,-0.0005885273120131235,-0.8105016630177863
11824,13.0,299.87945,34397.52,0.0,-0.05911966757370635,-0.05911888437022572,0.0,0.0,0.0,-2.5514464330081577,-4.030256785605376,-3.8742838539870466,0.00017986595666138783,-0.0023256838742521276,-0.8080933803126072
11825,13.0,300.02361,34428.412000000004,0.0,-0.05912468206244459,-0.05912388658041268,0.0,0.0,0.0,-2.562120009561558,-4.033723316847496,-3.869534345468306,-0.0023421036934476377,-0.00045117923445792363,-0.8153956913982893
11826,13.0,300.18179,34430.637,0.0,-0.05912969655118305,-0.059128888790599854,0.0,0.0,0.0,-2.559379775991118,-4.037878655507597,-3.868795483495386,0.001019371853129169,0.0005628465895536335,-0.8082234410954432
11827,13.0,300.21155,34386.123999999996,0.0,-0.05913467804986405,-0.05913389100078681,0.0,0.0,0.0,-2.5508784050020976,-4.030041875259166,-3.8716027942224467,-0.0035312320232804666,0.0024399717980814676,-0.8099385695397132
11828,13.0,300.08072999999996,34385.811,0.0,-0.059139692538602295,-0.059138893210973986,0.0,0.0,0.0,-2.5470596680252178,-4.035063340104746,-3.8703049221693564,-0.005151279205991675,0.003924649071407707,-0.8071914458685933
11829,13.0,299.86273,34475.148,0.0,-0.059144674037283185,-0.05914389542116116,0.0,0.0,0.0,-2.5640178269988576,-4.038549832373836,-3.877016488181736,-0.00012996213280626386,0.004300946043195327,-0.8050694772441712
11830,13.0,300.00543999999996,34500.479,0.0,-0.05914968852602165,-0.05914889763134823,0.0,0.0,0.0,-2.559363462664508,-4.044723362583117,-3.883197313791736,0.0011154398176353387,-0.00035704697281029263,-0.8076323515171072
11831,13.0,299.97598999999997,34443.712999999996,0.0,-0.05915467002470243,-0.059153899841535296,0.0,0.0,0.0,-2.5667967667231175,-4.034585086057546,-3.868646738380707,-0.0003113071205061207,-0.0029003903130462375,-0.8024321088238833
11832,13.0,299.77378999999996,34482.578,0.0,-0.05915968451344089,-0.05915890205172236,0.0,0.0,0.0,-2.5618558552604873,-4.039362965579086,-3.8806239625127663,0.0018995031814913682,-0.006572656111120655,-0.8080339835917453
11833,13.0,299.78657999999996,34474.314,0.0,-0.05916466601212178,-0.05916390426190932,0.0,0.0,0.0,-2.5608229481085476,-4.040107299102546,-3.8784003851683164,0.0015313682432342786,0.0016932060690814286,-0.8072995900517662
11834,13.0,299.77805,34411.669,0.0,-0.05916968050086013,-0.059168906472096494,0.0,0.0,0.0,-2.5499073061062574,-4.038295607923746,-3.8720853039200667,0.005872525521948144,0.0013265254486928687,-0.8118375319496263
11835,13.0,300.13847999999996,34431.845,0.0,-0.0591746949895986,-0.05917390868228345,0.0,0.0,0.0,-2.5539881708840078,-4.035886200510956,-3.8765466441103666,0.0022754097480154577,0.0006269065406883584,-0.8096069226494822
11836,13.0,299.97825,34428.537000000004,0.0,-0.05917967648827949,-0.05917887798319321,0.0,0.0,0.0,-2.5568682329682475,-4.042042505468536,-3.8665048289943162,-0.0015370081959408984,0.003224815364514497,-0.8174176421053402
11837,13.0,299.90655,34407.91,0.0,-0.05918469097701795,-0.05918388019338017,0.0,0.0,0.0,-2.5577247332777775,-4.035412911389247,-3.8660080324702863,0.0001992123663857298,0.0014844849584572585,-0.8116403636126672
11838,13.0,300.04882000000003,34488.782,0.0,-0.05918967247569884,-0.05918888240356712,0.0,0.0,0.0,-2.5624247951916375,-4.045908561225086,-3.8753952880217364,0.0035096182840723567,0.0009214640290914191,-0.8122720541225102
11839,13.0,300.1849,34543.21,0.0,-0.059194686964437304,-0.0591938846137543,0.0,0.0,0.0,-2.5630647639547974,-4.049332029337957,-3.887876502753536,-0.0065895625943391935,0.0013057319354407087,-0.8068539829227882
11840,13.0,300.1379,34495.91,0.0,-0.059199668463118194,-0.059198886823941255,0.0,0.0,0.0,-2.5620871802583176,-4.041859917800516,-3.8819480777434463,0.002420225782782688,0.005331299804883324,-0.8032304891076772
11841,13.0,300.08279,34496.062999999995,0.0,-0.059204682951856547,-0.05920388903412843,0.0,0.0,0.0,-2.5612787080035275,-4.046156908824596,-3.8785062698037662,-0.0005640138739338355,0.007018239732696333,-0.8105936965243692
11842,13.0,299.87793,34504.824,0.0,-0.05920969744059501,-0.05920889124431561,0.0,0.0,0.0,-2.5697326588878675,-4.041357852375966,-3.877514399280876,0.003626801468737437,0.0011688850113849689,-0.8049358396884821
11843,13.0,299.81098,34491.196,0.0,-0.0592146789392759,-0.059213893454502675,0.0,0.0,0.0,-2.567697951362058,-4.0390198790952265,-3.8777444070535765,0.005155934887551155,-0.009040753300177881,-0.8078447895330731
11844,13.0,299.86433,34489.494,0.0,-0.05921969342801425,-0.05921889566468985,0.0,0.0,0.0,-2.560882020589377,-4.046255396734316,-3.876807657336126,-0.00030260442685473173,-0.007712609488425293,-0.8160126087216741
11845,13.0,299.77765,34464.787000000004,0.0,-0.05922467492669514,-0.05922389787487681,0.0,0.0,0.0,-2.5571299554690774,-4.038588538527656,-3.8807162695968755,0.0016943941048236783,-0.002980469089649397,-0.8130903042407652
11846,13.0,299.89359,34437.723,0.0,-0.059229689415433606,-0.059228900085063985,0.0,0.0,0.0,-2.5510378905678377,-4.043606558322896,-3.873563331840936,-0.003004242166145617,-0.003252780763299467,-0.8139453860001552
11847,13.0,299.94698999999997,34502.805,0.0,-0.059234670914114385,-0.05923390229525116,0.0,0.0,0.0,-2.5637852861009076,-4.043419309704416,-3.880786589153817,0.0019424932554091582,-0.0006829013148696123,-0.8072886064206822
11848,13.0,300.26729,34579.224,0.0,-0.05923968540285285,-0.05923890450543812,0.0,0.0,0.0,-2.5757414346308876,-4.043975786659336,-3.8915035328114964,-0.006023046762728434,0.0008215598895741482,-0.8109151197210912
11849,13.0,300.20207999999997,34541.39,0.0,-0.05924466690153374,-0.05924390671562507,0.0,0.0,0.0,-2.5726982392805477,-4.046389348397536,-3.8806325751386166,0.002121855241735808,0.0072485309114493045,-0.8038869434499643
11850,13.0,300.29864,34482.119,0.0,-0.05924968139027198,-0.05924890892581203,0.0,0.0,0.0,-2.5510838921223775,-4.043637462450946,-3.8869817015902264,-0.0030521407275228376,-0.0022052526150664878,-0.8141759105304062
11851,13.0,300.05852000000004,34538.922999999995,0.0,-0.059254695879010555,-0.05925387822672179,0.0,0.0,0.0,-2.5654813654432975,-4.047748420756666,-3.885740166242696,0.005568495675117734,-0.0014649392627032486,-0.8063845340189573
11852,13.0,299.97747000000004,34589.905,0.0,-0.059259677377691555,-0.059258880436908745,0.0,0.0,0.0,-2.5664021058091677,-4.0554126445130665,-3.8926526597499063,0.004134384445381976,0.004082797248340716,-0.8146218621644182
11853,13.0,299.80674,34523.72,0.0,-0.05926469186642991,-0.05926388264709592,0.0,0.0,0.0,-2.5640647404784875,-4.048193642850606,-3.882090338057486,0.007183489171630183,0.009428424105663013,-0.8104662093967872
11854,13.0,299.97471,34472.153,0.0,-0.0592696733651108,-0.05926888485728288,0.0,0.0,0.0,-2.556671358473818,-4.0446981326556255,-3.8773044538601567,-0.002384924250623698,0.0008882353533245041,-0.8157733499755612
11855,13.0,299.96808,34507.628,0.0,-0.05927468785384926,-0.059273887067470055,0.0,0.0,0.0,-2.5623054343298577,-4.043575958169876,-3.8835759653541064,-4.6973151954889155e-07,-0.005222363564107155,-0.8107487643196732
11856,13.0,300.08765,34562.549,0.0,-0.05927966935253015,-0.05927888927765712,0.0,0.0,0.0,-2.562128824837427,-4.049872800916327,-3.894150344722717,-0.0014824142805528984,-0.003350890224107117,-0.8103314775309902
11857,13.0,300.00225,34590.33,0.0,-0.059284683841268504,-0.0592838914878443,0.0,0.0,0.0,-2.572053508241918,-4.052790454579276,-3.8897525353136864,0.002314466992995108,0.001711503440712238,-0.8143506860401551
11858,13.0,299.87268,34570.738,0.0,-0.05928966533994939,-0.05928889369803125,0.0,0.0,0.0,-2.5665176163205676,-4.050288132132317,-3.8918353722192465,-0.0025642826905749976,-0.0012742674800854089,-0.8054667726083813
11859,13.0,299.92259,34527.932,0.0,-0.05929467982868786,-0.05929389590821843,0.0,0.0,0.0,-2.5630596977042974,-4.053625980611736,-3.8789435885469263,-0.0008531043815548473,-0.0035383418979071566,-0.8141987289226582
11860,13.0,300.22776,34592.994,0.0,-0.05929969431742621,-0.05929889811840561,0.0,0.0,0.0,-2.5738493927191577,-4.055569799603576,-3.8859872979420866,0.0024226624466231676,0.0017994111955380583,-0.8085307801157752
11861,13.0,300.19562,34651.15,0.0,-0.0593046758161071,-0.05930390032859256,0.0,0.0,0.0,-2.5768598600912678,-4.059470609838556,-3.896753890854667,0.0017440276543471286,0.004869971593978776,-0.8157417061749382
11862,13.0,300.15551,34548.561,0.0,-0.059309690304845564,-0.05930890253877974,0.0,0.0,0.0,-2.5629606018445177,-4.052451218445796,-3.8864881474665163,-0.007245091433984853,-0.0020575438525887676,-0.8100013099859052
11863,13.0,299.98273,34478.201,0.0,-0.05931467180352623,-0.059313904748966695,0.0,0.0,0.0,-2.5557705791349177,-4.050385505466926,-3.874356301369196,-0.0021311984209079083,-0.004563591209566386,-0.8176896085646812
11864,13.0,300.06824,34561.376000000004,0.0,-0.059319686292264806,-0.05931890695915365,0.0,0.0,0.0,-2.5633179751547877,-4.055586112930186,-3.8868913196813066,0.0026220422019254176,0.006004980817420465,-0.8132202333010883
11865,13.0,299.95416,34620.079,0.0,-0.059324667790945806,-0.05932387626006341,0.0,0.0,0.0,-2.5786991116727873,-4.054278412351126,-3.8906621299284563,0.0032801112595717773,0.007161148222825303,-0.8167834590002512
11866,13.0,299.88158,34579.108,0.0,-0.05932968227968416,-0.05932887847025037,0.0,0.0,0.0,-2.5699028849046677,-4.052989456898916,-3.8882930498696457,-0.0014615331211670886,-0.002322642300101948,-0.8126625708435512
11867,13.0,299.71089,34547.545,0.0,-0.05933469676842262,-0.059333880680437545,0.0,0.0,0.0,-2.5625439534033974,-4.055154164412556,-3.883893112635406,-0.0024039268443241074,-0.0049745615997760055,-0.8175222905756682
11868,13.0,299.92494,34618.528,0.0,-0.05933967826710351,-0.0593388828906245,0.0,0.0,0.0,-2.565711069240968,-4.062171731955136,-3.895285286159726,0.0061014748535936835,0.0012515964143979487,-0.8133097539474232
11869,13.0,299.91891,34637.878,0.0,-0.059344692755841866,-0.059343885100811566,0.0,0.0,0.0,-2.5736968985791076,-4.063459674157246,-3.8918934314499762,0.005782943776632114,0.0017365114664303384,-0.8098051852965492
11870,13.0,300.01943,34638.977999999996,0.0,-0.059349674254522755,-0.059348887310998744,0.0,0.0,0.0,-2.5693680915018873,-4.0659617939541866,-3.8940542886132365,0.0002944197269194647,-0.0048960812252055955,-0.8107067651030282
11871,13.0,299.99061,34641.869,0.0,-0.05935468874326122,-0.0593538895211857,0.0,0.0,0.0,-2.5817398752228877,-4.058058544499196,-3.8904647488089763,-0.002021687667325038,-0.007609273784926852,-0.8046934297345583
11872,13.0,300.01878999999997,34614.328,0.0,-0.05935967024194211,-0.059358891731372876,0.0,0.0,0.0,-2.569119135952318,-4.062305278318316,-3.890466775309176,-0.0007253785423817883,-0.0018158697208873883,-0.8172294916942713
11873,13.0,300.05641,34643.433,0.0,-0.05936468473068046,-0.05936389394156005,0.0,0.0,0.0,-2.5711881926565177,-4.063233618059936,-3.8963168760865363,0.002148602815225588,0.003275676365209087,-0.8158649275195993
11874,13.0,300.18577,34668.577000000005,0.0,-0.05936966622936135,-0.05936889615174701,0.0,0.0,0.0,-2.5755600628629876,-4.058380454055967,-3.9044410140633263,-0.0053211969921112545,0.0048962527684475255,-0.8157804224612593
11875,13.0,300.04932,34620.212999999996,0.0,-0.059374680718099815,-0.059373898361934185,0.0,0.0,0.0,-2.568815768872377,-4.058256938868776,-3.8966074762152165,-0.004116672630983956,0.0023580678540731778,-0.8158986991454322
11876,13.0,300.10926,34586.271,0.0,-0.05937969520683806,-0.05937890057212114,0.0,0.0,0.0,-2.5641720436640774,-4.053162823991026,-3.896027998483026,-0.0073071582715103734,0.0056423120594778445,-0.8163264730726502
11877,13.0,299.91035,34647.015,0.0,-0.059384676705518946,-0.05938390278230832,0.0,0.0,0.0,-2.5811159158113077,-4.056879526682836,-3.8938318802162866,5.1792653764036954e-05,-0.002078643164721108,-0.8153206602283842
11878,13.0,299.82854,34671.941,0.0,-0.05938969119425752,-0.059388904992495495,0.0,0.0,0.0,-2.5782025177987773,-4.058736104841066,-3.902465885643396,-0.0016317349212896985,-0.006457516043957214,-0.8139315348712882
11879,13.0,299.81509,34684.348,0.0,-0.05939467269293841,-0.059393874293404814,0.0,0.0,0.0,-2.5750989327424776,-4.0639047949261755,-3.9041719961617765,-0.0005792026753178535,-0.009453915856978851,-0.8161270857179722
11880,13.0,299.8039,34696.727999999996,0.0,-0.05939968718167665,-0.05939887650359199,0.0,0.0,0.0,-2.5750246615101475,-4.070134155215967,-3.9017800166507066,0.000924851080995695,-0.0015410492399897185,-0.8149756181718313
11881,13.0,299.66839,34718.202000000005,0.0,-0.059404668680357764,-0.05940387871377917,0.0,0.0,0.0,-2.5774268748472275,-4.069347467838326,-3.9066923544605165,0.0026672450114115878,0.002882840719989227,-0.8116664953327463
11882,13.0,299.9357,34669.896,0.0,-0.05940968316909612,-0.05940888092396612,0.0,0.0,0.0,-2.5737109827554976,-4.065208442504836,-3.899863150111526,0.0020685705468020178,0.005986407537787425,-0.8120676309148351
11883,13.0,300.26473,34640.752,0.0,-0.059414664667777006,-0.05941388313415319,0.0,0.0,0.0,-2.5791837491956175,-4.057176814262176,-3.893562963639746,0.0027055911574710573,0.002345952827927518,-0.8087786616202393
11884,13.0,300.11217,34660.943999999996,0.0,-0.05941967915651547,-0.059418885344340144,0.0,0.0,0.0,-2.566575472901277,-4.061313002495385,-3.9081728141816265,-0.0027272614360347473,0.0038169948959830666,-0.8148044194349352
11885,13.0,299.87332000000004,34629.269,0.0,-0.05942469364525371,-0.05942388755452732,0.0,0.0,0.0,-2.567809814173098,-4.061501973639037,-3.897121295340926,-0.0004751910529427056,0.001916374910231478,-0.8186299553199863
11886,13.0,299.93475,34651.692,0.0,-0.05942967514393471,-0.0594288897647145,0.0,0.0,0.0,-2.5678603753530873,-4.062698925982167,-3.9026898139154964,-0.002105483349270028,-0.0008005202274751952,-0.8190105928525522
11887,13.0,299.94541,34741.473,0.0,-0.05943468963267318,-0.059433891974901454,0.0,0.0,0.0,-2.586479656540668,-4.067508824206866,-3.9065520193216665,-0.0013905524185368386,0.0012201597220953889,-0.8173843163095512
11888,13.0,299.81916,34728.039,0.0,-0.059439671131354066,-0.05943889418508863,0.0,0.0,0.0,-2.5830349101756975,-4.071379844888907,-3.9020418404765462,-0.0018005072281712282,0.0013040091062956787,-0.8206513284744802
11889,13.0,299.9329,34690.622,0.0,-0.05944468562009231,-0.059443896395275586,0.0,0.0,0.0,-2.5792172877739272,-4.068288013533766,-3.8975776631859667,0.001031017947128549,0.0003099854472081817,-0.8124164523942612
11890,13.0,300.15063,34712.998,0.0,-0.0594496671187732,-0.05944889860546276,0.0,0.0,0.0,-2.5742415205078575,-4.0696903516721665,-3.9079527362599062,0.001808931896127678,-0.004487277569009816,-0.8179896217867902
11891,13.0,300.17564,34741.114,0.0,-0.05945468160751177,-0.05945390081564994,0.0,0.0,0.0,-2.5862644422194276,-4.0697198372500765,-3.9044469922389164,0.0014533022879547686,-0.004580110732571736,-0.8143321840933293
11892,13.0,300.23016,34737.613,0.0,-0.059459696096250014,-0.05945890302583701,0.0,0.0,0.0,-2.575363694993608,-4.072637288263006,-3.9113658692217563,-0.002034921118931078,-0.004343907138160256,-0.8192676341379201
11893,13.0,300.2182,34723.097,0.0,-0.059464677594930904,-0.059463872326746436,0.0,0.0,0.0,-2.5774984103042877,-4.0747587299973755,-3.902697311966236,-0.002097063443589048,-0.001134320922648759,-0.8162318355133102
11894,13.0,299.93312000000003,34697.565,0.0,-0.05946969208366937,-0.059468874536933614,0.0,0.0,0.0,-2.5767427283797075,-4.068121333892316,-3.902329299529916,0.0036952374950665464,0.0029781328388938273,-0.8154544903015922
11895,13.0,299.95283,34712.119,0.0,-0.05947467358235037,-0.05947387674712068,0.0,0.0,0.0,-2.5795124475280575,-4.074630249884696,-3.897474716975806,0.005325106820272125,0.002993035721364627,-0.8178014105807152
11896,13.0,299.97557,34707.13,0.0,-0.05947968807108883,-0.05947887895730786,0.0,0.0,0.0,-2.574464030229818,-4.073191029442657,-3.902445924616426,0.007983928987577441,0.002003884255117978,-0.8151505152715922
11897,13.0,299.98245,34694.895,0.0,-0.05948466956976972,-0.05948388116749481,0.0,0.0,0.0,-2.578351870863518,-4.065737156407017,-3.902292822526317,-0.0017459448248613384,-0.0005645850024852015,-0.8159124793467922
11898,13.0,300.02657,34713.62,0.0,-0.05948968405850796,-0.05948888337768199,0.0,0.0,0.0,-2.5697290111875075,-4.0737005929179455,-3.908644076803136,0.0025372595130580176,0.0006103142663258285,-0.8165728448344652
11899,13.0,300.04607999999996,34786.367999999995,0.0,-0.05949466555718885,-0.059493885587868944,0.0,0.0,0.0,-2.5861690953850176,-4.074294154826526,-3.913723904854476,-0.0062795543692687646,0.002826851964513567,-0.8136094733270032
11900,13.0,299.78087,34854.17,0.0,-0.05949968004592743,-0.0594988877980559,0.0,0.0,0.0,-2.5941916043767774,-4.077730288565647,-3.922875681082686,-0.002078599594966808,-0.0021151821792272283,-0.8158308113887323
11901,13.0,300.00761,34796.665,0.0,-0.05950469453466567,-0.05950389000824308,0.0,0.0,0.0,-2.5830032967725773,-4.080077279772276,-3.914236710730086,-0.007805911584133492,-0.006743635276719982,-0.8141839152061963
11902,13.0,299.93818999999996,34734.564,0.0,-0.05950967603334656,-0.05950889221843003,0.0,0.0,0.0,-2.5733947473992878,-4.077498355617756,-3.907547132244876,-0.0022768157338542176,-0.006043526472424624,-0.8177471510378602
11903,13.0,299.94379,34798.265,0.0,-0.059514690522085134,-0.05951389442861721,0.0,0.0,0.0,-2.5889515814846273,-4.0747333987448755,-3.914118667093436,0.0004463884359976086,-0.006553061982011864,-0.8167763257195473
11904,13.0,300.05176,34807.758,0.0,-0.059519672020766023,-0.059518896638804386,0.0,0.0,0.0,-2.5827372172963177,-4.083529017562936,-3.9144229460984663,-0.0006392945769409623,-0.005189183878982575,-0.8208056667297122
11905,13.0,300.14002999999997,34705.92,0.0,-0.059524686509504265,-0.05952389884899145,0.0,0.0,0.0,-2.575886836020237,-4.068025277782836,-3.9058210606995263,0.0033439967797017868,0.001988320733581978,-0.8127422021689102
11906,13.0,300.09519,34729.714,0.0,-0.059529668008185155,-0.05952890105917863,0.0,0.0,0.0,-2.5761274829189875,-4.074976882743907,-3.9058613880535065,-0.0013976640156886989,0.003918678089893416,-0.8209212279036172
11907,13.0,299.84556000000003,34778.808,0.0,-0.05953468249692362,-0.059533903269365585,0.0,0.0,0.0,-2.5846833667633877,-4.074796828201136,-3.912409010199706,-0.004025614782922246,0.004248340529803566,-0.8121431889747922
11908,13.0,299.93629,34808.972,0.0,-0.05953966399560451,-0.059538872570275125,0.0,0.0,0.0,-2.5879504903858273,-4.077567763249607,-3.9155400543337167,-0.0067654780104506925,0.0018844013980259383,-0.8210743401262283
11909,13.0,299.97733,34867.787000000004,0.0,-0.05954467848434308,-0.0595438747804623,0.0,0.0,0.0,-2.5945153377837276,-4.080067045946266,-3.9243543169536164,-0.004209082256004076,-0.00037133106344502265,-0.8172002391638842
11910,13.0,299.93203,34833.765,0.0,-0.059549692973081325,-0.05954887699064926,0.0,0.0,0.0,-2.5821677707401176,-4.082304910117125,-3.9241220800306964,0.00026888523671440677,0.004470497843378786,-0.8208989971964232
11911,13.0,299.93747,34786.234,0.0,-0.059554674471762215,-0.059553879200836435,0.0,0.0,0.0,-2.5833059545774475,-4.076107771180516,-3.9147328993040564,-0.002302289449318278,0.002178927262893378,-0.8146666782163413
11912,13.0,300.19131,34813.998,0.0,-0.05955968896050079,-0.05955888141102361,0.0,0.0,0.0,-2.5869808100401275,-4.079874933727306,-3.915730342702496,0.004418306647952916,0.0016890271216939983,-0.8197711282451112
11913,13.0,300.03264,34826.24,0.0,-0.05956467045918168,-0.05956388362121057,0.0,0.0,0.0,-2.5903160240692875,-4.084481371331926,-3.9115100547109867,-0.0015863768818882083,-0.00016061804497926682,-0.8111057829924082
11914,13.0,300.16031,34780.29,0.0,-0.05956968494791992,-0.05956888583139752,0.0,0.0,0.0,-2.5835479187013273,-4.080173842506807,-3.9086178336255464,0.0056766779564944945,-0.003027386824929817,-0.8203850767457032
11915,13.0,300.02361,34770.827000000005,0.0,-0.05957466644660081,-0.05957388804158459,0.0,0.0,0.0,-2.576662782946818,-4.082660763552246,-3.9101396339507364,-0.002549665747282418,-0.006156163913166073,-0.8152356080149902
11916,13.0,299.96571,34805.43,0.0,-0.059579680935339274,-0.059578890251771655,0.0,0.0,0.0,-2.5820907637325177,-4.086392664995556,-3.911498402334836,-8.331312766436552e-05,-0.001411046820359479,-0.8222438029941452
11917,13.0,299.96488999999997,34852.738,0.0,-0.05958469542407763,-0.05958389246195883,0.0,0.0,0.0,-2.592592189093927,-4.0809362118820465,-3.9208337794811663,-0.0004782756091621275,0.002349178104320828,-0.8129826362851392
11918,13.0,300.00845,34833.294,0.0,-0.05958967692275852,-0.0595888946721459,0.0,0.0,0.0,-2.5837519872714676,-4.0862846525348955,-3.9184149488424467,0.003442672343340307,-0.0009199252973570582,-0.8189123683878582
11919,13.0,299.99358,34817.304,0.0,-0.05959469141149698,-0.059593896882333075,0.0,0.0,0.0,-2.5817957053033975,-4.082943359005136,-3.918851963610576,-0.0031587315982925367,-1.5477514841011783e-05,-0.8209087446623852
11920,13.0,300.06599,34828.64,0.0,-0.05959967291017787,-0.05959889909252003,0.0,0.0,0.0,-2.5869458529116773,-4.082662891377456,-3.9174281445700565,-0.002223497500342118,-0.0024315234200726777,-0.8227129073929422
11921,13.0,300.03787,34823.273,0.0,-0.05960468739891622,-0.05960390130270721,0.0,0.0,0.0,-2.584431878088568,-4.084091877993487,-3.9168818001161365,-0.0023653335665652477,-0.0002773639919611947,-0.8265617378977922
11922,13.0,300.00639,34850.185,0.0,-0.05960966889759711,-0.05960887060361675,0.0,0.0,0.0,-2.5833668509084577,-4.090286382479836,-3.9199326961672365,-0.0030349490144011473,0.0029744014440755673,-0.8242863733407312
11923,13.0,299.78532,34823.119,0.0,-0.059614683386335576,-0.0596138728138037,0.0,0.0,0.0,-2.588527941617818,-4.0821647776282965,-3.914666024797456,-0.0014063863765245287,-0.0017108990370275886,-0.8216181413223973
11924,13.0,299.92631,34815.847,0.0,-0.059619664885016466,-0.05961887502399088,0.0,0.0,0.0,-2.5798980905161177,-4.092037379977646,-3.911212665806636,0.0012277484587193388,0.0013811015308791085,-0.8213451109504512
11925,13.0,299.96668,34835.494,0.0,-0.05962467937375504,-0.05962387723417806,0.0,0.0,0.0,-2.5911949172060273,-4.0844515817789855,-3.913473733404786,-0.002861901805347717,0.0013835435649451186,-0.8187062226550132
11926,13.0,299.92672000000005,34876.362,0.0,-0.05962969386249328,-0.05962887944436501,0.0,0.0,0.0,-2.5914488376810874,-4.086128004069436,-3.923966444815336,0.005557304530413255,-0.003297237212761977,-0.8160286890007613
11927,13.0,299.88214,34897.429,0.0,-0.05963467536117417,-0.05963388165455219,0.0,0.0,0.0,-2.5907286195100077,-4.092639453187067,-3.924578954500786,-7.585145665595593e-05,-0.0033391032883438375,-0.8175012555035922
11928,13.0,300.08811000000003,34879.897000000004,0.0,-0.059639689849912636,-0.059638883864739145,0.0,0.0,0.0,-2.588551752995168,-4.087844551063847,-3.926221432912886,0.009202593557825272,0.0037998740090433667,-0.8158727903403752
11929,13.0,299.98913999999996,34883.149,0.0,-0.059644671348593525,-0.05964388607492632,0.0,0.0,0.0,-2.5952520719314376,-4.088043756033507,-3.9203103344795065,0.0010539120291630192,0.005248206203932625,-0.8201456660120752
11930,13.0,299.99888,34914.909,0.0,-0.05964968583733188,-0.05964888828511328,0.0,0.0,0.0,-2.5930533192144374,-4.089556335782786,-3.930650754400026,-0.0023619433330556577,0.0011749304667816088,-0.8198693831073082
11931,13.0,299.86007,34915.83,0.0,-0.05965466733601277,-0.059653890495300343,0.0,0.0,0.0,-2.598892578215727,-4.087852657064646,-3.9267953377695264,-0.005449328546756854,-0.0028541307850307772,-0.8211794242940992
11932,13.0,299.95617000000004,34898.472,0.0,-0.05965968182475123,-0.05965889270548752,0.0,0.0,0.0,-2.5871543797822576,-4.089592508811356,-3.9315170832355264,-0.0014602565273660988,0.0005690134728422575,-0.8201443285219433
11933,13.0,299.90833,34871.325,0.0,-0.05966466332343212,-0.059663894915674476,0.0,0.0,0.0,-2.5859601632143976,-4.086829375788656,-3.927222422686676,0.003176656093886547,0.004532152389438615,-0.8206913113234262
11934,13.0,299.8469,34858.959,0.0,-0.059669677812170474,-0.05966889712586165,0.0,0.0,0.0,-2.5857689629205276,-4.086696234725516,-3.9237879101477167,5.773673956767254e-05,0.0003259183794656397,-0.8197431726748522
11935,13.0,299.9045,34894.68,0.0,-0.05967469230090894,-0.05967389933604883,0.0,0.0,0.0,-2.5885693835469077,-4.091277341077635,-3.9272645738908367,0.003085415556831807,-0.0027154003303641477,-0.8226055332798452
11936,13.0,299.87386000000004,34942.485,0.0,-0.05967967379958983,-0.05967886863695815,0.0,0.0,0.0,-2.5901481285277175,-4.100051377668566,-3.9314434199532564,0.004921243771563945,-0.002201738157094638,-0.8174265587062202
11937,13.0,299.73972000000003,34904.636,0.0,-0.05968468828832818,-0.059683870847145326,0.0,0.0,0.0,-2.5918162421673476,-4.096800263397706,-3.9215212696740163,0.003813436969581926,0.0026035042847208675,-0.8245469913989523
11938,13.0,299.86602,34922.007000000005,0.0,-0.05968966978700918,-0.0596888730573325,0.0,0.0,0.0,-2.588594816124418,-4.098357324826376,-3.928465984534406,-0.001225514951523909,0.0014421885555579285,-0.8232155199725463
11939,13.0,299.97632000000004,34991.75,0.0,-0.059694684275747534,-0.05969387526751946,0.0,0.0,0.0,-2.6009738952461374,-4.102724331432366,-3.932920029323986,-0.0099714490509304,0.0019795543976918084,-0.8266646131804453
11940,13.0,299.99415,34980.24,0.0,-0.05969966577442842,-0.059698877477706636,0.0,0.0,0.0,-2.6011836380168374,-4.099630676227046,-3.9323051891633063,-0.0009342320746615272,0.012447623464484789,-0.8218210750524252
11941,13.0,300.0469,34880.712,0.0,-0.05970468026316689,-0.05970387968789359,0.0,0.0,0.0,-2.5885136547914076,-4.092786070476536,-3.9215658526784165,-0.004495748947795876,0.005890943166365824,-0.8245676414359903
11942,13.0,300.11782999999997,34884.972,0.0,-0.05970969475190546,-0.05970888189808077,0.0,0.0,0.0,-2.5925776996174976,-4.0891859928712355,-3.922396616435406,0.0014739200023145785,-0.0033942102122574667,-0.8193442155804782
11943,13.0,299.82268999999997,34945.071,0.0,-0.05971467625058613,-0.059713884108267945,0.0,0.0,0.0,-2.604122367281868,-4.090384971714566,-3.927921565255676,-0.004526443231750166,-0.011787817290866988,-0.8164194387693252
11944,13.0,300.27207000000004,34989.172,0.0,-0.059719690739324593,-0.0597188863184549,0.0,0.0,0.0,-2.6022870673757375,-4.1004052046034865,-3.9331423363959264,0.008732496173930272,0.002802169496052597,-0.8196645545995932
11945,13.0,300.1405,34983.107,0.0,-0.05972467223800548,-0.059723888528641966,0.0,0.0,0.0,-2.5970332642822274,-4.101792647965416,-3.9351649862455464,0.005617948764798374,0.004946375920419295,-0.8173829788194191
11946,13.0,299.90738,34957.695,0.0,-0.059729686726743836,-0.05972889073882892,0.0,0.0,0.0,-2.598451409122187,-4.098149304580846,-3.9296656726528063,0.0044418075654722765,-0.004737494513629306,-0.8208662489531912
11947,13.0,299.82227,34978.911,0.0,-0.059734668225424725,-0.0597338929490161,0.0,0.0,0.0,-2.596116678241768,-4.104675952449976,-3.931922889900576,-0.007821935729164953,-0.006322390530496364,-0.8246332088499612
11948,13.0,300.08673,34994.31,0.0,-0.05973968271416319,-0.059738895159203276,0.0,0.0,0.0,-2.6078561939003677,-4.095642523833447,-3.9338978156704862,-0.006410381878455433,-0.0023894516547205173,-0.8230822775843962
11949,13.0,300.02002999999996,34974.721,0.0,-0.05974466421284408,-0.05974389736939023,0.0,0.0,0.0,-2.6003470987342774,-4.101821221618236,-3.929273443539097,-0.0001048205708574849,0.0005666802618369875,-0.8236222182976842
11950,13.0,300.14586,34906.227999999996,0.0,-0.05974967870158243,-0.05974889957957741,0.0,0.0,0.0,-2.5875210749934476,-4.094568985352496,-3.9285316431408863,-0.0028617355310063073,2.240807662400498e-05,-0.8287591024621552
11951,13.0,299.92232,34926.741,0.0,-0.059754693190320896,-0.05975386888048695,0.0,0.0,0.0,-2.591380341974327,-4.097380754379996,-3.928095945597886,0.0004607623005911985,0.002051560813398288,-0.8259974791821042
11952,13.0,299.76048,35004.585,0.0,-0.059759674689001785,-0.059758871090673904,0.0,0.0,0.0,-2.6036547523607174,-4.099755204664336,-3.9371098184874858,-3.216221990416397e-05,0.0021521487852755477,-0.8295969285723422
11953,13.0,300.08981,35031.46,0.0,-0.05976468917774003,-0.05976387330086108,0.0,0.0,0.0,-2.599920621767187,-4.104995024906467,-3.943773356445126,-0.0037250269466815363,0.0006408065487401824,-0.8268117877574702
11954,13.0,300.26092,34992.381,0.0,-0.05976967067642114,-0.059768875511048036,0.0,0.0,0.0,-2.5956433891200574,-4.104238431056796,-3.9369282440695663,1.0788682778010089e-05,-0.008943786177532971,-0.8221268941976072
11955,13.0,300.22327,35044.877,0.0,-0.0597746851651596,-0.059773877721235213,0.0,0.0,0.0,-2.6046824919371474,-4.106860114365536,-3.941225032443626,-0.0016270461064519486,-0.005688544939015675,-0.8217072060061872
11956,13.0,300.07017,35103.311,0.0,-0.05977966666384038,-0.05977887993142239,0.0,0.0,0.0,-2.6088592101743577,-4.111183044592176,-3.950487860882796,-0.00019407470201868182,0.009897635199695541,-0.8186160231311113
11957,13.0,300.12797,35044.873999999996,0.0,-0.059784681152578845,-0.05978388214160946,0.0,0.0,0.0,-2.6051660148848677,-4.110641867713766,-3.936958641572567,0.0009186810768967631,0.005414197139289655,-0.8235052183086372
11958,13.0,300.03981,34993.736000000004,0.0,-0.059789662651259734,-0.059788884351796634,0.0,0.0,0.0,-2.5924512460050178,-4.103683676627046,-3.941086926454996,-0.0016048238092337785,0.0008340640037582082,-0.8181665757842542
11959,13.0,300.18726000000004,34974.112,0.0,-0.05979467713999809,-0.05979388656198359,0.0,0.0,0.0,-2.594924690824127,-4.099319405796327,-3.937012749127906,0.0007002967621889093,-0.005497658246051625,-0.8283273971245492
11960,13.0,300.03895,34988.528,0.0,-0.05979969162873655,-0.059798888772170766,0.0,0.0,0.0,-2.6017306917458276,-4.0982841681691555,-3.9356240898658568,0.00032158507355797573,0.0013790849605300887,-0.8171303755694893
11961,13.0,299.97887000000003,35031.009,0.0,-0.05980467312741744,-0.05980389098235772,0.0,0.0,0.0,-2.6065718993986176,-4.097805914121956,-3.9441742995096964,0.001158262907936649,0.0017621373720594186,-0.8236675207096552
11962,13.0,300.01407,35074.066,0.0,-0.05980968761615579,-0.059808893192544677,0.0,0.0,0.0,-2.6065062407921373,-4.109499630876036,-3.9456345955538166,-0.005005260139380715,-0.003692295928701236,-0.8214783533386012
11963,13.0,299.91252000000003,35038.645,0.0,-0.05981466911483668,-0.059813895402731854,0.0,0.0,0.0,-2.6079973396392977,-4.103432390602246,-3.9394434347927962,0.0047489287370327754,0.0027160392858772077,-0.8333139048416792
11964,13.0,299.95265,35070.013,0.0,-0.05981968360357515,-0.05981889761291881,0.0,0.0,0.0,-2.6082801377422076,-4.107151423769285,-3.944976590938876,-0.0002178277364279238,0.004639717297529445,-0.8231327982343822
11965,13.0,299.96124,35107.361000000004,0.0,-0.059824665102256036,-0.05982386691382835,0.0,0.0,0.0,-2.6106360455497177,-4.114343270329066,-3.946781797317036,0.003969118389146486,-0.003558656143862017,-0.8340310427324552
11966,13.0,299.98426,35061.41,0.0,-0.05982967959099428,-0.05982886912401553,0.0,0.0,0.0,-2.6033651654821375,-4.106819989661576,-3.947608001448576,-0.003250882641887137,-0.011397107039056888,-0.8189651789830702
11967,13.0,300.1948,35046.489,0.0,-0.05983469407973285,-0.05983387133420248,0.0,0.0,0.0,-2.5953214795632875,-4.118316223971166,-3.9396200442852263,0.003968425528728106,-0.004046190751377936,-0.8293046160509933
11968,13.0,300.39833,35052.632000000005,0.0,-0.05983967557841385,-0.05983887354438966,0.0,0.0,0.0,-2.6000778781827076,-4.111361275284766,-3.943685811636486,7.782996223846922e-05,0.007569104295312432,-0.8206660813959362
11969,13.0,300.06801,35036.527,0.0,-0.059844690067152206,-0.059843875754576836,0.0,0.0,0.0,-2.5989795150743076,-4.112557214377796,-3.9386926164686966,-0.008153421411305043,0.006540325934879914,-0.8258100887086102
11970,13.0,300.25875,35055.355,0.0,-0.059849671565833096,-0.0598488779647639,0.0,0.0,0.0,-2.5963794139926977,-4.116521352744026,-3.943051719723907,-0.004341138736237035,-0.001040883760702229,-0.8277490846299742
11971,13.0,300.1757,35088.725,0.0,-0.05985468605457156,-0.05985388017495108,0.0,0.0,0.0,-2.6015570206786873,-4.114138087183816,-3.9504011266742363,-0.005228013649314776,0.0007072609314512194,-0.8241786547226002
11972,13.0,300.04573,35076.627,0.0,-0.05985966755325234,-0.059858882385138035,0.0,0.0,0.0,-2.6031330298842272,-4.116007128318277,-3.9432784850962865,0.007224608785863373,8.092648696807242e-05,-0.8234441699901123
11973,13.0,299.96983,35112.007000000005,0.0,-0.0598646820419908,-0.05986388459532521,0.0,0.0,0.0,-2.610116754873468,-4.113103558831716,-3.949953168805026,0.002001832524990488,-0.006065022066671074,-0.8231471762533012
11974,13.0,299.96587999999997,35133.964,0.0,-0.05986966354067169,-0.05986888680551239,0.0,0.0,0.0,-2.6149494512254177,-4.113172155863486,-3.951726255155016,0.0009869546387048392,-0.008267395632903423,-0.8293195716224692
11975,13.0,299.99152000000004,35087.182,0.0,-0.05987467802940993,-0.059873889015699344,0.0,0.0,0.0,-2.6084261470816177,-4.111880971261056,-3.9453201840477865,0.005781286808743584,-0.003655886306232887,-0.8288196238906282
11976,13.0,300.07436,35081.098,0.0,-0.05987969251814851,-0.0598788912258863,0.0,0.0,0.0,-2.6044546119896577,-4.112409381188207,-3.9469139251300764,0.0058625077208594644,0.0060459906966678235,-0.8311902339570892
11977,13.0,299.98427000000004,35049.233,0.0,-0.0598846740168294,-0.059883893436073365,0.0,0.0,0.0,-2.604753318119138,-4.107034089407706,-3.942304143800126,0.000907084632152283,-0.0031702566089049666,-0.8225817421674971
11978,13.0,299.85425,35093.809,0.0,-0.05988968850556764,-0.05988889564626043,0.0,0.0,0.0,-2.6102625615628576,-4.111892826287226,-3.945486255739176,-0.007028500308508974,-0.005462054866687845,-0.8249316616669162
11979,13.0,299.89643,35121.914,0.0,-0.05989467000424853,-0.059893864947170194,0.0,0.0,0.0,-2.6092163808346074,-4.110326341632626,-3.9566419366901564,-0.002262813326747288,0.0019621097773451584,-0.8205013269296763
11980,13.0,300.124,35136.76,0.0,-0.059899684492987104,-0.05989886715735715,0.0,0.0,0.0,-2.612303956539327,-4.121123838673256,-3.947269778565196,0.0028954590274595576,0.006543385342231854,-0.8297156713515612
11981,13.0,300.11193,35138.735,0.0,-0.059904665991668105,-0.059903869367544105,0.0,0.0,0.0,-2.6046964747885273,-4.117125655103666,-3.959475895894846,0.0013982567669971987,0.0017324196585515087,-0.8274058360260983
11982,13.0,300.103,35146.231,0.0,-0.05990968048040646,-0.05990887157773128,0.0,0.0,0.0,-2.607305593796027,-4.121471586107576,-3.9547994427083166,-0.004320278348478277,0.0004273653949101806,-0.8339377730607502
11983,13.0,299.99334,35144.796,0.0,-0.05991466197908735,-0.05991387378791835,0.0,0.0,0.0,-2.6046770203866076,-4.123312762864286,-3.955150533867966,0.0004621031749785325,0.0023447850571872678,-0.8268744572761553
11984,13.0,300.03718,35147.68,0.0,-0.05991967646782581,-0.059918875998105525,0.0,0.0,0.0,-2.6149331378988077,-4.113209443467166,-3.9558745010644163,2.192207121353998e-05,0.006953845966316164,-0.8239218566172563
11985,13.0,300.00038,35132.994,0.0,-0.059924690956564164,-0.05992387820829248,0.0,0.0,0.0,-2.6093392880717374,-4.122308632015186,-3.947904985052886,0.0007845954214835392,0.0006022248625624665,-0.8254188728450003
11986,13.0,299.95666,35075.006,0.0,-0.05992967245524505,-0.05992888041847966,0.0,0.0,0.0,-2.6119579316301773,-4.107109373890136,-3.9428586955798566,-0.001211373627828269,-0.005429123630487785,-0.8278337822058333
11987,13.0,299.80076,35141.816,0.0,-0.05993468694398352,-0.059933882628666835,0.0,0.0,0.0,-2.6087895998924875,-4.121405826176086,-3.952039146785896,0.0017987322166460483,0.0026463616228755574,-0.8304317757272351
11988,13.0,299.74104,35204.049,0.0,-0.059939668442664185,-0.05993888483885379,0.0,0.0,0.0,-2.615865429315818,-4.127474079699976,-3.957812240555656,-0.00014325678471834385,0.003400403703493716,-0.8334402267316462
11989,13.0,299.82336000000004,35191.685,0.0,-0.05994468293140276,-0.05994388704904097,0.0,0.0,0.0,-2.6118551880700376,-4.123050939038446,-3.9624872751920464,0.0014594603154375184,-0.0027197613587945473,-0.8254509827406691
11990,13.0,300.14147,35146.217000000004,0.0,-0.05994966443008365,-0.05994888925922792,0.0,0.0,0.0,-2.607605819800658,-4.123921118224326,-3.9520455302615263,-0.0037730469967457462,-0.004679143162895475,-0.8303336221900482
11991,13.0,300.20209,35161.739,0.0,-0.05995467891882189,-0.0599538914694151,0.0,0.0,0.0,-2.615805343584887,-4.117820238047217,-3.9546650857450563,0.0026060162330437775,-0.0022792986018992578,-0.8217705847999422
11992,13.0,300.13495,35170.804,0.0,-0.059959693407560355,-0.059958893679602054,0.0,0.0,0.0,-2.614397432570937,-4.121889450448816,-3.9547593180043563,1.8860551235141482e-05,-0.0019477960998075083,-0.8306474358785191
11993,13.0,300.24048999999997,35190.866,0.0,-0.059964674906241355,-0.059963862980511595,0.0,0.0,0.0,-2.6138004256120175,-4.1271285614158755,-3.956215459723066,-0.00045982077846577757,-0.004343605493605486,-0.8268438773881372
11994,13.0,300.17433,35188.826,0.0,-0.0599696893949796,-0.05996886519069877,0.0,0.0,0.0,-2.613021033635097,-4.119277190366006,-3.964226215013666,-0.0017335279515108886,-0.0014165149258491387,-0.8282987322792202
11995,13.0,300.00233,35147.701,0.0,-0.05997467089366071,-0.05997386740088584,0.0,0.0,0.0,-2.6128674249199375,-4.121623168322536,-3.9495328726635464,-0.0006061776829250794,0.00033639673312227267,-0.8216622177017472
11996,13.0,300.13032000000004,35182.955,0.0,-0.05997968538239895,-0.059978869611072794,0.0,0.0,0.0,-2.610949646455668,-4.125095981715276,-3.9586940721176864,0.0027347239216962372,0.005964858849235735,-0.8210824967895333
11997,13.0,299.72961000000004,35226.404,0.0,-0.05998466688108006,-0.05998387182125997,0.0,0.0,0.0,-2.6234050233099175,-4.122912326424766,-3.9616296603074064,-0.002016255937513968,-0.004461650042180576,-0.8190558142045152
11998,13.0,299.83984,35240.19,0.0,-0.059989681369818415,-0.059988874031446926,0.0,0.0,0.0,-2.621787876150318,-4.134518295720186,-3.9558314379351662,0.007392831607215673,-0.006898915955869994,-0.8277439879819711
11999,13.0,300.01283,35189.443999999996,0.0,-0.059994662868499304,-0.0599938762416341,0.0,0.0,0.0,-2.6113709558472475,-4.123136254696867,-3.9622049837141864,0.0014650519361143685,-0.005184419779662395,-0.8318841278905711
12000,13.0,299.91887,35170.234,0.0,-0.05999967735723777,-0.05999887845182128,0.0,0.0,0.0,-2.604502234744358,-4.135952551236736,-3.950418250600926,0.0006183333809297534,-0.0013974383648914285,-0.8336610949884441
12001,13.0,299.89426000000003,35232.068,0.0,-0.06000469184597612,-0.060003880662008235,0.0,0.0,0.0,-2.6113523120454074,-4.132916651287116,-3.9654000652545167,-0.006400423555147624,0.0016227800195559186,-0.8326451091131741
12002,13.0,300.28555,35252.818,0.0,-0.06000967334465701,-0.06000888287219541,0.0,0.0,0.0,-2.6192857563533773,-4.132832348878796,-3.963858506552376,-0.003226496143780377,0.006903620881384333,-0.8247235907588812
12003,13.0,300.05913,35187.788,0.0,-0.060014687833395475,-0.06001388508238237,0.0,0.0,0.0,-2.6145545876614475,-4.129990688973346,-3.951663433648817,0.003026256645768277,0.0096970325528476,-0.8297372434461902
12004,13.0,300.24301,35187.38,0.0,-0.06001966933207614,-0.060018887292569545,0.0,0.0,0.0,-2.6166701525452374,-4.123668312324376,-3.955746223601756,0.0023644044162235475,0.005034619871628295,-0.8271527362836192
12005,13.0,300.10307,35229.935,0.0,-0.060024683820814606,-0.06002388950275672,0.0,0.0,0.0,-2.6085936373231475,-4.135305185747846,-3.9651217254520463,1.989659439614098e-05,0.0009945010113421079,-0.8358854525354713
12006,13.0,299.96795,35274.797,0.0,-0.060029665319495495,-0.06002889171294379,0.0,0.0,0.0,-2.621786457600177,-4.134999386867666,-3.9658715305260466,-0.00023645855853414276,-0.007373604274643082,-0.8314234132026022
12007,13.0,300.07427,35304.295,0.0,-0.06003467980823385,-0.06003389392313074,0.0,0.0,0.0,-2.6216712510638076,-4.131079223555776,-3.9788737584592666,0.00035948660547356566,-0.002375064820525648,-0.8253316826738952
12008,13.0,299.94715,35215.452000000005,0.0,-0.06003966130691496,-0.060038863224040395,0.0,0.0,0.0,-2.6149172298722374,-4.133267337146726,-3.956433612469596,0.002124707540767308,-0.0034704480617065566,-0.8335497590674562
12009,13.0,299.98645,35162.939,0.0,-0.0600446757956532,-0.06004386543422746,0.0,0.0,0.0,-2.6102334812849874,-4.123152365373456,-3.955269692079726,0.0015229714396555786,-0.00020341358501035778,-0.8295812738582973
12010,13.0,300.0348,35295.367999999995,0.0,-0.060049690284391555,-0.06004886764441453,0.0,0.0,0.0,-2.6262040253861576,-4.140322394943006,-3.962384126331867,0.002822454256429547,0.005284285608193385,-0.8339909686910002
12011,13.0,299.96249,35361.697,0.0,-0.060054671783072666,-0.060053869854601594,0.0,0.0,0.0,-2.627473323786427,-4.142228014406076,-3.979371669558406,-0.0032652066545758073,0.0009803506595880771,-0.8280485304320272
12012,13.0,299.87228,35257.742,0.0,-0.06005968627181091,-0.06005887206478855,0.0,0.0,0.0,-2.6210746494049273,-4.131908771412646,-3.964489660039667,-0.0002789172739669918,0.005653367023368885,-0.8327098253970613
12013,13.0,300.24074,35219.891,0.0,-0.06006466777049202,-0.060063874274975726,0.0,0.0,0.0,-2.6093105117688973,-4.133260649696067,-3.963396261856756,-0.0046746380503008556,0.004716254157083046,-0.8258600723360432
12014,13.0,300.08819,35300.519,0.0,-0.06006968225923026,-0.06006887648516268,0.0,0.0,0.0,-2.6291045551224177,-4.135003439868066,-3.9663682257250668,0.002250463935853498,0.005935573793520525,-0.8298568778854972
12015,13.0,299.96139,35332.044,0.0,-0.06007466375791126,-0.06007387869534986,0.0,0.0,0.0,-2.6317410318826178,-4.134005996469626,-3.9743120051840566,-0.00031396247411568366,0.005231754568683975,-0.8220082932734022
12016,13.0,300.04576000000003,35308.157,0.0,-0.060079678246649726,-0.06007888090553681,0.0,0.0,0.0,-2.623345444204037,-4.141649549923986,-3.967803089191676,0.0006969089402145573,0.001036022085397419,-0.8372085545160513
12017,13.0,300.07761,35253.922,0.0,-0.06008469273538797,-0.06008388311572399,0.0,0.0,0.0,-2.6108748685982874,-4.128606386686726,-3.976830640957626,0.003414468628131817,-0.003920414496589786,-0.8360037089546422
12018,13.0,300.00032999999996,35231.905,0.0,-0.06008967423406886,-0.06008888532591117,0.0,0.0,0.0,-2.6154175727716176,-4.1353339620506855,-3.9588676418598165,0.0008982621824715751,-0.01064541326687049,-0.8389953906698983
12019,13.0,300.12011,35327.302,0.0,-0.06009468872280743,-0.060093887536098234,0.0,0.0,0.0,-2.6207902301018575,-4.142350516343166,-3.975477141474046,0.0029658553887571375,-0.004635688412481825,-0.8343853357624212
12020,13.0,300.13267,35356.062000000005,0.0,-0.0600996702214881,-0.06009888974628541,0.0,0.0,0.0,-2.6406534784372075,-4.136137064079946,-3.970569565939706,-0.0014171081837826885,-0.004697466980353896,-0.8342397215905502
12021,13.0,300.01198,35255.84,0.0,-0.060104684710226564,-0.060103891956472366,0.0,0.0,0.0,-2.6158215555864874,-4.137820984421136,-3.9632523803425563,0.0009201222427789951,0.0034187468740290465,-0.8324015136566332
12022,13.0,300.0339,35215.487,0.0,-0.06010966620890745,-0.06010886125738191,0.0,0.0,0.0,-2.608856271749068,-4.131469223519266,-3.9643032220212664,-0.0006076708386699425,0.0027612796869420876,-0.8318274568124783
12023,13.0,300.01095,35360.304,0.0,-0.060114680697645806,-0.060113863467569084,0.0,0.0,0.0,-2.6178855460401875,-4.149356532834607,-3.9814073903343163,-0.002969508560667677,0.0038224222688187067,-0.8268902538452142
12024,13.0,300.06082999999995,35433.881,0.0,-0.06011966219632692,-0.06011886567775604,0.0,0.0,0.0,-2.6368098155078674,-4.149127031686956,-3.985078091471586,0.0015267284697013685,-0.0013621350088822589,-0.8279744618497172
12025,13.0,299.99397,35361.891,0.0,-0.06012467668506516,-0.060123867887943216,0.0,0.0,0.0,-2.6235444465236775,-4.143646361896056,-3.9819408665119664,0.00013992442805446588,-0.001926672165697738,-0.8288341032345572
12026,13.0,299.91906,35264.595,0.0,-0.06012969117380351,-0.06012887009813017,0.0,0.0,0.0,-2.6266128718015076,-4.132204843091866,-3.9607385068444567,0.008063413695646972,-0.004495283055399896,-0.8302182636661632
12027,13.0,299.91757,35340.614,0.0,-0.06013467267248451,-0.06013387230831713,0.0,0.0,0.0,-2.6261101984268973,-4.138756416913456,-3.9777974842030464,-0.0011055124997805888,-0.0016150794201209282,-0.8252086741117551
12028,13.0,299.83555,35452.144,0.0,-0.06013968716122309,-0.060138874518504304,0.0,0.0,0.0,-2.6362528319278975,-4.152796010299056,-3.987517693737357,0.004370311219866136,0.004312323220618166,-0.8323475986188121
12029,13.0,299.82939,35399.811,0.0,-0.06014466865990398,-0.06014387672869126,0.0,0.0,0.0,-2.6317480233083077,-4.144212464726926,-3.9846982240090965,-0.005678232586122925,0.0016075049703233887,-0.8330752945756301
12030,13.0,300.06161000000003,35287.975,0.0,-0.06014968314864222,-0.060148878938878436,0.0,0.0,0.0,-2.6184799185488474,-4.135611389928066,-3.9725720521123358,-0.0028689767228459576,-0.0035991407542575364,-0.8320153336460202
12031,13.0,299.9929,35258.189,0.0,-0.06015466464732311,-0.06015388114906561,0.0,0.0,0.0,-2.6139048916973273,-4.139559924242755,-3.9641441417555665,-0.0036809977847861966,-0.001112972857616869,-0.8366834376517261
12032,13.0,300.0402,35369.823,0.0,-0.06015967913606168,-0.06015888335925268,0.0,0.0,0.0,-2.6367187243238774,-4.144337702439286,-3.970486682081526,-0.0003149610016917307,0.001082512026485619,-0.8340315189600022
12033,13.0,300.09927999999996,35447.255,0.0,-0.06016466063474235,-0.06016388556943986,0.0,0.0,0.0,-2.6385712494817075,-4.154893944631106,-3.9816154105798462,0.0013540767321619687,0.006655465191443275,-0.8336943397242252
12034,13.0,300.08266000000003,35348.505,0.0,-0.060169675123480815,-0.06016888777962681,0.0,0.0,0.0,-2.6197606666752478,-4.148920429991566,-3.976381771163326,-0.0026865558357924172,0.0027382703983712476,-0.8283896410781922
12035,13.0,300.0035,35294.769,0.0,-0.06017468961221928,-0.06017388998981399,0.0,0.0,0.0,-2.613697986026908,-4.144871887892006,-3.970158591699146,-0.002843258003507717,0.0010078620210032371,-0.8377495490094432
12036,13.0,300.17638,35438.097,0.0,-0.06017967111090006,-0.06017885929072353,0.0,0.0,0.0,-2.631459956304877,-4.158029143090526,-3.9828076006475066,-0.0038322684253404462,-0.005031141688010025,-0.8364593168621073
12037,13.0,299.7198,35463.373999999996,0.0,-0.06018468559963852,-0.060183861500910485,0.0,0.0,0.0,-2.6383395191838375,-4.154575986749726,-3.987064568292636,-0.0005509870138906845,-0.002439309841791138,-0.8405523609060592
12038,13.0,299.69739,35351.837999999996,0.0,-0.06018966709831941,-0.06018886371109766,0.0,0.0,0.0,-2.632684469050727,-4.1434547563021455,-3.969936892577266,0.003870444852008166,-0.008582403132642242,-0.8314294116431942
12039,13.0,300.06164,35296.222,0.0,-0.06019468158705776,-0.06019386592128484,0.0,0.0,0.0,-2.6163560450142374,-4.140979791607886,-3.9718343047145264,0.0037913213675992864,-0.0004176086881072686,-0.8381700275359412
12040,13.0,300.11433999999997,35318.55,0.0,-0.060199663085738764,-0.060198868131471794,0.0,0.0,0.0,-2.6228942439345078,-4.140830945168196,-3.9722321067037862,0.003481935683390297,0.0031162854370284272,-0.8253189765176412
12041,13.0,299.85032,35394.577000000005,0.0,-0.06020467757447734,-0.06020387034165897,0.0,0.0,0.0,-2.6282466362627477,-4.147065675683516,-3.9837551921410257,0.00026014005748632474,0.004620571835564936,-0.8375552481702672
12042,13.0,300.09423,35505.099,0.0,-0.06020969206321558,-0.06020887255184593,0.0,0.0,0.0,-2.6423129794509874,-4.1568146615206665,-3.993536095356326,-0.002935220075958667,0.0014804865722376486,-0.8284375374104191
12043,13.0,299.97605,35458.78,0.0,-0.06021467356189647,-0.06021387476203299,0.0,0.0,0.0,-2.6378740320878977,-4.155884193953836,-3.984825488221656,-0.004746817934424456,0.0006149704241128554,-0.8376532598524402
12044,13.0,299.99608,35391.992999999995,0.0,-0.060219688050634934,-0.06021887697222006,0.0,0.0,0.0,-2.628551117917797,-4.1539915440920465,-3.975739471924936,-0.0007946639762697283,0.0007394933594548122,-0.8347883053271912
12045,13.0,299.98283,35440.714,0.0,-0.060224669549315824,-0.060223879182407125,0.0,0.0,0.0,-2.6291474156016474,-4.154187405336376,-3.989757381758396,0.002113476474008888,0.0033088065024037775,-0.8373639060213832
12046,13.0,299.97262,35520.821,0.0,-0.060229684038054176,-0.0602288813925943,0.0,0.0,0.0,-2.6398409531820177,-4.159990592634106,-3.997611083283496,-0.0011710802177266188,-0.005642876642433564,-0.8303002153342511
12047,13.0,300.17376,35411.304,0.0,-0.060234665536735066,-0.06023388360278126,0.0,0.0,0.0,-2.6239833864669975,-4.1530940071534665,-3.987074802118646,0.0013713653119932186,-0.005149000710491805,-0.8401371816775842
12048,13.0,300.11337000000003,35308.568,0.0,-0.06023968002547353,-0.060238885812968435,0.0,0.0,0.0,-2.6107358506845677,-4.146953103597406,-3.975233961450046,0.0025451153424083275,-0.003900226805572416,-0.8406154762547882
12049,13.0,300.07103,35352.807,0.0,-0.06024466152415431,-0.06024388802315561,0.0,0.0,0.0,-2.624955701262958,-4.147095465236456,-3.9743195032347964,0.005735391544139074,0.003065354319426917,-0.8336414582015063
12050,13.0,300.14173,35455.562999999995,0.0,-0.06024967601289277,-0.06024889023334257,0.0,0.0,0.0,-2.6382547101504676,-4.150311115753817,-3.989040102012606,-0.0018485306219607682,0.0005367055982362185,-0.8331614309666313
12051,13.0,299.98278999999997,35503.481,0.0,-0.060254690501631236,-0.06025385953425211,0.0,0.0,0.0,-2.6340357393840876,-4.164555689634645,-3.9935802730606857,-0.0045167307229166155,-0.0017813402853045985,-0.8297296339379392
12052,13.0,299.89655,35458.808,0.0,-0.060259672000312015,-0.060258861744439285,0.0,0.0,0.0,-2.630989301633427,-4.156355760550376,-3.9912470620554164,-0.0049769388871606255,0.0014059816844345886,-0.8337545369126662
12053,13.0,299.94073,35461.909,0.0,-0.06026468648905048,-0.06026386395462624,0.0,0.0,0.0,-2.6283365115466175,-4.157536804866935,-3.9936614343936965,-0.004446371243922676,0.0030860245201419067,-0.8294888350516741
12054,13.0,299.8436,35472.272000000004,0.0,-0.06026966798773159,-0.06026886616481342,0.0,0.0,0.0,-2.6358556378886973,-4.162996804355796,-3.983832401798646,0.0015893418543308285,0.002450477073793258,-0.8426480154253843
12055,13.0,300.06444,35534.219,0.0,-0.06027468247646983,-0.06027386837500037,0.0,0.0,0.0,-2.6448955513058676,-4.167122758762996,-3.989497077807706,0.0011762526568370988,0.00010538885217606989,-0.8376620345983062
12056,13.0,300.11696,35518.636,0.0,-0.06027966397515072,-0.06027887058518744,0.0,0.0,0.0,-2.6434581547140077,-4.166380755714766,-3.9869396345553065,0.007015433739194403,0.0038817289117468166,-0.8445764228832032
12057,13.0,299.88788999999997,35408.181000000004,0.0,-0.060284678463889185,-0.060283872795374616,0.0,0.0,0.0,-2.623694812838518,-4.157216516510325,-3.9822914510465663,0.007537272030170833,-0.0004937626201830766,-0.8388146471170601
12058,13.0,300.13502,35390.719,0.0,-0.060289659962570075,-0.06028887500556157,0.0,0.0,0.0,-2.632623876694747,-4.142847110217176,-3.982424085484656,0.003412749446687147,-0.002058821155664828,-0.8336322173605941
12059,13.0,300.12135,35488.292,0.0,-0.06029467445130843,-0.06029387721574875,0.0,0.0,0.0,-2.6341636115467075,-4.156601575024636,-3.996789337452396,-0.0012857072763644288,-0.0059039137808959245,-0.8348761642433623
12060,13.0,300.04132000000004,35480.682,0.0,-0.06029968894004689,-0.0602988794259357,0.0,0.0,0.0,-2.6387503920993876,-4.157331013771626,-3.9891599694994357,-0.0015853354634354283,0.002067138520435688,-0.8345269577288982
12061,13.0,300.07833,35457.436,0.0,-0.06030467043872778,-0.06030388163612288,0.0,0.0,0.0,-2.6333207901135274,-4.1569046381295465,-3.987949743579996,-7.252054589997063e-05,0.01016588049804429,-0.8336938330991753
12062,13.0,300.30681,35541.047999999995,0.0,-0.060309684927466134,-0.06030888384631006,0.0,0.0,0.0,-2.6470029088638474,-4.162779968834396,-3.993808153008176,-0.0017233781239341783,0.0016328112968709283,-0.8301028240822702
12063,13.0,299.96733,35576.44,0.0,-0.06031466642614702,-0.06031388605649701,0.0,0.0,0.0,-2.644391560706127,-4.166553008231767,-4.003404746030286,-0.0035190787976060365,-0.0002871974828566847,-0.8401035316417632
12064,13.0,299.76734,35578.036,0.0,-0.06031968091488549,-0.06031888826668419,0.0,0.0,0.0,-2.6482552859874473,-4.171346694454866,-3.9952325799987567,-0.0042569298509012666,4.407206797082446e-05,-0.8346382328548803
12065,13.0,299.87197000000003,35548.882000000005,0.0,-0.060324662413566155,-0.06032385756759373,0.0,0.0,0.0,-2.639019815300977,-4.168041371303656,-3.998911285811816,0.0037345923316005666,-0.0007024852101523923,-0.8416586881602452
12066,13.0,299.80523,35458.644,0.0,-0.06032967690230473,-0.060328859777780686,0.0,0.0,0.0,-2.633965723802177,-4.159501598135846,-3.985075051721286,0.0015114659847700784,0.0011652480514760288,-0.8359509794194382
12067,13.0,299.90905,35443.893,0.0,-0.060334691391043194,-0.06033386198796786,0.0,0.0,0.0,-2.627910439879568,-4.159668379102306,-3.986479517684896,0.0020804987296292377,-0.0017299011241029487,-0.8438280262268423
12068,13.0,300.01649,35538.429,0.0,-0.06033967288972408,-0.06033886419815482,0.0,0.0,0.0,-2.6400289110755675,-4.163608402116156,-3.999157606911126,0.004201475787503376,0.0007267743045270392,-0.8368413020173062
12069,13.0,299.96263,35517.546,0.0,-0.060344687378462436,-0.060343866408341995,0.0,0.0,0.0,-2.6348053028350376,-4.164550116759097,-3.9970917926072462,0.0025364083829740175,-0.0016825997723346683,-0.8346761892036262
12070,13.0,300.0476,35451.998,0.0,-0.060349668877143436,-0.06034886861852917,0.0,0.0,0.0,-2.6304479221049974,-4.156328098822646,-3.989746134682286,0.0033333820729791967,-0.003345834106108117,-0.8306912690778453
12071,13.0,300.14997999999997,35515.535,0.0,-0.06035468336588179,-0.06035387082871624,0.0,0.0,0.0,-2.6353769785414576,-4.166283382380156,-3.9941753548444163,6.125770868466514e-05,-0.0039184628755721766,-0.8406316274613822
12072,13.0,299.92373,35626.212999999996,0.0,-0.06035966486456268,-0.060358873038903305,0.0,0.0,0.0,-2.6494195103523475,-4.175140505479286,-4.004919149629746,-0.0024032076394031278,0.009314047623774932,-0.8340822625250102
12073,13.0,300.15702999999996,35607.384,0.0,-0.06036467935330114,-0.06036387524909037,0.0,0.0,0.0,-2.644917944133077,-4.175363927126336,-4.003473748362096,-0.0034866619884817464,0.004703681040567175,-0.8408335479413103
12074,13.0,300.02042,35565.692,0.0,-0.06036966085198203,-0.060368877459277326,0.0,0.0,0.0,-2.6358135880095475,-4.1740321111948955,-4.001236593466306,-0.008870848584984591,-0.00034366120944922065,-0.8381222629262272
12075,13.0,300.07216,35541.23,0.0,-0.060374675340720385,-0.0603738796694645,0.0,0.0,0.0,-2.6457317866133976,-4.163249407605726,-3.994665159942756,-0.0003159937872536587,-0.0026563598682373076,-0.8437984494564232
12076,13.0,300.01032999999995,35526.337,0.0,-0.06037968982945885,-0.06037888187965146,0.0,0.0,0.0,-2.6420367674737273,-4.161144785823017,-3.995937700743346,-0.001126392949891329,-0.000960697944358505,-0.8377385147158541
12077,13.0,299.56422000000003,35498.778,0.0,-0.06038467132813974,-0.060383884089838635,0.0,0.0,0.0,-2.6391425198880873,-4.161982642330706,-3.9896170466195464,0.003559591475029327,-0.005141010929478275,-0.8443668827625231
12078,13.0,299.72919,35533.148,0.0,-0.06038968581687809,-0.06038888630002559,0.0,0.0,0.0,-2.6451119815272275,-4.160002650310296,-3.9960751987819165,0.0026228083203260278,-0.0064448122181784435,-0.8344816147869232
12079,13.0,299.84217,35545.068,0.0,-0.06039466731555898,-0.06039385560093513,0.0,0.0,0.0,-2.637029285479527,-4.169523654874946,-3.998260069972546,0.007473131981615703,-0.00037367025262588266,-0.8408665900270713
12080,13.0,299.83727000000005,35545.018,0.0,-0.060399681804297445,-0.06039885781112231,0.0,0.0,0.0,-2.6383803531628676,-4.166623834413756,-3.9997937253239066,0.003199407712956957,0.007451946340574843,-0.8349355305667213
12081,13.0,299.95784,35644.75,0.0,-0.060404663302978334,-0.060403860021309264,0.0,0.0,0.0,-2.6510083878341577,-4.177203887982926,-4.006901674775406,-0.002153530453111908,-0.0035926586893928066,-0.8340970661089712
12082,13.0,299.97787999999997,35654.468,0.0,-0.060409677791716576,-0.06040886223149644,0.0,0.0,0.0,-2.6484132516780376,-4.179716038955856,-4.009938689300136,-0.004335596055540016,-0.005337954527565095,-0.8378020556296253
12083,13.0,299.8723,35591.848,0.0,-0.06041465929039769,-0.06041386444168362,0.0,0.0,0.0,-2.6409387083403577,-4.178815968892026,-3.9992783863230463,-0.0009506567270600141,0.0018680532156124983,-0.8448338897336132
12084,13.0,300.18588,35623.247,0.0,-0.06041967377913604,-0.060418866651870684,0.0,0.0,0.0,-2.6505437113382975,-4.178513513737176,-3.9995201477969062,0.0008085440334270832,0.00999537046724126,-0.8436642546131793
12085,13.0,300.13786,35610.133,0.0,-0.06042468826787428,-0.06042386886205786,0.0,0.0,0.0,-2.6410392227502775,-4.176154566179367,-4.007397458049336,-0.004401726329941566,0.002231976985128978,-0.8372585178784822
12086,13.0,299.85416000000004,35535.174,0.0,-0.060429669766555394,-0.060428871072244816,0.0,0.0,0.0,-2.6353100027098475,-4.168527326051616,-3.9979681526187356,-0.0039030063532467366,-0.002354862944006878,-0.8400847054549051
12087,13.0,300.05744,35606.187999999995,0.0,-0.06043468425529375,-0.060433873282431994,0.0,0.0,0.0,-2.645425481108168,-4.172407162009526,-4.005559523692946,0.0015558009455455986,0.0015908345743781485,-0.8361983644313531
12088,13.0,300.20465,35642.671,0.0,-0.060439665753974636,-0.06043887549261895,0.0,0.0,0.0,-2.654515043780237,-4.173560645923366,-4.006406296801516,0.004000700077538356,0.0038336311453999366,-0.8433498735046522
12089,13.0,300.20187000000004,35597.71,0.0,-0.0604446802427131,-0.060443877702805904,0.0,0.0,0.0,-2.6433323090515874,-4.174322609998566,-4.003160147456146,0.00032752066224627267,-0.008699185678217782,-0.8381163860756472
12090,13.0,300.09467,35650.026,0.0,-0.06044966174139399,-0.06044887991299308,0.0,0.0,0.0,-2.6488398299701372,-4.179311954815976,-4.008566039389667,-0.004728774685918725,-0.008744071644397682,-0.8434719498767002
12091,13.0,299.93098,35762.028,0.0,-0.06045467623013234,-0.060453882123180036,0.0,0.0,0.0,-2.656543469155427,-4.1872478309241865,-4.026972234081216,-0.001105710286200109,0.003673238822145447,-0.8363199139133491
12092,13.0,299.73512,35687.85,0.0,-0.06045969071887081,-0.06045888433336721,0.0,0.0,0.0,-2.656642767665227,-4.183182874173006,-4.008389835197276,0.0023421135219736074,0.007047246752584104,-0.8409981605525562
12093,13.0,299.83026,35567.232,0.0,-0.060464672217551696,-0.060463853634276754,0.0,0.0,0.0,-2.6366257079646975,-4.171064909602056,-4.003859796650196,-0.002397115067876838,-0.004599259740911596,-0.8351021494131652
12094,13.0,300.01179,35585.907,0.0,-0.06046968670628994,-0.06046885584446382,0.0,0.0,0.0,-2.6470076711393173,-4.173842025476136,-3.996377552611756,0.0015437992007611187,-0.005380493299888345,-0.8403265581212742
12095,13.0,299.89383,35661.727,0.0,-0.06047466820497083,-0.060473858054650886,0.0,0.0,0.0,-2.6482138440583576,-4.181259218858156,-4.010801471760287,-0.0014526246262878888,0.0006845169218890603,-0.8414646001035901
12096,13.0,300.09841,35651.303,0.0,-0.0604796826937094,-0.060478860264838064,0.0,0.0,0.0,-2.652399884196487,-4.178242773310457,-4.006463342782146,0.0016690119871686586,0.004458080463403285,-0.8427246779279501
12097,13.0,299.94717,35638.492999999995,0.0,-0.06048466419239029,-0.06048386247502513,0.0,0.0,0.0,-2.6394458869680273,-4.180459156579196,-4.013306935282556,-0.002975564351215337,-0.006083569407101554,-0.8393777608601353
12098,13.0,299.77295,35632.774,0.0,-0.060489678681128534,-0.06048886468521231,0.0,0.0,0.0,-2.6514379045515475,-4.172803646773656,-4.007232196958026,0.00047132709461386254,-0.0021792552519507478,-0.8343480076287372
12099,13.0,299.72051,35704.72,0.0,-0.060494660179809645,-0.06049386689539926,0.0,0.0,0.0,-2.6503476474439474,-4.1876695456158055,-4.015326140081836,0.0059615039781546345,-0.0017601766317909082,-0.8437987736964552
12100,13.0,299.75892000000005,35786.021,0.0,-0.060499674668548,-0.06049886910558644,0.0,0.0,0.0,-2.6661314495516875,-4.192526762620176,-4.019398493558747,0.0042382385276315765,0.002013021035244708,-0.8442283208113481
12101,13.0,299.92224,35713.591,0.0,-0.06050468915728646,-0.060503871315773616,0.0,0.0,0.0,-2.6529621366769773,-4.184840753986626,-4.018237004969117,0.0049314794214241255,-0.0016675161260460284,-0.8461377906247982
12102,13.0,300.12879,35605.797999999995,0.0,-0.06050967065596735,-0.06050887352596057,0.0,0.0,0.0,-2.6338195118127476,-4.181615984218366,-4.0078381205178255,0.0036321166747870066,-0.0025305067077665677,-0.8471854203006912
12103,13.0,300.15856,35601.99,0.0,-0.06051468514470559,-0.06051387573614775,0.0,0.0,0.0,-2.6345506730849078,-4.178191908155436,-4.009373498394356,0.006240579501522244,0.007589524020602703,-0.8433238228445811
12104,13.0,299.97087999999997,35687.085,0.0,-0.06051966664338648,-0.060518877946334704,0.0,0.0,0.0,-2.6522444516311476,-4.1828311750632965,-4.012907208118106,-0.006354983239838015,0.004683047316855785,-0.8381826526321873
12105,13.0,300.07707999999997,35668.287000000004,0.0,-0.06052468113212506,-0.06052388015652177,0.0,0.0,0.0,-2.6510577331140275,-4.180894955447206,-4.010315820987357,-0.006446923426086804,-0.0034459458504383766,-0.8383115279124063
12106,13.0,299.80581,35635.153,0.0,-0.06052966263080595,-0.060528882366708836,0.0,0.0,0.0,-2.6483289492697177,-4.175369398676875,-4.008498354282986,-0.007861988998992903,-0.0069778793467630724,-0.8441697042930632
12107,13.0,299.95872,35756.61,0.0,-0.06053467711954419,-0.0605338845768959,0.0,0.0,0.0,-2.6633122837984575,-4.1886079165334165,-4.017196498441426,0.0007955521406448834,0.004150332596655936,-0.8427548626484292
12108,13.0,299.92461000000003,35823.044,0.0,-0.06053965861822508,-0.06053885387780544,0.0,0.0,0.0,-2.6645913093996874,-4.193637994004846,-4.031081672511786,-0.0007675634472401144,0.003929588969620236,-0.8401341419272841
12109,13.0,299.98977,35788.919,0.0,-0.06054467310696365,-0.06054385608799251,0.0,0.0,0.0,-2.6610306472232774,-4.1915387424476656,-4.026368539671636,-0.001233665636653319,0.0014921778571914885,-0.8390651934692872
12110,13.0,300.2629,35740.011,0.0,-0.060549687595701895,-0.060548858298179575,0.0,0.0,0.0,-2.6589112319891073,-4.1860797562089065,-4.019079927727306,0.003803179534844596,0.0027996721385311276,-0.8357601134981012
12111,13.0,300.41879,35694.758,0.0,-0.060554669094382785,-0.06055386050836675,0.0,0.0,0.0,-2.652858683841768,-4.181662289747936,-4.015794058978017,0.005600058922357785,0.0033799451707246164,-0.8416383522307381
12112,13.0,300.16152,35702.561,0.0,-0.06055968358312125,-0.06055886271855371,0.0,0.0,0.0,-2.6519832357553677,-4.183913630145126,-4.016790286476336,0.006070694139405864,0.0006568484560458953,-0.8482854046092512
12113,13.0,300.11632000000003,35756.671,0.0,-0.06056466508180225,-0.060563864928740885,0.0,0.0,0.0,-2.651830741615318,-4.193528157694006,-4.023776341940806,-0.0016925772460693682,-0.002979941692972347,-0.8444871251518902
12114,13.0,300.06155,35730.586,0.0,-0.06056967957054071,-0.06056886713892806,0.0,0.0,0.0,-2.6501127760707677,-4.191561439249906,-4.019531837271906,0.0021333563396458777,0.0008238178566269922,-0.8490779587049703
12115,13.0,299.99439,35722.322,0.0,-0.0605746610692216,-0.06057386934911502,0.0,0.0,0.0,-2.6474923086621476,-4.193544876320656,-4.017656817961856,-0.00019393781193017181,0.007117974244014363,-0.8442849209619341
12116,13.0,300.07749,35741.072,0.0,-0.060579675557959844,-0.060578871559302194,0.0,0.0,0.0,-2.658724388670668,-4.192098968427956,-4.013569975008516,-0.00010646472113224989,0.00028713585698560276,-0.8398051497523151
12117,13.0,299.90644,35769.699,0.0,-0.06058469004669842,-0.06058387376948915,0.0,0.0,0.0,-2.6537269378524573,-4.198091025544326,-4.021277464544187,-0.004941882156225795,-9.76039888362637e-05,-0.8406289423486173
12118,13.0,299.96977999999996,35794.895,0.0,-0.06058967154537931,-0.06058887597967633,0.0,0.0,0.0,-2.6672168430588075,-4.196006060813556,-4.017531377599476,-0.002335303062751468,-0.0008459952668657322,-0.8433430644639802
12119,13.0,300.01392999999996,35802.562999999995,0.0,-0.06059468603411755,-0.06059387818986339,0.0,0.0,0.0,-2.6593931337366676,-4.196359279798417,-4.027332647141786,-0.0009748816016433231,6.271850831408484e-05,-0.8453792918649402
12120,13.0,299.81521000000004,35784.14,0.0,-0.06059966753279844,-0.06059888040005035,0.0,0.0,0.0,-2.665793024018287,-4.192215796164486,-4.019476311166426,0.0045925887049032155,-0.0014030216769174587,-0.8477139112878492
12121,13.0,299.96401000000003,35725.326,0.0,-0.060604682021536904,-0.060603882610237525,0.0,0.0,0.0,-2.6526394165201275,-4.183920317595786,-4.023047409818866,0.001812818318211238,-0.00041120489681276357,-0.8419564215696291
12122,13.0,299.9995,35759.261,0.0,-0.060609663520217905,-0.06060885191114718,0.0,0.0,0.0,-2.662912759284027,-4.189724619468626,-4.0172850565001665,0.006781416839823733,-0.0018141259174652884,-0.8459177836305852
12123,13.0,299.99947000000003,35799.426,0.0,-0.06061467800895615,-0.06061385412133413,0.0,0.0,0.0,-2.6600326971997874,-4.191827214751136,-4.0302717817068565,0.001076326843900189,0.001161441068200309,-0.8439680269931591
12124,13.0,300.20142999999996,35788.021,0.0,-0.060619659507637036,-0.0606188563315212,0.0,0.0,0.0,-2.6649913405391676,-4.192899233356935,-4.020774183219516,0.004677660676674165,-0.0003629074796661797,-0.8475060328973331
12125,13.0,300.23467999999997,35764.57,0.0,-0.0606246739963755,-0.06062385854170815,0.0,0.0,0.0,-2.6491203989228276,-4.195225351611506,-4.027190488152756,0.0016054129128419187,-0.002736885792109597,-0.8445060830612613
12126,13.0,300.13088999999997,35832.572,0.0,-0.06062968848511385,-0.06062886075189533,0.0,0.0,0.0,-2.6645831020738773,-4.196204657833156,-4.031419287445106,-0.006881663853042344,0.0033339607401113064,-0.8415217980717352
12127,13.0,300.06158,35868.7,0.0,-0.060634669983794964,-0.06063386296208251,0.0,0.0,0.0,-2.6671280823500476,-4.203036192657375,-4.0330248835535665,-0.008227634989704352,0.0018827434168873082,-0.8345742461110651
12128,13.0,299.88284,35806.614,0.0,-0.060639684472533206,-0.06063886517226946,0.0,0.0,0.0,-2.6642785190938176,-4.196738539310846,-4.023299506443746,-0.004886160392151485,-0.0015061695238473584,-0.8430930551343063
12129,13.0,299.99313,35822.846,0.0,-0.060644665971214096,-0.06064386738245664,0.0,0.0,0.0,-2.6561854878950975,-4.201575389988206,-4.031489708327056,0.0018501570910212882,0.0037881688425631566,-0.8404319361316741
12130,13.0,299.90887999999995,35852.773,0.0,-0.06064968045995267,-0.060648869592643595,0.0,0.0,0.0,-2.6653940061289076,-4.201027221684106,-4.031926520445166,0.005625108896630025,-0.00091254085221827,-0.8522460371301352
12131,13.0,299.92371,35823.748,0.0,-0.06065466195863356,-0.06065387180283077,0.0,0.0,0.0,-2.652956563801427,-4.200983145304757,-4.0355850625812355,0.005425040637884825,-0.0014079809282068986,-0.8514338969099833
12132,13.0,299.90325,35757.612,0.0,-0.0606596764473718,-0.06065887401301795,0.0,0.0,0.0,-2.6549026119434873,-4.1952296072619255,-4.019288859897926,-0.0001104555789036169,-0.0015698260494547685,-0.8529000596721822
12133,13.0,299.96461,35758.407999999996,0.0,-0.06066465794605269,-0.060663876223205015,0.0,0.0,0.0,-2.6518723861944276,-4.195427697656476,-4.022363060701326,0.003857786926458926,-0.00027070944153194176,-0.8471032457175812
12134,13.0,299.97821,35791.123999999996,0.0,-0.060669672434791155,-0.06066887843339208,0.0,0.0,0.0,-2.6565387068799575,-4.1962382977364765,-4.026831088342286,0.0018039162068076685,-0.0017352591906317485,-0.8491442049965082
12135,13.0,300.04483,35875.138999999996,0.0,-0.06067468692352951,-0.06067388064357915,0.0,0.0,0.0,-2.6647076305111677,-4.206403628039716,-4.0340351952282765,-0.005946312724705374,-0.0014407879399446987,-0.8436732624065681
12136,13.0,299.91371000000004,35891.065,0.0,-0.0606796684222104,-0.06067884994448869,0.0,0.0,0.0,-2.6641086983770577,-4.208828031553986,-4.037050728850886,-0.0025320264815915576,-0.0006252720770845494,-0.8419571004471962
12137,13.0,300.15571,35852.256,0.0,-0.06068468291094886,-0.060683852154675866,0.0,0.0,0.0,-2.6605355732244176,-4.201400300370926,-4.036254719572326,0.0006612599038012714,0.005728199190954244,-0.8406204006502742
12138,13.0,299.98595,35865.391,0.0,-0.06068966440962975,-0.06068885436486282,0.0,0.0,0.0,-2.6692453697590075,-4.204239832451166,-4.028698001651536,0.0013098327612454286,-0.0003951413363524136,-0.8391144576891493
12139,13.0,300.04255,35920.314,0.0,-0.060694678898368104,-0.060693856575049776,0.0,0.0,0.0,-2.6838849085288174,-4.203004376604236,-4.031989240626356,-0.001026865141593699,-0.0027111172208664374,-0.8405977545105392
12140,13.0,299.99932,35900.122,0.0,-0.060699660397049215,-0.06069885878523695,0.0,0.0,0.0,-2.676632773588087,-4.207824002029896,-4.028283886335666,-0.0016029010658440183,-0.0013987866967994987,-0.8479199050331793
12141,13.0,299.94957,35809.254,0.0,-0.06070467488578746,-0.06070386099542391,0.0,0.0,0.0,-2.6619757055915474,-4.199538453312176,-4.023605001348896,0.0028037450999580968,0.0028915615609499067,-0.8543137259467001
12142,13.0,300.01231,35825.843,0.0,-0.06070968937452581,-0.060708863205611086,0.0,0.0,0.0,-2.6591159085093077,-4.200970378353496,-4.030075312512467,0.0009936950012850608,-0.005873633612257505,-0.8521819895913142
12143,13.0,300.09204,35904.364,0.0,-0.06071467087320681,-0.06071386541579804,0.0,0.0,0.0,-2.6687285108829975,-4.208350993406905,-4.0369508223910255,0.0016243647427123184,-0.0007523758617562163,-0.8532272685269752
12144,13.0,300.11428,35862.187000000005,0.0,-0.060719685361945164,-0.06071886762598522,0.0,0.0,0.0,-2.6681817611290373,-4.202397439794336,-4.030630269592236,0.0001356495765450709,-0.002042518772155908,-0.8460191086405853
12145,13.0,300.20167999999995,35843.059,0.0,-0.06072466686062605,-0.060723869836172395,0.0,0.0,0.0,-2.6612005692650476,-4.202925140446416,-4.0312691237802865,0.003985881396150866,0.005201270027500386,-0.8450588616533162
12146,13.0,300.05477,35898.464,0.0,-0.06072968134936452,-0.06072887204635946,0.0,0.0,0.0,-2.6664381603569574,-4.209647244259836,-4.036151266737116,0.0018653107528918383,-0.002992165542178747,-0.8429268111903992
12147,13.0,299.92177999999996,35954.69,0.0,-0.060734662848045406,-0.06073387425654664,0.0,0.0,0.0,-2.6707606852835575,-4.216315139192906,-4.042252248239236,0.0036739510356407364,0.002841847052743467,-0.8454495404943733
12148,13.0,299.89326,35948.745,0.0,-0.06073967733678376,-0.06073887646673359,0.0,0.0,0.0,-2.6635058145675576,-4.218948981502846,-4.045066043766936,0.0004799023518001746,0.005525362530285825,-0.8436941454911293
12149,13.0,299.72972999999996,35858.074,0.0,-0.06074465883546465,-0.06074387867692077,0.0,0.0,0.0,-2.6514350674512674,-4.211251117843125,-4.037272833272806,-0.004970334219033795,0.004588538136303456,-0.8448552693107231
12150,13.0,299.98393,35801.598,0.0,-0.06074967332420311,-0.060748880887107726,0.0,0.0,0.0,-2.653391957369397,-4.206399372389296,-4.023000597664247,-0.004680715119100616,-0.006014553599065224,-0.8478656961528294
12151,13.0,299.94857,35875.418,0.0,-0.060754687812941466,-0.06075385018801727,0.0,0.0,0.0,-2.6669018236027173,-4.209967735266466,-4.028361602618336,-0.004029531298533777,-0.0029033759557908975,-0.8530238788344022
12152,13.0,299.97935,35959.547,0.0,-0.060759669311622355,-0.060758852398204444,0.0,0.0,0.0,-2.6787239191444674,-4.213157750556296,-4.038922809735646,0.0006717544795920053,0.0015183930690787287,-0.8559273165984491
12153,13.0,300.0179,35917.388,0.0,-0.06076468380036082,-0.06076385460839162,0.0,0.0,0.0,-2.6704991654327475,-4.210870439780557,-4.036619388283317,-0.0027221952868597575,0.0003063019284571467,-0.8526868211886371
12154,13.0,300.04037,35902.236000000004,0.0,-0.06076966529904171,-0.060768856818578576,0.0,0.0,0.0,-2.6586965242929175,-4.207391445562206,-4.047295396636956,-0.0018696091624660581,-0.005386246533956145,-0.8467154647718101
12155,13.0,300.15732,35978.17,0.0,-0.06077467978778006,-0.06077385902876553,0.0,0.0,0.0,-2.6738674114151677,-4.211862614278476,-4.0507352794014455,0.0012076982657405388,0.0009040963853548661,-0.8444324197789912
12156,13.0,300.13954,35995.489,0.0,-0.06077966128646106,-0.0607788612389526,0.0,0.0,0.0,-2.6848890393779175,-4.209678857662956,-4.047162052923796,0.0037233102983621163,0.007616757244865413,-0.8392437787994123
12157,13.0,300.04816,35953.299,0.0,-0.060784675775199415,-0.06078386344913966,0.0,0.0,0.0,-2.6767760471522273,-4.212691858160316,-4.039437338136426,0.0035821534136810168,0.002339857216650928,-0.8438357066626001
12158,13.0,300.20378,35959.21,0.0,-0.060789657273880304,-0.06078886565932684,0.0,0.0,0.0,-2.6755660238828076,-4.215448405057366,-4.0396874082611065,-0.004176939024406786,-0.007950824282960263,-0.8451067985155472
12159,13.0,300.03466000000003,35955.032999999996,0.0,-0.06079467176261877,-0.06079386786951391,0.0,0.0,0.0,-2.6658414573730673,-4.218774601160636,-4.044816176292276,0.00019134800546957782,-0.0014143153625320588,-0.8485766025554902
12160,13.0,299.96438,35941.411,0.0,-0.06079968625135723,-0.060798870079701084,0.0,0.0,0.0,-2.6637130242130076,-4.217946167878876,-4.043632396200446,0.003957771001276587,0.0026063378386255174,-0.8514559047021552
12161,13.0,300.14087,35954.595,0.0,-0.06080466775003801,-0.06080387228988804,0.0,0.0,0.0,-2.6672733824143875,-4.214408709129756,-4.047617002218696,0.001044937774352329,0.0008275437089672051,-0.8496663935680442
12162,13.0,299.90693,35919.686,0.0,-0.060809682238776475,-0.060808874500075216,0.0,0.0,0.0,-2.6682293838837374,-4.213226246263057,-4.0372317966437565,-0.0022152916944072677,-0.008841653911178303,-0.8462552161788872
12163,13.0,300.18097,35954.655,0.0,-0.060814663737457364,-0.06081387671026239,0.0,0.0,0.0,-2.669745003383318,-4.220767664107336,-4.038804664773986,-0.0006352963832388714,0.001060975800910159,-0.8533897026505062
12164,13.0,300.06362,35995.472,0.0,-0.06081967822619572,-0.06081887892044935,0.0,0.0,0.0,-2.6802193749670575,-4.215813276418376,-4.045691827028697,-0.0005109497128843104,0.0067255719658622735,-0.8514683271483812
12165,13.0,299.98739,36062.929,0.0,-0.060824659724876606,-0.06082384822135889,0.0,0.0,0.0,-2.6822539811678574,-4.226770765649796,-4.053205076520196,0.002605553583048117,-0.0010866114337401988,-0.8503446429199821
12166,13.0,299.94642999999996,36012.828,0.0,-0.06082967421361507,-0.060828850431546067,0.0,0.0,0.0,-2.675175010669218,-4.216999083010406,-4.0548262766801955,-0.006135541740505824,-0.005009654199764375,-0.8490044980727202
12167,13.0,300.03406,35958.755,0.0,-0.06083468870235342,-0.06083385264173302,0.0,0.0,0.0,-2.6740038962036374,-4.213998038864226,-4.042561694819776,-0.0004962704040480754,0.003887571818448466,-0.8474463727314452
12168,13.0,299.78899,36004.955,0.0,-0.06083967020103431,-0.0608388548519202,0.0,0.0,0.0,-2.6735262501064976,-4.222305169809076,-4.048775653708046,0.004044559520041947,0.0059809070082945635,-0.8477719705185792
12169,13.0,299.93074,36014.576,0.0,-0.06084468468977278,-0.060843857062107154,0.0,0.0,0.0,-2.6806591255104575,-4.215258015363576,-4.051614577838226,0.002232596790215148,-0.001975444756611218,-0.8484862105140691
12170,13.0,299.90421000000003,35987.972,0.0,-0.060849666188453666,-0.06084885927229422,0.0,0.0,0.0,-2.672170217497668,-4.220146643121046,-4.047128109045446,-0.0027511515429175177,-0.011617206239028989,-0.8544920376992982
12171,13.0,300.01367,35977.303,0.0,-0.06085468067719191,-0.060853861482481286,0.0,0.0,0.0,-2.668952743130127,-4.218133112522326,-4.049115801766616,-0.001044276831312099,-0.0014785721374987086,-0.8515506334540042
12172,13.0,299.97827,35966.349,0.0,-0.06085966217587302,-0.06085886369266835,0.0,0.0,0.0,-2.6665238813154177,-4.215111904699156,-4.051236230250886,-0.0017203064562560284,0.0053463124223399544,-0.8486574700459713
12173,13.0,300.11483,36008.369,0.0,-0.06086467666461148,-0.06086386590285553,0.0,0.0,0.0,-2.6763470370598874,-4.2213316391129965,-4.047966269528167,0.00024885214739729476,-0.003276595079074757,-0.8458192045283561
12174,13.0,300.17647999999997,36116.888,0.0,-0.06086965816329226,-0.060868868113042485,0.0,0.0,0.0,-2.6896078464186273,-4.2266581935636856,-4.062366073324316,-0.0024119231101382777,-0.005362489770786535,-0.8416570770925862
12175,13.0,299.94264,36109.242,0.0,-0.060874672652030726,-0.06087387032322966,0.0,0.0,0.0,-2.6864876440606875,-4.231167663133736,-4.058652714357836,-0.0008774324759258432,0.003907901668454866,-0.8497881659650621
12176,13.0,299.93792,36041.221,0.0,-0.06087968714076919,-0.06087887253341684,0.0,0.0,0.0,-2.6749790480998774,-4.228655613485816,-4.0519964718009165,0.0013812839158971084,0.003235633734507187,-0.8476793594594392
12177,13.0,300.11565,36006.454,0.0,-0.06088466863944997,-0.060883874743603794,0.0,0.0,0.0,-2.6676725016287772,-4.225068100181756,-4.052322434358087,-0.0014300902480389188,-0.005106624868784636,-0.859937456519219
12178,13.0,300.01642999999996,36005.888999999996,0.0,-0.06088968312818843,-0.06088887695379097,0.0,0.0,0.0,-2.6772827735272373,-4.219439698526275,-4.048168818223156,0.0043970604145560765,-0.005848225758049943,-0.8505765049403652
12179,13.0,300.05806,35991.28,0.0,-0.06089466462686932,-0.06089384625470051,0.0,0.0,0.0,-2.6696740758763178,-4.223450851697145,-4.047325388839916,0.004246780023324556,0.0016178479233691586,-0.8630160244305501
12180,13.0,299.861,35954.22,0.0,-0.06089967911560756,-0.06089884846488747,0.0,0.0,0.0,-2.663676648534418,-4.221225247852496,-4.044283206739676,0.0015459517492735584,0.004388771420788016,-0.8557220118631871
12181,13.0,299.88828,36020.309,0.0,-0.060904660614288564,-0.060903850675074644,0.0,0.0,0.0,-2.6712467413565273,-4.226248941848296,-4.051778825679436,-0.004192802974597436,-0.007546063393338473,-0.8600135414692281
12182,13.0,299.80537999999996,36096.183,0.0,-0.06090967510302703,-0.0609088528852616,0.0,0.0,0.0,-2.682574978799537,-4.227198458517006,-4.062564974318946,-0.004060000640965866,-0.010100099288302189,-0.8484022424782821
12183,13.0,299.80228999999997,36108.281,0.0,-0.06091465660170792,-0.06091385509544878,0.0,0.0,0.0,-2.6799062806861578,-4.231135340455546,-4.064974077756706,0.005628148545605015,0.0019866792684199784,-0.8534972084861161
12184,13.0,300.01149,36129.23,0.0,-0.06091967109044616,-0.060918857305635954,0.0,0.0,0.0,-2.6877627179865273,-4.2309674449139765,-4.063653711551396,0.0028547899042208275,0.005759154994759344,-0.8424977504355542
12185,13.0,300.16581,36128.512,0.0,-0.060924685579184734,-0.06092385951582302,0.0,0.0,0.0,-2.6881226244220477,-4.230871490129506,-4.063171303178787,-0.00011625993143896189,-0.002026936606818068,-0.8451229902521451
12186,13.0,300.05105,36097.137,0.0,-0.060929667077865735,-0.060928861726009975,0.0,0.0,0.0,-2.6872822347891074,-4.2278145145778065,-4.057531654447196,-0.007850419608026092,-0.002265278766890608,-0.8470533532826571
12187,13.0,300.02688,36057.089,0.0,-0.06093468156660409,-0.06093386393619693,0.0,0.0,0.0,-2.6866430766260274,-4.220195988400916,-4.053615645460716,0.003234579346453127,0.009484537389575961,-0.8512115594405402
12188,13.0,299.92323,36060.015,0.0,-0.06093966306528498,-0.06093886614638411,0.0,0.0,0.0,-2.6784062652381175,-4.228194989990356,-4.054742784871957,0.0001983858380141578,0.004794716394476665,-0.8563068192909031
12189,13.0,299.94162,36039.953,0.0,-0.06094467755402344,-0.060943868356571285,0.0,0.0,0.0,-2.679911752236697,-4.221103353865466,-4.054230688271416,-0.0016420567987333885,-0.006093622671943734,-0.8582253982227521
12190,13.0,300.02926,36083.729,0.0,-0.06094965905270422,-0.06094887056675824,0.0,0.0,0.0,-2.6834815336640077,-4.225963002670076,-4.059108170277787,-0.004581989602232166,-0.006848568267676062,-0.8562036602982221
12191,13.0,299.7164,36112.422,0.0,-0.06095467354144268,-0.06095387277694542,0.0,0.0,0.0,-2.691050207935977,-4.230456665538567,-4.055767586023096,0.0014395804498005286,0.005604187815190276,-0.8526909147190412
12192,13.0,299.82515,36115.8,0.0,-0.06095968803018115,-0.06095887498713237,0.0,0.0,0.0,-2.6871154538226474,-4.233427920131806,-4.057757811869517,0.002706587790269417,0.006918333272836333,-0.8500077676592352
12193,13.0,299.99291,36138.422999999995,0.0,-0.060964669528861815,-0.06096384428804191,0.0,0.0,0.0,-2.681440037362527,-4.2433411538101655,-4.060396923079976,-0.003477146252817616,-0.009416785813689401,-0.8496359656675412
12194,13.0,300.11535,36137.471,0.0,-0.06096968401760039,-0.06096884649822909,0.0,0.0,0.0,-2.6811451815834273,-4.234751123437396,-4.068992627653306,-0.004992659361137115,-0.0058644371516998845,-0.8471470485194043
12195,13.0,299.98624,36137.285,0.0,-0.06097466551628128,-0.060973848708416045,0.0,0.0,0.0,-2.6789460235663873,-4.236197233980116,-4.069689135772046,0.0035714746695521063,0.0023915184822744977,-0.8542888607892462
12196,13.0,300.19871,36085.954,0.0,-0.06097968000501952,-0.06097885091860322,0.0,0.0,0.0,-2.6763929372894175,-4.2318171564478355,-4.061018957316366,0.006045755622644624,0.006999502610522123,-0.8530355312105522
12197,13.0,300.06189,36101.967000000004,0.0,-0.06098466150370041,-0.0609838531287904,0.0,0.0,0.0,-2.6738662968400577,-4.237782463761566,-4.062447741282376,0.001968775747103038,-0.0034255304821235364,-0.8594289873540372
12198,13.0,300.19288,36131.443,0.0,-0.060989675992438985,-0.060988855338977466,0.0,0.0,0.0,-2.686089842071427,-4.234861871673326,-4.062104756123525,-0.003711208545792767,-0.0012871434570561689,-0.8565819166930531
12199,13.0,299.94151,36125.745,0.0,-0.060994657491119986,-0.06099385754916464,0.0,0.0,0.0,-2.6836976599103375,-4.232775589717425,-4.064851271844586,-0.0007619997314710183,0.006115530456330864,-0.8560338902439673
12200,13.0,300.17362,36140.227,0.0,-0.06099967197985834,-0.0609988597593516,0.0,0.0,0.0,-2.685476015160847,-4.233829673796456,-4.066420796249486,-0.005468952566743595,0.007112718617070674,-0.8531091539628182
12201,13.0,300.12292,36181.929,0.0,-0.06100468646859658,-0.06100386196953855,0.0,0.0,0.0,-2.6932619302542573,-4.2374190109506955,-4.067722113352916,-0.0037684933494713368,-0.007846878096276572,-0.8533054610371923
12202,13.0,300.06478,36210.381,0.0,-0.06100966796727769,-0.06100886417972573,0.0,0.0,0.0,-2.6990055384461074,-4.2426381608907855,-4.065407850124517,-0.004362995148844096,-0.004253795159066896,-0.8490163936288941
12203,13.0,299.92918,36227.521,0.0,-0.061014682456016045,-0.061013866389912685,0.0,0.0,0.0,-2.7036474398042274,-4.242936056420186,-4.065678185251197,0.004198575359092125,0.0032454239596234067,-0.8476802409870262
12204,13.0,299.92154,36209.077000000005,0.0,-0.061019663954696934,-0.06101886860009986,0.0,0.0,0.0,-2.6966057569092676,-4.240251855580276,-4.069797553532746,0.005246108472250595,0.000976197418355684,-0.8481243181083532
12205,13.0,299.76452,36117.209,0.0,-0.0610246784434354,-0.06102387081028682,0.0,0.0,0.0,-2.6790232332240076,-4.235367078173185,-4.0643394792190755,0.002581720420820968,-0.01083438441052049,-0.8501166211174782
12206,13.0,300.02211,36147.538,0.0,-0.061029659942116066,-0.061028873020473995,0.0,0.0,0.0,-2.6773245194313575,-4.239340031815286,-4.071284396729486,0.001827007973936648,-4.784789684571975e-05,-0.8567124537034362
12207,13.0,300.04175,36161.199,0.0,-0.06103467443085464,-0.06103387523066117,0.0,0.0,0.0,-2.6867202862836477,-4.235659502152046,-4.069721965075287,0.0009496955782801559,0.007863399645782122,-0.8595206054280793
12208,13.0,299.85291,36140.959,0.0,-0.06103965592953553,-0.06103884453157049,0.0,0.0,0.0,-2.6834958204904176,-4.2381942486022055,-4.064259027161136,-0.0029719901114875873,0.0055743101094915745,-0.8637011436181661
12209,13.0,300.14961,36125.45,0.0,-0.06104467041827377,-0.06104384674175767,0.0,0.0,0.0,-2.6794768652937773,-4.239988106579246,-4.061769876965475,-0.006631773276280064,-0.008692564798089351,-0.8659195128571022
12210,13.0,299.93068999999997,36140.279,0.0,-0.061049684907012236,-0.061048848951944845,0.0,0.0,0.0,-2.683960496986277,-4.239363539217606,-4.062418458354486,-0.004005856101997216,0.0007836446787822083,-0.8575437544829793
12211,13.0,299.99816,36206.616,0.0,-0.061054666405693236,-0.06105385116213191,0.0,0.0,0.0,-2.6847529598894875,-4.250891589580337,-4.070262736653656,0.00033279930009973363,0.0033205697281147163,-0.8580225556852332
12212,13.0,300.06647999999996,36231.608,0.0,-0.06105968089443148,-0.06105885337231909,0.0,0.0,0.0,-2.6930499583333374,-4.246097802032226,-4.074356469707676,-0.0035528983501687665,-0.00039923811928923463,-0.8510625204833311
12213,13.0,300.14024,36222.326,0.0,-0.06106466239311259,-0.061063855582506044,0.0,0.0,0.0,-2.6953921872644977,-4.248295338849106,-4.066995005081156,-0.0008463832099315191,-0.005413537310824535,-0.8591496039039642
12214,13.0,299.93622999999997,36241.962,0.0,-0.06106967688185083,-0.06106885779269322,0.0,0.0,0.0,-2.6973831223859874,-4.249187505562156,-4.070080858260707,0.005607697409561645,0.0038686267773537365,-0.8529157650487321
12215,13.0,299.98447999999996,36285.403,0.0,-0.06107465838053194,-0.0610738600028804,0.0,0.0,0.0,-2.7040394662679175,-4.2497863363712565,-4.076030561522896,0.007238018441661804,0.006526433566733843,-0.8586417122913392
12216,13.0,299.73117,36225.852,0.0,-0.061079672869270296,-0.06107886221306735,0.0,0.0,0.0,-2.693049654358308,-4.239794271835116,-4.078910522282126,0.00028341585109846674,-0.0032545569907247666,-0.8486699228897002
12217,13.0,299.95527000000004,36151.309,0.0,-0.06108468735800854,-0.06108386442325431,0.0,0.0,0.0,-2.6806074497553576,-4.234766322188896,-4.0737214658700065,-0.00017389314116441685,-0.011919475969110688,-0.8531296114823372
12218,13.0,299.84512,36156.357,0.0,-0.06108966885668965,-0.061088866633441374,0.0,0.0,0.0,-2.6780001545980374,-4.238701278952246,-4.073928168890406,-0.00038128484739238463,0.003502426234862557,-0.8502969391052742
12219,13.0,299.74273,36226.487,0.0,-0.06109468334542789,-0.06109386884362844,0.0,0.0,0.0,-2.6982976819262476,-4.243674614418076,-4.069975176275276,0.004162061878488527,0.006780115016095253,-0.8535639208727002
12220,13.0,299.89119,36316.024,0.0,-0.06109966484410889,-0.06109887105381562,0.0,0.0,0.0,-2.7045084997392075,-4.2522599838403865,-4.082396001301116,-0.003330613367080947,0.005672239515756454,-0.8572731356462713
12221,13.0,299.9922,36285.782999999996,0.0,-0.061104679332847356,-0.061103873264002684,0.0,0.0,0.0,-2.7108387797389577,-4.2493979576079255,-4.069735238651597,-0.005973320906120874,-0.005133187929431205,-0.8563488894350553
12222,13.0,300.03249,36242.104,0.0,-0.06110966083152802,-0.061108842564912225,0.0,0.0,0.0,-2.6899688674292572,-4.250695728336005,-4.0760300548978465,0.0017275221141931584,0.0012605471618063189,-0.8565961528569582
12223,13.0,300.21629,36256.356,0.0,-0.06111467532026649,-0.06111384477509929,0.0,0.0,0.0,-2.692974876500927,-4.251260513941746,-4.076791613673006,-0.0009275048032725972,0.002074837093370478,-0.8551345294552072
12224,13.0,299.90665,36275.91,0.0,-0.06111965681894738,-0.06111884698528636,0.0,0.0,0.0,-2.6933499816879474,-4.250558635597476,-4.083062314566876,-9.680997566040071e-05,-0.006533454781976785,-0.8576581706842712
12225,13.0,299.80197000000004,36224.671,0.0,-0.06112467130768573,-0.061123849195473534,0.0,0.0,0.0,-2.6920738945120077,-4.247474200968066,-4.071847257160036,-0.001941912764426868,-0.0077321039137242436,-0.8593410473778582
12226,13.0,300.0857,36188.572,0.0,-0.061129685796424194,-0.06112885140566049,0.0,0.0,0.0,-2.685890029151708,-4.249243639617696,-4.065288691912756,0.0030807154949179473,0.005517020644862545,-0.8664922727411293
12227,13.0,300.28164,36189.525,0.0,-0.06113466729510508,-0.061133853615847666,0.0,0.0,0.0,-2.6886164825207874,-4.245964255669046,-4.0661310067208865,0.008428849132987642,0.005712817446486183,-0.8597409163973222
12228,13.0,300.24916,36262.102999999996,0.0,-0.061139681783843436,-0.061138855826034844,0.0,0.0,0.0,-2.6853473323981474,-4.255940310853606,-4.081486102711317,-0.0014825632283175987,-0.0038187955427357763,-0.8582272828679383
12229,13.0,300.32561,36353.437000000005,0.0,-0.06114466328252455,-0.0611438580362218,0.0,0.0,0.0,-2.696700698443637,-4.2602566549545955,-4.093579647954857,-0.004356054081684066,-0.008738243024522441,-0.8496533733042592
12230,13.0,300.1437,36338.693,0.0,-0.06114967777126279,-0.061148860246408976,0.0,0.0,0.0,-2.7044878294371677,-4.253474668060266,-4.088092594688326,-0.0016901994520596986,0.003907118527452577,-0.8473108606630712
12231,13.0,299.85126,36332.335,0.0,-0.0611546592699439,-0.06115386245659593,0.0,0.0,0.0,-2.7028317734737275,-4.259903131994705,-4.081387614801597,-0.0004702836699258845,0.01131419683637429,-0.8572570148371802
12232,13.0,300.08554,36354.943,0.0,-0.06115967375868214,-0.061158864666783,0.0,0.0,0.0,-2.7119092784696073,-4.2531996719831255,-4.085885938620546,-0.003976205972270976,0.0033254512631214865,-0.8549340072604172
12233,13.0,299.96741000000003,36348.984,0.0,-0.06116465525736303,-0.06116386687697006,0.0,0.0,0.0,-2.7122855995567474,-4.255015618812346,-4.081882283500416,-0.007705410853089843,-0.0018664477208290482,-0.8583842049109252
12234,13.0,299.97652,36295.941,0.0,-0.06116966974610161,-0.06116886908715713,0.0,0.0,0.0,-2.6960805893824373,-4.250111285678326,-4.086867980617466,0.0026879315254531876,0.004838342080182185,-0.8577267170535362
12235,13.0,300.03853,36216.082,0.0,-0.06117468423483985,-0.06117387129734431,0.0,0.0,0.0,-2.6879824919332176,-4.243833998658806,-4.076968223165436,0.0020803604209905877,0.0014012008664877587,-0.8576806851014932
12236,13.0,299.99974,36216.578,0.0,-0.06117966573352074,-0.06117884059825385,0.0,0.0,0.0,-2.6853485482982675,-4.251300537320696,-4.072286197103357,0.008932189023513422,-0.005165644153984385,-0.8607640254207951
12237,13.0,300.22135,36321.352999999996,0.0,-0.06118468022225931,-0.0611838428084408,0.0,0.0,0.0,-2.6992178143420578,-4.256904316998746,-4.0846622364747756,0.005485846992285944,-0.006856738508532404,-0.8597169631649582
12238,13.0,300.25095,36385.43,0.0,-0.06118966172093998,-0.06118884501862798,0.0,0.0,0.0,-2.7063991231007978,-4.268046116423355,-4.085816936288736,0.006719494086462433,0.0056581893845698145,-0.8631089901272251
12239,13.0,300.11416,36327.988,0.0,-0.061194676209678445,-0.061193847228814935,0.0,0.0,0.0,-2.7021044625519473,-4.261041417157046,-4.0796553624306355,0.0025367215785799275,0.002903265308879977,-0.8566337647006702
12240,13.0,300.21238999999997,36297.452000000005,0.0,-0.061199657708359334,-0.06119884943900211,0.0,0.0,0.0,-2.6846248850768477,-4.261174355570166,-4.087719819976536,-0.0008898776797490891,-0.0050681769924151255,-0.8624656067112282
12241,13.0,299.90799,36337.544,0.0,-0.06120467219709769,-0.06120385164918929,0.0,0.0,0.0,-2.698398196336168,-4.2637193358463366,-4.083588495343807,-0.0012892243687865387,0.00015885225402999684,-0.8514607176401302
12242,13.0,299.81641,36393.451,0.0,-0.06120968668583615,-0.061208853859376244,0.0,0.0,0.0,-2.703555335370137,-4.2658889069604555,-4.0932560158729165,5.1281547108844644e-05,0.005206484820465046,-0.8614485366583511
12243,13.0,300.02258,36368.509,0.0,-0.06121466818451704,-0.06121385606956342,0.0,0.0,0.0,-2.7070209546871675,-4.265307808028106,-4.082789750289976,-0.0015930987830516084,0.005939780706610714,-0.8572230202963252
12244,13.0,299.86987999999997,36258.842000000004,0.0,-0.061219682673255504,-0.06121885827975038,0.0,0.0,0.0,-2.6873081739916675,-4.2587565381815455,-4.075717771217026,-0.0010513262149078192,-0.0036757511757683965,-0.8640776065603202
12245,13.0,299.869,36301.136,0.0,-0.061224664171936394,-0.061223860489937554,0.0,0.0,0.0,-2.6953487188352074,-4.2522910906184554,-4.086999196505416,-0.0003248684497120197,-0.0036107956635327864,-0.8555515527988642
12246,13.0,300.00115,36422.94,0.0,-0.06122967866067497,-0.06122886270012473,0.0,0.0,0.0,-2.702727510038437,-4.2713735284267464,-4.097563139397996,0.00025989010895165676,0.0005594085711693274,-0.8602018742653152
12247,13.0,299.90962,36424.965,0.0,-0.06123466015935586,-0.0612338649103118,0.0,0.0,0.0,-2.7194099636598676,-4.260144589493537,-4.092725275470536,-0.0002954411539477717,-0.0019438300362660881,-0.8548503634646621
12248,13.0,300.05992000000003,36342.393,0.0,-0.0612396746480941,-0.06123886712049875,0.0,0.0,0.0,-2.700150713709127,-4.259122828092695,-4.087906460644956,0.004466841733042956,-0.007251838261100713,-0.8575126477049092
12249,13.0,300.16539,36357.782,0.0,-0.06124465614677499,-0.06124386933068571,0.0,0.0,0.0,-2.7081373536473476,-4.2611978629724865,-4.082522657563616,0.003385344780507517,-0.0007569588426210213,-0.8584526702201821
12250,13.0,300.20797999999996,36426.71,0.0,-0.061249670635513564,-0.061248871540872885,0.0,0.0,0.0,-2.712016885630227,-4.260161612095216,-4.100631767325846,0.005764656740152324,-0.0012725231700382589,-0.8513386007380782
12251,13.0,300.16773,36468.35,0.0,-0.061254685124251806,-0.061253840841782425,0.0,0.0,0.0,-2.713315264308368,-4.268294869322905,-4.103857449019196,-0.0012224338606198289,-0.0012432927285034388,-0.8554857624698712
12252,13.0,300.07583,36419.391,0.0,-0.061259666622932696,-0.06125884305196938,0.0,0.0,0.0,-2.7005706045505673,-4.266218111917945,-4.103796755338206,-0.006221174242232094,0.001201018009156249,-0.8571837973849543
12253,13.0,300.09327,36365.486000000004,0.0,-0.06126468111167116,-0.06126384526215656,0.0,0.0,0.0,-2.707861141670087,-4.255147645300376,-4.091190809519096,-0.004400662113361536,0.002470841475628068,-0.8568174061487941
12254,13.0,299.9472,36372.601,0.0,-0.06126966261035194,-0.061268847472343735,0.0,0.0,0.0,-2.7012905187466174,-4.269862164577586,-4.085209594178796,-0.005447844338010375,0.0017855376738438481,-0.8681451774967582
12255,13.0,299.67134,36389.285,0.0,-0.0612746770990904,-0.06127384968253069,0.0,0.0,0.0,-2.7131734092943676,-4.259493677629296,-4.088767013954886,-0.0007358248064077543,0.0006408937389112874,-0.8624877968884181
12256,13.0,299.81486,36388.492999999995,0.0,-0.06127965859777129,-0.06127885189271787,0.0,0.0,0.0,-2.7000465515988474,-4.269876046103955,-4.091270653626975,-0.0016721767725309984,-0.0036142896538526167,-0.8657899586993161
12257,13.0,299.96477000000004,36337.635,0.0,-0.061284673086509756,-0.06128385410290482,0.0,0.0,0.0,-2.6877123594565577,-4.266004012171816,-4.0920173176256665,0.004870753620405955,-0.0033026130111675272,-0.8563409151567682
12258,13.0,300.08395,36384.026,0.0,-0.061289654585190645,-0.061288856313092,0.0,0.0,0.0,-2.6925338087323976,-4.269787488045217,-4.097513996768146,0.002179033654153878,-0.004710186106209175,-0.8606980527067842
12259,13.0,300.06314,36482.133,0.0,-0.06129466907392922,-0.06129385852327918,0.0,0.0,0.0,-2.7153649679356575,-4.274295640390136,-4.099996763488176,0.005474432628584434,-0.00024796625270236377,-0.8561020211806912
12260,13.0,299.96995,36507.204,0.0,-0.06129968356266746,-0.06129886073346624,0.0,0.0,0.0,-2.7163766981605075,-4.275397245898856,-4.1055045883817565,0.0034254428359898866,0.0014109338429733286,-0.8619918312294701
12261,13.0,300.14271,36454.516,0.0,-0.06130466506134835,-0.06130386294365342,0.0,0.0,0.0,-2.7195674227254076,-4.268003357269136,-4.093691916065936,-0.0034314973093124168,0.000919480460298156,-0.8592316264995592
12262,13.0,300.0941,36436.513999999996,0.0,-0.061309679550086815,-0.061308865153840375,0.0,0.0,0.0,-2.7066368315742575,-4.270256217541476,-4.098897285804666,-0.006497533242081603,-0.009196820970680562,-0.8671773311337392
12263,13.0,300.13917999999995,36435.168,0.0,-0.061314661048767705,-0.06131386736402733,0.0,0.0,0.0,-2.7054794973100376,-4.2661093901822165,-4.103792398362776,-0.0018566550639125881,-0.0012077253195182088,-0.8572559813220781
12264,13.0,299.90868,36430.914,0.0,-0.06131967553750606,-0.06131886957421451,0.0,0.0,0.0,-2.7105858725139975,-4.268702499838136,-4.094799905050286,-8.673580240240722e-05,0.0040212173788132565,-0.8616623830919562
12265,13.0,299.79587999999995,36436.068999999996,0.0,-0.06132465703618695,-0.06132383887512405,0.0,0.0,0.0,-2.715916378640077,-4.264416046615096,-4.095322742101886,0.0018749254830907381,0.0036062801144621367,-0.8542531538557222
12266,13.0,300.07968999999997,36429.241,0.0,-0.06132967152492541,-0.061328841085311225,0.0,0.0,0.0,-2.714932512792977,-4.269284308045556,-4.089362805013686,-0.0007274517939414021,0.0014988052221205587,-0.8646400515583292
12267,13.0,300.05947000000003,36471.003,0.0,-0.061334686013663764,-0.06133384329549818,0.0,0.0,0.0,-2.7163595742338176,-4.273834104969586,-4.096080551851676,-0.0008023484042331222,0.0017602624540743782,-0.8565655729689401
12268,13.0,299.7193,36514.718,0.0,-0.06133966751234465,-0.061338845505685136,0.0,0.0,0.0,-2.7161911720671976,-4.2745051805108165,-4.108866248238526,0.006765808026008263,-0.004993913663435905,-0.8583800100555111
12269,13.0,299.94363,36532.753,0.0,-0.06134468200108312,-0.06134384771587231,0.0,0.0,0.0,-2.7123635184894375,-4.281261329527596,-4.111419841140546,-0.0013876189581723286,6.191358952739554e-05,-0.8530930230212261
12270,13.0,300.07941,36468.492,0.0,-0.06134966349976401,-0.06134884992605927,0.0,0.0,0.0,-2.7097422404807374,-4.274183068304025,-4.101585742294996,0.005123711305220935,-0.0003709550159354097,-0.8645863797005321
12271,13.0,300.0671,36465.293,0.0,-0.06135467798850236,-0.061353852136246445,0.0,0.0,0.0,-2.709153947472677,-4.281515553977686,-4.093869032183417,0.0014424898961376688,0.007493893678814723,-0.8665159929259703
12272,13.0,300.19021000000004,36446.306000000004,0.0,-0.06135965948718336,-0.06135885434643362,0.0,0.0,0.0,-2.708230370006527,-4.280949248496796,-4.089587341235846,0.0017987081012936683,0.008196057252987873,-0.8743185151885191
12273,13.0,300.25507999999996,36416.539,0.0,-0.06136467397592171,-0.06136385655662069,0.0,0.0,0.0,-2.7056534723522074,-4.268958548138405,-4.095106717180566,-0.0042447367031728965,0.001048290618933229,-0.8676903599243712
12274,13.0,300.10294,36416.461,0.0,-0.0613696554746026,-0.061368858766807866,0.0,0.0,0.0,-2.6923837463925873,-4.280377471465366,-4.096933607110866,-0.003603567947919466,-0.0042219415143481855,-0.8717154959466212
12275,13.0,299.92626,36430.602999999996,0.0,-0.061374669963341066,-0.06137386097699482,0.0,0.0,0.0,-2.6993278533029175,-4.274274970088095,-4.100390917777076,-0.008381533190417923,0.001059987071462579,-0.8606290909049782
12276,13.0,299.99368,36479.053,0.0,-0.06137968445207942,-0.061378863187182,0.0,0.0,0.0,-2.705028195715497,-4.276449202152675,-4.107243730853396,-0.0008210824359945272,-0.004595583264248756,-0.8607865601030191
12277,13.0,299.99735,36535.726,0.0,-0.06138466595076031,-0.061383865397369175,0.0,0.0,0.0,-2.7243949515018477,-4.276895538821726,-4.104657815273185,-0.0007854538165707562,0.0026345425670841072,-0.8595813295065723
12278,13.0,299.80732,36583.477,0.0,-0.06138968043949877,-0.06138886760755613,0.0,0.0,0.0,-2.727132550622027,-4.280082615686266,-4.113248250945996,0.004739839275685716,0.0020341250083275083,-0.8595770029286453
12279,13.0,299.87962000000005,36561.821,0.0,-0.06139466193817966,-0.06139383690846567,0.0,0.0,0.0,-2.723544733342937,-4.279187105247886,-4.111148695413786,0.005911233600943333,0.007609902506613904,-0.8558007008659532
12280,13.0,300.07005,36550.927,0.0,-0.061399676426918015,-0.06139883911865285,0.0,0.0,0.0,-2.7154292079919973,-4.279548430233546,-4.115591391802246,0.004204300222157125,0.000998536127877843,-0.8557621365671472
12281,13.0,299.99951,36552.321,0.0,-0.061404657925598904,-0.0614038413288398,0.0,0.0,0.0,-2.7162491299729177,-4.276300051737955,-4.118443488183726,0.004883796074368146,-0.004023762865714476,-0.8574159127178621
12282,13.0,300.18348,36543.929,0.0,-0.06140967241433737,-0.06140884353902676,0.0,0.0,0.0,-2.7184919590692678,-4.278709661800766,-4.111240191897816,0.00035028802722323666,-0.0048034298387116155,-0.8604183754141821
12283,13.0,300.1163,36513.163,0.0,-0.061414653913018036,-0.061413845749213825,0.0,0.0,0.0,-2.7173401976805978,-4.280075218960536,-4.101674300353736,0.0008258556950956113,0.005576402166973045,-0.8679006093201211
12284,13.0,299.90904,36471.857,0.0,-0.06141966840175661,-0.061418847959401,0.0,0.0,0.0,-2.711201421949747,-4.278460908901216,-4.096871596204746,-0.005275849389185795,0.0009067229423965872,-0.8671367403347332
12285,13.0,299.95976,36514.934,0.0,-0.061424682890495075,-0.06142385016958807,0.0,0.0,0.0,-2.7132255916745174,-4.284276255200146,-4.102126311223346,-0.002904858948637257,-0.0038408420410615965,-0.8708568475468792
12286,13.0,300.12075,36561.348,0.0,-0.061429664389175964,-0.061428852379775134,0.0,0.0,0.0,-2.710134368269437,-4.282397993489775,-4.121204392056206,4.985252806881145e-05,-0.0006809222550392943,-0.8577423008400742
12287,13.0,299.91896,36565.934,0.0,-0.06143467887791432,-0.06143385458996231,0.0,0.0,0.0,-2.714628031137927,-4.288444563461526,-4.112058188703546,0.0030393047739310274,0.0056589509433449744,-0.8594696693455521
12288,13.0,300.07204,36589.79,0.0,-0.06143966037659532,-0.061438856800149266,0.0,0.0,0.0,-2.7156680310405674,-4.286347034429516,-4.1203674474736065,0.002184999265442638,-0.004045795583838936,-0.8554325465746191
12289,13.0,300.19493,36593.476,0.0,-0.06144467486533367,-0.061443859010336443,0.0,0.0,0.0,-2.7261576013758075,-4.291852630172876,-4.105492834680596,0.0014777593082684886,-0.003127886340073347,-0.8676747862703341
12290,13.0,300.10682,36610.248999999996,0.0,-0.06144965636401456,-0.06144886122052362,0.0,0.0,0.0,-2.7236842578817075,-4.296266854233526,-4.108650628617246,0.001018246740218129,0.002443176910797788,-0.8689362218498282
12291,13.0,299.96061000000003,36590.742999999995,0.0,-0.061454670852753024,-0.061453863430710576,0.0,0.0,0.0,-2.724868949898627,-4.286203051590306,-4.111600300983357,0.002428015142926438,0.004768851665799016,-0.8692850331967532
12292,13.0,299.90828999999997,36528.648,0.0,-0.06145968534149138,-0.06145886564089775,0.0,0.0,0.0,-2.705210378083477,-4.286722240941546,-4.111864151309397,-0.006501553818478403,0.00013999954028437887,-0.8678821580358
12293,13.0,299.83096,36476.351,0.0,-0.061464666840172266,-0.061463834941807294,0.0,0.0,0.0,-2.7062571667617874,-4.278517650906816,-4.103125071846916,-0.002208426317029708,-0.0006509656678203093,-0.8659812197881921
12294,13.0,299.83752999999996,36530.621,0.0,-0.06146968132891073,-0.06146883715199425,0.0,0.0,0.0,-2.7157832375769373,-4.281187159620276,-4.107426014546386,0.0058503763813871935,0.0025211143859646176,-0.8627971218789463
12295,13.0,299.83372,36576.321,0.0,-0.06147466282759162,-0.061473839362181426,0.0,0.0,0.0,-2.731905971843127,-4.283485008197056,-4.102897191899426,0.002076566204666128,0.005383368701022125,-0.8655829111738822
12296,13.0,300.03218,36641.104,0.0,-0.06147967731632997,-0.06147884157236838,0.0,0.0,0.0,-2.732294046631427,-4.289769590617296,-4.115917050384386,6.036567977362874e-05,-0.0069455421790966445,-0.8617879551768491
12297,13.0,300.08211,36645.566,0.0,-0.06148465881501086,-0.06148384378255556,0.0,0.0,0.0,-2.728041030661687,-4.294695202003417,-4.116600994201886,-0.0038171119263696166,-0.005105758337299115,-0.8658586063935912
12298,13.0,300.00436,36638.712999999996,0.0,-0.061489673303749326,-0.061488845992742625,0.0,0.0,0.0,-2.7228550139998675,-4.291819699544625,-4.122579271116896,-0.0025310099890912376,0.0022965848512552776,-0.8589600248102541
12299,13.0,299.9755,36676.712,0.0,-0.061494654802430215,-0.06149384820292958,0.0,0.0,0.0,-2.726361467295927,-4.296577719364206,-4.125865443841216,0.0007720031849382823,0.0014763816934325285,-0.8627504718443423
12300,13.0,299.95704,36628.462999999996,0.0,-0.06149966929116846,-0.06149885041311676,0.0,0.0,0.0,-2.7185055366206075,-4.296562621937716,-4.119070082045567,-0.0024257912616069575,-0.0036057856484133367,-0.8620937236595262
12301,13.0,299.89322000000004,36544.115,0.0,-0.06150468377990703,-0.06150385262330371,0.0,0.0,0.0,-2.714426293043018,-4.291294025392746,-4.102778033687666,0.00019285848779115083,-0.005749035868660665,-0.8760190426988481
12302,13.0,300.13222,36496.818999999996,0.0,-0.06150966527858792,-0.06150885483349089,0.0,0.0,0.0,-2.7054947973865473,-4.282199801770217,-4.106427152597806,0.0015197123207089285,-7.4231344726563335e-06,-0.8735725300673962
12303,13.0,300.11092,36524.039,0.0,-0.061514679767326386,-0.061513857043678066,0.0,0.0,0.0,-2.7081860909771573,-4.289561266396737,-4.104648493372266,-0.0003454316106864457,0.0034475333093700465,-0.8735017038854062
12304,13.0,300.08973,36612.325,0.0,-0.061519661266007275,-0.06151885925386502,0.0,0.0,0.0,-2.717617321582947,-4.285784680624016,-4.125830790687796,-0.0015759689795110286,-0.0025502534323404175,-0.8636695099500441
12305,13.0,299.863,36673.155,0.0,-0.06152467575474563,-0.0615238614640522,0.0,0.0,0.0,-2.7250272195642475,-4.300226939599355,-4.122469029506016,-0.005711054593962204,-0.003372901258679437,-0.8665080895751901
12306,13.0,299.67908,36674.613,0.0,-0.06152965725342652,-0.061528863674239154,0.0,0.0,0.0,-2.7237173911599775,-4.301784811628106,-4.122664384125296,-1.3035548662758489e-05,0.001972571584627658,-0.8661352540683942
12307,13.0,299.59078,36709.442,0.0,-0.06153467174216498,-0.06153386588442633,0.0,0.0,0.0,-2.7330619888822176,-4.305048591525217,-4.120643254150826,0.0036108073159089368,-0.002125608928056268,-0.8648778005617933
12308,13.0,299.80318,36716.93,0.0,-0.06153965324084587,-0.06153883518533587,0.0,0.0,0.0,-2.7327086685723474,-4.305342434054216,-4.122978694306316,0.0003840420326369976,-0.004754983514330336,-0.8726923399705282
12309,13.0,299.97244,36673.026,0.0,-0.061544667729584224,-0.06154383739552283,0.0,0.0,0.0,-2.7277530649832675,-4.291613807124306,-4.128317205108186,0.0007642524397558433,-0.0013454173954823585,-0.8669166522805121
12310,13.0,300.11303,36623.269,0.0,-0.06154968221832269,-0.061548839605710004,0.0,0.0,0.0,-2.718494694844537,-4.290376730077216,-4.123687766726296,-0.004621621258693506,0.009435236895360381,-0.8679411393241212
12311,13.0,299.86237,36599.352999999996,0.0,-0.06155466371700358,-0.06155384181589718,0.0,0.0,0.0,-2.720111538029107,-4.285621142057876,-4.119556644743586,-0.001716437664724208,0.004558520196790916,-0.8638291373707983
12312,13.0,299.84907999999996,36652.419,0.0,-0.06155967820574182,-0.06155884402608425,0.0,0.0,0.0,-2.7259548500307975,-4.287600424803216,-4.127864788938536,0.0008630823315170942,0.0008779961773539762,-0.8583013311852462
12313,13.0,300.09882999999996,36726.656,0.0,-0.06156465970442271,-0.0615638462362712,0.0,0.0,0.0,-2.737752120945097,-4.299014889829736,-4.127219348624836,0.0025168504268937974,0.0009268751696604573,-0.8615793877762652
12314,13.0,299.98811,36740.238,0.0,-0.06156967419316128,-0.06156884844645816,0.0,0.0,0.0,-2.7304632050257376,-4.302675255815986,-4.134976588740416,0.0040148966233644464,-0.0038544797794575363,-0.8627070642100582
12315,13.0,300.02862000000005,36715.36,0.0,-0.06157465569184217,-0.061573850656645335,0.0,0.0,0.0,-2.7311612330196273,-4.304120150458586,-4.125271273982576,0.003445792748348267,-0.0031289592706042367,-0.8676195540073832
12316,13.0,300.23062999999996,36740.517,0.0,-0.06157967018058064,-0.06157885286683251,0.0,0.0,0.0,-2.7294370866494675,-4.307412200033486,-4.131350369282536,-0.000900463275796306,-0.0023794764101360377,-0.8653713141554991
12317,13.0,300.10222000000005,36748.707,0.0,-0.06158468466931888,-0.06158385507701947,0.0,0.0,0.0,-2.7370557141513676,-4.305231989793316,-4.128401710166526,0.002185752008941928,0.0011508570629557488,-0.8702798218799312
12318,13.0,299.86347,36722.132000000005,0.0,-0.06158966616799988,-0.061588857287206644,0.0,0.0,0.0,-2.7326622617177674,-4.306511218044566,-4.123437696601616,-0.004290502677064646,0.006842458876198112,-0.8690256918336583
12319,13.0,299.95954,36653.164,0.0,-0.06159468065673834,-0.0615938594973936,0.0,0.0,0.0,-2.726143415874408,-4.299276814980586,-4.116226395639916,0.0006644381957874445,-0.00041907604650458566,-0.8752163966321332
12320,13.0,299.76567,36613.513999999996,0.0,-0.06159966215541923,-0.061598861707580777,0.0,0.0,0.0,-2.7100099411571574,-4.296091156666186,-4.123493020057076,-0.0017264941719667083,-0.004853602943913316,-0.8715149129568251
12321,13.0,299.87973,36724.566,0.0,-0.061604676644157474,-0.061603863917767954,0.0,0.0,0.0,-2.729094506790658,-4.305159238436136,-4.129097306360176,0.005156071473664635,0.0006167536733613484,-0.8718712527519932
12322,13.0,299.9611,36788.84,0.0,-0.061609658142838364,-0.06160883321867727,0.0,0.0,0.0,-2.733010921077177,-4.307135380106166,-4.142742340156836,0.0056169742208521944,0.0014254659772325387,-0.8657516578455362
12323,13.0,300.00581,36716.719,0.0,-0.06161467263157694,-0.06161383542886445,0.0,0.0,0.0,-2.735913375988627,-4.302805154478805,-4.122247127734116,0.0016395956142404885,0.0006616911531763324,-0.8669673249180132
12324,13.0,300.10877,36665.492999999995,0.0,-0.06161965413025783,-0.06161883763905163,0.0,0.0,0.0,-2.7257810776386475,-4.2953545238434865,-4.124258631832635,-0.002119641492917328,0.003784947315195216,-0.8664159344785951
12325,13.0,300.24093999999997,36742.801,0.0,-0.06162466861899607,-0.06162383984923869,0.0,0.0,0.0,-2.7390294240211577,-4.303870586958955,-4.125994227928926,0.0013976000796073888,0.0020325190069190083,-0.8628484024665071
12326,13.0,300.05562000000003,36814.497,0.0,-0.061629683107734645,-0.06162884205942587,0.0,0.0,0.0,-2.731531677256187,-4.316955901400376,-4.142200454003357,-0.004616440409607196,0.0015180056022404884,-0.8724325831748921
12327,13.0,299.98749,36800.516,0.0,-0.061634664606415535,-0.061633844269612825,0.0,0.0,0.0,-2.7384772027166573,-4.309141007354105,-4.138819846369716,-0.005318803188750006,-0.008901388145648611,-0.8707171000930872
12328,13.0,299.82847999999996,36712.873,0.0,-0.061639679095153777,-0.0616388464798,0.0,0.0,0.0,-2.7229419508584476,-4.306901116683046,-4.129953604019685,-0.004386899542553276,-0.005589861776001405,-0.8753438330972102
12329,13.0,299.97807,36725.316,0.0,-0.06164466059383489,-0.06164384868998696,0.0,0.0,0.0,-2.7386578652094875,-4.301036121129216,-4.123884945195756,0.0012829824441955087,0.0020380905652438784,-0.8664873280806412
12330,13.0,300.01602,36770.29,0.0,-0.06164967508257313,-0.06164885090017391,0.0,0.0,0.0,-2.7343223706816073,-4.305929916462196,-4.136997718714886,0.00829875714204856,0.004305764250070846,-0.8714898451493511
12331,13.0,299.87945,36747.841,0.0,-0.06165465658125402,-0.06165385311036109,0.0,0.0,0.0,-2.7352894165770474,-4.305134515133696,-4.130002240024486,0.006568938293853735,-0.000893297550824104,-0.8642517842525101
12332,13.0,300.20827,36726.66,0.0,-0.061659671069992594,-0.061658855320548156,0.0,0.0,0.0,-2.7155173607506975,-4.306724101890576,-4.141746112658516,0.0005250043023713904,-0.002985339478905067,-0.8710856394194592
12333,13.0,300.09458,36716.451,0.0,-0.061664652568673484,-0.06166385753073522,0.0,0.0,0.0,-2.7263441407192177,-4.307129604580596,-4.127410751568726,-0.002245253702514288,-0.0025720011232117476,-0.8667054808271711
12334,13.0,300.13993,36814.15,0.0,-0.061669667057411726,-0.0616688597409224,0.0,0.0,0.0,-2.7337748103275676,-4.321417444240696,-4.1353899947812165,-0.0036915968874572467,-0.0003712751016419997,-0.8777712864942812
12335,13.0,300.2812,36877.111000000004,0.0,-0.0616746815461503,-0.061673861951109465,0.0,0.0,0.0,-2.753510085175287,-4.3166661118717755,-4.139544725491256,-0.008725374140302382,-0.0019518568009082682,-0.8699192061693412
12336,13.0,300.24037999999996,36766.132000000005,0.0,-0.06167966304483119,-0.061678831252018895,0.0,0.0,0.0,-2.7308110537850676,-4.3177422848029865,-4.127432739095895,-0.006018778851982224,0.002164929212761878,-0.8755727364273012
12337,13.0,300.21296,36720.589,0.0,-0.06168467753356943,-0.06168383346220607,0.0,0.0,0.0,-2.7201201506549575,-4.310463805359655,-4.131558186878046,-0.0014165531253779087,0.0008396366057306812,-0.8713576970713091
12338,13.0,300.32543,36763.102,0.0,-0.06168965903225032,-0.06168883567239314,0.0,0.0,0.0,-2.7223930732792776,-4.311245831786836,-4.141426128276936,0.0001309839853996129,0.000878711420467065,-0.8751530583683821
12339,13.0,300.05701,36805.477,0.0,-0.061694673520988785,-0.061693837882580316,0.0,0.0,0.0,-2.7327395727003974,-4.318773064129716,-4.136433338409186,-0.0002969759340067427,-0.005448331204683425,-0.8718058170605351
12340,13.0,300.14225,36785.358,0.0,-0.061699655019669786,-0.06169884009276727,0.0,0.0,0.0,-2.7344833761224976,-4.307819222598655,-4.139527804214587,0.005902332097489824,-0.003596829226804406,-0.8720627367558912
12341,13.0,300.04447999999996,36779.93,0.0,-0.06170466950840803,-0.06170384230295445,0.0,0.0,0.0,-2.743662712753427,-4.312713321906666,-4.123804290487796,-0.0025986993514216573,0.006971376307621273,-0.8692483839406362
12342,13.0,299.88773,36799.102,0.0,-0.06170968399714649,-0.061708844513141625,0.0,0.0,0.0,-2.7367225575184873,-4.314483064531326,-4.134802613698246,-0.001294538966886049,0.005918031191889204,-0.8711406994298933
12343,13.0,299.84934,36880.665,0.0,-0.06171466549582738,-0.06171384672332858,0.0,0.0,0.0,-2.741633780753187,-4.319270873903846,-4.149896493812896,-0.001985079650487108,0.0036102955232834265,-0.8647571630048871
12344,13.0,299.76155,36926.716,0.0,-0.061719679984565734,-0.061718848933515535,0.0,0.0,0.0,-2.734169572566527,-4.331730101108476,-4.158900031551476,-0.001995085697874628,0.003065554841621707,-0.8677196833822651
12345,13.0,299.93731,36866.675,0.0,-0.061724661483246845,-0.0617238511437026,0.0,0.0,0.0,-2.7457015746046474,-4.312197678930776,-4.148649284264806,0.004743675744539345,-0.0033581210807957468,-0.8640071856783702
12346,13.0,300.1448,36784.57,0.0,-0.06172967597198509,-0.06172885335388978,0.0,0.0,0.0,-2.7297370086790678,-4.319915098317425,-4.131938763615606,-0.0008073136235656512,-0.005128154001609395,-0.8746418736929321
12347,13.0,300.1154,36792.352,0.0,-0.06173465747066598,-0.061733855564076845,0.0,0.0,0.0,-2.7480675135881474,-4.311552137292066,-4.124336652090336,-9.67655324845145e-05,-0.004076582174877336,-0.8689718882533481
12348,13.0,300.09407000000004,36828.984,0.0,-0.06173967195940455,-0.06173885777426391,0.0,0.0,0.0,-2.7363993307365875,-4.314624412920276,-4.144067772612646,0.0009444673192216672,-0.0009474339736594531,-0.8742395830057292
12349,13.0,300.11961,36791.867999999995,0.0,-0.06174465345808544,-0.06174385998445109,0.0,0.0,0.0,-2.7287889105604974,-4.322053056028426,-4.132967111142096,-0.0037843597314622265,0.007464644694803072,-0.8760837184527311
12350,13.0,300.06647999999996,36792.949,0.0,-0.06174966794682368,-0.06174886219463804,0.0,0.0,0.0,-2.7212919743956077,-4.315251614732176,-4.147594085610666,-0.0025770729465872974,0.0023225265869405275,-0.8780726270740212
12351,13.0,299.94812,36839.417,0.0,-0.06175468243556215,-0.061753831495547584,0.0,0.0,0.0,-2.7401904059857376,-4.319099837286966,-4.138972441834776,-0.0033032371732291273,0.00041198337686459356,-0.877549263132369
12352,13.0,300.04607000000004,36909.329,0.0,-0.061759663934243036,-0.06175883370573476,0.0,0.0,0.0,-2.744964435156897,-4.327591278425006,-4.146958473822936,0.0012489804052897688,-0.0005591618042399735,-0.8779167689436391
12353,13.0,299.94086,36909.237,0.0,-0.06176467842298139,-0.061763835915921717,0.0,0.0,0.0,-2.7568842080082874,-4.318264817879555,-4.144337195814236,0.007158723008710953,-0.00035402187410673864,-0.8732064833362702
12354,13.0,299.79683,36883.302,0.0,-0.06176965992166228,-0.061768838126108894,0.0,0.0,0.0,-2.7394030093330275,-4.327610124876866,-4.144589697739156,0.006144543657044244,-0.004790380899948785,-0.8712986245904792
12355,13.0,299.93697000000003,36835.835,0.0,-0.06177467441040074,-0.06177384033629607,0.0,0.0,0.0,-2.7345787229569076,-4.314146361523096,-4.148448863395026,0.0013022857705255989,-0.0024518662396803576,-0.8724779666468712
12356,13.0,300.20519,36846.629,0.0,-0.06177965590908163,-0.061778842546483026,0.0,0.0,0.0,-2.731888746591427,-4.315111887543386,-4.153454420214036,-0.0015444596371762985,-0.0011732674193924788,-0.8636313408187772
12357,13.0,300.05785,36894.047999999995,0.0,-0.061784670397819985,-0.0617838447566702,0.0,0.0,0.0,-2.7447967422653474,-4.321899143338236,-4.148173462017846,-0.005051486027492855,0.0021576958229479978,-0.8716210306397982
12358,13.0,300.25467000000003,36912.42,0.0,-0.0617896518965011,-0.06178884696685716,0.0,0.0,0.0,-2.752025572453777,-4.3166819185733365,-4.151746587170486,-0.001167395939038009,-0.0068505257655442535,-0.8687466224911161
12359,13.0,300.10047000000003,36873.476,0.0,-0.06179466638523934,-0.061793849177044335,0.0,0.0,0.0,-2.750160280344687,-4.323235113595087,-4.135220579364495,-0.00031990036288170767,-0.0039716616468974866,-0.8746485611435921
12360,13.0,300.0498,36908.566,0.0,-0.06179968087397769,-0.0617988513872314,0.0,0.0,0.0,-2.7415260722675576,-4.325070514826225,-4.152685768688176,0.0037348555739765464,0.0009666819664015822,-0.8730476563830952
12361,13.0,300.09252999999995,36981.597,0.0,-0.06180466237265869,-0.06180385359741836,0.0,0.0,0.0,-2.752042797705477,-4.329819516719915,-4.159619743097506,0.004345128003205746,0.0047277014514128055,-0.8728222892958531
12362,13.0,299.87363999999997,36941.154,0.0,-0.06180967686139727,-0.061808855807605534,0.0,0.0,0.0,-2.7394245915601574,-4.336790069457855,-4.152973835691606,0.0024902439991429477,0.005129816643698486,-0.8761607153278302
12363,13.0,299.9343,36881.003,0.0,-0.061814658360077934,-0.06181385801779249,0.0,0.0,0.0,-2.7400513880720174,-4.321303352279436,-4.149549354328636,0.003555694211169697,0.005769591774764374,-0.8697117229463642
12364,13.0,299.9554,36862.184,0.0,-0.0618196728488164,-0.061818860227979666,0.0,0.0,0.0,-2.733923656767258,-4.3289614965352365,-4.142298435288026,0.00017689212841289384,0.0055812513793016254,-0.8775394346063992
12365,13.0,299.92002,36902.561,0.0,-0.06182465434749729,-0.06182382952888921,0.0,0.0,0.0,-2.745838363368147,-4.330165946929105,-4.141452878079576,0.003628321039912406,-0.001733155278124108,-0.8750199679677471
12366,13.0,299.97733,36934.676,0.0,-0.06182966883623564,-0.06182883173907616,0.0,0.0,0.0,-2.7366363299349774,-4.3351672480976955,-4.155415768432606,0.003070033812363747,-0.009775688219685311,-0.8769285258561073
12367,13.0,299.97508999999997,36926.383,0.0,-0.061834683324974105,-0.06183383394926334,0.0,0.0,0.0,-2.7395151761190975,-4.338488681925496,-4.146694522171886,0.002172011425660838,-0.0007755085945867393,-0.8737252775199712
12368,13.0,299.95276,36887.876000000004,0.0,-0.061839664823654994,-0.061838836159450516,0.0,0.0,0.0,-2.732539455805647,-4.327618737502716,-4.152835121752916,-0.00017768856325649582,-0.000985608161044452,-0.8772557245783992
12369,13.0,300.20644,36899.584,0.0,-0.06184467931239335,-0.06184383836963747,0.0,0.0,0.0,-2.7407812321190472,-4.3326891423281255,-4.143081778940336,-0.003808932262287346,0.00899421573633498,-0.8743847918775602
12370,13.0,299.99278,36948.83,0.0,-0.061849660811074236,-0.06184884057982465,0.0,0.0,0.0,-2.752907100040777,-4.332441909303726,-4.146172799695396,-0.004217063627041776,0.005944970168322875,-0.8759948665514622
12371,13.0,300.1517,36963.306000000004,0.0,-0.0618546752998127,-0.061853842790011604,0.0,0.0,0.0,-2.7560260864985975,-4.329430833981555,-4.150465231094026,0.004064341911019316,0.005002456071053976,-0.8747549524040921
12372,13.0,300.15047999999996,36947.622,0.0,-0.06185965679849359,-0.06185884500019878,0.0,0.0,0.0,-2.7463681918454372,-4.335672353272545,-4.149114062085676,0.0010821788698527391,0.002176864488339798,-0.8741578542526632
12373,13.0,299.9426,36988.276,0.0,-0.06186467128723194,-0.06186384721038596,0.0,0.0,0.0,-2.7535846603826473,-4.327688854409637,-4.1622387919559864,0.0013533320946634787,-0.0005815669019086844,-0.8719501646697811
12374,13.0,299.80157,37027.527,0.0,-0.06186965278591294,-0.061868849420573024,0.0,0.0,0.0,-2.760449531135157,-4.328525292367186,-4.166468807148456,0.0026802801699730575,-0.002042252996654678,-0.8688369942675351
12375,13.0,299.93912,37015.441,0.0,-0.06187466727465152,-0.06187385163075998,0.0,0.0,0.0,-2.7569209889869177,-4.339090552484896,-4.155758145641396,-0.002312876494313138,0.005320636462155934,-0.8744346235174782
12376,13.0,299.86826,36969.955,0.0,-0.06187968176338976,-0.061878853840946935,0.0,0.0,0.0,-2.7495829304377075,-4.3295850506467755,-4.158775300464166,0.006091134129698135,0.002121691601844658,-0.8727324748069892
12377,13.0,300.23073999999997,36966.084,0.0,-0.06188466326207065,-0.06188385605113411,0.0,0.0,0.0,-2.7460140609354875,-4.337594792687275,-4.153157537934736,-0.002927180747015247,-0.0002853495983843127,-0.8765263466264153
12378,13.0,300.10123,36972.972,0.0,-0.06188967775080911,-0.06188885826132129,0.0,0.0,0.0,-2.743067529644687,-4.331382961624215,-4.164409680295236,-0.002157012689730578,-0.007824202166988632,-0.8742548324197341
12379,13.0,300.0779,37000.74,0.0,-0.06189465924948989,-0.06189382756223083,0.0,0.0,0.0,-2.7520618468073574,-4.329945463707346,-4.165293741007486,-0.0027583880738067073,-0.01008401769199006,-0.8731972424953582
12380,13.0,300.06431000000003,36986.714,0.0,-0.061899673738228356,-0.061898829772417785,0.0,0.0,0.0,-2.740871411377947,-4.343598907479836,-4.158567280218636,-0.0030273762871287774,-0.001213478756236029,-0.8796248046372092
12381,13.0,300.08451,36972.392,0.0,-0.061904655236909245,-0.06190383198260496,0.0,0.0,0.0,-2.7452047780806175,-4.333623561570346,-4.159855526395776,-0.003792649941130406,0.0028694612590437775,-0.8743169345183632
12382,13.0,300.05266,37024.553,0.0,-0.0619096697256476,-0.06190883419279192,0.0,0.0,0.0,-2.747992026455697,-4.345724503539616,-4.160823078916266,3.242271231937257e-05,0.002344514519410568,-0.8790191343899342
12383,13.0,299.8012,37055.407999999996,0.0,-0.06191465122432849,-0.061913836402979094,0.0,0.0,0.0,-2.761038533418287,-4.340844792383026,-4.162035331335906,0.003102909927758367,0.002668237388559528,-0.8750978362379321
12384,13.0,299.57747,37022.244,0.0,-0.06191966571306695,-0.06191883861316605,0.0,0.0,0.0,-2.748155565021837,-4.336451137299406,-4.169231028246067,0.010812674513877888,-0.0024578268860436276,-0.8788287750936471
12385,13.0,299.77943999999997,36964.341,0.0,-0.061924680201805304,-0.06192384082335323,0.0,0.0,0.0,-2.7509865858012374,-4.330650381801916,-4.154599798127076,0.0007138402277955453,-0.005886623681189525,-0.8756127091437462
12386,13.0,300.04462,36969.91,0.0,-0.061929661700486194,-0.061928843033540404,0.0,0.0,0.0,-2.7475644349134973,-4.327652985356096,-4.162711979752686,-0.0009551143080924431,-0.0051918405194197655,-0.8790390042243952
12387,13.0,299.91829,37033.981,0.0,-0.06193467618922466,-0.06193384524372747,0.0,0.0,0.0,-2.760085166399197,-4.333945471127116,-4.163374949293116,-0.01047553479485479,0.0007595541915596623,-0.8788229590380732
12388,13.0,300.0392,37056.522000000004,0.0,-0.06193965768790577,-0.06193884745391465,0.0,0.0,0.0,-2.7584018540080675,-4.338540155030576,-4.167315377607006,-0.002232767624182008,4.531617190735796e-05,-0.8781143729781412
12389,13.0,300.0568,37060.542,0.0,-0.06194467217664401,-0.0619438496641016,0.0,0.0,0.0,-2.759294122046127,-4.332651348099396,-4.173533896120726,0.000986726515577325,-0.0005518898805247904,-0.8729669915426341
12390,13.0,300.09238,37084.775,0.0,-0.0619496536753249,-0.06194885187428878,0.0,0.0,0.0,-2.7589479958119676,-4.343242243444637,-4.170655151261617,0.0026883730998467676,-0.00043039553959923257,-0.8719017110499991
12391,13.0,300.09446,37111.53,0.0,-0.061954668164063365,-0.061953854084475735,0.0,0.0,0.0,-2.7656596631493575,-4.3427906378750665,-4.172528245396476,0.0013674826389350287,-0.007696801976265213,-0.8787145210123711
12392,13.0,300.1404,37096.627,0.0,-0.06195968265280172,-0.06195885629466269,0.0,0.0,0.0,-2.7553862190604472,-4.349992819585866,-4.171069266577486,0.004457668577237636,-0.0060787609274269945,-0.8773841844260771
12393,13.0,299.9327,37028.806000000004,0.0,-0.06196466415148261,-0.06196382559557223,0.0,0.0,0.0,-2.7524104048417573,-4.3493869973510755,-4.154034911196327,-0.0024963187374674777,0.0033454798738731563,-0.8844713926480301
12394,13.0,299.85823,36981.494,0.0,-0.06196967864022107,-0.06196882780575941,0.0,0.0,0.0,-2.7455538427400676,-4.340499780723976,-4.155397327280786,0.0045257058896523965,0.004645037164529475,-0.875118192432441
12395,13.0,299.96743,36999.742,0.0,-0.06197466013890185,-0.06197383001594636,0.0,0.0,0.0,-2.7445269137637176,-4.3491747214551255,-4.153295947898395,-0.003229269206654057,0.008963959379073912,-0.8840955072584331
12396,13.0,299.93494,37048.431000000004,0.0,-0.06197967462764031,-0.06197883222613354,0.0,0.0,0.0,-2.7502642398049475,-4.3411416746623255,-4.170392111535656,-0.0026782132410940675,-0.00034028221288323965,-0.875547729414833
12397,13.0,299.79364,37057.961,0.0,-0.0619846561263212,-0.061983834436320606,0.0,0.0,0.0,-2.7527593681761973,-4.3421345584353155,-4.169800778777296,0.0006712112052858884,-0.004502459095258116,-0.8811442238246642
12398,13.0,299.77272999999997,37091.024,0.0,-0.061989670615059445,-0.06198883664650767,0.0,0.0,0.0,-2.7519248553938374,-4.353489241705937,-4.169331137355946,-0.00019389140507559182,0.0012970395668078388,-0.8828291168859502
12399,13.0,299.97617,37112.678,0.0,-0.061994652113740445,-0.06199383885669485,0.0,0.0,0.0,-2.762205898858497,-4.347597496349466,-4.171523911897356,0.0012453735389087988,-8.202639122987452e-05,-0.8793411148742112
12400,13.0,300.11158,37116.351,0.0,-0.06199966660247891,-0.061998841066881916,0.0,0.0,0.0,-2.7604022123554874,-4.351414510801176,-4.170627185558856,-0.0041043229361151365,-0.0007677115742722332,-0.8798146370434441
12401,13.0,300.18634,37124.301,0.0,-0.06200468109121715,-0.06200384327706909,0.0,0.0,0.0,-2.765262570435168,-4.3464973093908865,-4.173100630377966,0.002342015844663968,0.0038076268921835165,-0.8741560607999862
12402,13.0,299.93064,37083.682,0.0,-0.06200966258989826,-0.06200884548725605,0.0,0.0,0.0,-2.758859437753227,-4.342828837403837,-4.170825174628396,0.005825344746941765,0.0023017542506154577,-0.874584229894743
12403,13.0,300.01497,37046.73,0.0,-0.062014677078636615,-0.062013847697443225,0.0,0.0,0.0,-2.7548827350857574,-4.346686685834576,-4.159711543556566,0.0004275592397868116,0.0015729377405118684,-0.8792612505013292
12404,13.0,300.28115,37100.11,0.0,-0.062019658577317616,-0.0620188499076304,0.0,0.0,0.0,-2.7574251822366773,-4.351690013503366,-4.168391854513246,0.003031843098869617,-0.005036411399130105,-0.8839444620660261
12405,13.0,300.1456,37135.55,0.0,-0.06202467306605597,-0.06202385211781736,0.0,0.0,0.0,-2.768474167952127,-4.3497196473589055,-4.170086008680446,-0.0010426308065246488,0.0006560229611894254,-0.8766194237806012
12406,13.0,300.0067,37123.614,0.0,-0.06202965456473686,-0.06202885432800431,0.0,0.0,0.0,-2.7588045195978075,-4.350544331615295,-4.175302929470316,0.007365966294064273,0.008487474871848553,-0.877856105660152
12407,13.0,299.61397999999997,37139.567,0.0,-0.06203466905347532,-0.06203385653819138,0.0,0.0,0.0,-2.7566294769331474,-4.345024550370536,-4.187846864383306,0.0012343833216991488,0.002140794912605008,-0.8759531713098472
12408,13.0,299.88417999999996,37148.5,0.0,-0.0620396505521561,-0.06203882583910103,0.0,0.0,0.0,-2.7577361486923673,-4.351458181880487,-4.183021970057125,-0.003044661928534737,0.0004438886061458945,-0.8802721599935981
12409,13.0,300.04204,37159.172999999995,0.0,-0.062044665040894564,-0.06204382804928821,0.0,0.0,0.0,-2.7594055795571273,-4.353660480972836,-4.182394666920216,-0.006767850434234833,-0.003973971755800476,-0.8783668039755542
12410,13.0,300.14337,37143.968,0.0,-0.06204967952963303,-0.06204883025947516,0.0,0.0,0.0,-2.762340255821757,-4.349222648184855,-4.179275781787406,-0.0007224731085150442,-0.0015155186811950485,-0.8823250857562062
12411,13.0,299.98705,37104.416,0.0,-0.062054661028313696,-0.06205383246966223,0.0,0.0,0.0,-2.7565976608800073,-4.353190738226476,-4.169027466300975,-0.0026312310631072876,-0.0033261635779417865,-0.8801592231374522
12412,13.0,300.33214,37104.837,0.0,-0.06205967551705227,-0.062058834679849406,0.0,0.0,0.0,-2.7536328910874075,-4.350113396347766,-4.175197754109936,0.001056266518420389,-0.0008960230213405871,-0.8813816485880961
12413,13.0,300.01703,37138.994,0.0,-0.06206465701573316,-0.06206383689003636,0.0,0.0,0.0,-2.751820389308527,-4.356869444039536,-4.180636880646736,0.0025641376944856875,0.004469875505167366,-0.8781937408584741
12414,13.0,300.33949,37163.895,0.0,-0.0620696715044714,-0.06206883910022354,0.0,0.0,0.0,-2.7589166863838774,-4.361083449880426,-4.176895961277536,0.004918271301070586,0.008875477212766403,-0.8848787495857331
12415,13.0,300.02572000000004,37147.165,0.0,-0.06207465300315251,-0.062073841310410494,0.0,0.0,0.0,-2.759396358981218,-4.358510909201536,-4.173903327107186,0.0001300334554808029,0.005078657747474495,-0.8798005933970583
12416,13.0,299.87976000000003,37146.247,0.0,-0.062079667491890866,-0.06207884352059767,0.0,0.0,0.0,-2.765939522826977,-4.361794751450625,-4.163797271934796,-0.003255846655452047,0.0031603837025805876,-0.8858661010131772
12417,13.0,299.77058,37168.172,0.0,-0.06208468198062911,-0.06208384573078485,0.0,0.0,0.0,-2.7748621018825674,-4.350657714301486,-4.172676483886106,0.00022980581169006775,-0.0015058950343952685,-0.8724293711720752
12418,13.0,300.00586,37193.002,0.0,-0.06208966347931022,-0.0620888479409718,0.0,0.0,0.0,-2.7649752127068075,-4.355124019417276,-4.185644565290956,-0.0030544984591805275,0.0014257524230358086,-0.8789391889570441
12419,13.0,300.28726,37168.841,0.0,-0.06209467796804846,-0.06209385015115898,0.0,0.0,0.0,-2.7653760544463677,-4.349539086191086,-4.183484316077756,-0.0016606680752451783,-0.004261135548091336,-0.8769389218021332
12420,13.0,300.20827,37165.562999999995,0.0,-0.06209965946672957,-0.062098852361345935,0.0,0.0,0.0,-2.7591692896338076,-4.352599304143105,-4.185634432789956,0.0014744843826202786,-0.001096091199025779,-0.8811914412793243
12421,13.0,299.76707999999996,37175.809,0.0,-0.062104673955467926,-0.06210385457153311,0.0,0.0,0.0,-2.7681253059426973,-4.3532961162368755,-4.179096132544676,-0.0021293414374496385,0.003597327441878577,-0.8799842449776832
12422,13.0,299.73238,37215.888,0.0,-0.062109655454148816,-0.06210882387244265,0.0,0.0,0.0,-2.775481400343687,-4.358388407264446,-4.178830964993506,0.004859723785117395,-0.0003888565614146546,-0.8846416997248381
12423,13.0,299.88647000000003,37203.107,0.0,-0.06211466994288728,-0.06211382608262961,0.0,0.0,0.0,-2.7783878069305272,-4.357876310663905,-4.172551448823766,0.0036555824325278964,-0.0015331953358145986,-0.8812786517154312
12424,13.0,299.7722,37176.733,0.0,-0.06211965144156795,-0.062118828292816786,0.0,0.0,0.0,-2.7657173170800475,-4.363100121554456,-4.171981090342476,-0.0016684803348411886,0.0049623324816690855,-0.8823947467005812
12425,13.0,299.9051,37151.448,0.0,-0.06212466593030652,-0.06212383050300385,0.0,0.0,0.0,-2.7620597881940774,-4.357329560909946,-4.173723069914396,0.0008504610450914701,0.004177972336858767,-0.878106469627361
12426,13.0,299.97786,37173.322,0.0,-0.062129680419044986,-0.06212883271319081,0.0,0.0,0.0,-2.7543961723877373,-4.367002552989596,-4.178363046097326,-0.006371860946753714,0.0030596398928379475,-0.881506906565458
12427,13.0,300.13299,37230.146,0.0,-0.06213466191772565,-0.062133834923377984,0.0,0.0,0.0,-2.7692924687328873,-4.365500207066326,-4.182241868805136,-0.0026116976276794874,0.0023144221060156776,-0.8864198421928272
12428,13.0,300.12347,37215.037000000004,0.0,-0.06213967640646412,-0.06213883713356494,0.0,0.0,0.0,-2.7666637939984575,-4.364102124578346,-4.181676069949296,-0.0023128862215140975,-0.0006993555440385184,-0.878384181214769
12429,13.0,300.1618,37175.722,0.0,-0.06214465790514501,-0.062143839343752116,0.0,0.0,0.0,-2.7574420021883372,-4.3633691394560055,-4.179679967252296,0.001943488672307398,-0.002016653638178218,-0.8861124626424912
12430,13.0,300.12034,37221.177,0.0,-0.06214967239388336,-0.062148841553939294,0.0,0.0,0.0,-2.756457123091137,-4.363904946108886,-4.193946326010276,-0.0009579819679954592,-0.011564775612604489,-0.8790784601832892
12431,13.0,300.10157000000004,37256.554,0.0,-0.06215465389256447,-0.06215384376412625,0.0,0.0,0.0,-2.7653416039429675,-4.365049716071867,-4.1946706985067665,0.0006587606008396094,-0.007268021385072863,-0.8819345487701632
12432,13.0,299.98578,37249.742,0.0,-0.06215966838130271,-0.062158845974313426,0.0,0.0,0.0,-2.7624013548027873,-4.3646056085530365,-4.195984579911436,0.002231988637505128,-0.0007186181073170852,-0.8804870298098041
12433,13.0,300.0804,37227.242,0.0,-0.062164649879983824,-0.06216384818450038,0.0,0.0,0.0,-2.7734535829185574,-4.359868461685516,-4.182829857838167,0.001092585353679779,0.0030637626048448273,-0.8801818186146823
12434,13.0,299.80658999999997,37233.544,0.0,-0.06216966436872218,-0.06216885039468756,0.0,0.0,0.0,-2.7761678772864373,-4.364399006857646,-4.177500770262226,-0.004536166683684796,0.004140036050464746,-0.8830397513167382
12435,13.0,299.95702,37298.004,0.0,-0.06217467885746064,-0.062173852604874735,0.0,0.0,0.0,-2.7839939170838073,-4.3648277129749555,-4.1888404574313665,-0.0008404226851582612,-0.002059575013739228,-0.8767572561917042
12436,13.0,299.84103999999996,37322.627,0.0,-0.06217966035614153,-0.062178821905784054,0.0,0.0,0.0,-2.7791309245538676,-4.371603721693696,-4.194411914431226,0.002068142955259818,0.0057718715874893745,-0.8795989160971542
12437,13.0,300.03303,37283.975,0.0,-0.06218467484487977,-0.06218382411597123,0.0,0.0,0.0,-2.7739030606629176,-4.366744984814176,-4.192749474992156,0.0029169395242795173,-0.0029027875614578277,-0.8749106889444621
12438,13.0,300.16737,37224.0,0.0,-0.06218965634356077,-0.06218882632615841,0.0,0.0,0.0,-2.7587262966900874,-4.366751469614816,-4.189688750415086,-0.0009119362256185981,-0.007554467289667873,-0.8852878594461091
12439,13.0,300.07322999999997,37213.472,0.0,-0.06219467083229924,-0.062193828536345475,0.0,0.0,0.0,-2.7675289069338374,-4.3655247277187454,-4.1789125316265565,-0.0016235809937599683,-0.004276042483562535,-0.8828808129060521
12440,13.0,300.00068999999996,37286.085,0.0,-0.062199652330979904,-0.06219883074653265,0.0,0.0,0.0,-2.777738313616427,-4.365335148625036,-4.190965344216076,0.0006855677027727643,0.003834304044791346,-0.8844883037921991
12441,13.0,300.01185,37287.015,0.0,-0.06220466681971837,-0.06220383295671961,0.0,0.0,0.0,-2.7716783687433573,-4.370973986756546,-4.191669046410526,0.00039249421033366266,0.0006609938344575123,-0.8829940942672321
12442,13.0,299.96862999999996,37222.721,0.0,-0.06220968130845694,-0.06220883516690656,0.0,0.0,0.0,-2.7584630543141073,-4.368925499029375,-4.1873891793131355,-0.005357752623919015,-0.0033767230354066168,-0.8886872324716012
12443,13.0,299.91605,37272.757000000005,0.0,-0.06221466280713761,-0.06221383737709374,0.0,0.0,0.0,-2.7611499909292876,-4.369912607276796,-4.198924727726606,0.004563956283577415,-0.0014104969295302085,-0.8851937183793182
12444,13.0,299.99863,37352.026,0.0,-0.062219677295876075,-0.062218839587280694,0.0,0.0,0.0,-2.778779428094177,-4.380143089561466,-4.195160807580136,0.0036639977785834265,0.006183252040014464,-0.8880385598900821
12445,13.0,299.91006,37347.427,0.0,-0.062224658794556964,-0.06222384179746787,0.0,0.0,0.0,-2.7830499732906473,-4.378028132627736,-4.1916071368294165,0.008425340146566332,0.003216088342728207,-0.8850877628163613
12446,13.0,300.32392000000004,37278.791,0.0,-0.06222967328329532,-0.06222884400765483,0.0,0.0,0.0,-2.7784547827621373,-4.372312490138645,-4.1810542383629254,0.0006001628479464614,-0.0015550561053970884,-0.8881019184188351
12447,13.0,300.20243999999997,37262.376000000004,0.0,-0.06223465478197643,-0.062233846217842004,0.0,0.0,0.0,-2.7644821652081473,-4.374565046435956,-4.1877848534771855,-0.0019731694021866584,-1.035053316976809e-05,-0.8857627495029772
12448,13.0,300.27232999999995,37285.863,0.0,-0.06223966927071489,-0.06223884842802918,0.0,0.0,0.0,-2.7675808866639673,-4.3715244855358755,-4.194865951801036,-0.0024958376463199974,0.005051590898878205,-0.8840739148988023
12449,13.0,300.12573,37341.435,0.0,-0.06224465076939578,-0.06224385063821625,0.0,0.0,0.0,-2.7693811281166374,-4.3842593167677055,-4.197223278158686,-0.007531950237995614,0.003161681473308667,-0.8833223366371271
12450,13.0,299.90353,37347.451,0.0,-0.062249665258134024,-0.062248852848403424,0.0,0.0,0.0,-2.7777132863389573,-4.372875046594166,-4.202104205215396,-0.007909490568980942,-5.768040894161314e-05,-0.884879742570831
12451,13.0,300.06031,37333.307,0.0,-0.0622546797468726,-0.062253822149312854,0.0,0.0,0.0,-2.7830334573140174,-4.371803635938426,-4.193556123396767,-0.003368319037752207,-0.0020788727671937676,-0.8809935535347941
12452,13.0,299.92724,37345.192,0.0,-0.06225966124555349,-0.06225882435949992,0.0,0.0,0.0,-2.7841363800478676,-4.374978857776796,-4.192890620731085,0.002275639147838098,0.005957062396341284,-0.8806888793622251
12453,13.0,299.85283,37396.49,0.0,-0.06226467573429173,-0.0622638265696871,0.0,0.0,0.0,-2.7875277281325674,-4.372969481503486,-4.207101960008636,0.008383029558165602,0.0029072101954943073,-0.8818055316349301
12454,13.0,300.02361,37396.395,0.0,-0.06226965723297262,-0.06226882877987405,0.0,0.0,0.0,-2.7785243930440076,-4.378282458402836,-4.210763339244986,0.007068889876045113,0.000942118058334813,-0.8841663233079221
12455,13.0,299.92472000000004,37302.066,0.0,-0.062274671721711194,-0.06227383099006123,0.0,0.0,0.0,-2.7700080259535076,-4.371817010839746,-4.197071391968696,0.008166910708561332,-0.0014469312753009986,-0.8897481053263011
12456,13.0,299.97981,37286.443,0.0,-0.06227965322039186,-0.062278833200248185,0.0,0.0,0.0,-2.768218828926927,-4.375540502307226,-4.190388399609136,0.003073557288261487,0.006647897935721444,-0.8884605380267281
12457,13.0,300.03677999999996,37313.996,0.0,-0.062284667709130326,-0.06228383541043514,0.0,0.0,0.0,-2.7803992097040373,-4.3790344926270555,-4.183089351188776,-0.0011723310749750689,0.0015543417640765886,-0.8985455581270421
12458,13.0,299.96347000000003,37354.952000000005,0.0,-0.062289649207811215,-0.06228883762062232,0.0,0.0,0.0,-2.776895289533227,-4.380338444180746,-4.197738921134576,-0.005895583649173805,-0.0004953392474711775,-0.8875845833152781
12459,13.0,300.0624,37360.218,0.0,-0.06229466369654957,-0.06229383983080938,0.0,0.0,0.0,-2.769456615249087,-4.384333081374987,-4.202783690732456,-0.005269053622090105,0.0009072272167063552,-0.8905669025996102
12460,13.0,300.10661,37364.774,0.0,-0.06229967818528803,-0.06229884204099645,0.0,0.0,0.0,-2.7640232642378573,-4.383029636446346,-4.210905295583996,-0.0025681024408019774,0.00026506565873994376,-0.8771401431394922
12461,13.0,300.00104,37397.346,0.0,-0.062304659683969144,-0.06230384425118363,0.0,0.0,0.0,-2.7705697718089475,-4.3854808910882666,-4.2118086080481465,0.0012657696554717389,-0.002249134045097248,-0.8862523924813012
12462,13.0,300.01132,37448.92,0.0,-0.062309674172707386,-0.06230884646137069,0.0,0.0,0.0,-2.7847299419564475,-4.387788973491056,-4.211017563695076,1.3664884379369087e-05,-0.005065051622481676,-0.8779920534260691
12463,13.0,299.77709,37443.175,0.0,-0.062314655671388275,-0.06231384867155787,0.0,0.0,0.0,-2.7931348515359473,-4.382884133731986,-4.2057711573272965,0.004099667051905636,-0.003313706377237357,-0.8841207270534222
12464,13.0,299.74082000000004,37390.921,0.0,-0.06231967016012685,-0.062318850881744825,0.0,0.0,0.0,-2.7831650785020075,-4.380662582887736,-4.202078671312876,-0.003825661122763356,-0.002130642551903048,-0.8785501414486482
12465,13.0,299.83284,37360.965,0.0,-0.06232465165880774,-0.062323820182654366,0.0,0.0,0.0,-2.7802737693416573,-4.381487773769176,-4.195038913593106,-0.001146017071203079,0.0024286830773923573,-0.8916340272074271
12466,13.0,300.07162,37400.305,0.0,-0.06232966614754598,-0.06232882239284154,0.0,0.0,0.0,-2.7820556709675173,-4.3761647656938365,-4.210538397722786,-0.0006407986960519073,-0.005107042429150844,-0.8832839040608342
12467,13.0,300.13991,37414.686,0.0,-0.062334680636284445,-0.0623338246030285,0.0,0.0,0.0,-2.7886597311442873,-4.383686425161166,-4.2007842443101255,0.002138548942433348,0.0044835741398943155,-0.893395339591255
12468,13.0,299.99969,37430.03,0.0,-0.062339662134965335,-0.062338826813215675,0.0,0.0,0.0,-2.788947392847677,-4.383399067432805,-4.205448133195416,-0.0009069344482224611,0.003357670691126297,-0.8847741416454091
12469,13.0,300.02019,37430.32,0.0,-0.06234467662370369,-0.06234382902340285,0.0,0.0,0.0,-2.793047306727307,-4.381264858747176,-4.203570378110096,0.001066971201751859,0.0033377310437334067,-0.8908448674995432
12470,13.0,299.87146,37450.365,0.0,-0.06234965812238458,-0.06234883123358981,0.0,0.0,0.0,-2.7877625995057476,-4.386514304865256,-4.209698717364915,-0.0053500476675085945,-0.004151371785958496,-0.8808699775525981
12471,13.0,300.15977000000004,37464.56,0.0,-0.06235467261112304,-0.062353833443776985,0.0,0.0,0.0,-2.7841951485536676,-4.386651397603786,-4.217444102454325,-0.003077840499084207,-0.0015034745825563888,-0.8847285859209131
12472,13.0,300.17607000000004,37445.099,0.0,-0.06235965410980382,-0.06235883565396394,0.0,0.0,0.0,-2.7752527097961175,-4.391870243568846,-4.215252239838006,-0.005180890224264055,0.0014598811182040487,-0.8845763754908912
12473,13.0,299.7929,37385.718,0.0,-0.06236466859854228,-0.062363837864151006,0.0,0.0,0.0,-2.7748743622087773,-4.387952208082166,-4.201498079005575,-0.0027888101987841377,-0.003148886758995927,-0.8956988015735892
12474,13.0,299.88087,37389.812999999995,0.0,-0.062369650097223395,-0.06236884007433818,0.0,0.0,0.0,-2.7808230522208675,-4.386663151304946,-4.198083122193546,0.003408036516497017,-0.0021972518909518777,-0.8920947520278972
12475,13.0,300.01682,37398.055,0.0,-0.06237466458596164,-0.06237384228452514,0.0,0.0,0.0,-2.7837904564637275,-4.390189362977956,-4.194095172449966,-0.001068816938134019,0.004656778706688276,-0.8931026319023672
12476,13.0,300.00854,37427.083,0.0,-0.0623796790747001,-0.062378844494712316,0.0,0.0,0.0,-2.7826487262510473,-4.391172722200006,-4.203077229286426,0.0053799298315077345,0.0012823462244577189,-0.8909775019376331
12477,13.0,300.12618,37453.692,0.0,-0.0623846605733811,-0.06238384670489927,0.0,0.0,0.0,-2.7749515718663975,-4.395553103707316,-4.214482473737036,-0.004397044405204495,-0.0009194150854017041,-0.8933694206536972
12478,13.0,299.95446,37440.901,0.0,-0.06238967506211934,-0.06238884891508645,0.0,0.0,0.0,-2.7835210332621374,-4.387627461425116,-4.209950408689756,-0.0002512083287823318,0.0012793363650356686,-0.8881660166201611
12479,13.0,299.90224,37490.646,0.0,-0.06239465656080023,-0.06239381821599599,0.0,0.0,0.0,-2.788537533182227,-4.391036136086526,-4.216646370650595,-0.0006431331938848044,0.002620204368894038,-0.8828583795488383
12480,13.0,300.11181,37509.013999999996,0.0,-0.062399671049538696,-0.062398820426182944,0.0,0.0,0.0,-2.7987895976940274,-4.3897208361317155,-4.213293323419676,-0.002134503440084088,-0.0016742905135646083,-0.8878002232015602
12481,13.0,299.84255,37497.667,0.0,-0.062404652548219586,-0.06240382263637012,0.0,0.0,0.0,-2.788361227664827,-4.3953299860352955,-4.214663338879886,-0.0023074329094758977,-0.0032313568058350874,-0.882602483236083
12482,13.0,299.99445,37461.198,0.0,-0.06240966703695794,-0.0624088248465573,0.0,0.0,0.0,-2.7842142989805576,-4.3868533383487165,-4.216201047231646,-0.0025985385486307876,-0.0033222717856326973,-0.8829006422105091
12483,13.0,299.95506,37446.782999999996,0.0,-0.06241464853563883,-0.06241382705674425,0.0,0.0,0.0,-2.7744708860189573,-4.3925356449095165,-4.215880353574996,0.0027085221860353274,0.004884456409458315,-0.8850742156625242
12484,13.0,299.9914,37472.268,0.0,-0.06241966302437729,-0.06241882926693143,0.0,0.0,0.0,-2.7871246572427872,-4.391187616976476,-4.212321413923757,0.0013979967670215388,-0.006706133370643833,-0.8904610584941641
12485,13.0,300.14907999999997,37486.387,0.0,-0.062424677513115645,-0.062423831477118386,0.0,0.0,0.0,-2.7878068785351178,-4.395370313389276,-4.211748319667196,0.002967990610692867,-0.004618164758627376,-0.8935649981879991
12486,13.0,300.14378,37470.857,0.0,-0.062429659011796534,-0.06242883368730556,0.0,0.0,0.0,-2.7925519287534173,-4.393781435907466,-4.203871617364826,0.002729806618960937,-0.004492654583315485,-0.8933958360838041
12487,13.0,300.1108,37497.863,0.0,-0.062434673500535,-0.06243383589749263,0.0,0.0,0.0,-2.7930075873233875,-4.389840196993496,-4.2155663473690055,0.003668644036916976,0.0011025065920339289,-0.8879139199952812
12488,13.0,300.13121,37517.547999999995,0.0,-0.06243965499921589,-0.062438838107679584,0.0,0.0,0.0,-2.7919915001231077,-4.394995816152316,-4.217410665201026,0.0012870043378174387,0.00023278428062401978,-0.8877669176707732
12489,13.0,299.96542,37502.488,0.0,-0.06244466948795424,-0.06244384031786676,0.0,0.0,0.0,-2.781644798051967,-4.394173361046145,-4.224001755776516,-0.004330205463683006,0.0013727537686052489,-0.8888823135133541
12490,13.0,300.08301,37516.562999999995,0.0,-0.06244965098663524,-0.062448842528053716,0.0,0.0,0.0,-2.7857692325840175,-4.398728832170736,-4.219600197342116,-0.00025065236858496276,0.0030650247091693872,-0.8902583578116591
12491,13.0,299.9152,37515.799,0.0,-0.062454665475373594,-0.06245384473824089,0.0,0.0,0.0,-2.7877224748017873,-4.3979009055140255,-4.218242847508156,-0.0035353337610102772,0.004434286209979975,-0.8924499367179513
12492,13.0,299.83612,37500.964,0.0,-0.06245967996411195,-0.06245884694842807,0.0,0.0,0.0,-2.7892740646799177,-4.398124225836066,-4.211958366412926,-0.0009225716634382341,0.000916668083320596,-0.8937085351971651
12493,13.0,299.91722999999996,37524.122,0.0,-0.06246466146279295,-0.06246381624933739,0.0,0.0,0.0,-2.788900175393018,-4.401406244234976,-4.216089488395636,-0.004469317204362266,-0.003542936784460637,-0.8906884723466082
12494,13.0,300.10512,37521.828,0.0,-0.0624696759515313,-0.06246881845952457,0.0,0.0,0.0,-2.7829151097023375,-4.400777725197946,-4.2220058557295355,-0.0025116753533330574,0.000847498139679054,-0.8831697209070651
12495,13.0,300.11432,37522.65,0.0,-0.06247465745021219,-0.062473820669711744,0.0,0.0,0.0,-2.7855456082869474,-4.397031131628186,-4.223371818189346,-0.001143895325493679,0.004956129263231875,-0.8856720129565221
12496,13.0,300.24407,37583.529,0.0,-0.062479671938950654,-0.0624788228798987,0.0,0.0,0.0,-2.7983695042025674,-4.400968114891737,-4.225116837511566,0.005159965495123945,0.00095772927355302,-0.8840816155995621
12497,13.0,300.1259,37592.546,0.0,-0.06248465343763154,-0.062483825090085876,0.0,0.0,0.0,-2.803765162310077,-4.402474513815405,-4.220955723325895,0.003963710572037777,0.0013281233441005686,-0.8866433043698811
12498,13.0,300.45979,37576.458,0.0,-0.062489667926369896,-0.06248882730027283,0.0,0.0,0.0,-2.8027163471315677,-4.399571248303876,-4.220017453733296,0.002214751429453948,-0.0015954878241373886,-0.8850444362420852
12499,13.0,300.28505,37594.494,0.0,-0.062494649425050786,-0.06249382951046001,0.0,0.0,0.0,-2.8006877191063575,-4.402750117842606,-4.224349807185866,0.0017734083608717784,0.0008024367900393452,-0.8894972448665431
12500,13.0,299.95377,37581.27,0.0,-0.06249966391378925,-0.062498831720647186,0.0,0.0,0.0,-2.796624788855377,-4.401125877932306,-4.226016907575396,-0.002013588353975698,-0.001224034187827769,-0.8901058940691121
12501,13.0,299.77659,37551.205,0.0,-0.0625046784025276,-0.06250383393083425,0.0,0.0,0.0,-2.795979449866687,-4.399277709749906,-4.219371405469536,0.0005691558243488065,0.003188569787237337,-0.8943663067645822
12502,13.0,299.9853,37557.636,0.0,-0.06250965990120849,-0.06250883614102143,0.0,0.0,0.0,-2.790649855665697,-4.403806127096826,-4.222127648391556,-0.0015281425615409285,-0.002050297594498618,-0.8937939521805952
12503,13.0,300.01844,37545.602,0.0,-0.06251467438994696,-0.06251383835120838,0.0,0.0,0.0,-2.7916664494910273,-4.405450530684116,-4.215808412817896,0.0007172927153912793,0.001904293929289178,-0.899741314835054
12504,13.0,299.99363,37562.671,0.0,-0.06251965588862785,-0.06251884056139534,0.0,0.0,0.0,-2.7944108373868772,-4.407260904637786,-4.216442200755446,0.00030264136995337764,-0.001953344657355108,-0.894696383117158
12505,13.0,299.9785,37529.866,0.0,-0.06252467037736609,-0.06252384277158252,0.0,0.0,0.0,-2.788352716363987,-4.398950835267645,-4.220838490289326,-0.0013609899349442487,0.002130087189523238,-0.8941866777868541
12506,13.0,300.13575,37545.046,0.0,-0.0625296518760472,-0.06252884498176947,0.0,0.0,0.0,-2.7840683909661577,-4.406656602278146,-4.222031490957066,9.501199780845411e-05,0.0015360777283740686,-0.8868453363073201
12507,13.0,300.3778,37603.479,0.0,-0.06253466636478555,-0.06253384719195665,0.0,0.0,0.0,-2.7916563169900273,-4.4098557368188755,-4.229006704645466,-0.0012032211188486787,0.00035726429469174067,-0.8877496822865723
12508,13.0,300.36117,37635.656,0.0,-0.06253964786346644,-0.06253881649286619,0.0,0.0,0.0,-2.797957415386897,-4.412474481702326,-4.229867764580446,0.0034899073272270367,0.0030444520844390274,-0.8954214952862212
12509,13.0,300.23522,37637.852999999996,0.0,-0.0625446623522049,-0.06254381870305314,0.0,0.0,0.0,-2.8040318497363974,-4.416199797019986,-4.220735949379206,0.0018982048028132283,-0.002344138096998418,-0.8969361724632082
12510,13.0,299.99158,37634.07,0.0,-0.06254967684094326,-0.06254882091324032,0.0,0.0,0.0,-2.803582270667027,-4.4092838584624365,-4.226951225492606,0.005531506068292145,-0.007611601017756533,-0.8966472239321911
12511,13.0,300.00882,37653.779,0.0,-0.06255465833962415,-0.06255382312342739,0.0,0.0,0.0,-2.796552037498197,-4.415972322372536,-4.233284038617606,-0.006723974374429603,-0.008948313378979772,-0.8900503173011273
12512,13.0,300.0615,37631.718,0.0,-0.06255967282836261,-0.06255882533361445,0.0,0.0,0.0,-2.7946142980069575,-4.409043312888696,-4.235444895780866,-0.0024956781607542574,-0.005261474612667115,-0.8958646706149591
12513,13.0,299.97493,37609.887,0.0,-0.0625646543270435,-0.06256382754380163,0.0,0.0,0.0,-2.7944261374633874,-4.402309759349146,-4.235730632309066,-0.004114667713011087,0.003295949473209887,-0.8853366069084201
12514,13.0,299.94588999999996,37584.11,0.0,-0.06256966881578185,-0.0625688297539887,0.0,0.0,0.0,-2.7918230979564873,-4.404616727176825,-4.2281912409649856,-0.0007586880147116773,0.002173885938345838,-0.8994468947534972
12515,13.0,299.9973,37619.217000000004,0.0,-0.06257465031446274,-0.06257383196417587,0.0,0.0,0.0,-2.8004064408785974,-4.399755862472095,-4.235140312800806,-0.003245808184061327,-0.0025764467580254974,-0.8843269538462751
12516,13.0,299.95402,37657.42,0.0,-0.06257966480320121,-0.06257883417436283,0.0,0.0,0.0,-2.8048723406943474,-4.4139394386969055,-4.228103696156346,0.0014236140600247685,0.00042589135919470465,-0.896420032994769
12517,13.0,299.93869,37683.9,0.0,-0.06258467929193945,-0.06258383638455,0.0,0.0,0.0,-2.8015357081150474,-4.4186887445656255,-4.234740180336316,-0.00036660300543089967,-0.00033360113556636867,-0.8839188268384962
12518,13.0,300.13291,37663.494,0.0,-0.06258966079062034,-0.06258883859473696,0.0,0.0,0.0,-2.802034024514227,-4.412845939188986,-4.233881754851597,0.003512757332882156,-0.0020363364266707583,-0.8930617979233372
12519,13.0,300.22451,37694.609,0.0,-0.06259467527935891,-0.06259384080492392,0.0,0.0,0.0,-2.7997184440606975,-4.423978619362695,-4.234523040839886,-0.00011998035275863887,-0.0033223759477429764,-0.8905922034546072
12520,13.0,300.19211,37703.626000000004,0.0,-0.0625996567780398,-0.0625988430151111,0.0,0.0,0.0,-2.8020266277884973,-4.422551152621816,-4.236382962723446,0.004142873860019817,-0.0007638083119720113,-0.9030236676064971
12521,13.0,300.28226,37685.971,0.0,-0.06260467126677827,-0.06260384522529816,0.0,0.0,0.0,-2.8048289735900673,-4.415343600685486,-4.235421692353576,-0.0014782344212403787,0.004568017795278256,-0.8958909847200561
12522,13.0,300.15856,37657.882000000005,0.0,-0.06260965276545916,-0.06260881452620781,0.0,0.0,0.0,-2.8001362070769273,-4.414931917169856,-4.2319875851146564,-0.0008488060530406352,0.003368133511658897,-0.9035196839279501
12523,13.0,299.96663,37605.867,0.0,-0.06261466725419751,-0.06261381673639477,0.0,0.0,0.0,-2.792012373075168,-4.3985886996819055,-4.240643375418916,-0.008200174290794192,-5.248862080722355e-05,-0.8918499913337412
12524,13.0,299.83325,37627.037000000004,0.0,-0.0626196487528784,-0.06261881894658183,0.0,0.0,0.0,-2.793287649651027,-4.412969859676216,-4.231422292883866,-0.0048593376355042855,0.005733124701015354,-0.8967595224407741
12525,13.0,299.98086,37700.75,0.0,-0.06262466324161686,-0.06262382115676901,0.0,0.0,0.0,-2.798768826066977,-4.415101433911587,-4.246216250968916,-0.0012679713466140286,0.005115186426829595,-0.8914751799892502
12526,13.0,299.85492999999997,37719.378,0.0,-0.0626296777303551,-0.06262882336695608,0.0,0.0,0.0,-2.8120306486758175,-4.418229539620305,-4.235488870835206,-0.0014544141272894986,0.0042803431222869755,-0.8946562280156952
12527,13.0,300.05462,37736.715,0.0,-0.062634659229036,-0.06263382557714314,0.0,0.0,0.0,-2.8149465798135975,-4.424969375310475,-4.231103220427376,-0.001354058189685139,-0.0008986748589723032,-0.8932347698479082
12528,13.0,299.96283999999997,37731.843,0.0,-0.06263967371777457,-0.06263882778733032,0.0,0.0,0.0,-2.810858824935168,-4.419757115471066,-4.238922268799056,0.003997198487842776,0.0005495768838590155,-0.8930650504561582
12529,13.0,299.84862999999996,37733.952000000005,0.0,-0.06264465521645546,-0.06264382999751728,0.0,0.0,0.0,-2.8057140475524176,-4.428909803624366,-4.235555441366776,0.0005199088500035086,0.003080662805912747,-0.8937401992627901
12530,13.0,299.89952999999997,37738.126000000004,0.0,-0.0626496697051937,-0.06264883220770445,0.0,0.0,0.0,-2.8028754273972676,-4.423928463482746,-4.2446438894637355,0.002363861010194918,-0.003690828438581406,-0.8933159007834152
12531,13.0,299.88964,37696.841,0.0,-0.06265465120387459,-0.06265383441789163,0.0,0.0,0.0,-2.803306058689768,-4.412361605641187,-4.243230810874276,-0.0004612283044446896,-0.0036774050025816167,-0.8948105966684301
12532,13.0,299.63908,37648.185,0.0,-0.06265966569261316,-0.06265883662807858,0.0,0.0,0.0,-2.7965760515255673,-4.415484239799366,-4.232047772170596,-0.001846762804511298,0.0005927169390566074,-0.8970618560056121
12533,13.0,299.93995,37683.195,0.0,-0.06266464719129405,-0.06266383883826554,0.0,0.0,0.0,-2.8080123014292373,-4.410075206790536,-4.236662923726076,0.003959561718178317,-0.00039360406369819665,-0.8965652317340991
12534,13.0,299.82229,37734.71,0.0,-0.06266966168003252,-0.06266884104845272,0.0,0.0,0.0,-2.8000976022481177,-4.424644020703366,-4.245667981339806,0.00029869068754847573,-0.0002239630367109308,-0.8969569238252562
12535,13.0,299.98263,37728.214,0.0,-0.06267467616877076,-0.06267384325863978,0.0,0.0,0.0,-2.807097235263927,-4.422213132388456,-4.239124513519016,0.0027172074619174974,-0.002050570462750548,-0.8966809043655152
12536,13.0,300.00641,37748.674,0.0,-0.06267965766745176,-0.06267881255954943,0.0,0.0,0.0,-2.803671740650857,-4.425563950469155,-4.245418721815206,-0.002114391844149228,-0.0028184953869638376,-0.8955584765672401
12537,13.0,299.92367,37753.442,0.0,-0.06268467215619022,-0.06268381476973639,0.0,0.0,0.0,-2.8097943043801075,-4.431261962406506,-4.235047499091646,0.00025144835759852076,0.0009076007310907182,-0.897319181001008
12538,13.0,300.16263,37792.375,0.0,-0.06268965365487111,-0.06268881697992346,0.0,0.0,0.0,-2.8139476165400072,-4.431519834556956,-4.242470974624285,-0.0030008616598369868,-0.0022520432887843675,-0.8957784936939542
12539,13.0,300.04717999999997,37788.016,0.0,-0.06269466814360936,-0.06269381919011063,0.0,0.0,0.0,-2.8174759560382268,-4.429428689000575,-4.239708652201666,0.0007680583489864572,0.0013665189367649188,-0.8966146074114723
12540,13.0,299.9455,37753.372,0.0,-0.06269964964229024,-0.06269882140029759,0.0,0.0,0.0,-2.8065103608060076,-4.423146842355605,-4.246425081814526,-0.0038912708905885357,2.1627512316719276e-06,-0.8969850820455351
12541,13.0,300.03542999999996,37690.246,0.0,-0.06270466413102882,-0.06270382361048477,0.0,0.0,0.0,-2.7979459656607673,-4.415137910915186,-4.243809781981416,0.0028134494014658376,0.0009033206917408111,-0.8961179324774542
12542,13.0,299.94036,37681.631,0.0,-0.06270967861976706,-0.06270882582067172,0.0,0.0,0.0,-2.793795389276137,-4.420817481700716,-4.239661941372056,0.004151337132805077,-0.002093030809516058,-0.8979339502341811
12543,13.0,299.87066,37746.382000000005,0.0,-0.06271466011844795,-0.0627138280308589,0.0,0.0,0.0,-2.808612145488437,-4.417938027566536,-4.247407529111486,0.00858791095753582,-0.0032801716492777367,-0.8941322257264802
12544,13.0,299.86985,37796.245,0.0,-0.06271967460718642,-0.06271883024104608,0.0,0.0,0.0,-2.818421521031547,-4.422769710668386,-4.247923374737396,0.004283766286424816,-0.0009513091891969072,-0.8938276224814182
12545,13.0,299.85109,37792.97,0.0,-0.06272465610586742,-0.06272383245123303,0.0,0.0,0.0,-2.815610258629097,-4.430986459704316,-4.241522471205676,0.00016120306518950384,0.002925333288107917,-0.8933034276746843
12546,13.0,300.05237999999997,37785.045,0.0,-0.06272967059460566,-0.06272883466142021,0.0,0.0,0.0,-2.8083106022586772,-4.426816935542815,-4.250582649624846,-0.004953014937724516,0.004115080207126796,-0.8939201524805501
12547,13.0,300.04635,37843.076,0.0,-0.06273465209328677,-0.06273383687160716,0.0,0.0,0.0,-2.809896845290227,-4.4404958118928155,-4.2529576065342365,-0.007088729718303154,0.006941429092965712,-0.8942736045129333
12548,13.0,299.9705,37873.24,0.0,-0.06273966658202501,-0.06273883908179434,0.0,0.0,0.0,-2.8204760882593174,-4.436127792036725,-4.2559153849011455,-0.005787501578231934,0.007723486322948752,-0.8950102576006351
12549,13.0,300.0765,37833.349,0.0,-0.0627446480807059,-0.0627438412919814,0.0,0.0,0.0,-2.8169996271662177,-4.431246257029955,-4.2521475130792865,-0.002337744488867418,0.001955014189544878,-0.8900587779394621
12550,13.0,300.16727000000003,37740.973,0.0,-0.06274966256944448,-0.06274884350216836,0.0,0.0,0.0,-2.802684632403437,-4.432068813461136,-4.2375599540396065,-0.0005946023948426874,-0.0023930341017740775,-0.8996577318343051
12551,13.0,300.19943,37720.388,0.0,-0.06275467705818272,-0.06275381280307801,0.0,0.0,0.0,-2.798095217400497,-4.420561332075436,-4.247399524435696,0.006701732420159494,-0.003636232598018216,-0.8898709416359242
12552,13.0,300.05257,37801.611000000004,0.0,-0.0627596585568636,-0.06275881501326519,0.0,0.0,0.0,-2.8058669469925075,-4.434537597329786,-4.2503413947760365,0.004122799450363626,0.0018766345320344084,-0.9022688570770031
12553,13.0,300.00956,37849.089,0.0,-0.06276467304560218,-0.06276381722345226,0.0,0.0,0.0,-2.8142746936722873,-4.434403341691536,-4.256500030208846,0.0007662507412055603,-0.0004542368787546896,-0.8953941679310242
12554,13.0,300.07497,37820.013,0.0,-0.06276965454428307,-0.06276881943363921,0.0,0.0,0.0,-2.814485348368077,-4.430680559499126,-4.251173577083166,-0.005332421574069035,-0.0032441090649686366,-0.9025223317220191
12555,13.0,299.81215,37816.475,0.0,-0.06277466903302131,-0.06277382164382617,0.0,0.0,0.0,-2.815891334206837,-4.436342297082896,-4.243030592654517,-0.004573796563248576,-0.002464322021834648,-0.900446759819676
12556,13.0,300.14864,37877.336,0.0,-0.0627796505317022,-0.06277882385401334,0.0,0.0,0.0,-2.825934061247977,-4.430471829978526,-4.257358455693566,-0.0023759233473353777,-0.0004204539146530706,-0.8962477196827632
12557,13.0,300.04745,37932.958,0.0,-0.06278466502044067,-0.06278382606420052,0.0,0.0,0.0,-2.8280176074286074,-4.442746645664956,-4.259907894270175,-0.001012289427447688,0.003442872460235057,-0.8945452467322421
12558,13.0,300.00584,37867.814,0.0,-0.06278964651912167,-0.06278882827438748,0.0,0.0,0.0,-2.8182914197187072,-4.434442453145396,-4.2581359224952955,-0.004451456138224516,0.0020558653024731082,-0.8939124416472891
12559,13.0,299.99536,37775.457,0.0,-0.06279466100785991,-0.06279383048457465,0.0,0.0,0.0,-2.8053457311410677,-4.429805212737736,-4.247644832284906,0.00041951724599562865,0.0035598534001801767,-0.8953958397936892
12560,13.0,300.03952999999996,37801.285,0.0,-0.06279967549659837,-0.06279883269476161,0.0,0.0,0.0,-2.8086382873410174,-4.439100971805155,-4.242907482767366,0.002354623006383198,-0.0006971581490766523,-0.8982031201232461
12561,13.0,300.09311,37887.666,0.0,-0.06280465699527926,-0.06280383490494879,0.0,0.0,0.0,-2.826599259938627,-4.432056755784946,-4.258248494581405,0.0037559978479131265,-0.006096911073818274,-0.9031896177078751
12562,13.0,299.82305,37895.801,0.0,-0.06280967148401762,-0.06280883711513596,0.0,0.0,0.0,-2.8211865792294373,-4.441582522625066,-4.256608042669505,-0.003654763827772106,-0.015176024300256986,-0.8937115141524591
12563,13.0,299.61087000000003,37792.206,0.0,-0.06281465298269873,-0.06281383932532303,0.0,0.0,0.0,-2.802787983913637,-4.435372718062205,-4.249726250640325,0.0014289091023973488,-0.005653856929792235,-0.9038100408766062
12564,13.0,300.05205,37815.727,0.0,-0.06281966747143697,-0.06281884153550998,0.0,0.0,0.0,-2.8015116940876768,-4.4333355787361555,-4.260189577797975,0.004137798186293886,-0.0025279469340389374,-0.8935494447989643
12565,13.0,300.02238,37915.96,0.0,-0.06282464897011786,-0.06282381083641964,0.0,0.0,0.0,-2.8210359089395673,-4.447791719237866,-4.256677348976346,0.003313689658610707,0.0026855351889666875,-0.9047792753922622
12566,13.0,299.97742,37933.226,0.0,-0.06282966345885632,-0.0628288130466067,0.0,0.0,0.0,-2.8222127989307175,-4.439543660773846,-4.268997051642206,-0.003800826666787387,0.0013444670682135687,-0.8940400503648832
12567,13.0,300.01965,37849.559,0.0,-0.0628346779475949,-0.06283381525679388,0.0,0.0,0.0,-2.8191074913492473,-4.438883123033655,-4.247330116803846,-0.0017109707751346685,0.004903720928309575,-0.9058063259586241
12568,13.0,299.98427000000004,37824.242,0.0,-0.06283965944627556,-0.06283881746698083,0.0,0.0,0.0,-2.8059318963239175,-4.438939459739216,-4.252753740614116,-0.0026663054245938574,0.0026055879322265077,-0.8983485316450971
12569,13.0,300.07046,37871.799,0.0,-0.06284467393501403,-0.06284381967716779,0.0,0.0,0.0,-2.8146168682310573,-4.440048259323645,-4.2574161096242555,-0.001161247638756219,-0.0012685625780473788,-0.9042958537695521
12570,13.0,300.08954,37921.421,0.0,-0.06284965543369492,-0.06284882188735497,0.0,0.0,0.0,-2.8141619189361573,-4.450926107097206,-4.262076857434237,-0.004449227190654536,-0.004335524013457906,-0.8997123865446991
12571,13.0,299.74788,37898.265,0.0,-0.06285466992243327,-0.06285382409754192,0.0,0.0,0.0,-2.8194120743293074,-4.442325842898426,-4.258388221770196,-0.0029360566152412267,0.0013634981342417888,-0.9071853897422271
12572,13.0,300.1047,37886.468,0.0,-0.06285965142111416,-0.0628588263077291,0.0,0.0,0.0,-2.8127271567945575,-4.447002194759946,-4.256810794014516,0.003886931241735246,0.005891538045499535,-0.8998440279976913
12573,13.0,300.20457999999996,37881.818999999996,0.0,-0.06286466590985262,-0.06286382851791616,0.0,0.0,0.0,-2.819789813966587,-4.4463853280990655,-4.248951924913906,0.002703357346300597,-0.00011947494360875887,-0.9025075484030601
12574,13.0,300.06465,37970.552,0.0,-0.06286964740853351,-0.06286883072810323,0.0,0.0,0.0,-2.824410943697657,-4.443806809244586,-4.273881930374306,0.007910489329604514,-0.003661446617481647,-0.8906587435886741
12575,13.0,299.90227999999996,37982.579,0.0,-0.06287466189727187,-0.06287383293829041,0.0,0.0,0.0,-2.8253872101690076,-4.447784727812176,-4.272583653021176,0.004032729419824406,0.004229691661713066,-0.8949560993827901
12576,13.0,299.88253,37917.657,0.0,-0.06287967638601033,-0.06287883514847747,0.0,0.0,0.0,-2.8139315058634176,-4.443585718072766,-4.268503598843505,0.002806038490234437,0.0056176820773720555,-0.8943363652241272
12577,13.0,299.76713,37893.002,0.0,-0.06288465788469122,-0.06288383735866465,0.0,0.0,0.0,-2.8173987463806074,-4.440732101816136,-4.2603956728683166,-0.0017936246255419682,0.004704782544750885,-0.9072036079790251
12578,13.0,299.77449,37949.34,0.0,-0.06288967237342957,-0.0628888395688516,0.0,0.0,0.0,-2.8280470930065174,-4.447655943724466,-4.259948829574216,-0.006305779713657004,0.0022829929117638577,-0.8998918837999141
12579,13.0,299.83204,37961.731,0.0,-0.06289465387211057,-0.06289380886976115,0.0,0.0,0.0,-2.8287272877986473,-4.445620324273566,-4.265070606179696,-0.0012780746660111487,0.005919166943926295,-0.9042980829197722
12580,13.0,300.0863,37922.094,0.0,-0.06289966836084915,-0.06289881107994832,0.0,0.0,0.0,-2.8195958778974473,-4.447964579704926,-4.259809203710436,0.0017217725278257183,0.0009696077969928391,-0.9034615233722102
12581,13.0,299.96238999999997,37904.852999999996,0.0,-0.06290464985952982,-0.06290381329013528,0.0,0.0,0.0,-2.8094596278720774,-4.450265164056975,-4.262404035891525,0.0038522358357860765,-0.0026179666060481875,-0.9077055214160602
12582,13.0,300.03677000000005,37954.748999999996,0.0,-0.06290966434826828,-0.06290881550032246,0.0,0.0,0.0,-2.8188631967501374,-4.449439567875496,-4.268993099966816,0.007966972551128973,-0.011367887945923189,-0.9007363466982561
12583,13.0,300.05532999999997,38032.849,0.0,-0.06291464584694917,-0.06291381771050963,0.0,0.0,0.0,-2.8263659084405974,-4.461466846562495,-4.273203660757366,0.005360702701585165,-0.002192250893758318,-0.9010035407496262
12584,13.0,300.01371,38018.899,0.0,-0.06291966033568752,-0.06291881992069659,0.0,0.0,0.0,-2.834217684790507,-4.450881828067836,-4.271696552558626,0.001093158346611329,-9.195768406476681e-05,-0.8978400523474142
12585,13.0,300.06609,37966.121,0.0,-0.06292467482442599,-0.06292382213088354,0.0,0.0,0.0,-2.8213926742997772,-4.4494736130788555,-4.269886583904996,0.0006653722907896324,-0.003849292040270546,-0.9002198728572841
12586,13.0,300.08319,37915.686,0.0,-0.06292965632310688,-0.06292882434107061,0.0,0.0,0.0,-2.8177730409675474,-4.442742592664556,-4.264906054363456,0.0007060846798076324,0.002758890139231257,-0.9010748836891672
12587,13.0,300.30417,38000.13,0.0,-0.06293467081184523,-0.06293382655125779,0.0,0.0,0.0,-2.8249277012486576,-4.446914143326255,-4.2792488121789765,0.0018082167442070984,0.005638515310028135,-0.9018410628847832
12588,13.0,300.43339,38062.133,0.0,-0.06293965231052612,-0.06293882876144485,0.0,0.0,0.0,-2.8329308571635075,-4.457430666114155,-4.279576598586326,-0.0002164515300096028,0.003308876619310697,-0.9079695338621161
12589,13.0,300.25295,37994.233,0.0,-0.06294466679926458,-0.06294383097163192,0.0,0.0,0.0,-2.8305143570000175,-4.452942170821175,-4.265841588180787,-0.006465715871716474,-0.005199915920066745,-0.9043434461267491
12590,13.0,300.04682,37945.257000000005,0.0,-0.06294964829794547,-0.0629488331818191,0.0,0.0,0.0,-2.8229869220071175,-4.449191422926005,-4.2622322899995755,-0.004290136995103556,-0.005535894657125265,-0.9057520866807711
12591,13.0,299.97366,38018.715,0.0,-0.06295466278668382,-0.06295383539200605,0.0,0.0,0.0,-2.8332172016417676,-4.455022778576516,-4.268500052468156,-0.0004861574790400076,0.0016600215203563683,-0.8974816252570402
12592,13.0,299.99327,38103.208,0.0,-0.06295967727542229,-0.06295883760219323,0.0,0.0,0.0,-2.839343514396387,-4.458211375316206,-4.284868803858625,0.0023609235981550177,-0.0004535959676689366,-0.8987224614620011
12593,13.0,299.99734,38021.698,0.0,-0.0629646587741034,-0.06296380690310277,0.0,0.0,0.0,-2.8274554562731273,-4.456859598357796,-4.273331836895016,6.154737358350284e-05,-0.0025738296343422074,-0.9008387254883602
12594,13.0,299.99566,37934.784,0.0,-0.06296967326284164,-0.06296880911328973,0.0,0.0,0.0,-2.8108576090350472,-4.451027229457186,-4.269342063301256,0.0018005181712723083,-0.004100596708872387,-0.9000552602460381
12595,13.0,300.01937000000004,37969.01,0.0,-0.06297465476152253,-0.0629738113234769,0.0,0.0,0.0,-2.8256265398426272,-4.446936840128496,-4.269067573849166,0.006562765067619483,0.0025926074891704375,-0.9006289320551552
12596,13.0,299.94183,38023.273,0.0,-0.062979669250261,-0.06297881353366408,0.0,0.0,0.0,-2.8281016058618973,-4.457324578828686,-4.272699264857587,0.0036922942061760663,-0.0014308014482841084,-0.9028314844600301
12597,13.0,299.81462999999997,38043.742999999995,0.0,-0.06298465074894177,-0.06298381574385103,0.0,0.0,0.0,-2.8290378489542976,-4.4567440878463955,-4.278566185586605,-0.0013300729386179788,0.0015014107947527084,-0.9103154408911391
12598,13.0,299.95576,38012.094,0.0,-0.06298966523768024,-0.06298881795403821,0.0,0.0,0.0,-2.8175356364691173,-4.458801998799496,-4.278389778744196,-0.0033709123500581467,0.0028360429535206474,-0.9044762426848552
12599,13.0,300.03571,37986.516,0.0,-0.06299464673636113,-0.06299382016422517,0.0,0.0,0.0,-2.8174591360865677,-4.459051460974116,-4.270441642309775,-0.006665197559978785,0.005864875990318194,-0.9151918083223991
12600,13.0,300.07566,38069.373,0.0,-0.06299966122509948,-0.06299882237441223,0.0,0.0,0.0,-2.833211527441207,-4.461071679023496,-4.277855593291476,-0.0030495130660385074,0.00038490131938430264,-0.9033346239296861
12601,13.0,300.15372,38133.779,0.0,-0.06300467571383794,-0.06300382458459941,0.0,0.0,0.0,-2.844288782834447,-4.4710940397376255,-4.276333995616305,-0.006853618610149493,0.001187684347115319,-0.9084113210382171
12602,13.0,300.34092000000004,38070.009,0.0,-0.06300965721251883,-0.06300882679478637,0.0,0.0,0.0,-2.8352210050395272,-4.461168545733055,-4.275942577102676,0.002006921168317698,0.003079128238636297,-0.8959552754389011
12603,13.0,300.12701,37985.341,0.0,-0.06301467170125707,-0.06301382900497354,0.0,0.0,0.0,-2.8259303122226074,-4.4539355612192155,-4.266729499243416,0.0013385764374322087,0.004998713834459646,-0.9023266832602101
12604,13.0,300.01002,38050.39,0.0,-0.06301965319993807,-0.0630188312151605,0.0,0.0,0.0,-2.8299897974232473,-4.463098077898486,-4.273280465114946,0.0052022075878179145,0.003131559574335867,-0.8970490282593461
12605,13.0,299.93095,38127.797,0.0,-0.06302466768867654,-0.06302383342534768,0.0,0.0,0.0,-2.8425013083330373,-4.463166472280236,-4.284230456295625,0.0025247485087732777,0.003431757309288077,-0.9054548700289381
12606,13.0,299.98239,38109.651,0.0,-0.06302964918735765,-0.06302883563553485,0.0,0.0,0.0,-2.8310396258518575,-4.468932169324266,-4.284410409513387,-0.001146641841214739,0.003994054676757506,-0.9015364596397212
12607,13.0,299.9324,38035.91,0.0,-0.06303466367609589,-0.06303383784572181,0.0,0.0,0.0,-2.829425822417587,-4.463141343677756,-4.2693998185569555,0.001975192963961368,-0.0025575145852070377,-0.9076604115216083
12608,13.0,299.91382999999996,38075.425,0.0,-0.06303964517477678,-0.06303880714663135,0.0,0.0,0.0,-2.8268519645135677,-4.462060003171036,-4.285066387628126,-0.0005965151881164654,-0.007706872770334123,-0.9072350288646261
12609,13.0,299.90365,38116.556000000004,0.0,-0.06304465966351525,-0.06304380935681853,0.0,0.0,0.0,-2.8384917763623267,-4.465317804892555,-4.282671773666796,0.001103290340986279,-0.005118817003262905,-0.9095345898340752
12610,13.0,299.93696,38151.025,0.0,-0.0630496741522536,-0.06304881156700548,0.0,0.0,0.0,-2.8345128445446375,-4.470552356234166,-4.291893869451946,0.0002635386300442377,-0.003419557575434057,-0.9032510713264401
12611,13.0,300.01385,38100.675,0.0,-0.06305465565093449,-0.06305381377719266,0.0,0.0,0.0,-2.8321252220089974,-4.466151101774796,-4.283377299711425,-0.002094979593433388,0.004986595261938636,-0.9046669464861762
12612,13.0,300.08612999999997,38048.26,0.0,-0.06305967013967295,-0.06305881598737961,0.0,0.0,0.0,-2.825116368417277,-4.463369527600276,-4.277235078930237,-0.0036586253239032068,-0.001069546174230989,-0.9064021372824262
12613,13.0,300.14883,38081.044,0.0,-0.06306465163835373,-0.06306381819756679,0.0,0.0,0.0,-2.8357331016400673,-4.460169075834416,-4.279784314856825,-0.004117445132860196,-0.0020844419950434077,-0.9040171795945491
12614,13.0,300.24509,38134.448,0.0,-0.0630696661270922,-0.06306882040775386,0.0,0.0,0.0,-2.8410302718378575,-4.467822356489736,-4.283067346505836,0.0024597914766625174,-0.004209220564642726,-0.9041584367909901
12615,13.0,300.07482999999996,38120.082,0.0,-0.06307464762577308,-0.06307382261794103,0.0,0.0,0.0,-2.832822338077797,-4.472658497892026,-4.282072233582626,-0.0007320500039552103,-0.0036695379261551964,-0.9096114347216591
12616,13.0,299.81285,38074.951,0.0,-0.06307966211451133,-0.06307882482812799,0.0,0.0,0.0,-2.825932642697837,-4.466875778246316,-4.281025951529366,0.003854450699179666,-0.007720994335652813,-0.9120356051884062
12617,13.0,299.90221,38151.121,0.0,-0.0630846766032499,-0.06308382703831494,0.0,0.0,0.0,-2.8335805531276272,-4.477714818541046,-4.285692778839946,-0.0008629400813355552,-0.0006863592334858824,-0.9088867379851372
12618,13.0,299.87132,38179.815,0.0,-0.06308965810193079,-0.06308882924850212,0.0,0.0,0.0,-2.843738892005177,-4.468414499848175,-4.293557119491096,0.006530152802550904,0.005369956309448426,-0.9020686489897441
12619,13.0,299.90072999999995,38174.679,0.0,-0.06309467259066903,-0.0630938314586893,0.0,0.0,0.0,-2.842722703479887,-4.4707461909782955,-4.290680502457196,0.001019378439254819,0.003824967654394916,-0.8983025706205612
12620,13.0,300.11562999999995,38124.398,0.0,-0.06309965408935014,-0.06309883366887625,0.0,0.0,0.0,-2.8355934757762875,-4.468634273794866,-4.284637174885766,0.0002080180366447818,-0.003256670731758377,-0.9059015208055191
12621,13.0,300.08091,38120.488,0.0,-0.0631046685780885,-0.06310383587906343,0.0,0.0,0.0,-2.836060584072387,-4.463582208796266,-4.2880336905459755,4.088194021023336e-05,-0.0025902289858856977,-0.8992558160496391
12622,13.0,299.88793,38134.611000000004,0.0,-0.0631096500767695,-0.06310880517997297,0.0,0.0,0.0,-2.8368688536771574,-4.469721592477176,-4.2853790766089865,-0.0006168174979851474,0.004914576180605905,-0.9103211961517071
12623,13.0,299.98406,38197.988,0.0,-0.06311466456550785,-0.06311380739015993,0.0,0.0,0.0,-2.8454743867764574,-4.473035730904256,-4.292724531883925,0.0005391742098523515,0.008835672999813032,-0.8995939984030152
12624,13.0,299.92002,38168.043,0.0,-0.06311964606418874,-0.0631188096003471,0.0,0.0,0.0,-2.8385460865676873,-4.473367266336975,-4.290218764386626,-0.004922911277253516,0.0019281057119392184,-0.9133966939152351
12625,13.0,300.04568,38140.061,0.0,-0.0631246605529272,-0.06312381181053406,0.0,0.0,0.0,-2.8383729221255973,-4.474321545281155,-4.280931617945055,0.003634072247480007,0.0009659199415313761,-0.9067732806615552
12626,13.0,299.96907000000004,38141.767,0.0,-0.06312967504166556,-0.06312881402072124,0.0,0.0,0.0,-2.834445058112947,-4.471630656990586,-4.288068951649455,-0.00099244889617958,-0.0028584475344318075,-0.9126682886833472
12627,13.0,299.64895,38187.424,0.0,-0.06313465654034645,-0.06313381623090841,0.0,0.0,0.0,-2.8399838884595874,-4.479133773981086,-4.288905693582037,0.007346655165708413,0.00011956584227522989,-0.9096343341739191
12628,13.0,299.83052000000004,38220.386,0.0,-0.06313967102908491,-0.06313881844109548,0.0,0.0,0.0,-2.8410062578104873,-4.482886244401425,-4.294150580074667,0.0004935551977551055,-0.0012566096719177188,-0.9151894271846642
12629,13.0,299.88197,38139.529,0.0,-0.06314465252776558,-0.06314382065128266,0.0,0.0,0.0,-2.8294908730740076,-4.472608544662096,-4.291365054224755,0.005895604116825825,0.0018167698922762284,-0.9068649190005991
12630,13.0,300.04995,38097.702000000005,0.0,-0.06314966701650415,-0.06314882286146961,0.0,0.0,0.0,-2.823006275084027,-4.477012838871766,-4.280730994425256,0.001142825738688119,0.003361444743773767,-0.9054221420507081
12631,13.0,300.01912000000004,38141.803,0.0,-0.06315464851518504,-0.06315382507165657,0.0,0.0,0.0,-2.834174115036207,-4.4672856379117665,-4.292695958231105,0.0024913235157994875,0.005273232569477535,-0.9060429907844813
12632,13.0,299.99491,38193.787000000004,0.0,-0.06315966300392328,-0.06315882728184374,0.0,0.0,0.0,-2.838277068666137,-4.476723961268255,-4.294956620529216,0.002001084847741698,-0.0023590186879670176,-0.9061838832108862
12633,13.0,299.88571,38191.172999999995,0.0,-0.0631646445026044,-0.0631638294920307,0.0,0.0,0.0,-2.8353142240487275,-4.481682199307596,-4.2921664337288465,0.000934906281145566,-1.6121748373842684e-05,-0.9181700239438262
12634,13.0,300.19441,38188.425,0.0,-0.06316965899134275,-0.06316883170221788,0.0,0.0,0.0,-2.839032851915727,-4.476797320575496,-4.292497462536516,-0.0014507524440781187,0.002434777675418848,-0.9023273317402741
12635,13.0,300.10395,38214.823,0.0,-0.06317467348008099,-0.06317383391240494,0.0,0.0,0.0,-2.8419538493040073,-4.483470484409087,-4.2909274315065655,-0.004373564360637195,0.0020334420777601077,-0.9148054459267682
12636,13.0,300.05376,38264.327000000005,0.0,-0.0631796549787621,-0.06317880321331437,0.0,0.0,0.0,-2.8508136068533974,-4.483875277824036,-4.296711063077366,-0.0043210241005518756,-0.0008706136776553801,-0.9014789982265501
12637,13.0,299.88085,38258.027,0.0,-0.06318466946750056,-0.06318380542350155,0.0,0.0,0.0,-2.851677199913627,-4.482818153994706,-4.294989652482476,-0.004099496420588796,-0.002218457290369688,-0.9070794240467691
12638,13.0,299.83079,38233.231,0.0,-0.06318965096618145,-0.06318880763368862,0.0,0.0,0.0,-2.838500490313187,-4.487344443516416,-4.2961028090423365,0.0003247556851083907,-0.001037326036951109,-0.9034389582924832
12639,13.0,299.79927000000004,38196.811,0.0,-0.06319466545491981,-0.06319380984387568,0.0,0.0,0.0,-2.8394294380048675,-4.4764018490614665,-4.295045381237975,0.004930805306132596,-0.002411386492885318,-0.905641875467394
12640,13.0,299.85193,38257.655,0.0,-0.0631996469536007,-0.06319881205406286,0.0,0.0,0.0,-2.8477187357479576,-4.484224443808496,-4.297428444148166,0.006441657160017063,-0.003019404440642017,-0.9048546409347001
12641,13.0,299.79163,38280.612,0.0,-0.06320466144233916,-0.06320381426424992,0.0,0.0,0.0,-2.851209281017447,-4.4826148960246455,-4.302526105401266,0.0034044822377962366,-0.0011880572231521187,-0.9069451177460142
12642,13.0,299.87805,38241.309,0.0,-0.0632096759310774,-0.0632088164744371,0.0,0.0,0.0,-2.8412609888856273,-4.480365784777676,-4.302776074200937,0.0030631604303103977,-0.0009028712139964511,-0.9083727567394111
12643,13.0,299.98749,38218.829,0.0,-0.0632146574297584,-0.06321381868462406,0.0,0.0,0.0,-2.8440735685132075,-4.480687289034406,-4.292808935617256,-0.0036058852508981665,0.0018891811013976583,-0.9133244086531012
12644,13.0,300.11195,38287.73,0.0,-0.06321967191849687,-0.06321882089481123,0.0,0.0,0.0,-2.8429430853766373,-4.4873299540399865,-4.308240835965266,-0.002811586946457028,0.002304338139695468,-0.9144094677876881
12645,13.0,299.99576,38296.681000000004,0.0,-0.06322465341717753,-0.06322382310499819,0.0,0.0,0.0,-2.851158517187437,-4.489104357615106,-4.300972083722896,-0.004510219476449006,-0.0008730104093094192,-0.9151619174444491
12646,13.0,300.19352000000003,38278.351,0.0,-0.063229667905916,-0.06322882531518537,0.0,0.0,0.0,-2.8478144878824074,-4.4855691280162056,-4.302279277676906,-0.002700392981808037,-0.0011877035988672189,-0.9128636027726231
12647,13.0,300.14265,38247.51,0.0,-0.06323464940459689,-0.06323382752537232,0.0,0.0,0.0,-2.8456000297888577,-4.482625028525646,-4.2980629413607865,0.0017162847652841184,-0.0013894432136523686,-0.9130908139750472
12648,13.0,299.96572000000003,38225.509,0.0,-0.06323966389333524,-0.06323882973555939,0.0,0.0,0.0,-2.8437705054082976,-4.4825153948648255,-4.293314547417155,-0.00045610175543123855,-0.0037678573323835663,-0.9087706701861822
12649,13.0,299.72987,38257.101,0.0,-0.06324464539201635,-0.06324383194574656,0.0,0.0,0.0,-2.8466356727160678,-4.480490313214966,-4.302077336931975,0.003010312648819727,0.002911066929349937,-0.9074948059252641
12650,13.0,299.7859,38283.367,0.0,-0.0632496598807546,-0.06324883415593363,0.0,0.0,0.0,-2.8429509887274174,-4.487851777841486,-4.3063849670821055,-0.0026302022089557476,0.0023069820131813978,-0.9117452685047521
12651,13.0,300.06673,38288.809,0.0,-0.06325467436949317,-0.06325380345684306,0.0,0.0,0.0,-2.845423014996387,-4.483811949692786,-4.3096068997500865,0.0029026677952960073,0.004068633227842837,-0.907406602504059
12652,13.0,299.95432999999997,38263.117999999995,0.0,-0.06325965586817406,-0.06325880566703024,0.0,0.0,0.0,-2.8485994527348772,-4.482214054285087,-4.300218934923566,-0.002961712918373307,0.001842248471340768,-0.9103782218673351
12653,13.0,300.04012,38319.136,0.0,-0.06326467035691252,-0.06326380787721742,0.0,0.0,0.0,-2.8492701229760677,-4.493612307310006,-4.305178084887996,0.0026443391756759576,-0.0006028881462104274,-0.910221127571831
12654,13.0,299.99047,38346.659,0.0,-0.06326965185559341,-0.06326881008740437,0.0,0.0,0.0,-2.856976599261637,-4.490782806405755,-4.308667515582376,0.0019041612948510881,-0.0038549174021757257,-0.9153727849227601
12655,13.0,299.9913,38372.824,0.0,-0.06327466634433165,-0.06327381229759155,0.0,0.0,0.0,-2.8505777222301174,-4.499224699613905,-4.314577904740686,0.005405516929657984,-0.001120483067358069,-0.9135017679506052
12656,13.0,300.16987,38357.776,0.0,-0.06327964784301254,-0.0632788145077785,0.0,0.0,0.0,-2.850565157928877,-4.498325440150155,-4.310915613579247,0.0027005666528751777,0.00030916562655227173,-0.9171167200673731
12657,13.0,300.22258,38300.602999999996,0.0,-0.06328466233175112,-0.06328381671796568,0.0,0.0,0.0,-2.8508779482347473,-4.482467468135096,-4.309081630898246,0.0014761781314874386,-0.0009787033479729998,-0.9059160102819491
12658,13.0,300.09403,38282.612,0.0,-0.06328964383043179,-0.06328881892815286,0.0,0.0,0.0,-2.8470754232594673,-4.491465534323137,-4.2984171735957455,-0.0012693324454733587,-0.001047652170045219,-0.9201805654547512
12659,13.0,300.26887999999997,38347.873,0.0,-0.06329465831917025,-0.06329382113833981,0.0,0.0,0.0,-2.852977503766957,-4.4893369998380654,-4.314481342006156,-0.0009045290127500631,-0.005451589513029995,-0.9027646504834342
12660,13.0,300.08243999999996,38323.212999999996,0.0,-0.06329967280790882,-0.06329882334852699,0.0,0.0,0.0,-2.847265407653217,-4.495997092745366,-4.306037320972796,0.0015786648327270885,0.002078998612856188,-0.9180025539672981
12661,13.0,300.09448,38284.179,0.0,-0.06330465430658949,-0.06330382555871394,0.0,0.0,0.0,-2.8376713477563573,-4.493994809222755,-4.305768201746236,-0.003925446803211436,0.0013681086248468087,-0.9102166692713911
12662,13.0,300.05416,38323.657999999996,0.0,-0.06330966879532796,-0.06330882776890101,0.0,0.0,0.0,-2.8452778162570573,-4.494721106894436,-4.309435964458216,-7.703252427726822e-06,0.0022579200380393578,-0.9174194589322512
12663,13.0,299.84122,38406.809,0.0,-0.06331465029400885,-0.06331382997908819,0.0,0.0,0.0,-2.8597286878582473,-4.503685735829175,-4.311296392966826,0.002243516687867858,0.004920152298556225,-0.9078176679371281
12664,13.0,299.95017,38394.842000000004,0.0,-0.06331966478274731,-0.06331883218927514,0.0,0.0,0.0,-2.8581477137272175,-4.501589422697286,-4.311336213695755,0.005768937620499814,-0.00013370928366357888,-0.9092371907972241
12665,13.0,300.03145,38352.201,0.0,-0.06332464628142831,-0.0633238014901848,0.0,0.0,0.0,-2.8502935055770675,-4.494797708601995,-4.313020235361956,0.002361968765633168,-0.005877174516056964,-0.9084066499552561
12666,13.0,299.96456,38359.15,0.0,-0.06332966077016677,-0.06332880370037186,0.0,0.0,0.0,-2.8534521101137975,-4.499555120471516,-4.307216440114166,-0.005405020538433995,-0.006168957816878734,-0.9128450197657891
12667,13.0,299.90558,38386.036,0.0,-0.06333467525890502,-0.06333380591055882,0.0,0.0,0.0,-2.854232717990837,-4.496015939197226,-4.318147990143026,0.0007183940878524763,-0.0014726345932377187,-0.9121821616828701
12668,13.0,300.10292999999996,38383.634,0.0,-0.0633396567575859,-0.06333880812074599,0.0,0.0,0.0,-2.860525406411877,-4.4975474667233755,-4.3095933221987455,-0.0026899558978279773,0.0023759923496671875,-0.9138978575471961
12669,13.0,300.08846,38360.37,0.0,-0.06334467124632448,-0.06334381033093295,0.0,0.0,0.0,-2.856563193220837,-4.491927779018756,-4.312103446671476,0.0017102447814380183,0.00019042270547825783,-0.9116527891681251
12670,13.0,300.03452999999996,38341.354,0.0,-0.06334965274500537,-0.06334881254112013,0.0,0.0,0.0,-2.852597737629477,-4.492620234137096,-4.309596361949046,-0.0008817711115290331,-0.0030981138097350273,-0.9102034666225882
12671,13.0,299.9407,38356.482,0.0,-0.06335466723374361,-0.0633538147513073,0.0,0.0,0.0,-2.8506671922139475,-4.497097178378936,-4.311648294726555,0.00017643299439508087,0.0004432014807230806,-0.916845098113066
12672,13.0,299.78996,38444.242,0.0,-0.0633596487324245,-0.06335881696149426,0.0,0.0,0.0,-2.8561648846065273,-4.5071572319967865,-4.322767397348925,0.0042848640415831555,0.002408450499395558,-0.9153497132179831
12673,13.0,299.90389,38434.929,0.0,-0.06336466322116308,-0.06336381917168143,0.0,0.0,0.0,-2.858824868769047,-4.508483475052675,-4.3159504533261455,0.0015827034449756685,-0.000964435074172331,-0.9210067898512931
12674,13.0,299.78983,38371.722,0.0,-0.06336964471984374,-0.06336882138186839,0.0,0.0,0.0,-2.846785735055877,-4.5035919088699154,-4.313667600850846,-0.0016575110919086083,0.005501024364208834,-0.9174472625149951
12675,13.0,299.90847,38370.972,0.0,-0.0633746592085822,-0.06337382359205557,0.0,0.0,0.0,-2.8587271914594075,-4.494333336081166,-4.3107566346385555,-0.002230341396817558,0.005825480522455164,-0.9117657564217742
12676,13.0,299.80341,38427.677,0.0,-0.06337967369732067,-0.06337882580224263,0.0,0.0,0.0,-2.853316841225447,-4.503983327383546,-4.323754100296306,0.001899956306936088,0.008507311269056253,-0.911335601356821
12677,13.0,300.06388,38423.818,0.0,-0.06338465519600156,-0.06338382801242981,0.0,0.0,0.0,-2.856338150373627,-4.501410786704655,-4.322132190861236,-0.0005745722540833664,-0.0017367912247829484,-0.9168245899310422
12678,13.0,300.06434,38406.695,0.0,-0.06338966968473991,-0.06338883022261677,0.0,0.0,0.0,-2.849293123753337,-4.501872423450216,-4.323510616297275,-0.0006381581865563094,-7.535666535387383e-05,-0.9197400752387781
12679,13.0,300.09092000000004,38404.537000000004,0.0,-0.06339465118342102,-0.06339379952352642,0.0,0.0,0.0,-2.8614011584733077,-4.499849368300556,-4.3127696586122255,-0.002149649907878928,0.0025610061437266276,-0.9219415333335452
12680,13.0,299.91446,38407.513999999996,0.0,-0.06339966567215927,-0.06339880173371348,0.0,0.0,0.0,-2.8649191628205073,-4.494651901912605,-4.315354358292316,-0.0016301187873801984,-2.145228388417558e-05,-0.915134144259208
12681,13.0,300.12876,38458.154,0.0,-0.06340464717084016,-0.06340380394390044,0.0,0.0,0.0,-2.869290729051947,-4.506248954607146,-4.314778730910506,-0.003187149514572167,-0.0015978476836202885,-0.9152780967009151
12682,13.0,300.21747,38481.723,0.0,-0.06340966165957873,-0.0634088061540874,0.0,0.0,0.0,-2.865336925836737,-4.5080741220122755,-4.324071855527666,-0.0014094827675051186,-0.0016061971684193186,-0.9068292120670751
12683,13.0,300.04635,38418.726,0.0,-0.06341464315825962,-0.06341380836427457,0.0,0.0,0.0,-2.8514562100668175,-4.507126631843766,-4.3197505465011865,-0.0007015829919983503,0.0024423957962956978,-0.9110025460489513
12684,13.0,299.82504,38417.661,0.0,-0.06341965764699786,-0.06341881057446175,0.0,0.0,0.0,-2.852872024431547,-4.504424395152076,-4.320713336746206,-0.005602783855851714,-0.0018117427532300882,-0.9140881965784812
12685,13.0,299.87453,38511.893,0.0,-0.06342467213573633,-0.0634238127846487,0.0,0.0,0.0,-2.8661106436130974,-4.512513474675406,-4.328029610418266,0.0002882409683396687,-0.004746830093425656,-0.914636608062605
12686,13.0,299.6709,38506.348,0.0,-0.06342965363441722,-0.06342881499483588,0.0,0.0,0.0,-2.871645420959337,-4.507143249145406,-4.326179517060676,0.0015900958137302385,0.001732776018611678,-0.9091214776358041
12687,13.0,299.83752999999996,38457.672999999995,0.0,-0.06343466812315557,-0.06343381720502284,0.0,0.0,0.0,-2.858909272502377,-4.507953443925366,-4.323309486152425,0.007345626514206892,0.004133702933364716,-0.9121342045556371
12688,13.0,300.0438,38433.531,0.0,-0.06343964962183646,-0.06343881941521001,0.0,0.0,0.0,-2.8542440663919573,-4.503145977500905,-4.325443492188036,0.0037885906585797863,-0.0023719645791946777,-0.9117056808233451
12689,13.0,300.10686,38449.791,0.0,-0.06344466411057492,-0.06344382162539719,0.0,0.0,0.0,-2.8513487042312073,-4.510111058688306,-4.3263165084741955,-0.002837504972089937,-0.006107048235768734,-0.9204386909177261
12690,13.0,299.99266,38496.943999999996,0.0,-0.06344964560925581,-0.06344882383558426,0.0,0.0,0.0,-2.861217456230177,-4.514644238310695,-4.326247810117415,0.00032302854965043573,-0.003494976516152327,-0.9243109274998861
12691,13.0,300.25104,38516.852999999996,0.0,-0.06345466009799416,-0.06345382604577143,0.0,0.0,0.0,-2.867331913958627,-4.514718104242986,-4.326111629303976,0.0016029304500969187,-0.0014343212764814884,-0.9166567349194762
12692,13.0,300.11823,38446.037000000004,0.0,-0.06345967458673263,-0.06345882825595839,0.0,0.0,0.0,-2.8631379704697175,-4.511224215248166,-4.312273166063226,-0.0013816702681602386,-0.0036002202709140767,-0.9199045662600122
12693,13.0,300.0565,38421.42,0.0,-0.06346465608541352,-0.06346379755686793,0.0,0.0,0.0,-2.8526891327884973,-4.508505665229865,-4.317957499124225,-0.0037023978295482158,-0.0074032306943169835,-0.9133618887743001
12694,13.0,299.85597,38515.967000000004,0.0,-0.06346967057415187,-0.0634687997670551,0.0,0.0,0.0,-2.8623176431887574,-4.518257792142326,-4.327316788972916,0.002027600184308558,0.0009063975168619701,-0.9184282608643122
12695,13.0,299.87525,38531.484,0.0,-0.06347465207283287,-0.06347380197724206,0.0,0.0,0.0,-2.8548769424044176,-4.5181946666610955,-4.339537395778996,0.0018534962567258381,0.0056900316808874045,-0.9119703924119701
12696,13.0,300.01859,38465.541,0.0,-0.06347966656157122,-0.06347880418742924,0.0,0.0,0.0,-2.8560256640427872,-4.511373163012866,-4.325165051060556,0.0005734173110893824,-0.0034174316753992464,-0.9160416313137701
12697,13.0,300.0658,38487.012,0.0,-0.06348464806025211,-0.0634838063976162,0.0,0.0,0.0,-2.8635132783067574,-4.509809718108566,-4.325767732220036,-0.0015872797890523185,-0.007068638691345323,-0.9126132388054141
12698,13.0,300.08338,38544.097,0.0,-0.06348966254899058,-0.06348880860780315,0.0,0.0,0.0,-2.8792342589082973,-4.5109301700691455,-4.326278511595445,0.004249947443137155,0.0033641245876382467,-0.9080380802313811
12699,13.0,300.08417000000003,38564.629,0.0,-0.06349464404767147,-0.06349381081799033,0.0,0.0,0.0,-2.8729233319854575,-4.522615274197375,-4.327145549706016,0.0026626743415354972,0.006407936703314114,-0.9148457428832452
12700,13.0,300.18358,38555.155,0.0,-0.06349965853640982,-0.06349881302817739,0.0,0.0,0.0,-2.868309295005087,-4.515316023126996,-4.336178978322546,0.0013767513442247785,-0.0007477776517424083,-0.9166302688268642
12701,13.0,300.09811,38575.267,0.0,-0.06350467302514828,-0.06350381523836457,0.0,0.0,0.0,-2.8682478920490273,-4.521315780944126,-4.336354371914855,-0.0066375896358290935,-0.005095681159754575,-0.9245049750265372
12702,13.0,300.32504,38548.207,0.0,-0.06350965452382917,-0.06350881744855164,0.0,0.0,0.0,-2.8692878919516676,-4.517782273870396,-4.330622314774146,-0.0017418012399023984,0.002881199254827227,-0.9192965959350101
12703,13.0,300.12189,38545.339,0.0,-0.06351466901256753,-0.0635138196587387,0.0,0.0,0.0,-2.8736002843772677,-4.519245305689786,-4.323974887493096,0.0013432919007475886,0.002103866708735478,-0.9265539592462562
12704,13.0,300.34254,38548.703,0.0,-0.06351965051124842,-0.06351882186892588,0.0,0.0,0.0,-2.870129700134747,-4.5152514790956255,-4.332462072980716,0.0003357040550889107,0.002457713300707418,-0.9171788728285072
12705,13.0,300.15808,38523.084,0.0,-0.06352466499998688,-0.06352382407911283,0.0,0.0,0.0,-2.863277495008487,-4.515544409699536,-4.331233507234466,-0.0018832895586912083,-0.0015538000805731286,-0.9188148157774622
12706,13.0,300.03296,38516.289,0.0,-0.06352964649866777,-0.06352882628930001,0.0,0.0,0.0,-2.849149647539177,-4.521428353030236,-4.337412103694247,0.00045511134398849254,0.005278978609469625,-0.9159545526001761
12707,13.0,299.94616,38558.782999999996,0.0,-0.06353466098740612,-0.06353382849948697,0.0,0.0,0.0,-2.859536980939327,-4.522730987358796,-4.338639352215366,0.0032724907068946867,0.01027679592024079,-0.9194870565563072
12708,13.0,299.9997,38592.324,0.0,-0.06353964248608712,-0.06353879780039651,0.0,0.0,0.0,-2.860911556024987,-4.528572475510305,-4.341618814134416,0.00036109713611001264,0.0014372585871963786,-0.9169548229663952
12709,13.0,299.93669,38560.555,0.0,-0.06354465697482548,-0.06354380001058368,0.0,0.0,0.0,-2.8775578366178474,-4.519411884006225,-4.324476142317566,0.0064142182459840545,0.0003194164447664487,-0.9169357333345111
12710,13.0,300.05019,38617.473,0.0,-0.06354967146356394,-0.06354880222077086,0.0,0.0,0.0,-2.878758943286387,-4.523892577273436,-4.336095993139355,0.0019369208864842083,-0.003607761992733387,-0.9130040291039822
12711,13.0,299.98601,38598.482,0.0,-0.06355465296224483,-0.06355380443095782,0.0,0.0,0.0,-2.8745714845981176,-4.518715274562475,-4.339687964743856,0.004304016089673316,-0.0037246334003426967,-0.9168242859560122
12712,13.0,300.02215,38581.829,0.0,-0.06355966745098318,-0.06355880664114477,0.0,0.0,0.0,-2.8608776121466373,-4.521849966396846,-4.345184947861366,-0.007179879062848894,-0.01012376617618793,-0.9175772118403202
12713,13.0,300.09006,38613.559,0.0,-0.06356464894966407,-0.06356380885133184,0.0,0.0,0.0,-2.8721753507616374,-4.522164681877905,-4.343217722792216,0.0005107928820338325,-0.004658322798515665,-0.9215642597913111
12714,13.0,299.99104,38616.505,0.0,-0.06356966343840253,-0.06356881106151901,0.0,0.0,0.0,-2.8789695979821768,-4.516099062804276,-4.343384706408696,-0.004309705792959846,0.005187458618037305,-0.9118058000657262
12715,13.0,300.17607999999996,38559.933,0.0,-0.06357464493708342,-0.06357381327170619,0.0,0.0,0.0,-2.8766206816003574,-4.515206085491146,-4.329430023381476,-0.0014667277504547586,0.006762363380968304,-0.9214340571534612
12716,13.0,300.00255,38582.73,0.0,-0.06357965942582178,-0.06357881548189315,0.0,0.0,0.0,-2.8749300738085073,-4.518211587937766,-4.335044746160605,-0.0021410912882592584,0.0025373224358892278,-0.911824220952544
12717,13.0,299.85829,38655.163,0.0,-0.06358467391456024,-0.06358381769208032,0.0,0.0,0.0,-2.8709751560181873,-4.533399801636725,-4.345829476249976,3.707848101836116e-05,0.0036835549240635665,-0.9205203284782831
12718,13.0,299.93847,38623.727,0.0,-0.06358965541324113,-0.06358881990226728,0.0,0.0,0.0,-2.867711882746127,-4.530577190833156,-4.342359398632506,0.0009219093423778682,0.0029503572218525873,-0.9150196976604131
12719,13.0,299.87371,38592.917,0.0,-0.06359466990197948,-0.06359382211245446,0.0,0.0,0.0,-2.861204790603927,-4.531416668541005,-4.3386616437175665,-0.0011749375595323088,-0.002110405211630778,-0.9279575335497781
12720,13.0,299.93881,38626.317,0.0,-0.06359965140066037,-0.06359882432264163,0.0,0.0,0.0,-2.880148615798537,-4.5305968478850955,-4.3306904051808655,-0.001055473548892129,-0.0017632505286192784,-0.9194867525812771
12721,13.0,300.12262000000004,38645.357,0.0,-0.06360466588939884,-0.06360382653282859,0.0,0.0,0.0,-2.8782099643822074,-4.530861711461236,-4.338151674942236,0.001844858502273358,-0.006420803257058943,-0.9189071329940731
12722,13.0,300.08588,38604.469,0.0,-0.06360964738807973,-0.06360879583373813,0.0,0.0,0.0,-2.8727276733911475,-4.525890605145626,-4.336176242547276,0.004470871023390616,-0.0016300758255759582,-0.9208449940753252
12723,13.0,300.09852,38625.143,0.0,-0.06361466187681819,-0.06361379804392531,0.0,0.0,0.0,-2.8617103010788174,-4.531913870365075,-4.347454932060396,0.0032799232003532163,-9.41273838616495e-05,-0.9204645186627751
12724,13.0,300.07751,38624.954,0.0,-0.06361964337549908,-0.06361880025411226,0.0,0.0,0.0,-2.864188305523377,-4.527868266690805,-4.348964877359416,0.0006832632579378333,0.002264613770849978,-0.9241881418527682
12725,13.0,300.00021,38631.163,0.0,-0.06362465786423743,-0.06362380246429944,0.0,0.0,0.0,-2.8650660840850075,-4.531781235926986,-4.346061611847886,-0.006163528822842934,0.006635931553365454,-0.9205549107041961
12726,13.0,300.10194,38682.492999999995,0.0,-0.0636296723529759,-0.0636288046744864,0.0,0.0,0.0,-2.883825396436407,-4.533805810951796,-4.340880864086587,-0.006377844289919224,0.006282236036983424,-0.9216937126240871
12727,13.0,299.99197999999996,38672.956,0.0,-0.06363465385165679,-0.06363380688467357,0.0,0.0,0.0,-2.8861039932612873,-4.530520347502545,-4.338988619524836,-0.004377172442918286,0.006497187521147483,-0.9109040277417281
12728,13.0,299.89205,38667.66,0.0,-0.06363966834039514,-0.06363880909486064,0.0,0.0,0.0,-2.8767281874359676,-4.536694688311906,-4.340580131456906,-0.002206370939201858,0.001107291969606209,-0.9206593666570051
12729,13.0,299.98191,38714.495,0.0,-0.06364464983907603,-0.06364381130504759,0.0,0.0,0.0,-2.879076495867727,-4.534529575498225,-4.354633606368876,0.0035279950945110066,-0.0050758533751727244,-0.912786048609969
12730,13.0,299.77242,38754.804,0.0,-0.06364966432781449,-0.06364881351523477,0.0,0.0,0.0,-2.882605341990997,-4.540849317696936,-4.357037947531166,0.004678048954112485,-0.005660257022723875,-0.9200228429441852
12731,13.0,299.88941,38713.248,0.0,-0.06365464582649538,-0.06365381572542173,0.0,0.0,0.0,-2.8771213284747676,-4.539079777722296,-4.351659616000366,0.004145176977497116,-0.004981157553951975,-0.9195748648099732
12732,13.0,299.97876,38645.788,0.0,-0.06365966031523373,-0.0636588179356089,0.0,0.0,0.0,-2.881639208020647,-4.523014190761746,-4.342701269216246,0.002172851207343718,-0.0018739037216898983,-0.918861435414563
12733,13.0,299.9099,38664.79,0.0,-0.06366464181391462,-0.06366382014579608,0.0,0.0,0.0,-2.8792034561052575,-4.529511657027996,-4.344415485735426,-0.003426157683935437,0.0014439123979530586,-0.9229199276301051
12734,13.0,299.95587,38674.719,0.0,-0.06366965630265309,-0.06366882235598303,0.0,0.0,0.0,-2.8770280081405573,-4.529202413097476,-4.3499185483535365,-0.005170121706176285,0.0012305735013231488,-0.9218984398067921
12735,13.0,299.9197,38651.751000000004,0.0,-0.06367467079139133,-0.06367382456617021,0.0,0.0,0.0,-2.8637463258297573,-4.532990955221376,-4.352429888726387,-0.006247277895283323,-0.0003962526589295926,-0.9321924630052331
12736,13.0,299.94999,38686.16,0.0,-0.06367965229007244,-0.06367879386707975,0.0,0.0,0.0,-2.8744389514850375,-4.535647291683536,-4.349540403416216,-0.006338525119788724,-0.0015887337016208083,-0.9229222581053352
12737,13.0,300.24287999999996,38715.994,0.0,-0.0636846667788108,-0.06368379607726671,0.0,0.0,0.0,-2.8775367610157674,-4.537785350719546,-4.353373224569486,-0.0008165261947998613,-0.0009478735620828371,-0.9280268094591151
12738,13.0,300.11397,38724.817,0.0,-0.06368964827749168,-0.06368879828745388,0.0,0.0,0.0,-2.8876414989630272,-4.540697938131995,-4.343037972224476,-0.000871398196677806,0.002259443054264668,-0.9214922582392051
12739,13.0,300.01288999999997,38802.913,0.0,-0.06369466276623015,-0.06369380049764084,0.0,0.0,0.0,-2.8894474146162574,-4.547682473721316,-4.357986653599796,0.0030549785370779067,-3.6310512423068566e-05,-0.9266374409219951
12740,13.0,299.91841,38764.501000000004,0.0,-0.06369964426491104,-0.06369880270782802,0.0,0.0,0.0,-2.8797778675869474,-4.545204874576796,-4.358457713571286,0.0015835606545602683,-0.0016755982141436684,-0.9140292558201641
12741,13.0,299.87872999999996,38658.824,0.0,-0.06370465875364939,-0.0637038049180152,0.0,0.0,0.0,-2.8647601838798176,-4.538227330413166,-4.348329772196736,0.003417630475068867,-0.003706874368490017,-0.9206991265909292
12742,13.0,299.89332,38699.289,0.0,-0.06370967324238785,-0.06370880712820226,0.0,0.0,0.0,-2.8695982504572974,-4.538070681947705,-4.355948602348655,-0.0010638141170902788,-0.005513519764442035,-0.9166643849577311
12743,13.0,299.76099,38712.799,0.0,-0.06371465474106874,-0.06371380933838922,0.0,0.0,0.0,-2.8863205248076573,-4.533084680855625,-4.348319133070686,-0.0021640742323274977,-0.004175565969196276,-0.9204464017509871
12744,13.0,299.94104,38699.591,0.0,-0.06371966922980699,-0.06371881154857617,0.0,0.0,0.0,-2.8856154040630675,-4.531143293664026,-4.346950536160616,-0.004460851398451756,0.0018820316086920583,-0.9209513853358251
12745,13.0,300.07836000000003,38738.857,0.0,-0.06372465072848787,-0.06372381375876335,0.0,0.0,0.0,-2.8874174693659174,-4.535760471719706,-4.352467176330066,0.002606245936841448,0.006315627288728884,-0.918803396448835
12746,13.0,299.97281,38781.752,0.0,-0.06372966521722645,-0.06372881596895053,0.0,0.0,0.0,-2.8794203929516673,-4.544384243320805,-4.364879591380076,-0.0011688406310305889,0.01175808853293299,-0.9247841659590911
12747,13.0,299.94146,38806.496,0.0,-0.06373464671590734,-0.06373381817913748,0.0,0.0,0.0,-2.886118178762687,-4.545159784947345,-4.364927822084836,0.000978286790724389,0.006101488836445064,-0.9235912767488621
12748,13.0,300.08378999999996,38857.951,0.0,-0.06373966120464558,-0.06373882038932466,0.0,0.0,0.0,-2.891600571078757,-4.553566315727005,-4.366679832832746,-0.004679831159713375,0.0014626075715731286,-0.9205639083650841
12749,13.0,299.78862999999996,38815.279,0.0,-0.06374464270332669,-0.06374382259951161,0.0,0.0,0.0,-2.8986641401758773,-4.545804313335956,-4.354407144971526,-0.0006538083916383644,0.001054164024462889,-0.922769216810231
12750,13.0,299.92643,38731.261,0.0,-0.06374965719206505,-0.06374882480969879,0.0,0.0,0.0,-2.881373736494447,-4.545211562027456,-4.346750925890916,-0.0024561750857306076,0.007378480743399353,-0.9278321134524002
12751,13.0,299.86982,38674.829,0.0,-0.06375467168080329,-0.06375379411060833,0.0,0.0,0.0,-2.8662443926262973,-4.543726947980936,-4.346210863587616,0.003600367496153606,0.004724262277923386,-0.9309251100451552
12752,13.0,299.7718,38706.722,0.0,-0.0637596531794844,-0.0637587963207954,0.0,0.0,0.0,-2.869297315177597,-4.545014788858036,-4.351564775791005,0.002888268599449917,-0.0003365930908591517,-0.9204233199137091
12753,13.0,299.86374,38727.386,0.0,-0.06376466766822264,-0.06376379853098246,0.0,0.0,0.0,-2.8666610410674176,-4.5486877191455255,-4.3568095609586255,0.005813568855604574,-0.003666962649701036,-0.9276342459728721
12754,13.0,299.96677999999997,38695.947,0.0,-0.06376964916690353,-0.06376880074116964,0.0,0.0,0.0,-2.8694885154714673,-4.5397897620673655,-4.353323271339556,0.008403042362215712,0.0008207092053201923,-0.9209636963245402
12755,13.0,299.90051,38780.614,0.0,-0.0637746636556421,-0.0637738029513567,0.0,0.0,0.0,-2.8828715227922674,-4.547755123753486,-4.357711657522655,0.0035827183006117667,0.00011068541442379988,-0.9273497962722991
12756,13.0,300.10611,38883.113,0.0,-0.063779645154323,-0.06377880516154388,0.0,0.0,0.0,-2.900865426018127,-4.550155918540425,-4.368474096109826,-0.0019192645981916685,0.0036922980565264464,-0.9165859188699871
12757,13.0,300.20866,38884.32,0.0,-0.06378465964306124,-0.06378380737173084,0.0,0.0,0.0,-2.8948304070975173,-4.5537471808698555,-4.371284750562216,-0.01113087050903139,0.002281795047495638,-0.9249299219859761
12758,13.0,300.13046,38849.81,0.0,-0.06378964114174213,-0.06378880958191802,0.0,0.0,0.0,-2.8942804149432373,-4.549199815746066,-4.365891828229976,-0.005525234151498155,0.007085322462191883,-0.9246004941134641
12759,13.0,300.19617,38829.876000000004,0.0,-0.0637946556304807,-0.06379381179210497,0.0,0.0,0.0,-2.889676611788877,-4.549056643506936,-4.364579264050436,-0.006213121639712364,-5.492045651097704e-06,-0.9232620920563742
12760,13.0,300.04987,38785.532,0.0,-0.06379967011921894,-0.06379881400229193,0.0,0.0,0.0,-2.8878668457852674,-4.549499433800636,-4.352466872355036,0.004121675350702686,-0.004314281326436416,-0.9285572762839681
12761,13.0,299.99363999999997,38820.594,0.0,-0.06380465161789983,-0.0638038162124791,0.0,0.0,0.0,-2.8961652627792573,-4.545161000847466,-4.359164860816076,0.006863828320807113,-0.007008624597197394,-0.9203332521123201
12762,13.0,299.78877,38848.716,0.0,-0.0638096661066383,-0.06380881842266617,0.0,0.0,0.0,-2.892361217928827,-4.553219986842826,-4.363458508114826,0.011997437458304887,-0.002256714169095348,-0.9286092965441021
12763,13.0,300.01942,38800.091,0.0,-0.0638146476053193,-0.06381382063285335,0.0,0.0,0.0,-2.8820320450844177,-4.5494480620205655,-4.362778819947746,0.006843945415419823,-0.0014665197302092287,-0.9191971049076912
12764,13.0,300.14912999999996,38823.606,0.0,-0.06381966209405754,-0.06381882284304041,0.0,0.0,0.0,-2.8789416322794175,-4.548538670055816,-4.373926394897926,-0.001008637238389745,-0.004694660176251886,-0.925576324887271
12765,13.0,300.26468,38910.113,0.0,-0.06382464359273865,-0.06382379214394984,0.0,0.0,0.0,-2.8940143354669767,-4.557212090911816,-4.376476340099586,-0.004730845667798115,0.0022231515767579778,-0.916337429415463
12766,13.0,299.94517,38896.972,0.0,-0.06382965808147689,-0.06382879435413702,0.0,0.0,0.0,-2.8937066114116075,-4.556531997444695,-4.373469520427837,-0.005597328314663295,0.004782937970014225,-0.9292243393548021
12767,13.0,300.04297,38870.729,0.0,-0.06383467257021525,-0.06383379656432409,0.0,0.0,0.0,-2.896145403077297,-4.5554773054156055,-4.364108204078946,-1.1447806021060489e-05,0.00027779464351869676,-0.9201846691176561
12768,13.0,299.78015,38868.765,0.0,-0.06383965406889636,-0.06383879877451115,0.0,0.0,0.0,-2.894962838885587,-4.556042698971405,-4.364128469080946,-0.0018303616291176284,-0.0048792876180481955,-0.9316517218243662
12769,13.0,299.94102000000004,38848.359,0.0,-0.06384466855763482,-0.06384380098469833,0.0,0.0,0.0,-2.886940431218837,-4.553470867567587,-4.368519692364326,0.00026674099685278674,-0.002126009263170778,-0.9295040875749112
12770,13.0,299.96319,38820.062000000005,0.0,-0.06384965005631549,-0.06384880319488528,0.0,0.0,0.0,-2.8809012579728175,-4.556332083199966,-4.363096068554055,0.001964816067037248,0.00040473837520456764,-0.9361012171209971
12771,13.0,300.06127999999995,38862.005,0.0,-0.06385466454505406,-0.06385380540507246,0.0,0.0,0.0,-2.8876932760431373,-4.553959051465766,-4.371426808226236,-0.00013548220789355285,-0.0001208823581301599,-0.9310604295960101
12772,13.0,300.14504,38824.852,0.0,-0.06385964604373495,-0.06385880761525964,0.0,0.0,0.0,-2.8933538990517973,-4.548271273354426,-4.360160480364336,-0.003949881126722917,-0.0001014493560522719,-0.9257907691384352
12773,13.0,300.31121,38817.943999999996,0.0,-0.0638646605324732,-0.0638638098254466,0.0,0.0,0.0,-2.884024500081057,-4.5552672586698755,-4.360393933187376,-0.0008583002774051423,0.0004843501954991425,-0.9290397150540811
12774,13.0,300.02932000000004,38923.857,0.0,-0.06386964203115408,-0.06386881203563355,0.0,0.0,0.0,-2.896640173101127,-4.5581863308829655,-4.3770540953066055,0.0008132883845028143,0.004757149843044136,-0.9202276309218962
12775,13.0,300.01993,38990.56,0.0,-0.06387465651989255,-0.06387381424582061,0.0,0.0,0.0,-2.9000695180645772,-4.567776033804396,-4.384311195172826,0.0013584914628476687,-0.0008598093614415772,-0.9206529325188701
12776,13.0,300.07385,38932.381,0.0,-0.0638796710086309,-0.06387881645600779,0.0,0.0,0.0,-2.890908825235487,-4.5644804378541455,-4.379082520681796,0.002924256912526687,0.0006817014038361903,-0.9207193105329211
12777,13.0,300.16535,38904.732,0.0,-0.06388465250731179,-0.06388381866619497,0.0,0.0,0.0,-2.8919263309859073,-4.560168552053596,-4.373972092477437,0.0018273219801426383,0.0068078125115537845,-0.9257967067840212
12778,13.0,299.98562999999996,38959.676,0.0,-0.06388966699605025,-0.06388882087638192,0.0,0.0,0.0,-2.9067084340447873,-4.564122051293776,-4.371938195551706,8.425455859727752e-05,0.010690499856570189,-0.9257090707828721
12779,13.0,300.06582000000003,38939.265,0.0,-0.06389464849473114,-0.06389379017729147,0.0,0.0,0.0,-2.906269696751487,-4.558551404893996,-4.371742942257437,-0.005852789335175334,0.0013256157527530886,-0.9275301750551012
12780,13.0,300.1127,38867.898,0.0,-0.0638996629834695,-0.06389879238747864,0.0,0.0,0.0,-2.8914638836402675,-4.557773634117236,-4.365632942829426,-0.007295416830676583,-0.007105797916237653,-0.9322832096841891
12781,13.0,299.98695,38831.736000000004,0.0,-0.06390464448215061,-0.0639037945976656,0.0,0.0,0.0,-2.8841215694406372,-4.556724008338645,-4.363032537772786,-0.0024193751593237374,-0.0026596801874899977,-0.933557209564923
12782,13.0,299.97119,38867.026,0.0,-0.06390965897088907,-0.06390879680785277,0.0,0.0,0.0,-2.882573323287837,-4.558909791454366,-4.373122279618566,0.00017328861588975484,0.0015589785991842085,-0.9335841924150862
12783,13.0,299.75284,38940.796,0.0,-0.06391464046956974,-0.06391379901803973,0.0,0.0,0.0,-2.8993041089390372,-4.566282604482005,-4.371442918902825,0.001971333089030428,-0.002278976489692468,-0.9287689036998542
12784,13.0,299.73886,39034.893,0.0,-0.0639196549583082,-0.0639188012282269,0.0,0.0,0.0,-2.911355199003387,-4.573115861831395,-4.381161608561986,0.0056234429108156046,-0.0038354568194301163,-0.9240179158359682
12785,13.0,299.95243,38979.361000000004,0.0,-0.06392466944704678,-0.06392380343841408,0.0,0.0,0.0,-2.9066445992884873,-4.567009003478696,-4.375098826588636,0.005904937366146943,0.004512522188626266,-0.9260444160359682
12786,13.0,300.04596000000004,38910.881,0.0,-0.06392965094572745,-0.06392880564860104,0.0,0.0,0.0,-2.889538100500207,-4.566543617707766,-4.3718546024184555,0.004728925964158655,0.002314211755294918,-0.9307993555752441
12787,13.0,300.09368,38985.072,0.0,-0.06393466543446591,-0.06393380785878822,0.0,0.0,0.0,-2.8990038829344074,-4.567421902894446,-4.384062746248306,-0.0029496669958844666,-0.0074313933728964235,-0.9242992548587341
12788,13.0,300.0656,39006.066,0.0,-0.0639396469331468,-0.06393881006897517,0.0,0.0,0.0,-2.9018608429163675,-4.567160079068605,-4.387849261872005,-0.005227024311917135,-0.007647002659025404,-0.9266261735808832
12789,13.0,300.00458,38908.122,0.0,-0.06394466142188515,-0.06394381227916224,0.0,0.0,0.0,-2.894416595756677,-4.560715099157536,-4.371965755954426,-0.0003933808548336676,0.00024143530865280977,-0.9295366433006241
12790,13.0,300.07605,38876.659,0.0,-0.06394964292056604,-0.06394881448934941,0.0,0.0,0.0,-2.894748536489437,-4.552948334491016,-4.369836714844306,0.005239348675533455,0.009625452107483161,-0.9307415901870432
12791,13.0,300.19722,38958.757000000005,0.0,-0.0639546574093045,-0.06395381669953637,0.0,0.0,0.0,-2.903138855267497,-4.563065130114466,-4.376285342455736,-0.0024404841986570376,9.110031742640132e-05,-0.927050826697793
12792,13.0,300.16725,39014.695,0.0,-0.06395967189804286,-0.06395881890972355,0.0,0.0,0.0,-2.903214849024997,-4.568753820150896,-4.387524413889946,0.003190682717670867,-0.00852648135299819,-0.9284622536895901
12793,13.0,300.14237,39062.565,0.0,-0.06396465339672375,-0.06396378821063309,0.0,0.0,0.0,-2.902135636343487,-4.576891839654055,-4.395016790429386,0.0025008994385195575,-0.0017393692370123784,-0.9275334985154291
12794,13.0,299.75138,39039.752,0.0,-0.06396966788546221,-0.06396879042082004,0.0,0.0,0.0,-2.903062152234927,-4.573525316196806,-4.390522418285825,0.0041681236472117765,-6.488706719135493e-05,-0.9239745588641891
12795,13.0,299.94028,38994.435,0.0,-0.06397464938414332,-0.06397379263100722,0.0,0.0,0.0,-2.899265200135197,-4.570628535485916,-4.383440712011916,-0.0037187485450869058,-0.005527967292317895,-0.9211790221032912
12796,13.0,299.95191,39012.907,0.0,-0.06397966387288156,-0.06397879484119418,0.0,0.0,0.0,-2.904980335999237,-4.575056134447886,-4.378913105265076,-0.005347808080812564,0.0009786942996496072,-0.930047290953521
12797,13.0,299.80665,39042.805,0.0,-0.06398464537156245,-0.06398379705138135,0.0,0.0,0.0,-2.904793897980837,-4.574402892108416,-4.388841132394895,0.005991882330727744,0.01183235064601209,-0.931035523908552
12798,13.0,299.88595,38936.446,0.0,-0.06398965986030103,-0.06398879926156853,0.0,0.0,0.0,-2.890518318646947,-4.566629642641256,-4.378559480980176,0.0038947676166836364,0.011011632250513489,-0.9368365023210641
12799,13.0,300.05987000000005,38856.192,0.0,-0.0639946413589817,-0.06399380147175548,0.0,0.0,0.0,-2.8789311958033874,-4.562416447400445,-4.369964485681916,0.001892050017730798,-0.002498528129310528,-0.932387533914485
12800,13.0,300.07887,38976.752,0.0,-0.06399965584772016,-0.06399880368194266,0.0,0.0,0.0,-2.8964448184818474,-4.565944178948605,-4.385570361072095,-0.004543318304215606,-0.006952612030344384,-0.9354040503896922
12801,13.0,300.17576,39095.992999999995,0.0,-0.06400467033645862,-0.06400380589212962,0.0,0.0,0.0,-2.915531815915587,-4.577266944841075,-4.391406884298116,0.00011028869661214688,0.005365641383897574,-0.9311375176636181
12802,13.0,300.23658,39060.751000000004,0.0,-0.0640096518351394,-0.0640088081023168,0.0,0.0,0.0,-2.910651902108977,-4.576871979952095,-4.385969176311455,0.0007121434391780853,0.0008032452116316301,-0.935213306058367
12803,13.0,300.07099999999997,39034.653,0.0,-0.06401466632387787,-0.06401381031250397,0.0,0.0,0.0,-2.900130515720597,-4.575743725965745,-4.389685473703225,-0.0033304523616400567,-0.0027150884519833674,-0.927539476691019
12804,13.0,300.09963999999997,39041.147000000004,0.0,-0.06401964782255876,-0.06401881252269104,0.0,0.0,0.0,-2.901184701124637,-4.577290958868446,-4.389058271891326,-0.0016358863082744084,-0.0033064425899204768,-0.931041613541653
12805,13.0,299.947,39036.888999999996,0.0,-0.06402466231129711,-0.06402381473287799,0.0,0.0,0.0,-2.902474061876887,-4.578034481791826,-4.385730859887936,-0.00015330813451783484,0.0017069014614080583,-0.9260501206340311
12806,13.0,300.07022,39079.859,0.0,-0.064029643809978,-0.06402881694306495,0.0,0.0,0.0,-2.911096617577867,-4.579231028834916,-4.3889737668329865,0.000998991796580314,0.004015637207862536,-0.9254526273150632
12807,13.0,300.03497999999996,39038.556000000004,0.0,-0.06403465829871646,-0.06403381915325213,0.0,0.0,0.0,-2.9126457756557573,-4.573617724605926,-4.3804829336450055,0.0010396090920764289,-0.004225766026850636,-0.9232899361691221
12808,13.0,299.87518,38942.399,0.0,-0.06403963979739757,-0.06403878845416189,0.0,0.0,0.0,-2.893368692503257,-4.569346976759436,-4.374801235034266,-0.003217215482139447,0.0028732785774705175,-0.9310504997450301
12809,13.0,299.80444,39039.818,0.0,-0.06404465428613582,-0.06404379066434884,0.0,0.0,0.0,-2.898368473796697,-4.5822563909834955,-4.386504982964336,-0.0016672379888935784,0.008119633066845393,-0.935263522733323
12810,13.0,299.68995,39165.659,0.0,-0.06404966877487417,-0.0640487928745358,0.0,0.0,0.0,-2.916060631142777,-4.585883117066425,-4.403438621285556,-0.0022537061335234777,0.0016943895451982283,-0.9246533148411771
12811,13.0,299.9806,39084.762,0.0,-0.06405465027355528,-0.06405379508472298,0.0,0.0,0.0,-2.9054877716493173,-4.578344434997415,-4.396959494846116,-0.0047026168239871465,-0.010943162888256091,-0.9327586975586161
12812,13.0,299.90861,38999.172,0.0,-0.06405966476229352,-0.06405879729490993,0.0,0.0,0.0,-2.8925294174454272,-4.576945541909355,-4.3852994179953555,-4.431671619421936e-05,-0.00981824127883497,-0.9314825495876701
12813,13.0,300.05165,39059.988,0.0,-0.06406464626097441,-0.06406379950509711,0.0,0.0,0.0,-2.9096212241072577,-4.577137755453325,-4.386501943214036,0.0002264399772428858,-0.0030938632255655273,-0.9374682434934121
12814,13.0,299.99642,39135.263,0.0,-0.06406966074971288,-0.06406880171528417,0.0,0.0,0.0,-2.913311784946487,-4.586175541045286,-4.396655418491106,0.002106803512825318,-0.0014279938335820185,-0.9322948721928402
12815,13.0,300.1235,39102.826,0.0,-0.06407464224839365,-0.06407380392547124,0.0,0.0,0.0,-2.9084535546920174,-4.585063397735525,-4.392765754007225,-0.003318553664390747,-0.007544758327209674,-0.937698372856124
12816,13.0,300.00962000000004,39035.337999999996,0.0,-0.06407965673713212,-0.06407880613565842,0.0,0.0,0.0,-2.896316946319227,-4.579688105955025,-4.389762886010866,-0.001151032861848099,0.0005816304326899545,-0.9333908946935092
12817,13.0,300.08066,39048.628,0.0,-0.06408467122587058,-0.06408380834584548,0.0,0.0,0.0,-2.9052549267763372,-4.573853811879225,-4.390698926453245,-0.0015917305914415784,0.010138013080543991,-0.930877071857914
12818,13.0,300.06685,39115.786,0.0,-0.06408965272455136,-0.06408881055603266,0.0,0.0,0.0,-2.910615222455357,-4.584384317518505,-4.395222480199687,-0.0024701389893337375,0.004691259303616246,-0.9300501989813081
12819,13.0,299.90238999999997,39181.254,0.0,-0.06409466721328982,-0.06409381276621962,0.0,0.0,0.0,-2.9260855249821573,-4.586350833312586,-4.397686603117876,-0.0023999636178829676,-0.005811011615002194,-0.9273697066367641
12820,13.0,299.8673,39161.32,0.0,-0.06409964871197071,-0.06409881497640657,0.0,0.0,0.0,-2.9113001795229576,-4.587955213520925,-4.404807927470696,0.0015810472876872184,0.000931138794358744,-0.932879780945566
12821,13.0,299.8987,39045.102999999996,0.0,-0.06410466320070896,-0.06410381718659375,0.0,0.0,0.0,-2.8996716147503077,-4.579783250139416,-4.389281389563346,0.005852867558083055,0.008281760276921101,-0.9313496010420491
12822,13.0,299.75767,39091.648,0.0,-0.06410964469939007,-0.06410878648750329,0.0,0.0,0.0,-2.908425690314268,-4.578974473909596,-4.395484709325566,-0.0008648677187232982,0.005117122545120675,-0.9316318418574041
12823,13.0,299.82937999999996,39228.328,0.0,-0.06411465918812842,-0.06411378869769047,0.0,0.0,0.0,-2.9281690711627872,-4.587852267310766,-4.408410943501286,0.00016644239907158583,-0.004643217772649916,-0.9249207723375732
12824,13.0,300.11901,39152.177,0.0,-0.06411964068680953,-0.06411879090787742,0.0,0.0,0.0,-2.9200450345110074,-4.584225439902825,-4.397013703726466,-0.0018058923484776984,-0.0026855467400178274,-0.936227620070972
12825,13.0,299.97978,39065.106,0.0,-0.06412465517554777,-0.06412379311806438,0.0,0.0,0.0,-2.906008176900677,-4.582042696537405,-4.386766097515106,0.004266623006657906,0.003368788983148587,-0.9370762879572291
12826,13.0,300.10114,39150.459,0.0,-0.06412966966428613,-0.06412879532825155,0.0,0.0,0.0,-2.9116852145609573,-4.589448034893255,-4.399628598259536,-0.004862278492594525,-0.0036095019458051063,-0.9339254651812671
12827,13.0,299.92081,39199.67,0.0,-0.06413465116296713,-0.06413379753843862,0.0,0.0,0.0,-2.912054848197437,-4.592744846743625,-4.410921169299026,-0.004833456492175016,-0.008124936012568753,-0.931178989990211
12828,13.0,299.75397000000004,39167.635,0.0,-0.06413966565170548,-0.0641387997486258,0.0,0.0,0.0,-2.9102034376147174,-4.591382835959205,-4.404396649255106,0.00047597558209763253,0.006578326461330274,-0.935181196162698
12829,13.0,300.0127,39155.693999999996,0.0,-0.06414464715038637,-0.06414380195881286,0.0,0.0,0.0,-2.907569797954797,-4.5915379645495165,-4.403245597141505,0.008094654830680233,0.013353280589366186,-0.9302185808829261
12830,13.0,300.06503,39100.223,0.0,-0.06414966163912483,-0.06414880416899993,0.0,0.0,0.0,-2.9088193379781173,-4.587392454415386,-4.389279667038176,0.002098517356157538,0.007507957286227693,-0.9331988837995592
12831,13.0,300.12691,39134.726,0.0,-0.06415464313780561,-0.0641538063791871,0.0,0.0,0.0,-2.9039948489519767,-4.595661284506455,-4.396323275108326,-0.0002919413678373697,-0.005900015605111204,-0.9362890635570361
12832,13.0,300.22829,39239.009,0.0,-0.06415965762654408,-0.06415880858937406,0.0,0.0,0.0,-2.9190853853412975,-4.601424448425236,-4.407169205503736,0.0028955305629166173,0.0007119179808983344,-0.9403258012929311
12833,13.0,300.25414,39235.337,0.0,-0.06416463912522496,-0.06416381079956124,0.0,0.0,0.0,-2.9202436315306075,-4.595082921349375,-4.4112363914051365,0.00957894088814286,0.0012843137535018987,-0.9318459010735302
12834,13.0,300.18462,39122.742,0.0,-0.0641696536139632,-0.06416881300974842,0.0,0.0,0.0,-2.9130273656434174,-4.584893171718726,-4.394416135770106,0.005393723103794025,-0.008140074070387762,-0.9345511876480211
12835,13.0,300.16603,39146.187000000005,0.0,-0.06417466810270178,-0.06417381521993537,0.0,0.0,0.0,-2.9162286280093572,-4.5846688381465865,-4.398566002879666,-0.0004059142418131166,-0.00947747290855375,-0.9319685144681311
12836,13.0,300.01687999999996,39265.086,0.0,-0.06417964960138267,-0.06417878452084491,0.0,0.0,0.0,-2.933385080027567,-4.593150349433645,-4.409070265341356,-0.0010833350895418491,-0.0007334619071745543,-0.9369657626363211
12837,13.0,300.02136,39260.212,0.0,-0.06418466409012091,-0.06418378673103209,0.0,0.0,0.0,-2.9275747999791375,-4.599149600625725,-4.4073998212264955,0.0009636592994982682,0.0035848189707190867,-0.933676621089208
12838,13.0,299.86932,39172.299,0.0,-0.06418964558880202,-0.06418878894121904,0.0,0.0,0.0,-2.9078950512368973,-4.591463693317186,-4.408042221789896,-0.0050997298031791455,-0.008159631519842931,-0.938577853677922
12839,13.0,299.96977999999996,39155.709,0.0,-0.06419466007754038,-0.064193791151406,0.0,0.0,0.0,-2.908723281868637,-4.586276156780216,-4.407358277972396,-0.0027681319933933572,-0.005616113768867275,-0.9276498297594101
12840,13.0,299.93737999999996,39186.737,0.0,-0.06419964157622138,-0.06419879336159318,0.0,0.0,0.0,-2.909785167973437,-4.592067286401756,-4.409937100801906,-0.0012894461692334288,0.007563613087720492,-0.932590731089539
12841,13.0,300.01287,39248.695,0.0,-0.06420465606495973,-0.06420379557178024,0.0,0.0,0.0,-2.9226044029385974,-4.598044955366705,-4.4099738817805365,0.004591604737731105,0.006750082992406324,-0.9295979651966761
12842,13.0,300.01479,39269.881,0.0,-0.0642096705536982,-0.06420879778196742,0.0,0.0,0.0,-2.9232933116815873,-4.602812601062236,-4.410957443652606,0.006884601771707295,0.00044805050053414155,-0.9356072576972471
12843,13.0,299.95166,39193.479,0.0,-0.06421465205237908,-0.06421379999215437,0.0,0.0,0.0,-2.9117626268685974,-4.598175968604636,-4.403900156706105,0.005632209246705776,-0.0011140186330450789,-0.94058477788599
12844,13.0,299.93172999999996,39179.657999999996,0.0,-0.06421966654111744,-0.06421880220234155,0.0,0.0,0.0,-2.903516797554797,-4.600083411917886,-4.406037506467046,0.007378298155731333,0.007025500581587924,-0.9425538065403181
12845,13.0,300.19052999999997,39313.235,0.0,-0.06422464803979833,-0.0642238044125285,0.0,0.0,0.0,-2.927023490599727,-4.607003910100886,-4.416214286496416,-0.0008061837078491372,0.0016581826740748886,-0.9381897788896221
12846,13.0,300.22661,39319.371,0.0,-0.06422966252853679,-0.06422880662271568,0.0,0.0,0.0,-2.9285092192213575,-4.601810192738306,-4.421787364696436,-0.0014054528692073987,-0.00918579944404282,-0.934219672480303
12847,13.0,300.18858,39174.897000000004,0.0,-0.06423464402721746,-0.06423380883290286,0.0,0.0,0.0,-2.913890756053627,-4.597226350610916,-4.397073485482366,-0.0036516062364854765,-0.0018469694062066885,-0.942470679502114
12848,13.0,300.07791000000003,39179.273,0.0,-0.06423965851595603,-0.06423881104308982,0.0,0.0,0.0,-2.9127765862436674,-4.5977873871912855,-4.3989568134432355,-0.002951794213144407,0.01062612605121699,-0.937761852974889
12849,13.0,300.02027000000004,39314.503,0.0,-0.06424464001463692,-0.064243813253277,0.0,0.0,0.0,-2.929270879321527,-4.606271532928606,-4.415084816609946,-0.006693688126290584,0.0096465311546135,-0.9402934076872341
12850,13.0,299.8728,39319.25,0.0,-0.06424965450337516,-0.06424881546346395,0.0,0.0,0.0,-2.922262025729807,-4.607657051115346,-4.422151121482337,-0.009060070812009371,-0.0014834207418772288,-0.934464412909457
12851,13.0,299.77191,39202.608,0.0,-0.06425466899211363,-0.06425378476437349,0.0,0.0,0.0,-2.9137736243420673,-4.594033295570786,-4.408807022965376,0.0036829888212326963,-0.00021257670963968777,-0.9347357511537361
12852,13.0,299.9722,39236.532,0.0,-0.06425965049079452,-0.06425878697456067,0.0,0.0,0.0,-2.914674201030947,-4.598370917923876,-4.413880771516116,0.006747483195299743,0.0036661359389444466,-0.9274999295396161
12853,13.0,300.00427,39299.112,0.0,-0.06426466497953287,-0.06426378918474762,0.0,0.0,0.0,-2.933032570317777,-4.602037059435696,-4.410879220744886,0.005483878044691625,0.002184166880485488,-0.9345797207708372
12854,13.0,300.00239,39350.627,0.0,-0.06426964647821398,-0.0642687913949348,0.0,0.0,0.0,-2.929973061640827,-4.611575390577055,-4.420059367975895,0.0036572853006459566,-0.007958032341521643,-0.931147792019632
12855,13.0,299.97227000000004,39349.515,0.0,-0.06427466096695245,-0.06427379360512187,0.0,0.0,0.0,-2.931140325756027,-4.608567861630236,-4.4215616125741555,0.005407797046358015,-0.00040095258912093963,-0.941526229083904
12856,13.0,299.92402000000004,39280.44,0.0,-0.06427964246563334,-0.06427879581530882,0.0,0.0,0.0,-2.9226759383956575,-4.602473871553805,-4.415123117463725,0.0031062086647839268,0.003491675752626567,-0.9329462906821302
12857,13.0,300.00382,39257.013,0.0,-0.06428465695437169,-0.064283798025496,0.0,0.0,0.0,-2.9233071932079575,-4.600176326952055,-4.409668184225366,-0.0010662479438304788,-0.006105210808037395,-0.9381996276805941
12858,13.0,300.27319,39342.367999999995,0.0,-0.06428963845305258,-0.06428880023568295,0.0,0.0,0.0,-2.9341038796485073,-4.604501182353886,-4.420492329743626,-0.01131441975139629,-0.007655368761126072,-0.9371523323772342
12859,13.0,300.08037,39337.504,0.0,-0.06429465294179104,-0.06429380244587013,0.0,0.0,0.0,-2.931491518240687,-4.605691953871405,-4.420435486413016,-0.004753705299329185,-0.0014603712272774187,-0.9365812747533752
12860,13.0,300.09049,39271.275,0.0,-0.06429966743052928,-0.0642988046560573,0.0,0.0,0.0,-2.9169969755601874,-4.607879459512296,-4.412610561190755,-0.002895601794398648,0.01060639300551949,-0.9429470691691301
12861,13.0,299.89717,39286.562000000005,0.0,-0.06430464892921028,-0.06430380686624426,0.0,0.0,0.0,-2.9126401014551973,-4.6098759675093355,-4.419617894907326,-0.002337174738336188,0.0077329816922858735,-0.94010176156332
12862,13.0,299.97177999999997,39339.663,0.0,-0.06430966341794875,-0.06430880907643144,0.0,0.0,0.0,-2.922343795012877,-4.6123949072579356,-4.423536538344066,-0.007315694093002794,0.0005219933081092286,-0.9392383306231061
12863,13.0,299.96432999999996,39349.137,0.0,-0.06431464491662942,-0.0643138112866184,0.0,0.0,0.0,-2.9199412777007674,-4.613261844043495,-4.4279519783048364,0.0008589805532572802,-0.0027606593752308676,-0.935415094815782
12864,13.0,299.82347000000004,39335.241,0.0,-0.06431965940536788,-0.06431881349680557,0.0,0.0,0.0,-2.9259609965448674,-4.613917315533186,-4.417052649629156,0.004789471305334016,-0.0026665414105421477,-0.9350355515933242
12865,13.0,299.83759,39339.21,0.0,-0.06432464090404877,-0.06432378279771511,0.0,0.0,0.0,-2.932562118296347,-4.610876551983086,-4.414698768321846,0.005322698426109434,-0.007337069819762413,-0.9325077965688542
12866,13.0,300.05306,39310.943999999996,0.0,-0.06432965539278712,-0.06432878500790207,0.0,0.0,0.0,-2.929929694536547,-4.603400387445245,-4.416215198421505,0.0027420706941963073,-0.004825584248173085,-0.9389527562149221
12867,13.0,299.92364,39332.996,0.0,-0.06433466988152559,-0.06433378721808924,0.0,0.0,0.0,-2.929248587819327,-4.607099864885355,-4.419900085060175,0.0015217154148316186,0.0016755448158633983,-0.9361713542929191
12868,13.0,300.03965,39395.968,0.0,-0.0643396513802067,-0.06433878942827642,0.0,0.0,0.0,-2.940252787880357,-4.603212429551696,-4.4319254385719855,-5.715246612275924e-05,0.005163952836917465,-0.9384573478435292
12869,13.0,300.20474,39386.936,0.0,-0.06434466586894505,-0.06434379163846349,0.0,0.0,0.0,-2.935246521786277,-4.610106785882116,-4.4272917445396756,-0.005716088927084056,-0.0047309747558608554,-0.940733431808161
12870,13.0,300.14202,39279.268,0.0,-0.06434964736762594,-0.06434879384865044,0.0,0.0,0.0,-2.9229469827974075,-4.600841019017655,-4.416128768187975,-0.0018029733775896182,-0.005894536151220425,-0.9431614830227912
12871,13.0,300.03882999999996,39341.219,0.0,-0.0643546618563644,-0.06435379605883762,0.0,0.0,0.0,-2.9287006221652474,-4.606849085485605,-4.423198619435716,-0.007427763100438143,0.0018628864507025784,-0.9398211216831232
12872,13.0,300.30457,39433.742,0.0,-0.06435964335504529,-0.06435879826902458,0.0,0.0,0.0,-2.9319993591908076,-4.623192302973556,-4.431681143972876,0.0024504997705954976,0.0052023619058081455,-0.9402032689583381
12873,13.0,300.0043,39384.858,0.0,-0.06436465784378353,-0.06436380047921175,0.0,0.0,0.0,-2.9280005676711576,-4.617408468752736,-4.426604153021816,0.0007283440417144602,0.003274138758182337,-0.9390652269760221
12874,13.0,300.05674,39358.61,0.0,-0.06436963934246442,-0.06436880268939871,0.0,0.0,0.0,-2.920515486532437,-4.6179261382288255,-4.4255930307470255,0.007497733086093643,0.008145132721512013,-0.9404119883464371
12875,13.0,299.83715,39363.077000000005,0.0,-0.064374653831203,-0.06437380489958588,0.0,0.0,0.0,-2.923966109747987,-4.617995039235625,-4.423431160333665,0.006146627000574854,0.002036749123436488,-0.9378654881951172
12876,13.0,299.82788999999997,39383.554,0.0,-0.06437966831994124,-0.06437880710977295,0.0,0.0,0.0,-2.927709460917427,-4.615920814955916,-4.427986631458255,0.0029575069172082073,-0.002137126339292948,-0.9356419615131721
12877,13.0,299.92416000000003,39415.507000000005,0.0,-0.06438464981862213,-0.06438380931996002,0.0,0.0,0.0,-2.937108571495047,-4.623672684845966,-4.420548869099205,0.0010100411875958038,-0.006752681674937794,-0.946071517044989
12878,13.0,300.02853,39383.195,0.0,-0.0643896643073607,-0.0643888115301472,0.0,0.0,0.0,-2.925461464245567,-4.618880113197975,-4.427166304177296,0.005457832552196135,-0.000856881950180164,-0.9424287917429801
12879,13.0,299.82831,39287.39,0.0,-0.06439464580604137,-0.06439378083105662,0.0,0.0,0.0,-2.919345486641967,-4.609498835822116,-4.413541028757586,0.0001002715308312796,0.002041966550851408,-0.9476724522029892
12880,13.0,300.06538,39342.331,0.0,-0.06439966029477984,-0.0643987830412438,0.0,0.0,0.0,-2.918024512486597,-4.617284244290475,-4.423777590542855,-0.004479828458249646,-0.003019336451560307,-0.942013835429527
12881,13.0,300.16119,39457.858,0.0,-0.06440464179346095,-0.06440378525143087,0.0,0.0,0.0,-2.9381443157472673,-4.619711282255005,-4.436348072608466,-0.0061247852800942445,-0.005366862451593085,-0.9454559270792351
12882,13.0,300.09585,39412.087999999996,0.0,-0.06440965628219919,-0.06440878746161793,0.0,0.0,0.0,-2.9311158051036075,-4.617398032276705,-4.431776592132296,-0.0008040207735231722,0.001024950098904699,-0.9403381832091531
12883,13.0,300.05324,39372.905,0.0,-0.06441463778088019,-0.06441378967180511,0.0,0.0,0.0,-2.9343544563982373,-4.615441446333605,-4.418584278480315,-0.002019882663596898,0.0037326614822100067,-0.9438279989385712
12884,13.0,299.88952,39461.492999999995,0.0,-0.06441965226961865,-0.06441879188199207,0.0,0.0,0.0,-2.9380393430369076,-4.619717159105586,-4.437552117702296,-0.0010627563853108889,-0.0009286187501675351,-0.9321233390834112
12885,13.0,299.90725,39490.428,0.0,-0.0644246667583569,-0.06442379409217924,0.0,0.0,0.0,-2.947175717863597,-4.6290699641536355,-4.427858151345576,0.00015590940083705983,-0.0005889400391763564,-0.9412229025339681
12886,13.0,300.00154,39483.93,0.0,-0.06442964825703779,-0.0644287963023662,0.0,0.0,0.0,-2.934072266245387,-4.626486784348696,-4.441569755673805,0.006704074750415664,-0.00030897612851856973,-0.93298884718633
12887,13.0,299.91098,39460.336,0.0,-0.06443466274577636,-0.06443379851255315,0.0,0.0,0.0,-2.9405918213638174,-4.622049458185766,-4.4323154385354755,0.00855455081256843,0.002396638739004828,-0.941908467551628
12888,13.0,300.06435,39421.678,0.0,-0.06443964424445725,-0.06443880072274033,0.0,0.0,0.0,-2.9321725236328975,-4.624423503170066,-4.426609725897366,0.0027959554358393175,-0.0037963341184940064,-0.9359752701335671
12889,13.0,300.17007,39407.544,0.0,-0.06444465873319549,-0.0644438029329274,0.0,0.0,0.0,-2.9315369118451677,-4.620977844880005,-4.426394410251116,-0.0012549727663811688,-0.004136985458388676,-0.9477236922605462
12890,13.0,300.24745,39490.502,0.0,-0.06444964023187638,-0.06444880514311457,0.0,0.0,0.0,-2.934169234279957,-4.6323441805267755,-4.437613115358316,-0.0026808989618091273,0.0013928540161389886,-0.9431097059426812
12891,13.0,300.21554,39496.238,0.0,-0.06445465472061485,-0.06445380735330164,0.0,0.0,0.0,-2.9425624914833075,-4.625254469577076,-4.438053068551737,-0.007396604747938053,0.0006625980424133354,-0.9432594237774572
12892,13.0,300.03794,39447.202000000005,0.0,-0.0644596692093532,-0.0644588095634887,0.0,0.0,0.0,-2.9237620411778473,-4.624888483640955,-4.442313785222236,-0.00912923110950996,-0.002745201333030278,-0.9391150383509381
12893,13.0,299.91491,39456.759,0.0,-0.06446465070803431,-0.06446377886439825,0.0,0.0,0.0,-2.931882328804257,-4.626265389201845,-4.435721681396646,-0.010085838806394791,0.002054392036827708,-0.9515766770908062
12894,13.0,299.90373999999997,39535.836,0.0,-0.06446966519677255,-0.06446878107458542,0.0,0.0,0.0,-2.942966980923227,-4.6257297851989865,-4.449210168052855,-0.0015707887383747785,0.005531093675501444,-0.939959237804254
12895,13.0,299.87025,39485.964,0.0,-0.06447464669545344,-0.06447378328477238,0.0,0.0,0.0,-2.939340254840297,-4.630142286734466,-4.433264448579136,0.0016544611077825985,-0.0008530298468774913,-0.9431123606579431
12896,13.0,299.84909,39427.34,0.0,-0.0644796611841918,-0.06447878549495956,0.0,0.0,0.0,-2.934102967723417,-4.619757891759606,-4.431066101162176,0.005869543729553864,-0.0012789282278953887,-0.9369874157909581
12897,13.0,299.82819,39464.579,0.0,-0.0644846426828729,-0.06448378770514651,0.0,0.0,0.0,-2.9409884074529575,-4.6217677746579655,-4.433490403351436,0.004289933027858426,-0.003400187678572397,-0.9381973478678691
12898,13.0,299.78247999999996,39497.907999999996,0.0,-0.06448965717161115,-0.06448878991533369,0.0,0.0,0.0,-2.9333722117512973,-4.633283362044466,-4.439722195441466,0.0023581891401101476,-0.001940641034226358,-0.9381647009496471
12899,13.0,300.03267,39554.495,0.0,-0.06449463867029204,-0.06449379212552087,0.0,0.0,0.0,-2.944615133535887,-4.629857968756405,-4.4491058032925554,-0.003928069195795246,0.0025379561225017675,-0.937554987834473
12900,13.0,300.0662,39593.107,0.0,-0.06449965315903061,-0.06449879433570782,0.0,0.0,0.0,-2.9508813761293173,-4.6370827459444355,-4.447351766044446,-0.0032905390216509166,0.0032824578454783665,-0.9403855627838291
12901,13.0,300.13301,39536.387,0.0,-0.06450466764776885,-0.06450379654589478,0.0,0.0,0.0,-2.944936941767647,-4.633836495274055,-4.439301088699906,-0.001986858208387638,0.003953745257304277,-0.943425910901388
12902,13.0,300.10848,39468.7,0.0,-0.06450964914644974,-0.06450879875608195,0.0,0.0,0.0,-2.937150520049187,-4.621996262555516,-4.4383525852812955,-0.0035802973421478366,-0.0013784059816380786,-0.9484611154183241
12903,13.0,300.22696,39564.734,0.0,-0.06451466363518821,-0.06451380096626902,0.0,0.0,0.0,-2.9423239724097674,-4.636628404599596,-4.447738928907655,-0.005357384510157684,-0.006474674117175584,-0.9366163028093322
12904,13.0,299.81557999999995,39542.388999999996,0.0,-0.0645196451338691,-0.0645188031764562,0.0,0.0,0.0,-2.9418097479840175,-4.630322037302205,-4.447767198585446,-0.0005181687550767745,-0.004286623854356836,-0.9464221623745951
12905,13.0,300.00704,39461.47,0.0,-0.06452465962260745,-0.06452380538664315,0.0,0.0,0.0,-2.930603911153087,-4.632012746419066,-4.432684869521936,0.002199757455799158,0.002090766398192578,-0.9435826404268561
12906,13.0,299.99609,39475.585,0.0,-0.06452964112128834,-0.06452880759683033,0.0,0.0,0.0,-2.9318944878054576,-4.634283135918136,-4.433414510918945,0.008436855632627822,0.0039690260820623765,-0.9548191078083091
12907,13.0,299.89133,39553.726,0.0,-0.0645346556100268,-0.06453380980701728,0.0,0.0,0.0,-2.9458589993586473,-4.637672457502636,-4.4398136919254965,-0.0027845860604422475,-0.00020980738565887683,-0.9398912892525481
12908,13.0,300.0631,39568.494,0.0,-0.06453963710870769,-0.06453877910792682,0.0,0.0,0.0,-2.941244861053267,-4.648188777640516,-4.4384004106860155,0.005745251683512194,-0.004909030662808605,-0.9458948872875572
12909,13.0,299.92866000000004,39562.359,0.0,-0.06454465159744605,-0.064543781318114,0.0,0.0,0.0,-2.937078680617097,-4.643978723475016,-4.444911758478636,-0.0009388885161585822,-0.003963207189388096,-0.9427508026247601
12910,13.0,299.77873999999997,39537.715,0.0,-0.06454966608618451,-0.06454878352830096,0.0,0.0,0.0,-2.9375759837661772,-4.6375677887673055,-4.443334128072936,0.0025517504080381577,-0.004361764252622615,-0.945540290282561
12911,13.0,300.21213,39529.759,0.0,-0.0645546475848654,-0.06455378573848813,0.0,0.0,0.0,-2.9404312212229673,-4.639956728528075,-4.435671626841705,-0.006658408885633794,-0.007321721613872664,-0.9479056618460051
12912,13.0,300.17413,39556.035,0.0,-0.06455966207360375,-0.06455878794867531,0.0,0.0,0.0,-2.9470335588745673,-4.636458989182875,-4.440554276423586,-0.0007180483061233503,0.0017781353752382982,-0.948900987551736
12913,13.0,300.22691000000003,39603.28,0.0,-0.06456464357228475,-0.06456379015886227,0.0,0.0,0.0,-2.958135436245237,-4.636837640745246,-4.443435047782896,-0.0016191080011935183,0.003036195109374127,-0.9434943458131421
12914,13.0,300.19279,39551.42,0.0,-0.0645696580610231,-0.06456879236904944,0.0,0.0,0.0,-2.9447563805998267,-4.631330221151705,-4.446557580616066,0.007507608829518304,-0.00013498761012223988,-0.9393855457301351
12915,13.0,299.94386000000003,39526.055,0.0,-0.064574639559704,-0.0645737945792364,0.0,0.0,0.0,-2.9345709879446074,-4.630638880608475,-4.449723987178566,-3.7494797113448365e-05,-0.006144233095888595,-0.940135543321654
12916,13.0,299.95784,39679.601,0.0,-0.06457965404844246,-0.06457879678942358,0.0,0.0,0.0,-2.9568949141478074,-4.644839479434966,-4.459873713430266,-0.00025141581200530875,-0.005021364432495085,-0.943032374695049
12917,13.0,299.8519,39742.842000000004,0.0,-0.06458466853718081,-0.06458379899961064,0.0,0.0,0.0,-2.969798046221247,-4.6469960809478055,-4.464037563391206,0.0019630646642393983,-0.00037998070332117564,-0.948202057765257
12918,13.0,299.81822999999997,39581.202000000005,0.0,-0.0645896500358617,-0.0645888012097976,0.0,0.0,0.0,-2.945111524759877,-4.644300734356795,-4.442284907594386,0.005201628414060755,0.0015865215740024884,-0.946296478832191
12919,13.0,300.11467000000005,39517.503,0.0,-0.06459466452460016,-0.06459380341998477,0.0,0.0,0.0,-2.9420654923092573,-4.632332122850586,-4.437936747440256,0.005355081291355375,0.0066632534370119146,-0.9414809773344381
12920,13.0,300.14611,39573.346,0.0,-0.06459964602328105,-0.06459880563017173,0.0,0.0,0.0,-2.937292476388197,-4.6370858870197456,-4.4549306741424255,-0.0004317317125061025,0.007570205900821154,-0.9381154265972841
12921,13.0,300.12818,39579.808,0.0,-0.06460466051201941,-0.0646038078403589,0.0,0.0,0.0,-2.937336856742577,-4.6439752784246755,-4.449961391676996,7.623676729798312e-05,0.003802482824075837,-0.9478138005919391
12922,13.0,300.09008,39639.029,0.0,-0.0646096420107003,-0.06460877714126845,0.0,0.0,0.0,-2.942434011370627,-4.647048769953005,-4.459792349447236,-0.0047350105310091555,0.00016857462178701985,-0.9500767325702731
12923,13.0,299.72438,39614.686,0.0,-0.06461465649943876,-0.0646137793514554,0.0,0.0,0.0,-2.948741087943087,-4.642569292585916,-4.450564984761566,0.0012310793157730689,0.003267513723728497,-0.95499116780779
12924,13.0,299.78913,39562.453,0.0,-0.06461963799811965,-0.06461878156164258,0.0,0.0,0.0,-2.9359968334853273,-4.644946782620555,-4.445054221442695,-0.00048410041921699153,0.005839503498539124,-0.957727571292852
12925,13.0,299.93478999999996,39645.184,0.0,-0.064624652486858,-0.06462378377182976,0.0,0.0,0.0,-2.954958289231677,-4.643041061832475,-4.453146442041336,-0.002550771709766568,0.0072007056080543135,-0.9503525899099982
12926,13.0,299.91971,39730.502,0.0,-0.06462966697559647,-0.06462878598201671,0.0,0.0,0.0,-2.9595725288620676,-4.646302004629305,-4.471206206523696,-0.0017411960256176686,-0.002259380334083478,-0.9414910085104281
12927,13.0,299.97184,39620.651,0.0,-0.06463464847427736,-0.06463378819220389,0.0,0.0,0.0,-2.9482583755954472,-4.636403564402405,-4.459026535021655,0.004328097194199936,-0.004970432605618505,-0.9358158960253381
12928,13.0,300.26998,39548.927,0.0,-0.06463966296301582,-0.06463879040239084,0.0,0.0,0.0,-2.9332026950095673,-4.6399888485562455,-4.448694727726986,0.003245293756985557,-0.0042637218689715855,-0.944172777550098
12929,13.0,300.13864,39669.128,0.0,-0.06464464446169671,-0.06464379261257802,0.0,0.0,0.0,-2.957123604695377,-4.650332916177125,-4.4509679543263365,0.001720632520138208,-0.009115561352410862,-0.944511699576047
12930,13.0,300.2073,39753.781,0.0,-0.06464965895043506,-0.0646487948227652,0.0,0.0,0.0,-2.966638833734457,-4.652396602655796,-4.465121335698166,-0.0004922691300656805,-0.004462555685119956,-0.940442071741906
12931,13.0,299.90487,39691.844,0.0,-0.06465464044911595,-0.06465379703295226,0.0,0.0,0.0,-2.9594083823458677,-4.649894077558816,-4.4560271120756365,0.0022639579953852578,0.0031863103408393467,-0.9402653811894682
12932,13.0,299.90231,39675.769,0.0,-0.06465965493785442,-0.06465879924313922,0.0,0.0,0.0,-2.948781009997027,-4.652028387569455,-4.459633471831555,0.002158627405089938,0.007207587298758483,-0.9439103660392001
12933,13.0,299.89381000000003,39712.385,0.0,-0.0646646364365353,-0.06466380145332618,0.0,0.0,0.0,-2.9523738935266173,-4.653889120053095,-4.465310306841816,-0.003506007060715957,0.001005339322096766,-0.9439515546557651
12934,13.0,299.96289,39669.66,0.0,-0.06466965092527366,-0.06466880366351335,0.0,0.0,0.0,-2.950189528961037,-4.656738987284355,-4.451657471019386,-0.007280552147734554,-0.0027222816157682775,-0.952937259192585
12935,13.0,299.88968,39710.439,0.0,-0.06467466541401212,-0.06467380587370053,0.0,0.0,0.0,-2.9614006346924873,-4.652613032877155,-4.456968117443505,-0.008803921592029413,-0.003071709930679167,-0.9497063997912241
12936,13.0,300.08686,39681.479,0.0,-0.06467964691269301,-0.06467877517461007,0.0,0.0,0.0,-2.957044773837597,-4.651580328375236,-4.453553565931516,0.0002081086921312288,-0.006539618179685063,-0.955903123295293
12937,13.0,300.01412999999997,39557.756,0.0,-0.06468466140143136,-0.06468377738479703,0.0,0.0,0.0,-2.9336624065799373,-4.6452453874250255,-4.445662374152716,-0.003929348221396477,-0.007589233825774063,-0.9486843546803562
12938,13.0,300.01904,39631.032999999996,0.0,-0.06468964290011225,-0.0646887795949842,0.0,0.0,0.0,-2.9379947600325074,-4.648723571043296,-4.460126215355186,-0.004677746701607656,-0.003483201739390247,-0.9489833039898601
12939,13.0,299.98912,39798.695,0.0,-0.06469465738885072,-0.06469378180517116,0.0,0.0,0.0,-2.960291835108057,-4.663885541564666,-4.473632129913116,-0.004041325631022785,0.0015874314725922885,-0.938558409408503
12940,13.0,300.01919,39747.05,0.0,-0.06469963888753161,-0.06469878401535833,0.0,0.0,0.0,-2.953237790561877,-4.664609711411136,-4.464263112863466,0.003668780825680476,-0.0001995129368953938,-0.955947351662158
12941,13.0,300.28253,39659.372,0.0,-0.06470465337627007,-0.0647037862255454,0.0,0.0,0.0,-2.948302958599847,-4.655574458944425,-4.451581477261886,0.006789616566257983,-0.0009194418858668491,-0.9479599315213612
12942,13.0,300.22157999999996,39712.565,0.0,-0.06470966786500842,-0.06470878843573258,0.0,0.0,0.0,-2.960451827298847,-4.655830709894715,-4.455345600058376,0.0029748543668702675,0.004419361036006975,-0.9485465627992572
12943,13.0,299.98772,39769.437999999995,0.0,-0.06471464936368931,-0.06471379064591964,0.0,0.0,0.0,-2.967093580379337,-4.652566727347586,-4.469255700081196,0.003176109344132587,0.00031658636630964174,-0.940564705401509
12944,13.0,300.0226,39754.183,0.0,-0.06471966385242778,-0.06471879285610671,0.0,0.0,0.0,-2.9584487331761573,-4.657756087734736,-4.468074250464595,-0.0005344543388990365,0.0006059365395337805,-0.9507205719488152
12945,13.0,299.96802,39726.486000000004,0.0,-0.06472464535110867,-0.06472379506629389,0.0,0.0,0.0,-2.953486746111447,-4.656534006789125,-4.4658391220690055,-0.002932790910168927,0.0014274612693294586,-0.948542469268853
12946,13.0,299.89124,39661.543,0.0,-0.06472965983984702,-0.06472879727648084,0.0,0.0,0.0,-2.9493169179749175,-4.649657990285516,-4.4571439163358555,-0.0012508334370726487,-0.0013091829639562988,-0.9505044254374831
12947,13.0,299.99032,39709.653,0.0,-0.06473464133852791,-0.06473379948666802,0.0,0.0,0.0,-2.9614153268189374,-4.6542865167423155,-4.455041017078316,-0.0032115669168069766,0.0014638233703681185,-0.9539827813082702
12948,13.0,299.81573,39843.21,0.0,-0.06473965582726637,-0.06473880169685498,0.0,0.0,0.0,-2.974037889939687,-4.658941185051695,-4.478361880054905,-0.003557314499404606,-0.0005785724641531565,-0.9477721357478271
12949,13.0,299.91069,39824.812000000005,0.0,-0.06474463732594726,-0.06474380390704193,0.0,0.0,0.0,-2.9644117100146574,-4.661946991473346,-4.479389720956346,0.0003800328958338267,-0.0033093809138854667,-0.9466157944687051
12950,13.0,300.15372,39692.866,0.0,-0.0647496518146855,-0.06474880611722911,0.0,0.0,0.0,-2.9386361473458074,-4.658557669888846,-4.468446315901316,0.004173995532866286,0.003337064122517587,-0.946270580159635
12951,13.0,300.17488,39746.153,0.0,-0.06475466630342408,-0.06475377541813865,0.0,0.0,0.0,-2.9499825219656075,-4.659932244974505,-4.471923080969446,0.0004437323325829716,0.0075247371131837324,-0.9507898782556551
12952,13.0,300.26301,39831.412000000004,0.0,-0.06475964780210497,-0.06475877762832583,0.0,0.0,0.0,-2.966342660730227,-4.666496281772326,-4.474915816464805,-0.0004265123295184896,0.006718775894791554,-0.949683490206463
12953,13.0,300.15567999999996,39775.4,0.0,-0.06476466229084321,-0.06476377983851278,0.0,0.0,0.0,-2.9637488417992373,-4.664757037975676,-4.462222427162066,-0.0010928123217021789,-0.00011821260623667589,-0.9552452605353671
12954,13.0,299.99079,39693.405,0.0,-0.06476964378952432,-0.06476878204869985,0.0,0.0,0.0,-2.944531135102597,-4.659627560669436,-4.461645279905105,0.007519648368531514,-0.004626621647937005,-0.9502909741714171
12955,13.0,300.16516,39726.244,0.0,-0.06477465827826268,-0.06477378425888702,0.0,0.0,0.0,-2.953010417239437,-4.6583854173718455,-4.464390275751016,0.0012809149073664588,0.0013686369334489487,-0.9557942799695511
12956,13.0,300.10136,39793.071,0.0,-0.06477963977694357,-0.0647787864690742,0.0,0.0,0.0,-2.950920082283137,-4.664405946816025,-4.480773820592946,-0.002238806392127988,-0.005903995651504005,-0.9528179489933101
12957,13.0,299.85857000000004,39793.334,0.0,-0.06478465426568181,-0.06478378867926116,0.0,0.0,0.0,-2.964328927481487,-4.664293172079895,-4.467557898213636,-0.003371412186332476,-0.0030560141800051173,-0.9571053749364462
12958,13.0,299.82695,39830.273,0.0,-0.06478963576436292,-0.06478879088944833,0.0,0.0,0.0,-2.964245334348237,-4.666681706540625,-4.476481490519325,-0.0012652353686940087,0.003327348168633697,-0.9482649704639661
12959,13.0,299.98625,39790.411,0.0,-0.06479465025310127,-0.06479379309963529,0.0,0.0,0.0,-2.971494530863677,-4.656196391855805,-4.467600454717837,0.0027484490022507972,0.004278745226879276,-0.9468966572639241
12960,13.0,300.01617000000005,39826.644,0.0,-0.06479966474183974,-0.06479879530982247,0.0,0.0,0.0,-2.9621385847403174,-4.665784372252066,-4.478382347706925,-0.0004681978034025255,-0.003828272673571096,-0.9463299262179922
12961,13.0,299.95283,39940.824,0.0,-0.06480464624052062,-0.06480379752000964,0.0,0.0,0.0,-2.978809689960627,-4.6711069750273655,-4.491096508636716,-9.59434684928831e-06,-0.00982911335108296,-0.9430803926172882
12962,13.0,300.0733,39882.696,0.0,-0.06480966072925887,-0.0648087997301966,0.0,0.0,0.0,-2.964172380341037,-4.672308385670936,-4.486862947068896,0.0015728921442573684,-0.009719609284950751,-0.9474423633702812
12963,13.0,300.19489,39724.237,0.0,-0.06481464222793976,-0.06481380194038355,0.0,0.0,0.0,-2.955162661776847,-4.662797614932296,-4.457215958417966,0.006987810514968203,0.002053770103916328,-0.9609616325645293
12964,13.0,300.18057999999996,39767.863,0.0,-0.06481965671667833,-0.06481880415057062,0.0,0.0,0.0,-2.960636846767107,-4.664475253122866,-4.463325349895916,0.004115202506413866,0.007817921434918773,-0.9525714252439801
12965,13.0,300.02517,39876.638999999996,0.0,-0.06482463821535922,-0.06482377345148027,0.0,0.0,0.0,-2.9808390272609073,-4.670869165228895,-4.469794343834355,-0.0036362819432980867,0.0034934421515258967,-0.952373476704444
12966,13.0,299.8779,39820.974,0.0,-0.06482965270409746,-0.06482877566166745,0.0,0.0,0.0,-2.9579927706311575,-4.666766515573996,-4.479822480074056,-0.007611924852488493,0.004393103571590566,-0.9495264465734641
12967,13.0,299.8035,39773.587,0.0,-0.06483466719283593,-0.0648337778718544,0.0,0.0,0.0,-2.945489163072147,-4.670840388926056,-4.473847749534396,0.0008962660696420742,0.0031191743143885366,-0.952673905359094
12968,13.0,299.93593,39845.768,0.0,-0.06483964869151693,-0.06483878008204147,0.0,0.0,0.0,-2.9573032539381074,-4.672531199367925,-4.482284171192005,-0.0013717683828829987,-0.0007454623752639083,-0.9475673275051142
12969,13.0,299.88791000000003,39891.842000000004,0.0,-0.06484466318025517,-0.06484378229222865,0.0,0.0,0.0,-2.9715870405978073,-4.672892929653625,-4.481643898453816,0.0016953315638161984,-0.004701296052481796,-0.951804334123274
12970,13.0,299.79137000000003,39885.412000000004,0.0,-0.06484964467893628,-0.0648487845024156,0.0,0.0,0.0,-2.9697583268173267,-4.6772017757038755,-4.477209105416136,-0.0016566289563715482,-0.002152673547502338,-0.9580715494368001
12971,13.0,299.86782,39861.322,0.0,-0.06485465916767452,-0.06485378671260278,0.0,0.0,0.0,-2.966382076159117,-4.6692137172155155,-4.481250757415016,0.002721763135692107,0.007289444937237203,-0.9513549070414191
12972,13.0,300.045,39774.254,0.0,-0.06485964066635541,-0.06485878892278973,0.0,0.0,0.0,-2.949107783154277,-4.669758744444305,-4.471513423954016,0.0017571301940402485,0.0016755497807888883,-0.9574464653176091
12973,13.0,300.0407,39792.984,0.0,-0.06486465515509399,-0.06486379113297691,0.0,0.0,0.0,-2.954267353988487,-4.673836670796766,-4.467969480404256,-0.00014697449052775285,0.002245319462445778,-0.9553478014454871
12974,13.0,299.8804,39902.995,0.0,-0.06486963665377488,-0.06486879334316409,0.0,0.0,0.0,-2.9726615923288575,-4.669744457617895,-4.487108052268086,-0.0018874778279795582,-0.0005693098687615094,-0.9563991497492471
12975,13.0,299.85107999999997,39906.596,0.0,-0.06487465114251312,-0.06487379555335104,0.0,0.0,0.0,-2.9775302590593573,-4.677117067995516,-4.475961186592976,-0.0003686768750730746,0.0023341153309842477,-0.955349716488176
12976,13.0,299.93246,39862.381,0.0,-0.06487966563125169,-0.06487879776353822,0.0,0.0,0.0,-2.968675973060507,-4.6729802718122455,-4.475512215473666,0.0016727932338918385,0.005397468988088714,-0.954650604316679
12977,13.0,300.19437999999997,39945.429,0.0,-0.06488464712993258,-0.06488379997372518,0.0,0.0,0.0,-2.9786277102426677,-4.672415790181536,-4.491369478213655,0.004031699856397796,-0.00040044716983855865,-0.9411158425284021
12978,13.0,300.16028,40010.33,0.0,-0.06488966161867082,-0.06488880218391235,0.0,0.0,0.0,-2.9760505086133175,-4.686684276764725,-4.499406274031825,0.0018229626742374081,0.0030171534042198567,-0.9453064726894851
12979,13.0,299.99426,39936.452000000005,0.0,-0.06489464311735171,-0.0648937714848219,0.0,0.0,0.0,-2.967455918615097,-4.6758958989749955,-4.496332275878446,0.00021759598586505182,-0.0018544903563989482,-0.9423461409323232
12980,13.0,299.93339,39874.164,0.0,-0.06489965760609018,-0.06489877369500885,0.0,0.0,0.0,-2.960753674503637,-4.678956116927016,-4.481040406694255,-0.0007861241119094093,-0.0058658860993428845,-0.9570022260762662
12981,13.0,300.1908,39907.347,0.0,-0.06490463910477118,-0.06490377590519603,0.0,0.0,0.0,-2.974886892198477,-4.675741682309775,-4.480208629687167,-0.007058450562914834,-0.008462858061994061,-0.955309510724208
12982,13.0,299.76711,39846.693999999996,0.0,-0.06490965359350942,-0.06490877811538309,0.0,0.0,0.0,-2.965132232160767,-4.671511971092336,-4.475755699472695,-0.002952851235648727,-0.002072417046831638,-0.9629472278579921
12983,13.0,299.62031,39882.092000000004,0.0,-0.06491463509219053,-0.06491378032557027,0.0,0.0,0.0,-2.9659705952935074,-4.683262531177026,-4.473926884367206,-0.006079777419927314,0.004241028005156876,-0.9645961606732291
12984,13.0,299.74156,39946.297999999995,0.0,-0.06491964958092877,-0.06491878253575722,0.0,0.0,0.0,-2.9670739233273973,-4.680924659221295,-4.494678449065225,-0.002546683549588098,0.0008120790806409653,-0.953522015957796
12985,13.0,299.82022,39886.547,0.0,-0.06492466406966735,-0.06492378474594418,0.0,0.0,0.0,-2.962031990829797,-4.679827410688006,-4.482655020728606,0.005894965667937814,-0.006963991234267424,-0.9558028925954011
12986,13.0,300.00305,39880.443,0.0,-0.06492964556834824,-0.06492878695613136,0.0,0.0,0.0,-2.961426979195087,-4.678394371071575,-4.482837405746605,0.011076018214867889,-0.005849785149953844,-0.9524290636049301
12987,13.0,300.10757,39968.715,0.0,-0.0649346600570867,-0.06493378916631853,0.0,0.0,0.0,-2.983626883586047,-4.676559375140475,-4.489305082459915,0.01062026338613839,-0.000996773356413871,-0.9476248699782932
12988,13.0,299.83544,39974.883,0.0,-0.06493964155576737,-0.06493879137650549,0.0,0.0,0.0,-2.978832893387917,-4.685632827135955,-4.486900639972616,0.0004323136017735305,-0.0037837280713498866,-0.9503137824311682
12989,13.0,299.98582999999996,39927.595,0.0,-0.06494465604450583,-0.06494379358669267,0.0,0.0,0.0,-2.974014585187387,-4.681090832237695,-4.481886470527756,-0.004618291921514925,-0.00011744694379861089,-0.9533185452052151
12990,13.0,300.11231000000004,39949.529,0.0,-0.06494963754318683,-0.06494879579687973,0.0,0.0,0.0,-2.9629435106197572,-4.682042679381636,-4.4986730862594655,-0.0065485566667672235,0.005948518164873034,-0.9487155425184342
12991,13.0,299.89562,39982.521,0.0,-0.06495465203192508,-0.0649537980070668,0.0,0.0,0.0,-2.981131856539807,-4.683089772034975,-4.489466391875836,-0.008044536440983933,0.0027549879104461377,-0.9561565270128021
12992,13.0,300.17295,40014.602999999996,0.0,-0.06495966652066354,-0.06495880021725398,0.0,0.0,0.0,-2.9769741874044766,-4.687221501967746,-4.499244559315866,-0.003278105632323837,-0.005463825014612546,-0.9523472031293511
12993,13.0,300.22688999999997,39993.851,0.0,-0.06496464801934443,-0.0649637695181634,0.0,0.0,0.0,-2.9888599150525073,-4.686512936172815,-4.481759104990186,0.00017389348566945086,-0.0006057075956736854,-0.9574120857417162
12994,13.0,300.17848,39997.553,0.0,-0.06496966250808278,-0.06496877172835047,0.0,0.0,0.0,-2.9787137351761572,-4.684935407092125,-4.494608129508286,0.007757224714178472,0.009382221826278202,-0.9566736999963432
12995,13.0,300.28132,39964.822,0.0,-0.06497464400676367,-0.06497377393853765,0.0,0.0,0.0,-2.981928980393477,-4.679489897079696,-4.486889088921476,0.007872721141402084,0.0062558374268280835,-0.954151750894946
12996,13.0,300.02742,39989.602999999996,0.0,-0.06497965849550214,-0.06497877614872472,0.0,0.0,0.0,-2.969963611287587,-4.689263504894275,-4.496613756756226,-0.004646307780154875,0.0014493321714129487,-0.952206401895455
12997,13.0,299.89137999999997,40022.241,0.0,-0.06498463999418302,-0.06498377835891189,0.0,0.0,0.0,-2.9821774293179972,-4.685612258158925,-4.497972119840286,-0.0026294697304584573,-0.0007943754837012562,-0.9487406913859162
12998,13.0,300.05634,39929.958,0.0,-0.0649896544829216,-0.06498878056909885,0.0,0.0,0.0,-2.9613394343864474,-4.687200527690676,-4.489170218871605,-0.005055029261767545,0.002069736088392048,-0.9569184708230001
12999,13.0,299.96627,39918.452000000005,0.0,-0.06499463598160249,-0.0649937827792858,0.0,0.0,0.0,-2.9669524346404073,-4.684702359569125,-4.4825578500440155,0.0007969981701275951,0.004605778789404976,-0.9574848067013931
13000,13.0,300.21275,40047.252,0.0,-0.06499965047034095,-0.06499878498947298,0.0,0.0,0.0,-2.9733502984218267,-4.693195928532376,-4.506818401163345,-0.00025829819171954677,-0.0025475289041465275,-0.9606330659546022
13001,13.0,300.09751,40037.623,0.0,-0.0650046649590792,-0.06500378719965993,0.0,0.0,0.0,-2.971484195712657,-4.699440284923646,-4.499513171917376,0.003323318675636017,0.006359111322070425,-0.9644985036285911
13002,13.0,299.75163,39948.977,0.0,-0.06500964645776008,-0.06500878940984711,0.0,0.0,0.0,-2.959257104105937,-4.684684425042355,-4.499549952896005,0.003312480749916397,0.004278280449058406,-0.9610447089402281
13003,13.0,300.0332,39986.77,0.0,-0.06501466094649866,-0.06501379162003418,0.0,0.0,0.0,-2.9778822621440972,-4.6860614319282545,-4.491035916280736,0.0038149053716268464,-0.001063718162305809,-0.9537636457091431
13004,13.0,299.79445,40010.517,0.0,-0.06501964244517933,-0.06501879383022136,0.0,0.0,0.0,-2.978994000153817,-4.688784946872046,-4.494419158364637,7.982359361847532e-05,-0.006525309365747894,-0.9542588007680111
13005,13.0,299.84925,40029.03,0.0,-0.06502465693391779,-0.06502379604040842,0.0,0.0,0.0,-2.988609540952797,-4.687938275088486,-4.491277880404616,-0.0012603286037597488,-0.0017237719742480481,-0.952035497001088
13006,13.0,299.98486,40074.828,0.0,-0.06502963843259868,-0.06502879825059549,0.0,0.0,0.0,-2.9844584579431173,-4.6992439170542655,-4.498044668547446,0.0015587004620317587,0.0031513684111408465,-0.9569816368342342
13007,13.0,299.90758999999997,40065.659,0.0,-0.06503465292133703,-0.06503380046078266,0.0,0.0,0.0,-2.9855056519214673,-4.688764377895016,-4.504689866678276,-0.0033036914132489573,0.00027675980105906577,-0.950749753551695
13008,13.0,300.06311,40048.89,0.0,-0.06503963442001792,-0.0650387697616921,0.0,0.0,0.0,-2.981551747381247,-4.696765000684615,-4.495545892475836,0.005399140344128665,-0.0032043334256680873,-0.960671437735889
13009,13.0,300.28038,40069.346,0.0,-0.06504464890875639,-0.06504377197187916,0.0,0.0,0.0,-2.9868221677763973,-4.695692171478736,-4.497566211850226,0.0026301223648478676,0.0026995404331738976,-0.9540644695313321
13010,13.0,299.89342999999997,40028.916,0.0,-0.06504966339749474,-0.06504877418206634,0.0,0.0,0.0,-2.975169892951407,-4.691342491449455,-4.5012785575666046,0.004577134614378016,0.003204585826267997,-0.961895129749158
13011,13.0,299.93232,39995.996,0.0,-0.06505464489617563,-0.06505377639225329,0.0,0.0,0.0,-2.974213283531997,-4.691769779016625,-4.4918011227562555,-0.0011829617910492389,-0.0002309910001995368,-0.95488781629759
13012,13.0,299.75858,40023.484,0.0,-0.06505965938491409,-0.06505877860244047,0.0,0.0,0.0,-2.972567461394567,-4.690069545348826,-4.503502641536105,-0.005256851253785826,-0.0006114471103351314,-0.9660563553923391
13013,13.0,299.72187,40065.466,0.0,-0.0650646408835952,-0.06506378081262743,0.0,0.0,0.0,-2.9855583409266675,-4.691489919339006,-4.501852969048296,-0.0014352894369520388,-0.0029371647055505875,-0.9602941033986491
13014,13.0,299.86735,40045.046,0.0,-0.06506965537233345,-0.06506878302281438,0.0,0.0,0.0,-2.979836618936977,-4.696567416915116,-4.496290124674286,-0.005769207955626494,-0.002000381246872258,-0.9662815096970601
13015,13.0,299.75265,40052.542,0.0,-0.06507463687101434,-0.06507378523300156,0.0,0.0,0.0,-2.9832986918786575,-4.695088477069155,-4.496585487078436,-0.0016415299086813887,0.005724453914609615,-0.9546783977669222
13016,13.0,299.72028,40130.939,0.0,-0.06507965135975291,-0.06507878744318862,0.0,0.0,0.0,-2.9888746071789574,-4.703658749064975,-4.506270131534237,0.004512021744401876,-0.0004803416767785325,-0.9588771541938071
13017,13.0,300.13009,40165.234,0.0,-0.06508466584849115,-0.0650837896533758,0.0,0.0,0.0,-2.9962234061792272,-4.704122918935786,-4.508881884991996,0.006803723439450223,0.004695952982054476,-0.9558440812119662
13018,13.0,300.08641,40077.358,0.0,-0.06508964734717204,-0.06508879186356298,0.0,0.0,0.0,-2.9737882251150474,-4.698839731589375,-4.509888143666305,0.005665475868688934,0.002463562894859728,-0.9581396601085221
13019,13.0,300.05476,40077.312999999995,0.0,-0.0650946618359105,-0.06509379407374993,0.0,0.0,0.0,-2.980455714748077,-4.700594680762576,-4.5014521273087365,0.0005623630970034164,-0.0040597050759116965,-0.9579096827333251
13020,13.0,299.9211,40098.254,0.0,-0.06509964333459128,-0.06509879628393711,0.0,0.0,0.0,-2.982706244545187,-4.690835461099415,-4.515326358278016,0.0006522330309128884,-0.003801926549770937,-0.9564418481084611
13021,13.0,300.04669,40130.185,0.0,-0.06510465782332975,-0.06510379849412407,0.0,0.0,0.0,-2.9889209127085272,-4.7006518280682155,-4.5090014485037955,3.642248162536907e-05,-0.001060565535944669,-0.9620504508569871
13022,13.0,300.27901,40140.136,0.0,-0.06510963932201064,-0.0651087677950336,0.0,0.0,0.0,-2.9856591593116173,-4.698736684054205,-4.517202998788226,0.0032991658330023166,0.006783376262867114,-0.9543942723063811
13023,13.0,300.01737,40113.356,0.0,-0.06511465381074899,-0.06511377000522078,0.0,0.0,0.0,-2.9869970547436573,-4.697427159624966,-4.5090343791320455,0.0027243045695929274,0.005582490989473964,-0.9514540029011992
13024,13.0,300.09729,40147.018,0.0,-0.06511963530942988,-0.06511877221540774,0.0,0.0,0.0,-2.9814255977437973,-4.710131593353795,-4.512133809862936,0.004780078172931986,0.002088205509889838,-0.9596734978449002
13025,13.0,299.94791000000004,40175.873999999996,0.0,-0.06512464979816834,-0.06512377442559492,0.0,0.0,0.0,-2.998365214240607,-4.701451890347176,-4.512645501163436,-0.0007134408654011313,0.0014245754317196485,-0.96078452657955
13026,13.0,299.79656,40144.238,0.0,-0.06512966428690659,-0.06512877663578209,0.0,0.0,0.0,-2.986742728968557,-4.708151702658395,-4.507951620075186,-0.001132621296931019,-0.004195157767829837,-0.9626597586721211
13027,13.0,299.83018,40106.485,0.0,-0.0651346457855877,-0.06513377884596905,0.0,0.0,0.0,-2.986257584820677,-4.703575763881786,-4.501536733692086,-0.0062369939133933745,-0.0016867843939226586,-0.961417544447024
13028,13.0,299.92208,40140.239,0.0,-0.06513966027432605,-0.06513878105615623,0.0,0.0,0.0,-2.985833640978837,-4.7029800741479955,-4.512816537780315,-0.0077668994287832934,0.003836147855998316,-0.9595989023725381
13029,13.0,299.96327,40164.915,0.0,-0.06514464177300716,-0.06514378326634318,0.0,0.0,0.0,-2.9940842325681074,-4.705155826087726,-4.509891183416605,-0.005586322290752084,0.003532078593739017,-0.962492501478114
13030,13.0,300.17978999999997,40155.867,0.0,-0.0651496562617454,-0.06514878547653025,0.0,0.0,0.0,-2.980240905726877,-4.705798733276175,-4.520341034347926,-0.0022800085862443274,0.0025763654953674777,-0.959379868098421
13031,13.0,299.98843,40117.361000000004,0.0,-0.06515463776042629,-0.06515378768671742,0.0,0.0,0.0,-2.9815122306273474,-4.703856839459526,-4.509307044733955,0.0040434038069778865,0.0005557583275515765,-0.9627848950594712
13032,13.0,300.13647000000003,40164.215,0.0,-0.06515965224916476,-0.06515878989690438,0.0,0.0,0.0,-2.979846852762987,-4.716522567034536,-4.512548938428905,0.005499648877198084,-0.0035785331723987264,-0.9679286895896241
13033,13.0,300.0713,40193.347,0.0,-0.06516463374784554,-0.06516379210709156,0.0,0.0,0.0,-2.9941522216498173,-4.708375732255505,-4.515246007545087,0.0011378875630007588,-0.004661963203474946,-0.9623172801383212
13034,13.0,300.04162,40174.248,0.0,-0.065169648236584,-0.06516879431727851,0.0,0.0,0.0,-2.991935027780997,-4.7115437600181655,-4.508489655878286,0.0011431980067748589,-0.004081376063750456,-0.9626040805791262
13035,13.0,299.97513,40142.134,0.0,-0.06517466272532246,-0.06517379652746569,0.0,0.0,0.0,-2.9868380758029676,-4.7043388425320956,-4.511029367253935,-0.003472427851076947,-0.002765346163568417,-0.9568390624126631
13036,13.0,300.0041,40136.265,0.0,-0.06517964422400324,-0.06517876582837523,0.0,0.0,0.0,-2.982918013816087,-4.704849520582496,-4.512654721739345,-0.002260565938025488,-0.0002652965683052327,-0.960751920191332
13037,13.0,299.85714,40195.042,0.0,-0.0651846587127417,-0.06518376803856218,0.0,0.0,0.0,-2.991444006782537,-4.710758693840686,-4.516086295853016,-0.0004946719209553176,0.003423348245383167,-0.9601500293669302
13038,13.0,299.87497,40246.909,0.0,-0.0651896402114226,-0.06518877024874936,0.0,0.0,0.0,-3.001286414278907,-4.708825817949925,-4.523943138453426,0.0007044599231397814,0.0002155109096767708,-0.9609182249302451
13039,13.0,299.75127000000003,40209.479,0.0,-0.06519465470016084,-0.06519377245893654,0.0,0.0,0.0,-3.0006885967199075,-4.709466090688116,-4.512522999226346,0.0035150823365616164,0.0014391879167117887,-0.9595401237342371
13040,13.0,299.86936000000003,40181.998,0.0,-0.06519963619884195,-0.0651987746691235,0.0,0.0,0.0,-2.994625510771527,-4.7070570885753655,-4.512641448163036,0.0017075937138763782,0.002442365905417748,-0.9634568825257911
13041,13.0,299.82743,40213.513999999996,0.0,-0.0652046506875803,-0.06520377687931067,0.0,0.0,0.0,-2.9887525105419073,-4.713727212658655,-4.521424300029836,0.0022198343985805977,0.0036499821992251966,-0.959259595311551
13042,13.0,299.80571000000003,40191.315,0.0,-0.06520966517631854,-0.06520877908949763,0.0,0.0,0.0,-2.983875535160587,-4.713547158115886,-4.519733590912975,-0.003270849748357737,-0.004736412869147556,-0.9647197670529282
13043,13.0,299.87082000000004,40182.864,0.0,-0.06521464667499965,-0.0652137812996848,0.0,0.0,0.0,-2.9882230873646574,-4.708606145328245,-4.517758057193006,-0.002266268408263278,-0.005862125725571764,-0.9587370723674821
13044,13.0,300.13105,40196.098,0.0,-0.06521966116373812,-0.06521878350987187,0.0,0.0,0.0,-2.983562238229667,-4.719350041438586,-4.515697714439666,0.002143141802486628,0.0006052426354677974,-0.9677028158773321
13045,13.0,300.04042999999996,40230.28,0.0,-0.06522464266241901,-0.06522378572005882,0.0,0.0,0.0,-3.001039282579517,-4.715921101775175,-4.5120402868787055,0.0004696812319464286,0.005088543420750135,-0.9586977076010971
13046,13.0,299.93607000000003,40273.316,0.0,-0.06522965715115736,-0.065228787930246,0.0,0.0,0.0,-2.997199773975587,-4.719451163798566,-4.525431501525316,0.0018473703492712583,0.002009262181348738,-0.9645567959068441
13047,13.0,299.94167999999996,40252.201,0.0,-0.06523463864983825,-0.06523379014043296,0.0,0.0,0.0,-2.9942109901556173,-4.7208922080907865,-4.520560808294616,0.0014782571180426186,0.002144478178043518,-0.9579442852242401
13048,13.0,300.22323,40213.998,0.0,-0.06523965313857671,-0.06523879235062013,0.0,0.0,0.0,-2.9830272421768673,-4.718452707150025,-4.522571299143036,0.003270390948712457,0.007063796673092454,-0.968022435488876
13049,13.0,299.9677,40213.776,0.0,-0.06524463463725749,-0.06524379456080731,0.0,0.0,0.0,-2.990886313927497,-4.715252255384166,-4.517845095376596,0.0008932942678937802,0.00044903436638124155,-0.9587357855398551
13050,13.0,299.87419,40240.527,0.0,-0.06524964912599596,-0.06524879677099427,0.0,0.0,0.0,-2.990727740286847,-4.719958498123636,-4.521429264955326,-0.004893879838038335,-0.0031624440453339266,-0.966995324127508
13051,13.0,299.86657,40255.486000000004,0.0,-0.06525466361473442,-0.06525376607190381,0.0,0.0,0.0,-3.004811207401777,-4.711665552680185,-4.5201858044326055,-0.005753421924368535,-0.0024231488066711678,-0.9545958381487741
13052,13.0,299.91675,40248.687000000005,0.0,-0.06525964511341509,-0.06525876828209098,0.0,0.0,0.0,-2.990751551664197,-4.721208038146955,-4.522636248474446,0.006154676664669295,0.0006927561448122083,-0.966778954701154
13053,13.0,299.97002000000003,40256.12,0.0,-0.06526465960215366,-0.06526377049227794,0.0,0.0,0.0,-2.9928576933220574,-4.718794375083745,-4.525203013627766,0.0015949341842827485,0.0068227754797555145,-0.9618331492405411
13054,13.0,300.05993,40276.911,0.0,-0.06526964110083455,-0.06526877270246512,0.0,0.0,0.0,-2.994004793760267,-4.720492379601326,-4.528678157495736,0.005517159156151215,-0.004609118968359626,-0.9636801217878231
13055,13.0,299.77465,40278.582,0.0,-0.0652746555895728,-0.06527377491265218,0.0,0.0,0.0,-2.998907303044107,-4.721201857321346,-4.523574112767005,0.003936438236321206,-0.0038419060549916063,-0.9626659800277352
13056,13.0,299.94696,40275.279,0.0,-0.0652796370882539,-0.06527877712283925,0.0,0.0,0.0,-3.003201051667867,-4.714661023950816,-4.524816965339666,0.0008213390922448572,-0.0013764105882161485,-0.9590473396806031
13057,13.0,299.9662,40266.016,0.0,-0.06528465157699237,-0.06528377933302643,0.0,0.0,0.0,-3.0070272866954872,-4.7174000416211355,-4.515435991938836,0.00015269668874498985,-0.0009140029619800692,-0.9623350120150711
13058,13.0,299.97622,40264.35,0.0,-0.06528963307567326,-0.06528878154321349,0.0,0.0,0.0,-2.9986284566165873,-4.715367563245546,-4.525361080643366,-0.0055561914751784056,-0.0002387873517689768,-0.963884555127999
13059,13.0,299.99366000000003,40312.315,0.0,-0.06529464756441161,-0.06529378375340067,0.0,0.0,0.0,-3.000000802552027,-4.721105294586816,-4.532830963030586,-0.0018530548849822782,0.0006371096854853304,-0.968598691085748
13060,13.0,300.18635,40321.248,0.0,-0.06529966205315008,-0.06529878596358762,0.0,0.0,0.0,-2.9926782467293473,-4.726560734450225,-4.537413589257855,0.0038900218571902667,0.005389159020043585,-0.9638509658871842
13061,13.0,300.07465,40288.45,0.0,-0.06530464355183097,-0.06530378817377458,0.0,0.0,0.0,-2.991397397277937,-4.724376268559636,-4.530909131565916,0.0017856808460829784,0.0016196586012978582,-0.9653840842159911
13062,13.0,300.23239,40320.526,0.0,-0.06530965804056932,-0.06530879038396176,0.0,0.0,0.0,-2.999781231255357,-4.727311248799295,-4.529340620411116,0.004721145013990735,-0.007416046484231804,-0.9593897270218942
13063,13.0,299.85536,40350.134,0.0,-0.06531463953925021,-0.06531379259414871,0.0,0.0,0.0,-3.0103355482719873,-4.726248248119386,-4.528849295437626,-0.0017235793554040385,-0.0074839770000860225,-0.9618633136960181
13064,13.0,299.91179,40362.803,0.0,-0.06531965402798867,-0.06531879480433589,0.0,0.0,0.0,-3.003931199689927,-4.7276437974821155,-4.537709356962046,-0.00027745358353503674,-0.0035285413376399165,-0.9610507580433251
13065,13.0,299.78767999999997,40303.079,0.0,-0.06532463552666934,-0.06532376410524543,0.0,0.0,0.0,-3.002608503009387,-4.7250725740283555,-4.523448469754605,0.0036263545241183265,-0.006382384460967304,-0.9659243491693111
13066,13.0,299.77459,40274.452000000005,0.0,-0.06532965001540791,-0.06532876631543238,0.0,0.0,0.0,-2.985694724390127,-4.7250177571979455,-4.531715374670486,0.0034939934609053065,-0.0029844526824175472,-0.9652298979482741
13067,13.0,300.00524,40328.487,0.0,-0.06533466450414638,-0.06533376852561956,0.0,0.0,0.0,-3.001516624701627,-4.7289370085847455,-4.528399412393226,0.0024436573939952072,0.0005784139918375165,-0.96300384827358
13068,13.0,300.0396,40378.265,0.0,-0.06533964600282705,-0.06533877073580663,0.0,0.0,0.0,-3.0102694843654674,-4.734221715806305,-4.529493215876175,-0.0008060612768395542,0.008602138204839942,-0.9663911636228821
13069,13.0,299.88817,40362.974,0.0,-0.06534466049156551,-0.0653437729459938,0.0,0.0,0.0,-3.015937605424867,-4.726017733721636,-4.527380893392705,0.00032654273404475866,0.014003872266574586,-0.9666159126275631
13070,13.0,300.12949,40361.443999999996,0.0,-0.06534964199024662,-0.06534877515618098,0.0,0.0,0.0,-3.0015623222811367,-4.7346234694709555,-4.532685460316226,-0.004562451100553866,0.007045382676375134,-0.969335050330921
13071,13.0,299.96603,40347.132000000005,0.0,-0.06535465647898497,-0.06535377736636794,0.0,0.0,0.0,-3.0049873102691573,-4.7273440781025355,-4.532189271742255,-0.006404826937432204,0.003369850463953347,-0.968102492379277
13072,13.0,300.00704,40391.523,0.0,-0.06535963797766586,-0.06535877957655511,0.0,0.0,0.0,-2.9985004831289572,-4.731692238256666,-4.547821491635036,-0.008736355339586142,-0.004556620150203396,-0.9639496159169201
13073,13.0,300.13587,40403.494,0.0,-0.06536465246640433,-0.06536378178674207,0.0,0.0,0.0,-3.007831807274887,-4.734708683804366,-4.539112911000566,-6.001995174675805e-05,-0.003399049697385087,-0.9629565801564152
13074,13.0,299.99566,40334.271,0.0,-0.06536963396508522,-0.06536878399692925,0.0,0.0,0.0,-3.001892743138747,-4.726355753954995,-4.532362740159376,-0.0013524601929524288,-0.00019325902555568082,-0.9586935735406891
13075,13.0,299.97905,40342.197,0.0,-0.06537464845382357,-0.0653737862071162,0.0,0.0,0.0,-3.002716920770087,-4.733097717470375,-4.527206006425446,0.007718941490950212,0.0005691969623028664,-0.9647574194266442
13076,13.0,299.86487,40403.272000000004,0.0,-0.06537966294256203,-0.06537878841730316,0.0,0.0,0.0,-3.0150940747166173,-4.731983547660415,-4.534508297246125,0.002372745085746708,0.005249020147737956,-0.964847132590498
13077,13.0,299.72025,40405.302,0.0,-0.06538464444124292,-0.06538379062749033,0.0,0.0,0.0,-3.0123070289915574,-4.733161653551686,-4.536734205065805,0.0016193185545642984,0.0027124971661776276,-0.971226838930126
13078,13.0,299.77856,40326.418,0.0,-0.06538965892998116,-0.0653887928376774,0.0,0.0,0.0,-2.992966921682837,-4.733675472677395,-4.531581625657286,0.0028524333884632574,-0.0030573530886872573,-0.976327205560993
13079,13.0,299.88926000000004,40337.888,0.0,-0.06539464042866205,-0.06539376213858705,0.0,0.0,0.0,-2.999538051231357,-4.725542722074755,-4.536630042955526,-0.0007093789078702472,0.0003891375761973886,-0.968430967796695
13080,13.0,299.94953,40384.98,0.0,-0.06539965491740063,-0.06539876434877401,0.0,0.0,0.0,-3.008023818168837,-4.728041802121395,-4.539959785434146,0.0006103341462927903,0.00022458521280233477,-0.9690990035876251
13081,13.0,299.96612000000005,40439.693,0.0,-0.0654046364160813,-0.06540376655896107,0.0,0.0,0.0,-3.0122388372598268,-4.735753445982476,-4.544664710948486,-0.0046234780395017555,-0.002008442765992868,-0.9650938691223492
13082,13.0,299.99521,40443.013,0.0,-0.06540965090481976,-0.06540876876914825,0.0,0.0,0.0,-3.0122753142634267,-4.732200383181816,-4.5491904938451455,-0.002873333191650907,0.001991283882174418,-0.967388059866268
13083,13.0,299.94268,40444.982,0.0,-0.06541463240350065,-0.06541377097933543,0.0,0.0,0.0,-3.0072585103683074,-4.738077639061855,-4.5489284673692865,0.0036465402899605068,-0.0023852350144293677,-0.9661051129871512
13084,13.0,300.02975,40455.8,0.0,-0.06541964689223922,-0.06541877318952238,0.0,0.0,0.0,-2.999996749551627,-4.744176492738766,-4.553379573733576,0.004966377072093256,-0.005088535314749335,-0.9712121974661811
13085,13.0,300.03247999999996,40466.812000000005,0.0,-0.06542466138097747,-0.06542377539970956,0.0,0.0,0.0,-3.017959849974447,-4.738275020181336,-4.544665622873576,0.005033694470311966,-0.0015516170332326785,-0.961964476586002
13086,13.0,299.91611,40445.612,0.0,-0.06542964287965858,-0.06542877760989652,0.0,0.0,0.0,-3.014421479300237,-4.740889610739375,-4.5391450310287365,-0.0006977032067029453,-0.002241904404308738,-0.9689421322071432
13087,13.0,300.01145,40398.513999999996,0.0,-0.06543465736839682,-0.06543377982008369,0.0,0.0,0.0,-3.0114950103614175,-4.736110211342686,-4.532534283401305,-0.0008099841151317082,-8.181882492038933e-05,-0.962841799185087
13088,13.0,300.20431,40398.582,0.0,-0.06543963886707782,-0.06543878203027087,0.0,0.0,0.0,-3.010630708026117,-4.738056968759816,-4.531472498621516,0.0003778404556649496,0.0005815077483678465,-0.9690390698442101
13089,13.0,300.08804,40470.237,0.0,-0.06544465335581628,-0.06544378424045783,0.0,0.0,0.0,-3.013800863613987,-4.740506906176605,-4.547633736391505,0.003139837827652867,0.001018452126013399,-0.971270773454462
13090,13.0,300.05352,40523.888,0.0,-0.06544963485449717,-0.065448786450645,0.0,0.0,0.0,-3.0189447290716473,-4.742405432888976,-4.5569001112060254,0.0038419213550681163,-0.002030066536376968,-0.965132271301139
13091,13.0,299.95482999999996,40523.697,0.0,-0.06545464934323542,-0.06545378866083196,0.0,0.0,0.0,-3.0195939184107172,-4.744973819242455,-4.553624172307716,0.0003721654749023726,-0.0007538237758841144,-0.9675425298440131
13092,13.0,300.00696,40522.674,0.0,-0.06545966383197399,-0.06545879087101902,0.0,0.0,0.0,-3.020583863758417,-4.741217093171695,-4.556079986575086,-0.002048586721704768,0.005058083298893955,-0.960175705124464
13093,13.0,300.08297999999996,40479.477,0.0,-0.06546464533065488,-0.06546376017192868,0.0,0.0,0.0,-3.013387457573187,-4.7396474674417854,-4.551715411769336,-0.002517034635761978,0.002067171653713958,-0.9697430354836861
13094,13.0,300.12372999999997,40452.602999999996,0.0,-0.06546965981939312,-0.06546876238211563,0.0,0.0,0.0,-3.014865080194017,-4.7391855267211955,-4.542530603587866,-0.01091537653076379,0.003402215394672517,-0.962246413426327
13095,13.0,299.9521,40453.781,0.0,-0.06547464131807401,-0.0654737645923027,0.0,0.0,0.0,-3.0067307083912174,-4.745666882310855,-4.544541702386346,-0.003028753091364657,-0.004761228579996676,-0.9768340433935141
13096,13.0,300.04441,40470.377,0.0,-0.06547965580681259,-0.06547876680248987,0.0,0.0,0.0,-3.0133406454185674,-4.745794754473475,-4.5428485614692455,0.000983025862767099,-0.0017413663529594783,-0.969904324634604
13097,13.0,299.96382,40443.998,0.0,-0.06548463730549348,-0.06548376901267683,0.0,0.0,0.0,-3.013164947851227,-4.745946741988475,-4.534853815530226,0.008409546313282602,0.0017896359665233181,-0.980484753106311
13098,13.0,300.08696000000003,40473.208,0.0,-0.06548965179423172,-0.065488771222864,0.0,0.0,0.0,-3.0115506377919075,-4.746944793336975,-4.544349083542336,0.006037642731743944,0.0023456632410489378,-0.9682558072519081
13099,13.0,299.80835,40495.742999999995,0.0,-0.06549463329291283,-0.06549377343305096,0.0,0.0,0.0,-3.017468221025927,-4.746574551750435,-4.5456520218459255,0.0031501325499938768,0.004672083342823726,-0.9733118239258982
13100,13.0,299.97497999999996,40513.105,0.0,-0.06549964778165107,-0.06549877564323814,0.0,0.0,0.0,-3.0069996249677575,-4.747713343537825,-4.560259339262555,-0.00047936651474979157,0.0040196816969616965,-0.958977425423703
13101,13.0,299.90317000000005,40522.268,0.0,-0.06550466227038942,-0.06550377785342532,0.0,0.0,0.0,-3.013000497359997,-4.751862906672355,-4.552894328260686,0.003902655464737106,0.0013153561901905488,-0.97241633375252
13102,13.0,300.12433,40566.812999999995,0.0,-0.06550964376907054,-0.06550878006361227,0.0,0.0,0.0,-3.0222242143453073,-4.746786928971395,-4.562286954037666,-0.003138813938426817,-0.0014668846015702384,-0.9621983043115793
13103,13.0,299.88298,40525.992999999995,0.0,-0.06551465825780878,-0.06551378227379945,0.0,0.0,0.0,-3.026326965325217,-4.742415970690016,-4.550147001939546,-0.002326386765846498,0.0006625092614395734,-0.9683715102808271
13104,13.0,300.26099,40510.888999999996,0.0,-0.06551963975648967,-0.0655187844839864,0.0,0.0,0.0,-3.006747528342877,-4.750515993314425,-4.557035076119345,-0.0014882867741574687,0.0048464511207324855,-0.969858809440112
13105,13.0,300.05823,40520.511,0.0,-0.06552465424522824,-0.06552378669417358,0.0,0.0,0.0,-3.017976163301057,-4.746563608649355,-4.552683876214916,0.00035027821896226866,0.0036424118024280566,-0.9707684648498881
13106,13.0,300.21345,40515.445,0.0,-0.06552963574390913,-0.06552878890436065,0.0,0.0,0.0,-3.0056090405305174,-4.754167240049775,-4.555907328758046,0.0025790674280841376,-0.0006008419990909885,-0.9725438614101062
13107,13.0,299.90061000000003,40524.33,0.0,-0.06553465023264737,-0.0655337911145476,0.0,0.0,0.0,-3.015337356065627,-4.750590872496815,-4.552456198917446,0.002990766547765677,-0.0016989815946514284,-0.9733949104340981
13108,13.0,299.8345,40550.387,0.0,-0.06553963173132826,-0.06553876041545725,0.0,0.0,0.0,-3.024256287420857,-4.751964535657385,-4.550084180433346,-0.002148325691323238,-0.0025693102349211776,-0.971387682251
13109,13.0,299.89977000000005,40559.398,0.0,-0.06554464622006673,-0.06554376262564443,0.0,0.0,0.0,-3.0256772693610974,-4.756927231997166,-4.5464396211486555,-0.0041543769844300865,-0.005062082597038655,-0.972100351708835
13110,13.0,299.96427,40554.969,0.0,-0.06554966070880508,-0.0655487648358315,0.0,0.0,0.0,-3.019609421137247,-4.752353319720755,-4.555735380216076,-0.004260516958905286,-0.002244836344798098,-0.964880265868768
13111,13.0,300.13795,40570.803,0.0,-0.06555464220748597,-0.06555376704601845,0.0,0.0,0.0,-3.021025843452037,-4.753429897952005,-4.558055317645036,0.0022112228873057077,0.003047344406849477,-0.9665842789594411
13112,13.0,300.0303,40584.3,0.0,-0.06555965669622443,-0.06555876925620541,0.0,0.0,0.0,-3.013229187907567,-4.756765213306175,-4.566619510140256,0.0017523238421908985,0.004183416630971076,-0.9672757005626791
13113,13.0,300.13059,40573.321,0.0,-0.06556463819490532,-0.06556377146639258,0.0,0.0,0.0,-3.012578276043327,-4.755242602380905,-4.565455488425376,0.004245150615838746,-0.0016237257871992586,-0.9819854474319181
13114,13.0,300.05825,40560.77,0.0,-0.06556965268364368,-0.06556877367657976,0.0,0.0,0.0,-3.025222421391207,-4.750307365118836,-4.553931491063046,0.0027605629138213474,0.0005463047243835785,-0.9730429681443641
13115,13.0,300.07183,40585.873999999996,0.0,-0.06557463418232479,-0.06557377588676672,0.0,0.0,0.0,-3.021300434229137,-4.752438432729155,-4.563353501092926,-0.0003468259238840536,0.002880510852709287,-0.978856470328112
13116,13.0,299.92708,40563.071,0.0,-0.06557964867106303,-0.0655787780969539,0.0,0.0,0.0,-3.0259451726875373,-4.750032166391676,-4.554183283712896,-0.006620919442533874,0.0015057552058814687,-0.9705081001041921
13117,13.0,300.12158,40527.562999999995,0.0,-0.06558466315980149,-0.06558378030714096,0.0,0.0,0.0,-3.010305150768987,-4.752645338399575,-4.556416689583316,-0.00945850071235634,0.0015889150733887083,-0.972368933912842
13118,13.0,300.0069,40557.877,0.0,-0.06558964465848238,-0.06558878251732803,0.0,0.0,0.0,-3.0194224764937974,-4.751341690820916,-4.557817609171575,-0.005678781767677125,0.00028675917112842673,-0.9648461598704021
13119,13.0,300.10663,40638.742999999995,0.0,-0.06559465914722074,-0.0655937847275152,0.0,0.0,0.0,-3.027679451558697,-4.765763988769286,-4.559719783584305,0.0018399310670370581,-0.0019001687854820581,-0.9676377550884111
13120,13.0,300.00928,40662.146,0.0,-0.06559964064590162,-0.06559878693770227,0.0,0.0,0.0,-3.038792677330487,-4.763575672528316,-4.557908599030555,0.006834100069498163,0.0015140143087715786,-0.966396098150869
13121,13.0,299.83481,40681.806000000004,0.0,-0.06560465513464009,-0.06560378914788945,0.0,0.0,0.0,-3.028224985412537,-4.771904993650355,-4.566123321566286,0.005429746677974275,0.0029962681918336473,-0.9738948581659391
13122,13.0,299.80537000000004,40641.068999999996,0.0,-0.06560963663332098,-0.06560875844879888,0.0,0.0,0.0,-3.022854759882537,-4.765834612301255,-4.565180796323266,0.0059960610754651545,0.003356370083297937,-0.973352840289946
13123,13.0,299.69683,40592.133,0.0,-0.06561465112205933,-0.06561376065898594,0.0,0.0,0.0,-3.012790653264287,-4.758700318347155,-4.5675037735025255,-0.0017718857499465085,0.005134876612047865,-0.9678595859328042
13124,13.0,300.14089,40581.284,0.0,-0.06561963262074022,-0.06561876286917312,0.0,0.0,0.0,-3.010513880289587,-4.755821776138066,-4.569361364910855,0.0005438589716897015,-0.001961558062665708,-0.9794477017614621
13125,13.0,300.15949,40553.426,0.0,-0.06562464710947868,-0.06562376507936007,0.0,0.0,0.0,-3.0195910813104367,-4.749678136806736,-4.557959768160605,-0.0018055606103949584,-0.002967174944362367,-0.9738530109368091
13126,13.0,299.96987,40546.882000000005,0.0,-0.06562966159821704,-0.06562876728954703,0.0,0.0,0.0,-3.015472219653937,-4.754056289163826,-4.555711264863696,-0.0025530550688669176,-0.0016121525458820684,-0.9800691381802931
13127,13.0,300.10945,40610.92,0.0,-0.06563464309689793,-0.0656337694997342,0.0,0.0,0.0,-3.028819661896227,-4.759265813227965,-4.556620048878386,0.0021398860272653078,-0.0013328608962681287,-0.9734921520461951
13128,13.0,300.1824,40685.941,0.0,-0.06563965758563639,-0.06563877170992116,0.0,0.0,0.0,-3.030771890863897,-4.7661071765781555,-4.5706312712611865,0.0014428099818442589,0.002230382433446608,-0.9713146978462971
13129,13.0,299.90696,40708.442,0.0,-0.06564463908431728,-0.06564377392010834,0.0,0.0,0.0,-3.0287547125648175,-4.774756887381815,-4.570838278256616,0.001109710597594909,0.002017442048081028,-0.9682665578354689
13130,13.0,300.13014,40733.602,0.0,-0.06564965357305574,-0.0656487761302954,0.0,0.0,0.0,-3.025428820436577,-4.778338422510286,-4.578230748336196,0.002461867220817378,0.0018040028396912183,-0.9659801083223141
13131,13.0,299.96976,40727.752,0.0,-0.06565463507173663,-0.06565377834048258,0.0,0.0,0.0,-3.033963020728837,-4.773300948313125,-4.572955666990586,-0.0038622020624446657,0.005822029595264584,-0.9658614162056002
13132,13.0,299.92634,40715.494,0.0,-0.06565964956047499,-0.06565878055066976,0.0,0.0,0.0,-3.0311196382982173,-4.775217105577235,-4.570156664914346,0.000994124193762419,0.0014853987073974386,-0.9712827500706441
13133,13.0,299.98699,40657.633,0.0,-0.06566463105915588,-0.06566378276085671,0.0,0.0,0.0,-3.028711041485507,-4.766166147733975,-4.564027920359486,0.00019098492756124483,0.00012868884220059988,-0.9781782209761741
13134,13.0,299.92618,40575.373999999996,0.0,-0.06566964554789434,-0.06566878497104389,0.0,0.0,0.0,-3.0183015179081676,-4.752087442894516,-4.563511669433536,0.006250359594137464,-0.0016913535439235985,-0.9732292947052531
13135,13.0,299.90275,40610.747,0.0,-0.06567466003663269,-0.06567378718123085,0.0,0.0,0.0,-3.0185358826562974,-4.759894028289966,-4.566223025376125,0.0029136890179587167,-0.004421003413094066,-0.9793037087897511
13136,13.0,299.92407000000003,40683.037000000004,0.0,-0.06567964153531358,-0.06567875648214039,0.0,0.0,0.0,-3.0283104023959675,-4.761938766991766,-4.576378324503375,0.0024821288790920475,-0.0038117406875895162,-0.97228805628986
13137,13.0,299.83412999999996,40711.305,0.0,-0.06568465602405205,-0.06568375869232757,0.0,0.0,0.0,-3.039885670213357,-4.766139195281316,-4.5691951918944556,-0.001236210414279469,0.001966226612501458,-0.9759231923486201
13138,13.0,299.92989,40729.402,0.0,-0.06568963752273294,-0.06568876090251452,0.0,0.0,0.0,-3.034654361272067,-4.771461899381626,-4.574604934178355,-0.0032624211287258973,0.004825487786763566,-0.972695210577543
13139,13.0,299.79984,40736.981,0.0,-0.06569465201147129,-0.0656937631127017,0.0,0.0,0.0,-3.0357339792536173,-4.773384237471346,-4.573906906184465,-0.009384853439437922,0.0061509384810753635,-0.9761486202308681
13140,13.0,299.93827000000005,40791.064,0.0,-0.06569963351015218,-0.06569876532288887,0.0,0.0,0.0,-3.033246754233147,-4.787446932959225,-4.578771215939536,-0.00985193366851015,-0.002242200273337938,-0.9794797305971231
13141,13.0,300.00905,40766.812000000005,0.0,-0.06570464799889064,-0.06570376753307583,0.0,0.0,0.0,-3.031409731801847,-4.777566933884145,-4.583116235018355,-0.005909661644738194,-0.005629937033356525,-0.972974746015131
13142,13.0,300.06894,40631.471,0.0,-0.065709662487629,-0.06570876974326278,0.0,0.0,0.0,-3.0181931001474673,-4.768028704067795,-4.5647307106288455,0.006963311647425354,0.0006636567165153184,-0.9772961361016191
13143,13.0,300.14108999999996,40593.503,0.0,-0.06571464398631,-0.06571377195344985,0.0,0.0,0.0,-3.017056537510297,-4.760441183343966,-4.561913672700825,0.007597412881906272,0.0014832517317605485,-0.973171661039565
13144,13.0,300.06464,40700.397000000004,0.0,-0.06571965847504835,-0.06571877416363714,0.0,0.0,0.0,-3.027114463302937,-4.772769498635675,-4.572020639798305,0.007437511478325233,-0.0006500664894165673,-0.985750583478508
13145,13.0,299.99442,40762.403,0.0,-0.06572463997372924,-0.0657237763738242,0.0,0.0,0.0,-3.039949504969657,-4.771624323372655,-4.579178846454766,-0.0027812902618419774,0.0008247186866283973,-0.9731563508305541
13146,13.0,300.16143,40769.687000000005,0.0,-0.0657296544624677,-0.06572877858401116,0.0,0.0,0.0,-3.0376640180440972,-4.774523029258736,-4.580779781612766,-0.0014441535514768584,0.005723072753398305,-0.9782606184743061
13147,13.0,299.95853,40746.196,0.0,-0.06573463596114859,-0.06573378079419834,0.0,0.0,0.0,-3.032821999791227,-4.770303754517325,-4.582700397177316,-0.005058021389312845,-0.0012351621057260088,-0.9698497813817212
13148,13.0,299.63581,40790.577000000005,0.0,-0.06573965044988694,-0.06573878300438529,0.0,0.0,0.0,-3.046328724949237,-4.777701797472456,-4.575286344870605,-0.006827259719398073,-0.0013670450162168385,-0.9765865165265851
13149,13.0,299.66064,40850.318999999996,0.0,-0.06574463194856783,-0.06574378521457247,0.0,0.0,0.0,-3.048497890763317,-4.779515920451495,-4.589463030994736,-0.0012867693651192487,0.0014558976267609086,-0.97292093230232
13150,13.0,299.88807,40757.422,0.0,-0.0657496464373063,-0.06574878742475965,0.0,0.0,0.0,-3.038759746702237,-4.7770884771869255,-4.573390351283486,0.0016713960633289485,0.008231648270700432,-0.978257224086471
13151,13.0,300.08987,40665.877,0.0,-0.06575466092604465,-0.06575375672566897,0.0,0.0,0.0,-3.018339109486877,-4.769146724228136,-4.573925448661296,0.005534872085124345,0.0030153939967462167,-0.9753728556893062
13152,13.0,299.95552999999995,40664.062000000005,0.0,-0.06575964242472554,-0.06575875893585614,0.0,0.0,0.0,-3.0167589459559268,-4.771162078677036,-4.5729386443889055,-0.0010216693977309192,-0.004889830991963746,-0.985272197708795
13153,13.0,299.96809,40780.513,0.0,-0.065764656913464,-0.06576376114604332,0.0,0.0,0.0,-3.026313691748907,-4.780048079404016,-4.589895790112446,0.0036586684883574663,-0.0013305952690445286,-0.9744511426033401
13154,13.0,299.93227,40817.753,0.0,-0.06576963841214489,-0.06576876335623028,0.0,0.0,0.0,-3.043208319941277,-4.780496645223286,-4.583872727543016,-0.0029118987063570276,-0.0019920624635512583,-0.97884206191169
13155,13.0,300.05245,40788.983,0.0,-0.06577465290088325,-0.06577376556641745,0.0,0.0,0.0,-3.0348892326452472,-4.783002108745555,-4.580941091028686,0.0007171394917111572,0.002171429921428448,-0.9734995487719251
13156,13.0,300.08737,40761.337999999996,0.0,-0.06577963439956425,-0.06577876777660441,0.0,0.0,0.0,-3.0315604020917175,-4.783782919272616,-4.575085620025796,-0.0014798356603734086,0.00023278644897923377,-0.983023056064322
13157,13.0,300.03734,40821.521,0.0,-0.0657846488883026,-0.06578376998679147,0.0,0.0,0.0,-3.038152809892337,-4.786667237007275,-4.583902922395995,0.002888070306405347,0.0026124236213761376,-0.9748496336026681
13158,13.0,300.18573,40857.634,0.0,-0.06578963038698349,-0.06578877219697865,0.0,0.0,0.0,-3.0405268548766373,-4.7879418043080655,-4.591231861694306,0.0042330162366161755,0.0005783016527989294,-0.9824099181638101
13159,13.0,300.3158,40810.78,0.0,-0.06579464487572195,-0.0657937744071656,0.0,0.0,0.0,-3.040385202512657,-4.781322140079755,-4.583750732230976,0.0027644149867265175,-0.0023409048159293176,-0.9715638459133861
13160,13.0,300.15794,40734.479,0.0,-0.0657996593644603,-0.06579877661735278,0.0,0.0,0.0,-3.0358834336433675,-4.774783839834475,-4.571597101256505,0.0022780600049770177,-0.004199873636445256,-0.981582032037104
13161,13.0,300.15452,40774.882000000005,0.0,-0.0658046408631412,-0.06580377882753974,0.0,0.0,0.0,-3.039032716279177,-4.777821057009225,-4.577692307233056,0.00013024331984151487,0.0014878359791879788,-0.974494155070085
13162,13.0,299.92877000000004,40836.529,0.0,-0.06580965535187966,-0.06580878103772692,0.0,0.0,0.0,-3.038791258780347,-4.7846482348580155,-4.589845634232495,-0.002170294169391358,0.004360489786646837,-0.9814613235526911
13163,13.0,299.88678,40865.131,0.0,-0.06581463685056055,-0.06581378324791409,0.0,0.0,0.0,-3.037863526988787,-4.788628179925805,-4.595487714764325,-0.008088624776685113,-0.004276750745382436,-0.97096059733385
13164,13.0,300.15554,40828.781,0.0,-0.0658196513392989,-0.06581878545810105,0.0,0.0,0.0,-3.031751298410557,-4.790712536706516,-4.588466094221346,0.0015458311725116585,-0.002117741547654818,-0.9782195007852481
13165,13.0,299.92219,40776.197,0.0,-0.06582463283797979,-0.06582375475901059,0.0,0.0,0.0,-3.034886598194987,-4.780944197792455,-4.579114809048446,0.005068891536385646,0.0005346624503370754,-0.977914066675104
13166,13.0,300.03292999999996,40882.66,0.0,-0.06582964732671825,-0.06582875696919777,0.0,0.0,0.0,-3.048802068443337,-4.793178584799895,-4.585327248061565,0.006532175756375554,0.002191068228241598,-0.9752095096406851
13167,13.0,300.03212,40928.829,0.0,-0.0658346618154565,-0.06583375917938472,0.0,0.0,0.0,-3.054650142720497,-4.792585833491396,-4.594106148252975,-0.001020440122709599,0.0005001381417997915,-0.9818015324062671
13168,13.0,299.74643,40821.892,0.0,-0.06583964331413739,-0.0658387613895719,0.0,0.0,0.0,-3.0385619602827174,-4.782995218644875,-4.587278565104146,0.0008331985463177941,0.0006044151141111274,-0.9766855718563612
13169,13.0,299.87197000000003,40781.15,0.0,-0.06584465780287596,-0.06584376359975896,0.0,0.0,0.0,-3.026996217016267,-4.780663628839766,-4.588791347503446,-0.0024983677318196978,0.006082529913823964,-0.985365426850496
13170,13.0,299.92615,40821.19,0.0,-0.06584963930155685,-0.06584876580994603,0.0,0.0,0.0,-3.036657050094717,-4.778539451330126,-4.593426054785855,-0.0005741553928597255,-0.0008068198667919213,-0.975331484687723
13171,13.0,299.93011,40874.906,0.0,-0.06585465379029509,-0.06585376802013321,0.0,0.0,0.0,-3.0488129102194073,-4.786673721807915,-4.5894641455698455,-0.004161719197304706,-0.0060004766167509336,-0.9834344052074191
13172,13.0,300.22073,40911.759,0.0,-0.0658596352889762,-0.06585877023032027,0.0,0.0,0.0,-3.0527569862336574,-4.792922536499625,-4.590473646644475,-0.002279618991580878,0.0023297974670081077,-0.976722079257464
13173,13.0,300.28532,40841.733,0.0,-0.06586464977771456,-0.06586377244050723,0.0,0.0,0.0,-3.039458990596247,-4.790672614652576,-4.584735510003166,0.004682613037862926,0.006219822262623665,-0.9854112561525191
13174,13.0,300.02706,40832.086,0.0,-0.06586963127639545,-0.06586877465069418,0.0,0.0,0.0,-3.034160604498337,-4.7962374855267855,-4.581536375462436,0.0017729709408036084,0.00983089930570922,-0.976464460419539
13175,13.0,299.96128999999996,40952.064,0.0,-0.06587464576513391,-0.06587377686088136,0.0,0.0,0.0,-3.0424133239128173,-4.798852886684905,-4.607138571039175,-0.004336974582301066,-0.0007888522675386572,-0.973000746012697
13176,13.0,300.09664,41014.524,0.0,-0.06587966025387237,-0.06587877907106854,0.0,0.0,0.0,-3.057882005239457,-4.805123790228795,-4.604385165217436,-0.0034508238390697963,0.000987850189673223,-0.972700945573109
13177,13.0,300.0253,40904.961,0.0,-0.06588464175255304,-0.0658837812812555,0.0,0.0,0.0,-3.0525914211673175,-4.791743417358255,-4.589752009923255,-0.0005347642718396245,0.005582492306699095,-0.980489728164302
13178,13.0,299.86297,40836.953,0.0,-0.06588965624129162,-0.06588878349144267,0.0,0.0,0.0,-3.045067329899747,-4.786701586185666,-4.581645097198166,0.0028521482598851174,0.0006422658821967074,-0.984408726238577
13179,13.0,299.59844,40847.915,0.0,-0.0658946377399725,-0.06589375279235221,0.0,0.0,0.0,-3.044268382195897,-4.787397992979396,-4.5850798123871455,-0.0013561741598689687,-0.0064645784984792235,-0.987572376760805
13180,13.0,299.78333,40922.691,0.0,-0.06589965222871075,-0.06589875500253917,0.0,0.0,0.0,-3.0482021230591267,-4.788102708423945,-4.6031712915976355,-0.004429641674171596,-0.003447308469172857,-0.982140535492224
13181,13.0,299.81653,40909.735,0.0,-0.06590463372739164,-0.06590375721272634,0.0,0.0,0.0,-3.037992412401507,-4.795986503477016,-4.601559008038516,0.005591353482798625,0.0018173397441324682,-0.9808220741971021
13182,13.0,300.08549,40811.835,0.0,-0.06590964821613021,-0.06590875942291341,0.0,0.0,0.0,-3.036824135036207,-4.785773449094066,-4.583181184349765,-0.0017527308647560685,-0.0004329460218234456,-0.979303313622212
13183,13.0,300.02872,40861.989,0.0,-0.0659146297148111,-0.06591376163310059,0.0,0.0,0.0,-3.045291258171847,-4.788811476868895,-4.586921597093916,0.0035999654385139262,-0.004604542522957965,-0.9777021960791941
13184,13.0,300.08218999999997,41019.679,0.0,-0.06591964420354934,-0.06591876384328765,0.0,0.0,0.0,-3.0666991049596373,-4.807435419006936,-4.594823529323775,-0.007124441211452602,-0.002702412085282307,-0.9848150293961762
13185,13.0,300.01759,41046.623,0.0,-0.06592465869228781,-0.06592376605347472,0.0,0.0,0.0,-3.065565886047797,-4.805528583643746,-4.606053886807125,-0.004100622344099916,0.006351659982160035,-0.979063315203526
13186,13.0,300.09382999999997,40933.326,0.0,-0.06592964019096881,-0.0659287682636619,0.0,0.0,0.0,-3.039648063064907,-4.802202387540475,-4.600858446919375,-0.0076231134640677226,-0.0005458451040057175,-0.980752251132711
13187,13.0,300.06782000000004,40887.176,0.0,-0.06593465467970705,-0.06593377047384885,0.0,0.0,0.0,-3.029472397610647,-4.799286253752675,-4.599922001176955,0.0018037711093933483,0.00023142703211506978,-0.9742146601625011
13188,13.0,299.95439,40940.032,0.0,-0.06593963617838816,-0.0659387726840358,0.0,0.0,0.0,-3.0474588027857674,-4.7926163323194055,-4.604672522945796,-0.0010517602912506591,0.004650538605947425,-0.973324996177198
13189,13.0,299.9472,40994.477999999996,0.0,-0.06594465066712663,-0.06594377489422298,0.0,0.0,0.0,-3.0529602442037174,-4.8058498852504545,-4.602487550430155,0.005177790996183185,0.005837458759837324,-0.9778967907608991
13190,13.0,300.11343,40909.66,0.0,-0.06594963216580729,-0.06594877710440994,0.0,0.0,0.0,-3.041999005946927,-4.795895108317996,-4.597620910199855,-0.002922462142624557,-0.004265254511072845,-0.9913786000989501
13191,13.0,300.05042000000003,40879.568,0.0,-0.06595464665454587,-0.06595377931459712,0.0,0.0,0.0,-3.036997096828277,-4.794798974359816,-4.594571736673926,-0.002011636226333038,-0.002951080885074007,-0.9884122496361941
13192,13.0,300.00032000000004,40975.832,0.0,-0.06595966114328433,-0.06595878152478418,0.0,0.0,0.0,-3.043473892792487,-4.805162800357645,-4.606993068324816,0.000945969330772404,-0.0038181538514474467,-0.9877003907784392
13193,13.0,300.16945,41081.104,0.0,-0.065964642641965,-0.06596375082569361,0.0,0.0,0.0,-3.0608778818101268,-4.808719105558625,-4.618032732139345,-0.003379536324309267,0.0004544710611178016,-0.9766106825414701
13194,13.0,299.86758,41054.13,0.0,-0.06596965713070357,-0.06596875303588079,0.0,0.0,0.0,-3.065085504175387,-4.805791015419645,-4.608553777453846,-0.0025414281252944273,-0.003474516868808117,-0.9764899943220591
13195,13.0,299.98965,41012.177,0.0,-0.06597463862938446,-0.06597375524606786,0.0,0.0,0.0,-3.057047289807077,-4.805607921126575,-4.604022523006646,-0.0023667150317515876,-0.0022391264778345776,-0.9776835928073581
13196,13.0,299.98161,40949.331,0.0,-0.0659796531181227,-0.06597875745625503,0.0,0.0,0.0,-3.0516805093274173,-4.798124157212986,-4.597769553989526,0.007873971086725442,0.005877295802093934,-0.984108034138901
13197,13.0,299.9159,41006.35,0.0,-0.0659846346168036,-0.06598375966644221,0.0,0.0,0.0,-3.0562633382047073,-4.805994374714715,-4.602648555871046,0.0036061912524283663,0.002046552419478998,-0.9885082854806722
13198,13.0,299.87097,41001.66,0.0,-0.06598964910554206,-0.06598876187662917,0.0,0.0,0.0,-3.0481275478517675,-4.801555123376596,-4.613798157321425,0.002270534089859268,-0.0054660702755091346,-0.9828939274715781
13199,13.0,299.87515,40887.638,0.0,-0.06599463060422295,-0.06599376408681634,0.0,0.0,0.0,-3.032506068410047,-4.797091250061046,-4.599223871858055,-0.00021149151878258778,-0.0032023299262453567,-0.9812658574759
13200,13.0,299.76595,40886.242999999995,0.0,-0.0659996450929613,-0.0659987662970033,0.0,0.0,0.0,-3.035203542826267,-4.796614414563986,-4.596579086447036,0.006018466770951424,0.006211338522186384,-0.9790000174697792
13201,13.0,299.75779,41014.311,0.0,-0.06600465958169976,-0.06600376850719047,0.0,0.0,0.0,-3.0528603377438572,-4.808532667540225,-4.605933512695246,0.0013533395927142187,0.0027510594384834272,-0.987644722817945
13202,13.0,299.83783999999997,41083.041,0.0,-0.06600964108038088,-0.06600877071737765,0.0,0.0,0.0,-3.0654399390603673,-4.815599377712655,-4.607179303693195,0.001021572936321399,-0.0029169704284075673,-0.9836720326208711
13203,13.0,299.7807,41113.66,0.0,-0.06601465556911923,-0.0660137729275646,0.0,0.0,0.0,-3.064618497204297,-4.8166708896934045,-4.616236645012086,-0.004426138767250886,-0.002342197115106858,-0.9850157745059881
13204,13.0,300.01758,41112.651,0.0,-0.06601963706780012,-0.06601877513775156,0.0,0.0,0.0,-3.0627211863920474,-4.816299229556725,-4.618199006480755,0.0032885628799808873,0.0025520775864954475,-0.9791048787226281
13205,13.0,300.05223,41038.677,0.0,-0.06602465155653858,-0.06602377734793863,0.0,0.0,0.0,-3.059740103272837,-4.803954398288386,-4.611038671999086,0.002712133916016778,-0.002925976701921417,-0.9823263655605641
13206,13.0,300.12825,41049.634,0.0,-0.06602963305521925,-0.0660287795581258,0.0,0.0,0.0,-3.056533774656397,-4.808998863911236,-4.612530885421355,-0.0023861800727976376,-0.0019301118458122082,-0.9783737579804721
13207,13.0,300.08499,41055.388,0.0,-0.06603464754395771,-0.06603378176831298,0.0,0.0,0.0,-3.059043595154097,-4.811958060828286,-4.6088111429792455,-0.0006307742379100703,0.002800019480665407,-0.9895247678484911
13208,13.0,300.17551000000003,41005.325,0.0,-0.06603962904263871,-0.06603875106922241,0.0,0.0,0.0,-3.057310734833077,-4.804429004635225,-4.602855157566435,-0.0013733743842914987,0.011478460889585889,-0.983820980385571
13209,13.0,300.11508,40936.497,0.0,-0.06604464353137696,-0.06604375327940948,0.0,0.0,0.0,-3.045493401566797,-4.804471561139425,-4.593707940963675,-4.3551572540205564e-05,0.005134125388423724,-0.997785431143755
13210,13.0,299.89858,41013.121,0.0,-0.06604965802011542,-0.06604875548959666,0.0,0.0,0.0,-3.050793611514887,-4.808152293452685,-4.608018882726055,-0.003950400316074156,-0.003831832119847386,-0.97752331690654
13211,13.0,299.68814,41118.321,0.0,-0.06605463951879631,-0.06605375769978361,0.0,0.0,0.0,-3.065228169789467,-4.812824490988795,-4.6208901987463555,-0.0007388659144628885,-0.003375278039439007,-0.9801373501770251
13212,13.0,299.71272999999997,41153.689,0.0,-0.06605965400753466,-0.06605875990997079,0.0,0.0,0.0,-3.0636459797583173,-4.821964918815886,-4.624083051136466,-0.002133159566476458,6.061196642243534e-05,-0.976988503238758
13213,13.0,299.90792000000005,41139.766,0.0,-0.06606463550621555,-0.06606376212015774,0.0,0.0,0.0,-3.0676009988736475,-4.817970686921686,-4.619890019572646,-0.0006280781617789884,-0.0037953978754016065,-0.982335008583917
13214,13.0,300.03007,41121.941,0.0,-0.06606964999495402,-0.06606876433034492,0.0,0.0,0.0,-3.066436673183737,-4.8158243192348555,-4.617782358039636,-0.0001004902803821185,-0.0037642363818262063,-0.984235663121497
13215,13.0,299.99631,41087.09,0.0,-0.06607463149363513,-0.0660737665405321,0.0,0.0,0.0,-3.058381436213747,-4.814785231257305,-4.616282646566626,0.0011670393763278189,0.002340848681873778,-0.9826571815857131
13216,13.0,300.1724,41079.921,0.0,-0.06607964598237337,-0.06607876875071905,0.0,0.0,0.0,-3.0569162765691473,-4.810408598775366,-4.619945140378086,0.0004546689691273336,0.0006536017494129703,-0.9895928177252071
13217,13.0,300.06857,41066.833,0.0,-0.06608466047111172,-0.06608377096090623,0.0,0.0,0.0,-3.055584460637707,-4.815008146279305,-4.612699388912986,0.0002962539933104927,-0.003271604923657267,-0.9898551279110951
13218,13.0,299.97482,40980.675,0.0,-0.06608964196979283,-0.06608877317109318,0.0,0.0,0.0,-3.042797041725687,-4.810599900394246,-4.603704767775286,0.004266150426811266,7.963386659025073e-05,-0.9970226058059701
13219,13.0,299.81661,41007.128,0.0,-0.06609465645853108,-0.06609377538128025,0.0,0.0,0.0,-3.0454565192631575,-4.816526805529185,-4.603159537896476,0.003932304885188277,0.006787592599183234,-0.98903829634298
13220,13.0,299.81629,41133.344,0.0,-0.06609963795721197,-0.06609877759146743,0.0,0.0,0.0,-3.064909097332977,-4.823805588947545,-4.614794688794775,-0.0037974418035033267,0.008579105915491832,-0.9926121814331951
13221,13.0,299.78444,41203.397000000004,0.0,-0.06610465244595054,-0.06610377980165438,0.0,0.0,0.0,-3.0667734775169766,-4.824936578709165,-4.633093782950755,-0.005815597078329744,-0.006060693968868924,-0.9753130739334062
13222,13.0,300.11525,41148.729,0.0,-0.06610963394463121,-0.06610874910256404,0.0,0.0,0.0,-3.065689502559997,-4.821372876782456,-4.621123651569396,-0.0013551314241910587,0.00013806908606135788,-0.9833031589219661
13223,13.0,300.00476000000003,41124.691,0.0,-0.06611464843336967,-0.0661137513127511,0.0,0.0,0.0,-3.0632469618689373,-4.813896509594596,-4.623735911652205,-0.0017240176873972984,0.0026084711353860576,-0.9762868883395139
13224,13.0,300.11942999999997,41154.547,0.0,-0.06611962993205056,-0.06611875352293806,0.0,0.0,0.0,-3.071253461509117,-4.819425612740275,-4.619275584712005,-0.0025357557485846073,-0.002179001635450718,-0.989634138064285
13225,13.0,300.18761,41144.916,0.0,-0.06612464442078891,-0.06612375573312523,0.0,0.0,0.0,-3.0653586764023473,-4.823074529000396,-4.618593870044726,-0.0074669932058848525,-0.004820274412349045,-0.988275987762746
13226,13.0,300.10467,41096.637,0.0,-0.06612965890952738,-0.06612875794331219,0.0,0.0,0.0,-3.065388871255327,-4.815523485280165,-4.611438905788586,-0.0011088095142809788,0.0007774052873164282,-0.995394687797807
13227,13.0,300.27247,41052.726,0.0,-0.06613464040820827,-0.06613376015349937,0.0,0.0,0.0,-3.0498156225183672,-4.812866034242895,-4.616321960670506,0.002264318509770838,0.0012674001775326588,-0.986296765812412
13228,13.0,300.27088,41087.294,0.0,-0.06613965489694662,-0.06613876236368654,0.0,0.0,0.0,-3.060593969132107,-4.8178072496805555,-4.611110106131136,3.189263660905817e-05,-0.002208945101080908,-0.991491192450062
13229,13.0,300.06003,41209.132000000005,0.0,-0.06614463639562762,-0.0661437645738735,0.0,0.0,0.0,-3.062002184121087,-4.827300693842486,-4.637244359335386,-0.0012066869408157287,-0.0054603815854727044,-0.983021951621713
13230,13.0,299.93883999999997,41272.903,0.0,-0.06614965088436597,-0.06614876678406068,0.0,0.0,0.0,-3.0812889944745474,-4.833281503882746,-4.631361327929775,0.0018792861062210983,-0.006509219055484905,-0.9864788468553821
13231,13.0,300.09141,41205.362,0.0,-0.06615463238304709,-0.06615376899424774,0.0,0.0,0.0,-3.0664885515888574,-4.826826594120695,-4.632086105726305,0.0026463774295771175,0.0026232513132697474,-0.9787291453205461
13232,13.0,300.00153,41159.257000000005,0.0,-0.06615964687178533,-0.06615877120443481,0.0,0.0,0.0,-3.064904335057507,-4.824914489856986,-4.6215675564382055,0.001966054663959488,-0.00035808968822320067,-0.9851693528236452
13233,13.0,300.08828,41208.447,0.0,-0.06616462837046622,-0.06616377341462198,0.0,0.0,0.0,-3.0613621140329172,-4.830630334996095,-4.634346464049386,-0.0015250775813134385,0.0029391839103498673,-0.9861692989498321
13234,13.0,299.90256,41196.88,0.0,-0.06616964285920479,-0.06616877562480905,0.0,0.0,0.0,-3.069186735280147,-4.825083195998635,-4.628553105277626,0.0006866000830346522,0.00865438776347157,-0.9873677509031101
13235,13.0,300.01536,41137.206,0.0,-0.06617465734794303,-0.066173777834996,0.0,0.0,0.0,-3.055272582256927,-4.8298654324956045,-4.619545615863655,-0.0017850905265747183,0.002300403790882178,-0.9973642129446841
13236,13.0,299.86645,41107.79,0.0,-0.06617963884662392,-0.06617874713590566,0.0,0.0,0.0,-3.061702768716537,-4.823890397980916,-4.6101487344362555,-0.0006909738480188094,0.00016485746313266484,-0.998217987611445
13237,13.0,300.03497000000004,41151.511,0.0,-0.06618465333536239,-0.06618374934609272,0.0,0.0,0.0,-3.0656279982789267,-4.824592580300216,-4.618811110866165,-0.005404399618772714,-0.006697822591998624,-0.9927717784564462
13238,13.0,300.06528,41206.251000000004,0.0,-0.06618963483404317,-0.06618875155627968,0.0,0.0,0.0,-3.065537819020027,-4.828504637611305,-4.631628825956175,0.0003439900091066707,-0.0032006561384051667,-0.9868463222691491
13239,13.0,299.87196,41221.369,0.0,-0.06619464932278163,-0.06619375376646663,0.0,0.0,0.0,-3.0723281145651766,-4.821063531526925,-4.636875232323955,-0.0038553928191226465,0.0006001591799810993,-0.9804485395477371
13240,13.0,299.86523,41242.759,0.0,-0.06619963082146252,-0.06619875597665381,0.0,0.0,0.0,-3.0719286913757573,-4.825742923138745,-4.639097289793255,0.004047340688916426,0.0017116893721055885,-0.9802901989546101
13241,13.0,299.83984,41227.053,0.0,-0.06620464531020087,-0.06620375818684099,0.0,0.0,0.0,-3.072215441154057,-4.829368534646565,-4.630410494035936,0.002831778589149787,-0.004762328969605276,-0.9832941713935791
13242,13.0,299.91298,41244.57,0.0,-0.06620965979893934,-0.06620876039702794,0.0,0.0,0.0,-3.071489650107427,-4.839038183000886,-4.626791671303786,0.0043321841384782855,-0.0006958648265165113,-0.987047796919033
13243,13.0,299.92742999999996,41267.684,0.0,-0.06621464129762022,-0.06621376260721512,0.0,0.0,0.0,-3.080908215086967,-4.834464979999545,-4.628972286843996,0.0036242990449654668,0.0016973624209916285,-0.9890174841859259
13244,13.0,300.21011,41258.893,0.0,-0.06621965578635847,-0.06621876481740219,0.0,0.0,0.0,-3.068339962171577,-4.838148144113045,-4.6351850298321455,-0.0007394655761370703,0.0027106956074998277,-0.9933246077110062
13245,13.0,300.32139,41171.78,0.0,-0.06622463728503958,-0.06622376702758936,0.0,0.0,0.0,-3.0599879442472973,-4.830307006889186,-4.624898210841915,0.00016224127163946681,0.008347491736083292,-0.9934830090991391
13246,13.0,300.09897,41185.06,0.0,-0.06622965177377793,-0.06622876923777643,0.0,0.0,0.0,-3.0580582094318474,-4.831398986521955,-4.629772754422996,-0.0025878360944495376,0.0025617934390543278,-0.9865479809097051
13247,13.0,300.12699,41228.723,0.0,-0.06623463327245904,-0.0662337714479635,0.0,0.0,0.0,-3.066957179760107,-4.834209235674305,-4.631335895352265,-0.0004734548387638546,0.0024671611486148477,-0.996035761003576
13248,13.0,300.07346,41221.385,0.0,-0.06623964776119728,-0.06623877365815067,0.0,0.0,0.0,-3.074097553214807,-4.829531566587655,-4.626642723539086,-0.006592730622101853,-0.0007165650700969664,-0.990597637584375
13249,13.0,299.94428999999997,41230.701,0.0,-0.06624462925987817,-0.06624377586833763,0.0,0.0,0.0,-3.074720702026307,-4.8269200157799155,-4.631462956914805,0.004599672133702296,0.0017676796474563985,-0.9897005464758392
13250,13.0,299.98846000000003,41248.3,0.0,-0.06624964374861664,-0.06624877807852458,0.0,0.0,0.0,-3.067229440061977,-4.831741262405735,-4.639482628806285,0.00031018123752500474,-0.0016995133483039084,-0.9815250569839811
13251,13.0,299.94158,41260.7,0.0,-0.06625465823735499,-0.06625374737943435,0.0,0.0,0.0,-3.0607855747260175,-4.839720606943235,-4.641716237326725,0.0032305806562584866,0.005459805552790855,-0.990107589306011
13252,13.0,299.75307999999995,41324.047,0.0,-0.06625963973603588,-0.0662587495896213,0.0,0.0,0.0,-3.074521193081617,-4.844269795917205,-4.642687640197596,-0.002965509465172997,0.002344817278540448,-0.990416073298956
13253,13.0,299.98193,41357.809,0.0,-0.06626465422477434,-0.06626375179980848,0.0,0.0,0.0,-3.079402930738407,-4.849303014463945,-4.643035387631916,-0.0014772839926465785,0.005450689544291175,-0.993634591314099
13254,13.0,300.10972000000004,41229.622,0.0,-0.06626963572345512,-0.06626875400999543,0.0,0.0,0.0,-3.075875503165277,-4.834506219278616,-4.622393659244736,-0.001093335260078789,0.003271880325034447,-0.9972832542616941
13255,13.0,300.08454,41221.388,0.0,-0.06627465021219359,-0.06627375622018239,0.0,0.0,0.0,-3.067487514862447,-4.837995852623016,-4.624789286456165,-0.0024295334982012877,-0.0019389946041388681,-0.992340366961369
13256,13.0,300.2169,41315.036,0.0,-0.06627963171087448,-0.06627875843036957,0.0,0.0,0.0,-3.086101628474517,-4.835724247223825,-4.636913431852726,-0.0015703994476863584,-0.005412646258686594,-0.9914960459180411
13257,13.0,300.08027999999996,41285.208,0.0,-0.06628464619961272,-0.06628376064055663,0.0,0.0,0.0,-3.0710788785168868,-4.833142789944055,-4.645450469245266,-0.0018116367672696284,-0.0075851232727683834,-0.9816935807406131
13258,13.0,300.05319,41241.922999999995,0.0,-0.06628962769829383,-0.06628876285074381,0.0,0.0,0.0,-3.065712199362237,-4.835692431170686,-4.635110049324745,-0.00026705662425893675,-0.0025768402030393275,-0.984677835332636
13259,13.0,300.21648,41333.846,0.0,-0.06629464218703218,-0.06629376506093099,0.0,0.0,0.0,-3.077832393083407,-4.838359812058935,-4.648264670073005,-0.0003278464525509257,0.0015427279927553983,-0.981778521496496
13260,13.0,300.09299,41385.44,0.0,-0.06629965667577042,-0.06629876727111794,0.0,0.0,0.0,-3.0962689852779572,-4.844327044547855,-4.639544234412366,0.001969091779809228,0.005101261026730266,-0.989326555863929
13261,13.0,299.94421,41371.292,0.0,-0.06630463817445154,-0.06630376948130512,0.0,0.0,0.0,-3.081787918823787,-4.8489602319551155,-4.645091576059846,-0.0024827600325793378,0.001962687431227168,-0.9876203440205391
13262,13.0,299.85335,41352.825,0.0,-0.06630965266319,-0.06630877169149207,0.0,0.0,0.0,-3.0811023538061266,-4.8453888293276455,-4.6437351381509755,-0.0009731015036026409,-0.0035980322586481365,-0.993340991965123
13263,13.0,300.19203999999996,41317.812000000005,0.0,-0.06631463416187089,-0.06631377390167925,0.0,0.0,0.0,-3.0623995808103075,-4.848199078479995,-4.648984482944045,0.0017882996922914383,-0.0026111197711474574,-0.9983775947671971
13264,13.0,300.29451,41284.954,0.0,-0.06631964865060924,-0.06631877611186643,0.0,0.0,0.0,-3.065983851714047,-4.847054815142066,-4.636556565167505,0.000911235441584436,-0.0012759827098546889,-1.001993144701524
13265,13.0,300.23647,41327.674,0.0,-0.06632463014929013,-0.06632374541277575,0.0,0.0,0.0,-3.0799207015395074,-4.843648572280895,-4.639011568834796,1.6401573600959283e-05,0.0016301569869089684,-0.9984840265577012
13266,13.0,299.94254,41330.419,0.0,-0.0663296446380286,-0.06632874762296292,0.0,0.0,0.0,-3.0912945352370174,-4.838553140178016,-4.633567781347535,-0.002485426805517528,-0.0006616806559052963,-0.9917360747342301
13267,13.0,299.96976,41293.907999999996,0.0,-0.06633465912676695,-0.0663337498331501,0.0,0.0,0.0,-3.073358589916877,-4.841817021400136,-4.637141311800216,0.0024698261990278676,0.00024032805934103279,-0.9933092063094862
13268,13.0,299.81905,41354.269,0.0,-0.06633964062544784,-0.06633875204333706,0.0,0.0,0.0,-3.0806303819095473,-4.846689234505986,-4.643345644812536,0.003956504742626617,-0.002181942796515988,-0.986722361251915
13269,13.0,299.92749,41469.965,0.0,-0.0663446551141863,-0.06634375425352401,0.0,0.0,0.0,-3.086873319750677,-4.854175734194845,-4.664785003678436,0.0007211034476923692,-0.00030278430914498474,-0.986048327020393
13270,13.0,299.83675,41394.001000000004,0.0,-0.06634963661286697,-0.06634875646371108,0.0,0.0,0.0,-3.083005440143947,-4.848577020767296,-4.651160437533795,-0.004026301766490046,-0.005275729116398925,-0.9848436537115011
13271,13.0,299.8668,41317.937999999995,0.0,-0.06635465110160554,-0.06635375867389826,0.0,0.0,0.0,-3.0829808181665173,-4.842905555982566,-4.633735170264055,-0.0033345022209647465,0.0006430648400330585,-0.9958455942248081
13272,13.0,300.06781,41375.232,0.0,-0.06635963260028643,-0.06635876088408543,0.0,0.0,0.0,-3.0889828051338672,-4.842951557537105,-4.6451031271109855,0.002774168228214088,0.006261179990630354,-0.9894517327812831
13273,13.0,300.11402000000004,41370.553,0.0,-0.06636464708902468,-0.06636376309427239,0.0,0.0,0.0,-3.080082112280437,-4.8492824454869154,-4.646250632849236,0.0005826780623658474,-0.0017974942276738682,-0.996970261305804
13274,13.0,300.1174,41384.196,0.0,-0.06636962858770579,-0.06636876530445956,0.0,0.0,0.0,-3.075349322388347,-4.846681128505185,-4.657731668407326,-0.0011788340127918588,-0.007190961181842613,-0.9901062518158791
13275,13.0,300.26437000000004,41428.724,0.0,-0.06637464307644425,-0.06637376751464652,0.0,0.0,0.0,-3.081054832376437,-4.854359740413005,-4.657883149297275,0.0006468471405363424,-0.007911289493208483,-0.997777527792975
13276,13.0,300.31076,41386.157999999996,0.0,-0.0663796575651826,-0.0663787697248337,0.0,0.0,0.0,-3.0783482387093173,-4.853984736550995,-4.648025745699425,0.007888971646505883,0.007659443242428191,-0.9917327614064031
13277,13.0,300.08846,41346.087999999996,0.0,-0.0663846390638635,-0.06638377193502087,0.0,0.0,0.0,-3.0847670767678075,-4.847453123756376,-4.635958139658445,0.004763711245391695,0.008136401241425284,-0.9942494922697851
13278,13.0,300.04162,41438.76,0.0,-0.06638965355260196,-0.06638877414520783,0.0,0.0,0.0,-3.085207029961227,-4.8599263338123855,-4.6512150517141855,0.0001108218586822659,0.0024579260832284177,-0.992094410632095
13279,13.0,300.05345,41449.367999999995,0.0,-0.06639463505128285,-0.06639374344611737,0.0,0.0,0.0,-3.088796772415507,-4.857019015300454,-4.6537570935650665,-0.005424490645730545,-0.00029138485035244574,-0.9941848367809041
13280,13.0,300.08291,41377.1,0.0,-0.0663996495400212,-0.06639874565630455,0.0,0.0,0.0,-3.070823843466717,-4.857606295058416,-4.649174872637836,0.0008865568842688521,-0.0003127421055627427,-0.9960521553901941
13281,13.0,299.98962,41357.961,0.0,-0.06640463103870209,-0.0664037478664915,0.0,0.0,0.0,-3.0679467198077672,-4.855233972599286,-4.6486067433067655,-0.0005193126333796665,-0.006865718437543653,-1.001164508769744
13282,13.0,299.93922000000003,41413.854,0.0,-0.06640964552744055,-0.06640875007667868,0.0,0.0,0.0,-3.0838170534740468,-4.848644807198986,-4.656315550067566,-0.003456478179927837,-0.0033975038830325274,-0.9924264324248631
13283,13.0,300.03941000000003,41450.046,0.0,-0.06641462702612122,-0.06641375228686563,0.0,0.0,0.0,-3.0891782610781573,-4.8551649702674755,-4.655435745005736,-0.005535549442816194,0.003119572926977877,-0.99502194348352
13284,13.0,300.05601,41454.024,0.0,-0.0664196415148598,-0.06641875449705281,0.0,0.0,0.0,-3.087495657962097,-4.856498407399075,-4.656994123659536,-0.0041356737048092165,0.004388817523667566,-0.991158886947266
13285,13.0,300.09007,41433.045,0.0,-0.06642465600359826,-0.06642375670723988,0.0,0.0,0.0,-3.081371777007717,-4.853346996938055,-4.659892322920566,7.405706165636293e-05,0.0002297298280650688,-0.990491752948925
13286,13.0,300.07773,41428.422,0.0,-0.06642963750227893,-0.06642875891742683,0.0,0.0,0.0,-3.083832758850597,-4.856997534398336,-4.6523755270537155,0.0018331105766389282,-0.005888981007547175,-0.9847726147469901
13287,13.0,299.86522,41506.0,0.0,-0.06643465199101739,-0.06643376112761401,0.0,0.0,0.0,-3.091490193831327,-4.862955647636356,-4.662341855037316,0.0024491123272335678,0.0016251080629856782,-0.99529491306046
13288,13.0,299.74442,41537.504,0.0,-0.0664396334896985,-0.06643876333780097,0.0,0.0,0.0,-3.111396302645907,-4.861793449771655,-4.653174069457525,0.002889816338977667,0.004407919922502826,-0.99092506935419
13289,13.0,299.84385,41423.793,0.0,-0.06644464797843685,-0.06644376554798814,0.0,0.0,0.0,-3.086108113275157,-4.858605460982026,-4.647085246956605,0.003986467763983736,0.004677969920604685,-0.9992982034105541
13290,13.0,299.92107999999996,41386.857,0.0,-0.06644962947711774,-0.06644876775817532,0.0,0.0,0.0,-3.0806556118370367,-4.853125196491165,-4.646790188527486,0.0018998895337544982,0.004355109124640806,-0.998346599446638
13291,13.0,300.01523,41504.565,0.0,-0.06645464396585621,-0.06645376996836228,0.0,0.0,0.0,-3.089436943828687,-4.860145803784045,-4.666768744724215,0.0009725355628917871,0.003648111435565567,-0.9975417546272061
13292,13.0,299.99433999999997,41514.883,0.0,-0.06645965845459456,-0.06645877217854945,0.0,0.0,0.0,-3.088724831658407,-4.858247682371715,-4.672515392666366,-0.003295058319746937,8.702933183712632e-05,-0.998182098292903
13293,13.0,300.03041,41383.701,0.0,-0.06646463995327545,-0.066463741479459,0.0,0.0,0.0,-3.0667469303643573,-4.8535796391610155,-4.659285082135636,-0.006354988711388555,-0.003656176298411507,-0.9953482505457241
13294,13.0,300.09137000000004,41390.301,0.0,-0.06646965444201391,-0.06646874368964595,0.0,0.0,0.0,-3.0834945359672172,-4.854234198725616,-4.643889253491186,-0.0045544757076917556,-0.0015621848264756387,-0.9993811277987381
13295,13.0,300.05795,41541.482,0.0,-0.0664746359406948,-0.06647374589983313,0.0,0.0,0.0,-3.0971252829374674,-4.865133020776246,-4.665314832155725,-0.001939582187871858,0.0008296325341808563,-0.9889785247195809
13296,13.0,299.90457999999995,41575.143,0.0,-0.06647965042943305,-0.06647874811002019,0.0,0.0,0.0,-3.100165539862517,-4.873967649723156,-4.663672252418616,0.0016263869872618984,0.0026297211178082673,-1.003883788328116
13297,13.0,300.06366,41509.09,0.0,-0.06648463192811394,-0.06648375032020726,0.0,0.0,0.0,-3.087930240929987,-4.8660427167160245,-4.663754021701686,-0.0015683204611311784,-0.0014242384247363888,-0.9890816533147592
13298,13.0,300.00352000000004,41454.983,0.0,-0.06648964641685251,-0.06648875253039443,0.0,0.0,0.0,-3.0795505612779768,-4.862558757572186,-4.659170280899305,0.0025651102119316677,-0.001109187963193329,-0.998825056143858
13299,13.0,299.93107000000003,41484.503,0.0,-0.06649462791553318,-0.0664937547405815,0.0,0.0,0.0,-3.0882613710626674,-4.867901118724435,-4.654090452847965,0.003318264077512167,0.0030567068377734766,-0.9929904276955251
13300,13.0,299.78139,41512.248999999996,0.0,-0.06649964240427164,-0.06649875695076846,0.0,0.0,0.0,-3.1017642458702968,-4.8575134813492555,-4.659409509247916,0.00019301440671653882,0.0007795586058989443,-1.002412235075385
13301,13.0,299.83615,41516.787000000004,0.0,-0.06650465689301022,-0.06650375916095541,0.0,0.0,0.0,-3.097981175296937,-4.8634327871084455,-4.6586525100982055,-0.0010122123596450821,-0.004233016135291166,-0.9929774479617439
13302,13.0,299.80379,41427.745,0.0,-0.0665096383916911,-0.06650876137114259,0.0,0.0,0.0,-3.0801944817165268,-4.856208516545466,-4.6565970309453455,-0.002373911133961788,-0.0013585819460815987,-0.998454561244793
13303,13.0,299.9913,41483.902,0.0,-0.06651465288042935,-0.06651376358132977,0.0,0.0,0.0,-3.084720771238237,-4.8569026941889755,-4.668446889539836,0.002378621328376648,0.00036406112570003566,-0.9922502180999722
13304,13.0,299.99495,41621.329,0.0,-0.06651963437911046,-0.06651876579151672,0.0,0.0,0.0,-3.097890996038037,-4.873771991128845,-4.680181642922966,1.6244091230666985e-05,-0.0017092007285349786,-0.9981539400726241
13305,13.0,300.11249,41646.233,0.0,-0.0665246488678487,-0.0665237680017039,0.0,0.0,0.0,-3.109684416601957,-4.870356730341785,-4.679373677293225,-0.006235997179270004,-0.004909705183400176,-0.993277015353809
13306,13.0,300.08308999999997,41560.714,0.0,-0.0665296303665297,-0.06652877021189096,0.0,0.0,0.0,-3.095818088983457,-4.872381305366596,-4.665219890621356,-0.004724472223344106,-0.003998381457334527,-0.9954104235718602
13307,13.0,299.99886000000004,41535.424,0.0,-0.06653464485526817,-0.06653377242207814,0.0,0.0,0.0,-3.0931025787154574,-4.873745545301236,-4.658883632446016,0.00024045106790317276,0.004055501101246796,-1.001473165015206
13308,13.0,299.97052,41569.675,0.0,-0.06653962635394906,-0.06653874172298757,0.0,0.0,0.0,-3.096177691443947,-4.871545779334136,-4.668419633112145,0.0010531932295420791,-0.0011144288980105689,-0.9969517593589781
13309,13.0,300.09755,41537.754,0.0,-0.0665446408426873,-0.06654374393317464,0.0,0.0,0.0,-3.087349344647657,-4.871686722423045,-4.667404052536916,0.002334245330972078,-0.0030533026214125073,-1.0042485279666131
13310,13.0,299.76426000000004,41519.709,0.0,-0.06654965533142587,-0.06654874614336181,0.0,0.0,0.0,-3.084049493046987,-4.870400908046145,-4.666504387773125,0.0012959984523300888,0.0009639875013381592,-0.9947403612807301
13311,13.0,299.83262,41516.413,0.0,-0.06655463683010676,-0.06655374835354899,0.0,0.0,0.0,-3.095380162290237,-4.862632319529445,-4.661940405347695,0.004954355264956795,0.0029153244036201173,-1.0013331541163881
13312,13.0,299.98801000000003,41540.861000000004,0.0,-0.066559651318845,-0.06655875056373595,0.0,0.0,0.0,-3.0934385724486173,-4.871796153433846,-4.662149641493346,0.0019013976552033382,-0.002046190182568248,-0.998010909688508
13313,13.0,299.78226,41589.701,0.0,-0.06656463281752589,-0.06656375277392312,0.0,0.0,0.0,-3.097602321084547,-4.867676582502275,-4.676951806904205,-0.0008317512806699601,-0.00893800720691263,-0.995211046349683
13314,13.0,299.75347,41695.316,0.0,-0.06656964730626436,-0.06656875498411008,0.0,0.0,0.0,-3.107022507264247,-4.879831530701875,-4.687480792668336,-0.004568640944089756,-0.0012817761699514588,-0.991968666294685
13315,13.0,299.71287,41620.286,0.0,-0.06657462880494536,-0.06657375719429726,0.0,0.0,0.0,-3.0989977691222674,-4.874970564672136,-4.6775594529891755,-0.003839341012363456,0.005637408030318854,-0.9983736532243079
13316,13.0,299.85456,41551.693,0.0,-0.0665796432936836,-0.06657875940448421,0.0,0.0,0.0,-3.0904764371062767,-4.873085007561046,-4.667115478908436,-0.004579504099736866,0.0004455885561036666,-0.999420229120097
13317,13.0,299.89754,41614.268,0.0,-0.06658465778242206,-0.06658376161467117,0.0,0.0,0.0,-3.109870651970337,-4.873033230480936,-4.666794582601766,-0.0026478490740223576,-0.0025660041011698873,-0.996141351796497
13318,13.0,300.00782000000004,41666.312999999995,0.0,-0.06658963928110295,-0.06658876382485834,0.0,0.0,0.0,-3.113411961069837,-4.8757142902455355,-4.676392492849005,-0.0002788685265046807,0.005694037058532704,-0.9961000010599161
13319,13.0,299.88346,41594.935,0.0,-0.0665946537698413,-0.06659376603504541,0.0,0.0,0.0,-3.0978268573067074,-4.876469161570036,-4.669525696921305,0.0077763459594655925,0.006746262532904273,-0.9975724966352401
13320,13.0,300.17442,41546.239,0.0,-0.06659963526852242,-0.06659876824523259,0.0,0.0,0.0,-3.0864149254054367,-4.871456613325336,-4.671147809006396,0.0007834253506655623,0.0002073964786359388,-1.003317047149683
13321,13.0,299.98393,41614.631,0.0,-0.06660464975726066,-0.06660377045541976,0.0,0.0,0.0,-3.096149624416177,-4.8722958883831655,-4.6813633965145955,0.005612300503440934,-0.0011328066203743089,-0.9955482357179611
13322,13.0,299.98805,41663.539,0.0,-0.06660963125594155,-0.06660873975632908,0.0,0.0,0.0,-3.105071899496737,-4.885077633094625,-4.6745259848397955,0.007550649363291073,0.005615132942770475,-1.0045516822640321
13323,13.0,299.90086,41699.09,0.0,-0.06661464574468012,-0.06661374196651626,0.0,0.0,0.0,-3.1116899425248867,-4.884054554468655,-4.679737738054155,0.0009284216730230851,0.01157129992999839,-0.9957387672667651
13324,13.0,299.923,41648.436,0.0,-0.06661962724336101,-0.06661874417670344,0.0,0.0,0.0,-3.105312546395487,-4.883524725991365,-4.671247411491225,-0.0049171673650866355,-0.0034812544753480665,-1.0059003080146312
13325,13.0,299.89058,41584.229,0.0,-0.06662464173209925,-0.06662374638689039,0.0,0.0,0.0,-3.093164690946587,-4.876668062564666,-4.670734605615616,-0.007433946560498404,-0.0022389618246933278,-0.994085062043557
13326,13.0,299.98012,41634.617,0.0,-0.06662965622083772,-0.06662874859707757,0.0,0.0,0.0,-3.1004169272123265,-4.878003627521475,-4.677463498204705,0.0006947154462655764,0.004683941611394046,-1.003985853010689
13327,13.0,299.9128,41730.528,0.0,-0.06663463771951861,-0.06663375080726452,0.0,0.0,0.0,-3.105127729577247,-4.889956938951175,-4.689953933512415,0.0013250176312190587,0.001905672658700248,-0.99741220046942
13328,13.0,299.83881,41636.847,0.0,-0.06663965220825696,-0.0666387530174517,0.0,0.0,0.0,-3.101017480546597,-4.884203603558365,-4.671340833150445,-0.004603459358601065,-0.001055312442126229,-1.01035515327179
13329,13.0,299.72425,41552.86,0.0,-0.06664463370693785,-0.06664375522763888,0.0,0.0,0.0,-3.0919663200533174,-4.873944750270895,-4.665120693436566,-0.001131992068618919,0.0017534588849529185,-0.998113551923638
13330,13.0,299.77892,41656.948,0.0,-0.06664964819567631,-0.06664875743782583,0.0,0.0,0.0,-3.107406934352187,-4.880803440197795,-4.674461542133436,0.008701456574341902,0.0055948501075687145,-1.000428919594647
13331,13.0,300.11158,41738.866,0.0,-0.0666546296943572,-0.06665375964801279,0.0,0.0,0.0,-3.111902522395867,-4.886999059259256,-4.688671462860845,0.006787768702050613,0.0059867302579442744,-0.9943195889117031
13332,13.0,300.0886,41641.345,0.0,-0.06665964418309556,-0.06665876185819986,0.0,0.0,0.0,-3.094190606672837,-4.881562567172716,-4.682175820444775,0.0013339220730978587,-0.00966507109831825,-1.0072176749996449
13333,13.0,300.05616000000003,41622.334,0.0,-0.06666462568177667,-0.06666376406838703,0.0,0.0,0.0,-3.093005306705857,-4.882884149278145,-4.6762608716610155,0.002367116380116198,-0.0049304040590929955,-0.9992780498660649
13334,13.0,299.99831,41663.162000000004,0.0,-0.06666964017051491,-0.06666876627857421,0.0,0.0,0.0,-3.107615055922727,-4.8805108135689155,-4.676435150678215,0.0017837408774415181,0.008298729784295862,-1.003037248267069
13335,13.0,300.05029,41726.051,0.0,-0.06667465465925337,-0.06667376848876116,0.0,0.0,0.0,-3.1171193418607266,-4.887534764587125,-4.679023295408645,0.003208434960747877,0.001024879576697739,-1.0018518064450752
13336,13.0,300.09259,41779.105,0.0,-0.06667963615793426,-0.0666787377896707,0.0,0.0,0.0,-3.116275405852437,-4.886929955602436,-4.696599334293266,-0.002773262889249737,-0.0053874244371973955,-1.001186820536946
13337,13.0,300.01915,41727.1,0.0,-0.06668465064667262,-0.06668373999985788,0.0,0.0,0.0,-3.105726763036367,-4.883821405620646,-4.694448305655976,-0.002068783025347988,-0.001029513473380069,-0.995153270828981
13338,13.0,299.82931,41637.807,0.0,-0.0666896321453535,-0.06668874221004484,0.0,0.0,0.0,-3.088902150425907,-4.883851397823605,-4.684099982384676,0.0010436955297297291,0.005252360731992645,-1.00320940959156
13339,13.0,299.75697,41733.994,0.0,-0.06669464663409197,-0.06669374442023202,0.0,0.0,0.0,-3.104205064036187,-4.889808193836496,-4.692078820297125,0.003304846214387927,-0.0013001630115660988,-1.0017241065349722
13340,13.0,299.5853,41780.145,0.0,-0.06669962813277286,-0.06669874663041897,0.0,0.0,0.0,-3.113859817614037,-4.894616673511055,-4.691644136004225,-0.0020622406721023077,-0.006501969960294474,-1.0026154525154412
13341,13.0,299.63937999999996,41689.294,0.0,-0.06670464262151121,-0.06670374884060615,0.0,0.0,0.0,-3.1055621098951174,-4.888588848666155,-4.678353435767535,-0.0004629540821475105,-0.002281554299271878,-0.99673058712715
13342,13.0,299.94985,41646.29,0.0,-0.06670965711024968,-0.06670875105079332,0.0,0.0,0.0,-3.094350294888597,-4.887174655501586,-4.677907403073515,0.0018006730972125985,0.005794842068581385,-0.994373503949524
13343,13.0,300.00923,41698.388999999996,0.0,-0.06671463860893057,-0.06671375326098028,0.0,0.0,0.0,-3.101107558480487,-4.889057172862375,-4.6851043158837955,0.0017595819553072184,-0.005904051886884555,-1.000973440198387
13344,13.0,299.99122,41785.354,0.0,-0.06671965309766892,-0.06671875547116746,0.0,0.0,0.0,-3.102550021322847,-4.8977317082934855,-4.701422506094276,0.00021872557734153378,-0.010769209124338189,-0.9996739266801351
13345,13.0,300.14274,41789.965,0.0,-0.06672463459634981,-0.06672375768135441,0.0,0.0,0.0,-3.109597479743377,-4.897773352872596,-4.695734930632955,0.0026278668701252674,0.0003023540932850257,-1.0088331502965802
13346,13.0,300.00352999999996,41766.287000000004,0.0,-0.06672964908508827,-0.06672875989154159,0.0,0.0,0.0,-3.1122763103577573,-4.896402526812305,-4.687229405318525,0.0009603104369902608,0.01092574005278659,-1.003322559230227
13347,13.0,300.02591,41709.778,0.0,-0.06673463058376916,-0.06673376210172866,0.0,0.0,0.0,-3.113582896361707,-4.884265513139475,-4.680882811992166,-0.007779137970116144,0.00041475524410315565,-1.011238281793948
13348,13.0,300.01122000000004,41747.552,0.0,-0.06673964507250763,-0.06673876431191561,0.0,0.0,0.0,-3.115994735574737,-4.889887632644335,-4.684331003407475,-0.004353306046087856,0.0004353465329003576,-1.001177772213553
13349,13.0,300.06883,41821.242,0.0,-0.06674462657118851,-0.06674376652210279,0.0,0.0,0.0,-3.120138016558647,-4.893471903548075,-4.699003472805536,-0.00011899928348181489,0.00011225296299100487,-1.003465518686836
13350,13.0,299.79287999999997,41790.576,0.0,-0.06674964105992687,-0.06674876873228974,0.0,0.0,0.0,-3.109488454032617,-4.895722635995205,-4.698080503289446,0.0054075953082631046,0.008610369949977352,-0.994423669961975
13351,13.0,299.94682,41698.82,0.0,-0.06675465554866533,-0.06675373803319928,0.0,0.0,0.0,-3.1045041754657072,-4.892247998752286,-4.678647886246596,-0.005454063565799166,-0.004735903812297316,-1.009670560974226
13352,13.0,299.78052,41763.652,0.0,-0.06675963704734622,-0.06675874024338646,0.0,0.0,0.0,-3.116955499319557,-4.892719160048785,-4.685432608916196,0.003579562127875277,-0.006415161277852124,-0.9986002564766719
13353,13.0,299.7729,41860.531,0.0,-0.06676465153608457,-0.06676374245357342,0.0,0.0,0.0,-3.129301343837997,-4.900838231775076,-4.694416489602836,0.0040649693154812365,0.0024706891841380376,-0.9986691980134761
13354,13.0,299.74852000000004,41849.512,0.0,-0.06676963303476546,-0.06676874466376059,0.0,0.0,0.0,-3.1134427638728766,-4.905408597676136,-4.702355101486316,0.0077114336116842425,0.007657815050842503,-1.000885996714757
13355,13.0,299.99771,41777.585,0.0,-0.06677464752350393,-0.06677374687394777,0.0,0.0,0.0,-3.102456498338617,-4.902090608898675,-4.6947955464652456,-0.003778909763149356,-0.01090020817676679,-1.0063489244964061
13356,13.0,300.08247,41747.638,0.0,-0.06677962902218482,-0.06677874908413473,0.0,0.0,0.0,-3.100593232729727,-4.8986295492070955,-4.6910166302172955,-0.0035116879487266167,-0.005259261370473685,-1.012194688563338
13357,13.0,300.01776,41769.661,0.0,-0.06678464351092317,-0.0667837512943219,0.0,0.0,0.0,-3.1088257884672172,-4.897170266413075,-4.690937799359516,0.003421885720188827,0.006633160820967004,-1.005163735986937
13358,13.0,299.96525,41815.269,0.0,-0.06678962500960406,-0.06678875350450897,0.0,0.0,0.0,-3.116494875824097,-4.9026511388539955,-4.691651634054966,0.001908802588259148,0.00970205847599362,-1.014655275238679
13359,13.0,299.86249,41827.567,0.0,-0.06679463949834252,-0.06679375571469615,0.0,0.0,0.0,-3.117734587321447,-4.9038328924456245,-4.692968453884925,-0.005605070153377354,-0.0013183203520330887,-1.003157541318941
13360,13.0,300.11525,41772.98,0.0,-0.06679965398708088,-0.06679875792488321,0.0,0.0,0.0,-3.109206770504817,-4.894557601030225,-4.694178477154345,-0.007761139912564872,-0.0016771851664502883,-1.008637157329737
13361,13.0,299.98942,41799.282999999996,0.0,-0.06680463548576188,-0.06680376013507028,0.0,0.0,0.0,-3.104052772546157,-4.900613594227905,-4.701271835804405,0.0044805281074436955,0.0061400186847476645,-0.997554035218418
13362,13.0,299.90948,41871.186,0.0,-0.06680964997450023,-0.06680876234525723,0.0,0.0,0.0,-3.115019583678497,-4.903205082683665,-4.709570455448416,0.0025194138483217877,0.00025883902409292277,-1.006360708595069
13363,13.0,299.8237,41900.109,0.0,-0.06681463147318112,-0.06681376455544419,0.0,0.0,0.0,-3.1207358341176468,-4.908378940344286,-4.707472014491316,-0.0025437870728522377,-0.005717543548927615,-1.000404115232199
13364,13.0,299.93439,41801.955,0.0,-0.06681964596191958,-0.06681876676563137,0.0,0.0,0.0,-3.1171085000846572,-4.900335051775415,-4.689306973323566,-0.0037749246505060564,0.0017910060833085384,-1.008612545484808
13365,13.0,299.84103,41832.459,0.0,-0.06682462746060047,-0.06682373606654113,0.0,0.0,0.0,-3.120828343851777,-4.899378543681015,-4.695816193290975,-0.00046752059769819055,0.005145568427103065,-0.998227268982361
13366,13.0,299.90301,41878.655,0.0,-0.06682964194933882,-0.06682873827672808,0.0,0.0,0.0,-3.1200135894463674,-4.907174692600435,-4.702877229262846,0.004389893189973726,0.004271233091962886,-1.007530992195567
13367,13.0,299.95779,41893.212999999996,0.0,-0.06683465643807729,-0.06683374048691504,0.0,0.0,0.0,-3.1138607295391267,-4.911161426443895,-4.709468421163345,0.0020230446118589583,-0.01006196622873875,-1.002305874212388
13368,13.0,300.13596,41883.187000000005,0.0,-0.06683963793675818,-0.06683874269710222,0.0,0.0,0.0,-3.119915202861657,-4.906710826704654,-4.704816893929276,0.0019084595017752884,-0.0038012357158527564,-1.007895569714048
13369,13.0,300.10615,41824.755,0.0,-0.06684465242549653,-0.06684374490728917,0.0,0.0,0.0,-3.119771118697437,-4.899323220225555,-4.694586715619637,0.001925251791707558,0.0054859522689713345,-1.004820548178067
13370,13.0,299.93568,41817.437000000005,0.0,-0.06684963392417742,-0.06684874711747635,0.0,0.0,0.0,-3.1229328643094765,-4.898890258457825,-4.6896337464808155,0.0012856132467551488,0.008579631690968722,-1.007923738066828
13371,13.0,300.10735,41922.793,0.0,-0.06685464841291588,-0.06685374932766341,0.0,0.0,0.0,-3.124257283515187,-4.909543873984255,-4.709681203684346,-0.0029336400137527268,-0.0013213508817571788,-1.007823922799477
13372,13.0,299.88875,41956.84,0.0,-0.06685962991159677,-0.06685875153785059,0.0,0.0,0.0,-3.122413978933267,-4.917765891920705,-4.713651725526206,-0.0005028974143396105,0.007566624973642744,-1.004044712708998
13373,13.0,299.77968,41833.27,0.0,-0.06686464440033502,-0.06686375374803777,0.0,0.0,0.0,-3.105993045162647,-4.904352183121874,-4.705924274963566,-0.0014543101678292387,0.002951999497614667,-1.010889247532001
13374,13.0,299.79607000000004,41809.84,0.0,-0.06686962589901602,-0.06686875595822472,0.0,0.0,0.0,-3.106296817542627,-4.905380125348326,-4.697470324079225,-0.0020955523837149184,0.0017890043064109783,-1.008112891595496
13375,13.0,300.05023,41915.573,0.0,-0.06687464038775448,-0.0668737581684119,0.0,0.0,0.0,-3.1190227321735766,-4.918122555955905,-4.704142170687685,-0.001989667241639868,-0.003322090211214777,-1.009971141616391
13376,13.0,299.77347000000003,41954.33,0.0,-0.06687965487649272,-0.06687876037859886,0.0,0.0,0.0,-3.128659855199687,-4.915459025418036,-4.708949738437155,0.003923907676309536,0.002996982431829137,-0.9998785322728281
13377,13.0,299.89038,41922.286,0.0,-0.06688463637517383,-0.06688376258878581,0.0,0.0,0.0,-3.120958647814637,-4.9163098515270045,-4.706059442526906,0.0014552358731205989,0.0038854898934679964,-1.012593564597704
13378,13.0,299.7926,41878.611000000004,0.0,-0.0668896508639123,-0.06688876479897299,0.0,0.0,0.0,-3.1165613450306573,-4.906838394892246,-4.706652295160415,0.0010038176534940889,-0.0012584719242765088,-1.0036913822666271
13379,13.0,299.86659,41902.179,0.0,-0.06689463236259308,-0.06689373409988253,0.0,0.0,0.0,-3.120691352438257,-4.910050195059225,-4.706474672417886,0.0042160572670424555,-0.008162877770513312,-1.0094156880440721
13380,13.0,299.81896,41957.257000000005,0.0,-0.06689964685133154,-0.0668987363100697,0.0,0.0,0.0,-3.127144641000147,-4.915210373843495,-4.711603541774066,0.007835405166719283,0.004194607573025536,-1.0065048231567921
13381,13.0,299.74847,41953.755999999994,0.0,-0.06690462835001243,-0.06690373852025666,0.0,0.0,0.0,-3.1351394882641768,-4.909707311225386,-4.708047540548116,0.003975433774369767,0.0002585355759529747,-1.008956017003706
13382,13.0,299.87108,41899.259,0.0,-0.06690964283875078,-0.06690874073044362,0.0,0.0,0.0,-3.125078522721237,-4.908913733747066,-4.702336356359465,-0.004568734568398996,-0.0006585282017966735,-1.006207150542414
13383,13.0,300.10713,41882.733,0.0,-0.06691462433743167,-0.0669137429406308,0.0,0.0,0.0,-3.117064221055287,-4.909196937150015,-4.705043861951675,-0.009775813052097631,-0.0017981575011893282,-1.011339160973904
13384,13.0,300.30875,41909.942,0.0,-0.06691963882617014,-0.06691874515081786,0.0,0.0,0.0,-3.109809451664297,-4.916347747080745,-4.713418576678196,0.002122427424067278,0.0027464564459291473,-1.0072214442900171
13385,13.0,299.97952999999995,41972.807,0.0,-0.06692465331490838,-0.06692374736100504,0.0,0.0,0.0,-3.1227541269918366,-4.920130918979115,-4.715800221038245,0.001237347787516719,-0.0003108235367633947,-1.014120583160909
13386,13.0,300.01107,42009.102,0.0,-0.06692963481358927,-0.06692874957119221,0.0,0.0,0.0,-3.122924960958697,-4.923337247595555,-4.723455730843786,-0.003375854781395927,-0.0028198093696935175,-1.010979072153366
13387,13.0,299.99837,41973.537000000004,0.0,-0.06693464930232784,-0.06693375178137917,0.0,0.0,0.0,-3.1326569241941673,-4.9189311295357045,-4.707319013726216,-0.002830299851953847,-0.006546061741045994,-1.009435010723479
13388,13.0,299.91804,41971.857,0.0,-0.06693963080100873,-0.06693875399156635,0.0,0.0,0.0,-3.118989396245287,-4.923436748755376,-4.715970345730035,0.0012310391910691088,0.0038753537447676362,-1.007129765420969
13389,13.0,299.85605,41980.91,0.0,-0.06694464528974697,-0.0669437562017533,0.0,0.0,0.0,-3.1230916406001468,-4.919282727320405,-4.718774110081746,0.004681309795584305,0.004026694502228806,-1.007120585375063
13390,13.0,300.05506,42000.060999999994,0.0,-0.06694962678842808,-0.06694875841194048,0.0,0.0,0.0,-3.126878358873867,-4.924348167220325,-4.715743276382625,-0.0004220127999319206,-0.003137569667304017,-1.0092768829128729
13391,13.0,299.90317000000005,41933.892,0.0,-0.06695464127716644,-0.06695376062212766,0.0,0.0,0.0,-3.1300844848402867,-4.907853671492446,-4.708918023709026,0.00047336292684728367,0.00016073185323049884,-1.009989805683233
13392,13.0,300.09344,41870.289,0.0,-0.0669596557659049,-0.06695876283231461,0.0,0.0,0.0,-3.119358523256717,-4.910516087455204,-4.697647744171737,0.002096093155293288,0.0026435727533003174,-1.014558712504149
13393,13.0,300.21445,41921.734,0.0,-0.06696463726458579,-0.06696373213322415,0.0,0.0,0.0,-3.123326613298337,-4.917324520177145,-4.702509318151535,0.0024274216823428675,-0.002320987561363638,-1.011945368243732
13394,13.0,300.1503,42040.727999999996,0.0,-0.06696965175332426,-0.06696873434341133,0.0,0.0,0.0,-3.136801218428177,-4.920202859736215,-4.722327476857436,-0.005983906532565594,-0.005852184627515655,-1.005144342380023
13395,13.0,300.05801,42065.901,0.0,-0.06697463325200492,-0.06697373655359828,0.0,0.0,0.0,-3.132797158008007,-4.931083949910096,-4.7231023092089055,-0.006970266596111754,-0.0019078684729919582,-1.0063565238721561
13396,13.0,300.05277,41997.223,0.0,-0.0669796477407435,-0.06697873876378546,0.0,0.0,0.0,-3.125851024597477,-4.919286780320805,-4.720969316423395,-0.005040608078394284,0.0003103678680609237,-1.0055892604989332
13397,13.0,300.07804,42061.53599999999,0.0,-0.06698462923942439,-0.06698374097397242,0.0,0.0,0.0,-3.127758062610687,-4.934367792159185,-4.723530711351186,-0.0007555821397101513,-0.0004819667576864155,-1.009022678727785
13398,13.0,299.89045,42142.948,0.0,-0.06698964372816263,-0.06698874318415948,0.0,0.0,0.0,-3.143098061174627,-4.936225991517576,-4.7310799312212355,0.002389575169907708,-0.0035935361639794065,-1.007082021076257
13399,13.0,299.93498,42098.029,0.0,-0.06699462522684352,-0.06699374539434666,0.0,0.0,0.0,-3.146586883918947,-4.925357668294955,-4.724805076001955,0.005641981841270255,0.0026095876356712474,-1.0072137739867602
13400,13.0,299.74755,41936.532,0.0,-0.0669996397155821,-0.06699874760453361,0.0,0.0,0.0,-3.122457548687567,-4.916818705727225,-4.708382217056145,0.0005309564273013195,0.006593193677397555,-1.008577314778831
13401,13.0,299.8385,41912.797999999995,0.0,-0.06700465420432034,-0.06700374981472079,0.0,0.0,0.0,-3.113304049934187,-4.917003725195486,-4.710136456954276,0.0016363737828975183,0.0014375263891978087,-1.009274947605182
13402,13.0,299.78115,42007.184,0.0,-0.06700963570300122,-0.06700875202490775,0.0,0.0,0.0,-3.124245124513987,-4.921807645244595,-4.7230823481819355,0.001181295906559829,-0.0001110395554662509,-1.014341876982749
13403,13.0,299.68397000000004,42074.755,0.0,-0.06701465019173969,-0.06701375423509492,0.0,0.0,0.0,-3.136710735194247,-4.9311261011142555,-4.721838077059136,0.004045755256484956,0.003647684553298437,-1.013182060255784
13404,13.0,299.69747,42021.682,0.0,-0.06701963169042069,-0.0670187564452821,0.0,0.0,0.0,-3.1295437132619175,-4.920452727210875,-4.723545707452666,0.0031618687219271474,0.003848962024712976,-1.015038283776479
13405,13.0,300.01333999999997,41987.407999999996,0.0,-0.06702464617915915,-0.06702375865546906,0.0,0.0,0.0,-3.1267642669126072,-4.9243789700233656,-4.711980268161246,-0.005137430204949885,-0.0003876420291822896,-1.01209895669389
13406,13.0,300.03006,42084.474,0.0,-0.06702962767784004,-0.06702876086565623,0.0,0.0,0.0,-3.126746433710847,-4.931621985713195,-4.734260827260165,-0.0025655168291967975,-0.0034172322677795664,-1.0042247672517681
13407,13.0,300.06351,42161.238,0.0,-0.0670346421665785,-0.06703376307584319,0.0,0.0,0.0,-3.142734507038747,-4.935514487297355,-4.737714591551025,-3.5975178315723664e-05,0.0012582411059037287,-1.006783051501751
13408,13.0,299.83956,42125.47900000001,0.0,-0.06703962366525917,-0.06703873237675273,0.0,0.0,0.0,-3.137436728890897,-4.933493154672866,-4.734163960550605,0.002147374654779378,0.0021442898148499277,-1.0045101592749341
13409,13.0,299.98859,42002.420999999995,0.0,-0.06704463815399775,-0.06704373458693991,0.0,0.0,0.0,-3.1308600264668267,-4.921406499530005,-4.715420657550786,-0.0014230800772220688,-0.003946195024184126,-1.013979538746989
13410,13.0,300.04449,42036.568,0.0,-0.06704965264273621,-0.06704873679712697,0.0,0.0,0.0,-3.134919714317487,-4.9282076368512255,-4.714939566403305,0.0066137387417251935,-0.0015453394422381285,-1.0081173802934391
13411,13.0,300.06532999999996,42138.677,0.0,-0.06705463414141688,-0.06705373900731404,0.0,0.0,0.0,-3.149946314625497,-4.933939288691896,-4.725220103242916,0.003953471071827216,0.002967189028538757,-1.019509756467779
13412,13.0,300.12653,42122.162000000004,0.0,-0.06705964863015534,-0.0670587412175011,0.0,0.0,0.0,-3.141177141635047,-4.927850364865965,-4.735057849788825,0.006778072810518703,0.0026383641411612674,-1.0042228522090793
13413,13.0,300.08922,42028.119000000006,0.0,-0.06706463012883634,-0.06706374342768806,0.0,0.0,0.0,-3.127340806219507,-4.928902321119786,-4.7192556065292655,-0.0015332562321456083,-0.0024820709211863276,-1.0181290005565091
13414,13.0,300.03824,42020.193,0.0,-0.06706964461757459,-0.06706874563787524,0.0,0.0,0.0,-3.121956395188107,-4.925869359595454,-4.725263571672206,-0.00023847103535275875,-0.0031431470011544574,-1.009236200921358
13415,13.0,299.88345,42127.274000000005,0.0,-0.06707462611625548,-0.06707374784806219,0.0,0.0,0.0,-3.137959971242537,-4.940672436931405,-4.727006868469256,-0.0014378782909575387,0.0034962325409762865,-1.020896794529669
13416,13.0,300.00146,42215.418,0.0,-0.06707964060499394,-0.06707875005824937,0.0,0.0,0.0,-3.150980640327577,-4.940068641196816,-4.741383671488136,-0.0028483880887640173,-0.0014680151860318187,-1.005286450706548
13417,13.0,299.91652999999997,42137.683,0.0,-0.06708465509373229,-0.06708375226843655,0.0,0.0,0.0,-3.142005878891837,-4.936764635270736,-4.730032939892905,-0.007533556442054133,-0.004252447333783876,-1.0109736208678282
13418,13.0,299.945,42022.878,0.0,-0.0670896365924134,-0.0670887544786235,0.0,0.0,0.0,-3.117805210853417,-4.934155516263235,-4.721944772294666,-0.009688430566123651,-0.0049905564618795755,-1.0094994534298392
13419,13.0,299.90809,42082.812999999995,0.0,-0.06709465108115165,-0.06709375668881068,0.0,0.0,0.0,-3.126563339417777,-4.934703177942286,-4.730857725474305,0.00034213235690333467,5.781950994184135e-05,-1.010545259255552
13420,13.0,300.04934,42189.943,0.0,-0.06709963257983276,-0.06709875889899775,0.0,0.0,0.0,-3.134601959086127,-4.947748671654775,-4.742338659707386,-0.003408265004394567,0.0031293460281674066,-1.014094036008289
13421,13.0,299.93187,42171.477999999996,0.0,-0.06710464706857111,-0.06710376110918492,0.0,0.0,0.0,-3.150934537448027,-4.9428440345457245,-4.725297718200575,0.002093155135303328,0.003709168873341466,-1.010698219490648
13422,13.0,300.14101,42090.139,0.0,-0.067109628567252,-0.06710873041009435,0.0,0.0,0.0,-3.137895427211167,-4.932459740895875,-4.723996097122115,0.005726880547274105,0.003322736766103587,-1.0213812294024789
13423,13.0,300.00664,42088.383,0.0,-0.06711464305599046,-0.06711373262028142,0.0,0.0,0.0,-3.142318162572657,-4.937733910316395,-4.713765412187425,0.0024590127939606676,0.006430026568744213,-1.00985987662291
13424,13.0,300.11992999999995,42162.757000000005,0.0,-0.06711962455467113,-0.0671187348304686,0.0,0.0,0.0,-3.141014818969027,-4.937086240852476,-4.738324061486175,0.0042425737181844255,-0.0030113939893264474,-1.018639577281899
13425,13.0,300.22123,42231.007000000005,0.0,-0.0671246390434096,-0.06712373704065566,0.0,0.0,0.0,-3.1503736021926674,-4.942061298843475,-4.7447367187190554,-0.0006256197535913624,-0.009175551939156472,-1.00663125650427
13426,13.0,300.08799,42164.985,0.0,-0.06712965353214817,-0.06712873925084273,0.0,0.0,0.0,-3.137417983764047,-4.942302047067235,-4.737382448168245,-0.00029381614396739575,0.0001177560053441129,-1.0161395853101691
13427,13.0,300.04900000000004,42066.809,0.0,-0.06713463503082884,-0.0671337414610299,0.0,0.0,0.0,-3.128060821740567,-4.931265929628055,-4.727932776410636,-0.000947844421009961,0.001102963365179009,-1.009798666184369
13428,13.0,300.02169,42112.820999999996,0.0,-0.0671396495195673,-0.06713874367121686,0.0,0.0,0.0,-3.138479059268767,-4.938683224335086,-4.724083844580775,-3.440133645214757e-05,0.002025717160322718,-1.016051128576439
13429,13.0,299.84319,42253.450999999994,0.0,-0.06714463101824819,-0.06714374588140404,0.0,0.0,0.0,-3.154959369495247,-4.947153995171086,-4.741880771987196,-0.007068538683560452,0.002264836077921918,-1.009920013016345
13430,13.0,299.74307000000005,42211.725,0.0,-0.06714964550698654,-0.06714874809159099,0.0,0.0,0.0,-3.149968707452707,-4.9443323976176154,-4.737009268156416,-0.0019285157742546884,-0.0014752690434977186,-1.01291928397485
13431,13.0,299.88685,42118.88,0.0,-0.06715462700566766,-0.06715375030177795,0.0,0.0,0.0,-3.127059933291787,-4.944518531660986,-4.731509447938625,-0.004865113870349355,0.003174839539107267,-1.015556865177659
13432,13.0,299.98107000000005,42163.48,0.0,-0.0671596414944059,-0.06715875251196513,0.0,0.0,0.0,-3.1356991062944073,-4.945280495736186,-4.735665597198805,-0.000876952783063501,-0.0027548576064832775,-1.014905851988409
13433,13.0,300.20329,42273.820999999996,0.0,-0.06716462299308701,-0.06716375472215219,0.0,0.0,0.0,-3.1538749892382265,-4.950451516296525,-4.745859399829855,0.004303569449029236,-0.0008800706954762151,-1.014521222250449
13434,13.0,300.11667,42263.496,0.0,-0.06716963748182525,-0.06716875693233937,0.0,0.0,0.0,-3.159558511699147,-4.944613675845376,-4.742875175635336,0.003432638127600007,0.0014240497575677686,-1.015253903397759
13435,13.0,300.01974,42172.056,0.0,-0.0671746519705636,-0.06717375914252655,0.0,0.0,0.0,-3.1384927381451173,-4.938252694367596,-4.7425066565739655,0.005225287499920725,0.0014199640291895387,-1.015131502785679
13436,13.0,300.00027,42132.965,0.0,-0.06717963346924472,-0.06717872844343586,0.0,0.0,0.0,-3.128224056331677,-4.943843605769374,-4.735301637762886,-0.0008130880548255433,-0.0050782866952878754,-1.020002601316419
13437,13.0,300.15319,42218.640999999996,0.0,-0.06718464795798296,-0.06718373065362304,0.0,0.0,0.0,-3.1368636346343366,-4.943332623743945,-4.753216406155936,-0.006974367928541524,-0.0036227640723889764,-1.015356545632889
13438,13.0,299.96289,42299.709,0.0,-0.06718962945666385,-0.06718873286381022,0.0,0.0,0.0,-3.1454388715556467,-4.955562755100965,-4.757053786934655,0.0005326582213742735,-0.0013596760535395786,-1.020840863124149
13439,13.0,299.90781,42236.982,0.0,-0.06719464394540242,-0.06719373507399717,0.0,0.0,0.0,-3.154273500502557,-4.947496777679915,-4.737217693701986,-0.005561926065444364,0.0008784275483190493,-1.007514486351438
13440,13.0,299.97688999999997,42169.583,0.0,-0.06719962544408309,-0.06719873728418435,0.0,0.0,0.0,-3.139185193263457,-4.946049451237075,-4.733265815661966,0.002188116326725268,0.004382364843055736,-1.017363287455939
13441,13.0,299.90538,42218.64599999999,0.0,-0.06720463993282155,-0.0672037394943713,0.0,0.0,0.0,-3.152711676798417,-4.947132919569005,-4.733569588041945,-0.004764502999019836,-0.004254578705369225,-1.010744535152719
13442,13.0,299.85913999999997,42345.259000000005,0.0,-0.06720965442156002,-0.06720874170455848,0.0,0.0,0.0,-3.1585657292511673,-4.956066239075655,-4.757269507880945,0.004729112402177055,0.001962176753176768,-1.0196203020536891
13443,13.0,299.95282000000003,42337.954000000005,0.0,-0.0672146359202408,-0.06721374391474544,0.0,0.0,0.0,-3.160661434432997,-4.9566496684832355,-4.752369734372375,0.004280606567312975,0.0012576385260692588,-1.012403296493926
13444,13.0,299.92197999999996,42204.323,0.0,-0.06721965040897926,-0.0672187461249324,0.0,0.0,0.0,-3.135077173383027,-4.949170362870086,-4.744812813801565,0.00928862173371559,0.00037399666101309666,-1.020492305089749
13445,13.0,300.15873,42205.81,0.0,-0.06722463190766015,-0.06722374833511957,0.0,0.0,0.0,-3.1530995489366966,-4.942761252012555,-4.733651458650026,0.003740738200082116,-0.002251792408059608,-1.017148275784719
13446,13.0,300.25461,42284.085999999996,0.0,-0.0672296463963985,-0.06722875054530664,0.0,0.0,0.0,-3.152978161574717,-4.953979045194666,-4.746349103603186,0.001909850086212528,-0.002842619250644677,-1.0179881587926092
13447,13.0,300.16232,42300.253,0.0,-0.0672346278950795,-0.06723375275549381,0.0,0.0,0.0,-3.1543173742318866,-4.9521750547166254,-4.751728245734065,0.00011239878994539689,-0.00027326810068446176,-1.022408563678869
13448,13.0,300.06942999999995,42260.592000000004,0.0,-0.06723964238381785,-0.06723875496568099,0.0,0.0,0.0,-3.137895528536177,-4.956107579679736,-4.752161815451855,-0.009852346669250911,0.0004995468597039365,-1.018154433134019
13449,13.0,300.10947000000004,42211.983,0.0,-0.06724462388249897,-0.06724375717586795,0.0,0.0,0.0,-3.132363284315187,-4.954789949249696,-4.744235666544605,-0.005077360179396436,0.0025062668269492778,-1.023315625168389
13450,13.0,299.78571,42276.738,0.0,-0.06724963837123721,-0.06724875938605512,0.0,0.0,0.0,-3.1449012410525867,-4.958655194406165,-4.7475163677183865,-0.008907883585414661,-0.001138602816246349,-1.013893108513459
13451,13.0,300.26103,42399.612,0.0,-0.06725465285997567,-0.06725372868696466,0.0,0.0,0.0,-3.1711199993151764,-4.964596183717496,-4.7527070453306655,0.001966613674039658,0.004201693129649826,-1.015146397562149
13452,13.0,300.0799,42361.875,0.0,-0.06725963435865667,-0.06725873089715162,0.0,0.0,0.0,-3.1605683167488072,-4.963432567302655,-4.752951441254786,-0.0010069523554609601,0.004112196902642236,-1.0050032270385962
13453,13.0,299.81461,42269.774000000005,0.0,-0.06726464884739491,-0.0672637331073388,0.0,0.0,0.0,-3.147521100511147,-4.956836005176625,-4.744598714055436,0.0047442974748007054,0.004201669014297446,-1.0200316815942891
13454,13.0,299.75552999999996,42319.291,0.0,-0.0672696303460758,-0.06726873531752575,0.0,0.0,0.0,-3.1470876321183674,-4.961387625950835,-4.7555323919095045,0.00033616452659685566,0.001076662634983329,-1.016062173002529
13455,13.0,299.70286,42384.502,0.0,-0.06727464483481427,-0.06727373752771293,0.0,0.0,0.0,-3.163238129437297,-4.961638405350586,-4.758953833522176,0.0035670481851652466,0.001195313309768239,-1.0194781430646591
13456,13.0,299.67879,42378.932,0.0,-0.06727962633349505,-0.0672787397379001,0.0,0.0,0.0,-3.164698830781457,-4.960554937018655,-4.756883459592846,0.01034566450303759,0.0008493641511957153,-1.0193482444018391
13457,13.0,300.03826000000004,42284.030999999995,0.0,-0.06728464082223351,-0.06728374194808706,0.0,0.0,0.0,-3.159004365219457,-4.948442646648266,-4.745842579878196,0.006483469735993644,-0.0036757140908147364,-1.0156009415570089
13458,13.0,300.01291000000003,42224.629,0.0,-0.0672896223209144,-0.06728874415827424,0.0,0.0,0.0,-3.1408878587314972,-4.949766559228925,-4.744578550378446,0.002989133897879547,-0.0073698712586246625,-1.0193649630284891
13459,13.0,299.96857,42282.981,0.0,-0.06729463680965275,-0.0672937463684612,0.0,0.0,0.0,-3.1458363695698766,-4.952146987688855,-4.754987060705686,-0.0015435017105317585,-0.004612041890923095,-1.015836522205259
13460,13.0,300.16147,42410.939000000006,0.0,-0.06729965129839122,-0.06729874857864826,0.0,0.0,0.0,-3.1517978265332265,-4.9637544768594255,-4.776314151460506,-0.006511086678069223,0.008240411870815331,-1.0222242534856791
13461,13.0,299.88995,42392.392,0.0,-0.0673046327970721,-0.06730375078883544,0.0,0.0,0.0,-3.154005597176117,-4.968661849743746,-4.763561081726875,-0.0066362137435183035,0.005605656926510265,-1.014003755424379
13462,13.0,300.0926,42298.584,0.0,-0.06730964728581035,-0.06730875299902239,0.0,0.0,0.0,-3.148715621054037,-4.959927836531766,-4.749069984096716,-0.011321866126381188,0.0013341793372982488,-1.020779764143119
13463,13.0,300.09906,42332.708,0.0,-0.06731462878449146,-0.06731375520920957,0.0,0.0,0.0,-3.159297397148377,-4.963765014660465,-4.745023873797395,-0.004923648315376256,-0.002133584827543428,-1.014052188779159
13464,13.0,299.92241,42443.092000000004,0.0,-0.06731964327322992,-0.06731875741939652,0.0,0.0,0.0,-3.165433234453937,-4.971117562686105,-4.7650892655276955,0.0019882021833202783,-0.0011502289492187588,-1.018867355904379
13465,13.0,300.0834,42459.846,0.0,-0.06732462477191081,-0.06732372672030607,0.0,0.0,0.0,-3.164729532259487,-4.974902254459625,-4.767101073601245,0.006578954372417244,-0.0013524919076805587,-1.014725392145599
13466,13.0,300.27678,42332.352,0.0,-0.06732963926064917,-0.06732872893049324,0.0,0.0,0.0,-3.1422838133942674,-4.966495622354955,-4.759198432096316,0.0018924767986729183,-0.0010362226075922092,-1.0219481428334292
13467,13.0,300.06818,42295.280999999995,0.0,-0.06733465374938763,-0.0673337311406802,0.0,0.0,0.0,-3.146689830129107,-4.959401047804775,-4.750618534224546,0.0019061257841449684,0.0015400568628417784,-1.019261814168309
13468,13.0,300.04287,42348.98,0.0,-0.06733963524806852,-0.06733873335086737,0.0,0.0,0.0,-3.1618802729782867,-4.953771531574185,-4.757380762741925,0.004526243621480465,0.001992875394106488,-1.0195771375994291
13469,13.0,299.96127,42395.195999999996,0.0,-0.06734464973680687,-0.06734373556105455,0.0,0.0,0.0,-3.163611512099147,-4.965757672307125,-4.7577116902245855,0.0011744590015100788,-0.00023953516074027976,-1.018478571841009
13470,13.0,300.10837000000004,42384.630999999994,0.0,-0.06734963123548776,-0.06734873777124151,0.0,0.0,0.0,-3.1549824715975268,-4.963358296070325,-4.765528610771056,-0.007526264689034494,-0.009163702485862022,-1.018383832956659
13471,13.0,299.97116,42383.129,0.0,-0.06735464572422623,-0.06735373998142868,0.0,0.0,0.0,-3.1547615830757265,-4.9679931046777455,-4.760658424165405,-0.010661321293440489,-0.0037888081020512466,-1.0186974338626091
13472,13.0,299.82661,42408.892,0.0,-0.067359627222907,-0.06735874219161575,0.0,0.0,0.0,-3.155919727940027,-4.972805840002725,-4.762518751349005,-0.007874448124872523,0.00902806690230083,-1.022722671209869
13473,13.0,299.89342999999997,42489.117999999995,0.0,-0.06736464171164547,-0.06736374440180282,0.0,0.0,0.0,-3.174275665426617,-4.977096244901155,-4.764259109720766,-0.0003511000458533767,0.0018470416509388185,-1.0190325156706792
13474,13.0,299.97855,42473.445999999996,0.0,-0.06736962321032636,-0.06736874661198988,0.0,0.0,0.0,-3.173207902471237,-4.978298263494786,-4.759360856087346,-0.0007560541116067314,0.0003173608338910757,-1.016275158173549
13475,13.0,299.99119,42376.537000000004,0.0,-0.0673746376990646,-0.06737374882217684,0.0,0.0,0.0,-3.164143975026697,-4.969133720315315,-4.748131410529086,0.0024757303060355578,-0.005161164879267315,-1.0199688600880892
13476,13.0,300.08987,42344.886,0.0,-0.06737965218780317,-0.06737875103236401,0.0,0.0,0.0,-3.150478574903027,-4.966913993321246,-4.754395423972296,0.004343507512320816,0.0007577058713897472,-1.019908571707139
13477,13.0,299.9102,42390.56,0.0,-0.06738463368648417,-0.06738375324255097,0.0,0.0,0.0,-3.158590249903587,-4.965414281848235,-4.761667114639955,0.0031001029210063376,-0.0030292301295117368,-1.019923770458639
13478,13.0,300.20612,42447.962999999996,0.0,-0.06738964817522253,-0.06738875545273815,0.0,0.0,0.0,-3.153522074228397,-4.972423642065005,-4.777175211395486,-0.0027292232908783676,-0.003152098559162907,-1.0227150718341191
13479,13.0,300.1878,42403.785,0.0,-0.06739462967390342,-0.06739372475364769,0.0,0.0,0.0,-3.162868901100857,-4.967648498318735,-4.759174519393955,0.0013296511226013488,-0.002240669860386898,-1.025268056786079
13480,13.0,299.92302,42387.357,0.0,-0.06739964416264188,-0.06739872696383464,0.0,0.0,0.0,-3.1562442719470574,-4.967040649583745,-4.761413194164895,0.0008880257524088183,0.007565180788275212,-1.023553029666819
13481,13.0,300.20051,42453.803,0.0,-0.06740462566132277,-0.06740372917402182,0.0,0.0,0.0,-3.1658543411954967,-4.976107920753615,-4.762933879914976,0.004797384180664955,3.3492921260493967e-06,-1.022420013404999
13482,13.0,299.87971,42501.573,0.0,-0.06740964015006112,-0.067408731384209,0.0,0.0,0.0,-3.158148675510007,-4.986973812175995,-4.774294440036175,-0.0013111272895731888,-0.005727251295485694,-1.018347862578109
13483,13.0,299.77803,42510.68,0.0,-0.06741462164874201,-0.06741373359439595,0.0,0.0,0.0,-3.165582891493707,-4.9860564155354545,-4.770545819966216,-0.0046109968247699555,-0.00024163469600748774,-1.0203835833540191
13484,13.0,300.05605,42478.210999999996,0.0,-0.06741963613748048,-0.06741873580458313,0.0,0.0,0.0,-3.1680300931352265,-4.977178926109315,-4.767106342501766,-0.009121266153123883,0.006969471296108263,-1.015564059253369
13485,13.0,299.99778,42419.989,0.0,-0.06742465062621883,-0.0674237380147702,0.0,0.0,0.0,-3.170342228538417,-4.968446838072525,-4.755828463588726,-0.008903586290415553,0.004656569875842666,-1.0194911126659392
13486,13.0,299.85281000000003,42485.679000000004,0.0,-0.06742963212489972,-0.06742874022495737,0.0,0.0,0.0,-3.170406468594757,-4.975981973766186,-4.768197207559425,-0.008446034259983682,-0.0017693288133191582,-1.0188740433550392
13487,13.0,299.97491,42538.789000000004,0.0,-0.06743464661363818,-0.06743374243514444,0.0,0.0,0.0,-3.168308534262707,-4.978815223695805,-4.7836059044801456,0.00982531356188295,-0.0008382815154444443,-1.020221665988039
13488,13.0,300.02049,42470.948,0.0,-0.06743962811231885,-0.0674387446453315,0.0,0.0,0.0,-3.1537940305552365,-4.974758778245465,-4.781554782302716,0.005647820694971504,0.002371885545686878,-1.019402554607199
13489,13.0,300.01661,42418.375,0.0,-0.06744464260105743,-0.06744374685551868,0.0,0.0,0.0,-3.1515684267105866,-4.9731650371631755,-4.769393349302476,0.008779030799347881,-0.0038048384279083165,-1.025348508844019
13490,13.0,299.96265,42477.07,0.0,-0.06744962409973843,-0.06744874906570564,0.0,0.0,0.0,-3.166769002060767,-4.973325941279055,-4.771873582897255,-5.062458614150765e-05,-0.009446132069710652,-1.024952125404899
13491,13.0,299.81323,42524.195,0.0,-0.06745463858847678,-0.06745375127589259,0.0,0.0,0.0,-3.1750077386238673,-4.984529852934796,-4.766755757967166,0.0054738771648796146,0.0025034226339185777,-1.028323309812609
13492,13.0,300.08837,42552.458,0.0,-0.06745965307721502,-0.06745875348607977,0.0,0.0,0.0,-3.174068354456157,-4.988490343600666,-4.772326100391916,-0.002979832869911607,0.00942242809687125,-1.0242543000610291
13493,13.0,300.1205,42519.893,0.0,-0.06746463457589613,-0.06746372278698931,0.0,0.0,0.0,-3.170684504422197,-4.9810777098440955,-4.773223434680475,-0.004939729303738326,-0.0007917837216679692,-1.0215301771671792
13494,13.0,300.04477,42450.387,0.0,-0.06746964906463448,-0.06746872499717627,0.0,0.0,0.0,-3.153555815456727,-4.980786603090365,-4.769515344614516,-0.011559009206285388,0.0030071745119350174,-1.020744401714629
13495,13.0,299.76811000000004,42484.62,0.0,-0.06747463056331537,-0.06747372720736344,0.0,0.0,0.0,-3.1597842638214266,-4.980500663912145,-4.773978812630025,-0.003079700319642757,0.0034707314677595268,-1.017490045043449
13496,13.0,299.92214,42582.605,0.0,-0.06747964505205384,-0.0674787294175504,0.0,0.0,0.0,-3.173961659220627,-4.986731341427065,-4.783355530380436,0.005709074601941795,0.005598982141476514,-1.021937199732349
13497,13.0,299.72146000000004,42537.712999999996,0.0,-0.06748462655073473,-0.06748373162773758,0.0,0.0,0.0,-3.176225057294007,-4.985011957332375,-4.769165570679996,-0.0017480828838973483,-0.0029369981272341474,-1.022909311878289
13498,13.0,299.99746,42436.852,0.0,-0.06748964103947308,-0.06748873383792464,0.0,0.0,0.0,-3.152972082074117,-4.978832651597525,-4.767938727458915,0.005961424944646834,-0.002842707808703417,-1.034171080114739
13499,13.0,299.80191,42502.185999999994,0.0,-0.06749462253815397,-0.06749373604811182,0.0,0.0,0.0,-3.1562201565946766,-4.988212206448215,-4.775170901372675,0.0038927663464111265,0.0016915310653411184,-1.025043925863959
13500,13.0,299.98044,42628.287000000004,0.0,-0.06749963702689243,-0.067498738258299,0.0,0.0,0.0,-3.169802875510187,-4.992627342433955,-4.795504601729455,0.005377994017191684,0.004493179345542276,-1.0253796156220891
13501,13.0,300.11627999999996,42621.217000000004,0.0,-0.06750465151563068,-0.06750374046848595,0.0,0.0,0.0,-3.1786097414043573,-4.987041497282675,-4.790134376199455,-0.0008192002226087672,-0.005022769911708795,-1.0157159454433589
13502,13.0,300.13917000000004,42513.747,0.0,-0.06750963301431168,-0.06750874267867313,0.0,0.0,0.0,-3.175373116609927,-4.978108481751055,-4.769635921376415,-0.001073176041389229,-0.008155104926346192,-1.024362819146739
13503,13.0,300.0366,42528.075,0.0,-0.06751464750305014,-0.06751374488886008,0.0,0.0,0.0,-3.1787410586173173,-4.9754451538632045,-4.773286762811725,-0.002520324557511668,0.0009706615568318371,-1.018861884353839
13504,13.0,300.18512999999996,42622.17,0.0,-0.06751962900173103,-0.06751874709904726,0.0,0.0,0.0,-3.177907052460007,-4.990388566338005,-4.787779785617075,0.0036434848342839564,0.004735467000179206,-1.023891252550199
13505,13.0,299.9875,42644.099,0.0,-0.06752464349046927,-0.06752374930923422,0.0,0.0,0.0,-3.181456872860347,-4.995407903358375,-4.785876699279255,-0.00010457381406063191,0.0004230009518269436,-1.020992546664119
13506,13.0,299.89115,42583.494000000006,0.0,-0.06752962498915038,-0.06752875151942128,0.0,0.0,0.0,-3.1706601864197967,-4.989426586693066,-4.784231991716935,-0.006775357705550744,-0.0009164501230915852,-1.023135469300609
13507,13.0,300.17915,42489.834,0.0,-0.06753463947788874,-0.06753375372960835,0.0,0.0,0.0,-3.1636091816239174,-4.985900172370036,-4.766339210851055,-0.006876392723372123,0.0015077709656304086,-1.025483575082349
13508,13.0,300.02896,42527.884000000005,0.0,-0.06753962097656963,-0.06753872303051811,0.0,0.0,0.0,-3.1643195712690266,-4.9911684649399755,-4.7719266772024955,-0.008269702296756071,0.0024824179593455776,-1.0283930214194892
13509,13.0,299.74057,42686.37,0.0,-0.06754463546530809,-0.06754372524070507,0.0,0.0,0.0,-3.1816980263841472,-5.0021773259514655,-4.791715147680465,-0.0052559969826265155,-0.0005766117036196444,-1.025736380982299
13510,13.0,299.60523,42660.387,0.0,-0.06754964995404633,-0.06754872745089202,0.0,0.0,0.0,-3.176273895948827,-4.999369305949335,-4.792049114913426,5.955119995899584e-05,-0.004989420000567415,-1.028606918515599
13511,13.0,299.67246,42520.107,0.0,-0.06755463145272733,-0.06755372966107909,0.0,0.0,0.0,-3.163622759175257,-4.982089642718965,-4.779338399033976,0.002660797093075227,0.002177340209261748,-1.024595360044689
13512,13.0,299.85475,42560.113,0.0,-0.0675596459414658,-0.06755873187126626,0.0,0.0,0.0,-3.165049719291087,-4.986999751378555,-4.785162256633745,0.004920627310203105,0.0006051494265910984,-1.021169966756629
13513,13.0,299.86617,42653.587999999996,0.0,-0.06756462744014669,-0.06756373408145344,0.0,0.0,0.0,-3.1817661167908673,-4.995057825448826,-4.788801850992945,0.004770189865206086,-0.002084635323162488,-1.0258646584449589
13514,13.0,299.89569,42673.867999999995,0.0,-0.06756964192888493,-0.0675687362916404,0.0,0.0,0.0,-3.1838558437971067,-4.997448690384786,-4.790485771334136,-0.005361302545644365,-0.003831330662372897,-1.024407807451179
13515,13.0,299.86724,42605.037000000004,0.0,-0.06757462342756582,-0.06757373850182757,0.0,0.0,0.0,-3.1770889543292675,-4.998702384733515,-4.775076061163316,-0.002012094215378238,0.0006155268098752664,-1.0321629197415492
13516,13.0,300.001,42569.389,0.0,-0.06757963791630439,-0.06757874071201453,0.0,0.0,0.0,-3.1673399684921173,-4.993263258196715,-4.779428071667825,-0.008058568941618832,-0.0005613850978743954,-1.027168508673639
13517,13.0,300.18977,42632.670999999995,0.0,-0.06758465240504263,-0.0675837429222017,0.0,0.0,0.0,-3.1755489155022767,-4.998105073799565,-4.785613355578266,-0.005650362635497375,0.0008870013869552211,-1.031420308743259
13518,13.0,300.23498,42734.052,0.0,-0.06758963390372352,-0.06758874513238888,0.0,0.0,0.0,-3.186279436711297,-5.004336764564585,-4.799468436120655,-0.007679181455701203,-0.003269403941790047,-1.0240065604115791
13519,13.0,300.00985,42705.577000000005,0.0,-0.0675946483924621,-0.06759374734257584,0.0,0.0,0.0,-3.192476980947947,-4.992796757850675,-4.7961554122686865,-0.0006008864807703784,0.0009179866358082272,-1.021436046232889
13520,13.0,299.97709,42584.337,0.0,-0.06759962989114299,-0.06759874955276302,0.0,0.0,0.0,-3.171383748316207,-4.989819423756836,-4.783372046357066,0.002025175375494248,0.0025482177115645076,-1.022711120158729
13521,13.0,299.9242,42622.254,0.0,-0.06760464437988123,-0.06760375176294997,0.0,0.0,0.0,-3.173121573562717,-4.991879766510175,-4.791099496919705,0.0006360468570579373,0.001920605432048998,-1.026317581239659
13522,13.0,299.74815,42749.096,0.0,-0.06760962587856234,-0.06760872106385951,0.0,0.0,0.0,-3.1827248540354867,-5.004818362337115,-4.807114320050245,0.007012841034838523,-0.003712769862871856,-1.026524689560099
13523,13.0,299.85668,42729.551,0.0,-0.06761464036730058,-0.06761372327404669,0.0,0.0,0.0,-3.190097768388137,-5.000287209214925,-4.798331569508456,-0.0006799482379831664,0.005917373795224324,-1.023526178539169
13524,13.0,299.76863,42582.454000000005,0.0,-0.06761962186598147,-0.06761872548423364,0.0,0.0,0.0,-3.1669886746824467,-4.993334793653775,-4.783679263787386,0.007866909037503473,0.003134845544410167,-1.027631969269379
13525,13.0,299.88599999999997,42525.912000000004,0.0,-0.06762463635472005,-0.06762372769442071,0.0,0.0,0.0,-3.164708963282457,-4.993332057878504,-4.768774253491375,-0.002298662520585328,-0.0027849612669542776,-1.0306901607211991
13526,13.0,300.07957999999996,42667.736,0.0,-0.06762965084345829,-0.06762872990460789,0.0,0.0,0.0,-3.1730649328821268,-5.007855376861845,-4.789006223538116,0.002286510308160998,0.001156600468497579,-1.033923036490259
13527,13.0,300.13478,42760.988,0.0,-0.06763463234213918,-0.06763373211479484,0.0,0.0,0.0,-3.189334385762797,-5.013163794135745,-4.7957743289060755,-0.0018343244502587283,0.006403501504976394,-1.032316933756749
13528,13.0,299.83527999999995,42731.818,0.0,-0.06763964683087775,-0.06763873432498202,0.0,0.0,0.0,-3.181416849481397,-5.009945306518104,-4.798043603830036,0.0008704835054150332,-0.002298399987484418,-1.031904034340999
13529,13.0,300.04575,42647.022000000004,0.0,-0.06764462832955864,-0.06764373653516897,0.0,0.0,0.0,-3.1724170607681867,-4.999922945803975,-4.791289987938505,-0.011438589498150888,0.00010786597509304289,-1.024836412243479
13530,13.0,300.00507999999996,42667.332,0.0,-0.06764964281829688,-0.06764873874535615,0.0,0.0,0.0,-3.1742551977745967,-5.000754317511025,-4.7947941107593355,-0.003895993851954656,-0.002682185080161057,-1.027237004380399
13531,13.0,299.92058,42784.77,0.0,-0.06765462431697777,-0.06765374095554333,0.0,0.0,0.0,-3.193620231035777,-5.005183335023136,-4.8066979755841555,-0.006509196358682664,0.0038125633453457066,-1.019343583451379
13532,13.0,299.77033,42779.067,0.0,-0.06765963880571624,-0.06765874316573028,0.0,0.0,0.0,-3.194340550531867,-5.004086795764915,-4.805340727075205,-0.001028141228769639,0.001885787929462778,-1.025274440261709
13533,13.0,299.80706000000004,42629.865,0.0,-0.06766462030439724,-0.06766374537591746,0.0,0.0,0.0,-3.169631332268257,-4.997632189977895,-4.791150970024786,0.002082175151919688,-0.0013851086310495786,-1.031291524655549
13534,13.0,299.92909,42603.985,0.0,-0.06766963479313548,-0.06766874758610453,0.0,0.0,0.0,-3.1713761489404573,-4.997064972571915,-4.782106598307175,0.004491793016755456,0.0012904461457571186,-1.0369957174185092
13535,13.0,299.92987999999997,42752.832,0.0,-0.06767464928187394,-0.0676737497962916,0.0,0.0,0.0,-3.186807542663417,-5.008391284839735,-4.800594460956786,0.001130756714096999,0.0031834422351062867,-1.0308439720863791
13536,13.0,299.87684,42807.025,0.0,-0.06767963078055483,-0.06767871909720113,0.0,0.0,0.0,-3.200424104132267,-5.010973451394575,-4.800869153058895,0.003170350638514247,-0.002104060847454638,-1.028032811008939
13537,13.0,299.98828,42740.593,0.0,-0.06768464526929341,-0.0676837213073882,0.0,0.0,0.0,-3.186930652550567,-5.008902672165204,-4.796239613351995,-0.005471491467519165,-0.0034762411165032863,-1.022301361818289
13538,13.0,300.0797,42650.654,0.0,-0.0676896267679743,-0.06768872351757538,0.0,0.0,0.0,-3.172595595435807,-5.0034746913795045,-4.788663542354295,-7.372795903713303e-05,-0.0031521053479385774,-1.0288302388376391
13539,13.0,300.12198,42739.007000000005,0.0,-0.06769464125671254,-0.06769372572776244,0.0,0.0,0.0,-3.177666405561257,-5.009923015015905,-4.804001311768015,-0.00032248145539144174,-0.001970832948781068,-1.020740754014269
13540,13.0,300.17216,42867.191,0.0,-0.06769962275539343,-0.06769872793794951,0.0,0.0,0.0,-3.1950316884250767,-5.019456381231775,-4.816067499258855,-0.003031968539231997,-0.0038006853183984363,-1.029760605079459
13541,13.0,300.05194,42819.565,0.0,-0.067704637244132,-0.06770373014813647,0.0,0.0,0.0,-3.1954333407647173,-5.0144442382871155,-4.806201077735116,0.0006164124411251714,-0.0017690851266701083,-1.024169693677679
13542,13.0,300.00003,42665.219000000005,0.0,-0.06770965173287025,-0.06770873235832342,0.0,0.0,0.0,-3.170928089746237,-5.007032820430665,-4.791200315304655,0.0002933491775263097,0.00046370099945872547,-1.039211999362239
13543,13.0,299.94195,42661.278,0.0,-0.06771463323155114,-0.0677137345685106,0.0,0.0,0.0,-3.1726923608203568,-5.007916779817905,-4.787354220575075,0.0012351371797735488,0.01054282878699619,-1.032733480872859
13544,13.0,299.75919,42803.775,0.0,-0.0677196477202896,-0.06771873677869777,0.0,0.0,0.0,-3.182492313137537,-5.017712172509636,-4.811074202766055,-0.0025098479567777074,-0.004367928562255986,-1.041335366271799
13545,13.0,299.88705,42832.77099999999,0.0,-0.06772462921897049,-0.06772373898888473,0.0,0.0,0.0,-3.1969085315853074,-5.0129590162905355,-4.810225200507265,0.00022963303228301575,0.00024601508764729874,-1.029418734495719
13546,13.0,299.82817,42701.37,0.0,-0.06772964370770884,-0.0677287411990719,0.0,0.0,0.0,-3.1765281203989173,-5.010584971306235,-4.793037135085936,-0.0017601215109854685,-0.0007020119716931873,-1.038459863813009
13547,13.0,299.98823,42679.418,0.0,-0.06773462520638973,-0.06773374340925897,0.0,0.0,0.0,-3.179716818463617,-5.0035807786649755,-4.790179668478925,0.006875683245652103,0.0001220893416492799,-1.026988555455879
13548,13.0,300.11785,42826.950999999994,0.0,-0.0677396396951282,-0.06773874561944615,0.0,0.0,0.0,-3.1977103163894367,-5.016348844500086,-4.804264452818986,0.001104299538085879,-0.0019394297950568182,-1.024745929009549
13549,13.0,300.06955,42939.292,0.0,-0.06774462119380908,-0.06774374782963322,0.0,0.0,0.0,-3.209464828149517,-5.025979584050566,-4.817028161678666,-0.0006534989045278203,0.0027318711160396877,-1.018971112714619
13550,13.0,300.07544,42888.76,0.0,-0.06774963568254766,-0.06774875003982028,0.0,0.0,0.0,-3.196093270554847,-5.021250137883805,-4.819768800549146,-0.0006966687087483483,-0.0010094440083843672,-1.0207822972683689
13551,13.0,300.12703,42749.651,0.0,-0.0677546501712859,-0.06775371934072982,0.0,0.0,0.0,-3.181815766045767,-5.014331362225975,-4.798679418267786,-0.0032202180461607774,-0.00047602796712780255,-1.028791127383779
13552,13.0,300.072,42763.042,0.0,-0.06775963166996679,-0.067758721550917,0.0,0.0,0.0,-3.1810294839681674,-5.012747550994666,-4.805119838553405,-0.005024095952114665,-0.0025286906596123375,-1.0264156638493391
13553,13.0,300.10307,42882.605,0.0,-0.06776464615870526,-0.06776372376110396,0.0,0.0,0.0,-3.204266247186457,-5.017351759449065,-4.8136231347176155,-0.000987430390024292,0.0005410406874640586,-1.038668390683589
13554,13.0,299.98404,42858.185,0.0,-0.06776962765738614,-0.06776872597129113,0.0,0.0,0.0,-3.200900027704237,-5.016833583347925,-4.810084460068375,-0.002110195671510098,0.0012153113203668888,-1.027360114267549
13555,13.0,299.80792,42685.112,0.0,-0.0677746421461245,-0.06777372818147809,0.0,0.0,0.0,-3.1762234360938466,-5.006792173531916,-4.792192692452596,-0.0020304518753899983,0.006410099789627594,-1.041221983585609
13556,13.0,299.91381,42718.111,0.0,-0.06777962364480539,-0.06777873039166504,0.0,0.0,0.0,-3.169452290975587,-5.014696030936965,-4.801090852180775,0.0019866089488630384,-0.001017850052803979,-1.032042241654639
13557,13.0,299.95246000000003,42904.384000000005,0.0,-0.06778463813354385,-0.06778373260185222,0.0,0.0,0.0,-3.2040167850118366,-5.022081306940835,-4.815763422903846,0.002196510597178718,-0.0006993265346881553,-1.0344191237392188
13558,13.0,300.00571,42960.657999999996,0.0,-0.06778961963222474,-0.06778873481203918,0.0,0.0,0.0,-3.2048534256194072,-5.029580776230975,-4.824533001194336,-0.0007439668789113143,-0.0017851697627325382,-1.029263504580399
13559,13.0,299.97873,42827.422999999995,0.0,-0.0677946341209631,-0.06779373702222635,0.0,0.0,0.0,-3.196573551102247,-5.0234787814787545,-4.798414858666675,0.0003150038520384597,-0.0018134891911024483,-1.030322756234939
13560,13.0,300.00105,42755.86,0.0,-0.06779964860970156,-0.06779873923241342,0.0,0.0,0.0,-3.1792257974651568,-5.016176794633105,-4.801311132752516,-0.0012425625804813787,-0.0010569747802402888,-1.031118765513499
13561,13.0,300.153,42877.045999999995,0.0,-0.06780463010838245,-0.0678037414426006,0.0,0.0,0.0,-3.197859061504117,-5.024667222521045,-4.811025161461216,-0.005126143510760975,0.0013204622614194786,-1.024802265715109
13562,13.0,300.17246,42981.015,0.0,-0.0678096445971208,-0.06780874365278777,0.0,0.0,0.0,-3.2005259357673173,-5.037341968021945,-4.827287420266175,0.0004292966090707766,0.0027922312350967676,-1.034865865708309
13563,13.0,300.02932999999996,42900.148,0.0,-0.0678146260958018,-0.06781374586297473,0.0,0.0,0.0,-3.1983272843753268,-5.024476528852225,-4.8177698607518655,-0.006813626945927623,0.0011627682231812888,-1.0248093584658091
13564,13.0,300.05956000000003,42769.045999999995,0.0,-0.06781964058454015,-0.0678187480731619,0.0,0.0,0.0,-3.177733077417837,-5.0202564435107355,-4.802732519992795,0.003909294178067296,0.0004996064084123136,-1.040465795035979
13565,13.0,300.01975,42807.426,0.0,-0.06782462208322104,-0.06782371737407145,0.0,0.0,0.0,-3.1940320158764175,-5.015605726876745,-4.802750859819605,0.0002077656360448718,-0.00029655680310287767,-1.025206653830019
13566,13.0,300.19638,42949.435999999994,0.0,-0.0678296365719595,-0.0678287195842584,0.0,0.0,0.0,-3.209030447831647,-5.022862421442925,-4.823663125983486,0.0018051243049018984,0.0007941275515342873,-1.033281547851949
13567,13.0,300.12561,42995.134000000005,0.0,-0.06783465106069786,-0.06783372179444558,0.0,0.0,0.0,-3.211677361067877,-5.032885288782105,-4.824884598979035,0.0004459196659713446,-0.0018215586135738383,-1.028464759526569
13568,13.0,299.84382,42842.193,0.0,-0.06783963255937875,-0.06783872400463253,0.0,0.0,0.0,-3.190846053586987,-5.020977472281896,-4.811133275246886,0.0009229424927098322,0.0006177993474645485,-1.034913589788019
13569,13.0,299.86503999999996,42818.755,0.0,-0.06784464704811721,-0.06784372621481971,0.0,0.0,0.0,-3.185423949651867,-5.024472982476874,-4.8059354035588955,0.002941977339550557,-0.002200393067586888,-1.031640589314999
13570,13.0,299.99404,42935.294,0.0,-0.0678496285467981,-0.06784872842500689,0.0,0.0,0.0,-3.202765218488317,-5.033098071303105,-4.815393991917386,0.001094516507045369,-0.0026106852895045776,-1.032905125439799
13571,13.0,299.87671,42967.335999999996,0.0,-0.06785464303553645,-0.06785373063519384,0.0,0.0,0.0,-3.2042758730624072,-5.035857961925486,-4.820863313307166,0.005775337916081475,-0.0011198153355421688,-1.0355999654057588
13572,13.0,299.92991,42887.558,0.0,-0.06785962453421734,-0.0678587328453808,0.0,0.0,0.0,-3.190180652246317,-5.037091087297186,-4.809475091458236,-0.002968699176487797,0.00015041293447710084,-1.038433012685359
13573,13.0,300.0507,42827.645,0.0,-0.06786463902295581,-0.06786373505556786,0.0,0.0,0.0,-3.1789360079365574,-5.026934470944806,-4.812664397472996,0.0015510524502769585,0.0024548341505482674,-1.040221196461839
13574,13.0,300.02477000000005,42881.65,0.0,-0.0678696205216367,-0.06786873726575504,0.0,0.0,0.0,-3.190543699757147,-5.030595140906086,-4.813812105861265,-0.0061637032031851445,0.003381369395065177,-1.035661368361819
13575,13.0,300.09779,42995.452000000005,0.0,-0.06787463501037505,-0.06787373947594222,0.0,0.0,0.0,-3.200919684756177,-5.039067938242286,-4.829556188565086,-0.0009443888936639274,0.002168187926408488,-1.035227798644029
13576,13.0,299.9401,43001.525,0.0,-0.06787964949911351,-0.06787874168612917,0.0,0.0,0.0,-3.2068025135117675,-5.0315276349731155,-4.833059703435855,-0.0012394273820219587,-0.004433670660544226,-1.029470815550859
13577,13.0,299.83836,42905.990999999995,0.0,-0.0678846309977944,-0.06788374389631635,0.0,0.0,0.0,-3.1949648139184768,-5.0297896070765855,-4.817595379084645,0.0043264473190621055,-0.001193491992713489,-1.033037050602819
13578,13.0,300.11352,42915.55,0.0,-0.06788964548653276,-0.0678887461065033,0.0,0.0,0.0,-3.197608890054427,-5.024498111079355,-4.823148597582705,-0.0027808707763005776,0.003253630373508317,-1.029845211462809
13579,13.0,300.12065,43034.282999999996,0.0,-0.06789462698521376,-0.06789371540741285,0.0,0.0,0.0,-3.215836752728377,-5.034484096114895,-4.831026617110204,0.005273832413536735,4.316453228025765e-05,-1.031209552722459
13580,13.0,299.84002000000004,43064.822,0.0,-0.06789964147395211,-0.06789871761760002,0.0,0.0,0.0,-3.212680985291927,-5.039868507146295,-4.838080864306405,-0.0013226880679141487,0.00024436348998429873,-1.032239014824059
13581,13.0,299.87981,42939.299000000006,0.0,-0.067904622972633,-0.06790371982778698,0.0,0.0,0.0,-3.201420027655557,-5.031467245267154,-4.819587530106255,0.004537676932958846,-0.00016063163266310786,-1.036221087717059
13582,13.0,299.87028,42889.693,0.0,-0.06790963746137146,-0.06790872203797416,0.0,0.0,0.0,-3.192706988720647,-5.028439653968355,-4.816248972351766,0.0038749652646792965,-0.003423791035676867,-1.033575289055939
13583,13.0,299.96006,42982.390999999996,0.0,-0.06791461896005235,-0.06791372424816133,0.0,0.0,0.0,-3.211954079670187,-5.0339832465904655,-4.819636166111056,-0.000985050914019456,0.0003232399946813037,-1.032129077188209
13584,13.0,299.84477999999996,43041.983,0.0,-0.0679196334487907,-0.06791872645834829,0.0,0.0,0.0,-3.203930253453297,-5.037193121582255,-4.842564597323915,-0.005514587628722425,0.002027036209302898,-1.0286319457930688
13585,13.0,299.91275,42998.612,0.0,-0.06792464793752917,-0.06792372866853547,0.0,0.0,0.0,-3.206886005320007,-5.041364874893976,-4.822253593769375,0.0012277742965968888,0.0004957076652075375,-1.035502389421129
13586,13.0,299.8016,42934.236,0.0,-0.06792962943621006,-0.06792873087872253,0.0,0.0,0.0,-3.1876786337743868,-5.031403714485886,-4.831853327866796,-0.007448446270754413,0.005478126837124025,-1.032184096668639
13587,13.0,299.98786,42958.487,0.0,-0.06793464392494841,-0.06793373308890949,0.0,0.0,0.0,-3.204591500468557,-5.034961742212036,-4.818754030573996,-0.004787689910333206,-0.008188168999634362,-1.039612942426809
13588,13.0,300.1045,43042.834,0.0,-0.0679396254236293,-0.06793873529909666,0.0,0.0,0.0,-3.210067813284027,-5.039781772937736,-4.834097170213245,-0.004218707118703976,-0.003236297717297717,-1.035309365277079
13589,13.0,300.00077999999996,43038.874,0.0,-0.06794463991236777,-0.06794373750928362,0.0,0.0,0.0,-3.213514788799217,-5.041422123524625,-4.827806204317375,-0.001033855250058569,-0.0010172600372707489,-1.041961960133639
13590,13.0,299.88562,42973.420999999995,0.0,-0.06794962141104866,-0.0679487397194708,0.0,0.0,0.0,-3.193703216218967,-5.041492848381605,-4.827650670427025,0.005684752647866405,0.0028554176126577777,-1.0392761380935691
13591,13.0,299.97542999999996,42972.39599999999,0.0,-0.0679546358997869,-0.06795374192965775,0.0,0.0,0.0,-3.205115553420277,-5.037517665589285,-4.819902042937295,-0.0019464576977504184,0.0036154883287209164,-1.044416558500889
13592,13.0,300.04687,43036.472,0.0,-0.06795965038852547,-0.06795874413984493,0.0,0.0,0.0,-3.2057179306047265,-5.043582271412815,-4.832712665276604,-0.002268396132148268,0.007340905984641013,-1.036210144615979
13593,13.0,300.09675,43051.693,0.0,-0.06796463188720636,-0.06796371344075447,0.0,0.0,0.0,-3.216442068338117,-5.043076456962895,-4.827121044599755,0.0007942208718684972,0.0016069324840168886,-1.0360946341045791
13594,13.0,299.92381,43020.111,0.0,-0.0679696463759446,-0.06796871565094142,0.0,0.0,0.0,-3.2048541348944766,-5.038551788641345,-4.833633608292495,-0.00039667162771344163,0.004814334942912866,-1.026711634203549
13595,13.0,299.64599,43012.732,0.0,-0.06797462787462571,-0.0679737178611286,0.0,0.0,0.0,-3.208979785326647,-5.040535428362115,-4.825281387718196,-0.0016574078417234187,-0.0029967626578824473,-1.036526987922249
13596,13.0,299.77313,43062.443,0.0,-0.06797964236336418,-0.06797872007131578,0.0,0.0,0.0,-3.212028148252497,-5.040157283424795,-4.837721971120986,-0.004720104912763086,-0.004309263813266226,-1.028815445386179
13597,13.0,299.75645,43097.791,0.0,-0.06798462386204496,-0.06798372228150273,0.0,0.0,0.0,-3.208899333268707,-5.0491461290369255,-4.842606951178095,-0.0054726188095804255,-0.002370837845083478,-1.0381955068619189
13598,13.0,299.80958,43097.877,0.0,-0.06798963835078342,-0.06798872449168991,0.0,0.0,0.0,-3.208269193031517,-5.048635045686486,-4.843774417943315,0.0008204973448567832,-0.001036747775119039,-1.035777993448329
13599,13.0,299.86221,43068.176,0.0,-0.06799461984946431,-0.06799372670187698,0.0,0.0,0.0,-3.214977111343537,-5.041873830419204,-4.834799251207535,0.0016950430915127284,-0.0043659613371868355,-1.039723184037689
13600,13.0,300.10622,43012.818,0.0,-0.06799963433820255,-0.06799872891206415,0.0,0.0,0.0,-3.208684220272477,-5.038950401230686,-4.827188223081386,-0.0026916356638437573,-0.0007220337936691872,-1.040115514476409
13601,13.0,300.13529,43019.209,0.0,-0.06800464882694113,-0.06800373112225122,0.0,0.0,0.0,-3.2084541111747673,-5.042377314393895,-4.825933819457586,0.0006021485040349304,-0.003806320812804616,-1.0388509783516091
13602,13.0,300.14875,43077.691,0.0,-0.06800963032562202,-0.06800873333243829,0.0,0.0,0.0,-3.208604680139627,-5.048003588224165,-4.837934044366916,-0.0004506923272548696,-0.00044587802139223464,-1.040475927536979
13603,13.0,299.88407,43068.225,0.0,-0.06801464481436026,-0.06801373554262524,0.0,0.0,0.0,-3.1983485626274266,-5.057047554641736,-4.836268869152575,0.0012871575412325587,-0.004453567042157846,-1.037937432061449
13604,13.0,299.98445,43061.541,0.0,-0.06801962631304115,-0.0680187377528122,0.0,0.0,0.0,-3.204245374234397,-5.050350579430796,-4.835037263656025,0.004345800801272146,-0.00023772307439394078,-1.042529886814689
13605,13.0,299.92293,43076.343,0.0,-0.06802464080177972,-0.06802373996299937,0.0,0.0,0.0,-3.209573245910217,-5.050614125781805,-4.833945385348266,0.003825091676207156,-0.0023695859745849275,-1.038909341557369
13606,13.0,299.629,43072.179000000004,0.0,-0.06802962230046061,-0.06802874217318655,0.0,0.0,0.0,-3.2056320069962467,-5.051097851379545,-4.836137146639575,0.003938876825336876,0.0026285138303141177,-1.043425903878119
13607,13.0,299.70945,43111.247,0.0,-0.06803463678919885,-0.0680337443833735,0.0,0.0,0.0,-3.2096159037394267,-5.053021405369385,-4.8421053923785955,-0.0024303984084866476,-0.0015293243151325586,-1.034996574971209
13608,13.0,300.00698,43102.907999999996,0.0,-0.06803961828787997,-0.06803871368428305,0.0,0.0,0.0,-3.206817610938257,-5.0533071418975855,-4.842082796901366,-0.0033760589512910767,-0.0015903786118331485,-1.043742544534369
13609,13.0,299.95128,43042.023,0.0,-0.06804463277661843,-0.06804371589447022,0.0,0.0,0.0,-3.204359668845677,-5.042944633124885,-4.836396032040125,-0.008692006902584292,0.0013565524061312985,-1.0349392250155491
13610,13.0,299.95655,43059.117999999995,0.0,-0.06804964726535678,-0.06804871810465718,0.0,0.0,0.0,-3.210330650359967,-5.040617704270236,-4.8379485338433454,-0.006081488698021204,-0.003700136964600087,-1.0378896066567291
13611,13.0,300.0598,43168.842000000004,0.0,-0.06805462876403767,-0.06805372031484436,0.0,0.0,0.0,-3.226405255246407,-5.051550368874205,-4.844294519219645,0.006446847229679285,0.0004212446246336076,-1.036680495312399
13612,13.0,300.10775,43223.846,0.0,-0.06805964325277614,-0.06805872252503142,0.0,0.0,0.0,-3.227118481991797,-5.059577741466445,-4.852273762432136,0.0033301595323611565,0.007299341857588952,-1.0385477125966789
13613,13.0,299.99102999999997,43173.384000000005,0.0,-0.0680646247514568,-0.0680637247352186,0.0,0.0,0.0,-3.2302896508297674,-5.055158552480305,-4.838182493291435,0.01034982592119829,0.008794793424528533,-1.037469614490279
13614,13.0,299.99064,43125.018,0.0,-0.06806963924019538,-0.06806872694540578,0.0,0.0,0.0,-3.210418195168607,-5.0570812958700655,-4.841429149261855,0.0013119300876274188,-0.0015340685547507785,-1.0357394899445291
13615,13.0,300.04922,43158.815,0.0,-0.06807462073887627,-0.06807372915559273,0.0,0.0,0.0,-3.2149430661401768,-5.059337195892705,-4.844922025006575,0.005893965083464064,0.0012882334101887388,-1.0342863879761188
13616,13.0,300.12042,43195.556,0.0,-0.06807963522761451,-0.06807873136577991,0.0,0.0,0.0,-3.214854812056467,-5.061213532427885,-4.854302187807326,0.003683834682416176,6.786115787162484e-05,-1.036714945815799
13617,13.0,299.85564,43156.08900000001,0.0,-0.06808464971635309,-0.06808373357596686,0.0,0.0,0.0,-3.2172368617165574,-5.057085044895436,-4.844051440520655,-0.003788547088825486,0.0038197362441286164,-1.040490822313449
13618,13.0,299.76236,43106.490999999995,0.0,-0.06808963121503397,-0.06808873578615382,0.0,0.0,0.0,-3.2050561769644172,-5.053547079521265,-4.844693537109025,-0.007553645543836774,0.00031821764830813675,-1.0397080866111992
13619,13.0,299.8295,43110.344000000005,0.0,-0.06809464570377222,-0.068093737996341,0.0,0.0,0.0,-3.213225607220677,-5.053395395981295,-4.837847006183325,-0.0052446336867300455,-0.0017059633944654785,-1.0412212743105391
13620,13.0,300.07114,43189.727999999996,0.0,-0.0680996272024531,-0.06809874020652795,0.0,0.0,0.0,-3.210237228700747,-5.065493906150325,-4.852867830965766,0.002475577406595468,0.004591230037844125,-1.0443846411227389
13621,13.0,300.02071,43200.77,0.0,-0.06810464169119157,-0.06810374241671513,0.0,0.0,0.0,-3.222249308636247,-5.060131887946135,-4.849574160190705,0.005626886035980415,-0.0031079357495793773,-1.042424103504249
13622,13.0,299.85822,43133.700999999994,0.0,-0.06810962318987268,-0.06810871171762467,0.0,0.0,0.0,-3.2110385068798264,-5.054840087973875,-4.845689561957325,0.001962298647163798,-0.006886647827634223,-1.041850097322599
13623,13.0,300.18097,43137.657999999996,0.0,-0.06811463767861103,-0.06811371392781174,0.0,0.0,0.0,-3.218449114136197,-5.058127780573345,-4.836193989970186,-0.0011592982468888288,-0.002038601344619288,-1.0459812193053089
13624,13.0,300.18773,43215.475,0.0,-0.06811961917729192,-0.0681187161379988,0.0,0.0,0.0,-3.220730649386367,-5.067747678347755,-4.847946981855116,0.007182905134272544,0.005179823778533805,-1.046489262905449
13625,13.0,300.07906,43246.655999999995,0.0,-0.06812463366603039,-0.06812371834818587,0.0,0.0,0.0,-3.236052308123497,-5.061026790434455,-4.848824557766725,0.003202753870087197,0.005689803192989854,-1.0369362396376391
13626,13.0,299.9999,43214.968,0.0,-0.06812964815476874,-0.06812872055837305,0.0,0.0,0.0,-3.2152054979160765,-5.063553228233795,-4.857512569424165,-0.005445582155837115,-0.0029479214699371973,-1.036331430652949
13627,13.0,300.11728,43172.975,0.0,-0.06813462965344963,-0.06813372276856022,0.0,0.0,0.0,-3.222165918153017,-5.0541723561579746,-4.847168096503245,-0.00093761717099311,0.0010203332248240491,-1.029734361901869
13628,13.0,300.06924,43210.861,0.0,-0.0681396441421881,-0.06813872497874718,0.0,0.0,0.0,-3.212859013334497,-5.063737031801936,-4.858426824989396,0.0035014146059627166,0.002340037777818748,-1.039908406155969
13629,13.0,299.97552,43282.21599999999,0.0,-0.06814462564086876,-0.06814372718893436,0.0,0.0,0.0,-3.230263205002157,-5.069198652490955,-4.857251150898366,0.004399919502363246,0.0007742845985984401,-1.0394496065106889
13630,13.0,299.8509,43280.193,0.0,-0.06814964012960723,-0.06814872939912131,0.0,0.0,0.0,-3.229672784168887,-5.066182510918286,-4.860242670493605,-0.007405347576425903,-0.01218044663836649,-1.041477525260829
13631,13.0,299.89811000000003,43186.054000000004,0.0,-0.06815462162828823,-0.06815373160930849,0.0,0.0,0.0,-3.2222764637389267,-5.057035598290555,-4.848170099527136,-0.008494814348947903,-0.004990041325528735,-1.040061609571089
13632,13.0,299.94428,43162.455,0.0,-0.06815963611702647,-0.06815873381949566,0.0,0.0,0.0,-3.2090779692613367,-5.063384927392185,-4.847845758170125,-0.006344275922056284,0.0026354773916263674,-1.0474764724778791
13633,13.0,300.15868,43232.845,0.0,-0.06816461761570736,-0.06816373602968262,0.0,0.0,0.0,-3.221924865954227,-5.061837390514455,-4.857942998066646,-0.002310032706582478,-0.002050622239830658,-1.040937361632519
13634,13.0,300.0506,43283.858,0.0,-0.06816963210444582,-0.06816873823986958,0.0,0.0,0.0,-3.224601264768367,-5.071668246959685,-4.860942421012665,0.004556267944468635,-0.007900543975897982,-1.046377096119379
13635,13.0,300.19216,43265.934,0.0,-0.06817464659318417,-0.06817374045005664,0.0,0.0,0.0,-3.225233026205717,-5.072808051997176,-4.853722507425116,0.0003340634410569947,0.0060521894568045945,-1.048226885501939
13636,13.0,300.27607,43214.179000000004,0.0,-0.06817962809186529,-0.0681787097509663,0.0,0.0,0.0,-3.2206248660759265,-5.068472456144286,-4.846934035730145,0.009015880036723082,0.006542891585458123,-1.0494822010508291
13637,13.0,300.43622,43255.17,0.0,-0.06818464258060353,-0.06818371196115336,0.0,0.0,0.0,-3.221831849595047,-5.0737962748197045,-4.852863473990336,-0.0003495853585438886,0.001957964064561008,-1.0380452418720891
13638,13.0,300.31532000000004,43304.122,0.0,-0.06818962407928464,-0.06818871417134031,0.0,0.0,0.0,-3.220426674356367,-5.074364505475786,-4.868580705566505,-0.0017445226270209784,-0.004012112718714696,-1.0373069878492291
13639,13.0,300.27147,43282.309,0.0,-0.06819463856802288,-0.06819371638152749,0.0,0.0,0.0,-3.225086915541297,-5.069354389031325,-4.862299973496645,-0.003018795578656927,-0.005697908383189775,-1.032495367099359
13640,13.0,300.09151,43229.577000000005,0.0,-0.06819962006670388,-0.06819871859171467,0.0,0.0,0.0,-3.213424508215307,-5.070391855808715,-4.8568957027632855,-0.005435772476318975,-0.0009695024797774451,-1.0492380077767292
13641,13.0,299.9499,43238.246,0.0,-0.06820463455544234,-0.06820372080190162,0.0,0.0,0.0,-3.225680173474847,-5.065727662948395,-4.851939288574125,-0.003472244148833817,-0.0019618524118197585,-1.041602661648179
13642,13.0,300.03565,43274.655999999995,0.0,-0.06820964904418059,-0.0682087230120888,0.0,0.0,0.0,-3.226969230252067,-5.071993500241786,-4.8554520240208054,0.001938687184058528,-0.002284864182048538,-1.054480057169079
13643,13.0,299.95452,43326.334,0.0,-0.06821463054286148,-0.06821372522227576,0.0,0.0,0.0,-3.2375031809416868,-5.067970998669796,-4.864649295178505,0.0017336039452683885,0.010185405827471291,-1.036075281027669
13644,13.0,299.8993,43246.42,0.0,-0.06821964503160005,-0.06821872743246293,0.0,0.0,0.0,-3.217651888957517,-5.0677128225443155,-4.860467206715766,0.006274492577069204,-0.0005191416068952875,-1.049298904107739
13645,13.0,300.00495,43227.465,0.0,-0.06822462653028072,-0.06822372964265011,0.0,0.0,0.0,-3.220861561299287,-5.067173773491115,-4.852034534083525,-0.003960144843610867,-0.0014330224925033085,-1.033350144883719
13646,13.0,300.12147999999996,43342.90900000001,0.0,-0.06822964101901918,-0.06822873185283707,0.0,0.0,0.0,-3.226676704948197,-5.078741137957725,-4.869744220656336,0.0017999920918203886,-0.0036044965916361164,-1.044879411146569
13647,13.0,299.87996,43432.927,0.0,-0.06823462251770007,-0.06823373406302424,0.0,0.0,0.0,-3.251012540549957,-5.081652205495025,-4.869860440442805,0.008229886532751562,0.005422641464298046,-1.0384581412878389
13648,13.0,300.11007,43368.527,0.0,-0.06823963700643843,-0.06823873627321131,0.0,0.0,0.0,-3.2389439212588766,-5.079542720111835,-4.8644627558350955,0.001068514685629189,0.0029875086447191473,-1.046020736059209
13649,13.0,300.00602000000003,43268.08900000001,0.0,-0.06824461850511954,-0.06824373848339826,0.0,0.0,0.0,-3.2230805790182866,-5.072599930426636,-4.856738041047725,-0.003184789249789227,-0.005565396345711855,-1.039488819289559
13650,13.0,299.97637000000003,43271.818,0.0,-0.06824963299385778,-0.06824874069358544,0.0,0.0,0.0,-3.2112144070971866,-5.074685908407504,-4.8676517578748255,-0.002310502955953888,-0.0065798466404553045,-1.041851515872739
13651,13.0,299.88361000000003,43347.219000000005,0.0,-0.06825464748259613,-0.06825370999449498,0.0,0.0,0.0,-3.227502605104707,-5.078990802782365,-4.869978889379495,0.003949796824314596,0.0059507971669979535,-1.044371468871439
13652,13.0,300.09736000000004,43328.371,0.0,-0.06825962898127713,-0.06825871220468205,0.0,0.0,0.0,-3.222148084951257,-5.081758596755525,-4.866836192869336,0.0012055582815293387,-0.005545458927469184,-1.050923954618119
13653,13.0,300.10792000000004,43254.435999999994,0.0,-0.06826464347001548,-0.06826371441486911,0.0,0.0,0.0,-3.231596034183697,-5.069195106115605,-4.847477340433765,-0.0008223206782792321,-0.004008119905370636,-1.0498205252592188
13654,13.0,300.06405,43266.755999999994,0.0,-0.0682696249686966,-0.06826871662505607,0.0,0.0,0.0,-3.225020041034697,-5.070350211229605,-4.856642998188345,-0.0035455341497669765,3.469682247280977e-05,-1.048180681297379
13655,13.0,299.95572000000004,43370.988,0.0,-0.06827463945743484,-0.06827371883524325,0.0,0.0,0.0,-3.240707077757887,-5.077378012598195,-4.865612288073546,0.005911556017125155,0.01050078296084659,-1.046698600376109
13656,13.0,300.16078,43483.62,0.0,-0.06827962095611573,-0.0682787210454302,0.0,0.0,0.0,-3.242701964554767,-5.088667239912355,-4.886565489541466,-0.00035915808952614365,-0.0004686124253434455,-1.037939357236639
13657,13.0,300.08005,43434.253,0.0,-0.0682846354448543,-0.06828372325561738,0.0,0.0,0.0,-3.2418820425738466,-5.084795611280255,-4.876250806173486,0.0009646023516313401,-0.0013414693677927187,-1.0437505492101589
13658,13.0,300.02859,43373.219000000005,0.0,-0.06828961694353497,-0.06828872546580456,0.0,0.0,0.0,-3.227753992454517,-5.085374379737375,-4.871247174529666,-0.002164201192565028,0.001127774921702719,-1.044867150820359
13659,13.0,300.02362,43407.21400000001,0.0,-0.06829463143227343,-0.06829372767599151,0.0,0.0,0.0,-3.249297412105687,-5.079947513526785,-4.865464353558945,0.0045166197720306655,0.006005024691149795,-1.047884102993109
13660,13.0,299.93436,43429.314000000006,0.0,-0.0682996459210119,-0.06829872988617869,0.0,0.0,0.0,-3.2385879664987467,-5.087314145728816,-4.875524913801845,-0.002944071626182247,0.0012837355929948386,-1.046598389941219
13661,13.0,299.94757999999996,43317.66,0.0,-0.06830462741969268,-0.06830373209636575,0.0,0.0,0.0,-3.225509339507987,-5.075236711161866,-4.866740947359936,-0.005806997016780984,0.0011785838413421689,-1.043700595980229
13662,13.0,300.01294,43256.57,0.0,-0.06830964190843114,-0.06830873430655271,0.0,0.0,0.0,-3.2073239320132267,-5.075275214665665,-4.866317814118175,0.0015190726559207986,-0.0005554343205670994,-1.038549131146819
13663,13.0,299.85163,43334.72,0.0,-0.06831462340711203,-0.06831373651673989,0.0,0.0,0.0,-3.220065653345737,-5.082925354245675,-4.8696819057751854,-0.0007710237064641152,0.0036544140538375867,-1.047952193399829
13664,13.0,299.98114,43445.727,0.0,-0.06831963789585038,-0.06831873872692706,0.0,0.0,0.0,-3.2353647166056367,-5.090217613890365,-4.880833736375786,0.006450357128025683,-0.006977055979731813,-1.045565989414329
13665,13.0,300.07405,43454.885,0.0,-0.06832461939453138,-0.0683237080278366,0.0,0.0,0.0,-3.251221371395567,-5.089294543049266,-4.868683955751695,0.002193445312976198,-0.0034560538307859567,-1.0529575475688189
13666,13.0,299.8542,43426.03,0.0,-0.06832963388326974,-0.06832871023802367,0.0,0.0,0.0,-3.238244373389837,-5.086850887783095,-4.875333612182965,0.002521165656419678,0.01058293829220469,-1.045723245829849
13667,13.0,299.96108,43413.456,0.0,-0.06833464837200798,-0.06833371244821074,0.0,0.0,0.0,-3.236152113258347,-5.088718611692425,-4.871735662402876,0.0005682959499164435,0.011959546970815388,-1.052964437669499
13668,13.0,300.18385,43447.698,0.0,-0.06833962987068909,-0.06833871465839769,0.0,0.0,0.0,-3.235063376025897,-5.091744683116075,-4.880207041188935,-0.0023532225934199875,0.0007019731236843534,-1.044901094698709
13669,13.0,300.20142000000004,43447.825999999994,0.0,-0.06834464435942755,-0.06834371686858465,0.0,0.0,0.0,-3.236459229363657,-5.092588011174305,-4.878006971246805,-0.005678571112981334,-0.0021406023950860083,-1.049146511292699
13670,13.0,300.04846000000003,43375.904,0.0,-0.06834962585810855,-0.06834871907877182,0.0,0.0,0.0,-3.2330453871267366,-5.082375970041454,-4.869770463833925,0.0014284426020513086,0.0027133940951661476,-1.045595373667229
13671,13.0,299.9317,43357.273,0.0,-0.0683546403468468,-0.068353721288959,0.0,0.0,0.0,-3.234642066634317,-5.082798292683136,-4.862088102900735,-0.004816895932540616,0.00036548123624518966,-1.049816066958779
13672,13.0,299.78429,43434.219000000005,0.0,-0.06835962184552768,-0.06835872349914596,0.0,0.0,0.0,-3.236753983817747,-5.091832227924716,-4.874331811809096,-0.0014350198111004286,-0.008520847986417222,-1.047898896444569
13673,13.0,299.91397,43529.825999999994,0.0,-0.06836463633426615,-0.06836372570933313,0.0,0.0,0.0,-3.2500491423548765,-5.098011027034516,-4.883920197505396,-0.0036060773631171267,-0.0016621231023887784,-1.042486621035419
13674,13.0,299.89454,43511.85400000001,0.0,-0.06836961783294693,-0.0683687279195202,0.0,0.0,0.0,-3.2374726821136766,-5.091782477344805,-4.897261965547125,0.007130377641138483,0.003357952779954137,-1.042799613991309
13675,13.0,299.92647999999997,43451.28,0.0,-0.06837463232168539,-0.06837373012970738,0.0,0.0,0.0,-3.2406122375485267,-5.092823693147565,-4.874668210842295,-0.00010822310522328889,-0.002933930107256357,-1.0414190607300589
13676,13.0,300.03777,43447.705,0.0,-0.06837964681042386,-0.06837873233989455,0.0,0.0,0.0,-3.242940483628307,-5.088110256332385,-4.875966893495465,-0.000949447139488137,-0.008151616508901912,-1.0502531830519188
13677,13.0,300.15151000000003,43468.48,0.0,-0.06838462830910463,-0.06838373455008151,0.0,0.0,0.0,-3.251906733763207,-5.089333451853104,-4.872092225113065,0.002025180441744748,-0.007432916490446743,-1.043235108884289
13678,13.0,300.08655,43468.609000000004,0.0,-0.0683896427978431,-0.06838873676026869,0.0,0.0,0.0,-3.2401904215318966,-5.092817512321955,-4.8803637909794055,0.0030755955421626472,0.004623786472832196,-1.054788693149539
13679,13.0,300.20231,43482.613,0.0,-0.06839462429652399,-0.06839370606117823,0.0,0.0,0.0,-3.2453285114639865,-5.093034955793415,-4.879265022570966,-0.0007711270174443113,0.001138368654148239,-1.045605708818249
13680,13.0,299.99921,43444.817,0.0,-0.06839963878526223,-0.06839870827136518,0.0,0.0,0.0,-3.227671209921347,-5.095850676496305,-4.882617563176836,-0.0016106978227134984,-0.005033953862337566,-1.057272371794659
13681,13.0,299.80022,43456.832,0.0,-0.06840462028394334,-0.06840371048155236,0.0,0.0,0.0,-3.235176758712087,-5.092253233341265,-4.882361717526586,0.0009194049934307081,-8.835454239116441e-05,-1.0488172050101991
13682,13.0,299.91319,43545.617,0.0,-0.0684096347726818,-0.06840871269173932,0.0,0.0,0.0,-3.244848433566607,-5.103367472363155,-4.888564226688725,-0.00029336120480499676,0.001038851687626679,-1.0515115383511089
13683,13.0,299.93435,43519.49,0.0,-0.0684146162713627,-0.06841371490192649,0.0,0.0,0.0,-3.243497061908237,-5.102016809979855,-4.8833244064465955,-0.0006908849049250314,-0.0014836619967260386,-1.052355778334429
13684,13.0,299.9819,43433.030999999995,0.0,-0.06841963076010105,-0.06841871711211345,0.0,0.0,0.0,-3.2300831504593868,-5.0893722593319355,-4.883101390099585,-0.007591537855176453,-0.005512513809742755,-1.045836932491069
13685,13.0,300.11246,43494.61,0.0,-0.06842464524883951,-0.06842371932230051,0.0,0.0,0.0,-3.239328044371787,-5.094822126319795,-4.887125310221715,0.006087388752028494,0.00015767862670416886,-1.045893066546609
13686,13.0,299.92821000000004,43563.01,0.0,-0.0684296267475204,-0.06842872153248758,0.0,0.0,0.0,-3.248537271880667,-5.097208431630305,-4.896321770779336,-0.00029143498596739375,0.008686292881295361,-1.041663456654179
13687,13.0,299.85115,43572.983,0.0,-0.06843464123625875,-0.06843372374267465,0.0,0.0,0.0,-3.2577707160669367,-5.098475703530375,-4.888852395017166,0.0013118317010427088,-0.0012297347328903687,-1.050777742628689
13688,13.0,299.73171,43545.895,0.0,-0.06843962273493964,-0.06843872595286182,0.0,0.0,0.0,-3.253630677483347,-5.102420691469716,-4.880813167398755,-0.002033151781606458,0.0005957088740843884,-1.048069831736439
13689,13.0,299.76034,43509.44,0.0,-0.0684446372236781,-0.068443728163049,0.0,0.0,0.0,-3.246697817649127,-5.096369663197525,-4.882715848436535,-3.567412955201247e-05,0.00927030247588262,-1.055308794425869
13690,13.0,300.10197999999997,43565.125,0.0,-0.06844961872235888,-0.06844873037323596,0.0,0.0,0.0,-3.2498931018394766,-5.099903372921275,-4.892913501417965,0.0023904156608656577,0.006990003694809654,-1.046964578527359
13691,13.0,300.22566,43577.58900000001,0.0,-0.06845463321109735,-0.06845373258342313,0.0,0.0,0.0,-3.252475977669387,-5.106156645913425,-4.8878661986948355,-0.004224347172735606,-0.0007447028429889484,-1.055153868485579
13692,13.0,299.81036,43508.629,0.0,-0.06845964769983581,-0.06845873479361009,0.0,0.0,0.0,-3.2347272809677268,-5.097033747313065,-4.893775878578075,-0.004345773646169466,-0.0009055253719708962,-1.0485513281839591
13693,13.0,299.89224,43446.399000000005,0.0,-0.06846462919851648,-0.06846370409451963,0.0,0.0,0.0,-3.237364163027967,-5.097479577357065,-4.871776597706916,0.0021384116470447977,-0.002441466645953998,-1.052949644218039
13694,13.0,299.94518999999997,43507.988,0.0,-0.06846964368725506,-0.0684687063047068,0.0,0.0,0.0,-3.2352121211405764,-5.1034817669744355,-4.886648272074636,0.0014466285161711186,0.0033714217108834167,-1.050182660844959
13695,13.0,300.08865,43606.704000000005,0.0,-0.06847462518593606,-0.06847370851489376,0.0,0.0,0.0,-3.252200981592247,-5.110685468560385,-4.892462909098495,0.004301271803102476,-0.005549239262267275,-1.049716160498919
13696,13.0,300.18857,43643.681,0.0,-0.06847963967467441,-0.06847871072508094,0.0,0.0,0.0,-3.246112057766317,-5.116257432185295,-4.904219751333804,0.008455490011241892,-0.004901134404779305,-1.0486537677690688
13697,13.0,300.1824,43566.084,0.0,-0.0684846211733553,-0.06848371293526812,0.0,0.0,0.0,-3.245612018841967,-5.106042148652125,-4.891347523388416,0.004406353843148266,-0.0019002168135367982,-1.046883011894309
13698,13.0,300.34764,43568.797999999995,0.0,-0.06848963566209376,-0.06848871514545507,0.0,0.0,0.0,-3.2421001953203765,-5.110306614347995,-4.891419970770565,0.0018316470381944882,-0.0018495714324634881,-1.053239940371689
13699,13.0,300.56557999999995,43630.66099999999,0.0,-0.06849461716077465,-0.06849371735564214,0.0,0.0,0.0,-3.265567878236457,-5.108825040051775,-4.888238568106586,-0.005890394795411705,-0.0019382596938413382,-1.0554317016629988
13700,13.0,300.2446,43588.818,0.0,-0.068499631649513,-0.06849871956582909,0.0,0.0,0.0,-3.249275221928497,-5.107074042553966,-4.8935627920820455,-0.002892986595890547,0.007022190496161243,-1.0586489733805189
13701,13.0,300.05035,43538.59,0.0,-0.06850464613825147,-0.06850372177601627,0.0,0.0,0.0,-3.244904972922187,-5.104560878330935,-4.885178248829555,0.000900074593057946,0.003062284475598947,-1.055111413306389
13702,13.0,300.07902,43546.072,0.0,-0.06850962763693236,-0.06850872398620345,0.0,0.0,0.0,-3.2448025333370767,-5.0952696788889655,-4.8968462290310955,0.002381179075604078,0.0038477381199171863,-1.0511723022176291
13703,13.0,299.93469,43609.42,0.0,-0.06851464212567071,-0.0685137261963904,0.0,0.0,0.0,-3.247597887712957,-5.1112246189385955,-4.897352043481015,-0.0008209790034243192,-0.006232800476529514,-1.049845147236649
13704,13.0,300.04106,43687.257000000005,0.0,-0.0685196236243516,-0.06851872840657758,0.0,0.0,0.0,-3.2603822668746765,-5.113139053677536,-4.906314037965496,0.0014969227047597685,-0.0021255211805976076,-1.048554063959229
13705,13.0,299.97418999999996,43693.176,0.0,-0.06852463811309006,-0.06852373061676453,0.0,0.0,0.0,-3.2655013077048864,-5.112331594672845,-4.903801583017535,0.0017607853924509883,-0.004241865051064486,-1.040683542482469
13706,13.0,300.02886,43663.126,0.0,-0.06852961961177073,-0.06852873282695171,0.0,0.0,0.0,-3.2546868893875867,-5.1196102767661955,-4.898202869589985,-0.00019081847083481682,0.0002144951872465268,-1.046703261326569
13707,13.0,300.05023,43673.189000000006,0.0,-0.0685346341005093,-0.06853373503713889,0.0,0.0,0.0,-3.2546993523638172,-5.115694774404765,-4.905164809702075,0.0006562709338863985,-0.002520342897338478,-1.046305054037269
13708,13.0,300.07254,43692.27,0.0,-0.0685396155991903,-0.0685387043380482,0.0,0.0,0.0,-3.2612147531568367,-5.1150665593427656,-4.905077670193475,0.003503842150552297,0.005165738082268655,-1.046608623767229
13709,13.0,300.16036,43636.935,0.0,-0.06854463008792866,-0.06854370654823538,0.0,0.0,0.0,-3.249135393414697,-5.111995803589705,-4.903407226078615,0.005630102193122825,-0.0001348288439640709,-1.050921725467899
13710,13.0,300.22354,43547.886,0.0,-0.0685496445766669,-0.06854870875842256,0.0,0.0,0.0,-3.2428311539425168,-5.1048995065143545,-4.8897391915046855,-0.0008861388172775921,-0.002154025324460748,-1.060187897632399
13711,13.0,300.06782000000004,43573.803,0.0,-0.06855462607534801,-0.06855371096860952,0.0,0.0,0.0,-3.2457570149312764,-5.111190573735236,-4.888400485472566,0.0027914958181741874,0.0023280676464373876,-1.061957842907079
13712,13.0,300.04400000000004,43654.802,0.0,-0.06855964056408637,-0.06855871317879669,0.0,0.0,0.0,-3.251121059635667,-5.116483184307575,-4.902365604975816,-0.0068189050670235335,0.007616671523906952,-1.0642904459622888
13713,13.0,300.02988,43664.697,0.0,-0.06856462206276726,-0.06856371538898376,0.0,0.0,0.0,-3.2484731331493366,-5.1164513682544355,-4.908053079112125,-0.0034463432471275967,-0.0018527447291266685,-1.049774321054659
13714,13.0,299.99785,43657.037000000004,0.0,-0.06856963655150572,-0.06856871759917083,0.0,0.0,0.0,-3.245519205132807,-5.116444984778805,-4.908685043199495,-0.004680964175975196,-0.006988451091681424,-1.051792411278829
13715,13.0,300.04783,43703.587999999996,0.0,-0.06857461805018661,-0.06857371980935789,0.0,0.0,0.0,-3.257304317045907,-5.1172041117537255,-4.910291145933005,-0.0015208329753195287,-0.003713004024969966,-1.0436651322267292
13716,13.0,300.13774,43709.33,0.0,-0.06857963253892496,-0.06857872201954485,0.0,0.0,0.0,-3.260895478050327,-5.124744111047866,-4.900905308931695,0.006042278654926474,0.0014971229229795286,-1.0532695272746089
13717,13.0,299.94297,43721.345,0.0,-0.06858464702766343,-0.06858372422973202,0.0,0.0,0.0,-3.266716397224807,-5.117310806989255,-4.906170055126285,0.002224311038847408,-0.0005860300659491644,-1.047679325147899
13718,13.0,300.07023,43748.073,0.0,-0.06858962852634432,-0.06858872643991898,0.0,0.0,0.0,-3.264989211104347,-5.124475093146316,-4.908857599691525,0.007985211660879033,-0.000990633810612945,-1.060371903850559
13719,13.0,300.00297,43664.914000000004,0.0,-0.06859464301508256,-0.06859372865010616,0.0,0.0,0.0,-3.260586234119807,-5.114097182972095,-4.898360126005505,0.005837450856486545,0.001942751836834678,-1.054165645663049
13720,13.0,300.15114,43618.96,0.0,-0.06859962451376345,-0.06859873086029333,0.0,0.0,0.0,-3.248768900853527,-5.111777042893116,-4.898528730822145,0.004483665839028366,0.0014208528521772587,-1.056369160655519
13721,13.0,300.16174,43665.422999999995,0.0,-0.06860463900250202,-0.06860373307048029,0.0,0.0,0.0,-3.258230832937347,-5.1172079621041044,-4.897759370021216,-0.0063702026616400545,-0.007603436451100753,-1.0563718964307889
13722,13.0,300.21175,43717.399000000005,0.0,-0.06860962050118291,-0.06860870237138983,0.0,0.0,0.0,-3.261233396958677,-5.119258982956525,-4.908505292631755,-0.008838677387684542,-0.0032505163519759867,-1.056835357026529
13723,13.0,300.11532,43709.871,0.0,-0.06861463498992115,-0.068613704581577,0.0,0.0,0.0,-3.2592945428923263,-5.122506652177045,-4.904908052126736,-0.0015382625995646985,0.0034457113843652364,-1.058570345172759
13724,13.0,300.08134,43698.907999999996,0.0,-0.06861961648860226,-0.06861870679176396,0.0,0.0,0.0,-3.2519849566709267,-5.122853791661305,-4.9085381219349955,-0.0012476140375299188,0.0035226979243132162,-1.0488510475635389
13725,13.0,299.85669,43742.954000000005,0.0,-0.06862463097734062,-0.06862370900195114,0.0,0.0,0.0,-3.262372391396087,-5.117532100811095,-4.9168613635564355,0.0007740045464033012,-0.003960158725137236,-1.049732879125569
13726,13.0,300.01661,43785.880999999994,0.0,-0.06862964546607908,-0.0686287112121382,0.0,0.0,0.0,-3.259578658220367,-5.133109402548455,-4.917126429782596,-0.0005170023218266565,-0.008795431670766522,-1.0486627856949589
13727,13.0,299.83779,43727.621,0.0,-0.06863462696475997,-0.06863371342232538,0.0,0.0,0.0,-3.257714176711357,-5.1243294891069455,-4.910061138160305,0.008132476619812952,-0.0005993351746022765,-1.059700828309329
13728,13.0,299.98126,43667.475999999995,0.0,-0.06863964145349821,-0.06863871563251256,0.0,0.0,0.0,-3.248765759778217,-5.121969224324005,-4.903087241697036,0.0019003225968472382,-0.0016257268548217486,-1.060238661462409
13729,13.0,299.97151,43631.628,0.0,-0.06864462295217921,-0.06864371784269951,0.0,0.0,0.0,-3.2473990880433368,-5.1203075954850155,-4.895218848045486,-0.0005037086527671736,-0.005469603681257855,-1.067383797192579
13730,13.0,299.78452999999996,43718.524000000005,0.0,-0.06864963744091768,-0.06864872005288647,0.0,0.0,0.0,-3.259198993407897,-5.122622466663475,-4.907518184384336,-0.005499137489872614,0.0002494088877972408,-1.059192987359209
13731,13.0,300.03902999999997,43819.585,0.0,-0.06865461893959857,-0.06865372226307342,0.0,0.0,0.0,-3.275038220296107,-5.132112263125045,-4.912909080216375,-0.00018978326360514982,0.0037946813049308864,-1.057691756011049
13732,13.0,300.18116000000003,43748.736,0.0,-0.06865963342833681,-0.0686587244732606,0.0,0.0,0.0,-3.256837614049847,-5.129679348309936,-4.912006477027296,0.0007252247715466123,0.005720202925140074,-1.053242372171929
13733,13.0,299.98781,43695.140999999996,0.0,-0.0686646149270177,-0.06866372668344778,0.0,0.0,0.0,-3.254138721083487,-5.118722669678595,-4.909370304242125,-0.0021334066981758483,0.003261406966700807,-1.047708405425769
13734,13.0,300.05191,43825.447,0.0,-0.06866962941575627,-0.06866872889363473,0.0,0.0,0.0,-3.2638173873636966,-5.133052356567824,-4.924971923981886,-0.003563905184680057,0.0057763436681307345,-1.051276768302939
13735,13.0,299.90536000000003,43886.420999999995,0.0,-0.06867464390449451,-0.06867373110382191,0.0,0.0,0.0,-3.278975203559657,-5.132472270885575,-4.928928766947395,-0.001063088731343689,0.006466855170128914,-1.049526378755189
13736,13.0,299.7758,43823.359000000004,0.0,-0.0686796254031754,-0.06867870040473145,0.0,0.0,0.0,-3.264272741958637,-5.131965747160585,-4.9249682762815254,0.0018656302306483683,-0.00013966109448597687,-1.0585354893693188
13737,13.0,299.97021,43735.732,0.0,-0.06868463989191387,-0.06868370261491841,0.0,0.0,0.0,-3.2642440669808073,-5.123818203106485,-4.906508278009666,0.004089610645988146,-0.004846893911026186,-1.055656136560149
13738,13.0,299.62695,43706.967000000004,0.0,-0.06868962139059487,-0.06868870482510558,0.0,0.0,0.0,-3.251986881846117,-5.126433502939595,-4.907406118923276,0.001016605376381139,-0.0037789368169270266,-1.063228053232439
13739,13.0,299.86073,43780.099,0.0,-0.06869463587933311,-0.06869370703529265,0.0,0.0,0.0,-3.2661189849658467,-5.134696456180086,-4.907241567107036,0.008470177679391452,-0.001962518522435498,-1.061578482069639
13740,13.0,299.8913,43806.669,0.0,-0.06869961737801422,-0.06869870924547983,0.0,0.0,0.0,-3.2689327804935466,-5.132659012879005,-4.914541831427515,0.001038487120240699,-0.0006801334702339473,-1.062874834247579
13741,13.0,299.70694,43771.825999999994,0.0,-0.06870463186675246,-0.068703711455667,0.0,0.0,0.0,-3.2624474732284967,-5.132000906939055,-4.911093640012205,0.0007186198703722593,-3.4151997894039765e-05,-1.053080454805949
13742,13.0,300.12393,43751.197,0.0,-0.06870964635549104,-0.06870871366585396,0.0,0.0,0.0,-3.260608829597037,-5.132095037873345,-4.906567654465525,0.0006559038637726713,0.002293927805518048,-1.0595805555224589
13743,13.0,300.00737000000004,43849.414000000004,0.0,-0.06871462785417193,-0.06871371587604114,0.0,0.0,0.0,-3.273653918009487,-5.134022239563546,-4.921450879884386,-0.0012186146170178988,-0.0006992845861340155,-1.051355092535669
13744,13.0,299.87062000000003,43890.852,0.0,-0.06871964234291017,-0.06871871808622809,0.0,0.0,0.0,-3.274471002890127,-5.139431171247365,-4.927820676638036,0.002226829573295968,-0.004018358797631137,-1.056876798955619
13745,13.0,299.94397000000004,43826.663,0.0,-0.06872462384159106,-0.06872372029641527,0.0,0.0,0.0,-3.2619690165312765,-5.130115045852936,-4.930127239165675,-0.0028910128860207573,-0.004767838719674045,-1.053813743903319
13746,13.0,300.02465,43775.988,0.0,-0.06872963833032963,-0.06872872250660222,0.0,0.0,0.0,-3.259338416621657,-5.130078568849335,-4.917390178783625,0.0025659386452134276,0.008068489166722882,-1.061848918521329
13747,13.0,299.97103,43833.208,0.0,-0.06873461982901052,-0.06873372471678929,0.0,0.0,0.0,-3.2659009335443265,-5.135903743674236,-4.922396242227685,-0.0025283543619041477,0.004071626165988216,-1.060680134530979
13748,13.0,300.06872000000004,43871.038,0.0,-0.06873963431774877,-0.06873872692697636,0.0,0.0,0.0,-3.2757436450157265,-5.136661452099015,-4.923294995066386,0.0014127799846555286,0.000973519874568931,-1.061637351900449
13749,13.0,299.83288999999996,43862.778,0.0,-0.06874461581642966,-0.06874372913716342,0.0,0.0,0.0,-3.2714764435445867,-5.140585465761285,-4.9211272478024455,-0.00011859638484455188,-0.004173419702834456,-1.055638506008409
13750,13.0,300.00937999999996,43856.172999999995,0.0,-0.06874963030516812,-0.0687487313473506,0.0,0.0,0.0,-3.2702768567511966,-5.139949651323536,-4.920955096610455,0.0048901225040175154,-0.0029091462124603775,-1.060204616259049
13751,13.0,299.63338999999996,43829.045,0.0,-0.06875464479390647,-0.06875370064826003,0.0,0.0,0.0,-3.271384744410537,-5.133329480470175,-4.918220942540616,0.0019027180214086484,3.0720218090599473e-06,-1.050885552439329
13752,13.0,299.77685,43861.41,0.0,-0.06875962629258736,-0.0687587028584471,0.0,0.0,0.0,-3.269304136655197,-5.139415161895785,-4.924054223366316,-0.0028703383283303374,-0.006978137117588514,-1.055669308811449
13753,13.0,299.73528999999996,43942.344000000005,0.0,-0.06876464078132583,-0.06876370506863427,0.0,0.0,0.0,-3.2855516020086966,-5.140455060473416,-4.931368571863185,0.003221658482502937,0.0014337597332760687,-1.049861764538289
13754,13.0,299.93194,43908.254,0.0,-0.06876962228000671,-0.06876870727882145,0.0,0.0,0.0,-3.276220480512787,-5.137069487914285,-4.933722757145525,0.00018854346091529083,0.004549689012894345,-1.0574743125395891
13755,13.0,300.12529,43820.437000000005,0.0,-0.06877463676874529,-0.0687737094890084,0.0,0.0,0.0,-3.264129468394497,-5.135282216062895,-4.920906764580685,0.003303038981509567,0.0031555930561077868,-1.062918302676869
13756,13.0,300.03511000000003,43819.472,0.0,-0.06877961826742618,-0.06877871169919558,0.0,0.0,0.0,-3.258841012147567,-5.135972543356025,-4.925211658955545,-0.00951030231311876,-0.0039038573820057263,-1.067649471368799
13757,13.0,299.95184,43896.335,0.0,-0.06878463275616442,-0.06878371390938254,0.0,0.0,0.0,-3.274916630284107,-5.139366323240965,-4.929106896314975,-0.006718188919008624,-0.0015868782380376886,-1.0631447640742189
13758,13.0,300.11905,43957.664000000004,0.0,-0.06878961425484531,-0.06878871611956971,0.0,0.0,0.0,-3.276246926340397,-5.1496066340516045,-4.936178672737905,-0.0015372746807171987,0.002040433402125098,-1.068113438589589
13759,13.0,300.00278,43899.132000000005,0.0,-0.06879462874358377,-0.06879371832975689,0.0,0.0,0.0,-3.278190441357207,-5.143342721933404,-4.922706702058325,-0.0022428213956492376,-0.0034891819414804466,-1.065027686735049
13760,13.0,300.01847999999995,43836.761,0.0,-0.06879964323232213,-0.06879872053994385,0.0,0.0,0.0,-3.265771642831567,-5.142561810081336,-4.916947287164915,0.006887771825970154,-0.003734346314476286,-1.0602615609146688
13761,13.0,300.04624,43876.212,0.0,-0.06880462473100302,-0.06880372275013091,0.0,0.0,0.0,-3.2709433726669768,-5.141694771970766,-4.924634613023596,0.0017403380054329882,-0.002786274743058907,-1.059205754310469
13762,13.0,299.85362000000003,43958.919,0.0,-0.06880963921974148,-0.06880872496031787,0.0,0.0,0.0,-3.2782801139910567,-5.148153329433175,-4.935980177043316,0.007986473562553572,0.0012293553720529287,-1.053175092365289
13763,13.0,300.02497999999997,43976.292,0.0,-0.06881462071842237,-0.06881372717050505,0.0,0.0,0.0,-3.2822220621800966,-5.150362113326165,-4.935110707132505,-0.0012802444397752887,0.0007506969367380193,-1.0573212104494791
13764,13.0,299.76482000000004,43880.112,0.0,-0.06881963520716072,-0.06881872938069222,0.0,0.0,0.0,-3.2619268653271174,-5.144897250236824,-4.931634347364415,-0.006865707494442574,-0.001086688238097779,-1.056562184799569
13765,13.0,299.6509,43842.901,0.0,-0.06882461670584161,-0.06882369868160176,0.0,0.0,0.0,-3.2645789461388572,-5.141867632437824,-4.920700568185336,-0.007327972049764533,0.0034038092370798165,-1.0617617790127292
13766,13.0,299.8093,43982.700999999994,0.0,-0.06882963119458008,-0.06882870089178883,0.0,0.0,0.0,-3.276810698696037,-5.153770382687535,-4.939061774572446,-0.010461667453986188,0.00022068753351016382,-1.058208817537079
13767,13.0,299.92318,44001.114,0.0,-0.06883464568331843,-0.0688337031019759,0.0,0.0,0.0,-3.2844174711717673,-5.153462152007115,-4.937360223679516,0.00047888554519232354,-0.003032168048176687,-1.0621101343971089
13768,13.0,300.10081,43899.763,0.0,-0.06883962718199954,-0.06883870531216285,0.0,0.0,0.0,-3.269968524745767,-5.148470882014515,-4.925992469482606,-0.002378421718106948,-0.005506668572565874,-1.060949152432529
13769,13.0,300.19954,43879.810999999994,0.0,-0.06884464167073778,-0.06884370752235003,0.0,0.0,0.0,-3.270028205176657,-5.1415177571782955,-4.926820902764366,0.005877662193330095,0.0019367986885221481,-1.057665918133499
13770,13.0,299.94577000000004,43994.684,0.0,-0.06884962316941867,-0.06884870973253698,0.0,0.0,0.0,-3.281568515865597,-5.156927669999136,-4.9347891015507654,0.005114842833720685,-0.002163034232424858,-1.063755348584479
13771,13.0,300.00057000000004,44077.537000000004,0.0,-0.06885463765815714,-0.06885371194272416,0.0,0.0,0.0,-3.3003133387405668,-5.154896812823705,-4.943260682986845,0.004352563941714616,-0.0011874030688875587,-1.0596418571535091
13772,13.0,299.98711000000003,44002.817,0.0,-0.06885961915683803,-0.06885871415291134,0.0,0.0,0.0,-3.2813065907147467,-5.157754482080735,-4.936696544864016,0.0015179055944556184,0.0006222345458022684,-1.065516782558319
13773,13.0,300.03086,43850.206,0.0,-0.06886463364557638,-0.06886371636309829,0.0,0.0,0.0,-3.2635415806864767,-5.143087484233215,-4.922738619436475,-0.004314001872058836,0.0006313730079241644,-1.059807219569829
13774,13.0,299.99046,43886.407999999996,0.0,-0.06886961514425727,-0.06886871857328547,0.0,0.0,0.0,-3.2639333031751367,-5.146947967114215,-4.929491019427886,-0.005432406560811785,0.0012623349402827587,-1.066493758304739
13775,13.0,300.21792,44024.070999999996,0.0,-0.06887462963299573,-0.06887372078347254,0.0,0.0,0.0,-3.2776084304997672,-5.158357061915204,-4.9462529118571545,-0.007014356451688083,-0.0023428174268180775,-1.0605992771729988
13776,13.0,300.19316000000003,44037.38,0.0,-0.06887964412173408,-0.0688787229936596,0.0,0.0,0.0,-3.284148250620197,-5.158376718967145,-4.943738937034045,0.003178500513043577,-0.0005720350353029624,-1.0647968683622688
13777,13.0,300.23076000000003,43938.09,0.0,-0.06888462562041497,-0.06888372520384667,0.0,0.0,0.0,-3.2702389611974567,-5.149667327732596,-4.936175835637625,0.0006681671081429594,-0.003603695617432067,-1.058172847158529
13778,13.0,300.23439,43925.113,0.0,-0.06888964010915344,-0.06888872741403362,0.0,0.0,0.0,-3.271896131736007,-5.153692565079854,-4.9265488451125155,0.005614915296648995,-0.0024502644939222774,-1.0654100873227887
13779,13.0,300.13272,44095.945999999996,0.0,-0.06889462160783433,-0.06889369671494339,0.0,0.0,0.0,-3.2932343682419267,-5.161126679738546,-4.949705561572905,0.0021571117855903577,-0.003122444275111257,-1.0571642580089888
13780,13.0,299.91179,44138.745,0.0,-0.06889963609657268,-0.06889869892513034,0.0,0.0,0.0,-3.302788708734867,-5.159457856823845,-4.954829668653615,0.003151618785240557,-0.0025404390918718177,-1.060159020004549
13781,13.0,299.9384,44030.929000000004,0.0,-0.06890461759525368,-0.0689037011353173,0.0,0.0,0.0,-3.283761189081997,-5.159452790573345,-4.941089085372525,0.001816894116738488,0.006894983025606843,-1.059768209440979
13782,13.0,299.93609,43958.233,0.0,-0.06890963208399203,-0.06890870334550447,0.0,0.0,0.0,-3.284701079874757,-5.143023345501886,-4.934480668220325,0.002326512611508918,0.003457081063737337,-1.059579947572399
13783,13.0,299.87968,43997.999,0.0,-0.06891461358267292,-0.06891370555569143,0.0,0.0,0.0,-3.277399700979167,-5.155515604659775,-4.941377962976036,0.0028260199848564576,-0.002004663748419908,-1.066388278969329
13784,13.0,300.2538,44041.273,0.0,-0.06891962807141139,-0.0689187077658786,0.0,0.0,0.0,-3.2860857874614173,-5.153817904117225,-4.9475435898345355,0.001958721367685748,-0.0009445056403404492,-1.064220126405349
13785,13.0,300.02452,44046.737,0.0,-0.06892464256014996,-0.06892370997606578,0.0,0.0,0.0,-3.282777323234897,-5.155644794047525,-4.950686083694675,0.005214033128410005,0.002754734293946107,-1.060826042545379
13786,13.0,299.68253,43989.450999999994,0.0,-0.06892962405883063,-0.06892871218625274,0.0,0.0,0.0,-3.2710588831783767,-5.159582081286104,-4.941053824269045,1.2134593018341089e-06,0.005230982066807735,-1.0648778270452592
13787,13.0,299.88604,44035.269,0.0,-0.0689346385475691,-0.06893371439643992,0.0,0.0,0.0,-3.2795250943889265,-5.162164957116015,-4.943931961178095,-0.007208604804508904,-0.0010224209253300888,-1.062195348730519
13788,13.0,300.05364,44128.547,0.0,-0.06893962004624998,-0.06893871660662698,0.0,0.0,0.0,-3.295087906649857,-5.1698045588949855,-4.949083831311545,-0.0015972949556907383,-0.004300166043268346,-1.063520274561279
13789,13.0,300.01174,44114.082,0.0,-0.06894463453498834,-0.06894371881681416,0.0,0.0,0.0,-3.2978596522984067,-5.1695846836232855,-4.942134962125745,-0.004187554136429416,0.0029795255511562775,-1.061618404123579
13790,13.0,300.27647,44025.324,0.0,-0.06894961603366923,-0.06894872102700134,0.0,0.0,0.0,-3.2829987183817466,-5.159913008768765,-4.939687355184185,0.0026565029391514275,-0.0005210171834928925,-1.0637184662808388
13791,13.0,300.16727000000003,43997.664000000004,0.0,-0.06895463052240769,-0.06895372323718829,0.0,0.0,0.0,-3.287654501266237,-5.161103374986245,-4.925433459402436,0.002039302513688488,-0.0043478176755961965,-1.069123547614279
13792,13.0,300.1642,44087.178,0.0,-0.06895964501114604,-0.06895872544737525,0.0,0.0,0.0,-3.2898359274065267,-5.159744201302105,-4.951821025131686,0.0024433659832664477,0.004798328327108136,-1.063863259720129
13793,13.0,300.08088,44108.078,0.0,-0.06896462650982693,-0.06896369474828501,0.0,0.0,0.0,-3.297541897067047,-5.1636476459873455,-4.946564891562945,0.009014018898939402,0.006382788849082214,-1.064831825490719
13794,13.0,299.68151,44071.444,0.0,-0.0689696409985654,-0.06896869695847196,0.0,0.0,0.0,-3.282381649070847,-5.168094800676245,-4.946142163621225,-0.0012009078688703788,0.003290096535332247,-1.064276868410949
13795,13.0,299.88499,44090.765,0.0,-0.06897462249724629,-0.06897369916865914,0.0,0.0,0.0,-3.2891042595093167,-5.164175346639425,-4.949212108774205,-0.00014123705302901185,-0.0036202540492412567,-1.0682807261810991
13796,13.0,300.12067,44125.566,0.0,-0.06897963698598453,-0.0689787013788461,0.0,0.0,0.0,-3.284899980869387,-5.172168370053275,-4.956001999019315,-0.007972516954351163,-0.008027616481539062,-1.0613067283928188
13797,13.0,300.05619,44171.504,0.0,-0.06898461848466564,-0.06898370358903305,0.0,0.0,0.0,-3.297289800442167,-5.172135844725066,-4.957608608377876,-0.002305692449779128,-0.002156769712356598,-1.063338801468369
13798,13.0,300.04962,44207.316,0.0,-0.0689896329734041,-0.06898870579922023,0.0,0.0,0.0,-3.2971949602328072,-5.176424932398365,-4.964300213363286,-0.005978636010845434,-0.004242417778994035,-1.053838872505799
13799,13.0,299.99563,44085.212,0.0,-0.06899461447208488,-0.06899370800940718,0.0,0.0,0.0,-3.290422396564407,-5.1715898042461745,-4.938791338120755,-0.003267781221754897,9.19951581064652e-05,-1.069164786893349
13800,13.0,299.9825,44002.144,0.0,-0.06899962896082334,-0.06899871021959436,0.0,0.0,0.0,-3.278838516121167,-5.156544458811315,-4.940169966206815,-0.0027764987034440878,0.0025638903601362777,-1.058012550992709
13801,13.0,300.14796,44097.22900000001,0.0,-0.06900464344956181,-0.06900371242978143,0.0,0.0,0.0,-3.287533721854317,-5.168354598001885,-4.948568188335655,0.005925302983881875,0.005307897375273685,-1.072451060942679
13802,13.0,300.00885,44146.205,0.0,-0.06900962494824259,-0.0690087146399686,0.0,0.0,0.0,-3.2945751007742468,-5.1701771309567555,-4.954591757530135,0.003821260780229076,-0.001118945055031279,-1.063962558229929
13803,13.0,299.97729,44060.34,0.0,-0.06901463943698105,-0.06901371685015578,0.0,0.0,0.0,-3.281848882168267,-5.162321909556505,-4.949072381585416,0.0017114300814049983,-0.01128554516329659,-1.074116844107079
13804,13.0,299.80356,44097.032,0.0,-0.06901962093566194,-0.06901871906034274,0.0,0.0,0.0,-3.283535234309697,-5.170250084963954,-4.950611305837295,0.0018245971479737182,-0.005814624763533785,-1.0685060730033389
13805,13.0,299.79152,44204.523,0.0,-0.0690246354244003,-0.06902372127052991,0.0,0.0,0.0,-3.3001416941736266,-5.168123374329065,-4.968806035232975,-0.0014377153603414585,-0.0006066890094555434,-1.0627186924071688
13806,13.0,299.95392999999996,44218.884000000005,0.0,-0.06902961692308118,-0.06902872348071687,0.0,0.0,0.0,-3.295448725010467,-5.181527153276916,-4.964460610854116,0.0005520619607892735,0.0028834831205526274,-1.065189401451009
13807,13.0,299.9752,44179.255999999994,0.0,-0.06903463141181965,-0.06903372569090405,0.0,0.0,0.0,-3.2906764183644763,-5.177971253375975,-4.960742996237215,-0.008470765060474422,-0.0004884670103904405,-1.0691693465187988
13808,13.0,299.82057000000003,44141.206,0.0,-0.06903961291050054,-0.06903869499181359,0.0,0.0,0.0,-3.2888880319379767,-5.167455439863145,-4.961480946285045,-0.009775534104345101,-1.4042162987853586e-05,-1.0621714360281589
13809,13.0,299.94478,44118.079000000005,0.0,-0.06904462739923878,-0.06904369720200054,0.0,0.0,0.0,-3.286520978379367,-5.174325579516174,-4.949947930996825,-0.009666631807447281,0.0022894788269789677,-1.066349066190459
13810,13.0,299.90983,44140.939000000006,0.0,-0.06904964188797735,-0.06904869941218772,0.0,0.0,0.0,-3.292826129776637,-5.165809009775655,-4.959108218525875,-0.0034004170783950363,0.002213913572946258,-1.0676980060485888
13811,13.0,300.03806000000003,44174.316,0.0,-0.06905462338665835,-0.06905370162237467,0.0,0.0,0.0,-3.300309792365217,-5.173725938106995,-4.953853402182265,0.0015727134069397285,-0.0012533011063661887,-1.065484459880129
13812,13.0,299.91705,44092.96599999999,0.0,-0.0690596378753967,-0.06905870383256174,0.0,0.0,0.0,-3.285895093792597,-5.167771472569335,-4.949493994952025,0.0037655880574596064,0.001920670989330468,-1.071522113250999
13813,13.0,300.0326,44123.210999999996,0.0,-0.0690646193740776,-0.06906370604274881,0.0,0.0,0.0,-3.291920993462307,-5.167539032996395,-4.952894360962616,0.008412825089281192,0.0009191313551087022,-1.064488232381809
13814,13.0,300.07561,44270.634000000005,0.0,-0.06906963386281606,-0.06906870825293587,0.0,0.0,0.0,-3.3068121222319466,-5.183206412667645,-4.967148864694425,0.007653807646697003,0.002126444960713778,-1.068919783019169
13815,13.0,299.95511,44345.825999999994,0.0,-0.06907461536149684,-0.06907371046312305,0.0,0.0,0.0,-3.3094124259635764,-5.188136381029195,-4.982475083057005,0.0006618993051443753,-0.007135461319540203,-1.062921139777149
13816,13.0,300.09132,44229.124,0.0,-0.0690796298502353,-0.06907871267331023,0.0,0.0,0.0,-3.2939609698886367,-5.181653910864425,-4.968934515345655,0.003525538672293577,-0.0025436071196344775,-1.069301879631879
13817,13.0,300.01912000000004,44188.46599999999,0.0,-0.06908464433897377,-0.06908371488349718,0.0,0.0,0.0,-3.295601624450557,-5.182286077601815,-4.954302677276605,-0.005990912447732024,0.0034790378894293066,-1.0672461978289989
13818,13.0,299.98412,44210.941,0.0,-0.06908962583765443,-0.06908871709368436,0.0,0.0,0.0,-3.300535544487497,-5.175869570018555,-4.962616900972154,-0.003945762771691466,0.005056115567199756,-1.0704143269166688
13819,13.0,300.25275,44194.515999999996,0.0,-0.06909464032639301,-0.06909371930387131,0.0,0.0,0.0,-3.295999831739857,-5.1836609566625045,-4.9543683358830855,-0.004619898226898456,-0.0025711341864261875,-1.070639065788849
13820,13.0,300.17727,44163.96599999999,0.0,-0.0690996218250739,-0.06909872151405849,0.0,0.0,0.0,-3.285008702605117,-5.182056880429195,-4.957677509384675,-0.0008686446287360502,0.0033316307715063566,-1.071874926935819
13821,13.0,300.08655,44176.297999999995,0.0,-0.06910463631381214,-0.06910372372424567,0.0,0.0,0.0,-3.292403300509907,-5.1795151425533446,-4.956572965450666,0.0033482512142216665,-0.0013136709526242287,-1.067676322496449
13822,13.0,299.95729,44165.844000000005,0.0,-0.06910961781249303,-0.06910869302515499,0.0,0.0,0.0,-3.291978242092957,-5.181082235158005,-4.952253378949354,0.0049950832580263355,0.001086553070534439,-1.070563781306419
13823,13.0,299.69977,44233.577000000005,0.0,-0.0691146323012316,-0.06911369523534217,0.0,0.0,0.0,-3.3056707973193067,-5.1818468336834655,-4.9583851632545155,0.0033995286607073566,-0.006798417960601614,-1.069134592040369
13824,13.0,300.10139,44313.347,0.0,-0.0691196137999125,-0.06911869744552934,0.0,0.0,0.0,-3.306065255583237,-5.192995523208754,-4.971090306258415,0.005339279149420824,-0.002903355792113907,-1.0680270083560592
13825,13.0,300.10747000000003,44248.802,0.0,-0.06912462828865096,-0.0691236996557163,0.0,0.0,0.0,-3.3052038916732265,-5.180849086309995,-4.964477937430825,0.0036988847901265063,0.004644110851288056,-1.069481022249559
13826,13.0,299.98102,44246.119000000006,0.0,-0.0691296427773892,-0.06912870186590347,0.0,0.0,0.0,-3.295738007914017,-5.1812284471474355,-4.972748996672115,3.716920743231517e-05,0.0033226744512224373,-1.068811365258469
13827,13.0,299.93532000000005,44309.958,0.0,-0.06913462427607031,-0.06913370407609054,0.0,0.0,0.0,-3.3095387782510466,-5.183673824938775,-4.975908006508885,-0.001050783315504239,-0.002363668391350908,-1.069112097888149
13828,13.0,299.71508,44293.902,0.0,-0.06913963876480866,-0.0691387062862775,0.0,0.0,0.0,-3.3040777655120865,-5.180041424655285,-4.980120999099675,-0.005095941869005305,0.0025798823851395673,-1.067660009169839
13829,13.0,299.97269,44229.342000000004,0.0,-0.06914462026348955,-0.06914370849646467,0.0,0.0,0.0,-3.295770431917217,-5.183480902119736,-4.965364125968286,0.0013415470840753888,0.005354266030324915,-1.0725477250022188
13830,13.0,300.19178999999997,44244.032999999996,0.0,-0.06914963475222802,-0.06914871070665163,0.0,0.0,0.0,-3.299052045016087,-5.1859656953399655,-4.964063416814915,-0.004842277340920566,0.003921657450487457,-1.068811770558509
13831,13.0,299.97206,44257.731,0.0,-0.06915461625090868,-0.0691537129168388,0.0,0.0,0.0,-3.3031502363705467,-5.184929140487665,-4.965165731598705,-0.004522389116775056,-0.006027081524626634,-1.0692724953789792
13832,13.0,300.07091,44281.359000000004,0.0,-0.06915963073964726,-0.06915871512702576,0.0,0.0,0.0,-3.296244126338967,-5.195505749006495,-4.968677555120295,-0.0024555334957672877,-0.005230869494721625,-1.065557413887329
13833,13.0,300.12754,44331.508,0.0,-0.06916461223832815,-0.06916371733721294,0.0,0.0,0.0,-3.3007319123568766,-5.196802709134495,-4.9781367514288455,0.0022457404678623274,0.0002385410306696668,-1.072321060954849
13834,13.0,299.9887,44333.678,0.0,-0.06916962672706639,-0.06916871954740011,0.0,0.0,0.0,-3.3053797918905867,-5.194422078024545,-4.976529128820185,0.006488733367613124,-0.002115972311655208,-1.0666854652236593
13835,13.0,300.21487,44296.947,0.0,-0.06917464121580486,-0.06917372175758707,0.0,0.0,0.0,-3.304067835661107,-5.191104494547124,-4.969993260375145,0.0057625107777655345,-0.0056641179109049155,-1.0747803202725592
13836,13.0,300.17327,44311.502,0.0,-0.06917962271448586,-0.06917869105849661,0.0,0.0,0.0,-3.302641078195297,-5.186735866740975,-4.980213204858775,0.0041551023701766766,0.003351777020594637,-1.068150016918199
13837,13.0,299.99048999999997,44347.185999999994,0.0,-0.0691846372032241,-0.06918369326868379,0.0,0.0,0.0,-3.3088684119848866,-5.196055031885705,-4.975513750894975,0.001892308700481328,0.004268701689238055,-1.076898924906649
13838,13.0,300.01619,44327.066,0.0,-0.06918961870190521,-0.06918869547887074,0.0,0.0,0.0,-3.3023272746393264,-5.189751096388555,-4.982242846134086,-0.004415313709807535,0.009977507273278301,-1.073771832448029
13839,13.0,300.04005,44291.629,0.0,-0.06919463319064345,-0.06919369768905792,0.0,0.0,0.0,-3.303137368094277,-5.188039818294666,-4.972372168959925,-0.008662928144589441,-0.0020596485756964877,-1.0731910374907092
13840,13.0,300.00293999999997,44277.578,0.0,-0.06919961468932456,-0.06919869989924499,0.0,0.0,0.0,-3.3036729720971367,-5.1832690315238255,-4.972335894606346,-0.011055781583870689,0.0025867475598671075,-1.071948894193119
13841,13.0,299.86286,44310.742,0.0,-0.06920462917806292,-0.06920370210943216,0.0,0.0,0.0,-3.3097682793986967,-5.186006731969015,-4.973583914754515,-0.007964371740772294,-0.001127729122798199,-1.0634101342754092
13842,13.0,300.10267000000005,44376.352999999996,0.0,-0.06920964366680116,-0.06920870431961912,0.0,0.0,0.0,-3.308490267047567,-5.203182537064135,-4.977630531678885,0.0017794573626437682,-0.002967189332513787,-1.074312198726359
13843,13.0,300.19753,44417.468,0.0,-0.06921462516548227,-0.06921370652980607,0.0,0.0,0.0,-3.3198483953685267,-5.197244283528075,-4.984708286277405,-0.002308284748834968,-0.012639879564958989,-1.060062355945009
13844,13.0,300.25622000000004,44399.064000000006,0.0,-0.06921963965422062,-0.06921870873999325,0.0,0.0,0.0,-3.310538248149687,-5.204064571276185,-4.981603890621025,0.006292768771772925,-0.005311199557349585,-1.076204139313079
13845,13.0,300.32492,44346.768,0.0,-0.06922462115290151,-0.0692237109501802,0.0,0.0,0.0,-3.3058313974601568,-5.199928484367986,-4.974550150049875,0.004268123630056006,0.0008683738275143242,-1.0693712872637289
13846,13.0,300.36285,44373.10400000001,0.0,-0.06922963564163997,-0.06922871316036738,0.0,0.0,0.0,-3.304073712511687,-5.200043386929325,-4.984198621477105,0.004839193311591196,0.002223187648461538,-1.079297389218359
13847,13.0,300.3161,44408.069,0.0,-0.06923461714032064,-0.06923371537055456,0.0,0.0,0.0,-3.308665863289897,-5.202840261180354,-4.987437982046805,0.0014424500754087386,-0.006932487464808243,-1.0694821368246687
13848,13.0,300.14002,44335.195999999996,0.0,-0.0692396316290591,-0.06923871758074152,0.0,0.0,0.0,-3.304054764734817,-5.193200199728954,-4.979537671017105,-0.003110380722070677,0.0004263631791037696,-1.0801958380820291
13849,13.0,299.80675,44327.899000000005,0.0,-0.06924461312774,-0.06924371979092869,0.0,0.0,0.0,-3.304205131049657,-5.193140620623074,-4.9772284740392045,-0.0023988730568003376,0.004744528901123545,-1.072213251144209
13850,13.0,299.92958,44364.794,0.0,-0.06924962761647835,-0.06924872200111576,0.0,0.0,0.0,-3.307925785416857,-5.197551602283404,-4.9803123007185555,-0.004905512455811386,0.00026930166224050473,-1.078561161695699
13851,13.0,300.01126,44401.785,0.0,-0.06925464210521681,-0.06925369130202519,0.0,0.0,0.0,-3.309996159346187,-5.200750128874074,-4.986287639208276,-0.008847308049386321,-0.0040301533327701655,-1.071572471780969
13852,13.0,299.96603,44380.960999999996,0.0,-0.0692596236038977,-0.06925869351221237,0.0,0.0,0.0,-3.312145364133297,-5.199795444629855,-4.978762939990646,-0.0012801244709634487,-0.006365307954381984,-1.0771032974518189
13853,13.0,300.1301,44418.397000000004,0.0,-0.06926463809263605,-0.06926369572239943,0.0,0.0,0.0,-3.3149204535071766,-5.203270081872775,-4.983893126571955,0.002691237456554458,-0.0029167089085567577,-1.070844552909129
13854,13.0,300.01304,44428.41099999999,0.0,-0.06926961959131717,-0.06926869793258661,0.0,0.0,0.0,-3.317826758769007,-5.207667485981766,-4.979633423151554,0.0023060035175598275,-0.010023327861350441,-1.0731067350823889
13855,13.0,300.1036,44444.081,0.0,-0.06927463408005541,-0.06927370014277379,0.0,0.0,0.0,-3.3149760809376674,-5.2117417646338655,-4.9831731110508946,4.5908693208085255e-05,-0.010619688873331689,-1.075356758254449
13856,13.0,300.24756,44452.849,0.0,-0.06927961557873652,-0.06927870235296074,0.0,0.0,0.0,-3.3163852078517366,-5.208131554527566,-4.9880393459811545,0.0023671491080944278,0.0057076350775247245,-1.0743242564025488
13857,13.0,300.2088,44424.17,0.0,-0.06928463006747476,-0.06928370456314792,0.0,0.0,0.0,-3.316112643574837,-5.201704610468275,-4.986021053106965,0.0028302291270968674,0.013746070030381486,-1.0682612717791788
13858,13.0,300.18425,44367.215,0.0,-0.06928961156615576,-0.06928870677333487,0.0,0.0,0.0,-3.304702535523747,-5.202026317375025,-4.979796657742665,0.0006165874496824434,0.004444721064809816,-1.0777468125903291
13859,13.0,300.13216,44401.902,0.0,-0.06929462605489423,-0.06929370898352183,0.0,0.0,0.0,-3.312805800548477,-5.197577440160955,-4.986686251797615,-0.0028180228071171976,-0.0025361509161236076,-1.0696295647142189
13860,13.0,300.02369,44451.884000000005,0.0,-0.06929964054363247,-0.069298711193709,0.0,0.0,0.0,-3.3157766498416765,-5.204131040482745,-4.992355183457095,0.0017417890809011984,0.003231926657691327,-1.071645729763199
13861,13.0,300.00982,44428.468,0.0,-0.06930462204231336,-0.06930371340389596,0.0,0.0,0.0,-3.3190134772861266,-5.1998319216334545,-4.986299494234445,0.001429839164664139,0.003084415478983107,-1.072091154507159
13862,13.0,299.92847,44412.488,0.0,-0.06930963653105193,-0.06930871561408314,0.0,0.0,0.0,-3.307753634224867,-5.208076940347175,-4.984456594952566,-0.002903233695476857,-0.0006885590602479884,-1.075151473784189
13863,13.0,299.88782000000003,44427.672,0.0,-0.0693146180297326,-0.0693137178242702,0.0,0.0,0.0,-3.317728980134357,-5.206840775225174,-4.980333173670616,-0.00923459088140816,-0.0008746860615297933,-1.0784237649821389
13864,13.0,299.94284,44510.782999999996,0.0,-0.06931963251847106,-0.06931872003445738,0.0,0.0,0.0,-3.310462963667257,-5.220912691288966,-4.998790841467245,0.0003211503892650757,0.0006451561071794503,-1.0761189249796688
13865,13.0,300.0014,44495.15900000001,0.0,-0.06932461401715195,-0.06932368933536681,0.0,0.0,0.0,-3.319870180245677,-5.2134142352489246,-4.992132977710165,0.005233255901357145,-4.557224452563036e-05,-1.079427186556169
13866,13.0,300.23658,44464.723,0.0,-0.0693296285058903,-0.06932869154555388,0.0,0.0,0.0,-3.311058349426017,-5.213441896976655,-4.991665160138996,0.0018721258730644383,-0.01036632872557699,-1.076438808036239
13867,13.0,300.24962999999997,44415.145,0.0,-0.06933464299462877,-0.06933369375574105,0.0,0.0,0.0,-3.3064988253010266,-5.207104220251175,-4.9874918869521245,0.004697085086391206,-0.006816644506050433,-1.0793876698022689
13868,13.0,299.86321,44424.795,0.0,-0.06933962449330966,-0.06933869596592823,0.0,0.0,0.0,-3.3083207503058367,-5.204564002250475,-4.9911437416375355,0.0022280466893160877,0.006035311648563885,-1.0750697045011188
13869,13.0,300.10103,44521.157999999996,0.0,-0.06934463898204801,-0.06934369817611519,0.0,0.0,0.0,-3.327576656531247,-5.206166153308595,-4.999577427519875,0.0007576901457481952,0.01012790580947148,-1.072851497382199
13870,13.0,299.8431,44481.2,0.0,-0.06934962048072901,-0.06934870038630236,0.0,0.0,0.0,-3.316044350518097,-5.206693752635665,-4.998435899957215,-0.007732657148278842,-0.0025925628048410277,-1.068859089338179
13871,13.0,300.03325,44433.767,0.0,-0.06935463496946759,-0.06935370259648932,0.0,0.0,0.0,-3.313201272062507,-5.207939746283635,-4.985614537166845,-0.003613963387320416,0.007331455704933343,-1.073815300877319
13872,13.0,299.90677,44521.404,0.0,-0.06935961646814848,-0.0693587048066765,0.0,0.0,0.0,-3.328657895712957,-5.210150151376785,-4.994586968127355,-0.0054134731720932045,0.0027675005359310374,-1.071864794434819
13873,13.0,299.98117,44615.151,0.0,-0.06936463095688672,-0.06936370701686345,0.0,0.0,0.0,-3.3350548475692863,-5.225504538092145,-5.001332275368065,0.00028829915929291176,-0.003542862107928267,-1.075911614009209
13874,13.0,299.87645,44548.912000000004,0.0,-0.06936961245556761,-0.06936870922705052,0.0,0.0,0.0,-3.327438145242577,-5.219265247951375,-4.995053468473395,-0.004071237584574866,-0.012060882113316388,-1.0801882387062791
13875,13.0,300.18232,44477.129,0.0,-0.06937462694430618,-0.0693737114372377,0.0,0.0,0.0,-3.311758505245117,-5.218503790501225,-4.989674326342516,0.005014896755781775,-0.0035757542326744665,-1.079501255138479
13876,13.0,300.04237,44476.740999999995,0.0,-0.06937964143304443,-0.06937871364742465,0.0,0.0,0.0,-3.308125800986597,-5.217062340908965,-4.994630537881655,0.007987470701976982,0.004312197374955746,-1.0793155263951488
13877,13.0,300.30737,44559.545,0.0,-0.06938462293172531,-0.06938371585761183,0.0,0.0,0.0,-3.3235337886322465,-5.219001296300324,-5.002453841903755,0.0015337583988951687,0.0007273180955907072,-1.070933313617889
13878,13.0,300.30475,44556.337999999996,0.0,-0.06938963742046378,-0.069388718067799,0.0,0.0,0.0,-3.329386118559827,-5.215661725295735,-4.998966235059555,0.004279080207362336,-0.009963910774161429,-1.078445955159329
13879,13.0,300.10495,44486.861,0.0,-0.06939461891914456,-0.06939368736870832,0.0,0.0,0.0,-3.314283321844297,-5.212394196373254,-4.996217490188275,-0.0009673400318115281,0.0018339574510725083,-1.073853703056109
13880,13.0,300.15288,44474.192,0.0,-0.06939963340788302,-0.0693986895788955,0.0,0.0,0.0,-3.3149435556094566,-5.214268810383266,-4.989831684083045,0.005080982548503935,0.007064610718222793,-1.080799329841589
13881,13.0,300.10799,44561.212,0.0,-0.06940461490656391,-0.06940369178908268,0.0,0.0,0.0,-3.3191838046279365,-5.219871678136225,-5.006440373097195,-0.004916758518671285,0.004521051423993036,-1.073616197232669
13882,13.0,300.05778,44639.871,0.0,-0.06940962939530226,-0.06940869399926963,0.0,0.0,0.0,-3.330631504257737,-5.228785745890975,-5.009988774947395,-0.005514000450289475,-0.0027930429497518773,-1.087472696325199
13883,13.0,300.05406,44563.774000000005,0.0,-0.06941461089398326,-0.06941369620945681,0.0,0.0,0.0,-3.327171559141267,-5.220631311736195,-4.998471667685745,-0.001346755493564419,0.002139194484072058,-1.072907124812689
13884,13.0,299.87419,44479.955,0.0,-0.06941962538272184,-0.06941869841964377,0.0,0.0,0.0,-3.317197530456907,-5.215673478996895,-4.987924544744825,0.0032093903542671667,0.0027948518038303977,-1.0845463287113888
13885,13.0,299.90288,44557.268,0.0,-0.06942463987146008,-0.06942370062983094,0.0,0.0,0.0,-3.319091497543827,-5.222988638093845,-5.002216842705366,-0.0005364748406584444,-0.002379214586310198,-1.073405542536879
13886,13.0,299.90365,44631.899000000005,0.0,-0.06942962137014097,-0.06942870284001812,0.0,0.0,0.0,-3.335476055635857,-5.225798988571205,-5.005707691949885,-0.002357289272696338,-0.01198228835605979,-1.079078932496799
13887,13.0,299.88252,44631.99,0.0,-0.06943463585887943,-0.06943370505020507,0.0,0.0,0.0,-3.319007296460517,-5.230328925793275,-5.017674276955895,0.002599389577389777,0.005766375718946975,-1.0734267194639688
13888,13.0,300.01687000000004,44535.885,0.0,-0.06943961735756032,-0.06943870726039214,0.0,0.0,0.0,-3.317657444677297,-5.218591031334835,-5.001548604264416,0.0016097233800923285,0.006677173466885714,-1.0703110767314792
13889,13.0,300.03021,44537.001,0.0,-0.06944463184629868,-0.06944370947057932,0.0,0.0,0.0,-3.322837685813547,-5.219717258820985,-4.995581270450486,-0.0009293078007655389,0.006455838912391694,-1.0713755972865389
13890,13.0,300.15015,44597.497,0.0,-0.06944961334497957,-0.06944871168076627,0.0,0.0,0.0,-3.329488659469947,-5.223153595210125,-5.003883233819825,-0.003870885007851606,-0.0018709416876725685,-1.078548496069449
13891,13.0,300.12056,44660.528,0.0,-0.06945462783371803,-0.06945371389095345,0.0,0.0,0.0,-3.337596180145097,-5.229810648367125,-5.008278408778596,0.0037156901509850667,0.005311593610313474,-1.079727412560799
13892,13.0,300.15301,44601.33900000001,0.0,-0.06945964232245638,-0.0694587161011404,0.0,0.0,0.0,-3.328640974436287,-5.2237007502641255,-5.005351534539735,-6.781125834395013e-05,-0.0004941084829722106,-1.0820309353381388
13893,13.0,300.10945,44513.21599999999,0.0,-0.06946462382113727,-0.06946368540204995,0.0,0.0,0.0,-3.308679744816267,-5.223375091681985,-4.998851231173205,-0.00010330986562088989,-0.006376925576053554,-1.0922503731967188
13894,13.0,299.81012000000004,44575.049000000006,0.0,-0.06946963830987574,-0.06946868761223712,0.0,0.0,0.0,-3.3233353942626667,-5.225227819489835,-5.001138643273954,-0.005888550477579684,-0.01029121244266359,-1.0829681916806388
13895,13.0,299.78047999999995,44702.047999999995,0.0,-0.06947461980855651,-0.06947368982242408,0.0,0.0,0.0,-3.349322624877407,-5.226619214527155,-5.012364542456866,-0.00038054017949639167,-0.0011850638797066989,-1.081402011001069
13896,13.0,299.9834,44648.070999999996,0.0,-0.06947963429729498,-0.06947869203261126,0.0,0.0,0.0,-3.3288197117539267,-5.229341006945775,-5.013738002967415,0.005723534795443905,-0.005368666644721146,-1.075076493276789
13897,13.0,299.99752,44529.837,0.0,-0.06948461579597609,-0.06948369424279821,0.0,0.0,0.0,-3.319668239500747,-5.2175403923061445,-4.998749804838195,0.0061916315170164535,-0.002340471043561508,-1.0800002808127291
13898,13.0,300.04386,44641.985,0.0,-0.06948963028471433,-0.06948869645298539,0.0,0.0,0.0,-3.3244101486437363,-5.231031209437585,-5.014607472878225,-0.0006121567400426665,-0.0036315976880857866,-1.0701843191439688
13899,13.0,299.92206,44720.852,0.0,-0.06949461178339522,-0.06949369866317257,0.0,0.0,0.0,-3.337223304108297,-5.235845869937755,-5.020953255604504,-0.002134200174329158,0.006280528811889933,-1.078501987889859
13900,13.0,299.9543,44700.609000000004,0.0,-0.06949962627213369,-0.06949870087335952,0.0,0.0,0.0,-3.341884457218317,-5.230256275761104,-5.015728127488825,-0.0064981841539458445,0.007569143204116273,-1.066901084844939
13901,13.0,300.23843999999997,44613.399000000005,0.0,-0.06950464076087204,-0.0695037030835467,0.0,0.0,0.0,-3.3317898517720566,-5.2290852626205355,-5.000484185034366,-0.0002647934491005787,0.007942763270464703,-1.0854248165480889
13902,13.0,300.03792000000004,44605.477999999996,0.0,-0.06950962225955293,-0.06950870529373376,0.0,0.0,0.0,-3.3203154023396166,-5.228598902572535,-5.010037309627186,-0.0014759821689180987,0.0014245142314136085,-1.075403165109029
13903,13.0,300.17987999999997,44663.545999999995,0.0,-0.06951463674829139,-0.06951370750392094,0.0,0.0,0.0,-3.3320514729478767,-5.234365207566625,-5.010186054741866,0.002514021736589628,0.0035902867722337165,-1.092049648351909
13904,13.0,300.30962999999997,44749.278,0.0,-0.06951961824697228,-0.0695187097141079,0.0,0.0,0.0,-3.336655782727287,-5.239567740205075,-5.026439700920975,0.0030066856187617673,-0.004466482333232486,-1.0774947159654489
13905,13.0,300.13718,44663.272000000004,0.0,-0.06952463273571063,-0.06952371192429485,0.0,0.0,0.0,-3.320803991537837,-5.2384454643943155,-5.017269990165995,0.001990941302315608,-0.005893973898739934,-1.0893311996586188
13906,13.0,300.10369,44561.889,0.0,-0.06952961423439152,-0.06952871413448203,0.0,0.0,0.0,-3.324758200053087,-5.223249549994595,-4.9976937955839755,0.0026621081373796175,-0.002591450762856277,-1.071983243371509
13907,13.0,299.92932,44668.34,0.0,-0.06953462872312999,-0.06953371634466898,0.0,0.0,0.0,-3.3275622683798267,-5.235352011839015,-5.015145711331345,0.001058215201012709,0.005991180655033494,-1.082241286058899
13908,13.0,299.9317,44757.032999999996,0.0,-0.06953961022181065,-0.06953868564557875,0.0,0.0,0.0,-3.3457204194468972,-5.234814381335955,-5.024485445453105,-0.005051612075805296,0.0018858802365468883,-1.070284124278819
13909,13.0,300.02218999999997,44696.054000000004,0.0,-0.06954462471054923,-0.0695436878557657,0.0,0.0,0.0,-3.3292719252735568,-5.238441411393915,-5.018771018864135,-0.0035774234608892067,0.001833839407435858,-1.083341979642529
13910,13.0,299.9043,44640.52,0.0,-0.0695496391992877,-0.06954869006595266,0.0,0.0,0.0,-3.3195587071649366,-5.231884467346795,-5.018160333028866,-0.0025520067603134575,5.652026493486585e-05,-1.081539914339679
13911,13.0,299.96351,44727.633,0.0,-0.06955462069796858,-0.06955369227613983,0.0,0.0,0.0,-3.3329109116826965,-5.243621247230125,-5.019551525416165,-0.0033972603990334973,0.006703205989779924,-1.086700802399019
13912,13.0,300.08117000000004,44765.581,0.0,-0.06955963518670694,-0.06955869448632701,0.0,0.0,0.0,-3.355834479295077,-5.235427397646454,-5.016357051825895,-0.006284730456079604,0.0025284681498903777,-1.080162198178709
13913,13.0,300.03949,44727.018,0.0,-0.06956461668538794,-0.06956369669651397,0.0,0.0,0.0,-3.336398417201887,-5.239892182887095,-5.0196060382715455,-0.0025300366610451776,0.002135782668335338,-1.084674403524029
13914,13.0,300.2317,44708.019,0.0,-0.06956963117412629,-0.06956869890670114,0.0,0.0,0.0,-3.3394301628260967,-5.2371418168156545,-5.013549437123805,0.006549175559928304,0.0026511009988932975,-1.082946913428539
13915,13.0,300.29996,44706.845,0.0,-0.06957461267280718,-0.06957370111688821,0.0,0.0,0.0,-3.3312121978900464,-5.234766150631195,-5.023786201559096,0.007939062577124472,0.0011960848997193889,-1.075299712273819
13916,13.0,300.17564,44745.882000000005,0.0,-0.06957962716154564,-0.06957870332707539,0.0,0.0,0.0,-3.3384227895766765,-5.242513866195836,-5.0206939649039155,0.002103918080515548,-0.01022793801366889,-1.084865603817899
13917,13.0,299.96519,44791.782,0.0,-0.069584641650284,-0.06958370553726256,0.0,0.0,0.0,-3.3469285175411265,-5.243945892562166,-5.024708968425165,0.00017774554844211983,-0.007945713854755903,-1.081479625958729
13918,13.0,299.83997999999997,44749.056,0.0,-0.06958962314896489,-0.06958870774744952,0.0,0.0,0.0,-3.348147254761407,-5.2410832583796445,-5.013365025605605,0.003891674569428376,-5.630377898475035e-05,-1.0802891584162388
13919,13.0,299.81177,44688.877,0.0,-0.06959463763770335,-0.06959370995763647,0.0,0.0,0.0,-3.3252712085787173,-5.2468555415493245,-5.012175875288245,0.0018665396226131184,0.005205172762910555,-1.084861550817499
13920,13.0,299.88842,44740.988,0.0,-0.06959961913638424,-0.06959871216782365,0.0,0.0,0.0,-3.3416542467955965,-5.238975394196616,-5.019513427212405,-0.005636073985237195,0.003213478007820587,-1.080536999390699
13921,13.0,299.91900000000004,44780.999,0.0,-0.06960463362512259,-0.0696037143780106,0.0,0.0,0.0,-3.330636975808277,-5.249093608370204,-5.032574828951466,-0.007593141830084752,-0.00019736581940348982,-1.0878313868605989
13922,13.0,299.91253,44727.765999999996,0.0,-0.06960961512380348,-0.06960868367892037,0.0,0.0,0.0,-3.325149314591687,-5.247374629575555,-5.023600067515725,-0.0038319373965327763,0.0021153540264441883,-1.0822081527806289
13923,13.0,300.14827,44701.062999999995,0.0,-0.06961462961254195,-0.06961368588910732,0.0,0.0,0.0,-3.331628339706117,-5.239627015335925,-5.016751510089826,0.001203850245835769,-0.0005207868818776635,-1.0883479417615791
13924,13.0,300.10095,44742.145,0.0,-0.06961961111122283,-0.06961868809929428,0.0,0.0,0.0,-3.3439170369189166,-5.238301177580075,-5.018276552815336,0.005335758713273385,-0.009214872730487132,-1.082702720154439
13925,13.0,300.04056,44803.943,0.0,-0.06962462559996119,-0.06962369030948146,0.0,0.0,0.0,-3.345927831742367,-5.246912688854965,-5.026439295620936,0.007197169365205313,-0.006908862018851593,-1.090873872935869
13926,13.0,299.93117,44831.512,0.0,-0.06962964008869965,-0.06962869251966852,0.0,0.0,0.0,-3.354927924430607,-5.244213390588565,-5.028518890126175,0.007631397999535342,0.001140130898722159,-1.077103500101839
13927,13.0,300.01805,44814.47,0.0,-0.06963462158738054,-0.06963369472985559,0.0,0.0,0.0,-3.336668448353537,-5.251775985359935,-5.034035530295625,0.005309064132763835,0.0023923409373806676,-1.084049734837379
13928,13.0,299.94465,44782.975,0.0,-0.06963963607611878,-0.06963869694004265,0.0,0.0,0.0,-3.335549110968067,-5.244817388973175,-5.032539871823015,-0.002015409164405398,-0.0004532326668455816,-1.079752845138309
13929,13.0,300.23233999999997,44803.124,0.0,-0.0696446175747999,-0.06964369915022983,0.0,0.0,0.0,-3.3506663971600266,-5.246559875170145,-5.021804790988545,-0.002926715867869367,-0.0027667653216584772,-1.0858942553194189
13930,13.0,300.04117,44862.223,0.0,-0.06964963206353825,-0.06964870136041701,0.0,0.0,0.0,-3.350067971650967,-5.2520122752832545,-5.034915436682465,-0.004639810009913595,0.003021631564361817,-1.074293858899549
13931,13.0,300.09491,44797.513,0.0,-0.06965461356221914,-0.06965370357060396,0.0,0.0,0.0,-3.340448783151627,-5.251526725835336,-5.025349849113415,-0.0007368683628182453,0.006343127909692984,-1.082506048310029
13932,13.0,300.00074,44745.490999999995,0.0,-0.0696596280509576,-0.06965870578079114,0.0,0.0,0.0,-3.326821785206747,-5.245551286020604,-5.029138796537355,-0.0016010769116889883,0.0004845497753713395,-1.077362182852369
13933,13.0,300.02423999999996,44806.2,0.0,-0.06966460954963849,-0.0696637079909781,0.0,0.0,0.0,-3.3324473497619467,-5.252534909684836,-5.034983831064215,-0.0017661935135347285,0.004701034329980965,-1.0846608259726889
13934,13.0,300.01147000000003,44863.212,0.0,-0.06966962403837684,-0.06966871020116527,0.0,0.0,0.0,-3.348527324873917,-5.2558631322883045,-5.032905655109116,-0.003511062368114877,0.0030659644986371372,-1.079237404812439
13935,13.0,299.9718,44824.858,0.0,-0.0696746385271153,-0.06967371241135223,0.0,0.0,0.0,-3.350062601425437,-5.251197926177886,-5.024377129017415,2.6223766757834274e-05,0.0015645359720076783,-1.091352025658059
13936,13.0,299.80915,44826.732,0.0,-0.0696796200257962,-0.06967868171226177,0.0,0.0,0.0,-3.342069679336597,-5.258328471106616,-5.025808952733725,-0.007415703397747942,-0.008581079625361622,-1.0894185418172389
13937,13.0,299.77709,44808.887,0.0,-0.06968463451453444,-0.06968368392244895,0.0,0.0,0.0,-3.348226288269207,-5.247230646736345,-5.025325936411055,0.004153662947084616,-0.00981776991488845,-1.094608104854409
13938,13.0,299.93279,44863.939000000006,0.0,-0.06968961601321533,-0.06968868613263612,0.0,0.0,0.0,-3.345370949487407,-5.254088526063165,-5.038057525242566,0.0006484266049247234,-0.001109793278803069,-1.0854718313527292
13939,13.0,299.91062,44859.46400000001,0.0,-0.0696946305019539,-0.06969368834282308,0.0,0.0,0.0,-3.3360193603394763,-5.259336857606135,-5.040800899888316,0.005934853676674455,0.0030619664163925573,-1.095879125779849
13940,13.0,299.93625,44821.278,0.0,-0.06969961200063479,-0.06969869055301015,0.0,0.0,0.0,-3.343829796085307,-5.251583366515925,-5.029136263412105,0.0025020734914104276,-0.0023527354227719077,-1.080909976752509
13941,13.0,299.99341,44811.067,0.0,-0.06970462648937303,-0.0697036927631971,0.0,0.0,0.0,-3.3431766550708466,-5.249724559207475,-5.028544322703686,0.004373871071442465,0.0007444357198650853,-1.087401363518159
13942,13.0,300.24253,44888.819,0.0,-0.06970964097811161,-0.06970869497338428,0.0,0.0,0.0,-3.355183871405867,-5.256005392602345,-5.033890838181345,-0.0007904394123627963,0.0010083533966392321,-1.079201434433889
13943,13.0,299.74887,44935.514,0.0,-0.0697146224767925,-0.06971369718357145,0.0,0.0,0.0,-3.3572691401116668,-5.256775969303395,-5.045229005475336,-0.003511194394602907,0.001397254257348259,-1.082120911947019
13944,13.0,300.00887,44917.029,0.0,-0.06971963696553096,-0.06971869939375841,0.0,0.0,0.0,-3.3497439342689868,-5.263434035710495,-5.040477369131385,-0.00954984409429623,0.0030122686268127673,-1.0822846531631791
13945,13.0,300.06813999999997,44888.404,0.0,-0.06972461846421185,-0.06972370160394559,0.0,0.0,0.0,-3.340253428532347,-5.265336919398295,-5.039363604621466,-0.006387078848680604,0.004744299501300905,-1.084589999790699
13946,13.0,300.01657,44868.81,0.0,-0.0697296329529501,-0.06972870381413254,0.0,0.0,0.0,-3.3604209558727267,-5.252439562850425,-5.026137347091136,-0.0035986577379348668,0.005315663228015115,-1.084043959311809
13947,13.0,299.93595,44908.39,0.0,-0.06973461445163098,-0.06973370602431972,0.0,0.0,0.0,-3.3546268878258965,-5.2617726095215245,-5.034629598829255,0.002318901786032788,-0.0012118563401759088,-1.087803725132869
13948,13.0,299.90092000000004,44898.272000000004,0.0,-0.06973962894036956,-0.0697387082345069,0.0,0.0,0.0,-3.3528138794219666,-5.260016241798185,-5.035123558253005,0.008160806282008872,-0.008461908747975373,-1.095755103967609
13949,13.0,299.81658999999996,44890.852999999996,0.0,-0.06974461043905045,-0.06974371044469385,0.0,0.0,0.0,-3.3463470133087365,-5.259597262881835,-5.039754009884995,0.007200793456837983,-0.006524474548990505,-1.081500296260769
13950,13.0,300.06863,44908.162000000004,0.0,-0.06974962492778869,-0.06974871265488092,0.0,0.0,0.0,-3.3421963355990973,-5.262973817515075,-5.045789738080675,0.008032162022812673,-0.001112983091442879,-1.095169546734819
13951,13.0,300.02011,44895.888,0.0,-0.06975463941652726,-0.06975368195579057,0.0,0.0,0.0,-3.341024917158487,-5.261055228450725,-5.045148857392425,-0.0004431052726260855,-0.0015441250619932785,-1.085903779870359
13952,13.0,300.04675,44890.962,0.0,-0.06975962091520815,-0.06975868416597752,0.0,0.0,0.0,-3.350146295883697,-5.264267737892775,-5.0313175882273855,-0.005328225401429906,0.0028324471315657675,-1.0949063043588387
13953,13.0,300.08592999999996,44935.93,0.0,-0.0697646354039464,-0.0697636863761647,0.0,0.0,0.0,-3.351595750151747,-5.267479335409735,-5.040325584266405,-0.008887064842235011,0.003870229232386887,-1.083388487822119
13954,13.0,300.06608,44910.867,0.0,-0.06976961690262728,-0.06976868858635177,0.0,0.0,0.0,-3.348636249259667,-5.263977441739125,-5.039168452652205,-0.006085975065488974,0.0049215039741896255,-1.092605517356769
13955,13.0,300.14639,44924.092000000004,0.0,-0.06977463139136575,-0.06977369079653872,0.0,0.0,0.0,-3.3492342694686865,-5.267859304197235,-5.038708538431815,0.0006312988278843434,0.0017066432852825783,-1.084828214889209
13956,13.0,299.8702,44972.742,0.0,-0.06977961289004675,-0.0697786930067259,0.0,0.0,0.0,-3.347559164403367,-5.270251790333354,-5.0527796438955255,0.004388580929769215,0.00017519544112044383,-1.090235424047859
13957,13.0,299.85393999999997,44997.29,0.0,-0.06978462737878521,-0.06978369521691286,0.0,0.0,0.0,-3.356287199439757,-5.2736818445718745,-5.048083634982065,0.004683401650415755,-0.0001787838967470968,-1.0862034992499388
13958,13.0,299.90255,44976.333,0.0,-0.0697896088774661,-0.06978869742710003,0.0,0.0,0.0,-3.3644821635985367,-5.264385680204415,-5.042814430487036,0.001993528535120948,0.0016107022810139386,-1.084115190793839
13959,13.0,299.95375,44970.051,0.0,-0.06979462336620434,-0.06979369963728699,0.0,0.0,0.0,-3.360756544305847,-5.263821502548735,-5.045194453646925,0.001180769928432919,-0.0003856555320962376,-1.088803093706499
13960,13.0,299.8968,44947.447,0.0,-0.06979963785494292,-0.06979870184747416,0.0,0.0,0.0,-3.3655500278789265,-5.2580094999751354,-5.039341921069325,0.0008419428642832912,-0.00041586769138794564,-1.087088978512329
13961,13.0,299.87984,44953.405999999995,0.0,-0.06980461935362381,-0.06980370405766134,0.0,0.0,0.0,-3.353915282280667,-5.260890676634485,-5.049907079862026,0.0006605940464980563,-0.001168746196121269,-1.086037832858589
13962,13.0,299.70937000000004,44999.898,0.0,-0.06980963384236205,-0.0698087062678483,0.0,0.0,0.0,-3.3565734425930067,-5.272140893819795,-5.050131008134125,0.0003025836754926837,-0.001070406119590859,-1.089129056263669
13963,13.0,300.04765,45008.532,0.0,-0.06981461534104294,-0.06981370847803547,0.0,0.0,0.0,-3.3614233641966567,-5.269103271345005,-5.050943128089275,-0.004352664152149506,0.0007876185240843962,-1.090671628215909
13964,13.0,300.01272,44971.886,0.0,-0.06981962982978152,-0.06981871068822254,0.0,0.0,0.0,-3.354900262702877,-5.269457604904975,-5.045972528398716,-0.0043278848169789755,0.0017938533160895382,-1.087250794553299
13965,13.0,299.91661,45009.203,0.0,-0.0698246113284624,-0.06982367998913197,0.0,0.0,0.0,-3.345709172370787,-5.279006271197355,-5.056958287307925,-0.002158792260881208,0.0007800047804479783,-1.090626842561489
13966,13.0,300.06779,45085.293,0.0,-0.06982962581720065,-0.06982868219931915,0.0,0.0,0.0,-3.363479349974567,-5.276739022773595,-5.064584818160605,-0.004675730333908655,0.001939607417799348,-1.090793522202939
13967,13.0,300.23122,45027.232,0.0,-0.06983464030593911,-0.06983368440950621,0.0,0.0,0.0,-3.3495487822997267,-5.277173403091465,-5.060432113950766,0.001051334422233629,-0.005752055252633654,-1.091804644477729
13968,13.0,299.99737000000005,44946.384000000005,0.0,-0.06983962180462,-0.06983868661969339,0.0,0.0,0.0,-3.341277824383447,-5.273330753412225,-5.047969948320845,-0.0037561637169544965,-0.011692828133742289,-1.094890193682249
13969,13.0,299.85368,44952.96400000001,0.0,-0.06984463629335835,-0.06984368882988035,0.0,0.0,0.0,-3.357364385621067,-5.265360325475604,-5.041853970717245,0.005016861954350725,-0.006328653429364463,-1.0873238498855091
13970,13.0,299.59511000000003,45003.058,0.0,-0.06984961779203946,-0.06984869104006752,0.0,0.0,0.0,-3.356485593809337,-5.277562187154835,-5.045758023352545,0.004639210368504415,-0.005022474650629655,-1.093567800976739
13971,13.0,299.74829,45044.773,0.0,-0.0698546322807777,-0.06985369325025448,0.0,0.0,0.0,-3.3652629741255966,-5.272352460440675,-5.054870688126895,0.007520780878168282,0.0026066307692294275,-1.086314247485869
13972,13.0,299.98287,45064.432,0.0,-0.0698596137794586,-0.06985869546044143,0.0,0.0,0.0,-3.3659211813905574,-5.2740572537339245,-5.058483634008465,-5.691512849883584e-05,-0.0007714707726732373,-1.091538970301509
13973,13.0,299.89616,45027.515999999996,0.0,-0.06986462826819717,-0.06986369767062861,0.0,0.0,0.0,-3.3587335904811972,-5.272389748044354,-5.056117188399915,0.0034289570913117167,0.004441060090873506,-1.085516110382099
13974,13.0,300.05351,45067.723,0.0,-0.06986960976687806,-0.06986869988081579,0.0,0.0,0.0,-3.3639403787700672,-5.279430012389175,-5.056091958472424,-0.006366660947240514,0.004066810998862996,-1.096311884897559
13975,13.0,299.89981,45094.992,0.0,-0.0698746242556163,-0.06987370209100274,0.0,0.0,0.0,-3.3751600971273668,-5.274252000403145,-5.0583396511692555,-0.0037088712817870966,0.0015145965222790386,-1.084866009117939
13976,13.0,299.81552999999997,45057.734000000004,0.0,-0.06987963874435477,-0.06987870430118992,0.0,0.0,0.0,-3.361007526355617,-5.276387424988895,-5.059031194362505,-0.009790398888612141,0.0007664832618385083,-1.090257006274989
13977,13.0,300.14756,45029.875,0.0,-0.06988462024303566,-0.06988370651137699,0.0,0.0,0.0,-3.356046147240967,-5.275818485057745,-5.056092870397515,-0.004338183592320386,0.003220107703224887,-1.083318168265179
13978,13.0,300.25863,45018.449,0.0,-0.06988963473177401,-0.06988870872156416,0.0,0.0,0.0,-3.3548024840682267,-5.276899622914445,-5.052782379670796,0.003156988200170477,0.0012886369877035688,-1.093396663034849
13979,13.0,300.14862,45102.902,0.0,-0.0698946162304549,-0.0698936780224736,0.0,0.0,0.0,-3.3588272147904368,-5.288698515028905,-5.062630258717705,0.0006054159113673985,0.00018182744673497182,-1.090290342203279
13980,13.0,300.39462000000003,45116.867,0.0,-0.06989963071919336,-0.06989868023266066,0.0,0.0,0.0,-3.3693879152826964,-5.2871938386304045,-5.0578194485679155,0.0018294472722273883,-0.003359368290343837,-1.094372220231129
13981,13.0,300.1058,45073.600999999995,0.0,-0.06990461221787425,-0.06990368244284784,0.0,0.0,0.0,-3.3624528262982567,-5.286419107603945,-5.0523772822808155,0.0010632304850326788,-0.0020646348807635984,-1.091149071663029
13982,13.0,299.99674,45082.43,0.0,-0.0699096267066126,-0.06990868465303501,0.0,0.0,0.0,-3.358701875753067,-5.287300128565895,-5.057930906078915,0.003308144647438457,0.006965005801592554,-1.102210621679719
13983,13.0,300.05993,45122.986,0.0,-0.0699146082052935,-0.06991368686322197,0.0,0.0,0.0,-3.3670870269556175,-5.286194166081745,-5.062979931327216,0.002481175816047988,0.0047438367499802354,-1.089255104576109
13984,13.0,299.94331,45094.973,0.0,-0.06991962269403196,-0.06991868907340915,0.0,0.0,0.0,-3.3613215325616066,-5.288576317066845,-5.057848022220735,-0.0015613071492390186,0.0039032598684217564,-1.100134472224819
13985,13.0,300.14217,45107.862,0.0,-0.06992463718277031,-0.0699236912835961,0.0,0.0,0.0,-3.3629179080941567,-5.2826200276790045,-5.0661259715627045,-0.005288824158041305,0.004867313332341425,-1.088101215362229
13986,13.0,300.2054,45083.829000000005,0.0,-0.06992961868145131,-0.06992869349378306,0.0,0.0,0.0,-3.3655819452570768,-5.280743995118855,-5.058032231088915,0.0025222049470472476,0.004099990987962606,-1.099914698278129
13987,13.0,299.87928,45055.193,0.0,-0.06993463317018966,-0.06993369570397023,0.0,0.0,0.0,-3.360410620721707,-5.278383223710865,-5.056859900723215,-0.001015071315729739,-8.241719368744372e-05,-1.085804684010579
13988,13.0,299.89603,45138.907,0.0,-0.06993961466887055,-0.0699386979141573,0.0,0.0,0.0,-3.3677766449736763,-5.287321710793025,-5.066002355050506,0.0013428814331320786,-0.008605652358836762,-1.0946510666586489
13989,13.0,300.00809,45185.597,0.0,-0.06994462915760902,-0.06994370012434437,0.0,0.0,0.0,-3.379205498151617,-5.281162872710195,-5.0749247314560755,-0.003925518338668496,-0.004869114485719185,-1.0761680676095189
13990,13.0,299.75728,45124.139,0.0,-0.0699496106562899,-0.06994870233453143,0.0,0.0,0.0,-3.363735600924857,-5.287506223636235,-5.065369580363055,0.004539354672474426,-0.0029597606894056373,-1.094656436884179
13991,13.0,299.9275,45125.038,0.0,-0.06995462514502826,-0.06995370454471861,0.0,0.0,0.0,-3.3650327637028767,-5.286854703821935,-5.064997312276316,0.001046423300323939,-0.002301982839838018,-1.085001683306329
13992,13.0,299.86201,45156.606,0.0,-0.06995963963376672,-0.06995870675490579,0.0,0.0,0.0,-3.380027953257787,-5.286639185525665,-5.059813423439705,0.0014398013383223284,-0.0026722107475016673,-1.0964134125575788
13993,13.0,299.95001,45181.31,0.0,-0.06996462113244761,-0.0699636760558151,0.0,0.0,0.0,-3.375803409615857,-5.288736410582645,-5.069450343815795,0.0008574746305611573,0.006414466492258555,-1.0906038417842188
13994,13.0,300.05117,45152.352999999996,0.0,-0.06996963562118597,-0.06996867826600228,0.0,0.0,0.0,-3.3683111344014263,-5.2861461380270045,-5.070730483992136,-0.0034626635651632863,0.002991165160355017,-1.0989765300105387
13995,13.0,300.13959,45107.329000000005,0.0,-0.06997461711986686,-0.06997368047618946,0.0,0.0,0.0,-3.360441119549717,-5.279596590705616,-5.071463975739525,-3.3030956221901567e-07,0.00040305093888553064,-1.090273319601599
13996,13.0,300.16006,45122.060999999994,0.0,-0.06997963160860532,-0.06997868268637641,0.0,0.0,0.0,-3.3560186881632568,-5.288243160433965,-5.071718098864605,-0.0003671388830112867,-0.0068646048756837545,-1.097011736741629
13997,13.0,300.17065,45199.871,0.0,-0.06998461310728621,-0.06998368489656359,0.0,0.0,0.0,-3.3688945638090066,-5.292946059448105,-5.077791519964005,0.005949841469503635,-0.0009608283192488721,-1.0991868807312988
13998,13.0,300.01057000000003,45202.242999999995,0.0,-0.06998962759602456,-0.06998868710675055,0.0,0.0,0.0,-3.3747890449407465,-5.294927571343665,-5.070636555707866,0.002967689776738177,-0.0007017513029724613,-1.092661448762289
13999,13.0,299.84677999999997,45169.005,0.0,-0.06999460909470556,-0.06999368931693772,0.0,0.0,0.0,-3.362383013366367,-5.299559948150845,-5.068306587102915,0.0015801592752995783,0.0006448269731494674,-1.095821573174169
14000,13.0,299.95968999999997,45167.285,0.0,-0.06999962358344392,-0.06999869152712468,0.0,0.0,0.0,-3.363403153567047,-5.299259924796235,-5.067063734530255,0.004679097971941016,-0.004025024868714026,-1.088786881704899
14001,13.0,299.83206,45219.126,0.0,-0.07000463807218227,-0.07000369373731186,0.0,0.0,0.0,-3.3732400895128767,-5.3001479371838744,-5.072097155727016,0.001014262134199879,0.0018060246789407585,-1.089996499674279
14002,13.0,299.80685,45250.102999999996,0.0,-0.07000961957086327,-0.07000869594749892,0.0,0.0,0.0,-3.3774064725990667,-5.300384328432204,-5.077110615896805,-0.0026079641050360176,0.001984499159504818,-1.090214247120769
14003,13.0,299.87071000000003,45190.007000000005,0.0,-0.07001463405960184,-0.07001369815768588,0.0,0.0,0.0,-3.380253401405037,-5.291006901406725,-5.065373329388425,-0.004557794811044326,0.002323960234507018,-1.095796140596659
14004,13.0,300.07681,45174.301,0.0,-0.07001961555828251,-0.07001870036787305,0.0,0.0,0.0,-3.3743950933018674,-5.2932610789041945,-5.064203430822965,-0.004855193341270276,0.006350942905064264,-1.095788946520949
14005,13.0,300.16702000000004,45208.692,0.0,-0.07002463004702097,-0.07002370257806023,0.0,0.0,0.0,-3.382316783908676,-5.2882852103131155,-5.0717113100889355,-0.0004782681313763895,0.007455989208473843,-1.096845665050239
14006,13.0,300.27637999999996,45251.556,0.0,-0.07002961154570186,-0.07002870478824719,0.0,0.0,0.0,-3.3802496523796672,-5.295017345302525,-5.0800760949644745,-0.0005478682199503835,0.003573636438640457,-1.096876771828309
14007,13.0,300.24433,45219.817,0.0,-0.07003462603444022,-0.07003370699843436,0.0,0.0,0.0,-3.3762311024830667,-5.293478623700665,-5.075985502985765,-0.002467010174349948,-0.002031305437274238,-1.0950343791714792
14008,13.0,299.95558,45214.622,0.0,-0.0700396075331211,-0.0700386762993439,0.0,0.0,0.0,-3.366023418325647,-5.298736074494536,-5.0793565860684655,0.003126280541314867,-0.01021346272274029,-1.094782789171649
14009,13.0,299.93174,45264.907,0.0,-0.07004462202185957,-0.07004367850953086,0.0,0.0,0.0,-3.383597532035077,-5.301554024347645,-5.074249906889475,0.0008727076805770422,0.002869324976905328,-1.094279811822009
14010,13.0,300.08004,45293.223,0.0,-0.07004963651059792,-0.07004868071971804,0.0,0.0,0.0,-3.3819338766958866,-5.304830976496055,-5.081243865704725,-0.0021849676520395178,0.0007220487695056653,-1.0903141535806289
14011,13.0,300.00086,45276.051,0.0,-0.07005461800927881,-0.07005368292990499,0.0,0.0,0.0,-3.376694765728827,-5.310322488063025,-5.0757716058896545,-0.0036051426398998766,0.0012713889378763187,-1.094244854693559
14012,13.0,299.97687,45208.692,0.0,-0.07005963249801728,-0.07005868514009217,0.0,0.0,0.0,-3.3710034412421366,-5.297987991945704,-5.073322073772905,-0.004418700396941776,-0.001971671818538858,-1.092397699761259
14013,13.0,299.8033,45193.227999999996,0.0,-0.07006461399669817,-0.07006368735027935,0.0,0.0,0.0,-3.3628902463664265,-5.302673463058125,-5.072049228997286,0.005186049693773256,-0.003728507156800007,-1.0972018224603888
14014,13.0,300.03182999999996,45216.845,0.0,-0.07006962848543641,-0.0700686895604663,0.0,0.0,0.0,-3.3685827867532367,-5.301117414879554,-5.075091512422535,0.007284153339914963,0.0025360155459102475,-1.098125298601529
14015,13.0,300.03725,45254.422999999995,0.0,-0.07007460998411752,-0.07007369177065348,0.0,0.0,0.0,-3.3782393641812667,-5.301328981500435,-5.076646142050965,-0.0014841172499959687,0.0027284562605526673,-1.107576996859339
14016,13.0,300.1638,45261.22,0.0,-0.07007962447285598,-0.07007869398084055,0.0,0.0,0.0,-3.3732380630126766,-5.303751155864485,-5.081291589784436,-0.0010062533547469741,-0.0016394711871282083,-1.1039491562012989
14017,13.0,300.13424,45306.742,0.0,-0.07008463896159434,-0.0700836961910275,0.0,0.0,0.0,-3.375093729245817,-5.3110069385055745,-5.0860175909008545,-0.0038342025171313266,0.0026690630860660178,-1.104145524070679
14018,13.0,300.24307000000005,45364.706,0.0,-0.07008962046027523,-0.07008869840121468,0.0,0.0,0.0,-3.3956468995742566,-5.300955193538545,-5.093135774178365,0.004562051576039436,0.0018310647233620182,-1.0932947300747888
14019,13.0,300.1124,45341.172,0.0,-0.07009463494901369,-0.07009370061140163,0.0,0.0,0.0,-3.3787194420786464,-5.311743064703225,-5.092121814803296,-0.0003032002179135317,-0.006553095317940154,-1.0979157584808488
14020,13.0,299.97513,45278.254,0.0,-0.07009961644769447,-0.07009870282158881,0.0,0.0,0.0,-3.3809939859031264,-5.301712800638315,-5.080751628806145,0.004010497192755256,-0.0097337111932175,-1.0885271857042689
14021,13.0,299.85404,45287.761,0.0,-0.07010463093643293,-0.07010370503177576,0.0,0.0,0.0,-3.3814099250691765,-5.297615825183975,-5.087322758354666,0.0027106593331462474,-0.007947164727574093,-1.089923545667079
14022,13.0,299.8764,45309.503,0.0,-0.07010961243511382,-0.0701086743326853,0.0,0.0,0.0,-3.3829478360709566,-5.305139612476515,-5.084870085162605,0.0027893072992831976,0.006312088208779603,-1.089514496601709
14023,13.0,300.04495,45270.441,0.0,-0.07011462692385217,-0.07011367654287248,0.0,0.0,0.0,-3.3796439314698867,-5.300287664372665,-5.0811519639206555,-0.0027026079465266376,0.004132729909293686,-1.0969143634070189
14024,13.0,300.0069,45293.218,0.0,-0.07011960842253306,-0.07011867875305944,0.0,0.0,0.0,-3.3811185143404168,-5.308882862320945,-5.078005923685165,-0.008208301671171302,-0.0019316742774664081,-1.094707099389179
14025,13.0,300.02974,45299.745,0.0,-0.07012462291127153,-0.07012368096324662,0.0,0.0,0.0,-3.3722429500894666,-5.3136133217378045,-5.084135073540065,-0.013224414428398088,0.0014693626060147986,-1.102758283358769
14026,13.0,300.05941,45330.515999999996,0.0,-0.07012963740000977,-0.07012868317343379,0.0,0.0,0.0,-3.380536300832957,-5.312695823772255,-5.086112735085245,0.002360488812537108,0.003683932258400807,-1.0986200686253589
14027,13.0,300.17175,45397.143,0.0,-0.07013461889869066,-0.07013368538362075,0.0,0.0,0.0,-3.387957952515417,-5.321148153456435,-5.090491698042415,-0.00040991401618536364,0.006916404449945973,-1.1005349086643388
14028,13.0,299.91132000000005,45395.384000000005,0.0,-0.07013963338742923,-0.07013868759380792,0.0,0.0,0.0,-3.3831236349633067,-5.315744085373095,-5.100195594250115,-0.0002681793053697367,0.0015844761260256184,-1.0957430462914188
14029,13.0,300.17658,45325.549000000006,0.0,-0.07014461488611023,-0.07014368980399499,0.0,0.0,0.0,-3.377976729755347,-5.310385309569225,-5.089472976391875,0.0029618393719857868,-0.0004903806041317975,-1.0966536541562888
14030,13.0,300.22536,45343.799000000006,0.0,-0.07014962937484859,-0.07014869201418217,0.0,0.0,0.0,-3.381317719310077,-5.312808395858365,-5.089256546170516,0.006975774927630384,0.003576092455557846,-1.097092594099609
14031,13.0,300.06631,45395.740999999995,0.0,-0.07015461087352948,-0.07015369422436912,0.0,0.0,0.0,-3.3885690436507265,-5.3168669691339145,-5.093735719562575,0.007381441662841573,-0.003221209004758577,-1.098112632975279
14032,13.0,300.28606,45340.5,0.0,-0.07015962536226794,-0.0701586964345563,0.0,0.0,0.0,-3.3879226914119362,-5.308248061133295,-5.086209095169755,-0.00029597508608796675,-0.0060829560868160245,-1.095699273887099
14033,13.0,300.01086000000004,45280.364,0.0,-0.07016460686094872,-0.07016369864474326,0.0,0.0,0.0,-3.3768292240170967,-5.310251864531055,-5.077019018087765,-0.006113069879788025,-0.0006064253009845173,-1.101373373122089
14034,13.0,299.99129,45327.61,0.0,-0.07016962134968718,-0.07016870085493021,0.0,0.0,0.0,-3.3813356538368464,-5.308046728338425,-5.089079328728025,-0.004433590613786326,0.003117972903744967,-1.0984572393342888
14035,13.0,300.06703,45401.358,0.0,-0.07017463583842565,-0.07017370306511739,0.0,0.0,0.0,-3.398477515053617,-5.314509237476225,-5.087892508885894,-0.0014322734980293887,0.004061982355511446,-1.100397815925809
14036,13.0,299.93293,45411.96,0.0,-0.07017961733710631,-0.07017867236602693,0.0,0.0,0.0,-3.392925208480647,-5.312956431697974,-5.098220060530145,-0.002153214623055738,-0.0003166365424545937,-1.094663630959889
14037,13.0,300.01574,45411.738,0.0,-0.07018463182584489,-0.07018367457621388,0.0,0.0,0.0,-3.392463875710117,-5.316423368240136,-5.095147176951874,0.0021613692598605383,-0.0024403781113715678,-1.107016264253999
14038,13.0,300.10406,45403.485,0.0,-0.07018961332452578,-0.07018867678640106,0.0,0.0,0.0,-3.394026915314376,-5.310057117861835,-5.097441580478315,0.0006511070972692673,0.0025814663990208976,-1.096094441426099
14039,13.0,299.82951,45423.697,0.0,-0.07019462781326402,-0.07019367899658824,0.0,0.0,0.0,-3.3883910156081565,-5.319993453642475,-5.099285087710255,0.005157703718250725,-0.0016735624933677585,-1.1048321023384389
14040,13.0,299.88993999999997,45431.345,0.0,-0.07019960931194491,-0.0701986812067752,0.0,0.0,0.0,-3.388126253357027,-5.317396594961186,-5.104471610997125,0.0017761909482963984,-0.0022907257325520277,-1.0970631085216989
14041,13.0,299.87277,45344.683,0.0,-0.07020462380068349,-0.07020368341696237,0.0,0.0,0.0,-3.3811976491732265,-5.313571879808715,-5.088881947608545,0.0025584209374214873,-0.001017605352904829,-1.103689358875659
14042,13.0,299.78069,45310.019,0.0,-0.07020963828942173,-0.07020868562714944,0.0,0.0,0.0,-3.3694554990643675,-5.319514186345175,-5.084144699416015,-0.0016522211157865283,-0.0015113623292848486,-1.1007390785594888
14043,13.0,299.8665,45362.885,0.0,-0.07021461978810284,-0.07021368783733661,0.0,0.0,0.0,-3.3804413592985862,-5.320731808990345,-5.088011363122625,0.0018404675829650084,-0.005859292576967155,-1.1118302154790989
14044,13.0,299.75883999999996,45447.897000000004,0.0,-0.07021963427684108,-0.07021869004752379,0.0,0.0,0.0,-3.3941502278515467,-5.326577350142254,-5.0942983773431045,-0.0008046053276383633,-0.008315041591030711,-1.098894862052479
14045,13.0,299.90353999999996,45436.835999999996,0.0,-0.07022461577552219,-0.07022369225771075,0.0,0.0,0.0,-3.3866399167853367,-5.330130412942915,-5.0948933578018245,0.003193363169485407,0.0002560810485132318,-1.105744331403469
14046,13.0,299.96308999999997,45427.387,0.0,-0.07022963026426055,-0.07022869446789792,0.0,0.0,0.0,-3.387556502825797,-5.319785230746925,-5.101449693898886,-0.0045362567616186854,-0.0024882915675252574,-1.094632321531799
14047,13.0,300.06736,45467.455,0.0,-0.07023461176294143,-0.07023369667808488,0.0,0.0,0.0,-3.393761747763207,-5.327246297858275,-5.099963053352165,-0.0037871531606629163,-0.0006823470164024072,-1.100034565764959
14048,13.0,300.13587,45477.502,0.0,-0.0702396262516799,-0.07023869888827183,0.0,0.0,0.0,-3.3901490045316565,-5.326128176372925,-5.107747651220445,-0.007490931543472383,0.0015843838189415085,-1.097402851280229
14049,13.0,300.2336,45456.623,0.0,-0.07024460775036057,-0.07024370109845901,0.0,0.0,0.0,-3.3947342652091868,-5.319547015648415,-5.1033971605910855,0.0013879808911080487,0.005315731419746845,-1.1091022422348689
14050,13.0,300.14704,45446.558,0.0,-0.07024962223909914,-0.07024870330864608,0.0,0.0,0.0,-3.394107164722297,-5.323870452500104,-5.096641315549335,0.003390233408264987,0.005294961616547025,-1.103603333942169
14051,13.0,299.98661,45445.445999999996,0.0,-0.0702546367278376,-0.07025367260955573,0.0,0.0,0.0,-3.390314265622967,-5.324128932600615,-5.099837612989786,0.0003381243245427727,-0.0010399471123097891,-1.1066244404403291
14052,13.0,299.95613,45476.248,0.0,-0.07025961822651827,-0.07025867481974268,0.0,0.0,0.0,-3.3969244053003367,-5.326269220786845,-5.100450325325255,0.006085921261908665,-0.003332334777675837,-1.0963916276804289
14053,13.0,299.8265,45480.22900000001,0.0,-0.07026463271525674,-0.07026367702992975,0.0,0.0,0.0,-3.3938024804172264,-5.3284866173056855,-5.102564876958945,1.0847950816109389e-05,-0.0017505292749387886,-1.093889102583449
14054,13.0,299.88948999999997,45456.912000000004,0.0,-0.07026961421393774,-0.07026867924011693,0.0,0.0,0.0,-3.388908077134187,-5.327724551905474,-5.101133357217665,0.0033526443626802366,-0.0015493988261137586,-1.093630115857889
14055,13.0,299.92332000000005,45491.084,0.0,-0.07027462870267598,-0.07027368145030388,0.0,0.0,0.0,-3.3937627610133068,-5.333795845179665,-5.100595017439535,-0.010279752584032591,-0.0005135940625977876,-1.0994851815607387
14056,13.0,300.0762,45546.352,0.0,-0.07027961020135709,-0.07027868366049106,0.0,0.0,0.0,-3.3986394324195968,-5.332912797717515,-5.113401586778445,-0.007510295664808472,0.006784767353929404,-1.097467091336569
14057,13.0,299.87104,45522.215,0.0,-0.07028462469009533,-0.07028368587067824,0.0,0.0,0.0,-3.3927325896366365,-5.336846437255735,-5.108037643399065,-0.006930832219444884,0.0029086955188158976,-1.101223513432299
14058,13.0,300.09991,45455.46599999999,0.0,-0.07028960618877644,-0.07028868808086519,0.0,0.0,0.0,-3.3894873522163564,-5.326280569187965,-5.101558618284636,0.0009770589139882072,0.004682262048028285,-1.104612531041769
14059,13.0,300.05565,45470.140999999996,0.0,-0.0702946206775148,-0.07029369029105237,0.0,0.0,0.0,-3.3874342035387266,-5.3290366094599655,-5.105316560255515,-0.002005044933107528,-0.003643187344054596,-1.106618563589749
14060,13.0,300.19259,45503.624,0.0,-0.07029963516625304,-0.07029869250123932,0.0,0.0,0.0,-3.3957894638633266,-5.3311019171387946,-5.105074089506586,0.005472768365295184,-0.0028845957704874375,-1.108490340499479
14061,13.0,299.98783,45502.638,0.0,-0.07030461666493415,-0.0703036947114265,0.0,0.0,0.0,-3.3999848259023766,-5.323604980973904,-5.108075741602825,0.005032851750203795,0.0005901238699306915,-1.109482008372349
14062,13.0,299.8748,45528.037000000004,0.0,-0.0703096311536725,-0.07030869692161346,0.0,0.0,0.0,-3.398154794896767,-5.331089859462605,-5.110141758556725,0.012664281667117288,0.0006650275628406103,-1.1098001689037489
14063,13.0,299.98079,45544.657999999996,0.0,-0.07031461265235339,-0.07031369913180052,0.0,0.0,0.0,-3.4016814118698173,-5.329431270373915,-5.113326099645995,0.003954338008612777,-0.0006623432505431894,-1.099447995282069
14064,13.0,300.10553,45533.28400000001,0.0,-0.07031962714109186,-0.0703187013419877,0.0,0.0,0.0,-3.4017425108508466,-5.328167443524185,-5.111071212873455,-0.0031497295804291067,-0.0038437605053246266,-1.097300918320169
14065,13.0,300.24754,45567.095,0.0,-0.07032460863977252,-0.07032367064289735,0.0,0.0,0.0,-3.4017655116281174,-5.334794099178185,-5.114699357506525,-0.004816642417365595,-0.004194473114737266,-1.0943601625549388
14066,13.0,300.25716,45610.431,0.0,-0.07032962312851099,-0.0703286728530843,0.0,0.0,0.0,-3.4092383324406264,-5.334718713370744,-5.120475187051555,-0.0070756721669144726,-0.003209839426711487,-1.0954777774152389
14067,13.0,300.38244,45592.651,0.0,-0.07033463761724956,-0.07033367506327137,0.0,0.0,0.0,-3.4074916919182465,-5.341293389294615,-5.110242374291655,-0.0037906275952558164,-0.0021079913459175477,-1.0974163275065592
14068,13.0,300.19011,45586.331,0.0,-0.07033961911593023,-0.07033867727345833,0.0,0.0,0.0,-3.395864140395697,-5.344239312635354,-5.117002981608875,-0.0026286215387997477,-2.155660000847078e-05,-1.1110231617744488
14069,13.0,300.38742,45605.584,0.0,-0.0703446336046687,-0.0703436794836455,0.0,0.0,0.0,-3.406936228213427,-5.340303241296895,-5.115719295057185,-0.001095225984765389,0.004996175642959145,-1.105532156832529
14070,13.0,299.98136,45561.992,0.0,-0.07034961510334958,-0.07034868169383268,0.0,0.0,0.0,-3.3979638985779266,-5.334791160752895,-5.116952623078904,-0.002266241151835588,-0.002065466759095698,-1.109871603035799
14071,13.0,300.04675,45547.334,0.0,-0.07035462959208794,-0.07035368390401964,0.0,0.0,0.0,-3.3953994638998366,-5.335732976720845,-5.114119677124315,0.0026173440651867477,-0.0033238768751161067,-1.107153762292569
14072,13.0,300.11605,45566.239,0.0,-0.07035961109076905,-0.07035868611420681,0.0,0.0,0.0,-3.399385285818207,-5.337075634428355,-5.114538048090605,0.006537779536053603,-0.000925815168200843,-1.1086472929399689
14073,13.0,300.13615,45575.297999999995,0.0,-0.07036462557950729,-0.07036368832439377,0.0,0.0,0.0,-3.4028616455862966,-5.337258424746395,-5.113632303826216,0.006625536519264545,0.0017870694040200182,-1.107012515228629
14074,13.0,299.89533,45547.950999999994,0.0,-0.0703696070781884,-0.07036869053458095,0.0,0.0,0.0,-3.395524904262217,-5.339208627213865,-5.110706138862424,0.0017723873087460084,0.00021462186377402877,-1.1137654218450888
14075,13.0,299.97932000000003,45579.543,0.0,-0.07037462156692664,-0.07037369274476812,0.0,0.0,0.0,-3.4017957064810966,-5.341227325388095,-5.112019817617075,0.0031701100929405067,-0.004280379700615586,-1.1072372541008089
14076,13.0,299.78816,45604.462999999996,0.0,-0.07037963605566522,-0.07037869495495508,0.0,0.0,0.0,-3.4023443814102468,-5.345794347563825,-5.114479279584805,-0.005341434332383525,-0.0027400986055266773,-1.107677612594269
14077,13.0,299.75846,45578.126,0.0,-0.07038461755434611,-0.07038369716514226,0.0,0.0,0.0,-3.3914150605316067,-5.347713443253225,-5.115483613083925,-0.002967902660584187,0.001112029319123749,-1.108207137096529
14078,13.0,299.92227,45574.719000000005,0.0,-0.07038963204308435,-0.07038869937532932,0.0,0.0,0.0,-3.397936540825227,-5.346880045045975,-5.108759888070345,-0.008617398460621012,-0.001915899999909608,-1.106131190291649
14079,13.0,299.88787,45594.523,0.0,-0.07039461354176524,-0.07039366867623875,0.0,0.0,0.0,-3.3990156521817263,-5.3408571851265645,-5.119723558127375,-0.0024803444443409375,-9.04019074372236e-05,-1.107694229895909
14080,13.0,299.93177000000003,45620.888,0.0,-0.07039962803050381,-0.07039867088642593,0.0,0.0,0.0,-3.401212581048547,-5.3501631780199945,-5.116235140683095,-0.0007378256105852182,-0.0014854037736479386,-1.109664190740329
14081,13.0,300.12015,45618.507000000005,0.0,-0.07040460952918448,-0.070403673096613,0.0,0.0,0.0,-3.4032033135200166,-5.341472227937265,-5.122211391097905,0.004766749982441595,0.007030870199167863,-1.106774300130119
14082,13.0,299.98938,45665.367999999995,0.0,-0.07040962401792294,-0.07040867530680017,0.0,0.0,0.0,-3.4091978024366267,-5.345405766150474,-5.126527937848915,-0.005847419109645334,0.0024429937151797076,-1.1038147992380387
14083,13.0,300.06077999999997,45683.681,0.0,-0.07041460551660383,-0.07041367751698713,0.0,0.0,0.0,-3.4139532891309563,-5.344943420129845,-5.127801694549625,0.0017197704469531286,-0.0017444934454180982,-1.100439460504919
14084,13.0,300.21501,45671.764,0.0,-0.07041962000534219,-0.07041867972717408,0.0,0.0,0.0,-3.4164955336318568,-5.346584378666795,-5.119995818429246,0.0013787762232246187,-0.0014768275234765286,-1.102007161059639
14085,13.0,300.1919,45689.666,0.0,-0.07042463449408065,-0.07042368193736126,0.0,0.0,0.0,-3.4134125175525867,-5.349536989458195,-5.125567984704175,0.005121041188557415,0.0024018010456143078,-1.098653911178699
14086,13.0,300.12158999999997,45687.002,0.0,-0.07042961599276154,-0.07042868414754822,0.0,0.0,0.0,-3.411699719583547,-5.353688680417935,-5.122319403558565,0.0012320091753898388,-0.0003315611591400387,-1.108159615666839
14087,13.0,299.92347,45643.384000000005,0.0,-0.0704346304815,-0.07043368635773539,0.0,0.0,0.0,-3.404961505093537,-5.350477792176045,-5.1190096221069155,-0.007262742554701883,-0.0016640226423512484,-1.1065189611049189
14088,13.0,299.87232,45629.815,0.0,-0.0704396119801809,-0.07043868856792257,0.0,0.0,0.0,-3.401825698684057,-5.3515973322115356,-5.116901251298835,-0.0007299553120234803,8.845188532827143e-05,-1.115647128605799
14089,13.0,299.84662000000003,45632.244000000006,0.0,-0.07044462646891947,-0.07044369077810952,0.0,0.0,0.0,-3.400531069031287,-5.3455238097871245,-5.125007961373905,-0.0001255909313448599,0.005764914409652755,-1.1044810111787888
14090,13.0,300.12246,45631.871,0.0,-0.07044960796760036,-0.0704486929882967,0.0,0.0,0.0,-3.400556602933807,-5.347792071460985,-5.122600681786325,0.005341891004203595,-0.0006013345095670954,-1.1137365442172387
14091,13.0,299.87091000000004,45686.829000000005,0.0,-0.0704546224563386,-0.07045369519848377,0.0,0.0,0.0,-3.4008691905896566,-5.353648251738945,-5.133137672226245,-0.0018468605831459485,-0.008618293971059392,-1.1028601149938189
14092,13.0,299.87422999999995,45681.793,0.0,-0.07045963694507706,-0.07045869740867094,0.0,0.0,0.0,-3.4077707409957867,-5.346739101957065,-5.131614453350916,0.0032321599078643467,-0.005066064872581675,-1.110058041054199
14093,13.0,300.05458,45686.664000000004,0.0,-0.07046461844375806,-0.07046366670958037,0.0,0.0,0.0,-3.4041224326857265,-5.352677659468155,-5.130804866521015,0.0015044625014038887,-0.0011200028881356789,-1.106166147420099
14094,13.0,300.40174,45743.765999999996,0.0,-0.0704696329324963,-0.07046866891976744,0.0,0.0,0.0,-3.4163827588957263,-5.354584798806375,-5.133995185785874,0.003511709024328697,0.0008449661492691662,-1.1099954221980188
14095,13.0,300.21893,45789.485,0.0,-0.0704746144311772,-0.07047367112995462,0.0,0.0,0.0,-3.4211677311679667,-5.358736185791085,-5.138956260925496,-0.004263828462882106,-0.0012828830443606988,-1.103504643382429
14096,13.0,300.13877,45709.057,0.0,-0.07047962891991566,-0.0704786733401418,0.0,0.0,0.0,-3.415473468255987,-5.350552063408374,-5.128386441182336,-0.00044909729934495255,0.0005176572968237975,-1.108287690479479
14097,13.0,300.05191,45666.218,0.0,-0.07048461041859644,-0.07048367555032875,0.0,0.0,0.0,-3.410298698670277,-5.344328174669125,-5.126763214522136,-0.002025870161087818,0.0036857730298574766,-1.0991720872798387
14098,13.0,299.97022000000004,45700.262,0.0,-0.0704896249073349,-0.0704886777605157,0.0,0.0,0.0,-3.4153739670961665,-5.350891096891835,-5.1254735497948545,-3.8568583840672864e-05,-0.0017714035442239185,-1.1104050792134488
14099,13.0,300.00789,45730.918,0.0,-0.07049460640601579,-0.07049367997070266,0.0,0.0,0.0,-3.4113240064464674,-5.3573478305040645,-5.132385435352004,-0.005193912919849295,-0.0016356644065025085,-1.1077230061987489
14100,13.0,299.86454,45741.433,0.0,-0.07049962089475414,-0.07049868218088984,0.0,0.0,0.0,-3.4173070456369468,-5.356209038716675,-5.130737485389366,-0.008081813405537883,0.000931901325854,-1.1104554377434188
14101,13.0,300.00615,45757.27,0.0,-0.07050463538349261,-0.07050368439107702,0.0,0.0,0.0,-3.4188394850881862,-5.355849537581195,-5.134378396973696,-0.004459424640985947,0.005398210687161915,-1.102669421324999
14102,13.0,300.01583999999997,45725.023,0.0,-0.07050961688217372,-0.07050868660126397,0.0,0.0,0.0,-3.4140539048658867,-5.355818734778155,-5.129392497206625,-0.0037131223725816466,0.0004421701947713006,-1.111336458705369
14103,13.0,299.9231,45709.793,0.0,-0.07051463137091196,-0.07051368881145115,0.0,0.0,0.0,-3.409626812528967,-5.357877962956385,-5.127131024308436,0.005341562103221135,-0.002016621720800068,-1.108809007655929
14104,13.0,299.6861,45760.148,0.0,-0.07051961286959285,-0.07051869102163821,0.0,0.0,0.0,-3.4201363438911763,-5.357899646508525,-5.131906573354745,-0.0003773786162693697,0.0005142475582497825,-1.117753675563699
14105,13.0,299.74581,45774.628,0.0,-0.07052462735833132,-0.07052369323182539,0.0,0.0,0.0,-3.416807006712597,-5.366794867811415,-5.130742045014816,0.002729127437418907,0.008173134799950603,-1.112392062659549
14106,13.0,299.85696,45688.902,0.0,-0.0705296088570122,-0.07052869544201257,0.0,0.0,0.0,-3.409370966878717,-5.358096419677945,-5.120818172210405,-0.00019680838999347583,-0.0025620934624089376,-1.1171914230832092
14107,13.0,300.28427,45707.773,0.0,-0.07053462334575056,-0.07053369765219952,0.0,0.0,0.0,-3.408725526565017,-5.359615686877885,-5.125680354140266,-0.0008016063302573852,-0.0015768330791963085,-1.114091080427229
14108,13.0,300.22994,45762.810999999994,0.0,-0.07053960484443145,-0.07053866695310906,0.0,0.0,0.0,-3.4119772487859366,-5.367283862309675,-5.131490938163725,0.0007784703347615403,-0.0019010788867218783,-1.110577635705479
14109,13.0,300.02448,45761.164000000004,0.0,-0.07054461933316991,-0.07054366916329624,0.0,0.0,0.0,-3.4085405070967565,-5.366993971456065,-5.134716721182086,0.006627448826178274,0.003114810651507877,-1.107798999956249
14110,13.0,299.98299,45794.761,0.0,-0.07054963382190826,-0.0705486713734832,0.0,0.0,0.0,-3.4124374669813564,-5.3663009083876645,-5.141725372123785,-0.003920503358623556,-0.005481270850859314,-1.108398641365429
14111,13.0,299.85947999999996,45831.070999999996,0.0,-0.07055461532058915,-0.07055367358367037,0.0,0.0,0.0,-3.416599391767107,-5.372179380167824,-5.142722511547195,0.0013392378870974886,-0.0043344755022544255,-1.109036279653359
14112,13.0,299.87917000000004,45820.657999999996,0.0,-0.07055962980932762,-0.07055867579385733,0.0,0.0,0.0,-3.423065953905307,-5.365654556148875,-5.139615278790536,-0.003058772854727377,0.003997197778567707,-1.100683045828959
14113,13.0,300.00346,45842.905999999995,0.0,-0.0705646113080084,-0.07056367800404428,0.0,0.0,0.0,-3.4274333658113365,-5.365290090087905,-5.142375169412915,0.002781717752059167,0.004761322710930965,-1.106706513698429
14114,13.0,299.94146,45878.212,0.0,-0.07056962579674686,-0.07056868021423146,0.0,0.0,0.0,-3.4294604739613965,-5.368270970557095,-5.148099424527854,-0.006076572915161055,-0.0038527362800104665,-1.102819686314829
14115,13.0,299.98276,45811.414000000004,0.0,-0.07057460729542797,-0.07057368242441853,0.0,0.0,0.0,-3.422552033454587,-5.365414415875175,-5.137559394337635,-0.0023100623948104078,-0.004271018181616676,-1.1134627640402188
14116,13.0,300.25846,45806.97,0.0,-0.07057962178416621,-0.0705786846346057,0.0,0.0,0.0,-3.415642478372667,-5.367628569993695,-5.140903930267716,0.004581053967089826,-0.0008369889730868802,-1.110749786897469
14117,13.0,300.15488999999997,45835.639,0.0,-0.07058463627290457,-0.07058368684479266,0.0,0.0,0.0,-3.425017372272897,-5.365340448617875,-5.142531817878375,0.006137499238374014,0.002199947034892868,-1.115171711658879
14118,13.0,299.98989,45832.144,0.0,-0.07058961777158557,-0.07058868905497984,0.0,0.0,0.0,-3.423414815914737,-5.364513839186294,-5.143898793588286,-0.002824811785437217,-0.007474223657273443,-1.110476310695479
14119,13.0,300.13919,45812.132000000005,0.0,-0.07059463226032392,-0.07059369126516701,0.0,0.0,0.0,-3.4210763360089462,-5.362562319493695,-5.142105543561304,0.0004284964555993076,-0.0026887908628629976,-1.118963800158129
14120,13.0,300.09817999999996,45821.685999999994,0.0,-0.07059961375900481,-0.07059869347535397,0.0,0.0,0.0,-3.412320335269797,-5.368135499018725,-5.148192542212045,-0.0006283790565286844,0.005523206840698074,-1.109454751944659
14121,13.0,300.08677,45837.562000000005,0.0,-0.07060462824774327,-0.07060369568554115,0.0,0.0,0.0,-3.4197102722241266,-5.367601212240995,-5.146162799611725,0.00035722320740018567,0.007018378446635023,-1.112952187314829
14122,13.0,299.99919,45872.34,0.0,-0.07060960974642416,-0.07060866498645069,0.0,0.0,0.0,-3.420345884011857,-5.371268164352895,-5.152432081955455,-0.007563353695694893,-0.005359926754658585,-1.111404954412129
14123,13.0,299.83578,45900.128,0.0,-0.07061462423516252,-0.07061366719663764,0.0,0.0,0.0,-3.4289906298900266,-5.376520143596225,-5.146981910992565,-0.003608720932628027,-0.004458807267700016,-1.113070230951479
14124,13.0,300.08893,45851.882000000005,0.0,-0.0706196057338434,-0.07061866940682482,0.0,0.0,0.0,-3.4206827896701064,-5.3713486164108355,-5.145795800425505,-0.0006670892532165834,-0.00010397900585442891,-1.108738992074019
14125,13.0,300.05855,45831.623,0.0,-0.07062462022258187,-0.07062367161701177,0.0,0.0,0.0,-3.419798728957857,-5.370926496419175,-5.140943852321655,0.0013592064121182288,-0.0004652294264395696,-1.112268952772399
14126,13.0,299.9307,45846.320999999996,0.0,-0.07062963471132022,-0.07062867382719895,0.0,0.0,0.0,-3.4192277625265066,-5.371671741867725,-5.145237296970386,0.006016357184243225,-0.005648721778285434,-1.117970815060129
14127,13.0,299.83656,45882.898,0.0,-0.07063461621000111,-0.07063367603738613,0.0,0.0,0.0,-3.427748587917447,-5.374794376025904,-5.144712230768565,0.0004710096332250315,0.007484834817620683,-1.116994548588779
14128,13.0,299.79571,45852.602999999996,0.0,-0.07063963069873958,-0.07063867824757308,0.0,0.0,0.0,-3.4203578403630366,-5.370136465316205,-5.1475520668238355,0.004997176531407925,0.011149752424644888,-1.115817354622599
14129,13.0,299.7548,45848.647000000004,0.0,-0.07064461219742046,-0.07064368045776015,0.0,0.0,0.0,-3.4237738104251667,-5.369679894821145,-5.143390243363095,-0.006783736473277665,0.0004560747523160736,-1.114615133378949
14130,13.0,300.35686,45937.05,0.0,-0.07064962668615882,-0.0706486826679471,0.0,0.0,0.0,-3.434529460236667,-5.374761242747635,-5.154425347552175,-0.004235956485756356,-0.004761428494241405,-1.112647806984789
14131,13.0,300.17202000000003,45935.398,0.0,-0.07065460818483982,-0.07065368487813428,0.0,0.0,0.0,-3.4291684552825767,-5.379020338217974,-5.155025191611375,-0.005874132232631714,-0.002892136276406627,-1.113091813178609
14132,13.0,300.12652,45915.323,0.0,-0.07065962267357817,-0.07065868708832146,0.0,0.0,0.0,-3.426612734555347,-5.3791003849758745,-5.151398769503475,0.0005304467726335205,0.007394604288265622,-1.1129160142862589
14133,13.0,299.99675,45933.13,0.0,-0.07066460417225906,-0.07066368929850841,0.0,0.0,0.0,-3.4235205992251765,-5.382213190608085,-5.156790779910625,-0.004218992753907165,0.0026323737052450576,-1.1127626082211188
14134,13.0,299.97851,45936.564000000006,0.0,-0.07066961866099752,-0.07066869150869559,0.0,0.0,0.0,-3.4284703259636764,-5.383896401674204,-5.151201591034015,0.004346863092676986,-0.0071848097404855135,-1.112363083706689
14135,13.0,299.8507,45926.269,0.0,-0.07067463314973588,-0.07067369371888255,0.0,0.0,0.0,-3.425788658249017,-5.385132060171155,-5.1495181773178755,0.006186727183882434,0.0008418414278157803,-1.1173348992973688
14136,13.0,299.92276,45926.928,0.0,-0.07067961464841677,-0.07067866301979209,0.0,0.0,0.0,-3.4309391098323267,-5.382350891296674,-5.147349214153816,0.0010483567841647588,-0.002763469725708227,-1.111160051862959
14137,13.0,299.92986,45882.424000000006,0.0,-0.07068462913715523,-0.07068366522997926,0.0,0.0,0.0,-3.420963257297787,-5.3776595433336745,-5.148488309916235,0.001925628518094738,-0.0036440495185646863,-1.117282615592209
14138,13.0,300.20475,45888.732,0.0,-0.07068961063583612,-0.07068866744016622,0.0,0.0,0.0,-3.427563568449187,-5.376872653306015,-5.144592363281736,-0.004665046320879225,-0.005119708258050865,-1.1168107450206388
14139,13.0,300.22761,45945.13,0.0,-0.07069462512457447,-0.0706936696503534,0.0,0.0,0.0,-3.4255427424497467,-5.384535053212235,-5.156094373116895,0.004390525154061096,0.00834488292105082,-1.1223112745134989
14140,13.0,300.29731,45967.377,0.0,-0.07069960662325536,-0.07069867186054057,0.0,0.0,0.0,-3.4342987431888967,-5.379518350642124,-5.159117810090286,-0.006102418696061834,0.0018190735163785782,-1.110933793115629
14141,13.0,300.18847,45958.877,0.0,-0.07070462111199383,-0.07070367407072753,0.0,0.0,0.0,-3.4266732255863173,-5.3828615693470745,-5.160816118582895,-0.0003409819431372976,-0.002808438474421297,-1.114827713249929
14142,13.0,300.05806,45978.928,0.0,-0.07070963560073207,-0.0707086762809147,0.0,0.0,0.0,-3.425958478965777,-5.388791716882335,-5.161695822319715,-0.0015921361954566084,-0.01122310565238429,-1.110187534416979
14143,13.0,300.0031,46029.594000000005,0.0,-0.07071461709941296,-0.07071367849110177,0.0,0.0,0.0,-3.4382663266054667,-5.393298653327135,-5.160282237105204,0.004266391175035026,0.004037681679688156,-1.117063956220629
14144,13.0,299.88268999999997,46002.249,0.0,-0.07071963158815153,-0.07071868070128873,0.0,0.0,0.0,-3.4321698034037866,-5.390671397142845,-5.160693717970815,0.0015226911746779187,0.0003637650337558136,-1.111120940409099
14145,13.0,300.10687,45946.448,0.0,-0.07072461308683242,-0.0707236829114759,0.0,0.0,0.0,-3.424715322418087,-5.387971085626345,-5.153886501148995,-0.0045447705955839355,-0.004647327920355555,-1.120264306661479
14146,13.0,300.12821,45951.753,0.0,-0.07072962757557089,-0.07072868512166286,0.0,0.0,0.0,-3.430490442688047,-5.380360361475225,-5.157334793889315,-0.005198556442407576,-0.003688223271249296,-1.1114162014882387
14147,13.0,299.99896,45953.194,0.0,-0.07073460907425178,-0.07073368733185004,0.0,0.0,0.0,-3.4359536845772265,-5.380882083951715,-5.1517875535668445,0.002873788748895867,0.0010157539423221091,-1.117697946808199
14148,13.0,299.85329,45953.33900000001,0.0,-0.07073962356299013,-0.07073868954203699,0.0,0.0,0.0,-3.4264628748655572,-5.384857874694095,-5.157347054215525,0.0027383869221327475,0.0006997471449371663,-1.116958071585179
14149,13.0,299.93164,45964.527,0.0,-0.07074460506167102,-0.07074369175222417,0.0,0.0,0.0,-3.4373990858448766,-5.3803311798723445,-5.154338106718566,-0.0007343000980547772,-0.0027511393839163172,-1.118372264749749
14150,13.0,299.97062999999997,46041.676,0.0,-0.07074961955040948,-0.07074869396241135,0.0,0.0,0.0,-3.4334995928350263,-5.393856346182175,-5.168164005658075,0.001127555553056069,-0.0034787970398805364,-1.116883901677859
14151,13.0,300.02892,46060.483,0.0,-0.07075463403914772,-0.07075366326332067,0.0,0.0,0.0,-3.4408483918352966,-5.393528357124805,-5.166860054104386,0.0007143402464548933,0.0025650357380493176,-1.121758647908959
14152,13.0,300.12644,46041.032,0.0,-0.07075961553782872,-0.07075866547350784,0.0,0.0,0.0,-3.4379376282730267,-5.389671623269175,-5.167714933213754,-0.0006157808924703423,-0.0006199279832746284,-1.110090262407379
14153,13.0,300.36357000000004,46048.810999999994,0.0,-0.07076463002656719,-0.07076366768369502,0.0,0.0,0.0,-3.4384104107696865,-5.393950071816424,-5.165328222603205,0.00031216888971617073,-3.375555872616427e-05,-1.1161064348761291
14154,13.0,300.40342999999996,46040.259000000005,0.0,-0.07076961152524808,-0.07076866989388197,0.0,0.0,0.0,-3.4352282988306366,-5.389824218734235,-5.170036694492895,0.0005282933020634894,0.0004966558646511174,-1.1130500672744887
14155,13.0,300.0033,46009.655999999995,0.0,-0.07077462601398632,-0.07077367210406915,0.0,0.0,0.0,-3.4402760068538067,-5.391111350336265,-5.154399307024605,0.003484752923968337,0.0031288741575958372,-1.121661477224369
14156,13.0,299.90941000000004,46023.276,0.0,-0.07077960751266721,-0.07077867431425622,0.0,0.0,0.0,-3.4282590633178263,-5.391690726743445,-5.169977014062004,0.006545259348291805,0.0015804205925003683,-1.113476240266549
14157,13.0,299.88354,46007.017,0.0,-0.07078462200140578,-0.0707836765244434,0.0,0.0,0.0,-3.4318124300935167,-5.388718661550125,-5.164453382466865,0.003172008011702817,-0.001774930667822018,-1.1206922021787091
14158,13.0,299.86453,46036.11,0.0,-0.07078960350008667,-0.07078867873463057,0.0,0.0,0.0,-3.437351767065207,-5.390727733848404,-5.165748316094666,0.0014823351457200885,0.003091850302916867,-1.112359942631379
14159,13.0,299.76905,46097.505999999994,0.0,-0.07079461798882514,-0.07079368094481753,0.0,0.0,0.0,-3.4449138552115266,-5.394756922871055,-5.172819991192585,-0.01036980012041959,-0.0005219801662554315,-1.1216500274982388
14160,13.0,299.68811,46059.081,0.0,-0.07079963247756338,-0.07079868315500448,0.0,0.0,0.0,-3.443182413440647,-5.388317718485554,-5.169310498146225,-0.005551718989237005,-0.002060095520315598,-1.113657916009479
14161,13.0,299.75063,46036.019,0.0,-0.07080461397624438,-0.07080368536519144,0.0,0.0,0.0,-3.4318517441973966,-5.396089245427545,-5.165859064330595,-0.010150725316298589,-0.00018143434622617583,-1.122493152906449
14162,13.0,299.80262,46109.295,0.0,-0.07080962846498284,-0.07080868757537861,0.0,0.0,0.0,-3.4393164590091065,-5.398911450931075,-5.177846319638645,0.0023214296423822675,-0.002228474280858288,-1.1153126547477887
14163,13.0,299.92307999999997,46109.874,0.0,-0.07081460996366373,-0.07081368978556579,0.0,0.0,0.0,-3.4439604881924364,-5.398515067491955,-5.1737748780868245,-0.0017646685721342283,-0.006261210793433394,-1.118911719102989
14164,13.0,299.98059,46021.932,0.0,-0.07081962445240197,-0.07081869199575286,0.0,0.0,0.0,-3.4357063502278167,-5.390694904545165,-5.163116905584966,0.0046572610137358755,-0.002168005237415458,-1.115057214397579
14165,13.0,300.00802000000004,46031.362,0.0,-0.07082460595108286,-0.07082366129666229,0.0,0.0,0.0,-3.434356397119587,-5.392976034495295,-5.165052415925985,0.006214120400335934,-0.004463689410656846,-1.1159302306837389
14166,13.0,300.14709,46111.203,0.0,-0.07082962043982144,-0.07082866350684947,0.0,0.0,0.0,-3.4449894436689865,-5.402652167650254,-5.169012703941835,0.008418220342088662,0.0014739172665393086,-1.120228032307899
14167,13.0,299.97519,46115.705,0.0,-0.07083463492855968,-0.07083366571703653,0.0,0.0,0.0,-3.440184713019797,-5.405565059037736,-5.172273038788605,-0.0028826974464250875,0.0002072748987564398,-1.120575171792159
14168,13.0,300.02553,46101.33900000001,0.0,-0.07083961642724057,-0.0708386679272236,0.0,0.0,0.0,-3.4377547366299765,-5.401768714888065,-5.1741325553721245,-0.0010042674960084848,-0.001914562205802578,-1.1186508072022388
14169,13.0,299.86551000000003,46083.191,0.0,-0.07084463091597915,-0.07084367013741066,0.0,0.0,0.0,-3.4426877447418263,-5.3959689726406745,-5.169482649338215,-0.0023886007272865377,-0.0017516716131015283,-1.113535008772349
14170,13.0,299.93401,46095.359000000004,0.0,-0.07084961241466003,-0.07084867234759784,0.0,0.0,0.0,-3.436651611246107,-5.403272479361475,-5.171914246928195,0.001051582567183119,0.003847324916526406,-1.1190657331181888
14171,13.0,300.04809,46137.705,0.0,-0.07085462690339828,-0.07085367455778502,0.0,0.0,0.0,-3.445530113922347,-5.405753523556335,-5.173426522702445,-0.005676858213687285,4.264737753521846e-05,-1.122746870731489
14172,13.0,300.14092999999997,46117.280999999995,0.0,-0.07085960840207917,-0.07085867676797197,0.0,0.0,0.0,-3.440949412870267,-5.400496275412485,-5.177056288535675,-0.002221895957234058,0.004428212180930515,-1.120480432907809
14173,13.0,299.95313,46041.465,0.0,-0.07086462289081763,-0.07086367897815915,0.0,0.0,0.0,-3.428323708674207,-5.398351427600804,-5.168780669668935,-0.00030817226655173473,0.0010899743094970888,-1.127572778307769
14174,13.0,300.19277,46117.727,0.0,-0.07086960438949863,-0.0708686811883461,0.0,0.0,0.0,-3.4388044637335766,-5.4036170857204855,-5.176215898902735,0.002119721944975268,0.0005348510668431904,-1.120738001083229
14175,13.0,299.92114,46222.802,0.0,-0.0708746188782371,-0.07087368339853306,0.0,0.0,0.0,-3.4531025372196864,-5.413756578146175,-5.183718711918205,0.0017517419326584685,-0.005129626051354675,-1.122003449133119
14176,13.0,300.02682999999996,46189.562999999995,0.0,-0.07087963336697534,-0.07087868560872024,0.0,0.0,0.0,-3.4461793032614167,-5.410223982997535,-5.184070512352925,-0.0028586523122770173,-9.9222223213221e-05,-1.1127238007422888
14177,13.0,300.06743,46123.06,0.0,-0.07088461486565623,-0.0708836878189073,0.0,0.0,0.0,-3.4405624526570766,-5.408104770413385,-5.171591425446335,-0.0008846174830474482,0.0027411266490781376,-1.117174603131549
14178,13.0,299.83519,46161.005999999994,0.0,-0.0708896293543948,-0.07088869002909448,0.0,0.0,0.0,-3.4451762869874263,-5.408742307376304,-5.177874690641445,-0.003518464261420387,0.0074212511446954624,-1.114980815340039
14179,13.0,299.79072,46234.638,0.0,-0.07089461085307569,-0.07089365933000391,0.0,0.0,0.0,-3.453230916007357,-5.416418690133905,-5.184525866947865,0.0005033310651174085,0.007495565237504693,-1.117286364617579
14180,13.0,299.90666,46192.602999999996,0.0,-0.07089962534181393,-0.07089866154019098,0.0,0.0,0.0,-3.4497210176609565,-5.409219548173404,-5.182457215543705,-0.0033757755452381065,0.008310704981927722,-1.1153785160042888
14181,13.0,299.80654,46131.041,0.0,-0.07090460684049482,-0.07090366375037815,0.0,0.0,0.0,-3.447560261822707,-5.400899650277295,-5.174224659806216,0.0004310029121066756,0.005099514284882875,-1.120757050185109
14182,13.0,300.00259,46146.08,0.0,-0.07090962132923329,-0.07090866596056511,0.0,0.0,0.0,-3.440626287413376,-5.4046853553009155,-5.181944612318116,-0.0023404849250878777,-0.0016554652386316987,-1.1245901753134089
14183,13.0,299.96519,46158.606,0.0,-0.07091460282791429,-0.07091366817075229,0.0,0.0,0.0,-3.451153753302357,-5.4046565789980745,-5.175253209982725,0.0012437622685997787,-0.0028824940871300174,-1.130590338430579
14184,13.0,299.9006,46189.28400000001,0.0,-0.07091961731665253,-0.07091867038093946,0.0,0.0,0.0,-3.450155195328807,-5.408037794581775,-5.1821959996679245,0.003710246768797846,0.0010171252750074491,-1.127971694872139
14185,13.0,300.16431,46209.247,0.0,-0.07092463180539099,-0.07092367259112642,0.0,0.0,0.0,-3.4564119133712965,-5.4070447081587645,-5.183000520247325,0.0045968446592982454,-0.0038878778199786666,-1.123835911938969
14186,13.0,300.25049,46173.383,0.0,-0.07092961330407188,-0.0709286748013136,0.0,0.0,0.0,-3.448825709872597,-5.409135549740115,-5.177594020363745,0.004880026176046086,-0.005775639054011194,-1.123133830944679
14187,13.0,300.02611,46201.648,0.0,-0.07093462779281023,-0.07093367701150055,0.0,0.0,0.0,-3.456390736444207,-5.410562104555904,-5.177194394524305,0.0037964770880831162,-0.006072069018466555,-1.1189455616563289
14188,13.0,300.16217,46272.335999999996,0.0,-0.07093960929149135,-0.07093867922168773,0.0,0.0,0.0,-3.4540889361920364,-5.422349546944235,-5.189196240633795,0.003617589404128277,0.004788199271158476,-1.1200178842371589
14189,13.0,300.10237,46227.273,0.0,-0.07094462378022959,-0.0709436814318749,0.0,0.0,0.0,-3.4527301678079367,-5.414883312257374,-5.184323318252875,-0.004454273581452576,0.0014104073582213686,-1.1151168948284689
14190,13.0,300.12133,46210.273,0.0,-0.07094960527891048,-0.07094868364206186,0.0,0.0,0.0,-3.4443934499601667,-5.417937856008836,-5.184437815514175,-0.007180924432977062,0.0017711738404262484,-1.1226531450972388
14191,13.0,299.9624,46214.373,0.0,-0.07095461976764905,-0.07095368585224893,0.0,0.0,0.0,-3.4463015012234766,-5.4145299919475045,-5.187183925935194,-0.0036055402392391163,0.0012790990618622487,-1.1241375564937388
14192,13.0,300.04157999999995,46198.385,0.0,-0.07095963425638752,-0.07095868806243588,0.0,0.0,0.0,-3.453808873864397,-5.405769431582905,-5.183577059554224,0.001065396509771449,0.0036333290285316565,-1.118712108833289
14193,13.0,299.94681,46202.81,0.0,-0.07096461575506818,-0.07096365736334553,0.0,0.0,0.0,-3.4487306670132165,-5.405141621820945,-5.190628368325135,0.002414221566665118,-0.004793405046197245,-1.1226024825922387
14194,13.0,299.8899,46247.937000000005,0.0,-0.07096963024380665,-0.0709686595735326,0.0,0.0,0.0,-3.4556921005002565,-5.414740140018244,-5.187785796494595,0.0016934423590047483,-0.005889585917856875,-1.1224610328782791
14195,13.0,299.85763,46244.037000000004,0.0,-0.07097461174248754,-0.07097366178371978,0.0,0.0,0.0,-3.452873745347107,-5.4139932733695355,-5.190165414354445,0.0033433201312850066,0.0003966152099478736,-1.119562934942259
14196,13.0,299.82769,46279.245,0.0,-0.07097962623122589,-0.07097866399390673,0.0,0.0,0.0,-3.4515778997942164,-5.420134683550645,-5.196022506557495,0.006860754120003713,0.003985632440601296,-1.120563722066029
14197,13.0,300.06326,46351.056,0.0,-0.07098460772990678,-0.07098366620409391,0.0,0.0,0.0,-3.4612178599206067,-5.428287699155285,-5.200058180380785,0.005305119550124535,-0.0021770749403855682,-1.120731718932609
14198,13.0,300.16745,46349.502,0.0,-0.07098962221864524,-0.07098866841428086,0.0,0.0,0.0,-3.467146284930697,-5.427942586171225,-5.194002592483145,-0.0019238096328402284,-0.0015143386501285886,-1.1213083595645188
14199,13.0,300.26965,46286.53,0.0,-0.07099460371732613,-0.07099367062446804,0.0,0.0,0.0,-3.452646372024667,-5.428737582199686,-5.188565593771554,-0.00036992650628890367,0.0009145873337102422,-1.123737525354259
14200,13.0,300.06962999999996,46192.585999999996,0.0,-0.07099961820606449,-0.070998672834655,0.0,0.0,0.0,-3.4404223201682465,-5.416067294999224,-5.184903099960096,0.004220256074131846,0.006751595977455644,-1.125319310085369
14201,13.0,299.9462,46215.657999999996,0.0,-0.07100463269480295,-0.07100367504484217,0.0,0.0,0.0,-3.444129295659097,-5.416020381519595,-5.188256552491055,-0.0013577314239476587,0.003282734057455627,-1.1172402617380288
14202,13.0,299.83797999999996,46271.367999999995,0.0,-0.07100961419348384,-0.07100867725502935,0.0,0.0,0.0,-3.447348593876817,-5.424069944289025,-5.193921937775185,-0.001214284999340599,0.006749839204432264,-1.1319041185102388
14203,13.0,299.90737,46258.386,0.0,-0.07101462868222219,-0.0710136794652163,0.0,0.0,0.0,-3.453600346993817,-5.417015798417836,-5.190778025364905,-0.004752906452950345,0.005494605424825334,-1.1200609473664092
14204,13.0,300.06062000000003,46232.674000000006,0.0,-0.07101961018090319,-0.07101868167540348,0.0,0.0,0.0,-3.4496778532066967,-5.418533039117575,-5.1853675738059355,-0.006076301870759304,0.0018631427016528681,-1.129908218463259
14205,13.0,300.29456,46324.753,0.0,-0.07102462466964177,-0.07102368388559055,0.0,0.0,0.0,-3.4633778051587765,-5.424295189786254,-5.193895187972545,-0.006714976206916554,-0.00980798424939768,-1.1171125922254288
14206,13.0,299.98807999999997,46394.799000000006,0.0,-0.07102960616832243,-0.0710286860957775,0.0,0.0,0.0,-3.467744710439757,-5.435494541816545,-5.199621165612655,-0.003917512852278416,-0.0016166157099225483,-1.129208366619189
14207,13.0,299.92233,46405.425,0.0,-0.0710346206570609,-0.07103368830596468,0.0,0.0,0.0,-3.4732182874799564,-5.431375882810065,-5.201496286247716,0.005719837749804035,0.0028387784248156173,-1.1173813061519489
14208,13.0,300.06284,46335.545,0.0,-0.07103960215574179,-0.07103865760687422,0.0,0.0,0.0,-3.455532310959487,-5.428727854998725,-5.200588414158116,0.004364747564892046,0.004223206658423046,-1.125805366158339
14209,13.0,299.83603999999997,46294.333,0.0,-0.07104461664448014,-0.0710436598170614,0.0,0.0,0.0,-3.4603947968643762,-5.422846444793275,-5.189079818197305,0.002280613395229018,-0.0007125105396893152,-1.118737946710839
14210,13.0,299.71542,46323.137,0.0,-0.0710496311332186,-0.07104866202724835,0.0,0.0,0.0,-3.456707985050517,-5.424383646519985,-5.199985125048575,-0.0007607257721202884,0.0026363901273164475,-1.128002700325199
14211,13.0,299.98469,46327.503,0.0,-0.0710546126318995,-0.07105366423743531,0.0,0.0,0.0,-3.4586499801921766,-5.424388206145435,-5.199365927912465,0.005466426331594275,0.0062935888964038645,-1.1235058963813989
14212,13.0,300.14905,46283.789000000004,0.0,-0.07105962712063785,-0.07105866644762249,0.0,0.0,0.0,-3.452864119471157,-5.423887457946015,-5.192364471046475,-0.0048309410988017654,-0.0015070450732587685,-1.1256214612651887
14213,13.0,299.90231,46320.8,0.0,-0.07106460861931874,-0.07106366865780944,0.0,0.0,0.0,-3.4581139708892765,-5.422724348156224,-5.199528351903495,-0.005960150883971094,-0.008171244480564043,-1.119440331680159
14214,13.0,300.1186,46383.22,0.0,-0.0710696231080572,-0.07106867086799662,0.0,0.0,0.0,-3.4617677507498765,-5.433879421157145,-5.203693417764555,-0.002970176799108627,-0.004085923023574207,-1.124876114491629
14215,13.0,299.79841,46416.76,0.0,-0.07107460460673809,-0.0710736730781838,0.0,0.0,0.0,-3.468465739210917,-5.434463965139836,-5.206606410477045,0.007498150241159812,0.0047500835381717454,-1.128782700252179
14216,13.0,299.93597,46412.653,0.0,-0.07107961909547644,-0.07107867528837075,0.0,0.0,0.0,-3.4678453261746864,-5.435847659476395,-5.204594602403495,0.0012503392749988788,-0.0007936759358322163,-1.134287485395459
14217,13.0,300.03665,46365.917,0.0,-0.0710846335842149,-0.07108367749855793,0.0,0.0,0.0,-3.4620034327231366,-5.429431455868165,-5.2026461224611955,-0.0004127609044613296,-0.012925258415873688,-1.1336869320611889
14218,13.0,300.19099,46334.937999999995,0.0,-0.07108961508289602,-0.071088679708745,0.0,0.0,0.0,-3.4590108998777964,-5.4270728122853855,-5.198580557759955,-0.00024155227824435377,-0.006546442621758583,-1.134680727759269
14219,13.0,300.06437999999997,46340.051,0.0,-0.07109462957163426,-0.07109368191893217,0.0,0.0,0.0,-3.4544450936021867,-5.430016101175865,-5.201757096823455,0.0005396969354464405,0.005267245071986615,-1.1292600423742887
14220,13.0,300.30283,46363.994000000006,0.0,-0.07109961107031515,-0.07109868412911935,0.0,0.0,0.0,-3.4593046410817863,-5.427915025768504,-5.206276800219515,-0.0012381117780921188,-0.0008286961796309453,-1.1222325449807289
14221,13.0,300.16019,46380.38,0.0,-0.07110462555905361,-0.0711036863393063,0.0,0.0,0.0,-3.465729153340837,-5.427132695366295,-5.205615451879245,-0.007375026979108493,-0.001928970318249548,-1.1192453823609188
14222,13.0,300.07012000000003,46399.843,0.0,-0.07110960705773439,-0.07110865564021585,0.0,0.0,0.0,-3.4603608529860264,-5.440505671511104,-5.203527143423146,-0.002965698638966667,0.008221518302825682,-1.126057868083259
14223,13.0,299.96494,46416.03,0.0,-0.07111462154647286,-0.07111365785040302,0.0,0.0,0.0,-3.4682117174108464,-5.434554144398735,-5.206548249921305,0.003107820441717997,0.005262914441059215,-1.127273464228229
14224,13.0,299.7751,46443.115999999995,0.0,-0.07111960304515375,-0.07111866006058998,0.0,0.0,0.0,-3.4657290520158264,-5.442287775786985,-5.209530650265645,-0.0016072981659779786,0.002087781160747958,-1.1277847502286888
14225,13.0,299.74727,46431.092000000004,0.0,-0.0711246175338921,-0.07112366227077693,0.0,0.0,0.0,-3.4661326295306565,-5.4373423046989044,-5.2104178520532045,0.0012622315887725586,-0.005466858888061965,-1.1253672368150989
14226,13.0,300.01854,46415.45,0.0,-0.07112963202263056,-0.07112866448096411,0.0,0.0,0.0,-3.4652809928216066,-5.434449273013386,-5.2094075403784945,-0.002202962872490508,0.003033461360604327,-1.127710681646379
14227,13.0,300.01333999999997,46372.740999999995,0.0,-0.07113461352131145,-0.07113366669115107,0.0,0.0,0.0,-3.4612854437022764,-5.431848665306724,-5.203021227648215,0.0005185176677487095,0.006776400745203683,-1.129246464822949
14228,13.0,300.04924,46371.583,0.0,-0.0711396280100498,-0.07113866890133824,0.0,0.0,0.0,-3.452416972202027,-5.432713474267075,-5.2106728871033745,-0.0007876825817557182,-0.004502407622153036,-1.131760439646059
14229,13.0,300.04094,46455.064000000006,0.0,-0.0711446095087307,-0.07114367111152531,0.0,0.0,0.0,-3.4681005638748763,-5.4406735670526745,-5.212405342124354,-0.0015424137838993886,-0.003094690037647127,-1.1317694575719488
14230,13.0,299.87838,46491.624,0.0,-0.07114962399746916,-0.07114867332171237,0.0,0.0,0.0,-3.4705401661406468,-5.446111680339374,-5.215640953668686,0.0023221092292243376,0.003320670343849647,-1.129871234834609
14231,13.0,300.14634,46467.742,0.0,-0.07115460549615027,-0.07115367553189944,0.0,0.0,0.0,-3.4658879296315064,-5.447289380930604,-5.211856059245145,0.0042591276916931755,8.833894543237512e-05,-1.126107719988179
14232,13.0,300.1596,46421.344000000005,0.0,-0.07115961998488851,-0.07115867774208662,0.0,0.0,0.0,-3.461039223927976,-5.445868601640385,-5.204021710796955,-0.002090813007697178,-0.005144263259649255,-1.121881757796109
14233,13.0,300.09989,46483.608,0.0,-0.0711646014835694,-0.0711636799522738,0.0,0.0,0.0,-3.470630750699587,-5.448888897538465,-5.210336488070174,-0.0006750092314307244,-0.002413337201977838,-1.1225612433131689
14234,13.0,300.036,46506.175,0.0,-0.07116961597230786,-0.07116868216246075,0.0,0.0,0.0,-3.465775762845437,-5.450164680739374,-5.220775497225425,0.002178083630860118,0.011565787849454388,-1.1277794813281687
14235,13.0,300.15652,46465.856,0.0,-0.07117463046104622,-0.07117368437264793,0.0,0.0,0.0,-3.4709270250288267,-5.4477210254732045,-5.2058117184236155,-0.005105318181455675,0.007550363626762873,-1.1309786158688988
14236,13.0,299.93341000000004,46436.778,0.0,-0.07117961195972711,-0.07117865367355747,0.0,0.0,0.0,-3.4629300499395868,-5.4383129982947045,-5.214378038744045,-0.0012889714615615788,-0.002232119650743058,-1.129220424295379
14237,13.0,300.25951000000003,46463.232,0.0,-0.07118462644846557,-0.07118365588374442,0.0,0.0,0.0,-3.4718822158980966,-5.440329264668695,-5.211450860530155,-0.0023341187760345878,-0.0042786607218209365,-1.125323869710819
14238,13.0,299.8295,46479.407,0.0,-0.07118960794714635,-0.0711886580939316,0.0,0.0,0.0,-3.4701146010986466,-5.4380753911462545,-5.2203891449622954,0.00959970603039222,0.0044361497795638955,-1.131671982912329
14239,13.0,299.79854,46518.208,0.0,-0.07119462243588481,-0.07119366030411856,0.0,0.0,0.0,-3.4763248109615468,-5.439474892184374,-5.224574070525315,0.0013500894916934586,-0.0036156130598082267,-1.126305101107659
14240,13.0,299.85961000000003,46478.768,0.0,-0.0711996039345657,-0.07119866251430573,0.0,0.0,0.0,-3.4690956767980867,-5.4428674561691945,-5.216421662870735,0.00014295607235366588,-0.00999324568178156,-1.1369704703352488
14241,13.0,300.07088999999996,46455.612,0.0,-0.07120461842330394,-0.07120366472449269,0.0,0.0,0.0,-3.471867219796617,-5.441850963668875,-5.207627867902854,-0.003964284375569406,-0.003907193913260017,-1.1305344070250591
14242,13.0,300.08302000000003,46523.518,0.0,-0.07120963291204252,-0.07120866693467975,0.0,0.0,0.0,-3.4760936886137364,-5.451176512289235,-5.214717477527545,-0.0009922184223118342,0.005965180556142484,-1.1364276722566788
14243,13.0,300.24327,46571.187000000005,0.0,-0.07121461441072341,-0.07121366914486693,0.0,0.0,0.0,-3.483797023823997,-5.454783176020185,-5.217897866941425,-0.0014814651691842286,-0.00045353946884336055,-1.127312170382049
14244,13.0,300.27315,46523.21,0.0,-0.07121962889946165,-0.07121867135505389,0.0,0.0,0.0,-3.4741965804515065,-5.447929653668795,-5.219768022650995,-0.003291885428383797,-0.010084186904756761,-1.122608460767829
14245,13.0,300.40627,46497.877,0.0,-0.07122461039814276,-0.07122367356524106,0.0,0.0,0.0,-3.4611757087164463,-5.452025007922974,-5.220992940696886,0.004573917140010476,-0.002133402847825468,-1.130132552035399
14246,13.0,300.37865,46531.038,0.0,-0.07122962488688112,-0.07122867577542824,0.0,0.0,0.0,-3.4698869238011762,-5.4490500043043655,-5.225336845200594,0.007418821776255702,0.0007893886213465913,-1.1296993876176489
14247,13.0,300.32858,46556.599,0.0,-0.07123460638556212,-0.0712336779856152,0.0,0.0,0.0,-3.4769509995233467,-5.452776636847154,-5.222316042677465,0.0024769293862038975,0.001903015106337968,-1.1391883734791388
14248,13.0,300.33698,46512.027,0.0,-0.07123962087430047,-0.07123868019580237,0.0,0.0,0.0,-3.474744546105587,-5.444167557372505,-5.219582699207704,-0.0015849865001009884,-0.006950306075766804,-1.128220346446679
14249,13.0,300.05509,46504.543,0.0,-0.07124460237298136,-0.07124368240598933,0.0,0.0,0.0,-3.4739655594287067,-5.442645959697336,-5.219608233110225,-0.001065776681208969,0.005537825709165844,-1.132321982851479
14250,13.0,300.03508999999997,46538.122,0.0,-0.07124961686171982,-0.0712486846161765,0.0,0.0,0.0,-3.4753716465924764,-5.448784938078204,-5.222270345097955,-0.003391787733918387,0.01146180001819159,-1.126312396508379
14251,13.0,299.97221,46586.846,0.0,-0.07125463135045818,-0.07125365391708605,0.0,0.0,0.0,-3.4771045069134967,-5.458197119582115,-5.225936385284765,-0.0024207095083804277,0.0013242324637165689,-1.136749885788479
14252,13.0,300.00501,46635.265999999996,0.0,-0.07125961284913906,-0.071258656127273,0.0,0.0,0.0,-3.4883835004016466,-5.457239091612565,-5.230333688068745,-0.007422820365125332,-0.003737049665743087,-1.1281763713923387
14253,13.0,299.97242,46598.098,0.0,-0.07126462733787753,-0.07126365833746018,0.0,0.0,0.0,-3.4842217782659173,-5.460494866833885,-5.2199414910681154,-0.0038482190084146465,0.008428129320116601,-1.1405712572156188
14254,13.0,299.93407,46562.100999999995,0.0,-0.0712696088365582,-0.07126866054764736,0.0,0.0,0.0,-3.4794303211930364,-5.4536187490052646,-5.2206669781397155,-0.0025923944026744077,0.008130789051771403,-1.125834041136169
14255,13.0,299.8815,46568.492999999995,0.0,-0.07127462332529677,-0.07127366275783431,0.0,0.0,0.0,-3.4776671646940267,-5.455695303760204,-5.222296588275545,-0.0014449789450083188,-0.0025368668786442676,-1.132733869017129
14256,13.0,300.05368,46587.907,0.0,-0.07127960482397766,-0.07127866496802138,0.0,0.0,0.0,-3.471977157432467,-5.454649832307025,-5.234933235572685,0.0013765492008298286,-0.01141455419252879,-1.1201564968508388
14257,13.0,300.29253,46539.693,0.0,-0.0712846193127159,-0.07128366717820855,0.0,0.0,0.0,-3.4647363708928567,-5.454449208787224,-5.227718894860685,0.009741419999978301,-0.004391910266947796,-1.1325392236729188
14258,13.0,300.25425,46570.58900000001,0.0,-0.07128960081139701,-0.07128866938839551,0.0,0.0,0.0,-3.4696033150981864,-5.4616863476264745,-5.225006525667995,0.004539591266372776,-6.602881361603653e-05,-1.127315210132349
14259,13.0,300.10597,46610.847,0.0,-0.07129461530013537,-0.07129367159858269,0.0,0.0,0.0,-3.477160640969037,-5.464106394165315,-5.227266580016045,0.002333366944460388,-0.007068520850358693,-1.139479074932829
14260,13.0,299.95249,46634.456,0.0,-0.07129962978887361,-0.07129867380876964,0.0,0.0,0.0,-3.481023251675247,-5.464927126746315,-5.229759580562085,-0.003998835697354356,0.0011002424846854788,-1.124745405228729
14261,13.0,300.10017999999997,46655.937999999995,0.0,-0.07130461128755472,-0.07130367601895682,0.0,0.0,0.0,-3.4840137580203865,-5.468673821641085,-5.229552472241645,-0.004046974702980306,0.00957975989819869,-1.1375464016920889
14262,13.0,299.90107,46608.457,0.0,-0.07130962577629296,-0.07130867822914377,0.0,0.0,0.0,-3.4745869857150367,-5.457059746344865,-5.2361602814437855,-0.000995724622295369,0.003834294317590387,-1.125397634318099
14263,13.0,299.87464,46598.302,0.0,-0.07131460727497407,-0.07131368043933095,0.0,0.0,0.0,-3.476788980832357,-5.467715084396465,-5.220216385820245,-0.008162086726160242,-0.011992507996568388,-1.1437820441324988
14264,13.0,299.74444,46624.847,0.0,-0.07131962176371243,-0.07131868264951813,0.0,0.0,0.0,-3.4824191050130064,-5.459672209077694,-5.230698052804705,0.0037222171028292264,-0.00982773705347213,-1.132873697530929
14265,13.0,299.77117999999996,46640.685,0.0,-0.07132460326239332,-0.07132365195042745,0.0,0.0,0.0,-3.4887334769861864,-5.4632815072589045,-5.225588739175454,0.0016025254540319486,0.004168150700989446,-1.1410112104090389
14266,13.0,300.24806,46595.335999999996,0.0,-0.07132961775113178,-0.07132865416061462,0.0,0.0,0.0,-3.481206143318297,-5.456800759619305,-5.225811755522465,0.006302295247888114,0.0004821061809001755,-1.126457189947669
14267,13.0,300.16126,46549.143,0.0,-0.07133463223987013,-0.0713336563708018,0.0,0.0,0.0,-3.470214507558507,-5.455024836169035,-5.224537897496745,-0.004874876535062855,-0.005524326988683625,-1.1319036118851888
14268,13.0,300.13888,46601.73,0.0,-0.07133961373855102,-0.07133865858098876,0.0,0.0,0.0,-3.476613688565057,-5.4568245709966545,-5.232324015240175,-0.0033787071817524368,-8.302200672513411e-05,-1.131285124024149
14269,13.0,299.90186,46709.087999999996,0.0,-0.07134462822728949,-0.07134366079117593,0.0,0.0,0.0,-3.4941527438210263,-5.466553089181785,-5.237690491744805,-0.001908024513507358,0.004152818099151236,-1.134467742588249
14270,13.0,299.87885,46723.172,0.0,-0.07134960972597015,-0.071348663001363,0.0,0.0,0.0,-3.501801059550857,-5.463716698176854,-5.237159953992445,-0.0036333342974321768,0.0006631004523429193,-1.1334258175104188
14271,13.0,299.76419,46665.355,0.0,-0.07135462421470862,-0.07135366521155018,0.0,0.0,0.0,-3.4860903127753264,-5.466718147623075,-5.232294225687236,-0.007751651635978451,-0.004826518464765285,-1.139124133422799
14272,13.0,299.93776,46660.189000000006,0.0,-0.0713596057133895,-0.07135866742173713,0.0,0.0,0.0,-3.4915173816359366,-5.455005584417136,-5.237009385027585,0.0025404740490002674,0.0038268609122067664,-1.129146254388059
14273,13.0,299.70856000000003,46680.37,0.0,-0.07136462020212786,-0.07136366963192409,0.0,0.0,0.0,-3.482268536048147,-5.466182644945225,-5.241215690167715,-0.0018706394351677381,0.012981113827636188,-1.133784406720809
14274,13.0,300.06166,46701.639,0.0,-0.07136960170080897,-0.07136867184211126,0.0,0.0,0.0,-3.4899712633083464,-5.4639689974517545,-5.242191753989045,0.006959335958007984,0.0006910495580662814,-1.1326617256100089
14275,13.0,300.08875,46663.785,0.0,-0.07137461618954721,-0.07137367405229822,0.0,0.0,0.0,-3.482509182946897,-5.465141631792485,-5.236974731874165,-0.007292132887102482,-0.00901899253838026,-1.134910735531969
14276,13.0,300.09622,46629.485,0.0,-0.07137963067828557,-0.0713786762624854,0.0,0.0,0.0,-3.4788675620874967,-5.468626908161454,-5.226704732835595,0.0016592825570584384,-0.000923441406926571,-1.1344395742354687
14277,13.0,300.06138,46697.18,0.0,-0.07138461217696668,-0.07138367847267257,0.0,0.0,0.0,-3.4818657691333965,-5.469569636054494,-5.243341286227495,-0.002203233410267208,-0.002221282636948528,-1.1379647726583788
14278,13.0,300.28732,46761.83,0.0,-0.07138962666570514,-0.07138868068285953,0.0,0.0,0.0,-3.4973827824898067,-5.471447492464825,-5.245598503475265,0.003840244122177587,0.001161596095465609,-1.129734142096079
14279,13.0,299.74667999999997,46731.310999999994,0.0,-0.07139460816438603,-0.07139364998376907,0.0,0.0,0.0,-3.477882176365247,-5.479406774650345,-5.247862610823716,-0.0011173127091201789,-0.002103057020580568,-1.1388919978248888
14280,13.0,299.97618,46702.32,0.0,-0.07139962265312427,-0.07139865219395625,0.0,0.0,0.0,-3.4838907494582463,-5.470289448925535,-5.242159026010815,0.005135021912112205,0.008385425793327092,-1.134192138561049
14281,13.0,300.07565,46737.681,0.0,-0.07140460415180527,-0.07140365440414331,0.0,0.0,0.0,-3.488300819193487,-5.476780937016195,-5.2420061265707245,0.003411755650989067,0.015621347719206986,-1.137556230218059
14282,13.0,300.00871,46768.122,0.0,-0.07140961864054374,-0.07140865661433038,0.0,0.0,0.0,-3.496555970408207,-5.473252394867954,-5.246532821392475,0.0008661892906962272,0.0013030051780965988,-1.133730704465509
14283,13.0,299.98184,46716.297,0.0,-0.0714146001392244,-0.07141365882451745,0.0,0.0,0.0,-3.4891821441304667,-5.472995434642595,-5.238410203290835,-0.006198415429085974,-0.002099043232959438,-1.1354175632319887
14284,13.0,299.98305,46654.668,0.0,-0.07141961462796287,-0.07141866103470462,0.0,0.0,0.0,-3.479950422469367,-5.465268389379995,-5.236635191765655,-0.007157816859146524,0.002738034108447927,-1.133572130824859
14285,13.0,299.82092,46678.609000000004,0.0,-0.07142462911670144,-0.0714236632448918,0.0,0.0,0.0,-3.480025301651757,-5.469382792736055,-5.239723375420435,-0.001985153516419398,0.00023481545190698078,-1.1363534010243488
14286,13.0,299.97115,46748.462,0.0,-0.07142961061538211,-0.07142866545507875,0.0,0.0,0.0,-3.4927818164357265,-5.474429994134175,-5.243153227008935,-0.0027134902526006377,-0.0029591505101954174,-1.136483704987209
14287,13.0,299.87377000000004,46775.65900000001,0.0,-0.07143462510412057,-0.07143366766526571,0.0,0.0,0.0,-3.498043928180057,-5.480364701294885,-5.2402237183198155,0.0014958867578575286,-0.006827841223630463,-1.1400477108889489
14288,13.0,299.8669,46772.166,0.0,-0.07143960660280146,-0.07143866987545267,0.0,0.0,0.0,-3.487661559705397,-5.480987140831315,-5.2489220651282755,0.007260489795754554,-0.0016623950587156184,-1.132639332782799
14289,13.0,300.08242,46762.115,0.0,-0.07144462109153982,-0.07144367208563984,0.0,0.0,0.0,-3.4963073188336664,-5.478928925903185,-5.239279166576595,0.005109739092966985,-0.0015519402600145784,-1.134638576555109
14290,13.0,300.21005,46804.498,0.0,-0.07144960259022093,-0.07144867429582702,0.0,0.0,0.0,-3.4876600398302466,-5.482987296528715,-5.256751347325965,0.006444819006954114,-0.007429829016067034,-1.1315739003026488
14291,13.0,300.0052,46803.345,0.0,-0.07145461707895939,-0.07145367650601409,0.0,0.0,0.0,-3.492222401055517,-5.483942183422954,-5.250883615996866,0.0011939075265794989,-0.006685528625885304,-1.139394468549479
14292,13.0,299.88343,46773.649000000005,0.0,-0.07145963156769763,-0.07145867871620115,0.0,0.0,0.0,-3.487727927586947,-5.482062503162445,-5.248230927235065,0.0004017288805525536,0.007071930639595213,-1.1392283968580887
14293,13.0,299.83099999999996,46730.112,0.0,-0.07146461306637852,-0.07146364801711069,0.0,0.0,0.0,-3.4877971325687764,-5.479646408298995,-5.237343656235574,-0.0014507723037800785,0.005804685388002845,-1.142333197814509
14294,13.0,299.72776,46732.093,0.0,-0.0714696275551171,-0.07146865022729776,0.0,0.0,0.0,-3.4868894631291965,-5.477444311856665,-5.2410556979769245,-0.007977175169035892,-0.0004311687203530396,-1.139488599483769
14295,13.0,299.65236,46780.53400000001,0.0,-0.07147460905379799,-0.07147365243748494,0.0,0.0,0.0,-3.499730584296517,-5.471345559504765,-5.249037980939715,-0.0027910266833778875,-0.0030201472542903274,-1.1342706654437988
14296,13.0,299.64894,46789.832,0.0,-0.07147962354253623,-0.07147865464767189,0.0,0.0,0.0,-3.486828161498147,-5.478840266519435,-5.257272259202375,-0.006129205381005474,-0.0016008737550439384,-1.137572340894649
14297,13.0,299.85967999999997,46808.324,0.0,-0.07148460504121712,-0.07148365685785907,0.0,0.0,0.0,-3.4908357682936666,-5.478947164404985,-5.258778658126046,0.0023255349264874278,-0.0051058039335536145,-1.136231101737279
14298,13.0,300.05246,46876.585,0.0,-0.0714896195299557,-0.07148865906804625,0.0,0.0,0.0,-3.5057282142884363,-5.486335986784204,-5.257247130599895,-0.0035228785868060466,-0.005309505808482425,-1.1407249672557889
14299,13.0,299.88945,46875.496,0.0,-0.07149460102863636,-0.0714936612782332,0.0,0.0,0.0,-3.5062454784644865,-5.486406002366115,-5.256328720709255,0.000962084698710367,-0.00025597369466513677,-1.136184086932639
14300,13.0,299.99695,46837.362,0.0,-0.07149961551737483,-0.07149866348842038,0.0,0.0,0.0,-3.502340209929067,-5.487262705325665,-5.247785502491105,0.004095087668078686,0.0048020974148301155,-1.1402511715090289
14301,13.0,299.88883,46792.560999999994,0.0,-0.07150463000611329,-0.07150366569860733,0.0,0.0,0.0,-3.492080748691537,-5.481878800919315,-5.249810482815954,0.0024092433675988074,0.006021505811976354,-1.134654687231699
14302,13.0,299.96879,46792.776,0.0,-0.07150961150479407,-0.07150866790879451,0.0,0.0,0.0,-3.4875028847397367,-5.488759681023404,-5.247573023945136,0.004331621582022766,-0.0007789491562287963,-1.1435988485144188
14303,13.0,300.18309,46792.632000000005,0.0,-0.07151462599353253,-0.07151367011898146,0.0,0.0,0.0,-3.4882157061850867,-5.481133352820745,-5.254442758298125,0.0008723752230867312,-0.004797756043451655,-1.1352257549880589
14304,13.0,300.19596,46824.647000000004,0.0,-0.07151960749221364,-0.07151867232916853,0.0,0.0,0.0,-3.502854029054776,-5.486242970425025,-5.244426375759585,0.001024205258756189,0.002418527068990038,-1.1451485132173589
14305,13.0,299.88512000000003,46855.295,0.0,-0.07152462198095189,-0.07152367453935571,0.0,0.0,0.0,-3.498031262553807,-5.486763983626444,-5.258044355778575,-0.0068399850260789635,-0.002860951376753917,-1.140378841021629
14306,13.0,299.91065,46840.337999999996,0.0,-0.07152960347963278,-0.07152867674954266,0.0,0.0,0.0,-3.5087450651361762,-5.482668224072224,-5.246879960876735,-0.0046184048989010755,0.004996666157332555,-1.145394429016629
14307,13.0,299.90668999999997,46877.71,0.0,-0.07153461796837135,-0.07153367895972984,0.0,0.0,0.0,-3.4961910990471967,-5.489068418328874,-5.264393887530225,-0.01035099825156399,-0.0008183906763088712,-1.136570743170799
14308,13.0,299.98647,46903.060999999994,0.0,-0.07153959946705224,-0.07153864826063938,0.0,0.0,0.0,-3.4993497035839263,-5.489668262388075,-5.268341408594815,0.0003334275050292327,0.0005810666603343146,-1.143785387857829
14309,13.0,300.06786,46872.359000000004,0.0,-0.07154461395579048,-0.07154365047082634,0.0,0.0,0.0,-3.4935141936080067,-5.4901280752834545,-5.2643843629792855,0.001073591068630189,-0.0018056845308821884,-1.137720478059269
14310,13.0,300.00964,46843.365,0.0,-0.07154962844452895,-0.07154865268101351,0.0,0.0,0.0,-3.4981644036169466,-5.489316664603375,-5.251732212955615,0.004734394981573405,0.0015751607099062585,-1.148906556513249
14311,13.0,299.92585,46873.846,0.0,-0.07155460994320983,-0.07155365489120069,0.0,0.0,0.0,-3.4991060169348764,-5.491159361235235,-5.258213264570245,0.0016838390785319784,0.0006418849913516164,-1.136256736964809
14312,13.0,299.91263,46903.167,0.0,-0.07155962443194819,-0.07155865710138765,0.0,0.0,0.0,-3.5100099052360068,-5.492186898161645,-5.255194893847355,-0.002124785763675028,0.0017167436662544084,-1.142836479139179
14313,13.0,299.88032000000004,46902.559,0.0,-0.07156460593062908,-0.07156365931157482,0.0,0.0,0.0,-3.4979148401173172,-5.492627155330095,-5.2666647836543445,0.00022383586369087978,-0.003090549593763497,-1.129469886469999
14314,13.0,299.69178,46851.475999999995,0.0,-0.07156962041936754,-0.07156866152176178,0.0,0.0,0.0,-3.4832717549721566,-5.496959508782664,-5.261447660214454,0.0019162990177989882,0.00029104456043886173,-1.1437966349339388
14315,13.0,299.79249,46884.695,0.0,-0.07157460191804832,-0.07157366373194896,0.0,0.0,0.0,-3.498222057547636,-5.490623047957305,-5.262931564985904,0.00012198922240689887,-0.008718163143315713,-1.125796854857499
14316,13.0,299.81725,46937.043,0.0,-0.07157961640678678,-0.07157866594213613,0.0,0.0,0.0,-3.5033500149787264,-5.499115907645486,-5.265223030087054,0.00031713942861172464,-0.004611628788857325,-1.1430129873065988
14317,13.0,300.05591,46949.668,0.0,-0.07158463089552525,-0.07158366815232309,0.0,0.0,0.0,-3.516500988026627,-5.492427646385405,-5.2625982057030045,-0.003001820397081607,-0.0015496613592146688,-1.135434180533629
14318,13.0,300.16682000000003,46915.08,0.0,-0.07158961239420614,-0.07158867036251015,0.0,0.0,0.0,-3.5004188850894464,-5.496247092637354,-5.264346872725585,0.0007233375831028615,0.005581409851617264,-1.149732659319779
14319,13.0,300.19466,46904.768,0.0,-0.07159462688294449,-0.07159367257269711,0.0,0.0,0.0,-3.494717326776747,-5.497165603853005,-5.2659953293132755,-0.0024365196549907676,0.0019976602650537177,-1.141064304714279
14320,13.0,300.19797,46947.486,0.0,-0.0715996083816256,-0.07159867478288429,0.0,0.0,0.0,-3.494086477264487,-5.505452469795855,-5.271324518214224,-0.003924441963087267,-0.001231568208946319,-1.1529738437396588
14321,13.0,299.97062999999997,46958.769,0.0,-0.07160462287036384,-0.07160367699307146,0.0,0.0,0.0,-3.5095141219620767,-5.495686360032015,-5.269092733543966,0.005919511550285305,-0.0072630867557608525,-1.139550306414859
14322,13.0,299.83411,46907.082,0.0,-0.07160960436904473,-0.071608646293981,0.0,0.0,0.0,-3.499178869617067,-5.502909212044854,-5.256493677825535,-0.0014136217928386085,-0.0028478941293402678,-1.1514468758389589
14323,13.0,300.04254,46896.252,0.0,-0.0716146188577832,-0.07161364850416796,0.0,0.0,0.0,-3.504496710116897,-5.491273655846515,-5.259519242624135,0.0065690163141114335,-0.0016567068753042384,-1.1406423873726388
14324,13.0,300.09024,46935.792,0.0,-0.07161960035646409,-0.07161865071435514,0.0,0.0,0.0,-3.5065464137441866,-5.498394169599255,-5.262368299255315,-0.0062722863263014635,0.0038820973294831766,-1.143958450974909
14325,13.0,299.74327999999997,46957.452000000005,0.0,-0.07162461484520244,-0.07162365292454209,0.0,0.0,0.0,-3.500149461887857,-5.500528783584924,-5.273214634950765,0.001803778506119078,0.00892998034094544,-1.1366004313987288
14326,13.0,299.65525,46959.78400000001,0.0,-0.0716296293339409,-0.07162865513472927,0.0,0.0,0.0,-3.500982353470057,-5.504779773054465,-5.268839826319005,-0.0059999669519506344,0.004987167950895155,-1.139087757744209
14327,13.0,299.5538,46976.128,0.0,-0.07163461083262179,-0.07163365734491622,0.0,0.0,0.0,-3.5049932026658963,-5.500794052461105,-5.2737825616318155,0.0025411387410658676,-0.004092986086046277,-1.136860228724369
14328,13.0,299.70119,46990.574,0.0,-0.07163962532136015,-0.0716386595551034,0.0,0.0,0.0,-3.513004363256537,-5.504864886062865,-5.2660919933728145,-0.0051657463909194744,-0.004607843489133746,-1.1422000567513688
14329,13.0,300.06076,47009.074,0.0,-0.07164460682004103,-0.07164366176529058,0.0,0.0,0.0,-3.520603739006537,-5.497089407445485,-5.271891532970185,0.002256041168378928,-0.0039175164999787765,-1.1417407504810388
14330,13.0,300.1139,46988.689000000006,0.0,-0.0716496213087795,-0.07164866397547753,0.0,0.0,0.0,-3.5153027184583667,-5.499954676078265,-5.268130855224035,0.001347963794308669,0.005048666760414615,-1.1457015451219388
14331,13.0,299.8439,46963.934,0.0,-0.07165460280746039,-0.07165366618566471,0.0,0.0,0.0,-3.505167481683096,-5.498635424448064,-5.272060441761854,0.0006072415043375704,-0.000988615041511208,-1.1442116621748988
14332,13.0,299.95462000000003,47001.108,0.0,-0.07165961729619874,-0.07165866839585178,0.0,0.0,0.0,-3.513692562724457,-5.506645267813575,-5.266825485120204,0.00020422668781810478,0.003388483829317317,-1.146082527159539
14333,13.0,299.92647,47026.562000000005,0.0,-0.07166459879487974,-0.07166367060603895,0.0,0.0,0.0,-3.5135978238401067,-5.508167372113794,-5.273135500117954,-0.0017133687328213284,0.0031726435221655367,-1.1404137981500788
14334,13.0,299.94869,47026.258,0.0,-0.0716696132836181,-0.07166867281622591,0.0,0.0,0.0,-3.515433123746236,-5.507923482814725,-5.271451681101775,0.0009255041308176461,0.00034926746145751467,-1.1456810774699189
14335,13.0,300.00202,46986.71400000001,0.0,-0.07167462777235645,-0.07167367502641286,0.0,0.0,0.0,-3.5071411915528863,-5.502039336834004,-5.273607269364516,-0.0024518903550327376,-0.007637561093268592,-1.139320501292179
14336,13.0,300.09198,47023.295999999995,0.0,-0.07167960927103745,-0.07167864432732263,0.0,0.0,0.0,-3.5062398042639265,-5.511555376473165,-5.276112732886785,-6.699288764893324e-05,-0.002026623715187188,-1.1486105861590388
14337,13.0,300.25726000000003,47065.46400000001,0.0,-0.0716846237597758,-0.07168364653750958,0.0,0.0,0.0,-3.5105563510149365,-5.5107080967395445,-5.2854614849344355,-0.0017200954975852083,0.0012658154543762588,-1.141278100485379
14338,13.0,300.11184,47044.051,0.0,-0.07168960525845669,-0.07168864874769676,0.0,0.0,0.0,-3.5210950639800265,-5.506924215566104,-5.2721975345003855,0.0012061060445333989,-0.000999467993729811,-1.1511599234106387
14339,13.0,300.00725,46987.13,0.0,-0.07169461974719515,-0.07169365095788371,0.0,0.0,0.0,-3.507694426107486,-5.502740607228215,-5.272479218028185,0.0034364363969248664,-0.005015894097855206,-1.141180828475779
14340,13.0,300.02006,46971.059,0.0,-0.07169960124587604,-0.07169865316807067,0.0,0.0,0.0,-3.509726803158067,-5.501382041494135,-5.266920325329565,0.0012427261190475188,-0.0014362578000726085,-1.1485455355026188
14341,13.0,300.01974,47058.223,0.0,-0.0717046157346144,-0.07170365537825785,0.0,0.0,0.0,-3.5157016350227366,-5.508791534175395,-5.280031781623565,-0.0023289984179792477,-0.0001067019432456619,-1.136884445401759
14342,13.0,300.00442999999996,47109.542,0.0,-0.07170963022335286,-0.07170865758844502,0.0,0.0,0.0,-3.519076163155777,-5.515052710518325,-5.285995569062145,-0.003251001800098897,0.00016666724940127682,-1.1499154496378188
14343,13.0,300.12235,47110.850999999995,0.0,-0.07171461172203375,-0.07171365979863209,0.0,0.0,0.0,-3.5190972387578565,-5.515050987993154,-5.2863742206245155,-0.005964658428365954,-0.0009256702430390401,-1.138797461590559
14344,13.0,299.84531,47071.386,0.0,-0.0717196262107721,-0.07171866200881916,0.0,0.0,0.0,-3.5216074645555966,-5.511565914274204,-5.275352592661766,0.0048403393987793055,0.007712688116633053,-1.149011123923569
14345,13.0,299.75837,47125.626,0.0,-0.07172460770945299,-0.07172366421900622,0.0,0.0,0.0,-3.522183902537486,-5.515577472745115,-5.287252201836165,0.0015571879836074885,0.004992944388390245,-1.135348560900179
14346,13.0,300.09351000000004,47164.221,0.0,-0.07172962219819146,-0.0717286664291934,0.0,0.0,0.0,-3.530424969575817,-5.519497940032036,-5.286822583793765,0.006930190325506534,0.0032064455455015368,-1.146902955765509
14347,13.0,299.92755,47111.34099999999,0.0,-0.07173460369687235,-0.07173366863938058,0.0,0.0,0.0,-3.5159044876927563,-5.514995056587635,-5.289771648209816,0.0005939296575712934,-0.006174709429746374,-1.138399760926309
14348,13.0,299.94014,47020.314000000006,0.0,-0.0717396181856107,-0.07173867084956753,0.0,0.0,0.0,-3.4980983397104266,-5.515929273179835,-5.2789738471941545,0.004011849172363686,-0.0005458198436807245,-1.150102292956259
14349,13.0,300.2053,47023.505999999994,0.0,-0.0717445996842917,-0.07174367305975449,0.0,0.0,0.0,-3.4996461805631864,-5.516137293425365,-5.278188375716636,-3.5060607629712564e-05,-0.0017109499021826082,-1.148567725679809
14350,13.0,300.09907999999996,47078.638,0.0,-0.07174961417303005,-0.07174867526994144,0.0,0.0,0.0,-3.5153592578139463,-5.517282367363374,-5.278088874556815,-0.003325211933447867,-0.004173911838408026,-1.155542838043199
14351,13.0,300.27077,47101.06,0.0,-0.07175462866176852,-0.0717536445708512,0.0,0.0,0.0,-3.5137864910087266,-5.519310184788504,-5.284449349409545,-0.0028383175986701373,-0.006054667562574165,-1.148301240903509
14352,13.0,300.25551,47056.46400000001,0.0,-0.0717596101604494,-0.07175864678103838,0.0,0.0,0.0,-3.520497246421026,-5.509502531770565,-5.273990277902316,-0.0017806498566864584,0.002984277491475257,-1.1483769306859788
14353,13.0,300.05006000000003,47068.727999999996,0.0,-0.07176462464918776,-0.07176364899122534,0.0,0.0,0.0,-3.5051858215099068,-5.516880309723695,-5.285651671978204,0.004864230924212214,0.003102884191205827,-1.148625480935509
14354,13.0,299.87684,47163.538,0.0,-0.07176960614786865,-0.07176865120141229,0.0,0.0,0.0,-3.520715804467597,-5.527141898786435,-5.288680175202095,-0.0037814616335262066,0.0016612906161066181,-1.150586018553999
14355,13.0,300.0133,47199.583,0.0,-0.07177462063660711,-0.07177365341159947,0.0,0.0,0.0,-3.528546099915386,-5.524902413415415,-5.294046043756665,-0.0031587320035925772,0.004862533324994676,-1.146826962008009
14356,13.0,299.81723,47152.89599999999,0.0,-0.071779602135288,-0.07177865562178654,0.0,0.0,0.0,-3.528470612782937,-5.523805671507175,-5.281026590571745,-0.0007487364599145352,0.007052102044413284,-1.145241326926519
14357,13.0,299.93536,47092.317,0.0,-0.07178461662402635,-0.07178365783197371,0.0,0.0,0.0,-3.5108184788158066,-5.522657355168845,-5.281412537534836,0.001144476019125989,0.008527902942888492,-1.1480494482536592
14358,13.0,300.02937000000003,47113.380999999994,0.0,-0.07178959812270724,-0.07178866004216067,0.0,0.0,0.0,-3.5250609248714264,-5.517716646356235,-5.2785138316487545,-5.6476340543030853e-05,-0.003373511843189697,-1.1389745777080387
14359,13.0,299.94776,47165.977999999996,0.0,-0.07179461261144571,-0.07179366225234785,0.0,0.0,0.0,-3.511398564498057,-5.525775227051554,-5.300105887304725,0.0037827317425265564,-0.004339027427003666,-1.150896681034659
14360,13.0,300.03632999999996,47169.504,0.0,-0.07179962710018395,-0.07179866446253502,0.0,0.0,0.0,-3.5208957576853566,-5.520610083341794,-5.296845552457954,0.004497669968660465,-0.0008045912839919773,-1.1420665103881888
14361,13.0,300.08799,47140.608,0.0,-0.07180460859886484,-0.07180366667272198,0.0,0.0,0.0,-3.5165560075070563,-5.524263964527404,-5.288747961633785,0.007215026884967713,-0.0005780889614704386,-1.157338114570379
14362,13.0,300.08437000000004,47164.471,0.0,-0.07180962308760341,-0.07180866888290915,0.0,0.0,0.0,-3.5247829903689967,-5.522316599160215,-5.2897219989549145,-0.004779895179963925,-0.005778337845652545,-1.142610017741829
14363,13.0,300.08819,47222.852999999996,0.0,-0.0718146045862843,-0.07181367109309611,0.0,0.0,0.0,-3.5298652502205763,-5.527656629837235,-5.297046378627774,-0.00942444790962059,-0.0029611272598155072,-1.157102331272109
14364,13.0,300.03559,47259.223,0.0,-0.07181961907502277,-0.07181867330328329,0.0,0.0,0.0,-3.5408325679779664,-5.526555834928595,-5.298235224970105,-0.008904057755687082,0.002322047319643228,-1.141020937609999
14365,13.0,299.87642999999997,47194.939000000006,0.0,-0.07182460057370366,-0.07182364260419283,0.0,0.0,0.0,-3.515664144769037,-5.528070745153104,-5.302348209776024,-0.0007752682617955202,0.004427551237890286,-1.161973227152829
14366,13.0,299.98572,47143.273,0.0,-0.07182961506244201,-0.07182864481437978,0.0,0.0,0.0,-3.5160728898593763,-5.525374182661975,-5.288930751951825,-0.0017428848095593383,-0.0070066032645729045,-1.145950196696479
14367,13.0,299.98939,47139.559,0.0,-0.07183462955118047,-0.07183364702456696,0.0,0.0,0.0,-3.5154214713700864,-5.5232997557322445,-5.2905276341094245,0.005732525870206255,-0.005194608617367955,-1.1587649733611989
14368,13.0,299.8762,47211.795999999995,0.0,-0.07183961104986136,-0.07183864923475392,0.0,0.0,0.0,-3.525084533598757,-5.525692748493415,-5.300429823361695,0.003135264422001507,-0.0018270439443151983,-1.143649511019419
14369,13.0,299.89146,47186.43,0.0,-0.0718446255385996,-0.07184365144494098,0.0,0.0,0.0,-3.5238967005065267,-5.5277132705178245,-5.291886605143545,0.003532432420673937,0.0015452043759997985,-1.1556987772335887
14370,13.0,299.6721,47132.1,0.0,-0.0718496070372805,-0.07184865365512816,0.0,0.0,0.0,-3.513899772369907,-5.518098236343895,-5.294983401424175,0.0008272262475783743,-9.93180128379247e-05,-1.1420777574642988
14371,13.0,299.66447,47184.89,0.0,-0.07185462152601907,-0.07185365586531511,0.0,0.0,0.0,-3.512263373458407,-5.530557970173574,-5.3002068070146855,-5.8331036082575046e-05,0.002056784218988798,-1.150703352915579
14372,13.0,299.81971,47299.943,0.0,-0.07185960302469996,-0.07185865807550229,0.0,0.0,0.0,-3.5368181724067767,-5.533287463292954,-5.307895956723545,-0.0006360272000059974,0.007387044125294492,-1.135988732313359
14373,13.0,299.84548,47291.791,0.0,-0.0718646175134382,-0.07186366028568947,0.0,0.0,0.0,-3.5394948751959467,-5.536069949392565,-5.2999587633902046,-0.004483483555335376,-0.0009065698605714792,-1.1492555198476888
14374,13.0,299.74965,47207.724,0.0,-0.07186959901211909,-0.07186866249587642,0.0,0.0,0.0,-3.532086497089797,-5.531173620934335,-5.286709099782565,0.001999244380260058,-0.0025191962022003077,-1.145050734582709
14375,13.0,300.05662,47207.167,0.0,-0.07187461350085766,-0.0718736647060636,0.0,0.0,0.0,-3.5364277671432465,-5.526890612761635,-5.286481625135115,-0.0025887977701194477,0.0025143949166014576,-1.1523019575983489
14376,13.0,300.16033,47240.318,0.0,-0.0718796279895959,-0.07187866691625056,0.0,0.0,0.0,-3.5271598724535767,-5.535244049236055,-5.297473260894904,0.0071866032944875235,0.012865123035688788,-1.1543484188253188
14377,13.0,299.95795,47237.452000000005,0.0,-0.07188460948827702,-0.07188366912643773,0.0,0.0,0.0,-3.520652476336347,-5.536880650797575,-5.301472660364615,-0.0015052568894822886,0.0052522675129834445,-1.1598846147216988
14378,13.0,300.10146000000003,47211.777,0.0,-0.07188962397701526,-0.07188867133662491,0.0,0.0,0.0,-3.525050893695437,-5.528077229953745,-5.298073307604125,0.0025738129157155576,-0.0070281003786945035,-1.1496607185626788
14379,13.0,300.12956,47184.72900000001,0.0,-0.07189460547569626,-0.07189364063753423,0.0,0.0,0.0,-3.5121314482953863,-5.538170315524854,-5.292677548171604,-0.0008003060568015583,-0.005934070535672164,-1.156125659500719
14380,13.0,300.00945,47232.227,0.0,-0.07189961996443472,-0.0718986428477214,0.0,0.0,0.0,-3.5302136056049567,-5.529057853400524,-5.298146058961304,0.0016205967695654487,-0.00018448148311940482,-1.1486470631626389
14381,13.0,299.98505,47350.29,0.0,-0.07190460146311561,-0.07190364505790858,0.0,0.0,0.0,-3.535851835786407,-5.548817040950604,-5.308637047846685,-0.005608022156218694,0.0012697025857348887,-1.151987951392359
14382,13.0,299.84242,47337.189000000006,0.0,-0.07190961595185386,-0.07190864726809554,0.0,0.0,0.0,-3.5357207212234667,-5.546178639015215,-5.307424187476985,-0.0026085452039683672,-0.0023596777058320574,-1.149911801937459
14383,13.0,299.73965,47234.678,0.0,-0.07191459745053475,-0.07191364947828272,0.0,0.0,0.0,-3.513609273566236,-5.542918304168444,-5.3016349830306355,-2.5343170347676175e-05,0.006171405829120334,-1.1499887076200488
14384,13.0,299.77849,47223.022000000004,0.0,-0.07191961193927332,-0.07191865168846978,0.0,0.0,0.0,-3.5287065987312265,-5.533874135100854,-5.292038693983555,0.005465530111880825,0.001093269297497279,-1.1458690353634688
14385,13.0,299.9497,47294.273,0.0,-0.07192462642801156,-0.07192365389865674,0.0,0.0,0.0,-3.5290936602694267,-5.541794711132554,-5.305389783926205,0.0014995861339726286,-0.005536986231457995,-1.154170694757779
14386,13.0,299.96394,47310.356,0.0,-0.07192960792669245,-0.07192865610884391,0.0,0.0,0.0,-3.5484099562007967,-5.534295241842415,-5.298461686367455,-0.003335855821773337,-0.008474504561293481,-1.1468634390116088
14387,13.0,300.1413,47279.429000000004,0.0,-0.07193462241543103,-0.07193365831903087,0.0,0.0,0.0,-3.5281445489007566,-5.537967665504855,-5.305653431602225,-0.00020867322442444378,-0.00046034077841709754,-1.1586676000265888
14388,13.0,300.06119,47277.942,0.0,-0.07193960391411192,-0.07193866052921805,0.0,0.0,0.0,-3.532949887500007,-5.534343877847215,-5.3040199711160145,-0.0001216572715416379,0.005550790244195344,-1.153118333203919
14389,13.0,300.19221,47328.136,0.0,-0.07194461840285016,-0.071943662739405,0.0,0.0,0.0,-3.5315250552093866,-5.5436013360608545,-5.311445270498836,-0.0032420709123924868,0.0025588006022339575,-1.1590666179159688
14390,13.0,299.85356,47383.935999999994,0.0,-0.07194959990153127,-0.07194866494959218,0.0,0.0,0.0,-3.5465425362664966,-5.539691001274935,-5.317299829576635,-0.0009934490449557871,-0.006100665976038854,-1.1435718960617591
14391,13.0,300.07716,47350.944,0.0,-0.07195461439026951,-0.07195366715977936,0.0,0.0,0.0,-3.531215405978827,-5.5413183822605445,-5.320970733363924,0.003373542443342717,-0.003171188495021937,-1.1527221524148188
14392,13.0,300.13914,47288.89,0.0,-0.07195962887900786,-0.07195866936996631,0.0,0.0,0.0,-3.5360379698297764,-5.536229232308285,-5.302374554278625,0.004297236737229246,-0.007887354600671293,-1.144383712041879
14393,13.0,300.00017,47283.985,0.0,-0.07196461037768898,-0.07196363867087585,0.0,0.0,0.0,-3.520061244902997,-5.541948522497735,-5.311140890168795,0.0048185643501552754,-0.0065908203416883224,-1.162575300362249
14394,13.0,300.0082,47337.198,0.0,-0.07196962486642722,-0.07196864088106303,0.0,0.0,0.0,-3.5365694195072264,-5.5425818038102355,-5.310174756198445,0.00015721223781563985,-0.0032055977591428668,-1.154813601946229
14395,13.0,300.04374,47301.922999999995,0.0,-0.07197460636510811,-0.07197364309124998,0.0,0.0,0.0,-3.5323401135898265,-5.5377849765118246,-5.308478271556015,0.0026591075998584875,0.008823521496663772,-1.1607832662353887
14396,13.0,299.81073,47298.71400000001,0.0,-0.07197962085384668,-0.07197864530143716,0.0,0.0,0.0,-3.5299316181021263,-5.540182224923415,-5.307514164085865,-0.006790481375218334,0.0013350923769633587,-1.1514784892420789
14397,13.0,299.9051,47367.247,0.0,-0.07198460235252757,-0.07198364751162423,0.0,0.0,0.0,-3.532302927311157,-5.551509043816285,-5.314648255389945,-0.0022990360045721876,0.0026537913805588175,-1.1533787384796188
14398,13.0,300.00027,47415.112,0.0,-0.07198961684126581,-0.0719886497218114,0.0,0.0,0.0,-3.546097516822577,-5.546780813549645,-5.320131863606135,-0.007562340648244913,-0.005641710492893475,-1.148064343030129
14399,13.0,299.94145,47446.202000000005,0.0,-0.0719945983399467,-0.07199365193199836,0.0,0.0,0.0,-3.5394646803429666,-5.560015379730795,-5.322980717587296,-0.0039180816908845565,0.00023873982020678576,-1.1586681066516389
14400,13.0,300.1954,47447.924000000006,0.0,-0.07199961282868517,-0.07199865414218531,0.0,0.0,0.0,-3.5415700114007462,-5.560358162239624,-5.321055947697335,-0.0024129177164364376,-0.0033521247680289574,-1.149945948465829
14401,13.0,300.1655,47375.107,0.0,-0.07200462731742352,-0.07200365635237249,0.0,0.0,0.0,-3.5396756390137867,-5.551436089809085,-5.3097380454053456,0.005318074763253115,0.0016775880346900482,-1.154055994846459
14402,13.0,300.09418,47342.740999999995,0.0,-0.07200960881610441,-0.07200865856255945,0.0,0.0,0.0,-3.529367643096467,-5.551914242531274,-5.309729128804465,0.001096141557555749,-0.0017033107057036784,-1.146531295628829
14403,13.0,300.02367999999996,47331.19,0.0,-0.07201462330484287,-0.07201366077274662,0.0,0.0,0.0,-3.531844026340867,-5.544212629846185,-5.311443142673625,0.004288385997605746,0.002093570973144368,-1.1520984969782688
14404,13.0,299.941,47362.994000000006,0.0,-0.07201960480352376,-0.0720186629829338,0.0,0.0,0.0,-3.536185701694357,-5.547018015398055,-5.313963906272404,-0.0024662389896988376,-0.0007156937662034752,-1.1498099703024092
14405,13.0,300.06224,47389.611,0.0,-0.07202461929226212,-0.07202366519312087,0.0,0.0,0.0,-3.5324238080480868,-5.557246065882485,-5.315588450157735,0.0008389195995624182,-0.002189745328911038,-1.160020694210129
14406,13.0,299.92769,47396.72,0.0,-0.07202960079094323,-0.07202866740330793,0.0,0.0,0.0,-3.545074843496647,-5.548434032412804,-5.313910609317144,0.0021689693448856077,-0.0006983862487278564,-1.1562133056343689
14407,13.0,300.03423,47438.219000000005,0.0,-0.07203461527968147,-0.072033669613495,0.0,0.0,0.0,-3.5467138768584068,-5.552058630670524,-5.321261536142625,-0.003393475200634926,0.0011325562462745989,-1.1538527368763989
14408,13.0,300.13995,47464.412000000004,0.0,-0.07203959677836236,-0.07203863891440454,0.0,0.0,0.0,-3.550130961495647,-5.552170898781604,-5.325694100030086,0.0003185266186611297,0.001863203395333858,-1.151196299089229
14409,13.0,300.00928999999996,47452.78,0.0,-0.07204461126710082,-0.0720436411245916,0.0,0.0,0.0,-3.5433886940052366,-5.555473384832535,-5.325598145245616,-0.004174937754134276,0.0009527467276437811,-1.155212315860579
14410,13.0,299.87367,47438.584,0.0,-0.0720496257558394,-0.07204864333477867,0.0,0.0,0.0,-3.5491429413231366,-5.554339152670594,-5.316662799238765,0.003666416102597096,-0.00027008485390529974,-1.154460484286379
14411,13.0,300.06203,47434.945,0.0,-0.07205460725452006,-0.07205364554496585,0.0,0.0,0.0,-3.5319138392727565,-5.5588345380642545,-5.328290350761315,-4.026699467154296e-05,0.004819822604129455,-1.160825417439549
14412,13.0,299.92383,47426.249,0.0,-0.07205962174325853,-0.07205864775515303,0.0,0.0,0.0,-3.5495997144682168,-5.557971046329035,-5.308824803090215,0.005251393584772195,0.0012830768791048288,-1.158781489337829
14413,13.0,299.87733,47434.259000000005,0.0,-0.07206460324193942,-0.07206364996533998,0.0,0.0,0.0,-3.537040276828697,-5.558768372832724,-5.323021551566325,0.0003359040807911517,-0.0007646983001973464,-1.152856205403049
14414,13.0,299.82809,47421.844000000005,0.0,-0.07206961773067777,-0.07206865217552716,0.0,0.0,0.0,-3.5439812426637167,-5.554854289021435,-5.316220819545145,0.0018502020793257285,0.0014501566530193187,-1.151623080031349
14415,13.0,300.05827,47435.193,0.0,-0.07207459922935866,-0.07207365438571411,0.0,0.0,0.0,-3.5314170427487266,-5.560000586279335,-5.327696586202715,0.0014105434377097985,-0.00010102504338739551,-1.1496314356347888
14416,13.0,300.06757000000005,47494.971,0.0,-0.07207961371809712,-0.07207865659590107,0.0,0.0,0.0,-3.5510227229086566,-5.563735223497915,-5.322527288167545,0.0034449672534917963,-0.0034748504307410364,-1.155576072646479
14417,13.0,300.12831,47503.747,0.0,-0.07208462820683548,-0.07208365880608825,0.0,0.0,0.0,-3.5422774626205666,-5.567747592568904,-5.329927762922915,0.0034829603832164263,-0.006195780674850944,-1.161070218663709
14418,13.0,300.0757,47443.003,0.0,-0.07208960970551637,-0.07208866101627531,0.0,0.0,0.0,-3.5537676174295565,-5.558351319091565,-5.309369526343975,0.006396643929624604,-0.002438840099044778,-1.162634068868049
14419,13.0,299.92658,47446.569,0.0,-0.07209462419425483,-0.07209366322646249,0.0,0.0,0.0,-3.543076815624457,-5.555108918771564,-5.324386602101045,-0.001102826475090499,0.01033192888468199,-1.158549455064929
14420,13.0,299.93223,47488.602,0.0,-0.07209960569293572,-0.07209866543664945,0.0,0.0,0.0,-3.555664320291747,-5.557341311391886,-5.3223436872494245,-0.005144812238553435,0.006180447769037704,-1.1623055731856289
14421,13.0,300.02123,47471.791,0.0,-0.07210462018167407,-0.07210366764683662,0.0,0.0,0.0,-3.5395859663799367,-5.558798871660735,-5.3318543566630545,-0.0095552444133542,-0.0004924559531191186,-1.1586271713475988
14422,13.0,299.96656,47462.764,0.0,-0.07210960168035507,-0.07210863694774616,0.0,0.0,0.0,-3.5390722485792367,-5.561957476197465,-5.326465284681195,-0.002885720376773427,-0.0026538240072120373,-1.1646969447466389
14423,13.0,299.85873,47496.497,0.0,-0.07211461616909365,-0.07211363915793312,0.0,0.0,0.0,-3.545888382001936,-5.5610345066813744,-5.330826211786586,0.006440975344024774,-0.0007536196667839701,-1.1546809675081386
14424,13.0,300.08808999999997,47538.185999999994,0.0,-0.07211959766777432,-0.0721186413681203,0.0,0.0,0.0,-3.5631062369762065,-5.561101989138035,-5.326213390706336,0.0003320460803728967,-0.004916878892783165,-1.1538329784994488
14425,13.0,299.93847,47542.435,0.0,-0.07212461215651278,-0.07212364357830747,0.0,0.0,0.0,-3.5511496831461864,-5.566453165566154,-5.334110155360685,0.004972652535262595,-0.006751442571390503,-1.151156073060259
14426,13.0,300.04598,47522.490999999995,0.0,-0.07212962664525135,-0.07212864578849443,0.0,0.0,0.0,-3.5490499249639567,-5.564790624802074,-5.331809976308675,-0.0012670880965018588,-0.0017537507009817183,-1.1536423861556389
14427,13.0,299.79161,47524.522000000004,0.0,-0.07213460814393202,-0.0721336479986816,0.0,0.0,0.0,-3.5385523499529263,-5.572506119013536,-5.335209430394174,0.001044373799346669,0.008564380858413581,-1.151902433083919
14428,13.0,299.95115,47567.788,0.0,-0.07213962263267049,-0.07213865020886856,0.0,0.0,0.0,-3.5462584209384564,-5.577599727266235,-5.335561534803925,-0.006075461987751414,0.004810553088239626,-1.1596023232438386
14429,13.0,299.88554,47549.557,0.0,-0.07214460413135138,-0.07214365241905574,0.0,0.0,0.0,-3.5516583346963864,-5.566910141361254,-5.335309438179045,-0.00021059566383917376,0.002118057884336038,-1.159904575748669
14430,13.0,300.0577,47500.602999999996,0.0,-0.07214961862008973,-0.07214865462924269,0.0,0.0,0.0,-3.547917212677167,-5.5647864704766645,-5.326293538789245,-0.0076310419434502015,0.003536760214501056,-1.161570865538119
14431,13.0,300.13049,47522.105,0.0,-0.07215460011877062,-0.07215365683942976,0.0,0.0,0.0,-3.5463738301248466,-5.565593118881274,-5.333566445357025,0.0034222507941998564,0.003738919416152616,-1.161779392408699
14432,13.0,300.13572999999997,47580.027,0.0,-0.07215961460750908,-0.07215865904961694,0.0,0.0,0.0,-3.5594310775384965,-5.562503618001365,-5.3412053378609246,-0.00022298642573454681,-0.002085670358139638,-1.152490219466929
14433,13.0,299.96337,47579.639,0.0,-0.07216459610618997,-0.07216366125980389,0.0,0.0,0.0,-3.5518494336652466,-5.570440507359675,-5.340732251389236,0.0036176512123843765,-0.005540364001991355,-1.157809579841909
14434,13.0,300.13397000000003,47538.537000000004,0.0,-0.07216961059492832,-0.07216866346999107,0.0,0.0,0.0,-3.5471872673051266,-5.568865612729245,-5.334475432021735,-0.0027021945404858377,-0.0008889306354106232,-1.1554344202824989
14435,13.0,300.03828,47579.208,0.0,-0.07217462508366679,-0.07217366568017825,0.0,0.0,0.0,-3.5603569854798764,-5.573024193789665,-5.329510101231695,0.003020556100705677,0.006040572544408094,-1.1591813178272887
14436,13.0,299.9679,47650.329000000005,0.0,-0.0721796065823479,-0.07217863498108756,0.0,0.0,0.0,-3.565794085516477,-5.5805820262855645,-5.338134075482815,7.203232856453733e-05,0.0007424194636235965,-1.1561784498309289
14437,13.0,299.97587999999996,47608.675,0.0,-0.07218462107108614,-0.07218363719127474,0.0,0.0,0.0,-3.5568703918857767,-5.579007638280185,-5.3359703812192745,2.560429807069748e-05,-0.0048961236803847855,-1.157295558066179
14438,13.0,299.96361,47559.898,0.0,-0.07218960256976703,-0.07218863940146192,0.0,0.0,0.0,-3.546963946983087,-5.577051153662095,-5.333006320701745,-0.000959573783902559,-0.0004619918086600416,-1.1617316683289889
14439,13.0,300.05566,47571.630999999994,0.0,-0.0721946170585055,-0.07219364161164887,0.0,0.0,0.0,-3.5457687171651266,-5.573289260015825,-5.341529881867954,0.0009070518028490432,0.0036536398294361766,-1.156379377325759
14440,13.0,300.0129,47586.495,0.0,-0.07219959855718627,-0.07219864382183605,0.0,0.0,0.0,-3.5498978126476364,-5.577191995425995,-5.338016335821195,0.003526494775087937,0.0004898451926464566,-1.165727622748359
14441,13.0,300.04794,47583.426,0.0,-0.07220461304592474,-0.072203646032023,0.0,0.0,0.0,-3.5551460428655965,-5.570471816787765,-5.338555486199405,0.001125146044318269,-0.005370315303958855,-1.155485792062569
14442,13.0,299.90645,47583.087,0.0,-0.0722096275346632,-0.07220864824221018,0.0,0.0,0.0,-3.5526716861213967,-5.574903266100115,-5.336495244771075,0.005054441678034555,0.00011067499821277187,-1.167594536057609
14443,13.0,299.65948,47556.242,0.0,-0.07221460903334398,-0.07221365045239736,0.0,0.0,0.0,-3.5488696677711666,-5.568951941637765,-5.338088479228315,0.0002903643757792327,0.004179044760764606,-1.1576670155528388
14444,13.0,299.80764,47643.164000000004,0.0,-0.07221962352208244,-0.07221865266258432,0.0,0.0,0.0,-3.5652723630399863,-5.577972603303035,-5.339087341176895,-0.0013488416741953087,-0.0023779607906364575,-1.162847965964159
14445,13.0,300.09705,47690.502,0.0,-0.07222460502076333,-0.07222365487277149,0.0,0.0,0.0,-3.5566160661106765,-5.5862339353433645,-5.353871876036015,-0.0071285643287595235,-0.005243767053919515,-1.155862619774759
14446,13.0,300.0467,47604.73,0.0,-0.07222961950950169,-0.07222865708295856,0.0,0.0,0.0,-3.556660547790067,-5.581007591327565,-5.332981090774255,-0.00041486252702374355,0.006576589446683843,-1.162395752444529
14447,13.0,300.12915,47602.495,0.0,-0.07223460100818258,-0.07223365929314551,0.0,0.0,0.0,-3.5475865891695366,-5.580429329495495,-5.341953825709795,-0.003971148841021876,0.007438281041776182,-1.1587317387579188
14448,13.0,300.14357,47631.46599999999,0.0,-0.07223961549692104,-0.07223866150333269,0.0,0.0,0.0,-3.5612420594422263,-5.581661542942104,-5.3358728052346445,-0.000839612936208345,-0.0015586765493293985,-1.1610573503874388
14449,13.0,300.11566,47666.129,0.0,-0.07224459699560215,-0.07224366371351965,0.0,0.0,0.0,-3.5602559644449068,-5.581188456470414,-5.347868571843535,-0.005863961228127915,-0.008410875089463742,-1.1581400006995188
14450,13.0,300.05051000000003,47648.625,0.0,-0.07224961148434039,-0.07224866592370682,0.0,0.0,0.0,-3.5643708744260163,-5.578717443451545,-5.340903794631164,0.005092607161601195,0.0009408524481649073,-1.160653772872609
14451,13.0,300.02078,47666.856,0.0,-0.07225462597307875,-0.07225363522461636,0.0,0.0,0.0,-3.5560242267272666,-5.581187240570294,-5.352322413983095,0.007784021024998062,0.002433053630373698,-1.157329501944529
14452,13.0,299.96991,47669.742,0.0,-0.07225960747175975,-0.07225863743480332,0.0,0.0,0.0,-3.5677077096553367,-5.581653132966275,-5.341050513245645,0.0032350933682288568,0.001220169854596389,-1.1653985191158789
14453,13.0,299.85776,47649.26,0.0,-0.0722646219604981,-0.0722636396449905,0.0,0.0,0.0,-3.5529700882758464,-5.5799316210463745,-5.3512834273305545,0.0013439522358377589,0.00016290457555242984,-1.1629307484973288
14454,13.0,300.01153999999997,47680.310999999994,0.0,-0.07226960345917899,-0.07226864185517745,0.0,0.0,0.0,-3.566081037944797,-5.582932563867544,-5.344610162171954,0.0011243623966909289,0.006113431508748714,-1.169139641135099
14455,13.0,299.80458,47679.945,0.0,-0.07227461794791745,-0.07227364406536463,0.0,0.0,0.0,-3.562741568265217,-5.5780946999400856,-5.352676646218055,-0.001017808205574849,0.006992359095992114,-1.1576830249044188
14456,13.0,299.78552,47653.359000000004,0.0,-0.07227959944659823,-0.0722786462755518,0.0,0.0,0.0,-3.560805044674097,-5.583959290193874,-5.340666998082795,-0.003266498143153267,-0.003365366528285817,-1.1676526966133487
14457,13.0,299.89377,47664.627,0.0,-0.0722846139353367,-0.07228364848573876,0.0,0.0,0.0,-3.5564413817934364,-5.579266928980775,-5.353147908839565,-0.0028108585209601373,-0.004767107355751865,-1.1545358700938189
14458,13.0,300.18599,47722.015999999996,0.0,-0.07228959543401758,-0.07228865069592594,0.0,0.0,0.0,-3.566696688705557,-5.588759461217615,-5.350845297987315,-0.0008822242471062542,0.002856571805846687,-1.161749805505779
14459,13.0,300.05347,47718.886,0.0,-0.07229460992275583,-0.072293652906113,0.0,0.0,0.0,-3.5607752551211567,-5.591809546668634,-5.3527651029517855,0.002493596843723848,0.0025458762932334274,-1.1532258390395291
14460,13.0,300.17916,47740.350999999995,0.0,-0.0722996244114944,-0.07229865511630018,0.0,0.0,0.0,-3.5660085905626464,-5.593133357924285,-5.352732678948585,-0.0040314984222779154,-0.0023624587733815277,-1.1625399379337589
14461,13.0,300.07268,47751.475,0.0,-0.07230460591017529,-0.07230365732648714,0.0,0.0,0.0,-3.5678095412903863,-5.591519453165004,-5.355926848563825,-0.0013307820110379585,-0.001719399800066548,-1.159322058266179
14462,13.0,300.02338,47712.568,0.0,-0.07230962039891353,-0.07230865953667409,0.0,0.0,0.0,-3.5584854112201665,-5.589630754978605,-5.355313325628275,0.0016322899796944784,0.004395833064709946,-1.165842018684649
14463,13.0,300.04691,47707.081,0.0,-0.07231460189759464,-0.07231366174686127,0.0,0.0,0.0,-3.5636184349017563,-5.586888292257944,-5.351254752352725,0.003675621378430587,0.002095540528688748,-1.167003000649229
14464,13.0,299.9401,47695.883,0.0,-0.072319616386333,-0.07231866395704822,0.0,0.0,0.0,-3.5645596429196464,-5.582434146143354,-5.351363575413465,0.0011497011472416689,-0.006213289028628884,-1.164146547292319
14465,13.0,299.80995,47706.453,0.0,-0.072324597885014,-0.07232363325795799,0.0,0.0,0.0,-3.5594512412154864,-5.587435852611985,-5.354683489366115,0.00028095083652018876,0.0016077229204198985,-1.1653538347864687
14466,13.0,299.82235,47738.318,0.0,-0.07232961237375235,-0.07232863546814494,0.0,0.0,0.0,-3.570866010217036,-5.586893662483474,-5.353497074824025,-0.0036475896117640666,0.004134006401769666,-1.158586236043559
14467,13.0,299.7389,47790.831,0.0,-0.07233462686249081,-0.0723336376783319,0.0,0.0,0.0,-3.574334061334307,-5.593413014951885,-5.359472109338715,-0.0008352636513466042,0.0015320680950783486,-1.1558422534477488
14468,13.0,299.96837999999997,47779.804000000004,0.0,-0.0723396083611717,-0.07233863988851907,0.0,0.0,0.0,-3.5716446929188863,-5.593499647835435,-5.358723114864795,-0.007194970004538253,-0.004164590545438086,-1.1600986131428188
14469,13.0,300.15312,47753.764,0.0,-0.07234462284991006,-0.07234364209870625,0.0,0.0,0.0,-3.565273882915136,-5.595978057580035,-5.354699904017735,-0.003256453794911967,-0.005448719076821705,-1.1627403588035388
14470,13.0,299.95977999999997,47762.666,0.0,-0.07234960434859095,-0.07234864430889332,0.0,0.0,0.0,-3.5693905154214165,-5.595250138708194,-5.354017277425365,-0.003435403793747957,0.004453292147405715,-1.1623826815182388
14471,13.0,300.1748,47767.303,0.0,-0.07235461883732941,-0.07235364651908038,0.0,0.0,0.0,-3.561072137400457,-5.597959265500565,-5.361035959543055,-0.001130009847448289,0.0015819687373281586,-1.1678599062587989
14472,13.0,300.07674,47721.710999999996,0.0,-0.07235960033601008,-0.07235864872926745,0.0,0.0,0.0,-3.5605059332445763,-5.594327169192105,-5.351375430439636,-0.00027006430519327173,-0.006428007870569984,-1.1695276145983888
14473,13.0,300.02624,47710.619000000006,0.0,-0.07236461482474865,-0.07236365093945463,0.0,0.0,0.0,-3.5586155125330063,-5.592877512274035,-5.351343918361525,0.0010539382723406092,-0.0017454194546844884,-1.1730729766982888
14474,13.0,300.04257,47770.445999999996,0.0,-0.07236959632342954,-0.0723686531496418,0.0,0.0,0.0,-3.5682644905852867,-5.596781666234344,-5.355976497818725,0.007482016969092582,0.007154102588254953,-1.171440225487149
14475,13.0,299.94914,47736.822,0.0,-0.07237461081216778,-0.07237365535982876,0.0,0.0,0.0,-3.566371030123417,-5.5914128592544845,-5.353017908851736,0.0024029917158068176,0.008123461429698222,-1.1682671314739888
14476,13.0,299.81392,47799.43,0.0,-0.07237962530090625,-0.07237865757001594,0.0,0.0,0.0,-3.570986283003907,-5.602040940878394,-5.356805944350585,0.003036258133530347,-0.002796658732733727,-1.1675084097991089
14477,13.0,299.85877999999997,47869.129,0.0,-0.07238460679958725,-0.07238365978020289,0.0,0.0,0.0,-3.5755687065811568,-5.603990028770754,-5.371460985846925,-0.0013555011591525486,-0.003303121156092677,-1.161026040959349
14478,13.0,299.80894,47818.691,0.0,-0.07238962128832549,-0.07238866199038985,0.0,0.0,0.0,-3.5781637414122667,-5.597891580393885,-5.359632709479565,0.0005492363710304095,0.006222960703483404,-1.157320889318679
14479,13.0,299.93496,47792.462,0.0,-0.0723946027870066,-0.07239363129129961,0.0,0.0,0.0,-3.5651189569748465,-5.600730403199054,-5.361865710049945,-0.004120046652491946,0.0019269703652021683,-1.1595518633888589
14480,13.0,300.01921,47843.130999999994,0.0,-0.07239961727574484,-0.07239863350148656,0.0,0.0,0.0,-3.5810008416922665,-5.6006744717935355,-5.361442070183135,-0.005878322224445234,-0.0070618272188730825,-1.1675021276484887
14481,13.0,299.88013,47812.995,0.0,-0.07240459877442595,-0.07240363571167352,0.0,0.0,0.0,-3.5690884655666064,-5.598922359720615,-5.365945662902605,-0.004693121758625056,-0.0015477959657805686,-1.1648195480087389
14482,13.0,299.95758,47758.372,0.0,-0.07240961326316431,-0.0724086379218607,0.0,0.0,0.0,-3.5662112405826467,-5.593952165330095,-5.357189256863415,0.007410083912693342,0.004878613401431655,-1.1722516361672288
14483,13.0,299.95804,47812.342000000004,0.0,-0.0724145947618452,-0.07241364013204776,0.0,0.0,0.0,-3.5681128070453165,-5.598947792298124,-5.366697393151795,-0.0013493070599662387,0.0029740033381112775,-1.1658803195384289
14484,13.0,299.93051,47841.569,0.0,-0.07241960925058366,-0.07241864234223494,0.0,0.0,0.0,-3.5887839196853966,-5.593812032841265,-5.360046419495395,0.0024059153476453576,-0.005767464050879385,-1.1687002958917387
14485,13.0,300.05214,47856.560999999994,0.0,-0.07242462373932201,-0.0724236445524219,0.0,0.0,0.0,-3.5757345756225263,-5.606039428423015,-5.3654255616262745,0.0016647141855444982,-0.0028747907519197573,-1.1648639283631188
14486,13.0,299.98012,47846.394,0.0,-0.0724296052380029,-0.07242864676260907,0.0,0.0,0.0,-3.5773020735272265,-5.602988329721895,-5.363818749617694,0.012448438117565188,0.009271636318314262,-1.163690179447279
14487,13.0,300.20956,47879.403,0.0,-0.07243461972674137,-0.07243364897279625,0.0,0.0,0.0,-3.577373001034226,-5.6060675967757945,-5.3707023654970545,0.0014761126755309787,0.0031026347290312073,-1.160095168092479
14488,13.0,300.24001,47886.948,0.0,-0.07243960122542203,-0.0724386511829832,0.0,0.0,0.0,-3.5738537807869064,-5.610606146623715,-5.371976426172795,0.0031943923276119765,-0.005372686917142915,-1.167875408985329
14489,13.0,300.29747000000003,47866.666,0.0,-0.0724446157141605,-0.07244365339317038,0.0,0.0,0.0,-3.573087561061287,-5.612654026400825,-5.364529645887854,-0.004418574449954345,-0.004335270903582926,-1.168805369927109
14490,13.0,299.99838,47848.737,0.0,-0.07244959721284139,-0.07244865560335734,0.0,0.0,0.0,-3.573857023187226,-5.604120940683674,-5.366843301166195,0.0007937614440081553,0.0021627661264483978,-1.1652170460229687
14491,13.0,300.18656,47870.537000000004,0.0,-0.07245461170157974,-0.07245365781354451,0.0,0.0,0.0,-3.5700851996899767,-5.609952195009175,-5.371410627316955,-0.005038370822173485,-0.0013016174307596388,-1.1703020416498189
14492,13.0,300.0093,47872.927,0.0,-0.0724596261903182,-0.07245866002373147,0.0,0.0,0.0,-3.5686362520469763,-5.611643917376135,-5.371894454239705,-0.0064741859332774045,-0.008385008131635872,-1.168652369162009
14493,13.0,300.02486,47890.875,0.0,-0.0724646076889991,-0.07246362932464101,0.0,0.0,0.0,-3.5743256513584765,-5.608676614458285,-5.374627899034475,-0.0007620676496252214,0.004471092013237426,-1.1659467887449888
14494,13.0,300.06788,47919.948,0.0,-0.07246962217773767,-0.07246863153482819,0.0,0.0,0.0,-3.5787533516454566,-5.608080519424454,-5.379633658503504,0.001018793692622109,0.007370043713791682,-1.1569886446108888
14495,13.0,300.08879,47915.332,0.0,-0.07247460367641856,-0.07247363374501536,0.0,0.0,0.0,-3.5801336009316764,-5.609859685275044,-5.3750711959532245,0.004414959173597546,0.0040976892890354465,-1.1618282310635188
14496,13.0,299.89545,47959.98,0.0,-0.07247961816515702,-0.07247863595520232,0.0,0.0,0.0,-3.5932417135003467,-5.612208095031815,-5.3731864494422155,-0.005827891956368155,-0.006487759735592034,-1.1602619490589388
14497,13.0,299.90757,47965.997,0.0,-0.07248459966383791,-0.07248363816538939,0.0,0.0,0.0,-3.589335330389817,-5.611071329744624,-5.380058514270435,0.003588845727941497,2.9153758767251975e-05,-1.168974987993849
14498,13.0,299.90574,47906.34099999999,0.0,-0.07248961415257615,-0.07248864037557634,0.0,0.0,0.0,-3.584707107908047,-5.607966123488165,-5.369658211269004,-0.0014510095056284884,0.006251066538732234,-1.164505643127759
14499,13.0,299.87104,47887.71400000001,0.0,-0.07249459565125715,-0.07249364258576352,0.0,0.0,0.0,-3.5718858464426866,-5.609148383704845,-5.375635069633875,0.0014312519392785687,0.0038921937587796164,-1.174759936789779
14500,13.0,300.10037,47953.082,0.0,-0.07249961013999562,-0.0724986447959507,0.0,0.0,0.0,-3.5837253698861566,-5.611750713936674,-5.3810633543946045,-5.558685387649535e-06,-0.0054227791649866346,-1.168063164228859
14501,13.0,300.13826,47918.553,0.0,-0.07250462462873386,-0.07250364700613765,0.0,0.0,0.0,-3.5767323229959964,-5.613213948406085,-5.376097415654504,-0.003337069594068127,0.002154401341572858,-1.180257629182359
14502,13.0,300.27282,47881.706,0.0,-0.07250960612741475,-0.07250864921632483,0.0,0.0,0.0,-3.5739841860747763,-5.609810238670165,-5.371048491731215,0.0006639453914688084,0.003795166550403777,-1.163559774159409
14503,13.0,300.07968999999997,47931.234000000004,0.0,-0.07251462061615332,-0.07251365142651178,0.0,0.0,0.0,-3.5724047318188967,-5.619963308647195,-5.377530252620915,-0.005636810618059895,-0.002231135886220968,-1.1755869515213988
14504,13.0,300.07781,47994.001,0.0,-0.07251960211483399,-0.07251865363669896,0.0,0.0,0.0,-3.5839989474131566,-5.620099084160595,-5.3848799635462745,-0.0038560660224890866,-0.004772010472985765,-1.158097444195319
14505,13.0,300.04666000000003,47965.263,0.0,-0.07252461660357246,-0.07252365584688614,0.0,0.0,0.0,-3.578507537171197,-5.621257735649945,-5.380477087886745,0.0009665969040556872,0.005422603163444265,-1.1669428135932889
14506,13.0,300.05467999999996,47949.663,0.0,-0.07252959810225335,-0.07252865805707309,0.0,0.0,0.0,-3.5841736317303967,-5.615660643422554,-5.375665872436915,0.0024908622843539674,0.007760823170583612,-1.157664887727629
14507,13.0,299.85151,47946.495,0.0,-0.07253461259099181,-0.07253366026726027,0.0,0.0,0.0,-3.586454255055476,-5.612958508055875,-5.3751243915834745,0.0011894723282417788,-0.0012115616870468288,-1.171556749248649
14508,13.0,299.90698,47985.398,0.0,-0.07253959408967281,-0.07253862956816981,0.0,0.0,0.0,-3.5876932572777562,-5.623610097082104,-5.375059543577075,-0.0006471059752743873,-0.011820003180293488,-1.1775829528933888
14509,13.0,299.71591,47974.425,0.0,-0.07254460857841127,-0.07254363177835677,0.0,0.0,0.0,-3.5856817531792364,-5.618110884814374,-5.379234539289115,0.003762223155202516,0.001410478488378389,-1.1802597570075688
14510,13.0,300.07182,47935.060999999994,0.0,-0.07254962306714952,-0.07254863398854394,0.0,0.0,0.0,-3.5850991343717364,-5.608962350986485,-5.377000221493605,0.0033702433010171172,0.000946682223145261,-1.1762017916820788
14511,13.0,300.16436,47928.504,0.0,-0.0725546045658304,-0.07255363619873101,0.0,0.0,0.0,-3.5722750358060966,-5.614634930346325,-5.382158272452664,-0.0030651547091572165,-0.0035686556051238868,-1.1719193914594388
14512,13.0,300.15207000000004,48002.167,0.0,-0.07255961905456898,-0.07255863840891796,0.0,0.0,0.0,-3.5881768815504866,-5.6167013526002645,-5.386582021064255,-0.005203514275146875,-0.008770182187549592,-1.170947380638509
14513,13.0,300.14085,48055.102999999996,0.0,-0.07256460055324987,-0.07256364061910514,0.0,0.0,0.0,-3.5905111058058568,-5.628977485511824,-5.388062683435385,-0.0026816084395291477,0.0017131773298774385,-1.1695320728988288
14514,13.0,300.00191,48003.52099999999,0.0,-0.07256961504198811,-0.0725686428292921,0.0,0.0,0.0,-3.5844620027088565,-5.623283830549904,-5.384126004146865,0.0032487492438015874,0.002488924443537718,-1.1687262350942988
14515,13.0,299.95345,48016.627,0.0,-0.072574596540669,-0.07257364503947927,0.0,0.0,0.0,-3.583800046418526,-5.628172154332344,-5.383883330747915,-0.004355959545449735,-0.008625447314115372,-1.1681853621909188
14516,13.0,299.90606,48073.954000000005,0.0,-0.07257961102940758,-0.07257864724966623,0.0,0.0,0.0,-3.5957777771756363,-5.627799278295544,-5.389704553897424,-0.0030680089333639067,-0.007111057393531723,-1.166423826892069
14517,13.0,299.99512000000004,48067.977999999996,0.0,-0.07258462551814582,-0.0725836494598534,0.0,0.0,0.0,-3.5866250890223363,-5.633664273849374,-5.391175691717615,-0.0013313752689715088,0.0029657743287491373,-1.1707457438686089
14518,13.0,299.90245,47981.624,0.0,-0.07258960701682671,-0.07258865167004058,0.0,0.0,0.0,-3.582510786991287,-5.620235264974035,-5.382469441558374,0.003968369394672567,0.009062733531947162,-1.165411691367179
14519,13.0,300.17151,48000.583,0.0,-0.07259462150556517,-0.07259365388022754,0.0,0.0,0.0,-3.5802779890709266,-5.623929270863604,-5.386771498832954,-0.003140903361458027,-0.00047949583586005454,-1.1771566785763188
14520,13.0,300.14176000000003,48011.276,0.0,-0.07259960300424606,-0.07259865609041471,0.0,0.0,0.0,-3.5829396957586166,-5.627065583898135,-5.384223884106524,0.0006398222269305374,-0.004256415930450546,-1.1760844573204987
14521,13.0,300.42947999999996,48027.48,0.0,-0.07260461749298441,-0.07260365830060178,0.0,0.0,0.0,-3.5851218311739768,-5.626215568389245,-5.387817274261165,0.0009513305383765141,0.004109635305064426,-1.180018299508739
14522,13.0,300.14457000000004,48068.884000000005,0.0,-0.07260959899166552,-0.07260862760151132,0.0,0.0,0.0,-3.5954636696446367,-5.622284765951304,-5.393992121695574,0.002671251402306987,0.004193665351757546,-1.165779399828469
14523,13.0,300.22177,48096.63,0.0,-0.07261461348040377,-0.07261362981169839,0.0,0.0,0.0,-3.5971664364376865,-5.626435950285995,-5.396572261750215,-0.0052628505049779045,-0.005773895250589094,-1.169627521058249
14524,13.0,300.19251,48083.21,0.0,-0.07261959497908466,-0.07261863202188545,0.0,0.0,0.0,-3.601270200667696,-5.625419559110685,-5.389405442467905,-0.006163453943660544,-0.006559772129474103,-1.1623851133184788
14525,13.0,300.11003,48143.444,0.0,-0.07262460946782323,-0.07262363423207263,0.0,0.0,0.0,-3.599255048868817,-5.639630594413204,-5.395518988271265,0.0022849900277109574,0.0026203586868842675,-1.171429181061059
14526,13.0,299.88948,48180.901,0.0,-0.07262962395656147,-0.07262863644225981,0.0,0.0,0.0,-3.605098462195517,-5.639473439322694,-5.401219026708815,0.0017841079779527484,0.005288455841629955,-1.1642963056570987
14527,13.0,300.04359,48104.348,0.0,-0.07263460545524236,-0.07263363865244676,0.0,0.0,0.0,-3.5969278160391362,-5.632327087692404,-5.393265722698885,0.002106421213562588,-0.0007754206444780592,-1.1717114725389188
14528,13.0,299.88622999999995,48051.52099999999,0.0,-0.07263961994398083,-0.07263864086263372,0.0,0.0,0.0,-3.589719757477756,-5.628664087255895,-5.3880787941119745,0.0006076329329837015,-0.001111917354987699,-1.167789282726829
14529,13.0,300.04575,48028.683,0.0,-0.07264460144266172,-0.07264364307282067,0.0,0.0,0.0,-3.583508129064717,-5.622559863353454,-5.393452464692316,0.0032592781282407076,0.007858230449071961,-1.173919851131869
14530,13.0,300.05433999999997,48023.137,0.0,-0.07264961593140007,-0.07264864528300785,0.0,0.0,0.0,-3.5805253234203365,-5.629684531431604,-5.387624756742166,-0.0005879168997553804,0.007195043465170504,-1.170730241142079
14531,13.0,299.91637000000003,48048.418,0.0,-0.07265459743008096,-0.07265364749319503,0.0,0.0,0.0,-3.5823121899716868,-5.630970041833474,-5.392237172522375,-0.0012322629945398888,-0.005337749749719885,-1.182793794182659
14532,13.0,299.88835,48115.934,0.0,-0.07265961191881942,-0.0726586497033821,0.0,0.0,0.0,-3.594603622959757,-5.635519433457465,-5.395919424710786,-0.00044021988084631954,-0.0036488760340910266,-1.174259593890399
14533,13.0,299.76481,48087.663,0.0,-0.0726645934175002,-0.07266365191356927,0.0,0.0,0.0,-3.586479586307976,-5.635834756888585,-5.395134257208295,0.0019324851815214384,0.0030378374864612166,-1.1775155717617387
14534,13.0,299.84431,48133.02099999999,0.0,-0.07266960790623866,-0.07266865412375623,0.0,0.0,0.0,-3.591616662989967,-5.637421911845225,-5.402197927630425,0.003061354210682137,0.00017350751844135884,-1.1678390333067388
14535,13.0,300.07878,48239.511,0.0,-0.07267462239497713,-0.0726736563339434,0.0,0.0,0.0,-3.6074084697734965,-5.646563251597404,-5.409635082039415,0.006304363899292274,-0.006620118063029784,-1.172366133428529
14536,13.0,300.08555,48180.755999999994,0.0,-0.07267960389365802,-0.07267862563485294,0.0,0.0,0.0,-3.607271174384947,-5.640181903792615,-5.398293773670115,-0.0022002202071198275,-0.006317431684506964,-1.1697183082672091
14537,13.0,300.11849,48084.453,0.0,-0.07268461838239637,-0.0726836278450399,0.0,0.0,0.0,-3.588305564313186,-5.637746658502274,-5.390420921718125,0.004535184641687876,0.001027286349660269,-1.176120529024059
14538,13.0,300.22566,48068.294,0.0,-0.07268959988107748,-0.07268863005522708,0.0,0.0,0.0,-3.5945391802533964,-5.629669434005115,-5.387352597765305,-0.006324304965235304,0.004064521965562086,-1.1737767802177488
14539,13.0,299.97317999999996,48108.153,0.0,-0.07269461436981572,-0.07269363226541425,0.0,0.0,0.0,-3.5897213786779165,-5.636987328877335,-5.396968645189335,-0.006065367584955175,-0.0005518767994659995,-1.1770751119432687
14540,13.0,299.89946000000003,48130.025,0.0,-0.07269959586849661,-0.07269863447560121,0.0,0.0,0.0,-3.596474183969367,-5.634493720381235,-5.3993578889251355,-0.0025783436635377073,-0.00034823495960561464,-1.1735973336250387
14541,13.0,300.09862000000004,48131.935,0.0,-0.07270461035723508,-0.07270363668578839,0.0,0.0,0.0,-3.597032484774467,-5.630007352913465,-5.403866345245086,-0.003183056997418267,0.005111589996924655,-1.171351667428409
14542,13.0,299.8543,48137.609000000004,0.0,-0.07270962484597343,-0.07270863889597534,0.0,0.0,0.0,-3.596853544806807,-5.639511638851465,-5.3962658549199745,-0.002256694512043408,-0.00017682949942421283,-1.1735728129726188
14543,13.0,299.81247,48238.858,0.0,-0.07271460634465432,-0.0727136411061623,0.0,0.0,0.0,-3.611415569943967,-5.645244810567285,-5.406747927204474,0.003600313996548327,-0.009165941464607991,-1.173108136476759
14544,13.0,299.87823,48302.58,0.0,-0.07271962083339278,-0.07271864331634947,0.0,0.0,0.0,-3.6195596689477267,-5.654188059924914,-5.409030374379735,0.004729449307835306,0.003400129720666677,-1.174412088030449
14545,13.0,299.64617999999996,48196.495,0.0,-0.07272460233207367,-0.07272364552653654,0.0,0.0,0.0,-3.599321822050406,-5.644963532339525,-5.406245659129905,0.0007048333463316353,0.0016590692679123884,-1.1719509035375488
14546,13.0,299.82153999999997,48083.545,0.0,-0.07272961682081203,-0.07272864773672372,0.0,0.0,0.0,-3.583537108017577,-5.636748404503754,-5.395911521360005,4.7728008080637655e-05,0.004692108103225016,-1.175299999093079
14547,13.0,300.13087,48134.304000000004,0.0,-0.07273459831949292,-0.07273364994691067,0.0,0.0,0.0,-3.5900874659390465,-5.645980936764936,-5.3955580997251245,-0.0036236776186791366,-0.0024285201467762777,-1.1760255874896888
14548,13.0,300.07084,48189.195,0.0,-0.07273961280823138,-0.07273865215709785,0.0,0.0,0.0,-3.5968913390355364,-5.647642869578954,-5.403777787186345,0.0007874010603479342,-2.5926591649255378e-05,-1.178052999614779
14549,13.0,299.90094,48171.703,0.0,-0.07274459430691227,-0.07274365436728503,0.0,0.0,0.0,-3.5969518300665064,-5.644767873745215,-5.401275262089365,0.0012127828560673489,0.0013693668788209885,-1.1721871934608687
14550,13.0,299.92956000000004,48152.948,0.0,-0.07274960879565062,-0.07274865657747198,0.0,0.0,0.0,-3.5898238182630267,-5.645800476922124,-5.401669517703275,-0.0021213956314904484,0.0023088984744205378,-1.1751313942764388
14551,13.0,299.85817000000003,48245.59,0.0,-0.07275462328438909,-0.07275362587838152,0.0,0.0,0.0,-3.5958169899545065,-5.651161684526235,-5.418475790486925,-0.0021456849589126183,-0.002987128371956617,-1.1736094926262388
14552,13.0,300.26428,48319.994000000006,0.0,-0.07275960478306998,-0.0727586280885687,0.0,0.0,0.0,-3.6136262790121463,-5.651594139668915,-5.422851105743735,-0.003636996791243637,0.0007614766005768893,-1.1719923454666388
14553,13.0,300.23053,48300.97,0.0,-0.07276461927180844,-0.07276363029875565,0.0,0.0,0.0,-3.609843816388847,-5.6496874056307345,-5.422757785409525,0.001242914684891129,0.0027738957652621975,-1.1696510284605688
14554,13.0,299.93453999999997,48242.655,0.0,-0.07276960077048933,-0.07276863250894283,0.0,0.0,0.0,-3.6071570824236865,-5.645191006986974,-5.412214512818985,0.0018871120446934582,0.0027485570147114577,-1.177763514061209
14555,13.0,299.99347,48215.758,0.0,-0.07277461525922768,-0.07277363471912979,0.0,0.0,0.0,-3.6054164200768968,-5.642556860702004,-5.408413203743825,0.0019014534852838483,-0.003315927218806537,-1.1762116202080488
14556,13.0,299.98078,48226.147000000004,0.0,-0.07277959675790857,-0.07277863692931696,0.0,0.0,0.0,-3.6051650327270868,-5.646870773002754,-5.407508675379555,0.0025130741450961076,-0.004935917456862125,-1.1817016118998689
14557,13.0,299.70536,48255.962,0.0,-0.07278461124664704,-0.07278363913950414,0.0,0.0,0.0,-3.6067630294597968,-5.645143181582254,-5.416701184261785,0.0017109645943090583,0.0017783845334378883,-1.1775952132195988
14558,13.0,299.99216,48252.176,0.0,-0.07278959274532792,-0.0727886413496911,0.0,0.0,0.0,-3.613149544840097,-5.643610944781035,-5.410696157544136,0.003319096665119337,0.01024590496444209,-1.172435743710399
14559,13.0,299.88677,48200.157,0.0,-0.07279460723406628,-0.07279364355987816,0.0,0.0,0.0,-3.5989835991670267,-5.644533306347065,-5.408127264565604,-0.0038526086104978662,-0.005133999644086316,-1.177804246715229
14560,13.0,299.73517999999996,48279.736,0.0,-0.07279962172280474,-0.07279864577006512,0.0,0.0,0.0,-3.6067652586100167,-5.656542751832305,-5.412526289874754,-0.004904335464495225,-0.004594852305626616,-1.1757157356091088
14561,13.0,300.08117999999996,48371.012,0.0,-0.07280460322148563,-0.0728036479802523,0.0,0.0,0.0,-3.6167820464485967,-5.660174037540685,-5.426623537191045,-0.003309947624666397,-0.00017612670915485282,-1.174440560358259
14562,13.0,299.92707,48314.58,0.0,-0.07280961771022398,-0.07280865019043947,0.0,0.0,0.0,-3.604125843424527,-5.659254209099904,-5.423045953737964,-0.0007755673630925391,0.003949024322438356,-1.1742408487635487
14563,13.0,299.88653,48240.164000000004,0.0,-0.07281459920890487,-0.07281365240062643,0.0,0.0,0.0,-3.595571783430307,-5.654584544689045,-5.413648970985554,-0.002307090430942098,-0.0011051262488424689,-1.1798876915708487
14564,13.0,300.18656,48249.972,0.0,-0.07281961369764334,-0.0728186546108136,0.0,0.0,0.0,-3.600934916209607,-5.654170429373175,-5.411681340616365,-0.006533727346253683,-0.006018021244882454,-1.1780833971177789
14565,13.0,300.0802,48260.937999999995,0.0,-0.07282459519632423,-0.07282362391172315,0.0,0.0,0.0,-3.6034740196351964,-5.657502097026985,-5.4091438583909355,0.007654312954521872,0.0018166345220628683,-1.183378540815369
14566,13.0,300.04913999999997,48305.334,0.0,-0.07282960968506269,-0.0728286261219101,0.0,0.0,0.0,-3.615138656111407,-5.659066555181385,-5.409410039192204,0.004841529157046725,0.002276759093173628,-1.184673879743209
14567,13.0,299.99874,48317.024000000005,0.0,-0.07283462417380104,-0.07283362833209728,0.0,0.0,0.0,-3.6176379388080666,-5.656990811026525,-5.412539968751105,0.006590033654310683,-0.008023724283929931,-1.182124745141629
14568,13.0,299.75536,48275.564000000006,0.0,-0.07283960567248193,-0.07283863054228423,0.0,0.0,0.0,-3.6027994990436265,-5.661138752960894,-5.410627965812404,-0.006043901780261664,-0.008687399958354622,-1.1832834979559888
14569,13.0,299.9176,48302.919,0.0,-0.0728446201612204,-0.07284363275247141,0.0,0.0,0.0,-3.6146385158620467,-5.651909463100035,-5.4163332731504745,0.003621812123920027,0.0064159681289067535,-1.1758021658426387
14570,13.0,300.01885,48393.35,0.0,-0.07284960165990129,-0.07284863496265859,0.0,0.0,0.0,-3.6237951556907366,-5.659861044584795,-5.426713919099965,0.0003096904090440637,0.00959682910938329,-1.172317801398759
14571,13.0,299.93027,48373.681,0.0,-0.07285461614863964,-0.07285363717284554,0.0,0.0,0.0,-3.625262139185517,-5.655874513391354,-5.423254379283535,0.0026529490657506874,0.000962292962135921,-1.172379812304879
14572,13.0,299.99411000000003,48290.29,0.0,-0.07285959764732053,-0.07285863938303272,0.0,0.0,0.0,-3.6129224754926867,-5.651525137337104,-5.414594839953905,-0.004975743859992685,-0.007199753558260353,-1.1787930774878188
14573,13.0,299.80565,48296.625,0.0,-0.07286461213605899,-0.07286364159321979,0.0,0.0,0.0,-3.6066427566729264,-5.656531606081204,-5.417793670519605,0.002912219298688667,-0.0009866614851859073,-1.1800856806403888
14574,13.0,299.78997999999996,48414.128,0.0,-0.07286959363473988,-0.07286864380340674,0.0,0.0,0.0,-3.615599178281857,-5.666975174861904,-5.434111556755054,0.0021750840052640777,0.007078671285885463,-1.177425088527809
14575,13.0,299.90507,48418.375,0.0,-0.07287460812347824,-0.07287364601359392,0.0,0.0,0.0,-3.6186467306076264,-5.670124964122765,-5.4292052984458445,-0.001129984617520799,-0.0025685542490215675,-1.1791772006007288
14576,13.0,299.61211000000003,48312.91,0.0,-0.0728796226122167,-0.07287864822378087,0.0,0.0,0.0,-3.6018675116016468,-5.664214270989424,-5.419836484046215,-0.006167235089058714,-0.0021101600051065777,-1.1802609729076887
14577,13.0,299.73411,48290.309,0.0,-0.07288460411089759,-0.07288365043396805,0.0,0.0,0.0,-3.6023052356448466,-5.660353382808386,-5.416389609856036,0.001090569087305789,0.008280388437610711,-1.1772493909604687
14578,13.0,299.91168999999996,48330.998,0.0,-0.07288961859963583,-0.072888652644155,0.0,0.0,0.0,-3.6115138552036665,-5.662355362355965,-5.417547248095285,0.002223933603185158,0.006635643992987074,-1.1814869042036789
14579,13.0,299.893,48373.068,0.0,-0.07289460009831694,-0.07289362194506455,0.0,0.0,0.0,-3.609273863207597,-5.665345564726074,-5.4295854698833645,-0.00011882284624190188,-0.004861497175442415,-1.180874191868209
14580,13.0,299.96236,48377.664000000004,0.0,-0.0728996145870553,-0.07289862415525172,0.0,0.0,0.0,-3.6124167623677765,-5.667137700177944,-5.426047403184185,0.0013864717564091085,-0.004833209563125646,-1.1840897410605589
14581,13.0,299.98775,48325.9,0.0,-0.07290459608573618,-0.07290362636543868,0.0,0.0,0.0,-3.6046510109513563,-5.660805697653025,-5.424410193672605,0.002055190781881538,0.004777684369570735,-1.1777597650358387
14582,13.0,299.76142000000004,48348.029,0.0,-0.07290961057447465,-0.07290862857562586,0.0,0.0,0.0,-3.607622164219587,-5.664062891424485,-5.424908611396795,0.0030791926813426565,0.005601091930834734,-1.184989912449399
14583,13.0,299.87678,48493.115,0.0,-0.07291459207315554,-0.07291363078581303,0.0,0.0,0.0,-3.6268472676419568,-5.675483030651565,-5.438365687299904,-0.006050847609697165,-0.005633809776563734,-1.169567739302349
14584,13.0,300.0615,48467.126,0.0,-0.07291960656189389,-0.0729186329960001,0.0,0.0,0.0,-3.625319691791197,-5.672146398072265,-5.435330091325315,0.001170315619201159,-0.007612193566415013,-1.1841141603879688
14585,13.0,300.26989,48335.778,0.0,-0.07292462105063235,-0.07292363520618717,0.0,0.0,0.0,-3.602659771854836,-5.663509352894854,-5.426700544198645,0.002226873345700288,0.0034101165163022964,-1.177060318491809
14586,13.0,300.03067000000004,48346.569,0.0,-0.07292960254931324,-0.07292863741637423,0.0,0.0,0.0,-3.6172498640197666,-5.659641878588165,-5.419257918239115,0.008171396164104013,-0.0027354039138383474,-1.1798970134717688
14587,13.0,300.00084,48469.59,0.0,-0.07293461703805149,-0.07293363962656141,0.0,0.0,0.0,-3.6331271891117365,-5.666693390009095,-5.433724393891844,-0.0034849672263644865,-0.0077481047540034036,-1.170541067348409
14588,13.0,300.06035,48450.996,0.0,-0.07293959853673238,-0.07293864183674859,0.0,0.0,0.0,-3.633689948217276,-5.671317762140485,-5.422885454922125,0.002191316170541068,-0.0017196596987171986,-1.1843473092359789
14589,13.0,299.96025,48406.455,0.0,-0.07294461302547095,-0.07294364404693554,0.0,0.0,0.0,-3.621684454407426,-5.668157029778545,-5.424512025307655,-0.0008809843430913851,0.008566160328239201,-1.1773652054468988
14590,13.0,299.86534,48433.667,0.0,-0.07294959452415184,-0.0729486462571225,0.0,0.0,0.0,-3.622395148027567,-5.669871448947744,-5.430358681034675,0.0005722347975601774,0.005940276996509694,-1.183288665531499
14591,13.0,299.98944,48464.352,0.0,-0.07295460901289008,-0.07295364846730945,0.0,0.0,0.0,-3.615504844697546,-5.6793906296622145,-5.437057176120765,-0.007334672368700804,-0.006979156244539094,-1.183928532969649
14592,13.0,300.02796,48484.027,0.0,-0.07295962350162866,-0.07295865067749663,0.0,0.0,0.0,-3.6259111258745667,-5.678598268084015,-5.4334242692122245,-0.001148579479380969,-0.0052256100174275545,-1.1876747212393688
14593,13.0,300.20902,48474.593,0.0,-0.07296460500030955,-0.07296361997840617,0.0,0.0,0.0,-3.6189737064148964,-5.675274706431004,-5.440817448566874,-0.0007285639879136673,0.0077954720683531915,-1.1864132248648689
14594,13.0,300.04922,48370.524000000005,0.0,-0.07296961948904779,-0.07296862218859312,0.0,0.0,0.0,-3.608074884364267,-5.673540528884854,-5.421816070766585,-0.00037951990757319865,-0.005270767433309245,-1.1851849630936488
14595,13.0,299.96994,48389.684,0.0,-0.0729746009877289,-0.0729736243987803,0.0,0.0,0.0,-3.609705305100176,-5.668754746012534,-5.430795594477795,-0.005601402795965415,-0.008498158986202991,-1.1815430382592187
14596,13.0,299.85254,48516.259000000005,0.0,-0.07297961547646714,-0.07297862660896748,0.0,0.0,0.0,-3.622293721692557,-5.682732733792054,-5.442704829528145,4.326706913737726e-05,1.4144641076467386e-05,-1.1812260936279388
14597,13.0,299.79874,48494.933,0.0,-0.07298459697514814,-0.07298362881915454,0.0,0.0,0.0,-3.6207831684434764,-5.6766419861159445,-5.443823558963555,0.0018327066951490684,0.009489269267542962,-1.177929180452559
14598,13.0,299.87074,48426.764,0.0,-0.0729896114638866,-0.07298863102934172,0.0,0.0,0.0,-3.6168125452766064,-5.674366733016394,-5.429347964059924,-0.0023989662758095377,-0.003265193887624547,-1.178707255204349
14599,13.0,299.93627999999995,48495.075999999994,0.0,-0.0729945929625675,-0.07299363323952868,0.0,0.0,0.0,-3.6317579842516063,-5.678437059993104,-5.431097036382544,-0.005812722690446064,0.00043259410993121453,-1.182613638314879
14600,13.0,299.93588,48537.092000000004,0.0,-0.07299960745130574,-0.07299863544971585,0.0,0.0,0.0,-3.635906838111067,-5.679655999863404,-5.438501361488295,0.0017974478208192884,0.004304874109857995,-1.1864494992184489
14601,13.0,299.96702,48486.84,0.0,-0.07300462194004431,-0.07300363765990303,0.0,0.0,0.0,-3.628874578442036,-5.678272609501874,-5.431641354336265,0.0020769478959787977,0.015011268820746885,-1.1876449316864288
14602,13.0,299.91312,48491.642,0.0,-0.0730096034387252,-0.07300863987008999,0.0,0.0,0.0,-3.6208538933004566,-5.6789778315714745,-5.440416606827315,-0.0029944995637840965,-0.0038385071075311555,-1.1864673324202089
14603,13.0,300.03609,48484.922,0.0,-0.07301461792746344,-0.07301364208027716,0.0,0.0,0.0,-3.626842302716467,-5.6713227270659745,-5.440040589715204,-0.0017149588262032585,-0.004730967460460136,-1.187599436756939
14604,13.0,300.10571,48477.795,0.0,-0.07301959942614433,-0.07301864429046412,0.0,0.0,0.0,-3.6227576889133464,-5.675101744638934,-5.438179857231565,0.0013441270214800088,0.002056700220555508,-1.187493754771509
14605,13.0,300.01087,48541.498,0.0,-0.0730246139148828,-0.07302364650065107,0.0,0.0,0.0,-3.6301091223638764,-5.677984542498445,-5.447309645932605,0.003750628129008176,0.001154994467089079,-1.1860054930246289
14606,13.0,299.95259,48582.630999999994,0.0,-0.0730295954135638,-0.07302864871083825,0.0,0.0,0.0,-3.636057305750917,-5.684211065687954,-5.447638445590054,0.0006683085071944142,-0.010595665726710791,-1.175810271843439
14607,13.0,299.85318,48512.177,0.0,-0.07303460990230204,-0.07303365092102532,0.0,0.0,0.0,-3.6233987722516168,-5.684608057077135,-5.438483629611545,-0.0004141734764257396,-0.0028484601308461275,-1.182570777835649
14608,13.0,299.92046,48501.565,0.0,-0.07303959140098315,-0.07303862022193497,0.0,0.0,0.0,-3.6200532230714364,-5.682319530401275,-5.440892023774236,0.006918806663283055,0.0033702336751411668,-1.179246000282519
14609,13.0,299.61427000000003,48561.935999999994,0.0,-0.07304460588972139,-0.07304362243212192,0.0,0.0,0.0,-3.6283817335933963,-5.691392171796674,-5.441842148393005,6.964410010533754e-05,0.007874163097619392,-1.186210068219819
14610,13.0,299.6556,48536.672,0.0,-0.07304962037845975,-0.07304862464230899,0.0,0.0,0.0,-3.6282397772543864,-5.685823146597055,-5.439873403448705,0.0009725088941491551,-0.0023102774064816278,-1.180235540330179
14611,13.0,299.95286,48506.96400000001,0.0,-0.07305460187714086,-0.07305362685249617,0.0,0.0,0.0,-3.615001259397847,-5.692475741453615,-5.437428937582455,0.0021714498824554184,-0.0012452162824932787,-1.194856232648129
14612,13.0,300.0791,48544.707,0.0,-0.07305961636587932,-0.07305862906268312,0.0,0.0,0.0,-3.6300889586868865,-5.682965072039985,-5.443324837264335,0.0047391690107445655,0.003280460628206257,-1.186797347977779
14613,13.0,299.79175,48581.637,0.0,-0.07306459786455999,-0.0730636312728703,0.0,0.0,0.0,-3.6279949760302266,-5.684547566046165,-5.455061921122694,-0.0024416457885716777,-0.005944977666373614,-1.1896817670374489
14614,13.0,300.00028,48593.09099999999,0.0,-0.07306961235329856,-0.07306863348305748,0.0,0.0,0.0,-3.630314812134176,-5.685199389835494,-5.455572092548045,-0.003394113244222897,-0.008795292551527792,-1.1814574186257687
14615,13.0,300.07111000000003,48654.385,0.0,-0.07307459385197945,-0.07307363569324443,0.0,0.0,0.0,-3.637810127098907,-5.686722811360845,-5.465185302871795,-0.004178419484127897,0.002117733137678988,-1.1857186419213188
14616,13.0,300.12449,48612.385,0.0,-0.0730796083407177,-0.07307863790343161,0.0,0.0,0.0,-3.6361447492345467,-5.689351992720324,-5.451454446791665,0.0012557967413624888,0.007046966284956424,-1.184769125252609
14617,13.0,300.05683,48533.434,0.0,-0.07308462282945616,-0.07308364011361856,0.0,0.0,0.0,-3.625854586518986,-5.685214284611964,-5.441883286347065,-0.005833001776622454,-0.0013668460138971988,-1.1805295855091988
14618,13.0,299.91031,48597.941,0.0,-0.07308960432813705,-0.07308864232380574,0.0,0.0,0.0,-3.639575310098117,-5.686923536205654,-5.446061727109445,-0.0010431531369511989,-0.00877924560836908,-1.181159624421379
14619,13.0,299.80672999999996,48639.16099999999,0.0,-0.0730946188168754,-0.07309364453399292,0.0,0.0,0.0,-3.6332853574523467,-5.696726832248165,-5.455078234449305,-0.0016502493310919283,6.109484494309175e-05,-1.179124714245549
14620,13.0,300.00012000000004,48587.532999999996,0.0,-0.07309960031555629,-0.07309864674417987,0.0,0.0,0.0,-3.6303237287350565,-5.691489443806274,-5.447583628759644,0.005729136953921795,0.0037630908012631467,-1.1873170439540688
14621,13.0,300.18294,48601.492999999995,0.0,-0.07310461480429475,-0.07310364895436694,0.0,0.0,0.0,-3.6335088804244062,-5.689177409728094,-5.450954002567275,-0.0016093814081835783,0.002334945689441198,-1.1826243787659387
14622,13.0,300.10402,48640.345,0.0,-0.07310959630297564,-0.07310861825527659,0.0,0.0,0.0,-3.640961740209947,-5.692733106979015,-5.4517552807463545,0.004161285323611886,0.00010797472722627592,-1.189110597956079
14623,13.0,300.17056,48637.695999999996,0.0,-0.073114610791714,-0.07311362046546355,0.0,0.0,0.0,-3.6400589343708463,-5.692079763314535,-5.452506301720474,0.0022875043065090977,0.004335381246518816,-1.1880283455242688
14624,13.0,300.15736,48641.772000000004,0.0,-0.07311959229039511,-0.07311862267565061,0.0,0.0,0.0,-3.6368740866565266,-5.695256707678074,-5.4537531059685245,0.00022964978130716877,-0.0026641258223037475,-1.1927693427421688
14625,13.0,299.98551000000003,48619.310999999994,0.0,-0.07312460677913357,-0.07312362488583757,0.0,0.0,0.0,-3.6282858801339364,-5.690501727608794,-5.4602689120615855,-0.004775916856096295,-0.005996900147872964,-1.1876560774375289
14626,13.0,299.93228999999997,48560.364,0.0,-0.07312962126787181,-0.07312862709602475,0.0,0.0,0.0,-3.6271175014436263,-5.687002569713455,-5.447018032553825,-0.0011237574863812289,-0.0013036176877820487,-1.186758540498949
14627,13.0,300.07322,48608.557,0.0,-0.0731346027665527,-0.07313362930621192,0.0,0.0,0.0,-3.6258260128661663,-5.699250331622215,-5.450711430493335,-0.002016895399652078,0.005532348484425286,-1.196652522425409
14628,13.0,299.88268999999997,48686.683,0.0,-0.07313961725529128,-0.07313863151639888,0.0,0.0,0.0,-3.6396634628568165,-5.704029427043874,-5.455842934299774,0.004002043039220896,0.0036879137233437466,-1.1910512758726088
14629,13.0,300.00039,48676.765,0.0,-0.07314459875397195,-0.07314363372658605,0.0,0.0,0.0,-3.6393387161997666,-5.706896519526834,-5.4502858654513355,0.0003063790063922537,-0.008573639633852352,-1.189088103803859
14630,13.0,300.06604,48609.204000000005,0.0,-0.07314961324271041,-0.07314863593677301,0.0,0.0,0.0,-3.6327802522774966,-5.693439443623724,-5.4497644469498745,0.006006134909284365,-0.004617169544379155,-1.180886553519429
14631,13.0,300.1142,48678.356,0.0,-0.0731545947413913,-0.07315363814696019,0.0,0.0,0.0,-3.6384732992893567,-5.701277743747305,-5.457253783739015,0.001984944685573788,0.004405644365428246,-1.1857710269514887
14632,13.0,299.93404,48737.708,0.0,-0.07315960923012965,-0.07315864035714736,0.0,0.0,0.0,-3.648600328738817,-5.703390572855825,-5.463055248511575,-0.003044533448422057,0.0025258313691551475,-1.181026382033229
14633,13.0,300.12247,48708.997,0.0,-0.07316459072881054,-0.07316364256733432,0.0,0.0,0.0,-3.6438402824190366,-5.701312599550744,-5.461165739725095,-0.004376090494461506,0.0013210349503759986,-1.1897710343712589
14634,13.0,300.22902999999997,48639.967000000004,0.0,-0.073169605217549,-0.0731686447775215,0.0,0.0,0.0,-3.635393120310367,-5.696651851740765,-5.453290455972865,-0.006589999609107323,0.005822724786158194,-1.191234370165679
14635,13.0,300.0579,48629.721,0.0,-0.07317461970628736,-0.07317364698770856,0.0,0.0,0.0,-3.6422863620656765,-5.689281673163386,-5.450652864637554,0.0008870855475085271,0.007255865423623164,-1.192821829097349
14636,13.0,299.87545,48708.549000000006,0.0,-0.07317960120496825,-0.07317861628861799,0.0,0.0,0.0,-3.639582098873787,-5.699643472661014,-5.466957071996655,-0.0006884289488026474,-0.004102804783490306,-1.188168275363079
14637,13.0,299.92461000000003,48737.596,0.0,-0.07318461569370671,-0.07318361849880517,0.0,0.0,0.0,-3.645743470081867,-5.704676387232725,-5.464592247588265,0.0038799516710714163,-0.008810300812008991,-1.1863111905797987
14638,13.0,300.03572,48720.355,0.0,-0.07318959719238782,-0.07318862070899224,0.0,0.0,0.0,-3.6432393237847265,-5.697853363709345,-5.468678583916554,0.004525712070478006,-0.008822376929350811,-1.183547652257059
14639,13.0,300.08286,48691.40900000001,0.0,-0.07319461168112606,-0.07319362291917941,0.0,0.0,0.0,-3.6373076563743165,-5.702139006332304,-5.461525848810635,0.0033093515296325673,-0.00021967955231068376,-1.1945948141223288
14640,13.0,300.01167999999996,48725.128,0.0,-0.07319959317980695,-0.07319862512936637,0.0,0.0,0.0,-3.635734281619037,-5.712923635096665,-5.462564126188104,-0.007908135346972192,-0.0033550373554414067,-1.186997160897499
14641,13.0,299.89173999999997,48765.738,0.0,-0.07320460766854553,-0.07320362733955332,0.0,0.0,0.0,-3.6444011163493863,-5.711773900208194,-5.467391553639535,-0.0023770698398235274,-5.6182067382738344e-05,-1.1818692034664091
14642,13.0,300.05273,48760.651,0.0,-0.07320962215728377,-0.0732086295497405,0.0,0.0,0.0,-3.6359953961698066,-5.716852411034404,-5.469172442015295,-0.0007550827087358614,0.005428765041277395,-1.182170341396129
14643,13.0,299.92627999999996,48658.877,0.0,-0.07321460365596466,-0.07321363175992746,0.0,0.0,0.0,-3.6288784287924165,-5.7059897620123445,-5.456215303711525,0.005604742772270045,0.0007083421908979313,-1.1893005823498288
14644,13.0,300.03269,48697.567,0.0,-0.07321961814470312,-0.07321863397011463,0.0,0.0,0.0,-3.637340485677557,-5.7076324430744645,-5.457871562324985,0.002040574953164068,0.0001897444763913218,-1.1855433496540189
14645,13.0,300.14374,48743.277,0.0,-0.0732245996433839,-0.07322363618030181,0.0,0.0,0.0,-3.641210087809457,-5.712643572769024,-5.462885529119824,0.0022879005886232077,-0.0017241632914366688,-1.1990271753597688
14646,13.0,300.1011,48714.227999999996,0.0,-0.07322961413212237,-0.07322863839048888,0.0,0.0,0.0,-3.6383237435745963,-5.702510058518924,-5.467075014308295,0.004213376004627837,2.204436442110938e-05,-1.1983488044178188
14647,13.0,300.1258,48763.587,0.0,-0.07323459563080326,-0.07323364060067594,0.0,0.0,0.0,-3.646979533878856,-5.709498647108644,-5.4664347415701044,0.003082682112037037,0.0009715637040583721,-1.196440955804529
14648,13.0,300.20219,48773.095,0.0,-0.07323961011954161,-0.07323864281086301,0.0,0.0,0.0,-3.6472681075073363,-5.702943425586694,-5.475591381398795,-0.005784037377465045,-0.0026436045693534575,-1.187246521747109
14649,13.0,300.05149,48747.03400000001,0.0,-0.0732445916182225,-0.07324364502105019,0.0,0.0,0.0,-3.646139549545956,-5.706102638073485,-5.465639036266574,-0.0034434409948661663,-0.005056931537505285,-1.1816225783920689
14650,13.0,299.99771,48807.505999999994,0.0,-0.07324960610696096,-0.07324864723123736,0.0,0.0,0.0,-3.6533551061580765,-5.713466534500244,-5.469441459916845,-0.0008506178354119443,0.002055821428743778,-1.1876098732329687
14651,13.0,300.06697,48847.835,0.0,-0.07325462059569932,-0.07325361653214668,0.0,0.0,0.0,-3.656065955475617,-5.715038997330435,-5.477417258078995,0.0070672392916322135,-0.001044369442371239,-1.184315898482879
14652,13.0,299.97726,48768.49,0.0,-0.07325960209438032,-0.07325861874233386,0.0,0.0,0.0,-3.6461605238230264,-5.717555302628774,-5.460687283027875,0.004187948797343366,0.0037843824282644658,-1.1936470199787887
14653,13.0,299.97922,48751.179000000004,0.0,-0.07326461658311867,-0.07326362095252104,0.0,0.0,0.0,-3.6445045691845963,-5.709978015730955,-5.464658615469816,0.0011079808783491989,0.0035961387981862662,-1.1834455166469788
14654,13.0,300.01863,48788.574,0.0,-0.07326959808179978,-0.07326862316270799,0.0,0.0,0.0,-3.644701747654057,-5.712993549353565,-5.472812846974574,-0.00026294556462820676,0.005093325353272076,-1.190460247089279
14655,13.0,299.9135,48782.138,0.0,-0.07327461257053802,-0.07327362537289495,0.0,0.0,0.0,-3.6460308278102267,-5.713596635813085,-5.468924398390815,-0.004444778110790446,9.274602506657e-05,-1.185018384777209
14656,13.0,299.90752000000003,48763.2,0.0,-0.07327959406921891,-0.0732786275830819,0.0,0.0,0.0,-3.6405235095416963,-5.710210556628904,-5.472061319375404,-0.0006208273643283903,-0.0002895482636186887,-1.1952460299615988
14657,13.0,300.26502,48799.172,0.0,-0.07328460855795738,-0.07328362979326908,0.0,0.0,0.0,-3.6428109216424467,-5.7173731202607945,-5.473545629446895,-0.005877966269685104,-0.0027573214254264376,-1.1948719380246788
14658,13.0,300.05163,48791.943,0.0,-0.07328959005663815,-0.07328863200345626,0.0,0.0,0.0,-3.645073914415786,-5.712968623401104,-5.473489900691395,-0.004576272541192935,0.005336499095121455,-1.2054815784967687
14659,13.0,300.05495,48831.448,0.0,-0.07329460454537662,-0.07329363421364332,0.0,0.0,0.0,-3.6500417783310763,-5.717785817026525,-5.475713275385825,0.0001096521931643289,-0.0037080274471038167,-1.1960246113384387
14660,13.0,300.04571,48878.710999999996,0.0,-0.07329961903411508,-0.0732986364238305,0.0,0.0,0.0,-3.654548714775876,-5.723954584960335,-5.4794043428501045,4.7610417366782356e-05,0.002132638857250068,-1.195672405603679
14661,13.0,299.81809,48782.889,0.0,-0.07330460053279586,-0.07330363863401745,0.0,0.0,0.0,-3.6500733917341965,-5.710919527723875,-5.467787126478575,0.0056954743537995555,-0.0007102013427114153,-1.191477854164709
14662,13.0,299.67418,48734.645,0.0,-0.07330961502153432,-0.07330864084420463,0.0,0.0,0.0,-3.6355402442248868,-5.714491538301404,-5.464083393388044,0.004322360678758785,0.006513178026275624,-1.1988525923675388
14663,13.0,299.9062,48862.648,0.0,-0.07331459652021521,-0.07331364305439181,0.0,0.0,0.0,-3.653995581546287,-5.7243584664501945,-5.474670742357935,0.0005685972195686765,-0.0015728872806568888,-1.1932119303858488
14664,13.0,299.99018,48913.346,0.0,-0.07331961100895346,-0.07331864526457876,0.0,0.0,0.0,-3.6615637491932067,-5.7244304072072945,-5.482441560024855,0.0014275058523338584,0.002190355406796248,-1.191102141027629
14665,13.0,300.08817,48813.515999999996,0.0,-0.07332459250763457,-0.0733236145654883,0.0,0.0,0.0,-3.6403007971697168,-5.722526611594405,-5.475262480416335,0.0019292329526754684,-0.002298199363964618,-1.1908172150995089
14666,13.0,300.29761,48869.309,0.0,-0.07332960699637292,-0.07332861677567548,0.0,0.0,0.0,-3.6459668917289165,-5.722213821288535,-5.486869057661814,-0.003600620808678607,0.0075066128046700036,-1.1837590162279188
14667,13.0,300.17503999999997,48965.093,0.0,-0.07333462148511116,-0.07333361898586244,0.0,0.0,0.0,-3.6700509346808263,-5.725265021314665,-5.488849556307274,-0.004855856817435756,-0.002194986871678338,-1.182369951665829
14668,13.0,300.07372999999995,48940.325999999994,0.0,-0.07333960298379227,-0.07333862119604961,0.0,0.0,0.0,-3.6581050199768566,-5.728342464518385,-5.490189376914504,-0.004744252790471295,0.0006619703745063894,-1.1897763032717787
14669,13.0,300.15994,48888.092000000004,0.0,-0.07334461747253063,-0.07334362340623657,0.0,0.0,0.0,-3.6637421355831963,-5.716933572367414,-5.480083625717144,0.0031010894213036972,-0.0043147902819616465,-1.1948066847182388
14670,13.0,299.98093,48858.551,0.0,-0.07334959897121163,-0.07334862561642375,0.0,0.0,0.0,-3.6574850122406666,-5.716986464022635,-5.477308131043224,-0.0037723060069476165,-0.0013043634398556487,-1.197770137285709
14671,13.0,299.81006,48874.097,0.0,-0.07335461345994998,-0.0733536278266107,0.0,0.0,0.0,-3.660048636318676,-5.722043189971695,-5.474413072857504,0.004417463117244665,-0.007864686878709164,-1.199068819938879
14672,13.0,299.93381,48896.85,0.0,-0.07335959495863087,-0.07335863003679777,0.0,0.0,0.0,-3.656218854915707,-5.726908512976865,-5.480293976437904,0.0016138680796263785,0.004378055693030456,-1.1985354450862389
14673,13.0,299.92766,48878.111,0.0,-0.07336460944736933,-0.07336363224698494,0.0,0.0,0.0,-3.6580428064207164,-5.724417640256036,-5.475264912216574,0.009104960425889631,0.005824802455488245,-1.1953615404729987
14674,13.0,300.21169,48875.442,0.0,-0.07336959094605011,-0.0733686344571719,0.0,0.0,0.0,-3.639486549389357,-5.732705316798965,-5.484722082024924,0.001954906177084218,0.0031423357931243973,-1.1969952036092288
14675,13.0,300.23267000000004,48914.693,0.0,-0.07337460543478858,-0.07337363666735908,0.0,0.0,0.0,-3.651681115667867,-5.735779720252385,-5.481384537520535,0.001089749570624909,0.002076693975503738,-1.193758882789829
14676,13.0,300.14713,48964.397000000004,0.0,-0.07337961992352704,-0.07337863887754625,0.0,0.0,0.0,-3.651891871688666,-5.734683890269235,-5.4973782850489945,-0.0015251534737459286,0.0008504730926351592,-1.1930153598664488
14677,13.0,299.95763,48935.405999999995,0.0,-0.07338460142220771,-0.07338364108773321,0.0,0.0,0.0,-3.6468046469115967,-5.731556595160594,-5.496780264839975,-0.00026408103295526877,-0.0012648865066845788,-1.1917571058922687
14678,13.0,300.08234,48894.437999999995,0.0,-0.07338961591094628,-0.07338864329792039,0.0,0.0,0.0,-3.6499715600991465,-5.726404623702135,-5.486312175406854,-0.0076786585173245926,0.0013843682492015088,-1.1936361782027187
14679,13.0,299.90454,48931.19,0.0,-0.07339459740962717,-0.07339361259882993,0.0,0.0,0.0,-3.660562556769397,-5.7258113657685845,-5.487485924322694,0.0008456230595739984,-0.005154347327294475,-1.1955083604124888
14680,13.0,300.14256,48965.865999999995,0.0,-0.07339961189836541,-0.07339861480901688,0.0,0.0,0.0,-3.660509057164117,-5.733388753991415,-5.490502572520415,-0.005769357004716204,0.008551202122312942,-1.2003826000185387
14681,13.0,300.10955,48933.178,0.0,-0.07340459339704652,-0.07340361701920406,0.0,0.0,0.0,-3.6650762819898666,-5.726945293955495,-5.482442775924975,-0.0015346777207108984,-0.0025464502994150774,-1.197389357898129
14682,13.0,299.98865,48997.004,0.0,-0.07340960788578488,-0.07340861922939101,0.0,0.0,0.0,-3.6656865625250967,-5.734725534848344,-5.493453764761674,-0.0011754955563623788,-0.0016121805115848283,-1.1984651255292988
14683,13.0,299.95172,49000.685,0.0,-0.07341458938446588,-0.07341362143957819,0.0,0.0,0.0,-3.6725675439541963,-5.735913570590594,-5.486503679675754,-0.0008283170619735292,-0.0027824045329769478,-1.1959790150839387
14684,13.0,299.88629,48943.374,0.0,-0.07341960387320423,-0.07341862364976537,0.0,0.0,0.0,-3.6637036320793968,-5.730504841556795,-5.483355004990004,0.0069965765468833424,0.004372464173678616,-1.193140293603779
14685,13.0,299.9896,48978.4,0.0,-0.0734246183619427,-0.07342362585995232,0.0,0.0,0.0,-3.6641570614991466,-5.734923118617845,-5.4891304292349945,0.006202586777097655,-0.001035593784580149,-1.192572569572749
14686,13.0,300.09744,49033.081,0.0,-0.07342959986062358,-0.07342862807013939,0.0,0.0,0.0,-3.666293195359967,-5.739689447088244,-5.498849625519204,0.004022636232928286,0.0007170099375533713,-1.1910612057235888
14687,13.0,300.01057000000003,48981.664000000004,0.0,-0.07343461434936194,-0.07343363028032635,0.0,0.0,0.0,-3.6599531881592564,-5.737474887669685,-5.491774708020965,0.004995627272005026,-0.006077878791889934,-1.188881400783459
14688,13.0,299.95769,48920.019,0.0,-0.07343959584804283,-0.07343863249051352,0.0,0.0,0.0,-3.6458786376452066,-5.733779868530014,-5.490805736950335,-0.0017416160177841182,0.0029039097359435774,-1.2000899733896588
14689,13.0,300.3123,48992.449,0.0,-0.07344461033678129,-0.0734436347007007,0.0,0.0,0.0,-3.665169804974097,-5.733789697055985,-5.493521652518375,-9.9944741462028e-06,-0.002116715733253578,-1.1939707533857387
14690,13.0,300.27075,49023.816,0.0,-0.07344959183546196,-0.07344863691088765,0.0,0.0,0.0,-3.6692184483986665,-5.738513671672204,-5.494283920568605,-0.0036538244436043967,-0.002937277682936737,-1.2011401057932989
14691,13.0,300.21459,48993.672,0.0,-0.07345460632420053,-0.07345363912107483,0.0,0.0,0.0,-3.663410802800497,-5.740790039346865,-5.488652276512805,-0.0039794180764129855,0.003046437041384927,-1.206588351580999
14692,13.0,300.00136000000003,48982.622,0.0,-0.073459620812939,-0.07345864133126179,0.0,0.0,0.0,-3.6577768282694665,-5.739006719170865,-5.492710343163305,-0.0023217230796112277,0.006692326723456224,-1.206610440433179
14693,13.0,299.92445,49010.084,0.0,-0.07346460231161966,-0.07346361063217133,0.0,0.0,0.0,-3.6646772641004866,-5.738371614008185,-5.4947927747688246,-0.007616971547261562,-0.00026089415874074875,-1.2027072997229686
14694,13.0,299.88155,49043.629,0.0,-0.07346961680035813,-0.0734686128423585,0.0,0.0,0.0,-3.666469399552357,-5.741400522532114,-5.500168573174374,0.0016350136972882884,-0.008500866187820172,-1.2011256163168689
14695,13.0,300.0038,49113.255999999994,0.0,-0.07347459829903913,-0.07347361505254546,0.0,0.0,0.0,-3.6811336616246066,-5.746822829117254,-5.501247076580815,0.005486491621999564,-0.00979727997136625,-1.198789466886309
14696,13.0,300.02979,49027.779,0.0,-0.07347961278777737,-0.07347861726273264,0.0,0.0,0.0,-3.6664513637005762,-5.736254225274214,-5.500514800733545,0.012245820521568387,0.002204073799900148,-1.1936505663541388
14697,13.0,300.18074,48957.107,0.0,-0.07348459428645848,-0.07348361947291981,0.0,0.0,0.0,-3.651578270782717,-5.735867366386035,-5.494292330544435,0.005731389611544114,-0.0062339720976201446,-1.1938503792738588
14698,13.0,300.09635,49051.608,0.0,-0.07348960877519695,-0.07348862168310677,0.0,0.0,0.0,-3.661370522399136,-5.743333803722915,-5.505759889876195,0.0013464666159609087,0.001016545493300229,-1.1880835676547188
14699,13.0,299.98977,49130.96599999999,0.0,-0.07349459027387784,-0.07349362389329395,0.0,0.0,0.0,-3.6732854316500463,-5.746845019294445,-5.514456412834474,-0.006415351464895894,0.006061072113806245,-1.1936404338531388
14700,13.0,299.89884,49048.28599999999,0.0,-0.07349960476261619,-0.07349862610348101,0.0,0.0,0.0,-3.6603301171964566,-5.745809984317295,-5.503314106784815,-0.0032158333076780367,0.004877793479450735,-1.1972053516799688
14701,13.0,299.92012,48990.45,0.0,-0.07350461925135465,-0.07350362831366819,0.0,0.0,0.0,-3.6654818860048963,-5.7338286058598245,-5.492563016598765,-0.010054999019726141,0.0009450253261842381,-1.1985870195163288
14702,13.0,299.96868,49070.522000000004,0.0,-0.07350960075003554,-0.07350863052385515,0.0,0.0,0.0,-3.6704243173426763,-5.746824551642424,-5.498964528080545,-0.009248985011003751,-0.005599418649619594,-1.2004675103769187
14703,13.0,299.88892000000004,49111.172999999995,0.0,-0.07351461523877378,-0.0735136327340421,0.0,0.0,0.0,-3.677424760958567,-5.748284239736485,-5.502861183990115,0.0001144941506221929,-0.002475870742499418,-1.2063671590841687
14704,13.0,299.82412999999997,49084.239,0.0,-0.07351959673745478,-0.07351863494422928,0.0,0.0,0.0,-3.6661302647438863,-5.7507196876768445,-5.503533070131424,-0.002222860368679238,0.0013778556855087686,-1.2043859511636388
14705,13.0,299.7349,49053.773,0.0,-0.07352461122619325,-0.07352363715441623,0.0,0.0,0.0,-3.6675826574372263,-5.745048324217124,-5.498491137633825,0.007711519129992682,-0.0014965530711232888,-1.2028116644832687
14706,13.0,299.84721,49056.797999999995,0.0,-0.07352959272487392,-0.07352863936460341,0.0,0.0,0.0,-3.6612627125884964,-5.746827895367755,-5.503951035797674,-0.00033219887848797667,-0.004505477364655996,-1.1992748136842089
14707,13.0,300.07045,49058.682,0.0,-0.07353460721361238,-0.07353364157479059,0.0,0.0,0.0,-3.6676726340461068,-5.751846421788045,-5.493095378201304,0.003642359417397887,0.003491935347302187,-1.2054940414729989
14708,13.0,300.2123,49074.397000000004,0.0,-0.07353958871229327,-0.0735386108756999,0.0,0.0,0.0,-3.660077817921557,-5.751018799106364,-5.506294784603985,0.005179145610241875,0.0014405216578184188,-1.1972119378056187
14709,13.0,300.08436,49061.832,0.0,-0.07354460320103162,-0.07354361308588708,0.0,0.0,0.0,-3.6653414495410366,-5.747249914034405,-5.500980591804515,-0.0018286648405001686,0.0025666050598041976,-1.194620955974909
14710,13.0,300.01597000000004,49061.309,0.0,-0.07354961768977009,-0.07354861529607426,0.0,0.0,0.0,-3.6588267580230864,-5.752835961835705,-5.501750256580475,0.0025462368076190076,-0.004782858835181415,-1.194139358202379
14711,13.0,300.04286,49144.304000000004,0.0,-0.0735545991884512,-0.07355361750626133,0.0,0.0,0.0,-3.676232672215917,-5.753441581420474,-5.508967130417725,-0.0035499481711776066,0.0015735954411517784,-1.1979583991542886
14712,13.0,300.07275,49227.302,0.0,-0.07355961367718955,-0.0735586197164485,0.0,0.0,0.0,-3.6816810193286265,-5.758607231755285,-5.523582452510145,0.0005657090818811395,-0.0013621021795790186,-1.196112865422149
14713,13.0,299.79607999999996,49181.124,0.0,-0.07356459517587044,-0.07356362192663546,0.0,0.0,0.0,-3.6848308085894868,-5.7546836233930545,-5.510319211351165,-0.0008962740033903572,-0.009196310393955172,-1.1966178692719887
14714,13.0,299.66132999999996,49147.898,0.0,-0.0735696096646089,-0.07356862413682264,0.0,0.0,0.0,-3.677361635477336,-5.748632493795854,-5.513739741038744,-0.0024886934225149177,-0.008628196565611703,-1.199843550965339
14715,13.0,300.03758,49168.687000000005,0.0,-0.0735745911632898,-0.07357362634700981,0.0,0.0,0.0,-3.685980239502926,-5.7536977310457535,-5.506375236661925,-0.000939986848869479,0.003435991884105997,-1.2040496534554488
14716,13.0,300.15731,49087.096,0.0,-0.07357960565202804,-0.07357862855719677,0.0,0.0,0.0,-3.670087513009436,-5.7435258146168655,-5.507638050261554,-0.0012450426114261387,-0.00014114052069198488,-1.203639895115009
14717,13.0,300.2495,49047.352,0.0,-0.07358462014076661,-0.07358363076738372,0.0,0.0,0.0,-3.665655557072036,-5.742626656478124,-5.500888183395395,-0.0006173142539791734,0.006903444575866933,-1.2017469412781887
14718,13.0,300.22328,49100.505999999994,0.0,-0.0735896016394475,-0.07358863297757068,0.0,0.0,0.0,-3.662868916647017,-5.7525575207082245,-5.509901347009924,0.006367326044606154,0.0003364915834641337,-1.2100794034755387
14719,13.0,300.07941,49130.355,0.0,-0.07359461612818574,-0.07359363518775786,0.0,0.0,0.0,-3.6698216361831966,-5.753620420063124,-5.510959180114324,0.004884724515434776,0.006241466095359744,-1.2061774786654489
14720,13.0,300.17466,49196.207,0.0,-0.07359959762686663,-0.07359863739794503,0.0,0.0,0.0,-3.6696138185876865,-5.7701591948203745,-5.514645485303135,-0.001164773141154159,-0.001124474158176959,-1.2068667927084789
14721,13.0,300.19073,49263.235,0.0,-0.0736046121156052,-0.0736036396081321,0.0,0.0,0.0,-3.6847839964348665,-5.768689982175375,-5.5213193584117946,-0.0064588842355672435,-0.006129956401979594,-1.195915382977659
14722,13.0,299.86211000000003,49225.895,0.0,-0.07360959361428587,-0.07360860890904153,0.0,0.0,0.0,-3.6724735143449165,-5.7684233960740645,-5.522546100307865,0.0014421352586026688,-0.0038969378970728262,-1.200394961669759
14723,13.0,299.91143,49184.666,0.0,-0.07361460810302434,-0.0736136111192287,0.0,0.0,0.0,-3.6715385884776466,-5.769959077925624,-5.509412555161685,-0.004061221303361336,0.007628845723858453,-1.2031827166698887
14724,13.0,299.93227,49178.054000000004,0.0,-0.07361958960170545,-0.07361861332941577,0.0,0.0,0.0,-3.6780441607446965,-5.753514434102665,-5.517341845144245,-0.000982281600171146,6.800887859045373e-05,-1.199102561167209
14725,13.0,299.8804,49147.267,0.0,-0.07362460409044369,-0.07362361553960295,0.0,0.0,0.0,-3.677586171699496,-5.755611659159644,-5.5063440285588445,-0.009166906585328241,-0.004673220716060975,-1.2004729819274589
14726,13.0,299.94435,49093.397000000004,0.0,-0.07362961857918204,-0.0736286177497899,0.0,0.0,0.0,-3.6648061495132067,-5.751768806830385,-5.506591970858315,0.01113052499074729,-0.0014810430491925687,-1.2086437294088488
14727,13.0,299.66797,49142.757000000005,0.0,-0.07363460007786315,-0.07363361995997708,0.0,0.0,0.0,-3.6786800765074563,-5.749742103980365,-5.509748954194885,0.0043403660317107755,0.004501087965222796,-1.2040930205597289
14728,13.0,299.76241,49241.142,0.0,-0.0736396145666014,-0.07363862217016426,0.0,0.0,0.0,-3.6845757735393168,-5.763757885988615,-5.519744058481325,0.010275059209569391,-0.002182599281255778,-1.203509591152149
14729,13.0,299.85819,49247.03400000001,0.0,-0.07364459606528229,-0.07364362438035121,0.0,0.0,0.0,-3.6895769733828967,-5.758703693164804,-5.521587869688295,-0.003033555390213607,-0.0007630543323075994,-1.1969394748537288
14730,13.0,299.85646,49274.03,0.0,-0.07364961055402086,-0.07364862659053839,0.0,0.0,0.0,-3.684447597401667,-5.7717372305261145,-5.521889919543105,0.002413536204297478,-0.0019105765865342283,-1.200616559466629
14731,13.0,299.82809,49325.945,0.0,-0.07365459205270175,-0.07365362880072535,0.0,0.0,0.0,-3.6944453361383665,-5.777413356261304,-5.521996918753665,0.0025870415037211173,0.005543654025066055,-1.1990993187668888
14732,13.0,300.00412,49260.524000000005,0.0,-0.07365960654143999,-0.07365863101091252,0.0,0.0,0.0,-3.682600746444397,-5.767228166256104,-5.5241402466901945,-0.0019619312426775383,0.0016227696844048985,-1.1963178459173789
14733,13.0,300.01371,49215.269,0.0,-0.07366458804012088,-0.07366363322109948,0.0,0.0,0.0,-3.6819140668516264,-5.769192250249945,-5.509106553631486,-0.003533501196879417,-0.007114106871032683,-1.1991949695763289
14734,13.0,300.1051,49228.452000000005,0.0,-0.07366960252885935,-0.07366863543128654,0.0,0.0,0.0,-3.6771019394767066,-5.763818275694574,-5.523299958382265,-0.0025463284054280475,-0.0021834834432930376,-1.207860993706599
14735,13.0,300.01101,49177.986,0.0,-0.0736746170175977,-0.07367363764147372,0.0,0.0,0.0,-3.6777355247642363,-5.761531471543885,-5.509612773381445,-0.003966110353574617,0.0037447008185731968,-1.208884984257659
14736,13.0,300.01092,49144.044,0.0,-0.07367959851627859,-0.07367860694238315,0.0,0.0,0.0,-3.661593640071157,-5.763266763665144,-5.513701744159995,0.003296381827027557,-0.004525908539672396,-1.2152467763355188
14737,13.0,299.98023,49238.636,0.0,-0.07368461300501705,-0.07368360915257022,0.0,0.0,0.0,-3.680374838624717,-5.762140232203965,-5.524800683105375,-0.008986654560113752,0.0002945239802222537,-1.2074675486927688
14738,13.0,299.86247000000003,49289.598,0.0,-0.07368959450369794,-0.0736886113627574,0.0,0.0,0.0,-3.6743848080085466,-5.777058009451235,-5.531364314603155,0.002955499871410127,-0.0016915546740684487,-1.2112248827135887
14739,13.0,299.83074,49264.387,0.0,-0.0736946089924363,-0.07369361357294435,0.0,0.0,0.0,-3.6811219079234467,-5.7694289454733045,-5.5245926628598445,0.00042041327319155956,0.003098485267221687,-1.2043065123557988
14740,13.0,299.81166,49306.453,0.0,-0.0736995904911174,-0.07369861578313153,0.0,0.0,0.0,-3.6801439189269263,-5.773382951338535,-5.534403760928124,0.00017583482219854586,-0.0017426775999138885,-1.2035185077530288
14741,13.0,299.85208,49342.595,0.0,-0.07370460497985565,-0.0737036179933187,0.0,0.0,0.0,-3.6980003241142163,-5.774642826512874,-5.526273644775745,-0.0016312239392642684,-0.00816326959432698,-1.1997268245538188
14742,13.0,299.85658,49324.026,0.0,-0.073709619468594,-0.07370862020350566,0.0,0.0,0.0,-3.6853243627131964,-5.774899381438194,-5.533048437594365,0.0004785893721880936,0.0023969911473896077,-1.207148780211309
14743,13.0,299.75487000000004,49346.518,0.0,-0.07371460096727511,-0.07371362241369284,0.0,0.0,0.0,-3.6961264193792767,-5.777552475500035,-5.526430293241205,0.0046171024672225355,0.006993305268935494,-1.2036102068870789
14744,13.0,299.82209,49314.397000000004,0.0,-0.07371961545601335,-0.07371862462387979,0.0,0.0,0.0,-3.6859012059951266,-5.774203481269515,-5.530240620242254,0.0007233933118583614,-0.0072322651062689935,-1.1993531379169389
14745,13.0,299.85301,49247.706,0.0,-0.07372459695469424,-0.07372362683406697,0.0,0.0,0.0,-3.6881720007942365,-5.761926740407895,-5.519974167579035,0.003047404897880447,-0.0038077855671491763,-1.201070292861409
14746,13.0,299.96764,49269.575999999994,0.0,-0.07372961144343271,-0.07372862904425415,0.0,0.0,0.0,-3.6803067482179967,-5.769396521470104,-5.527017572999165,-0.0016403763234425386,0.0007291093191174872,-1.209532957696609
14747,13.0,299.92714,49333.394,0.0,-0.0737345929421136,-0.0737336312544411,0.0,0.0,0.0,-3.6968191784726465,-5.769546685134924,-5.529754260194255,0.0007693508508140172,0.010602187004354391,-1.2057247585207689
14748,13.0,300.13777000000005,49325.606,0.0,-0.07373960743085195,-0.07373863346462817,0.0,0.0,0.0,-3.6807165065584364,-5.779521220444335,-5.533514836615395,-0.006755427278733764,0.0016073565291837384,-1.208374711507299
14749,13.0,300.25109,49311.542,0.0,-0.07374458892953284,-0.07374363567481512,0.0,0.0,0.0,-3.6834638328795766,-5.7746379629123945,-5.531375460354255,0.00042445230087268063,0.0018019126060599283,-1.203882568513959
14750,13.0,299.81076,49380.345,0.0,-0.0737496034182713,-0.07374863788500252,0.0,0.0,0.0,-3.6888137934075766,-5.781327845372635,-5.540250214005124,-0.0037217064247788267,0.004514877893783756,-1.207689349139659
14751,13.0,299.80195,49411.727999999996,0.0,-0.07375461790700966,-0.07375360718591195,0.0,0.0,0.0,-3.6979826935624764,-5.786197829328265,-5.535750978261085,-0.0007235114872175243,-0.006376283682115204,-1.206103612733159
14752,13.0,300.12165,49330.905,0.0,-0.07375959940569055,-0.07375860939609902,0.0,0.0,0.0,-3.6861568489953567,-5.781053963870604,-5.528152413111164,-0.004426934067254376,-0.01142000243831649,-1.2116403152545887
14753,13.0,299.83668,49311.592000000004,0.0,-0.07376461389442901,-0.07376361160628597,0.0,0.0,0.0,-3.6883263187844664,-5.781716224135964,-5.519450215952324,0.0025884991653149776,-0.003069239525610357,-1.2122245552622488
14754,13.0,300.06388,49329.21599999999,0.0,-0.0737695953931099,-0.07376861381647315,0.0,0.0,0.0,-3.688461688997826,-5.777794946248965,-5.528593278229675,0.005046779683428376,0.006174847231759974,-1.2140359424660188
14755,13.0,300.28026,49309.024000000005,0.0,-0.07377460988184825,-0.0737736160266601,0.0,0.0,0.0,-3.6841803020252866,-5.777935585362845,-5.526596263607585,-0.0006839732524154044,0.005681781393273165,-1.2083613366059789
14756,13.0,300.08898999999997,49322.556,0.0,-0.07377959138052925,-0.07377861823684728,0.0,0.0,0.0,-3.6833461945429664,-5.777675078762135,-5.531804267796574,-0.005039554095640266,0.0001750614894572238,-1.209633168131499
14757,13.0,300.14788,49403.62,0.0,-0.0737846058692676,-0.07378362044703424,0.0,0.0,0.0,-3.6997240651843364,-5.774027378402136,-5.543715529347124,0.0009329192369044601,0.0016768968967968384,-1.199835039664499
14758,13.0,300.04251,49418.53,0.0,-0.0737895873679485,-0.07378862265722141,0.0,0.0,0.0,-3.6962204489885564,-5.784191999430304,-5.541586893537045,0.002236598317510068,0.005368603924539955,-1.2089854986675788
14759,13.0,299.68382,49445.96,0.0,-0.07379460185668696,-0.07379362486740859,0.0,0.0,0.0,-3.700780581063607,-5.785784220637445,-5.543772271352725,0.007395106961640234,-0.007103789857189473,-1.2074487022409088
14760,13.0,299.82662999999997,49461.96400000001,0.0,-0.07379961634542531,-0.07379862707759566,0.0,0.0,0.0,-3.696140199580636,-5.785553807564704,-5.553507780963545,-0.003400783570956207,-0.007383041888724504,-1.206578320405009
14761,13.0,299.79246,49401.60400000001,0.0,-0.0738045978441062,-0.07380362928778272,0.0,0.0,0.0,-3.6929786566186165,-5.784413191927135,-5.539462310727365,0.0007943523106714692,-0.0009661530599818832,-1.2023271282854489
14762,13.0,299.84129,49376.53599999999,0.0,-0.07380961233284467,-0.07380863149796979,0.0,0.0,0.0,-3.6852391483797864,-5.781507595940375,-5.5424870649258855,-0.0018004555524161283,0.0009479901263743409,-1.207688842514609
14763,13.0,300.25279,49417.053,0.0,-0.07381459383152555,-0.07381363370815697,0.0,0.0,0.0,-3.703625179394346,-5.782172895956035,-5.535752194161205,-0.0045558269780251156,-0.005194679139574915,-1.204727821747379
14764,13.0,300.13108,49353.84099999999,0.0,-0.07381960832026391,-0.07381863591834392,0.0,0.0,0.0,-3.687880488740466,-5.781936302057685,-5.532518406467054,-0.001941880137773648,-0.005138355099641165,-1.2135584990188988
14765,13.0,300.13387,49345.484000000004,0.0,-0.0738245898189448,-0.07382360521925346,0.0,0.0,0.0,-3.6897337231733665,-5.783542911416244,-5.526518445999904,0.0022110816402417677,-0.0002057783790212448,-1.211951484360299
14766,13.0,300.11857000000003,49477.731,0.0,-0.07382960430768326,-0.07382860742944064,0.0,0.0,0.0,-3.691367082334567,-5.799730696338854,-5.548896986383495,0.004775578430562895,0.01061180781405389,-1.213737641636579
14767,13.0,299.97247000000004,49478.46599999999,0.0,-0.07383461879642161,-0.0738336096396276,0.0,0.0,0.0,-3.7012649146114067,-5.794725950119924,-5.544227119322615,0.0031107369808058374,0.0008864742537231971,-1.204096566935079
14768,13.0,300.20155,49396.324,0.0,-0.0738396002951025,-0.07383861184981455,0.0,0.0,0.0,-3.679155898754417,-5.791882972989344,-5.544210198045945,0.0008145163321665032,0.007145262791732533,-1.2081271745078688
14769,13.0,300.05071,49408.202000000005,0.0,-0.07384461478384097,-0.07384361406000173,0.0,0.0,0.0,-3.689675359967606,-5.789069886736715,-5.540114641141745,-0.0007781828757081704,0.001082952081004049,-1.2091454908583688
14770,13.0,299.83479,49483.137,0.0,-0.07384959628252186,-0.07384861627018868,0.0,0.0,0.0,-3.699365678623967,-5.790357018338744,-5.551915357106385,-0.0012333944909265588,0.0024274486347955274,-1.2122306347628489
14771,13.0,299.76917000000003,49472.48,0.0,-0.07385461077126032,-0.07385361848037586,0.0,0.0,0.0,-3.7022994429635068,-5.792129192763644,-5.543970159097254,-0.0007556065894350644,-0.013342562429808386,-1.2157804551631888
14772,13.0,299.97377,49416.362,0.0,-0.07385959226994121,-0.07385862069056304,0.0,0.0,0.0,-3.6897613849010966,-5.787479692029774,-5.544098841859955,-0.003569132440620947,-0.001981529323461718,-1.212643331528579
14773,13.0,299.89919,49422.822,0.0,-0.07386460675867956,-0.0738636229007501,0.0,0.0,0.0,-3.6955371131211168,-5.7856040647696645,-5.542162622243865,-7.880511616120942e-05,0.003602073100046937,-1.2063557093580386
14774,13.0,299.93981,49439.065,0.0,-0.07386958825736045,-0.07386862511093728,0.0,0.0,0.0,-3.6985428182177564,-5.787734625754935,-5.541963923899255,-0.007572775705724772,0.006399121630094134,-1.203528842904049
14775,13.0,300.15528,49496.315,0.0,-0.07387460274609892,-0.07387362732112424,0.0,0.0,0.0,-3.7117150695177563,-5.794561094328654,-5.539367875818045,-0.002925613958385617,0.0001848608034268408,-1.2072915471503989
14776,13.0,300.01126,49523.239,0.0,-0.07387961723483727,-0.07387862953131141,0.0,0.0,0.0,-3.7079632070474764,-5.797592029352785,-5.548272824321895,-0.0033877755674974167,0.0008285603838525433,-1.205502350123819
14777,13.0,299.98636,49477.797999999995,0.0,-0.07388459873351816,-0.07388363174149859,0.0,0.0,0.0,-3.7056781254219566,-5.792739979923924,-5.541596924713035,0.009812915636309372,-0.002148401583755728,-1.209583316226579
14778,13.0,300.25125,49507.579000000005,0.0,-0.07388961322225662,-0.07388863395168555,0.0,0.0,0.0,-3.6972135354115663,-5.798724741639575,-5.553129636026225,-0.002688037511413648,0.0017075075876178782,-1.2080401363242788
14779,13.0,300.13338,49600.263,0.0,-0.07389459472093751,-0.07389360325259509,0.0,0.0,0.0,-3.7126929571892666,-5.804253034185174,-5.560295442058435,0.0025588448812633277,-0.00996563157680626,-1.2008457566392488
14780,13.0,299.89926,49568.85400000001,0.0,-0.07389960920967586,-0.07389860546278226,0.0,0.0,0.0,-3.7048632696915367,-5.796857017730245,-5.565973492968816,-0.0007121547065191973,0.003571196127099617,-1.2078145868520187
14781,13.0,299.97457,49472.989,0.0,-0.07390459070835675,-0.07390360767296922,0.0,0.0,0.0,-3.694322428901236,-5.7966908447138445,-5.547540143174585,0.0016644296649164186,0.001120593308968949,-1.208454048990129
14782,13.0,299.73492000000005,49459.307,0.0,-0.07390960519709522,-0.0739086098831564,0.0,0.0,0.0,-3.692276372974307,-5.7972180387408745,-5.544900018714024,-0.0048877091449293355,-0.0004615342654448855,-1.2213088490337987
14783,13.0,299.83059,49534.517,0.0,-0.07391458669577611,-0.07391361209334335,0.0,0.0,0.0,-3.7085681173571765,-5.7949544380174745,-5.553733735735845,-0.005876438693834344,-0.007636605902399322,-1.2138419050718687
14784,13.0,300.1243,49495.252,0.0,-0.07391960118451457,-0.0739186143035303,0.0,0.0,0.0,-3.6945585161745362,-5.801230407811865,-5.549531787571144,-0.007453989052776443,0.0019480503242575982,-1.2228686462377387
14785,13.0,299.93703,49423.51,0.0,-0.07392461567325292,-0.07392361651371748,0.0,0.0,0.0,-3.691277511025726,-5.790078273236235,-5.542157252018335,0.003995488932274056,5.5654745686195754e-05,-1.2057654911747888
14786,13.0,300.14986,49502.367999999995,0.0,-0.07392959717193381,-0.07392861872390455,0.0,0.0,0.0,-3.702155358799286,-5.797655053509004,-5.547673486887745,-0.007114862552957263,0.005607057744773515,-1.2090298790219591
14787,13.0,300.17028999999997,49545.763,0.0,-0.07393461166067228,-0.07393362093409173,0.0,0.0,0.0,-3.7077935889807367,-5.802353696872725,-5.550527711094435,0.0056570225257546545,-0.0017666721728819685,-1.2091410325579288
14788,13.0,299.84889,49616.46599999999,0.0,-0.07393959315935317,-0.07393862314427868,0.0,0.0,0.0,-3.7108666752090262,-5.811016073302635,-5.560283891007295,-0.0012688401072497688,0.0041107115793206465,-1.2175181790846887
14789,13.0,299.88349,49681.407999999996,0.0,-0.07394460764809152,-0.07394362535446586,0.0,0.0,0.0,-3.718712068083306,-5.812855426209165,-5.570339992949754,0.01015136670361189,-0.004068450640174816,-1.2102554050179088
14790,13.0,299.70063,49585.992,0.0,-0.07394958914677241,-0.07394862756465304,0.0,0.0,0.0,-3.7063481877130866,-5.800986619837804,-5.565568598228855,0.00015968088996177684,-0.004726035769573415,-1.212862902825249
14791,13.0,299.71611,49518.962999999996,0.0,-0.07395460363551087,-0.07395362977483999,0.0,0.0,0.0,-3.699212171233817,-5.797584632627054,-5.555731358307995,0.002214164656321038,-0.0032035673072674767,-1.2113138460723687
14792,13.0,299.89534,49564.247,0.0,-0.07395961812424912,-0.07395863198502717,0.0,0.0,0.0,-3.7057219991512866,-5.796134570408944,-5.564436696542145,-0.0006012338735671635,0.004184325617635786,-1.209983246041049
14793,13.0,299.89817,49581.301,0.0,-0.07396459962293,-0.07396360128593671,0.0,0.0,0.0,-3.707419497043817,-5.802264429538915,-5.561793633656294,-0.00021748062734116682,0.0049275731396386056,-1.209043659223319
14794,13.0,300.113,49554.719000000005,0.0,-0.07396961411166858,-0.07396860349612366,0.0,0.0,0.0,-3.705633035792507,-5.804540594563554,-5.553223564310495,-0.002143956455567028,0.007427316966419113,-1.2188196988381388
14795,13.0,300.12948,49605.164000000004,0.0,-0.07397459561034947,-0.07397360570631084,0.0,0.0,0.0,-3.7111687250638363,-5.809374202840594,-5.558188185825465,-0.0038431669434160465,-0.0018364344422669681,-1.2123695513515589
14796,13.0,299.92812999999995,49648.823,0.0,-0.07397961009908771,-0.0739786079164978,0.0,0.0,0.0,-3.7127556773704566,-5.815659798510935,-5.563587086333295,-0.004279620370990646,0.0055031697186455645,-1.2148405643704288
14797,13.0,300.07198,49668.447,0.0,-0.07398459159776882,-0.07398361012668497,0.0,0.0,0.0,-3.7173997065537865,-5.815418543662124,-5.565149416662485,-0.005786904267297985,-0.0055661901258401945,-1.2039568397462888
14798,13.0,299.87462,49652.74,0.0,-0.07398960608650718,-0.07398861233687193,0.0,0.0,0.0,-3.709250642624536,-5.821314747319034,-5.5626277411386145,0.003703867143518226,0.0020664541713181477,-1.2133805723013387
14799,13.0,299.86292000000003,49594.218,0.0,-0.07399458758518807,-0.073993614547059,0.0,0.0,0.0,-3.7085238383278067,-5.8118496741599035,-5.555030493213825,0.0033239631026996163,-0.0017732599197321285,-1.213867337649379
14800,13.0,299.79762,49499.025,0.0,-0.07399960207392653,-0.07399861675724617,0.0,0.0,0.0,-3.6896113225612868,-5.8032805167391945,-5.553575972695275,0.010333383911825589,0.0017599390246424583,-1.2226400570151787
14801,13.0,299.94514,49561.702000000005,0.0,-0.07400461656266477,-0.07400361896743313,0.0,0.0,0.0,-3.7064510325982365,-5.808095785189424,-5.550973135838395,0.0016908493506738382,-0.0034795235402022367,-1.216748311658709
14802,13.0,299.93063,49615.013,0.0,-0.07400959806134577,-0.0740086211776203,0.0,0.0,0.0,-3.7042673773077266,-5.805781927261065,-5.571675861881595,0.009258949515137171,-7.466650119400993e-05,-1.218965809502559
14803,13.0,300.02783,49539.647000000004,0.0,-0.07401461255008424,-0.07401362338780748,0.0,0.0,0.0,-3.7053660443911567,-5.799746199065385,-5.553703540882865,0.002164468082641368,-0.003191486123675157,-1.2156355603988889
14804,13.0,299.72915,49576.626,0.0,-0.07401959404876512,-0.07401862559799444,0.0,0.0,0.0,-3.6973708931520965,-5.8095819191110945,-5.5631035633855745,-0.000924083077949899,0.0020144645113371685,-1.2182655523584487
14805,13.0,299.69732,49714.78,0.0,-0.07402460853750337,-0.07402362780818161,0.0,0.0,0.0,-3.7274014982908863,-5.811584709258754,-5.573065534393745,-0.007587681627945872,-0.005676576428834474,-1.213457275333909
14806,13.0,299.64877,49776.644,0.0,-0.07402959003618426,-0.07402863001836857,0.0,0.0,0.0,-3.7265106488029662,-5.831022291227094,-5.573323811844236,-0.004432190606123155,0.0016971865207742684,-1.2172952640626886
14807,13.0,299.95592999999997,49706.405,0.0,-0.07403460452492283,-0.07403363222855575,0.0,0.0,0.0,-3.726565060333337,-5.815508824246035,-5.567431965162754,-0.0022235503919973377,0.005033690518636575,-1.2129130587051988
14808,13.0,299.94822,49635.774000000005,0.0,-0.07403958602360372,-0.07403860152946529,0.0,0.0,0.0,-3.7147234090646566,-5.810401435791974,-5.562911045866574,0.0020844303426672582,-0.0008481559923064791,-1.209274274946079
14809,13.0,299.91093,49628.763,0.0,-0.07404460051234196,-0.07404360373965224,0.0,0.0,0.0,-3.7123615230815568,-5.813120897735365,-5.560422503620974,-0.002108586225051258,0.001778722249696218,-1.2077246102431387
14810,13.0,300.11204,49685.039000000004,0.0,-0.07404961500108054,-0.07404860594983942,0.0,0.0,0.0,-3.7112573844475865,-5.817207740688704,-5.574545892789844,0.0026376658091923477,0.0019183561181520083,-1.2158758019975988
14811,13.0,299.89916,49725.975,0.0,-0.07405459649976143,-0.0740536081600266,0.0,0.0,0.0,-3.718173323005136,-5.823431122802904,-5.573850397921205,0.003374015124514367,0.004772646388748526,-1.2173839234464388
14812,13.0,299.89886,49672.024000000005,0.0,-0.07405961098849967,-0.07405861037021355,0.0,0.0,0.0,-3.7067192398997064,-5.815083259204035,-5.577252283806945,0.0011824983304534987,0.0011572324325849488,-1.2154486157554387
14813,13.0,300.00793,49646.742999999995,0.0,-0.07406459248718078,-0.07406361258040073,0.0,0.0,0.0,-3.709994064222906,-5.813482020071004,-5.567894108533364,0.0025578495656900977,0.002152055160966308,-1.2132402371624889
14814,13.0,299.95777000000004,49739.975999999995,0.0,-0.07406960697591902,-0.0740686147905878,0.0,0.0,0.0,-3.7193959105757965,-5.819658792680604,-5.5806558922178535,-0.008250106445122113,6.962838054328614e-06,-1.2142553111126688
14815,13.0,300.10168,49800.062999999995,0.0,-0.07407458847459991,-0.07407361700077475,0.0,0.0,0.0,-3.7292882713020963,-5.821144116002195,-5.587543358447595,0.0006991207334603443,-0.001053977079819439,-1.2140679611691787
14816,13.0,300.27451,49692.257000000005,0.0,-0.07407960296333849,-0.07407861921096193,0.0,0.0,0.0,-3.707869177438196,-5.828100888538774,-5.569235347690735,-0.0015999645657292082,-0.005380513868865375,-1.2214601272737289
14817,13.0,300.16059,49667.532,0.0,-0.07408461745207695,-0.07408362142114888,0.0,0.0,0.0,-3.7134643444903968,-5.815850188204724,-5.5683749970308245,0.0031442331039366472,0.0004519760239390605,-1.2167291612318187
14818,13.0,300.1027,49733.542,0.0,-0.07408959895075762,-0.07408862363133606,0.0,0.0,0.0,-3.7195390828149257,-5.826160717247295,-5.572055324044045,-0.0012692751968427088,-0.004627727914396185,-1.2240910311583788
14819,13.0,299.925,49732.920999999995,0.0,-0.07409461343949619,-0.07409362584152301,0.0,0.0,0.0,-3.7215789579162464,-5.824028636386874,-5.571958761309515,-0.002684952266184157,-0.0003660750109362906,-1.2136473610526688
14820,13.0,299.99849,49729.754,0.0,-0.07409959493817708,-0.07409862805171019,0.0,0.0,0.0,-3.7200224031126266,-5.818773516068235,-5.577807544861745,-0.004996261769217645,-0.004667903584836215,-1.217548373937669
14821,13.0,299.94124,49734.428,0.0,-0.07410460942691532,-0.07410363026189737,0.0,0.0,0.0,-3.7151548509572367,-5.827191901874064,-5.575677591826535,0.00034975896881602267,0.004637599706145456,-1.2091427550830989
14822,13.0,299.86817,49710.782999999996,0.0,-0.07410959092559621,-0.07410859956280669,0.0,0.0,0.0,-3.7131617880105363,-5.822287467415035,-5.5753875996479145,0.0017635193438708084,6.171279983457915e-05,-1.2217893322312188
14823,13.0,300.05955,49794.405999999995,0.0,-0.07411460541433468,-0.07411360177299386,0.0,0.0,0.0,-3.7253051851589967,-5.828880381840704,-5.582070693332485,0.0013598107144778687,0.0025973024848337974,-1.214691413955709
14824,13.0,300.14554,49853.455,0.0,-0.07411958691301568,-0.07411860398318104,0.0,0.0,0.0,-3.7322861743729665,-5.8340147227474235,-5.5879044807832345,0.004136608022726426,0.003057640953040667,-1.217877274920129
14825,13.0,300.09172,49797.492,0.0,-0.07412460140175392,-0.07412360619336811,0.0,0.0,0.0,-3.7252467206282263,-5.8275108730055445,-5.584436429665965,0.002262484223114808,0.009481018068003631,-1.209605506403769
14826,13.0,300.1295,49741.087,0.0,-0.07412961589049238,-0.07412860840355517,0.0,0.0,0.0,-3.7174867447373763,-5.8283310989614945,-5.574230569358725,0.0014872815287332586,-0.002454256800641288,-1.220552457834149
14827,13.0,299.866,49794.892,0.0,-0.07413459738917327,-0.07413361061374224,0.0,0.0,0.0,-3.7241230262673266,-5.832456141443604,-5.579824621835815,-0.011792376916316988,-0.002053392262954038,-1.2179703926043188
14828,13.0,299.84197,49812.880999999994,0.0,-0.07413961187791163,-0.07413861282392942,0.0,0.0,0.0,-3.7267630494028765,-5.8303843489641345,-5.584724699319415,-0.003572578200236017,-0.010393213290480291,-1.221548989307499
14829,13.0,300.01544,49730.532,0.0,-0.07414459337659274,-0.07414361503411637,0.0,0.0,0.0,-3.7170697923212264,-5.828562119984294,-5.571207942985414,-0.0006098117348062325,0.002154562144363728,-1.2239705557214888
14830,13.0,299.75928,49670.107,0.0,-0.0741496078653312,-0.07414861724430333,0.0,0.0,0.0,-3.7072562624527063,-5.818760039841904,-5.572456064458595,0.005302762629066925,-0.003193917214640087,-1.2250548346534988
14831,13.0,299.81267,49730.842000000004,0.0,-0.07415458936401187,-0.0741536194544905,0.0,0.0,0.0,-3.724022714507426,-5.822147030951174,-5.5707643420916355,-0.0015429597230532685,0.0005238398956214725,-1.2182588649077888
14832,13.0,299.84373999999997,49821.997,0.0,-0.07415960385275033,-0.07415862166467746,0.0,0.0,0.0,-3.7257581079536966,-5.832505689373495,-5.586379134082694,0.0001018718408139679,0.0015963145348939787,-1.2185365967601989
14833,13.0,299.85308,49881.71400000001,0.0,-0.07416458535143133,-0.07416362387486464,0.0,0.0,0.0,-3.732225480691976,-5.839953888208575,-5.590616242025865,-0.00014269455250285587,0.009977645277941921,-1.2165128323354688
14834,13.0,299.985,49892.994000000006,0.0,-0.07416959984016958,-0.07416862608505181,0.0,0.0,0.0,-3.7281618411659263,-5.846679234422314,-5.591383171026554,0.005533812225519744,-0.002110439358159148,-1.2243336032323189
14835,13.0,300.01998,49791.03,0.0,-0.07417461432890804,-0.07417362829523888,0.0,0.0,0.0,-3.721522317235656,-5.834597746854965,-5.579109773890265,7.764173988664312e-05,0.0006255493023119094,-1.2242713896761788
14836,13.0,300.0966,49804.394,0.0,-0.07417959582758893,-0.07417859759614831,0.0,0.0,0.0,-3.7180704781199863,-5.835571581526074,-5.585649999310735,0.008463928864699743,-0.0036978544160998165,-1.220604640214299
14837,13.0,300.20962000000003,49885.596,0.0,-0.07418461031632728,-0.07418359980633549,0.0,0.0,0.0,-3.7384971948359467,-5.836797411497054,-5.588680934334865,-0.004631331842351865,0.0026079521486848376,-1.2163984363991789
14838,13.0,300.07646,49802.072,0.0,-0.07418959181500817,-0.07418860201652255,0.0,0.0,0.0,-3.7195933930202867,-5.830591254634554,-5.588401581282295,0.005918354823971145,-0.004762486124695785,-1.214817056968109
14839,13.0,300.1068,49755.157,0.0,-0.07419460630374664,-0.07419360422670973,0.0,0.0,0.0,-3.7183221694448263,-5.829490155750885,-5.5765129152089745,-0.0028251150511921477,-0.0007855367105614373,-1.2240779602320888
14840,13.0,300.09215,49878.792,0.0,-0.07419958780242752,-0.07419860643689669,0.0,0.0,0.0,-3.7305759095291764,-5.833059329228135,-5.598272157131444,0.005506225680947165,0.005297921624064154,-1.2147221154337389
14841,13.0,299.69743,49936.778,0.0,-0.07420460229116588,-0.07420360864708386,0.0,0.0,0.0,-3.7394117543762064,-5.8421212301724745,-5.598000606104645,-0.004282648063614456,-0.0005064510141628235,-1.2228885059396988
14842,13.0,299.93629,49933.207,0.0,-0.07420961677990434,-0.07420861085727104,0.0,0.0,0.0,-3.7299818409955465,-5.847522258505514,-5.600943996320135,-0.0029278774577840075,-0.004478454795089076,-1.219228241278459
14843,13.0,299.73998,49875.205,0.0,-0.07421459827858545,-0.074213613067458,0.0,0.0,0.0,-3.7346664001828764,-5.835519601795944,-5.590631035477324,-0.0036516865872184066,0.002180010021950238,-1.221742621401609
14844,13.0,299.77201,49854.805,0.0,-0.0742196127673237,-0.07421861527764517,0.0,0.0,0.0,-3.7243892070685964,-5.8383119164215245,-5.591914823354024,0.0033110855045286967,4.146214444274506e-05,-1.2154361527792088
14845,13.0,300.09108,49865.635,0.0,-0.07422459426600458,-0.07422361748783213,0.0,0.0,0.0,-3.734119751753926,-5.835062119375794,-5.588725922639305,-0.002103919195090658,0.006059854187186044,-1.225647687287009
14846,13.0,300.13334,49904.66,0.0,-0.07422960875474316,-0.07422861969801908,0.0,0.0,0.0,-3.7297853718011567,-5.840912726778204,-5.599072320735415,-0.0005528985406018374,-0.007590237146023082,-1.220430158547079
14847,13.0,300.00765,49901.931,0.0,-0.07423459025342383,-0.07423362190820626,0.0,0.0,0.0,-3.7364263142815664,-5.844029484085804,-5.588485073090535,0.0009984971076164922,0.001221738568401209,-1.2255725041295886
14848,13.0,300.27191,49848.984000000004,0.0,-0.07423960474216229,-0.07423862411839333,0.0,0.0,0.0,-3.7247317869274066,-5.833943085965354,-5.5941716353017545,0.0014533515319096286,-0.0013074023795555689,-1.2157660670117687
14849,13.0,299.98848,49896.107,0.0,-0.07424458624084318,-0.0742436263285805,0.0,0.0,0.0,-3.726474171799367,-5.845033310959874,-5.595663038123944,0.0002880835295391307,-0.0007354807776013013,-1.219780462582959
14850,13.0,299.99953,49987.0,0.0,-0.07424960072958153,-0.07424862853876746,0.0,0.0,0.0,-3.736132877052606,-5.847490847752415,-5.611175998479955,-0.008497955322932892,-0.0040652944674383264,-1.2156099251713588
14851,13.0,299.90207000000004,49910.435,0.0,-0.07425461521832,-0.074253597839677,0.0,0.0,0.0,-3.7293350834567165,-5.846283357608244,-5.595907535373074,0.0023200548646465876,0.004545009114657475,-1.2243378588827387
14852,13.0,300.03097,49830.443,0.0,-0.07425959671700089,-0.07425860004986418,0.0,0.0,0.0,-3.7186282723000366,-5.8459502009753646,-5.582631729912854,0.004632704694912356,-0.00028096953098453374,-1.221963003298359
14853,13.0,300.19952,49899.560999999994,0.0,-0.07426461120573924,-0.07426360226005113,0.0,0.0,0.0,-3.7354222847574765,-5.841440630080304,-5.5913577384490445,0.004801008272297625,-0.0011059973399534392,-1.226972207817729
14854,13.0,299.87618,49966.875,0.0,-0.07426959270442013,-0.07426860447023831,0.0,0.0,0.0,-3.741336321616146,-5.850838322107784,-5.5965077847323155,0.0016404756219523386,-0.008354894338663873,-1.223143946289909
14855,13.0,299.92025,49968.22,0.0,-0.07427460719315859,-0.07427360668042549,0.0,0.0,0.0,-3.7367890578173664,-5.853026739673765,-5.5992754773804645,-0.003605915851051187,0.0028747024978360474,-1.227158949811159
14856,13.0,300.12562,49975.944,0.0,-0.0742795886918397,-0.07427860889061244,0.0,0.0,0.0,-3.7391947162047865,-5.846899514994054,-5.605344845479465,-0.004662934910320845,0.0017562752136058683,-1.2126885224830386
14857,13.0,299.75158999999996,49914.629,0.0,-0.07428460318057795,-0.07428361110079962,0.0,0.0,0.0,-3.731193384140117,-5.850549545829285,-5.5910580190694645,-0.0034483883911294367,0.002052665661307328,-1.223380134888219
14858,13.0,299.74725,49923.501,0.0,-0.07428958467925884,-0.07428861331098657,0.0,0.0,0.0,-3.738254724087017,-5.839597325498385,-5.597645664594615,-0.0033007767993363064,-0.0007109205374998944,-1.2209597843743487
14859,13.0,299.94792,50000.435,0.0,-0.07429459916799741,-0.07429361552117375,0.0,0.0,0.0,-3.744065004135446,-5.8546017356292035,-5.6002169893733855,0.0016455165411998385,-0.0014222951123695987,-1.229722472564159
14860,13.0,299.79694,49958.069,0.0,-0.07429961365673565,-0.0742986177313607,0.0,0.0,0.0,-3.737994116161296,-5.848249873402325,-5.599761634778445,0.004903459712433796,-0.002237200289394478,-1.2216546712929288
14861,13.0,299.96562,49911.947,0.0,-0.07430459515541654,-0.07430361994154777,0.0,0.0,0.0,-3.7254993238781564,-5.847963022299014,-5.598523139181215,0.004381705115915626,-0.001140635801246989,-1.2282040159642988
14862,13.0,300.17251,49986.797,0.0,-0.074309609644155,-0.07430862215173495,0.0,0.0,0.0,-3.734378434504457,-5.8553804183310545,-5.604979163518374,0.0041769011288530465,-0.006770840129979894,-1.2189540558013987
14863,13.0,300.0122,50078.026,0.0,-0.07431459114283578,-0.0743136243619219,0.0,0.0,0.0,-3.746309657081976,-5.861228999233265,-5.614930900700535,-0.0034223823140628372,0.001098905197203499,-1.2229672354724688
14864,13.0,300.04357000000005,50045.72900000001,0.0,-0.07431960563157425,-0.07431862657210908,0.0,0.0,0.0,-3.7405234923859263,-5.862168890026024,-5.609959490409895,-0.007449657509923953,0.0036638333280921962,-1.220079776662499
14865,13.0,299.99213,50003.055,0.0,-0.07432458713025514,-0.07432359587301862,0.0,0.0,0.0,-3.7398033755398568,-5.859109685324103,-5.600767082852674,-0.006226829798990254,0.00012275618180509186,-1.2290925349769888
14866,13.0,300.0184,50020.672999999995,0.0,-0.07432960161899349,-0.07432859808320558,0.0,0.0,0.0,-3.7431846924485668,-5.849546732205314,-5.612304151141294,-0.0013611976512147488,0.0006026701150539095,-1.2203250845117088
14867,13.0,299.82312,49993.437000000005,0.0,-0.07433461610773195,-0.07433360029339275,0.0,0.0,0.0,-3.7407207721803966,-5.857199303585564,-5.598836334787125,-0.0039004608663455163,0.0007694721571159894,-1.2258185212538688
14868,13.0,299.81928,49965.238,0.0,-0.07433959760641284,-0.07433860250357993,0.0,0.0,0.0,-3.734127452454686,-5.848746771251364,-5.605310597626085,0.0017835031689680584,0.005635472114677795,-1.2220332215302887
14869,13.0,299.78511000000003,50002.615999999995,0.0,-0.0743446120951512,-0.07434360471376689,0.0,0.0,0.0,-3.7402139444803764,-5.8516591560137945,-5.6076738008343145,-0.0009559912659214921,0.0003852269577014406,-1.2249365883668288
14870,13.0,299.96572000000003,50024.820999999996,0.0,-0.0743495935938322,-0.07434860692395406,0.0,0.0,0.0,-3.7424244508985365,-5.857017729167644,-5.606854385478445,0.009188620028346191,-0.0012991938378454488,-1.225339051306549
14871,13.0,299.97036,50045.861,0.0,-0.07435460808257055,-0.07435360913414102,0.0,0.0,0.0,-3.7510256270224067,-5.850810761705065,-5.610855608798335,-0.0025783714265904477,-0.000953589488281955,-1.2342561588115988
14872,13.0,299.98587000000003,50110.460999999996,0.0,-0.07435958958125166,-0.0743586113443282,0.0,0.0,0.0,-3.747942509618126,-5.865892482818515,-5.618493792027165,0.0028068697606164774,0.0032398516920234665,-1.2241334863375688
14873,13.0,299.97202999999996,50080.88,0.0,-0.0743646040699899,-0.07436361355451537,0.0,0.0,0.0,-3.745189103796386,-5.859491477961785,-5.618656418668214,-0.0038194745216277863,-0.003916086500112647,-1.2282717010709787
14874,13.0,300.13189,50030.36,0.0,-0.07436958556867079,-0.07436861576470233,0.0,0.0,0.0,-3.7374628691338665,-5.8548098571997444,-5.615707556902185,0.0001208744345143779,-0.008242859376431882,-1.212720135886159
14875,13.0,299.90834,50014.102,0.0,-0.07437460005740926,-0.0743736179748895,0.0,0.0,0.0,-3.7384375144050566,-5.859899615102065,-5.604700925040915,0.005170145821528665,-0.0027095840721401273,-1.232315075595029
14876,13.0,299.98197000000005,50029.097,0.0,-0.07437961454614761,-0.07437862018507657,0.0,0.0,0.0,-3.7461309197643367,-5.849775828052924,-5.611689614955645,0.00018615595996966284,0.01038828788174419,-1.2151829415792188
14877,13.0,299.95284,50030.544,0.0,-0.0743845960448285,-0.07438362239526353,0.0,0.0,0.0,-3.740379104246676,-5.863031064536115,-5.604625843208504,0.0026888636142201774,0.005466969129672845,-1.236512666784299
14878,13.0,299.98263,50073.797999999995,0.0,-0.07438961053356696,-0.0743886246054507,0.0,0.0,0.0,-3.7464836321241464,-5.863774283484465,-5.610926434980324,-0.005423770832859505,0.0015204176441035386,-1.225093135507279
14879,13.0,300.19939,50159.593,0.0,-0.07439459203224774,-0.07439359390636024,0.0,0.0,0.0,-3.7564614098338764,-5.8683196221080545,-5.622482755020845,0.004336522774081476,-0.0015203815723999787,-1.2256898384911687
14880,13.0,300.16431,50114.374,0.0,-0.0743996065209862,-0.0743985961165472,0.0,0.0,0.0,-3.7466357209641563,-5.872930821988144,-5.613951695803895,0.0054300755789567345,0.0006305863104140234,-1.2238221145818389
14881,13.0,300.07042,50102.154,0.0,-0.0744045880196671,-0.07440359832673438,0.0,0.0,0.0,-3.7443718162657262,-5.865432973898165,-5.619998975050715,0.0013152583102308889,-0.004389356370070746,-1.2200107743306887
14882,13.0,300.20387,50166.617999999995,0.0,-0.07440960250840534,-0.07440860053692133,0.0,0.0,0.0,-3.754535018743757,-5.871635077760264,-5.623229013719494,-0.0025410429889314175,-0.007925166662603053,-1.2231772822181988
14883,13.0,300.05537999999996,50106.574,0.0,-0.07441458400708645,-0.07441360274710851,0.0,0.0,0.0,-3.7511516753348464,-5.8627731923856645,-5.617222365801685,0.002128254220092338,0.00015236255939201385,-1.231334452148249
14884,13.0,299.76112,50040.864,0.0,-0.0744195984958248,-0.07441860495729546,0.0,0.0,0.0,-3.7404079818745264,-5.856487191415285,-5.6142780636611045,-0.004657880008221965,0.00879389963661532,-1.2323454730980288
14885,13.0,299.88722,50089.199,0.0,-0.07442461298456304,-0.07442360716748264,0.0,0.0,0.0,-3.7494360402655262,-5.864451235876274,-5.611978492559154,-0.00019192786823680582,-0.0017402869376279485,-1.2244505322938588
14886,13.0,299.91299,50096.185,0.0,-0.07442959448324415,-0.07442860937766982,0.0,0.0,0.0,-3.747031293803196,-5.859944502081494,-5.621013441050835,-0.01090479515996949,-0.001240571341384859,-1.2275719505519187
14887,13.0,299.97672,50092.202000000005,0.0,-0.07443460897198262,-0.07443361158785688,0.0,0.0,0.0,-3.7492750348246364,-5.866281368206895,-5.611222101359504,0.0038593488514880765,0.00014227347615879886,-1.2218654273137288
14888,13.0,299.8761,50138.556,0.0,-0.07443959047066351,-0.07443861379804395,0.0,0.0,0.0,-3.7533254007743757,-5.875495560641265,-5.612048204166035,-0.001206924750614199,0.005440931439203125,-1.2312678816166789
14889,13.0,300.0172,50174.742,0.0,-0.07444460495940186,-0.07444361600823102,0.0,0.0,0.0,-3.7537855176447863,-5.872582567928774,-5.625500517793674,0.004951972303371616,0.005634637095270384,-1.225073883755379
14890,13.0,299.88209,50155.225999999995,0.0,-0.07444958645808275,-0.0744486182184182,0.0,0.0,0.0,-3.7487255492954064,-5.879514515837904,-5.617696364198465,-0.007917790607175092,-0.0008739695315890773,-1.233795737966159
14891,13.0,300.11872999999997,50180.953,0.0,-0.07445460094682121,-0.07445362042860515,0.0,0.0,0.0,-3.750801192125256,-5.875873097628524,-5.627082505174805,0.0037359106713056763,-0.00015964631786836484,-1.2231324965637789
14892,13.0,300.15088,50142.625,0.0,-0.07445961543555957,-0.0744586226387921,0.0,0.0,0.0,-3.7513721585566064,-5.867321570759554,-5.623412209337575,-0.0003770502827069656,0.0012133556463488789,-1.2261141876330488
14893,13.0,300.39389,50092.267,0.0,-0.07446459693424046,-0.07446359193970187,0.0,0.0,0.0,-3.7373461427223464,-5.872006839221954,-5.617445382148695,0.008431263606650932,-0.007798649114041742,-1.2235892697088588
14894,13.0,300.29357999999996,50138.63,0.0,-0.07446961142297892,-0.07446859414988904,0.0,0.0,0.0,-3.7490615430285668,-5.869051593980294,-5.6227784214000245,-0.004501694800707686,-0.0029207494459805275,-1.2321155666503387
14895,13.0,300.27531,50260.062999999995,0.0,-0.07447459292165959,-0.074473596360076,0.0,0.0,0.0,-3.7602436698071564,-5.884754640055065,-5.632805949689665,0.004333816383064376,0.0015701048958822886,-1.2303040781215588
14896,13.0,300.09667,50212.849,0.0,-0.07447960741039816,-0.07447859857026295,0.0,0.0,0.0,-3.7609851662303364,-5.877974274360894,-5.624492637919204,-0.0023085206334582478,0.007516800629125462,-1.235689502403059
14897,13.0,300.33142999999995,50177.577000000005,0.0,-0.07448458890907905,-0.07448360078044991,0.0,0.0,0.0,-3.7503257751783368,-5.872188210989854,-5.630216386409095,0.006379279660010884,-0.0005575546375938585,-1.2248124652295789
14898,13.0,300.18375,50194.29,0.0,-0.0744896033978173,-0.07448860299063709,0.0,0.0,0.0,-3.7540100538669465,-5.877113214425915,-5.626687641610835,-9.229401419696002e-05,0.0019488926390657283,-1.229909923832659
14899,13.0,300.09119,50184.490999999995,0.0,-0.0744945848964984,-0.07449360520082426,0.0,0.0,0.0,-3.7555924465481167,-5.872355194606335,-5.6268846174302745,-0.002118629256067428,-0.0022851715008038675,-1.2243136422053489
14900,13.0,299.95741,50175.962999999996,0.0,-0.07449959938523687,-0.07449860741101133,0.0,0.0,0.0,-3.748080514281747,-5.877951881533685,-5.626207361063435,-0.003691949397167036,0.0009305162433648032,-1.2351439685492187
14901,13.0,299.81586,50202.943,0.0,-0.07450461387397522,-0.07450360962119851,0.0,0.0,0.0,-3.755557489419667,-5.875025209944845,-5.629858405148765,-0.008169271175994293,-0.003000938464194567,-1.2270965336049988
14902,13.0,299.98224,50186.64,0.0,-0.07450959537265611,-0.07450861183138546,0.0,0.0,0.0,-3.7479710832709467,-5.875340330725945,-5.632173782952274,-0.0038440548544786766,0.0031721576687425874,-1.233039042791479
14903,13.0,299.87183999999996,50158.111,0.0,-0.07451460986139458,-0.07451361404157264,0.0,0.0,0.0,-3.7495209506239067,-5.8743466363528745,-5.6229457089915345,-0.001180654316596509,0.001181511222206079,-1.2276877650383486
14904,13.0,299.87944,50246.768,0.0,-0.07451959136007547,-0.07451861625175982,0.0,0.0,0.0,-3.754638471578967,-5.882964733753415,-5.636159706195654,-0.002756895556409407,0.002171439344654378,-1.2328270708705589
14905,13.0,299.76847000000004,50260.376,0.0,-0.07452460584881382,-0.07452361846194677,0.0,0.0,0.0,-3.7672812997017164,-5.879860946047095,-5.630756955337445,0.0024742617013406177,-0.00996117033794097,-1.2237492618996488
14906,13.0,300.00876,50205.40900000001,0.0,-0.07452958734749471,-0.07452862067213395,0.0,0.0,0.0,-3.7519739277909965,-5.886782761455224,-5.622434220341055,0.007925019640013544,-0.004415192626420586,-1.2312905784189188
14907,13.0,300.22226,50243.28,0.0,-0.07453460183623317,-0.0745336228823209,0.0,0.0,0.0,-3.7625167950814964,-5.880058023191545,-5.6301278283503535,0.004186532172378556,-0.0017648523757023682,-1.225604624157759
14908,13.0,300.28583,50298.060999999994,0.0,-0.07453958333491384,-0.07453859218323045,0.0,0.0,0.0,-3.764148026417486,-5.887393143315464,-5.637813431683865,0.0011828582368890188,0.0004960716550409605,-1.229199736837569
14909,13.0,300.11824,50275.712999999996,0.0,-0.07454459782365241,-0.07454359439341762,0.0,0.0,0.0,-3.764534783980656,-5.881384468897454,-5.636642114568265,-0.004204707953997366,0.0014232305448619188,-1.2291962917872288
14910,13.0,300.09427,50262.817,0.0,-0.07454961231239088,-0.07454859660360458,0.0,0.0,0.0,-3.7581168578472566,-5.885268965805825,-5.635255583131424,-0.001372548078834949,0.005803646907975355,-1.2300969698011188
14911,13.0,300.07712999999995,50263.310999999994,0.0,-0.07455459381107155,-0.07455359881379153,0.0,0.0,0.0,-3.7640056647784363,-5.884835700063064,-5.629950205607824,0.006273378001959204,0.005387103135590684,-1.2356394478481187
14912,13.0,300.02507,50223.789000000004,0.0,-0.07455960829981023,-0.07455860102397871,0.0,0.0,0.0,-3.7524154008595665,-5.880514695011615,-5.633847672117475,-0.0009409206702941402,0.00017719470515775585,-1.2371029862925589
14913,13.0,299.90078,50248.166,0.0,-0.0745645897984909,-0.07456360323416578,0.0,0.0,0.0,-3.7552012306845066,-5.887372473013424,-5.631614164922045,0.00017448998600332082,-0.01062682823353629,-1.239060078860709
14914,13.0,299.8067,50276.458,0.0,-0.07456960428722947,-0.07456860544435295,0.0,0.0,0.0,-3.7648336927601567,-5.884339714139115,-5.633614421944454,0.003306396487040927,-0.006077380171515724,-1.2310126439164888
14915,13.0,299.94155,50235.187000000005,0.0,-0.07457458578591036,-0.07457360765453991,0.0,0.0,0.0,-3.756491807336876,-5.882155248248524,-5.631595419795194,0.007278801150236743,0.0029827287386974067,-1.2296971413116589
14916,13.0,299.5498,50224.551,0.0,-0.07457960027464883,-0.07457860986472709,0.0,0.0,0.0,-3.753113631503476,-5.887191202570535,-5.626704461562495,7.287513581221592e-05,0.003917330467260416,-1.233751154961759
14917,13.0,299.62127999999996,50380.535,0.0,-0.07458461476338718,-0.07458361207491426,0.0,0.0,0.0,-3.774899015278526,-5.890519627824024,-5.649005994938485,-0.004854561985132965,-0.0007819182424668224,-1.224030540127409
14918,13.0,299.68357000000003,50416.40900000001,0.0,-0.07458959626206807,-0.07458861428510122,0.0,0.0,0.0,-3.7739940816142163,-5.8979123005536245,-5.653422853449395,-0.0038578896700190665,0.0030634814279420775,-1.2305851536992989
14919,13.0,299.82512,50262.070999999996,0.0,-0.07459461075080653,-0.0745936164952884,0.0,0.0,0.0,-3.7536865231100163,-5.886193151222035,-5.638534865755065,0.0036877352900011365,0.007411795190787233,-1.226645130685449
14920,13.0,299.97515,50257.499,0.0,-0.07459959224948742,-0.07459861870547535,0.0,0.0,0.0,-3.7528375208512266,-5.885830002386195,-5.638357141687524,-0.0022712948380343477,0.0012918116015918789,-1.2353947479489686
14921,13.0,300.29537,50308.459,0.0,-0.07460460673822567,-0.07460362091566253,0.0,0.0,0.0,-3.760242048606996,-5.887658817491684,-5.644614366355065,-0.000983686258652275,0.0015478653734124187,-1.225121303860059
14922,13.0,300.01453,50294.575,0.0,-0.07460958823690667,-0.07460859021657207,0.0,0.0,0.0,-3.7560914722223666,-5.892216011141444,-5.639987663748445,-0.002948883246932117,0.004086340887915446,-1.2408303281104187
14923,13.0,300.00131,50326.66,0.0,-0.07461460272564513,-0.07461359242675902,0.0,0.0,0.0,-3.762398447469817,-5.8960820668979945,-5.639567367606965,0.005678398556489305,0.0052019747429449354,-1.2335969382965386
14924,13.0,299.85233,50320.583,0.0,-0.0746195842243258,-0.0746185946369462,0.0,0.0,0.0,-3.7660671221068864,-5.8950118721423745,-5.635121732793214,-0.0003870923308705386,-0.001778034455528338,-1.2442882467266887
14925,13.0,300.01498,50306.981,0.0,-0.07462459871306426,-0.07462359684713338,0.0,0.0,0.0,-3.7578238259183365,-5.893159043009515,-5.641083189756564,0.008183278345376693,-0.007599835461570363,-1.2297522621170986
14926,13.0,299.99568999999997,50372.66,0.0,-0.07462961320180284,-0.07462859905732033,0.0,0.0,0.0,-3.7702905511737064,-5.898001770537454,-5.6437386142936345,-0.0005459461250406874,-0.007200899544123453,-1.2383242566380888
14927,13.0,299.86742000000004,50422.85,0.0,-0.07463459470048373,-0.0746336012675074,0.0,0.0,0.0,-3.7721750950346964,-5.898020718314324,-5.657091426761454,0.005917503187262094,0.003050084640419917,-1.226900773685679
14928,13.0,300.13232,50331.114,0.0,-0.07463960918922197,-0.07463860347769435,0.0,0.0,0.0,-3.766480832122717,-5.8933264319260354,-5.639594725359665,-0.0006659820039048063,-0.004306036307722696,-1.2392751918569387
14929,13.0,300.17102,50312.65,0.0,-0.07464459068790308,-0.07464360568788153,0.0,0.0,0.0,-3.753062361048417,-5.894655410757195,-5.646071723973894,0.001979097016596668,-0.0014004018174588984,-1.234213095682349
14930,13.0,300.02842999999996,50368.59,0.0,-0.07464960517664132,-0.07464860789806871,0.0,0.0,0.0,-3.7708928270331468,-5.896462947610584,-5.643437780338944,-0.0025372730906093573,0.0022190080931240477,-1.2393322378375689
14931,13.0,299.99163,50398.695999999996,0.0,-0.07465458667532232,-0.07465361010825566,0.0,0.0,0.0,-3.766098938160026,-5.902080304839974,-5.651765784235854,-0.0007881213089165173,0.0026516170471692275,-1.2354690191812987
14932,13.0,299.8209,50338.933,0.0,-0.07465960116406078,-0.07465861231844284,0.0,0.0,0.0,-3.763612625064646,-5.897629401125704,-5.640536743977635,-0.0008661029313902042,-0.003562570227673306,-1.239265768631009
14933,13.0,299.82198999999997,50361.187999999995,0.0,-0.07466458266274167,-0.0746636145286298,0.0,0.0,0.0,-3.767666030764686,-5.8986251219989745,-5.6422524803719645,-0.0055494089816590245,-0.002318041435372878,-1.2303022542713788
14934,13.0,300.06129,50409.937999999995,0.0,-0.07466959715147992,-0.07466861673881697,0.0,0.0,0.0,-3.780047643011656,-5.8982265094096356,-5.6450882634268345,-6.224337811694313e-05,0.001041517548639779,-1.234757312311059
14935,13.0,299.83717,50419.675,0.0,-0.07467461164021849,-0.07467361894900415,0.0,0.0,0.0,-3.777028259038666,-5.900432050902304,-5.648861910774265,-0.004516987885791995,0.005819920312531415,-1.232975005385159
14936,13.0,299.94822999999997,50457.672,0.0,-0.07467959313889938,-0.07467858824991347,0.0,0.0,0.0,-3.7781159830210163,-5.905510156428474,-5.654246119155645,0.0032181679372334467,-0.0026245904246019074,-1.234799362190209
14937,13.0,299.90977999999996,50435.165,0.0,-0.07468460762763762,-0.07468359046010065,0.0,0.0,0.0,-3.7758734578996966,-5.894393282956324,-5.6607640530739145,0.0017768932319407083,-0.002382598233694138,-1.227488458743679
14938,13.0,299.85126,50369.837,0.0,-0.07468958912631851,-0.07468859267028782,0.0,0.0,0.0,-3.7568230387945665,-5.904623562590974,-5.649726213109565,0.006283599061017944,0.0033811052407641067,-1.2366004142429587
14939,13.0,299.95287,50394.856,0.0,-0.07469460361505709,-0.07469359488047489,0.0,0.0,0.0,-3.7660984315349766,-5.8972650363897445,-5.655414295195935,-0.004531224049696996,0.0008172101690148644,-1.2364500479281189
14940,13.0,299.96416,50496.617,0.0,-0.07469958511373798,-0.07469859709066196,0.0,0.0,0.0,-3.7762290073597864,-5.909389789736364,-5.664091870377344,-0.0032893262626062267,-0.004120071882419436,-1.2388495254899288
14941,13.0,299.92796,50416.136,0.0,-0.07470459960247622,-0.07470359930084902,0.0,0.0,0.0,-3.7676084781590062,-5.905197264797595,-5.6524408114524745,-0.006827333787980384,0.004711892723352606,-1.2400868051870388
14942,13.0,300.14724,50376.78400000001,0.0,-0.07470961409121468,-0.07470860151103598,0.0,0.0,0.0,-3.7658090473064165,-5.900899361848425,-5.646575917223654,0.010168466312299491,0.003199271836118547,-1.2354007261245588
14943,13.0,300.02682999999996,50430.865999999995,0.0,-0.07471459558989557,-0.07471360372122315,0.0,0.0,0.0,-3.767358408034326,-5.9061880207453745,-5.6561775764962645,-0.0002606108438802877,0.0027837657331612874,-1.2407827053557188
14944,13.0,300.24381,50481.325,0.0,-0.07471961007863392,-0.07471860593141011,0.0,0.0,0.0,-3.7722059991627463,-5.908775354875724,-5.664080825951254,0.007084676920553174,-0.004685451151393026,-1.226498513395979
14945,13.0,300.08848,50496.093,0.0,-0.07472459157731504,-0.07472360814159729,0.0,0.0,0.0,-3.774651883579136,-5.914369306027804,-5.660530397600854,-0.0038447206611193865,-0.003449566091720667,-1.236931341725619
14946,13.0,299.78574,50511.835999999996,0.0,-0.07472960606605328,-0.07472861035178424,0.0,0.0,0.0,-3.7805784847390465,-5.911300272799914,-5.662458308566125,0.005979838941364155,-0.004546726269601946,-1.224643252462879
14947,13.0,300.06175,50460.427,0.0,-0.07473458756473417,-0.07473361256197142,0.0,0.0,0.0,-3.774265227340976,-5.908883772636424,-5.655560912485404,-0.008389922698595903,-0.002291423051270848,-1.2419297044689188
14948,13.0,300.06437999999997,50469.098,0.0,-0.07473960205347274,-0.0747386147721586,0.0,0.0,0.0,-3.7805502150612567,-5.908477560671335,-5.652317802890336,-0.0007288087080778194,-0.0036525906089576263,-1.2332971175919487
14949,13.0,299.90625,50516.654,0.0,-0.07474458355215363,-0.07474361698234566,0.0,0.0,0.0,-3.7825315243067963,-5.910035534025095,-5.663234458142725,-0.0028162032125876174,0.004823062673974225,-1.2438276232312289
14950,13.0,300.01072,50491.125,0.0,-0.07474959804089187,-0.07474861919253273,0.0,0.0,0.0,-3.7793141512642667,-5.911782478522504,-5.656944606821964,0.0033999972888786065,0.0014463767235212686,-1.2325561277938188
14951,13.0,300.08679,50407.297999999995,0.0,-0.07475461252963034,-0.07475358849344227,0.0,0.0,0.0,-3.7653238018335258,-5.909552416377414,-5.647683703557985,-0.0012814061310149388,0.003652435581692327,-1.246199641715329
14952,13.0,300.24689,50471.724,0.0,-0.07475959402831123,-0.07475859070362934,0.0,0.0,0.0,-3.781044174485007,-5.904988940577035,-5.656110803314674,-0.0007948580947238862,-0.0010675813809620791,-1.2342161354326489
14953,13.0,300.29578,50551.744000000006,0.0,-0.07476460851704958,-0.07476359291381651,0.0,0.0,0.0,-3.786272545001007,-5.918513498936804,-5.661681956339504,5.2832941429705356e-05,0.005036263971240555,-1.2392404373785089
14954,13.0,299.93607000000003,50483.547,0.0,-0.07476959001573047,-0.07476859512400347,0.0,0.0,0.0,-3.7771567391513465,-5.912549812823235,-5.656031364506835,-0.0016035983845628383,-0.0007868345522170242,-1.2430944354588687
14955,13.0,300.12756,50468.386,0.0,-0.07477460450446893,-0.07477359733419064,0.0,0.0,0.0,-3.7701134350562264,-5.9177791965893345,-5.6532366180810145,-0.004097813310847687,-0.004386635590902225,-1.2397337888521986
14956,13.0,299.88201000000004,50514.863,0.0,-0.07477958600314982,-0.07477859954437782,0.0,0.0,0.0,-3.7784207686510967,-5.916067513195404,-5.660768511374354,-0.007508695641575562,-0.008303908606881972,-1.236704981653279
14957,13.0,299.81273,50515.489,0.0,-0.07478460049188818,-0.07478360175456478,0.0,0.0,0.0,-3.775287596691876,-5.916242501487674,-5.663917186060105,-0.0065637896661206035,-0.0017816162946318382,-1.2332943818166788
14958,13.0,299.76727,50526.384000000005,0.0,-0.07478958199056929,-0.07478860396475173,0.0,0.0,0.0,-3.7757074875333165,-5.919799110663685,-5.663252493994504,-0.0022975251473480777,-0.005478536392814444,-1.2411180911388189
14959,13.0,299.88313,50557.612,0.0,-0.07479459647930753,-0.07479360617493869,0.0,0.0,0.0,-3.7820057488299064,-5.920506561883504,-5.665739212389924,0.0017401390031133485,0.0008857746551916522,-1.2406368986663288
14960,13.0,299.98761,50517.71,0.0,-0.074799610968046,-0.07479860838512586,0.0,0.0,0.0,-3.7793365440914766,-5.915995775088324,-5.660790296251505,0.007551580134832932,0.0029580596451377573,-1.244280850000959
14961,13.0,300.17357999999996,50521.31,0.0,-0.074804592466727,-0.07480361059531304,0.0,0.0,0.0,-3.7738907301040165,-5.9216506225714145,-5.661675471538865,0.008415757029770552,0.008833526226826163,-1.242205916446179
14962,13.0,300.09106,50593.472,0.0,-0.07480960695546524,-0.07480861280550011,0.0,0.0,0.0,-3.7881865744399064,-5.917752750761724,-5.673213046452535,0.0007462513525867742,0.0027317023085730277,-1.2384935707297988
14963,13.0,300.15302,50612.635,0.0,-0.07481458845414612,-0.07481361501568728,0.0,0.0,0.0,-3.7801899033256965,-5.9251745037691945,-5.679612734084135,0.001273126965772849,0.0028401394223499373,-1.236257327759099
14964,13.0,300.18784,50517.687000000005,0.0,-0.07481960294288459,-0.07481861722587424,0.0,0.0,0.0,-3.7809180248475567,-5.907565331606304,-5.667631862251715,-0.0024501256786585773,-0.0016427183497236782,-1.2359608507798387
14965,13.0,300.05762000000004,50536.937999999995,0.0,-0.07482458444156548,-0.07482358652678378,0.0,0.0,0.0,-3.7801137069181765,-5.915147076804565,-5.666706460935385,0.007275684494254154,0.003987910429476116,-1.2379454024256988
14966,13.0,300.04742000000005,50598.3,0.0,-0.07482959893030383,-0.07482858873697096,0.0,0.0,0.0,-3.7914909856660257,-5.916327310521044,-5.672801565586925,-0.0016337948587429986,-0.0014892496657274985,-1.2420371089795188
14967,13.0,299.88696,50587.47900000001,0.0,-0.0748346134190423,-0.07483359094715791,0.0,0.0,0.0,-3.7803520233416963,-5.924497855352414,-5.672480567955245,0.0011851897253691188,0.002446975686747698,-1.2465914655289987
14968,13.0,299.82121,50602.13,0.0,-0.07483959491772318,-0.07483859315734509,0.0,0.0,0.0,-3.7870823344809263,-5.922329905438454,-5.672371846219515,-0.004638161046700856,-0.004532646754162405,-1.2337515602617988
14969,13.0,299.97983999999997,50627.185,0.0,-0.07484460940646154,-0.07484359536753227,0.0,0.0,0.0,-3.7860589518799257,-5.924757044727994,-5.678583981257605,-0.0005474811077496785,0.0006565650195954223,-1.2386776782729687
14970,13.0,299.86215,50570.759000000005,0.0,-0.07484959090514243,-0.07484859757771922,0.0,0.0,0.0,-3.7811255384680362,-5.923861128989574,-5.6672612153651345,-5.946451843944104e-05,-0.001034489848596199,-1.240712689773809
14971,13.0,299.88229,50609.999,0.0,-0.07485460539388089,-0.0748535997879064,0.0,0.0,0.0,-3.781511282781107,-5.931524542145894,-5.671140038072944,-0.0005229352254021885,0.0002265965345158368,-1.248586352325879
14972,13.0,299.84602,50681.715,0.0,-0.07485958689256178,-0.07485860199809335,0.0,0.0,0.0,-3.792018990293136,-5.930792266298624,-5.683164682309685,0.004282814945905926,0.0026556765323698674,-1.240196134872829
14973,13.0,300.06957,50591.637,0.0,-0.07486460138130024,-0.07486360420828031,0.0,0.0,0.0,-3.782539326332567,-5.9252093595726345,-5.670845587593885,-0.0015017306778092787,0.004988858558687005,-1.2458424710550788
14974,13.0,299.94552000000004,50538.797999999995,0.0,-0.07486958287998113,-0.07486860641846749,0.0,0.0,0.0,-3.7739485866847264,-5.919684106777335,-5.668899944751865,0.003331820958550127,0.004966292161734875,-1.2350842881183288
14975,13.0,299.88813,50626.977,0.0,-0.07487459736871949,-0.07487360862865455,0.0,0.0,0.0,-3.784998585650276,-5.9270677615810445,-5.677270505152974,-0.008697980721198862,-0.0016493766187807984,-1.2383274990384088
14976,13.0,300.13975,50690.772000000004,0.0,-0.07487961185745784,-0.07487861083884173,0.0,0.0,0.0,-3.797076830817306,-5.936100784897534,-5.6755512223832945,0.0025138923445518573,-0.0021974142136178976,-1.230718193437429
14977,13.0,300.00917999999996,50652.2,0.0,-0.07488459335613884,-0.07488361304902869,0.0,0.0,0.0,-3.790254820544026,-5.931481073716603,-5.675268018980345,-0.004035059996379416,-0.0063738692084519145,-1.2474117928099588
14978,13.0,300.11748,50678.574,0.0,-0.07488960784487719,-0.07488861525921586,0.0,0.0,0.0,-3.792535747844136,-5.935997940012385,-5.676487262825675,0.003190963387948567,-0.0053021074615522655,-1.246685799113309
14979,13.0,299.86652999999995,50665.268,0.0,-0.07489458934355808,-0.0748935845601254,0.0,0.0,0.0,-3.7924681640624667,-5.932624526454454,-5.675883568416094,-0.009683292374866552,-0.006693674042114193,-1.2496028448261989
14980,13.0,299.66285,50658.573,0.0,-0.07489960383229655,-0.07489858677031236,0.0,0.0,0.0,-3.7895244698719464,-5.932808735322634,-5.676608244887615,-0.0026920490698845575,-0.0006339288502414064,-1.237540102385699
14981,13.0,299.82358,50702.055,0.0,-0.07490458533097744,-0.07490358898049954,0.0,0.0,0.0,-3.798046207187976,-5.929760169746765,-5.684352312751895,-0.002020176202150868,0.0032929933160431367,-1.2435475609035886
14982,13.0,300.17516,50673.317,0.0,-0.07490959981971579,-0.07490859119068671,0.0,0.0,0.0,-3.799183681750236,-5.925382220039695,-5.678857052159555,0.006171360739490884,0.0031448326440208173,-1.2339449897058887
14983,13.0,299.8276,50577.015,0.0,-0.07491458131839668,-0.07491359340087367,0.0,0.0,0.0,-3.7838408460860165,-5.926599133409795,-5.663709672439624,0.0023407027738593777,-0.0014176507792112386,-1.2509640450105386
14984,13.0,300.02947,50670.239,0.0,-0.07491959580713514,-0.07491859561106085,0.0,0.0,0.0,-3.790174368486086,-5.933506763316524,-5.678806389654555,0.0030931406769192167,0.0012647379642199187,-1.2406439914170289
14985,13.0,300.05883,50774.958,0.0,-0.0749246102958735,-0.0749235978212478,0.0,0.0,0.0,-3.8015379683575863,-5.940491298905844,-5.692290012710285,0.002254804496631878,-3.509866023721807e-05,-1.2459648716671587
14986,13.0,299.96623,50724.449,0.0,-0.0749295917945545,-0.07492860003143498,0.0,0.0,0.0,-3.7868295285809763,-5.945118305487495,-5.687017971114974,-0.0019318078238295883,0.0012643025706519488,-1.243122603811649
14987,13.0,300.06317,50642.617,0.0,-0.07493460628329285,-0.07493360224162215,0.0,0.0,0.0,-3.7831137378142565,-5.931273864071154,-5.679703419968085,-0.0015591099163971686,-0.004636189262006256,-1.2435922452329988
14988,13.0,300.08544,50691.904,0.0,-0.07493958778197374,-0.07493860445180911,0.0,0.0,0.0,-3.790902490007946,-5.937309592266835,-5.680860855557315,-0.0029818712251377774,-0.0026464575776600275,-1.2409415829713988
14989,13.0,300.03825,50740.333,0.0,-0.0749446022707122,-0.07494360666199618,0.0,0.0,0.0,-3.791086496226107,-5.942065686911224,-5.690641961422635,0.0014598647035524285,-0.0011928088594960688,-1.2468674748562387
14990,13.0,300.00006,50746.115,0.0,-0.07494958376939309,-0.07494860887218313,0.0,0.0,0.0,-3.7975013826092066,-5.942494595678554,-5.685555749895665,-0.0034989545360449266,0.0013330440918862085,-1.2504481993846288
14991,13.0,299.86589,50736.308,0.0,-0.07495459825813144,-0.07495361108237031,0.0,0.0,0.0,-3.7949476883821767,-5.938929880501744,-5.688693278830314,0.002131414547154238,0.00018574528970413285,-1.2440576310039289
14992,13.0,299.90762,50649.96400000001,0.0,-0.07495961274686991,-0.07495861329255749,0.0,0.0,0.0,-3.7860042363745263,-5.925111175637944,-5.685208711736415,-0.009323405292423462,0.008112536465795012,-1.2445798601054687
14993,13.0,299.85393999999997,50688.782,0.0,-0.0749645942455508,-0.0749635825934668,0.0,0.0,0.0,-3.7875361692007163,-5.933198735286124,-5.687389124626604,0.00026571459476648873,0.006302171428725895,-1.2397015674990188
14994,13.0,299.85751,50843.542,0.0,-0.07496960873428915,-0.07496858480365398,0.0,0.0,0.0,-3.812848169948817,-5.943270035980085,-5.699048897502335,-0.005245035744369724,0.0007897015433749743,-1.2469896728182988
14995,13.0,299.97278,50808.630999999994,0.0,-0.07497459023297004,-0.07497358701384116,0.0,0.0,0.0,-3.8044859181985258,-5.9440735433093845,-5.6959956709760045,0.01110151766688449,0.0004008705057303386,-1.2390735550870389
14996,13.0,300.08729,50662.927,0.0,-0.0749796047217085,-0.07497858922402811,0.0,0.0,0.0,-3.7882518277463464,-5.935905734253285,-5.676107091388155,0.005825264902833885,0.0013726257951176186,-1.2518116287191887
14997,13.0,300.2323,50760.183,0.0,-0.0749845862203894,-0.07498359143421529,0.0,0.0,0.0,-3.7932161452862863,-5.939626388620485,-5.696985717648715,0.0037343302037996964,-0.0019248901627468681,-1.2393389252882288
14998,13.0,300.14474,50886.797,0.0,-0.07498960070912775,-0.07498859364440225,0.0,0.0,0.0,-3.8167003441789964,-5.952289279095215,-5.699325818754665,-0.00972104799876774,-0.001239376314216919,-1.244203032393279
14999,13.0,299.95274,50836.238,0.0,-0.07499458220780875,-0.07499359585458942,0.0,0.0,0.0,-3.8087514984695066,-5.949994166293704,-5.694201306373914,-0.002204070962799868,-0.004433382086915746,-1.2354794556573288
15000,13.0,300.00436,50711.365,0.0,-0.0749995966965471,-0.0749985980647766,0.0,0.0,0.0,-3.797863923494986,-5.937950067655044,-5.679174706065904,-0.005972795434619015,0.0013695633480153787,-1.2478741388305887
15001,13.0,300.16609,50736.405,0.0,-0.07500461118528534,-0.07500360027496367,0.0,0.0,0.0,-3.790043152598136,-5.945997502599265,-5.686559576769735,0.0023613257571197077,-0.0020307565596950684,-1.2439016918135388
15002,13.0,300.21783999999997,50799.994000000006,0.0,-0.07500959268396645,-0.07500860248515073,0.0,0.0,0.0,-3.802018147579976,-5.946573535281114,-5.693338017288715,-0.0006886826260976835,4.765541580372335e-05,-1.2546682847261188
15003,13.0,300.08187000000004,50845.962,0.0,-0.0750146071727048,-0.0750136046953378,0.0,0.0,0.0,-3.797549815963986,-5.955976090909074,-5.702376917455785,0.006384732769399063,-0.0040594592614374364,-1.2483572564782688
15004,13.0,299.97528,50802.448,0.0,-0.0750195886713857,-0.07501860690552475,0.0,0.0,0.0,-3.8045785292576664,-5.944024400679535,-5.694072826261235,0.007675043646267832,0.0028221275845973074,-1.246776484997259
15005,13.0,299.9349,50739.637,0.0,-0.07502460316012416,-0.07502360911571193,0.0,0.0,0.0,-3.795076979094936,-5.938285048138104,-5.690220753356065,0.009243989688010752,0.0013578912134884285,-1.2429197511416288
15006,13.0,299.81546000000003,50768.983,0.0,-0.07502958465880505,-0.07502861132589889,0.0,0.0,0.0,-3.7976381713727063,-5.9493275490529145,-5.685537308743845,0.003988997444183397,0.005312156876044065,-1.2524190721541386
15007,13.0,299.83819,50910.502,0.0,-0.0750345991475434,-0.07503361353608606,0.0,0.0,0.0,-3.808871163306317,-5.953995085638565,-5.712655225145174,-0.0001943280854711888,-0.0015394926851860988,-1.2448924477613188
15008,13.0,299.92786,50879.268,0.0,-0.07503958064622429,-0.0750385828369956,0.0,0.0,0.0,-3.8082190355419567,-5.954460268759474,-5.703347813701604,-0.0032630542073883765,-0.004135977882489235,-1.2446350822359187
15009,13.0,299.97372,50750.191,0.0,-0.07504459513496275,-0.07504358504718256,0.0,0.0,0.0,-3.7853947664393757,-5.948375093958914,-5.693020971332424,-0.003172869375612827,-0.0020117054313148683,-1.2457615123720887
15010,13.0,299.97458,50816.788,0.0,-0.075049609623701,-0.07504858725736974,0.0,0.0,0.0,-3.8065766584548664,-5.944982631299103,-5.695475265724644,-0.0016594717308521083,0.0036900633334308965,-1.239283905807799
15011,13.0,300.12215,50882.052,0.0,-0.07505459112238189,-0.07505358946755669,0.0,0.0,0.0,-3.8168362210174065,-5.9502079620648045,-5.699829201404344,-0.003588764971908527,0.00036569613645889864,-1.2451044196822387
15012,13.0,299.85514,50849.148,0.0,-0.07505960561112046,-0.07505859167774387,0.0,0.0,0.0,-3.8035794646590664,-5.952058562047444,-5.701233262067915,-0.0006044824141827694,0.0019237264450070182,-1.242646680239679
15013,13.0,300.11593,50868.453,0.0,-0.07506458710980135,-0.07506359388793105,0.0,0.0,0.0,-3.805979752820956,-5.949962350240565,-5.706797423667054,0.000902007722261231,0.003933716849202626,-1.2516138422996688
15014,13.0,300.0387,50892.654,0.0,-0.07506960159853959,-0.07506859609811811,0.0,0.0,0.0,-3.800836697963376,-5.960556082686085,-5.708703144455135,-0.0017127574390359984,0.01075399517408669,-1.2441517619382187
15015,13.0,300.05118,50835.92,0.0,-0.0750745830972207,-0.07507359830830529,0.0,0.0,0.0,-3.7953645394733164,-5.953064212771694,-5.704421656157585,-0.01082194473904279,-0.0031818766623767773,-1.2497445985151887
15016,13.0,300.15782,50881.933,0.0,-0.07507959758595906,-0.07507860051849224,0.0,0.0,0.0,-3.8114187780327464,-5.954597057522974,-5.700821274577254,-0.002065794140203008,-0.002310259370629848,-1.242246243800159
15017,13.0,300.08519,50908.041,0.0,-0.0750846120746973,-0.07508360272867942,0.0,0.0,0.0,-3.8158547869705464,-5.9521459042060645,-5.706772700364614,0.002409240429173518,0.001938080348573638,-1.2455705147282388
15018,13.0,299.95559,50807.867999999995,0.0,-0.07508959357337841,-0.07508860493886638,0.0,0.0,0.0,-3.8022510937779663,-5.948501040946344,-5.693570963486704,0.01013290933979029,0.006073025222585925,-1.2540434133894487
15019,13.0,299.97885,50799.019,0.0,-0.07509460806211687,-0.07509360714905355,0.0,0.0,0.0,-3.795050431942317,-5.952941001559535,-5.693641992318715,0.004692521205290785,-0.008240457163094803,-1.2528673339983787
15020,13.0,299.78382999999997,50920.327000000005,0.0,-0.07509958956079765,-0.07509860935924051,0.0,0.0,0.0,-3.808529394047586,-5.960593876914815,-5.709384656472395,-0.0025469997849443078,-0.004661292837208785,-1.2512596100647089
15021,13.0,299.87739,50924.155,0.0,-0.07510460404953612,-0.07510361156942746,0.0,0.0,0.0,-3.8113691287778466,-5.962295326482735,-5.706006987264044,0.000904489374406151,-0.00017330747247411586,-1.2483932268568187
15022,13.0,299.93367,50839.749,0.0,-0.075109585548217,-0.07510858087033723,0.0,0.0,0.0,-3.8063348969810065,-5.957901671399115,-5.689777659087335,-0.0021597752148032182,0.004208390003535756,-1.2484009275575787
15023,13.0,299.99703999999997,50896.668,0.0,-0.07511460003695525,-0.07511358308052418,0.0,0.0,0.0,-3.807151576561606,-5.959534017310215,-5.704630487003195,-0.0008435108789455422,-0.0051057910652773444,-1.2444178414144789
15024,13.0,300.02603999999997,50982.515999999996,0.0,-0.07511958153563614,-0.07511858529071114,0.0,0.0,0.0,-3.8197504296300164,-5.9672340087951445,-5.710427493475314,-0.0060397629575781936,-0.004063574070093536,-1.2475492908485288
15025,13.0,300.12397000000004,50996.015,0.0,-0.07512459602437471,-0.07512358750089831,0.0,0.0,0.0,-3.8105127297933263,-5.968277453748124,-5.722725005963985,0.007024632226252222,0.0042914053815787355,-1.2458395326297889
15026,13.0,300.05952,50992.71,0.0,-0.07512961051311295,-0.07512858971108549,0.0,0.0,0.0,-3.8146463849012866,-5.966368287909704,-5.719495879220294,0.0026183900432649775,0.0010317536680261592,-1.2518271314457188
15027,13.0,300.1565,50935.712999999996,0.0,-0.07513459201179384,-0.07513359192127256,0.0,0.0,0.0,-3.8123298925226665,-5.958824843565225,-5.712030252483494,0.005971623610878364,-0.004921729928961925,-1.2437208266706887
15028,13.0,300.07738,50858.28,0.0,-0.07513960650053231,-0.07513859413145973,0.0,0.0,0.0,-3.8133040311688067,-5.950238258242794,-5.696105101986804,-0.008355098711209041,-0.005101696116323205,-1.2526946761813387
15029,13.0,300.14444,50935.742,0.0,-0.07514458799921331,-0.07514359634164669,0.0,0.0,0.0,-3.8087828078975967,-5.964991584998835,-5.709419309625814,-0.0025984158440436776,0.0008789210720452561,-1.2518902569269488
15030,13.0,299.99296,50949.863,0.0,-0.07514960248795155,-0.07514859855183387,0.0,0.0,0.0,-3.819882456118046,-5.963350322486853,-5.704253456640985,-0.006988473180533603,-0.00024911395095813274,-1.2556922752771789
15031,13.0,299.85172,50875.843,0.0,-0.07515458398663266,-0.07515360076202104,0.0,0.0,0.0,-3.7900623030250262,-5.964703011370354,-5.710220385154875,-0.001050862956962099,-0.00024711068458292576,-1.2514685422353289
15032,13.0,299.93455,50894.907999999996,0.0,-0.07515959847537113,-0.075158602972208,0.0,0.0,0.0,-3.804500205024936,-5.9629494807472945,-5.703331601700004,-0.0051516262441509255,0.0012225287008291888,-1.2545231873117988
15033,13.0,299.94592,51025.69,0.0,-0.07516457997405179,-0.07516360518239518,0.0,0.0,0.0,-3.8148587621222463,-5.9700568222487345,-5.725620064149704,0.0029464359439655874,0.0046237484759534455,-1.242284342003919
15034,13.0,299.94562,51029.462,0.0,-0.07516959446279037,-0.07516860739258213,0.0,0.0,0.0,-3.8251951290423665,-5.973257679314635,-5.713229535301854,-0.0009966799144896488,0.0006040269582628194,-1.2480747623503887
15035,13.0,300.14961,50967.297,0.0,-0.07517460895152883,-0.07517360960276931,0.0,0.0,0.0,-3.8035242425286167,-5.968686097513454,-5.720575193226814,0.006324767615230964,-0.006050953798307644,-1.248689501186059
15036,13.0,299.73572,50987.596,0.0,-0.0751795904502095,-0.07517857890367885,0.0,0.0,0.0,-3.8210000709783465,-5.964115630287385,-5.713840423787144,0.004994506718719436,-0.003380792551783247,-1.2493454793007988
15037,13.0,299.85617,51037.78400000001,0.0,-0.07518460493894807,-0.0751835811138658,0.0,0.0,0.0,-3.813986860411197,-5.9713604698273945,-5.728864592294914,0.002689981938355547,0.00904222970689859,-1.2541481834497887
15038,13.0,300.03837000000004,50975.279,0.0,-0.07518958643762896,-0.07518858332405298,0.0,0.0,0.0,-3.817247904533036,-5.965636923987524,-5.712327236087804,0.00045421919754044457,0.0027246538369023977,-1.2542201242068887
15039,13.0,300.01718,50978.969000000005,0.0,-0.0751946009263672,-0.07519358553423994,0.0,0.0,0.0,-3.816024202387266,-5.967102590257174,-5.713206939824624,-0.0008497528035365722,0.00040725894628582864,-1.2507017145596488
15040,13.0,300.1025,50992.856,0.0,-0.0751995824250481,-0.075198587744427,0.0,0.0,0.0,-3.824144490013676,-5.961609761465074,-5.714800680906915,0.0005120428678871966,0.0008264239662816952,-1.2450142404233386
15041,13.0,300.22486000000004,50988.505999999994,0.0,-0.07520459691378656,-0.07520358995461418,0.0,0.0,0.0,-3.818142401721317,-5.970013455144454,-5.711076885464404,0.0048370718698568255,0.0033146087777764163,-1.2496090256518089
15042,13.0,300.12277,51068.112,0.0,-0.07520961140252491,-0.07520859216480114,0.0,0.0,0.0,-3.823198519720316,-5.976274935462414,-5.723957320735604,0.0006943129630608544,-0.0011591595329501388,-1.244537708901309
15043,13.0,300.22368,51092.405,0.0,-0.0752145929012058,-0.07521359437498831,0.0,0.0,0.0,-3.816866010570347,-5.9784123865483645,-5.735536945528424,-0.0037351618794817768,-0.004257583295890756,-1.2453546924569387
15044,13.0,300.03188,51035.43,0.0,-0.07521960738994427,-0.07521859658517549,0.0,0.0,0.0,-3.8137032517082066,-5.977600266593214,-5.722192948336475,-0.0004916146920910926,0.002089556678898188,-1.2456034453564888
15045,13.0,299.86402000000004,51069.057,0.0,-0.07522458888862538,-0.07522359879536245,0.0,0.0,0.0,-3.8225957372358264,-5.976864950995645,-5.724257546740235,-0.006645567055191403,0.01146513867727109,-1.2518269287956987
15046,13.0,300.02184,51114.887,0.0,-0.07522960337736373,-0.07522860100554962,0.0,0.0,0.0,-3.8343535927212358,-5.979373352943204,-5.723922363607154,-0.0021480306328941177,0.00042028197624360163,-1.2515361260169988
15047,13.0,300.14811000000003,51004.994000000006,0.0,-0.07523458487604462,-0.07523360321573658,0.0,0.0,0.0,-3.8174787229058165,-5.974744218536345,-5.712021639857644,-0.006890071599722124,-0.002310957499948748,-1.2615407548543789
15048,13.0,300.06836,50951.026,0.0,-0.07523959936478308,-0.07523860542592375,0.0,0.0,0.0,-3.810965753913036,-5.968337843454085,-5.708536059513644,0.008503726086227422,-0.0004938427885309885,-1.2572168113776387
15049,13.0,300.07027,51025.148,0.0,-0.07524458086346375,-0.07524360763611082,0.0,0.0,0.0,-3.813850071647696,-5.980560375435354,-5.715960548296385,0.006195127533836484,0.001015574090429359,-1.2647973406757789
15050,13.0,299.99563,51033.949,0.0,-0.07524959535220221,-0.07524860984629789,0.0,0.0,0.0,-3.8245744120311067,-5.968535933848634,-5.719935832413715,0.0052029639790175655,-0.002884468202299847,-1.250680132332519
15051,13.0,300.0402,51017.769,0.0,-0.07525460984094079,-0.07525357914720743,0.0,0.0,0.0,-3.8160391984887463,-5.9763914592239145,-5.715697305920404,-0.003884744546694436,-0.0037852772294277768,-1.2591582998942488
15052,13.0,299.87023999999997,51112.307,0.0,-0.07525959133962146,-0.0752585813573946,0.0,0.0,0.0,-3.8288084802239766,-5.982235277850654,-5.7258214982695845,0.001945088898190328,-0.0007208732777996534,-1.2458199769028588
15053,13.0,299.63398,51150.322,0.0,-0.07526460582835992,-0.07526358356758156,0.0,0.0,0.0,-3.8326648087795667,-5.983719385272124,-5.732036470407954,-0.0021106055311755478,-0.0017404419648932485,-1.255825517665329
15054,13.0,299.70677,51117.869000000006,0.0,-0.07526958732704081,-0.07526858577776863,0.0,0.0,0.0,-3.823133367738886,-5.986437732640404,-5.7289845611067545,0.0028696190220843473,-0.005636878100516556,-1.250132774628499
15055,13.0,300.13687000000004,51097.337999999996,0.0,-0.07527460181577916,-0.07527358798795558,0.0,0.0,0.0,-3.8127797755670665,-5.984875098336185,-5.7346598762418655,-0.004695610503520675,-0.0024918593224523677,-1.2566982299764589
15056,13.0,300.12934,51102.247,0.0,-0.07527958331446005,-0.07527859019814276,0.0,0.0,0.0,-3.822790686555067,-5.9830562130816745,-5.727960266580665,0.0030831050426287773,0.002288470947104498,-1.242890062913699
15057,13.0,300.03423,51073.727,0.0,-0.07528459780319852,-0.07528359240832994,0.0,0.0,0.0,-3.8116711786326567,-5.988376789356774,-5.725089627722355,-0.0005242738706393024,0.007190372584859523,-1.2584328128226487
15058,13.0,299.95997,51129.657999999996,0.0,-0.07528957930187963,-0.07528859461851689,0.0,0.0,0.0,-3.832885393326336,-5.982899767266234,-5.7263540625221445,6.130365248394944e-05,-0.001056543946297769,-1.2496572563565687
15059,13.0,299.91673,51176.883,0.0,-0.07529459379061798,-0.07529359682870407,0.0,0.0,0.0,-3.834957185805806,-5.989252338768185,-5.732285121982494,-0.0025382671902824676,-0.0027107626846564472,-1.254869313545959
15060,13.0,300.0368,51122.86,0.0,-0.07529960827935622,-0.07529859903889102,0.0,0.0,0.0,-3.8299090724825966,-5.980245761279304,-5.729918068423885,-0.004686273707824206,-0.002840485143284057,-1.251753974788499
15061,13.0,299.93155,51113.509000000005,0.0,-0.07530458977803733,-0.0753036012490782,0.0,0.0,0.0,-3.816388668448236,-5.9864330716899445,-5.734408488892054,-0.0012982201044993487,-0.0001195997658885779,-1.2575378090093188
15062,13.0,299.9793,51174.094000000005,0.0,-0.07530960426677558,-0.07530860345926538,0.0,0.0,0.0,-3.837048230037176,-5.988054271849944,-5.730544155660675,-0.0007071954146997534,-0.0032191525123556166,-1.2537034679808987
15063,13.0,300.0709,51143.327000000005,0.0,-0.07531458576545647,-0.07531360566945244,0.0,0.0,0.0,-3.8247085663443463,-5.985309073354014,-5.736276719426434,-0.000916043009333906,0.0015411181409965185,-1.2534601866318886
15064,13.0,300.38149,51107.17,0.0,-0.07531960025419504,-0.07531860787963951,0.0,0.0,0.0,-3.8253443807820964,-5.986484848770053,-5.723474101762915,-0.0014036270938522085,-0.0030004882771751374,-1.2611239037632387
15065,13.0,300.23326000000003,51139.012,0.0,-0.07532458175287571,-0.07532357718054905,0.0,0.0,0.0,-3.8182507181570067,-5.990249883491635,-5.736482105221704,-0.0025447264570199477,0.003314447974985547,-1.2572156968025288
15066,13.0,300.24941,51167.114,0.0,-0.07532959624161417,-0.07532857939073612,0.0,0.0,0.0,-3.826128636359496,-5.991017623092404,-5.736378652386494,-0.0008662397201537042,-0.003998756765171567,-1.2614565537710687
15067,13.0,300.06748,51185.219000000005,0.0,-0.07533461073035264,-0.07533358160092318,0.0,0.0,0.0,-3.8196870001737566,-5.9950551207658735,-5.744286258816915,0.0004806126198552725,-0.0015543428786516985,-1.2544477001793488
15068,13.0,299.93189,51194.693,0.0,-0.07533959222903341,-0.07533858381111025,0.0,0.0,0.0,-3.833999157836257,-5.987448449615154,-5.740460733064365,-0.0028035335333372173,-0.0015277657338287386,-1.2489522369369888
15069,13.0,300.0487,51195.025,0.0,-0.07534460671777188,-0.07534358602129743,0.0,0.0,0.0,-3.829772283719097,-5.995028066988204,-5.737208808193425,-0.00026921716731466574,0.003234538208499067,-1.2498525096508386
15070,13.0,300.23249,51189.335999999996,0.0,-0.07534958821645277,-0.07534858823148438,0.0,0.0,0.0,-3.8329220729799562,-5.992390070352854,-5.734967701622244,0.0012525649801685386,0.0016886528271070583,-1.2557764763604886
15071,13.0,299.84396,51244.512,0.0,-0.07535460270519112,-0.07535359044167134,0.0,0.0,0.0,-3.8398363903373465,-5.994347466896035,-5.742868215301964,0.0030901106538201773,0.0005434051471024125,-1.2501561807058088
15072,13.0,299.90393,51272.535,0.0,-0.07535958420387212,-0.07535859265185851,0.0,0.0,0.0,-3.8450283851747566,-5.995609165920554,-5.744932611055704,-0.0013701475880230386,0.002717503026971667,-1.2529724080337488
15073,13.0,299.959,51152.651,0.0,-0.07536459869261047,-0.07536359486204547,0.0,0.0,0.0,-3.8229283872436564,-5.987541060674294,-5.738659073061554,-0.003172793280530317,0.001826604599071838,-1.2630045972738488
15074,13.0,299.87673,51145.655,0.0,-0.07536958019129159,-0.07536859707223265,0.0,0.0,0.0,-3.8270087453963564,-5.989519735469574,-5.730473430803695,-0.0007266583177880922,-0.006053548630488734,-1.260291721456109
15075,13.0,300.16427000000004,51277.373,0.0,-0.07537459468002983,-0.07537359928241982,0.0,0.0,0.0,-3.8411292974649465,-5.998301776736294,-5.747609820469924,0.0007908314590914883,-0.0027147399952739773,-1.2582117216508288
15076,13.0,300.07788999999997,51261.755999999994,0.0,-0.07537960916876818,-0.07537860149260689,0.0,0.0,0.0,-3.844763622923626,-5.995469134756735,-5.742060958947295,0.0054158130705491345,-0.002981777600828537,-1.251021192316179
15077,13.0,299.84737,51200.185999999994,0.0,-0.07538459066744929,-0.07538360370279407,0.0,0.0,0.0,-3.825847560781756,-5.999546149184104,-5.738184466714714,0.0011110474797768489,0.004818295433578735,-1.2620893284585186
15078,13.0,300.05877999999996,51215.465,0.0,-0.07538960515618753,-0.07538860591298102,0.0,0.0,0.0,-3.8293851208558864,-5.996629914071294,-5.742207373586745,0.002655687374145937,-6.192133481115994e-05,-1.2564868660055988
15079,13.0,300.10191000000003,51225.41099999999,0.0,-0.07539458665486842,-0.07539357521389056,0.0,0.0,0.0,-3.829564263473567,-5.999286757158504,-5.742395027505265,0.0024894890264934378,0.0033444885099753164,-1.2625324227272487
15080,13.0,300.03897,51269.505,0.0,-0.07539960114360689,-0.07539857742407774,0.0,0.0,0.0,-3.8407531790278258,-6.002184044494444,-5.7417120969378646,0.003055203681250127,0.005345123170697585,-1.256408643097879
15081,13.0,300.12891,51288.566,0.0,-0.07540458264228767,-0.0754035796342647,0.0,0.0,0.0,-3.8437643556750065,-6.002234706999444,-5.744444325832514,-0.0016645362588269383,0.003406424030287877,-1.2584846912277687
15082,13.0,300.02362,51203.259000000005,0.0,-0.07540959713102613,-0.07540858184445187,0.0,0.0,0.0,-3.8331374899512167,-5.9977914026609245,-5.733583196685604,-0.0019752614596681285,-0.00026543185745858477,-1.2584735454766687
15083,13.0,299.9816,51179.099,0.0,-0.07541457862970702,-0.07541358405463905,0.0,0.0,0.0,-3.8218241472846763,-5.997022041859994,-5.738322066078295,-0.005729767499459025,0.0018782974780985281,-1.2633589308338187
15084,13.0,300.08785,51316.255,0.0,-0.07541959311844537,-0.075418586264826,0.0,0.0,0.0,-3.8385792509382766,-6.003184831618214,-5.7570961718811535,0.007966366120944124,0.005230313119091715,-1.2562940445115687
15085,13.0,299.97087999999997,51317.635,0.0,-0.07542460760718384,-0.07542358847501296,0.0,0.0,0.0,-3.8430882138832763,-6.002782976628554,-5.753408650792224,-0.0008491699415490481,0.002315093080231898,-1.2665155088703488
15086,13.0,300.02792999999997,51243.008,0.0,-0.07542958910586472,-0.07542859068520003,0.0,0.0,0.0,-3.8308723693526665,-6.0028378947839744,-5.7428846299535845,0.005510412025060324,-0.002302655333929388,-1.2634699830447789
15087,13.0,300.08937000000003,51254.035,0.0,-0.07543460359460297,-0.07543359289538709,0.0,0.0,0.0,-3.8363957982977865,-5.999980428176964,-5.743570498946275,-0.0005216903057993244,-0.009451490034914441,-1.2572315035040889
15088,13.0,299.9592,51335.225999999995,0.0,-0.07543958509328408,-0.07543859510557427,0.0,0.0,0.0,-3.846708353840557,-6.005173537589484,-5.752745073301735,0.0016453396277323782,0.002941871353590097,-1.2478761653307888
15089,13.0,299.90767999999997,51319.041,0.0,-0.07544459958202243,-0.07544359731576133,0.0,0.0,0.0,-3.837752945481726,-6.006362789231853,-5.755591191507625,-0.003297743128536907,0.0058363422595521346,-1.2564362035005987
15090,13.0,299.74351,51283.210999999996,0.0,-0.07544958108070354,-0.07544859952594851,0.0,0.0,0.0,-3.836217770255217,-6.006004200021465,-5.7465935306196245,-0.003970890664896397,0.0039954563056208365,-1.2574992041805089
15091,13.0,299.54962,51286.219000000005,0.0,-0.07545459556944178,-0.07545360173613547,0.0,0.0,0.0,-3.8347844266637567,-6.002409289991674,-5.752536141131115,-0.005125800018977075,0.0057535493912311145,-1.254532407887709
15092,13.0,299.76642999999996,51302.58900000001,0.0,-0.07545961005818025,-0.07545860394632264,0.0,0.0,0.0,-3.8404384635467665,-6.006608502381104,-5.747659064424785,-0.0013109376091544687,0.008175559102139861,-1.2605530386568988
15093,13.0,299.91333,51315.950999999994,0.0,-0.07546459155686114,-0.07546357324723219,0.0,0.0,0.0,-3.8370046602828762,-6.008142461707494,-5.753620521388135,0.005843741518407384,-0.0005420917216602875,-1.260253217952309
15094,13.0,300.05691,51307.887,0.0,-0.07546960604559949,-0.07546857545741914,0.0,0.0,0.0,-3.842546125079776,-6.0034188923913145,-5.750351371265495,-0.0013416423295847888,-0.01028267581057109,-1.2618993440647688
15095,13.0,300.09219,51255.819,0.0,-0.07547458754428038,-0.07547357766760632,0.0,0.0,0.0,-3.8206560725693968,-6.010631003953094,-5.749202041677065,0.0007761205267196323,-0.011450293550055989,-1.259453966273429
15096,13.0,300.0874,51286.140999999996,0.0,-0.07547960203301884,-0.0754785798777935,0.0,0.0,0.0,-3.838366873717317,-6.004154309313894,-5.747184863377985,0.002167490405039648,-0.0016041293276152385,-1.2686549864564987
15097,13.0,300.01251,51464.779,0.0,-0.07548458353169962,-0.07548358208798045,0.0,0.0,0.0,-3.8568492648163857,-6.021997947549924,-5.765160629427054,0.005764757355887254,0.0013189459326448287,-1.2589857434022187
15098,13.0,300.20264,51443.232,0.0,-0.07548959802043809,-0.07548858429816763,0.0,0.0,0.0,-3.8638231612796563,-6.018203933875485,-5.755430895341804,0.0013871301663240887,-0.0041375211637165454,-1.264398424111409
15099,13.0,299.8436,51306.46599999999,0.0,-0.07549457951911898,-0.07549358650835458,0.0,0.0,0.0,-3.8379977467058866,-6.008337512351744,-5.749549485136354,-0.0016718214257209285,-0.0034924138039994067,-1.2533221819682687
15100,13.0,299.62276,51327.057,0.0,-0.07549959400785722,-0.07549858871854176,0.0,0.0,0.0,-3.8403533505383662,-6.009570637723445,-5.752219601799874,-0.005341088307474375,0.0066546101096838835,-1.259927154070129
15101,13.0,299.87155,51395.553,0.0,-0.0755046084965958,-0.07550359092872871,0.0,0.0,0.0,-3.844138042311886,-6.009072625299294,-5.769753894780375,0.0007325153593286371,0.0016054872853992585,-1.2497694231426388
15102,13.0,300.06957,51303.487,0.0,-0.07550958999527668,-0.07550859313891578,0.0,0.0,0.0,-3.8378446446157763,-6.006360965381674,-5.750773288607135,-0.0022905290607076177,0.0006471090555546915,-1.2643498894316187
15103,13.0,300.06723,51261.894,0.0,-0.07551460448401492,-0.07551359534910296,0.0,0.0,0.0,-3.828425167711146,-6.006516093971984,-5.747394504823674,-0.0007068546282936203,-0.0002428164901291218,-1.2598798352904588
15104,13.0,299.91733,51313.316,0.0,-0.07551958598269604,-0.07551859755928991,0.0,0.0,0.0,-3.8382952369352465,-6.007852570853885,-5.751818760060314,-0.004932316568656746,0.0036606767500556667,-1.2714517593825188
15105,13.0,299.84819,51394.007000000005,0.0,-0.0755246004714345,-0.07552359976947709,0.0,0.0,0.0,-3.8498537861259865,-6.016591751641374,-5.756049281877835,-0.0007296267048835494,-0.002492944310659448,-1.2614521967956387
15106,13.0,299.69363,51449.637,0.0,-0.07552958197011539,-0.07552860197966427,0.0,0.0,0.0,-3.854472585381826,-6.019354175389004,-5.765578291118275,-0.005366505888882895,-0.0034686624110553265,-1.2639873485458386
15107,13.0,300.07897,51455.672999999995,0.0,-0.07553459645885374,-0.07553360418985122,0.0,0.0,0.0,-3.8538273477181466,-6.019964759899264,-5.767447737552774,0.006647187242101304,-0.005219576315732075,-1.2548000072391188
15108,13.0,300.04143,51412.332,0.0,-0.07553957795753463,-0.07553857349076076,0.0,0.0,0.0,-3.850055321570876,-6.021075079358845,-5.7569348624652354,0.0033147951144698066,0.00920195561556231,-1.265388065484079
15109,13.0,300.00468,51440.350999999995,0.0,-0.0755445924462731,-0.07554357570094794,0.0,0.0,0.0,-3.8481300450558664,-6.021669451867504,-5.766782640187135,0.001076911894507929,0.002877492785961427,-1.263753895722799
15110,13.0,300.01257000000004,51485.06,0.0,-0.07554960693501145,-0.0755485779111349,0.0,0.0,0.0,-3.8610773548336663,-6.025330932428864,-5.763764472114265,-0.006170058713112384,-0.002812242620596737,-1.2654035682106088
15111,13.0,300.10274,51383.742,0.0,-0.07555458843369234,-0.07555358012132207,0.0,0.0,0.0,-3.8416548702918165,-6.013511673987394,-5.764207971683035,-0.0005252756811456736,-0.0005306095512620854,-1.2600407394063387
15112,13.0,300.17309,51274.058,0.0,-0.0755596029224308,-0.07555858233150903,0.0,0.0,0.0,-3.8218963920168068,-6.012249265687804,-5.751887661067115,0.0013994822929931487,0.008924352749890042,-1.2644172705632688
15113,13.0,300.08058,51369.123,0.0,-0.07556458442111147,-0.0755635845416962,0.0,0.0,0.0,-3.8338334914449064,-6.0151466543487535,-5.765950457880004,0.001960885568574338,-0.003432755056661547,-1.262079601257559
15114,13.0,299.91807,51500.265999999996,0.0,-0.07556959890985004,-0.07556858675188338,0.0,0.0,0.0,-3.8563779008698664,-6.021985991198744,-5.776431010289354,-0.002540722801899818,-0.005722220812714224,-1.2571706071730788
15115,13.0,299.93318,51492.397000000004,0.0,-0.07557458040853093,-0.07557358896207034,0.0,0.0,0.0,-3.853555290066296,-6.030908570254335,-5.767939163851274,0.0016833020559789786,-0.0010527275397961189,-1.2682029755868887
15116,13.0,300.13816,51463.544,0.0,-0.07557959489726918,-0.0755785911722574,0.0,0.0,0.0,-3.857715188351846,-6.023685718241494,-5.762231526037974,0.007435498555676572,0.00987879705648636,-1.2606750339689385
15117,13.0,299.85069,51486.504,0.0,-0.07558460938600764,-0.07558359338244436,0.0,0.0,0.0,-3.8572649000074066,-6.024582748555024,-5.768764050757684,-0.0003627021445334147,-0.0025749060099234376,-1.2601509810172187
15118,13.0,299.9829,51531.097,0.0,-0.07558959088468875,-0.07558859559263154,0.0,0.0,0.0,-3.8596327641660966,-6.028848936776065,-5.775685055565734,-0.0040801715120315765,-0.004506982345029526,-1.2564240444993988
15119,13.0,299.94611000000003,51532.820999999996,0.0,-0.0755946053734271,-0.07559359780281871,0.0,0.0,0.0,-3.869635670478306,-6.021138610140114,-5.773916528841195,-0.0008214978989330303,-0.0015397868316901287,-1.2568464684660887
15120,13.0,300.03932000000003,51474.773,0.0,-0.075599586872108,-0.07559860001300567,0.0,0.0,0.0,-3.8574308703737863,-6.022432023892764,-5.767182570001604,0.005124546324628345,0.011162895291691989,-1.2677318142903886
15121,13.0,299.94772,51373.224,0.0,-0.07560460136084646,-0.07560360222319285,0.0,0.0,0.0,-3.8402668189798264,-6.018809553460254,-5.757100934156624,0.0017129970726846482,-0.002643355309828857,-1.2677738641695389
15122,13.0,299.92138,51433.876,0.0,-0.07560958285952735,-0.07560857152410239,0.0,0.0,0.0,-3.844629468610386,-6.024208555293094,-5.765775874887774,-0.002141139620289028,-0.0019706011171581883,-1.267330871225819
15123,13.0,300.10722000000004,51547.93,0.0,-0.0756145973482657,-0.07561357373428934,0.0,0.0,0.0,-3.854323840267146,-6.029958141660535,-5.7850014849351945,-0.004602723637703456,0.005373988335571354,-1.261715033871579
15124,13.0,300.39522,51508.208,0.0,-0.07561957884694659,-0.07561857594447652,0.0,0.0,0.0,-3.8492887978702264,-6.028478593864515,-5.7794417816364945,-0.00014353483067828485,0.0061706863202243235,-1.2674045345080887
15125,13.0,300.17146,51407.386,0.0,-0.07562459333568505,-0.07562357815466347,0.0,0.0,0.0,-3.8445773875552467,-6.023905694838204,-5.758078517853104,-0.0014683671891165585,-0.010210347991932892,-1.261610973086309
15126,13.0,300.13925,51524.636,0.0,-0.0756296078244233,-0.07562858036485065,0.0,0.0,0.0,-3.8579514782751665,-6.0334051171757235,-5.770846178388174,-0.004155736766064286,-0.008227710983461851,-1.2666958673881488
15127,13.0,300.11545,51615.92,0.0,-0.0756345893231043,-0.07563358257503783,0.0,0.0,0.0,-3.866405327834496,-6.036738811329735,-5.786806589988345,0.005183082998805464,0.00028337763130469474,-1.2631678318649588
15128,13.0,299.94422000000003,51574.225999999995,0.0,-0.07563960381184276,-0.0756385847852249,0.0,0.0,0.0,-3.866382327057226,-6.0371830201735746,-5.773711548345965,0.004458320198376946,0.006388824273302864,-1.2646399829352488
15129,13.0,300.02873,51534.073,0.0,-0.07564458531052343,-0.07564358699541207,0.0,0.0,0.0,-3.8520505123427866,-6.031166645054804,-5.781854127474574,0.005323495245988075,0.00015746568206315284,-1.266702149538769
15130,13.0,300.01459,51472.405999999995,0.0,-0.07564959979926189,-0.07564858920559903,0.0,0.0,0.0,-3.8525229908644167,-6.0245654219783145,-5.769237745179435,0.0025770391040339574,-2.097323240914688e-05,-1.2652388137443487
15131,13.0,300.1073,51516.722,0.0,-0.075654581297943,-0.0756535914157862,0.0,0.0,0.0,-3.8539989922850864,-6.031413979404214,-5.774384042437335,0.007831975416455793,0.005631548303665545,-1.2741296780718088
15132,13.0,300.12535,51620.282,0.0,-0.07565959578668136,-0.07565859362597316,0.0,0.0,0.0,-3.8727343919341264,-6.0361825370248345,-5.782359637949464,-0.006590842025240464,0.003535402763342087,-1.274168890850679
15133,13.0,299.84328999999997,51553.109000000004,0.0,-0.07566457728536224,-0.07566359583616011,0.0,0.0,0.0,-3.8564886491057964,-6.032369575573524,-5.781999630188935,-0.0038433983697388867,-0.004938483107440336,-1.269468930261829
15134,13.0,299.97495,51436.27099999999,0.0,-0.07566959177410071,-0.07566859804634729,0.0,0.0,0.0,-3.8452696400235666,-6.020786100430324,-5.769286279859224,-0.011942179864101387,-0.0034509908226862773,-1.2666634433849489
15135,13.0,300.2196,51567.501,0.0,-0.07567460626283906,-0.07567360025653425,0.0,0.0,0.0,-3.852180714980636,-6.038441983422824,-5.784609965096554,-0.0016892262253386482,0.008235268714632742,-1.2595722125600988
15136,13.0,300.0714,51688.009000000005,0.0,-0.07567958776151995,-0.07567856955744379,0.0,0.0,0.0,-3.8799892626501262,-6.043600844981964,-5.788273877458154,-0.001982481677230708,0.0019343511829055982,-1.2612048624462286
15137,13.0,300.04762999999997,51640.12,0.0,-0.07568460225025841,-0.07568357176763096,0.0,0.0,0.0,-3.870464509060106,-6.043293019601585,-5.783549497541895,0.004703875989886416,-0.005107876840608195,-1.255241885607729
15138,13.0,300.12279,51540.745,0.0,-0.0756895837489393,-0.07568857397781792,0.0,0.0,0.0,-3.851747753212906,-6.045856035729535,-5.769495921304914,0.0036962235900638665,-0.004280206130873456,-1.2720745028939788
15139,13.0,300.12689,51565.929000000004,0.0,-0.07569459823767755,-0.0756935761880051,0.0,0.0,0.0,-3.857002468231506,-6.038235584377454,-5.779516762143895,0.01060036416742449,0.0004990406804839805,-1.263686818566179
15140,13.0,300.23477,51628.894,0.0,-0.07569957973635844,-0.07569857839819227,0.0,0.0,0.0,-3.8623545565847164,-6.043826495779235,-5.787713550152854,-0.002475052137743628,0.0016431671181929685,-1.2729662643069886
15141,13.0,300.19261,51593.662000000004,0.0,-0.07570459422509701,-0.07570358060837934,0.0,0.0,0.0,-3.8566594830726566,-6.040753105575915,-5.785772264286265,-0.007056190407241774,-0.006800295513036914,-1.2679534120872589
15142,13.0,299.78792999999996,51540.678,0.0,-0.07570960871383525,-0.07570858281856652,0.0,0.0,0.0,-3.8598261936101865,-6.032660277027214,-5.774592771957935,-0.0019008915367783885,-0.001059666175155909,-1.2718176439936288
15143,13.0,300.14519,51561.888,0.0,-0.07571459021251614,-0.07571358502875347,0.0,0.0,0.0,-3.8620140032261068,-6.0375755532623145,-5.773936793843195,0.0014924001642634284,0.008571487186664922,-1.276652062870749
15144,13.0,300.08693999999997,51619.530999999995,0.0,-0.07571960470125472,-0.07571858723894065,0.0,0.0,0.0,-3.8659569646652465,-6.040215069772814,-5.784876449872853,0.0027617323057617573,-0.0017098335032224281,-1.269017831317309
15145,13.0,300.33822000000004,51698.151,0.0,-0.0757245861999356,-0.07572358944912783,0.0,0.0,0.0,-3.876685459374066,-6.047082980275624,-5.791178561519825,-0.004847551409016076,-0.008046678553020343,-1.266237473042909
15146,13.0,300.13577000000004,51679.735,0.0,-0.07572960068867385,-0.07572859165931478,0.0,0.0,0.0,-3.866581734676906,-6.048409628631553,-5.794357633708574,-3.4665598157728163e-05,-0.005312115332789965,-1.2534418468050788
15147,13.0,300.2086,51602.297999999995,0.0,-0.07573458218735496,-0.07573359386950174,0.0,0.0,0.0,-3.855409335099276,-6.042446651793054,-5.787953994401585,0.002459395295873418,-0.0033534625621359873,-1.2694189770318989
15148,13.0,299.86216,51671.617,0.0,-0.0757395966760932,-0.0757385960796888,0.0,0.0,0.0,-3.8748825834711362,-6.049318615296264,-5.782680128956095,-0.001017982079292009,-0.002443836941912928,-1.253945432104779
15149,13.0,299.96609,51743.792,0.0,-0.0757445781747742,-0.07574359828987587,0.0,0.0,0.0,-3.881784336527286,-6.053012418535815,-5.794023970450644,-0.0009476890695046292,-0.0038714882969611464,-1.2748298338909088
15150,13.0,300.08217,51670.335999999996,0.0,-0.07574959266351267,-0.07574860050006305,0.0,0.0,0.0,-3.8695903781988363,-6.047968459538015,-5.7889330979732145,0.0026242293022662676,0.005408666516268825,-1.2670332796714487
15151,13.0,300.02923,51588.442,0.0,-0.07575460715225091,-0.07575356980097259,0.0,0.0,0.0,-3.852234011935896,-6.043756784172354,-5.785607509820004,0.0001941376451148938,0.01085047279560829,-1.2752686725092186
15152,13.0,300.07676000000004,51661.123,0.0,-0.0757595886509318,-0.07575857201115954,0.0,0.0,0.0,-3.861824018832357,-6.045384469132994,-5.7964830271183345,-0.0005094407605703885,0.0012368024563128987,-1.2594905446020388
15153,13.0,300.18766,51663.804000000004,0.0,-0.07576460313967037,-0.07576357422134672,0.0,0.0,0.0,-3.8668401134524064,-6.0468097067236535,-5.790856449313035,-0.0052456587918562145,-0.0010530700183299189,-1.2732941520393488
15154,13.0,300.28488,51659.925,0.0,-0.07576958463835126,-0.07576857643153379,0.0,0.0,0.0,-3.8714216251045666,-6.0442096056420445,-5.787695919601115,-0.001119078702719469,-0.0029723683577499173,-1.2689882444143887
15155,13.0,300.06122,51675.818,0.0,-0.0757745991270895,-0.07577357864172096,0.0,0.0,0.0,-3.866106723030026,-6.053691397427824,-5.788360206366674,-0.0002179271463952348,-0.0014493651020411988,-1.2816546812644687
15156,13.0,300.06302,51673.883,0.0,-0.07577958062577039,-0.07577858085190792,0.0,0.0,0.0,-3.8667800277214766,-6.055317157213274,-5.785473152856745,0.003183098135372327,-0.0050665796036324755,-1.2730324295385187
15157,13.0,299.76575,51646.253,0.0,-0.07578459511450897,-0.0757835830620951,0.0,0.0,0.0,-3.856089732541426,-6.0529903296836345,-5.790091344162525,0.004779011423226706,-0.004726720625316006,-1.2753529749175387
15158,13.0,300.00799,51699.462,0.0,-0.07578957661318986,-0.07578858527228227,0.0,0.0,0.0,-3.855678353000826,-6.054863727793524,-5.8048034316394945,0.0021885260850657076,0.0014882619495300185,-1.2643036852270588
15159,13.0,299.80366000000004,51670.337,0.0,-0.0757945911019281,-0.07579358748246923,0.0,0.0,0.0,-3.8628362556822564,-6.053578825341714,-5.790077259986135,-0.002871912615010707,0.0033992975383595465,-1.2709402707320387
15160,13.0,299.88917999999995,51626.193,0.0,-0.07579960559066656,-0.0757985896926564,0.0,0.0,0.0,-3.8621907140435465,-6.048269901442764,-5.7826130517994745,0.000990764904910883,0.0013600375811752589,-1.2701135599754487
15161,13.0,300.07111000000003,51723.094000000005,0.0,-0.07580458708934745,-0.07580359190284336,0.0,0.0,0.0,-3.874994750257206,-6.0573721297410845,-5.790162170344515,-8.993768791715871e-06,0.0018494814558546082,-1.2781152973401588
15162,13.0,300.26965,51787.827000000005,0.0,-0.0758096015780858,-0.07580859411303043,0.0,0.0,0.0,-3.885081553677696,-6.050814071118854,-5.806310742488254,5.173607894470345e-05,0.0018209058778594185,-1.271393801476799
15163,13.0,299.89464,51755.772000000004,0.0,-0.07581458307676692,-0.07581359632321749,0.0,0.0,0.0,-3.8737599023603364,-6.052880493372794,-5.805821849315004,-0.007380014398750713,0.0007010561830063583,-1.2697934742688588
15164,13.0,300.07675,51743.60400000001,0.0,-0.07581959756550516,-0.07581859853340456,0.0,0.0,0.0,-3.8733700037218566,-6.050385162351524,-5.805008310809715,0.0016164325143044685,-0.0019727207350423784,-1.2630078396741689
15165,13.0,299.97426,51761.067,0.0,-0.07582457906418605,-0.07582356783431421,0.0,0.0,0.0,-3.884113190557126,-6.048738833589044,-5.801219870010824,0.006241916687679214,-0.0002796458514513967,-1.2642933500760387
15166,13.0,300.18602000000004,51778.969000000005,0.0,-0.07582959355292462,-0.07582857004450128,0.0,0.0,0.0,-3.8876771964588666,-6.052855263445304,-5.798981296564894,0.006024392764161274,0.0035045334910955273,-1.272532187964149
15167,13.0,300.07986,51816.523,0.0,-0.07583460804166287,-0.07583357225468823,0.0,0.0,0.0,-3.886795162246816,-6.064339541403714,-5.799794429770144,0.004162624333619035,0.0005539746932680454,-1.2726621879519788
15168,13.0,299.84576,51798.15,0.0,-0.07583958954034375,-0.07583857446487541,0.0,0.0,0.0,-3.8802146094723664,-6.063057070752144,-5.802072418644965,-0.0043073699475043165,-0.002157813663934628,-1.273106802095859
15169,13.0,299.94942000000003,51724.342000000004,0.0,-0.07584460402908222,-0.07584357667506236,0.0,0.0,0.0,-3.8544989298844263,-6.064084607678554,-5.804324873617264,-0.007246944972392784,0.0020645567591808882,-1.2740784076167486
15170,13.0,300.10166,51724.062000000005,0.0,-0.07584958552776311,-0.07584857888524954,0.0,0.0,0.0,-3.8612021872459867,-6.056699027699653,-5.804922184551215,-0.004828002369536735,0.0018535784313089482,-1.2657426016940687
15171,13.0,300.06119,51785.803,0.0,-0.07585460001650146,-0.07585358109543672,0.0,0.0,0.0,-3.876960252801186,-6.065756976968604,-5.798873892054295,-0.003245697233175377,0.006090585252118964,-1.2696120011759486
15172,13.0,300.15373999999997,51793.755,0.0,-0.07585958151518235,-0.07585858330562367,0.0,0.0,0.0,-3.878265318929986,-6.064820125926144,-5.800922886406514,0.0001250869508776209,-0.0002020136381421938,-1.2715764904698288
15173,13.0,300.03855,51721.843,0.0,-0.07586459600392081,-0.07586358551581085,0.0,0.0,0.0,-3.8670702225501166,-6.061668310165085,-5.793410346190085,0.008788436800026181,0.0012963750773922588,-1.2848854292083187
15174,13.0,299.89667000000003,51786.352,0.0,-0.0758695775026017,-0.0758685877259978,0.0,0.0,0.0,-3.8746739552755463,-6.065842292627025,-5.801241756212985,0.006208501320581375,0.00035453947265532164,-1.2740351418374787
15175,13.0,300.06147999999996,51830.072,0.0,-0.07587459199134006,-0.07587358993618498,0.0,0.0,0.0,-3.8752496839823665,-6.0662127368635845,-5.813585371581205,0.0039793943663606465,0.0007575022486496513,-1.274436692852109
15176,13.0,299.88492,51770.208,0.0,-0.07587960648007852,-0.07587859214637216,0.0,0.0,0.0,-3.873693129178746,-6.060674615792014,-5.802482582285444,-0.003382555404307227,-0.006407086079855164,-1.2676777067350486
15177,13.0,299.75961,51767.378,0.0,-0.07588458797875941,-0.07588359435655911,0.0,0.0,0.0,-3.876876355692906,-6.057861732189404,-5.801252192689015,-0.007869478234457033,-0.004804673197909326,-1.278678867045779
15178,13.0,299.85697000000005,51837.494000000006,0.0,-0.07588960246749787,-0.07588859656674618,0.0,0.0,0.0,-3.891161662227756,-6.059801599505854,-5.806340633366204,-0.003376682809377647,-0.004057161311535646,-1.2668305283264387
15179,13.0,300.01058,51861.88,0.0,-0.07589458396617876,-0.07589356586765583,0.0,0.0,0.0,-3.891960609931606,-6.0659070393084145,-5.806848676966345,0.0005553748326537286,-0.0027335414588295372,-1.2780102233047888
15180,13.0,300.11791,51863.554000000004,0.0,-0.07589959845491712,-0.0758985680778429,0.0,0.0,0.0,-3.885453517789406,-6.062722090269085,-5.817049774998115,0.0008983349135637532,-0.00017509774354580184,-1.2668141136748188
15181,13.0,300.02082,51816.818,0.0,-0.075904579953598,-0.07590357028802996,0.0,0.0,0.0,-3.871001227638076,-6.067673032907703,-5.812344545508744,0.002407902837716508,0.004446931976528016,-1.2747320552562589
15182,13.0,299.9505,51819.03599999999,0.0,-0.07590959444233647,-0.07590857249821703,0.0,0.0,0.0,-3.8740295282119463,-6.064694584238754,-5.812969011545374,0.0026601418242355574,0.005055840165822575,-1.2612654548022089
15183,13.0,299.98377999999997,51879.528,0.0,-0.07591457594101736,-0.07591357470840399,0.0,0.0,0.0,-3.886206666588736,-6.072946391728144,-5.810927920543935,0.00037367880445672667,0.0027386639447100876,-1.2702450798384288
15184,13.0,299.94243,51896.46,0.0,-0.07591959042975571,-0.07591857691859116,0.0,0.0,0.0,-3.884460431366396,-6.077256251028494,-5.813511404323904,-0.0033889285447862073,-0.004265639850085876,-1.2707423829875089
15185,13.0,300.01809,51833.319,0.0,-0.07592460491849418,-0.07592357912877812,0.0,0.0,0.0,-3.8822692780251464,-6.070388036550654,-5.803377180798734,-0.008072950810888213,-0.00866802509656747,-1.2826072376834787
15186,13.0,300.16897,51825.367,0.0,-0.07592958641717507,-0.0759285813389653,0.0,0.0,0.0,-3.866914080709706,-6.071390343549574,-5.815313064326714,-0.0029626419673899973,-0.007351704596256754,-1.2744036608988487
15187,13.0,300.21562,51880.068,0.0,-0.07593460090591342,-0.07593358354915225,0.0,0.0,0.0,-3.8824609849440663,-6.073674918550044,-5.814109221882904,-0.00025093182296254276,-0.006345880606239655,-1.280244541100299
15188,13.0,300.22373,51899.893,0.0,-0.07593958240459431,-0.07593858575933943,0.0,0.0,0.0,-3.8847497142699465,-6.0673931732300845,-5.824128745496754,0.006292564500552765,0.002084687505542638,-1.2742972696383488
15189,13.0,300.24795,51843.767,0.0,-0.07594459689333277,-0.0759435879695266,0.0,0.0,0.0,-3.883690665265426,-6.0730301875114145,-5.802489979011174,-0.0048315861338154254,-0.00012506063677252387,-1.2798088435572987
15190,13.0,300.22286,51846.66099999999,0.0,-0.07594957839201366,-0.07594859017971367,0.0,0.0,0.0,-3.8802561527264667,-6.067542323644804,-5.812291755178535,0.004698982397203456,-0.0035080805757205964,-1.2776230604415788
15191,13.0,300.03619,51902.417,0.0,-0.07595459288075213,-0.07595359238990085,0.0,0.0,0.0,-3.893712823329536,-6.073986290305775,-5.8093395496871745,-0.008347625383771482,-0.0012126681561560287,-1.2763225539382288
15192,13.0,300.12505,51913.212999999996,0.0,-0.07595960736949048,-0.0759585946000878,0.0,0.0,0.0,-3.882892730811676,-6.0802519249491445,-5.817175721985545,-0.0013734219057211887,0.0035279912441606265,-1.2803716026628387
15193,13.0,299.96297000000004,51921.112,0.0,-0.07596458886817137,-0.07596356390099734,0.0,0.0,0.0,-3.8904790356353858,-6.073798636387254,-5.818443804485694,-0.012253946787370388,0.0015774050588777586,-1.269353217100409
15194,13.0,300.01079,51919.707,0.0,-0.07596960335690983,-0.07596856611118452,0.0,0.0,0.0,-3.8901564168035465,-6.077524053029924,-5.814614023082725,-0.009648884123995722,0.0069847843422195435,-1.2688421337499687
15195,13.0,299.95254,51908.883,0.0,-0.07597458485559072,-0.07597356832137148,0.0,0.0,0.0,-3.896684280572796,-6.071452253130684,-5.8108678348130045,-0.0036047443312855663,0.002224399596906148,-1.2690528897707687
15196,13.0,300.04595,51960.905999999995,0.0,-0.07597959934432907,-0.07597857053155865,0.0,0.0,0.0,-3.895748746755466,-6.076049166184365,-5.823020148562344,0.01045893674496669,0.0021375217094819683,-1.2767767939580588
15197,13.0,299.9767,51983.529,0.0,-0.07598458084300996,-0.07598357274174561,0.0,0.0,0.0,-3.897581209561317,-6.075577599587824,-5.828535876806704,0.007121768764313852,-0.00015806814030761086,-1.2714600680333388
15198,13.0,300.09921,51925.676,0.0,-0.07598959533174843,-0.07598857495193256,0.0,0.0,0.0,-3.8824523723182165,-6.072665620125434,-5.828990927426615,0.003630332240035897,-0.007776445359300403,-1.2808294903830288
15199,13.0,300.11072,51918.361,0.0,-0.07599457683042932,-0.07599357716211974,0.0,0.0,0.0,-3.887047765496747,-6.075948145149394,-5.818889431879675,-0.0002826264988730637,-0.003739904396574827,-1.2757285867296089
15200,13.0,300.0938,51932.98,0.0,-0.07599959131916767,-0.0759985793723067,0.0,0.0,0.0,-3.8927095030805168,-6.075141091444744,-5.818478660289135,0.0006060171131817324,-0.0013363192201844387,-1.2841487963856189
15201,13.0,300.08078,51915.1,0.0,-0.07600460580790613,-0.07600358158249387,0.0,0.0,0.0,-3.8896652944800763,-6.078935105119184,-5.812293579028715,0.0017001365984404184,-0.0027107126301015075,-1.2773805896926487
15202,13.0,300.15754,51908.584,0.0,-0.07600958730658702,-0.07600858379268105,0.0,0.0,0.0,-3.8859371420621365,-6.084707894913914,-5.808268341681454,0.0002541265397328368,0.0005200063347956294,-1.285448694938909
15203,13.0,300.05593999999996,51971.942,0.0,-0.07601460179532538,-0.07601358600286812,0.0,0.0,0.0,-3.8834263083143363,-6.0842215348659145,-5.830524886753004,0.0027673221025884273,-0.0008010706857245212,-1.275009179158609
15204,13.0,299.84505,51987.850999999995,0.0,-0.07601958329400638,-0.0760185882130553,0.0,0.0,0.0,-3.8819398704176358,-6.090335485969314,-5.830733008323545,0.006450032685343664,0.0024825742025109975,-1.2836772297890788
15205,13.0,299.84699,52008.125,0.0,-0.07602459778274473,-0.07602359042324225,0.0,0.0,0.0,-3.8887318884879565,-6.090425766553224,-5.8300137020775535,0.003771149584608486,0.0003773259880591756,-1.272690356304759
15206,13.0,299.95366,52029.35,0.0,-0.07602957928142562,-0.07602859263342943,0.0,0.0,0.0,-3.8995772109333062,-6.088491674762344,-5.827554341434835,-0.003691602156357767,-0.0012808426626343288,-1.2758948610710186
15207,13.0,299.95602,52002.357,0.0,-0.07603459377016408,-0.0760335948436166,0.0,0.0,0.0,-3.8973713654656064,-6.086639048279504,-5.8234075140755746,-0.008293734258652841,-0.001944657253647728,-1.2681174572784488
15208,13.0,300.23543,51956.549000000006,0.0,-0.07603957526884497,-0.07603856414452592,0.0,0.0,0.0,-3.887093260426236,-6.084261254269834,-5.8221390262753845,-0.005649114817999225,0.0018623106206707481,-1.2810950632342386
15209,13.0,300.3216,51983.562999999995,0.0,-0.07604458975758333,-0.0760435663547131,0.0,0.0,0.0,-3.891041288115876,-6.078720701398024,-5.831943234242985,0.002077143250598078,0.001029648539618399,-1.2733163422165386
15210,13.0,299.93129,52013.193,0.0,-0.07604960424632179,-0.07604856856490028,0.0,0.0,0.0,-3.8946993236268965,-6.084963740564164,-5.831048838379715,0.008004910256073132,-0.0004471459823023726,-1.2836663880130088
15211,13.0,299.96128,51999.674000000006,0.0,-0.07605458574500268,-0.07605357077508723,0.0,0.0,0.0,-3.901020180400716,-6.079353577410485,-5.826228605003995,0.004733412736926465,0.001133515591469279,-1.2767075889762287
15212,13.0,299.91992,52014.547,0.0,-0.07605960023374103,-0.07605857298527441,0.0,0.0,0.0,-3.897257070854326,-6.092237863032064,-5.821628550875004,-0.003705316091161226,0.0006370739278893015,-1.285926948986109
15213,13.0,299.90743,52074.507000000005,0.0,-0.07606458173242192,-0.07606357519546136,0.0,0.0,0.0,-3.9151337410436162,-6.085612119303154,-5.828603967213424,0.0011457440003011289,-0.0025871886276356377,-1.273421922876959
15214,13.0,299.8985,52057.28400000001,0.0,-0.07606959622116038,-0.07606857740564832,0.0,0.0,0.0,-3.891751373785956,-6.095296561108934,-5.837066632048624,-0.002432701829938978,0.0043732460987807855,-1.2792959363566787
15215,13.0,300.06822,51996.344000000005,0.0,-0.07607457771984127,-0.0760735796158355,0.0,0.0,0.0,-3.8861147648046668,-6.089514044113244,-5.8299614183723945,-0.005973023821191555,0.004337685377246216,-1.276982483728359
15216,13.0,299.99469,52019.444,0.0,-0.07607959220857952,-0.07607858182602256,0.0,0.0,0.0,-3.880953978070336,-6.093431471649864,-5.838226499438094,-0.005846926670096734,-0.0009145943555334352,-1.2803320859089387
15217,13.0,300.39988,52009.139,0.0,-0.07608460669731809,-0.07608358403620974,0.0,0.0,0.0,-3.8915471025657964,-6.0896726177538945,-5.828259968804474,-0.005204903947659025,-0.0017120185770630781,-1.2794905817008888
15218,13.0,300.15644,51996.062000000005,0.0,-0.07608958819599898,-0.0760885862463967,0.0,0.0,0.0,-3.8833058328774466,-6.096474970975235,-5.825723499829144,0.006104801454996994,0.002159890218689568,-1.2820718363306387
15219,13.0,300.07903999999996,52018.145,0.0,-0.07609460268473722,-0.07609358845658387,0.0,0.0,0.0,-3.896200251000026,-6.088981885160724,-5.827034949433575,0.01152177429161059,-0.0036897201456220267,-1.2799988279510488
15220,13.0,299.98413,52046.819,0.0,-0.07609958418341833,-0.07609859066677105,0.0,0.0,0.0,-3.887707188661826,-6.098700777469904,-5.8345254007978244,0.006700372942500324,-0.0019040963455196783,-1.2855245873713987
15221,13.0,299.96619,52070.085999999996,0.0,-0.07610459867215669,-0.076103592876958,0.0,0.0,0.0,-3.8961879906738166,-6.094224238528104,-5.837593927400665,0.005139966775250225,-0.008083741215178143,-1.280783691478509
15222,13.0,299.8933,52103.861,0.0,-0.07610958017083758,-0.07610856217786754,0.0,0.0,0.0,-3.9004891360233063,-6.096653404317845,-5.8411302715746745,0.003751637528757796,-0.0016117325537156183,-1.2860097315192787
15223,13.0,300.13018,52121.444,0.0,-0.07611459465957604,-0.07611356438805472,0.0,0.0,0.0,-3.909953601232376,-6.099909787489223,-5.833754216146715,0.002435731751713008,-0.001094264410420489,-1.278835211536209
15224,13.0,300.04935,52075.431,0.0,-0.07611957615825693,-0.07611856659824168,0.0,0.0,0.0,-3.904161357035726,-6.094680910348174,-5.830788331779004,-0.004801345684580925,0.003472961225929587,-1.2836463256610289
15225,13.0,299.78014,52097.087999999996,0.0,-0.07612459064699528,-0.07612356880842885,0.0,0.0,0.0,-3.9072344432640165,-6.090484636384034,-5.8384950107145945,-0.008489042471078262,0.0010080359251179,-1.2679788446647686
15226,13.0,299.94433,52124.973,0.0,-0.07612960513573375,-0.07612857101861581,0.0,0.0,0.0,-3.898472768324307,-6.097766763527725,-5.848450800897154,-0.01030237237926499,0.005485229315024985,-1.2817751567013589
15227,13.0,300.13702,52067.733,0.0,-0.07613458663441464,-0.07613357322880299,0.0,0.0,0.0,-3.894804195012246,-6.092759180208514,-5.8397274268112245,-0.002164447007039288,0.0037402701798609265,-1.2723693586730789
15228,13.0,300.01336000000003,52054.130999999994,0.0,-0.07613960112315288,-0.07613857543899005,0.0,0.0,0.0,-3.891538185964916,-6.098846989459334,-5.832771059574685,-0.003949790846139006,-0.003726542971481156,-1.2877346884895187
15229,13.0,300.09488999999996,52154.142,0.0,-0.07614458262183377,-0.07614357764917701,0.0,0.0,0.0,-3.9135525642625666,-6.097406958417214,-5.842597255069454,-0.006577138628238044,-0.006371020455795764,-1.2713372621212187
15230,13.0,300.151,52160.668,0.0,-0.07614959711057234,-0.07614857985936418,0.0,0.0,0.0,-3.912320350815956,-6.105668493107565,-5.8375518775215145,0.0013318040764138286,-0.0029095996418801273,-1.2904108846536386
15231,13.0,299.93196,52125.724,0.0,-0.07615457860925323,-0.07615358206955114,0.0,0.0,0.0,-3.9024774366945363,-6.104352889177724,-5.838088292124454,0.007210727056843352,-0.0024113176932035276,-1.279172623819509
15232,13.0,300.08606000000003,52124.157999999996,0.0,-0.07615959309799147,-0.07615858427973832,0.0,0.0,0.0,-3.896783477757586,-6.103806240748774,-5.843852671943354,0.005770099210414454,0.007042890587754183,-1.292830221917409
15233,13.0,299.94883,52135.168,0.0,-0.07616457459667259,-0.0761635864899255,0.0,0.0,0.0,-3.8977005704230963,-6.1067442607387346,-5.843344324368185,0.0042480532734002156,0.0009608507728710881,-1.279385912965559
15234,13.0,299.96236,52140.452000000005,0.0,-0.07616958908541094,-0.07616858870011245,0.0,0.0,0.0,-3.9005044360998165,-6.106055149345724,-5.842835774142995,-0.0009789405194239073,0.0050393433396194644,-1.2956134172920886
15235,13.0,300.1338,52187.931,0.0,-0.0761746035741494,-0.07617359091029963,0.0,0.0,0.0,-3.909527529565326,-6.107552834318535,-5.8467476288040645,-0.007305915013637673,0.004799134063587655,-1.2791561078428788
15236,13.0,300.07069,52110.199,0.0,-0.07617958507283029,-0.07617856021120917,0.0,0.0,0.0,-3.898349962412186,-6.103908376358854,-5.837940965559914,-0.004230242059167387,-0.0005008684924718716,-1.2853996536340686
15237,13.0,299.95653,52070.556,0.0,-0.07618459956156876,-0.07618356242139612,0.0,0.0,0.0,-3.885395965183726,-6.097822492283224,-5.844930466074724,-0.007864195047110622,-0.0007725477764695292,-1.2755612991380987
15238,13.0,300.05241,52177.009000000005,0.0,-0.07618958106024942,-0.0761885646315833,0.0,0.0,0.0,-3.897582932086486,-6.108713309658064,-5.854211431690684,-0.0062530976998826935,0.002440870246945138,-1.2836896927653088
15239,13.0,299.91586,52232.519,0.0,-0.076194595548988,-0.07619356684177025,0.0,0.0,0.0,-3.9104363135800164,-6.105541431545024,-5.861403784875515,0.006233091988583284,0.0006778093582145753,-1.2774059209451487
15240,13.0,299.78497999999996,52170.153,0.0,-0.07619957704766889,-0.07619856905195743,0.0,0.0,0.0,-3.9110556120411366,-6.106496926389324,-5.840871183524103,0.003352925742233007,0.0019288629137389484,-1.2862383207418386
15241,13.0,299.92965,52182.876,0.0,-0.07620459153640713,-0.07620357126214461,0.0,0.0,0.0,-3.9230983934546666,-6.103093925928474,-5.836098876878115,0.013575492415796787,-0.004485331014242706,-1.280829287733009
15242,13.0,299.95949,52238.715,0.0,-0.0762096060251457,-0.07620857347233168,0.0,0.0,0.0,-3.9215540989772566,-6.107895110202315,-5.849815750106865,0.003850859234200216,-0.002371068663456258,-1.2836130910577488
15243,13.0,300.06257,52244.157,0.0,-0.0762145875238266,-0.07621357568251863,0.0,0.0,0.0,-3.919264964351336,-6.106382327803015,-5.855271899245345,0.0012146505799766787,0.00027104854594290874,-1.2815931769833988
15244,13.0,299.97084,52223.613,0.0,-0.07621960201256484,-0.07621857789270581,0.0,0.0,0.0,-3.9036179510070963,-6.1077618678141645,-5.863294408237104,-0.005124612996484925,-0.0008042315295439721,-1.2821559360889385
15245,13.0,300.11122,52179.39,0.0,-0.07622458351124572,-0.07622358010289276,0.0,0.0,0.0,-3.9046495409339066,-6.1052112133374346,-5.851370785035335,0.0013589838010712588,0.004073522159575336,-1.2803103010317887
15246,13.0,300.03192,52166.18,0.0,-0.07622959799998419,-0.07622858231307994,0.0,0.0,0.0,-3.9020478186521363,-6.105245258540794,-5.849922951967445,-0.0033938784741747267,0.0018137459486777883,-1.2856638079351388
15247,13.0,300.04141,52204.332,0.0,-0.07623457949866519,-0.0762335845232669,0.0,0.0,0.0,-3.918275930928726,-6.108139404801424,-5.8423981514248045,0.002929892913557917,0.0001016348517480789,-1.285402592059359
15248,13.0,299.81246,52238.174000000006,0.0,-0.07623959398740365,-0.07623858673345407,0.0,0.0,0.0,-3.9046815596370665,-6.118174735116834,-5.856244214041304,-0.0015202089145829386,-9.242204037359522e-06,-1.2822711426253088
15249,13.0,300.07711,52242.71,0.0,-0.07624457548608454,-0.07624358894364103,0.0,0.0,0.0,-3.907659400355956,-6.121853744904923,-5.8509662955954145,0.008000859890123392,-0.005195216770077975,-1.2844923894945288
15250,13.0,299.88721,52223.397000000004,0.0,-0.076249589974823,-0.0762485911538282,0.0,0.0,0.0,-3.8972007341487664,-6.121078203278385,-5.856329934999764,-0.0002834142501633087,-0.0013082591838401289,-1.2848086248507387
15251,13.0,299.8523,52303.274000000005,0.0,-0.07625460446356136,-0.07625356045473775,0.0,0.0,0.0,-3.9196465543389962,-6.123870213928934,-5.855372616305285,0.0021390355051313682,-0.002275389280363438,-1.2878192948728688
15252,13.0,299.91906,52333.197,0.0,-0.07625958596224225,-0.0762585626649247,0.0,0.0,0.0,-3.922236421594596,-6.121724758167194,-5.864024049634115,-0.0017162095821266984,0.0004884589347871435,-1.2817043305193687
15253,13.0,299.87298,52254.637,0.0,-0.07626460045098071,-0.07626356487511188,0.0,0.0,0.0,-3.924153490783796,-6.115216652774894,-5.844734706155404,-0.002030639833283548,-0.005536690767728834,-1.2888005262697089
15254,13.0,299.78739,52256.90900000001,0.0,-0.07626958194966138,-0.07626856708529905,0.0,0.0,0.0,-3.9136574356479166,-6.113219840802824,-5.857918103206504,0.003984888917677916,-0.001078357802400629,-1.2850480558493689
15255,13.0,299.95358,52263.754,0.0,-0.07627459643839984,-0.07627356929548612,0.0,0.0,0.0,-3.9177522832770464,-6.110608188670074,-5.858515718115485,0.0027926897307670173,0.003368205655066017,-1.286551313697729
15256,13.0,299.89217,52242.192,0.0,-0.07627957793708084,-0.0762785715056733,0.0,0.0,0.0,-3.9071836794340062,-6.114212623250804,-5.858925476455925,0.0015381514460287287,0.010082594379574589,-1.282369630535029
15257,13.0,299.96398,52281.638,0.0,-0.07628459242581909,-0.07628357371586025,0.0,0.0,0.0,-3.919051168580236,-6.114023753432164,-5.859237354836704,-0.007027698017079793,0.0033861665263386167,-1.2872698093436388
15258,13.0,300.14309,52319.734000000004,0.0,-0.07628957392449998,-0.07628857592604743,0.0,0.0,0.0,-3.922718019367126,-6.123157899108635,-5.858016793766245,-0.005493932018808875,0.002322277023440898,-1.2843435430548387
15259,13.0,300.02234,52276.462,0.0,-0.07629458841323844,-0.07629357813623439,0.0,0.0,0.0,-3.9167687214049764,-6.1186466056884035,-5.855323777650464,-0.002197126551914508,-0.002882710922651417,-1.2851093574804187
15260,13.0,300.12507,52323.295,0.0,-0.07629960290197679,-0.07629858034642134,0.0,0.0,0.0,-3.9150598751113264,-6.123045225697514,-5.866870167840004,0.0014536281491869286,-0.0003552922060221107,-1.2809745877973489
15261,13.0,300.01481,52352.259000000005,0.0,-0.07630458440065768,-0.07630358255660852,0.0,0.0,0.0,-3.914431660049326,-6.130240010682584,-5.869107930685854,0.0014137249416987887,-0.00930692548882203,-1.2829551877678187
15262,13.0,299.95001,52295.779,0.0,-0.07630959888939615,-0.07630858476679547,0.0,0.0,0.0,-3.9072773037432458,-6.124852965200924,-5.864480721454185,0.006085452329762385,-0.007616202287785643,-1.2852630675205887
15263,13.0,299.85502,52265.562000000005,0.0,-0.07631458038807726,-0.07631358697698265,0.0,0.0,0.0,-3.909379088425676,-6.125737228563194,-5.852309358602964,0.002215312466034318,0.0008174603809945583,-1.2934211493757288
15264,13.0,299.79979,52314.519,0.0,-0.07631959487681561,-0.07631858918716983,0.0,0.0,0.0,-3.9159977394038856,-6.126045965868664,-5.860263675862995,0.006583348128825874,0.0027398367817008376,-1.2901098480489288
15265,13.0,300.06875,52307.309,0.0,-0.0763245763754965,-0.07632355848807926,0.0,0.0,0.0,-3.917845502286246,-6.122555623249194,-5.859714494308794,-0.008659522509678332,0.0014534847742977786,-1.295581905213979
15266,13.0,300.16056000000003,52305.084,0.0,-0.07632959086423496,-0.07632856069826632,0.0,0.0,0.0,-3.907317023147167,-6.126334742147165,-5.865787814083185,-0.0061549134612176645,0.001200382093393489,-1.2912130747578088
15267,13.0,299.96946,52346.705,0.0,-0.0763346053529732,-0.0763335629084535,0.0,0.0,0.0,-3.9145718938631666,-6.128801702165635,-5.868717626747335,-0.003354067472445687,0.005685262819291754,-1.2877308381391386
15268,13.0,300.15492,52373.524000000005,0.0,-0.0763395868516541,-0.07633856511864057,0.0,0.0,0.0,-3.9190751826076062,-6.125790930818494,-5.875377415679604,0.0018418800536044084,0.006249139235717025,-1.281712335195159
15269,13.0,299.94331,52354.692,0.0,-0.07634460134039267,-0.07634356732882774,0.0,0.0,0.0,-3.918739695499496,-6.1303891610973045,-5.865390316068954,0.0014159617926195486,-0.0024312795307736075,-1.2927848283129286
15270,13.0,299.94436,52387.949,0.0,-0.07634958283907334,-0.0763485695390147,0.0,0.0,0.0,-3.9285389385416063,-6.124988538064303,-5.8711008923075445,0.0007753769733987492,-0.0015295428731791287,-1.2834782274694387
15271,13.0,299.92067000000003,52428.483,0.0,-0.0763545973278118,-0.07635357174920188,0.0,0.0,0.0,-3.931944776102736,-6.1354933071510445,-5.869511710850704,0.00038924222466771665,2.8793467296693975e-05,-1.2890407678684186
15272,13.0,299.67766,52351.801,0.0,-0.07635957882649269,-0.07635857395938905,0.0,0.0,0.0,-3.916626055790896,-6.124963308136814,-5.8720507129512844,-0.0004921674504181454,-0.0014502000201235985,-1.279146887266969
15273,13.0,299.94137,52365.544,0.0,-0.07636459331523104,-0.07636357616957601,0.0,0.0,0.0,-3.920939968091646,-6.1301721229258845,-5.866705616023764,-0.004511909577615806,-0.005916895439852114,-1.288632833378159
15274,13.0,299.97108,52400.272000000004,0.0,-0.07636957481391193,-0.07636857837976296,0.0,0.0,0.0,-3.9246780503605665,-6.127160439653654,-5.876535864518934,-0.0024398865837480578,-0.0062995705170442035,-1.2809728652721788
15275,13.0,299.99262999999996,52366.19,0.0,-0.0763745893026504,-0.07637358058995014,0.0,0.0,0.0,-3.9292459844613856,-6.128430649979014,-5.860337643120294,-0.0016112778070707383,0.0024552782580670976,-1.291123908749009
15276,13.0,300.17598,52383.217000000004,0.0,-0.07637960379138875,-0.0763785828001371,0.0,0.0,0.0,-3.9238730231561165,-6.130397571073135,-5.868919364842244,-0.00040795266796679364,0.00027114696292512174,-1.2871521710070288
15277,13.0,300.05048,52415.192,0.0,-0.07638458529006975,-0.07638358501032427,0.0,0.0,0.0,-3.9342108086263763,-6.132715887301934,-5.865982864727435,0.004948504454904365,-0.004115059942124796,-1.2974250071458788
15278,13.0,300.08776,52408.0,0.0,-0.0763895997788081,-0.07638858722051134,0.0,0.0,0.0,-3.920053678229176,-6.130898825897604,-5.879770766788194,-0.0001972852052255338,-0.0012365260416856189,-1.2852418905934988
15279,13.0,300.13267,52399.871,0.0,-0.07639458127748922,-0.07639355652142088,0.0,0.0,0.0,-3.9192708412019166,-6.139221763544015,-5.869759754475185,0.01041425038905649,0.0023943991523087977,-1.2980805799605788
15280,13.0,299.95038999999997,52407.356,0.0,-0.07639959576622746,-0.07639855873160795,0.0,0.0,0.0,-3.9121278332969567,-6.135466050723354,-5.882933728300354,0.0022443761266026777,-0.0013842542585652587,-1.2880361303942687
15281,13.0,300.13807,52410.769,0.0,-0.07640457726490835,-0.07640356094179501,0.0,0.0,0.0,-3.9264023993807458,-6.138984460370594,-5.866178219346715,0.0026896992415776475,-0.0028523200057770674,-1.2982937677816189
15282,13.0,300.15985,52377.723,0.0,-0.07640959175364692,-0.07640856315198219,0.0,0.0,0.0,-3.9135108183584464,-6.137913455014894,-5.870095748208344,-0.0008117932326552543,-0.007764719623843163,-1.2881697780824588
15283,13.0,299.91956,52411.109000000004,0.0,-0.07641457325232759,-0.07641356536216914,0.0,0.0,0.0,-3.9276898349578064,-6.134807640808374,-5.869171056167085,-0.002918569134415347,0.006468083026600093,-1.2930166599358088
15284,13.0,299.74396,52463.585999999996,0.0,-0.07641958774106605,-0.07641856757235632,0.0,0.0,0.0,-3.9235752289517256,-6.1368609921360235,-5.887183907169815,-2.851651969986137e-05,0.00014177655804475687,-1.2821037537087887
15285,13.0,299.76883,52440.727999999996,0.0,-0.07642460222980452,-0.0764235697825435,0.0,0.0,0.0,-3.926430567733526,-6.141138832733215,-5.873102567880094,0.0011699825638932888,-0.003436549982261077,-1.2927522016597088
15286,13.0,300.00346,52451.777,0.0,-0.0764295837284853,-0.07642857199273045,0.0,0.0,0.0,-3.928114994699766,-6.134476612000704,-5.881438677777804,-4.086009251157716e-05,0.00014257215189077588,-1.2841896303646487
15287,13.0,300.16487,52494.58900000001,0.0,-0.07643459821722376,-0.07643357420291763,0.0,0.0,0.0,-3.945025530918706,-6.139671241288374,-5.872347696555594,0.00023137206329714477,0.003959386527236026,-1.2942839318358788
15288,13.0,300.15963999999997,52464.88,0.0,-0.07643957971590465,-0.07643857641310459,0.0,0.0,0.0,-3.932583630290786,-6.136311405281784,-5.879118335048804,-0.0030691657610030774,0.0028831207823168674,-1.2884966525647188
15289,13.0,300.10045,52474.04,0.0,-0.076444594204643,-0.07644357862329176,0.0,0.0,0.0,-3.9341600447963665,-6.1406379832087845,-5.875999855216035,-0.005218361732837205,0.00099290161632426,-1.2942395514814988
15290,13.0,300.01389,52501.225,0.0,-0.076449575703324,-0.07644858083347883,0.0,0.0,0.0,-3.934730808577696,-6.135754320376804,-5.888576214132224,0.004556240688040946,-0.00041436585208972564,-1.2819562244942289
15291,13.0,299.95634,52445.314000000006,0.0,-0.07645459019206235,-0.07645358304366578,0.0,0.0,0.0,-3.923840700477926,-6.1392275390695845,-5.878997555636885,0.006074505378332005,0.001142978942103239,-1.2959457633248888
15292,13.0,300.05264,52467.499,0.0,-0.07645960468080071,-0.07645858525385296,0.0,0.0,0.0,-3.925788775120186,-6.144024670343025,-5.878996238411754,0.00973597945489136,-0.001853962351771838,-1.2901994193577688
15293,13.0,299.99122,52536.102999999996,0.0,-0.07646458617948171,-0.0764635545547625,0.0,0.0,0.0,-3.9422590541706763,-6.150457997877944,-5.876946534784464,0.0004569395815414256,-0.005881696043303204,-1.295651616820859
15294,13.0,300.02336,52494.259000000005,0.0,-0.07646960066822017,-0.07646855676494957,0.0,0.0,0.0,-3.9249979334171363,-6.152777530006865,-5.879168389603745,0.005213440782401545,0.002215919301519208,-1.2860346574717387
15295,13.0,299.90323,52420.304000000004,0.0,-0.07647458216690117,-0.07647355897513664,0.0,0.0,0.0,-3.9166401399672863,-6.143978770113494,-5.873844570928324,-0.0038027730189044763,0.005079942143301255,-1.2966003228894887
15296,13.0,300.07176,52493.541,0.0,-0.07647959665563941,-0.07647856118532359,0.0,0.0,0.0,-3.918757528701257,-6.1507002659768535,-5.887268006928115,-0.0068563306753671545,-0.0013442532724424689,-1.2906033008476288
15297,13.0,299.80876,52535.069,0.0,-0.0764845781543203,-0.07648356339551077,0.0,0.0,0.0,-3.9293383928705063,-6.153189618822534,-5.8868210623090045,-0.00996323676019491,-0.003998272634273786,-1.298169543319359
15298,13.0,299.88088,52508.217000000004,0.0,-0.07648959264305877,-0.07648856560569794,0.0,0.0,0.0,-3.929168977453786,-6.146054210293324,-5.885963548749374,0.0029081680208138372,-0.0004507220458803026,-1.2934464806282289
15299,13.0,299.96469,52532.018,0.0,-0.07649457414173955,-0.0764935678158849,0.0,0.0,0.0,-3.9419649076666463,-6.146382503325724,-5.8800742351931445,0.004890753556179795,0.007624247088279602,-1.3001273451625788
15300,13.0,300.07468,52559.136,0.0,-0.07649958863047801,-0.07649857002607208,0.0,0.0,0.0,-3.9369183142185857,-6.150856914442315,-5.888889612388154,0.0076631740292963935,-0.0003400592269337327,-1.2954269792736886
15301,13.0,300.04661,52549.818,0.0,-0.07650460311921647,-0.07650357223625903,0.0,0.0,0.0,-3.9471721012555565,-6.146218964759584,-5.880441335704374,-0.0015314910491463986,-1.0151025238328192e-05,-1.2917827239640287
15302,13.0,300.13457999999997,52581.420999999995,0.0,-0.07650958461789725,-0.07650857444644621,0.0,0.0,0.0,-3.9351421881182964,-6.1457985672930935,-5.902498270506224,0.0026313870022976775,0.0007718080836315272,-1.286016520294949
15303,13.0,300.00685,52584.407,0.0,-0.07651459910663572,-0.07651357665663339,0.0,0.0,0.0,-3.9431651024100964,-6.147333337219564,-5.893848154402524,-0.0005143149191164305,0.0008511340660728923,-1.2864181726345887
15304,13.0,299.93591000000004,52535.253,0.0,-0.0765195806053166,-0.07651857886682045,0.0,0.0,0.0,-3.935448392298516,-6.148108777521094,-5.885848038237974,-0.0013178351065601987,-0.009851281034120741,-1.2908044309924787
15305,13.0,299.93044,52585.992999999995,0.0,-0.07652459509405485,-0.07652358107700741,0.0,0.0,0.0,-3.9464677911110466,-6.1528545370144645,-5.885506572954275,-0.0017087980629452383,-0.006901321006307354,-1.2923800348979788
15306,13.0,299.94263,52622.5,0.0,-0.07652957659273596,-0.07652858328719458,0.0,0.0,0.0,-3.939056373254596,-6.157485596596515,-5.899384248973894,-0.004829208035830725,0.0027714405589448874,-1.2902148207592885
15307,13.0,299.78942,52555.378,0.0,-0.07653459108147442,-0.07653358549738154,0.0,0.0,0.0,-3.935314744610326,-6.154944567995734,-5.885263392930274,0.0005829832431634665,0.0004480020469143596,-1.2920560988410088
15308,13.0,299.84401,52514.873,0.0,-0.07653957258015542,-0.0765385547982913,0.0,0.0,0.0,-3.914580405164006,-6.155263944427253,-5.893365847354924,-0.0014385711513759188,0.00040958134591253164,-1.2970834405371687
15309,13.0,299.8907,52575.775,0.0,-0.07654458706889367,-0.07654355700847826,0.0,0.0,0.0,-3.936615859063736,-6.156578433781984,-5.888528388727504,-0.0006363967931124734,0.0007678934931951872,-1.3002260357223188
15310,13.0,299.79458999999997,52586.178,0.0,-0.07654960155763213,-0.07654855921866521,0.0,0.0,0.0,-3.9322037628282964,-6.154513227428164,-5.898167842228845,0.007532688188043442,0.0013283196106449388,-1.2970307515319688
15311,13.0,299.98116,52584.975,0.0,-0.07655458305631302,-0.07655356142885239,0.0,0.0,0.0,-3.9383144715313763,-6.154101341262514,-5.892103439055335,0.0016652391504213084,0.0001337933226268729,-1.3017249365952488
15312,13.0,299.87484,52632.307,0.0,-0.07655959754505137,-0.07655856363903935,0.0,0.0,0.0,-3.938088212784046,-6.159735721093584,-5.901083165416565,-0.0004654010912715116,-0.003977721794420576,-1.3017267604454288
15313,13.0,299.84962,52582.237,0.0,-0.07656457904373226,-0.07656356584922652,0.0,0.0,0.0,-3.943359443779276,-6.146163742629135,-5.894163781808674,0.004838827123005055,0.0005411046235453686,-1.2944277120250687
15314,13.0,299.97359,52563.670999999995,0.0,-0.07656959353247073,-0.07656856805941348,0.0,0.0,0.0,-3.930038650014616,-6.154853375486735,-5.893151443633765,0.003130986378754297,0.00998580214389694,-1.2997260981229788
15315,13.0,300.13206,52630.944,0.0,-0.0765745750311515,-0.07657357026960065,0.0,0.0,0.0,-3.949095553920386,-6.152875409966524,-5.896521716116385,0.006374579091471973,0.0024504879155693277,-1.2930620535402886
15316,13.0,299.93702,52681.345,0.0,-0.07657958951988997,-0.07657857247978783,0.0,0.0,0.0,-3.9493219139927263,-6.162907396556603,-5.901584116266004,-0.007235279423991483,-0.0018028140946738983,-1.296305669760409
15317,13.0,299.96009,52638.75,0.0,-0.07658460400862843,-0.0765835746899749,0.0,0.0,0.0,-3.944728648639406,-6.162346157326215,-5.893790905771874,-0.0034795906173588566,0.001362868399304639,-1.2883580399510388
15318,13.0,300.0029,52650.862,0.0,-0.0765895855073091,-0.07658857690016208,0.0,0.0,0.0,-3.9415773395033957,-6.161641847181704,-5.901328067965735,-0.00830681014986833,0.0024694110704618975,-1.2861476348578886
15319,13.0,300.0818,52702.920999999995,0.0,-0.07659459999604767,-0.07659357911034903,0.0,0.0,0.0,-3.9503060838148567,-6.164196453333824,-5.905869556238944,-0.006282045140664584,0.0009284870175220343,-1.2850805811775787
15320,13.0,299.89758,52699.905999999995,0.0,-0.07659958149472867,-0.07659858132053621,0.0,0.0,0.0,-3.9425148998209263,-6.172756491503634,-5.904184014697595,-0.0035388156936539163,-0.0067547785960197435,-1.2955303307838888
15321,13.0,300.19316000000003,52677.958,0.0,-0.07660459598346703,-0.07660358353072316,0.0,0.0,0.0,-3.951851087567336,-6.164610062024644,-5.896322713796745,0.008192676341379202,0.002872135631357717,-1.296184586373459
15322,13.0,300.19466,52668.861,0.0,-0.07660957748214792,-0.0766085528316327,0.0,0.0,0.0,-3.9474959359875164,-6.165352470372914,-5.897170297505395,0.010855798438133888,0.0044920639598321965,-1.3027852014998886
15323,13.0,300.07581,52626.212999999996,0.0,-0.07661459197088638,-0.07661355504181988,0.0,0.0,0.0,-3.9475184301397364,-6.154883367689695,-5.894652877631945,0.011295589511537888,-0.004276380503795896,-1.2982423960015488
15324,13.0,300.06655,52631.844000000005,0.0,-0.07661957346956727,-0.07661855725200684,0.0,0.0,0.0,-3.9370313929297462,-6.162766554792704,-5.898968512457865,0.0023292971241087278,-0.004025448913880876,-1.3070872587744689
15325,13.0,299.89945,52671.76,0.0,-0.07662458795830562,-0.07662355946219401,0.0,0.0,0.0,-3.9388098495052666,-6.168820825465215,-5.903269049857295,0.002389868809786688,0.0018307547701564282,-1.3022430113713788
15326,13.0,299.90681,52632.172999999995,0.0,-0.07662960244704409,-0.07662856167238097,0.0,0.0,0.0,-3.9297122821574066,-6.168003740584574,-5.901150445223204,-0.0010868693058906488,0.004828811247091566,-1.3098154346687187
15327,13.0,299.92548,52679.552,0.0,-0.07663458394572498,-0.07663356388256803,0.0,0.0,0.0,-3.9467259672365262,-6.170267341307974,-5.896275293692065,-0.008616613698418561,-0.0077518985650278215,-1.299007197177029
15328,13.0,299.81043999999997,52779.028,0.0,-0.07663959843446333,-0.0766385660927551,0.0,0.0,0.0,-3.951458351828576,-6.177155719462804,-5.914892447054434,-0.006162622977253535,-0.0035196904966914066,-1.3020221228495787
15329,13.0,299.92505,52774.15,0.0,-0.07664457993314422,-0.07664356830294228,0.0,0.0,0.0,-3.9538621863658165,-6.175413131940824,-5.912748409842835,-0.0017647727342445085,0.004434352881836556,-1.2869570190377688
15330,13.0,300.15764,52687.944,0.0,-0.07664959442188268,-0.07664857051312934,0.0,0.0,0.0,-3.9314710816809866,-6.170734956229124,-5.913613421453204,0.004688851821378646,0.00892614701316712,-1.293834352766509
15331,13.0,299.91418999999996,52709.793,0.0,-0.07665457592056335,-0.07665357272331652,0.0,0.0,0.0,-3.946134026528106,-6.163571176697114,-5.912755705243554,-0.003865232592168756,-0.002100347589813168,-1.2839163568126788
15332,13.0,300.02697,52755.608,0.0,-0.07665959040930193,-0.07665857493350348,0.0,0.0,0.0,-3.954625467666146,-6.173269804004295,-5.908492252797784,0.0013707324359807588,0.004705903807311546,-1.297041289333009
15333,13.0,299.83623,52724.606,0.0,-0.07666457190798293,-0.07666357714369065,0.0,0.0,0.0,-3.9623030663238663,-6.164906539003904,-5.899754186585404,0.005273752670753865,0.003754447777910147,-1.2954875716296685
15334,13.0,299.74951,52717.842000000004,0.0,-0.07666958639672128,-0.07666857935387783,0.0,0.0,0.0,-3.9476331300510563,-6.170982898528594,-5.906291473580585,0.005709162957350515,0.002932191674059787,-1.306398654006509
15335,13.0,299.82387,52743.612,0.0,-0.07667460088545952,-0.07667358156406479,0.0,0.0,0.0,-3.958348249858556,-6.168213483355274,-5.906179104144494,0.0006499231449249203,-0.011422529484065889,-1.2929029732745887
15336,13.0,299.81055,52741.12,0.0,-0.07667958238414063,-0.07667855086497433,0.0,0.0,0.0,-3.944697136561296,-6.170134301569844,-5.917152298752464,0.004360179529466216,-0.0036728885415858764,-1.3039545934402987
15337,13.0,299.90642,52774.27099999999,0.0,-0.07668459687287899,-0.0766835530751615,0.0,0.0,0.0,-3.955997610951566,-6.1777802868244445,-5.908282712677104,0.002938318594764467,0.006847892227209343,-1.2982351006008288
15338,13.0,300.01992,52797.795,0.0,-0.07668957837155987,-0.07668855528534846,0.0,0.0,0.0,-3.952302490486886,-6.180551728497964,-5.916357100073985,-0.002002064964563428,0.0021258499802550576,-1.302951577166309
15339,13.0,300.04346,52764.357,0.0,-0.07669459286029834,-0.07669355749553564,0.0,0.0,0.0,-3.956294493230866,-6.178689678789194,-5.904062728660624,-0.0031207617733202075,-0.002955074711668167,-1.2951017259915887
15340,13.0,299.88056,52760.205,0.0,-0.07669957435897923,-0.07669855970572259,0.0,0.0,0.0,-3.9444396697108863,-6.186676116077394,-5.906669213217865,-0.005380351647524364,0.004220811031211616,-1.3045947648534788
15341,13.0,300.07124,52770.04,0.0,-0.07670458884771758,-0.07670356191590966,0.0,0.0,0.0,-3.948060620268246,-6.176486569096764,-5.916227404061185,-0.004362517806721986,-0.0009477165995098461,-1.2925278680875687
15342,13.0,300.00411,52736.240999999995,0.0,-0.07670960333645604,-0.07670856412609672,0.0,0.0,0.0,-3.9334340510997166,-6.1848898574761035,-5.912176632811404,-0.004331423491628216,-0.0035614102589588267,-1.3027764875490289
15343,13.0,300.11441,52745.155,0.0,-0.07671458483513693,-0.07671356633628379,0.0,0.0,0.0,-3.9464697162862357,-6.175350614409654,-5.9113897427837445,0.0024779596589055777,-0.005808711435950184,-1.2963177274365987
15344,13.0,300.14761,52826.737,0.0,-0.07671959932387518,-0.07671856854647097,0.0,0.0,0.0,-3.960357220831826,-6.182609943426094,-5.915041597469154,0.006410062603348924,0.004798596737059626,-1.3073518183755788
15345,13.0,300.13331,52867.507000000005,0.0,-0.07672458082255618,-0.07672357075665792,0.0,0.0,0.0,-3.972622613292326,-6.183422975306335,-5.914356437751534,0.005092036904444915,0.006735201793487663,-1.2980841263359288
15346,13.0,299.80767000000003,52812.435999999994,0.0,-0.07672959531129464,-0.0767285729668451,0.0,0.0,0.0,-3.9572666053768066,-6.176430941666274,-5.919964270429984,0.0011737846835685288,0.002464131125515808,-1.3042894725983487
15347,13.0,300.02692,52834.502,0.0,-0.07673457680997553,-0.07673357517703228,0.0,0.0,0.0,-3.9601278210091864,-6.180768260044334,-5.919473249431524,-0.0005869403394415014,-0.0035787627748713868,-1.2893682503007386
15348,13.0,299.98255,52861.83,0.0,-0.07673959129871377,-0.07673857738721923,0.0,0.0,0.0,-3.959576005004726,-6.179776389521444,-5.929323965578715,-0.002755554317252037,0.0003152156922368667,-1.2976876415717988
15349,13.0,299.95195,52815.117999999995,0.0,-0.07674457279739488,-0.07674357959740641,0.0,0.0,0.0,-3.958926005065576,-6.176363357884604,-5.919187614228335,-0.0022288972114500277,-0.0026595653862536675,-1.294263666833879
15350,13.0,300.16776,52784.03599999999,0.0,-0.07674958728613324,-0.07674858180759336,0.0,0.0,0.0,-3.9520344858354366,-6.181772289568424,-5.911222049892195,-0.005919038362488605,-0.007207807174030182,-1.3023602444079487
15351,13.0,299.93204,52835.367,0.0,-0.07675460177487148,-0.0767535511085029,0.0,0.0,0.0,-3.955462716223776,-6.183243832688653,-5.9219259226235845,0.005743764131040385,-0.0035710324872084667,-1.2954926378801688
15352,13.0,300.0699,52849.630999999994,0.0,-0.07675958327355259,-0.07675855331869008,0.0,0.0,0.0,-3.950471547556186,-6.192478999400095,-5.922017520432624,0.0051401830028215655,0.00098063166423831,-1.3081934239086388
15353,13.0,300.01043,52827.996,0.0,-0.07676459776229083,-0.07676355552887704,0.0,0.0,0.0,-3.946350254099446,-6.190745835104044,-5.921295579736374,0.004845869008550036,-0.0002628678990080418,-1.3007056069946488
15354,13.0,299.74422999999996,52807.852999999996,0.0,-0.07676957926097183,-0.07676855773906421,0.0,0.0,0.0,-3.9416244556330464,-6.187036529137964,-5.923607613814554,-0.006824139821015164,-0.007861752810394593,-1.3062170795885886
15355,13.0,299.77738999999997,52831.972,0.0,-0.0767745937497103,-0.07677355994925128,0.0,0.0,0.0,-3.956155475317146,-6.187088812843124,-5.916355985498874,-0.003253414855212047,-0.005102464463874035,-1.2997563943009687
15356,13.0,299.83249,52879.139,0.0,-0.07677957524839119,-0.07677856215943835,0.0,0.0,0.0,-3.9626673297348165,-6.190060168761374,-5.921210466727974,-0.0008475421349983962,-0.00016353619513476586,-1.3096303138754488
15357,13.0,299.80384,52907.289000000004,0.0,-0.07678458973712943,-0.07678356436962541,0.0,0.0,0.0,-3.970446962677606,-6.188520231259394,-5.923527465731644,0.0001141470516679369,0.002299031951571788,-1.3017499638727186
15358,13.0,299.98568,52862.317,0.0,-0.07678957123581032,-0.07678856657981237,0.0,0.0,0.0,-3.9526806354242066,-6.1874284542766445,-5.928715407568654,-0.0009635729807222491,0.000871397740715261,-1.3063457623512886
15359,13.0,300.08015,52835.642,0.0,-0.07679458572454889,-0.07679356878999954,0.0,0.0,0.0,-3.952082817865206,-6.182114058827153,-5.926518985326885,0.0034152944269633173,0.005972275333342683,-1.298086456811159
15360,13.0,300.03128,52922.577000000005,0.0,-0.07679960021328713,-0.07679857100018672,0.0,0.0,0.0,-3.955569816759346,-6.197928663737934,-5.933643552080024,7.316294443687043e-05,0.004742980654970746,-1.3057831045707589
15361,13.0,300.01126,52939.889,0.0,-0.07680458171196802,-0.07680357321037368,0.0,0.0,0.0,-3.9794849509195864,-6.1896632786972035,-5.923256016029854,0.0015860442318803786,-0.007051217578400994,-1.300594250808659
15362,13.0,299.81707,52876.473,0.0,-0.0768095962007066,-0.07680857542056085,0.0,0.0,0.0,-3.9606347500342163,-6.192186170121194,-5.920306647638774,-0.007642066104538202,-0.0053257058537312454,-1.3064692775384787
15363,13.0,299.94847999999996,52886.401,0.0,-0.07681457769938749,-0.07681357763074781,0.0,0.0,0.0,-3.9714499789515965,-6.1930404412805045,-5.911654809009904,-0.004552102068007496,0.004678073474764905,-1.3033687322324787
15364,13.0,299.95257999999995,52954.134000000005,0.0,-0.07681959218812573,-0.07681857984093499,0.0,0.0,0.0,-3.9637398549656666,-6.198644727583604,-5.9343499900497445,0.001162550070434759,0.006183838610497354,-1.3008830270871587
15365,13.0,300.20004,52965.069,0.0,-0.07682457368680684,-0.07682354914184453,0.0,0.0,0.0,-3.9676245545240567,-6.201345849700184,-5.931087932677804,-3.082969672415417e-05,0.004203587400711776,-1.2940697307647386
15366,13.0,300.20313,52935.450999999994,0.0,-0.07682958817554508,-0.07682855135203148,0.0,0.0,0.0,-3.955575186984876,-6.197276839948604,-5.9382033801800445,0.005605666957686255,-0.000934740746476729,-1.298954305521809
15367,13.0,299.97398,52939.79,0.0,-0.07683460266428366,-0.07683355356221866,0.0,0.0,0.0,-3.9753299162345166,-6.191779958156104,-5.925264277728054,0.007233710710186664,0.0008553791280293474,-1.298352434962409
15368,13.0,300.07436,52961.412000000004,0.0,-0.07683958416296455,-0.07683855577240584,0.0,0.0,0.0,-3.9678267992440164,-6.196508188422745,-5.934611813875584,0.0013814104708345988,-0.0014563575409812983,-1.3119798382073287
15369,13.0,300.01946,52963.075999999994,0.0,-0.07684459865170279,-0.0768435579825929,0.0,0.0,0.0,-3.9741035796384865,-6.193254541026635,-5.932094495327144,0.0015113503729336686,-0.009793237610092301,-1.3091509452531387
15370,13.0,299.91739,52943.355,0.0,-0.07684958015038368,-0.07684856019278008,0.0,0.0,0.0,-3.9631313982806167,-6.192657230092684,-5.937669397377344,0.0025810861262583677,-0.00016624801717240182,-1.3106749747285487
15371,13.0,299.86881,52925.34,0.0,-0.07685459463912225,-0.07685356240296704,0.0,0.0,0.0,-3.9648574698259664,-6.191593418812694,-5.931530824296514,-0.0012198428787891188,0.005201575623730545,-1.3047540477691988
15372,13.0,299.87374,52945.75,0.0,-0.07685957613780314,-0.07685856461315421,0.0,0.0,0.0,-3.9594822793704756,-6.197195678615594,-5.937507986636414,0.0006110436544103135,-0.0010091510980454591,-1.3062943905712188
15373,13.0,299.98787999999996,53033.405,0.0,-0.07686459062654138,-0.07686356682334117,0.0,0.0,0.0,-3.982950063611566,-6.204260767587864,-5.933620044677704,-0.002655986384250448,-0.002944501446874667,-1.3011130348598587
15374,13.0,300.09488999999996,53038.376,0.0,-0.07686957212522227,-0.07686856903352812,0.0,0.0,0.0,-3.975029994204916,-6.205360954546443,-5.941951088324914,0.011356909381089688,6.137034257903124e-05,-1.300509847075329
15375,13.0,300.10298,52975.797,0.0,-0.07687458661396074,-0.0768735712437153,0.0,0.0,0.0,-3.969950774103636,-6.201939715583793,-5.931428891336454,0.0031100726940402773,0.008058308941643173,-1.3010638922300088
15376,13.0,300.22449,53004.325999999994,0.0,-0.07687960110269909,-0.07687857345390225,0.0,0.0,0.0,-3.9640053264918667,-6.204435147930075,-5.943551111557824,-0.0030050980585050874,-0.0028723889438827172,-1.2995561760812089
15377,13.0,300.16029,53023.623,0.0,-0.07688458260137998,-0.07688357566408943,0.0,0.0,0.0,-3.967472870984086,-6.202522131741274,-5.9478622880833045,-0.009134075052938022,-0.005760222555064704,-1.307976993687279
15378,13.0,300.05619,52996.065,0.0,-0.07688959709011844,-0.07688857787427661,0.0,0.0,0.0,-3.9627517334681466,-6.203533963291134,-5.943194650172645,-0.004322584303055856,0.0020477222167194485,-1.3031570642865886
15379,13.0,300.21839,53009.74,0.0,-0.07689457858879933,-0.07689354717518593,0.0,0.0,0.0,-3.9762024258956257,-6.201180892583904,-5.936253988312654,0.0021266462935086478,0.009506264207495231,-1.311346050269779
15380,13.0,300.03817000000004,53007.537000000004,0.0,-0.07689959307753791,-0.0768985493853731,0.0,0.0,0.0,-3.969007944885586,-6.202273986791784,-5.941685920773744,-0.0010024163184732882,-0.0034109963213641266,-1.3095917090466387
15381,13.0,299.86598,52976.297999999995,0.0,-0.0769045745762188,-0.07690355159556028,0.0,0.0,0.0,-3.968856058695596,-6.203109310174224,-5.9315063036440945,0.0031829493902576474,-0.0029473410802799173,-1.3154554887003487
15382,13.0,299.89867999999996,53040.541,0.0,-0.07690958906495704,-0.07690855380574735,0.0,0.0,0.0,-3.970978108380026,-6.202285841817954,-5.949736091493234,0.002895772527040497,-0.0009169369694996332,-1.2997799017032887
15383,13.0,299.89774,53078.902,0.0,-0.07691457056363793,-0.07691355601593453,0.0,0.0,0.0,-3.9766768295924466,-6.211914656193244,-5.946069544681374,0.0019051259089462882,0.008354095694935053,-1.3040496362996787
15384,13.0,300.04632000000004,53035.53,0.0,-0.0769195850523765,-0.07691855822612148,0.0,0.0,0.0,-3.9755872817599163,-6.203754446512894,-5.9421349932180645,-0.002337203818614058,-0.003472931132401617,-1.2954251554235088
15385,13.0,300.07297,53036.102,0.0,-0.07692459954111475,-0.07692356043630866,0.0,0.0,0.0,-3.9804819890179863,-6.210265186355453,-5.930903622484614,0.00010725225963997388,0.0037328653481301264,-1.3104955281358386
15386,13.0,299.98922000000005,53107.889,0.0,-0.07692958103979564,-0.07692856264649561,0.0,0.0,0.0,-3.976925785142017,-6.2185148660196345,-5.948031500850004,-0.002058108232894468,0.0018567420007711683,-1.2993216086830588
15387,13.0,300.00908,53107.153,0.0,-0.0769345955285341,-0.07693356485668279,0.0,0.0,0.0,-3.9815416459725665,-6.212133518214844,-5.949573262202165,0.004634918139755805,-0.0014515643613832487,-1.3077188175617989
15388,13.0,300.03177999999997,53043.263,0.0,-0.07693957702721499,-0.07693856706686975,0.0,0.0,0.0,-3.957960783020316,-6.2161505482362935,-5.949715927816245,-0.0004929881728666445,-0.008376735248544402,-1.3082355751127988
15389,13.0,299.85739,52994.559,0.0,-0.07694459151595334,-0.07694356927705681,0.0,0.0,0.0,-3.9626019751033663,-6.208051032236934,-5.938369553196444,5.816678824136505e-05,0.0013173144986588189,-1.3143059564618988
15390,13.0,300.02369,53017.920999999995,0.0,-0.07694957301463423,-0.07694857148724388,0.0,0.0,0.0,-3.967018428314236,-6.208309208362414,-5.940796489835964,-0.005198051945182785,0.0004466839706542755,-1.305636689931309
15391,13.0,300.21895,53061.615999999995,0.0,-0.0769545875033727,-0.07695357369743105,0.0,0.0,0.0,-3.9822750363949466,-6.213512855575974,-5.933618322152534,-0.005627298530096124,0.002701280791545657,-1.3141560967721089
15392,13.0,300.03332,53095.24,0.0,-0.07695960199211105,-0.07695857590761812,0.0,0.0,0.0,-3.9810055353446563,-6.206002443184754,-5.952619092002765,-0.005134217492857815,-0.007829240147810843,-1.3076975393096988
15393,13.0,299.91062,53100.142,0.0,-0.07696458349079194,-0.07696354520852755,0.0,0.0,0.0,-3.9869574677570663,-6.212167766068224,-5.941991922303944,0.0005535168055478555,0.0002696723901870927,-1.3121669855007987
15394,13.0,299.97897,53088.804000000004,0.0,-0.0769695979795304,-0.07696854741871473,0.0,0.0,0.0,-3.967960649582226,-6.214095271733454,-5.955614765923415,0.0028036162145453772,-0.0008041481187957401,-1.3048932683329388
15395,13.0,299.70793,53171.965,0.0,-0.07697457947821129,-0.0769735496289018,0.0,0.0,0.0,-3.9864122378782563,-6.220610368551443,-5.955927150929244,0.0072420745831371135,-0.0010481729805966189,-1.3087834394418687
15396,13.0,299.75428999999997,53213.318,0.0,-0.07697959396694976,-0.07697855183908897,0.0,0.0,0.0,-3.993989930076116,-6.222015341140104,-5.959514765558315,0.0015553187398230086,-0.005288561118315345,-1.3026746559139788
15397,13.0,299.92237,53089.041,0.0,-0.07698457546563064,-0.07698355404927593,0.0,0.0,0.0,-3.9821650987590966,-6.215879909134585,-5.939697721427524,0.005848948813321305,0.002124491211870958,-1.3101628781280088
15398,13.0,299.80283,53011.757000000005,0.0,-0.076989589954369,-0.0769885562594631,0.0,0.0,0.0,-3.9644536896611164,-6.208249325281504,-5.941547409485074,0.0007360456746645524,4.114684938262786e-05,-1.3047552636693187
15399,13.0,300.00973,53113.827000000005,0.0,-0.07699457145304989,-0.07699355846965028,0.0,0.0,0.0,-3.9758690666127263,-6.216757586371204,-5.952650401430854,-0.011587071167804887,-0.004087274800532616,-1.3094417480318388
15400,13.0,299.91376,53156.445,0.0,-0.07699958594178835,-0.07699856067983724,0.0,0.0,0.0,-3.9761911788195166,-6.217099659604965,-5.964941125143854,-0.0006808719066418254,-0.01047684594048419,-1.3006102601602387
15401,13.0,300.06084,53135.975,0.0,-0.0770046004305267,-0.07700356289002441,0.0,0.0,0.0,-3.9813974604833366,-6.220820719272204,-5.949791313623685,-0.006311125722509614,0.0014465029744837286,-1.3130983649927186
15402,13.0,300.19142999999997,53151.515999999996,0.0,-0.0770095819292076,-0.07700856510021137,0.0,0.0,0.0,-3.9909538274764764,-6.213639106538435,-5.952140736630554,0.003467453401036007,1.9067636250829182e-05,-1.3056689112844886
15403,13.0,300.31597,53175.002,0.0,-0.07701459641794606,-0.07701356731039843,0.0,0.0,0.0,-3.9909205928731963,-6.222405746403634,-5.950546590248224,-0.004047109059943566,0.0012443958538873089,-1.3177322616750486
15404,13.0,300.02139,53202.09099999999,0.0,-0.07701957791662695,-0.0770185695205855,0.0,0.0,0.0,-3.992956313649106,-6.218764632169284,-5.960386261969324,0.002160975105571638,0.004588033841728686,-1.3044260587118288
15405,13.0,300.08974,53187.279,0.0,-0.0770245924053653,-0.07702357173077257,0.0,0.0,0.0,-3.983673118882926,-6.217285388348294,-5.966646323737144,0.0009360735047307622,0.006202096465374264,-1.3140997600665487
15406,13.0,300.07423,53120.428,0.0,-0.0770295739040463,-0.07702857394095974,0.0,0.0,0.0,-3.972266658532196,-6.219135380380874,-5.955881453349734,0.0068946277801217835,0.0013808049525748387,-1.3065689813483188
15407,13.0,299.90201,53087.92,0.0,-0.07703458839278465,-0.0770335761511467,0.0,0.0,0.0,-3.970952675802516,-6.216269807773064,-5.950179591062004,-0.0013847971579688386,-0.003520064689953337,-1.3171014121627886
15408,13.0,300.01477,53200.913,0.0,-0.07703956989146554,-0.07703854545205624,0.0,0.0,0.0,-3.9879120506762757,-6.224915262926303,-5.958921811599795,-0.0006885932067763583,0.0003098143801937987,-1.3076230654273489
15409,13.0,299.96632999999997,53249.414000000004,0.0,-0.077044584380204,-0.07704354766224342,0.0,0.0,0.0,-3.9919874439034864,-6.234182549665914,-5.960322123237995,-0.003203089559845327,0.008725267951691902,-1.3102315764847887
15410,13.0,300.01526,53174.879,0.0,-0.07704959886894236,-0.07704854987243037,0.0,0.0,0.0,-3.978254763973176,-6.226564428789064,-5.9590162465091145,0.001071435784342479,-7.743290904103314e-06,-1.3019543364178887
15411,13.0,299.96497999999997,53155.907999999996,0.0,-0.07705458036762325,-0.07705355208261755,0.0,0.0,0.0,-3.9694453649537564,-6.229395652218484,-5.959227813129995,-0.0035192440586973464,0.003102991494391417,-1.3076029017503588
15412,13.0,300.06725,53253.169,0.0,-0.07705959485636171,-0.07705855429280473,0.0,0.0,0.0,-3.9859102737787167,-6.2328436409837735,-5.968879628282553,-0.003089765034211067,-0.005273791680882715,-1.3033084438515288
15413,13.0,300.12982999999997,53285.606,0.0,-0.0770645763550426,-0.07706355650299168,0.0,0.0,0.0,-4.004584574446726,-6.232336610633735,-5.9605724973377034,-0.004683399522590546,-0.002092523272540968,-1.3113056215907888
15414,13.0,300.24159,53221.273,0.0,-0.07706959084378096,-0.07706855871317886,0.0,0.0,0.0,-3.988597109068886,-6.227646883870894,-5.961694165198404,-0.003562306782647307,-0.00023775178990177482,-1.3160936336133289
15415,13.0,300.14925,53158.704000000005,0.0,-0.07707457234246184,-0.07707356092336581,0.0,0.0,0.0,-3.988538644538117,-6.222513049589224,-5.947866847708754,0.0037143289508007266,-9.446357315207882e-06,-1.3131833766761087
15416,13.0,300.07279,53175.145,0.0,-0.07707958683120031,-0.07707856313355299,0.0,0.0,0.0,-3.9808249741768362,-6.222656221828354,-5.960435100624144,0.002782395312401037,0.003271313107628466,-1.3074203140823386
15417,13.0,300.00206000000003,53246.215,0.0,-0.07708460131993866,-0.07708356534374006,0.0,0.0,0.0,-3.9835914509248664,-6.233205472594484,-5.968722878492085,0.004882778264642696,0.0021922584931340677,-1.3139963072313385
15418,13.0,299.89726,53298.639,0.0,-0.07708958281861955,-0.07708856755392701,0.0,0.0,0.0,-3.989533250836276,-6.237535799546854,-5.974386237276014,0.007533652092863572,-0.00929039147634025,-1.3112934625895887
15419,13.0,300.02833,53251.185,0.0,-0.07709459730735801,-0.07709356976411419,0.0,0.0,0.0,-3.9950720811829163,-6.233113469485404,-5.958845007242214,0.004879956768414235,-0.008150636493405191,-1.3125472582633289
15420,13.0,299.73182,53198.625,0.0,-0.0770995788060389,-0.07709857197430114,0.0,0.0,0.0,-3.9788420437311363,-6.233923056315303,-5.958288631612304,-0.0025265064976967774,-0.007097541650447823,-1.313144569197279
15421,13.0,299.95716,53289.472,0.0,-0.07710459329477726,-0.07710357418448832,0.0,0.0,0.0,-4.000712540514586,-6.236793796498624,-5.961162411545924,-0.009049525411593621,-0.0013042660665210388,-1.3091806334810687
15422,13.0,299.96596,53321.434,0.0,-0.07710957479345826,-0.07710854348539786,0.0,0.0,0.0,-3.9969199453902866,-6.232992690073484,-5.978471965654244,-0.014752059180164884,-0.0006260213350034954,-1.309470524334679
15423,13.0,300.07811,53244.242999999995,0.0,-0.07711458928219661,-0.07711354569558482,0.0,0.0,0.0,-3.983422440808186,-6.2368284496520445,-5.964669472792044,-0.005014687519636125,0.002712587852061578,-1.3132790274855488
15424,13.0,300.19309,53210.45,0.0,-0.0771195707808775,-0.077118547905772,0.0,0.0,0.0,-3.9812147714903063,-6.227241482505884,-5.966191779742285,-0.006225958606554274,0.0003888287375669086,-1.3137177647788487
15425,13.0,300.32302999999996,53272.712999999996,0.0,-0.07712458526961596,-0.07712355011595917,0.0,0.0,0.0,-3.9958776150124162,-6.228805028735194,-5.968891989933774,0.0062489836005016645,0.00018819145783055083,-1.3155015915798987
15426,13.0,300.03802,53335.692,0.0,-0.07712959975835443,-0.07712855232614613,0.0,0.0,0.0,-3.9968692828852865,-6.239943180459444,-5.975906011101004,0.004642129136742476,-0.0019634651006789185,-1.3209739527199786
15427,13.0,300.09381,53334.971,0.0,-0.0771345812570352,-0.0771335545363333,0.0,0.0,0.0,-4.007259554710726,-6.232118863187244,-5.973121093201153,0.007808972410035572,0.003429357730401257,-1.3134075075982288
15428,13.0,299.94986,53315.259000000005,0.0,-0.07713959574577367,-0.07713855674652026,0.0,0.0,0.0,-3.9925143339554863,-6.235937194864085,-5.978056026488194,0.007538770829718753,0.001932357410683828,-1.310970945082759
15429,13.0,300.02032,53283.437000000005,0.0,-0.07714457724445456,-0.07714355895670744,0.0,0.0,0.0,-3.987136407724726,-6.235149494236344,-5.9745485599420345,0.003026853956702227,0.004085734964355646,-1.3054175239346788
15430,13.0,300.01992,53320.842000000004,0.0,-0.07714959173319291,-0.07714856116689461,0.0,0.0,0.0,-3.9906258384191062,-6.244600989844135,-5.9729778196370145,-0.0035994671221147466,0.0018450622668684683,-1.3122374063827487
15431,13.0,299.87375,53412.863,0.0,-0.0771545732318738,-0.07715356337708168,0.0,0.0,0.0,-4.008219609180475,-6.246953249951284,-5.981003875004125,-0.004713531554064346,-0.001729965769459328,-1.3120100330603088
15432,13.0,299.87135,53342.74,0.0,-0.07715958772061227,-0.07715856558726886,0.0,0.0,0.0,-3.9988329615790863,-6.2407698912160345,-5.975258240312074,-0.006995776585929393,-0.0025842123067918972,-1.3154976399045089
15433,13.0,300.15689,53213.126,0.0,-0.07716456921929316,-0.07716356779745581,0.0,0.0,0.0,-3.9842696192167963,-6.231375137613845,-5.959816815413124,-0.0014246896250059188,-0.004087104371865796,-1.3160077100048488
15434,13.0,300.08393,53275.581,0.0,-0.0771695837080314,-0.07716857000764277,0.0,0.0,0.0,-3.9815235087957763,-6.238257132293044,-5.9746657929786045,-0.005829416289818594,0.0018738060443802584,-1.3226723625375987
15435,13.0,299.95504,53389.538,0.0,-0.07717459819676997,-0.07717357221782994,0.0,0.0,0.0,-4.000385058082266,-6.243717638406953,-5.984983820071915,-0.0025435379146526473,-0.003017339639588237,-1.3123814905469688
15436,13.0,299.87167999999997,53345.200999999994,0.0,-0.07717957969545086,-0.07717854151873949,0.0,0.0,0.0,-3.990996991930736,-6.2456788853005145,-5.978933095774754,0.0024942722762405075,-0.002993566867067047,-1.3207725186000987
15437,13.0,300.1747,53344.956,0.0,-0.0771845941841891,-0.07718354372892666,0.0,0.0,0.0,-3.9916209513423166,-6.242397880151704,-5.981515768954644,-0.0006936580488587194,-0.000817999622565277,-1.3140236649840387
15438,13.0,300.1329,53404.331,0.0,-0.07718957568287022,-0.07718854593911362,0.0,0.0,0.0,-4.002864075776926,-6.248601909188994,-5.982117031563985,0.0064871159164784946,-0.002136195973051128,-1.3203929551126388
15439,13.0,300.23922999999996,53440.54,0.0,-0.07719459017160868,-0.07719354814930057,0.0,0.0,0.0,-4.009720739203626,-6.2491150190396345,-5.985753788822904,-0.0003918272384553376,0.0003479229089723177,-1.3063995659315988
15440,13.0,300.20812,53427.530999999995,0.0,-0.07719957167028946,-0.07719855035948775,0.0,0.0,0.0,-3.9974567652932667,-6.254216935943154,-5.988961738639504,0.0046218015158862955,-0.0005561373945464874,-1.3154872034284788
15441,13.0,300.17266,53411.191,0.0,-0.07720458615902792,-0.0772035525696747,0.0,0.0,0.0,-4.004242501212966,-6.250526780403964,-5.980899104943784,0.002981079978134687,-0.007927840832266973,-1.3029879528448987
15442,13.0,300.02581000000004,53348.758,0.0,-0.07720960064776639,-0.07720855477986188,0.0,0.0,0.0,-3.995842252583926,-6.247379422943344,-5.973468840635474,0.004152348255079865,0.0010647303991557092,-1.3205924640573288
15443,13.0,299.8683,53383.427,0.0,-0.07721458214644716,-0.07721355699004906,0.0,0.0,0.0,-4.002339313550136,-6.253062641429235,-5.971826868848424,-0.0027137658566278376,-0.0015757353240379685,-1.312874740695649
15444,13.0,299.95453,53445.067,0.0,-0.07721959663518563,-0.07721855920023613,0.0,0.0,0.0,-4.0152885485031256,-6.2493602255638345,-5.981317070610034,-0.0013149312330986089,-0.0031841299279491567,-1.3208834694860487
15445,13.0,300.0742,53407.856,0.0,-0.07722457813386652,-0.0772235614104233,0.0,0.0,0.0,-4.010480170153576,-6.247221457252754,-5.976953002429334,-0.006700893753051724,-0.005027776684427925,-1.3105592615671287
15446,13.0,300.03516,53340.392,0.0,-0.07722959262260476,-0.07722856362061026,0.0,0.0,0.0,-3.9878182237170168,-6.252069048381173,-5.974259884988545,0.0002955292864414697,-0.00017539359230999983,-1.3255303357696588
15447,13.0,299.95874,53428.35400000001,0.0,-0.07723457412128565,-0.07723356583079743,0.0,0.0,0.0,-4.011410333745376,-6.243134816949435,-5.986340359305794,0.0014258794845983488,0.0038616511583652964,-1.3113876948488887
15448,13.0,300.20799999999997,53479.981,0.0,-0.07723958861002422,-0.07723856804098439,0.0,0.0,0.0,-4.006370326422966,-6.257504831192644,-5.992703671258804,-0.003464322458227007,0.0018274181375771282,-1.3216643813381188
15449,13.0,300.06906000000004,53411.57,0.0,-0.07724457010870511,-0.07724357025117135,0.0,0.0,0.0,-4.004864738099376,-6.249604216187914,-5.981314537484785,0.0024782440782086476,0.002510588135975758,-1.3169759718004088
15450,13.0,300.17663999999996,53441.450999999994,0.0,-0.07724958459744335,-0.07724857246135852,0.0,0.0,0.0,-4.0066915267046666,-6.252758159774184,-5.985416883164653,0.0007988849735363083,0.008164683888816561,-1.3297121202573687
15451,13.0,300.17801000000003,53477.628,0.0,-0.07725459908618182,-0.07725354176226829,0.0,0.0,0.0,-4.0081736076259356,-6.253735034195594,-5.993954731157274,0.006503985314743374,0.0010491322244662888,-1.3177824175549988
15452,13.0,300.19256,53433.747,0.0,-0.07725958058486293,-0.07725854397245524,0.0,0.0,0.0,-3.990724528978846,-6.259386537953354,-5.992413577755174,-0.0066788222274484325,-0.006527143551078914,-1.3252357839655886
15453,13.0,300.23064,53446.559,0.0,-0.07726459507360128,-0.0772635461826422,0.0,0.0,0.0,-4.001360513953536,-6.253016437224674,-5.9920425255685545,0.0027902059507968874,0.0009186767097888322,-1.3119636262057288
15454,13.0,300.0265,53469.03599999999,0.0,-0.07726957657228217,-0.07726854839282926,0.0,0.0,0.0,-3.998147903186476,-6.264934386225884,-5.990169532758705,-0.003347059125479017,0.008336378712961522,-1.3198478265588385
15455,13.0,300.03291,53418.263,0.0,-0.07727459106102064,-0.07727355060301644,0.0,0.0,0.0,-4.0033273337226465,-6.248342213188364,-5.986148551061865,0.0033078772507370673,0.006541706589466175,-1.3081311090274887
15456,13.0,299.99361,53470.593,0.0,-0.0772795725597013,-0.0772785528132035,0.0,0.0,0.0,-4.004485883886987,-6.259635696152944,-5.9896037339028645,-0.007537227143191403,-0.003400920359719707,-1.3173818797904686
15457,13.0,300.10556,53577.633,0.0,-0.07728458704843988,-0.07728355502339057,0.0,0.0,0.0,-4.013655088016916,-6.264830426765624,-6.007777083721434,0.002153711622229788,0.0006802614335890765,-1.3068927147552687
15458,13.0,299.97700000000003,53576.12,0.0,-0.07728956854712077,-0.07728855723357775,0.0,0.0,0.0,-4.016251541398167,-6.266141167094984,-6.003409874465424,-0.001085250638855899,0.004217214905281706,-1.3189597128461885
15459,13.0,300.03549,53495.433,0.0,-0.07729458303585901,-0.0772935594437647,0.0,0.0,0.0,-4.011873794341116,-6.257650333907003,-5.991751621464845,0.01044018249886579,-0.0035511778514989664,-1.315007429506129
15460,13.0,299.86437,53474.93,0.0,-0.07729959752459759,-0.07729856165395188,0.0,0.0,0.0,-4.007208182930656,-6.258519702492803,-5.989315565574424,-0.0024511109630558177,-0.003105204533934827,-1.3270585195704787
15461,13.0,299.9099,53498.209,0.0,-0.07730457902327847,-0.07730356386413906,0.0,0.0,0.0,-4.0140450879804055,-6.255549055849624,-5.992525440566214,0.004111067027455726,0.0007894411684967772,-1.3182354416747089
15462,13.0,299.78728,53471.356,0.0,-0.07730959351201672,-0.07730856607432601,0.0,0.0,0.0,-4.006053989741747,-6.258303170946434,-5.989599984877494,-0.002796163861384888,0.002325191434703528,-1.3300409199148187
15463,13.0,299.99772,53457.769,0.0,-0.0773145750106976,-0.07731356828451319,0.0,0.0,0.0,-3.9964313561920664,-6.259001806890384,-5.994393975075623,0.0016705253775180181,-0.0015474601746974285,-1.3232103983406986
15464,13.0,300.05581,53429.435,0.0,-0.07731958949943607,-0.07731857049470015,0.0,0.0,0.0,-3.998900849335786,-6.259326857522464,-5.982986298824774,-0.0018596052429037484,-0.004292482263785017,-1.3268263839725687
15465,13.0,300.07867000000005,53503.539000000004,0.0,-0.07732457099811718,-0.07732353979560969,0.0,0.0,0.0,-4.006128767599126,-6.265112920893504,-5.992498184138523,-9.32602859693236e-05,0.0005327070802940955,-1.3109285912285789
15466,13.0,300.13752999999997,53619.014,0.0,-0.07732958548685553,-0.07732854200579686,0.0,0.0,0.0,-4.019368096055746,-6.279051797219164,-6.000421597270504,-0.002410738418121358,0.0008435594440228351,-1.3181681618680687
15467,13.0,300.07013,53614.954000000005,0.0,-0.07733459997559378,-0.07733354421598382,0.0,0.0,0.0,-4.022020987467567,-6.275253223919274,-6.000332937886754,-0.0015906741768873186,-0.0017658276289236182,-1.3067769002688385
15468,13.0,300.04352,53517.268,0.0,-0.07733958147427489,-0.07733854642617088,0.0,0.0,0.0,-4.004902127028067,-6.267134962793064,-5.9958759546718845,0.0008593205898583392,0.0008193084275869462,-1.320323446155779
15469,13.0,299.87691,53555.355,0.0,-0.07734459596301324,-0.07734354863635806,0.0,0.0,0.0,-4.006759617111386,-6.2702764434031035,-6.002454480946135,0.002786368468693157,0.0022825504254451877,-1.3159802509271388
15470,13.0,299.97362000000004,53621.594000000005,0.0,-0.07734957746169413,-0.07734855084654502,0.0,0.0,0.0,-4.0238541595484865,-6.272127752660814,-6.003643732588504,0.003508461963058237,0.002269501689332378,-1.3305848325684988
15471,13.0,299.9217,53570.91099999999,0.0,-0.0773545919504326,-0.0773535530567322,0.0,0.0,0.0,-4.016120730810256,-6.265597355766315,-6.002501293100754,0.00028311608105638174,-0.003352880348628527,-1.3251499616821187
15472,13.0,299.92081,53480.823,0.0,-0.07735957344911326,-0.07735855526691915,0.0,0.0,0.0,-4.0024421584352865,-6.259525555867074,-5.994867264197334,0.0031659550582554367,-0.0016105234423712885,-1.3319666017298686
15473,13.0,299.82655,53511.863,0.0,-0.07736458793785173,-0.07736355747710633,0.0,0.0,0.0,-4.010697512300026,-6.260545493417735,-5.995027155063115,-0.003150404506320717,0.004143956923051706,-1.3127291366562788
15474,13.0,300.08865,53604.797999999995,0.0,-0.07736956943653273,-0.0773685596872935,0.0,0.0,0.0,-4.013954604746476,-6.2698842142893945,-6.010681362483064,-0.0012855294509718789,0.0025310440342945976,-1.3223628146320487
15475,13.0,300.17931,53655.003,0.0,-0.07737458392527097,-0.07737356189748046,0.0,0.0,0.0,-4.023557175944176,-6.273406474287015,-6.012817496343884,-0.0025128740282013575,-0.0017515320885627583,-1.3148240312380288
15476,13.0,300.10385,53635.142,0.0,-0.07737959841400943,-0.07737856410766764,0.0,0.0,0.0,-4.021349810601326,-6.275757518494044,-6.006636468083864,0.002339509266566588,0.0012965864413631188,-1.321745846646159
15477,13.0,299.97085,53582.135,0.0,-0.07738457991269032,-0.07738356631785459,0.0,0.0,0.0,-4.015895080012986,-6.270623278912335,-6.0011128364887245,0.004709883752379336,0.004370840440393366,-1.318625238988179
15478,13.0,300.08761,53623.962,0.0,-0.07738959440142867,-0.07738856852804177,0.0,0.0,0.0,-4.0190025154196665,-6.279054938294474,-6.002288003954704,0.001960645934925688,0.0012712907539416288,-1.3254448174612188
15479,13.0,300.23926,53655.106,0.0,-0.07739457590010979,-0.07739353782895131,0.0,0.0,0.0,-4.020178493485726,-6.277018609568503,-6.012615454273944,-0.0013730014069296887,0.0028198690501244073,-1.3202368132722286
15480,13.0,300.01492,53581.611,0.0,-0.07739959038884803,-0.07739854003913826,0.0,0.0,0.0,-4.007561705890546,-6.275602389903734,-6.004307715379034,-0.002144287889674738,0.0046863759447592955,-1.3266101564012287
15481,13.0,299.87492000000003,53522.914000000004,0.0,-0.07740457188752914,-0.07740354224932544,0.0,0.0,0.0,-3.999243429194596,-6.269631611039464,-6.000754449928354,0.0037138872750821362,0.00945600335483487,-1.3289971709868087
15482,13.0,300.01087,53602.564000000006,0.0,-0.07740958637626749,-0.07740854445951262,0.0,0.0,0.0,-4.019038587123226,-6.272240324746924,-6.002562189431765,-0.002154241045407038,-0.0018174066186390683,-1.3282471632627886
15483,13.0,299.87419,53678.762,0.0,-0.07741456787494838,-0.07741354666969968,0.0,0.0,0.0,-4.027043972188296,-6.282084860068504,-6.007874355731035,-0.0014042866183422984,-0.006460102060862434,-1.3275955421234786
15484,13.0,299.91829,53635.724,0.0,-0.07741958236368685,-0.07741854887988664,0.0,0.0,0.0,-4.023564775319926,-6.272940784541054,-6.007415353435734,-9.7809914693837e-05,-0.008755291261429972,-1.3180436334307788
15485,13.0,300.04391,53651.987,0.0,-0.07742459685242509,-0.0774235510900736,0.0,0.0,0.0,-4.017500473471426,-6.280478352034954,-6.010885633703224,0.005611517058463615,-0.0006435681213577285,-1.3191157533615887
15486,13.0,299.95341,53705.16099999999,0.0,-0.07742957835110598,-0.07742855330026077,0.0,0.0,0.0,-4.027064642490336,-6.281150643476304,-6.016812437513154,0.003166753600659247,-0.0036307444301765766,-1.3167607574791687
15487,13.0,300.16415,53720.475,0.0,-0.07743459283984455,-0.07743355551044795,0.0,0.0,0.0,-4.029940651574176,-6.284092513816644,-6.0156500369984345,0.0017556144732156582,-0.00048122078269779354,-1.3213849269605387
15488,13.0,300.24725,53711.323,0.0,-0.07743957433852522,-0.0774385577206349,0.0,0.0,0.0,-4.0307843849324465,-6.286444165973735,-6.009672469358494,-0.0033123148808750272,-0.0005321852260950925,-1.3220526587764385
15489,13.0,299.98919,53666.447,0.0,-0.07744458882726368,-0.07744355993082208,0.0,0.0,0.0,-4.024526147014806,-6.278787744243103,-6.009945945560485,-0.0018207214663412182,0.001951576231955578,-1.3240631496248587
15490,13.0,299.85586,53621.492,0.0,-0.07744957032594457,-0.07744856214100904,0.0,0.0,0.0,-4.016145656762717,-6.279470066860444,-6.003978915721585,-0.0058728455063297245,-0.004711135926852916,-1.3244592290889488
15491,13.0,299.98515,53628.337,0.0,-0.07745458481468293,-0.07745356435119621,0.0,0.0,0.0,-4.011742983753207,-6.278825842446865,-6.0111066235500346,-0.0018178059405034783,0.0003450016380065107,-1.3235046461697386
15492,13.0,299.92312999999996,53673.212999999996,0.0,-0.07745959930342139,-0.07745856656138339,0.0,0.0,0.0,-4.017490138320406,-6.278672335056714,-6.019153855844235,-0.0032342490269205272,0.00014135004054766288,-1.3196071796600886
15493,13.0,299.93166,53663.93,0.0,-0.07746458080210228,-0.07746353586229271,0.0,0.0,0.0,-4.016499888997676,-6.279966762059464,-6.016027877960724,0.002924282649079227,0.003247605892388747,-1.323884310982209
15494,13.0,300.01569,53678.206,0.0,-0.07746959529084063,-0.07746853807247989,0.0,0.0,0.0,-4.023091080898176,-6.2850613835622635,-6.008681713410715,-0.0014408642376772286,-0.005278253932998104,-1.3234564154649786
15495,13.0,300.09215,53773.962,0.0,-0.07747457678952163,-0.07747354028266706,0.0,0.0,0.0,-4.037719879216926,-6.287005101229094,-6.021216529072804,0.001951922864814788,0.00021041612605395482,-1.3260471946456687
15496,13.0,299.94026,53784.365999999995,0.0,-0.07747959127825998,-0.07747854249285413,0.0,0.0,0.0,-4.036589700055385,-6.289702778295335,-6.022811790030245,-0.003092460178152057,0.0003214995653820367,-1.3183804377640187
15497,13.0,299.87939,53720.892,0.0,-0.0774845727769411,-0.07748354470304131,0.0,0.0,0.0,-4.017279584949626,-6.289544609954723,-6.022985663747404,-0.0006228006891631424,0.0023034782956606074,-1.3293414733707887
15498,13.0,300.1352,53759.939000000006,0.0,-0.07748958726567934,-0.07748854691322826,0.0,0.0,0.0,-4.025449927130976,-6.290863253634864,-6.025365889557315,-0.0037064821393763066,6.868859411528643e-05,-1.3216876860904188
15499,13.0,299.83095,53739.18,0.0,-0.07749456876436023,-0.07749354912341522,0.0,0.0,0.0,-4.020657051507956,-6.292377353259294,-6.022334549233144,0.001104811634686419,0.004976564795223706,-1.3312639127855188
15500,13.0,299.95173,53655.71400000001,0.0,-0.0774995832530988,-0.0774985513336024,0.0,0.0,0.0,-4.021820059972736,-6.278813176820615,-6.009364137353065,0.003171447380422487,0.0005606259303694715,-1.3165877956870986
15501,13.0,299.92726,53707.801,0.0,-0.07750459774183704,-0.07750355354378935,0.0,0.0,0.0,-4.020176061685486,-6.286781172956994,-6.018873286891544,-0.0037424776465287864,-0.0012301023400266488,-1.3262738586930385
15502,13.0,299.84265,53778.327000000005,0.0,-0.07750957924051793,-0.07750855575397653,0.0,0.0,0.0,-4.036144477961446,-6.285308819236684,-6.025815063326644,-0.002103087924708618,-0.0029806202665643173,-1.3139153485483486
15503,13.0,299.80048999999997,53767.038,0.0,-0.0775145937292564,-0.07751355796416348,0.0,0.0,0.0,-4.021174011708976,-6.294840766902414,-6.027822109124724,-0.001897250726519068,-0.0012557804280358788,-1.3259298602840888
15504,13.0,299.90679,53744.166,0.0,-0.07751957522793718,-0.07751856017435066,0.0,0.0,0.0,-4.028483800580396,-6.280680900729944,-6.027719872189635,0.002113089007170648,-0.002085177513290998,-1.3203433058577387
15505,13.0,299.94514,53796.10400000001,0.0,-0.07752458971667564,-0.07752356238453784,0.0,0.0,0.0,-4.036646847361026,-6.290363822660574,-6.025661657261504,-0.004011837722637556,0.0004329735214311596,-1.3280057057639587
15506,13.0,300.28441000000004,53815.055,0.0,-0.07752957121535653,-0.0775285645947249,0.0,0.0,0.0,-4.044831375043776,-6.293851834804815,-6.019749748228044,0.003111583956564427,-0.00036555230560720366,-1.328816508493979
15507,13.0,300.21636,53782.831,0.0,-0.07753458570409488,-0.07753356680491208,0.0,0.0,0.0,-4.033738515598996,-6.296131444879794,-6.018767604906114,-0.002194482779753588,0.0013011323879367688,-1.3344546373504187
15508,13.0,300.14006,53800.08,0.0,-0.07753956720277588,-0.07753853610582151,0.0,0.0,0.0,-4.033764556126566,-6.294917773910014,-6.025198500640794,0.007922934573957763,-0.0018543855863386082,-1.3294604289325287
15509,13.0,300.0805,53798.03400000001,0.0,-0.07754458169151424,-0.07754353831600858,0.0,0.0,0.0,-4.0237208158353255,-6.302714328129474,-6.026823753801194,0.0006378211593080473,0.002199818960080228,-1.3319242478756887
15510,13.0,299.99989,53762.765,0.0,-0.07754959618025248,-0.07754854052619575,0.0,0.0,0.0,-4.020657659458016,-6.300792192689774,-6.021088251610144,0.0026143894278951476,0.0019955094390664485,-1.3285017930129186
15511,13.0,300.00684,53790.258,0.0,-0.07755457767893359,-0.07755354273638271,0.0,0.0,0.0,-4.025538586514726,-6.3021847023022035,-6.023172101765804,-0.0008857113979879092,0.002925850653608977,-1.3248308892256286
15512,13.0,299.8222,53778.670999999995,0.0,-0.07755959216767205,-0.07755854494656989,0.0,0.0,0.0,-4.032421695769036,-6.294388756032803,-6.020562577458265,-0.0012974032222687287,-0.00025389483983246974,-1.3219815286194188
15513,13.0,299.75681000000003,53737.624,0.0,-0.07756457366635305,-0.07756354715675706,0.0,0.0,0.0,-4.025375554573636,-6.291031858451504,-6.0184883531785545,-0.003113865289164577,0.001113503699344259,-1.3274396029330886
15514,13.0,299.8377,53820.904,0.0,-0.0775695881550913,-0.07756854936694402,0.0,0.0,0.0,-4.039819029449096,-6.294602653128914,-6.025789326774103,-0.0017417426740466181,-0.004964800252287635,-1.3213697282090386
15515,13.0,299.88512000000003,53867.670999999995,0.0,-0.07757456965377219,-0.07757355157713097,0.0,0.0,0.0,-4.031042358407906,-6.302238505882514,-6.041145942639685,-0.002995686383626227,-0.0045530254428236255,-1.3348051205600087
15516,13.0,299.98879,53794.183,0.0,-0.07757958414251065,-0.07757855378731804,0.0,0.0,0.0,-4.031675538395397,-6.2946142041800535,-6.025798547350014,0.0005505449126070525,-0.002218164258440768,-1.3262604837917187
15517,13.0,300.10602,53826.88,0.0,-0.077584598631249,-0.07758355599750522,0.0,0.0,0.0,-4.031267097280086,-6.299490470286304,-6.031269793914984,0.0024174904128127276,0.0029778253174884773,-1.3410998354812487
15518,13.0,299.98425,53924.472,0.0,-0.07758958012992989,-0.07758855820769228,0.0,0.0,0.0,-4.059929308158826,-6.3008471108451936,-6.030916473605115,0.0015002935851924487,0.002257346842457788,-1.3198523861842886
15519,13.0,300.00535,53882.203,0.0,-0.07759459461866836,-0.07759356041787935,0.0,0.0,0.0,-4.043425693180046,-6.302691530002224,-6.032726948883794,-0.0022794644709406282,0.006866421835763073,-1.3350267183568787
15520,13.0,300.03215,53873.810999999994,0.0,-0.07759957611734913,-0.07759856262806653,0.0,0.0,0.0,-4.041110619351566,-6.298005856239785,-6.037176839347964,-0.002199013223600708,0.004213296869795026,-1.3164093623444886
15521,13.0,299.9728,53906.037000000004,0.0,-0.0776045906060876,-0.07760356483825348,0.0,0.0,0.0,-4.034829380656656,-6.304032161209535,-6.047227571064894,0.001970057913779578,0.004915123335659906,-1.324925425459959
15522,13.0,299.89847000000003,53867.2,0.0,-0.07760957210476849,-0.07760853413916302,0.0,0.0,0.0,-4.035155647188856,-6.298271530416003,-6.040856558411124,0.003675996787592637,0.0005018055157668485,-1.3092309920110388
15523,13.0,299.81973,53839.4,0.0,-0.07761458659350673,-0.0776135363493502,0.0,0.0,0.0,-4.022212491736466,-6.306247733878194,-6.037372903242314,0.0031068389063461273,0.0019183652374029083,-1.3271044198000088
15524,13.0,300.10501,53910.254,0.0,-0.07761956809218784,-0.07761853855953715,0.0,0.0,0.0,-4.039313417649196,-6.307927398568965,-6.0401303620644535,0.00047816686716139545,0.0014548460758071287,-1.318790196104459
15525,13.0,299.99872,53869.600999999995,0.0,-0.0776245825809263,-0.07762354076972433,0.0,0.0,0.0,-4.032833885909716,-6.309479089772103,-6.032700503056184,-0.0045828463051917154,0.007098959997937804,-1.3342255415028088
15526,13.0,299.80158,53825.115999999995,0.0,-0.07762959706966466,-0.07762854297991151,0.0,0.0,0.0,-4.030046536209626,-6.307443065021164,-6.024001750947685,-0.002178599577811038,-0.002105649927586468,-1.3362707868296588
15527,13.0,300.10927000000004,53906.45,0.0,-0.07763457856834555,-0.07763354519009846,0.0,0.0,0.0,-4.039597836952266,-6.313016852496253,-6.033599863844945,-0.003146584249468687,-0.0025071704433884574,-1.3406992977167187
15528,13.0,299.96747,53919.387,0.0,-0.07763959305708401,-0.07763854740028564,0.0,0.0,0.0,-4.040848390225686,-6.309096182559314,-6.040202606796585,0.0012744100443744788,-0.0039167000230481966,-1.3360310518559988
15529,13.0,300.00113999999996,53886.654,0.0,-0.0776445745557649,-0.0776435496104726,0.0,0.0,0.0,-4.041356636475846,-6.306279144631294,-6.032561485142464,0.0015342372608924285,-0.005010980544145276,-1.3345918314139589
15530,13.0,300.03378,53946.252,0.0,-0.07764958904450325,-0.07764855182065966,0.0,0.0,0.0,-4.051773151478876,-6.307331506185154,-6.039209013748524,0.005082636071342125,-0.0018664942290086385,-1.3281796808061288
15531,13.0,299.81732999999997,53947.355,0.0,-0.07765457054318414,-0.07765355403084684,0.0,0.0,0.0,-4.046274445836197,-6.306802589632953,-6.045571717751474,0.0022516539980959476,0.0009289394640891872,-1.3268983247296686
15532,13.0,300.06773,53912.102999999996,0.0,-0.0776595850319226,-0.0776585562410338,0.0,0.0,0.0,-4.037945631339206,-6.309034678278244,-6.040952715845615,0.005696400059090915,0.0011509248493874389,-1.326191886759949
15533,13.0,300.29213,53924.869000000006,0.0,-0.07766456653060338,-0.07766355845122097,0.0,0.0,0.0,-4.032832467359576,-6.314691045636485,-6.0442900576999845,-0.0015840608961346387,-0.002440934385676468,-1.3278795561265089
15534,13.0,300.01512,53944.361,0.0,-0.07766958101934185,-0.07766856066140793,0.0,0.0,0.0,-4.047580221240066,-6.312016571997534,-6.038141858743204,0.0014792299394636285,-0.005598831876486684,-1.3216241553091488
15535,13.0,299.96755,53924.33,0.0,-0.07767459550808031,-0.0776735628715951,0.0,0.0,0.0,-4.040645132255626,-6.316183157733744,-6.0348215394905145,-0.006778785125339005,-0.009971746743809781,-1.3280942638226987
15536,13.0,299.86357000000004,53969.236,0.0,-0.07767957700676098,-0.07767853217250464,0.0,0.0,0.0,-4.058813719798726,-6.311530110624524,-6.0349562004288035,-0.004912090475460586,0.0015270743932855086,-1.3198165171307488
15537,13.0,299.75302999999997,54035.335999999996,0.0,-0.07768459149549956,-0.0776835343826916,0.0,0.0,0.0,-4.0482498782311565,-6.324128457067885,-6.053014647686035,-0.009088529258293001,0.004650671443035536,-1.3323709898447789
15538,13.0,300.03311,54008.153,0.0,-0.07768957299418056,-0.07768853659287878,0.0,0.0,0.0,-4.054576003905496,-6.313104599954914,-6.0494493245591645,-0.0003420232602650677,0.0015754869764384584,-1.3282637805644288
15539,13.0,299.86197000000004,53948.462999999996,0.0,-0.07769458748291891,-0.07769353880306595,0.0,0.0,0.0,-4.034020401776816,-6.316612370476104,-6.048352987950964,-0.0019223986820759782,-0.004273288773765766,-1.3427220488913487
15540,13.0,299.81312,53952.880999999994,0.0,-0.0776995689815998,-0.07769854101325291,0.0,0.0,0.0,-4.049776947456866,-6.309005395350353,-6.041546075104174,0.0027541540056138375,-0.0036127208387227864,-1.3340790255383486
15541,13.0,300.00057999999996,53939.971,0.0,-0.07770458347033826,-0.07770354322344009,0.0,0.0,0.0,-4.040723152513326,-6.309394787363784,-6.046286565697025,0.001976229721463688,-0.006430419507132993,-1.335570124385509
15542,13.0,299.8175,53881.8,0.0,-0.07770959795907662,-0.07770854543362704,0.0,0.0,0.0,-4.031583332636296,-6.314584451725964,-6.032554088416735,-0.004591231963019316,-0.0027315868993866375,-1.3420222983722887
15543,13.0,299.80301000000003,53948.871,0.0,-0.0777145794577575,-0.07771354764381422,0.0,0.0,0.0,-4.032370931939026,-6.316887163903224,-6.0498516861738745,-0.001002359951370225,-0.0012837251565188086,-1.3356571625690987
15544,13.0,300.10591,53978.404,0.0,-0.07771959394649597,-0.0777185498540014,0.0,0.0,0.0,-4.0404930434156165,-6.317775784240924,-6.049818046270554,0.006592078190362463,0.008464660025971902,-1.3373467571108486
15545,13.0,299.99777,53966.651,0.0,-0.07772457544517686,-0.07772355206418846,0.0,0.0,0.0,-4.033481150073596,-6.324413585646024,-6.046619621004894,0.003286174244195147,0.005439039701266425,-1.3302839986138089
15546,13.0,300.07749,54080.502,0.0,-0.07772958993391521,-0.07772855427437542,0.0,0.0,0.0,-4.060229027538406,-6.326312517658434,-6.052580672668204,0.00023949882559169377,-0.005305706627232475,-1.3311375604980487
15547,13.0,300.06762000000003,54138.8,0.0,-0.0777345714325961,-0.07773355648456237,0.0,0.0,0.0,-4.072521271126557,-6.327931387343203,-6.056390594369214,-0.006318632284550454,-0.0025124839269128575,-1.3171600793435787
15548,13.0,299.96207999999996,54058.02099999999,0.0,-0.07773958592133456,-0.07773855869474955,0.0,0.0,0.0,-4.060213828786906,-6.320821006091465,-6.051253821662254,0.00043312800154140553,0.006803097352213432,-1.3298114187671686
15549,13.0,300.05733,54035.814000000006,0.0,-0.07774456742001523,-0.07774356090493673,0.0,0.0,0.0,-4.0481602055973065,-6.317520647865743,-6.059857328261354,-0.004615809053469886,0.0006630827305986703,-1.3276553238793787
15550,13.0,300.1041,54081.082,0.0,-0.0777495819087538,-0.07774856311512368,0.0,0.0,0.0,-4.058675816460116,-6.324049524885094,-6.056573283362244,-0.0014853123784889187,0.0013850427697930786,-1.3340659546120588
15551,13.0,299.99352999999996,54044.47900000001,0.0,-0.07775459639749227,-0.07775353241603322,0.0,0.0,0.0,-4.047727750454626,-6.318960374932835,-6.061484101296904,-0.0012509857285626788,-0.0013541724842964188,-1.3339092048215886
15552,13.0,300.08549,54013.917,0.0,-0.07775957789617316,-0.0777585346262204,0.0,0.0,0.0,-4.054588264231707,-6.319492331235335,-6.0448014450254535,0.01066203867451129,0.0051463013109003955,-1.3336442399204387
15553,13.0,300.30343999999997,54079.747,0.0,-0.0777645923849114,-0.07776353683640735,0.0,0.0,0.0,-4.054773182374956,-6.324847155363814,-6.059272277653615,0.0036604548482837666,-0.0026474705237849974,-1.3323081683385787
15554,13.0,300.19268999999997,54074.692,0.0,-0.07776957388359251,-0.07776853904659453,0.0,0.0,0.0,-4.057504803319547,-6.324862658090344,-6.0549884588808345,0.007177778190091554,-0.004436766443574756,-1.3296017773214788
15555,13.0,299.93388,54035.935999999994,0.0,-0.07777458837233087,-0.07777354125678149,0.0,0.0,0.0,-4.037703565890316,-6.3340128131183935,-6.053858786344344,-0.0009243667474478951,0.00018330292126558982,-1.337222937948629
15556,13.0,300.05205,54086.128,0.0,-0.07777956987101176,-0.07777854346696866,0.0,0.0,0.0,-4.055213338218396,-6.329280023226303,-6.056339121264135,-0.00036730417450009964,0.004497147942208945,-1.332101769293209
15557,13.0,299.95673,54123.852999999996,0.0,-0.07778458435975022,-0.07778354567715584,0.0,0.0,0.0,-4.051509301152836,-6.339254761185734,-6.061535878377015,0.0024813416850893574,-0.005197682514196326,-1.3387926650035487
15558,13.0,299.88966,54071.249,0.0,-0.07778956585843111,-0.07778854788734291,0.0,0.0,0.0,-4.054061070204677,-6.336743927437934,-6.045504539269844,-0.004293576776543035,-0.005373514337174575,-1.3366123534383687
15559,13.0,300.06791,54072.418,0.0,-0.07779458034716946,-0.07779355009753008,0.0,0.0,0.0,-4.044081569969776,-6.334478908164394,-6.0581043042633445,-0.001985907982443858,-0.002550321117447098,-1.3330767185394288
15560,13.0,300.03972999999996,54084.05,0.0,-0.07779959483590793,-0.07779855230771704,0.0,0.0,0.0,-4.050297352708226,-6.333658783533454,-6.056244483704795,-0.004101348236471556,-0.0011696217455326788,-1.3353042475592687
15561,13.0,299.91292999999996,54060.448,0.0,-0.07780457633458882,-0.077803554517904,0.0,0.0,0.0,-4.046122660971217,-6.3270695168081446,-6.059834023509054,0.00018407152212894482,-0.0014637987483906887,-1.3354333356220087
15562,13.0,299.99736,54086.974,0.0,-0.07780959082332706,-0.07780855672809117,0.0,0.0,0.0,-4.056136915684546,-6.327668955567304,-6.057283673007354,0.0005435732959565075,-0.0028572489608885174,-1.3426490948841487
15563,13.0,300.14422,54116.924000000006,0.0,-0.07781457232200795,-0.07781355893827813,0.0,0.0,0.0,-4.066432651275656,-6.322301871112614,-6.061459074019434,0.0018677828804858183,0.0025014002880439875,-1.3325272330101987
15564,13.0,300.11219,54115.647000000004,0.0,-0.07781958681074652,-0.0778185611484653,0.0,0.0,0.0,-4.065399642798706,-6.325124177941153,-6.059281599554534,-0.0037162405484393868,0.004123710666178556,-1.338765408575859
15565,13.0,299.79069,54148.297999999995,0.0,-0.07782456830942741,-0.07782353044937484,0.0,0.0,0.0,-4.066214599854136,-6.329019010000544,-6.064497000469254,0.0019781374687519683,-0.006033813760941055,-1.3287058615830587
15566,13.0,299.74919,54223.27099999999,0.0,-0.07782958279816565,-0.0778285326595618,0.0,0.0,0.0,-4.072484490147926,-6.338625431548624,-6.071410507226564,0.004132745006720176,-0.002176282274832338,-1.3333041931868788
15567,13.0,299.85367,54182.459,0.0,-0.07783459728690423,-0.07783353486974898,0.0,0.0,0.0,-4.063453493331636,-6.338839936594795,-6.067821271397334,0.007656849423497202,0.0029749541720051173,-1.3249718323145387
15568,13.0,299.85694,54114.96,0.0,-0.07783957878558512,-0.07783853707993604,0.0,0.0,0.0,-4.053884258062226,-6.340992890407273,-6.054719542304294,0.0011341207044289988,0.004987105230713965,-1.3412483779459088
15569,13.0,299.92361,54157.759000000005,0.0,-0.07784459327432336,-0.07784353929012311,0.0,0.0,0.0,-4.055480937569806,-6.339392765849353,-6.067732814663604,-0.005751298152158934,-0.0024492761697747375,-1.3344960792795089
15570,13.0,299.95471000000003,54138.582,0.0,-0.07784957477300447,-0.07784854150031029,0.0,0.0,0.0,-4.056454265615866,-6.336661752854824,-6.063661069136754,-0.005948302950551795,0.0007238879906896823,-1.3443211601991687
15571,13.0,299.84171000000003,54096.15,0.0,-0.07785458926174271,-0.07785354371049735,0.0,0.0,0.0,-4.0367267927939166,-6.339169242877294,-6.067982580813253,-0.0063055412959084735,-0.0006846657581962494,-1.336268760329459
15572,13.0,300.07502,54126.556,0.0,-0.07785957076042371,-0.07785854592068453,0.0,0.0,0.0,-4.052608373536306,-6.331620225657264,-6.068892783378084,-0.00037942165271100163,0.004123144158047646,-1.3422980037244987
15573,13.0,300.14507000000003,54159.112,0.0,-0.07786458524916218,-0.07786354813087148,0.0,0.0,0.0,-4.047572419214296,-6.335450311035264,-6.0799949647237845,-0.006185084401495305,-0.006868535982096723,-1.3395348707017987
15574,13.0,299.82002,54149.115,0.0,-0.07786956674784307,-0.07786855034105866,0.0,0.0,0.0,-4.060405434380816,-6.340408650399614,-6.059164873143015,0.0003135875513136817,0.002094219250558348,-1.3455206456675486
15575,13.0,300.01261,54212.434,0.0,-0.07787458123658131,-0.07787355255124584,0.0,0.0,0.0,-4.064401794100227,-6.340831277016324,-6.073993079081444,0.003071494209732877,0.005645512713893725,-1.3388739276615687
15576,13.0,300.10312000000005,54248.28,0.0,-0.07787959572531988,-0.0778785547614328,0.0,0.0,0.0,-4.081370085574866,-6.345394854141714,-6.063357499406794,0.002026732031622878,0.007566784864508523,-1.3389781910968588
15577,13.0,300.14272,54216.63,0.0,-0.07788457722400077,-0.07788355697161975,0.0,0.0,0.0,-4.057527094821746,-6.350239000219794,-6.072735737032354,-0.0024908851838062276,-0.005118399037596655,-1.3336134371173987
15578,13.0,300.07142999999996,54220.685999999994,0.0,-0.07788959171273901,-0.07788855918180682,0.0,0.0,0.0,-4.068300476509996,-6.346458361446674,-6.066975916838904,-0.0012048132387308087,-0.0047151344143975355,-1.3320797817660386
15579,13.0,299.95655,54246.920999999995,0.0,-0.0778945732114199,-0.07789352848271647,0.0,0.0,0.0,-4.061683244081926,-6.344431354621624,-6.083594839679064,0.0012794758895744388,0.001249990311664439,-1.3285501250426885
15580,13.0,299.8177,54214.917,0.0,-0.07789958770015848,-0.07789853069290342,0.0,0.0,0.0,-4.071567093507387,-6.338048486941684,-6.070365441073425,0.002024697324097068,0.002104833957280938,-1.3350043255296686
15581,13.0,299.76068,54198.722,0.0,-0.07790456919883937,-0.0779035329030906,0.0,0.0,0.0,-4.063822113718016,-6.3386892663049235,-6.072546563238685,-0.005340667302057824,-0.0055293851331828245,-1.3338930941449987
15582,13.0,300.00962999999996,54240.166,0.0,-0.07790958368757761,-0.07790853511327767,0.0,0.0,0.0,-4.072971660796006,-6.339212508656564,-6.075471917602394,-0.0026715949954158975,0.00010282487346052491,-1.3367684952787788
15583,13.0,299.98466,54215.187000000005,0.0,-0.07791456518625872,-0.07791353732346473,0.0,0.0,0.0,-4.056067609377706,-6.341910894997874,-6.082084590405014,0.002315548232176818,-0.0022297639455855682,-1.3337104051519688
15584,13.0,299.82802999999996,54234.195999999996,0.0,-0.07791957967499696,-0.0779185395336518,0.0,0.0,0.0,-4.062590812196496,-6.351921704660864,-6.071328839268504,0.007194334190100503,-0.003038874243963537,-1.3427537636194788
15585,13.0,300.09975,54315.629,0.0,-0.07792459416373554,-0.07792354174383898,0.0,0.0,0.0,-4.071121567438417,-6.351372421781654,-6.088100864198774,-0.0013306785582027488,-0.01061297203841879,-1.3381051748106987
15586,13.0,300.28286,54290.342000000004,0.0,-0.07792957566241643,-0.07792854395402593,0.0,0.0,0.0,-4.073747810372606,-6.359816138839984,-6.069344591597674,-0.00025323488977733777,0.0027578304822766775,-1.3485001075865988
15587,13.0,300.02223,54212.969000000005,0.0,-0.07793459015115467,-0.07793354616421311,0.0,0.0,0.0,-4.064470999082056,-6.3489254227901535,-6.065992557616854,-0.004524075266266465,0.002262939375059728,-1.3439102872836186
15588,13.0,300.02291,54285.389,0.0,-0.07793957164983556,-0.07793854837440028,0.0,0.0,0.0,-4.073357405109076,-6.351218610416474,-6.076826835636115,0.0018885953415148484,0.005663159882935365,-1.3452806067188587
15589,13.0,299.908,54281.733,0.0,-0.07794458613857413,-0.07794355058458724,0.0,0.0,0.0,-4.058536291921346,-6.353258586842803,-6.088496538362824,0.0023428557276718577,-0.0025984306374951375,-1.3390868115075787
15590,13.0,299.92787000000004,54180.867999999995,0.0,-0.07794956763725502,-0.07794855279477442,0.0,0.0,0.0,-4.051787539630296,-6.346049515031324,-6.071793819739394,0.004477652301009875,0.004350019164088465,-1.3398521193081088
15591,13.0,299.86226,54218.032,0.0,-0.07795458212599327,-0.07795355500496137,0.0,0.0,0.0,-4.0501710004207565,-6.347238564023673,-6.083518440621524,0.0044222740287194655,0.005341404644155594,-1.3325421277866687
15592,13.0,299.59269,54282.372,0.0,-0.07795959661473173,-0.07795855721514844,0.0,0.0,0.0,-4.073476664645846,-6.349130707260414,-6.077878386589894,-0.0019428875110230682,0.001911321325357728,-1.3351464845186989
15593,13.0,299.74086,54320.962,0.0,-0.07796457811341262,-0.07796352651605809,0.0,0.0,0.0,-4.076348722054296,-6.353091805876344,-6.082775525648204,0.001067011123805799,-0.001137239184261769,-1.3337175992276786
15594,13.0,299.92332000000005,54354.393,0.0,-0.07796959260215097,-0.07796852872624505,0.0,0.0,0.0,-4.083833397892976,-6.354699124509974,-6.083845720403825,-0.005294590665685415,0.005282565008198575,-1.3364282458951988
15595,13.0,300.01527999999996,54345.195,0.0,-0.07797457410083186,-0.07797353093643222,0.0,0.0,0.0,-4.072997296023536,-6.352955827712924,-6.093628954094354,0.003302810088311977,0.002355621260381718,-1.3382404436990487
15596,13.0,300.02811,54274.638,0.0,-0.07797958858957033,-0.07797853314661929,0.0,0.0,0.0,-4.070381894865417,-6.349719912193565,-6.078032907230144,-0.007046147072250574,-0.0017516133512207785,-1.3435083309689488
15597,13.0,300.08669,54315.152,0.0,-0.07798457008825121,-0.07798353535680624,0.0,0.0,0.0,-4.071778558803256,-6.353233255590303,-6.085438144260984,0.004791138000423506,-0.0017271478196062185,-1.3476789697055587
15598,13.0,300.13285,54388.417,0.0,-0.07798958457698979,-0.07798853756699342,0.0,0.0,0.0,-4.090540302954896,-6.354071720048053,-6.088108767549554,0.0011630667266607489,0.0041742107471875265,-1.3444274501346587
15599,13.0,300.13261,54282.249,0.0,-0.07799456607567068,-0.07799353977718038,0.0,0.0,0.0,-4.069469361825356,-6.349412492113224,-6.081566414303874,0.004067454817976536,0.008027402381792932,-1.341682048988709
15600,13.0,300.06618,54258.019,0.0,-0.07799958056440892,-0.07799854198736755,0.0,0.0,0.0,-4.058261701144247,-6.357002951262344,-6.077818402183975,-0.0034436798179147366,-0.004239301528311486,-1.3453060392963685
15601,13.0,300.17786,54362.325,0.0,-0.07800459505314739,-0.07800354419755473,0.0,0.0,0.0,-4.064572425417066,-6.363918383194844,-6.096298766782844,0.002242743578041558,-0.005523044416707045,-1.3371747072438687
15602,13.0,300.06747,54413.93,0.0,-0.07800957655182827,-0.07800854640774169,0.0,0.0,0.0,-4.073801006002856,-6.370297501849414,-6.096377496315615,-0.0017159457318006582,7.125947002426214e-06,-1.3359063207686885
15603,13.0,299.81705,54348.812999999995,0.0,-0.07801459104056663,-0.07801354861792886,0.0,0.0,0.0,-4.062780897915256,-6.368928296989284,-6.0889727659098245,0.005667819617495244,-0.005383242551384676,-1.3411907240152185
15604,13.0,299.68816,54377.221,0.0,-0.07801957253924752,-0.07801855082811582,0.0,0.0,0.0,-4.0788008886213065,-6.370251398969864,-6.080265097200444,-0.008677671237519472,-0.0038658669880563662,-1.340641947761059
15605,13.0,299.93969,54396.030999999995,0.0,-0.07802458702798598,-0.078023553038303,0.0,0.0,0.0,-4.078406227707356,-6.368764150473084,-6.087864776925474,-0.0025966760936219774,-0.005737816555603405,-1.3418774036079886
15606,13.0,299.87968,54366.244000000006,0.0,-0.07802956852666687,-0.07802855524849017,0.0,0.0,0.0,-4.075843616879446,-6.363735795526823,-6.086401238481035,0.0003491965744805187,0.0003380072637587197,-1.3440745351248287
15607,13.0,299.71542,54352.514,0.0,-0.07803458301540522,-0.07803355745867724,0.0,0.0,0.0,-4.069847709412696,-6.358373169372574,-6.093586093615124,0.003910296485066215,0.005924633225565775,-1.3453951039801588
15608,13.0,299.90404,54350.155999999995,0.0,-0.07803956451408611,-0.07803852675958667,0.0,0.0,0.0,-4.083834208493056,-6.353150371732124,-6.084105720379484,-0.0016570194629600883,-0.004345842952476305,-1.3424870761931589
15609,13.0,300.19016,54331.312999999995,0.0,-0.07804457900282458,-0.07804352896977385,0.0,0.0,0.0,-4.072102900160266,-6.356745180436904,-6.086514519842214,-0.0036671635771958664,-0.0015074814800768385,-1.3468607702498088
15610,13.0,300.17019,54384.774000000005,0.0,-0.07804959349156293,-0.07804853117996091,0.0,0.0,0.0,-4.0923157197801165,-6.357163855378223,-6.082133733034865,0.00010377945637973489,0.003921672243938916,-1.3413641924323385
15611,13.0,300.16011000000003,54522.022000000004,0.0,-0.07805457499024404,-0.07805353339014787,0.0,0.0,0.0,-4.094953615090456,-6.373335529624244,-6.105044229720954,0.0049818094790663155,0.003101584292652537,-1.3410286039992185
15612,13.0,300.04715,54481.19,0.0,-0.07805958947898228,-0.07805853560033504,0.0,0.0,0.0,-4.092053186679206,-6.370453643689824,-6.098414736966674,-0.00026747787285551076,-0.004453427010994026,-1.3369434835710488
15613,13.0,299.90533,54410.218,0.0,-0.07806457097766317,-0.078063537810522,0.0,0.0,0.0,-4.071717358497216,-6.368140191061504,-6.099490200622814,0.0007407600841998282,-0.004847837550844315,-1.3424685337163287
15614,13.0,300.08317,54468.227999999996,0.0,-0.07806958546640164,-0.07806854002070918,0.0,0.0,0.0,-4.078935954859636,-6.3730948827254945,-6.104950402761694,0.005392854951108345,0.0034178199528375666,-1.3408003187516888
15615,13.0,300.06584,54462.861,0.0,-0.07807456696508253,-0.07807354223089613,0.0,0.0,0.0,-4.077695331437196,-6.3737874391688445,-6.1038670357547735,0.0001144000703504079,0.0012636761794401288,-1.3426420021334486
15616,13.0,300.04471,54378.317,0.0,-0.07807958145382088,-0.07807854444108331,0.0,0.0,0.0,-4.072957373969596,-6.367058242604724,-6.089635026175184,-0.0017418875688109184,-0.008186671922611612,-1.3500758128171089
15617,13.0,300.10904,54357.255,0.0,-0.07808459594255934,-0.07808354665127026,0.0,0.0,0.0,-4.066619798569127,-6.365668468767565,-6.090959952005944,-0.009605448118708922,-0.003916124091691356,-1.3482750647393886
15618,13.0,299.96595,54363.597,0.0,-0.07808957744124023,-0.07808854886145744,0.0,0.0,0.0,-4.068555815535196,-6.366050362730253,-6.090569850717444,0.0019081064854404484,0.0037659417830695164,-1.3496737551774287
15619,13.0,299.65935,54397.922999999995,0.0,-0.07809459192997859,-0.07809355107164462,0.0,0.0,0.0,-4.0674483331758955,-6.368748546421544,-6.099413497590245,-0.00028618938006719273,0.004244848667308946,-1.3496699048270486
15620,13.0,299.89374,54526.668,0.0,-0.07809957342865947,-0.07809855328183168,0.0,0.0,0.0,-4.0866375675447255,-6.382872239565444,-6.105235733989854,-0.0003967845139070826,1.4929963606222686e-05,-1.3488823055243186
15621,13.0,299.56037000000003,54520.162000000004,0.0,-0.07810458791739794,-0.07810355549201886,0.0,0.0,0.0,-4.092621316010276,-6.374895428153194,-6.105251236716384,0.001168064380128979,-6.353600457426544e-05,-1.3486193671233686
15622,13.0,299.65991,54437.65900000001,0.0,-0.07810956941607883,-0.07810852479292829,0.0,0.0,0.0,-4.084161690925376,-6.367906738238464,-6.095620699815925,0.0007862309996624582,0.0036153265126799465,-1.3447504742665386
15623,13.0,299.73627,54481.835,0.0,-0.07811458390481718,-0.07811352700311536,0.0,0.0,0.0,-4.081994754261516,-6.378500065383943,-6.100622608934574,0.0032637086656279665,-0.0007788450346485202,-1.3457775045678988
15624,13.0,299.93785,54542.804000000004,0.0,-0.07811956540349818,-0.07811852921330253,0.0,0.0,0.0,-4.094158416411976,-6.370252209569944,-6.115239856202185,0.0014229391341331588,-0.005331266164980005,-1.3363996722423788
15625,13.0,299.92101,54496.933,0.0,-0.07812457989223653,-0.07812353142348949,0.0,0.0,0.0,-4.082534005964736,-6.376048405441984,-6.107124432176254,0.0006679245867315243,0.0008544201881347073,-1.3444928047661089
15626,13.0,299.98351,54461.399000000005,0.0,-0.07812959438097489,-0.07812853363367667,0.0,0.0,0.0,-4.079181566683876,-6.372228959190034,-6.103494970318054,-0.0024145433748968778,0.004597268400490065,-1.3334548634767487
15627,13.0,300.00503,54528.879,0.0,-0.07813457587965589,-0.07813353584386362,0.0,0.0,0.0,-4.096208322689286,-6.375932793605574,-6.103276412271485,-0.002421739375782068,0.004183411058095526,-1.3424208096366188
15628,13.0,300.24526000000003,54558.712,0.0,-0.07813959036839446,-0.07813853805405058,0.0,0.0,0.0,-4.100716475034206,-6.3792337597813535,-6.104535983470794,-0.003844911354788207,-0.005497371901573365,-1.3402972400770388
15629,13.0,300.16195,54549.774000000005,0.0,-0.07814457186707513,-0.07814354026423775,0.0,0.0,0.0,-4.089093584462116,-6.3870064012984535,-6.105669303707644,-0.00047537583936344257,0.0019469348372225081,-1.3498618143959886
15630,13.0,299.97832999999997,54536.03,0.0,-0.0781495863558136,-0.07814854247442482,0.0,0.0,0.0,-4.090290131505206,-6.380134032495203,-6.107167191330474,-0.0005007866725262965,-0.0004631030501772125,-1.3406950420662986
15631,13.0,300.05641,54501.232,0.0,-0.07815456785449448,-0.07815354468461189,0.0,0.0,0.0,-4.0821559623524255,-6.380634578044604,-6.104222990514904,0.001967482333350388,0.0044756817322153955,-1.3533976519449489
15632,13.0,299.80433,54477.27099999999,0.0,-0.07815958234323284,-0.07815854689479906,0.0,0.0,0.0,-4.079930865132826,-6.378250501884314,-6.101548618200964,0.001023103349272439,-0.005663113172105755,-1.349415173751909
15633,13.0,299.99178,54551.587,0.0,-0.07816456384191373,-0.07816354910498613,0.0,0.0,0.0,-4.090601300610916,-6.388598926480624,-6.103119865131035,0.008377486674818562,0.001161637537394699,-1.3587431541725088
15634,13.0,299.84281,54571.106,0.0,-0.07816957833065219,-0.0781685513151733,0.0,0.0,0.0,-4.091090092459156,-6.382121421241344,-6.115042069782664,0.004362094876130246,-0.003240601902397507,-1.3437082452136788
15635,13.0,299.80363,54490.289000000004,0.0,-0.07817459281939054,-0.07817355352536026,0.0,0.0,0.0,-4.071771972677606,-6.385512060050973,-6.106403099430064,0.0028316605455131374,0.0031285029027591973,-1.3578514940845088
15636,13.0,300.00406,54539.167,0.0,-0.07817957431807143,-0.0781785228262698,0.0,0.0,0.0,-4.082232665384996,-6.384193213720814,-6.112119248544204,-0.0019327399125965781,-0.005008435361219085,-1.3396661879147589
15637,13.0,299.90403,54584.049000000006,0.0,-0.0781845888068099,-0.07818352503645698,0.0,0.0,0.0,-4.084910178774247,-6.387628030234804,-6.119649520637385,-0.001106658586968699,0.007691303574597563,-1.3479104973534088
15638,13.0,299.83667,54572.627,0.0,-0.07818957030549079,-0.07818852724664394,0.0,0.0,0.0,-4.090689250719596,-6.388325551603644,-6.1097011271805535,-5.471235621868915e-06,0.002582270919600297,-1.3399420959169885
15639,13.0,300.06633,54576.630999999994,0.0,-0.07819458479422914,-0.07819352945683111,0.0,0.0,0.0,-4.096410364759226,-6.387138427786485,-6.106384354303215,-0.0017374648334494282,0.0030779709043720774,-1.3492087747065387
15640,13.0,300.16416,54592.06,0.0,-0.07819956629291014,-0.07819853166701829,0.0,0.0,0.0,-4.100493965312246,-6.384502761626364,-6.109626247998165,0.0016537838514157585,-0.004575670366658506,-1.3416311838336885
15641,13.0,299.94028,54556.027,0.0,-0.07820458078164849,-0.07820353387720524,0.0,0.0,0.0,-4.088474691301036,-6.386097718608774,-6.109097635420994,0.001109116427736269,-0.0005002928853550635,-1.3537867399833485
15642,13.0,300.13833999999997,54627.15,0.0,-0.07820959527038696,-0.0782085360873922,0.0,0.0,0.0,-4.101334456270195,-6.382121319916335,-6.121833682552944,0.0025724131107024077,0.00022191480229628578,-1.3399561800933788
15643,13.0,299.78392,54671.592000000004,0.0,-0.07821457676906785,-0.07821353829757927,0.0,0.0,0.0,-4.1041882751768455,-6.391492059491154,-6.123118483679744,-0.004548407251517846,0.0024039452854759274,-1.3523652514180589
15644,13.0,300.00975,54622.136,0.0,-0.07821959125780631,-0.07821854050776644,0.0,0.0,0.0,-4.108291836756837,-6.3808789739687235,-6.114594517213494,-0.0008552637087104561,-0.002078778230959438,-1.3431329218068988
15645,13.0,300.04982,54573.692,0.0,-0.07822457275648709,-0.07822354271795351,0.0,0.0,0.0,-4.092675423565617,-6.386816518229714,-6.1095477211154146,-0.004896427554089776,0.002069563633225028,-1.3562262409241088
15646,13.0,299.9993,54636.84099999999,0.0,-0.07822958724522555,-0.07822854492814058,0.0,0.0,0.0,-4.095697239338846,-6.396182596854073,-6.116355545887295,0.0024383229361937377,0.0005125576698655035,-1.3465949947485787
15647,13.0,300.01024,54638.953,0.0,-0.07823456874390644,-0.07823354713832775,0.0,0.0,0.0,-4.085755026707626,-6.398022152410624,-6.125099995575304,-0.0002101238641951108,-0.00016907873397677185,-1.3512586809838487
15648,13.0,300.06158,54548.204000000005,0.0,-0.0782395832326448,-0.07823854934851471,0.0,0.0,0.0,-4.079715650811586,-6.393057328245635,-6.108518968288885,0.001924483849456768,0.0012716716346542188,-1.3487503803612986
15649,13.0,299.95431,54570.462,0.0,-0.07824456473132568,-0.07824355155870188,0.0,0.0,0.0,-4.083493857784466,-6.394768707664534,-6.109795359439854,0.0036147445018225068,0.003501551090751187,-1.3542344952025387
15650,13.0,300.01226,54615.064000000006,0.0,-0.07824957922006415,-0.07824855376888906,0.0,0.0,0.0,-4.1021673478523955,-6.385821911931553,-6.113626559392964,9.013434253631702e-05,0.0029298262417013373,-1.350704433179149
15651,13.0,300.01971000000003,54617.045,0.0,-0.07825459370880239,-0.07825352306979838,0.0,0.0,0.0,-4.092406000364026,-6.397617055020644,-6.112194938326674,-0.001963712739003358,-0.000968121551613658,-1.3604709482430286
15652,13.0,300.04815,54675.268,0.0,-0.07825957520748328,-0.07825852527998556,0.0,0.0,0.0,-4.098188314709696,-6.395835356044804,-6.125892458478514,0.0019248132570642783,-0.009325760288305882,-1.3538620244657789
15653,13.0,300.12109,54717.5,0.0,-0.07826458969622185,-0.07826352749017274,0.0,0.0,0.0,-4.102501821710406,-6.399957358776614,-6.130294523537964,-0.006294677127011264,0.0013775151321501588,-1.3496916897041986
15654,13.0,299.9418,54680.325,0.0,-0.07826957119490274,-0.07826852970035969,0.0,0.0,0.0,-4.098546194645016,-6.398533742386114,-6.124373292603584,0.0004701385015840575,-0.0015507508057221887,-1.3494659375819187
15655,13.0,300.09717,54733.184,0.0,-0.0782745856836412,-0.07827353191054687,0.0,0.0,0.0,-4.114003932870576,-6.393466275985994,-6.130050938213924,-0.002083943374669198,-0.003461655887938837,-1.3443085958979286
15656,13.0,300.12934,54802.445,0.0,-0.0782795671823221,-0.07827853412073382,0.0,0.0,0.0,-4.129195895594906,-6.400135994769244,-6.129242972584184,0.0045964278082071056,-0.003820998551103197,-1.3459709340119885
15657,13.0,299.98366,54689.398,0.0,-0.07828458167106056,-0.078283536330921,0.0,0.0,0.0,-4.109743317525086,-6.392496899615323,-6.121971383241535,0.0031933112910802865,-0.001170984972217219,-1.3467720095410487
15658,13.0,299.89042,54608.933,0.0,-0.07828956316974134,-0.07828853854110807,0.0,0.0,0.0,-4.093447114841776,-6.392988933863884,-6.1133158969123045,0.0034619787094206968,-0.0005334491947998365,-1.3477541528629788
15659,13.0,299.90337999999997,54695.52,0.0,-0.0782945776584798,-0.07829354075129502,0.0,0.0,0.0,-4.094287301824696,-6.400481006428294,-6.131303923287585,-0.0011590158540859589,0.00025488775400296274,-1.3483521730719987
15660,13.0,299.88993,54737.318,0.0,-0.07829959214721827,-0.0782985429614822,0.0,0.0,0.0,-4.103760480984626,-6.402251458328024,-6.132765840531865,0.0004248025814322506,0.0016917502313377483,-1.3463196946964089
15661,13.0,300.08302000000003,54690.067,0.0,-0.07830457364589893,-0.07830354517166915,0.0,0.0,0.0,-4.098663225031566,-6.405876867185824,-6.119874766134614,-0.005338784582047016,0.0071448663069684035,-1.3559734350241588
15662,13.0,299.91138,54711.683,0.0,-0.07830958813463751,-0.07830854738185633,0.0,0.0,0.0,-4.101994791360367,-6.404399143239984,-6.124591546675124,-0.0045540943203541155,0.004212622045228425,-1.3537287820776287
15663,13.0,299.84333,54737.85400000001,0.0,-0.0783145696333184,-0.07831354959204351,0.0,0.0,0.0,-4.093128852985367,-6.411594840150144,-6.134217017325085,-0.001016747130070129,-0.0017328522150191984,-1.3636318832549887
15664,13.0,299.70202,54689.793,0.0,-0.07831958412205664,-0.07831855180223046,0.0,0.0,0.0,-4.085778838084976,-6.407037849150403,-6.131514881958403,0.0004917380046282625,-0.004839980910893925,-1.3553960851171787
15665,13.0,299.81363999999996,54712.718,0.0,-0.07832456562073753,-0.07832352110314,0.0,0.0,0.0,-4.086088385990526,-6.4041356982139845,-6.141076112552025,0.0044255172396395455,-0.00044299441293264456,-1.3634994514669185
15666,13.0,299.94995,54695.928,0.0,-0.0783295801094761,-0.07832852331332718,0.0,0.0,0.0,-4.098257317041506,-6.3994551920270535,-6.1284838456092645,-0.002053710930110488,0.0004979276657791345,-1.349528353788079
15667,13.0,300.12231,54643.913,0.0,-0.07833459459821435,-0.07833352552351414,0.0,0.0,0.0,-4.099881050326756,-6.393921225280893,-6.116582716559714,-0.0008036815880521973,0.000886840766549369,-1.3563381037351487
15668,13.0,300.0558,54755.747,0.0,-0.07833957609689546,-0.07833852773370131,0.0,0.0,0.0,-4.1151660294102665,-6.4026160257140035,-6.1265978831981345,-0.005401154482677444,0.0034418167549558664,-1.3530730066129089
15669,13.0,300.12432,54881.442,0.0,-0.0783445905856337,-0.07834352994388827,0.0,0.0,0.0,-4.124152848522196,-6.414287552290894,-6.144147476255144,-0.0017273863386797585,0.004885026666614595,-1.3524515803265789
15670,13.0,299.70284,54811.791,0.0,-0.07834957208431481,-0.07834853215407545,0.0,0.0,0.0,-4.109594876385437,-6.408951067989223,-6.142870071854074,0.0017876796845552486,0.0018613809637039983,-1.3490080498617287
15671,13.0,299.86275,54789.469000000005,0.0,-0.07835458657305316,-0.07835353436426262,0.0,0.0,0.0,-4.104441283726816,-6.410145487207103,-6.140043610700124,0.005011762570572455,-0.003876041032310466,-1.3455353377939987
15672,13.0,299.93303,54847.095,0.0,-0.07835956807173405,-0.07835853657444969,0.0,0.0,0.0,-4.119945935432006,-6.411219430988093,-6.140982184267754,0.006788707782243293,-0.002093516764264018,-1.3423498821296187
15673,13.0,300.15903,54799.373,0.0,-0.07836458256047252,-0.07836353878463664,0.0,0.0,0.0,-4.120598367171396,-6.404408465140903,-6.132634118018864,0.005073180117433895,-0.0006629882348943443,-1.3469649323600885
15674,13.0,300.13581,54756.704000000005,0.0,-0.07836956405915319,-0.0783685409948236,0.0,0.0,0.0,-4.102422078927536,-6.4096070461039645,-6.132641514744594,0.006188986528955414,0.0013317761107110688,-1.3561110343877387
15675,13.0,300.05147999999997,54770.066,0.0,-0.07837457854789176,-0.07837354320501078,0.0,0.0,0.0,-4.109211057247556,-6.400967366476293,-6.138553930403104,-0.006423697605969594,-0.005838089710674594,-1.349901229824879
15676,13.0,300.09834,54786.143,0.0,-0.07837959303663022,-0.07837854541519795,0.0,0.0,0.0,-4.100312086919296,-6.406693850741453,-6.146613524348524,-0.0037526122753539968,0.005550481405564865,-1.3563580647621187
15677,13.0,300.11663,54791.749,0.0,-0.07838457453531089,-0.07838354762538491,0.0,0.0,0.0,-4.100321206170196,-6.414842306720644,-6.140160033136614,-0.0024615581795368775,0.003267133045665927,-1.3568219306578988
15678,13.0,300.0999,54836.074,0.0,-0.07838958902404947,-0.07838854983557209,0.0,0.0,0.0,-4.119426746080767,-6.411163094282534,-6.138207398868904,0.0034829329241387167,0.0058963703365514444,-1.3567385401746686
15679,13.0,299.74117,54867.654,0.0,-0.07839457052273036,-0.07839351913648163,0.0,0.0,0.0,-4.1243608687677265,-6.421654995093004,-6.132381008143884,-0.0017980367217774083,-0.006820603476841153,-1.3565511902311786
15680,13.0,299.87647000000004,54810.787000000004,0.0,-0.0783995850114686,-0.07839852134666858,0.0,0.0,0.0,-4.112971734993706,-6.418848900266064,-6.129290088713835,0.005197965920249295,0.001022256069538819,-1.365461002335509
15681,13.0,299.87147000000004,54813.60400000001,0.0,-0.07840456651014971,-0.07840352355685576,0.0,0.0,0.0,-4.103779124786467,-6.421268440179854,-6.1369192540167745,0.005978363851868574,-0.003394559175591906,-1.3596357261855987
15682,13.0,300.19497,54849.918,0.0,-0.07840958099888795,-0.07840852576704271,0.0,0.0,0.0,-4.105389685820416,-6.424694036117934,-6.142921747609174,0.005022585601515605,0.0024724041099322878,-1.3570976360101088
15683,13.0,299.90913,54790.742,0.0,-0.07841456249756906,-0.07841352797722989,0.0,0.0,0.0,-4.098745703589706,-6.410976656264134,-6.145295184643414,-0.0003870968195684816,-0.006655645448636063,-1.3469057585542485
15684,13.0,300.01698,54792.876,0.0,-0.07841957698630742,-0.07841853018741707,0.0,0.0,0.0,-4.112611119283117,-6.412068230596865,-6.130986776006284,-0.0028518506683307475,0.0038285265940461565,-1.3543425076631987
15685,13.0,300.06671,54883.754,0.0,-0.07842459147504566,-0.07842353239760413,0.0,0.0,0.0,-4.120298039841756,-6.415737715834014,-6.147255215636854,-0.0051028252822346454,0.0047483638501020255,-1.3492914559146987
15686,13.0,300.21443,54890.89599999999,0.0,-0.07842957297372677,-0.07842853460779131,0.0,0.0,0.0,-4.119358351699017,-6.4191655409223145,-6.146937967030544,-0.007255861877247812,0.0036923422342308066,-1.3556487896921188
15687,13.0,300.21889,54901.989,0.0,-0.07843458746246512,-0.07843353681797827,0.0,0.0,0.0,-4.116086769776136,-6.421829172785194,-6.150917709448314,-0.005270530231460835,-0.0016415061986290484,-1.3532387743292686
15688,13.0,300.10256,54959.318,0.0,-0.07843956896114601,-0.07843853902816544,0.0,0.0,0.0,-4.122216730231116,-6.423488268498934,-6.160555237774465,-0.002972568677294687,0.008844508135384992,-1.3518008711123588
15689,13.0,299.8574,54881.2,0.0,-0.07844458344988448,-0.0784435412383524,0.0,0.0,0.0,-4.122494766058556,-6.415176780578653,-6.144842869798774,0.0009587233630936291,0.0014146570304657785,-1.3519137471734988
15690,13.0,299.76565,54831.210999999996,0.0,-0.07844956494856514,-0.07844854344853935,0.0,0.0,0.0,-4.113310464502136,-6.419550981260353,-6.134457562898825,0.0005450857845132785,-0.0007342780598651023,-1.3564454069207386
15691,13.0,299.95022,54894.957,0.0,-0.0784545794373036,-0.07845354565872653,0.0,0.0,0.0,-4.122267291411107,-6.418022392159494,-6.146406416028085,0.0012967548435297387,-0.006097475251473953,-1.3576875502183288
15692,13.0,299.88995,54902.361,0.0,-0.07845959392604218,-0.0784585478689136,0.0,0.0,0.0,-4.116719341813567,-6.426639273659914,-6.145588317897344,0.0025147328355098076,0.0024889914193693273,-1.3632089526632487
15693,13.0,300.15191,54829.889,0.0,-0.07846457542472285,-0.07846351716982303,0.0,0.0,0.0,-4.101505087587036,-6.417189804552324,-6.148222362857304,0.002009254987273028,0.002613784010960397,-1.3600346427499685
15694,13.0,299.93709,54857.904,0.0,-0.07846958991346131,-0.0784685193800102,0.0,0.0,0.0,-4.0997275429366065,-6.425674051614653,-6.150031520910853,-0.0003253628245683107,0.003958827922455896,-1.3567255705733887
15695,13.0,299.99102999999997,54938.058,0.0,-0.0784745714121422,-0.07847352159019727,0.0,0.0,0.0,-4.116531282595006,-6.427228782568093,-6.156037763528624,0.0019576715392571383,-0.00968511804889673,-1.3539863502530487
15696,13.0,300.00347,54935.422999999995,0.0,-0.07847958590088056,-0.07847852380038445,0.0,0.0,0.0,-4.117161118857166,-6.429435843935915,-6.152399689044574,-0.001078082198373429,0.004224987242823776,-1.3567544482012386
15697,13.0,299.99585,54921.26,0.0,-0.07848456739956167,-0.07848352601057151,0.0,0.0,0.0,-4.116253753392616,-6.433275757839884,-6.145162246230294,0.0010916800147154288,-0.0014976880125602986,-1.3598785009095586
15698,13.0,300.05395,54932.607,0.0,-0.07848958188829991,-0.07848852822075858,0.0,0.0,0.0,-4.117213301237316,-6.428711572764434,-6.152216088126454,-0.004739720218798965,-0.0005197258165054445,-1.3586567239389788
15699,13.0,300.26268999999996,54946.087,0.0,-0.07849456338698102,-0.07849353043094576,0.0,0.0,0.0,-4.112388406911136,-6.431249662939924,-6.158600374356534,-0.007433632351642392,-0.0016047964514810783,-1.3602772148239088
15700,13.0,300.27686,54974.955,0.0,-0.07849957787571926,-0.07849853264113271,0.0,0.0,0.0,-4.120797065516006,-6.436386334321873,-6.153830195535753,-0.002331551909556258,0.002424692695848538,-1.3609753441428087
15701,13.0,300.14822000000004,55010.907999999996,0.0,-0.07850459236445784,-0.07850353485131989,0.0,0.0,0.0,-4.142487102456646,-6.421476156450353,-6.157979150720224,-0.0028118109760541378,0.0006160454926014564,-1.3487657817628187
15702,13.0,300.09015,54957.779,0.0,-0.07850957386313873,-0.07850853706150707,0.0,0.0,0.0,-4.128474360198696,-6.427943731838654,-6.149374428221003,-0.001981506727984488,-6.705071079238994e-05,-1.3552773322054588
15703,13.0,299.89037,54940.41099999999,0.0,-0.07851458835187697,-0.07851353927169402,0.0,0.0,0.0,-4.127046690807796,-6.426781635298965,-6.146684553180535,0.00996848843546321,-0.008976499564961531,-1.3538882676433686
15704,13.0,300.20403999999996,55035.194,0.0,-0.07851956985055786,-0.07851854148188098,0.0,0.0,0.0,-4.128444975945796,-6.433550753917024,-6.167329017342984,0.007538432404185352,-0.0006576582049958114,-1.3563722502635187
15705,13.0,300.15474,55024.413,0.0,-0.07852458433929643,-0.07852354369206804,0.0,0.0,0.0,-4.126588701762596,-6.4388223902122945,-6.1606367030825036,0.007747665408760042,4.525270090784386e-06,-1.3491777692534788
15706,13.0,299.8666,54876.668,0.0,-0.0785295658379771,-0.07852854590225522,0.0,0.0,0.0,-4.108391844541706,-6.422739172700004,-6.150005683033304,-0.005221628856459645,-0.0045151457971101955,-1.3598536762821087
15707,13.0,299.84632999999997,54904.467000000004,0.0,-0.07853458032671556,-0.0785335481124424,0.0,0.0,0.0,-4.119428367280926,-6.430033053544854,-6.140125683958224,-0.005272061961637005,-0.006282007751735894,-1.3561341364900188
15708,13.0,299.98904,54998.457,0.0,-0.07853956182539645,-0.07853851741335183,0.0,0.0,0.0,-4.122322006916506,-6.439072764312003,-6.156762845300184,-0.006720863696622604,0.00024837763224296375,-1.3690273387124787
15709,13.0,299.88825,54980.742,0.0,-0.0785445763141348,-0.0785435196235389,0.0,0.0,0.0,-4.121166597827476,-6.431635609903014,-6.159970491141754,0.0015642150757010085,0.002226131241327048,-1.3616608078354588
15710,13.0,299.97011000000003,54993.4,0.0,-0.07854959080287327,-0.07854852183372607,0.0,0.0,0.0,-4.112945593141125,-6.442633426488414,-6.161041293847434,-0.006184106817798823,0.002001989477430978,-1.3735389361077386
15711,13.0,300.00015,55025.46400000001,0.0,-0.07855457230155416,-0.07855352404391303,0.0,0.0,0.0,-4.123031079336486,-6.432826888045584,-6.170509102781835,-0.0036107474328280265,-0.0006135034710155785,-1.3632116884385186
15712,13.0,300.15555,55019.345,0.0,-0.07855958679029251,-0.0785585262541002,0.0,0.0,0.0,-4.124086075340606,-6.440742093851754,-6.159679080412994,0.005027148773340956,0.0052918676573666746,-1.3678565282219288
15713,13.0,300.36616000000004,55024.318,0.0,-0.07856456828897351,-0.07856352846428716,0.0,0.0,0.0,-4.133042800924566,-6.437391478421074,-6.155584334108874,0.0065409274001392735,0.0036159887729453064,-1.3561971606462386
15714,13.0,300.12491,55038.697,0.0,-0.07856958277771209,-0.07856853067447434,0.0,0.0,0.0,-4.131644515786566,-6.435491938458604,-6.163253117490724,0.002982922066816487,0.00010772546770167591,-1.3578179555061989
15715,13.0,299.87597999999997,55014.526,0.0,-0.07857456427639298,-0.07857353288466151,0.0,0.0,0.0,-4.124962131377067,-6.438667058971964,-6.159413102261745,0.0014722632370760688,-0.006785481492599884,-1.3547485169782687
15716,13.0,300.01038,55017.377,0.0,-0.07857957876513122,-0.07857853509484847,0.0,0.0,0.0,-4.114336177578366,-6.4358782907217345,-6.173694254471185,0.003748809953028736,0.005020558594690555,-1.3615350634980488
15717,13.0,300.02348,55098.316,0.0,-0.0785845932538698,-0.07858353730503564,0.0,0.0,0.0,-4.129038031229326,-6.442289225429444,-6.1771850023906945,0.0008474130773331593,0.006399613968317724,-1.3527068180267687
15718,13.0,300.0462,55090.902,0.0,-0.07858957475255068,-0.0785885395152226,0.0,0.0,0.0,-4.135605006452436,-6.440642187391894,-6.170011293007703,-0.0003348281307749637,0.004864688507957376,-1.3584212446157387
15719,13.0,299.92793,55079.890999999996,0.0,-0.07859458924128893,-0.07859354172540978,0.0,0.0,0.0,-4.141809643439786,-6.436809366238624,-6.164292408118294,-0.009268912195420411,0.002667652439276797,-1.3566227256882386
15720,13.0,300.01104,55148.73,0.0,-0.07859957073996982,-0.07859854393559684,0.0,0.0,0.0,-4.145039986083596,-6.449579255923914,-6.169217715529385,-0.0023334731330708677,0.005637363852614495,-1.364095141200709
15721,13.0,299.96878,55137.082,0.0,-0.07860458522870828,-0.0786035461457838,0.0,0.0,0.0,-4.139323938294466,-6.446560277250964,-6.1744119395170145,-0.003289854469883357,0.0026989637925419873,-1.3574109329410289
15722,13.0,300.18823,55073.935,0.0,-0.07860956672738906,-0.07860851544669345,0.0,0.0,0.0,-4.121091212020036,-6.4481195678298535,-6.171890365318154,0.0009796963938660062,-0.004293134898174426,-1.3683155305172288
15723,13.0,300.22506,55107.984000000004,0.0,-0.07861458121612752,-0.07861351765688052,0.0,0.0,0.0,-4.136263011067376,-6.445728094943834,-6.169460084953304,-0.001044969793055489,-0.0028127575542975574,-1.3610665366518087
15724,13.0,300.29317000000003,55110.98,0.0,-0.07861956271480841,-0.07861851986706747,0.0,0.0,0.0,-4.139162831528567,-6.441491493625714,-6.171707473675104,0.003655752557219687,0.003732149993559527,-1.3628892722566988
15725,13.0,300.15712,55050.28,0.0,-0.07862457720354676,-0.07862352207725465,0.0,0.0,0.0,-4.129440696819066,-6.447015530520893,-6.157454287168425,0.003206434399750437,0.0020056021193375177,-1.3619963962685788
15726,13.0,300.22056000000003,55107.835999999996,0.0,-0.07862959169228523,-0.0786285242874416,0.0,0.0,0.0,-4.128938631394517,-6.447435320037324,-6.175032048578214,0.003060666315189247,-0.005023565819662345,-1.3628722496550187
15727,13.0,300.10021,55184.920999999995,0.0,-0.07863457319096634,-0.07863352649762878,0.0,0.0,0.0,-4.137630290752316,-6.451281110791873,-6.185926716303435,-0.0026106758662786476,-0.004212586378824905,-1.3646087576763986
15728,13.0,299.89218999999997,55130.890999999996,0.0,-0.07863958767970458,-0.07863852870781596,0.0,0.0,0.0,-4.123228359130956,-6.459834968136074,-6.175351019709694,-0.004380289301550896,-0.003398327554038817,-1.3662139484848186
15729,13.0,299.95172,55069.745,0.0,-0.07864456917838547,-0.07864353091800291,0.0,0.0,0.0,-4.130959254743936,-6.444889123861034,-6.163978807212344,-0.003903218021192626,-0.0026222442439953575,-1.3664339250815287
15730,13.0,299.95899,55179.922999999995,0.0,-0.07864958366712393,-0.07864853312819009,0.0,0.0,0.0,-4.138013197965106,-6.460134991490684,-6.175170458541873,0.0002931205072437417,-0.0061834318919072135,-1.3615096309205386
15731,13.0,299.97729,55182.072,0.0,-0.07865456516580493,-0.07865353533837705,0.0,0.0,0.0,-4.153205262014446,-6.451093963498403,-6.1696727661492945,0.004782219474368315,0.0018112281235042982,-1.3633770508548386
15732,13.0,299.91368,55123.740999999995,0.0,-0.07865957965454318,-0.07865853754856422,0.0,0.0,0.0,-4.134552948873607,-6.447992404942304,-6.173695470371303,0.003853822889417707,0.005417540054019575,-1.3641441825055487
15733,13.0,299.92451,55121.864,0.0,-0.07866456115322407,-0.0786635397587514,0.0,0.0,0.0,-4.134988747741616,-6.447829069026184,-6.172852243638085,0.003624788039463726,0.0004999188440806486,-1.3647153515869186
15734,13.0,299.83964,55127.056,0.0,-0.07866957564196253,-0.07866854196893847,0.0,0.0,0.0,-4.1280992550116755,-6.443025351627094,-6.186123894772894,-0.0018193484111307082,-0.0051375790513895755,-1.3621984383385186
15735,13.0,299.88644,55180.134000000005,0.0,-0.07867459013070088,-0.07867354417912542,0.0,0.0,0.0,-4.145652090469006,-6.449265452367944,-6.178465446542065,-0.0008022985928582062,-0.0004338147115316786,-1.3669446031319288
15736,13.0,299.96055,55224.905999999995,0.0,-0.07867957162938177,-0.07867851348003507,0.0,0.0,0.0,-4.147341381035726,-6.453277213488874,-6.186373863572564,-0.0031102350167062968,-0.0003900578808657156,-1.3683096536666488
15737,13.0,300.03265,55161.123,0.0,-0.07868458611812024,-0.07868351569022214,0.0,0.0,0.0,-4.1417471259086165,-6.451362272124884,-6.174494620725174,-0.004675685446929226,0.0014855559638129584,-1.3611624914362788
15738,13.0,300.26426000000004,55124.82,0.0,-0.07868956761680101,-0.07868851790040932,0.0,0.0,0.0,-4.117177229533756,-6.462160478440584,-6.177231206595254,0.0001128303939579929,-0.004996015042818295,-1.3696498795739187
15739,13.0,300.21081000000004,55224.295,0.0,-0.07869458210553948,-0.07869352011059627,0.0,0.0,0.0,-4.134178350311636,-6.4629770566961735,-6.189651322346023,0.0025389453585743975,0.005841255002661984,-1.3622179940654486
15740,13.0,300.01977,55272.249,0.0,-0.07869956360422059,-0.07869852232078323,0.0,0.0,0.0,-4.139564889168246,-6.469658529180584,-6.192160129593624,0.0008379654016782462,0.0027853327244409375,-1.3649516415102387
15741,13.0,299.97656,55156.578,0.0,-0.07870457809295883,-0.0787035245309704,0.0,0.0,0.0,-4.137451249459645,-6.457970790602094,-6.170800412185584,0.0009797400446803141,0.004457537665324716,-1.3637039253370986
15742,13.0,299.99844,55140.876,0.0,-0.07870959258169719,-0.07870852674115736,0.0,0.0,0.0,-4.135939277660426,-6.452283215140774,-6.173227044850075,-0.006831186367510603,-0.0006150110858393684,-1.3647667233669887
15743,13.0,299.92477,55252.483,0.0,-0.07871457408037819,-0.07871352895134454,0.0,0.0,0.0,-4.155648208005546,-6.460927859693934,-6.178799211125003,0.0006293826604877324,0.004352734978331496,-1.3637454685911987
15744,13.0,299.85058,55268.367,0.0,-0.07871958856911654,-0.0787185311615316,0.0,0.0,0.0,-4.1458476477383055,-6.459476480250694,-6.194879287561984,0.0015643012019595085,0.0032186989816108567,-1.3639985784661788
15745,13.0,300.03443,55207.384000000005,0.0,-0.07872457006779743,-0.07872353337171867,0.0,0.0,0.0,-4.135364055578656,-6.457791546659403,-6.188510504058435,-1.4724145153159987e-06,0.006782564041586953,-1.3685319607385886
15746,13.0,299.79582,55182.599,0.0,-0.07872958455653589,-0.07872853558190585,0.0,0.0,0.0,-4.133614983256036,-6.456209660603284,-6.184307643968644,0.005603264035074105,-0.008231905332250803,-1.3656996227340588
15747,13.0,299.8649,55215.325999999994,0.0,-0.07873456605521678,-0.07873353779209291,0.0,0.0,0.0,-4.1462699703799855,-6.456436223325644,-6.181374082279124,3.808986572492706e-05,-9.936517253732901e-05,-1.3675580247424686
15748,13.0,299.90558,55263.820999999996,0.0,-0.07873958054395513,-0.07873854000228009,0.0,0.0,0.0,-4.147397211116235,-6.466743003342844,-6.184681330605524,0.001022212094484479,-0.001171331807726449,-1.3663902540022186
15749,13.0,300.14493999999996,55295.71599999999,0.0,-0.07874456204263602,-0.07874354221246704,0.0,0.0,0.0,-4.154581863600306,-6.464712956767494,-6.189222109603664,-0.0004386710875384655,-0.0008002255236836102,-1.3615869419031685
15750,13.0,300.30776000000003,55267.458,0.0,-0.07874957653137449,-0.07874854442265422,0.0,0.0,0.0,-4.144216315077306,-6.463986557770804,-6.191724229400603,-0.0005428804051406244,-0.001959163651354398,-1.3596364354606687
15751,13.0,300.10528,55235.212999999996,0.0,-0.07875459102011284,-0.07875351372356376,0.0,0.0,0.0,-4.133594211628986,-6.469757219740323,-6.186773996037054,-0.007165121581767442,0.0018162348962234283,-1.362718134314809
15752,13.0,299.9856,55297.629,0.0,-0.07875957251879373,-0.07875851593375072,0.0,0.0,0.0,-4.145549042933836,-6.464831304379174,-6.198718086890844,0.0006716773003318885,0.0031660091658107774,-1.3637917741207686
15753,13.0,300.07032000000004,55372.013,0.0,-0.0787645870075322,-0.0787635181439379,0.0,0.0,0.0,-4.159333398619246,-6.475306385237984,-6.197069630303154,-0.004938711595337886,-0.0008438579880322991,-1.3614562326402686
15754,13.0,299.88156000000004,55255.684,0.0,-0.07876956850621308,-0.07876852035412485,0.0,0.0,0.0,-4.143870999443226,-6.469078139523304,-6.183398961278964,0.0032353230720265276,-0.00937805544319201,-1.3661942914328788
15755,13.0,299.86024,55218.974,0.0,-0.07877458299495144,-0.0787735225643118,0.0,0.0,0.0,-4.144795286184446,-6.463422988065184,-6.176971003969574,0.0017407276000964383,0.0016261799802664686,-1.3666573467285787
15756,13.0,300.10816,55282.105,0.0,-0.07877956449363244,-0.07877852477449898,0.0,0.0,0.0,-4.142382129746286,-6.470504390364064,-6.191493005727784,0.008328822096365741,0.004351145087599585,-1.3702360447567687
15757,13.0,299.95803,55299.495,0.0,-0.07878457898237079,-0.07878352698468605,0.0,0.0,0.0,-4.1496192685855355,-6.465837765703504,-6.1942085159957845,0.0036149716724949263,0.0032836666528476667,-1.3686216333724386
15758,13.0,300.15799,55332.075,0.0,-0.07878956048105168,-0.07878852919487322,0.0,0.0,0.0,-4.147153321817166,-6.470210446510054,-6.2022054910850235,0.002217620649762118,-0.0018887940398594582,-1.3680636365423686
15759,13.0,300.32437000000004,55309.71400000001,0.0,-0.07879457496979014,-0.07879353140506029,0.0,0.0,0.0,-4.155062549447746,-6.468599885476103,-6.189109537517553,-0.004020966498088496,0.006303583291415234,-1.3708309238904788
15760,13.0,300.07242,55257.792,0.0,-0.0787995894585285,-0.07879853361524736,0.0,0.0,0.0,-4.141549238164086,-6.465787407173535,-6.1896524369211345,-0.005317262947272995,0.0007584503771657244,-1.3705722411399488
15761,13.0,299.98357999999996,55326.444,0.0,-0.07880457095720939,-0.07880353582543453,0.0,0.0,0.0,-4.156104981150626,-6.4722101969074135,-6.189542195310254,-0.004296179005449856,-0.00038127595105650664,-1.3673679390237088
15762,13.0,299.98734,55415.082,0.0,-0.07880958544594785,-0.07880853803562149,0.0,0.0,0.0,-4.156804225044636,-6.476675387448093,-6.211321499584704,0.0012695940666491786,-0.0049585727158480255,-1.3602264509938986
15763,13.0,299.90457000000004,55304.153,0.0,-0.07881456694462874,-0.07881354024580867,0.0,0.0,0.0,-4.146827359259996,-6.471546619416924,-6.192707487297644,0.0033782659113338873,0.004430785126909446,-1.3687822335132886
15764,13.0,299.94265,55228.349,0.0,-0.07881958143336709,-0.07881854245599584,0.0,0.0,0.0,-4.135601257427067,-6.4690639540219035,-6.183373934001494,0.006626262310311173,0.0027612342933376072,-1.3678823660994788
15765,13.0,300.00728,55382.670999999995,0.0,-0.07882456293204798,-0.07882351175690516,0.0,0.0,0.0,-4.164949742598536,-6.475923454548884,-6.1940757802326845,-0.0006937875320889984,0.0007580079415095592,-1.3720272682835486
15766,13.0,299.77297999999996,55477.329000000005,0.0,-0.07882957742078645,-0.07882851396709234,0.0,0.0,0.0,-4.170620396783185,-6.485509408444944,-6.207592941866723,0.0031649187060531566,-0.0018753191307545882,-1.362627448430859
15767,13.0,299.8806,55387.276,0.0,-0.07883459190952469,-0.07883351617727952,0.0,0.0,0.0,-4.1580204291396665,-6.478759744228803,-6.199568710349794,0.003043391211584327,0.004008709819578856,-1.3752651089780987
15768,13.0,299.87605,55322.785,0.0,-0.07883957340820569,-0.07883851838746647,0.0,0.0,0.0,-4.136054078896756,-6.477074607987494,-6.203616745824304,0.001120823924691709,0.004347488369313696,-1.3642708387680487
15769,13.0,299.96592999999996,55339.867999999995,0.0,-0.07884458789694415,-0.07884352059765365,0.0,0.0,0.0,-4.144763875431346,-6.476894958744763,-6.200279201319914,-0.00019224812619591283,-0.0027373124717267076,-1.3688601524459787
15770,13.0,299.728,55389.432,0.0,-0.07884956939562504,-0.0788485228078406,0.0,0.0,0.0,-4.147504818276857,-6.476141809945434,-6.213357625660654,-0.007765931470962763,-0.003209358943514067,-1.3680639405173987
15771,13.0,299.99377999999996,55436.822,0.0,-0.07885458388436328,-0.07885352501802767,0.0,0.0,0.0,-4.165566710584426,-6.485190437313464,-6.200652583981764,0.00023981952938084477,0.001972476237793248,-1.3755273381039788
15772,13.0,299.77069,55371.542,0.0,-0.0788595653830444,-0.07885852722821485,0.0,0.0,0.0,-4.149695464993057,-6.480282963104134,-6.2015877124990535,-0.0017309621996076687,-0.004031909295193466,-1.3740431293574986
15773,13.0,300.00538,55285.490999999995,0.0,-0.07886457987178275,-0.0788635294384018,0.0,0.0,0.0,-4.144716657976686,-6.473790867063414,-6.186901057599594,0.0002770655695417427,-0.005211700221379765,-1.3739374473720687
15774,13.0,299.79651,55381.058,0.0,-0.07886956137046364,-0.07886853164858898,0.0,0.0,0.0,-4.144577640062966,-6.483038598076094,-6.206842528842664,-0.001750309298342078,-0.006453281773114323,-1.3720175410825886
15775,13.0,300.03997999999996,55496.683,0.0,-0.0788745758592021,-0.07887353385877593,0.0,0.0,0.0,-4.170046187951516,-6.484364739806973,-6.2151950533919935,0.004105609561092116,0.004456336052031126,-1.3675959202962087
15776,13.0,300.16323,55408.802,0.0,-0.07887959034794034,-0.07887853606896311,0.0,0.0,0.0,-4.155422557208277,-6.482750429747654,-6.204719263258115,-0.0015826751752978784,0.0023987710225152675,-1.3698593183695886
15777,13.0,300.14525,55344.25,0.0,-0.07888457184662134,-0.07888353827915029,0.0,0.0,0.0,-4.153388660282546,-6.479566899258464,-6.190314393211464,0.0012111930666604488,-0.0027349319419417675,-1.3687464657847588
15778,13.0,299.86472000000003,55465.382000000005,0.0,-0.07888958633535981,-0.07888854048933724,0.0,0.0,0.0,-4.165846772912066,-6.482912245788624,-6.211332037385744,-0.0036696195941132567,-0.00034565653194364366,-1.3711841428753386
15779,13.0,300.0865,55548.922,0.0,-0.0788945678340407,-0.07889350979024679,0.0,0.0,0.0,-4.173736546140725,-6.491951855230765,-6.219797032696174,-9.342106038919081e-05,-0.0012887290921376588,-1.3655787419971286
15780,13.0,300.04775,55497.685,0.0,-0.07889958232277894,-0.07889851200043396,0.0,0.0,0.0,-4.152332043078267,-6.493845619667664,-6.2237328000596035,0.001013964137345469,-0.002947315951677437,-1.3669022492777487
15781,13.0,299.99619,55453.433,0.0,-0.07890456382145983,-0.07890351421062092,0.0,0.0,0.0,-4.156869377026067,-6.485497756068794,-6.214091826683115,-0.006424312344805264,-0.001984050695010558,-1.3627346502914386
15782,13.0,299.84497000000005,55409.831,0.0,-0.0789095783101984,-0.0789085164208081,0.0,0.0,0.0,-4.154310109923486,-6.484402736685723,-6.204491991260684,-0.005306770742487495,0.00030486085376742373,-1.3751763482693387
15783,13.0,299.60542000000004,55472.579000000005,0.0,-0.07891455980887929,-0.07891351863099505,0.0,0.0,0.0,-4.167107458686486,-6.484389665759434,-6.210781943906453,-0.008309793563462772,0.0017276078351516184,-1.3749832228002787
15784,13.0,299.84126000000003,55534.333,0.0,-0.07891957429761753,-0.07891852084118223,0.0,0.0,0.0,-4.170400318861467,-6.494498659357114,-6.2161514601613845,-0.0016568067817640986,-0.00015786422372498585,-1.3775299256016187
15785,13.0,300.10976,55455.12,0.0,-0.07892458878635611,-0.0789235230513693,0.0,0.0,0.0,-4.160280179512686,-6.486186563486774,-6.210505123979135,0.0028112301810968173,-0.0031399255751115274,-1.3726705807720387
15786,13.0,300.06215,55348.657999999996,0.0,-0.078929570285037,-0.07892852526155625,0.0,0.0,0.0,-4.132499496220946,-6.485106134905144,-6.2070042435586235,0.006442330262058493,0.0030309384691803373,-1.3770386006281288
15787,13.0,299.95975,55430.11,0.0,-0.07893458477377546,-0.07893352747174343,0.0,0.0,0.0,-4.156099712250106,-6.487975557863334,-6.205294181364854,0.0038499205593075765,8.922957301852322e-05,-1.3674715945089386
15788,13.0,300.10365,55598.53400000001,0.0,-0.07893956627245635,-0.07893852968193038,0.0,0.0,0.0,-4.177047340842476,-6.500793880903403,-6.222724717535114,-0.0028981011784203173,0.0010664144208219091,-1.3741532696433687
15789,13.0,299.97478,55548.191,0.0,-0.0789445807611946,-0.07894353189211756,0.0,0.0,0.0,-4.173537949121126,-6.500149859139844,-6.211575217409744,2.053523478841988e-05,-0.004442557573196296,-1.3722257639781386
15790,13.0,300.07237000000003,55446.630999999994,0.0,-0.0789495622598756,-0.07894853410230473,0.0,0.0,0.0,-4.152787093698176,-6.4943134372388345,-6.2072908920119145,0.0002475231786986358,-0.0015588262063691686,-1.3818389743018886
15791,13.0,299.90529,55536.666,0.0,-0.07895457674861406,-0.07895353631249169,0.0,0.0,0.0,-4.167975003422106,-6.492547139664515,-6.221237671688353,-0.003048695069232777,-0.0001240590289161729,-1.3692624127356787
15792,13.0,299.68566,55582.327000000005,0.0,-0.0789595912373523,-0.07895853852267887,0.0,0.0,0.0,-4.1688858139369955,-6.501417536339954,-6.225336167017844,-0.0013363690720893586,-0.0005783509271512924,-1.3704477127026589
15793,13.0,299.7382,55528.310999999994,0.0,-0.07896457273603319,-0.07896350782358841,0.0,0.0,0.0,-4.1708642860822565,-6.491120888823754,-6.217234725843294,-0.000966350471498866,0.0030428129497522575,-1.3704190377248286
15794,13.0,299.98987,55475.042,0.0,-0.07896958722477176,-0.07896851003377536,0.0,0.0,0.0,-4.1556766803333565,-6.492363842721423,-6.2149869318214535,-0.0025477784676461576,0.0099402895838552,-1.3772329419973088
15795,13.0,300.03258999999997,55440.815,0.0,-0.07897456872345265,-0.07897351224396254,0.0,0.0,0.0,-4.165307115908806,-6.4860877716020235,-6.2012284140135945,0.0041572503590636654,0.001282298905678049,-1.3779011804382588
15796,13.0,300.05552,55529.359000000004,0.0,-0.0789795832121909,-0.0789785144541495,0.0,0.0,0.0,-4.170222797443945,-6.494979243879544,-6.214336323932244,-0.003588644699121656,0.004376756098452196,-1.3734398402479586
15797,13.0,300.12037999999995,55652.99,0.0,-0.07898456471087179,-0.07898351666433667,0.0,0.0,0.0,-4.182777371482986,-6.506318728398663,-6.228023306283044,0.0008225910742009183,-0.005680645438586055,-1.3756071822118587
15798,13.0,299.99655,55592.388,0.0,-0.07898957919961025,-0.07898851887452385,0.0,0.0,0.0,-4.160801496689135,-6.506472134463803,-6.2314242802436945,-0.0006818195082678464,-0.004154255090443056,-1.3723710640424787
15799,13.0,300.06203,55520.637,0.0,-0.07899456069829125,-0.07899352108471092,0.0,0.0,0.0,-4.157816867194576,-6.503111487857135,-6.215958942642384,0.005713334204037184,-0.003174617738660377,-1.3737489828534686
15800,13.0,299.82339,55584.707,0.0,-0.07899957518702971,-0.0789985232948981,0.0,0.0,0.0,-4.160505425009916,-6.507032056469064,-6.228825597712224,0.0037670411594280164,-0.0012552469518582287,-1.3744910872267087
15801,13.0,299.944,55649.062999999995,0.0,-0.07900458967576796,-0.07900352550508505,0.0,0.0,0.0,-4.182500044930617,-6.505540147021824,-6.227885504269444,0.002363927986026528,-0.004835486133450325,-1.3724391544491987
15802,13.0,300.13081,55553.7,0.0,-0.07900957117444884,-0.079008527715272,0.0,0.0,0.0,-4.158285090065786,-6.501733771696164,-6.226918762349034,-0.005581793366780115,-0.0014107358539037886,-1.3788728872841587
15803,13.0,300.10405,55458.203,0.0,-0.07901458566318742,-0.07901352992545918,0.0,0.0,0.0,-4.153310336049817,-6.492293928464524,-6.212304554831723,0.002252470677676548,-0.0016849942849709882,-1.3744262392203088
15804,13.0,299.92672999999996,55504.799000000006,0.0,-0.07901956716186831,-0.07901853213564614,0.0,0.0,0.0,-4.151793601975126,-6.496904925694594,-6.223374312174224,-0.005791019582579135,0.004120432802105056,-1.3779910557221287
15805,13.0,299.92046,55599.460999999996,0.0,-0.07902458165060655,-0.07902353434583331,0.0,0.0,0.0,-4.180487020956946,-6.498805681557184,-6.221555224269694,-0.0006820162003772584,-0.007143994709232384,-1.3728360445133687
15806,13.0,299.66816,55670.318,0.0,-0.07902956314928744,-0.07902853655602038,0.0,0.0,0.0,-4.174147824356316,-6.513263341934044,-6.234975316544154,-0.005750526460882774,-0.004489908168919436,-1.3818625830292186
15807,13.0,299.72091,55649.282,0.0,-0.07903457763802602,-0.07903353876620745,0.0,0.0,0.0,-4.187313793505696,-6.506740949715335,-6.2219374222074135,0.0015267634268298187,0.0014383772153067785,-1.3730739556368485
15808,13.0,299.90097000000003,55611.3,0.0,-0.0790395591367069,-0.07903850806711699,0.0,0.0,0.0,-4.165242267902406,-6.509729530885284,-6.229474787051294,0.005192516965186525,0.005858523114841215,-1.3767746489770787
15809,13.0,300.04078,55639.727,0.0,-0.07904457362544515,-0.07904351027730405,0.0,0.0,0.0,-4.1768190555949465,-6.507147972280504,-6.229120757466354,0.0025676577253330875,-0.0012027306044752688,-1.3752100894976687
15810,13.0,300.15198,55702.289000000004,0.0,-0.07904958811418361,-0.07904851248749112,0.0,0.0,0.0,-4.175237980138906,-6.512655999824103,-6.244210787230624,0.0012582306694276988,0.004892344662811826,-1.3694733714064986
15811,13.0,299.96779,55637.8,0.0,-0.0790545696128645,-0.0790535146976783,0.0,0.0,0.0,-4.173248970192606,-6.503812352951303,-6.235440702315085,-0.0037518516285039265,-0.0012609870136747288,-1.3675075648874886
15812,13.0,300.00493,55548.962999999996,0.0,-0.07905958410160285,-0.07905851690786536,0.0,0.0,0.0,-4.150756236522747,-6.506242734641163,-6.228498824554974,0.0004633446697960586,-7.888768489860833e-05,-1.3802363166187186
15813,13.0,300.0978,55605.231,0.0,-0.07906456560028396,-0.07906351911805254,0.0,0.0,0.0,-4.175568502321526,-6.500890950262985,-6.226142308797404,-0.002726437359728417,-0.0036584853940643965,-1.3758215859330187
15814,13.0,299.96853,55714.305,0.0,-0.0790695800890222,-0.0790685213282395,0.0,0.0,0.0,-4.179431011702726,-6.516791884082284,-6.239534739344134,-0.0014434397167814087,0.004227860921432386,-1.3807823570976088
15815,13.0,299.796,55689.042,0.0,-0.0790745615877031,-0.07907352353842667,0.0,0.0,0.0,-4.178898751425196,-6.516196498323524,-6.232982861547514,0.0015991128276951485,0.006283368749270214,-1.3789388498656685
15816,13.0,300.04094,55606.551,0.0,-0.07907957607644167,-0.07907852574861363,0.0,0.0,0.0,-4.168848526333316,-6.513383614720914,-6.220770766042274,-0.003150963415075877,0.00932306818411519,-1.3860551079679886
15817,13.0,299.90951,55647.355,0.0,-0.07908459056517991,-0.07908352795880058,0.0,0.0,0.0,-4.1718603109305565,-6.517718703948754,-6.225827289341314,-0.002309443602974338,-0.0037212887630876067,-1.3781317961610187
15818,13.0,300.202,55693.469000000005,0.0,-0.0790895720638608,-0.07908853016898776,0.0,0.0,0.0,-4.176857153798706,-6.515934573172673,-6.236632183107674,-0.003060412192064167,-0.001190896349932319,-1.3848854120525487
15819,13.0,300.15442,55727.032999999996,0.0,-0.07909458655259927,-0.07909353237917482,0.0,0.0,0.0,-4.185506357977316,-6.517605625237594,-6.236514544771064,-0.001863214845059988,0.0007196957494609403,-1.3711042987674589
15820,13.0,300.17721,55689.94,0.0,-0.07909956805128016,-0.079098534589362,0.0,0.0,0.0,-4.169048541903057,-6.516757838878924,-6.242544801416204,0.0016761116279693385,0.003370431866860727,-1.3852177580853486
15821,13.0,300.18209,55648.075,0.0,-0.07910458254001851,-0.07910353679954907,0.0,0.0,0.0,-4.176247987838586,-6.506232298165134,-6.233144981563514,0.004742410904439515,0.00015718767663321586,-1.3721692246225587
15822,13.0,300.21811,55692.449,0.0,-0.0791095640386994,-0.0791085061004585,0.0,0.0,0.0,-4.174374285753665,-6.512976997455785,-6.241762572339004,0.005826150280771265,0.003358413099474567,-1.3773497697338386
15823,13.0,300.01854,55773.269,0.0,-0.07911457852743786,-0.07911350831064567,0.0,0.0,0.0,-4.194091018124555,-6.517082585535974,-6.242507513812524,0.0025376812277496377,-0.002130374243276568,-1.3676407059506288
15824,13.0,299.97222999999997,55724.654,0.0,-0.07911956002611875,-0.07911851052083285,0.0,0.0,0.0,-4.177060411768766,-6.520604845533594,-6.241238215412253,-0.0016033863113169085,-0.0016550557842662885,-1.3802748201225188
15825,13.0,299.82366,55653.184,0.0,-0.0791245745148571,-0.07912351273101981,0.0,0.0,0.0,-4.176886031426556,-6.515171291872344,-6.225120952696603,-0.008132462738286581,-0.01176925758878529,-1.3753251947090288
15826,13.0,300.03165,55744.33900000001,0.0,-0.07912958900359557,-0.07912851494120698,0.0,0.0,0.0,-4.176494410262905,-6.522458485266534,-6.245934123000704,-0.0014343515726594786,0.00034705325667648963,-1.3821916866616988
15827,13.0,299.9744,55802.86,0.0,-0.07913457050227646,-0.07913351715139394,0.0,0.0,0.0,-4.198458835330626,-6.521202561767584,-6.243014544162564,-0.005581854769736175,0.005363252849436844,-1.3759334487440589
15828,13.0,299.96053,55711.306,0.0,-0.07913958499101481,-0.07913851936158112,0.0,0.0,0.0,-4.172956343563726,-6.521682943639994,-6.240206524160434,0.001133986043490709,0.001971944382815758,-1.3879713665571087
15829,13.0,299.77629,55697.505,0.0,-0.07914456648969592,-0.0791435215717683,0.0,0.0,0.0,-4.175618556876467,-6.519369389686664,-6.235662705411994,-0.00023948213736254677,-0.002558117671666558,-1.3839200886822787
15830,13.0,299.77405,55745.248,0.0,-0.07914958097843416,-0.07914852378195525,0.0,0.0,0.0,-4.179765282910716,-6.5203467707331235,-6.245051480838594,0.005625196745413694,-0.0012872150938382388,-1.3797302995187788
15831,13.0,299.87519,55739.389,0.0,-0.07915456247711505,-0.07915352599214243,0.0,0.0,0.0,-4.176752181088346,-6.5210399351265345,-6.245590327241774,0.005927605493409115,-0.0023308854949654874,-1.3853145234698987
15832,13.0,300.09422,55757.523,0.0,-0.07915957696585352,-0.07915852820232938,0.0,0.0,0.0,-4.1709070452364765,-6.528094587622774,-6.249893093791424,-0.003515584604636187,-0.003973182231322556,-1.3822617022436088
15833,13.0,299.97254,55782.401,0.0,-0.0791645584645344,-0.07916353041251645,0.0,0.0,0.0,-4.186094448335356,-6.525300347822003,-6.245062322614665,-0.0004020438493461386,-0.0071828616658432525,-1.3809361684627885
15834,13.0,300.04407000000003,55774.584,0.0,-0.07916957295327276,-0.07916853262270362,0.0,0.0,0.0,-4.176712360359416,-6.529899794000935,-6.2474685889521435,-0.0024511141041311277,0.0006975506720328914,-1.3792236744687787
15835,13.0,300.00515,55801.922,0.0,-0.07917458744201122,-0.07917353483289058,0.0,0.0,0.0,-4.190767456471546,-6.528761711488614,-6.242861746047485,0.0009597464417195992,0.004635729449110876,-1.3809532923894787
15836,13.0,299.92258,55830.273,0.0,-0.07917956894069211,-0.07917850413380012,0.0,0.0,0.0,-4.191659825834616,-6.527067658646423,-6.252281425602135,0.002389557742005988,-0.0038257325568954066,-1.3756881408948487
15837,13.0,300.00736,55784.126,0.0,-0.07918458342943047,-0.0791835063439873,0.0,0.0,0.0,-4.188845928981906,-6.526982545638024,-6.241152798428824,-0.000883324545522345,0.003140281124571617,-1.3810884599528186
15838,13.0,299.95827,55732.437999999995,0.0,-0.07918956492811136,-0.07918850855417425,0.0,0.0,0.0,-4.177363880173717,-6.518720099022584,-6.245185533826824,0.0034087382935162774,0.003454293308737207,-1.3797317180689186
15839,13.0,299.84737,55830.390999999996,0.0,-0.07919457941684982,-0.07919351076436143,0.0,0.0,0.0,-4.202780853632176,-6.522891345709254,-6.245372782445304,0.001223321265057409,0.005767591011116915,-1.3836049679011788
15840,13.0,299.68295,55859.416,0.0,-0.07919956091553071,-0.07919851297454839,0.0,0.0,0.0,-4.190144510310066,-6.530879606847634,-6.258843435899753,-0.002252574029186748,-0.0005866406099294205,-1.3845592468453587
15841,13.0,299.69267,55783.831,0.0,-0.07920457540426906,-0.07920351518473556,0.0,0.0,0.0,-4.192041618472296,-6.523673068161403,-6.241177116431224,0.001978335255171488,-0.0015590008906864086,-1.3833996834309186
15842,13.0,299.75726000000003,55844.445999999996,0.0,-0.07920958989300753,-0.07920851739492274,0.0,0.0,0.0,-4.183599826589155,-6.532294002662224,-6.259423318931984,-0.0006481439993393324,0.0037498007089765166,-1.3832251004386886
15843,13.0,299.72995,55870.587,0.0,-0.07921457139168842,-0.0792135196051097,0.0,0.0,0.0,-4.192173239660287,-6.531348640318924,-6.259741378138374,0.005085181963543385,0.004774952444651115,-1.3808724350314987
15844,13.0,299.78247000000005,55836.96599999999,0.0,-0.07921958588042677,-0.07921852181529687,0.0,0.0,0.0,-4.183579561587156,-6.533877408593494,-6.2555865461033235,0.004614489801839685,-0.004231142129231216,-1.3855242662405987
15845,13.0,299.8871,55853.401,0.0,-0.07922456737910777,-0.07922352402548383,0.0,0.0,0.0,-4.1926624368085665,-6.534685982173294,-6.250690724270144,-0.0035527480851789365,-0.0003379158584671987,-1.3812283897916287
15846,13.0,300.02386,55848.122,0.0,-0.07922958186784634,-0.079228526235671,0.0,0.0,0.0,-4.185680333019486,-6.535911204194214,-6.254843124504954,0.0004755577177563925,0.00039094204290297563,-1.3812916165978688
15847,13.0,300.0975,55810.25,0.0,-0.07923456336652701,-0.07923352844585807,0.0,0.0,0.0,-4.186434089768876,-6.532702443777534,-6.245785884511074,-0.0039329954151314265,0.008801813322546342,-1.3828311487998088
15848,13.0,300.16562000000005,55864.644,0.0,-0.07923957785526548,-0.07923853065604503,0.0,0.0,0.0,-4.187440247118176,-6.536502435627565,-6.257513950443545,-0.0014730756610062488,-0.00038520351109412663,-1.3788190837038488
15849,13.0,299.91051,55907.742,0.0,-0.07924455935394636,-0.0792435328662322,0.0,0.0,0.0,-4.191812015999636,-6.545462707586873,-6.257282828095734,-0.0022991944768878275,-0.0023880769783098475,-1.3876929254296286
15850,13.0,299.86201,55841.676,0.0,-0.07924957384268472,-0.07924853507641916,0.0,0.0,0.0,-4.184165017494936,-6.5411457555358234,-6.249164465644514,0.002077383289546768,0.0036908323902567963,-1.3857672436145787
15851,13.0,299.87588,55832.182,0.0,-0.07925458833142318,-0.07925350437732892,0.0,0.0,0.0,-4.190608173555826,-6.534026153708174,-6.246954668501424,0.005859734252685744,0.003976497686974766,-1.3921624729457385
15852,13.0,299.81822999999997,55911.878,0.0,-0.07925956983010407,-0.07925850658751588,0.0,0.0,0.0,-4.200573994914375,-6.536469504999314,-6.258771292492634,0.0027221312494534375,-0.008483891512869903,-1.3833895509299188
15853,13.0,299.84636,55914.8,0.0,-0.07926458431884242,-0.07926350879770283,0.0,0.0,0.0,-4.203152412443846,-6.5342423812795145,-6.259308213720623,-0.004767647215405146,0.0003535420393893827,-1.3806079767553987
15854,13.0,300.21377,55873.041,0.0,-0.07926956581752331,-0.07926851100789001,0.0,0.0,0.0,-4.184662725944056,-6.534061313486644,-6.265285173410504,7.191779583948383e-05,0.0017298539066482883,-1.3780766753555789
15855,13.0,300.18732,55920.192,0.0,-0.07927458030626178,-0.07927351321807719,0.0,0.0,0.0,-4.194844774873945,-6.536100884612934,-6.267396482643874,-0.0048761552566890555,0.004781235101896165,-1.3770459973538587
15856,13.0,300.25059,55928.952000000005,0.0,-0.07927956180494267,-0.07927851542826414,0.0,0.0,0.0,-4.201281040834155,-6.534711009450764,-6.265012811783624,-0.0009151054186188733,-0.012258512492320989,-1.3835790286986187
15857,13.0,300.0386,55916.43,0.0,-0.07928457629368091,-0.07928351763845132,0.0,0.0,0.0,-4.2020546572855055,-6.541300884126134,-6.253842844006234,0.0020382177281314277,-0.00931618943183631,-1.3826127934032588
15858,13.0,299.9497,55949.287000000004,0.0,-0.07928955779236202,-0.07928851984863827,0.0,0.0,0.0,-4.200700651176875,-6.548516846038294,-6.257968595763415,0.007407186220057363,-0.0004731747257737095,-1.3912515611058385
15859,13.0,299.98311,55898.615999999995,0.0,-0.07929457228110048,-0.07929352205882545,0.0,0.0,0.0,-4.1974304878041355,-6.541075132003853,-6.253277957075484,0.0016713491498493186,0.007304374873485674,-1.3822427544667386
15860,13.0,300.10688,55875.252,0.0,-0.07929958676983884,-0.07929852426901263,0.0,0.0,0.0,-4.179553108339776,-6.545328350623614,-6.259799842669144,-0.0038217770311550266,-0.0037310871955296364,-1.3875228007378386
15861,13.0,300.03707,55963.543,0.0,-0.07930456826851973,-0.07930352647919969,0.0,0.0,0.0,-4.2008289286395355,-6.543936550286253,-6.266754183405484,-0.0013481590476029388,0.006996757412026192,-1.3822368776161589
15862,13.0,300.13063,56006.21599999999,0.0,-0.07930958275725819,-0.07930852868938687,0.0,0.0,0.0,-4.204724469973996,-6.546017765991653,-6.273748851495804,0.0006093220310329024,0.005429169936017355,-1.3816854669117387
15863,13.0,300.08588,55947.31,0.0,-0.07931456425593897,-0.07931353089957383,0.0,0.0,0.0,-4.197192779330676,-6.547258389414094,-6.262133965599503,0.0011266026926620288,0.001166974021696369,-1.3834297769588886
15864,13.0,300.03637000000003,55968.985,0.0,-0.07931957874467743,-0.07931853310976078,0.0,0.0,0.0,-4.1974805423590755,-6.545575887623044,-6.270117363137404,-0.0018920028002761386,-0.011664044738151589,-1.3797722480729187
15865,13.0,299.89763999999997,56058.18,0.0,-0.07932456024335832,-0.07932350241067054,0.0,0.0,0.0,-4.212664196432586,-6.552077710864723,-6.275544938623064,-0.001901195917108428,0.004486116688370245,-1.3860043441379788
15866,13.0,299.84199,55978.095,0.0,-0.07932957473209667,-0.0793285046208575,0.0,0.0,0.0,-4.192358765753596,-6.548981522534153,-6.274602818680084,0.0028485079562508473,0.006545846121424713,-1.3836027387509588
15867,13.0,299.75299,55892.172,0.0,-0.07933458922083514,-0.07933350683104445,0.0,0.0,0.0,-4.185051915307466,-6.545830416048164,-6.258942329109514,-0.006165678027630045,0.006461050057655994,-1.3962167905708687
15868,13.0,300.00883999999996,55935.875,0.0,-0.07933957071951603,-0.07933850904123163,0.0,0.0,0.0,-4.196851516696996,-6.5446946640110735,-6.261562999168154,-0.004717270446933345,-0.011294483042428688,-1.3840682258468988
15869,13.0,300.11351,55974.922999999995,0.0,-0.07934458520825427,-0.07934351125141859,0.0,0.0,0.0,-4.207670089339706,-6.549777126512673,-6.2575317836453035,-0.002175405610845818,-0.0025994013310909375,-1.3921826366227288
15870,13.0,300.16616,55977.47900000001,0.0,-0.07934956670693516,-0.07934851346160576,0.0,0.0,0.0,-4.203281703156606,-6.549736089883623,-6.262738166634135,0.0015077796795812685,0.002806609659315807,-1.3860133620638686
15871,13.0,300.14661,56036.460999999996,0.0,-0.07935458119567373,-0.07935351567179283,0.0,0.0,0.0,-4.210066527151216,-6.548838755595065,-6.274779732147544,0.004045401024249996,-0.000987778887263686,-1.3839247496327387
15872,13.0,300.36321,56094.596,0.0,-0.07935956269435473,-0.0793585178819799,0.0,0.0,0.0,-4.206480432397297,-6.557580570832814,-6.287295498707754,0.0037064568081238065,-0.005077780272887895,-1.3754616794974988
15873,13.0,300.06591000000003,56035.7,0.0,-0.07936457718309309,-0.07936352009216707,0.0,0.0,0.0,-4.208012466548496,-6.554179799522184,-6.271261322500304,0.0008513420660534203,0.006472486307559665,-1.3848165110457487
15874,13.0,300.07198999999997,56046.136,0.0,-0.07936955868177398,-0.07936852230235414,0.0,0.0,0.0,-4.206719660745906,-6.553659191620803,-6.276247019617354,0.004730892986577785,-0.001965475591527338,-1.3843833466279987
15875,13.0,300.11228,56053.013,0.0,-0.07937457317051244,-0.07937352451254132,0.0,0.0,0.0,-4.214596059073246,-6.552836229889584,-6.271284019302544,-0.001093687263163529,-0.003053432114775287,-1.3864382178307986
15876,13.0,299.99143,55966.518,0.0,-0.0793795876592508,-0.07937852672272827,0.0,0.0,0.0,-4.194046232470136,-6.549087812469644,-6.269290044430753,-0.004511805111530496,-0.013572782985029385,-1.3884846790577687
15877,13.0,300.01287,55971.27,0.0,-0.07938456915793168,-0.07938352893291545,0.0,0.0,0.0,-4.1943025847454365,-6.554488435502644,-6.265077457140004,-0.002097611611893148,0.005366027837485714,-1.3971499939129686
15878,13.0,300.08884,56046.22900000001,0.0,-0.07938958364667015,-0.0793885311431024,0.0,0.0,0.0,-4.197108476922357,-6.559445558966873,-6.280100004447614,-0.0017781718522418982,0.004393033454683646,-1.3932144291995587
15879,13.0,299.94514,56035.915,0.0,-0.07939456514535081,-0.07939350044401194,0.0,0.0,0.0,-4.206631102687166,-6.554794437032844,-6.272093302157414,0.0033953337039683467,0.0002045145015090098,-1.3904744996041487
15880,13.0,299.86307,56048.369000000006,0.0,-0.07939957963408939,-0.07939850265419912,0.0,0.0,0.0,-4.201948772650056,-6.561516642171274,-6.273839334729734,0.001072790398401169,-0.0053479096084725845,-1.3920149437311786
15881,13.0,299.88788999999997,56097.962,0.0,-0.07940456113277028,-0.0794035048643863,0.0,0.0,0.0,-4.217320789917156,-6.557713306595915,-6.277345484050764,0.005932964066562964,0.005216582465661605,-1.3867198000335885
15882,13.0,300.02426,56090.424000000006,0.0,-0.07940957562150852,-0.07940850707457325,0.0,0.0,0.0,-4.210450954239156,-6.557226439922864,-6.2824109239506845,-0.0012786237462403386,-0.002413398199633858,-1.3844204315816588
15883,13.0,300.0471,56076.039000000004,0.0,-0.07941455712018941,-0.07941350928476021,0.0,0.0,0.0,-4.197461797232226,-6.5634438438614735,-6.284809894887444,0.0002532773246915258,0.0008277922794817372,-1.3832637052674988
15884,13.0,300.20595,56086.433,0.0,-0.07941957160892799,-0.07941851149494727,0.0,0.0,0.0,-4.202315366536236,-6.560537842574674,-6.286021843332054,-0.0009512171658228251,-0.0008301163003086001,-1.3844775788872987
15885,13.0,300.32156000000003,56094.721,0.0,-0.07942458609766623,-0.07942351370513445,0.0,0.0,0.0,-4.206750666198967,-6.564946088459734,-6.2796977441579145,0.005535853823146235,0.012786380330667488,-1.3924130496954685
15886,13.0,300.2166,56068.057,0.0,-0.07942956759634734,-0.07942851591532163,0.0,0.0,0.0,-4.209483401718666,-6.559872035933965,-6.273934073614084,0.0005606391330182745,0.003762755820780087,-1.3945458398309587
15887,13.0,300.0367,56119.593,0.0,-0.07943458208508558,-0.07943351812550858,0.0,0.0,0.0,-4.219513665783576,-6.560487484044703,-6.278953613284473,-0.0016157080404829685,-0.0014600712039228086,-1.3857546793133386
15888,13.0,300.1471,56164.739,0.0,-0.07943956358376669,-0.07943852033569576,0.0,0.0,0.0,-4.2218844683675565,-6.560416049912654,-6.2903778055119535,-0.007132714499844113,-0.0033304299688128466,-1.3870022941614686
15889,13.0,299.97012,56126.84099999999,0.0,-0.07944457807250505,-0.07944352254588272,0.0,0.0,0.0,-4.209399909910426,-6.559021412475014,-6.292736854394773,0.001160805659062599,0.0025497573450914573,-1.3865673058935386
15890,13.0,299.91828,56137.977999999996,0.0,-0.07944955957118593,-0.0794485247560699,0.0,0.0,0.0,-4.212797236170716,-6.563783181319964,-6.2879630278736345,-0.005536715491031275,0.002212430782749918,-1.3921289343674288
15891,13.0,299.90821,56173.984000000004,0.0,-0.0794545740599244,-0.07945352696625707,0.0,0.0,0.0,-4.223625941314426,-6.563248590567204,-6.288613838412864,-0.002934943256031347,-0.002120764883303198,-1.3837505719405487
15892,13.0,299.9078,56117.96400000001,0.0,-0.07945958854866275,-0.07945852917644403,0.0,0.0,0.0,-4.211527431145396,-6.568071559718193,-6.278860900900324,-0.004039622256279676,-0.0008329438152426541,-1.3918407660389887
15893,13.0,300.01275,56112.280999999995,0.0,-0.07946457004734364,-0.07946349847735357,0.0,0.0,0.0,-4.210343955028596,-6.566358761749154,-6.280029583565664,0.004518611213777206,0.009011366818127663,-1.3887053649295487
15894,13.0,300.05093,56139.28400000001,0.0,-0.0794695845360821,-0.07946850068754074,0.0,0.0,0.0,-4.204396075616586,-6.567873773298674,-6.292670790488254,0.006338762929587193,0.0028329676381421377,-1.3923130419105987
15895,13.0,300.08691,56095.111,0.0,-0.07947456603476277,-0.0794735028977277,0.0,0.0,0.0,-4.196971992133886,-6.569798239213603,-6.284742817730824,0.0049987687526150655,-0.002528957448363668,-1.3907343982547986
15896,13.0,300.15989,56113.801,0.0,-0.07947958052350124,-0.07947850510791488,0.0,0.0,0.0,-4.201794961284876,-6.570733570380914,-6.284665709398214,0.0027670449786860777,-0.0030245127410211668,-1.4001363459326988
15897,13.0,300.21067999999997,56211.947,0.0,-0.07948456202218224,-0.07948350731810183,0.0,0.0,0.0,-4.222810274983925,-6.574871987764343,-6.289346114260134,0.0034499933792878374,-7.362825624054313e-05,-1.3940270557797587
15898,13.0,300.08558,56195.009000000005,0.0,-0.07948957651092048,-0.0794885095282889,0.0,0.0,0.0,-4.217602372119946,-6.575729197348943,-6.288547977156364,-0.007562877366822884,-0.0008941137339121552,-1.3962894406030384
15899,13.0,300.11343999999997,56168.847,0.0,-0.07949455800960159,-0.07949351173847607,0.0,0.0,0.0,-4.218211538080067,-6.565700554484193,-6.290014859326134,-0.004534140588784836,-0.007645549861032022,-1.3837687091173385
15900,13.0,300.08008,56215.462,0.0,-0.07949957249833983,-0.07949851394866303,0.0,0.0,0.0,-4.214739839262436,-6.575416001743034,-6.297940906908374,-0.004273667121353106,-0.0024685969240065475,-1.3906985292012588
15901,13.0,299.87297,56212.302,0.0,-0.07950458698707819,-0.07950351615885021,0.0,0.0,0.0,-4.2195080929080255,-6.573064248260934,-6.294563845650084,0.000899147013253901,-0.00037161866435340664,-1.3924745539765386
15902,13.0,299.97947999999997,56141.306,0.0,-0.0795095684857593,-0.07950851836903716,0.0,0.0,0.0,-4.213826191647266,-6.567885020374784,-6.283844064892124,0.006288184423020484,0.0004058220056565136,-1.3968200796804089
15903,13.0,300.04167,56180.182,0.0,-0.07951458297449754,-0.07951352057922434,0.0,0.0,0.0,-4.223447305321796,-6.5698082703895935,-6.284116730494034,0.002005659469293178,-0.0026015142615244675,-1.3917307270781287
15904,13.0,299.95886,56237.668,0.0,-0.07951956447317865,-0.07951852278941152,0.0,0.0,0.0,-4.228213431142176,-6.571700920251384,-6.294932466036465,0.002332850896184458,0.002038689801353018,-1.3894902284570088
15905,13.0,300.07536,56230.312999999995,0.0,-0.079524578961917,-0.07952352499959847,0.0,0.0,0.0,-4.2237990044315055,-6.577062229180504,-6.2917498474723645,-0.0004410496820157145,0.001946683652522718,-1.3886428473983787
15906,13.0,300.17395,56252.301,0.0,-0.07952956046059789,-0.07952852720978565,0.0,0.0,0.0,-4.215146659177586,-6.579196539191144,-6.304951584350274,-0.0024828597363891775,0.0037155607589472966,-1.3841146327014788
15907,13.0,299.9199,56265.764,0.0,-0.07953457494933636,-0.0795335294199726,0.0,0.0,0.0,-4.224140875015246,-6.574411870893933,-6.304834553963724,0.001771919085874798,-0.007348990403213884,-1.3912766897083186
15908,13.0,300.18684,56222.28599999999,0.0,-0.07953955644801702,-0.07953849872088214,0.0,0.0,0.0,-4.218559994789456,-6.578974637419244,-6.292636542634874,-0.004129008343001396,0.0025499904939394677,-1.3959811085976088
15909,13.0,300.26965,56249.039000000004,0.0,-0.07954457093675549,-0.07954350093106932,0.0,0.0,0.0,-4.226299604353296,-6.576849851959544,-6.295153759858304,-0.0002072358480975858,0.0035701334303947364,-1.3978160032036988
15910,13.0,300.17111,56283.678,0.0,-0.07954958542549406,-0.07954850314125628,0.0,0.0,0.0,-4.227835792829906,-6.581290521847803,-6.2997062925576035,-0.006335715681236453,0.005501502415606015,-1.3936543823929788
15911,13.0,300.1773,56195.723,0.0,-0.07955456692417473,-0.07955350535144345,0.0,0.0,0.0,-4.212698748260996,-6.575676407018734,-6.293721429516944,-0.0015448615934909684,-0.003979501365571207,-1.3904428862010287
15912,13.0,300.15632,56194.128,0.0,-0.0795595814129132,-0.07955850756163063,0.0,0.0,0.0,-4.202045335384586,-6.580390553108984,-6.299175754805244,-0.0027412623232665276,-0.0025610082715518375,-1.4001367512327385
15913,13.0,299.99304,56287.810999999994,0.0,-0.07956456291159408,-0.0795635097718177,0.0,0.0,0.0,-4.225894912263357,-6.584305346195344,-6.299888677575604,0.008000292064767352,0.0009028663301309692,-1.3971388481618687
15914,13.0,300.03786,56305.984000000004,0.0,-0.07956957740033244,-0.07956851198200465,0.0,0.0,0.0,-4.231112643653306,-6.5847984950190135,-6.299702036907185,0.0010567935097973988,-0.005772274658379155,-1.3994586842658188
15915,13.0,299.95781,56256.018,0.0,-0.07957455889901355,-0.07957351419219161,0.0,0.0,0.0,-4.224869908462196,-6.581361652004824,-6.294193300088514,0.008835141043510531,-0.007685185165193723,-1.3943413659607788
15916,13.0,300.03256,56315.032999999996,0.0,-0.07957957338775179,-0.07957851640237878,0.0,0.0,0.0,-4.228675574512787,-6.584476180162204,-6.305212192275994,-0.0037736434970796163,0.005247642836877025,-1.3889787398065288
15917,13.0,300.22787,56344.876,0.0,-0.07958458787649014,-0.07958351861256596,0.0,0.0,0.0,-4.229560445825117,-6.584626749127064,-6.313248177494085,0.006995411613243374,0.007762371011436372,-1.3850017331640287
15918,13.0,300.06007999999997,56256.507000000005,0.0,-0.07958956937517114,-0.07958852082275292,0.0,0.0,0.0,-4.213351281325396,-6.586872719298723,-6.300349199746054,-0.006709960517596544,0.008583195291570422,-1.3881612496258486
15919,13.0,299.95884,56285.025,0.0,-0.07959458386390972,-0.0795935230329401,0.0,0.0,0.0,-4.224984304398486,-6.584937411607724,-6.299320548244535,0.0008277344127685262,-0.0013342572562309387,-1.3882555832101588
15920,13.0,299.86111,56343.71,0.0,-0.07959956536259061,-0.07959852524312705,0.0,0.0,0.0,-4.2344238436550965,-6.591338315139444,-6.301318677441735,0.0024419387191755874,0.0013274478102588986,-1.3952436651748288
15921,13.0,300.02737,56330.956,0.0,-0.07960457985132885,-0.07960352745331423,0.0,0.0,0.0,-4.232653594405385,-6.594194565846334,-6.296355981101954,0.0006539410868714603,9.495345525742641e-05,-1.3967189573204286
15922,13.0,300.10407000000004,56332.319,0.0,-0.07960956135000974,-0.07960849675422377,0.0,0.0,0.0,-4.233588520272656,-6.583087520900153,-6.306942418146754,0.0011998054527615788,-0.006391272082894443,-1.3943596044625786
15923,13.0,300.06793999999996,56353.759000000005,0.0,-0.07961457583874831,-0.07961349896441083,0.0,0.0,0.0,-4.2274435637161965,-6.589422157875334,-6.313269759721214,-0.001169431355838889,-0.01233486696685659,-1.3943921297907886
15924,13.0,300.04599,56298.03599999999,0.0,-0.07961955733742898,-0.0796185011745979,0.0,0.0,0.0,-4.218685131176806,-6.5826581055077735,-6.311853844031474,-0.003917265619254017,0.00016223926540426882,-1.4001189180309788
15925,13.0,300.33162999999996,56342.585,0.0,-0.07962457182616745,-0.07962350338478508,0.0,0.0,0.0,-4.226023189726016,-6.5909293673990845,-6.309786509852445,0.00029297013079640076,-0.005168086796000455,-1.4008128930244688
15926,13.0,300.24577,56377.157,0.0,-0.07962958631490591,-0.07962850559497214,0.0,0.0,0.0,-4.2373895253727865,-6.589657333223544,-6.310201233118374,-0.006753521253970654,-0.0028358667493282577,-1.4015586450980686
15927,13.0,299.91271,56301.734000000004,0.0,-0.07963456781358669,-0.07963350780515932,0.0,0.0,0.0,-4.225018653576876,-6.583377513078774,-6.305925216371365,-0.005155581769891305,-0.004398430936641336,-1.3915964714398787
15928,13.0,300.17821000000004,56315.318,0.0,-0.07963958230232515,-0.07963851001534628,0.0,0.0,0.0,-4.220052208211725,-6.594278868254653,-6.304119402043145,0.0006176506732773753,0.007878518249199213,-1.3962484039739886
15929,13.0,300.10166,56427.825999999994,0.0,-0.07964456380100604,-0.07964351222553323,0.0,0.0,0.0,-4.229086244778316,-6.602097511326294,-6.3214664464051635,0.003254297801349187,0.007469982395004863,-1.3908220443884487
15930,13.0,299.93647999999996,56420.822,0.0,-0.0796495782897444,-0.07964851443572041,0.0,0.0,0.0,-4.230734397390976,-6.6023304575242845,-6.317456306484394,0.002180353817709168,-0.0004186353232410896,-1.3905529251618884
15931,13.0,299.9789,56361.225,0.0,-0.0796545597884254,-0.07965351664590736,0.0,0.0,0.0,-4.225578676907146,-6.597061860979314,-6.309764623650284,0.0024079328299194676,-0.000919515822726646,-1.3965361670023886
15932,13.0,300.02795,56415.761,0.0,-0.07965957427716397,-0.07965851885609454,0.0,0.0,0.0,-4.236659377350725,-6.594650731041353,-6.317672534055734,0.0020449889745746985,0.006841745649452723,-1.3958765411872887
15933,13.0,299.98751,56426.435999999994,0.0,-0.07966455577584486,-0.0796635210662816,0.0,0.0,0.0,-4.241635245941806,-6.596315095655615,-6.314277335620654,-0.002687629272948357,-0.0007057503984671414,-1.3991840934887185
15934,13.0,300.00341000000003,56346.455,0.0,-0.0796695702645831,-0.07966852327646878,0.0,0.0,0.0,-4.229542713948366,-6.586504808187414,-6.311867928207865,-0.006973056073637054,-0.0061776334668849535,-1.3991886531141686
15935,13.0,300.0635,56341.721,0.0,-0.07967458475332156,-0.07967352548665585,0.0,0.0,0.0,-4.223475878974616,-6.588811573365074,-6.314189081536944,-0.0040975660778232855,-0.005130009262542495,-1.4000936881034884
15936,13.0,300.22728,56393.023,0.0,-0.07967956625200256,-0.07967849478756528,0.0,0.0,0.0,-4.235748972135876,-6.591413498296864,-6.3149084891079434,0.004496515268846505,0.01137710649533299,-1.3947749356785686
15937,13.0,300.2858,56409.71400000001,0.0,-0.0796845807407408,-0.07968349699775246,0.0,0.0,0.0,-4.233924210030786,-6.601567074898943,-6.311653423161694,0.008875165435710632,0.0072725214314169825,-1.4060012401615187
15938,13.0,300.30751000000004,56429.572,0.0,-0.0796895622394217,-0.07968849920793952,0.0,0.0,0.0,-4.237891894772366,-6.604529919516353,-6.310759128623435,0.008000102789648673,0.0026872298497589374,-1.3976252082098686
15939,13.0,300.31763,56461.125,0.0,-0.07969457672816016,-0.07969350141812659,0.0,0.0,0.0,-4.2404011073200065,-6.6010552822734345,-6.3213159787653135,-0.0024317150256665874,-0.002709692489900828,-1.3981997210165686
15940,13.0,300.14196,56445.208,0.0,-0.07969955822684094,-0.07969850362831377,0.0,0.0,0.0,-4.235709151406946,-6.603114206476634,-6.319110437272644,0.0011870280650255489,0.003652432744592046,-1.3935068531784185
15941,13.0,300.0242,56413.142,0.0,-0.0797045727155794,-0.07970350583850072,0.0,0.0,0.0,-4.228261256546896,-6.603659031055403,-6.316266142916934,-0.006157450639468064,0.0015242738713341186,-1.4000712952762788
15942,13.0,299.93455,56455.849,0.0,-0.07970958720431787,-0.0797085080486879,0.0,0.0,0.0,-4.239446220425767,-6.603677472207224,-6.318044599492454,-0.0015116993362681084,-0.004057142262433766,-1.3957843354281887
15943,13.0,299.87261,56459.490999999995,0.0,-0.07971456870299864,-0.07971351025887508,0.0,0.0,0.0,-4.238619205694146,-6.609705398377135,-6.313950765113424,-0.0012905466601670387,-0.007661020974158902,-1.3990375775242587
15944,13.0,300.02873,56425.043,0.0,-0.07971958319173711,-0.07971851246906203,0.0,0.0,0.0,-4.237668067825275,-6.6012438481170435,-6.312892222733954,0.00025022168662995777,-0.0001974165325709948,-1.4010338828712787
15945,13.0,299.92746,56459.584,0.0,-0.07972456469041822,-0.07972351467924899,0.0,0.0,0.0,-4.241381933416807,-6.604526373141003,-6.3163952309796745,0.0007788674984032372,-0.0023457584865583378,-1.3986293390589686
15946,13.0,299.99595,56483.124,0.0,-0.07972957917915646,-0.07972851688943605,0.0,0.0,0.0,-4.232895761179286,-6.606522881138043,-6.330040771401384,0.0013278442950230287,-0.006339311097891294,-1.3965764943563685
15947,13.0,299.9155,56467.955,0.0,-0.07973456067783735,-0.07973351909962323,0.0,0.0,0.0,-4.229517686670896,-6.608738251156684,-6.326592377336054,-0.0007770401525103922,-0.0006681189584982073,-1.3999899312932487
15948,13.0,300.0174,56477.070999999996,0.0,-0.07973957516657582,-0.0797385213098104,0.0,0.0,0.0,-4.234662666703666,-6.609900752996413,-6.323055931837034,0.00026978842758854473,0.003187190855176247,-1.4030222848675187
15949,13.0,299.89878,56499.225,0.0,-0.0797445566652567,-0.07974352351999736,0.0,0.0,0.0,-4.242778698679656,-6.6038255080468335,-6.327749306300235,8.046742793076682e-05,0.004956496870368155,-1.3978984817618385
15950,13.0,300.14985,56501.56,0.0,-0.07974957115399506,-0.07974852573018454,0.0,0.0,0.0,-4.240568293586506,-6.606478095483624,-6.328016905651644,-0.0031625338192927867,-0.002371916044514888,-1.4039021912543588
15951,13.0,300.10242999999997,56490.225,0.0,-0.07975458564273352,-0.07975349503109408,0.0,0.0,0.0,-4.244162291691206,-6.6029996078903235,-6.324456040825215,-0.001943252281059068,-0.0016722937015925384,-1.3956823011431188
15952,13.0,300.17527,56553.725999999995,0.0,-0.07975956714141441,-0.07975849724128103,0.0,0.0,0.0,-4.2489978251434355,-6.610333613439134,-6.331589118879194,-0.0008081925977623993,0.00043300582384434754,-1.3972873906265286
15953,13.0,300.07822000000004,56510.837999999996,0.0,-0.07976458163015276,-0.07976349945146821,0.0,0.0,0.0,-4.241650242043286,-6.608633683746364,-6.327599953235494,-0.0008216298747585552,0.0008617057197987332,-1.3993080139759486
15954,13.0,300.17379,56473.238,0.0,-0.07976956312883365,-0.07976850166165517,0.0,0.0,0.0,-4.238059992963956,-6.607700379079254,-6.3206937418789035,0.0008355312203005113,-0.004333251394808616,-1.3984909290953087
15955,13.0,300.04735,56557.204000000005,0.0,-0.07977457761757212,-0.07977350387184234,0.0,0.0,0.0,-4.243533570004156,-6.615005000375164,-6.333439313561794,0.003318663298051567,-0.0029716398309280172,-1.3964668606955486
15956,13.0,299.95162999999997,56550.364,0.0,-0.0797795591162529,-0.07977850608202952,0.0,0.0,0.0,-4.249596554627526,-6.611428531497194,-6.328873405961174,0.000953772572442524,-0.0028961249354252775,-1.4014914666164384
15957,13.0,299.90738999999996,56488.40900000001,0.0,-0.07978457360499136,-0.07978350829221648,0.0,0.0,0.0,-4.235620086723156,-6.605595351996503,-6.329850483032604,-0.00013127531506836488,-0.0017550868738885883,-1.4053458699968386
15958,13.0,300.1318,56543.155999999995,0.0,-0.07978955510367247,-0.07978851050240365,0.0,0.0,0.0,-4.2466277318345265,-6.612496699752614,-6.328583211132534,-0.003724131942868207,-0.002523908828415408,-1.4062218247082887
15959,13.0,300.16657000000004,56558.365,0.0,-0.07979456959241071,-0.07979351271259061,0.0,0.0,0.0,-4.2417716294052665,-6.612125242265954,-6.338433825954714,-0.002890766362271427,0.008160218900925904,-1.4063264934436186
15960,13.0,300.11132000000003,56544.125,0.0,-0.07979958408114907,-0.07979851492277767,0.0,0.0,0.0,-4.243877568413106,-6.616424361115244,-6.327700062345374,0.003015062056013457,0.005478013657087855,-1.4029447712348686
15961,13.0,300.16682000000003,56610.385,0.0,-0.07980456557983007,-0.07980351713296485,0.0,0.0,0.0,-4.250388409580676,-6.6217316638140336,-6.336023405291824,-0.002712745919077177,0.008174935750678342,-1.4006242258558486
15962,13.0,300.04900000000004,56604.03,0.0,-0.07980958006856842,-0.07980851934315181,0.0,0.0,0.0,-4.257696171951896,-6.616476644820404,-6.332038799273574,-0.0009013741471062021,-0.0020331798486342284,-1.3974821372957487
15963,13.0,300.02158,56560.871,0.0,-0.07981456156724931,-0.07981352155333898,0.0,0.0,0.0,-4.249015253045156,-6.6135512904566935,-6.330526016874274,-0.0013751103856878286,0.0023367776456219977,-1.3985168682978686
15964,13.0,300.20222,56597.623,0.0,-0.07981957605598777,-0.07981852376352594,0.0,0.0,0.0,-4.249449937338056,-6.617896208210504,-6.336917902480104,0.0019496995914453682,0.002119766325329648,-1.4034702427367287
15965,13.0,300.09916,56634.53400000001,0.0,-0.07982455755466866,-0.07982349306443548,0.0,0.0,0.0,-4.253568393694517,-6.623544368242934,-6.338371409748554,-0.0004349180902280736,-0.0037620095620814363,-1.4003081931496586
15966,13.0,300.1292,56596.525,0.0,-0.07982957204340702,-0.07982849527462266,0.0,0.0,0.0,-4.247809181451125,-6.620927649859684,-6.335193452134914,0.004445073777169626,-0.005409451075821255,-1.4020475382713187
15967,13.0,300.22535,56586.819,0.0,-0.07983458653214548,-0.07983349748480961,0.0,0.0,0.0,-4.244705089769775,-6.617273869999084,-6.339001043360694,-0.005328406367897765,0.000995538113349462,-1.3966352628621685
15968,13.0,300.2093,56630.708,0.0,-0.07983956803082637,-0.07983849969499679,0.0,0.0,0.0,-4.2494831719413355,-6.620824804974534,-6.344013287630364,0.009055216229455262,-0.006086497902540574,-1.3984417864654588
15969,13.0,299.97392,56619.47900000001,0.0,-0.07984458251956472,-0.07984350190518397,0.0,0.0,0.0,-4.247696001414956,-6.624105911448353,-6.339106016071054,-0.0037768396931950566,0.0056090078459159745,-1.4056208660739788
15970,13.0,300.07837,56631.992999999995,0.0,-0.07984956401824561,-0.07984850411537092,0.0,0.0,0.0,-4.2460175526243065,-6.629362855617174,-6.339331464218303,0.005504739344375475,0.004028825975139166,-1.4077576078848588
15971,13.0,299.92697000000004,56634.107,0.0,-0.07985457850698408,-0.0798535063255581,0.0,0.0,0.0,-4.250938705709986,-6.624812552068094,-6.339603116570114,0.001063353189619789,0.006251729001647614,-1.4079483015536787
15972,13.0,299.97376,56613.01,0.0,-0.07985956000566496,-0.07985850853574505,0.0,0.0,0.0,-4.251249672165676,-6.622287836793923,-6.335404106830704,0.004276733317480716,-0.002701388500031287,-1.4032555350405385
15973,13.0,299.97435,56584.248,0.0,-0.07986457449440332,-0.07986351074593223,0.0,0.0,0.0,-4.240895472043796,-6.619809123074294,-6.339493888209334,0.003965035396543526,-0.002976696252902047,-1.4043516689987185
15974,13.0,300.00971,56616.778,0.0,-0.07986955599308432,-0.07986851295611941,0.0,0.0,0.0,-4.248212353665917,-6.621137088655353,-6.340737247407044,0.0024602450074072777,-0.006783564220760665,-1.3988588402066187
15975,13.0,300.16527,56643.982,0.0,-0.07987457048182267,-0.07987351516630647,0.0,0.0,0.0,-4.248813109650206,-6.623344960623253,-6.346197956170974,-0.004745021948622205,0.002182951892290578,-1.4080592524396287
15976,13.0,300.30325,56610.53,0.0,-0.07987958497056113,-0.07987851737649343,0.0,0.0,0.0,-4.247931582063206,-6.622051242895574,-6.338204730107104,-0.0038980703053845865,-0.005801316939370405,-1.4054551996826288
15977,13.0,300.11918,56631.31,0.0,-0.07988456646924202,-0.07988351958668038,0.0,0.0,0.0,-4.250849438376175,-6.626979691381973,-6.336675026431134,-0.0042407935390837365,0.0007992622166810391,-1.4143126267567885
15978,13.0,300.09364,56696.812999999995,0.0,-0.07988958095798038,-0.07988852179686756,0.0,0.0,0.0,-4.262868205762336,-6.631829005035564,-6.3397182217814745,0.003112930059322277,-0.0017681859685313684,-1.3999294402622788
15979,13.0,300.14455,56696.395,0.0,-0.07989456245666127,-0.0798934910977771,0.0,0.0,0.0,-4.256904114348726,-6.632818241108193,-6.344565812909893,0.0041736940909615355,0.003029712132584307,-1.4009422850622384
15980,13.0,300.29745,56736.812000000005,0.0,-0.07989957694539973,-0.07989849330796406,0.0,0.0,0.0,-4.265642687186156,-6.634966027345164,-6.345965415273024,0.0045224862874596455,-0.001141951303851819,-1.3994635478662987
15981,13.0,300.35978,56739.157,0.0,-0.07990455844408062,-0.07990349551815124,0.0,0.0,0.0,-4.258710637952016,-6.633743743749534,-6.3548326708731535,-0.0004601336498316555,0.006679495836114914,-1.4031714352822384
15982,13.0,300.20367999999996,56680.897000000004,0.0,-0.07990957293281897,-0.07990849772833841,0.0,0.0,0.0,-4.256776748811156,-6.6325624967829535,-6.340238221732794,0.0009199269996172261,0.006550843470917914,-1.4021915211105287
15983,13.0,300.03729,56670.852,0.0,-0.07991455443149986,-0.07991349993852537,0.0,0.0,0.0,-4.254586912695036,-6.627120026520823,-6.344816896284674,-0.0025817154558954777,0.006013411058252464,-1.4058973820262688
15984,13.0,300.09652,56703.69,0.0,-0.07991956892023833,-0.07991850214871254,0.0,0.0,0.0,-4.263011783301506,-6.624716090658573,-6.348778096225614,-0.007260049741236123,-0.006620886410580614,-1.4035653869211187
15985,13.0,300.04125,56671.986,0.0,-0.07992458340897657,-0.07992350435889961,0.0,0.0,0.0,-4.251106195951516,-6.630220267851794,-6.345542079381244,-0.002726531693312727,-0.005468193034468635,-1.4096195562686187
15986,13.0,299.98818,56646.337999999996,0.0,-0.07992956490765746,-0.07992850656908668,0.0,0.0,0.0,-4.242931699444756,-6.6303213902117735,-6.345819101958584,0.0009054990274682961,-0.008144270243026892,-1.4066490109504486
15987,13.0,299.90957000000003,56705.191,0.0,-0.07993457939639603,-0.07993350877927385,0.0,0.0,0.0,-4.247499937520606,-6.636176151939593,-6.353286045920514,0.0040239869966365955,0.005407313928710335,-1.4103812163687885
15988,13.0,299.99185,56800.845,0.0,-0.07993956089507692,-0.07993851098946092,0.0,0.0,0.0,-4.264276319426306,-6.642246229313663,-6.359515912835353,0.0029991577784688273,-0.001050271624203739,-1.4087201954798587
15989,13.0,299.97003,56782.810999999994,0.0,-0.07994457538381539,-0.0799435131996481,0.0,0.0,0.0,-4.264987013046445,-6.641828466297435,-6.353741197865434,0.0066583256978005835,0.005920690466776655,-1.4058965714261886
15990,13.0,299.8622,56746.100999999995,0.0,-0.07994955688249628,-0.07994851540983505,0.0,0.0,0.0,-4.261745929951576,-6.6362343124953345,-6.351417410086094,0.002008464753520038,0.001057832699099959,-1.4062550593115686
15991,13.0,299.92274,56772.755,0.0,-0.07995457137123463,-0.07995351762002201,0.0,0.0,0.0,-4.262031970454806,-6.634739160647774,-6.360728773205054,0.0019396518994787382,0.0006836495696709594,-1.3997139219660086
15992,13.0,299.97402999999997,56763.664000000004,0.0,-0.07995958585997309,-0.07995851983020918,0.0,0.0,0.0,-4.2647005672431755,-6.634739565947814,-6.355296334118914,-0.003005594348404067,-0.002541850346611098,-1.4035023627648986
15993,13.0,299.93331,56751.636,0.0,-0.07996456735865398,-0.07996348913111873,0.0,0.0,0.0,-4.260385641692326,-6.638048232824353,-6.352646279807374,-0.0052433860718819145,0.001855862094384328,-1.4085885742918687
15994,13.0,300.08063,56722.937999999995,0.0,-0.07996958184739222,-0.0799684913413059,0.0,0.0,0.0,-4.266235235844636,-6.627569605590193,-6.3485518374782846,-0.002128966129612598,-0.0016657308806948385,-1.4016438594314788
15995,13.0,300.05451,56727.157,0.0,-0.07997456334607322,-0.07997349355149286,0.0,0.0,0.0,-4.255535010813606,-6.638844951377984,-6.349259288698104,-0.003349412500161277,-0.002122823402206358,-1.4088070310134286
15996,13.0,300.06458,56806.822,0.0,-0.07997957783481169,-0.07997849576167981,0.0,0.0,0.0,-4.266783809448776,-6.641228723563243,-6.359842787317614,0.0034866135551269665,-0.0055457483116977445,-1.4089630715288286
15997,13.0,300.13616,56855.648,0.0,-0.07998455933349258,-0.07998349797186699,0.0,0.0,0.0,-4.268383731356676,-6.647288972411343,-6.367024704026414,-3.917574457884496e-05,-0.006171170349797093,-1.4091597433732386
15998,13.0,300.05215,56801.047,0.0,-0.07998957382223082,-0.07998850018205406,0.0,0.0,0.0,-4.260364870065276,-6.648157631722073,-6.357577565394053,-0.0024246996872742278,-0.0030720240382101673,-1.4030236020926485
15999,13.0,299.96533999999997,56774.895,0.0,-0.07999455532091171,-0.07999350239224123,0.0,0.0,0.0,-4.256774620985946,-6.646421934300773,-6.354953754260104,-0.001165128589289239,0.0021278195357994378,-1.4108468047897385
16000,13.0,300.02157,56841.414000000004,0.0,-0.07999956980965028,-0.0799985046024283,0.0,0.0,0.0,-4.273636723850106,-6.651779899504563,-6.352953801212724,0.0003228447055522917,0.004912281473104435,-1.4001990661138886
16001,13.0,299.75849,56834.595,0.0,-0.08000458429838853,-0.08000350681261537,0.0,0.0,0.0,-4.265175274915026,-6.651385441240634,-6.359737004007174,-0.0012563368036657887,0.0050467216241976455,-1.4073839212479786
16002,13.0,299.78354,56778.448,0.0,-0.08000956579706942,-0.08000850902280254,0.0,0.0,0.0,-4.257362204718936,-6.644867405997353,-6.357000722112123,-0.0014629878443356587,-0.001198318406914819,-1.4049163532794486
16003,13.0,299.90497999999997,56732.275,0.0,-0.08001458028580799,-0.0800135112329895,0.0,0.0,0.0,-4.250443327736096,-6.645173002227515,-6.3495786651296235,0.0001221656292493089,-0.0018302381139304383,-1.4151010366595986
16004,13.0,299.88982000000004,56782.337999999996,0.0,-0.08001956178448888,-0.08001851344317668,0.0,0.0,0.0,-4.258714285652376,-6.645671926576753,-6.356026684790994,-0.000943855154041251,0.005135371280746685,-1.4128856666409588
16005,13.0,299.94454,56821.58,0.0,-0.08002457627322734,-0.08002351565336385,0.0,0.0,0.0,-4.263585789483156,-6.651705121647184,-6.357050574017044,0.0009483114381135522,0.003356767074687117,-1.4193257829515487
16006,13.0,299.91433,56798.139,0.0,-0.08002955777190823,-0.08002851786355081,0.0,0.0,0.0,-4.268189389987496,-6.642623766300923,-6.354402850180734,0.0006782611461691634,0.0008342070645398273,-1.4056731497791386
16007,13.0,299.86917,56812.355,0.0,-0.08003457226064647,-0.08003352007373776,0.0,0.0,0.0,-4.260524862256067,-6.646150788574014,-6.362861563340544,0.0008435385710707752,-0.0024599878445318974,-1.4124792520258487
16008,13.0,300.09377,56892.917,0.0,-0.08003955375932736,-0.08003848937464753,0.0,0.0,0.0,-4.273820730068266,-6.651143173141723,-6.369062147327494,0.0038456343087345567,0.002425153116693978,-1.4046753010806587
16009,13.0,300.17002,56945.814000000006,0.0,-0.08004456824806594,-0.08004349158483448,0.0,0.0,0.0,-4.276597643292326,-6.6562542092961445,-6.377253463785914,-0.0013532794056582789,-0.006516308462459573,-1.4083293849162886
16010,13.0,300.05545,56939.820999999996,0.0,-0.08004958273680418,-0.08004849379502144,0.0,0.0,0.0,-4.2767032239527465,-6.654932019240653,-6.376648452151204,-0.0029211958839745877,0.002086577318304148,-1.4062306399841589
16011,13.0,300.06956,56858.039000000004,0.0,-0.08005456423548507,-0.0800534960052085,0.0,0.0,0.0,-4.270177285358686,-6.649006228680824,-6.364240495401634,-0.0022692101772786074,0.0009962560010453123,-1.4065170857874287
16012,13.0,300.14404,56810.185,0.0,-0.08005957872422365,-0.08005849821539568,0.0,0.0,0.0,-4.266731931043656,-6.641742542688953,-6.360403114622914,0.0019566945635107183,0.01003400153922885,-1.4073413647437787
16013,13.0,300.2337,56875.733,0.0,-0.08006456022290454,-0.08006350042558286,0.0,0.0,0.0,-4.267266623121426,-6.656742089219293,-6.364794033931264,-0.000987507923921944,-0.0016102941438736586,-1.4128856666409588
16014,13.0,300.25618,56900.047999999995,0.0,-0.08006957471164278,-0.08006850263576981,0.0,0.0,0.0,-4.273918407377906,-6.651640678940823,-6.370634610157684,0.004117027876469017,-0.0031453943898762573,-1.4123833985663885
16015,13.0,299.99691,56874.682,0.0,-0.08007455621032367,-0.08007350484595699,0.0,0.0,0.0,-4.2621330928147865,-6.660978285237373,-6.365371890463294,0.004524712195279326,-0.0014809776945611185,-1.4193147385254588
16016,13.0,299.8719,56909.337,0.0,-0.08007957069906213,-0.08007850705614394,0.0,0.0,0.0,-4.272920254704396,-6.660137895604434,-6.365959271546264,0.0003635464858417447,0.002311153057218048,-1.4154428059183286
16017,13.0,299.89991000000003,56977.944,0.0,-0.08008458518780048,-0.08008350926633112,0.0,0.0,0.0,-4.281333270284696,-6.660298597070294,-6.3782402680583035,0.005057829175768875,-0.004741937615317805,-1.4081056592942087
16018,13.0,300.17535,56979.456,0.0,-0.0800895666864816,-0.0800885114765183,0.0,0.0,0.0,-4.280580222810376,-6.664287154763934,-6.375464570734365,-0.007549295458507453,0.0027034044624302473,-1.4067549969109088
16019,13.0,299.95366,56982.318,0.0,-0.08009458117521984,-0.08009351368670525,0.0,0.0,0.0,-4.273982748759256,-6.6604716601873735,-6.386747211922874,0.0035488034012146267,0.003701823924691577,-1.4073977014493386
16020,13.0,300.05851,56955.583,0.0,-0.08009956267390073,-0.08009851589689243,0.0,0.0,0.0,-4.279679443471476,-6.659062533273302,-6.374333074347693,-0.0048212365946440055,0.0041645661261106755,-1.4098090340373186
16021,13.0,299.8832,56868.682,0.0,-0.0801045771626393,-0.08010351810707939,0.0,0.0,0.0,-4.264052391154205,-6.653087397433603,-6.369519427097623,0.0006715575443025694,-0.0035535021459033563,-1.4162537099733588
16022,13.0,300.14765,56887.043,0.0,-0.08010955866132019,-0.08010848740798893,0.0,0.0,0.0,-4.276416980799496,-6.649467561451353,-6.366355958960414,-0.0039264168888571765,-0.0008835914355986852,-1.4116962123485686
16023,13.0,300.14982000000003,56950.059,0.0,-0.08011457315005843,-0.0801134896181761,0.0,0.0,0.0,-4.281456886796896,-6.661008784065384,-6.368930323489484,0.004365000472117006,0.004005388385751056,-1.4179557674913386
16024,13.0,300.23077,56924.015,0.0,-0.08011955464873932,-0.08011849182836306,0.0,0.0,0.0,-4.281425476043796,-6.656763266146385,-6.365290425155254,-0.0034773340080611467,0.005033981321415275,-1.4111455109192186
16025,13.0,299.91019,56913.014,0.0,-0.08012456913747779,-0.08012349403855024,0.0,0.0,0.0,-4.267814588775506,-6.658184146761613,-6.374136402503284,0.003273605383329697,-0.01056309581549639,-1.4112804758325386
16026,13.0,300.01972,57038.337,0.0,-0.08012958362621614,-0.0801284962487373,0.0,0.0,0.0,-4.288516098918587,-6.665396764948444,-6.384317336858064,-0.0009085791253872783,-0.0006636175847964564,-1.4084340536516187
16027,13.0,299.81299,57069.674000000006,0.0,-0.08013456512489703,-0.08013349845892426,0.0,0.0,0.0,-4.285012178747776,-6.668790848808414,-6.393952940009024,0.008775014478601502,-0.0027936990291916276,-1.4063766493235688
16028,13.0,300.00136000000003,57016.782999999996,0.0,-0.08013957961363549,-0.08013850066911143,0.0,0.0,0.0,-4.283550869453556,-6.668172563597394,-6.379954991202534,0.000983048914206874,0.005367674267573205,-1.4111177478664787
16029,13.0,300.01726,56989.133,0.0,-0.08014456111231638,-0.08014350287929839,0.0,0.0,0.0,-4.278661025795966,-6.6605498830950935,-6.384062504457914,0.0009978062331683082,-0.005608581976898944,-1.4106172023170787
16030,13.0,299.84618,56975.172,0.0,-0.08014957560105473,-0.08014850508948557,0.0,0.0,0.0,-4.274901563949936,-6.660292720219714,-6.383835333785494,-0.0055237275499244644,0.0033519901070906666,-1.4139159393426386
16031,13.0,299.96205,56962.124,0.0,-0.08015455709973585,-0.08015350729967274,0.0,0.0,0.0,-4.264086031057525,-6.666956866127413,-6.384020555903773,-0.001164145331392199,0.006404633406663103,-1.4160988853580787
16032,13.0,300.15936,56962.018,0.0,-0.08015957158847409,-0.0801585095098597,0.0,0.0,0.0,-4.265757589747496,-6.668824691361753,-6.380448950626284,-0.0073318379028710625,0.002287199115578978,-1.4250230856138286
16033,13.0,300.14532,56947.33900000001,0.0,-0.08016455308715498,-0.08016351172004688,0.0,0.0,0.0,-4.2639455945936655,-6.671729679398453,-6.374893604303014,-0.003826759587196767,-0.006686388672570184,-1.4210174039934986
16034,13.0,300.33412999999996,56941.137,0.0,-0.08016956757589355,-0.08016851393023383,0.0,0.0,0.0,-4.275883301971826,-6.666568386039073,-6.366232241123203,-0.0024672743286510176,0.002456782022540508,-1.4189891812683286
16035,13.0,300.14104,57033.363,0.0,-0.08017458206463202,-0.08017351614042101,0.0,0.0,0.0,-4.284526426649836,-6.673891245836784,-6.378300556439254,0.005017435859207365,0.0008773905577692061,-1.4138249494836588
16036,13.0,299.85231,57118.755,0.0,-0.08017956356331268,-0.08017848544133055,0.0,0.0,0.0,-4.2960338067105255,-6.680194573383873,-6.386446783268224,-7.283718655622063e-05,0.004599979553782636,-1.4106814423734186
16037,13.0,299.96195,57069.636,0.0,-0.08018457805205115,-0.0801834876515175,0.0,0.0,0.0,-4.279168562771056,-6.676162141960904,-6.3924134078070844,0.0018382311373442884,-0.004467534492136326,-1.4101648874724386
16038,13.0,299.86714,57025.238,0.0,-0.08018955955073204,-0.08018848986170468,0.0,0.0,0.0,-4.281198710671416,-6.671919359817173,-6.381130158668514,0.0047397030948722755,0.0015236844637509486,-1.4115567891348089
16039,13.0,299.93255,57080.134000000005,0.0,-0.08019457403947039,-0.08019349207189186,0.0,0.0,0.0,-4.289207236811796,-6.670305353732884,-6.391422753184314,0.001107915118417709,-0.001945394190445458,-1.4185557128755486
16040,13.0,299.95571,57070.207,0.0,-0.08019955553815128,-0.08019849428207892,0.0,0.0,0.0,-4.299626588915106,-6.667250303356373,-6.381040891334703,0.00015421768860260086,-0.0060683124950458136,-1.4144830554236087
16041,13.0,300.07206,57004.085999999996,0.0,-0.08020457002688974,-0.08020349649226588,0.0,0.0,0.0,-4.280344135537076,-6.668360521490944,-6.379114094944544,-0.01041627486275629,-0.01093124605382999,-1.4199342396365986
16042,13.0,300.16696,57052.844000000005,0.0,-0.0802095845156281,-0.08020849870245284,0.0,0.0,0.0,-4.287773386595286,-6.669191791872984,-6.385674788017035,-0.0028400262423137674,0.00041468380997110554,-1.4140200001279088
16043,13.0,300.18007,57060.154,0.0,-0.08021456601430899,-0.08021350091264001,0.0,0.0,0.0,-4.282546029329387,-6.672818923255953,-6.3894971726942735,0.0013400431169519585,-0.0030613759955592868,-1.4179406700648487
16044,13.0,299.88381,57070.265,0.0,-0.08021958050304745,-0.08021850312282719,0.0,0.0,0.0,-4.284546792976846,-6.676960887014734,-6.386427734166344,0.005633874320595105,0.001150483477643879,-1.4191538344095787
16045,13.0,299.82901,57122.514,0.0,-0.08022456200172834,-0.08022350533301414,0.0,0.0,0.0,-4.288944602385875,-6.678594854125994,-6.396278652963554,0.005132585653571765,-0.0029627777429033974,-1.4165608260786686
16046,13.0,299.89511,57117.094000000005,0.0,-0.08022957649046669,-0.08022850754320132,0.0,0.0,0.0,-4.300742582575246,-6.6793684705773435,-6.382059309010215,0.003009564059645847,0.006629422637373073,-1.4137260562738987
16047,13.0,299.94925,57068.562999999995,0.0,-0.08023455798914769,-0.08023350975338839,0.0,0.0,0.0,-4.277390511495575,-6.678138384955944,-6.391889354855365,-0.0014433111353437187,-0.0010355608539518988,-1.4181195087074987
16048,13.0,300.1524,57128.532,0.0,-0.08023957247788627,-0.08023851196357545,0.0,0.0,0.0,-4.2846586557878865,-6.686268197133294,-6.394720274309753,0.00024019995413088974,0.0004478936190211587,-1.4191829146874488
16049,13.0,300.1377,57130.734000000004,0.0,-0.08024455397656693,-0.08024351417376263,0.0,0.0,0.0,-4.2738963185257255,-6.684263887110483,-6.408156274610785,0.0012611623059420288,0.002413693055412958,-1.4158623927847385
16050,13.0,300.03809,57057.385,0.0,-0.0802495684653054,-0.0802485163839497,0.0,0.0,0.0,-4.271995866638166,-6.679645594479694,-6.392378855978674,0.003737270148964846,0.009802780399534099,-1.4210808334497587
16051,13.0,300.19369,57077.390999999996,0.0,-0.08025458295404397,-0.08025348568485913,0.0,0.0,0.0,-4.279524416206176,-6.679789881293933,-6.390787242721594,0.0005038293713840875,0.0018793792239052882,-1.4182381602942087
16052,13.0,300.0025,57147.422999999995,0.0,-0.08025956445272464,-0.0802584878950463,0.0,0.0,0.0,-4.305479020167696,-6.672034161053503,-6.3938764396264745,-0.0033982443662056066,-0.0007282471446073974,-1.4117221515511287
16053,13.0,299.9178,57147.102999999996,0.0,-0.0802645789414631,-0.08026349010523337,0.0,0.0,0.0,-4.293438974529436,-6.683044237965114,-6.394809237668534,-0.005958992739106795,-0.00028058172977376075,-1.4084903903571788
16054,13.0,300.05497,57144.316,0.0,-0.080269560440144,-0.08026849231542055,0.0,0.0,0.0,-4.295102224568586,-6.6794514557605345,-6.395891388775334,-0.008088661456338733,0.001131514219871759,-1.4079542797292686
16055,13.0,300.05845,57216.738,0.0,-0.08027457492888235,-0.0802734945256075,0.0,0.0,0.0,-4.292396340176536,-6.688512647429803,-6.411550561120774,-0.004450575015937555,-0.002083637170488978,-1.4094312944000384
16056,13.0,300.0349,57185.117,0.0,-0.08027955642756324,-0.08027849673579468,0.0,0.0,0.0,-4.300501935676496,-6.686947682650353,-6.395397935976634,-0.0029578153505386475,-0.0003150540889784177,-1.4140488777557587
16057,13.0,300.08472,57151.912000000004,0.0,-0.0802845709163017,-0.08028349894598164,0.0,0.0,0.0,-4.293980962007926,-6.685337324266423,-6.393435675832974,0.011158889914046689,0.004073449712193186,-1.4196953152630185
16058,13.0,300.05839,57195.31,0.0,-0.08028955241498259,-0.08028850115616859,0.0,0.0,0.0,-4.305450547839886,-6.684741634532634,-6.395753890736764,0.007964667711126503,-3.111505125706647e-05,-1.4216100539769885
16059,13.0,299.91555,57181.005,0.0,-0.08029456690372094,-0.08029350336635577,0.0,0.0,0.0,-4.289307751221716,-6.6915444943790225,-6.400745363379384,0.007132629082860683,0.001085446500100229,-1.4248122282680187
16060,13.0,299.9756,57131.626,0.0,-0.08029958139245941,-0.08029850557654283,0.0,0.0,0.0,-4.287338094352326,-6.683318626092194,-6.395931108179254,0.0027261127143963777,-0.006039327564010224,-1.4223628988012886
16061,13.0,300.18626,57127.54,0.0,-0.08030456289114052,-0.08030350778673001,0.0,0.0,0.0,-4.270649155930256,-6.690341563860304,-6.404355168185644,0.003820775433431176,-0.002035220230360598,-1.4213858217298587
16062,13.0,300.2508,57162.155,0.0,-0.08030957737987876,-0.08030850999691708,0.0,0.0,0.0,-4.295880603295406,-6.683959506780443,-6.396027569588774,-0.0014558750312836785,0.0017212787710519882,-1.4108948328444786
16063,13.0,300.2679,57199.876,0.0,-0.08031455887855965,-0.08031351220710414,0.0,0.0,0.0,-4.291138896802437,-6.690988220074123,-6.4052069062197035,-0.0014522620854021085,-0.00019129119253647085,-1.4178771392835787
16064,13.0,300.17845,57231.748,0.0,-0.08031957336729811,-0.08031851441729132,0.0,0.0,0.0,-4.307774639594256,-6.694348968005802,-6.394898707652364,-0.0038053776796115363,0.0008540659558997473,-1.4179518158159485
16065,13.0,299.90922,57211.829000000005,0.0,-0.08032455486597889,-0.08032348371820086,0.0,0.0,0.0,-4.2949636119549055,-6.685716887753885,-6.410287038246074,-0.002745621831821778,-0.0006076927451371045,-1.4194378484126087
16066,13.0,300.03272000000004,57197.106,0.0,-0.08032956935471736,-0.08032848592838782,0.0,0.0,0.0,-4.292885334674796,-6.693191431091564,-6.400415347821814,0.0009491855081798161,-0.0015491564566898384,-1.4217864608193986
16067,13.0,299.89654,57162.297,0.0,-0.08033458384345582,-0.080333488138575,0.0,0.0,0.0,-4.277283309634996,-6.691984042272403,-6.4066435935364945,-0.005041992583330926,-0.004354989054503956,-1.4286557898723486
16068,13.0,299.83206,57220.248,0.0,-0.0803395653421366,-0.08033849034876195,0.0,0.0,0.0,-4.304470025718117,-6.6886016107885835,-6.400454864575714,0.001065128707770019,-0.0029000915055917473,-1.4169997660219886
16069,13.0,299.94499,57250.272000000004,0.0,-0.08034457983087506,-0.08034349255894913,0.0,0.0,0.0,-4.304079316479556,-6.697213730013535,-6.401360102215054,-0.0028139381933140776,0.002420576367317288,-1.4216919245850685
16070,13.0,299.99113,57239.129,0.0,-0.08034956132955595,-0.0803484947691363,0.0,0.0,0.0,-4.306191132337975,-6.690862577061723,-6.402212144224144,0.002483747444801788,0.0005274819420459145,-1.4171030162071787
16071,13.0,300.26964,57289.147000000004,0.0,-0.0803545758182943,-0.08035349697932326,0.0,0.0,0.0,-4.3026738372658455,-6.700528071090633,-6.411268370967924,0.0017992079375679982,-0.005786395109122734,-1.4148581606106287
16072,13.0,300.21306,57340.695999999996,0.0,-0.0803595573169752,-0.08035849918951021,0.0,0.0,0.0,-4.307904031632026,-6.705033994285333,-6.417201760903503,0.0022306697911749678,-0.004326478831140216,-1.4147535932003088
16073,13.0,300.06869,57278.733,0.0,-0.08036457180571366,-0.08036350139969728,0.0,0.0,0.0,-4.2932800969137555,-6.697679115784464,-6.4203453693387535,0.0014996341620273684,0.0008409830023310602,-1.4164851362961988
16074,13.0,300.12158,57249.595,0.0,-0.08036955330439455,-0.08036850360988446,0.0,0.0,0.0,-4.307808178172566,-6.6940862322548735,-6.400553048510404,0.002084001535224938,0.0022705600290618276,-1.4195623768498986
16075,13.0,300.23382999999995,57267.573,0.0,-0.08037456779313301,-0.08037350582007163,0.0,0.0,0.0,-4.2955991224176255,-6.696565857899595,-6.4157471390599445,-0.006651474201949394,0.008182999701599192,-1.4260020878604487
16076,13.0,300.10618,57249.898,0.0,-0.08037958228187136,-0.08037850803025859,0.0,0.0,0.0,-4.299814952108696,-6.698483028413803,-6.404241481524424,-0.005777834463002864,0.0018218866026312082,-1.4315238956054088
16077,13.0,300.14333,57295.495,0.0,-0.08038456378055236,-0.08038351024044577,0.0,0.0,0.0,-4.295532653211066,-6.701840736595184,-6.419026624333603,-0.012626848155422888,0.005848064752609055,-1.4299907468790987
16078,13.0,300.09112999999996,57345.056,0.0,-0.08038957826929072,-0.08038851245063272,0.0,0.0,0.0,-4.309026003467756,-6.698630962928403,-6.423808151555503,-0.003636572644751777,-0.0035668490815205962,-1.4224204514069687
16079,13.0,300.15351,57284.32,0.0,-0.08039455976797161,-0.08039348175154226,0.0,0.0,0.0,-4.296192177701156,-6.703083082542793,-6.413727427635615,-0.0004929503178429086,-0.006163102143225824,-1.4205727898496185
16080,13.0,300.17052,57281.29,0.0,-0.08039957425671007,-0.08039848396172944,0.0,0.0,0.0,-4.311436728105676,-6.693466427168704,-6.407178488264284,0.008994740397236762,-0.002261699359587348,-1.4135860251100787
16081,13.0,300.19169,57386.143,0.0,-0.08040455575539085,-0.0804034861719164,0.0,0.0,0.0,-4.315071458864396,-6.703217844806094,-6.425665236338784,0.008235496493255223,0.0054673287321333345,-1.4117867969075086
16082,13.0,300.02286000000004,57362.182,0.0,-0.08040957024412931,-0.08040848838210357,0.0,0.0,0.0,-4.319579813859336,-6.703787088712274,-6.413304091743835,0.003422953483144207,0.004172005712319906,-1.4161230007104586
16083,13.0,299.94077000000004,57312.692,0.0,-0.0804145517428102,-0.08041349059229075,0.0,0.0,0.0,-4.300265544428166,-6.699741282387984,-6.4216205445896035,-0.004225456073645046,-0.0008419158713006272,-1.4203215038248187
16084,13.0,299.98344,57318.176,0.0,-0.08041956623154844,-0.0804184928024777,0.0,0.0,0.0,-4.307600765877096,-6.702022918963163,-6.4136704829799935,-0.0013303821825484986,-0.0031367338372965273,-1.4220715893975386
16085,13.0,299.77216,57322.33900000001,0.0,-0.08042458072028702,-0.08042349501266488,0.0,0.0,0.0,-4.300919192067676,-6.701962225282173,-6.421678299845303,-0.005036719123185475,0.0012484325409606986,-1.4232890093926884
16086,13.0,299.81018,57342.429000000004,0.0,-0.08042956221896791,-0.08042849722285184,0.0,0.0,0.0,-4.311742526985856,-6.701722490308513,-6.417201456928474,0.0002106944354589218,-0.0016474547873161283,-1.4271501002237486
16087,13.0,300.1255,57366.53,0.0,-0.08043457670770615,-0.08043349943303901,0.0,0.0,0.0,-4.303346939307276,-6.7093387873351835,-6.425306849778415,-0.0044193440134052955,-0.002348698026423448,-1.4297185879022385
16088,13.0,300.0533,57322.600999999995,0.0,-0.08043955820638726,-0.08043850164322608,0.0,0.0,0.0,-4.308499924015837,-6.702475233807804,-6.413664099504365,0.0005077962556580886,-0.0008020049023167213,-1.4308827109421287
16089,13.0,300.07679,57300.587999999996,0.0,-0.08044457269512562,-0.08044350385341303,0.0,0.0,0.0,-4.286360206680816,-6.706724804727203,-6.424862843584593,0.0048769533937928254,-0.002095657660400308,-1.4258727971476886
16090,13.0,300.11324,57419.49,0.0,-0.08044955419380662,-0.08044850606360021,0.0,0.0,0.0,-4.313252573609886,-6.716253611317622,-6.424585010407174,0.0009486666734661111,-0.006906116111080593,-1.4240976842974986
16091,13.0,299.86197999999996,57475.734000000004,0.0,-0.08045456868254497,-0.08045350827378717,0.0,0.0,0.0,-4.313850492493896,-6.718941155882863,-6.438396318545244,0.00016010675897880683,0.00014542585933991487,-1.4145013952504186
16092,13.0,299.89725,57379.689000000006,0.0,-0.08045958317128321,-0.08045851048397434,0.0,0.0,0.0,-4.309631217752486,-6.716290797596294,-6.416070568491865,-0.0014410986024253583,-0.001027650815721239,-1.4210258139693288
16093,13.0,299.98269,57360.559,0.0,-0.08046456466996432,-0.08046347978488388,0.0,0.0,0.0,-4.299199503997955,-6.712757797147614,-6.424220443021194,-0.0015127709495738684,0.012506512547046688,-1.4201583705587186
16094,13.0,299.96387999999996,57417.422,0.0,-0.08046957915870268,-0.08046848199507084,0.0,0.0,0.0,-4.314004709159116,-6.716621421103923,-6.422836546034614,-0.0032928279536268167,0.004783497790694475,-1.4260798041431186
16095,13.0,300.11281,57413.873,0.0,-0.08047456065738356,-0.08047348420525802,0.0,0.0,0.0,-4.308113673077717,-6.717089137350084,-6.427181058488385,0.0025887568348154076,0.0061206768549137746,-1.4289452754259184
16096,13.0,299.98682,57350.755,0.0,-0.08047957514612203,-0.0804784864154452,0.0,0.0,0.0,-4.314906704398137,-6.702438148854143,-6.415852719720364,0.0023277334765544077,0.0007913506383102273,-1.4241503733026988
16097,13.0,299.83132,57366.094000000005,0.0,-0.0804845566448027,-0.08048348862563215,0.0,0.0,0.0,-4.313280741962666,-6.707091905238434,-6.417487396106694,0.009226962932005341,0.0009242417225180559,-1.4237625011644186
16098,13.0,299.81234,57413.492999999995,0.0,-0.08048957113354127,-0.08048849083581933,0.0,0.0,0.0,-4.320241972799686,-6.708696184121763,-6.423330100158323,0.0024473798722125877,-0.004660546071885085,-1.4244630622835588
16099,13.0,299.81457,57488.899000000005,0.0,-0.08049455263222216,-0.08049349304600628,0.0,0.0,0.0,-4.327455806886636,-6.716139924656404,-6.4315940666489135,-0.0016439573519459582,-0.004577986656387105,-1.4275984633929986
16100,13.0,300.05915,57495.670999999995,0.0,-0.0804995671209604,-0.08049849525619346,0.0,0.0,0.0,-4.327532509919205,-6.719254148838752,-6.430461860987174,-0.004994326258876625,0.0036184173307849867,-1.4290952364407186
16101,13.0,300.02845,57396.86,0.0,-0.08050458160969898,-0.08050349746638064,0.0,0.0,0.0,-4.311138832576275,-6.708398592567394,-6.4276748152621135,-0.004130148857313957,0.007038497236645592,-1.4249705992586486
16102,13.0,299.83227,57343.218,0.0,-0.08050956310837987,-0.0805084996765677,0.0,0.0,0.0,-4.303140540261905,-6.7143282334776035,-6.413437536782003,0.004448628765145475,0.004365164314658176,-1.4242266710352287
16103,13.0,300.02046,57436.532,0.0,-0.08051457759711811,-0.08051350188675466,0.0,0.0,0.0,-4.308259074467066,-6.720513517388043,-6.430498945940834,-0.0007773767035311073,0.0033672602927227163,-1.4215036627164885
16104,13.0,300.06507999999997,57479.999,0.0,-0.08051955909579922,-0.08051850409694161,0.0,0.0,0.0,-4.312218349232816,-6.7229525117037525,-6.437313559488385,0.005375401718135845,0.0019227280896834881,-1.4236133507496986
16105,13.0,300.00919,57398.848,0.0,-0.08052457358453746,-0.08052350630712879,0.0,0.0,0.0,-4.300591912285376,-6.724421116398693,-6.422803615406364,0.0005186966786438766,0.00043704909704338755,-1.429191900500259
16106,13.0,300.00875,57424.60400000001,0.0,-0.08052955508321857,-0.08052850851731597,0.0,0.0,0.0,-4.3038644061333455,-6.721342457294853,-6.430438961534914,0.0023490321963064273,-0.003797067103616346,-1.4278739660951885
16107,13.0,299.89184,57526.655999999995,0.0,-0.08053456957195693,-0.08053351072750292,0.0,0.0,0.0,-4.315990274055076,-6.730047086253934,-6.4406298257406736,-0.00038416290324142665,-0.0027242048657830876,-1.4272626723098587
16108,13.0,299.86838,57570.289000000004,0.0,-0.08053955107063782,-0.08053848002841246,0.0,0.0,0.0,-4.333571379190196,-6.725825785012323,-6.440533263006143,-0.0017813436290299283,0.002798403650730937,-1.4200176301198286
16109,13.0,299.9995,57544.675,0.0,-0.08054456555937628,-0.08054348223859964,0.0,0.0,0.0,-4.327331481099367,-6.719831802720764,-6.444980924320094,-0.0033953788949228065,-0.0004073372502535566,-1.4226021271498985
16110,13.0,300.24619,57477.950999999994,0.0,-0.08054958004811463,-0.0805484844487866,0.0,0.0,0.0,-4.3267894936208755,-6.717260680592014,-6.427811705350623,-0.0008831766211402461,-0.002209677680903208,-1.4211144733530787
16111,13.0,300.18769,57440.125,0.0,-0.08055456154679552,-0.08055348665897377,0.0,0.0,0.0,-4.308353509376386,-6.716600446826853,-6.435409763875494,-0.0028861215224880174,-0.0052893379771670156,-1.4288116277377287
16112,13.0,300.14749,57486.259000000005,0.0,-0.08055957603553399,-0.08055848886916084,0.0,0.0,0.0,-4.320748800499706,-6.721457967806253,-6.432180535806794,0.001038016668219269,0.0012805887421592688,-1.4279521890029088
16113,13.0,300.12097,57532.15,0.0,-0.08056455753421465,-0.08056349107934802,0.0,0.0,0.0,-4.3210437576038165,-6.727164491044444,-6.440128570916204,-0.008198368780441003,0.005117290238012225,-1.4282675124340287
16114,13.0,300.05133,57483.617,0.0,-0.08056957202295312,-0.08056849328953508,0.0,0.0,0.0,-4.324413827436416,-6.7174412417598335,-6.431729132887244,-0.0006929507901564185,0.00016300740017257786,-1.4208385653508486
16115,13.0,300.10708999999997,57459.087999999996,0.0,-0.08057455352163412,-0.08057349549972215,0.0,0.0,0.0,-4.300874609063276,-6.730959112668944,-6.434294479490424,-0.0016882123672885886,-0.0014985029696157287,-1.4285680424136886
16116,13.0,299.95792,57559.032999999996,0.0,-0.08057956801037236,-0.08057849770990932,0.0,0.0,0.0,-4.326385004180955,-6.7319492606666635,-6.438174315448334,0.0026090257884907975,0.005875917781957934,-1.4189008258596087
16117,13.0,299.91173,57611.235,0.0,-0.08058458249911082,-0.08058349992009628,0.0,0.0,0.0,-4.323684591339446,-6.739359766598024,-6.449332428199554,0.003281409840899937,-0.0053972087854630355,-1.4229825012374384
16118,13.0,299.93505,57533.315,0.0,-0.08058956399779171,-0.08058850213028346,0.0,0.0,0.0,-4.322034209576565,-6.734536594797014,-6.432120450075864,-0.004507182360599266,-0.008775542179253581,-1.4306059923398187
16119,13.0,300.03052,57502.717000000004,0.0,-0.08059457848653007,-0.08059350434047041,0.0,0.0,0.0,-4.312560017166536,-6.725709058600803,-6.441121150714164,0.0035363676814123167,-0.0060046778556405635,-1.4294477461505088
16120,13.0,300.06692999999996,57522.738,0.0,-0.08059955998521118,-0.08059850655065737,0.0,0.0,0.0,-4.319242300251026,-6.728762082477114,-6.437471423853965,0.005181155493140235,0.003391671311481897,-1.4309547530242386
16121,13.0,300.08527000000004,57541.823,0.0,-0.08060457447394964,-0.08060350876084454,0.0,0.0,0.0,-4.313453805079746,-6.732493375970363,-6.445330191629564,0.0022494985111582177,0.005134978342357904,-1.4352702865251485
16122,13.0,300.05097,57546.27099999999,0.0,-0.08060955597263053,-0.08060847806175409,0.0,0.0,0.0,-4.3260614734240255,-6.727560874483564,-6.439007004380514,-0.005151557343144125,-0.0018041293946287084,-1.4367068725169287
16123,13.0,300.32193,57535.398,0.0,-0.08061457046136877,-0.08061348027194104,0.0,0.0,0.0,-4.313550367814276,-6.735553897897414,-6.440220270050253,-0.0009994727458727802,-9.77177829019943e-05,-1.4383669814807685
16124,13.0,300.19991,57502.742999999995,0.0,-0.08061955196004977,-0.08061848248212822,0.0,0.0,0.0,-4.315738785380256,-6.726424615821423,-6.437234525980584,-0.003170551464684067,0.007988441598222802,-1.4335415805295386
16125,13.0,300.04422999999997,57598.615,0.0,-0.08062456644878824,-0.08062348469231528,0.0,0.0,0.0,-4.323495316220766,-6.739278301289985,-6.445767105072684,0.001104565516237129,0.002160817241206058,-1.4264683855564686
16126,13.0,299.98461000000003,57710.723,0.0,-0.08062958093752648,-0.08062848690250246,0.0,0.0,0.0,-4.345192243262086,-6.739457139932634,-6.457969270726943,-0.0067043820691709945,0.0038335066169626463,-1.4222845745685588
16127,13.0,299.90735,57655.15,0.0,-0.08063456243620737,-0.08063348911268964,0.0,0.0,0.0,-4.333533787611486,-6.734896703882553,-6.457295560735453,-0.0004034236528023146,0.005686399888553975,-1.4204248553350187
16128,13.0,299.95502,57553.920999999995,0.0,-0.08063957692494594,-0.0806384913228766,0.0,0.0,0.0,-4.325229899066955,-6.733648278434344,-6.436076583766304,0.005644633111481915,0.009073034435113782,-1.4228181520712186
16129,13.0,300.03674,57587.011,0.0,-0.08064455842362661,-0.08064349353306377,0.0,0.0,0.0,-4.3202026586958056,-6.734309930749643,-6.4505007055648536,0.006393550173094275,-0.003812344989949156,-1.4308108715100385
16130,13.0,299.95811000000003,57633.044,0.0,-0.08064957291236508,-0.08064849574325073,0.0,0.0,0.0,-4.335220241077925,-6.735110398328644,-6.448675740809744,0.0035982638876209962,-0.009020932405696711,-1.4298080578860686
16131,13.0,299.98242,57607.522000000004,0.0,-0.08065455441104596,-0.0806534979534379,0.0,0.0,0.0,-4.3286459704540965,-6.736979642113123,-6.445622514283414,0.0013267263761876987,-0.0016579745525043485,-1.4403712915035787
16132,13.0,300.10476,57596.748,0.0,-0.08065956889978432,-0.08065850016362508,0.0,0.0,0.0,-4.330127848725346,-6.732103983956934,-6.445741165870124,0.00018553038949042382,0.007651662292260273,-1.4316272471156088
16133,13.0,300.05967999999996,57583.334,0.0,-0.08066455039846543,-0.08066350237381203,0.0,0.0,0.0,-4.320829049907625,-6.741430849802424,-6.4416356791149445,-0.00025354149925759775,0.0008305199082209333,-1.4369109410870686
16134,13.0,300.18076,57692.710999999996,0.0,-0.08066956488720389,-0.08066850458399899,0.0,0.0,0.0,-4.340286795552955,-6.746933101820454,-6.449923558307894,-0.006988343585845812,0.0002711993074252877,-1.4299595387760184
16135,13.0,300.16243,57777.731,0.0,-0.08067457937594213,-0.08067350679418606,0.0,0.0,0.0,-4.338414410693166,-6.754187769886434,-6.470385232152304,-0.001196232530258959,-0.0025760853317148276,-1.4333353841341887
16136,13.0,300.05823,57710.443,0.0,-0.08067956087462302,-0.08067847609509571,0.0,0.0,0.0,-4.340873264710837,-6.746254426903473,-6.455406051948974,-0.002279025632322318,-0.0021384058715192282,-1.4174078018372587
16137,13.0,299.95322999999996,57592.922999999995,0.0,-0.0806845753633616,-0.08068347830528289,0.0,0.0,0.0,-4.311224046909686,-6.741547272238915,-6.454039076239064,0.0026043222815265977,-0.01034191446441749,-1.4325405907557487
16138,13.0,299.93735,57655.519,0.0,-0.08068955686204249,-0.08068848051546984,0.0,0.0,0.0,-4.331648027850376,-6.7431529696723835,-6.451037221492803,0.004206912178264906,-0.002067601575731388,-1.4263305835428686
16139,13.0,299.87408999999997,57747.894,0.0,-0.08069457135078073,-0.0806934827256569,0.0,0.0,0.0,-4.338250669477005,-6.751280856674544,-6.464386183610244,0.0052951283975134844,0.007202452045926673,-1.4357700214744686
16140,13.0,299.88588,57677.846,0.0,-0.08069955284946162,-0.08069848493584408,0.0,0.0,0.0,-4.334401940297166,-6.743816141862833,-6.4544069873503735,0.0004466694811778456,0.005846452671699955,-1.4296419861946787
16141,13.0,299.76204,57560.632000000005,0.0,-0.0807045673382002,-0.08070348714603104,0.0,0.0,0.0,-4.309945629258515,-6.740726033032863,-6.446323075402553,-0.002715289176828177,-0.00953351161725934,-1.4417867005682685
16142,13.0,299.86166000000003,57703.172,0.0,-0.08070958182693844,-0.08070848935621822,0.0,0.0,0.0,-4.339757879000755,-6.741572704816424,-6.458992957302973,-0.0012139096915035588,-0.0032370268520696766,-1.4248094924927486
16143,13.0,300.11102999999997,57825.675,0.0,-0.08071456332561933,-0.08071349156640517,0.0,0.0,0.0,-4.349223256134915,-6.751033015700084,-6.477305122385244,0.006314323438500204,-0.0017536457282713582,-1.4299435294244387
16144,13.0,300.09544,57761.897000000004,0.0,-0.08071957781435779,-0.08071849377659235,0.0,0.0,0.0,-4.349321440069605,-6.748003904526134,-6.460848927511144,-0.0015781733051035785,0.004069365098390066,-1.4279968733323187
16145,13.0,299.95631000000003,57712.265,0.0,-0.08072455931303857,-0.08072349598677953,0.0,0.0,0.0,-4.3363704825914455,-6.744320031137564,-6.462397072338934,-0.0033613379472132265,-0.003095642492741127,-1.4324697645737587
16146,13.0,299.933,57695.384000000005,0.0,-0.08072957380177703,-0.08072849819696648,0.0,0.0,0.0,-4.334073343289736,-6.746903210942502,-6.456979730679285,-0.003167723888955007,0.005032142880433835,-1.4359613230933486
16147,13.0,299.92545,57719.404,0.0,-0.08073455530045814,-0.08073350040715366,0.0,0.0,0.0,-4.326033710371286,-6.752431300838085,-6.466792551272734,0.0009395862199124401,0.012284668530402387,-1.4366748538137686
16148,13.0,300.18506,57759.294,0.0,-0.08073956978919639,-0.08073850261734061,0.0,0.0,0.0,-4.342172757964087,-6.747757988726864,-6.467452582387874,-0.0033375016439107673,0.007001038495023703,-1.4344678937709587
16149,13.0,300.02584,57672.124,0.0,-0.08074455128787728,-0.08074350482752779,0.0,0.0,0.0,-4.323908620936556,-6.752455821490503,-6.454521281961654,-0.006114552163359314,-0.01078996352613649,-1.4385813852019287
16150,13.0,299.95055,57599.623,0.0,-0.08074956577661585,-0.08074850703771486,0.0,0.0,0.0,-4.319103890287366,-6.746564886734113,-6.443178453717204,0.003305179168370786,-0.0006380002512632224,-1.4426489764033685
16151,13.0,300.10528999999997,57727.684,0.0,-0.08075458026535409,-0.08075347633862429,0.0,0.0,0.0,-4.333055533564286,-6.758368845099073,-6.456349995742134,0.006034752841133735,0.002265946296056488,-1.4369375895646985
16152,13.0,299.84267,57830.684,0.0,-0.08075956176403498,-0.08075847854881146,0.0,0.0,0.0,-4.3480487979440055,-6.763272975583074,-6.467762231618434,0.0017820031535200182,-0.001103850364316549,-1.4344610036702787
16153,13.0,299.69426,57755.303,0.0,-0.08076457625277345,-0.08076348075899853,0.0,0.0,0.0,-4.330856780847286,-6.752962142565473,-6.472350937346303,-0.003875025350410226,-0.01053409457113419,-1.4335342851288186
16154,13.0,299.90038,57735.197,0.0,-0.08076955775145445,-0.08076848296918548,0.0,0.0,0.0,-4.338854262561576,-6.751017918273593,-6.460186059295723,-0.002263059039896538,0.0011771447222251388,-1.4334778470982488
16155,13.0,299.84186,57802.973,0.0,-0.08077457224019269,-0.08077348517937266,0.0,0.0,0.0,-4.342997036920436,-6.752552080250003,-6.475111435918744,-0.0006026220464691654,-0.002085868955159238,-1.4332019390960185
16156,13.0,299.89182999999997,57840.785,0.0,-0.08077955373887358,-0.08077848738955962,0.0,0.0,0.0,-4.3582332786741365,-6.7569663043106525,-6.466954873938754,-0.0036902089374702667,-0.0006496890740193194,-1.4354495304678385
16157,13.0,300.02738999999997,57825.873,0.0,-0.08078456822761204,-0.0807834895997468,0.0,0.0,0.0,-4.3414619630189355,-6.762949546151153,-6.473209970781085,-0.007356329778988222,-0.005920035805887044,-1.4419726319616186
16158,13.0,299.93942999999996,57742.4,0.0,-0.08078954972629282,-0.08078849180993397,0.0,0.0,0.0,-4.340359141610096,-6.750173070340213,-6.461715560321673,-0.0025617927297792577,0.003569091606641916,-1.4360232326744589
16159,13.0,300.19145,57711.492999999995,0.0,-0.08079456421503128,-0.08079349402012093,0.0,0.0,0.0,-4.324311286526296,-6.759173061703444,-6.459368366465023,0.000974968649959414,0.006881763962152223,-1.4378509332048386
16160,13.0,300.10752,57796.687999999995,0.0,-0.08079957870376975,-0.0807984962303081,0.0,0.0,0.0,-4.345777091219806,-6.759088657970114,-6.463884118185693,0.007071161886744343,-0.004378132801363066,-1.4303512612646787
16161,13.0,299.97507,57914.025,0.0,-0.08080456020245064,-0.08080349844049506,0.0,0.0,0.0,-4.357021938179586,-6.768101922909653,-6.479293625706494,0.00832650823843738,-0.009542515154997922,-1.4291631241974188
16162,13.0,299.81682,57877.912000000004,0.0,-0.08080957469118899,-0.08080850065068224,0.0,0.0,0.0,-4.361658874612216,-6.767912647790974,-6.463868514134154,-0.0006332172041661723,-0.0029225425946824975,-1.4300867016635685
16163,13.0,299.88004,57764.58,0.0,-0.0808145561898701,-0.08081350286086941,0.0,0.0,0.0,-4.329020265041037,-6.758498845086903,-6.471470625659424,0.004494396157587365,-0.005361082265072625,-1.4341532796149088
16164,13.0,299.90956,57810.765999999996,0.0,-0.08081957067860834,-0.08081850507105648,0.0,0.0,0.0,-4.342491729095566,-6.758171261329573,-6.472366440072834,-0.008128434055888983,-0.0040800055416651965,-1.4332755010532787
16165,13.0,299.74617,57922.069,0.0,-0.08082455217728923,-0.08082347437196591,0.0,0.0,0.0,-4.340718237445536,-6.774766474117394,-6.491377747724103,-0.0035030057125947467,-0.003170582571462137,-1.4378065528504587
16166,13.0,299.74459,57827.957,0.0,-0.0808295666660277,-0.08082847658215309,0.0,0.0,0.0,-4.342441167915576,-6.756537091568294,-6.479276805754834,-0.0024635171972802175,0.0016304930819671384,-1.4368519699312485
16167,13.0,299.8947,57718.189000000006,0.0,-0.08083458115476605,-0.08083347879234015,0.0,0.0,0.0,-4.326714817088505,-6.757256904439334,-6.4609165112928135,-0.0024341496630068678,0.007001605104479624,-1.4444028110014586
16168,13.0,300.08285,57782.343,0.0,-0.08083956265344694,-0.08083848100252733,0.0,0.0,0.0,-4.343440739139226,-6.755793669969924,-6.465155037786124,0.0015998533108682286,-0.003138178427964097,-1.4394635207389885
16169,13.0,300.1496,57876.829000000005,0.0,-0.0808445771421854,-0.08084348321271428,0.0,0.0,0.0,-4.3494075663281055,-6.764821829685934,-6.478881435565814,0.003206437642150757,-0.0037663572156105165,-1.4400296235698586
16170,13.0,300.11721,57953.551,0.0,-0.08084955864086629,-0.08084848542290124,0.0,0.0,0.0,-4.358501182000576,-6.772260402645063,-6.485670920510884,0.002820006142862937,0.01069504934951919,-1.4310138255050686
16171,13.0,299.99518,57940.138,0.0,-0.08085457312960465,-0.08085348763308842,0.0,0.0,0.0,-4.347885360702876,-6.770760083221993,-6.493709844154264,0.00043929525973256665,0.004258953817976016,-1.4315061637286588
16172,13.0,300.07633,57887.883,0.0,-0.08085955462828553,-0.08085848984327537,0.0,0.0,0.0,-4.347221276587336,-6.769093084157473,-6.480156509491653,-0.0011804204584734287,-0.0006342127730519274,-1.4289463900010286
16173,13.0,299.87509,57874.865999999995,0.0,-0.080864569117024,-0.08086349205346255,0.0,0.0,0.0,-4.3457797256700665,-6.7685989220837035,-6.478135379517184,-0.0005326359906670796,-0.002188351096773438,-1.4369943315702987
16174,13.0,299.91492999999997,57956.059,0.0,-0.08086955061570489,-0.08086849426364962,0.0,0.0,0.0,-4.363068102851296,-6.771991182093494,-6.482135488261964,0.005216717531899935,0.006312853921880175,-1.4298910430692588
16175,13.0,299.84749,57880.472,0.0,-0.08087456510444324,-0.08087349647383679,0.0,0.0,0.0,-4.343452290190366,-6.772273068271313,-6.478492752827454,-0.0015275897322863685,0.002053336432873528,-1.4424168408054587
16176,13.0,299.89364,57768.237,0.0,-0.0808795795931817,-0.08087849868402386,0.0,0.0,0.0,-4.333993499181855,-6.7572234671860345,-6.468884507429194,-0.0026193565825353674,-0.004118457065735066,-1.4370839028791385
16177,13.0,299.89787,57836.972,0.0,-0.0808845610918626,-0.08088350089421092,0.0,0.0,0.0,-4.336616094415686,-6.765743380651883,-6.478635925066585,-0.003809325504651156,0.0002824494942130947,-1.4436509794272587
16178,13.0,300.017,57963.051,0.0,-0.08088957558060095,-0.0808885031043981,0.0,0.0,0.0,-4.362058500451655,-6.774869926952603,-6.482391739212253,0.001971839207455378,0.0064696396827287235,-1.4359641601936288
16179,13.0,300.02184,57960.236,0.0,-0.08089455707928195,-0.08089347240530753,0.0,0.0,0.0,-4.3537396158056465,-6.780872420545003,-6.483852440556414,0.001873600962560018,0.0028149955197934273,-1.4446996932807588
16180,13.0,300.2423,57945.774000000005,0.0,-0.0808995715680203,-0.0808984746154946,0.0,0.0,0.0,-4.359167292616316,-6.782836605863854,-6.472064592868044,0.0005086438393667386,-0.0021969944241014678,-1.4411952664848986
16181,13.0,300.15637000000004,57913.944,0.0,-0.08090455306670119,-0.08090347682568177,0.0,0.0,0.0,-4.349202585832876,-6.775565320496234,-6.479624958489194,-0.002951523878017727,-0.004026805453114756,-1.4396869423860386
16182,13.0,300.09803,57927.947,0.0,-0.08090956755543965,-0.08090847903586873,0.0,0.0,0.0,-4.352213762480055,-6.778150729451394,-6.478284935231944,0.0028502478079975575,0.0014556351949850087,-1.4395498496475085
16183,13.0,299.88293999999996,57985.155999999995,0.0,-0.08091454905412054,-0.08091348124605591,0.0,0.0,0.0,-4.347182367783495,-6.786702965595435,-6.4921544039257535,-0.002983456758894257,-0.0022253155749965476,-1.4443139489676884
16184,13.0,299.90058,57951.025,0.0,-0.0809195635428589,-0.08091848345624286,0.0,0.0,0.0,-4.353771229208766,-6.777086107571324,-6.484807023475623,0.004263191432544236,-0.008436628867255441,-1.4451403557492486
16185,13.0,300.01446,57845.305,0.0,-0.08092457803159736,-0.08092348566642982,0.0,0.0,0.0,-4.340394909338626,-6.7760553282445946,-6.467078287800934,-0.006235079478654433,-0.004827185082006075,-1.4446171133976087
16186,13.0,299.96327,57870.477,0.0,-0.08092955953027825,-0.080928487876617,0.0,0.0,0.0,-4.347398494029826,-6.769194307842464,-6.474587078991994,0.0060602534077254435,0.0012160733857670988,-1.4395313071706788
16187,13.0,299.8326,58039.432,0.0,-0.0809345740190166,-0.08093349008680406,0.0,0.0,0.0,-4.360463442144236,-6.781125023794934,-6.500949617443774,-0.0019694223019918484,0.0007533801749903344,-1.4335161479520289
16188,13.0,299.78467,58100.16,0.0,-0.08093955551769749,-0.08093849229699124,0.0,0.0,0.0,-4.366130549953536,-6.788867267809034,-6.506000162567224,-0.002000013639735978,0.0015858927509904283,-1.4337339967235287
16189,13.0,299.76795,58008.975999999995,0.0,-0.08094457000643596,-0.08094349450717842,0.0,0.0,0.0,-4.350394471925505,-6.7829469487997445,-6.499938697819004,-0.0023261214969703178,0.0021141246500978577,-1.4380510500995884
16190,13.0,299.71378,57973.362,0.0,-0.08094955150511685,-0.08094849671736537,0.0,0.0,0.0,-4.359961579369705,-6.782597377515243,-6.479895496265893,-0.0008357166653338132,0.005091447800836776,-1.4436938399064885
16191,13.0,299.78878,58033.011,0.0,-0.0809545659938552,-0.08095349892755255,0.0,0.0,0.0,-4.365066839998556,-6.782618047817285,-6.492901473224484,0.0029126674592078977,0.006543623253355333,-1.4414571916357486
16192,13.0,299.92916,58024.981,0.0,-0.08095958048259366,-0.0809585011377395,0.0,0.0,0.0,-4.364235569616516,-6.782551477285714,-6.491358394647194,0.004772236529083076,-0.0024528885077062476,-1.4464472457282287
16193,13.0,299.93736,57985.192,0.0,-0.08096456198127455,-0.08096347043864904,0.0,0.0,0.0,-4.344626039106206,-6.783883090567135,-6.4975414494074135,0.004995060459899086,-0.0012458371008295488,-1.4438257650695088
16194,13.0,299.92458,57948.517,0.0,-0.08096957647001302,-0.08096847264883622,0.0,0.0,0.0,-4.349185259256165,-6.769981907145194,-6.495735128454144,0.0026954460921698176,-0.005405137062195494,-1.4402913460706885
16195,13.0,299.9544,57991.054000000004,0.0,-0.0809745579686939,-0.08097347485902318,0.0,0.0,0.0,-4.349973466508955,-6.782173838973444,-6.495685073899203,0.001042227026359799,-0.0019440132318841682,-1.4462302075568088
16196,13.0,299.96305,58107.335999999996,0.0,-0.08097957245743226,-0.08097847706921035,0.0,0.0,0.0,-4.370485701533355,-6.792172996260285,-6.500520506026423,-0.0008085802976481622,0.001167435151816879,-1.4406957341855986
16197,13.0,300.09462,58127.876,0.0,-0.08098455395611315,-0.08098347927939753,0.0,0.0,0.0,-4.369606808396616,-6.794594765324293,-6.505221378540364,-0.0012685747370485788,0.006539439341042414,-1.4377501148198886
16198,13.0,299.87805,58015.912000000004,0.0,-0.08098956844485161,-0.08098848148958449,0.0,0.0,0.0,-4.358047347280786,-6.787678826766744,-6.489662315304804,-0.003242600538219757,0.002722856128574977,-1.4358487510072384
16199,13.0,299.87681000000003,58027.844000000005,0.0,-0.0809945499435325,-0.08099348369977166,0.0,0.0,0.0,-4.356157534519276,-6.7817095677776225,-6.5011486197634145,-0.003953121804517746,0.0026844996473644874,-1.4362086574427588
16200,13.0,299.9029,58135.747,0.0,-0.08099956443227085,-0.08099848590995862,0.0,0.0,0.0,-4.369175062529005,-6.7965359498658735,-6.506104426002514,0.00017589932569991181,-0.0005759902570683125,-1.4425315407167787
16201,13.0,300.02635,58104.751,0.0,-0.08100457892100932,-0.08100348812014568,0.0,0.0,0.0,-4.3648429117264556,-6.792633214455703,-6.504917302185353,0.0006676624184006504,-0.0005341594527224335,-1.4479647904029986
16202,13.0,299.95567,58036.498,0.0,-0.08100956041969021,-0.08100849033033286,0.0,0.0,0.0,-4.362880550257786,-6.787783799477103,-6.4909818709100335,-0.001997753180087888,-0.004095557208175026,-1.4477440032062088
16203,13.0,299.87088,58063.157,0.0,-0.08101457490842845,-0.08101349254051982,0.0,0.0,0.0,-4.362637471558796,-6.788602708207924,-6.4985096098779636,-0.003502914114785707,0.0008228568902321522,-1.4463272769163886
16204,13.0,299.90242,58127.837,0.0,-0.08101955640710934,-0.08101849475070699,0.0,0.0,0.0,-4.370835678117896,-6.787917447165293,-6.510657667976885,-0.001987149720441408,-0.0016758171774902781,-1.4364763581191786
16205,13.0,299.96268,58157.054000000004,0.0,-0.08102457089584791,-0.08102349696089395,0.0,0.0,0.0,-4.361765063222696,-6.797851148495673,-6.518675819993214,0.002176636811042328,0.00032939276339603467,-1.4408976749305287
16206,13.0,300.06928,58137.917,0.0,-0.0810295523945288,-0.08102849917108113,0.0,0.0,0.0,-4.362091735054936,-6.798607438370314,-6.5117760934372635,-0.0025918489701455775,-0.01013224251989948,-1.4352423208223886
16207,13.0,300.25028,58079.782,0.0,-0.08103456688326727,-0.0810335013812683,0.0,0.0,0.0,-4.365862646627096,-6.788248577297973,-6.500692353243385,0.001137538093041269,-0.004474162465015455,-1.4454928654590384
16208,13.0,300.21837999999997,58071.992999999995,0.0,-0.08103954838194816,-0.08103847068217762,0.0,0.0,0.0,-4.365746629490646,-6.799341234092734,-6.487347849426384,0.0024861346620373877,0.0013443122435982887,-1.4496573233700385
16209,13.0,299.91905,58109.47,0.0,-0.08104456287068651,-0.0810434728923648,0.0,0.0,0.0,-4.370579528492616,-6.798646752474193,-6.494601605567273,0.004889953189925805,0.00924742784825007,-1.4492181807766986
16210,13.0,300.03659,58116.394,0.0,-0.08104957735942497,-0.08104847510255198,0.0,0.0,0.0,-4.364027042745937,-6.798142356574413,-6.503763210321453,0.0021439211944635477,0.000973894067830861,-1.4480737147887486
16211,13.0,299.80994,58056.175,0.0,-0.08105455885810586,-0.08105347731273893,0.0,0.0,0.0,-4.350792577889796,-6.799883626871265,-6.496951332549173,0.0016617992676568184,-0.0027011538313081273,-1.4508899421166885
16212,13.0,300.01864,58075.602,0.0,-0.0810595733468441,-0.08105847952292611,0.0,0.0,0.0,-4.357721891348666,-6.794182169883573,-6.501628697660794,0.007420592430805453,-0.0038289468901876365,-1.4484709088279486
16213,13.0,300.22803,58180.614,0.0,-0.0810645548455251,-0.08106348173311306,0.0,0.0,0.0,-4.379680540890816,-6.801993821529523,-6.503779422323054,0.0006640643166330454,-0.0014933969997118085,-1.4433048531930985
16214,13.0,300.02425,58168.1,0.0,-0.08106956933426357,-0.08106848394330024,0.0,0.0,0.0,-4.372237813606276,-6.802114803591463,-6.507297224020235,0.004918722096040076,-0.002742359875774847,-1.4481028963916287
16215,13.0,299.70918,58131.198,0.0,-0.08107455083294446,-0.0810734861534873,0.0,0.0,0.0,-4.366321446272376,-6.798887905997994,-6.505223202390543,-0.0028295087062757676,0.0032488157130081473,-1.4425948688480286
16216,13.0,300.05186000000003,58184.185,0.0,-0.0810795653216827,-0.08107848836367426,0.0,0.0,0.0,-4.3695136907124255,-6.802880314042014,-6.514145578796114,0.0007071070288935304,0.0054999812232308844,-1.4442932786656486
16217,13.0,299.94428,58138.242999999995,0.0,-0.08108457981042128,-0.08108349057386144,0.0,0.0,0.0,-4.363394572033516,-6.797954398680863,-6.511225290682903,-0.004039614048953866,0.0005935632359376303,-1.4396509720074886
16218,13.0,300.03528,58106.429000000004,0.0,-0.08108956130910216,-0.0810884927840484,0.0,0.0,0.0,-4.360766606574155,-6.802304686660203,-6.4998323065585035,-0.002903366735214987,-0.0003239625433276137,-1.4504772453509587
16219,13.0,299.88754,58210.785,0.0,-0.0810945757978404,-0.08109349499423557,0.0,0.0,0.0,-4.3748554439146154,-6.8079547718678235,-6.511814799591084,-0.006580906398734894,0.0026831834354845876,-1.4468695683699089
16220,13.0,300.05827999999997,58226.902,0.0,-0.08109955729652152,-0.08109849720442275,0.0,0.0,0.0,-4.379694523742196,-6.810079050702472,-6.509750809137384,-0.006262088166694984,0.006209190026674343,-1.4513252343596486
16221,13.0,300.15606,58180.948,0.0,-0.08110457178525976,-0.0811034994146097,0.0,0.0,0.0,-4.368446941007146,-6.804331896135273,-6.5127765765860035,-0.005854336568078035,0.01028396871769869,-1.4414586101858886
16222,13.0,300.16061,58223.497,0.0,-0.08110955328394076,-0.08110846871551924,0.0,0.0,0.0,-4.371530362386455,-6.802105785665574,-6.524853200552874,-1.5542773213702285e-05,0.0005912229017841574,-1.4383351654276286
16223,13.0,300.10434,58308.255,0.0,-0.08111456777267922,-0.08111347092570642,0.0,0.0,0.0,-4.376436418045646,-6.8136041478003735,-6.534212895701603,0.006061970663994924,0.002982228801098067,-1.4355938172820786
16224,13.0,300.14782,58271.011,0.0,-0.08111954927136011,-0.08111847313589338,0.0,0.0,0.0,-4.380723681868766,-6.810859658579514,-6.521349077732044,0.004732229058159646,-0.005047021850202275,-1.4442855779648887
16225,13.0,300.10912,58211.69,0.0,-0.08112456376009836,-0.08112347534608055,0.0,0.0,0.0,-4.375610517889136,-6.802032831658374,-6.517256965878184,0.0034010335397558766,-0.0059975410285612145,-1.4445693893178988
16226,13.0,299.93206000000004,58175.617999999995,0.0,-0.08112957824883693,-0.08112847755626762,0.0,0.0,0.0,-4.373178818974146,-6.804632730089963,-6.506123677754414,0.0033381602564757674,-0.0029146165471002575,-1.4487184458273787
16227,13.0,300.0092,58166.797,0.0,-0.08113455974751782,-0.08113347976645469,0.0,0.0,0.0,-4.365004930417446,-6.802935738822485,-6.513313193838965,0.004055252753647286,0.0013722306275786187,-1.4469588357037186
16228,13.0,299.7645,58217.897000000004,0.0,-0.08113957423625606,-0.08113848197664186,0.0,0.0,0.0,-4.368353316697905,-6.812440024760483,-6.515993645653503,-0.0017752753755060386,-0.0024121101561067376,-1.4498490302889586
16229,13.0,300.00786,58273.924000000006,0.0,-0.08114455573493695,-0.08114348418682893,0.0,0.0,0.0,-4.374999325428816,-6.815581505370523,-6.523237066643373,-0.005012172835537946,-0.0033908149124973765,-1.4475315246602385
16230,13.0,299.70475,58210.895,0.0,-0.08114957022367553,-0.0811484863970161,0.0,0.0,0.0,-4.375028203056666,-6.811656174483123,-6.507974075087034,0.0001181905781795019,-0.003530143995323087,-1.4524507525707286
16231,13.0,299.90491000000003,58224.905999999995,0.0,-0.08115455172235642,-0.08115348860720306,0.0,0.0,0.0,-4.374932754897245,-6.812685231284683,-6.511299460590224,-0.0010519549365948688,0.0034220887755088665,-1.4460230992363685
16232,13.0,300.07259,58360.710999999996,0.0,-0.08115956621109466,-0.08115849081739002,0.0,0.0,0.0,-4.392227515554105,-6.817750569859594,-6.530220791632614,-0.00015610284041365087,0.002087205330716128,-1.4444295608040987
16233,13.0,300.17377999999997,58339.917,0.0,-0.08116454770977577,-0.0811634930275772,0.0,0.0,0.0,-4.386210937785315,-6.817422276827194,-6.530244805659984,0.003651224241197777,-0.0010849854713047289,-1.4375940743044886
16234,13.0,299.84956,58190.592000000004,0.0,-0.08116956219851401,-0.08116849523776415,0.0,0.0,0.0,-4.364591119076605,-6.805576065933064,-6.518319763908074,-0.0036983462476983565,-0.001128693128943339,-1.4451244477226786
16235,13.0,300.13679,58233.805,0.0,-0.08117457668725236,-0.08117349744795133,0.0,0.0,0.0,-4.3773094343318055,-6.804391171266123,-6.519921813641185,0.005911119812957105,-0.0025422105570216476,-1.4424872616874087
16236,13.0,300.10447999999997,58308.26,0.0,-0.08117955818593348,-0.08117846674886087,0.0,0.0,0.0,-4.3869196049052555,-6.8170846618938725,-6.520251018598673,-0.005882888132045854,-0.001971821880878668,-1.4526647509918487
16237,13.0,299.97527,58299.893,0.0,-0.08118457267467172,-0.08118346895904782,0.0,0.0,0.0,-4.383944702611656,-6.816116704073345,-6.521650316986774,-0.0017368225342110385,0.0008081017902884371,-1.4520542678065986
16238,13.0,299.83115,58290.4,0.0,-0.08118955417335261,-0.081188471169235,0.0,0.0,0.0,-4.375778109455676,-6.815278239615593,-6.527769638315704,-0.005588085143276064,-0.00045727482546951157,-1.4492886016586486
16239,13.0,299.76895,58291.345,0.0,-0.08119456866209118,-0.08119347337942207,0.0,0.0,0.0,-4.378478420972176,-6.815025433715644,-6.525609389102503,-0.004463348857298236,0.005127429426462885,-1.4449613144565787
16240,13.0,299.87406,58305.204000000005,0.0,-0.08119955016077207,-0.08119847558960924,0.0,0.0,0.0,-4.373212256227446,-6.821064302986634,-6.529049677167034,-0.0016345048430880685,0.006430700380060714,-1.4524953355751287
16241,13.0,300.01999,58358.617999999995,0.0,-0.08120456464951031,-0.08120347779979631,0.0,0.0,0.0,-4.388036409165475,-6.826550444328074,-6.524975905139984,0.0002134677820426298,0.0009938995460827482,-1.4505009554032986
16242,13.0,300.28593,58373.918,0.0,-0.08120957913824878,-0.08120848000998337,0.0,0.0,0.0,-4.389535614013436,-6.828220280492873,-6.526457783411234,0.0005511700068587445,0.005048572933455355,-1.4485838862140985
16243,13.0,300.20054,58287.512,0.0,-0.08121456063692967,-0.08121348222017055,0.0,0.0,0.0,-4.379125482486036,-6.818002261184434,-6.520820465154873,0.00038407003886976166,-0.0013034091609114688,-1.4499622103251286
16244,13.0,300.18175,58283.499,0.0,-0.08121957512566802,-0.08121848443035751,0.0,0.0,0.0,-4.374132996593316,-6.820387249269814,-6.522208111166823,0.004713023814439235,0.0005648568372220294,-1.4492974169345185
16245,13.0,300.00071,58341.015999999996,0.0,-0.08122455662434891,-0.08122348664054468,0.0,0.0,0.0,-4.374444064374016,-6.823222627024643,-6.536545397431803,0.002746694762352667,-0.003396748606407987,-1.4504127013195884
16246,13.0,299.93248,58357.78599999999,0.0,-0.08122957111308737,-0.08122848885073164,0.0,0.0,0.0,-4.375583565436476,-6.827248776296993,-6.5364775096751035,0.003791389356680997,-6.903743180671403e-05,-1.4496881261730787
16247,13.0,299.91591,58340.288,0.0,-0.08123455261176826,-0.0812334910609186,0.0,0.0,0.0,-4.385927633057356,-6.825179212967743,-6.522883847658513,0.003284328102512947,-0.0026452272893886073,-1.4565746804777286
16248,13.0,300.05888,58381.024000000005,0.0,-0.08123956710050662,-0.08123849327110577,0.0,0.0,0.0,-4.397018162026906,-6.821015363006803,-6.528340098122003,-0.0029612904944066173,0.0006764726482851522,-1.4531467540644185
16249,13.0,299.88841,58359.742999999995,0.0,-0.08124454859918773,-0.08124349548129284,0.0,0.0,0.0,-4.386925785730866,-6.826232182471664,-6.526746559689734,-0.00034339501851544967,-0.0025822773030759276,-1.4557921474254985
16250,13.0,299.88881000000003,58356.345,0.0,-0.08124956308792597,-0.08124849769148001,0.0,0.0,0.0,-4.381982847768036,-6.821249829079943,-6.5356389438923435,-0.002433588423776478,0.0006303889090295414,-1.4414811043381088
16251,13.0,299.9237,58447.831,0.0,-0.08125457757666432,-0.08125346699238944,0.0,0.0,0.0,-4.389984382482726,-6.8294509740643345,-6.547245723787844,0.0015524629957411687,5.447618889863125e-05,-1.4484242993233485
16252,13.0,299.72411,58449.462,0.0,-0.08125955907534543,-0.08125846920257651,0.0,0.0,0.0,-4.393778396157166,-6.832729142112863,-6.540669325338803,0.0015706440462604984,0.0006491805339266303,-1.4496304722423885
16253,13.0,299.77348,58371.052,0.0,-0.0812645735640839,-0.08126347141276369,0.0,0.0,0.0,-4.389947601504097,-6.822197319248453,-6.531197362078994,0.006368339294706154,0.00013802116946412887,-1.4490648760365685
16254,13.0,300.05202,58381.047,0.0,-0.08126955506276456,-0.08126847362295087,0.0,0.0,0.0,-4.387956666382606,-6.829688783862804,-6.528735063010984,0.0018586465056591283,0.0031151795758692868,-1.4543901132621286
16255,13.0,300.01162,58443.100999999995,0.0,-0.08127456955150303,-0.08127347583313782,0.0,0.0,0.0,-4.390080742567236,-6.832346032250053,-6.542816706275734,0.005999649804669334,-0.0001234419900027759,-1.4476789525497886
16256,13.0,299.9087,58446.670999999995,0.0,-0.08127955105018392,-0.081278478043325,0.0,0.0,0.0,-4.385051577020896,-6.832296585645173,-6.548980407959044,0.0013978870320357087,0.006778387323349743,-1.4522815398040287
16257,13.0,300.03942,58427.003,0.0,-0.08128456553892227,-0.08128348025351195,0.0,0.0,0.0,-4.3812151081672654,-6.835895346025344,-6.543239636867474,-0.0013905203998336787,-0.0023859866433535476,-1.4484327092991787
16258,13.0,300.04649,58415.097,0.0,-0.08128954703760316,-0.08128848246369913,0.0,0.0,0.0,-4.388446268830926,-6.8270030631477425,-6.541281632374234,-0.0013506462726234087,-0.003119160027562127,-1.4513425609363586
16259,13.0,300.05523999999997,58452.128,0.0,-0.08129456152634162,-0.08129348467388631,0.0,0.0,0.0,-4.398597008332726,-6.833831760871685,-6.535558390509394,-0.007192092070279223,-0.0037182815381158166,-1.4564054677110287
16260,13.0,300.04823,58496.33,0.0,-0.08129957601507998,-0.08129848688407326,0.0,0.0,0.0,-4.399368496958866,-6.8380971384926434,-6.543958132513384,-0.006366706442170004,0.0047062587488215755,-1.4633901046253586
16261,13.0,299.99827,58509.292,0.0,-0.08130455751376087,-0.08130348909426044,0.0,0.0,0.0,-4.400407382286396,-6.833937645507135,-6.551018661860203,-0.002324934778453198,0.003219913159205687,-1.4497317972523887
16262,13.0,299.86625,58417.029,0.0,-0.08130957200249933,-0.0813084913044474,0.0,0.0,0.0,-4.384625606678855,-6.828083795704402,-6.544608841727603,-0.0015146112144054885,0.0034144952766094467,-1.4538964578134086
16263,13.0,299.85507,58439.635,0.0,-0.08131455350118022,-0.08131349351463446,0.0,0.0,0.0,-4.384988552864676,-6.830311324724244,-6.548889924725114,0.004850783676835076,-0.0019521624984634382,-1.4514465203966187
16264,13.0,299.88532000000004,58511.994000000006,0.0,-0.08131956798991857,-0.08131849572482164,0.0,0.0,0.0,-4.400523602072866,-6.839974589602934,-6.545686939834003,0.001962513456184998,0.004826680584781285,-1.4513426622613685
16265,13.0,300.05133,58504.100999999995,0.0,-0.08132454948859957,-0.08132346502573107,0.0,0.0,0.0,-4.400099759556037,-6.840045719759954,-6.5436402759570145,0.006355840753397644,0.0026603456901556776,-1.4552143922184786
16266,13.0,300.02997999999997,58449.431,0.0,-0.08132956397733815,-0.08132846723591813,0.0,0.0,0.0,-4.386931358606415,-6.836035883814214,-6.5442004006122945,-0.004292969029133056,0.0018072118027579185,-1.4531886012935487
16267,13.0,299.90213,58506.295999999995,0.0,-0.08133457846607639,-0.08133346944610531,0.0,0.0,0.0,-4.389888225048236,-6.844775469901744,-6.549789488163894,0.001078383842928199,0.00024446948607725975,-1.4529113760661885
16268,13.0,299.96802,58538.879,0.0,-0.08133955996475728,-0.08133847165629227,0.0,0.0,0.0,-4.393994319753475,-6.843442539395194,-6.556920742367693,8.650932074005521e-05,0.0035980057114955166,-1.4517318516247788
16269,13.0,300.08306,58504.054000000004,0.0,-0.08134457445349585,-0.08134347386647944,0.0,0.0,0.0,-4.393518294856496,-6.842304152907844,-6.547949223332274,0.002151994061985278,-0.0010714169378906188,-1.4602176185622586
16270,13.0,300.00006,58511.737,0.0,-0.08134955595217652,-0.0813484760766664,0.0,0.0,0.0,-4.404090647724905,-6.844801307779293,-6.537214851772874,-0.0014754919585197187,-0.003659395090004176,-1.4589000894572286
16271,13.0,300.0734,58488.727999999996,0.0,-0.08135457044091499,-0.08135347828685358,0.0,0.0,0.0,-4.404344466874956,-6.834894660226584,-6.539873822685293,-0.004380676869714146,-0.01062109931747089,-1.4645641575162285
16272,13.0,300.1723,58476.687000000005,0.0,-0.08135955193959588,-0.08135848049704075,0.0,0.0,0.0,-4.390316424540496,-6.845311580529653,-6.539824680055443,-0.0026934643776242374,0.0037787964817881767,-1.4615527782190287
16273,13.0,300.00485,58527.522000000004,0.0,-0.08136456642833423,-0.08136348270722771,0.0,0.0,0.0,-4.401112300380966,-6.8443896242636635,-6.545403331131014,0.0013247597590686088,-0.003092232703504607,-1.4566076111059787
16274,13.0,299.95329,58518.929000000004,0.0,-0.08136954792701512,-0.08136848491741488,0.0,0.0,0.0,-4.3893954815246055,-6.843098439661235,-6.5557994798070345,0.000897157375092539,-0.0025697867664432076,-1.4523008928809384
16275,13.0,300.08347000000003,58456.069,0.0,-0.08137456241575358,-0.08137348712760184,0.0,0.0,0.0,-4.385693065659205,-6.847016272497893,-6.536476091124964,0.004632903798557006,0.0005701816083525435,-1.4568230280772385
16276,13.0,300.06651,58524.515999999996,0.0,-0.08137957690449193,-0.08137848933778902,0.0,0.0,0.0,-4.396530484753775,-6.846621206283904,-6.546839714472774,-0.00035327093419262667,0.007359530028104062,-1.4536242988365486
16277,13.0,300.05984,58633.560999999994,0.0,-0.08138455840317282,-0.08138349154797608,0.0,0.0,0.0,-4.417588760257066,-6.855281049588564,-6.550268755461194,0.0016650179579244784,0.0015743230560485886,-1.4532082583454886
16278,13.0,299.73738,58619.782,0.0,-0.08138957289191129,-0.08138849375816304,0.0,0.0,0.0,-4.401610312805116,-6.853919241454164,-6.563420539109173,-0.007993757412222432,-0.006224866626921504,-1.4511247121648587
16279,13.0,299.6577,58535.457,0.0,-0.0813945543905924,-0.08139346305907269,0.0,0.0,0.0,-4.397094155784406,-6.845809491628794,-6.550413650225494,-0.004129657633665475,-0.0028132314513693276,-1.4566160210818087
16280,13.0,299.70803,58538.433,0.0,-0.08139956887933064,-0.08139846526925987,0.0,0.0,0.0,-4.386288958043016,-6.847930224088093,-6.5600026438718535,-0.00869860153953513,0.0034882531964387864,-1.4538719371609885
16281,13.0,300.03339,58572.124,0.0,-0.08140455037801153,-0.08140346747944693,0.0,0.0,0.0,-4.4049914270638055,-6.842568408533923,-6.556903213140964,-0.004611130675108165,-0.004754883202570436,-1.4590907831260487
16282,13.0,299.90602,58548.34099999999,0.0,-0.08140956486675,-0.08140846968963389,0.0,0.0,0.0,-4.403102019602336,-6.841419078945494,-6.552712714702394,-0.0021885824217712678,-0.0076235067064315334,-1.4543403626822187
16283,13.0,299.95193,58581.636,0.0,-0.08141454636543077,-0.08141347189982084,0.0,0.0,0.0,-4.404120943902896,-6.847612671506753,-6.5556208438144035,0.004032321991959196,-0.004845032975892526,-1.4605867455736885
16284,13.0,299.88242,58604.958,0.0,-0.08141956085416924,-0.08141847411000802,0.0,0.0,0.0,-4.401107538105496,-6.844764830775694,-6.568571395992524,0.008444616115143721,0.002102908478115908,-1.4527184532471487
16285,13.0,299.9531,58613.153,0.0,-0.0814245753429077,-0.0814234763201952,0.0,0.0,0.0,-4.402671692284866,-6.854145297551473,-6.5601179517332335,0.0010025687720833342,-0.004664253452675976,-1.4590508610721087
16286,13.0,299.89256,58670.71,0.0,-0.08142955684158848,-0.08142847853038215,0.0,0.0,0.0,-4.405064279745996,-6.857606965193114,-6.571759587432174,0.007351826895543823,-0.0015325269960486385,-1.4495118206556787
16287,13.0,300.14697,58672.456,0.0,-0.08143457133032694,-0.08143348074056933,0.0,0.0,0.0,-4.412196851174925,-6.856102694094654,-6.566661824854064,-0.002029555858326568,0.005847621962315354,-1.4555288037245087
16288,13.0,300.19306,58583.637,0.0,-0.08143955282900783,-0.0814384829507564,0.0,0.0,0.0,-4.3964042337913165,-6.858427292474073,-6.553131288318704,-0.001014111970535059,0.013215316455750187,-1.4558854677597088
16289,13.0,300.17227,58589.926,0.0,-0.08144456731774619,-0.08144348516094346,0.0,0.0,0.0,-4.396013828527786,-6.8584237460987225,-6.555436938921253,-0.008120516012982533,0.0029453195450054068,-1.4599584291866785
16290,13.0,299.98241,58671.26,0.0,-0.08144954881642708,-0.08144848737113064,0.0,0.0,0.0,-4.410218986979726,-6.857912966723313,-6.566466064934744,-0.005787904547796704,-0.0026722010203007076,-1.4573764652818588
16291,13.0,299.90256,58615.075999999994,0.0,-0.08145456330516554,-0.0814534895813177,0.0,0.0,0.0,-4.405449517434016,-6.852295204193885,-6.5597748652493735,-1.7012816723784285e-05,0.00040346639169153256,-1.4576138697802885
16292,13.0,299.86093,58565.644,0.0,-0.08145957779390378,-0.08145849179150466,0.0,0.0,0.0,-4.393299635484916,-6.853566225119324,-6.555627429940053,0.004268403287083606,-0.003238779876067687,-1.4647533313098986
16293,13.0,299.81535,58636.952000000005,0.0,-0.08146455929258489,-0.08146346109241431,0.0,0.0,0.0,-4.412362416241266,-6.858185632325224,-6.553621194742053,0.005240114287309015,-0.005168228651014455,-1.4541542286388487
16294,13.0,300.04699,58674.712999999996,0.0,-0.08146957378132325,-0.08146846330260138,0.0,0.0,0.0,-4.411769664932766,-6.858030807709943,-6.565847374423685,-0.0005070537561173095,-0.008363270775915562,-1.4586987566623586
16295,13.0,299.92647,58661.718,0.0,-0.08147455528000425,-0.08147346551278856,0.0,0.0,0.0,-4.409094380693736,-6.861934049745164,-6.560669159787634,0.0019998471627445478,0.0019742739461206683,-1.4583682344797384
16296,13.0,300.00165,58685.535,0.0,-0.0814795697687426,-0.08147846772297551,0.0,0.0,0.0,-4.4160858063837365,-6.859701251824803,-6.563150102657484,0.00031583829389331266,0.0034935319254847568,-1.4599921704150087
16297,13.0,299.86802,58701.53,0.0,-0.08148455126742349,-0.08148346993316247,0.0,0.0,0.0,-4.412793351508795,-6.862195772245994,-6.568810219041094,-0.0005683439374411794,0.003587089664193187,-1.4580954675528186
16298,13.0,300.21456,58658.181,0.0,-0.08148956575616195,-0.08148847214334964,0.0,0.0,0.0,-4.403501442791756,-6.862809295181544,-6.5643115912471135,0.002859554003541007,0.0022483201012919183,-1.4619423728824785
16299,13.0,300.22654,58716.857,0.0,-0.08149454725484273,-0.0814934743535366,0.0,0.0,0.0,-4.416954668344486,-6.865719754768784,-6.565783944967423,-0.0005398836774398705,0.0055074386426418745,-1.4528012357803186
16300,13.0,300.29385,58748.969000000005,0.0,-0.0814995617435812,-0.08149847656372378,0.0,0.0,0.0,-4.416763772025646,-6.866996247244764,-6.574459797623663,0.0038812735571518765,0.0020990123288313883,-1.4580885774521386
16301,13.0,300.13198,58677.34099999999,0.0,-0.08150457623231966,-0.08150347877391084,0.0,0.0,0.0,-4.407873718298267,-6.867823869926444,-6.560748801245494,-0.0052042539477198755,-0.00035216270202825264,-1.4566940413395086
16302,13.0,300.00972,58647.192,0.0,-0.08150955773100033,-0.08150848098409802,0.0,0.0,0.0,-4.401123040832026,-6.859642989944054,-6.566515815514653,0.004342646047085796,-0.004397361552485796,-1.4598585227268186
16303,13.0,299.95013,58767.864,0.0,-0.0815145722197389,-0.0815134831942852,0.0,0.0,0.0,-4.416952641844286,-6.872806324643173,-6.574204255948444,-0.0008911855525806661,-0.004545430829349096,-1.4656600888243885
16304,13.0,299.99454,58770.637,0.0,-0.08151955371841979,-0.08151848540447215,0.0,0.0,0.0,-4.414203795647996,-6.870496013090164,-6.580106437780944,0.004047648615621816,-0.009004988915373211,-1.4636056229216285
16305,13.0,300.15006,58699.35400000001,0.0,-0.08152456820715803,-0.08152348761465933,0.0,0.0,0.0,-4.412597591589475,-6.866479489693765,-6.564060913172374,0.0017398639057111984,-0.0037291933297677257,-1.4606352802534786
16306,13.0,300.0854,58718.954000000005,0.0,-0.08152954970583914,-0.08152848982484628,0.0,0.0,0.0,-4.405206337410016,-6.868011422519953,-6.575878246438653,-0.0024933967268290975,-0.0020224657420768277,-1.4592575640925087
16307,13.0,300.28591,58777.015999999996,0.0,-0.0815345641945775,-0.08153349203503346,0.0,0.0,0.0,-4.420816367125605,-6.8657088116677025,-6.580220225767174,0.0022763453831577975,0.008637800048734493,-1.4612079692099986
16308,13.0,300.02837999999997,58820.193,0.0,-0.0815395456932585,-0.081538461335943,0.0,0.0,0.0,-4.420867738905676,-6.873365942673403,-6.585636047551674,-0.006713990719869294,0.004486788067886506,-1.4612719052913088
16309,13.0,300.12382,58806.404,0.0,-0.08154456018199685,-0.08154346354612996,0.0,0.0,0.0,-4.4221841534355955,-6.873739224010243,-6.579755143971274,0.002391711101118508,0.004976652644007375,-1.4707310002748486
16310,13.0,299.96573,58753.323,0.0,-0.08154957467073509,-0.08154846575631713,0.0,0.0,0.0,-4.413324902511255,-6.870665732481913,-6.575552385206494,0.0003269649654939297,-0.0038965817396626762,-1.4620505879931587
16311,13.0,300.10658,58731.46400000001,0.0,-0.0815545561694162,-0.08155346796650431,0.0,0.0,0.0,-4.418113927783896,-6.870729060613163,-6.564055542946844,-0.0024914636482883177,0.004368408538828356,-1.4680963473648285
16312,13.0,299.82814,58817.455,0.0,-0.08155957065815456,-0.08155847017669127,0.0,0.0,0.0,-4.420973116916076,-6.874191133554843,-6.583873499002724,-0.002118291641134108,-0.005220806097378445,-1.4494713919766886
16313,13.0,299.88026,58807.709,0.0,-0.08156455215683545,-0.08156347238687822,0.0,0.0,0.0,-4.426825041543616,-6.869157408383053,-6.580092454929564,-0.006596852624833664,0.009699547844895842,-1.4574349298126288
16314,13.0,299.80146,58722.306,0.0,-0.08156956664557391,-0.08156847459706529,0.0,0.0,0.0,-4.404127428703537,-6.868195226088093,-6.577792174552544,-0.0017005501058062283,0.0052455918160246055,-1.4560685620527787
16315,13.0,300.05535,58799.459,0.0,-0.08157454814425458,-0.08157347680725247,0.0,0.0,0.0,-4.414103483888096,-6.873758881062183,-6.585704847233464,0.0003889740477637496,0.002047340120106738,-1.4685198859066286
16316,13.0,300.27889,58919.449,0.0,-0.08157956263299315,-0.08157847901743964,0.0,0.0,0.0,-4.436102359459215,-6.880325450985254,-6.593613365588974,0.003000587373034917,-0.009283292544814642,-1.4584042048582886
16317,13.0,300.19741,58845.782999999996,0.0,-0.08158457712173162,-0.0815834812276266,0.0,0.0,0.0,-4.425278619240996,-6.878021117607833,-6.584349017274653,-0.0003742881831993676,-0.0074640149598659234,-1.4628846954754786
16318,13.0,300.02077,58746.86,0.0,-0.08158955862041228,-0.08158848343781377,0.0,0.0,0.0,-4.405207553310136,-6.872805210068064,-6.579565564877564,0.005340769741642934,-0.0012840169725476089,-1.4602955374949487
16319,13.0,300.2723,58829.03599999999,0.0,-0.08159457310915075,-0.08159348564800073,0.0,0.0,0.0,-4.423933529733246,-6.879088880563214,-6.579535673999613,-0.005904142572768505,0.006253498946922295,-1.4656781246761685
16320,13.0,300.08492,58874.541,0.0,-0.08159955460783175,-0.08159848785818791,0.0,0.0,0.0,-4.424168502431436,-6.885233026519594,-6.5869889390851935,-0.0004583083405715116,0.0037864499650935163,-1.4695320214315186
16321,13.0,300.04492999999997,58831.166,0.0,-0.08160456909656999,-0.08160349006837508,0.0,0.0,0.0,-4.4265839893448256,-6.882738303448384,-6.573883258316764,-0.006547379270151024,0.007216345933947894,-1.4700025747779586
16322,13.0,300.18127000000004,58801.077000000005,0.0,-0.0816095505952511,-0.0816084593692844,0.0,0.0,0.0,-4.417531511626416,-6.878303105110663,-6.578224629695224,0.0021058978698859383,-0.0013595386568260185,-1.4664942976317186
16323,13.0,299.93688,58828.59099999999,0.0,-0.08161456508398934,-0.08161346157947158,0.0,0.0,0.0,-4.419565611202167,-6.881949285595513,-6.580907817285034,-0.006149288301962505,-0.004884964757033485,-1.4541362941120786
16324,13.0,299.75461,58881.958,0.0,-0.08161954658267045,-0.08161846378965876,0.0,0.0,0.0,-4.417282150776805,-6.8838683812849135,-6.597494316121994,-0.003759567426690416,-0.005259978346244446,-1.4576744621362687
16325,13.0,299.91739,58907.919,0.0,-0.08162456107140881,-0.08162346599984571,0.0,0.0,0.0,-4.432489210927626,-6.879076417586984,-6.594970918072953,0.0003860286107830576,0.0017379000243673785,-1.4535382739030587
16326,13.0,299.98246,58835.462999999996,0.0,-0.08162957556014727,-0.08162846821003289,0.0,0.0,0.0,-4.409101068144396,-6.882399371289934,-6.5930111910545435,0.003149946314625497,0.001079491933237559,-1.4745580459025485
16327,13.0,300.1471,58823.566,0.0,-0.08163455705882816,-0.08163347042021984,0.0,0.0,0.0,-4.421203124688775,-6.881257945052284,-6.578434169815903,0.003465041359172957,-0.004300526861628956,-1.4691704937958385
16328,13.0,300.14952,58918.107,0.0,-0.08163957154756651,-0.08163847263040691,0.0,0.0,0.0,-4.431806077710205,-6.889087328574985,-6.5887399365830035,0.0027274117010245773,-0.014163466250075288,-1.4764697448662185
16329,13.0,299.91302,58971.195999999996,0.0,-0.0816445530462474,-0.08164347484059409,0.0,0.0,0.0,-4.438280948499226,-6.889234047189463,-6.598255976222164,-0.004128295318906026,0.00016719271077063585,-1.4588527706775587
16330,13.0,300.12102999999996,58885.683,0.0,-0.08164956753498587,-0.08164847705078104,0.0,0.0,0.0,-4.422193070036476,-6.883853790483474,-6.593730294650514,-0.00026783218615047873,-0.002758452921813107,-1.4670207823836787
16331,13.0,300.25831,58880.945999999996,0.0,-0.08165454903366653,-0.08165347926096822,0.0,0.0,0.0,-4.425664667529096,-6.8861969313397235,-6.586475626584535,-0.005967875294783434,0.006508638361852594,-1.4590047581925587
16332,13.0,300.17076000000003,58923.797,0.0,-0.081659563522405,-0.08165848147115518,0.0,0.0,0.0,-4.4293567482434755,-6.890947959733614,-6.591058050161784,-9.14347730459095e-05,0.0030990380964762473,-1.4706051546124286
16333,13.0,300.05416,58958.904,0.0,-0.08166454502108589,-0.08166348368134235,0.0,0.0,0.0,-4.441658820357596,-6.891327624546083,-6.589048065938414,0.0024577207987581578,0.0035402319133186868,-1.4676101899668486
16334,13.0,299.91035,58926.691,0.0,-0.08166955950982424,-0.08166848589152953,0.0,0.0,0.0,-4.431567558636666,-6.888002846992953,-6.592672461546114,0.001147129214512839,-0.0004309706299584896,-1.4680117409814788
16335,13.0,299.95772,58906.942,0.0,-0.0816745739985627,-0.08167348810171648,0.0,0.0,0.0,-4.424065454896266,-6.890031576343174,-6.592142227768784,0.004522849841595526,-0.0054971373341752144,-1.4603697074022686
16336,13.0,300.10157999999996,58843.433,0.0,-0.0816795554972436,-0.08167845740262603,0.0,0.0,0.0,-4.411870280667696,-6.886249822994943,-6.588814106490323,0.002605131159081428,-0.0005384387220022644,-1.4651502213740686
16337,13.0,299.95693,58859.15900000001,0.0,-0.08168456998598217,-0.0816834596128132,0.0,0.0,0.0,-4.415341776835305,-6.890567585646073,-6.585805462968393,0.004241112510215216,0.007279178281923962,-1.4684810784277986
16338,13.0,299.97931,59009.707,0.0,-0.08168955148466306,-0.08168846182300016,0.0,0.0,0.0,-4.4347123829720365,-6.9053282078028335,-6.597436864841324,0.0007431628142944593,0.0005945453387295565,-1.4746039461320786
16339,13.0,300.08213,59024.032,0.0,-0.08169456597340152,-0.08169346403318734,0.0,0.0,0.0,-4.450551913835276,-6.8953274293158335,-6.5959524534448235,-0.004109867136687306,0.003561758513018197,-1.4648918425985686
16340,13.0,299.98732,58931.585999999996,0.0,-0.08169954747208241,-0.0816984662433744,0.0,0.0,0.0,-4.427171471752805,-6.894737717757635,-6.5918215341121345,-0.003010243646487917,-0.0032802886796642864,-1.4712217172982787
16341,13.0,299.96076,58965.593,0.0,-0.08170456196082065,-0.08170346845356147,0.0,0.0,0.0,-4.433859631687876,-6.890726868561793,-6.599481299568094,-0.0016961378069207684,0.0007006281355016133,-1.4566002143802486
16342,13.0,299.97739,59041.46,0.0,-0.08170957644955923,-0.08170847066374853,0.0,0.0,0.0,-4.438014666372945,-6.893660936876364,-6.615453971494474,-0.0012465008809700588,0.002037164454652478,-1.4598849685544286
16343,13.0,299.58342999999996,58963.584,0.0,-0.08171455794824012,-0.08171347287393571,0.0,0.0,0.0,-4.431883996642896,-6.892621240948753,-6.598951977715854,0.008330363756392893,0.004562058060840076,-1.4659366047766786
16344,13.0,299.72595,58894.245,0.0,-0.08171957243697836,-0.08171847508412267,0.0,0.0,0.0,-4.420237699993495,-6.889936330833773,-6.592205758550053,0.006801968084976984,0.005932086591976364,-1.4754546709160385
16345,13.0,299.88899,58924.261,0.0,-0.08172455393565925,-0.08172347729430962,0.0,0.0,0.0,-4.4363379401074665,-6.8872738135460025,-6.587892251549343,0.005724511264565275,0.003002567871680377,-1.4686682257212686
16346,13.0,300.00023999999996,59024.299000000006,0.0,-0.08172956842439782,-0.0817284795044968,0.0,0.0,0.0,-4.431829179812486,-6.903822011529185,-6.606261867912284,-0.0021120123276143882,-0.0028714046727355775,-1.4674436116504088
16347,13.0,299.99834,59067.647000000004,0.0,-0.08173454992307849,-0.08173348171468398,0.0,0.0,0.0,-4.438482382619105,-6.901402674265413,-6.615204813294884,-0.003179907917432477,-0.002014304620471388,-1.4562357483192787
16348,13.0,299.96811,59036.054000000004,0.0,-0.08173956441181696,-0.08173848392487093,0.0,0.0,0.0,-4.426142212301226,-6.903001380273194,-6.616342794482194,-0.002125022864198428,-0.005896445215733834,-1.4574656312906586
16349,13.0,299.85913,58987.207,0.0,-0.08174454591049785,-0.08174348613505811,0.0,0.0,0.0,-4.427074909018276,-6.899435753171294,-6.604127253926614,-0.002956606239194317,-0.002842375260020597,-1.4651828480272886
16350,13.0,299.9943,59009.279,0.0,-0.0817495603992362,-0.08174848834524517,0.0,0.0,0.0,-4.4374519072674055,-6.899788465531103,-6.600107082829854,-0.002975744507083117,-0.005190628064350105,-1.4667368697056586
16351,13.0,300.07944,59070.962999999996,0.0,-0.08175457488797466,-0.0817534576461546,0.0,0.0,0.0,-4.456604259332596,-6.897671279447153,-6.601822312599134,-4.640588895265466e-06,-0.00043400314565277556,-1.465635466846959
16352,13.0,300.06035,59015.092000000004,0.0,-0.08175955638665577,-0.08175845985634178,0.0,0.0,0.0,-4.434457550571886,-6.899919681419053,-6.604737129161803,-0.003298319971818837,0.004142707180378366,-1.4712403611001186
16353,13.0,300.01362,58908.724,0.0,-0.08176457087539402,-0.08176346206652885,0.0,0.0,0.0,-4.422107045102987,-6.893269315712713,-6.591404986996023,0.0011890487896999789,-0.0003234068364427697,-1.4696558405937385
16354,13.0,300.08707000000004,58998.545999999995,0.0,-0.0817695523740749,-0.08176846427671602,0.0,0.0,0.0,-4.422223771514505,-6.906767124269844,-6.605093894522014,0.00033264155732416566,6.812597281176003e-06,-1.4745045462972686
16355,13.0,300.10052,59115.955,0.0,-0.08177456686281348,-0.08177346648690309,0.0,0.0,0.0,-4.444320729695305,-6.913800599838993,-6.611652763744323,0.002327552104786508,-0.006506545392446035,-1.4745411246258786
16356,13.0,299.85882000000004,59094.617,0.0,-0.08177954836149437,-0.08177846869709016,0.0,0.0,0.0,-4.442330503848886,-6.913079368417814,-6.607878204471803,0.006649976415651573,0.0025361374398972774,-1.4812593780889185
16357,13.0,299.92115,59079.725999999995,0.0,-0.08178456285023261,-0.08178347090727733,0.0,0.0,0.0,-4.445290207390986,-6.9077325489651225,-6.605738625560644,-0.000894405408085941,-0.0012368600089185788,-1.4701573993932384
16358,13.0,299.80863999999997,59094.614,0.0,-0.0817895443489135,-0.08178847311746429,0.0,0.0,0.0,-4.439194292139367,-6.908047771071234,-6.616045000277803,0.005421677964777954,0.0020731310841771078,-1.4664112111235186
16359,13.0,300.00577999999996,59087.458,0.0,-0.08179455883765208,-0.08179347532765124,0.0,0.0,0.0,-4.443112732926086,-6.903723118319423,-6.614276068253224,-0.0049969622290117754,0.0012419080209167786,-1.4604832927384785
16360,13.0,299.89922,59100.41,0.0,-0.08179957332639032,-0.08179847753783842,0.0,0.0,0.0,-4.437487978970966,-6.908459555911873,-6.619101367879444,-0.0004761674511365686,0.0012600218929544786,-1.4618686082751986
16361,13.0,299.95367000000005,59099.051,0.0,-0.08180455482507121,-0.08180347974802538,0.0,0.0,0.0,-4.446509147261286,-6.908971449862394,-6.609155406222853,-0.004127048109357936,-0.00941696130860672,-1.4628150851936086
16362,13.0,299.99952,59031.693,0.0,-0.08180956931380967,-0.08180848195821255,0.0,0.0,0.0,-4.440674346560436,-6.902891645287364,-6.600594760102984,-0.005780052163496734,-0.0014528029583054886,-1.4736110623590886
16363,13.0,300.09373999999997,59074.732,0.0,-0.08181455081249045,-0.08181348416839962,0.0,0.0,0.0,-4.440269654470496,-6.9133809116475735,-6.603592865823874,-0.0034399537933220065,0.001782036996073358,-1.4740070404981684
16364,13.0,300.06139,59193.706,0.0,-0.08181956530122891,-0.0818184863785868,0.0,0.0,0.0,-4.450993893528896,-6.9161292512188135,-6.626285412413454,-0.007725047538702833,0.01078836765722899,-1.4747150996680487
16365,13.0,300.15858,59179.386,0.0,-0.08182454679991003,-0.08182345567949623,0.0,0.0,0.0,-4.451132607467586,-6.915136570095844,-6.6227863558431235,0.001140469324255559,0.007976714545540432,-1.4736568612636087
16366,13.0,300.0156,59102.472,0.0,-0.08182956128864827,-0.08182845788968329,0.0,0.0,0.0,-4.440571400350276,-6.913390740173543,-6.611713660075335,-0.0014861033215169785,-0.0003856951501751476,-1.4788755045786486
16367,13.0,300.11274,59121.109000000004,0.0,-0.08183457577738662,-0.08183346009987047,0.0,0.0,0.0,-4.445078944745136,-6.913068627966752,-6.613193309196364,0.008551234343666123,0.002318714841389338,-1.4743081784278884
16368,13.0,300.12425,59132.181,0.0,-0.08183955727606773,-0.08183846231005765,0.0,0.0,0.0,-4.447369903221236,-6.909983788037303,-6.6173527008568644,-0.0013747427785515485,-0.004548679106519676,-1.4726433071885787
16369,13.0,300.15426,59140.992,0.0,-0.08184457176480597,-0.0818434645202446,0.0,0.0,0.0,-4.4433315949476855,-6.917598869163854,-6.616454150668184,-0.0007510807862734022,-0.004882310649721546,-1.4687357081779286
16370,13.0,299.88249,59149.207,0.0,-0.08184955326348686,-0.08184846673043178,0.0,0.0,0.0,-4.438162094262496,-6.9165845044887435,-6.625135272224944,-0.006984241645465982,0.006758041362666754,-1.4710324421795986
16371,13.0,299.75216,59103.556,0.0,-0.08185456775222533,-0.08185346894061873,0.0,0.0,0.0,-4.4355117359759255,-6.915493132806034,-6.615000238099694,0.0036410703606206667,0.002271794269008638,-1.4731524653638286
16372,13.0,299.96144,59127.452000000005,0.0,-0.08185954925090622,-0.08185847115080591,0.0,0.0,0.0,-4.435516295601376,-6.919978689673723,-6.617774111573453,-0.0015927766708448187,0.004103738696107476,-1.4746107349077486
16373,13.0,300.1482,59219.301,0.0,-0.08186456373964457,-0.08186347336099287,0.0,0.0,0.0,-4.463338218172186,-6.920237473749263,-6.617613308782584,0.004052645458489966,-0.00950342812046533,-1.4710637516076885
16374,13.0,300.11341,59253.442,0.0,-0.08186954523832546,-0.08186847557118004,0.0,0.0,0.0,-4.458944056463515,-6.925314667350344,-6.627307984414373,0.0012269239771129689,-0.006899164810094555,-1.4726252713367987
16375,13.0,300.30565,59192.482,0.0,-0.08187455972706392,-0.081873477781367,0.0,0.0,0.0,-4.4460507529160465,-6.921037130728184,-6.625948608080214,0.0033339881991890172,-0.0054100146455268745,-1.4715679448574486
16376,13.0,300.15742,59206.322,0.0,-0.08187957421580228,-0.08187847999155407,0.0,0.0,0.0,-4.440450012988296,-6.9231016278069335,-6.633691764019404,0.0032347587930458372,0.0012561365854460288,-1.4706967524214685
16377,13.0,300.27783,59314.674000000006,0.0,-0.08188455571448316,-0.08188348220174124,0.0,0.0,0.0,-4.466774149261286,-6.9237235607183125,-6.639682199935614,0.003998810872726906,-0.001157594770820709,-1.4718319978335086
16378,13.0,300.12973999999997,59251.537000000004,0.0,-0.08188957020322163,-0.08188848441192842,0.0,0.0,0.0,-4.456178390315566,-6.921391666938173,-6.633417679867353,0.0027424453940832873,0.00034739266506248666,-1.4738894021615587
16379,13.0,299.88689,59100.202000000005,0.0,-0.08189455170190252,-0.08189345371283774,0.0,0.0,0.0,-4.4493173699134365,-6.911889508825384,-6.603778797217224,0.004466159613075636,-0.007629530478276033,-1.4840283879621985
16380,13.0,299.89718,59159.615,0.0,-0.08189956619064087,-0.08189845592302492,0.0,0.0,0.0,-4.440626825130746,-6.918412812969184,-6.624006004988494,-0.005557956658177614,-0.004801149114061526,-1.4695928164375187
16381,13.0,300.14522999999997,59267.255999999994,0.0,-0.08190454768932198,-0.08190345813321209,0.0,0.0,0.0,-4.454682529192936,-6.926120099854833,-6.6349632915698935,-0.00019143129462779782,-0.0055323332856737845,-1.4769653254901287
16382,13.0,299.96712,59283.958,0.0,-0.08190956217806022,-0.08190846034339905,0.0,0.0,0.0,-4.4462905892147155,-6.933019015810703,-6.641533509193324,-0.006468900618105784,0.0016912509016884685,-1.4690979450886787
16383,13.0,299.93224,59262.72,0.0,-0.08191454367674111,-0.08191346255358622,0.0,0.0,0.0,-4.452463511473936,-6.931767854587223,-6.630155723820423,-0.001679023100806678,0.0041333389739287955,-1.4809355433569589
16384,13.0,299.91282,59264.765999999996,0.0,-0.08191955816547958,-0.08191846476377318,0.0,0.0,0.0,-4.454125241637936,-6.934113224593693,-6.626770556561334,0.002104228135046148,0.01022194463932739,-1.4718678668870486
16385,13.0,300.21492,59253.859000000004,0.0,-0.08192457265421793,-0.08192346697396036,0.0,0.0,0.0,-4.466869394770686,-6.928815142470813,-6.616008928574244,-0.0031400589188246867,0.004405185059157915,-1.4771917868874787
16386,13.0,300.29149,59284.681,0.0,-0.08192955415289882,-0.08192846918414753,0.0,0.0,0.0,-4.457325288103755,-6.929646412852852,-6.6340910858838145,-0.001124433830822979,0.003375995927134857,-1.4722788411276087
16387,13.0,300.25186,59238.04,0.0,-0.08193456864163728,-0.08193347139433449,0.0,0.0,0.0,-4.454701172994775,-6.923328697154343,-6.628854913342044,-0.0022062634333662482,-0.0019088540613642283,-1.4781751461095287
16388,13.0,300.08575,59160.594000000005,0.0,-0.08193955014031817,-0.08193847360452167,0.0,0.0,0.0,-4.434608322186766,-6.919275595429334,-6.629459418351703,0.003420438089770957,0.003996578682756606,-1.4732280538212885
16389,13.0,300.05972,59239.038,0.0,-0.08194456462905653,-0.08194347581470862,0.0,0.0,0.0,-4.453873448988086,-6.928956693509784,-6.624358210723253,0.0033027690516829267,-0.0013823753889048286,-1.4846121213448087
16390,13.0,299.99232,59350.054000000004,0.0,-0.08194954612773742,-0.08194847802489569,0.0,0.0,0.0,-4.469439300999316,-6.932418969101484,-6.639076175050803,-0.0004797124079364286,0.0035495689116651764,-1.4790912255249384
16391,13.0,300.14211,59331.989,0.0,-0.08195456061647588,-0.08195348023508287,0.0,0.0,0.0,-4.4704832525773455,-6.932964300305303,-6.631995583352003,-0.004864283106592366,-0.005808492979228625,-1.4795351303937485
16392,13.0,300.015,59300.387,0.0,-0.08195957510521423,-0.08195848244526982,0.0,0.0,0.0,-4.4512851016076365,-6.935717300827004,-6.6388344135769435,-0.0008695707494599512,-0.0019055046618336685,-1.4695415459824588
16393,13.0,299.98214,59359.422,0.0,-0.08196455660389512,-0.08196345174617947,0.0,0.0,0.0,-4.460429075810076,-6.937600020837814,-6.645752986584753,-0.0015919094300842285,-0.003084025276369597,-1.4656300966214286
16394,13.0,300.11908,59384.973,0.0,-0.08196957109263359,-0.08196845395636654,0.0,0.0,0.0,-4.460474672064576,-6.940239942648353,-6.650834435836253,0.0021067720007472077,0.0001189797074898829,-1.4652331052322487
16395,13.0,300.18067,59317.127,0.0,-0.08197455259131448,-0.0819734561665535,0.0,0.0,0.0,-4.460924048483926,-6.9370809328115834,-6.632920579368294,0.002398920983530068,0.0007276037307938974,-1.4741015767324985
16396,13.0,300.22933,59264.795999999995,0.0,-0.08197956708005294,-0.08197845837674067,0.0,0.0,0.0,-4.462384445853055,-6.929613887524643,-6.623019808666164,0.0007614519988644612,0.006836633600048203,-1.4748908985603988
16397,13.0,300.29789,59292.992,0.0,-0.08198454857873383,-0.08198346058692763,0.0,0.0,0.0,-4.463489395087105,-6.935849631290063,-6.624249894287564,0.0025936318850215377,0.004342605618406806,-1.4806962136833386
16398,13.0,300.09455,59312.122,0.0,-0.08198956306747218,-0.0819884627971148,0.0,0.0,0.0,-4.451885148316856,-6.935302476236064,-6.642216439760724,-5.441382943447685e-05,0.0005119341866814704,-1.4840061977850085
16399,13.0,300.09251,59342.324,0.0,-0.08199454456615307,-0.08199346500730198,0.0,0.0,0.0,-4.452300276882825,-6.943101867555803,-6.643182472406064,0.0006796861000497954,-0.00926785902326647,-1.4823708121236088
16400,13.0,300.12784,59332.835,0.0,-0.08199955905489154,-0.08199846721748894,0.0,0.0,0.0,-4.443783707142305,-6.942762935397353,-6.649153555245364,-0.0017864701679108784,-0.01020681985508469,-1.4807966267682486
16401,13.0,300.13575,59310.644,0.0,-0.08200457354362989,-0.08200346942767611,0.0,0.0,0.0,-4.452283355606156,-6.939704845270542,-6.6369667909926235,-0.0007673721557537352,-0.004505916203274306,-1.4799129713560386
16402,13.0,299.89198999999996,59379.251,0.0,-0.08200955504231078,-0.08200847163786318,0.0,0.0,0.0,-4.465280010663826,-6.943509599396043,-6.6410197913926226,-0.0027742446272716274,-0.0023696682504930474,-1.4818590194980985
16403,13.0,299.95052000000004,59450.452000000005,0.0,-0.08201456953104924,-0.08201347384805024,0.0,0.0,0.0,-4.478081615077246,-6.947141999679533,-6.646229315456763,-0.0028249306396739473,-0.0013392508566987687,-1.4713937671652588
16404,13.0,299.96313,59394.526,0.0,-0.08201955102973013,-0.08201847605823731,0.0,0.0,0.0,-4.460557150622717,-6.945306395798374,-6.648589377589683,-0.0073200518790328736,0.00034716530187254766,-1.4675555757864587
16405,13.0,299.99072,59313.635,0.0,-0.08202456551846848,-0.08202347826842449,0.0,0.0,0.0,-4.452916636918655,-6.9364932477535834,-6.640453992536784,-0.0002223416440334118,0.0038797467919011964,-1.4680972592899186
16406,13.0,300.02021,59350.814000000006,0.0,-0.08202954701714937,-0.08202848047861144,0.0,0.0,0.0,-4.459656168633796,-6.936856497914434,-6.6446529009511845,0.0006625083393819824,-0.0013297141467575688,-1.4788293003740887
16407,13.0,300.27412000000004,59414.143,0.0,-0.08203456150588784,-0.0820334826887984,0.0,0.0,0.0,-4.4812098221109755,-6.939409989491444,-6.6397961905718645,0.005516882842848944,0.0014495531612597587,-1.4792106877117286
16408,13.0,300.00025,59376.429000000004,0.0,-0.08203954300456873,-0.08203845198970816,0.0,0.0,0.0,-4.471700267272456,-6.938938524219913,-6.638312995075484,-0.002054607048498928,0.0018444058834536882,-1.4860920744408685
16409,13.0,300.18168,59389.974,0.0,-0.08204455749330719,-0.08204345419989512,0.0,0.0,0.0,-4.466489223333166,-6.944344517478443,-6.642235286212585,0.002864861306239797,0.005847125267116334,-1.4842584970599089
16410,13.0,300.19982999999996,59420.218,0.0,-0.08204957198204554,-0.08204845641008207,0.0,0.0,0.0,-4.459358779729445,-6.945302444122984,-6.657601325304094,-0.004035523558300167,0.002326527202310358,-1.4798499471998185
16411,13.0,300.2644,59439.905999999995,0.0,-0.08205455348072643,-0.08205345862026925,0.0,0.0,0.0,-4.468769036058166,-6.947106231951003,-6.652371941537994,0.0009087136850005582,-0.0007533386520012363,-1.4799112488308686
16412,13.0,300.07876,59450.569,0.0,-0.0820595679694649,-0.08205846083045643,0.0,0.0,0.0,-4.467052387738746,-6.949154010403103,-6.655281995825194,-0.0019470991863887283,-0.005921180373200004,-1.4744269313396088
16413,13.0,300.05577999999997,59451.69,0.0,-0.08206454946814579,-0.08206346304064338,0.0,0.0,0.0,-4.480419791008005,-6.948241477363043,-6.643167881604624,-0.002877252645687727,0.0007342930458340812,-1.4788616230522786
16414,13.0,299.82653999999997,59442.740999999995,0.0,-0.08206956395688414,-0.08206846525083056,0.0,0.0,0.0,-4.472467094948136,-6.951830003917203,-6.644811879891873,-0.006479101716137555,-8.419025774593152e-05,-1.4766814128121086
16415,13.0,299.94181000000003,59469.352999999996,0.0,-0.08207454545556503,-0.08207346746101762,0.0,0.0,0.0,-4.4763933377606255,-6.954153386396503,-6.646651638098444,-0.002000129352897398,0.0033282532036230167,-1.4797765878925786
16416,13.0,299.80512999999996,59443.27,0.0,-0.08207955994430349,-0.0820784696712048,0.0,0.0,0.0,-4.461826449022986,-6.948154135204423,-6.659289197320674,0.007046415178227033,0.004631135474482485,-1.4727639852754886
16417,13.0,299.95265,59360.636,0.0,-0.08208457443304173,-0.08208347188139187,0.0,0.0,0.0,-4.451303644084466,-6.949960354832683,-6.642887110001913,0.009162544847622772,0.0030653072032972672,-1.4831629710517884
16418,13.0,299.93822,59376.990999999995,0.0,-0.08208955593172274,-0.08208847409157893,0.0,0.0,0.0,-4.452572739834716,-6.950821414767664,-6.645728364607323,0.011535499777465189,-0.0006130836612341465,-1.4788995186060185
16419,13.0,300.07894,59479.772000000004,0.0,-0.0820945704204612,-0.08209347630176611,0.0,0.0,0.0,-4.480784763694025,-6.950987182484022,-6.648593531915093,-0.00041614645675545756,0.0007911334684162942,-1.4854584891533384
16420,13.0,299.88266,59515.42,0.0,-0.08209955191914209,-0.08209847851195307,0.0,0.0,0.0,-4.478709728814237,-6.957078943410234,-6.6554128064131035,0.003482830079253567,-0.0018284716137060982,-1.4819571021077786
16421,13.0,300.0972,59520.279,0.0,-0.08210456640788033,-0.08210348072214002,0.0,0.0,0.0,-4.474483158672105,-6.954439122924702,-6.663756313036544,-0.008738948550567071,0.004247832080903386,-1.4860309754598384
16422,13.0,300.12307999999996,59576.740999999995,0.0,-0.08210954790656144,-0.08210845002304978,0.0,0.0,0.0,-4.476587071179746,-6.960112816859653,-6.673141744737815,-0.0011602211150799088,-0.004045063915941726,-1.4740222392496685
16423,13.0,300.1938,59535.668,0.0,-0.0821145623952998,-0.08211345223323674,0.0,0.0,0.0,-4.475134577161396,-6.956437049471883,-6.6657849410617525,-0.00924483534654421,-0.002858684938930237,-1.4794907500393686
16424,13.0,300.25346,59496.524000000005,0.0,-0.08211954389398068,-0.08211845444342392,0.0,0.0,0.0,-4.473967110396175,-6.953395880621744,-6.658094575452773,0.004097500419216806,-0.003414557186190557,-1.4773205709751884
16425,13.0,300.24626,59508.295999999995,0.0,-0.08212455838271915,-0.08212345665361087,0.0,0.0,0.0,-4.480179144109256,-6.960425404515503,-6.648431411899094,-0.0008360054416123131,-0.0033515603877232567,-1.4820860888455087
16426,13.0,299.87482,59495.239,0.0,-0.0821295728714575,-0.08212845886379783,0.0,0.0,0.0,-4.475276229525376,-6.954676932723173,-6.6551139989586146,0.0035115203571600764,-0.005378764796542755,-1.4841414666733588
16427,13.0,299.96367000000004,59479.744000000006,0.0,-0.08213455437013839,-0.082133461073985,0.0,0.0,0.0,-4.4659490597048555,-6.9621020294559735,-6.652305776306464,-0.0033162058625840368,-0.0017330902274676882,-1.4850423473372685
16428,13.0,300.03393,59491.017,0.0,-0.08213956885887685,-0.08213846328417207,0.0,0.0,0.0,-4.4648575866971365,-6.959626963436704,-6.659299025846643,0.0031569328767150173,0.002138819682860068,-1.4865925186652587
16429,13.0,299.80182,59524.862,0.0,-0.08214455035755774,-0.08214346549435925,0.0,0.0,0.0,-4.470636152017437,-6.959414180915703,-6.664021277937694,-0.0033056440475166668,0.0075798353231465035,-1.4778250681999785
16430,13.0,299.93189,59568.626,0.0,-0.08214956484629599,-0.08214846770454642,0.0,0.0,0.0,-4.473582683308236,-6.969233182334763,-6.664559009765764,-0.0008969099900806241,0.003298262115238127,-1.4844272032015586
16431,13.0,299.9393,59605.732,0.0,-0.08215454634497688,-0.08215346991473338,0.0,0.0,0.0,-4.488731380253296,-6.960388623536873,-6.669534067756763,-0.005253399718645186,0.003986729385159557,-1.4756620832115088
16432,13.0,300.09,59608.57,0.0,-0.08215956083371545,-0.08215847212492056,0.0,0.0,0.0,-4.486117701620346,-6.963121359056573,-6.670277793330165,0.0007477628988209523,-0.005480193664678005,-1.4898350203102686
16433,13.0,300.16209,59542.61,0.0,-0.08216454233239634,-0.08216347433510751,0.0,0.0,0.0,-4.4762479363712755,-6.959027626002553,-6.664190997329444,0.001386044570166949,-0.0021127542293376076,-1.4826755977536885
16434,13.0,300.0584,59504.959,0.0,-0.08216955682113458,-0.08216847654529469,0.0,0.0,0.0,-4.474048575704216,-6.953643822921213,-6.660329197223313,0.005649605636347665,0.0006308883704013344,-1.4881004374640787
16435,13.0,299.78865,59538.636,0.0,-0.08217457130987316,-0.08217347875548164,0.0,0.0,0.0,-4.477187725839025,-6.961224048244324,-6.6598468901757135,0.0010903812307372488,0.006180387784631785,-1.4797370711386786
16436,13.0,299.92301000000003,59513.075,0.0,-0.08217955280855405,-0.08217844805639118,0.0,0.0,0.0,-4.475713953568576,-6.956984711150933,-6.657789891147703,-0.006558060851380214,1.9111439052652183e-05,-1.4870381460592386
16437,13.0,299.83515,59561.570999999996,0.0,-0.08218456729729229,-0.08218345026657836,0.0,0.0,0.0,-4.4818475617239155,-6.962701670865154,-6.660680997658034,-0.009698515849668991,0.001153882931729379,-1.4769073675844087
16438,13.0,299.79926,59681.148,0.0,-0.0821895487959734,-0.08218845247676554,0.0,0.0,0.0,-4.4948143259036355,-6.9718014673632345,-6.6749628591425445,-0.0015908318386028786,0.001057892176880829,-1.4833335010436186
16439,13.0,299.86961,59670.462999999996,0.0,-0.08219456328471164,-0.0821934546869525,0.0,0.0,0.0,-4.488681325698355,-6.968321763869814,-6.681327488320684,0.002174834847064488,0.0019637733313593382,-1.4797072815857384
16440,13.0,299.90686,59625.519,0.0,-0.08219954478339264,-0.08219845689713945,0.0,0.0,0.0,-4.479007725668645,-6.9700422625396135,-6.675619039907303,0.008066136805290723,-0.002730761505855177,-1.4827833062393185
16441,13.0,300.10168999999996,59663.89,0.0,-0.0822045592721311,-0.08220345910732652,0.0,0.0,0.0,-4.488064053737436,-6.969472106708344,-6.678796490895893,0.0023635113375854075,0.003558730415094347,-1.4780998616270986
16442,13.0,300.28151,59637.227999999996,0.0,-0.08220957376086957,-0.08220846131751369,0.0,0.0,0.0,-4.4863890499971255,-6.967304258119394,-6.674534760975294,0.004612410815284506,0.006406331613830704,-1.4782657306684686
16443,13.0,300.13947,59574.09,0.0,-0.08221455525955024,-0.08221346352770087,0.0,0.0,0.0,-4.476963088291855,-6.967633361751873,-6.664439446253963,-1.7286527999797482e-05,-0.0006859619482541733,-1.4881504920190185
16444,13.0,300.11208999999997,59585.472,0.0,-0.08221956974828881,-0.08221846573788782,0.0,0.0,0.0,-4.472994390300175,-6.967787882392123,-6.671713568721864,-0.005398821372997185,-0.01121266107035349,-1.4911709905671184
16445,13.0,299.92807,59602.383,0.0,-0.0822245512469697,-0.082223467948075,0.0,0.0,0.0,-4.4775465176994365,-6.973690874824702,-6.666398565322314,-0.0009050650625829673,-0.007466454663456703,-1.4941363683097786
16446,13.0,299.931,59583.972,0.0,-0.08222956573570794,-0.08222847015826196,0.0,0.0,0.0,-4.4750196746000555,-6.974946899648663,-6.6620731019704245,0.0012001131768169487,7.662968542176112e-05,-1.4914745602970787
16447,13.0,300.01342,59610.079000000005,0.0,-0.08223454723438883,-0.08223347236844913,0.0,0.0,0.0,-4.485056828765646,-6.970239744984102,-6.664678877252594,0.00012508346529727687,0.0039468091550697365,-1.4884030952689487
16448,13.0,299.99356,59701.882000000005,0.0,-0.0822395617231273,-0.08223847457863631,0.0,0.0,0.0,-4.493058667455366,-6.979500648248084,-6.675322258953013,0.002453406683807388,-0.0028835990363640673,-1.4758353489786087
16449,13.0,299.80571000000003,59678.619000000006,0.0,-0.0822445432218083,-0.08224347678882327,0.0,0.0,0.0,-4.494070093705186,-6.968895972701484,-6.677843934476884,-0.0018257167893342184,-0.0003278933761630567,-1.4735691138049487
16450,13.0,299.89968,59688.758,0.0,-0.08224955771054654,-0.08224847899901044,0.0,0.0,0.0,-4.484673414927805,-6.979237507197113,-6.679981081587804,0.0013245313724960688,-0.0012078983826352887,-1.4792607422666686
16451,13.0,299.791,59694.651,0.0,-0.082254572199285,-0.08225344829991998,0.0,0.0,0.0,-4.490060764384496,-6.975249760103553,-6.680372905401474,0.0026334926373304873,-0.0070182964747019325,-1.4900548955819686
16452,13.0,299.93651,59678.17,0.0,-0.08225955369796589,-0.08225845051010694,0.0,0.0,0.0,-4.484818107042086,-6.975301334533644,-6.6805539731943435,-0.0002531861017850227,-0.004485218847456636,-1.4933272881049287
16453,13.0,300.00908,59654.967000000004,0.0,-0.08226456818670425,-0.08226345272029412,0.0,0.0,0.0,-4.489031504932916,-6.978236010798272,-6.666352867742804,-0.0016672264378424383,0.006218355988403954,-1.4885714974355684
16454,13.0,300.15603,59683.597,0.0,-0.08226954968538536,-0.08226845493048107,0.0,0.0,0.0,-4.488862900116275,-6.9749971568536235,-6.678463131612994,-0.003430636350702447,0.01122515039108609,-1.4859477876266287
16455,13.0,299.94359,59653.644,0.0,-0.08227456417412382,-0.08227345714066825,0.0,0.0,0.0,-4.483592074421086,-6.975629728891053,-6.673996421197164,-0.003950673893601157,0.003161721800662647,-1.4890628224090587
16456,13.0,300.02783999999997,59673.817,0.0,-0.08227954567280449,-0.08227845935085532,0.0,0.0,0.0,-4.480309954697166,-6.977335940734444,-6.681704518682893,0.003331388402082437,-0.0016359153885522784,-1.4879003205693286
16457,13.0,300.00657,59763.916,0.0,-0.08228456016154306,-0.08228346156104227,0.0,0.0,0.0,-4.497794801072786,-6.982023640997084,-6.6869196156225845,0.002535919895100808,0.0007736599907067963,-1.4872852777586287
16458,13.0,299.93609,59752.503,0.0,-0.08228954166022395,-0.08228846377122945,0.0,0.0,0.0,-4.492855004185266,-6.986468161235724,-6.683945625254073,0.004108712132898316,0.001092181573514929,-1.4856479669220386
16459,13.0,299.99775,59682.377,0.0,-0.0822945561489622,-0.0822934659814164,0.0,0.0,0.0,-4.486768512159576,-6.979675129915304,-6.675508595646404,-0.005260187379740075,0.0007944105016247123,-1.4827915135651286
16460,13.0,299.9536,59745.77099999999,0.0,-0.08229957063770066,-0.08229846819160358,0.0,0.0,0.0,-4.490866298213996,-6.9868633287747235,-6.683492803784383,0.002570460679084718,0.004935836194204105,-1.4800661747711588
16461,13.0,299.99912,59732.288,0.0,-0.08230455213638155,-0.08230347040179076,0.0,0.0,0.0,-4.484410679176875,-6.984262619743053,-6.688450636523684,0.0023777927937698776,0.006245755487008073,-1.4796686767569287
16462,13.0,300.12243,59666.666,0.0,-0.0823095666251199,-0.08230847261197771,0.0,0.0,0.0,-4.467078326941305,-6.982704646389292,-6.687393614019364,0.008397247382243792,0.009248713865276991,-1.4988622681011885
16463,13.0,300.15198,59693.483,0.0,-0.08231454812380079,-0.08231347482216489,0.0,0.0,0.0,-4.475585878755936,-6.985791107518904,-6.683951198129624,0.003909282323041126,-0.007353128516622284,-1.4992102181855285
16464,13.0,300.15382,59756.46,0.0,-0.08231956261253925,-0.08231847703235196,0.0,0.0,0.0,-4.498904715232325,-6.982140367408602,-6.683426638552853,0.004133394398709266,0.0016972505581805883,-1.4987699610170786
16465,13.0,300.35339,59796.248,0.0,-0.08232454411122014,-0.08232344633326139,0.0,0.0,0.0,-4.508282851532876,-6.9868770076510724,-6.681406420503474,0.0023176581228600474,0.0017098036123444785,-1.4872755505576685
16466,13.0,300.08657999999997,59801.251,0.0,-0.0823295585999585,-0.08232844854344856,0.0,0.0,0.0,-4.5117355012486255,-6.9833613337791025,-6.6829902317347845,-0.0008071576843752612,-0.0017276878819095182,-1.4866661819475286
16467,13.0,300.12316,59840.373,0.0,-0.08233457308869696,-0.08233345075363563,0.0,0.0,0.0,-4.505695112102486,-6.984719494213143,-6.699564672895553,-0.0053437278239848755,-0.004110964385220596,-1.4762785445723487
16468,13.0,299.95083999999997,59793.35,0.0,-0.08233955458737807,-0.0823384529638227,0.0,0.0,0.0,-4.491682572494556,-6.992202447526653,-6.691800340029274,0.0025054313009168177,0.0026245794815008276,-1.4872995645850384
16469,13.0,299.98263,59783.797,0.0,-0.08234456907611631,-0.08234345517400987,0.0,0.0,0.0,-4.494377311135506,-6.9928954092700435,-6.685508664858334,0.01105045087509459,0.0013410349874748487,-1.4844049116993587
16470,13.0,300.17526000000004,59822.852999999996,0.0,-0.0823495505747972,-0.08234845738419694,0.0,0.0,0.0,-4.506237808856046,-6.994275151931213,-6.684140574573313,0.004053011039126046,0.0014354550020183787,-1.4963602496292587
16471,13.0,300.02969,59780.53400000001,0.0,-0.08235456506353578,-0.0823534595943839,0.0,0.0,0.0,-4.500912774280506,-6.989925775876963,-6.680950964583524,0.0016366956924542884,-0.004413934169796386,-1.4874017001951185
16472,13.0,299.76486,59743.582,0.0,-0.08235954656221645,-0.08235846180457085,0.0,0.0,0.0,-4.4904986910777165,-6.985633040503302,-6.684425500501433,-0.012366636410491988,0.006359925975150824,-1.4925408033773087
16473,13.0,299.94421,59817.637,0.0,-0.08236456105095491,-0.08236346401475803,0.0,0.0,0.0,-4.483968192858205,-6.997544099403834,-6.701555608017044,-0.006132687414974124,0.0004452491071876656,-1.4842162445307385
16474,13.0,300.05118999999996,59827.133,0.0,-0.0823695425496358,-0.0823684662249452,0.0,0.0,0.0,-4.485852635394186,-6.996932602968483,-6.703169208801294,-0.008843462663931812,-0.004346467215862916,-1.4974167655085286
16475,13.0,300.05297,59808.918,0.0,-0.08237455703837415,-0.08237346843513216,0.0,0.0,0.0,-4.4946540297378155,-6.992028573809493,-6.693735039770213,0.005723984171863254,-0.003168732579429557,-1.4922490886735185
16476,13.0,300.30749,59857.46599999999,0.0,-0.08237957152711262,-0.08237847064531933,0.0,0.0,0.0,-4.512079195682546,-6.999321542729253,-6.683774284662164,0.0038430705833315364,0.005592702118681725,-1.4988072486207586
16477,13.0,300.16418999999996,59857.662000000004,0.0,-0.0823845530257935,-0.0823834728555064,0.0,0.0,0.0,-4.516387028482695,-6.990427942626522,-6.688419732395634,0.005635076744488775,-0.0030062345198172474,-1.4859603519278686
16478,13.0,300.19117,59848.054000000004,0.0,-0.08238956751453186,-0.08238847506569358,0.0,0.0,0.0,-4.505801402037975,-6.995653374717233,-6.690859334661404,-0.0017130889744687184,-0.007575822244800442,-1.4892277795253386
16479,13.0,300.1394,59854.427,0.0,-0.08239454901321275,-0.08239344436660301,0.0,0.0,0.0,-4.491910047142005,-6.997216819621534,-6.705124376194253,0.004424523747916496,-0.002292689309920818,-1.4877898763084287
16480,13.0,299.96632,59852.062999999995,0.0,-0.08239956350195121,-0.08239844657679007,0.0,0.0,0.0,-4.4901628999945755,-7.000034566824624,-6.703334976517654,-0.0014754239694380086,0.010398885464540089,-1.4936016762320086
16481,13.0,299.81055,59880.92,0.0,-0.08240454500063232,-0.08240344878697725,0.0,0.0,0.0,-4.499852509375866,-7.002226024140904,-6.700225919910813,-0.0025714660258339375,0.0008102783629607484,-1.4977173968131985
16482,13.0,300.00099,59952.457,0.0,-0.08240955948937057,-0.08240845099716443,0.0,0.0,0.0,-4.515099288930605,-7.005897941178294,-6.703052887689814,-0.007153232510394083,-0.002821818948616847,-1.4978708028783385
16483,13.0,300.11282,59947.447,0.0,-0.08241454098805145,-0.08241345320735138,0.0,0.0,0.0,-4.521281634415755,-6.997203850020253,-6.7040414144873735,0.0008193796894664792,-0.002889669417713167,-1.4814089338036787
16484,13.0,299.99323,59840.25,0.0,-0.08241955547679003,-0.08241845541753856,0.0,0.0,0.0,-4.4932315279224255,-6.994593616437643,-6.702116745922424,0.0029910434690180072,0.006912337669344613,-1.4822729321639487
16485,13.0,300.06346,59835.422,0.0,-0.08242456996552827,-0.08242345762772552,0.0,0.0,0.0,-4.486560998539096,-6.996841005159444,-6.705072193814103,-0.0006837809983414303,-0.005413820311577464,-1.4880813883621986
16486,13.0,300.11546,59932.852,0.0,-0.08242955146420916,-0.0824284598379127,0.0,0.0,0.0,-4.503484200384286,-7.003113428578484,-6.711492754397764,-0.0008086725236722642,0.0015445311726333584,-1.4910768596328288
16487,13.0,300.13507999999996,59950.07,0.0,-0.08243456595294762,-0.08243346204809965,0.0,0.0,0.0,-4.516042422123686,-7.007479421934373,-6.699802482694023,0.0026051672307849873,0.005341144644179934,-1.4986216212024384
16488,13.0,300.19532999999996,59894.35400000001,0.0,-0.0824395474516284,-0.0824384642582866,0.0,0.0,0.0,-4.506490817406015,-7.008942960378813,-6.690954174870764,0.0016571889797018183,0.006335557918195884,-1.5044335224510286
16489,13.0,300.25948,59901.795999999995,0.0,-0.08244456194036687,-0.08244346646847378,0.0,0.0,0.0,-4.5133509258830555,-7.003903662331473,-6.691395749264343,-0.004739461738698456,-0.011216675567249689,-1.4996702337309287
16490,13.0,300.04171,59954.333,0.0,-0.08244954343904776,-0.08244846867866085,0.0,0.0,0.0,-4.502182477980816,-7.013093334113423,-6.709344157560714,-0.005139563299060405,-0.0025569058245469576,-1.4989285346577286
16491,13.0,300.05352999999997,59949.647000000004,0.0,-0.08245455792778611,-0.08245347088884802,0.0,0.0,0.0,-4.497441278112896,-7.013637145442094,-6.712117423084413,0.0024424151493726075,0.0035021723143874965,-1.4929285741905787
16492,13.0,299.80376,59908.462,0.0,-0.08245957241652457,-0.0824584730990352,0.0,0.0,0.0,-4.497413717710176,-7.005090178198572,-6.708172536470085,0.003660877474900476,0.005973192223358175,-1.4948763448578086
16493,13.0,300.08558999999997,59903.557,0.0,-0.08246455391520546,-0.08246344239994452,0.0,0.0,0.0,-4.507569219487446,-7.002110513629503,-6.699505803064744,-0.0022663011362415077,-0.004881919433857935,-1.4941117463323486
16494,13.0,299.97204,59933.254,0.0,-0.08246956840394382,-0.0824684446101317,0.0,0.0,0.0,-4.514663084762555,-7.004984597538153,-6.698564899021884,-0.005050236892769575,-0.003381146682693197,-1.4916727520166384
16495,13.0,300.09358,59987.003,0.0,-0.08247454990262482,-0.08247344682031887,0.0,0.0,0.0,-4.527035881733656,-7.002213662489683,-6.705301492311733,-0.002160453991045208,0.00037794717116548164,-1.4860791048395885
16496,13.0,299.8068,60011.742999999995,0.0,-0.08247956439136317,-0.08247844903050583,0.0,0.0,0.0,-4.514067901653816,-7.0120596163614035,-6.715943860762053,-0.002300307228147648,0.0018426159771520385,-1.4884599385995585
16497,13.0,300.1182,59959.038,0.0,-0.08248454589004428,-0.082483451240693,0.0,0.0,0.0,-4.501470669785566,-7.007852601946203,-6.716727001764343,0.001999456858806028,-0.004247731870468496,-1.4949899301940186
16498,13.0,300.12017000000003,59973.307,0.0,-0.08248956037878252,-0.08248845345087996,0.0,0.0,0.0,-4.511121066387986,-7.0083808092233335,-6.710886020237884,-0.0007430946326952303,0.0044247123137601055,-1.4947979193000684
16499,13.0,300.33571,60062.008,0.0,-0.08249454187746341,-0.08249345566106714,0.0,0.0,0.0,-4.526674354097975,-7.015961541171492,-6.714714687065744,0.004661201138074736,0.0016309601902632384,-1.4971615278083386
16500,13.0,300.0687,60044.990999999995,0.0,-0.08249955636620188,-0.08249845787125432,0.0,0.0,0.0,-4.531643433913386,-7.011447005350943,-6.709087602635393,0.003256101386527187,-0.0006979019151800564,-1.5003394854219787
16501,13.0,300.11832999999996,59985.492999999995,0.0,-0.08250457085494023,-0.08250346008144127,0.0,0.0,0.0,-4.513534425476165,-7.014140426766763,-6.706417080671835,0.004111464930769996,-0.008020124003674613,-1.4983343647990885
16502,13.0,300.16188999999997,59974.568,0.0,-0.08250955235362112,-0.08250846229162823,0.0,0.0,0.0,-4.499432618534426,-7.009199920604174,-6.722138567898423,0.003304591787287817,-0.00039296034590966667,-1.4882154413504285
16503,13.0,300.21457000000004,60008.249,0.0,-0.08251456684235958,-0.08251346450181529,0.0,0.0,0.0,-4.499509625542026,-7.015466669822653,-6.7260330959827845,9.230007545905821e-05,0.003438069857411077,-1.4885727133356885
16504,13.0,300.18677,60018.929000000004,0.0,-0.08251954834104036,-0.08251846671200247,0.0,0.0,0.0,-4.509151308193586,-7.017835344581423,-6.717269191892853,-0.002229063080491398,0.0026144572143268372,-1.4914100162657087
16505,13.0,300.26171,60065.957,0.0,-0.08252456282977882,-0.08252346892218965,0.0,0.0,0.0,-4.519423536382376,-7.021529958421053,-6.717597383600243,-0.0020983173405877977,0.0009829958908291409,-1.4892256517001288
16506,13.0,300.21927,60031.60400000001,0.0,-0.08252954432845971,-0.0825284711323766,0.0,0.0,0.0,-4.517353365103066,-7.020890293632924,-6.709864968112114,-0.002017437184480548,0.005745200818357174,-1.4965440531973986
16507,13.0,300.06296000000003,60005.895,0.0,-0.08253455881719796,-0.08253347334256378,0.0,0.0,0.0,-4.5084273409971365,-7.017643333687473,-6.714223159442234,0.00025809975681996273,0.0014214342550846388,-1.4968922059317586
16508,13.0,299.98427999999996,60062.420999999995,0.0,-0.08253954031587907,-0.08253844264347332,0.0,0.0,0.0,-4.508608814090046,-7.021912257683783,-6.726955254898794,-0.0037139556694638864,0.0002793136067436068,-1.5031243019968183
16509,13.0,300.02547000000004,60078.76,0.0,-0.08254455480461742,-0.08254344485366027,0.0,0.0,0.0,-4.5192423672644955,-7.022405609157473,-6.7207949982658235,0.005182187994992135,-0.00024456937227211774,-1.5017203426582586
16510,13.0,300.04068,60000.303,0.0,-0.08254956929335566,-0.08254844706384745,0.0,0.0,0.0,-4.513261253249206,-7.014692141446214,-6.710640611063663,0.003968913003351216,0.005118006200532885,-1.4997862508673787
16511,13.0,300.03726,60010.087999999996,0.0,-0.08255455079203677,-0.08255344927403441,0.0,0.0,0.0,-4.521627659324905,-7.016457223120414,-6.703483518982314,0.0030270472848213073,0.001987975113972868,-1.5019034369513284
16512,13.0,299.95223,60112.905999999995,0.0,-0.08255956528077513,-0.08255845148422158,0.0,0.0,0.0,-4.537439731110436,-7.0210874721023835,-6.714295201524344,-0.0005294717220622904,-0.006004815049704104,-1.4930632351288684
16513,13.0,300.03082,60135.108,0.0,-0.08256454677945613,-0.08256345369440876,0.0,0.0,0.0,-4.529569209633675,-7.027058757591703,-6.722943291127844,-0.0023487977302332876,-0.007429514604561003,-1.4917920115534087
16514,13.0,299.91209,60071.462,0.0,-0.08256956126819448,-0.08256845590459572,0.0,0.0,0.0,-4.512395633688776,-7.0251689448301935,-6.722659783749864,0.0008278169014591673,0.0006679491276489464,-1.4856882942760186
16515,13.0,299.96635,60022.092000000004,0.0,-0.08257454276687537,-0.0825734581147829,0.0,0.0,0.0,-4.507806016035816,-7.018318968854153,-6.719092231472772,-0.0027733654301598572,-0.0015253635204916585,-1.4913601643607886
16516,13.0,299.84508999999997,60055.852,0.0,-0.08257955725561383,-0.08257846032496985,0.0,0.0,0.0,-4.513546179177326,-7.024225507662083,-6.717707625211124,-0.005318398395335056,0.002053918545055978,-1.4918741861365186
16517,13.0,299.78096,60119.83900000001,0.0,-0.08258457174435219,-0.08258346253515692,0.0,0.0,0.0,-4.521264003864016,-7.035887003062983,-6.7177789580181635,-0.007357637783542313,0.0016918903638265782,-1.5059389081245984
16518,13.0,299.90232000000003,60145.24,0.0,-0.08258955324303308,-0.08258846474534409,0.0,0.0,0.0,-4.529984642174676,-7.029116668544804,-6.723549721312694,0.0005362984439485354,-0.005262102321104065,-1.4926341237115186
16519,13.0,300.10396000000003,60088.443,0.0,-0.08259456773177154,-0.08259346695553105,0.0,0.0,0.0,-4.510904028216566,-7.032283987032394,-6.722198248329313,0.0035404217963874267,-0.006534528523107754,-1.5128513003067985
16520,13.0,300.08456,60070.462,0.0,-0.08259954923045221,-0.08259846916571822,0.0,0.0,0.0,-4.5099046596429355,-7.0244783135620334,-6.725537515358873,0.006438207448726603,-0.00808010182346896,-1.4986146297767484
16521,13.0,300.2198,60166.265,0.0,-0.08260456371919078,-0.08260347137590518,0.0,0.0,0.0,-4.526054143711766,-7.029340495491893,-6.733647467834263,0.007443976925888322,-0.0013014981712228687,-1.5040444344126287
16522,13.0,300.13265,60178.724,0.0,-0.08260954521787167,-0.08260844067681472,0.0,0.0,0.0,-4.530035811304725,-7.028817557115285,-6.733976064841693,-0.0011335925984768788,-0.00021813617989086483,-1.4935344977503786
16523,13.0,300.01001,60090.920999999995,0.0,-0.08261455970660991,-0.0826134428870019,0.0,0.0,0.0,-4.5261320626444554,-7.020374144031984,-6.719633104376153,-0.0027342902506534376,0.00024086848641436876,-1.5004551985833985
16524,13.0,299.82865,60106.566,0.0,-0.08261954120529102,-0.08261844509718885,0.0,0.0,0.0,-4.525248103257216,-7.023132616104223,-6.722514382360513,-0.006819253017107873,0.001203597541260829,-1.4933713644842785
16525,13.0,299.87711,60178.198,0.0,-0.08262455569402938,-0.08262344730737603,0.0,0.0,0.0,-4.524275484486226,-7.032840463987314,-6.735553492597373,-0.007243269508980043,0.004333494270857586,-1.5014136318529885
16526,13.0,299.81556,60178.459,0.0,-0.08262957018276762,-0.08262844951756321,0.0,0.0,0.0,-4.520742686687567,-7.0334735426497925,-6.738532650541393,0.0007497935026838572,0.002081390389717238,-1.4951088857557586
16527,13.0,299.92235,60167.418,0.0,-0.08263455168144873,-0.08263345172775016,0.0,0.0,0.0,-4.523452117454966,-7.0343469642359935,-6.731593711206573,-0.002988727381939427,0.0005723439752584525,-1.4995574589947984
16528,13.0,300.15492,60181.157999999996,0.0,-0.0826395661701872,-0.08263845393793734,0.0,0.0,0.0,-4.522068423118405,-7.035505717050353,-6.7359952696409735,0.0052562976139311855,0.0038482852749711863,-1.4961122060047787
16529,13.0,300.22319,60175.257000000005,0.0,-0.08264454766886808,-0.0826434561481244,0.0,0.0,0.0,-4.532343285757456,-7.0319183050713026,-6.727514062328944,-0.0043973980294893964,0.002868699092318557,-1.4935227440492185
16530,13.0,300.0325,60221.837999999996,0.0,-0.08264956215760644,-0.08264845835831147,0.0,0.0,0.0,-4.533082249055386,-7.036118328060812,-6.736734435588923,4.063848255570596e-05,0.002738356423304737,-1.4936439287611787
16531,13.0,300.1816,60263.009000000005,0.0,-0.08265454365628733,-0.08265346056849865,0.0,0.0,0.0,-4.535829879351555,-7.036409232164523,-6.746210958474184,-0.004860107604255276,-0.002919748658856757,-1.4959517071889383
16532,13.0,299.97865,60188.649000000005,0.0,-0.08265955814502579,-0.08265846277868572,0.0,0.0,0.0,-4.524887487546626,-7.035259497276053,-6.735699400611773,0.008530523511622121,0.0023071960116025176,-1.4984566640861587
16533,13.0,299.87009,60135.485,0.0,-0.08266453964370646,-0.08266346498887267,0.0,0.0,0.0,-4.520391291552886,-7.033342225436834,-6.725952339949814,0.001901871450950098,0.0003004222103793637,-1.5064852525785184
16534,13.0,299.88566000000003,60210.944,0.0,-0.08266955413244503,-0.08266846719905963,0.0,0.0,0.0,-4.533139396361025,-7.039455365940154,-6.730028847752134,0.004383837196776046,-0.0028852087867979373,-1.5029125327259185
16535,13.0,299.93883,60214.700999999994,0.0,-0.0826745686211835,-0.0826734694092468,0.0,0.0,0.0,-4.5287609400289055,-7.040037883422643,-6.734966820789474,-0.004302270766376066,0.0001976941327008918,-1.5050212075090286
16536,13.0,299.88545,60173.622,0.0,-0.08267955011986416,-0.08267843871015657,0.0,0.0,0.0,-4.522713863432105,-7.038894937309843,-6.729669751916694,0.002172247411609128,0.0017879817344100583,-1.5064697498519883
16537,13.0,299.9373,60188.106,0.0,-0.08268456460860263,-0.08268344092034352,0.0,0.0,0.0,-4.508647722893886,-7.043387992228273,-6.743645611871003,-0.006503794621074555,0.002766585976390778,-1.5079431168223985
16538,13.0,299.76509,60223.125,0.0,-0.08268954610728363,-0.08268844313053048,0.0,0.0,0.0,-4.5267574406061755,-7.039480291892613,-6.740088597394953,-0.0033330162896930966,-0.0004983916532649266,-1.4984652767120086
16539,13.0,299.6187,60289.928,0.0,-0.08269456059602187,-0.08269344534071765,0.0,0.0,0.0,-4.530808921131025,-7.048858630843184,-6.746965019198602,-0.006387895224286174,-0.003042548694126177,-1.5023653776719186
16540,13.0,299.8416,60344.225999999995,0.0,-0.08269954209470298,-0.08269844755090461,0.0,0.0,0.0,-4.551560080529005,-7.047055754940253,-6.744521971882493,0.0052361262362404255,-0.0016020092031059985,-1.4952901561986485
16541,13.0,299.95052999999996,60291.78599999999,0.0,-0.08270455658344145,-0.08270344976109179,0.0,0.0,0.0,-4.539907907029026,-7.043853479324214,-6.743436071750323,0.004937108329704655,0.004926306779663625,-1.4973781606797185
16542,13.0,299.94737000000003,60213.347,0.0,-0.0827095710721798,-0.08270845197127885,0.0,0.0,0.0,-4.528940386621616,-7.039484648868043,-6.734928823910724,0.005235405308794275,-0.003447734135539867,-1.4941531882614385
16543,13.0,300.07165,60283.248,0.0,-0.08271455257086069,-0.08271345418146603,0.0,0.0,0.0,-4.531034875903326,-7.043655895554714,-6.749911449164394,0.0036759912147170865,-0.002183781338822438,-1.5010983084218685
16544,13.0,300.19729,60326.950999999994,0.0,-0.08271956705959915,-0.0827184563916532,0.0,0.0,0.0,-4.547169465195686,-7.0454977815864925,-6.745219594576343,0.005731652651270074,0.002678409912938477,-1.5050415738360385
16545,13.0,299.82201000000003,60235.817,0.0,-0.08272454855828004,-0.08272345860184016,0.0,0.0,0.0,-4.534256504596275,-7.039907275484753,-6.736020398243452,0.004336794933058336,-0.0013180340075548288,-1.5081612695689286
16546,13.0,300.08539,60231.526,0.0,-0.08272956304701828,-0.08272846081202734,0.0,0.0,0.0,-4.535650838058886,-7.039722053366473,-6.7335070313704035,0.002451902007408888,-0.006133561444510384,-1.5122024149427586
16547,13.0,299.88466,60324.511,0.0,-0.08273454454569928,-0.08273346302221429,0.0,0.0,0.0,-4.542962450780486,-7.046064695017443,-6.748117793837373,-0.0014256829140789488,-0.002783981656757597,-1.5030998826694086
16548,13.0,299.9392,60372.085,0.0,-0.08273955903443775,-0.08273846523240125,0.0,0.0,0.0,-4.536372069480066,-7.056010656674034,-6.759223825533453,0.0013799303150885186,0.003910963507607047,-1.5071037404395586
16549,13.0,300.06802999999996,60344.265999999996,0.0,-0.08274454053311842,-0.08274346744258843,0.0,0.0,0.0,-4.528187744447336,-7.058326135802552,-6.756636390078094,0.0001140368201895579,0.005845747044330314,-1.5022545281109785
16550,13.0,300.16571,60292.124,0.0,-0.08274955502185688,-0.08274846965277538,0.0,0.0,0.0,-4.5276958115237855,-7.053456658471974,-6.746147832992953,-0.002935452008906557,0.0009860146465870692,-1.5055052370817985
16551,13.0,300.24294,60317.09,0.0,-0.08275456951059545,-0.08275343895368514,0.0,0.0,0.0,-4.539318195470826,-7.055111599860304,-6.7404594469315535,-0.007316133742221183,-0.0016655369446256984,-1.5021477315504386
16552,13.0,300.33277999999996,60343.562999999995,0.0,-0.08275955100927612,-0.0827584411638721,0.0,0.0,0.0,-4.5456390522446455,-7.054027016953264,-6.743270202708953,-0.0036067852196369865,0.0009885308302953972,-1.5088159304585385
16553,13.0,300.20333,60319.337,0.0,-0.08276456549801459,-0.08276344337405905,0.0,0.0,0.0,-4.538559372470936,-7.049982629179113,-6.747030272505044,0.0007492007412428564,0.004005870895448676,-1.5029662349812185
16554,13.0,300.31932,60276.012,0.0,-0.0827695469966957,-0.08276844558424623,0.0,0.0,0.0,-4.524661228799296,-7.045068872819163,-6.752672353036873,0.0008943561236010773,0.0034528352418433067,-1.4990411067438383
16555,13.0,300.21352,60306.986,0.0,-0.08277456148543405,-0.0827734477944333,0.0,0.0,0.0,-4.530693714594655,-7.050260563681543,-6.750863600283363,0.0002364549007012818,0.004074997755695965,-1.5017869131898285
16556,13.0,299.87412,60441.307,0.0,-0.08277954298411494,-0.08277845000462047,0.0,0.0,0.0,-4.554796502673416,-7.056153930238173,-6.761697675652603,0.002201377136084008,0.0054629938455555156,-1.5011257674995786
16557,13.0,300.1358,60519.475,0.0,-0.0827845574728534,-0.08278345221480765,0.0,0.0,0.0,-4.568165932442875,-7.062878769826864,-6.765364627764503,-0.0004897006829171945,0.001050390478440469,-1.5080860864115087
16558,13.0,299.90563,60412.697,0.0,-0.0827895389715343,-0.0827884544249946,0.0,0.0,0.0,-4.5543947490087655,-7.059161864485033,-6.750394769462094,0.0004968767835704205,-0.003460281211528167,-1.5026589162258885
16559,13.0,299.98439,60345.668,0.0,-0.08279455346027254,-0.08279345663518178,0.0,0.0,0.0,-4.537470331263456,-7.052938482370833,-6.753167325710724,-0.0031140868869614473,-0.004242188379171396,-1.5062826025585185
16560,13.0,300.11647999999997,60400.739,0.0,-0.08279956794901111,-0.08279845884536874,0.0,0.0,0.0,-4.540971110358955,-7.059645387432753,-6.759699951755444,-0.003064709588388287,0.002039555218263428,-1.5015704829684686
16561,13.0,300.04307,60369.187000000005,0.0,-0.082804549447692,-0.08280346105555592,0.0,0.0,0.0,-4.536305701598516,-7.058287125673703,-6.756132602128374,-0.003409250896741867,0.0005173130957648275,-1.5035482458386586
16562,13.0,300.00866,60335.507000000005,0.0,-0.08280956393643024,-0.08280846326574309,0.0,0.0,0.0,-4.534445577064936,-7.056218170294514,-6.7498237017057345,0.0004336988159852406,0.0016969374638996883,-1.5036740915010787
16563,13.0,300.25646,60356.575,0.0,-0.08281454543511113,-0.08281346547593005,0.0,0.0,0.0,-4.537492014815595,-7.061526587568414,-6.747872992613214,0.00028998393076418573,-0.0028270841001114774,-1.5093189078081786
16564,13.0,300.06162,60408.441,0.0,-0.0828195599238497,-0.082818467686117,0.0,0.0,0.0,-4.5482305407004056,-7.061408138631723,-6.753018985896083,0.005184052071201105,-0.005263171806584615,-1.5095568189316586
16565,13.0,300.22081000000003,60447.108,0.0,-0.08282454142253037,-0.08282343698702677,0.0,0.0,0.0,-4.538145662455106,-7.065436314404273,-6.7708295921788535,0.0003064744748166757,-0.005957365662096214,-1.5054765621039685
16566,13.0,300.25459,60452.685999999994,0.0,-0.08282955591126884,-0.08282843919721372,0.0,0.0,0.0,-4.5376988191610055,-7.073107732236385,-6.765300489033174,0.0013062465651664987,-0.0013614242139371084,-1.5043198357898087
16567,13.0,299.94924,60411.413,0.0,-0.0828345704000073,-0.0828334414074009,0.0,0.0,0.0,-4.538057712346426,-7.061809284346313,-6.763693980999624,-0.002059074062889788,-0.00042391322142197753,-1.5036889862775484
16568,13.0,299.95187999999996,60432.889,0.0,-0.08283955189868819,-0.08283844361758785,0.0,0.0,0.0,-4.551481756296275,-7.067977140355033,-6.7506303501103435,-0.0027903782033138875,0.0037826489599933864,-1.5140151193716587
16569,13.0,299.96674,60463.314000000006,0.0,-0.08284456638742654,-0.08284344582777492,0.0,0.0,0.0,-4.560630492774186,-7.063201186008684,-6.755506008266535,-1.8334944971018184e-05,-0.0012218897453161288,-1.5059187444476085
16570,13.0,299.93941,60466.551,0.0,-0.08284954788610766,-0.0828484480379621,0.0,0.0,0.0,-4.563258762208576,-7.060008029643543,-6.757054761044383,-0.00014636000500460787,-0.0014830773514183386,-1.5075382220824385
16571,13.0,299.84395,60441.209,0.0,-0.0828545623748459,-0.08285345024814905,0.0,0.0,0.0,-4.538789076268605,-7.069457498751134,-6.764371743991513,-0.0003990534747235116,-0.002166975167363798,-1.5070331169075883
16572,13.0,299.83631,60422.86,0.0,-0.08285954387352679,-0.08285845245833623,0.0,0.0,0.0,-4.5470748276363455,-7.060202067037694,-6.759763786511744,-0.0031289350539268467,0.0004880467041164595,-1.5030909660685288
16573,13.0,299.86392,60495.86,0.0,-0.08286455836226536,-0.08286345466852318,0.0,0.0,0.0,-4.550702060344325,-7.065198403280793,-6.773330394750663,-0.005544094687534545,0.004339283576628946,-1.4960231413209883
16574,13.0,300.16422,60493.140999999996,0.0,-0.08286953986094625,-0.08286845687871036,0.0,0.0,0.0,-4.559213867809375,-7.064114124348784,-6.765076358111053,-0.007386522605468023,0.004009438650375786,-1.5062372089540383
16575,13.0,300.2878,60510.778,0.0,-0.08287455434968449,-0.08287345908889754,0.0,0.0,0.0,-4.557302675470755,-7.066934911302172,-6.769528072425404,-0.00021723820725474182,-0.0014496164893910088,-1.5027560869104786
16576,13.0,300.05189,60489.584,0.0,-0.08287956883842296,-0.0828784612990845,0.0,0.0,0.0,-4.554198685114416,-7.073526407177702,-6.759597917470374,0.0020380715161419983,0.002250825868789218,-1.5176886576092086
16577,13.0,299.75259,60456.772000000004,0.0,-0.08288455033710396,-0.08288346350927167,0.0,0.0,0.0,-4.538114555677036,-7.067666781849402,-6.771567846201714,0.005219320774056855,-0.0036936497321598464,-1.5109691882460485
16578,13.0,299.88257999999996,60484.125,0.0,-0.0828895648258422,-0.08288846571945863,0.0,0.0,0.0,-4.548581226560016,-7.069706758275734,-6.767375625237973,0.0028368574039510275,0.0015215981817950485,-1.5159494138125587
16579,13.0,300.0052,60509.960999999996,0.0,-0.08289454632452309,-0.08289343502036817,0.0,0.0,0.0,-4.545416745172705,-7.076317809878194,-6.771782756547924,-0.0012624897648980389,0.0016755056030845284,-1.5134926876200985
16580,13.0,300.00434,60458.114,0.0,-0.08289956081326155,-0.08289843723055534,0.0,0.0,0.0,-4.548057072283286,-7.067005940134184,-6.762694105800944,-0.0017276237431781884,0.0030214296236168873,-1.5189476208584587
16581,13.0,299.86986,60429.670999999995,0.0,-0.08290454231194244,-0.08290343944074241,0.0,0.0,0.0,-4.547488942952215,-7.068044724136703,-6.753577388026193,-0.0032764142139319065,-0.0013918801814678788,-1.5138561404309685
16582,13.0,299.72606,60505.093,0.0,-0.0829095568006808,-0.08290844165092948,0.0,0.0,0.0,-4.556028412144996,-7.071486228101353,-6.764522718256415,-0.003521154136460857,-0.0025542102753059273,-1.5140541295005088
16583,13.0,299.83408,60573.274000000005,0.0,-0.0829145382993619,-0.08291344386111654,0.0,0.0,0.0,-4.558379253702005,-7.078529734846493,-6.775853792799703,0.002502260537378888,-0.006393802168394145,-1.5047765076098787
16584,13.0,299.99906,60577.570999999996,0.0,-0.08291955278810015,-0.0829184460713035,0.0,0.0,0.0,-4.553165473987446,-7.0852990561145734,-6.775604330625084,-0.0024266057120373376,0.003029870402249927,-1.5052361178552385
16585,13.0,300.11567,60588.922999999995,0.0,-0.0829245672768385,-0.08292344828149067,0.0,0.0,0.0,-4.554616650780666,-7.082968783534594,-6.779934252277413,0.005354485804271605,0.0017375398139568283,-1.5028337018681384
16586,13.0,299.93554,60612.749,0.0,-0.08292954877551961,-0.08292845049167763,0.0,0.0,0.0,-4.563984857230236,-7.083103545797893,-6.777673792629324,-0.0025613308903836775,0.005750643085969284,-1.5050699448388385
16587,13.0,300.04166000000004,60609.48,0.0,-0.08293456326425785,-0.08293345270186481,0.0,0.0,0.0,-4.565509798630735,-7.082376640176153,-6.775881961152485,0.0041055577840120065,0.005036845475472946,-1.5116065225589486
16588,13.0,300.24161000000004,60615.168,0.0,-0.08293954476293874,-0.08293845491205198,0.0,0.0,0.0,-4.561806572165255,-7.085025478587573,-6.778665460502194,0.0008273190815525362,0.004783365764206446,-1.5112973799534384
16589,13.0,300.20296,60534.265999999996,0.0,-0.08294455925167721,-0.08294345712223894,0.0,0.0,0.0,-4.551046869353355,-7.073708589545683,-6.7761497631539145,-0.0029356353058496475,-0.002249839571141878,-1.5081953147722884
16590,13.0,299.9752,60464.001,0.0,-0.0829495407503581,-0.08294845933242612,0.0,0.0,0.0,-4.550134032338266,-7.064729471134513,-6.7646831157472445,-0.0029252012616198873,-0.00025830858766557273,-1.5041085731439587
16591,13.0,299.94527999999997,60573.695,0.0,-0.08295455523909645,-0.08295346154261318,0.0,0.0,0.0,-4.558349160174036,-7.076620974308113,-6.777920620353684,0.0017879305652800082,0.0006215742613746034,-1.5073806616918883
16592,13.0,299.79847,60664.849,0.0,-0.08295956972783491,-0.08295846375280036,0.0,0.0,0.0,-4.580628098072795,-7.081983499137352,-6.777987798835314,-0.0005398025870343674,0.0037536859151599566,-1.5084380894962486
16593,13.0,299.89151,60628.66099999999,0.0,-0.0829645512265158,-0.08296343305370979,0.0,0.0,0.0,-4.558970282485336,-7.090512227879072,-6.780116637295413,0.005877695833233415,-0.003043506823420737,-1.5156959999625486
16594,13.0,300.03137999999996,60582.632000000005,0.0,-0.08296956571525416,-0.08296843526389686,0.0,0.0,0.0,-4.551522083650256,-7.091418073468473,-6.7726671212352025,0.0016781590011213984,-0.0006110494907308894,-1.5148304817271285
16595,13.0,299.97526,60650.432,0.0,-0.08297454721393505,-0.08297343747408403,0.0,0.0,0.0,-4.5605418333904355,-7.089887660517434,-6.785787291480063,0.004132830525028616,-0.0018046364249787482,-1.5137958520500185
16596,13.0,300.03888,60686.232,0.0,-0.08297956170267351,-0.0829784396842711,0.0,0.0,0.0,-4.562331435717056,-7.092877558912514,-6.791890198157374,-0.004958860478876425,0.004248421083186516,-1.5062524077055384
16597,13.0,300.05786,60600.477,0.0,-0.0829845432013544,-0.08298344189445817,0.0,0.0,0.0,-4.550164125866236,-7.084578837943494,-6.786288850279563,-0.004641786962183705,-0.0010992143398090089,-1.5085272555050484
16598,13.0,299.8527,60566.551,0.0,-0.08298955769009275,-0.08298844410464512,0.0,0.0,0.0,-4.550811592680136,-7.079213070713934,-6.780694291177424,-0.007895070804157822,0.002120407206017898,-1.5115510977784785
16599,13.0,299.66846,60602.905999999995,0.0,-0.08299453918877375,-0.0829934463148323,0.0,0.0,0.0,-4.553645247909796,-7.082215026785202,-6.785909894742164,-0.0019139740141195282,0.003128477064881647,-1.5169779639890686
16600,13.0,299.72078,60635.325999999994,0.0,-0.0829995536775121,-0.08299844852501925,0.0,0.0,0.0,-4.563184896276286,-7.0833357827208125,-6.7851044622376735,0.0038583193893864764,0.0014463044787891388,-1.5142312456179885
16601,13.0,299.77893,60663.098,0.0,-0.08300456816625057,-0.08300345073520643,0.0,0.0,0.0,-4.566686485971866,-7.084550365615684,-6.788829980205353,0.005634240509181245,-0.003270930403065697,-1.5095526646062485
16602,13.0,300.06278,60674.555,0.0,-0.08300954966493146,-0.08300845294539339,0.0,0.0,0.0,-4.569718231596076,-7.089245665254073,-6.784585880836493,0.0026420145772965377,-0.0019014025188038184,-1.5117010587932787
16603,13.0,300.0629,60667.31,0.0,-0.08301456415366981,-0.08301345515558056,0.0,0.0,0.0,-4.567636002640575,-7.091016421128834,-6.782694852174864,-0.0015883448162324284,-0.0084335907381556,-1.5141509962100685
16604,13.0,299.99627000000004,60711.388,0.0,-0.0830195456523507,-0.08301845736576763,0.0,0.0,0.0,-4.580298893115305,-7.093150224514424,-6.781296871011894,-0.0017460909355257585,0.0033898186849990568,-1.5237280335052485
16605,13.0,299.87932,60744.596,0.0,-0.08302456014108917,-0.0830234595759548,0.0,0.0,0.0,-4.572374872033266,-7.100713528560863,-6.791751990843735,-0.0029449102932900175,-0.0019080144823313682,-1.5162428510415185
16606,13.0,299.98839,60676.789000000004,0.0,-0.08302954163977005,-0.08302846178614198,0.0,0.0,0.0,-4.566958746273736,-7.093375976636703,-6.783894033668213,-0.0011169381105582091,-0.0027502756895310776,-1.5207218217835587
16607,13.0,300.11914,60648.21599999999,0.0,-0.08303455612850841,-0.08303346399632894,0.0,0.0,0.0,-4.558037079143236,-7.093155493414943,-6.784350705488284,-0.002352831884181428,-0.004341908907638046,-1.5112655639002985
16608,13.0,300.0823,60697.093,0.0,-0.0830395376271893,-0.08303843329723848,0.0,0.0,0.0,-4.5694920741737555,-7.0951819936149425,-6.785726597799073,0.00044842360961846447,0.0008204660962236992,-1.5120128358490486
16609,13.0,299.93299,60710.775,0.0,-0.08304455211592776,-0.08304343550742566,0.0,0.0,0.0,-4.563166049824425,-7.099191322935633,-6.792202380513184,-0.0012204712965011388,-0.005190304128293135,-1.5076414722676286
16610,13.0,299.99446,60695.242,0.0,-0.08304956660466611,-0.08304843771761261,0.0,0.0,0.0,-4.562096057718826,-7.100043770244763,-6.787698078518644,-0.004105463653077715,-0.0039542780242068564,-1.5151977848883786
16611,13.0,299.92165,60726.71,0.0,-0.08305454810334711,-0.08305343992779979,0.0,0.0,0.0,-4.562927328100866,-7.104123824422434,-6.792352240202973,0.0032923759427572075,-0.0017877505107372382,-1.5180040823653385
16612,13.0,299.74056,60711.137,0.0,-0.08305956259208547,-0.08305844213798674,0.0,0.0,0.0,-4.574365908479765,-7.095714963167544,-6.784588920586793,-0.0005748366515644604,0.005220501514398386,-1.5180116817410885
16613,13.0,299.9376,60735.078,0.0,-0.08306454409076636,-0.08306344434817392,0.0,0.0,0.0,-4.576296453895296,-7.099143598855923,-6.786507205676115,0.005006506740978745,0.002400862573371688,-1.5172232718382788
16614,13.0,300.02033,60790.279,0.0,-0.08306955857950482,-0.08306844655836088,0.0,0.0,0.0,-4.579431551029705,-7.103322242268323,-6.795973089435323,-0.003877402131169796,-0.00043284688543366163,-1.5183100838955383
16615,13.0,299.94524,60767.195999999996,0.0,-0.08307454007818571,-0.08307344876854783,0.0,0.0,0.0,-4.572992954594266,-7.102429771580242,-6.796287602266363,0.003019214861548307,0.0038126005316243762,-1.5158763584803485
16616,13.0,299.9876,60703.124,0.0,-0.08307955456692406,-0.08307845097873501,0.0,0.0,0.0,-4.566856104038606,-7.095383427734823,-6.789994609870293,-0.0042423231414346965,0.0022862393650842578,-1.5201075895729386
16617,13.0,300.06423,60738.309,0.0,-0.08308456905566253,-0.08308345318892207,0.0,0.0,0.0,-4.564891209444686,-7.0986111359283735,-6.799426955051193,-0.0024644028791926276,0.0017553083703604486,-1.5155690397250186
16618,13.0,300.15629,60805.797999999995,0.0,-0.08308955055434342,-0.08308845539910925,0.0,0.0,0.0,-4.581977747205996,-7.097768517145213,-6.803698006872713,5.3321281368400746e-05,0.002084394473613718,-1.5106417058137285
16619,13.0,300.13423,60807.599,0.0,-0.08309456504308177,-0.08309345760929643,0.0,0.0,0.0,-4.574158293534276,-7.100710286160543,-6.8091231505581336,0.002087062665102048,0.004000024948996726,-1.5097731478280088
16620,13.0,300.0762,60782.350999999995,0.0,-0.08309954654176266,-0.08309845981948338,0.0,0.0,0.0,-4.571406103612655,-7.1029726709838235,-6.801938092774023,0.0003080648215111307,-0.0018906123171639083,-1.5103723839371486
16621,13.0,300.08795,60788.722,0.0,-0.08310456103050112,-0.08310346202967056,0.0,0.0,0.0,-4.571086321881095,-7.098513154643703,-6.808654218411854,0.002541934446369397,-0.00907592635222419,-1.5096161953875187
16622,13.0,299.89842000000004,60843.085,0.0,-0.08310954252918201,-0.0831084313305801,0.0,0.0,0.0,-4.576064216972376,-7.111405444941073,-6.807308824929073,0.0025829772562450076,-0.0028646037380643773,-1.5136008014057685
16623,13.0,299.88031,60851.46599999999,0.0,-0.08311455701792037,-0.08311343354076706,0.0,0.0,0.0,-4.575787498370066,-7.113693161016854,-6.807845543507043,0.005260740310319645,0.0031526112637135072,-1.5219841287581384
16624,13.0,299.84567999999996,60827.363,0.0,-0.08311953851660125,-0.08311843575095423,0.0,0.0,0.0,-4.581213959280616,-7.108342795188813,-6.800442738276444,0.00019905533288523181,0.008882504102209903,-1.5157733109451785
16625,13.0,300.01792,60746.637,0.0,-0.08312455300533972,-0.08312343796114119,0.0,0.0,0.0,-4.570540078752186,-7.101862554174263,-6.793058171547644,-0.004835870864513295,0.005377868475504296,-1.5235035986080985
16626,13.0,299.94056,60747.92,0.0,-0.08312956749407796,-0.08312844017132837,0.0,0.0,0.0,-4.571552822227137,-7.100367604976722,-6.793930275908714,-0.0015213993821254284,0.005451098086731495,-1.5153923289075786
16627,13.0,299.91194,60794.822,0.0,-0.08313454899275907,-0.08313344238151554,0.0,0.0,0.0,-4.573088706728716,-7.103805663891034,-6.803213470674894,-0.0008604124884311012,0.00048631486717804054,-1.5225234817863684
16628,13.0,299.6504,60826.19,0.0,-0.08313956348149742,-0.0831384445917025,0.0,0.0,0.0,-4.575390405655876,-7.108856107689474,-6.8053965180153435,0.002300887111179878,-0.0038904450917570358,-1.5158758518552986
16629,13.0,300.02546,60819.484000000004,0.0,-0.08314454498017831,-0.08314344680188956,0.0,0.0,0.0,-4.575158574032996,-7.108241267528793,-6.804204733247723,0.0016103081267250386,-0.0038103416931764464,-1.5240625073632585
16630,13.0,300.02981,60872.807,0.0,-0.08314955946891678,-0.08314844901207663,0.0,0.0,0.0,-4.590493607671445,-7.1132436832724935,-6.800075840415234,0.0008814102121084151,0.0025761331571195474,-1.5135312924489086
16631,13.0,300.14651000000003,60917.672999999995,0.0,-0.08315454096759767,-0.0831534512222637,0.0,0.0,0.0,-4.592071846027205,-7.117818608799003,-6.807560820228944,0.0006373834960598534,0.0026727326726281773,-1.5181357035533287
16632,13.0,300.05435,60871.373,0.0,-0.08315955545633602,-0.08315845343245087,0.0,0.0,0.0,-4.584781815532736,-7.115563215401414,-6.803032605532044,-0.0016283167220773485,-0.0009608220877607571,-1.5123689932591986
16633,13.0,299.97154,60813.566,0.0,-0.08316453695501691,-0.08316345564263783,0.0,0.0,0.0,-4.572420569612776,-7.112285756627953,-6.801099223016235,-0.001966862426939208,-0.006420409710720104,-1.5144214326617587
16634,13.0,300.10939,60846.699,0.0,-0.08316955144375537,-0.083168457852825,0.0,0.0,0.0,-4.580710576630936,-7.110528578304533,-6.804637998990484,0.004533718874093215,-0.007122869559222493,-1.5163908868811287
16635,13.0,300.18992000000003,60847.191,0.0,-0.08317456593249362,-0.08317346006301196,0.0,0.0,0.0,-4.578943772431566,-7.114496060396093,-6.802586876813053,0.0028875273056767573,0.003595093833358137,-1.5206762255290587
16636,13.0,300.09062,60852.639,0.0,-0.08317954743117462,-0.0831784293639215,0.0,0.0,0.0,-4.581908744874186,-7.113073862555734,-6.8027001581742335,0.004171279515973236,0.00014903188472330185,-1.5211522504260384
16637,13.0,299.85109,60923.255999999994,0.0,-0.08318456191991308,-0.08318343157410868,0.0,0.0,0.0,-4.5865234911296255,-7.1202585150398034,-6.812366462803224,-0.0060027060709459635,0.003459372427513477,-1.5183770597271486
16638,13.0,300.00269,60925.16099999999,0.0,-0.08318954341859397,-0.08318843378429563,0.0,0.0,0.0,-4.5880362735289255,-7.118875428653302,-6.812815737897563,-0.002396720204312868,0.0005138780968658196,-1.5218241365673486
16639,13.0,299.80936,60885.462999999996,0.0,-0.08319455790733221,-0.08319343599448281,0.0,0.0,0.0,-4.575502471116936,-7.124152435174103,-6.808005535697833,-0.0004347017005367176,-0.001036000705820309,-1.5206070205472286
16640,13.0,299.92977,60904.958,0.0,-0.08319953940601332,-0.08319843820466999,0.0,0.0,0.0,-4.571729330394556,-7.127385817568213,-6.814471388560964,0.0013541008475143489,-0.004301804468680046,-1.5233035830383586
16641,13.0,299.87815,60924.4,0.0,-0.08320455389475168,-0.08320344041485694,0.0,0.0,0.0,-4.575809181922206,-7.125877797444383,-6.817809338365393,-0.0016897858433688785,-0.006451760682064203,-1.5213890469744087
16642,13.0,300.07892999999996,60885.157999999996,0.0,-0.08320956838348992,-0.08320844262504412,0.0,0.0,0.0,-4.576026726718675,-7.119963963235734,-6.811577039650314,-0.0003349284121373607,-0.0018952943432259883,-1.5213267320932586
16643,13.0,300.18427,60904.318,0.0,-0.08321454988217103,-0.08321344483523119,0.0,0.0,0.0,-4.572536789399246,-7.123341429794064,-6.8175138746362345,-0.004235048917641785,0.0022899200973975175,-1.5192380183371186
16644,13.0,300.15249,60924.523,0.0,-0.08321956437090927,-0.08321844704541825,0.0,0.0,0.0,-4.582321137664886,-7.118706722511653,-6.818505846484134,-0.00019224328286043485,0.001776903668416738,-1.5196380494765986
16645,13.0,299.9971,60924.672,0.0,-0.08322454586959027,-0.08322344925560532,0.0,0.0,0.0,-4.578195081932675,-7.122126948224204,-6.819257070108273,-0.007328143187706423,-0.0010269754845295888,-1.5201384937009883
16646,13.0,300.04614,60989.885,0.0,-0.08322956035832874,-0.08322845146579227,0.0,0.0,0.0,-4.592194955914355,-7.1257082807026535,-6.821498987279533,-0.004377368202837606,-0.0054268263898610645,-1.5232120865543286
16647,13.0,300.20047999999997,61025.082,0.0,-0.08323454185700963,-0.08323345367597945,0.0,0.0,0.0,-4.595669289182245,-7.124422263675734,-6.8300095788444635,-0.004339110716161886,-0.004070620008638916,-1.5219639650811485
16648,13.0,300.10911,60966.484000000004,0.0,-0.08323955634574787,-0.08323845588616641,0.0,0.0,0.0,-4.591511214746875,-7.126892770069552,-6.813884716753064,-0.0007758499585454291,-0.005393612254233084,-1.5228926087977985
16649,13.0,300.06111,60919.482,0.0,-0.08324453784442876,-0.08324345809635358,0.0,0.0,0.0,-4.586335837211105,-7.117306005573414,-6.814359525749924,0.001078248067414799,8.602572179857771e-05,-1.5173222663730486
16650,13.0,300.0165,61018.59099999999,0.0,-0.08324955233316733,-0.08324846030654076,0.0,0.0,0.0,-4.6043520319391655,-7.1237047812799235,-6.820071317888634,0.0018456874421801685,-0.003383982060448027,-1.5163420482263086
16651,13.0,300.12129,61038.982,0.0,-0.08325456682190557,-0.08325342960745008,0.0,0.0,0.0,-4.595940232258986,-7.130463058121912,-6.8279229929135346,0.0025933195000157074,0.0005617976122551075,-1.5233269891156684
16652,13.0,299.7543,60958.672,0.0,-0.08325954832058646,-0.08325843181763726,0.0,0.0,0.0,-4.585966710199676,-7.126700151225543,-6.817247389859934,0.0026060990155769475,-0.004514688314690046,-1.5206703486784785
16653,13.0,299.79749,60990.710999999996,0.0,-0.08326456280932504,-0.08326343402782443,0.0,0.0,0.0,-4.588100006960216,-7.132395934012673,-6.8191572649734224,-0.000925109267253676,-0.0016868576519048887,-1.5250015875559384
16654,13.0,299.65097000000003,61047.062999999995,0.0,-0.08326954430800593,-0.08326843623801139,0.0,0.0,0.0,-4.593491510742316,-7.134604413930633,-6.828686983488933,0.0019390440507437482,-0.001102442858602639,-1.5178110582212885
16655,13.0,299.88317,61020.393,0.0,-0.08327455879674417,-0.08327343844819857,0.0,0.0,0.0,-4.592268720521636,-7.134764507446433,-6.821642564818704,-0.004388042184691045,0.006009111939403175,-1.5241435673712587
16656,13.0,300.19835,60991.329000000005,0.0,-0.08327954029542528,-0.08327844065838563,0.0,0.0,0.0,-4.587954909545895,-7.130781421303333,-6.821104832990633,-6.306830454010704e-05,0.0003185544425088757,-1.5221067320202384
16657,13.0,300.08322000000004,61006.74,0.0,-0.08328455478416352,-0.08328344286857281,0.0,0.0,0.0,-4.586156897243446,-7.135363540905553,-6.823005284878194,-0.004327304022021656,0.007064817725218223,-1.5268710339904386
16658,13.0,300.13525,61047.593,0.0,-0.08328953628284441,-0.08328844507875988,0.0,0.0,0.0,-4.593252789018755,-7.139443189783184,-6.824247833475823,-2.4122174592923276e-05,0.002837569921421347,-1.5266813535717183
16659,13.0,300.11247000000003,61116.39599999999,0.0,-0.08329455077158299,-0.08329344728894694,0.0,0.0,0.0,-4.605907978792725,-7.143226564331573,-6.8287236631425525,0.00016432180846729982,0.0005228624233825034,-1.5285633643074585
16660,13.0,300.1007,61090.166,0.0,-0.08329956526032145,-0.0832984494991339,0.0,0.0,0.0,-4.602216810003436,-7.137977624838543,-6.829690506387973,-0.0024566366211511577,-0.004739831169684915,-1.5192266699359986
16661,13.0,300.1793,61002.927,0.0,-0.08330454675900212,-0.08330345170932107,0.0,0.0,0.0,-4.595548915070366,-7.127423409146923,-6.820394139370494,0.004177145220802136,0.003786397174763306,-1.5201787197299585
16662,13.0,300.08691,61016.954000000005,0.0,-0.0833095612477407,-0.08330845391950803,0.0,0.0,0.0,-4.5903870137609255,-7.132467976094784,-6.824775331477884,0.00045269113532963657,0.0016168427792699583,-1.5193387353970587
16663,13.0,299.99259,61092.069,0.0,-0.08331454274642158,-0.08331345612969521,0.0,0.0,0.0,-4.602290067985666,-7.135846354578203,-6.832327185798194,0.0010251330918727589,0.01017589242228239,-1.5316359439106986
16664,13.0,299.99592,61092.303,0.0,-0.08331955723515982,-0.08331845833988216,0.0,0.0,0.0,-4.599232484483905,-7.1358288253514734,-6.835473226033684,3.1433764009770965e-07,0.0008972543735246122,-1.5233897092968587
16665,13.0,299.88943,61015.499,0.0,-0.08332453873384071,-0.0833234276407917,0.0,0.0,0.0,-4.590862734682876,-7.131706721294654,-6.824618885662443,0.002906769938325857,0.003368158336286347,-1.5291604725913885
16666,13.0,300.01921,61040.724,0.0,-0.08332955322257918,-0.08332842985097888,0.0,0.0,0.0,-4.593668829509816,-7.132306869328884,-6.828880108957994,-0.0017739600755512285,-0.007236175542379924,-1.5165642539732385
16667,13.0,299.91681,61104.22900000001,0.0,-0.08333456771131753,-0.08333343206116584,0.0,0.0,0.0,-4.603016872282395,-7.136449035737683,-6.8346939353817735,0.003988586267292817,-0.006976932261894603,-1.5263264120616886
16668,13.0,299.64567999999997,61141.669,0.0,-0.08333954920999842,-0.08333843427135301,0.0,0.0,0.0,-4.5990378391396955,-7.144863571193133,-6.841639258192223,0.001902171879604748,-0.0014231301317770087,-1.5232309330061884
16669,13.0,299.88687999999996,61118.35400000001,0.0,-0.08334456369873688,-0.08334343648154008,0.0,0.0,0.0,-4.593631947206175,-7.143802799663443,-6.841018642505973,0.005272129342768655,0.005814965722192434,-1.5296632472910086
16670,13.0,300.12376,61078.742,0.0,-0.08334954519741777,-0.08334843869172726,0.0,0.0,0.0,-4.590630092459915,-7.1451912562754725,-6.830590981751843,0.006798603385369913,0.005859292475642144,-1.5290987656602986
16671,13.0,300.06421,61094.984000000004,0.0,-0.08335455968615613,-0.08335344090191443,0.0,0.0,0.0,-4.594722305638785,-7.143370040545734,-6.833257349389993,-0.0013612069731156688,0.002978898146694357,-1.5316029119574384
16672,13.0,300.14081,61149.933,0.0,-0.08335954118483724,-0.08335844311210139,0.0,0.0,0.0,-4.604595921238236,-7.1428230881417525,-6.840633708792984,0.004135053089122966,-0.0053383767488817645,-1.5234638792041786
16673,13.0,299.91511,61132.097,0.0,-0.0833645556735757,-0.08336344532228857,0.0,0.0,0.0,-4.598186202430646,-7.143812324214383,-6.840632594217873,-0.0027596252521788073,-0.003302863689242267,-1.5211276284486086
16674,13.0,300.00277,61101.009000000005,0.0,-0.08336953717225637,-0.08336844753247552,0.0,0.0,0.0,-4.591217473542886,-7.141563516942442,-6.840399951994914,-0.00035641275930770066,-0.002248433585303118,-1.5257198805518286
16675,13.0,300.11624,61158.501,0.0,-0.08337455166099494,-0.0833734497426627,0.0,0.0,0.0,-4.593596990077725,-7.1537720660723325,-6.843288120079953,-0.001876282022324618,0.0019115771710079784,-1.5289595450965587
16676,13.0,300.18458,61205.324,0.0,-0.08337956614973341,-0.08337845195284965,0.0,0.0,0.0,-4.611202717190276,-7.1502636876010826,-6.843423895593353,-0.0014690974384636286,0.004236796976714306,-1.5265381813325885
16677,13.0,299.89789,61181.948,0.0,-0.08338454764841408,-0.08338345416303661,0.0,0.0,0.0,-4.610219864593276,-7.146298535984752,-6.841266078180393,0.0036558979586090363,0.0013152043040005586,-1.5221130141708588
16678,13.0,299.89347000000004,61129.405,0.0,-0.08338956213715254,-0.08338845637322378,0.0,0.0,0.0,-4.609044291827255,-7.144942807350953,-6.827825619578923,-0.0014069858152836886,-0.006527925678831105,-1.5238605666183287
16679,13.0,299.88038,61146.225999999995,0.0,-0.08339454363583343,-0.08339342567413333,0.0,0.0,0.0,-4.600189195228325,-7.149872573062484,-6.8368641144459525,-0.00039861046151478964,-0.0062095985691146645,-1.5226905667278585
16680,13.0,300.01858,61160.78,0.0,-0.08339955812457178,-0.0833984278843205,0.0,0.0,0.0,-4.602199078126686,-7.149610850561653,-6.839540006635044,-0.0015941297650283583,-0.003185560231790317,-1.5226069735946086
16681,13.0,299.96767,61192.21,0.0,-0.08340453962325267,-0.08340343009450746,0.0,0.0,0.0,-4.6005281273867755,-7.155827747875213,-6.844548096579303,-0.005733923142094154,0.007040574804650634,-1.5279649387983985
16682,13.0,299.83214,61206.758,0.0,-0.08340955411199114,-0.08340843230469452,0.0,0.0,0.0,-4.610831867653675,-7.148987803075164,-6.845506327198873,-5.552865177750124e-05,0.004262250021876326,-1.5272709638049087
16683,13.0,300.06565,61196.751,0.0,-0.08341453561067202,-0.0834134345148817,0.0,0.0,0.0,-4.603209795101436,-7.157710873186064,-6.841363654165023,-0.0031987298486400566,0.006844384659338175,-1.5291976588700587
16684,13.0,300.03375,61184.377,0.0,-0.08341955009941038,-0.08341843672506888,0.0,0.0,0.0,-4.609981548169755,-7.148737327650443,-6.839804059611103,0.0028513203332284067,0.005958324804640874,-1.5217524997852785
16685,13.0,300.1242,61244.538,0.0,-0.08342456458814884,-0.08342343893525583,0.0,0.0,0.0,-4.606291797930605,-7.154059221150673,-6.856459358129852,0.0013065885370752489,-0.003171029313431227,-1.5228827802718286
16686,13.0,299.97116,61244.66099999999,0.0,-0.08342954608682995,-0.08342844114544301,0.0,0.0,0.0,-4.612786123121546,-7.1556982545124335,-6.848363287180834,-0.0023608561156983577,-0.0004437920130138616,-1.5254842999035785
16687,13.0,299.95696,61191.218,0.0,-0.0834345605755682,-0.08343344335562997,0.0,0.0,0.0,-4.601521517784816,-7.1512588005242925,-6.847822008977413,0.0005454058195573635,-0.004340401900764316,-1.5334382118635685
16688,13.0,299.93036,61200.272000000004,0.0,-0.08343954207424908,-0.08343844556581714,0.0,0.0,0.0,-4.607609631010666,-7.157929633882653,-6.8378151509898135,-0.0013391613867149389,-0.0016523683410260585,-1.5340225531962386
16689,13.0,300.24164,61215.195999999996,0.0,-0.08344455656298766,-0.08344344777600432,0.0,0.0,0.0,-4.6090763105304156,-7.153223593793203,-6.845591136232244,3.256254184642267e-05,0.0015410133709361784,-1.5319435666410588
16690,13.0,300.07129,61197.831,0.0,-0.08344953806166833,-0.08344844998619128,0.0,0.0,0.0,-4.607932857792566,-7.150881668837073,-6.8437980888552845,-0.0016267406115467982,-0.0021346134790449483,-1.5330682742520585
16691,13.0,300.10967999999997,61216.515999999996,0.0,-0.08345455255040679,-0.08345345219637834,0.0,0.0,0.0,-4.597685352906216,-7.160355658597084,-6.850251377417173,0.003143162098580947,-0.0003720351912045146,-1.5314893266212286
16692,13.0,300.06158999999997,61258.637,0.0,-0.08345956703914537,-0.0834584544065653,0.0,0.0,0.0,-4.607418430716796,-7.157881403177893,-6.855795983289383,-0.004248037365373647,0.0007323839002606633,-1.5245029671817285
16693,13.0,299.9786,61288.33,0.0,-0.08346454853782603,-0.08346342370747495,0.0,0.0,0.0,-4.615165538331375,-7.162545292063183,-6.852411120005323,0.002592141292799427,0.0005654638854894404,-1.5281440814160785
16694,13.0,299.80635,61287.01,0.0,-0.0834695630265645,-0.08346842591766213,0.0,0.0,0.0,-4.617290121141056,-7.159942860506343,-6.8524876203878735,-0.008184596381106772,0.0004537975335113296,-1.5232793663609685
16695,13.0,299.98508,61274.982,0.0,-0.08347454452524539,-0.08347342812784908,0.0,0.0,0.0,-4.617421641004036,-7.157549563770143,-6.851093286925264,0.006269506170677084,0.00021355736348397083,-1.5295814780079384
16696,13.0,299.90693,61255.05,0.0,-0.08347955901398374,-0.08347843033803615,0.0,0.0,0.0,-4.605258992103675,-7.162744497032843,-6.852002172264964,-0.003389841989751356,-0.0012480560172235388,-1.5214104265515185
16697,13.0,299.85971,61257.318,0.0,-0.08348454051266463,-0.08348343254822332,0.0,0.0,0.0,-4.603631813768086,-7.1590931489724845,-6.857970114028952,0.005606994213992245,-0.0012516809194562887,-1.5247823202342985
16698,13.0,299.76445,61287.944,0.0,-0.08348955500140309,-0.08348843475841028,0.0,0.0,0.0,-4.609166388464305,-7.162192681028384,-6.858645546545614,0.00025978921963919975,0.001204477346322659,-1.5295027484751684
16699,13.0,299.71705,61273.307,0.0,-0.0834945365000842,-0.08349343696859746,0.0,0.0,0.0,-4.615338094823405,-7.158793936217953,-6.851423201157823,0.003517759242000807,0.0008877831195398722,-1.5297969963042086
16700,13.0,299.79242,61236.825,0.0,-0.08349955098882245,-0.08349843917878441,0.0,0.0,0.0,-4.603741042128866,-7.162807521189064,-6.847916950511784,0.0017765780098345984,0.0004924290310639615,-1.5385521864432787
16701,13.0,299.97941000000003,61291.833,0.0,-0.0835045654775608,-0.08350344138897159,0.0,0.0,0.0,-4.609783457775205,-7.166213460075203,-6.855189958404574,0.0014269330620523286,-0.0012562346680557088,-1.5288352193092885
16702,13.0,300.04365,61396.675,0.0,-0.08350954697624191,-0.08350844359915877,0.0,0.0,0.0,-4.618089575469956,-7.176056272871612,-6.868910378008674,0.0032850032310545773,-0.0004294743635358196,-1.5315668402538787
16703,13.0,300.05073,61401.02099999999,0.0,-0.08351456146498015,-0.08351344580934572,0.0,0.0,0.0,-4.619742794333116,-7.177982967936763,-6.866651539560743,-0.00015367125295617182,-0.0008577054590664381,-1.5284636604976185
16704,13.0,299.9826,61315.566,0.0,-0.08351954296366104,-0.0835184480195329,0.0,0.0,0.0,-4.616018897565596,-7.170020139375893,-6.852361876050464,-0.002982610492410737,0.004146938512795966,-1.5309038707134486
16705,13.0,300.04512,61313.272000000004,0.0,-0.0835245574523995,-0.08352345022971996,0.0,0.0,0.0,-4.609457596543046,-7.170133927362124,-6.858112171692973,0.0018169577488447682,0.004216468241283016,-1.5285887968849685
16706,13.0,300.0941,61374.803,0.0,-0.08352953895108028,-0.08352845243990703,0.0,0.0,0.0,-4.622097283590486,-7.1726866083390535,-6.861623792564544,0.0003886658880108366,0.006599105586431013,-1.5321928261656586
16707,13.0,300.14898,61374.992999999995,0.0,-0.08353455343981875,-0.0835334546500941,0.0,0.0,0.0,-4.620268265834976,-7.1677345511253225,-6.8684625214644734,0.00024313584629563975,-0.004446631446548356,-1.5310695371047984
16708,13.0,299.90105,61308.495,0.0,-0.08353953493849964,-0.08353842395100364,0.0,0.0,0.0,-4.613394275831565,-7.168875673387943,-6.853981556335314,0.003023127324159437,-0.004640426167299406,-1.5346028415285087
16709,13.0,299.85366,61299.83,0.0,-0.08354454942723799,-0.08354342616119081,0.0,0.0,0.0,-4.604880745841346,-7.166790607332164,-6.861946208746364,-0.001793427041772468,0.0021206142130133277,-1.5332325220932685
16710,13.0,300.04367,61377.41099999999,0.0,-0.08354956391597645,-0.08354842837137777,0.0,0.0,0.0,-4.627030798327386,-7.167671628294113,-6.862497822100803,0.005255336850186365,0.00023465806376894775,-1.5299824210725086
16711,13.0,299.91629,61450.355,0.0,-0.08355454541465734,-0.08355343058156495,0.0,0.0,0.0,-4.625215459448225,-7.182147121872734,-6.872010923314673,-0.006031049715993265,-0.005174220606805815,-1.5360668865979985
16712,13.0,300.02374,61436.304000000004,0.0,-0.0835595599033957,-0.0835584327917519,0.0,0.0,0.0,-4.633412247457186,-7.173379975382484,-6.868310229974444,0.0042095908062292665,-0.0011304060282373888,-1.5290220626277287
16713,13.0,300.11238,61393.43,0.0,-0.0835645414020767,-0.08356343500193886,0.0,0.0,0.0,-4.615370316176587,-7.172995750944563,-6.873703557606723,0.003841895517190566,-0.0036179272217116165,-1.5299656011208485
16714,13.0,300.03256,61409.172999999995,0.0,-0.08356955589081505,-0.08356843721212603,0.0,0.0,0.0,-4.6244739630250455,-7.175394620556313,-6.866986722693824,0.004850677690874616,0.003840776281130106,-1.5330760762778286
16715,13.0,300.22193,61460.702000000005,0.0,-0.08357453738949616,-0.08357343942231321,0.0,0.0,0.0,-4.628739137995986,-7.1792841837151835,-6.874495513884884,-0.0043013192232071555,0.00037035450313114367,-1.5323479547559684
16716,13.0,300.21607,61412.532,0.0,-0.0835795518782344,-0.08357844163250017,0.0,0.0,0.0,-4.630581024027766,-7.176866771626602,-6.860428562746583,-0.007705792645727522,0.0014418378696983186,-1.5391817187304087
16717,13.0,300.03375,61308.307,0.0,-0.08358456636697287,-0.08358344384268734,0.0,0.0,0.0,-4.608778313676005,-7.166223795226222,-6.861192350671963,-0.005854614299930444,0.0014855389412112786,-1.5380285387915986
16718,13.0,300.12318999999997,61364.780999999995,0.0,-0.08358954786565376,-0.08358844605287441,0.0,0.0,0.0,-4.616426224105796,-7.174603069578194,-6.862331851734424,-0.005226834124873365,-0.004535004891120136,-1.5418114067149384
16719,13.0,300.04395,61485.632000000005,0.0,-0.08359456235439211,-0.08359344826306159,0.0,0.0,0.0,-4.626229824123336,-7.182814347063583,-6.8810525592570135,0.003023144245436107,-0.007929347129865632,-1.5355396925709686
16720,13.0,299.9962,61512.11,0.0,-0.083599543853073,-0.08359845047324865,0.0,0.0,0.0,-4.631572995875666,-7.184162273671613,-6.882410314391013,-0.002108878345055088,-0.003957596114309327,-1.5354488040369987
16721,13.0,300.00158,61453.742,0.0,-0.08360455834181146,-0.08360345268343572,0.0,0.0,0.0,-4.628068366429786,-7.180569998092084,-6.871764703540373,0.005928112726409175,0.0012708839340264788,-1.5245076281321885
16722,13.0,300.01639,61452.831,0.0,-0.08360953984049224,-0.08360842198434526,0.0,0.0,0.0,-4.627319371955865,-7.181298322263963,-6.871508249940063,-0.002908753274071597,0.0014171774900895286,-1.5347123738643185
16723,13.0,300.00514,61514.047999999995,0.0,-0.0836145543292307,-0.08361342419453244,0.0,0.0,0.0,-4.634685700182866,-7.186691751221252,-6.8773569321672845,-0.00020930961641475078,-0.0017141694030503485,-1.5321277755092384
16724,13.0,299.97331,61512.490999999995,0.0,-0.0836195358279116,-0.08361842640471939,0.0,0.0,0.0,-4.631514024719846,-7.187713107322052,-6.879034063732804,-0.001049465381099169,-0.000891350540094449,-1.5357565280923684
16725,13.0,299.94472,61458.28400000001,0.0,-0.08362455031664984,-0.08362342861490657,0.0,0.0,0.0,-4.623121375466555,-7.184365632966684,-6.874296714215264,0.0038665708929008368,0.0028081943824722075,-1.5362723737182786
16726,13.0,299.81253,61414.685,0.0,-0.08362956480538841,-0.08362843082509352,0.0,0.0,0.0,-4.621526317159136,-7.178438018556673,-6.868566379599724,-0.0004455551695128716,0.003122497572066517,-1.5334716491168685
16727,13.0,299.85942,61455.185,0.0,-0.0836345463040693,-0.08363343303528048,0.0,0.0,0.0,-4.629609519831886,-7.184692304798923,-6.866539879399723,-0.0030705704296167076,-0.0017323620046208184,-1.5364985311405985
16728,13.0,299.93125,61503.912000000004,0.0,-0.08363956079280754,-0.08363843524546766,0.0,0.0,0.0,-4.636181763955516,-7.185791377182394,-6.873680151529413,-0.0006476201997001374,0.0018333236631349582,-1.5310388356267686
16729,13.0,299.99692999999996,61541.727,0.0,-0.08364454229148865,-0.08364343745565461,0.0,0.0,0.0,-4.633067033148116,-7.193175842586184,-6.880905435342494,0.0024200377235641278,-0.00010707726121520292,-1.5317953281514285
16730,13.0,300.11903,61523.389,0.0,-0.08364955678022701,-0.08364843966584179,0.0,0.0,0.0,-4.630312208776236,-7.189781961376235,-6.881479745499174,0.001861526466418358,-0.005194402927597655,-1.5329579313161685
16731,13.0,300.13579,61524.029,0.0,-0.08365453827890801,-0.08365344187602886,0.0,0.0,0.0,-4.621716504202905,-7.196118118226564,-6.883933837241373,-0.0002714578179233007,-0.005776980191843555,-1.5371140805763486
16732,13.0,299.97935,61542.129,0.0,-0.08365955276764636,-0.08365844408621603,0.0,0.0,0.0,-4.635664499779465,-7.187434362219543,-6.884171545714833,-0.0014774759022155185,0.004969954756871345,-1.5363327634242385
16733,13.0,300.1122,61539.407999999996,0.0,-0.08366453426632725,-0.08366344629640321,0.0,0.0,0.0,-4.634534117967905,-7.186318267234394,-6.885591007779924,-0.0010484229493962888,0.009617401936763671,-1.5327726078728785
16734,13.0,299.97226,61468.285,0.0,-0.08366954875506571,-0.08366844850659017,0.0,0.0,0.0,-4.624848460262005,-7.185899693618084,-6.874075724368453,-0.007334790311012443,0.0035799912392926268,-1.5434788110794986
16735,13.0,299.77002000000005,61458.486,0.0,-0.08367456324380407,-0.08367345071677734,0.0,0.0,0.0,-4.620555623563336,-7.185918438744934,-6.875370860646274,-0.001249827583698379,0.0019139313562903182,-1.5451058880900785
16736,13.0,299.84917,61554.861,0.0,-0.08367954474248496,-0.08367842001768688,0.0,0.0,0.0,-4.630747703669216,-7.195772802592484,-6.884620314184123,0.003597196327315637,0.002225170477582228,-1.5390746181948385
16737,13.0,299.89565,61606.632000000005,0.0,-0.08368455923122342,-0.08368342222787384,0.0,0.0,0.0,-4.6338547337758555,-7.198560050967563,-6.894463025655523,0.005632578373717204,0.004292043121191675,-1.5338249694267385
16738,13.0,300.12246,61588.886,0.0,-0.08368954072990409,-0.08368842443806102,0.0,0.0,0.0,-4.642661397020005,-7.196386426853042,-6.882435746968524,0.0048068023403444555,-0.006307370111013964,-1.5293272535578486
16739,13.0,300.29601,61564.5,0.0,-0.08369455521864266,-0.08369342664824797,0.0,0.0,0.0,-4.640119557819146,-7.193405242408823,-6.880545832882004,-0.002820227841984817,-0.006466646440608313,-1.5317246032944485
16740,13.0,300.15944,61571.84,0.0,-0.08369953671732355,-0.08369842885843515,0.0,0.0,0.0,-4.641221669952916,-7.189747612197843,-6.8853324263544025,0.0014069297825531587,0.0022367257843726477,-1.5329530677156884
16741,13.0,300.08071,61585.809,0.0,-0.0837045512060618,-0.0837034310686221,0.0,0.0,0.0,-4.630948428514025,-7.195673909382723,-6.893925699127493,-0.005064771965454075,-0.00036105655544350766,-1.5361254524537786
16742,13.0,300.22405,61597.888,0.0,-0.08370956569480026,-0.08370843327880917,0.0,0.0,0.0,-4.6331644064827255,-7.198729365059273,-6.8923259798696135,0.004159184957479595,-0.006720085824520834,-1.5386364888515984
16743,13.0,300.04577,61548.498,0.0,-0.08371454719348126,-0.08371343548899624,0.0,0.0,0.0,-4.622611710666256,-7.193921898634813,-6.892673018028864,-0.0037511498514846663,-0.004801948771040445,-1.5459444538728384
16744,13.0,300.06226000000004,61523.898,0.0,-0.08371956168221972,-0.0837184376991833,0.0,0.0,0.0,-4.634415263731175,-7.193775078695323,-6.873538296515414,0.008065173103120611,0.008613503628561621,-1.5417446335333485
16745,13.0,299.91008999999997,61570.387,0.0,-0.08372454318090061,-0.08372343990937048,0.0,0.0,0.0,-4.635749511462855,-7.197073511745852,-6.883037110902873,-0.0022821169570524076,0.002313281997003158,-1.5361378141049986
16746,13.0,300.03699,61645.640999999996,0.0,-0.08372955766963908,-0.08372844211955766,0.0,0.0,0.0,-4.6423148654858055,-7.205596464962003,-6.890824241896404,8.920515977061381e-05,-0.008055757679216381,-1.5396572370023385
16747,13.0,299.97076,61634.059,0.0,-0.08373453916831997,-0.08373344432974461,0.0,0.0,0.0,-4.635237212212296,-7.206497548275933,-6.893480071733514,-0.002747923429423927,-0.000879514228653796,-1.5378001522190585
16748,13.0,300.11452,61634.975,0.0,-0.08373955365705832,-0.08373844653993179,0.0,0.0,0.0,-4.641844920089426,-7.204563760460084,-6.889084795449734,0.0025386248675677674,0.011467642418268188,-1.5362772373187585
16749,13.0,299.86535,61658.538,0.0,-0.08374453515573921,-0.08374344875011874,0.0,0.0,0.0,-4.641318739312496,-7.204048826759263,-6.897288372234364,0.0004258981783678776,0.005094480154411045,-1.5341303630068786
16750,13.0,299.99519,61671.959,0.0,-0.08374954964447767,-0.08374845096030592,0.0,0.0,0.0,-4.652174700883895,-7.204299707484022,-6.890261178815834,-0.0039026935629408663,-0.0018061264092507983,-1.5358627167028485
16751,13.0,299.9623,61647.359000000004,0.0,-0.08375456413321603,-0.08375342026121546,0.0,0.0,0.0,-4.6397984588624555,-7.207703619869964,-6.8917557227133335,-0.002155777436533668,0.004084768222435236,-1.5410269484875185
16752,13.0,299.99563,61593.122,0.0,-0.08375954563189691,-0.08375842247140242,0.0,0.0,0.0,-4.6293056461268955,-7.200783121686963,-6.8926823399297845,0.0005650296166290816,0.008117766153536142,-1.5432032070522985
16753,13.0,300.05867,61597.655999999995,0.0,-0.08376456012063538,-0.0837634246815896,0.0,0.0,0.0,-4.631766425319755,-7.2033824121684935,-6.8890003917164035,-0.0027384562284395878,-0.0028248399537899975,-1.5410587645406586
16754,13.0,300.15558,61683.117999999995,0.0,-0.08376954161931605,-0.08376842689177677,0.0,0.0,0.0,-4.643273400080405,-7.210815614902094,-6.896038730886034,-0.004451132100842536,-0.01092048432451789,-1.5423825757963086
16755,13.0,300.18748,61737.162000000004,0.0,-0.08377455610805451,-0.08377342910196373,0.0,0.0,0.0,-4.652288995495176,-7.211254250870383,-6.9030123233742735,-0.002082335853385548,-0.0030332822179866474,-1.5402295206588186
16756,13.0,300.22797,61703.779,0.0,-0.0837795376067354,-0.0837784313121509,0.0,0.0,0.0,-4.652587397649625,-7.205129154015884,-6.898691520972844,0.0035037024233635066,0.0024756178352744575,-1.5309576742937585
16757,13.0,300.03814,61686.285,0.0,-0.08378455209547397,-0.08378343352233786,0.0,0.0,0.0,-4.644509869177436,-7.208053596454503,-6.898526867831594,-0.0016768698430191687,-0.0017714671763301984,-1.5325579001766885
16758,13.0,299.88471,61730.56,0.0,-0.08378953359415486,-0.08378843573252492,0.0,0.0,0.0,-4.655514981163556,-7.205894259166393,-6.903139486261824,-0.0022276538522523178,-0.00988237990883996,-1.5358410331507086
16759,13.0,299.92329,61752.662000000004,0.0,-0.08379454808289333,-0.0837934379427121,0.0,0.0,0.0,-4.654373757575926,-7.213297773672062,-6.903595651456843,0.0007758050411684963,-0.0005287850120720175,-1.5410777123175285
16760,13.0,299.84492,61680.735,0.0,-0.08379956257163168,-0.08379844015289906,0.0,0.0,0.0,-4.644164958843395,-7.205706301272843,-6.899531910605783,0.0038086104540555866,0.007877588389582442,-1.5433518508419686
16761,13.0,300.01015,61620.861,0.0,-0.08380454407031257,-0.08380344236308623,0.0,0.0,0.0,-4.634253549015216,-7.204330408962052,-6.892619011798534,0.0015559212183324687,-0.0012520839903460688,-1.5434515546518086
16762,13.0,299.94441,61649.740999999995,0.0,-0.08380955855905103,-0.08380844457327319,0.0,0.0,0.0,-4.640317850863716,-7.205509021478374,-6.894154896300114,-0.0016420380536065384,-0.006137314522880784,-1.5475298863043085
16763,13.0,299.94931,61716.269,0.0,-0.08381454005773192,-0.08381344678346037,0.0,0.0,0.0,-4.636563353943176,-7.215596838148963,-6.908044427345904,-0.0011671713014908389,0.0022965950850812877,-1.5483752408627385
16764,13.0,300.0177,61763.71400000001,0.0,-0.08381955454647017,-0.08381844899364754,0.0,0.0,0.0,-4.648627717583836,-7.217517656363534,-6.908481442114034,0.003631535677179666,0.0016057688676020484,-1.5398961613759183
16765,13.0,300.14739,61754.297999999995,0.0,-0.08382453604515117,-0.08382341829455686,0.0,0.0,0.0,-4.644381490389765,-7.212021585171114,-6.915361410293034,0.0008652255074661092,-0.004440120706705796,-1.5393543765474487
16766,13.0,299.90628,61766.074,0.0,-0.08382955053388963,-0.08382842050474404,0.0,0.0,0.0,-4.650514186620016,-7.218623416197664,-6.906206594314523,0.00014086038743683785,-0.004212748194865876,-1.5363915319300385
16767,13.0,299.79977,61800.782,0.0,-0.08383456502262787,-0.08383342271493122,0.0,0.0,0.0,-4.656533196189045,-7.217931163729343,-6.911430101230044,-0.0005588683366135104,0.005396191887662676,-1.5401816952540985
16768,13.0,299.75622999999996,61812.879,0.0,-0.08383954652130876,-0.08383842492511817,0.0,0.0,0.0,-4.657041037139166,-7.218019924438103,-6.914510989484103,0.0008099719561305084,0.0060710081456118534,-1.5370012045152086
16769,13.0,299.85567000000003,61729.856,0.0,-0.08384456101004734,-0.08384342713530535,0.0,0.0,0.0,-4.641685637173706,-7.217677344579292,-6.904971949067673,-0.0045023147071188655,-0.004836191963469985,-1.5441547502212087
16770,13.0,299.80752,61705.705,0.0,-0.08384954250872823,-0.08384842934549241,0.0,0.0,0.0,-4.649641170333855,-7.212218966290593,-6.895133290596674,0.0003908449127483896,-0.004912903912640865,-1.5436049607169484
16771,13.0,299.908,61739.657,0.0,-0.08385455699746647,-0.08385343155567959,0.0,0.0,0.0,-4.646140492563365,-7.221140228121053,-6.900033469405284,0.0018164554807701984,0.004588007497226086,-1.5525090986207186
16772,13.0,300.11338,61774.16099999999,0.0,-0.08385953849614758,-0.08385843376586655,0.0,0.0,0.0,-4.657281177412866,-7.220531264810952,-6.899990000975994,0.006184860777198234,0.0005601408571490985,-1.5439986083807986
16773,13.0,299.98287999999997,61777.130999999994,0.0,-0.08386455298488593,-0.0838634359760535,0.0,0.0,0.0,-4.653795698393876,-7.218261280611923,-6.906648270033114,-0.0013314608886049585,-0.005479673360751655,-1.5414114769004683
16774,13.0,300.05939,61805.029,0.0,-0.08386953448356682,-0.08386843818624068,0.0,0.0,0.0,-4.663515806603176,-7.220358404343893,-6.903311434803794,0.0016612648795540784,0.0014008879748568788,-1.5405044154109484
16775,13.0,300.10341,61851.957,0.0,-0.08387454897230529,-0.08387344039642763,0.0,0.0,0.0,-4.661889438867665,-7.225329206684473,-6.914231940406564,-0.0018053136813455883,0.005460211156805885,-1.5418189047656787
16776,13.0,299.87032999999997,61858.182,0.0,-0.08387956346104353,-0.08387844260661481,0.0,0.0,0.0,-4.667509531872326,-7.222292293484752,-6.913541005163374,0.0009029582724450431,0.000968335924937315,-1.5432152647284885
16777,13.0,299.93505,61853.376,0.0,-0.08388454495972442,-0.08388344481680199,0.0,0.0,0.0,-4.652300343896295,-7.227740843247484,-6.921840536732472,-0.0016395810234390482,-0.0003489297249341826,-1.5461343369415788
16778,13.0,300.20505,61813.758,0.0,-0.08388955944846299,-0.08388844702698894,0.0,0.0,0.0,-4.655508395037906,-7.218209706181834,-6.916120841242983,0.004440673029335306,0.0016224996532532485,-1.5480392471295785
16779,13.0,300.05778,61777.693,0.0,-0.08389454094714388,-0.08389341632789848,0.0,0.0,0.0,-4.643407655718655,-7.224232870076273,-6.9112354558858335,0.005822315939742844,0.004259554067335256,-1.5453294110621385
16780,13.0,299.88479,61784.828,0.0,-0.08389955543588212,-0.08389841853808566,0.0,0.0,0.0,-4.649362323906336,-7.217158053903042,-6.914524567035444,0.0017426933052904383,-0.0026514369926264572,-1.5477322323492786
16781,13.0,299.70269,61867.572,0.0,-0.08390453693456301,-0.08390342074827262,0.0,0.0,0.0,-4.661416453720986,-7.225715153647563,-6.9190654473585935,0.0002316664124511948,-0.008281892911359192,-1.5406487022251885
16782,13.0,299.58999,61908.583,0.0,-0.08390955142330159,-0.0839084229584598,0.0,0.0,0.0,-4.6615513173092955,-7.235419049855263,-6.921693108842924,0.000880045982306276,-0.0002419233912259798,-1.5496549757390383
16783,13.0,299.91162,61890.236,0.0,-0.08391453292198225,-0.08391342516864686,0.0,0.0,0.0,-4.6623867420167455,-7.229041957700892,-6.921657746414434,-0.0017055606275507285,0.008814754451498532,-1.5419737293809588
16784,13.0,299.91316,61855.992999999995,0.0,-0.08391954741072072,-0.08391842737883404,0.0,0.0,0.0,-4.655388628876086,-7.228949042666723,-6.918339757636974,-0.002196767557404078,-0.004455246402873586,-1.5470776727846787
16785,13.0,299.97688,61871.568,0.0,-0.08392456189945918,-0.08392342958902121,0.0,0.0,0.0,-4.655322868944595,-7.224878107739953,-6.927210762262472,-0.003273296443374207,-0.0005670032859688675,-1.5343350395270785
16786,13.0,300.10855,61957.514,0.0,-0.08392954339814007,-0.08392843179920817,0.0,0.0,0.0,-4.661152502069936,-7.240000054882373,-6.932384518598084,0.0037004322256792266,0.0018203691592814486,-1.5435024198068286
16787,13.0,300.1163,61916.232,0.0,-0.08393455788687842,-0.08393343400939535,0.0,0.0,0.0,-4.662908261843215,-7.233778192643323,-6.924301822550384,0.0053127207497247145,0.002561048700230827,-1.5475853110847786
16788,13.0,300.04346,61823.65,0.0,-0.08393953938555954,-0.0839384362195823,0.0,0.0,0.0,-4.648187156440355,-7.229977592843234,-6.914681215500903,-0.002238554194178098,-0.002960128701841957,-1.5530941492284587
16789,13.0,300.04697999999996,61827.123,0.0,-0.08394455387429778,-0.08394343842976926,0.0,0.0,0.0,-4.643998785826995,-7.233286259719773,-6.916616523191903,-0.0032873083750320766,-0.004868007712634956,-1.5486822556430384
16790,13.0,299.97709,61879.547999999995,0.0,-0.08394953537297867,-0.08394844063995643,0.0,0.0,0.0,-4.658049727613716,-7.233010047742514,-6.918777583005183,-0.005228448232282665,-0.002111932888806548,-1.5506416786864186
16791,13.0,299.89586,61908.76,0.0,-0.08395454986171724,-0.08395344285014339,0.0,0.0,0.0,-4.654244466863166,-7.238145604549353,-6.926327106850263,-0.003803776845778546,0.005142017796102645,-1.5441734953480586
16792,13.0,299.79219,61884.405999999995,0.0,-0.08395956435045548,-0.08395844506033057,0.0,0.0,0.0,-4.6637541230266955,-7.233166189582923,-6.914393959097553,-0.004679200918151175,-0.0017016889989186284,-1.5430427082364586
16793,13.0,299.74024,61908.072,0.0,-0.08396454584913637,-0.08396341436124011,0.0,0.0,0.0,-4.665697840693525,-7.230963890490574,-6.921846210933034,-0.0027102965896104473,-0.004616499279438005,-1.5418199180157786
16794,13.0,299.96035,61984.049000000006,0.0,-0.08396956033787484,-0.08396841657142706,0.0,0.0,0.0,-4.677983194180995,-7.245595627234613,-6.918024535530863,-0.0005958595747717615,-0.00043982122772697553,-1.5471017881370586
16795,13.0,299.94032999999996,61994.094000000005,0.0,-0.08397454183655573,-0.08397341878161424,0.0,0.0,0.0,-4.668947739064266,-7.246583546082113,-6.929125298326423,0.0027053795908501773,0.0046065559522316755,-1.5501402212119286
16796,13.0,299.95859,61926.428,0.0,-0.08397955632529408,-0.0839784209918013,0.0,0.0,0.0,-4.664284154154005,-7.232811754697943,-6.926991798915863,0.003069254319061817,0.0012655113780212488,-1.5431647035484986
16797,13.0,299.97823999999997,61895.139,0.0,-0.08398453782397497,-0.08398342320198848,0.0,0.0,0.0,-4.651222245789896,-7.237263975637343,-6.926090614276923,0.005512128673379745,-0.0034984834760734365,-1.5467162464740087
16798,13.0,299.95568,61930.926,0.0,-0.08398955231271343,-0.08398842541217566,0.0,0.0,0.0,-4.669657419434305,-7.235244973488084,-6.920552695855373,0.0008157345728942343,0.0017759439179220182,-1.5450218896567884
16799,13.0,300.01491,61993.592000000004,0.0,-0.08399453381139432,-0.08399342762236262,0.0,0.0,0.0,-4.673823397220455,-7.242110553515663,-6.928570138596633,0.0020806276150419577,0.00014461362792725387,-1.5524446559143588
16800,13.0,300.00793,61986.079000000005,0.0,-0.08399954830013268,-0.08399842983254979,0.0,0.0,0.0,-4.671696990560595,-7.242447965798963,-6.928075368572804,-0.0048523902861936355,-0.005020971595431315,-1.5525284516976285
16801,13.0,300.05201,61940.489,0.0,-0.08400456278887114,-0.08400343204273675,0.0,0.0,0.0,-4.660865245666586,-7.240554910637134,-6.9269417443609225,0.00019892350904722177,-0.002609225905385547,-1.5451105490405384
16802,13.0,300.10454,61981.15900000001,0.0,-0.08400954428755203,-0.08400843425292392,0.0,0.0,0.0,-4.664099337335766,-7.247893475811393,-6.928731751987584,-0.0016782830229336383,0.0005636331148112575,-1.5486614840159885
16803,13.0,300.11998,62037.733,0.0,-0.0840145587762905,-0.08401343646311088,0.0,0.0,0.0,-4.670493148116786,-7.243549672632693,-6.943878929057494,0.007112193044243804,0.006684693707802903,-1.5425874549665286
16804,13.0,300.02952,62018.727999999996,0.0,-0.0840195402749715,-0.08401843867329795,0.0,0.0,0.0,-4.677278985361496,-7.245357310811094,-6.9295085095142435,-0.00030949427422220674,-0.0015757883170181986,-1.5473667530382087
16805,13.0,299.92266,61977.445999999996,0.0,-0.08402455476370974,-0.08402344088348501,0.0,0.0,0.0,-4.669435720312425,-7.240592907515884,-6.929567581995074,-5.923012126730785e-05,-0.0008195075109665943,-1.5499216631653585
16806,13.0,299.95634,61977.322,0.0,-0.08402953626239063,-0.08402844309367208,0.0,0.0,0.0,-4.666486655896375,-7.241602712565542,-6.931468945807723,-0.008074658947906793,-0.0026400546476281076,-1.5594538134811087
16807,13.0,299.89466,61994.789000000004,0.0,-0.08403455075112909,-0.08403344530385926,0.0,0.0,0.0,-4.661919836370666,-7.245729882872863,-6.9372181268751225,0.0023970741325727977,0.004072499891549446,-1.5551318965045686
16808,13.0,299.99891,62032.996,0.0,-0.08403953224980998,-0.0840384146047688,0.0,0.0,0.0,-4.662178823096226,-7.244788168229923,-6.949514828763713,-0.0023547963734753077,0.0007630188381565964,-1.5516979919156684
16809,13.0,300.06995,62055.507000000005,0.0,-0.08404454673854833,-0.08404341681495575,0.0,0.0,0.0,-4.668799804549666,-7.248108386157603,-6.946416411282924,0.005340416016033025,0.0007566173672048203,-1.5481372284142485
16810,13.0,299.99679,62048.733,0.0,-0.0840495612272868,-0.08404841902514293,0.0,0.0,0.0,-4.675503771186295,-7.248703467941334,-6.937058134684334,-0.00032010253667416074,-0.0008576997747333773,-1.5450259426571884
16811,13.0,300.10416000000004,62072.865999999995,0.0,-0.08405454272596768,-0.0840534212353301,0.0,0.0,0.0,-4.680958907074675,-7.248100584131834,-6.939541712004444,0.0012555679494899088,0.00015833943802188584,-1.5529135880606384
16812,13.0,300.15696,62092.357,0.0,-0.08405955721470604,-0.08405842344551706,0.0,0.0,0.0,-4.681789164206616,-7.254722781485392,-6.938014136153684,-0.0011181601915038189,-0.007717828739690392,-1.5450031445299384
16813,13.0,300.08215,62088.982,0.0,-0.08406453871338693,-0.08406342565570424,0.0,0.0,0.0,-4.674199009032526,-7.255038003591503,-6.944263052170403,0.002228985060233698,-0.003304726144251077,-1.5452089356252485
16814,13.0,299.95046,62035.509000000005,0.0,-0.08406955320212539,-0.0840684278658912,0.0,0.0,0.0,-4.664161956191945,-7.253485603113293,-6.939598150035014,0.0026804190865617676,0.005710498623632334,-1.5489757941970086
16815,13.0,299.85388,62010.5,0.0,-0.08407453470080628,-0.08407343007607837,0.0,0.0,0.0,-4.667827895053746,-7.247403366738023,-6.934412234698203,0.0038369179260743166,0.007111000347551093,-1.5468191926841686
16816,13.0,299.70833,62052.92,0.0,-0.08407954918954474,-0.08407843228626555,0.0,0.0,0.0,-4.679496179230315,-7.247574808654942,-6.935467332027333,0.0013137993314118986,-0.0013176368135156288,-1.5485429337542884
16817,13.0,299.85407999999995,62103.718,0.0,-0.0840845636782831,-0.0840834344964525,0.0,0.0,0.0,-4.682652351966805,-7.256383295749273,-6.938944097095464,-2.7938992474113874e-05,-0.002909745752544547,-1.5551330110796786
16818,13.0,300.01137,62100.162000000004,0.0,-0.08408954517696399,-0.08408843670663968,0.0,0.0,0.0,-4.681627753465686,-7.253743475263743,-6.941527479550424,-0.0025956176525675175,0.0029148813093513876,-1.5639844599782486
16819,13.0,300.13167999999996,62094.913,0.0,-0.08409455966570245,-0.08409343891682663,0.0,0.0,0.0,-4.675472360433195,-7.254916514904513,-6.944914268009673,-0.0015621864476757985,0.0036267865739609663,-1.5554548193114384
16820,13.0,300.05064,62118.83900000001,0.0,-0.08409954116438334,-0.0840984411270137,0.0,0.0,0.0,-4.672486312388496,-7.265254097724752,-6.944835639801913,-0.004000010560845306,0.0005787118367044115,-1.5528308055274684
16821,13.0,300.09157000000005,62153.295999999995,0.0,-0.0841045556531217,-0.08410344333720088,0.0,0.0,0.0,-4.6805004114044255,-7.2622864908318725,-6.950263012637553,0.004766369608354055,0.0010087538229462511,-1.5474311957445686
16822,13.0,300.22392,62140.458,0.0,-0.08410953715180258,-0.08410841263811042,0.0,0.0,0.0,-4.679098782541096,-7.265324417281693,-6.944724486265944,0.0013042418498436486,0.00039504591859049665,-1.5535524422486884
16823,13.0,300.09636,62088.244000000006,0.0,-0.08411455164054105,-0.08411341484829737,0.0,0.0,0.0,-4.674583740095496,-7.2627477222773935,-6.935944471499424,-0.0008182329132683012,-0.0005935437308732055,-1.5519240480129786
16824,13.0,299.82122999999996,62081.944,0.0,-0.08411953313922194,-0.08411841705848455,0.0,0.0,0.0,-4.6773769666461655,-7.255450193732183,-6.938533629479953,-0.003928973724159517,-0.004747793694270756,-1.5497725127506383
16825,13.0,299.74962,62121.667,0.0,-0.08412454762796029,-0.0841234192686715,0.0,0.0,0.0,-4.669553054674005,-7.262460364549034,-6.951422272076964,0.0028348021274481874,-0.0004685038251977275,-1.5558684280022586
16826,13.0,299.85545,62157.124,0.0,-0.08412956211669875,-0.08412842147885868,0.0,0.0,0.0,-4.6757761328131755,-7.261600723164193,-6.956836877961343,0.0017391392292396785,0.0032756107066026063,-1.5492314371972384
16827,13.0,299.8696,62153.663,0.0,-0.08413454361537964,-0.08413342368904564,0.0,0.0,0.0,-4.676538806163446,-7.262055773784103,-6.954566995087323,0.003622054999968996,0.00020756753551782082,-1.5524828554431285
16828,13.0,299.72621000000004,62129.624,0.0,-0.084139558104118,-0.08413842589923282,0.0,0.0,0.0,-4.684225726722086,-7.258236124882134,-6.943392467684484,-0.004138690150356916,-0.0030194829675247673,-1.5452701359312884
16829,13.0,299.53741,62151.33,0.0,-0.084144539602799,-0.08414342810942,0.0,0.0,0.0,-4.683466903722196,-7.259266397583813,-6.949718897333853,0.002443480075227708,-0.0037216149282947968,-1.5590231821886087
16830,13.0,299.84135,62232.81,0.0,-0.08414955409153735,-0.08414843031960695,0.0,0.0,0.0,-4.693508212213196,-7.269128360807113,-6.954583713713974,0.003817627873320536,-0.002155433438124718,-1.5594769155833885
16831,13.0,299.97736000000003,62219.28,0.0,-0.08415453559021824,-0.08415343252979413,0.0,0.0,0.0,-4.682877901439065,-7.266518532524543,-6.963711070614774,0.0005522734666151475,-0.0024389600678566175,-1.5559557701608784
16832,13.0,300.07253,62148.779,0.0,-0.0841595500789567,-0.08415843473998119,0.0,0.0,0.0,-4.678961791127576,-7.261482274227502,-6.9512328956332725,-0.0032470773811365873,-0.0021150280638870178,-1.5527196519914985
16833,13.0,299.97017999999997,62148.443,0.0,-0.08416453157763759,-0.08416343695016837,0.0,0.0,0.0,-4.682751650476605,-7.259663084997964,-6.949159887253684,-0.0025802353001493973,-0.00010109007681856381,-1.5545116861183585
16834,13.0,300.07655,62209.017,0.0,-0.08416954606637594,-0.08416843916035532,0.0,0.0,0.0,-4.692919007280045,-7.263317574133633,-6.953751328756824,-0.004495805791126486,0.000973285560483306,-1.5539703065899286
16835,13.0,300.18135,62225.522000000004,0.0,-0.08417456055511441,-0.08417344137054228,0.0,0.0,0.0,-4.6894953365171546,-7.271105617052252,-6.954403963146235,-0.0018000146872976183,0.0006817610437370765,-1.5539187321598384
16836,13.0,299.94772,62177.343,0.0,-0.0841795420537953,-0.08417841067145204,0.0,0.0,0.0,-4.672918463556146,-7.265728805396602,-6.961712333467514,-0.006778532522089073,-0.0038149024332015564,-1.5593157074924784
16837,13.0,299.85595,62236.083,0.0,-0.08418455654253365,-0.08418341288163911,0.0,0.0,0.0,-4.6788571223922455,-7.278041212661743,-6.961316861953484,-0.0020856581991384377,0.0014591828875601387,-1.5555278746436485
16838,13.0,300.09256,62318.950999999994,0.0,-0.08418953804121454,-0.08418841509182617,0.0,0.0,0.0,-4.688797207198255,-7.283472638497784,-6.971135052772464,0.0027041757484063673,0.008206514703294941,-1.5559436111596785
16839,13.0,300.08761,62278.541,0.0,-0.084194552529953,-0.08419341730201313,0.0,0.0,0.0,-4.695606957145325,-7.276192639179302,-6.959321772506583,0.008550635918157062,0.005706310556994005,-1.5476089198121086
16840,13.0,300.2985,62227.822,0.0,-0.0841995340286339,-0.08419841951220008,0.0,0.0,0.0,-4.685869927659355,-7.276362155921034,-6.953471975704253,0.0003523364946854047,-0.0017909520770782084,-1.5522809146981984
16841,13.0,300.22575,62231.843,0.0,-0.08420454851737225,-0.08420342172238726,0.0,0.0,0.0,-4.6926894048073855,-7.267798774025893,-6.956438062721984,-0.001857160675712488,-0.005848456272447694,-1.5485430350792986
16842,13.0,300.05352999999997,62260.154,0.0,-0.08420956300611071,-0.08420842393257444,0.0,0.0,0.0,-4.689038563372075,-7.272849521799364,-6.963644196108174,0.0007334980903356251,-0.0024023805233464976,-1.5586872897804585
16843,13.0,300.05647999999997,62316.71400000001,0.0,-0.0842145445047916,-0.0842134261427614,0.0,0.0,0.0,-4.696823161240355,-7.278204345927843,-6.967697297833183,-0.0015733167973742785,-0.0026000339031283675,-1.5537043284386785
16844,13.0,299.95012,62270.894,0.0,-0.08421955899352984,-0.08421842835294857,0.0,0.0,0.0,-4.694946216755116,-7.269286833122753,-6.964563923223944,-0.001112042998000099,-0.009072979314308342,-1.5583997294020786
16845,13.0,299.7868,62199.105,0.0,-0.08422454049221095,-0.08422343056313564,0.0,0.0,0.0,-4.686081088980195,-7.271696544510574,-6.9491970735323525,-0.005513276685743046,-0.003835558549740156,-1.5629588482270287
16846,13.0,300.06052,62260.560999999994,0.0,-0.0842295549809493,-0.08422843277332281,0.0,0.0,0.0,-4.695550721764775,-7.274889092925652,-6.955216285751404,-0.001997425292355528,0.005294451445121675,-1.5564252089322086
16847,13.0,299.90995,62318.005999999994,0.0,-0.0842345364796302,-0.08423343498350999,0.0,0.0,0.0,-4.6922091242599855,-7.280269349631642,-6.970639269498534,0.00029736017870966473,0.004481414599956186,-1.5547779682446385
16848,13.0,300.04086,62304.672,0.0,-0.08423955096836866,-0.08423843719369695,0.0,0.0,0.0,-4.6886402547577655,-7.283414579267052,-6.967009706315323,0.0024789114047245077,-0.002996604185566807,-1.5531866589625882
16849,13.0,299.96443999999997,62291.487,0.0,-0.08424453246704955,-0.08424343940388412,0.0,0.0,0.0,-4.682098610787155,-7.279467260852484,-6.973490757929953,0.006757061448495043,6.306729129000705e-05,-1.5589431354307086
16850,13.0,299.95218,62299.432,0.0,-0.0842495469557879,-0.08424844161407108,0.0,0.0,0.0,-4.693778446014866,-7.283282654104034,-6.9604105097390345,0.011202488039349489,0.0036972285315130466,-1.5531358951325784
16851,13.0,300.09727999999996,62327.837999999996,0.0,-0.08425456144452637,-0.08425341091498062,0.0,0.0,0.0,-4.693171306554945,-7.281908585643422,-6.971026432361744,0.004534452061865576,0.0006223899581026065,-1.5544655832388086
16852,13.0,300.16911,62342.095,0.0,-0.08425954294320726,-0.0842584131251678,0.0,0.0,0.0,-4.693986567585405,-7.282411866968093,-6.9740419659843536,-0.0028237760411849973,-0.005773589755683944,-1.5546243595294786
16853,13.0,299.93212,62295.575999999994,0.0,-0.0842645574319455,-0.08426341533535475,0.0,0.0,0.0,-4.681307566434087,-7.281270238080424,-6.973721880277764,-0.0065351049610896435,-0.001892863150936048,-1.5627461670310385
16854,13.0,300.21676,62304.207,0.0,-0.08426953893062639,-0.08426841754554171,0.0,0.0,0.0,-4.687595289929637,-7.276935351502603,-6.974392651843963,-0.004391363719843855,0.004764718415991095,-1.5596285991233587
16855,13.0,300.09712,62306.567,0.0,-0.08427455341936496,-0.08427341975572888,0.0,0.0,0.0,-4.691137814929255,-7.280749224879003,-6.967753533213735,-0.006984539743645403,0.0009018582374739783,-1.5632999082106884
16856,13.0,299.94014,62345.413,0.0,-0.08427953491804585,-0.08427842196591584,0.0,0.0,0.0,-4.704875763760086,-7.280774454806492,-6.965798467145783,9.50320753591856e-05,-0.001913948682867028,-1.5549001662066986
16857,13.0,300.00562,62380.699,0.0,-0.08428454940678409,-0.08428342417610302,0.0,0.0,0.0,-4.7073390760781955,-7.284543035903423,-6.9702928392893435,-0.006724557803837183,-0.001150641645984489,-1.5568970795037786
16858,13.0,300.10139,62360.692,0.0,-0.0842895309054652,-0.08428842638629008,0.0,0.0,0.0,-4.695974969581646,-7.290996121815293,-6.969122028798794,0.0018498762180935682,0.005299934040087765,-1.5544293088852286
16859,13.0,300.07398,62358.218,0.0,-0.08429454539420356,-0.08429342859647726,0.0,0.0,0.0,-4.697065226689245,-7.281212178849693,-6.977063781757584,-0.0026126685239253075,0.0006399607990142135,-1.5543332527757485
16860,13.0,300.12431000000004,62433.097,0.0,-0.0842995598829418,-0.08429843080666444,0.0,0.0,0.0,-4.702254080451346,-7.290863892677244,-6.984984560439303,0.01169480397143729,-0.0034052396422459864,-1.5609465335284285
16861,13.0,300.06273999999996,62416.697,0.0,-0.08430454138162291,-0.08430343301685139,0.0,0.0,0.0,-4.706943199264126,-7.291179722733413,-6.974994421078353,0.01099209070908489,-0.0018251515984284384,-1.5611724883007285
16862,13.0,299.93754,62358.329000000005,0.0,-0.08430955587036137,-0.08430843522703857,0.0,0.0,0.0,-4.703840120832876,-7.287654625635513,-6.9638802833814735,0.013445866317253686,0.0004049292208609026,-1.5655221683300085
16863,13.0,299.88914,62342.77,0.0,-0.08431453736904215,-0.08431343743722552,0.0,0.0,0.0,-4.700719411849886,-7.2858882267361835,-6.964037843772023,-0.0014370564438014285,-0.0026200543065542274,-1.5599165648017785
16864,13.0,299.7733,62336.912000000004,0.0,-0.08431955185778062,-0.0843184396474127,0.0,0.0,0.0,-4.691898157804296,-7.286379450384663,-6.970587087118384,-0.006411372735728224,-0.004464856573447036,-1.5573807037765086
16865,13.0,299.80502,62397.314000000006,0.0,-0.0843245333564615,-0.08432340894832224,0.0,0.0,0.0,-4.699687213973016,-7.2922352253625835,-6.975302955733802,-0.007301637375690503,0.0076423824412194235,-1.5601117167710385
16866,13.0,300.06583,62435.592000000004,0.0,-0.08432954784519975,-0.0843284111585092,0.0,0.0,0.0,-4.700050869433905,-7.294897540000333,-6.983912541833503,-0.0039499669490063866,0.007780777712752972,-1.5602612724857985
16867,13.0,300.03103,62384.617,0.0,-0.08433456233393832,-0.08433341336869637,0.0,0.0,0.0,-4.699410090070666,-7.292369582325843,-6.9715860503919735,-0.0012709627648842588,0.0013858272280204986,-1.5619956526819685
16868,13.0,300.17502,62397.239,0.0,-0.08433954383261921,-0.08433841557888355,0.0,0.0,0.0,-4.702163191917375,-7.295132006073473,-6.9699076016013235,-0.00037803504021415366,-0.005300026144521855,-1.5596361984991085
16869,13.0,300.03538,62483.137,0.0,-0.08434455832135745,-0.08434341778907051,0.0,0.0,0.0,-4.711311117795205,-7.298270446933213,-6.9837319806656835,0.0041073087815098165,-0.0017512223380071882,-1.5601858866783587
16870,13.0,300.08145,62473.89599999999,0.0,-0.08434953982003834,-0.08434841999925757,0.0,0.0,0.0,-4.699281407307965,-7.301685809045284,-6.989537093138602,0.006305969799375764,-0.003915365167366456,-1.5561137358514685
16871,13.0,299.9626,62397.269,0.0,-0.08435455430877681,-0.08435342220944453,0.0,0.0,0.0,-4.683669553742195,-7.295489784683783,-6.988052276442063,0.00097564971614663,-0.003478791669655007,-1.5601766661024485
16872,13.0,300.06569,62424.694,0.0,-0.08435953580745781,-0.0843584244196317,0.0,0.0,0.0,-4.692688796857325,-7.289088577177033,-6.993770857356444,0.0034654703692652967,-0.0039356475972681755,-1.5573488877233685
16873,13.0,299.97904,62486.205,0.0,-0.08436455029619605,-0.08436342662981888,0.0,0.0,0.0,-4.705627088709236,-7.299138599618893,-6.989480249807993,0.002089631659405588,0.004197247089536036,-1.5631517710460685
16874,13.0,299.96656,62482.069,0.0,-0.08436953179487716,-0.08436842884000584,0.0,0.0,0.0,-4.716642738496396,-7.294292021740573,-6.982053937175073,-0.00023119936495010079,0.0014950454562994986,-1.5652877022568685
16875,13.0,299.64831000000004,62443.503,0.0,-0.08437454628361563,-0.08437343105019302,0.0,0.0,0.0,-4.708093542102655,-7.291039691569594,-6.982132362732814,-0.007882649371181922,-0.008128892652884242,-1.5590774923939683
16876,13.0,299.65984,62466.395,0.0,-0.08437956077235398,-0.08437843326037997,0.0,0.0,0.0,-4.706903783835236,-7.296857570993772,-6.984462939287823,-0.00951649509507994,-0.003285750199028297,-1.5573832369017586
16877,13.0,299.70329,62489.407999999996,0.0,-0.08438454227103487,-0.08438343547056715,0.0,0.0,0.0,-4.704170237715455,-7.296375567921203,-6.9946739671705735,-0.006080244629548425,0.007620905085474773,-1.5584955828615383
16878,13.0,299.79375,62506.475999999995,0.0,-0.08438955675977333,-0.08438843768075432,0.0,0.0,0.0,-4.707362076855466,-7.305112620883484,-6.987933118230304,0.0008749597809118072,0.004988128511989955,-1.5677718875270386
16879,13.0,299.79017999999996,62450.453,0.0,-0.084394538258454,-0.08439340698166364,0.0,0.0,0.0,-4.7047085774935855,-7.299164437496444,-6.979505511848564,-0.0017487271083109282,-0.002260727044791388,-1.5641982557493486
16880,13.0,299.70847000000003,62432.724,0.0,-0.08439955274719257,-0.08439840919185082,0.0,0.0,0.0,-4.7053463171065255,-7.297418810224163,-6.9752240235510135,-0.00036832390940073965,-0.003232309058279067,-1.5680595492304286
16881,13.0,299.98621,62495.231,0.0,-0.08440453424587346,-0.084403411402038,0.0,0.0,0.0,-4.703300565154625,-7.308179830261192,-6.985509322666093,0.0018867047181532583,0.00017808403477052585,-1.5666980450710586
16882,13.0,299.93661000000003,62528.791,0.0,-0.0844095487346117,-0.08440841361222495,0.0,0.0,0.0,-4.702089933935145,-7.310360851101444,-6.994740335052124,0.003312840048401857,-0.004492232463323826,-1.5618021219128686
16883,13.0,300.25472,62496.817,0.0,-0.0844145302332926,-0.08441341582241213,0.0,0.0,0.0,-4.692953761758475,-7.308033415621743,-6.996484746424284,0.001099219811359549,-0.008744826819697212,-1.5614864945067184
16884,13.0,300.11817,62498.166,0.0,-0.08441954472203106,-0.0844184180325992,0.0,0.0,0.0,-4.696265063085275,-7.312121069175164,-6.989495853859533,0.0024569333007804376,-0.001997248176238048,-1.5631045535914088
16885,13.0,299.89525,62567.935,0.0,-0.08442455921076941,-0.08442342024278615,0.0,0.0,0.0,-4.718445715724336,-7.312224319360352,-6.988419883578344,-0.0015505435960767385,0.007654358854751403,-1.5673449039348986
16886,13.0,299.91491,62604.299000000006,0.0,-0.0844295407094503,-0.08442842245297333,0.0,0.0,0.0,-4.730692363057986,-7.309358645427533,-6.990092860818453,-0.002067451614716588,0.001357816030331009,-1.5642326049277384
16887,13.0,300.23912,62529.878,0.0,-0.08443455519818877,-0.08443342466316028,0.0,0.0,0.0,-4.712287282941546,-7.305240898346144,-6.989993359658634,-0.00908974708358819,-0.0016442998304797586,-1.5635480531601784
16888,13.0,299.82194,62495.990999999995,0.0,-0.08443953669686988,-0.08443842687334746,0.0,0.0,0.0,-4.704327494130975,-7.305258427572873,-6.987634716075853,0.0013951841873939585,0.006776446037483153,-1.5625189963586184
16889,13.0,299.94689,62584.804000000004,0.0,-0.08444455118560823,-0.08444342908353442,0.0,0.0,0.0,-4.712410392828696,-7.310260944641583,-7.001546538623843,-0.003809177570136557,0.008845155804848912,-1.5663032828320984
16890,13.0,299.6646,62608.507000000005,0.0,-0.08444953268428912,-0.0844484312937216,0.0,0.0,0.0,-4.718255326030546,-7.312176493955633,-7.000991074919022,0.001845553287866928,0.0025470149836958073,-1.5677278111476884
16891,13.0,299.56287000000003,62585.488,0.0,-0.08445454717302758,-0.08445343350390877,0.0,0.0,0.0,-4.717949628475376,-7.3087607265435235,-6.997715237345724,-0.0053205089952933545,-0.005237057210432305,-1.5638000484600485
16892,13.0,299.75673,62624.551,0.0,-0.08445956166176583,-0.08445843571409573,0.0,0.0,0.0,-4.721435816769436,-7.312407312328413,-7.002456639863663,0.0037768173003678465,-0.004460645607356446,-1.5633932285448986
16893,13.0,299.61503,62618.84,0.0,-0.08446454316044671,-0.08446340501500527,0.0,0.0,0.0,-4.716171171899855,-7.3161902815767625,-7.002202516738583,0.0012246066741342689,-0.0007475669463841133,-1.5623568763426183
16894,13.0,299.80759,62587.901,0.0,-0.08446955764918529,-0.08446840722519244,0.0,0.0,0.0,-4.7089069792829354,-7.314016353487214,-7.002235751341864,0.0034885186679649866,-0.005651590897268594,-1.5583232290195286
16895,13.0,299.95993,62603.069,0.0,-0.08447453914786596,-0.0844734094353794,0.0,0.0,0.0,-4.711745194138046,-7.312460001333614,-7.005564480570384,0.002149388995978178,-0.006746073764410643,-1.5583646709486185
16896,13.0,300.03722999999997,62570.634000000005,0.0,-0.08447955363660442,-0.08447841164556658,0.0,0.0,0.0,-4.710759504440766,-7.3133485203463025,-6.995802423806944,0.0027572174659661773,0.004380453042767056,-1.5692650128743986
16897,13.0,299.88523,62551.038,0.0,-0.08448453513528531,-0.08448341385575364,0.0,0.0,0.0,-4.716510813333375,-7.311318068470913,-6.986124669451824,0.0032166664019102568,0.011749312773816889,-1.5723571482045686
16898,13.0,300.07156000000003,62632.66099999999,0.0,-0.08448954962402366,-0.08448841606594082,0.0,0.0,0.0,-4.719627165340936,-7.319552448058583,-6.999585190405273,-0.003881574492431576,0.0036959660218884465,-1.5764043730789985
16899,13.0,299.95517,62680.297999999995,0.0,-0.08449453112270455,-0.08449341827612789,0.0,0.0,0.0,-4.721767352202154,-7.3203398447112935,-7.011138268045473,-0.004593167270710316,0.004566537842182196,-1.5668113264322383
16900,13.0,300.08769,62643.297999999995,0.0,-0.08449954561144302,-0.08449842048631495,0.0,0.0,0.0,-4.709995919165405,-7.317477818478833,-7.014524651204683,0.00034493665827759764,0.0076535926350257836,-1.5713228225024884
16901,13.0,300.05269,62634.317,0.0,-0.08450456010018137,-0.0845034226965019,0.0,0.0,0.0,-4.705794477625755,-7.322441730718734,-7.011032282085014,0.006076382626792274,0.001908862167365028,-1.5674701416472585
16902,13.0,300.0894,62650.84,0.0,-0.08450954159886248,-0.08450842490668886,0.0,0.0,0.0,-4.718752426529605,-7.316000094532994,-7.0095384474625835,0.0027072831838130472,-0.0053409255795083144,-1.5647164318504885
16903,13.0,299.96938,62684.322,0.0,-0.08451455608760072,-0.08451342711687604,0.0,0.0,0.0,-4.725661677636496,-7.319633305416564,-7.0091737787515935,0.001000975041133545,-0.0089841158619882,-1.5595691213424885
16904,13.0,299.86972000000003,62698.642,0.0,-0.08451953758628183,-0.08451842932706322,0.0,0.0,0.0,-4.728844296200595,-7.323779423500753,-7.006197863207893,0.0028001162460499574,0.0014492002462499285,-1.5646550288944285
16905,13.0,299.85483999999997,62692.33900000001,0.0,-0.08452455207502008,-0.08452343153725017,0.0,0.0,0.0,-4.724953213166575,-7.322908636364813,-7.009043778763764,-0.0024170664689708876,0.003011942157630547,-1.5598018648904586
16906,13.0,299.79191000000003,62658.522000000004,0.0,-0.08452953357370097,-0.08452843374743735,0.0,0.0,0.0,-4.720551756057186,-7.328743842365703,-6.997330404957743,-0.005582936414217925,-0.006640718957437933,-1.5674086373661884
16907,13.0,299.95527999999996,62647.816,0.0,-0.08453454806243954,-0.08453343595762441,0.0,0.0,0.0,-4.714566487716486,-7.325253499746234,-7.003551760571743,-0.0007332981862233963,-0.0038167677253106466,-1.5718775769322384
16908,13.0,299.91747999999995,62721.378,0.0,-0.08453952956112021,-0.08453840525853384,0.0,0.0,0.0,-4.734217966780936,-7.323681340891072,-7.007833350194303,-0.0029061446616891473,0.006364261874978744,-1.5689679279450786
16909,13.0,299.94372999999996,62709.699,0.0,-0.08454454404985867,-0.08454340746872102,0.0,0.0,0.0,-4.727122682955685,-7.329766414366623,-7.005293537493644,0.0066239046799784936,0.007744800748077322,-1.5762963606183384
16910,13.0,300.10085,62620.85,0.0,-0.08454955853859714,-0.08454840967890809,0.0,0.0,0.0,-4.713631967149255,-7.317995893254963,-7.003546795646252,-0.005365127564771865,0.000895519324583376,-1.5689471563180284
16911,13.0,300.15157,62665.583,0.0,-0.08455454003727791,-0.08455341188909526,0.0,0.0,0.0,-4.711883502776695,-7.328850638926243,-7.008038128039514,-0.002636986931625347,-0.0012931709779260387,-1.5707019028412086
16912,13.0,300.09642,62757.275,0.0,-0.08455955452601638,-0.08455841409928244,0.0,0.0,0.0,-4.728849058476066,-7.329837240548614,-7.017958353143563,-0.0025957379253543876,0.0004986936119272275,-1.5644878426279285
16913,13.0,300.04427999999996,62737.807,0.0,-0.08456453602469727,-0.0845634163094694,0.0,0.0,0.0,-4.723453805668596,-7.334077894867134,-7.013195064423464,0.001866611259395188,-0.001180969032077569,-1.5695531812028385
16914,13.0,299.81862,62688.484000000004,0.0,-0.08456955051343562,-0.08456841851965657,0.0,0.0,0.0,-4.718491514628855,-7.338032407357413,-6.999209983893243,-0.000991259006189647,-0.008127897641286042,-1.5697681928740586
16915,13.0,299.8375,62716.077000000005,0.0,-0.08457453201211662,-0.08457342072984353,0.0,0.0,0.0,-4.717306315986886,-7.329259991966643,-7.017554978278752,-0.0024080047706765677,-0.01104656506096109,-1.5707742488983485
16916,13.0,299.95748,62771.608,0.0,-0.08457954650085497,-0.08457842294003048,0.0,0.0,0.0,-4.7282466812916155,-7.334465767005413,-7.018288976651193,-0.004971099324184305,0.000977965570177687,-1.5711417547096185
16917,13.0,299.97825,62798.473,0.0,-0.08458456098959333,-0.08458342515021766,0.0,0.0,0.0,-4.732679042529055,-7.337585260088283,-7.018903310186824,-0.004997255666240735,-0.001000307937532707,-1.5748804449285985
16918,13.0,299.95025,62768.070999999996,0.0,-0.08458954248827433,-0.08458842736040473,0.0,0.0,0.0,-4.730539564942905,-7.329641480629292,-7.019745118369903,0.0008941200971227832,-0.006267577145136704,-1.5717181926915087
16919,13.0,299.85247999999996,62729.566,0.0,-0.08459455697701268,-0.0845934295705918,0.0,0.0,0.0,-4.726119869331716,-7.331228736910943,-7.010873100494303,0.004921179936807646,-0.005913175697410004,-1.5709424484149486
16920,13.0,299.86785,62764.316,0.0,-0.08459953847569379,-0.08459843178077886,0.0,0.0,0.0,-4.727165948734956,-7.327921893884583,-7.023696895084913,0.0035823181681472766,0.0035257478071142167,-1.5678898298386785
16921,13.0,299.87244,62848.57,0.0,-0.08460455296443203,-0.08460343399096604,0.0,0.0,0.0,-4.739710390272996,-7.333630544947983,-7.0310550159861025,0.0043437943634241265,0.005240852136031835,-1.5639342027732885
16922,13.0,300.04835,62824.431,0.0,-0.08460953446311292,-0.08460840329187547,0.0,0.0,0.0,-4.729836268048495,-7.335161971149123,-7.032059957435284,-0.0048286687841275055,-0.0002750785455656387,-1.5649924411777285
16923,13.0,300.06732,62722.872,0.0,-0.08461454895185139,-0.08461340550206253,0.0,0.0,0.0,-4.723233221121825,-7.325103842706462,-7.017849732732843,-0.0038347547384358265,0.002054818919094838,-1.5685277721016384
16924,13.0,300.01454,62768.932,0.0,-0.08461953045053217,-0.08461840771224971,0.0,0.0,0.0,-4.729681139458186,-7.3355401160864435,-7.014966630898303,-0.002699954041864717,0.00019083286911873783,-1.5744628845623885
16925,13.0,299.98553,62836.487,0.0,-0.08462454493927063,-0.08462340992243689,0.0,0.0,0.0,-4.748244590565255,-7.335621986694522,-7.0168564436598135,-0.0018445545272433581,0.0007679720099454364,-1.5745821440991585
16926,13.0,299.96442,62797.698,0.0,-0.0846295594280091,-0.08462841213262384,0.0,0.0,0.0,-4.731503469763036,-7.338529406531463,-7.018899257186423,-0.003399262479906087,-0.002225311927296188,-1.5735114427184884
16927,13.0,300.17894,62752.763,0.0,-0.08463454092668987,-0.08463341434281102,0.0,0.0,0.0,-4.718693961998836,-7.338464558525063,-7.018114393658963,0.001170487263768099,-0.0028810604395635275,-1.5754802889877986
16928,13.0,300.29097,62818.432,0.0,-0.08463955541542834,-0.08463841655299797,0.0,0.0,0.0,-4.722100407510025,-7.3431774887151935,-7.029956754202713,0.0009360523176711711,0.006815811513143224,-1.5723143890503486
16929,13.0,300.10552,62891.937999999995,0.0,-0.08464453691410923,-0.08464341876318515,0.0,0.0,0.0,-4.735439034476445,-7.351286326615472,-7.030853277891193,0.0008834248268847422,0.0072049432226225325,-1.5747709125927885
16930,13.0,300.14076,62923.105,0.0,-0.08464955140284747,-0.08464842097337233,0.0,0.0,0.0,-4.741307677730636,-7.347762344092683,-7.037982606919804,-0.0009248400568346072,0.0009065631224583141,-1.5725846228520184
16931,13.0,300.08787,62868.814000000006,0.0,-0.08465453290152858,-0.08465342318355928,0.0,0.0,0.0,-4.735904116272345,-7.344011190897472,-7.030634213219574,0.00014011984346875187,-0.005626595942476785,-1.5731475846075784
16932,13.0,299.84155,62783.53,0.0,-0.08465954739026693,-0.08465842539374635,0.0,0.0,0.0,-4.7242805164251855,-7.338243973978293,-7.022100924852403,0.004579617279773035,0.0009347495516200983,-1.5695656441790684
16933,13.0,300.02077,62829.373,0.0,-0.08466452888894804,-0.0846634276039333,0.0,0.0,0.0,-4.722932792467176,-7.3414889074235425,-7.034138842665453,0.004010032212284366,0.0016249012586402685,-1.5667679593279584
16934,13.0,300.20448,62904.988,0.0,-0.08466954337768628,-0.08466842981412048,0.0,0.0,0.0,-4.7397580130276955,-7.341989655622964,-7.039798047123973,-0.004566215020700336,-0.0019942707408191983,-1.5707300711939884
16935,13.0,300.0325,62899.405999999995,0.0,-0.08467455786642475,-0.08467343202430766,0.0,0.0,0.0,-4.7395055111027755,-7.349007729790593,-7.031335686263803,0.003328610678258297,-0.004486828496565496,-1.5725982004033585
16936,13.0,299.83423,62844.674000000006,0.0,-0.08467953936510564,-0.08467840132521709,0.0,0.0,0.0,-4.740239205500186,-7.345444939788973,-7.017527620526053,-0.0013449369122849387,0.008012637605310761,-1.5772177089342685
16937,13.0,299.81552,62873.982,0.0,-0.08468455385384399,-0.08468340353540416,0.0,0.0,0.0,-4.744921231562265,-7.348669202932182,-7.018530130174994,0.007024373239526664,0.003659763507740536,-1.5759915749882587
16938,13.0,299.81665,62950.373,0.0,-0.08468953535252488,-0.08468840574559133,0.0,0.0,0.0,-4.750683483555955,-7.353623894596173,-7.031034143034043,-0.008274294548859293,-0.011981717896253487,-1.5701905155157383
16939,13.0,300.01342999999997,62950.917,0.0,-0.08469454984126334,-0.08469340795577829,0.0,0.0,0.0,-4.743528924599855,-7.354124034845533,-7.0378537215070835,-0.0009885919900714333,-0.008828812790010982,-1.5698572575578484
16940,13.0,300.00245,62899.35,0.0,-0.08469953133994412,-0.08469841016596547,0.0,0.0,0.0,-4.735218044629637,-7.350824588544903,-7.033789170055943,-0.004179447527679355,0.0035529030111192263,-1.5701017548069784
16941,13.0,300.00819,62856.609000000004,0.0,-0.08470454582868259,-0.08470341237615242,0.0,0.0,0.0,-4.733283446213705,-7.347106669952972,-7.026449490306573,0.007527758624981932,0.008911149999762032,-1.5715268910726286
16942,13.0,299.99658999999997,62880.934,0.0,-0.08470956031742105,-0.0847084145863396,0.0,0.0,0.0,-4.739568636584005,-7.3490723751469735,-7.025592686022014,0.0007424423630758563,0.002186905391530758,-1.5803958691979285
16943,13.0,300.2873,62921.177,0.0,-0.08471454181610172,-0.08471341679652677,0.0,0.0,0.0,-4.737486914253555,-7.3500573555691835,-7.038922193737533,0.006719474632060514,-0.0003642184023805576,-1.5773431492966485
16944,13.0,300.09702999999996,62903.530999999995,0.0,-0.0847195563048403,-0.08471841900671373,0.0,0.0,0.0,-4.732858894421805,-7.350311276044243,-7.037932451039852,0.0049270754311894855,-0.0003286873285439137,-1.5805079346589885
16945,13.0,299.91191000000003,62858.2,0.0,-0.08472453780352118,-0.08472342121690091,0.0,0.0,0.0,-4.724773259948816,-7.352102094270983,-7.030447977851193,0.003865431391838376,0.00027587224463397077,-1.5801130710950186
16946,13.0,299.93528,62924.593,0.0,-0.08472955229225942,-0.08472842342708797,0.0,0.0,0.0,-4.739378652190255,-7.351638228375203,-7.036488063022303,-0.005792548982280074,-0.004757957099398805,-1.5786161967222885
16947,13.0,299.75266,63006.91099999999,0.0,-0.08473453379094054,-0.08473342563727493,0.0,0.0,0.0,-4.755516686532955,-7.360062187056583,-7.036948787842772,-0.004091205704295566,-0.0006440032616131734,-1.5794224398268586
16948,13.0,299.78962,63028.428,0.0,-0.084739548279679,-0.0847384278474621,0.0,0.0,0.0,-4.7570014019044855,-7.362551843877292,-7.039515147696053,-0.007601179335177993,0.01031588508259859,-1.5739731807890587
16949,13.0,299.86579,62973.27099999999,0.0,-0.08474452977835989,-0.08474343005764906,0.0,0.0,0.0,-4.746662197884087,-7.355173052674064,-7.040466893514984,0.003268327262233787,0.0012925880551435088,-1.5749805540384785
16950,13.0,299.94405,62945.362,0.0,-0.08474954426709824,-0.08474843226783624,0.0,0.0,0.0,-4.739702892222255,-7.353343933593543,-7.040771476495044,0.0009831229827891841,-0.012485249493698189,-1.5687293075465285
16951,13.0,300.19617,63007.905,0.0,-0.0847545587558367,-0.08475340156874578,0.0,0.0,0.0,-4.748365369977176,-7.351706318781923,-7.052758225178042,0.0005425489507679125,-0.0062805855538955345,-1.5681832670676383
16952,13.0,300.27737,62990.776,0.0,-0.0847595402545176,-0.08475840377893273,0.0,0.0,0.0,-4.738534716181966,-7.356148508545333,-7.0529396982709525,0.007261657870469833,0.0020638420125603484,-1.5680298610024985
16953,13.0,299.99172999999996,62931.285,0.0,-0.08476455474325595,-0.08476340598911991,0.0,0.0,0.0,-4.736185698475135,-7.355546941960964,-7.037806605377434,0.0049503729894137755,0.004584073249737806,-1.5742442251908084
16954,13.0,299.99106,62959.522000000004,0.0,-0.08476953624193684,-0.08476840819930687,0.0,0.0,0.0,-4.740109306837366,-7.352936303078312,-7.045076877494953,-0.001948950799621468,0.004862484182364826,-1.5796592363752286
16955,13.0,299.79233,63056.164000000004,0.0,-0.0847745507306753,-0.08477341040949404,0.0,0.0,0.0,-4.755357099642206,-7.367065771747784,-7.045076573519924,-0.0025914289779791276,0.0020372638544872883,-1.5775054719626684
16956,13.0,299.88945,63099.637,0.0,-0.08477953222935597,-0.08477841261968122,0.0,0.0,0.0,-4.756941316173555,-7.368949707658714,-7.054822924906813,-0.0018001076023317884,0.00955323047745544,-1.5789741779826183
16957,13.0,300.08833,63057.414000000004,0.0,-0.08478454671809454,-0.08478341482986818,0.0,0.0,0.0,-4.750331683121236,-7.367845467699733,-7.0497021615514335,-0.0024115326035497376,-0.0005221428638239884,-1.5751735781825285
16958,13.0,300.08662000000004,62965.372,0.0,-0.08478952821677543,-0.08478841704005535,0.0,0.0,0.0,-4.737525721732386,-7.367297806020684,-7.035077314908074,0.001965964788675618,-0.005122482739474685,-1.5805980125928785
16959,13.0,300.00268,63000.691,0.0,-0.08479454270551368,-0.08479341925024242,0.0,0.0,0.0,-4.750033078316766,-7.361842974107333,-7.038760985646624,-0.0017849250628333884,-0.0003472964265679887,-1.5763147004451485
16960,13.0,300.01558,63059.355,0.0,-0.08479955719425214,-0.0847984214604296,0.0,0.0,0.0,-4.753140615048455,-7.369811071568722,-7.045517742613464,0.0024926100394514574,0.003775693504681936,-1.5802930243127786
16961,13.0,299.96238,62999.232,0.0,-0.08480453869293325,-0.08480342367061677,0.0,0.0,0.0,-4.742979439070625,-7.366303503697552,-7.040910595733773,0.000918899108053281,-0.006325239283152514,-1.5831827122729683
16962,13.0,300.035,62963.435,0.0,-0.0848095531816716,-0.08480842588080373,0.0,0.0,0.0,-4.735974435829286,-7.361124073161384,-7.0422134327123524,0.002927055813277917,-0.015011448166014588,-1.5824021043959287
16963,13.0,300.21711,63054.890999999996,0.0,-0.0848145346803525,-0.08481342809099068,0.0,0.0,0.0,-4.748801270170195,-7.369779964790652,-7.048531249735873,0.0078031566584366024,-0.006711071647656204,-1.5819563756769384
16964,13.0,299.97071,63121.547999999995,0.0,-0.08481954916909096,-0.08481843030117764,0.0,0.0,0.0,-4.763621268782815,-7.365195413388194,-7.058557764775413,0.004358340075234676,0.0018646260997992681,-1.5672398298995287
16965,13.0,299.9275,63116.357,0.0,-0.08482453066777185,-0.0848233996020874,0.0,0.0,0.0,-4.760464082796226,-7.366794220720983,-7.058538209048484,-0.001214106768648009,0.0019061677326991078,-1.5736803515101587
16966,13.0,300.01559,63107.403,0.0,-0.0848295451565102,-0.08482840181227436,0.0,0.0,0.0,-4.758636382265846,-7.369279824541294,-7.055158412014923,-0.007118708445036822,0.0015081434363671687,-1.5708648334572883
16967,13.0,299.97604,63101.037000000004,0.0,-0.08483455964524866,-0.08483340402246153,0.0,0.0,0.0,-4.757003023104645,-7.3648489831790025,-7.059287507497434,-0.003948595514996036,0.01042133098075529,-1.5773579427481086
16968,13.0,299.87837,63136.149000000005,0.0,-0.08483954114392955,-0.08483840623264849,0.0,0.0,0.0,-4.764186257038576,-7.375912559695893,-7.051713969624984,-0.005916116351850224,0.012491749493089687,-1.5781392599002184
16969,13.0,299.86366,63104.435,0.0,-0.0848445556326678,-0.08484340844283567,0.0,0.0,0.0,-4.756722048851916,-7.369472747360333,-7.055977827370794,-0.006689288695681394,0.001025000254784649,-1.5818315432646184
16970,13.0,299.95374,63036.574,0.0,-0.0848495371313488,-0.08484841065302262,0.0,0.0,0.0,-4.748901480605086,-7.368687174557803,-7.0439558175843136,-0.005134598373570405,-0.0062323918327641835,-1.5802214888557184
16971,13.0,300.14516000000003,63043.782,0.0,-0.08485455162008726,-0.0848534128632098,0.0,0.0,0.0,-4.741543967653955,-7.373382879496234,-7.048808576288243,1.5947822980927586e-05,0.0008269487791709901,-1.5854517845469085
16972,13.0,300.0236,63105.922999999995,0.0,-0.08485953311876793,-0.08485841507339686,0.0,0.0,0.0,-4.749305058119916,-7.368414103655852,-7.064905877976924,0.0069531145010689735,0.004703676987566775,-1.5805808886661883
16973,13.0,300.15801,63171.655,0.0,-0.08486454760750639,-0.08486341728358404,0.0,0.0,0.0,-4.7561960707250055,-7.382816035277214,-7.063593719097423,0.006981595238854804,-0.007467464569831373,-1.5859823222992684
16974,13.0,300.2289,63157.988,0.0,-0.0848695291061875,-0.08486841949377122,0.0,0.0,0.0,-4.751345845146326,-7.3805298390765826,-7.0665755114917035,0.004788144150353035,-0.00897297771026395,-1.5880974818830185
16975,13.0,300.07917000000003,63092.069,0.0,-0.08487454359492586,-0.08487342170395817,0.0,0.0,0.0,-4.7470301089953955,-7.377501639827723,-7.053881818213934,0.004694069755418615,0.0014137875605549687,-1.5791035700203884
16976,13.0,300.10267999999996,63123.199,0.0,-0.0848795580836641,-0.08487842391414535,0.0,0.0,0.0,-4.753269095161135,-7.379816409681173,-7.054790804878643,0.0011458727843888389,0.0023855783035632476,-1.5797168903059184
16977,13.0,300.13838,63194.183,0.0,-0.08488453958234521,-0.0848834261243323,0.0,0.0,0.0,-4.767631206053566,-7.375239660304484,-7.066582908217434,-0.003315196057534377,0.00013058613274784787,-1.5733259166251785
16978,13.0,299.94202,63161.473,0.0,-0.08488955407108356,-0.08488842833451948,0.0,0.0,0.0,-4.756603093290175,-7.382126518584163,-7.060780936819823,-0.0034392643779539663,-0.003147506509709707,-1.5844348867465485
16979,13.0,300.18408,63151.541,0.0,-0.08489453556976445,-0.08489339763542902,0.0,0.0,0.0,-4.759813069606975,-7.379071569532663,-7.057607133531594,0.0014530346886033585,0.00870394724441271,-1.5812092050531985
16980,13.0,300.09807,63140.965,0.0,-0.08489955005850292,-0.08489839984561598,0.0,0.0,0.0,-4.757979188250986,-7.376072450561674,-7.059225293941294,0.005480333797166835,0.006903020530700084,-1.5869475443445287
16981,13.0,299.75527,63198.303,0.0,-0.0849045315571838,-0.08490340205580316,0.0,0.0,0.0,-4.776519638580786,-7.382233821769752,-7.0519527926735535,0.0036801254777751066,-0.003535515234103187,-1.5786892520544986
16982,13.0,300.08146,63257.253,0.0,-0.08490954604592205,-0.08490840426599011,0.0,0.0,0.0,-4.772071571966795,-7.383893018808503,-7.072660888942284,-0.0007270447004487252,-0.0052086139629001745,-1.5746657372324087
16983,13.0,300.14464,63182.834,0.0,-0.08491452754460294,-0.08491340647617718,0.0,0.0,0.0,-4.760480598772855,-7.385791342870853,-7.059731918991294,0.00015053970219711183,0.0012642867639503887,-1.5749662672120686
16984,13.0,300.02381,63153.305,0.0,-0.08491954203334151,-0.08491840868636424,0.0,0.0,0.0,-4.745220545641805,-7.384469051490353,-7.067338286166984,0.0018206233837315385,0.001782012982045988,-1.5763503668486685
16985,13.0,300.25718,63245.472,0.0,-0.08492455652207975,-0.08492341089655131,0.0,0.0,0.0,-4.7713088986165255,-7.381572068129444,-7.072163383143184,-0.0037314259250380666,-0.0054958551674986755,-1.5802169292302686
16986,13.0,300.04703,63266.512,0.0,-0.08492953802076064,-0.08492841310673849,0.0,0.0,0.0,-4.772041377113816,-7.388768271664653,-7.070630133091864,0.0030076989701867773,-0.0050489695195444955,-1.5832527278548787
16987,13.0,299.84672,63186.420999999995,0.0,-0.08493455250949922,-0.08493341531692566,0.0,0.0,0.0,-4.763531089523916,-7.380998467247833,-7.062564560970853,-0.00016961877601506985,0.003694133457757587,-1.5842858376568385
16988,13.0,299.8691,63158.12,0.0,-0.0849395340081801,-0.08493841752711262,0.0,0.0,0.0,-4.748794481394525,-7.384266401470352,-7.065430437553693,0.008027917315493753,0.007276885195622654,-1.5869908101237984
16989,13.0,299.79986,63185.715,0.0,-0.08494454849691835,-0.0849434197372998,0.0,0.0,0.0,-4.754187201076745,-7.381228778995563,-7.071463733949134,0.0007169077512807863,-0.008583419422492543,-1.5837204441010384
16990,13.0,299.68657,63252.549000000006,0.0,-0.08494952999559946,-0.08494842194748675,0.0,0.0,0.0,-4.763298852600995,-7.384653766983583,-7.079242961591883,0.0003266272087055957,-0.008016225827889892,-1.5871208101116285
16991,13.0,299.98643,63256.633,0.0,-0.0849545444843377,-0.08495342415767393,0.0,0.0,0.0,-4.762327348405115,-7.393477858129453,-7.0726317073394025,-0.006961867056757783,0.0006144475667962534,-1.5944369824586786
16992,13.0,300.01455,63208.268,0.0,-0.08495955897307605,-0.0849584263678611,0.0,0.0,0.0,-4.766138789981275,-7.382912395361722,-7.064683976205023,0.0015475689977581687,0.0065279121012797635,-1.5861557907163883
16993,13.0,300.12537000000003,63247.335999999996,0.0,-0.08496454047175717,-0.08496339566877043,0.0,0.0,0.0,-4.771000059986045,-7.390876946447763,-7.063733851586252,-0.003953330939338386,-0.0020023591110674577,-1.5838500387888286
16994,13.0,300.01429,63295.745,0.0,-0.08496955496049541,-0.0849683978789576,0.0,0.0,0.0,-4.774827713563805,-7.391685520027563,-7.073812751655964,0.0018526932560215884,-0.001089456741346009,-1.5757239756368484
16995,13.0,299.98201,63289.096,0.0,-0.0849745364591763,-0.08497340008914478,0.0,0.0,0.0,-4.769986911211055,-7.388731288036002,-7.079586554700794,-0.0009967699518935351,0.004279275359331596,-1.5771103044236685
16996,13.0,299.91517999999996,63258.787000000004,0.0,-0.08497955094791487,-0.08497840229933173,0.0,0.0,0.0,-4.757673592020826,-7.396905885867772,-7.0745122995250025,0.004549977890497856,0.005621971772995415,-1.5797112161053586
16997,13.0,299.85683,63258.306,0.0,-0.08498453244659576,-0.0849834045095188,0.0,0.0,0.0,-4.764252016970066,-7.391594530168582,-7.073098815635502,-0.007620340299869034,-0.004361515398398056,-1.5826574434211287
16998,13.0,299.84378,63311.498,0.0,-0.084989546935334,-0.08498840671970576,0.0,0.0,0.0,-4.7821698251134155,-7.3932269774046935,-7.069717600051803,0.005705072568021824,-0.004567081146885816,-1.5875527586292586
16999,13.0,299.85385,63323.666,0.0,-0.0849945284340149,-0.08499340892989293,0.0,0.0,0.0,-4.783354314480316,-7.395707210999474,-7.0697515439301535,-0.0002870469240243257,0.008189691813209653,-1.5828261495627785
17000,13.0,299.77281,63278.405999999995,0.0,-0.08499954292275347,-0.08499841114008011,0.0,0.0,0.0,-4.769801283792736,-7.390010516287252,-7.075243663447183,-0.0013121134858955189,0.005592459850582814,-1.5825205533326183
17001,13.0,299.5867,63266.94,0.0,-0.08500455741149171,-0.08500341335026707,0.0,0.0,0.0,-4.762440021816236,-7.3981267509132635,-7.071003211778684,-0.004961168257304185,-0.01207362575982409,-1.5783951055504684
17002,13.0,299.87467999999996,63331.767,0.0,-0.0850095389101726,-0.08500841556045424,0.0,0.0,0.0,-4.770046895616975,-7.399510141274792,-7.081718635561214,0.0005659442977593535,-0.0027068356312438774,-1.5897203032431786
17003,13.0,299.96419,63332.789000000004,0.0,-0.08501455339891106,-0.0850134177706412,0.0,0.0,0.0,-4.777117050839745,-7.400003695398502,-7.074465588695393,0.005607228781390395,0.006043929745964425,-1.5873531483595584
17004,13.0,300.0113,63286.403,0.0,-0.08501953489759195,-0.08501841998082837,0.0,0.0,0.0,-4.769727215210425,-7.402101224430512,-7.065657608226114,0.002339958035035878,0.001042731219609559,-1.5981904661291184
17005,13.0,299.98309,63306.747,0.0,-0.0850245493863303,-0.08502342219101555,0.0,0.0,0.0,-4.770404370252255,-7.399120546611343,-7.074145502988802,-0.007710439613336143,-0.006235896968835114,-1.5869643642961884
17006,13.0,299.91355,63304.199,0.0,-0.08502953088501142,-0.08502842440120251,0.0,0.0,0.0,-4.7630958986059655,-7.398651209165022,-7.081148885029984,-0.006290022256051864,-0.0036611389947512865,-1.5900517373508884
17007,13.0,300.0085,63330.369000000006,0.0,-0.08503454537374966,-0.08503342661138968,0.0,0.0,0.0,-4.768995142013176,-7.3993993930388635,-7.082456382959022,0.004017893006560166,0.003086162018180477,-1.5808837491210785
17008,13.0,300.2739,63344.629,0.0,-0.08503952687243055,-0.08503839591229923,0.0,0.0,0.0,-4.763533622649166,-7.400245456872364,-7.091406421092323,0.0018257792055403784,0.001910366438463488,-1.5777786441896284
17009,13.0,300.05001,63347.245,0.0,-0.08504454136116912,-0.08504339812248618,0.0,0.0,0.0,-4.7706185713233955,-7.405805970771143,-7.079556055872784,0.004909943094523655,-0.007584154099047733,-1.5853652529883684
17010,13.0,299.86949,63399.85,0.0,-0.08504955584990737,-0.08504840033267336,0.0,0.0,0.0,-4.774129989544946,-7.404785526595433,-7.093055890930113,0.0025984397567460375,0.0008199794929956751,-1.5864691889723186
17011,13.0,299.84397,63461.837,0.0,-0.08505453734858825,-0.08505340254286042,0.0,0.0,0.0,-4.788861126123795,-7.407347022848234,-7.094605555633053,0.007839254402524172,0.008747146757126172,-1.5839217768959086
17012,13.0,299.73014,63445.337999999996,0.0,-0.08505955183732672,-0.0850584047530476,0.0,0.0,0.0,-4.780801329528355,-7.407214692385173,-7.097782601321603,-0.0016005885251407885,0.0014392813383710087,-1.5801260406962985
17013,13.0,299.98408,63383.155999999995,0.0,-0.08506453333600761,-0.08506340696323456,0.0,0.0,0.0,-4.775246185855106,-7.400050102253084,-7.091600357161463,-0.007492328714035273,-0.008697628008839053,-1.5855010285017686
17014,13.0,299.99955,63357.761,0.0,-0.08506954782474596,-0.08506840917342151,0.0,0.0,0.0,-4.7712484075855555,-7.403756165818843,-7.084172727303414,-0.005257620310611725,-0.0025374015707220377,-1.5847368352763485
17015,13.0,299.9162,63393.672999999995,0.0,-0.08507452932342685,-0.08507341138360869,0.0,0.0,0.0,-4.785277463170115,-7.399902978338563,-7.084913109151484,0.0035733879897159363,0.004655347085621986,-1.5911878946880185
17016,13.0,299.85841,63421.182,0.0,-0.08507954381216531,-0.08507841359379564,0.0,0.0,0.0,-4.788126317151275,-7.404338683301334,-7.085990700632833,0.003754868378026656,-0.00044636373296017055,-1.5817735853588983
17017,13.0,299.95456,63407.712999999996,0.0,-0.08508455830090367,-0.08508341580398282,0.0,0.0,0.0,-4.7813046108530255,-7.411198690453363,-7.081858160099984,0.0014624732146098687,-0.011799839503303489,-1.5963026798678086
17018,13.0,299.98555,63455.765,0.0,-0.08508953979958456,-0.08508841801417,0.0,0.0,0.0,-4.781547892202036,-7.410999586808713,-7.096420489212172,0.00032411420660258174,0.0005376821281525945,-1.5839678797754586
17019,13.0,300.07741,63444.25,0.0,-0.08509455428832302,-0.08509342022435695,0.0,0.0,0.0,-4.776773660380855,-7.417901339864864,-7.090792796831763,-0.0015172710972429985,0.005515516880389135,-1.5899980350955885
17020,13.0,300.2049,63447.433,0.0,-0.08509953578700391,-0.08509842243454413,0.0,0.0,0.0,-4.779862553310705,-7.409194988380613,-7.097377706581643,0.0027300133219813377,-0.006048854445425454,-1.5765583870941986
17021,13.0,300.10373,63470.249,0.0,-0.08510455027574237,-0.0851034246447312,0.0,0.0,0.0,-4.780962638944276,-7.4160035224275624,-7.096404682510614,-0.0007509024441233012,-0.009697684173986912,-1.5949049013548586
17022,13.0,300.04228,63449.3,0.0,-0.08510953177442326,-0.08510839394564063,0.0,0.0,0.0,-4.778389794290355,-7.415035260632003,-7.093577917381634,0.0026000884159837474,0.007525788765462523,-1.5871443175139486
17023,13.0,299.88514,63439.882000000005,0.0,-0.08511454626316162,-0.0851133961558278,0.0,0.0,0.0,-4.777859459188016,-7.413043413585424,-7.093237161373002,0.0015160685720243187,0.013549292807961088,-1.5970471147162786
17024,13.0,299.95561000000004,63483.532999999996,0.0,-0.0851195277618425,-0.08511839836601487,0.0,0.0,0.0,-4.7857184296136355,-7.411770467484793,-7.099920052407553,-0.0003213846830856987,0.0012141671583539688,-1.5852337331253883
17025,13.0,299.97449,63504.335,0.0,-0.08512454225058097,-0.08512340057620205,0.0,0.0,0.0,-4.795861063114637,-7.409201878481293,-7.098669195159102,-0.0038699504872843765,-0.005508044566201675,-1.5920426724723786
17026,13.0,299.99149,63458.394,0.0,-0.08512955673931932,-0.08512840278638922,0.0,0.0,0.0,-4.786017642368166,-7.414337131313103,-7.0894125475455425,0.004412838137163215,0.005687331572020925,-1.5835161728808784
17027,13.0,299.87742000000003,63473.727,0.0,-0.08513453823800021,-0.08513340499657618,0.0,0.0,0.0,-4.789364508773475,-7.413491270129623,-7.091572188808684,0.0020319759048654084,0.0037180764562955767,-1.5871149332610484
17028,13.0,300.08044,63561.044,0.0,-0.08513955272673868,-0.08513840720676313,0.0,0.0,0.0,-4.798024656053165,-7.418919757540373,-7.104025741812753,-0.003548782528262567,-0.009183238859715111,-1.5853473184615985
17029,13.0,300.0154,63554.62,0.0,-0.08514453422541957,-0.08514340941695009,0.0,0.0,0.0,-4.794198015725505,-7.423949936336813,-7.100869670401273,-0.0013684564736061388,-0.01178120380746429,-1.5904318074633985
17030,13.0,300.2124,63507.92,0.0,-0.08514954871415792,-0.08514841162713727,0.0,0.0,0.0,-4.783608842905435,-7.4215334361733225,-7.099679608158824,0.004974052238950736,0.007058301108525083,-1.5932862343201086
17031,13.0,300.11863,63467.655999999995,0.0,-0.08515453021283881,-0.08515341383732444,0.0,0.0,0.0,-4.778946372570286,-7.415589103136663,-7.098047262247723,-0.00026283348903464576,0.007804438622463123,-1.5884743095952085
17032,13.0,300.09887000000003,63463.355,0.0,-0.08515954470157727,-0.0851584160475114,0.0,0.0,0.0,-4.776948446023105,-7.416824255008564,-7.097502437668952,0.0008141650180918311,-0.007275747417085364,-1.5904792275680786
17033,13.0,300.08734,63546.73,0.0,-0.08516452620025816,-0.08516341825769858,0.0,0.0,0.0,-4.786941422484335,-7.4225589465995325,-7.107118890393023,0.0015869616285209187,-0.005336266148923465,-1.5911590170601684
17034,13.0,299.8332,63550.149000000005,0.0,-0.08516954068899663,-0.08516842046788564,0.0,0.0,0.0,-4.785067011124346,-7.424860949501722,-7.107730690803403,0.004302655598764046,0.007880918537361102,-1.5953380657726086
17035,13.0,299.66303,63504.818,0.0,-0.08517455517773498,-0.08517342267807282,0.0,0.0,0.0,-4.778812623557085,-7.421893545258863,-7.103172889203583,0.002400993687934628,0.005102220270599935,-1.5922286038657285
17036,13.0,299.9695,63536.579000000005,0.0,-0.08517953667641587,-0.08517839197898225,0.0,0.0,0.0,-4.782981033143475,-7.4245193828930125,-7.106032990260853,-0.00994340066696224,-0.0035552788799537065,-1.5959784398358086
17037,13.0,299.91161,63587.767,0.0,-0.08518455116515433,-0.08518339418916931,0.0,0.0,0.0,-4.799078233507145,-7.426851276673152,-7.103163871277694,0.0029973304832384873,-0.0013862744766146389,-1.5935895000750384
17038,13.0,300.00131,63541.394,0.0,-0.08518953266383522,-0.08518839639935649,0.0,0.0,0.0,-4.788922833054886,-7.422756530369034,-7.103317783967884,0.0026281735809305378,0.008680372055661021,-1.5942292661881785
17039,13.0,300.12594,63486.125,0.0,-0.08519454715257357,-0.08519339860954367,0.0,0.0,0.0,-4.778011041402975,-7.423257785193503,-7.096927823537244,0.0004890845660613885,0.005083924317519265,-1.5887941926517786
17040,13.0,300.12551,63530.448,0.0,-0.08519952865125446,-0.08519840081973062,0.0,0.0,0.0,-4.784238172542545,-7.422509297344634,-7.104922366826243,-0.01097832165347599,-0.01113782039146729,-1.5958459067227286
17041,13.0,300.24352000000005,63664.647000000004,0.0,-0.08520454313999293,-0.0852034030299178,0.0,0.0,0.0,-4.803630766206445,-7.433779982181963,-7.115052436026002,-0.004036735304094756,0.0017289666035357183,-1.5895366010000485
17042,13.0,300.33679,63664.064000000006,0.0,-0.08520955762873128,-0.08520840524010476,0.0,0.0,0.0,-4.8061435251294355,-7.433370933116593,-7.112771407400884,-0.0033141629477324167,0.008057889658751793,-1.5922888922466785
17043,13.0,300.11446,63609.501,0.0,-0.08521453912741217,-0.08521340745029193,0.0,0.0,0.0,-4.798624804087395,-7.4307044641534326,-7.106370706519185,0.007823727864616822,-0.0024491656241888275,-1.5858417845103985
17044,13.0,300.03833,63596.865999999995,0.0,-0.08521955361615063,-0.08521840966047889,0.0,0.0,0.0,-4.791409044825255,-7.4274508167573225,-7.1129993886733835,-0.0025835417378757175,-0.011661975681447388,-1.5883676143596785
17045,13.0,300.14389,63653.93,0.0,-0.08522453511483152,-0.08522341187066595,0.0,0.0,0.0,-4.798956136870095,-7.435927464443903,-7.1143217813788935,0.00994883959084902,-0.007310861497975853,-1.5890864139806185
17046,13.0,300.02291,63676.097,0.0,-0.08522954960356988,-0.08522841408085302,0.0,0.0,0.0,-4.800653330787596,-7.435817425483042,-7.119472840912263,0.006226881474745354,0.0013280408655424287,-1.5898218309031984
17047,13.0,299.98322,63590.651,0.0,-0.08523453110225088,-0.08523341629104009,0.0,0.0,0.0,-4.789897680976096,-7.426565742794972,-7.113506722998452,0.005795000135596985,-0.0008610600869675141,-1.5969564288323286
17048,13.0,299.94559,63503.97900000001,0.0,-0.08523954559098923,-0.08523841850122726,0.0,0.0,0.0,-4.781948733941595,-7.423100934078023,-7.098574152299723,-0.002439503169910218,-0.003146897039774557,-1.6002579016331586
17049,13.0,299.83724,63580.384000000005,0.0,-0.08524452708967012,-0.08524342071141444,0.0,0.0,0.0,-4.791367805546186,-7.431635235695293,-7.103845991245014,-0.0025809405222189975,0.006650786306456505,-1.6060948301592184
17050,13.0,299.9676,63704.802,0.0,-0.08524954157840858,-0.0852484229216014,0.0,0.0,0.0,-4.804985785565175,-7.442429490335603,-7.117253620543243,-0.004436508875399336,0.006852504035039494,-1.5970909884456086
17051,13.0,299.91156,63643.81,0.0,-0.08525455606714694,-0.08525339222251094,0.0,0.0,0.0,-4.790847704269855,-7.439028516374953,-7.116252833419473,-0.0038097937275223663,-0.002270601268340898,-1.5958296947211286
17052,13.0,300.02266000000003,63604.508,0.0,-0.08525953756582783,-0.08525839443269811,0.0,0.0,0.0,-4.781841228105986,-7.440718921516783,-7.111622179137464,-0.002532473730185698,-0.0043612622885230755,-1.5933405445254682
17053,13.0,300.22441000000003,63702.962,0.0,-0.08526455205456629,-0.08526339664288507,0.0,0.0,0.0,-4.801745817045416,-7.444638882178652,-7.117725288464793,0.0010745468674495191,-0.0002303590057146638,-1.5955366627922085
17054,13.0,300.25473999999997,63768.077000000005,0.0,-0.08526953355324718,-0.08526839885307225,0.0,0.0,0.0,-4.818645612813295,-7.440377354908073,-7.124880252720933,0.0037541568738064363,0.005086813194879376,-1.5857191812482985
17055,13.0,300.09337999999997,63696.995,0.0,-0.08527454804198553,-0.0852734010632592,0.0,0.0,0.0,-4.809897211449895,-7.436050878306083,-7.116347977603864,-0.0006390345465677995,-0.007470456596051664,-1.5935009420162984
17056,13.0,300.28622,63670.392,0.0,-0.08527952954066642,-0.08527840327344638,0.0,0.0,0.0,-4.796701148772545,-7.4360585790068425,-7.121449691857364,0.006444584844856004,-0.004413953117573256,-1.5886115036587485
17057,13.0,299.80377000000004,63671.222,0.0,-0.08528454402940489,-0.08528340548363356,0.0,0.0,0.0,-4.798687220293555,-7.431683365075044,-7.124091133543053,-0.003252323888829377,0.0037453775683149865,-1.5883752137354286
17058,13.0,299.92011,63734.542,0.0,-0.08528952552808577,-0.08528840769382051,0.0,0.0,0.0,-4.802249908970166,-7.439895655810533,-7.131563650380533,0.0017863611422001184,0.002332909968665288,-1.5942840830185883
17059,13.0,299.90749,63717.599,0.0,-0.08529454001682413,-0.08529340990400758,0.0,0.0,0.0,-4.809406494426466,-7.431411206098184,-7.1277412657032935,-0.008172729297260583,-0.0049637074620547846,-1.5981015027703385
17060,13.0,299.93772,63666.055,0.0,-0.08529955450556259,-0.08529841211419453,0.0,0.0,0.0,-4.802072286227636,-7.4368160847816025,-7.114002607597394,0.003077314926257337,6.487698636611004e-05,-1.6026587977451086
17061,13.0,300.00563999999997,63668.59099999999,0.0,-0.08530453600424348,-0.08530341432438171,0.0,0.0,0.0,-4.8012535801468355,-7.441563262825113,-7.1108451176357725,0.0022584479413414577,0.0035388996920872073,-1.6038823985658683
17062,13.0,300.19652,63749.663,0.0,-0.08530955049298172,-0.08530841653456889,0.0,0.0,0.0,-4.805515310067436,-7.448855725119822,-7.123934789052623,0.0004210816636200246,0.006113787463508844,-1.5991267092215184
17063,13.0,299.90645,63788.96599999999,0.0,-0.08531453199166283,-0.08531341874475584,0.0,0.0,0.0,-4.807959775933686,-7.455631733838564,-7.126661141096693,-0.0015844591034239386,-0.0014748100412024187,-1.5917812539465785
17064,13.0,300.06899,63745.575999999994,0.0,-0.08531954648040119,-0.08531842095494302,0.0,0.0,0.0,-4.801767804572586,-7.450084189541063,-7.125211484178623,0.0015337405656934086,-0.006903775098049554,-1.5935540363215384
17065,13.0,300.32327999999995,63709.754,0.0,-0.08532452797908208,-0.08532339025585256,0.0,0.0,0.0,-4.7941965971753655,-7.451652903345884,-7.120324680271334,0.0009288567018210191,-0.004115199162688535,-1.5931254315292385
17066,13.0,300.2573,63735.443,0.0,-0.08532954246782054,-0.08532839246603952,0.0,0.0,0.0,-4.802357110830745,-7.452529668657413,-7.119096317175103,0.0004320976781772206,-0.008041346020394061,-1.5972437865606883
17067,13.0,300.04402000000005,63798.871,0.0,-0.085334556956559,-0.08533339467622669,0.0,0.0,0.0,-4.8078064711935555,-7.447761111036792,-7.137696042635754,-0.0018240363140433681,-0.0024286391023380176,-1.5960183618897485
17068,13.0,299.99672000000004,63742.401,0.0,-0.08533953845523978,-0.08533839688641365,0.0,0.0,0.0,-4.8008661133085955,-7.444875172101973,-7.130357072161453,0.0013733323344123488,0.004664777201652665,-1.6003779717700084
17069,13.0,299.90797000000003,63691.210999999996,0.0,-0.08534455294397825,-0.08534339909660082,0.0,0.0,0.0,-4.789758460412355,-7.4414152269855025,-7.129364188388464,0.003193486887322617,0.0055411781484467045,-1.5943200533971384
17070,13.0,299.82486,63718.880999999994,0.0,-0.08534953444265914,-0.085348401306788,0.0,0.0,0.0,-4.797879254663816,-7.442283177021163,-7.128786331856433,-0.0038575477994353263,0.0043172411313035265,-1.5998434823422585
17071,13.0,300.03402,63831.33900000001,0.0,-0.08535454893139738,-0.08535340351697496,0.0,0.0,0.0,-4.813886681068626,-7.4515835970390425,-7.137662808032473,-0.005936214572883764,-0.002904077732810157,-1.5955062652892085
17072,13.0,299.9958,63888.755,0.0,-0.08535953043007827,-0.08535840572716213,0.0,0.0,0.0,-4.8290663834667455,-7.4549126302425925,-7.136607102753283,-0.006315459697162343,-0.005199097821936005,-1.6024695226264285
17073,13.0,300.09432000000004,63868.684,0.0,-0.08536454491881684,-0.0853634079373492,0.0,0.0,0.0,-4.826483304986816,-7.456396838989073,-7.131604889659603,-0.0020192049006050082,0.0024623404086140774,-1.5927161798138485
17074,13.0,300.06936,63792.039000000004,0.0,-0.08536952641749773,-0.08536841014753638,0.0,0.0,0.0,-4.8137232438274955,-7.450448858252052,-7.127014664056583,1.960867431397548e-06,0.007284322248706633,-1.6064622346454784
17075,13.0,299.83841,63793.787000000004,0.0,-0.08537454090623597,-0.08537341235772333,0.0,0.0,0.0,-4.806226814287655,-7.450781305609864,-7.134710095916064,0.0007547551655085352,0.003308104624059507,-1.5889827584953884
17076,13.0,299.71176,63846.403,0.0,-0.08537955539497455,-0.08537841456791029,0.0,0.0,0.0,-4.811373212870565,-7.456850775033872,-7.139488178087622,-0.007164645252895433,-0.007501391628229713,-1.5997483381578685
17077,13.0,299.751,63798.064000000006,0.0,-0.08538453689365544,-0.08538341677809747,0.0,0.0,0.0,-4.806055372370736,-7.451420463772942,-7.135542683523234,0.008025344369514822,-0.004969866604112645,-1.5944402248589984
17078,13.0,299.87276,63693.37,0.0,-0.0853895513823939,-0.08538841898828442,0.0,0.0,0.0,-4.793568078138335,-7.448782365812583,-7.1188436126001635,0.005171418767629295,-0.0034992060247197466,-1.6075092259738086
17079,13.0,300.00359,63776.975999999995,0.0,-0.08539453288107479,-0.08539338828919396,0.0,0.0,0.0,-4.803894413882466,-7.4510418122105735,-7.1316719668162225,0.0036359986385701266,0.002320934771033428,-1.6011443941456485
17080,13.0,299.82902,63921.754,0.0,-0.08539954736981326,-0.08539839049938114,0.0,0.0,0.0,-4.8150414822075955,-7.464970353385213,-7.150605254209792,-0.01055634959633059,-0.004804163431784016,-1.6041708708693383
17081,13.0,300.02061000000003,63948.558,0.0,-0.08540452886849392,-0.0854033927095681,0.0,0.0,0.0,-4.820231653194825,-7.467812418590703,-7.150720866046203,-0.006854394050451024,0.004708398631707766,-1.5976001466208587
17082,13.0,300.03819,63886.87,0.0,-0.0854095433572325,-0.08540839491975527,0.0,0.0,0.0,-4.812831583739495,-7.460292278998523,-7.146889362118063,-0.0014006127761297187,0.0075896756028176636,-1.5996939266274985
17083,13.0,300.09649,63845.140999999996,0.0,-0.08541452485591339,-0.08541339712994245,0.0,0.0,0.0,-4.8162840308052255,-7.454221188374353,-7.136823431649634,0.0026750595001578175,-0.0024551847350828674,-1.6043880103657684
17084,13.0,300.10926,63890.600999999995,0.0,-0.08541953934465163,-0.0854183993401294,0.0,0.0,0.0,-4.825774637866875,-7.460673970311192,-7.134698544864923,0.0031224059742574767,-0.012771075187906988,-1.6041992418721385
17085,13.0,300.10943,63953.245,0.0,-0.0854245538333902,-0.08542340155031658,0.0,0.0,0.0,-4.835588674360445,-7.459265856647223,-7.145334833814643,-0.006377226916633295,-0.003225679160224747,-1.6061488363895484
17086,13.0,300.05066,63866.66099999999,0.0,-0.0854295353320711,-0.08542840376050365,0.0,0.0,0.0,-4.815791489931616,-7.460340611028293,-7.137737991189894,0.006191830620661104,0.0036089649232521064,-1.6035676830848087
17087,13.0,300.19289,63749.742,0.0,-0.08543454982080934,-0.08543340597069082,0.0,0.0,0.0,-4.797270595328746,-7.449249068808643,-7.131810072804853,-0.0018009881166686883,0.0016338790598263084,-1.5995413311624385
17088,13.0,300.08092,63857.793,0.0,-0.08543953131949023,-0.085438408180878,0.0,0.0,0.0,-4.804501654667395,-7.465302192792963,-7.141370796773423,-0.0007889283828861692,-0.004105156030347356,-1.5932939350208684
17089,13.0,299.76276,64008.788,0.0,-0.08544454580822869,-0.08544341039106496,0.0,0.0,0.0,-4.829294060764215,-7.472097757238633,-7.155681434560773,-0.0034582594736036368,-0.0018838346872450081,-1.5966591412529885
17090,13.0,299.93605,64005.276,0.0,-0.08544952730690969,-0.08544841260125191,0.0,0.0,0.0,-4.828732821533825,-7.472083774387253,-7.155188893687163,0.0014957448015185185,0.006363014462780634,-1.5927456653917587
17091,13.0,299.8993,63917.052,0.0,-0.08545454179564793,-0.08545341481143887,0.0,0.0,0.0,-4.817087943434566,-7.471297087009613,-7.140802768767364,0.0023723538698830976,0.0012976718348702387,-1.6019653293766685
17092,13.0,299.93312000000003,63938.429000000004,0.0,-0.0854595562843864,-0.08545841702162604,0.0,0.0,0.0,-4.817405090715865,-7.467921444301463,-7.150359439735533,-0.0012732514942101387,-0.005507689320716614,-1.5993228744408785
17093,13.0,300.07251,63959.136,0.0,-0.0854645377830675,-0.0854633863225358,0.0,0.0,0.0,-4.8190013649234045,-7.470361451867273,-7.152617467583384,-0.0039798854886841165,0.006079930319367404,-1.6047419386256985
17094,13.0,300.15533,63910.529,0.0,-0.08546955227180586,-0.08546838853272276,0.0,0.0,0.0,-4.812289393610985,-7.468424826951144,-7.146490648203714,0.0032503121820808374,0.004845494916613115,-1.6067253756964486
17095,13.0,300.09357,63861.948,0.0,-0.08547453377048675,-0.08547339074290972,0.0,0.0,0.0,-4.816350094711746,-7.461387095731572,-7.134700368715103,0.0025031833042449573,-0.0044259344960307255,-1.6083185088286784
17096,13.0,300.17124,63851.869000000006,0.0,-0.08547954825922521,-0.0854783929530969,0.0,0.0,0.0,-4.814619058240905,-7.465613057923643,-7.129141678666503,0.004451901258993446,-0.007777192833899173,-1.6135797086479184
17097,13.0,300.17329,63879.377,0.0,-0.08548452975790588,-0.08548339516328396,0.0,0.0,0.0,-4.813811193936175,-7.468103525344433,-7.135820922000694,0.0006603082390423494,0.007164036289585333,-1.6049478310460183
17098,13.0,299.9885,64002.722,0.0,-0.08548954424664446,-0.08548839737347103,0.0,0.0,0.0,-4.819239681346925,-7.479632386307244,-7.156357475027493,0.003034883153144647,0.011816070756655389,-1.6041354071158385
17099,13.0,299.87699,64030.1,0.0,-0.08549452574532534,-0.08549339958365809,0.0,0.0,0.0,-4.826816258969676,-7.4772449664216225,-7.159490444336693,-0.005064671552369165,0.001761924690863428,-1.5968043399923184
17100,13.0,299.91767000000004,63969.309,0.0,-0.08549954023406359,-0.08549840179384527,0.0,0.0,0.0,-4.816413828143036,-7.4773849975854425,-7.151273796625772,-0.0017215350220022782,-0.004665011667725805,-1.5985397334385882
17101,13.0,300.04505,63986.41,0.0,-0.08550455472280205,-0.08550340400403245,0.0,0.0,0.0,-4.823869018403805,-7.473033088405943,-7.153368893857544,-0.005875842902775545,0.007700263846556873,-1.5949249637068383
17102,13.0,299.79183,64057.102,0.0,-0.08550953622148294,-0.0855084062142194,0.0,0.0,0.0,-4.834706234848355,-7.473682379070023,-7.1633707869196535,-0.001850992819703768,0.006671637574964364,-1.5987088448802784
17103,13.0,299.95012,64044.263,0.0,-0.0855145507102213,-0.08551340842440658,0.0,0.0,0.0,-4.8346685419446365,-7.473591287886034,-7.159596936922203,-0.0052641955944856544,-0.0058941043040278045,-1.5982704115620086
17104,13.0,299.95704,63961.797999999995,0.0,-0.08551953220890218,-0.08551841063459353,0.0,0.0,0.0,-4.822312970225236,-7.4697552243324425,-7.150721271346243,0.0038816741962414162,-0.005578758277430574,-1.6134155621317183
17105,13.0,300.11638999999997,63932.777,0.0,-0.08552454669764065,-0.08552341284478071,0.0,0.0,0.0,-4.814178294447405,-7.467394959549503,-7.152394653886393,0.015516910004899786,0.008047704367421582,-1.6081956015915486
17106,13.0,300.0455,63969.52099999999,0.0,-0.08552952819632176,-0.08552841505496767,0.0,0.0,0.0,-4.820855713931415,-7.472713205349373,-7.151568145779822,0.006432680068106094,0.0038520350096162568,-1.6120825303001587
17107,13.0,299.92798,64087.287000000004,0.0,-0.08553454268506011,-0.08553341726515473,0.0,0.0,0.0,-4.835735798274966,-7.482138153804543,-7.163060935039073,0.002456584742746038,-0.009998869827786621,-1.6041132169386485
17108,13.0,299.97835,64070.817,0.0,-0.085539524183741,-0.08553838656606438,0.0,0.0,0.0,-4.836454496570895,-7.479648091683793,-7.159825728794784,-0.005986479478544525,-0.008633669940001882,-1.6049147990927586
17109,13.0,300.26662000000005,64019.819,0.0,-0.08554453867247946,-0.08554338877625134,0.0,0.0,0.0,-4.823391169656645,-7.483650125603764,-7.153385105859143,0.004222351576663656,0.0074236786892850435,-1.6036160151145786
17110,13.0,300.21001,64033.107,0.0,-0.0855495531612177,-0.0855483909864384,0.0,0.0,0.0,-4.820596423230826,-7.481733461714603,-7.162135533722743,-0.0005751490669677935,0.0024055357841578978,-1.6080158510238085
17111,13.0,300.33969,64137.28,0.0,-0.0855545346598986,-0.08555339319662558,0.0,0.0,0.0,-4.829766640610855,-7.495507482248993,-7.170857590583543,-0.0015268258430359788,-0.00928912238059,-1.5993918767726882
17112,13.0,300.31242000000003,64102.524000000005,0.0,-0.08555954914863717,-0.08555839540681254,0.0,0.0,0.0,-4.829357591545486,-7.4869941549087935,-7.169214808196414,0.0005805468630330144,-0.0041848052902331255,-1.6032285482763382
17113,13.0,300.08455,63960.239,0.0,-0.08556453064731784,-0.08556339761699971,0.0,0.0,0.0,-4.816464997273085,-7.4742792847039325,-7.1515711855301225,0.0044804476553857555,0.012478478956529987,-1.6003428119915384
17114,13.0,300.14712000000003,63989.975,0.0,-0.0855695451360563,-0.08556839982718689,0.0,0.0,0.0,-4.821575324152436,-7.481604171001843,-7.148174872519934,0.0012812912284535989,0.004594554612747236,-1.6067879945526287
17115,13.0,300.30318,64130.677,0.0,-0.08557452663473719,-0.08557340203737385,0.0,0.0,0.0,-4.843467808463055,-7.487112198545443,-7.163544356661784,-0.007508312835687783,-0.01183666202518759,-1.6075689064046983
17116,13.0,300.07275,64150.914000000004,0.0,-0.08557954112347554,-0.08557840424756102,0.0,0.0,0.0,-4.842820341649155,-7.493396578315663,-7.164059189037593,-0.0020792790804838677,-0.0003573725300674226,-1.6127202699130985
17117,13.0,299.97783,64079.58,0.0,-0.08558455561221401,-0.08558340645774798,0.0,0.0,0.0,-4.834202345573625,-7.485236976585373,-7.159152930728384,0.004923602009846685,0.014659045860735185,-1.6106445257582382
17118,13.0,299.93607000000003,64078.221,0.0,-0.0855895371108949,-0.08558840866793516,0.0,0.0,0.0,-4.839483911719875,-7.480505402593403,-7.158189735183323,0.0063448336149113235,0.005596509405932475,-1.6007185251286185
17119,13.0,299.84126000000003,64153.398,0.0,-0.08559455159963325,-0.08559341087812233,0.0,0.0,0.0,-4.843902188780925,-7.491410202819623,-7.165718588726364,-0.001994175900609838,-0.00923793886238858,-1.6081581113378485
17120,13.0,299.85668,64176.575999999994,0.0,-0.08559953309831425,-0.08559841308830929,0.0,0.0,0.0,-4.840789281823706,-7.490722307326733,-7.176565025746823,0.0006012011253239315,0.0008139460750102233,-1.5978404895445786
17121,13.0,299.96501,64059.530999999995,0.0,-0.0856045475870526,-0.08560341529849635,0.0,0.0,0.0,-4.822386329532475,-7.487619431545502,-7.162492096432934,0.0005233746010430515,0.00910202929600035,-1.6108904415575085
17122,13.0,300.17359,63976.277,0.0,-0.08560952908573372,-0.085608384599406,0.0,0.0,0.0,-4.806227624887736,-7.481870453128122,-7.159092743672443,-0.005610026972866555,-0.006650571801410333,-1.6011325391194786
17123,13.0,300.18826,64080.725,0.0,-0.08561454357447196,-0.08561338680959296,0.0,0.0,0.0,-4.825433983183255,-7.491159828719913,-7.162346593718572,-0.012282722076960288,-0.014851818718760384,-1.6176364580732885
17124,13.0,300.10564,64206.768,0.0,-0.08561952507315285,-0.08561838901978014,0.0,0.0,0.0,-4.840561401876216,-7.502117824576384,-7.174575103875434,-0.0017460680360734983,0.007561704225857102,-1.6049170282429785
17125,13.0,299.8271,64178.82,0.0,-0.08562453956189142,-0.0856233912299672,0.0,0.0,0.0,-4.839146296786555,-7.493841496434572,-7.1757710429684645,-0.0007090833124185743,0.007820362861034722,-1.6063063967800986
17126,13.0,300.10156,64135.261,0.0,-0.08562955405062966,-0.08562839344015416,0.0,0.0,0.0,-4.828453671131275,-7.496059906203513,-7.171004309198024,0.0024292620484994976,-0.004280198430172696,-1.6076301067107384
17127,13.0,300.11554,64190.632000000005,0.0,-0.08563453554931055,-0.08563339565034134,0.0,0.0,0.0,-4.8447862494931755,-7.491728566001043,-7.175834371099714,0.0016197259824295086,-0.016158574948727182,-1.6084960302461986
17128,13.0,300.11149,64228.204000000005,0.0,-0.08563955003804902,-0.08563839786052829,0.0,0.0,0.0,-4.846512827663576,-7.494918175990833,-7.182339335416703,0.011169995135142689,0.005251752072657575,-1.6126174250279486
17129,13.0,300.05876,64168.64,0.0,-0.0856445315367298,-0.08564340007071547,0.0,0.0,0.0,-4.851079647189286,-7.4889672568285235,-7.165617466366384,0.0015743587224521082,0.006794293323419544,-1.6125756791238284
17130,13.0,300.09457000000003,64145.40900000001,0.0,-0.08564954602546826,-0.08564840228090242,0.0,0.0,0.0,-4.837678097391655,-7.486681364602924,-7.174243163142672,-0.0026285266985903877,-0.004055392886136116,-1.6114554298132684
17131,13.0,299.95899,64143.668,0.0,-0.08565452752414915,-0.0856534044910896,0.0,0.0,0.0,-4.840857068255396,-7.488755690207642,-7.168460747471993,-0.01251208440934659,-0.0035632731192676765,-1.6091705508377685
17132,13.0,299.8808,64199.957,0.0,-0.0856595420128875,-0.08565840670127678,0.0,0.0,0.0,-4.833121714341975,-7.500748822366273,-7.181313217040434,-0.0042081521937372855,0.008564917678316561,-1.6128287889988087
17133,13.0,299.89484,64250.318,0.0,-0.0856645235115685,-0.08566340891146373,0.0,0.0,0.0,-4.844461097536086,-7.499974800614883,-7.186056646058573,0.00030643015525730176,0.0008654676539750071,-1.6018179014871183
17134,13.0,299.89002,64230.59099999999,0.0,-0.08566953800030686,-0.08566841112165091,0.0,0.0,0.0,-4.836585104508785,-7.506833693191803,-7.181077129767134,-0.004306145232108446,-0.013474476447077288,-1.6088298961541485
17135,13.0,300.01914,64195.89,0.0,-0.08567455248904521,-0.08567341333183798,0.0,0.0,0.0,-4.838703911792895,-7.500911550332333,-7.174332227826463,0.01044297096314099,-0.014890695098597187,-1.6078028658527883
17136,13.0,299.8193,64201.007000000005,0.0,-0.08567953398772621,-0.08567838263274741,0.0,0.0,0.0,-4.834849508412495,-7.507052859188432,-7.173600559929253,0.005514161050430325,0.0037789344864517967,-1.6096748454125385
17137,13.0,299.87831,64267.512,0.0,-0.08568454847646478,-0.08568338484293458,0.0,0.0,0.0,-4.841855524903935,-7.508664838772522,-7.185198524548884,0.0030451916556870173,0.0052889140333251755,-1.6035062801287485
17138,13.0,300.12233,64252.062000000005,0.0,-0.08568952997514567,-0.08568838705312165,0.0,0.0,0.0,-4.844773381216905,-7.501623763827622,-7.184625227642303,-0.006972080415115763,-0.00894589333244093,-1.6056600445413085
17139,13.0,300.0594,64161.924000000006,0.0,-0.08569454446388391,-0.08569338926330883,0.0,0.0,0.0,-4.834023405605966,-7.501231534713914,-7.168367832437823,-0.0044653804237487355,-0.0003563563212771307,-1.6180803629420983
17140,13.0,300.01357,64157.806,0.0,-0.0856995259625648,-0.08569839147349578,0.0,0.0,0.0,-4.8393472242813855,-7.492963109922884,-7.170060669379894,0.0001172101979127459,0.008564712292521292,-1.6205443845352785
17141,13.0,300.10237,64278.46400000001,0.0,-0.08570454045130327,-0.08570339368368274,0.0,0.0,0.0,-4.850470379904155,-7.506727909881363,-7.181849935618403,0.0018547498497495582,0.003970320407740116,-1.6163251097938682
17142,13.0,300.08848,64314.375,0.0,-0.08570955494004162,-0.08570839589386992,0.0,0.0,0.0,-4.8551941518703545,-7.509653264245073,-7.185116755265812,-0.007239984045530793,-0.00015213344327940186,-1.6171017659955185
17143,13.0,299.91711000000004,64308.948,0.0,-0.08571453643872251,-0.08571339810405687,0.0,0.0,0.0,-4.849892016747075,-7.507925470174552,-7.190496910646792,-0.0002222308957974818,0.0013049925668427388,-1.6084651261181486
17144,13.0,299.86933999999997,64257.53400000001,0.0,-0.08571955092746097,-0.08571840031424405,0.0,0.0,0.0,-4.845257714764705,-7.506929040026213,-7.180498969260073,2.101744557726038e-05,0.004771847441044676,-1.6116580798332685
17145,13.0,299.79168,64249.135,0.0,-0.08572453242614175,-0.08572340252443122,0.0,0.0,0.0,-4.848462827481025,-7.502371441076414,-7.179298470541593,8.535945514232233e-05,-0.0032516992201427264,-1.6039899044014785
17146,13.0,299.9351,64350.545,0.0,-0.08572954691488022,-0.08572840473461818,0.0,0.0,0.0,-4.8568478773585655,-7.512434027819514,-7.191676840388243,-0.0017190038219274686,-0.014258860707239985,-1.6102135904907087
17147,13.0,300.00516,64385.814000000006,0.0,-0.0857345284135611,-0.08573340694480536,0.0,0.0,0.0,-4.865268796289645,-7.515589592605943,-7.190821252003802,0.005451883456884005,-0.0006661003920464903,-1.6086276514341884
17148,13.0,300.23527,64284.240999999995,0.0,-0.08573954290229935,-0.08573840915499242,0.0,0.0,0.0,-4.841692087662805,-7.508866576867433,-7.190245320646963,0.00011562251606605388,0.005629449052108364,-1.6089915095450984
17149,13.0,300.07419,64223.512,0.0,-0.08574452440098046,-0.0857434113651796,0.0,0.0,0.0,-4.835722220723625,-7.505249679310472,-7.181372086871243,0.005337470295342306,0.007784862630531122,-1.6064927334734882
17150,13.0,300.01489,64329.179000000004,0.0,-0.08574953888971892,-0.08574841357536678,0.0,0.0,0.0,-4.846639382601066,-7.509588416238673,-7.198236317560614,-0.0015026309505231285,-0.0038547540662596065,-1.6097099038659985
17151,13.0,300.06894,64371.732,0.0,-0.08575455337845728,-0.0857533828762761,0.0,0.0,0.0,-4.862723106738405,-7.511602554787453,-7.193073605651093,0.003363913527642417,-0.0024482915946525676,-1.6158091628429485
17152,13.0,300.11201,64283.267,0.0,-0.08575953487713817,-0.08575838508646327,0.0,0.0,0.0,-4.845721681985496,-7.510931783221252,-7.1838544482912345,0.0019194807244379982,-0.0006245020678035554,-1.6174164814765786
17153,13.0,300.01884,64276.904,0.0,-0.08576454936587663,-0.08576338729665045,0.0,0.0,0.0,-4.848322998967225,-7.506696803103293,-7.183554120961594,0.0017789148685402286,-0.00904931992447334,-1.6182615320599785
17154,13.0,300.05356,64375.693,0.0,-0.08576953086455752,-0.0857683895068374,0.0,0.0,0.0,-4.852509748380426,-7.518619514379972,-7.197473948185373,-0.0013560309876298388,-0.009033722560384,-1.6135613688211086
17155,13.0,299.97964,64434.268,0.0,-0.08577454535329587,-0.08577339171702458,0.0,0.0,0.0,-4.859770293296985,-7.522132756451703,-7.204505599904343,-0.0045799290568288055,-0.002163970272867238,-1.6152372844865086
17156,13.0,299.89577,64357.065,0.0,-0.08577952685197676,-0.08577839392721154,0.0,0.0,0.0,-4.847223723933736,-7.519680488559683,-7.196036450268503,-0.000971715114020815,0.005770297807434055,-1.6099616965158483
17157,13.0,299.96519,64246.443,0.0,-0.08578454134071523,-0.0857833961373985,0.0,0.0,0.0,-4.835714013397816,-7.517750652419222,-7.175849569851214,-0.0017705056019852983,-0.003172829149583857,-1.6152281652356086
17158,13.0,300.08881,64320.42,0.0,-0.085789522839396,-0.08578839834758567,0.0,0.0,0.0,-4.841806888899136,-7.5158509098067325,-7.194143901731723,0.003359255414282697,-0.007343334643805702,-1.6137921871938883
17159,13.0,300.1666,64466.414000000004,0.0,-0.08579453732813447,-0.08579340055777274,0.0,0.0,0.0,-4.870886964119116,-7.5275713763634515,-7.1977216878348225,0.0015479390366946884,-0.0009989835791220031,-1.6178662631959684
17160,13.0,300.06494,64418.651,0.0,-0.08579955181687293,-0.0857984027679598,0.0,0.0,0.0,-4.858934665939516,-7.525274743686792,-7.197452061983213,-0.004693974611234225,0.008015628922255982,-1.6118934578314985
17161,13.0,300.12136,64306.389,0.0,-0.0858045333155536,-0.08580340497814687,0.0,0.0,0.0,-4.850432383025405,-7.510509764554603,-7.1865942765616335,-0.0003744136336942486,0.003235212222465587,-1.6110912677273286
17162,13.0,300.15951,64369.124,0.0,-0.08580954780429217,-0.08580840718833405,0.0,0.0,0.0,-4.856885671587296,-7.516934884763713,-7.192785639972673,-0.005133805809342185,0.0008564966212996352,-1.6107503090686786
17163,13.0,299.92900000000003,64488.526,0.0,-0.08581452930297306,-0.08581340939852122,0.0,0.0,0.0,-4.878151866011105,-7.522509888138923,-7.202239770030723,0.004684691923093095,0.0017919891385555582,-1.6128546268763586
17164,13.0,299.82198,64508.51,0.0,-0.08581954379171153,-0.08581841160870818,0.0,0.0,0.0,-4.869385732770955,-7.528104852541102,-7.211485677193224,0.0006332032415797944,0.0026859173869044073,-1.6128512831510287
17165,13.0,299.80262,64422.224,0.0,-0.08582452529039242,-0.08582338090961772,0.0,0.0,0.0,-4.860899965833475,-7.522147955203202,-7.199699653355033,0.0009357711103709183,-0.0026303031286657075,-1.6110388826971584
17166,13.0,299.86042000000003,64392.422999999995,0.0,-0.08582953977913088,-0.0858283831198049,0.0,0.0,0.0,-4.848294222664386,-7.523105172572673,-7.202289115310593,0.0010015864159788831,-0.009778407985603732,-1.6122528576419686
17167,13.0,300.04611,64438.797999999995,0.0,-0.08583455426786923,-0.08583338532999185,0.0,0.0,0.0,-4.859550316700275,-7.5313455303359325,-7.196889606852703,0.004259960785925396,-0.00038391120178408566,-1.6153109477687786
17168,13.0,300.13093,64482.357,0.0,-0.08583953576655012,-0.08583838754017903,0.0,0.0,0.0,-4.859833216128195,-7.534679832440002,-7.206513253652484,0.0026296593095521677,0.007680688158599903,-1.6130840266989985
17169,13.0,300.12102000000004,64463.962999999996,0.0,-0.08584455025528859,-0.08584338975036598,0.0,0.0,0.0,-4.854237441125936,-7.5362231136673135,-7.204974633375633,0.00013051905559122788,0.002696511524649967,-1.6165654527175883
17170,13.0,300.24732,64397.627,0.0,-0.08584953175396948,-0.08584839196055316,0.0,0.0,0.0,-4.8450511130693155,-7.531997354125263,-7.198222132059214,-0.0015258617355658284,-0.0038441771537657465,-1.6196911266260685
17171,13.0,299.95111,64413.6,0.0,-0.08585454624270783,-0.08585339417074012,0.0,0.0,0.0,-4.850737067330475,-7.526546068587263,-7.202842856490243,-0.0028123796120102574,0.003758048767440536,-1.6166353669744884
17172,13.0,299.85706,64492.657,0.0,-0.08585952774138872,-0.08585839638092718,0.0,0.0,0.0,-4.8665163098127655,-7.526791984386533,-7.210849153480403,-0.0019133289791058682,0.00950032950033452,-1.6183816021968285
17173,13.0,300.06836,64482.18,0.0,-0.08586454223012718,-0.08586339859111436,0.0,0.0,0.0,-4.8700114147077045,-7.523420799978823,-7.2075402839538425,-0.004715245365283486,0.004853259857429456,-1.6148750475757585
17174,13.0,299.95515,64406.025,0.0,-0.08586952372880785,-0.08586840080130131,0.0,0.0,0.0,-4.8586581499872254,-7.518648797307862,-7.200516535585653,-0.0018944753331701584,-0.0013430239974211488,-1.6199717969037686
17175,13.0,299.92442,64433.477999999996,0.0,-0.08587453821754643,-0.08587340301148849,0.0,0.0,0.0,-4.859634416458575,-7.527153917322252,-7.199380074273494,0.001071467600395619,0.0007255144293526992,-1.6206205809427985
17176,13.0,299.90259,64547.787000000004,0.0,-0.08587955270628489,-0.08587840522167567,0.0,0.0,0.0,-4.875052435280216,-7.529761820429633,-7.216101234048743,0.006456407953647853,0.0005095139678901135,-1.6160800045946786
17177,13.0,299.73706,64571.248,0.0,-0.08588453420496578,-0.08588340743186262,0.0,0.0,0.0,-4.873764391753095,-7.539285256794522,-7.214997298064793,0.005420181394380255,-0.0074739295107694136,-1.6140209790664684
17178,13.0,299.74722,64549.46599999999,0.0,-0.08588954869370402,-0.0858884096420498,0.0,0.0,0.0,-4.875095599734475,-7.538003394093012,-7.208326971331483,0.0001938026950293368,-0.017186994415974283,-1.6161095914975985
17179,13.0,299.96952999999996,64508.594000000005,0.0,-0.08589453019238513,-0.08589337894295934,0.0,0.0,0.0,-4.871546995234255,-7.532009817101493,-7.205445085397063,0.004745294411574095,-0.002258965002867488,-1.6135270196427183
17180,13.0,299.8103,64495.356,0.0,-0.08589954468112349,-0.0858983811531463,0.0,0.0,0.0,-4.869879185569655,-7.533181843492163,-7.201916948548863,-0.003800474663702646,0.008032529933923983,-1.6166745797533586
17181,13.0,300.1995,64579.011,0.0,-0.08590452617980437,-0.08590338336333347,0.0,0.0,0.0,-4.873871593613675,-7.539124454003653,-7.217410657152973,-0.0049045510841165055,0.0017392580834764085,-1.6146329821268683
17182,13.0,300.17869,64576.206,0.0,-0.08590954066854284,-0.08590838557352043,0.0,0.0,0.0,-4.867205725180805,-7.539805662045883,-7.222542667584463,-0.008107750074972633,-0.003808280438498017,-1.6133524366504883
17183,13.0,299.87865,64487.564000000006,0.0,-0.08591452216722373,-0.0859133877837076,0.0,0.0,0.0,-4.855553855655855,-7.538969021438312,-7.208086324432734,0.001978589783596608,0.006391795325246083,-1.6200232700088484
17184,13.0,300.06667000000004,64477.996,0.0,-0.08591953665596208,-0.08591838999389478,0.0,0.0,0.0,-4.858596747031165,-7.5327841428279125,-7.208319878580783,0.008354178274818201,0.00017883710250984786,-1.6178040496398285
17185,13.0,300.00622000000004,64562.639,0.0,-0.08592455114470055,-0.08592339220408174,0.0,0.0,0.0,-4.870640035069745,-7.539947618384893,-7.214842473449513,0.006160596578378545,-0.007300966401474283,-1.6243828798891085
17186,13.0,299.77257000000003,64608.613,0.0,-0.08592953264338143,-0.08592839441426892,0.0,0.0,0.0,-4.871676589922045,-7.545543190737134,-7.222185395599204,-0.0007376412801270263,-0.007972318863956612,-1.6239877123501085
17187,13.0,299.99176,64563.715,0.0,-0.08593454713211968,-0.08593339662445598,0.0,0.0,0.0,-4.8705325292341355,-7.5408362387225925,-7.214388233429683,0.0019655025439799982,0.01044755895959379,-1.6314426999608587
17188,13.0,300.17643,64526.795999999995,0.0,-0.08593952863080068,-0.08593839883464294,0.0,0.0,0.0,-4.8682920306130155,-7.5354060287866735,-7.210836690504173,-0.004474719651245446,0.010905075830247189,-1.6239317809445883
17189,13.0,299.91276,64579.612,0.0,-0.08594454311953914,-0.08594340104483011,0.0,0.0,0.0,-4.8776677351133255,-7.536206699015693,-7.216714959634313,-0.006646395995098213,-0.007405755916216202,-1.6200300587845184
17190,13.0,300.1143,64655.325,0.0,-0.08594952461822003,-0.08594840325501707,0.0,0.0,0.0,-4.881403385582005,-7.546244461131343,-7.225956611146393,-0.004668548518524865,-0.009836199211682281,-1.6127729589182984
17191,13.0,299.79719,64636.998,0.0,-0.08595453910695827,-0.08595340546520425,0.0,0.0,0.0,-4.879821803500916,-7.550912504342043,-7.217299098316963,0.0013226692214622887,0.008961913120496962,-1.6202386869801084
17192,13.0,299.96731,64599.247,0.0,-0.08595955359569685,-0.0859584076753912,0.0,0.0,0.0,-4.868321617515936,-7.548563689285233,-7.219672738001222,0.006947176146207904,0.007478721879767384,-1.6082586257477685
17193,13.0,300.01007999999996,64581.824,0.0,-0.08596453509437774,-0.08596337697630074,0.0,0.0,0.0,-4.870813503486866,-7.542412146603122,-7.218036136439702,-0.00036899868330483464,-0.005099492398680715,-1.6145628652199486
17194,13.0,300.16238,64648.939000000006,0.0,-0.08596954958311598,-0.08596837918648792,0.0,0.0,0.0,-4.871389637493725,-7.547583775113523,-7.232689658060893,0.0005822163749577825,-0.0006621091492400854,-1.6084881268954183
17195,13.0,299.92748,64650.362,0.0,-0.08597453108179709,-0.08597338139667487,0.0,0.0,0.0,-4.874814929456775,-7.549386752341462,-7.227893945337593,0.002666790872716768,0.008909088339783561,-1.6199938857559484
17196,13.0,299.96108,64627.560999999994,0.0,-0.08597954557053544,-0.08597838360686205,0.0,0.0,0.0,-4.868765319734726,-7.547774570107352,-7.228624903959734,0.0067974554743316234,0.004927249406231655,-1.6190322100860384
17197,13.0,299.98932,64612.398,0.0,-0.08598452706921633,-0.08598338581704923,0.0,0.0,0.0,-4.8775749214041655,-7.542153261202573,-7.220827539140194,-0.008047018903728931,-0.014717882254291886,-1.6281819598140486
17198,13.0,300.19291,64642.944,0.0,-0.0859895415579548,-0.08598838802723618,0.0,0.0,0.0,-4.878254609571245,-7.546924757248483,-7.224661576193583,-0.00016197617501580383,-0.007695978102608902,-1.6230905807115683
17199,13.0,300.0851,64670.944,0.0,-0.08599452305663569,-0.08599339023742336,0.0,0.0,0.0,-4.882871483651895,-7.550723837173422,-7.224756720377973,-0.004249123164180806,0.016554609829812786,-1.6297402371428384
17200,13.0,300.23022000000003,64639.846,0.0,-0.08599953754537393,-0.08599839244761043,0.0,0.0,0.0,-4.870571944663025,-7.549953159147364,-7.228373921909964,0.00031381734630386073,0.00955161819389632,-1.6234506897971086
17201,13.0,299.90532,64620.032999999996,0.0,-0.0860045520341125,-0.0860033946577976,0.0,0.0,0.0,-4.868857829468856,-7.552484967172233,-7.221533673134883,-0.005327255315784166,-0.00956799758441284,-1.6246223108877385
17202,13.0,299.969,64652.384000000005,0.0,-0.08600953353279339,-0.08600839686798456,0.0,0.0,0.0,-4.873402661467395,-7.551622691337133,-7.227685114491984,0.005596906498646665,-0.004803633704631736,-1.6202874243099186
17203,13.0,299.88572999999997,64684.387,0.0,-0.08601454802153163,-0.08601339907817152,0.0,0.0,0.0,-4.879831328051854,-7.556324678426184,-7.226282573703563,0.007106223683929673,0.006487960865736883,-1.6220278840066884
17204,13.0,300.0087,64714.038,0.0,-0.08601952952021252,-0.08601840128835869,0.0,0.0,0.0,-4.880264391144595,-7.557938988485502,-7.233248262841023,-0.0026966437537880176,-0.004514385960860206,-1.6152905814417684
17205,13.0,300.05616000000003,64730.308,0.0,-0.0860245440089511,-0.08602340349854565,0.0,0.0,0.0,-4.8862130811566855,-7.556337040077402,-7.233847093650122,-0.010731471637613791,-0.013003315150577288,-1.6122377602154785
17206,13.0,300.2271,64712.621,0.0,-0.08602952550763199,-0.08602840570873282,0.0,0.0,0.0,-4.881203572662286,-7.560552363143422,-7.229265075372913,-4.6836254773628454e-05,0.0014842868680627085,-1.6224878995520884
17207,13.0,299.93417999999997,64687.03599999999,0.0,-0.08603453999637023,-0.08603340791892,0.0,0.0,0.0,-4.882120766652805,-7.549773611229642,-7.231349432153623,0.008574194692257132,0.013554858590760386,-1.6175491159146684
17208,13.0,299.98145,64700.398,0.0,-0.08603952149505134,-0.08603837721982932,0.0,0.0,0.0,-4.881661764357505,-7.553486260921053,-7.232157296458353,0.0011165888432487388,-0.011413296749154688,-1.6259725679709984
17209,13.0,299.69707,64687.155999999995,0.0,-0.08604453598378958,-0.0860433794300165,0.0,0.0,0.0,-4.879592505003286,-7.556945800737484,-7.226741879973893,0.00024353821804285077,-0.02065746416123298,-1.6252369483983984
17210,13.0,299.71365,64693.990999999995,0.0,-0.08604955047252816,-0.08604838164020367,0.0,0.0,0.0,-4.882230501638635,-7.5524679445705525,-7.230659307510512,0.0002832410857212187,0.0013564561473717986,-1.6336995119085882
17211,13.0,299.75312,64717.030999999995,0.0,-0.08605453197120905,-0.08605338385039063,0.0,0.0,0.0,-4.888011904059216,-7.558868138827202,-7.225481396849493,0.0007796009901506272,0.016193076114632186,-1.6248043919307087
17212,13.0,299.73387,64720.922,0.0,-0.08605954645994729,-0.08605838606057781,0.0,0.0,0.0,-4.874055194531795,-7.559254187115303,-7.240235027580563,-0.006125071725897514,0.001211198538210989,-1.6260733863559484
17213,13.0,300.11857000000003,64736.024000000005,0.0,-0.08606452795862818,-0.08606338827076487,0.0,0.0,0.0,-4.874613799311925,-7.561014202539003,-7.242506936954784,-0.005210181866104915,-0.0017889439167050182,-1.6215438544339185
17214,13.0,300.1795,64797.794,0.0,-0.08606954244736675,-0.08606839048095205,0.0,0.0,0.0,-4.882554944320655,-7.569756321751783,-7.2446002103363725,0.004095511409270506,0.008124718163797251,-1.6252433318740285
17215,13.0,300.05809,64812.10400000001,0.0,-0.08607452394604764,-0.08607339269113923,0.0,0.0,0.0,-4.892968622223405,-7.560138653127592,-7.248154083737113,0.006335359422501294,0.007518334689776863,-1.6198295365897284
17216,13.0,300.14091,64771.154,0.0,-0.08607953843478588,-0.08607839490132618,0.0,0.0,0.0,-4.887690602452505,-7.566331637738793,-7.234791240093302,-0.0018063559103984484,-0.01212743845938499,-1.6235866679605284
17217,13.0,300.08711,64775.69,0.0,-0.08608455292352435,-0.08608339711151336,0.0,0.0,0.0,-4.885083307295186,-7.564824934840092,-7.240284170210413,-0.003992577662086737,-0.012426738353423589,-1.6207175489773684
17218,13.0,300.00039,64786.22900000001,0.0,-0.08608953442220524,-0.08608839932170032,0.0,0.0,0.0,-4.8814815071647155,-7.567745729578353,-7.2441686671187835,0.002527443247414228,0.008118197899403753,-1.6298421701028984
17219,13.0,299.96448,64768.395,0.0,-0.08609454891094359,-0.08609340153188727,0.0,0.0,0.0,-4.886712208155945,-7.565716493603084,-7.235546111417803,0.003052411062649517,0.01131735108393559,-1.6259323419420286
17220,13.0,299.94006,64738.968,0.0,-0.0860995304096247,-0.08609840374207445,0.0,0.0,0.0,-4.881624882053866,-7.557852152951933,-7.239552704963224,-0.0002929317995451177,-0.007487536851662353,-1.6252140489461384
17221,13.0,300.00835,64789.501,0.0,-0.08610454489836294,-0.08610340595226151,0.0,0.0,0.0,-4.894270952576935,-7.564655823398403,-7.235463835509683,-0.002072251076465258,-0.0030086417994048273,-1.6229873305263784
17222,13.0,299.85405,64834.028,0.0,-0.08610952639704383,-0.08610837525317094,0.0,0.0,0.0,-4.890925200746736,-7.570123118287983,-7.246877185961093,0.0003227084234138417,0.007441069911351424,-1.6273569715826286
17223,13.0,299.64275,64851.498,0.0,-0.08611454088578241,-0.08611337746335812,0.0,0.0,0.0,-4.899277623971055,-7.570172868867892,-7.243785455930964,0.0015005820574959187,0.010344197316892791,-1.6258587799847684
17224,13.0,299.90217,64852.162000000004,0.0,-0.0861195223844633,-0.08611837967354519,0.0,0.0,0.0,-4.887478326556555,-7.575747770918093,-7.250211690715183,0.00027133252954843575,-0.005918139710974915,-1.6315309540445684
17225,13.0,299.8562,64793.15,0.0,-0.08612453687320154,-0.08612338188373225,0.0,0.0,0.0,-4.8895069545817655,-7.5660930173402425,-7.239899540472453,-0.0016309263477098984,-0.006241078932496535,-1.6249474628448284
17226,13.0,299.98731000000004,64791.191,0.0,-0.08612955136194,-0.08612838409391932,0.0,0.0,0.0,-4.873704711322205,-7.579201332558933,-7.241998082754563,0.007579390303702582,0.0057966617644359736,-1.6369924734085786
17227,13.0,300.01521,64843.31,0.0,-0.086134532860621,-0.0861333863041065,0.0,0.0,0.0,-4.895774311750305,-7.5726370931110925,-7.242335697687883,-0.001235597195318949,1.100406023251619e-05,-1.6247588970012183
17228,13.0,299.88666,64843.087,0.0,-0.08613954734935925,-0.08613838851429367,0.0,0.0,0.0,-4.8846547025028855,-7.5752637413453225,-7.250760669619364,0.0004388502909511516,-0.008925289094307452,-1.6232225058745884
17229,13.0,299.83979,64837.084,0.0,-0.08614452884804014,-0.08614339072448063,0.0,0.0,0.0,-4.8931578973420855,-7.572854333932533,-7.242842322737884,-0.008553364195376322,-0.0016506390270803887,-1.6190495366627484
17230,13.0,300.17017000000004,64883.666,0.0,-0.0861495433367786,-0.0861483929346678,0.0,0.0,0.0,-4.892725746174436,-7.575331933077051,-7.254956740933483,0.005442063847514885,0.011269655375228388,-1.6219870500276585
17231,13.0,299.88066000000003,64920.532,0.0,-0.08615452483545949,-0.08615339514485476,0.0,0.0,0.0,-4.906058597615286,-7.5783421977991425,-7.249819765576503,-0.0015780661032429985,0.004276579404790526,-1.6209105731214184
17232,13.0,300.17465,64950.167,0.0,-0.08615953932419784,-0.08615839735504194,0.0,0.0,0.0,-4.9068802421213755,-7.578975580436652,-7.257373038446953,-0.00034204763906247373,-0.003469624694675297,-1.6248277980080184
17233,13.0,300.12822,64904.986,0.0,-0.08616452082287873,-0.0861633995652289,0.0,0.0,0.0,-4.909182042373546,-7.572877436034813,-7.247435486766193,-0.0022554846914240078,-0.0031787651739696972,-1.6265522483532087
17234,13.0,300.1327,64874.235,0.0,-0.0861695353116172,-0.08616840177541596,0.0,0.0,0.0,-4.893302184156325,-7.582134894248452,-7.244710350622244,0.0033127931349222262,0.008203957766667592,-1.6363216005173684
17235,13.0,300.0272,64880.263,0.0,-0.08617454980035555,-0.08617340398560314,0.0,0.0,0.0,-4.887838435642095,-7.582022018187313,-7.252119438003464,-0.0003849374113528646,-0.001809371038721018,-1.6387738684093882
17236,13.0,300.04927000000004,64890.064000000006,0.0,-0.08617953129903666,-0.08617837328651279,0.0,0.0,0.0,-4.892604561462475,-7.579247536763494,-7.253107052875933,-0.002029947175515188,-0.01129484781246469,-1.6325719671973087
17237,13.0,299.9965,64915.369000000006,0.0,-0.0861845457877749,-0.08618337549669974,0.0,0.0,0.0,-4.895590001557116,-7.584244278306633,-7.252817162022322,0.002136119877968618,-0.0024022168834553475,-1.6310123726433885
17238,13.0,300.11305,64886.227999999996,0.0,-0.08618952728645579,-0.08618837770688681,0.0,0.0,0.0,-4.892383976915705,-7.575003842694672,-7.256405283276443,0.0004059103509327326,0.010627814125883591,-1.6205750860133086
17239,13.0,299.82812,64883.852,0.0,-0.08619454177519426,-0.08619337991707376,0.0,0.0,0.0,-4.888604148742665,-7.5820339745384935,-7.252432532284364,-0.0028878154740051972,0.002032161430958718,-1.6211845559484586
17240,13.0,299.69125,64976.602999999996,0.0,-0.08619952327387514,-0.08619838212726094,0.0,0.0,0.0,-4.895431225266445,-7.585340209614793,-7.270493512666842,-0.0053477073637526245,-0.0043712625603850265,-1.6182558578594184
17241,13.0,299.74211,65020.444,0.0,-0.0862045377626135,-0.08620338433744812,0.0,0.0,0.0,-4.909518137431715,-7.586132267217963,-7.268941112188633,0.0027782994515218075,0.0023776947111601976,-1.6253879226632983
17242,13.0,299.93438,64964.865,0.0,-0.08620955225135196,-0.08620838654763507,0.0,0.0,0.0,-4.903057857444136,-7.585499796505542,-7.259139133371252,0.009505437800713671,0.008262903287260061,-1.6339955835878086
17243,13.0,299.87017000000003,64892.792,0.0,-0.08621453375003285,-0.08621338875782225,0.0,0.0,0.0,-4.8954523008685245,-7.581604660471123,-7.248731534969102,0.0015766939599575784,0.002140783057578838,-1.6337430816628884
17244,13.0,299.90076,64926.643,0.0,-0.0862195482387712,-0.0862183909680092,0.0,0.0,0.0,-4.897730999018416,-7.587177839996152,-7.251169617359723,0.002084176422192198,-0.0013379839900987385,-1.6381323797710785
17245,13.0,300.07822999999996,64999.125,0.0,-0.0862245297374521,-0.08622339317819638,0.0,0.0,0.0,-4.916274489098515,-7.5837558917584325,-7.258080388341763,-0.0019352729365215682,0.005566899806210234,-1.6336076101245183
17246,13.0,300.19919,64973.272000000004,0.0,-0.08622954422619056,-0.08622839538838356,0.0,0.0,0.0,-4.899801271622736,-7.584927816824093,-7.265523216951313,-0.002332972587521468,0.003302606830341917,-1.6378996362231086
17247,13.0,299.99421,64927.234000000004,0.0,-0.08623452572487145,-0.08623339759857052,0.0,0.0,0.0,-4.898089284253775,-7.584401230747123,-7.253767286641093,-0.003831331168997946,-0.012949854048801088,-1.6265364416516486
17248,13.0,300.01049,65012.138,0.0,-0.0862395402136098,-0.0862383998087577,0.0,0.0,0.0,-4.903023508265745,-7.588020965404363,-7.2710222265690225,-0.005535194906606204,-0.012765721174378589,-1.6240799181092085
17249,13.0,299.97351000000003,65137.378,0.0,-0.08624452171229091,-0.08624340201894476,0.0,0.0,0.0,-4.921978580536466,-7.603839825965562,-7.2743180251692925,0.003891893532774986,-0.005351797246456265,-1.6190922958169685
17250,13.0,299.90599,65082.64,0.0,-0.08624953620102915,-0.08624840422913171,0.0,0.0,0.0,-4.914281527476825,-7.595702921037514,-7.273512896639833,0.001829482533330868,0.006003951861943914,-1.6241251090636686
17251,13.0,299.97458,64960.884000000005,0.0,-0.0862545506897675,-0.08625337353004137,0.0,0.0,0.0,-4.901042401670225,-7.587733709001013,-7.257710653380272,0.0053948369696289545,0.00901547200090781,-1.6260456233032086
17252,13.0,299.91222,64899.468,0.0,-0.0862595321884485,-0.08625837574022843,0.0,0.0,0.0,-4.881960571811995,-7.592430427189543,-7.253426733282484,0.005069038660300165,-0.0018601469264072083,-1.6376880696022285
17253,13.0,299.88979,64985.4,0.0,-0.08626454667718686,-0.08626337795041539,0.0,0.0,0.0,-4.9021933524588155,-7.5898617368610335,-7.261883926567143,0.006655661863287683,0.000993087456525101,-1.6371741491515086
17254,13.0,300.09364,65066.253,0.0,-0.08626952817586775,-0.08626838016060256,0.0,0.0,0.0,-4.913119633587154,-7.597292913094433,-7.268103762305993,-5.529244899368985e-06,-0.002907404334213467,-1.6404665027014382
17255,13.0,300.14839,65017.75,0.0,-0.08627454266460621,-0.08627338237078952,0.0,0.0,0.0,-4.910888659516975,-7.590709421894693,-7.262174425370812,-0.0010079568916101,-0.007135477632866812,-1.6352249599341384
17256,13.0,300.25816000000003,64991.005999999994,0.0,-0.0862795241632871,-0.0862783845809767,0.0,0.0,0.0,-4.906448901553805,-7.586341807338643,-7.262852188362703,-0.006462715840820394,-0.002284361407348918,-1.6304581248386882
17257,13.0,300.19037000000003,65095.312000000005,0.0,-0.08628453865202546,-0.08628338679116365,0.0,0.0,0.0,-4.913465354521275,-7.600812032016743,-7.273072031521323,-0.0037599241920506263,0.001201460900774959,-1.6289713829669585
17258,13.0,300.24875,65169.767,0.0,-0.08628952015070634,-0.08628838900135083,0.0,0.0,0.0,-4.918992025866715,-7.600950138005373,-7.290039613720893,-5.057758856211936e-05,0.004667529796874326,-1.6287057087907384
17259,13.0,300.04805,65086.607,0.0,-0.08629453463944481,-0.086293391211538,0.0,0.0,0.0,-4.911340062436525,-7.600147238626133,-7.273215913035523,-0.0025620294250026177,-0.0009710215544598661,-1.6271918118163284
17260,13.0,299.91135,65000.575,0.0,-0.08629954912818316,-0.08629839342172496,0.0,0.0,0.0,-4.895067772455575,-7.595715890638793,-7.2677679712228525,0.0012983129182085086,-0.007054369292837043,-1.6297465192934586
17261,13.0,299.81017,65044.795,0.0,-0.08630453062686405,-0.08630339563191214,0.0,0.0,0.0,-4.905187101204275,-7.597281362043293,-7.269524845571243,-0.003465722567215187,0.0016241415237152885,-1.6338585921742883
17262,13.0,299.88289,65097.401,0.0,-0.08630954511560252,-0.0863083978420992,0.0,0.0,0.0,-4.906589844642716,-7.607677206744283,-7.273717269185002,-0.0015820116991323984,0.01036800869424279,-1.6343464720974383
17263,13.0,299.84834,65042.246,0.0,-0.0863145266142834,-0.08631340005228638,0.0,0.0,0.0,-4.904222892409115,-7.596411486832443,-7.270584299875802,0.001065541911160799,0.0018247795329917181,-1.6373075941896784
17264,13.0,299.86253,65034.705,0.0,-0.08631954110302176,-0.08631840226247334,0.0,0.0,0.0,-4.904098667946855,-7.597083372973752,-7.267744362495523,-0.0006608064439840184,-0.0016504603910877586,-1.6378466432428784
17265,13.0,299.99162,65082.024000000005,0.0,-0.08632452260170276,-0.08632337156338288,0.0,0.0,0.0,-4.913043538504645,-7.600210262782352,-7.2700565992237225,0.004537551289946445,-0.0015840845048619686,-1.6379800882810485
17266,13.0,300.13071,65165.69,0.0,-0.08632953709044111,-0.08632837377357006,0.0,0.0,0.0,-4.919986834814895,-7.6047607689814525,-7.283995070249343,0.0070300895912908225,0.002882467033352347,-1.6295215777712584
17267,13.0,300.15943,65213.624,0.0,-0.08633455157917935,-0.08633337598375723,0.0,0.0,0.0,-4.9338656254096245,-7.6070608467084515,-7.282386738365614,0.00018571350404849582,-0.0018443313082463283,-1.6274508998668984
17268,13.0,300.09223,65149.33900000001,0.0,-0.08633953307786046,-0.08633837819394419,0.0,0.0,0.0,-4.918559773374055,-7.602927292925502,-7.282285109380584,-0.0017175720995361683,-0.006076843554262764,-1.6293393954032787
17269,13.0,300.04777,65063.39599999999,0.0,-0.08634454756659893,-0.08634338040413114,0.0,0.0,0.0,-4.906322853241366,-7.600598236245643,-7.270726762839864,-0.0025940143869342875,0.0020824150895433677,-1.6355450456407286
17270,13.0,300.03528,65093.428,0.0,-0.0863495290652797,-0.0863483826143181,0.0,0.0,0.0,-4.903941411531336,-7.608893917464363,-7.273941501432134,0.0022724643312997676,0.009067332572826051,-1.6412074924995685
17271,13.0,299.90401,65164.584,0.0,-0.08635454355401817,-0.08635338482450527,0.0,0.0,0.0,-4.9173597812806245,-7.606713504574174,-7.284333191807713,0.00012556185106698988,-0.005096463287506766,-1.6301365192569484
17272,13.0,299.91778999999997,65166.537000000004,0.0,-0.08635952505269906,-0.08635838703469245,0.0,0.0,0.0,-4.9116980436968545,-7.6147219293895425,-7.282580167809702,0.0005047704274144624,-0.004519835321223016,-1.6409612727252685
17273,13.0,299.92037999999997,65098.859000000004,0.0,-0.08636453954143741,-0.08636338924487941,0.0,0.0,0.0,-4.914566656054966,-7.605260605255783,-7.268600457505014,0.0004296844406790526,-0.0008260481720846072,-1.6356830503043485
17274,13.0,299.93112,65104.879,0.0,-0.0863695210401183,-0.08636839145506658,0.0,0.0,0.0,-4.906057888340216,-7.607570207533722,-7.276629248647394,0.0026338317721389575,0.004043576870094966,-1.6372981709637484
17275,13.0,299.97236000000004,65228.499,0.0,-0.08637453552885677,-0.08637339366525365,0.0,0.0,0.0,-4.929592952387945,-7.613340869503243,-7.284901017163752,-0.004236903063999776,-0.004885180376654766,-1.6297705333208286
17276,13.0,299.97812999999996,65269.274000000005,0.0,-0.08637955001759501,-0.08637839587544083,0.0,0.0,0.0,-4.928309468486275,-7.615586940999912,-7.296333112742014,-0.001040922770831079,-0.008043587228290253,-1.6346993871072684
17277,13.0,299.72029,65188.207,0.0,-0.0863845315162759,-0.086383398085628,0.0,0.0,0.0,-4.919574644674215,-7.612263581996923,-7.283749053125063,0.003790153090233986,0.0041150292406467665,-1.6356585296519286
17278,13.0,299.8172,65118.545,0.0,-0.08638954600501447,-0.08638840029581496,0.0,0.0,0.0,-4.908458581802145,-7.607495328351333,-7.278457658452844,0.005966249838973014,0.004967386877142915,-1.6387092230530085
17279,13.0,300.06111,65187.795999999995,0.0,-0.08639452750369536,-0.0863933695967245,0.0,0.0,0.0,-4.924670380752125,-7.609441173843373,-7.281350487488344,0.008779074267777172,-0.006508208743810194,-1.6332979608939584
17280,13.0,299.92149,65260.519,0.0,-0.0863995419924336,-0.08639837180691168,0.0,0.0,0.0,-4.927434223049895,-7.618270635214773,-7.291863261250874,-4.420605915079836e-05,-0.011786674344754187,-1.6431537432916485
17281,13.0,300.15722,65226.655,0.0,-0.08640452349111472,-0.08640337401709863,0.0,0.0,0.0,-4.926970559804135,-7.612567151726883,-7.287736597568602,0.012611199520878488,0.006119434508966164,-1.6361887634292587
17282,13.0,300.10554,65123.025,0.0,-0.08640953797985318,-0.08640837622728581,0.0,0.0,0.0,-4.906979034006125,-7.608789958004102,-7.280004587380513,0.0016121850712102785,0.0029836794712662373,-1.6377185684302384
17283,13.0,299.88137,65220.697,0.0,-0.08641451947853396,-0.08641337843747277,0.0,0.0,0.0,-4.919648206631475,-7.614310752498962,-7.291504266740443,-0.0017560696251605781,-0.0014450835124186388,-1.6273760206845085
17284,13.0,299.92883,65368.1,0.0,-0.08641953396727242,-0.08641838064765972,0.0,0.0,0.0,-4.934932172464886,-7.6265082572027625,-7.308829627550322,-0.01172729586239399,-0.0049392804339440256,-1.6328302446477985
17285,13.0,300.05804,65313.65900000001,0.0,-0.08642454845601089,-0.0864233828578469,0.0,0.0,0.0,-4.9325283379276454,-7.625112302539993,-7.2960807121421025,-0.0026740995470130777,0.009879586378314261,-1.6303058333486586
17286,13.0,299.81451,65165.127,0.0,-0.08642952995469166,-0.08642838506803396,0.0,0.0,0.0,-4.910440195022716,-7.618597003071984,-7.279534135359083,-0.0015400621317422983,0.005168412859882635,-1.6420946942871284
17287,13.0,299.96007000000003,65173.708,0.0,-0.08643454444343013,-0.08643338727822114,0.0,0.0,0.0,-4.9133720341870655,-7.613335296627693,-7.284472412371453,-0.0014491723818721785,-0.008938592561495403,-1.6364777423577785
17288,13.0,299.85034,65268.799000000006,0.0,-0.08643952594211102,-0.0864383894884081,0.0,0.0,0.0,-4.923618221848286,-7.624193791324343,-7.292273019591313,0.003684588135190536,-0.005285458242534115,-1.6454261592909183
17289,13.0,299.9134,65313.399000000005,0.0,-0.08644454043084926,-0.08644339169859527,0.0,0.0,0.0,-4.927266834133375,-7.626079956385493,-7.300295629908084,0.0027023876659548977,0.013073190903973487,-1.6439447876447184
17290,13.0,300.18375,65230.749,0.0,-0.08644952192953015,-0.08644839390878245,0.0,0.0,0.0,-4.916762369021665,-7.620519645136732,-7.291236870039054,0.004128575482558676,0.01017077753577759,-1.6412450840782786
17291,13.0,300.23136,65214.981,0.0,-0.08645453641826872,-0.0864533961189694,0.0,0.0,0.0,-4.915869999658596,-7.621586394842013,-7.2862694114238025,-0.005553226604060795,-0.0046272739783513855,-1.6372880384627484
17292,13.0,300.24276000000003,65354.549000000006,0.0,-0.08645955090700697,-0.08645839832915658,0.0,0.0,0.0,-4.935224495118736,-7.6290952873580835,-7.3018311091096235,-0.004590257925698185,-0.0042015746807131365,-1.6393510156663484
17293,13.0,300.03664,65419.276,0.0,-0.08646453240568786,-0.08646336763006612,0.0,0.0,0.0,-4.950744142925405,-7.632307999450153,-7.302774039652683,0.0031403347255019066,0.004347428790207816,-1.6361108444965684
17294,13.0,299.88811,65307.148,0.0,-0.08646954689442643,-0.08646836984025308,0.0,0.0,0.0,-4.926623116344845,-7.625176137296293,-7.299943018873283,-0.0017261044759782484,-0.0011907594598438089,-1.6298278832764883
17295,13.0,300.03762,65215.115999999995,0.0,-0.08647452839310743,-0.08647337205044026,0.0,0.0,0.0,-4.917800443749115,-7.619078499519503,-7.286887696634822,-0.004253233210561436,-0.00977086140018394,-1.6320586546966485
17296,13.0,299.85834,65300.675,0.0,-0.08647954288184578,-0.08647837426062721,0.0,0.0,0.0,-4.924606242020795,-7.625671920570223,-7.299496479554214,-0.002353152476513068,-0.0013722722721577288,-1.6340965032977683
17297,13.0,299.90101,65383.901,0.0,-0.08648452438052667,-0.08648337647081439,0.0,0.0,0.0,-4.945420526900005,-7.627378436388644,-7.302274406028373,0.006027969233039244,0.015474612892725384,-1.6354086621772683
17298,13.0,300.00559,65319.965,0.0,-0.08648953886926514,-0.08648837868100157,0.0,0.0,0.0,-4.931886241339275,-7.626760455152653,-7.296991623982003,0.0007272727931787364,-0.0016133442293246782,-1.6404142189962785
17299,13.0,300.02925,65258.941,0.0,-0.0864945203679458,-0.08649338089118852,0.0,0.0,0.0,-4.925437512402836,-7.621065077665563,-7.290585856849803,0.00013873332216441286,-0.014358757034598987,-1.6448400954330786
17300,13.0,300.17952,65356.704000000005,0.0,-0.08649953485668438,-0.08649838310137559,0.0,0.0,0.0,-4.928413934571586,-7.6348435565003925,-7.3035485680291234,0.0008600936388896333,-0.010649100483984389,-1.6453936339627084
17301,13.0,300.34417,65449.901,0.0,-0.08650454934542284,-0.08650338531156254,0.0,0.0,0.0,-4.944967908080336,-7.640108201369972,-7.310059510521703,0.006075868706341555,0.006078951621095814,-1.6464909838210084
17302,13.0,300.07547999999997,65391.027,0.0,-0.08650953084410351,-0.08650838752174972,0.0,0.0,0.0,-4.936253754570315,-7.631211764166963,-7.309773773993503,0.0017697033105561182,0.0025159414402290874,-1.6374896752326484
17303,13.0,300.02889,65317.544,0.0,-0.08651454533284209,-0.0865133897319369,0.0,0.0,0.0,-4.926950497452155,-7.630620330083593,-7.297331569390553,-0.006614951095469844,-0.007033694431171593,-1.6418373287617285
17304,13.0,299.88732999999996,65327.143,0.0,-0.08651952683152297,-0.08651839194212385,0.0,0.0,0.0,-4.924265080712125,-7.627421702167913,-7.306133369034223,-0.0005920297731037894,0.004039021905595426,-1.6406038994149985
17305,13.0,300.13579,65398.769,0.0,-0.08652454132026122,-0.08652339415231103,0.0,0.0,0.0,-4.9344098420383355,-7.634611116927453,-7.310571911097274,-0.003139574787926907,0.015375628490456383,-1.6449531741442383
17306,13.0,299.99028,65414.204000000005,0.0,-0.0865295228189421,-0.08652839636249798,0.0,0.0,0.0,-4.928476654752775,-7.636240220438234,-7.319567748135093,-0.0037876025370822664,-0.001803454266087078,-1.6337222087108285
17307,13.0,300.0498,65374.03,0.0,-0.08653453730768057,-0.08653339857268516,0.0,0.0,0.0,-4.9277872393847355,-7.6373282483956135,-7.306957242690533,-0.006193244915150683,-0.005967177773414594,-1.6431826209194984
17308,13.0,299.92939,65360.236,0.0,-0.08653951880636168,-0.0865383678735947,0.0,0.0,0.0,-4.926412765624086,-7.6367143201600225,-7.304752511797943,0.0036539344825652566,0.010791902886827888,-1.6407822314325984
17309,13.0,299.86782,65429.754,0.0,-0.08654453329510003,-0.08654337008378166,0.0,0.0,0.0,-4.941353746298645,-7.640891848997313,-7.306765738421634,0.011051211825919689,0.014335098658014089,-1.6450572349295085
17310,13.0,299.88542,65482.54,0.0,-0.08654954778383828,-0.08654837229396883,0.0,0.0,0.0,-4.945978726380096,-7.638166003578293,-7.320912533667814,0.005067445425842925,-0.004592996335418446,-1.6373271499166084
17311,13.0,299.6588,65401.554000000004,0.0,-0.08655452928251939,-0.08655337450415601,0.0,0.0,0.0,-4.939263917967395,-7.635357071651072,-7.305818450903144,0.001958584781572268,-0.010708253011572291,-1.6434564010965185
17312,13.0,299.67244,65396.195999999996,0.0,-0.08655954377125774,-0.08655837671434297,0.0,0.0,0.0,-4.933821650355285,-7.640653532573793,-7.3043355593817925,0.004328638472403355,-0.0026547791980813078,-1.6472122152421884
17313,13.0,299.93617,65446.579000000005,0.0,-0.08656452526993863,-0.08656337892453014,0.0,0.0,0.0,-4.948852506313716,-7.637310516518863,-7.307962893414784,0.001119971274732559,0.006072186150178114,-1.6422215531996485
17314,13.0,299.93029,65419.193,0.0,-0.0865695397586771,-0.08656838113471721,0.0,0.0,0.0,-4.941962709608745,-7.635018646117673,-7.308819799024353,-0.004026094658169606,-0.008184935211940213,-1.6405965026892684
17315,13.0,299.91284,65393.238,0.0,-0.08657452125735776,-0.08657338334490416,0.0,0.0,0.0,-4.930691315496346,-7.636107788650164,-7.311112480025622,-0.0016545774288940782,-0.0037652715181283663,-1.6412438681781585
17316,13.0,300.10555,65417.481,0.0,-0.08657953574609623,-0.08657838555509134,0.0,0.0,0.0,-4.930925680244475,-7.640052979239522,-7.314301988690403,0.003017593458738287,0.0053526838402937656,-1.6474094950366585
17317,13.0,299.96877,65422.88,0.0,-0.0865845502348348,-0.0865833877652783,0.0,0.0,0.0,-4.9277185410279545,-7.648549790603092,-7.310653477730322,0.005201716566819455,0.005598917597445145,-1.6430348890549185
17318,13.0,300.03634,65455.367999999995,0.0,-0.08658953173351547,-0.08658838997546547,0.0,0.0,0.0,-4.935275360273755,-7.647404007390014,-7.314117881147233,-0.0016263534486835884,-0.01065494592381129,-1.6446368374630185
17319,13.0,300.04885,65535.184,0.0,-0.08659454622225393,-0.08659339218565243,0.0,0.0,0.0,-4.9473611034915255,-7.654212237461933,-7.3194863841520625,0.0011258213755099189,-0.0023246837964034277,-1.6345051470630985
17320,13.0,299.80742999999995,65483.614,0.0,-0.08659952772093482,-0.0865983943958396,0.0,0.0,0.0,-4.939550667745695,-7.653003227442613,-7.3128295336450835,0.007390629510773343,0.009170920271624361,-1.6451937197179785
17321,13.0,299.88403,65468.749,0.0,-0.08660454220967317,-0.08660339660602678,0.0,0.0,0.0,-4.933424354991075,-7.653546126846193,-7.313894560825194,-0.0004389165980376955,0.008372618413388102,-1.6404482641996385
17322,13.0,299.81387,65495.097,0.0,-0.08660952370835429,-0.0866083659069361,0.0,0.0,0.0,-4.943214073482245,-7.647568052581202,-7.318091848039433,-0.006657094902904114,-0.006954431320898932,-1.6425297838800683
17323,13.0,299.90545,65508.6,0.0,-0.08661453819709253,-0.08661336811712328,0.0,0.0,0.0,-4.947560916411245,-7.646024670028884,-7.319392962492843,-0.004776507175604555,-0.004192831548250256,-1.6433277183338184
17324,13.0,300.11175,65471.136,0.0,-0.08661951969577364,-0.08661837032731046,0.0,0.0,0.0,-4.942221088384246,-7.6463276318087825,-7.313042012191053,-0.002113963239356928,0.006531589692517713,-1.6521817003576384
17325,13.0,300.08701,65442.045999999995,0.0,-0.08662453418451199,-0.08662337253749741,0.0,0.0,0.0,-4.943656053175865,-7.641291778811783,-7.307800064123714,0.0002947085133304657,-0.00046019519464272955,-1.6455486612280086
17326,13.0,299.99543,65474.634000000005,0.0,-0.08662954867325023,-0.08662837474768459,0.0,0.0,0.0,-4.941240262287446,-7.641489565231302,-7.319924006870253,-0.0013470729448207487,-0.01074585978903379,-1.6470562760517984
17327,13.0,300.09373999999997,65552.757,0.0,-0.08663453017193135,-0.08663337695787166,0.0,0.0,0.0,-4.947413589846705,-7.6511320584829425,-7.327855627328042,0.006160636095132443,0.0008970014156371471,-1.6438650448618484
17328,13.0,300.03764,65610.6,0.0,-0.08663954466066959,-0.08663837916805883,0.0,0.0,0.0,-4.949565834384115,-7.659070974341452,-7.335347294592413,0.004477767710196266,0.00944039747944469,-1.6440658710316685
17329,13.0,300.08448,65596.03,0.0,-0.08664452615935048,-0.08664338137824601,0.0,0.0,0.0,-4.950487182700045,-7.657846258945583,-7.331221644160243,0.0022395819337545277,0.0023608398023717476,-1.6425169156037984
17330,13.0,300.21506,65535.452000000005,0.0,-0.08664954064808905,-0.08664838358843296,0.0,0.0,0.0,-4.939232608539305,-7.656132954351492,-7.325775627522763,-0.004457159013762346,-0.006715869488204714,-1.6417758244806586
17331,13.0,300.16017999999997,65566.44900000001,0.0,-0.08665452214676972,-0.08665338579861992,0.0,0.0,0.0,-4.955352201730185,-7.653248737941842,-7.321962260771413,-0.002101427207794718,-0.000924942769997244,-1.6434456606454584
17332,13.0,300.23675,65638.091,0.0,-0.08665953663550818,-0.08665838800880687,0.0,0.0,0.0,-4.951157042341155,-7.666614520010943,-7.334569017190603,0.002740287981970367,0.008007208712599972,-1.6467737819239183
17333,13.0,300.04184,65529.954000000005,0.0,-0.08666451813418907,-0.08666339021899405,0.0,0.0,0.0,-4.940551860169505,-7.656304294943403,-7.322613577935694,-0.0006128665622677203,0.004305840953103416,-1.6484491909642685
17334,13.0,299.98315,65473.142,0.0,-0.08666953262292743,-0.08666839242918123,0.0,0.0,0.0,-4.923291752666065,-7.653333141675172,-7.325575409303002,-0.001970999324447488,-0.0012756375968706287,-1.6493595961791185
17335,13.0,299.9124,65585.87599999999,0.0,-0.08667454711166589,-0.08667339463936818,0.0,0.0,0.0,-4.954218678843316,-7.653447132311422,-7.328802712196513,0.001093265751121929,0.006775495203589313,-1.6511776708335484
17336,13.0,299.74504,65643.735,0.0,-0.08667952861034678,-0.08667836394027773,0.0,0.0,0.0,-4.9579676028883055,-7.660974668629334,-7.335113841769372,0.0035931585256671365,0.009859567900063591,-1.6500145610437584
17337,13.0,299.87518,65573.023,0.0,-0.08668454309908513,-0.0866833661504649,0.0,0.0,0.0,-4.9592852333183455,-7.653129073105033,-7.320147428517303,-0.0006024119794584335,0.0005962292590707465,-1.6480240312223087
17338,13.0,299.95977999999997,65571.483,0.0,-0.08668952459776613,-0.08668836836065197,0.0,0.0,0.0,-4.939577316223325,-7.657594972920783,-7.334921324250373,-0.0017218699011603282,-0.010223831311013589,-1.6461416151865285
17339,13.0,299.97762,65639.464,0.0,-0.08669453908650449,-0.08669337057083903,0.0,0.0,0.0,-4.959033947293546,-7.659419025750802,-7.334305166864563,-0.000982893897074075,-0.003477645582466897,-1.6391919354006486
17340,13.0,300.19281,65682.08099999999,0.0,-0.0866995205851856,-0.0866983727810261,0.0,0.0,0.0,-4.956700736288275,-7.669709999066443,-7.339301908407703,0.0016015191953576387,-0.0016479184505618887,-1.6443835249380183
17341,13.0,300.1825,65651.819,0.0,-0.08670453507392384,-0.08670337499121328,0.0,0.0,0.0,-4.959689216133215,-7.667523405350643,-7.329300927270683,0.0006173757886577464,-0.006752455314865452,-1.6464675777436986
17342,13.0,300.08768,65597.725,0.0,-0.08670954956266241,-0.08670837720140046,0.0,0.0,0.0,-4.952412155240025,-7.6619277316733925,-7.325730537893312,-4.9707010155699954e-05,-0.01010346003623387,-1.6496495883577385
17343,13.0,300.11617,65614.463,0.0,-0.0867145310613433,-0.08671337941158741,0.0,0.0,0.0,-4.953188608791655,-7.667202103743933,-7.324767544998273,0.003153650149041037,0.003210831905184437,-1.6504520824369384
17344,13.0,299.88815,65658.275,0.0,-0.08671954555008154,-0.08671838162177459,0.0,0.0,0.0,-4.951816465506235,-7.669868471382083,-7.336791277309923,0.006996598838385544,0.006048781187443224,-1.6481339688581584
17345,13.0,299.95493999999997,65674.898,0.0,-0.08672452704876243,-0.08672338383196154,0.0,0.0,0.0,-4.9528825059364445,-7.667048191053743,-7.343598392806733,-0.0016519698297617284,-0.0022488594543201477,-1.6432258866987686
17346,13.0,299.87708,65617.839,0.0,-0.0867295415375009,-0.0867283860421485,0.0,0.0,0.0,-4.9435796541183255,-7.662698207049433,-7.3399067173923935,-0.0008895438949011472,-0.0032952130430372074,-1.6451177259604786
17347,13.0,299.87042,65661.823,0.0,-0.08673452303618168,-0.08673338825233567,0.0,0.0,0.0,-4.949774057279666,-7.670973521941143,-7.338807239708884,-0.0014250076842123086,0.004311622760824035,-1.6488390896027485
17348,13.0,299.81788,65734.003,0.0,-0.08673953752492014,-0.08673839046252274,0.0,0.0,0.0,-4.971823392705765,-7.669969593742062,-7.339702446172233,0.003798177727050956,0.008913311870175392,-1.6499575150631285
17349,13.0,299.85952000000003,65690.894,0.0,-0.08674451902360103,-0.08674339267270992,0.0,0.0,0.0,-4.959442489733865,-7.669519710697664,-7.339429172620263,0.00017528813323959184,-0.003159122307531097,-1.6508768368788584
17350,13.0,299.91246,65633.69099999999,0.0,-0.08674953351233938,-0.08674839488289687,0.0,0.0,0.0,-4.9493471750125355,-7.669058884552182,-7.332597232496003,0.0012792297711251488,-0.003890119534499906,-1.6545447009158483
17351,13.0,300.0674,65688.44900000001,0.0,-0.08675454800107785,-0.08675336418380641,0.0,0.0,0.0,-4.955830759752415,-7.671805298948233,-7.340012095402793,-0.003962895513657336,0.001856060083453868,-1.6498333919258783
17352,13.0,299.95867999999996,65740.789,0.0,-0.08675952949975874,-0.08675836639399359,0.0,0.0,0.0,-4.961919278278305,-7.675988805961113,-7.345650325584243,-0.0003495750132603676,0.0016967292410041384,-1.6526008819240086
17353,13.0,300.1472,65714.366,0.0,-0.08676454398849698,-0.08676336860418055,0.0,0.0,0.0,-4.958902427430566,-7.670718486890973,-7.3459055632844334,-0.0022748588439360875,-0.0018610362560199784,-1.6490055665941783
17354,13.0,300.13396,65678.267,0.0,-0.08676952548717809,-0.08676837081436772,0.0,0.0,0.0,-4.958035693295025,-7.666754145874722,-7.339763241178233,-0.002316506868096428,-0.0009732511910399141,-1.6524152545056883
17355,13.0,300.18241,65729.62299999999,0.0,-0.08677453997591655,-0.0867733730245549,0.0,0.0,0.0,-4.958990681514275,-7.678921658375563,-7.342251986073853,0.005783412506128374,0.0025200646588610176,-1.6430957853859285
17356,13.0,300.06639,65775.297,0.0,-0.08677952147459755,-0.08677837523474186,0.0,0.0,0.0,-4.966020509383065,-7.677387699049174,-7.350639771726663,-0.0014164693295946388,0.004544401063272465,-1.6499059406330383
17357,13.0,299.81188,65775.166,0.0,-0.0867845359633358,-0.08678337744492903,0.0,0.0,0.0,-4.965753923281755,-7.677117870547543,-7.351136365600673,0.0036579512086116765,-0.004649066252227115,-1.6440422623043383
17358,13.0,299.82545,65785.231,0.0,-0.08678951746201669,-0.08678837965511599,0.0,0.0,0.0,-4.965214164953485,-7.680753817206384,-7.351099685947052,-0.0023178250051515176,-0.004683139015989836,-1.6521473511792484
17359,13.0,299.94423,65779.118,0.0,-0.08679453195075515,-0.08679338186530317,0.0,0.0,0.0,-4.973140212535725,-7.676265220588393,-7.345803934299402,-8.890837476332341e-05,0.003281014065410877,-1.6531244282506785
17360,13.0,299.76135,65745.12700000001,0.0,-0.0867995464394935,-0.08679838407549034,0.0,0.0,0.0,-4.965257329407746,-7.680467574053132,-7.339151947392903,-0.001033206364694529,0.0061837515723137644,-1.6634849105231784
17361,13.0,299.95995,65759.83099999999,0.0,-0.08680452793817439,-0.0868033862856773,0.0,0.0,0.0,-4.968196463972816,-7.677728556382814,-7.343421580664283,0.0016849874961953185,-0.005272173317822995,-1.6548548567714585
17362,13.0,300.10312999999996,65777.701,0.0,-0.08680954242691286,-0.08680838849586436,0.0,0.0,0.0,-4.967006908355415,-7.673450614460613,-7.354321010664973,0.0012099419054369689,0.0018056007350989187,-1.6508174604229984
17363,13.0,300.11184,65771.62700000001,0.0,-0.08681452392559363,-0.08681339070605132,0.0,0.0,0.0,-4.962837181543895,-7.680669109498023,-7.349425898106864,0.005072985066789645,-0.0009139720983820232,-1.6469635636676483
17364,13.0,300.10464,65770.855,0.0,-0.0868195384143321,-0.0868183929162385,0.0,0.0,0.0,-4.953314758429104,-7.681084542039022,-7.3582983212825015,-0.003182563544619567,0.004302145022038656,-1.6478761980327183
17365,13.0,299.93056,65791.367,0.0,-0.08682451991301299,-0.08682336221714804,0.0,0.0,0.0,-4.966578607538145,-7.683771073354163,-7.348582975348673,-0.008787869785270222,-0.006194944236893395,-1.6472036026163384
17366,13.0,299.86562999999995,65847.924,0.0,-0.08682953440175123,-0.08682836442733499,0.0,0.0,0.0,-4.967124242716995,-7.692225530863553,-7.3567750010821635,-0.005154933593802336,-1.580077404691498e-05,-1.6480489571747683
17367,13.0,300.03165,65872.4,0.0,-0.0868345488904898,-0.08683336663752217,0.0,0.0,0.0,-4.972982044195115,-7.692120051528143,-7.358462771773734,0.0010765028454425589,-0.0006003465400570904,-1.6528666574252384
17368,13.0,299.95799999999997,65795.155,0.0,-0.0868395303891708,-0.08683836884770935,0.0,0.0,0.0,-4.957087899151486,-7.685371805862142,-7.357624408640993,-0.001052488818072559,-0.0016139892643383385,-1.6491011160786084
17369,13.0,300.05138,65735.186,0.0,-0.08684454487790916,-0.0868433710578963,0.0,0.0,0.0,-4.953305031228146,-7.677613957796503,-7.350936248705922,0.0014014873122910286,-0.012772423823790088,-1.6574926507567882
17370,13.0,300.18359,65823.994,0.0,-0.08684952637659005,-0.08684837326808348,0.0,0.0,0.0,-4.974389955209065,-7.683045484957552,-7.351415009378173,-0.00025923578243457977,-0.0016186622724745283,-1.6521550518800086
17371,13.0,299.93464,65837.063,0.0,-0.08685454086532851,-0.08685337547827043,0.0,0.0,0.0,-4.984700889551675,-7.682871205940352,-7.345251206369852,0.006406939665215714,0.0026525768989889573,-1.6605898523374583
17372,13.0,299.67828,65763.128,0.0,-0.0868595223640094,-0.08685837768845761,0.0,0.0,0.0,-4.964299200113185,-7.682064354885723,-7.343985150369902,0.004522932826778715,0.0032429110993754066,-1.6590655188870183
17373,13.0,300.0589,65806.821,0.0,-0.08686453685274775,-0.08686337989864479,0.0,0.0,0.0,-4.962572317967755,-7.688672164087862,-7.352385804298984,-0.0007474401280015972,-0.0023596400129283377,-1.6585282936839985
17374,13.0,299.93405,65941.056,0.0,-0.08686951835142864,-0.08686838210883174,0.0,0.0,0.0,-4.978042519169546,-7.692828617323073,-7.373563238014034,-0.0010025685086383082,0.002059963797802598,-1.6421239772150185
17375,13.0,300.20984,65944.149,0.0,-0.0868745328401671,-0.08687338431901892,0.0,0.0,0.0,-4.974784616123015,-7.6988583673431625,-7.371731788458283,-0.004483464607558506,-0.002733982729248088,-1.6511933762100985
17376,13.0,300.04402000000005,65835.211,0.0,-0.08687954732890546,-0.08687838652920599,0.0,0.0,0.0,-4.964226347430995,-7.692234852764473,-7.355799038585844,-0.002468476651219678,0.004670824075599446,-1.6511126201771285
17377,13.0,300.05766,65837.78,0.0,-0.08688452882758635,-0.08688338873939294,0.0,0.0,0.0,-4.965706199202045,-7.689739217768173,-7.357595733663162,-0.006265297231086694,-0.0018394583858654082,-1.6520131968660086
17378,13.0,299.88622000000004,65920.517,0.0,-0.08688954331632481,-0.08688839094958012,0.0,0.0,0.0,-4.971345442633595,-7.7019466523229525,-7.364899037733943,0.00026036338794086574,0.009128275006715602,-1.6592626973564786
17379,13.0,300.03955,65870.718,0.0,-0.08689452481500548,-0.08689336025048966,0.0,0.0,0.0,-4.971797757478235,-7.689200472690001,-7.362055351328293,-0.0037519094850846364,0.006027720682789714,-1.6565085822596683
17380,13.0,300.12911,65811.916,0.0,-0.08689953930374406,-0.08689836246067684,0.0,0.0,0.0,-4.961970346083345,-7.6882296777691925,-7.354979217929934,0.007460079293827504,0.0011347540870665087,-1.6594725414521883
17381,13.0,299.99307999999996,65801.34599999999,0.0,-0.08690452080242506,-0.08690336467086379,0.0,0.0,0.0,-4.961797586941295,-7.685855126159843,-7.354313512614233,0.0015702306402196986,-0.016415953646378482,-1.6534887929866382
17382,13.0,300.04016,65898.84,0.0,-0.08690953529116341,-0.08690836688105075,0.0,0.0,0.0,-4.978265636841565,-7.694327518196002,-7.359008812252622,0.003157043219650907,-0.009098652640042101,-1.6622178412731285
17383,13.0,300.07919,66022.942,0.0,-0.0869145167898443,-0.08691336909123792,0.0,0.0,0.0,-4.991237669921805,-7.705981718196183,-7.372106184370233,0.007724949861393192,-0.007440394276184743,-1.6583871479450685
17384,13.0,300.0531,65991.018,0.0,-0.08691953127858276,-0.08691837130142488,0.0,0.0,0.0,-4.982511458735595,-7.700289177809372,-7.3768209384105425,0.008153828028570172,0.0076379103605780626,-1.6601630713953384
17385,13.0,300.18951,65933.494,0.0,-0.08692454576732112,-0.08692337351161206,0.0,0.0,0.0,-4.9697662923527455,-7.6992759277093725,-7.373093596592683,0.0028074032367941273,0.001206894555761219,-1.6467582791973885
17386,13.0,300.26797,65965.62400000001,0.0,-0.086929527266002,-0.08692837572179923,0.0,0.0,0.0,-4.973320469728515,-7.702344454312214,-7.376237407677953,-0.004159134092324576,0.0029427476122765774,-1.6541117391481184
17387,13.0,300.1543,66019.571,0.0,-0.08693454175474047,-0.08693337793198619,0.0,0.0,0.0,-4.982364233496066,-7.703928772168572,-7.382008170972484,-0.011777864135134687,0.002246301504442698,-1.6540570236427183
17388,13.0,300.20873,65939.537,0.0,-0.08693952325342136,-0.08693838014217337,0.0,0.0,0.0,-4.977127453004236,-7.700898039794462,-7.3659473462874026,-0.01090796257978209,0.001014332757731849,-1.6595991977146882
17389,13.0,300.02307,65875.925,0.0,-0.08694453774215971,-0.08694338235236043,0.0,0.0,0.0,-4.970319020282296,-7.694056879094292,-7.360260378776143,-0.0063712950465728635,-0.007324662369637893,-1.6529830798617284
17390,13.0,299.96685,65912.918,0.0,-0.0869495192408406,-0.08694838456254761,0.0,0.0,0.0,-4.973116907783425,-7.698904368897702,-7.363859848431384,-0.0013775246567010986,-0.0008357810472451673,-1.6605910682375786
17391,13.0,300.02606000000003,65989.115,0.0,-0.08695453372957906,-0.08695338677273456,0.0,0.0,0.0,-4.988755004526785,-7.704264968551752,-7.366023340044903,0.006736676173708174,0.004579011254888225,-1.6517483332898684
17392,13.0,299.79977,66037.076,0.0,-0.0869595482183173,-0.08695838898292174,0.0,0.0,0.0,-4.9905785507317555,-7.7062283432705225,-7.376815264209984,0.004789754306086945,-0.0007670654652134672,-1.6566956282281284
17393,13.0,299.84859,66034.452,0.0,-0.0869645297169983,-0.08696335828383128,0.0,0.0,0.0,-4.997963624085605,-7.704228592873163,-7.370632412099783,0.005559763080455895,-0.008633242449784691,-1.6465015216220484
17394,13.0,299.96707999999995,66001.552,0.0,-0.08696954420573677,-0.08696836049401846,0.0,0.0,0.0,-4.986447428749045,-7.708056651750963,-7.368319567421522,-0.0001050118420788619,-0.0012664886577426987,-1.6634909900237784
17395,13.0,300.07443,66005.14,0.0,-0.08697452570441766,-0.08697336270420541,0.0,0.0,0.0,-4.984045215411966,-7.707429044639022,-7.3724400502781835,0.006978247764499432,0.005133823946518974,-1.6665767418783182
17396,13.0,300.18514,66061.1,0.0,-0.0869795401931559,-0.08697836491439237,0.0,0.0,0.0,-4.986518052281015,-7.712968786910753,-7.381437812491193,-0.01010835160241663,0.003503882072606237,-1.6620387999804587
17397,13.0,300.09972999999997,66011.143,0.0,-0.08698452169183701,-0.08698336712457932,0.0,0.0,0.0,-4.980986112035055,-7.704256659900932,-7.380496401823283,-0.0053361603656130255,0.0015484220530173583,-1.6568117466895884
17398,13.0,299.86656,65912.867,0.0,-0.08698953618057537,-0.0869883693347665,0.0,0.0,0.0,-4.961043627541886,-7.703696028620603,-7.371125966223493,-0.006092011705609744,0.008319767389497112,-1.6602964151084982
17399,13.0,300.06435,65985.545,0.0,-0.08699451767925626,-0.08699337154495368,0.0,0.0,0.0,-4.9732153956931455,-7.710024991395223,-7.374717735177972,-6.230390461166664e-05,0.012960024040054788,-1.6615881063359785
17400,13.0,300.00325,66090.12299999999,0.0,-0.08699953216799472,-0.08699837375514075,0.0,0.0,0.0,-4.988936173644666,-7.7150648973926215,-7.385745949266372,-0.002196483644726058,-0.0014112183636014086,-1.6498540622279183
17401,13.0,299.98519,66076.709,0.0,-0.08700454665673307,-0.08700337596532781,0.0,0.0,0.0,-4.981913337201565,-7.721236401101703,-7.382519862272983,0.0034765046628542962,-0.006477911755220114,-1.6603225569610784
17402,13.0,300.05006000000003,66041.104,0.0,-0.08700952815541396,-0.08700837817551488,0.0,0.0,0.0,-4.981018536038254,-7.712082598373293,-7.381745536546564,0.007480229595916182,0.0014881191825909285,-1.6568360646919882
17403,13.0,300.12844,66051.435,0.0,-0.08701454264415243,-0.08701338038570205,0.0,0.0,0.0,-4.985785269808695,-7.714536994090523,-7.377664671768812,0.00990955537784697,-0.0014285105911330184,-1.6654384567159786
17404,13.0,300.28862999999996,66078.80099999999,0.0,-0.08701952414283332,-0.08701838259588923,0.0,0.0,0.0,-4.984327000264774,-7.718328170664682,-7.383650244084543,0.004388631186974176,-0.0042786661933714755,-1.6559137031259585
17405,13.0,300.21344,66097.11099999999,0.0,-0.08702453863157156,-0.08702338480607619,0.0,0.0,0.0,-4.998870381600096,-7.707994539519833,-7.385006378018383,-0.004980360632748325,-0.003988289891638566,-1.6630567110309185
17406,13.0,300.04866,66119.599,0.0,-0.08702952013025256,-0.08702838701626336,0.0,0.0,0.0,-4.990902486788725,-7.7184404387757635,-7.389364062723452,0.007968655964845113,0.01028247417380119,-1.6671103193809786
17407,13.0,299.92812999999995,66053.433,0.0,-0.08703453461899102,-0.08703338922645032,0.0,0.0,0.0,-4.987371614165255,-7.7082590991209425,-7.382963564491773,-0.0025241183685360876,0.012523393293712687,-1.6673452920791685
17408,13.0,300.07941,66078.725,0.0,-0.08703951611767191,-0.08703835852735986,0.0,0.0,0.0,-4.982021552312245,-7.714197251331992,-7.390063610592493,-0.001094487224117479,-0.005453100876879155,-1.6552944046648383
17409,13.0,299.79015,66145.16,0.0,-0.08704453060641015,-0.08704336073754704,0.0,0.0,0.0,-4.997263164291476,-7.7161273914474835,-7.3930863382908125,-0.011986392018964788,-0.00967895262468825,-1.6511352156543586
17410,13.0,299.96041,66141.67599999999,0.0,-0.08704954509514873,-0.08704836294773399,0.0,0.0,0.0,-4.987988582151145,-7.722159167967772,-7.395270196231342,-0.003835436149128077,0.0026495707885922774,-1.6540292605899785
17411,13.0,300.09463999999997,66055.303,0.0,-0.08705452659382962,-0.08705336515792117,0.0,0.0,0.0,-4.993933928437905,-7.713432855456553,-7.371795927189613,0.0007573540304250233,0.004865930245954925,-1.6548310453941084
17412,13.0,300.23339,66068.83099999999,0.0,-0.08705954108256786,-0.08705836736810812,0.0,0.0,0.0,-4.983545379137635,-7.718760828457383,-7.380968677694893,-0.0025101253846550875,-0.007649927304114044,-1.6575161581591085
17413,13.0,300.27537,66145.311,0.0,-0.08706452258124897,-0.08706336957829519,0.0,0.0,0.0,-4.998050560944185,-7.723341934809503,-7.385130602480643,0.004083251488360546,-0.004371487501907226,-1.6605386832074085
17414,13.0,300.15182000000004,66173.245,0.0,-0.08706953706998721,-0.08706837178848237,0.0,0.0,0.0,-4.991192681617365,-7.729684981760513,-7.394136369369444,0.005206428281109465,0.007093851190933604,-1.6695053386423484
17415,13.0,300.11242999999996,66169.584,0.0,-0.08707451856866821,-0.08707337399866932,0.0,0.0,0.0,-4.995693741211586,-7.729003267093233,-7.389204374507694,0.01018728135340639,0.0023307541777525275,-1.6645057599989284
17416,13.0,300.30961,66119.224,0.0,-0.08707953305740668,-0.0870783762088565,0.0,0.0,0.0,-4.988223149549295,-7.722044569381462,-7.388325380045943,0.0019356793511366782,-0.01006839236219796,-1.6629163758920682
17417,13.0,300.30001,66134.828,0.0,-0.08708454754614492,-0.08708337841904368,0.0,0.0,0.0,-4.997730373912586,-7.722369822663563,-7.383236331418693,-0.0038393545899147964,-0.0005551718077311915,-1.6679268976365684
17418,13.0,300.17447999999996,66235.173,0.0,-0.08708952904482581,-0.08708838062923063,0.0,0.0,0.0,-5.0038067334372744,-7.729985309090153,-7.400046657202743,0.0041428659566690364,0.01173897356979649,-1.6664345828892884
17419,13.0,300.10038,66250.157,0.0,-0.08709454353356438,-0.08709338283941781,0.0,0.0,0.0,-5.006616881264615,-7.733558434242792,-7.398218247397293,0.0014480946890658185,0.012628965848131887,-1.6641781762415984
17420,13.0,300.09071,66086.49900000001,0.0,-0.08709952503224527,-0.08709838504960477,0.0,0.0,0.0,-4.9859287460228545,-7.713254118138914,-7.389462550633173,-0.004492907895840486,-0.005208855724374035,-1.6529141788549284
17421,13.0,300.06768,66099.80900000001,0.0,-0.08710453952098351,-0.08710338725979194,0.0,0.0,0.0,-4.980789237540625,-7.722375192889093,-7.3895269933395324,-0.005127760961895605,-0.0036847652513080165,-1.6613560720630784
17422,13.0,299.94025,66227.107,0.0,-0.0871095210196644,-0.08710835656070148,0.0,0.0,0.0,-5.004472742728005,-7.729740305215972,-7.397173687869203,-0.007096040115124633,0.008240274575426783,-1.6608980830178786
17423,13.0,299.96336,66253.061,0.0,-0.08711453550840298,-0.08711335877088844,0.0,0.0,0.0,-5.0117396711201945,-7.731776937916973,-7.3957595960296425,-0.005250137661273245,0.0033699312199863165,-1.6637015433945586
17424,13.0,300.01892999999995,66170.643,0.0,-0.08711951700708387,-0.08711836098107562,0.0,0.0,0.0,-4.991755643372925,-7.732364217674934,-7.3901032286714035,-0.005212801928213495,-0.007992977513620462,-1.6715561568447483
17425,13.0,300.13428,66146.558,0.0,-0.08712453149582211,-0.08712336319126279,0.0,0.0,0.0,-4.987680554120745,-7.727954755889752,-7.3912665411112135,0.004370299871465017,0.005802944725656055,-1.6692600307931382
17426,13.0,300.06334,66230.72099999999,0.0,-0.08712954598456057,-0.08712836540144975,0.0,0.0,0.0,-4.999831449319945,-7.731183477333403,-7.401470476243263,0.008113516379966722,0.0027146975400947873,-1.6657219640939585
17427,13.0,300.21193,66289.201,0.0,-0.08713452748324146,-0.08713336761163681,0.0,0.0,0.0,-5.0042578323817954,-7.739885775817252,-7.406118153126952,0.0055798932188675845,0.0024231344185197475,-1.6632541934754086
17428,13.0,300.31579,66246.756,0.0,-0.08713954197198004,-0.08713836982182377,0.0,0.0,0.0,-5.003239820006326,-7.7298538905521825,-7.404265830619142,0.00011063552198887588,-0.007874198156072851,-1.661200639497738
17429,13.0,300.3311,66197.568,0.0,-0.08714452347066093,-0.08714337203201095,0.0,0.0,0.0,-4.997110163526375,-7.730767436842343,-7.394530219683312,0.007394853851765253,0.01128971975370859,-1.6610821905610484
17430,13.0,300.21234,66230.79,0.0,-0.08714953795939917,-0.08714837424219812,0.0,0.0,0.0,-4.992645276960725,-7.735809875964993,-7.4040511229229535,-0.00045490326294795653,0.012318519189743188,-1.6655535619273385
17431,13.0,300.07623,66294.98700000001,0.0,-0.08715451945808006,-0.08715337645238508,0.0,0.0,0.0,-5.007302750257305,-7.737911559322413,-7.4068064539198835,-0.0033419256964973866,0.00038688239558231963,-1.6616971320467384
17432,13.0,300.0599,66293.08099999999,0.0,-0.08715953394681863,-0.08715837866257226,0.0,0.0,0.0,-5.000783296463886,-7.7390591663856725,-7.411598822917852,-0.005328107965743315,-0.012442049575684688,-1.6607391040771882
17433,13.0,299.95962000000003,66192.148,0.0,-0.08716451544549952,-0.08716338087275921,0.0,0.0,0.0,-4.9902607955003955,-7.732595137372723,-7.397904241191302,0.0024690401196002876,-0.003792262676942186,-1.6727333508109286
17434,13.0,299.8866,66221.59700000001,0.0,-0.08716952993423777,-0.08716838308294639,0.0,0.0,0.0,-5.0006614024768545,-7.737541216410863,-7.391509315835172,0.003739540234488887,-0.007873391507668243,-1.6649762120203584
17435,13.0,299.93404,66316.825,0.0,-0.08717454442297623,-0.08717338529313357,0.0,0.0,0.0,-5.0147886419961045,-7.742100943185873,-7.4017691823727425,0.0015669353482444786,-0.007281756598128424,-1.6699361725848685
17436,13.0,299.97648,66299.216,0.0,-0.08717952592165712,-0.08717835459404288,0.0,0.0,0.0,-5.006766538304386,-7.739632057992213,-7.406907677604873,0.0016501147714786484,-0.003984534280142916,-1.6621796417443586
17437,13.0,299.92044,66288.556,0.0,-0.08718454041039547,-0.08718335680423006,0.0,0.0,0.0,-5.003238097481154,-7.743621223635913,-7.403206376314583,-0.001073357311832119,0.012614268655431388,-1.6668426187045586
17438,13.0,300.0502,66325.76400000001,0.0,-0.08718952190907636,-0.08718835901441724,0.0,0.0,0.0,-5.003772992208945,-7.743030093527572,-7.414572813286363,-0.001974328053676008,0.0032013917579777674,-1.6538395801712584
17439,13.0,299.97246,66308.411,0.0,-0.08719453639781483,-0.0871933612246042,0.0,0.0,0.0,-5.005294589884116,-7.745165214138293,-7.405641621604923,-0.008799823198024932,-0.0031183706044092168,-1.6661607013872586
17440,13.0,299.94445,66311.731,0.0,-0.08719951789649572,-0.08719836343479137,0.0,0.0,0.0,-5.007513303628086,-7.739116111041293,-7.410480904082522,-0.00027375253555727175,-0.0023744512975900976,-1.6599191820962684
17441,13.0,300.11214,66349.908,0.0,-0.08720453238523429,-0.08720336564497844,0.0,0.0,0.0,-5.017847238747965,-7.740113351789714,-7.4107545829345325,0.008910511550874021,0.009086493537517091,-1.6696787057344584
17442,13.0,300.36605,66299.328,0.0,-0.08720954687397253,-0.08720836785516561,0.0,0.0,0.0,-5.000610030696786,-7.743873320260793,-7.408856765497233,0.006258314924647594,0.00092354667347946,-1.6711225871269584
17443,13.0,300.35354,66266.511,0.0,-0.08721452837265342,-0.08721337006535257,0.0,0.0,0.0,-5.001260334610965,-7.737779634159393,-7.404324801774964,0.0026868205980435473,-0.004834525977655565,-1.6741911137297985
17444,13.0,300.22564,66366.855,0.0,-0.08721954286139189,-0.08721837227553952,0.0,0.0,0.0,-5.002787707811705,-7.750867988351113,-7.420210840817793,-0.00030945754390608176,-0.004542108483596206,-1.6709119324311683
17445,13.0,299.94383,66414.481,0.0,-0.08722452436007289,-0.0872233744857267,0.0,0.0,0.0,-5.025420269995365,-7.748544808521833,-7.414378674567202,-0.0059919138428058535,0.006906524450870894,-1.6687117611640285
17446,13.0,299.90202999999997,66346.655,0.0,-0.08722953884881113,-0.08722837669591366,0.0,0.0,0.0,-5.004055891636866,-7.750796452894053,-7.412874200818722,-0.003346828915056297,-0.004758533841355725,-1.6736694925783182
17447,13.0,299.86949,66299.01400000001,0.0,-0.08723452034749202,-0.08723337890610083,0.0,0.0,0.0,-5.004368783267745,-7.748634582480693,-7.400241505196973,-0.005160001262852475,-0.005624999566944234,-1.6699890642400883
17448,13.0,299.96336,66380.744,0.0,-0.08723953483623048,-0.08723838111628801,0.0,0.0,0.0,-5.004725143327915,-7.746136414359142,-7.427227192460252,-0.0002015021190942108,0.0023922866271753078,-1.6661823849393982
17449,13.0,300.07005,66424.205,0.0,-0.08724451633491137,-0.08724338332647497,0.0,0.0,0.0,-5.011165158313495,-7.756334472640614,-7.423799975322013,0.004742309579429516,0.01021230457787599,-1.6600435078835383
17450,13.0,299.97256,66379.605,0.0,-0.08724953082364972,-0.08724838553666214,0.0,0.0,0.0,-5.004214566602525,-7.750081300973473,-7.423446553687134,-0.001179808050112989,0.0015439943527303787,-1.6647386048719086
17451,13.0,300.05852999999996,66382.354,0.0,-0.08725454531238819,-0.08725335483757168,0.0,0.0,0.0,-5.014826030924795,-7.742428830918233,-7.421323186777573,0.0014076365244979087,-0.00022906274472923275,-1.6635555340551484
17452,13.0,299.95867999999996,66414.302,0.0,-0.08725952681106908,-0.08725835704775864,0.0,0.0,0.0,-5.016806326920236,-7.750428541782742,-7.421054574176063,0.0038338444345459867,-0.0008521248929481792,-1.6713968739290286
17453,13.0,299.83192,66476.356,0.0,-0.08726454129980743,-0.08726335925794582,0.0,0.0,0.0,-5.026592904336095,-7.754147676274792,-7.426411830104784,0.0047054655766432954,0.008285063776222132,-1.6710114335909882
17454,13.0,299.87857,66483.932,0.0,-0.08726952279848854,-0.08726836146813288,0.0,0.0,0.0,-5.0275437382299355,-7.759377667990952,-7.422533716672043,-0.0014189148087109887,-0.008584115018686191,-1.6758507160685885
17455,13.0,299.79443,66359.851,0.0,-0.08727453728722678,-0.08727336367832006,0.0,0.0,0.0,-5.0010935536445045,-7.753094098820812,-7.4175498434051725,0.0005090473358215604,-0.0026633528138024576,-1.6713088224953383
17456,13.0,299.8941,66317.392,0.0,-0.08727951878590767,-0.08727836588850724,0.0,0.0,0.0,-5.001790872363325,-7.7518431402473515,-7.405197108786053,-0.0035548548347868565,0.0015913426179782885,-1.6719378481574183
17457,13.0,300.15154,66471.853,0.0,-0.08728453327464614,-0.08728336809869419,0.0,0.0,0.0,-5.020661844875745,-7.763249803248103,-7.421871861706722,0.0006520686006866604,0.007850244417083803,-1.6672782149225485
17458,13.0,299.86715,66479.87700000001,0.0,-0.08728951477332703,-0.08728837030888115,0.0,0.0,0.0,-5.0217321409563755,-7.763692998841842,-7.4227974656730735,-0.005656517927204854,-0.001899696610935458,-1.6719741225109983
17459,13.0,299.90771,66373.157,0.0,-0.08729452926206538,-0.0872933725190681,0.0,0.0,0.0,-5.004225003078555,-7.757690403924433,-7.413867084591714,-0.004410382120245826,-0.004328913367155486,-1.6706191031522684
17460,13.0,300.10065,66410.118,0.0,-0.08729954375080384,-0.08729837472925528,0.0,0.0,0.0,-5.011476023444175,-7.758459460750332,-7.417082025834003,-0.003575179719867767,-0.0029922615982882267,-1.6713938341787284
17461,13.0,300.15261,66502.975,0.0,-0.08730452524948473,-0.08730337693944246,0.0,0.0,0.0,-5.021774900110595,-7.761428688843373,-7.432040130435253,-0.0003687710769348717,0.0023172911236738277,-1.6672328213180685
17462,13.0,300.08955,66467.99799999999,0.0,-0.08730953973822309,-0.08730837914962952,0.0,0.0,0.0,-5.016866108676135,-7.762739733147763,-7.425005742941013,0.0017547008256004882,0.0008896863173352031,-1.6760802172162383
17463,13.0,299.97762,66431.438,0.0,-0.08731452123690397,-0.08731338135981659,0.0,0.0,0.0,-5.011881627459204,-7.754403015299992,-7.427213918883943,0.003444091805405397,0.00024217586275339676,-1.6676286981321384
17464,13.0,300.0267,66479.658,0.0,-0.08731953572564244,-0.08731838357000365,0.0,0.0,0.0,-5.014657628758175,-7.7620782834824835,-7.431420325349083,0.006153921286719745,9.71441870866348e-05,-1.6785013783301885
17465,13.0,300.12815,66481.103,0.0,-0.08732451722432333,-0.0873233528709132,0.0,0.0,0.0,-5.0235997635406955,-7.762891923312783,-7.4221036933296025,0.004092567715079986,0.0018587781268471183,-1.6721650188298385
17466,13.0,300.02206,66506.713,0.0,-0.08732953171306168,-0.08732835508110037,0.0,0.0,0.0,-5.021582483916604,-7.764372383033892,-7.430425111100863,0.002569094311324868,-0.004193346076651036,-1.6794696401257485
17467,13.0,299.80325,66570.55099999999,0.0,-0.08733454620180015,-0.08733335729128733,0.0,0.0,0.0,-5.0344663642381455,-7.765629623757972,-7.435689350670403,-0.0025114556807113776,-0.004530456918046285,-1.6661692126880985
17468,13.0,299.68498,66515.226,0.0,-0.08733952770048103,-0.0873383595014745,0.0,0.0,0.0,-5.021497472233215,-7.7613794448885125,-7.436090901685033,-0.007600764307937033,0.004980560445668045,-1.6691378328310784
17469,13.0,300.03487,66536.715,0.0,-0.08734454218921939,-0.08734336171166168,0.0,0.0,0.0,-5.022274939034945,-7.764728844419072,-7.438496256097423,-0.0033532811903680872,0.009503035992676632,-1.6648336477312884
17470,13.0,300.17316,66566.698,0.0,-0.08734952368790039,-0.08734836392184864,0.0,0.0,0.0,-5.019008423362566,-7.770740761237402,-7.444864735625943,-0.0014429300519811085,0.003663105307895346,-1.6745613553163383
17471,13.0,300.03186,66528.692,0.0,-0.08735453817663874,-0.08735336613203581,0.0,0.0,0.0,-5.020867737296066,-7.7639582677180226,-7.438235040221643,-0.004236609626770816,-0.0032091253893660175,-1.6653417926564384
17472,13.0,300.07468,66500.233,0.0,-0.08735951967531963,-0.08735836834222277,0.0,0.0,0.0,-5.012667605561775,-7.7675594598984326,-7.434183053071743,0.009123213214516042,-0.005255688650621085,-1.6725097265138587
17473,13.0,300.02718,66521.272,0.0,-0.0873645341640581,-0.08736337055240995,0.0,0.0,0.0,-5.026486614400604,-7.764060808628143,-7.430258026159373,0.004866478515584035,-0.0018148723788139582,-1.6753512850942984
17474,13.0,299.98258,66517.698,0.0,-0.08736951566273898,-0.0873683727625969,0.0,0.0,0.0,-5.017022250516545,-7.765966428091213,-7.436730667798173,0.005404649688897395,-0.004055762925072637,-1.6759227581506984
17475,13.0,300.06559,66523.13900000001,0.0,-0.08737453015147734,-0.08737337497278397,0.0,0.0,0.0,-5.021257027984485,-7.771750870262093,-7.4283654776225925,0.0025777070384998776,-0.005731737257653425,-1.6740634442171984
17476,13.0,299.73965,66581.23700000001,0.0,-0.0873795446402158,-0.08737837718297115,0.0,0.0,0.0,-5.030003301522675,-7.770455632659262,-7.4385746816551634,0.0031321533388944667,0.009071641013576262,-1.6744344964038183
17477,13.0,299.94896,66647.841,0.0,-0.08738452613889669,-0.0873833793931581,0.0,0.0,0.0,-5.045024531605155,-7.777029092683012,-7.437225944447052,-0.0017814619766416079,0.0020653366577828578,-1.6739076063518186
17478,13.0,299.9669,66571.895,0.0,-0.08738954062763504,-0.08738838160334528,0.0,0.0,0.0,-5.027724299397755,-7.776845998389942,-7.431623481994134,-0.003180814269646927,-0.003763810107509137,-1.6787145661512284
17479,13.0,299.98228,66560.493,0.0,-0.08739452212631593,-0.08739335090425482,0.0,0.0,0.0,-5.030848149456055,-7.767162569834262,-7.434717035874444,-0.006002551043680665,-0.0012007684456566189,-1.6729364061309682
17480,13.0,299.90828,66644.151,0.0,-0.0873995366150544,-0.08739835311444177,0.0,0.0,0.0,-5.034229770339795,-7.782743113971943,-7.441185016562784,-0.0005058619814821906,0.007172116655157803,-1.6742303265086682
17481,13.0,300.02802,66579.44,0.0,-0.08740451811373529,-0.08740335532462895,0.0,0.0,0.0,-5.0252652427300655,-7.774811088214112,-7.438410737788983,0.001221227181075739,0.006060510874575853,-1.6729024622526183
17482,13.0,300.05859,66515.519,0.0,-0.08740953260247364,-0.08740835753481613,0.0,0.0,0.0,-5.012270310197565,-7.7741773002765635,-7.432609273016422,-0.0035606706877108363,-0.0014213596798772787,-1.6765388142114985
17483,13.0,300.24934,66593.226,0.0,-0.08741451410115464,-0.08741335974500308,0.0,0.0,0.0,-5.027243309575286,-7.775610035917963,-7.439824424328503,0.002392220259293758,-0.01054082457829839,-1.6673646451560784
17484,13.0,300.22066,66644.703,0.0,-0.08741952858989299,-0.08741836195519026,0.0,0.0,0.0,-5.030071594579415,-7.780524400227972,-7.447729598958683,0.004217419277826876,-0.0019905793693798884,-1.6694260011595186
17485,13.0,300.25858999999997,66609.466,0.0,-0.08742454307863146,-0.08742336416537722,0.0,0.0,0.0,-5.029931664740604,-7.781521539651384,-7.436161221241973,0.005526388952637125,-0.0035133925393698463,-1.6740193678378483
17486,13.0,300.01166,66625.187,0.0,-0.08742952457731235,-0.08742836637556439,0.0,0.0,0.0,-5.033031703421555,-7.776239061580043,-7.443122553404002,0.000872165409388524,-0.003929233217510127,-1.6738474192958783
17487,13.0,300.05102999999997,66671.093,0.0,-0.08743453906605081,-0.08743336858575157,0.0,0.0,0.0,-5.037715857308846,-7.783515818498202,-7.445115616350702,-0.0010598298150470591,0.001149593134781009,-1.6730079415880283
17488,13.0,299.83272,66659.773,0.0,-0.08743952056473159,-0.08743837079593852,0.0,0.0,0.0,-5.033657588008325,-7.788135327029112,-7.441113481105723,-0.0015062613243064186,0.016409573210498785,-1.6804222978697683
17489,13.0,299.85197999999997,66694.292,0.0,-0.08744453505347005,-0.08744337300612559,0.0,0.0,0.0,-5.039199255455245,-7.783247509871722,-7.450952646201773,-0.0010489811488763792,0.01048566324285439,-1.6816967638455484
17490,13.0,299.93082000000004,66661.607,0.0,-0.08744951655215094,-0.08744837521631255,0.0,0.0,0.0,-5.029239716247315,-7.787195841536392,-7.447028328564473,-0.0038753759349448263,0.0014317655557542588,-1.6781624461717384
17491,13.0,300.11765,66591.622,0.0,-0.0874545310408893,-0.08745337742649972,0.0,0.0,0.0,-5.024104564740515,-7.774204050079203,-7.443881680378922,-0.009512948415754912,-0.008470683899141412,-1.6754560551546385
17492,13.0,300.00092,66642.09599999999,0.0,-0.08745954552962776,-0.0874583796366869,0.0,0.0,0.0,-5.021531314786555,-7.782271040750352,-7.453730876650964,0.0006102813964925844,0.0030732760100337267,-1.6780871616893085
17493,13.0,300.10166,66692.12599999999,0.0,-0.08746452702830865,-0.08746334893759644,0.0,0.0,0.0,-5.033136169506866,-7.785960993639522,-7.453643737142364,0.0002897541965690127,0.002040545467586158,-1.6748736389971584
17494,13.0,300.03303999999997,66667.352,0.0,-0.08746954151704689,-0.0874683511477834,0.0,0.0,0.0,-5.030078687330115,-7.781269949651553,-7.453861788563884,0.0025823922056372674,0.0009729918699418209,-1.6759031010987584
17495,13.0,300.08164,66705.422,0.0,-0.08747452301572778,-0.08747335335797057,0.0,0.0,0.0,-5.040031640412395,-7.788120128277613,-7.448630986247643,0.002034119131476928,-0.0035187827259268167,-1.6722118309844585
17496,13.0,299.97016,66764.766,0.0,-0.08747953750446635,-0.08747835556815753,0.0,0.0,0.0,-5.0474071892153045,-7.789079980097343,-7.4583344771553035,0.004284309287153405,0.005452224314217645,-1.6748300692428584
17497,13.0,300.03902999999997,66740.98700000001,0.0,-0.08748451900314724,-0.0874833577783447,0.0,0.0,0.0,-5.044283643132036,-7.790266901264483,-7.453043082483084,0.005534623129574775,-0.005342599873973556,-1.6789671694011585
17498,13.0,300.00875,66691.132,0.0,-0.08748953349188571,-0.08748835998853166,0.0,0.0,0.0,-5.035049793645725,-7.788418834407093,-7.448970121056114,0.0003890832153295236,-0.0091880780408677,-1.6792484476289185
17499,13.0,299.93821,66689.61,0.0,-0.0874945149905666,-0.08749336219871884,0.0,0.0,0.0,-5.043447813124545,-7.777191415349034,-7.451336971964702,-0.0028432067330526572,-0.0018671074479691585,-1.6753125789404784
17500,13.0,299.89751,66669.887,0.0,-0.08749952947930506,-0.08749836440890602,0.0,0.0,0.0,-5.034316808523386,-7.784820175351933,-7.446844018371283,-0.0024193461803708777,0.01191996840865929,-1.681082126334888
17501,13.0,299.97774,66693.709,0.0,-0.08750454396804341,-0.08750336661909297,0.0,0.0,0.0,-5.039309395741116,-7.784946932939444,-7.4489657640806834,-0.003495715682100277,0.005693300932335055,-1.6794568731744886
17502,13.0,300.04862,66784.435,0.0,-0.0875095254667243,-0.08750836882928015,0.0,0.0,0.0,-5.0431764647477655,-7.793610727919492,-7.464013439990772,-0.006215050158627693,-0.004449765125132625,-1.6758899288474582
17503,13.0,300.19164,66799.018,0.0,-0.08751453995546277,-0.08751337103946721,0.0,0.0,0.0,-5.045566924383686,-7.799291007980092,-7.460375466831732,-0.0006125432949558164,-0.01308513002990179,-1.6733819321999384
17504,13.0,300.14391,66754.429,0.0,-0.08751952145414343,-0.08751837324965439,0.0,0.0,0.0,-5.035872755376945,-7.792660299325694,-7.463146401880202,0.005343436615906135,-0.0009960648108839432,-1.6795831241369483
17505,13.0,300.1645,66804.465,0.0,-0.08752453594288201,-0.08752337545984135,0.0,0.0,0.0,-5.044460556599495,-7.803382410558884,-7.459046285350553,0.0026256036747019074,-0.006395500375561744,-1.6787242933521882
17506,13.0,299.98132000000004,66811.588,0.0,-0.0875295174415629,-0.0875283776700283,0.0,0.0,0.0,-5.042792442959866,-7.801506985948793,-7.464755037738962,0.002172416725700838,-0.006022991540597984,-1.6798676447650285
17507,13.0,299.81132,66762.244,0.0,-0.08753453193030114,-0.08753337988021548,0.0,0.0,0.0,-5.037377127800415,-7.798097095387263,-7.458580798254613,0.0018259680753590181,0.002406218309425258,-1.6798302558363383
17508,13.0,299.82457,66741.266,0.0,-0.08753951342898203,-0.08753834918112502,0.0,0.0,0.0,-5.035924127157016,-7.798156674493143,-7.453597634262813,0.0054483242132577344,0.012516951049576886,-1.6853646278825385
17509,13.0,299.75127000000003,66759.192,0.0,-0.0875445279177206,-0.08754335139131197,0.0,0.0,0.0,-5.043885131867705,-7.791148023551443,-7.458094336881602,-0.001098387325077389,-0.003114691391971107,-1.6782903183343585
17510,13.0,299.88907,66766.358,0.0,-0.08754954240645885,-0.08754835360149915,0.0,0.0,0.0,-5.041310159388575,-7.799283712579372,-7.454711804072772,-0.004910686009496975,-0.005497011083212755,-1.6788209574117283
17511,13.0,300.18297,66780.833,0.0,-0.08755452390513996,-0.0875533558116861,0.0,0.0,0.0,-5.042612793717136,-7.793653081773673,-7.463439839109163,-0.002056197851155928,0.005502745065528655,-1.6756999444537084
17512,13.0,299.83931,66837.113,0.0,-0.0875595383938782,-0.08755835802187328,0.0,0.0,0.0,-5.048198638868415,-7.795179847024353,-7.473434943395603,0.0005029377518260916,0.016165670739177487,-1.6771718928739785
17513,13.0,299.93206000000004,66849.115,0.0,-0.08756451989255931,-0.08756336023206046,0.0,0.0,0.0,-5.044554890183805,-7.801617328884682,-7.4742894172049335,-0.004004773950890416,-0.002033795904695028,-1.6801751661703785
17514,13.0,300.00077000000005,66815.882,0.0,-0.08756953438129766,-0.08756836244224753,0.0,0.0,0.0,-5.046167275067935,-7.793753393533572,-7.470439168149943,-0.002018839927918988,-0.004067323906063616,-1.6781249559180385
17515,13.0,300.07476,66860.49,0.0,-0.08757451587997855,-0.0875733646524346,0.0,0.0,0.0,-5.0460496367313254,-7.807073478023162,-7.470796338810193,0.0032330505547022467,-0.003938998415348876,-1.6830265532767883
17516,13.0,300.13788999999997,66875.034,0.0,-0.08757953036871702,-0.08757836686262166,0.0,0.0,0.0,-5.050773003397485,-7.807129510753692,-7.4704379522498225,0.007855478867100403,-0.0003355629904099887,-1.6853448695055882
17517,13.0,300.18745,66801.259,0.0,-0.08758454485745537,-0.08758336907280884,0.0,0.0,0.0,-5.044103081964215,-7.800329589332592,-7.461481935940933,-0.0032444923774814665,-0.007869687470602682,-1.6853299747291184
17518,13.0,300.21345,66809.092,0.0,-0.08758952635613626,-0.08758837128299601,0.0,0.0,0.0,-5.040802014463425,-7.811492565684292,-7.456001164825023,-0.004471411794968985,-0.0024237898900094377,-1.6850430223007986
17519,13.0,300.12371,66837.119,0.0,-0.08759454084487472,-0.08759337349318297,0.0,0.0,0.0,-5.042992053229566,-7.802885006084792,-7.470938396474214,-0.005582611464910855,0.011616402731699688,-1.6809847530002786
17520,13.0,299.88555,66851.05900000001,0.0,-0.08759952234355539,-0.08759837570336992,0.0,0.0,0.0,-5.041021991060136,-7.814677008098572,-7.465353665898042,-0.0006035921219824044,0.009804485800777411,-1.6863755475073083
17521,13.0,299.83345,66860.407,0.0,-0.08760453683229397,-0.08760337791355688,0.0,0.0,0.0,-5.047787158002805,-7.809694654706853,-7.466412410927533,-0.002049671000636778,-0.0042934581249563265,-1.6808424926862384
17522,13.0,299.91038,66879.86200000001,0.0,-0.08760951833097486,-0.08760834721446664,0.0,0.0,0.0,-5.052795450597086,-7.8013362533069435,-7.475676353941813,-0.0031271762544032673,-0.0056034549313929444,-1.6805797569353087
17523,13.0,299.91307,66886.009,0.0,-0.0876145328197131,-0.08761334942465382,0.0,0.0,0.0,-5.049254749447645,-7.812299720713952,-7.4701221221936525,0.0037217156453547367,-0.004887097445843965,-1.6776700066231383
17524,13.0,300.19129,66946.446,0.0,-0.08761951431839399,-0.08761835163484077,0.0,0.0,0.0,-5.054385645304025,-7.812753758083764,-7.482908629180583,0.003755270435666337,-0.005500586842815655,-1.6842142850440085
17525,13.0,300.02737,66991.567,0.0,-0.08762452880713245,-0.08762335384502773,0.0,0.0,0.0,-5.063414108995065,-7.8153045138855015,-7.485045067016433,0.0037294114825142566,-0.0031379676719432968,-1.6796823213217382
17526,13.0,299.98415,66905.849,0.0,-0.0876295432958708,-0.0876283560552149,0.0,0.0,0.0,-5.0531803843100755,-7.811758442510533,-7.472768731454852,0.002058604928093488,-0.004860986193416985,-1.6909893818376585
17527,13.0,299.92659,66868.09,0.0,-0.08763452479455192,-0.08763335826540197,0.0,0.0,0.0,-5.054806448070555,-7.803333875879093,-7.4680894411680425,0.002185131697230708,0.0053631428104759845,-1.6847021649671585
17528,13.0,299.90576,66962.078,0.0,-0.08763953928329016,-0.08763836047558915,0.0,0.0,0.0,-5.068127849785275,-7.816567023510102,-7.470104795616944,-0.0032590012069883766,-0.0006735855035827135,-1.6873506994035483
17529,13.0,299.91012,66965.493,0.0,-0.08764452078197127,-0.0876433626857761,0.0,0.0,0.0,-5.065245355900795,-7.811757327935423,-7.478835161128563,-0.00014004506561137185,-0.007616273215292643,-1.6782573877061084
17530,13.0,300.01223,66917.358,0.0,-0.08764953527070962,-0.08764836489596328,0.0,0.0,0.0,-5.055484515037475,-7.813294225687102,-7.472426962196122,0.001023257261962629,0.0003175722079944367,-1.6817236149731984
17531,13.0,299.79476,66951.392,0.0,-0.08765451676939051,-0.08765336710615046,0.0,0.0,0.0,-5.056907016852866,-7.813761333983202,-7.480883142230684,0.003131344360014627,0.0035496326450964663,-1.6792570602547683
17532,13.0,299.93857,67040.992,0.0,-0.08765953125812898,-0.08765836931633741,0.0,0.0,0.0,-5.063190788673025,-7.822379026083702,-7.493217739673012,0.0030210844093078175,0.0030677687930902075,-1.6838651190595486
17533,13.0,300.00012999999996,66997.503,0.0,-0.08766451275680964,-0.08766337152652459,0.0,0.0,0.0,-5.051262605845805,-7.826713912661521,-7.487591567167753,-0.0034989861494480468,0.002431607013205928,-1.686065391651698
17534,13.0,300.04927999999995,66946.119,0.0,-0.0876695272455481,-0.08766837373671155,0.0,0.0,0.0,-5.051671249611135,-7.814159439947493,-7.484117943174933,0.0016838189148549881,-0.0006453766106662123,-1.6872601148446082
17535,13.0,300.10141,66944.572,0.0,-0.08767454173428668,-0.08767337594689872,0.0,0.0,0.0,-5.046455038096336,-7.816103360264342,-7.486919985001473,-0.00028183535319498376,-0.0040875915425138765,-1.6879157889843184
17536,13.0,300.01534,66918.506,0.0,-0.08767952323296735,-0.08767834524780826,0.0,0.0,0.0,-5.045648491016736,-7.817776033529422,-7.478130344359003,-0.0015010237332145086,-0.005860068726543754,-1.6873034819488884
17537,13.0,299.93431,66971.973,0.0,-0.08768453772170581,-0.08768334745799522,0.0,0.0,0.0,-5.051032902048136,-7.817409034343203,-7.489365666767843,-0.003466413097158337,0.0006284416247223594,-1.6837541681735984
17538,13.0,300.02418,67064.398,0.0,-0.0876895192203867,-0.0876883496681824,0.0,0.0,0.0,-5.064584210210545,-7.829659025402182,-7.491659057044184,-0.00048078405163969154,0.0019378507461009784,-1.6848895149106482
17539,13.0,299.8669,66987.671,0.0,-0.08769453370912506,-0.08769335187836935,0.0,0.0,0.0,-5.063936844721655,-7.815168535722083,-7.483473921411372,-0.0033086217869105466,0.009221139682355632,-1.6846170519587584
17540,13.0,299.86792,67002.333,0.0,-0.08769951520780617,-0.08769835408855642,0.0,0.0,0.0,-5.068718473268565,-7.817080234685752,-7.481237475790652,-0.004219555614337716,0.003364822109007087,-1.6875942847275882
17541,13.0,299.83929,67070.292,0.0,-0.08770452969654441,-0.0877033562987436,0.0,0.0,0.0,-5.076234458535336,-7.824519010294902,-7.486940553978503,0.0022661508712516778,0.0020296968014154784,-1.6843563427080284
17542,13.0,299.87312000000003,67049.692,0.0,-0.08770954418528276,-0.08770835850893055,0.0,0.0,0.0,-5.071504303093505,-7.819963235195283,-7.4899645989019525,0.003191685733944857,-0.0013582592259247486,-1.6825313779529185
17543,13.0,299.98766,67037.577,0.0,-0.08771452568396376,-0.08771336071911773,0.0,0.0,0.0,-5.062882152692565,-7.825905744381762,-7.488961481302953,0.0025268371212044073,-0.002951747400989787,-1.6837583224990085
17544,13.0,300.15652,67070.13799999999,0.0,-0.08771954017270234,-0.0877183629293049,0.0,0.0,0.0,-5.063006073179795,-7.824557007173652,-7.500084028975662,0.0014361543472373986,-0.004388160127002686,-1.6883435831765383
17545,13.0,300.1219,67057.614,0.0,-0.08772452167138323,-0.08772336513949186,0.0,0.0,0.0,-5.065953617720695,-7.827451558734323,-7.490435152248392,-0.0015829205844720986,0.0034587768391046965,-1.6826797177675585
17546,13.0,300.1531,67038.69,0.0,-0.08772953616012147,-0.08772836734967904,0.0,0.0,0.0,-5.061433306374575,-7.831447918453733,-7.485206579082373,0.0025518119123192277,-0.0004033832342558256,-1.6849924611208087
17547,13.0,300.14988,67120.239,0.0,-0.08773451765880236,-0.08773336955986599,0.0,0.0,0.0,-5.0723402344260045,-7.834128066293243,-7.496408464237913,0.0003030788204190507,-0.008304783852318353,-1.6806666937938883
17548,13.0,300.05856,67115.646,0.0,-0.08773953214754093,-0.08773837177005317,0.0,0.0,0.0,-5.0734613956616545,-7.835741261777453,-7.492277848880253,0.0071481214742396635,-0.008188001408067821,-1.6808777537897182
17549,13.0,300.00359,67009.202,0.0,-0.0877445136462216,-0.08774337398024035,0.0,0.0,0.0,-5.056265224239525,-7.826696079459762,-7.486162985851762,0.003999858775980326,-0.0025074272009637973,-1.6878611748039285
17550,13.0,299.99251,67029.666,0.0,-0.08774952813496006,-0.0877483761904273,0.0,0.0,0.0,-5.0566279677753245,-7.828731293610622,-7.489985370529003,-0.0032928853035824766,0.0043333634602696755,-1.6907117513102585
17551,13.0,300.03843,67135.451,0.0,-0.08775454262369853,-0.08775334549133684,0.0,0.0,0.0,-5.074056072145345,-7.837555790056533,-7.495888768261623,-0.007124162669000113,0.0045189544015860755,-1.6951684305500982
17552,13.0,299.93104,67103.15299999999,0.0,-0.0877595241223793,-0.08775834770152402,0.0,0.0,0.0,-5.071693172912145,-7.833473202753614,-7.492516469278803,-0.002298838015502648,-0.001080912712527779,-1.6985696071607685
17553,13.0,299.81295,67037.367,0.0,-0.08776453861111777,-0.08776334991171097,0.0,0.0,0.0,-5.058169729127486,-7.833637855894863,-7.485878161248652,0.0015706561039366886,0.0037116570102870266,-1.6970506439358584
17554,13.0,300.06547,67074.741,0.0,-0.08776952010979866,-0.08776835212189815,0.0,0.0,0.0,-5.063924989695486,-7.831881082871483,-7.493240233825233,0.005065763329351915,-0.0059853540616584535,-1.6872949706480485
17555,13.0,300.12434,67103.964,0.0,-0.08777453459853701,-0.08777335433208522,0.0,0.0,0.0,-5.060758380482965,-7.833985502004173,-7.503185587531762,0.005807852605165425,-0.004766838337850315,-1.6844072078630483
17556,13.0,299.8434,67145.726,0.0,-0.08777951609721801,-0.08777835654227217,0.0,0.0,0.0,-5.066707070495054,-7.844108985078282,-7.499807918323413,0.0014498249149365785,-0.0035130625238122765,-1.6872904110225981
17557,13.0,300.00091000000003,67169.19099999999,0.0,-0.08778453058595659,-0.08778335875245935,0.0,0.0,0.0,-5.076877061748755,-7.835378315591633,-7.505501471960322,0.0041998609708190065,0.008307972347733034,-1.6801016042131183
17558,13.0,300.19739,67132.28,0.0,-0.08778951208463748,-0.0877883609626463,0.0,0.0,0.0,-5.078371909621286,-7.835416312470383,-7.492748604876714,-0.0004965893954445575,0.005637586362336454,-1.6838793045609486
17559,13.0,300.19574,67120.233,0.0,-0.08779452657337572,-0.08779336317283348,0.0,0.0,0.0,-5.068657475612545,-7.8367050652725725,-7.497512197571843,-0.003280000308685827,0.0057587950883238245,-1.6879004889078086
17560,13.0,300.3513,67212.799,0.0,-0.0877995410621143,-0.08779836538302044,0.0,0.0,0.0,-5.083885408715425,-7.840375867734852,-7.506751214633662,-0.006145116042025734,0.0012549588848547988,-1.6902046196352085
17561,13.0,300.17817,67160.302,0.0,-0.08780452256079518,-0.08780336759320762,0.0,0.0,0.0,-5.0640232749551854,-7.844255095742702,-7.506776545886162,-0.004646732129296755,0.003428516530168237,-1.6886965995113783
17562,13.0,300.03581,67048.708,0.0,-0.08780953704953343,-0.08780836980339479,0.0,0.0,0.0,-5.058109643396555,-7.829779602164082,-7.493243881525593,-0.003002383865462217,0.0025272829512484074,-1.6958007999375084
17563,13.0,299.89474,67141.384,0.0,-0.08781451854821432,-0.08781337201358175,0.0,0.0,0.0,-5.068453711017436,-7.837898977865402,-7.502951425433652,-0.003346976646920877,0.007638218895233513,-1.6946191476708883
17564,13.0,300.13625,67237.93400000001,0.0,-0.08781953303695278,-0.08781837422376892,0.0,0.0,0.0,-5.085137785839025,-7.846521634891393,-7.506993482732573,0.002045075607458248,0.0014404475892361083,-1.6933263418682987
17565,13.0,299.8767,67201.293,0.0,-0.08782451453563356,-0.08782334352467847,0.0,0.0,0.0,-5.076349057121646,-7.841483046119123,-7.509682851147993,0.0075957856022456725,0.001398555067826639,-1.6896967786850883
17566,13.0,300.01718999999997,67202.68400000001,0.0,-0.08782952902437202,-0.08782834573486542,0.0,0.0,0.0,-5.075444224782345,-7.841544651725202,-7.510949109797964,0.008754410037818001,-0.005453900027233025,-1.6823835447633282
17567,13.0,300.23886,67240.145,0.0,-0.08783454351311049,-0.0878333479450526,0.0,0.0,0.0,-5.078238363258104,-7.846826825821513,-7.514259803174702,0.005593233061734124,-0.008959770400510492,-1.6862718920220783
17568,13.0,300.05887,67222.266,0.0,-0.08783952501179126,-0.08783835015523966,0.0,0.0,0.0,-5.0727390496653655,-7.848525742264184,-7.512625430763403,-0.0014360239419495286,-0.006208147898946494,-1.6863459606043882
17569,13.0,299.85631,67237.969,0.0,-0.08784453950052973,-0.08784335236542684,0.0,0.0,0.0,-5.0801669834984455,-7.849339382094484,-7.509157176996114,-0.0006012660543903394,-0.0028242946225861773,-1.6917578307134982
17570,13.0,299.87807999999995,67258.44900000001,0.0,-0.08784952099921084,-0.0878483545756138,0.0,0.0,0.0,-5.082914005844555,-7.851072951690573,-7.510901993668313,0.0032600512380670074,0.0014762982016242887,-1.6917011900329084
17571,13.0,299.83217,67200.25,0.0,-0.08785453548794908,-0.08785335678580075,0.0,0.0,0.0,-5.076013772663555,-7.848038368966082,-7.503145969452852,0.000961239465741949,0.0035505364641856664,-1.6978877911684787
17572,13.0,300.09566,67190.695,0.0,-0.08785951698662997,-0.08785835899598793,0.0,0.0,0.0,-5.0694480133405655,-7.846890660577813,-7.507954955752463,-0.0025458948357102574,-0.0004877937360964936,-1.6943431383436485
17573,13.0,300.11472000000003,67251.93400000001,0.0,-0.08786453147536843,-0.08786336120617488,0.0,0.0,0.0,-5.076144684576475,-7.849851681345043,-7.516912390611492,-0.0037455943025113767,-0.004552843057805626,-1.6880214709697483
17574,13.0,300.10616,67271.35,0.0,-0.08786951297404944,-0.08786836341636206,0.0,0.0,0.0,-5.079849126942075,-7.849733536383384,-7.519227869740013,-0.0014828468370205886,-0.0013918679211416688,-1.6790477227841083
17575,13.0,300.1839,67232.899,0.0,-0.08787452746278768,-0.08787336562654924,0.0,0.0,0.0,-5.079623577469816,-7.847954573182813,-7.509544137209303,0.0024498513918565076,-4.820887428659545e-05,-1.6907664668156586
17576,13.0,299.91226,67297.485,0.0,-0.08787954195152614,-0.0878783678367363,0.0,0.0,0.0,-5.089108105030865,-7.853485094878633,-7.514161720565022,-0.00089344595143375,0.002361192514731558,-1.6839717129700682
17577,13.0,299.88824,67322.27,0.0,-0.08788452345020703,-0.08788337004692337,0.0,0.0,0.0,-5.095192266581325,-7.855936856145603,-7.513160021516162,-0.003958389793112656,0.00036153525532075164,-1.6929364432298184
17578,13.0,299.86907,67286.25099999999,0.0,-0.08788953793894538,-0.08788837225711044,0.0,0.0,0.0,-5.084768253527555,-7.855581408010522,-7.512990403449423,-0.0016763727425201083,0.0008112312942822953,-1.6946052661445186
17579,13.0,299.85071,67237.782,0.0,-0.08789451943762627,-0.08789334155801998,0.0,0.0,0.0,-5.072322198574224,-7.8587069805939915,-7.507577520090212,0.0027004197316106773,-0.002995388488096827,-1.708257291366868
17580,13.0,300.16624,67214.226,0.0,-0.08789953392636474,-0.08789834376820704,0.0,0.0,0.0,-5.076609361072336,-7.8520976515167025,-7.502739554837742,0.0019762451228652078,-0.003788560261076786,-1.6953700673199983
17581,13.0,300.23307,67212.519,0.0,-0.08790451542504552,-0.08790334597839411,0.0,0.0,0.0,-5.067169011215645,-7.854802218683623,-7.5089561481762725,0.0015325420934751287,-0.0027222934707944475,-1.7038590766577983
17582,13.0,299.97391,67271.135,0.0,-0.08790952991378398,-0.08790834818858129,0.0,0.0,0.0,-5.078439696052975,-7.855252101728023,-7.515053380653023,0.004178960964981337,0.006542331663452863,-1.6930794128189284
17583,13.0,299.76417999999995,67339.878,0.0,-0.08791451141246509,-0.08791335039876846,0.0,0.0,0.0,-5.085643498963935,-7.858156177839633,-7.525841657117742,0.003545913206629387,0.006591007185006764,-1.6964802854545682
17584,13.0,299.74348,67333.049,0.0,-0.08791952590120333,-0.08791835260895542,0.0,0.0,0.0,-5.083636250515835,-7.857717643196352,-7.526211594729252,0.0029536126930988773,0.00991477057611167,-1.6894507615608085
17585,13.0,299.72317000000004,67351.335,0.0,-0.08792454038994169,-0.0879233548191426,0.0,0.0,0.0,-5.080925705173325,-7.861392093358992,-7.530806379957723,-0.007151598847257854,-0.0014853099466886786,-1.6856833963639986
17586,13.0,299.73569,67442.168,0.0,-0.08792952188862269,-0.08792835702932955,0.0,0.0,0.0,-5.101267916830945,-7.863400963007252,-7.536066059901813,-0.00010541211639836591,0.00018531461788162885,-1.6887570905423483
17587,13.0,300.02283,67432.62599999999,0.0,-0.08793453637736104,-0.0879333592395165,0.0,0.0,0.0,-5.094405072578636,-7.870521578085001,-7.532907759340113,-0.003524889381629497,-0.005550365489753425,-1.6919513614825983
17588,13.0,300.01069,67305.704,0.0,-0.08793951787604193,-0.08793836144970368,0.0,0.0,0.0,-5.084325463233855,-7.861577923427332,-7.513349904584902,0.006225577928491704,0.003974662387068636,-1.6990912283122481
17589,13.0,299.99482,67301.546,0.0,-0.08794453236478039,-0.08794336365989075,0.0,0.0,0.0,-5.084910817816625,-7.854811337934522,-7.518267207320203,-0.0008590348431976383,0.0034886973039576167,-1.6929831540594282
17590,13.0,300.11015,67340.398,0.0,-0.08794951386346128,-0.08794836587007793,0.0,0.0,0.0,-5.090819484449765,-7.858315967380403,-7.520663949106743,0.002436496451563478,0.00940585446631056,-1.7030207135250586
17591,13.0,300.08074,67343.47200000001,0.0,-0.08795452835219963,-0.08795336808026488,0.0,0.0,0.0,-5.089643303733686,-7.861099973355163,-7.519990745740303,-0.0005176278619083924,0.002624903620207818,-1.6987510802536787
17592,13.0,299.83416,67370.82,0.0,-0.0879595428409381,-0.08795837029045206,0.0,0.0,0.0,-5.098489990356786,-7.859246029647193,-7.5213111119456135,0.0013245290420208387,-0.003067549829743597,-1.6918571292232987
17593,13.0,299.96642,67433.297,0.0,-0.08796452433961899,-0.0879633395913616,0.0,0.0,0.0,-5.093676748406755,-7.866181827906702,-7.538179800935423,0.0018888095425859883,-0.004207447478292736,-1.6877869035715984
17594,13.0,299.85492,67442.094,0.0,-0.08796953882835734,-0.08796834180154856,0.0,0.0,0.0,-5.095284067040385,-7.867589536270632,-7.537838842276773,0.0008272233091530843,0.001194669591979709,-1.6920999039472586
17595,13.0,299.7074,67448.484,0.0,-0.08797452032703823,-0.08797334401173573,0.0,0.0,0.0,-5.091636265355375,-7.874182855996342,-7.536835724677772,0.00024137416914177582,0.0020769005771991284,-1.6983457802136785
17596,13.0,299.83148,67451.522,0.0,-0.0879795348157767,-0.08797834622192291,0.0,0.0,0.0,-5.093090785873925,-7.871623690218772,-7.538863846077934,-0.0006459589862936884,-0.002959238156329067,-1.6920137776887585
17597,13.0,299.73712,67353.599,0.0,-0.08798451631445758,-0.08798334843210986,0.0,0.0,0.0,-5.079496211932245,-7.869609855645022,-7.5247061077306725,-0.001070612721286249,-0.002259889188283698,-1.7027650705248285
17598,13.0,299.93228999999997,67375.145,0.0,-0.08798953080319594,-0.08798835064229704,0.0,0.0,0.0,-5.0908932490570455,-7.866987665711234,-7.5224808078610526,0.002845094721963987,-0.004754473140254965,-1.6968529588413481
17599,13.0,300.05215,67463.015,0.0,-0.08799451230187694,-0.087993352852484,0.0,0.0,0.0,-5.096359024071475,-7.874582481835782,-7.536130401283162,-0.002365298204136758,-0.00984167633509783,-1.7054147195363285
17600,13.0,300.05138999999997,67391.024,0.0,-0.08799952679061529,-0.08799835506267117,0.0,0.0,0.0,-5.093832788922154,-7.866366847374962,-7.524988703183563,-0.003896261552631076,-0.006399205223227384,-1.6930787035438586
17601,13.0,300.03459,67389.853,0.0,-0.08800454127935353,-0.08800335727285813,0.0,0.0,0.0,-5.090141822782885,-7.869048413764612,-7.525642350823073,-7.457497532572704e-05,-0.00019101694626440482,-1.7005062320768982
17602,13.0,300.12251000000003,67563.357,0.0,-0.08800952277803464,-0.0880083594830452,0.0,0.0,0.0,-5.116886761822404,-7.874825155234733,-7.545861655243563,-0.0002677076475806877,0.011818452907640489,-1.6869346589124883
17603,13.0,300.08515,67573.073,0.0,-0.088014537266773,-0.08801336169323237,0.0,0.0,0.0,-5.117526122635505,-7.880059503926323,-7.542941063155323,-0.002920498159955727,-0.0005847681338771215,-1.6971656478222086
17604,13.0,300.15839,67498.08,0.0,-0.08801951876545389,-0.08801836390341933,0.0,0.0,0.0,-5.100334713488845,-7.8749732923993525,-7.5424227857291735,0.0032290796275603467,-7.881660337759313e-05,-1.6872297173416084
17605,13.0,299.90182999999996,67436.026,0.0,-0.08802453325419235,-0.0880233661136065,0.0,0.0,0.0,-5.090919289584615,-7.871954820351452,-7.535993815169682,0.0033926466660281567,0.003676922188908966,-1.6993248837853085
17606,13.0,299.89009,67446.979,0.0,-0.08802951475287324,-0.08802836832379368,0.0,0.0,0.0,-5.092545252020086,-7.874870751489232,-7.534781461425033,0.006519579639082414,0.0034143201869921667,-1.7006765594187083
17607,13.0,300.02311000000003,67444.982,0.0,-0.08803452924161159,-0.08803337053398064,0.0,0.0,0.0,-5.091416896708725,-7.875695334420613,-7.534478094345093,-0.002035176153981248,-0.000954683990907474,-1.7060232775463884
17608,13.0,299.98117,67452.863,0.0,-0.08803951074029248,-0.08803833983489018,0.0,0.0,0.0,-5.090968736189494,-7.877836129231893,-7.5351810872644736,-0.008530941375963361,0.005136830867515735,-1.7040095442976484
17609,13.0,299.81115,67453.239,0.0,-0.08804452522903095,-0.08804334204507736,0.0,0.0,0.0,-5.096831806568136,-7.874382060966002,-7.5328864810880125,-0.0004862943589960165,0.0014469806205808684,-1.7011343458138883
17610,13.0,300.02616,67469.9,0.0,-0.08804953971776919,-0.08804834425526431,0.0,0.0,0.0,-5.096501791010565,-7.878542263226582,-7.534120721034822,-0.002611978500607207,0.004446409950076496,-1.7012480324751087
17611,13.0,300.12497,67552.078,0.0,-0.08805452121645019,-0.08805334646545149,0.0,0.0,0.0,-5.107485219444546,-7.888187492253493,-7.538472326239292,-0.0005343556787367995,-0.002060150945096068,-1.7002229273489384
17612,13.0,300.08657,67554.321,0.0,-0.08805953570518865,-0.08805834867563844,0.0,0.0,0.0,-5.1085491320495455,-7.880923603611602,-7.545354118268473,-0.004200226146155046,-0.0015143732019569985,-1.6940866847433382
17613,13.0,300.09906,67492.703,0.0,-0.08806451720386954,-0.08806335088582562,0.0,0.0,0.0,-5.090084776802255,-7.887776518012934,-7.538235023065873,-0.0012270436419497789,0.004695745164458965,-1.7005126155525285
17614,13.0,300.15484,67513.588,0.0,-0.08806953169260778,-0.0880683530960128,0.0,0.0,0.0,-5.098128057421065,-7.883777523843263,-7.540539457768302,0.00030104454859078373,0.0025707926198174774,-1.7012217892975183
17615,13.0,299.9909,67611.896,0.0,-0.0880745131912889,-0.08807335530619975,0.0,0.0,0.0,-5.111323106848316,-7.883825551898002,-7.557179658860563,0.0033429141219699365,0.00012198504781648687,-1.6984691940758583
17616,13.0,300.08482999999995,67577.516,0.0,-0.08807952768002725,-0.08807835751638693,0.0,0.0,0.0,-5.109111688505066,-7.886916268678033,-7.545849698892383,0.0043786023414594056,0.003883571507053666,-1.6991439173174483
17617,13.0,299.95097999999996,67503.319,0.0,-0.08808454216876571,-0.088083359726574,0.0,0.0,0.0,-5.095020520689374,-7.8774713591958925,-7.546831538239283,0.0038928477103941563,-0.00027762882513983177,-1.6979418987238182
17618,13.0,299.84201,67567.709,0.0,-0.0880895236674466,-0.08808836193676095,0.0,0.0,0.0,-5.110567627573754,-7.886608949922702,-7.5417197928097925,0.003456123542392837,-0.003515323084785377,-1.7007395835749286
17619,13.0,299.82242,67640.192,0.0,-0.08809453815618495,-0.08809336414694813,0.0,0.0,0.0,-5.114350698147115,-7.893443017872172,-7.553135676386452,-0.0009209639395045641,-0.0058785277115655146,-1.6923773318246385
17620,13.0,299.90654,67581.783,0.0,-0.08809951965486584,-0.08809836635713508,0.0,0.0,0.0,-5.117288515487055,-7.882486035265802,-7.543399862800603,-0.0028650949617128572,0.0005354145757538044,-1.6964317507747784
17621,13.0,300.08385,67568.697,0.0,-0.08810453414360431,-0.08810336856732226,0.0,0.0,0.0,-5.104291961754395,-7.889343306642562,-7.545561226588913,-0.002819020757140687,-0.0035101020096700965,-1.6977319533030986
17622,13.0,300.19856,67608.642,0.0,-0.0881095156422852,-0.0881083378682318,0.0,0.0,0.0,-5.112088313323835,-7.891467382827193,-7.547783284058212,-0.006730723937320734,-0.0004644998965000705,-1.6989190771202585
17623,13.0,299.92512,67563.717,0.0,-0.08811453013102344,-0.08811334007841876,0.0,0.0,0.0,-5.098177301375925,-7.892353976664692,-7.547151725270884,-0.004973170711363735,0.0029086891353402675,-1.7024997003236382
17624,13.0,299.8537,67587.617,0.0,-0.08811951162970433,-0.08811834228860593,0.0,0.0,0.0,-5.104934868942846,-7.8899150836739915,-7.550097952586652,0.0030769430634706376,0.004408848363569456,-1.7075932072513285
17625,13.0,299.96037,67604.807,0.0,-0.0881245261184429,-0.08812334449879289,0.0,0.0,0.0,-5.100128111793455,-7.884960898635052,-7.565084326865693,-0.001964711904926968,-0.0013479300530803387,-1.7022834727522984
17626,13.0,300.05868,67556.776,0.0,-0.08812954060718114,-0.08812834670898007,0.0,0.0,0.0,-5.098656366023205,-7.889605637093451,-7.547311109511613,0.0016970691864126883,-0.00864791177810744,-1.7097956076686882
17627,13.0,300.10253,67601.47200000001,0.0,-0.08813452210586203,-0.08813334891916724,0.0,0.0,0.0,-5.096565220466825,-7.8876397292494325,-7.5649544282028724,0.005203267143447485,-0.005479808832290025,-1.7065316251215585
17628,13.0,300.02212000000003,67667.004,0.0,-0.08813953659460061,-0.0881383511293542,0.0,0.0,0.0,-5.116828499941655,-7.894870889913093,-7.557380383705373,0.011353921306544789,0.004445623161373846,-1.7013762086127586
17629,13.0,300.10829,67644.88,0.0,-0.0881445180932815,-0.08814335333954137,0.0,0.0,0.0,-5.109266513120345,-7.892884007792002,-7.5602041090840535,0.0005590221783761935,-0.0023815876180443975,-1.7011128649117684
17630,13.0,300.19201,67652.909,0.0,-0.08814953258201996,-0.08814835554972844,0.0,0.0,0.0,-5.110624065604325,-7.896425722191542,-7.557745255066384,0.00033579763886814674,-0.003945638851204236,-1.7031498015877982
17631,13.0,300.25659,67713.443,0.0,-0.08815451408070085,-0.08815335775991562,0.0,0.0,0.0,-5.118945787350616,-7.9070224943873635,-7.557227585590293,-0.0037974114060003263,-0.0005390581927159015,-1.6990381340070084
17632,13.0,300.08356000000003,67680.928,0.0,-0.0881595285694391,-0.08815835997010257,0.0,0.0,0.0,-5.119657696870875,-7.8947676397279025,-7.558886883954053,0.004962170260328075,0.009418428596076531,-1.6999366841956884
17633,13.0,299.95159,67666.428,0.0,-0.0881645100681201,-0.08816336218028953,0.0,0.0,0.0,-5.112529685067395,-7.898455160816833,-7.557919736733602,-0.002413305993874758,0.003458175981795397,-1.7042878841001183
17634,13.0,299.98402000000004,67670.571,0.0,-0.08816952455685856,-0.0881683643904767,0.0,0.0,0.0,-5.117304119538595,-7.895793251479122,-7.557066580149402,-0.0033016088803184264,0.0006962487064493974,-1.7041574788122482
17635,13.0,300.0943,67665.438,0.0,-0.0881745390455968,-0.08817336660066366,0.0,0.0,0.0,-5.111672272832775,-7.894600960086452,-7.562330313093892,-0.002244935136682848,0.006450944610433665,-1.7046451560853784
17636,13.0,299.82087,67660.34700000001,0.0,-0.08817952054427769,-0.08817833590157342,0.0,0.0,0.0,-5.107730223318725,-7.901218293839532,-7.558107491977133,-0.0014021339685048487,0.007981514108614113,-1.7073817419554587
17637,13.0,299.94642999999996,67734.041,0.0,-0.08818453503301626,-0.08818333811176038,0.0,0.0,0.0,-5.122572918733585,-7.898697631565763,-7.568186493371853,0.008184884144135172,-0.007864725990163022,-1.7034469878421283
17638,13.0,299.96101,67747.003,0.0,-0.08818951653169715,-0.08818834032194733,0.0,0.0,0.0,-5.122702817396405,-7.906191325330332,-7.564503025283322,-0.0003013736319582617,-0.008522107962916572,-1.7026054836340783
17639,13.0,300.09575,67662.45599999999,0.0,-0.0881945310204354,-0.08819334253213451,0.0,0.0,0.0,-5.106352405832745,-7.908678449025793,-7.552666237615122,0.006270797051304484,0.0024158778252785775,-1.7091355765535483
17640,13.0,300.2079,67658.19900000001,0.0,-0.08819951251911629,-0.08819834474232169,0.0,0.0,0.0,-5.112036738893745,-7.899750601069682,-7.554615730807522,-0.0002799842161897908,0.004847272967888595,-1.7049666603421083
17641,13.0,300.15603,67731.858,0.0,-0.08820452700785475,-0.08820334695250875,0.0,0.0,0.0,-5.114182397305505,-7.914118994112733,-7.560492277412493,-0.0020668407262312977,0.00020926260161011084,-1.7037982816517985
17642,13.0,300.14637999999997,67737.709,0.0,-0.0882095414965931,-0.08820834916269582,0.0,0.0,0.0,-5.120027229182345,-7.908814021889173,-7.561730975659743,-0.006862331750409414,-0.0015795354172130085,-1.7054373150135584
17643,13.0,300.03753,67681.219,0.0,-0.08821452299527421,-0.08821335137288289,0.0,0.0,0.0,-5.105922990440366,-7.904541044892463,-7.562936743278743,-0.005119413199621745,-0.0007755303389338853,-1.7119707516583582
17644,13.0,300.09601000000004,67753.053,0.0,-0.08821953748401246,-0.08821835358307006,0.0,0.0,0.0,-5.118412919123025,-7.9113251596120024,-7.565498036881522,-0.0039734722235011755,-0.0017624087204361986,-1.7047798170236683
17645,13.0,299.96065,67807.231,0.0,-0.08822451898269335,-0.08822335579325724,0.0,0.0,0.0,-5.122785093304525,-7.909438589250812,-7.579481496211582,-0.0026744497262476377,-0.0071483981928419735,-1.7065230124957083
17646,13.0,299.95936,67802.061,0.0,-0.08822953347143192,-0.0882283580034442,0.0,0.0,0.0,-5.128652925958635,-7.913940054145073,-7.567540546433103,0.0024090055578003377,0.001085125603793559,-1.7057484841192683
17647,13.0,299.9913,67811.827,0.0,-0.08823451497011281,-0.08823336021363115,0.0,0.0,0.0,-5.120158647720315,-7.913017388604013,-7.579926009030453,0.001235632557747439,0.0018259082936031184,-1.7055282035475285
17648,13.0,300.14252,67781.7,0.0,-0.08823952945885105,-0.08823836242381833,0.0,0.0,0.0,-5.121747930502165,-7.9090228527347834,-7.573173507714034,0.0007026049357842084,-0.001853020130503848,-1.7037944313014184
17649,13.0,300.16402999999997,67775.489,0.0,-0.08824451095753194,-0.08824336463400528,0.0,0.0,0.0,-5.118921064048175,-7.913499493001593,-7.569635744989883,-0.0013986096820070286,-0.00927440451758746,-1.7060890374778783
17650,13.0,300.16782,67839.27799999999,0.0,-0.08824952544627052,-0.08824836684419246,0.0,0.0,0.0,-5.134301288641086,-7.9105688697373635,-7.576576508174883,0.006106356692575484,-0.0046595336323851655,-1.7048216642527982
17651,13.0,299.88518999999997,67794.149,0.0,-0.08825453993500876,-0.088253336145102,0.0,0.0,0.0,-5.1280133624955155,-7.906514146812192,-7.5732009667917435,0.0009228221388629541,0.006631482372176354,-1.7070966133773184
17652,13.0,300.05525,67716.344,0.0,-0.08825952143368965,-0.08825833835528896,0.0,0.0,0.0,-5.1162492248594855,-7.906367326872702,-7.561461045833103,-7.897655706487933e-05,0.0005343275306490215,-1.7074822563653784
17653,13.0,299.85242999999997,67815.011,0.0,-0.08826453592242811,-0.08826334056547613,0.0,0.0,0.0,-5.120037665658375,-7.911416352121002,-7.582616086720943,-0.0019207150657098184,0.0006889955177285633,-1.6989278923961284
17654,13.0,299.79622,67896.47099999999,0.0,-0.088269517421109,-0.0882683427756632,0.0,0.0,0.0,-5.133667298053515,-7.9240209807149835,-7.581143631675622,0.004910913078844385,0.0027571313397076773,-1.7127744616376783
17655,13.0,299.88298,67829.491,0.0,-0.08827453190984735,-0.08827334498585038,0.0,0.0,0.0,-5.123719411221736,-7.914921792166963,-7.579830358221012,0.003674186312313957,-0.002111838757872258,-1.7014509864701384
17656,13.0,299.86782999999997,67793.981,0.0,-0.08827951340852846,-0.08827834719603733,0.0,0.0,0.0,-5.116025397912395,-7.920944044136312,-7.570708067570713,-0.001990540055276008,-0.0006688441010647734,-1.7139062619993786
17657,13.0,300.08932999999996,67876.078,0.0,-0.0882845278972667,-0.08828334940622451,0.0,0.0,0.0,-5.1307363708142555,-7.920882539855242,-7.581013935662822,-0.008267121548751371,0.0012419434846702789,-1.7016342834132283
17658,13.0,300.23677999999995,67880.118,0.0,-0.0882895093959476,-0.08828835161641169,0.0,0.0,0.0,-5.128152481734245,-7.919788837697302,-7.585919687346983,-0.002725787562439287,0.008291852247917102,-1.7131781404775184
17659,13.0,300.03877,67858.375,0.0,-0.08829452388468617,-0.08829335382659864,0.0,0.0,0.0,-5.124795584152945,-7.924308237118333,-7.578147856429963,-0.006700286714916812,0.007722533361229702,-1.7086169951523684
17660,13.0,300.09787,67849.141,0.0,-0.08829953837342441,-0.08829835603678582,0.0,0.0,0.0,-5.132550595118305,-7.912009002104492,-7.579885073726413,0.0014833063459409386,-0.002454625522352678,-1.7062413289679086
17661,13.0,300.11042000000003,67844.23,0.0,-0.0883045198721053,-0.08830335824697277,0.0,0.0,0.0,-5.130527134668605,-7.916551706277822,-7.575873008630453,-0.0018973615760800083,-0.002486818099229838,-1.7071320771308183
17662,13.0,299.88581,67874.428,0.0,-0.08830953436084377,-0.08830836045715995,0.0,0.0,0.0,-5.133196238082025,-7.920464472863983,-7.578470677911823,0.003030255538612937,-0.0005401381552024854,-1.7174793871520184
17663,13.0,299.85445,67917.774,0.0,-0.08831451585952466,-0.0883133626673469,0.0,0.0,0.0,-5.138952410575115,-7.917644699160693,-7.5887104820974125,0.004804188155086455,9.749040350005371e-05,-1.7062434567931182
17664,13.0,299.79756000000003,67859.26,0.0,-0.08831953034826301,-0.08831836487753397,0.0,0.0,0.0,-5.126862817006965,-7.9262193281319435,-7.574438550463884,0.0041962358659362355,0.0008538249138334582,-1.7136361295227185
17665,13.0,299.93762999999996,67849.86,0.0,-0.0883245118469439,-0.08832333417844362,0.0,0.0,0.0,-5.1214835735510755,-7.9224588530358115,-7.580720599758872,0.004051926253568986,0.003123451851010697,-1.7112039239826784
17666,13.0,299.98806,67933.795,0.0,-0.08832952633568236,-0.0883283363886308,0.0,0.0,0.0,-5.136617882344715,-7.929923263872492,-7.583636226921623,0.002030280129498048,-0.003502374964407497,-1.7109613519087383
17667,13.0,299.9864,67954.875,0.0,-0.08833454082442072,-0.08833333859881776,0.0,0.0,0.0,-5.135016440561666,-7.933725282222722,-7.587843443986842,0.006851503653215764,-0.0038294666874889366,-1.7108543526981783
17668,13.0,300.12514,67887.637,0.0,-0.0883395223231016,-0.08833834080900482,0.0,0.0,0.0,-5.129732543940185,-7.922357325375793,-7.584056624388113,0.0020729412011083683,-0.005818049244896754,-1.7089084058811286
17669,13.0,300.11396,67867.342,0.0,-0.08834453681184007,-0.08834334301919178,0.0,0.0,0.0,-5.124070502381385,-7.926791510463413,-7.579115307625442,0.002523129031138448,0.0014319401387464885,-1.7084357247094784
17670,13.0,300.16535,67947.902,0.0,-0.08834951831052096,-0.08834834522937896,0.0,0.0,0.0,-5.135498038334195,-7.929480169603763,-7.589487340949082,-0.007425580965022783,-0.0024454952270265874,-1.7121059192216983
17671,13.0,300.18178,67939.982,0.0,-0.08835453279925931,-0.08835334743956613,0.0,0.0,0.0,-5.134689059454354,-7.926201596255193,-7.591167410939893,-0.0073735570571884235,-0.0013764417963192288,-1.7092517963400184
17672,13.0,300.1608,67913.207,0.0,-0.08835951429794042,-0.08835834964975309,0.0,0.0,0.0,-5.133162902153735,-7.931806693158372,-7.578949438584073,-0.0031345191765529573,-0.0031331513902429667,-1.7132671038362985
17673,13.0,300.06479,67931.54,0.0,-0.08836452878667866,-0.08836335185994026,0.0,0.0,0.0,-5.134851382120375,-7.924796522341522,-7.589844106309292,0.0022306985674778075,-0.001178524566211319,-1.7101718274308182
17674,13.0,299.90412000000003,67914.545,0.0,-0.08836951028535955,-0.08836835407012722,0.0,0.0,0.0,-5.129951101986755,-7.933376217563272,-7.580998534261302,0.002302902566953788,0.00026958095449806875,-1.7170367995083382
17675,13.0,299.76453,67947.235,0.0,-0.08837452477409802,-0.0883733562803144,0.0,0.0,0.0,-5.134241000260135,-7.930456334750103,-7.589565462531792,0.005332764457902875,-0.0015821703740980585,-1.7103550230488984
17676,13.0,299.93557999999996,68063.954,0.0,-0.08837953926283659,-0.08837835849050157,0.0,0.0,0.0,-5.141093914661465,-7.939302514748151,-7.609346232309003,0.006056119752617484,0.0052747921640314555,-1.7093560597753086
17677,13.0,300.04012,68023.357,0.0,-0.08838452076151726,-0.08838336070068853,0.0,0.0,0.0,-5.142384592638845,-7.936099631182052,-7.598917862279802,0.0036510230097279166,0.0013201614274647886,-1.7090515781202584
17678,13.0,299.98105,67958.50099999999,0.0,-0.08838953525025572,-0.0883883629108756,0.0,0.0,0.0,-5.131917921755865,-7.931616708764623,-7.594152851034533,0.0028008770955500473,-0.0025308114933966473,-1.7114033316023585
17679,13.0,299.94077000000004,68018.056,0.0,-0.08839451674893661,-0.08839333221178525,0.0,0.0,0.0,-5.142243953524965,-7.936056264077772,-7.597490496863933,-0.005216805785983645,0.0013755927940604386,-1.7058572058549983
17680,13.0,300.12279,68017.291,0.0,-0.08839953123767497,-0.0883983344219722,0.0,0.0,0.0,-5.146375075507675,-7.9347710576509325,-7.594412040410113,-0.004651123555230155,0.004518479187289176,-1.7107846410912986
17681,13.0,300.09283,67958.58099999999,0.0,-0.08840451273635586,-0.08840333663215938,0.0,0.0,0.0,-5.131618709001335,-7.933590317309402,-7.5925026719216735,-0.0008354353668410512,0.001140258162934719,-1.7088755765778885
17682,13.0,300.32784,67971.119,0.0,-0.08840952722509432,-0.08840833884234645,0.0,0.0,0.0,-5.134728880183285,-7.938742998042933,-7.588051160257343,-0.004790132754999296,-0.0031999668243621374,-1.7175118111552186
17683,13.0,300.43093999999996,68043.091,0.0,-0.08841450872377521,-0.0884133410525334,0.0,0.0,0.0,-5.1484169771091945,-7.936240979571002,-7.598742671337513,-0.0024021074524445472,0.003494257615206377,-1.7078685073034983
17684,13.0,300.17171,68011.8,0.0,-0.08841952321251356,-0.08841834326272058,0.0,0.0,0.0,-5.138762426181366,-7.939657456258183,-7.595469164239444,-0.0034016284188895874,0.007060983890814853,-1.7163342118889986
17685,13.0,300.14751,68069.776,0.0,-0.08842453770125203,-0.08842334547290753,0.0,0.0,0.0,-5.142620983887175,-7.947082856966012,-7.601808462165083,-0.0034326440044505874,0.0033516167244288173,-1.7136769635017484
17686,13.0,300.01171,68088.924,0.0,-0.08842951919993292,-0.08842834768309471,0.0,0.0,0.0,-5.149456470386785,-7.938843816427883,-7.6090323274280225,0.003039568421607047,0.0017507557363361384,-1.7123238693182083
17687,13.0,299.87604,68017.966,0.0,-0.08843453368867127,-0.08843334989328167,0.0,0.0,0.0,-5.133726066559315,-7.943577416920052,-7.598459873234602,0.003210584469510017,0.006096186903971805,-1.7134434093536983
17688,13.0,299.78812999999997,68024.233,0.0,-0.08843951518735227,-0.08843835210346884,0.0,0.0,0.0,-5.135654788124666,-7.939716123438973,-7.6022972540133225,0.007791674812278432,0.002734701630194037,-1.7118285926693284
17689,13.0,299.90967,68073.033,0.0,-0.08844452967609084,-0.08844335431365602,0.0,0.0,0.0,-5.150561520945845,-7.9413005426203425,-7.600640083474773,0.004739145807317276,-0.004784527759421126,-1.7111569091780383
17690,13.0,299.84861,68024.951,0.0,-0.08844951117477151,-0.08844835652384297,0.0,0.0,0.0,-5.135738685232945,-7.948573955813172,-7.593573778602383,0.004815050500133485,-0.0029312118612130874,-1.7172944690087684
17691,13.0,300.18466,68020.194,0.0,-0.08845452566350998,-0.08845335873403015,0.0,0.0,0.0,-5.138163291397236,-7.939055788348802,-7.599221533334773,-0.0006791226114041835,0.00045667978421578545,-1.7116079067975485
17692,13.0,299.87997,68087.738,0.0,-0.08845954015224844,-0.08845836094421722,0.0,0.0,0.0,-5.152037725016536,-7.945028593713272,-7.599905781127303,-0.0034411580410658566,0.001218790213260229,-1.7151535728724783
17693,13.0,300.17152000000004,68164.364,0.0,-0.08846452165092922,-0.08846333024512676,0.0,0.0,0.0,-5.152673336804265,-7.953682864142382,-7.613908289559243,-0.012120386238688987,-0.008719609659158472,-1.7153683818936787
17694,13.0,300.13346,68173.017,0.0,-0.08846953613966768,-0.08846833245531383,0.0,0.0,0.0,-5.155512463584465,-7.955160588088223,-7.612221734767792,-0.006304988567978924,-0.007490637194318333,-1.7160631674872482
17695,13.0,300.18206000000004,68134.635,0.0,-0.08847451763834857,-0.08847333466550089,0.0,0.0,0.0,-5.147872456505454,-7.950260003979572,-7.613095156353992,0.0028657255072500874,-0.0007404889891355733,-1.7170517956098184
17696,13.0,300.03129,68119.015,0.0,-0.08847953212708692,-0.08847833687568807,0.0,0.0,0.0,-5.1489523784620355,-7.947308102463242,-7.610218944620134,0.004343230692393496,0.0036409680223605666,-1.7118521000716485
17697,13.0,299.99256,68126.181,0.0,-0.08848451362576781,-0.08848333908587502,0.0,0.0,0.0,-5.147770118245354,-7.9517223265238925,-7.609165569816173,0.0005504967528297995,0.0028642944941338574,-1.7206179293367683
17698,13.0,300.05095,68155.333,0.0,-0.08848952811450628,-0.0884883412960622,0.0,0.0,0.0,-5.155341426967586,-7.950394259617822,-7.611783605424552,0.0017878049222676082,0.004014891253138916,-1.7168566436405583
17699,13.0,299.97533,68091.321,0.0,-0.08849450961318717,-0.08849334350624916,0.0,0.0,0.0,-5.141544000355886,-7.949293870009222,-7.607223574674514,0.003685047846760906,0.004686650332886376,-1.7203900493892783
17700,13.0,300.05252,68063.87299999999,0.0,-0.08849952410192541,-0.08849834571643611,0.0,0.0,0.0,-5.145973321843025,-7.947398585697171,-7.5963459295509725,0.0018358424002335382,0.0003077097584110887,-1.7114109309781085
17701,13.0,299.86429,68121.27,0.0,-0.08850453859066398,-0.08850334792662329,0.0,0.0,0.0,-5.146800539224666,-7.953449816619382,-7.6069147360440335,-0.001289376457626549,-0.007996259937319413,-1.7168057784855384
17702,13.0,299.92906,68175.967,0.0,-0.08850952008934498,-0.08850835013681047,0.0,0.0,0.0,-5.156285978710805,-7.953992412047933,-7.613513324670263,-0.00014119134531700086,0.003803461826322457,-1.7122674312876383
17703,13.0,300.02274,68163.91,0.0,-0.08851453457808334,-0.08851335234699753,0.0,0.0,0.0,-5.1530389174403455,-7.958325170800542,-7.608762600251403,0.004903064646219805,0.008034108374929762,-1.7184652794993185
17704,13.0,300.26416,68161.357,0.0,-0.08851951607676423,-0.0885183545571846,0.0,0.0,0.0,-5.150389369753855,-7.954981952095592,-7.613979419716263,0.003126283783715187,0.004957271702719626,-1.7150909540162984
17705,13.0,299.98836,68218.369,0.0,-0.08852453056550269,-0.08852335676737166,0.0,0.0,0.0,-5.160637077290225,-7.9656052714440335,-7.610438414591792,-0.004382901966933746,-0.0001246014115622019,-1.7262873676212984
17706,13.0,299.86567,68238.296,0.0,-0.08852951206418347,-0.08852835897755884,0.0,0.0,0.0,-5.160853000886536,-7.962794110366593,-7.619091165145753,-0.004639608879768746,-0.0012058972136877886,-1.7164058486710683
17707,13.0,299.78887000000003,68146.995,0.0,-0.08853452655292193,-0.08853336118774602,0.0,0.0,0.0,-5.146357546280945,-7.954348468133073,-7.614278733795802,-0.0023600423745430477,0.0013278786442014186,-1.7231896594155784
17708,13.0,299.69405,68174.568,0.0,-0.08853950805160282,-0.08853833048865534,0.0,0.0,0.0,-5.146149830010445,-7.958432271336113,-7.618784049040443,-0.005440114252997475,-0.002966703884390877,-1.7095707674714986
17709,13.0,300.0003,68207.73,0.0,-0.08854452254034118,-0.08854333269884251,0.0,0.0,0.0,-5.162121083386685,-7.952847135459902,-7.618478452810284,0.0033499407074384065,-0.0002935784557589377,-1.7202777812781984
17710,13.0,300.06859,68199.91900000001,0.0,-0.08854953702907964,-0.08854833490902969,0.0,0.0,0.0,-5.158893071218104,-7.9583541497534025,-7.613825203051042,0.0007123308195190783,0.0037968028479902667,-1.7142464100579482
17711,13.0,300.15387999999996,68251.23,0.0,-0.08855451852776053,-0.08855333711921665,0.0,0.0,0.0,-5.161736960273775,-7.960094305475143,-7.624838623687983,0.010272899973606291,0.0033509335912113966,-1.7186953885970284
17712,13.0,300.05832999999996,68262.371,0.0,-0.08855953301649877,-0.08855833932940382,0.0,0.0,0.0,-5.160030241805336,-7.962217672384702,-7.627808257081063,0.001101230200882959,-0.005137645824571165,-1.712789761714188
17713,13.0,300.2317,68227.24799999999,0.0,-0.08856451451517966,-0.08856334153959078,0.0,0.0,0.0,-5.1428052940803655,-7.973704280818343,-7.622870385368734,-0.0008756078455432662,-0.004832469586577615,-1.7281409060292283
17714,13.0,300.16492,68272.553,0.0,-0.08856952900391823,-0.08856834374977773,0.0,0.0,0.0,-5.155026103536466,-7.968735910278002,-7.629389535187123,-0.004982088528143855,0.0007390068271542953,-1.7195670876580584
17715,13.0,299.95081,68283.834,0.0,-0.08857451050259924,-0.08857334595996491,0.0,0.0,0.0,-5.160947233145835,-7.972677858467042,-7.622955397052123,-0.006063729564843514,0.0029727108362837167,-1.7237219196931086
17716,13.0,299.83972,68226.23700000001,0.0,-0.08857952499133759,-0.08857834817015198,0.0,0.0,0.0,-5.153605729546285,-7.965421467875892,-7.620045241439913,-0.003615018687299567,0.00026294944537608975,-1.7212572901498684
17717,13.0,299.90446000000003,68229.086,0.0,-0.08858453948007594,-0.08858335038033915,0.0,0.0,0.0,-5.153242986010485,-7.963606128996732,-7.623089450040352,-0.0051406560892932555,0.0004880673237559945,-1.7263462374521084
17718,13.0,299.7896,68268.229,0.0,-0.08858952097875694,-0.08858835259052611,0.0,0.0,0.0,-5.165333694153745,-7.961097423074142,-7.625405739768952,0.003944484860665346,0.0011608202498640389,-1.7183256536355385
17719,13.0,300.02468999999996,68241.443,0.0,-0.0885945354674953,-0.08859335480071329,0.0,0.0,0.0,-5.155887163471445,-7.959032318045332,-7.628775201651492,-0.003933967324627346,-0.007003958681811904,-1.7187264953750983
17720,13.0,299.98061,68212.36099999999,0.0,-0.08859951696617618,-0.08859835701090046,0.0,0.0,0.0,-5.1577255031278755,-7.955296363601622,-7.621832513291302,0.0026794686579679674,-0.005450142287912165,-1.7149705799044184
17721,13.0,299.87257,68318.992,0.0,-0.08860453145491465,-0.08860335922108742,0.0,0.0,0.0,-5.169665439656255,-7.967738365554552,-7.629863736233922,0.002207940260956738,-0.004328627225327245,-1.7186173683393284
17722,13.0,300.00811,68343.968,0.0,-0.08860951295359532,-0.08860832852199696,0.0,0.0,0.0,-5.173107450245955,-7.970407063667933,-7.631345209205134,0.007137159020082754,0.0032952589432667365,-1.7188459575618882
17723,13.0,300.01662000000005,68258.518,0.0,-0.08861452744233389,-0.08861333073218414,0.0,0.0,0.0,-5.157534606809035,-7.9737461280474715,-7.617604423274022,0.0020888612853545577,2.4341921181860578e-05,-1.7259469155876983
17724,13.0,300.05903,68284.5,0.0,-0.08861950894101478,-0.08861833294237109,0.0,0.0,0.0,-5.156961005927425,-7.972893376763312,-7.626928452019233,0.0011435726053368289,0.0010032317618887659,-1.726101436227948
17725,13.0,300.20606000000004,68348.944,0.0,-0.08862452342975302,-0.08862333515255827,0.0,0.0,0.0,-5.155956672428305,-7.984871816795493,-7.6355437123194925,5.905051356783194e-05,0.004862383363979875,-1.7281752552076182
17726,13.0,300.10731,68335.908,0.0,-0.0886295379184916,-0.08862833736274522,0.0,0.0,0.0,-5.164026601524745,-7.9800262521672725,-7.628356932010212,-0.0019386394599788183,-0.002734169876541557,-1.7217317951716982
17727,13.0,300.34247,68335.895,0.0,-0.08863451941717249,-0.0886333395729324,0.0,0.0,0.0,-5.156654193797145,-7.978922518833343,-7.6368290200713425,-0.0036832186263553767,-0.0007478565535276952,-1.7187120058986682
17728,13.0,300.09981,68352.896,0.0,-0.08863953390591073,-0.08863834178311936,0.0,0.0,0.0,-5.170050170719224,-7.978877631853913,-7.628645708288713,-0.0062143158562802244,0.001040240549538749,-1.7135378442630183
17729,13.0,299.83664,68351.068,0.0,-0.08864451540459184,-0.08864334399330653,0.0,0.0,0.0,-5.1581652536712745,-7.978346283501472,-7.640506307334262,-0.0017909032384233886,0.0016241246024386185,-1.7190335101553984
17730,13.0,300.02031,68362.47200000001,0.0,-0.08864952989333008,-0.0886483462034936,0.0,0.0,0.0,-5.166099407254315,-7.977013454319933,-7.637371514174883,-0.005225652776581775,-0.0006306913844493934,-1.7117110556577284
17731,13.0,299.93669,68355.718,0.0,-0.08865451139201119,-0.08865334841368055,0.0,0.0,0.0,-5.156548917111755,-7.980925106330982,-7.640957304953773,0.001989168215965618,0.004551228545096285,-1.7239125120369183
17732,13.0,299.77997,68319.511,0.0,-0.08865952588074955,-0.08865835062386773,0.0,0.0,0.0,-5.166860358079416,-7.969808942133903,-7.630756206922003,0.005235847491137915,0.004238701177627236,-1.7141035417938482
17733,13.0,300.08675,68318.312,0.0,-0.08866450737943044,-0.08866335283405491,0.0,0.0,0.0,-5.158093110264155,-7.982708831807022,-7.626258795028143,0.0033127021450632464,0.003982610726153076,-1.7407796811515783
17734,13.0,299.96198,68348.656,0.0,-0.0886695218681689,-0.08866835504424186,0.0,0.0,0.0,-5.174023428336355,-7.972556977730113,-7.629704250668183,0.002030434852788318,-0.0034170996333414768,-1.7232719353236983
17735,13.0,299.89775,68352.475,0.0,-0.08867453635690725,-0.08867335725442904,0.0,0.0,0.0,-5.1704990405135245,-7.973762745349112,-7.633183852836593,0.0013964910773729387,-2.265575446519888e-05,-1.7359371562736585
17736,13.0,300.01294,68365.409,0.0,-0.08867951785558814,-0.08867832655533858,0.0,0.0,0.0,-5.168335042274955,-7.983041481814851,-7.630000828972452,-0.0016234030670424083,-0.0006490297319142474,-1.7219964560978183
17737,13.0,299.93503,68408.582,0.0,-0.0886845323443266,-0.08868332876552554,0.0,0.0,0.0,-5.171654550927566,-7.979677187507822,-7.643169128597062,-0.0037609345037253362,-0.0042911471041282455,-1.7254108049597883
17738,13.0,300.03231,68476.095,0.0,-0.08868951384300727,-0.08868833097571271,0.0,0.0,0.0,-5.182046342628155,-7.989582315185383,-7.643394272769283,-0.002965836137005237,-0.008490881823984792,-1.7113227782194087
17739,13.0,300.13146,68445.725,0.0,-0.08869452833174574,-0.08869333318589967,0.0,0.0,0.0,-5.173641230398635,-7.986524225058572,-7.645626057439543,0.005661751971921415,-0.0038879620210619764,-1.7179609849245485
17740,13.0,300.06543,68427.493,0.0,-0.08869950983042674,-0.08869833539608685,0.0,0.0,0.0,-5.174316156290245,-7.984795012437912,-7.641137967446602,0.003318592877169617,-0.0037348592216769065,-1.7176349210423685
17741,13.0,300.0149,68412.622,0.0,-0.08870452431916498,-0.08870333760627402,0.0,0.0,0.0,-5.172057216517305,-7.985414918849092,-7.638256588137233,0.0009342673965600133,-0.0008559019752134484,-1.7245487317747086
17742,13.0,300.10451,68401.326,0.0,-0.08870953880790344,-0.08870833981646098,0.0,0.0,0.0,-5.161360740511645,-7.984937982027022,-7.645996299026082,-0.007098620559154304,-0.005359559552822344,-1.7297580531888286
17743,13.0,299.93008,68429.637,0.0,-0.08871452030658433,-0.08871334202664816,0.0,0.0,0.0,-5.165979033142436,-7.989345417312003,-7.645576509509652,-0.0019216427975013782,0.004712553159767785,-1.728348216999688
17744,13.0,299.94016,68498.11200000001,0.0,-0.08871953479532269,-0.08871834423683522,0.0,0.0,0.0,-5.175215314428986,-7.9905484491557335,-7.655951886558622,-0.0020222731232328183,0.0039060550201476165,-1.7257922936224381
17745,13.0,299.99557999999996,68468.219,0.0,-0.0887245162940038,-0.08872334644702218,0.0,0.0,0.0,-5.1767544413308855,-7.987644879669173,-7.648229502246483,-0.0022036095287043278,0.005970855567302563,-1.7254853801671484
17746,13.0,300.01653,68474.757,0.0,-0.08872953078274204,-0.08872834865720935,0.0,0.0,0.0,-5.1807912297292855,-7.989930062619702,-7.6438948183186834,-0.0032754012678069366,-0.001094537177347409,-1.7237862610744583
17747,13.0,299.81892,68517.436,0.0,-0.08873451228142315,-0.08873335086739631,0.0,0.0,0.0,-5.181552687179435,-7.992394084212883,-7.653642892230742,0.003935094464038586,0.008938540277790242,-1.7254790980165287
17748,13.0,299.76766000000003,68498.007,0.0,-0.0887395267701615,-0.08873835307758349,0.0,0.0,0.0,-5.176097551291055,-7.997169531934183,-7.648416852189972,0.002117078679439398,0.0023277677244077878,-1.7247094332405684
17749,13.0,299.88621,68486.787,0.0,-0.08874450826884239,-0.08874335528777044,0.0,0.0,0.0,-5.174677177300874,-7.995946741713502,-7.647649213914213,0.0007768015219793413,-0.004358255570176337,-1.7299042651782583
17750,13.0,299.90292,68427.663,0.0,-0.08874952275758086,-0.08874835749795762,0.0,0.0,0.0,-5.174189094727704,-7.986711372352042,-7.639400344850113,-0.0005963000244577305,-0.004878656565885916,-1.7251962999136186
17751,13.0,299.94142,68395.905,0.0,-0.0887545372463191,-0.08875332679886716,0.0,0.0,0.0,-5.163599111307555,-7.989972112498852,-7.637076050445723,-0.0026434450837877176,0.0029393115798624666,-1.7305303524150484
17752,13.0,299.98233999999997,68426.409,0.0,-0.08875951874499999,-0.08875832900905412,0.0,0.0,0.0,-5.171223210359995,-7.985073250915373,-7.643623064641863,0.005201909185663465,-0.004285604727406256,-1.7261937433120587
17753,13.0,299.88324,68529.469,0.0,-0.08876453323373856,-0.08876333121924129,0.0,0.0,0.0,-5.169164691456835,-8.002578666268022,-7.659503936109184,-0.0015822855806344285,-0.002286716605881358,-1.7299784350855785
17754,13.0,300.02175,68557.108,0.0,-0.08876951473241923,-0.08876833342942847,0.0,0.0,0.0,-5.180856787010755,-8.000766164489141,-7.658026009513323,0.007219736167457483,0.0031177499887229667,-1.7283028233952085
17755,13.0,300.26687999999996,68519.314,0.0,-0.0887745292211577,-0.08877333563961554,0.0,0.0,0.0,-5.171319975744545,-7.998416234857222,-7.658424216802622,0.0005900521824861164,0.005090072719126065,-1.7216765730412484
17756,13.0,300.1779,68568.942,0.0,-0.08877951071983858,-0.0887783378498026,0.0,0.0,0.0,-5.186045134147805,-8.008565859783912,-7.648635308911533,0.0026813555323041876,0.0011760663201437088,-1.7254911556927184
17757,13.0,300.07814,68647.818,0.0,-0.08878452520857694,-0.08878334005998967,0.0,0.0,0.0,-5.192960971380345,-8.007765290879902,-7.666496273724273,-0.0001902133781400988,-0.0025105561172725976,-1.7204438529695882
17758,13.0,299.94652,68567.838,0.0,-0.08878950670725805,-0.08878834227017685,0.0,0.0,0.0,-5.186215258839595,-8.0062940517347,-7.650401302510822,0.0026121248139216475,-0.0007426159834804913,-1.7311002042712884
17759,13.0,300.03617,68490.853,0.0,-0.08879452119599629,-0.0887933444803638,0.0,0.0,0.0,-5.166815673750005,-7.997869991728312,-7.654823531247263,-0.005509781479523094,0.0016408327926125885,-1.7312820826642383
17760,13.0,299.95524,68542.201,0.0,-0.08879953568473464,-0.08879834669055098,0.0,0.0,0.0,-5.183267410323665,-7.993773826874053,-7.6580765706933125,-0.005259283256675845,-0.005872116979507824,-1.7340276864602084
17761,13.0,299.89319,68554.813,0.0,-0.08880451718341564,-0.08880334890073793,0.0,0.0,0.0,-5.182146755713065,-8.002060794141912,-7.654743889789402,-0.0018595847752517281,-0.006508222422686544,-1.7346100012926784
17762,13.0,299.81746,68565.494,0.0,-0.08880953167215422,-0.08880835111092489,0.0,0.0,0.0,-5.184313895026945,-8.001011877638392,-7.656872322949463,0.0016896853289589582,-0.002393773976997098,-1.7342687386589986
17763,13.0,299.87109,68591.49,0.0,-0.08881451317083511,-0.08881335332111207,0.0,0.0,0.0,-5.187251611041875,-8.001945384955523,-7.660903335822292,0.00044451995215070365,0.002019894518623068,-1.7260607035739284
17764,13.0,299.70283,68572.072,0.0,-0.08881952765957335,-0.08881835553129924,0.0,0.0,0.0,-5.183487792220415,-8.003253794809652,-7.657456157657083,-0.001078707981635189,-0.009638487671344672,-1.7258070870738984
17765,13.0,299.9554,68612.491,0.0,-0.08882450915825424,-0.08882332483220856,0.0,0.0,0.0,-5.183218571668846,-8.009629063113842,-7.663636273992013,-0.003260864067297227,-0.0015248069422117286,-1.7307076711825484
17766,13.0,300.02238,68676.163,0.0,-0.08882952364699281,-0.08882832704239574,0.0,0.0,0.0,-5.196992490878225,-8.014281502273002,-7.664564816383652,0.00029901184730017177,0.004348993957637285,-1.7291139301002585
17767,13.0,300.2163,68635.17,0.0,-0.08883453813573106,-0.08883332925258292,0.0,0.0,0.0,-5.192124837397825,-8.005759663631963,-7.665493358775293,-0.0007202505140231913,0.008474359869179202,-1.7243247021775983
17768,13.0,300.09217,68527.156,0.0,-0.08883951963441195,-0.08883833146276998,0.0,0.0,0.0,-5.1810009724999855,-7.999470825561302,-7.6500726041783835,-0.004093570022078906,0.0032130796992062773,-1.7329070318496083
17769,13.0,299.92452000000003,68579.5,0.0,-0.08884453412315041,-0.08884333367295716,0.0,0.0,0.0,-5.186710332838455,-8.004135626371683,-7.655609610674842,0.0015378629737252585,0.002341067645220388,-1.7310641325677285
17770,13.0,300.21465,68659.523,0.0,-0.08884951562183119,-0.08884833588314411,0.0,0.0,0.0,-5.193821727340295,-8.004428354325572,-7.672530583369813,0.006497358557764363,0.0041072962172085765,-1.7298878505266384
17771,13.0,300.25002,68637.867,0.0,-0.08885453011056965,-0.08885333809333129,0.0,0.0,0.0,-5.185828703926445,-8.011677753491034,-7.666691223043513,0.0054913030400994154,0.002193096349641758,-1.7325087232352983
17772,13.0,300.05937,68656.84700000001,0.0,-0.08885951160925054,-0.08885834030351847,0.0,0.0,0.0,-5.191679919278915,-8.009265407652952,-7.669021799598523,-0.002825452159500417,-0.005427640536316415,-1.7301094483235087
17773,13.0,299.89016000000004,68728.489,0.0,-0.0888645260979889,-0.08886334251370542,0.0,0.0,0.0,-5.202741773270636,-8.014699569264263,-7.674303264419763,-0.004984902627646585,0.0015743288315741585,-1.7267547798924285
17774,13.0,299.99869,68747.422,0.0,-0.0888695075966699,-0.0888683447238926,0.0,0.0,0.0,-5.195994236879705,-8.020034432365772,-7.681471096952172,9.717726159639901e-05,0.005346867987369786,-1.7257863154468485
17775,13.0,299.82055,68712.488,0.0,-0.08887452208540847,-0.08887334693407956,0.0,0.0,0.0,-5.195321438813305,-8.014273396272202,-7.6772857660891125,-0.0008023061517039522,0.003614060861980036,-1.7258780145808983
17776,13.0,299.98945,68732.687,0.0,-0.08887953657414671,-0.08887834914426651,0.0,0.0,0.0,-5.190470605284565,-8.023379880220942,-7.6791701073000835,-0.004974043322349855,-0.0022835394588677977,-1.729281926966838
17777,13.0,299.81362,68663.62700000001,0.0,-0.0888845180728276,-0.08888335135445369,0.0,0.0,0.0,-5.185550870749025,-8.01457889117735,-7.671898315307413,-0.007508709725751952,0.0012097847503464588,-1.7374910766270184
17778,13.0,299.94538,68635.299,0.0,-0.08888953256156606,-0.08888835356464075,0.0,0.0,0.0,-5.182300465753235,-8.014018361222032,-7.667098144283673,-0.006012303778543183,0.0053767355605674845,-1.7375691982097285
17779,13.0,300.11893,68631.37400000001,0.0,-0.08889451406024707,-0.0888933228655504,0.0,0.0,0.0,-5.185972788090665,-8.012926888214313,-7.663324395611234,-0.0007419491230596774,0.007815243718879504,-1.7343440231414284
17780,13.0,300.21112999999997,68638.203,0.0,-0.08889952854898531,-0.08889832507573736,0.0,0.0,0.0,-5.183216545168645,-8.011623747260701,-7.669459624966732,0.001914368573708468,-0.003497142439566087,-1.7255162842951983
17781,13.0,300.3165,68654.622,0.0,-0.0889045100476662,-0.08890332728592443,0.0,0.0,0.0,-5.179961580547404,-8.019192826832713,-7.670136172058502,0.004203071757735886,-0.0008297246690124491,-1.7302314436355484
17782,13.0,300.2215,68759.063,0.0,-0.08890952453640466,-0.0889083294961116,0.0,0.0,0.0,-5.196409770745715,-8.026482249377123,-7.678146116749022,0.0010762205539646991,-0.0006692586115481824,-1.7274547330615084
17783,13.0,300.14288,68805.663,0.0,-0.08891450603508544,-0.08891333170629856,0.0,0.0,0.0,-5.202304758502505,-8.028000604651973,-7.684898212765402,0.0019063622767183082,-0.004611857783379926,-1.7269668531383582
17784,13.0,300.07608,68785.371,0.0,-0.0889195205238239,-0.08891833391648574,0.0,0.0,0.0,-5.209728436685165,-8.033950409239173,-7.665356367361773,0.005514736171187085,-0.006846401736312243,-1.7356381461691484
17785,13.0,300.08468,68781.345,0.0,-0.08892453501256237,-0.08892333612667291,0.0,0.0,0.0,-5.197625772190725,-8.028702482996243,-7.681483255953373,0.0035545314053549368,0.005589237512614795,-1.7339766186551684
17786,13.0,300.12192000000005,68737.606,0.0,-0.08892951651124315,-0.08892833833685987,0.0,0.0,0.0,-5.204064773926205,-8.019672904730092,-7.670778167321863,-0.0008298565739104671,-0.0010173478860544191,-1.7338844128960684
17787,13.0,300.08883,68670.033,0.0,-0.08893453099998161,-0.08893334054704705,0.0,0.0,0.0,-5.177832742087305,-8.019456170533703,-7.676686428654963,-0.0048293319563179555,-0.005507052189053735,-1.7347883333102785
17788,13.0,299.90962,68688.192,0.0,-0.08893951249866272,-0.088938342757234,0.0,0.0,0.0,-5.188735110513286,-8.018232367062923,-7.672527644944522,-0.004004819952444956,-0.0032014020931287867,-1.7376575536184484
17789,13.0,299.76225,68776.429,0.0,-0.08894452698740096,-0.08894334496742118,0.0,0.0,0.0,-5.197203550874055,-8.032102646356812,-7.677010871336983,0.00031603085194231674,0.0026626698832350575,-1.7379977016770185
17790,13.0,299.68028,68769.283,0.0,-0.08894950848608185,-0.08894834717760813,0.0,0.0,0.0,-5.206337392575495,-8.019061002994702,-7.6787465687582825,-0.0010755687301753688,0.0044547427162488756,-1.7370134305298786
17791,13.0,299.9866,68778.135,0.0,-0.08895452297482032,-0.0889533493877952,0.0,0.0,0.0,-5.195325289163685,-8.029591812609013,-7.681918649521342,0.0012389088006207788,-0.0003542302287248017,-1.7287494640392884
17792,13.0,300.00075,68817.36200000001,0.0,-0.08895953746355867,-0.08895835159798238,0.0,0.0,0.0,-5.204823900901125,-8.030985234146533,-7.682950442098172,0.008118583035766763,0.0008110761352944822,-1.7323549118701183
17793,13.0,300.00121,68828.842,0.0,-0.08896451896223956,-0.08896332089889203,0.0,0.0,0.0,-5.197103948389224,-8.030246980123673,-7.694898383302343,0.006271711104219694,0.001918887162529418,-1.7287125817356481
17794,13.0,300.1983,68827.53,0.0,-0.08896953345097802,-0.08896832310907898,0.0,0.0,0.0,-5.203453581465886,-8.039244235711633,-7.679152679398363,0.0024501563801366077,0.004733163578726876,-1.7422813177997782
17795,13.0,300.22015,68828.106,0.0,-0.08897451494965891,-0.08897332531926605,0.0,0.0,0.0,-5.2085502294688855,-8.024127962769773,-7.689347495279513,-0.0019342619155717881,-0.0009330059103180141,-1.7346223629438984
17796,13.0,300.33409,68796.909,0.0,-0.08897952943839726,-0.088978327529453,0.0,0.0,0.0,-5.2076571508307445,-8.029261493076413,-7.675623833275092,-0.0006351615804455673,0.0014051015753977288,-1.7472491817150682
17797,13.0,300.37754,68774.062,0.0,-0.08898451093707815,-0.08898332973964018,0.0,0.0,0.0,-5.194566060863755,-8.033405989960443,-7.677625508847643,-0.001309013447214569,-0.0011299712426194788,-1.7397949033793882
17798,13.0,300.21621,68811.25099999999,0.0,-0.08898952542581662,-0.08898833194982736,0.0,0.0,0.0,-5.202058437403195,-8.023711111678633,-7.691132537980683,-0.001916347451153768,-0.0005564911404213994,-1.7355269926331782
17799,13.0,300.18836,68871.565,0.0,-0.0889945069244974,-0.08899333416001431,0.0,0.0,0.0,-5.2041040880300855,-8.038118818825563,-7.693013231491293,-0.0063480645655051935,0.00035211203952325264,-1.7295594561692282
17800,13.0,300.06628,68858.40400000001,0.0,-0.08899952141323586,-0.08899833637020149,0.0,0.0,0.0,-5.209909403153025,-8.032181882514633,-7.689144135984443,-0.005299119893632415,0.0029014520978260278,-1.7326303132472982
17801,13.0,299.81681000000003,68859.572,0.0,-0.08900453590197432,-0.08900333858038845,0.0,0.0,0.0,-5.205566714549436,-8.038467072884933,-7.687556575727763,0.003084107045652667,0.004109972818672736,-1.7374580446737584
17802,13.0,299.6586,68877.28,0.0,-0.08900951740065521,-0.08900834079057562,0.0,0.0,0.0,-5.211420564352165,-8.038389052627233,-7.687163637338983,0.0017590460473293284,0.0023017320604382676,-1.7335134620344583
17803,13.0,299.9791,68890.394,0.0,-0.08901453188939357,-0.0890133430007628,0.0,0.0,0.0,-5.203270385847804,-8.038773885015212,-7.698915210673772,0.00816852410669556,-0.0003013644417798547,-1.7348564237169983
17804,13.0,300.02092000000005,68877.455,0.0,-0.08901951338807457,-0.08901834521094976,0.0,0.0,0.0,-5.203768702246985,-8.044647695844912,-7.688610051856733,0.00024055716532114376,-0.0036197223969137863,-1.734947514900988
17805,13.0,300.07838,68879.539,0.0,-0.08902452787681292,-0.08902334742113693,0.0,0.0,0.0,-5.201902194237775,-8.037532856292733,-7.698224883380643,0.0023987264395108677,-0.0024750603450694377,-1.7361548023951383
17806,13.0,300.14257000000003,68894.13799999999,0.0,-0.08902950937549381,-0.089028349631324,0.0,0.0,0.0,-5.209870798324215,-8.0401224195733,-7.692104346151593,-0.0016548370235696986,-0.006442439693069295,-1.7336969616275681
17807,13.0,300.15147,68928.212,0.0,-0.08903452386423227,-0.08903335184151095,0.0,0.0,0.0,-5.213513229783695,-8.047230369024803,-7.691711813062852,-0.0007128013627330172,0.0008345210099508113,-1.7395226430775184
17808,13.0,299.93791,68972.537,0.0,-0.08903950536291316,-0.0890383211424206,0.0,0.0,0.0,-5.220099051458665,-8.042659699148713,-7.703170354468722,-0.007341034566078702,0.0014835163926866686,-1.7327239375565382
17809,13.0,299.98868999999996,68925.715,0.0,-0.08904451985165152,-0.08904332335260767,0.0,0.0,0.0,-5.206720401113295,-8.047103307462262,-7.697872576320873,0.0008660735775348073,-0.0017811681341126082,-1.7371653167198684
17810,13.0,299.8493,68903.086,0.0,-0.08904953434038998,-0.08904832556279485,0.0,0.0,0.0,-5.203616714731985,-8.041083284643133,-7.700117837217463,-0.0030573903762909373,0.0015245517045115386,-1.7292678427904482
17811,13.0,299.8185,68946.52900000001,0.0,-0.08905451583907087,-0.0890533277729818,0.0,0.0,0.0,-5.2070140409922745,-8.042438000026833,-7.708571180151743,0.002133674094877238,0.002304142075801118,-1.7360528694350785
17812,13.0,299.87381,68956.896,0.0,-0.08905953032780922,-0.08905832998316876,0.0,0.0,0.0,-5.215470423676854,-8.047747835850872,-7.697956270779133,-0.0016485646001506585,-0.002805581210464307,-1.7402503592993381
17813,13.0,299.95825,68857.695,0.0,-0.08906451182649011,-0.08906333219335594,0.0,0.0,0.0,-5.2058864962809945,-8.035746597691443,-7.689387012033413,-0.0011317711800971188,-0.0027857499808321175,-1.7436811228129285
17814,13.0,299.99875,68873.12299999999,0.0,-0.08906952631522858,-0.08906833440354289,0.0,0.0,0.0,-5.208394695578535,-8.044281507258772,-7.6830336299313835,0.001904775223086678,0.0017062625058949985,-1.743229111943318
17815,13.0,300.06484,68945.12,0.0,-0.08907450781390946,-0.08907333661373007,0.0,0.0,0.0,-5.209743027486605,-8.046911195243302,-7.700940697623673,0.006342436569149754,0.003975686985569756,-1.7469470305352486
17816,13.0,300.12961,69027.76400000001,0.0,-0.08907952230264782,-0.08907833882391725,0.0,0.0,0.0,-5.2255591522725355,-8.052225995992833,-7.704931383142522,-0.004012963646148676,0.001163343749238089,-1.7387411232753884
17817,13.0,300.12054,69011.179,0.0,-0.08908453679138628,-0.08908334103410431,0.0,0.0,0.0,-5.217571904384255,-8.055253485966622,-7.704850019159492,-7.127001289155264e-05,0.004691196380785035,-1.7432930480246283
17818,13.0,300.14772999999997,68997.777,0.0,-0.08908951829006717,-0.08908834324429138,0.0,0.0,0.0,-5.229395317151135,-8.045883354341862,-7.698322763340303,-0.007278352077792424,0.003241653250701267,-1.7307359408603382
17819,13.0,300.15927,68992.115,0.0,-0.08909453277880541,-0.08909334545447845,0.0,0.0,0.0,-5.218796113155075,-8.053207734014721,-7.6998762783936225,0.005269190816153645,-0.004061757211339226,-1.744151676159368
17820,13.0,300.18358,69003.031,0.0,-0.08909951427748652,-0.08909834766466562,0.0,0.0,0.0,-5.231551108063895,-8.044668771446991,-7.698978437480013,0.0023574105587333078,-0.011023704112204888,-1.7366901024229682
17821,13.0,300.0786,69031.853,0.0,-0.08910452876622488,-0.08910334987485258,0.0,0.0,0.0,-5.217981257424654,-8.052498661594743,-7.713479667611173,0.008673532921461053,-0.0030922988687361375,-1.739452424845588
17822,13.0,300.19515,68950.837,0.0,-0.08910951026490577,-0.08910831917576212,0.0,0.0,0.0,-5.210865505947385,-8.049330228532042,-7.699137011120662,0.004657245916309386,0.0016596788391725484,-1.7384428224459485
17823,13.0,300.08377,68956.522,0.0,-0.08911452475364423,-0.0891133213859493,0.0,0.0,0.0,-5.200536637078005,-8.052673852537032,-7.707850556680622,-0.0018896710078210083,0.0024542217421878276,-1.7436664306864784
17824,13.0,299.83178,69059.224,0.0,-0.08911950625232512,-0.08911832359613647,0.0,0.0,0.0,-5.2242257151409355,-8.061415465124762,-7.706638506911002,-0.0018294484881275085,-0.0023515128352012476,-1.7447344976168881
17825,13.0,299.98611,69094.046,0.0,-0.08912452074106347,-0.08912332580632343,0.0,0.0,0.0,-5.224669214709705,-8.063284708909242,-7.714910984702433,-0.0072452934760547935,0.004293202684606116,-1.7409372415421283
17826,13.0,300.03312,69010.496,0.0,-0.08912953522980194,-0.08912832801651038,0.0,0.0,0.0,-5.214470548478175,-8.055599105575734,-7.707397836535943,-0.004970733642223215,0.006160211138040504,-1.7465068746918084
17827,13.0,300.087,69026.114,0.0,-0.08913451672848283,-0.08913333022669734,0.0,0.0,0.0,-5.213945583601365,-8.059214584582552,-7.7090549057494835,-0.007865172326832072,-0.002545287189625288,-1.7377900867315286
17828,13.0,300.0128,69087.625,0.0,-0.08913953121722107,-0.08913833243688452,0.0,0.0,0.0,-5.225735761764965,-8.057560251144283,-7.7176170717445025,-0.0008239420000292441,-0.004103734947082106,-1.7410945992826583
17829,13.0,300.09471,69084.033,0.0,-0.08914451271590207,-0.08914333464707169,0.0,0.0,0.0,-5.225217585663825,-8.057405629179021,-7.717197788853122,0.0043340638187387955,0.00042178103923654753,-1.7328681230457685
17830,13.0,300.00667999999996,69037.81,0.0,-0.08914952720464053,-0.08914833685725876,0.0,0.0,0.0,-5.224199269313325,-8.055600929425912,-7.705970268470052,0.005241493016720085,-0.00016382548817081682,-1.7475649104462283
17831,13.0,300.04247000000004,69036.243,0.0,-0.08915450870332142,-0.08915333906744594,0.0,0.0,0.0,-5.221922395013615,-8.05128083629955,-7.712090704374093,0.002099234838553348,-0.013226210920825385,-1.7397461660495783
17832,13.0,299.94311,69038.594,0.0,-0.08915952319205966,-0.08915834127763289,0.0,0.0,0.0,-5.216804468758515,-8.059365052222402,-7.709839262651893,0.006928639444903473,-0.012300939300508188,-1.7494560404328683
17833,13.0,300.01555,69104.855,0.0,-0.08916450469074078,-0.08916334348782007,0.0,0.0,0.0,-5.221084639830935,-8.061488824432002,-7.723577110157712,0.0025067909812260076,-0.0005176481167778915,-1.7412104137690882
17834,13.0,299.8448,69166.708,0.0,-0.08916951917947913,-0.08916834569800725,0.0,0.0,0.0,-5.234191739149504,-8.067822549482093,-7.722937850669623,0.0007807905862980313,0.003128825622916047,-1.7402311075474381
17835,13.0,299.94124,69100.55900000001,0.0,-0.08917453366821759,-0.0891733479081942,0.0,0.0,0.0,-5.225153953557545,-8.065151419568473,-7.714539121915734,-0.008285749138589772,-0.004588320388856965,-1.7396638901414585
17836,13.0,299.9155,69072.25200000001,0.0,-0.08917951516689848,-0.08917831720910374,0.0,0.0,0.0,-5.227747671163525,-8.063542479734682,-7.704949722969333,6.002601503535644e-07,0.0025291888746865076,-1.7371881148471182
17837,13.0,299.76416,69154.957,0.0,-0.08918452965563672,-0.08918331941929092,0.0,0.0,0.0,-5.224569510899865,-8.072500623868782,-7.724310196605062,0.003293067485950457,0.008941377580720262,-1.7409401799674182
17838,13.0,299.75831,69170.604,0.0,-0.08918951115431772,-0.08918832162947787,0.0,0.0,0.0,-5.2302128073318155,-8.065087990112213,-7.730835729899082,0.008356499529472292,0.0009576395198591622,-1.7354968991052084
17839,13.0,299.97017999999997,69118.495,0.0,-0.08919452564305619,-0.08919332383966505,0.0,0.0,0.0,-5.213553557137675,-8.068886867387134,-7.7278560653300135,-0.005056502020787895,-0.002985307865501947,-1.7456111616034085
17840,13.0,300.2335,69060.882,0.0,-0.08919950714173708,-0.089198326049852,0.0,0.0,0.0,-5.222304694276345,-8.059122682798483,-7.711356199376602,-0.005398325995023295,0.002368584579511098,-1.7369770548512884
17841,13.0,300.26742,69053.524,0.0,-0.08920452163047532,-0.08920332826003918,0.0,0.0,0.0,-5.2176601584679645,-8.062296080786673,-7.710590790251063,0.0013242876858470189,0.008516675321180412,-1.7484769368612383
17842,13.0,300.06877000000003,69131.457,0.0,-0.0892095361192139,-0.08920833047022614,0.0,0.0,0.0,-5.230136306949265,-8.070017249198692,-7.714083159370733,0.001780129552760108,0.0036832945187878665,-1.7462571085421583
17843,13.0,299.83029,69248.16,0.0,-0.08921451761789478,-0.0892133326804132,0.0,0.0,0.0,-5.236058753783765,-8.082930108473093,-7.730722651187923,0.007227248707673914,0.00019210483236677082,-1.7536068194675183
17844,13.0,299.87928,69231.812,0.0,-0.08921953210663303,-0.08921833489060038,0.0,0.0,0.0,-5.234300866185275,-8.082494512255103,-7.727946852538973,-0.0019112818086038281,-0.0013137797756849687,-1.7458698443539384
17845,13.0,299.78682000000003,69109.852,0.0,-0.08922451360531392,-0.08922333710078734,0.0,0.0,0.0,-5.218434078894345,-8.070188589790602,-7.719046564985583,0.003698932210231187,0.004995874201054395,-1.7448726036055182
17846,13.0,299.88171,69192.46,0.0,-0.08922952809405249,-0.08922833931097451,0.0,0.0,0.0,-5.237065012458075,-8.074152829481841,-7.7215623636588715,-0.006016006498383615,-0.0008958376269697901,-1.7395301411282584
17847,13.0,300.09455,69261.193,0.0,-0.08923450959273338,-0.08923334152116169,0.0,0.0,0.0,-5.255444761322016,-8.072274973071513,-7.725953485617243,-0.004890044585084826,-0.004046639722497246,-1.7367989254837082
17848,13.0,300.21082,69154.38,0.0,-0.08923952408147184,-0.08923834373134865,0.0,0.0,0.0,-5.234300460885236,-8.067874833187252,-7.719029339733884,-0.012753748611196988,-0.0018865046012585083,-1.7423937885608782
17849,13.0,300.08596,69063.981,0.0,-0.08924450558015273,-0.08924334594153582,0.0,0.0,0.0,-5.215959924800165,-8.062213399578512,-7.715552169365712,-0.002182995462044878,0.001037621804655299,-1.7492483241623684
17850,13.0,300.02259,69197.978,0.0,-0.08924952006889098,-0.08924834815172278,0.0,0.0,0.0,-5.2296124566475655,-8.071288472774151,-7.733556509067602,-0.0006508176826432045,-0.0025220008784771074,-1.7432531259706883
17851,13.0,299.84622,69305.65299999999,0.0,-0.08925453455762955,-0.08925331745263232,0.0,0.0,0.0,-5.241053367501695,-8.084816678834283,-7.741317802183582,0.0028203517624720473,-0.0019150275915735084,-1.7470605145464484
17852,13.0,299.81759,69267.00200000001,0.0,-0.08925951605631044,-0.0892583196628195,0.0,0.0,0.0,-5.240620912359015,-8.082355190366352,-7.732462908234672,0.006643675823879753,0.00019051857920271984,-1.7411103046592085
17853,13.0,299.94388,69208.233,0.0,-0.08926453054504868,-0.08926332187300645,0.0,0.0,0.0,-5.235613025064775,-8.078660677851731,-7.723301100830472,0.002564711700667338,-3.473550430862737e-05,-1.7480799454720586
17854,13.0,299.95918,69210.718,0.0,-0.08926951204372957,-0.08926832408319363,0.0,0.0,0.0,-5.240190382391525,-8.076702673358493,-7.721437024621502,0.0033801199563668668,-0.009858754868183349,-1.7412842797013783
17855,13.0,299.92399,69293.40400000001,0.0,-0.08927452653246815,-0.0892733262933808,0.0,0.0,0.0,-5.238900818989255,-8.087521347326213,-7.737042393386633,0.005055945037207925,-0.007609242171523733,-1.7524097657993785
17856,13.0,299.87327999999997,69320.537,0.0,-0.08927950803114904,-0.08927832850356776,0.0,0.0,0.0,-5.247162961629665,-8.083682244022322,-7.740867108539102,0.0060256237617077645,-0.0015999651736792683,-1.7413290653557985
17857,13.0,299.6831,69232.006,0.0,-0.08928452251988728,-0.08928333071375483,0.0,0.0,0.0,-5.226506642441045,-8.080196765003333,-7.738097794690793,-3.378128311970307e-05,0.00026597138273933176,-1.7460253782442883
17858,13.0,300.05585,69164.101,0.0,-0.08928950401856817,-0.08928833292394178,0.0,0.0,0.0,-5.2319980526830046,-8.071794996499142,-7.720366525890852,-0.0062705491090050145,-0.0034780131896031763,-1.7424024011867283
17859,13.0,300.09985,69271.2,0.0,-0.08929451850730663,-0.08929333513412896,0.0,0.0,0.0,-5.239337225807325,-8.081419453899002,-7.735958519754663,-0.005250035728313185,0.0017264571883380585,-1.7434948874445486
17860,13.0,300.23217,69341.989,0.0,-0.08929953299604498,-0.08929833734431614,0.0,0.0,0.0,-5.245949088009865,-8.087503615449462,-7.744780483075322,0.004626917010341155,0.0030805535775519665,-1.7506586669765587
17861,13.0,300.09392,69281.864,0.0,-0.0893045144947261,-0.08930333955450309,0.0,0.0,0.0,-5.2308660496712855,-8.089716452342852,-7.739374185841762,-0.0049718154893549854,0.003437297254209827,-1.7500693607183984
17862,13.0,300.06408999999996,69280.3,0.0,-0.08930952898346434,-0.08930834176469027,0.0,0.0,0.0,-5.233482565404516,-8.088372173435182,-7.737626532069283,-0.005772988594399614,-0.0038326591345790063,-1.7564387521720084
17863,13.0,300.02861,69341.83,0.0,-0.08931451048214523,-0.08931334397487722,0.0,0.0,0.0,-5.248968168007824,-8.087247364499174,-7.741969119347862,-0.0059396251727203645,-0.0013084809842870187,-1.7443550354544384
17864,13.0,300.05609,69355.101,0.0,-0.0893195249708838,-0.0893183461850644,0.0,0.0,0.0,-5.2527330000793855,-8.088762072073662,-7.740723936299972,0.008571828651948622,0.009321155775876451,-1.7490640139691784
17865,13.0,299.74876,69337.212,0.0,-0.08932450646956469,-0.08932331548597394,0.0,0.0,0.0,-5.251834449890705,-8.086903062115192,-7.738043788460463,0.0015992515416338384,0.005880983323182864,-1.7365932357134084
17866,13.0,299.96567000000005,69357.475,0.0,-0.08932952095830293,-0.0893283176961609,0.0,0.0,0.0,-5.244728932239445,-8.090910364935683,-7.747301347999112,0.008284647634406062,-0.0006635304452878565,-1.7518691968710283
17867,13.0,299.88563999999997,69349.242,0.0,-0.0893345354470414,-0.08933331990634807,0.0,0.0,0.0,-5.240809072902586,-8.091827862901233,-7.747800880298413,-0.0026596542482874375,0.003773766809616786,-1.7454177321593185
17868,13.0,300.03886,69342.42,0.0,-0.0893395169457224,-0.08933832211653525,0.0,0.0,0.0,-5.238501801099875,-8.092087356251842,-7.747775042420862,0.002335098690206298,0.0023811874855799078,-1.7545703189876085
17869,13.0,300.02496,69347.44099999999,0.0,-0.08934453143446064,-0.0893433243267222,0.0,0.0,0.0,-5.241787669849165,-8.091985625941803,-7.746117263932252,-0.006268846544861984,0.0017678432873475482,-1.7447726971456585
17870,13.0,299.93643,69307.537,0.0,-0.08934951293314153,-0.08934832653690938,0.0,0.0,0.0,-5.241093188230624,-8.087570084656022,-7.739097467239453,-0.0017434669217417885,-0.004189249810471767,-1.7459077399076783
17871,13.0,299.85157999999996,69297.842,0.0,-0.08935452742187999,-0.08935332874709645,0.0,0.0,0.0,-5.231333765917445,-8.091160435060361,-7.742319399907434,-0.003949882443948046,-0.0029377656641848974,-1.7579008720663085
17872,13.0,300.0465,69413.538,0.0,-0.08935950892056088,-0.0893583309572834,0.0,0.0,0.0,-5.248883358974455,-8.098079514693223,-7.7530194222884425,0.001899193228285778,-0.0007911181886047861,-1.7508007246405783
17873,13.0,300.16704,69477.884,0.0,-0.08936452340929923,-0.08936333316747058,0.0,0.0,0.0,-5.2507022442289655,-8.105799061905083,-7.7630404657774426,0.005892184904363375,0.0006054654998272924,-1.7613058990273585
17874,13.0,300.12834,69394.232,0.0,-0.08936950490798035,-0.08936833537765754,0.0,0.0,0.0,-5.251121324470325,-8.098796186488952,-7.744196243067663,0.000982684336688393,0.000913477652598225,-1.7493386047462784
17875,13.0,300.13407,69385.026,0.0,-0.08937451939671859,-0.08937333758784471,0.0,0.0,0.0,-5.249353101720815,-8.098294121064402,-7.743668238440552,-0.006175996966648443,0.006269986349899474,-1.7567126336740382
17876,13.0,300.07252,69390.59700000001,0.0,-0.08937953388545694,-0.08937833979803167,0.0,0.0,0.0,-5.260009756997545,-8.094085586774053,-7.738913359696283,-0.004090920373067406,-0.001089433233943689,-1.7442078102149086
17877,13.0,299.83409,69359.04400000001,0.0,-0.08938451538413805,-0.08938334200821885,0.0,0.0,0.0,-5.245772782492465,-8.096677176554822,-7.740967622949022,-0.002294243635574218,0.0028428689154693172,-1.7594319942924181
17878,13.0,300.00255,69375.768,0.0,-0.08938952987287652,-0.08938834421840602,0.0,0.0,0.0,-5.247060319394535,-8.097467612957832,-7.743973226720652,0.008146036743251232,0.00047975960512608657,-1.7503055493167086
17879,13.0,299.86531,69399.925,0.0,-0.08939451137155718,-0.08939331351931534,0.0,0.0,0.0,-5.246970646760685,-8.101732382628734,-7.747141457133333,0.007690354159253863,-0.001097055711795969,-1.7582766865283983
17880,13.0,299.77621,69402.167,0.0,-0.08939952586029565,-0.08939831572950252,0.0,0.0,0.0,-5.249803694040285,-8.093903911031122,-7.752818292143592,-0.0003784141882690726,-0.004382476807191785,-1.7452550041932584
17881,13.0,300.14551,69460.414,0.0,-0.08940450735897654,-0.0894033179396897,0.0,0.0,0.0,-5.262468813665236,-8.095247176688693,-7.7565154391084725,0.0015198561008981186,-0.00040312131923747656,-1.7447320658166485
17882,13.0,300.22842,69543.642,0.0,-0.08940952184771489,-0.08940832014987676,0.0,0.0,0.0,-5.266336287971925,-8.107822522354782,-7.765371751607522,-0.004029375460668397,-0.0019154646063416383,-1.7383930718660383
17883,13.0,300.00427,69487.53,0.0,-0.08941450334639578,-0.08941332236006394,0.0,0.0,0.0,-5.257726904522245,-8.102040410659132,-7.762706802519513,0.001115713597812359,0.0014145685737320486,-1.7464000781312683
17884,13.0,300.18306,69473.036,0.0,-0.08941951783513424,-0.0894183245702509,0.0,0.0,0.0,-5.2444823071651046,-8.113446161734792,-7.760139733391163,-0.007897608489033273,-0.0015996099281942084,-1.7544653462772482
17885,13.0,299.88672,69478.726,0.0,-0.0894245323238726,-0.08942332678043807,0.0,0.0,0.0,-5.258716849869946,-8.105893800789433,-7.755187270877393,1.0867020182991391e-05,0.0040933036386276165,-1.7529327041759881
17886,13.0,299.97902999999997,69484.36200000001,0.0,-0.08942951382255349,-0.08942832899062525,0.0,0.0,0.0,-5.259269881774525,-8.105851548260263,-7.756389593446053,-0.003674975938116887,-0.001172682976734799,-1.7610263433247682
17887,13.0,300.01898,69418.62299999999,0.0,-0.08943452831129195,-0.0894333312008122,0.0,0.0,0.0,-5.253149445870486,-8.102028758282982,-7.746349906155213,0.004773648594422435,0.002221010477971668,-1.7537464453312985
17888,13.0,299.84558,69407.332,0.0,-0.08943950980997284,-0.08943833341099916,0.0,0.0,0.0,-5.243423156835575,-8.098127745397981,-7.756544823361372,-0.0027953336042529473,-0.0014473710258443987,-1.7539789862292483
17889,13.0,299.82649,69519.496,0.0,-0.08944452429871119,-0.08944333562118612,0.0,0.0,0.0,-5.253068385862485,-8.111193605437483,-7.767928992209902,0.0047781237148140955,0.004332936172702506,-1.7481578644047482
17890,13.0,299.83623,69580.97200000001,0.0,-0.08944950579739219,-0.08944833783137329,0.0,0.0,0.0,-5.259593007231415,-8.112418016858323,-7.778867027039402,0.0033657744627760768,0.004779034829304016,-1.753771979233818
17891,13.0,299.86661000000004,69547.494,0.0,-0.08945452028613055,-0.08945334004156047,0.0,0.0,0.0,-5.260617909707565,-8.109907284435533,-7.770176380931702,0.0030479383740580966,0.0012927758103870389,-1.7469689167374085
17892,13.0,299.99931000000004,69481.744,0.0,-0.08945953477486901,-0.08945834225174754,0.0,0.0,0.0,-5.260077442104224,-8.107175359515912,-7.753462415232163,0.003629633705416957,0.003266189709822827,-1.7541852839496082
17893,13.0,300.04707,69475.463,0.0,-0.0894645162735499,-0.08946331155265697,0.0,0.0,0.0,-5.255910755043005,-8.105404502316143,-7.757490591004713,-0.0015742352072649186,0.002552594141396427,-1.7508227121677484
17894,13.0,300.1197,69517.753,0.0,-0.08946953076228847,-0.08946831376284414,0.0,0.0,0.0,-5.267094908321795,-8.112664236632622,-7.751901908753152,0.0026597629700231672,0.0011080533257313491,-1.7578617606124483
17895,13.0,300.06144,69582.893,0.0,-0.08947451226096914,-0.08947331597303121,0.0,0.0,0.0,-5.258240014372886,-8.11919696400235,-7.774024907461522,-0.003194477744595407,-0.00011797817056103887,-1.7532190486542483
17896,13.0,300.09077,69513.269,0.0,-0.0894795267497076,-0.08947831818321839,0.0,0.0,0.0,-5.257187247518986,-8.111022771470621,-7.762087909358432,0.003018734479675897,0.003796245763085286,-1.7531573417231585
17897,13.0,299.97193,69496.535,0.0,-0.0894845082483885,-0.08948332039340534,0.0,0.0,0.0,-5.250525938711565,-8.117019286887432,-7.757666187247043,-0.0049980501556441456,0.0008955285046292822,-1.7528678561695883
17898,13.0,299.70149,69592.82400000001,0.0,-0.08948952273712685,-0.08948832260359252,0.0,0.0,0.0,-5.277386793562525,-8.110148640609353,-7.766945430337833,-0.006835078362469713,-0.004438586544729386,-1.7515144580110182
17899,13.0,299.83508,69657.239,0.0,-0.08949450423580774,-0.0894933248137797,0.0,0.0,0.0,-5.277834751431736,-8.122137213142532,-7.774089248842873,-0.01012281027604359,-0.007379085957684083,-1.7494377006060584
17900,13.0,299.90081000000004,69572.731,0.0,-0.0894995187245462,-0.08949832702396665,0.0,0.0,0.0,-5.261704417789796,-8.118168616475863,-7.768499857316242,0.0005044954718673266,-0.0023480305985825773,-1.7559293913467382
17901,13.0,299.79494,69523.04400000001,0.0,-0.08950453321328455,-0.08950332923415383,0.0,0.0,0.0,-5.249693249779385,-8.114613932475043,-7.768962102011863,0.004291238093987225,-0.0014844123084250885,-1.7552999603846182
17902,13.0,300.05422000000004,69566.335,0.0,-0.08950951471196544,-0.08950833144434078,0.0,0.0,0.0,-5.256690653644975,-8.122385256767013,-7.767352756878033,0.005727658115400844,-0.004550313276280956,-1.763000255844578
17903,13.0,299.90204,69554.05099999999,0.0,-0.08951452920070391,-0.08951333365452774,0.0,0.0,0.0,-5.2574598117958855,-8.115463947983931,-7.769770878241683,0.0038859584203142367,-0.003049493206336547,-1.7581269281636185
17904,13.0,300.06538,69587.621,0.0,-0.0895195106993848,-0.08951833586471492,0.0,0.0,0.0,-5.261110045281135,-8.124459177071692,-7.767329958750782,0.005840741791486334,0.005380840642022625,-1.7614671071182684
17905,13.0,300.10364,69589.99799999999,0.0,-0.08952452518812326,-0.08952333807490198,0.0,0.0,0.0,-5.267163809328595,-8.121372614617073,-7.7650855084542725,-0.0005085398596414765,0.0015520827229786387,-1.7572260474997086
17906,13.0,299.9514,69578.497,0.0,-0.08952950668680415,-0.08952834028508916,0.0,0.0,0.0,-5.257772196801715,-8.121965568575591,-7.770387744902562,-0.004063687148804697,2.019736147632438e-05,-1.7586225087875285
17907,13.0,299.81889,69620.532,0.0,-0.08953452117554273,-0.08953334249527611,0.0,0.0,0.0,-5.2663130845446355,-8.125642754513501,-7.7709474642578025,-0.007108100223114873,0.0016546744982536587,-1.7584150964920586
17908,13.0,299.94403,69696.135,0.0,-0.08953950267422339,-0.08953831179618565,0.0,0.0,0.0,-5.280203628840525,-8.123916277668112,-7.781764719675383,-0.0006800809129512603,0.008045469846976053,-1.7481022369742583
17909,13.0,299.99456000000004,69623.8,0.0,-0.08954451716296186,-0.08954331400637283,0.0,0.0,0.0,-5.269360636870405,-8.125460876120552,-7.769075079398013,-0.0005565495846871675,0.003102197410288047,-1.7524068273740883
17910,13.0,300.1786,69598.573,0.0,-0.08954953165170032,-0.08954831621655979,0.0,0.0,0.0,-5.264492983390005,-8.121869816441142,-7.769865617126033,-0.0038795042198272564,-0.0018278362045683885,-1.7506390099246183
17911,13.0,300.31687999999997,69672.069,0.0,-0.0895545131503811,-0.08955331842674696,0.0,0.0,0.0,-5.274702998022654,-8.123445825646684,-7.780420339442702,-0.0013821851005360486,-0.006276545827071844,-1.7561828051967483
17912,13.0,300.17139,69703.192,0.0,-0.08955952763911956,-0.08955832063693414,0.0,0.0,0.0,-5.273400465019105,-8.133477406936722,-7.781151906014902,-0.004051055669083066,-0.001135246830590139,-1.7532899761612484
17913,13.0,300.23042000000004,69685.406,0.0,-0.08956450913780045,-0.0895633228471211,0.0,0.0,0.0,-5.272276871983215,-8.128379948333643,-7.781966660420313,0.0031024074570337773,0.0011626865552232287,-1.760803428302768
17914,13.0,300.10046,69658.05099999999,0.0,-0.0895695236265388,-0.08956832505730827,0.0,0.0,0.0,-5.2707431153068445,-8.125027914352822,-7.778537214131853,-0.0008745686967707101,-0.006054349300717754,-1.7553689627164284
17915,13.0,300.05742999999995,69659.092,0.0,-0.0895745051252197,-0.08957332726749523,0.0,0.0,0.0,-5.272208781576495,-8.125151632190033,-7.777264166706213,0.008118063238465461,0.005930956919439874,-1.7608427424066484
17916,13.0,299.98458999999997,69715.81599999999,0.0,-0.08957951961395816,-0.0895783294776824,0.0,0.0,0.0,-5.277852787283515,-8.128179020838813,-7.785835451952133,-0.0024385458512157375,0.006445503052096624,-1.7595966474336682
17917,13.0,300.17749,69767.765,0.0,-0.0895845341026964,-0.08958333168786958,0.0,0.0,0.0,-5.283801173320574,-8.136729433132672,-7.787127852454683,0.008355797144502972,0.0018603623433784684,-1.7574605135728483
17918,13.0,299.94486,69706.90299999999,0.0,-0.08958951560137751,-0.08958833389805654,0.0,0.0,0.0,-5.268383154498935,-8.1325926369494,-7.788182037858721,-0.0028001990285831274,-0.001147035488878589,-1.7641934591623383
17919,13.0,299.86644,69646.345,0.0,-0.08959453009011586,-0.0895933361082436,0.0,0.0,0.0,-5.265012983341325,-8.129901951308852,-7.775834673465134,0.0028984570318554372,0.001129937197416119,-1.7547598980813182
17920,13.0,299.88752,69704.436,0.0,-0.08959951158879687,-0.08959833831843056,0.0,0.0,0.0,-5.268902445175185,-8.137797297413062,-7.781708382969822,-0.003310127983184197,-0.00020948174734173876,-1.7632136463156383
17921,13.0,299.834,69734.678,0.0,-0.08960452607753522,-0.08960334052861774,0.0,0.0,0.0,-5.277962116969305,-8.12854845182527,-7.791090166970734,-0.007893859362338263,-0.001986090468786868,-1.7514166793763681
17922,13.0,300.18532999999996,69688.97200000001,0.0,-0.08960950757621611,-0.08960830982952728,0.0,0.0,0.0,-5.266956093058095,-8.134468061559492,-7.782283199751553,-0.00014385401459228586,-0.004381861764381086,-1.7674769974363982
17923,13.0,300.0854,69683.455,0.0,-0.08961452206495457,-0.08961331203971445,0.0,0.0,0.0,-5.267876732098954,-8.129519956021152,-7.784633636008523,0.0057931675714661245,-8.167606000779952e-05,-1.7542787056088285
17924,13.0,300.02465,69793.314,0.0,-0.08961950356363535,-0.08961831424990141,0.0,0.0,0.0,-5.2873598089967855,-8.136532862613272,-7.791532146664353,0.004511677543342905,0.003303918786571397,-1.760852064307568
17925,13.0,299.99748,69857.608,0.0,-0.08962451805237381,-0.08962331646008859,0.0,0.0,0.0,-5.293618249564445,-8.143653072390983,-7.797697064247783,0.0016365224266871885,-0.006676569367176093,-1.7559955565782683
17926,13.0,300.01214,69805.226,0.0,-0.08962953254111228,-0.08962831867027554,0.0,0.0,0.0,-5.285673659505375,-8.141936728046593,-7.791435279954793,0.0009513207605130491,-0.0009003193132220982,-1.7622273486682984
17927,13.0,300.03544,69760.231,0.0,-0.08963451403979306,-0.08963332088046272,0.0,0.0,0.0,-5.276895671239054,-8.141731443576333,-7.786741094891513,0.0007097927800060932,0.0030780052535504666,-1.7566350187163782
17928,13.0,300.10964,69755.23,0.0,-0.08963952852853152,-0.08963832309064967,0.0,0.0,0.0,-5.2789865128204045,-8.139092231040863,-7.785769489370622,-0.0016491774138111385,0.0037803541511669063,-1.7610828826803484
17929,13.0,299.7819,69779.285,0.0,-0.08964451002721241,-0.08964332530083685,0.0,0.0,0.0,-5.277474743671205,-8.139958863851392,-7.793726542405922,-0.008301807936774652,-0.002161727747745918,-1.7617610509722783
17930,13.0,299.97418999999996,69785.41900000001,0.0,-0.08964952451595065,-0.08964832751102403,0.0,0.0,0.0,-5.288531227437395,-8.139661880247083,-7.784831625078063,-0.0034223852524881268,-0.0018874440867512282,-1.7619513393410584
17931,13.0,299.94009,69767.966,0.0,-0.08965450601463176,-0.08965332972121098,0.0,0.0,0.0,-5.278157572913595,-8.136666611626472,-7.792895272023884,0.004996719048987776,0.0027832745095128075,-1.7545490407355082
17932,13.0,299.98899,69747.687,0.0,-0.08965952050337012,-0.08965833193139816,0.0,0.0,0.0,-5.273236419827915,-8.141710469299262,-7.786608460453422,0.0039463852112278965,0.003999603132980096,-1.7636688995855685
17933,13.0,300.16312,69846.893,0.0,-0.08966450200205112,-0.08966333414158523,0.0,0.0,0.0,-5.2803095134759745,-8.147341708055022,-7.804060173550772,-0.0003325738316874817,-0.002435355633275888,-1.7597923060279783
17934,13.0,300.06727,69912.966,0.0,-0.08966951649078947,-0.08966833635177218,0.0,0.0,0.0,-5.290114734693675,-8.155980982382653,-7.805700118837621,-0.003938490574398756,0.002394353758704318,-1.761327987879538
17935,13.0,299.90526,69816.425,0.0,-0.08967453097952771,-0.08967333856195936,0.0,0.0,0.0,-5.280490682593855,-8.149945254186973,-7.792013947086902,-0.004527567128761086,0.007373746940257163,-1.7602610355242383
17936,13.0,300.09462,69785.948,0.0,-0.08967951247820882,-0.0896783078628689,0.0,0.0,0.0,-5.280851196979436,-8.146973796943712,-7.7853607442802835,-0.0009315042331398102,-0.0011055589066351688,-1.7651607077077982
17937,13.0,300.30527,69820.674,0.0,-0.08968452696694718,-0.08968331007305586,0.0,0.0,0.0,-5.291258998031604,-8.147297935650702,-7.7851846414129025,-0.003387455279140807,-0.003926457013561136,-1.7649039501324582
17938,13.0,300.17406,69826.735,0.0,-0.08968950846562807,-0.08968831228324303,0.0,0.0,0.0,-5.283753043940825,-8.145945348092214,-7.795885373068983,0.003333590397199757,0.0010048561841840842,-1.7632716042213585
17939,13.0,300.25201,69803.603,0.0,-0.08969452295436653,-0.08969331449342999,0.0,0.0,0.0,-5.278278251000505,-8.145046696578522,-7.795227368454042,0.005229113126998285,0.0017439559162400482,-1.7636263430813681
17940,13.0,299.90094,69831.202,0.0,-0.0896995044530472,-0.08969831670361716,0.0,0.0,0.0,-5.2776860063170545,-8.149044576173083,-7.800211241720913,0.007237059501767163,0.0008452458772242734,-1.7630445348739483
17941,13.0,299.61536,69879.598,0.0,-0.08970451894178577,-0.08970331891380412,0.0,0.0,0.0,-5.290832115764474,-8.149832783425872,-7.800987999247573,-0.00012086586241853187,0.0008869677166543983,-1.7645668418241882
17942,13.0,299.88768999999996,69904.146,0.0,-0.08970953343052424,-0.0897083211239913,0.0,0.0,0.0,-5.290321944339125,-8.152302884519653,-7.806490048615584,-0.003207587174389207,0.0028431129060933974,-1.7528696800197683
17943,13.0,300.0594,69895.232,0.0,-0.0897145149292049,-0.08971332333417847,0.0,0.0,0.0,-5.288931765201925,-8.152716493210471,-7.804757086969552,-0.004314148894648345,-0.005388784725456645,-1.7590675282314483
17944,13.0,299.90115,69863.885,0.0,-0.08971952941794348,-0.08971832554436554,0.0,0.0,0.0,-5.272268462007385,-8.150733765414792,-7.813874108719333,-0.0027485504285858072,-0.005902141201170984,-1.7593530621096283
17945,13.0,299.9367,69884.869,0.0,-0.08972451091662437,-0.08972332775455272,0.0,0.0,0.0,-5.279255936021995,-8.159899625819392,-7.804099690304672,0.0013658296227218889,-0.0050683542098576145,-1.772515282233638
17946,13.0,300.08993,69936.682,0.0,-0.08972952540536261,-0.08972832996473967,0.0,0.0,0.0,-5.290673136823785,-8.155734863933363,-7.812596805643272,0.002075195074630808,-0.0004512945727168066,-1.7605572085284682
17947,13.0,299.98731000000004,69928.724,0.0,-0.08973450690404372,-0.08973333217492685,0.0,0.0,0.0,-5.2968695664853245,-8.157208028253752,-7.802508279697613,-0.0026526721444983573,0.004109411883417376,-1.7724622892534083
17948,13.0,300.2697,69915.52,0.0,-0.08973952139278196,-0.08973833438511403,0.0,0.0,0.0,-5.288774812761435,-8.159861020990583,-7.8039366583635825,-0.005967132481135125,-0.0005936048095892335,-1.7661901698093982
17949,13.0,300.33398,69932.197,0.0,-0.08974450289146307,-0.08974333659530098,0.0,0.0,0.0,-5.292177103947215,-8.159689275098632,-7.805775403320052,0.0027993373606980875,-0.00014914236951420586,-1.7667694448915683
17950,13.0,300.08285,69944.784,0.0,-0.08974951738020143,-0.08974833880548794,0.0,0.0,0.0,-5.289165724650015,-8.157960873078052,-7.814341318340443,-0.004441182491485586,-0.0039696276486467464,-1.7606478944124182
17951,13.0,300.23847,69940.712,0.0,-0.08975453186893989,-0.0897533081063977,0.0,0.0,0.0,-5.289238779982225,-8.157840600291182,-7.813150648147934,0.002227110648873708,-0.005174014005110425,-1.7640746049256084
17952,13.0,300.00702,69930.854,0.0,-0.08975951336762078,-0.08975831031658466,0.0,0.0,0.0,-5.289133097996795,-8.162667723767584,-7.805432620811222,-0.002145435902038038,-0.0039656974541588666,-1.7640081357190482
17953,13.0,299.91828,69936.81,0.0,-0.08976452785635913,-0.08976331252677161,0.0,0.0,0.0,-5.294882684364236,-8.164248292598572,-7.799913042216483,0.006486823188524603,0.008842904565776731,-1.7626010353051784
17954,13.0,300.06034,69950.3,0.0,-0.08976950935504002,-0.08976831473695879,0.0,0.0,0.0,-5.297672263214545,-8.162354933461712,-7.803117243007712,0.002032654681107398,0.0046667881991261356,-1.7590639818560985
17955,13.0,300.01961,69953.05,0.0,-0.08977452384377849,-0.08977331694714574,0.0,0.0,0.0,-5.292850307313654,-8.161102151038072,-7.810027912664743,-0.0004058203945888547,0.0003423431331891367,-1.7635493360737684
17956,13.0,299.85404,70004.697,0.0,-0.08977950534245915,-0.08977831915733292,0.0,0.0,0.0,-5.297419963939644,-8.165098206782453,-7.817161699993793,-0.0037013504329198466,-0.003183938525005267,-1.7654179719081882
17957,13.0,299.86908999999997,69988.738,0.0,-0.08978451983119762,-0.08978332136751999,0.0,0.0,0.0,-5.292662957370165,-8.164265720500293,-7.817900055341663,0.0017506650504521884,-0.003581574138598846,-1.7700242068627883
17958,13.0,300.01953,69937.988,0.0,-0.08978950132987862,-0.08978832357770716,0.0,0.0,0.0,-5.299390330084104,-8.158786874559572,-7.801224897120951,-0.0013323864925713087,-0.0007179515103412973,-1.7662555244408482
17959,13.0,300.13445,69986.562,0.0,-0.08979451581861686,-0.08979332578789412,0.0,0.0,0.0,-5.3037918885185045,-8.160656523644093,-7.8097187700592325,0.0013587161003948385,0.0016495319500211285,-1.7664454075095881
17960,13.0,300.14734,70033.195,0.0,-0.08979953030735532,-0.0897983279980813,0.0,0.0,0.0,-5.3104914981797045,-8.168907723183422,-7.808943431082712,-0.0012122019597850188,0.005976330664217915,-1.7668064285202183
17961,13.0,299.93131,70024.274,0.0,-0.08980451180603621,-0.08980333020826847,0.0,0.0,0.0,-5.286190417056375,-8.180443676896932,-7.818996797249902,0.0016031381663674186,0.0005529690628087974,-1.7711036221943184
17962,13.0,300.13806,70022.067,0.0,-0.08980952629477457,-0.08980833241845543,0.0,0.0,0.0,-5.287072552593435,-8.174960170005752,-7.822927093062792,-0.00015082883311314684,-0.003098867870459447,-1.7656802010340682
17963,13.0,300.03418,70061.895,0.0,-0.08981450779345568,-0.0898133346286426,0.0,0.0,0.0,-5.2878445478446245,-8.178602094840182,-7.830619991797022,0.0013377191265225988,-0.004863917525956285,-1.7714082051743785
17964,13.0,300.03671,70067.818,0.0,-0.08981952228219414,-0.08981833683882956,0.0,0.0,0.0,-5.304520617990424,-8.171582298147383,-7.822763959796692,-0.0011628028763347091,-0.0015080535610832984,-1.7679021571783582
17965,13.0,299.76998,70045.702,0.0,-0.08982450378087503,-0.0898233061397391,0.0,0.0,0.0,-5.292116815566265,-8.173347278496571,-7.826680374083213,-0.007069163453572114,0.004788933066880896,-1.7655698580981782
17966,13.0,299.83617000000004,69992.912,0.0,-0.08982951826961327,-0.08982830834992628,0.0,0.0,0.0,-5.288388561823315,-8.165989866870452,-7.821719096293572,-0.005935914144229114,0.00048421169434297354,-1.7657802088189383
17967,13.0,300.03526,69997.461,0.0,-0.08983453275835185,-0.08983331056011323,0.0,0.0,0.0,-5.284921625281155,-8.166280872299172,-7.826277911143493,-0.006772444814163263,0.003078611987710347,-1.7650864364754681
17968,13.0,299.96731,70046.218,0.0,-0.08983951425703274,-0.08983831277030041,0.0,0.0,0.0,-5.297349644382704,-8.175377933021982,-7.819573539206823,0.002294127719762778,-0.0017425180130231385,-1.7742972851845085
17969,13.0,299.97047000000003,70074.739,0.0,-0.08984452874577098,-0.08984331498048737,0.0,0.0,0.0,-5.306419955302875,-8.178530052758072,-7.816020983031213,-0.0007013321518035943,-0.006629528724658545,-1.7721955005020782
17970,13.0,299.94892999999996,70058.62299999999,0.0,-0.08984951024445187,-0.08984831719067443,0.0,0.0,0.0,-5.307762410360366,-8.173131253575251,-7.815178465573062,-0.0007008379289348183,-0.007127886464442623,-1.7721873945012783
17971,13.0,300.07791000000003,70099.152,0.0,-0.08985452473319044,-0.08985331940086161,0.0,0.0,0.0,-5.316531380700795,-8.178977706652251,-7.812882744821492,0.0002231152706172628,-0.003809838209201756,-1.7726363656205881
17972,13.0,300.23039,70164.556,0.0,-0.08985950623187111,-0.08985832161104856,0.0,0.0,0.0,-5.319862339079536,-8.174068712567772,-7.834341862064342,0.006158141676036264,0.0016655239750244185,-1.7698491172455082
17973,13.0,300.33612,70116.054,0.0,-0.08986452072060958,-0.08986332382123574,0.0,0.0,0.0,-5.312236618826935,-8.175373880021581,-7.825919119283084,0.003019826155333637,0.0037988344144407665,-1.7709014787993682
17974,13.0,299.99053,70078.212,0.0,-0.08986950221929046,-0.08986832603142292,0.0,0.0,0.0,-5.298444967740805,-8.175126545672171,-7.828455182958373,0.011784731944312489,-0.003119865553606757,-1.7659380731845185
17975,13.0,300.12767,70156.337,0.0,-0.08987451670802882,-0.08987332824160987,0.0,0.0,0.0,-5.3127874215812945,-8.178642219544141,-7.834345003139653,0.005091909234932315,0.0019972215277604182,-1.7688426559211785
17976,13.0,299.95435,70173.491,0.0,-0.08987953119676728,-0.08987833045179705,0.0,0.0,0.0,-5.314132916389085,-8.186764533670752,-7.830091379219851,0.006470007391190014,0.0018787001436882682,-1.7646915729114985
17977,13.0,299.90379,70086.867,0.0,-0.08988451269544839,-0.089883332661984,0.0,0.0,0.0,-5.302021943243825,-8.178453248400492,-7.824182307286673,-0.0059851272962860745,-0.0024476749306417077,-1.7653365066001483
17978,13.0,299.94111000000004,70088.508,0.0,-0.08988952718418664,-0.08988833487217118,0.0,0.0,0.0,-5.292446729798825,-8.186294182974333,-7.826415409182062,-0.010961693206084889,0.0026469014825288373,-1.7643653063792983
17979,13.0,299.99553,70156.917,0.0,-0.08989450868286752,-0.08989330417308072,0.0,0.0,0.0,-5.300013276245585,-8.194105327995233,-7.831832446866684,-0.009986758044041281,0.005701268928471434,-1.777357097836488
17980,13.0,299.95103,70219.703,0.0,-0.0898995231716061,-0.08989830638326768,0.0,0.0,0.0,-5.313540570380624,-8.196707962202092,-7.834787894758363,-0.004565265605356635,0.005676097566837214,-1.774672289046518
17981,13.0,300.02353,70208.746,0.0,-0.08990450467028699,-0.08990330859345486,0.0,0.0,0.0,-5.3180043423711645,-8.192506115362402,-7.831195315203802,-0.0005916441605132324,-0.0014959886908175884,-1.7785102777752981
17982,13.0,299.91452999999996,70123.165,0.0,-0.08990951915902523,-0.08990831080364203,0.0,0.0,0.0,-5.310523922182905,-8.177955641276384,-7.827211621110643,0.005028959856569696,-0.005441747916133704,-1.7723602549683382
17983,13.0,300.02471,70154.031,0.0,-0.08991450065770612,-0.08991331301382899,0.0,0.0,0.0,-5.310659596371295,-8.183322827056083,-7.831091355743542,0.0016748444573942783,-0.002978585660363517,-1.7737163889021783
17984,13.0,300.24595,70240.67,0.0,-0.0899195151464447,-0.08991831522401605,0.0,0.0,0.0,-5.3148235476572445,-8.191945382757062,-7.844641042705793,-0.0016002302399054284,-6.895767483834263e-05,-1.7762505274022782
17985,13.0,300.10213999999996,70183.75200000001,0.0,-0.08992452963518294,-0.08992331743420323,0.0,0.0,0.0,-5.310282566009086,-8.184248127047402,-7.839577426656053,0.0028849143363188774,0.0036432511788108968,-1.7674158984553683
17986,13.0,300.17798,70109.78,0.0,-0.08992951113386383,-0.08992831964439019,0.0,0.0,0.0,-5.297688981841195,-8.185389553285052,-7.828543943667134,-0.002745133141298547,0.0026721434676950278,-1.7741359757685884
17987,13.0,300.12322,70149.492,0.0,-0.08993452562260229,-0.08993332185457736,0.0,0.0,0.0,-5.303255676565585,-8.186631392607612,-7.833806967336553,0.007149633648688904,0.0044155419950550655,-1.7691666933031587
17988,13.0,299.79649,70238.854,0.0,-0.08993950712128307,-0.08993832406476432,0.0,0.0,0.0,-5.316979642545035,-8.196482210079813,-7.837395696540733,-0.007409555806741222,-0.006298196955208645,-1.7736094910166285
17989,13.0,299.85039,70274.035,0.0,-0.08994452161002153,-0.0899433262749515,0.0,0.0,0.0,-5.320480320315525,-8.194772654511093,-7.8462987198693925,0.005123587384733706,-0.0028007728321147573,-1.7637281747164184
17990,13.0,299.81395,70225.358,0.0,-0.08994950310870264,-0.08994832848513845,0.0,0.0,0.0,-5.3127959328821355,-8.193107175321721,-7.840852297931872,-0.004698923831347675,-0.006184017651790024,-1.7745421877336784
17991,13.0,299.92615,70231.468,0.0,-0.08995451759744089,-0.08995333069532563,0.0,0.0,0.0,-5.317158785162715,-8.190113122601232,-7.841340583155063,0.004629589153504875,0.0024562274707607776,-1.7672363505376483
17992,13.0,300.23195,70290.823,0.0,-0.08995953208617924,-0.0899583329055128,0.0,0.0,0.0,-5.323339509447704,-8.200348975111432,-7.842966646915542,-0.0050769774748336645,-0.003905639486281606,-1.7767277681993785
17993,13.0,300.22707,70267.298,0.0,-0.08996451358486035,-0.08996330220642212,0.0,0.0,0.0,-5.318410959636295,-8.19657482113895,-7.844518034143652,-0.0017553062425352383,-0.0025255943699567574,-1.7727834895351084
17994,13.0,300.10106,70221.782,0.0,-0.08996952807359859,-0.0899683044166093,0.0,0.0,0.0,-5.317540780450415,-8.189074642573742,-7.839052867079283,-0.0063582419534846234,-0.006965251413416793,-1.7756791556708884
17995,13.0,300.1891,70219.871,0.0,-0.08997450957227948,-0.08997330662679648,0.0,0.0,0.0,-5.310138279194845,-8.19371846910705,-7.841230544194203,-0.0011789565147289488,-0.006118574462281284,-1.7743273787124783
17996,13.0,300.02336,70223.739,0.0,-0.08997952406101795,-0.08997830883698354,0.0,0.0,0.0,-5.309455956577505,-8.196926621573672,-7.839880692410983,-0.0014908806944134686,0.0022036228022806383,-1.7821949617639483
17997,13.0,299.94763,70284.062,0.0,-0.08998450555969895,-0.08998331104717061,0.0,0.0,0.0,-5.314209112796604,-8.197731142153073,-7.852659600022163,0.0008409958503423282,0.0008235044279735591,-1.7768792490893284
17998,13.0,299.91839,70341.59700000001,0.0,-0.08998952004843719,-0.08998831325735768,0.0,0.0,0.0,-5.327249337608575,-8.201959941445423,-7.852879880593903,0.0036157200590187866,0.0054579497852327045,-1.7722586259833084
17999,13.0,299.77637999999996,70311.24799999999,0.0,-0.08999450154711808,-0.08999331546754485,0.0,0.0,0.0,-5.329475549403285,-8.1961061929677,-7.847281876441422,0.0003443208656618237,0.003552644733668736,-1.7724114240983884
18000,13.0,299.82086,70282.242,0.0,-0.08999951603585654,-0.08999831767773181,0.0,0.0,0.0,-5.325967778882095,-8.198886348592083,-7.839192391618052,0.0009059208333524251,0.00045105964054862057,-1.7705953759441584
18001,13.0,299.95898,70313.09700000001,0.0,-0.0900045305245949,-0.09000331988791876,0.0,0.0,0.0,-5.323183975557354,-8.204687205414583,-7.845554690320964,-0.009064894389110421,-0.0017010025219758784,-1.7672985640937884
18002,13.0,300.00776,70347.59700000001,0.0,-0.09000951202327578,-0.09000832209810594,0.0,0.0,0.0,-5.326109735221104,-8.204784274774163,-7.853018898507622,-0.0006834397357077502,-0.007056307741603354,-1.7664815805381586
18003,13.0,300.03469,70315.095,0.0,-0.09001452651201425,-0.0900133243082929,0.0,0.0,0.0,-5.325139142950315,-8.202976839245782,-7.845917028556722,0.0015237434349067685,0.00039888002657139363,-1.773560956336838
18004,13.0,299.99921,70259.37400000001,0.0,-0.09001950801069514,-0.09001832651848007,0.0,0.0,0.0,-5.319575386651215,-8.194790386387842,-7.8427295463921425,0.006275164767185545,0.007383656830210193,-1.7786160610857384
18005,13.0,299.96036000000004,70262.423,0.0,-0.09002452249943349,-0.09002332872866725,0.0,0.0,0.0,-5.322407623330735,-8.192679077154473,-7.842935337487453,0.0001867971547654438,0.005853818594626915,-1.7769424758955683
18006,13.0,300.12251000000003,70359.966,0.0,-0.0900295039981146,-0.09002833093885432,0.0,0.0,0.0,-5.323924053430395,-8.203804259277442,-7.859944564266133,-0.005002973841855075,0.0003106601400522687,-1.7759068329683583
18007,13.0,300.20457000000005,70425.225,0.0,-0.09003451848685284,-0.0900333331490415,0.0,0.0,0.0,-5.333961815546045,-8.207869520003651,-7.865678445257022,-0.004150012004324296,-0.001122794797461219,-1.777994229499368
18008,13.0,300.13436,70369.784,0.0,-0.09003949998553373,-0.09003830244995092,0.0,0.0,0.0,-5.319554817674185,-8.205583830428072,-7.865518453066233,0.0023554664357664378,0.004496981465217515,-1.7801940967914784
18009,13.0,300.10092000000003,70293.11,0.0,-0.0900445144742722,-0.09004330466013799,0.0,0.0,0.0,-5.311826151211425,-8.203766465048712,-7.851757807433162,-0.0019865848335106585,0.0016131315481286886,-1.780961228442188
18010,13.0,299.9106,70370.075,0.0,-0.09004952896301055,-0.09004830687032517,0.0,0.0,0.0,-5.321831084023835,-8.209122099777272,-7.859792678076143,0.00032521743331146173,-0.00019582072445850082,-1.7751563186192882
18011,13.0,299.99829,70464.22099999999,0.0,-0.09005451046169144,-0.09005330908051212,0.0,0.0,0.0,-5.337730396642974,-8.218789822956403,-7.862843270152213,-0.001176574667718879,0.009044734562470801,-1.777943769644388
18012,13.0,299.69367,70355.46,0.0,-0.0900595249504299,-0.0900583112906993,0.0,0.0,0.0,-5.319085986852915,-8.214784445311102,-7.852432631999762,0.006972535060435633,0.01100822773017749,-1.7751159912653085
18013,13.0,299.85537999999997,70266.058,0.0,-0.09006450644911079,-0.09006331350088648,0.0,0.0,0.0,-5.307803446989415,-8.205502567770052,-7.845820972447243,2.5615115528765077e-05,-0.006025908282335844,-1.778319685431488
18014,13.0,299.8301,70380.563,0.0,-0.09006952093784915,-0.09006831571107343,0.0,0.0,0.0,-5.321448987411125,-8.213714554530512,-7.858770207400233,-0.002195348500639028,-0.01186750535823159,-1.7683343083460086
18015,13.0,300.10413,70483.173,0.0,-0.09007450243653004,-0.09007331792126039,0.0,0.0,0.0,-5.333792805429366,-8.220576588182741,-7.870755334883073,0.0009293311865778472,-0.01207069645378499,-1.7853797081532583
18016,13.0,299.96533,70424.195,0.0,-0.0900795169252685,-0.09007832013144756,0.0,0.0,0.0,-5.335082672806665,-8.213584858517711,-7.858529155201443,0.0005315833251381896,0.0005510530980622065,-1.7736814317737282
18017,13.0,300.12132,70341.00099999999,0.0,-0.09008453141400685,-0.09008332234163452,0.0,0.0,0.0,-5.329531886108845,-8.204422341838443,-7.847953762582733,0.003549432122901676,0.0013617115716654687,-1.7774277213684584
18018,13.0,300.08532,70359.475,0.0,-0.09008951291268774,-0.0900883245518217,0.0,0.0,0.0,-5.327534871486755,-8.210963681834022,-7.849025071913464,-0.006270048867430644,-0.0028690762240057774,-1.7744034737949883
18019,13.0,300.09368,70469.826,0.0,-0.0900945274014262,-0.09009332676200876,0.0,0.0,0.0,-5.338539476847824,-8.219923649818302,-7.8626043457786325,-0.000980345887180106,0.004654060055344965,-1.784524119768818
18020,13.0,299.98573999999996,70529.15299999999,0.0,-0.0900995089001071,-0.09009832897219594,0.0,0.0,0.0,-5.341697676084515,-8.227784646744123,-7.869618974895922,-0.0016902992571945481,0.0018265835234697583,-1.778261930175788
18021,13.0,300.06746,70408.146,0.0,-0.09010452338884545,-0.0901033311823829,0.0,0.0,0.0,-5.3251198911984154,-8.215014757058833,-7.862183543012102,0.007352580246993173,0.00022317983491363478,-1.7815054450708983
18022,13.0,300.03537,70330.838,0.0,-0.09010950488752645,-0.09010830048329244,0.0,0.0,0.0,-5.318961053115585,-8.210874617150232,-7.848983022034313,-0.0012325794325461189,0.0011899240351363589,-1.7824076429599383
18023,13.0,300.23067000000003,70484.132,0.0,-0.0901145193762648,-0.09011330269347961,0.0,0.0,0.0,-5.341529679217935,-8.219671350543402,-7.864215008137592,0.005652193578428074,0.007924145407827264,-1.7814926781196383
18024,13.0,300.25362,70580.289,0.0,-0.09011950087494569,-0.09011830490366657,0.0,0.0,0.0,-5.341287107143995,-8.229066813420662,-7.884291545618992,-0.0035350471125569867,0.008425602983642273,-1.7805802464045881
18025,13.0,300.07252,70465.969,0.0,-0.09012451536368415,-0.09012330711385375,0.0,0.0,0.0,-5.328793936061015,-8.219232917225133,-7.871868187467903,-0.0011377051779827589,-0.006006329453303564,-1.7718867631966084
18026,13.0,300.09661,70404.59,0.0,-0.09012952985242251,-0.09012830932404092,0.0,0.0,0.0,-5.317413313587836,-8.214187641002201,-7.869636402797642,0.0009886984927894441,-0.007392768481734442,-1.783045990522938
18027,13.0,300.08545,70502.688,0.0,-0.0901345113511034,-0.09013331153422788,0.0,0.0,0.0,-5.341861923925725,-8.223195535716213,-7.865999240238683,0.0015335675025763284,-0.0006025588196629254,-1.7750883295375786
18028,13.0,299.9114,70569.765,0.0,-0.09013952583984186,-0.09013831374441506,0.0,0.0,0.0,-5.3514015722922155,-8.227818894597501,-7.872225864753202,-0.0015732938979220183,0.0002467651561663248,-1.7835627480739382
18029,13.0,300.00924,70588.65299999999,0.0,-0.09014450733852275,-0.09014331595460201,0.0,0.0,0.0,-5.353823645331254,-8.22543056278679,-7.877933705216521,-0.013208819496108986,-0.003765176981894036,-1.7691552435770284
18030,13.0,300.00124,70523.62700000001,0.0,-0.0901495218272611,-0.09014831816478919,0.0,0.0,0.0,-5.339607949078275,-8.222792363501421,-7.875021320454093,-0.007299973315051274,0.005234192651074595,-1.784674283433638
18031,13.0,299.87789,70487.19,0.0,-0.09015450332594199,-0.09015332037497614,0.0,0.0,0.0,-5.335080544981454,-8.220146159540262,-7.871118889018952,-0.0015679997674745284,0.009862681516295881,-1.7804463960663781
18032,13.0,300.04915,70537.48700000001,0.0,-0.09015951781468046,-0.09015832258516321,0.0,0.0,0.0,-5.339394558607215,-8.224580952577941,-7.8776592157644325,0.000926157342759613,0.0018795306034702283,-1.7827936912480382
18033,13.0,299.99829,70588.148,0.0,-0.09016449931336135,-0.09016332479535039,0.0,0.0,0.0,-5.350367955865204,-8.226278045170433,-7.880388607558801,-1.106386427991839e-05,-0.014282946675367088,-1.7753068875841485
18034,13.0,300.04434,70480.99,0.0,-0.0901695138020997,-0.09016832700553734,0.0,0.0,0.0,-5.339349570302775,-8.218395871317522,-7.866715506734372,0.005724347320699094,-0.0033593478226918165,-1.780722912018668
18035,13.0,300.23998,70448.939,0.0,-0.09017452829083816,-0.09017332921572452,0.0,0.0,0.0,-5.327706212078665,-8.225478692166542,-7.8615335430729525,0.007989813032233154,0.0012688935055300387,-1.7806647514629284
18036,13.0,300.07506,70570.902,0.0,-0.09017950978951905,-0.09017829851663406,0.0,0.0,0.0,-5.335936032040886,-8.235915269521552,-7.879940751014602,0.0013969538286936086,-0.0015177064908109686,-1.7809553515916083
18037,13.0,300.33791,70669.445,0.0,-0.09018452427825752,-0.09018330072682101,0.0,0.0,0.0,-5.347355563317905,-8.244248137018943,-7.890143064946492,-0.0062069935031075635,-0.007889668458599654,-1.7776891398942583
18038,13.0,300.16634,70590.289,0.0,-0.0901895057769384,-0.09018830293700819,0.0,0.0,0.0,-5.334723779621245,-8.243244411469883,-7.879717126717533,0.0003525562382345917,0.0014878639448907384,-1.7838002538973785
18039,13.0,299.95149,70534.854,0.0,-0.09019452026567676,-0.09019330514719537,0.0,0.0,0.0,-5.337256195596175,-8.232454209829971,-7.871123853944443,-0.00025996551502409875,0.004499497061240786,-1.7868060603190286
18040,13.0,299.83825,70572.32,0.0,-0.09019950176435765,-0.09019830735738232,0.0,0.0,0.0,-5.345223178482454,-8.231347943370793,-7.875652068641342,0.003249530358303677,-0.0031568982235615967,-1.7834021479330882
18041,13.0,300.00543999999996,70613.492,0.0,-0.09020451625309611,-0.0902033095675695,0.0,0.0,0.0,-5.3528649080866355,-8.229406150879152,-7.882467290138952,-0.009164893156054532,-0.007493997435624963,-1.7870459979427085
18042,13.0,299.76739,70633.18,0.0,-0.09020953074183446,-0.09020831177775646,0.0,0.0,0.0,-5.345159546376174,-8.237700413547733,-7.8878630495714726,-0.0001030581135010439,0.001245338987080389,-1.785675374532438
18043,13.0,300.02345,70570.98,0.0,-0.09021451224051535,-0.09021331398794363,0.0,0.0,0.0,-5.342374932451355,-8.233492385882434,-7.875948545620603,-0.002029532553574268,0.005012524939947696,-1.7866732232309184
18044,13.0,299.79376,70519.235,0.0,-0.09021952672925382,-0.09021831619813081,0.0,0.0,0.0,-5.333921386867055,-8.2295323005166,-7.8726329886433835,0.0041061284464683255,-0.0031976024052537866,-1.7794495606179983
18045,13.0,299.84125,70613.795,0.0,-0.09022450822793471,-0.09022331840831777,0.0,0.0,0.0,-5.349983022152215,-8.234832510464692,-7.8800150222469325,-0.0013787462310216588,-0.005922066865712494,-1.7785091632001884
18046,13.0,299.98512,70758.101,0.0,-0.09022952271667295,-0.09022832061850483,0.0,0.0,0.0,-5.362846738796765,-8.249543382041542,-7.896305854704713,0.005256669780692915,-0.000964808092064145,-1.7736001691157084
18047,13.0,300.23596000000003,70686.009,0.0,-0.09023450421535384,-0.09023332282869179,0.0,0.0,0.0,-5.354010995274745,-8.243546461324692,-7.889224148430801,0.003013387862873227,0.000993721710557697,-1.7845266528940682
18048,13.0,300.16709,70596.951,0.0,-0.09023951870409241,-0.09023832503887896,0.0,0.0,0.0,-5.332698090021325,-8.242950467615872,-7.884061740496312,0.0008385322239166872,-0.0020391799104263883,-1.7844191470584585
18049,13.0,300.05638999999996,70630.979,0.0,-0.0902445002027733,-0.09024332724906614,0.0,0.0,0.0,-5.345559476190645,-8.23883039005925,-7.885663992879444,-0.003120342794403857,0.0016263630745595385,-1.7863394586479782
18050,13.0,299.84165,70678.384,0.0,-0.09024951469151177,-0.0902483294592531,0.0,0.0,0.0,-5.349738119603045,-8.246972563887821,-7.887753213260632,0.00016985703164358381,0.009201926028659392,-1.7874450158320883
18051,13.0,299.84142,70668.12299999999,0.0,-0.09025452918025012,-0.09025329876016264,0.0,0.0,0.0,-5.354803052877915,-8.244975650590742,-7.881566206825022,0.0009113245164007271,0.00988157954258597,-1.7917161689786183
18052,13.0,300.04783,70562.64,0.0,-0.09025951067893101,-0.09025830097034981,0.0,0.0,0.0,-5.337059321101745,-8.232382775697923,-7.879838412754503,0.002023342608713368,-5.7643386809459344e-05,-1.7878275177448384
18053,13.0,300.09836,70580.363,0.0,-0.09026452516766947,-0.09026330318053677,0.0,0.0,0.0,-5.337617419256825,-8.237799914707551,-7.879250525046483,-0.005305020048964715,0.0003745491862926266,-1.7870437687924883
18054,13.0,300.2762,70736.742,0.0,-0.09026950666635036,-0.09026830539072395,0.0,0.0,0.0,-5.346814690414525,-8.249154395328151,-7.906234185809562,-0.004848627379297265,0.001864370254149018,-1.7903373382425383
18055,13.0,300.1054,70816.12599999999,0.0,-0.0902745211550886,-0.0902733076009109,0.0,0.0,0.0,-5.363482755884536,-8.257220980699262,-7.905630288749963,-0.006007701799239005,0.004199766333259666,-1.7856651407064283
18056,13.0,300.27871,70716.47200000001,0.0,-0.0902795026537696,-0.09027830981109808,0.0,0.0,0.0,-5.353375484812025,-8.247232462538472,-7.895433750343643,-0.003143624545926587,-0.003682489086283377,-1.7840671439737181
18057,13.0,300.07077999999996,70647.107,0.0,-0.09028451714250807,-0.09028331202128526,0.0,0.0,0.0,-5.349863357315405,-8.239140951214901,-7.885952262532892,0.0059351657577052545,-0.005731231139228474,-1.7810326625742383
18058,13.0,299.91587000000004,70755.74799999999,0.0,-0.09028949864118896,-0.09028831423147232,0.0,0.0,0.0,-5.357419061986095,-8.252500045833342,-7.898061614477993,0.0046495710534269355,-0.007489675113348383,-1.7883911887754682
18059,13.0,299.8644,70839.884,0.0,-0.0902945131299272,-0.09029331644165939,0.0,0.0,0.0,-5.371082131634536,-8.252545946062872,-7.909927583749072,0.0071490057376019335,-0.0037959270959288366,-1.7820084224205384
18060,13.0,299.96313,70701.591,0.0,-0.09029952761866578,-0.09029831865184645,0.0,0.0,0.0,-5.343315431194175,-8.248267801490652,-7.899935113912892,-0.003141537352045597,-0.007214822005797494,-1.7895948285692582
18061,13.0,300.0784,70622.68,0.0,-0.09030450911734667,-0.09030332086203363,0.0,0.0,0.0,-5.341005727591225,-8.244986897666852,-7.881538545097292,0.001133868202504079,0.004779262506601485,-1.7796997320676884
18062,13.0,299.95677,70758.121,0.0,-0.09030952360608491,-0.09030832307222059,0.0,0.0,0.0,-5.364601080019904,-8.248200623009021,-7.895900149364672,-0.004700199513223575,0.011188961150514489,-1.7828914698826883
18063,13.0,299.98812999999996,70868.713,0.0,-0.09031450510476602,-0.09031332528240754,0.0,0.0,0.0,-5.3799133155311045,-8.258765680476714,-7.903640164228553,-0.0014206485809570987,0.008039200665957333,-1.7808360920548383
18064,13.0,299.96112999999997,70824.606,0.0,-0.09031951959350426,-0.09031832749259472,0.0,0.0,0.0,-5.362599201797336,-8.260822274204681,-7.905490156261132,-0.006315715340162574,-0.004857717043294346,-1.788772373463088
18065,13.0,300.18552,70754.637,0.0,-0.09032450109218526,-0.09032329679350426,0.0,0.0,0.0,-5.3491762724225955,-8.257010427328483,-7.901456306288022,0.001279556442957389,-0.004134865435204447,-1.7883727476236484
18066,13.0,300.15755,70767.73599999999,0.0,-0.09032951558092372,-0.09032829900369144,0.0,0.0,0.0,-5.354785118351145,-8.258961035095993,-7.897878317534902,0.004070856703862276,-0.003996651332788777,-1.7977376103478884
18067,13.0,300.20215,70786.234,0.0,-0.09033453006966197,-0.09033330121387839,0.0,0.0,0.0,-5.359308976072615,-8.256093739963012,-7.901845090351393,0.0013902703297089987,-0.0026276438537782575,-1.7894072759757484
18068,13.0,299.81671,70769.646,0.0,-0.09033951156834286,-0.09033830342406535,0.0,0.0,0.0,-5.361541571342954,-8.256707870848622,-7.893955823747784,0.00020856495865125878,0.0015587133303080285,-1.788189754655588
18069,13.0,300.02898,70733.892,0.0,-0.09034452605708143,-0.09034330563425252,0.0,0.0,0.0,-5.349593934113815,-8.252764605434452,-7.898978301843464,-0.002384959714377198,0.008018239358488612,-1.7862614383902784
18070,13.0,300.21384,70754.594,0.0,-0.09034950755576232,-0.0903483078444397,0.0,0.0,0.0,-5.350674970645505,-8.258439717919542,-7.898514942572733,-0.0004411194138875966,0.003907728098712736,-1.7899785463821283
18071,13.0,300.2099,70848.047,0.0,-0.09035452204450056,-0.09035331005462677,0.0,0.0,0.0,-5.356469241342355,-8.270964806380672,-7.908603063218352,-0.005861977284432114,-0.0001237993835780479,-1.7871807602060086
18072,13.0,300.01355,70860.688,0.0,-0.09035950354318145,-0.09035831226481394,0.0,0.0,0.0,-5.366738125805815,-8.258344776385172,-7.914796959754642,0.0016524001570791987,-0.002176778868706348,-1.7838658111788481
18073,13.0,299.95117,70819.479,0.0,-0.09036451803192003,-0.0903633144750009,0.0,0.0,0.0,-5.358195414212715,-8.262326241328113,-7.906831598068523,0.000999078216681343,0.003037646691467387,-1.7905054364341284
18074,13.0,299.87137,70817.576,0.0,-0.09036949953060092,-0.09036831668518808,0.0,0.0,0.0,-5.365395772073335,-8.258312149731951,-7.903066765996963,0.005909191496691795,0.008930990652620152,-1.7903391620927185
18075,13.0,299.79434,70886.543,0.0,-0.09037451401933916,-0.09037331889537525,0.0,0.0,0.0,-5.374670455538674,-8.261344401981212,-7.911723974851363,0.0027712247366735877,0.005381679613105425,-1.7935228952319282
18076,13.0,300.08459,70876.246,0.0,-0.09037952850807762,-0.09037832110556221,0.0,0.0,0.0,-5.363640316275085,-8.267921104405284,-7.913047482131983,0.002664103936101588,-3.322044918935307e-05,-1.7951448046669984
18077,13.0,300.0154,70803.212,0.0,-0.09038451000675851,-0.09038332331574916,0.0,0.0,0.0,-5.353884035037215,-8.262623934207491,-7.905900421226622,-0.0020650515292047183,-0.0035236937465114968,-1.7914837294056782
18078,13.0,300.03148,70833.285,0.0,-0.09038952449549686,-0.09038832552593612,0.0,0.0,0.0,-5.3533040506799745,-8.271746832807851,-7.906499252035723,0.0026833908477800574,-0.007632902675933842,-1.792942910874688
18079,13.0,300.14822999999996,70873.973,0.0,-0.09039450599417798,-0.09039329482684588,0.0,0.0,0.0,-5.370062498058904,-8.265709280761993,-7.908146391398282,-0.0016622857290298284,-0.0008648538270644274,-1.7848461306505985
18080,13.0,300.28702999999996,70862.813,0.0,-0.09039952048291622,-0.09039829703703306,0.0,0.0,0.0,-5.365694984827865,-8.262795984074472,-7.912034536007013,0.005209891063326214,0.002624682225060968,-1.7847131922374782
18081,13.0,300.22567999999995,70900.518,0.0,-0.09040450198159711,-0.09040329924722001,0.0,0.0,0.0,-5.373617891334796,-8.269442803405463,-7.908926290000252,-0.001007587318768626,0.007177236202613063,-1.789154976700848
18082,13.0,300.10172,70923.165,0.0,-0.09040951647033568,-0.09040830145740697,0.0,0.0,0.0,-5.365596091618104,-8.270062101866582,-7.923212812435223,-0.0034595864259345964,0.003881553416829496,-1.7942426067779584
18083,13.0,299.97129,70877.8,0.0,-0.09041449796901657,-0.09041330366759415,0.0,0.0,0.0,-5.368563597185974,-8.269914977952062,-7.906602704870933,-0.0032919926302443767,-0.0049425781577194855,-1.7942492942286183
18084,13.0,299.82784,70914.583,0.0,-0.09041951245775481,-0.09041830587778121,0.0,0.0,0.0,-5.370930448094565,-8.268394798827032,-7.916937247940873,-0.002034463839160948,-0.011493571488327189,-1.7909224901752883
18085,13.0,299.94985,70950.98599999999,0.0,-0.09042452694649328,-0.09042330808796839,0.0,0.0,0.0,-5.384245770308685,-8.266420075707142,-7.916662353188743,-0.0031448601030985273,-0.005730028006059734,-1.7928451322400383
18086,13.0,300.06588,70916.372,0.0,-0.09042950844517417,-0.09042831029815535,0.0,0.0,0.0,-5.372263682576144,-8.279837128231302,-7.904705495383692,0.000990042042157042,-0.0045348508771049355,-1.7914696452292882
18087,13.0,300.18942999999996,70917.148,0.0,-0.09043452293391252,-0.09043331250834252,0.0,0.0,0.0,-5.367418523247965,-8.277603925010903,-7.912019742555552,0.0064375898727906545,0.004966676892797846,-1.7940234407813285
18088,13.0,299.97147,70967.057,0.0,-0.09043950443259341,-0.0904383147185297,0.0,0.0,0.0,-5.376426519286985,-8.277892295989362,-7.9178945666353515,0.001955392942432258,0.0027736427567122274,-1.785436348833848
18089,13.0,300.03046,70965.95,0.0,-0.09044451892133187,-0.09044331692871665,0.0,0.0,0.0,-5.369380682066615,-8.280402521787101,-7.922093475049752,0.0030982588058243374,-0.00044560660208794756,-1.7857513682899382
18090,13.0,300.09868,70959.355,0.0,-0.09044950042001276,-0.09044831913890383,0.0,0.0,0.0,-5.371658670941435,-8.273329732114071,-7.924883560525113,-0.0023459809962802975,-0.005275162709593026,-1.7861082349751582
18091,13.0,300.22328,70947.266,0.0,-0.09045451490875112,-0.09045332134909079,0.0,0.0,0.0,-5.3695754287358355,-8.277206325671662,-7.919415455035453,-0.0003517087153209476,-0.00015760709124710884,-1.7914084449232484
18092,13.0,300.116,70910.63900000001,0.0,-0.09045952939748958,-0.09045832355927796,0.0,0.0,0.0,-5.368292350134205,-8.26721446378554,-7.919556803424402,-0.003046898171505437,0.000874354404507061,-1.7938068079099483
18093,13.0,300.22249,70971.563,0.0,-0.09046451089617047,-0.0904632928601875,0.0,0.0,0.0,-5.369441983697665,-8.277537253154323,-7.9266036538948725,-0.0036197556315170666,0.008478432425306132,-1.7991254590098584
18094,13.0,300.04787000000005,71023.637,0.0,-0.09046952538490882,-0.09046829507037446,0.0,0.0,0.0,-5.379317119172264,-8.283994696041622,-7.926100473895212,-0.003954037579958126,0.01116631805052979,-1.8033734087290982
18095,13.0,300.11336,70967.978,0.0,-0.09047450688358993,-0.09047329728056164,0.0,0.0,0.0,-5.364371072247205,-8.277405733291342,-7.930716537375782,-0.0026098970822517873,0.005189976139235765,-1.7959353423950184
18096,13.0,300.07801,70945.073,0.0,-0.0904795213723284,-0.09047829949074859,0.0,0.0,0.0,-5.367149910646455,-8.281716403191773,-7.916664278363933,0.0004519988018013086,-0.002580475744398128,-1.7952494734023283
18097,13.0,300.0827,71033.675,0.0,-0.09048450287100906,-0.09048330170093566,0.0,0.0,0.0,-5.386956011676165,-8.277052210331451,-7.928455368452622,0.0025826397426366977,-0.005735522962677045,-1.7859222022567984
18098,13.0,299.76344,71083.675,0.0,-0.09048951735974753,-0.09048830391112284,0.0,0.0,0.0,-5.390640796989825,-8.287594570996902,-7.929426771323493,0.003821376594715506,-0.004873871897588706,-1.7964027546661485
18099,13.0,299.99388999999996,71014.549,0.0,-0.09049449885842842,-0.09049330612130979,0.0,0.0,0.0,-5.379354204125925,-8.284761523717302,-7.922534036193233,-0.0005667013982340734,0.001996604458449518,-1.7915037917576582
18100,13.0,300.08673999999996,70953.493,0.0,-0.09049951334716677,-0.09049830833149697,0.0,0.0,0.0,-5.369114095965305,-8.273859459266353,-7.925116709373122,-0.006359177892601994,0.001997484060861328,-1.7971840718182583
18101,13.0,300.1484,71027.886,0.0,-0.09050452783590524,-0.09050331054168415,0.0,0.0,0.0,-5.372037119853785,-8.288744305885372,-7.929922351947402,-0.002070803243397368,0.01003597818752393,-1.7869934102625182
18102,13.0,300.09492,71053.931,0.0,-0.09050950933458612,-0.0905083127518711,0.0,0.0,0.0,-5.383021054912815,-8.282897650158352,-7.932702203596752,-0.006318375526975114,0.01133068748175179,-1.7963359814845585
18103,13.0,300.13212000000004,71021.20599999999,0.0,-0.09051452382332448,-0.09051331496205828,0.0,0.0,0.0,-5.369489809102385,-8.289263900536652,-7.929919616172133,0.0025556886072018274,0.002426972812548568,-1.794817423559688
18104,13.0,300.04582,71021.492,0.0,-0.09051950532200537,-0.09051831717224523,0.0,0.0,0.0,-5.370406192492824,-8.295062629533943,-7.923291440642982,-0.0027941663401377472,-0.005800504312790204,-1.8004328556138882
18105,13.0,299.99709,71074.385,0.0,-0.09052451981074383,-0.09052331938243241,0.0,0.0,0.0,-5.376619847406065,-8.289651468699901,-7.938566996500563,0.002583184871190498,-0.0036911515640382963,-1.7975771115320485
18106,13.0,299.84934,71069.631,0.0,-0.09052950130942472,-0.09052832159261959,0.0,0.0,0.0,-5.379299589945536,-8.295443104946491,-7.928650621746892,0.005345642461373834,-0.0005187741922765265,-1.8048510313499284
18107,13.0,299.7227,71041.959,0.0,-0.09053451579816307,-0.09053332380280654,0.0,0.0,0.0,-5.368104696215685,-8.288328873344371,-7.938547947398683,0.002083389430839528,-0.0007373385919246534,-1.7964630430470983
18108,13.0,299.90611,71018.174,0.0,-0.09053949729684407,-0.09053829310371608,0.0,0.0,0.0,-5.376021624547025,-8.282183511487872,-7.929546537485313,0.003650121825088976,-0.0001420517365069149,-1.7912320380808382
18109,13.0,299.98009,71074.386,0.0,-0.09054451178558265,-0.09054329531390326,0.0,0.0,0.0,-5.379402232180665,-8.295147235917291,-7.930289148483602,-0.0002943136497664957,-0.003156119946159787,-1.7996784909144383
18110,13.0,299.95928,71142.076,0.0,-0.09054952627432089,-0.09054829752409022,0.0,0.0,0.0,-5.395251794219894,-8.293372021742092,-7.936790971725284,0.004640410461922855,0.0023667174635518275,-1.7963247344084483
18111,13.0,299.88468,71137.853,0.0,-0.09055450777300178,-0.09055329973427739,0.0,0.0,0.0,-5.385149893372915,-8.303487702790433,-7.935493302322214,-0.0083063863073515,-0.007839065938005572,-1.8036454663809485
18112,13.0,300.0849,71087.399,0.0,-0.09055952226174036,-0.09055830194446446,0.0,0.0,0.0,-5.375289247374745,-8.295091203186761,-7.938413590435423,-0.005380314359920684,-0.0009050758435640311,-1.7927422873548882
18113,13.0,299.97035,71132.305,0.0,-0.09056450376042102,-0.09056330415465141,0.0,0.0,0.0,-5.386736744354525,-8.296424842968383,-7.939282857696213,-0.01016288735724889,0.005983201614471025,-1.7978500811089881
18114,13.0,300.10359,71217.12599999999,0.0,-0.09056951824915949,-0.09056830636483859,0.0,0.0,0.0,-5.402862923671055,-8.299181491190442,-7.946183698827273,0.0007352803972615253,0.012897417342875988,-1.7909625135542382
18115,13.0,300.26433,71169.65400000001,0.0,-0.09057449974784038,-0.09057330857502555,0.0,0.0,0.0,-5.396593641327325,-8.290435926927321,-7.946768141484952,0.0006800922106898752,-0.002220252060271818,-1.7971494186648382
18116,13.0,300.2896,71138.62,0.0,-0.09057951423657873,-0.09057831078521272,0.0,0.0,0.0,-5.388709542299225,-8.298280002576472,-7.937374502457873,0.002286015335487148,-0.005567610398505365,-1.7981706734406284
18117,13.0,299.98907,71148.357,0.0,-0.09058452872531719,-0.09058331299539968,0.0,0.0,0.0,-5.391102332410375,-8.292545716285542,-7.943675904829773,0.0012323117318696988,-0.004564777624108475,-1.7988025362029882
18118,13.0,299.97647,71174.98599999999,0.0,-0.09058951022399808,-0.09058831520558686,0.0,0.0,0.0,-5.387561225960894,-8.299186456115931,-7.948670923847742,-0.004301115863912086,0.00044524634101489254,-1.8033434165261382
18119,13.0,300.05432,71143.276,0.0,-0.09059452471273644,-0.09059331741577403,0.0,0.0,0.0,-5.385926245599536,-8.297493416523842,-7.942359895599893,0.0007192454408514984,0.0010791815747319287,-1.8029016394825383
18120,13.0,299.97809,71131.908,0.0,-0.09059950621141732,-0.0905983196259611,0.0,0.0,0.0,-5.387400017869985,-8.296639753314592,-7.938284097072643,-0.007665074177208923,0.0007445806754243913,-1.7933792163677484
18121,13.0,299.90443,71144.527,0.0,-0.09060452070015579,-0.09060332183614817,0.0,0.0,0.0,-5.382717079882815,-8.305864787525032,-7.937577760427933,0.0020213495457666684,0.0025081541065855376,-1.8037741491436485
18122,13.0,299.90979,71186.26,0.0,-0.0906095021988369,-0.0906082911370577,0.0,0.0,0.0,-5.388626354466015,-8.305084382298011,-7.945134883648763,0.002240799151099658,-0.00045874802018740457,-1.7983988573631482
18123,13.0,299.89525,71224.844,0.0,-0.09061451668757514,-0.09061329334724477,0.0,0.0,0.0,-5.392522301100515,-8.306774990089863,-7.951276699129912,0.005493435526259875,-0.01144157757269579,-1.7991798705402284
18124,13.0,300.12029,71232.418,0.0,-0.09061949818625603,-0.09061829555743195,0.0,0.0,0.0,-5.394583049153895,-8.307585995469902,-7.950707151248702,0.0031244482811590367,-0.006296253440191834,-1.791170533799768
18125,13.0,300.00998,71201.14,0.0,-0.0906245126749945,-0.0906232977676189,0.0,0.0,0.0,-5.393018084374445,-8.302110189279484,-7.948240393880252,0.0034064561503160465,0.010947872474720888,-1.8010324970230684
18126,13.0,299.87984,71243.045,0.0,-0.09062952716373285,-0.09062829997780608,0.0,0.0,0.0,-5.4003251374705945,-8.306191662007292,-7.949589941688442,-0.0008742000257218252,0.008975394109102431,-1.7970284366028983
18127,13.0,300.07729,71267.982,0.0,-0.09063450866241374,-0.09063330218799304,0.0,0.0,0.0,-5.400546633942454,-8.306944405506583,-7.956195825715392,-0.0025113936698052575,-0.004344626241756225,-1.8058611403746183
18128,13.0,300.11921,71165.1,0.0,-0.0906395231511522,-0.09063830439817999,0.0,0.0,0.0,-5.390636237364374,-8.298912473288892,-7.942864696799713,-0.0038319243256064862,0.0016338261681710885,-1.7960400111303483
18129,13.0,300.05126,71169.116,0.0,-0.09064450464983298,-0.09064330660836717,0.0,0.0,0.0,-5.383519067336965,-8.307413540302882,-7.942701664858622,0.0026547886213072374,-0.0006852800917318794,-1.8075967364709082
18130,13.0,300.18825,71246.562,0.0,-0.09064951913857144,-0.09064830881855412,0.0,0.0,0.0,-5.400090570072445,-8.308482721808403,-7.948602428140982,-0.005673860715916455,-0.002228345192795548,-1.798342520657588
18131,13.0,300.14572999999996,71267.01299999999,0.0,-0.09065450063725233,-0.0906533110287413,0.0,0.0,0.0,-5.400216415734865,-8.316842339108431,-7.946333659842073,-0.001977932488256738,-0.005583879446085995,-1.8015889739779882
18132,13.0,300.09796,71276.22200000001,0.0,-0.09065951512599069,-0.09065831323892848,0.0,0.0,0.0,-5.404529112135495,-8.311518621758022,-7.950143986843122,-0.0020354381804571077,0.0035874045823242667,-1.7950521936078583
18133,13.0,299.77918999999997,71287.95599999999,0.0,-0.09066449662467158,-0.09066331544911554,0.0,0.0,0.0,-5.397313352873354,-8.319325511128502,-7.953119598411791,0.001802376471955708,0.012740918838430789,-1.8002521931210582
18134,13.0,299.79221,71269.27900000001,0.0,-0.09066951111341004,-0.09066831765930272,0.0,0.0,0.0,-5.396820609349724,-8.315162370442634,-7.952098140985982,-0.003859701158547846,-0.00037542284092634964,-1.8001483349858085
18135,13.0,300.09161,71276.99,0.0,-0.09067452560214828,-0.09067331986948968,0.0,0.0,0.0,-5.393863844232915,-8.315075332259042,-7.957485997067723,-0.0026726244575174976,-0.01087693483521989,-1.8011968461892882
18136,13.0,299.88653,71293.837,0.0,-0.09067950710082939,-0.09067828917039922,0.0,0.0,0.0,-5.397526945994435,-8.314590492086191,-7.959428802809462,-0.00044231590013568055,0.00021147842759129584,-1.8001004082560783
18137,13.0,300.11255,71262.993,0.0,-0.09068452158956775,-0.0906832913805864,0.0,0.0,0.0,-5.395167998436625,-8.311250819756593,-7.955751616871552,0.0070553782872866235,0.0024416055625427076,-1.8024557081135282
18138,13.0,300.10107,71259.009,0.0,-0.09068950308824875,-0.09068829359077335,0.0,0.0,0.0,-5.3918329870574855,-8.316400663389842,-7.952725748097923,0.0033406186038683868,-0.0001997101558948578,-1.8076048424717084
18139,13.0,300.06487999999996,71301.025,0.0,-0.0906945175769871,-0.09069329580096053,0.0,0.0,0.0,-5.402778621262735,-8.31596719499706,-7.954985397145932,-0.0009282144025826292,-0.004195399022678646,-1.8046406806291684
18140,13.0,300.15889,71357.98,0.0,-0.09069949907566799,-0.0906982980111477,0.0,0.0,0.0,-5.408138612966725,-8.314665675243614,-7.9682399243540525,0.004711527953316605,0.005232757686282975,-1.7989043678380383
18141,13.0,300.14636,71319.383,0.0,-0.09070451356440645,-0.09070330022133466,0.0,0.0,0.0,-5.400864794473855,-8.315867491187221,-7.962579200020383,-0.002059509456457758,0.005985411208964095,-1.8044049986559083
18142,13.0,299.92522,71313.964,0.0,-0.0907095280531448,-0.09070830243152184,0.0,0.0,0.0,-5.403172471576604,-8.312421630247142,-7.962070244495153,-0.005862140620348235,3.428936015709637e-05,-1.7977606111251583
18143,13.0,300.16582999999997,71376.672,0.0,-0.0907145095518257,-0.09071330464170879,0.0,0.0,0.0,-5.412869984308674,-8.315407374316813,-7.968448552549642,-0.007732957779583513,-0.006262504105861035,-1.8015129802204881
18144,13.0,300.09806000000003,71354.54,0.0,-0.09071952404056416,-0.09071830685189575,0.0,0.0,0.0,-5.404972915679295,-8.322478441464671,-7.962546978667201,-0.00039981624939879165,0.01115632943104399,-1.7993369243057282
18145,13.0,299.94492,71342.089,0.0,-0.09072450553924483,-0.09072330906208292,0.0,0.0,0.0,-5.399698239633725,-8.322627186579352,-7.9638882178245725,0.0014827141012574885,0.00965253152038069,-1.8049374615834584
18146,13.0,299.92097,71375.93400000001,0.0,-0.0907295200279834,-0.09072831127226999,0.0,0.0,0.0,-5.399800071268775,-8.325062634519712,-7.971639175789532,0.004275689365902686,-0.001025232897007609,-1.797202614295088
18147,13.0,299.86175,71321.24900000001,0.0,-0.09073450152666429,-0.09073331348245717,0.0,0.0,0.0,-5.389476876599955,-8.321843437627003,-7.968558490185493,0.001878908771883858,-0.008139867266042353,-1.8004555524161283
18148,13.0,299.98462,71343.586,0.0,-0.09073951601540253,-0.09073831569264412,0.0,0.0,0.0,-5.397741349715595,-8.318163819888852,-7.970763423728102,0.005447632062114426,0.00037660492889051263,-1.8005838298787884
18149,13.0,300.14275,71430.451,0.0,-0.09074449751408364,-0.0907433179028313,0.0,0.0,0.0,-5.414126921057725,-8.327838838468702,-7.971107726112082,0.0013634387577859286,-0.008748379882497872,-1.8090846942427585
18150,13.0,300.09851000000003,71357.744,0.0,-0.090749512002822,-0.09074832011301848,0.0,0.0,0.0,-5.402297023490204,-8.322736718915163,-7.965938630726932,0.001985390414292778,-0.00913442715734777,-1.8115866113896784
18151,13.0,300.02678,71295.954,0.0,-0.09075452649156024,-0.0907532894139278,0.0,0.0,0.0,-5.398252635716055,-8.318027132450363,-7.955909987862182,-0.002035859489848688,-0.007239441754077273,-1.8118813658437682
18152,13.0,300.03139,71402.894,0.0,-0.09075950799024135,-0.09075829162411497,0.0,0.0,0.0,-5.407622260715765,-8.327881800272943,-7.9691928860731025,0.004637399791900725,0.006356916926328854,-1.809538934262588
18153,13.0,299.98737,71449.099,0.0,-0.09076452247897959,-0.09076329383430215,0.0,0.0,0.0,-5.416249680017224,-8.330631558394323,-7.971860773586402,-0.006362439038048844,0.002260418003510888,-1.808945777654048
18154,13.0,300.13558,71397.042,0.0,-0.0907695039776607,-0.0907682960444891,0.0,0.0,0.0,-5.403412105225255,-8.331489983879042,-7.968015996081952,-0.004765778174270686,-0.004752858424895605,-1.803227399389688
18155,13.0,300.15738999999996,71383.538,0.0,-0.09077451846639906,-0.09077329825467628,0.0,0.0,0.0,-5.401948161480775,-8.332100568389302,-7.964764375186042,-0.005205931484585435,-0.004952145265163685,-1.8052028317846482
18156,13.0,299.98725,71423.16900000001,0.0,-0.09077949996507995,-0.09077830046486324,0.0,0.0,0.0,-5.4061598368464345,-8.333590552661352,-7.971109549962263,0.0014345223053013284,0.007274514494363683,-1.802176152410938
18157,13.0,299.91598,71454.793,0.0,-0.09078451445381841,-0.09078330267505041,0.0,0.0,0.0,-5.412270140249475,-8.331313374386612,-7.976889331182682,0.0018397549641696782,-0.0009588150926251822,-1.8075030108366583
18158,13.0,299.94246,71489.41900000001,0.0,-0.09078949595249908,-0.09078830488523737,0.0,0.0,0.0,-5.415190934987735,-8.332654512218973,-7.983152838000843,0.0007279942576474393,-0.002290521360006858,-1.7973078909804783
18159,13.0,299.90262,71456.865,0.0,-0.09079451044123765,-0.09079330709542444,0.0,0.0,0.0,-5.406942268573654,-8.33288026434125,-7.981280250491033,0.004420418058511295,0.004805652706780995,-1.8011460823592782
18160,13.0,299.98735,71446.93400000001,0.0,-0.09079952492997612,-0.09079830930561161,0.0,0.0,0.0,-5.412988331920354,-8.332312438985213,-7.972783236477442,0.008693056832337913,0.007335926468349573,-1.7988311098558085
18161,13.0,300.12912,71503.071,0.0,-0.09080450642865678,-0.09080331151579857,0.0,0.0,0.0,-5.415451137613415,-8.343817589895682,-7.975879526133022,0.005832583405656165,0.002260761292644768,-1.816386985063438
18162,13.0,299.91648,71513.187,0.0,-0.09080952091739525,-0.09080831372598575,0.0,0.0,0.0,-5.424159616922875,-8.341135212905952,-7.972928333891762,-0.004531314634255936,-0.0034187089784753068,-1.8089854970579682
18163,13.0,299.97546,71432.692,0.0,-0.09081450241607625,-0.09081331593617292,0.0,0.0,0.0,-5.407068823511144,-8.336762633424412,-7.969923338070193,0.0004456022957750226,-0.004010226553653546,-1.8177461587475785
18164,13.0,299.88326,71392.064,0.0,-0.09081951690481449,-0.09081831814635988,0.0,0.0,0.0,-5.404838862691065,-8.330513312107652,-7.966052621363183,-0.006103750410668265,0.0066529573974457735,-1.8143244131598784
18165,13.0,299.97574,71453.023,0.0,-0.0908244984034956,-0.09082328744726942,0.0,0.0,0.0,-5.412979719294504,-8.330980015103712,-7.975974974292442,-0.005444998625104525,0.0008430264238077302,-1.8132192612758085
18166,13.0,300.2017,71519.808,0.0,-0.09082951289223384,-0.0908282896574566,0.0,0.0,0.0,-5.423042508687625,-8.335786468278073,-7.981406906753533,-0.0020260877058842883,-0.005026353169362435,-1.8033006573719181
18167,13.0,300.36892,71518.327,0.0,-0.09083452738097242,-0.09083329186764355,0.0,0.0,0.0,-5.411508074849265,-8.341955945486951,-7.986321676363582,-0.002208281624915428,0.0006815920133553944,-1.8084818104332583
18168,13.0,300.11492999999996,71541.553,0.0,-0.09083950887965331,-0.09083829407783073,0.0,0.0,0.0,-5.415396928733065,-8.343324035771973,-7.988124653591521,0.005730520952233384,0.005795674554863545,-1.8096603216245681
18169,13.0,300.17467999999997,71599.80900000001,0.0,-0.09084452336839177,-0.09084329628801768,0.0,0.0,0.0,-5.420045618866855,-8.350625515992572,-7.993882852584813,0.003989573071565206,-0.00040279302620507666,-1.8046475707298484
18170,13.0,300.09326,71582.461,0.0,-0.09084950486707266,-0.09084829849820486,0.0,0.0,0.0,-5.418822018046095,-8.346656311375842,-7.993802501851882,0.0003359379537419947,-0.003662619150497366,-1.8061821380062983
18171,13.0,300.13055,71541.858,0.0,-0.09085451935581101,-0.09085330070839204,0.0,0.0,0.0,-5.421844137794354,-8.34126612481887,-7.983828371842513,-0.002223524351469768,-0.002003916780446188,-1.7976352720877882
18172,13.0,300.04685,71528.933,0.0,-0.0908595008544919,-0.0908583029185791,0.0,0.0,0.0,-5.418102610475095,-8.341593404601172,-7.983313539466702,-0.0026504728851563077,0.003959110315258766,-1.8093752943714383
18173,13.0,299.86882,71499.786,0.0,-0.09086451534323037,-0.09086330512876617,0.0,0.0,0.0,-5.414054068375536,-8.339131510833202,-7.980964217784843,0.001005887378943355,-0.0005368471492751886,-1.8075427302405784
18174,13.0,299.93327999999997,71528.968,0.0,-0.09086949684191103,-0.09086830733895324,0.0,0.0,0.0,-5.421809484640935,-8.338357691731833,-7.9828531186212635,0.0016630507328553282,-0.0053174807960444945,-1.8142337272759284
18175,13.0,299.93935,71618.102,0.0,-0.0908745113306495,-0.09087330954914019,0.0,0.0,0.0,-5.431198665367575,-8.344824253870032,-7.9940916834304225,0.0009308738294575941,-0.0037947861763162364,-1.8044948739397781
18176,13.0,299.9841,71645.29400000001,0.0,-0.09087952581938807,-0.09087831175932737,0.0,0.0,0.0,-5.432749647295645,-8.347646864673601,-7.997983779714542,0.0014820880140206988,-0.0001803806471821838,-1.8122649823316284
18177,13.0,299.98321,71618.97,0.0,-0.09088450731806874,-0.09088331396951432,0.0,0.0,0.0,-5.424494090780885,-8.351605227514261,-7.994279337348943,-0.0025352751640621775,0.002181861635182978,-1.8090005944844583
18178,13.0,300.06326,71602.48,0.0,-0.0908895218068072,-0.0908883161797015,0.0,0.0,0.0,-5.426360092165044,-8.347453232579491,-7.991552580004832,0.001196850004869899,-0.0025519786932856874,-1.8078362687945484
18179,13.0,300.29393999999996,71617.445,0.0,-0.0908945033054881,-0.09089328548061104,0.0,0.0,0.0,-5.421045595390545,-8.35195408952369,-7.996915307484093,-0.006829832462726983,-0.0017704428818041084,-1.8134244444210583
18180,13.0,300.36829,71580.006,0.0,-0.09089951779422645,-0.090898287690798,0.0,0.0,0.0,-5.419992017936565,-8.352644518141833,-7.985898036496772,0.0077832369720706816,-0.001166214185446379,-1.8139255979205182
18181,13.0,300.29196,71578.215,0.0,-0.09090449929290756,-0.09090328990098517,0.0,0.0,0.0,-5.413747154920245,-8.355283629352291,-7.9889590650488715,0.004421527567370796,-0.006278409396655764,-1.815454187021378
18182,13.0,300.26144,71598.615,0.0,-0.09090951378164602,-0.09090829211117213,0.0,0.0,0.0,-5.422611573420095,-8.351337425512831,-7.990242042325493,0.0056135713217163544,-0.0001950990066772728,-1.8058874848772182
18183,13.0,300.15314,71627.849,0.0,-0.09091449528032691,-0.0909132943213593,0.0,0.0,0.0,-5.424205213177375,-8.354512647351202,-7.994359789406882,-0.0008756123646387122,0.0013070077186416187,-1.8130723400113085
18184,13.0,299.97166,71700.978,0.0,-0.09091950976906515,-0.09091829653154648,0.0,0.0,0.0,-5.436614284502054,-8.36054097882115,-7.998151675256113,0.003705625335091746,0.01005600487310041,-1.8071655985533581
18185,13.0,299.98717999999997,71677.558,0.0,-0.09092452425780373,-0.09092329874173355,0.0,0.0,0.0,-5.435433746810545,-8.356445928542001,-7.996308168024173,-0.011714808568161589,0.005713656924194035,-1.8093547253944084
18186,13.0,300.0307,71632.026,0.0,-0.09092950575648462,-0.09092830095192073,0.0,0.0,0.0,-5.430233139347285,-8.353107370787512,-7.9910066408509515,-0.0015178023442704285,-0.0036898758821623965,-1.8134957772280984
18187,13.0,300.0244,71664.864,0.0,-0.09093452024522286,-0.09093330316210768,0.0,0.0,0.0,-5.431010707474025,-8.355297409553652,-7.998021168643233,-0.002066586400456198,-0.0035808598986033567,-1.8141103134137482
18188,13.0,299.90019,71704.946,0.0,-0.09093950174390375,-0.09093830537229486,0.0,0.0,0.0,-5.439271938189345,-8.356422927764733,-8.000818346869291,0.0035567896358528065,0.0032849654368258467,-1.8137672269298881
18189,13.0,299.85609,71667.413,0.0,-0.09094451623264233,-0.09094330758248181,0.0,0.0,0.0,-5.427248307202704,-8.356317043129282,-8.001538767690391,0.0018987530724423381,0.0007569023336629444,-1.8167099078703086
18190,13.0,299.87197000000003,71604.146,0.0,-0.09094949773132299,-0.09094830979266877,0.0,0.0,0.0,-5.416018658994425,-8.357043442125972,-7.9928102260289515,-0.002249766921109708,0.0025920146365369275,-1.8158366889341284
18191,13.0,300.00942000000003,71659.231,0.0,-0.09095451222006146,-0.09095331200285595,0.0,0.0,0.0,-5.425196678400225,-8.357604276056323,-7.999816039870373,0.0012179632998536188,0.0033965856757919065,-1.8151763538439583
18192,13.0,300.05152999999996,71759.961,0.0,-0.09095952670879992,-0.0909583142130429,0.0,0.0,0.0,-5.436827674973116,-8.36450298936217,-8.011905633438523,0.00025019459232228375,0.002485328114957788,-1.8111562840722084
18193,13.0,300.05868,71731.72099999999,0.0,-0.0909645082074807,-0.09096328351395266,0.0,0.0,0.0,-5.432847628580315,-8.366141110798841,-8.005663303547452,-0.0017740568409357782,-0.0018026819668608583,-1.8139655199744582
18194,13.0,300.10095,71701.762,0.0,-0.09096952269621916,-0.09096828572413962,0.0,0.0,0.0,-5.431221767469855,-8.365726995482971,-7.998596593375022,-0.004775752202955045,-0.008092207730363721,-1.8097406723574982
18195,13.0,300.05644,71702.636,0.0,-0.09097450419490027,-0.09097328793432657,0.0,0.0,0.0,-5.430812921054504,-8.368334898590351,-7.996663008209192,0.0025079493287403273,0.0035900853381138366,-1.8145944443115285
18196,13.0,299.93316,71687.583,0.0,-0.09097951868363852,-0.09097829014451375,0.0,0.0,0.0,-5.434151073508954,-8.365370939397833,-7.991713382795702,0.0007744596476857163,0.011783596090950388,-1.8152532595265483
18197,13.0,299.95797999999996,71723.159,0.0,-0.0909845001823194,-0.09098329235470093,0.0,0.0,0.0,-5.434548267548155,-8.369139216519732,-7.998361924651863,0.0013127916541874486,0.004628366464609205,-1.8104141796989683
18198,13.0,299.95,71728.00200000001,0.0,-0.09098951467105798,-0.090988294564888,0.0,0.0,0.0,-5.4263115574852545,-8.368546870511272,-8.008663030468503,0.00034129925253861365,-0.005427705586972835,-1.817232035646838
18199,13.0,299.79603,71722.87299999999,0.0,-0.09099449616973887,-0.09099329677507517,0.0,0.0,0.0,-5.425665002596444,-8.36564948185032,-8.010647987414401,0.0014207355178156786,-0.0074886518320723934,-1.8147868605055182
18200,13.0,300.04499,71796.33099999999,0.0,-0.09099951065847711,-0.09099829898526213,0.0,0.0,0.0,-5.439369412848965,-8.368215031103523,-8.016707425662423,0.0008019828843920482,-0.008429148751042212,-1.8191849738895782
18201,13.0,299.83827,71834.356,0.0,-0.09100452514721558,-0.0910033011954493,0.0,0.0,0.0,-5.4472239249741445,-8.367220526130373,-8.021406170351153,0.0002864403114544577,-0.00977603606844464,-1.8097608360344883
18202,13.0,299.98142,71776.84,0.0,-0.09100950664589658,-0.09100830340563648,0.0,0.0,0.0,-5.436706996886205,-8.368439668650693,-8.013220426768282,-0.006162827045823675,-0.005960301655585974,-1.8175065250989282
18203,13.0,300.03399,71741.807,0.0,-0.09101452113463482,-0.09101330561582344,0.0,0.0,0.0,-5.430173762891425,-8.36658440771759,-8.010959764470172,0.0024567342984607977,0.0036859886494787567,-1.8074534629067682
18204,13.0,300.2392,71788.142,0.0,-0.09101950263331571,-0.09101830782601061,0.0,0.0,0.0,-5.436368368702785,-8.372159715067832,-8.013274736973642,0.002356045001573538,0.008906112120264832,-1.8177707807250083
18205,13.0,300.04629,71788.875,0.0,-0.09102451712205417,-0.09102331003619757,0.0,0.0,0.0,-5.445115959466104,-8.368136098920733,-8.008773373404393,0.002042332131487488,0.0013719095286219287,-1.8087476872594983
18206,13.0,300.08205,71748.557,0.0,-0.09102949862073495,-0.09102831224638452,0.0,0.0,0.0,-5.4359872853401745,-8.371631102490662,-8.002151378700852,-0.004168569173280746,-0.004423300957695816,-1.8209411389628984
18207,13.0,299.99478,71777.786,0.0,-0.09103451310947341,-0.0910333144565717,0.0,0.0,0.0,-5.436854120800724,-8.374101507559473,-8.007698922998351,-0.004810839027417845,9.78137083022114e-05,-1.8137714825803086
18208,13.0,300.09082,71816.94,0.0,-0.09103949460815453,-0.09103828375748124,0.0,0.0,0.0,-5.441370277821435,-8.37583213873027,-8.013353973131462,-0.0008768681564151491,0.005654460624201814,-1.8191792996890181
18209,13.0,300.00073,71832.959,0.0,-0.09104450909689277,-0.09104328596766831,0.0,0.0,0.0,-5.441802428989085,-8.369164750422252,-8.024458687602412,0.002233962955324978,-0.0016488084894497287,-1.8114538756265781
18210,13.0,299.96492,71856.56,0.0,-0.09104952358563112,-0.09104828817785537,0.0,0.0,0.0,-5.441933746202045,-8.371488842176623,-8.029177494643122,-0.0016338141104948983,-0.0007728421154910782,-1.8184507728671182
18211,13.0,299.97505,71846.852,0.0,-0.09105450508431223,-0.09105329038804244,0.0,0.0,0.0,-5.444439918999385,-8.373489301849052,-8.021719771257102,0.0018954288015142582,0.0018325419406828084,-1.817498013798088
18212,13.0,300.26547,71821.923,0.0,-0.09105951957305047,-0.09105829259822962,0.0,0.0,0.0,-5.439850605321454,-8.3751018893832,-8.017118703878012,0.004776171587171436,0.008456454929312122,-1.8203638903809283
18213,13.0,300.27594,71838.948,0.0,-0.09106450107173136,-0.09106329480841657,0.0,0.0,0.0,-5.442606848243475,-8.379304040197923,-8.015335485027022,-0.0018105550214628683,-1.6783998506701684e-05,-1.8146453094665482
18214,13.0,300.14724,71850.463,0.0,-0.09106951556046983,-0.09106829701860375,0.0,0.0,0.0,-5.445976107475994,-8.380115045577963,-8.014655492884913,-0.0008272472725179491,1.3787257633696387e-05,-1.8135279985812784
18215,13.0,300.23062000000004,71861.906,0.0,-0.09107449705915072,-0.09107329922879093,0.0,0.0,0.0,-5.4436651879729245,-8.383697492631521,-8.016862351602713,-0.004553656089685865,0.004244814115480536,-1.8137812097812682
18216,13.0,300.18335,71849.37299999999,0.0,-0.09107951154788907,-0.09107830143897788,0.0,0.0,0.0,-5.439899545301285,-8.385995037233272,-8.014520629296602,0.0020694328226371177,0.007573704856066472,-1.8162366187485983
18217,13.0,300.04053999999996,71856.589,0.0,-0.09108452603662753,-0.09108330364916506,0.0,0.0,0.0,-5.4455843849873355,-8.379682083810232,-8.017342429500092,-0.0008544173510344274,-0.006303773073158964,-1.8223808660299883
18218,13.0,299.84736000000004,71892.753,0.0,-0.09108950753530842,-0.09108830585935201,0.0,0.0,0.0,-5.452650385884695,-8.386226666206133,-8.014724799191752,0.0059917977243443945,-0.0054708790591587245,-1.8218571170532984
18219,13.0,299.82841,71921.92599999999,0.0,-0.09109452202404678,-0.09109330806953919,0.0,0.0,0.0,-5.459356379021525,-8.383810166042641,-8.019303068443593,-0.0005753172056893874,-0.0008803833337945702,-1.8214157453097382
18220,13.0,300.09322000000003,71919.212,0.0,-0.09109950352272767,-0.09109831027972615,0.0,0.0,0.0,-5.445739310927625,-8.389591061838171,-8.026314252510542,-0.0001074288792649049,0.003024250613220297,-1.8150756367840182
18221,13.0,300.13862,71887.337,0.0,-0.09110451801146613,-0.09110331248991321,0.0,0.0,0.0,-5.441840932492886,-8.384323478543301,-8.025790908833892,-0.0042588152053623365,-0.008254263101007343,-1.8146914123460984
18222,13.0,300.09954,71943.282,0.0,-0.09110949951014702,-0.09110828179082286,0.0,0.0,0.0,-5.443496177856245,-8.391513906552943,-8.03395121983925,-0.0015786342325740685,-0.0001827213461056928,-1.8153637037874482
18223,13.0,300.04637,71970.6,0.0,-0.09111451399888537,-0.09111328400101004,0.0,0.0,0.0,-5.453460276689625,-8.391726081123883,-8.032078834979462,0.005865904641819714,0.006324276391582484,-1.8221891591110682
18224,13.0,299.91953,71894.089,0.0,-0.09111949549756648,-0.091118286211197,0.0,0.0,0.0,-5.440204229606355,-8.388047375310823,-8.025756154355463,0.0018789188030598483,0.007192003714870503,-1.8251419725524882
18225,13.0,299.67052,71844.882,0.0,-0.09112450998630472,-0.09112328842138406,0.0,0.0,0.0,-5.441301072839605,-8.380805372871093,-8.016943715585741,-0.0003811770071842416,-0.003617581196802466,-1.8227532354417382
18226,13.0,299.88347999999996,71926.235,0.0,-0.09112952447504319,-0.09112829063157102,0.0,0.0,0.0,-5.450823495954395,-8.383900851926592,-8.029054992706033,0.0026630091193685372,-0.002114867666396188,-1.8176722928152882
18227,13.0,299.71346,71989.49900000001,0.0,-0.09113450597372408,-0.0911332928417582,0.0,0.0,0.0,-5.462200065427175,-8.387608232717483,-8.033201718740283,0.004481462830660946,0.0026375265886286075,-1.8139295495959082
18228,13.0,300.13367,71979.12599999999,0.0,-0.09113952046246243,-0.09113829505194537,0.0,0.0,0.0,-5.452529403822755,-8.393313844030583,-8.034013636045412,-0.0018187479591214484,0.002987581396076327,-1.8194271406634785
18229,13.0,300.14661,71976.609,0.0,-0.09114450196114332,-0.09114329726213233,0.0,0.0,0.0,-5.450789146776004,-8.395917390162532,-8.032385140484692,-0.0036578865632552965,-0.007371305919441253,-1.8218035161230082
18230,13.0,300.08137999999997,72017.679,0.0,-0.09114951644988178,-0.0911482994723195,0.0,0.0,0.0,-5.454231967965785,-8.404231816508101,-8.033112248756451,-0.004218453502203946,0.0008763779865467732,-1.8238111698711483
18231,13.0,300.03062,72035.45599999999,0.0,-0.09115449794856267,-0.09115330168250646,0.0,0.0,0.0,-5.461195225303005,-8.399101021976731,-8.036683550058912,0.003597924347512487,0.007896657148514383,-1.8160570708308783
18232,13.0,300.05289,71992.106,0.0,-0.09115951243730103,-0.09115830389269364,0.0,0.0,0.0,-5.4538481488279045,-8.390328707910971,-8.039625825699291,0.0030345385467856374,-0.0015462056697486185,-1.8202803985726883
18233,13.0,299.96852,71951.149,0.0,-0.09116449393598192,-0.09116330610288081,0.0,0.0,0.0,-5.447795398030545,-8.384952301555362,-8.038604874898533,-0.0013779144540145688,-0.007816731271351312,-1.816738380198118
18234,13.0,300.05253,71968.519,0.0,-0.09116950842472038,-0.09116830831306788,0.0,0.0,0.0,-5.448268991127286,-8.389787125732521,-8.038576605220742,-0.002028327495230338,-0.0016602573036546386,-1.8239979118645782
18235,13.0,299.90897,72026.011,0.0,-0.09117452291345873,-0.09117331052325495,0.0,0.0,0.0,-5.461634469221354,-8.395449775241383,-8.037024610042572,0.004389442597654255,0.005446639178341434,-1.8259213645294086
18236,13.0,300.03727000000003,72025.755,0.0,-0.09117950441213962,-0.09117827982416449,0.0,0.0,0.0,-5.4633274074884355,-8.397577904426413,-8.033125724982783,-0.005369873020290204,0.0038935079441593167,-1.8285529776891283
18237,13.0,300.20249,72010.114,0.0,-0.09118451890087809,-0.09118328203435155,0.0,0.0,0.0,-5.457935599731305,-8.399566306422653,-8.031774657299444,-0.004570092019557965,-0.005363086676420444,-1.8171010224089081
18238,13.0,300.00601,72041.525,0.0,-0.09118950039955898,-0.09118828424453862,0.0,0.0,0.0,-5.455587595274575,-8.40576638378455,-8.037470845386611,-0.0048169676706476955,8.034527961796172e-05,-1.8195159013722382
18239,13.0,299.98949,72108.22099999999,0.0,-0.09119451488829744,-0.09119328645472569,0.0,0.0,0.0,-5.461642473897144,-8.410473335799093,-8.046982933350384,0.0064941168667194335,0.0037188769238745765,-1.8149603289226381
18240,13.0,299.95673999999997,72060.399,0.0,-0.09119949638697833,-0.09119828866491264,0.0,0.0,0.0,-5.461238693732295,-8.406850054766501,-8.036473098013143,0.003329625245583427,-0.002894574054822217,-1.8256939912069683
18241,13.0,299.91024,72001.36,0.0,-0.09120451087571668,-0.09120329087509982,0.0,0.0,0.0,-5.456605506325035,-8.396272939622621,-8.033737018768113,0.004209930650312806,-0.007516302414051293,-1.822736314165068
18242,13.0,299.96088,72023.713,0.0,-0.09120952536445515,-0.09120829308528677,0.0,0.0,0.0,-5.455211882137495,-8.400318036671841,-8.037880401077032,-0.0006193100425686424,0.005467437960494115,-1.8240410763188382
18243,13.0,299.82358999999997,72080.181,0.0,-0.09121450686313604,-0.09121329529547395,0.0,0.0,0.0,-5.461976947755154,-8.401355807424261,-8.047242426700993,0.0016639940686984283,0.0005889283158726994,-1.817042051253088
18244,13.0,299.88247,72125.996,0.0,-0.09121952135187439,-0.0912182975056609,0.0,0.0,0.0,-5.463656105820874,-8.400455129410371,-8.060390461323601,-0.005763617246874735,-0.011177236833607388,-1.8228970156309283
18245,13.0,299.92413999999997,72073.789,0.0,-0.09122450285055528,-0.09122329971584808,0.0,0.0,0.0,-5.461486534706755,-8.401807514318842,-8.045338023138042,-0.006595422928942564,-0.0036032457343876667,-1.8176130176844383
18246,13.0,299.93971,72020.961,0.0,-0.09122951733929374,-0.09122830192603526,0.0,0.0,0.0,-5.456891141528224,-8.400293819994452,-8.035388819081133,0.0021916228813463378,0.0032573664292770365,-1.8305502962862483
18247,13.0,300.1024,72088.975,0.0,-0.09123449883797463,-0.09123330413622233,0.0,0.0,0.0,-5.464260712155545,-8.411280490828752,-8.037707135309933,0.0011280475873046288,0.0063921365878797645,-1.8350962428598985
18248,13.0,300.22316,72168.083,0.0,-0.09123951332671298,-0.0912383063464095,0.0,0.0,0.0,-5.474806720521355,-8.417498300067402,-8.044990275703721,-0.0027244363934309374,0.002007655470665168,-1.8277221126071281
18249,13.0,300.36486,72159.277,0.0,-0.09124449482539387,-0.09124330855659646,0.0,0.0,0.0,-5.473740072141085,-8.408704809074552,-8.052173509637653,0.003421663818416927,-0.005076153702502365,-1.819007249822038
18250,13.0,300.12419,72112.65,0.0,-0.09124950931413234,-0.09124831076678364,0.0,0.0,0.0,-5.4588689043984155,-8.410448004546593,-8.051128139509483,0.003947188211932147,0.0044113157288879655,-1.8194212638128984
18251,13.0,299.85835,72127.261,0.0,-0.09125452380287058,-0.09125328006769318,0.0,0.0,0.0,-5.462287508910805,-8.412959243594432,-8.049639573787573,0.004360088134307196,-0.0008392757265750651,-1.8277130946812383
18252,13.0,299.96657000000005,72182.788,0.0,-0.09125950530155158,-0.09125828227788013,0.0,0.0,0.0,-5.466698085271095,-8.417097357002833,-8.057969502859672,0.002617839949785688,-0.006768707542494424,-1.8252277948359583
18253,13.0,299.88293,72171.975,0.0,-0.09126451979029004,-0.09126328448806731,0.0,0.0,0.0,-5.471955029439915,-8.417574395149911,-8.048948942519411,-0.0007488317662189412,0.0012980173531543387,-1.830658106096888
18254,13.0,299.98181,72083.585,0.0,-0.09126950128897093,-0.09126828669825449,0.0,0.0,0.0,-5.455303175971505,-8.409046983633322,-8.047259955927723,-0.0004371040962588156,0.011072639025784389,-1.8213879822569983
18255,13.0,300.16571,72064.576,0.0,-0.0912745157777094,-0.09127328890844144,0.0,0.0,0.0,-5.454548101996985,-8.410144130841601,-8.041139418698673,-0.007689699498364252,0.0009193855896912933,-1.8289555419538586
18256,13.0,300.01441,72147.631,0.0,-0.09127949727639029,-0.0912782911186284,0.0,0.0,0.0,-5.461314180864744,-8.41352858882562,-8.056235629288553,-0.006589674254500214,-0.000986910552192988,-1.8177758469755083
18257,13.0,299.94816000000003,72241.642,0.0,-0.09128451176512864,-0.09128329332881535,0.0,0.0,0.0,-5.482317031587566,-8.418218011613432,-8.059120048348223,-0.0017707374336081783,-0.003245637654069497,-1.8243471791740482
18258,13.0,299.75323,72235.142,0.0,-0.09128949326380953,-0.09128829553900253,0.0,0.0,0.0,-5.482554030785955,-8.416626195706332,-8.058499230011952,0.006174086990209943,0.0057435128450155845,-1.825986415185828
18259,13.0,299.67307,72177.285,0.0,-0.091294507752548,-0.0912932977491897,0.0,0.0,0.0,-5.478080734244474,-8.414106648007671,-8.047904990941383,0.00039247923449718463,0.002388789394455158,-1.830765409282478
18260,13.0,299.70451,72185.311,0.0,-0.09129952224128624,-0.09129829995937677,0.0,0.0,0.0,-5.4713294488281745,-8.418112937578062,-8.053089589053062,0.002356357690554398,-0.0005854255913370075,-1.8268431181453784
18261,13.0,299.88473,72263.077,0.0,-0.09130450373996724,-0.09130330216956395,0.0,0.0,0.0,-5.479285691263394,-8.416808884699362,-8.070076423004533,-0.00018450398740412583,0.0004096035158247196,-1.8211147087050283
18262,13.0,299.95811000000003,72242.853,0.0,-0.0913095182287057,-0.0913083043797509,0.0,0.0,0.0,-5.469710173843365,-8.425748486356632,-8.064564747760572,0.0008822562658094141,0.0061294039780250735,-1.8232473975155081
18263,13.0,300.12882,72127.892,0.0,-0.09131449972738659,-0.09131330658993808,0.0,0.0,0.0,-5.464443907773624,-8.414874894233492,-8.045759433854633,2.9209392277242574e-05,-0.0044606630352581654,-1.831806929060268
18264,13.0,300.06447000000003,72159.914,0.0,-0.09131951421612483,-0.09131830880012526,0.0,0.0,0.0,-5.460192513004045,-8.419869811926452,-8.054749799341911,-0.002826709096249467,-0.007403178917236873,-1.8304779502291082
18265,13.0,300.1429,72255.878,0.0,-0.09132449571480572,-0.09132327810103458,0.0,0.0,0.0,-5.475362893501245,-8.424858852768832,-8.063761037781251,-0.0016066449236385085,-0.00017984346250916785,-1.8262887690156682
18266,13.0,299.85941,72327.141,0.0,-0.0913295102035443,-0.09132828031122175,0.0,0.0,0.0,-5.478051451316586,-8.430642484339632,-8.076950919632992,0.002071018457718608,0.00032973143210945867,-1.825181387981378
18267,13.0,300.08529,72298.601,0.0,-0.09133452469228254,-0.09133328252140893,0.0,0.0,0.0,-5.476735036786665,-8.427205033375383,-8.073029135120942,0.0008176838938341172,0.00027773695919050377,-1.8238603125009982
18268,13.0,299.97882000000004,72191.433,0.0,-0.09133950619096365,-0.09133828473159589,0.0,0.0,0.0,-5.4631915306500245,-8.417875431754622,-8.063325948188313,-0.0003212332731232557,-0.0002615135990568827,-1.829422548924948
18269,13.0,299.80757,72202.129,0.0,-0.091344520679702,-0.09134328694178306,0.0,0.0,0.0,-5.470327344479275,-8.418660700582123,-8.058656385102463,0.0047467851051212154,-0.0025820271316262374,-1.8332111923738585
18270,13.0,299.67105,72291.59,0.0,-0.09134950217838289,-0.09134828915197002,0.0,0.0,0.0,-5.483743586403354,-8.428616186789652,-8.062478465804672,-0.0001196686972928809,-0.0009092005415411072,-1.8396312463324682
18271,13.0,299.88403,72294.086,0.0,-0.09135451666712135,-0.09135329136215709,0.0,0.0,0.0,-5.484539089056866,-8.429273380804512,-8.061784490811183,-0.002672323927537838,-0.007107751563755462,-1.8290733829404882
18272,13.0,299.9343,72194.66900000001,0.0,-0.09135949816580224,-0.09135829357234415,0.0,0.0,0.0,-5.460075482617495,-8.427822001361271,-8.057479292461293,-5.590378128252365e-05,-0.008120118514968301,-1.8320159625558983
18273,13.0,300.05054,72243.136,0.0,-0.09136451265454049,-0.09136329578253122,0.0,0.0,0.0,-5.460231725782915,-8.429197994997072,-8.070679712114073,-0.0016371244998966083,-0.0018071757310543582,-1.8219605698885084
18274,13.0,300.01207999999997,72371.673,0.0,-0.09136949415322138,-0.0913682979927184,0.0,0.0,0.0,-5.485372892564155,-8.431358446860292,-8.082450030575712,0.0015368097002463085,-0.00036927677992728067,-1.8211497671584882
18275,13.0,300.1379,72414.52,0.0,-0.09137450864195995,-0.09137330020290535,0.0,0.0,0.0,-5.492609828753386,-8.441620035923032,-8.077976024759163,0.003810682347860067,0.0009669266257707282,-1.8243227598466383
18276,13.0,300.12098,72286.128,0.0,-0.09137952313069819,-0.09137830241309253,0.0,0.0,0.0,-5.482003228031595,-8.428794417482242,-8.062380281869983,0.001984518411256718,0.006775408469380754,-1.8287012161787584
18277,13.0,300.05606,72248.37599999999,0.0,-0.09138450462937908,-0.0913833046232797,0.0,0.0,0.0,-5.4801484737235455,-8.425735314105331,-8.055818372897372,0.0001020458969161459,0.007242250989979523,-1.8278264773674284
18278,13.0,299.92444,72309.855,0.0,-0.09138951911811766,-0.09138830683346666,0.0,0.0,0.0,-5.474880383803624,-8.435012125395883,-8.070497935046133,-0.005908854185733505,0.007817876446614332,-1.832502018628868
18279,13.0,299.62043,72338.968,0.0,-0.09139450061679855,-0.0913932761343762,0.0,0.0,0.0,-5.483328559162395,-8.433997254095722,-8.071914256035912,-0.005513748556314615,0.006641980149837404,-1.8304675137530784
18280,13.0,299.90781,72326.488,0.0,-0.09139951510553679,-0.09139827834456338,0.0,0.0,0.0,-5.474839245849565,-8.441227908134334,-8.069379306935733,-0.0028050445932113473,0.006307786151505024,-1.8361396878128784
18281,13.0,300.17902000000004,72266.395,0.0,-0.0914044966042179,-0.09140328055475033,0.0,0.0,0.0,-5.476245231688325,-8.432226295570942,-8.058707959532551,-0.00045849775754520553,0.005149393243580545,-1.8350904673343282
18282,13.0,300.02112,72327.133,0.0,-0.09140951109295614,-0.09140828276493751,0.0,0.0,0.0,-5.479671536901475,-8.440801937792292,-8.065168847470193,0.0027122648279296977,0.0015873400774332684,-1.839023093622448
18283,13.0,300.1479,72501.84,0.0,-0.09141449259163714,-0.09141328497512446,0.0,0.0,0.0,-5.504609547037664,-8.446739279403262,-8.087400263939262,-0.0007915508362649851,-0.0069591712035417235,-1.8265409669655583
18284,13.0,300.17197000000004,72471.265,0.0,-0.0914195070803756,-0.09141828718531164,0.0,0.0,0.0,-5.486651715515365,-8.442218664082112,-8.100584471590443,0.009014839732845411,-0.006819014903334374,-1.829869392219048
18285,13.0,300.31965,72336.44900000001,0.0,-0.09142452156911407,-0.09142328939549882,0.0,0.0,0.0,-5.475811560645525,-8.437010558568112,-8.075652236979822,0.00033958240156917364,-0.0026265690993971876,-1.8258255110699482
18286,13.0,300.42034,72365.674,0.0,-0.09142950306779474,-0.09142829160568577,0.0,0.0,0.0,-5.476824608095504,-8.437713956787531,-8.082819360237163,0.008584675649966522,0.002157423866621158,-1.8353371937336784
18287,13.0,300.44311,72437.01299999999,0.0,-0.09143451755653331,-0.09143329381587284,0.0,0.0,0.0,-5.497876297473145,-8.442886091922983,-8.078280709064233,0.005400170312855315,0.0032633572704932868,-1.8325719328857684
18288,13.0,300.07336000000004,72436.768,0.0,-0.0914394990552142,-0.0914382960260598,0.0,0.0,0.0,-5.490926516362254,-8.44990315284051,-8.078139158025262,0.002707650993599347,0.005329271075533105,-1.8388347304288584
18289,13.0,300.08185,72415.16900000001,0.0,-0.09144451354395244,-0.09144329823624697,0.0,0.0,0.0,-5.4895552850019245,-8.440040480342141,-8.082807302560973,0.00024456801451698377,-0.003232106509584077,-1.8312164069019883
18290,13.0,300.05145,72396.275,0.0,-0.09144949504263333,-0.09144830044643415,0.0,0.0,0.0,-5.482246610705615,-8.444962545352912,-8.079450607629692,-0.0013560855004852187,-0.004732623415098566,-1.8295978411922482
18291,13.0,300.0404,72404.882,0.0,-0.09145450953137191,-0.0914533026566211,0.0,0.0,0.0,-5.488022136275616,-8.439799732118383,-8.081454107052423,-0.0020220432167851283,-0.004397580110532366,-1.8283369527678086
18292,13.0,299.95722,72502.349,0.0,-0.09145952402011015,-0.09145830486680828,0.0,0.0,0.0,-5.499570147665315,-8.443983745756311,-8.095349920248832,-0.0011208919137734189,-0.005629930852530915,-1.8280429075887883
18293,13.0,300.02896,72510.72200000001,0.0,-0.09146450551879104,-0.09146327416771782,0.0,0.0,0.0,-5.505647115140065,-8.449944898744633,-8.085856881386944,-0.002136333775064728,-0.001133682271110729,-1.8319129150207283
18294,13.0,300.0325,72402.619,0.0,-0.0914695200075295,-0.09146827637790478,0.0,0.0,0.0,-5.490427085387965,-8.438840690898733,-8.079320607641863,0.004281707868846666,0.0027322845220804875,-1.8369345825163284
18295,13.0,300.08021,72411.38,0.0,-0.09147450150621039,-0.09147327858809196,0.0,0.0,0.0,-5.489317171228425,-8.446345733064422,-8.075588706198552,0.006939322242032784,0.0001121475343180999,-1.835195744019718
18296,13.0,299.99983,72493.256,0.0,-0.09147951599494875,-0.09147828079827891,0.0,0.0,0.0,-5.492482969840864,-8.451308226754183,-8.092348470802612,0.004687061915076995,-0.0008689430815530051,-1.8362352372973083
18297,13.0,299.80554,72464.807,0.0,-0.09148449749362986,-0.09148328300846609,0.0,0.0,0.0,-5.487007771600505,-8.453473744867901,-8.087010466625792,0.0002691768095631827,-0.005459115732122775,-1.8335511377824085
18298,13.0,299.78299,72417.022,0.0,-0.09148951198236832,-0.09148828521865326,0.0,0.0,0.0,-5.479025893937755,-8.460875942148443,-8.073064700199453,0.004367335810947486,0.0016628968201651384,-1.8432452054641384
18299,13.0,299.94722,72473.099,0.0,-0.09149449348104899,-0.09149328742884033,0.0,0.0,0.0,-5.496218316334515,-8.449170269043183,-8.084623857340253,-0.0024009180994771675,0.0026315809383668175,-1.8335877161110181
18300,13.0,300.07056,72523.156,0.0,-0.09149950796978756,-0.0914982896390274,0.0,0.0,0.0,-5.4957229383606245,-8.456329792924771,-8.093175890834273,-0.0013543989456937687,0.0027237235719855877,-1.8358552685098082
18301,13.0,300.16107999999997,72567.77,0.0,-0.09150452245852603,-0.09150329184921446,0.0,0.0,0.0,-5.498194863304585,-8.456370626903801,-8.104224471249681,-0.0050808547776663255,0.0013321551675734788,-1.8237638510914784
18302,13.0,300.1268,72583.353,0.0,-0.0915095039572067,-0.09150829405940142,0.0,0.0,0.0,-5.496793234441254,-8.458475147361503,-8.108258523872813,-0.004635500049288236,0.0038168082553146463,-1.8295912550665983
18303,13.0,300.06645,72504.895,0.0,-0.09151451844594516,-0.0915132962695886,0.0,0.0,0.0,-5.498684465752905,-8.455056948149151,-8.085936320194783,-0.002907390250037077,-0.0003357221720006987,-1.8326807559465084
18304,13.0,300.1751,72483.053,0.0,-0.09151949994462605,-0.09151829847977555,0.0,0.0,0.0,-5.491194723663725,-8.449949762345112,-8.091893724157734,-0.0013245604527739388,-0.0004813772791757386,-1.8430566396205281
18305,13.0,300.07052000000004,72559.795,0.0,-0.0915245144333644,-0.09152330068996273,0.0,0.0,0.0,-5.511688416211294,-8.458934960256881,-8.085742282800632,0.004020072304875246,0.0025898485104731478,-1.8428026178204584
18306,13.0,299.82702,72544.541,0.0,-0.09152949593204529,-0.09152830290014968,0.0,0.0,0.0,-5.498064255366694,-8.458749130188542,-8.094915539930962,-0.0014725971029840184,0.003697826957022106,-1.841926764434018
18307,13.0,299.81257999999997,72471.927,0.0,-0.09153451042078375,-0.09153330511033686,0.0,0.0,0.0,-5.487731941446975,-8.452820401203422,-8.089103942657403,0.002102432858518968,-0.003463355817631607,-1.8416095158277084
18308,13.0,299.96147,72500.907,0.0,-0.09153949191946464,-0.0915382744112464,0.0,0.0,0.0,-5.489759657547094,-8.460151164351911,-8.088554457128172,-0.0015323300202291987,-0.004383447500787586,-1.8372942863018284
18309,13.0,300.08934,72608.881,0.0,-0.091544506408203,-0.09154327662143336,0.0,0.0,0.0,-5.514894238202685,-8.456784438244641,-8.099608002469072,0.002067044186851378,-0.002936849179469447,-1.8326821744966484
18310,13.0,300.04137000000003,72611.506,0.0,-0.09154952089694146,-0.09154827883162053,0.0,0.0,0.0,-5.505854426110525,-8.466632519941571,-8.099597869968072,0.0038030356533303965,-0.001736163718996018,-1.8336481058169782
18311,13.0,299.86077,72557.37700000001,0.0,-0.09155450239562257,-0.09155328104180771,0.0,0.0,0.0,-5.502910529269985,-8.465913821645643,-8.086806499380662,-0.0007862824322375343,-0.001049673806644739,-1.8337865157806381
18312,13.0,299.93733,72601.33,0.0,-0.09155951688436081,-0.09155828325199478,0.0,0.0,0.0,-5.496986157260294,-8.459919940679093,-8.112085468175502,-0.0012883780009780089,0.0004231791014595256,-1.8291095559690584
18313,13.0,299.98337000000004,72566.167,0.0,-0.0915644983830417,-0.09156328546218195,0.0,0.0,0.0,-5.499759118808965,-8.465087516189092,-8.093456155811932,-0.005070059205800886,0.0007526450215127803,-1.8372383548963083
18314,13.0,300.22322,72547.531,0.0,-0.09156951287178028,-0.09156828767236891,0.0,0.0,0.0,-5.491316516325744,-8.460827204818631,-8.100494089681522,-0.007861089942179173,-0.0023966793703338375,-1.8416050575272682
18315,13.0,300.15817999999996,72610.822,0.0,-0.09157449437046095,-0.09157328988255609,0.0,0.0,0.0,-5.507238627072136,-8.463223946605172,-8.101414323422341,-0.005352236996999665,-0.013284763604354087,-1.8443574500989082
18316,13.0,300.05357000000004,72577.762,0.0,-0.09157950885919941,-0.09157829209274326,0.0,0.0,0.0,-5.495133834752485,-8.46699202107705,-8.099701626778312,-0.0025684075304070876,-0.0037281250601872962,-1.8478201309906481
18317,13.0,300.13892000000004,72592.2,0.0,-0.09158452334793798,-0.09158329430293022,0.0,0.0,0.0,-5.512701970286325,-8.456824056323551,-8.096690044831092,0.007981195441457664,0.004251746570014716,-1.8400498199487783
18318,13.0,299.93987999999996,72715.633,0.0,-0.09158950484661865,-0.09158829651311717,0.0,0.0,0.0,-5.511877590004965,-8.4742018021636,-8.117657229150392,0.0025557839540362374,0.003754157481756496,-1.8394612229656881
18319,13.0,299.74099,72696.657,0.0,-0.09159451933535712,-0.09159329872330424,0.0,0.0,0.0,-5.519945391276195,-8.466957570573651,-8.11106563194985,0.003604650909626346,0.00047075430433233254,-1.834101433911718
18320,13.0,300.04731,72611.215,0.0,-0.091599500834038,-0.0915983009334913,0.0,0.0,0.0,-5.493179781934636,-8.469266970201572,-8.109549505825223,-0.004168950357968366,0.0017822107684655085,-1.8347290410236585
18321,13.0,299.86852000000005,72630.086,0.0,-0.09160451532277636,-0.09160330314367848,0.0,0.0,0.0,-5.5081365693107545,-8.473847367278621,-8.095748735488193,0.004802334110053475,-0.001263830497430359,-1.836504457848878
18322,13.0,299.88326,72691.839,0.0,-0.09160949682145725,-0.09160827244458791,0.0,0.0,0.0,-5.510671721060954,-8.470275255376082,-8.115556964343114,0.002845721721125867,-0.0036424423012560666,-1.8337323069002882
18323,13.0,299.99335,72641.298,0.0,-0.09161451131019571,-0.09161327465477498,0.0,0.0,0.0,-5.507771596624735,-8.472901295660252,-8.100467947828943,0.0011905900444270888,-0.0059765903602185455,-1.8382040835666182
18324,13.0,300.22604,72618.9,0.0,-0.0916194928088766,-0.09161827686496216,0.0,0.0,0.0,-5.491075565451965,-8.473724764016522,-8.109531976598493,0.0025000634058620474,0.0003781345008439696,-1.8397481753940084
18325,13.0,300.07302000000004,72663.297,0.0,-0.09162450729761507,-0.09162327907514922,0.0,0.0,0.0,-5.506510100250235,-8.469877250736802,-8.111440635811864,-0.001038656738307439,0.004713099909521745,-1.8378989939615085
18326,13.0,300.24556,72687.342,0.0,-0.09162952178635342,-0.0916282812853364,0.0,0.0,0.0,-5.511393864407225,-8.473578754677112,-8.110164447310913,0.0017205332216284083,0.004215085762846576,-1.8385205215728482
18327,13.0,299.97301,72704.38799999999,0.0,-0.09163450328503453,-0.09163328349552335,0.0,0.0,0.0,-5.514147472878985,-8.476127382653642,-8.110043566573983,-0.001175850700522429,-0.0015624429012761085,-1.8413850809305583
18328,13.0,300.01286,72741.93400000001,0.0,-0.09163951777377277,-0.09163828570571053,0.0,0.0,0.0,-5.522357939764294,-8.475802534671582,-8.113571095472123,-0.0008659636500314582,0.006057470516325794,-1.8363080899794983
18329,13.0,299.96837,72749.92599999999,0.0,-0.09164449927245366,-0.09164328791589771,0.0,0.0,0.0,-5.519447682827074,-8.481192315928512,-8.113521040917181,0.002034647744054098,0.0009580523382149041,-1.8381790562891482
18330,13.0,299.80612,72731.75200000001,0.0,-0.09164951376119224,-0.09164829012608466,0.0,0.0,0.0,-5.510383147432475,-8.478214880509663,-8.120038366885392,0.004625723097748325,0.0008402551138567232,-1.8363770923113083
18331,13.0,299.78602,72749.23,0.0,-0.0916544952598729,-0.09165329233627184,0.0,0.0,0.0,-5.517274058712554,-8.478918988004152,-8.117756223685163,0.003827604435130147,0.0050847062426214356,-1.844340630147248
18332,13.0,299.85856,72702.72,0.0,-0.09165950974861137,-0.0916582945464588,0.0,0.0,0.0,-5.506504628699695,-8.478916049578862,-8.114390916128032,0.0037008887961742865,0.001323706181614629,-1.839542586948718
18333,13.0,299.99605,72645.91,0.0,-0.09166449124729226,-0.09166329675664586,0.0,0.0,0.0,-5.4996098670692355,-8.480433999553671,-8.102498602354352,0.003452970004106607,-0.003288009442776267,-1.8437773644166584
18334,13.0,300.02763,72737.747,0.0,-0.09166950573603061,-0.09166829896683293,0.0,0.0,0.0,-5.511234277516475,-8.478914732353733,-8.120310019237202,-0.005148140663806925,-0.004241504435353896,-1.8382743017985481
18335,13.0,300.08609,72800.302,0.0,-0.09167452022476907,-0.09167330117702,0.0,0.0,0.0,-5.527574455254125,-8.480700686979992,-8.121198740899912,0.0024128054483253574,-0.004287214477840126,-1.8374524546424382
18336,13.0,300.02873,72733.76,0.0,-0.09167950172344996,-0.09167827047792965,0.0,0.0,0.0,-5.504220965624315,-8.487302112706502,-8.117723799681963,-0.009200741741942511,3.244874980719227e-05,-1.8400380662476181
18337,13.0,300.13621,72716.076,0.0,-0.09168451621218832,-0.0916832726881166,0.0,0.0,0.0,-5.514030543817445,-8.482028449911033,-8.107812592503802,-0.008644647390260272,-0.0027715458356302775,-1.840083155877068
18338,13.0,300.06242000000003,72800.962,0.0,-0.09168949771086932,-0.09168827489830367,0.0,0.0,0.0,-5.515373809475014,-8.491136149759893,-8.123164750068943,-0.0014341112297357587,-0.003101964464090057,-1.8430755873973983
18339,13.0,299.79987,72828.614,0.0,-0.09169451219960767,-0.09169327710849084,0.0,0.0,0.0,-5.532141882729895,-8.487491083850152,-8.118447158928351,0.0017805929120308381,0.0006465243190544824,-1.8441775982061583
18340,13.0,299.85308,72814.773,0.0,-0.09169949369828878,-0.0916982793186778,0.0,0.0,0.0,-5.523586100210505,-8.483023461509232,-8.12726314407342,0.005574857061895555,-0.003091406195398037,-1.8454360548303583
18341,13.0,299.88365,72750.297,0.0,-0.09170450818702702,-0.09170328152886498,0.0,0.0,0.0,-5.517032195913686,-8.479762620037413,-8.117478998457802,0.0033148726281024567,-0.006995926445619183,-1.8455937165459182
18342,13.0,299.77761,72730.368,0.0,-0.09170952267576538,-0.09170828373905215,0.0,0.0,0.0,-5.502460139600535,-8.481824887965942,-8.123930665819532,7.342350777958603e-05,0.0007427629554074964,-1.852106077588638
18343,13.0,299.72131,72790.195,0.0,-0.09171450417444638,-0.09171328594923911,0.0,0.0,0.0,-5.5238674797632745,-8.482416828674362,-8.120117501718202,-0.0025923960238745675,0.003109932966851487,-1.8475046049095083
18344,13.0,299.94392999999997,72822.63900000001,0.0,-0.09171951866318473,-0.09171828815942629,0.0,0.0,0.0,-5.518084861442575,-8.48931665655532,-8.128862356706252,-0.005301794265946355,0.003518939374392277,-1.8405404356471984
18345,13.0,300.00375,72795.481,0.0,-0.09172450016186562,-0.09172329036961324,0.0,0.0,0.0,-5.519528033560005,-8.489784372801482,-8.118696013152912,-0.002070970733638898,0.005294737485624905,-1.8374649176186681
18346,13.0,299.9558,72773.759,0.0,-0.09172951465060408,-0.09172829257980042,0.0,0.0,0.0,-5.507610591183845,-8.490071426554811,-8.123723658824101,-0.0037668535055094964,0.0049563988890834855,-1.8356529224648384
18347,13.0,299.99406,72936.371,0.0,-0.09173449614928486,-0.0917332947899876,0.0,0.0,0.0,-5.533051679994685,-8.503421705897383,-8.134362075599034,0.004152217343166947,-0.0007464661616079744,-1.8371149410341283
18348,13.0,300.24625,72960.899,0.0,-0.09173951063802332,-0.09173829700017455,0.0,0.0,0.0,-5.532682654308265,-8.502175408274383,-8.143433298444291,-0.005249330100943545,-0.007812336096392544,-1.8358127120056085
18349,13.0,299.98828,72814.605,0.0,-0.09174449213670421,-0.09174329921036162,0.0,0.0,0.0,-5.519631790370245,-8.493085440302272,-8.121104508640613,-0.0016551267117732883,-0.003695968555013697,-1.8488563818679185
18350,13.0,299.98809,72817.037,0.0,-0.09174950662544257,-0.09174830142054857,0.0,0.0,0.0,-5.512573591498654,-8.491925268937772,-8.130062247474672,-0.0026514821835809175,0.0009097796545032609,-1.8474279018769382
18351,13.0,300.02094,72900.023,0.0,-0.09175452111418103,-0.09175327072145834,0.0,0.0,0.0,-5.533655881029315,-8.494381589830192,-8.131749410216182,-0.004553304694551186,0.006010840240098745,-1.8508697098166182
18352,13.0,299.71611,72873.168,0.0,-0.09175950261286192,-0.09175827293164529,0.0,0.0,0.0,-5.524000418176395,-8.489318277755482,-8.138304834388151,-0.0037690540820766766,0.00012989568386470587,-1.8440683698453784
18353,13.0,299.9106,72825.004,0.0,-0.09176451710160016,-0.09176327514183225,0.0,0.0,0.0,-5.518394510673136,-8.488251832025233,-8.130336534276742,0.0032145840716297468,-0.001042663027877829,-1.8484546282032683
18354,13.0,299.83788,72783.837,0.0,-0.09176949860028127,-0.09176827735201942,0.0,0.0,0.0,-5.507935844465945,-8.491157225361972,-8.125376168412192,0.0005713325388761316,0.0026371500648914477,-1.8445226098652083
18355,13.0,299.70078,72838.046,0.0,-0.09177451308901963,-0.0917732795622066,0.0,0.0,0.0,-5.524202561571345,-8.492895557233533,-8.123849200511492,0.002972424289155437,-0.004626996449148996,-1.839205681290468
18356,13.0,299.74822,73004.01,0.0,-0.09177949458770063,-0.09177828177239356,0.0,0.0,0.0,-5.536954820704895,-8.512364245979942,-8.142077164510452,0.00026772653456255175,-0.005815762339421055,-1.8394897966185084
18357,13.0,300.00012000000004,72978.813,0.0,-0.09178450907643898,-0.09178328398258073,0.0,0.0,0.0,-5.5437312347236745,-8.505018486729973,-8.134987048260712,-0.0004144370835717556,-0.0022913655999901774,-1.8353817767380785
18358,13.0,299.89835,72882.91,0.0,-0.09178949057511987,-0.09178828619276769,0.0,0.0,0.0,-5.522462000549565,-8.500989399032331,-8.131133252830372,0.008565278091377132,-0.004229034974323256,-1.8416880427104585
18359,13.0,299.98867,72881.563,0.0,-0.09179450506385833,-0.09179328840295486,0.0,0.0,0.0,-5.521537308508305,-8.50554476883191,-8.127093120706641,0.0023400000849150278,-0.001837960194267548,-1.8501663115971985
18360,13.0,299.89361,72965.568,0.0,-0.09179951955259669,-0.09179829061314204,0.0,0.0,0.0,-5.532559139121075,-8.504509733854762,-8.142641950116191,-0.0008635489838506492,-0.004405338566548066,-1.848073443515648
18361,13.0,300.05349,72987.07,0.0,-0.09180450105127758,-0.09180329282332911,0.0,0.0,0.0,-5.541378974616524,-8.50345088750026,-8.141416930745292,0.0010388578684522888,-0.0003338808736539767,-1.848760629733468
18362,13.0,300.05605,72898.49799999999,0.0,-0.09180951554001604,-0.09180829503351617,0.0,0.0,0.0,-5.5222188205255645,-8.501014122334773,-8.136090274969593,-0.002496999236234638,0.0076468959637898725,-1.8461282059736681
18363,13.0,300.09671000000003,72890.243,0.0,-0.09181449703869671,-0.09181329724370324,0.0,0.0,0.0,-5.525755063374565,-8.494870280353421,-8.136188357579272,0.003255162306334507,0.002564711801992348,-1.8439860939372585
18364,13.0,300.02195,72967.007,0.0,-0.09181951152743528,-0.0918182994538902,0.0,0.0,0.0,-5.525980106221775,-8.502803825986403,-8.151364108302003,0.00026186251172881776,0.0032214690047342367,-1.8438842623022085
18365,13.0,299.98432,73026.399,0.0,-0.09182449302611617,-0.09182326875479996,0.0,0.0,0.0,-5.537821453515424,-8.510401884511273,-8.149978590115262,-0.0015769757448103887,0.0018924594720962082,-1.8482128667294084
18366,13.0,299.97733999999997,73006.224,0.0,-0.09182950751485441,-0.09182827096498691,0.0,0.0,0.0,-5.536760175360685,-8.50897289789524,-8.146335956005762,0.003333973101762527,-0.0004490070694235475,-1.8474364131777785
18367,13.0,299.91492999999997,72945.526,0.0,-0.09183452200359299,-0.09183327317517409,0.0,0.0,0.0,-5.530860729303455,-8.509477091145001,-8.133280532442292,-0.002594231323780698,-0.0012678079093728987,-1.8499018533210982
18368,13.0,299.64347999999995,72939.045,0.0,-0.09183950350227388,-0.09183827538536105,0.0,0.0,0.0,-5.524236809424725,-8.506677075818661,-8.140734506802943,0.005174361043269676,0.0043446965613131655,-1.8467154857316284
18369,13.0,299.74326,73059.67,0.0,-0.09184451799101212,-0.091843277595548,0.0,0.0,0.0,-5.543672871517915,-8.51816966242789,-8.146472846094273,-0.0015525373682985085,0.0077467150814912525,-1.8451907469811484
18370,13.0,300.08094,73067.1,0.0,-0.09184949948969323,-0.09184827980573518,0.0,0.0,0.0,-5.538677548524914,-8.519724089406301,-8.152172175256752,0.006039119543764694,0.007434462912749363,-1.8501443240700284
18371,13.0,299.80622,72900.477,0.0,-0.0918545139784317,-0.09185328201592213,0.0,0.0,0.0,-5.523625616964405,-8.5053612692388,-8.130937796886082,0.0002531423800432077,-0.0001336687435270779,-1.8514231470212381
18372,13.0,300.22643,72942.766,0.0,-0.09185949547711258,-0.09185828422610931,0.0,0.0,0.0,-5.524294362030404,-8.509144137162142,-8.139340983940412,0.001023263645438259,-0.002130629582301768,-1.8526576909430783
18373,13.0,300.21292,73123.615,0.0,-0.09186450996585094,-0.09186328643629649,0.0,0.0,0.0,-5.553833135570654,-8.516455445908711,-8.157464481854063,0.0005877783074067025,-0.0025074414877902075,-1.8447407626117382
18374,13.0,299.95336000000003,73120.22,0.0,-0.09186949146453183,-0.09186828864648355,0.0,0.0,0.0,-5.548111717555995,-8.515070231697003,-8.163539220178592,-0.005426481580852035,0.00044685380150353665,-1.8443851118266383
18375,13.0,299.98032,73012.13900000001,0.0,-0.09187450595327029,-0.09187329085667073,0.0,0.0,0.0,-5.533333262197475,-8.511273583572303,-8.149260398444381,0.0017520109505600183,0.0037153873918551864,-1.8480081902092085
18376,13.0,299.88423,72977.05099999999,0.0,-0.09187952044200864,-0.09187829306685769,0.0,0.0,0.0,-5.524262748627286,-8.505480224800541,-8.153458496258702,-0.0016354480776061585,-0.0015512890441753086,-1.848086109141898
18377,13.0,299.84598,73049.27,0.0,-0.09188450194068953,-0.09188329527704486,0.0,0.0,0.0,-5.540065599836905,-8.518417098102312,-8.146671341788862,-0.0018391258371825883,0.0012539667103568788,-1.8552564747995584
18378,13.0,299.99649,73124.128,0.0,-0.091889516429428,-0.09188829748723204,0.0,0.0,0.0,-5.543649566765615,-8.528224447145222,-8.156034887287971,-0.0026939649231736374,-0.004820326493404185,-1.8551818995921983
18379,13.0,299.6868,73060.833,0.0,-0.09189449792810866,-0.09189326678814136,0.0,0.0,0.0,-5.5399748126279444,-8.520790028511502,-8.147903960535512,0.0004232621069077176,-0.0035383148441294862,-1.8542750407526982
18380,13.0,299.77203,73029.925,0.0,-0.09189951241684713,-0.09189826899832854,0.0,0.0,0.0,-5.529059677250705,-8.522353980040851,-8.147859884156162,-0.003889120368576296,-0.00012664749788663488,-1.8487832252106982
18381,13.0,300.05402000000004,73099.307,0.0,-0.09190449391552813,-0.09190327120851571,0.0,0.0,0.0,-5.5369248285019355,-8.527132974137501,-8.156306134339744,0.001950005694300578,-0.0007459556152800873,-1.8473725784214783
18382,13.0,300.07567,73187.303,0.0,-0.09190950840426637,-0.09190827341870267,0.0,0.0,0.0,-5.5509938061404345,-8.530550362749771,-8.165568456153862,0.0013421192664068587,0.0004135736931615456,-1.8447801780406285
18383,13.0,300.10777,73169.569,0.0,-0.09191448990294748,-0.09191327562888962,0.0,0.0,0.0,-5.5507885216701744,-8.523570184135883,-8.167363023405972,-0.0007237058995142113,-0.003990989189904966,-1.846640809199258
18384,13.0,299.99599,73060.353,0.0,-0.09191950439168595,-0.09191827783907669,0.0,0.0,0.0,-5.534172841230335,-8.520228890606123,-8.154121364474122,0.002317960679339908,-0.008706690720383471,-1.851095259288878
18385,13.0,300.09777,73100.845,0.0,-0.0919245188804243,-0.09192328004926376,0.0,0.0,0.0,-5.540949559224145,-8.522989287853552,-8.156892704822633,-0.004089276172130137,-0.004086815392937276,-1.8529850720503882
18386,13.0,300.33389,73207.682,0.0,-0.09192950037910519,-0.09192828225945093,0.0,0.0,0.0,-5.556464039455304,-8.523239864603282,-8.173603225471833,-0.001888392590169838,0.0014193147385254585,-1.853758181876688
18387,13.0,300.07841,73133.688,0.0,-0.09193451486784365,-0.091933284469638,0.0,0.0,0.0,-5.545567243904874,-8.524750012552323,-8.160497950003442,-0.004105484830004806,0.0028254295640231875,-1.854979756197248
18388,13.0,299.95732000000004,73055.875,0.0,-0.09193949636652454,-0.09193828667982518,0.0,0.0,0.0,-5.533911220054515,-8.520053699663832,-8.153196773757871,-0.002992615019923107,0.0003135975926221727,-1.8576855392642881
18389,13.0,299.94652,73131.452,0.0,-0.0919445108552629,-0.09194328889001213,0.0,0.0,0.0,-5.548275357447144,-8.527785912501942,-8.154073944369443,0.002809742932600037,0.0051185625761627955,-1.8531944095210482
18390,13.0,299.99567,73218.04400000001,0.0,-0.09194949235394378,-0.09194829110019931,0.0,0.0,0.0,-5.552376689876915,-8.537066574142871,-8.167013654771491,0.00013393112464047289,-0.0014680476100350185,-1.8570477996513481
18391,13.0,300.01152,73224.866,0.0,-0.09195450684268225,-0.09195329331038649,0.0,0.0,0.0,-5.566372206883165,-8.532775155994342,-8.159383374893443,0.002004834481061758,-0.001354433396197169,-1.8419330465846382
18392,13.0,299.91514,73163.466,0.0,-0.09195952133142049,-0.09195829552057344,0.0,0.0,0.0,-5.549514967619484,-8.531190331512933,-8.159161473121543,-0.004449759754907095,-0.00011975184459608689,-1.8523721570648983
18393,13.0,299.92767000000003,73103.481,0.0,-0.09196450283010138,-0.09196326482148298,0.0,0.0,0.0,-5.542692957346205,-8.523449202073943,-8.155490670659262,0.0023071565961736277,0.007817113266639013,-1.8449925552615882
18394,13.0,299.92275,73130.754,0.0,-0.09196951731883996,-0.09196826703167016,0.0,0.0,0.0,-5.532993316788924,-8.533590619674822,-8.163339103283842,0.0014785457929961086,0.005418558269045064,-1.861940885709258
18395,13.0,299.73807999999997,73243.25099999999,0.0,-0.09197449881752062,-0.09197326924185711,0.0,0.0,0.0,-5.556270002061154,-8.535334423096923,-8.172514893539422,-0.0032955123571167468,0.002511486179539388,-1.8520140744795583
18396,13.0,300.04624,73257.591,0.0,-0.09197951330625909,-0.09197827145204429,0.0,0.0,0.0,-5.5517395582140345,-8.53722048683306,-8.179518376905612,0.000965223261160119,-0.0025179509178274075,-1.8580401767992882
18397,13.0,299.96112999999997,73150.975,0.0,-0.0919844948049402,-0.09198327366223125,0.0,0.0,0.0,-5.548279309122535,-8.531572225475623,-8.156218285556072,-0.0032421069840960466,0.00017955807048600185,-1.8571258199090481
18398,13.0,300.14617999999996,73209.983,0.0,-0.09198950929367855,-0.09198827587241842,0.0,0.0,0.0,-5.548733853117395,-8.534643690503751,-8.170629235103322,0.007152989533020103,0.0008074939719509502,-1.8567108939930983
18399,13.0,300.06532000000004,73324.94099999999,0.0,-0.09199449079235944,-0.09199327808260538,0.0,0.0,0.0,-5.570471816787765,-8.53771140650651,-8.180768018253943,-0.0026871923595052374,-0.0033754556621815365,-1.8472492658843083
18400,13.0,299.89475,73267.55900000001,0.0,-0.0919995052810979,-0.09199828029279244,0.0,0.0,0.0,-5.554398123826415,-8.538830845216992,-8.178279577333353,0.0016418942734173485,0.0022743659990874477,-1.8509838017778784
18401,13.0,299.98762,73218.966,0.0,-0.09200451976983615,-0.09200328250297962,0.0,0.0,0.0,-5.5515703454473355,-8.536680728504791,-8.168486109816813,-0.0006985275464543013,-0.0008799879737380511,-1.8496664753228682
18402,13.0,299.81795,73228.98,0.0,-0.09200950126851704,-0.09200828471316658,0.0,0.0,0.0,-5.553848536972175,-8.53713081419921,-8.168802041197992,0.004565756322380066,0.002414972182339198,-1.8544575270957082
18403,13.0,299.62607,73237.536,0.0,-0.09201451575725561,-0.09201328692335375,0.0,0.0,0.0,-5.5599953173788155,-8.535115561075322,-8.167271222946912,0.004056090407504956,-0.004115566364524777,-1.8513672156157182
18404,13.0,299.8005,73253.386,0.0,-0.0920194972559365,-0.09201828913354093,0.0,0.0,0.0,-5.551796198894625,-8.5405970414663,-8.174807067915642,0.005809912643943735,-0.006750918113138743,-1.8554824295718584
18405,13.0,299.82105,73250.387,0.0,-0.09202451174467474,-0.09202329134372789,0.0,0.0,0.0,-5.548854936504345,-8.542364858915773,-8.175068891741482,0.005328934473849885,-0.00043244820191681464,-1.8624643307109183
18406,13.0,299.84566,73226.769,0.0,-0.09202949324335563,-0.09202829355391506,0.0,0.0,0.0,-5.540229847678115,-8.542544812133533,-8.176334542441392,0.003774916848480286,-0.004865401228077715,-1.8647261075841384
18407,13.0,300.0756,73266.444,0.0,-0.0920345077320942,-0.09203329576410202,0.0,0.0,0.0,-5.553602519847895,-8.541377142718291,-8.176189749002102,0.0018004814916186883,-0.0026737664917052075,-1.8539793743735182
18408,13.0,299.94003,73406.179,0.0,-0.09203948923077487,-0.09203826506501156,0.0,0.0,0.0,-5.572350787773204,-8.553756627140052,-8.187538150122101,-0.004902983788861825,5.9065242171285545e-05,-1.8535946433105484
18409,13.0,299.89968,73377.677,0.0,-0.09204450371951334,-0.09204326727519874,0.0,0.0,0.0,-5.580068612459894,-8.543510743453862,-8.181402110166522,-0.0012668236382257587,-4.211025061745816e-05,-1.850519935882098
18410,13.0,300.21652,73264.946,0.0,-0.0920495182082518,-0.09204826948538569,0.0,0.0,0.0,-5.550847087525955,-8.54661098478483,-8.173255984662562,-0.007722319261483573,-0.0024015459092391277,-1.8617916339695284
18411,13.0,300.1993,73257.804,0.0,-0.09205449970693269,-0.09205327169557287,0.0,0.0,0.0,-5.554091007721104,-8.53948155443121,-8.174970707806791,-0.0037151646794832066,-0.002416479695837978,-1.8569276281894882
18412,13.0,300.10286,73319.985,0.0,-0.09205951419567104,-0.09205827390576005,0.0,0.0,0.0,-5.555587172818765,-8.546072341031673,-8.185785024799083,0.002800291842292287,0.001069583360509659,-1.8617772458181083
18413,13.0,299.8322,73332.13,0.0,-0.09206449569435216,-0.09206327611594711,0.0,0.0,0.0,-5.562791988979825,-8.552624928103361,-8.175719600955702,0.0038188873431948362,0.007735222089581982,-1.861346715850618
18414,13.0,299.87106,73293.196,0.0,-0.0920695101830904,-0.09206827832613407,0.0,0.0,0.0,-5.553808412268214,-8.545323650532783,-8.180169491419871,0.0039825941088514364,0.0020826201713636076,-1.863546988442768
18415,13.0,299.78929,73292.23700000001,0.0,-0.09207449168177129,-0.09207328053632102,0.0,0.0,0.0,-5.559709479525604,-8.547698202142133,-8.171602259174353,0.004679861354566356,0.002040992412205268,-1.855028696177078
18416,13.0,300.05359,73362.97,0.0,-0.09207950617050986,-0.0920782827465082,0.0,0.0,0.0,-5.555312176741625,-8.556467375132582,-8.188731454764872,0.0030159955633305875,0.004407962985632076,-1.859242499367948
18417,13.0,299.92104,73454.781,0.0,-0.0920845206592481,-0.09208328495669538,0.0,0.0,0.0,-5.573502751811895,-8.560718161952101,-8.194198445679422,0.0004818032393852775,0.0014030504532202984,-1.8534281663191183
18418,13.0,299.86636,73454.466,0.0,-0.09208950215792899,-0.09208828716688233,0.0,0.0,0.0,-5.565486220995725,-8.563295566231472,-8.199541820081771,-0.0063958285672691345,-0.0044432319924628556,-1.8594879085421683
18419,13.0,299.95817999999997,73354.768,0.0,-0.09209451664666746,-0.09209328937706951,0.0,0.0,0.0,-5.567094654204465,-8.548417001763072,-8.182506147475483,-0.005640706564694395,-0.007735315713891223,-1.8474250647766584
18420,13.0,300.04513,73299.578,0.0,-0.09209949814534846,-0.09209829158725646,0.0,0.0,0.0,-5.560623127140775,-8.549034780349041,-8.171583514047501,-0.0053476522429471846,0.0032559605447632866,-1.861370628552978
18421,13.0,300.14594,73389.478,0.0,-0.0921045126340867,-0.09210329379744364,0.0,0.0,0.0,-5.580284130756165,-8.547743899721642,-8.180540746256513,-0.0027897946725812975,0.002030226021942708,-1.8562379088464183
18422,13.0,300.20583,73375.939,0.0,-0.09210949413276759,-0.09210826309835318,0.0,0.0,0.0,-5.561394818416935,-8.553813673120683,-8.189244868590542,-0.002856239054513847,-0.004980756205587365,-1.8677511657576882
18423,13.0,300.16855,73307.369,0.0,-0.09211450862150605,-0.09211326530854014,0.0,0.0,0.0,-5.549563806274304,-8.556434545829342,-8.177611338892401,-0.00045151952437150764,-0.0037745080020649365,-1.8645724988689782
18424,13.0,299.92089,73364.107,0.0,-0.09211949012018694,-0.09211826751872731,0.0,0.0,0.0,-5.551104959676405,-8.554706346458781,-8.195045320113001,0.0068466000293568125,-0.0032861284452906266,-1.8657538471605684
18425,13.0,299.95217,73483.523,0.0,-0.0921245046089253,-0.09212326972891449,0.0,0.0,0.0,-5.580660451843305,-8.562358107238952,-8.194137549348413,0.0038908501891470166,-0.0009176241050549483,-1.8561458044123282
18426,13.0,299.76915,73499.202,0.0,-0.09212951909766376,-0.09212827193910156,0.0,0.0,0.0,-5.575938706377305,-8.56545216774431,-8.200531360129432,0.0011134246658364591,-0.0064186535456467846,-1.8528459528116583
18427,13.0,299.94906000000003,73454.731,0.0,-0.09213450059634465,-0.09213327414928874,0.0,0.0,0.0,-5.571814575820285,-8.561874685616242,-8.194714899255391,0.0038466776523625266,-0.003739849478419406,-1.856267799724368
18428,13.0,299.99525,73424.04,0.0,-0.092139515085083,-0.09213827635947569,0.0,0.0,0.0,-5.561168154369565,-8.565511544200174,-8.192394961826432,0.0003598177254737447,0.0014208293447749386,-1.8587421564685682
18429,13.0,300.01452,73451.974,0.0,-0.09214449658376411,-0.09214327856966287,0.0,0.0,0.0,-5.567594287828775,-8.564383796838872,-8.195588016866562,-0.0006663695822005574,-0.006070499190086624,-1.8653560451713083
18430,13.0,299.99811,73460.095,0.0,-0.09214951107250235,-0.09214828077984982,0.0,0.0,0.0,-5.569293609571485,-8.560924966297511,-8.199815904233823,-0.008150550671121722,-0.009117602139437271,-1.863921080379688
18431,13.0,299.9743,73399.031,0.0,-0.09215449257118324,-0.09215328299003678,0.0,0.0,0.0,-5.5664028070361855,-8.559630235319732,-8.185439506514983,-0.007920318564849581,-0.0017140584521643982,-1.8596905585621684
18432,13.0,299.72558,73357.034,0.0,-0.09215950705992171,-0.09215828520022395,0.0,0.0,0.0,-5.558242901330865,-8.553789456443292,-8.186674354411853,-0.0014602553114659788,0.005976310399215915,-1.860245110341898
18433,13.0,299.57856,73422.83099999999,0.0,-0.0921644885586026,-0.09216328741041091,0.0,0.0,0.0,-5.568047514598504,-8.561080196212831,-8.189579443773562,0.0004156707459660086,0.0017806163181081484,-1.8630686330705584
18434,13.0,299.75207,73537.59700000001,0.0,-0.09216950304734095,-0.09216828962059809,0.0,0.0,0.0,-5.576177022800825,-8.566516282999332,-8.210900151052751,0.0004042683284831776,0.00027346299934119674,-1.8577930450998983
18435,13.0,300.07082,73552.427,0.0,-0.09217451753607941,-0.09217329183078526,0.0,0.0,0.0,-5.580338136986494,-8.570590156351392,-8.207172910559901,0.002684282913168097,-0.0006829160880560703,-1.8588884697830081
18436,13.0,300.01268,73505.092,0.0,-0.0921794990347603,-0.09217826113169458,0.0,0.0,0.0,-5.573465058908175,-8.568324427802782,-8.201923059141782,0.0017050419448245383,0.002891554164224177,-1.8600974798023282
18437,13.0,300.12056,73528.777,0.0,-0.09218451352349866,-0.09218326334188176,0.0,0.0,0.0,-5.585729438118575,-8.565803461553982,-8.199379497415752,0.003247473359275667,0.0009272965601120452,-1.8564537311177183
18438,13.0,299.92109,73552.883,0.0,-0.09218949502217955,-0.09218826555206894,0.0,0.0,0.0,-5.583278892751724,-8.57424393621199,-8.200716987547752,0.0023603230448207475,-0.0018859217798009881,-1.8588572616799284
18439,13.0,299.89263,73494.271,0.0,-0.09219450951091801,-0.092193267762256,0.0,0.0,0.0,-5.5754649106305445,-8.569478519666683,-8.195479700430873,0.0024036989643766177,0.0018169324175922681,-1.8618124055965781
18440,13.0,300.10687,73464.443,0.0,-0.0921994910095989,-0.09219826997244318,0.0,0.0,0.0,-5.557742558431485,-8.571856718976392,-8.201756987450391,0.00037637900451571564,0.004536229302540976,-1.8656975104550082
18441,13.0,300.22647,73483.739,0.0,-0.09220450549833725,-0.09220327218263014,0.0,0.0,0.0,-5.570872455877304,-8.573362915250042,-8.192986497234813,-9.880344390714071e-05,0.004452140082042016,-1.8674614775540983
18442,13.0,300.0334,73504.894,0.0,-0.09220951998707572,-0.09220827439281731,0.0,0.0,0.0,-5.574983110207995,-8.566720047594442,-8.201949302319372,-0.004354913162071466,-0.001079364567699989,-1.862355203675148
18443,13.0,300.11714,73529.348,0.0,-0.0922145014857566,-0.09221327660300449,0.0,0.0,0.0,-5.586897918133895,-8.56937699200666,-8.194810854039863,-0.003973267546980976,0.008977566112016791,-1.8625965598489682
18444,13.0,299.78862000000004,73562.459,0.0,-0.09221951597449507,-0.09221827881319145,0.0,0.0,0.0,-5.580381909390815,-8.575972135582552,-8.204796636425383,-0.0025491418969807176,0.006830109789279353,-1.8584581424655382
18445,13.0,299.9225,73617.881,0.0,-0.09222449747317596,-0.0922232810233784,0.0,0.0,0.0,-5.586779266547185,-8.581017006505443,-8.210201211133771,0.003312153875434137,0.0024503375492544877,-1.8620488981699181
18446,13.0,300.10077,73662.036,0.0,-0.09222951196191431,-0.09222828323356547,0.0,0.0,0.0,-5.580486780776164,-8.589402968308072,-8.221529752551811,-0.0019600789201697283,-0.005912325580576104,-1.8627405426881782
18447,13.0,300.09672,73676.884,0.0,-0.0922344934605952,-0.09223328544375253,0.0,0.0,0.0,-5.593434901154045,-8.58361406783675,-8.218883852565682,0.007639751334684753,-0.004911084824736335,-1.8657410802093082
18448,13.0,300.08051,73619.418,0.0,-0.09223950794933367,-0.09223828765393971,0.0,0.0,0.0,-5.585138004035204,-8.57941171437201,-8.213914975400293,0.0008853110122108943,-0.003202059692443687,-1.863595928422598
18449,13.0,299.94517,73527.182,0.0,-0.09224448944801455,-0.09224328986412678,0.0,0.0,0.0,-5.577209220677695,-8.575069735043492,-8.198148297219243,0.0065251548451076445,-0.0016516218796773885,-1.8717069954730983
18450,13.0,299.9525,73531.855,0.0,-0.09224950393675291,-0.09224829207431395,0.0,0.0,0.0,-5.575526516236625,-8.568292206449602,-8.208029005569392,0.0006219973338213574,-0.00927983827389873,-1.8604378305109184
18451,13.0,299.91553999999996,73561.144,0.0,-0.09225451842549137,-0.09225326137522338,0.0,0.0,0.0,-5.584130225485745,-8.573961036784073,-8.202659590639472,-0.002117478102628818,-6.088800006767774e-05,-1.8667380169826984
18452,13.0,299.73852,73560.085,0.0,-0.09225949992417226,-0.09225826358541045,0.0,0.0,0.0,-5.5758225879158445,-8.570358122078492,-8.214248334683193,-0.003028479716487677,-0.0047191023017891355,-1.8584432476890682
18453,13.0,299.71127,73614.511,0.0,-0.09226451441291061,-0.09226326579559763,0.0,0.0,0.0,-5.588372804979454,-8.580181075172941,-8.208419410832922,-0.0003449966629485196,-0.001133279301545959,-1.8621402933289382
18454,13.0,299.8018,73708.375,0.0,-0.0922694959115915,-0.09226826800578458,0.0,0.0,0.0,-5.590883537402244,-8.590884947904332,-8.223736915244642,-0.004193253364266886,-0.0016594383949238185,-1.8643409712211283
18455,13.0,299.9534,73720.09599999999,0.0,-0.09227451040032997,-0.09227327021597176,0.0,0.0,0.0,-5.596601307716544,-8.591019507517611,-8.221447780618721,0.0017775938943848581,0.0017689902864607484,-1.865774416137598
18456,13.0,299.99902000000003,73703.914,0.0,-0.09227949189901086,-0.09227827242615894,0.0,0.0,0.0,-5.589643217954835,-8.593760045063084,-8.220746307574492,-0.0014894468441969586,0.005426450980699014,-1.867686824376338
18457,13.0,300.07905,73683.411,0.0,-0.09228450638774932,-0.09228327463634589,0.0,0.0,0.0,-5.588983896114764,-8.586690396465361,-8.222242675322171,-0.0026572898291790875,0.004000124956781596,-1.867129536821338
18458,13.0,299.96385,73619.856,0.0,-0.09228948788643021,-0.09228827684653307,0.0,0.0,0.0,-5.574873172572144,-8.584374917336842,-8.219349947611683,-0.005533256255189875,-0.004110954556694626,-1.8720506899070184
18459,13.0,300.09073,73643.366,0.0,-0.09229450237516856,-0.09229327905672002,0.0,0.0,0.0,-5.5900252132425345,-8.580234574778222,-8.215484702455212,-0.0047677801538182655,0.006345954370846933,-1.8659761542325082
18460,13.0,300.13195,73693.18400000001,0.0,-0.09229951686390703,-0.0922982812669072,0.0,0.0,0.0,-5.594425150476774,-8.57978408378376,-8.226678684259971,-0.002338486390590638,0.0027060131761377075,-1.867353465093438
18461,13.0,299.99182,73670.157,0.0,-0.09230449836258792,-0.09230328347709427,0.0,0.0,0.0,-5.591708424308655,-8.589155735283672,-8.213023923262352,0.0003473802932787657,0.002513312562844638,-1.8687552966067882
18462,13.0,299.63619,73646.935,0.0,-0.09230951285132627,-0.09230828568728122,0.0,0.0,0.0,-5.580539875081405,-8.589611900478692,-8.216677601797942,0.0008682350933106322,-0.004460369496704196,-1.8668897005226681
18463,13.0,299.63745,73747.864,0.0,-0.09231449435000716,-0.0923132878974684,0.0,0.0,0.0,-5.594012251061025,-8.59749468228166,-8.226002137168202,0.007667605478608742,-0.0003353964728885547,-1.8620817274731585
18464,13.0,299.66913,73793.629,0.0,-0.09231950883874562,-0.09231829010765535,0.0,0.0,0.0,-5.601335516158774,-8.600381735791592,-8.229703235808472,0.0015350876817013584,-0.0034753379053641467,-1.861912818681488
18465,13.0,299.86591,73735.84,0.0,-0.09232449033742651,-0.0923232594085649,0.0,0.0,0.0,-5.598407628669815,-8.591145859805083,-8.224300484950263,0.0015266547050940885,0.0005649616275473715,-1.864363769348378
18466,13.0,300.13711,73685.966,0.0,-0.09232950482616487,-0.09232826161875207,0.0,0.0,0.0,-5.584087365006515,-8.595141510249423,-8.219464850173022,-0.0073144135475264145,-0.003408775175819917,-1.8692835038839182
18467,13.0,300.17183,73712.02799999999,0.0,-0.09233451931490333,-0.09233326382893903,0.0,0.0,0.0,-5.590760934140144,-8.592011479365512,-8.223843407830152,-0.004693149825652825,0.006946762334867063,-1.8683613449679084
18468,13.0,300.02603999999997,73745.281,0.0,-0.09233950081358422,-0.0923382660391262,0.0,0.0,0.0,-5.592644566076045,-8.593417667854292,-8.230661669078062,-0.005550318373623775,0.005225041989421495,-1.8659821324080983
18469,13.0,300.20159,73765.407,0.0,-0.09234451530232246,-0.09234326824931338,0.0,0.0,0.0,-5.593355968971254,-8.600060434184883,-8.229425503956062,-0.0061538327286610045,0.004540745560886696,-1.8729149922423183
18470,13.0,300.23906,73727.464,0.0,-0.09234949680100357,-0.09234827045950034,0.0,0.0,0.0,-5.591783100841024,-8.591196724960101,-8.228328154097762,-0.001873693472294148,-0.008017626646153141,-1.8697487883298383
18471,13.0,299.94187999999997,73688.576,0.0,-0.09235451128974193,-0.09235327266968751,0.0,0.0,0.0,-5.589259905442004,-8.594400723101312,-8.215826370388932,-0.0015505693326292784,-0.001088677754669129,-1.8756294892602183
18472,13.0,299.82603,73762.834,0.0,-0.09235949278842281,-0.09235827487987447,0.0,0.0,0.0,-5.594999561958465,-8.601486583700632,-8.225573431050892,0.007288379910057092,-0.002467944998892208,-1.8754416326916783
18473,13.0,299.92798999999997,73833.497,0.0,-0.09236450727716128,-0.09236327709006165,0.0,0.0,0.0,-5.608103317551704,-8.601810722407622,-8.233625425620563,0.007097632538981794,-0.005470953533041075,-1.8752345243712383
18474,13.0,300.01901000000004,73792.884,0.0,-0.09236948877584217,-0.09236827930024882,0.0,0.0,0.0,-5.592431783555044,-8.606016622247711,-8.232745620558733,0.005085988915923025,-0.009039218530251412,-1.8732181566722381
18475,13.0,299.97683,73751.035,0.0,-0.09237450326458052,-0.09237328151043589,0.0,0.0,0.0,-5.593403490400945,-8.592894628152672,-8.232174958102412,0.0035784980126202562,-0.002678865064883398,-1.8652887653646684
18476,13.0,299.93093999999996,73776.503,0.0,-0.09237951775331898,-0.09237828372062284,0.0,0.0,0.0,-5.592997582410885,-8.599571034386582,-8.233645994597591,0.0014661753265002384,0.00011704275833372089,-1.8640274716401883
18477,13.0,300.02561000000003,73829.948,0.0,-0.09238449925199987,-0.0923832859308098,0.0,0.0,0.0,-5.603451891642645,-8.600387308667141,-8.238621356563621,-0.0020926461797780983,-0.005242556828000075,-1.862698695459048
18478,13.0,300.12253,73830.372,0.0,-0.09238951374073812,-0.09238828814099698,0.0,0.0,0.0,-5.594863077169995,-8.607465367240692,-8.240261099200453,-0.00033601468717206766,-0.005819159361706314,-1.865957206455638
18479,13.0,300.04497000000003,73815.496,0.0,-0.09239449523941912,-0.09239325744190663,0.0,0.0,0.0,-5.599692328471604,-8.605129724435182,-8.233245558158073,0.0054473721634637744,0.013189736956975688,-1.8677677830593282
18480,13.0,300.01507999999995,73840.878,0.0,-0.09239950972815758,-0.0923982596520937,0.0,0.0,0.0,-5.5939416275290545,-8.608247697642902,-8.243593678779352,0.0038564681814537765,0.011349843988142387,-1.8649792174591182
18481,13.0,300.08923,73896.548,0.0,-0.09240449122683847,-0.09240326186228065,0.0,0.0,0.0,-5.609871337651195,-8.610280682643541,-8.242553374901684,-0.00027621771225556577,0.004465735061283736,-1.8711028957634783
18482,13.0,300.16867,73896.203,0.0,-0.09240950571557671,-0.09240826407246783,0.0,0.0,0.0,-5.6137134807053855,-8.608557954823523,-8.240329189607172,-0.007528947268674243,-0.0016556020273951985,-1.8692965748102084
18483,13.0,299.95817,73822.966,0.0,-0.09241448721425782,-0.09241326628265478,0.0,0.0,0.0,-5.605551244524835,-8.603173138492082,-8.231613921522042,-0.0016526173979006385,0.001849538907135278,-1.874264134750468
18484,13.0,300.00866,73784.82400000001,0.0,-0.09241950170299618,-0.09241826849284196,0.0,0.0,0.0,-5.593732898008454,-8.607234244892883,-8.227776946043361,0.0008307042994741311,-0.0009410590295952952,-1.8794883509410583
18485,13.0,299.934,73849.91900000001,0.0,-0.09242451619173442,-0.09242327070302891,0.0,0.0,0.0,-5.602392639988104,-8.608471727240012,-8.237667077619443,0.0005752086764711765,-0.0025119290711580976,-1.8777325911677785
18486,13.0,300.04375,73895.652,0.0,-0.09242949769041553,-0.09242827291321609,0.0,0.0,0.0,-5.600436560670054,-8.615294244138342,-8.246702330086151,0.006323658714321525,-0.004734597935568435,-1.8747259741460482
18487,13.0,299.68264,73829.975,0.0,-0.09243451217915377,-0.09243327512340327,0.0,0.0,0.0,-5.598815461835065,-8.6093095837477,-8.234343819941461,0.005535044844266395,0.00972291754652725,-1.8701404094934881
18488,13.0,299.82719,73834.63799999999,0.0,-0.09243949367783477,-0.09243827733359034,0.0,0.0,0.0,-5.599477316800385,-8.608458251013682,-8.235950631950043,0.007045197960881904,0.0019321325704866384,-1.8739104091405583
18489,13.0,299.95606000000004,73901.352,0.0,-0.09244450816657324,-0.09244327954377751,0.0,0.0,0.0,-5.6065361236220355,-8.615944852027551,-8.241684614265942,0.001254124574722459,0.0004525779958234705,-1.8714223735200082
18490,13.0,300.11824,73930.098,0.0,-0.09244948966525413,-0.09244828175396447,0.0,0.0,0.0,-5.604854939056115,-8.62017628577016,-8.24787253262664,-0.003350149132983977,-0.003393475200634926,-1.8732682112271783
18491,13.0,300.00387,73910.125,0.0,-0.09245450415399237,-0.09245328396415164,0.0,0.0,0.0,-5.603064019504365,-8.616657369497872,-8.247110973851482,0.0016930640114174082,0.0035899144028219664,-1.870462724350298
18492,13.0,299.96328,73933.297,0.0,-0.09245951864273094,-0.0924582861743386,0.0,0.0,0.0,-5.605636256208224,-8.620270416704452,-8.247969500661213,-0.005185442047688285,-0.0015635889884642185,-1.871846722661888
18493,13.0,300.01243999999997,73942.797,0.0,-0.09246450014141183,-0.09246325547524814,0.0,0.0,0.0,-5.621944313917704,-8.613048172641673,-8.241771449799513,-0.0028071436421185075,-0.01183979803424709,-1.867417907799798
18494,13.0,300.03221,73951.892,0.0,-0.09246951463015007,-0.09246825768543532,0.0,0.0,0.0,-5.617000970654835,-8.61514955202406,-8.247378167902852,-0.005678555306279775,-0.00875885172095636,-1.8755341424258085
18495,13.0,300.03254,73956.887,0.0,-0.09247449612883096,-0.09247325989562227,0.0,0.0,0.0,-5.611730347609665,-8.618593285138932,-8.250723210457982,0.00021155269882362583,0.0019113687454624083,-1.8761499958365881
18496,13.0,299.77475,73925.297,0.0,-0.09247951061756954,-0.09247826210580923,0.0,0.0,0.0,-5.605285772998635,-8.615295764013492,-8.250862836321762,0.005264679421408405,-0.002509762134494238,-1.8762660129730382
18497,13.0,299.77987,73941.037,0.0,-0.09248449211625043,-0.0924832643159964,0.0,0.0,0.0,-5.605492070718995,-8.623107922284492,-8.24762884597759,0.0014009014510832085,-0.002054825707870508,-1.877739278618438
18498,13.0,299.85462,73990.082,0.0,-0.09248950660498867,-0.09248826652618347,0.0,0.0,0.0,-5.610769887839875,-8.62154923965566,-8.258818166831892,0.0065617573903950345,-0.0011287127859952789,-1.8740623966555583
18499,13.0,299.88802999999996,73970.12,0.0,-0.09249448810366978,-0.09249326873637054,0.0,0.0,0.0,-5.6168366214886145,-8.618095678014823,-8.250137045275133,-0.0007473684405570223,0.006621740175114874,-1.8688542911415584
18500,13.0,299.90676,73930.089,0.0,-0.09249950259240802,-0.09249827094655771,0.0,0.0,0.0,-5.6043054535268855,-8.623373596460711,-8.245221971690052,-0.0020848369599323884,0.002060987079078588,-1.8795273610699084
18501,13.0,300.03365,73985.322,0.0,-0.09250451708114638,-0.09250327315674478,0.0,0.0,0.0,-5.611544010916274,-8.62536767265751,-8.252778689610842,-0.004988399353741685,0.0017729644560029682,-1.8770192630973783
18502,13.0,300.18065,74029.45599999999,0.0,-0.09250949857982749,-0.09250827536693196,0.0,0.0,0.0,-5.616090666764995,-8.630652278554061,-8.256363061839593,-0.005879055108242564,-0.00027581225009554975,-1.8761871821152585
18503,13.0,300.17956000000004,74022.458,0.0,-0.09251451306856595,-0.09251327757711891,0.0,0.0,0.0,-5.6109274482304246,-8.632438841130382,-8.257612500537903,-0.006007802617623954,0.0023996323864252777,-1.8756674861389684
18504,13.0,300.19265,73986.677,0.0,-0.09251949456724662,-0.09251827978730609,0.0,0.0,0.0,-5.610667954879815,-8.629402839855752,-8.250031565939722,-0.004568656649466306,-0.008072698308963294,-1.8772424820944085
18505,13.0,300.11137,73998.837,0.0,-0.0925245090559852,-0.09252328199749327,0.0,0.0,0.0,-5.619738367124994,-8.625675396712882,-8.248384933202214,-0.006643614522248703,-0.004974854935679955,-1.8753502375326583
18506,13.0,299.99376,74025.69099999999,0.0,-0.09252949055466608,-0.09252828420768022,0.0,0.0,0.0,-5.612514501862054,-8.63097520136093,-8.258472040597733,0.008064946439073243,-0.0036686247851650763,-1.8791526611829283
18507,13.0,300.12628,74051.732,0.0,-0.09253450504340432,-0.09253328641786718,0.0,0.0,0.0,-5.620273160527774,-8.632477547284202,-8.257126647114951,0.008451197681168272,0.006747938043269634,-1.8807633235418881
18508,13.0,300.14457000000004,74084.011,0.0,-0.09253948654208521,-0.09253825571877694,0.0,0.0,0.0,-5.619276831704445,-8.635671818224452,-8.264740816316413,0.01067283181457649,0.0027058774006243074,-1.8765720145032383
18509,13.0,300.01333,74069.533,0.0,-0.09254450103082368,-0.0925432579289639,0.0,0.0,0.0,-5.619480393649535,-8.630841553672742,-8.264966669763702,0.00043127270007830166,0.0005222491942894825,-1.8698199184868585
18510,13.0,299.92259,74030.59599999999,0.0,-0.09254951551956203,-0.09254826013915107,0.0,0.0,0.0,-5.618273612780435,-8.624617563608481,-8.260561463628942,-2.8614799893310873e-05,0.0033384445744538273,-1.8690244158333482
18511,13.0,299.79498,74049.667,0.0,-0.09255449701824292,-0.09255326234933803,0.0,0.0,0.0,-5.629081850272124,-8.620450977872272,-8.259716818345582,-0.005706116823574885,0.006003571386531364,-1.867859076893338
18512,13.0,299.8774,74121.086,0.0,-0.09255951150698138,-0.0925582645595251,0.0,0.0,0.0,-5.626361071103604,-8.637954974674782,-8.266643193379162,-0.005156140374671435,0.004970011600201955,-1.8803452565506285
18513,13.0,299.9897,74078.009,0.0,-0.09256449300566227,-0.09256326676971216,0.0,0.0,0.0,-5.624519489046854,-8.630127617652283,-8.263218002741121,-0.005643165317387055,0.0006282039567789034,-1.8799012503568082
18514,13.0,299.92367,74077.872,0.0,-0.09256950749440063,-0.09256826897989923,0.0,0.0,0.0,-5.619292435755985,-8.634983112131483,-8.263548018298692,0.003249394380140257,0.0037112013517170564,-1.881607158225168
18515,13.0,299.85767000000004,74119.52900000001,0.0,-0.09257448899308174,-0.0925732711900864,0.0,0.0,0.0,-5.622796254601785,-8.634403026449231,-8.273286770309833,0.007197562202269083,-0.00017489487061077982,-1.8789709854399983
18516,13.0,300.10257,74134.30900000001,0.0,-0.0925795034818202,-0.09257827340027336,0.0,0.0,0.0,-5.6285152408162045,-8.637274678557642,-8.269188882930402,0.005298247687946335,-0.007349497737538953,-1.877657002710318
18517,13.0,299.95996,74100.65,0.0,-0.09258451797055844,-0.09258327561046054,0.0,0.0,0.0,-5.621517735625604,-8.637961560800433,-8.265268010343442,0.0023996726124542477,-0.004062357663348486,-1.8766448671854283
18518,13.0,300.15469,74111.583,0.0,-0.09258949946923944,-0.09258827782064771,0.0,0.0,0.0,-5.621618351360535,-8.636570875038181,-8.269881540698762,-0.0035683200166907666,-0.003517859351110687,-1.881483845687998
18519,13.0,300.07502,74092.937,0.0,-0.09259451395797791,-0.09259328003083467,0.0,0.0,0.0,-5.6229311181900945,-8.633558279840862,-8.265913349332132,0.002205851547200598,0.0019526500744115583,-1.881771304741368
18520,13.0,299.89496,74138.091,0.0,-0.09259949545665858,-0.09259828224102185,0.0,0.0,0.0,-5.619183207395204,-8.647204630862651,-8.269740496284841,-0.004626222731372635,0.002288599325892168,-1.8852283114325483
18521,13.0,299.8292,74194.746,0.0,-0.09260450994539704,-0.0926032844512088,0.0,0.0,0.0,-5.626755630692545,-8.645354233530032,-8.281240479619802,0.008205225443867701,-0.0007949027486557934,-1.8784031600839584
18522,13.0,299.95897,74147.585,0.0,-0.09260949144407793,-0.09260825375211834,0.0,0.0,0.0,-5.623493168020564,-8.641712410020611,-8.273808695436342,0.001104705851375979,-0.0008436048477598162,-1.8799587016374781
18523,13.0,299.94905,74096.063,0.0,-0.09261450593281628,-0.09261325596230552,0.0,0.0,0.0,-5.620587065408754,-8.640345839610742,-8.262420169612382,0.006579620989658034,-0.0002116580970990278,-1.8752385773716382
18524,13.0,299.87072,74180.473,0.0,-0.09261948743149717,-0.09261825817249247,0.0,0.0,0.0,-5.629267376365434,-8.644851154855383,-8.274893075693361,0.0017262411634167381,0.0007910860888416183,-1.8823126842697981
18525,13.0,299.63531,74216.69099999999,0.0,-0.09262450192023564,-0.09262326038267965,0.0,0.0,0.0,-5.6386611167175245,-8.644920359837212,-8.27643919402095,-0.002806669643721727,0.003275620433803567,-1.8810940483745284
18526,13.0,299.6534,74156.7,0.0,-0.09262951640897399,-0.09262826259286672,0.0,0.0,0.0,-5.623870603682815,-8.642662534639381,-8.275251968878782,-0.0036967762166684064,0.001913558277603498,-1.8845305874136882
18527,13.0,299.92969,74166.505,0.0,-0.09263449790765488,-0.09263326480305367,0.0,0.0,0.0,-5.632715061155695,-8.642238286822511,-8.269812133066912,-0.004649733477417966,-0.0016023881586433985,-1.878684438311718
18528,13.0,300.0749,74181.32400000001,0.0,-0.09263951239639334,-0.09263826701324085,0.0,0.0,0.0,-5.637879799565415,-8.635886120620603,-8.275504268153682,-0.003419120763315947,0.0014480575027871485,-1.877587291103438
18529,13.0,300.05474,74168.651,0.0,-0.09264449389507445,-0.0926432692234278,0.0,0.0,0.0,-5.631445053480354,-8.644608988081483,-8.269363871222671,0.0023627351880088077,-0.005247628651375625,-1.8785225209457383
18530,13.0,299.94909,74225.95599999999,0.0,-0.0926495083838127,-0.09264827143361498,0.0,0.0,0.0,-5.634144757046795,-8.653466111180611,-8.275226434976263,0.0015520368227491083,-0.0036376139618795465,-1.884964562431518
18531,13.0,300.20582,74256.515,0.0,-0.09265448988249358,-0.09265327364380216,0.0,0.0,0.0,-5.638297461256635,-8.652706781555674,-8.281122132008122,0.005707667096227885,-0.0019477855620064683,-1.8812640717413083
18532,13.0,299.96205,74172.629,0.0,-0.09265950437123216,-0.09265827585398911,0.0,0.0,0.0,-5.6179644701749245,-8.652326204818111,-8.276336551785821,0.002247644263475218,0.0016723945199774884,-1.8845831750938782
18533,13.0,299.97701,74207.337,0.0,-0.09266448586991283,-0.09266327806417629,0.0,0.0,0.0,-5.624834407177935,-8.652833032518132,-8.279509848449003,0.001055325817027549,0.002415876508053448,-1.8757997152770183
18534,13.0,299.98778,74255.003,0.0,-0.09266950035865129,-0.09266828027436325,0.0,0.0,0.0,-5.6353526524910045,-8.650806532318132,-8.285507478440922,-0.006126190860632964,-0.002443999872529008,-1.8767942202501682
18535,13.0,300.02522999999997,74211.598,0.0,-0.09267451484738987,-0.09267328248455042,0.0,0.0,0.0,-5.622842154831315,-8.65851159005356,-8.277118882188033,-0.003290946044216087,-0.002967579433802287,-1.8784751008410583
18536,13.0,299.90516,74195.587,0.0,-0.09267949634607053,-0.09267825178545996,0.0,0.0,0.0,-5.6297555602636145,-8.650681902555831,-8.273168422698152,-0.003968938638578746,0.003673264356047966,-1.8815826375727485
18537,13.0,299.9864,74255.898,0.0,-0.092684510834809,-0.09268325399564692,0.0,0.0,0.0,-5.631575154793195,-8.65535936899246,-8.285004197116251,-0.0032141836351902266,-0.0009678841065852242,-1.8824270802060883
18538,13.0,299.60472999999996,74281.771,0.0,-0.09268949233348989,-0.0926882562058341,0.0,0.0,0.0,-5.630970143158485,-8.664253881020283,-8.284579543999342,-0.003292805560799607,-0.0007056635122710663,-1.8834769086346983
18539,13.0,299.95735,74279.701,0.0,-0.09269450682222824,-0.09269325841602127,0.0,0.0,0.0,-5.635686113098915,-8.653023928836973,-8.290464196605113,-0.002249122696696128,-0.004105232530729906,-1.8808836976537682
18540,13.0,300.03508999999997,74278.08,0.0,-0.09269948832090913,-0.09269826062620834,0.0,0.0,0.0,-5.639635660663704,-8.652734341958391,-8.286311593720283,-0.001018016124495369,0.0024581776732282476,-1.883198974132268
18541,13.0,300.06646,74248.774,0.0,-0.0927045028096476,-0.09270326283639552,0.0,0.0,0.0,-5.634426237924575,-8.650951224432411,-8.284395740431203,-0.0023541358357351177,-0.007986389057495233,-1.8804855916894783
18542,13.0,300.21017,74281.407,0.0,-0.09270951729838595,-0.09270826504658247,0.0,0.0,0.0,-5.648136930327715,-8.652351536070611,-8.279204454868863,0.0016313893016805885,-0.003999985229592807,-1.8821011176489182
18543,13.0,300.13189,74372.27799999999,0.0,-0.09271449879706695,-0.09271326725676943,0.0,0.0,0.0,-5.6460066733174745,-8.665650747608142,-8.295658015292702,0.004732238481385575,0.0014055543968674188,-1.8847823800635382
18544,13.0,299.75627000000003,74356.476,0.0,-0.0927195132858053,-0.0927182694669566,0.0,0.0,0.0,-5.641282496051235,-8.666424769359532,-8.294804960033511,0.007537712084689264,0.006725907655620404,-1.881685989082948
18545,13.0,299.83812,74308.334,0.0,-0.09272449478448641,-0.09272327167714356,0.0,0.0,0.0,-5.636427406872074,-8.665040264422892,-8.286410284280022,0.0006560090087355485,-0.006609599108441644,-1.8801933703606382
18546,13.0,300.05779,74335.244,0.0,-0.09272950927322465,-0.09272827388733074,0.0,0.0,0.0,-5.638317827583644,-8.668649359954081,-8.289090736094561,-0.001046202715777169,-0.006323422323073194,-1.8841330893994581
18547,13.0,300.22737,74352.288,0.0,-0.09273449077190554,-0.09273327609751769,0.0,0.0,0.0,-5.6405667361805945,-8.665878120930582,-8.294794016932432,0.0013408583779824187,-0.004235610562172216,-1.8828647029242782
18548,13.0,300.16758,74301.686,0.0,-0.092739505260644,-0.09273827830770487,0.0,0.0,0.0,-5.640402994964435,-8.665244839618083,-8.280209497643051,-0.002868094384658877,0.006879302473684294,-1.8849575710058282
18549,13.0,300.11881,74292.37700000001,0.0,-0.09274448675932478,-0.09274328051789205,0.0,0.0,0.0,-5.626915622883335,-8.66280219760201,-8.29330980818595,0.002530969256437218,-0.0013105278508140287,-1.8875394335856381
18550,13.0,300.21574,74307.438,0.0,-0.09274950124806325,-0.09274828272807911,0.0,0.0,0.0,-5.635545372660024,-8.660904177514691,-8.291156145098402,-0.0018742345478475482,0.0009304549417337532,-1.8861572591242282
18551,13.0,300.15758999999997,74339.713,0.0,-0.09275451573680171,-0.09275325202898854,0.0,0.0,0.0,-5.639880259237845,-8.664198152264783,-8.293338179188751,-0.0017897669797612482,0.0033515914945013267,-1.888985240153328
18552,13.0,300.14238,74406.814,0.0,-0.09275949723548249,-0.09275825423917572,0.0,0.0,0.0,-5.644606463004285,-8.671345213170142,-8.301861639029951,-0.004792579652665785,0.005563580804182676,-1.8854743285568283
18553,13.0,299.92039,74427.457,0.0,-0.09276451172422095,-0.09276325644936279,0.0,0.0,0.0,-5.652902144223004,-8.675955298475122,-8.295231031700562,-0.0058853449595633245,-0.0029857620041967674,-1.8868812263206782
18554,13.0,300.04146000000003,74418.045,0.0,-0.09276949322290184,-0.09276825865954996,0.0,0.0,0.0,-5.6516712480015245,-8.667426063108351,-8.302130251631462,-0.001973708451239858,0.004164193047423856,-1.879755646317438
18555,13.0,300.01718999999997,74416.292,0.0,-0.0927745077116402,-0.09277326086973692,0.0,0.0,0.0,-5.644466938465515,-8.67417218094914,-8.302055372449072,0.004560254678312095,0.004023705921058857,-1.8888757078175182
18556,13.0,300.03774,74443.058,0.0,-0.0927794892103212,-0.0927782630799241,0.0,0.0,0.0,-5.649234381511024,-8.67146984293244,-8.308126564398252,0.0055609073437938245,0.0030389030202663775,-1.877861375255488
18557,13.0,299.99728,74445.98700000001,0.0,-0.09278450369905955,-0.09278326529011105,0.0,0.0,0.0,-5.654978091027885,-8.665932836435982,-8.308810305565732,0.001919445159359488,-0.008577415409024992,-1.8846651470269682
18558,13.0,300.07887999999997,74405.303,0.0,-0.09278948519774066,-0.092788267500298,0.0,0.0,0.0,-5.645215426314385,-8.671093420520291,-8.301045364749392,-0.001113554260524249,-0.004741989189747896,-1.8867673370094382
18559,13.0,300.06136000000004,74372.908,0.0,-0.0927944996864789,-0.09279326971048518,0.0,0.0,0.0,-5.645562059173595,-8.66309745868115,-8.298847321307463,0.0038553873475721066,0.0003602044627719126,-1.888739527004078
18560,13.0,300.1276,74418.885,0.0,-0.09279951417521726,-0.09279827192067225,0.0,0.0,0.0,-5.645898863506835,-8.675118455217532,-8.300465380392152,0.0007914633522513512,0.0022546033664870278,-1.8857293636069983
18561,13.0,299.86409,74427.083,0.0,-0.09280449567389826,-0.09280327413085931,0.0,0.0,0.0,-5.639054359081335,-8.679511401026081,-8.305409128955063,0.00015712462207949284,-0.0038835794104044464,-1.893725832071188
18562,13.0,299.81368,74434.895,0.0,-0.09280951016263661,-0.09280827634104649,0.0,0.0,0.0,-5.6423813657846855,-8.679770995701702,-8.304197079185442,-0.002044418210793368,0.0035374771902718168,-1.889046947084418
18563,13.0,299.84779,74415.701,0.0,-0.0928144916613175,-0.09281327855123356,0.0,0.0,0.0,-5.637350376388165,-8.684753450418432,-8.298411015814402,-0.002972896767677067,0.0035188221413557067,-1.8911831822702483
18564,13.0,299.91033999999996,74432.323,0.0,-0.09281950615005596,-0.09281828076142074,0.0,0.0,0.0,-5.647593220324054,-8.680324230256302,-8.297650267639323,-0.002103583809307558,-0.0008711147703598343,-1.8903316468862081
18565,13.0,299.96675,74508.505,0.0,-0.09282448764873674,-0.09282325006233016,0.0,0.0,0.0,-5.659445409393775,-8.681074237980322,-8.308205395256033,0.003703362038343376,-0.005516272359663694,-1.8886077031660682
18566,13.0,299.91785,74533.85,0.0,-0.0928295021374752,-0.09282825227251723,0.0,0.0,0.0,-5.662157271961415,-8.685533754320442,-8.308738162158614,0.006284176309599914,0.003822921395817966,-1.8851361056734484
18567,13.0,299.90307,74463.393,0.0,-0.09283451662621367,-0.09283325448270441,0.0,0.0,0.0,-5.649928559154535,-8.67370375542791,-8.311379806494323,0.004441559623172805,-0.002820507600337427,-1.8892488878293483
18568,13.0,299.8162,74449.666,0.0,-0.09283949812489434,-0.09283825669289136,0.0,0.0,0.0,-5.653765838608244,-8.673088509967192,-8.303985208589532,0.003859748679977536,-0.001909995791576908,-1.887225832679688
18569,13.0,300.07351,74521.08099999999,0.0,-0.09284451261363291,-0.09284325890307854,0.0,0.0,0.0,-5.657097303612035,-8.680914245789532,-8.314536181880833,-0.0032083710246665668,-0.0051027084544981146,-1.8924229950926084
18570,13.0,300.01464,74553.83,0.0,-0.0928494941123138,-0.09284826111326572,0.0,0.0,0.0,-5.670725618782045,-8.676826085611062,-8.314951107796782,-0.003227358723590507,0.002788150674294047,-1.890298817582968
18571,13.0,300.15557,74509.023,0.0,-0.09285450860105204,-0.09285326332345267,0.0,0.0,0.0,-5.658481504573644,-8.684802998348323,-8.305598100098713,-0.005226635629178775,-0.0015404112977267586,-1.8957172738177284
18572,13.0,300.10721,74483.62,0.0,-0.09285949009973316,-0.09285826553363985,0.0,0.0,0.0,-5.654800873585395,-8.678451946721522,-8.307907905026672,-0.004173778393369856,-0.0033013408756669763,-1.8879813119542481
18573,13.0,299.91375,74554.845,0.0,-0.09286450458847151,-0.0928632677438268,0.0,0.0,0.0,-5.6533842486205845,-8.69386155556733,-8.315565542657422,0.0032416720971531273,-0.004755711838502215,-1.8874371966505483
18574,13.0,300.10096,74637.76400000001,0.0,-0.09286948608715251,-0.09286826995401387,0.0,0.0,0.0,-5.665759578716935,-8.700176636815582,-8.322080436825392,0.0019573854987539083,0.0014337246748226085,-1.8888356844385683
18575,13.0,300.19706,74603.851,0.0,-0.09287450057589086,-0.09287327216420094,0.0,0.0,0.0,-5.658174692443365,-8.694717954551852,-8.324815300170302,0.0013487873639899488,0.0005106314915579045,-1.8861143986449982
18576,13.0,299.82442000000003,74514.30099999999,0.0,-0.09287951506462933,-0.092878274374388,0.0,0.0,0.0,-5.6567050744983245,-8.687506653590152,-8.306275153815532,-0.006159584138878624,-0.002253409656544218,-1.890561046708848
18577,13.0,299.7382,74510.181,0.0,-0.09288449656331021,-0.09288327658457518,0.0,0.0,0.0,-5.6486919887324945,-8.681366763284192,-8.319175854088734,-0.0015452333549526584,0.003305507360078177,-1.8910494332570484
18578,13.0,299.76807,74505.92599999999,0.0,-0.09288951105204857,-0.09288827879476214,0.0,0.0,0.0,-5.647417928056755,-8.687246248314452,-8.313276813331543,0.0014107191352771388,7.991418223041572e-05,-1.8931274065621282
18579,13.0,299.9039,74559.156,0.0,-0.09289449255072946,-0.09289324809567168,0.0,0.0,0.0,-5.652816929889594,-8.69232860949104,-8.318976041169012,-0.0012757157184533389,-0.001142880656843539,-1.8946795030653085
18580,13.0,299.91472999999996,74551.858,0.0,-0.09289950703946792,-0.09289825030585885,0.0,0.0,0.0,-5.653742533855945,-8.685388352931092,-8.322772283993672,0.004650714911464826,-0.0007685695539269093,-1.895037585650648
18581,13.0,299.71536000000003,74522.755,0.0,-0.09290448853814859,-0.09290325251604581,0.0,0.0,0.0,-5.651516119411215,-8.694459271801321,-8.307081092945072,0.001969835404057618,0.00018728739556132684,-1.898370975829628
18582,13.0,299.79177999999996,74642.128,0.0,-0.09290950302688716,-0.09290825472623299,0.0,0.0,0.0,-5.675183209946974,-8.691468157506122,-8.322691527960702,0.007383820368776332,0.004277967456102517,-1.888907118570618
18583,13.0,299.96542,74727.49,0.0,-0.09291448452556805,-0.09291325693642016,0.0,0.0,0.0,-5.680802998976604,-8.699815413154932,-8.33467270376815,-0.006360424696850045,-0.001113689022787549,-1.894060305929198
18584,13.0,299.91924,74640.136,0.0,-0.0929194990143063,-0.09291825914660712,0.0,0.0,0.0,-5.666710817910815,-8.699081009482452,-8.322945752410792,-0.0024044044904212476,0.0004856196053569236,-1.8873902831709182
18585,13.0,300.14572000000004,74601.95599999999,0.0,-0.09292451350304476,-0.0929232613567943,0.0,0.0,0.0,-5.666392252079374,-8.686503333341133,-8.324236329063162,-0.009443672911717951,0.00030771222060883174,-1.8881208364930182
18586,13.0,300.02281,74653.839,0.0,-0.09292949500172576,-0.09292826356698125,0.0,0.0,0.0,-5.669181020329604,-8.699914002389662,-8.323807926920884,-0.0022637552440402478,-0.00016868534975794785,-1.8881926759251084
18587,13.0,299.98217999999997,74629.174,0.0,-0.09293450949046422,-0.09293326577716843,0.0,0.0,0.0,-5.671723974105574,-8.692215530779881,-8.321465799314732,-0.0008722151599684341,0.002288980307929768,-1.8868578202433681
18588,13.0,300.17431,74631.408,0.0,-0.09293949098914511,-0.0929382679873555,0.0,0.0,0.0,-5.670708393530345,-8.698709754645812,-8.31666643889107,0.0014385319385970484,9.396139424351761e-05,-1.8874857313303381
18589,13.0,299.86086,74614.569,0.0,-0.09294450547788358,-0.09294327019754245,0.0,0.0,0.0,-5.6601611692644145,-8.702759512645493,-8.318045168302142,0.005108854019004635,0.000940838303193511,-1.895836026729448
18590,13.0,299.80157,74634.80900000001,0.0,-0.09294948697656447,-0.09294827240772963,0.0,0.0,0.0,-5.663111348255574,-8.697944142870252,-8.326062915018431,0.005481653555422085,-0.007637647624827133,-1.8922702983025383
18591,13.0,299.81985,74711.983,0.0,-0.09295450146530282,-0.09295327461791658,0.0,0.0,0.0,-5.668229274510675,-8.711593432317331,-8.330754465631452,0.005217503712652525,-0.0007999289859093443,-1.8996476709556285
18592,13.0,299.85107,74734.902,0.0,-0.09295951595404128,-0.09295827682810376,0.0,0.0,0.0,-5.668577021944994,-8.70994061875421,-8.339026335472822,-0.004772825531366205,-0.002576452432226058,-1.892398069140148
18593,13.0,299.92753,74679.547,0.0,-0.09296449745272217,-0.0929632461290133,0.0,0.0,0.0,-5.669596250220585,-8.704638584955942,-8.32648260320985,0.000904256468738165,0.0034868564311759365,-1.9002167122117881
18594,13.0,299.87797,74640.59700000001,0.0,-0.09296951194146053,-0.09296824833920025,0.0,0.0,0.0,-5.662575440277685,-8.703854329378542,-8.322447942636662,-0.0016009371845001987,0.0038084166193114565,-1.8953466269311483
18595,13.0,299.81062000000003,74678.235,0.0,-0.09297449344014141,-0.09297325054938743,0.0,0.0,0.0,-5.662707568090724,-8.703072404276373,-8.334538549454912,0.0008783332147347391,0.006065885254431264,-1.9008662055258883
18596,13.0,300.15173,74691.854,0.0,-0.09297950792887988,-0.09297825275957461,0.0,0.0,0.0,-5.665462595112625,-8.70741965250541,-8.33157621146255,0.0033391298354964573,-0.004117207424386736,-1.8955141171726781
18597,13.0,300.03287,74637.114,0.0,-0.09298448942756055,-0.09298325496976156,0.0,0.0,0.0,-5.657794926305885,-8.701941921139802,-8.328082119817712,0.0011777692895867788,-0.002010870411907458,-1.897003696144688
18598,13.0,300.05759,74666.818,0.0,-0.09298950391629901,-0.09298825717994874,0.0,0.0,0.0,-5.6611343959854645,-8.706054297995662,-8.329659648898403,0.002384065419838938,-0.007116207642465014,-1.891550384106488
18599,13.0,299.6801,74715.147,0.0,-0.0929944854149799,-0.0929932593901357,0.0,0.0,0.0,-5.676645431166285,-8.70831637884391,-8.326577342094202,-7.496188487641203e-05,-0.0014718166977569986,-1.8883862066942083
18600,13.0,299.68036,74791.769,0.0,-0.09299949990371847,-0.09299826160032287,0.0,0.0,0.0,-5.684514838067935,-8.706813526295592,-8.343501962489531,-0.0008455562559949053,-0.000950248204884696,-1.8887592853810282
18601,13.0,299.97201,74828.45599999999,0.0,-0.09300451439245672,-0.09300326381051005,0.0,0.0,0.0,-5.683687924661324,-8.717673236892361,-8.344620995899971,-0.0012630799830812888,0.01011612647308395,-1.8906560895682283
18602,13.0,299.86326,74766.805,0.0,-0.09300949589113783,-0.09300826602069712,0.0,0.0,0.0,-5.681026217973635,-8.7077964802176,-8.338418993362883,0.0014621087485488984,0.005860584369519645,-1.8950421452760982
18603,13.0,299.83527000000004,74707.92599999999,0.0,-0.09301451037987618,-0.0930132682308843,0.0,0.0,0.0,-5.672715236678404,-8.705327898998972,-8.331300911410382,-0.0009431792959595491,0.01120208375255959,-1.891089963261048
18604,13.0,300.09847,74770.183,0.0,-0.09301949187855707,-0.09301827044107125,0.0,0.0,0.0,-5.675064254385235,-8.717622169087322,-8.335582197057912,-0.0015183812140525585,-0.002990990172062747,-1.8996972188855181
18605,13.0,299.88683,74767.79400000001,0.0,-0.09302450636729553,-0.0930232726512582,0.0,0.0,0.0,-5.681577122053005,-8.707232201236911,-8.338733202218892,-0.002270601774965948,0.0003843873381385767,-1.8919185991928282
18606,13.0,300.10385,74739.083,0.0,-0.09302948786597642,-0.09302827486144538,0.0,0.0,0.0,-5.666315954346844,-8.715530719555911,-8.336968323194712,0.0009585299741795432,0.0012389718247769988,-1.8994285049589983
18607,13.0,299.98715,74697.474,0.0,-0.09303450235471467,-0.09303327707163234,0.0,0.0,0.0,-5.658785276953624,-8.71308757091479,-8.334294153530792,0.0004732820188267986,0.0025786839129212876,-1.900498395739588
18608,13.0,300.11524,74747.115,0.0,-0.09303948385339567,-0.09303824637254188,0.0,0.0,0.0,-5.667758315864194,-8.713540189734461,-8.339958018939772,0.0004587225470798905,-0.008954874173377272,-1.898223446615068
18609,13.0,300.17887,74837.77900000001,0.0,-0.09304449834213413,-0.09304324858272905,0.0,0.0,0.0,-5.675168315170504,-8.726099222073943,-8.347548579413901,-0.005716248716624824,-0.003923875860256397,-1.895402862311698
18610,13.0,300.13602000000003,74839.032,0.0,-0.09304951283087237,-0.09304825079291601,0.0,0.0,0.0,-5.678818649980765,-8.722871209905362,-8.347506934834792,0.004854439483195875,-0.004405629774626806,-1.8950698070038283
18611,13.0,300.05825,74819.992,0.0,-0.09305449432955326,-0.09305325300310319,0.0,0.0,0.0,-5.677776623577924,-8.721881163232652,-8.343751525989163,-0.004285217260568016,0.0036738787909086066,-1.891143969491378
18612,13.0,300.08759,74828.05900000001,0.0,-0.09305950881829184,-0.09305825521329014,0.0,0.0,0.0,-5.678978236871515,-8.720577515653991,-8.346305726841242,0.005093166171681365,-0.0057482299295311245,-1.8964830882433084
18613,13.0,299.91513,74868.296,0.0,-0.0930644903169725,-0.09306325742347732,0.0,0.0,0.0,-5.686348314123885,-8.722643532607892,-8.349100675917082,-0.001768078867995798,0.0026644198674827674,-1.8957259877685881
18614,13.0,299.92183,74867.62,0.0,-0.09306950480571097,-0.0930682596336645,0.0,0.0,0.0,-5.690559584189504,-8.723645940931823,-8.343681611732261,0.002316116361507888,0.0036660577160367268,-1.901542347317618
18615,13.0,299.91818,74837.992,0.0,-0.09307448630439208,-0.09307326184385156,0.0,0.0,0.0,-5.684739272965085,-8.715978677425122,-8.348162912949531,0.0013143361513148787,0.003100553614650817,-1.8959954109701782
18616,13.0,299.69847000000004,74788.957,0.0,-0.09307950079313043,-0.09307826405403874,0.0,0.0,0.0,-5.6837622972186645,-8.713614663616811,-8.336598588233223,0.003307780384027507,-0.006803848981137614,-1.8980489649478482
18617,13.0,299.73467999999997,74850.09599999999,0.0,-0.09308451528186867,-0.0930832662642257,0.0,0.0,0.0,-5.690943099352355,-8.71396018190091,-8.347656895849592,0.002871361001656268,0.0007325572065577673,-1.8934840705973282
18618,13.0,299.67258,74895.71,0.0,-0.09308949678054979,-0.09308826847441287,0.0,0.0,0.0,-5.686245874538774,-8.72011618288346,-8.360063535374033,-0.0011644147545937888,0.0011316623570363788,-1.8998612640767083
18619,13.0,299.824,74866.817,0.0,-0.09309451126928803,-0.09309327068459983,0.0,0.0,0.0,-5.6803933419611745,-8.725820375646423,-8.351429124646883,-0.006082614216232284,0.003567602432969947,-1.8972774763217084
18620,13.0,299.77092000000005,74870.47,0.0,-0.09309949276796892,-0.09309827289478678,0.0,0.0,0.0,-5.674651861594535,-8.725674062331983,-8.358427541762572,-0.010065059478644032,-0.004394686673546805,-1.9064026040722881
18621,13.0,299.87221,74909.76299999999,0.0,-0.09310450725670749,-0.09310327510497396,0.0,0.0,0.0,-5.685997729589285,-8.735444833046282,-8.349254791257291,-0.0038319155103306163,-0.001714626784145488,-1.894883875610478
18622,13.0,299.80412,74904.397,0.0,-0.09310948875538838,-0.09310824440588372,0.0,0.0,0.0,-5.682290247473385,-8.735305916457571,-8.351470161275932,0.0004593126639381305,-0.0017244048502605086,-1.9010938828233581
18623,13.0,299.88594,74860.23700000001,0.0,-0.09311450324412662,-0.09311324661607068,0.0,0.0,0.0,-5.678009063150864,-8.73198944755526,-8.345644175850952,0.0008377588709103632,-0.0015183743239518786,-1.9001820590583682
18624,13.0,300.01097000000004,74863.547,0.0,-0.09311948474280751,-0.09311824882625763,0.0,0.0,0.0,-5.668299999367655,-8.739626617533991,-8.348722328329742,0.002286680331527778,-0.0027020757875741174,-1.9038524562206083
18625,13.0,300.13035,74887.958,0.0,-0.09312449923154609,-0.0931232510364447,0.0,0.0,0.0,-5.682059226450585,-8.730434513951801,-8.351575640611342,0.003906744536840667,0.006084513553544734,-1.9057407491069682
18626,13.0,300.09074,74948.25099999999,0.0,-0.09312951372028433,-0.09312825324663176,0.0,0.0,0.0,-5.687461572008754,-8.735415854093423,-8.35951962272035,0.0036608265084204466,0.004994387763157695,-1.9020465405673783
18627,13.0,300.12085,74978.73700000001,0.0,-0.09313449521896522,-0.09313325545681894,0.0,0.0,0.0,-5.695270082579395,-8.730098317568624,-8.366295530114082,0.002250737209405468,0.0032004115398310273,-1.901100874249048
18628,13.0,300.04458999999997,75005.696,0.0,-0.09313950970770368,-0.09313825766700601,0.0,0.0,0.0,-5.701639372707995,-8.727968668508442,-8.370250650554421,0.00010690315445051991,-0.0025751907332015374,-1.8928475468845083
18629,13.0,299.81764,74971.213,0.0,-0.09314449120638457,-0.09314325987719319,0.0,0.0,0.0,-5.690033707387604,-8.7324691201526,-8.366873893271162,0.004554469830841176,-0.0005410355806835546,-1.9009621603103581
18630,13.0,299.69879,74936.458,0.0,-0.09314950569512315,-0.09314826208738014,0.0,0.0,0.0,-5.686809849544435,-8.727165059854132,-8.364836956595132,0.0025705400165675473,-0.0018747102687694983,-1.899350687351318
18631,13.0,299.66535,74967.072,0.0,-0.09315448719380404,-0.09315326429756732,0.0,0.0,0.0,-5.693601158339685,-8.732036665009922,-8.362480035537521,-0.0023768275717246175,-0.0038913397915953368,-1.9060955892919882
18632,13.0,299.78914,74985.273,0.0,-0.09315950168254228,-0.0931582665077545,0.0,0.0,0.0,-5.698110526584724,-8.738693515516902,-8.356846466306534,-0.0078049067440093215,-0.0071280531440840724,-1.9051857920271984
18633,13.0,300.12215,74952.223,0.0,-0.09316448318122317,-0.09316326871794145,0.0,0.0,0.0,-5.694459178524365,-8.73059926841806,-8.358545686724232,-0.0052439823695657655,0.0038187885513100866,-1.902086665271338
18634,13.0,300.22121,74948.786,0.0,-0.09316949766996174,-0.09316827092812863,0.0,0.0,0.0,-5.691099139867754,-8.73650023435044,-8.354960098595361,0.00010841198517442991,-0.003400835044061287,-1.8999687699123182
18635,13.0,300.09778,75001.006,0.0,-0.09317451215869998,-0.09317327313831558,0.0,0.0,0.0,-5.689432444778265,-8.740632369583253,-8.368368335843652,-0.0014589440645115686,-0.0015535984438032285,-1.899069105148528
18636,13.0,300.25286,75052.714,0.0,-0.09317949365738087,-0.09317824243922512,0.0,0.0,0.0,-5.694602452088504,-8.747502509236282,-8.372046028406611,0.0015053891186203386,0.001133079184651209,-1.899856197826208
18637,13.0,300.01448,75042.307,0.0,-0.09318450814611934,-0.0931832446494123,0.0,0.0,0.0,-5.698908461038474,-8.748822774116581,-8.363256286439132,0.0013133343509410087,0.0016768103652382983,-1.9017471251628282
18638,13.0,299.95405,75048.952,0.0,-0.09318948964480023,-0.09318824685959926,0.0,0.0,0.0,-5.695888671765444,-8.744319688022161,-8.372798974555922,0.006746746359827025,-0.0018206593541100883,-1.9068902813454183
18639,13.0,299.99209,75042.906,0.0,-0.09319450413353858,-0.09319324906978632,0.0,0.0,0.0,-5.701636940907754,-8.744690942858801,-8.364841617545592,0.005017408805429695,-0.007114872280158223,-1.9044650672310681
18640,13.0,299.76088,75039.674,0.0,-0.09319948563221947,-0.0931982512799735,0.0,0.0,0.0,-5.6957108463728945,-8.744781628742752,-8.369694680224551,0.0050461747731186755,0.00017623621109315985,-1.9111341780642581
18641,13.0,299.95527000000004,75044.02900000001,0.0,-0.09320450012095793,-0.09320325349016045,0.0,0.0,0.0,-5.695781267254844,-8.74301968814386,-8.372709909872134,-0.003443534315200377,0.003291261874272257,-1.905798301712648
18642,13.0,300.14132,74982.716,0.0,-0.09320951460969629,-0.09320825570034763,0.0,0.0,0.0,-5.687466536934245,-8.741754240093972,-8.363652669878253,-0.0035134959922050566,0.000924762431744446,-1.9142945051261584
18643,13.0,300.11324,75035.782,0.0,-0.09321449610837718,-0.09321325791053459,0.0,0.0,0.0,-5.704793518944285,-8.74141318011031,-8.362797486793852,-0.0027795674326969474,-0.003009902789154277,-1.9003127683212682
18644,13.0,300.3889,75107.417,0.0,-0.09321951059711564,-0.09321826012072176,0.0,0.0,0.0,-5.708009574761685,-8.749046905038702,-8.373722754672093,0.0014679387869742785,0.005284711679860435,-1.9072441082803382
18645,13.0,300.25262000000004,75078.894,0.0,-0.09322449209579653,-0.09322326233090894,0.0,0.0,0.0,-5.707916457077495,-8.744151589830572,-8.370041110433743,0.0013021411797363288,0.0018166944051437783,-1.8979365955117582
18646,13.0,299.97213999999997,75071.063,0.0,-0.093229506584535,-0.0932282645410959,0.0,0.0,0.0,-5.695376169864865,-8.748061823291483,-8.376290634400522,-0.0029264476605678972,-0.0025056250343359378,-1.9011633917802182
18647,13.0,299.96349,75128.016,0.0,-0.093234488083216,-0.09323326675128307,0.0,0.0,0.0,-5.702370736630174,-8.756827145931553,-8.37784293355372,0.002217500782275288,0.0024368455162229272,-1.8948779987598983
18648,13.0,299.82011,75110.23599999999,0.0,-0.09323950257195424,-0.09323826896147003,0.0,0.0,0.0,-5.698942100941794,-8.753473592075583,-8.379220751039702,-0.0030084995390907868,0.004902561668870165,-1.9041467040496483
18649,13.0,299.96704,75134.187,0.0,-0.09324448407063513,-0.0932432711716572,0.0,0.0,0.0,-5.702550892497954,-8.75662145616125,-8.379744500016391,-0.0027792903087945973,0.0053423579098496755,-1.900994280338528
18650,13.0,300.09066,75136.976,0.0,-0.09324949855937359,-0.09324827338184427,0.0,0.0,0.0,-5.704006426266604,-8.751988978029061,-8.383769129413592,-0.00797577364149757,-0.0032956409385544367,-1.9089777792014382
18651,13.0,299.86731000000003,75056.575,0.0,-0.09325451304811194,-0.0932532426827537,0.0,0.0,0.0,-5.693806138834915,-8.742596250927074,-8.378922146235233,0.0017453880439313885,-0.004305563119925996,-1.9083482469143083
18652,13.0,299.91566,75065.558,0.0,-0.09325949454679283,-0.09325824489294088,0.0,0.0,0.0,-5.6910422965371446,-8.749823763890372,-8.377189083264192,0.0035197601069732773,0.0038542495690348164,-1.911054029981348
18653,13.0,300.05957,75169.59599999999,0.0,-0.0932645090355313,-0.09326324710312806,0.0,0.0,0.0,-5.709940930777295,-8.752256070755422,-8.387483197655142,0.00964715095969967,-0.005276494626849475,-1.9118386908587883
18654,13.0,300.07488,75140.867,0.0,-0.09326949053421218,-0.09326824931331512,0.0,0.0,0.0,-5.709757431184185,-8.75437467538951,-8.376815092652283,-0.00045411336356749953,-0.006714973065841244,-1.9049788863567783
18655,13.0,300.20684,75085.043,0.0,-0.09327450502295054,-0.09327325152350208,0.0,0.0,0.0,-5.700635849808954,-8.75528964022981,-8.368052708437501,0.0017433360098288682,-0.0056124968713103145,-1.9109334532194482
18656,13.0,300.16717,75129.719,0.0,-0.09327948652163143,-0.09327825373368903,0.0,0.0,0.0,-5.704222856487965,-8.757521019600032,-8.375814609503541,-0.0014982463133653985,0.0037190103689127463,-1.9070259555338083
18657,13.0,300.02862000000005,75196.48599999999,0.0,-0.09328450101036989,-0.09328325594387621,0.0,0.0,0.0,-5.704476371662985,-8.767803076314792,-8.385574639766782,-0.0017531387992463282,-0.0024162683318671176,-1.907589626564438
18658,13.0,300.13212999999996,75217.339,0.0,-0.09328948250905078,-0.09328825815406339,0.0,0.0,0.0,-5.699771446148644,-8.773132062565722,-8.391289167680762,-0.008228678839957372,-0.003173246102000007,-1.9022705701644882
18659,13.0,300.04727,75187.352,0.0,-0.09329449699778924,-0.09329326036425034,0.0,0.0,0.0,-5.7038389360250745,-8.763525235717601,-8.387713509402872,-0.001162814528710859,-0.0014248394846957085,-1.902488418935988
18660,13.0,299.85168999999996,75148.243,0.0,-0.0932995114865276,-0.09329826257443752,0.0,0.0,0.0,-5.701652038334245,-8.760052118349831,-8.381485263688193,-0.0005230560554766136,0.004578888955601155,-1.903784264488878
18661,13.0,299.85598999999996,75173.604,0.0,-0.09330449298520849,-0.09330326478462447,0.0,0.0,0.0,-5.707798616090865,-8.754018315329342,-8.389081599687891,0.009323434068726303,-0.0036648931876967963,-1.9030960650209583
18662,13.0,299.96644,75254.565,0.0,-0.09330950747394695,-0.09330826699481165,0.0,0.0,0.0,-5.713887337266774,-8.762497394816162,-8.399123820103982,0.001054017305848409,-0.0018662027169548683,-1.903389502249918
18663,13.0,299.88639,75214.37599999999,0.0,-0.09331448897262784,-0.09331326920499883,0.0,0.0,0.0,-5.715057438482254,-8.759980988192812,-8.388253875681201,0.004249836897551246,-0.002332666383341248,-1.9091771868211183
18664,13.0,300.10021,75131.034,0.0,-0.0933195034613662,-0.0933182714151859,0.0,0.0,0.0,-5.702649481732685,-8.754795782131072,-8.380513050217242,-3.904948044413366e-05,0.002886263276177007,-1.9121117617607382
18665,13.0,300.00406,75178.674,0.0,-0.09332448496004708,-0.09332324071609532,0.0,0.0,0.0,-5.722889557780225,-8.758751611846483,-8.370798616208502,-0.0010377823034711392,-0.002929365314230847,-1.9116727204924084
18666,13.0,299.7462,75284.39,0.0,-0.09332949944878555,-0.0933282429262825,0.0,0.0,0.0,-5.727110656371814,-8.766307823142222,-8.391156229267642,-0.0032662428041280666,0.004539462684935085,-1.9136921279417083
18667,13.0,299.628,75256.532,0.0,-0.0933345139375239,-0.09333324513646957,0.0,0.0,0.0,-5.717754811573465,-8.775290994553792,-8.383060563618661,-0.0034627137210432365,0.003751904722809166,-1.9126997507937682
18668,13.0,299.72323,75196.437,0.0,-0.09333949543620479,-0.09333824734665674,0.0,0.0,0.0,-5.695987767625224,-8.776289045902292,-8.385562278115563,-0.0038430742310318964,0.007746818534326462,-1.9133259393555682
18669,13.0,299.7475,75240.038,0.0,-0.09334450992494325,-0.0933432495568437,0.0,0.0,0.0,-5.708155786751115,-8.766330621269471,-8.39660650155554,-0.001160251512582909,-0.0007562661747201602,-1.9071372103947881
18670,13.0,300.05077,75249.851,0.0,-0.09334949142362414,-0.09334825176703065,0.0,0.0,0.0,-5.7035313132947145,-8.77167764337218,-8.398866555903592,0.0009994526429907959,-7.115476177217823e-05,-1.9058254568153281
18671,13.0,300.04171,75238.88799999999,0.0,-0.0933545059123625,-0.09335325397721783,0.0,0.0,0.0,-5.708196519405135,-8.76676104991195,-8.395785768974543,0.0037474033592399163,-0.003242421395602077,-1.902685496080438
18672,13.0,300.09661,75290.093,0.0,-0.0933594874110435,-0.09335825618740479,0.0,0.0,0.0,-5.7103360983162945,-8.77272818107586,-8.403243998985612,0.0004675986280883915,0.0031203044935500775,-1.9078529702654283
18673,13.0,300.01661,75284.021,0.0,-0.09336450189978185,-0.09336325839759196,0.0,0.0,0.0,-5.714496199251865,-8.773622779589152,-8.396343563154593,0.004659308184237916,-0.003236698356387257,-1.9073087536367181
18674,13.0,300.02207999999996,75261.73,0.0,-0.09336948339846274,-0.09336826060777892,0.0,0.0,0.0,-5.713589948362424,-8.770433372249382,-8.393663212665063,-0.0024703188412264878,0.0060536756920512745,-1.9110873659096381
18675,13.0,300.06226000000004,75323.86200000001,0.0,-0.0933744978872012,-0.0933732628179661,0.0,0.0,0.0,-5.719390501209895,-8.779580284877111,-8.397602323753823,-0.0018843022008411482,-0.0015209917516101987,-1.9161020419795483
18676,13.0,299.85418,75342.025,0.0,-0.09337951237593956,-0.09337826502815327,0.0,0.0,0.0,-5.729313867389254,-8.776950698217592,-8.395829642703871,-0.003461762583174367,0.0021578698993151776,-1.9145629150776482
18677,13.0,299.83288,75339.101,0.0,-0.09338449387462044,-0.09338326723834034,0.0,0.0,0.0,-5.733368286339394,-8.774449895645782,-8.393387304662832,-0.005915253873365104,-0.005078599080293705,-1.9111125958371282
18678,13.0,300.01532000000003,75343.594,0.0,-0.09338950836335891,-0.09338826944852752,0.0,0.0,0.0,-5.732378948941754,-8.776300191653391,-8.393892207187664,0.004590424706664646,-0.006271453029419224,-1.9135863446312682
18679,13.0,299.97206,75332.922,0.0,-0.0933944898620398,-0.09339323874943695,0.0,0.0,0.0,-5.723860555351054,-8.771218843726901,-8.404247724534672,0.00021346002054686375,-0.006028476972664354,-1.906424388949438
18680,13.0,300.08026,75322.997,0.0,-0.09339950435077815,-0.09339824095962401,0.0,0.0,0.0,-5.713372504890965,-8.780451375988083,-8.402486290560832,0.0023782144071364877,0.00019326929991169483,-1.9099746146498182
18681,13.0,300.13027999999997,75339.694,0.0,-0.09340448584945904,-0.09340324316981119,0.0,0.0,0.0,-5.707833370569294,-8.782145732805303,-8.411406640466202,0.0016419231510451987,-0.0037341754805094263,-1.907191723250168
18682,13.0,300.31286,75393.45599999999,0.0,-0.0934095003381975,-0.09340824537999814,0.0,0.0,0.0,-5.7214251074106945,-8.784990331136042,-8.411312712181932,-0.002441463099578648,0.0037921355140546364,-1.909727584275438
18683,13.0,300.39607,75359.119,0.0,-0.0934144818368784,-0.09341324759018532,0.0,0.0,0.0,-5.716514998751104,-8.788058148463811,-8.402717311583633,0.00039003226590318755,-0.00035763818397864067,-1.9132420422472882
18684,13.0,300.05447999999996,75328.68400000001,0.0,-0.09341949632561675,-0.0934182498003725,0.0,0.0,0.0,-5.713388210267515,-8.780784532620961,-8.403866438522043,-0.0012532574352868788,-0.002144312410327158,-1.915342712354608
18685,13.0,299.88941,75388.717,0.0,-0.09342451081435521,-0.09342325201055945,0.0,0.0,0.0,-5.720404257934945,-8.787723573280791,-8.408159781845763,-0.0002750881917065907,-0.004969210119372855,-1.9185707245231882
18686,13.0,299.91347,75431.194,0.0,-0.0934294923130361,-0.09342825422074641,0.0,0.0,0.0,-5.728262417760485,-8.788984664355251,-8.411952376970062,0.0021355742427897682,-0.004882097360575495,-1.918194099461018
18687,13.0,299.97467,75399.225,0.0,-0.09343450680177434,-0.09343325643093348,0.0,0.0,0.0,-5.723517266217175,-8.785637493974912,-8.410327022484651,0.002064658489490928,-0.00013184199545179188,-1.921230100735648
18688,13.0,300.02772999999996,75384.719,0.0,-0.09343948830045545,-0.09343825864112065,0.0,0.0,0.0,-5.732950523323165,-8.781947034460693,-8.400174560457682,0.0003216705006739067,0.00014192014571642785,-1.9165267964214683
18689,13.0,300.02126,75404.503,0.0,-0.0934445027891938,-0.09344326085130772,0.0,0.0,0.0,-5.725272418040395,-8.785770533713041,-8.410043109806633,-0.00033678015709261367,-0.004455120050586116,-1.9141939907162382
18690,13.0,299.99342,75397.746,0.0,-0.0934494842878747,-0.09344826306149479,0.0,0.0,0.0,-5.721429971011174,-8.788295958262282,-8.409306274333913,-0.0032407340302105466,0.0011177010878835089,-1.9139922526213284
18691,13.0,300.13912,75430.515,0.0,-0.09345449877661316,-0.09345326527168196,0.0,0.0,0.0,-5.725193080557565,-8.785517525163073,-8.418282352994783,0.0007821738550695493,-0.0008048960594895562,-1.912409758615148
18692,13.0,300.14718999999997,75442.891,0.0,-0.09345951326535162,-0.09345826748186892,0.0,0.0,0.0,-5.7250937820477645,-8.783469544060951,-8.424191728902992,0.0020516061056777583,0.006040615810187364,-1.9050726119910282
18693,13.0,300.20894,75454.421,0.0,-0.0934644947640324,-0.09346323678277846,0.0,0.0,0.0,-5.728580375641865,-8.79257866245995,-8.415100747680782,-0.004490714209373986,0.004647637366936095,-1.912986905872108
18694,13.0,300.21772000000004,75511.538,0.0,-0.09346950925277087,-0.09346823899296564,0.0,0.0,0.0,-5.746205354506315,-8.790488631478683,-8.416928144236133,0.0014694632217497287,0.007728599993553431,-1.9055867350917681
18695,13.0,300.05276000000003,75536.261,0.0,-0.09347449075145176,-0.09347324120315259,0.0,0.0,0.0,-5.744913967253865,-8.79923429706681,-8.416988837917122,-0.006497122977116114,0.0030447319441166474,-1.917450171237598
18696,13.0,300.00932,75468.108,0.0,-0.09347950524019,-0.09347824341333977,0.0,0.0,0.0,-5.729328052890654,-8.797685645613972,-8.413406593513582,0.0017833386171518183,-0.0003720578272117486,-1.9152038970909082
18697,13.0,300.09107,75424.027,0.0,-0.09348448673887089,-0.09348324562352694,0.0,0.0,0.0,-5.7276520359002445,-8.794572130706692,-8.40479660211384,0.0047687323049372355,-0.0034383970358683666,-1.9267945663098183
18698,13.0,299.8862,75480.155,0.0,-0.09348950122760946,-0.0934882478337139,0.0,0.0,0.0,-5.727048341490665,-8.800385450505422,-8.416648487208533,0.005089231012267995,0.001026758750333199,-1.917930046484958
18699,13.0,299.85055,75463.092,0.0,-0.09349448272629035,-0.09349325004390108,0.0,0.0,0.0,-5.736102845709275,-8.791906573668623,-8.410886133889832,0.003916467178175216,-0.001037111633229949,-1.9246530622234679
18700,13.0,300.16076,75454.418,0.0,-0.09349949721502859,-0.09349825225408803,0.0,0.0,0.0,-5.732189369848045,-8.792598319511892,-8.411471285822582,0.001825377958500778,-0.0010450190370103489,-1.910930818769188
18701,13.0,300.06257999999997,75457.767,0.0,-0.09350451170376717,-0.0935032544642751,0.0,0.0,0.0,-5.725835075820925,-8.799293774847682,-8.412148136889382,0.003243054778239587,-0.00014171714105889286,-1.9182487136414081
18702,13.0,299.73257,75473.818,0.0,-0.09350949320244806,-0.09350825667446228,0.0,0.0,0.0,-5.719820321902315,-8.799262364094583,-8.423073303442612,-0.0004759553880231395,-0.0020739604293839578,-1.9122784414021878
18703,13.0,299.89947,75534.255,0.0,-0.0935145076911863,-0.09351325888464923,0.0,0.0,0.0,-5.7262238598842945,-8.807361170818872,-8.426942398949462,-0.0008869143183741281,0.0015932525944167887,-1.9173822834808982
18704,13.0,299.77691,75601.593,0.0,-0.09351948918986741,-0.09351826109483641,0.0,0.0,0.0,-5.736981536195994,-8.80816862982356,-8.435846232878202,-0.0027576648158853276,-0.002136115824968218,-1.9113793845884584
18705,13.0,299.89496,75540.173,0.0,-0.09352450367860587,-0.09352326330502336,0.0,0.0,0.0,-5.740917506209445,-8.801186627359492,-8.42022211898622,-0.004910751060153396,0.0032008355849978774,-1.917340132276738
18706,13.0,300.07149,75492.573,0.0,-0.09352948517728665,-0.09352826551521054,0.0,0.0,0.0,-5.737511364673285,-8.79727507667345,-8.413070701105433,-0.002373649006160918,0.003074627584342117,-1.911146134415438
18707,13.0,299.99432,75537.768,0.0,-0.09353449966602512,-0.09353326772539772,0.0,0.0,0.0,-5.742586025149115,-8.798352465504783,-8.420656701954112,-0.0002700059419875118,-0.0017250252632967382,-1.919630584127788
18708,13.0,299.95054,75579.172,0.0,-0.093539481164706,-0.09353823702630704,0.0,0.0,0.0,-5.7479640527048845,-8.800011155918481,-8.426205867451772,0.008284380339029682,-0.004752130202048735,-1.9117669527517085
18709,13.0,300.34835,75563.239,0.0,-0.09354449565344425,-0.09354323923649421,0.0,0.0,0.0,-5.735978925222045,-8.802898209428411,-8.430460605946683,0.0016584993147311386,-0.008112261571042882,-1.9206573104541182
18710,13.0,300.19147999999996,75542.109,0.0,-0.09354951014218282,-0.09354824144668139,0.0,0.0,0.0,-5.736974950070345,-8.798569098376161,-8.427370801091742,0.007982566774143003,-0.0033462898660030966,-1.9164345906623683
18711,13.0,299.9887,75589.055,0.0,-0.09355449164086371,-0.09355324365686835,0.0,0.0,0.0,-5.743327116272254,-8.805429206853201,-8.428428938171173,-0.006276353613527874,-0.0036289205799965767,-1.9142180047436081
18712,13.0,299.93118,75612.19,0.0,-0.09355950612960195,-0.09355824586705552,0.0,0.0,0.0,-5.750932672847865,-8.80229025936841,-8.430994690074392,0.0015014850659850387,-0.004289957852485876,-1.915633819108338
18713,13.0,300.04398,75604.901,0.0,-0.09356448762828284,-0.09356324807724248,0.0,0.0,0.0,-5.736566204980004,-8.812740920899811,-8.432694923742192,-0.004776506466329485,-0.002329017973706178,-1.919551145319948
18714,13.0,299.947,75589.255,0.0,-0.09356950211702142,-0.09356825028742966,0.0,0.0,0.0,-5.734546189580644,-8.812088286510402,-8.430611478886572,0.004941816193644285,0.0064494628334874245,-1.919015439992078
18715,13.0,299.99377999999996,75596.09700000001,0.0,-0.09357448361570231,-0.09357325249761683,0.0,0.0,0.0,-5.720546315598965,-8.820545581120072,-8.438233956738852,-0.002945227339246307,0.007850769989910673,-1.918886655904368
18716,13.0,300.0261,75641.673,0.0,-0.09357949810444055,-0.0935782547078039,0.0,0.0,0.0,-5.739380000507704,-8.818387966357133,-8.435411751235321,-0.0034745643902378063,-0.002922498113003107,-1.918389960705348
18717,13.0,300.01496000000003,75674.47,0.0,-0.09358451259317901,-0.09358325691799085,0.0,0.0,0.0,-5.749417863948365,-8.81640787301171,-8.437323450198992,-0.002930138525382157,0.002957996317006507,-1.917731145490328
18718,13.0,299.95703,75588.891,0.0,-0.09358949409186013,-0.09358825912817781,0.0,0.0,0.0,-5.746206874381465,-8.80723573045649,-8.423692601903733,0.003026095842977407,0.009077819610036042,-1.921832781895128
18719,13.0,300.11262999999997,75512.674,0.0,-0.09359450858059848,-0.09359326133836499,0.0,0.0,0.0,-5.732723150000724,-8.801835411398521,-8.419408681805942,0.0027496191034662777,0.004938411571983275,-1.920103062649418
18720,13.0,299.94487000000004,75600.845,0.0,-0.09359949007927937,-0.09359826354855216,0.0,0.0,0.0,-5.744702907258035,-8.802394016178651,-8.43367230478865,0.0036309840638252266,-0.007923891183377173,-1.923012407661548
18721,13.0,299.94117,75702.31,0.0,-0.09360450456801783,-0.09360326575873912,0.0,0.0,0.0,-5.754805314730065,-8.812873859312932,-8.443932779276283,-0.0023813672361476476,0.0006362825187661953,-1.921919718753708
18722,13.0,300.0748,75665.173,0.0,-0.0936094860666985,-0.09360823505964866,0.0,0.0,0.0,-5.756421752614594,-8.807942776376272,-8.435958703639301,0.005691026185860555,-0.0022401354722841583,-1.9214758138848984
18723,13.0,299.9927,75661.359,0.0,-0.09361450055543707,-0.09361323726983584,0.0,0.0,0.0,-5.750937840423374,-8.812805464931182,-8.435420667836201,-0.0043159937191054164,0.0006120279255574535,-1.9208981600028883
18724,13.0,299.91433,75742.65299999999,0.0,-0.09361948205411796,-0.09361823948002279,0.0,0.0,0.0,-5.755888580411974,-8.822820834219621,-8.445165803322972,-0.00017402254333468786,-0.005916718526384655,-1.919033374518848
18725,13.0,299.83325,75768.5,0.0,-0.0936244965428562,-0.09362324169020997,0.0,0.0,0.0,-5.758583623027954,-8.823188846655942,-8.449959590871082,-0.003230280227603837,0.001236889291846469,-1.9194942006643283
18726,13.0,300.0321,75740.604,0.0,-0.09362951103159467,-0.09362824390039692,0.0,0.0,0.0,-5.747593912443354,-8.828567482161773,-8.447091181162993,-0.0014274972397080089,0.001948719271973618,-1.9192983394199983
18727,13.0,299.89983,75643.869,0.0,-0.09363449253027556,-0.0936332461105841,0.0,0.0,0.0,-5.736043874553454,-8.817652245459522,-8.440151329903083,-0.0024393957653996174,-0.0011864097798145287,-1.9215482612670483
18728,13.0,300.02605,75623.058,0.0,-0.09363950701901391,-0.09363824832077128,0.0,0.0,0.0,-5.735966259595795,-8.820884006653474,-8.430670956667441,-0.004351767729786036,-0.0033587951960872774,-1.9173737721800583
18729,13.0,300.23902000000004,75708.592,0.0,-0.0936444885176948,-0.09364325053095834,0.0,0.0,0.0,-5.755104324834575,-8.821537958268012,-8.436879241355152,-0.00036260458881378667,0.004015613700460215,-1.9249784168305784
18730,13.0,299.91275,75720.122,0.0,-0.09364950300643327,-0.09364825274114552,0.0,0.0,0.0,-5.755740139272325,-8.817220296941892,-8.444065920339423,0.0036093389138640167,0.0019294680266986684,-1.9205073494393183
18731,13.0,300.07712999999995,75657.092,0.0,-0.09365448450511438,-0.09365325495133248,0.0,0.0,0.0,-5.744560444293975,-8.82033371052416,-8.432972655594602,0.0024315893826541875,-0.0007827552377119273,-1.9289374889463082
18732,13.0,300.21737,75680.35,0.0,-0.09365949899385273,-0.09365825716151943,0.0,0.0,0.0,-5.737146999937324,-8.822465183434522,-8.445324579613642,0.004526369669792906,-0.012528392669706089,-1.9240161332106083
18733,13.0,299.84719,75794.30099999999,0.0,-0.09366448049253362,-0.09366325937170661,0.0,0.0,0.0,-5.757295579500835,-8.825463491805433,-8.456815950322751,0.000958192663221253,-0.0023079265649246176,-1.9231751356276083
18734,13.0,299.84372,75865.311,0.0,-0.09366949498127208,-0.09366826158189356,0.0,0.0,0.0,-5.771411977244015,-8.83409800385759,-8.455650104757693,-0.0031664151751258467,-0.000988153739138181,-1.915208355391348
18735,13.0,300.0198,75757.17599999999,0.0,-0.09367450947001033,-0.09367326379208074,0.0,0.0,0.0,-5.758783942572725,-8.820192564785232,-8.449313339957301,-0.002182434830764548,-0.005585509056221825,-1.9197795318924882
18736,13.0,299.72471,75701.464,0.0,-0.09367949096869121,-0.09367823309299028,0.0,0.0,0.0,-5.749903008096244,-8.819596165776373,-8.441855616571281,-0.0037140627699994567,-0.003309967788343387,-1.9214297110053482
18737,13.0,300.14502999999996,75818.283,0.0,-0.09368450545742979,-0.09368323530317724,0.0,0.0,0.0,-5.761106615776954,-8.82917735739696,-8.456580977624562,0.004614223114413366,0.00887302079054897,-1.9206670376550783
18738,13.0,300.00837,75839.11,0.0,-0.09368948695611046,-0.09368823751336441,0.0,0.0,0.0,-5.760020209019735,-8.831049843581761,-8.462125684821782,0.0008860757221938651,0.006202599949348954,-1.9179343021353783
18739,13.0,300.0582,75781.64,0.0,-0.09369450144484892,-0.09369323972355148,0.0,0.0,0.0,-5.755360677109874,-8.830833717335432,-8.44953189800387,-0.003413425487153866,0.005394909214361085,-1.9191711765324482
18740,13.0,300.25512000000003,75761.866,0.0,-0.09369948294352981,-0.09369824193373855,0.0,0.0,0.0,-5.761889655454235,-8.822578870095741,-8.445247167306002,-0.0008825951169078561,0.0005211166441227086,-1.9214693290842582
18741,13.0,300.17179,75799.516,0.0,-0.09370449743226816,-0.09370324414392572,0.0,0.0,0.0,-5.760499881617075,-8.83466410668846,-8.445996060454911,6.110783480937374e-05,0.008041369021171332,-1.9235752680920981
18742,13.0,300.05126,75881.104,0.0,-0.09370951192100663,-0.09370824635411279,0.0,0.0,0.0,-5.770640691267895,-8.83980077807041,-8.455519294169783,0.0027224384668837576,0.0006991523367309634,-1.930026023528738
18743,13.0,299.94588,75900.616,0.0,-0.09371449341968752,-0.09371324856429997,0.0,0.0,0.0,-5.762040427069115,-8.839006086016983,-8.470845613857371,0.00030628230180270973,-0.0038059125743393264,-1.925496694256728
18744,13.0,299.778,75803.586,0.0,-0.09371950790842587,-0.09371825077448692,0.0,0.0,0.0,-5.743441106908504,-8.84418156487776,-8.4547747579963,-0.00016504157067583482,-0.005153754373335955,-1.9369382130609183
18745,13.0,299.98932,75798.728,0.0,-0.09372448940710698,-0.0937232529846741,0.0,0.0,0.0,-5.750373460117674,-8.8324161100166,-8.458130946302532,0.0033334078095317364,0.00014512838937555685,-1.9281460392931982
18746,13.0,300.02226,75855.397,0.0,-0.09372950389584522,-0.09372825519486105,0.0,0.0,0.0,-5.766294760263985,-8.834644044336482,-8.457207774136421,0.0051022049705234255,-0.0018281951990788184,-1.9262560238816684
18747,13.0,300.08889,75854.656,0.0,-0.09373448539452633,-0.09373325740504823,0.0,0.0,0.0,-5.764526942814515,-8.834320817554582,-8.459073674195572,-0.002015761167490138,-0.0047675955396500455,-1.9223779104489283
18748,13.0,300.29652999999996,75847.02,0.0,-0.09373949988326458,-0.09373825961523519,0.0,0.0,0.0,-5.766391626973545,-8.83134763778615,-8.457861117800903,0.004283503550673886,-0.003138859939981357,-1.925259188433288
18749,13.0,300.26511,75856.198,0.0,-0.09374448138194547,-0.09374326182542225,0.0,0.0,0.0,-5.755478011471454,-8.842962219707422,-8.459949831557042,-0.0023269597587780473,0.0046494722615421855,-1.9213426728217582
18750,13.0,300.25779,75890.21,0.0,-0.09374949587068404,-0.09374826403560943,0.0,0.0,0.0,-5.762697621083975,-8.841963965708901,-8.46406747731342,0.0015836628914953582,0.0028113728467108975,-1.926207590526888
18751,13.0,300.10992000000005,75951.392,0.0,-0.09375451035942228,-0.09375323333651886,0.0,0.0,0.0,-5.774882662811544,-8.8426195385236,-8.469824359081581,-0.007394258668656513,-0.004786281188719176,-1.917618674729228
18752,13.0,299.86487,75972.07,0.0,-0.09375949185810317,-0.09375823554670593,0.0,0.0,0.0,-5.787586893890354,-8.84735101119056,-8.458674251006151,0.000946950126471701,-0.0008081845829541083,-1.9242228362310083
18753,13.0,299.79413,75919.657,0.0,-0.09376450634684175,-0.0937632377568931,0.0,0.0,0.0,-5.775019856875085,-8.838881557579692,-8.463778701034922,-0.0003687744003951996,-0.001977269518716308,-1.920590942572568
18754,13.0,300.17093,75865.366,0.0,-0.09376948784552241,-0.09376823996708017,0.0,0.0,0.0,-5.761306124721645,-8.845303840688523,-8.4545670417258,0.0022644298659568276,-0.0011903201146004488,-1.9349212374118583
18755,13.0,300.10112000000004,75923.76,0.0,-0.09377450233426088,-0.09377324217726724,0.0,0.0,0.0,-5.7589697726410645,-8.845588259991592,-8.474369393730141,0.002818343602098857,-0.008591567574496702,-1.928080178036698
18756,13.0,300.01139,75959.286,0.0,-0.09377948383294177,-0.09377824438745441,0.0,0.0,0.0,-5.768356724217485,-8.849216201974642,-8.472153213111422,0.0014284184866989284,0.00025224849080498774,-1.932061035029578
18757,13.0,300.00608,75869.004,0.0,-0.09378449832168012,-0.09378324659764137,0.0,0.0,0.0,-5.757322531953494,-8.847941330698822,-8.457019005642792,0.002356266700695418,0.0002929478392942007,-1.927570209261368
18758,13.0,300.0037,75826.41900000001,0.0,-0.09378947982036112,-0.09378824880782854,0.0,0.0,0.0,-5.7552833661272444,-8.835527598423683,-8.458527025766623,-0.003280995522934047,-0.003594108548960897,-1.9287891491316682
18759,13.0,299.65056,75930.918,0.0,-0.09379449430909947,-0.09379325101801572,0.0,0.0,0.0,-5.768742975155604,-8.851898477639361,-8.460461522857543,-0.002008812906254398,0.003261852391444767,-1.9224487366309182
18760,13.0,299.84389,76018.631,0.0,-0.09379950879783783,-0.09379825322820268,0.0,0.0,0.0,-5.774261236525215,-8.857896614256331,-8.475607788002362,-0.0016039343782959985,7.395320453436303e-05,-1.9299927889254584
18761,13.0,299.95277000000004,75958.519,0.0,-0.09380449029651883,-0.09380325543838985,0.0,0.0,0.0,-5.763890216451674,-8.851879833837522,-8.473723041491352,0.004210863853654905,0.008975691194031752,-1.9279258600464682
18762,13.0,300.01954,75922.818,0.0,-0.09380950478525718,-0.09380825764857681,0.0,0.0,0.0,-5.764296732391794,-8.85425479074691,-8.460089254770802,-0.007907104061020413,0.005910892236984645,-1.9330916117062882
18763,13.0,300.22087999999997,75989.13900000001,0.0,-0.09381448628393829,-0.09381325985876388,0.0,0.0,0.0,-5.782129832826785,-8.847761681456092,-8.468909394241281,0.0054985316676378244,0.0033809827388270168,-1.9260457744859183
18764,13.0,300.10167,76024.15299999999,0.0,-0.09381950077267653,-0.09381826206895105,0.0,0.0,0.0,-5.7858366056676145,-8.858690901009723,-8.464916682222231,-0.008642747850297804,0.0017796583914636082,-1.931978049846388
18765,13.0,299.81833,76003.424,0.0,-0.09382448227135742,-0.09382323136986048,0.0,0.0,0.0,-5.7816816723075535,-8.851238041224182,-8.470223275645951,0.003103869779578097,-0.004234964209933426,-1.9297856806050182
18766,13.0,299.86124,75984.173,0.0,-0.09382949676009589,-0.09382823358004766,0.0,0.0,0.0,-5.7698386024887345,-8.847160013546711,-8.480292752489731,-0.0018764380628400181,0.001830190491175738,-1.930034737479598
18767,13.0,300.09296,75963.632,0.0,-0.09383451124883424,-0.09383323579023473,0.0,0.0,0.0,-5.766323131266785,-8.848764495080061,-8.475959689762092,0.002464094243212168,0.0016005087823579185,-1.9262271462538179
18768,13.0,300.04677999999996,76037.07,0.0,-0.09383949274751513,-0.09383823800042168,0.0,0.0,0.0,-5.783053612942954,-8.851724299947172,-8.478592721471951,-0.0028539889300167776,-0.0005683525196695264,-1.9223768971988284
18769,13.0,300.12138999999996,76079.718,0.0,-0.0938445072362536,-0.09384324021060886,0.0,0.0,0.0,-5.7880245166085444,-8.85601764327089,-8.482292198912061,-0.0015189512685588186,-0.0015949061172549786,-1.9244781752562081
18770,13.0,299.99396,76022.718,0.0,-0.09384948873493437,-0.09384824242079581,0.0,0.0,0.0,-5.776180433539624,-8.859495624239141,-8.473331926952751,-0.0006281879676923254,-0.0014867050907513685,-1.9285033112784582
18771,13.0,299.85509,75997.577,0.0,-0.09385450322367284,-0.09385324463098299,0.0,0.0,0.0,-5.768322476364104,-8.85814263138061,-8.474900539432562,0.004635049862268805,-0.008041514929185733,-1.9294016588171181
18772,13.0,299.76055,76077.63900000001,0.0,-0.09385948472235373,-0.09385824684117017,0.0,0.0,0.0,-5.772831439309104,-8.867668600870752,-8.485202557174292,-0.0035071360239773766,0.003108131712148717,-1.9318138020051783
18773,13.0,299.80342,76079.283,0.0,-0.09386449921109208,-0.09386324905135712,0.0,0.0,0.0,-5.776128352484484,-8.864325483490811,-8.485748496328172,0.0013747504792523087,-0.0002499770779233168,-1.9398171605700483
18774,13.0,299.81417000000005,76047.54,0.0,-0.09386948070977308,-0.0938682512615443,0.0,0.0,0.0,-5.775144790612415,-8.861594267846261,-8.479814194467501,-0.002055327469320028,0.007921268892118373,-1.9300481123809181
18775,13.0,299.86484,76053.452,0.0,-0.09387449519851143,-0.09387325347173126,0.0,0.0,0.0,-5.782376964526174,-8.859036115318792,-8.476937172133562,0.0016168282897935284,0.0008196931079874111,-1.9317962727784483
18776,13.0,299.97929,76041.67,0.0,-0.09387950968724967,-0.09387825568191843,0.0,0.0,0.0,-5.776880893333754,-8.857854057752132,-8.480033968414192,0.0022151540950436878,-0.002678413864613867,-1.931132999262988
18777,13.0,300.04955,76063.268,0.0,-0.09388449118593079,-0.0938832578921055,0.0,0.0,0.0,-5.778531376421644,-8.862921828127282,-8.479880866324082,0.00020304233017371783,-0.0020349143301554083,-1.9313974575390882
18778,13.0,300.03466000000003,76113.761,0.0,-0.09388950567466925,-0.09388826010229268,0.0,0.0,0.0,-5.781799817269214,-8.862652202275672,-8.492230763842922,0.0025533040244164872,-0.0060005079261790245,-1.9297603493525182
18779,13.0,299.72909,76074.82400000001,0.0,-0.09389448717335014,-0.0938932294032021,0.0,0.0,0.0,-5.784612498221804,-8.860183621057041,-8.480050788365851,0.0031208454677784667,-0.01078922385356349,-1.9233430311691784
18780,13.0,299.99778,76066.43,0.0,-0.09389950166208849,-0.09389823161338928,0.0,0.0,0.0,-5.781291267044025,-8.867483581402492,-8.473520695446384,0.003358745546832377,-0.002233640336493138,-1.940413863553938
18781,13.0,299.93227,76148.661,0.0,-0.09390448316076938,-0.09390323382357635,0.0,0.0,0.0,-5.790451655898084,-8.86978639490476,-8.487053461131962,0.003950044158664006,0.0014979005924312784,-1.928176132821168
18782,13.0,300.20045,76203.43400000001,0.0,-0.09390949764950784,-0.0939082360337633,0.0,0.0,0.0,-5.789982115801744,-8.881568264417542,-8.492390553383691,-0.001329072658119259,0.010691715756690189,-1.9382462176150081
18783,13.0,300.12481,76132.864,0.0,-0.09391447914818862,-0.09391323824395026,0.0,0.0,0.0,-5.777809030425354,-8.87439718948481,-8.490283601125752,-0.003242728917007427,-0.000976740023916735,-1.924503101208668
18784,13.0,299.97508999999997,76100.26,0.0,-0.09391949363692709,-0.09391824045413744,0.0,0.0,0.0,-5.7694299587234035,-8.872128623835922,-8.491020335273463,-0.0013447991102713388,0.004300898420440626,-1.9383738871276084
18785,13.0,300.0546,76158.51400000001,0.0,-0.09392450812566555,-0.09392324266432461,0.0,0.0,0.0,-5.785722513706355,-8.87042869414315,-8.494135572705913,-0.0036672158609010273,0.0078105216694384725,-1.9258101938376682
18786,13.0,300.21959,76168.912,0.0,-0.09392948962434622,-0.09392824487451157,0.0,0.0,0.0,-5.793092084333674,-8.86713765781835,-8.493217568115313,0.0019750234472196383,0.006769245476972514,-1.930673389017628
18787,13.0,300.04012,76116.06599999999,0.0,-0.0939345041130848,-0.09393324708469875,0.0,0.0,0.0,-5.781152958405374,-8.872076542780782,-8.4841539446458,-0.00047024156938422953,-0.003983971318387357,-1.9323536616584582
18788,13.0,299.8401,76075.36,0.0,-0.09393948561176568,-0.0939382492948857,0.0,0.0,0.0,-5.781279614667874,-8.863660588775192,-8.480069634817712,0.002210922256001038,0.005003702470001986,-1.9393878465026781
18789,13.0,299.70517,76153.459,0.0,-0.09394450010050392,-0.09394325150507288,0.0,0.0,0.0,-5.782127603676565,-8.874513307946273,-8.492108971180903,0.007960670135506972,0.005384763439784775,-1.9406017201224781
18790,13.0,299.707,76195.723,0.0,-0.09394948159918504,-0.09394825371526005,0.0,0.0,0.0,-5.791297213106534,-8.877462068387292,-8.492838105952861,0.0021530992138693483,0.004313054888515376,-1.933716584367968
18791,13.0,299.99737000000005,76217.085,0.0,-0.0939544960879235,-0.09395325592544712,0.0,0.0,0.0,-5.7906185381895545,-8.879784842916532,-8.497687520931462,1.4271891103525986e-05,-0.010014785656382391,-1.9398134115446781
18792,13.0,299.94789,76178.55,0.0,-0.09395951057666185,-0.0939582581356343,0.0,0.0,0.0,-5.793406090539665,-8.877289410570251,-8.485681419171552,-0.0031991912827355968,0.000902172902292533,-1.9413743233237282
18793,13.0,299.75632,76164.369,0.0,-0.09396449207534274,-0.09396322743654373,0.0,0.0,0.0,-5.786111196444715,-8.874041842674742,-8.491913211261583,0.003106947628081857,0.0074940072641509325,-1.9400920553221783
18794,13.0,299.77735,76253.012,0.0,-0.0939695065640812,-0.0939682296467308,0.0,0.0,0.0,-5.8006592387304945,-8.877847914025372,-8.500504660184491,-0.0030861180431261373,0.004522517495562726,-1.9299086891671582
18795,13.0,300.07138,76247.009,0.0,-0.0939744880627621,-0.09397323185691797,0.0,0.0,0.0,-5.7928739315871445,-8.877867165777271,-8.506445750820832,-0.0002403597943341648,-0.008183788010176992,-1.9294763353494881
18796,13.0,300.06466,76182.539,0.0,-0.09397950255150045,-0.09397823406710493,0.0,0.0,0.0,-5.788327782363474,-8.873818319702682,-8.495443577260001,0.0005995789423113343,-0.004358078960683906,-1.926754644255878
18797,13.0,300.05751000000004,76226.387,0.0,-0.09398448405018134,-0.0939832362772921,0.0,0.0,0.0,-5.795856635906515,-8.879346105623233,-8.495715533586841,0.008080350880343543,0.0019136305223356282,-1.9303763040883084
18798,13.0,299.98062999999996,76317.517,0.0,-0.0939894985389198,-0.09398823848747906,0.0,0.0,0.0,-5.808023743107315,-8.88853030585464,-8.502065369313522,-0.002036303293392488,-0.006079383468288433,-1.932808610953358
18799,13.0,300.02243,76301.974,0.0,-0.09399448003760047,-0.09399324069766601,0.0,0.0,0.0,-5.798266549944354,-8.89271067179221,-8.50291741132261,0.0016297996135986987,-0.009348102858310921,-1.942310667741138
18800,13.0,300.19867999999997,76274.4,0.0,-0.09399949452633904,-0.09399824290785319,0.0,0.0,0.0,-5.789366971666035,-8.891602176182811,-8.504543779058123,-0.007129212200873463,0.0024763536574970778,-1.9381703251825182
18801,13.0,299.99014,76254.828,0.0,-0.09400450901507751,-0.09400324511804026,0.0,0.0,0.0,-5.792283105453835,-8.884699815176601,-8.502580708314381,0.0013191966107195688,0.008160468565750542,-1.9424339802783084
18802,13.0,299.83248,76257.73,0.0,-0.09400949051375818,-0.09400824732822732,0.0,0.0,0.0,-5.796386261733785,-8.880376580974932,-8.503682921773162,-0.0050448599797889146,-0.0004114231306193017,-1.9308575978858085
18803,13.0,299.91933,76268.719,0.0,-0.09401450500249664,-0.0940132495384145,0.0,0.0,0.0,-5.799049285646603,-8.883402956373612,-8.501333802741321,-0.0012142049525826987,-0.009086688892136372,-1.9453237695635084
18804,13.0,299.91413,76302.193,0.0,-0.09401948650117775,-0.09401825174860157,0.0,0.0,0.0,-5.794472738919935,-8.88642497479686,-8.51306389517399,0.002267825773666978,0.0038016198389656665,-1.9356442926832182
18805,13.0,299.87185,76285.18,0.0,-0.0940245009899161,-0.09402325395878874,0.0,0.0,0.0,-5.7939792861212345,-8.89137267503516,-8.50343801922399,0.0037402930793131867,0.01010876288063222,-1.9437234423555683
18806,13.0,299.85306,76254.311,0.0,-0.094029482488597,-0.0940282561689757,0.0,0.0,0.0,-5.786340697592364,-8.884076666365102,-8.508988907246822,0.0009716282683547441,-0.0005706399013727736,-1.930913427966318
18807,13.0,299.73746,76300.429,0.0,-0.09403449697733546,-0.09403325837916288,0.0,0.0,0.0,-5.793285108477725,-8.890672012591011,-8.509468174544121,-0.005567254038445195,-0.0032079871042036768,-1.9379165060324681
18808,13.0,300.07496000000003,76362.943,0.0,-0.09403947847601635,-0.09403822768007242,0.0,0.0,0.0,-5.8030802985194345,-8.894157896910041,-8.515189795208801,-0.0003900071575657096,0.0012576026570157188,-1.9296087671375584
18809,13.0,300.0169,76336.87400000001,0.0,-0.0940444929647547,-0.09404322989025937,0.0,0.0,0.0,-5.799891701779744,-8.895268621669661,-8.50934324080679,0.0007076689267364852,-0.0038947190820038456,-1.938308937796198
18810,13.0,299.92304,76306.003,0.0,-0.09404950745349316,-0.09404823210044655,0.0,0.0,0.0,-5.795728966393915,-8.893621583632111,-8.505769001079042,0.00019139094700881584,-0.0012438643028848488,-1.9404304808555783
18811,13.0,300.14709,76338.195,0.0,-0.09405448895217405,-0.09405323431063373,0.0,0.0,0.0,-5.804518505711374,-8.887927523370152,-8.512458883539283,-0.003149196408226487,-0.006171679609297353,-1.9400842532964082
18812,13.0,300.06677,76388.856,0.0,-0.0940595034409124,-0.09405823652082068,0.0,0.0,0.0,-5.804931303802115,-8.897437280858691,-8.517936108279843,0.005898149401077024,0.008605890168635232,-1.9340619000020483
18813,13.0,300.18015,76392.833,0.0,-0.0940644849395933,-0.09406323873100764,0.0,0.0,0.0,-5.808954210674145,-8.895098598302882,-8.517460893982943,-0.003651906867790147,0.00976812532093891,-1.9330100450732381
18814,13.0,300.1885,76377.484,0.0,-0.09406949942833176,-0.0940682409411947,0.0,0.0,0.0,-5.805317453415225,-8.895087959176832,-8.516442577632441,0.003931359421519965,-0.002342303607692368,-1.9348761477824084
18815,13.0,299.83346,76367.76299999999,0.0,-0.09407448092701243,-0.09407324315138188,0.0,0.0,0.0,-5.801623650175674,-8.898001863814411,-8.514267534967782,-0.006693933940764844,-0.0039056486055325064,-1.937012180318218
18816,13.0,299.90682000000004,76419.319,0.0,-0.09407949541575089,-0.09407824536156895,0.0,0.0,0.0,-5.813615769084204,-8.89653062466921,-8.519418493176142,0.0044398171369758365,0.0023589768407378878,-1.9405297793653782
18817,13.0,300.1301,76421.893,0.0,-0.09408450990448947,-0.09408324757175601,0.0,0.0,0.0,-5.807105839841724,-8.90287812992066,-8.520363247569382,-0.0017211822083174585,-0.0001012741894279843,-1.9450696464384283
18818,13.0,299.90311,76328.945,0.0,-0.09408949140317036,-0.09408824978194319,0.0,0.0,0.0,-5.791368545913574,-8.897305659670701,-8.513419343309073,-0.0007026145515276573,0.0004680691915673325,-1.9406297871502483
18819,13.0,299.93841000000003,76358.321,0.0,-0.0940945058919086,-0.09409325199213014,0.0,0.0,0.0,-5.796363159631504,-8.89763000102771,-8.51702975606539,-0.001047929699247609,-0.0031801434980807267,-1.9401734193052083
18820,13.0,299.85359,76412.28,0.0,-0.09409948739058971,-0.09409825420231732,0.0,0.0,0.0,-5.810493945526104,-8.900002627461873,-8.516928532380401,0.003500575533554906,-0.00047321921758560045,-1.9392246119115681
18821,13.0,299.94401,76386.218,0.0,-0.09410450187932806,-0.0941032564125045,0.0,0.0,0.0,-5.795570595403285,-8.910173935940701,-8.513758579442552,0.0015069849875278384,-0.004153218535590757,-1.9467423197035083
18822,13.0,300.16337999999996,76377.44,0.0,-0.09410948337800895,-0.09410822571341382,0.0,0.0,0.0,-5.799723299613124,-8.90633179288651,-8.510779624148553,0.002276152156363728,-0.013288130634436388,-1.946315032136338
18823,13.0,300.12824,76421.287,0.0,-0.09411449786674742,-0.094113227923601,0.0,0.0,0.0,-5.7970976646289945,-8.91034983615806,-8.522715609001542,-0.002960905560693627,-0.0014542281958961486,-1.9419982827353084
18824,13.0,300.22697,76454.7,0.0,-0.0941194793654283,-0.09411823013378817,0.0,0.0,0.0,-5.814170320863934,-8.901479135507591,-8.524670168444443,0.0026134262323500874,0.003894814428838256,-1.9354576520147981
18825,13.0,300.05631,76457.348,0.0,-0.09412449385416655,-0.09412323234397513,0.0,0.0,0.0,-5.811499900225385,-8.904470655102832,-8.525154096692201,-0.0004329484738886875,0.005128219052265815,-1.9393578542997179
18826,13.0,300.03904,76471.368,0.0,-0.09412950834290512,-0.0941282345541623,0.0,0.0,0.0,-5.817320920724875,-8.901671653026591,-8.526393706864543,-0.0026510742490906576,0.0014625038147628886,-1.9357819933718081
18827,13.0,299.99777,76516.98700000001,0.0,-0.09413448984158601,-0.09413323676434926,0.0,0.0,0.0,-5.821446064531994,-8.9096977083937,-8.528109544583883,0.0032275841717377567,-0.00013118142731409886,-1.9396631465548482
18828,13.0,299.97053999999997,76500.781,0.0,-0.09413950433032425,-0.09413823897453644,0.0,0.0,0.0,-5.817565620624024,-8.90805989093206,-8.528701789267332,-0.0002233661918720268,-0.0007708796324323963,-1.9406584621280782
18829,13.0,299.98433,76460.16,0.0,-0.09414448582900514,-0.0941432411847235,0.0,0.0,0.0,-5.808341498338674,-8.90666819191971,-8.526969840871402,0.0007054053361455863,-0.005150206782085835,-1.946383426518088
18830,13.0,300.13261,76475.975,0.0,-0.09414950031774372,-0.09414824339491046,0.0,0.0,0.0,-5.805860656793835,-8.90785217466156,-8.533073963448832,0.0007489203850726873,-0.0033032065730761065,-1.936284464096398
18831,13.0,300.13684,76491.56599999999,0.0,-0.0941544818164246,-0.09415324560509764,0.0,0.0,0.0,-5.813059697429324,-8.914687357186143,-8.523779014981491,4.080074037371956e-05,0.0062829019449491446,-1.9419040504760083
18832,13.0,300.39354,76519.47,0.0,-0.09415949630516285,-0.09415824781528459,0.0,0.0,0.0,-5.809967967399194,-8.916082399923821,-8.533957821511061,0.006539584742431764,0.009452899364478531,-1.9418970590503182
18833,13.0,300.28002000000004,76509.933,0.0,-0.09416447780384396,-0.09416325002547177,0.0,0.0,0.0,-5.814565387077924,-8.91610398215095,-8.526439708419081,-0.0006482660655788793,0.006997472969246813,-1.9486469259164783
18834,13.0,300.11001,76512.526,0.0,-0.0941694922925822,-0.09416825223565894,0.0,0.0,0.0,-5.799777609818484,-8.918821721569172,-8.539298156163111,0.0039046967583885664,0.002942798173456567,-1.942486871933528
18835,13.0,299.92658,76521.398,0.0,-0.09417450678132055,-0.0941732544458459,0.0,0.0,0.0,-5.805928240575504,-8.918124098875323,-8.536541913241091,-0.0005637591225936935,0.001984419011421908,-1.943574697240888
18836,13.0,300.00392,76556.094,0.0,-0.09417948828000167,-0.09417822374675544,0.0,0.0,0.0,-5.8083973284191845,-8.919420755028291,-8.543323089535342,-0.004155658847131596,0.0007334137777948042,-1.937809912121948
18837,13.0,300.13415,76571.04400000001,0.0,-0.09418450276873991,-0.09418322595694262,0.0,0.0,0.0,-5.824116789145574,-8.916024543343111,-8.535544165867622,0.002082634052889978,-0.00036042791481646566,-1.9435442997378882
18838,13.0,300.00515,76521.713,0.0,-0.0941894842674208,-0.09418822816712957,0.0,0.0,0.0,-5.818976166088235,-8.910201496343422,-8.531512342394711,0.0038879394255847462,-0.0019472112518497883,-1.940432000730728
18839,13.0,299.82092,76506.496,0.0,-0.09419449875615937,-0.09419323037731675,0.0,0.0,0.0,-5.821107132373545,-8.909405993689912,-8.52555139205641,-0.0001168530576499989,0.000868498406614119,-1.9487411581757783
18840,13.0,299.92228,76593.02900000001,0.0,-0.09419948025484026,-0.0941982325875037,0.0,0.0,0.0,-5.818299517671454,-8.917632064626762,-8.546436807092642,0.0041210665900426055,-0.005471589752778864,-1.9417999896907383
18841,13.0,299.91562999999996,76616.525,0.0,-0.0942044947435785,-0.09420323479769088,0.0,0.0,0.0,-5.8282734450308045,-8.919821900742882,-8.541415342247062,-0.0016004261011497586,0.0021287982340710276,-1.9458061779361182
18842,13.0,300.05532999999997,76632.287,0.0,-0.09420950923231697,-0.09420823700787806,0.0,0.0,0.0,-5.831908682414574,-8.91691458223095,-8.54547847514806,0.0003250084707433387,-0.0006437198454277024,-1.9335324768247981
18843,13.0,300.25973,76624.372,0.0,-0.09421449073099797,-0.09421323921806513,0.0,0.0,0.0,-5.827880101341984,-8.92429408270925,-8.539721492054893,-0.005859333917571234,0.0013725294350331086,-1.9454348217744681
18844,13.0,300.09885,76605.47200000001,0.0,-0.09421950521973621,-0.09421824142825208,0.0,0.0,0.0,-5.822648083125624,-8.924570598661541,-8.53893186625196,-0.0002648618840123327,-0.0026674841384351873,-1.9437102701042681
18845,13.0,300.27169,76671.75200000001,0.0,-0.0942244867184171,-0.09422324363843904,0.0,0.0,0.0,-5.827480070202504,-8.93087108910835,-8.547946955041683,-0.0009415218214459691,0.0006857479700980554,-1.9455305739089181
18846,13.0,299.99867,76615.625,0.0,-0.09422950120715556,-0.09422824584862621,0.0,0.0,0.0,-5.817172276935204,-8.9251193749157,-8.546945357317831,0.0035334442522237967,-0.003734131100155046,-1.944086287216378
18847,13.0,299.82831,76511.73,0.0,-0.09423448270583645,-0.09423324805881339,0.0,0.0,0.0,-5.807063283337524,-8.917386655452542,-8.533205584636823,-0.0018206885357129681,-0.006825242946399033,-1.9466039097398482
18848,13.0,300.00043999999997,76562.893,0.0,-0.0942394971945748,-0.09423825026900035,0.0,0.0,0.0,-5.813802511077634,-8.923320552013173,-8.536084532145951,0.0025737989328641774,-0.005451227985394314,-1.950382825987798
18849,13.0,299.97647,76671.22200000001,0.0,-0.09424447869325592,-0.09424325247918752,0.0,0.0,0.0,-5.826660452196615,-8.934295671796333,-8.54518088359369,-0.0019197882458433482,-0.0052964998315238355,-1.9517572997484482
18850,13.0,299.97015,76663.25099999999,0.0,-0.09424949318199416,-0.09424825468937448,0.0,0.0,0.0,-5.829072595384675,-8.931526661923051,-8.543114663989773,0.005640572309056144,-0.006401971497325395,-1.9546002768790283
18851,13.0,299.93865,76608.073,0.0,-0.09425450767073273,-0.09425322399028402,0.0,0.0,0.0,-5.8157217080920445,-8.929772422024921,-8.541447259625212,-0.004900837218524975,0.0026699464375031976,-1.9502037846951281
18852,13.0,299.93768,76622.61,0.0,-0.09425948916941362,-0.0942582262004712,0.0,0.0,0.0,-5.8157226200171355,-8.931667402361942,-8.54397004972419,0.0018133643586901282,0.0014829139141772085,-1.954277658047188
18853,13.0,300.26927,76694.204,0.0,-0.09426450365815187,-0.09426322841065815,0.0,0.0,0.0,-5.828663141019264,-8.934277129319502,-8.550182691387331,-0.0025438599255344276,0.0029833422616329574,-1.9419252274030983
18854,13.0,300.29987,76684.086,0.0,-0.09426948515683276,-0.09426823062084533,0.0,0.0,0.0,-5.8328456347820445,-8.934869677977982,-8.542332130937542,0.00023372850812720776,0.0017664673950367586,-1.9515542444284082
18855,13.0,300.00245,76628.063,0.0,-0.09427449964557122,-0.0942732328310325,0.0,0.0,0.0,-5.829653390341994,-8.92221347495391,-8.541150985295973,0.0016236647895432384,0.003992936048647106,-1.9465491942344482
18856,13.0,300.06306,76668.335,0.0,-0.09427948114425211,-0.09427823504121957,0.0,0.0,0.0,-5.835983062391684,-8.925468844875192,-8.543807423083143,0.0007256362929422263,0.012601386193659988,-1.944889997195698
18857,13.0,299.79916000000003,76729.892,0.0,-0.09428449563299046,-0.09428323725140675,0.0,0.0,0.0,-5.834044917600404,-8.932730099066822,-8.557196104604502,-0.001013423973717159,0.005467474336172704,-1.9452414936553881
18858,13.0,299.89451,76783.158,0.0,-0.09428947713167135,-0.0942882394615937,0.0,0.0,0.0,-5.838306647521004,-8.9386827407543,-8.563173469594423,-0.0004219160345473706,0.0028001986232830873,-1.9440649076392682
18859,13.0,299.93584,76761.31599999999,0.0,-0.09429449162040981,-0.09429324167178088,0.0,0.0,0.0,-5.840761853838314,-8.936380636527101,-8.556380742249033,-0.003165008480012017,0.007774427066426212,-1.9438261859157082
18860,13.0,299.88608999999997,76710.746,0.0,-0.09429950610914817,-0.09429824388196784,0.0,0.0,0.0,-5.8332353307705045,-8.934019155844041,-8.55089683005781,0.002931502157366737,-0.0009030380760229191,-1.9491099812121782
18861,13.0,299.93206000000004,76724.12400000001,0.0,-0.09430448760782906,-0.09430324609215479,0.0,0.0,0.0,-5.834445455364935,-8.940265336085492,-8.547507103173272,-0.004529762537752755,-0.003733279564771007,-1.9511904876425081
18862,13.0,299.95664,76727.769,0.0,-0.09430950209656752,-0.09430824830234197,0.0,0.0,0.0,-5.826428620573735,-8.941249607232633,-8.555647655801684,-0.003632429161117846,-0.004061466205910506,-1.9554985230926782
18863,13.0,299.95523,76728.101,0.0,-0.09431448359524841,-0.09431325051252903,0.0,0.0,0.0,-5.820548831568445,-8.93978475156306,-8.563093220186502,0.002689383310196467,0.003070133414848577,-1.9524468164414983
18864,13.0,300.12725,76714.231,0.0,-0.09431949808398687,-0.0943182527227161,0.0,0.0,0.0,-5.819987693663064,-8.940301914414102,-8.558920960249733,-0.0037152747184440666,0.01033838835406949,-1.9536795365131583
18865,13.0,300.13009,76780.543,0.0,-0.09432447958266788,-0.09432322202362564,0.0,0.0,0.0,-5.839136803327935,-8.93743401133106,-8.562797047182272,0.00047408794782383747,-0.0018132164241755283,-1.9465670274362081
18866,13.0,300.17557999999997,76829.039,0.0,-0.09432949407140612,-0.09432822423381271,0.0,0.0,0.0,-5.836327668750695,-8.948978678995433,-8.5688028845,-0.0003550129036320457,-0.001222202332971979,-1.954378273782118
18867,13.0,300.10791,76817.791,0.0,-0.09433450856014458,-0.09433322644399988,0.0,0.0,0.0,-5.845435469924564,-8.945285787680973,-8.559969066153172,0.004459615334654766,0.006492397178649714,-1.9451915404254583
18868,13.0,299.86874,76802.359,0.0,-0.09433949005882547,-0.09433822865418695,0.0,0.0,0.0,-5.830952883595245,-8.946405935666522,-8.568640561833982,0.007016205633120583,0.004010546132735086,-1.950612327135448
18869,13.0,300.0598,76783.521,0.0,-0.09434450454756382,-0.09434323086437402,0.0,0.0,0.0,-5.8357409969427945,-8.943074977287782,-8.561457226575042,2.9361665528770774e-05,-0.004221199105999916,-1.945830293288498
18870,13.0,299.95153,76758.098,0.0,-0.09434948604624471,-0.0943482330745612,0.0,0.0,0.0,-5.839652344978815,-8.937537160191242,-8.555355637122862,-0.0002516346436294058,-0.008253045579687182,-1.953122451608178
18871,13.0,299.74422000000004,76785.065,0.0,-0.09435450053498318,-0.09435323528474815,0.0,0.0,0.0,-5.849236677674715,-8.937728461810122,-8.553777196117082,0.004787987704537595,-0.001206630097485119,-1.9440295452107783
18872,13.0,299.93538,76825.57,0.0,-0.09435948203366407,-0.09435823749493533,0.0,0.0,0.0,-5.845095017890965,-8.947835631557622,-8.560124296068492,-8.771805312884781e-05,-0.0023737887333497077,-1.9527613292725383
18873,13.0,300.13419,76803.813,0.0,-0.09436449652240242,-0.0943632397051225,0.0,0.0,0.0,-5.845582188539044,-8.939697308079431,-8.561161762845883,0.005740868667554625,-0.011411398931717389,-1.9502037846951281
18874,13.0,300.24349,76858.369,0.0,-0.09436947802108331,-0.09436824191530946,0.0,0.0,0.0,-5.8391251509517845,-8.954464719011861,-8.569435051237392,-0.005136536011736635,-0.004549797228005026,-1.9565720615736282
18875,13.0,300.00304,76877.655,0.0,-0.09437449250982177,-0.09437324412549641,0.0,0.0,0.0,-5.841443872480624,-8.948315608129992,-8.57912800434401,0.002280420776385008,0.007813347623967373,-1.950787822052768
18876,13.0,299.7327,76831.037,0.0,-0.09437950699856013,-0.09437824633568348,0.0,0.0,0.0,-5.843829873816104,-8.949856153582031,-8.561030749607951,-0.005808170968346844,0.0028486007699600074,-1.952354813332418
18877,13.0,299.79996,76797.538,0.0,-0.09438448849724113,-0.09438324854587066,0.0,0.0,0.0,-5.835299726524244,-8.953727883539141,-8.555506206087722,-0.0014795934935995087,-0.003481962027892897,-1.9557623734187182
18878,13.0,300.0536,76819.489,0.0,-0.09438950298597948,-0.09438825075605772,0.0,0.0,0.0,-5.839185945957785,-8.956114695474701,-8.555905933252173,0.0016524389645580283,-0.006173295135256795,-1.9548616954048281
18879,13.0,299.99793,76814.461,0.0,-0.09439448448466037,-0.09439322005696726,0.0,0.0,0.0,-5.8341502956108044,-8.957204547282261,-8.558323244015742,0.006524298446123124,0.003357206014630437,-1.9513758110857984
18880,13.0,299.94315,76843.969,0.0,-0.09439949897339883,-0.09439822226715433,0.0,0.0,0.0,-5.828082954012004,-8.9642480540274,-8.566316774054641,0.004909082946513765,0.006970425980352484,-1.9539500742898581
18881,13.0,300.0281,76875.954,0.0,-0.09440448047207972,-0.09440322447734151,0.0,0.0,0.0,-5.834791176299054,-8.957995895610361,-8.575583452844192,0.0002498518402109568,-0.0002730407982895287,-1.950822272556168
18882,13.0,300.05322,76895.882,0.0,-0.09440949496081807,-0.09440822668752846,0.0,0.0,0.0,-5.848818205383415,-8.957633861349633,-8.56797617374341,-0.007929718486027283,0.006045034289898434,-1.955442287712128
18883,13.0,300.1626,76914.367,0.0,-0.09441447645949896,-0.09441322889771564,0.0,0.0,0.0,-5.849879382213144,-8.951040845598952,-8.579126788443892,-0.0027831660917521073,0.005028137198813506,-1.9509069802645282
18884,13.0,299.95615,76907.365,0.0,-0.09441949094823743,-0.0944182311079026,0.0,0.0,0.0,-5.850659382140124,-8.954883799253222,-8.572375401702583,-0.0046912589996412155,0.003029843753772297,-1.9583784838519085
18885,13.0,300.05552,76899.935,0.0,-0.09442450543697578,-0.09442323331808977,0.0,0.0,0.0,-5.849888602789054,-8.952101110503591,-8.57367043665539,0.003965331670872766,-0.0077056543370888735,-1.9530871905046983
18886,13.0,300.03972000000005,76931.74799999999,0.0,-0.09442948693565667,-0.09442823552827695,0.0,0.0,0.0,-5.842395111674504,-8.960373182994983,-8.582562111582932,-0.0013128947017226188,0.0018139411006470481,-1.957867603151488
18887,13.0,299.83111,76945.432,0.0,-0.09443450142439513,-0.0944332377384639,0.0,0.0,0.0,-5.858039591893494,-8.959089597768301,-8.572360912226152,0.001007676150404893,0.0025514624423597374,-1.9472737693809583
18888,13.0,299.8384,76941.991,0.0,-0.09443948292307602,-0.09443823994865108,0.0,0.0,0.0,-5.859125086725624,-8.957250244861774,-8.572068589572302,-0.005759291783522844,-0.0007360441547894023,-1.955282599496368
18889,13.0,299.91367,76965.42,0.0,-0.09444449741181438,-0.09444324215883804,0.0,0.0,0.0,-5.8541955236641146,-8.968322535329522,-8.573047794468943,-0.001125199645248559,-0.007484717888559143,-1.9484447825215283
18890,13.0,299.9613,76944.84,0.0,-0.09444947891049538,-0.09444824436902521,0.0,0.0,0.0,-5.846541736383744,-8.967235723272262,-8.575532689014183,-0.0013780495202528986,-0.0030518451624686666,-1.9592184681848082
18891,13.0,299.94987000000003,76954.317,0.0,-0.09445449339923373,-0.09445324657921228,0.0,0.0,0.0,-5.848259803253304,-8.96454979990718,-8.57938131686901,0.006397543493063385,-0.0023168280683781278,-1.946180371198048
18892,13.0,300.08938,76929.72,0.0,-0.09445950788797197,-0.09445824878939924,0.0,0.0,0.0,-5.830720342697295,-8.966005333675831,-8.587988268518451,-0.0009303472231156222,0.0020836839826435982,-1.9603802607494683
18893,13.0,299.99829,76907.326,0.0,-0.09446448938665308,-0.09446321809030889,0.0,0.0,0.0,-5.840142251402165,-8.957502746786691,-8.580261729880903,0.003061499409421467,-0.0010936938492891789,-1.951676645040488
18894,13.0,300.22008,76959.932,0.0,-0.09446950387539144,-0.09446822030049595,0.0,0.0,0.0,-5.841531822589304,-8.97028357957306,-8.58208213501056,-0.0019003969694045778,0.0026278924040277875,-1.964765100557218
18895,13.0,299.96148,76994.381,0.0,-0.09447448537407233,-0.09447322251068291,0.0,0.0,0.0,-5.848795001956124,-8.972276743844771,-8.583297629830524,0.005613551462014395,-0.0032711199821594066,-1.959114812699578
18896,13.0,299.78792000000004,76965.15,0.0,-0.09447949986281079,-0.09447822472087009,0.0,0.0,0.0,-5.848257574103084,-8.964910415617773,-8.582315891808632,-0.0011395387553637191,-0.0077748900203969025,-1.964088553465448
18897,13.0,299.92467,77027.557,0.0,-0.09448448136149168,-0.09448322693105704,0.0,0.0,0.0,-5.851197316618214,-8.971416595834881,-8.5918401387736,0.001039359123276759,-0.0056463104456974545,-1.954875475606188
18898,13.0,300.04239,77056.96,0.0,-0.09448949585023003,-0.09448822914124422,0.0,0.0,0.0,-5.857939584108625,-8.969232636569341,-8.596219405705801,-0.0029815057458267074,0.00031122153127017367,-1.9579853428131082
18899,13.0,300.07497,77038.239,0.0,-0.09449447734891092,-0.0944932313514314,0.0,0.0,0.0,-5.865810510885424,-8.967160540114842,-8.584729757521862,0.0023901849438178876,0.009166851059222762,-1.955146823982968
18900,13.0,300.16775,77106.007,0.0,-0.09449949183764939,-0.09449823356161835,0.0,0.0,0.0,-5.8739490370136345,-8.976399354526642,-8.587952500789923,-0.008333434613470962,0.004442501135165726,-1.957882396602948
18901,13.0,300.13364,77104.49799999999,0.0,-0.09450450632638763,-0.09450323577180553,0.0,0.0,0.0,-5.876449130310374,-8.972289004170982,-8.589103856878552,0.0018811837210083782,-0.004488202058401055,-1.955954485637678
18902,13.0,300.09265,77068.66900000001,0.0,-0.09450948782506863,-0.09450823798199248,0.0,0.0,0.0,-5.864148679396415,-8.975156907254021,-8.587645384684611,-0.004127204656498387,0.0007993944255540872,-1.9506364424878282
18903,13.0,300.11089,77054.555,0.0,-0.09451450231380709,-0.09451324019217966,0.0,0.0,0.0,-5.847740107277015,-8.972648809281491,-8.602271852528132,0.007736018605485592,0.0016542646385882085,-1.953662615236488
18904,13.0,300.00968,77067.23599999999,0.0,-0.09451948381248798,-0.09451824240236684,0.0,0.0,0.0,-5.852576755304354,-8.977782440913142,-8.596156280224573,0.002717189426065717,0.0015235565915883284,-1.9508086950048282
18905,13.0,299.9905,77051.159,0.0,-0.09452449830122622,-0.0945232446125539,0.0,0.0,0.0,-5.858694455433124,-8.974332222997633,-8.588601588803982,0.005516809078241665,0.002372028109975948,-1.962589044642458
18906,13.0,299.96589,77072.414,0.0,-0.09452947979990733,-0.09452824682274086,0.0,0.0,0.0,-5.863375265595085,-8.976864638972561,-8.587849554579762,0.0025771902809488775,0.004611956676589686,-1.9632701513596782
18907,13.0,300.03802,77073.62599999999,0.0,-0.09453449428864569,-0.09453324903292781,0.0,0.0,0.0,-5.862839458942204,-8.980680032224111,-8.584938385717452,0.0021263276263521983,0.002187768984590988,-1.9743975626328683
18908,13.0,300.00524,77082.427,0.0,-0.09453947578732658,-0.09453821833383758,0.0,0.0,0.0,-5.857299514020454,-8.979371014419922,-8.594462531357411,0.0017741480334447785,-0.003054928887823007,-1.9607750229884282
18909,13.0,300.13581,77110.457,0.0,-0.09454449027606504,-0.09454322054402475,0.0,0.0,0.0,-5.857553941120565,-8.986164653690402,-8.595934783752712,0.002502532493705728,-0.007701581578311923,-1.969303853055158
18910,13.0,299.99278,77087.997,0.0,-0.0945495047648035,-0.09454822275421171,0.0,0.0,0.0,-5.8608853047993446,-8.980299556811561,-8.591641541754,-0.003152483695525917,6.450826262821984e-05,-1.960224220234068
18911,13.0,300.08041000000003,77079.356,0.0,-0.09455448626348428,-0.09455322496439866,0.0,0.0,0.0,-5.866173761046274,-8.97865758502451,-8.585368307734882,-0.001047463604201609,0.0008099919880849852,-1.968425973168518
18912,13.0,300.34082,77105.382,0.0,-0.09455950075222275,-0.09455822717458584,0.0,0.0,0.0,-5.860000838787054,-8.9866277089861,-8.591482157513273,-0.003734932682309156,6.166164894303094e-05,-1.9695687166312983
18913,13.0,300.15653,77131.147,0.0,-0.09456448225090364,-0.0945632293847728,0.0,0.0,0.0,-5.870141445787854,-8.980941957374961,-8.594859421421582,-0.0008466614788064822,0.002047384399136108,-1.9618320454927483
18914,13.0,299.98652999999996,77127.628,0.0,-0.09456949673964188,-0.09456823159495997,0.0,0.0,0.0,-5.859283052416215,-8.979453189003031,-8.60613659105955,0.005120437494147836,-0.0016457968061774986,-1.956028148919948
18915,13.0,300.03247000000005,77127.98599999999,0.0,-0.09457447823832277,-0.09457323380514693,0.0,0.0,0.0,-5.8595648372690246,-8.98136032834125,-8.604056692579283,0.0062985456145680544,-0.0010463495357166592,-1.951414517239618
18916,13.0,299.98582000000005,77196.509,0.0,-0.09457949272706134,-0.0945782360153341,0.0,0.0,0.0,-5.868379707838985,-8.984369883788272,-8.613061648868001,0.0014215835068243686,-0.006389106564780723,-1.9523116488781584
18917,13.0,299.9017,77281.534,0.0,-0.09458450721579958,-0.09458323822552128,0.0,0.0,0.0,-5.883779589483835,-9.000544597784591,-8.607332428827572,0.002956857626544127,-0.007488256157908343,-1.958445864983558
18918,13.0,300.00341000000003,77231.82,0.0,-0.09458948871448047,-0.09458824043570835,0.0,0.0,0.0,-5.872157306861804,-8.994110662299612,-8.610276933618174,-0.0027202531903930877,0.00035377787335015765,-1.9616891772286482
18919,13.0,299.90677999999997,77146.833,0.0,-0.09459450320321905,-0.09459324264589553,0.0,0.0,0.0,-5.871022770724835,-8.98488957976456,-8.59479842376556,-0.0018138927686172782,0.0034061448798853268,-1.963452232402648
18920,13.0,300.0086,77165.795,0.0,-0.09459948470189994,-0.09459824485608248,0.0,0.0,0.0,-5.862185709977685,-8.988766173322151,-8.605522966798992,-0.0023190268210951277,-0.004834808066483405,-1.9640533936869782
18921,13.0,299.94716,77187.817,0.0,-0.09460449919063818,-0.09460324706626944,0.0,0.0,0.0,-5.871069988179494,-8.98486120876176,-8.607237689943222,-0.0013854928554874987,0.0005617611453840086,-1.964309745962278
18922,13.0,300.07523,77178.634,0.0,-0.09460948068931929,-0.0946082163671792,0.0,0.0,0.0,-5.872196316990654,-8.987670647314033,-8.600510621204311,-0.0007672144636406722,0.002358119023203228,-1.964116316518188
18923,13.0,300.10002000000003,77180.46,0.0,-0.09461449517805776,-0.09461321857736615,0.0,0.0,0.0,-5.871087720056244,-8.987117514084442,-8.602727409773092,-0.004542847142919105,0.003101551564674307,-1.9705578513789181
18924,13.0,299.90959,77219.343,0.0,-0.09461947667673853,-0.09461822078755333,0.0,0.0,0.0,-5.8704035735887246,-8.99406222894483,-8.608286403796722,-0.0008393973976470733,9.130120135147701e-05,-1.967501686427298
18925,13.0,299.88858999999997,77259.59599999999,0.0,-0.094624491165477,-0.09462322299774029,0.0,0.0,0.0,-5.8751576417329145,-9.000063810612142,-8.609766458217791,-0.001066227881478499,0.004797364219637986,-1.968107913962128
18926,13.0,300.09219,77260.879,0.0,-0.09462950565421546,-0.09462822520792724,0.0,0.0,0.0,-5.867517330678874,-8.994904138452922,-8.622956542719551,0.008206368086005472,0.005091940949660445,-1.9572624901917681
18927,13.0,300.02262,77200.849,0.0,-0.09463448715289613,-0.09463322741811442,0.0,0.0,0.0,-5.864292763560635,-8.994895424502062,-8.607942202737751,0.004566570164860386,0.0002165368760655258,-1.958216262510898
18928,13.0,300.19844,77209.44099999999,0.0,-0.0946395016416347,-0.09463822962830148,0.0,0.0,0.0,-5.874124734580974,-8.992926578232751,-8.602690730119471,0.002676222508622597,-0.012679909023409588,-1.955774532419918
18929,13.0,300.34867,77278.102,0.0,-0.0946444831403156,-0.09464323183848866,0.0,0.0,0.0,-5.874264461769764,-9.004581082207961,-8.611767728490301,-0.0012298115372479487,-0.006816589689220023,-1.9605737915185681
18930,13.0,300.28109,77288.429,0.0,-0.09464949762905384,-0.09464823404867573,0.0,0.0,0.0,-5.878964625008635,-9.001226920401932,-8.613560877192272,0.000980435032923904,0.002420306032190608,-1.959545545317088
18931,13.0,300.01198999999997,77292.115,0.0,-0.09465447912773473,-0.0946532362588628,0.0,0.0,0.0,-5.878608163623454,-8.997855938644241,-8.618408772295723,-0.0030541987398009472,0.01102339709742459,-1.9556602378086378
18932,13.0,299.91709,77305.813,0.0,-0.09465949361647319,-0.09465823846904997,0.0,0.0,0.0,-5.875644103105924,-9.001674168996072,-8.621718655072382,-0.0028362955567705775,0.004371745678032706,-1.9559652260887381
18933,13.0,300.07977999999997,77284.053,0.0,-0.09466447511515419,-0.09466324067923693,0.0,0.0,0.0,-5.882871920044255,-8.9957094696324,-8.613840939519912,-0.007160041044441034,0.009520540090804152,-1.962927368850848
18934,13.0,299.93719,77293.114,0.0,-0.09466948960389243,-0.0946682428894241,0.0,0.0,0.0,-5.878959964058175,-8.997807302639442,-8.618409380245781,0.005088908089461125,0.0038449381045908464,-1.9668507745630581
18935,13.0,299.91606,77300.735,0.0,-0.0946745040926309,-0.09467324509961128,0.0,0.0,0.0,-5.886508069353115,-9.00314074719081,-8.607844424103101,-0.0009265189818528041,-0.002108707511088228,-1.975200158037078
18936,13.0,299.86417,77288.72099999999,0.0,-0.09467948559131201,-0.0946782144005206,0.0,0.0,0.0,-5.879247017811505,-8.999415634523173,-8.615178632301932,0.005132025326266465,-0.009020524977831502,-1.9670528166329981
18937,13.0,299.97805,77257.768,0.0,-0.09468450008005036,-0.09468321661070778,0.0,0.0,0.0,-5.873213316116024,-9.00107523686196,-8.610143792555032,-0.0005349277293457565,-0.003951024376810746,-1.9689662381218378
18938,13.0,299.81666,77282.159,0.0,-0.09468948157873125,-0.09468821882089495,0.0,0.0,0.0,-5.859510932363705,-9.008157956385972,-8.624177711740073,0.006348755602073395,0.003882305147078686,-1.9607445241604182
18939,13.0,300.02032,77353.12700000001,0.0,-0.09469449606746971,-0.09469322103108191,0.0,0.0,0.0,-5.8801338142990245,-9.009798712272902,-8.623486573846861,-0.0029748664245464575,-0.005384510735209834,-1.9648825362438083
18940,13.0,300.16378,77360.705,0.0,-0.09469947756615038,-0.09469822324126909,0.0,0.0,0.0,-5.874773721270024,-9.017928524450252,-8.623020580125871,-0.0016286422793344787,-0.013595960067816788,-1.9615202684369781
18941,13.0,300.18099,77298.565,0.0,-0.09470449205488896,-0.09470322545145604,0.0,0.0,0.0,-5.873610307505204,-9.008878883832121,-8.61434452481961,-0.0041615078333338456,-0.003211279052453567,-1.9698781632118378
18942,13.0,300.02947,77281.31599999999,0.0,-0.09470950654362742,-0.09470822766164311,0.0,0.0,0.0,-5.872802240550454,-9.004007076026312,-8.614781134287702,0.004455389473787706,-0.0004289327306948645,-1.963341484166718
18943,13.0,299.83949,77350.198,0.0,-0.09471448804230809,-0.09471322987183028,0.0,0.0,0.0,-5.881313845365485,-9.0103681588291,-8.620846652036322,-0.0026789297102397776,0.0026669517768326476,-1.9669396365968281
18944,13.0,299.88512000000003,77364.605,0.0,-0.09471950253104655,-0.09471823208201724,0.0,0.0,0.0,-5.879247017811505,-9.005992134297223,-8.631668872379391,-0.0015505292079253186,-0.002786576286288667,-1.9625993797934782
18945,13.0,300.11441,77347.469,0.0,-0.09472448402972744,-0.09472323429220442,0.0,0.0,0.0,-5.887467921172845,-9.007907278311233,-8.616324010214973,0.0036543532588315867,0.004661927131771385,-1.969646027613928
18946,13.0,299.9093,77355.543,0.0,-0.0947294985184658,-0.09472823650239137,0.0,0.0,0.0,-5.879319769168685,-9.012153302855282,-8.622680432067302,0.006188468960804334,0.005998863725241755,-1.9698637750604182
18947,13.0,299.83747999999997,77430.812,0.0,-0.09473448001714668,-0.09473323871257855,0.0,0.0,0.0,-5.897613493099135,-9.00879498672384,-8.630625022126372,-0.00013831484987311286,0.002871638125558617,-1.9697301273722283
18948,13.0,299.94172000000003,77487.536,0.0,-0.09473949450588515,-0.09473824092276573,0.0,0.0,0.0,-5.893006244894435,-9.02015281106977,-8.641117125586861,-0.0009299299261944381,-0.0047057543529217954,-1.965436986698528
18949,13.0,299.88853,77429.296,0.0,-0.09474447600456626,-0.09474324313295268,0.0,0.0,0.0,-5.885873268165464,-9.01224966293979,-8.638449542048592,-0.0033050858480365773,0.005521603777714865,-1.9612237914577182
18950,13.0,299.9476,77350.043,0.0,-0.09474949049330461,-0.09474824534313986,0.0,0.0,0.0,-5.875306386847595,-9.008288969623901,-8.628886284954772,-0.0029009919809556174,0.00898465318851623,-1.965730626577508
18951,13.0,300.13679,77412.71,0.0,-0.09475450498204285,-0.0947532146440494,0.0,0.0,0.0,-5.892310243400744,-9.013735087586392,-8.625485614969152,-0.0067274824489258235,0.004376574422709265,-1.966947641272618
18952,13.0,300.07905,77474.733,0.0,-0.09475948648072396,-0.09475821685423635,0.0,0.0,0.0,-5.895272378743084,-9.019285468984172,-8.635826541514723,0.002147261474743208,-0.003745233180175736,-1.967622871139258
18953,13.0,300.11367,77445.739,0.0,-0.0947645009694622,-0.09476321906442353,0.0,0.0,0.0,-5.890168435339365,-9.025804517477551,-8.62559798440524,-0.004829962096555146,0.00044060652695197865,-1.970411132764438
18954,13.0,300.16347,77427.72200000001,0.0,-0.0947694824681431,-0.09476822127461049,0.0,0.0,0.0,-5.8813367448177445,-9.018317004538591,-8.636440368425301,0.005308339050992275,-0.001055723821666829,-1.969055404130638
18955,13.0,300.19817,77454.37700000001,0.0,-0.09477449695688167,-0.09477322348479766,0.0,0.0,0.0,-5.8814910628079735,-9.024691664892721,-8.638013743180583,-0.004596290918118595,-0.003662292478665127,-1.9702937984028581
18956,13.0,299.92097,77523.59700000001,0.0,-0.09477947845556234,-0.09477822569498473,0.0,0.0,0.0,-5.899115129747335,-9.026786660799482,-8.639335933236072,0.0017282741484173783,-0.002260850965278618,-1.9705941257324981
18957,13.0,299.70287,77544.938,0.0,-0.0947844929443008,-0.09478322790517169,0.0,0.0,0.0,-5.903768278181564,-9.023028414853572,-8.644928263187992,-0.0007936351626481922,0.0007609673208116272,-1.973929643736688
18958,13.0,299.96608,77476.614,0.0,-0.09478947444298169,-0.09478823011535886,0.0,0.0,0.0,-5.896153399705034,-9.019658243695961,-8.635144522872412,0.0036039108317533065,0.005011252601797126,-1.972149160660968
18959,13.0,300.23732,77413.36,0.0,-0.09479448893172004,-0.09479323232554582,0.0,0.0,0.0,-5.882786401735815,-9.013223193635872,-8.635718833029092,-0.006166169048628504,-0.005773642140714115,-1.9712188957441583
18960,13.0,300.10455,77460.036,0.0,-0.09479950342045851,-0.094798234535733,0.0,0.0,0.0,-5.8872892851802145,-9.01305489279426,-8.645572588926582,0.0027081739319759577,-0.007255600458722014,-1.9648517334407682
18961,13.0,300.09891,77536.864,0.0,-0.0948044849191394,-0.09480323674592017,0.0,0.0,0.0,-5.892148832659815,-9.028870105655102,-8.648251520865973,-0.002910245284843847,-0.00020999576911746875,-1.9697331671225282
18962,13.0,300.05519,77507.47200000001,0.0,-0.09480949940787775,-0.09480823895610713,0.0,0.0,0.0,-5.896211762910794,-9.026353091081692,-8.63777137375666,0.007164713241977144,0.0005656031567156854,-1.9661432220182282
18963,13.0,299.96887999999996,77488.852,0.0,-0.09481448090655886,-0.0948132411662943,0.0,0.0,0.0,-5.896048933619724,-9.028725008240782,-8.629902169505032,-0.0018655703475674583,-0.005449371001936045,-1.974619565729778
18964,13.0,299.94571,77562.879,0.0,-0.0948194953952971,-0.09481824337648126,0.0,0.0,0.0,-5.900679283926704,-9.039136963618361,-8.637362324691292,0.002114749926734568,-0.0027309778347515278,-1.971538474825698
18965,13.0,300.20856000000003,77595.541,0.0,-0.09482447689397822,-0.0948232126773908,0.0,0.0,0.0,-5.905629111990215,-9.039141117943773,-8.642336673407224,-3.638653556482146e-05,-0.0028510884002805174,-1.9673915461414282
18966,13.0,300.15277000000003,77547.672,0.0,-0.09482949138271646,-0.09482821488757798,0.0,0.0,0.0,-5.885136331367735,-9.039733970577283,-8.64768551936011,0.00041728631245545257,0.00042861416486342463,-1.9730876329035882
18967,13.0,299.94739,77495.3,0.0,-0.09483450587145503,-0.09483321709776493,0.0,0.0,0.0,-5.890650945036985,-9.024076419432001,-8.641908575239972,-0.0038612726081279363,-0.002736586478030057,-1.9721014365812581
18968,13.0,300.12122,77528.049,0.0,-0.09483948737013592,-0.09483821930795211,0.0,0.0,0.0,-5.897718668459515,-9.027712670065872,-8.641159682091061,-0.002291684773771678,0.0026966054529342373,-1.9776299317768784
18969,13.0,300.06632,77561.658,0.0,-0.09484450185887416,-0.09484322151813929,0.0,0.0,0.0,-5.906522697253403,-9.029892677656022,-8.64039214514031,-0.0011539316690591889,0.004136848365650147,-1.9763231431229082
18970,13.0,300.04944,77557.461,0.0,-0.09484948335755505,-0.09484822372832635,0.0,0.0,0.0,-5.897810063618535,-9.032939318056702,-8.644782051198561,-0.0028059601660017073,0.0013551521958181086,-1.9781347329766978
18971,13.0,299.84681,77536.267,0.0,-0.09485449784629352,-0.09485322593851331,0.0,0.0,0.0,-5.896252292914795,-9.030905623780992,-8.6419311707172,1.2770075110058289e-05,0.0009080333990159191,-1.973062099001068
18972,13.0,299.84045,77567.909,0.0,-0.0948594793449743,-0.09485822814870049,0.0,0.0,0.0,-5.8867808362800345,-9.03488637944886,-8.657040148258343,-0.0022807129977138476,0.0005732571871760794,-1.9760729716732182
18973,13.0,300.08554,77641.147,0.0,-0.09486449383371276,-0.09486323035888744,0.0,0.0,0.0,-5.907875588786924,-9.042425162842882,-8.650669338254593,0.003823968387146296,0.004671569219722986,-1.9723074303265882
18974,13.0,300.13164,77662.228,0.0,-0.09486947533239365,-0.09486823256907462,0.0,0.0,0.0,-5.915673156256485,-9.040940751446382,-8.650764178463952,0.002424599780814368,0.008684264658570192,-1.9707392231468182
18975,13.0,299.94506,77616.164,0.0,-0.094874489821132,-0.09487323477926157,0.0,0.0,0.0,-5.906936913894285,-9.04354460155336,-8.642894163612242,0.0040640169617122465,0.0023511869739690876,-1.9762052008112683
18976,13.0,300.24568999999997,77606.439,0.0,-0.09487950430987047,-0.09487823698944875,0.0,0.0,0.0,-5.906723016798174,-9.03946728315096,-8.644229221944002,-0.0016651622447387184,0.005555887905448444,-1.9704143751647583
18977,13.0,300.18451,77662.525,0.0,-0.09488448580855136,-0.09488323919963582,0.0,0.0,0.0,-5.906074435409164,-9.040125287765902,-8.661268643575662,0.005355595819756156,0.0004244998526998736,-1.9643712502433481
18978,13.0,300.07889,77677.83099999999,0.0,-0.09488950029728971,-0.09488824140982288,0.0,0.0,0.0,-5.902235129455254,-9.045935061189281,-8.663950716590362,-0.001082695526078729,0.0027312811005064577,-1.9657755135569381
18979,13.0,300.03696,77630.452,0.0,-0.09489448179597071,-0.09489321071073242,0.0,0.0,0.0,-5.904608363839474,-9.035563230515661,-8.657547178608382,0.0035289664973818763,-0.004046500197958476,-1.968720930272628
18980,13.0,300.06068999999997,77636.382,0.0,-0.09489949628470906,-0.09489821292091949,0.0,0.0,0.0,-5.910445495015554,-9.03752376813415,-8.651552284391732,-0.005236872089639035,-0.004416730537422366,-1.977337507798018
18981,13.0,300.24957,77688.891,0.0,-0.09490447778339017,-0.09490321513110656,0.0,0.0,0.0,-5.915624824226715,-9.039920611245702,-8.65993753691929,-0.0015813755807196183,-0.0036100616651603464,-1.9781903604071878
18982,13.0,300.17745,77719.017,0.0,-0.09490949227212842,-0.09490821734129373,0.0,0.0,0.0,-5.920583974191144,-9.04296654237131,-8.661090007583033,-0.005115458889781485,0.0007711959792461174,-1.979617320523018
18983,13.0,299.84878,77687.239,0.0,-0.0949144737708093,-0.0949132195514808,0.0,0.0,0.0,-5.901547031312345,-9.052016689614492,-8.661417186040323,0.0031344232217684867,-0.003946727487111676,-1.9794265255291879
18984,13.0,299.97046,77659.243,0.0,-0.09491948825954777,-0.09491822176166798,0.0,0.0,0.0,-5.895811427796285,-9.051989838486842,-8.658669353094131,-0.0018620035045654381,-0.0005878263354614424,-1.980154343076018
18985,13.0,299.97437,77674.187,0.0,-0.09492450274828612,-0.09492322397185493,0.0,0.0,0.0,-5.9022114194029145,-9.049080189499682,-8.659721815973,0.00995778091503146,-0.0010769926505408989,-1.976099620150848
18986,13.0,300.18606,77724.061,0.0,-0.09492948424696701,-0.09492822618204211,0.0,0.0,0.0,-5.9127925875471945,-9.058372604841773,-8.655008480482831,-0.0006535226551101644,0.0026870234507135674,-1.978211233359248
18987,13.0,300.17543,77719.517,0.0,-0.09493449873570547,-0.09493322839222906,0.0,0.0,0.0,-5.908983172471235,-9.051254218914242,-8.664555221600024,0.0034637539235958968,-0.0017869821631864085,-1.9692856145533582
18988,13.0,299.9637,77682.984,0.0,-0.09493948023438625,-0.09493823060241602,0.0,0.0,0.0,-5.901775519209894,-9.051351389598832,-8.660560483080772,-0.005926153404690805,0.0003085662587206187,-1.9726156610070082
18989,13.0,299.88768999999996,77705.239,0.0,-0.09494449472312472,-0.0949432328126032,0.0,0.0,0.0,-5.8996078732709645,-9.048758077292891,-8.6720865069433,-0.0033258365008095067,0.0008138217289579513,-1.9655440872340981
18990,13.0,299.67627999999996,77760.804,0.0,-0.0949494762218056,-0.09494823502279026,0.0,0.0,0.0,-5.917083195095644,-9.048290867671781,-8.671968868606692,0.0003161290966720127,0.0030598934080129665,-1.972862691381388
18991,13.0,299.69579,77797.661,0.0,-0.09495449071054385,-0.09495323723297744,0.0,0.0,0.0,-5.928480941495515,-9.052500820512272,-8.667564675722032,0.0015342400979927084,-0.002669319640991338,-1.9707822862760682
18992,13.0,299.97696,77754.943,0.0,-0.09495950519928242,-0.0949582394431645,0.0,0.0,0.0,-5.921922882873285,-9.049277367969141,-8.664360677580824,-0.0028648603943147075,0.0009048395941707151,-1.9807540858102082
18993,13.0,299.98311,77713.29400000001,0.0,-0.09496448669796331,-0.09496320874407393,0.0,0.0,0.0,-5.914883125153514,-9.04754136657281,-8.660476180672452,-0.0014512868321808585,0.00023072453568823877,-1.9790690508939082
18994,13.0,300.10002000000003,77748.467,0.0,-0.09496950118670178,-0.09496821095426111,0.0,0.0,0.0,-5.916702618358085,-9.052951716806772,-8.663938253614132,-0.0017889391544295484,0.003513941518274027,-1.984173298272658
18995,13.0,300.08492,77779.109,0.0,-0.09497448268538267,-0.09497321316444818,0.0,0.0,0.0,-5.909872502084005,-9.05421817810676,-8.678816311457483,-0.0008456767314317953,-0.002303712761733748,-1.974359464429108
18996,13.0,300.02587,77728.73700000001,0.0,-0.09497949717412113,-0.09497821537463524,0.0,0.0,0.0,-5.905025822880674,-9.05684756211626,-8.665721776440153,-0.0026622106782897372,0.0017743865525183184,-1.984067818937248
18997,13.0,300.00119,77733.868,0.0,-0.09498447867280202,-0.09498321758482242,0.0,0.0,0.0,-5.913557287397665,-9.053840438469482,-8.661757131448873,-0.0008342282313344163,-0.0014520277206539786,-1.974605177578358
18998,13.0,300.05928,77784.762,0.0,-0.09498949316154037,-0.09498821979500938,0.0,0.0,0.0,-5.916728050935594,-9.063576049405311,-8.664321262151931,-0.00026130131302843176,0.004799229410422066,-1.982596985092088
18999,13.0,299.88879,77803.12400000001,0.0,-0.09499447466022126,-0.09499322200519655,0.0,0.0,0.0,-5.919676102101544,-9.06472244056845,-8.665808510648711,0.0032909652959679865,0.0021035254461017976,-1.9744159024596781
19000,13.0,299.91361,77789.114,0.0,-0.09499948914895973,-0.09499822421538373,0.0,0.0,0.0,-5.908073577856465,-9.066216072540861,-8.67165851010106,-0.004377829940908176,0.006090196873355634,-1.9768894486037982
