,case,Temp,Pressure,e11,e22,e33,e12,e23,e13,s11,s22,s33,s12,s23,s13
0,4.0,300.0,195.69841,0.0,0.0,0.0,0.0,0.0,0.0,-0.015342820465468487,-0.02048824734153258,-0.02365636123045108,-0.016726968738073285,0.03692360168757577,-0.0008430909678391001
1,4.0,299.84296,-122.05051,0.0,0.0,0.0,0.0,0.0,9.966809583816794e-06,0.01818690406515768,0.02149635013102458,-0.002582946352116957,-0.0043915381001860656,-0.02210957922404558,-0.0028550031933668777
2,4.0,299.94052,-181.66002,0.0,0.0,0.0,0.0,0.0,1.9933619167633587e-05,0.011760223450893689,0.02499311067662798,0.018466775901778882,-0.03065222090288867,-0.0050912226566645555,0.005568776446720445
3,4.0,298.9612,41.123673,0.0,0.0,0.0,0.0,0.0,2.9900428751478136e-05,-0.003156458371693187,0.008159370810592202,-0.017503482071459183,0.0032116935730694767,-0.026888440584932474,-0.026727388534537877
4,4.0,298.65837999999997,155.17261000000002,0.0,0.0,0.0,0.0,0.0,3.986723833529493e-05,-0.03256075345999617,-0.02054609176324138,0.005938245531384204,0.008814434163141923,0.007433150247244813,-0.0015276308702404284
5,4.0,298.39744,72.94124000000001,0.0,0.0,0.0,0.0,0.0,4.9834047919111724e-05,-0.027874194116968773,0.001751238347358768,0.003950639544422767,0.012459371086144188,-0.001026961197703179,-0.03334705174959777
6,4.0,299.31197000000003,244.26067,0.0,0.0,0.0,0.0,0.0,5.980085750290076e-05,-0.04750703241932905,-0.018530207384539085,-0.008211904687201893,0.00020257213146481282,-0.018126861903981984,-0.004786287470869795
7,4.0,300.26587,551.7830799999999,0.0,0.0,0.0,0.0,0.0,6.976766708674531e-05,-0.04058880391655306,-0.0926796581982701,-0.034459816181669066,0.005267029857665375,-0.007734816789541982,-0.027129073298181074
8,4.0,300.29936000000004,615.61363,0.0,0.0,0.0,0.0,0.0,7.97344766705621e-05,-0.043709332541025256,-0.07581058518667223,-0.06761125290671113,0.004897433914089095,0.025517620604143077,0.000962407155422191
9,4.0,300.41931,348.0039,0.0,0.0,0.0,0.0,0.0,8.970128625440665e-05,-0.015436077978172286,-0.05770131634417654,-0.032647099593767874,-0.008004323685590243,-0.023675968633136178,-0.01930552508280698
10,4.0,299.46993,-38.164826,0.0,0.0,0.0,0.0,0.0,9.966809583819569e-05,-0.0037186351624007162,0.015031361570229884,0.0002884278420556117,-0.004000481823466816,-0.004339773381727285,0.026230396453238578
11,4.0,299.85452000000004,30.906166,0.0,0.0,0.0,0.0,0.0,0.00010963490542204024,-0.006827115533908843,-0.01023612203472659,0.007668534932925472,-0.02079955019625578,-0.030761785662701872,0.012111121079774589
12,4.0,299.73515,290.59167,0.0,0.0,0.0,0.0,0.0,0.00011960171500582928,-0.04410484965130976,0.0007119675693582284,-0.044939729230205956,0.023126377725895778,0.007872687096198722,0.029785420906092173
13,4.0,300.11331,571.3783900000001,0.0,0.0,0.0,0.0,0.0,0.00012956852458967383,-0.054742819582945655,-0.06688014938980684,-0.05206179325559895,-0.011976996150787489,-0.021972332471500378,0.011714891654669789
14,4.0,300.62484,652.43067,0.0,0.0,0.0,0.0,0.0,0.00013953533417349062,-0.058384930855394035,-0.06666054262938334,-0.07327715798814244,0.023062750685866277,0.025656432828092775,0.02136469955878168
15,4.0,300.90815,544.82005,0.0,0.0,0.0,0.0,0.0,0.00014950214375730742,-0.04517889678380996,-0.06297033642768834,-0.05746245681860295,-0.007134408350036284,0.0038491764284341364,-0.016407037045498483
16,4.0,300.42636,608.56737,0.0,0.0,0.0,0.0,0.0,0.0001594689533411242,-0.07837078650584442,-0.07387390656828693,-0.03274459249188967,-0.007747334278627363,0.03763389203417596,0.013142295574043589
17,4.0,301.40601000000004,353.76161,0.0,0.0,0.0,0.0,0.0,0.00016943576292496876,-0.06295648428557124,-0.012482523850929189,-0.03209568888934787,-0.005999431550597794,-0.009933559272715971,0.0036273690914434566
18,4.0,300.56276,59.487673,0.0,0.0,0.0,0.0,0.0,0.00017940257250878555,-0.02274444728620218,-3.1122280796529974e-05,0.004692802990143596,-0.03227512838930717,-0.02417193429208418,0.027148902602638074
19,4.0,300.25391,65.043288,0.0,0.0,0.0,0.0,0.0,0.0001893693820926301,0.005990763499967324,-0.004265170208664526,-0.021497128307101376,0.024604663012291177,-0.007687512701998433,-0.001024716139456609
20,4.0,299.48447999999996,115.63403000000001,0.0,0.0,0.0,0.0,0.0,0.00019933619167639138,0.008637034740933962,-0.01125034992107309,-0.032536540835606566,-0.012814915479983686,-0.0005027585180159025,0.01053044585752409
21,4.0,299.12276,301.6456,0.0,0.0,0.0,0.0,0.0,0.00020930300126023593,0.004449350097891666,-0.054597094966813746,-0.04154498371792067,0.03491298620939347,-0.009680098103926301,-0.008225394491083232
22,4.0,299.8829,548.43858,0.0,0.0,0.0,0.0,0.0,0.00021926981084405273,-0.061328754741926846,-0.06042031320577065,-0.044962567887459955,-0.036045110811125464,-0.02825161964671777,0.01872829879233918
23,4.0,299.34215,392.23287,0.0,0.0,0.0,0.0,0.0,0.00022923662042789728,-0.05294107649362745,-0.04282858414335216,-0.023459337788256377,0.017846445952057085,0.0017495089320880882,-0.017159626530773284
24,4.0,300.01177,347.35361,0.0,0.0,0.0,0.0,0.0,0.00023920343001171407,-0.06222925645029944,-0.018266319568245384,-0.025091250028313576,-0.027357581460733076,0.018098338913666984,0.008901508418435481
25,4.0,301.37716,506.78067000000004,0.0,0.0,0.0,0.0,0.0,0.00024917023959553086,-0.05817505028268045,-0.03644653415624287,-0.05942708492774665,-0.005807510835906694,-0.0011485308433761689,-0.005830969906196925
26,4.0,300.57187000000005,368.31029,0.0,0.0,0.0,0.0,0.0,0.0002591370491793199,-0.03308613579584737,-0.02613478617380258,-0.05273620948240865,-0.015252247052279587,0.01057084413901109,-0.003544095739925017
27,4.0,300.93255,121.83138000000001,0.0,0.0,0.0,0.0,0.0,0.00026910385876316445,-0.0013348279186872587,-0.004422584083250066,-0.03127628569247907,0.019122669916760583,0.007800917983665663,-0.0014011293310306986
28,4.0,300.30737,-87.043024,0.0,0.0,0.0,0.0,0.0,0.00027907066834698124,-0.009267127254044253,0.011240316718582888,0.024485715556551976,0.01035476652868589,0.03389645925857007,0.0056850628037220146
29,4.0,299.49634,64.85854,0.0,0.0,0.0,0.0,0.0,0.0002890374779308258,-0.02812466954168877,0.01763574363351238,-0.00922645113937983,0.003324557981833327,-0.033431380502420366,0.03402459182646577
30,4.0,299.57035,326.83892000000003,0.0,0.0,0.0,0.0,0.0,0.00029900428751461483,-0.06290828195181404,-0.006653985744972265,-0.029788602511406175,0.003107125554799417,-0.016325251550426884,0.02121781983753578
31,4.0,298.85504,487.24483,0.0,0.0,0.0,0.0,0.0,0.0003089710970984594,-0.016698277548241686,-0.057331126433391645,-0.07408085783496142,0.013640580562470488,-0.015122281514952984,0.015496615618646884
32,4.0,300.46261,469.13067,0.0,0.0,0.0,0.0,0.0,0.0003189379066822484,-0.01972564086576918,-0.05364737159508335,-0.06923099702631744,0.008783278343767081,0.012082629500212688,-0.006188835352040494
33,4.0,301.46864,303.22204,0.0,0.0,0.0,0.0,0.0,0.00032890471626609297,-0.01844571448520028,-0.03110315266114217,-0.04262305953281846,-0.027415431961942474,-0.01900141022429318,0.009538429122644661
34,4.0,300.8773,321.72011000000003,0.0,0.0,0.0,0.0,0.0,0.00033887152584990976,-0.050227371837305655,-0.022352012482721877,-0.025215494755575576,-0.03477423174069947,-0.008252039422337883,0.005959392567596255
35,4.0,300.10787,518.74441,0.0,0.0,0.0,0.0,0.0,0.00034883833543372655,-0.08257464869998332,-0.01921034239491318,-0.05590035548393554,-0.01023004152087649,0.015498155758798883,0.009339172679879581
36,4.0,300.22491,257.1701,0.0,0.0,0.0,0.0,0.0,0.00035880514501754335,-0.06301786798987934,-0.009252320529007941,-0.005903100850340693,0.004620526948585505,0.01021745087513389,-0.001968056542182058
37,4.0,300.79887,-148.60363999999998,0.0,0.0,0.0,0.0,0.0,0.0003687719546013879,0.026601306784844576,0.009730325620658372,0.008840162407031102,-0.00015480343835290984,-0.00043488141057445364,-0.017555238886567185
38,4.0,301.43446,-38.880727,0.0,0.0,0.0,0.0,0.0,0.0003787387641852047,0.02088902929933668,0.012134576806339488,-0.02120483605075438,0.02624107306954227,-0.008769312211013732,-0.014381269425320788
39,4.0,298.87195,172.34563,0.0,0.0,0.0,0.0,0.0,0.00038870557376904924,-0.0035328736910924864,-0.015738971870315584,-0.03311692340013587,0.017779145880415084,0.02202326348777688,-0.023290724865615578
40,4.0,299.04219,187.79682,0.0,0.0,0.0,0.0,0.0,0.0003986723833528105,-0.01778936552092368,-0.019421178462471083,-0.01987500001000978,0.008976124662424532,0.014188655647561289,-0.0012188352015646687
41,4.0,299.38862,171.24909,0.0,0.0,0.0,0.0,0.0,0.00040863919293665507,-0.02924148494765987,-0.007198548297266402,-0.015615414126621383,-0.027049995207376675,-0.023102411321280478,0.017140438613629582
42,4.0,298.72861,253.58454,0.0,0.0,0.0,0.0,0.0,0.00041860600252047186,-0.029080431884015174,-0.02029350675181318,-0.027709431544707973,-0.015047852215607385,-0.02100963645873968,0.01019148938107169
43,4.0,299.90819,453.87660999999997,0.0,0.0,0.0,0.0,0.0,0.0004285728121043164,-0.046570758929426054,-0.028715250468474576,-0.06268114572989744,-0.00989223376606246,0.006777802779367054,0.01971281311950318
44,4.0,299.21061000000003,579.45755,0.0,0.0,0.0,0.0,0.0,0.0004385396216881332,-0.06611106317965394,-0.05076954170081365,-0.05926002126450874,0.024945665240695476,0.0008290125771071714,-0.007844716529838243
45,4.0,300.04935,371.74055,0.0,0.0,0.0,0.0,0.0,0.00044850643127195,-0.06787952404293744,-0.011394085527258688,-0.03372623425502017,0.0018945575077532683,-0.002119111867090058,0.027963558722788374
46,4.0,300.88363,115.91431000000001,0.0,0.0,0.0,0.0,0.0,0.00045847324085573904,-0.036174158343861465,0.018347282304235782,-0.017408181846553784,0.034289724927132365,0.0006909959166059873,0.02321367732801158
47,4.0,300.18512999999996,62.598896999999994,0.0,0.0,0.0,0.0,0.0,0.0004684400504395836,-0.04590538697300896,0.03748462914869486,-0.01060774366790279,0.019903297045552482,0.02298520361596298,0.023638671910205276
48,4.0,300.03982,333.33969,0.0,0.0,0.0,0.0,0.0,0.0004784068600234004,-0.03982339884401346,0.0013110919271446988,-0.06281463433782174,0.011467309058985289,0.013705624126139787,0.007803892683309242
49,4.0,301.00113999999996,426.87791,0.0,0.0,0.0,0.0,0.0,0.0004883736696072449,-0.04277830464688996,-0.03830164208857776,-0.048680280789619654,-0.03171257396028737,0.008443523527560892,-0.014472853048859386
50,4.0,299.83982000000003,117.35756,0.0,0.0,0.0,0.0,0.0,0.000498340479191034,0.004438589787129707,-0.030581746318683368,-0.0095306112901731,-0.012693966855296989,-0.01291120362373659,-0.024032761351098875
51,4.0,300.13246000000004,141.57688000000002,0.0,0.0,0.0,0.0,0.0,0.0005083072887748785,-0.012429707176216588,-0.042615150102537865,0.012009021946698189,-0.00913935317403393,0.021411609998661377,-0.020927490246632482
52,4.0,300.81528,330.73578,0.0,0.0,0.0,0.0,0.0,0.0005182740983586676,-0.04602465056277936,-0.03398120344393367,-0.02052956464086028,-0.0013881749285021988,-0.0014207766557697385,0.008410974894598593
53,4.0,300.16774,282.68247,0.0,0.0,0.0,0.0,0.0,0.0005282409079425121,-0.02870773417923277,-0.03660359906749396,-0.02061707905199728,0.007945472295932062,0.005164161161138025,0.024431187502420477
54,4.0,300.84746,173.16513,0.0,0.0,0.0,0.0,0.0,0.0005382077175263289,0.016214360446232784,-0.03528160456927326,-0.03357063146366337,0.009683141501926661,-0.015829267652977087,-0.01349112211972009
55,4.0,300.09985,133.12787,0.0,0.0,0.0,0.0,0.0,0.0005481745271101457,-0.0043021239464365755,-0.016218441817635584,-0.019946982310363882,0.01690640114528188,0.01903899876325288,-0.01283205359217509
56,4.0,299.65092999999996,105.44158999999999,0.0,0.0,0.0,0.0,0.0,0.0005581413366939625,-0.038564872305556566,-0.01181695937699309,0.018330220185801882,-0.008074857240951363,-0.016612445132270684,-0.04318248301902926
57,4.0,300.23658,322.26727,0.0,0.0,0.0,0.0,0.0,0.000568108146277807,-0.04595369468477655,-0.015297170508713185,-0.03671033685952817,-0.021879194522308378,-0.018580961082048084,-0.0019575116483913583
58,4.0,299.51709,335.67304,0.0,0.0,0.0,0.0,0.0,0.0005780749558616238,-0.058168481382282144,-0.026494978345850774,-0.017372764702558382,-0.03508242189111547,-0.037757914859666064,-0.0005791501686976715
59,4.0,299.21636,94.216451,0.0,0.0,0.0,0.0,0.0,0.0005880417654454684,-0.004755420427773455,-0.0030394617263715174,-0.02084456585844848,-0.0008053461958464813,0.04255285649963996,0.03837490513705826
60,4.0,300.62442999999996,156.73137,0.0,0.0,0.0,0.0,0.0,0.0005980085750292297,-0.0030332607370845274,-0.02112869638523998,-0.023480466079341577,-0.001958400167404048,0.019974813250860583,-0.013342802570082088
61,4.0,300.10915,363.50113999999996,0.0,0.0,0.0,0.0,0.0,0.0006079753846130742,-0.04269495672016416,-0.019683303223590784,-0.04811700999277915,0.007996649126682822,0.03251596273932567,0.028371485107047578
62,4.0,299.4362,563.43056,0.0,0.0,0.0,0.0,0.0,0.000617942194196891,-0.08129839231127663,-0.06843129141139263,-0.021539136642997277,-0.009691553808231891,-0.008337194784592062,-0.010538491063318091
63,4.0,300.2008,504.39985,0.0,0.0,0.0,0.0,0.0,0.0006279090037807356,-0.08009413848792601,-0.02867805507055367,-0.044552768003765855,0.003249289002129857,0.01871226208300648,0.038955906797398666
64,4.0,300.10917,328.13356,0.0,0.0,0.0,0.0,0.0,0.0006378758133645523,-0.06974369752391703,-0.027613872941027073,-0.0023868374694625176,-0.009495926523349981,-0.017916734098243983,0.01883580462794918
65,4.0,300.16003,407.50335,0.0,0.0,0.0,0.0,0.0,0.0006478426229483691,-0.026773768031365178,-0.016571777326257087,-0.08052529667047802,-0.036370896049527965,-0.02097720232303868,0.07040049029173744
66,4.0,300.53407000000004,314.21704,0.0,0.0,0.0,0.0,0.0,0.0006578094325321582,-0.0042312289647647855,-0.02011242477344178,-0.07117048133422964,-0.03467391187479867,-0.029149951986626267,-0.007015514089927333
67,4.0,300.24796000000003,311.2372,0.0,0.0,0.0,0.0,0.0,0.0006677762421160027,-0.01058128162829119,-0.034065684184271264,-0.04996137139455346,-0.02884980197575377,0.0002501997295002908,0.02804031748411387
68,4.0,300.84882000000005,161.67002,0.0,0.0,0.0,0.0,0.0,0.0006777430516998195,-0.049993008102425754,0.0006153193671822934,0.00023403870451282178,0.025501462304798373,0.018378848084601083,-0.027572819086725375
69,4.0,299.2421,-23.387435,0.0,0.0,0.0,0.0,0.0,0.0006877098612836363,-0.003056354429388697,0.0036478294480627367,0.006517721338399014,0.02184717075289788,-0.0014332914090798487,-0.0007912550685607953
70,4.0,299.94985,55.257057999999994,0.0,0.0,0.0,0.0,0.0,0.0006976766708674531,-0.014280028515079089,-0.004240430288922886,0.0017236926367652182,0.03068667951228947,-0.016021934119741784,-0.01116329653873159
71,4.0,300.54472999999996,391.61843,0.0,0.0,0.0,0.0,0.0,0.0007076434804512977,0.01913465058594298,-0.05929154347511974,-0.07888533314512623,-0.01084013156508769,-0.0001281709802069909,0.019014590581593983
72,4.0,299.51673,216.47775,0.0,0.0,0.0,0.0,0.0,0.0007176102900351145,0.03125615342624217,-0.05825087381416365,-0.038809108136160765,0.016154426702817786,0.004929085415412855,-0.005264528244493485
73,4.0,299.0851,186.58944,0.0,0.0,0.0,0.0,0.0,0.0007275770996189312,-0.003988390811348527,-0.01989415145014988,-0.032835988664159765,-0.041511481616614256,0.02271355126415298,0.008490026032950331
74,4.0,299.48936000000003,560.9767,0.0,0.0,0.0,0.0,0.0,0.000737543909202748,-0.07873514212255352,-0.06336547964868594,-0.02842228642731127,-0.017727943313111786,-0.005268700301780235,-0.002207757369313688
75,4.0,299.83691,544.70165,0.0,0.0,0.0,0.0,0.0,0.0007475107187865648,-0.09191280316483741,-0.03916769937305096,-0.03449519887516107,-0.026873386728196773,0.006314768153969094,0.011215287414612689
76,4.0,300.40432999999996,486.65264,0.0,0.0,0.0,0.0,0.0,0.0007574775283703816,-0.08932317807601131,-0.023691391312908275,-0.034915680441409365,0.017902169641306583,0.004608146146938615,0.03536642170864407
77,4.0,300.27449,483.57487000000003,0.0,0.0,0.0,0.0,0.0,0.0007674443379542262,-0.04657282697288016,-0.02153831185741588,-0.07888354577194982,0.017386278419142084,0.008076499111413404,0.04880715186114085
78,4.0,299.20033,182.09978999999998,0.0,0.0,0.0,0.0,0.0,0.000777411147538043,0.003821687155871156,-0.0025540555520156575,-0.056621421745349246,0.03616687814189297,-0.01354729163901359,0.024367843159168876
79,4.0,300.24207,175.38776000000001,0.0,0.0,0.0,0.0,0.0,0.000787377957121832,-0.026550896579119472,0.0017138180079156688,-0.028476422353654073,-0.004410752767132406,0.006819446345226954,0.02704491578462537
80,4.0,300.5943,524.63056,0.0,0.0,0.0,0.0,0.0,0.0007973447667056488,-0.08757303880103601,-0.04628673580714516,-0.025614813580235273,0.005879934204029324,-0.0024255965149377378,-0.001988467350871448
81,4.0,299.95197,360.27128999999996,0.0,0.0,0.0,0.0,0.0,0.0008073115762894933,-0.09270627425189691,0.0024790760578657575,-0.019286278397157484,-0.01157968356132579,-0.004039196691237677,0.019169441541376585
82,4.0,298.84072000000003,94.330675,0.0,0.0,0.0,0.0,0.0,0.0008172783858733101,-0.006661781792566674,-0.02712455116298477,0.005112162989856206,-0.0034088488391021865,-0.029664844144192175,-0.012741538947491988
83,4.0,299.0369,229.98359,0.0,0.0,0.0,0.0,0.0,0.0008272451954571269,0.02911721995539587,-0.05435128961180465,-0.04467520002659896,-0.00871940913696368,-0.025465468621496075,0.014105373582091988
84,4.0,299.18615,507.94324000000006,0.0,0.0,0.0,0.0,0.0,0.0008372120050409715,-0.012871546028072688,-0.04759311814782505,-0.0939373954148991,0.019553437998024083,-0.001108801205630159,0.018222101333881382
85,4.0,299.69389,373.55976,0.0,0.0,0.0,0.0,0.0,0.0008471788146247883,-0.033264603588960766,-0.049362478777197356,-0.03092575688663457,0.006324960538050004,0.008327024590688343,0.022184811017470378
86,4.0,298.80914,32.941638,0.0,0.0,0.0,0.0,0.0,0.0008571456242085773,-0.03220986596361627,-0.004493127771112186,0.026689558842054373,-0.005828042829308045,0.004965198864876974,0.006775502093689993
87,4.0,299.36552,96.539606,0.0,0.0,0.0,0.0,0.0,0.0008671124337923941,-0.055176109643708046,-0.005273070449461535,0.03110355086843147,-0.009381900220696461,-0.0012880410953197588,-0.005062786197908095
88,4.0,300.87916,210.47482000000002,0.0,0.0,0.0,0.0,0.0,0.0008770792433762387,-0.03268390083739987,-0.03297506635963567,0.0016798768653409385,-0.010970609806964888,0.011749130388798887,0.0005348658197646465
89,4.0,300.20721000000003,357.51319,0.0,0.0,0.0,0.0,0.0,0.0008870460529600555,-0.013167384659769686,-0.03536199583220726,-0.06014570419016885,0.014658742898955288,0.0036519115287406067,-0.021442416854701777
90,4.0,299.78794,517.0994900000001,0.0,0.0,0.0,0.0,0.0,0.0008970128625438722,-0.03922046842500886,-0.07199599746895173,-0.045968866078523865,0.005883670867748104,-0.02074848948396648,0.0003058949768194837
91,4.0,300.07911,184.19643,0.0,0.0,0.0,0.0,0.0,0.000906979672127689,-0.003076902938766677,-0.03738868854972626,-0.015525523643999884,0.029292910429985174,0.001147419004041439,-0.009763104464043392
92,4.0,299.95412999999996,163.02438999999998,0.0,0.0,0.0,0.0,0.0,0.0009169464817115336,-0.037016834882277166,-0.02081745432552278,0.008278944961518252,0.003402593742259856,-0.00945519599715519,0.015168769429540986
93,4.0,300.58578,657.84213,0.0,0.0,0.0,0.0,0.0,0.0009269132912953226,-0.10446576106996788,-0.04671564964072566,-0.04878617555757066,0.013034239543629289,0.007468015068610703,0.02667932906904477
94,4.0,301.0355,561.09167,0.0,0.0,0.0,0.0,0.0,0.0009368801008791672,-0.08340618455354952,-0.029427164041734972,-0.05772450761246535,-0.04348889694201996,-0.016669877161188784,0.027511905530463673
95,4.0,299.36701,30.431140999999997,0.0,0.0,0.0,0.0,0.0,0.000946846910462984,0.04035937876266056,-0.014088958930471986,-0.03552072652662276,-0.007063864358199134,0.0007123639021348433,0.02597592983637468
96,4.0,299.77203,49.752231,0.0,0.0,0.0,0.0,0.0,0.0009568137200468008,-0.013396045823086788,0.013325725252896686,-0.015053115036626786,-0.02108874393379698,0.005837144753631334,0.02051588475126018
97,4.0,299.66897,399.85446,0.0,0.0,0.0,0.0,0.0,0.0009667805296306176,-0.03648332830712417,-0.02180237597922698,-0.06326006820103264,-0.0005098033419861724,0.005975849471745425,0.035235365914209865
98,4.0,299.20979,354.41258,0.0,0.0,0.0,0.0,0.0,0.000976747339214462,-0.09052903992727061,-0.0099874705615116,-0.007216064453070113,-0.02020570153789748,-0.013234205464114386,0.008992474972663181
99,4.0,299.59074,187.86233000000001,0.0,0.0,0.0,0.0,0.0,0.0009867141487982511,-0.027153265657568676,-0.030074430232115174,0.00012223861365401187,-0.0024845551064564975,-0.0021315322868158577,-0.0033773352411170365
100,4.0,300.24748,205.63822,0.0,0.0,0.0,0.0,0.0,0.000996680958382068,-0.017221100414340284,-0.03611845187986367,-0.009169330786192491,0.017327118798803484,0.04136493018840076,-0.016039037781429785
101,4.0,300.30908,261.92762,0.0,0.0,0.0,0.0,0.0,0.0010066477679658847,0.016166429663502385,-0.06356296310642603,-0.03222292169115477,0.028602351102582274,0.018406996172379085,-0.015431290371449786
102,4.0,300.26845,392.12874,0.0,0.0,0.0,0.0,0.0,0.0010166145775497293,-0.044974407714878456,-0.03409872829653247,-0.04012421050720126,0.012731262564977789,-0.001991535573499258,-0.00045020588614686164
103,4.0,300.72053999999997,439.26767,0.0,0.0,0.0,0.0,0.0,0.001026581387133546,-0.02130341515298338,-0.05552498077238894,-0.05669800724090765,-0.015723427600531484,-0.02192489716806888,0.022385069767234377
104,4.0,300.92828,97.308786,0.0,0.0,0.0,0.0,0.0,0.0010365481967173906,-0.024988204519643776,-0.01850610419116028,0.013914867364540486,-0.017119079301521584,-0.01015494752946529,0.037972382415582366
105,4.0,300.05037999999996,115.24591000000001,0.0,0.0,0.0,0.0,0.0,0.001046515006301152,0.017036071826829383,-0.03222041187065707,-0.01984753789254948,-0.03305000937678197,-0.01206381749885609,0.015033126651904085
106,4.0,299.76021000000003,569.3388,0.0,0.0,0.0,0.0,0.0,0.0010564818158849965,-0.05185522499746225,-0.04962324071693255,-0.07158631512226923,-0.02145895613608408,7.830816055691372e-05,0.03128849028993357
107,4.0,300.26542,550.49354,0.0,0.0,0.0,0.0,0.0,0.0010664486254688132,-0.02058105395794188,-0.07241796243334643,-0.07433727293176763,-0.0007239159563924423,0.013220066572218988,-0.0037202397452590764
108,4.0,300.31642,162.58527,0.0,0.0,0.0,0.0,0.0,0.0010764154350526578,-0.028025074149609475,-0.014405169968679589,-0.006991618106193983,0.010301790773707591,0.028069380536732177,0.005962600618737864
109,4.0,300.13302000000004,277.09258,0.0,0.0,0.0,0.0,0.0,0.0010863822446364746,-0.029202912542853073,-0.034245686038036065,-0.02078062775063828,0.02973958856431887,0.004171741254043806,0.0033576072616700366
110,4.0,299.78301,475.5607,0.0,0.0,0.0,0.0,0.0,0.0010963490542202914,-0.1025261774635459,-0.019340803411538682,-0.02269159616098618,0.006464427625539333,-0.018828776725255583,0.04667021145324125
111,4.0,299.90853,370.63212999999996,0.0,0.0,0.0,0.0,0.0,0.0011063158638041082,-0.04365324509498986,-0.016907008082091786,-0.05210265864538205,-0.014651540717244485,-0.009061097234360672,0.011252522329287489
112,4.0,300.36964,343.58755,0.0,0.0,0.0,0.0,0.0,0.0011162826733879527,-0.015427996295374686,-0.03369993028242417,-0.05531410924107754,-0.018665487418640183,0.008047247087651452,0.03783691493021276
113,4.0,300.16404,240.76292,0.0,0.0,0.0,0.0,0.0,0.0011262494829717418,-0.013356739825207587,-0.01980226790458168,-0.04002690607359806,-0.007534178881590563,0.015533193947256885,0.01124530596207529
114,4.0,301.13693,385.86755,0.0,0.0,0.0,0.0,0.0,0.0011362162925555863,-0.05858796895018235,-0.021360859340902684,-0.03734527179619136,-0.026843368180734177,0.00951179533714111,0.03990045144786796
115,4.0,300.86311,572.8897400000001,0.0,0.0,0.0,0.0,0.0,0.0011461831021393754,-0.08771103839840551,-0.04974550150049875,-0.03668763600428777,0.00997328029783613,-0.014256702484526986,-0.0006082908058761285
116,4.0,301.25998,554.4850799999999,0.0,0.0,0.0,0.0,0.0,0.00115614991172322,-0.10221021568486291,-0.02087604449930518,-0.04546335763013405,-0.03159101941204087,0.010431781642286688,0.054352783142452045
117,4.0,301.08177,143.54273,0.0,0.0,0.0,0.0,0.0,0.0011661167213070367,0.0015951904352330384,-0.03276055726046527,-0.01246803842749959,0.019345291096231582,-0.0023542128427427177,-0.004617516075913355
118,4.0,299.93669,72.324106,0.0,0.0,0.0,0.0,0.0,0.0011760835308908812,0.02008169492440898,-0.02496450763955508,-0.01710191079182718,0.012598598742634887,0.0007153087210329744,0.015317157880185785
119,4.0,299.36838,394.23695,0.0,0.0,0.0,0.0,0.0,0.0011860503404746703,-0.032512171157451475,-0.037122438847449465,-0.05020357869845745,0.014090057293580384,-0.02095978759356998,-0.023412814409914877
120,4.0,300.91371000000004,448.25920999999994,0.0,0.0,0.0,0.0,0.0,0.001196017150058487,-0.06695201617964953,-0.03128727236331337,-0.03802031725131317,0.0024192953152158574,-0.002012490193517318,0.014318507700876686
121,4.0,300.11406,-63.805168,0.0,0.0,0.0,0.0,0.0,0.0012059839596423039,0.007101651392853424,-0.00970197427491031,0.021995501448286978,-0.0018388318933285782,-0.004308692340209826,-0.03380140221368867
122,4.0,299.97639,-35.817986,0.0,0.0,0.0,0.0,0.0,0.0012159507692261484,-0.014563523734057884,0.02078579532614828,0.004665501878124185,0.0064196167411918435,0.014492466531045087,0.03979857117681316
123,4.0,299.66992,384.30266,0.0,0.0,0.0,0.0,0.0,0.0012259175788099652,-0.02096384262047018,-0.051247101671695154,-0.044607470336914555,0.003742449782151036,0.008505805579407652,-0.004685320036830086
124,4.0,300.58939,521.26531,0.0,0.0,0.0,0.0,0.0,0.0012358843883938098,-0.04912127965714286,-0.040319715087496065,-0.06901064350057023,0.008241783406150692,0.008808723688228342,0.05234482541928205
125,4.0,300.66357999999997,533.0087900000001,0.0,0.0,0.0,0.0,0.0,0.001245851197977571,-0.04083087747144386,-0.06255108596031153,-0.05863939848550803,-0.004303980727244827,-0.011238873850440489,0.009183037526920242
126,4.0,300.46036000000004,424.88288,0.0,0.0,0.0,0.0,0.0,0.0012558180075614156,-0.06628316168263873,-0.04175310630171076,-0.02111751922338688,-0.01046906620621639,-0.01029162280895409,0.05728738645307485
127,4.0,300.46479,281.50647000000004,0.0,0.0,0.0,0.0,0.0,0.0012657848171452324,-0.06595606631185694,-0.012102093021383589,-0.007512777823578442,0.018256662281542286,-0.021450780221027182,0.005816757452344265
128,4.0,300.74427000000003,566.40085,0.0,0.0,0.0,0.0,0.0,0.001275751626729077,-0.1012335489797234,-0.03167465104879467,-0.03926351432900716,-0.02735244934897657,-0.009731591879308341,0.03162672431906467
129,4.0,299.92121000000003,541.59341,0.0,0.0,0.0,0.0,0.0,0.0012857184363128937,-0.06219258591593034,-0.01126680206294679,-0.09117148406042491,-0.012688139653971888,0.002051268794719468,0.016995987652873384
130,4.0,300.61491,69.836336,0.0,0.0,0.0,0.0,0.0,0.0012956852458967105,0.0025504442273342476,0.004579319282918626,-0.028358266246242974,-0.009689302062534662,0.003902610476432666,0.01909430803321148
131,4.0,299.17578,-214.22836,0.0,0.0,0.0,0.0,0.0,0.0013056520554805273,0.04212099714801876,0.018790342122462382,0.004208732279419535,0.034469299189354964,0.010476198473670291,0.007353996365332933
132,4.0,299.29665,268.9936,0.0,0.0,0.0,0.0,0.0,0.0013156188650643719,-0.06234866290833394,0.021732196250800778,-0.041150869959024665,0.01069696439220819,0.003179719250263857,0.015429178758241385
133,4.0,299.38969,600.8550299999999,0.0,0.0,0.0,0.0,0.0,0.001325585674648161,-0.08102626373191962,-0.046841172076363756,-0.05477748793511715,0.02839877598524097,-0.0014256157355973186,0.02287011360335448
134,4.0,299.86937,392.07804,0.0,0.0,0.0,0.0,0.0,0.0013355524842320055,-0.05114454657607374,-0.04369427463128916,-0.024343111750728078,-0.02435963178035848,0.0005429263053701545,0.004111177877016666
135,4.0,299.51392000000004,198.57336,0.0,0.0,0.0,0.0,0.0,0.0013455192938157945,0.015561468691297384,-0.04297096706065426,-0.03295184368059376,0.009910530124443172,-0.025735816920427375,0.007567361403815423
136,4.0,300.3151,197.59643,0.0,0.0,0.0,0.0,0.0,0.001355486103399639,-0.016875994523030985,-0.026984258580638975,-0.016204127633472884,-0.02644503524842177,-0.019055648488896085,0.025325202383652875
137,4.0,299.51415,204.07007,0.0,0.0,0.0,0.0,0.0,0.0013654529129834558,-0.0051885475579197754,-0.03202396902076968,-0.024819690895512773,0.01112540402474189,-0.013140667281132888,0.016609257447456085
138,4.0,300.0533,352.01223999999996,0.0,0.0,0.0,0.0,0.0,0.0013754197225673004,-0.05964755700375555,-0.03126520276288527,-0.016090170434476185,0.0002051829324674788,0.0049215719632713355,0.01929983061724498
139,4.0,299.5265,213.31400000000002,0.0,0.0,0.0,0.0,0.0,0.0013853865321510894,-0.034229219710660966,-0.02620267494375268,-0.004410233476456156,0.011241474863447188,0.013406063826825486,-0.01122899060896509
140,4.0,299.80522,-28.851306,0.0,0.0,0.0,0.0,0.0,0.0013953533417349062,-0.02467853299758158,0.009370352817256821,0.024078256280588874,0.0014915263373771886,0.020156401854281983,-0.008074357303352023
141,4.0,299.92976,226.39575,0.0,0.0,0.0,0.0,0.0,0.001405320151318723,-0.02066943165816408,-0.0006868170806760684,-0.04746240685842486,-0.0015746011932010386,0.0006001902664941675,-0.015586375392005485
142,4.0,299.91218,487.87566,0.0,0.0,0.0,0.0,0.0,0.0014152869609025676,-0.04218232816332167,-0.018428400067491482,-0.08769129015395652,0.003967059768918316,0.013040578436254887,0.012939245320254087
143,4.0,300.82557,343.25322,0.0,0.0,0.0,0.0,0.0,0.0014252537704863844,-0.01067704794824259,-0.035727732508802665,-0.05793562637680114,-0.009055973127279961,-0.009249040739759252,0.02209153222651448
144,4.0,301.38124,173.83208,0.0,0.0,0.0,0.0,0.0,0.001435220580070229,-0.024055124794055978,-0.01272608283046659,-0.016059405121689883,-0.007308584826326163,-0.02313388996213718,0.049426470587262857
145,4.0,299.68512000000004,348.43984,0.0,0.0,0.0,0.0,0.0,0.0014451873896539902,-0.08125204118545212,-0.009220352792327972,-0.015444615623514886,-0.005131586588973165,-0.022435729232484082,0.06245379773870994
146,4.0,299.93784,485.48902999999996,0.0,0.0,0.0,0.0,0.0,0.0014551541992378347,-0.07909120327394402,-0.02185612991028208,-0.04662920927469466,-0.008091416078060592,-0.015156460467326185,0.026065151573930176
147,4.0,299.71716000000004,340.39127,0.0,0.0,0.0,0.0,0.0,0.0014651210088216515,-0.04658104645769136,-0.027503136864098273,-0.029386264201448475,-0.005174780427486065,0.0037124345784137667,0.016888132245978883
148,4.0,299.20222,294.88768,0.0,0.0,0.0,0.0,0.0,0.001475087818405496,-0.02223868349878718,-0.0057924672129970045,-0.06160734076417114,-0.003452475234082777,0.025458355605794077,0.02046744633022968
149,4.0,299.4236,195.75832,0.0,0.0,0.0,0.0,0.0,0.0014850546279893129,-0.04623489691877905,0.017255216545207282,-0.030525959807927674,0.0025606979130462075,0.03691271026225087,0.018525469427071485
150,4.0,299.38114,161.6336,0.0,0.0,0.0,0.0,0.0,0.0014950214375731297,-0.03250821542906107,0.014415030918652788,-0.03103939389859967,0.03028378188827657,0.01240788683531309,0.0019129532659687882
151,4.0,299.05899,334.39577,0.0,0.0,0.0,0.0,0.0,0.0015049882471569465,-0.057542758915528146,-0.01935410738535168,-0.024751097916743178,-0.012884952340145788,-7.044484430161483e-05,0.006776780511341164
152,4.0,300.07802000000004,293.43044,0.0,0.0,0.0,0.0,0.0,0.001514955056740791,-0.022933341422844578,-0.035590916387549965,-0.03067126797826847,-0.00867924674009996,-0.02198493426299408,0.007714234032310622
153,4.0,300.08716,-89.358974,0.0,0.0,0.0,0.0,0.0,0.00152492186632458,0.01803660057182388,-0.006318368130249384,0.015444664259519684,-0.00979458918440069,-0.01937112796053148,-0.01013210350198576
154,4.0,300.30138,160.29464,0.0,0.0,0.0,0.0,0.0,0.0015348886759084246,-0.004312085208169675,-0.026925008781041475,-0.017488473810977984,0.019266450105950583,0.000931760038260056,0.013781930977920687
155,4.0,300.53553999999997,479.40147,0.0,0.0,0.0,0.0,0.0,0.0015448554854922136,-0.04035222217720426,-0.05117147775048165,-0.054202376297608046,0.018556630920646883,-0.008511967761215811,0.018497672937078182
156,4.0,301.29567000000003,295.94146,0.0,0.0,0.0,0.0,0.0,0.0015548222950760582,-0.028474487045963077,-0.035283287577689365,-0.02620103955809127,0.03125074064420797,-0.02256309780980438,0.04485748473283905
157,4.0,300.46725,240.6363,0.0,0.0,0.0,0.0,0.0,0.001564789104659875,-0.04196256333588256,-0.012294931740665288,-0.01888993143504108,-0.024725454583212375,-0.011771538414760387,0.034025892839594174
158,4.0,299.67019,407.42873,0.0,0.0,0.0,0.0,0.0,0.0015747559142437195,-0.055291860295381745,-0.02237796789728348,-0.046178332231946555,0.00963813039935941,-0.011984622884290188,0.031221032151275967
159,4.0,299.53105,268.5623,0.0,0.0,0.0,0.0,0.0,0.0015847227238275086,-0.01996644988453518,-0.01145700734521859,-0.05021277596961515,-0.009000979687377533,0.009204102793849221,0.006595615142486534
160,4.0,300.40991,234.24507000000003,0.0,0.0,0.0,0.0,0.0,0.0015946895334113254,-0.03222638599324667,-0.01961684820253218,-0.019361415958322983,-0.002140884686563868,0.016435645148821884,-0.005698626372210635
161,4.0,298.9051,339.69017,0.0,0.0,0.0,0.0,0.0,0.0016046563429951421,-0.056552123544510044,-0.01159601715293779,-0.035109190945507365,-0.016219997156539084,0.02309041038709608,0.023352218000934476
162,4.0,298.68138999999996,187.92961,0.0,0.0,0.0,0.0,0.0,0.0016146231525789867,-0.058154167198119444,0.015335832079528785,-0.014307574732297686,0.005757618806282734,0.005047410634265645,0.012281536574343289
163,4.0,299.62151,151.51327,0.0,0.0,0.0,0.0,0.0,0.0016245899621628035,-0.023573013303725278,-0.01220425801571649,-0.01027897846095619,-0.0037929608062610867,-0.004983014942710285,0.04389342387219366
164,4.0,300.61231000000004,437.53597,0.0,0.0,0.0,0.0,0.0,0.001634556771746648,-0.03595126966636407,-0.04043067813244726,-0.05661806282126775,0.00039915153706818966,-0.03690370956161256,0.02631563915765137
165,4.0,300.98431,429.8414,0.0,0.0,0.0,0.0,0.0,0.0016445235813304093,-0.04985182791299236,-0.022975803694785277,-0.05783341983921415,0.006447698461088294,-0.009181700138113251,0.05786079076416545
166,4.0,299.94225,364.32909,0.0,0.0,0.0,0.0,0.0,0.0016544903909142539,-0.059185321427386445,-0.028352706542944268,-0.023208920118792078,-0.007793529566586483,-0.03307771366101617,-0.001836684512391648
167,4.0,299.7055,415.08781,0.0,0.0,0.0,0.0,0.0,0.0016644572004980707,-0.05353303746704945,-0.03555675567367857,-0.03708653736990626,0.012870462863715787,-0.007736625238320462,0.035118851271960766
168,4.0,298.98654,304.56251000000003,0.0,0.0,0.0,0.0,0.0,0.0016744240100819152,-0.04176227925486606,-0.03676008642618807,-0.014057031419820986,-0.014184341228635487,-0.015374724671367185,-0.005090675906910595
169,4.0,299.87335,126.94851000000001,0.0,0.0,0.0,0.0,0.0,0.001684390819665732,-0.0037568778556249763,-0.015625713813887884,-0.019206584250292282,0.0006338877933473545,0.014613931913282788,0.02765731907881487
170,4.0,299.66027,71.202781,0.0,0.0,0.0,0.0,0.0,0.0016943576292495488,-0.007733838597895442,-0.007022772000393634,-0.006887256892269333,-0.0032529618310923373,0.01092136179910449,0.004266939039364096
171,4.0,299.42302,168.15756000000002,0.0,0.0,0.0,0.0,0.0,0.0017043244388333656,-0.01901715815734738,0.0018820775089215883,-0.03398061879862597,0.007060965145688003,0.028823751315682773,0.015726073196542584
172,4.0,300.62068,105.34841999999999,0.0,0.0,0.0,0.0,0.0,0.0017142912484172101,-0.023435942856697478,-0.0009574486843353281,-0.007629898794687382,0.012637444724968687,0.019208485107479883,-0.015681161899110185
173,4.0,300.32205,327.03132,0.0,0.0,0.0,0.0,0.0,0.0017242580580009992,-0.03665638331820336,-0.035011767961642466,-0.027741204028093675,0.0034736702983495667,0.01092857411331629,0.012505970458243188
174,4.0,299.04931,597.7341700000001,0.0,0.0,0.0,0.0,0.0,0.0017342248675848437,-0.1062577242693209,-0.043993849116104856,-0.03144469495184977,-0.011725491263965888,-0.01969557064255148,0.011624792442527688
175,4.0,300.60254,428.55302,0.0,0.0,0.0,0.0,0.0,0.0017441916771686328,-0.05901359884018874,-0.03125476730010537,-0.040001050970796356,-0.03674035034074026,-0.004486726259630406,0.05325157888077165
176,4.0,300.45006,59.071509999999996,0.0,0.0,0.0,0.0,0.0,0.0017541584867524773,0.013560468956564087,-0.011726269440042689,-0.019790462527666582,-0.013283397743219289,-0.0072591428823966225,0.04457848530455396
177,4.0,299.01353,314.62267,0.0,0.0,0.0,0.0,0.0,0.0017641252963362941,-0.015563464793994383,-0.018460268809636683,-0.06161369992179874,-0.009533906278173292,0.003185188571653637,0.07009272165336303
178,4.0,299.34702000000004,475.51954000000006,0.0,0.0,0.0,0.0,0.0,0.0017740921059201387,-0.04578693398331855,-0.018301630320980283,-0.08045750111953712,0.009449881905680732,-0.015413521004446087,0.03554860610312426
179,4.0,300.36219,385.06225,0.0,0.0,0.0,0.0,0.0,0.0017840589155039555,-0.07253171596907303,-0.015122164991191485,-0.029395429048602973,-0.001142022636658859,-0.002508403062135107,0.018937953410280484
180,4.0,301.10748,363.06896,0.0,0.0,0.0,0.0,0.0,0.0017940257250877445,-0.07015027425904304,0.0015594702281327287,-0.04177309265993326,0.032836098095170574,0.007693048796569802,0.034910738820671666
181,4.0,301.3844,169.09641000000002,0.0,0.0,0.0,0.0,0.0,0.0018039925346715613,-0.04356498594502936,0.011921816576841687,-0.019757916934454584,0.003897481201776446,0.013360785732856885,0.015929697963138787
182,4.0,300.19015,87.466711,0.0,0.0,0.0,0.0,0.0,0.0018139593442554058,0.008755105634011651,-0.007000876071032674,-0.028341925561880272,0.004577833959597035,0.0034886698448799063,0.016519262600074285
183,4.0,300.32738,485.15550999999994,0.0,0.0,0.0,0.0,0.0,0.0018239261538392226,-0.06429234105841003,-0.022003138314290682,-0.06117968032096435,-0.059954161417765044,0.017287409527384483,0.01957821398946928
184,4.0,299.88588,615.25552,0.0,0.0,0.0,0.0,0.0,0.0018338929634230394,-0.047829379700142255,-0.07389123415824703,-0.06530170027802602,0.004021972148812746,0.008473623135031493,0.015871529301397985
185,4.0,298.83742,110.92419,0.0,0.0,0.0,0.0,0.0,0.0018438597730068285,-0.015358180323734384,-0.029959704989542674,0.011599701330301387,-0.04229961084914657,0.002212971453003278,0.0027016283363299576
186,4.0,299.1536,170.58308,0.0,0.0,0.0,0.0,0.0,0.001853826582590673,-0.02254410241017968,-0.031132096150248676,0.0018232022065610481,0.015817408573806684,-0.017332011783536383,0.002995635113171167
187,4.0,299.03533999999996,377.21626000000003,0.0,0.0,0.0,0.0,0.0,0.0018637933921744898,-0.05689525967762495,-0.037135906967778666,-0.02063315629133398,-0.009260039468269742,-0.019273805288426482,0.004114552506474715
188,4.0,300.22392,166.25352,0.0,0.0,0.0,0.0,0.0,0.0018737602017583066,3.353057971371057e-05,-0.011954796854346588,-0.03861565234756817,0.05475601716549815,0.014406371683298187,0.03372501227539957
189,4.0,300.88091000000003,40.30762,0.0,0.0,0.0,0.0,0.0,0.0018837270113421511,0.014829169539275086,-0.019552836127464678,-0.007528843207888973,-0.0025448092395531177,0.009479352487489252,0.02983923664540337
190,4.0,300.49296,296.22134,0.0,0.0,0.0,0.0,0.0,0.001893693820925968,-0.012170999094434089,-0.021711035535712377,-0.056161858109493853,0.03389256432518567,-0.012600035531276687,0.03651854584084986
191,4.0,301.0974,371.39562,0.0,0.0,0.0,0.0,0.0,0.0019036606305097847,-0.05754105766861024,-0.03318907693975687,-0.022164860123001378,-0.02318570757225118,-0.01238121505293079,0.004390170212551066
192,4.0,301.35638,483.27715,0.0,0.0,0.0,0.0,0.0,0.0019136274400935738,-0.06348331455581535,-0.056136315087722946,-0.027284555512775973,0.01179358065743579,-0.004707477790016886,0.015380928801729483
193,4.0,299.5565,447.18497,0.0,0.0,0.0,0.0,0.0,0.0019235942496774183,-0.07648782838126092,-0.03471402847275787,-0.024731208830530274,-0.026186078920364772,0.006018317316561675,0.01044675139926409
194,4.0,299.11758,248.04247,0.0,0.0,0.0,0.0,0.0,0.0019335610592612351,-0.027437813643401376,-0.018048290438227584,-0.02991261216464497,-0.026684122755267874,-0.007674593965873453,0.03508928868704317
195,4.0,300.17884,163.11229,0.0,0.0,0.0,0.0,0.0,0.001943527868845052,-0.033617723275310964,-0.005601156778841134,-0.01036318359726659,-0.029443389215586268,-0.005806170913974454,0.015623815996450586
196,4.0,300.28862000000004,453.9731,0.0,0.0,0.0,0.0,0.0,0.0019534946784288965,-0.049436141046217255,-0.029608558101137175,-0.05895178855758854,0.002198787572803438,-0.0029275747999791372,0.07089573958286473
197,4.0,299.87349,372.75742,0.0,0.0,0.0,0.0,0.0,0.0019634614880127133,-0.05210861148971954,-0.033115640625509264,-0.028084696825243772,0.03966125451001106,0.015179881743387686,0.038326292437010565
198,4.0,298.9622,45.027458,0.0,0.0,0.0,0.0,0.0,0.00197342829759653,-0.015955874266222185,-0.004523862990370516,0.006792514461543984,0.00921398866977488,-0.02906574381056557,0.03787021336824906
199,4.0,300.33934,299.21622,0.0,0.0,0.0,0.0,0.0,0.0019833951071803746,-0.04396901131640355,-0.019416314861991083,-0.027568931246091676,0.02110350192150348,-0.024668140091305878,0.018992472345161084
200,4.0,300.01247,519.01139,0.0,0.0,0.0,0.0,0.0,0.0019933619167641636,-0.08012523614674513,-0.026162900824327272,-0.05147836587451915,-0.008401952409083143,-0.004669433693812225,0.02502931511595108
201,4.0,300.90315,369.10031000000004,0.0,0.0,0.0,0.0,0.0,0.0020033287263479804,-0.03336657606577467,-0.037216308363213664,-0.04161439337627086,0.008020250153312062,0.014535696846561587,0.03270689756166947
202,4.0,300.98058,247.49597999999997,0.0,0.0,0.0,0.0,0.0,0.0020132955359317972,-0.012600174346540387,-0.036987996771181066,-0.025644425814407776,-0.018568981426115783,-0.00990529040552605,0.0004835387544215595
203,4.0,299.5787,295.33557,0.0,0.0,0.0,0.0,0.0,0.0020232623455156418,-0.02804668981399277,-0.03995314653256857,-0.02177480341750578,0.0025263308001294373,0.0022295476166892176,0.002150776034040068
204,4.0,300.35663999999997,186.00942,0.0,0.0,0.0,0.0,0.0,0.0020332291550994586,-0.016691304361053483,-0.05357534268522465,0.013724428021495589,0.027007799420212274,-0.006547708171133483,-0.017071964185121684
205,4.0,300.88119,207.57763,0.0,0.0,0.0,0.0,0.0,0.0020431959646832476,-0.029688530891779873,-0.040443905099252664,0.007034019684453692,0.008505003287978471,0.015259655937010785,0.015505299172003884
206,4.0,299.81286,374.8346,0.0,0.0,0.0,0.0,0.0,0.0020531627742670644,-0.042365574443906664,-0.03033368445570157,-0.04124109886717956,-0.02512794082768468,0.006932313084466034,0.01978905411002758
207,4.0,299.42915,305.51014,0.0,0.0,0.0,0.0,0.0,0.002063129583850909,-0.044024649892644666,-0.024814568916257274,-0.02402823516290218,-0.020401254754197084,0.005144053618203565,0.04973830539828855
208,4.0,299.80548999999996,212.12932,0.0,0.0,0.0,0.0,0.0,0.0020730963934347257,-0.017313323398691984,-0.006931293754865433,-0.040237399662622166,-0.003266224666951277,0.021873478778494278,0.02867784431453287
209,4.0,299.24491,385.07568,0.0,0.0,0.0,0.0,0.0,0.0020830632030185703,-0.04325091083803256,-0.024923321049490275,-0.04887915847949736,0.009175874861963342,0.020313002696987284,0.043190082394779256
210,4.0,299.49119,320.20919,0.0,0.0,0.0,0.0,0.0,0.0020930300126023593,-0.04000206928714686,-0.024232730311334275,-0.03310079651154427,0.0009991264473861031,-0.01778985796047228,0.028619153828990575
211,4.0,299.51492,263.16596,0.0,0.0,0.0,0.0,0.0,0.002102996822186204,-0.030328956630734972,-0.02696180293192277,-0.022705120010070877,-0.0018121888872491183,-0.03641663314579186,0.02318289580322368
212,4.0,299.65038,477.82409,0.0,0.0,0.0,0.0,0.0,0.002112963631769993,-0.07957689559012814,-0.024129764849422374,-0.041539931652922066,0.017670983458740283,-0.003095154714142987,0.023551470593349177
213,4.0,300.22556000000003,385.16902000000005,0.0,0.0,0.0,0.0,0.0,0.0021229304413538375,-0.07929256747956713,-0.0019734508830644383,-0.035815746452238964,0.018024079840338183,4.7838041975247156e-05,0.044957906936999956
214,4.0,300.24157,58.201096,0.0,0.0,0.0,0.0,0.0,0.0021328972509376543,-0.008309538629737613,0.011345834557496689,-0.02072797623569198,-0.019717807429246084,-0.00946485470240843,0.03788348897105926
215,4.0,301.20105,166.36326,0.0,0.0,0.0,0.0,0.0,0.002142864060521471,-0.015622946627864787,-0.008320055963125593,-0.026627274358407373,-0.025089249872616178,-0.016513624876517884,0.02128852746926408
216,4.0,300.43886000000003,294.62931000000003,0.0,0.0,0.0,0.0,0.0,0.002152830870105288,-0.026422102358908475,-0.023924215920886276,-0.03921363303983426,-0.003922867473756877,0.0037255638679095267,0.054993877626473155
217,4.0,300.1259,252.52135,0.0,0.0,0.0,0.0,0.0,0.0021627976796891324,-0.013017477347224988,-0.04085195611327416,-0.02289075249464138,-0.0041029529206549255,-0.0023966698457828974,0.008027684470620773
218,4.0,300.29521,291.20669,0.0,0.0,0.0,0.0,0.0,0.002172764489272949,-0.04589814628779436,-0.007879006939722441,-0.03474240859480877,-0.0015520379373242185,-0.002221798887874478,0.044040317778940956
219,4.0,300.14254,212.85484,0.0,0.0,0.0,0.0,0.0,0.0021827312988567937,-0.04189247479996536,-0.018730422564548783,-0.004079658300855926,0.00026562742486038575,-0.015157854699463787,-0.006141909004134223
220,4.0,299.59137000000004,67.800634,0.0,0.0,0.0,0.0,0.0,0.0021926981084405828,0.004282038289704276,-0.024574729577836976,-0.00031700868895132174,0.019753062453225483,0.017426960410657083,0.008813473500722112
221,4.0,300.54689,176.74495,0.0,0.0,0.0,0.0,0.0,0.0022026649180243996,-0.00935351006746957,-0.02919802361112057,-0.015174518610608386,0.023758850464815975,-0.008072222486716333,-0.027633784318742173
222,4.0,300.45128,532.30841,0.0,0.0,0.0,0.0,0.0,0.002212631727608244,-0.02171692961154408,-0.056643593684037444,-0.08344794160342063,0.018607427174660084,0.008671807356540752,0.03323222822176557
223,4.0,300.42024,292.3492,0.0,0.0,0.0,0.0,0.0,0.002222598537192061,-0.028943852863285872,-0.02032508367792958,-0.039597919286010363,-0.006640767086817683,-0.004549983362048396,-0.0019425365211884283
224,4.0,301.23335,190.37478000000002,0.0,0.0,0.0,0.0,0.0,0.0022325653467758777,-0.01967633915565348,0.005351396708691735,-0.043544236609481556,-0.01183741385676179,0.02713997181625668,0.04916223319968465
225,4.0,300.70097000000004,362.72548,0.0,0.0,0.0,0.0,0.0,0.0022425321563596667,-0.07092665283016564,-0.003102221424315417,-0.03623061461293327,-0.018253001408930984,-0.0019789939690614982,0.04362642031184246
226,4.0,300.99001,450.13030999999995,0.0,0.0,0.0,0.0,0.0,0.0022524989659435113,-0.06508494784313423,-0.010318635043369991,-0.06142479159965494,-0.01068390562491939,0.008438495881889701,0.06638998661418154
227,4.0,301.28705,295.96112999999997,0.0,0.0,0.0,0.0,0.0,0.002262465775527328,-0.03854193232329256,-0.01981347242418748,-0.031609388623103765,-0.021416514129145376,-0.005335908876938205,0.03066236758939007
228,4.0,300.57559,333.7866,0.0,0.0,0.0,0.0,0.0,0.0022724325851111726,-0.015542640477939186,-0.03269264214601257,-0.05322750709814596,-0.030045057124966267,0.01952529902949698,0.05131361039500905
229,4.0,300.03136,403.63671,0.0,0.0,0.0,0.0,0.0,0.0022823993946949617,-0.04970117687487425,-0.005852820340628395,-0.06714148381584854,-0.0020406881332002383,0.014400106757929885,0.04507966514851655
230,4.0,300.47444,479.38025999999996,0.0,0.0,0.0,0.0,0.0,0.0022923662042787785,-0.06755308221847015,-0.01853714916097418,-0.05962939753546335,-0.0014424394362826886,0.012741173164205886,0.04596636132427666
231,4.0,301.07524,479.67620999999997,0.0,0.0,0.0,0.0,0.0,0.002302333013862623,-0.06365783472653914,-0.035703321287393466,-0.04644843431110355,0.02246706297857648,-0.024371380415267978,0.024347151578876777
232,4.0,301.24899,430.48796,0.0,0.0,0.0,0.0,0.0,0.00231229982344644,-0.06792417594834423,-0.008899681325855162,-0.054033733990714344,-0.00997292393777596,0.00803026987957593,0.018425077620413583
233,4.0,300.46089,163.9895,0.0,0.0,0.0,0.0,0.0,0.0023222666330302566,-0.0017061235893062886,-0.045086463043437455,-0.0030561252322160773,0.022796510102840378,-0.02115281984362078,0.0030355297080334573
234,4.0,299.68715,127.11566,0.0,0.0,0.0,0.0,0.0,0.0023322334426140734,-0.011460919503854689,-0.005089439539138575,-0.02208962731632648,0.001089351363335609,0.0015554018263312084,0.022710844873135877
235,4.0,299.82517,486.81729,0.0,0.0,0.0,0.0,0.0,0.00234220025219789,-0.059185453149899446,-0.02650190188378407,-0.06229294631183515,0.01863890074926628,-0.006855244369934943,0.030215753289812672
236,4.0,299.94459,226.53852999999998,0.0,0.0,0.0,0.0,0.0,0.002352167061781707,-0.03733728535890316,-0.005938202062954915,-0.025586568220447678,-0.016916366460015382,0.02205417977482808,0.023330863755076977
237,4.0,298.83489,-57.38273,0.0,0.0,0.0,0.0,0.0,0.0023621338713655515,0.024837646700534875,-0.017338043661381683,0.00994331423672871,-0.01068376073015509,-0.002225464421436238,0.019031441944007084
238,4.0,299.82146,342.58471000000003,0.0,0.0,0.0,0.0,0.0,0.0023721006809493683,-0.036355066043215666,-0.054518841661590746,-0.013263288781734687,-0.03012943755354397,0.001036307821925619,-0.0002400767327862288
239,4.0,299.9243,635.93907,0.0,0.0,0.0,0.0,0.0,0.002382067490533185,-0.06626040712514303,-0.05521898430843944,-0.07183020644783943,0.024168281525473678,-0.009547520610491921,0.022732335907756876
240,4.0,300.87432,402.55181,0.0,0.0,0.0,0.0,0.0,0.002392034300117002,-0.04659032782860736,-0.04027836536416516,-0.035497005328531665,-0.014689637907754386,0.04663608822962355,-0.0027613105910701376
241,4.0,301.06075,154.92465,0.0,0.0,0.0,0.0,0.0,0.0024020011097008187,-0.034699050609779666,0.004001631659680296,-0.016395806181390082,0.025023785810155377,0.025398618432898475,0.04793650252721445
242,4.0,301.17607000000004,-19.601167999999998,0.0,0.0,0.0,0.0,0.0,0.0024119679192846633,-0.03508327910070007,0.03914226375579066,0.0018992810770694485,-0.015852545047524383,0.01024298173790359,0.03186784136586107
243,4.0,300.39516000000003,117.3879,0.0,0.0,0.0,0.0,0.0,0.0024219347288684523,-0.03249970615472127,0.005842804768689934,-0.00902608944340567,0.0034458206127260167,-0.018772023573904482,0.05958353074318665
244,4.0,300.84136,478.18587,0.0,0.0,0.0,0.0,0.0,0.002431901538452297,-0.08965597196535552,-0.016492562446689184,-0.03920802976678126,0.0030533243049646473,-0.014463017430138685,0.007488698745552022
245,4.0,299.06737000000004,518.88866,0.0,0.0,0.0,0.0,0.0,0.002441868348036086,-0.06190075063537845,-0.04893995247224725,-0.046888494909034156,0.011530390970460989,-0.02830403507439077,0.05297538210226315
246,4.0,299.36863999999997,102.39912,0.0,0.0,0.0,0.0,0.0,0.0024518351576199304,-0.008123840993185681,-0.016910729749709086,-0.006092205844328904,-0.02419785120314198,-0.014339737316971886,0.01713067898866638
247,4.0,299.79843,234.74522000000002,0.0,0.0,0.0,0.0,0.0,0.0024618019672037472,-0.019255279023598085,-0.004169897645486856,-0.04793150821747155,-0.006360553582262765,-0.029423811197154075,0.04680912398895086
248,4.0,300.08553,713.15317,0.0,0.0,0.0,0.0,0.0,0.002471768776787564,-0.07824305822473863,-0.05935160488804735,-0.07918609515905912,-0.0048885628081385855,0.03888810415370706,0.024510423660240477
249,4.0,300.12397000000004,431.10842,0.0,0.0,0.0,0.0,0.0,0.002481735586371381,-0.03759807668289126,-0.040889301472209864,-0.05255881573440124,-0.0035026829924378966,0.007866000354813793,0.019520856941058585
250,4.0,300.48838,-84.97507,0.0,0.0,0.0,0.0,0.0,0.0024917023959551976,0.012589575750494388,-0.004021945601660126,0.017262668999692785,-0.0026315311877869074,-0.004988432183044926,0.016084880255704086
251,4.0,300.52856,-21.647171,0.0,0.0,0.0,0.0,0.0,0.002501669205539042,0.006210839293862114,-0.002171937965028588,0.0025412982266316076,0.016406704699465684,-0.027262453488344676,0.0017614602170175884
252,4.0,301.73355,301.35798,0.0,0.0,0.0,0.0,0.0,0.002511636015122831,-0.04994928332086045,-0.0038048805791124764,-0.03785113893511657,0.03328372969784837,0.014370478311755787,0.02290966278125768
253,4.0,301.47637000000003,443.24015999999995,0.0,0.0,0.0,0.0,0.0,0.0025216028247066757,-0.055374468549534546,-0.03780811836237076,-0.04155135300804926,0.017143052798887583,-6.311664264937764e-05,0.007570532268678363
254,4.0,300.4418,327.66989,0.0,0.0,0.0,0.0,0.0,0.0025315696342904925,-0.03030264049913777,-0.027074535111548573,-0.04222629105866046,-0.017524102724244282,0.009019683574948461,0.03340661768322647
255,4.0,300.63126,128.76828999999998,0.0,0.0,0.0,0.0,0.0,0.0025415364438743093,-0.026135232003846577,0.0010844169366736188,-0.014091527519475486,-0.035844763908602764,-0.0037724267863595362,0.008389130235692691
256,4.0,300.13515,218.2491,0.0,0.0,0.0,0.0,0.0,0.002551503253458126,-0.024866200088352875,-0.04163090529990046,0.00015482705721274085,-0.01076392299856649,0.024820743662366678,0.020161813623066082
257,4.0,300.08669,537.631,0.0,0.0,0.0,0.0,0.0,0.002561470063041943,-0.09447117252782881,-0.024246105212654277,-0.04470912060019666,0.0023425100067377374,-0.0036583783948538366,0.01854601712584938
258,4.0,300.41537,557.92812,0.0,0.0,0.0,0.0,0.0,0.0025714368726257875,-0.060964392032467035,-0.023274259551490577,-0.08535756543088582,0.004435433614393216,-0.014427186880102487,0.05590109211675825
259,4.0,299.50527,-68.84669,0.0,0.0,0.0,0.0,0.0,0.0025814036822096043,-0.020382214771567982,0.04507007574957016,-0.003760186623826527,-0.007156821543573294,-0.031536216767132266,0.04030218991376646
260,4.0,299.19786,14.537837,0.0,0.0,0.0,0.0,0.0,0.0025913704917933933,0.01886764601234168,0.01191607448852499,-0.03520285983775176,0.01117514852515129,0.007974626946359403,0.06379469441754615
261,4.0,300.07608,516.7843799999999,0.0,0.0,0.0,0.0,0.0,0.002601337301377238,-0.07813056922513684,-0.030000111377030472,-0.048958866811863955,0.0094047818397547,0.015737248331895486,0.054812379202310656
262,4.0,299.78816,591.00231,0.0,0.0,0.0,0.0,0.0,0.0026113041109610546,-0.06098775555327284,-0.03085496515514797,-0.08780722521714841,0.013247943108970187,-0.0035944262028672464,0.04239377724719006
263,4.0,300.60106,429.11383,0.0,0.0,0.0,0.0,0.0,0.0026212709205448714,-0.07046839324718893,-0.024656757239682477,-0.035314738860793365,-0.011447543589284591,-0.026470429322427973,0.022052454209907778
264,4.0,301.55731000000003,195.77993,0.0,0.0,0.0,0.0,0.0,0.002631237730128716,-0.010075674995966701,-0.01039504220691079,-0.03904149198034526,0.006799748155332893,-0.0013120092224602287,0.03533639302868046
265,4.0,301.30821000000003,43.538391,0.0,0.0,0.0,0.0,0.0,0.002641204539712505,-0.015679885203984185,0.013239793538415886,-0.01079449174083339,0.0069596132845603535,0.012331459406770289,0.03247175261096247
266,4.0,300.43792,300.48084,0.0,0.0,0.0,0.0,0.0,0.002651171349296322,-0.017421742172642085,-0.02746884037471347,-0.04644809081931966,-0.02259691604514198,0.008488828472657143,0.024033853634706677
267,4.0,300.19288,571.1584,0.0,0.0,0.0,0.0,0.0,0.0026611381588801664,-0.07039723775891643,-0.02776232117342777,-0.07545833385565773,-0.03260980591058727,-0.014374998420451885,0.04896762331922815
268,4.0,299.99407,91.630853,0.0,0.0,0.0,0.0,0.0,0.002671104968463983,-0.018073138370429884,-0.006665740864682404,-0.0031146125611133274,-0.0018923147799819282,-0.0007971880126663312,0.02791343222709127
269,4.0,299.74956000000003,-189.11536999999998,0.0,0.0,0.0,0.0,0.0,0.0026810717780478,0.02005264200429168,0.02407701808896668,0.013356689162702589,0.011653033749314888,0.007974459253467852,0.05004519352232605
270,4.0,300.31102000000004,402.28992999999997,0.0,0.0,0.0,0.0,0.0,0.0026910385876316167,-0.054877064075444536,-0.026739397574723076,-0.04066962986377996,0.014013851766809486,-0.016442376169236182,0.022449105147054182
271,4.0,300.3412,827.02012,0.0,0.0,0.0,0.0,0.0,0.0027010053972154335,-0.09843834152510791,-0.058047399008582246,-0.0949077242406631,0.008465777438182182,-0.03798384024771317,0.04895303555753845
272,4.0,300.32745,457.86203,0.0,0.0,0.0,0.0,0.0,0.0027109722067992503,-0.058670390766316735,-0.052326820978255154,-0.028181414587039075,-0.002153799977638508,-0.01883421990479278,-0.004327289735195246
273,4.0,300.09607,154.24694,0.0,0.0,0.0,0.0,0.0,0.002720939016383095,-0.02239338449755498,0.0014122920034073685,-0.025906126023735578,0.018247315049369783,0.009083859897857172,0.05189680168881555
274,4.0,299.58064,186.64276,0.0,0.0,0.0,0.0,0.0,0.0027309058259669117,-0.03752830833400567,-0.01952874104008668,0.0003223106011595797,-0.01217115310844929,0.011759583076830489,0.017110704789445087
275,4.0,299.25532000000004,392.86697999999996,0.0,0.0,0.0,0.0,0.0,0.0027408726355507007,-0.048333016675597355,-0.01878197166338628,-0.052306763692525654,-0.009966770064618621,0.004506864605367905,0.06864732342546334
276,4.0,300.56708,513.86285,0.0,0.0,0.0,0.0,0.0,0.0027508394451345453,-0.08296761444651601,-0.04021251424016616,-0.03302134554470307,-0.02043450658272878,-0.02193421400273838,0.02297819395177118
277,4.0,300.2659,282.32307000000003,0.0,0.0,0.0,0.0,0.0,0.002760806254718362,-0.049404850869879155,-0.001912328394632118,-0.034501983597830674,-0.0015403291231436485,0.020793947936452877,0.07810380827674572
278,4.0,301.03634,16.113484,0.0,0.0,0.0,0.0,0.0,0.0027707730643022066,-0.019156112236311085,-0.013295437180907489,0.027553452837564076,-0.015938913472798286,-0.003042554368326737,0.01149960741917289
279,4.0,300.90797000000003,280.89919,0.0,0.0,0.0,0.0,0.0,0.0027807398738860234,-0.023877693555794874,-0.026849978624386574,-0.03465866752704417,-0.016187815320112986,0.00947411489639734,0.05279733176819095
280,4.0,301.32592999999997,602.43536,0.0,0.0,0.0,0.0,0.0,0.0027907066834698124,-0.08353485921024872,-0.04175108486776126,-0.05783936356430074,-0.003982483360615506,-8.294252130778952e-05,0.017906909625274383
281,4.0,301.03237,456.70043,0.0,0.0,0.0,0.0,0.0,0.002800673493053657,-0.04407944645805266,-0.045819160402749054,-0.04892691903621096,0.012942708609095887,0.04188964783218636,0.050662501960249656
282,4.0,300.04553,-99.264453,0.0,0.0,0.0,0.0,0.0,0.0028106403026374738,0.007938955375263894,-0.002025211244547788,0.024260171150542475,0.006566918177129363,-0.0009915269196485881,-0.0007865232817863042
283,4.0,300.07219,129.26713,0.0,0.0,0.0,0.0,0.0,0.0028206071122212906,-0.019483305892352584,-0.02016960652958518,0.0003589333202564607,-0.002067628730834068,-0.012114807283638387,0.03934621073591866
284,4.0,299.89327000000003,452.1141,0.0,0.0,0.0,0.0,0.0,0.002830573921805135,-0.060307829272419344,-0.05010199530968196,-0.027021571515571472,0.0019553157327746383,-0.026159364581478273,0.013286743495049488
285,4.0,299.50011,357.70271,0.0,0.0,0.0,0.0,0.0,0.002840540731388924,-0.05533186948883034,-0.026609022684356075,-0.026791800843394876,-0.0010061055012923821,0.012449365241406687,0.041392129874085165
286,4.0,300.18397000000004,227.91897999999998,0.0,0.0,0.0,0.0,0.0,0.002850507540972741,-0.015446170962418383,-0.016619118397429286,-0.03721638942322166,-0.016143749073263984,-0.002242365331779228,0.03949738967733886
287,4.0,300.14597000000003,77.69976700000001,0.0,0.0,0.0,0.0,0.0,0.0028604743505565855,-0.017831770037608684,0.0024619556775511077,-0.008248974138135362,-0.026135963570418773,0.008511931081562191,0.047940633547872154
288,4.0,300.65002000000004,210.50721000000001,0.0,0.0,0.0,0.0,0.0,0.0028704411601404023,-0.012960433393095187,-0.02237428068016958,-0.028654222414951573,0.011361924969084688,0.01063399191174329,0.026392975471533874
289,4.0,301.38311,623.17485,0.0,0.0,0.0,0.0,0.0,0.002880407969724219,-0.0998404638412366,-0.05462826760614024,-0.034960862276618467,0.018430804509978783,0.04583375829693975,0.015624226362741087
290,4.0,301.25201,506.55699000000004,0.0,0.0,0.0,0.0,0.0,0.002890374779308036,-0.06160031083497735,-0.056011685325422944,-0.036368679058309164,0.01846290022014638,0.028789922947844177,0.016089245337134885
291,4.0,301.09145,-105.41765,0.0,0.0,0.0,0.0,0.0,0.0029003415888918527,-0.01074840709978519,0.0046271141888106155,0.03816562542165396,-0.03644998933908387,-0.0028149104067850274,0.01879906924557368
292,4.0,299.62001000000004,76.33973,0.0,0.0,0.0,0.0,0.0,0.0029103083984756695,0.02053874164701598,-0.02118668063546258,-0.022557432728495277,-0.019029663690081584,-0.021924060223486277,0.04548330953785316
293,4.0,298.34752000000003,667.8262599999999,0.0,0.0,0.0,0.0,0.0,0.002920275208059514,-0.1082953904854229,-0.01937777488118748,-0.07532934205167723,0.0004339127232138516,0.015895026571216987,0.05788617673217085
294,4.0,299.91504,715.58055,0.0,0.0,0.0,0.0,0.0,0.002930242017643331,-0.07729306735498183,-0.054505078685482454,-0.08572047311320201,0.04023951938183136,-0.01154644186529509,0.05810019947129324
295,4.0,300.31604,122.44973,0.0,0.0,0.0,0.0,0.0,0.00294020882722712,-0.038062241487450764,-0.00944623602917091,0.010286816963729791,-0.02375554828274008,-0.01117141469853279,0.029012309053291975
296,4.0,300.40672,15.135414,0.0,0.0,0.0,0.0,0.0,0.0029501756368109644,0.018748432071826183,-0.016084465836413184,-0.007264753552175353,0.014068952307247487,-0.041254028951705664,0.03607538571086336
297,4.0,300.08111,300.60815,0.0,0.0,0.0,0.0,0.0,0.002960142446394781,-0.06665298581013754,-0.02180852235433358,-0.002915863250023297,0.003260380645674517,0.02259781378473058,0.017316720826277283
298,4.0,300.53758,496.57876,0.0,0.0,0.0,0.0,0.0,0.0029701092559786257,-0.04646684101242016,-0.013956227220372385,-0.09052447624882022,0.050217478463329246,-0.0023770414688207278,0.043165235475827055
299,4.0,300.37066,411.83915,0.0,0.0,0.0,0.0,0.0,0.0029800760655624425,-0.03804884226812836,-0.03455516301607907,-0.05258481066571675,-0.008715489986901892,0.004021756123891426,0.03661060873168576
300,4.0,300.63978,64.092184,0.0,0.0,0.0,0.0,0.0,0.0029900428751462316,0.021988975104392877,0.0017981478753133784,-0.04326954653387176,0.002200122631135198,-0.008038206971584262,0.04448454080828236
301,4.0,301.03119,171.58109,0.0,0.0,0.0,0.0,0.0,0.003000009684730076,-0.015999298112507783,-0.03080161449763267,-0.005355454167392176,-0.015337911268733986,0.03316580562471017,0.018209839994421283
302,4.0,300.94257999999996,625.78454,0.0,0.0,0.0,0.0,0.0,0.003009976494313893,-0.07341000014250293,-0.055564769077315744,-0.061248105100217345,0.011875988288068788,-0.014740500023024088,0.02076013882036618
303,4.0,300.13942000000003,569.25861,0.0,0.0,0.0,0.0,0.0,0.0030199433038977097,-0.08842248486336982,-0.03477962932398217,-0.04983828785190605,-0.009663570474920152,-0.020838391112339084,0.05732814443834735
304,4.0,300.36635,90.416016,0.0,0.0,0.0,0.0,0.0,0.0030299101134815543,-0.005572387974051875,-0.014128148404589685,-0.007783675000088913,-0.01222427071844159,-0.025088421034034372,0.04484983570783416
305,4.0,300.43917999999996,-33.207165,0.0,0.0,0.0,0.0,0.0,0.0030398769230653433,-0.012797645645279288,0.030118529916217475,-0.007226735395173253,0.004394957819273565,0.03238500928315157,0.06830806500048114
306,4.0,299.92927000000003,471.62793,0.0,0.0,0.0,0.0,0.0,0.00304984373264916,-0.07007645797600794,-0.029331468649290572,-0.04395518754528926,0.017561079260143584,-0.004683001619276276,0.05143153750789755
307,4.0,300.54044,663.91085,0.0,0.0,0.0,0.0,0.0,0.0030598105422330046,-0.07888503828934712,-0.05620419372517204,-0.06672308751830602,0.027334676942222576,0.006640398061131265,0.023752506505939876
308,4.0,299.19669,311.88156000000004,0.0,0.0,0.0,0.0,0.0,0.0030697773518168214,-0.058751821623853354,-0.005196926832271746,-0.03085545759469657,-0.014885727133356884,-0.03516333396460086,0.006367748265922823
309,4.0,298.71676,202.04318,0.0,0.0,0.0,0.0,0.0,0.003079744161400666,-0.04478118294730866,-0.004935904689910865,-0.011698993760600788,0.0008582217707873942,0.028167753949190872,0.047909595670808956
310,4.0,299.9405,238.84385,0.0,0.0,0.0,0.0,0.0,0.003089710970984455,-0.03779140176222096,-0.0016685087058439883,-0.03314265589967547,-0.02095839437468248,-0.006113205351326395,0.03546103494998167
311,4.0,299.69257999999996,283.03429,0.0,0.0,0.0,0.0,0.0,0.003099677780568272,-0.04430941775374905,0.006196806995877234,-0.04792274563060675,0.006481941146892784,0.0018569440428411082,0.06265729483579353
312,4.0,300.05037999999996,186.87729,0.0,0.0,0.0,0.0,0.0,0.0031096445901520886,-0.004275236240457965,-0.008121308779860772,-0.04440948532037496,-0.006629754274130804,-0.00949661056849249,0.034408135360318566
313,4.0,301.22899,136.21453,0.0,0.0,0.0,0.0,0.0,0.003119611399735933,0.005936158844128264,-0.029349738561843676,-0.017992235416195382,-0.006521353536032484,0.05499029274761935,0.03739528278137706
314,4.0,300.22372,47.272214,0.0,0.0,0.0,0.0,0.0,0.00312957820931975,-0.008286840611597492,0.008944063301435322,-0.015026795865279286,0.0026423916076587475,0.0065303024595906745,0.01039906886280819
315,4.0,300.90828,422.09534,0.0,0.0,0.0,0.0,0.0,0.003139545018903539,-0.07679054292813653,-0.04316208325476596,-0.008353818976332741,-0.025791184958891773,0.005276127830313275,0.04098762928841406
316,4.0,300.66121,422.69587,0.0,0.0,0.0,0.0,0.0,0.0031495118284873835,-0.03579202221439756,-0.023863726916416476,-0.06883324164656203,-0.006878818038811484,-0.022881856158763376,0.03702566130389826
317,4.0,299.69841,100.45009,0.0,0.0,0.0,0.0,0.0,0.0031594786380712003,-0.03575802159404197,-0.014514382117457987,0.019738083576997183,-0.01016038969575239,0.005072643196205905,0.04336895244818236
318,4.0,299.35475,20.738346,0.0,0.0,0.0,0.0,0.0,0.003169445447655045,0.018707276892514484,-0.014786649512078687,-0.01022456693058619,-0.0039038368130286964,-0.0038168350051172866,0.014804015605542587
319,4.0,299.83317,275.61839,0.0,0.0,0.0,0.0,0.0,0.0031794122572388617,-0.051044965369495855,-0.01054025209199189,-0.02219588888081368,-0.0034865036174911166,-0.01008081490974897,0.03298369418423717
320,4.0,299.08462000000003,307.29674,0.0,0.0,0.0,0.0,0.0,0.0031893790668226507,-0.033954684662316464,-0.041070698571362356,-0.018385153539973383,0.01062798131215009,-0.002197491017975478,0.018091406256482784
321,4.0,300.1769,377.87118,0.0,0.0,0.0,0.0,0.0,0.0031993458764064953,-0.08478597281097401,-0.01164239664976509,-0.018435032802646086,0.008845118922545272,0.03732373516531586,0.052538672322413243
322,4.0,300.0515,383.62106,0.0,0.0,0.0,0.0,0.0,0.003209312685990312,-0.024902386289174176,-0.03496152190243357,-0.05674731503052395,0.00806660766261219,0.0033052536422531367,0.061795447605485845
323,4.0,299.8622,99.083464,0.0,0.0,0.0,0.0,0.0,0.003219279495574129,-0.04493189782018305,0.008921022399461362,0.005891976782792834,-0.023336571392890276,-0.0022109949060332076,0.047124331909559454
324,4.0,300.12865,365.37629,0.0,0.0,0.0,0.0,0.0,0.0032292463051579734,0.01017218494016649,-0.03499542626402967,-0.08624202637692532,-0.01966943689597228,-0.02189219452109138,0.044254547221083754
325,4.0,301.16604,630.74639,0.0,0.0,0.0,0.0,0.0,0.0032392131147417624,-0.09012313700346111,-0.05485957335221835,-0.046748443480212155,-0.006686592538490304,0.020087587986990584,0.026850373791925577
326,4.0,301.83451,474.53997999999996,0.0,0.0,0.0,0.0,0.0,0.0032491799243255792,-0.059563314377191444,-0.03597227535418717,-0.04871271391207055,-0.013278538195739688,0.015362858499446087,0.05255133896191335
327,4.0,301.81414,10.29885,0.0,0.0,0.0,0.0,0.0,0.0032591467339094238,-0.06289678358967923,0.015656379828164382,0.04410981052379936,-0.024565106741637276,-0.02405002409305258,0.02927041526451507
328,4.0,300.66726,24.624624,0.0,0.0,0.0,0.0,0.0,0.0032691135434932406,-0.00980407999411236,0.005744702299307974,-0.003425893023009317,0.003629498841828647,-0.007091846678260774,0.05396240726317495
329,4.0,300.48025,341.45703,0.0,0.0,0.0,0.0,0.0,0.003279080353077085,-0.06457277727533693,-0.01367051804992509,-0.025551115612698773,0.02280586037476318,0.0026923252818618175,0.03485681972985026
330,4.0,300.07752,394.36918,0.0,0.0,0.0,0.0,0.0,0.003289047162660874,-0.0002904520219128827,-0.04510066374358896,-0.07448726738382093,0.04298830073011496,-0.00976247401983117,0.025490779608994076
331,4.0,300.2433,279.78193,0.0,0.0,0.0,0.0,0.0,0.003299013972244691,-0.04187153801314906,-0.02965248046647197,-0.013522702085586789,-0.013361083628386287,-0.019154918627693283,0.0035617312565905065
332,4.0,299.89038,254.27192999999997,0.0,0.0,0.0,0.0,0.0,0.0033089807818285077,-0.015468163555838884,-0.012672776755955687,-0.04915137622486315,-0.0011924640504870389,0.014939077790872186,0.05641811513928444
333,4.0,299.33661,178.3551,0.0,0.0,0.0,0.0,0.0,0.0033189475914123523,-0.05830906274090644,-0.004417877131235526,0.008511442593688981,-0.016992403787269683,0.009293168288239301,0.026492857613391478
334,4.0,300.25354,498.62260999999995,0.0,0.0,0.0,0.0,0.0,0.003328914400996169,-0.06354339319399464,-0.027327901338803872,-0.060697529313879735,-0.017112139551586684,0.013545366463823589,0.05523970425973435
335,4.0,300.06412,403.05205,0.0,0.0,0.0,0.0,0.0,0.003338881210579958,-0.058216100083981745,-0.02131413736554158,-0.04298752255403816,-0.005980797779933785,-0.016357619824871383,0.032924651087660066
336,4.0,298.82426,15.091679000000001,0.0,0.0,0.0,0.0,0.0,0.0033488480201638027,0.04012905485592936,-0.024630378286579078,-0.020086170450100683,-0.015632237118031685,0.017387322066745085,0.01233090211921529
337,4.0,299.15557,131.25073999999998,0.0,0.0,0.0,0.0,0.0,0.0033588148297476195,-0.04267950870913956,0.0003977086486607876,0.002384852005891568,0.020192602240604682,0.025966352596429473,0.022536802956459275
338,4.0,300.40133,413.154,0.0,0.0,0.0,0.0,0.0,0.003368781639331464,-0.04091270653626976,-0.04721306424731666,-0.037462727747783364,-0.019298744413137784,0.017295586455691483,0.027097770962841772
339,4.0,300.77726,332.88247,0.0,0.0,0.0,0.0,0.0,0.003378748448915253,-0.08291862380418101,-0.006045101468380064,-0.01222423221493779,0.007663557240484212,0.010895264529528888,0.050144395773366546
340,4.0,301.13524,209.29012,0.0,0.0,0.0,0.0,0.0,0.00338871525849907,-0.019573384839492683,0.013734942517783288,-0.05778052717074405,-0.015657233997998683,0.017712917827378882,0.044997142007372155
341,4.0,299.95365,307.94456,0.0,0.0,0.0,0.0,0.0,0.0033986820680829144,-0.05014690762036445,0.0005302930929908536,-0.04399084077655796,0.027225886305485773,0.005735397623639674,0.06861582654610485
342,4.0,300.16972000000004,447.16224000000005,0.0,0.0,0.0,0.0,0.0,0.003408648877666731,-0.018063480070476683,-0.013882295426825886,-0.1039803838745649,0.003925346694101556,-0.0015016795086792286,0.014989774746375587
343,4.0,300.20592,513.13097,0.0,0.0,0.0,0.0,0.0,0.003418615687250548,-0.09121657672962523,-0.02247659766201748,-0.042285826594786156,0.03515629795590647,-0.04189762008397316,0.052565651119575854
344,4.0,299.67895,314.0264,0.0,0.0,0.0,0.0,0.0,0.0034285824968343648,-0.046183120851919154,0.0007657751317411213,-0.05003883943094895,-1.7510495788651385e-05,0.0012168284597416188,0.02903958473273387
345,4.0,299.82198999999997,21.210817000000002,0.0,0.0,0.0,0.0,0.0,0.0034385493064181816,-0.059462954994536736,0.02976726143779997,0.023248134924162278,0.01133001671018559,-0.0002167669243682298,0.08364536831915513
346,4.0,299.67419,-185.25804,0.0,0.0,0.0,0.0,0.0,0.0034485161160019984,0.01927660084545238,0.012480371707716788,0.02455684672682208,-0.02167191901560188,0.01829257591808668,0.01938482507538328
347,4.0,299.49696,359.2319,0.0,0.0,0.0,0.0,0.0,0.003458482925585843,-0.03693468968342007,-0.03910301146016676,-0.03315982542261997,-0.005941810753186064,-0.015252547987559286,0.05178099125538595
348,4.0,300.09109,543.7614599999999,0.0,0.0,0.0,0.0,0.0,0.0034684497351696597,-0.04537210736587836,-0.058981917549312035,-0.06093588018790314,-0.007712419706681563,0.01868692576425598,0.013073587084762589
349,4.0,300.14452,192.42385,0.0,0.0,0.0,0.0,0.0,0.0034784165447534765,-0.04083933203027826,-0.004162139594771196,-0.013490572938165885,0.0014838833918728886,0.0017838002538973785,0.03694237822517887
350,4.0,299.69362,108.04704,0.0,0.0,0.0,0.0,0.0,0.0034883833543372933,-0.007360420978916993,-0.005245814933696625,-0.02023736661677258,-0.02375183978737408,0.008556715216107041,0.03244393686921727
351,4.0,300.23998,242.06446,0.0,0.0,0.0,0.0,0.0,0.00349835016392111,-0.04719233213702055,0.022009524829670977,-0.04839874519633425,0.0020395539010382977,-0.016578662360686586,0.07562691131454502
352,4.0,300.48705,167.30871000000002,0.0,0.0,0.0,0.0,0.0,0.003508316973504927,-0.016049950485006785,0.016589059319962685,-0.051396778976467154,-0.02013557855147688,0.017863733012013182,0.03714105630478687
353,4.0,300.38507999999996,210.04391,0.0,0.0,0.0,0.0,0.0,0.0035182837830887437,-0.014576016094540787,-0.00994389422108595,-0.039328193122640465,0.031473126749655765,-0.006825810366455034,0.02938160730398887
354,4.0,300.11102,266.84611,0.0,0.0,0.0,0.0,0.0,0.0035282505926725882,-0.02218253931074618,-0.02193365874168358,-0.036998357253453566,-0.01880410712507088,-0.018433915187785782,0.012898164108199687
355,4.0,299.81795,160.37932,0.0,0.0,0.0,0.0,0.0,0.0035382174022563773,-0.05105647386413165,-0.027276126285194074,0.029581292554196267,-0.004396549229880625,-0.03251083062756917,0.014451752115526887
356,4.0,299.78029,310.18195,0.0,0.0,0.0,0.0,0.0,0.003548184211840222,-0.04924930076752755,-0.022997281557154976,-0.02204098725852608,-7.894020063804122e-05,-0.012211562535687387,0.04826606516198975
357,4.0,299.36336,599.6749900000001,0.0,0.0,0.0,0.0,0.0,0.0035581510214240386,-0.1008099425501667,-0.03273645001408607,-0.04873983152449685,0.014838813653726884,0.0039031920819900664,0.08151084045974363
358,4.0,299.28119,403.96423,0.0,0.0,0.0,0.0,0.0,0.0035681178310078554,-0.03534785390056157,-0.01878940385286978,-0.06865778117974544,0.02342252843862358,0.03257058502571647,0.0899067270471031
359,4.0,298.0096,129.89158,0.0,0.0,0.0,0.0,0.0,0.003578084640591672,-0.007439097417381753,-0.007921547333245852,-0.024123153392519876,-0.008590251666591832,-0.009623426417883241,0.050868718620601654
360,4.0,298.85564,409.6422,0.0,0.0,0.0,0.0,0.0,0.003588051450175489,-0.035619822386402766,-0.029495735742252473,-0.05940544291886074,0.007962481117410701,0.023403243249470275,0.052954217334174346
361,4.0,299.96977999999996,466.71492,0.0,0.0,0.0,0.0,0.0,0.0035980182597593058,-0.12311133609764288,0.01031882148138839,-0.02907716516569277,0.0004574953897512795,-0.005641815870903875,0.050713137107496954
362,4.0,300.44239,251.20862000000002,0.0,0.0,0.0,0.0,0.0,0.0036079850693431226,-0.028440838023392177,-0.01232110601724849,-0.03559920376011787,-0.0020313673468553483,0.01820953196639088,0.03905273500345486
363,4.0,299.84747999999996,-49.330507,0.0,0.0,0.0,0.0,0.0,0.003617951878926967,-0.053392142000894156,0.051466716538119454,0.016920667706689884,-0.024188096644429277,-0.05164815619377615,0.03317883298124587
364,4.0,299.7807,149.13353999999998,0.0,0.0,0.0,0.0,0.0,0.003627918688510784,0.023723741348850975,-0.023823432999689777,-0.04523317963141726,-0.013448906067553687,-0.009603118859379041,0.035717698293062365
365,4.0,299.9264,335.30615,0.0,0.0,0.0,0.0,0.0,0.0036378854980946007,-0.041044614474038066,-0.03775568469619597,-0.023124398848450477,0.001936363700254218,-0.027928684680846572,0.028312043803181176
366,4.0,300.7738,468.04422999999997,0.0,0.0,0.0,0.0,0.0,0.0036478523076784175,-0.034074303902871965,-0.062275887233151535,-0.04592356873280336,-0.0007241701200475263,0.012951101359674188,0.019678219747839083
367,4.0,300.37746,348.29496,0.0,0.0,0.0,0.0,0.0,0.0036578191172622343,-0.09795983720513321,-0.033679322801890364,0.025766189092174874,0.016682172951152284,-0.018248850123271286,0.04108281197630786
368,4.0,299.87996,121.34252,0.0,0.0,0.0,0.0,0.0,0.003667785926846079,-0.0013618351881776688,-0.018184665795686783,-0.017338593856185983,-0.009782849263442053,0.015979041216508585,0.04378603658684536
369,4.0,299.40918,121.97935,0.0,0.0,0.0,0.0,0.0,0.0036777527364298956,-0.04102724736732406,0.009074348721818492,-0.005125776511574755,-0.00010267263263299991,0.007088096436990653,0.06334880459179024
370,4.0,299.7864,520.70821,0.0,0.0,0.0,0.0,0.0,0.0036877195460136847,0.009273331283081542,-0.04892236346376135,-0.11863325701569088,-0.013448983074561287,0.01995080530299118,0.07154438176688073
371,4.0,299.41407000000004,396.60581,0.0,0.0,0.0,0.0,0.0,0.0036976863555975292,-0.035316497862966964,-0.014203916207317386,-0.07103784892263984,-0.003480851505783297,0.0035259807533122066,0.03849127285804286
372,4.0,298.95632,116.73563,0.0,0.0,0.0,0.0,0.0,0.003707653165181346,0.001956224820764358,-0.015599699630820486,-0.02184124222656278,-0.024394926321091776,0.03229988614225057,0.026239351557622376
373,4.0,298.49696,208.87389,0.0,0.0,0.0,0.0,0.0,0.003717619974765163,-0.07713323120470722,0.0001685706903766318,0.013472212846353885,-0.01213586971346709,0.0008619967150949523,0.02290465631251358
374,4.0,299.61709,378.91472999999996,0.0,0.0,0.0,0.0,0.0,0.0037275867843490074,-0.06392910103006104,-0.007898573609753523,-0.04335294208335226,0.008476289705319663,0.009320393203851191,0.04645906330465255
375,4.0,299.17456,309.98997,0.0,0.0,0.0,0.0,0.0,0.0037375535939327964,-0.05488395012312415,-0.023578991479315276,-0.015766267814759486,0.025048104825805474,-0.00952692569425936,0.03523485118315906
376,4.0,299.81691,228.97095,0.0,0.0,0.0,0.0,0.0,0.003747520403516613,0.0039833314509492065,-0.014878819807425187,-0.05870596395082754,0.049574123418335045,-0.004697777136209506,0.05305763470563085
377,4.0,300.43795,246.3795,0.0,0.0,0.0,0.0,0.0,0.0037574872131004577,-0.031166217347366174,-0.014993681838761187,-0.028733317731007676,0.011973451801937688,-0.020360204952895783,0.06304608193891384
378,4.0,300.41051,158.86428999999998,0.0,0.0,0.0,0.0,0.0,0.0037674540226842745,-0.04906293468988466,-0.0038475380030224366,0.0046196942596533255,-0.005616785756333595,-0.013289746768345885,0.04442706318310976
379,4.0,299.2309,325.23741,0.0,0.0,0.0,0.0,0.0,0.0037774208322680913,-0.08522055476561392,0.00981930559674001,-0.023462803103598377,0.0038296195869290265,-0.028238567972179673,0.06238074240649994
380,4.0,300.94933,346.29867,0.0,0.0,0.0,0.0,0.0,0.003787387641851908,-0.06252505455199243,0.002333348908608608,-0.045074443870751255,-0.008291375311095032,0.003423762867324087,0.033370057593118264
381,4.0,298.95235,118.67788999999999,0.0,0.0,0.0,0.0,0.0,0.003797354451435725,0.011845942382853488,0.0017721138325440182,-0.049693171185834155,-0.014281538257728087,-0.0035162931704311165,0.05707534765764824
382,4.0,299.16712,114.1328,0.0,0.0,0.0,0.0,0.0,0.0038073212610195417,0.026929444789979273,-0.01142120921918559,-0.05020175687477765,-0.035603538444045665,-0.0034002981228332964,0.017492320108357585
383,4.0,299.19644,329.5523,0.0,0.0,0.0,0.0,0.0,0.0038172880706033863,-0.035457511879383966,-0.030049042237609572,-0.03466911717532547,-0.003801350415764076,0.011576640771275489,0.04986751707754075
384,4.0,299.11356,226.94442999999998,0.0,0.0,0.0,0.0,0.0,0.003827254880187203,-0.05308088575567554,-0.021835181977714682,0.0059306264985822645,-0.007785889255532442,0.018649525689814882,0.007754484480608033
385,4.0,298.18701,28.813003000000002,0.0,0.0,0.0,0.0,0.0,0.003837221689770992,-0.03868895085980216,-0.016050334506794686,0.04598085181395676,-0.015382403080624985,0.0008008749055401993,0.04168862103884656
386,4.0,300.47237,209.06282,0.0,0.0,0.0,0.0,0.0,0.0038471884993548366,-0.05579444146423265,-0.01856229802845618,0.010806862511304291,-0.02177938128145758,-0.010956097025782591,0.018248408346227683
387,4.0,299.83091,286.37295,0.0,0.0,0.0,0.0,0.0,0.0038571553089386534,-0.03030140737376607,-0.002897395449725667,-0.053851424966471856,-0.004255478066157985,-0.012396408738180289,0.05135658030524986
388,4.0,300.09533999999996,389.7828,0.0,0.0,0.0,0.0,0.0,0.003867122118522498,-0.010132042808304771,-0.052655901305982855,-0.05569629299329615,0.009985563523498392,-0.004901149198230766,0.026703400851670476
389,4.0,301.07878999999997,408.27349,0.0,0.0,0.0,0.0,0.0,0.0038770889281063148,-0.05386522441958375,-0.007303737133872733,-0.06293598420954803,0.005005194480774236,-0.016246102532115482,0.06471321677894723
390,4.0,300.53084,208.78181,0.0,0.0,0.0,0.0,0.0,0.003887055737690104,-0.013610361391488088,-0.017801891318659883,-0.03205220627455647,0.02512393848978968,-0.008590290068770622,0.049623657162723656
391,4.0,300.06038,117.03967,0.0,0.0,0.0,0.0,0.0,0.0038970225472739484,-0.043563946350426756,0.0038986564705674365,0.004088153288369316,0.020376454444749482,-0.00021840419467481582,0.033346814649074366
392,4.0,299.87514,332.67034,0.0,0.0,0.0,0.0,0.0,0.003906989356857765,-0.04220877399093166,0.0003059214429120957,-0.059220624074120536,0.023451891413271475,0.00850863416838681,0.06884719004743864
393,4.0,299.78118,480.79465999999996,0.0,0.0,0.0,0.0,0.0,0.003916956166441582,-0.053479486186014356,-0.05292326760986985,-0.03974681841470556,-0.02124450985841988,0.010978060234950189,0.047915569793398546
394,4.0,299.45811000000003,244.42861000000002,0.0,0.0,0.0,0.0,0.0,0.0039269229760254265,-0.01863885110001138,-0.00992456556350336,-0.045736776076868366,-0.022969820452944774,-0.013708330517156884,0.061303146872149536
395,4.0,301.09348,163.8686,0.0,0.0,0.0,0.0,0.0,0.0039368897856092155,-0.07290570151473252,0.002900731474354907,0.02019300855389478,-0.028776405178260075,0.004723568708229936,0.04667885143684396
396,4.0,299.98271,310.45507000000003,0.0,0.0,0.0,0.0,0.0,0.003946856595193032,-0.06551137110796894,-0.016025135990057785,-0.01283408009237509,-0.016451051616592386,-0.0015217893820889186,0.04697966310003175
397,4.0,299.03407999999996,371.94503,0.0,0.0,0.0,0.0,0.0,0.003956823404776877,-0.09291447992219522,-0.011536991281612388,-0.008610531056743252,-4.414129220440636e-06,-0.015475103305773787,0.03912049914364266
398,4.0,298.46392000000003,356.20579,0.0,0.0,0.0,0.0,0.0,0.003966790214360694,-0.021825425392501777,-0.03989395448822676,-0.04655828582069505,0.02135173502375218,-0.02651848270842047,0.04573363500155836
399,4.0,298.38192999999995,124.29563,0.0,0.0,0.0,0.0,0.0,0.0039767570239445105,-0.008634600914193762,-0.016784960081046584,-0.01236320757215359,0.01769505524136598,-0.01059455520460119,0.023620647204176375
400,4.0,299.71218,47.375962,0.0,0.0,0.0,0.0,0.0,0.003986723833528327,0.02068666602911498,-0.0031653877395244473,-0.03192238765849437,0.028822557707064975,-0.00980468044612162,0.045527234942938255
401,4.0,299.55544,126.16205,0.0,0.0,0.0,0.0,0.0,0.003996690643112144,-0.04042569902145586,-0.016600590106100686,0.01867617619394508,-0.008189371322203024,0.004017042383101216,0.029899728689623473
402,4.0,299.13606,388.81994,0.0,0.0,0.0,0.0,0.0,0.004006657452695961,-0.03757321659168777,-0.025592153254998872,-0.05502618307941145,0.013063743360041088,-0.006242488363385634,0.07125274103034802
403,4.0,301.39425,363.09474,0.0,0.0,0.0,0.0,0.0,0.004016624262279805,-0.048231216451300456,-0.03276193122760087,-0.029378587818690873,-0.023336928056925478,0.01043425903878119,0.032639367482254766
404,4.0,300.63505,215.82905,0.0,0.0,0.0,0.0,0.0,0.004026591071863622,0.0028522639730465373,-0.03787893238535956,-0.030579972117758265,-0.015759243965066286,-0.004958588725199605,0.06370182396638054
405,4.0,299.69088999999997,292.28647,0.0,0.0,0.0,0.0,0.0,0.004036557881447411,-0.04418207450768125,-0.011909160069842589,-0.03275655492257026,-0.03980023392022726,-0.013031894882897887,0.033325723848242866
406,4.0,300.17562999999996,521.49179,0.0,0.0,0.0,0.0,0.0,0.004046524691031256,-0.05755512056674814,-0.06667410599522193,-0.03429125594803347,-0.012625095232749886,0.0016894294833087083,0.053209780287646447
407,4.0,299.42906,310.10893,0.0,0.0,0.0,0.0,0.0,0.004056491500615073,-0.08301201303939783,-0.016179145952257383,0.004925788198262445,0.007537773183670294,0.03373134812827487,0.03420373241764557
408,4.0,299.34956,326.18175,0.0,0.0,0.0,0.0,0.0,0.004066458310198917,-0.056825986808038235,-0.015387848286662386,-0.026937271133751675,0.018509663738761582,0.01215599792670359,0.032526399215355675
409,4.0,300.73884,354.91344,0.0,0.0,0.0,0.0,0.0,0.004076425119782734,-0.034743013505118464,-0.026776831086417475,-0.04636497796661705,0.01107296427906649,0.02059752737806768,0.06505140115882344
410,4.0,299.35514,189.23812,0.0,0.0,0.0,0.0,0.0,0.004086391929366523,0.013941003137619885,-0.005294217789648615,-0.06617044976801494,-0.004883240104038276,-0.013415091885216487,0.06273331595104624
411,4.0,300.40465,424.85666,0.0,0.0,0.0,0.0,0.0,0.0040963587389503675,-0.013840499873450988,-0.039311894994781965,-0.07599342211421684,0.0016802916899318783,0.006501443678192533,0.07107783683783633
412,4.0,301.27828,363.68228999999997,0.0,0.0,0.0,0.0,0.0,0.004106325548534184,-0.07724954826318682,-0.004158067241294286,-0.029142720420662575,0.0004803356884704416,-0.03008116429227977,0.06596520684100904
413,4.0,300.63627,167.42834,0.0,0.0,0.0,0.0,0.0,0.004116292358118001,-0.043044094333621365,-0.011994596305024488,0.004144657078870806,-0.0017391892837946184,-0.007431254861607754,0.06864684314491593
414,4.0,300.13608,282.04015,0.0,0.0,0.0,0.0,0.0,0.004126259167701846,-0.04895922854214965,-0.022639623523606878,-0.014134313018198086,-0.013390568193046187,-0.029697397843404975,0.028108945926636975
415,4.0,299.96382,617.0946799999999,0.0,0.0,0.0,0.0,0.0,0.004136225977285635,-0.07159778916640164,-0.035935628124570365,-0.08004795657486823,-0.0036083132007877863,0.024822703288060077,0.04111737191071866
416,4.0,299.67293,466.12362,0.0,0.0,0.0,0.0,0.0,0.0041461927868694515,-0.035367790609529166,-0.05027307853606655,-0.05604907121436265,0.007527713535352483,0.016750073880103585,0.024542475800653774
417,4.0,300.23503,165.42265,0.0,0.0,0.0,0.0,0.0,0.004156159596453296,-0.023213457452739877,-0.007813223196855092,-0.019257675360084582,-0.028655267075804673,0.017963667842875983,0.033244040691431366
418,4.0,300.01725,67.565446,0.0,0.0,0.0,0.0,0.0,0.004166126406037113,-0.02551270735440818,-0.005679765734849234,0.01065426501974409,-0.004562358084194686,-0.017876038934477683,0.044170956114333956
419,4.0,299.9652,121.77528999999998,0.0,0.0,0.0,0.0,0.0,0.00417609321562093,-0.02951623277852537,-0.0017653672080781783,-0.005735046633805034,-0.017877278139349983,0.0034894735548592266,0.02924828993533147
420,4.0,299.63491,157.14201,0.0,0.0,0.0,0.0,0.0,0.004186060025204746,-0.017231017093068984,0.002463228826301758,-0.032999459342543065,0.028170223239684572,-0.0035837526263138467,0.033904416311605366
421,4.0,298.86426,233.66983,0.0,0.0,0.0,0.0,0.0,0.004196026834788563,0.008544577391834132,-0.03747737326472877,-0.04209699831940025,0.005595505477733395,0.011276444150898388,0.05629960034133794
422,4.0,298.93744,134.68331,0.0,0.0,0.0,0.0,0.0,0.00420599364437238,0.024912201642892876,-0.017950062933783283,-0.047902502920108954,0.0026883448301689775,-0.016990262789808384,0.07226724958697223
423,4.0,298.84078999999997,95.940503,0.0,0.0,0.0,0.0,0.0,0.0042159604539562245,-0.003398146486245947,-0.0029796717631457074,-0.022785698724273377,0.009176821237556742,0.017138004786889382,0.06230848450211864
424,4.0,298.76846,430.96775,0.0,0.0,0.0,0.0,0.0,0.004225927263540041,-0.07417267653252323,-0.03573152003767647,-0.02109923917833278,0.0003341624254592637,0.0006415722821057544,0.05564909479038804
425,4.0,300.01842999999997,615.90008,0.0,0.0,0.0,0.0,0.0,0.00423589407312383,-0.1141672761399329,-0.025505175866414875,-0.04754579430190455,-0.0022030285310969877,0.016800668497346884,0.03315537218843047
426,4.0,300.17098,354.34627,0.0,0.0,0.0,0.0,0.0,0.004245860882707675,-0.05615043270136624,-0.014660412735120087,-0.03690157261715167,-0.03912884325821617,-0.02102029281004138,0.038530829128696764
427,4.0,300.69309,207.27112,0.0,0.0,0.0,0.0,0.0,0.004255827692291492,-0.022484645907561777,-0.00881224311112568,-0.031708355800121074,-0.02186040075945358,0.02159579657533918,0.008679773832801982
428,4.0,300.00973999999997,241.66592000000003,0.0,0.0,0.0,0.0,0.0,0.004265794501875336,-0.027025633635222375,0.028317736242242975,-0.07475250687574803,-0.00011208465201689388,0.0077771013374151425,0.07963829044018733
429,4.0,300.52858,157.45043,0.0,0.0,0.0,0.0,0.0,0.004275761311459153,-0.04289684477608896,0.014170766717045787,-0.019134921123719683,0.01024382476198679,0.014103218399129286,0.052086560127793245
430,4.0,300.4688,54.846679,0.0,0.0,0.0,0.0,0.0,0.004285728121042942,-0.030301704256045368,0.02346497956481318,-0.009835296304518171,0.015206822037046484,-0.03275138126755967,0.07787673791608563
431,4.0,300.04456,109.08015,0.0,0.0,0.0,0.0,0.0,0.004295694930626787,-0.04162100381992326,0.002083546991230078,0.006379813541488573,0.017940037837293882,-0.023495223053797976,0.04128744391350346
432,4.0,298.72104,256.82021000000003,0.0,0.0,0.0,0.0,0.0,0.0043056617402106034,-0.022254454736593682,-0.01835975743946698,-0.03745271683679536,0.01953790386074098,-0.012588281830116687,0.04850512936408355
433,4.0,299.56601,419.77025999999995,0.0,0.0,0.0,0.0,0.0,0.00431562854979442,-0.04122180050577496,-0.049558083669252045,-0.03681979421483077,-0.002257438946891878,-0.012930884993678988,0.027194308366119274
434,4.0,298.93885,578.06846,0.0,0.0,0.0,0.0,0.0,0.004325595359378265,-0.039613042043752864,-0.06039350260812464,-0.07571183180542602,-0.009942492085597571,-0.017063137763500585,0.06695445608589033
435,4.0,299.6838,344.03011000000004,0.0,0.0,0.0,0.0,0.0,0.004335562168962054,-0.05255139266416865,-0.024178148554947477,-0.027847021789037075,-0.03699978897584486,0.020724400476089082,0.04010104051716456
436,4.0,299.528,-38.510657,0.0,0.0,0.0,0.0,0.0,0.004345528978545871,-0.02118009045681218,0.03315146408279476,-0.0002650953874978777,-0.013672308462851787,0.016409812337522384,0.05960826620462785
437,4.0,300.28788,-165.24843,0.0,0.0,0.0,0.0,0.0,0.004355495788129715,-0.007633442738237142,0.02244703203734958,0.03541780666096537,-0.02643825457875258,0.004662951932922526,0.016487433374682985
438,4.0,301.1498,82.241004,0.0,0.0,0.0,0.0,0.0,0.004365462597713532,-0.017433998445851685,0.015279823667001185,-0.022845036676629578,0.004488757623430886,-0.013010619670548187,0.036783639424762565
439,4.0,301.71255,-43.775875,0.0,0.0,0.0,0.0,0.0,0.004375429407297349,0.016059105199660285,0.02069244054143488,-0.023444773331318978,0.032376551684566865,-0.005135759355534985,0.001031070332158719
440,4.0,300.03879,-29.860612,0.0,0.0,0.0,0.0,0.0,0.0043853962168811655,-0.01140988310956779,0.009726687546174319,0.01076007568793679,0.03560865941005107,-0.008355784478876721,0.04312558395966376
441,4.0,300.84229,335.15738999999996,0.0,0.0,0.0,0.0,0.0,0.004395363026464982,-0.05360989552688475,0.006860337066262555,-0.055129917598149246,0.013056993087874886,-0.008006202149950632,0.057224133302332246
442,4.0,300.96495,610.22111,0.0,0.0,0.0,0.0,0.0,0.004405329836048799,-0.0862044327717151,-0.04866064602918185,-0.05062690344448636,0.002370765600351348,-0.02178637878664818,0.08968925925764072
443,4.0,300.55433999999997,687.50693,0.0,0.0,0.0,0.0,0.0,0.004415296645632644,-0.07785234391992814,-0.06425978330619685,-0.06687281143258264,0.0032876595675167372,0.003855776840910546,0.05319438901862745
444,4.0,299.53472999999997,689.28722,0.0,0.0,0.0,0.0,0.0,0.0044252634552164605,-0.0898592866774211,-0.037892360988934864,-0.08177445368526022,0.0015725148099201285,0.01928917021294288,0.08609021010119224
445,4.0,299.4032,342.27382,0.0,0.0,0.0,0.0,0.0,0.0044352302648002495,-0.03701700206854367,-0.04194276746867886,-0.02508292617874208,-0.004177652656452216,0.01173120295477959,0.05214946168075115
446,4.0,299.72884,-17.314911,0.0,0.0,0.0,0.0,0.0,0.004445197074384094,-0.023131049822106876,0.040555928003808465,-0.01216157789500429,-0.01577121146199738,0.014171636085631588,0.05281139466632885
447,4.0,300.38488,18.786912,0.0,0.0,0.0,0.0,0.0,0.004455163883967911,-0.03090263451935257,0.007306270563097763,0.01788561110817238,-0.002206647759129178,0.02217087680209518,0.052473450426726354
448,4.0,299.52539,62.931173,0.0,0.0,0.0,0.0,0.0,0.004465130693551755,-0.03814503820612217,0.01707425615684788,0.001941276139389038,0.0037827610254544466,0.024960254015635275,0.043053421300791865
449,4.0,299.29295,164.5742,0.0,0.0,0.0,0.0,0.0,0.0044750975031355444,-0.01789953823079688,-0.0051563313723152855,-0.02697057869103887,0.015048511841422484,-0.014632893875654184,0.031721169360885676
450,4.0,300.61865,350.77891,0.0,0.0,0.0,0.0,0.0,0.004485064312719361,-0.04198809217215206,-0.021512533761621776,-0.043127404770093455,-0.03165701239105387,-0.016133798957281984,0.004866519045588036
451,4.0,301.36131,546.58447,0.0,0.0,0.0,0.0,0.0,0.004495031122303206,-0.05039415483026586,-0.04672375665477575,-0.06903011918074234,0.0048969720746935156,-0.034759084664954566,0.039322453060823964
452,4.0,301.80377000000004,450.20095999999995,0.0,0.0,0.0,0.0,0.0,0.004504997931887023,-0.07326318526926343,-0.012559993913824887,-0.051026671138940355,-0.005724183984782974,-0.024996982305260075,0.04633851694025555
453,4.0,300.55213,345.10976,0.0,0.0,0.0,0.0,0.0,0.004514964741470839,-0.03597864059131537,-0.026163246342611374,-0.04276286271536596,0.022911512975940275,-0.03753935174684556,0.08933993419291501
454,4.0,300.26687999999996,314.85519,0.0,0.0,0.0,0.0,0.0,0.004524931551054656,-0.06184860777198234,0.003073168402873107,-0.036932676355471365,0.01062197476555729,0.0014681598781460987,0.08284612170652562
455,4.0,300.27421,190.52325,0.0,0.0,0.0,0.0,0.0,0.004534898360638473,0.005068153788987836,-0.03093145135219657,-0.03205101469243887,0.024431739723724977,0.02174491051305558,0.06526829544872924
456,4.0,299.88605,215.35327999999998,0.0,0.0,0.0,0.0,0.0,0.00454486517022229,-0.030932223448772767,-0.016984811504270385,-0.017544985808805282,0.0026774481359435574,0.016165428572403585,0.06011403201854305
457,4.0,299.46035,335.4282,0.0,0.0,0.0,0.0,0.0,0.004554831979806134,-0.05057982987134055,0.0014065512323157986,-0.05278851851882115,0.013262206630627887,-0.00855493382110623,0.04123747345832176
458,4.0,299.91769,283.58985,0.0,0.0,0.0,0.0,0.0,0.004564798789389951,-0.06716111452328594,-0.009184743637438621,-0.00985837581132094,-0.027179464252154274,-0.01147310282305709,0.05412588807405925
459,4.0,300.18314,124.19838,0.0,0.0,0.0,0.0,0.0,0.004574765598973768,-0.01939411455230008,0.004288603339752196,-0.02264769507390348,-0.013883390750183989,-0.015734866180910384,0.03455545787185817
460,4.0,299.84344,402.39763999999997,0.0,0.0,0.0,0.0,0.0,0.004584732408557585,-0.07101094409273452,-0.005634220446829264,-0.04567367086064036,-0.028244666724531575,0.02133736511083398,0.07752723046634193
461,4.0,299.66623,520.63845,0.0,0.0,0.0,0.0,0.0,0.0045946992181414015,-0.056619322291142034,-0.026678008804164474,-0.07496375736259683,-0.010935493598249189,0.013961221530115286,0.04470250711679396
462,4.0,300.11204,350.66801,0.0,0.0,0.0,0.0,0.0,0.004604666027725218,-0.045840094149815054,-0.0027454260719024575,-0.05800879823277265,-0.0018064073835035283,0.01215796768489799,0.05673333623214435
463,4.0,301.16183,201.34098999999998,0.0,0.0,0.0,0.0,0.0,0.004614632837309035,-0.007582110677571062,-0.014434775110101385,-0.03918574637058206,0.008913963491314701,-0.01150705683390809,0.047091346565804056
464,4.0,300.94917999999996,157.8504,0.0,0.0,0.0,0.0,0.0,0.00462459964689288,-0.04194131548128556,0.0006671595930385254,-0.006708425241045024,0.028126182324088075,-0.008931811587851172,0.07864833192023601
465,4.0,301.02819,143.99008999999998,0.0,0.0,0.0,0.0,0.0,0.004634566456476669,-0.03657951917886747,0.005071011559569875,-0.01226088451080509,0.026623704678305077,-0.029053915128898173,0.058800735259180746
466,4.0,300.69746000000004,240.01145,0.0,0.0,0.0,0.0,0.0,0.004644533266060513,-0.05641782028350535,-0.022320567279118478,0.005780899139255324,0.0038191284967186365,0.004707825233476176,0.07173415743111013
467,4.0,300.39335,166.65961000000001,0.0,0.0,0.0,0.0,0.0,0.00465450007564433,-0.01823594334349748,-0.013620151413954288,-0.01880426417883638,-0.008658705424797691,-0.006073880608320344,0.02672182173848848
468,4.0,300.12442000000004,104.94058000000001,0.0,0.0,0.0,0.0,0.0,0.004664466885228147,-0.015918930154326088,-0.01226897531285359,-0.0037114108918377365,-0.051986055850374246,0.03500535206200927,0.02167938261583848
469,4.0,300.13316000000003,341.52012,0.0,0.0,0.0,0.0,0.0,0.004674433694811964,-0.028316146452836075,-0.02981004592327247,-0.04568739533324486,-0.041352714445195164,-0.0056182768551807545,0.02936907846650237
470,4.0,299.68714,469.25862,0.0,0.0,0.0,0.0,0.0,0.00468440050439578,-0.10505255446787991,-0.0018695141196066781,-0.03572082923587136,-0.015813209665392285,0.00946034472621333,0.05859290347816935
471,4.0,300.08783999999997,170.52506,0.0,0.0,0.0,0.0,0.0,0.004694367313979597,-0.02329238051627898,-0.0005398249089340704,-0.028003154510196172,-0.006485423890136504,-0.005071724887640275,0.050898070449498456
472,4.0,300.41881,228.37068,0.0,0.0,0.0,0.0,0.0,0.004704334123563414,-0.05358153870958615,0.0033166385203767363,-0.019154083709610883,0.012382875769844688,0.02241242448018408,0.07984423250976222
473,4.0,301.08847000000003,540.51365,0.0,0.0,0.0,0.0,0.0,0.0047143009331472585,-0.042007599263077254,-0.02574610444869268,-0.09654894723588922,0.007258303404688773,-0.01067362214965449,0.06653758979599883
474,4.0,301.13794,596.06484,0.0,0.0,0.0,0.0,0.0,0.004724267742731075,-0.08400590195648702,-0.04499131683254726,-0.05219160984516085,0.008396467990266871,0.015764308189066087,0.06731988270795514
475,4.0,300.71891,282.5087,0.0,0.0,0.0,0.0,0.0,0.004734234552314892,-0.03860079810110216,-0.014849489256780488,-0.03242530319987827,0.005777444361714365,-0.02724798731666697,0.05209277135090625
476,4.0,299.67352,122.91746,0.0,0.0,0.0,0.0,0.0,0.004744201361898709,-0.05947596512582074,0.0035567546787243563,0.018555371450772584,-0.02249520600010398,0.018165467746042083,0.05861579381117844
477,4.0,300.49745,214.42952999999997,0.0,0.0,0.0,0.0,0.0,0.004754168171482526,-0.02811090453908027,-0.021827630224719376,-0.015242687037586087,-0.0008338942539689551,-0.015775442794414982,0.03627161780472997
478,4.0,299.9122,204.03608,0.0,0.0,0.0,0.0,0.0,0.00476413498106637,-0.057680397795862044,0.003096567792732447,-0.007438044143902803,0.01037090152327829,0.016473253952783585,0.05496108277373654
479,4.0,299.58427,188.69012,0.0,0.0,0.0,0.0,0.0,0.004774101790650187,0.014462031537791386,-0.03125399419027907,-0.040565123248465965,-0.0036520938124335964,-0.007812280874262092,0.02692977409626177
480,4.0,298.98794,70.286457,0.0,0.0,0.0,0.0,0.0,0.004784068600233976,-0.007944040269565732,0.01096243794490839,-0.024383725854486376,0.00041360868068749854,0.007710254796517903,0.04461998498889966
481,4.0,299.74512000000004,47.674949,0.0,0.0,0.0,0.0,0.0,0.004794035409817793,-0.006875322629941514,0.009113382054095781,-0.016730053071377683,-0.024442879395324378,0.016684727354654382,0.047907000737302856
482,4.0,300.66253,402.7674,0.0,0.0,0.0,0.0,0.0,0.004804002219401637,-0.1024367480097199,0.0016126899737351084,-0.021607171320961776,-0.02194243956705018,0.03186099686143557,0.05821025768390515
483,4.0,300.90716000000003,489.30035,0.0,0.0,0.0,0.0,0.0,0.004813969028985454,-0.05993375050775065,0.0007773129397023143,-0.08957864983697442,-0.00037519085731595463,-0.011840270208793687,0.07859682436465264
484,4.0,299.62266,11.042239,0.0,0.0,0.0,0.0,0.0,0.004823935838569299,-0.02857471470610477,0.0019071879742247981,0.023310961496612777,-0.0027243973833020875,0.021609982076739184,0.043828060121492755
485,4.0,299.75752,-36.875265,0.0,0.0,0.0,0.0,0.0,0.004833902648153088,0.03291343643555327,0.003078470943296427,-0.024782747796866775,0.017622754780480483,-0.01864647682026398,0.056735951430652444
486,4.0,299.72188,230.56967999999998,0.0,0.0,0.0,0.0,0.0,0.004843869457736905,-0.05877071975146844,-0.005514449016108745,-0.005802256323538114,0.01064307772538999,0.004102388641674236,0.045118502011599455
487,4.0,298.816,331.89277000000004,0.0,0.0,0.0,0.0,0.0,0.004853836267320749,-0.028172427058652073,-0.06318626509024884,-0.009528422973932131,0.0004085856554367646,-0.019416970434805784,0.05600904783541264
488,4.0,299.36149,169.01093999999998,0.0,0.0,0.0,0.0,0.0,0.004863803076904566,-0.05283953160835575,0.007201029138811243,-0.005736603188608655,0.017233296905793984,0.005945466964846905,0.04511958010970586
489,4.0,299.51723,153.36368000000002,0.0,0.0,0.0,0.0,0.0,0.004873769886488383,-0.011544786214631689,-0.019064805230049782,-0.016009138797478985,0.001020547020595149,-0.015319631223679884,0.05673523404958165
490,4.0,299.89654,244.04602000000003,0.0,0.0,0.0,0.0,0.0,0.0048837366960721995,-0.050374569719082954,0.002379962871509048,-0.02618929092318177,0.005058191716654655,-0.00908631084852406,0.05973810407244185
491,4.0,299.48311,363.99273,0.0,0.0,0.0,0.0,0.0,0.004893703505656016,-0.013768300737575487,8.556709035281431e-06,-0.09688495616780071,-0.01070570671407099,-0.058649767073781355,0.05623230533594645
492,4.0,299.1497,497.10785999999996,0.0,0.0,0.0,0.0,0.0,0.004903670315239833,-0.07423951760186993,-0.03600301330922076,-0.04086584574564496,-0.0027317088946986774,-0.002903174015045967,0.06321255893034385
493,4.0,299.82785,292.87968,0.0,0.0,0.0,0.0,0.0,0.004913637124823678,-0.03882844804081946,0.013721663875222787,-0.06392132636204374,0.02239490639920518,0.017034069644631784,0.06933139288597573
494,4.0,300.30932,110.51351000000001,0.0,0.0,0.0,0.0,0.0,0.0049236039344074944,-0.051974590925492746,-0.02070322962849968,0.039084473036337164,0.007980142877253783,0.03052642488972357,0.054564250464822245
495,4.0,299.21918999999997,333.39243999999997,0.0,0.0,0.0,0.0,0.0,0.0049335707439912835,-0.04568363921512416,-0.032133941107123073,-0.02352539460202568,0.0035630078503914963,-0.004559482987035936,0.055404306738479354
496,4.0,299.78901,546.23875,0.0,0.0,0.0,0.0,0.0,0.004943537553575128,-0.07681279592683272,-0.041646690723208354,-0.04758345579487145,0.011352932374447188,-0.004652564700847386,0.05995657801925353
497,4.0,300.06099,177.9782,0.0,0.0,0.0,0.0,0.0,0.004953504363158945,0.015628829557945385,-0.04863087674124386,-0.02109888150104748,0.02894114849876897,6.180044191522873e-05,0.02810199401770087
498,4.0,301.45972,192.6314,0.0,0.0,0.0,0.0,0.0,0.004963471172742789,-0.03810459331513057,-0.023097886146333877,0.0026473428542723976,0.004500119196802186,-0.01118147931177609,0.048007448272716254
499,4.0,302.36566,411.29949,0.0,0.0,0.0,0.0,0.0,0.004973437982326606,-0.02714816191681498,-0.03159002946669317,-0.06628658444147653,-0.013344104596460588,-0.03357922382451137,0.06061634467611744
500,4.0,300.3851,348.79462,0.0,0.0,0.0,0.0,0.0,0.004983404791910395,-0.05596540006085495,-0.03035221983978087,-0.01970723720420288,-0.016823861792135884,0.0014555647741030587,0.06043663869138185
501,4.0,299.16045,335.57007999999996,0.0,0.0,0.0,0.0,0.0,0.00499337160149424,-0.04280414961719066,0.006655407537512583,-0.06585618416999935,0.006318079860595933,0.01145159152343409,0.06729056532956174
502,4.0,299.68424,452.13202,0.0,0.0,0.0,0.0,0.0,0.0050033384110780565,-0.05239494076922805,-0.034750187315826464,-0.05029171727165605,-0.0027264358398532674,0.015770191119146685,0.06906373172630964
503,4.0,299.12754,191.34535,0.0,0.0,0.0,0.0,0.0,0.005013305220661873,-0.032838298874387765,-0.006158744357195744,-0.019167163755151782,-0.0025907549640126074,-0.019052367585072283,0.04190364892206816
504,4.0,299.68546000000003,237.13117000000003,0.0,0.0,0.0,0.0,0.0,0.005023272030245718,-0.06673592641032314,0.013024659263933789,-0.018370686355045584,0.0004060453969060606,-0.004111884720286426,0.06883778202026014
505,4.0,299.75358,607.21739,0.0,0.0,0.0,0.0,0.0,0.005033238839829507,-0.07465536152241053,-0.07455403853891072,-0.03536952428045027,-0.009339513030588172,0.006808368380558643,0.046869230998132956
506,4.0,299.77754,524.8311,0.0,0.0,0.0,0.0,0.0,0.005043205649413324,-0.1016077371754029,-0.022572294067711978,-0.035355513058067466,0.0010676719655210191,-0.0007552530056801684,0.08941421555774602
507,4.0,300.58797999999996,361.1427,0.0,0.0,0.0,0.0,0.0,0.005053172458997168,-0.03504032742896107,-0.04857779054200466,-0.026160244082565075,-0.013788744071593088,-0.006789970494517914,0.05490280164123465
508,4.0,301.39622,240.85304,0.0,0.0,0.0,0.0,0.0,0.005063139268580985,-0.017209265653172285,-0.018181674681391584,-0.037822370738277364,0.005437608586825184,0.013862594805131587,0.06416844286268224
509,4.0,300.68802,265.18237999999997,0.0,0.0,0.0,0.0,0.0,0.005073106078164802,-0.025823263443807677,0.002789666091143607,-0.05757522446198224,0.008155034100164202,0.01807153439552158,0.06973339277040004
510,4.0,299.37203,226.19297999999998,0.0,0.0,0.0,0.0,0.0,0.005083072887748619,-0.028631250008684373,-0.018209248256362883,-0.021916520629492182,0.00886237649692346,-0.00016536830330308086,0.06417680014950702
511,4.0,299.36473,114.57441999999999,0.0,0.0,0.0,0.0,0.0,0.0050930396973324354,-0.02307960002177918,0.035242192180133566,-0.04699035390183686,-0.006580468674691694,-0.01944418329274148,0.06504655377034503
512,4.0,299.33299,130.57321000000002,0.0,0.0,0.0,0.0,0.0,0.005103006506916252,-0.04587650529215855,0.012421200941627089,-0.006235690772439764,0.006017370231693204,-0.011987744707848288,0.06112636614045264
513,4.0,300.57437999999996,127.43061000000002,0.0,0.0,0.0,0.0,0.0,0.005112973316500097,-0.002138588155212218,-0.02018291050339818,-0.016414225041707885,-0.015870947695840586,0.017610300923501382,0.037958703539232364
514,4.0,300.6304,416.34044,0.0,0.0,0.0,0.0,0.0,0.005122940126083914,-0.06551287679761753,-0.036964516726613765,-0.02407970320173168,-0.0034240293521003865,0.006797423151653432,0.036230219445394264
515,4.0,300.12678999999997,568.14586,0.0,0.0,0.0,0.0,0.0,0.005132906935667703,-0.07332226281634394,-0.06203315810544604,-0.03734673492933576,-0.030300830834459173,-0.016828515649845183,0.03213195817667737
516,4.0,299.38412,210.21627999999998,0.0,0.0,0.0,0.0,0.0,0.005142873745251547,-0.05124877860061065,-0.004011866296290376,-0.008639854008012201,0.02009045751127378,0.0006947545070569314,0.04647214537669366
517,4.0,300.81086,-22.427801000000002,0.0,0.0,0.0,0.0,0.0,0.005152840554835364,0.016402709454321384,0.003035013153132477,-0.012620230619019788,-0.012211902987720989,0.03259894285626517,0.04778753348426236
518,4.0,300.27858,12.686314999999999,0.0,0.0,0.0,0.0,0.0,0.0051628073644192085,-0.04191451400289046,0.03438342219037957,0.0036747693364214966,0.0070119399515245935,0.006523893247408133,0.06732856119506164
519,4.0,299.61463,174.3019,0.0,0.0,0.0,0.0,0.0,0.005172774174003025,0.013580576904798589,-0.01017292866573989,-0.05639107453386574,0.005763810372343795,-0.00937640951972957,0.06331511199946503
520,4.0,299.37647000000004,117.17013999999999,0.0,0.0,0.0,0.0,0.0,0.005182740983586814,-0.021175571361366177,0.005735002253450655,-0.020176227105738583,0.015504935415217986,0.0020969393204517983,0.07040722435190203
521,4.0,300.02932999999996,242.67767999999998,0.0,0.0,0.0,0.0,0.0,0.005192707793170659,-0.013412109890172188,-0.014221714958573987,-0.046134129196334056,0.0063578617820471035,0.017369344983470883,0.05426490294802895
522,4.0,301.21139,391.79801000000003,0.0,0.0,0.0,0.0,0.0,0.005202674602754476,-0.06972091054241814,-0.00042645418922775157,-0.04894944662568425,-0.02176599523438648,-0.02220709340041948,0.06649821489711284
523,4.0,301.55669,482.87035,0.0,0.0,0.0,0.0,0.0,0.0052126414123382925,-0.04752796515314495,-0.052123243834413656,-0.047129319126551654,-0.025716415207512576,-0.02317507553895188,0.04815157904644086
524,4.0,300.64996,479.06712000000005,0.0,0.0,0.0,0.0,0.0,0.005222608221922137,-0.1126843136910759,0.003331750031043127,-0.03627187922325576,0.013783189434544886,-0.02742087210172937,0.07173796421173584
525,4.0,300.09008,383.27922,0.0,0.0,0.0,0.0,0.0,0.005232575031505926,-0.053707134099231446,-0.026690120182609776,-0.03611005710278517,0.025699362208329576,0.04435840130333336,0.058273591894655745
526,4.0,300.53958,157.40745,0.0,0.0,0.0,0.0,0.0,0.005242541841089743,-0.052051743841107154,0.0007721454857823263,0.0034316624690787167,0.016727336547859583,0.017176847729472883,0.06642702799808724
527,4.0,300.39178,60.037727000000004,0.0,0.0,0.0,0.0,0.0,0.005252508650673587,-0.015396832775299086,0.025283734110060276,-0.028136871099392974,-0.022440393222694376,0.007273096146873703,0.05718245933896935
528,4.0,300.07529,254.55695,0.0,0.0,0.0,0.0,0.0,0.005262475460257404,-0.015949461406339283,-0.017672364518626586,-0.043757130587992556,-0.0031536253244135873,0.0021936895062502977,0.058110828464842244
529,4.0,299.12956,102.91708,0.0,0.0,0.0,0.0,0.0,0.005272442269841221,0.0034855588630978767,0.008168120833155762,-0.04293790369664116,0.010856469209700091,0.006587736008383924,0.060722077324052444
530,4.0,299.45955,244.10466,0.0,0.0,0.0,0.0,0.0,0.005282409079425038,-0.030796188543347175,-0.025774913175535874,-0.017630618614506585,0.0012968896057930386,-0.03431074784020717,0.06648529393183764
531,4.0,299.86796,428.65790999999996,0.0,0.0,0.0,0.0,0.0,0.005292375889008855,-0.05032165374586055,-0.04168181402467476,-0.03829783125495166,-0.03350575305976037,-0.05412735323370386,0.045762096183617255
532,4.0,299.69377000000003,354.17804,0.0,0.0,0.0,0.0,0.0,0.005302342698592671,-0.05585954582290795,-0.019206998669583183,-0.03259473482859986,0.005528000830896204,-0.036146620232643666,0.05951369248004414
533,4.0,300.40765,184.10521,0.0,0.0,0.0,0.0,0.0,0.005312309508176516,-0.023555667475263376,-0.02759637005879968,-0.004811348286918106,0.02127921468759498,0.04088387551792436,0.013339233903229887
534,4.0,301.70965,303.90166,0.0,0.0,0.0,0.0,0.0,0.005322276317760333,-0.04304922847187805,-0.00015198737314498585,-0.049177302255171855,0.02432525828396608,0.005640748209273505,0.05296973424620575
535,4.0,300.20686,282.21797000000004,0.0,0.0,0.0,0.0,0.0,0.005332243127344122,-0.059032353086289645,-0.007507052352563383,-0.01924780934386088,0.006955483277152753,0.030582871026294367,0.042578219162893054
536,4.0,299.90302,170.59878999999998,0.0,0.0,0.0,0.0,0.0,0.005342209936927966,-0.055943893827482445,0.0008230121100149713,0.003263110240118906,0.010036979379947741,0.01101857098719829,0.07281336403311953
537,4.0,300.46335,336.40737,0.0,0.0,0.0,0.0,0.0,0.005352176746511783,-0.060837551358448844,-0.00951084369264719,-0.03191104533687497,0.031078745492733373,0.024719558480880477,0.05518377285421435
538,4.0,299.89063,315.68589,0.0,0.0,0.0,0.0,0.0,0.005362143556095628,-0.07697068461041513,0.012254777652452387,-0.03124472092536387,0.005566662503036814,-0.0030364510563493873,0.10059697257789821
539,4.0,300.13742,305.31032000000005,0.0,0.0,0.0,0.0,0.0,0.0053721103656794444,-0.025730840849186275,-0.027330421291802572,-0.03974545052707056,-0.026349243597217874,-0.007919139851008252,0.040355467617274564
540,4.0,299.86458,537.44301,0.0,0.0,0.0,0.0,0.0,0.0053820771752632335,-0.05707451071306564,-0.02212260354083098,-0.08417213982089342,0.0022514077783216476,-0.012630431007776487,0.08802597375473722
541,4.0,299.08206,508.98314000000005,0.0,0.0,0.0,0.0,0.0,0.005392043984847078,-0.04961786745165225,-0.06147258154062144,-0.04362771625872036,0.0006087640949978385,0.02738982611866537,0.04303565598678855
542,4.0,300.52968,378.43382,0.0,0.0,0.0,0.0,0.0,0.005402010794430895,-0.06493088012567894,-0.01163927279970679,-0.03846427784887867,0.03429406366406057,-0.016942150635310085,0.07541460603434214
543,4.0,300.49496,148.52542,0.0,0.0,0.0,0.0,0.0,0.005411977604014712,-0.036104547048741366,0.009347599880961281,-0.018391071933807485,0.0056022395378979946,-0.02864481134802277,0.01928667153819628
544,4.0,299.55178,137.52617,0.0,0.0,0.0,0.0,0.0,0.005421944413598556,-0.05731988138378185,0.00924365470752769,0.006271705733994164,0.014481181964681386,-0.0058884471260694845,0.07500995447440613
545,4.0,299.90022,156.20283,0.0,0.0,0.0,0.0,0.0,0.005431911223182345,0.004470545668783506,0.01013435828743329,-0.062086664803476736,-0.012979964802022789,0.008310106860393691,0.022294008980747376
546,4.0,299.85992999999996,239.83711,0.0,0.0,0.0,0.0,0.0,0.005441878032766162,-0.03602417402430917,-0.024134978021186877,-0.012745341675117289,-0.002612352795194147,0.003034189887426227,0.061055904728498644
547,4.0,300.08396,187.18542,0.0,0.0,0.0,0.0,0.0,0.0054518448423500065,-0.02808513961553747,-0.008908765416976692,-0.01990578964079848,-0.03439845983511367,-0.0005503048128633565,0.06409494575342864
548,4.0,299.76389,52.710963,0.0,0.0,0.0,0.0,0.0,0.005461811651933823,-0.04631929558585855,0.013043373993280788,0.017253104931998883,-0.005651287327538635,-0.015011378251757685,0.07536830861077293
549,4.0,299.14493,17.224119,0.0,0.0,0.0,0.0,0.0,0.00547177846151764,0.003853210582382277,-0.008233617522269782,-0.0008552950485360493,-0.006001205143572834,0.01208559730975559,0.05736397194863325
550,4.0,299.39976,462.9327,0.0,0.0,0.0,0.0,0.0,0.005481745271101457,-0.09033396597826832,-0.0019068095253124482,-0.04847920637352515,0.013852866590921487,-0.003744163796020197,0.08223665987737643
551,4.0,299.83042,614.40293,0.0,0.0,0.0,0.0,0.0,0.005491712080685274,-0.03523768119068837,-0.05524319186657855,-0.09628227602157081,-0.0025123373096233876,0.0004777191018097046,0.05067634599636595
552,4.0,299.43785,199.3489,0.0,0.0,0.0,0.0,0.0,0.0055016788902690905,-0.04626474321372466,0.017904071511744283,-0.03223641412948637,0.02110307432996128,0.0071435012564336825,0.057206482485590245
553,4.0,299.75129,201.52996000000002,0.0,0.0,0.0,0.0,0.0,0.005511645699852935,-0.023547781349735078,0.0022932283589740176,-0.040005522443487665,0.0025498798470285472,0.03264942094974697,0.06735944809785994
554,4.0,301.00091000000003,410.27866,0.0,0.0,0.0,0.0,0.0,0.005521612509436752,-0.07261661720820213,-0.024712601505693876,-0.02738525028121377,-0.017958518505867785,0.003633371585035856,0.07161947373179173
555,4.0,300.18945,337.85209,0.0,0.0,0.0,0.0,0.0,0.005531579319020541,-0.06713360073007053,0.005181680255367025,-0.04074667740138396,-0.0019374514242365682,-0.03076016142279157,0.06336319071671004
556,4.0,300.05877999999996,96.13480899999999,0.0,0.0,0.0,0.0,0.0,0.0055415461286043854,-0.040662569537083165,0.02221008350146458,-0.01077009571817569,-0.004938333450400565,-0.024718601972786077,0.06996604917886144
557,4.0,300.32687000000004,5.318331,0.0,0.0,0.0,0.0,0.0,0.005551512938188202,0.026250197386692774,-0.008222405403288233,-0.01964443089675438,0.02006839601684648,0.01033302826104049,0.049089834453539455
558,4.0,300.27053,182.07461999999998,0.0,0.0,0.0,0.0,0.0,0.005561479747772047,-0.03599078743351417,-0.001985154428344488,-0.01737019611355488,-0.025495403069200374,0.017182547261285385,0.07235448940733213
559,4.0,299.89838,599.41095,0.0,0.0,0.0,0.0,0.0,0.005571446557355836,-0.07519070309349463,-0.060275263414205346,-0.04673999500087836,-0.027331431502152274,0.01123944228374659,0.05893846533202364
560,4.0,300.14198999999996,604.41484,0.0,0.0,0.0,0.0,0.0,0.005581413366939653,-0.0973983993777236,-0.022222776485467277,-0.06410584528475434,-0.024548497545998076,0.0031139886017017473,0.07020958890664694
561,4.0,298.69693,68.175021,0.0,0.0,0.0,0.0,0.0,0.005591380176523497,-0.009090248946362721,0.010297468248780991,-0.02193072335614388,0.02919723023629227,0.0017789746502961284,0.06762371182994074
562,4.0,298.61803,-2.45262,0.0,0.0,0.0,0.0,0.0,0.005601346986107314,0.018845417331647882,-0.02123056551054368,0.003130683518299407,-0.007163302493862913,-0.03684896973821016,0.04468923252723386
563,4.0,300.12846,548.22142,0.0,0.0,0.0,0.0,0.0,0.005611313795691131,-0.04670696203436825,-0.014067727287876586,-0.10587093630864791,0.0035787685503969567,-0.04972990758145975,0.05939104767469004
564,4.0,299.83128,413.37572,0.0,0.0,0.0,0.0,0.0,0.0056212806052749476,-0.07555244351169563,-0.020961796868518283,-0.029141657521307672,-0.02245834294821588,-0.01024430301603399,0.047247310074196455
565,4.0,300.20527999999996,-135.32272,0.0,0.0,0.0,0.0,0.0,0.005631247414858764,-0.003410591223974147,0.03533979248276596,0.009205525599639641,0.024911991900122176,0.040914200066917164,0.050012188926818746
566,4.0,300.16336,-80.723729,0.0,0.0,0.0,0.0,0.0,0.005641214224442581,-0.020778196963648382,0.03390195512711247,0.011414239071747687,0.01106168984520379,0.03220740680562357,0.06361771508882964
567,4.0,299.81755,294.02372,0.0,0.0,0.0,0.0,0.0,0.005651181034026426,-0.06426249780321473,-0.014629241109043685,-0.010484130195453089,0.002194581368988318,0.0006429958579662504,0.06552853657791302
568,4.0,299.92231,533.8791,0.0,0.0,0.0,0.0,0.0,0.005661147843610215,-0.08041735817707532,-0.009861182919397981,-0.07200737424107453,-0.015971340515748587,-0.007579710389409173,0.06623616207675023
569,4.0,299.97774,468.85602,0.0,0.0,0.0,0.0,0.0,0.005671114653194059,-0.05733774093004445,-0.028557903873695677,-0.05662487794144035,0.0007732310312769613,-0.01093959523465399,0.06612673106595023
570,4.0,299.84312,124.86957,0.0,0.0,0.0,0.0,0.0,0.005681081462777876,-0.03187345274491487,-0.0035903945820443565,-0.0024933831492777577,-0.008102881914867181,-0.007106044034686942,0.05868514976727335
571,4.0,299.40914,92.485354,0.0,0.0,0.0,0.0,0.0,0.005691048272361693,-0.02210872100121088,0.01025016466786249,-0.016254682733962286,-0.017213841490623882,-0.019055919026672783,0.05748640295821625
572,4.0,299.89016000000004,522.64368,0.0,0.0,0.0,0.0,0.0,0.00570101508194551,-0.09561642277135622,-0.03477900516192057,-0.028475200374033473,-0.03448665211056757,0.01069287390155449,0.06601516209743924
573,4.0,300.68973,472.79321,0.0,0.0,0.0,0.0,0.0,0.0057109818915293264,-0.07244433530694923,-0.01077693414310059,-0.06049606074349635,0.008060010796511132,0.01946253831830298,0.08972124351029731
574,4.0,300.78752000000003,93.472086,0.0,0.0,0.0,0.0,0.0,0.005720948701113171,0.017303620515734384,-0.004187824066256056,-0.04152897639284086,0.00966948380250375,-0.007226962363195653,0.07069289400559543
575,4.0,299.70241,80.33301800000001,0.0,0.0,0.0,0.0,0.0,0.00573091551069696,0.015679299545426385,-0.015571030732491086,-0.024527499964175775,0.022076040645735578,-0.01948899731816428,0.05721128326456404
576,4.0,299.23901,530.07958,0.0,0.0,0.0,0.0,0.0,0.005740882320280777,-0.0959720117482001,-0.01188305570751629,-0.05327588877717085,-0.008689885663499942,-0.0096639823610858,0.05799306245871965
577,4.0,300.95684,466.25260999999995,0.0,0.0,0.0,0.0,0.0,0.005750849129864621,-0.08621896885764974,-0.025476871738121475,-0.030033310516556975,-0.0013042156066660588,0.016628360251591385,0.06415417731452434
578,4.0,300.46224,114.66408,0.0,0.0,0.0,0.0,0.0,0.005760815939448438,-0.04665065369981105,-0.02437159826403948,0.03616723379267807,-0.01112290737649549,0.02347145727270248,0.05102711392923404
579,4.0,300.45916,154.74673,0.0,0.0,0.0,0.0,0.0,0.005770782749032255,-0.016531318249764084,-0.002145425364236998,-0.02836239828015077,-0.01100881642848559,0.006493891722547213,0.07919667045035284
580,4.0,299.2248,306.08749,0.0,0.0,0.0,0.0,0.0,0.005780749558616072,-0.018438047221693586,-0.03619139676781276,-0.038413508952618164,-0.007704920946666493,0.009023168749992422,0.06730629401086403
581,4.0,299.29213,456.0607,0.0,0.0,0.0,0.0,0.0,0.0057907163681998886,-0.05238013414551675,-0.02771472476323037,-0.05853620706882385,-0.011570623078931589,-0.010374992013931989,0.062494388537715946
582,4.0,298.76356,508.87021,0.0,0.0,0.0,0.0,0.0,0.005800683177783705,-0.07610246505022852,-0.02441766264008568,-0.05416371067379205,0.001087113397839739,-0.016887422970908884,0.060014421427712246
583,4.0,301.03148999999996,298.01261,0.0,0.0,0.0,0.0,0.0,0.00581064998736755,-0.053365650577029654,-0.028564875034383676,-0.008657865136489761,0.005075691153831715,-0.05254843904012715,0.05709409481099844
584,4.0,299.63507999999996,-115.22878999999999,0.0,0.0,0.0,0.0,0.0,0.005820616796951367,-0.027590561095976372,0.04249746312992306,0.020119773876417082,0.021550602581128876,0.003937457667246816,0.060835577547254036
585,4.0,299.84106,295.46403,0.0,0.0,0.0,0.0,0.0,0.005830583606535156,-0.04122273168261686,0.0005545543837827565,-0.04914551052003425,0.008876551967147471,-0.003534110261514527,0.08316808395230083
586,4.0,300.42497000000003,554.41882,0.0,0.0,0.0,0.0,0.0,0.005840550416119,-0.048999307649855155,-0.03709198156269357,-0.08243818721626563,-0.004888429160450396,0.018574477294658182,0.07322615908410923
587,4.0,300.48457,72.89299,0.0,0.0,0.0,0.0,0.0,0.005850517225702817,-0.007120539387967523,0.009580081402455422,-0.024617190836527577,-0.0029061049422852273,-0.006715263767294932,0.1000567501810824
588,4.0,300.55402999999995,-21.408495000000002,0.0,0.0,0.0,0.0,0.0,0.005860484035286662,-0.02092532999741928,-0.012864089520586788,0.04029706793451096,0.0015527185374163885,0.016945370744127882,0.037357996190947165
589,4.0,300.47673,488.79875999999996,0.0,0.0,0.0,0.0,0.0,0.005870450844870478,-0.0910418964653856,-0.03793558623820086,-0.01960513604462628,0.009176008205676501,0.012134105645042989,0.08332247894953843
590,4.0,300.54582999999997,465.66936,0.0,0.0,0.0,0.0,0.0,0.0058804176544542675,-0.08152740405912832,-0.02982953984194637,-0.030194913775005973,-0.026321991222528273,0.012957372364543088,0.04106339303814136
591,4.0,300.29225,522.72766,0.0,0.0,0.0,0.0,0.0,0.005890384464038084,-0.044200460943995865,-0.05417275190443435,-0.06052294429514953,-0.017565635845843284,0.007989686679945682,0.07978945418285602
592,4.0,299.54397,287.95474,0.0,0.0,0.0,0.0,0.0,0.005900351273621929,-0.02234940336371438,-0.003075107358264467,-0.06210654071743835,-0.02092112095650388,0.018509625235257784,0.06365188694845214
593,4.0,298.87039,-129.07307,0.0,0.0,0.0,0.0,0.0,0.005910318083205746,0.007899289268299154,0.027187515537448873,0.0041481858236690665,0.03103462858337937,-0.0013773354829074286,0.07465801623767251
594,4.0,299.53958,29.740694,0.0,0.0,0.0,0.0,0.0,0.00592028489278959,-0.012065500507272188,0.0066503112948096245,-0.003625238733108207,-0.02273594003836258,-0.018218156751242085,0.035248807690036466
595,4.0,299.90812999999997,361.28292000000005,0.0,0.0,0.0,0.0,0.0,0.005930251702373379,-0.07533636995437083,-0.0040565481939001365,-0.030428068702516575,0.017038327321551985,-0.05889168762790704,0.06379118147944944
596,4.0,299.56877000000003,115.47191000000001,0.0,0.0,0.0,0.0,0.0,0.005940218511957196,-0.036435236417627866,0.0010928955095353891,0.00024176407791275678,0.0016757589156095284,-0.03701884719697576,0.060611669540156045
597,4.0,301.1229,-17.646426,0.0,0.0,0.0,0.0,0.0,0.0059501853215410405,0.017139543913791286,0.009417578783217662,-0.02119304992559118,0.029293046205498576,-0.017627314405930485,0.07010764986708633
598,4.0,299.91491,117.35833000000001,0.0,0.0,0.0,0.0,0.0,0.005960152131124857,-0.01003964473433579,0.004144643805294496,-0.029779000953458576,0.0012879287258836687,0.0023210927367240176,0.1025309802690199
599,4.0,300.48,471.81132,0.0,0.0,0.0,0.0,0.0,0.005970118940708674,-0.051430132130008854,-0.046963646655701054,-0.04502508237887966,-0.016414289889714283,0.008060709635105101,0.07862831921751091
600,4.0,300.70963,568.4850799999999,0.0,0.0,0.0,0.0,0.0,0.005980085750292491,-0.09030619380627741,-0.03502263608221507,-0.04747644138555995,-0.025662772733968477,0.041618853703211056,0.08157569454564423
601,4.0,299.44681,337.67845,0.0,0.0,0.0,0.0,0.0,0.005990052559876308,-0.07239397171072874,-0.02557436260974308,-0.0046774820406815356,-0.008376406854186991,0.01019987199914899,0.060025327038538544
602,4.0,299.09913,208.50258,0.0,0.0,0.0,0.0,0.0,0.0060000193694601245,-0.05780683215659014,0.005432039156325525,-0.011004784706337688,-0.015900644029771382,0.016209368162990085,0.07690181704086843
603,4.0,299.4396,46.011874,0.0,0.0,0.0,0.0,0.0,0.006009986179043969,0.0014699561679233787,0.027298891988440873,-0.042755308935870456,-0.011186612436782688,-0.027936476574115576,0.07005381082302284
604,4.0,298.89558,143.46426,0.0,0.0,0.0,0.0,0.0,0.006019952988627786,-0.005484221333825505,-0.0037670872623075664,-0.03435824292539457,-0.0005260211596417465,0.0019806750523024084,0.07106539108685804
605,4.0,299.60545,291.95132,0.0,0.0,0.0,0.0,0.0,0.006029919798211575,-0.04322866695858726,0.0026798521731308173,-0.048197095254182955,0.01035501477496039,0.004842505220868055,0.08552690992009883
606,4.0,300.5348,189.96528999999998,0.0,0.0,0.0,0.0,0.0,0.006039886607795419,-0.031230344932945072,-0.01906871738868588,-0.0074456431143527626,0.01853717449222668,-0.003851728400135996,0.05948252085396775
607,4.0,300.14967,261.12665,0.0,0.0,0.0,0.0,0.0,0.006049853417379236,-0.06745528737181854,-0.03251992252071647,0.02059922761173548,0.01967165490044118,-0.038067413115961166,0.05496966196233325
608,4.0,300.70457999999996,767.05174,0.0,0.0,0.0,0.0,0.0,0.006059820226963081,-0.08397824022875702,-0.05647215885986814,-0.09271417760267692,0.010941551820597091,-0.00987277095416663,0.07493369524537993
609,4.0,299.99814,623.02352,0.0,0.0,0.0,0.0,0.0,0.0060697870365468976,-0.06435041751439173,-0.05159580358760935,-0.07343737106745424,-0.015106370448632686,-0.004276351524843036,0.10471095746166689
610,4.0,300.93732,193.11497,0.0,0.0,0.0,0.0,0.0,0.006079753846130687,0.004050549348008096,-0.014523267307584884,-0.04822941083962225,-0.01141080820690909,0.017904814224067582,0.08785191765255923
611,4.0,299.9283,12.297533999999999,0.0,0.0,0.0,0.0,0.0,0.006089720655714503,-0.015030051437850585,0.01045502661283079,0.0008368807985062043,-0.02012642687657368,0.03184111081497297,0.08019587285096642
612,4.0,299.12197000000003,130.69186000000002,0.0,0.0,0.0,0.0,0.0,0.006099687465298348,-0.04739049244582745,0.004747227794089905,0.0029162027901318073,-0.027819519141572772,0.03156967327218417,0.06908721886362763
613,4.0,299.19556,297.91164,0.0,0.0,0.0,0.0,0.0,0.006109654274882165,-0.1057387071705979,0.016960594826880383,-0.0017795897944318383,-0.02240745448844358,0.01099387301601079,0.06020154845618024
614,4.0,299.47722000000005,224.13147,0.0,0.0,0.0,0.0,0.0,0.006119621084466009,-0.05601216256622005,0.008362356824325361,-0.02048056487927438,-0.007867007322763173,-0.013851375086774287,0.059005740072413146
615,4.0,298.80863,18.928922,0.0,0.0,0.0,0.0,0.0,0.006129587894049798,-0.02073006657064828,0.028420549716639872,-0.01344440318410929,0.011738306851230689,-0.03353500255039707,0.05796494780819494
616,4.0,300.25402,168.25011999999998,0.0,0.0,0.0,0.0,0.0,0.006139554703633615,-0.018238256593475784,0.006010432102958464,-0.03891600906146107,0.04112331766230546,-0.018261051680975485,0.06456552949737164
617,4.0,300.01402,738.89305,0.0,0.0,0.0,0.0,0.0,0.00614952151321746,-0.08819851910101612,-0.07720416681770802,-0.05920235112181715,0.003165456133906197,-0.003122761422392557,0.06128995435584753
618,4.0,299.53824,699.97038,0.0,0.0,0.0,0.0,0.0,0.0061594883228012764,-0.10381687570592789,-0.048078749669003155,-0.06087789492443044,-0.008045626698091533,0.00937914924667496,0.07387662309180502
619,4.0,300.65676,248.10027999999997,0.0,0.0,0.0,0.0,0.0,0.006169455132385093,-0.04868774438985625,-0.05485643126365824,0.02812788357100597,-0.022079734955600182,0.003994832751509296,0.05585825494228055
620,4.0,300.3307,31.307309999999998,0.0,0.0,0.0,0.0,0.0,0.00617942194196891,-0.00036184062863588965,-0.0015930978711265183,-0.007561701996706883,-0.006852625118426443,0.006601132086631015,0.07858334205882202
621,4.0,300.91379,164.95076,0.0,0.0,0.0,0.0,0.0,0.006189388751552727,-0.020703692683795377,0.017982998628283786,-0.047420219177261254,-0.0011571848098302488,-0.004799410275564915,0.08485756095703922
622,4.0,300.34115,255.38622,0.0,0.0,0.0,0.0,0.0,0.006199355561136544,-0.012051907757180689,-0.025706538045537776,-0.039872589096618165,-0.0025391628020458574,0.007734564794242112,0.05287442388879936
623,4.0,299.82074,186.91718,0.0,0.0,0.0,0.0,0.0,0.006209322370720388,-0.03769185500614646,0.016365890985437684,-0.035492190364056465,-0.007804771272470952,-0.009436941080703571,0.05771275999080595
624,4.0,299.3266,-26.36416,0.0,0.0,0.0,0.0,0.0,0.006219289180304205,-0.03339197520603137,0.03304122449841497,0.008364797439841231,0.012429535936949688,-0.006509422820080014,0.033198927757229074
625,4.0,299.60702000000003,44.422818,0.0,0.0,0.0,0.0,0.0,0.006229255989887994,-0.018882481007055783,-0.006117312560606745,0.01149636603210299,-0.012666399359826289,0.008034017587720804,0.052789101137628656
626,4.0,300.1461,551.97369,0.0,0.0,0.0,0.0,0.0,0.0062392227994718386,-0.06140539900599103,-0.025228781504136877,-0.08115203846683262,-0.0017162287325535883,-0.0071918061311010036,0.04605915375518455
627,4.0,300.39826,654.81264,0.0,0.0,0.0,0.0,0.0,0.006249189609055655,-0.06273557245901894,-0.05410166430391854,-0.08220945411219142,-0.025934892194074573,0.0035568923794129462,0.08839609071151493
628,4.0,299.65321,25.644731,0.0,0.0,0.0,0.0,0.0,0.0062591564186395,-0.019301259299885982,0.044033772183294954,-0.03252787045450087,-0.001034312935128739,-0.008823761535612462,0.09995582439162182
629,4.0,300.25529,-186.85443,0.0,0.0,0.0,0.0,0.0,0.006269123228223317,0.0029279040049366273,0.01963172575375048,0.034239452523420866,0.019854752233261483,0.014883121054099684,0.08121872349566393
630,4.0,300.85941,300.39571,0.0,0.0,0.0,0.0,0.0,0.006279090037807106,-0.0897372153716236,-0.004564853313890945,0.002989273321093307,0.006518629717113663,-0.0011481380063123989,0.09091982921258851
631,4.0,300.7485,560.66116,0.0,0.0,0.0,0.0,0.0,0.00628905684739095,-0.09459407368545822,-0.0031482743506354867,-0.07268464378016583,-0.012286632209096189,-0.003740037841612996,0.06084678611986024
632,4.0,300.42537000000004,233.15384,0.0,0.0,0.0,0.0,0.0,0.006299023656974767,-0.03902886080459867,0.011874558592177687,-0.04371864126969396,-0.007243705003873024,-0.03571581668762667,0.07057928232488284
633,4.0,301.31567,-95.420381,0.0,0.0,0.0,0.0,0.0,0.006308990466558584,0.021984675884218582,0.03599310980274337,-0.02897237180060047,0.002261376740755508,-0.018100289420109484,0.04754990201780995
634,4.0,300.06093,67.223386,0.0,0.0,0.0,0.0,0.0,0.006318957276142428,-0.011892153680164188,0.04046339699142636,-0.049005475303213857,0.008683658127060331,-0.02009525322399708,0.08317898044387623
635,4.0,299.78672,401.26986,0.0,0.0,0.0,0.0,0.0,0.0063289240857262175,-0.06335016336017434,-0.041840674415103064,-0.016785180969568384,-0.026301350304741174,0.004315807078436996,0.026853702318504077
636,4.0,299.48307,568.0498200000001,0.0,0.0,0.0,0.0,0.0,0.006338890895310034,-0.11019621727551988,-0.0029678351781275273,-0.05950890993957215,-0.005737065534629285,-0.004472335473760147,0.097450312233347
637,4.0,299.74022,291.57128,0.0,0.0,0.0,0.0,0.0,0.006348857704893879,-0.05082968316049915,-0.00922375437423868,-0.028576951962325573,-0.002734399377689208,0.033148455743247866,0.06019940239246844
638,4.0,299.92285,-73.487989,0.0,0.0,0.0,0.0,0.0,0.006358824514477696,0.03166431083152417,0.004208113892883506,-0.013533910658192988,0.044354202394918954,0.022381604451892377,0.08283840682026422
639,4.0,300.87514,76.70602199999999,0.0,0.0,0.0,0.0,0.0,0.006368791324061512,-0.0007835765377129832,0.012401727287955187,-0.034934866332052866,0.02087027505323578,-0.017985743522804683,0.08325697334382352
640,4.0,300.81865,605.52031,0.0,0.0,0.0,0.0,0.0,0.006378758133645329,-0.06470844842397663,-0.050216257496958745,-0.06913834847692372,0.00983939024022221,-0.029932332038091175,0.08333854200337372
641,4.0,298.42616,405.39065,0.0,0.0,0.0,0.0,0.0,0.006388724943229146,-0.1059824343496519,0.007485537202590003,-0.024731735720582276,-0.0077340445916407735,-0.004124651975521456,0.08832051643955632
642,4.0,299.35437,31.197788,0.0,0.0,0.0,0.0,0.0,0.006398691752812963,-0.02199423691216218,0.013139254810493488,-0.0006283669785874923,-0.007250945486437604,0.0004376259909878226,0.07115057603601514
643,4.0,299.34207000000004,21.122076999999997,0.0,0.0,0.0,0.0,0.0,0.006408658562396807,-0.021799379798681278,-0.0010566385838571089,0.016435433379550984,-0.04163993437154156,0.017335105236091684,0.05620850713084775
644,4.0,299.15072000000004,370.20785,0.0,0.0,0.0,0.0,0.0,0.006418625371980624,-0.027198882177070675,0.015198625856987585,-0.1005336870031524,-0.027585673177493972,-0.01805624343826248,0.08213511600535482
645,4.0,299.54482,553.04844,0.0,0.0,0.0,0.0,0.0,0.006428592181564413,-0.07914856842835552,-0.027575132336703674,-0.06138921436214374,-0.001152367109579779,0.016941654142761085,0.06469025653168124
646,4.0,300.46867000000003,209.95573,0.0,0.0,0.0,0.0,0.0,0.006438558991148258,-0.04177354963572836,0.024867055271437274,-0.046914804961130756,0.03132955225023607,-0.01849187815975628,0.09202855685626142
647,4.0,300.62925,-97.649388,0.0,0.0,0.0,0.0,0.0,0.0064485258007320745,-0.05000540015114875,0.031512437813785474,0.048175937578844856,0.015204904967857286,-0.015695978655322487,0.06919918705267804
648,4.0,301.41465,217.42122999999998,0.0,0.0,0.0,0.0,0.0,0.006458492610315919,-0.057026898090866654,-0.019010314666171983,0.009946589162376921,-0.013426849639376886,-0.021362902053104278,0.10025906886829972
649,4.0,300.35334,636.9938400000001,0.0,0.0,0.0,0.0,0.0,0.006468459419899736,-0.1134017859543849,-0.009061379323188512,-0.07116706060189203,-0.02089959445812938,0.03904562908050357,0.07660561161263522
650,4.0,299.21304,649.66885,0.0,0.0,0.0,0.0,0.0,0.006478426229483525,-0.06971166058225524,-0.04221160095871066,-0.08555984561459933,-0.0003668715471049027,0.015062669985069787,0.10731251762342091
651,4.0,299.66289,116.43671,0.0,0.0,0.0,0.0,0.0,0.006488393039067369,0.014086996265028287,-0.034630744380788364,-0.014850103286341086,-0.030197880571298772,0.006710594305534093,0.05034438702510415
652,4.0,300.24779,-6.9443466,0.0,0.0,0.0,0.0,0.0,0.006498359848651186,-0.0035656604378282867,0.023760227471701874,-0.018083659959468285,0.006513782328635264,-0.026676479809763575,0.08328765962310201
653,4.0,300.55872999999997,408.61327,0.0,0.0,0.0,0.0,0.0,0.006508326658235003,-0.08429390208541042,-0.03754695112259557,-0.0023673783052670476,0.007726529822274123,0.0038487090161630063,0.04613023730269995
654,4.0,300.46457999999996,437.5475,0.0,0.0,0.0,0.0,0.0,0.0065182934678188476,-0.08332204223874533,-0.014314286500960088,-0.03536718468596937,0.01825507046563518,0.005396618567279785,0.053834434788795044
655,4.0,299.73986,-66.189273,0.0,0.0,0.0,0.0,0.0,0.006528260277402637,0.007728403625684053,0.013500006296596888,-0.0011085238790777888,-0.01230114600352859,-0.005810098676662094,0.04053825388231416
656,4.0,300.97641,-4.692143,0.0,0.0,0.0,0.0,0.0,0.006538227086986453,0.013117602669106589,-0.0002120685343170348,-0.01147923906566269,-0.005084340054035295,-0.007369129863526493,0.05163773896949805
657,4.0,300.64704,346.77982000000003,0.0,0.0,0.0,0.0,0.0,0.006548193896570298,-0.044789486531878156,0.007648751326047982,-0.06827166905688913,-0.01148585457556559,0.016263639864846285,0.09051319066920642
658,4.0,300.51342,502.72346,0.0,0.0,0.0,0.0,0.0,0.006558160706154115,-0.07880890672983352,-0.03439120901739807,-0.039615263087972065,0.011874873712958789,-0.012339657613329388,0.08391301124031943
659,4.0,299.75649,421.15309,0.0,0.0,0.0,0.0,0.0,0.0065681275157379315,-0.1020013949717539,-0.024863272808813976,-0.0011553588318250387,-0.0014320369041310387,-0.017220744763555184,0.08514558439071492
660,4.0,299.52249,164.28985,0.0,0.0,0.0,0.0,0.0,0.006578094325321748,-0.050373640568741246,0.02218237719073018,-0.02174874971768448,0.0048743621079870856,-0.014543752184856587,0.08588838284027342
661,4.0,298.9493,-43.700469,0.0,0.0,0.0,0.0,0.0,0.006588061134905565,-0.02123211071694618,0.0074878283637161225,0.027028133323219076,0.013193890269135587,0.03358400433848317,0.07103779927338492
662,4.0,301.02674,456.49100999999996,0.0,0.0,0.0,0.0,0.0,0.006598027944489382,-0.058776457786784746,0.02082602034186818,-0.1008114310145636,0.02090009601692888,0.013076688643318688,0.10701451063650991
663,4.0,300.03617,699.3045900000001,0.0,0.0,0.0,0.0,0.0,0.0066079947540732265,-0.07193178781011474,-0.047535510826639656,-0.0931038350876331,-0.016113920003570086,0.008857605102202562,0.06320599205644574
664,4.0,298.99547,238.0867,0.0,0.0,0.0,0.0,0.0,0.006617961563657043,-0.013670956787218387,-0.01934415422961938,-0.039357300758263165,-0.031234733319128172,-0.014801239300268587,0.07888699183553992
665,4.0,300.53175,172.67186,0.0,0.0,0.0,0.0,0.0,0.006627928373240832,-0.058920360579236844,0.02485672923966818,-0.018424302484087083,-0.040501341181171165,0.017886197779980285,0.06507881362702884
666,4.0,300.8425,512.13157,0.0,0.0,0.0,0.0,0.0,0.006637895182824677,-0.08514019390018292,-0.034743074300124466,-0.03579194318088976,-0.028687773152262775,-0.003431087449646966,0.06581918838234814
667,4.0,300.73571,361.17145,0.0,0.0,0.0,0.0,0.0,0.006647861992408494,-0.04957336145425986,-0.002701705140687537,-0.05751203615924604,-0.015658085128082685,-0.025466177896566078,0.06908756235541152
668,4.0,301.09526,61.347953000000004,0.0,0.0,0.0,0.0,0.0,0.00665782880199231,0.03007142290581837,-0.0012293762450049889,-0.047490292514426956,0.006973768388457352,-0.018254871868615585,0.08355011875675472
669,4.0,300.13662,85.65006600000001,0.0,0.0,0.0,0.0,0.0,0.006667795611576127,0.00962137539703082,-0.015706954180405686,-0.01994990351040218,0.023819012189503476,0.0071738514406540135,0.08072861543554402
670,4.0,299.52212000000003,159.06024,0.0,0.0,0.0,0.0,0.0,0.006677762421159944,-0.03440156949967057,0.013275301874920289,-0.027224072587806774,0.04688251572019405,-0.0014231509034040586,0.09158929267290941
671,4.0,300.24202,402.4716,0.0,0.0,0.0,0.0,0.0,0.0066877292307437886,-0.07684310831682434,-0.04697825974864325,0.0014800507733696386,0.016798974343179684,-0.0035121257740948265,0.07210105529232014
672,4.0,299.76183,517.82421,0.0,0.0,0.0,0.0,0.0,0.006697696040327605,-0.07015887168614153,-0.03958161001240076,-0.04766514705768375,-0.02417894496952608,-0.008601255056052783,0.055355627163925045
673,4.0,299.5056,295.0212,0.0,0.0,0.0,0.0,0.0,0.006707662849911422,-0.047970152563035454,-0.00888041093015332,-0.03282851493142217,-0.036548463063302464,0.02126513557745548,0.05993820678169044
674,4.0,299.72222,16.903106,0.0,0.0,0.0,0.0,0.0,0.006717629659495239,0.024891825183381875,-0.012534439746302887,-0.01749550779317218,-0.035874439977531564,0.02274968781571938,0.04875943183443125
675,4.0,300.50785,150.20532,0.0,0.0,0.0,0.0,0.0,0.006727596469079056,-0.03803586152109726,0.02688060106890877,-0.03450340518772097,-0.0054904731882675145,0.014820991597717987,0.08099535656411933
676,4.0,301.74953999999997,317.08342999999996,0.0,0.0,0.0,0.0,0.0,0.0067375632786628725,-0.03902401442937036,-0.02252182306698088,-0.03483960765040157,0.0018482433655574184,-0.012198107587609489,0.08354868703436341
677,4.0,301.46432999999996,-50.392439,0.0,0.0,0.0,0.0,0.0,0.006747530088246689,-0.04110577019707366,0.02436886856827008,0.032054945089576764,0.012592060239739588,-0.008461935903078054,0.1025158423125259
678,4.0,300.6807,-20.433135999999998,0.0,0.0,0.0,0.0,0.0,0.006757496897830506,-0.022746355236140478,0.03979332760754566,-0.01083580904016109,0.02394334506952418,-0.029537295208354075,0.08266514105316422
679,4.0,300.13231,586.99826,0.0,0.0,0.0,0.0,0.0,0.006767463707414351,-0.07572822416554384,-0.05507530747075965,-0.04762928104389405,0.02414007568243998,-0.025388826383932077,0.08326548768441382
680,4.0,299.12243,621.2033799999999,0.0,0.0,0.0,0.0,0.0,0.0067774305169981675,-0.06634906245589263,-0.031161335508384368,-0.09131991810732422,0.010656457692960489,0.0010757392601671988,0.06150991170080564
681,4.0,300.33451,496.97734,0.0,0.0,0.0,0.0,0.0,0.006787397326581984,-0.07087125236769803,-0.033076492694645666,-0.047120954746976154,-0.0038739458337536865,0.016031371531173184,0.09835841737047
682,4.0,300.51255,346.65839,0.0,0.0,0.0,0.0,0.0,0.006797364136165801,-0.08802692519658112,-0.02140174702218798,0.004053177820092506,0.0038711341660511963,0.012211219043903487,0.07610998539247073
683,4.0,300.00502,148.66222,0.0,0.0,0.0,0.0,0.0,0.006807330945749618,-0.07236141801151594,0.03832464894534836,-0.011152832704948889,-0.003841930676969036,0.004470959581449356,0.1136271631741279
684,4.0,299.47941000000003,111.91413999999999,0.0,0.0,0.0,0.0,0.0,0.006817297755333462,-0.02106120683582928,-0.014689578125998486,0.0017316803912785482,-0.006602336739674904,-0.006938618337188313,0.05424656514771915
685,4.0,299.10665,255.42577000000003,0.0,0.0,0.0,0.0,0.0,0.006827264564917251,-0.019301316041891583,-0.015911575985100287,-0.04243016508478126,-0.0019006332593278982,-0.007294979613258432,0.07830441457129401
686,4.0,298.06802999999996,221.7661,0.0,0.0,0.0,0.0,0.0,0.006837231374501068,-0.03825526157850036,-0.016670402024740585,-0.012485695323742187,-0.005139822285785965,0.016340214214653585,0.06676095267454303
687,4.0,298.76417999999995,92.23754699999999,0.0,0.0,0.0,0.0,0.0,0.006847198184084913,-0.030433894890591576,-0.008953422185983972,0.011349406264099188,-0.0028195192761898877,0.015953721109759685,0.06435456677355124
688,4.0,299.05701,170.0453,0.0,0.0,0.0,0.0,0.0,0.0068571649936687296,-0.04143968372777836,-0.008820052330971391,-0.0014297881981841084,0.01113429833411969,0.029318278159488773,0.06079414980366544
689,4.0,300.41724,231.16511,0.0,0.0,0.0,0.0,0.0,0.006867131803252546,-0.04369446410905786,-0.005385047859087845,-0.02118890877243248,-0.012374145606983088,0.006263006576585624,0.10106935990701921
690,4.0,300.63501,296.17967000000004,0.0,0.0,0.0,0.0,0.0,0.006877098612836363,-0.040839469832291864,-0.009652499299027511,-0.03953925413172056,0.002874591648275107,-0.023548614241317274,0.07191435686864443
691,4.0,300.46882,302.97832,0.0,0.0,0.0,0.0,0.0,0.00688706542242018,-0.03674490692643997,-0.016085598650024985,-0.03926733833488456,0.014398040740975986,-0.040284860297306165,0.07304786759651323
692,4.0,300.64234,304.93931000000003,0.0,0.0,0.0,0.0,0.0,0.006897032232003997,-0.03758792999638986,-0.03565942121356087,-0.01944658570872858,0.027283252473147376,-0.02050858225778948,0.05365670160200415
693,4.0,300.57175,482.04995999999994,0.0,0.0,0.0,0.0,0.0,0.006906999041587841,-0.07147618091589983,-0.03215595497879567,-0.042899014144553056,0.02910577022926587,-0.003859394549067587,0.0984921390259173
694,4.0,300.09697,494.23970999999995,0.0,0.0,0.0,0.0,0.0,0.006916965851171658,-0.08100076529315313,-0.04143461747727836,-0.027801146890759576,0.0018080273677634083,0.01929956109271838,0.08479928185103751
695,4.0,299.63894,254.70651,0.0,0.0,0.0,0.0,0.0,0.006926932660755447,-0.06291335022881424,0.005837923233683165,-0.020348992327289178,-0.008500650466873882,0.01051951896844569,0.12779159910454888
696,4.0,299.14408,113.81783,0.0,0.0,0.0,0.0,0.0,0.006936899470339292,-0.02070318707199548,0.02120559092207888,-0.03510018315211837,-0.02066984202445458,-0.000982251678895693,0.08606641392259372
697,4.0,299.01684,182.21327,0.0,0.0,0.0,0.0,0.0,0.0069468662799231085,-0.014362818140999786,-0.014317946360321286,-0.026707519713326973,-0.012979454123972388,-0.006472125590524063,0.0941342192468241
698,4.0,299.34997999999996,288.55749,0.0,0.0,0.0,0.0,0.0,0.006956833089506925,-0.03793879418801747,-0.006309355675909924,-0.04346612110627216,-0.023152395961963577,-0.008411051091006112,0.05759392399257775
699,4.0,300.16535,395.44212999999996,0.0,0.0,0.0,0.0,0.0,0.00696679989909077,-0.08815556844252721,-0.024039202581984578,-0.008009763116102072,-0.022407736171971376,-8.748861176295372e-05,0.0970512416549618
700,4.0,299.26872000000003,160.20367,0.0,0.0,0.0,0.0,0.0,0.006976766708674559,-0.04421480653891166,-0.012750867941162687,0.008267759592339342,-0.005626951795911905,0.017285403292186485,0.050792802883359356
701,4.0,300.36765,216.45695,0.0,0.0,0.0,0.0,0.0,0.006986733518258376,-0.06105917246007114,0.022418217231005778,-0.027156552640893075,0.02289913308621848,-0.005075637350251405,0.11051543158702389
702,4.0,300.08737,458.83397,0.0,0.0,0.0,0.0,0.0,0.00699670032784222,-0.012037925919050788,-0.05304877991300695,-0.07438736396371122,0.01141348217392299,-0.0032369415364112567,0.06998014855400293
703,4.0,301.04291,479.32473,0.0,0.0,0.0,0.0,0.0,0.007006667137426037,-0.03364273332752926,-0.04178329608844026,-0.07027671976552223,0.005709900299448285,-0.03527234954285987,0.08325169228430233
704,4.0,300.77109,189.6667,0.0,0.0,0.0,0.0,0.0,0.0070166339470098815,0.0016521745062819282,-0.018720870655856085,-0.04058524538220186,-0.00982996042816656,-0.024631567842196476,0.04688602359204025
705,4.0,300.73900000000003,-31.066193,0.0,0.0,0.0,0.0,0.0,0.0070266007565936706,-0.040152839888776756,0.01866404049749738,0.03093214644176517,-0.0022902654130315977,-0.013176634619932587,0.08697345312061151
706,4.0,298.49445,139.32449,0.0,0.0,0.0,0.0,0.0,0.007036567566177487,-0.05663312073100384,0.003258976078385897,0.01102297761188319,-0.016148272221710384,0.014232063281845286,0.06647811708137934
707,4.0,299.38648,325.68755,0.0,0.0,0.0,0.0,0.0,0.007046534375761332,-0.06547778997315473,-0.02010746390095218,-0.013415626881269287,-0.0033760075795110068,0.024461622495674178,0.08961480260054241
708,4.0,300.25678999999997,188.88258000000002,0.0,0.0,0.0,0.0,0.0,0.007056501185345149,-0.004736110616642725,-0.0018721137140632381,-0.050807363287296355,-0.03027180324559437,0.03234661115736197,0.07959437618085333
709,4.0,298.96652,54.164823999999996,0.0,0.0,0.0,0.0,0.0,0.0070664679949289655,0.012375954258411589,0.01015864893208059,-0.038999356988186865,-0.0005547171826763234,0.01007419676539581,0.08479888972324882
710,4.0,298.83079,231.90065,0.0,0.0,0.0,0.0,0.0,0.007076434804512782,-0.03430722375635937,-0.028479572548214975,-0.0077052113441451525,0.021511058469476183,0.0036194281490847468,0.07221593657540802
711,4.0,300.31118,616.01226,0.0,0.0,0.0,0.0,0.0,0.007086401614096599,-0.10743127053514091,-0.01948425024144578,-0.06033682038428054,0.02138253782679218,-0.015975837319692383,0.08843153521326301
712,4.0,301.04002,581.8615,0.0,0.0,0.0,0.0,0.0,0.007096368423680416,-0.11343841494549989,-0.027992660278910474,-0.03544028662768396,0.0016086580489371885,-0.0042712461628891755,0.08414017178023843
713,4.0,301.34064,334.01392000000004,0.0,0.0,0.0,0.0,0.0,0.00710633523326426,-0.04652368231652996,-0.014947990338751787,-0.040060217683885666,-0.003502992844318476,0.005129339605551404,0.08502834020839382
714,4.0,300.58551,251.35086,0.0,0.0,0.0,0.0,0.0,0.007116302042848077,-0.026922942764087573,0.023074820521057478,-0.07255626397924572,-0.02370686060218498,0.020166793747307583,0.10758186989750389
715,4.0,299.00906000000003,208.69218999999998,0.0,0.0,0.0,0.0,0.0,0.007126268852431866,-0.012389322066980887,-0.007740865487338942,-0.04330702665507076,-0.008069325908655462,-0.004471637243116236,0.06867619092081234
716,4.0,299.05455,130.8741,0.0,0.0,0.0,0.0,0.0,0.007136235662015711,-0.03085632898978257,0.004941342600547545,-0.013867472591112987,-0.014663393716914287,-0.007247365876484322,0.06645794935138893
717,4.0,300.37152000000003,-6.1397139,0.0,0.0,0.0,0.0,0.0,0.007146202471599528,-0.039787824646252565,0.03194224432070407,0.009711899971564901,0.0008186117168181863,-0.012871063721025089,0.07769942218833593
718,4.0,299.47323,-57.730936,0.0,0.0,0.0,0.0,0.0,0.007156169281183344,-0.027905406273049174,0.004914020615576075,0.04054014866000116,0.013919437122491485,-0.0019279211990960083,0.06824618075062364
719,4.0,299.24646,134.12001,0.0,0.0,0.0,0.0,0.0,0.007166136090767189,-0.019985189945134683,-0.01145425130494659,-0.00932969159736887,0.027940941967306274,-0.006075303819410805,0.06439644034718384
720,4.0,299.24678,383.43271,0.0,0.0,0.0,0.0,0.0,0.007176102900350978,-0.014598514299761186,-0.04783842599703505,-0.05411702821518486,-0.01044376535121939,0.01027889740094819,0.05655114474491345
721,4.0,300.612,564.6253,0.0,0.0,0.0,0.0,0.0,0.007186069709934795,-0.04125835552963267,-0.05384997601882885,-0.07652365994454723,-0.03540572466677297,0.024964297896784376,0.08541831788038161
722,4.0,299.99029,374.287,0.0,0.0,0.0,0.0,0.0,0.007196036519518639,-0.05274895616866665,-0.004396880562663326,-0.056628066639505044,-0.011656811145687689,0.037429899457793465,0.06321906500923594
723,4.0,300.03946,73.14175300000001,0.0,0.0,0.0,0.0,0.0,0.007206003329102456,-0.04828765853487085,0.013316395245975885,0.012737997638392489,-0.009112942404877393,-0.0009410845634978149,0.08159924450446843
724,4.0,300.57332,-74.47726999999999,0.0,0.0,0.0,0.0,0.0,0.007215970138686301,-0.051174251016005354,0.04533436683940366,0.028479114559169773,0.017400407178536484,-0.02181811580628038,0.05976920679751145
725,4.0,299.98032,-21.891828,0.0,0.0,0.0,0.0,0.0,0.00722593694827009,-0.027764389216881874,0.04490549150932696,-0.010486533624690292,-0.0010582253335137091,-0.015081057434634485,0.10505187559031291
726,4.0,300.01446,81.19579300000001,0.0,0.0,0.0,0.0,0.0,0.0072359037578539065,-0.017130416556890484,0.008489582837356591,-0.016040659994839883,0.014942194548179787,0.008563484942675162,0.07100685866833133
727,4.0,300.37172999999996,292.06089,0.0,0.0,0.0,0.0,0.0,0.007245870567437751,-0.056066116107544854,0.007914663920016513,-0.04062776439614817,-0.0026486581542272073,-0.029625999175108473,0.1029198453923979
728,4.0,299.33144,288.85055,0.0,0.0,0.0,0.0,0.0,0.007255837377021568,-0.04836906406115495,-0.01931199164494518,-0.02012229889566628,0.01041988203311229,-0.018508764985922882,0.06817886244047984
729,4.0,299.33761,507.95077000000003,0.0,0.0,0.0,0.0,0.0,0.007265804186605385,-0.1038477089064709,-0.03036413464770677,-0.02019250294209488,0.001966247080153478,-0.010077223444769521,0.0949712317171808
730,4.0,299.71889,694.08915,0.0,0.0,0.0,0.0,0.0,0.007275770996189201,-0.11990209945341589,-0.014106253083178788,-0.07697741360432923,0.025769432505744976,-0.009116615841789931,0.09273497557422951
731,4.0,298.98546,486.46124000000003,0.0,0.0,0.0,0.0,0.0,0.007285737805773018,-0.08163486429848382,-0.040558274691040064,-0.025678931033313177,0.0016485120124704684,-0.008193795374789642,0.07823494107818751
732,4.0,299.88381,69.384641,0.0,0.0,0.0,0.0,0.0,0.007295704615356835,0.007596343801725763,0.0027391592213589673,-0.03142670165657397,-0.02093920240453838,0.007438127129085994,0.094987759852812
733,4.0,299.1718,-167.44656,0.0,0.0,0.0,0.0,0.0,0.0073056714249406796,-0.0003184506755661347,0.037840735896339864,0.013377288537235587,-0.00988590196618756,0.02926385750986787,0.0951634209431484
734,4.0,298.56747,113.54788,0.0,0.0,0.0,0.0,0.0,0.007315638234524496,-0.02092962516459318,-0.006673866826509374,-0.006912229150258903,-0.01307378872153249,0.027566361643838074,0.08830169126594842
735,4.0,300.78824,408.84971,0.0,0.0,0.0,0.0,0.0,0.007325605044108285,-0.08095447192258433,-0.014261614721011787,-0.029064016219145075,-0.013208737422850886,0.0004426565649518016,0.06272515422149073
736,4.0,299.99432,310.31181000000004,0.0,0.0,0.0,0.0,0.0,0.00733557185369213,-0.04080255105164826,-0.04881242988091175,-0.004712062240094336,-0.018567681426237482,-0.047137466670605754,0.06044335248654444
737,4.0,300.08452,225.50023,0.0,0.0,0.0,0.0,0.0,0.007345538663275947,-0.03182381159601567,-0.02627703331559127,-0.01044559426764989,0.023568438479523775,-0.007468206167579562,0.04674270949789625
738,4.0,300.32886,209.25323,0.0,0.0,0.0,0.0,0.0,0.007355505472859791,-0.025298747436791977,0.006021104362286734,-0.044330114400291665,0.016139419455586685,-0.010806443025762889,0.07669750022445392
739,4.0,300.03432000000004,405.64546,0.0,0.0,0.0,0.0,0.0,0.007365472282443608,-0.05466590579435485,-0.043347561725321254,-0.02529262436643768,0.008347418579426072,0.0014426487737533487,0.07201676808275163
740,4.0,300.20309,437.11707,0.0,0.0,0.0,0.0,0.0,0.007375439092027397,-0.06448219068989673,-0.01014861876934069,-0.05824186703402474,-0.014013979436322087,-0.008447403464843812,0.10493613203138989
741,4.0,299.87144,28.501368,0.0,0.0,0.0,0.0,0.0,0.007385405901611214,-0.032678198265837066,0.029967184801780872,-0.005952690728784834,0.0070423503228008635,0.017288261670718584,0.1024072624318099
742,4.0,298.91111,-95.221967,0.0,0.0,0.0,0.0,0.0,0.0073953727111950585,-0.015472332066750284,0.05014809514948165,-0.005730663415197444,0.025983181667340375,0.0011309329182893888,0.11754731635351688
743,4.0,299.4242,363.05921,0.0,0.0,0.0,0.0,0.0,0.007405339520778875,-0.07041897602656184,0.024672365344222874,-0.06461432458243735,0.00961261220221596,-0.03150579494612987,0.09176260707601422
744,4.0,298.77776,570.34233,0.0,0.0,0.0,0.0,0.0,0.00741530633036272,-0.07314360655871194,-0.02188355960373918,-0.07834266172281873,-0.01193060246845879,-0.03814141786351486,0.09512975368207571
745,4.0,298.37676,322.38967,0.0,0.0,0.0,0.0,0.0,0.007425273139946509,-0.07318960507350164,0.00977308132982803,-0.034581886474216464,-0.02036848624596308,0.002765631900096617,0.09970586268470251
746,4.0,299.66656,227.99324,0.0,0.0,0.0,0.0,0.0,0.007435239949530326,-0.06558556026704083,0.023163509289060375,-0.026882199977566575,-0.013449566706618886,0.033285976073320074,0.09443140854090441
747,4.0,300.51805,200.83604,0.0,0.0,0.0,0.0,0.0,0.00744520675911417,-0.060238815794858236,0.001150427748888379,-0.001960752224861178,-0.0008476336010849231,0.03110578711140217,0.06074667700998024
748,4.0,300.56934,246.42915,0.0,0.0,0.0,0.0,0.0,0.007455173568697987,-0.036671755335470464,0.009904753382973051,-0.048141306716927054,-0.007888836478942543,0.0005792445529444864,0.1024882008497979
749,4.0,299.77662999999995,26.062673999999998,0.0,0.0,0.0,0.0,0.0,0.007465140378281804,0.003210387797665607,-0.003659295183544317,-0.007473494725151502,-0.011848341759090289,0.014665873139908987,0.06823493570101384
750,4.0,299.67717999999996,-22.824988,0.0,0.0,0.0,0.0,0.0,0.0074751071878656206,0.006328730031072025,0.016036575583686787,-0.015427078290784086,0.00023376004047031976,-0.013549215800953487,0.09117955054447101
751,4.0,300.27349,122.12615,0.0,0.0,0.0,0.0,0.0,0.007485073997449437,-0.027017088897129077,0.02187635944852858,-0.031982571674684074,0.007056623976959563,-0.013886264327467587,0.08227691731709952
752,4.0,299.85064,274.68264,0.0,0.0,0.0,0.0,0.0,0.007495040807033254,-0.04992350319856616,-0.00025869868895407274,-0.03331446258663147,0.010998434667960988,-0.02205777174643258,0.07033924033644254
753,4.0,299.56479,391.12389,0.0,0.0,0.0,0.0,0.0,0.007505007616617099,-0.06342160154522473,-0.011489062525382189,-0.043981231112609556,0.017077041581372784,0.012257178041939288,0.08156635339297233
754,4.0,299.60769,274.75358,0.0,0.0,0.0,0.0,0.0,0.0075149744262009155,-0.03102592983127087,-0.005832273756425604,-0.04666002423673586,0.003998526250773816,0.007919852165828554,0.08402836875095432
755,4.0,299.42661,212.58865,0.0,0.0,0.0,0.0,0.0,0.0075249412357847045,-0.025540236346375075,-0.009773563231575591,-0.02930784269670887,-0.016441494641649183,0.0024241087598159076,0.07103112904797663
756,4.0,299.72119,101.17761,0.0,0.0,0.0,0.0,0.0,0.007534908045368549,-0.02147960313337178,0.00963647191159573,-0.01891233540800218,0.004519827113897206,-0.006170977224328035,0.06137632176787135
757,4.0,299.28251,83.322333,0.0,0.0,0.0,0.0,0.0,0.007544874854952366,-0.043333558608939254,0.008033931360137293,0.00997171837280698,-0.024494265360895776,0.02029690823239888,0.07285765420824063
758,4.0,298.8188,63.17634,0.0,0.0,0.0,0.0,0.0,0.00755484166453621,-0.03846919413836386,0.04404166033532346,-0.024776495030499678,-0.012972044225991089,0.02955684688228367,0.08551864686553333
759,4.0,299.85082,49.463892,0.0,0.0,0.0,0.0,0.0,0.007564808474120027,-0.06151917483321985,0.03544863986150837,0.01103474752504479,-0.017124272208284084,-0.006510567083417944,0.09415649757677282
760,4.0,300.01128,189.90831,0.0,0.0,0.0,0.0,0.0,0.007574775283703816,-0.01739261427201738,0.0002916350420671377,-0.04062640562776406,0.036047069423568764,-0.003677197894261176,0.10711424484385289
761,4.0,299.60175,413.69012000000004,0.0,0.0,0.0,0.0,0.0,0.007584742093287633,-0.07496321730029352,0.004131421702089576,-0.054919672255399656,0.024426166848174977,0.0027535299448772474,0.12355269770870189
762,4.0,299.16361,561.07433,0.0,0.0,0.0,0.0,0.0,0.007594708902871478,-0.06952256987509343,-0.025747605072090774,-0.07528241134679553,0.03081928456612657,-0.01995416625357288,0.09581081784279151
763,4.0,300.17589,611.0268599999999,0.0,0.0,0.0,0.0,0.0,0.007604675712455294,-0.10888616595622791,-0.020504256693112583,-0.056346489502965544,-0.010253770824968391,-0.022617558989429278,0.06759161814627335
764,4.0,299.96372,486.87240999999995,0.0,0.0,0.0,0.0,0.0,0.007614642522039139,-0.1104019171783209,-0.014381485247592087,-0.023213648957008778,0.007188239592074013,0.0003804586533933456,0.08599037963508972
765,4.0,300.0333,103.37975,0.0,0.0,0.0,0.0,0.0,0.007624609331622928,-0.029728146944189675,-0.017703894835238383,0.016007180185035684,0.012457267578936589,0.019420938322197382,0.056519179744008746
766,4.0,300.53795,-67.194828,0.0,0.0,0.0,0.0,0.0,0.007634576141206745,0.017463469838260283,0.03021048033629227,-0.02724840072270777,-0.02024081875986328,0.015238513460424184,0.10724772027952591
767,4.0,300.99529,11.368589,0.0,0.0,0.0,0.0,0.0,0.007644542950790589,-0.003524773871118096,-0.016168015399908885,0.016237021784719283,-0.019045432901387882,-0.011963367936942488,0.056251105178301855
768,4.0,299.29035,126.41058999999998,0.0,0.0,0.0,0.0,0.0,0.007654509760374406,-0.04026941228628156,-0.010365656940760689,0.012209406339474588,-0.02143431186715188,-0.02362075562193708,0.08850340605610611
769,4.0,301.14299,204.99338999999998,0.0,0.0,0.0,0.0,0.0,0.007664476569958223,-0.05913903818931865,-0.006299224593460064,0.0031253900971269866,-0.003484157740859596,0.01949285678779518,0.046483490738063356
770,4.0,299.29969,291.69336,0.0,0.0,0.0,0.0,0.0,0.00767444337954204,-0.06332585143727494,-0.02363102085870018,-0.0017106259661256386,-0.0010541773993642091,0.01707766878318468,0.08411589228134221
771,4.0,300.18897000000004,629.22649,0.0,0.0,0.0,0.0,0.0,0.0076844101891258565,-0.06237719603114994,-0.054331171531069145,-0.07456077361232542,-0.018420735843735086,0.006415645611399925,0.06276386848131153
772,4.0,300.22205,657.8552599999999,0.0,0.0,0.0,0.0,0.0,0.007694376998709673,-0.05931298486048585,-0.039195769440571265,-0.1014628221461009,0.0005250478214631855,0.014605993098749288,0.1083729953105819
773,4.0,300.25498,309.71035,0.0,0.0,0.0,0.0,0.0,0.007704343808293518,-0.04385793478744116,-0.015887493056723483,-0.03439878407514567,0.02140081483209598,0.011149757490895388,0.1059787157217849
774,4.0,298.68075,93.69197,0.0,0.0,0.0,0.0,0.0,0.007714310617877335,-0.029252804977777075,0.04035147135888016,-0.039578685772612164,0.005956158779902104,-0.017625775279028585,0.12128291615969189
775,4.0,300.27558999999997,196.8712,0.0,0.0,0.0,0.0,0.0,0.007724277427461124,-0.07847301634818372,-0.01143626814217179,0.03006535657746967,-0.015515161135227183,-0.04180342024867636,0.08607413387510561
776,4.0,298.71712,258.61749,0.0,0.0,0.0,0.0,0.0,0.007734244237044968,-0.05782201570933864,0.01164634021915429,-0.032437582777840174,-0.0057853237997920045,-0.03971802387336376,0.09331377645535271
777,4.0,299.89949,302.19246,0.0,0.0,0.0,0.0,0.0,0.007744211046628785,-0.05799358934877164,-0.0019870780836593383,-0.03187829506714277,0.02296833300179798,0.02048839831579748,0.086761719313465
778,4.0,300.07951,143.09565,0.0,0.0,0.0,0.0,0.0,0.007754177856212602,0.009126283260994033,-0.019403987661274484,-0.033219800709289066,0.017530305841356484,0.01853938945694528,0.1005644391436874
779,4.0,300.85355,88.187546,0.0,0.0,0.0,0.0,0.0,0.007764144665796419,-0.03444545133500136,0.037888010093005464,-0.03024937090163047,-0.0099315351029912,-0.004959462653410855,0.09238117701031232
780,4.0,300.81322,477.06052999999997,0.0,0.0,0.0,0.0,0.0,0.007774111475380235,-0.061960880949312847,-0.040559480458659064,-0.04249412649734376,-0.03108191696554637,-0.002225477695012548,0.08118797439487922
781,4.0,301.51726,493.26378,0.0,0.0,0.0,0.0,0.0,0.00778407828496408,-0.09515669093598422,-0.00892009618754495,-0.04586308580783416,-0.013317234217058688,0.029851430097106772,0.09053180306029332
782,4.0,300.93467000000004,105.74389,0.0,0.0,0.0,0.0,0.0,0.007794045094547897,-0.01913600732782688,0.01784389560155538,-0.030851390408795174,0.001935389257633048,-0.01027639264670099,0.08418876117553382
783,4.0,300.4314,54.429781999999996,0.0,0.0,0.0,0.0,0.0,0.0078040119041317135,0.0028548250639992973,-0.02056879667148218,0.001168676788489419,0.00981181980632622,-0.024524756082904976,0.06796482855560634
784,4.0,299.69349,270.57532000000003,0.0,0.0,0.0,0.0,0.0,0.00781397871371553,-0.03096809250231277,0.018833457940717585,-0.07011350645266434,0.0017422355188952583,-0.02025934097169128,0.1071230195897189
785,4.0,300.50521000000003,472.25153,0.0,0.0,0.0,0.0,0.0,0.007823945523299347,-0.07565850343941292,-0.034944938038046866,-0.03294923354833617,0.005078825946991094,0.01903131123474418,0.1028858812490459
786,4.0,298.93489,167.72845,0.0,0.0,0.0,0.0,0.0,0.007833912332883164,-0.03618874813205137,-0.0013184008040910287,-0.013478111988436087,0.005083782259855245,0.024604075327233178,0.1087545346357369
787,4.0,299.66175,246.9925,0.0,0.0,0.0,0.0,0.0,0.00784387914246698,-0.06146758115137794,-0.017764239958193984,0.004152270133497156,-0.01217595895367359,-0.0067781940965556745,0.0860802944357136
788,4.0,299.90517,450.32327000000004,0.0,0.0,0.0,0.0,0.0,0.007853845952050797,-0.05527456411617474,-0.034397126397982064,-0.04721534102029136,-0.017401016141846585,-0.01932331471481268,0.07238327482942303
789,4.0,300.07198,558.3578,0.0,0.0,0.0,0.0,0.0,0.007863812761634642,-0.08638370001915742,-0.02019494284833568,-0.06314818411174054,0.0017300468294673282,-0.0061131947122003445,0.10362311188930491
790,4.0,299.23642,312.02529,0.0,0.0,0.0,0.0,0.0,0.007873779571218459,-0.02874606948351617,-0.016003996553221485,-0.050097830851770955,-0.005950703947988754,-0.02271608438940298,0.1010536241329662
791,4.0,300.47775,86.683296,0.0,0.0,0.0,0.0,0.0,0.007883746380802248,-0.03950006871060326,0.012644325706397789,0.0005061851981315895,-0.017730968877910383,-0.015694962365472187,0.11518353559272991
792,4.0,299.67245,27.238443,0.0,0.0,0.0,0.0,0.0,0.007893713190386092,-0.02370113776562018,0.04097600832301716,-0.025554677186800275,-0.0037172684906658367,0.004567972502998785,0.0924667074777535
793,4.0,301.27484,269.45293,0.0,0.0,0.0,0.0,0.0,0.00790367999996991,-0.06433675890304374,0.0016191092170936387,-0.01918931137583758,0.01079284115642049,0.029513639871519472,0.1081952915080439
794,4.0,300.328,367.90702000000005,0.0,0.0,0.0,0.0,0.0,0.007913646809553754,-0.030238639569821372,-0.042907060363597156,-0.03868884649504186,-0.0041676869364186755,0.009699364142652711,0.08297245778199402
795,4.0,300.08827,300.43003999999996,0.0,0.0,0.0,0.0,0.0,0.007923613619137543,-0.042925882497454756,-0.02038853947869218,-0.028008808445754176,0.005442258188884064,-0.026105821406443977,0.0999282741214028
796,4.0,299.64585,262.86599,0.0,0.0,0.0,0.0,0.0,0.00793358042872136,-0.02044114742388418,-0.04469887360193536,-0.014764677183660185,0.02053931312007238,-0.02111012756390738,0.07014163427544033
797,4.0,300.15569,198.04976000000002,0.0,0.0,0.0,0.0,0.0,0.007943547238305204,-0.06513779086234944,0.019469755698765284,-0.014534147587158685,-0.004798469472847066,0.008093823053673142,0.11957372536100788
798,4.0,299.53872,187.9932,0.0,0.0,0.0,0.0,0.0,0.007953514047889021,-0.03833693966906136,0.0005478397678875754,-0.01935613895180218,-0.003571242027329147,0.01058720103537539,0.1004561429729994
799,4.0,299.25871,352.26357,0.0,0.0,0.0,0.0,0.0,0.007963480857472838,-0.06389428778312524,-0.023846081165924977,-0.01933896132285688,-0.03342466974700807,0.0008941272202709861,0.08302246876717972
800,4.0,298.99086,239.03126,0.0,0.0,0.0,0.0,0.0,0.007973447667056655,-0.028938201967478174,-0.0055750227282869045,-0.038146310848247766,0.012149050070767888,0.0028513922739855074,0.07973400508438362
801,4.0,299.59915,72.821506,0.0,0.0,0.0,0.0,0.0,0.007983414476640471,-0.03021949927543237,0.009426330832281423,-0.0013427512304942288,0.02083394395765018,-0.007675895992251953,0.08120148101871222
802,4.0,300.36602,214.3701,0.0,0.0,0.0,0.0,0.0,0.007993381286224288,-0.04531575850131716,0.023047107117572376,-0.042894505181608054,0.014698178592847286,-0.014538565357594685,0.1019369218678909
803,4.0,300.61531,357.62584,0.0,0.0,0.0,0.0,0.0,0.008003348095808133,-0.06442483262823595,-0.012896487179284188,-0.03138800664850507,-0.0065888684166956835,-0.03127142006549887,0.0942347073122415
804,4.0,299.47897,244.93354,0.0,0.0,0.0,0.0,0.0,0.00801331490539195,-0.03543440065785307,-0.030926075047165973,-0.008093204667137113,0.005068489174770935,0.006069311660969425,0.08794465638121182
805,4.0,300.36221,230.88125,0.0,0.0,0.0,0.0,0.0,0.008023281714975738,-0.05492795253521686,-0.0002714008935326827,-0.014982782307435485,0.011457247485492289,0.03262362056245067,0.09202501960016232
806,4.0,299.91219,222.04323,0.0,0.0,0.0,0.0,0.0,0.008033248524559583,-0.02047217111544598,-0.03114421360819457,-0.015879211763656184,-0.005069022346973555,0.00023651244317446075,0.07889319495265212
807,4.0,299.63605,159.67627,0.0,0.0,0.0,0.0,0.0,0.0080432153341434,-0.04283716941144946,0.0020612768686071883,-0.007761706623345804,-0.014640225753377787,-0.020135945348013082,0.08700992708446123
808,4.0,299.63974,279.79017999999996,0.0,0.0,0.0,0.0,0.0,0.008053182143727217,-0.03085192033859747,-0.02380198148182268,-0.030395328565285373,-0.016341568930037284,-0.026085905975728477,0.06984139611180913
809,4.0,298.57117999999997,189.25724,0.0,0.0,0.0,0.0,0.0,0.008063148953311061,-0.06918519812179744,0.006648378722893894,0.005007343786886356,0.024130053625700875,0.004041999239689266,0.11712670610450587
810,4.0,298.03091,217.79517,0.0,0.0,0.0,0.0,0.0,0.00807311576289485,-0.04100361634849186,0.008417479453615543,-0.03361815694635376,0.002120939770270458,0.015047680976340487,0.08870110736261771
811,4.0,299.05056,391.17622,0.0,0.0,0.0,0.0,0.0,0.008083082572478667,-0.06336534691292284,-0.020280558428785282,-0.03526189584157817,-0.007721558006683442,0.008279079926431572,0.10038035794502001
812,4.0,299.30419,374.93901,0.0,0.0,0.0,0.0,0.0,0.008093049382062512,-0.024618378365644775,-0.04626809403180536,-0.04308562238896987,-0.03821314887784417,0.014649916477334185,0.055878434831272146
813,4.0,299.60958999999997,259.61522,0.0,0.0,0.0,0.0,0.0,0.008103016191646328,-0.06351695040613495,0.003804584710083277,-0.01920417879455488,-0.018625439721687783,-0.005258792843627445,0.1039227400763759
814,4.0,299.81147000000004,49.822972,0.0,0.0,0.0,0.0,0.0,0.008112983001230173,-0.01135388381629109,0.01108975991272409,-0.014880814896872086,-0.01085278097933609,-0.03468597360398907,0.06422216031673374
815,4.0,300.26265,0.27506248,0.0,0.0,0.0,0.0,0.0,0.008122949810813962,-0.03503356094479326,0.025230399664546575,0.00971954859126976,0.011717569674684089,-0.025893043951694478,0.09800820976490722
816,4.0,300.65226,155.62488000000002,0.0,0.0,0.0,0.0,0.0,0.008132916620397779,-0.029592949996596767,-0.008103341423787533,-0.0096097876662372,0.0012608032101065888,-0.0035567075625947066,0.07275022841938852
817,4.0,299.56773,212.34526,0.0,0.0,0.0,0.0,0.0,0.008142883429981623,-0.05621581469056895,0.008831636008764611,-0.017163478907653486,0.009469185535985851,0.004466927757976446,0.0959821979514554
818,4.0,300.06731,177.6263,0.0,0.0,0.0,0.0,0.0,0.00815285023956544,-0.03228469549675137,-0.0037886240958330867,-0.017920639164129382,-0.008381363369701163,0.025790788778102678,0.08019880418350572
819,4.0,299.54451,305.40412000000003,0.0,0.0,0.0,0.0,0.0,0.008162817049149257,-0.04107980667651126,-0.011155396227701888,-0.04060002160841016,0.01057368022604099,0.020373907133998084,0.11872972855771188
820,4.0,298.36562000000004,411.05079,0.0,0.0,0.0,0.0,0.0,0.008172783858733074,-0.05373387275612035,-0.026617156042908773,-0.044598147422744455,-0.008820435947459251,0.024797301108053078,0.08051445185465772
821,4.0,298.84855,583.21475,0.0,0.0,0.0,0.0,0.0,0.00818275066831689,-0.10565355363219389,-0.00953902369780334,-0.06209014126456985,-0.003918792891129746,0.023709733166218477,0.13785403386013387
822,4.0,299.25072,395.18506,0.0,0.0,0.0,0.0,0.0,0.008192717477900707,-0.07751277848016563,-0.004472663766792545,-0.038140947715468464,-0.03282667081624017,-0.007628087306158602,0.09478255644256
823,4.0,300.11027,216.90112000000002,0.0,0.0,0.0,0.0,0.0,0.008202684287484552,-0.047865473695204455,-0.0001937376950354218,-0.01787331227845858,-0.010096427371264802,-0.01943198072178718,0.09235372401210291
824,4.0,301.39867999999996,112.81381999999999,0.0,0.0,0.0,0.0,0.0,0.008212651097068369,-0.0014432711119647685,-0.009034502155010941,-0.023814810241338774,-0.012537830081137487,-0.0002583942174315237,0.044973448167033754
825,4.0,300.70581,103.81936999999999,0.0,0.0,0.0,0.0,0.0,0.008222617906652158,-0.008542275084956913,0.007016161759391253,-0.03003238339271547,-0.005604508812821954,0.005829196819846933,0.11775034127605388
826,4.0,299.65317000000005,206.1423,0.0,0.0,0.0,0.0,0.0,0.008232584716236002,-0.016243761924384485,-0.00970214054925172,-0.036716210670357866,-0.0076592665316107525,0.009092602219719971,0.05941707199025844
827,4.0,300.14131000000003,166.88533999999999,0.0,0.0,0.0,0.0,0.0,0.008242551525819819,-0.05021240714657875,-0.005866770261380145,0.0053502015801987855,0.020977802167097877,-0.005741837132000204,0.11278676340868689
828,4.0,300.33229,126.57507,0.0,0.0,0.0,0.0,0.0,0.008252518335403636,-0.023089236030230182,-0.013561013071867788,-0.0018254095719038982,0.020823827668651783,0.020364314695301377,0.04848202219555305
829,4.0,299.39353,154.50285,0.0,0.0,0.0,0.0,0.0,0.00826248514498748,-0.05481699759626645,0.02259455010615848,-0.014742560973727486,-0.00027296056914661074,0.014522546886763786,0.1240809657808379
830,4.0,299.0635,339.72836,0.0,0.0,0.0,0.0,0.0,0.00827245195457127,-0.03910104271522246,-0.02000176874327088,-0.044166126964357365,-0.017385211466786784,0.003020458220746017,0.08228215683336662
831,4.0,299.35594,396.24676,0.0,0.0,0.0,0.0,0.0,0.008282418764155086,-0.056904125615999945,0.0039117119954559165,-0.06745670794845873,-0.02367815624010208,-0.012765441517350987,0.1288588756998809
832,4.0,299.12813,209.87012000000001,0.0,0.0,0.0,0.0,0.0,0.00829238557373893,-0.03789853066879376,0.02006079258809608,-0.04595753692915575,-0.001980066088992308,0.019433189529156483,0.09667638471421632
833,4.0,298.36987,244.83774,0.0,0.0,0.0,0.0,0.0,0.008302352383322747,-0.07584938759925172,0.014172460871212985,-0.012747632633593388,-0.001918343553850768,0.0026418143590767776,0.11594978571585289
834,4.0,298.67676,285.3667,0.0,0.0,0.0,0.0,0.0,0.008312319192906592,-0.07387292675544023,0.03279532795089687,-0.04566675340220766,-0.008806348629993941,-0.004691069420547506,0.1098175859781519
835,4.0,299.08495,342.83816,0.0,0.0,0.0,0.0,0.0,0.008322286002490381,-0.08827718479902982,0.0022721689688956176,-0.01820922495161058,-0.005807395528045314,-0.02286094470319958,0.07860965008441843
836,4.0,299.49698,384.2707,0.0,0.0,0.0,0.0,0.0,0.008332252812074198,-0.05423676701925215,-0.03126676012828897,-0.031305170413079765,0.030465231676434272,0.005037387969576485,0.08551602660077473
837,4.0,299.47875,235.29722999999998,0.0,0.0,0.0,0.0,0.0,0.008342219621658042,-0.03820921037470546,0.0018002609070719184,-0.035115532877883264,0.017357915522342882,-0.0020749871557102883,0.1033567588355179
838,4.0,300.92175,159.5923,0.0,0.0,0.0,0.0,0.0,0.00835218643124186,-0.01269597916999559,-0.0038299590257125267,-0.03198613628853587,0.017928818118936585,-0.008452968133068003,0.11718294148505588
839,4.0,300.51228,263.77187000000004,0.0,0.0,0.0,0.0,0.0,0.008362153240825676,-0.07407509244189243,0.006863728616997273,-0.012968699487410989,-0.004931651876591146,-0.016364420759542586,0.1069324171134079
840,4.0,300.40577,294.15484,0.0,0.0,0.0,0.0,0.0,0.008372120050409493,-0.04600667449275526,-0.01041238499562239,-0.03299666581201737,0.022826125376763182,0.005050697718915055,0.0966276656229081
841,4.0,299.82527999999996,145.52834,0.0,0.0,0.0,0.0,0.0,0.00838208685999331,-0.07583016117860422,0.016123917742306787,0.015469262932197385,0.013678546030467385,-0.004289589232099496,0.09006823404679261
842,4.0,298.35171,80.89349200000001,0.0,0.0,0.0,0.0,0.0,0.008392053669577126,-0.02108265024769558,0.02570998208262768,-0.02921693389773687,-0.011740545120701591,-0.0009620024937297541,0.06356542226441873
843,4.0,298.93196,226.75263999999999,0.0,0.0,0.0,0.0,0.0,0.008402020479160971,-0.040525749362830064,-0.017522745982360383,-0.01087864418813859,-0.03158719135316307,-0.006263598111994004,0.04880144118357725
844,4.0,300.09214,257.20615,0.0,0.0,0.0,0.0,0.0,0.008411987288744788,-0.007775662420948132,-0.014504399577472786,-0.05590418455606345,-0.02655825176159537,0.030022017844192467,0.05460254422585154
845,4.0,298.82923,157.66257,0.0,0.0,0.0,0.0,0.0,0.008421954098328577,-0.06457935022873564,0.014587689748942886,0.002066176338140728,0.017841128415532283,0.030378891622163173,0.1102018914760799
846,4.0,300.18048999999996,268.11681,0.0,0.0,0.0,0.0,0.0,0.008431920907912421,-0.031687782770090676,-0.02505849773208118,-0.024754534861082374,0.006378977407506054,-0.011781283854222188,0.08210675108205542
847,4.0,300.80269,216.34005,0.0,0.0,0.0,0.0,0.0,0.008441887717496238,-0.08985004583650912,0.030423454361561172,-0.006335381004728424,0.02021671759298468,-0.01296638522418259,0.11530961430267289
848,4.0,300.31087,267.10314,0.0,0.0,0.0,0.0,0.0,0.008451854527080055,-0.03315779486941957,-0.006470596089498113,-0.04156429423832646,-0.004911550615807305,-0.029557179228316473,0.1060702527358189
849,4.0,299.93386,444.62847999999997,0.0,0.0,0.0,0.0,0.0,0.0084618213366639,-0.05482799845260215,-0.021690128133148977,-0.058637829974353246,0.026861484079272076,-0.028645834730623772,0.1196511275361469
850,4.0,299.07606,271.15833,0.0,0.0,0.0,0.0,0.0,0.008471788146247689,-0.03030363551073597,0.01081408090501669,-0.06293580587753045,0.002163748067120308,-0.011729331481844888,0.12707726791654989
851,4.0,298.51412999999997,217.02369,0.0,0.0,0.0,0.0,0.0,0.008481754955831505,-0.05753794597755314,-0.003093749133604267,-0.005338087060678175,-0.0072496227897570625,0.009528162366006412,0.08129024882022293
852,4.0,299.4588,351.44565,0.0,0.0,0.0,0.0,0.0,0.00849172176541535,-0.07975621350007543,0.010002554815750301,-0.03707704321646926,-0.01845825345518778,0.03611330963560617,0.10354605421919989
853,4.0,298.3438,220.85904,0.0,0.0,0.0,0.0,0.0,0.008501688574999167,-0.1028479147677989,0.024897618947453678,0.010814664537074291,-0.013557229595994388,0.040633259251440464,0.09130683806178332
854,4.0,300.41908,170.70302,0.0,0.0,0.0,0.0,0.0,0.008511655384583011,-0.03402886166238717,-0.0025148240280188075,-0.015345769023259487,-0.004556092753526345,-0.002356238025717588,0.08749966024204411
855,4.0,300.33155,103.18777,0.0,0.0,0.0,0.0,0.0,0.0085216221941668,-0.028819454122008675,0.03206307034212867,-0.03461012271475317,-0.011674239047407688,-0.023927884899498375,0.07901863632828222
856,4.0,300.42112000000003,57.148053000000004,0.0,0.0,0.0,0.0,0.0,0.008531589003750617,-0.0045532536267461465,0.007462180267909852,-0.020280507766280282,0.01139658926825579,-0.002236538941054208,0.08682432195764342
857,4.0,300.28187,247.62368999999998,0.0,0.0,0.0,0.0,0.0,0.008541555813334462,-0.04731869962324205,0.0089214767408062,-0.03687419459944967,0.004539802630343636,0.022025701367517476,0.11481116618097989
858,4.0,300.87318999999997,169.67935,0.0,0.0,0.0,0.0,0.0,0.008551522622918278,-0.01901432207031748,0.004195670269730416,-0.036759634516643463,0.006300585185694344,0.006207860135918094,0.08886272075356771
859,4.0,299.11532,64.44109399999999,0.0,0.0,0.0,0.0,0.0,0.008561489432502095,-0.03606336552492707,-0.014929817698208286,0.031404699943902575,-0.027015939871515675,0.003909761590338426,0.09775982163539321
860,4.0,299.97406,202.26903000000001,0.0,0.0,0.0,0.0,0.0,0.008571456242085912,-0.014876022223899086,0.01080442564481379,-0.057413138896485645,-0.02359206139235518,-0.017530280510103982,0.07182951743777143
861,4.0,298.59375,356.05334,0.0,0.0,0.0,0.0,0.0,0.008581423051669729,-0.05211669317251715,-0.016822064286458483,-0.039292568262374566,-0.011789807314063388,-0.004970117484837405,0.1070991474173629
862,4.0,300.3626,306.41832,0.0,0.0,0.0,0.0,0.0,0.008591389861253546,-0.03596236171520876,-0.008429269226479102,-0.04875188616093655,0.01684575103404618,-0.02488306259651708,0.07200416325150763
863,4.0,300.59673,195.43698999999998,0.0,0.0,0.0,0.0,0.0,0.00860135667083739,-0.06465203065840865,0.030090431477694368,-0.024846364704395274,0.017698415178697583,0.01068404140043279,0.1053327586505339
864,4.0,300.5426,83.319908,0.0,0.0,0.0,0.0,0.0,0.008611323480421207,-0.06132852270765394,-0.00046477413263963554,0.036466125346926365,0.015878352527571384,0.02016666303804468,0.07752134854951143
865,4.0,299.44925,238.72423999999998,0.0,0.0,0.0,0.0,0.0,0.008621290290004996,-0.1056397227683289,0.04905984529032975,-0.015986327497977685,-0.02086239196745778,0.014465105738594787,0.1232350438023519
866,4.0,299.28854,440.8741,0.0,0.0,0.0,0.0,0.0,0.00863125709958884,-0.05421550801890404,-0.00911037634899914,-0.07068883188594453,-0.016891837701594584,-0.014365539730768385,0.10568183344248488
867,4.0,298.94812,322.75235,0.0,0.0,0.0,0.0,0.0,0.008641223909172657,-0.03184863014396507,-0.02799776503291427,-0.038262259083690964,-0.017006292406390382,-0.004686851361706215,0.07889458513178933
868,4.0,300.36498,324.13081,0.0,0.0,0.0,0.0,0.0,0.008651190718756502,-0.030961122354874866,0.011712017064136089,-0.07927856740293543,0.025389761613774375,-0.002922622945415427,0.1264917714787659
869,4.0,299.76172,340.60373,0.0,0.0,0.0,0.0,0.0,0.008661157528340319,-0.07771219319259633,-0.012954738927533188,-0.01286809489823209,-0.004326857989327636,0.007792950190179303,0.08990314622124972
870,4.0,301.34632999999997,404.01325,0.0,0.0,0.0,0.0,0.0,0.008671124337924108,-0.07605590519488342,-0.015111065849596086,-0.03164296773141777,0.03141626923354437,-0.007933709779496192,0.11658186126073389
871,4.0,301.30312999999995,347.44295,0.0,0.0,0.0,0.0,0.0,0.008681091147507924,-0.05994278160589194,-0.02114738882308478,-0.02452381072056168,-0.029989899842522674,-0.007583504707058643,0.06891282028291584
872,4.0,301.12916,359.71545,0.0,0.0,0.0,0.0,0.0,0.008691057957091769,-0.028722460756186178,-0.037618827031689166,-0.04300322691733806,0.0093501423281122,-0.003469343213797517,0.0983943482322661
873,4.0,300.00469,313.70214,0.0,0.0,0.0,0.0,0.0,0.008701024766675586,-0.04812614444243066,-0.0012757126787030387,-0.045955759688480355,-0.001845328751644768,-0.01017110481555989,0.09177576716831301
874,4.0,300.78361,208.10901,0.0,0.0,0.0,0.0,0.0,0.00871099157625943,-0.016351434946260984,-0.018000219826983382,-0.028908288798025972,0.016957658428090584,-0.026192809940779074,0.07991642759263733
875,4.0,298.4382,92.33741500000001,0.0,0.0,0.0,0.0,0.0,0.00872095838584322,-0.06374129816377634,-0.005064664358293456,0.04073769392599736,0.01123216106852799,0.006428679452736264,0.06938587838360304
876,4.0,299.26396,219.60358,0.0,0.0,0.0,0.0,0.0,0.008730925195427036,-0.06044842684304524,0.018303474436162284,-0.024609052411724376,0.008985515768326362,-0.0055835968506331045,0.0984923659939397
877,4.0,300.28061,202.63913,0.0,0.0,0.0,0.0,0.0,0.00874089200501088,-0.06316633851378224,-0.01894262955949198,0.020511731439100282,-0.0032391412010533468,0.028176733371577074,0.08035247470692182
878,4.0,300.32016,133.28868,0.0,0.0,0.0,0.0,0.0,0.008750858814594697,-0.014863438670907185,0.015128751116841484,-0.04078174396084476,-0.026168414931371477,-0.008635824616339532,0.09942041695928122
879,4.0,299.83778,187.35003,0.0,0.0,0.0,0.0,0.0,0.008760825624178514,-0.02979070297886347,-0.0043363432261637564,-0.02282268539267368,0.006182432219358555,0.016138711193766784,0.08907444037521282
880,4.0,300.46595,327.18606,0.0,0.0,0.0,0.0,0.0,0.008770792433762331,-0.03421092142710507,-0.02832483304594337,-0.036920638944283365,-0.008592419717830802,0.013771305024121988,0.1098454908859059
881,4.0,300.71461,387.65263999999996,0.0,0.0,0.0,0.0,0.0,0.008780759243346148,-0.08322929236434162,0.008681862749208142,-0.04328929173857046,0.016554578419059683,0.02103642679138368,0.1292575794817299
882,4.0,299.89366,462.3322,0.0,0.0,0.0,0.0,0.0,0.008790726052929965,-0.06735150928332644,-0.03245357693066867,-0.04073235815097076,-0.0018284161889256282,-0.029706563703809575,0.12464886206438489
883,4.0,300.11861,268.91399,0.0,0.0,0.0,0.0,0.0,0.00880069286251381,-0.05396374981955745,0.007665155946491992,-0.035444545317854265,0.008292497890880822,-0.008258908650065821,0.08201078616508442
884,4.0,299.2979,83.49955,0.0,0.0,0.0,0.0,0.0,0.008810659672097626,-0.02059629526594608,0.04146177561970866,-0.046247258569999054,0.007443117487153503,-0.01211305334771529,0.12897690920402988
885,4.0,299.62042,172.67874,0.0,0.0,0.0,0.0,0.0,0.008820626481681415,-0.037647412843510364,0.006060571466931834,-0.020903185416483783,0.02312651147490898,0.025541556611255376,0.09030273659693622
886,4.0,299.78502000000003,233.29862000000003,0.0,0.0,0.0,0.0,0.0,0.00883059329126526,-0.06321674264000673,0.036718914021624666,-0.04441912639507646,0.02312724810773168,-0.0028324375056898174,0.12462478724200889
887,4.0,299.96241000000003,95.484893,0.0,0.0,0.0,0.0,0.0,0.008840560100849076,-0.04093896288611106,0.0019078433443894783,0.01000609622617481,0.03205324080290857,-0.0024387062487065676,0.08211860813472563
888,4.0,300.84163,265.86719,0.0,0.0,0.0,0.0,0.0,0.008850526910432893,-0.051052482671987746,-0.019339987745208183,-0.01042451765231979,0.0027875055379553773,-0.007060290726421442,0.1254504543509959
889,4.0,301.68696,589.3155,0.0,0.0,0.0,0.0,0.0,0.00886049372001671,-0.08288838538144672,-0.03268919000292187,-0.06355962343409645,-0.01164260639253579,0.01043293674740069,0.10445025834343791
890,4.0,300.41028,410.97039,0.0,0.0,0.0,0.0,0.0,0.008870460529600527,-0.03157962845441667,-0.05497953912430805,-0.03836556803738676,-0.03259096857797817,-0.011324720451912887,0.1074844256353869
891,4.0,299.82391,298.0968,0.0,0.0,0.0,0.0,0.0,0.008880427339184344,-0.02879520096761507,-0.013064057467572087,-0.048754726300966854,-0.01084271940584309,0.02250361698918408,0.08475243321941392
892,4.0,299.91604,225.72009,0.0,0.0,0.0,0.0,0.0,0.00889039414876816,-0.04054365146559686,0.005140380586591066,-0.03320999852782167,0.00994517699571255,0.01906170265824358,0.1084456858727559
893,4.0,300.28957,95.488551,0.0,0.0,0.0,0.0,0.0,0.008900360958352005,-0.033371035379464765,-0.010598995266539391,0.014943894781847588,0.018020706730755284,0.03891925956778186,0.10717355037220591
894,4.0,300.42366,156.38124,0.0,0.0,0.0,0.0,0.0,0.008910327767935822,-0.039381839649184965,0.02200894727711398,-0.03016310076161627,0.010325072221255291,-0.013901024341674287,0.099342313615073
895,4.0,298.98944,249.39081000000002,0.0,0.0,0.0,0.0,0.0,0.008920294577519639,-0.03909425393955246,-0.025097547377685075,-0.011616776620986589,0.007039795716648743,-0.017257544993937085,0.08624109317358324
896,4.0,299.0157,117.26003,0.0,0.0,0.0,0.0,0.0,0.008930261387103455,-0.02422286530836068,0.00913482901233743,-0.02055608443572758,0.019468753594416383,0.005746549758215305,0.07585629188543314
897,4.0,300.71511,191.61113,0.0,0.0,0.0,0.0,0.0,0.008940228196687272,-0.047311481229529655,0.006216695676790094,-0.01715021445059438,0.0053873249360375745,0.014623040018431687,0.12489312626599189
898,4.0,301.58299,440.58247,0.0,0.0,0.0,0.0,0.0,0.008950195006271089,-0.08325320202695133,-0.04099295391768956,-0.00967991419903315,0.0006385289651654023,-0.02554453455329927,0.09048072106975191
899,4.0,301.71192,515.8828599999999,0.0,0.0,0.0,0.0,0.0,0.008960161815854933,-0.07854135905417862,-0.024122025645158578,-0.05415212314564845,-0.015563545854002384,-0.008347090894343732,0.11590519257895188
900,4.0,300.73893,313.32788,0.0,0.0,0.0,0.0,0.0,0.00897012862543875,-0.04951141235639595,-0.0012888246416220888,-0.044443614623493256,0.028579874175613973,-0.002423972376352448,0.1014408042214279
901,4.0,299.54807999999997,398.8537,0.0,0.0,0.0,0.0,0.0,0.00898009543502254,-0.06126681172356354,-0.02141196463619638,-0.03856278906335096,-0.007696530425238413,0.014037674289910589,0.1118906146227439
902,4.0,299.21641,355.36011,0.0,0.0,0.0,0.0,0.0,0.008990062244606384,-0.06568662791151544,0.01049565794184079,-0.05282963012837854,-0.017258037433485682,-0.014392145651894186,0.1156245830962579
903,4.0,299.34679,179.35818999999998,0.0,0.0,0.0,0.0,0.0,0.0090000290541902,-0.043712911340378455,-0.013224937265449687,0.002417437622482518,-0.01965655342095078,-0.020384216953765584,0.0961341773604546
904,4.0,299.61992000000004,177.69644,0.0,0.0,0.0,0.0,0.0,0.009009995863774045,-0.05133055396318125,0.016953182902398882,-0.01963790759261058,0.009837047909966042,0.01935517332445688,0.12175926529670388
905,4.0,299.69116,208.17935,0.0,0.0,0.0,0.0,0.0,0.009019962673357834,-0.05730127203244525,0.01124939442622879,-0.017229447568664086,0.015641729244968483,0.027241282640755274,0.0952121988029624
906,4.0,299.21774,70.138171,0.0,0.0,0.0,0.0,0.0,0.009029929482941651,-0.007285171554940453,-0.0070552548734244425,-0.006979826205505212,-0.0026006854229426676,-0.01749356437948038,0.10885318466547289
907,4.0,300.81667999999996,296.99384,0.0,0.0,0.0,0.0,0.0,0.009039896292525496,-0.05857951844434835,0.008886719627925942,-0.04058591210076767,-0.00955002941773952,-0.004283895374487556,0.07582032150688313
908,4.0,300.95228,479.77717,0.0,0.0,0.0,0.0,0.0,0.009049863102109312,-0.06455926761175365,-0.03497597490185996,-0.04630503814370146,0.024641554435182077,0.014757087940411187,0.1010362641190029
909,4.0,300.9462,216.90405,0.0,0.0,0.0,0.0,0.0,0.009059829911693129,-0.06223391334775903,0.004049415115846156,-0.007748917887208652,0.00883326095794998,0.01988441107693858,0.08481075690842
910,4.0,300.93946,265.00979,0.0,0.0,0.0,0.0,0.0,0.009069796721276946,-0.04326945128836236,-0.010469730898281989,-0.026817177692149374,-0.003044797805373147,-0.02192745258482108,0.08728813009816773
911,4.0,301.14794,331.79321,0.0,0.0,0.0,0.0,0.0,0.009079763530860763,-0.04825278347967895,-0.026096248219499178,-0.026507818251117976,-0.019451373315451083,-0.02834325595926157,0.0975065536933976
912,4.0,300.7075,238.98958,0.0,0.0,0.0,0.0,0.0,0.00908973034044458,-0.028200374522910267,0.017200363237793684,-0.06164685447832084,0.007172685595088953,0.006755434472809473,0.1067907748819289
913,4.0,301.69698999999997,189.35413,0.0,0.0,0.0,0.0,0.0,0.009099697150028424,-0.05031523683297725,0.01903266291037758,-0.026276353424774176,0.0027525638109068976,0.005074609104049925,0.1289036410892989
914,4.0,300.36877999999996,201.26872,0.0,0.0,0.0,0.0,0.0,0.00910966395961224,-0.049466131222677054,0.005518246069533484,-0.017232782174743184,-0.02463019894131138,-0.021965436291319775,0.09733882736459432
915,4.0,300.12219,268.98831,0.0,0.0,0.0,0.0,0.0,0.00911963076919603,-0.06324612385315644,0.015829283864978685,-0.03434888961372146,-0.005830133569564385,0.02005951386646988,0.13231751372372189
916,4.0,300.42453,347.39745,0.0,0.0,0.0,0.0,0.0,0.009129597578779874,-0.06891514062564484,-0.01805140415578488,-0.018633606517493784,0.00987571849870753,0.03580579532300686,0.09150628215846691
917,4.0,299.57111000000003,557.37473,0.0,0.0,0.0,0.0,0.0,0.009139564388363691,-0.08664441838913832,-0.023878580149632376,-0.05890500072097094,0.026623931646327474,0.04479452745112566,0.0975077290635136
918,4.0,299.02762,371.1623,0.0,0.0,0.0,0.0,0.0,0.009149531197947508,-0.06041136620738765,-0.003928808159093177,-0.04848389670823805,-0.012270822467785889,-0.0099936321353697,0.09471486322987922
919,4.0,299.82223,136.42635,0.0,0.0,0.0,0.0,0.0,0.009159498007531353,-0.03390462808087626,0.007347611876452833,-0.014913187224316986,-0.005946462787045184,-0.02321738177037718,0.08585021877525692
920,4.0,300.53771,215.08631,0.0,0.0,0.0,0.0,0.0,0.009169464817115142,-0.048460273795406655,0.017567553928282586,-0.03448814665446507,-0.016810175823035182,-0.004532241352797396,0.1153528091544359
921,4.0,300.18494,239.6917,0.0,0.0,0.0,0.0,0.0,0.009179431626698958,-0.053860727615639946,0.0027787744631686873,-0.02177833864710468,0.023247729624122276,-0.012649805362938589,0.1017026584447709
922,4.0,299.92964,111.45393,0.0,0.0,0.0,0.0,0.0,0.009189398436282803,-0.03192536154753787,-0.0035727431573522967,0.0016188917736221784,-0.016629346143938684,-0.03034846777466057,0.10082998362389459
923,4.0,300.42259,99.917852,0.0,0.0,0.0,0.0,0.0,0.00919936524586662,-0.009217956861141512,0.018601958663870384,-0.03975653446991446,-0.01061832301219689,-0.01763135423407918,0.1015633466885219
924,4.0,301.25796,162.74888,0.0,0.0,0.0,0.0,0.0,0.009209332055450464,-0.026238904714328274,-0.0008610236302289161,-0.022371668521411776,-0.004157308823594436,0.019117881296787983,0.10930574269013689
925,4.0,300.7787,347.90574,0.0,0.0,0.0,0.0,0.0,0.009219298865034253,-0.05066542316028795,0.005994411301652334,-0.06108364751623664,-0.004743482315095256,0.016794169511205485,0.1250421753557019
926,4.0,299.29007,404.23834,0.0,0.0,0.0,0.0,0.0,0.00922926567461807,-0.07934472250196442,-0.032232267910077175,-0.01130137010335839,-0.0034573934487431668,0.005515629553800255,0.06036709832376874
927,4.0,298.91727000000003,386.97325,0.0,0.0,0.0,0.0,0.0,0.009239232484201915,-0.056993987727618656,-0.03563141700729707,-0.025004799529781577,0.0006819414022548765,-0.01106085695362159,0.0912986631599765
928,4.0,299.92495,339.59381,0.0,0.0,0.0,0.0,0.0,0.009249199293785731,-0.07106126614570094,0.002195259030655198,-0.03436203045426837,0.015691642958144587,0.019878060025311783,0.07687108617858553
929,4.0,300.85285,211.01458,0.0,0.0,0.0,0.0,0.0,0.009259166103369548,-0.033002919591634566,-0.007975741926769442,-0.023164502274158377,0.014202768194954087,-0.006938054868807703,0.11789534749786489
930,4.0,300.50377000000003,155.81038,0.0,0.0,0.0,0.0,0.0,0.009269132912953365,-0.04536679489560405,0.02129296854445238,-0.02328863858365968,-0.018105145927838785,-0.033168325577708865,0.08929384752536661
931,4.0,300.35627999999997,179.51443999999998,0.0,0.0,0.0,0.0,0.0,0.009279099722537182,-0.04266870341007316,0.03064802300772437,-0.042547226882084364,-0.012428377792085388,-0.018516944953980184,0.15436995982762886
932,4.0,299.81434,179.40194,0.0,0.0,0.0,0.0,0.0,0.009289066532120999,-0.05173431082327895,0.0037721572618329363,-0.006571557342712214,-0.0007878371935884773,0.004595862110676276,0.09866952770767422
933,4.0,300.10115,429.66815999999994,0.0,0.0,0.0,0.0,0.0,0.009299033341704843,-0.06110803239314325,0.006712923362213953,-0.07621328421366552,0.010302711818048491,-0.008764287301117812,0.15283393347103486
934,4.0,300.10931,577.08774,0.0,0.0,0.0,0.0,0.0,0.00930900015128866,-0.06684433707827245,-0.05045474110674525,-0.058121183880864236,-0.011205510564397789,-0.02216470306923588,0.1010223268638774
935,4.0,300.16027,447.09592999999995,0.0,0.0,0.0,0.0,0.0,0.009318966960872449,-0.043650847745253255,-0.03279461563607657,-0.059460534340047846,0.0014980111380171887,-0.032960607280708674,0.11938195764708188
936,4.0,300.53422,210.91115,0.0,0.0,0.0,0.0,0.0,0.009328933770456294,-0.06091044862364324,0.03209281429881417,-0.035294088823755364,0.005702404173883475,-0.005414571737851625,0.12180346326606589
937,4.0,300.47172,289.37919,0.0,0.0,0.0,0.0,0.0,0.00933890058004011,-0.06775583356348014,-0.007680564643412713,-0.012527648944132688,0.02034951820409108,9.92324306947284e-05,0.12651712299626788
938,4.0,300.36361,312.38352000000003,0.0,0.0,0.0,0.0,0.0,0.009348867389623927,-0.07920272867270073,-0.0009002519827529532,-0.014853809755206886,0.015635872659390485,-0.01703387307411238,0.09050831389647511
939,4.0,300.11731000000003,200.85578,0.0,0.0,0.0,0.0,0.0,0.009358834199207772,-0.04344691697712687,0.00937395218558705,-0.02698217635168347,0.01887496471781398,-0.013683725764978588,0.09412006616942731
940,4.0,300.50413,251.67799,0.0,0.0,0.0,0.0,0.0,0.00936880100879156,-0.060039835766720444,0.002123145717063168,-0.018587132788407183,0.0048669293105535255,0.04454115818412006,0.10586144215521089
941,4.0,299.30727,315.08735,0.0,0.0,0.0,0.0,0.0,0.009378767818375378,-0.05141116712788715,0.026983806671094374,-0.07135132621207763,-0.022631062573511978,0.016694160713085382,0.12880439324200388
942,4.0,299.11149,311.92998,0.0,0.0,0.0,0.0,0.0,0.009388734627959222,-0.04184536272331576,-0.02720300103872718,-0.025770561266356375,-0.041532928068230855,0.019158613950807982,0.09203526862492381
943,4.0,300.25641,349.78052,0.0,0.0,0.0,0.0,0.0,0.009398701437543039,-0.07239059150839514,0.004060928879382476,-0.037994880620802765,-0.03076937895895127,0.004998632369151605,0.12190759497884288
944,4.0,300.84369,294.36685,0.0,0.0,0.0,0.0,0.0,0.009408668247126883,-0.06185462850407653,-0.003621350689824486,-0.024004193777779476,-0.007088701245975343,0.01980864732721128,0.1167822010705059
945,4.0,300.5159,159.3464,0.0,0.0,0.0,0.0,0.0,0.009418635056710672,-0.03990620569518586,-0.0019420366849140982,-0.0065890846442670245,-0.006183699693908644,-0.012380145060825187,0.0967416207954046
946,4.0,300.55306,240.84195,0.0,0.0,0.0,0.0,0.0,0.00942860186629449,-0.03972769230581796,-0.0008786690666128851,-0.03260357847547267,-6.499281301154125e-05,-0.03993342665912236,0.09289469621399273
947,4.0,301.14357,255.52545,0.0,0.0,0.0,0.0,0.0,0.009438568675878334,-0.047728372850673655,-0.004173816795548646,-0.025771165163415974,0.015733938043818785,-0.03162065089796527,0.1035116138483009
948,4.0,301.28555,67.159453,0.0,0.0,0.0,0.0,0.0,0.00944853548546215,-0.026510442568876975,0.017391662830173484,-0.01129601710308009,0.015455747189113486,0.023093842265184777,0.11049193431720489
949,4.0,300.94128,74.261985,0.0,0.0,0.0,0.0,0.0,0.009458502295045967,-0.06356076941995953,0.04195127167676817,-0.0009642916182231731,0.016761909654521682,0.0020109260393379484,0.12899180398049986
950,4.0,299.99927,315.24477,0.0,0.0,0.0,0.0,0.0,0.009468469104629784,-0.07496749220246543,-0.01239389385143209,-0.008465153073470563,-0.008776031781701901,-0.011793559379183688,0.08605136918510892
951,4.0,300.41118,447.80302,0.0,0.0,0.0,0.0,0.0,0.009478435914213601,-0.08796878287934291,0.0028679988351744475,-0.05102015391429715,0.005305805520442235,-0.01043746090909719,0.11012754931624288
952,4.0,299.88171,365.69038,0.0,0.0,0.0,0.0,0.0,0.009488402723797418,-0.06960706885393284,0.003931283022462427,-0.04548495809576586,-0.0018719418668462781,0.008629461203061512,0.1047371094467479
953,4.0,299.36245,398.87473,0.0,0.0,0.0,0.0,0.0,0.009498369533381262,-0.06356436747106464,-0.011149775729397187,-0.046533815830780055,-0.03375178639604197,0.0018290620345393683,0.12232336189237587
954,4.0,299.17625,386.87109,0.0,0.0,0.0,0.0,0.0,0.009508336342965079,-0.07995517832946172,0.012433461267837089,-0.050077435140508046,-0.04792256628533905,-0.002103980192746678,0.10687399311264191
955,4.0,299.77162000000004,156.73427,0.0,0.0,0.0,0.0,0.0,0.009518303152548868,-0.042817309709489465,0.006290844812483045,-0.01111683800839649,-0.02098383708469348,0.030142120405045672,0.12080478370250387
956,4.0,300.04809,116.56926000000001,0.0,0.0,0.0,0.0,0.0,0.009528269962132713,-0.04807056564794546,0.014685983114643685,-0.002049562684201088,-0.0011115168172231688,0.05064081739485955,0.11911407458564388
957,4.0,300.05034,221.68412,0.0,0.0,0.0,0.0,0.0,0.00953823677171653,-0.045179534118122866,0.014864738670785487,-0.037071640566936064,0.009121353393957492,-0.006735457436487895,0.12128050462445389
958,4.0,301.03355,107.958,0.0,0.0,0.0,0.0,0.0,0.009548203581300346,-0.03648622518916007,-0.005247300459668235,0.008916990879963482,-0.010260795687911689,-0.04655061754393825,0.08187491844592533
959,4.0,300.58662999999996,83.677762,0.0,0.0,0.0,0.0,0.0,0.00955817039088419,-0.027735445727775372,0.05041777166359666,-0.04811827554215405,0.023989637426842875,-0.053164242801652245,0.11594072725995888
960,4.0,300.90594,350.58707000000004,0.0,0.0,0.0,0.0,0.0,0.00956813720046798,-0.07008615579271503,-0.0007717394865997573,-0.035711819415982164,0.047528234677671546,-0.015987517053595086,0.09039144157694072
961,4.0,300.15036000000003,511.89707999999996,0.0,0.0,0.0,0.0,0.0,0.009578104010051797,-0.06705034298260364,-0.022753555391351078,-0.06580002984945735,0.01696801485736268,-0.0016834383381174281,0.1111009077598059
962,4.0,300.39231,334.5885,0.0,0.0,0.0,0.0,0.0,0.009588070819635641,-0.07500139048456093,0.006203534773891213,-0.03290869239858507,0.00036014844017388364,-0.016202481102060382,0.08772059233359843
963,4.0,300.10827,185.4668,0.0,0.0,0.0,0.0,0.0,0.009598037629219458,-0.03981594638952796,-0.0012741020163440787,-0.015287226472231784,-0.027929250074402372,0.0037512727587217963,0.1009775918719624
964,4.0,300.72507,-12.250950999999999,0.0,0.0,0.0,0.0,0.0,0.009608004438803303,-0.018470266548373384,0.049330591796550353,-0.027136341341148375,0.004803184530862405,0.04213984157337856,0.1047904165345089
965,4.0,299.99445,57.882755,0.0,0.0,0.0,0.0,0.0,0.009617971248387092,-0.005361234759212676,0.016558337576930683,-0.028792015309300676,-0.027890272369555574,-0.0037347112871623065,0.13087285212864486
966,4.0,300.28962,369.92597,0.0,0.0,0.0,0.0,0.0,0.009627938057970908,-0.06089618003573504,-0.03118502326922217,-0.02036705351032168,-0.03247370818365547,0.008661658238239112,0.1020801954320309
967,4.0,299.21904,287.24172999999996,0.0,0.0,0.0,0.0,0.0,0.009637904867554753,-0.060569960113039646,0.010477813594329689,-0.03722216596204176,-0.016197574945076183,-0.002931445921986187,0.14582708611451287
968,4.0,299.42767000000003,193.05822,0.0,0.0,0.0,0.0,0.0,0.00964787167713857,-0.07606547534207793,0.0036479943038540065,0.013732602923302386,0.01055269885622029,0.029778324102391767,0.12330214122397389
969,4.0,299.62171,427.89889000000005,0.0,0.0,0.0,0.0,0.0,0.009657838486722387,-0.08288386121975022,0.0069841085044028434,-0.05417082571599424,0.0011880520555766088,0.0016492695182452285,0.12670320637713287
970,4.0,300.06703,539.90403,0.0,0.0,0.0,0.0,0.0,0.009667805296306203,-0.08382710992334162,-0.001852657690943078,-0.07843757691268612,0.005259467769519055,-0.03715092536076087,0.11930951026493188
971,4.0,301.84413,431.40987,0.0,0.0,0.0,0.0,0.0,0.00967777210589002,-0.04676833864592566,-0.017421982312915786,-0.06694750721670453,0.015017869131898287,-0.034061484262606766,0.10837412001819291
972,4.0,301.69151,108.00915,0.0,0.0,0.0,0.0,0.0,0.009687738915473837,-0.02137867227766068,0.03943457019763907,-0.05088798354475295,0.03366546458027267,-0.004039759450343216,0.12823106593792086
973,4.0,300.92732,11.410258,0.0,0.0,0.0,0.0,0.0,0.009697705725057681,0.007931394199042664,-0.008822521925440122,-0.0025773057914602777,0.01033703971818639,-0.015325097707969386,0.09497392088294622
974,4.0,301.29807999999997,232.83161,0.0,0.0,0.0,0.0,0.0,0.009707672534641498,-0.05288678047376885,-0.015877669597003985,-0.0020105454626003884,-0.026824349476357177,-0.0010957920875962588,0.09815950725658909
975,4.0,300.48609,345.45267,0.0,0.0,0.0,0.0,0.0,0.009717639344225287,-0.07303428497892273,-0.013453170837224587,-0.018521528897432582,-0.01054588069629739,0.014400886960506886,0.08705967259812072
976,4.0,299.63888,238.82187000000002,0.0,0.0,0.0,0.0,0.0,0.009727606153809132,-0.04505064465240246,-0.028936551383065272,0.0013913123561118386,0.005960618600217254,0.05432351237356324,0.10484924583531491
977,4.0,300.21937,75.167365,0.0,0.0,0.0,0.0,0.0,0.009737572963392949,-0.004504764847185675,0.0040738945289870866,-0.02241813211799738,-0.02939878493293417,0.002044781156979188,0.09391803929823882
978,4.0,299.52966000000004,169.33066000000002,0.0,0.0,0.0,0.0,0.0,0.009747539772976765,-0.020231850483228182,-0.01977651412678998,-0.011463925816901388,-0.00921857311985233,-0.029229683623745176,0.1076722112764199
979,4.0,299.80875,473.87057000000004,0.0,0.0,0.0,0.0,0.0,0.00975750658256061,-0.07323462681519494,-0.03967323517919346,-0.03113695873747857,-0.003946867923575536,-0.018579390544393084,0.1062725987807889
980,4.0,300.18728,418.12756,0.0,0.0,0.0,0.0,0.0,0.009767473392144399,-0.1066987109778429,0.025916889779547876,-0.046318521462782154,0.038944389183511965,0.01888979059327718,0.16149819454613085
981,4.0,300.73386,268.72947,0.0,0.0,0.0,0.0,0.0,0.009777440201728216,-0.05694777440380774,-0.011587612243358289,-0.013151661044717886,0.0069180164295300625,-0.028101687002920574,0.1020162492182199
982,4.0,301.08441,342.73419,0.0,0.0,0.0,0.0,0.0,0.00978740701131206,-0.05666361651926355,0.0007763784191350844,-0.04829539672588455,-0.0013936309763156688,-0.024341305125799774,0.13337682617326788
983,4.0,301.77536000000003,453.98934,0.0,0.0,0.0,0.0,0.0,0.009797373820895877,-0.08124980291598122,0.0036810086265622664,-0.06043262723423594,0.02139521257229308,-0.02086206266117528,0.11098222577559289
984,4.0,300.89412000000004,541.95998,0.0,0.0,0.0,0.0,0.0,0.009807340630479694,-0.06726729300126494,-0.027696846978465976,-0.06977816119956834,0.031510416379835975,-0.0012243850763373988,0.13103746473989086
985,4.0,300.9908,246.45878,0.0,0.0,0.0,0.0,0.0,0.00981730744006351,-0.06249331145285964,0.02299743050491968,-0.03542143409632337,0.013284871008864687,-0.013475116821140486,0.1151932931911929
986,4.0,300.00096,117.49266999999999,0.0,0.0,0.0,0.0,0.0,0.009827274249647328,-0.04292270190539086,-0.017015199888019486,0.024223063905380274,-0.012350937113442588,-0.02022240293929578,0.1157523134038639
987,4.0,300.01621,71.542602,0.0,0.0,0.0,0.0,0.0,0.009837241059231172,-0.03289004454374467,0.014182147542168988,-0.003039267587652357,-0.01928693498322228,0.031591764150864364,0.10581352555798189
988,4.0,299.67974,241.77913999999998,0.0,0.0,0.0,0.0,0.0,0.009847207868814989,-0.07561091209546603,0.022413183404508978,-0.02029709365716718,-0.038219442174215267,0.04633378506228855,0.12673110115238587
989,4.0,299.7391,426.12647999999996,0.0,0.0,0.0,0.0,0.0,0.009857174678398806,-0.048068472273238856,-0.046656310675119356,-0.03480702659343607,-0.02590938970230768,0.025460763088031677,0.1078300756419999
990,4.0,299.81773,355.25476000000003,0.0,0.0,0.0,0.0,0.0,0.009867141487982622,-0.05901154092923565,-0.004279113745940646,-0.044697922160091455,-0.03706821071534756,-0.0028440810665639475,0.11369798935611788
991,4.0,300.65796,361.29282,0.0,0.0,0.0,0.0,0.0,0.00987710829756644,-0.03971849908766067,-0.039347618140307565,-0.03075787857031627,0.008836885454882691,0.0034189696877260367,0.1104279881033939
992,4.0,299.95646,367.0501,0.0,0.0,0.0,0.0,0.0,0.009887075107150256,-0.06960157805164092,-0.016259652725702785,-0.025712836408159377,0.037746327331522465,-0.002046916581564938,0.1196099186545799
993,4.0,299.32554,400.06588,0.0,0.0,0.0,0.0,0.0,0.009897041916734073,-0.05397409611632855,-0.004594506888667526,-0.06304143618720534,0.03367078819629807,-0.030982979172781974,0.10769643808631091
994,4.0,300.57776,286.82396,0.0,0.0,0.0,0.0,0.0,0.009907008726317917,-0.06034249154509025,-0.012626584710396887,-0.014218245590231587,0.01091482633595949,-0.026416321767087976,0.10136254078370391
995,4.0,300.6405,26.201206,0.0,0.0,0.0,0.0,0.0,0.009916975535901706,0.007312732768260533,0.018247052617593882,-0.03352429756309057,0.003490891294399147,0.009710685084695001,0.10478497538147191
996,4.0,300.59661,-18.925891,0.0,0.0,0.0,0.0,0.0,0.009926942345485551,-0.03347704261817687,0.034544190530746165,0.004685850067957396,0.013337639047572488,0.04166615525762936,0.12539322598534788
997,4.0,300.8787,249.02022000000002,0.0,0.0,0.0,0.0,0.0,0.009936909155069368,-0.04680081939113125,-0.006072995331707974,-0.022822113919617276,-0.008574744481761392,-0.002384822520313658,0.12042881725289889
998,4.0,300.95414,368.00743,0.0,0.0,0.0,0.0,0.0,0.009946875964653185,-0.08238316773583562,-0.0035992229288406468,-0.025882679416421576,-0.012567246758040686,-0.02943401462566107,0.1274991649931879
999,4.0,300.04607999999996,334.58152,0.0,0.0,0.0,0.0,0.0,0.009956842774237001,-0.06768058251830343,-0.015762553239892885,-0.018261290807999084,-0.02108654518107998,0.00965355784140698,0.1203261851502699
1000,4.0,300.75864,362.29053,0.0,0.0,0.0,0.0,0.0,0.009966809583820818,-0.09095590091614851,-0.002786613877867377,-0.016384761755300088,-0.01183635399715719,0.02143033992675988,0.11467509682505089
1001,4.0,299.64036,395.54079,0.0,0.0,0.0,0.0,0.0,0.009976776393404635,-0.04778084299385205,-0.014202919169218986,-0.05825076235665264,-0.018721786633946483,0.024412391713065477,0.10074005970401981
1002,4.0,299.46819,477.55142,0.0,0.0,0.0,0.0,0.0,0.009986743202988452,-0.07904034622492483,-0.02162768152948598,-0.04449567845338155,-0.006389064312251554,0.006166318199043224,0.08824247085060381
1003,4.0,300.55016,403.50962000000004,0.0,0.0,0.0,0.0,0.0,0.009996710012572296,-0.06072294365288795,0.01048576659436459,-0.07241967279951524,0.025850159154462076,0.028572998260435373,0.1132851811328769
1004,4.0,300.0091,-116.10526000000002,0.0,0.0,0.0,0.0,0.0,0.010006676822156113,-0.008040272481913111,0.048187127912949254,-0.004853755438053365,0.03309473930244647,0.009702357587423141,0.12861965748377185
1005,4.0,298.44854,-344.67929,0.0,0.0,0.0,0.0,0.0,0.01001664363173993,0.010145209182754189,0.06179663310810285,0.03283205624052167,-0.004160022307362236,-0.021732728207103275,0.12105923106761589
1006,4.0,299.32036,103.09608,0.0,0.0,0.0,0.0,0.0,0.010026610441323747,-0.04482774989540446,0.03094276226306287,-0.017453647391790884,-0.005582033000428765,-0.04710640954179066,0.1120167237301899
1007,4.0,299.40397,396.11028,0.0,0.0,0.0,0.0,0.0,0.010036577250907563,-0.04906813671589805,-0.06032860089946935,-0.01101089561769079,-0.015014300465046086,0.020411677044725678,0.08107412460039312
1008,4.0,299.60273,293.7266,0.0,0.0,0.0,0.0,0.0,0.01004654406049138,-0.06564974358137524,0.0022639486734843377,-0.025899756733606977,0.018510668882860782,0.04405021723241796,0.11903538558287789
1009,4.0,300.02973,371.40422,0.0,0.0,0.0,0.0,0.0,0.010056510870075225,-0.07381361514758664,-0.018962869230239484,-0.020121125552050482,-0.03199785553919247,0.024583811338483273,0.1025432101977269
1010,4.0,300.65268,381.295,0.0,0.0,0.0,0.0,0.0,0.010066477679659042,-0.06886669207211334,-0.00960289077678153,-0.037434575607004965,0.013565208940531885,-0.018265651836429486,0.13910271262086887
1011,4.0,300.61276000000004,473.78175,0.0,0.0,0.0,0.0,0.0,0.01007644448924283,-0.07962785700390762,0.008127045295301923,-0.07251701067037174,0.005879868849397875,-0.001738373516139108,0.1137432613705859
1012,4.0,300.85382999999996,595.16606,0.0,0.0,0.0,0.0,0.0,0.010086411298826675,-0.09036995358207,-0.014207189005140385,-0.07633847734302113,0.024646450459665275,-0.005324371099374515,0.1383797282770159
1013,4.0,301.17593999999997,132.17053,0.0,0.0,0.0,0.0,0.0,0.010096378108410492,-0.05430385734812345,0.026322971035374978,-0.012195654509117387,-0.0017424752538689186,-0.017824220311113585,0.07808383002452401
1014,4.0,300.03226,-141.50182,0.0,0.0,0.0,0.0,0.0,0.010106344917994337,-0.025522761835150475,0.04671717863512655,0.02181860216632838,-0.006648004529631964,-0.010878680665142188,0.14003808431818285
1015,4.0,298.96415,2.9329921000000003,0.0,0.0,0.0,0.0,0.0,0.010116311727578126,-0.032133150772045066,0.02762683950255677,0.0036147543303484764,0.012108589981024789,0.04181216459703936,0.10630432364141991
1016,4.0,299.01742,234.39117000000002,0.0,0.0,0.0,0.0,0.0,0.010126278537161942,-0.06787063479981013,0.025868515193273676,-0.02924694332594857,0.008286911235129462,0.02276607409633658,0.18392279727926683
1017,4.0,299.35265,101.47912,0.0,0.0,0.0,0.0,0.0,0.010136245346745787,-0.022556936235946276,0.01060331272521549,-0.01889349604889288,0.0009934384058297374,-0.0026849764828615476,0.1057046720997389
1018,4.0,299.82554,184.02693,0.0,0.0,0.0,0.0,0.0,0.010146212156329604,-0.026256276887292776,-0.02043789387781308,-0.009245420093176922,-0.012548289861919788,-0.03866182311487486,0.1143613135340829
1019,4.0,300.00976,458.68295,0.0,0.0,0.0,0.0,0.0,0.01015617896591342,-0.06903510234473414,-0.03471553416240647,-0.035677526979597765,0.015682053559198182,0.004320110858236746,0.08013530987923934
1020,4.0,299.96454,585.85723,0.0,0.0,0.0,0.0,0.0,0.01016614577549721,-0.11127785162476889,-0.029194642395536874,-0.03761347301816076,-0.008031021609825122,0.029454997008731873,0.10448906582226788
1021,4.0,300.07037,408.16468,0.0,0.0,0.0,0.0,0.0,0.010176112585081054,-0.09054666845251041,0.0017735286336586482,-0.035298731535713564,-0.01002636082287477,0.016144461388084282,0.1121357299544349
1022,4.0,300.60924,-11.194834,0.0,0.0,0.0,0.0,0.0,0.010186079394664871,-0.014567775331477486,0.03629913362444557,-0.018328408494623083,-0.03728970313420717,-0.00989429299424069,0.13575867318333787
1023,4.0,300.12467000000004,-136.96933,0.0,0.0,0.0,0.0,0.0,0.010196046204248715,0.012862433869923386,0.045593325193960865,-0.016820502868054383,0.005684705531736754,0.00824431531550057,0.14381504499343986
1024,4.0,300.79702000000003,315.11009,0.0,0.0,0.0,0.0,0.0,0.010206013013832532,-0.026902479165067973,0.009482461645421101,-0.07836558245333082,0.02873253347543027,-0.015634326439737885,0.13221027133313787
1025,4.0,300.79939,556.64438,0.0,0.0,0.0,0.0,0.0,0.010215979823416321,-0.09818737264758921,-0.026826512765320675,-0.04419210669692136,0.007414798058783593,-0.008332987972826882,0.1092501861871539
1026,4.0,301.70647,373.78301,0.0,0.0,0.0,0.0,0.0,0.010225946633000166,-0.07728160749635082,-0.024197631327870277,-0.012141461840768988,0.004862132381930105,-0.014805405784679787,0.09652803476707532
1027,4.0,301.62342,234.50775,0.0,0.0,0.0,0.0,0.0,0.010235913442583983,-0.06859216614301973,-0.001816563290580838,-0.0008757717488794423,-0.004922709843133636,0.02935915773477327,0.12753569265929288
1028,4.0,300.87635,359.66569,0.0,0.0,0.0,0.0,0.0,0.0102458802521678,-0.07075577934655172,-0.021337066202054483,-0.017236544372364482,-0.009212836705736192,0.04361788773275036,0.13531287353684088
1029,4.0,300.01898,664.7212900000001,0.0,0.0,0.0,0.0,0.0,0.010255847061751644,-0.0968186207102539,-0.015215204655123786,-0.09002484769076072,-0.015239203483742287,0.019396563577791782,0.14067614817115487
1030,4.0,301.0197,462.80287000000004,0.0,0.0,0.0,0.0,0.0,0.010265813871335433,-0.07395827483786342,-0.016402853335835587,-0.05031938710538685,-0.002592981378457338,-0.012546629145005888,0.1096186849835219
1031,4.0,299.73525,-154.76557,0.0,0.0,0.0,0.0,0.0,0.01027578068091925,-0.008809094943064982,0.04543921492000136,0.01041474688160549,0.014571648986609786,-0.004409980569231196,0.1104549810860579
1032,4.0,299.62133,-142.13973000000001,0.0,0.0,0.0,0.0,0.0,0.010285747490503094,-0.02488969533167168,0.061547044277220346,0.006549580961293313,0.025341890612799876,-0.019689442505946682,0.11107097635185188
1033,4.0,299.33724,251.7696,0.0,0.0,0.0,0.0,0.0,0.010295714300086911,-0.06563481536765194,0.015262311665522884,-0.026159168010958873,0.0026362911327816774,-0.02045076823358368,0.09773080620552961
1034,4.0,299.37532000000004,298.51507000000004,0.0,0.0,0.0,0.0,0.0,0.010305681109670756,-0.08158533359384551,0.026229403468140573,-0.035385196219746964,-0.007604081587439424,-0.003193480909147027,0.10088088728241841
1035,4.0,299.43318999999997,236.51202,0.0,0.0,0.0,0.0,0.0,0.010315647919254545,-0.025733904917488677,0.0025293323509006675,-0.04868917712549766,0.006713825256127963,0.008135766946862681,0.1114625367204959
1036,4.0,299.92895,74.00045,0.0,0.0,0.0,0.0,0.0,0.010325614728838362,-0.014339398891438485,0.02034055296720628,-0.02849544308453127,0.02101190411246348,0.02662576866875877,0.11802081825774788
1037,4.0,299.92748,297.68637,0.0,0.0,0.0,0.0,0.0,0.010335581538422206,-0.05270738960981436,-0.016341767527056884,-0.021440066114469778,0.0044590673690006865,0.0028950679129209574,0.1060799799367789
1038,4.0,301.71331000000004,606.07206,0.0,0.0,0.0,0.0,0.0,0.010345548348006023,-0.1016225711568669,-0.03142791147719337,-0.05118029606610195,-0.0018206802270621482,-0.009891843158148911,0.12397977249335089
1039,4.0,301.44186,383.64347999999995,0.0,0.0,0.0,0.0,0.0,0.01035551515758984,-0.08804235294260372,0.004519516654066566,-0.03309520134449207,0.005211309410816195,0.0022705319620340576,0.13257548719918189
1040,4.0,300.41604,114.30917,0.0,0.0,0.0,0.0,0.0,0.010365481967173656,-0.04421195322663005,0.03358009623284747,-0.02411527739949258,-0.008174387886349273,0.0012310176088419788,0.13385169596513388
1041,4.0,300.94656000000003,259.75012000000004,0.0,0.0,0.0,0.0,0.0,0.010375448776757473,-0.04259854090689866,0.00891895243083207,-0.04527796021958676,-0.01126441383246109,-0.011829932018023388,0.12430960566590289
1042,4.0,298.95797999999996,391.57927,0.0,0.0,0.0,0.0,0.0,0.01038541558634129,-0.06215274289549814,0.015382277437612587,-0.07225985590099253,-0.01991955160365668,-0.02435991245063618,0.1164233585475909
1043,4.0,300.19007,380.21574,0.0,0.0,0.0,0.0,0.0,0.010395382395925135,-0.08074490241765142,0.026651860872083873,-0.06148305044065464,-0.005922703693400344,-0.009430077223201161,0.11029463425773291
1044,4.0,299.68433999999996,228.87667000000002,0.0,0.0,0.0,0.0,0.0,0.010405349205508951,-0.05521065336611724,0.005347644744896444,-0.01970978451495428,0.03459499286425997,-0.0055084322356899335,0.11846420636900688
1045,4.0,298.13616,40.461006,0.0,0.0,0.0,0.0,0.0,0.01041531601509274,-0.06068270546491674,0.030965905908596967,0.017417663840989583,0.007301611740462973,-0.02134883003571548,0.11889308473883388
1046,4.0,299.03522999999996,185.89279,0.0,0.0,0.0,0.0,0.0,0.010425282824676585,-0.05140338131411875,0.014212685886932884,-0.01931607200309788,0.007120198935933924,-0.014361734976642884,0.11670503194288989
1047,4.0,299.99629,225.94307,0.0,0.0,0.0,0.0,0.0,0.010435249634260402,-0.05245562938396754,0.02260749944243648,-0.038832921540010966,0.015882975987777683,0.0017609530853425384,0.12883293649732086
1048,4.0,299.03307,140.03155,0.0,0.0,0.0,0.0,0.0,0.010445216443844219,-0.029956565940732868,0.02192032943661808,-0.03452986013458187,0.026231110794559077,0.024077049499719776,0.12778886332927886
1049,4.0,300.19202,107.46223,0.0,0.0,0.0,0.0,0.0,0.010455183253428063,-0.03941471961492997,0.008897338286323922,-0.002148452651560768,-0.00888140077417601,0.006392648684480305,0.11184854447859191
1050,4.0,299.57353,104.00350999999999,0.0,0.0,0.0,0.0,0.0,0.010465150063011852,-0.03810434202910576,0.02301415419782018,-0.016524282241069683,-0.02152255581836088,0.023660807371889876,0.11335359577962889
1051,4.0,299.93235,227.43909,0.0,0.0,0.0,0.0,0.0,0.010475116872595669,-0.055255059051749746,0.015855719560087685,-0.02973646572751067,-0.02933870528150477,0.006009197356386604,0.11788477929932188
1052,4.0,300.75816000000003,447.93703,0.0,0.0,0.0,0.0,0.0,0.010485083682179513,-0.06201125366478424,-0.016326107746761385,-0.05782431072081514,-0.011209741896815388,0.00047281451536315954,0.1023403068652019
1053,4.0,300.34134,385.33448,0.0,0.0,0.0,0.0,0.0,0.01049505049176333,-0.05998561574061934,-0.013896258013203886,-0.04325018636421105,-0.006275843340777514,-0.028356661258084576,0.09335631472105091
1054,4.0,299.77312,127.43956999999999,0.0,0.0,0.0,0.0,0.0,0.010505017301347175,-0.044820106949900164,0.01264092929206259,-0.006559270874649635,0.008633157336776292,-0.015246681269480285,0.10816693063774489
1055,4.0,300.33518,77.13902,0.0,0.0,0.0,0.0,0.0,0.010514984110930964,-0.05178989873701505,0.03801684281672026,-0.00967528060632585,0.011741879571083289,0.015387508847878885,0.13313536867443787
1056,4.0,299.55265,91.133848,0.0,0.0,0.0,0.0,0.0,0.01052495092051478,-0.04848458571830605,0.03662820888592276,-0.015846037955382183,-0.0008311361365342501,0.016184387495024682,0.1283045974976779
1057,4.0,299.91787999999997,357.13692000000003,0.0,0.0,0.0,0.0,0.0,0.010534917730098625,-0.07568368675739832,0.009541308678103851,-0.04241832829711306,-0.008684531953946572,-0.012670518221482789,0.1283139497961009
1058,4.0,299.71428,429.28289,0.0,0.0,0.0,0.0,0.0,0.010544884539682442,-0.05973196580333604,-0.010811531567765091,-0.059947781995135445,-0.009049195497361062,0.0016831413545131183,0.0984509179853491
1059,4.0,299.08437000000004,190.95571999999999,0.0,0.0,0.0,0.0,0.0,0.010554851349266259,-0.04927893225345195,0.007923277863091643,-0.016690116831936285,0.012337980684413887,-0.009029724376814412,0.13626166066547887
1060,4.0,298.21245,256.45279,0.0,0.0,0.0,0.0,0.0,0.010564818158850076,-0.045632592688336256,-0.0026400179679744876,-0.02968263276294777,-0.008769309677888481,-0.0014135807562095585,0.10946021266788189
1061,4.0,299.07327999999995,546.92598,0.0,0.0,0.0,0.0,0.0,0.010574784968433892,-0.09294972076067322,-0.010632912800386791,-0.06266920761721924,-0.0038234127207914565,-0.013413021815262187,0.14358720557595386
1062,4.0,299.24053,395.27401000000003,0.0,0.0,0.0,0.0,0.0,0.01058475177801771,-0.056017507460497544,-0.015163774106547985,-0.04897214646767455,0.0029532531919633973,-0.007642357515266962,0.11205856082681889
1063,4.0,300.23826,113.26106999999999,0.0,0.0,0.0,0.0,0.0,0.010594718587601554,-0.03197555289124137,0.03043661749361027,-0.03288960377995117,-0.003941051564026506,0.024098663137602876,0.15206831156297385
1064,4.0,300.81479,-49.257135999999996,0.0,0.0,0.0,0.0,0.0,0.01060468539718537,-0.02608435874282577,0.04537860128576925,-0.004321303250954426,-0.01113643629183069,-0.009528531087717802,0.10085081908570091
1065,4.0,300.05726,163.35251,0.0,0.0,0.0,0.0,0.0,0.01061465220676916,-0.052774123274650454,0.008465292800659352,-0.005346254869734275,0.001072439813866569,-0.041036840819270864,0.13604737853433085
1066,4.0,299.75652,416.63215,0.0,0.0,0.0,0.0,0.0,0.010624619016353004,-0.0976105729354135,-0.0031292567608335966,-0.02590594059896727,-0.008013875087657892,0.01887953852876538,0.0961327091610597
1067,4.0,300.2736,468.80147999999997,0.0,0.0,0.0,0.0,0.0,0.010634585825936821,-0.08202038367003162,-0.03430428837081967,-0.026179272919443074,0.029852424095454872,0.012621769745921687,0.12921314846484488
1068,4.0,300.97636,194.3279,0.0,0.0,0.0,0.0,0.0,0.010644552635520638,-0.04786498429540616,-0.008102647955419092,-0.0031031977921117775,-0.012761329748445188,0.004614238313164865,0.11110896309810088
1069,4.0,300.36261,207.36135,0.0,0.0,0.0,0.0,0.0,0.010654519445104482,-0.018331700544197985,-0.012399120195447888,-0.03230184982094437,-0.0024009349194288277,-0.010886771467190689,0.12565369205605387
1070,4.0,299.83943,432.70599000000004,0.0,0.0,0.0,0.0,0.0,0.010664486254688271,-0.047272380921420755,-0.048711077513159055,-0.035548356843599666,0.015469960048266184,-0.02523908828415408,0.11098173941554489
1071,4.0,299.42192,391.15852,0.0,0.0,0.0,0.0,0.0,0.010674453064272088,-0.07134058272126734,0.002590814137818448,-0.05015265376168155,0.026649178799069178,-0.004216908701101486,0.13486056882470188
1072,4.0,299.36512999999997,10.001526,0.0,0.0,0.0,0.0,0.0,0.010684419873855933,-0.02003878986217458,0.03019527753179187,-0.013196703051413187,0.018592670200203682,-0.018959077648365283,0.12403021208332889
1073,4.0,298.72055,-3.0638601000000003,0.0,0.0,0.0,0.0,0.0,0.01069438668343975,-0.02048873572808078,0.023224286056558578,-0.0018042137983620384,-0.004234529626965536,-0.014038484889990587,0.12508698127512388
1074,4.0,299.50562,348.49842,0.0,0.0,0.0,0.0,0.0,0.010704353493023594,-0.05372758857900015,0.01063872074995999,-0.06284594984541235,-0.026355082957544174,0.03876720011202476,0.12153476960454788
1075,4.0,299.56408999999996,553.18885,0.0,0.0,0.0,0.0,0.0,0.010714320302607383,-0.07499025891896234,-0.02494265082164798,-0.06822268652055494,-0.036426384664754265,0.01767857168873918,0.13804841575931787
1076,4.0,299.99187,596.04005,0.0,0.0,0.0,0.0,0.0,0.0107242871121912,-0.07786053300723633,-0.04061324350896506,-0.06270751657700004,-0.012280964088036788,0.015123543011327484,0.12013456942385889
1077,4.0,300.7982,294.84361,0.0,0.0,0.0,0.0,0.0,0.010734253921775044,-0.09493718752707091,-0.003874692801727406,0.00918678401916499,0.002980061560459177,-0.007010811494888223,0.1154210819461739
1078,4.0,300.59046,130.51073,0.0,0.0,0.0,0.0,0.0,0.010744220731358861,-0.029298989930585172,-0.031048141286712967,0.02067512815022628,0.05104698376369505,0.0047643465532043955,0.0942097671742801
1079,4.0,300.58628,253.10005,0.0,0.0,0.0,0.0,0.0,0.010754187540942678,-0.06762370980344053,0.009786758483652862,-0.01909914326268868,0.023029004391285777,0.0016226793024959785,0.13586919850424586
1080,4.0,300.17081,403.87526,0.0,0.0,0.0,0.0,0.0,0.010764154350526495,-0.04036680081964306,-0.01111814510102549,-0.07128304734083904,-0.007219050906414853,-0.012458857368343488,0.13429801236918187
1081,4.0,299.70867999999996,141.77966999999998,0.0,0.0,0.0,0.0,0.0,0.010774121160110312,-0.02489094568229508,0.02115764798034728,-0.03936418275294236,-0.01002682093974518,-0.01179669133524279,0.13637867078702687
1082,4.0,299.90775,-59.529212,0.0,0.0,0.0,0.0,0.0,0.010784087969694128,0.003914706554801456,0.04913929625717096,-0.03495860880839607,-0.0002983366883610387,0.02030839443553248,0.13846860044328688
1083,4.0,301.05969,333.58429,0.0,0.0,0.0,0.0,0.0,0.010794054779277973,-0.08984127919664392,-0.0019486414543659382,-0.009611373199993679,0.008057047242618654,0.004135401849807386,0.13056704311596387
1084,4.0,299.92534,646.32109,0.0,0.0,0.0,0.0,0.0,0.01080402158886179,-0.10416970965574991,-0.012988828713897588,-0.07930693941898552,-0.016254250076169586,-0.023698328023092876,0.13970027686734388
1085,4.0,300.00293,546.79179,0.0,0.0,0.0,0.0,0.0,0.010813988398445579,-0.1079804419568399,-0.016282652489722684,-0.041947959362191256,0.003929105446672516,-0.02084029703577718,0.1025406061449699
1086,4.0,299.96718,120.44595,0.0,0.0,0.0,0.0,0.0,0.010823955208029423,-0.014976390725804685,0.0014678954198699987,-0.023104065958693777,-0.004641183065124105,0.014204069208082485,0.10519882725231591
1087,4.0,299.84965,-123.73463999999998,0.0,0.0,0.0,0.0,0.0,0.01083392201761324,-0.01699661080168488,0.04448591477541796,0.01012293672965607,-0.004179925579076536,0.02369921765668068,0.12944437213766488
1088,4.0,299.20878,96.094452,0.0,0.0,0.0,0.0,0.0,0.010843888827197057,-0.04030993722403106,0.01047787236283549,0.0006217508404695304,0.0006737180265632924,0.029278045037768076,0.12109669092381288
1089,4.0,298.55137,317.54834,0.0,0.0,0.0,0.0,0.0,0.010853855636780901,-0.09311028543776972,0.004759001050976836,-0.008175482905732341,-0.015814436711263383,0.0018843454666204185,0.12471332503574686
1090,4.0,297.94399,135.60231000000002,0.0,0.0,0.0,0.0,0.0,0.01086382244636469,-0.04191185320812786,0.013819631987641487,-0.013127495029832887,0.02094141027650628,0.019521836753905283,0.1136410041704939
1091,4.0,299.77724,39.731225,0.0,0.0,0.0,0.0,0.0,0.010873789255948507,-0.03376771874061437,0.030484724581858073,-0.008794305949905422,0.008842696748181222,-0.013216697515636486,0.13282695560899987
1092,4.0,299.74422000000004,343.22087999999997,0.0,0.0,0.0,0.0,0.0,0.010883756065532352,-0.035350274555050465,-0.007350888321976192,-0.06162941543084974,-0.004389648490074576,-0.03811268614367926,0.1166882221237309
1093,4.0,300.22623,675.23409,0.0,0.0,0.0,0.0,0.0,0.010893722875116169,-0.10658449742657089,-0.03864540339700436,-0.06002439890144694,-0.003942752304319356,-0.04129216464571936,0.1355440161496529
1094,4.0,300.85468,521.83934,0.0,0.0,0.0,0.0,0.0,0.010903689684699985,-0.06911015479289123,-0.02128674414908808,-0.06822922907645064,0.004610203044641615,0.013610358351737788,0.11566470780021788
1095,4.0,300.02866,176.54023,0.0,0.0,0.0,0.0,0.0,0.010913656494283802,-0.06250046297206543,0.02100107652189488,-0.012164434247036188,0.0016941923667287682,0.03636705988464937,0.14256577854764685
1096,4.0,299.56071000000003,143.4492,0.0,0.0,0.0,0.0,0.0,0.010923623303867619,-0.03508469359783967,-0.002704515693814917,-0.005815763960621214,-0.01101062102691369,-0.005367518835007865,0.1093171214887599
1097,4.0,299.13811,189.27773,0.0,0.0,0.0,0.0,0.0,0.010933590113451463,-0.06781305483637744,0.026409889655453177,-0.016132537460907485,0.0017518252218166885,-0.016470692456530784,0.11791449792475489
1098,4.0,299.40984,227.9095,0.0,0.0,0.0,0.0,0.0,0.01094355692303528,-0.03261612453821087,-0.00978921247407005,-0.026873460695454075,-0.005170126671101775,-0.0051568647471679245,0.11146708621344488
1099,4.0,299.98399,197.04436,0.0,0.0,0.0,0.0,0.0,0.010953523732619097,-0.054195286586658356,0.01886790033811678,-0.024569180007039275,0.016574818089807184,0.005754263631226604,0.13544123205950886
1100,4.0,300.51294,35.572399,0.0,0.0,0.0,0.0,0.0,0.010963490542202914,-0.043322963052643555,0.036450471646131466,-0.003940629545359856,0.0016249421939443084,0.0005453985849516495,0.13720317265839888
1101,4.0,300.97036,312.91513,0.0,0.0,0.0,0.0,0.0,0.01097345735178673,-0.07499888370381352,-0.007059189627537774,-0.013060311481952388,0.02485583251332968,0.016779707392528185,0.13618164430508187
1102,4.0,301.9146,567.2900599999999,0.0,0.0,0.0,0.0,0.0,0.010983424161370547,-0.09610971446329031,-0.003652036158502906,-0.07268026248673343,0.014433220784447984,0.019752634861683282,0.13394129767147686
1103,4.0,300.23657000000003,482.72549000000004,0.0,0.0,0.0,0.0,0.0,0.010993390970954364,-0.07333782836438013,-0.008535283253966871,-0.06486338449676764,0.007187806225006243,0.01136846144547979,0.11910560381480789
1104,4.0,300.32627,261.75025,0.0,0.0,0.0,0.0,0.0,0.011003357780538209,-0.023086118259672477,-0.01618211984130088,-0.04029730300853416,-0.020328353436002283,-0.014738595112836088,0.10611529170276389
1105,4.0,299.18493,77.626175,0.0,0.0,0.0,0.0,0.0,0.011013324590121998,-0.04436121003261055,0.015656295728406086,0.005108495429794245,-0.013995957770043485,-0.05154660421575375,0.1087797341657239
1106,4.0,299.56323,149.72593999999998,0.0,0.0,0.0,0.0,0.0,0.011023291399705842,-0.030631164552560573,-0.002987783134171237,-0.011893999821846388,0.0014489893889041187,-0.013516064284181686,0.1164288300981309
1107,4.0,300.09795,148.1914,0.0,0.0,0.0,0.0,0.0,0.011033258209289631,-0.06956026379206354,0.024223331403406677,0.00029044726976991376,0.016937155312317084,0.014318942385169588,0.13803377429537286
1108,4.0,299.99293,-98.835941,0.0,0.0,0.0,0.0,0.0,0.011043225018873476,0.0016562268987318682,0.03114612561113327,-0.0027586938726868876,0.029864196035116673,0.007842638353883144,0.11747810123918588
1109,4.0,299.68375,-49.518752,0.0,0.0,0.0,0.0,0.0,0.011053191828457293,-0.026835980574255073,0.025248480099330974,0.016639965004986684,-0.0037471390022888267,0.0007062168684156784,0.12020588196589689
1110,4.0,300.33441,243.88082000000003,0.0,0.0,0.0,0.0,0.0,0.01106315863804111,-0.016788220719868383,0.0014351501150632888,-0.05878060805919435,0.007109291197282415,-0.0031029497484872967,0.11495384192756089
1111,4.0,299.83283,501.15457000000004,0.0,0.0,0.0,0.0,0.0,0.011073125447624926,-0.13099655983335387,-0.007457013097699893,-0.013884901506083087,0.017364871484279384,0.004089472236024486,0.13341400231943687
1112,4.0,300.52879,614.62086,0.0,0.0,0.0,0.0,0.0,0.011083092257208743,-0.08275360589289503,-0.03534813558408937,-0.06872765389339135,0.0014521580246168386,-0.008657458113924592,0.12415571324071488
1113,4.0,300.03434,442.50464000000005,0.0,0.0,0.0,0.0,0.0,0.011093059066792588,-0.1068343041062249,0.0007538417914708923,-0.028429901001812773,-0.007073844973009144,-0.015537981553979384,0.13283711850750288
1114,4.0,299.58332,329.23919,0.0,0.0,0.0,0.0,0.0,0.011103025876376404,-0.028550263967941678,-0.0004320745152799346,-0.07109815554209163,0.006710070759207425,0.007146722175851564,0.14505282118309887
1115,4.0,300.60239,358.38905,0.0,0.0,0.0,0.0,0.0,0.011112992685960221,-0.08140047117935102,0.027033953431793475,-0.05457480447786385,-0.022757851571775078,0.02286857852945298,0.13252305150650687
1116,4.0,300.13559,205.43900000000002,0.0,0.0,0.0,0.0,0.0,0.011122959495544038,-0.011079792571490388,0.0012270044291709087,-0.05259553693127535,0.013977774996998989,-0.0025536047570461676,0.12978623258890387
1117,4.0,300.88261,-77.84481600000001,0.0,0.0,0.0,0.0,0.0,0.011132926305127855,-0.06923528104774024,0.039316315804968256,0.053581845724366445,-0.0097858266988609,0.0006933077986966522,0.0973973810613731
1118,4.0,300.63857,-48.45726,0.0,0.0,0.0,0.0,0.0,0.011142893114711672,-0.03237388582355377,0.04191382803257276,0.005189854447898755,0.04104132343771326,0.006950579551968793,0.14078044200394788
1119,4.0,300.0179,162.63687,0.0,0.0,0.0,0.0,0.0,0.011152859924295516,-0.07171001066797703,0.002201494369120578,0.02007096967210048,0.011058387663127889,0.02014593700724918,0.13401258994851287
1120,4.0,300.2481,549.70798,0.0,0.0,0.0,0.0,0.0,0.011162826733879333,-0.05446660861893575,-0.02093672399479378,-0.0916941660847596,0.013594509093673587,0.015435273457592883,0.13478562884730588
1121,4.0,300.36973,671.8534099999999,0.0,0.0,0.0,0.0,0.0,0.011172793543463122,-0.07949765537930772,-0.03363286731130557,-0.09109613878298892,-0.03953226979878126,-0.011358576177504189,0.12517628913893789
1122,4.0,299.58065,339.33808999999997,0.0,0.0,0.0,0.0,0.0,0.011182760353046967,-0.02408971411271968,-0.02111528703341658,-0.057945304941756356,-0.015126467251116086,0.00985184521177642,0.12695352981433788
1123,4.0,299.38457999999997,278.85125,0.0,0.0,0.0,0.0,0.0,0.011192727162630783,-0.0973734825445145,0.032151133934819866,-0.01954146847459278,-0.012787700595547787,0.002618770012052478,0.13309453469540788
1124,4.0,300.613,418.71732000000003,0.0,0.0,0.0,0.0,0.0,0.011202693972214628,-0.09290256207451901,0.00997776342290358,-0.044354813384729255,0.0024790116151593975,-0.02116998430031478,0.13281781609309787
1125,4.0,300.06654,266.15549,0.0,0.0,0.0,0.0,0.0,0.011212660781798417,-0.08232114568396452,0.019450250634340284,-0.018033729021040484,0.007838784659777812,-0.021953556947147377,0.13538638483159587
1126,4.0,300.09819,136.77893,0.0,0.0,0.0,0.0,0.0,0.011222627591382234,-0.023349551126671277,0.03195479544969277,-0.050182624686389454,0.01254860903570129,0.002101587402635528,0.1267045236022629
1127,4.0,300.25425,106.98026999999999,0.0,0.0,0.0,0.0,0.0,0.01123259440096605,-0.03837923272823536,0.023943268062516575,-0.018083367130189383,0.022755667004559478,0.027326668213432173,0.12065490374771187
1128,4.0,300.23272000000003,85.729325,0.0,0.0,0.0,0.0,0.0,0.011242561210549895,-0.024825122929298876,0.03554092364086607,-0.03677537434369686,-0.03439754892327376,0.006332259383820344,0.1135428303683049
1129,4.0,300.0198,326.09477000000004,0.0,0.0,0.0,0.0,0.0,0.011252528020133712,-0.08189727175638142,-0.008008213552724143,-0.009219181677862393,-0.004428191713278496,0.01035115429207939,0.12018424907626188
1130,4.0,300.694,483.19368,0.0,0.0,0.0,0.0,0.0,0.011262494829717501,-0.08559181162875411,-0.035618761513548064,-0.025668241244758177,-0.016006909647258986,0.01091296904852619,0.12420223155280588
1131,4.0,300.08873,388.24026000000003,0.0,0.0,0.0,0.0,0.0,0.011272461639301345,-0.11160949851499989,0.028682663332008473,-0.035088511524216465,0.023071366351466577,-0.007123576503817263,0.15679610613207087
1132,4.0,299.8661,295.90502999999995,0.0,0.0,0.0,0.0,0.0,0.011282428448885162,-0.04067145168745976,-0.0002136806152261348,-0.049062607410102356,-0.011238912353944289,-0.03478030414854876,0.13166053249138288
1133,4.0,300.14926,222.58182999999997,0.0,0.0,0.0,0.0,0.0,0.011292395258469007,-0.038971024488890664,0.03153550445231197,-0.060223798415126144,0.010399818667882189,-0.00917729898497889,0.14626603619033388
1134,4.0,300.12067,233.64636000000002,0.0,0.0,0.0,0.0,0.0,0.011302362068052824,-0.03438978742750777,0.02053111491351328,-0.057163987789646355,-0.002232916470621698,0.016178326232926487,0.1133638498706409
1135,4.0,300.32196,219.69632000000001,0.0,0.0,0.0,0.0,0.0,0.011312328877636613,-0.09672655984591821,0.03079775908100217,-0.0008533947081060001,-0.005899420624652484,0.021920304105365582,0.13700913526424888
1136,4.0,299.62036,64.335255,0.0,0.0,0.0,0.0,0.0,0.011322295687220457,-0.05183494682321095,0.05972944281058704,-0.02745080756268377,-0.010242548066860792,-0.006625136893425103,0.1005415396914274
1137,4.0,300.23573999999996,92.791975,0.0,0.0,0.0,0.0,0.0,0.011332262496804274,-0.050096115419351654,0.016618539831622182,0.0052711317980452055,-0.013067922003453487,0.0016695641071481485,0.10893697031624189
1138,4.0,300.63552999999996,272.37982999999997,0.0,0.0,0.0,0.0,0.0,0.01134222930638809,0.0031825743863956374,-0.006989743694833994,-0.07898949829515653,0.009773890815332921,-0.004705442981166066,0.1166265557226449
1139,4.0,300.64771,485.63800000000003,0.0,0.0,0.0,0.0,0.0,0.011352196115971935,-0.07485417132453152,-0.017044511186912283,-0.05572314209444595,0.0013007294183719988,0.006842880489564724,0.12274844057432789
1140,4.0,301.27616,392.71071,0.0,0.0,0.0,0.0,0.0,0.011362162925555724,-0.052862092635082354,-0.007802852987381633,-0.058709302609907046,0.0029210860476637473,-2.111633574727008e-05,0.12470943415536288
1141,4.0,301.67671,191.8224,0.0,0.0,0.0,0.0,0.0,0.011372129735139541,-0.09308445161322011,0.016321382961545085,0.018453848857003085,-0.0014283268888898887,0.032984872594103466,0.14784635170879884
1142,4.0,300.81863,208.42462,0.0,0.0,0.0,0.0,0.0,0.011382096544723386,-0.04392208061152186,0.01835959227970068,-0.03779339077216726,0.01786926231780888,0.025814331644176177,0.16019874182288485
1143,4.0,300.92134,495.64502000000005,0.0,0.0,0.0,0.0,0.0,0.011392063354307203,-0.11213957017231388,0.007347342858551284,-0.045871478558412455,0.009434292140967141,0.008469523423801882,0.13628392177017587
1144,4.0,300.53353,491.92902999999995,0.0,0.0,0.0,0.0,0.0,0.011402030163891047,-0.050984328430511455,0.010670500326096389,-0.10922031557420589,0.0006732959471016363,-0.04154156703858346,0.14705957313864987
1145,4.0,299.46364,155.19144,0.0,0.0,0.0,0.0,0.0,0.011411996973474836,-0.03345776350852417,0.005434544315872765,-0.019151103741066784,-0.003158807288075007,-0.04353103801367896,0.1053359503883489
1146,4.0,299.09905,70.825162,0.0,0.0,0.0,0.0,0.0,0.011421963783058653,-0.02825493500104497,0.03317832027669527,-0.026452465411405078,-0.015330335197736286,0.001010093481433465,0.13345433980591787
1147,4.0,299.53399,267.16321,0.0,0.0,0.0,0.0,0.0,0.011431930592642497,-0.10707644048262188,0.00959668543051911,0.016268814533106985,-0.013554857577510286,0.03974678193770196,0.1139831280667589
1148,4.0,300.64211,441.21825,0.0,0.0,0.0,0.0,0.0,0.011441897402226314,-0.07699236309630463,-0.023749893333931977,-0.03337707536331087,-0.005359185967510474,0.017283632131011684,0.12258825586601887
1149,4.0,300.53725,139.5211,0.0,0.0,0.0,0.0,0.0,0.011451864211810131,-0.06194057947030924,0.035584266427143664,-0.016054616501717286,-0.007111042397430244,0.027816086250233973,0.11526042101031789
1150,4.0,300.51225,-156.08279,0.0,0.0,0.0,0.0,0.0,0.01146183102139392,0.03909057786818966,0.02882009044307147,-0.02046539855177758,0.01003006242814009,-0.0035350440728066862,0.13265990106501285
1151,4.0,300.90103999999997,17.741471,0.0,0.0,0.0,0.0,0.0,0.011471797830977765,-0.011404420678278689,0.02341109289799498,-0.017399637108460483,0.004639575341190435,-0.01037127946556559,0.13044659807657688
1152,4.0,300.70637999999997,471.29774000000003,0.0,0.0,0.0,0.0,0.0,0.011481764640561581,-0.08317567826180032,-0.008159262798131542,-0.05192780308887515,0.00959848546932176,-0.016444318569677884,0.14358815803104788
1153,4.0,299.47938999999997,450.20362,0.0,0.0,0.0,0.0,0.0,0.011491731450145426,-0.1173743646939479,-0.014920566724795288,-0.004555732847090826,-0.011336028323028888,-0.014262366552585986,0.13606137151821188
1154,4.0,300.20735,161.01925,0.0,0.0,0.0,0.0,0.0,0.011501698259729243,-0.03511045750813237,0.005936196537031984,-0.019771569466301982,0.014982969758703984,0.004984585277715265,0.13494193280773187
1155,4.0,299.11885,-44.139942,0.0,0.0,0.0,0.0,0.0,0.011511665069313032,-0.03402342354910047,0.04217610782095776,0.005264756124440975,-0.022153368853617277,0.02057840430893038,0.11945255078154889
1156,4.0,299.34162000000003,319.26499,0.0,0.0,0.0,0.0,0.0,0.011521631878896876,-0.025755993769668677,-0.006554083034137633,-0.06473850750144323,0.012007718907069588,-0.022889208301488977,0.12275679988765288
1157,4.0,299.65001,392.59889,0.0,0.0,0.0,0.0,0.0,0.011531598688480693,-0.09202419177483061,0.017816138628315985,-0.04513220723245205,-0.0012761326708694888,-0.02938882772420147,0.12708972076027888
1158,4.0,299.04273,123.12085,0.0,0.0,0.0,0.0,0.0,0.01154156549806451,-0.05749636320669924,0.027834484845549772,-0.007763787231101142,0.012318498924741187,0.003488402954803567,0.14599154673824385
1159,4.0,298.87145,70.077443,0.0,0.0,0.0,0.0,0.0,0.011551532307648354,-0.057980777814507244,0.015229443858779085,0.02144954101615488,0.0023298905846922974,0.024690385997251377,0.14408503561508584
1160,4.0,300.27625,266.60179,0.0,0.0,0.0,0.0,0.0,0.011561499117232144,-0.055461742820397855,0.004952725654820965,-0.03053126923845167,-0.00972031582424548,0.028697610797483678,0.15524075709606988
1161,4.0,300.51485,498.80113,0.0,0.0,0.0,0.0,0.0,0.01157146592681596,-0.057843599962968846,-0.03555720960972336,-0.058222277869841445,0.0007472321989485763,0.022705686416876775,0.12291061125283288
1162,4.0,300.17911000000004,477.64000999999996,0.0,0.0,0.0,0.0,0.0,0.011581432736399805,-0.03707873433088617,-0.00901412316237469,-0.09909777887568931,0.01000823489316088,0.008498169625329042,0.16339278984811284
1163,4.0,300.08055,54.824442000000005,0.0,0.0,0.0,0.0,0.0,0.011591399545983622,-0.03694833613576686,0.028846931438220473,-0.008563857109436893,0.017257059647139184,0.002688428625952247,0.13376419168649786
1164,4.0,300.59064,-99.236486,0.0,0.0,0.0,0.0,0.0,0.011601366355567466,-0.02019746786758488,0.027700754070851572,0.022662127808327878,-0.012862189676649288,-0.045315150551257156,0.1276065391062849
1165,4.0,300.58745,377.36657,0.0,0.0,0.0,0.0,0.0,0.011611333165151255,-0.07332773132713363,-0.024585708142670477,-0.016796573953692787,-0.017231703063386682,-0.03431957628832847,0.1081637895624349
1166,4.0,299.41514,624.52476,0.0,0.0,0.0,0.0,0.0,0.011621299974735072,-0.0895073241226851,-0.026603808499341474,-0.07372880104796613,-0.021710981833457082,0.0020111655716615884,0.1259554075383309
1167,4.0,298.77816,272.12737999999996,0.0,0.0,0.0,0.0,0.0,0.011631266784318917,-0.05737652206437185,-0.004580484419208615,-0.02076292323164098,0.005256805758856335,0.031137956788827068,0.1203492264575439
1168,4.0,299.38731,-119.31791000000001,0.0,0.0,0.0,0.0,0.0,0.011641233593902733,0.028912085446150676,0.02154252393808158,-0.014184945125695089,0.006779769193836124,0.019416208470730584,0.1079256149939289
1169,4.0,298.84767,22.383944,0.0,0.0,0.0,0.0,0.0,0.01165120040348655,-0.05889943696467184,0.016968342137144984,0.035126934981258566,-0.009427524440899221,-0.007977876540755113,0.13798091303765586
1170,4.0,299.86048999999997,356.37196,0.0,0.0,0.0,0.0,0.0,0.01166116721307034,-0.07697558266139852,0.027341027993849375,-0.05869362357785965,0.011929114004061887,-0.013583275189814887,0.1326574489997709
1171,4.0,299.93506,322.58642000000003,0.0,0.0,0.0,0.0,0.0,0.011671134022654184,-0.0994250768964911,0.01112005305096379,-0.00975319386481529,0.021604561188704182,0.01165165775567909,0.16904051418299984
1172,4.0,300.06487999999996,101.98105,0.0,0.0,0.0,0.0,0.0,0.011681100832238,-0.016829423521934783,0.007123611562270724,-0.02129387844304218,0.01045618171794479,-0.007644632464391482,0.14947785662231586
1173,4.0,300.09795,168.87994,0.0,0.0,0.0,0.0,0.0,0.011691067641821845,-0.039708501348923966,0.01331840046792379,-0.024945183946897976,-0.018510843161877982,-0.019348148461513583,0.16029018764440986
1174,4.0,300.95197,469.13320999999996,0.0,0.0,0.0,0.0,0.0,0.011701034451405662,-0.038736485461743464,-0.022351382241159682,-0.08151691489409313,-0.019248996872978083,0.003913485081805906,0.13715460758110587
1175,4.0,300.78072000000003,754.46686,0.0,0.0,0.0,0.0,0.0,0.011711001260989451,-0.13842021775101188,-0.01872222537123978,-0.07219664024050364,0.0008521815640262722,0.02719732785141727,0.15156774574857185
1176,4.0,299.99262999999996,469.82885,0.0,0.0,0.0,0.0,0.0,0.011720968070573295,-0.06647777764259584,-0.009408967474592791,-0.06692949365642674,0.002091094285924938,0.008733070585411961,0.1197553808389359
1177,4.0,299.72251,0.83325088,0.0,0.0,0.0,0.0,0.0,0.011730934880157112,-0.04112385468485846,0.023657690614582276,0.017212876876528685,0.005973131833652214,-0.038582106676507466,0.1126265584353759
1178,4.0,299.82034,81.6229,0.0,0.0,0.0,0.0,0.0,0.011740901689740929,-0.03580949571237207,0.03708597602935086,-0.02608780277991568,0.0037463686282377963,-0.011209557485297188,0.15044794226805586
1179,4.0,300.28437,332.58046,0.0,0.0,0.0,0.0,0.0,0.011750868499324774,-0.06197858546831014,-0.005988724942091134,-0.03312884428756237,0.018146358862406183,0.020333007293711583,0.12631281124610388
1180,4.0,300.23635,314.01521,0.0,0.0,0.0,0.0,0.0,0.011760835308908563,-0.04467277835885995,0.0022501462819471477,-0.053030150296668355,-0.008517542663266013,0.00990630355430104,0.15153658830799685
1181,4.0,298.74907,18.048302,0.0,0.0,0.0,0.0,0.0,0.01177080211849238,-0.038594903012020364,0.007596763591242192,0.02551190587357908,-0.011850449319298288,-0.002202543285624098,0.10864628912755389
1182,4.0,296.69919,-17.736654,0.0,0.0,0.0,0.0,0.0,0.011780768928076224,-0.0064672500336928835,0.02094182165604688,-0.009083071791929392,-0.024758850293258274,0.013576771137422988,0.13939673753488688
1183,4.0,298.9925,238.847,0.0,0.0,0.0,0.0,0.0,0.01179073573766004,-0.054242851586102654,0.013869516316564688,-0.032230189734122075,-0.0017332741323608384,0.012771659833214688,0.12415816530595689
1184,4.0,299.48818,369.08476,0.0,0.0,0.0,0.0,0.0,0.011800702547243885,-0.03023458352967107,-0.02279084198178098,-0.05916712649534074,-0.020276245023109582,-0.01899598427000768,0.14507483910777186
1185,4.0,299.62044,262.24577999999997,0.0,0.0,0.0,0.0,0.0,0.011810669356827674,-0.04340667574940536,0.012219396985460589,-0.04852889007892855,0.006238646119006434,-0.040150354386281464,0.11475343119028189
1186,4.0,300.01802000000004,-37.510085,0.0,0.0,0.0,0.0,0.0,0.011820636166411491,-0.028796215230965174,0.04615869341850836,-0.0059603492783406745,0.008582752805251751,-0.003787950588491616,0.12770753987625288
1187,4.0,300.06256,-53.883295999999994,0.0,0.0,0.0,0.0,0.0,0.011830602975995336,-0.06516035290232614,0.05673523202308144,0.024804296586743477,0.025862586666938577,0.03772974144063557,0.13787147189435486
1188,4.0,300.62183,383.96276,0.0,0.0,0.0,0.0,0.0,0.011840569785579153,-0.09533224867481041,0.019407304028851782,-0.04079014684392406,0.016255597698802585,0.009403542736207412,0.1278301938008579
1189,4.0,300.08906,308.54348,0.0,0.0,0.0,0.0,0.0,0.01185053659516297,-0.08763497168689832,0.014078580209697687,-0.02023312109885358,-0.004084266258335696,-0.024370183766899874,0.1320378465636209
1190,4.0,300.05712,19.724815,0.0,0.0,0.0,0.0,0.0,0.011860503404746786,-0.002365493254781008,0.0034058866024348367,-0.007036244579023273,0.01776176965445018,0.0019189422833348578,0.13225218948977488
1191,4.0,299.7774,56.505447,0.0,0.0,0.0,0.0,0.0,0.011870470214330603,-0.04158295019916766,0.03985059042369706,-0.015443886083442885,-0.00033600585163119575,0.01028650184294869,0.14501438860680585
1192,4.0,300.03141,253.44974,0.0,0.0,0.0,0.0,0.0,0.01188043702391442,-0.06598822889653114,0.013134123711987088,-0.024188287135448076,-0.012456633284373988,0.014017887541957786,0.12456038506565288
1193,4.0,298.75727,345.85717999999997,0.0,0.0,0.0,0.0,0.0,0.011890403833498264,-0.07304079308431502,-0.007195717985762073,-0.024895434380238078,-0.016249243607425485,0.001954428125687038,0.14664503225773787
1194,4.0,299.94552999999996,250.09582999999998,0.0,0.0,0.0,0.0,0.0,0.011900370643082081,-0.029638993094390872,0.0003968923541152256,-0.04678078439690396,0.012221981786465688,0.03252456928567507,0.13018815850607088
1195,4.0,298.74695,107.91407,0.0,0.0,0.0,0.0,0.0,0.01191033745266587,-0.06407976118743004,0.04181545056711366,-0.010538873058605791,0.013647215324125288,0.02459232669232368,0.15578973600024987
1196,4.0,299.0677,23.409614,0.0,0.0,0.0,0.0,0.0,0.011920304262249715,0.006644426946178884,0.02535445795379018,-0.03911482291658246,-0.0025235228814523177,-0.028214356361040173,0.13189809910982886
1197,4.0,299.48457,195.00093999999999,0.0,0.0,0.0,0.0,0.0,0.011930271071833531,-0.05213843245341265,0.005388027928956954,-0.012525011454122386,-0.002927798120301177,-0.04940126497777525,0.12774128110458288
1198,4.0,299.62855,245.11418999999998,0.0,0.0,0.0,0.0,0.0,0.011940237881417348,-0.043662571048910255,0.010530459029775391,-0.041376483266040966,0.003488681497256056,-0.004929349772363946,0.12498529149508789
1199,4.0,300.11222999999995,145.17407,0.0,0.0,0.0,0.0,0.0,0.011950204691001165,-0.06755229694964263,0.008977180671678752,0.014445823589191787,0.02100027706756598,0.02293613090036988,0.1337521948053139
1200,4.0,300.11741,54.770511,0.0,0.0,0.0,0.0,0.0,0.011960171500584982,-0.039998341540028966,0.007872949426649612,0.015476524895664085,-0.014671118735676685,0.013977104225432788,0.09609107572770081
1201,4.0,299.48314,240.33173,0.0,0.0,0.0,0.0,0.0,0.011970138310168799,-0.07310578801197952,0.013966786299664488,-0.013915842111136688,-0.018121726752475184,0.022449585427601577,0.13374598358220088
1202,4.0,300.33845,296.04848,0.0,0.0,0.0,0.0,0.0,0.011980105119752643,-0.028759539630345575,-0.016710207554919084,-0.04452159739093955,0.008139477063428841,0.013292826035399786,0.1143241779179179
1203,4.0,300.0577,180.33215,0.0,0.0,0.0,0.0,0.0,0.01199007192933646,-0.056074262638348846,0.029047648177029674,-0.027789857258145374,0.03572265308605137,-0.001968443907695288,0.17341202975193484
1204,4.0,299.99846,222.38688,0.0,0.0,0.0,0.0,0.0,0.012000038738920277,-0.06811760133943384,0.02256282524552748,-0.022045282425699978,0.013913192462125187,-0.022234854426659276,0.14980492362209485
1205,4.0,299.31998,334.13871,0.0,0.0,0.0,0.0,0.0,0.012010005548504094,-0.06567728777209364,-0.004079839165998776,-0.03181269826891887,0.0037493456583566065,-0.057002567929465446,0.16235416796560884
1206,4.0,298.9942,392.73683,0.0,0.0,0.0,0.0,0.0,0.01201997235808791,-0.07760190294571152,-0.006938454393322134,-0.034841830721120966,-0.012903665042992589,0.015179309257081186,0.1325283913345339
1207,4.0,299.80948,520.32403,0.0,0.0,0.0,0.0,0.0,0.012029939167671755,-0.08600785921256482,-0.004797614289762665,-0.06736003882266824,-0.02239287989900518,0.03542083425226417,0.15626381545703785
1208,4.0,300.13712000000004,367.7749,0.0,0.0,0.0,0.0,0.0,0.012039905977255544,-0.05596525820584095,-0.027342835632027773,-0.02848629444937837,-0.029390221956339075,0.01122559824763029,0.13459854234884186
1209,4.0,299.33611,103.81967,0.0,0.0,0.0,0.0,0.0,0.012049872786839388,-0.05126025973749375,0.027136791224192772,-0.007435118688214082,-0.013096847254058188,-0.013505251892364588,0.13879967991346187
1210,4.0,300.83589,315.0032,0.0,0.0,0.0,0.0,0.0,0.012059839596423205,-0.05890565021428504,-0.026969668792449077,-0.00987778846733682,0.010066656056826601,-0.0038019577578740165,0.12624595700450586
1211,4.0,300.4542,449.96210999999994,0.0,0.0,0.0,0.0,0.0,0.012069806406007022,-0.06096952211772334,-0.02623150798859827,-0.04957621577979155,0.05323724341835685,5.543034321304895e-05,0.14838090193155487
1212,4.0,300.86945,100.13639,0.0,0.0,0.0,0.0,0.0,0.012079773215590839,-0.04893011178727605,0.032647320482289674,-0.014156169836105187,-0.0006487900374705914,-0.016765048703331484,0.12798714624134788
1213,4.0,300.61413999999996,-18.866823,0.0,0.0,0.0,0.0,0.0,0.012089740025174656,-0.005599218836699875,0.013054705169149089,-0.0017204433463445384,0.01823938940708758,-0.0009063154740013733,0.12304618411621289
1214,4.0,300.39234,91.53279,0.0,0.0,0.0,0.0,0.0,0.012099706834758472,-0.024186925327313678,0.02573203547105418,-0.02936879374322427,-0.021816962727666582,0.01196674408627569,0.12925099335607987
1215,4.0,299.7463,344.99526000000003,0.0,0.0,0.0,0.0,0.0,0.01210967364434229,-0.058536736998626146,-0.0004180784004561257,-0.04591513038597055,-0.011042517126811589,0.005055435879032675,0.14957670930207187
1216,4.0,300.16472999999996,467.31100999999995,0.0,0.0,0.0,0.0,0.0,0.012119640453926134,-0.07241016952682733,-0.03226316494537647,-0.037377544825126466,-0.03224895005972357,-0.028829975711047076,0.12080733709275587
1217,4.0,300.31145,456.80973,0.0,0.0,0.0,0.0,0.0,0.012129607263509923,-0.1037739544316919,0.01826109119772938,-0.05334588916032935,-0.010704748179476389,-0.009388449058742782,0.15990294372119185
1218,4.0,300.53981,303.17069,0.0,0.0,0.0,0.0,0.0,0.012139574073093767,-0.06536585623460774,-0.02285188624730558,-0.0039385785245074365,-0.004255851144844806,0.028952480687887375,0.11454023323674088
1219,4.0,300.37125,137.69848000000002,0.0,0.0,0.0,0.0,0.0,0.012149540882677584,-0.051156404641994044,0.044617377896392356,-0.03531787385660277,-0.002175223732452868,0.028504641368939074,0.17088730434526384
1220,4.0,300.62417,311.15618,0.0,0.0,0.0,0.0,0.0,0.012159507692261401,-0.08033722427966672,0.033653387652330766,-0.04789987454934955,0.01788561921417318,-0.005084010950402815,0.13760055921511788
1221,4.0,299.77715,258.79861,0.0,0.0,0.0,0.0,0.0,0.012169474501845218,-0.1023890543275129,0.041814838564053255,-0.018094095422248182,0.018842026996813283,-0.02198798515904518,0.16475012954957186
1222,4.0,300.14812,20.24081,0.0,0.0,0.0,0.0,0.0,0.012179441311429035,-0.032693335209080965,0.05208059613770466,-0.025539960742347875,0.04919725314964086,-0.015704138358377785,0.14153167576058887
1223,4.0,300.82193,117.28406000000001,0.0,0.0,0.0,0.0,0.0,0.012189408121012879,-0.04936674354686825,0.02195432499072318,-0.008239005884976572,0.01962829894191228,-0.012289397368619089,0.16379478669278685
1224,4.0,300.00397000000004,287.51212999999996,0.0,0.0,0.0,0.0,0.0,0.012199374930596696,-0.04850647090721596,0.012870757719494886,-0.05176079414114265,-0.02184998454842558,-0.02376912178107968,0.12838744082585388
1225,4.0,300.44462999999996,264.92821000000004,0.0,0.0,0.0,0.0,0.0,0.012209341740180513,-0.057021524825586346,0.026397805634760577,-0.04990784240502055,-0.027362643658232676,-0.00887935512354912,0.15273046037082286
1226,4.0,300.86328,192.71161999999998,0.0,0.0,0.0,0.0,0.0,0.01221930854976433,-0.032550941146027766,-0.00016996701994193881,-0.025858611686796273,-0.028339581914398976,0.032579808641376766,0.13020973060069987
1227,4.0,301.56301,246.06381000000002,0.0,0.0,0.0,0.0,0.0,0.012229275359348146,-0.06642617686800324,0.026822106140635772,-0.03519318532579697,-0.0003311843618253517,0.035914294143714866,0.14806499081537686
1228,4.0,301.09932000000003,109.23423999999999,0.0,0.0,0.0,0.0,0.0,0.012239242168931963,-0.032981312033252067,0.011839569039724489,-0.012062737374249488,-0.011011292811729988,-0.02167570857097588,0.1097877153652039
1229,4.0,299.81166,152.74961000000002,0.0,0.0,0.0,0.0,0.0,0.012249208978515808,-0.07432609171691414,0.029103948405586073,-0.0012099221470600189,0.017411381690369584,-0.018607274173894982,0.12077968549752688
1230,4.0,299.73915,216.39077999999998,0.0,0.0,0.0,0.0,0.0,0.012259175788099597,-0.05812504436374525,0.02340848580548768,-0.031060834270715675,0.038093628935798464,-0.003717695879558017,0.1250231161213209
1231,4.0,300.02717,35.522948,0.0,0.0,0.0,0.0,0.0,0.012269142597683413,-0.020755052304864182,0.026520591281878576,-0.016563627755702786,0.00950389664731157,-0.017076253272794984,0.1480526595616599
1232,4.0,299.41179,99.93478499999999,0.0,0.0,0.0,0.0,0.0,0.012279109407267258,-0.019789583026579783,0.008242116360133552,-0.018830212500647283,0.008128860228881042,-0.048539295144205456,0.13340535929608388
1233,4.0,300.216,382.47828,0.0,0.0,0.0,0.0,0.0,0.012289076216851075,-0.08324338160698212,0.023815946094700877,-0.05683641011181694,-0.00976096843150758,-0.0029384013772976374,0.15986097490204984
1234,4.0,300.35917,336.69246,0.0,0.0,0.0,0.0,0.0,0.01229904302643492,-0.07424333654149683,-0.001136869955925329,-0.026965895449076675,0.014312212378005387,0.016306941107869784,0.11974270508018488
1235,4.0,300.40639,190.60917,0.0,0.0,0.0,0.0,0.0,0.012309009836018708,-0.06703379154222014,0.04208905950486676,-0.03299569613167167,-0.006313340180603165,0.004476088754780566,0.16931150792224484
1236,4.0,300.85945,257.24613,0.0,0.0,0.0,0.0,0.0,0.012318976645602525,-0.056030249080505044,0.00968605145488885,-0.03185220185056757,-0.01686847823378918,-0.023618190072683877,0.12926871510032886
1237,4.0,300.63874,380.45655,0.0,0.0,0.0,0.0,0.0,0.012328943455186342,-0.06838677021524874,0.0016754968891336684,-0.04893801716455625,0.004974542955974165,-0.004486244864507896,0.16449906643979384
1238,4.0,301.75199,224.27614,0.0,0.0,0.0,0.0,0.0,0.012338910264770186,-0.07992872844885132,0.04466625606796625,-0.03291187501714917,0.013391024155591187,0.020756368516744082,0.15874938887984485
1239,4.0,301.23147,227.03101,0.0,0.0,0.0,0.0,0.0,0.012348877074354003,-0.06817419642376935,0.015909977076442487,-0.016747538728353384,0.018051030266497983,0.012171479374981488,0.15235760459902484
1240,4.0,300.64173,281.83653,0.0,0.0,0.0,0.0,0.0,0.012358843883937792,-0.094532952412926,0.029241987519709474,-0.02038030276862928,-0.008504245072928643,-0.02883931686371897,0.11284259348919688
1241,4.0,299.92841,192.13843,0.0,0.0,0.0,0.0,0.0,0.012368810693521637,-0.07558604389826173,0.01946623465466778,-0.002285475678483888,0.014888286603109485,0.002976658762648347,0.1264110863733029
1242,4.0,300.61213,152.67529,0.0,0.0,0.0,0.0,0.0,0.012378777503105454,-0.03910195666681266,0.00889279304902534,-0.016200312746846385,-0.007841534012599153,0.011672717145757489,0.13166554807937786
1243,4.0,300.30658,150.94568,0.0,0.0,0.0,0.0,0.0,0.012388744312689298,-0.03483240952169117,0.029874212012355173,-0.04092551807053416,-0.005049902114936535,-0.004102991018858687,0.15384939245625284
1244,4.0,299.52949,193.55626999999998,0.0,0.0,0.0,0.0,0.0,0.012398711122273115,-0.02142423104190698,-0.005977891170696924,-0.03143415208455927,-0.028803426531926874,-0.022693557813179777,0.1285306535949879
1245,4.0,299.1778,363.90696,0.0,0.0,0.0,0.0,0.0,0.012408677931856904,-0.043642334417913056,-0.025490318580198575,-0.04148597507184696,0.0062653347213403945,0.009306611178641011,0.15111614017900185
1246,4.0,300.08657,295.23966,0.0,0.0,0.0,0.0,0.0,0.012418644741440749,-0.05792052084431034,0.01110073949080769,-0.04292570315218705,0.026528812793189978,0.03749034286600876,0.14491122961412486
1247,4.0,299.70344,87.438188,0.0,0.0,0.0,0.0,0.0,0.012428611551024565,-0.056544407644998546,0.03674605797855357,-0.006780676052675624,0.000914672689898666,-0.001034187292116339,0.1463808982216699
1248,4.0,299.94865,149.17858999999999,0.0,0.0,0.0,0.0,0.0,0.012438578360608382,-0.021687415662631278,0.003922181908739215,-0.027581332414065577,0.0028017442349856274,-0.040377495674448566,0.10722529705481289
1249,4.0,300.5036,351.12264,0.0,0.0,0.0,0.0,0.0,0.012448545170192227,-0.07702638094191193,-0.00959847857922108,-0.02010765641847118,-0.0007695301150217093,-0.016626494858157283,0.14991276383023786
1250,4.0,300.99221,375.95148,0.0,0.0,0.0,0.0,0.0,0.012458511979776016,-0.06347711650495363,-0.009965216549565302,-0.04083752945835036,0.014637731131631587,0.000894437811824139,0.15785372645394985
1251,4.0,300.94214,223.62131000000002,0.0,0.0,0.0,0.0,0.0,0.012468478789359833,-0.08877164172857892,0.03974080072236166,-0.018944452396421882,-0.005766702188129194,0.013348957051189488,0.17682582132634983
1252,4.0,300.53264,141.44342,0.0,0.0,0.0,0.0,0.0,0.012478445598943677,-0.03424955665341807,0.01011208147735974,-0.018857791141869085,-0.015449182341715587,-0.005705340876648305,0.15859033901164785
1253,4.0,299.22972999999996,214.96852,0.0,0.0,0.0,0.0,0.0,0.012488412408527494,-0.06715481109441383,0.01734041669311588,-0.015530668928007684,0.020999631627252283,0.026476539220530972,0.14284269979997685
1254,4.0,299.95362,363.48956,0.0,0.0,0.0,0.0,0.0,0.012498379218111338,-0.043398729842121155,0.014313933889925285,-0.08140695597999102,0.01191771595368699,0.032304383959444474,0.14820416071661185
1255,4.0,299.50265,230.74414,0.0,0.0,0.0,0.0,0.0,0.012508346027695127,-0.08377835536827992,0.015820464536108286,-0.002182566755927568,0.012298831740300189,0.008480426602827941,0.14011482788075688
1256,4.0,299.20711,-53.932444999999994,0.0,0.0,0.0,0.0,0.0,0.012518312837278944,0.015996173249199382,0.04563914638998305,-0.04524120355895916,-0.029254860862229972,-0.03961387594858516,0.15076487676683487
1257,4.0,299.15862999999996,-126.92894,0.0,0.0,0.0,0.0,0.0,0.012528279646862761,-0.018162793779028182,0.01866394930498838,0.03808207281840796,0.0014808047327690486,-0.0008780621500679873,0.1124481757552709
1258,4.0,300.5857,163.68196,0.0,0.0,0.0,0.0,0.0,0.012538246456446606,-0.05671601472168485,0.02982557195455477,-0.022864785934328682,0.022362624251019182,0.02129749371939898,0.16886762331843683
1259,4.0,300.85416000000004,340.35218,0.0,0.0,0.0,0.0,0.0,0.012548213266030422,-0.0925044145669749,0.01031074891784169,-0.02126489847693208,0.003593779445328416,0.017268085834727383,0.12664233031112487
1260,4.0,301.01579,252.45484,0.0,0.0,0.0,0.0,0.0,0.012558180075614211,-0.03593876312037977,0.00024675407121023076,-0.041047957186117964,-0.018144904848512684,-0.008010705337370062,0.14406603717571084
1261,4.0,299.47675,255.86086,0.0,0.0,0.0,0.0,0.0,0.012568146885198056,-0.07825397498131602,0.009779923909078342,-0.009301261319438023,0.004278916162171146,-0.008136971599906572,0.12484919174165589
1262,4.0,299.80348,510.33125,0.0,0.0,0.0,0.0,0.0,0.012578113694781873,-0.06131635864020344,-0.012902872681414388,-0.08090872570706951,0.012813318597826088,0.023234129781280078,0.16046898575705584
1263,4.0,299.46898999999996,380.44503,0.0,0.0,0.0,0.0,0.0,0.012588080504365717,-0.09270445344146722,-0.0008971157001159261,-0.02204421851309498,0.012848004175249289,-0.018194284578886083,0.14795324959434886
1264,4.0,298.01531,170.8254,0.0,0.0,0.0,0.0,0.0,0.012598047313949534,-0.045553650373045255,0.01834601979461118,-0.024719025511327875,-0.006489629182026535,-0.026447978739962276,0.14957503743940687
1265,4.0,298.03426,111.00877,0.0,0.0,0.0,0.0,0.0,0.012608014123533323,-0.01884601514920688,-0.01314217905028209,-0.0017556989782739985,-0.002848254643725847,-0.003584359563123747,0.12601058913877689
1266,4.0,298.60954,147.65472,0.0,0.0,0.0,0.0,0.0,0.012617980933117168,-0.01986212261448888,0.02053531179542748,-0.045556536109330054,0.029734270014543974,0.027553448784563676,0.14604477276599687
1267,4.0,300.42683999999997,268.3577,0.0,0.0,0.0,0.0,0.0,0.012627947742700985,-0.061070452973434435,0.005170559126244455,-0.025674147479591077,0.004300836308209496,0.008617808725586502,0.14408585634766685
1268,4.0,300.42229,352.54058,0.0,0.0,0.0,0.0,0.0,0.012637914552284801,-0.05028300129429586,0.002195309693160198,-0.059075841780581645,-0.01005492130344347,-0.022914902297524777,0.15539317017611184
1269,4.0,300.38916,315.34644,0.0,0.0,0.0,0.0,0.0,0.012647881361868646,-0.08308412402251462,0.01202426122820219,-0.024797579751830577,-0.017721655082991183,-0.008625490681219653,0.15082300692507186
1270,4.0,299.56066,384.26493999999997,0.0,0.0,0.0,0.0,0.0,0.012657848171452435,-0.08018513746615692,-3.1762219162186966e-05,-0.036590045834156364,-0.0016654381527409486,0.004016587433806317,0.15608864477974985
1271,4.0,300.3089,482.53515,0.0,0.0,0.0,0.0,0.0,0.012667814981036252,-0.09329601924735022,0.002782338165095398,-0.05616495561504954,-0.004100874035424756,-0.017011931143196882,0.15143095698507186
1272,4.0,299.7125,253.42942999999997,0.0,0.0,0.0,0.0,0.0,0.012677781790620096,-0.08912114005907174,0.037189774382844966,-0.02510485189765598,-0.009591457667953171,-0.024610799254896773,0.15323226235034684
1273,4.0,300.18924,4.4804452,0.0,0.0,0.0,0.0,0.0,0.012687748600203913,-0.03137030314275787,0.02051707734662788,0.00949128249416665,0.01050463229797649,0.004807294374593016,0.13591513926377988
1274,4.0,299.34414,-162.7137,0.0,0.0,0.0,0.0,0.0,0.012697715409787758,-0.009913480810059381,0.05718957438117154,0.002184809382373898,0.050929363665586855,0.022395340070247977,0.13227783484980588
1275,4.0,299.85337000000004,9.683769900000001,0.0,0.0,0.0,0.0,0.0,0.012707682219371547,-0.05071333874426686,0.03405673718588827,0.013712977282115485,0.02573729423907318,0.0002055672987604128,0.11786565926993489
1276,4.0,299.18093999999996,255.8721,0.0,0.0,0.0,0.0,0.0,0.012717649028955363,-0.06216923455412574,0.011121503011856888,-0.02673099874464418,0.003069653032976167,-0.015091387519403986,0.12618957976894188
1277,4.0,299.3664,390.06559,0.0,0.0,0.0,0.0,0.0,0.012727615838539208,-0.06314103360578484,-0.004609730971420025,-0.050819434135737654,-0.011974791318569888,-0.0014000871019778387,0.14367418296453785
1278,4.0,299.92895,258.3731,0.0,0.0,0.0,0.0,0.0,0.012737582648123025,-0.05353663957115495,-0.015786794235285284,-0.00921553651062764,-0.0020057654552536382,0.04178721635307717,0.15630098147070584
1279,4.0,300.40923,328.76103,0.0,0.0,0.0,0.0,0.0,0.012747549457706842,-0.06501679664140825,-0.005334865128010195,-0.02958348218766237,-0.04224097203935936,0.025919599210315274,0.16342430192622284
1280,4.0,299.63069,425.47804,0.0,0.0,0.0,0.0,0.0,0.01275751626729063,-0.07576158339858613,-0.012776079630150887,-0.040797037957854165,-0.02923460903248127,0.01251543725392749,0.14346815882170486
1281,4.0,299.914,354.3992,0.0,0.0,0.0,0.0,0.0,0.012767483076874475,-0.10709647243709891,0.007883539511394772,-0.008515571283871452,0.004426682375929535,0.01001270900030244,0.16878349316263386
1282,4.0,301.37339,106.41736999999999,0.0,0.0,0.0,0.0,0.0,0.012777449886458292,-0.03243550966813557,0.041154550083387864,-0.04106726264027326,0.014756772819630087,0.01089457653271099,0.14465570820390686
1283,4.0,301.24539,-51.037245,0.0,0.0,0.0,0.0,0.0,0.012787416696042136,-0.015138861326339285,0.027229472197589675,0.003423437208741947,0.03035818180336927,-0.03135144858489707,0.15360990066261684
1284,4.0,300.64121,180.31486,0.0,0.0,0.0,0.0,0.0,0.012797383505625953,-0.037061479694933265,0.03392503595114037,-0.05167477022090275,0.019620306425123482,-0.030148306296906176,0.15086519865923587
1285,4.0,300.6021,475.2762,0.0,0.0,0.0,0.0,0.0,0.012807350315209742,-0.08911517302923282,-0.00011592265087817489,-0.05524100121986235,0.02043872980914558,0.007540136184228503,0.13333211144635487
1286,4.0,300.28258999999997,319.10937,0.0,0.0,0.0,0.0,0.0,0.012817317124793587,-0.06072822876540954,-0.003449537822042877,-0.03282351251567847,-0.002432391471433348,0.02021071003314178,0.13845667448960988
1287,4.0,299.73400000000004,113.01238000000001,0.0,0.0,0.0,0.0,0.0,0.012827283934377404,-0.06611733418452284,0.032891260443864666,-0.001126868366838249,-0.01291915257077109,-0.0005208334609847605,0.14052131342337384
1288,4.0,299.79056,233.37466,0.0,0.0,0.0,0.0,0.0,0.01283725074396122,-0.029976681994968175,-0.00966379105946692,-0.03129959551102957,-0.027679198188224178,-0.01838853678205728,0.15608407502179886
1289,4.0,300.56894,304.46308999999997,0.0,0.0,0.0,0.0,0.0,0.012847217553545065,-0.08877008233667501,0.013456534827556588,-0.017235629407524183,0.017492666639891786,0.0031242824121176667,0.14981394154798486
1290,4.0,299.39931,340.89625,0.0,0.0,0.0,0.0,0.0,0.012857184363128854,-0.06835878931373723,0.016465978817065584,-0.051731138337215855,0.01767669920255438,0.034516071827221065,0.19666133700646282
1291,4.0,300.20466,106.13982,0.0,0.0,0.0,0.0,0.0,0.01286715117271267,-0.027080718976908877,0.008319589057479511,-0.013502726873115387,-0.009930026981542361,0.01135742411214049,0.12942323574057887
1292,4.0,300.47791,23.567948,0.0,0.0,0.0,0.0,0.0,0.012877117982296515,-0.018498778392937284,0.03153516602677857,-0.02020045492887968,-0.02180196155993608,0.00011519959560681489,0.16882464124919483
1293,4.0,300.8964,251.43327999999997,0.0,0.0,0.0,0.0,0.0,0.012887084791880332,-0.08184460301618342,0.014305978863390186,-0.008890814475555071,-0.007207162037691514,0.01985271661381058,0.11604516294776589
1294,4.0,301.49334,662.23712,0.0,0.0,0.0,0.0,0.0,0.012897051601464177,-0.12119499644851488,-0.02184006989619708,-0.05826848612740185,0.016215945169389182,0.02842208377729127,0.16549408817049485
1295,4.0,300.88635,279.93244,0.0,0.0,0.0,0.0,0.0,0.012907018411047966,-0.08861115709824031,0.024804150678729077,-0.02128546644071198,6.152880881517064e-05,-0.018939615140444482,0.11466936182948488
1296,4.0,298.98843,-63.754591000000005,0.0,0.0,0.0,0.0,0.0,0.012916985220631783,-0.0053772530273935555,0.04750345868622636,-0.022746401845645078,0.015910162501210787,-0.04250253039367316,0.14281705443994586
1297,4.0,300.50982,233.41789,0.0,0.0,0.0,0.0,0.0,0.012926952030215627,-0.034516090065722864,-0.0053762570025452545,-0.03106086365496857,0.01808147741875288,-0.03321678831674176,0.12429494393695588
1298,4.0,300.76167000000004,495.14365999999995,0.0,0.0,0.0,0.0,0.0,0.012936918839799444,-0.09369741726121511,-0.004161969976704456,-0.05265192227284014,0.01932081907981638,0.00926257360676984,0.17340098532584483
1299,4.0,300.17451,389.37726000000004,0.0,0.0,0.0,0.0,0.0,0.01294688564938326,-0.08636902917095951,-0.005189416318555515,-0.02680251900295268,-0.00910398648989351,-0.0040115741762865465,0.14720787242328587
1300,4.0,299.99399,117.5112,0.0,0.0,0.0,0.0,0.0,0.01295685245896705,-0.038006292856679065,0.015203899823758088,-0.012918076499164885,-0.016922122733833485,-0.000988355892665632,0.15802844116869286
1301,4.0,300.47725,-24.034213,0.0,0.0,0.0,0.0,0.0,0.012966819268550894,-0.04406260117514016,0.04976745356391525,0.0016009483302512984,-0.005948963184316954,0.013574966538994888,0.18592213224408582
1302,4.0,301.4069,358.75183,0.0,0.0,0.0,0.0,0.0,0.012976786078134711,-0.04971440992118025,0.003303036853684357,-0.06264022562460894,0.005741021060369665,0.01909348122112988,0.15299167624660284
1303,4.0,300.37652,542.0328,0.0,0.0,0.0,0.0,0.0,0.012986752887718556,-0.08188529108719902,-0.007176229741288734,-0.07570291520454603,-0.0038649028805862163,-0.002959726340227247,0.17096668235809784
1304,4.0,299.73739,236.43274,0.0,0.0,0.0,0.0,0.0,0.012996719697302372,-0.03532777331007977,-0.005410398160689725,-0.031131479080937767,-0.02489386992208368,-0.008296765193676973,0.12816849774424588
1305,4.0,298.99244,21.308353,0.0,0.0,0.0,0.0,0.0,0.013006686506886161,-0.021580429624322578,0.016840072780485785,-0.0017368503985887883,0.006825642369588453,0.023960333220700774,0.13822699095694185
1306,4.0,298.66112000000004,137.36838,0.0,0.0,0.0,0.0,0.0,0.013016653316470006,-0.06625331741419334,0.035699120352478866,-0.01120236138308699,0.017097498087641685,0.030575660738582765,0.14599235733832386
1307,4.0,299.88133,346.9361,0.0,0.0,0.0,0.0,0.0,0.013026620126053823,-0.09121088429056341,0.023330773575818076,-0.03757979967758747,0.005955639691875875,-0.01066716166701689,0.14869646854269886
1308,4.0,299.93241,198.4178,0.0,0.0,0.0,0.0,0.0,0.01303658693563764,-0.03190515936704407,0.010110935694146662,-0.038519832325361464,0.0016165277598138685,-0.03823682447968076,0.14166691425143588
1309,4.0,299.5256,6.143061,0.0,0.0,0.0,0.0,0.0,0.013046553745221456,-0.01848467800454568,0.035482474308847566,-0.01886513315209368,0.006336534792617294,-0.027857535272074675,0.15827515743554185
1310,4.0,300.05366000000004,193.38088,0.0,0.0,0.0,0.0,0.0,0.013056520554805273,-0.05375487945719355,0.007382035123425144,-0.012410112945782788,0.02231964319502728,0.005694468196450255,0.16434718024980383
1311,4.0,299.4196,338.31872999999996,0.0,0.0,0.0,0.0,0.0,0.01306648736438909,-0.08337229741720512,0.01019399210881869,-0.02966214180617547,-0.013883274226422486,-0.0005833964364217454,0.16524877018878384
1312,4.0,299.99675,280.05951,0.0,0.0,0.0,0.0,0.0,0.013076454173972935,-0.08678844581135273,0.014242970919171788,-0.012585622048604188,0.0022375214896761778,-0.0048001320136111456,0.14441372381502487
1313,4.0,300.99307000000005,312.29747000000003,0.0,0.0,0.0,0.0,0.0,0.013086420983556751,-0.07190528625374923,-0.004884491670561795,-0.018140854887862982,-0.004672329765248046,0.018805720219230083,0.15103677229866885
1314,4.0,299.77712,-3.2813220000000003,0.0,0.0,0.0,0.0,0.0,0.013096387793140568,-0.02182627753583588,0.05295236004674105,-0.03012864215221547,-0.004910542938582855,0.02699511758196068,0.13260806318989687
1315,4.0,299.79642,192.02737,0.0,0.0,0.0,0.0,0.0,0.013106354602724385,-0.047452793141476046,0.011804095153723488,-0.022722826555568378,-0.016148189135202183,-0.008485599649888481,0.15465648669090684
1316,4.0,300.38607,402.59319,0.0,0.0,0.0,0.0,0.0,0.013116321412308202,-0.07428168704453172,0.016447413035483284,-0.06454400401224723,-0.03608245718331127,-0.012713413151216189,0.14975753391491786
1317,4.0,300.5972,158.78535,0.0,0.0,0.0,0.0,0.0,0.013126288221892046,-0.05645567024099086,0.03524613878927307,-0.027057250078092673,0.011386491217759188,0.013626331226314186,0.15684998063988786
1318,4.0,301.14218,78.658722,0.0,0.0,0.0,0.0,0.0,0.013136255031475835,-0.06534718203526474,0.03706659154168777,0.004370303721815396,-0.005157510694106675,0.013317610132845789,0.13958110852308286
1319,4.0,299.98548,268.48639,0.0,0.0,0.0,0.0,0.0,0.01314622184105968,-0.07561935449529923,0.02089873015579408,-0.026892535128586574,-0.015100718539574886,-0.002245648768728278,0.16296868388625685
1320,4.0,299.2635,393.87436,0.0,0.0,0.0,0.0,0.0,0.013156188650643497,-0.06500017326026764,-0.017234269625889986,-0.03749352649782297,-0.03500021792375257,-0.03648300406709217,0.13630211974197187
1321,4.0,300.15159,356.48773,0.0,0.0,0.0,0.0,0.0,0.013166155460227313,-0.056593089246053045,-0.007793884102796472,-0.04397639486988225,0.01044508358959949,0.016262598243743483,0.14583647894293986
1322,4.0,299.82683,249.6302,0.0,0.0,0.0,0.0,0.0,0.01317612226981113,-0.04141986759557267,-0.0025237694052016473,-0.031937710026506576,0.004009198206127057,0.025417214611983777,0.16278520455814885
1323,4.0,298.6564,-14.546218,0.0,0.0,0.0,0.0,0.0,0.013186089079394947,-0.03748440826017307,0.05456322201597075,-0.012657127108161187,0.008369541882109472,0.004043531780465516,0.14962802028713587
1324,4.0,299.56084,133.30942,0.0,0.0,0.0,0.0,0.0,0.013196055888978764,-0.06247359968541424,0.02704310206694637,-0.005092237122664675,-0.019593603231988083,-0.010974115652310889,0.14615838849970986
1325,4.0,299.19388,313.36217999999997,0.0,0.0,0.0,0.0,0.0,0.01320602269856258,-0.06354646638154794,0.004416421698791886,-0.03612423449818437,0.007148642791416113,-0.0016628129230568582,0.13715026073817688
1326,4.0,299.93245,269.23159,0.0,0.0,0.0,0.0,0.0,0.013215989508146425,-0.05464937157922305,0.007974048076577272,-0.035164357347201865,0.034160428134871766,0.024897601722201977,0.13264539132358086
1327,4.0,300.02577,-56.418716,0.0,0.0,0.0,0.0,0.0,0.013225956317730214,-0.03568107132844757,0.04730743430863025,0.005523518111128795,-0.0014589412274112889,0.01134489628790409,0.14002629008701886
1328,4.0,301.06785,-22.012679000000002,0.0,0.0,0.0,0.0,0.0,0.013235923127314059,-0.006983315332224563,0.029922679817638576,-0.016248060131308684,-0.008419792906243862,-0.012779044399943488,0.14357900838264487
1329,4.0,301.74793999999997,345.07772,0.0,0.0,0.0,0.0,0.0,0.013245889936897876,-0.07108439053948314,0.01005455126450695,-0.04386517040640526,0.007300424413995794,0.006283354563768813,0.16243707208879085
1330,4.0,302.23515,380.21621,0.0,0.0,0.0,0.0,0.0,0.013255856746481692,-0.07397016026153642,0.01104490738379749,-0.05265097995024715,0.01095223958265189,0.015859836395243986,0.16017068492761585
1331,4.0,301.0094,199.81716,0.0,0.0,0.0,0.0,0.0,0.013265823556065509,-0.06118754820799084,0.014107273426029486,-0.013659151410303287,0.0013932985289578585,-0.02172726881556448,0.14625671428941386
1332,4.0,300.51797999999997,191.8737,0.0,0.0,0.0,0.0,0.0,0.013275790365649326,-0.06328404879114935,0.015283039722818586,-0.010323803632130089,-0.005855490254641895,-0.026698315349418578,0.1321175082864829
1333,4.0,299.9565,197.33698,0.0,0.0,0.0,0.0,0.0,0.01328575717523317,-0.07687496692646853,0.01947264143505008,-0.0025831893294909376,0.00952148829024773,0.007199947798304523,0.15534231515359287
1334,4.0,299.96697,322.04823999999996,0.0,0.0,0.0,0.0,0.0,0.013295723984816987,-0.05946704548519044,0.005424924823398396,-0.04385250275365506,0.020988625704666083,0.0026483877177755173,0.13842536506151987
1335,4.0,299.644,290.08421,0.0,0.0,0.0,0.0,0.0,0.013305690794400804,-0.08784131905651323,0.035190035131236065,-0.035527071498748966,0.02077114372970228,-0.01061996042435849,0.17113300736201284
1336,4.0,299.84918999999996,-93.479839,0.0,0.0,0.0,0.0,0.0,0.01331565760398462,-0.024969047000003075,0.05182229639571245,0.0015622873673857586,0.015141828122632085,-0.03559937398613467,0.15741909282355485
1337,4.0,299.48322,-94.66653199999999,0.0,0.0,0.0,0.0,0.0,0.013325624413568438,0.005330052899310265,0.03877915747645486,-0.015332948369744186,0.0022341616536695878,0.009889967530888801,0.15206642691778785
1338,4.0,299.78176,453.67242000000005,0.0,0.0,0.0,0.0,0.0,0.013335591223152254,-0.05633243977707895,-0.027208342893254373,-0.05436430582258924,0.015605307970123987,0.025771647470463576,0.14525975725102186
1339,4.0,299.03119,507.21949000000006,0.0,0.0,0.0,0.0,0.0,0.013345558032736099,-0.095341515860225,-0.005844951744326824,-0.05299559238875774,-0.014970902963263087,0.023172041868152478,0.16604131415200185
1340,4.0,300.0988,192.07377,0.0,0.0,0.0,0.0,0.0,0.013355524842319888,-0.03968577414918096,0.006146016922689645,-0.024845874291346874,-0.035571772040160564,-0.006242759914412433,0.14763073208751887
1341,4.0,300.44444,3.9902681,0.0,0.0,0.0,0.0,0.0,0.013365491651903705,-0.04342712820267386,0.03079748145047477,0.011416704309240988,-0.01084495970181419,0.012679267636096288,0.16706077547511486
1342,4.0,300.3002,324.19222,0.0,0.0,0.0,0.0,0.0,0.01337545846148755,-0.06195223285970935,0.017466697039828782,-0.054060804993636045,-0.009378416160227611,0.02173172306300408,0.15940476917702587
1343,4.0,300.26804,673.05883,0.0,0.0,0.0,0.0,0.0,0.013385425271071366,-0.08363609708074013,-0.03262155150574647,-0.08833543046777823,0.016731145354985485,-0.006586379165175014,0.17387083952971585
1344,4.0,301.52925,329.23946,0.0,0.0,0.0,0.0,0.0,0.013395392080655183,-0.06693643137986142,0.008406598870066713,-0.04155074100498886,0.005852462055393034,-0.03284059591236447,0.13674600434577985
1345,4.0,300.74582000000004,21.990320999999998,0.0,0.0,0.0,0.0,0.0,0.013405358890239,-0.04244402634614926,0.02309779698032508,0.012661720170864487,0.012276118726058589,0.002556793860410908,0.15169552671868286
1346,4.0,300.99169,72.659253,0.0,0.0,0.0,0.0,0.0,0.013415325699822817,-0.041187442208134056,0.024491795057151978,-0.005390951864770525,0.013147134856521187,0.007610178617266153,0.13758815703389388
1347,4.0,299.50092,341.935,0.0,0.0,0.0,0.0,0.0,0.013425292509406633,-0.07902773835393052,0.014608962934792386,-0.03952092747716186,0.014671524035716687,-0.00020019448944265782,0.17424957215209383
1348,4.0,299.76113,546.29447,0.0,0.0,0.0,0.0,0.0,0.013435259318990478,-0.08799509698443991,-0.0049073827128459655,-0.07315739891907314,-0.009010364308478722,-0.03174272220376277,0.15775544119424983
1349,4.0,300.59018,277.63795,0.0,0.0,0.0,0.0,0.0,0.013445226128574295,-0.02853507129594227,-0.011165623974211291,-0.04469430992348496,0.016020519622602186,-0.0008163098355060082,0.16825755556572783
1350,4.0,300.31866,-135.52366999999998,0.0,0.0,0.0,0.0,0.0,0.013455192938158084,-0.013638996852564186,0.042307125111888166,0.012527682381385987,-0.01705156847385878,0.0038706066680491364,0.13030445935254886
1351,4.0,299.41121,215.45399,0.0,0.0,0.0,0.0,0.0,0.013465159747741928,-0.049786270631522356,0.006817772354736743,-0.022524134290458978,-0.018591558664843983,-0.006208683300299334,0.15795339986628684
1352,4.0,300.49941,596.17838,0.0,0.0,0.0,0.0,0.0,0.013475126557325745,-0.12842616724467587,-0.007224308965158783,-0.045572864634691554,-0.018538886884895682,-0.014762753021720287,0.15246341830696786
1353,4.0,300.22084,269.5885,0.0,0.0,0.0,0.0,0.0,0.01348509336690959,-0.08369202645975993,0.018623602699256482,-0.016879747601401384,0.00998047640004633,0.030956452285163968,0.13706859278011688
1354,4.0,300.44787,-112.89165,0.0,0.0,0.0,0.0,0.0,0.013495060176493406,-0.006412483257837823,0.03070601131094737,0.01002271302118976,0.022661910972806478,0.040767342637173465,0.14206707711342886
1355,4.0,301.24579,8.1439469,0.0,0.0,0.0,0.0,0.0,0.013505026986077195,-0.026306407435990276,0.04414107942188536,-0.02031022841821348,-0.00819796662147631,0.008682072897278882,0.16294381872880284
1356,4.0,301.69052999999997,321.70087,0.0,0.0,0.0,0.0,0.0,0.01351499379566104,-0.05077566375791785,0.01053144694862289,-0.057544813786730944,-0.011554080757798988,-0.02712602240212997,0.15205522037168187
1357,4.0,301.3852,471.34165,0.0,0.0,0.0,0.0,0.0,0.013524960605244857,-0.08112891508630052,-0.008583852688235302,-0.05356332452578854,-0.010789531881593888,-0.0041056739024734655,0.15812155885288284
1358,4.0,300.66265,345.88575,0.0,0.0,0.0,0.0,0.0,0.013534927414828674,-0.07238823772841284,0.006013084893045275,-0.03876547860010486,0.025208457733631076,0.01102105041019299,0.16105345881223884
1359,4.0,300.28779,146.19391000000002,0.0,0.0,0.0,0.0,0.0,0.013544894224412518,-0.060730783168911645,0.016868814632822384,-0.0005773315266231854,0.0027284777414547873,-0.012881807211835388,0.16487325970172384
1360,4.0,300.83213,366.33063,0.0,0.0,0.0,0.0,0.0,0.013554861033996307,-0.05046649075490485,-0.012567128207778989,-0.04832174528148495,-0.012322043273590988,-0.017718456252425484,0.14840199779863686
1361,4.0,300.39427,673.23699,0.0,0.0,0.0,0.0,0.0,0.013564827843580124,-0.1092974036418139,-0.027801994981093273,-0.06754783560945234,-0.01094173521886519,-0.016056828426685585,0.17150393795862084
1362,4.0,298.78387999999995,398.91709,0.0,0.0,0.0,0.0,0.0,0.013574794653163968,-0.06711881234486104,-0.011489427295418188,-0.04265259475998336,0.008480900601224722,0.019673162616589985,0.15304334186920185
1363,4.0,299.50139,-158.44918,0.0,0.0,0.0,0.0,0.0,0.013584761462747785,-0.026180723893586274,0.058218956436013644,0.016126361701547985,-0.02034461306035698,0.004254437863605326,0.15899543640162786
1364,4.0,300.12242000000003,-106.72152,0.0,0.0,0.0,0.0,0.0,0.013594728272331602,-0.03535090479661267,0.04241327319236416,0.025378307834643978,-0.0048471696163783955,-0.0023080624417630277,0.15577876250166686
1365,4.0,300.20645,317.12327999999997,0.0,0.0,0.0,0.0,0.0,0.013604695081915419,-0.10096386030660721,0.024082841237291375,-0.019516540495632582,-0.01120062163266529,0.029410543700344675,0.15042730236351884
1366,4.0,299.55497,277.86694,0.0,0.0,0.0,0.0,0.0,0.013614661891499236,-0.055766831412257745,0.016675316287725585,-0.04537309731122605,0.025757313021298873,0.03391367235126887,0.13755905649102187
1367,4.0,299.4297,53.505214,0.0,0.0,0.0,0.0,0.0,0.013624628701083052,-0.03696329474699317,0.03194165967539637,-0.01124261375655959,-0.00017452316994409585,-0.0034932609824080167,0.15922959849973783
1368,4.0,300.04809,132.06786,0.0,0.0,0.0,0.0,0.0,0.013634595510666897,-0.028366028755259075,0.02981843664735057,-0.04159774061087736,-0.011731585963317387,-0.03745867981363386,0.16175154760113483
1369,4.0,301.25568,449.65605,0.0,0.0,0.0,0.0,0.0,0.013644562320250714,-0.06004650903187904,-0.029612377040764075,-0.04702532521578825,-0.01272404619776559,-0.027318873280412874,0.16364514991801885
1370,4.0,300.29396,534.94347,0.0,0.0,0.0,0.0,0.0,0.013654529129834503,-0.08728398083900822,-0.016561929548535186,-0.05876354594076044,0.015503137909540585,-0.002357870675603718,0.15627197212034286
1371,4.0,300.61339,468.84933,0.0,0.0,0.0,0.0,0.0,0.013664495939418347,-0.08283765904169042,-0.002077229376856578,-0.05760360053103275,-8.698902069514794e-05,0.001087094247412849,0.16387328317803385
1372,4.0,300.13325,-3.8667211999999997,0.0,0.0,0.0,0.0,0.0,0.013674462749002164,-0.026638466719011978,0.022931480082410877,0.004882373775202776,0.02867441547619447,-0.022935476340805276,0.14519390612702285
1373,4.0,301.60256,-14.920373999999999,0.0,0.0,0.0,0.0,0.0,0.013684429558586009,-0.04287606808278846,0.04070874334414016,0.006702746480859574,0.018536418607652084,0.016759570060040783,0.17193722396638284
1374,4.0,300.26006,389.82694,0.0,0.0,0.0,0.0,0.0,0.013694396368169826,-0.08143363789487433,0.01167953429243029,-0.04874355217886405,0.024961487141006974,0.021438019349267777,0.16777121578272983
1375,4.0,299.88956,384.33272999999997,0.0,0.0,0.0,0.0,0.0,0.013704363177753615,-0.06419698105174874,0.011983471832176589,-0.06461404188565945,0.002277415273938388,0.0009035283674813072,0.18224701333637983
1376,4.0,299.13341,79.925071,0.0,0.0,0.0,0.0,0.0,0.013714329987337459,-0.05079503203357935,0.038045614053309765,-0.01154580858398259,-0.01009426043460094,-0.005125486012771085,0.15884944732721987
1377,4.0,299.50032000000004,115.60946000000001,0.0,0.0,0.0,0.0,0.0,0.013724296796921276,-0.030330489678136268,0.031871293508951765,-0.036683193915849364,0.01032852537759609,0.013793065583269587,0.16595493458097685
1378,4.0,299.88947,342.34787,0.0,0.0,0.0,0.0,0.0,0.013734263606505093,-0.08502672610098452,0.002344767223985508,-0.02138324406211188,-0.02117469793977998,0.014265117526607488,0.13860744610448986
1379,4.0,301.79943,479.42588,0.0,0.0,0.0,0.0,0.0,0.013744230416088937,-0.08750386725645933,-0.006140720157791895,-0.05208890884152505,-0.017613543323821382,-0.02941266949905447,0.16521910222585584
1380,4.0,299.2835,283.18157,0.0,0.0,0.0,0.0,0.0,0.013754197225672726,-0.06632887851390064,0.011835391409562189,-0.03158663913185857,0.003351980278564697,-0.03191483691874917,0.15311407685868286
1381,4.0,300.50813,105.71121000000001,0.0,0.0,0.0,0.0,0.0,0.013764164035256543,-0.02208431889905258,0.034008825654909765,-0.044058076000193555,0.03355254798912867,0.006264453092428384,0.18693231219628284
1382,4.0,299.099,-133.14463,0.0,0.0,0.0,0.0,0.0,0.013774130844840388,-0.03393783431315347,0.05681474175842845,0.017595734440063786,0.023845796442646876,0.027107661297067875,0.16740668892675384
1383,4.0,298.94843,91.120727,0.0,0.0,0.0,0.0,0.0,0.013784097654424204,-0.025187111593774375,0.02397135535528858,-0.026482669383635978,-0.0018512657892807082,-0.015135081903466286,0.16398442658150283
1384,4.0,299.98855,269.58609,0.0,0.0,0.0,0.0,0.0,0.013794064464008049,-0.101268238610147,0.030028404359572772,-0.01070760554475839,-0.006315177000384443,-0.029301545347337372,0.15008462117969887
1385,4.0,299.91167,12.13185,0.0,0.0,0.0,0.0,0.0,0.013804031273591838,-0.029690809691254767,0.023850640791374975,0.0021523888242242378,-0.007474116354087852,0.003626874220094617,0.13068156064226588
1386,4.0,299.93757999999997,101.75594,0.0,0.0,0.0,0.0,0.0,0.013813998083175655,-0.047594237789185555,0.008593507340488143,0.008069464014644092,0.02028798960501868,0.024694611250168374,0.13070900958747486
1387,4.0,301.40044,545.93398,0.0,0.0,0.0,0.0,0.0,0.013823964892759472,-0.07753721807257763,-0.016035709254851285,-0.07237737062109033,-0.03556021288301976,-0.02113493496610568,0.14222148629616788
1388,4.0,300.51231,459.26372000000003,0.0,0.0,0.0,0.0,0.0,0.013833931702343316,-0.07186535913355872,-0.014094772959545787,-0.05364457097180695,-0.007849127410173563,-0.010966055247765389,0.14974841466401786
1389,4.0,300.07409,302.87496,0.0,0.0,0.0,0.0,0.0,0.013843898511927133,-0.04058727897515256,0.0031881222346681667,-0.05466726861573935,-0.005343631869200405,0.017589480660446584,0.16170525220406584
1390,4.0,299.87523,250.72052000000002,0.0,0.0,0.0,0.0,0.0,0.013853865321510922,-0.06736424077083293,0.003977080711082307,-0.012825618440789987,0.026068708081781175,0.030121756104535873,0.17665431861442382
1391,4.0,299.1963,123.17985,0.0,0.0,0.0,0.0,0.0,0.013863832131094767,-0.03581757536866946,0.008310416813599283,-0.00993644095600037,-0.036213184684713066,-0.007525686325877414,0.17379487616971884
1392,4.0,299.99575,269.03121,0.0,0.0,0.0,0.0,0.0,0.013873798940678583,-0.05427565961109054,0.015949228358816285,-0.04345233887841196,-0.0031468358394685174,-0.011275837214088489,0.17638985020582285
1393,4.0,299.35811,453.1382,0.0,0.0,0.0,0.0,0.0,0.013883765750262428,-0.08559897733346132,0.00901353801044194,-0.06115726013600165,0.0004278000994680826,0.03166813382415147,0.18078897683998282
1394,4.0,298.30577999999997,164.55796999999998,0.0,0.0,0.0,0.0,0.0,0.013893732559846245,-0.04534133090734096,0.03963145482457007,-0.04431163677146806,0.026354613822747872,0.022021114384314776,0.17162665267823185
1395,4.0,300.08512,126.05372,0.0,0.0,0.0,0.0,0.0,0.013903699369430034,-0.05035400074205296,0.02651592323866787,-0.014479105815226486,-0.014954345443378985,-0.040631353328002356,0.15888951123617387
1396,4.0,300.52727999999996,522.83119,0.0,0.0,0.0,0.0,0.0,0.013913666179013878,-0.1070591645684169,0.004735464061753915,-0.056603920889622045,-0.013631894982613286,-0.03484010920920107,0.15473710086886283
1397,4.0,301.20113,604.92382,0.0,0.0,0.0,0.0,0.0,0.013923632988597695,-0.11523497830030689,0.008309723851855893,-0.07695648087051334,0.011160501994955791,0.014064712868829089,0.16202493261061585
1398,4.0,301.3289,201.86174,0.0,0.0,0.0,0.0,0.0,0.013933599798181512,-0.07725166190289542,0.028532540197192473,-0.012641807779899289,0.023071051230685476,0.02286590962868958,0.16406122080658186
1399,4.0,300.81503,-105.35911000000002,0.0,0.0,0.0,0.0,0.0,0.013943566607765356,-0.03161726258963087,0.05131900392529135,0.012324797287362788,-0.024476657100657977,-0.015075854395370987,0.16663630474322286
1400,4.0,300.41053,165.69863999999998,0.0,0.0,0.0,0.0,0.0,0.013953533417349145,-0.06299384990950894,0.016975444007095882,-0.004349842453271026,-0.03574859634161177,-0.004567824771134206,0.18040853182493582
1401,4.0,300.2561,279.73087000000004,0.0,0.0,0.0,0.0,0.0,0.013963500226932962,-0.07119031469168703,0.006607809202139993,-0.02044869411062898,-0.02003372057192428,0.015419741346809986,0.15153477459031786
1402,4.0,299.30161,258.53787,0.0,0.0,0.0,0.0,0.0,0.013973467036516807,-0.07586929188421612,0.002918787084511857,-0.005638551584381714,-0.015324315478892184,0.04300189550670666,0.16777699130829984
1403,4.0,299.20202,195.90483999999998,0.0,0.0,0.0,0.0,0.0,0.013983433846100624,-0.019123158303308782,-0.007481032900595463,-0.032945989121515966,-0.02668339828144637,-0.013657099578850786,0.12322243897110788
1404,4.0,299.26997,46.919073,0.0,0.0,0.0,0.0,0.0,0.013993400655684468,-0.03508903841426847,0.026081146740008773,-0.005254335049812495,-0.011239610483263189,-0.008901085285193722,0.16061236064620585
1405,4.0,299.3309,139.52497,0.0,0.0,0.0,0.0,0.0,0.014003367465268257,-0.02239043087351348,0.017236358947596186,-0.037258034002331665,0.021472798145700182,0.01962711850554578,0.12146186625985289
1406,4.0,299.91231,338.45255,0.0,0.0,0.0,0.0,0.0,0.014013334274852074,-0.06843880060788372,0.017205028241254083,-0.051647350659946654,0.027393222533000573,0.0034244522826921272,0.18077651386375282
1407,4.0,300.63681,20.673560000000002,0.0,0.0,0.0,0.0,0.0,0.01402330108443589,-0.027571371152332474,0.044330457892075556,-0.023043332760949876,0.016349414525561587,-0.03108822039441847,0.15009076147530487
1408,4.0,300.85323999999997,-32.157986,0.0,0.0,0.0,0.0,0.0,0.014033267894019735,-0.04417946032242325,0.05195890176094435,0.001995783928518538,-0.009089974254260611,-0.03434995960582707,0.16541481148267084
1409,4.0,299.5891,443.58135999999996,0.0,0.0,0.0,0.0,0.0,0.014043234703603552,-0.07989793172531193,0.0058865434317816046,-0.06082626881858534,0.01958998187613068,-0.0016214181100965086,0.17011169179121682
1410,4.0,299.5859,617.67376,0.0,0.0,0.0,0.0,0.0,0.014053201513187341,-0.15443127159117984,0.011516025110543188,-0.044842148179325456,-0.02152817732991568,0.013876254429729687,0.18775672287514583
1411,4.0,300.04839,204.4919,0.0,0.0,0.0,0.0,0.0,0.014063168322771186,-0.05607096146952304,0.02814920032660977,-0.034238669281093564,-0.021535074523346378,-0.021873297406726378,0.1855532484126798
1412,4.0,300.70385,110.41733,0.0,0.0,0.0,0.0,0.0,0.014073135132355002,-0.08545212699646833,0.05144796634501895,0.0004400501513220686,-0.03196328648553077,-0.018028329411257583,0.16482614357207384
1413,4.0,300.01045,282.10873,0.0,0.0,0.0,0.0,0.0,0.014083101941938847,-0.07208803300203492,0.019702639075249082,-0.03336861472497587,0.019233707942219184,0.03781108414541347,0.18000734558034184
1414,4.0,298.57726,309.30062999999996,0.0,0.0,0.0,0.0,0.0,0.014093068751522664,-0.08489988644021643,0.016861900214139986,-0.025981682057192375,0.013428452601035088,0.03118789482000557,0.15325503008009383
1415,4.0,298.85682,365.97121,0.0,0.0,0.0,0.0,0.0,0.014103035561106453,-0.044523450625372454,-0.0025745606942893574,-0.06414809882717444,0.01165190600195359,-0.016406907349485682,0.15757950044688585
1416,4.0,298.90058999999997,271.76665,0.0,0.0,0.0,0.0,0.0,0.014113002370690297,-0.08202147291388913,0.036160364970250165,-0.036749166629860365,0.0005408663172543495,-0.013822939235967885,0.17405015439991284
1417,4.0,299.634,-78.253641,0.0,0.0,0.0,0.0,0.0,0.014122969180274114,0.006699431227857384,0.03998967521192366,-0.022901952961246776,0.013524606995774789,0.0021309279844562183,0.16603834532920886
1418,4.0,300.55273,-74.480448,0.0,0.0,0.0,0.0,0.0,0.014132935989857931,-0.029614407593964474,0.037928960595796965,0.014325644021330988,0.02433454573438268,-0.0026778249636557473,0.16661704285882184
1419,4.0,299.71577,337.72061,0.0,0.0,0.0,0.0,0.0,0.014142902799441748,-0.08025182046848801,0.01080155814703079,-0.03320837124816107,-0.011762371541105687,-0.04668850365729656,0.13395309190264088
1420,4.0,299.20529,362.04298,0.0,0.0,0.0,0.0,0.0,0.014152869609025565,-0.08713002356581381,-0.0025787489635777077,-0.02034325327872278,-0.0005021880480771015,-0.027770779785262573,0.14079351293023787
1421,4.0,300.02652,-31.834638,0.0,0.0,0.0,0.0,0.0,0.014162836418609381,-0.011285441811786388,0.01043852583495229,0.01052385162587329,-0.009991168620401569,0.015318317038300184,0.1107780457479419
1422,4.0,299.97132,-174.51697,0.0,0.0,0.0,0.0,0.0,0.014172803228193226,-0.028194808740110974,0.06054509292908544,0.02069851700228458,0.011645779891848989,0.02216416705993298,0.17187887089312384
1423,4.0,299.9398,134.34423,0.0,0.0,0.0,0.0,0.0,0.014182770037777043,-0.01802509916993878,0.01068875098689759,-0.03350094214828557,-0.02107424027186558,-0.006596906732389004,0.13985145378226388
1424,4.0,301.23551000000003,274.18852999999996,0.0,0.0,0.0,0.0,0.0,0.01419273684736086,-0.07135216011690994,0.01804178334608538,-0.030036088848331175,0.001076076469800479,-0.0018691215865179382,0.17566242782653183
1425,4.0,301.06056,370.46783,0.0,0.0,0.0,0.0,0.0,0.014202703656944676,-0.06772317043325653,-0.009839863225368891,-0.035049935066409264,0.023792119518599376,0.01986990944150738,0.17000800590848383
1426,4.0,300.35549,378.36172999999997,0.0,0.0,0.0,0.0,0.0,0.014212670466528493,-0.08715975840324841,0.02046189371968168,-0.048314655570535256,0.01030454884047979,0.01183253404428019,0.18706818903469283
1427,4.0,300.48557999999997,229.21742999999998,0.0,0.0,0.0,0.0,0.0,0.014222637276112338,-0.04834869469439465,0.025733627286961273,-0.04706130876658955,0.02034893558528358,-0.023451040283187476,0.17523071235642482
1428,4.0,300.93382,430.98928,0.0,0.0,0.0,0.0,0.0,0.014232604085696127,-0.09876864889870672,0.014615860128223086,-0.04685718953394455,-0.014175818782044386,-0.01981735621182078,0.1919695634784208
1429,4.0,299.78963999999996,593.52776,0.0,0.0,0.0,0.0,0.0,0.014242570895279971,-0.08792110338263733,0.00956055769422858,-0.10205707306474891,0.005461736706156444,0.022261296201268876,0.1928839102361598
1430,4.0,299.78702999999996,335.24707,0.0,0.0,0.0,0.0,0.0,0.01425253770486376,-0.08693124213469561,0.023231340303754778,-0.03820683632972117,-0.008062415036348414,0.007955904617636653,0.20466584054394582
1431,4.0,299.59097,20.878646,0.0,0.0,0.0,0.0,0.0,0.014262504514447605,-0.04710899839579615,0.030497647573633473,0.01026476357530329,-0.014875071795305287,-0.024716027304281976,0.15004890411367386
1432,4.0,299.69419,301.41983,0.0,0.0,0.0,0.0,0.0,0.014272471324031422,-0.08431372429711671,0.005595176374100915,-0.012905554754429088,-0.01141927897774509,-0.03042859964556897,0.15436209700685286
1433,4.0,299.36146,319.94743,0.0,0.0,0.0,0.0,0.0,0.014282438133615238,-0.07762244051198842,0.009899812978135471,-0.02953340128821977,0.01848962975778438,0.005855617620179465,0.13011437363378886
1434,4.0,300.18271,53.285236,0.0,0.0,0.0,0.0,0.0,0.014292404943199055,-0.014188754946071087,0.014258524308206788,-0.016267149763192684,0.019011588321547684,0.011313366984542389,0.16740139976123183
1435,4.0,299.80608,3.5060092000000003,0.0,0.0,0.0,0.0,0.0,0.014302371752782872,0.0027383343344525575,0.025529284126044178,-0.02933335836072707,0.0040167520869475665,-0.009868248514995301,0.14006072032541686
1436,4.0,300.01934,187.21939,0.0,0.0,0.0,0.0,0.0,0.014312338562366717,-0.06757569086795144,0.03214511522922587,-0.02147944405310608,-0.013449304274842986,0.0022575328751761477,0.16375403377376485
1437,4.0,300.75818,142.55258,0.0,0.0,0.0,0.0,0.0,0.014322305371950506,-0.04659738612880396,0.018784773299912783,-0.015519810939936086,-0.0013383918232639886,0.033449816587989865,0.1280275141253319
1438,4.0,301.60399,355.86476,0.0,0.0,0.0,0.0,0.0,0.01433227218153435,-0.09716039300873422,0.008855674455462021,-0.019869283252945583,-0.0026340914681395873,0.018158715447375684,0.15672103443216187
1439,4.0,300.91978,509.97677000000004,0.0,0.0,0.0,0.0,0.0,0.014342238991118167,-0.08358361173881022,-0.010745902345537989,-0.06069068987570474,-0.01851178041822048,-0.027657459920578772,0.14741949983917188
1440,4.0,301.43596,246.54357000000002,0.0,0.0,0.0,0.0,0.0,0.014352205800701984,-0.06518040208205483,0.007095775555523523,-0.016858463269800783,-0.006414725884284154,-0.031607100704377965,0.17048993805354684
1441,4.0,300.87053,183.7234,0.0,0.0,0.0,0.0,0.0,0.0143621726102858,-0.017425737417786382,0.0011534246387091488,-0.03957501172774956,0.013761153271370088,-0.0003315337811223367,0.17606801157655982
1442,4.0,299.80197999999996,385.86136,0.0,0.0,0.0,0.0,0.0,0.014372139419869617,-0.10538510315069989,0.01824932229781788,-0.030156439655458868,0.0038720156936381963,0.006748013023777034,0.2151099463471988
1443,4.0,299.29816,344.25563,0.0,0.0,0.0,0.0,0.0,0.014382106229453462,-0.07566388582394412,0.0014301358442934187,-0.030411365274618074,-0.025313990771296375,-0.03457052895384557,0.16847842382252584
1444,4.0,300.19009,108.85585,0.0,0.0,0.0,0.0,0.0,0.014392073039037279,-0.07261069982761813,0.045651324642934955,-0.0061300853887173235,-0.016120041047424184,-0.005936781891614755,0.17810979158806783
1445,4.0,299.48543,58.079727,0.0,0.0,0.0,0.0,0.0,0.014402039848621095,-0.051630895478322655,0.044152575757519956,-0.01017646592183899,0.017807597943223084,0.03509242976235317,0.16516634229314886
1446,4.0,299.46836,50.369335,0.0,0.0,0.0,0.0,0.0,0.014412006658204912,-0.013480484006920188,0.04017377464909286,-0.04200431025325266,0.007977369105105034,0.028406694534772476,0.16968842682694385
1447,4.0,299.82417000000004,103.42403,0.0,0.0,0.0,0.0,0.0,0.014421973467788729,-0.03263093318842237,0.03320818481014267,-0.03201557525694127,-0.018133020438089783,-0.016210181802820384,0.17085576186965082
1448,4.0,299.61627999999996,482.7572,0.0,0.0,0.0,0.0,0.0,0.014431940277372546,-0.1046541749260629,-0.0038167429006831966,-0.03827521348621946,-0.008275685943896612,-0.005052913392908725,0.16427222000740585
1449,4.0,299.08501,359.41374,0.0,0.0,0.0,0.0,0.0,0.01444190708695639,-0.08311585090964584,0.005064850087036785,-0.031201801677628073,0.016596449966192087,0.01758598393435148,0.15329502306154086
1450,4.0,299.21975,2.7683824,0.0,0.0,0.0,0.0,0.0,0.01445187389654018,-0.06072617490745685,0.018473893983731383,0.04141076253017406,0.007574282915248523,0.013633246658246686,0.13511442850475586
1451,4.0,299.59828,170.59149,0.0,0.0,0.0,0.0,0.0,0.014461840706123996,-0.03863750207272457,-0.001881079660223108,-0.01133697165887199,-0.02105496521521328,-0.021504327449061878,0.14568403546539488
1452,4.0,299.54195,311.40564,0.0,0.0,0.0,0.0,0.0,0.01447180751570784,-0.044279541061300456,0.005361095943948974,-0.05574109181996745,-0.016468109682025885,-0.01130698756191279,0.16403736889922785
1453,4.0,300.58162999999996,71.565235,0.0,0.0,0.0,0.0,0.0,0.014481774325291658,-0.01237642541970809,0.014831236569479088,-0.024208855099227978,-0.0037141577115338267,0.020450982029354782,0.16506259561540987
1454,4.0,301.0335,-148.59643,0.0,0.0,0.0,0.0,0.0,0.014491741134875474,-0.03001548136779737,0.05910026718749224,0.016084819460698084,0.012216678435442288,0.016849188991635483,0.18217984498725084
1455,4.0,300.53483,174.61317,0.0,0.0,0.0,0.0,0.0,0.014501707944459291,-0.03906997140090596,0.0025188945576455376,-0.016526967353834684,-0.007384530150471383,-0.024817392844285975,0.15312876898513286
1456,4.0,300.06037000000003,361.09222,0.0,0.0,0.0,0.0,0.0,0.014511674754043108,-0.1146044327630769,0.015759471946338786,-0.010918058603778489,0.015262028968744987,0.012954355918995387,0.16229672681743984
1457,4.0,300.25487999999996,496.26375,0.0,0.0,0.0,0.0,0.0,0.014521641563626925,-0.07662684325523063,-0.012762270044537989,-0.06146267398114365,0.023547043703662274,0.039222615501970766,0.15450331367328984
1458,4.0,299.80523,349.7484,0.0,0.0,0.0,0.0,0.0,0.01453160837321077,-0.07479958551514433,0.02191945905478218,-0.05343465290883965,0.007834112968866753,0.00866514736495846,0.17488390724469785
1459,4.0,299.00538,29.835902,0.0,0.0,0.0,0.0,0.0,0.014541575182794586,-0.028929436340863077,0.04363677775436466,-0.02377671102432868,-0.026768485958593876,-0.04037366153607016,0.18440223682908383
1460,4.0,298.42253999999997,46.296858,0.0,0.0,0.0,0.0,0.0,0.014551541992378375,-0.04938049132422505,0.05493717311112686,-0.019629770181057483,-0.03399403524320007,-0.030266468483817872,0.20374647819821182
1461,4.0,298.74682,449.7325,0.0,0.0,0.0,0.0,0.0,0.01456150880196222,-0.09055509666684222,0.017440559240249183,-0.06359291275288184,-0.007702013020204503,0.030511153184216374,0.19303961637902683
1462,4.0,298.77102,334.32623,0.0,0.0,0.0,0.0,0.0,0.014571475611546036,-0.1078086150048819,0.02647606704598437,-0.02029427276888878,-0.023309181216187077,0.02067396392586138,0.18522790393807081
1463,4.0,299.67841,42.250979,0.0,0.0,0.0,0.0,0.0,0.014581442421129881,-0.022273433924216778,0.022549890094750877,-0.013119698070313386,0.012839652967925089,-0.015313228496297984,0.14888637187644085
1464,4.0,300.19118,369.64766000000003,0.0,0.0,0.0,0.0,0.0,0.014591409230713698,-0.06803171724770773,-0.014880875691878086,-0.02945106458509377,-0.0006658025775770984,-0.01135640072953949,0.15930830776750585
1465,4.0,299.00407,522.34291,0.0,0.0,0.0,0.0,0.0,0.014601376040297487,-0.09940591228409972,0.003242182369903487,-0.06261547091141584,0.03441182055093227,0.018835123723881984,0.16173816256731383
1466,4.0,299.81556,337.33495,0.0,0.0,0.0,0.0,0.0,0.014611342849881331,-0.07132745302647153,-0.016774136543478382,-0.014439811976348487,-0.0036628283866430166,-0.008799819347674553,0.15984456025042984
1467,4.0,300.63912999999997,-61.620091,0.0,0.0,0.0,0.0,0.0,0.014621309659465148,-0.017505946295702384,0.026211152807339377,0.01002576219471569,-0.014561911653148785,-0.028090433847309974,0.14934073348628288
1468,4.0,301.44133999999997,-255.56266000000002,0.0,0.0,0.0,0.0,0.0,0.014631276469048965,-0.0071922418286440035,0.061765680344048036,0.02311122862365068,0.005121322770760206,-0.013746085229132987,0.15744979430158484
1469,4.0,300.53597,-25.427347,0.0,0.0,0.0,0.0,0.0,0.01464124327863281,0.008531117884130782,0.008127013681898804,-0.008928852897559172,0.0019236309968475983,0.015734758776399786,0.13207695801748087
1470,4.0,300.29117,354.92386,0.0,0.0,0.0,0.0,0.0,0.014651210088216599,-0.0849024915062235,0.03197009755270297,-0.054955596024445046,0.006738192502482823,-0.0017542547929064684,0.16068058277543884
1471,4.0,299.39437000000004,443.06707,0.0,0.0,0.0,0.0,0.0,0.014661176897800415,-0.09925957971790782,-0.006430509382416864,-0.02899123649096227,-0.03179383965805767,-0.038076323637340564,0.16643340141069785
1472,4.0,299.59702999999996,95.200413,0.0,0.0,0.0,0.0,0.0,0.01467114370738426,-0.07139020563166473,0.038250181142498965,0.004201475382203336,0.01099164082604049,-0.02185400208507208,0.17571503577172382
1473,4.0,299.55274,182.50609,0.0,0.0,0.0,0.0,0.0,0.014681110516968077,-0.07053071623433974,0.02889450353041547,-0.013841082492258489,0.022604459692136477,0.004610410659587105,0.17943681484653481
1474,4.0,300.18575,584.49577,0.0,0.0,0.0,0.0,0.0,0.014691077326551893,-0.11761139428984088,-0.0048449829213375855,-0.055215741908119446,0.016687154088643883,0.007740556040758404,0.19126407796379483
1475,4.0,298.77355,342.1722,0.0,0.0,0.0,0.0,0.0,0.01470104413613571,-0.05598538540582734,0.011728280741491189,-0.059754699082579646,-0.021770941921374683,-0.015592030340813585,0.17105913129722183
1476,4.0,298.92537000000004,-27.170192999999998,0.0,0.0,0.0,0.0,0.0,0.014711010945719527,-0.024352096239364775,0.04581387123722705,-0.013202714664256486,0.0011263602219130989,0.015036095474697087,0.16874434117876985
1477,4.0,300.17147,91.222086,0.0,0.0,0.0,0.0,0.0,0.014720977755303344,-0.07687367097959062,0.04079612400626396,0.008348310746139122,0.016248520146854083,0.046616131255653954,0.17709658201807182
1478,4.0,300.54416000000003,182.06875,0.0,0.0,0.0,0.0,0.0,0.014730944564887188,-0.08142314062383832,0.04016291767427136,-0.014084130793745486,0.016503958470563882,0.01157132728775109,0.17747223436014584
1479,4.0,299.97868,164.99594,0.0,0.0,0.0,0.0,0.0,0.014740911374471005,-0.07383791997773534,0.04203621141940106,-0.018352938266293983,-0.01809730742506518,-0.03828107615129807,0.18131987936237884
1480,4.0,299.58135,387.50049,0.0,0.0,0.0,0.0,0.0,0.014750878184054794,-0.06410244988366924,0.001757667419243268,-0.05544568888581345,-0.02113242007935748,-0.028595896699445268,0.16563701722960084
1481,4.0,299.53695,264.08308999999997,0.0,0.0,0.0,0.0,0.0,0.014760844993638639,-0.043975332983777454,0.026701081522191576,-0.06300041171715653,-0.0010811694701031189,0.008133707820009462,0.17183344689114083
1482,4.0,299.31757000000005,159.04373999999999,0.0,0.0,0.0,0.0,0.0,0.014770811803222456,-0.04912234356974786,-0.007376780003106503,0.008153797428417152,0.0006925558252674383,-0.002979721513725617,0.14199053620087487
1483,4.0,300.34902999999997,471.76142999999996,0.0,0.0,0.0,0.0,0.0,0.0147807786128063,-0.08096122624775091,-0.02050539659947508,-0.04193707300311686,-0.015805564693387786,-0.031735546366554575,0.16372868225626283
1484,4.0,299.96198,392.71366,0.0,0.0,0.0,0.0,0.0,0.014790745422390117,-0.08753973023049873,-0.01927716826550838,-0.012558248083902589,-0.006844457208045333,-0.002341849367672538,0.15119509262679384
1485,4.0,299.61629,-85.92645999999999,0.0,0.0,0.0,0.0,0.0,0.014800712231973906,-0.01998313710043208,0.016206153120422787,0.02989648122305297,0.0056914564118530145,0.04055527344424386,0.16193892794212786
1486,4.0,299.55595,-107.47787,0.0,0.0,0.0,0.0,0.0,0.01481067904155775,-0.0029829918797483774,0.054130611846025446,-0.01847702999279088,0.016464604849929985,0.0025768446613397672,0.16542380914355884
1487,4.0,300.45431,272.32602,0.0,0.0,0.0,0.0,0.0,0.014820645851141567,-0.025306159361273478,0.015805585971639884,-0.07327973772289703,-0.016343983505025583,-0.028836755367466174,0.16874964047679283
1488,4.0,299.81937999999997,254.91544,0.0,0.0,0.0,0.0,0.0,0.014830612660725384,-0.06925745095992823,0.04747310880598105,-0.055703587380766036,-0.01143941124398199,0.0036911187347350564,0.16487140545404083
1489,4.0,301.67567,221.95857,0.0,0.0,0.0,0.0,0.0,0.014840579470309229,-0.06300704445231115,0.010414894816120089,-0.014877712325065883,0.001040858328124719,0.05334907076564335,0.15687301181466087
1490,4.0,300.6059,130.44003,0.0,0.0,0.0,0.0,0.0,0.014850546279893018,-0.11162049227858489,0.04977922449032695,0.02219075879555738,-0.025487551394175478,0.016384821537055984,0.16330310708176185
1491,4.0,299.59701,226.54962,0.0,0.0,0.0,0.0,0.0,0.014860513089476834,-0.09207283993863181,0.044059225025806954,-0.02085181059666348,-0.023086524572962577,-0.03138335380404587,0.19184642319376782
1492,4.0,299.22444,320.51624,0.0,0.0,0.0,0.0,0.0,0.014870479899060679,-0.05696163161217535,0.00023262052927535876,-0.04069992198876956,-0.01161865619992209,-0.015935288063940484,0.17049805418684782
1493,4.0,299.02612999999997,388.01948,0.0,0.0,0.0,0.0,0.0,0.014880446708644496,-0.055443720140869145,0.02029201524766598,-0.08279652919363122,0.025707933290925473,0.006880822551484312,0.2120795787431248
1494,4.0,299.95989,225.91701,0.0,0.0,0.0,0.0,0.0,0.014890413518228313,-0.058360239976957246,0.019460477367599583,-0.029773368296152673,0.013851307199017587,-0.02211118117245368,0.1872347977486358
1495,4.0,299.74525,-4.680710400000001,0.0,0.0,0.0,0.0,0.0,0.01490038032781213,-0.027999969865131872,0.026142315635295676,0.0032804734964825273,-0.0004330614310098355,-0.03446553597848357,0.18628266689466783
1496,4.0,299.82971000000003,251.18278999999998,0.0,0.0,0.0,0.0,0.0,0.014910347137395946,-0.1018313209424689,0.033517841133453366,-0.008039822092243663,0.003805808614879066,0.004289204095736485,0.15979804193833885
1497,4.0,300.19587,525.5572,0.0,0.0,0.0,0.0,0.0,0.014920313946979763,-0.09294491288894871,-0.014267617214604185,-0.052543735533162945,0.005919867302395415,0.05424300357361765,0.17212412807982883
1498,4.0,300.63204,94.916462,0.0,0.0,0.0,0.0,0.0,0.014930280756563608,-0.004086701604951047,0.016595503590598682,-0.041361036268266455,-0.005453528063121315,0.010837212391549592,0.14421129671004687
1499,4.0,300.50827999999996,-66.845277,0.0,0.0,0.0,0.0,0.0,0.014940247566147424,-0.0047704024450770655,0.04525829303514576,-0.02016859530598538,-0.008834033358501211,-0.016514048415059684,0.17499089632275683
1500,4.0,300.9477,329.08092999999997,0.0,0.0,0.0,0.0,0.0,0.014950214375731213,-0.06284815163787964,-0.002572955199505908,-0.03461127781986717,-0.0014298334904635785,-0.019373722894037583,0.15935330620444685
1501,4.0,300.77612999999997,402.57259,0.0,0.0,0.0,0.0,0.0,0.014960181185315058,-0.10888356190347089,0.024145218939947578,-0.03763367317215436,0.017572282766499286,0.023113421296867078,0.16358507431958982
1502,4.0,301.03229,310.82976,0.0,0.0,0.0,0.0,0.0,0.014970147994898875,-0.09980893757762521,0.0006540903082136873,0.0046703627428289155,-0.017448519333034786,-0.002004189750023128,0.15223675425959787
1503,4.0,300.59592000000004,309.62518,0.0,0.0,0.0,0.0,0.0,0.01498011480448272,-0.0905349927716081,0.014066570156262385,-0.017649899750659483,-0.01892121958487898,-0.007344079787929243,0.17061215628060883
1504,4.0,300.05903,61.98819399999999,0.0,0.0,0.0,0.0,0.0,0.014990081614066536,-0.015867293915979984,0.053269038193244744,-0.056244607205410545,0.004105860239166856,0.00011042894055848791,0.17963862386895182
1505,4.0,300.15871,89.266346,0.0,0.0,0.0,0.0,0.0,0.015000048423650325,-0.02152757545935628,0.016613062201581586,-0.02222022714821568,0.02092664722254928,0.024923935079050875,0.16445323713777085
1506,4.0,300.07439,446.32478,0.0,0.0,0.0,0.0,0.0,0.01501001523323417,-0.08392875613362333,0.028292191193971875,-0.08003502345059182,0.014831703677775187,-0.028746856778843873,0.2067275613174218
1507,4.0,299.60499,284.17601,0.0,0.0,0.0,0.0,0.0,0.015019982042817986,-0.0866719109041016,0.007115684298788364,-0.006826184255741933,0.005477978902609425,-0.05484478496700885,0.17219891606970983
1508,4.0,298.3029,-207.45657,0.0,0.0,0.0,0.0,0.0,0.015029948852401803,-0.041609261264514356,0.05957261803960964,0.045098261327601856,0.027290761669638473,0.006038773113555504,0.16800792113859084
1509,4.0,299.33991000000003,236.14452000000003,0.0,0.0,0.0,0.0,0.0,0.015039915661985648,-0.1012473788303383,0.04636110025848436,-0.016895757966231485,0.04203026161481386,0.03831166515856696,0.15390834334707088
1510,4.0,300.3301,613.56847,0.0,0.0,0.0,0.0,0.0,0.015049882471569437,-0.1061294062766569,-0.00856979303249772,-0.07181029304362414,0.011341287091047888,0.02295116449210358,0.17714234039258783
1511,4.0,300.67214,116.16593,0.0,0.0,0.0,0.0,0.0,0.015059849281153254,-0.045806154324465456,0.040385833709521465,-0.02989122144178387,-0.04132431709789256,-0.00928785065038949,0.17294130415297784
1512,4.0,299.1826,-59.276422,0.0,0.0,0.0,0.0,0.0,0.015069816090737098,-0.00994926728371623,0.045564684666634256,-0.017596866240425484,-0.00916252245479556,0.002273857144887228,0.18620870976986884
1513,4.0,300.71873999999997,209.51071000000002,0.0,0.0,0.0,0.0,0.0,0.015079782900320915,-0.08389894124943083,0.03086851534873527,-0.01065559845687569,-0.03048820712245177,0.02204438063311098,0.1873800775479738
1514,4.0,301.28296,447.26403,0.0,0.0,0.0,0.0,0.0,0.01508974970990476,-0.08816208972017081,0.002079577685288338,-0.04987458449698825,-0.02536721578579927,-0.0009513178524852621,0.17807264583940183
1515,4.0,301.0775,393.73374,0.0,0.0,0.0,0.0,0.0,0.015099716519488549,-0.07773519802286673,0.002086064613753548,-0.044036090499523756,-0.009692229646048591,-0.03069155729827087,0.16805726641846083
1516,4.0,299.34452999999996,332.81407,0.0,0.0,0.0,0.0,0.0,0.015109683329072365,-0.044745837744070364,0.005458770821788735,-0.06188010059834045,-0.006766904261291453,0.012883186245221487,0.17984581324939983
1517,4.0,300.3375,62.338314000000004,0.0,0.0,0.0,0.0,0.0,0.015119650138656182,-0.023067871651871682,0.038644588743923965,-0.03452600775770167,0.04783453410340095,0.032583174658208966,0.18241786756824183
1518,4.0,299.45222,83.122282,0.0,0.0,0.0,0.0,0.0,0.015129616948240027,-0.028238834456955974,0.018824064099040482,-0.015852328212002983,0.014595040878418383,-0.001094494519518199,0.16775023137315884
1519,4.0,299.87411000000003,507.69132,0.0,0.0,0.0,0.0,0.0,0.015139583757823843,-0.11236442050200489,0.016359857081092184,-0.058320916753826356,0.004136407601856646,-0.036443727453465864,0.1896263010321588
1520,4.0,299.73172999999997,280.88784,0.0,0.0,0.0,0.0,0.0,0.015149550567407633,-0.0982649501149955,0.03669177411769616,-0.023809714606585878,0.016530556285688884,-0.02026647323914518,0.18728369719846183
1521,4.0,299.18695,-309.99859,0.0,0.0,0.0,0.0,0.0,0.015159517376991477,-0.012074764652936488,0.06942822109203194,0.03687837526936227,0.005558613345567425,0.031264547190070574,0.15571293164266986
1522,4.0,299.35175,120.03437,0.0,0.0,0.0,0.0,0.0,0.015169484186575294,-0.07560011388915033,0.06555000937403224,-0.02643734873316318,-0.014551423501363686,0.014297305442534186,0.18019735023909383
1523,4.0,299.4326,542.08862,0.0,0.0,0.0,0.0,0.0,0.015179450996159138,-0.10410637139199891,0.01116287806644029,-0.07183791221484993,-0.03378411312723236,-0.012634748466452588,0.16688850269311284
1524,4.0,298.6785,121.01417,0.0,0.0,0.0,0.0,0.0,0.015189417805742927,-0.06316145363505013,0.04362743761494286,-0.017251270949317884,-0.0016045647211832084,0.023754148984351978,0.18084997449600285
1525,4.0,300.0228,151.79102,0.0,0.0,0.0,0.0,0.0,0.015199384615326744,-0.052416003199056746,0.03046964640711997,-0.024194323066293773,0.014124978958276885,0.02843139554571027,0.19161961729138383
1526,4.0,299.80473,244.59799999999998,0.0,0.0,0.0,0.0,0.0,0.015209351424910589,-0.0887145268469421,0.02837155299480427,-0.014008709522551987,0.002616964197724258,-0.00046181154133475053,0.18590581891747582
1527,4.0,299.34348,166.34412,0.0,0.0,0.0,0.0,0.0,0.015219318234494406,-0.034256139739317765,0.016912199975604184,-0.03322051809035987,-0.0008406723601154021,-0.04270475282213096,0.17555658372108585
1528,4.0,299.168,382.41763,0.0,0.0,0.0,0.0,0.0,0.015229285044078222,-0.06627029847261924,-0.010501488182916189,-0.03947362288299326,0.024713398933522576,0.012988976648412186,0.13969480531680387
1529,4.0,300.4309,567.42697,0.0,0.0,0.0,0.0,0.0,0.01523925185366204,-0.09157611332885872,-0.006544548553346655,-0.07436296895430364,0.015448168078365484,0.010414027474034492,0.17513636863961382
1530,4.0,300.56789,-117.05331000000001,0.0,0.0,0.0,0.0,0.0,0.015249218663245856,-0.04082323148618926,0.06453587571994503,0.01186864019834359,0.007985543702936804,-0.02956120588421387,0.15287418989750787
1531,4.0,300.13838,-264.93642,0.0,0.0,0.0,0.0,0.0,0.015259185472829673,-0.010954428202867888,0.05720281452022824,0.034285670913482266,-0.025334963021866178,-0.04032158858693096,0.18897243047762682
1532,4.0,300.39707000000004,441.07779000000005,0.0,0.0,0.0,0.0,0.0,0.015269152282413517,-0.07064597951271534,0.012071172681331989,-0.07550182862945033,0.025315484301943775,-0.004150046353502686,0.17119511959314285
1533,4.0,300.80064,476.37562,0.0,0.0,0.0,0.0,0.0,0.015279119091997334,-0.08908979415397811,0.008263153357384742,-0.06397965207755003,0.017126602683514083,0.017925690215877883,0.2115857105118838
1534,4.0,300.74974,177.24674,0.0,0.0,0.0,0.0,0.0,0.015289085901581151,-0.05174509991034375,0.021554179353981878,-0.02368766457904048,-0.015421645243747882,-0.001834563374632308,0.14701833385957985
1535,4.0,299.69404,342.9776,0.0,0.0,0.0,0.0,0.0,0.015299052711164968,-0.10126396066822481,0.038284458380131864,-0.04127712497448506,-0.019305552440559683,-0.00942125779300575,0.19410537309920883
1536,4.0,298.79684,422.29677000000004,0.0,0.0,0.0,0.0,0.0,0.015309019520748784,-0.10447880159875492,0.008230377857725053,-0.032119248980673074,-0.004978693735008815,0.03968392294124826,0.18244759632617583
1537,4.0,299.27543,427.82635999999997,0.0,0.0,0.0,0.0,0.0,0.015318986330332601,-0.09762052203814542,0.014802055979849184,-0.04723006557074455,0.012524389318560989,0.03263529928310327,0.1989745363222578
1538,4.0,300.67994,498.68290999999994,0.0,0.0,0.0,0.0,0.0,0.015328953139916418,-0.08989333289403123,0.03102915601958927,-0.09272297464004511,0.0007680317207738294,-0.024268958055409677,0.2075753476760918
1539,4.0,300.13257999999996,46.53645,0.0,0.0,0.0,0.0,0.0,0.015338919949500263,-0.033412816747338266,0.04062440344556646,-0.02135750548307168,-0.018388154786769584,-0.047125679532192453,0.1870498492078828
1540,4.0,301.55411000000004,-309.50133,0.0,0.0,0.0,0.0,0.0,0.015348886759084052,0.020515850300756783,0.05997430179000274,0.013590523981030287,0.025197028272503075,-0.0017156232142938282,0.16118369184759185
1541,4.0,300.73658,279.05074,0.0,0.0,0.0,0.0,0.0,0.015358853568667896,-0.07380880930236233,0.011178201447702589,-0.02219385022161248,0.03327496711098357,0.027005367619972274,0.14699206028448686
1542,4.0,300.11926,647.00335,0.0,0.0,0.0,0.0,0.0,0.015368820378251713,-0.15585132134132787,0.02186562001071868,-0.06268716240899123,0.004008241698032656,0.007182941205976103,0.1930063311132418
1543,4.0,300.55621,40.227724,0.0,0.0,0.0,0.0,0.0,0.01537878718783553,-0.055459135727890546,0.044333426714868555,-0.001102514596709719,-0.008533339637625053,-0.026883644872209175,0.17079514924866884
1544,4.0,300.26042,-227.28019,0.0,0.0,0.0,0.0,0.0,0.015388753997419347,0.023955495964723378,0.03851870356475007,0.006613303652132254,-0.007485400515151513,0.018650770974187783,0.1832299773908908
1545,4.0,299.69119,358.21459,0.0,0.0,0.0,0.0,0.0,0.015398720807003163,-0.06260232703111863,0.016498878034562486,-0.06278484174513144,0.016668957130097986,0.014582816015961887,0.17378423704366883
1546,4.0,300.04831,636.35758,0.0,0.0,0.0,0.0,0.0,0.01540868761658698,-0.08556845621394911,-0.03354346825498257,-0.07432489000229553,-0.006880392730791893,-0.012399698761254989,0.18684199108236882
1547,4.0,299.54675,136.9122,0.0,0.0,0.0,0.0,0.0,0.015418654426170797,-0.08311275137758992,0.023343268976051275,0.018151593312422783,-0.015861127275871384,-0.035710064466808966,0.15151664754602887
1548,4.0,300.42834,-25.95433,0.0,0.0,0.0,0.0,0.0,0.015428621235754642,-0.058954306484087046,0.039326118999685765,0.027517655724781175,0.006344819328084914,0.03042743339470387,0.17348448726658583
1549,4.0,300.88672,-75.62241800000001,0.0,0.0,0.0,0.0,0.0,0.015438588045338458,-0.03689907394240506,0.04404564038171625,0.015840760948861384,0.007087435899250464,0.04221123922842496,0.17139956306581985
1550,4.0,300.51017,364.18677,0.0,0.0,0.0,0.0,0.0,0.015448554854922275,-0.04859143699435146,-0.022921766053702178,-0.03919048230154946,0.0017831071908289784,0.004466716090030556,0.17774927720248784
1551,4.0,300.51175,820.97358,0.0,0.0,0.0,0.0,0.0,0.015458521664506092,-0.13826962852114988,-0.01942345320894558,-0.09186238789286182,-0.019091325024917085,-0.024019370237777275,0.19676678594436983
1552,4.0,300.96456,408.96091,0.0,0.0,0.0,0.0,0.0,0.015468488474089909,-0.058445157428087945,-0.004616336551471946,-0.061252410399892245,0.01101316225816449,-0.0022828279546475774,0.17396336952884783
1553,4.0,301.05953,-158.84127,0.0,0.0,0.0,0.0,0.0,0.015478455283673753,-0.02942200457222577,0.04442005047916766,0.03328573289329607,0.005739304108075214,-0.01115613184727449,0.16783984321200285
1554,4.0,301.3481,391.30633,0.0,0.0,0.0,0.0,0.0,0.01548842209325757,-0.09808351045933882,0.013432217838406686,-0.03429606179325777,-0.002750558386308977,-0.014200903814770089,0.1853045664406368
1555,4.0,300.31915,908.0047300000001,0.0,0.0,0.0,0.0,0.0,0.015498388902841359,-0.16943586410701783,-0.03150688621648757,-0.07506801471838623,-0.006566425332280724,-0.026921732943468175,0.19867538436273383
1556,4.0,300.56728,373.17667,0.0,0.0,0.0,0.0,0.0,0.015508355712425204,-0.06123621967654435,0.0040592255046393655,-0.05625939660387015,0.02608823949070877,0.040417018507849164,0.1938668540256688
1557,4.0,299.43543999999997,-147.73661,0.0,0.0,0.0,0.0,0.0,0.01551832252200902,0.0039040724950019567,0.03563145753730107,0.005372709309970125,0.01042577104269349,0.05180393225090005,0.1783345405927488
1558,4.0,299.35623,90.017273,0.0,0.0,0.0,0.0,0.0,0.015528289331592837,-0.03593977434397957,0.03749361667708186,-0.028916844681870373,0.0022496031798935477,-0.015315451567017385,0.18365222910506382
1559,4.0,300.04433,333.0535,0.0,0.0,0.0,0.0,0.0,0.015538256141176682,-0.11665264691271988,0.03362117947140207,-0.01820848325253738,-0.018237318323883183,-0.03029918632954687,0.17235995190810285
1560,4.0,300.44563,380.13826,0.0,0.0,0.0,0.0,0.0,0.01554822295076047,-0.1003530153910715,0.006475213976828864,-0.02167473787738008,0.0013912768923583386,0.027276177960949177,0.16736159929730382
1561,4.0,299.34984,251.898,0.0,0.0,0.0,0.0,0.0,0.015558189760344288,-0.08295906970842272,0.02850253887498157,-0.022114171273498778,0.004021972351462766,0.026845976286491574,0.1860866941928268
1562,4.0,299.63536,-80.273924,0.0,0.0,0.0,0.0,0.0,0.015568156569928132,-0.02405397374194238,0.04908700343276005,-0.0006317607686049335,-0.02439850005419448,-0.012678353684506089,0.18448305365705983
1563,4.0,300.6938,185.53496,0.0,0.0,0.0,0.0,0.0,0.015578123379511949,-0.020889704123903282,0.004555326736450745,-0.04006361815122126,-0.01846375945623118,-0.03023908945286577,0.17954554671476583
1564,4.0,300.72129,744.65309,0.0,0.0,0.0,0.0,0.0,0.015588090189095766,-0.1125336231362039,-0.006583072930098713,-0.10723924950868989,0.04338235470725505,0.012001547200710488,0.17400357529281585
1565,4.0,299.72323,434.43788,0.0,0.0,0.0,0.0,0.0,0.015598056998679583,-0.0926972127562526,-0.003398808341211267,-0.035962246204697366,0.024612971663111178,-0.004981393641225276,0.18661685704264983
1566,4.0,299.6766,-325.64232999999996,0.0,0.0,0.0,0.0,0.0,0.0156080238082634,-0.004509510708004056,0.06073072642690604,0.04276592070416776,0.0034865473898954362,-0.034539293493012865,0.16269217806646785
1567,4.0,299.85728,-48.664256,0.0,0.0,0.0,0.0,0.0,0.015617990617847216,-0.03611777604204697,0.04136792434244626,0.00954257037712837,-0.024133387218529877,-0.03638444928286557,0.17930207284823682
1568,4.0,301.08353999999997,487.30817,0.0,0.0,0.0,0.0,0.0,0.01562795742743106,-0.08861672085453941,0.004888039869761975,-0.06440083582611764,-0.004414403608567716,0.05381145123677675,0.18360897345829483
1569,4.0,300.53528,190.69543000000002,0.0,0.0,0.0,0.0,0.0,0.015637924237014877,-0.028834958875038872,0.01862634455402708,-0.04775803574735116,-0.010424734487841189,0.028735734332496175,0.17142318192565084
1570,4.0,298.84716000000003,-54.052147,0.0,0.0,0.0,0.0,0.0,0.015647891046598666,-0.0074139919170040335,0.04149286314602676,-0.01764836771650828,-0.039318285563162664,-0.018388139588018083,0.19190712700725882
1571,4.0,299.22492,171.15693000000002,0.0,0.0,0.0,0.0,0.0,0.01565785785618251,-0.08469413587491041,0.046611140998911456,-0.013944438055458887,-0.007125541601061203,-0.041721501004591564,0.18637281575606482
1572,4.0,299.14639,431.70590999999996,0.0,0.0,0.0,0.0,0.0,0.015667824665766328,-0.1017294386449139,0.02543437197592708,-0.05493274723469004,0.030654748961888176,0.01899577351398688,0.2078855035317018
1573,4.0,299.2534,673.8673,0.0,0.0,0.0,0.0,0.0,0.015677791475350172,-0.12875631452475886,-0.01114102428828349,-0.06494149290722634,0.03096637099039287,0.03194441774216857,0.18184876551707582
1574,4.0,299.2182,643.9614799999999,0.0,0.0,0.0,0.0,0.0,0.01568775828493399,-0.10763133676738589,0.023061306804473776,-0.11117817821243188,-0.02843018673834097,-0.01200327783188129,0.2288799037486878
1575,4.0,300.27525,-15.47891,0.0,0.0,0.0,0.0,0.0,0.015697725094517778,-0.03213768202649227,0.03160853141351917,0.005234352947240415,-0.009006142399287051,0.003857500581980666,0.17026827946167084
1576,4.0,301.10617,-80.863091,0.0,0.0,0.0,0.0,0.0,0.015707691904101623,-0.03054827866788037,0.05008076772008695,0.005047871257761105,-0.011581479040502989,0.03806414133138826,0.18280516215396483
1577,4.0,299.93904,424.74604000000005,0.0,0.0,0.0,0.0,0.0,0.01571765871368544,-0.1010955635678553,-0.0014192256738416687,-0.026597402732209275,0.007812184716827603,0.022827030209102477,0.17081052025268584
1578,4.0,299.69628,419.56060999999994,0.0,0.0,0.0,0.0,0.0,0.015727625523269256,-0.07677779421537832,-0.016487402977179984,-0.03427075181900986,-0.01169125556958709,-0.04182435500899246,0.18054450998835583
1579,4.0,300.33072999999996,-82.522214,0.0,0.0,0.0,0.0,0.0,0.0157375923328531,-0.018688544937915785,0.03731306462851276,0.006460172887044424,0.015443856699189984,-0.021801171224858078,0.14383347601275887
1580,4.0,299.65146,-40.621491999999996,0.0,0.0,0.0,0.0,0.0,0.01574755914243689,0.006707272162431223,0.02626395630980068,-0.02062330851361208,0.03091605197717677,0.029364565450556972,0.18098492927682183
1581,4.0,300.23933999999997,337.72312999999997,0.0,0.0,0.0,0.0,0.0,0.015757525952020707,-0.07294914157301972,0.011575788627941388,-0.041286046641615566,0.009154446446198521,0.014975842557500585,0.17135209229863482
1582,4.0,300.35717999999997,485.5768,0.0,0.0,0.0,0.0,0.0,0.01576749276160455,-0.07409867583796993,-0.004974862636380715,-0.06852968508885335,-0.024684487868419272,-0.01843550193744238,0.19310535604551482
1583,4.0,299.72303,490.35947000000004,0.0,0.0,0.0,0.0,0.0,0.015777459571188368,-0.14334334667438686,-0.006330133787760563,0.0006164515120490274,-0.024474940654988578,-0.014342614947255887,0.16885246509694082
1584,4.0,299.41321,270.50432,0.0,0.0,0.0,0.0,0.0,0.015787426380772185,-0.06198124119682224,0.02077453913078738,-0.04101985570784456,0.01040668242405959,0.03301365801619437,0.20324454449617482
1585,4.0,299.77066,-203.46903999999998,0.0,0.0,0.0,0.0,0.0,0.015797393190356,-0.024402644247103478,0.054712955049498246,0.03153919774892647,-0.00921324636275162,0.004604631992941795,0.17482481449886583
1586,4.0,299.36445,171.5912,0.0,0.0,0.0,0.0,0.0,0.01580735999993982,-0.02270576139738418,0.010445100814851189,-0.03989877857195286,-0.016186544704487583,-0.030205373555788267,0.2029243878620778
1587,4.0,299.89968,518.21748,0.0,0.0,0.0,0.0,0.0,0.015817326809523635,-0.12250054893736288,0.01162645822569209,-0.046651080278103156,0.005537886706821865,-0.02005369375789548,0.17618144492525484
1588,4.0,299.19522,18.849842000000002,0.0,0.0,0.0,0.0,0.0,0.01582729361910748,-0.04479196696812296,0.04009956218526866,-0.0010374768085659892,0.028841474073181873,0.03456613854116227,0.17704408553039083
1589,4.0,299.577,-214.75114,0.0,0.0,0.0,0.0,0.0,0.015837260428691297,-0.032764527174357065,0.054995341772867655,0.043048169625523554,0.016237993491565184,0.03353629039127417,0.16470897133050985
1590,4.0,299.99728999999996,379.57854,0.0,0.0,0.0,0.0,0.0,0.015847227238275086,-0.06539369122810484,0.021473158862735778,-0.07146186571848702,-0.015982359610586083,-0.01606403567464688,0.20744220661295182
1591,4.0,300.80171,582.45905,0.0,0.0,0.0,0.0,0.0,0.01585719404785893,-0.10530251313504889,-0.00966714451199788,-0.06208334944914954,-0.030697312558838872,-0.004026674338551816,0.18055803687719083
1592,4.0,300.70136,222.01986000000002,0.0,0.0,0.0,0.0,0.0,0.015867160857442747,-0.043831748351856756,0.03450434041756326,-0.05816108566980224,0.007434466965749763,-0.0015750874519240286,0.1872593082685548
1593,4.0,300.3762,141.97757,0.0,0.0,0.0,0.0,0.0,0.01587712766702659,-0.05001154348650505,0.019655648588611484,-0.012801743228683687,0.0002195653590244138,0.0039491311189988965,0.18523710424897882
1594,4.0,300.46898999999996,175.00281999999999,0.0,0.0,0.0,0.0,0.0,0.01588709447661041,-0.07297984406429983,0.038593896854671066,-0.01881054126320588,-0.00956859915099721,-0.021950112910057478,0.21295524974454677
1595,4.0,301.20304,306.76597999999996,0.0,0.0,0.0,0.0,0.0,0.015897061286194197,-0.0929845147558571,0.0006287789458131503,-0.0008934614946902843,-0.0026927829669319875,0.0070470365031883525,0.17727970670864482
1596,4.0,299.29024,362.73535,0.0,0.0,0.0,0.0,0.0,0.015907028095778042,-0.06914253927933733,0.015227958434132487,-0.05634791007960575,0.03799624242893716,0.03265964261675577,0.17127024195555682
1597,4.0,299.03305,249.24483999999998,0.0,0.0,0.0,0.0,0.0,0.01591699490536186,-0.04727861038303555,0.002340961659259928,-0.03082655868859447,0.01153621715853599,0.015210085715618587,0.17568187209595082
1598,4.0,299.06282000000004,-31.329462,0.0,0.0,0.0,0.0,0.0,0.015926961714945675,0.011438634081155289,0.02050738864917168,-0.022422649186943183,-0.002358595149425218,-0.04333957731453326,0.15723330328521884
1599,4.0,300.61199,354.51423,0.0,0.0,0.0,0.0,0.0,0.01593692852452952,-0.06767932811467964,-0.009839394799847662,-0.03024475149442457,-0.025583797994674275,-0.025189368101747076,0.15990463584885883
1600,4.0,301.04456,669.07974,0.0,0.0,0.0,0.0,0.0,0.01594689533411331,-0.12855461695985287,-0.014332974885804487,-0.06049594725948515,0.00017703753993474482,0.015766674128049586,0.16674367885631985
1601,4.0,300.65513,154.23296000000002,0.0,0.0,0.0,0.0,0.0,0.015956862143697126,-0.07573425908313942,0.043408506692336056,-0.014557216252185383,-0.015167182679884384,0.00932352809833558,0.1917137076956698
1602,4.0,299.65312,-93.153314,0.0,0.0,0.0,0.0,0.0,0.01596682895328097,-0.01897684498886878,0.04003321862172106,0.007259908190197153,-0.03325845214760367,-0.02180584230781908,0.2013275057044778
1603,4.0,301.03175,329.66812000000004,0.0,0.0,0.0,0.0,0.0,0.015976795762864787,-0.07986661419122112,0.03985481466336396,-0.06019907612593624,-0.022620118459181878,-0.01832692003022618,0.22348838983408678
1604,4.0,300.60759,486.70752000000005,0.0,0.0,0.0,0.0,0.0,0.015986762572448604,-0.07249499882519934,-0.00043078788017045363,-0.07502114480851052,0.03161455923836407,-0.0069479119684305235,0.18929427923939082
1605,4.0,299.69359,294.26556,0.0,0.0,0.0,0.0,0.0,0.01599672938203242,-0.08448183971395842,0.03062509721096177,-0.03559263992597007,0.04413948355297786,0.011995439329107687,0.2019876685421308
1606,4.0,299.16622,299.36229,0.0,0.0,0.0,0.0,0.0,0.016006696191616238,-0.09628797555338331,0.02840377637448447,-0.023114461904719778,-0.007352536677238873,-0.02094677543578578,0.18526287119902182
1607,4.0,298.9231,121.87926999999999,0.0,0.0,0.0,0.0,0.0,0.016016663001200054,-0.06597078376955944,0.02994590249668047,-0.001023374089699159,-0.015154640670146586,0.011640606236838389,0.17998120372776183
1608,4.0,298.90873999999997,144.97995,0.0,0.0,0.0,0.0,0.0,0.0160266298107839,-0.03905923398959626,0.02114147448225108,-0.026152526156553377,-0.012380999230659488,0.06023802849953054,0.16667692593973182
1609,4.0,299.87532999999996,385.79735,0.0,0.0,0.0,0.0,0.0,0.016036596620367716,-0.06503247263370535,0.016133405816243184,-0.06837369422270824,-0.005719922862812434,0.05160845300185775,0.1886575427440498
1610,4.0,299.72737,-1.0669794,0.0,0.0,0.0,0.0,0.0,0.016046563429951505,-0.026855547446936176,0.04896284787150686,-0.021782965147061278,-0.025572139539023677,-0.033730139320905565,0.18785008373935982
1611,4.0,299.99192,-229.27088999999998,0.0,0.0,0.0,0.0,0.0,0.01605653023953535,-0.038695783205226465,0.06239939836734114,0.045989008477261756,-0.00954200680742275,-0.03675828993376076,0.17701553214257282
1612,4.0,301.02757,300.58402,0.0,0.0,0.0,0.0,0.0,0.016066497049119166,-0.08686632928028921,0.021733042314634278,-0.026236748518115475,0.02167709368386258,-0.015588948034009384,0.18399979415436582
1613,4.0,299.48547,614.33045,0.0,0.0,0.0,0.0,0.0,0.01607646385870301,-0.12293885053311987,-0.024576638541025375,-0.039225628907768165,0.04299444811847166,0.0014845238672610986,0.19513276817060482
1614,4.0,300.07376,352.50706,0.0,0.0,0.0,0.0,0.0,0.016086430668286827,-0.05433965750065665,0.008702466379391562,-0.061516151294921446,0.00942819176741508,-0.028485623677812176,0.19086960956736382
1615,4.0,299.99957,239.08969,0.0,0.0,0.0,0.0,0.0,0.016096397477870616,-0.04052674437442826,0.02890168240737397,-0.06105223372338634,-0.011117265599938688,0.0006387730267169893,0.18075423249405384
1616,4.0,299.95367999999996,231.0492,0.0,0.0,0.0,0.0,0.0,0.01610636428745446,-0.04344244753093576,0.02215912715393558,-0.04894986813772586,0.0033372357670845274,0.027393242798002572,0.17766498492666882
1617,4.0,299.75686,115.88761000000001,0.0,0.0,0.0,0.0,0.0,0.016116331097038278,-0.07509737060028343,0.04614558398871455,-0.006275152405534324,0.01176520458838529,0.025142779875399177,0.1901561092444468
1618,4.0,300.19649,152.16385,0.0,0.0,0.0,0.0,0.0,0.016126297906622095,-0.04935850683680536,0.030157084082522472,-0.027052589127632674,-0.0036442060657051363,-0.02414316204224458,0.18139241793703784
1619,4.0,299.44092,119.88676000000001,0.0,0.0,0.0,0.0,0.0,0.01613626471620594,-0.08990804629873332,0.06951623908846863,-0.016050775270588184,0.0048765238770754355,-0.02075880740973478,0.2070460156913508
1620,4.0,299.18616000000003,-69.08622700000001,0.0,0.0,0.0,0.0,0.0,0.016146231525789728,-0.01030654696967699,0.03613430316442807,-0.004827268979114356,0.01953864859956448,0.01923368058446648,0.18897242034512582
1621,4.0,299.28469,25.086178,0.0,0.0,0.0,0.0,0.0,0.016156198335373545,-0.04297652879045316,0.06235281926024414,-0.027001862787876373,0.017648804427301382,0.023968432128750078,0.20635237507039378
1622,4.0,299.73807999999997,657.30578,0.0,0.0,0.0,0.0,0.0,0.01616616514495739,-0.0982319455194882,0.004034555296504606,-0.10560715691011491,-0.01078401574804949,-0.030120711443682772,0.2192624479070188
1623,4.0,299.16637000000003,710.61892,0.0,0.0,0.0,0.0,0.0,0.016176131954541206,-0.17154859189052782,0.01121089598867929,-0.055672707570718453,-0.03346070700006467,-0.012438527518337088,0.1986744319076398
1624,4.0,300.50272,401.15631,0.0,0.0,0.0,0.0,0.0,0.016186098764125023,-0.0945983891176341,0.008177415274998052,-0.035520526916353067,-0.017252918493980484,0.011040843237646389,0.16833907153627284
1625,4.0,300.28337,204.94523,0.0,0.0,0.0,0.0,0.0,0.01619606557370884,-0.07992854910358363,0.02701596621601827,-0.009385649854016522,-0.021249793957691377,0.008164860903609033,0.19059065168233283
1626,4.0,299.96086,-25.413483,0.0,0.0,0.0,0.0,0.0,0.016206032383292657,-0.007349971026660663,0.03544671873931876,-0.02037168305002858,-0.006218865450554234,-0.03355062788018917,0.17616207158334282
1627,4.0,301.20161,0.31828268,0.0,0.0,0.0,0.0,0.0,0.016215999192876474,-0.02062500266777928,0.04144316018887146,-0.02091490770689068,0.01245607194381859,-0.01205889512987029,0.17071883125113685
1628,4.0,300.09195,-28.084190000000003,0.0,0.0,0.0,0.0,0.0,0.016225966002460318,-0.037303046624774065,0.04632970774388616,-0.0004897688746489246,0.047821572608121754,0.015096882374696285,0.16516370784288883
1629,4.0,298.29429,-252.27458,0.0,0.0,0.0,0.0,0.0,0.016235932812044135,-0.04721290719355116,0.08196082685565383,0.041937254374884755,0.028031847726527975,0.004976223633915035,0.1898740204166068
1630,4.0,300.23377999999997,-41.655234,0.0,0.0,0.0,0.0,0.0,0.016245899621627924,-0.03989387342821876,0.03355905102827047,0.01899697421535538,0.003963111031953606,-0.033657045485191765,0.17012796458782284
1631,4.0,298.63538,552.07013,0.0,0.0,0.0,0.0,0.0,0.01625586643121177,-0.0970872079805114,-0.017033476893323286,-0.05369485046826915,-0.007368927517481524,-0.005001112298771355,0.1965287734958798
1632,4.0,297.97334,716.03249,0.0,0.0,0.0,0.0,0.0,0.016265833240795585,-0.1073056680527449,-0.026501516848746076,-0.0838488127272335,-0.010777379973144591,0.032922049061403266,0.17577081518972884
1633,4.0,299.47972000000004,329.00088,0.0,0.0,0.0,0.0,0.0,0.01627580005037943,-0.05367630292518865,0.012877357017396188,-0.05920910544698375,-0.019950542871215282,0.019296987437464382,0.2022993645378928
1634,4.0,299.20516000000003,67.13803100000001,0.0,0.0,0.0,0.0,0.0,0.01628576685996322,-0.03779481540180786,0.022109020923240477,-0.004722490306148506,-0.025282565832694975,-0.00946141796071925,0.16964660999531683
1635,4.0,299.66932,381.15262,0.0,0.0,0.0,0.0,0.0,0.016295733669547036,-0.12294823322904588,0.041891681425137064,-0.034804328308419764,0.0007939324198300293,0.0052460950973492754,0.2253948705597418
1636,4.0,300.6992,321.4043,0.0,0.0,0.0,0.0,0.0,0.01630570047913088,-0.1077596750250519,0.02981408879117147,-0.01975329246099818,0.017235135954725485,0.02467197321643418,0.16691481679820985
1637,4.0,299.47343,-204.7111,0.0,0.0,0.0,0.0,0.0,0.016315667288714697,-0.044108314966651754,0.09247553997887521,0.013859838764859588,0.024964585659812775,0.009731194989244171,0.19931070230793482
1638,4.0,299.66087000000005,-136.53672,0.0,0.0,0.0,0.0,0.0,0.016325634098298514,0.007414382727567603,0.05075259306639095,-0.016663223147782086,-0.0034467818830958867,-0.03433644994224377,0.18133048809092583
1639,4.0,299.53997000000004,321.49099,0.0,0.0,0.0,0.0,0.0,0.01633560090788233,-0.07389835629319993,0.026847282365870473,-0.05067415838940005,-0.0002524089389583227,-0.015067958137341686,0.18754434565418582
1640,4.0,298.6549,531.00383,0.0,0.0,0.0,0.0,0.0,0.016345567717466147,-0.0981786323522266,-0.0045922013393899855,-0.058641072374673246,-0.004911079555835815,0.01128550463329259,0.16751539039748184
1641,4.0,300.15028,597.82103,0.0,0.0,0.0,0.0,0.0,0.016355534527049964,-0.14036146308759787,-0.0018312422447795383,-0.03952996060180336,-0.02037144493625508,0.012180387869860688,0.2096482243331688
1642,4.0,300.81992,199.91493,0.0,0.0,0.0,0.0,0.0,0.01636550133663381,-0.059482675881233044,0.03333185097159757,-0.03461832294781247,-0.006619078063127144,-0.012059532464183188,0.2054908693053698
1643,4.0,300.51604,-36.881568,0.0,0.0,0.0,0.0,0.0,0.016375468146217625,-0.026980661542783974,0.03847569920400586,-0.00028396194223986176,-0.01952195530416698,0.0013778870962618687,0.19984220264788982
1644,4.0,300.49593,312.39272,0.0,0.0,0.0,0.0,0.0,0.016385434955801442,-0.03396255862884357,0.01193539818118209,-0.07293242598612003,0.011559266571810788,-0.0009856721477882672,0.17137753500864586
1645,4.0,300.14064,522.0357799999999,0.0,0.0,0.0,0.0,0.0,0.01639540176538526,-0.0993792860979719,0.014322639734784487,-0.07362919451013573,-0.02253397497543018,0.001089979375747589,0.2001404325498228
1646,4.0,299.53882000000004,-4.5538706,0.0,0.0,0.0,0.0,0.0,0.016405368574969076,-0.03617984470342266,0.027640436305648674,0.009923671775590151,-0.028071829562223875,-0.013605290074737588,0.15775523854422982
1647,4.0,299.66564,-119.14266,0.0,0.0,0.0,0.0,0.0,0.016415335384552893,-0.06739473959884294,0.05141855473436625,0.05219257749900635,-0.01250208363085959,0.03295457540286337,0.17568009890827585
1648,4.0,298.57703,267.47744,0.0,0.0,0.0,0.0,0.0,0.01642530219413671,-0.07821196360566983,0.012525267806397688,-0.015619766035800885,0.014552132776433685,0.05129883720855105,0.16053071295314786
1649,4.0,299.36516,468.94996,0.0,0.0,0.0,0.0,0.0,0.016435269003720554,-0.09020701080698881,0.01063232714182899,-0.06297439348108874,0.01960165451728268,0.02208296621016908,0.19270029918553883
1650,4.0,300.58778,279.90713999999997,0.0,0.0,0.0,0.0,0.0,0.016445235813304343,-0.015229851185319285,0.013258593380771289,-0.08311352347416612,0.011958435435455687,-0.03652321185756036,0.18468547062953683
1651,4.0,299.94506,114.54688,0.0,0.0,0.0,0.0,0.0,0.016455202622888188,-0.03929190357030896,0.03867681617660457,-0.03420430389070197,0.04320089782634666,-0.035760059239993064,0.2018168953702768
1652,4.0,299.99516,297.68897999999996,0.0,0.0,0.0,0.0,0.0,0.016465169432472004,-0.07289961593463193,0.008360428001435003,-0.025950827578397277,0.04143736338504936,-0.017417516919725085,0.18985986531270982
1653,4.0,300.86444,359.72155,0.0,0.0,0.0,0.0,0.0,0.01647513624205582,-0.13003027387548888,0.040450095044113565,-0.01976619214802128,-0.0010627980298899991,-0.016043246822345186,0.2206342568199058
1654,4.0,299.69392999999997,445.98207,0.0,0.0,0.0,0.0,0.0,0.016485103051639638,-0.10845432889610888,0.029791107265653368,-0.05690419553025684,-0.05569386423280645,-0.017328665018456084,0.2326475121255218
1655,4.0,298.99952,410.79812000000004,0.0,0.0,0.0,0.0,0.0,0.016495069861223455,-0.08194836286617373,0.016889709876384586,-0.05981371786115435,-0.044142922523817255,0.012352774135873887,0.20042603735550982
1656,4.0,299.22232,36.196841,0.0,0.0,0.0,0.0,0.0,0.01650503667080727,0.008410223670974451,0.022715861474380976,-0.04212902006231056,-0.018620956089995283,0.04636341553496286,0.17880345247402685
1657,4.0,299.92512999999997,169.69548999999998,0.0,0.0,0.0,0.0,0.0,0.01651500348039109,-0.06875335396892773,0.04645696182394516,-0.029286798505381975,-0.004639717297529445,0.00013628461078024384,0.18369754164953583
1658,4.0,299.15252000000004,394.61357000000004,0.0,0.0,0.0,0.0,0.0,0.016524970289974933,-0.098323602097034,0.019999248790272182,-0.04162831745914506,-0.007981463851409153,-0.028135625815020073,0.17971219595871282
1659,4.0,299.41372,6.8793014999999995,0.0,0.0,0.0,0.0,0.0,0.01653493709955875,-0.07626383222140423,0.04179658790325206,0.03237610788102307,0.031719649485735676,-0.005772668913993064,0.17584087130164283
1660,4.0,299.60451,10.54227,0.0,0.0,0.0,0.0,0.0,0.016544903909142566,-0.04845732929061605,0.03143930750106807,0.013813434950029888,0.03447325998399586,0.042851031686067555,0.18465881201940582
1661,4.0,300.23553,275.43476,0.0,0.0,0.0,0.0,0.0,0.016554870718726383,-0.04723529191476036,0.02896226564410307,-0.06545226215013535,0.020899333039603583,0.0008824866180871482,0.2081197872198238
1662,4.0,299.86316,200.42543,0.0,0.0,0.0,0.0,0.0,0.0165648375283102,-0.021895008316619082,0.007584042438886712,-0.046613360016630453,-0.023292178879509077,-0.037691388911100465,0.19438203090651282
1663,4.0,300.54704,382.6314,0.0,0.0,0.0,0.0,0.0,0.016574804337894045,-0.07439360659757734,0.005347048345887584,-0.04726383111707695,-0.01044769980135769,-0.03150915893646187,0.18575701300778982
1664,4.0,299.7819,458.2096,0.0,0.0,0.0,0.0,0.0,0.01658477114747786,-0.10134661249213191,-0.0010161059454068492,-0.036921558975374164,-0.003078728612796857,0.014370483378006288,0.17228065495527684
1665,4.0,300.82394,65.570214,0.0,0.0,0.0,0.0,0.0,0.01659473795706165,-0.098932160107094,0.03499998284972936,0.04400046969225826,0.015455316557820988,-0.01209282684921909,0.1853840052484768
1666,4.0,301.11759,-138.36165,0.0,0.0,0.0,0.0,0.0,0.016604704766645467,-0.03907421590557487,0.06940031821077813,0.01173238339114609,-0.01194024050340999,-0.01089880482537829,0.18110611398878185
1667,4.0,299.98714,98.195084,0.0,0.0,0.0,0.0,0.0,0.016614671576229312,-0.047699846820608356,0.03218268856943407,-0.014331695150928185,0.008349538197310262,0.02006388604065138,0.17957084756976283
1668,4.0,299.36859,170.66908,0.0,0.0,0.0,0.0,0.0,0.01662463838581313,-0.025929003184493375,0.01775452086323478,-0.043704655378563655,0.014231464451036187,0.06226886844970884,0.1886201132853558
1669,4.0,300.52754,139.61648,0.0,0.0,0.0,0.0,0.0,0.016634605195396973,-0.06763226163428453,0.06144242215139494,-0.03625008421360476,0.0031831082678733273,0.00908465600846074,0.2103625149911638
1670,4.0,299.5813,356.65432999999996,0.0,0.0,0.0,0.0,0.0,0.016644572004980762,-0.0924960096573954,0.022622898817456275,-0.03854089982144067,-0.005021265235310295,-0.02929144628359067,0.2137750096054508
1671,4.0,299.68926,649.6642400000001,0.0,0.0,0.0,0.0,0.0,0.01665453881456458,-0.14673505952912286,0.004520396965753445,-0.055267040734182246,-0.005747649337223824,-0.03734763064242416,0.2211141624647688
1672,4.0,300.00841,590.72461,0.0,0.0,0.0,0.0,0.0,0.016664505624148424,-0.08536003472137951,-0.014230460320187087,-0.07997503499167143,0.017674018142789783,0.02670938713326127,0.2105598454481388
1673,4.0,300.70929,572.6352099999999,0.0,0.0,0.0,0.0,0.0,0.01667447243373224,-0.086770473794329,-0.007484204474733473,-0.07981212565384352,0.014615634173450786,0.0013736440101431084,0.2214506222929748
1674,4.0,300.4258,319.44125,0.0,0.0,0.0,0.0,0.0,0.016684439243316057,-0.05738978348168064,0.03252734153794867,-0.07223972262150553,-0.0054765544756188445,0.00981840481740111,0.23091436809447377
1675,4.0,300.40365,-104.74305,0.0,0.0,0.0,0.0,0.0,0.016694406052899874,-0.03163125557351187,0.03695620706254367,0.026514319263759578,-0.0032556458292822264,-0.012315055900901388,0.18226650826830385
1676,4.0,299.92163,30.45378,0.0,0.0,0.0,0.0,0.0,0.01670437286248369,-0.05677733155148635,0.03775034486816896,0.00976979860215405,0.008132828217597653,0.013115445459643688,0.17430825959788585
1677,4.0,299.54031000000003,367.36834,0.0,0.0,0.0,0.0,0.0,0.016714339672067507,-0.1250402805780149,0.009617339723207531,0.003752137972982186,-0.017536727820490282,-0.03151205784499797,0.18354060947404782
1678,4.0,299.175,101.4566,0.0,0.0,0.0,0.0,0.0,0.016724306481651352,-0.03258326889046827,0.013396878714668988,-0.01165388183964859,-0.03566535683264667,-0.03773489483064416,0.16193561461430084
1679,4.0,299.91265,45.835746,0.0,0.0,0.0,0.0,0.0,0.01673427329123517,-0.01889029012557648,0.037963062541162565,-0.03300569488365847,-0.008246225190614062,-0.0048781455838604855,0.17022426387732684
1680,4.0,299.81009,314.60352,0.0,0.0,0.0,0.0,0.0,0.016744240100818958,-0.053314468274728355,0.0002301961865560948,-0.04254734137934566,0.004013713349897666,0.05336774597823645,0.19125299300770082
1681,4.0,299.3528,318.4806,0.0,0.0,0.0,0.0,0.0,0.016754206910402802,-0.07870870237444413,0.02341691503306958,-0.04151836259804336,0.017354162443972487,0.024324679718158975,0.2000246079308918
1682,4.0,299.95974,224.05491,0.0,0.0,0.0,0.0,0.0,0.01676417371998662,-0.06823036695631293,0.033110665567518266,-0.032987396600102574,-0.016603873036424684,0.008037543292768762,0.2072358075675818
1683,4.0,299.51713,122.0257,0.0,0.0,0.0,0.0,0.0,0.016774140529570464,-0.06511974589131853,0.019824340544760084,0.008202637299137273,0.017468430710749883,0.009800280711537402,0.19826509913224183
1684,4.0,299.86355,-54.648384,0.0,0.0,0.0,0.0,0.0,0.01678410733915428,-0.016522207104864885,0.062112019360729034,-0.028978068292662678,0.01704448788215998,0.02781675803505027,0.22334553170248778
1685,4.0,299.99989,-110.85365,0.0,0.0,0.0,0.0,0.0,0.01679407414873807,-0.012804085862914887,0.04272521338140026,0.0037756141671991066,0.006871430229682363,0.005314941287318865,0.1916784060621858
1686,4.0,300.57227,384.93194,0.0,0.0,0.0,0.0,0.0,0.016804040958321914,-0.07450443994651572,0.012960752566876687,-0.055466012656319244,-0.03740242315483176,-0.023269927907313078,0.2161839205256918
1687,4.0,300.07825,381.2989,0.0,0.0,0.0,0.0,0.0,0.01681400776790573,-0.1133379917280889,0.01978653010402848,-0.022353885982156776,-0.011116692100382089,-0.013691882428283588,0.15387475410625587
1688,4.0,300.70699,94.701465,0.0,0.0,0.0,0.0,0.0,0.016823974577489548,-0.08009929491768493,0.01852449569372538,0.032787919066165676,-0.0016021261321675386,0.02058150282773618,0.18337245048745182
1689,4.0,301.19447,204.67161000000002,0.0,0.0,0.0,0.0,0.0,0.016833941387073392,-0.07806499674491534,0.03961396916759436,-0.023764031212577277,0.022873703548458774,0.0005957210736155925,0.16725842003962083
1690,4.0,301.04374,494.65534,0.0,0.0,0.0,0.0,0.0,0.01684390819665718,-0.06736010164417444,-0.004329904224428276,-0.07867286574490732,-0.006742403975198463,-0.012095196841202988,0.2355042897224638
1691,4.0,299.87438,276.52044,0.0,0.0,0.0,0.0,0.0,0.016853875006240998,-0.04525238173406236,0.022043329892757278,-0.06084625619005794,0.003743158347945966,0.0025774753082020074,0.18499917286049683
1692,4.0,300.34122,230.64359,0.0,0.0,0.0,0.0,0.0,0.016863841815824843,-0.045999510814548256,0.04342488385370236,-0.06753526522871173,-0.004542794859213946,0.01952997213895818,0.24371124062992675
1693,4.0,299.56863,197.28276,0.0,0.0,0.0,0.0,0.0,0.01687380862540866,-0.08236895487668293,0.024457228029990476,-0.002057304320265128,0.01893834148506878,-0.0002380133300175868,0.1942887916323108
1694,4.0,299.01489,162.6928,0.0,0.0,0.0,0.0,0.0,0.016883775434992476,-0.07256705205306044,0.03996804130903856,-0.016855538016762085,-0.015259229358718686,-0.022593232881028477,0.2194027222508628
1695,4.0,299.53607,363.70119,0.0,0.0,0.0,0.0,0.0,0.016893742244576293,-0.0940161330536699,-0.009030642280080001,-0.007509305415485743,0.01901528769766278,-0.024831196350398273,0.15277578304779585
1696,4.0,300.36419,475.78211,0.0,0.0,0.0,0.0,0.0,0.01690370905416011,-0.07436922982667152,-0.007441149755459304,-0.06281549965340714,0.015864113323916084,-0.0020683493543051878,0.18808510710005483
1697,4.0,299.26741,43.776295000000005,0.0,0.0,0.0,0.0,0.0,0.016913675863743927,-0.044596338771315955,0.042166099949720065,-0.01087666227094299,0.01014827325105659,-0.015491926297184088,0.18087181003565783
1698,4.0,300.02952,-200.44324,0.0,0.0,0.0,0.0,0.0,0.01692364267332777,0.01008234430944991,0.05852194152066594,-0.007674546241793742,-0.007745393702035842,-0.0048332203035767055,0.18032242583143784
1699,4.0,299.90937,101.66971,0.0,0.0,0.0,0.0,0.0,0.016933609482911588,-0.07778578858710962,0.04117549700270516,0.005705237829113134,-0.01982285917311388,0.017985588495539384,0.16984241044464082
1700,4.0,300.08995,205.75284,0.0,0.0,0.0,0.0,0.0,0.016943576292495377,-0.08338868471107243,0.07020534744172834,-0.04936038844224105,-0.02373183316414958,0.047810004331730056,0.2137043759409798
1701,4.0,299.93736,80.54146999999999,0.0,0.0,0.0,0.0,0.0,0.01695354310207922,-0.057525112151786545,0.037054126538957566,-0.0040116105519651364,-0.00972926687562888,0.019638916789710182,0.18628472379237082
1702,4.0,300.47202000000004,221.66092000000003,0.0,0.0,0.0,0.0,0.0,0.01696350991166304,-0.04042889379902116,0.053453792189978554,-0.08040428319778492,0.022622465146413476,-0.013483141761932488,0.24777953097393576
1703,4.0,299.42025,398.96221,0.0,0.0,0.0,0.0,0.0,0.016973476721246883,-0.06926889967280814,0.01042342638196209,-0.06242907747602024,0.033214071793223665,-0.035649651456096665,0.2009052742553068
1704,4.0,299.87416,503.76957999999996,0.0,0.0,0.0,0.0,0.0,0.0169834435308307,-0.09818189096454821,0.015676687386668584,-0.07062817062895774,0.028640548604852073,-0.038829169474890665,0.22879437530774677
1705,4.0,300.1044,359.72173,0.0,0.0,0.0,0.0,0.0,0.01699341034041449,-0.11721693602591089,0.025845840682535873,-0.017975334404527383,0.017357803051581782,-0.024979554403540077,0.19692079995956982
1706,4.0,299.51486,135.20337,0.0,0.0,0.0,0.0,0.0,0.017003377149998333,-0.07995202712165073,0.02179807979880298,0.017055497857746585,-0.013555605356084088,-0.006139979674618813,0.2113536559739818
1707,4.0,299.70853,42.079929,0.0,0.0,0.0,0.0,0.0,0.01701334395958215,-0.031988113139480974,0.027924301360913974,-0.008727436104255882,0.00022332111237507776,0.056070982747775146,0.17184494727977584
1708,4.0,299.98188999999996,146.64602,0.0,0.0,0.0,0.0,0.0,0.017023310769165967,-0.044322135055754164,0.05090688572536845,-0.05116147899849486,-0.03336169726654317,0.03291349115105867,0.2045499956600128
1709,4.0,300.2429,256.06647000000004,0.0,0.0,0.0,0.0,0.0,0.01703327757874981,-0.06099580379881714,0.05125190751691945,-0.06809391560509623,-0.022072545946140682,0.0018110152396582885,0.21250231681734577
1710,4.0,300.37651,74.42016,0.0,0.0,0.0,0.0,0.0,0.0170432443883336,-0.03789712123790466,0.06979824888280084,-0.05452299902675105,-0.022348588710633978,-0.038426568733157064,0.20427163559254083
1711,4.0,300.28704,123.12171000000001,0.0,0.0,0.0,0.0,0.0,0.017053211197917417,-0.038443473797825464,0.013316426656728986,-0.012298878349804789,0.014376989456898385,-0.02637690431169777,0.1809866112719878
1712,4.0,299.84394,460.59017,0.0,0.0,0.0,0.0,0.0,0.017063178007501262,-0.0981474495803991,0.016675044736698785,-0.05853550589975464,0.0035246000987259464,-0.0024745782406718577,0.18972554887945384
1713,4.0,299.15193,605.92827,0.0,0.0,0.0,0.0,0.0,0.01707314481708508,-0.1101535594463099,-0.0017062335269421385,-0.07232726945664573,0.024297831630259278,0.016919534893078084,0.21337973060893978
1714,4.0,298.96762,266.66024,0.0,0.0,0.0,0.0,0.0,0.017083111626668895,-0.058750541888977034,0.013038919745841189,-0.03534643433717147,0.015711630329617185,0.01114101516903259,0.20020484485867981
1715,4.0,300.14738,-26.356601,0.0,0.0,0.0,0.0,0.0,0.017093078436252712,-0.03321142721046267,0.05415411924834545,-0.012930943762184788,-0.0023034255053303978,0.018415832726501182,0.2007311978881268
1716,4.0,299.67386,-4.966392,0.0,0.0,0.0,0.0,0.0,0.01710304524583653,-0.05443022686084515,0.04843838860649675,0.007501497310215143,-0.005283835826473995,-0.018111665178982182,0.18679605032283483
1717,4.0,299.39034,264.70572000000004,0.0,0.0,0.0,0.0,0.0,0.017113012055420346,-0.1109333567232699,0.04136522605742997,-0.01089579749908149,-0.027662559608332075,-0.018489694605790783,0.18833041494926483
1718,4.0,299.77285,380.50433,0.0,0.0,0.0,0.0,0.0,0.01712297886500419,-0.10494152252192189,0.024217841614364875,-0.03494013624582296,-0.01930513396826838,0.004420646242433816,0.17735698729377183
1719,4.0,300.19194,135.77496000000002,0.0,0.0,0.0,0.0,0.0,0.017132945674588007,-0.04953602217482475,0.02357404377907698,-0.015310220156751085,0.00013436599131839088,0.03694668453810386,0.16179188508761586
1720,4.0,299.74186000000003,-104.33766,0.0,0.0,0.0,0.0,0.0,0.017142912484171796,-0.013201086371345788,0.06134678654070644,-0.016429657853980983,-0.021801223913863278,0.026565699149830375,0.20260054299761682
1721,4.0,300.1326,210.12354,0.0,0.0,0.0,0.0,0.0,0.01715287929375564,-0.05085481277622925,0.05745927116028854,-0.07047676775926544,-0.01950613036410518,0.02690847557915977,0.22432160565631878
1722,4.0,300.81925,590.33784,0.0,0.0,0.0,0.0,0.0,0.017162846103339457,-0.1127228475923789,0.007568573656235062,-0.07429369203171653,0.008193389162824553,-0.016127499581410285,0.24068616219137476
1723,4.0,301.41082,346.57487000000003,0.0,0.0,0.0,0.0,0.0,0.017172812912923302,-0.08949725545644141,0.023604685475351078,-0.03945753753765576,0.014249975517113087,-0.004060239767989466,0.2023617503465498
1724,4.0,301.71265,16.294255,0.0,0.0,0.0,0.0,0.0,0.01718277972250712,-0.04215171483805036,0.017466263368785984,0.019732405323436782,0.044417992568214555,-0.03339024761461087,0.18618054141708884
1725,4.0,300.25386000000003,162.13326,0.0,0.0,0.0,0.0,0.0,0.017192746532090908,-0.07082365595750063,0.049018425652741955,-0.027479230241238873,0.00950020831562256,-0.015807926579370885,0.2078440514701108
1726,4.0,299.16823,457.57699,0.0,0.0,0.0,0.0,0.0,0.017202713341674752,-0.09673382991538572,0.022908058806349378,-0.06526620916677334,0.002058501069958238,-0.02189751104436608,0.20123485411533382
1727,4.0,299.9143,302.6635,0.0,0.0,0.0,0.0,0.0,0.01721268015125857,-0.07102230566610583,-0.0012568405916155087,-0.01972299830950838,0.003850965625460716,-0.02044993534200148,0.18001701198629583
1728,4.0,299.53743,-87.42514,0.0,0.0,0.0,0.0,0.0,0.017222646960842386,-0.059802855820082344,0.08337374028534751,0.003004174987663987,0.006371849294377564,-0.03900286080703266,0.18590935516032484
1729,4.0,300.15351,-44.515959,0.0,0.0,0.0,0.0,0.0,0.01723261377042623,-0.07290177111759463,0.06476365332917494,0.021669857051648377,-0.023212813025676276,-0.0010086359414296171,0.1987852916010808
1730,4.0,299.973,267.64273,0.0,0.0,0.0,0.0,0.0,0.01724258058001002,-0.07774180745326902,0.04527910924520016,-0.04889400765971286,0.013217128146928988,0.003448422233682777,0.18729993959756483
1731,4.0,300.46234,573.34016,0.0,0.0,0.0,0.0,0.0,0.017252547389593836,-0.0968575416730951,0.025282528342441275,-0.1027060800188009,-0.016299861529421086,0.045379846570142164,0.2150186018506838
1732,4.0,300.9243,543.37281,0.0,0.0,0.0,0.0,0.0,0.01726251419917768,-0.06620700073887224,-0.00936807695620721,-0.08959668771525461,-0.0037964632065567465,0.009607593473145652,0.22093840410242277
1733,4.0,301.12027,33.635581,0.0,0.0,0.0,0.0,0.0,0.017272481008761498,-0.03797221421606576,0.06385968427896015,-0.03611184650246176,-0.027572931557486472,0.005441880651896805,0.22764899739470676
1734,4.0,299.84426,53.801042,0.0,0.0,0.0,0.0,0.0,0.017282447818345315,-0.06349620512358753,0.019500264659276283,0.027641767716280078,0.01105056638560599,-0.013556120087134887,0.2003937653398248
1735,4.0,301.8569,568.6914400000001,0.0,0.0,0.0,0.0,0.0,0.01729241462792913,-0.11637178411750089,-0.029590253738080673,-0.026905955626161073,-0.004420034948648486,-0.0004273182179855246,0.17788878147625584
1736,4.0,301.67212,399.86987999999997,0.0,0.0,0.0,0.0,0.0,0.017302381437512948,-0.09256787340748782,0.006800975707829044,-0.03578356056281247,0.02070231972990988,-0.037914597775629465,0.17572654629285983
1737,4.0,300.92888999999997,-204.5781,0.0,0.0,0.0,0.0,0.0,0.017312348247096765,-0.016969072690467085,0.08186316170501502,-0.0027074551323550177,0.01097795080393939,0.003682488782308346,0.19348778703075784
1738,4.0,300.37932,-228.41191,0.0,0.0,0.0,0.0,0.0,0.01732231505668061,-0.02961549379807167,0.1012188355750213,-0.002171823873067328,0.02055170212904508,0.014700567836583087,0.22226382642573178
1739,4.0,299.99522,186.87904,0.0,0.0,0.0,0.0,0.0,0.017332281866264426,-0.044188647461079957,0.05872766067521885,-0.07134557500451003,-0.005612161992152265,0.02649717304556737,0.2002000521857068
1740,4.0,300.29196,527.02868,0.0,0.0,0.0,0.0,0.0,0.017342248675848215,-0.1172450435836849,0.010172663194213689,-0.053131176397888856,0.005273620745590845,-0.005654294045885375,0.2054404297153918
1741,4.0,300.85315,621.15635,0.0,0.0,0.0,0.0,0.0,0.01735221548543206,-0.11706367181578489,0.017037924048012184,-0.08879027134491752,-0.035738441549109566,-0.008652307763666293,0.19377899510949784
1742,4.0,298.86568,345.22352,0.0,0.0,0.0,0.0,0.0,0.017362182295015877,-0.0893850187561145,0.00986496913104665,-0.02541928062893768,-0.007711230860339232,-0.027572147301909072,0.1870640752392868
1743,4.0,299.29331,22.274232,0.0,0.0,0.0,0.0,0.0,0.01737214910459972,-0.03603051899643537,0.04099668065155736,-0.01173697240084899,-0.013528631625171988,4.048001327981626e-06,0.1930338813834608
1744,4.0,299.90708,257.91807,0.0,0.0,0.0,0.0,0.0,0.01738211591418351,-0.06225606806119553,0.015017232810835486,-0.031161816802181868,-0.008306867601149001,-0.01088092400086359,0.2179054324455918
1745,4.0,300.47792999999996,318.29332,0.0,0.0,0.0,0.0,0.0,0.017392082723767327,-0.06302408225274264,0.0039068409982501865,-0.03763598135588216,-0.017398195253568182,0.012176783739254989,0.21864997875157277
1746,4.0,299.49608,-242.91539,0.0,0.0,0.0,0.0,0.0,0.01740204953335117,-0.04996876305403295,0.08464040322210742,0.03916857380788726,-0.011859762100967387,0.015656614902187588,0.19921182936317683
1747,4.0,301.11246,-303.39412999999996,0.0,0.0,0.0,0.0,0.0,0.01741201634293499,-0.02259791510974058,0.06796231164235794,0.04685984526245666,0.018181993855173086,0.026898655159190574,0.19160445906988782
1748,4.0,300.72602,144.38992,0.0,0.0,0.0,0.0,0.0,0.017421983152518805,-0.06659614146627743,0.026559618635980272,-0.0038544065214753064,0.0031118420313648973,-0.005524062023782475,0.16618985661666183
1749,4.0,301.15295,639.8971,0.0,0.0,0.0,0.0,0.0,0.017431949962102622,-0.1022692881656929,0.025442907594769474,-0.11768635453223888,0.01740718278195518,-0.0014856606325482887,0.2146449861413108
1750,4.0,300.9608,716.2420099999999,0.0,0.0,0.0,0.0,0.0,0.01744191677168644,-0.09840350396016971,-0.02327546126610918,-0.09604072226398132,0.006859932475497624,-0.014251403186503985,0.19085528221094983
1751,4.0,300.44351,275.45746,0.0,0.0,0.0,0.0,0.0,0.017451883581270256,-0.07714794258290913,0.044252893596920556,-0.05083713966798505,-0.003747290381853767,0.013717692948080885,0.21111017197495177
1752,4.0,299.57575,2.1022167,0.0,0.0,0.0,0.0,0.0,0.0174618503908541,-0.06349319577079053,0.05773808313730514,0.005116091157843885,-0.005894045839497035,0.017724535753025482,0.19511622179647184
1753,4.0,301.60911,413.42714,0.0,0.0,0.0,0.0,0.0,0.01747181720043789,-0.08260939304591232,-0.02007797730979208,-0.02298415692860968,-0.020652697832762582,0.02085075073705888,0.2064066244807478
1754,4.0,299.73355,511.78565999999995,0.0,0.0,0.0,0.0,0.0,0.017481784010021734,-0.1006876615015985,-0.00950029322598094,-0.04538210510461506,0.005752939515995925,0.0023581929904605277,0.20450881717594882
1755,4.0,299.8865,-0.098226668,0.0,0.0,0.0,0.0,0.0,0.01749175081960555,-0.037622027888755065,0.03129127672770857,0.006360609716318305,0.009085214714565882,-0.016069980412983586,0.22017930752500578
1756,4.0,300.54343,-361.74824,0.0,0.0,0.0,0.0,0.0,0.017501717629189367,0.02241552401223998,0.07379768989576493,0.013749218198442187,0.017672006841341285,0.0029894768830383976,0.21203662707138582
1757,4.0,299.83905,83.874423,0.0,0.0,0.0,0.0,0.0,0.017511684438773184,-0.03910597015045876,0.04788917158854325,-0.034278931787067174,-0.0015308021404034087,-0.0011751176140750788,0.22590196170478777
1758,4.0,300.15247999999997,739.13282,0.0,0.0,0.0,0.0,0.0,0.017521651248357,-0.14118253004113088,-0.01028206988701129,-0.07321332525834262,-0.0006346729203198404,-0.0003439789748130817,0.1816811030230288
1759,4.0,299.77137999999997,619.4286900000001,0.0,0.0,0.0,0.0,0.0,0.017531618057940845,-0.11888102706264389,0.003599002242968867,-0.07300883314966083,-0.015949193908312884,0.007060854093477045,0.17930392709591983
1760,4.0,298.12276,22.137676000000003,0.0,0.0,0.0,0.0,0.0,0.017541584867524634,-0.05919888175347474,0.052387747706768156,8.183261525425032e-05,0.0017507535071859183,-0.0018451681515039185,0.18375831639053383
1761,4.0,300.23864,57.276621,0.0,0.0,0.0,0.0,0.0,0.01755155167710845,-0.01127615132161949,0.027661894916266472,-0.03379640587744557,0.012521956505070887,-0.017413830715861285,0.1983434537624748
1762,4.0,300.74667,355.62596,0.0,0.0,0.0,0.0,0.0,0.017561518486692296,-0.056474143816814044,0.006913660771325192,-0.05854092881428985,0.015640697756366687,-0.03119455187316257,0.21717716906871778
1763,4.0,300.26495,392.92506000000003,0.0,0.0,0.0,0.0,0.0,0.017571485296276113,-0.08606073972203374,0.0017013764112627783,-0.03508004379313077,0.004313706509654686,-0.01841060638248538,0.20659045844639082
1764,4.0,300.88227,81.536948,0.0,0.0,0.0,0.0,0.0,0.01758145210585993,-0.07894669455793213,0.03970390828622067,0.014457589449352987,-0.006348859764183674,0.01204188772694179,0.2228595060270208
1765,4.0,300.26717,-208.07134,0.0,0.0,0.0,0.0,0.0,0.017591418915443746,-0.00962277388481884,0.04926128143670995,0.02360998376012398,-0.009672579180234241,0.015679545765200684,0.1962483160007008
1766,4.0,300.52963,148.47198999999998,0.0,0.0,0.0,0.0,0.0,0.017601385725027563,-0.046513796035304256,0.014528831063883986,-0.013146814669489588,-0.0017481676929307184,0.01084432439400149,0.18931572974400782
1767,4.0,300.42613,617.4739099999999,0.0,0.0,0.0,0.0,0.0,0.01761135253461138,-0.08283695787262121,-0.01000911702869794,-0.09485057592177301,0.013735481566836487,-0.014565338464986987,0.19416005820710583
1768,4.0,298.8838,347.55607000000003,0.0,0.0,0.0,0.0,0.0,0.017621319344195224,-0.06860595647688074,0.02388820399908218,-0.06093061635363365,0.022669031081259183,-0.00997833428800992,0.21133844708998079
1769,4.0,299.21952000000005,-110.19213,0.0,0.0,0.0,0.0,0.0,0.01763128615377904,-0.042326921992341955,0.06867074166177453,0.007151836454406304,0.01943921228775088,-0.015194484703828885,0.2084956320794168
1770,4.0,299.11949,14.917278,0.0,0.0,0.0,0.0,0.0,0.01764125296336283,-0.06280056029393274,0.05191708999556785,0.006348990169471545,-0.005220686939166685,0.01042920292078219,0.17923000036862383
1771,4.0,300.08159,362.10777,0.0,0.0,0.0,0.0,0.0,0.017651219772946675,-0.1022312102269349,0.038121152861514865,-0.045961661870312864,0.0070636162132496445,0.026078748377022076,0.1984058294386308
1772,4.0,300.82701000000003,521.49833,0.0,0.0,0.0,0.0,0.0,0.01766118658253049,-0.12396997436488388,0.01827679556102928,-0.05282928866309485,-0.021426772273157778,0.04104206108378606,0.2004859609664238
1773,4.0,300.22545,261.57728,0.0,0.0,0.0,0.0,0.0,0.017671153392114308,-0.041162494977421964,0.027050398480916477,-0.06540086503881284,0.01170022688597249,-0.01852680083770288,0.2258525353649098
1774,4.0,300.69396,76.362544,0.0,0.0,0.0,0.0,0.0,0.017681120201698153,-0.03483812627875536,0.027890199415548374,-0.016264378524169183,-0.004429531939185766,-0.03980016704572066,0.2182975804992938
1775,4.0,300.45987,271.82632,0.0,0.0,0.0,0.0,0.0,0.017691087011281942,-0.06865727151494513,0.0014175711377533789,-0.015388712588997685,0.015445520455854185,-0.047799044005398354,0.22899784606032778
1776,4.0,299.11124,338.87324,0.0,0.0,0.0,0.0,0.0,0.01770105382086576,-0.08572306602020792,-0.0027785188201684577,-0.014507419062770787,0.009133881522168923,-0.00845798321443795,0.2119091196788018
1777,4.0,299.77446000000003,215.49272000000002,0.0,0.0,0.0,0.0,0.0,0.017711020630449603,-0.08132701865310184,0.03841665306767846,-0.02259403942810808,0.03490890078499027,0.008266257347741082,0.2090654332731518
1778,4.0,300.05501,41.255536,0.0,0.0,0.0,0.0,0.0,0.01772098744003342,-0.04993186656489155,0.036589210916073964,0.0008020033520440683,0.018617665053670483,0.043382683000287456,0.17668469585242183
1779,4.0,299.84112000000005,25.219756,0.0,0.0,0.0,0.0,0.0,0.017730954249617265,-0.017007174947227484,0.04130995326447496,-0.031968954606590175,0.006155478652123444,0.01960921640277898,0.16593341314885282
1780,4.0,300.00588,308.48932,0.0,0.0,0.0,0.0,0.0,0.017740921059201054,-0.09876570135416582,0.04855654471390786,-0.043563894674671665,-0.02941385804142177,0.018171596895896983,0.19899745603951982
1781,4.0,298.67338,347.66812000000004,0.0,0.0,0.0,0.0,0.0,0.01775088786878487,-0.1053945973041369,0.05358709233338425,-0.05387492628929125,-0.014744081862127587,-0.03278822000144537,0.20456734250172479
1782,4.0,298.00005,87.398554,0.0,0.0,0.0,0.0,0.0,0.017760854678368715,-0.06099853450783665,0.026327978517369177,0.008103577511060832,-0.029133161419219174,0.0013243541550535787,0.2024910714568128
1783,4.0,298.43745,50.941323,0.0,0.0,0.0,0.0,0.0,0.01777082148795253,-0.06570588574291603,0.04726404896584846,0.002956946589902907,-0.011316401668591889,0.0069578438459107226,0.20924362343573782
1784,4.0,299.28771,219.82744,0.0,0.0,0.0,0.0,0.0,0.01778078829753635,-0.05857617370576824,0.01937787519294738,-0.027623754156002274,-0.008082993639254361,0.04927576382038925,0.2119318975410498
1785,4.0,298.16751,301.89302999999995,0.0,0.0,0.0,0.0,0.0,0.017790755107120165,-0.04806347897674605,0.009405311060281932,-0.05310977554252675,0.016461276323351485,0.015514937206955084,0.22283137820424478
1786,4.0,299.26894,240.39262000000002,0.0,0.0,0.0,0.0,0.0,0.017800721916703982,-0.06906087436102763,0.017607962342270585,-0.021620439831021278,0.014165844348059987,0.004864964415959606,0.2077524131310668
1787,4.0,299.40058,122.62903,0.0,0.0,0.0,0.0,0.0,0.0178106887262878,-0.06376370922948814,0.031032321412901673,-0.004544773331359206,0.02889446401366157,-0.04527960371124896,0.2136781631608928
1788,4.0,301.01016,21.13712,0.0,0.0,0.0,0.0,0.0,0.017820655535871643,-0.058133573903087044,0.05471468568066904,-0.0030062689703206475,0.018426370527541182,-0.008038331500021553,0.19209290641309382
1789,4.0,301.16154,134.94937,0.0,0.0,0.0,0.0,0.0,0.01783062234545546,-0.07187649171240744,0.05192786895013165,-0.02107261501870518,0.0033446829526695065,-0.01759514776825588,0.2097889647720588
1790,4.0,299.89905,415.03454,0.0,0.0,0.0,0.0,0.0,0.01784058915503925,-0.09213899098466041,0.023169436802145376,-0.05719058357827115,-0.018304360016749684,0.025221734349691376,0.16977595137058182
1791,4.0,298.79953,386.95259,0.0,0.0,0.0,0.0,0.0,0.017850555964623094,-0.07823161559135933,0.00959326692733173,-0.04898557608449995,-0.017755041673786182,0.01070386563863929,0.18735419914041984
1792,4.0,300.40903,108.74321,0.0,0.0,0.0,0.0,0.0,0.01786052277420691,-0.06092813591738885,0.031010966153794072,-0.003138051467726567,-0.00998106459172938,0.04390298388688716,0.19930405538727883
1793,4.0,300.23688,-18.817648000000002,0.0,0.0,0.0,0.0,0.0,0.017870489583790755,-0.05370539840181015,0.06813164701232004,-0.008706153393855443,0.005908670888790415,0.00023455365847864377,0.23328370146580876
1794,4.0,299.73095,220.98766,0.0,0.0,0.0,0.0,0.0,0.017880456393374572,-0.07274279116365452,0.016128238240733183,-0.01056017866845849,0.01939287129442738,0.01323303414699879,0.22587380348450878
1795,4.0,299.64077000000003,313.68953999999997,0.0,0.0,0.0,0.0,0.0,0.01789042320295836,-0.09156675596418523,0.012837844316496589,-0.016624873657997287,0.024917965009461678,-0.029767516776825174,0.21377597219304578
1796,4.0,299.41112000000004,164.71156000000002,0.0,0.0,0.0,0.0,0.0,0.017900390012542178,-0.03204070588592147,0.04360055507653975,-0.06162805058296504,0.013271977401342186,0.009092633326498041,0.22867304874077277
1797,4.0,300.14207999999996,124.2916,0.0,0.0,0.0,0.0,0.0,0.017910356822126022,-0.01892402122140548,0.01170065853051509,-0.030558181161107673,-0.013829029882318987,-0.01918523811043558,0.1874447533018568
1798,4.0,300.21047999999996,231.48578999999998,0.0,0.0,0.0,0.0,0.0,0.01792032363170984,-0.06330737887470185,0.019856755428709183,-0.026915276513830976,-0.02933695843833237,-0.002713067119358878,0.19353763893567782
1799,4.0,299.42798,303.3704,0.0,0.0,0.0,0.0,0.0,0.017930290441293684,-0.09339308151417951,0.024223961644968876,-0.023047907585151378,-0.004925499320658936,-0.01981929557251218,0.17409224480906682
1800,4.0,299.64425,296.03115,0.0,0.0,0.0,0.0,0.0,0.017940257250877473,-0.09777154291255,0.014512258345248386,-0.006726792121632692,-0.010669834620780689,-0.00018458493595461484,0.20668269460299382
1801,4.0,300.61564,-107.62536999999999,0.0,0.0,0.0,0.0,0.0,0.01795022406046129,-0.03240035292941587,0.07599944284631102,-0.01088366484238409,0.04879006238495425,-0.019018055896935983,0.2147940048335178
1802,4.0,301.71575,-65.93288100000001,0.0,0.0,0.0,0.0,0.0,0.017960190870045134,-0.015074001160938086,0.05342105306599745,-0.018305102729072983,0.016757288220815583,-0.007653887896104923,0.1970477095345948
1803,4.0,300.02647,402.78244,0.0,0.0,0.0,0.0,0.0,0.01797015767962895,-0.08353382772164693,0.01946292537984118,-0.05836490092741724,0.04212531258019466,-0.008381336619898523,0.2050091398103268
1804,4.0,299.92376,384.74051000000003,0.0,0.0,0.0,0.0,0.0,0.017980124489212768,-0.1191972725513549,0.04306320524375746,-0.04081744076186776,-0.003587248845783897,0.018426899444093384,0.23687839871307778
1805,4.0,299.54231,202.576,0.0,0.0,0.0,0.0,0.0,0.017990091298796584,-0.08464516651082751,0.017997780933992683,0.005069338582329766,-0.005206709660662235,0.03329023476349037,0.2204730487289958
1806,4.0,299.08356000000003,265.97603,0.0,0.0,0.0,0.0,0.0,0.0180000581083804,-0.09624568046770911,0.03677893389129817,-0.02138332512211988,-0.050371088191739355,0.016902253912622584,0.21892662642637578
1807,4.0,298.02904,308.10024,0.0,0.0,0.0,0.0,0.0,0.018010024917964218,-0.07433662141195334,-0.003884059994926876,-0.015434098087476885,-0.012285983729032187,-0.0024151626733579976,0.1918953429085958
1808,4.0,299.48208,279.03151,0.0,0.0,0.0,0.0,0.0,0.018019991727548063,-0.03905151505033447,0.011559536096337388,-0.057326632669198144,0.004771131073223975,0.005542000096927824,0.17905720069656986
1809,4.0,299.23999,111.31731,0.0,0.0,0.0,0.0,0.0,0.01802995853713188,-0.04159558846766496,0.062381857994860034,-0.05462395014746414,0.036862566541302065,-0.02215590603186768,0.19326861090162684
1810,4.0,299.00681000000003,-7.8893580000000005,0.0,0.0,0.0,0.0,0.0,0.01803992534671567,-0.027004411111877874,0.03308452067518797,-0.0036819417285793563,0.02899348489293417,0.0061650979419477945,0.18187559637972384
1811,4.0,299.75344,42.774136,0.0,0.0,0.0,0.0,0.0,0.018049892156299513,-0.08094770239866622,0.07447142623175752,-0.006525993106915373,0.022568862189623277,0.008921107208494731,0.2039188928352278
1812,4.0,300.21001,272.11154,0.0,0.0,0.0,0.0,0.0,0.01805985896588333,-0.1146338778109829,0.07464753720513832,-0.04272876887600116,0.015565970561491685,0.03536268180252496,0.24183106387686776
1813,4.0,300.07541000000003,489.42355999999995,0.0,0.0,0.0,0.0,0.0,0.018069825775467174,-0.0987831120306341,0.01104818322137079,-0.06103761252444335,-0.02392956486816418,0.025256650948137373,0.23173377331784276
1814,4.0,300.67012,377.97429,0.0,0.0,0.0,0.0,0.0,0.01807979258505099,-0.06399103695567364,0.028018662302976675,-0.07892237148928163,-0.03838738128553957,0.007122014477463102,0.22291199238220077
1815,4.0,299.86512999999997,297.09524,0.0,0.0,0.0,0.0,0.0,0.01808975939463478,-0.04978730212012416,-0.004430093583716196,-0.03609213777476667,-0.036150648915041265,-0.005015554456421685,0.19521268320599183
1816,4.0,300.24019,395.90881,0.0,0.0,0.0,0.0,0.0,0.018099726204218597,-0.1017920676335949,0.0007337292329484373,-0.01928805563783288,-0.00962167552171044,0.004716443330876716,0.2191920776875738
1817,4.0,300.13327999999996,126.71296000000001,0.0,0.0,0.0,0.0,0.0,0.01810969301380244,-0.06471474374684794,0.03382857150187007,-0.007631403775060912,-0.0036060994519693064,0.026906980022012174,0.2176026631832108
1818,4.0,298.86883,11.819919,0.0,0.0,0.0,0.0,0.0,0.018119659823386258,-0.07453451928898433,0.04514152508037166,0.025800033672015076,0.01069553064331669,0.008212354367596273,0.2112588866921288
1819,4.0,299.13649,235.76712,0.0,0.0,0.0,0.0,0.0,0.018129626632970103,-0.04014354939860986,0.030312319064092968,-0.061836087040496646,0.012551891966025288,-0.00045443588107432954,0.19283608483143982
1820,4.0,299.14001,147.62263000000002,0.0,0.0,0.0,0.0,0.0,0.018139593442553892,-0.045546835252872654,0.06062050913402844,-0.05994726625083455,0.02690418953123677,-0.01170044068174359,0.22778346581547776
1821,4.0,298.81844,159.34036,0.0,0.0,0.0,0.0,0.0,0.01814956025213771,-0.025204160539956975,0.01814366564364038,-0.04137499480164406,-0.006733386555933513,-0.006627468787205243,0.2017309616292958
1822,4.0,300.71995,339.70333999999997,0.0,0.0,0.0,0.0,0.0,0.018159527061721553,-0.0939755290824126,0.04356193707547846,-0.05284774197391605,-0.004087046211310056,-0.02175378557068148,0.23083066350371276
1823,4.0,299.8281,365.78603,0.0,0.0,0.0,0.0,0.0,0.01816949387130537,-0.09956783167657991,-0.01065835044414729,-0.000963637727403639,-0.027769762482162178,0.004199553246763636,0.1917677747210058
1824,4.0,300.38779,323.11804,0.0,0.0,0.0,0.0,0.0,0.018179460680889187,-0.11887112760916689,0.03704084789639706,-0.016389534163271085,0.005436419132532795,0.02098017013258158,0.23860781398375774
1825,4.0,301.05841000000004,252.59187999999997,0.0,0.0,0.0,0.0,0.0,0.018189427490473004,-0.05615591337115715,0.00963055372041165,-0.030256263028810675,-0.016109280331362184,0.018948395965811084,0.19271175904416984
1826,4.0,300.22056000000003,196.5361,0.0,0.0,0.0,0.0,0.0,0.01819939430005682,-0.05546974141668724,0.004920283615769185,-0.00919260848471482,0.01125920268719679,-0.018519529754985282,0.1990132222110758
1827,4.0,300.60177000000004,149.47298999999998,0.0,0.0,0.0,0.0,0.0,0.018209361109640637,-0.045630735400902955,0.04012053240933826,-0.039925853627874965,-0.005589760349666395,-0.014633712581734985,0.19433772147963982
1828,4.0,300.24269,235.31522999999999,0.0,0.0,0.0,0.0,0.0,0.01821932791922448,-0.07926143739674482,0.015030841772928585,-0.007299359589465702,0.0040677151219272265,-0.02558794624058368,0.2056922831602478
1829,4.0,298.19802999999996,80.939972,0.0,0.0,0.0,0.0,0.0,0.0182292947288083,-0.07397568956733212,0.07486178083278253,-0.025489822087649577,-0.02111444704908368,-0.000994819425186033,0.23728623187832779
1830,4.0,298.37394,167.61498,0.0,0.0,0.0,0.0,0.0,0.018239261538392088,-0.07836345057512042,0.06642609783449543,-0.03901341684657446,-0.012456110447322387,-0.008357346809205912,0.2277847121131008
1831,4.0,299.48593,315.60219,0.0,0.0,0.0,0.0,0.0,0.018249228347975932,-0.048745561453812356,0.004957336449401015,-0.05214696199275445,-0.0015985705362416285,0.01956268289193648,0.1896887982983268
1832,4.0,300.3252,298.96558999999996,0.0,0.0,0.0,0.0,0.0,0.01825919515755975,-0.08194698079303732,0.042349829550602756,-0.05128092396003315,0.019691579450407583,0.0073692086943842735,0.2204067720399548
1833,4.0,301.35754,193.96388000000002,0.0,0.0,0.0,0.0,0.0,0.018269161967143593,-0.06268389569066884,0.025948588295676273,-0.02222486783367368,0.014941358616847287,-0.011560731731455387,0.19579524121848582
1834,4.0,299.66629,243.35522000000003,0.0,0.0,0.0,0.0,0.0,0.01827912877672741,-0.08311261256232622,0.0034831663769617567,0.0056555371011080555,0.018409444184620684,-0.03478305613582037,0.22227904544223379
1835,4.0,300.67262,320.17107000000004,0.0,0.0,0.0,0.0,0.0,0.0182890955863112,-0.10668738284172488,0.018152042182217085,-0.008788667010448902,0.0025840094541218776,0.008071854068979973,0.2012403763283788
1836,4.0,300.81039,149.66732,0.0,0.0,0.0,0.0,0.0,0.018299062395895044,-0.06973207351876984,0.032123359736328766,-0.007886415013853561,-0.0028586401532758174,0.005369681516021306,0.23531945263922177
1837,4.0,300.33856000000003,-94.574559,0.0,0.0,0.0,0.0,0.0,0.01830902920547886,-0.014885604530094786,0.059077814578526344,-0.015443905335194784,-0.027849353277517173,0.014564873383191087,0.18585786179024283
1838,4.0,299.74343999999996,19.118082,0.0,0.0,0.0,0.0,0.0,0.018318996015062677,-0.03750518495347356,0.05123689013718735,-0.019543124125256182,-0.03622722934434917,-0.01743067194577338,0.2107041018648758
1839,4.0,299.5501,197.65931,0.0,0.0,0.0,0.0,0.0,0.018328962824646522,-0.04226175886516086,0.009735498566393901,-0.027557234286937272,-0.011030913386666388,0.005565063087753965,0.17428663684075182
1840,4.0,299.63095,109.00898000000001,0.0,0.0,0.0,0.0,0.0,0.01833892963423031,-0.07750938105258033,0.07643369245491813,-0.03206032038135727,0.014434887580862487,-0.0038227172259228167,0.23165766810283175
1841,4.0,299.98692,67.85544,0.0,0.0,0.0,0.0,0.0,0.018348896443814128,-0.06185464370282804,0.04631400743358666,-0.005085723039096785,0.030784362901430072,0.014922281143964485,0.2308530056684178
1842,4.0,299.70062,172.57581000000002,0.0,0.0,0.0,0.0,0.0,0.018358863253397972,-0.06284350487292104,0.03893112067345247,-0.028546351809305575,0.04123601944442826,-0.009296476853790831,0.2264653895553938
1843,4.0,299.97295,525.48297,0.0,0.0,0.0,0.0,0.0,0.01836883006298179,-0.08673724628379972,0.0014255527114410986,-0.07442200799788033,-0.0017294711007605082,0.026941586565927576,0.2067964623242218
1844,4.0,300.85672,589.10014,0.0,0.0,0.0,0.0,0.0,0.018378796872565606,-0.11216331062215688,-0.018114870089048486,-0.04879355100504855,-0.00015202433650863384,0.008584355057634881,0.1876083222654998
1845,4.0,300.94456,171.74865,0.0,0.0,0.0,0.0,0.0,0.018388763682149423,-0.06549088420419703,0.04215102886773266,-0.028867445699745073,-0.024758223091446378,0.015832739047819684,0.2244149867855348
1846,4.0,300.73235,-142.59627,0.0,0.0,0.0,0.0,0.0,0.01839873049173324,-0.049510686869324354,0.04136051647096516,0.05149587483624715,-0.002962887579214237,0.009320172517979413,0.2082206157372748
1847,4.0,300.34432000000004,10.93678,0.0,0.0,0.0,0.0,0.0,0.018408697301317056,-0.06731992019820884,0.05433300551375014,0.00966240695983032,-0.02265102461373208,0.012992662852275988,0.23627934498895575
1848,4.0,300.4348,344.08326,0.0,0.0,0.0,0.0,0.0,0.0184186641109009,-0.07330266959916022,0.03466471663014117,-0.06595476732522873,0.0040880034286795265,-0.004642146058019146,0.2361102436797668
1849,4.0,299.4442,248.45467999999997,0.0,0.0,0.0,0.0,0.0,0.018428630920484718,-0.043147667745593254,0.02715462949220327,-0.059530979540000244,-0.017029011500132585,-0.0076616005532161024,0.22089375017051577
1850,4.0,299.05082999999996,74.973924,0.0,0.0,0.0,0.0,0.0,0.018438597730068507,-0.03823827748032416,0.03389971077814097,-0.018451633892284484,0.017120982185209382,-0.012617194921720188,0.17401472104391583
1851,4.0,300.51666,289.65502000000004,0.0,0.0,0.0,0.0,0.0,0.01844856453965235,-0.06990917038449793,0.02056364733447398,-0.038702369330876465,0.0038333999217271164,0.0018602724680945985,0.17957309698498483
1852,4.0,300.70251,535.4049,0.0,0.0,0.0,0.0,0.0,0.018458531349236168,-0.15610003371087383,0.013440724072996187,-0.020090415968019682,0.019912483170959082,-0.023943136340003578,0.22347600791786482
1853,4.0,299.81487000000004,400.72132,0.0,0.0,0.0,0.0,0.0,0.018468498158819985,-0.08514707792136232,0.019649270179231983,-0.05631146853975924,-0.008920810326215431,-0.008163753522574741,0.24230670373880975
1854,4.0,300.10766,101.91213,0.0,0.0,0.0,0.0,0.0,0.0184784649684038,-0.05272068851737686,0.03805648724013286,-0.016314541496869884,0.007772933637103822,-0.017816834731134684,0.24391476204501275
1855,4.0,300.22565,124.23465,0.0,0.0,0.0,0.0,0.0,0.01848843177798762,-0.03068589728321227,0.03062430788913387,-0.03770264206671106,-0.01121216255130429,0.018367170377198584,0.21134254062038482
1856,4.0,300.32093,401.52776,0.0,0.0,0.0,0.0,0.0,0.018498398587571463,-0.08893572542327272,0.0010560089502449689,-0.03417469672277997,0.0019213932340017483,0.014089812087056187,0.2078746516231308
1857,4.0,300.4392,503.27747999999997,0.0,0.0,0.0,0.0,0.0,0.01850836539715528,-0.08403287366089891,-0.017161142352922883,-0.05178977106750245,0.01088068994009049,0.032611177851222674,0.20114538413150382
1858,4.0,300.53502000000003,220.36289,0.0,0.0,0.0,0.0,0.0,0.018518332206739097,-0.1017927667761639,0.03335490646437297,0.0014530437065292485,0.013145910850400387,0.01944126513245348,0.2251174021523578
1859,4.0,301.59227999999996,-30.243863,0.0,0.0,0.0,0.0,0.0,0.018528299016322913,-0.02676797629379358,0.03272859935231127,0.0032327560028981767,-0.0018536767165686482,0.004204021781029646,0.2058560142439068
1860,4.0,301.41573999999997,-64.796298,0.0,0.0,0.0,0.0,0.0,0.01853826582590673,-0.026178677128384273,0.07496170350464414,-0.02908657015312097,-0.006358369926972254,-0.026140223273839178,0.2263080723448678
1861,4.0,301.05152999999996,305.45957000000004,0.0,0.0,0.0,0.0,0.0,0.018548232635490547,-0.07565494591831183,0.04335981901178096,-0.06055695504800614,-0.03687627277540476,-0.03543486472639886,0.23975686999466078
1862,4.0,300.11187,477.50550999999996,0.0,0.0,0.0,0.0,0.0,0.018558199445074364,-0.07244111621138152,-0.022594549092908377,-0.05011408439662505,-0.006226003392208693,-0.04191757401819246,0.18208773042065984
1863,4.0,299.95412000000005,140.39627,0.0,0.0,0.0,0.0,0.0,0.01856816625465818,-0.08050136572961622,0.04014197886095486,-0.0023175751376768574,-0.008580498019804221,0.005834202477990953,0.2077619478145078
1864,4.0,300.0276,60.9133,0.0,0.0,0.0,0.0,0.0,0.018578133064242025,-0.07344680341263513,0.04655506571187725,0.008375615201883862,0.02018788353488898,0.014610049138899588,0.2230776283760478
1865,4.0,300.36849,379.71017,0.0,0.0,0.0,0.0,0.0,0.018588099873825842,-0.09394933656732761,0.01955209746814178,-0.04102517223111926,0.01294205202303109,0.012712210423347487,0.25237986881295377
1866,4.0,299.60981,359.99747,0.0,0.0,0.0,0.0,0.0,0.01859806668340966,-0.08958373533922633,0.03742964310551817,-0.05727614849621574,0.0022811986484867776,-0.005030882903934485,0.23221037576737977
1867,4.0,299.47562999999997,-25.299912,0.0,0.0,0.0,0.0,0.0,0.018608033492993475,-0.03376170510127087,0.043880029719121756,-0.0024277827033534977,0.01077294092445649,-0.011279117104662189,0.21451258475074378
1868,4.0,299.71148,-70.110067,0.0,0.0,0.0,0.0,0.0,0.018618000302577292,-0.02120074454685058,0.049465348993599854,-0.006952894423147254,-0.0038961191909920264,-0.017914597153783084,0.2001093966992598
1869,4.0,299.83715,70.174526,0.0,0.0,0.0,0.0,0.0,0.018627967112161137,-0.05262110427104865,0.041292862775038255,-0.01000306285935044,-0.012400518480585886,0.006944095359278854,0.1869755779755528
1870,4.0,299.69023,226.26877000000002,0.0,0.0,0.0,0.0,0.0,0.018637933921744926,-0.09221986759439232,0.02542378351238208,-0.001983973181377908,-0.02159897818065318,-0.016188761695706384,0.2070555503747918
1871,4.0,300.56546000000003,321.38937000000004,0.0,0.0,0.0,0.0,0.0,0.018647900731328743,-0.08738877927035102,0.03987910024176076,-0.05018466334559066,-0.019926879428379878,-0.0025857799060216074,0.1882557384168948
1872,4.0,300.17266,3.0321502000000002,0.0,0.0,0.0,0.0,0.0,0.018657867540912587,-0.07745363507182863,0.06740603733745794,0.009125899543181161,0.0008292202933776712,0.0018885357624089684,0.2564097975081768
1873,4.0,300.09323,-7.108441099999999,0.0,0.0,0.0,0.0,0.0,0.018667834350496404,-0.026491890972796073,0.05814674514113694,-0.029494065906087674,0.007338249344203823,0.003865020721572846,0.1984273508707548
1874,4.0,300.53376000000003,567.12902,0.0,0.0,0.0,0.0,0.0,0.01867780116008022,-0.1031699256495789,0.0038047565573002366,-0.07302789441054203,0.016496740076851483,-0.0022351333605154875,0.23157309211698476
1875,4.0,300.10708,665.31957,0.0,0.0,0.0,0.0,0.0,0.018687767969664038,-0.11945084852138088,-0.03659876181151656,-0.04619092186443905,0.027365276081992476,0.0033817504784277867,0.2119594174137658
1876,4.0,299.53262,330.90879,0.0,0.0,0.0,0.0,0.0,0.018697734779247854,-0.0993797055835133,0.04314831825215746,-0.04435662406265796,0.013710502925371286,0.009418382898497021,0.24524847275413975
1877,4.0,299.20497,121.12767,0.0,0.0,0.0,0.0,0.0,0.01870770158883167,-0.059961081915948046,0.03618312358074626,-0.013041829800128387,0.005164398464311445,0.005708990299533474,0.23138522541594378
1878,4.0,298.32638,86.877637,0.0,0.0,0.0,0.0,0.0,0.018717668398415516,-0.07539746994865093,0.051969732391263256,-0.002980894958666427,-0.027586968111121775,-0.0027536301553121377,0.2078624723569288
1879,4.0,298.22344,288.47869,0.0,0.0,0.0,0.0,0.0,0.018727635207999332,-0.04481772479891505,0.025274373705636476,-0.06814696836708213,-0.013475722744700288,-0.006655376126759483,0.2058900999772708
1880,4.0,299.67683999999997,392.32372999999995,0.0,0.0,0.0,0.0,0.0,0.01873760201758312,-0.07785900097308514,0.004432746576453026,-0.04583036086935446,-0.021971436758411976,0.006796161959253963,0.17594408095682884
1881,4.0,298.95152,66.44651,0.0,0.0,0.0,0.0,0.0,0.018747568827166966,-0.04336738596352776,0.05783103566172884,-0.03466172956884637,0.0065209904885216545,0.020763818944729378,0.2131517898664438
1882,4.0,299.22155,24.893712,0.0,0.0,0.0,0.0,0.0,0.018757535636750783,-0.05047112941386265,0.03212760018799727,0.01077646196855399,-0.0026903286725397674,0.0034402740816786162,0.16509099701571284
1883,4.0,300.09409,260.84196000000003,0.0,0.0,0.0,0.0,0.0,0.0187675024463346,-0.0868364718395925,0.043674513214588866,-0.036127483991255066,0.001918133203130008,0.004078139033655986,0.23138699860361878
1884,4.0,299.87368,593.77451,0.0,0.0,0.0,0.0,0.0,0.018777469255918444,-0.14306563508697887,0.007454839980210423,-0.044881825026741255,-0.023119478505964876,0.005300316947300555,0.23292566954297378
1885,4.0,300.12327999999997,333.33062,0.0,0.0,0.0,0.0,0.0,0.018787436065502233,-0.06385534148903153,0.013111652864519386,-0.050580496589906355,0.01016421370162979,-0.009182857067077431,0.21502904845921478
1886,4.0,300.1059,-22.663999,0.0,0.0,0.0,0.0,0.0,0.01879740287508605,-0.051057331073716246,0.028971310927745773,0.02897531022589047,-0.0031781092971799665,-0.0037339603675131967,0.22007866139257282
1887,4.0,299.81196,120.36291000000001,0.0,0.0,0.0,0.0,0.0,0.018807369684669895,-0.027924151399899174,0.03188571003137457,-0.040548877809612666,-0.00014782686690937587,-0.017951510868176184,0.21227688893509777
1888,4.0,300.54655,328.84045,0.0,0.0,0.0,0.0,0.0,0.01881733649425371,-0.07923458221609443,0.042857475956703556,-0.06358217838132244,0.0013105137666376387,0.002819691731356907,0.25371357952208073
1889,4.0,299.88647000000003,254.60443999999998,0.0,0.0,0.0,0.0,0.0,0.018827303303837556,-0.06957140346366293,0.04422098736452166,-0.05204297618799185,-0.010654911473307889,0.0008450946496468482,0.2191331065317538
1890,4.0,298.12577999999996,-7.7948314,0.0,0.0,0.0,0.0,0.0,0.018837270113421345,-0.06222508895263815,0.07430937511676433,-0.0097148515691062,-0.016449386846678085,-0.004421173537785856,0.22572849328766778
1891,4.0,299.6642,-39.310501,0.0,0.0,0.0,0.0,0.0,0.018847236923005162,-0.02466775302976768,0.04209839761778836,-0.005481233461930624,-0.016216354522429588,-0.01933856716856798,0.18488896164711985
1892,4.0,299.6362,229.52962000000002,0.0,0.0,0.0,0.0,0.0,0.018857203732589006,-0.1079948199757589,0.04327230561389405,-0.005048755926423416,-0.01059797593693879,0.017096791852321984,0.22411462905839177
1893,4.0,299.16104,618.55524,0.0,0.0,0.0,0.0,0.0,0.018867170542172823,-0.10670006873297691,-0.005937093567345514,-0.07538818452473453,0.0032333953637112773,-0.013001121464110787,0.2144239760294988
1894,4.0,300.45826,332.09952999999996,0.0,0.0,0.0,0.0,0.0,0.01887713735175664,-0.07656338238821753,0.01090303717104599,-0.035289619377564266,-0.008170446140810252,-0.0027005351407970676,0.2249801776913148
1895,4.0,300.47359,-199.00277,0.0,0.0,0.0,0.0,0.0,0.018887104161340457,-0.03782637611592266,0.07767832226825352,0.02063992784175228,-0.0007892990500377513,0.0016854430534402785,0.25898589469491773
1896,4.0,300.41078,52.354859000000005,0.0,0.0,0.0,0.0,0.0,0.018897070970924273,-0.059844217702414444,0.05182924019864775,-0.007899592027429033,-0.0018127589417553781,0.02156742658578928,0.21236666289395778
1897,4.0,301.00003,470.43793,0.0,0.0,0.0,0.0,0.0,0.01890703778050809,-0.1035108437782249,0.021189553199496083,-0.060680098372409445,0.0019142406002208383,0.003718596557571906,0.2273984915724838
1898,4.0,299.55957,199.88811,0.0,0.0,0.0,0.0,0.0,0.018917004590091935,-0.07612593090929443,0.016052357967244385,-0.0006874216566132353,-0.01163848043812859,-0.025211327257914272,0.17537521195318584
1899,4.0,298.97987,-192.79768,0.0,0.0,0.0,0.0,0.0,0.01892697139967575,-0.011713821662564189,0.06445077385729614,0.005868728063223364,0.023831628166498576,-0.04024024892190336,0.2054205497484298
1900,4.0,299.77959,59.85193,0.0,0.0,0.0,0.0,0.0,0.01893693820925954,-0.036395450139201264,0.05399853165574015,-0.03579657474709687,0.013133307032406486,0.004665181589767576,0.2279452109289408
1901,4.0,299.82572000000005,206.67291,0.0,0.0,0.0,0.0,0.0,0.018946905018843385,-0.07355467401828113,0.051801255244135855,-0.04106998423004186,0.018700270268072982,-0.02505283265077208,0.2269524386134618
1902,4.0,298.71423,391.18877000000003,0.0,0.0,0.0,0.0,0.0,0.018956871828427202,-0.08166283202774402,0.005483168465646595,-0.04273195554756566,-0.040414165195567564,-0.017031460525624285,0.2061851077438858
1903,4.0,300.59925,291.56113,0.0,0.0,0.0,0.0,0.0,0.01896683863801102,-0.11017967090138689,0.021841563426844478,-0.00028919105242843475,-0.03181159990581047,-0.011775222592123989,0.18389348395387384
1904,4.0,300.33589,195.00099999999998,0.0,0.0,0.0,0.0,0.0,0.018976805447594863,-0.10121833300297171,0.029364473244797868,0.012578423919893788,0.002927999959721097,0.04462573315671696,0.24159230162330375
1905,4.0,300.04798,282.2943,0.0,0.0,0.0,0.0,0.0,0.018986772257178652,-0.0888441215347321,0.027033286713227675,-0.023999584503074576,0.01936970333089088,0.02011553646449888,0.1974581163550988
1906,4.0,299.83824,248.6962,0.0,0.0,0.0,0.0,0.0,0.01899673906676247,-0.06702598242369943,0.03651769775051617,-0.04508914916945255,-0.0027370099152468474,-0.002689740075556677,0.27257949591650177
1907,4.0,300.08001,-51.396772,0.0,0.0,0.0,0.0,0.0,0.019006705876346314,-0.011567434380866888,0.03624946309129346,-0.009058693501148442,0.005143114943310925,-0.03670418136517067,0.23739924979448176
1908,4.0,299.75725,-94.657923,0.0,0.0,0.0,0.0,0.0,0.01901667268593013,-0.026736153147902876,0.07967732083403933,-0.024167522601148773,0.0012863102614989387,0.01753989524030288,0.25920788765932673
1909,4.0,300.06167,374.91371000000004,0.0,0.0,0.0,0.0,0.0,0.019026639495513975,-0.09584025782444701,-0.006798316331616583,-0.01132583300052269,0.01755659360195088,0.01077284973194749,0.17997696834234383
1910,4.0,299.70512,488.39965,0.0,0.0,0.0,0.0,0.0,0.019036606305097764,-0.14460789293168785,0.03009831658997257,-0.03395172191902407,-0.01880087587050198,-0.006470696907883064,0.19421596934762383
1911,4.0,299.76628,297.71606,0.0,0.0,0.0,0.0,0.0,0.01904657311468158,-0.07342793770902323,0.02429504823223458,-0.04136535879319306,0.010884572714473689,-0.009063131536586442,0.19130860017318882
1912,4.0,300.06182,94.216325,0.0,0.0,0.0,0.0,0.0,0.019056539924265425,-0.04783974119566486,0.04251772914517316,-0.02331739867449808,-0.004799347048758676,0.026631257444550478,0.23419999366373975
1913,4.0,300.27776,205.10658999999998,0.0,0.0,0.0,0.0,0.0,0.019066506733849242,-0.08661636453361961,0.06925748338393144,-0.04498840069875946,0.023778140720219776,-0.009830602930054971,0.2535867307420618
1914,4.0,300.78607,429.25955999999996,0.0,0.0,0.0,0.0,0.0,0.01907647354343306,-0.06941418149864634,-0.013473190632700385,-0.04759681549743996,-0.031489879826809175,-0.02109143107306218,0.2042393433118538
1915,4.0,300.7758,184.29272,0.0,0.0,0.0,0.0,0.0,0.019086440353016876,-0.1028830846787699,0.03897895013117286,0.007883745505140103,-6.967137882452973e-05,-0.016503986841566683,0.24566134177238674
1916,4.0,299.22755,5.7260542999999995,0.0,0.0,0.0,0.0,0.0,0.019096407162600693,-0.06998491184272304,0.057107816243852645,0.01113651836508879,0.002028743130421358,0.029486581027598973,0.2042485841527658
1917,4.0,299.98573999999996,138.19823,0.0,0.0,0.0,0.0,0.0,0.01910637397218451,-0.0900153069278191,0.052195028550998245,-0.004188532936026016,0.02541231453450018,0.01875720681769218,0.2292425358269768
1918,4.0,299.38016,302.43504,0.0,0.0,0.0,0.0,0.0,0.019116340781768354,-0.06724313813213104,0.029577881954359675,-0.05426744417927975,-0.004865593441621685,0.004098682071483426,0.2306237882307958
1919,4.0,300.40869,299.01307,0.0,0.0,0.0,0.0,0.0,0.01912630759135217,-0.06431162624756334,0.03199031493194827,-0.05857119560802694,0.007246905252988864,-0.006330840124405274,0.2548282356920888
1920,4.0,299.69806,311.96097000000003,0.0,0.0,0.0,0.0,0.0,0.01913627440093596,-0.05752705860522865,0.03789046925099817,-0.07519175586034853,0.015395374708405185,0.018938782248862283,0.24295757507304577
1921,4.0,298.93156,254.67858999999999,0.0,0.0,0.0,0.0,0.0,0.019146241210519804,-0.1025332195517409,0.04264662367714405,-0.017529334134510584,-0.0016612135077740085,0.002040149793422108,0.20761180441468982
1922,4.0,298.4087,181.06766000000002,0.0,0.0,0.0,0.0,0.0,0.01915620802010362,-0.09221176564659272,0.02755961846442257,0.009612098585740272,-0.027177064875917475,-0.014582309390911886,0.1896170196612428
1923,4.0,300.61532,292.21173999999996,0.0,0.0,0.0,0.0,0.0,0.019166174829687466,-0.09312979860819551,0.035015043799215766,-0.03071031661062227,-0.00913192057925039,-0.024990889632408773,0.20686222225571183
1924,4.0,299.66471,101.48868,0.0,0.0,0.0,0.0,0.0,0.019176141639271282,-0.06290397158588865,0.05902283866785065,-0.02696889061637227,-0.003232763298298897,0.013889619198548687,0.25152644878372776
1925,4.0,300.25822999999997,32.884537,0.0,0.0,0.0,0.0,0.0,0.01918610844885507,-0.01981320188641078,0.029204816439790972,-0.019387692573166283,-0.002101379889015048,-0.011290967064581688,0.2339289796594928
1926,4.0,299.02007000000003,-46.232084,0.0,0.0,0.0,0.0,0.0,0.01919607525843889,-0.026757768812286174,0.07697697588028601,-0.036165808149787364,-0.016246126850117882,-0.02884586144611487,0.2532566341244838
1927,4.0,300.54213,302.71439,0.0,0.0,0.0,0.0,0.0,0.019206042068022733,-0.06951800619664303,-0.0025357648678355077,-0.01996384684502828,0.012986561060173788,-0.0015549125278579187,0.2259638408883948
1928,4.0,300.7816,455.34437,0.0,0.0,0.0,0.0,0.0,0.01921600887760655,-0.11128895684586489,0.03200958694885027,-0.05913394458106594,0.03651120079087496,0.039167995242080166,0.22659898658107877
1929,4.0,301.00045,311.70367999999996,0.0,0.0,0.0,0.0,0.0,0.019225975687190394,-0.08779503075219491,0.01686535742348118,-0.02382046316364668,0.00870314779008381,0.01874289769977998,0.2008186312392558
1930,4.0,299.71602,162.29556000000002,0.0,0.0,0.0,0.0,0.0,0.019235942496774183,-0.05406853203889865,0.016715775364218585,-0.01198104205843679,-0.036347836503752166,-0.025029881522756977,0.2033249053616058
1931,4.0,299.74609,214.22714,0.0,0.0,0.0,0.0,0.0,0.019245909306358,-0.057372536951728545,0.04991080312181275,-0.05765796646514824,-0.039626425051073666,-0.03901958449993316,0.23571449858820975
1932,4.0,298.92595,308.93881,0.0,0.0,0.0,0.0,0.0,0.019255876115941845,-0.05743762205865194,0.011658542790108589,-0.048130605782620954,0.005782102069774045,0.00967655537627666,0.23386946134861877
1933,4.0,299.95157,120.71716,0.0,0.0,0.0,0.0,0.0,0.01926584292552566,-0.1018607761228759,0.06846779881249564,-0.003302027656584757,-0.002020208727479078,-0.007608209467021812,0.22775814469547878
1934,4.0,298.76906,-31.138786,0.0,0.0,0.0,0.0,0.0,0.019275809735109478,-0.05340280341844636,0.04063182651579906,0.02223638950056078,0.0012163169710911388,-0.025222668566283576,0.2018342219469868
1935,4.0,300.40601000000004,27.796978999999997,0.0,0.0,0.0,0.0,0.0,0.019285776544693295,-0.08849948376496901,0.07097582991051903,0.009074066835640672,-0.012497244348381988,0.004882670454832055,0.2143821490653708
1936,4.0,300.56052,377.04857000000004,0.0,0.0,0.0,0.0,0.0,0.019295743354277112,-0.08216471202752572,0.019490099734273084,-0.05193873707070425,0.049370946508283046,0.04050493315277566,0.2199945920317758
1937,4.0,300.90332,420.29444000000007,0.0,0.0,0.0,0.0,0.0,0.01930571016386093,-0.07714483089185202,0.006888966346513044,-0.057503148942618945,0.017854818437633382,0.013672684378638885,0.22714262565723178
1938,4.0,300.67578,155.81911000000002,0.0,0.0,0.0,0.0,0.0,0.019315676973444773,-0.043693670734229556,0.03053576908214577,-0.03420721799798957,-0.005427468790424464,-0.03641722893685067,0.23262837183113277
1939,4.0,301.24764,78.180044,0.0,0.0,0.0,0.0,0.0,0.01932564378302859,-0.05654265269582535,0.04925120567771555,-0.016473335012791586,-0.025777387532280076,-0.017034789052202785,0.24217190094550578
1940,4.0,299.94164,217.56967000000003,0.0,0.0,0.0,0.0,0.0,0.01933561059261238,-0.06056726790752394,0.02181515002323768,-0.027383630094303873,-0.003403946127168327,0.012565693445637386,0.23032700727650576
1941,4.0,300.26959,437.05017999999995,0.0,0.0,0.0,0.0,0.0,0.019345577402196223,-0.09560087748832201,0.015742771558190587,-0.05299423564687385,0.002470058030650748,0.03280083699169057,0.21226654365157682
1942,4.0,298.90922,141.27399,0.0,0.0,0.0,0.0,0.0,0.01935554421178004,-0.06304502207930923,0.05524417269267535,-0.03514291697508587,-0.012916770419785988,-0.023077707270592374,0.22926831290952077
1943,4.0,299.64844,-46.299155,0.0,0.0,0.0,0.0,0.0,0.019365511021363885,-0.031012059450651972,0.03869272318992446,0.006393123189502134,-0.00998714844930481,0.013225880601292787,0.21564421285992677
1944,4.0,300.01273,-92.72464000000001,0.0,0.0,0.0,0.0,0.0,0.0193754778309477,-0.05260991191044404,0.08066718512173132,0.00012870146729684589,0.015929047456574585,0.031032930376211767,0.2497222860531708
1945,4.0,300.53508,337.03332,0.0,0.0,0.0,0.0,0.0,0.01938544464053149,-0.1089439820069339,0.0014738144216541588,0.005020453621980195,0.018961260189080682,0.014546487960126588,0.2015379577502478
1946,4.0,300.20493999999997,598.1135,0.0,0.0,0.0,0.0,0.0,0.019395411450115307,-0.10270202701840091,-0.01959210159533988,-0.05951744454516444,-0.004141864257620176,-0.049314971533008754,0.1943761033934278
1947,4.0,300.68491,182.66048999999998,0.0,0.0,0.0,0.0,0.0,0.019405378259699152,-0.07257805290939613,0.038256231258846064,-0.02120240627701458,-0.017859637455108983,-0.025605834157849075,0.1991715425392008
1948,4.0,299.3265,-72.681136,0.0,0.0,0.0,0.0,0.0,0.01941534506928297,-0.0029112063525636974,0.027806651878552874,-0.002802194827305097,0.001029991524777249,0.004826790015792086,0.2114308352340988
1949,4.0,300.12442999999996,149.54033,0.0,0.0,0.0,0.0,0.0,0.019425311878866813,-0.06472517009037694,0.04571803398976866,-0.026449392223851773,0.008053578380901304,0.030401862001930173,0.22692685404843677
1950,4.0,301.16107999999997,442.32432,0.0,0.0,0.0,0.0,0.0,0.019435278688450602,-0.1109549997454059,0.008894938808762113,-0.03239549135543607,-0.00012406736796449587,-0.031302211722787764,0.24473670039363174
1951,4.0,300.50702,179.14517,0.0,0.0,0.0,0.0,0.0,0.01944524549803442,-0.09912131059601172,0.047982789818282655,-0.003317137951351027,0.0032530023610963374,0.0006185542897165554,0.25952967562608475
1952,4.0,299.36585,-6.568790600000001,0.0,0.0,0.0,0.0,0.0,0.019455212307618264,-0.04323556719176826,0.06481870118060774,-0.019586384838275683,0.012870184219938288,0.02249892057497058,0.24328359842522176
1953,4.0,299.17857000000004,116.38192,0.0,0.0,0.0,0.0,0.0,0.01946517911720208,-0.059333594367519844,0.03749318604578936,-0.013536788288476988,-0.003117039193777817,0.013289529932824489,0.23624476276304276
1954,4.0,300.10617,427.83199,0.0,0.0,0.0,0.0,0.0,0.019475145926785897,-0.08721043610699993,0.012952689122580886,-0.055792493997540445,-0.004566625488315846,-0.04129756222900206,0.21394086851431982
1955,4.0,299.74897999999996,461.37293,0.0,0.0,0.0,0.0,0.0,0.019485112736369714,-0.10706378498887291,0.004652231746864526,-0.03783429973170467,-0.016450257228513985,0.0008538571047891352,0.22412271479418977
1956,4.0,300.03577,63.58956800000001,0.0,0.0,0.0,0.0,0.0,0.01949507954595353,-0.08690031166214301,0.06229954256998614,0.005271127745044805,0.0029596181251165675,0.007123050120390313,0.21794174732917582
1957,4.0,299.9806,25.106399,0.0,0.0,0.0,0.0,0.0,0.019505046355537348,-0.059957468666091446,0.037694623205419664,0.014631127780729886,-0.013973125192290086,0.03050985622408837,0.20686398531088582
1958,4.0,300.26259,220.59662000000003,0.0,0.0,0.0,0.0,0.0,0.019515013165121192,-0.06122070884401353,0.01987999128000238,-0.025715145605137275,0.006654532697376243,-0.025759820815296375,0.2129137571529518
1959,4.0,301.06711,463.50265999999993,0.0,0.0,0.0,0.0,0.0,0.01952497997470501,-0.08399718597912682,0.012742915954377888,-0.06963896495383072,0.012552759308110888,-0.004037960526115676,0.2488009985322468
1960,4.0,300.97536,185.93303,0.0,0.0,0.0,0.0,0.0,0.019534946784288798,-0.026930231072056873,0.04171175252537946,-0.07130052185206363,0.043905077261593754,0.004814114155716076,0.27100495592360674
1961,4.0,299.66559,-73.346349,0.0,0.0,0.0,0.0,0.0,0.019544913593872643,-0.03253243311970117,0.049029022222287756,0.005798868927128806,-0.014833590349461386,0.003906582416824666,0.2391624569559968
1962,4.0,300.10019,276.75271000000004,0.0,0.0,0.0,0.0,0.0,0.01955488040345646,-0.096130939013135,0.035470403460406266,-0.023465378785352577,-0.025055720413557078,-0.057573375280549746,0.24571182189236876
1963,4.0,299.89862,524.06553,0.0,0.0,0.0,0.0,0.0,0.019564847213040276,-0.14155089711498586,0.01801211436990728,-0.035764058538137765,-0.04015268790126176,-0.007850778298561492,0.22151471036179976
1964,4.0,300.07987,295.76171,0.0,0.0,0.0,0.0,0.0,0.019574814022624093,-0.07161312369341502,0.022985211721963775,-0.04127626269864996,0.024365744718211773,0.025333993341520478,0.20817757287302682
1965,4.0,300.49544,-25.758557999999997,0.0,0.0,0.0,0.0,0.0,0.01958478083220791,-0.030323953201741177,0.050114435994409755,-0.01196052374391179,-0.01167930631115779,0.013418278556780988,0.19771298928525283
1966,4.0,300.14117000000005,100.53203,0.0,0.0,0.0,0.0,0.0,0.019594747641791727,-0.004936855321154685,0.017030277049507485,-0.04265264846223866,0.00926565834537428,-0.04038294189373606,0.2027187892842868
1967,4.0,300.02201,203.55812,0.0,0.0,0.0,0.0,0.0,0.01960471445137557,-0.1054512582497289,0.06809777811447744,-0.02452310043224158,0.002215286932131798,-0.0070788731253053835,0.23898714442369476
1968,4.0,298.82257000000004,327.31121,0.0,0.0,0.0,0.0,0.0,0.019614681260959388,-0.10444896138330992,0.03856469701328926,-0.03361016645606517,0.039118238582669565,0.030518592466450573,0.22979944847943978
1969,4.0,298.04929,199.0585,0.0,0.0,0.0,0.0,0.0,0.019624648070543205,-0.1036983963717349,0.05837702953111425,-0.015187449708384586,-7.057711802266923e-05,0.02422012345359008,0.2408690335694228
1970,4.0,298.33499,163.78297,0.0,0.0,0.0,0.0,0.0,0.01963461488012702,-0.05018821782694145,0.03329611972007117,-0.032893834099118675,-0.012094440956628387,-0.025281946736883873,0.22950350852273277
1971,4.0,297.70535,343.7927,0.0,0.0,0.0,0.0,0.0,0.01964458168971084,-0.053457952594889155,0.02103857792134598,-0.07208502263598783,-0.031232716951429172,0.0008387610867167741,0.2576001130631518
1972,4.0,298.9115,370.13242,0.0,0.0,0.0,0.0,0.0,0.019654548499294655,-0.058423138490164846,0.04728565449773075,-0.1013735345472889,0.025669901961672077,-0.003964254687341476,0.26739731947256073
1973,4.0,300.30651,249.70375,0.0,0.0,0.0,0.0,0.0,0.019664515308878472,-0.1051441421444189,0.035693245528399066,-0.006452804127017183,-0.004957312840673685,-0.0075973648538515326,0.2386710407899978
1974,4.0,300.25207,-72.070361,0.0,0.0,0.0,0.0,0.0,0.019674482118462316,-0.04668688245713655,0.05560103431164485,0.012993439001852588,-0.010466618193974792,-0.049579089357075154,0.21243380084558378
1975,4.0,299.76941,18.716062,0.0,0.0,0.0,0.0,0.0,0.019684448928046133,-0.1023724674233759,0.07142762293135753,0.025255631618536774,-0.0011401584591248788,0.0010109054696661021,0.20583747176707679
1976,4.0,299.75925,368.24309,0.0,0.0,0.0,0.0,0.0,0.01969441573762995,-0.09596220146073191,0.03362329716411107,-0.049597799020171654,0.024805685752630577,0.03759640887322667,0.2062190921522398
1977,4.0,299.68556,288.52804,0.0,0.0,0.0,0.0,0.0,0.019704382547213767,-0.05520534292234315,0.028662024440721575,-0.06116200214646964,0.016393841489446184,0.02690965702877637,0.2073806010068718
1978,4.0,301.05519,3.7214542,0.0,0.0,0.0,0.0,0.0,0.019714349356797584,-0.012636241997099987,0.049429827484844154,-0.03792481437638776,-0.013333814028444989,-0.02196603005587838,0.22996414215069377
1979,4.0,300.56987999999996,-35.579471999999996,0.0,0.0,0.0,0.0,0.0,0.019724316166381428,-0.05448122475162825,0.06849478672890914,-0.0031982907060467167,-0.005655441146323584,0.01151278980297389,0.2699865686455997
1980,4.0,300.70436,184.3304,0.0,0.0,0.0,0.0,0.0,0.019734282975965217,-0.08467224156674963,0.05226144101555265,-0.023621037305464877,-0.00024147347778407676,0.014969249339099884,0.24651767996190074
1981,4.0,300.60632000000004,465.68805999999995,0.0,0.0,0.0,0.0,0.0,0.019744249785549034,-0.13661175884003085,0.024431291867180776,-0.029377075036291573,-0.0018984399781614382,0.026183633947873475,0.23897479290497578
1982,4.0,300.29893,357.70358999999996,0.0,0.0,0.0,0.0,0.0,0.01975421659513288,-0.07514153513239213,0.006745594699763363,-0.04033701937270386,-0.007994597092580302,-0.03076821878758677,0.1859455687188988
1983,4.0,299.4475,19.578584,0.0,0.0,0.0,0.0,0.0,0.019764183404716695,-0.024969351988283178,0.044372535128978256,-0.025354583596802576,-0.004378039177053826,-0.007064072074469634,0.23347903582008675
1984,4.0,299.36347,-4.3400442,0.0,0.0,0.0,0.0,0.0,0.019774150214300512,-0.03456396613294786,0.062145293480762934,-0.026262062545363774,-0.0032058156079143667,0.004670480887790576,0.1991001894671588
1985,4.0,299.00789,101.23406999999999,0.0,0.0,0.0,0.0,0.0,0.01978411702388433,-0.0878653118056311,0.07090994028301624,-0.013817257942657184,0.016307136665139086,-0.002068204864840928,0.26074982126400376
1986,4.0,300.26617999999996,85.039139,0.0,0.0,0.0,0.0,0.0,0.019794083833468146,-0.07360218531547012,0.038426498818900166,0.009325912377145891,-0.015624370244255286,-0.023726041426577978,0.2005181012595958
1987,4.0,299.98399,33.977779,0.0,0.0,0.0,0.0,0.0,0.019804050643051962,-0.0911926569345145,0.05454077649975554,0.026323483739925577,-0.01242735846248479,0.012463381530039987,0.25250565368036776
1988,4.0,299.69746000000004,224.74,0.0,0.0,0.0,0.0,0.0,0.019814017452635807,-0.06734650889408295,0.045071721267732553,-0.04604056061584955,0.017059806197171783,0.03586114106996907,0.1985124436141528
1989,4.0,300.76891,551.0636400000001,0.0,0.0,0.0,0.0,0.0,0.019823984262219624,-0.08783038912768451,-0.004642751880253935,-0.07503644488502052,-0.009065859915130712,0.01816806875904878,0.2393644686284338
1990,4.0,299.82746000000003,346.22162000000003,0.0,0.0,0.0,0.0,0.0,0.019833951071803413,-0.07629901530462653,0.04436473715620866,-0.07330844816448052,0.004935473450668305,-0.026009880807475374,0.22843197627698078
1991,4.0,299.59848,274.55829,0.0,0.0,0.0,0.0,0.0,0.019843917881387257,-0.08382389994702483,0.04698364415967465,-0.046618609665398554,0.029715886617979675,-0.0070687192447282735,0.27902270263989676
1992,4.0,300.66792000000004,250.8283,0.0,0.0,0.0,0.0,0.0,0.019853884690971074,-0.09679600902102231,0.04098469694262467,-0.020434225912451084,0.03022220363994927,0.006513922663774114,0.23752179226157577
1993,4.0,301.76747,166.23723,0.0,0.0,0.0,0.0,0.0,0.01986385150055489,-0.08543032793381693,0.03554976222148837,-0.0006514006966182435,0.0031821811440318273,-0.019566542361567383,0.21001861790722381
1994,4.0,301.50673,236.38702999999998,0.0,0.0,0.0,0.0,0.0,0.019873818310138736,-0.07461007532244113,0.002171407123301198,0.0005829132883765623,-0.04484673009627766,-0.038506331781029066,0.1862165827231458
1995,4.0,301.45237000000003,201.64487,0.0,0.0,0.0,0.0,0.0,0.019883785119722525,-0.07191136372784902,0.03893037593462896,-0.02831401558787577,-0.01905069572240728,-0.0024549659743862778,0.21824659375426178
1996,4.0,300.9715,43.771007,0.0,0.0,0.0,0.0,0.0,0.01989375192930634,-0.04559126424325746,0.04931097426136425,-0.017025004095987086,0.002834420740110547,0.03128199130379217,0.23895223795774978
1997,4.0,299.86087000000003,205.82202,0.0,0.0,0.0,0.0,0.0,0.019903718738890186,-0.06917651963469093,0.03197918032659937,-0.025367416409319075,0.02070754810042588,0.01061909814852339,0.23300344662064978
1998,4.0,300.30896,547.98445,0.0,0.0,0.0,0.0,0.0,0.019913685548474003,-0.12034539637216589,0.029965513952365973,-0.07619370720848342,-0.018090022156846183,-0.016200675490382184,0.24796568528230775
1999,4.0,300.39454,429.50494000000003,0.0,0.0,0.0,0.0,0.0,0.019923652358057847,-0.08969580991953723,0.015698514820322786,-0.056561480909183545,0.014105586364612985,-0.006632437461720613,0.24855945997340878
2000,4.0,299.74273999999997,243.71374,0.0,0.0,0.0,0.0,0.0,0.019933619167641636,-0.036180459746233365,0.028537501069682072,-0.06643993275136084,0.024223197654393475,0.02449000565747538,0.2272466864425018
2001,4.0,299.46119,352.43982,0.0,0.0,0.0,0.0,0.0,0.019943585977225453,-0.07857367058661752,0.027943847968593075,-0.05650308122641994,0.0015459595512993284,-0.021652944894229278,0.22936307205887277
2002,4.0,299.85533,285.47001,0.0,0.0,0.0,0.0,0.0,0.019953552786809298,-0.06853331049771114,0.03564568154220486,-0.05388812488509385,-0.01795316753208968,-0.03313186985236097,0.24878623547828974
2003,4.0,299.87425,113.31827,0.0,0.0,0.0,0.0,0.0,0.019963519596393114,-0.09373035802196611,0.07105190675452723,-0.011767472242109089,-0.007481434755585123,-0.011949561391079888,0.28128470242813874
2004,4.0,300.57187000000005,112.56076999999999,0.0,0.0,0.0,0.0,0.0,0.01997348640597693,-0.06340862181144373,0.04152315425776626,-0.012330193857395387,0.005757452025316275,0.04366876099377116,0.24246178166661478
2005,4.0,299.74973,132.85842,0.0,0.0,0.0,0.0,0.0,0.019983453215560748,-0.08393737078597352,0.04388476463683905,-0.0003330373733432297,0.01816919042690948,-0.018620387656689184,0.2127271266170328
2006,4.0,299.19121,265.64887000000004,0.0,0.0,0.0,0.0,0.0,0.019993420025144565,-0.06662867692698844,0.031886071761660265,-0.04600801806238786,0.006602583466074253,-0.02882756620230927,0.19492394745749583
2007,4.0,299.12551,490.98755,0.0,0.0,0.0,0.0,0.0,0.02000338683472838,-0.11876109878080789,0.01149118427109159,-0.04197804174441016,0.01114064533274609,-0.006715177945011463,0.22433227517987178
2008,4.0,298.87099,335.98147,0.0,0.0,0.0,0.0,0.0,0.020013353644312226,-0.09851486318591,0.06105279303744154,-0.06466790828747564,0.023814900420597678,0.03445311961175817,0.25528273915694477
2009,4.0,299.47039,-25.346673000000003,0.0,0.0,0.0,0.0,0.0,0.020023320453896043,-0.05698197868743344,0.07584142547996592,-0.011154692018882388,0.005599140917767184,0.004220944982874836,0.24553662081757774
2010,4.0,299.15578,15.996945000000002,0.0,0.0,0.0,0.0,0.0,0.020033287263479832,-0.04886276611937955,0.05305594663096425,-0.009055852043893012,-0.045134981511225865,-0.01056310088174689,0.27046311030013076
2011,4.0,298.76354,390.01644,0.0,0.0,0.0,0.0,0.0,0.020043254073063677,-0.0905192114013006,0.03570145792045956,-0.06373750556865204,-0.023424714019089275,-0.02002932407974038,0.24436484773943276
2012,4.0,299.72792999999996,362.10103,0.0,0.0,0.0,0.0,0.0,0.020053220882647493,-0.05976343127194145,0.005021602444943576,-0.05532784181968285,-0.03269514892675997,0.028220520974648573,0.24954721670089278
2013,4.0,299.94412,-98.935476,0.0,0.0,0.0,0.0,0.0,0.02006318769223131,-0.02660776321448177,0.03708815046406546,0.019593527238230584,0.013831579219570586,-0.018873487399168182,0.19433040581391783
2014,4.0,300.32697,77.01958,0.0,0.0,0.0,0.0,0.0,0.020073154501815155,-0.06282186083753494,0.035597401188189964,0.003812429798982527,0.017265115998684282,-0.013417517605955888,0.2419900529500588
2015,4.0,300.44069,216.03012,0.0,0.0,0.0,0.0,0.0,0.020083121311398944,-0.08762702476636401,0.03364378204138277,-0.011684520496172386,0.03691708750268286,-0.0013093810543508488,0.22901655065717377
2016,4.0,300.1894,275.21988,0.0,0.0,0.0,0.0,0.0,0.02009308812098276,-0.09424875906462832,0.045425452957143155,-0.03483666517211117,0.012640393282759687,0.03942573364351696,0.23518906761635378
2017,4.0,300.21214,323.94321,0.0,0.0,0.0,0.0,0.0,0.020103054930566605,-0.08791458514474401,0.031531992527465365,-0.04208805537401766,0.007456726043946563,-0.024092878492781977,0.2059433057400218
2018,4.0,300.06498,164.96813,0.0,0.0,0.0,0.0,0.0,0.020113021740150422,-0.04837352742784545,0.051882124761117046,-0.053654788585815356,-0.02228204452356658,-0.0065137603411080935,0.2292453526622548
2019,4.0,298.84063,205.45772,0.0,0.0,0.0,0.0,0.0,0.020122988549734266,-0.08231552721216001,0.04834250778928405,-0.02848099515135537,0.017651991098865883,-0.009385214460448552,0.25908326802952775
2020,4.0,299.01886,452.4825,0.0,0.0,0.0,0.0,0.0,0.020132955359318055,-0.11928051104706987,0.044065284261404956,-0.06232815168655965,-0.02220447414891098,0.03831696344333987,0.2604494635368607
2021,4.0,298.13822000000005,335.05405,0.0,0.0,0.0,0.0,0.0,0.020142922168901872,-0.12237454115492688,0.038235428221042964,-0.017708958045988082,0.0008141230999351944,0.001215742660934459,0.2783522958437328
2022,4.0,299.26511,143.92368000000002,0.0,0.0,0.0,0.0,0.0,0.020152888978485717,-0.06593730193325503,0.03323945066847837,-0.01105135368093369,-0.008733030460708,0.012863857486313886,0.25628418489327975
2023,4.0,300.49127999999996,199.60783999999998,0.0,0.0,0.0,0.0,0.0,0.020162855788069534,-0.06217891615883124,0.024155504441712678,-0.022652386421866476,0.02808083431586257,0.00022982299641176375,0.2358034923444928
2024,4.0,300.46296,253.78732999999997,0.0,0.0,0.0,0.0,0.0,0.02017282259765335,-0.06046395996707825,0.013289650509586387,-0.029970702806128076,-0.019921398758588983,0.008895324654400192,0.2084636133762568
2025,4.0,301.74302,184.3688,0.0,0.0,0.0,0.0,0.0,0.020182789407237167,-0.07594622391130873,0.03997243070847176,-0.02006971628172678,0.011880352356249489,-0.046155358812429256,0.18729007054159083
2026,4.0,300.52475,23.248573999999998,0.0,0.0,0.0,0.0,0.0,0.020192756216820984,-0.04979315161295145,0.04695388399098755,-0.004227718559793337,8.134902644527382e-05,-0.024899043577094274,0.19746992071876382
2027,4.0,300.38371,79.898909,0.0,0.0,0.0,0.0,0.0,0.0202027230264048,-0.09023268656452281,0.06935663091946652,-0.0034112178178359862,0.02276370714410298,-0.0062827288818320635,0.23534699277693977
2028,4.0,300.73677000000004,220.59013,0.0,0.0,0.0,0.0,0.0,0.020212689835988645,-0.08692207323454072,0.04136043845070746,-0.02149225558737048,0.008006660645620882,0.022119255762500577,0.2508337808828668
2029,4.0,299.81138,199.61756,0.0,0.0,0.0,0.0,0.0,0.020222656645572462,-0.05837253779342094,0.038940596588387666,-0.04124681258449346,-0.006512413833050203,-0.014570729968769089,0.2325843461142878
2030,4.0,299.19951000000003,301.19946,0.0,0.0,0.0,0.0,0.0,0.02023262345515625,-0.06510865688222413,0.03289447447318187,-0.05934293146719135,-0.014320806765353588,0.024547792323928477,0.26447264398641773
2031,4.0,299.37102999999996,277.35418,0.0,0.0,0.0,0.0,0.0,0.020242590264740096,-0.06990963445304374,0.025314305892077477,-0.039713416625159065,0.014058954568510787,0.004928934947773005,0.25301677756081176
2032,4.0,299.5051,234.44476,0.0,0.0,0.0,0.0,0.0,0.020252557074323913,-0.1031807167631439,0.046434060345184956,-0.014518698562883986,-0.017561006306136384,0.02896300734317627,0.24274195545176575
2033,4.0,300.16123999999996,357.28189,0.0,0.0,0.0,0.0,0.0,0.02026252388390773,-0.13012708992254388,0.025528030735670476,-0.004005711916507986,-0.04592051378375186,0.0018683988352216079,0.22294310929277178
2034,4.0,299.66364,150.43576000000002,0.0,0.0,0.0,0.0,0.0,0.020272490693491574,-0.08802239799513431,0.05093975454536235,-0.008646069689425643,-0.025185398187855274,0.009073732463107671,0.2336963678340358
2035,4.0,299.03757,-160.74403999999998,0.0,0.0,0.0,0.0,0.0,0.020282457503075363,-0.016434007736660285,0.05143283041502515,0.013863351702956286,-0.006381406978595834,0.019369542224124982,0.2238316688354658
2036,4.0,300.67708,-42.096675,0.0,0.0,0.0,0.0,0.0,0.02029242431265918,-0.031483623007441675,0.06883442816242914,-0.024554467615587276,0.03288355670335437,-0.00791667957844044,0.2230317078815158
2037,4.0,300.13063999999997,107.68958,0.0,0.0,0.0,0.0,0.0,0.020302391122243024,-0.07139317850745813,0.060161281897206244,-0.021503044674435277,0.032729149547115574,-0.05173972157881295,0.21890059603130682
2038,4.0,300.80029,64.122049,0.0,0.0,0.0,0.0,0.0,0.02031235793182684,-0.07029306348963522,0.06623098538198934,-0.015429422951515484,0.008817657311710022,-0.0024784887781077974,0.24960458692155474
2039,4.0,300.75321,307.81737999999996,0.0,0.0,0.0,0.0,0.0,0.020322324741410686,-0.12220255208295289,0.03219347360349847,-0.0035597152941915467,0.029111798054110773,-0.0003437407191845676,0.26330786233396275
2040,4.0,298.5619,538.44593,0.0,0.0,0.0,0.0,0.0,0.020332291550994475,-0.12237308207478288,0.031810372859939366,-0.07311140952353433,-0.02163533359424118,0.024030034695079774,0.28207400399103677
2041,4.0,299.84081000000003,558.04225,0.0,0.0,0.0,0.0,0.0,0.02034225836057829,-0.1002207416700171,-0.004058877858530056,-0.06535129076442024,-0.04173523054344656,0.011096192024358888,0.24168528758498076
2042,4.0,300.13648,344.57063999999997,0.0,0.0,0.0,0.0,0.0,0.020352225170162136,-0.04654751598538216,0.008131633393079731,-0.06632498662026654,-0.019320083460243782,0.01000781348244429,0.24816073592655777
2043,4.0,298.90991,125.86916000000001,0.0,0.0,0.0,0.0,0.0,0.020362191979745953,-0.05556030571062525,0.036887922111804465,-0.019588698088253982,-0.0006165573358894714,0.015153257583760087,0.2296063432753818
2044,4.0,299.82526,175.70637,0.0,0.0,0.0,0.0,0.0,0.02037215878932977,-0.07069226376403323,0.014773153020746685,0.0025087633738706677,0.017944540720738283,-0.0025030864375353975,0.2277250519472128
2045,4.0,299.06858,-3.7511400000000004,0.0,0.0,0.0,0.0,0.0,0.020382125598913586,-0.07760773217353684,0.04187260597875446,0.036875379088816565,0.001125848429287589,-0.040439004008518964,0.1973774819121408
2046,4.0,299.11091,-102.25992,0.0,0.0,0.0,0.0,0.0,0.020392092408497403,-0.03476265839805726,0.06556930266918634,0.00027781878926857973,0.0014222539744155388,-0.01217612310018979,0.2210817688590718
2047,4.0,301.10652000000005,26.201231,0.0,0.0,0.0,0.0,0.0,0.02040205921808122,-0.05310301007160905,0.06285077291588835,-0.017712282519566185,-0.006399691988575424,0.022353389489607776,0.22633506532753178
2048,4.0,300.33445,160.05562,0.0,0.0,0.0,0.0,0.0,0.020412026027665064,-0.03517830878782876,0.04623118133066236,-0.059705784434002145,-0.01571478863017888,-0.0031447465177623173,0.24994330629748376
2049,4.0,300.04663999999997,474.81697,0.0,0.0,0.0,0.0,0.0,0.02042199283724888,-0.0951804445580785,0.0064340200913633435,-0.055586078740168854,0.005361675320356155,-0.0073602959438546535,0.23683167775096678
2050,4.0,300.81487000000004,664.94562,0.0,0.0,0.0,0.0,0.0,0.02043195964683267,-0.13846534791046586,0.007586690466698054,-0.07124821180240103,0.017548198824872383,-0.004441561143047956,0.27944391070646674
2051,4.0,299.53783,381.84972999999997,0.0,0.0,0.0,0.0,0.0,0.020441926456416515,-0.12211509846682188,0.026872658201374876,-0.02083034388004488,0.04336051815434996,0.013333091581123687,0.25714446462568274
2052,4.0,300.06615,302.34106,0.0,0.0,0.0,0.0,0.0,0.02045189326600033,-0.09815064334471431,0.04256128978022226,-0.03631478023248976,0.009091360380397411,-0.013548704109652988,0.26438831118059475
2053,4.0,299.87094,330.35787,0.0,0.0,0.0,0.0,0.0,0.02046186007558415,-0.07701156925195013,0.02184813435374298,-0.045257110572279054,-0.024216014724434576,-0.02069939751662148,0.24067610061788178
2054,4.0,299.87733,24.179423999999997,0.0,0.0,0.0,0.0,0.0,0.020471826885167993,-0.027348361898073176,0.04126735116402046,-0.021268931212330082,-0.013910935954152485,-0.014683808679929087,0.23910620131044477
2055,4.0,300.58957000000004,-80.93436,0.0,0.0,0.0,0.0,0.0,0.020481793694751782,-0.02904596820836387,0.06494000646932964,-0.01129201476518509,-0.02077677132075768,0.031785994062533365,0.2187701502134328
2056,4.0,300.53013,-20.56147,0.0,0.0,0.0,0.0,0.0,0.0204917605043356,-0.07202026278234652,0.07080286102569834,0.007467574912767264,-0.015274832397008588,0.0016746472789248184,0.23653557567424377
2057,4.0,300.44272,61.507118000000006,0.0,0.0,0.0,0.0,0.0,0.020501727313919443,-0.07099022819444004,0.047665224064691356,0.004628376394460186,-0.030811265704835174,-0.003525971532736296,0.2210613316045548
2058,4.0,301.10414,181.38363999999999,0.0,0.0,0.0,0.0,0.0,0.02051169412350326,-0.07086856624168293,0.038699882815131065,-0.022967414997207378,0.008673166935524931,0.002017573466618998,0.2227486362010788
2059,4.0,301.11619,335.71495,0.0,0.0,0.0,0.0,0.0,0.020521660933087105,-0.08594757792436551,0.03574433157194087,-0.051845716658523854,0.01132385007007699,0.022283101343420878,0.2640343829206647
2060,4.0,300.60774,433.63535,0.0,0.0,0.0,0.0,0.0,0.020531627742670894,-0.08226979923514702,0.014431352351263587,-0.06397587062817683,0.043122556368364956,0.001167442244567579,0.2442471587403178
2061,4.0,300.75138,324.39173999999997,0.0,0.0,0.0,0.0,0.0,0.02054159455225471,-0.0884878567200715,0.03235316283250857,-0.042472293997439056,0.01047339886364399,0.006008262734494364,0.2541063659233458
2062,4.0,299.88171,344.89713,0.0,0.0,0.0,0.0,0.0,0.020551561361838555,-0.0958827515071408,0.0025665399078227675,-0.011523903130070689,0.016788044414350986,-0.01103813785987939,0.26171412125167276
2063,4.0,300.1992,226.85341,0.0,0.0,0.0,0.0,0.0,0.020561528171422372,-0.08737899026113492,0.05366689793776046,-0.03524567877372767,-0.004127121975290225,4.754437271201426e-05,0.25907774581648274
2064,4.0,300.08247,-40.030116,0.0,0.0,0.0,0.0,0.0,0.02057149498100619,-0.04759638182639716,0.07081355790700403,-0.01104902016595339,-0.026215738777291973,-0.03728682955692356,0.21675887916243577
2065,4.0,300.86214,-0.81387402,0.0,0.0,0.0,0.0,0.0,0.020581461790590005,-0.05091335532725695,0.04898885496182355,0.002171897738999618,-0.047198976017926254,-0.005529348048229165,0.21089870667908178
2066,4.0,299.93667,131.58966999999998,0.0,0.0,0.0,0.0,0.0,0.020591428600173822,-0.05763228260161344,0.03998714006017346,-0.022354830331249978,-0.026382522783502272,-0.023987706172152273,0.2192116030170008
2067,4.0,300.10334,109.33434,0.0,0.0,0.0,0.0,0.0,0.02060139540975764,-0.06633768365726965,0.05813226073095744,-0.025029486355217977,0.008882544226913862,0.029326884705838174,0.24430425538345277
2068,4.0,299.72532,316.76914,0.0,0.0,0.0,0.0,0.0,0.020611362219341484,-0.1070432058793419,0.04207599972432786,-0.03132270267956007,0.051833162489784854,0.003287990900299437,0.2701179871835697
2069,4.0,298.65591,497.09392,0.0,0.0,0.0,0.0,0.0,0.0206213290289253,-0.1158441949229319,0.035534907975022366,-0.07079485432340814,0.017300744911950584,0.00976043414472985,0.2732684451894957
2070,4.0,298.45489,190.94995,0.0,0.0,0.0,0.0,0.0,0.02063129583850909,-0.08604802748627911,0.04462154640730376,-0.016617536714023183,0.021483955042551277,-0.01777902226390288,0.26858746277501877
2071,4.0,299.33856000000003,349.72806,0.0,0.0,0.0,0.0,0.0,0.020641262648092934,-0.08971628567755802,0.037222337201308665,-0.05381464804084225,-0.012259215687890387,-0.0039330263192594766,0.27380446462489677
2072,4.0,299.14606000000003,638.51847,0.0,0.0,0.0,0.0,0.0,0.02065122945767675,-0.13209871249712787,0.020479286157648182,-0.08247424980057473,-0.0036763816199806166,-0.02063394358666168,0.2327866110992498
2073,4.0,299.61867,296.77892,0.0,0.0,0.0,0.0,0.0,0.020661196267260568,-0.09426560333429072,0.015698511780572487,-0.01164628955664929,-0.02228698107805378,0.004206476886021947,0.22500402959866878
2074,4.0,299.7687,-303.13542,0.0,0.0,0.0,0.0,0.0,0.020671163076844384,-0.025663860964575874,0.06987988239035743,0.04792957898928116,-0.003504648697631897,-0.008235123921193452,0.1984424584297458
2075,4.0,299.56101,-245.7746,0.0,0.0,0.0,0.0,0.0,0.0206811298864282,-0.011449299551707887,0.05497578908568795,0.031182850861007767,-0.030629648730410967,0.013394884638472186,0.2350927987243528
2076,4.0,299.53199,-52.225058000000004,0.0,0.0,0.0,0.0,0.0,0.020691096696012018,-0.03499204099544557,0.06637333080903773,-0.015506175633340386,-0.004350729047108526,-0.013511534042984589,0.20327499266167978
2077,4.0,300.32856,154.79074,0.0,0.0,0.0,0.0,0.0,0.020701063505595835,-0.06003318479306404,0.03255502555718087,-0.01957436262583918,0.01183135664766399,0.0017074316951853883,0.2206306091195458
2078,4.0,300.18896,218.93849,0.0,0.0,0.0,0.0,0.0,0.02071103031517968,-0.06441967315872674,0.030777046222457968,-0.03290920814288597,0.006523262904520924,-0.0035571255282609566,0.2107598812828808
2079,4.0,299.92739,205.21999,0.0,0.0,0.0,0.0,0.0,0.020720997124763496,-0.09299442535508522,0.06342595649415454,-0.03281328274266886,0.012389563220504688,0.027865657484876273,0.27683892575937474
2080,4.0,299.78712,349.24221,0.0,0.0,0.0,0.0,0.0,0.020730963934347313,-0.0998562381187934,0.03698937175156676,-0.04329404388153946,0.01178788619187379,-0.0038196491046200167,0.25730749656677276
2081,4.0,299.96357,763.75623,0.0,0.0,0.0,0.0,0.0,0.02074093074393113,-0.15437364805799283,0.015172555945164685,-0.09296172878760832,0.006273739833569915,0.031163910176888472,0.28117344756715873
2082,4.0,298.8833,508.03553,0.0,0.0,0.0,0.0,0.0,0.020750897553514946,-0.1092784558649439,0.03044520478820777,-0.07559686844908002,0.00992947242976263,-0.017456460174068482,0.26097096309832873
2083,4.0,298.42793,-222.97332999999998,0.0,0.0,0.0,0.0,0.0,0.020760864363098763,-0.00994157023065659,0.06853655999078183,0.009183335321124631,0.0028104316386930073,0.0033226903592490065,0.2393926977762198
2084,4.0,298.97295,-178.22697,0.0,0.0,0.0,0.0,0.0,0.020770831172682608,-0.041485794713329166,0.07293496924387102,0.02272737300876708,-0.021661049881779183,-0.004065700274103376,0.2012680988511148
2085,4.0,299.41399,115.31596,0.0,0.0,0.0,0.0,0.0,0.020780797982266425,-0.07829288175865583,0.054254012535954146,-0.01101430419102719,-0.011329837364917888,-0.0029361067711211773,0.21531401491733881
2086,4.0,299.95031,-130.32783,0.0,0.0,0.0,0.0,0.0,0.020790764791850214,-0.04304210735017526,0.06746841605336423,0.015190098344145987,-0.001105361626840699,-0.005461638319571735,0.22423513489278477
2087,4.0,299.66447,-257.88937000000004,0.0,0.0,0.0,0.0,0.0,0.020800731601434058,-0.02350660793192158,0.097411889789555,0.0044866454022724255,-0.011817719314568091,0.02151662425227548,0.2678902757787118
2088,4.0,298.64162000000005,94.713297,0.0,0.0,0.0,0.0,0.0,0.020810698411017875,-0.06591788603483884,0.05887514834652474,-0.021747739507334777,-0.007969993049677073,-0.022850430206911878,0.26461548185301476
2089,4.0,299.93936,642.74308,0.0,0.0,0.0,0.0,0.0,0.02082066522060172,-0.10936093442308388,0.007760125041264713,-0.0937770384540731,-0.007062863165775323,-0.014093618867681885,0.25736080365453373
2090,4.0,300.63759,869.3022199999999,0.0,0.0,0.0,0.0,0.0,0.02083063203018551,-0.13800835185036386,-0.016169149226770783,-0.1100686693529319,0.02762937364105687,-0.01858765461220868,0.24987735384847476
2091,4.0,300.22533,504.89659000000006,0.0,0.0,0.0,0.0,0.0,0.020840598839769325,-0.1036269622396849,0.012147012424816788,-0.06199600729052954,0.03553857391388417,0.003964746721590036,0.2408889439338878
2092,4.0,299.13299,-221.99200000000002,0.0,0.0,0.0,0.0,0.0,0.02085056564935317,-0.006156330288832494,0.06428886662381714,0.00934748893007533,0.029925431804910172,0.007578825518096842,0.2406085472337148
2093,4.0,299.52846,-273.95456,0.0,0.0,0.0,0.0,0.0,0.020860532458936987,-0.006882049090730363,0.05471069955477565,0.035446695434566466,-0.014276162965947588,0.025569645930527577,0.2252940015122868
2094,4.0,299.40356,198.94885,0.0,0.0,0.0,0.0,0.0,0.020870499268520804,-0.05874784461721085,0.03362022397655776,-0.03534786099331227,-0.011279098866160388,0.01182575337461099,0.23765304867952977
2095,4.0,298.9301,168.55726,0.0,0.0,0.0,0.0,0.0,0.020880466078104593,-0.06512324160416354,0.04199316754190296,-0.02810712511620727,-0.04560865668122396,0.026434403215122474,0.25391246025170877
2096,4.0,299.43424,-31.855264000000002,0.0,0.0,0.0,0.0,0.0,0.020890432887688437,-0.04378981803621856,0.047782757023290955,0.005690266248285555,-0.02140744250100008,0.0026971220078352174,0.2267791829788628
2097,4.0,300.07965,275.56372999999996,0.0,0.0,0.0,0.0,0.0,0.020900399697272254,-0.0953978474995345,0.05396546322547655,-0.04233211084610406,-0.026347370097782975,-0.01880056581597138,0.24553478683489677
2098,4.0,300.81925,747.86452,0.0,0.0,0.0,0.0,0.0,0.0209103665068561,-0.14694429567477285,0.012200297221075589,-0.09258813840948782,0.010601435172780189,-0.012590647769100188,0.27989549601103475
2099,4.0,301.05672000000004,769.72766,0.0,0.0,0.0,0.0,0.0,0.020920333316439915,-0.15372436752641386,0.018764692709430982,-0.0990183096703463,0.01880227820864038,-0.008301984444942071,0.29481806593127774
2100,4.0,300.96704,472.82357,0.0,0.0,0.0,0.0,0.0,0.020930300126023704,-0.1009688343513481,0.01942306412090718,-0.06218079067151623,0.049806272188496356,-0.0059357003484580145,0.2728798637761457
2101,4.0,299.37092,22.778048000000002,0.0,0.0,0.0,0.0,0.0,0.02094026693560755,-0.07485272946963922,0.06537802232855844,0.0025507490129643273,0.013499742851570887,0.0007139513914640165,0.25497518735409175
2102,4.0,299.34231,-134.84052,0.0,0.0,0.0,0.0,0.0,0.020950233745191366,-0.03935438158472506,0.06814399447803864,0.012198538218901987,0.014125015435280486,-0.008617641539320002,0.2134476487631428
2103,4.0,299.24343,51.319313,0.0,0.0,0.0,0.0,0.0,0.020960200554775182,-0.06689094962262274,0.04222582800336476,0.00906533170785358,0.012868858888807488,0.026473610927741975,0.2186093474225628
2104,4.0,299.01952,148.26008000000002,0.0,0.0,0.0,0.0,0.0,0.020970167364359027,-0.039533123968615566,0.013514993278825986,-0.01904923258926288,-0.03595040840377907,0.017245555205503783,0.2143666362063398
2105,4.0,298.39878999999996,-163.1878,0.0,0.0,0.0,0.0,0.0,0.020980134173942816,-0.025554484669281275,0.06459864251063964,0.010560857546025489,-0.026554645604489478,-0.0027143632688867974,0.2265217059959518
2106,4.0,299.17753,-112.47997,0.0,0.0,0.0,0.0,0.0,0.020990100983526633,-0.03241201543806687,0.05667630342376565,0.0099268163972755,-0.05237269992953304,-0.005912225978091275,0.21746685727230777
2107,4.0,299.44372000000004,536.8614299999999,0.0,0.0,0.0,0.0,0.0,0.021000067793110477,-0.11290555685041088,0.017533646526936182,-0.06782055896661804,-0.005337360864331505,0.00046077738788518756,0.2550748101039238
2108,4.0,300.51678,691.45318,0.0,0.0,0.0,0.0,0.0,0.021010034602694294,-0.12411897279208889,-0.008769807082362571,-0.07729572612324423,-0.004106738220378507,0.001065667756823219,0.2515493482359878
2109,4.0,300.68753,334.88971000000004,0.0,0.0,0.0,0.0,0.0,0.02102000141227814,-0.08411764621726532,0.017429546224912284,-0.035110010664838265,0.014558992479610686,-0.01027642811045449,0.23594613769357078
2110,4.0,300.58328,78.451629,0.0,0.0,0.0,0.0,0.0,0.021029968221861928,-0.07019181447339273,0.06385571335181824,-0.017511235461224385,0.024757146006590076,-0.0002353492827221658,0.2600179000542687
2111,4.0,300.16321,225.29252999999997,0.0,0.0,0.0,0.0,0.0,0.021039935031445745,-0.07749773576918102,0.044639468775072556,-0.03562503657141737,0.025585256061568175,-0.01035872023057609,0.25443112271289675
2112,4.0,300.44274,313.46245,0.0,0.0,0.0,0.0,0.0,0.02104990184102959,-0.09291026480177922,0.024676963473176678,-0.027051457327270975,0.035526213275914265,0.007561824295993952,0.25306924365098976
2113,4.0,299.80787999999995,194.52391,0.0,0.0,0.0,0.0,0.0,0.021059868650613406,-0.07952245163575493,0.03487603297824647,-0.014483991707208684,0.006371306698949014,-0.021672393216648683,0.2215448646847758
2114,4.0,299.79675,-185.54079,0.0,0.0,0.0,0.0,0.0,0.021069835460197223,-0.05140895925591925,0.06906572681575653,0.03874299964663636,0.01050962762096949,0.012264175547129887,0.23443841141226981
2115,4.0,299.95673999999997,-310.07395,0.0,0.0,0.0,0.0,0.0,0.02107980226978104,-0.023572082126883376,0.08047503946551803,0.037351780914833765,0.0050425507828110155,0.002033932794783538,0.24908261113253977
2116,4.0,299.97681,349.92156,0.0,0.0,0.0,0.0,0.0,0.021089769079364856,-0.06802945263373424,0.017374820587011286,-0.05571278465192374,-0.02532452654583618,0.008839354542726371,0.26850209645409373
2117,4.0,299.21332,769.04152,0.0,0.0,0.0,0.0,0.0,0.021099735888948673,-0.12024391937465087,0.005611582413095064,-0.1191370854954149,-0.03859557581008676,-0.013684201992525588,0.27651845501774674
2118,4.0,298.89027000000004,348.95293,0.0,0.0,0.0,0.0,0.0,0.021109702698532518,-0.07018754970372185,0.03380850611013977,-0.06969393377175573,-0.03661103429672776,0.017768039646068982,0.25916536155262976
2119,4.0,299.31031,-41.93845,0.0,0.0,0.0,0.0,0.0,0.021119669508116334,-0.04363025039722046,0.06522506006696224,-0.008846567768863263,-0.008024970074927883,0.027665534510625676,0.2548308600098478
2120,4.0,300.81423,363.96245,0.0,0.0,0.0,0.0,0.0,0.021129636317700123,-0.10872756191807488,0.04047873861119046,-0.04238667031098866,-0.03325639524990067,-0.006340145914648683,0.24321836538378377
2121,4.0,300.59873,574.48637,0.0,0.0,0.0,0.0,0.0,0.021139603127283968,-0.13416198354325687,0.012243341098573689,-0.052710871137157944,0.028431914329761474,-0.024117689947980678,0.24723783733797478
2122,4.0,300.26951,151.90498,0.0,0.0,0.0,0.0,0.0,0.021149569936867785,-0.05867192786671844,0.023964337585095977,-0.011467728544526688,0.023556298730075677,-0.0013537319231529386,0.23751928953382878
2123,4.0,300.53263,-412.96403,0.0,0.0,0.0,0.0,0.0,0.0211595367464516,-0.010401162237514791,0.0988975748414307,0.03703433979100476,0.05568520905045225,-0.022960074000232877,0.2341091659247758
2124,4.0,300.18028,-395.83584,0.0,0.0,0.0,0.0,0.0,0.021169503556035446,0.00982303962600853,0.07572612673783682,0.03477504335402957,-0.025944046908728077,-0.015924440208369885,0.2246846835646518
2125,4.0,299.60483,145.22801,0.0,0.0,0.0,0.0,0.0,0.021179470365619235,-0.07288103191454784,0.027241656530042173,0.0014936882077905484,-0.006569041645363933,-0.020714854646896978,0.2124812310827648
2126,4.0,300.32209,625.64108,0.0,0.0,0.0,0.0,0.0,0.021189437175203052,-0.13524097330974488,0.025557720990100678,-0.08049600867633752,-0.012764262094234587,0.02538360814591708,0.2511861386051418
2127,4.0,299.34711,377.09468,0.0,0.0,0.0,0.0,0.0,0.021199403984786896,-0.10639038910491391,0.036980159281657564,-0.045217138869084156,-0.004604752873678725,0.02242592401126638,0.26170016879779573
2128,4.0,299.11016,20.724829,0.0,0.0,0.0,0.0,0.0,0.021209370794370713,-0.024403115408399977,0.07134448677390264,-0.05324120218649755,-0.015544220134845086,-0.0009207602762344641,0.2900775550734257
2129,4.0,299.34861,324.25985,0.0,0.0,0.0,0.0,0.0,0.021219337603954558,-0.07586871129190884,0.04355350582139636,-0.06625169114778284,-0.026763104587312774,-0.052165937127377146,0.27543342628066275
2130,4.0,299.5995,742.13714,0.0,0.0,0.0,0.0,0.0,0.021229304413538347,-0.13607106832166888,0.009667731082480771,-0.0991878193193256,0.002995959555853187,0.008121134095543532,0.28412754783620575
2131,4.0,299.78002999999995,373.07791000000003,0.0,0.0,0.0,0.0,0.0,0.021239271223122164,-0.11525291282707688,0.04287494438842755,-0.04102839537968736,0.02812407679038027,0.0012870785077247586,0.24030609207886477
2132,4.0,299.75325,-437.40446,0.0,0.0,0.0,0.0,0.0,0.021249238032706008,-0.011435206256066989,0.06983975059364673,0.07455548748655373,0.013265505772953488,0.012749599352037488,0.2022947542499378
2133,4.0,299.64041000000003,-298.27547000000004,0.0,0.0,0.0,0.0,0.0,0.021259204842289825,-0.04252530318967066,0.07603327121414963,0.057160327930285144,0.008547754437522682,-0.025467109073407976,0.2126527945896968
2134,4.0,300.63925,270.21832,0.0,0.0,0.0,0.0,0.0,0.021269171651873642,-0.08440935180180441,0.03849514651317516,-0.036225415626670164,0.021669063676820078,-0.015748955423550884,0.2254923249543598
2135,4.0,300.52389,283.14015,0.0,0.0,0.0,0.0,0.0,0.02127913846145746,-0.08555975138234001,0.03569369338494326,-0.03620147759305767,0.029462917584763573,-0.0017893666446467383,0.25833217612790077
2136,4.0,300.92118,212.22002999999998,0.0,0.0,0.0,0.0,0.0,0.021289105271041275,-0.05023868477467215,0.036744433738643265,-0.051015337936571856,-0.02044994750100268,-0.000929860852935121,0.26519281149499274
2137,4.0,300.20673,200.81578000000002,0.0,0.0,0.0,0.0,0.0,0.021299072080625092,-0.06984165246408444,0.03960293183425506,-0.030804261106893868,-0.036060792882923166,-0.01838644036760038,0.2877298039292207
2138,4.0,299.03406,401.17199999999997,0.0,0.0,0.0,0.0,0.0,0.021309038890208937,-0.08532623573779383,0.014250769905191486,-0.05087080591580765,-0.05525073247382275,0.03365618219610657,0.25119162028818276
2139,4.0,299.91527,720.29396,0.0,0.0,0.0,0.0,0.0,0.021319005699792754,-0.12933348204672088,0.002472031132570478,-0.09208993245456872,-0.01189156396860599,0.027762881500733073,0.2884650485992837
2140,4.0,299.64761,312.08986,0.0,0.0,0.0,0.0,0.0,0.021328972509376543,-0.07165768237981264,0.021270629419497682,-0.04448047058263066,-0.0023069204075753177,0.014369386028147985,0.24256630854693076
2141,4.0,299.81743,-469.64685999999995,0.0,0.0,0.0,0.0,0.0,0.021338939318960387,-0.010393196065228589,0.0961771422044449,0.05697697323193944,0.018314648558265083,-0.01922881090448588,0.23386645199582176
2142,4.0,300.12682,-418.99852000000004,0.0,0.0,0.0,0.0,0.0,0.021348906128544204,-0.017624649558167484,0.09001552781634091,0.054974211455282244,0.016657261184193684,0.0006328201722469885,0.2139336643061088
2143,4.0,300.06894,241.31432999999998,0.0,0.0,0.0,0.0,0.0,0.02135887293812802,-0.1021430878657379,0.030722643811338872,-0.001933089787856108,0.032665584315342173,-0.004708244516367555,0.2236396579415158
2144,4.0,299.79789,504.64382,0.0,0.0,0.0,0.0,0.0,0.021368839747711865,-0.1285476457991649,0.012106487487067288,-0.03695796606471726,0.003058088809584867,0.014368494368059988,0.2270583029839098
2145,4.0,300.27274,219.00814,0.0,0.0,0.0,0.0,0.0,0.021378806557295654,-0.07148586454710552,0.04439339592203705,-0.03948053831492576,0.016851794057642585,0.0004586113226164136,0.25896401862525875
2146,4.0,300.38124,61.736938,0.0,0.0,0.0,0.0,0.0,0.02138877336687947,-0.06126151039904035,0.06154017950779284,-0.019045156284110583,0.004965804281811725,0.016776764914237782,0.2786262888032737
2147,4.0,300.09107,340.22977000000003,0.0,0.0,0.0,0.0,0.0,0.021398740176463316,-0.07445899973253113,0.049048450279705155,-0.07801080407656692,-0.005954807104268704,0.0014704764718497289,0.2985542838200137
2148,4.0,299.1594,646.97916,0.0,0.0,0.0,0.0,0.0,0.021408706986047132,-0.13425519241995587,0.012783788436911686,-0.07519410761383062,-0.035709644981267566,-0.012385783797631687,0.2866233348200207
2149,4.0,298.92962,499.03512,0.0,0.0,0.0,0.0,0.0,0.021418673795630977,-0.11989473312518889,0.015729638823644487,-0.04752912127150905,-0.02828481169349357,-0.01805643595578148,0.2768431104822877
2150,4.0,298.7271,-140.56275,0.0,0.0,0.0,0.0,0.0,0.021428640605214766,-0.05578200280600504,0.07520149826006003,0.023308070694077476,-0.016763093130638486,0.019256874892505584,0.23781345630286074
2151,4.0,298.7468,-294.36017999999996,0.0,0.0,0.0,0.0,0.0,0.021438607414798583,-0.026886900444780475,0.07966795941636542,0.03669708658797047,0.0027281330337707676,0.013917351853785686,0.23444027579245375
2152,4.0,299.98382000000004,421.95992,0.0,0.0,0.0,0.0,0.0,0.021448574224382427,-0.07294446441055814,-0.0028425732490901376,-0.05247824107319916,0.014081859087021288,0.005771266271879635,0.2166728136989418
2153,4.0,299.47586,581.75142,0.0,0.0,0.0,0.0,0.0,0.021458541033966244,-0.1093629913207869,-0.0024777121219061475,-0.06499719937122414,0.02082783304629708,-0.00923179714823244,0.2346306148237388
2154,4.0,299.60064,64.838175,0.0,0.0,0.0,0.0,0.0,0.02146850784355006,-0.04437819818378716,0.051238531602349355,-0.026569520115957476,0.03098787519726517,0.00976667536004581,0.2271261198131028
2155,4.0,301.0706,-96.964845,0.0,0.0,0.0,0.0,0.0,0.021478474653133878,-0.06999390038436014,0.06324210125025943,0.03622669130854606,0.0004820354763081975,-0.008796534998800412,0.2796399138058107
2156,4.0,300.67278999999996,193.49848,0.0,0.0,0.0,0.0,0.0,0.021488441462717695,-0.06695135047433384,0.04649992058843486,-0.03836727637705536,-0.016133789838031085,-0.002194937627723478,0.27791935434100473
2157,4.0,299.7578,565.0292,0.0,0.0,0.0,0.0,0.0,0.02149840827230151,-0.12038626074869888,0.019174008259577283,-0.07054251958475463,-0.0014179829225940185,0.007619253791786804,0.29701017172762173
2158,4.0,299.65886,516.42722,0.0,0.0,0.0,0.0,0.0,0.021508375081885356,-0.07935859288258333,0.030983930614625867,-0.10860631641110889,-0.02249564169764698,0.015241937232512085,0.27470130242090773
2159,4.0,299.19067,113.22561999999999,0.0,0.0,0.0,0.0,0.0,0.021518341891469173,-0.05867039785906744,0.057192759026235857,-0.032940121390186865,-0.004857026918651235,-0.007225756899551683,0.2573455542405288
2160,4.0,300.16057,4.0989189,0.0,0.0,0.0,0.0,0.0,0.02152830870105296,-0.06019352351538824,0.04217544008914186,0.016772114096278785,-0.012938936278973589,-0.025520047338132575,0.2237335760932848
2161,4.0,301.23499,350.21796,0.0,0.0,0.0,0.0,0.0,0.021538275510636806,-0.11593489093938289,0.022169166435926375,-0.012691792420582387,0.01011387067438632,-0.011837661089786188,0.22154288884708076
2162,4.0,300.82707,525.3899,0.0,0.0,0.0,0.0,0.0,0.021548242320220623,-0.12990378986550588,0.016477961512748183,-0.046279579221688856,0.003806451319417496,-0.00962210513975284,0.25487129882133874
2163,4.0,301.44072,-63.484699,0.0,0.0,0.0,0.0,0.0,0.02155820912980444,-0.05302135629905044,0.07979136719904482,-0.007472248022228462,0.019196926963589184,-0.0018957678349977183,0.25193853759939777
2164,4.0,300.66103,-558.54084,0.0,0.0,0.0,0.0,0.0,0.021568175939388284,0.04020236350066436,0.0939470010258471,0.03563310406871357,-0.004478539502797436,0.009698722654014402,0.25857594383695875
2165,4.0,300.17478,2.2851156,0.0,0.0,0.0,0.0,0.0,0.021578142748972073,-0.04048126059068936,0.059759007422004844,-0.01997236422536888,-0.00885114786196528,0.014634777507590086,0.2481723173752008
2166,4.0,300.54744,735.1745099999999,0.0,0.0,0.0,0.0,0.0,0.02158810955855589,-0.16037868490814383,0.019691079918108284,-0.08278709178219983,-0.003277750082863747,0.015891633196632084,0.2910719789865677
2167,4.0,299.9643,619.25171,0.0,0.0,0.0,0.0,0.0,0.021598076368139735,-0.14858085670628884,0.008623098701708581,-0.04827929618179555,-0.01156254747563459,-0.014348669116603385,0.26053857888315574
2168,4.0,298.51714,11.358613,0.0,0.0,0.0,0.0,0.0,0.02160804317772355,-0.05863344969417095,0.07402622541606964,-0.018845510550657082,0.009819063024666069,-0.016253694815114787,0.26232270965923576
2169,4.0,299.40455,-57.531608999999996,0.0,0.0,0.0,0.0,0.0,0.02161800998730737,-0.025865626417238576,0.06171808292060054,-0.01836428362766368,-0.0017211117874355083,-0.008084218253325223,0.23796832144814478
2170,4.0,299.81437,283.00079,0.0,0.0,0.0,0.0,0.0,0.021627976796891185,-0.04400185683164516,0.03577762190397637,-0.07780093870260484,0.02108462811189078,0.008127339948431001,0.23778036355459475
2171,4.0,299.73286,475.52387999999996,0.0,0.0,0.0,0.0,0.0,0.021637943606475002,-0.09783169247823631,0.01979557336117098,-0.06651126758490103,-0.02281270893218908,-0.0025871436393311974,0.24568736203495475
2172,4.0,300.07414,-10.552958,0.0,0.0,0.0,0.0,0.0,0.021647910416058846,-0.07809079510571143,0.060214443076952846,0.02108418734809728,0.006623661601279504,-0.008981844357914022,0.22543524857622677
2173,4.0,300.46047000000004,-596.57342,0.0,0.0,0.0,0.0,0.0,0.021657877225642663,-0.01095764729843559,0.11961647438272688,0.07268459615741113,-0.00992577811989803,0.017849963956404286,0.23485998424887577
2174,4.0,301.09967,39.303515999999995,0.0,0.0,0.0,0.0,0.0,0.02166784403522648,-0.09230219112526701,0.06264464440829504,0.017710259059116485,0.007434528064730793,0.0014640613828166085,0.2526792436874998
2175,4.0,300.92064,1063.5044,0.0,0.0,0.0,0.0,0.0,0.021677810844810297,-0.14740760428299787,-0.03149871030143067,-0.14437247440345385,0.013670866607959487,-0.006981638200659044,0.27085871353667373
2176,4.0,300.0756,796.2604,0.0,0.0,0.0,0.0,0.0,0.021687777654394114,-0.14560295519239286,0.015071269438668485,-0.11151158815783689,-0.007814901037695682,-0.01122244501331909,0.28488233810069774
2177,4.0,298.67248,4.4564294,0.0,0.0,0.0,0.0,0.0,0.02169774446397793,-0.02288694368751548,0.040455022479349866,-0.018922722234777284,0.012774302389475488,0.015481855604440185,0.2593742025307407
2178,4.0,299.53415,-60.871749,0.0,0.0,0.0,0.0,0.0,0.021707711273561747,-0.07700329403838342,0.07590437566892863,0.019602409388607182,-0.008566905067062702,0.006274425601237594,0.27233370170724375
2179,4.0,299.73543,303.94753,0.0,0.0,0.0,0.0,0.0,0.021717678083145592,-0.1267286794846469,0.05546554757452334,-0.02112933067980258,-0.039988433980551165,0.008011700348968262,0.24609041265973278
2180,4.0,299.37577999999996,314.85785,0.0,0.0,0.0,0.0,0.0,0.02172764489272938,-0.10312747047038891,0.036524279823165764,-0.029105736792012574,-0.017673570286245586,-0.016602294392768883,0.25881413867046676
2181,4.0,299.0676,-261.57716,0.0,0.0,0.0,0.0,0.0,0.021737611702313225,-0.023776533705561178,0.09799197243205471,0.005297486027846165,-0.014802908123183287,0.005288355631195066,0.2321399954154338
2182,4.0,299.73787000000004,-457.40232000000003,0.0,0.0,0.0,0.0,0.0,0.021747578511897042,0.011992605268577988,0.1042161570403339,0.022830125688157978,0.017075037372674986,0.016022998032346785,0.26317624114597277
2183,4.0,300.79716,101.17617,0.0,0.0,0.0,0.0,0.0,0.02175754532148086,-0.06551195777977684,0.03518931876341536,-0.0004323914092487096,0.0017214768614465384,-0.00029998800231401075,0.2280622311829898
2184,4.0,300.22438,757.36056,0.0,0.0,0.0,0.0,0.0,0.021767512131064676,-0.17218690905602482,0.016659509586165584,-0.07469130352995772,0.01174946678783209,-0.01046609231717289,0.26388243593566874
2185,4.0,300.13104,721.26647,0.0,0.0,0.0,0.0,0.0,0.021777478940648493,-0.16940738164670682,0.0035847255490598666,-0.05342434511557235,0.017783504882345286,-0.0006840001440730584,0.2596478104552437
2186,4.0,300.15092999999996,-40.015638,0.0,0.0,0.0,0.0,0.0,0.02178744575023231,-0.030322037145802075,0.050852286743729956,-0.008366494329783702,0.035273197633193566,-0.012698054306200387,0.2655517958729217
2187,4.0,299.39421,-275.86957,0.0,0.0,0.0,0.0,0.0,0.021797412559816126,0.003056776752030377,0.06931605025296153,0.011484634622445188,0.00017372221600504782,-0.014484132548972586,0.26642086048369173
2188,4.0,298.85679,413.66049,0.0,0.0,0.0,0.0,0.0,0.02180737936939997,-0.08540989169255,0.01999980607782718,-0.06033237424284174,-0.011024651501048388,-0.02074467358408988,0.25271112053564576
2189,4.0,299.09722,536.66762,0.0,0.0,0.0,0.0,0.0,0.021817346178983787,-0.12302150134377689,0.016476287623582987,-0.05658834115608444,-0.02842679640350637,0.015521532451855984,0.25819448557181174
2190,4.0,298.89326,-12.945126,0.0,0.0,0.0,0.0,0.0,0.021827312988567604,-0.08552107967902342,0.05464660641970015,0.03480946751292697,-0.00980107439034073,0.017212713743262584,0.23733820147595677
2191,4.0,298.89114,-246.91111,0.0,0.0,0.0,0.0,0.0,0.02183727979815142,-0.05361961867484435,0.0943066794800946,0.034367750251082865,0.007179750076111164,0.029570974628427973,0.23400026180402775
2192,4.0,299.33246,163.41276000000002,0.0,0.0,0.0,0.0,0.0,0.021847246607735238,-0.06755551503196022,0.05605382842358214,-0.038171711001754566,0.009362852436041591,-0.0058208869531268135,0.24384414864554377
2193,4.0,299.7355,653.4754,0.0,0.0,0.0,0.0,0.0,0.021857213417319055,-0.09349729732671481,-0.006546989675487573,-0.09859591812765951,0.04092940388466766,-0.003781242264879557,0.23956036027026675
2194,4.0,300.26024,590.90721,0.0,0.0,0.0,0.0,0.0,0.0218671802269029,-0.0936046288833076,0.027755857651039873,-0.1137722605884479,0.017160870801896082,-0.02030960020315148,0.2914182369432407
2195,4.0,300.05636,-31.328534,0.0,0.0,0.0,0.0,0.0,0.021877147036486716,-0.05887345115260724,0.051090994281788545,0.017305548730674684,-0.0023760791852007576,-0.01933992087070158,0.2595181651049488
2196,4.0,300.25716,-190.96836000000002,0.0,0.0,0.0,0.0,0.0,0.021887113846070505,-0.05626227930040465,0.07038096293581024,0.04393093033789526,-0.01077775183593129,-0.004353430067900095,0.30354775256533073
2197,4.0,300.20434,451.93329000000006,0.0,0.0,0.0,0.0,0.0,0.02189708065565435,-0.0971339107041206,0.017604241687903383,-0.057846766369531344,-0.03214266012423357,-0.0010661861355743792,0.24482212750956275
2198,4.0,300.14125,886.48326,0.0,0.0,0.0,0.0,0.0,0.021907047465238166,-0.15070935066135488,-0.012486770382098288,-0.10627264944329391,0.008062174896074711,-0.008415085244954252,0.31142036133729667
2199,4.0,300.22958,223.18649,0.0,0.0,0.0,0.0,0.0,0.02191701427482201,-0.03148565457389217,0.022305384739620078,-0.058662851172322644,-0.005980397951444324,-0.01088176398519649,0.22620067796676877
2200,4.0,299.46277000000003,-291.06607,0.0,0.0,0.0,0.0,0.0,0.0219269810844058,-0.03891017983363576,0.0965374397545035,0.03084955743936427,0.02254303241807408,-0.022469572799074182,0.2434398821206458
2201,4.0,299.59013999999996,118.03826000000001,0.0,0.0,0.0,0.0,0.0,0.021936947893989617,-0.07267439171565403,0.04664234707549125,-0.0098486370593098,-0.0009206858834121222,-0.020207592262584083,0.22514719170529776
2202,4.0,299.29331,520.3994799999999,0.0,0.0,0.0,0.0,0.0,0.02194691470357346,-0.16759387675022783,0.050226439647213655,-0.04082100638896966,-0.0019778641951999983,0.015347778298207784,0.26679551984066774
2203,4.0,299.35247000000004,189.74358,0.0,0.0,0.0,0.0,0.0,0.021956881513157278,-0.06821549345809504,0.04896042823026805,-0.03842224418173026,-0.0061926271365647136,0.014679792156532685,0.2381073596268668
2204,4.0,298.57538999999997,-250.69535,0.0,0.0,0.0,0.0,0.0,0.021966848322741095,-0.025296016727772475,0.09661366655952651,0.004887477414631466,-0.0026269262700574377,0.018523513854378483,0.2589104784899747
2205,4.0,299.78595,-210.34239,0.0,0.0,0.0,0.0,0.0,0.021976815132324884,0.013247098058386789,0.07262641736316934,-0.02193468212428458,-0.01894886408735728,0.006685994416956274,0.25957376213793576
2206,4.0,300.84531,306.60676,0.0,0.0,0.0,0.0,0.0,0.02198678194190873,-0.08847919748471691,0.043896327846980256,-0.04861792943146605,0.016483531348547884,-0.005783754072737084,0.2724824062919197
2207,4.0,300.00619,772.4313400000001,0.0,0.0,0.0,0.0,0.0,0.021996748751492545,-0.15737284808899085,0.00936154888978794,-0.08678853903036192,-0.0023563586024794875,-0.005299048256850345,0.2840531854113667
2208,4.0,299.54593,464.4525,0.0,0.0,0.0,0.0,0.0,0.02200671556107639,-0.11778539972951388,0.03023525632773747,-0.05363182428554895,0.027408626974270874,-0.004321114178485766,0.2604804791224218
2209,4.0,300.70417000000003,-178.86206,0.0,0.0,0.0,0.0,0.0,0.022016682370660207,-0.03085328721298237,0.07125309769438322,0.013969788559710787,0.010301237539152991,0.008319430990463911,0.24362374648379176
2210,4.0,300.77751,-39.663267,0.0,0.0,0.0,0.0,0.0,0.022026649180243996,-0.03276189779034757,0.07607247284726852,-0.03125393238202297,-0.006658367849004743,0.02209265896062568,0.24866946853676575
2211,4.0,300.14155,410.38246000000004,0.0,0.0,0.0,0.0,0.0,0.02203661598982784,-0.07780017065902903,0.02116098967917708,-0.06810683859687164,-0.004341164371464566,0.005829347895436845,0.24704338451128377
2212,4.0,299.67952,90.055089,0.0,0.0,0.0,0.0,0.0,0.022046582799411657,-0.09535002614781492,0.07998709165461133,-0.01201156419119909,-0.008847050278560883,0.0016035861242366285,0.2285916644927408
2213,4.0,299.18672999999995,-367.03443,0.0,0.0,0.0,0.0,0.0,0.022056549608995474,-0.03513598938415217,0.0996755492814608,0.04702974197297416,-0.019039983642350083,-0.003124707571859627,0.24768466036707276
2214,4.0,299.20987,-244.41885,0.0,0.0,0.0,0.0,0.0,0.02206651641857932,-0.06614137252989524,0.09952583549968522,0.04091276429152546,-0.0011078488518611689,0.0038867645620937964,0.25534442582303274
2215,4.0,299.31391,514.3722700000001,0.0,0.0,0.0,0.0,0.0,0.022076483228163107,-0.1069132869515199,0.03501726585668507,-0.08446030510958312,-0.002620356457734047,0.02962749169250577,0.26769613705955175
2216,4.0,299.20665,898.82064,0.0,0.0,0.0,0.0,0.0,0.022086450037746924,-0.14661344925212086,-0.002519655812445668,-0.12408592057382689,0.010313166532580291,0.007210786129324183,0.26432043355639573
2217,4.0,299.37907,483.85265,0.0,0.0,0.0,0.0,0.0,0.02209641684733077,-0.06681648688602385,0.011566839603058187,-0.09182947752961382,-0.0004906941543752425,0.003534978312875197,0.26328180154139075
2218,4.0,300.19175,-224.56998,0.0,0.0,0.0,0.0,0.0,0.022106383656914586,-0.038001173917173864,0.07848592211470742,0.027778919223315872,0.005518136030572625,-0.029439285552681268,0.2774665024738117
2219,4.0,300.49952,-168.90094,0.0,0.0,0.0,0.0,0.0,0.02211635046649843,-0.05588572820549195,0.0964140623693271,0.010813332113192789,-0.001978172223230398,-0.017213126136053285,0.27288797990944674
2220,4.0,299.84762,319.19773,0.0,0.0,0.0,0.0,0.0,0.02212631727608222,-0.11913291090500287,0.04200435584950716,-0.01989958348393598,-0.013703609784940987,0.002606107526877788,0.26966154841102274
2221,4.0,300.19286,254.39022999999997,0.0,0.0,0.0,0.0,0.0,0.022136284085666036,-0.08865761157557502,0.057398006006242154,-0.046068673239874056,-0.002251267139207768,0.005536607782545645,0.2479113041494408
2222,4.0,300.69112,-300.42548999999997,0.0,0.0,0.0,0.0,0.0,0.02214625089524988,-0.005595468190129714,0.08808335917415072,0.008833957770043751,-0.01133099145678179,0.00970879881830884,0.23848622397175778
2223,4.0,299.77804,-209.30026999999998,0.0,0.0,0.0,0.0,0.0,0.022156217704833697,-0.017029472528928086,0.07181542008913012,0.008836109609281122,0.0014488494590653087,0.004196645826926696,0.23113866113660977
2224,4.0,299.6767,631.29278,0.0,0.0,0.0,0.0,0.0,0.022166184514417514,-0.14042547009641487,0.017035761772298784,-0.06850752834891663,0.01978266354164688,0.0011861236379862887,0.24443936215178677
2225,4.0,299.27901,763.3541700000001,0.0,0.0,0.0,0.0,0.0,0.022176151324001303,-0.17173856615177682,-0.0005189886061301874,-0.05978304880712754,0.013132525816579387,-0.0021535702738408376,0.2639012925200297
2226,4.0,299.43928999999997,286.47482,0.0,0.0,0.0,0.0,0.0,0.022186118133585148,-0.08806906322848981,0.02523430169068168,-0.024246430465936376,0.01066772807382279,-0.003987630772448516,0.26844234509569675
2227,4.0,299.02234,-167.67493000000002,0.0,0.0,0.0,0.0,0.0,0.022196084943168964,-0.020338411969744983,0.07489259782132393,-0.003585193974581096,-2.075132759749658e-05,-0.015418507208188183,0.2777361384579227
2228,4.0,298.58372,105.58448999999999,0.0,0.0,0.0,0.0,0.0,0.02220605175275281,-0.039397744636004664,0.023437455639096775,-0.016134759518376784,-0.011271914922951388,-0.004211240478717076,0.2647802464517757
2229,4.0,299.08378999999996,650.93986,0.0,0.0,0.0,0.0,0.0,0.022216018562336626,-0.1005052906690999,-0.0097259375384503,-0.08763823435222032,-0.0004102233006458876,-0.011831839967961688,0.26585826349816777
2230,4.0,299.78232,494.41462,0.0,0.0,0.0,0.0,0.0,0.022225985371920415,-0.1279205858422789,0.034256095156313365,-0.05662520420797255,-0.0064509726774614334,-0.006183172601206624,0.28020481086906174
2231,4.0,299.68044,-136.11328,0.0,0.0,0.0,0.0,0.0,0.02223595218150426,-0.049778784739783546,0.08216010376607091,0.008993721168961173,0.011118669964577289,0.020780149496591082,0.27056733320541676
2232,4.0,300.49596,-109.3341,0.0,0.0,0.0,0.0,0.0,0.022245918991088076,-0.06667573935438313,0.09335856514952301,0.006552009417807984,0.01002359576467688,0.014768483964285886,0.27001511190091676
2233,4.0,300.3707,549.40297,0.0,0.0,0.0,0.0,0.0,0.022255885800671893,-0.1107549841756659,0.014568522096801184,-0.07081831714272373,-0.0026840098422661477,0.013285118241889087,0.24966562510757878
2234,4.0,300.40332,726.12316,0.0,0.0,0.0,0.0,0.0,0.022265852610255737,-0.13287199457594487,0.006340545337838103,-0.09419186405826321,0.009614408289343221,-0.01754680661923498,0.26888938090731573
2235,4.0,300.54393999999996,257.83212000000003,0.0,0.0,0.0,0.0,0.0,0.022275819419839527,-0.06863910292740204,0.02589917006179908,-0.035634592533110465,-0.026340370566092175,-0.012574063904713488,0.24923946224801977
2236,4.0,299.51887999999997,-128.65829,0.0,0.0,0.0,0.0,0.0,0.022285786229423343,-0.04399234950595686,0.050592197602061156,0.032509058453144266,-0.010111293776732,-0.008211371008374222,0.26437432832921476
2237,4.0,299.20411,107.19587,0.0,0.0,0.0,0.0,0.0,0.022295753039007188,-0.06467840859826193,0.04733507374485805,-0.015241533958972287,-0.013659810022868289,0.004054548342177767,0.28400964605456974
2238,4.0,299.78189,609.79153,0.0,0.0,0.0,0.0,0.0,0.022305719848591005,-0.1057659433332859,0.00964804839531324,-0.08924350824714851,0.0029836545453137773,0.01013296709504599,0.2803743884057977
2239,4.0,299.53825,477.8774,0.0,0.0,0.0,0.0,0.0,0.02231568665817485,-0.07685712663195783,0.013337501245558887,-0.08174317060167283,-0.01021794736768289,0.014985212081175285,0.28480323366539073
2240,4.0,299.23841,-178.58154,0.0,0.0,0.0,0.0,0.0,0.022325653467758638,-0.02214940501922608,0.06717916658706753,0.009254566701829621,0.011617671320824889,0.016512911548447484,0.2413572478651058
2241,4.0,300.17316,-321.75813,0.0,0.0,0.0,0.0,0.0,0.022335620277342455,-0.017914569796030382,0.08250246881585971,0.033218539212914566,0.004633629184303595,0.0018545058591254784,0.26367689815288375
2242,4.0,300.39363,257.47505,0.0,0.0,0.0,0.0,0.0,0.0223455870869263,-0.10965939737253988,0.03946827798871576,-0.008074862205876852,0.013522914868107788,-0.015844114806692382,0.2295008436749698
2243,4.0,300.18903,652.34813,0.0,0.0,0.0,0.0,0.0,0.022355553896510116,-0.15218882752986784,0.027849672451298674,-0.07395838730862453,0.01264199523116779,-0.003374227400410317,0.2833546609249277
2244,4.0,299.75336,136.66284,0.0,0.0,0.0,0.0,0.0,0.022365520706093933,-0.06114352755739635,0.03400337234287157,-0.014401936687610488,-0.0003984735308962756,-0.007771543964591673,0.2371655740564198
2245,4.0,299.62656,-368.50341000000003,0.0,0.0,0.0,0.0,0.0,0.02237548751567775,0.02089862072478328,0.07196800846143943,0.01914920389712928,0.006443808796604414,0.0015751539211305884,0.26006259451617975
2246,4.0,299.21077,84.03765,0.0,0.0,0.0,0.0,0.0,0.022385454325261567,-0.04569723095196555,0.04636243166911576,-0.026210547897029677,-0.014863689956931984,-0.003264900146420557,0.23262221127052476
2247,4.0,300.00268,814.1199799999999,0.0,0.0,0.0,0.0,0.0,0.022395421134845384,-0.14278764992204387,0.004892749962851825,-0.1095772430544319,0.01019795391670969,-0.01037300199073559,0.2713187392145747
2248,4.0,300.20009,601.19205,0.0,0.0,0.0,0.0,0.0,0.022405387944429228,-0.16294090056851485,0.03178321573075917,-0.05158968862325585,0.010287491788296391,0.012708539418235187,0.27133736275141274
2249,4.0,301.36958,42.203585,0.0,0.0,0.0,0.0,0.0,0.022415354754013045,-0.06840424168672303,0.07300705692223552,-0.017431650745369984,0.014136551287668987,0.0017774766613482885,0.3028436146733377
2250,4.0,301.1786,-198.27406000000002,0.0,0.0,0.0,0.0,0.0,0.022425321563596834,-0.019408386179958582,0.08771167674596851,-0.008032926418688113,0.017635322121470783,-0.011486288246608389,0.2987419580035357
2251,4.0,300.41527,335.38755,0.0,0.0,0.0,0.0,0.0,0.02243528837318068,-0.06670625439439473,0.023021499247795077,-0.05826468441302665,-0.015093039117066987,-0.004302791475602456,0.27632161092081975
2252,4.0,299.89543,741.82695,0.0,0.0,0.0,0.0,0.0,0.022445255182764495,-0.14176789475640186,0.003278643465476917,-0.08700761991398351,0.021996203630606278,-0.0064352988129895445,0.25907932648663873
2253,4.0,299.65835,293.30751000000004,0.0,0.0,0.0,0.0,0.0,0.022455221992348312,-0.098919788323373,0.029574150154241374,-0.01981252199559368,0.0027648247450669577,-0.004026468750106526,0.2312631389113948
2254,4.0,299.00257999999997,-335.20646,0.0,0.0,0.0,0.0,0.0,0.022465188801932157,-0.04940393894478916,0.07867207237007902,0.07262625929615373,-0.0023962564397420976,0.002442451423726188,0.23918670403088976
2255,4.0,299.10542999999996,-30.331792999999998,0.0,0.0,0.0,0.0,0.0,0.022475155611515946,-0.06141854187303814,0.08038724539735342,-0.00974859634381155,0.015310106672739883,-0.02098709063076458,0.24584184214520077
2256,4.0,298.69969,714.2856099999999,0.0,0.0,0.0,0.0,0.0,0.022485122421099762,-0.13200274758015687,0.016468084350773383,-0.1015903194061839,-0.014870444282098586,0.014385262643964886,0.27756306520834173
2257,4.0,300.21672,590.29872,0.0,0.0,0.0,0.0,0.0,0.022495089230683607,-0.09598581930731281,0.011803915808455788,-0.0952541686353545,0.003648983438601627,0.023516378702635874,0.2662019072695827
2258,4.0,300.7334,-140.72023000000002,0.0,0.0,0.0,0.0,0.0,0.022505056040267424,-0.019921145446063982,0.07013725095550774,-0.007440668866961843,-0.029126101092522373,-0.012055405496525888,0.26270367143183376
2259,4.0,300.66327,-232.22749,0.0,0.0,0.0,0.0,0.0,0.02251502284985127,-0.026990965283050873,0.08415646788159671,0.013425855641028788,-0.0024981055026938176,0.004892757156927535,0.26077620629660775
2260,4.0,300.26775,480.83401,0.0,0.0,0.0,0.0,0.0,0.022524989659435057,-0.13630159285191987,0.016870953603783486,-0.026730895393133974,0.0003444897541884917,-0.01242526914077859,0.2728179035325307
2261,4.0,299.56594,836.28228,0.0,0.0,0.0,0.0,0.0,0.022534956469018874,-0.16172604409611785,0.0023797344849365077,-0.09486262650521232,0.02371225109271698,-0.01142206744202029,0.28983933997491573
2262,4.0,300.07021000000003,346.11208,0.0,0.0,0.0,0.0,0.0,0.02254492327860272,-0.08195929583475271,0.023865272122818977,-0.04711540618942855,-0.004474781155526516,0.013794619908922988,0.27981776959586374
2263,4.0,299.82817,-277.24541,0.0,0.0,0.0,0.0,0.0,0.022554890088186536,-0.00950064928206608,0.09360281212587832,0.0001735204880426388,-0.0034173161648878465,-0.008679690847618793,0.2769151930944017
2264,4.0,298.95546,46.898731,0.0,0.0,0.0,0.0,0.0,0.022564856897770352,-0.057947889742761445,0.06679197839260503,-0.02310013150855548,-0.00948353842630237,0.03375047930341297,0.2539712591550118
2265,4.0,298.80301000000003,690.01169,0.0,0.0,0.0,0.0,0.0,0.02257482370735417,-0.16759479880781883,0.027961930429877678,-0.07011345680340944,-0.02049876589082068,0.003566792947465057,0.26977381652210275
2266,4.0,299.66218,440.30434,0.0,0.0,0.0,0.0,0.0,0.022584790516937986,-0.13730785152622985,0.06247694746374464,-0.05901061887164465,-0.008688714853009392,0.007130524967703024,0.2800915700378857
2267,4.0,300.36107999999996,-418.74172000000004,0.0,0.0,0.0,0.0,0.0,0.022594757326521803,-0.01203867065787429,0.0970150331626383,0.04231066439448746,-0.024716346478063478,-0.014115892131380089,0.27044360523570576
2268,4.0,300.25301,-362.25212,0.0,0.0,0.0,0.0,0.0,0.022604724136105647,-0.011685752608293989,0.1092123716934219,0.012588982999185887,0.003973453377049316,-0.003633947313742677,0.29013940385952974
2269,4.0,300.61736,614.5716,0.0,0.0,0.0,0.0,0.0,0.022614690945689464,-0.11736545822556889,0.010557971809740689,-0.08000693109156932,0.01854484175573338,-0.013606604260117288,0.2689381182371257
2270,4.0,300.96862999999996,830.57321,0.0,0.0,0.0,0.0,0.0,0.022624657755273253,-0.13389017920393187,-0.027372366806192275,-0.09121097345657223,-0.008947180768017992,-0.0016760756575907886,0.27464718473306676
2271,4.0,300.88306,253.23907999999997,0.0,0.0,0.0,0.0,0.0,0.022634624564857098,-0.0984752430804998,0.03050754297411007,-0.00901065784703269,0.014715985450104685,0.01044045101014229,0.23943785833317677
2272,4.0,300.60066,-172.62855,0.0,0.0,0.0,0.0,0.0,0.022644591374440914,-0.03441641057388527,0.046922063884847154,0.03996911636739466,-0.02750668931894887,0.01133045139447849,0.24751110075744376
2273,4.0,300.04851,-98.317385,0.0,0.0,0.0,0.0,0.0,0.02265455818402473,-0.05437245539314354,0.06403487420800004,0.02022361174666508,0.015951469668037486,0.015218127881662288,0.23410701783456378
2274,4.0,299.94572999999997,445.16199000000006,0.0,0.0,0.0,0.0,0.0,0.022664524993608576,-0.0999930663990473,0.029563328643173372,-0.06488839049598553,-0.03143665886530667,0.004811226798231115,0.26431687704854473
2275,4.0,300.44225,340.2402,0.0,0.0,0.0,0.0,0.0,0.022674491803192365,-0.07973236969872223,0.03001390576389187,-0.05370605904087535,-0.008682242008720571,0.018429134673813984,0.26426698461362075
2276,4.0,299.56391,-379.71692,0.0,0.0,0.0,0.0,0.0,0.02268445861277618,0.007895521497802302,0.09969653875728231,0.007832401285472822,-0.00876957656796482,0.013609637930916687,0.2651105457193737
2277,4.0,299.38165,-247.63782,0.0,0.0,0.0,0.0,0.0,0.022694425422360026,-0.03860374868539336,0.06462439527518124,0.04925506717384665,0.002124896917210998,-0.0017455462122719983,0.2608492616288178
2278,4.0,299.13857,641.5598,0.0,0.0,0.0,0.0,0.0,0.022704392231943843,-0.14476772300246188,0.023514164751167375,-0.07376460424024962,0.026147700046327074,0.013471776135560788,0.27081705882506274
2279,4.0,299.47502000000003,997.1917599999999,0.0,0.0,0.0,0.0,0.0,0.02271435904152766,-0.16623613174872884,-0.02193884556894548,-0.11494641480432789,0.0038853939386835267,-0.006750647170062003,0.27813859126514173
2280,4.0,300.62827999999996,412.46364,0.0,0.0,0.0,0.0,0.0,0.022724325851111477,-0.08869018250003952,0.014880323470573586,-0.051568789326693246,0.009379351491394922,0.017472175683119484,0.26948678303377477
2281,4.0,300.51335,-200.61252,0.0,0.0,0.0,0.0,0.0,0.022734292660695293,-0.017790576354793183,0.07454575623259332,0.004226017110225416,-0.012156343444987689,-0.006646394069923024,0.2816703150186957
2282,4.0,300.83148,17.664748,0.0,0.0,0.0,0.0,0.0,0.022744259470279138,-0.07426613466874683,0.059101489167112845,0.00979500340104157,-0.008811431295145562,-0.001049389893966719,0.28374085106804176
2283,4.0,301.01166,470.47605999999996,0.0,0.0,0.0,0.0,0.0,0.022754226279862955,-0.13698296301416588,0.03193363676110457,-0.03796364819972036,-0.016488588479796985,-0.005228943407606535,0.2847026077979597
2284,4.0,300.40643,411.11874,0.0,0.0,0.0,0.0,0.0,0.02276419308944677,-0.1173294574495159,0.03888712434086036,-0.04652750125615686,-0.010913452368823889,0.014905485510306883,0.2753192735243967
2285,4.0,300.15394,97.57811099999999,0.0,0.0,0.0,0.0,0.0,0.022774159899030588,-0.040342318670726865,0.035601329558827666,-0.024920319802694078,0.009209240377156262,0.008913762867794902,0.26321892937268576
2286,4.0,299.67297,-174.84211000000002,0.0,0.0,0.0,0.0,0.0,0.022784126708614405,-0.013334664145278887,0.09529017245115781,-0.028807871660115572,0.0024725710935487675,-0.0026184561071714977,0.26965010881739376
2287,4.0,298.83738999999997,499.64941,0.0,0.0,0.0,0.0,0.0,0.022794093518198222,-0.07013509070629453,0.009266210769328802,-0.09101206536919151,0.03094505828778947,-0.009303532316887152,0.26204491701181976
2288,4.0,298.89833,1049.7324,0.0,0.0,0.0,0.0,0.0,0.02280406032778204,-0.17838011658224684,-0.017297251225605784,-0.12341507808011988,-0.004863646886854575,-0.014991290568525184,0.2932400808880427
2289,4.0,300.07252,329.40766,0.0,0.0,0.0,0.0,0.0,0.022814027137365855,-0.1083376936770979,0.03446869225254506,-0.026262704945927175,0.006689667651218795,-0.0062057472054845636,0.2727969900504667
2290,4.0,300.55447999999996,-396.43436,0.0,0.0,0.0,0.0,0.0,0.022823993946949672,-0.015143477693794885,0.06259901775629204,0.07305060539828342,-0.02185096537452238,0.0009232276212879722,0.26341407120944477
2291,4.0,301.0918,64.925467,0.0,0.0,0.0,0.0,0.0,0.022833960756533517,-0.07781681835817203,0.05664056811923885,0.0014405298651442287,-0.018658142368665285,0.007113720316119535,0.2778476061014237
2292,4.0,300.8161,596.8734,0.0,0.0,0.0,0.0,0.0,0.022843927566117306,-0.1027150270171839,0.001179630224720439,-0.07989921044693812,-0.004144549370385176,0.018217803126957182,0.27370468988754976
2293,4.0,301.07979,318.15553,0.0,0.0,0.0,0.0,0.0,0.02285389437570115,-0.08323955962760492,0.020904369905850678,-0.034376149081161766,-0.001080330904320359,-0.003466225544564827,0.26858788834006075
2294,4.0,300.02505,-75.197601,0.0,0.0,0.0,0.0,0.0,0.022863861185284967,-0.035725930950124864,0.08080075377641352,-0.02221663011036068,0.02434359203127548,-0.010945042467191591,0.27021228023787575
2295,4.0,299.36568,-139.12697,0.0,0.0,0.0,0.0,0.0,0.022873827994868784,-0.061491254726714344,0.08301108287580601,0.02077129673046738,0.009053859994196412,-0.026730133429058774,0.25862834913213073
2296,4.0,299.96731,438.17815,0.0,0.0,0.0,0.0,0.0,0.0228837948044526,-0.090445764954552,0.03695977775589607,-0.07970922807968833,0.026678934914755873,-0.000910438267068261,0.2659676641114647
2297,4.0,299.82115,834.1174900000001,0.0,0.0,0.0,0.0,0.0,0.022893761614036418,-0.16409247957216683,-0.0003520790480999967,-0.08910633242211033,-0.004937838173751686,-0.003602801728193847,0.2654392339193128
2298,4.0,299.09831,271.23962,0.0,0.0,0.0,0.0,0.0,0.022903728423620262,-0.07091156046992614,0.056145481961377655,-0.06768399210488993,-0.01857232109844538,0.012923420380192287,0.28316071472328674
2299,4.0,299.60321,-387.33786000000003,0.0,0.0,0.0,0.0,0.0,0.02291369523320408,-0.03451819053318017,0.09886952301241221,0.05338970614765375,-0.027005021088438077,0.003785259598876036,0.2760495228714667
2300,4.0,299.46691,-71.917693,0.0,0.0,0.0,0.0,0.0,0.022923662042787896,-0.044627501278141454,0.054810736723898544,0.011677947542773688,-0.011328408682276888,-0.003286053870083267,0.29283301779286874
2301,4.0,300.09701,759.76327,0.0,0.0,0.0,0.0,0.0,0.022933628852371712,-0.17646125394036982,0.007984014303235863,-0.06247181839173844,0.01857785952349198,-0.011318307592029989,0.2776391400258497
2302,4.0,300.49427000000003,653.18749,0.0,0.0,0.0,0.0,0.0,0.02294359566195553,-0.12952035576266388,0.017048840804589585,-0.08608117089705011,0.0016323740794527786,-0.01928482843626438,0.27698207773350275
2303,4.0,300.13298,-189.18063,0.0,0.0,0.0,0.0,0.0,0.022953562471539346,-0.03263457176953147,0.06874198428955564,0.02139877414639458,0.013830019827666688,-0.01932640310111748,0.2455111882400678
2304,4.0,300.35767000000004,-199.12985,0.0,0.0,0.0,0.0,0.0,0.02296352928112319,-0.025345027635109478,0.09609286918037781,-0.01021733941762289,-0.011326068074545888,-0.01009209744961247,0.2639772862775297
2305,4.0,301.31375,471.3626,0.0,0.0,0.0,0.0,0.0,0.022973496090707007,-0.13111317478736287,0.03885864998655016,-0.05102793162206475,-0.014371538171360386,0.03396778395960927,0.25734860412332977
2306,4.0,299.26377,663.87745,0.0,0.0,0.0,0.0,0.0,0.022983462900290796,-0.14626906580813287,0.022195664952541577,-0.07772876287148163,-0.014192800853720385,0.008347258891210312,0.26506091672947574
2307,4.0,298.72429,303.87869,0.0,0.0,0.0,0.0,0.0,0.02299342970987464,-0.12377095178024189,0.07385669854183863,-0.04245727661770696,-0.005950022131996464,-0.0037669630378453062,0.27821419998760377
2308,4.0,299.64406,-173.08652,0.0,0.0,0.0,0.0,0.0,0.023003396519458458,-0.02096606569118958,0.08023442701727143,-0.006654382837686453,0.006306728217075614,-7.229728434643644e-05,0.27275504149632673
2309,4.0,299.9562,-222.29157999999998,0.0,0.0,0.0,0.0,0.0,0.023013363329042302,-0.04119657057828496,0.1037105148429309,0.005057142293526086,0.015497281323962584,0.0018333051206581284,0.27935497774518975
2310,4.0,300.21736,543.6510400000001,0.0,0.0,0.0,0.0,0.0,0.02302333013862609,-0.10423631058482288,0.024695831203288773,-0.08571586687824742,0.02002017645783758,-0.015336461307840884,0.27899778681993775
2311,4.0,300.13739,692.07482,0.0,0.0,0.0,0.0,0.0,0.023033296948209908,-0.15384181334550487,0.012929890995330887,-0.06946153878182014,0.004702607502086225,-0.01061533291115179,0.30665999077748474
2312,4.0,299.41276,-26.32057,0.0,0.0,0.0,0.0,0.0,0.023043263757793725,-0.05644131046057365,0.054375109095155444,0.01006699782608533,0.013371451203409487,-0.011142391162668389,0.27627740281895674
2313,4.0,300.45944,-192.86678999999998,0.0,0.0,0.0,0.0,0.0,0.02305323056737757,-0.04139055933643016,0.07176688135633973,0.02825036726959418,-0.008938013286413232,0.016498433217768584,0.26837882444692773
2314,4.0,301.23022000000003,392.4038,0.0,0.0,0.0,0.0,0.0,0.023063197376961386,-0.10476576415957589,0.049269619471782856,-0.06378481320257094,-0.0027488676771921174,0.0033004598547050268,0.26122540033093977
2315,4.0,300.33852,659.8453900000001,0.0,0.0,0.0,0.0,0.0,0.023073164186545175,-0.1198324993040469,0.012016895913225288,-0.0927609208562901,-0.007553302052052873,-0.00874283882300101,0.28136204380827173
2316,4.0,301.12906,149.06793000000002,0.0,0.0,0.0,0.0,0.0,0.02308313099612902,-0.06024070753279494,0.05002952360952955,-0.03510174457052247,-0.007976705122314503,-0.0007916674309539922,0.25291892799865473
2317,4.0,300.86373,-97.045587,0.0,0.0,0.0,0.0,0.0,0.023093097805712837,-0.04338867029512836,0.07849402304925693,-0.005605917635760994,0.009205236012761062,0.02775768150121987,0.2890850867329767
2318,4.0,300.97236000000004,8.707383199999999,0.0,0.0,0.0,0.0,0.0,0.02310306461529668,-0.057295073981583546,0.062057430511591544,-0.007409183538654484,-0.011758565773730089,0.005388362909440015,0.26393744528359775
2319,4.0,300.66276,433.9316,0.0,0.0,0.0,0.0,0.0,0.023113031424880498,-0.1067409635070129,0.013803915465340386,-0.03896732004652506,-0.012298743587541489,-0.02049798163524328,0.28257234065521875
2320,4.0,301.07447,643.6419099999999,0.0,0.0,0.0,0.0,0.0,0.023122998234464287,-0.10898735924371489,0.005702993682791655,-0.0923667007061336,-0.002760797582544507,-0.026903966616214775,0.28152033373889374
2321,4.0,300.40441,131.945,0.0,0.0,0.0,0.0,0.0,0.02313296504404813,-0.06973274429033602,0.038219152384686664,-0.008594394744925722,-0.003083273343470387,-0.008344634066826262,0.2916334816619837
2322,4.0,299.56363999999996,-210.21505,0.0,0.0,0.0,0.0,0.0,0.02314293185363195,-0.014088104760637687,0.07462594383225722,0.0033622875652069466,0.006408010366596384,-0.025839243411134773,0.26895123982592073
2323,4.0,300.02892,340.74761,0.0,0.0,0.0,0.0,0.0,0.023152898663215765,-0.11091994129194589,0.02803765263635087,-0.020696474290082978,-0.02123875054485148,-0.011199252731780188,0.2865567136259457
2324,4.0,299.97234,727.41225,0.0,0.0,0.0,0.0,0.0,0.02316286547279961,-0.13026356457851287,0.0016813858987148682,-0.09253297606079372,0.011138505348534888,0.01034489037996119,0.28296615043908474
2325,4.0,298.95392999999996,251.43901,0.0,0.0,0.0,0.0,0.0,0.0231728322823834,-0.11760221424393488,0.059258865146144646,-0.018087829483629782,0.007411113172144923,0.037783843929725065,0.24349463815604977
2326,4.0,299.37879,-92.662874,0.0,0.0,0.0,0.0,0.0,0.023182799091967216,-0.034176773885484964,0.060382011338740535,0.0019619614375305182,-0.0024958581139720177,0.017717083298539986,0.2548619971854208
2327,4.0,300.02422,99.49602800000001,0.0,0.0,0.0,0.0,0.0,0.02319276590155106,-0.07094847925056973,0.07025726941660264,-0.02955309887016377,-0.008679874245886891,-0.017314685206826382,0.27306858160727077
2328,4.0,300.30735,454.72459000000003,0.0,0.0,0.0,0.0,0.0,0.023202732711134877,-0.07697847751693422,0.015617544991581685,-0.07686399038813523,0.014128773579901385,-0.03160289368996277,0.27232725743660774
2329,4.0,300.96589,459.08395,0.0,0.0,0.0,0.0,0.0,0.02321269952071872,-0.11708934757331887,0.028590778773190176,-0.05105148766038955,-0.0024694607197167976,-0.02028145008887328,0.28744668158627873
2330,4.0,300.38423,189.3843,0.0,0.0,0.0,0.0,0.0,0.02322266633030251,-0.08158510561257301,0.05590303958345045,-0.03188603224490637,-0.004269027651795225,-0.04063737709984686,0.2874308039572117
2331,4.0,300.49908,16.22488,0.0,0.0,0.0,0.0,0.0,0.023232633139886327,-0.05737128761435524,0.03357833824392397,0.018860990985684882,-0.02033017829943238,0.0018502542617058785,0.27293340391142973
2332,4.0,300.67502,239.77045,0.0,0.0,0.0,0.0,0.0,0.023242599949470144,-0.07437352296734522,0.038100983105024265,-0.03661168986954247,0.002238172806840458,0.04401287491323255,0.2672851526864908
2333,4.0,300.56386000000003,696.61181,0.0,0.0,0.0,0.0,0.0,0.02325256675905399,-0.14005453949980687,0.0007456563214655493,-0.07244371519788803,0.01082871932921139,0.046340409691442354,0.27056187178737773
2334,4.0,299.04315,311.5884,0.0,0.0,0.0,0.0,0.0,0.023262533568637805,-0.07254658136129014,0.03079672657915027,-0.05296523845551204,-0.008353164011468102,0.019699722941461283,0.26028742458086873
2335,4.0,300.00093,-154.7265,0.0,0.0,0.0,0.0,0.0,0.023272500378221594,-0.04421443670262516,0.08019116529100183,0.01105626490416839,-0.014881137110403885,-0.019095118633291483,0.25588653489153473
2336,4.0,299.94467000000003,157.48086999999998,0.0,0.0,0.0,0.0,0.0,0.02328246718780544,-0.04791928436826516,0.04366860900625616,-0.04361957884716725,-0.0002503258892702418,-0.02077073741641218,0.2620883753086088
2337,4.0,299.98112000000003,488.91378,0.0,0.0,0.0,0.0,0.0,0.023292433997389256,-0.13898532759678386,0.04670878284479796,-0.05634104227042795,-0.0029637921075785075,0.023191601648082878,0.2564992269620028
2338,4.0,298.80394,387.19116,0.0,0.0,0.0,0.0,0.0,0.0233024008069731,-0.10099655282108372,0.03777943223878966,-0.054479325920940846,-0.006397275488411933,-0.01096586779649689,0.28562520241151274
2339,4.0,298.94059,73.331581,0.0,0.0,0.0,0.0,0.0,0.023312367616556917,-0.07273915156929533,0.05490874536632124,-0.004460562520848246,-0.02144135395534688,-0.011072184076489489,0.28096121220121273
2340,4.0,298.94271000000003,153.16778,0.0,0.0,0.0,0.0,0.0,0.023322334426140706,-0.051937475574329754,0.05187681229084275,-0.04649851825029645,-0.00939593089748118,-0.00022076802609810774,0.3043068896727517
2341,4.0,299.75203,398.69773,0.0,0.0,0.0,0.0,0.0,0.02333230123572455,-0.0961979290302464,0.014823597676975185,-0.03981982207116046,0.017695547680914584,0.0019909050279620284,0.28648860295422374
2342,4.0,299.81009,634.05612,0.0,0.0,0.0,0.0,0.0,0.023342268045308368,-0.12706262645260488,0.004426898603500876,-0.07010150146547953,-0.005230580009168055,-0.012556077702188386,0.27480725798386474
2343,4.0,300.15667,520.22398,0.0,0.0,0.0,0.0,0.0,0.023352234854892184,-0.13927056763243487,0.053047398853120646,-0.07191193216115513,-0.003165177490128697,-0.0035044033897826867,0.2742730218686397
2344,4.0,300.21881,-46.587828,0.0,0.0,0.0,0.0,0.0,0.02336220166447603,-0.07476686260316484,0.07295083471393683,0.015977563897862784,-0.0028197739059400177,0.005102954572947405,0.24742569390651475
2345,4.0,300.32971000000003,-23.423619,0.0,0.0,0.0,0.0,0.0,0.023372168474059818,-0.05931702772838485,0.08702664165811083,-0.020589419350767482,0.01161332751764619,0.028021426449249476,0.2659485136845747
2346,4.0,300.53272999999996,425.65781,0.0,0.0,0.0,0.0,0.0,0.023382135283643635,-0.1108982070773009,0.05169110381251475,-0.07018223723344753,-0.003753217894938767,-0.004698343846990436,0.2620935530166198
2347,4.0,300.39549,189.20028,0.0,0.0,0.0,0.0,0.0,0.02339210209322748,-0.07912785354331112,0.06765016981655193,-0.04603447908874936,0.012313523866750189,-0.016002722897845784,0.29085252927990973
2348,4.0,299.10564,-421.16950999999995,0.0,0.0,0.0,0.0,0.0,0.023402068902811296,0.012144236119542788,0.1097816763946079,0.006099106178834915,0.003661560101492846,-0.005576501364157834,0.25605114750278074
2349,4.0,299.14152,-142.22756,0.0,0.0,0.0,0.0,0.0,0.02341203571239514,-0.04870850791090545,0.07747902205308413,0.014463111662397986,0.003364347705310267,-4.529212444273465e-07,0.2866514525102957
2350,4.0,299.14896,447.16957,0.0,0.0,0.0,0.0,0.0,0.02342200252197893,-0.1127530525778599,0.04052605131135986,-0.06370138421583714,-0.033970410303868465,-0.0053696355144667645,0.2579104817012827
2351,4.0,299.72542999999996,653.57025,0.0,0.0,0.0,0.0,0.0,0.023431969331562746,-0.15142187826417586,0.026528480447157176,-0.07377564056033883,-0.041100484071301964,-0.025028025248573775,0.2861764003334117
2352,4.0,299.80125,381.1475,0.0,0.0,0.0,0.0,0.0,0.02344193614114659,-0.09623536659494121,0.014197424313926687,-0.033821381479160466,-0.011615566800367188,6.489717233460224e-05,0.26524302816994877
2353,4.0,299.92717999999996,99.604865,0.0,0.0,0.0,0.0,0.0,0.023451902950730408,-0.07750822392096614,0.05861385343723694,-0.01138302184941679,0.02034020440917188,0.02470984141242148,0.2986859962005127
2354,4.0,299.79076000000003,73.638182,0.0,0.0,0.0,0.0,0.0,0.023461869760314225,-0.06604009108964953,0.05923415805570625,-0.015578235953952184,0.014000339063475885,0.02036778406364378,0.27218277810484875
2355,4.0,300.34455,458.05192999999997,0.0,0.0,0.0,0.0,0.0,0.023471836569898014,-0.12235904856089788,0.04114871578931206,-0.05802601436522175,-0.01092876967058559,-0.003854459007830486,0.2973797648340977
2356,4.0,299.80163,407.27957000000004,0.0,0.0,0.0,0.0,0.0,0.023481803379481858,-0.11453170167089889,0.047861519993314255,-0.057132640871302647,0.0017586662811918481,0.01001893288904169,0.2906805604729377
2357,4.0,299.28511000000003,-43.486191,0.0,0.0,0.0,0.0,0.0,0.023491770189065675,-0.052546281830664246,0.07792019621287463,-0.012155198472374689,0.012266079444067789,0.014100999381410287,0.2893941280134767
2358,4.0,299.12106,-26.674677000000003,0.0,0.0,0.0,0.0,0.0,0.02350173699864952,-0.05542385638590874,0.06817766376561153,-0.004645371841037506,-0.006758041666641784,-0.0059427812441318435,0.26046746899113776
2359,4.0,300.21429,681.99293,0.0,0.0,0.0,0.0,0.0,0.023511703808233336,-0.11639814888510289,0.02239734630544598,-0.11330801979013089,-0.0021208267928843083,-0.016912856561668983,0.3098436124591837
2360,4.0,299.94167999999996,765.9431400000001,0.0,0.0,0.0,0.0,0.0,0.023521670617817125,-0.0960968705050227,-0.031986029897275364,-0.10474468855749591,-0.0005508689297240304,-0.014177027589413686,0.2583602431556708
2361,4.0,299.17349,196.11155,0.0,0.0,0.0,0.0,0.0,0.02353163742740097,-0.07373271523310243,0.06391305925447784,-0.04979335730272175,0.017873108615188482,0.006620510697443534,0.30712267117064773
2362,4.0,298.84542999999996,4.7573275,0.0,0.0,0.0,0.0,0.0,0.023541604236984787,-0.03703020370409656,0.04925685961327355,-0.013672764425396788,0.007625829278310753,-0.007051379495766973,0.26586739288156874
2363,4.0,299.82797999999997,118.26823,0.0,0.0,0.0,0.0,0.0,0.023551571046568603,-0.08274696302523943,0.044625550771698955,0.0021708249097937378,-0.005540677602897306,-0.02245128768776958,0.29940035778601476
2364,4.0,299.90386,312.40053,0.0,0.0,0.0,0.0,0.0,0.023561537856152448,-0.0935883459542006,0.024876099541829875,-0.026249714066395074,0.0015106331945128886,0.017702499589850682,0.26239368782874073
2365,4.0,300.37948,447.65142000000003,0.0,0.0,0.0,0.0,0.0,0.023571504665736237,-0.13237006087390787,0.02373233573619918,-0.027437131726084075,-0.0023953615372537774,0.03636698389089186,0.2788786488731797
2366,4.0,299.85481,135.17854,0.0,0.0,0.0,0.0,0.0,0.023581471475320054,-0.052851907445077145,0.06636254881472363,-0.05460154110825254,0.0006907355822577943,0.028891210467590474,0.2646378848127257
2367,4.0,300.49098,-146.59063,0.0,0.0,0.0,0.0,0.0,0.0235914382849039,-0.050493090596530045,0.09004442976219332,0.0050085527969056754,-0.025605547408070774,-0.01101387862598519,0.27454273891275877
2368,4.0,299.75381,286.45883,0.0,0.0,0.0,0.0,0.0,0.023601405094487715,-0.07076444770115722,0.023234486445315276,-0.03954637018717286,-0.012037131530972387,0.006352504323468363,0.26166623505194675
2369,4.0,300.14847000000003,708.1087200000001,0.0,0.0,0.0,0.0,0.0,0.02361137190407156,-0.14150540218549587,0.023938701344315878,-0.0976806655243311,-0.013243258853757886,-0.0012919099881765887,0.28711143765819275
2370,4.0,299.73601,383.64703,0.0,0.0,0.0,0.0,0.0,0.02362133871365535,-0.1104748103905149,0.02117646504795438,-0.027320769071349973,-0.01007527658602738,0.0008030409201464682,0.28972881465400774
2371,4.0,300.18868,-40.608968,0.0,0.0,0.0,0.0,0.0,0.023631305523239166,-0.054014705153836357,0.060136233341484144,0.0062225833691461644,-0.009969417180504871,-0.015928732335793484,0.2782401391901637
2372,4.0,300.06752,72.737849,0.0,0.0,0.0,0.0,0.0,0.02364127233282301,-0.05121381133965965,0.04862061454423105,-0.01951729232720678,0.01943628703471218,0.005724352792249635,0.2929258416345297
2373,4.0,301.35736,422.17149000000006,0.0,0.0,0.0,0.0,0.0,0.023651239142406827,-0.1016209195592039,0.01967825622484268,-0.04638692800353336,0.016324737832626182,0.021613844586120378,0.28750054596159474
2374,4.0,301.12376,482.96502000000004,0.0,0.0,0.0,0.0,0.0,0.023661205951990644,-0.1020810566946159,0.025624597523200874,-0.07035284828528553,0.006662030241491193,-0.0062807749303392234,0.28577517355881377
2375,4.0,301.98455,197.55899,0.0,0.0,0.0,0.0,0.0,0.023671172761574433,-0.11088970590896188,0.06076600272913754,-0.009929298758695491,-0.007321161286567363,-0.018414728283892182,0.27377685355967174
2376,4.0,301.33912000000004,18.06179,0.0,0.0,0.0,0.0,0.0,0.023681139571158277,-0.06976180835620444,0.05704628460502995,0.007225190188770753,-0.008756863014985091,0.003954608343739457,0.26167462476277475
2377,4.0,300.65437000000003,348.6638,0.0,0.0,0.0,0.0,0.0,0.023691106380742094,-0.11356224424022088,0.045002152529116664,-0.037424998367059766,0.013720706353878289,0.016062035518949483,0.27597150261376674
2378,4.0,300.3736,751.15478,0.0,0.0,0.0,0.0,0.0,0.02370107319032594,-0.1263606366508239,0.013255450278961087,-0.11522710534702989,-0.005762978696661714,0.010405612431953992,0.28651261698159375
2379,4.0,300.3522,445.2013,0.0,0.0,0.0,0.0,0.0,0.023711039999909755,-0.11654298285439688,0.03718979768759726,-0.05597688829048875,-0.00863697121015269,-0.02183343614779238,0.29454372846670274
2380,4.0,300.49354,-73.29127,0.0,0.0,0.0,0.0,0.0,0.023721006809493544,-0.007695876676273894,0.05331051963908865,-0.023335926965826682,0.0024082528143010476,-0.004098766677866776,0.2651970164829078
2381,4.0,300.04302,67.586203,0.0,0.0,0.0,0.0,0.0,0.02373097361907739,-0.06380199184476634,0.031199188505620173,0.012058285153310089,0.016793226175362382,0.007011051635161925,0.29741938291300773
2382,4.0,299.21191,445.80020999999994,0.0,0.0,0.0,0.0,0.0,0.023740940428661206,-0.11063179322850789,0.024599551165536675,-0.04947989318553525,0.019240044808344584,0.0016656616757130085,0.28248337729643874
2383,4.0,299.90081000000004,454.23273,0.0,0.0,0.0,0.0,0.0,0.023750907238245023,-0.10461535731473189,0.02197136988390538,-0.05543142333765555,-0.0034439905817204063,-0.008365641578499542,0.2831982759044937
2384,4.0,300.95536,21.654113,0.0,0.0,0.0,0.0,0.0,0.02376087404782884,-0.05529416645260935,0.06384093408585964,-0.015129077383373685,-0.0021621271709353377,0.03103083700150517,0.25502067215108076
2385,4.0,300.56874,-72.774826,0.0,0.0,0.0,0.0,0.0,0.023770840857412656,-0.04443589771073166,0.09238476492891641,-0.025827137098939974,0.022922022405977478,0.024844462833957578,0.2794736090668977
2386,4.0,301.12611,333.62865,0.0,0.0,0.0,0.0,0.0,0.023780807666996473,-0.1031788321179579,0.04881154227382415,-0.04704748803522555,-0.00932602342935685,-0.0036103724289660165,0.2715178529917257
2387,4.0,300.91073,624.57754,0.0,0.0,0.0,0.0,0.0,0.023790774476580318,-0.15489690054213387,0.04985618184867205,-0.08481526080511452,-0.011424287472989389,-0.04194780534817606,0.2896170936979817
2388,4.0,300.07864,405.20738,0.0,0.0,0.0,0.0,0.0,0.023800741286164134,-0.11066225152651389,0.04152503079695146,-0.05403570476215885,-0.0028868491373848274,0.001921699438181968,0.2795868904280777
2389,4.0,299.8826,-7.7474375,0.0,0.0,0.0,0.0,0.0,0.02381070809574795,-0.051826633106140454,0.08077899220401583,-0.026597331804702275,0.011374636191589188,0.006149242097757944,0.27832518127105677
2390,4.0,299.789,-63.911607,0.0,0.0,0.0,0.0,0.0,0.023820674905331768,-0.058670219527049844,0.08948360089809382,-0.011385848817195789,-0.004978039884719285,-0.02007047520605168,0.27206622394584573
2391,4.0,299.59406,359.26627,0.0,0.0,0.0,0.0,0.0,0.023830641714915585,-0.09804634849867121,0.039383086960058065,-0.05054471467587495,-0.03066570422196937,-0.00996704941767119,0.28851933853964173
2392,4.0,299.55741,430.44064000000003,0.0,0.0,0.0,0.0,0.0,0.02384060852449943,-0.11603396653416088,0.05434519085945275,-0.06915443179576103,-0.007921045875771363,0.01057904842507079,0.28322957520008274
2393,4.0,299.18679,-51.952883,0.0,0.0,0.0,0.0,0.0,0.02385057533408322,-0.07658105752296193,0.07958740502016533,0.012786030759382987,0.007678004768360071,0.019589795438112283,0.28189669535603773
2394,4.0,299.29662,-75.082962,0.0,0.0,0.0,0.0,0.0,0.023860542143667063,-0.04869660323548055,0.07236838106620314,-0.0008484319307062123,0.0006669442267297703,0.007242219173926383,0.2911717638564157
2395,4.0,299.44129,222.94657999999998,0.0,0.0,0.0,0.0,0.0,0.02387050895325088,-0.08043771842458472,0.04936996872193655,-0.03670244465449926,0.02497283655537708,-0.01999201013155778,0.27652063350546174
2396,4.0,300.09006,555.52139,0.0,0.0,0.0,0.0,0.0,0.023880475762834696,-0.12258712102590688,0.03442446895193057,-0.08070197810366513,0.025014578406496676,0.018077902672400083,0.26236154753556873
2397,4.0,300.74581,456.64322999999996,0.0,0.0,0.0,0.0,0.0,0.023890442572418513,-0.10596984978340991,0.032565547146219266,-0.06540383284835574,0.02086110311333058,0.0008384074117693691,0.2534391103349928
2398,4.0,300.70636,-9.3209011,0.0,0.0,0.0,0.0,0.0,0.02390040938200233,-0.06441647432816103,0.0863588166232016,-0.019109021437913584,0.0035814064457072962,-0.032786052659481466,0.29026082161901273
2399,4.0,299.72211,-33.51232,0.0,0.0,0.0,0.0,0.0,0.023910376191586147,-0.05438872008374874,0.06585564613419623,-0.0012800169651278387,-0.014263246053672787,-0.009075973063053803,0.27422518633141874
2400,4.0,299.52303,480.42520999999994,0.0,0.0,0.0,0.0,0.0,0.023920343001169964,-0.0989265679797921,0.04020803466147406,-0.08731873531743822,0.013339990801054588,0.028334634214160673,0.3002837193556957
2401,4.0,298.96095,520.38797,0.0,0.0,0.0,0.0,0.0,0.023930309810753808,-0.12153940015750489,0.02664167770857887,-0.06328722634346294,-0.006350687262064034,0.028345790097761673,0.2857376529076107
2402,4.0,299.29247000000004,193.23581000000001,0.0,0.0,0.0,0.0,0.0,0.023940276620337597,-0.05095996584510705,0.047712101067317755,-0.05549099636403495,-0.02750822439285037,-0.006683246685335094,0.3048111842475217
2403,4.0,300.10278999999997,1.8628075000000002,0.0,0.0,0.0,0.0,0.0,0.02395024342992144,-0.07085290950113773,0.07603517713758773,-0.005748513943534155,-0.008571830881098842,-0.02057294897039198,0.27839026232497976
2404,4.0,299.86924,420.49358,0.0,0.0,0.0,0.0,0.0,0.02396021023950526,-0.1153494046340999,0.02783860877345677,-0.04030875678766456,0.003758162048801716,0.027677904267846474,0.3024513956921287
2405,4.0,300.71171,663.79383,0.0,0.0,0.0,0.0,0.0,0.023970177049089075,-0.15420243918859586,0.02027212616145308,-0.06784643940067223,0.018446093440737683,0.0013676388821004487,0.29297372783425574
2406,4.0,301.33248,344.08577,0.0,0.0,0.0,0.0,0.0,0.023980143858672892,-0.09419378720695301,0.053343312465325046,-0.06374300852994513,-0.007058712488065683,-0.03133445739397017,0.3053210922278457
2407,4.0,301.16155,-44.729624,0.0,0.0,0.0,0.0,0.0,0.02399011066825671,-0.06600376708681464,0.07140904600402413,0.008191409880079213,-0.0014997618315399685,-0.015613978351229685,0.25982051893478875
2408,4.0,301.27153,213.54792,0.0,0.0,0.0,0.0,0.0,0.024000077477840553,-0.06168059266690054,0.06282111508546134,-0.06605375780699835,0.019432681890856382,0.02056424008578248,0.28386063749486373
2409,4.0,299.99532,397.37702,0.0,0.0,0.0,0.0,0.0,0.02401004428742437,-0.1045410050223939,0.033372799447888866,-0.04962448904105576,-0.01013590146733559,0.01157141848026009,0.25218906368662275
2410,4.0,299.95002999999997,403.74183999999997,0.0,0.0,0.0,0.0,0.0,0.024020011097008187,-0.1049208522198819,0.04913918885266035,-0.06694577253253334,-0.03283668679347867,-0.006843451354671062,0.30796436789621673
2411,4.0,300.32218,70.658621,0.0,0.0,0.0,0.0,0.0,0.024029977906592004,-0.06461571982782503,0.06061675504240795,-0.017479492362091585,-0.007675466982159613,-0.006454637197773094,0.28540587429486675
2412,4.0,300.27437000000003,-155.58356,0.0,0.0,0.0,0.0,0.0,0.02403994471617582,-0.013600895609053887,0.05247603320123125,0.008418380435604462,0.014865682006628586,0.03147155114575027,0.29120708575490173
2413,4.0,300.33705,246.46589,0.0,0.0,0.0,0.0,0.0,0.024049911525759637,-0.07661024723184273,0.03646124553444476,-0.03477047562257876,0.01937863411727228,0.007446029466615893,0.28853957314413875
2414,4.0,300.13575,790.65178,0.0,0.0,0.0,0.0,0.0,0.024059878335343482,-0.14983827981538686,-0.0026942636293031176,-0.08780585834276351,-0.017086095984266383,-0.02894670718881757,0.2926888627011417
2415,4.0,298.76234,452.91654000000005,0.0,0.0,0.0,0.0,0.0,0.0240698451449273,-0.1179260489758949,0.018055868535725484,-0.03780514244682706,-0.024925390106194475,-0.015501162071845587,0.27654804192066673
2416,4.0,299.68546000000003,-54.423766,0.0,0.0,0.0,0.0,0.0,0.024079811954511088,-0.07443137752155503,0.08886255154080101,0.002112292085966998,0.006100232608971084,0.016304286392607788,0.28570404340179373
2417,4.0,300.0797,18.378091,0.0,0.0,0.0,0.0,0.0,0.024089778764094932,-0.06925990910467084,0.06742853250292803,-0.0037551038573498965,0.014946532271857884,0.001100039733340469,0.28519823908437475
2418,4.0,299.22177999999997,376.35727,0.0,0.0,0.0,0.0,0.0,0.02409974557367875,-0.1075390296832759,0.07097281650472163,-0.07783699622066344,-0.012062536750729687,-0.018393779338074682,0.2956153721699657
2419,4.0,300.22604,474.89250999999996,0.0,0.0,0.0,0.0,0.0,0.024109712383262566,-0.10698337346093689,0.03486315659597567,-0.07223524912231402,-0.0008153901286552401,-0.007090163061894614,0.28686628179649776
2420,4.0,300.23661,133.41453,0.0,0.0,0.0,0.0,0.0,0.024119679192846383,-0.05579767170555145,0.03442885125861307,-0.019185866325497583,0.017249230263616484,0.013452561873914486,0.2663913242432767
2421,4.0,300.2482,48.022912,0.0,0.0,0.0,0.0,0.0,0.0241296460024302,-0.07700757704655613,0.06925019912896253,-0.006840387691668704,0.014052300555104088,0.0008287666207778972,0.2761668369680448
2422,4.0,300.19484,447.93611,0.0,0.0,0.0,0.0,0.0,0.024139612812014016,-0.12988576414622688,0.025023105919338273,-0.031298734248444565,-0.015057863126595383,-0.03580545689747346,0.28366701553325474
2423,4.0,300.301,600.9273099999999,0.0,0.0,0.0,0.0,0.0,0.02414957962159786,-0.1178618798470619,0.00038819103848397265,-0.06519320652356853,-0.013176396506159087,0.0006146243282761985,0.2855748540140437
2424,4.0,299.84038,226.78511,0.0,0.0,0.0,0.0,0.0,0.024159546431181678,-0.08320262260845951,0.04335606289366026,-0.029090451914254075,0.01130937072614799,0.024863546386340977,0.28385470998177875
2425,4.0,299.67215,-61.689455,0.0,0.0,0.0,0.0,0.0,0.024169513240765467,-0.02975798209338417,0.04801052855302025,0.0004995079509000966,0.008591320240147292,0.026904186491486473,0.28322060793669773
2426,4.0,298.97112000000004,7.573338400000001,0.0,0.0,0.0,0.0,0.0,0.02417948005034931,-0.06974152004945212,0.07483095472499023,-0.007391540017313202,-0.016335088182397685,-0.017402329313976183,0.27404867816399875
2427,4.0,299.78267,460.54467999999997,0.0,0.0,0.0,0.0,0.0,0.024189446859933128,-0.11385271264638788,0.02116081337365968,-0.047302188712862556,-0.023130028466006078,0.00090303859278047,0.27498539748394574
2428,4.0,300.19494,438.33864000000005,0.0,0.0,0.0,0.0,0.0,0.024199413669516973,-0.14272714875857284,0.04709098179576805,-0.037607837321104565,-0.0005530294322497554,-0.00017299191599547286,0.27158417021077075
2429,4.0,300.10454,84.92852099999999,0.0,0.0,0.0,0.0,0.0,0.02420938047910079,-0.07027464462931743,0.07463915762681134,-0.030180662412349474,0.011919529671365989,0.008226504709217803,0.2922685260296577
2430,4.0,299.36081,159.53404,0.0,0.0,0.0,0.0,0.0,0.02421934728868458,-0.08766076599469401,0.06833736414037274,-0.029170962740699875,0.0024497583754973275,-0.028317959157264972,0.28863714912876876
2431,4.0,299.51017,517.2141799999999,0.0,0.0,0.0,0.0,0.0,0.024229314098268423,-0.10249120007009391,0.03952213324478086,-0.0942511320963625,0.006453966932831943,0.007923257902064674,0.29505130597179674
2432,4.0,300.49374,485.93367,0.0,0.0,0.0,0.0,0.0,0.02423928090785224,-0.10995631004934288,0.024469210725673075,-0.06222460664559054,0.0005484198940998295,0.027234625587598274,0.2874440775335217
2433,4.0,300.99445,125.04123,0.0,0.0,0.0,0.0,0.0,0.024249247717436057,-0.09846924058690741,0.05894696852686285,0.0015128600142576586,-0.01112196100090209,0.01182575945411159,0.29691741881346767
2434,4.0,299.91635,-159.85871,0.0,0.0,0.0,0.0,0.0,0.0242592145270199,-0.040282594670082564,0.09511636054225392,-0.0062407100081351245,-0.014875953322892287,-0.019685567837564283,0.3088247793511327
2435,4.0,299.90578,73.575542,0.0,0.0,0.0,0.0,0.0,0.02426918133660369,-0.07388060009844753,0.06381119823517495,-0.012295725115493589,-0.008495568105697291,0.0004117599957475476,0.2852515157746327
2436,4.0,300.10887,608.67876,0.0,0.0,0.0,0.0,0.0,0.024279148146187507,-0.1198138555022069,0.011576062205468389,-0.07678535103462412,0.001881408054580518,0.015684272576917183,0.2993530998013507
2437,4.0,299.53548,477.11039000000005,0.0,0.0,0.0,0.0,0.0,0.02428911495577135,-0.11688594774824489,0.035066758057819565,-0.06321045339663604,0.0001005443139702012,0.02087765556696418,0.2690507409857407
2438,4.0,298.65173,105.19115,0.0,0.0,0.0,0.0,0.0,0.02429908176535517,-0.06354551088670364,0.05387305076335615,-0.022303023866887078,-0.011684667417436888,-0.026323011565378973,0.27286683337985973
2439,4.0,299.8367,68.125377,0.0,0.0,0.0,0.0,0.0,0.024309048574939013,-0.08106691329943141,0.05387979596927185,0.006478704015473304,0.009062233391697802,-0.003034314821163557,0.2539030572907808
2440,4.0,299.56847,265.69476000000003,0.0,0.0,0.0,0.0,0.0,0.024319015384522802,-0.07728024670146652,0.04535002560644905,-0.04883435154682525,0.020024013635966283,0.007735427576702262,0.2658753975573588
2441,4.0,300.23599,364.63137,0.0,0.0,0.0,0.0,0.0,0.02432898219410662,-0.09956030322833691,0.041229355298520565,-0.05250788471812475,0.0065803552920055035,-0.005512728517438945,0.27595281828192275
2442,4.0,299.91202000000004,85.00092,0.0,0.0,0.0,0.0,0.0,0.024338949003690435,-0.058888024728795535,0.07053126034964342,-0.037481392827875465,0.01119464244382519,-0.024159355805342776,0.3013596997693867
2443,4.0,299.89447,-128.32564,0.0,0.0,0.0,0.0,0.0,0.02434891581327428,-0.048433817835295656,0.07023587058774074,0.017205737516324083,-0.008148545449173821,0.006544337898650864,0.28255471010347877
2444,4.0,300.48548999999997,192.48754,0.0,0.0,0.0,0.0,0.0,0.024358882622858097,-0.08067361318036571,0.03316594950622437,-0.01100374207198479,0.021760697962863684,0.013974481934173985,0.2940497285129487
2445,4.0,300.21335,492.92911,0.0,0.0,0.0,0.0,0.0,0.024368849432441886,-0.1275021642134839,0.025398216172608776,-0.04773419093274786,-0.030303844240256575,0.007928619008343773,0.2948904423859207
2446,4.0,300.05414,519.51549,0.0,0.0,0.0,0.0,0.0,0.02437881624202573,-0.09414327567621791,0.005792259902026545,-0.06956872037739814,-0.0024860645451304677,-0.02976893735346537,0.3059299238154327
2447,4.0,300.14186,233.87275,0.0,0.0,0.0,0.0,0.0,0.024388783051609547,-0.08302468981139892,0.04611572046851726,-0.03418250786780087,-0.008906023764856111,-0.00960594248343271,0.3043754056445137
2448,4.0,299.72085,130.42361,0.0,0.0,0.0,0.0,0.0,0.02439874986119339,-0.08476639681904202,0.06306234865601924,-0.01794147259943548,0.025808630085863475,0.017828015945988183,0.29244229842180774
2449,4.0,299.51707000000005,486.88835,0.0,0.0,0.0,0.0,0.0,0.02440871667077721,-0.12491479968563089,0.035189024920886366,-0.05827612603315585,-0.004485278021262476,-0.017620285489986783,0.29752453800838574
2450,4.0,299.48076000000003,665.4196,0.0,0.0,0.0,0.0,0.0,0.024418683480360998,-0.16362500650603085,0.024773507969204876,-0.06341944332251173,-0.015725663843502186,-0.026857848537913273,0.2878377049323697
2451,4.0,299.16258,277.22656,0.0,0.0,0.0,0.0,0.0,0.024428650289944842,-0.08680653232563772,0.043137278892317964,-0.04060069947272706,-0.01137787251240859,0.011326902992628288,0.2856808399745037
2452,4.0,300.11888,-5.480678299999999,0.0,0.0,0.0,0.0,0.0,0.02443861709952866,-0.05518695344627825,0.05414536679398166,0.0027075755064668978,0.007171238572621143,0.015785970462953984,0.26991662399119676
2453,4.0,300.30171,45.021012,0.0,0.0,0.0,0.0,0.0,0.024448583909112476,-0.05796193136264724,0.07726320180828433,-0.03298653432426747,0.004284945506891197,-0.0067083007126077345,0.3008141963130497
2454,4.0,300.18414,227.24811,0.0,0.0,0.0,0.0,0.0,0.02445855071869632,-0.11317215308422189,0.051810739265071855,-0.007716334398442912,0.002371161173190388,-0.03081561254776417,0.29216288457423173
2455,4.0,300.43984,408.78971,0.0,0.0,0.0,0.0,0.0,0.02446851752828011,-0.09221610742327123,0.012824573779936886,-0.04487033274410705,0.026579239210916678,0.00987345702580934,0.2805150072546757
2456,4.0,300.71407999999997,256.33262,0.0,0.0,0.0,0.0,0.0,0.024478484337863926,-0.11261522016675689,0.033043816392170765,0.0016526855896323684,-0.0016675752998518685,0.026131787966756675,0.27113630353406976
2457,4.0,299.64887999999996,181.60592,0.0,0.0,0.0,0.0,0.0,0.02448845114744777,-0.05117607081318495,0.025437389434724875,-0.029464984614967573,-0.007973077686956502,-0.0003125289785367087,0.28414984947090677
2458,4.0,299.23891000000003,372.96215,0.0,0.0,0.0,0.0,0.0,0.024498417957031587,-0.09394229346588251,0.03660329103946356,-0.056032178308695446,-0.02947884384983537,-0.012845380870740386,0.2884957399448127
2459,4.0,299.46844,638.05867,0.0,0.0,0.0,0.0,0.0,0.024508384766615432,-0.1129596441407489,0.01749699423106888,-0.09849125445858001,-0.0017993355057555882,0.024433242373623276,0.3105245975863917
2460,4.0,298.74431,309.55502,0.0,0.0,0.0,0.0,0.0,0.02451835157619922,-0.10726438824367089,0.05562398442640985,-0.04245659672688986,-0.002088830381226508,0.013110001266856387,0.27791764194833574
2461,4.0,299.28317000000004,-22.617553,0.0,0.0,0.0,0.0,0.0,0.024528318385783038,-0.06572669283371954,0.08953628889004372,-0.016934425616547684,-0.006541571827202873,0.014046820898563286,0.3083987684790887
2462,4.0,300.12692999999996,-20.549818,0.0,0.0,0.0,0.0,0.0,0.024538285195366855,-0.09549556736567871,0.07523546645641244,0.026506733060260874,0.015671178345874885,-0.015555653648973483,0.25440061375238576
2463,4.0,299.90844,306.59943,0.0,0.0,0.0,0.0,0.0,0.0245482520049507,-0.07507474168580013,0.03631158748142467,-0.05443541672785736,0.034272127812645665,0.02083582151008548,0.2879488382033377
2464,4.0,301.06765,310.7078,0.0,0.0,0.0,0.0,0.0,0.024558218814534516,-0.08561011700506073,0.034203639198636365,-0.043040934006559464,0.01102219639605609,0.026528586838417675,0.24801544599471875
2465,4.0,300.54367,0.22047231,0.0,0.0,0.0,0.0,0.0,0.024568185624118305,-0.05424061432988186,0.07878464242968883,-0.024611046487921177,0.004296487134805266,0.0003036608008789877,0.3170884823966967
2466,4.0,300.27705,79.007231,0.0,0.0,0.0,0.0,0.0,0.02457815243370215,-0.07277234158957092,0.07338009609230163,-0.02462398062544768,-0.02025379545389398,-0.00903603814083753,0.2917175206252777
2467,4.0,300.33495,469.62152000000003,0.0,0.0,0.0,0.0,0.0,0.024588119243285966,-0.12570326025094586,0.048972117083421654,-0.06602207246312124,-0.004776249404779115,0.010937671072714091,0.3221039488016847
2468,4.0,299.67495,707.93692,0.0,0.0,0.0,0.0,0.0,0.02459808605286981,-0.16267359505963386,0.018053404311482283,-0.07057495777345603,-0.011769912148349888,-0.007538321453299403,0.2923140310916487
2469,4.0,298.8677,514.73582,0.0,0.0,0.0,0.0,0.0,0.024608052862453628,-0.1036919824986019,0.02291176020896468,-0.07568661808993764,-0.04092422921640696,-0.012815213375513088,0.3083228659140977
2470,4.0,299.84406,146.47159,0.0,0.0,0.0,0.0,0.0,0.024618019672037417,-0.07487866867219922,0.05944602257211565,-0.02909105986431407,-0.012283554968542488,-0.015877204515208087,0.3013348751419367
2471,4.0,299.48614,-16.822782999999998,0.0,0.0,0.0,0.0,0.0,0.02462798648162126,-0.05232726174204866,0.08065773960429913,-0.023216771793816978,0.015645778192368086,0.030700431342646675,0.27529444889694676
2472,4.0,299.43953,138.55395,0.0,0.0,0.0,0.0,0.0,0.024637953291205078,-0.09608270628187482,0.06889016502392993,-0.014924400863173686,0.01062069199093069,0.03046854703076147,0.28754694268367376
2473,4.0,299.30478,212.12097000000003,0.0,0.0,0.0,0.0,0.0,0.024647920100788895,-0.10999283771544789,0.06282563418090735,-0.01731227367158838,-0.004200800253661706,-0.016166138860723683,0.27071919913040476
2474,4.0,300.50301,120.06992,0.0,0.0,0.0,0.0,0.0,0.02465788691037274,-0.09856961719481382,0.05358890301131295,0.008482455838803213,-0.02439994900183748,-0.03006694535362647,0.28008944221267573
2475,4.0,301.19645,66.990791,0.0,0.0,0.0,0.0,0.0,0.02466785371995653,-0.04612606676528836,0.04599238057359455,-0.02022984222152998,0.016022315101779386,-0.0023954302356105576,0.2309342075314318
2476,4.0,300.58537,314.84193999999997,0.0,0.0,0.0,0.0,0.0,0.024677820529540345,-0.08159844505013952,0.028673328258837172,-0.042778972378705864,-0.0017474026891052185,-0.004339032493254165,0.28639738004772075
2477,4.0,300.25336,655.42495,0.0,0.0,0.0,0.0,0.0,0.02468778733912419,-0.0940533770875956,0.007440910729760712,-0.1126203472122629,-0.016354412888304883,-0.00893012979533519,0.2943313208482397
2478,4.0,299.89268,516.91951,0.0,0.0,0.0,0.0,0.0,0.024697754148708007,-0.10837362352564389,0.03544002723565836,-0.08419702625659951,-0.0074145253931816825,-0.012580191028068188,0.32690206292772167
2479,4.0,299.75172000000003,11.25511,0.0,0.0,0.0,0.0,0.0,0.02470772095829185,-0.08567845059180472,0.09378970610682331,-0.011532527914921889,0.01211045740095909,0.033293167109279764,0.3094110458589927
2480,4.0,299.88853,-60.404614,0.0,0.0,0.0,0.0,0.0,0.02471768776787564,-0.07314682565427963,0.08907544247956173,0.0024328771222062776,0.0024063214582854377,0.01915460654666248,0.28611991164033673
2481,4.0,299.62739,235.37883,0.0,0.0,0.0,0.0,0.0,0.024727654577459457,-0.10037565241155559,0.07558991755339403,-0.04676355306570336,-0.017090665742217383,-0.01988448504419588,0.3126178709679817
2482,4.0,299.65697,336.91393999999997,0.0,0.0,0.0,0.0,0.0,0.0247376213870433,-0.10230864279957691,0.06979286953801994,-0.06989765885011183,-0.028064734785023675,-0.007195999871939893,0.27786588513322774
2483,4.0,299.8685,169.29546000000002,0.0,0.0,0.0,0.0,0.0,0.02474758819662712,-0.07562373781523184,0.06884318365654322,-0.04468103837367516,0.015046203657694686,0.017796709557648484,0.2917701994979767
2484,4.0,300.11054,171.7225,0.0,0.0,0.0,0.0,0.0,0.024757555006210935,-0.09101014931325241,0.05368401477169975,-0.014873215521122087,0.007010624347594753,0.017037710252241083,0.2787297112409807
2485,4.0,300.52996,361.4169,0.0,0.0,0.0,0.0,0.0,0.024767521815794724,-0.12219973524767487,0.04632312161823616,-0.03398510243031847,-0.016955031070581286,-0.015243751963441186,0.3073987108953907
2486,4.0,300.43834,705.24769,0.0,0.0,0.0,0.0,0.0,0.02477748862537857,-0.13945032833267584,-0.005916770506114785,-0.06901059283806522,-0.018483515806680985,-0.02198434151168558,0.30692662754129973
2487,4.0,300.69035,530.44778,0.0,0.0,0.0,0.0,0.0,0.024787455434962385,-0.10568828784562191,0.019730290670478084,-0.07528488469028963,0.016945410260881782,-0.0037514090408602464,0.3063417694510787
2488,4.0,300.9583,-90.577035,0.0,0.0,0.0,0.0,0.0,0.02479742224454623,-0.03975565192907736,0.07088751705830323,-0.0035987079951398265,0.02398044015568518,-0.018055093399398984,0.30610960345566574
2489,4.0,299.29087999999996,-238.95332000000002,0.0,0.0,0.0,0.0,0.0,0.024807389054130047,-0.003165113959347427,0.09720801171043382,-0.02140705645271198,-0.0005885663120094724,-0.02365586575115218,0.30783374982582573
2490,4.0,299.4406,306.8213,0.0,0.0,0.0,0.0,0.0,0.024817355863713836,-0.1283782303824449,0.05877169247156444,-0.02365947292150818,-0.025929678009059973,0.005928638299236045,0.3032883706722317
2491,4.0,298.96737,569.72561,0.0,0.0,0.0,0.0,0.0,0.02482732267329768,-0.1287103535002229,0.03184394284900247,-0.07631594772704763,0.009402752603779431,0.05422524839211536,0.26906764199740874
2492,4.0,299.53357,139.99228,0.0,0.0,0.0,0.0,0.0,0.024837289482881497,-0.0912905581724266,0.042442172098466256,0.006294227953241934,-0.015472935963809884,0.039149274433232566,0.2550871616226427
2493,4.0,299.51375,-12.644548,0.0,0.0,0.0,0.0,0.0,0.024847256292465314,-0.026638297506245273,0.036620340998896266,-0.006138417141639604,0.006242403959652305,0.003148107873644057,0.2674261869679097
2494,4.0,299.7725,299.43576,0.0,0.0,0.0,0.0,0.0,0.02485722310204913,-0.09448552926849571,0.05681830029277964,-0.05335376515335666,-0.015833894152933684,-0.006792212513014183,0.2801509566262467
2495,4.0,299.34881,656.41682,0.0,0.0,0.0,0.0,0.0,0.024867189911632948,-0.12472601092699889,0.003971940594650017,-0.07878025505675583,0.027688825077424272,0.00961948578691933,0.3031427767653627
2496,4.0,300.55422000000004,339.59861,0.0,0.0,0.0,0.0,0.0,0.024877156721216764,-0.12598653458140288,0.05018900917526955,-0.027431971243324776,-4.2823677986367955e-05,-0.016118570821529087,0.3008803716770807
2497,4.0,299.57923,-65.607166,0.0,0.0,0.0,0.0,0.0,0.02488712353080061,-0.06536702552522314,0.1017194682639299,-0.016409505322742088,0.0013514843317811187,-0.023949923089173375,0.3460453666695187
2498,4.0,299.79927999999995,38.057015,0.0,0.0,0.0,0.0,0.0,0.024897090340384426,-0.06259565984546064,0.06317083329122584,-0.01214355521547559,-0.010593442655991391,5.061782573684045e-05,0.3072082604065947
2499,4.0,299.6914,556.89182,0.0,0.0,0.0,0.0,0.0,0.024907057149968242,-0.12204883191028187,0.049600524662940654,-0.09683290044391323,0.007193809123898682,0.02763762048362077,0.3302953463201127
2500,4.0,300.30716,793.8815,0.0,0.0,0.0,0.0,0.0,0.02491702395955206,-0.14699985217775585,0.006838230583530813,-0.10115852591581921,-0.016238275175092985,0.004767434230234125,0.2928200988540937
2501,4.0,300.43492000000003,318.59418,0.0,0.0,0.0,0.0,0.0,0.024926990769135876,-0.0999934747388376,0.04982773789186486,-0.046678939589602654,0.002616262724680027,-0.028425882451916174,0.3111618812367867
2502,4.0,300.72485,79.864172,0.0,0.0,0.0,0.0,0.0,0.02493695757871972,-0.08507713934645993,0.06241109127349514,-0.0016106663106353887,0.015296469339643987,-0.013627533954182888,0.2721934982909068
2503,4.0,299.66073,357.23548,0.0,0.0,0.0,0.0,0.0,0.02494692438830351,-0.11461391678401289,0.03104596989174867,-0.025022720884300277,0.012832842914002988,0.016144206049059088,0.27842775257867974
2504,4.0,299.76918,609.34499,0.0,0.0,0.0,0.0,0.0,0.024956891197887354,-0.12363318016414489,-0.004942269217763995,-0.05665020919394035,-0.009679700403262052,0.0017573696250388782,0.27485999765156977
2505,4.0,299.1917,157.71427,0.0,0.0,0.0,0.0,0.0,0.024966858007471143,-0.056392892304545146,0.06591744425779524,-0.057465750894678036,-0.015019591657068286,-0.013925323092322384,0.29678905015829876
2506,4.0,298.79872,-299.3229,0.0,0.0,0.0,0.0,0.0,0.024976824817054988,-0.007859643021036374,0.08205303160150372,0.016793299129369586,0.012072317653944988,-0.004642695746198395,0.3127616612896727
2507,4.0,299.53416,-38.994178000000005,0.0,0.0,0.0,0.0,0.0,0.024986791626638805,-0.05861497915809804,0.07999429687607243,-0.009526061189274041,0.02771049951031337,0.012472100547150488,0.27975122946179676
2508,4.0,299.9124,549.35881,0.0,0.0,0.0,0.0,0.0,0.02499675843622262,-0.14705988724618085,0.045326110877588865,-0.06525758843492253,-0.0041181919995089055,-0.004920700973485376,0.3101649748608997
2509,4.0,300.46776,653.60274,0.0,0.0,0.0,0.0,0.0,0.025006725245806438,-0.13555563812829988,-0.0035038613009791865,-0.05961941398222804,0.0031866424842221268,-0.009943062646728881,0.2785066644964677
2510,4.0,301.93647000000004,277.36113,0.0,0.0,0.0,0.0,0.0,0.025016692055390255,-0.08610433582083632,0.07238322112716773,-0.07058974311891524,-0.017446785662113683,0.015511521540867986,0.3140262886069817
2511,4.0,301.28258999999997,107.24053,0.0,0.0,0.0,0.0,0.0,0.0250266588649741,-0.05298924741663155,0.03973864047314846,-0.019347836380482784,0.021171713918235482,0.02901147818820997,0.26769910588234475
2512,4.0,300.10269,301.69018,0.0,0.0,0.0,0.0,0.0,0.02503662567455789,-0.09527602140026122,0.04862318110673435,-0.045053439196178255,-0.024479993733237275,0.0010191051657028492,0.3247993764527027
2513,4.0,300.24602999999996,391.50112,0.0,0.0,0.0,0.0,0.0,0.025046592484141733,-0.1182437738097519,0.06366472989346963,-0.06442752078075124,-0.03037511017278997,-0.015456756386213086,0.29634871192984075
2514,4.0,298.37092,157.215,0.0,0.0,0.0,0.0,0.0,0.02505655929372555,-0.1031047939331509,0.06268630418615655,-0.007370944087830544,-0.02016728618685618,-0.014187769053723787,0.3110285577886287
2515,4.0,298.7163,-44.05454,0.0,0.0,0.0,0.0,0.0,0.025066526103309367,-0.06145524989766095,0.08360776964769442,-0.008761040037197331,0.0031947448373217673,0.005142721396972086,0.28368857749538273
2516,4.0,299.61184,176.82461999999998,0.0,0.0,0.0,0.0,0.0,0.025076492912893183,-0.07805728692490442,0.046904851805398454,-0.022597833036482478,-0.006238174552409894,-0.00977850434568824,0.31307266827536673
2517,4.0,300.1489,450.18888,0.0,0.0,0.0,0.0,0.0,0.025086459722477,-0.09149775565887541,0.045780804833463654,-0.09112922646500442,-0.004968771483404565,-0.02255481651673708,0.3090735829131877
2518,4.0,299.98006000000004,672.5810299999999,0.0,0.0,0.0,0.0,0.0,0.025096426532060845,-0.11849369194691689,0.024488954917121677,-0.11044309566238489,0.003818206236477616,0.04265670044938856,0.3151854163238787
2519,4.0,300.58873,361.63448,0.0,0.0,0.0,0.0,0.0,0.02510639334164466,-0.1025781875911789,0.04008964550653996,-0.04743931184889555,0.016067795845767983,0.050330280557211955,0.2981951879845737
2520,4.0,300.66902000000005,113.79018,0.0,0.0,0.0,0.0,0.0,0.02511636015122848,-0.10557885683482189,0.06175570591006364,0.00923377703892784,0.010288184851364792,0.020077214332466783,0.2738300593224227
2521,4.0,300.01433,165.12246000000002,0.0,0.0,0.0,0.0,0.0,0.025126326960812295,-0.08223020243448913,0.050135774028265655,-0.01809867531270018,-0.012846352577586288,-0.007277674517450553,0.27035541194700174
2522,4.0,298.32431,344.55318,0.0,0.0,0.0,0.0,0.0,0.025136293770396112,-0.08537450494605761,0.021909854457084276,-0.04127091273812196,-0.003313932129359637,-0.0008888770750103371,0.27289937897307176
2523,4.0,299.13559,293.23635,0.0,0.0,0.0,0.0,0.0,0.02514626057997993,-0.07512082126059784,0.053329014493163955,-0.06734472152090652,-0.005812359136310184,0.023128531895608376,0.29562684216109775
2524,4.0,299.29814,-80.03461300000001,0.0,0.0,0.0,0.0,0.0,0.025156227389563773,-0.05262029164446846,0.09134220656977392,-0.014393390936267087,-0.008470321662230662,0.0015551466899560286,0.29223715580656173
2525,4.0,299.68979,-126.96878000000001,0.0,0.0,0.0,0.0,0.0,0.025166194199147562,-0.03542494298141967,0.0877090787727121,-0.013688796068478988,0.005951194665012183,-0.01020561307421559,0.30024165934404473
2526,4.0,300.18396,159.87814,0.0,0.0,0.0,0.0,0.0,0.02517616100873138,-0.10641688559502889,0.08363600082198062,-0.025818075603295677,0.027410822687237574,0.012654897957941188,0.3038695303995877
2527,4.0,299.7475,562.4279,0.0,0.0,0.0,0.0,0.0,0.025186127818315224,-0.11476225659865288,-0.004392218801603246,-0.05180956186845565,0.024133735776564275,-0.008605272086074232,0.2819903399302797
2528,4.0,299.72739,397.66001,0.0,0.0,0.0,0.0,0.0,0.02519609462789904,-0.13548058669339288,0.048353177312837045,-0.03375130712874467,-0.004034060121180736,-0.030082731790184468,0.3014661416923917
2529,4.0,301.25858999999997,118.85703000000001,0.0,0.0,0.0,0.0,0.0,0.025206061437482857,-0.05573447124381404,0.07365556535723833,-0.054050665399885345,-0.009168389983474641,-0.027142378285244177,0.3194612912158747
2530,4.0,300.72095,97.396085,0.0,0.0,0.0,0.0,0.0,0.025216028247066674,-0.06198465382315904,0.05762743521313505,-0.025248758743108474,0.013071043827011587,0.007998609968276341,0.32012308538618867
2531,4.0,300.8008,405.33387999999997,0.0,0.0,0.0,0.0,0.0,0.02522599505665049,-0.12329567668833588,0.057902659271547544,-0.05781836496922835,-0.02437398548127508,0.034451758816873866,0.3203875943247937
2532,4.0,300.71353,461.4792,0.0,0.0,0.0,0.0,0.0,0.025235961866234308,-0.15357524750919685,0.03141130532130447,-0.01811421046323338,-0.02257728635095468,-0.016562459478337486,0.28444803884283576
2533,4.0,301.38241,81.56436,0.0,0.0,0.0,0.0,0.0,0.025245928675818152,-0.08028805834506442,0.08249455837232902,-0.027000028805195374,-0.0015353260994498887,-0.020345978921491783,0.2932065828397367
2534,4.0,300.57146,-114.07121000000001,0.0,0.0,0.0,0.0,0.0,0.02525589548540197,-0.05348524347308255,0.07316497296357063,0.014995069991398187,0.012548258451166687,0.006046314024774734,0.26642440685904173
2535,4.0,299.7416,358.08558,0.0,0.0,0.0,0.0,0.0,0.025265862294985758,-0.07857145460864882,0.04259704838950136,-0.07287466971716992,0.036583239833234665,0.023311087139625177,0.29963984957965073
2536,4.0,300.17809,661.2719099999999,0.0,0.0,0.0,0.0,0.0,0.025275829104569603,-0.1256175798224899,0.014315114326291786,-0.08970768622395932,-0.02008926390265598,-0.01171007162394409,0.30512430892592474
2537,4.0,299.94428,253.08405,0.0,0.0,0.0,0.0,0.0,0.02528579591415342,-0.09184745562613811,0.05415910241233725,-0.03924287847747056,0.002098141035070398,-0.004858431080639816,0.3294210736038287
2538,4.0,299.97812000000005,108.88148000000001,0.0,0.0,0.0,0.0,0.0,0.025295762723737264,-0.08858169583833272,0.04993153523210886,0.005552911179304665,0.010701791515684591,-0.0012356446154236289,0.30412465664226673
2539,4.0,299.83182999999997,338.47292999999996,0.0,0.0,0.0,0.0,0.0,0.02530572953332108,-0.08669471105785181,0.008100947417776262,-0.02429355470158718,0.027670351501601072,-0.0013429627971151086,0.2862872296293497
2540,4.0,300.07696,575.41804,0.0,0.0,0.0,0.0,0.0,0.02531569634290487,-0.1258252454304849,0.011841270286642388,-0.06092874589394903,0.0001836178799266738,-0.049706792306928455,0.27400586834727375
2541,4.0,300.95011,417.21542999999997,0.0,0.0,0.0,0.0,0.0,0.025325663152488714,-0.08942605943816492,0.031092649310605572,-0.06848966272315343,-0.004323522167348415,-0.037809498409006964,0.2805317664113297
2542,4.0,301.13737000000003,-22.917412,0.0,0.0,0.0,0.0,0.0,0.02533562996207253,-0.05764899514876285,0.07197902451652663,-0.007363707759591373,0.02231223329704598,0.025936793051262178,0.30183463035625874
2543,4.0,300.4743,-235.95289,0.0,0.0,0.0,0.0,0.0,0.025345596771656348,-0.04027983255030996,0.07837680115843802,0.03362681922145867,0.007500286982970693,0.024751255983758772,0.2788224540226337
2544,4.0,300.9853,237.27388,0.0,0.0,0.0,0.0,0.0,0.025355563581240192,-0.10559863547677391,0.056393592460364246,-0.02292029684105718,-0.013689186169767487,0.005445311111435365,0.3115421134693127
2545,4.0,300.22335,656.8543400000001,0.0,0.0,0.0,0.0,0.0,0.02536553039082398,-0.12517666404147487,0.01076784528970359,-0.08525849794210862,-0.05191267121188175,-0.007865370822526663,0.28469216118942875
2546,4.0,300.22565,410.37295,0.0,0.0,0.0,0.0,0.0,0.0253754972004078,-0.0966208515159856,0.03651214615321826,-0.06463442442467104,0.008584265283676023,0.026395112415994775,0.3165785440188697
2547,4.0,299.71506,143.99373,0.0,0.0,0.0,0.0,0.0,0.025385464009991643,-0.04785966169263085,0.04986021661057025,-0.04577105432775136,0.014279223994499686,0.025983764286147876,0.2974155629601307
2548,4.0,299.87876,340.7798,0.0,0.0,0.0,0.0,0.0,0.02539543081957546,-0.1014733295496379,0.05673682991848915,-0.05885204624424474,0.014001941011883987,-0.024000200559135376,0.34658332141261067
2549,4.0,300.46527000000003,563.5871,0.0,0.0,0.0,0.0,0.0,0.025405397629159276,-0.15612468608580685,0.04766203131362626,-0.06285374883143204,-0.030674403987327972,-0.016591359397689683,0.3255355533128577
2550,4.0,299.93716,465.19212999999996,0.0,0.0,0.0,0.0,0.0,0.025415364438743093,-0.12072621628974987,0.03325367163363187,-0.05393425106939615,0.012467666564712886,0.0013855414914922986,0.31331810784708974
2551,4.0,299.72322,95.71305100000001,0.0,0.0,0.0,0.0,0.0,0.02542533124832691,-0.08274951134924091,0.059925045676141535,-0.006269911673367104,0.02873000541643077,0.014596825211844485,0.28678408694838575
2552,4.0,300.74854,86.559849,0.0,0.0,0.0,0.0,0.0,0.025435298057910727,-0.06510320863643644,0.06507169149207594,-0.026280515856184974,0.01191835024824959,-0.02310240726828008,0.2804605855918047
2553,4.0,300.00211,284.32247,0.0,0.0,0.0,0.0,0.0,0.02544526486749457,-0.08100842141090872,0.038451946595161664,-0.04387045551892686,-0.00018229210296582984,-0.02061511030705298,0.28573194830954773
2554,4.0,300.57589,556.36742,0.0,0.0,0.0,0.0,0.0,0.025455231677078388,-0.11350641415971088,0.03035600230240417,-0.08597139031496562,-0.003076965456297847,0.02135002668408358,0.3000168799418607
2555,4.0,300.68422000000004,350.98046,0.0,0.0,0.0,0.0,0.0,0.025465198486662177,-0.10735056516467589,0.031198054678758268,-0.030536781318995673,-0.02033327276523778,0.03737382518400936,0.2943556793806437
2556,4.0,299.62183999999996,57.179627,0.0,0.0,0.0,0.0,0.0,0.025475165296246022,-0.050220403716367955,0.03451589957470407,-0.0016766751976749583,-0.0008556016580163092,0.016450592614297085,0.2869667050139087
2557,4.0,299.443,245.9645,0.0,0.0,0.0,0.0,0.0,0.02548513210582984,-0.07923785197416712,0.04714958108880136,-0.04267879538106916,-0.028451977694991575,0.004069043188833296,0.2915790397341107
2558,4.0,299.95709,387.7074,0.0,0.0,0.0,0.0,0.0,0.025495098915413683,-0.07892829697586642,0.02021357955742498,-0.059138649101280236,0.019104514501468783,0.022968291458543875,0.3107698142430927
2559,4.0,299.03202999999996,80.181685,0.0,0.0,0.0,0.0,0.0,0.0255050657249975,-0.04066675425999616,0.05126356394606985,-0.03497004029602427,-0.0009737423538933882,-0.0007728180204037003,0.2735004186673897
2560,4.0,300.36088,36.591374,0.0,0.0,0.0,0.0,0.0,0.02551503253458129,-0.0959830804922925,0.08526531204903112,-0.0004050947859272426,0.0035585454969510964,-0.03427415633934587,0.32646967871254867
2561,4.0,299.5004,164.83884,0.0,0.0,0.0,0.0,0.0,0.025524999344165133,-0.10415904013219691,0.06236088979729064,-0.008308741911183982,-0.003913934863525296,-0.05655147607769615,0.28750582499461574
2562,4.0,299.20858,358.27494,0.0,0.0,0.0,0.0,0.0,0.02553496615374895,-0.13488943632005088,0.06276832374200124,-0.036785527109698866,0.005060085177116526,-0.0003370483643940837,0.3169632244193347
2563,4.0,299.65099,641.49466,0.0,0.0,0.0,0.0,0.0,0.025544932963332767,-0.13235205541963085,0.03772121392779396,-0.1003675180397528,-0.006120580190854234,0.014365538717518288,0.2847681954769327
2564,4.0,300.1529,465.0256,0.0,0.0,0.0,0.0,0.0,0.02555489977291661,-0.1093470123667099,0.04438162296912516,-0.07639077827343284,-0.0031412428002415274,-0.015777726660140382,0.3167974263054717
2565,4.0,300.91025,95.527902,0.0,0.0,0.0,0.0,0.0,0.0255648665825004,-0.04831796180561155,0.06733541684523824,-0.04805555232121375,-0.0074944735618469515,0.02172017201186408,0.30294148450049674
2566,4.0,300.90153,-26.161209,0.0,0.0,0.0,0.0,0.0,0.025574833392084217,-0.08219113455038343,0.08169720045788592,0.008446287977808721,0.015904354551637585,0.022782512052708877,0.3239734357661887
2567,4.0,300.57243,227.72807000000003,0.0,0.0,0.0,0.0,0.0,0.025584800201668062,-0.09933511042011209,0.04599103599071186,-0.015879573493941885,-0.013798076105014087,0.03718719160834006,0.31286353345472667
2568,4.0,300.66411,415.90396,0.0,0.0,0.0,0.0,0.0,0.02559476701125188,-0.1100190910255389,0.027274419972025673,-0.04367974462485516,-0.027063709547480178,-0.01909533040256238,0.3198906052832447
2569,4.0,299.96274,129.62937,0.0,0.0,0.0,0.0,0.0,0.025604733820835696,-0.07038369263157963,0.04063789284414776,-0.00965829225249923,0.0012664666702155289,-0.013278605070246289,0.3037081095261567
2570,4.0,299.18528,176.34993,0.0,0.0,0.0,0.0,0.0,0.025614700630419512,-0.045200047366397364,0.06211716261823664,-0.07052309152733724,0.0015141319471081887,0.004475993002646115,0.29139614809106074
2571,4.0,300.11784,575.63247,0.0,0.0,0.0,0.0,0.0,0.02562466744000333,-0.1199859458991909,0.024132647545956874,-0.07912460303699033,0.024883105153021275,0.0017136542666995084,0.27675651812874175
2572,4.0,299.98671,538.9413,0.0,0.0,0.0,0.0,0.0,0.025634634249587146,-0.14858940853713284,0.04105603481591516,-0.05629132816752154,0.01161390304370299,-0.02615294564209477,0.2781368079449657
2573,4.0,299.52747,237.20668999999998,0.0,0.0,0.0,0.0,0.0,0.02564460105917099,-0.12649348387143486,0.06887082613252134,-0.014482257023037487,0.015028223534670183,-0.019915396264996582,0.27694371608471674
2574,4.0,300.92146,-115.59095,0.0,0.0,0.0,0.0,0.0,0.025654567868754807,-0.07424720006412813,0.08689060067318462,0.02249336188492198,0.03015759374732277,0.01989813960254348,0.29307450568920174
2575,4.0,300.65117000000004,-229.8654,0.0,0.0,0.0,0.0,0.0,0.025664534678338596,-0.028419201080756767,0.1052663907689839,-0.006973844686189883,0.02146642277607098,0.036359184904872166,0.27959064958594876
2576,4.0,301.29871,290.88811,0.0,0.0,0.0,0.0,0.0,0.02567450148792244,-0.05649576150769754,0.04169820841129276,-0.07362516684098823,-0.016057225620724785,-0.007860314299227624,0.3255867021779057
2577,4.0,301.50119,476.91427999999996,0.0,0.0,0.0,0.0,0.0,0.025684468297506258,-0.1046558366562269,0.027636878784547576,-0.06795107267224873,-0.00957304174606066,0.001966330065336668,0.3263659320348097
2578,4.0,299.94798,239.18303999999998,0.0,0.0,0.0,0.0,0.0,0.025694435107090102,-0.10988413624471989,0.07971333376909352,-0.04253486928386476,-0.012391086135404988,0.01232462300834559,0.34207028520220867
2579,4.0,300.11363,379.69588,0.0,0.0,0.0,0.0,0.0,0.02570440191667392,-0.11437372584780789,0.014932932429015685,-0.01597727410833418,0.026007942460034073,0.009117301710782622,0.2950567876548377
2580,4.0,300.51026,661.15661,0.0,0.0,0.0,0.0,0.0,0.025714368726257708,-0.18252348875866584,0.03481219518219617,-0.05326380779622855,-0.01037614205279549,-0.02026436061268668,0.34294732409126566
2581,4.0,300.0759,568.2726299999999,0.0,0.0,0.0,0.0,0.0,0.025724335535841553,-0.13210724406296986,0.04412316819986766,-0.08475661591582671,-0.01957393908729738,-0.01009612248430971,0.2881991616405427
2582,4.0,300.01287,79.139924,0.0,0.0,0.0,0.0,0.0,0.02573430234542537,-0.05965432652767365,0.08164052330029233,-0.04604275734206636,0.02092010973290408,0.02273507877577758,0.3086288370467947
2583,4.0,299.10672,-248.65067000000002,0.0,0.0,0.0,0.0,0.0,0.025744269155009186,-0.029056886991441475,0.12578813007932188,-0.02114765125486068,-0.008405862135919002,0.05072647857156365,0.3056730649150827
2584,4.0,298.7226,-99.907266,0.0,0.0,0.0,0.0,0.0,0.02575423596459303,-0.052865195206888545,0.08409558573608812,-0.0008610762787041123,0.008421192711257013,-0.01161703196001179,0.3127191149179737
2585,4.0,299.96814,230.06367999999998,0.0,0.0,0.0,0.0,0.0,0.02576420277417682,-0.1172878837979129,0.05854186404413215,-0.011187593262879488,-0.023321011924354682,-0.039053052150736164,0.3004447045315837
2586,4.0,299.41632000000004,323.87079,0.0,0.0,0.0,0.0,0.0,0.025774169583760637,-0.12426165867117088,0.046800431316342955,-0.02098740372504548,0.016762801314609683,-0.022749869187487275,0.30339359669511673
2587,4.0,299.78935,170.61685,0.0,0.0,0.0,0.0,0.0,0.02578413639334448,-0.061002157890194246,0.03330056282175967,-0.024161666015570776,0.01818904202286868,-0.011046424219197189,0.28425378866616474
2588,4.0,300.5247,331.70432999999997,0.0,0.0,0.0,0.0,0.0,0.025794103202928298,-0.06371615638904503,0.017077586709926585,-0.05419126499701145,0.01949341914160068,0.0034924481531777964,0.2951484766563867
2589,4.0,301.20228,551.01004,0.0,0.0,0.0,0.0,0.0,0.025804070012512142,-0.1036515538196119,0.015092380504501984,-0.07893411708444083,-0.0030127893360391567,0.010429180629279989,0.3297214313309717
2590,4.0,300.3698,415.19158,0.0,0.0,0.0,0.0,0.0,0.02581403682209593,-0.10959917991909689,0.011896740663366889,-0.028505427651016678,-0.0008825092135643782,0.025032894928554376,0.2964440384992487
2591,4.0,300.14225,120.90868,0.0,0.0,0.0,0.0,0.0,0.02582400363167975,-0.11347463863657489,0.08508759507424182,-0.008366176675877352,-0.008707738015686832,0.026832425079654176,0.3185116124271487
2592,4.0,299.26185,-38.888798,0.0,0.0,0.0,0.0,0.0,0.025833970441263565,-0.08190243122589062,0.07390095122670602,0.01982270313259848,-0.0025515877813971073,-0.02052928295733248,0.28432757353844673
2593,4.0,299.26181,149.5752,0.0,0.0,0.0,0.0,0.0,0.02584393725084741,-0.056778470444598744,0.06546474741786752,-0.054153402880524754,-0.0036505497206062065,-0.030257085787891873,0.2996417240923357
2594,4.0,299.10717,406.50584,0.0,0.0,0.0,0.0,0.0,0.025853904060431226,-0.09840328509814811,0.05942995749178014,-0.08459429628955702,0.00014602337292388487,0.00039529274631485664,0.28603629824208476
2595,4.0,299.72545,394.56337,0.0,0.0,0.0,0.0,0.0,0.025863870870015016,-0.08839021284768482,0.027886903312973072,-0.059434102697939244,-0.01168230350495359,0.006184649210577354,0.3146663992251557
2596,4.0,298.49621,295.10965,0.0,0.0,0.0,0.0,0.0,0.02587383767959886,-0.11893572230304189,0.04524512179709586,-0.016015366232593583,-0.00890711037426335,0.005795886932084505,0.3301678794575327
2597,4.0,299.49916,497.75513,0.0,0.0,0.0,0.0,0.0,0.025883804489182677,-0.14594662936131086,0.02915143639802277,-0.03450993761111567,0.018033841491801584,-0.009774655515183391,0.3410664279306357
2598,4.0,299.998,724.6265900000001,0.0,0.0,0.0,0.0,0.0,0.02589377129876652,-0.17441751835616884,0.00899277134831743,-0.05484363999439585,0.030530664328141974,-0.007984048145789202,0.3309129526535657
2599,4.0,299.77192,662.7939700000001,0.0,0.0,0.0,0.0,0.0,0.025903738108350338,-0.1023426880029369,0.02041500151830378,-0.11954513144318589,0.0024407572695589875,-0.007037361180633472,0.3329028238624507
2600,4.0,299.80972,171.24713,0.0,0.0,0.0,0.0,0.0,0.025913704917934127,-0.058988287852690745,0.049967057754114655,-0.04303362036733766,-0.008027878305364904,-0.030757344587513568,0.3177719094566457
2601,4.0,300.39819,-119.62886,0.0,0.0,0.0,0.0,0.0,0.025923671727517972,-0.026260412974200974,0.10599252632064791,-0.043367923999330864,-0.022039180633597777,0.006258811518521604,0.3209660892043867
2602,4.0,300.15599,43.515767,0.0,0.0,0.0,0.0,0.0,0.02593363853710179,-0.08097752336235933,0.0913405569986111,-0.023590740114224774,-0.01823908644530768,0.027498609662651476,0.3074443071498907
2603,4.0,300.88511,287.36357999999996,0.0,0.0,0.0,0.0,0.0,0.025943605346685605,-0.12804933953248587,0.06599009125021493,-0.025292103555886274,-0.009786579138385161,0.03286732950300287,0.31144378767960873
2604,4.0,301.1772,218.50172,0.0,0.0,0.0,0.0,0.0,0.025953572156269422,-0.0995258881886904,0.07388711732309072,-0.04078029703970196,-0.02275939475167738,-0.005910334746779625,0.27992430271137775
2605,4.0,301.08216,195.40511,0.0,0.0,0.0,0.0,0.0,0.02596353896585324,-0.057020533866988535,0.046063386100852255,-0.048441126408266956,0.036119444864961665,0.0021375620368359483,0.3000480981774417
2606,4.0,299.59772000000004,366.55512999999996,0.0,0.0,0.0,0.0,0.0,0.025973505775437056,-0.08069216072344623,0.013049388645874387,-0.04378083354758187,0.0034445712753527168,-0.004184522188155186,0.27601052287511774
2607,4.0,299.29626,579.37888,0.0,0.0,0.0,0.0,0.0,0.0259834725850209,-0.1303433884213909,0.02816570718398887,-0.07393903220521433,0.02056665972702128,0.007631879495982863,0.3353428516932627
2608,4.0,300.01526,538.55924,0.0,0.0,0.0,0.0,0.0,0.025993439394604717,-0.14683912031439286,0.00866814151900396,-0.025537578591362773,-0.03722427453549986,-0.010679321681466989,0.3196340402254237
2609,4.0,299.88132,253.54501000000002,0.0,0.0,0.0,0.0,0.0,0.026003406204188534,-0.12733893975487487,0.06762075009989844,-0.017353160339623582,-0.0050162988912701555,0.02796953183212787,0.35820333435441665
2610,4.0,300.89171,53.026328,0.0,0.0,0.0,0.0,0.0,0.02601337301377235,-0.06628661179922923,0.06075590569189104,-0.010587974145201691,0.008167461713965712,0.006981990710368833,0.3089293974239577
2611,4.0,300.20504,134.06763999999998,0.0,0.0,0.0,0.0,0.0,0.026023339823356167,-0.056202092244464645,0.06920410131566303,-0.053755222948977444,0.013912191371026386,-0.0013217851607500385,0.30558642189903173
2612,4.0,299.93587,308.97102,0.0,0.0,0.0,0.0,0.0,0.026033306632939984,-0.07758768299380812,0.059115942166539245,-0.07544773323311152,0.0077047748360020716,-0.042461488698372664,0.28829905796790173
2613,4.0,300.41389,172.7887,0.0,0.0,0.0,0.0,0.0,0.0260432734425238,-0.08671814651941472,0.07713849199922643,-0.04294379574597266,0.015521012654554684,-0.02808220422999777,0.28009721384094277
2614,4.0,300.8137,-35.849077,0.0,0.0,0.0,0.0,0.0,0.026053240252107646,-0.1037386426657069,0.08332308082009782,0.03131278904058168,0.006567077156070055,0.015964602402583586,0.2928493412519797
2615,4.0,300.3002,178.52723,0.0,0.0,0.0,0.0,0.0,0.026063207061691435,-0.13990485206253386,0.08353984744049102,0.0020971802713255776,-0.0003163147038253307,-0.0003901956018193076,0.2892092402677297
2616,4.0,299.94145,524.59097,0.0,0.0,0.0,0.0,0.0,0.02607317387127528,-0.13381244265625988,0.015437096294522785,-0.04108720846849176,-0.016166920076550784,0.007721915987943773,0.3140375964780977
2617,4.0,299.97542999999996,484.47424,0.0,0.0,0.0,0.0,0.0,0.026083140680859096,-0.08309421599351063,0.030434341733885675,-0.094608196365352,-0.04343870863806676,0.01966649948393238,0.3038686286069987
2618,4.0,300.92599,248.79113999999998,0.0,0.0,0.0,0.0,0.0,0.026093107490442913,-0.06918249679703084,0.03294018623819327,-0.03938398571289676,-0.006898500523328993,0.015326479781105786,0.3208137875818557
2619,4.0,301.13722,95.306937,0.0,0.0,0.0,0.0,0.0,0.02610307430002673,-0.058295043412522854,0.05518839530117055,-0.02586427980785568,-0.015395916797208684,0.002034464548436018,0.3267750722926887
2620,4.0,300.40562,19.423007000000002,0.0,0.0,0.0,0.0,0.0,0.026113041109610546,-0.11201766605278289,0.1026164479149549,0.0034971052532874166,0.01170334870953059,-0.02068084693379068,0.3396839292291937
2621,4.0,299.37788,152.91652,0.0,0.0,0.0,0.0,0.0,0.02612300791919439,-0.09647860234769672,0.05311814802810304,-0.0031223490296018565,0.01868240058930938,0.005756256998148334,0.3248312938308527
2622,4.0,299.32993999999997,289.85676,0.0,0.0,0.0,0.0,0.0,0.02613297472877818,-0.09752055782302971,0.06726737304802284,-0.05785603254169585,0.016021428507941884,0.029237078322974973,0.28173777721035376
2623,4.0,299.31674,120.74264,0.0,0.0,0.0,0.0,0.0,0.026142941538362025,-0.032782540734634866,0.06310566813754453,-0.06702587603243894,0.01311060516391599,-0.0015683061743047685,0.2875177914782967
2624,4.0,299.60597,172.51831,0.0,0.0,0.0,0.0,0.0,0.02615290834794584,-0.07356064712762063,0.05233065410338345,-0.03121126442031197,-0.010715228225260689,-0.025305752034733273,0.27529013245152073
2625,4.0,299.55947000000003,448.8897,0.0,0.0,0.0,0.0,0.0,0.026162875157529658,-0.1238842838039269,0.04178248751486046,-0.05434946576162465,0.001027918617722669,-0.027556914099905676,0.3091995197681167
2626,4.0,300.32889,481.76029000000005,0.0,0.0,0.0,0.0,0.0,0.026172841967113475,-0.16819920249246886,0.03233770164923267,-0.01058159168282179,-0.0029389351574503173,-0.020681998999154377,0.3086139422703247
2627,4.0,300.12615,172.29215,0.0,0.0,0.0,0.0,0.0,0.02618280877669729,-0.10880036393775991,0.07270454198562963,-0.016276694579134682,-0.009428604160205781,-0.009267696903250472,0.3293652536558197
2628,4.0,300.7624,106.48143,0.0,0.0,0.0,0.0,0.0,0.026192775586281136,-0.05990384645754935,0.057921979924454345,-0.030385829345597873,0.013487914169903487,0.009099028657154212,0.3294446316686537
2629,4.0,299.98573999999996,129.65104,0.0,0.0,0.0,0.0,0.0,0.026202742395864953,-0.02438401260426468,0.05296700556368645,-0.06799367173295294,0.025254479553173077,0.03943506871668826,0.3220385131102267
2630,4.0,299.2832,262.33531,0.0,0.0,0.0,0.0,0.0,0.02621270920544877,-0.07142091014944503,0.04201286715034716,-0.05033534072821136,0.011218526775182388,0.04242550008132086,0.3151172448571507
2631,4.0,300.04472000000004,361.35334,0.0,0.0,0.0,0.0,0.0,0.026222676015032587,-0.10005942414809631,0.031554846383470864,-0.04133781460247467,-0.008086892017689102,-0.009723960991480231,0.3140948552412487
2632,4.0,301.07617999999997,258.02002000000005,0.0,0.0,0.0,0.0,0.0,0.026232642824616403,-0.14758519662802486,0.07551575271232452,-0.006362196060674863,-0.029804306874706074,-0.02921083818513527,0.3091489585881267
2633,4.0,299.27454,143.03446,0.0,0.0,0.0,0.0,0.0,0.02624260963420022,-0.09147504467113401,0.06957671492068714,-0.021580573505836777,-0.005138663228996575,-0.04227123376684596,0.29833820823618873
2634,4.0,300.05082000000004,356.75878,0.0,0.0,0.0,0.0,0.0,0.026252576443784065,-0.10755397512225091,0.053659868008566654,-0.05455165475282915,-0.007504443638855923,-0.01154988184938459,0.2830015432650777
2635,4.0,299.99487999999997,500.75247,0.0,0.0,0.0,0.0,0.0,0.026262543253367854,-0.06962931070687793,0.034209603188724964,-0.11679653855942089,-0.026288441498467176,-0.017770235359035682,0.2930157169183997
2636,4.0,300.29168,217.6429,0.0,0.0,0.0,0.0,0.0,0.02627251006295167,-0.09405228581723792,0.08007096951113943,-0.05217668973743835,-0.01029779248881299,0.010500246951543689,0.3144081319071667
2637,4.0,301.63189,197.73506,0.0,0.0,0.0,0.0,0.0,0.026282476872535515,-0.09580898689986081,0.056841462176815544,-0.02113899607250648,0.024023567119691478,0.03323059283610417,0.3328684037565537
2638,4.0,302.37176,236.61695,0.0,0.0,0.0,0.0,0.0,0.026292443682119332,-0.13831010786264486,0.06991698152951885,-0.0035325168244072667,0.033804566593750966,0.012935380784372686,0.3566135550800177
2639,4.0,299.58148,270.69511,0.0,0.0,0.0,0.0,0.0,0.02630241049170315,-0.1015757691347479,0.038487262414147065,-0.019196049489002585,0.03129453128702977,-0.03124584867272517,0.34088091196982667
2640,4.0,300.57427,497.3975,0.0,0.0,0.0,0.0,0.0,0.026312377301286966,-0.08608300791948142,0.023851338920693875,-0.08896475199888741,-0.010308638317883392,-0.04425805002667946,0.3260688775029927
2641,4.0,301.08738,421.87473,0.0,0.0,0.0,0.0,0.0,0.026322344110870782,-0.053591482746067544,0.009736185651286712,-0.08438408742381102,-0.0022445594235457676,0.0005326989337632915,0.2917292135314317
2642,4.0,300.66381,160.14253,0.0,0.0,0.0,0.0,0.0,0.0263323109204546,-0.06726153875394704,0.05073439408134486,-0.03215218670167377,-0.02326070733140308,0.035224694364156664,0.28453425629384477
2643,4.0,299.69674,197.94144,0.0,0.0,0.0,0.0,0.0,0.026342277730038444,-0.12404023312681789,0.06925738408542163,-0.005386401966521485,-0.02458756441685368,0.019315628199554083,0.27619381981820773
2644,4.0,299.42056,322.55523999999997,0.0,0.0,0.0,0.0,0.0,0.02635224453962226,-0.14839972811841287,0.055060617370809854,-0.004709630034554295,-0.033764616168808166,0.02102655672215958,0.3090375720046337
2645,4.0,299.25552000000005,211.55495,0.0,0.0,0.0,0.0,0.0,0.02636221134920605,-0.12235363780536387,0.08295527610004833,-0.024909057527832575,-0.0018370666090043583,0.023601474485784178,0.2997401613395507
2646,4.0,301.17021,174.94203000000002,0.0,0.0,0.0,0.0,0.0,0.026372178158789894,-0.05552034515318144,0.057380927675806645,-0.05503859032688594,0.030886585651018674,0.008539706090653371,0.3214003681972467
2647,4.0,299.94836000000004,94.815297,0.0,0.0,0.0,0.0,0.0,0.02638214496837371,-0.04618316036867305,0.04097329889224976,-0.023611621172285577,0.014961070384292686,-0.03504092119351967,0.3107514541512807
2648,4.0,299.92417,421.2427,0.0,0.0,0.0,0.0,0.0,0.026392111777957555,-0.0981638054635133,0.04712843759896466,-0.07701189450523223,-0.017707558747599984,-0.012590556576591187,0.3505412890857316
2649,4.0,300.13682,565.57846,0.0,0.0,0.0,0.0,0.0,0.026402078587541372,-0.14494885159033785,0.01359532172025379,-0.04056820150226976,-0.0031466193079221472,0.02128580182649508,0.32230384278141266
2650,4.0,300.70732999999996,398.34969,0.0,0.0,0.0,0.0,0.0,0.02641204539712516,-0.14169950037465187,0.042455901637321256,-0.021844761244160082,-0.007499132485806753,0.04733838200643455,0.3374828359044627
2651,4.0,301.39676000000003,116.44226,0.0,0.0,0.0,0.0,0.0,0.026422012206709006,-0.08190678009531982,0.08176438197926622,-0.035253142373964264,-0.002957342872017017,-0.021229908924478878,0.30093519863999174
2652,4.0,301.31726000000003,65.52477900000001,0.0,0.0,0.0,0.0,0.0,0.026431979016292823,-0.03136520750800497,0.03987056867591876,-0.028423257120907073,0.001889992005452688,-0.02891195676338797,0.3106824518194707
2653,4.0,300.55287000000004,118.48263999999999,0.0,0.0,0.0,0.0,0.0,0.02644194582587664,-0.04692527183466375,0.06535319567460823,-0.05444368890167375,-0.004443242732913915,-0.008091749842643534,0.27626204194744075
2654,4.0,300.38678,241.93837000000002,0.0,0.0,0.0,0.0,0.0,0.026451912635460484,-0.101227901123666,0.07061432051334084,-0.042929644695076055,0.01076202518112919,0.014821818409799587,0.3119945904339687
2655,4.0,299.68183999999997,149.27395,0.0,0.0,0.0,0.0,0.0,0.026461879445044273,-0.1273719311781309,0.07976604810554602,0.002230333594791788,-0.03941171532838346,0.013688370503436988,0.28681026933096976
2656,4.0,299.14793,61.740963,0.0,0.0,0.0,0.0,0.0,0.02647184625462809,-0.1177944176554039,0.1004682614441954,-0.0014415577060456688,-0.017927200971776983,0.007941353130300532,0.3340430240674797
2657,4.0,299.07437999999996,322.972,0.0,0.0,0.0,0.0,0.0,0.026481813064211934,-0.1068532721480969,0.04208189683990986,-0.03340404402797247,-0.0027478019407369374,0.018603804805552585,0.2918479968406547
2658,4.0,299.57964,693.69523,0.0,0.0,0.0,0.0,0.0,0.02649177987379575,-0.12086612586355788,0.014244025712525884,-0.10424393022557489,0.007679956288052674,0.03438098532388907,0.3446334735826757
2659,4.0,299.99099,550.3371400000001,0.0,0.0,0.0,0.0,0.0,0.026501746683379568,-0.09310424241417331,0.01904441458503738,-0.0932289208124781,0.007946589910792362,-0.029343607385488572,0.3268187535044997
2660,4.0,300.12104,135.40993999999998,0.0,0.0,0.0,0.0,0.0,0.026511713492963385,-0.06644240913460522,0.056819967089194144,-0.03153879751513697,0.0019259355328750383,-0.024074453552963577,0.3315393539978867
2661,4.0,300.87759,98.190196,0.0,0.0,0.0,0.0,0.0,0.0265216803025472,-0.1054642075860069,0.07594059834675351,-0.0003237593157550567,0.015206964905310587,-0.0025804421044948074,0.33349932419632067
2662,4.0,300.9526,365.12889,0.0,0.0,0.0,0.0,0.0,0.026531647112131018,-0.13608581111062387,0.049884761580992656,-0.024789020828235874,0.013848093169700386,0.010986156103249189,0.3101617324605797
2663,4.0,299.9947,412.2721,0.0,0.0,0.0,0.0,0.0,0.026541613921714863,-0.1094282142297239,0.05063123914166425,-0.06652344583785294,-0.029311236071293774,-0.003416481550780476,0.2971429074907217
2664,4.0,300.32723,143.96428,0.0,0.0,0.0,0.0,0.0,0.02655158073129868,-0.052884704324313955,0.07466647586275743,-0.06554331685712174,-0.009365654376543122,-0.02067991879669908,0.28157267823905974
2665,4.0,300.34945,52.736959999999996,0.0,0.0,0.0,0.0,0.0,0.02656154754088247,-0.036907055313442766,0.053339924156990653,-0.032463588854906765,-0.004543957969003735,-0.004415052595256766,0.2906697186968677
2666,4.0,299.42458,238.06392000000002,0.0,0.0,0.0,0.0,0.0,0.026571514350466313,-0.12344072344015089,0.08821737771187732,-0.03714214250889407,-0.016298041732241485,0.014065452541402087,0.29567365431571774
2667,4.0,299.79101,538.62857,0.0,0.0,0.0,0.0,0.0,0.02658148116005013,-0.17640574809989182,0.05415958978563535,-0.04148347437060016,-0.038041959260199064,-0.0011425238914833289,0.3444519498272607
2668,4.0,300.0807,326.16085,0.0,0.0,0.0,0.0,0.0,0.026591447969633975,-0.12698366387231189,0.04061303883244486,-0.012774124057457887,-0.039637918346957964,0.028670724206080175,0.32127150304952873
2669,4.0,300.56425,13.525580999999999,0.0,0.0,0.0,0.0,0.0,0.02660141477921779,-0.04676830115567196,0.07493276305528793,-0.03227590048588337,0.006634308326705254,0.039561204168636864,0.3248139469891407
2670,4.0,299.93507,166.68783,0.0,0.0,0.0,0.0,0.0,0.02661138158880158,-0.04145669518370726,0.032038696610973166,-0.04125093853890066,0.03445898227683676,0.02276464845344588,0.3201665436829777
2671,4.0,300.55871,571.39737,0.0,0.0,0.0,0.0,0.0,0.026621348398385425,-0.11471849432683388,0.021419817324471378,-0.08039186176480902,0.007119452981210303,-0.03341979905377737,0.31805816274239673
2672,4.0,299.87737999999996,351.2466,0.0,0.0,0.0,0.0,0.0,0.02663131520796924,-0.13132105317787887,0.06650953999348054,-0.04195868258799956,0.015589184121282686,-0.07418507466074684,0.3232761778423747
2673,4.0,299.58815,29.201745000000003,0.0,0.0,0.0,0.0,0.0,0.02664128201755306,-0.1057105084203149,0.07704382708213373,0.019790081545628984,0.012355332592376388,-0.028083591369384674,0.3089203896305687
2674,4.0,299.55604,-49.568417,0.0,0.0,0.0,0.0,0.0,0.026651248827136903,-0.07930071603687133,0.1003532585710955,-0.005984981286946665,0.02171236086684318,-0.004586279399180535,0.3064472994489937
2675,4.0,298.61672000000004,151.95889,0.0,0.0,0.0,0.0,0.0,0.026661215636720692,-0.08012332718355672,0.08238396921666472,-0.04845234916637455,0.0006325436056321934,0.002140045006205998,0.3150694093199297
2676,4.0,297.84771,313.659,0.0,0.0,0.0,0.0,0.0,0.02667118244630451,-0.08685136256306211,0.05327319150540465,-0.06176633389036253,-0.022085092008878877,0.030410342905267174,0.29066821908671975
2677,4.0,298.92007,375.3113,0.0,0.0,0.0,0.0,0.0,0.026681149255888353,-0.11177653279398489,0.04030857440264656,-0.04261730731200076,0.01053851943432089,0.04368767026713736,0.3257639500178987
2678,4.0,300.13162,126.51308,0.0,0.0,0.0,0.0,0.0,0.02669111606547217,-0.12059904326969889,0.057101095355939345,0.025041131638617275,-0.00951675499373059,0.02024488898551498,0.3023857370856487
2679,4.0,300.06707,99.53076,0.0,0.0,0.0,0.0,0.0,0.026701082875055987,-0.1073607989906859,0.06551778903410235,0.01158814622616099,-0.016343116162939982,-0.01082279282937649,0.35488505173442764
2680,4.0,300.06203999999997,418.49566,0.0,0.0,0.0,0.0,0.0,0.026711049684639804,-0.09268907635794961,0.02751964878772787,-0.06204280323314794,-0.004679492227554925,-0.02306344070918438,0.3142620921702537
2681,4.0,299.76029,412.00655,0.0,0.0,0.0,0.0,0.0,0.02672101649422362,-0.059458070115804645,0.010014242959628829,-0.07579587583497052,-0.003200863145400597,0.025940323214610574,0.3278904174727647
2682,4.0,299.97837000000004,128.80585,0.0,0.0,0.0,0.0,0.0,0.026730983303807437,-0.024652982883059976,0.051904478071573154,-0.06640525831968874,0.025758239131890272,-0.00043692064732821055,0.2909121793132967
2683,4.0,299.96161,34.108264,0.0,0.0,0.0,0.0,0.0,0.026740950113391282,-0.06941349958132903,0.07628003307725313,-0.017234593865921983,0.016207266682282687,-0.02057635146422778,0.30518843752475366
2684,4.0,300.47291,184.51197,0.0,0.0,0.0,0.0,0.0,0.0267509169229751,-0.11914370201856789,0.06195563636679524,0.001101035150238709,0.019099951836268482,-0.022708136455618578,0.3124572505621297
2685,4.0,300.75385,276.62302,0.0,0.0,0.0,0.0,0.0,0.026760883732558888,-0.13587588595490588,0.08540795537160892,-0.033618556166893174,0.018014170254360185,-0.018611363651298583,0.3162157903505687
2686,4.0,300.04326000000003,507.95239000000004,0.0,0.0,0.0,0.0,0.0,0.026770850542142732,-0.09816304552593831,0.013712915473859387,-0.06995471293674263,-0.008235478862703483,-0.012287503604182189,0.3283482646629507
2687,4.0,301.44386000000003,475.82537,0.0,0.0,0.0,0.0,0.0,0.02678081735172655,-0.10069725900654572,0.04998389999727686,-0.0939256721112421,-0.026339883192794074,0.008638568396285322,0.34028653946116666
2688,4.0,300.2069,378.55559,0.0,0.0,0.0,0.0,0.0,0.026790784161310394,-0.07580376196049883,0.03886909963483146,-0.07813678348800013,-0.007798734733675192,0.022466405379261582,0.3486047958921147
2689,4.0,299.55945,418.53569,0.0,0.0,0.0,0.0,0.0,0.02680075097089421,-0.14383108474252287,0.036991478298524665,-0.02038479349307248,-0.02023442211198198,0.049297942851828154,0.3375494267010347
2690,4.0,299.55117,393.36485,0.0,0.0,0.0,0.0,0.0,0.026810717780478,-0.14161003039082187,0.05680025734824894,-0.03476331498412207,-0.0027117344928273574,7.349478080487013e-05,0.34418235437315364
2691,4.0,300.36492000000004,217.23242000000002,0.0,0.0,0.0,0.0,0.0,0.026820684590061844,-0.1111640737710399,0.06007057980125464,-0.014939739443187485,-0.01185199959195129,-0.02740566017797807,0.3303699417924747
2692,4.0,299.00232,85.61282800000001,0.0,0.0,0.0,0.0,0.0,0.02683065139964566,-0.03134356245936877,0.04232168450257506,-0.037002284610841166,0.03010414987079827,-0.019077095953762783,0.3033011578884937
2693,4.0,299.90551,245.53166000000002,0.0,0.0,0.0,0.0,0.0,0.026840618209229478,-0.05079741722431475,0.04242330436835416,-0.06626138085848914,0.037931440018791666,0.012638297881552888,0.3055194156699187
2694,4.0,299.84002999999996,306.31474,0.0,0.0,0.0,0.0,0.0,0.026850585018813322,-0.06950937837204153,0.03321519042133407,-0.056817845343484746,0.01133512551718979,0.016746424153243383,0.2691745905454638
2695,4.0,300.5718,321.50633999999997,0.0,0.0,0.0,0.0,0.0,0.02686055182839711,-0.14472238006048688,0.06315608340952014,-0.016163602695723384,-0.021411705244170777,-0.0022396586367870977,0.3359964588027687
2696,4.0,300.55641,199.09276,0.0,0.0,0.0,0.0,0.0,0.026870518637980928,-0.14431727253800586,0.08811499081577251,-0.004316943742399175,-0.011310097226469688,-0.00026094558118332375,0.2963593105258867
2697,4.0,300.48416000000003,215.34332,0.0,0.0,0.0,0.0,0.0,0.026880485447564773,-0.11491480140120788,0.07122904212375913,-0.02177323287985078,-0.008566111388259372,0.014280429762118687,0.3429254581541077
2698,4.0,299.47837000000004,310.28535,0.0,0.0,0.0,0.0,0.0,0.02689045225714859,-0.08053633400381734,0.05743210795160775,-0.07121477353585093,-0.006749415969865493,-0.019666169164399783,0.3101541736148337
2699,4.0,299.1225,506.48595,0.0,0.0,0.0,0.0,0.0,0.026900419066732406,-0.1033051033454199,0.03075868511739587,-0.08141266361780433,-0.029136226500771675,-0.02881807407537247,0.3373678218856117
2700,4.0,298.80747,345.46759,0.0,0.0,0.0,0.0,0.0,0.026910385876316223,-0.09972774787361241,0.05288283082487905,-0.05816860499879435,3.9067831416694765e-05,0.022432756356690682,0.3260333934844907
2701,4.0,299.21477000000004,131.87162,0.0,0.0,0.0,0.0,0.0,0.02692035268590004,-0.1048986620426919,0.07095939499389703,-0.006146416041904035,0.014249997808615286,0.06112840581290394,0.3261484379008447
2702,4.0,299.40459,274.7113,0.0,0.0,0.0,0.0,0.0,0.026930319495483857,-0.12576799679983489,0.05303870212751235,-0.01077608301301659,0.0008642957593068501,0.03507260856389697,0.3269908439014837
2703,4.0,299.90915,487.5212,0.0,0.0,0.0,0.0,0.0,0.0269402863050677,-0.11925260613931588,0.05272432304548554,-0.08166598526205522,0.0005528463480891864,-0.020753078493669377,0.34835557689751867
2704,4.0,300.95177,294.38804,0.0,0.0,0.0,0.0,0.0,0.026950253114651518,-0.07941859350050492,0.06016456786728054,-0.07023258867066684,-0.002331167989093368,-0.028562046040104472,0.3255490903341937
2705,4.0,300.53222,145.59445,0.0,0.0,0.0,0.0,0.0,0.026960219924235307,-0.05387142044394525,0.08814929642440822,-0.07853495328704643,0.01092702080091299,-0.02736900281586027,0.32203857390523266
2706,4.0,300.55822,24.026920999999998,0.0,0.0,0.0,0.0,0.0,0.02697018673381915,-0.08133024484142022,0.08951466917266002,-0.015488008059047384,0.017633183150509685,-0.04651882580880066,0.3111642623745217
2707,4.0,300.70826,209.26181,0.0,0.0,0.0,0.0,0.0,0.026980153543402968,-0.14099090418221888,0.08420797847693041,-0.006827440584540924,-0.0006477076431837674,-0.013105339303146288,0.3380251780204877
2708,4.0,300.07029,329.61226,0.0,0.0,0.0,0.0,0.0,0.026990120352986813,-0.13931276949909988,0.06917336842687993,-0.030054492509897474,0.003600882531179437,0.034292304661886965,0.2982026961678147
2709,4.0,298.62126,253.20537000000002,0.0,0.0,0.0,0.0,0.0,0.027000087162570602,-0.07868112778622273,0.03278283863016427,-0.031069820785852572,-0.00035075902639972065,0.04911734723350475,0.31153628728123767
2710,4.0,299.87949,210.92121,0.0,0.0,0.0,0.0,0.0,0.02701005397215442,-0.05257455150845424,0.05282141368331765,-0.06436164432549973,-0.016711884483834583,0.00986097905347786,0.29414094128695073
2711,4.0,299.63185,358.78602,0.0,0.0,0.0,0.0,0.0,0.027020020781738263,-0.07439204315267302,0.025124831163127775,-0.05979477920353524,-0.0023512914400543976,-0.03366944867966587,0.3309939619990607
2712,4.0,300.32392000000004,252.60408999999999,0.0,0.0,0.0,0.0,0.0,0.02702998759132208,-0.08957439925280491,0.06510453903381774,-0.052315475616885446,0.0064510716719962035,-0.004947454727800765,0.3256487738790317
2713,4.0,300.71501,42.443908,0.0,0.0,0.0,0.0,0.0,0.027039954400905897,-0.0956838282210086,0.09153988051853282,-0.008757940606466442,0.004097086202575926,0.01148386252586899,0.3406774716147487
2714,4.0,300.96719,18.612484,0.0,0.0,0.0,0.0,0.0,0.027049921210489714,-0.06775401173980035,0.07533054579279602,-0.013234263219370088,-0.0035799280124863865,0.013654748838618787,0.3216910696509367
2715,4.0,300.25237999999996,242.18578,0.0,0.0,0.0,0.0,0.0,0.02705988802007353,-0.08395897935760613,0.06200010588718404,-0.05165955627065125,-0.009078087614687492,0.009813152838157781,0.32195615614209866
2716,4.0,301.08258,511.96644000000003,0.0,0.0,0.0,0.0,0.0,0.027069854829657347,-0.10656450600209791,0.036860608942108866,-0.08592111689800402,0.0024685618655530873,0.022600412771237078,0.3245486071854537
2717,4.0,300.74245,336.83144,0.0,0.0,0.0,0.0,0.0,0.02707982163924119,-0.1047874781092189,0.04772783988112105,-0.045328711890595556,0.014183382694040885,-0.008822644326052202,0.29733833303750873
2718,4.0,300.14917,346.33653,0.0,0.0,0.0,0.0,0.0,0.02708978844882501,-0.13002825750778987,0.04727189152162245,-0.022521290097428277,0.00969215517216624,-0.02229075847442658,0.33839979684745963
2719,4.0,300.89493999999996,420.67931,0.0,0.0,0.0,0.0,0.0,0.027099755258408825,-0.16636796571923984,0.06383785380555564,-0.025345889910944577,0.008117534929863323,-0.024924083013565475,0.3171824005484657
2720,4.0,301.46806000000004,557.31332,0.0,0.0,0.0,0.0,0.0,0.027109722067992642,-0.14060442019657587,0.03329529898749017,-0.062100207904313344,0.012394688239510487,0.01850800099534748,0.3446972272789677
2721,4.0,300.15472,470.06230999999997,0.0,0.0,0.0,0.0,0.0,0.02711968887757646,-0.11425554035614388,0.045010614180701757,-0.07364227455567664,-0.0033689653899909968,0.017969430196194684,0.3202886200550257
2722,4.0,300.10489,244.34656,0.0,0.0,0.0,0.0,0.0,0.027129655687160276,-0.05560642885517725,0.05246831730171975,-0.07113714033968914,-0.028127348574953175,-0.003612180573769466,0.3454585428741037
2723,4.0,299.14231,-19.468857,0.0,0.0,0.0,0.0,0.0,0.027139622496744092,-0.05965066869481264,0.08662448877292142,-0.021055773788793083,-0.01027961275551879,-0.01986609759463118,0.3328344092156987
2724,4.0,299.46948,132.55919,0.0,0.0,0.0,0.0,0.0,0.027149589306327937,-0.0935614107267923,0.07880459433740793,-0.025537867367641274,0.04117147541305826,-0.00895913154632244,0.3462997127096207
2725,4.0,299.10742999999997,305.53881,0.0,0.0,0.0,0.0,0.0,0.027159556115911726,-0.12266937666902487,0.044232569826414755,-0.014439360066803884,0.026567888783296478,0.01636516347186588,0.3157135628060027
2726,4.0,299.23501,252.50544,0.0,0.0,0.0,0.0,0.0,0.02716952292549557,-0.07643625597767113,0.056753987282432444,-0.05707308101717454,-0.001991375986608508,0.01099030333590849,0.30527237516303773
2727,4.0,299.7117,174.5759,0.0,0.0,0.0,0.0,0.0,0.027179489735079387,-0.049966367730796546,0.03798468732479676,-0.04108503302052706,-0.01915840015503688,0.028322251284688574,0.3136613665834667
2728,4.0,300.62355,255.34568,0.0,0.0,0.0,0.0,0.0,0.027189456544663204,-0.06878770618706803,0.057813194353968034,-0.06664419890527033,-0.015031189317712884,0.03922483755944006,0.32375456361208765
2729,4.0,300.43207,422.91413,0.0,0.0,0.0,0.0,0.0,0.02719942335424702,-0.12006971128495787,0.052044291386621644,-0.06052991545583754,0.0066062448453106035,-0.0033456916431440563,0.33968609758440765
2730,4.0,300.68861,454.40423,0.0,0.0,0.0,0.0,0.0,0.027209390163830838,-0.14501583755444886,0.023801924739817078,-0.016913628658245184,0.004813402246195815,-0.052007664422006855,0.3255238401417017
2731,4.0,300.22401,330.96538,0.0,0.0,0.0,0.0,0.0,0.027219356973414655,-0.12168635181950789,0.06119002763098554,-0.040108884086188665,0.02097727933004628,-0.06558232191972123,0.3362649498142667
2732,4.0,300.24782999999996,293.16472999999996,0.0,0.0,0.0,0.0,0.0,0.02722932378299847,-0.08975432815256251,0.03993881512315416,-0.03929924558053356,0.008266702265859993,-0.0004945544852687275,0.32673686263141766
2733,4.0,300.32802999999996,227.29101,0.0,0.0,0.0,0.0,0.0,0.027239290592582316,-0.04524383598271896,0.029100530712998774,-0.052947486313760055,-0.0032027000665068874,0.008219950804920982,0.3117725569395557
2734,4.0,299.35278,154.37245,0.0,0.0,0.0,0.0,0.0,0.027249257402166133,-0.06679853716050234,0.07038949044865184,-0.05051632239482286,-0.024970701637416375,0.038539433648545965,0.31040567242215467
2735,4.0,298.88746000000003,199.9016,0.0,0.0,0.0,0.0,0.0,0.02725922421174995,-0.09212558264608711,0.05976386392973415,-0.028403376140694974,-0.00954548043141557,0.018606123121781382,0.32271317555681067
2736,4.0,299.04442,217.97159,0.0,0.0,0.0,0.0,0.0,0.027269191021333766,-0.13869972279109685,0.061376319741371144,0.01106548446682829,0.012408866648159789,0.03572385277416976,0.3238214279861867
2737,4.0,299.20499,229.53261,0.0,0.0,0.0,0.0,0.0,0.027279157830917583,-0.1023852749046399,0.06094501463755464,-0.028331924783393272,0.009012114191401422,-0.02182115353008018,0.3265062773061607
2738,4.0,299.44976,374.8527,0.0,0.0,0.0,0.0,0.0,0.027289124640501428,-0.1150945722339499,0.041531634147853165,-0.04038291858898376,0.01026033263261599,-0.049000066574180046,0.3103303575422217
2739,4.0,300.15107,431.48978,0.0,0.0,0.0,0.0,0.0,0.027299091450085244,-0.08856098297978851,0.06113869435441935,-0.1037398281683239,-0.0034862247710635967,-0.017235783421539384,0.3512153435822557
2740,4.0,300.71355,72.203828,0.0,0.0,0.0,0.0,0.0,0.027309058259669033,-0.07532485538023444,0.10052989542127821,-0.04715320041815855,-0.016013259685635686,0.03654784092774107,0.3232636034086337
2741,4.0,300.0545,150.51483000000002,0.0,0.0,0.0,0.0,0.0,0.02731902506925285,-0.07684270909628493,0.05201091695482786,-0.02092095782323778,-0.0024922623933421478,0.05556063704340794,0.34184921429539067
2742,4.0,300.28195,295.52898,0.0,0.0,0.0,0.0,0.0,0.027328991878836695,-0.14365939964557886,0.0896947551261831,-0.03586878604197357,-0.021862565061667182,0.006852241603263593,0.3095103848987967
2743,4.0,300.20041000000003,397.85895,0.0,0.0,0.0,0.0,0.0,0.02733895868842051,-0.0991652390408471,0.01308173868181709,-0.03485568590298836,0.014682727542072387,0.004124192061301066,0.3228965738249107
2744,4.0,299.27218999999997,234.52804,0.0,0.0,0.0,0.0,0.0,0.027348925498004356,-0.07956845015054463,0.04074648893686536,-0.03246870576791177,0.000939945508265399,-0.0096866072225687,0.3089680427827717
2745,4.0,298.6971,160.57237,0.0,0.0,0.0,0.0,0.0,0.027358892307588145,-0.05528222428693075,0.04716744164831405,-0.04069520733605426,-0.009391718512840451,-0.03066482269438237,0.3140613774579447
2746,4.0,298.58792,140.05127,0.0,0.0,0.0,0.0,0.0,0.027368859117171962,-0.07888379097847402,0.037647196007988964,-0.0013354941306280086,-0.024205686666165276,-0.041873846196876854,0.3137962301717767
2747,4.0,299.31662,180.29191,0.0,0.0,0.0,0.0,0.0,0.027378825926755807,-0.1091782352975529,0.08919711963107031,-0.03482312308452467,0.003062296330625117,0.006456353238142453,0.33891957388375765
2748,4.0,299.76307,428.70397,0.0,0.0,0.0,0.0,0.0,0.027388792736339623,-0.14386712604857985,0.03285666808545067,-0.01930484519198988,0.04082575549218836,0.04782294556200725,0.3394825964343237
2749,4.0,299.86287999999996,378.05937,0.0,0.0,0.0,0.0,0.0,0.02739875954592344,-0.11198197938426088,0.05042665381397325,-0.05336528479374355,0.0014914081924155287,0.014120420346076986,0.33318505454530467
2750,4.0,298.59864,236.95699,0.0,0.0,0.0,0.0,0.0,0.027408726355507257,-0.08486315815059162,0.07918847224379372,-0.06635432122391163,0.0024575976888710077,-0.02196133364166488,0.33465433811781164
2751,4.0,300.42516,443.57814,0.0,0.0,0.0,0.0,0.0,0.027418693165091074,-0.09924425836314571,0.04754294200287305,-0.08313536306682151,-0.024596854907020578,-0.018067947490167584,0.3136916931589597
2752,4.0,299.92057,414.41797,0.0,0.0,0.0,0.0,0.0,0.02742865997467489,-0.10415481487927991,0.06554709020049414,-0.08736498917125311,0.014392742456203086,0.03281638632772517,0.33867335410945765
2753,4.0,300.50773,140.93132,0.0,0.0,0.0,0.0,0.0,0.027438626784258735,-0.09684159412977121,0.06256456117339144,-0.008562568964584762,-0.03237302658746897,0.017061207522060085,0.32508374509326765
2754,4.0,300.82943,138.88482,0.0,0.0,0.0,0.0,0.0,0.027448593593842552,-0.1053179753315749,0.06685197191777593,-0.0037515184718710467,-0.02081391605617358,0.00023234578651074378,0.33556826944300966
2755,4.0,300.62426,106.22041000000002,0.0,0.0,0.0,0.0,0.0,0.02745856040342634,-0.1003755075167913,0.0914322591724114,-0.023345102958732277,0.0022879956314825877,0.007120317080895583,0.3268786568504117
2756,4.0,299.18733,73.87780699999999,0.0,0.0,0.0,0.0,0.0,0.027468527213010185,-0.06709112325937834,0.07501048643070864,-0.030376370655914368,0.04128729091273836,0.013963707032610587,0.3485217904439227
2757,4.0,299.93068,338.69317,0.0,0.0,0.0,0.0,0.0,0.027478494022594002,-0.0944414873396491,0.054402020004561354,-0.06291479917645723,0.024212861490123375,-0.019252806693354083,0.32163285843269174
2758,4.0,299.85434,490.8512,0.0,0.0,0.0,0.0,0.0,0.027488460832177847,-0.12786439099173286,0.052302902196394545,-0.07364501641044723,-0.009358815546318181,-0.05190735266210685,0.35052458059158265
2759,4.0,299.74395,292.46324,0.0,0.0,0.0,0.0,0.0,0.027498427641761664,-0.13567881894295686,0.055421803541206155,-0.00864451100679681,-0.007648137397812393,0.019060512089376085,0.3163478067060977
2760,4.0,300.25805,388.3702,0.0,0.0,0.0,0.0,0.0,0.027508394451345453,-0.15078781674909886,0.06458371733666664,-0.03185073973067327,0.014489063023959185,0.03677878190378316,0.33595381110605965
2761,4.0,299.71424,509.05656,0.0,0.0,0.0,0.0,0.0,0.027518361260929297,-0.12538525170706089,0.029353316347946773,-0.058708548751832644,-0.01009295273402188,0.030309347201549673,0.2996959633701887
2762,4.0,299.81172000000004,273.72424,0.0,0.0,0.0,0.0,0.0,0.027528328070513114,-0.07094868392708993,0.037532294459899064,-0.04978894459853625,-0.035313892796959866,-0.019348872935335083,0.3153737592524667
2763,4.0,300.43208,5.0575114999999995,0.0,0.0,0.0,0.0,0.0,0.02753829488009693,-0.03469647290152526,0.08562906579518083,-0.052469950660880955,-0.025163284004422776,-0.012509116599803688,0.30634535635643273
2764,4.0,299.83971,238.8419,0.0,0.0,0.0,0.0,0.0,0.027548261689680775,-0.07116418297160802,0.03772615453528157,-0.03916394528143047,0.012744777294811589,-0.017991852407657584,0.3317026392515017
2765,4.0,299.66409,262.2272,0.0,0.0,0.0,0.0,0.0,0.027558228499264564,-0.11193222880435089,0.05570660382631375,-0.023484896008778774,0.011002043864817188,-0.021344475086785684,0.3328901177061967
2766,4.0,300.15525,277.74123,0.0,0.0,0.0,0.0,0.0,0.02756819530884838,-0.1031241064800569,0.036946208310556866,-0.01824849751223648,0.0076837507070271534,-0.03242689400253527,0.3222567063867607
2767,4.0,300.83024,347.92228,0.0,0.0,0.0,0.0,0.0,0.027578162118432226,-0.0977505726884804,0.025386796843981773,-0.03339590965616967,0.014644848200333986,0.012283291523516489,0.33556380101006866
2768,4.0,300.29084,301.82942,0.0,0.0,0.0,0.0,0.0,0.027588128928016042,-0.09309005285977291,0.07327460662439063,-0.07193316177725034,0.004896884732534895,0.02400547249940568,0.3359298680061967
2769,4.0,300.18621,448.47474000000005,0.0,0.0,0.0,0.0,0.0,0.02759809573759986,-0.08532239450666472,0.02384335754965618,-0.07484608356223334,0.006816314389167853,-0.00924722073992963,0.33538622893004366
2770,4.0,300.01704,488.16866,0.0,0.0,0.0,0.0,0.0,0.027608062547183676,-0.14065856828191986,0.05199750658975435,-0.05973002340289435,-0.013255189873685385,-0.04121786909538696,0.3207244898505427
2771,4.0,300.3274,518.71665,0.0,0.0,0.0,0.0,0.0,0.027618029356767493,-0.15279244087943986,0.04098300380170756,-0.045867470141016865,0.012626900844428088,-0.0011713348474767487,0.34340796785172767
2772,4.0,300.16272000000004,120.723,0.0,0.0,0.0,0.0,0.0,0.027627996166351323,-0.13309829385327887,0.07587864823563951,0.020522872123949782,0.017271583574072585,0.0051850280336974254,0.3171701503547567
2773,4.0,299.0267,65.644319,0.0,0.0,0.0,0.0,0.0,0.027637962975935154,-0.07035779091927333,0.08170230419863962,-0.03129874742069587,0.006209765654056155,0.025623969308138875,0.3301584359666007
2774,4.0,299.26472,269.47493,0.0,0.0,0.0,0.0,0.0,0.02764792978551897,-0.08721367648081972,0.06745536944507663,-0.06215534289525474,-0.02269431572425458,0.007292522583090943,0.3285192708823277
2775,4.0,299.06574,231.40563999999998,0.0,0.0,0.0,0.0,0.0,0.027657896595102774,-0.03620284852044297,0.05259621175584195,-0.08673489959656812,-0.008097370746248273,0.018769881563193085,0.3556187663968397
2776,4.0,299.0634,148.51689,0.0,0.0,0.0,0.0,0.0,0.027667863404686605,-0.08062481100254933,0.05554910017776935,-0.02006971628172678,-0.02466749870399258,0.010204218842077992,0.3406260593046747
2777,4.0,299.19327999999996,414.82781,0.0,0.0,0.0,0.0,0.0,0.02767783021427042,-0.11631872020976389,0.03620198827110807,-0.04598056405092836,-0.014222097967111788,-0.025549620055551177,0.34251518305611667
2778,4.0,299.23561,449.41093,0.0,0.0,0.0,0.0,0.0,0.027687797023854252,-0.14612827470673787,0.03651888730613357,-0.027000307448972874,-0.0002384216191453818,-0.045907115577679555,0.3238709353860727
2779,4.0,299.26415,413.40736,0.0,0.0,0.0,0.0,0.0,0.027697763833438083,-0.11921401144300689,0.03301448989452647,-0.039465990069989965,0.03096044347730787,0.0016888435207758786,0.32262307735791873
2780,4.0,300.26579,531.3083799999999,0.0,0.0,0.0,0.0,0.0,0.02770773064302187,-0.12066508691121687,0.037748468328983764,-0.07858785912776783,0.022041029815030276,0.027894860366008373,0.3254737450567577
2781,4.0,300.66691000000003,250.59055,0.0,0.0,0.0,0.0,0.0,0.027717697452605702,-0.09440478134152651,0.08169604332627171,-0.06346453193871164,-0.009657254887046851,-0.004216125661424206,0.3159477249041127
2782,4.0,299.59321,-83.73962399999999,0.0,0.0,0.0,0.0,0.0,0.027727664262189533,-0.07785884189281943,0.1057640890856029,-0.002450487206294258,-0.008918653724702592,-0.01272218181758159,0.3123463807361877
2783,4.0,300.31167,63.646311,0.0,0.0,0.0,0.0,0.0,0.027737631071773364,-0.08497404824153562,0.08751750458955522,-0.02189034533965888,-0.02345429889550908,-0.003420989095175337,0.32574136467316966
2784,4.0,300.60212,222.56202000000002,0.0,0.0,0.0,0.0,0.0,0.02774759788135718,-0.11235550390112489,0.07096581292003043,-0.026263605725266075,0.005552816440420314,-0.007778278126081283,0.3404821879229757
2785,4.0,299.98138,345.76424,0.0,0.0,0.0,0.0,0.0,0.027757564690940983,-0.1025134510422899,0.04211519933094656,-0.044705443515583754,-0.032389955970139765,-0.008454894422833113,0.3177360302706047
2786,4.0,298.90294,514.7925700000001,0.0,0.0,0.0,0.0,0.0,0.027767531500524814,-0.08633103735846001,0.03839608915689897,-0.10854913870796588,-0.007672411931783103,0.012242763546016687,0.3604237604910556
2787,4.0,298.55492999999996,567.41301,0.0,0.0,0.0,0.0,0.0,0.02777749831010863,-0.10731402736606989,0.02281997393540608,-0.08798533431972642,0.003126664157802727,0.03804058833281376,0.3514937137822287
2788,4.0,299.25737000000004,336.37502,0.0,0.0,0.0,0.0,0.0,0.02778746511969246,-0.11528108117985689,0.07116952685263543,-0.058138053481779146,0.033431230541405565,0.03556700976469057,0.36472493623804864
2789,4.0,299.32492,231.82201,0.0,0.0,0.0,0.0,0.0,0.027797431929276292,-0.12197715459820788,0.07994405385661382,-0.028434998663065876,0.014273152599900486,-0.0024293842464615575,0.3274630184480837
2790,4.0,300.44907,313.54255,0.0,0.0,0.0,0.0,0.0,0.02780739873886008,-0.12422709671025989,0.06424386312062565,-0.03532586839989176,0.025961631864213575,-0.04175409118080796,0.3472116681971237
2791,4.0,300.02941,109.53378000000001,0.0,0.0,0.0,0.0,0.0,0.027817365548443912,-0.11548103595459089,0.09417995836958823,-0.011994458503010888,0.0034396734270193373,-0.005798333627100974,0.3095113474863917
2792,4.0,300.06437,203.15291000000002,0.0,0.0,0.0,0.0,0.0,0.027827332358027743,-0.062455102804838736,0.053672045248268456,-0.05297035435526695,0.01101131611648229,-0.004251373491327896,0.30802531488973167
2793,4.0,300.32162999999997,359.60196,0.0,0.0,0.0,0.0,0.0,0.027837299167611573,-0.1316279565006679,0.06885816253277152,-0.04654022767741286,-0.03295960416310967,0.00968435253844618,0.3093493997229087
2794,4.0,300.39038999999997,390.33486,0.0,0.0,0.0,0.0,0.0,0.02784726597719539,-0.1151013204796159,0.061828880805785434,-0.06537961515771563,-0.03001922735341707,0.016402026523753985,0.3438158111494787
2795,4.0,299.74708,203.37079,0.0,0.0,0.0,0.0,0.0,0.027857232786779193,-0.10017398119115221,0.060716670621518844,-0.02236233040849018,0.012725977452456188,0.02072082876948658,0.32021859434061467
2796,4.0,300.50617,336.08772,0.0,0.0,0.0,0.0,0.0,0.027867199596363024,-0.1074989353768189,0.051492551375919154,-0.046155892795231954,0.03951130261446196,0.0013455305755185288,0.35526110937654165
2797,4.0,299.92674,404.20718,0.0,0.0,0.0,0.0,0.0,0.02787716640594684,-0.09696379310508131,0.04874749777475345,-0.07465259534963752,0.034383487038385965,-0.032065024901571565,0.3363645522990967
2798,4.0,299.73183,262.94909,0.0,0.0,0.0,0.0,0.0,0.02788713321553067,-0.049927515668962155,0.031212682970451974,-0.06121512380946235,-0.0026337687479827373,-0.03898975441698917,0.3348013708398227
2799,4.0,299.42593,188.60567,0.0,0.0,0.0,0.0,0.0,0.027897100025114502,-0.08775037986003822,0.06805008341902033,-0.03763111978190237,-0.015936576918067685,0.0028376113633504373,0.34540209471103267
2800,4.0,298.59111,314.71254,0.0,0.0,0.0,0.0,0.0,0.02790706683469829,-0.1257413179247019,0.060098609338770946,-0.03002204418869507,-0.03231512035750407,0.029739890512848675,0.32832261930291967
2801,4.0,299.42542000000003,284.15609,0.0,0.0,0.0,0.0,0.0,0.02791703364428212,-0.12340427683405389,0.06803497788652953,-0.031007053995157973,-0.006948332467222023,0.031875435675360574,0.30968335682336773
2802,4.0,300.22832999999997,174.88193,0.0,0.0,0.0,0.0,0.0,0.027927000453865952,-0.13858366512464287,0.1019291603721249,-0.016505239218690286,-0.03525043091669667,0.00040684201413468065,0.3487647171553977
2803,4.0,300.77762,394.03137000000004,0.0,0.0,0.0,0.0,0.0,0.027936967263449783,-0.09438247160082472,0.05436093575275665,-0.07975416065537283,0.017974087093654285,-0.0066718326256086135,0.3385249231023087
2804,4.0,301.57187999999996,373.91106,0.0,0.0,0.0,0.0,0.0,0.0279469340730336,-0.08821024037817292,0.06859435071023534,-0.09404373702614421,-0.0054387422110370644,-0.006200802646321574,0.34494693263361165
2805,4.0,300.72287,276.93137,0.0,0.0,0.0,0.0,0.0,0.027956900882617403,-0.07769579171322763,0.05972325590547644,-0.06620768670918993,0.03223292044314157,-0.007798811943332811,0.33973004224124465
2806,4.0,300.98944,379.70928,0.0,0.0,0.0,0.0,0.0,0.027966867692201233,-0.12186809848994488,0.04855300340480836,-0.04210704874714216,-0.005301293315096914,-0.008062709892127514,0.3563124678128026
2807,4.0,300.44655,365.4852,0.0,0.0,0.0,0.0,0.0,0.02797683450178505,-0.12895689751455489,0.05335358378158874,-0.03549505988833967,0.009789545124077882,-0.0017836002383276384,0.3509628517898367
2808,4.0,299.20361,314.56905,0.0,0.0,0.0,0.0,0.0,0.02798680131136888,-0.12214611405238288,0.027006967541880176,-0.00048199458153416156,-0.005020982133232355,-0.0009517639561067891,0.3393157648053587
2809,4.0,299.49241,418.65334,0.0,0.0,0.0,0.0,0.0,0.02799676812095271,-0.10765035547176291,0.04047687119125616,-0.06008668237184385,-0.0006395530469089713,-0.020943237166436583,0.3351126818005467
2810,4.0,300.59761000000003,237.7153,0.0,0.0,0.0,0.0,0.0,0.0280067349305365,-0.08148592970603513,0.05061813579137105,-0.04139172052104476,-0.001957393706079718,-0.03049183050480937,0.33526303798288565
2811,4.0,299.69212000000005,-98.20948800000001,0.0,0.0,0.0,0.0,0.0,0.02801670174012033,-0.04377189668169986,0.07449372077370783,-0.0008685922437058801,0.000968215449500425,0.020543642737749678,0.3151341762663217
2812,4.0,300.36141000000003,229.09509,0.0,0.0,0.0,0.0,0.0,0.028026668549704162,-0.1017180699787919,0.06601195820062304,-0.033933078117184066,0.0068786523724201345,0.041988037456646664,0.3071610733494377
2813,4.0,300.15265,454.69912999999997,0.0,0.0,0.0,0.0,0.0,0.028036635359287992,-0.12909318978550588,0.03251513288749377,-0.04163912275821146,-0.02017420161878868,0.011348993871308489,0.3250185019193287
2814,4.0,300.5106,274.89567999999997,0.0,0.0,0.0,0.0,0.0,0.02804660216887181,-0.11651848246697888,0.05760111300203724,-0.024644050070178378,-0.011083734114379388,0.003379934734248587,0.3281328476916907
2815,4.0,301.35947999999996,326.25601,0.0,0.0,0.0,0.0,0.0,0.028056568978455612,-0.08056633633927832,0.06794937446508113,-0.08655671753998291,0.014579830981167285,-0.013729719213517786,0.3303995590928977
2816,4.0,300.94947,350.15283,0.0,0.0,0.0,0.0,0.0,0.028066535788039443,-0.07884606666400092,0.05085257653325855,-0.07844422585984233,0.019585678602955982,-0.006261281011665324,0.3347898805836887
2817,4.0,300.50827999999996,259.33553,0.0,0.0,0.0,0.0,0.0,0.02807650259762326,-0.06824527895803463,0.03235863944929907,-0.042944884989830165,-0.02930282305571347,-0.026531484733703675,0.3317827772019107
2818,4.0,300.11736,258.49904,0.0,0.0,0.0,0.0,0.0,0.02808646940720709,-0.12561549252728388,0.07246541293552944,-0.025427174860466775,-0.0039047515752189763,-0.01101491720733769,0.3639783330343646
2819,4.0,300.6643,393.27013999999997,0.0,0.0,0.0,0.0,0.0,0.028096436216790907,-0.15218530141951989,0.03370639481806217,-0.001065390632920869,-0.014066541785259588,0.025734386211286178,0.3432029873564977
2820,4.0,299.54847,279.15175,0.0,0.0,0.0,0.0,0.0,0.02810640302637471,-0.13383586899857186,0.07695923995053564,-0.027978532532766175,0.025716513492772274,0.03420911885517717,0.3721525255660946
2821,4.0,300.06755,403.75327000000004,0.0,0.0,0.0,0.0,0.0,0.02811636983595854,-0.08656846414839221,0.028184982240641174,-0.06434743045309695,-0.0026233448362539776,-0.016420376483064984,0.3098117862735427
2822,4.0,299.71803,571.13908,0.0,0.0,0.0,0.0,0.0,0.02812633664554237,-0.12108286005994788,0.04297128623443576,-0.09550045123116072,-0.014898141473582085,-0.02119927938720598,0.36442149823060166
2823,4.0,300.01022,480.40485,0.0,0.0,0.0,0.0,0.0,0.028136303455126174,-0.1250500584414799,0.060935857896400936,-0.08191688422531701,0.006965836261374513,-0.011186571906778688,0.3146203976706157
2824,4.0,299.9917,245.31965,0.0,0.0,0.0,0.0,0.0,0.028146270264710005,-0.1061559331642749,0.05684766225417744,-0.025262779084742178,0.008789982715703751,0.025885960320245375,0.3251802470327917
2825,4.0,301.48963,170.78886,0.0,0.0,0.0,0.0,0.0,0.02815623707429382,-0.1178615049445249,0.09493770225812172,-0.02899175122201307,-0.005073043126020376,-0.0025554393476772278,0.32911574081869466
2826,4.0,301.47382000000005,255.0007,0.0,0.0,0.0,0.0,0.0,0.028166203883877652,-0.1036720721341369,0.053355754163302946,-0.027197529488187176,-0.004256925899225876,0.016400434707846884,0.3445922647011087
2827,4.0,301.10702000000003,27.906956,0.0,0.0,0.0,0.0,0.0,0.02817617069346147,-0.05140128793941215,0.08607446216813801,-0.04315619120543446,0.01984011482231688,0.034505659669193466,0.3366502786947957
2828,4.0,300.4991,196.46881000000002,0.0,0.0,0.0,0.0,0.0,0.028186137503045286,-0.06657091559178784,0.051536855736541654,-0.04468755255856805,0.024644999485522078,0.018221490344071084,0.3390090033375837
2829,4.0,300.40539,295.54418,0.0,0.0,0.0,0.0,0.0,0.028196104312629117,-0.07039878093881874,0.03790473074615566,-0.057344001802412344,0.014438852428503787,-0.03073250577456217,0.3425654706585796
2830,4.0,300.91675,343.8965,0.0,0.0,0.0,0.0,0.0,0.02820607112221292,-0.1144038193757779,0.04891898528792795,-0.03905111988279546,-0.024444014235436375,-0.03402970772622067,0.3342375883516817
2831,4.0,301.20214,494.98904000000005,0.0,0.0,0.0,0.0,0.0,0.02821603793179675,-0.16226682580698887,0.05403519104435815,-0.04223267757404076,0.003531493543131277,-0.0009012978696386741,0.3543676963658686
2832,4.0,300.04467999999997,427.74414,0.0,0.0,0.0,0.0,0.0,0.028226004741380567,-0.13365034290526187,0.05326589711793475,-0.04963909605449736,-0.018276048795705584,0.015337396537683184,0.33157522305142667
2833,4.0,300.48138,71.39002099999999,0.0,0.0,0.0,0.0,0.0,0.028235971550964384,-0.06500236390698384,0.08697579068859222,-0.04367421025280895,0.0014356523831378586,-0.012613519863607488,0.34552121239278866
2834,4.0,299.66598999999997,-11.135983,0.0,0.0,0.0,0.0,0.0,0.028245938360548214,-0.06593942975846503,0.0974027664856546,-0.028078275859360076,0.008793429387243912,4.339857278835566e-05,0.3402560507656577
2835,4.0,299.85807,427.0317,0.0,0.0,0.0,0.0,0.0,0.02825590517013203,-0.09741768254037672,0.049216578868798155,-0.08160587014687233,0.008694099871990851,0.02510254371392818,0.32823067698884567
2836,4.0,299.73386,348.71466000000004,0.0,0.0,0.0,0.0,0.0,0.028265871979715862,-0.14456864975531486,0.07198778001064073,-0.03341967949026557,0.003805444858093166,0.01708813768321788,0.3363254611102387
2837,4.0,299.8015,147.06099,0.0,0.0,0.0,0.0,0.0,0.028275838789299665,-0.10677275929515091,0.07166553202833734,-0.00959564350544128,-0.015764410527326186,-0.017923827862194087,0.3433710450180837
2838,4.0,298.67281,196.6134,0.0,0.0,0.0,0.0,0.0,0.028285805598883496,-0.1140007991485029,0.08358501711669891,-0.029349778078597573,0.006629427095673514,-0.005554039939916064,0.36075603559634867
2839,4.0,299.86477,368.40369,0.0,0.0,0.0,0.0,0.0,0.028295772408467326,-0.09088012095441961,0.05352194237845445,-0.07462734515714553,0.025282625614450875,0.014046550360786586,0.3618875218505177
2840,4.0,299.40873,400.01066000000003,0.0,0.0,0.0,0.0,0.0,0.02830573921805113,-0.11474321762927389,0.043712089594547365,-0.05056212231259295,-0.00966285086469913,0.013102767674392486,0.33521341912548863
2841,4.0,301.12234,528.05647,0.0,0.0,0.0,0.0,0.0,0.028315706027634946,-0.0995751534218025,0.04295107088169066,-0.10389189674333191,0.002325209774530338,-0.029022923861339575,0.3490247981910657
2842,4.0,299.91863,152.55773,0.0,0.0,0.0,0.0,0.0,0.028325672837218777,-0.10887054163968589,0.07001887497282494,-0.007522070542895562,-0.004690329545324485,0.0026994998018448875,0.3326050600555637
2843,4.0,299.91787999999997,-184.81525,0.0,0.0,0.0,0.0,0.0,0.028335639646802593,-0.04799466206970436,0.1071195137443729,-0.0029456332472363672,0.02014557831671378,0.035337195522759664,0.37210090047349964
2844,4.0,300.14142000000004,185.80794,0.0,0.0,0.0,0.0,0.0,0.028345606456386424,-0.1120722194381669,0.07371773635687413,-0.018126492067695482,0.010127268272508561,0.02124074563429838,0.30158300995892573
2845,4.0,301.38837,372.42233,0.0,0.0,0.0,0.0,0.0,0.02835557326597024,-0.0966103491786991,0.051124097162555546,-0.06772083691827624,-0.016218451950136586,-0.003157012923472917,0.35359664343727165
2846,4.0,299.76936,99.989586,0.0,0.0,0.0,0.0,0.0,0.028365540075554044,-0.07735030180013043,0.05934854892574574,-0.012392584732302887,-0.0033279040376385572,-0.002370184298768978,0.2870339949530497
2847,4.0,299.98564,190.1865,0.0,0.0,0.0,0.0,0.0,0.028375506885137874,-0.07160312696792843,0.03808049316150207,-0.024289313236668577,0.004828548106040596,0.015350850472510986,0.32889961457236466
2848,4.0,299.07838,372.22126000000003,0.0,0.0,0.0,0.0,0.0,0.028385473694721705,-0.14988750350524485,0.047278577959032356,-0.01053704718192559,-0.011421225431187189,-0.015761837885322285,0.3297084921271947
2849,4.0,298.95175,428.47905999999995,0.0,0.0,0.0,0.0,0.0,0.028395440504305536,-0.1107540114555699,0.03745716500473436,-0.05695008866703615,-0.025260887346805476,-0.05413127957784135,0.36602797586664865
2850,4.0,299.0159,372.42341,0.0,0.0,0.0,0.0,0.0,0.028405407313889325,-0.1097026530193089,0.038920097525614566,-0.042424859707257664,0.017855078842909083,-0.005723639160204204,0.36400345150434366
2851,4.0,299.3842,400.50247,0.0,0.0,0.0,0.0,0.0,0.028415374123473155,-0.08846332289540022,0.04703351025009605,-0.08031293768801984,0.024516176894308277,0.04414663912518405,0.3632058615556277
2852,4.0,299.42235,191.09518,0.0,0.0,0.0,0.0,0.0,0.028425340933056986,-0.09552505395683882,0.07169555969505084,-0.03425866881156737,0.02239658738112108,0.038749141968742566,0.34993142398304267
2853,4.0,300.40764,232.07971,0.0,0.0,0.0,0.0,0.0,0.028435307742640817,-0.09632806378033971,0.06702097392845513,-0.04123934797100676,-0.03574461224221857,-0.006489084458772773,0.3309579409580057
2854,4.0,299.86946,345.65947,0.0,0.0,0.0,0.0,0.0,0.028445274552224634,-0.14982441855401887,0.0915049750658379,-0.04675240630135325,-0.00846454461678551,-0.007212694180587493,0.3690088462033376
2855,4.0,300.12332000000004,266.5792,0.0,0.0,0.0,0.0,0.0,0.028455241361808437,-0.09159633982735492,0.08150654934557013,-0.07094362882234102,0.004261304963508056,0.0034703809845499367,0.36524353790423064
2856,4.0,300.46128999999996,238.18668,0.0,0.0,0.0,0.0,0.0,0.028465208171392253,-0.08717458529196173,0.06237873819780214,-0.047606956104440754,0.017669132250807584,-0.012711203252748089,0.3429267044517307
2857,4.0,301.31237000000004,445.10724000000005,0.0,0.0,0.0,0.0,0.0,0.028475174980976084,-0.1069291645805869,0.04392061646512736,-0.07229294054325773,-0.0021204248365696383,-0.018306184880179783,0.3318893103174247
2858,4.0,300.17162,657.93043,0.0,0.0,0.0,0.0,0.0,0.028485141790559915,-0.13767644151510688,-0.007795311468212342,-0.054522671746968746,0.001953934267588298,0.025248655391598273,0.3216579059751637
2859,4.0,299.67952,288.58027999999996,0.0,0.0,0.0,0.0,0.0,0.028495108600143745,-0.12131451943031088,0.05630878038724394,-0.02271546326709168,-0.0037135065970195663,0.04961706799732336,0.32868267772595466
2860,4.0,299.83875,88.993638,0.0,0.0,0.0,0.0,0.0,0.028505075409727534,-0.0976259854826846,0.06682873100023223,0.0037454099923181867,0.004859366614457145,0.017024349536422484,0.3314111170652307
2861,4.0,300.03986000000003,43.258672,0.0,0.0,0.0,0.0,0.0,0.028515042219311365,-0.04426989694684866,0.07468155809049594,-0.04356121766790746,-0.014956686051109985,-0.029680206028958267,0.37061558728441063
2862,4.0,299.18974,31.274323,0.0,0.0,0.0,0.0,0.0,0.028525009028895196,-0.05817988855190794,0.09411996383116722,-0.04544668865273896,0.013474669977846385,-0.027309526048240374,0.34109099924556063
2863,4.0,298.93886000000003,265.4873,0.0,0.0,0.0,0.0,0.0,0.028534975838479026,-0.06405095651358723,0.03358762569434057,-0.05023817916287225,0.00896991039956123,-0.013304725644574187,0.34329406840798665
2864,4.0,299.59852,358.96615,0.0,0.0,0.0,0.0,0.0,0.028544942648062843,-0.09944819217102241,0.05299833120377804,-0.06266688626124015,0.02709848023791177,-0.013993524956553385,0.3173989422273367
2865,4.0,299.98945,133.1681,0.0,0.0,0.0,0.0,0.0,0.028554909457646646,-0.11256191307899589,0.07840256304223052,-0.006320428270352703,-0.013781589512636987,-0.0015296494670896485,0.3234753118845277
2866,4.0,300.41902000000005,175.17798,0.0,0.0,0.0,0.0,0.0,0.028564876267230463,-0.1345261760266999,0.07199067182642613,0.009285775716834711,-0.006749986429671794,0.012637529837977089,0.33092554735230867
2867,4.0,300.21832,438.23889,0.0,0.0,0.0,0.0,0.0,0.028574843076814294,-0.1059307383295499,0.07214415388532364,-0.09942709123768989,-0.00033281342480612767,0.022053423890253478,0.3578512502096686
2868,4.0,300.15103,342.34245,0.0,0.0,0.0,0.0,0.0,0.028584809886398124,-0.1089549352405149,0.050214974722332155,-0.04532359193784026,-0.004086725720303426,-0.010120166605207679,0.3682968150930656
2869,4.0,299.78454,283.41407000000004,0.0,0.0,0.0,0.0,0.0,0.028594776695981955,-0.06709292785780643,0.05697538952203315,-0.07603326108164862,0.02046798639253298,-0.0066082779316362535,0.3467686549884017
2870,4.0,300.27322000000004,381.71564,0.0,0.0,0.0,0.0,0.0,0.028604743505565744,-0.14197410128425286,0.06740898589524894,-0.04146691077121546,-0.005603256131723324,0.002538503581530797,0.3659141676154167
2871,4.0,299.66389,438.14467,0.0,0.0,0.0,0.0,0.0,0.028614710315149575,-0.16789495388494186,0.05007617161763336,-0.015366262006531985,-0.012966457164939688,0.02124234048995578,0.3503823405425447
2872,4.0,299.94694,474.74689000000006,0.0,0.0,0.0,0.0,0.0,0.028624677124733405,-0.16644145674899286,0.06301599955669494,-0.04088574192460857,-0.02166210872813368,0.002147773976643788,0.3622759411438517
2873,4.0,300.5366,397.87745,0.0,0.0,0.0,0.0,0.0,0.028634643934317236,-0.08830781028330233,0.06775984400737595,-0.100396843524147,0.0025568775548691675,0.009031677619032182,0.34859489643863767
2874,4.0,300.58263999999997,264.8222,0.0,0.0,0.0,0.0,0.0,0.028644610743901053,-0.10188055476482791,0.08353574479083613,-0.062154529255424446,0.026568259632833074,-0.001994090483626408,0.3482436836889756
2875,4.0,300.2397,142.49886,0.0,0.0,0.0,0.0,0.0,0.028654577553484856,-0.04843923264383005,0.07991989392122942,-0.07479675652086512,0.042900849140484164,-0.0024866050127338073,0.3186086919192297
2876,4.0,300.74427000000003,189.68357,0.0,0.0,0.0,0.0,0.0,0.028664544363068672,-0.1029830114036319,0.053264284023775546,-0.007940341197425663,0.01779550784302988,-0.019109294002190483,0.28972182322831774
2877,4.0,300.3776,140.99255,0.0,0.0,0.0,0.0,0.0,0.028674511172652503,-0.11573197747435689,0.07801579433330944,-0.005142029043178755,-0.0025293909167564475,-0.016145616493198286,0.33224841628536567
2878,4.0,299.9969,6.306516,0.0,0.0,0.0,0.0,0.0,0.028684477982236334,-0.0959532909393525,0.08348277410210832,0.01055349324429869,-0.0019009140309306082,0.003911476009507626,0.3201459645734467
2879,4.0,299.07331,101.25895,0.0,0.0,0.0,0.0,0.0,0.028694444791820164,-0.05084760046201745,0.06081119773659795,-0.04074378963859896,-0.013762128017966287,0.023918912569862876,0.34241021034575664
2880,4.0,299.81197000000003,356.8034,0.0,0.0,0.0,0.0,0.0,0.028704411601403954,-0.11555584420947389,0.08024200815451962,-0.07314548917739773,-0.012908189204689089,-0.015509505173168986,0.36732838104498866
2881,4.0,299.5797,405.97583,0.0,0.0,0.0,0.0,0.0,0.028714378410987784,-0.06951420042926743,0.03072691972676087,-0.0846192344010182,0.011450492147075591,-0.009977169759669991,0.3580723109839857
2882,4.0,299.74197999999996,187.6193,0.0,0.0,0.0,0.0,0.0,0.028724345220571615,-0.1328662494478779,0.09252168136192901,-0.016687012233629884,0.03698944774532426,-0.008761614752654053,0.3676166304334366
2883,4.0,299.96509,259.86823,0.0,0.0,0.0,0.0,0.0,0.028734312030155446,-0.13266810839082288,0.092008530981285,-0.038333871547758566,0.025691655428068977,0.016823106920811383,0.3562148209006657
2884,4.0,300.46651,371.9411,0.0,0.0,0.0,0.0,0.0,0.028744278839739262,-0.1287954259786189,0.05380714289735155,-0.03807252496271567,-0.03832963514909046,-0.02180152079614258,0.34507369022112167
2885,4.0,300.18966,326.96695,0.0,0.0,0.0,0.0,0.0,0.028754245649323065,-0.09852963434586781,0.07371556192215953,-0.07457571601155014,-0.022951423884129178,0.01221344414112309,0.3416237256181367
2886,4.0,300.2647,397.47207000000003,0.0,0.0,0.0,0.0,0.0,0.028764212458906882,-0.14428144401446988,0.07803912239036173,-0.05457926075180365,-0.006436648158147713,0.02153979322906208,0.37720242220948064
2887,4.0,300.07025,290.2032,0.0,0.0,0.0,0.0,0.0,0.028774179268490713,-0.08090437785089043,0.05072301426947175,-0.05803316183142714,0.013850622241949986,0.018518541836137783,0.32652419156792867
2888,4.0,299.56647000000004,81.812004,0.0,0.0,0.0,0.0,0.0,0.028784146078074543,-0.13778753425607088,0.1126646769041379,0.00025405028253031075,0.005644170360161245,-0.031216383359817173,0.35641326593275063
2889,4.0,300.60392,330.07285,0.0,0.0,0.0,0.0,0.0,0.028794112887658374,-0.09617894578962291,0.04810342636193855,-0.052258386066501156,0.00919141274827181,-0.026360791608607572,0.3445355024305066
2890,4.0,300.39357,475.03281,0.0,0.0,0.0,0.0,0.0,0.028804079697242163,-0.12436945834930989,0.06048942091559104,-0.08051807219726502,0.014099635546775686,0.007367275919818524,0.3896454374125106
2891,4.0,300.25243,171.88282,0.0,0.0,0.0,0.0,0.0,0.028814046506825994,-0.06021304783156514,0.06060739463798414,-0.05264243115915345,0.017502717067633684,0.041076292725164464,0.34756721765721366
2892,4.0,300.42888,121.99707,0.0,0.0,0.0,0.0,0.0,0.028824013316409824,-0.08126667150364601,0.06402500819177634,-0.019842399701292382,0.003027376996403847,0.00960286585082907,0.3579123289256967
2893,4.0,299.86205,120.46406,0.0,0.0,0.0,0.0,0.0,0.028833980125993655,-0.03723744577354977,0.06117143955790104,-0.060552059023522946,-0.026296176649730572,-0.008998957544152962,0.3309291646551657
2894,4.0,299.21218999999996,170.15912,0.0,0.0,0.0,0.0,0.0,0.028843946935577472,-0.11830807466109788,0.06569191201078695,0.0008920437754153662,-0.016384726291546588,0.0038395619008852566,0.3526162327730127
2895,4.0,298.99204,340.46153,0.0,0.0,0.0,0.0,0.0,0.028853913745161275,-0.10080231379016381,0.04556999004415786,-0.04825947903633975,-0.015108127424306088,0.007960579348298013,0.3125233853961567
2896,4.0,299.47457,291.16717,0.0,0.0,0.0,0.0,0.0,0.028863880554745106,-0.12124224430067788,0.07642194685975894,-0.04368725078159596,-0.014928291743557686,-0.029043414818111873,0.3404752268947887
2897,4.0,299.57957000000005,15.072048,0.0,0.0,0.0,0.0,0.0,0.028873847364328922,-0.06486427615685564,0.06897104467341214,-0.008688294556867912,0.0013417839819487686,-0.002095202711105408,0.3130524539358717
2898,4.0,300.53999,200.59061,0.0,0.0,0.0,0.0,0.0,0.028883814173912753,-0.1191247643741989,0.0900456466755634,-0.031895422033583073,0.03448965943686436,0.023176510301093477,0.3665485432380246
2899,4.0,300.60925,555.05673,0.0,0.0,0.0,0.0,0.0,0.028893780983496584,-0.13668203786696687,0.03630738857301027,-0.06834873280649474,0.03581538168220297,0.03690056038030177,0.34255876294291765
2900,4.0,300.42125,509.37185999999997,0.0,0.0,0.0,0.0,0.0,0.028903747793080373,-0.18421097574020784,0.056898902311734445,-0.027524254009432373,0.006977901840915295,-0.018679424673765682,0.37620692425123264
2901,4.0,300.31077999999997,111.84961000000001,0.0,0.0,0.0,0.0,0.0,0.028913714602664203,-0.05424051097837165,0.07634208451337712,-0.056101061076993655,0.0008097534386139422,-0.023385772791246078,0.34873400554486667
2902,4.0,300.47196,286.45016,0.0,0.0,0.0,0.0,0.0,0.028923681412248034,-0.10100578859574522,0.05612371532272945,-0.04219162270648896,5.5386478602969845e-05,-0.004333052696464007,0.3926494098514796
2903,4.0,299.86181,551.04431,0.0,0.0,0.0,0.0,0.0,0.028933648221831865,-0.12494698050880687,0.057300233451092746,-0.0998569585396145,-0.029946415201231074,0.028228515517937577,0.3535426473394427
2904,4.0,300.50165,297.90844,0.0,0.0,0.0,0.0,0.0,0.02894361503141568,-0.14078310685171086,0.08417003327393552,-0.033943650368727464,-0.024020435163632375,0.0038075640706773163,0.36353205716032067
2905,4.0,300.19032999999996,-35.624449,0.0,0.0,0.0,0.0,0.0,0.028953581840999484,-0.06146373485399835,0.06729416034091654,0.004998517973215316,-0.01101792959988499,0.0060055388142505346,0.3195962966591987
2906,4.0,299.74082999999996,103.94335,0.0,0.0,0.0,0.0,0.0,0.028963548650583315,-0.12312789260427688,0.1043151414426029,-0.01278342771987609,0.018180076785983882,0.002161634326086698,0.3860759802252326
2907,4.0,298.6628,265.14149,0.0,0.0,0.0,0.0,0.0,0.028973515460167132,-0.05269147043749325,0.024398321722176874,-0.05230324264842815,0.015385283750659286,-0.007006393217827174,0.3084033585020417
2908,4.0,298.6802,332.44458,0.0,0.0,0.0,0.0,0.0,0.028983482269750963,-0.1146511537251879,0.07334962563529443,-0.05975332714194424,-0.025371684218740274,-0.031032324452651968,0.3593015049452976
2909,4.0,299.6692,251.61256,0.0,0.0,0.0,0.0,0.0,0.028993449079334793,-0.07881239534992783,0.07253325914897533,-0.07020480129992443,0.023535766230049274,-0.02242332806451018,0.3381531616406187
2910,4.0,300.40586,0.55890509,0.0,0.0,0.0,0.0,0.0,0.029003415888918582,-0.051429106720907655,0.051121271208026654,0.00013794229807634486,0.01119265951337949,0.017115529886421284,0.3402996002549557
2911,4.0,299.48546,166.65573,0.0,0.0,0.0,0.0,0.0,0.029013382698502413,-0.0952413854720929,0.06522668633337274,-0.02064448138770168,0.05108513262996005,0.03663672018676276,0.32632698270096566
2912,4.0,300.67951,715.7394,0.0,0.0,0.0,0.0,0.0,0.029023349508086244,-0.1883189956206378,0.020570022704103182,-0.04981793267064716,-0.042305248572702965,-0.02979880188691277,0.35303246578159164
2913,4.0,299.59148999999996,431.10264000000006,0.0,0.0,0.0,0.0,0.0,0.029033316317670074,-0.06964533221745914,0.01913427568340598,-0.08053338341952612,-0.0034988387215584968,-0.006592416818545884,0.33617350399274165
2914,4.0,300.64967,41.566318,0.0,0.0,0.0,0.0,0.0,0.02904328312725389,-0.07931372008865473,0.1033468695145419,-0.03666827380812686,-0.008800831077899402,-0.00966483308586976,0.37044999182056765
2915,4.0,301.21629,256.58922,0.0,0.0,0.0,0.0,0.0,0.029053249936837694,-0.07289541905271774,0.046666632653888054,-0.05176792742184665,0.04034692490568146,0.012316169462761288,0.3490517911737297
2916,4.0,300.38197,266.39497,0.0,0.0,0.0,0.0,0.0,0.029063216746421525,-0.13734841192773287,0.09094734908530451,-0.03457635818167087,-0.024675278438260374,-0.01058965208736729,0.3487390920603687
2917,4.0,299.39704,231.04152000000002,0.0,0.0,0.0,0.0,0.0,0.02907318355600534,-0.14284494921519886,0.08621008873377332,-0.013595989452069688,-0.003578887303308676,0.005417772898892555,0.36172981960495365
2918,4.0,299.60986,378.27103,0.0,0.0,0.0,0.0,0.0,0.029083150365589172,-0.15395770889194285,0.07274304954243004,-0.03377029138261827,-0.012437188001704886,0.02395107110153668,0.3746932400593437
2919,4.0,298.60107,344.6574,0.0,0.0,0.0,0.0,0.0,0.029093117175173003,-0.08279340129057253,0.06344003763079424,-0.08541387984494361,0.008443263223610201,0.027042383672625472,0.35576134081841065
2920,4.0,299.91969,389.35249,0.0,0.0,0.0,0.0,0.0,0.029103083984756792,-0.1110132514936549,0.05563452628045024,-0.06297471265487024,0.0030632910382482866,-0.015560167678168986,0.3786374173986036
2921,4.0,299.11741,428.76769,0.0,0.0,0.0,0.0,0.0,0.029113050794340622,-0.08763326537372992,0.06046051795648854,-0.1031619209737889,-0.0016114140892091885,-0.02286179076703308,0.3578190085914867
2922,4.0,299.58569,422.72098,0.0,0.0,0.0,0.0,0.0,0.029123017603924453,-0.15037675131602984,0.05203375459883175,-0.03015362585993117,0.038189109519221665,-0.0015729087615590086,0.3672325681155327
2923,4.0,301.31198,231.09736,0.0,0.0,0.0,0.0,0.0,0.029132984413508284,-0.1138098015046529,0.048488103722653254,-0.004926126522470836,0.014736516936880986,-0.000984603928870342,0.32413243497188066
2924,4.0,300.65526,182.19829,0.0,0.0,0.0,0.0,0.0,0.029142951223092087,-0.10658310927393388,0.057388011307255744,-0.006188636248395844,-0.0015541783268354585,-0.024323700918562376,0.3308123571836377
2925,4.0,300.29712,166.55115,0.0,0.0,0.0,0.0,0.0,0.029152918032675904,-0.04839792345050316,0.04721109347587216,-0.04944056084315346,-0.04840459570241166,-0.01016270091923049,0.33067883108545965
2926,4.0,300.4362,-92.82468100000001,0.0,0.0,0.0,0.0,0.0,0.029162884842259734,-0.05231080250742425,0.09508662165181891,-0.014559433243404186,-0.02332665268766138,0.02476278980964708,0.36046638792276264
2927,4.0,300.0048,65.586272,0.0,0.0,0.0,0.0,0.0,0.02917285165184355,-0.013240688238254188,0.05915132283353104,-0.06584722298611494,0.008276334322635602,0.02029882327508788,0.3414352104370317
2928,4.0,300.65797000000003,531.60774,0.0,0.0,0.0,0.0,0.0,0.02918281846142738,-0.14647679221113385,0.03474574522738807,-0.04986442970448605,0.014035423861438485,-0.005726923509078344,0.34150842788925767
2929,4.0,298.79499,451.45269,0.0,0.0,0.0,0.0,0.0,0.0291927852710112,-0.14717398933994186,0.05973266393265494,-0.04978901957904365,0.02073961543959068,-0.003444726910568077,0.3572006423204587
2930,4.0,298.35265,266.46915,0.0,0.0,0.0,0.0,0.0,0.029202752080595,-0.12477755495958587,0.07597172133682513,-0.03219413829556407,0.03343843272311637,0.009236037701225951,0.32131132377845867
2931,4.0,299.3022,358.06611000000004,0.0,0.0,0.0,0.0,0.0,0.029212718890178832,-0.1028426965297839,0.05750167162397315,-0.06350212655717194,0.016753149094157083,0.002805786798909597,0.36356782488885064
2932,4.0,299.60504,178.2026,0.0,0.0,0.0,0.0,0.0,0.029222685699762663,-0.09956833222212931,0.08559111045968491,-0.04019191993188367,-0.012971362308673788,-0.02848489819074057,0.36794955401879365
2933,4.0,299.31741,-38.898437,0.0,0.0,0.0,0.0,0.0,0.029232652509346466,-0.03363262818428197,0.09067566329624123,-0.045218882672506254,-0.02985833640978837,-0.026382564326756373,0.36944738084661766
2934,4.0,300.06449,64.211822,0.0,0.0,0.0,0.0,0.0,0.029242619318930296,-0.11151560062823289,0.1016933568088529,-0.00969654274774926,-0.008594253193886752,0.0004444090924572626,0.36098946815438665
2935,4.0,299.87522,248.97857000000002,0.0,0.0,0.0,0.0,0.0,0.029252586128514113,-0.12393620273905087,0.07999796889443483,-0.03174503545374107,-0.0022659048541273977,0.006185470348458394,0.34988543256100363
2936,4.0,300.69201,460.27520999999996,0.0,0.0,0.0,0.0,0.0,0.029262552938097944,-0.13892757234108388,0.03521805554950147,-0.036202651949923566,-0.020059286898447482,-0.0025138260779953175,0.3250893787638237
2937,4.0,299.67815,548.75364,0.0,0.0,0.0,0.0,0.0,0.02927251974768176,-0.15119445427923087,0.05512280154269694,-0.07073575144507513,-0.005425458198251035,0.01104245633180559,0.36235278603143567
2938,4.0,299.84441,391.13595,0.0,0.0,0.0,0.0,0.0,0.029282486557265577,-0.10724648411440389,0.04471883158915505,-0.056367913663079944,-0.0016558943500490483,0.02001247778357778,0.36824961790340766
2939,4.0,300.8442,253.85127999999997,0.0,0.0,0.0,0.0,0.0,0.029292453366849408,-0.04906758550784366,0.04635281592566676,-0.07444968087136143,0.028535024686437677,0.018701665513460683,0.3583313889020547
2940,4.0,301.27586,286.9891,0.0,0.0,0.0,0.0,0.0,0.02930242017643321,-0.0944682715927925,0.046567014970306554,-0.039336265686187165,-0.003246828222936997,-0.006632135715840833,0.34890899383713664
2941,4.0,300.60604,344.61368999999996,0.0,0.0,0.0,0.0,0.0,0.02931238698601704,-0.1035240160295249,0.025055681910053276,-0.026285625676439273,0.016672362663684086,0.015504858408210385,0.33508396629271264
2942,4.0,301.26481,-9.976407199999999,0.0,0.0,0.0,0.0,0.0,0.02932235379560086,-0.07808895504352983,0.09002297824432623,-0.00890144488765421,-0.024357547524902774,0.007988730779801343,0.3253570186452377
2943,4.0,300.47421,-156.16215,0.0,0.0,0.0,0.0,0.0,0.029332320605184675,-0.054199834053107146,0.07943982514310033,0.022229404154371378,-0.011636311069664488,0.016262959974029184,0.3137196081992147
2944,4.0,300.0512,54.917227000000004,0.0,0.0,0.0,0.0,0.0,0.029342287414768506,-0.04479065379599336,0.07373924866974722,-0.04564206049727065,-0.03352238252040157,-0.015396164030233087,0.32476399375921067
2945,4.0,299.68519,271.26813,0.0,0.0,0.0,0.0,0.0,0.029352254224352323,-0.06498059625508554,0.056157615631325146,-0.07363575631778332,0.00987023407989126,0.0068575645100139235,0.36181575334593463
2946,4.0,299.17514,396.06875,0.0,0.0,0.0,0.0,0.0,0.029362221033936153,-0.13037372512938486,0.04743140241861495,-0.037452689479042664,0.002539648351493778,0.012972239783260387,0.35214231543624064
2947,4.0,300.50012999999996,617.35113,0.0,0.0,0.0,0.0,0.0,0.029372187843519956,-0.16737428518855585,0.03364095406035367,-0.05392599814733165,0.006214078857081834,0.010960019316919688,0.38795337054051665
2948,4.0,300.8015,512.35842,0.0,0.0,0.0,0.0,0.0,0.029382154653103787,-0.16946703168009383,0.045593536963231755,-0.03187066934689017,-0.0012137439237871988,-0.016793330540122685,0.3562224101439147
2949,4.0,300.52441,425.94369000000006,0.0,0.0,0.0,0.0,0.0,0.029392121462687604,-0.15914153693354685,0.06245571379464904,-0.03279042483366297,-0.0019087836404822784,-0.007748669539609143,0.3683938337901406
2950,4.0,300.7991,616.34023,0.0,0.0,0.0,0.0,0.0,0.02940208827227142,-0.13655610101203788,0.04298323346636486,-0.0937791703322835,-0.013043178436011486,-0.01004885254329453,0.3709129660562596
2951,4.0,300.29612000000003,332.18983,0.0,0.0,0.0,0.0,0.0,0.029412055081855237,-0.09902360795511922,0.07715659776526333,-0.07911040335008893,-0.010581519742064689,-0.005218740688374605,0.3853950052305256
2952,4.0,300.29292000000004,-42.078171999999995,0.0,0.0,0.0,0.0,0.0,0.029422021891439068,-0.08022446575553834,0.1021939327557559,-0.009178752188272311,-0.004846071253269995,-0.0036628209899172864,0.36927590853219466
2953,4.0,300.07612,55.369938,0.0,0.0,0.0,0.0,0.0,0.029431988701022885,-0.07929492328604963,0.0947576770996046,-0.032293831972903066,0.0018363709114856983,0.002726928684701907,0.35169284782438165
2954,4.0,299.6843,196.17334,0.0,0.0,0.0,0.0,0.0,0.0294419555106067,-0.12175019670830887,0.07077502501895114,-0.008656628566067722,0.008226144802782283,0.009489240592565132,0.3339432999926377
2955,4.0,299.50054,195.07056,0.0,0.0,0.0,0.0,0.0,0.029451922320190532,-0.09411945416636691,0.06178405968761194,-0.02696118484936177,-0.0050259174718194355,0.008361797104970122,0.3115825725458057
2956,4.0,299.75793999999996,226.33147999999997,0.0,0.0,0.0,0.0,0.0,0.029461889129774335,-0.07601986591532663,0.032020250392902676,-0.024799503913770476,0.012846721400622686,0.012769141906716188,0.3117105561659367
2957,4.0,300.23511,353.76531,0.0,0.0,0.0,0.0,0.0,0.029471855939358166,-0.07505610700321103,0.04396598777810516,-0.07644570250835342,-0.01912322517781538,0.007530538476631283,0.36102046347494565
2958,4.0,300.88077999999996,400.67686000000003,0.0,0.0,0.0,0.0,0.0,0.029481822748941997,-0.12394261661218388,0.050500273526488955,-0.048353418466360855,0.014882026743991686,-0.01045071118065489,0.36906194050857766
2959,4.0,300.35683,474.16205,0.0,0.0,0.0,0.0,0.0,0.029491789558525813,-0.1051751374649779,0.02020949919927228,-0.05916778916090614,-0.01851991073702288,-0.023217141630103477,0.36283253968878365
2960,4.0,299.97683,468.57502,0.0,0.0,0.0,0.0,0.0,0.02950175636810963,-0.14917304059473288,0.06149018676110894,-0.05475225192812655,0.02093662570953408,-0.026830574884971578,0.3616032747999647
2961,4.0,299.68303,203.35127,0.0,0.0,0.0,0.0,0.0,0.029511723177693447,-0.0861095368335996,0.08381283322943262,-0.059517003781370946,0.02226629760376248,-0.02898500804259757,0.3684520855383897
2962,4.0,299.06822999999997,-74.992181,0.0,0.0,0.0,0.0,0.0,0.029521689987277278,-0.027362019496171078,0.08797230392344042,-0.037814534262003964,0.020386731840513782,0.0018531810346197283,0.3199206380162087
2963,4.0,300.18827000000005,220.92587000000003,0.0,0.0,0.0,0.0,0.0,0.029531656796861094,-0.09255355010407422,0.08853392920211851,-0.06313632705907034,-0.00929985918394964,-0.017540609581623384,0.37870233633251066
2964,4.0,299.56234,469.47137000000004,0.0,0.0,0.0,0.0,0.0,0.02954162360644491,-0.12101465819571688,0.05266389888902215,-0.07435681649969643,0.005091905587231956,-0.014451116807714185,0.3456069536162507
2965,4.0,300.7455,371.44361000000004,0.0,0.0,0.0,0.0,0.0,0.029551590416028742,-0.13761867612690587,0.08066427000119362,-0.05595517940709624,-0.017814550865409284,0.003650917125092466,0.38431941998437363
2966,4.0,300.56469,485.73217,0.0,0.0,0.0,0.0,0.0,0.029561557225612545,-0.15184346123328285,0.05577958113826604,-0.05158657085269815,0.00988767079688713,-0.00040324215944440256,0.36269618662282666
2967,4.0,300.79587999999995,728.89697,0.0,0.0,0.0,0.0,0.0,0.029571524035196375,-0.16077864512011686,0.03171949243197017,-0.09250732766101241,-0.021511950129564184,0.0027093089747379775,0.38861187164800565
2968,4.0,300.11502,574.39062,0.0,0.0,0.0,0.0,0.0,0.029581490844780206,-0.13184966575504886,0.04010720513077296,-0.08285794228219222,-0.018324236943961382,0.006880754967702643,0.3495278667332147
2969,4.0,300.44095,291.45838,0.0,0.0,0.0,0.0,0.0,0.029591457654364023,-0.12368237345649989,0.08301929932086692,-0.04793299465536825,0.007386488154964623,0.013165493935083088,0.38763561530915663
2970,4.0,299.50428,-7.3593776,0.0,0.0,0.0,0.0,0.0,0.02960142446394784,-0.0972523484950595,0.12071011574566089,-0.02122070152082018,0.0001009680997450256,0.021547257842548777,0.35260494516689866
2971,4.0,300.16579,-62.955891,0.0,0.0,0.0,0.0,0.0,0.029611391273531656,-0.05996987591356594,0.08274079739838093,-0.0036339027307382772,0.02359106638075698,-0.012682894058204186,0.3638038918971486
2972,4.0,299.35721,-22.525710999999998,0.0,0.0,0.0,0.0,0.0,0.029621358083115487,-0.07416641667340543,0.07507149928548013,0.005942170659621584,-0.00014785615996976685,-0.018530479948815983,0.3289769863500007
2973,4.0,299.68172000000004,292.39991000000003,0.0,0.0,0.0,0.0,0.0,0.029631324892699304,-0.07537989005941592,0.05693763784980735,-0.07044001920463865,0.01006788229209762,-0.018241941784089482,0.3409853983201387
2974,4.0,299.6218,278.24481000000003,0.0,0.0,0.0,0.0,0.0,0.02964129170228312,-0.09829267567748182,0.05377232255766505,-0.040059123373777664,-0.001000868143247995,-0.01088350880186869,0.3291738912419337
2975,4.0,300.2104,186.87235,0.0,0.0,0.0,0.0,0.0,0.02965125851186695,-0.08615150159974122,0.06783244540354114,-0.03848547098797026,-0.005846306358385515,0.01012582803881642,0.3298368506498627
2976,4.0,300.42613,330.14254,0.0,0.0,0.0,0.0,0.0,0.029661225321450754,-0.11819407389234689,0.06100252975298094,-0.043163547401160456,-0.007401041567475932,-0.003308708014494057,0.35520750844625165
2977,4.0,299.74811,445.81278,0.0,0.0,0.0,0.0,0.0,0.029671192131034585,-0.15628032130116684,0.06378094765343943,-0.04301657952715587,0.005544826152781734,-0.0027705032012773773,0.37719339415108966
2978,4.0,299.47783,277.32659,0.0,0.0,0.0,0.0,0.0,0.029681158940618416,-0.1254362992470989,0.06838590793941364,-0.027249964167612075,-0.006730341334082974,0.013616229122817188,0.3696521992218316
2979,4.0,300.23072,95.56750100000001,0.0,0.0,0.0,0.0,0.0,0.029691125750202232,-0.06394124077950913,0.08340281651021712,-0.04851170941023295,0.008705388187379924,0.01129266223199899,0.36789726018113267
2980,4.0,300.2721,112.91351999999999,0.0,0.0,0.0,0.0,0.0,0.02970109255978605,-0.08781575982274073,0.07679492219506873,-0.023302053001733578,-0.022402733756227682,0.008250339492645111,0.37070389203062565
2981,4.0,300.75203,224.60531,0.0,0.0,0.0,0.0,0.0,0.029711059369369866,-0.12008890224185187,0.1080052361867869,-0.056190742830094544,-0.008574796562816532,0.0034912291119824864,0.37491000465323665
2982,4.0,299.99687,380.88537,0.0,0.0,0.0,0.0,0.0,0.029721026178953697,-0.14428245726456987,0.07169120069312063,-0.04318838824061206,0.003607054744163587,-0.019507856942275584,0.35130704271630564
2983,4.0,299.51239,264.88599,0.0,0.0,0.0,0.0,0.0,0.029730992988537513,-0.13438742155800587,0.08999401955646823,-0.036125326781792165,-0.00908200200247381,-0.00988798723489336,0.35260640424704265
2984,4.0,300.32171,61.137705000000004,0.0,0.0,0.0,0.0,0.0,0.02974095979812133,-0.07642183844199822,0.07095683552414443,-0.013119333300277385,0.024091296809375877,-0.008870827306732491,0.3406454427790877
2985,4.0,299.53364,213.22797999999997,0.0,0.0,0.0,0.0,0.0,0.02975092660770516,-0.07110071095884384,0.05723347344175405,-0.05094874511349965,0.005888387344313584,0.006835577590793984,0.34711954349803165
2986,4.0,299.3407,605.82329,0.0,0.0,0.0,0.0,0.0,0.029760893417288964,-0.16097539802453487,0.07647165994941522,-0.099651415690579,0.009489387919129672,4.603014136507126e-05,0.36886131698877767
2987,4.0,299.18315,330.27902,0.0,0.0,0.0,0.0,0.0,0.029770860226872795,-0.1075430016236679,0.05612336169844454,-0.04897693002139666,-0.015707499308959486,-0.004518132959730006,0.35555142579519367
2988,4.0,299.68565,-22.695588,0.0,0.0,0.0,0.0,0.0,0.029780827036456625,-0.07846718509385824,0.07781063347956163,0.0075554438601142535,-0.007759829374885533,0.023918318805304276,0.36294880000525764
2989,4.0,300.39137,378.69766,0.0,0.0,0.0,0.0,0.0,0.029790793846040442,-0.13944140159929486,0.04518819132697725,-0.020861424313612282,-0.03035851414940207,0.00012884971591897688,0.36625143804370264
2990,4.0,300.84219,662.2519,0.0,0.0,0.0,0.0,0.0,0.02980076065562426,-0.13642857335445188,0.016727994147174484,-0.08160745892302912,-0.009413535915318662,-0.0013352189319008488,0.34694084671039566
2991,4.0,300.86409,413.59175,0.0,0.0,0.0,0.0,0.0,0.029810727465208076,-0.0922837438939464,0.02897699627405687,-0.06241481800736294,-0.017152150771535483,0.0037015508537896267,0.32098658725390966
2992,4.0,300.52189,49.873176,0.0,0.0,0.0,0.0,0.0,0.029820694274791906,-0.046924588904096357,0.04708760260668455,-0.015323213062783385,0.017200948896351483,0.006586631160474883,0.3500766429873747
2993,4.0,299.6657,-181.23789,0.0,0.0,0.0,0.0,0.0,0.029830661084375737,-0.05790568888934654,0.11540175926676689,-0.002404271248033098,-0.003518191291843447,-0.017760255858800783,0.3428316615923507
2994,4.0,299.82833,88.664541,0.0,0.0,0.0,0.0,0.0,0.02984062789395954,-0.1001637301398905,0.09268778142432181,-0.01947585749086748,0.016529430564827783,-0.023976813733577275,0.34231957512431166
2995,4.0,300.39142999999996,431.17312999999996,0.0,0.0,0.0,0.0,0.0,0.02985059470354337,-0.15705674445529383,0.06230034405081524,-0.036309464722465164,0.0014643932222243585,-0.01389906167623059,0.34649641495153366
2996,4.0,299.84266,528.1388400000001,0.0,0.0,0.0,0.0,0.0,0.029860561513127173,-0.11038813697696089,0.04392548918485826,-0.09407837498081272,0.0037762672068885565,0.02025419670093358,0.36539750125692566
2997,4.0,299.8564,313.38039,0.0,0.0,0.0,0.0,0.0,0.029870528322711004,-0.10014984557377021,0.06671388315439764,-0.06182385204553914,-0.02806370734942227,0.024661743443424578,0.37063422095374965
2998,4.0,299.24694,416.94192000000004,0.0,0.0,0.0,0.0,0.0,0.029880495132294835,-0.12382319495539788,0.06401486454502524,-0.06693160222988484,-0.02967553291949707,0.005045033346881026,0.39613026845001365
2999,4.0,299.3603,763.58736,0.0,0.0,0.0,0.0,0.0,0.02989046194187865,-0.17463724164035382,0.027904785150737868,-0.08537903316075451,-0.01151725519616459,0.0005958492497532424,0.38253620113338366
3000,4.0,299.92346000000003,599.96767,0.0,0.0,0.0,0.0,0.0,0.02990042875146247,-0.16929634970074883,0.04777410690718725,-0.06085295073346864,0.03051945575553577,0.00915558949363633,0.4068133898193556
3001,4.0,299.6794,49.195902000000004,0.0,0.0,0.0,0.0,0.0,0.029910395561046285,-0.07806686619134984,0.07208646145112983,-0.00897392074213202,0.014381546042598087,-0.012130069869894688,0.36001625156583766
3002,4.0,300.21247999999997,-35.492252,0.0,0.0,0.0,0.0,0.0,0.029920362370630116,-0.043713323733169156,0.0920204022194566,-0.03751831971451987,0.014737497762977786,-0.02637590322059898,0.35582396980709163
3003,4.0,300.80492999999996,66.300159,0.0,0.0,0.0,0.0,0.0,0.029930329180213947,-0.06214034071427414,0.07668482851870333,-0.034698080929433966,0.014882287149267384,-0.005767921735949555,0.3110622584869547
3004,4.0,300.28887000000003,78.520677,0.0,0.0,0.0,0.0,0.0,0.02994029598979775,-0.08219180228219933,0.08077480140160222,-0.02245132315152308,8.451949006117421e-05,0.024922226739382273,0.3334238471963717
3005,4.0,300.80676,213.3012,0.0,0.0,0.0,0.0,0.0,0.02995026279938158,-0.10430791696938989,0.07652377646830873,-0.03705409816795476,-0.02218701179668758,0.003891663119702246,0.3365127401262217
3006,4.0,299.94866,189.06757,0.0,0.0,0.0,0.0,0.0,0.029960229608965383,-0.14667655446834887,0.09035259052835641,-0.0011478507499090489,-0.05009171791391766,-0.027506233356403877,0.36448209058658165
3007,4.0,299.1096,181.33539,0.0,0.0,0.0,0.0,0.0,0.029970196418549214,-0.1030887947140719,0.06529300557891794,-0.017325642493407782,0.0049046988159810855,0.015369188272820787,0.3497136461390497
3008,4.0,299.67834,540.52138,0.0,0.0,0.0,0.0,0.0,0.029980163228133044,-0.11196065046965589,0.03460305124230526,-0.08694739942079023,0.021786811444440876,0.02825024263983187,0.35761176854853366
3009,4.0,299.65586,644.56391,0.0,0.0,0.0,0.0,0.0,0.02999013003771686,-0.12989279610192087,0.02331157856592368,-0.08935011229016951,0.038313001635448866,0.007752536507290782,0.3824354739409427
3010,4.0,299.57794,234.08311,0.0,0.0,0.0,0.0,0.0,0.030000096847300678,-0.09040074929235932,0.05360799973594765,-0.03436267184158167,-0.013340143801819688,-0.015005885422965586,0.3662522182462796
3011,4.0,300.55985,0.75637883,0.0,0.0,0.0,0.0,0.0,0.030010063656884495,-0.08554432768931781,0.08217474421676584,0.0031396633459856473,0.01016628782458449,0.004648384030934785,0.3694230932417206
3012,4.0,299.7203,130.0603,0.0,0.0,0.0,0.0,0.0,0.030020030466468325,-0.1125240783202619,0.09021856996412961,-0.01722957219842638,0.006881601639486202,-0.0017252922546980882,0.37850698171323066
3013,4.0,300.97977000000003,371.76239,0.0,0.0,0.0,0.0,0.0,0.030029997276052156,-0.1094245867943659,0.07139618380725472,-0.07497807965276033,0.00909354565688808,0.005029795078627126,0.38019300961462865
3014,4.0,300.96275,385.79436,0.0,0.0,0.0,0.0,0.0,0.03003996408563596,-0.10066152572851911,0.05302085068725054,-0.06963117812681223,-0.030844243955839873,-0.017846072062770182,0.3481232791795927
3015,4.0,300.46004,248.19421,0.0,0.0,0.0,0.0,0.0,0.03004993089521979,-0.12267688485226588,0.0964031496657501,-0.049171109270560655,-0.007371139138474794,0.0010074929041243082,0.3576177669891257
3016,4.0,299.8594,215.1712,0.0,0.0,0.0,0.0,0.0,0.030059897704803593,-0.1099931518229789,0.07928428517324972,-0.03469780228565647,0.02291868982639858,0.014246829375552588,0.34690170485903266
3017,4.0,300.28362999999996,552.52147,0.0,0.0,0.0,0.0,0.0,0.030069864514387423,-0.15791775372776887,0.04459926605085486,-0.05463424274197995,0.017400455814541284,0.0035912386193776564,0.38323304362465666
3018,4.0,299.87806,752.10078,0.0,0.0,0.0,0.0,0.0,0.030079831323971254,-0.17436869996635082,0.023652077209028274,-0.07790323237970043,-0.0009327676952195042,-0.014381368723830588,0.4005853670196976
3019,4.0,300.34987,346.41614,0.0,0.0,0.0,0.0,0.0,0.03008979813355507,-0.10092484713800691,0.037989439467765763,-0.04236644887874296,0.0065750973345865835,-0.006061231903347014,0.36294873921025167
3020,4.0,300.16494,-152.1682,0.0,0.0,0.0,0.0,0.0,0.030099764943138888,-0.028794496758795578,0.09911246289613851,-0.024062631964046875,0.009668597715291301,-0.0049878354800610356,0.37586709030019366
3021,4.0,299.78407000000004,61.043729000000006,0.0,0.0,0.0,0.0,0.0,0.030109731752722704,-0.06409132642407143,0.06008116927804974,-0.014545612512040187,-0.011868059606036289,-0.016212036050503385,0.3409141465731067
3022,4.0,299.56696,580.37711,0.0,0.0,0.0,0.0,0.0,0.030119698562306535,-0.13098183730940088,0.024619813127786376,-0.07005813132144924,-0.03772762273467646,-0.022768528188078778,0.33372785262387467
3023,4.0,299.44978,372.41679,0.0,0.0,0.0,0.0,0.0,0.030129665371890366,-0.14921988314685586,0.05043947852048895,-0.014424997246636387,-0.023462685566586775,-0.002474714320160288,0.3216630330206697
3024,4.0,299.42272,-36.115433,0.0,0.0,0.0,0.0,0.0,0.03013963218147417,-0.06600365360280344,0.08473274576997092,-0.007750902438854512,0.0045898304354809955,0.017033778841853083,0.35409125134108566
3025,4.0,300.14342999999997,80.437804,0.0,0.0,0.0,0.0,0.0,0.030149598991058,-0.06741907381324454,0.07573722689268234,-0.032769237774071966,0.024948350353460474,0.006073832073640555,0.36708523141849164
3026,4.0,299.91012,379.26403999999997,0.0,0.0,0.0,0.0,0.0,0.030159565800641802,-0.07267747706220853,0.047730795531662755,-0.09034011539312523,0.017820915089287383,-0.017074527707874685,0.3872383908724536
3027,4.0,300.35048,645.9287099999999,0.0,0.0,0.0,0.0,0.0,0.030169532610225633,-0.16652259781700085,0.043558955080434156,-0.07338255119729394,-0.013080959492490187,-0.014528689208869986,0.3702039442987846
3028,4.0,300.90686,515.7696,0.0,0.0,0.0,0.0,0.0,0.030179499419809463,-0.14397488519671486,0.05984323890281785,-0.07264943840544133,-0.0002150278021615918,0.013016964642674387,0.3807732270193916
3029,4.0,301.1788,16.221728,0.0,0.0,0.0,0.0,0.0,0.03018946622939328,-0.1258896172093379,0.10982434435631891,0.01113427300286719,-0.03107032538440237,0.01998878394323938,0.38179974056320065
3030,4.0,300.40707000000003,345.1735,0.0,0.0,0.0,0.0,0.0,0.030199433038977097,-0.10359871282689691,0.041338849130826756,-0.04266426334813496,-0.0018833834869754784,0.016348312109452784,0.37141094808290664
3031,4.0,299.93934,758.2243900000001,0.0,0.0,0.0,0.0,0.0,0.030209399848560914,-0.15638528387902584,0.043439481747893055,-0.11753548159234888,-0.007704240245249312,0.007467802083439681,0.3784856527986256
3032,4.0,299.29568,449.22404000000006,0.0,0.0,0.0,0.0,0.0,0.030219366658144745,-0.09188821057166031,0.05184006373621595,-0.09650474420027672,0.02903763422629137,0.025552634474598677,0.3644509432785077
3033,4.0,300.08527000000004,-129.06991000000002,0.0,0.0,0.0,0.0,0.0,0.030229333467728575,-0.03985360078974416,0.1023173364854349,-0.023229701878343077,0.004380701795666606,-0.014019337502850886,0.35450584288450265
3034,4.0,300.21584,-148.51246,0.0,0.0,0.0,0.0,0.0,0.030239300277312378,-0.041657928680067464,0.08330867544342613,0.003493333429790167,-0.004709353619927015,-0.028894362688651573,0.34695755520454463
3035,4.0,299.67436000000004,289.30309,0.0,0.0,0.0,0.0,0.0,0.03024926708689621,-0.13871906573550588,0.05139478895327075,-0.0006166416382977914,-0.01027926926373489,-0.022561236469370683,0.34060829703042167
3036,4.0,300.44707,482.8926,0.0,0.0,0.0,0.0,0.0,0.030259233896480026,-0.13857943987172588,0.06600830948701293,-0.07421615813406453,-0.0017119459270309083,-0.00896871061011782,0.37197876330644564
3037,4.0,299.95902,278.02788,0.0,0.0,0.0,0.0,0.0,0.030269200706063842,-0.1005319756237335,0.052006028023095355,-0.035987586576448266,-0.0055706369765540645,-0.0006431318766596745,0.36345376332509366
3038,4.0,300.41048,144.81113,0.0,0.0,0.0,0.0,0.0,0.030279167515647673,-0.06888731069839824,0.07758332196537772,-0.05271497986631345,-0.008854544580275512,-0.005787504921957265,0.38570418836603965
3039,4.0,301.13332,323.56265,0.0,0.0,0.0,0.0,0.0,0.03028913432523149,-0.099227431318735,0.05356034658374465,-0.05268788150563904,0.01058385528354519,0.017559410437228883,0.3614533644476697
3040,4.0,300.35497000000004,576.2977599999999,0.0,0.0,0.0,0.0,0.0,0.030299101134815307,-0.1247065565250789,0.013236450826335988,-0.06371002014643944,-0.02185165438459038,0.03389715840113906,0.35039464139875864
3041,4.0,299.95042,481.95389000000006,0.0,0.0,0.0,0.0,0.0,0.030309067944399123,-0.15807544584083186,0.05520142975045695,-0.04362793410749186,0.017874297157555785,0.013847142741106587,0.37086172599870265
3042,4.0,299.33592999999996,-39.090767,0.0,0.0,0.0,0.0,0.0,0.030319034753982954,-0.04879647625808725,0.07395779455731603,-0.013278701329005787,-0.017909569406786882,0.009522595873932041,0.3467636697979096
3043,4.0,298.88669,-196.73095,0.0,0.0,0.0,0.0,0.0,0.030329001563566757,-0.04624327447060586,0.08103476996650913,0.02500980093227518,-0.004845015142690766,0.006133624468666604,0.34214971387754767
3044,4.0,299.70027999999996,307.42557999999997,0.0,0.0,0.0,0.0,0.0,0.030338968373150588,-0.08601543325706232,0.06979434685666573,-0.07722861350287073,-0.016183420854429285,-0.008942773028757981,0.3635771974522757
3045,4.0,300.28463,571.42878,0.0,0.0,0.0,0.0,0.0,0.030348935182734404,-0.16192280713303683,0.04769863497348875,-0.059475906357314944,-0.015135633111520686,-0.014871258935178986,0.37949435340567667
3046,4.0,299.65384,376.55708,0.0,0.0,0.0,0.0,0.0,0.030358901992318235,-0.11950743853946588,0.06221124694302204,-0.05716775708001835,0.006206825303590964,-0.03119124462483617,0.35348149769590764
3047,4.0,300.04427999999996,299.3772,0.0,0.0,0.0,0.0,0.0,0.030368868801902038,-0.15041896331519586,0.07010282780986044,-0.01068706291223099,0.026850905748228075,-0.006133284624583063,0.38817767371515366
3048,4.0,299.80138,391.63257000000004,0.0,0.0,0.0,0.0,0.0,0.03037883561148587,-0.10137069744700891,0.04266000769771496,-0.06033583043893285,0.02449499388771768,0.026202202769206078,0.37139589118642063
3049,4.0,300.47528,699.76708,0.0,0.0,0.0,0.0,0.0,0.0303888024210697,-0.15378331841723183,0.04585496055528226,-0.1047833643138129,0.03945756084240806,0.007320173367719863,0.4038403924359436
3050,4.0,300.65801,672.49287,0.0,0.0,0.0,0.0,0.0,0.030398769230653502,-0.1191241462916379,0.025140234591147975,-0.11043712761929589,-0.0026016189302597976,0.001168444652891509,0.3696384088879706
3051,4.0,300.45551,206.1893,0.0,0.0,0.0,0.0,0.0,0.030408736040237333,-0.09277048289748381,0.055519616626359534,-0.025425532382054677,-0.02247564520692348,-0.0020448309075590983,0.35673827603482666
3052,4.0,300.96963,-123.76222,0.0,0.0,0.0,0.0,0.0,0.03041870284982115,-0.04668264200546805,0.0886119200755656,-0.004308654039356046,-0.04520816349969836,-0.003478905153666207,0.3463416409987587
3053,4.0,301.92524,239.93663999999998,0.0,0.0,0.0,0.0,0.0,0.030428669659404967,-0.11354435024345488,0.03447522264943957,0.006134385824791744,-0.026865875505205476,0.0026634915277411477,0.34335195538619967
3054,4.0,300.0264,465.69800999999995,0.0,0.0,0.0,0.0,0.0,0.030438636468988783,-0.11761948002563889,0.056311396599002146,-0.08025248212080333,-0.012164710864313488,-0.0076839479868216235,0.35264054064291167
3055,4.0,299.44604,196.72472,0.0,0.0,0.0,0.0,0.0,0.030448603278572614,-0.1104733513103709,0.07482536462418853,-0.02415141597755918,0.012483675916292887,0.013569209251926687,0.3583795790768106
3056,4.0,299.51842,-101.10479000000001,0.0,0.0,0.0,0.0,0.0,0.030458570088156417,-0.03857454783076146,0.07457361959709323,-0.005265741104863185,0.010673403287632888,0.008765456490408201,0.35542778901799166
3057,4.0,299.27581000000004,188.23806000000002,0.0,0.0,0.0,0.0,0.0,0.030468536897740248,-0.13078535798250987,0.09666271901011761,-0.02309702691024908,0.01077833850773919,-0.008612645304401912,0.37778900282487166
3058,4.0,299.75537,730.68653,0.0,0.0,0.0,0.0,0.0,0.03047850370732408,-0.17408525338337683,0.02245802174793418,-0.07048322824190302,0.01139240251884259,-0.014125117773540589,0.37473931254139065
3059,4.0,300.11426,755.0122200000001,0.0,0.0,0.0,0.0,0.0,0.03048847051690788,-0.19145324162496383,0.04140207593706676,-0.07945369147071882,0.0002880207282979327,-0.008990575635350731,0.37318064004506163
3060,4.0,300.4,344.34497000000005,0.0,0.0,0.0,0.0,0.0,0.030498437326491712,-0.08579998588829932,0.06481854412684224,-0.08369083082464192,1.5610548499641185e-05,0.01093713607666129,0.38893552399494763
3061,4.0,301.06957,105.94523000000001,0.0,0.0,0.0,0.0,0.0,0.03050840413607553,-0.08914945735961641,0.08467864834713192,-0.02773389646837247,-0.02095307379840738,-0.003749517404248556,0.39077312397880465
3062,4.0,301.40806000000003,347.87117,0.0,0.0,0.0,0.0,0.0,0.03051837094565936,-0.07191084190404753,0.06637701397315122,-0.10021032140598872,0.012058765433857489,0.0038522095926084863,0.36830929833429765
3063,4.0,300.459,478.48200999999995,0.0,0.0,0.0,0.0,0.0,0.030528337755243176,-0.15702872809002885,0.06952740409132054,-0.057945256305751536,-0.003255591417751857,0.014802064085849987,0.36795520795435166
3064,4.0,300.22438,196.71271000000002,0.0,0.0,0.0,0.0,0.0,0.030538304564826993,-0.09372178491287,0.058023200569694046,-0.024097168593705375,0.036426269154242866,0.007302014811352753,0.3621509972740206
3065,4.0,299.46342000000004,-233.47554,0.0,0.0,0.0,0.0,0.0,0.030548271374410824,-0.08247470373661953,0.1144301537458769,0.039015284266508764,-0.00984321900837508,-0.008070032245300174,0.35602421842435467
3066,4.0,300.51459,128.14013,0.0,0.0,0.0,0.0,0.0,0.030558238183994627,-0.07201307377288703,0.06506699811761274,-0.032005324205679565,0.005918587466194104,-0.02037845966669738,0.35904575048755666
3067,4.0,300.20498,675.3421400000001,0.0,0.0,0.0,0.0,0.0,0.030568204993578457,-0.17999231908135882,0.05985253749898554,-0.0851473646711406,-0.014712299246240885,-0.0018619153518067383,0.37540577779466566
3068,4.0,300.23752,712.03396,0.0,0.0,0.0,0.0,0.0,0.030578171803162288,-0.13420119632212688,0.031598246925004174,-0.1138375949548959,-0.014689478827488686,0.01242863819736109,0.36466531660216467
3069,4.0,300.54967,465.16837999999996,0.0,0.0,0.0,0.0,0.0,0.03058813861274609,-0.14797137663863788,0.04088885057591536,-0.03431705025582917,-0.024405803560915276,0.005114212288183455,0.3479194436569757
3070,4.0,301.14007000000004,323.03668,0.0,0.0,0.0,0.0,0.0,0.03059810542232992,-0.1087812641733749,0.06325157716519464,-0.052665400525670356,-0.01094068447851149,0.0036426932833058365,0.3507150716103827
3071,4.0,301.2551,328.72921,0.0,0.0,0.0,0.0,0.0,0.03060807223191374,-0.1083640280471969,0.04923344441671265,-0.04079488986764217,0.015454457321736184,-0.003494112112492017,0.36439420127290767
3072,4.0,302.0742,197.76463,0.0,0.0,0.0,0.0,0.0,0.03061803904149757,-0.06256102898354285,0.06123468156289254,-0.05878916292978865,0.057327782708061645,-0.02144484662844158,0.36893466616351667
3073,4.0,300.44846,-89.488574,0.0,0.0,0.0,0.0,0.0,0.030628005851081386,-0.04884055567718755,0.12152295510838187,-0.045480103614536756,0.029552424045597173,-0.027122309853763574,0.4011109195815656
3074,4.0,300.24402000000003,-232.90015,0.0,0.0,0.0,0.0,0.0,0.030637972660665203,-0.018091289732721283,0.09592072710763871,-0.007033608608888123,-0.006124053105571984,-0.01134828459623849,0.35263658896752165
3075,4.0,300.17087000000004,161.03365,0.0,0.0,0.0,0.0,0.0,0.030647939470249033,-0.12550442005132187,0.08370511967755212,-0.007150912775615144,-0.02159032806454948,0.017397689641768285,0.35918239739604263
3076,4.0,300.02072000000004,696.09658,0.0,0.0,0.0,0.0,0.0,0.030657906279832836,-0.19375289378692181,0.05327852525393104,-0.07112161025540643,-0.045058091027387365,0.011960242060383989,0.34352399512067866
3077,4.0,299.74449,818.08883,0.0,0.0,0.0,0.0,0.0,0.030667873089416667,-0.18891663079461984,0.023946999862634873,-0.08370894773642992,-0.01221965029798559,-1.1651697272432988e-05,0.3789994009968286
3078,4.0,300.60046,489.5969,0.0,0.0,0.0,0.0,0.0,0.030677839899000497,-0.12654333577635488,0.06599651626909903,-0.08827841285815101,-0.008217184328172953,-0.01940323177669988,0.3681668759002416
3079,4.0,300.31537000000003,390.45234,0.0,0.0,0.0,0.0,0.0,0.030687806708584314,-0.12317391442381889,0.06641653376680154,-0.06193038414780303,0.020599466738759082,0.0008421000092413,0.4129227002372976
3080,4.0,299.75059,470.69732999999997,0.0,0.0,0.0,0.0,0.0,0.03069777351816813,-0.1283408718512579,0.06576578503582764,-0.08050515224523991,0.01023487269735329,0.0036742991883750966,0.3796488841784276
3081,4.0,299.32706,263.48971,0.0,0.0,0.0,0.0,0.0,0.030707740327751948,-0.13141353251450585,0.0979189657358495,-0.04659973078953536,0.023403656655511078,0.006581070950551134,0.39679794960340864
3082,4.0,299.83833,14.062593,0.0,0.0,0.0,0.0,0.0,0.03071770713733578,-0.08044129823718801,0.06919894184615384,0.006967678451381323,-0.015537936970974985,0.002536346878692948,0.3256391581355827
3083,4.0,299.4447,39.572323,0.0,0.0,0.0,0.0,0.0,0.030727673946919595,-0.07903616150201183,0.08905129774292882,-0.02204413340008658,-0.0020670529008022377,0.005313024724754715,0.37128904396337564
3084,4.0,300.47964,6.1698251,0.0,0.0,0.0,0.0,0.0,0.030737640756503412,-0.056871933647072846,0.08402409384878241,-0.02902763243455427,-0.00932958692863354,-0.016830856257576184,0.34527212512070565
3085,4.0,300.79883,188.70108000000002,0.0,0.0,0.0,0.0,0.0,0.030747607566087243,-0.06789198600591734,0.06098069826632635,-0.05044912972769145,0.013288055653928987,-0.03638689020235647,0.3825613398683646
3086,4.0,300.76837,504.69128,0.0,0.0,0.0,0.0,0.0,0.030757574375671046,-0.10381512278325489,0.03428187527860767,-0.08388029947409102,-0.012184147027731688,-0.015919225010105186,0.3670977146597237
3087,4.0,301.03623999999996,523.4246099999999,0.0,0.0,0.0,0.0,0.0,0.030767541185254876,-0.15104625631960486,0.026734344496474376,-0.03479610173085786,0.0020596824182498277,0.008922921230148761,0.3667400373744236
3088,4.0,300.10601,343.54167,0.0,0.0,0.0,0.0,0.0,0.030777507994838707,-0.13995361978984686,0.058215575220429944,-0.02269004386183298,-0.004244248924574756,0.037991611875980165,0.35102836854130265
3089,4.0,299.31834,420.49774,0.0,0.0,0.0,0.0,0.0,0.030787474804422524,-0.16090549390013584,0.07380732590421593,-0.04072264614876226,0.006516037114082795,0.011641657990442188,0.38140453249419665
3090,4.0,299.07878,238.85346,0.0,0.0,0.0,0.0,0.0,0.03079744161400634,-0.10665680295370689,0.08195390939722112,-0.047902597152368255,0.0048670275958132255,-0.007277149451248733,0.3862742327397986
3091,4.0,298.97583,46.688302,0.0,0.0,0.0,0.0,0.0,0.030807408423590157,-0.07577127817554292,0.11075717279588189,-0.049177968973737655,-0.012007243692772689,-0.027496674354960476,0.3971271140308946
3092,4.0,298.94667000000004,331.79127,0.0,0.0,0.0,0.0,0.0,0.030817375233173988,-0.09590246023483591,0.06430844362899923,-0.06926224464615134,-0.0047487260870127754,-0.019031832045295582,0.39050449111229263
3093,4.0,299.8795,475.92974000000004,0.0,0.0,0.0,0.0,0.0,0.030827342042757805,-0.15100070059510887,0.06673394044012713,-0.060403993799660036,-0.01940396233002198,-0.0025879365075344475,0.36148081339287863
3094,4.0,300.51295,339.96814,0.0,0.0,0.0,0.0,0.0,0.03083730885234162,-0.1000875529841224,0.033115094483705365,-0.036369368068377164,-0.0058151988710404435,0.027574463591637677,0.3585750958161067
3095,4.0,300.88372999999996,301.95606000000004,0.0,0.0,0.0,0.0,0.0,0.030847275661925452,-0.13056493555575588,0.048530042144292254,-0.00975221303871849,-0.014533582193602883,0.02139253657877898,0.3517467425972007
3096,4.0,300.23629,319.18354,0.0,0.0,0.0,0.0,0.0,0.030857242471509255,-0.1132956682714119,0.07534875693684333,-0.05907691177268724,0.026050624607246473,0.01944590784441168,0.4088003124704496
3097,4.0,299.50242000000003,244.83141,0.0,0.0,0.0,0.0,0.0,0.030867209281093086,-0.10160571067520291,0.07517809927550072,-0.04799502177348986,-0.0015651121060145385,-0.01017222243042019,0.3905695519012136
3098,4.0,300.30059,453.04109000000005,0.0,0.0,0.0,0.0,0.0,0.030877176090676917,-0.10848361182399889,0.05758530630047724,-0.08681486934746052,0.025857442396180874,-0.024341603021329178,0.39340460541601163
3099,4.0,300.44685,648.37577,0.0,0.0,0.0,0.0,0.0,0.030887142900260733,-0.17648606843531883,0.06667486694604703,-0.08727884467425132,-0.031121997086501967,-0.025701687617309076,0.36537862440756264
3100,4.0,300.09252000000004,429.16675999999995,0.0,0.0,0.0,0.0,0.0,0.03089710970984455,-0.12104725445143388,0.041645788930619355,-0.051054507145687544,-0.008863738001082831,0.02194698500699878,0.36138480794590366
3101,4.0,299.50808,124.87043999999999,0.0,0.0,0.0,0.0,0.0,0.030907076519428367,-0.11835830146855487,0.10235957888210391,-0.021958780251412877,-0.02215034430206878,0.019569340958343583,0.3484895690907427
3102,4.0,299.79922,223.29949,0.0,0.0,0.0,0.0,0.0,0.030917043329012198,-0.07826044660970471,0.06931316856967713,-0.058930193158207245,0.010808777553993289,0.046325752015495755,0.3873573666991956
3103,4.0,299.67235,135.50231000000002,0.0,0.0,0.0,0.0,0.0,0.030927010138596014,-0.07402266992146873,0.062044166054532446,-0.029210813867132875,0.014382321178924587,-0.0015646756991964685,0.36932004570655064
3104,4.0,300.01236,-114.7643,0.0,0.0,0.0,0.0,0.0,0.03093697694817983,-0.03771530465321076,0.091289305795303,-0.018688519606663283,0.025243083529298375,0.001982039190912038,0.38389419944740766
3105,4.0,299.30755,25.146924,0.0,0.0,0.0,0.0,0.0,0.030946943757763662,-0.09519758571002022,0.07604375531293434,0.011509793622428188,0.013188843270387487,-0.011532097283629389,0.3480884943036597
3106,4.0,300.01808,450.92865,0.0,0.0,0.0,0.0,0.0,0.030956910567347465,-0.1049349769262759,0.028121965177171873,-0.06025803613600514,-0.0040309224909210765,-0.008454623479756373,0.35301329508969964
3107,4.0,299.99919,548.05512,0.0,0.0,0.0,0.0,0.0,0.030966877376931295,-0.17591003575346884,0.07325302135751033,-0.06393805816094504,-0.02366459287426348,-0.005294664227642675,0.36818404035693564
3108,4.0,300.54228,712.89877,0.0,0.0,0.0,0.0,0.0,0.030976844186515126,-0.14206066324029587,0.03276015297367537,-0.1074029197973429,-0.03099494768296317,-0.011013387199686689,0.3800027516433516
3109,4.0,299.94476000000003,531.64613,0.0,0.0,0.0,0.0,0.0,0.030986810996098943,-0.16380712807900483,0.09150552627389232,-0.08930554448452102,0.004593181962836766,-0.016791308092923084,0.3951741656556536
3110,4.0,300.28061,79.688425,0.0,0.0,0.0,0.0,0.0,0.03099677780568276,-0.1030164790544349,0.1133566051324259,-0.03456342607064457,-0.0028732684449695174,-0.004697601843942206,0.38302859001947864
3111,4.0,299.63394,87.114017,0.0,0.0,0.0,0.0,0.0,0.031006744615266577,-0.1166209119195879,0.08491517942397571,0.005225249503041975,0.029312540124172476,-0.011978428886428888,0.37141321776313063
3112,4.0,299.68836,266.04082999999997,0.0,0.0,0.0,0.0,0.0,0.031016711424850407,-0.10797525411632791,0.08550092106828391,-0.05839543724568094,0.016533214040701183,0.004413087700662846,0.36986320855515664
3113,4.0,299.05797,85.186093,0.0,0.0,0.0,0.0,0.0,0.031026678234434224,-0.0946785037632908,0.08108646598661112,-0.012302406486652989,0.006834514894089103,0.02059949916276228,0.36709857592230866
3114,4.0,299.75875,208.63144,0.0,0.0,0.0,0.0,0.0,0.03103664504401804,-0.045949219159084856,0.05320077452075766,-0.07067030460786602,-0.01104916810046799,0.02095831939417508,0.36094478382497663
3115,4.0,300.34938999999997,488.37170999999995,0.0,0.0,0.0,0.0,0.0,0.03104661185360187,-0.1260193233546389,0.06708949597971774,-0.08952297883673012,-0.016069867942222486,-0.002254595564461258,0.3891273119738756
3116,4.0,300.16569,536.27449,0.0,0.0,0.0,0.0,0.0,0.031056578663185674,-0.13511047682936586,0.04485884147472296,-0.07276241781809153,-0.016379257780756884,0.005544030042178166,0.38787047654983564
3117,4.0,301.26583,574.80021,0.0,0.0,0.0,0.0,0.0,0.031066545472769505,-0.16322948432949583,0.06440337401761813,-0.07589880380662872,0.01016353077106239,-0.012320647014953189,0.3998231293669706
3118,4.0,301.01376,345.45525,0.0,0.0,0.0,0.0,0.0,0.031076512282353336,-0.12476054249040688,0.07032087923138043,-0.05057010773663105,0.015111744727163087,-0.00995347652728165,0.37207693710863465
3119,4.0,300.10432000000003,186.26459,0.0,0.0,0.0,0.0,0.0,0.031086479091937153,-0.1123316114637669,0.08119006371658542,-0.02547823658600618,0.029587065040015972,-0.005611125234649944,0.38924096823759263
3120,4.0,299.60982,182.07273,0.0,0.0,0.0,0.0,0.0,0.03109644590152097,-0.08330638549820012,0.08738689057216462,-0.059426067624646244,-0.00990682335160234,0.028726411418326072,0.36308218424842165
3121,4.0,299.5998,345.17451,0.0,0.0,0.0,0.0,0.0,0.031106412711104786,-0.12962482184797386,0.056522699774856154,-0.03182231401236787,0.011742108565605888,0.02464154430268108,0.3774521478291266
3122,4.0,299.93027,357.36771,0.0,0.0,0.0,0.0,0.0,0.031116379520688617,-0.10961837087599088,0.053146825032433245,-0.05215931756447386,-0.009663769375914781,0.008007719188000351,0.36475357068587466
3123,4.0,300.48857000000004,110.08311,0.0,0.0,0.0,0.0,0.0,0.031126346330272434,-0.10663164395372389,0.08054232129865822,-0.007373192084502403,-0.0013339386903994986,-0.009947611430402811,0.37663746435122364
3124,4.0,300.5499,237.75485,0.0,0.0,0.0,0.0,0.0,0.03113631313985625,-0.08238720756398432,0.05872151632661245,-0.04860584845052376,-0.016646279579609884,-0.03150729556952797,0.35119468341271665
3125,4.0,300.25212,371.41317000000004,0.0,0.0,0.0,0.0,0.0,0.03114627994944008,-0.12311835792083588,0.08091798478648332,-0.07069995939854273,-0.01014576140405869,-0.03170255494329857,0.41035520554390564
3126,4.0,300.16546,279.57518,0.0,0.0,0.0,0.0,0.0,0.031156246759023884,-0.07240857872417034,0.050659584813211755,-0.06323487981679674,0.011084002625655889,0.008919593311520322,0.37092196371714764
3127,4.0,298.91562000000005,300.25854,0.0,0.0,0.0,0.0,0.0,0.031166213568607715,-0.1291131913424799,0.06448613729903624,-0.026644044660812476,0.015141605207610086,0.011975564428396188,0.40278672378945457
3128,4.0,298.93585,250.02768999999998,0.0,0.0,0.0,0.0,0.0,0.031176180378191545,-0.12794662636984888,0.09017194323427792,-0.038227494472759964,0.005843751042958324,0.030311428417255072,0.3776433582554976
3129,4.0,298.40647,270.24395,0.0,0.0,0.0,0.0,0.0,0.031186147187775362,-0.1357505063875319,0.05817423664285015,-0.004571144685086855,-0.011505698065523989,0.009353115811855661,0.3947191555657476
3130,4.0,298.85136,565.1686900000001,0.0,0.0,0.0,0.0,0.0,0.03119611399735918,-0.12575730701127988,0.03463320961828167,-0.08067307615781273,0.02358292086320308,0.007942334057722341,0.3644021451536917
3131,4.0,299.64496,664.3050099999999,0.0,0.0,0.0,0.0,0.0,0.031206080806942996,-0.16676261650068883,0.032349710689417874,-0.06751923257237943,-0.011342829257700091,-0.019326649320891783,0.37410415671620567
3132,4.0,299.91822,292.34067000000005,0.0,0.0,0.0,0.0,0.0,0.031216047616526826,-0.06631064001210063,0.046760986503200055,-0.06931461042456943,0.00983006276642666,-0.024703141802760273,0.36629104599011164
3133,4.0,301.28697,-42.402473,0.0,0.0,0.0,0.0,0.0,0.031226014426110657,-0.0950073368579941,0.1093952734689729,-0.0014986440140296485,-0.021567572493803682,-0.005227899050728465,0.37336435242069266
3134,4.0,300.77161,82.939194,0.0,0.0,0.0,0.0,0.0,0.03123598123569446,-0.07467550189464822,0.060208526709618945,-0.010744469609896591,0.0024817344208281178,0.03935051299584326,0.3590322033337197
3135,4.0,300.50615,259.46401000000003,0.0,0.0,0.0,0.0,0.0,0.03124594804527829,-0.13382208879721186,0.06257885711905234,-0.007627349254785763,0.004670969375663785,0.02143061654403718,0.37663058438304464
3136,4.0,299.54265,105.35896000000001,0.0,0.0,0.0,0.0,0.0,0.031255914854862094,-0.05638542059830774,0.07163827458739723,-0.04727934600260816,-0.0018742435657734383,-0.0003325101691836987,0.3749755821997086
3137,4.0,299.92061,-35.621342,0.0,0.0,0.0,0.0,0.0,0.031265881664445924,-0.057843394273198546,0.07562556875816252,-0.006954176083198743,0.0004279681773946705,-0.03018169694070157,0.3768635609785376
3138,4.0,298.70556,102.60629,0.0,0.0,0.0,0.0,0.0,0.031275848474029755,-0.057077971975407246,0.0939239901160761,-0.06803576923485764,0.012868269177249288,-0.014435881579210589,0.3838281152758856
3139,4.0,299.5552,537.82844,0.0,0.0,0.0,0.0,0.0,0.03128581528361357,-0.17860763175970082,0.05719181974339315,-0.04207060518079546,-0.004107924736245606,-0.0011955026862119288,0.37383997201763264
3140,4.0,298.59732,616.32051,0.0,0.0,0.0,0.0,0.0,0.03129578209319739,-0.16334099250300083,0.05142139892739695,-0.07542645599426162,0.016973480328402082,0.017154416398759087,0.3685955009575436
3141,4.0,299.33127,176.38505,0.0,0.0,0.0,0.0,0.0,0.031305748902781205,-0.13909927770302985,0.1105326264412209,-0.025050004669742977,-0.020400852493907377,0.011079488596460388,0.3721418357775397
3142,4.0,299.69265,-127.04058,0.0,0.0,0.0,0.0,0.0,0.031315715712365036,-0.03916522298980656,0.08062865324692851,-0.0028462678629297676,-0.003340306218862557,0.008061291139337493,0.36051647287520566
3143,4.0,299.86557999999997,168.9411,0.0,0.0,0.0,0.0,0.0,0.03132568252194887,-0.08115035140541613,0.07813699120427062,-0.04834051472633736,-0.018767265351434883,-0.03246042042184407,0.39537084763256464
3144,4.0,299.24313,578.734,0.0,0.0,0.0,0.0,0.0,0.03133564933153267,-0.1121472100780679,0.03825274669175216,-0.1020262195992039,-0.0038833652093333065,-0.02897094210470937,0.4033648741640136
3145,4.0,299.94434,339.28335,0.0,0.0,0.0,0.0,0.0,0.0313456161411165,-0.13701893339271587,0.05591928198255345,-0.02203401305808778,0.00928848220917682,-0.008148721856016231,0.3896970929026087
3146,4.0,300.64845,-4.4455459,0.0,0.0,0.0,0.0,0.0,0.0313555829507003,-0.08128473775292902,0.08803177967781023,-0.005395707250139844,-0.014726657000157886,0.008995382899125172,0.37949279300052263
3147,4.0,300.22112000000004,407.87111,0.0,0.0,0.0,0.0,0.0,0.031365549760284134,-0.14360658905036688,0.030540713742633768,-0.01091675759065009,0.012773612366157388,0.024702662535462976,0.36214222252815464
3148,4.0,299.72904,848.7955400000001,0.0,0.0,0.0,0.0,0.0,0.03137551656986795,-0.17181143909896884,0.045643757691188155,-0.13184497440708587,-0.024035780836396875,0.003296921281380797,0.38995617082067763
3149,4.0,299.98531,609.92041,0.0,0.0,0.0,0.0,0.0,0.03138548337945178,-0.13136296120201488,0.034786899393449665,-0.08882450805254641,0.03237098894151787,-0.015557804778935784,0.36729058681625865
3150,4.0,301.00354,80.84065799999999,0.0,0.0,0.0,0.0,0.0,0.031395450189035584,-0.04034240884998576,0.06859260184056273,-0.05282373402604665,-0.00014586543763079785,-0.04342085719780496,0.3767036498477556
3151,4.0,300.65466000000004,-314.61373,0.0,0.0,0.0,0.0,0.0,0.031405416998619415,-0.07220770898459603,0.15655304769808284,0.011289376261924689,0.028467313235255073,0.006833182470207603,0.3704233129454347
3152,4.0,299.79219,-10.093121,0.0,0.0,0.0,0.0,0.0,0.031415383808203245,-0.06933311439789563,0.08023347861517782,-0.007832307357188553,0.0006008780302645443,0.0046645887371340655,0.3711168319763796
3153,4.0,299.74219,553.16711,0.0,0.0,0.0,0.0,0.0,0.03142535061778705,-0.17433955889347486,0.05479249720884845,-0.04860193223888725,0.006299471117209394,0.04797505568026936,0.36280564803112964
3154,4.0,300.35112000000004,572.07463,0.0,0.0,0.0,0.0,0.0,0.03143531742737088,-0.1280273317403139,0.05892809674375035,-0.1047971647801749,-0.05342941744557295,0.02847397839441287,0.3859266879554986
3155,4.0,300.36751,146.65318,0.0,0.0,0.0,0.0,0.0,0.031445284236954696,-0.05621718967095465,0.05368764423355795,-0.042049359352698656,-0.022703892964199775,0.005268806895690755,0.37734681034873063
3156,4.0,299.51007999999996,90.798766,0.0,0.0,0.0,0.0,0.0,0.03145525104653851,-0.06442167736742455,0.1115233114614939,-0.07470218684928183,-0.01967483549250508,-0.027013919450816274,0.41179972528396863
3157,4.0,299.00351,687.8783599999999,0.0,0.0,0.0,0.0,0.0,0.03146521785612233,-0.18839848509098284,0.05037753347562545,-0.07107689451524334,0.0014951828530130587,-0.057774044396604246,0.4160400046999516
3158,4.0,299.80024,736.12585,0.0,0.0,0.0,0.0,0.0,0.03147518466570616,-0.17506036474961284,0.03563538489468867,-0.08433889342960071,0.03927817301820386,-0.024497305111195775,0.37524966635175866
3159,4.0,300.66357999999997,99.18638,0.0,0.0,0.0,0.0,0.0,0.03148515147528996,-0.11926500832053988,0.0967775587499514,-0.007662734988028062,0.01063306276140159,0.018378406307557483,0.37875676812788267
3160,4.0,299.73196,-217.90157999999997,0.0,0.0,0.0,0.0,0.0,0.031495118284873794,-0.055007898981356954,0.1094975104040629,0.011747028908091489,0.008259127714737443,0.035836100620247766,0.37866021552585366
3161,4.0,300.05363,219.9486,0.0,0.0,0.0,0.0,0.0,0.031505085094457624,-0.08209532668717792,0.08191977300135213,-0.06668332961088223,-0.017605623761039784,0.02191214338906018,0.3578294349350157
3162,4.0,299.93262999999996,572.71007,0.0,0.0,0.0,0.0,0.0,0.03151505190404144,-0.12436606396147488,0.053787230506386355,-0.10351073232071391,0.0032504047931399766,-0.013319791660311086,0.3852690785080976
3163,4.0,300.11435,545.58303,0.0,0.0,0.0,0.0,0.0,0.03152501871362526,-0.14761936342139687,0.032147176179929265,-0.050371428643772954,0.026995948447042676,-0.01892316097207058,0.35135287201832865
3164,4.0,300.10998,255.91544,0.0,0.0,0.0,0.0,0.0,0.031534985523209075,-0.10213352278479391,0.07826921223631983,-0.05392759705598944,0.01017550130774379,-0.007370961921032304,0.4042594929423056
3165,4.0,300.60425,216.7012,0.0,0.0,0.0,0.0,0.0,0.031544952332792905,-0.1173443319609839,0.039743359178864165,0.01172921698458359,-0.0028569512680091374,-0.009230521770331571,0.35241281268293667
3166,4.0,299.34067000000005,654.06632,0.0,0.0,0.0,0.0,0.0,0.03155491914237671,-0.12717940352662988,0.032134003928629265,-0.1037744306592389,-0.01193628477501959,0.018731894816944084,0.4052593073459796
3167,4.0,298.65392,578.7613,0.0,0.0,0.0,0.0,0.0,0.03156488595196054,-0.1026939007525989,0.030734585977017472,-0.1039696738210079,-0.015714826120432585,0.02317291022348818,0.37649184004685166
3168,4.0,299.17751,-13.152004999999999,0.0,0.0,0.0,0.0,0.0,0.03157485276154437,-0.07088107582741753,0.08941274634510102,-0.014533789909873383,0.019486920155459282,0.0030200485637305874,0.41743996170061665
3169,4.0,299.46337,-182.49348,0.0,0.0,0.0,0.0,0.0,0.03158481957112817,-0.08302423283560383,0.13044722629163888,0.008050462940818832,-0.005709387392247665,-0.02208487213360718,0.39218574660571964
3170,4.0,299.74225,475.45401,0.0,0.0,0.0,0.0,0.0,0.031594786380712,-0.14671703380984386,0.05346825329540574,-0.051277368465432245,0.029691958716868177,-0.02340327263372318,0.38513380961974764
3171,4.0,300.2817,660.07635,0.0,0.0,0.0,0.0,0.0,0.03160475319029582,-0.18672719997853982,0.06138195645167744,-0.07530148577992803,-0.0028408979413747973,-0.004061201646309397,0.3694749412493376
3172,4.0,300.94437999999997,391.55938,0.0,0.0,0.0,0.0,0.0,0.03161471999987965,-0.1037536488996879,0.08174576350867872,-0.09701639497077272,-0.005794751180047414,0.024899934223932177,0.37096357789875467
3173,4.0,301.49678,153.71774,0.0,0.0,0.0,0.0,0.0,0.03162468680946347,-0.06136132060014085,0.057275922541443446,-0.04264095656933476,-0.030203439261347373,0.015487757786272685,0.3773094822150466
3174,4.0,301.3828,275.24547,0.0,0.0,0.0,0.0,0.0,0.031634653619047284,-0.100536874687967,0.07825343998526323,-0.06138431529791024,-0.02451502482894458,0.021225977514090878,0.39569913053246364
3175,4.0,300.09752000000003,567.83405,0.0,0.0,0.0,0.0,0.0,0.031644620428631115,-0.14825599859172786,0.026543916299180577,-0.050895290091224045,-0.012849281883625387,-0.0018649619922074183,0.4205767813601966
3176,4.0,299.43143,615.06419,0.0,0.0,0.0,0.0,0.0,0.03165458723821492,-0.14972809899951287,0.030359109940460868,-0.06759517161437403,0.002323354817572268,-0.02212469286253718,0.40124027108933163
3177,4.0,298.79343,166.24363,0.0,0.0,0.0,0.0,0.0,0.03166455404779875,-0.12339735633587087,0.09385266237528661,-0.02098922149572488,0.004065013594510606,-0.013735935502881286,0.3861344548885036
3178,4.0,299.6881,-0.58859417,0.0,0.0,0.0,0.0,0.0,0.03167452085738258,-0.03254399227684197,0.054796583646501744,-0.02207367369350198,-0.011692016520412189,-0.005345620372521656,0.35796470382336565
3179,4.0,299.24202,179.11255,0.0,0.0,0.0,0.0,0.0,0.03168448766696638,-0.1011937019062908,0.1035744049569979,-0.05682644175733315,-0.013031048819064387,-0.004814522596831385,0.36880471683819166
3180,4.0,298.69301,449.08665,0.0,0.0,0.0,0.0,0.0,0.03169445447655021,-0.15375858498229086,0.08358902148109412,-0.06634156237865244,-0.015556510858558085,0.03135969542746097,0.4009240559981236
3181,4.0,299.01342999999997,316.45852,0.0,0.0,0.0,0.0,0.0,0.03170442128613403,-0.12512285032866388,0.057115450070106044,-0.028188081772697073,0.037165638765462965,-0.0035815149647930064,0.36471702275476764
3182,4.0,300.07833,107.59591,0.0,0.0,0.0,0.0,0.0,0.03171438809571786,-0.1074793087223819,0.10884696330985888,-0.03407413063710486,0.02351410699591168,-0.007961221444886382,0.38405533661081065
3183,4.0,299.61445,293.02861,0.0,0.0,0.0,0.0,0.0,0.03172435490530168,-0.11120688358776488,0.046537091668353354,-0.024403593662447178,0.02856074806672637,-0.017161286234437086,0.35550494801310667
3184,4.0,300.93743,476.16308,0.0,0.0,0.0,0.0,0.0,0.031734321714885494,-0.10632282558824589,0.04730979416811316,-0.08572865916075992,-0.002712425225420528,-0.032679919777756965,0.39035899853043365
3185,4.0,300.49253999999996,501.56245,0.0,0.0,0.0,0.0,0.0,0.031744288524469325,-0.1204767845126329,0.04459160385359866,-0.07657727708683883,-0.030266872770607772,0.003326649127389707,0.38490646669481066
3186,4.0,301.03031,334.25042,0.0,0.0,0.0,0.0,0.0,0.03175425533405313,-0.12019386481971088,0.04990252486849575,-0.03131244250904747,-0.03844018580125096,0.0003358264050384857,0.40220122735167063
3187,4.0,300.74979,12.832758,0.0,0.0,0.0,0.0,0.0,0.03176422214363696,-0.09915946250202701,0.12204812263521188,-0.026789496712667473,-0.016306012970778185,0.020695391125726083,0.4286961975915206
3188,4.0,299.85476,131.53304,0.0,0.0,0.0,0.0,0.0,0.03177418895322079,-0.09710527220329422,0.09119067299081872,-0.03406815955426557,-0.023876603298687276,0.017559582689745883,0.39958773110373863
3189,4.0,300.18022,571.47842,0.0,0.0,0.0,0.0,0.0,0.03178415576280459,-0.14064332900041587,0.05797446425313414,-0.09104630511657072,0.0026250443606467074,-0.0012943719832695687,0.39740376170569763
3190,4.0,299.93208,471.33822000000004,0.0,0.0,0.0,0.0,0.0,0.03179412257238842,-0.08776144252463002,0.05501568276862515,-0.11052929284839189,-0.0085704666411642,-0.011722123220633488,0.3473856837692977
3191,4.0,298.96897,2.9480560000000002,0.0,0.0,0.0,0.0,0.0,0.03180408938197224,-0.08473166361886413,0.08500136445098151,-0.001165837155084169,0.016534762286853983,0.007532386948788712,0.37903665820300564
3192,4.0,300.21327,304.70746,0.0,0.0,0.0,0.0,0.0,0.03181405619155607,-0.12223314210347187,0.08431835788982402,-0.05470867609432595,0.006361751142555954,0.0018814689509115284,0.37652682757280465
3193,4.0,300.25717000000003,510.92855999999995,0.0,0.0,0.0,0.0,0.0,0.03182402300113989,-0.17511061182207183,0.07395623617866222,-0.05415514769719695,0.018717770110550085,0.04210278904372176,0.39228620022063365
3194,4.0,300.14365,284.42281,0.0,0.0,0.0,0.0,0.0,0.031833989810723703,-0.12205050377294688,0.05344218844983335,-0.017849120932321084,0.007145354693516603,0.0009934423676376282,0.3667933039321807
3195,4.0,300.79781,179.17154,0.0,0.0,0.0,0.0,0.0,0.031843956620307534,-0.0880934957281511,0.1000976804188719,-0.06646785995061703,0.012253410778067488,-0.011783656885956388,0.41100748529578063
3196,4.0,300.39318,196.41781,0.0,0.0,0.0,0.0,0.0,0.03185392342989134,-0.05453678024136115,0.06633104585586454,-0.07150037631503774,-0.014556543454118987,-0.03253228822493687,0.3891433922529626
3197,4.0,299.64141,246.3445,0.0,0.0,0.0,0.0,0.0,0.03186389023947517,-0.098188039366155,0.0942009721634121,-0.07089551058834213,-0.004138144413853056,-0.03961023736747606,0.4047086667116356
3198,4.0,300.02391,447.03275,0.0,0.0,0.0,0.0,0.0,0.031873857049059,-0.12409779586499889,0.04417081527257006,-0.05595981299980354,-0.013977157927688088,-0.02168764060415348,0.38459236929631163
3199,4.0,298.97398,429.97625,0.0,0.0,0.0,0.0,0.0,0.0318838238586428,-0.14983364926242984,0.05830402182165894,-0.03917241706551656,0.00972571685257852,0.02215137984367098,0.3969452356379446
3200,4.0,299.6002,206.41103999999999,0.0,0.0,0.0,0.0,0.0,0.03189379066822663,-0.12287833923714787,0.1155222245711559,-0.055387688423589244,0.003795757376537087,0.04279299677333996,0.3916100786939056
3201,4.0,300.04413,245.38442999999998,0.0,0.0,0.0,0.0,0.0,0.03190375747781045,-0.08165594598006443,0.053822963784412946,-0.04675775727513136,-0.005562041170655725,0.02370477330697898,0.35347247977001767
3202,4.0,300.40091,439.30465,0.0,0.0,0.0,0.0,0.0,0.03191372428739428,-0.12382846385591788,0.05697828843056924,-0.06668746367129023,0.012538037797407987,-0.0029533829893012074,0.36146272687859365
3203,4.0,300.2012,410.95371,0.0,0.0,0.0,0.0,0.0,0.031923691096978096,-0.14265756887420586,0.09016050769364932,-0.07242260818505493,-0.009103214798617351,-0.02245101309699248,0.40248271836195165
3204,4.0,300.25587,92.924357,0.0,0.0,0.0,0.0,0.0,0.03193365790656191,-0.0990465296988814,0.08226663992133522,-0.01146679432793449,0.027312500950533974,-0.008696923800019553,0.3869795662669096
3205,4.0,301.13833,139.4461,0.0,0.0,0.0,0.0,0.0,0.031943624716145744,-0.13890165340352587,0.11673753700609789,-0.020224015020204877,-0.0006361288695210315,-0.02019353443069668,0.4211019286220246
3206,4.0,301.47417,363.24711,0.0,0.0,0.0,0.0,0.0,0.03195359152572955,-0.10748547941549089,0.054500608226041254,-0.05743317895696345,0.02698987603919337,-0.0015209844562094786,0.39259975046407863
3207,4.0,299.75262000000004,306.35627999999997,0.0,0.0,0.0,0.0,0.0,0.03196355833531338,-0.07724359035259884,0.05531357931127524,-0.07119464937561483,-0.008051379526859293,-0.0006499283226329315,0.40422163791856963
3208,4.0,300.06705,475.47084,0.0,0.0,0.0,0.0,0.0,0.03197352514489721,-0.11133281031019289,0.05251705665802995,-0.08571551325396251,0.0020460710243564877,0.00037053632072908763,0.3942291376848866
3209,4.0,300.34027000000003,463.04363,0.0,0.0,0.0,0.0,0.0,0.03198349195448101,-0.14452346893335588,0.06168819001615035,-0.05791842037685303,-0.0014048242488453586,-0.01794968904449638,0.4007707715229956
3210,4.0,299.96393,369.80397999999997,0.0,0.0,0.0,0.0,0.0,0.03199345876406484,-0.11212020696290288,0.04627306199704566,-0.046564030948762054,0.0036875964747374364,-0.012072068394420389,0.35200945808312867
3211,4.0,299.64601,408.14266000000003,0.0,0.0,0.0,0.0,0.0,0.03200342557364866,-0.16225466680578884,0.08802398981104141,-0.04983449728328195,-0.003329908651636397,0.009414127754702071,0.38872755441192264
3212,4.0,299.39411,501.81375,0.0,0.0,0.0,0.0,0.0,0.03201339238323249,-0.14242826024407487,0.047884437684076055,-0.05799502512416335,0.014252533973615587,0.02533447159556768,0.3570905830945966
3213,4.0,298.83522999999997,182.73251000000002,0.0,0.0,0.0,0.0,0.0,0.032023359192816306,-0.0913785893411146,0.0865150901861246,-0.05068262105423525,0.0034024031499160466,0.022426800472602877,0.38442674343496563
3214,4.0,299.2384,-78.183249,0.0,0.0,0.0,0.0,0.0,0.03203332600240012,-0.07620286597613733,0.09425064472306441,0.005717976612020354,-0.016388974849215886,-0.014480619610875886,0.36932848607988367
3215,4.0,300.84275,189.12873000000002,0.0,0.0,0.0,0.0,0.0,0.03204329281198395,-0.10200477922708791,0.08996775206087582,-0.04545338522264986,0.005977246946283344,-0.011611495561465388,0.4186243396100056
3216,4.0,301.40103,539.83929,0.0,0.0,0.0,0.0,0.0,0.032053259621567756,-0.15057717218580988,0.04834747474127425,-0.061867960848892345,0.004174795291170216,0.009277588554701701,0.4085797076586776
3217,4.0,300.75264,534.18562,0.0,0.0,0.0,0.0,0.0,0.03206322643115159,-0.13475797725207686,0.02263684316533248,-0.05025795679157415,0.018006554666608582,0.00016672428524940587,0.39811877177126365
3218,4.0,300.18815,373.19545,0.0,0.0,0.0,0.0,0.0,0.03207319324073542,-0.08720837718279673,0.05676729834899615,-0.08300102028906292,-0.024982384411069376,0.01017565025550849,0.3845040645500966
3219,4.0,299.69524,384.5553,0.0,0.0,0.0,0.0,0.0,0.032083160050319234,-0.090420828869591,0.055098765223824744,-0.08157314622164272,-0.02594101729092908,0.005996070397366074,0.3923035470623456
3220,4.0,299.59803,398.0168,0.0,0.0,0.0,0.0,0.0,0.03209312685990305,-0.13368317220850187,0.06855697191404633,-0.05586096943929845,-0.04612547198747966,0.008630748638638571,0.3840816507159076
3221,4.0,300.84676,406.38926000000004,0.0,0.0,0.0,0.0,0.0,0.03210309366948687,-0.14144599533213287,0.08142582978960372,-0.06351202094439844,-0.021100619224968982,-0.012911320147498089,0.3963517041268676
3222,4.0,299.96041,-36.828383,0.0,0.0,0.0,0.0,0.0,0.0321130604790707,-0.10445659115656292,0.10926068345818989,0.0063908214905749735,0.009850077900952001,-0.02766829156414777,0.38760026301316763
3223,4.0,299.21311000000003,-273.72001,0.0,0.0,0.0,0.0,0.0,0.032123027288654515,-0.07250498136518453,0.13217513181966986,0.023533899823365078,0.04775698095399705,-0.02003882532592808,0.3914419703698146
3224,4.0,299.78489,141.78191999999999,0.0,0.0,0.0,0.0,0.0,0.03213299409823833,-0.07678379265597034,0.06532764657333673,-0.03164201730282397,0.023762268157403274,-0.0013948920673901286,0.35995657113494767
3225,4.0,300.74802,685.6147900000001,0.0,0.0,0.0,0.0,0.0,0.03214296090782216,-0.14983776305783586,0.02801809589617077,-0.08659011223677872,0.018437191025359085,0.028541356486312574,0.39038033757753965
3226,4.0,301.09011,696.0378599999999,0.0,0.0,0.0,0.0,0.0,0.032152927717405966,-0.16459129246389584,0.04245402408488596,-0.08944086200887583,-0.025981414559165975,0.014401921488858986,0.38976680450948864
3227,4.0,300.22447,266.5997,0.0,0.0,0.0,0.0,0.0,0.032162894526989796,-0.1074382923583339,0.08023994720381622,-0.05384130867747345,-0.0020830941697603878,0.03481115660084367,0.4312785566638796
3228,4.0,299.49377000000004,333.53626,0.0,0.0,0.0,0.0,0.0,0.03217286133657363,-0.12184639467280288,0.06251359368011133,-0.04205389060714586,-0.03470071841944426,0.010724638278939389,0.4132011818947816
3229,4.0,300.69046000000003,719.61387,0.0,0.0,0.0,0.0,0.0,0.032182828146157444,-0.15184035055547587,0.053811311408262945,-0.12071560756120289,-0.004674659835178005,-0.002035851789147928,0.41504223706147964
3230,4.0,300.10434,533.01989,0.0,0.0,0.0,0.0,0.0,0.03219279495574126,-0.11338763085048789,0.032452636634575864,-0.08108974081093433,0.00027385102346699173,-0.026993508540801875,0.37586248001223865
3231,4.0,300.84286000000003,80.380865,0.0,0.0,0.0,0.0,0.0,0.03220276176532508,-0.08965923665717772,0.0953977806250279,-0.03017232032427617,0.02079736664229028,0.006023581252156183,0.38673562630533465
3232,4.0,300.58996,-158.91178,0.0,0.0,0.0,0.0,0.0,0.03221272857490891,-0.07654494630264802,0.12597061642233187,-0.001120462701031059,0.023787569012400273,0.014104865943791884,0.3858851548338996
3233,4.0,299.89743,88.982596,0.0,0.0,0.0,0.0,0.0,0.032222695384492725,-0.0988560964353371,0.07676630598574452,-0.004958697041635296,-0.003083872984879567,0.003832697131457756,0.34664765266145964
3234,4.0,300.90647,602.8303,0.0,0.0,0.0,0.0,0.0,0.03223266219407654,-0.17320888323938582,0.06927426483208764,-0.07931074315986092,8.111193402787463e-05,0.018179511392428082,0.4070173469319846
3235,4.0,299.85152,569.39478,0.0,0.0,0.0,0.0,0.0,0.03224262900366037,-0.12742033413540788,0.02279476528616818,-0.06845622445660333,0.01062723049382599,-0.003131612769966117,0.35901397496442067
3236,4.0,299.26973,300.22084,0.0,0.0,0.0,0.0,0.0,0.032252595813244175,-0.08001094356196534,0.06352175523810914,-0.07477045052176894,0.036032426946373666,-0.0017511146295215584,0.39273467484739466
3237,4.0,298.69937000000004,440.4953,0.0,0.0,0.0,0.0,0.0,0.032262562622828006,-0.11934949311387788,0.049121027357867955,-0.06367110627634893,-0.026413862609095274,-0.02382469753581458,0.3687793855856916
3238,4.0,298.42523,650.99928,0.0,0.0,0.0,0.0,0.0,0.03227252943241184,-0.15978888215743486,0.03621913246280007,-0.07431777901309373,-0.0018934645148703981,-0.016919594674833983,0.4033855343335526
3239,4.0,299.06647000000004,479.97432000000003,0.0,0.0,0.0,0.0,0.0,0.032282496241995653,-0.14328330147346086,0.06153242409152744,-0.06414933195254614,-0.037559151667049664,-0.008528493667696792,0.41572825804168456
3240,4.0,300.43838999999997,8.2896337,0.0,0.0,0.0,0.0,0.0,0.03229246305157947,-0.09816003718639141,0.11046237781178789,-0.014822181153335385,0.004147161225167947,0.012649204505629287,0.41962549150381157
3241,4.0,300.04287,-138.02413,0.0,0.0,0.0,0.0,0.0,0.03230242986116329,-0.03034622646543937,0.09204009980140061,-0.01973798427848738,-0.004414458121423096,-0.007792303027340432,0.37545726103224664
3242,4.0,300.4067,291.1007,0.0,0.0,0.0,0.0,0.0,0.03231239667074712,-0.0971711040755413,0.06752909149585243,-0.05884533042258194,0.009548343369573121,0.0012231753570430088,0.38004355522487865
3243,4.0,300.19854,602.95495,0.0,0.0,0.0,0.0,0.0,0.032322363480330935,-0.16665022679959685,0.047521016283959154,-0.06415404356551113,-0.02004769633055358,-0.007141224990084033,0.3760609858393296
3244,4.0,299.13232999999997,451.24690999999996,0.0,0.0,0.0,0.0,0.0,0.03233233028991475,-0.17045071514217583,0.07758905898744393,-0.04430613684992525,0.03809401397083646,0.02106111665657038,0.3904155176210116
3245,4.0,300.16285,132.74617,0.0,0.0,0.0,0.0,0.0,0.03234229709949858,-0.13076862922335888,0.10461783977747689,-0.014200731562253089,-0.007769420395032092,0.018825523179184483,0.3785683137417836
3246,4.0,299.71013,197.15077,0.0,0.0,0.0,0.0,0.0,0.032352263909082385,-0.1022581221495909,0.07506463552930273,-0.032735423591734765,0.03608808072136627,0.008389909222369572,0.40372672603972565
3247,4.0,299.13653999999997,514.976,0.0,0.0,0.0,0.0,0.0,0.032362230718666216,-0.1038654002532169,0.058151895491395246,-0.1108263473802089,-0.003977115668210756,-0.028394502096319173,0.38876130577275364
3248,4.0,301.32507999999996,532.7536299999999,0.0,0.0,0.0,0.0,0.0,0.032372197528250046,-0.1213945864532129,0.056033420553318045,-0.0965826307089635,0.011248947582934689,-0.01801288747973358,0.3993654544293016
3249,4.0,301.71423,54.615317000000005,0.0,0.0,0.0,0.0,0.0,0.03238216433783386,-0.09015678602603201,0.09229787771959132,-0.018742784215768783,0.00991476439528606,-0.03478231950299767,0.3866264080770556
3250,4.0,300.47885,-58.45986,0.0,0.0,0.0,0.0,0.0,0.03239213114741768,-0.1043413035601849,0.1214995794285749,0.0006120569247753154,-0.0045810041151849055,0.0015125856261305785,0.4130548787128426
3251,4.0,301.1311,420.15975999999995,0.0,0.0,0.0,0.0,0.0,0.0324020979570015,-0.13796813595389487,0.03650652058866306,-0.026256459272310774,-0.012693325467983688,0.02232644818269888,0.4026072164017386
3252,4.0,300.30427000000003,668.28553,0.0,0.0,0.0,0.0,0.0,0.03241206476658533,-0.18228711777533782,0.04969161686018075,-0.07054661007540834,-0.03285479863901617,0.036893073475312864,0.41808028510131157
3253,4.0,299.00417000000004,449.2348,0.0,0.0,0.0,0.0,0.0,0.032422031576169144,-0.08073539914496351,0.03163187365607287,-0.08745263733140332,0.0072027629110573525,0.018102368609314683,0.34408926708646664
3254,4.0,300.04798,9.8183106,0.0,0.0,0.0,0.0,0.0,0.03243199838575296,-0.07751831690521223,0.09403499774403172,-0.01950120292886888,-0.011346183115531091,-0.015865112388514686,0.39013512092083863
3255,4.0,299.72362000000004,-24.199343,0.0,0.0,0.0,0.0,0.0,0.03244196519533679,-0.07090787122631202,0.10125794297588091,-0.022994075633838578,0.03195178001739517,-0.03588100989117997,0.3752511963594096
3256,4.0,299.9081,482.2384,0.0,0.0,0.0,0.0,0.0,0.032451932004920594,-0.17524738032056983,0.08181962133496792,-0.05316067312154995,0.011485306407261489,-0.041300504707292456,0.39698858247722263
3257,4.0,300.49844,709.81178,0.0,0.0,0.0,0.0,0.0,0.032461898814504425,-0.17284345459082084,0.051304810317890547,-0.09422640879392251,0.023411168891752477,-0.013197656519757288,0.4008316881190076
3258,4.0,300.95315,311.68982,0.0,0.0,0.0,0.0,0.0,0.03247186562408824,-0.13038921772341389,0.08370014056656072,-0.048056846241591455,-0.005878684360030974,0.0006168808666464014,0.41298301901575063
3259,4.0,300.23767000000004,110.12546,0.0,0.0,0.0,0.0,0.0,0.03248183243367207,-0.06115186761896944,0.0927771277916396,-0.06510065119318403,0.005977832503516135,-0.013739012743434987,0.3864912101162126
3260,4.0,300.68925,555.93604,0.0,0.0,0.0,0.0,0.0,0.032491799243255876,-0.15248165680876785,0.06538512217200913,-0.08189414587982292,-0.03499707684844257,0.025907296327601075,0.41234553271533564
3261,4.0,300.29554,788.02823,0.0,0.0,0.0,0.0,0.0,0.032501766052839706,-0.16731454396265985,0.017582910746798183,-0.08980927467898532,-0.0032555603109737864,-0.00045567511634413263,0.4003051831020456
3262,4.0,299.80679,509.55127000000005,0.0,0.0,0.0,0.0,0.0,0.03251173286242352,-0.16690474509221584,0.06296779013018704,-0.05095390660950905,-0.01904738847408088,-0.01069988660549659,0.4277038305760816
3263,4.0,299.6788,-68.051439,0.0,0.0,0.0,0.0,0.0,0.03252169967200734,-0.09406876329036411,0.11145845332259288,0.0032962455448891067,0.0069706753412020935,7.906769283187372e-06,0.4182546958410246
3264,4.0,299.4299,-101.03681999999999,0.0,0.0,0.0,0.0,0.0,0.03253166648159117,-0.05189474276461235,0.09346586124236231,-0.010858448087145388,0.0024126347156835076,0.025043154085816876,0.40058913631006965
3265,4.0,299.21966000000003,328.20362,0.0,0.0,0.0,0.0,0.0,0.03254163329117499,-0.09205754087537191,0.07243562034283912,-0.08014378672957592,0.007400906298587582,0.034496599186799266,0.35768823853358067
3266,4.0,299.99082000000004,595.1097,0.0,0.0,0.0,0.0,0.0,0.032551600100758804,-0.16041868802209186,0.049946277007813754,-0.07042607485676243,-0.029366268723975075,0.014263486193946488,0.37966183351470567
3267,4.0,299.42503,267.51023,0.0,0.0,0.0,0.0,0.0,0.03256156691034262,-0.0974325307073421,0.07013576857061143,-0.05401966906607624,0.014818909368762486,-0.017983986547131285,0.36593175763715263
3268,4.0,300.36645,0.5312001999999999,0.0,0.0,0.0,0.0,0.0,0.03257153371992645,-0.1087146632443019,0.11201306589732889,-0.0034598713518627163,-0.007805316704999784,-0.008929516272399641,0.4052885497438656
3269,4.0,300.29983,278.94571,0.0,0.0,0.0,0.0,0.0,0.032581500529510254,-0.11313132923769288,0.03831117778526886,-0.00997238316619759,0.003253768378171937,-0.013906022704417587,0.3761392492770536
3270,4.0,300.32935,683.15187,0.0,0.0,0.0,0.0,0.0,0.032591467339094085,-0.15820075448069884,0.05726573228518774,-0.1067260889955449,-0.0015309681107697885,-0.025381426618451775,0.4111460371144546
3271,4.0,301.63468,623.2727,0.0,0.0,0.0,0.0,0.0,0.0326014341486779,-0.13605980098055687,0.03284544634059317,-0.08624498810696761,-0.015678959093392786,-0.015355071672427587,0.39115832113682064
3272,4.0,300.61821000000003,177.3784,0.0,0.0,0.0,0.0,0.0,0.03261140095826173,-0.1019459701912839,0.07511719281198972,-0.027089826068807676,0.021140211972626482,0.027611025708246077,0.4178320793568156
3273,4.0,299.49523,28.765411999999998,0.0,0.0,0.0,0.0,0.0,0.03262136776784555,-0.07830721722107063,0.099486701754323,-0.029923451914214774,0.000995520573990231,0.01026919857099099,0.38981499468424463
3274,4.0,300.41632000000004,441.18242999999995,0.0,0.0,0.0,0.0,0.0,0.032631334577429366,-0.14605645553964985,0.06809611841081363,-0.05614811033213704,0.01945511524807038,0.024864121912397775,0.4138382831601586
3275,4.0,300.15463,686.22222,0.0,0.0,0.0,0.0,0.0,0.0326413013870132,-0.16697923923956784,0.05691114743919295,-0.09852633013729171,-0.024909762749902177,-0.022135757553629183,0.3900211201520876
3276,4.0,299.2234,309.07818,0.0,0.0,0.0,0.0,0.0,0.032651268196597,-0.13080377886932787,0.09850281361572082,-0.06165108378423823,0.01924765836959598,0.014895156438787485,0.4021628150403796
3277,4.0,299.82521,7.8475754,0.0,0.0,0.0,0.0,0.0,0.03266123500618083,-0.07443143932981114,0.08796396082211702,-0.015917987831733083,-0.01037160877184809,-0.006111128492596425,0.38616322105884265
3278,4.0,298.9582,246.7303,0.0,0.0,0.0,0.0,0.0,0.03267120181576466,-0.11496307263597189,0.09819401551524481,-0.05823079828993235,0.008527779022401262,-0.004467842114866686,0.4110437799143626
3279,4.0,299.78423,695.27574,0.0,0.0,0.0,0.0,0.0,0.032681168625348464,-0.14140619486820488,0.04662960545548375,-0.11656987451205088,-0.006224724771907504,-0.02333113834585408,0.40048262345955765
3280,4.0,300.53733,497.49065999999993,0.0,0.0,0.0,0.0,0.0,0.032691135434932295,-0.14596810013092984,0.04927704355526555,-0.05453368273580545,0.016591913645494383,0.0012031903160456387,0.40428686082750664
3281,4.0,299.53002999999995,-11.697227,0.0,0.0,0.0,0.0,0.0,0.03270110224451611,-0.06989762743935873,0.09356306333770541,-0.020109770058179783,0.017548846291686286,-0.012176747262251387,0.3880016113777776
3282,4.0,300.47522999999995,90.314224,0.0,0.0,0.0,0.0,0.0,0.03271106905409994,-0.10323562478606291,0.06561641170608563,0.01016594635930079,-0.0028597177447571673,-0.01047732216803119,0.3654547194900727
3283,4.0,300.54727,377.08128999999997,0.0,0.0,0.0,0.0,0.0,0.03272103586368376,-0.12986778908945287,0.07075636196535923,-0.05551187336909535,0.006985646618054644,0.0032712068176929767,0.3954116512140916
3284,4.0,300.69817,426.36915,0.0,0.0,0.0,0.0,0.0,0.032731002673267576,-0.15261421018684984,0.07436301049755772,-0.05135436939353165,-0.01045308319913899,0.025274569262905774,0.36961895448605064
3285,4.0,300.78475,313.11566,0.0,0.0,0.0,0.0,0.0,0.032740969482851406,-0.08276436154270651,0.04973940477464705,-0.06215438436066014,0.005470899628135756,0.01035480503218969,0.38010045935049463
3286,4.0,300.68961,148.7008,0.0,0.0,0.0,0.0,0.0,0.03275093629243521,-0.09911713397909949,0.09293808966277532,-0.03902228683794986,-0.007844274246169593,0.02014673139532758,0.39816396272572363
3287,4.0,299.50557000000003,267.06448,0.0,0.0,0.0,0.0,0.0,0.03276090310201904,-0.07617014103765762,0.07144299089562423,-0.07645378419115102,-0.001065057678938009,-0.007072957264596533,0.3915248947579986
3288,4.0,299.5076,602.00307,0.0,0.0,0.0,0.0,0.0,0.03277086991160287,-0.17750337153571882,0.07419926826814763,-0.07968980306202122,0.0033285908185563366,-0.0032852242209013872,0.40877691652564063
3289,4.0,299.4588,550.21805,0.0,0.0,0.0,0.0,0.0,0.032780836721186674,-0.16787445583541882,0.08233858371818552,-0.08171667715130812,-0.011178547979236791,-0.03940425882089756,0.41409628703312157
3290,4.0,299.77449,221.13969,0.0,0.0,0.0,0.0,0.0,0.032790803530770504,-0.1312873524795529,0.07640046697088902,-0.01233406143302709,0.005711324422463834,-0.023073916701968275,0.4000552244348766
3291,4.0,299.93654,262.09645,0.0,0.0,0.0,0.0,0.0,0.03280077034035432,-0.0977850606821341,0.07622518584934013,-0.05811090344534965,-0.00025420213832279774,-0.010510432141548889,0.39885476624640065
3292,4.0,299.96293,525.34153,0.0,0.0,0.0,0.0,0.0,0.03281073714993815,-0.14319229134947886,0.06371316932775024,-0.08021158734676732,-0.010061957514787891,0.02234902542142708,0.41722632804953264
3293,4.0,299.62871,470.60445,0.0,0.0,0.0,0.0,0.0,0.03282070395952197,-0.1121514353309849,0.05914758090091174,-0.09004814839006031,0.003867729443065176,0.01027918617722669,0.40109097881959765
3294,4.0,301.14504,290.21884,0.0,0.0,0.0,0.0,0.0,0.032830670769105785,-0.13141368450202087,0.09516342904914922,-0.05196903020894395,-0.025180389692610976,0.012900372993417687,0.4187001003199826
3295,4.0,301.4883,187.19698,0.0,0.0,0.0,0.0,0.0,0.032840637578689616,-0.1165373187863379,0.06957279566930033,-0.009938685507621892,0.02852045009699927,0.009177990832147171,0.38046657700912767
3296,4.0,300.62597999999997,261.51949,0.0,0.0,0.0,0.0,0.0,0.03285060438827342,-0.14044462052330486,0.09460289098782841,-0.03365366224310787,-0.01000749957756331,0.02264643357752898,0.3700001290411697
3297,4.0,300.085,501.67778,0.0,0.0,0.0,0.0,0.0,0.03286057119785725,-0.13789787719196087,0.05185627067156545,-0.06645591069218774,0.0006528718344384334,0.01160396812647249,0.3851260278589796
3298,4.0,300.22361,466.6421,0.0,0.0,0.0,0.0,0.0,0.03287053800744108,-0.11986401138215688,0.03667899804718526,-0.058662537064791645,-0.029272821733502572,0.003951668499899317,0.39069242874084065
3299,4.0,299.61267999999995,71.45124,0.0,0.0,0.0,0.0,0.0,0.03288050481702488,-0.07370534633465134,0.10690223239292888,-0.054916273814564244,0.0025046321505629477,0.014729359338174588,0.42056970887449857
3300,4.0,299.43057000000005,-6.0560282,0.0,0.0,0.0,0.0,0.0,0.032890471626608714,-0.07140312051743933,0.07828789352841352,-0.005043892021968385,0.015122580423732487,0.0014575759742265486,0.4024897199201426
3301,4.0,299.60708,424.82066,0.0,0.0,0.0,0.0,0.0,0.03290043843619253,-0.13008594183598288,0.06891212012709674,-0.06796105622548403,-0.006112031501085544,-0.024383694443733277,0.39421439489593163
3302,4.0,300.20357,734.2010799999999,0.0,0.0,0.0,0.0,0.0,0.03291040524577636,-0.16172806046381683,0.030357932543844675,-0.09180866739906002,-0.004505235603182136,-0.02128948600385868,0.3958864196809476
3303,4.0,299.45572000000004,319.33742,0.0,0.0,0.0,0.0,0.0,0.03292037205536018,-0.1014277231626369,0.04193033792970216,-0.03757322064468817,0.01760766444674118,0.0075643255038658035,0.35500825281408666
3304,4.0,299.36081,154.61404,0.0,0.0,0.0,0.0,0.0,0.032930338864943995,-0.07932099319787253,0.08461035427714182,-0.05228816751344035,0.04013292344481116,0.03999290950624287,0.40720843576834365
3305,4.0,299.46547000000004,185.37062,0.0,0.0,0.0,0.0,0.0,0.032940305674527826,-0.09635502129925022,0.08216811553461163,-0.04216113299772986,0.008802523205566402,0.0059763749432472845,0.4093434449215526
3306,4.0,298.88183,319.9398,0.0,0.0,0.0,0.0,0.0,0.03295027248411163,-0.13873787165736187,0.092011489671577,-0.050527323251158544,-0.011295706035299388,0.007683236381276393,0.43418467954069156
3307,4.0,298.86093999999997,468.01992,0.0,0.0,0.0,0.0,0.0,0.03296023929369546,-0.14295490711605086,0.07718702870551662,-0.07649848878556303,-0.025773526036148978,-0.011327907123477388,0.41574104525794664
3308,4.0,298.96162000000004,445.27009000000004,0.0,0.0,0.0,0.0,0.0,0.03297020610327929,-0.16560353944629683,0.07528729825202783,-0.045034747771583554,0.003639149947706136,-0.01972771600197398,0.42770183447338456
3309,4.0,299.13681,338.92676,0.0,0.0,0.0,0.0,0.0,0.03298017291286309,-0.1097415516906479,0.08886124343492192,-0.08214496378307672,0.0017251517169092185,-0.02066417491664528,0.4033148297415746
3310,4.0,300.31154,523.85753,0.0,0.0,0.0,0.0,0.0,0.03299013972244692,-0.14471967468271987,0.07315838379817034,-0.08767831852617632,-0.010803900781261989,-0.013105862140197886,0.43185962519872656
3311,4.0,300.88707999999997,639.23608,0.0,0.0,0.0,0.0,0.0,0.03300010653203074,-0.13002532921500087,0.03754677887007857,-0.10183325625015992,0.008962410220996022,-0.0005242575370476905,0.4186502990775676
3312,4.0,300.38923,175.29845,0.0,0.0,0.0,0.0,0.0,0.03301007334161457,-0.12875349768948088,0.10471001513907391,-0.02924286904729647,0.011449581235235689,0.007797827469535653,0.4365474166538756
3313,4.0,300.23454,-35.444555,0.0,0.0,0.0,0.0,0.0,0.03302004015119839,-0.05121197026422795,0.08116073417919083,-0.01917450475212628,0.03807661342686917,-0.01284171999812909,0.38797219672737465
3314,4.0,300.26945,345.78395,0.0,0.0,0.0,0.0,0.0,0.033030006960782204,-0.13716577359720789,0.07765457573890994,-0.04559849074297066,0.022321503522210878,-0.002057315769991258,0.40209851418903364
3315,4.0,299.9689,527.10726,0.0,0.0,0.0,0.0,0.0,0.033039973770366035,-0.1090289024978149,0.04394670562870216,-0.0951452533688554,0.0019597994657921483,0.013914656608519685,0.37316716381873166
3316,4.0,298.63446,244.40205,0.0,0.0,0.0,0.0,0.0,0.03304994057994984,-0.10008329125420182,0.044186317999100055,-0.018395146212459582,0.0037548875284535463,0.008312238434629061,0.37605793595652864
3317,4.0,298.89435,99.157089,0.0,0.0,0.0,0.0,0.0,0.03305990738953367,-0.07525785016437153,0.09156128036064481,-0.04644470960373596,-0.03365031243827727,0.014461304024219586,0.4089757567252646
3318,4.0,299.0288,306.43621,0.0,0.0,0.0,0.0,0.0,0.0330698741991175,-0.14026006715009087,0.08053520119020552,-0.03342409219445107,0.001963466721879078,-0.013909970326807186,0.42080829887554566
3319,4.0,300.20637999999997,455.44057000000004,0.0,0.0,0.0,0.0,0.0,0.0330798410087013,-0.1258605166664659,0.06196286286650844,-0.07454491016875983,-0.017139142666751685,-0.006519198961019843,0.3947377183075796
3320,4.0,300.91945,565.48942,0.0,0.0,0.0,0.0,0.0,0.03308980781828513,-0.14892468286272187,0.06060268201176904,-0.08357266255822962,0.0058126447715133745,-0.018613933253552182,0.40202413149919264
3321,4.0,300.34002000000004,345.4015,0.0,0.0,0.0,0.0,0.0,0.03309977462786895,-0.0998735565895026,0.047315270784903656,-0.052435144506695855,0.016442293082727984,-0.0012559220803998587,0.3883922395563296
3322,4.0,299.91738,84.829766,0.0,0.0,0.0,0.0,0.0,0.03310974143745278,-0.10703360026839391,0.11299934327966689,-0.03175186577266517,0.02959519130581797,0.016750902718685384,0.40149156724663265
3323,4.0,300.03148999999996,398.54382000000004,0.0,0.0,0.0,0.0,0.0,0.0331197082470366,-0.11635577476592089,0.05044924625145295,-0.05524084517934695,0.010538625825581389,0.03903881092058066,0.4145549245583856
3324,4.0,300.09058999999996,695.2896,0.0,0.0,0.0,0.0,0.0,0.033129675056620414,-0.19389796080373883,0.06118616613485444,-0.07863888234980343,-0.024772291055834776,0.0016176075804454385,0.42482954401741163
3325,4.0,299.59314,492.63877,0.0,0.0,0.0,0.0,0.0,0.033139641866204245,-0.1107281026505129,0.04422196211111786,-0.08324374131076763,-0.021273760362306684,-0.006801316970462723,0.4065988847731856
3326,4.0,300.06904,173.93399,0.0,0.0,0.0,0.0,0.0,0.03314960867578805,-0.1205875530135649,0.09098167394569211,-0.02326570873389668,0.00041093080252821256,-0.01196804509940409,0.4006962773756436
3327,4.0,299.25468,326.46437000000003,0.0,0.0,0.0,0.0,0.0,0.03315957548537188,-0.09187185266204592,0.06392488388314484,-0.07129004889903003,0.02399009136288768,0.01043333495468999,0.4099524994241616
3328,4.0,299.76886,384.50867,0.0,0.0,0.0,0.0,0.0,0.03316954229495571,-0.15541902831866386,0.08364513729813232,-0.04510714550447866,-0.00861251773621432,-0.006911071208044624,0.4088757185428916
3329,4.0,299.09219,345.22643,0.0,0.0,0.0,0.0,0.0,0.03317950910453951,-0.11548365013984888,0.06326380000115094,-0.05272036123759454,-0.027751030527563475,-0.00024332977223227875,0.4080394832353616
3330,4.0,299.54773,264.5505,0.0,0.0,0.0,0.0,0.0,0.03318947591412334,-0.13418229920776187,0.09922182601918181,-0.04545626994568455,-0.015653667357646683,-0.005284990627612965,0.4231629603854326
3331,4.0,299.44741,197.55344,0.0,0.0,0.0,0.0,0.0,0.03319944272370716,-0.08524063940909611,0.06949020666689942,-0.04430088010840646,0.01058808762921289,0.02231145917396958,0.3873379224297766
3332,4.0,299.98397,292.16895,0.0,0.0,0.0,0.0,0.0,0.03320940953329099,-0.10837256974553988,0.06065516026094824,-0.041094656869976855,-0.0060820531796519145,-0.001017416280436169,0.36667455102046065
3333,4.0,300.16258,469.08362,0.0,0.0,0.0,0.0,0.0,0.03321937634287481,-0.08904968262226941,0.037439637804504565,-0.0909796626442436,-0.019276716355963782,-0.0037897693724211166,0.3694452327564057
3334,4.0,300.2252,379.34648,0.0,0.0,0.0,0.0,0.0,0.033229343152458624,-0.12288541172284588,0.04416411363640866,-0.036590562591707364,-0.011300382184510889,0.005976271895712114,0.4024611969298276
3335,4.0,301.19329,120.42756000000001,0.0,0.0,0.0,0.0,0.0,0.033239309962042454,-0.1000528400489465,0.10763133676738589,-0.04418546889551626,0.021264958258687978,0.052673586573228244,0.4051941350995476
3336,4.0,300.268,211.74167999999997,0.0,0.0,0.0,0.0,0.0,0.03324927677162626,-0.11681304440354989,0.08203039255451942,-0.029581527628219473,0.007563799931038933,0.0017560197732556584,0.4272177745031116
3337,4.0,299.34065,388.34216000000004,0.0,0.0,0.0,0.0,0.0,0.03325924358121009,-0.1135580493848069,0.06533785000184374,-0.06982612136655164,-0.01843987917787438,-0.006710317789581805,0.4147985504124296
3338,4.0,299.29691,560.57965,0.0,0.0,0.0,0.0,0.0,0.03326921039079392,-0.15543280852002386,0.062407488156139536,-0.07737689454900493,-0.02952982147561647,-0.01163179197421849,0.4086843662615066
3339,4.0,299.1566,495.74400999999995,0.0,0.0,0.0,0.0,0.0,0.03327917720037772,-0.1182542609482869,0.05602734003946795,-0.08846688142975141,0.013196635163656486,0.017287078194601783,0.39250712927243764
3340,4.0,299.01283,338.49235,0.0,0.0,0.0,0.0,0.0,0.03328914400996155,-0.16437959412050285,0.10324782431726691,-0.04176144838978406,0.012170025361087989,-0.02065209190920278,0.4245544263502596
3341,4.0,299.57917000000003,268.67913,0.0,0.0,0.0,0.0,0.0,0.03329911081954537,-0.1279656957367309,0.0929474135901955,-0.04665346242908826,-0.014064916532099188,-0.034852852855708764,0.40298185549371257
3342,4.0,299.40538,239.82392000000002,0.0,0.0,0.0,0.0,0.0,0.0333090776291292,-0.14412947676447188,0.09035517228961122,-0.01912617880185688,-0.022494262664260876,-0.03106886731750847,0.43231607410377454
3343,4.0,298.33431,310.60195,0.0,0.0,0.0,0.0,0.0,0.033319044438713016,-0.1040995420863249,0.07757679663473373,-0.06789249567071765,-0.005376683986137395,0.03970433689101296,0.39596349761605465
3344,4.0,298.71055,359.82417000000004,0.0,0.0,0.0,0.0,0.0,0.03332901124829683,-0.1098928704605819,0.05317057764127745,-0.052655271064420646,0.01868815686312748,0.03609245390879787,0.3988032526113166
3345,4.0,298.61053,237.15901000000002,0.0,0.0,0.0,0.0,0.0,0.033338978057880664,-0.06406891535835964,0.05697182288168115,-0.06499332470284173,-0.0024468048527808376,-0.014084674909049187,0.37065122329042766
3346,4.0,299.79253,295.53238,0.0,0.0,0.0,0.0,0.0,0.03334894486746447,-0.12630515107534787,0.07020848041103753,-0.033737789359160573,-0.003108426466602807,-0.010962411600405791,0.4369279123314275
3347,4.0,299.86546,286.68823,0.0,0.0,0.0,0.0,0.0,0.0333589116770483,-0.1144097570213639,0.08556452885656152,-0.05830083616334454,-0.01159143928898599,0.00954209354163131,0.4007873989571366
3348,4.0,300.68601,254.1947,0.0,0.0,0.0,0.0,0.0,0.03336887848663213,-0.14962961108979286,0.098512907613217,-0.026152139095015174,0.02254645416366178,0.014903502579861186,0.4457870416657556
3349,4.0,300.03468,182.36933,0.0,0.0,0.0,0.0,0.0,0.03337884529621593,-0.09173108993165373,0.08185346996780851,-0.04555810360723475,-0.011852446435245387,-0.004223418123718916,0.39533188816621967
3350,4.0,300.22516,231.77876,0.0,0.0,0.0,0.0,0.0,0.03338881210579976,-0.09659829048925901,0.05928143833187244,-0.03313810438022627,0.013589919070720588,-0.0005373979216320454,0.3950054493815026
3351,4.0,300.53201,310.49759,0.0,0.0,0.0,0.0,0.0,0.03339877891538358,-0.07706141913036992,0.05423499383157716,-0.07155709096288503,-0.002985056782127167,0.018556379634622082,0.37953850071253364
3352,4.0,298.99683,362.40587,0.0,0.0,0.0,0.0,0.0,0.03340874572496741,-0.14813657693494187,0.05147714389489855,-0.013502897099132187,-0.002383827002090408,-0.0005148170554684875,0.3884016019872536
3353,4.0,298.33408,427.42472000000004,0.0,0.0,0.0,0.0,0.0,0.033418712534551226,-0.12189230503483389,0.06251344067934624,-0.07054757671600373,0.0032931401359826266,-0.03296825833221377,0.42024604639505564
3354,4.0,299.8933,261.44611000000003,0.0,0.0,0.0,0.0,0.0,0.03342867934413504,-0.12188465499657887,0.07935786131601114,-0.03694629545006547,0.007371847805594733,-0.024636424349925773,0.4206504547749676
3355,4.0,300.92401,264.3407,0.0,0.0,0.0,0.0,0.0,0.03343864615371887,-0.0924404541676625,0.06467461600313763,-0.05258713303494595,0.009333305049875491,0.009921451643296041,0.4159738293359206
3356,4.0,300.42824,400.89668,0.0,0.0,0.0,0.0,0.0,0.033448612963302676,-0.11490678659291689,0.056707708097365035,-0.06366349879459815,0.002594457481203017,0.015499096054891685,0.4016766373773976
3357,4.0,300.42877000000004,430.09490999999997,0.0,0.0,0.0,0.0,0.0,0.03345857977288651,-0.11022769895612688,0.06820764887582084,-0.08871805903679073,-0.023029575864342178,0.0032731024059800564,0.41527090734404765
3358,4.0,299.78974,295.83598,0.0,0.0,0.0,0.0,0.0,0.03346854658247034,-0.13082465182138786,0.09931785071790872,-0.05841995080535024,0.006815983968310243,-0.003028488633088557,0.40093623526432565
3359,4.0,300.29417,408.42868,0.0,0.0,0.0,0.0,0.0,0.033478513392054154,-0.13904394411506887,0.08194138258623482,-0.06704955974027635,0.004047575154989567,-0.003933817768912586,0.4279229053802026
3360,4.0,300.05883,466.06808,0.0,0.0,0.0,0.0,0.0,0.03348848020163797,-0.15871143253109884,0.06418166273673695,-0.04714328576593005,-0.0030837079264382774,0.016072179165700584,0.41925685085242953
3361,4.0,298.97276,400.20842999999996,0.0,0.0,0.0,0.0,0.0,0.03349844701122179,-0.12100024977929488,0.08251759461335252,-0.08317071029656002,-0.03871584657045656,-0.029207820726337475,0.43176497750688564
3362,4.0,299.01608,401.59004,0.0,0.0,0.0,0.0,0.0,0.03350841382080562,-0.12733213071420288,0.055081302871601345,-0.049822517627349655,-0.02267749171959418,0.011598214892404689,0.3928812313418586
3363,4.0,300.12292,365.30169,0.0,0.0,0.0,0.0,0.0,0.03351838063038942,-0.09451644048929642,0.06769207986718814,-0.08421823358119251,-0.0010906626102900189,0.04301292169429486,0.4006000895436506
3364,4.0,299.91051,190.60511,0.0,0.0,0.0,0.0,0.0,0.03352834743997325,-0.1051316690356879,0.06051913751452385,-0.013326658456238786,0.0052715911043155345,0.03338149110724667,0.4156532674017836
3365,4.0,300.43217999999996,201.94245,0.0,0.0,0.0,0.0,0.0,0.03353831424955708,-0.090599171019692,0.08413216001169772,-0.05491845027577904,0.0012216607507935288,-0.03020551135780187,0.41680551515050157
3366,4.0,299.54603,419.99677,0.0,0.0,0.0,0.0,0.0,0.033548281059140886,-0.15061730702227086,0.07599618828698983,-0.053047413038622045,0.00933558729440073,-0.02182450637466108,0.42997835413555957
3367,4.0,299.83756,398.17003,0.0,0.0,0.0,0.0,0.0,0.03355824786872472,-0.09305823579338282,0.04120389738975806,-0.06917940942397613,0.06458820299485935,0.007398905028315072,0.3911838246418376
3368,4.0,300.40026,310.25784,0.0,0.0,0.0,0.0,0.0,0.03356821467830853,-0.1065627024169199,0.05509253474895985,-0.04284046754052496,0.03875042271686896,0.006809272503622873,0.3726751194376706
3369,4.0,300.82048,494.40304000000003,0.0,0.0,0.0,0.0,0.0,0.033578181487892364,-0.1313359074243449,0.04993961590165635,-0.06888989043315284,-0.018394652759660884,-0.01088436905120359,0.4037212646216866
3370,4.0,300.57731,516.2196700000001,0.0,0.0,0.0,0.0,0.0,0.03358814829747617,-0.15924598275385485,0.05797008802595224,-0.05564199596018744,-0.04079372564327726,0.01054504273846469,0.3963404671832586
3371,4.0,300.27043,334.34957,0.0,0.0,0.0,0.0,0.0,0.03359811510706,-0.12211065029888289,0.0862989234097906,-0.06582218760264413,-0.028912845383725676,0.016258210870810485,0.4247183499514376
3372,4.0,299.36341,230.73893999999999,0.0,0.0,0.0,0.0,0.0,0.0336080819166438,-0.13850478360435786,0.0901929539883515,-0.02182704456616158,-0.020098497650817282,0.004461141491955385,0.4209785755548506
3373,4.0,299.29036,353.58206,0.0,0.0,0.0,0.0,0.0,0.03361804872622763,-0.11986248137450588,0.08748321620617122,-0.07510085415412723,-0.014958422761781385,-0.03538168936115087,0.42994030659430466
3374,4.0,299.68147,546.09852,0.0,0.0,0.0,0.0,0.0,0.03362801553581145,-0.13517856723608587,0.04774845040140516,-0.07857020020502502,-0.008423702937054751,0.004657428098677366,0.39659356692573766
3375,4.0,299.235,474.07249,0.0,0.0,0.0,0.0,0.0,0.03363798234539528,-0.12300556291970388,0.048328654633916855,-0.06942929513713793,0.018427686739421082,0.03347963957818317,0.4109682218544056
3376,4.0,298.50184,354.04969,0.0,0.0,0.0,0.0,0.0,0.033647949154979095,-0.12289192692098888,0.07584689703050593,-0.06057723423550754,0.026788614171830375,0.03288346247109507,0.39118815121976463
3377,4.0,299.40276,269.44379,0.0,0.0,0.0,0.0,0.0,0.03365791596456291,-0.12287187470150988,0.08628869465003111,-0.04532100815008525,0.02167928433057878,-0.02192975063604788,0.4288549232196856
3378,4.0,301.16326000000004,300.90556000000004,0.0,0.0,0.0,0.0,0.0,0.03366788277414674,-0.15957773096909583,0.08610717900061692,-0.01799722972593828,-0.01693421790027718,-0.02999604013812867,0.4047498553282006
3379,4.0,300.46302000000003,345.84342000000004,0.0,0.0,0.0,0.0,0.0,0.033677849583730546,-0.12385046151558889,0.09165103506775292,-0.07292833954846673,-5.9325484313719444e-05,-0.034083256980755566,0.40313682196400663
3380,4.0,300.28829,290.24525,0.0,0.0,0.0,0.0,0.0,0.033687816393314376,-0.12188535413914789,0.05639558957631135,-0.022737538947020377,-0.005245959423160885,0.0016627337882240483,0.3861376668913206
3381,4.0,300.4599,343.06687,0.0,0.0,0.0,0.0,0.0,0.03369778320289819,-0.1190227908841349,0.08018756723989673,-0.06544854250901824,-0.011547937422442688,-0.003540426254687867,0.4066774217884366
3382,4.0,299.85221,447.4276,0.0,0.0,0.0,0.0,0.0,0.03370775001248201,-0.13859670565342985,0.06625131827174603,-0.06366143379089434,-0.013167919655822487,0.01733963041103828,0.41072435282033765
3383,4.0,300.02316,407.43343,0.0,0.0,0.0,0.0,0.0,0.03371771682206584,-0.1386108404923249,0.08091293474798492,-0.06615168640266314,-0.016028797875919182,0.035619354264856566,0.4189602826806606
3384,4.0,299.82496000000003,311.08426000000003,0.0,0.0,0.0,0.0,0.0,0.03372768363164966,-0.1225436728616189,0.07850320106866272,-0.05052137040682105,0.0026318515774685276,0.03265992024728317,0.4200903098546856
3385,4.0,299.57347999999996,297.44574,0.0,0.0,0.0,0.0,0.0,0.03373765044123349,-0.1002856545244235,0.07004256172041264,-0.06017298594911135,0.006904887038709294,-0.014251169125730887,0.4129913783290756
3386,4.0,298.77616,246.65881000000002,0.0,0.0,0.0,0.0,0.0,0.03374761725081729,-0.1080783827115059,0.08180173443095262,-0.04870147088896095,0.03245048955761397,0.005240077708980405,0.3985381357226516
3387,4.0,300.20514,286.46432999999996,0.0,0.0,0.0,0.0,0.0,0.03375758406040112,-0.09083999422395941,0.06563595324751424,-0.06187396334248474,0.011792411366820387,-0.02857978602285527,0.3970132956471616
3388,4.0,300.29406,161.4147,0.0,0.0,0.0,0.0,0.0,0.03376755086998495,-0.1011665457903607,0.08196025943559783,-0.029859751920178073,0.014681489350450185,-0.017030993417328184,0.37628740670667565
3389,4.0,301.14675,163.1469,0.0,0.0,0.0,0.0,0.0,0.033777517679568755,-0.10423963404515091,0.0995676057218076,-0.04492055245881336,-0.002257162430939588,-0.03926798174869806,0.44234410901846455
3390,4.0,301.67396,199.17613,0.0,0.0,0.0,0.0,0.0,0.033787484489152586,-0.12381520041210889,0.09162796234972581,-0.028357333042900872,0.014077002579291988,-0.011695495008005489,0.40368208224031965
3391,4.0,301.25337,416.82661,0.0,0.0,0.0,0.0,0.0,0.0337974512987364,-0.1305244460817599,0.08169315252373642,-0.07787358772152472,0.0013224143890621387,-0.016252591385755882,0.4307099207077596
3392,4.0,300.17975,691.54986,0.0,0.0,0.0,0.0,0.0,0.03380741810832022,-0.16392309455294984,0.03517513528851557,-0.08146592916231123,-0.006755466288862613,0.015788380984941883,0.4016940652791176
3393,4.0,301.22372,609.6725799999999,0.0,0.0,0.0,0.0,0.0,0.03381738491790405,-0.1228652480458559,0.047347593463093654,-0.1098075851996649,-0.014619987095880386,-0.0011249075252447289,0.40945847920540557
3394,4.0,300.34423,401.70687999999996,0.0,0.0,0.0,0.0,0.0,0.03382735172748787,-0.12136281093007689,0.07076721488718034,-0.07151326384305963,-0.014279107470738187,0.018340085188775484,0.4128358444387256
3395,4.0,299.69307000000003,213.33026,0.0,0.0,0.0,0.0,0.0,0.0338373185370717,-0.1027642101770379,0.09624927953206432,-0.05833214660468465,-0.006266467737602214,0.019404527723577782,0.43676999730334265
3396,4.0,299.55127999999996,127.71998,0.0,0.0,0.0,0.0,0.0,0.0338472853466555,-0.1109503387949459,0.10135878162583291,-0.029232129609486575,-0.008777619848583633,0.023737818432490277,0.4340382345037385
3397,4.0,299.8003,164.92281,0.0,0.0,0.0,0.0,0.0,0.03385725215623933,-0.08496681870207212,0.07928484246080472,-0.04445043987616686,-0.014286627812980388,-0.001203017354253569,0.4053386448288096
3398,4.0,300.37744,291.73204,0.0,0.0,0.0,0.0,0.0,0.03386721896582316,-0.13398235456552887,0.09100524214301811,-0.04570214217520026,0.002367235335677938,0.0014175081135971586,0.4122224228281856
3399,4.0,301.03873,337.63206,0.0,0.0,0.0,0.0,0.0,0.033877185775406965,-0.1164482946325519,0.07370078974895164,-0.05988421169711154,0.024997984409608976,-0.01196478142083199,0.37562841923913864
3400,4.0,300.4392,350.87057999999996,0.0,0.0,0.0,0.0,0.0,0.033887152584990796,-0.14164529149430186,0.08084804215858052,-0.04585864574589596,0.011413117403886988,-0.0025121271615526474,0.4176822804620316
3401,4.0,301.47071,556.46326,0.0,0.0,0.0,0.0,0.0,0.03389711939457461,-0.15599730028323486,0.06785294649281443,-0.08100658540172752,-0.014097250356040286,-0.030122337710093268,0.41557791199184657
3402,4.0,300.02162000000004,475.04940999999997,0.0,0.0,0.0,0.0,0.0,0.03390708620415844,-0.13952251226979986,0.06525345133476423,-0.07013409670794644,0.009214486378224002,0.013331000232917289,0.44341906604955456
3403,4.0,300.07468,406.1277,0.0,0.0,0.0,0.0,0.0,0.03391705301374226,-0.12406322377158688,0.06421967177448813,-0.06360912475448184,0.014553621240830586,0.017547922207595084,0.4220979332053226
3404,4.0,299.68161000000003,471.1933,0.0,0.0,0.0,0.0,0.0,0.03392701982332608,-0.12823744941355086,0.06628996971006064,-0.08128351982630883,0.006547183307581683,0.015791786518527987,0.4254535540914966
3405,4.0,299.09418,429.12628,0.0,0.0,0.0,0.0,0.0,0.03393698663290991,-0.12000050630312788,0.07035492544799053,-0.08079809196840083,-0.006281209817282144,-0.02197984673424198,0.43326645203506964
3406,4.0,298.32088999999996,272.54444,0.0,0.0,0.0,0.0,0.0,0.03394695344249371,-0.0987951919983263,0.06845651120638163,-0.05250802252013835,-0.015560454427947285,-0.0026240364807722373,0.40915351119030763
3407,4.0,300.11249,304.32925,0.0,0.0,0.0,0.0,0.0,0.03395692025207754,-0.1312293337788269,0.08876619854904172,-0.05004535969534245,0.01266236155817779,0.00044677088724785367,0.4262513061602286
3408,4.0,299.72,206.98202,0.0,0.0,0.0,0.0,0.0,0.03396688706166137,-0.1221102855288469,0.07714461000333023,-0.017951686160443483,0.0024580076498614675,0.003091723241354327,0.4118119248151726
3409,4.0,300.75015,225.99964,0.0,0.0,0.0,0.0,0.0,0.033976853871245175,-0.14942519801461887,0.08900188153555183,-0.008274925904996601,-0.0018550199822262182,0.006350352180255964,0.42512285965635954
3410,4.0,300.63351,485.83671,0.0,0.0,0.0,0.0,0.0,0.033986820680829005,-0.13288694001491988,0.05958503845933544,-0.07438032998151703,-0.02122708195669988,-0.0018154338206943683,0.39720031121811866
3411,4.0,299.86279,550.73689,0.0,0.0,0.0,0.0,0.0,0.03399678749041282,-0.14721112495610686,0.053549107613635454,-0.07374824835713543,-0.0012773486723144988,-0.01745790810846138,0.41326880620645556
3412,4.0,299.28536,497.29454000000004,0.0,0.0,0.0,0.0,0.0,0.03400675429999665,-0.14312730148806485,0.07191233239494463,-0.07995015666196613,-0.014682261447026385,-0.028060043437060676,0.41649242086960164
3413,4.0,300.14946000000003,379.25056,0.0,0.0,0.0,0.0,0.0,0.03401672110958047,-0.13425008563945187,0.07722359386187533,-0.05825620350968965,0.003317380320774947,-0.019485932236611783,0.4468615427343005
3414,4.0,299.00927,333.56674,0.0,0.0,0.0,0.0,0.0,0.034026687919164286,-0.12974529728486386,0.07848052757117502,-0.050131187045062954,0.008152403702904602,0.015157977302725886,0.4546108997641025
3415,4.0,299.11207,347.86071,0.0,0.0,0.0,0.0,0.0,0.03403665472874812,-0.12479602650890889,0.07211271577447093,-0.053057656997133044,0.002273454884597528,0.029816961355204976,0.4185148072741956
3416,4.0,299.42851,244.12992000000003,0.0,0.0,0.0,0.0,0.0,0.03404662153833192,-0.0923724995364559,0.06454020432437224,-0.04637710555706395,-0.0067923823337309435,0.009901329205585112,0.41046735206497365
3417,4.0,299.3608,223.7572,0.0,0.0,0.0,0.0,0.0,0.03405658834791575,-0.09999739804322481,0.07078456578189274,-0.038803769321383866,-0.017346189178935587,-0.019045191747864083,0.3952172287849036
3418,4.0,300.34808,303.293,0.0,0.0,0.0,0.0,0.0,0.03406655515749958,-0.11117696231231189,0.07895676930367643,-0.05997330779165465,0.012339091206523487,0.007170526967075914,0.39904402110007864
3419,4.0,300.11505,382.22688,0.0,0.0,0.0,0.0,0.0,0.034076521967083384,-0.12033089676323488,0.04232101981050946,-0.038177548335580666,-0.003280494268109577,-0.0015001994542581587,0.4014892570364046
3420,4.0,300.58168,457.47779,0.0,0.0,0.0,0.0,0.0,0.034086488776667215,-0.16293293642272882,0.07554931358213672,-0.051678199059241155,-0.002880046074888417,-0.015641991676744384,0.42086020767816856
3421,4.0,300.99122,412.77271,0.0,0.0,0.0,0.0,0.0,0.03409645558625103,-0.16470340858746085,0.0890926312542581,-0.04986181551922805,-0.004638606066144776,-0.007762098345834463,0.42300910849024864
3422,4.0,299.63291,252.32367999999997,0.0,0.0,0.0,0.0,0.0,0.03410642239583486,-0.10633118490157088,0.08645968972365702,-0.05682860504629665,0.026124709401558074,0.01985556384659158,0.3990480842329796
3423,4.0,300.10519,361.45369,0.0,0.0,0.0,0.0,0.0,0.03411638920541868,-0.11043254772884388,0.08376104196382121,-0.08320138644333751,0.015618533923679286,0.036870077764293366,0.40514357391955763
3424,4.0,299.7119,413.7989,0.0,0.0,0.0,0.0,0.0,0.034126356015002496,-0.10494913203017289,0.06014949779854324,-0.08098489880983722,-0.008178745267079311,0.006582235478891064,0.4056953088640096
3425,4.0,300.12269,338.19094,0.0,0.0,0.0,0.0,0.0,0.034136322824586326,-0.12493829695544989,0.09229887374443961,-0.07016217488146753,-0.023738568237564275,-0.007833180373474713,0.4416762454800515
3426,4.0,300.06327999999996,178.26603,0.0,0.0,0.0,0.0,0.0,0.03414628963417013,-0.11091788439424288,0.09124685162936311,-0.034517386012600765,-0.014443377603450385,-0.002491911099532478,0.4326954146762126
3427,4.0,300.36991,286.88327999999996,0.0,0.0,0.0,0.0,0.0,0.03415625644375396,-0.12363391983671788,0.07124439083627393,-0.034815823630804266,-0.009030394337780532,0.005327805409263454,0.4372783752760156
3428,4.0,298.95776,470.21917,0.0,0.0,0.0,0.0,0.0,0.03416622325333779,-0.12924953427593586,0.06854725383233723,-0.08223260181072592,-0.007122611180446994,-0.03042606956006927,0.4221139222919006
3429,4.0,299.65727000000004,459.02619000000004,0.0,0.0,0.0,0.0,0.0,0.034176190062921594,-0.14626530665026186,0.07110554922807134,-0.06437273840084465,-0.024828662211898177,-0.02950157003632827,0.4125587408013776
3430,4.0,298.90594,416.89449,0.0,0.0,0.0,0.0,0.0,0.034186156872505424,-0.12563213009392588,0.06881088934935603,-0.06990427942626523,0.02248239142608928,-0.016578625883682984,0.39375142066023966
3431,4.0,299.371,180.1723,0.0,0.0,0.0,0.0,0.0,0.03419612368208924,-0.13445249247942787,0.10184499981881891,-0.02216039371656058,0.03548283097288276,0.026459606798109873,0.39680171889378063
3432,4.0,298.87665,51.951797,0.0,0.0,0.0,0.0,0.0,0.03420609049167307,-0.10747952150490289,0.1099908314802499,-0.018303361965401183,0.024088565087106276,-0.0072166880071816535,0.4237440593177826
3433,4.0,300.02462,311.86264,0.0,0.0,0.0,0.0,0.0,0.03421605730125689,-0.13956913190690087,0.09122883705583522,-0.046458156445813054,-0.00024311739501131876,-0.01101877465046839,0.41851974180218265
3434,4.0,299.37931000000003,395.65758,0.0,0.0,0.0,0.0,0.0,0.034226024110840705,-0.1143802207809489,0.08697064540458442,-0.0928604473473626,0.0002027070761131308,0.02678767488898768,0.43018682021113364
3435,4.0,300.17722000000003,432.70117,0.0,0.0,0.0,0.0,0.0,0.034235990920424536,-0.1021949561383569,0.038190393307098364,-0.06752578627402624,-0.008175338821568123,0.03082788604622547,0.3941057542202096
3436,4.0,300.50981,367.90195,0.0,0.0,0.0,0.0,0.0,0.03424595773000834,-0.11084996624003988,0.08734244233002791,-0.08832548237829642,-0.002112032187316348,-0.0023618568014971177,0.4312796104439836
3437,4.0,300.30925,409.82254,0.0,0.0,0.0,0.0,0.0,0.03425592453959217,-0.15372909940438087,0.047580533581583054,-0.018427249015377883,-0.01878960954264008,0.0011467031428457888,0.4290499232014306
3438,4.0,299.71915,440.26248,0.0,0.0,0.0,0.0,0.0,0.034265891349176,-0.14847660340349986,0.05788621624892474,-0.04323841037154886,0.006468239776390563,-0.0004171972680366646,0.4460794453796136
3439,4.0,301.00439,421.86848,0.0,0.0,0.0,0.0,0.0,0.0342758581587598,-0.16597428765788685,0.07250147349333834,-0.034764673752506164,0.030775558771311173,-0.006695160378685883,0.41715763982525367
3440,4.0,299.5522,282.35782,0.0,0.0,0.0,0.0,0.0,0.034285824968343634,-0.09510885235901291,0.06989576711217514,-0.06061664257164684,0.024800917397659977,-0.036294395666977966,0.4246808698302386
3441,4.0,299.19202,272.94948999999997,0.0,0.0,0.0,0.0,0.0,0.03429579177792745,-0.1053700867842179,0.08863964665130201,-0.06623939029156883,0.015935546442715984,-0.027004437456380478,0.3944263465518496
3442,4.0,298.10157999999996,461.58378,0.0,0.0,0.0,0.0,0.0,0.03430575858751128,-0.13702339169315586,0.07216330329896352,-0.07544985295232072,-0.00038173815522212265,0.005717742145947214,0.3909281107141006
3443,4.0,298.58349,435.57852,0.0,0.0,0.0,0.0,0.0,0.0343157253970951,-0.17724247989997083,0.08061776384810383,-0.03578027560598827,-0.004091736748672976,0.03297273183140527,0.4132469605342996
3444,4.0,299.91298,286.61947000000004,0.0,0.0,0.0,0.0,0.0,0.034325692206678915,-0.12406274754403988,0.0953742012819508,-0.058436611676744535,-0.02232169502647978,-0.0006980463235843085,0.4437407628238036
3445,4.0,300.69743,222.77935,0.0,0.0,0.0,0.0,0.0,0.034335659016262746,-0.11866345186867087,0.07887027320888991,-0.027926183979599773,-0.013287644274388387,0.0038713187802194163,0.4271338267323265
3446,4.0,300.19461,438.46425999999997,0.0,0.0,0.0,0.0,0.0,0.03434562582584655,-0.0940886209658239,0.03837613319617946,-0.07756969780453313,0.009458221561953792,0.01967505739427698,0.4262424908843586
3447,4.0,300.91094,509.64786,0.0,0.0,0.0,0.0,0.0,0.03435559263543038,-0.11573901956255189,0.03359346201491657,-0.07277466193229994,-0.0075678754255911525,0.037340922926762166,0.3848642749606466
3448,4.0,300.28414,349.43809,0.0,0.0,0.0,0.0,0.0,0.03436555944501421,-0.1059251755865009,0.05118092732091425,-0.051476203598805746,-0.012942047970030688,-0.020166308400509682,0.4238615963293826
3449,4.0,300.02258,204.39739,0.0,0.0,0.0,0.0,0.0,0.03437552625459801,-0.12724075582018488,0.08504213155550493,-0.01993307849249168,0.005632186651228545,-0.017353541321661184,0.4279307580684775
3450,4.0,299.21737,301.87875,0.0,0.0,0.0,0.0,0.0,0.034385493064181843,-0.14941851056395886,0.09723006408561022,-0.03957515763576396,0.02190860106671058,0.010650525113624989,0.44411822888355657
3451,4.0,299.4762,358.71942,0.0,0.0,0.0,0.0,0.0,0.03439545987376566,-0.13444336309602686,0.08168093576728072,-0.05627931710083615,0.02161317381455418,-0.008066254747602362,0.40901151432129357
3452,4.0,299.97105,384.05224,0.0,0.0,0.0,0.0,0.0,0.03440542668334949,-0.10410093023896189,0.09194888804064873,-0.1045902489772539,-0.01067682503322059,-0.04742049883428886,0.4411386656394966
3453,4.0,300.91613,492.61395999999996,0.0,0.0,0.0,0.0,0.0,0.03441539349293331,-0.1116919162781339,0.049522432464483554,-0.08757286046901841,0.007661106087167304,-0.02144018365148138,0.38964007731948164
3454,4.0,300.72272000000004,362.84056,0.0,0.0,0.0,0.0,0.0,0.034425360302517125,-0.12468003976996189,0.07858547799003283,-0.06419990833128765,0.03175283038676037,0.018857600650850282,0.42254499941444457
3455,4.0,301.39312,357.5325,0.0,0.0,0.0,0.0,0.0,0.034435327112100955,-0.14632977975412484,0.060006692355949444,-0.022357862988799278,0.0012432132896955988,0.037126912346640964,0.4110742382123686
3456,4.0,300.11736,518.15809,0.0,0.0,0.0,0.0,0.0,0.03444529392168476,-0.14355598734037286,0.058951441012804244,-0.07290257361167383,-0.02453677829534148,0.0014112531180798388,0.4567314802358876
3457,4.0,299.73519,515.16453,0.0,0.0,0.0,0.0,0.0,0.03445526073126859,-0.14778656995289885,0.06260522999265515,-0.07141581451469213,-0.03794738350911517,0.012819429509179187,0.4380246238421646
3458,4.0,299.01191,473.36602999999997,0.0,0.0,0.0,0.0,0.0,0.03446522754085242,-0.09872596067199371,0.026939514469473076,-0.07210500595446002,-0.01016833661628669,0.026819344020863178,0.41107769339520955
3459,4.0,299.71188,335.32106,0.0,0.0,0.0,0.0,0.0,0.03447519435043622,-0.1101750910109349,0.07562307109666602,-0.06737721341186323,-0.025172744720606478,0.02354445687615698,0.4074172767464546
3460,4.0,299.36172999999997,196.27711000000002,0.0,0.0,0.0,0.0,0.0,0.03448516116002005,-0.10707625809760389,0.08303399955331772,-0.03562108185627706,-0.02921516780281257,-0.028458461482381476,0.4240642868793866
3461,4.0,300.02648,144.6022,0.0,0.0,0.0,0.0,0.0,0.03449512796960387,-0.13396589938390488,0.11605959162918987,-0.026049153368101274,-0.007966669893324101,-0.0027171696676887677,0.4477158240261116
3462,4.0,300.8031,189.94916,0.0,0.0,0.0,0.0,0.0,0.0345050947791877,-0.12472285971918787,0.11584920037842589,-0.048866149361463454,0.04508763334730296,0.010984450803330888,0.4130840907132256
3463,4.0,301.20672,251.25605,0.0,0.0,0.0,0.0,0.0,0.03451506158877152,-0.12230680538574189,0.08757687091291423,-0.041645629850353666,0.042363968442498165,0.0022108667298955578,0.4181261144033346
3464,4.0,300.74977,274.94412,0.0,0.0,0.0,0.0,0.0,0.034525028398355334,-0.11250474550835389,0.08588878104756273,-0.05696018469103254,0.012572767957835589,-0.026703605528190677,0.39742835328562465
3465,4.0,300.5917,508.36289000000005,0.0,0.0,0.0,0.0,0.0,0.034534995207939165,-0.14882100711248986,0.06977413555692102,-0.07548275419631784,-0.009756218416363791,-0.031216943687122467,0.3914081379489756
3466,4.0,300.33128999999997,543.9355400000001,0.0,0.0,0.0,0.0,0.0,0.03454496201752297,-0.14840630411156186,0.04065796532862876,-0.057594481280132746,0.006105876108053055,0.002641079550104258,0.4004866460624546
3467,4.0,300.57824,418.46469,0.0,0.0,0.0,0.0,0.0,0.0345549288271068,-0.16663143101024186,0.08180070800860133,-0.04237209065529976,0.003656906851733606,0.012738953133236789,0.4337571082634936
3468,4.0,300.36212,294.11284,0.0,0.0,0.0,0.0,0.0,0.03456489563669063,-0.1404477109361099,0.1005956725780199,-0.04955091695129475,-0.022212243750677776,0.006113060456562094,0.4631671281135365
3469,4.0,298.88491,303.78677000000005,0.0,0.0,0.0,0.0,0.0,0.03457486244627443,-0.1062752636285519,0.07755628237320913,-0.06362461025576013,-0.034782652862280564,0.01074068917377349,0.45961108635758263
3470,4.0,298.74996,379.01956,0.0,0.0,0.0,0.0,0.0,0.03458482925585826,-0.09843411931194121,0.06320409322575835,-0.07998245603540383,-0.008325546765417491,0.022190047493987182,0.4471131833966356
3471,4.0,299.83123,493.23388,0.0,0.0,0.0,0.0,0.0,0.03459479606544208,-0.14031835942834386,0.06210469457575614,-0.07171711861742854,0.008480870710346772,-0.0034081744198356267,0.43803703615588957
3472,4.0,299.10859,354.9632,0.0,0.0,0.0,0.0,0.0,0.03460476287502591,-0.13889173368504687,0.091097406358864,-0.06010562102946294,0.014043907804525788,-0.02155108083517608,0.4330377817525016
3473,4.0,299.28881,287.93854,0.0,0.0,0.0,0.0,0.0,0.03461472968460971,-0.15276902466962886,0.1080406492777819,-0.04279775499580955,0.0013299318942040588,-0.015393114147432087,0.4349565228043666
3474,4.0,300.19881000000004,395.56072,0.0,0.0,0.0,0.0,0.0,0.034624696494193544,-0.13265621283464887,0.08536450518082073,-0.07294887204849314,0.016372813510120883,0.01879703261287268,0.39181994305461765
3475,4.0,300.92342,408.05324,0.0,0.0,0.0,0.0,0.0,0.03463466330377736,-0.14067241941078687,0.08499253194985983,-0.06835810536991974,0.004314421053625206,0.015502990988276085,0.4167578214682946
3476,4.0,300.83934,242.40222999999997,0.0,0.0,0.0,0.0,0.0,0.03464463011336118,-0.1019544105646169,0.09000931456672773,-0.06173913420467814,-0.004108037409656725,-0.009234113336636032,0.3902040624576426
3477,4.0,300.42794,79.680943,0.0,0.0,0.0,0.0,0.0,0.03465459692294501,-0.12044266838176589,0.11070933725866089,-0.014487688043573485,0.004803667344535056,-0.02232477834653408,0.4183029670757886
3478,4.0,299.11638,201.71086,0.0,0.0,0.0,0.0,0.0,0.034664563732528825,-0.1114861049178219,0.07887279012213833,-0.028701756003642772,0.007118411157457483,0.0040359332153155954,0.4104291120061996
3479,4.0,299.86822,446.72303,0.0,0.0,0.0,0.0,0.0,0.03467453054211264,-0.14798666658264686,0.06737393757428993,-0.05517991845083395,0.02211817158489358,-0.007958215131839681,0.4582403312247995
3480,4.0,298.58075,419.17647,0.0,0.0,0.0,0.0,0.0,0.03468449735169646,-0.1215713479331579,0.08839162937132461,-0.0942394604684606,-0.014593209935487685,-0.014118888311925787,0.4731884147825605
3481,4.0,298.26325,470.56163,0.0,0.0,0.0,0.0,0.0,0.03469446416128029,-0.13056942425369886,0.06448517977769173,-0.07695474415984192,0.0017454679893642781,-0.0007635652130080193,0.4490203429998576
3482,4.0,298.8127,524.7370599999999,0.0,0.0,0.0,0.0,0.0,0.03470443097086409,-0.13978118488782887,0.07544404601599763,-0.09516982569703052,-0.013156512486196687,0.006959110712510754,0.42134822945633266
3483,4.0,299.88678,480.17629000000005,0.0,0.0,0.0,0.0,0.0,0.03471439778044792,-0.17815765752279183,0.08950283137174173,-0.057306781073238944,-0.009559181092642722,0.010698005000060889,0.4051592488986046
3484,4.0,300.21584,385.48148,0.0,0.0,0.0,0.0,0.0,0.03472436459003174,-0.13605402545498688,0.09419700934227102,-0.07531973238772884,-0.02299656316283408,0.004037938437263496,0.4161254115508806
3485,4.0,300.4423,169.52333000000002,0.0,0.0,0.0,0.0,0.0,0.03473433139961557,-0.12431184494862388,0.11571327287751089,-0.04293229231758736,0.018964745769424682,0.0035884084091983366,0.4157854965398336
3486,4.0,299.4654,3.2901747,0.0,0.0,0.0,0.0,0.0,0.03474429820919937,-0.06067388613604635,0.09824586453611191,-0.03857210995102086,0.021915037231345778,0.021512777954895878,0.4034324883431866
3487,4.0,300.14777000000004,222.28117999999998,0.0,0.0,0.0,0.0,0.0,0.034754265018783204,-0.09085955400388983,0.07078653452683703,-0.04749490989513266,0.03308346182883347,-0.014657048744788088,0.4058639035481486
3488,4.0,299.55269,536.73922,0.0,0.0,0.0,0.0,0.0,0.034764231828367034,-0.15146590398102086,0.06189382000469445,-0.07358323247234963,-0.0032428555732699265,-0.04902057272970386,0.4183399912344426
3489,4.0,299.57667000000004,586.2224,0.0,0.0,0.0,0.0,0.0,0.03477419863795084,-0.18134405550976482,0.04586695439671596,-0.042719867473872665,0.01749571550944268,-0.023412825555665977,0.43342681912839665
3490,4.0,300.63809,511.92285999999996,0.0,0.0,0.0,0.0,0.0,0.03478416544753467,-0.12880933790249188,0.04874066137632875,-0.07554309425302293,0.005960868670341934,-0.0017446016605287783,0.4301745193549196
3491,4.0,301.11737,606.88089,0.0,0.0,0.0,0.0,0.0,0.034794132257118485,-0.14555054989722085,0.05110778586244575,-0.09003387068290122,0.008339545524824061,0.011782783464370188,0.47439955262709055
3492,4.0,301.3449,591.32286,0.0,0.0,0.0,0.0,0.0,0.0348040990667023,-0.12963140797362388,0.07046640423724264,-0.12058237530555388,-0.04008619842969976,0.016990820077363383,0.45637690349589355
3493,4.0,300.57104,360.91749,0.0,0.0,0.0,0.0,0.0,0.03481406587628613,-0.1281390729613419,0.10256121565200389,-0.08413204855418671,-0.031586330090578076,0.037023551717190066,0.4540973846134226
3494,4.0,299.98755,255.24892000000003,0.0,0.0,0.0,0.0,0.0,0.03482403268586995,-0.11636805535713288,0.07717866939219163,-0.038399915189276566,0.00047074800191671055,0.033927941952427175,0.38748758960204766
3495,4.0,299.53218,151.93842,0.0,0.0,0.0,0.0,0.0,0.03483399949545378,-0.15053176844882887,0.11506063848810089,-0.010714347710923791,0.03187431603400007,0.008311184451875044,0.4066310351988586
3496,4.0,298.8878,255.04632999999998,0.0,0.0,0.0,0.0,0.0,0.03484396630503758,-0.1185087387109019,0.08302044834648033,-0.04203943051496876,0.02123624477735418,-0.023369215271361977,0.4000625806306026
3497,4.0,299.77217,426.26552000000004,0.0,0.0,0.0,0.0,0.0,0.03485393311462141,-0.14752950840252885,0.09484085480031361,-0.07688542265425043,-0.0031845850798940772,-0.022215674615516375,0.4495484286869756
3498,4.0,300.38214,455.14603,0.0,0.0,0.0,0.0,0.0,0.034863899924205244,-0.09859021150309631,0.06183697464758424,-0.1015997932946189,0.022547103656975875,0.00975026536937627,0.4424335992672966
3499,4.0,300.35483,296.01991,0.0,0.0,0.0,0.0,0.0,0.03487386673378905,-0.10309303009948989,0.07374570408613433,-0.06063533095649124,-0.008690198960430861,-0.02156240897129408,0.46360228863398356
3500,4.0,300.16131,319.69455,0.0,0.0,0.0,0.0,0.0,0.03488383354337288,-0.13398493835328387,0.08464335279314851,-0.04783758094645166,-0.004238265784059266,-0.028954226517809673,0.4517793419621496
3501,4.0,300.18548,554.69055,0.0,0.0,0.0,0.0,0.0,0.034893800352956694,-0.17841314853550683,0.06807456658118663,-0.05827349968889665,-0.03743753733704726,-0.01047996168454169,0.4474863330109626
3502,4.0,300.86016,448.6043,0.0,0.0,0.0,0.0,0.0,0.03490376716254051,-0.14597731057433885,0.06115478273950715,-0.05154198176879755,-0.005786489240057025,0.014304590710753186,0.43220239757505563
3503,4.0,300.79105,384.18234,0.0,0.0,0.0,0.0,0.0,0.03491373397212434,-0.12495301947940288,0.07893099323438252,-0.07075980904219943,0.003745743047626056,-0.013619134110853885,0.4324871411181576
3504,4.0,298.18456000000003,255.21538999999999,0.0,0.0,0.0,0.0,0.0,0.03492370078170816,-0.08436803450247672,0.08316313422556233,-0.07637420454154713,0.014922158540702385,0.0029506466060811474,0.42063115236056264
3505,4.0,298.76541000000003,351.46971,0.0,0.0,0.0,0.0,0.0,0.03493366759129199,-0.11717098513387589,0.08126008132499563,-0.07092711487221123,0.004942087947321106,0.016850547760019586,0.40872519010803565
3506,4.0,300.11865,487.90216,0.0,0.0,0.0,0.0,0.0,0.03494363440087579,-0.16274675171685385,0.06518999756050185,-0.05075332057996275,-0.016955164819594484,0.025609268062437976,0.37995549365868764
3507,4.0,299.45117999999997,424.37345,0.0,0.0,0.0,0.0,0.0,0.03495360121045962,-0.16244341503441687,0.07144494545506713,-0.03800046362885376,-0.026193513136348472,-0.009352270963922282,0.41415737588165064
3508,4.0,300.27371,285.00297,0.0,0.0,0.0,0.0,0.0,0.03496356802004345,-0.13070948581502187,0.08608945928286811,-0.042013756783934965,-0.008202497166648441,-0.02041634610118648,0.43162725655329354
3509,4.0,300.60255,338.14412999999996,0.0,0.0,0.0,0.0,0.0,0.034973534829627256,-0.12474152378602989,0.08499286834889301,-0.06303871257093653,0.026768540674099277,0.02298689169062958,0.4718614827166025
3510,4.0,300.11747,463.54599,0.0,0.0,0.0,0.0,0.0,0.03498350163921109,-0.1058816362297039,0.06338170279603703,-0.0984064697432124,0.01213782021990959,0.025036290329639478,0.44831947790568755
3511,4.0,300.55872999999997,499.27954000000005,0.0,0.0,0.0,0.0,0.0,0.034993468448794904,-0.14826508744512487,0.07137038038020813,-0.07487380304521903,0.019147208807682378,-0.012499286047333488,0.4829445440329155
3512,4.0,300.19547,416.94914,0.0,0.0,0.0,0.0,0.0,0.03500343525837872,-0.12553837406217289,0.06589251323908474,-0.06709626651688592,-0.007897007023773913,-0.017377473275773086,0.43916162217687754
3513,4.0,299.65507,427.63548,0.0,0.0,0.0,0.0,0.0,0.03501340206796255,-0.16382917640118083,0.08304513010566622,-0.049206461566549654,0.007988959470348913,0.014437306208851185,0.43141995571533454
3514,4.0,300.3233,530.45116,0.0,0.0,0.0,0.0,0.0,0.03502336887754637,-0.15808110990889085,0.07279079186064183,-0.07595359226603593,-0.01706535070171898,0.003269429779667597,0.3985951817032816
3515,4.0,299.54548,293.58681,0.0,0.0,0.0,0.0,0.0,0.0350333356871302,-0.14443236761686487,0.1092486055169979,-0.054059295250987044,-0.027394400942866874,-0.031105059597830373,0.4299573595934876
3516,4.0,298.9977,84.924665,0.0,0.0,0.0,0.0,0.0,0.035043302496714,-0.08097718696332613,0.12613710354626287,-0.07097489569392684,-0.02049493073919218,-0.03423925189990107,0.4099291440093566
3517,4.0,299.44385,139.52976999999998,0.0,0.0,0.0,0.0,0.0,0.03505326930629783,-0.12171255446709388,0.12441009981082089,-0.04511111440512036,0.024667409537983773,0.015643030258096883,0.4560523088263586
3518,4.0,299.1516,232.49825,0.0,0.0,0.0,0.0,0.0,0.03506323611588166,-0.1145282059580539,0.08295798654406582,-0.03910344715770976,0.013625956323777187,0.04412045572934996,0.42695007382669165
3519,4.0,299.00622000000004,408.62751000000003,0.0,0.0,0.0,0.0,0.0,0.035073202925465466,-0.14342857114029786,0.06124674734508334,-0.04203073784236086,0.005355831299079395,0.027083093021893177,0.44065727051698655
3520,4.0,299.01001,565.1628599999999,0.0,0.0,0.0,0.0,0.0,0.0350831697350493,-0.14537576425497087,0.05987158153461503,-0.08629121358977973,-0.016604075686444685,-0.004398235278047026,0.44928920891389257
3521,4.0,299.16132999999996,498.18359000000004,0.0,0.0,0.0,0.0,0.0,0.03509313654463311,-0.12898509626483787,0.06420687949197565,-0.08665715798264562,0.03586379781173127,0.0033403733973441864,0.4422408993632786
3522,4.0,299.66832999999997,344.83155,0.0,0.0,0.0,0.0,0.0,0.03510310335421693,-0.09131110283145423,0.07066192502953904,-0.08417100295428122,-0.003046028802919637,-0.0024289403415927477,0.43140492921635154
3523,4.0,300.10554,446.41515999999996,0.0,0.0,0.0,0.0,0.0,0.03511307016380076,-0.16254853973229186,0.08145583415156493,-0.05460635505947765,-0.02071430546534278,-0.028613314468664268,0.4348076763646766
3524,4.0,299.96193999999997,483.23704000000004,0.0,0.0,0.0,0.0,0.0,0.03512303697338458,-0.14635091615121087,0.07089010793880893,-0.07143118855845944,-0.04556093361476405,-0.03118828593454417,0.4318949268322106
3525,4.0,300.70387,206.80236000000002,0.0,0.0,0.0,0.0,0.0,0.03513300378296841,-0.13268888001787288,0.1112292156199689,-0.04140308918716676,0.016614583089981684,0.024508013138252575,0.4106083356838876
3526,4.0,300.99486,48.169404,0.0,0.0,0.0,0.0,0.0,0.03514297059255221,-0.08408325448237113,0.11043150408124089,-0.040990540355951365,0.009416415268127832,0.03777099693170717,0.4229816494125386
3527,4.0,298.97508999999997,108.78703999999999,0.0,0.0,0.0,0.0,0.0,0.03515293740213604,-0.09037968584928051,0.10829849103072889,-0.050987348929059546,0.025366289675207876,-0.01098714503534679,0.4327759275291586
3528,4.0,299.58313,346.1644,0.0,0.0,0.0,0.0,0.0,0.03516290421171987,-0.09998423085817532,0.08509606381857762,-0.09033716784858431,0.0009132522855109832,-0.036977628182907764,0.4434350247386296
3529,4.0,299.40542,533.4087,0.0,0.0,0.0,0.0,0.0,0.035172871021303675,-0.16599651836508084,0.06360659466898215,-0.05975299682241165,0.02105849436531158,-0.02104378400035978,0.4682460949022915
3530,4.0,298.47493,680.46082,0.0,0.0,0.0,0.0,0.0,0.035182837830887506,-0.17329473592035885,0.04457412326287346,-0.07812248450258893,0.005747065097216165,0.009456115014995891,0.4434787971429496
3531,4.0,298.62854,669.57908,0.0,0.0,0.0,0.0,0.0,0.03519280464047132,-0.16784326799734084,0.03490572931217727,-0.07059777920545833,-0.023506910893701476,0.006532593316741764,0.4568920803767375
3532,4.0,299.51526,521.85095,0.0,0.0,0.0,0.0,0.0,0.03520277145005514,-0.14540952574830288,0.05643377998583044,-0.06965390937955564,-0.0050456585221927246,0.009934154151849681,0.4495989392044606
3533,4.0,300.39006,495.14165,0.0,0.0,0.0,0.0,0.0,0.03521273825963897,-0.12225302207043388,0.07073511613726244,-0.0989927940063281,-0.009237016399497542,0.014826816772542885,0.45339609395421054
3534,4.0,301.62587,358.4808,0.0,0.0,0.0,0.0,0.0,0.03522270506922279,-0.1089624636887579,0.07140773587164484,-0.07141448411731084,0.036716667646152966,0.017165288572332082,0.4311347764746896
3535,4.0,300.66173,43.186557,0.0,0.0,0.0,0.0,0.0,0.03523267187880662,-0.13352514572290589,0.11525675304495589,0.005140758934178405,-0.009391057671125231,-0.018245618868702383,0.4116577284149546
3536,4.0,299.94214,219.09742000000003,0.0,0.0,0.0,0.0,0.0,0.03524263868839042,-0.13647852658438187,0.1016712679566729,-0.031792884163213374,-0.0018597541906684484,-0.01987737709474438,0.4212545950145916
3537,4.0,300.47042999999996,452.12650999999994,0.0,0.0,0.0,0.0,0.0,0.03525260549797425,-0.15551329097546687,0.05557881373695185,-0.03750069118928006,-0.011655730007830989,0.03504441386661437,0.4047487914155956
3538,4.0,299.67995,313.43059,0.0,0.0,0.0,0.0,0.0,0.03526257230755808,-0.1012663063422063,0.07830223608357903,-0.07231100071304014,-0.002357617261753708,0.02675158292042568,0.42924005958269557
3539,4.0,298.99507,293.84054,0.0,0.0,0.0,0.0,0.0,0.035272539117141885,-0.07719610033366194,0.04907907475072755,-0.061203160365531646,-0.013633872846808486,-0.02285637494524858,0.43446736618609055
3540,4.0,299.1664,349.04501,0.0,0.0,0.0,0.0,0.0,0.035282505926725716,-0.11816873250734589,0.07532847166984133,-0.06326070553534555,-0.008946050791506472,-0.05113457214208936,0.4824110070602595
3541,4.0,299.92955,438.03442,0.0,0.0,0.0,0.0,0.0,0.03529247273630953,-0.15028149567412885,0.04697813613213105,-0.029848160339034074,0.04458409060410716,-0.0011999538939012288,0.4358181501594026
3542,4.0,299.94717,493.46662000000003,0.0,0.0,0.0,0.0,0.0,0.03530243954589336,-0.14219320648587686,0.039910008422811165,-0.047718328502432364,0.04044739067959666,0.008643927273414202,0.43199433679952154
3543,4.0,300.35926,403.23803,0.0,0.0,0.0,0.0,0.0,0.03531240635547718,-0.14784817555897886,0.060158561320687746,-0.03488467701484957,0.005026164096893776,0.020724965869644882,0.39152989008099165
3544,4.0,300.86624,191.56722,0.0,0.0,0.0,0.0,0.0,0.035322373165061,-0.0910038205531278,0.0998895152785776,-0.06711734515871623,-0.014624545708080286,0.019154503195152283,0.42425976308867863
3545,4.0,301.19888,177.30663,0.0,0.0,0.0,0.0,0.0,0.03533233997464483,-0.07027731758308123,0.07431630169444793,-0.05793577127156545,-0.004123048000613156,0.05853029171474004,0.3955863456638326
3546,4.0,300.86625,413.33594,0.0,0.0,0.0,0.0,0.0,0.03534230678422863,-0.15411522875248887,0.07705362521060072,-0.048582198179939654,-0.017087883357442785,0.030989076911883767,0.44243414642235057
3547,4.0,299.15483,371.82045,0.0,0.0,0.0,0.0,0.0,0.03535227359381246,-0.15401373148997186,0.07923564815519962,-0.038246047082090964,-0.023710815317325273,-0.016952088592290884,0.42473055961514256
3548,4.0,299.16643999999997,275.05506,0.0,0.0,0.0,0.0,0.0,0.03536224040339629,-0.14563951325600089,0.08671231121208882,-0.024682670097739876,-0.021733073725387377,-0.049987751360906954,0.4677222243355896
3549,4.0,299.37699,470.64054000000004,0.0,0.0,0.0,0.0,0.0,0.035372207212980095,-0.14684577736754986,0.06300214032182715,-0.059219334206743246,0.03093671619971617,-0.010216130610253591,0.4396499074000676
3550,4.0,299.63092,675.27028,0.0,0.0,0.0,0.0,0.0,0.035382174022563925,-0.11936606988551389,0.04628713806743486,-0.13218636876327888,0.04844548135719675,0.001132465864365679,0.46515989721770756
3551,4.0,300.00563999999997,540.61057,0.0,0.0,0.0,0.0,0.0,0.03539214083214774,-0.11798913392712089,0.06026179326737595,-0.10660477256107188,0.023720829268063577,-0.006560893797334805,0.4524293925638046
3552,4.0,301.47733,591.73993,0.0,0.0,0.0,0.0,0.0,0.03540210764173157,-0.15811511458224684,0.07338974729950414,-0.0951487916382046,-0.002827191707272097,-0.02011211066591078,0.4951169505317385
3553,4.0,300.58082,347.57537,0.0,0.0,0.0,0.0,0.0,0.03541207445131539,-0.15163248229746087,0.06968717032733823,-0.023708920539638276,0.014042452777382187,0.025667514744436473,0.4151914381387046
3554,4.0,300.1839,266.21182000000005,0.0,0.0,0.0,0.0,0.0,0.035422041260899206,-0.13372949800307388,0.07223255894329854,-0.01942480691107918,-0.01140305684364409,0.025164495851542377,0.4265941595965656
3555,4.0,300.38599999999997,502.9813,0.0,0.0,0.0,0.0,0.0,0.03543200807048304,-0.15792301249578786,0.06000830950310904,-0.05497905073775985,-0.02023829678036438,-0.013925065726796986,0.37960728012932166
3556,4.0,300.38364,355.15515,0.0,0.0,0.0,0.0,0.0,0.03544197488006684,-0.08757018447550433,0.08699307572204812,-0.10738118558269791,-0.046196596064999054,-0.018187902116506182,0.4305436058363456
3557,4.0,299.23823,19.217478,0.0,0.0,0.0,0.0,0.0,0.03545194168965067,-0.05731984693327845,0.08751954730175683,-0.03604133341475267,-0.01059600009924379,0.03626963386103416,0.4119898920627366
3558,4.0,299.06626,207.61868,0.0,0.0,0.0,0.0,0.0,0.0354619084992345,-0.1025070270366559,0.1067585332637469,-0.06736240678815193,0.008610771500991982,0.04354497628205455,0.48166981461210945
3559,4.0,299.08059,626.19475,0.0,0.0,0.0,0.0,0.0,0.035471875308818304,-0.18052753804918084,0.05656398059718024,-0.06638400742534144,0.0011235654754872789,0.017671485017539786,0.43123403445448555
3560,4.0,300.47900000000004,787.02258,0.0,0.0,0.0,0.0,0.0,0.035481842118402135,-0.2110362148501528,0.059729481314090845,-0.08792848085661542,0.005294173814594275,-0.01246517599596709,0.4879985747367095
3561,4.0,301.6421,547.4727,0.0,0.0,0.0,0.0,0.0,0.03549180892798595,-0.14223580352008086,0.05097277940587166,-0.07515500527922152,0.012601116669133387,-0.009983410367035891,0.42129753655382957
3562,4.0,300.23179,359.02077,0.0,0.0,0.0,0.0,0.0,0.03550177573756978,-0.07840077668230422,0.06585720552610014,-0.096589779188419,0.028786122246719077,-0.018211373041822583,0.4487395612646466
3563,4.0,300.27689,353.03389,0.0,0.0,0.0,0.0,0.0,0.0355117425471536,-0.1015169904964469,0.08307921381253001,-0.08887570960659961,0.00972884607286235,-0.04630430759037936,0.42884450700865756
3564,4.0,301.11902000000003,403.38026,0.0,0.0,0.0,0.0,0.0,0.035521709356737416,-0.14589931058164085,0.0971526527912203,-0.07387086884448713,0.02060334849989218,-0.02704283051591957,0.4618400541925646
3565,4.0,300.64187999999996,312.45097999999996,0.0,0.0,0.0,0.0,0.0,0.03553167616632125,-0.17199563783464783,0.1084149945272269,-0.031396660817609175,0.0017164866047040385,0.03025296388648507,0.41496685125403965
3566,4.0,299.46506,147.94245,0.0,0.0,0.0,0.0,0.0,0.03554164297590505,-0.14237972556428485,0.1081144544150659,-0.010705538514554387,0.015255638400364285,0.05843080474042144,0.4165442790097196
3567,4.0,299.3791,181.00153999999998,0.0,0.0,0.0,0.0,0.0,0.03555160978548888,-0.1206306870703219,0.1063064312016279,-0.04069568964310186,-0.02949228258591167,0.028890051309476073,0.4009879616819306
3568,4.0,299.47165,657.92211,0.0,0.0,0.0,0.0,0.0,0.03556157659507271,-0.1140464359330069,0.05609052428920375,-0.14203598046785987,-0.03655407849535666,0.003530252818383827,0.44512895599080754
3569,4.0,299.62928999999997,684.211,0.0,0.0,0.0,0.0,0.0,0.035571543404656514,-0.15472962308312485,0.05843295789688394,-0.1116863940650889,-0.04592926421161545,0.013153246781124386,0.4722194234469286
3570,4.0,298.52344,290.24471,0.0,0.0,0.0,0.0,0.0,0.035581510214240344,-0.11014685173064791,0.09390291552724621,-0.07198320417318914,-0.01082782462937309,0.03175443537491877,0.4665292034028476
3571,4.0,299.90049,173.14815,0.0,0.0,0.0,0.0,0.0,0.03559147702382416,-0.12331520201776289,0.08140194748474672,-0.01071945854442819,-0.016772021890519684,-0.014956239207815884,0.46082138320452953
3572,4.0,300.1286,303.23643,0.0,0.0,0.0,0.0,0.0,0.03560144383340799,-0.15752834144933686,0.0981038342298446,-0.032751797713350767,0.029926257603741672,-0.022492905922376977,0.45267834811337454
3573,4.0,299.85486000000003,462.97607999999997,0.0,0.0,0.0,0.0,0.0,0.03561141064299181,-0.1219116581117439,0.05441132366697954,-0.07323283437576802,0.049750059099448546,-0.0024607412973062575,0.39774880376225064
3574,4.0,299.71173999999996,437.79489,0.0,0.0,0.0,0.0,0.0,0.035621377452575625,-0.11408750295955991,0.07090651752417844,-0.08989772837296502,0.05794340813756915,0.002609410924853807,0.39120826423424965
3575,4.0,299.70261,235.8201,0.0,0.0,0.0,0.0,0.0,0.035631344262159456,-0.1090262883125569,0.10346048524825491,-0.06611761890780093,0.008369121383317971,-0.045636688245240455,0.4181239257831186
3576,4.0,300.76307,104.08485,0.0,0.0,0.0,0.0,0.0,0.03564131107174326,-0.11137282355664188,0.0999330546353746,-0.02019942951977848,-0.007725942339866143,-0.030454336198108972,0.4406996547686696
3577,4.0,301.16369,440.55212,0.0,0.0,0.0,0.0,0.0,0.03565127788132709,-0.16004870988057784,0.08354602725285093,-0.05741416126583654,-0.03117830846080947,0.023631057335703774,0.43915005086073555
3578,4.0,299.3523,602.84935,0.0,0.0,0.0,0.0,0.0,0.03566124469091091,-0.19246916670522782,0.07894759635052112,-0.06972957889702364,-0.03166775790836437,0.05783887315125234,0.4538857065350316
3579,4.0,299.9898,500.82325,0.0,0.0,0.0,0.0,0.0,0.03567121150049472,-0.11728107475724088,0.044847996658902656,-0.07980468333185903,-0.041361705013332466,0.014992321043876884,0.42460365004011763
3580,4.0,299.47562999999997,289.77347000000003,0.0,0.0,0.0,0.0,0.0,0.035681178310078554,-0.09298561615871581,0.07662420171221992,-0.07172248377670802,-0.004347566794871436,-0.001113846380528079,0.4412219142677126
3581,4.0,298.52582,364.7731,0.0,0.0,0.0,0.0,0.0,0.03569114511966237,-0.12112165740627688,0.07902648800330714,-0.06878674461272315,0.04585084777312636,0.0077776788899721425,0.46738989856779156
3582,4.0,299.77327,661.8860599999999,0.0,0.0,0.0,0.0,0.0,0.0357011119292462,-0.16331415150785183,0.05246410927405445,-0.0903467916980341,0.059337716268926644,0.021108667470513282,0.4543754407058646
3583,4.0,299.38112,453.46130999999997,0.0,0.0,0.0,0.0,0.0,0.035711078738830004,-0.18934651228204583,0.1088346016586389,-0.05732900164793194,0.009130028739988682,-0.007715154570026472,0.4759124768814046
3584,4.0,299.30106,143.79056,0.0,0.0,0.0,0.0,0.0,0.035721045548413835,-0.12344058158513688,0.093356062421776,-0.013624219613105787,-0.005212462590755005,-0.005598279249882145,0.4352134019697185
3585,4.0,300.38403,136.69468999999998,0.0,0.0,0.0,0.0,0.0,0.03573101235799765,-0.08213291319963742,0.0967161578203916,-0.056135015087844645,0.013870525513664288,0.022234226211597277,0.4401836875527476
3586,4.0,300.02008,309.48855,0.0,0.0,0.0,0.0,0.0,0.03574097916758147,-0.1290512209663639,0.09225190858905451,-0.057277479906847145,0.0013591662874142686,0.0036898494363347867,0.3946301820744666
3587,4.0,300.60857000000004,606.78079,0.0,0.0,0.0,0.0,0.0,0.035750945977165285,-0.16586562671716285,0.07211924819786564,-0.09069982829787611,-0.012264722702183888,-0.04783124205382605,0.4478801529273296
3588,4.0,301.51031,546.12328,0.0,0.0,0.0,0.0,0.0,0.035760912786749116,-0.16626649885422584,0.06782766894256974,-0.06756901658954274,-0.012764185087226989,-0.04149357850059736,0.4410723281554496
3589,4.0,299.55938,203.8271,0.0,0.0,0.0,0.0,0.0,0.03577087959633292,-0.12736220397717088,0.10036694757994649,-0.03496309446658877,0.025917191728077677,0.020296467468605382,0.4617673534978896
3590,4.0,299.61028999999996,411.52387999999996,0.0,0.0,0.0,0.0,0.0,0.03578084640591675,-0.1079699548183049,0.045050867567424456,-0.06217389246483544,0.03082516445645687,0.035608877258822565,0.4292218109483946
3591,4.0,300.24052,754.89152,0.0,0.0,0.0,0.0,0.0,0.03579081321550058,-0.12273064790257189,0.035180731468817866,-0.14191825093874086,-0.014837958470642485,0.01810949479726798,0.44875337186350955
3592,4.0,299.58187999999996,572.3747900000001,0.0,0.0,0.0,0.0,0.0,0.03580078002508438,-0.14963929776074886,0.05882134577946485,-0.08316969704646002,-0.03246078012562957,-0.008862526559263272,0.44098694156952256
3593,4.0,298.41618,155.71287,0.0,0.0,0.0,0.0,0.0,0.035810746834668214,-0.1007739863571181,0.0963113735246925,-0.042870210483960364,-0.0004886514219086405,0.01082366827746289,0.4349091128321875
3594,4.0,298.65987,111.09102,0.0,0.0,0.0,0.0,0.0,0.03582071364425203,-0.11843337316846388,0.10859372171236589,-0.023929247720882875,-0.0041985217581618365,3.294673183383927e-05,0.4410846391441646
3595,4.0,299.26748,380.40276,0.0,0.0,0.0,0.0,0.0,0.03583068045383586,-0.16220697312358184,0.1150821801852269,-0.06850814643147764,0.002862065445238867,-0.021860262957439983,0.4618531656488586
3596,4.0,300.36722000000003,605.12719,0.0,0.0,0.0,0.0,0.0,0.035840647263419664,-0.14117202263759385,0.05990489517140284,-0.1026764323208749,-0.0015956254235009685,-0.009413956515435171,0.43689689674586657
3597,4.0,300.01487000000003,473.8511,0.0,0.0,0.0,0.0,0.0,0.035850614073003495,-0.13318118784395988,0.08625864266531523,-0.0971163612123886,0.039523033010869665,0.02200462475218738,0.4482996992637356
3598,4.0,300.12764,385.92255,0.0,0.0,0.0,0.0,0.0,0.035860580882587326,-0.14305581669350986,0.08369334773789032,-0.05794834975830685,0.024844539840965178,0.028486813233429574,0.4188936412215836
3599,4.0,299.95545,400.86969,0.0,0.0,0.0,0.0,0.0,0.03587054769217113,-0.15804149182998084,0.1048662887019969,-0.06867917595560694,-0.004299051265508326,-0.024798586922429977,0.46612160328512053
3600,4.0,300.76344,701.36719,0.0,0.0,0.0,0.0,0.0,0.03588051450175496,-0.20839985967996483,0.06291697158467165,-0.06771521945972184,-0.02162611909783178,-0.04281786801029456,0.4529304244732526
3601,4.0,300.65504,823.87972,0.0,0.0,0.0,0.0,0.0,0.035890481311338776,-0.1962378795246708,0.048944523243448355,-0.1031455164546699,-0.01901018800990948,-0.0060588786299897645,0.47549617294531854
3602,4.0,299.92305,157.3887,0.0,0.0,0.0,0.0,0.0,0.03590044812092259,-0.05095929203379054,0.07876938490968302,-0.07565232768005344,0.009366536816055211,0.023061524653245277,0.4199042264738206
3603,4.0,299.40385,-115.08971000000001,0.0,0.0,0.0,0.0,0.0,0.035910414930506424,-0.03253191636215017,0.10863861882429689,-0.04112230745195576,-0.008671898853024782,0.007635345520599932,0.45899453380423355
3604,4.0,300.29052,418.87248999999997,0.0,0.0,0.0,0.0,0.0,0.03592038174009024,-0.13640190461181986,0.07451754633655923,-0.06544241842541385,0.005106599132232095,0.035561595969406265,0.42832403082979054
3605,4.0,299.94155,649.18565,0.0,0.0,0.0,0.0,0.0,0.03593034854967407,-0.1758151752791068,0.07167993132550843,-0.09320097740122031,-0.00027607947454442273,0.03415206476854637,0.4451335764112636
3606,4.0,300.62987999999996,413.63551,0.0,0.0,0.0,0.0,0.0,0.035940315359257874,-0.17800085706981683,0.06722868411945454,-0.014962693610952885,0.025452516245467776,0.03773472561787747,0.39260687361228164
3607,4.0,301.63622000000004,350.31045,0.0,0.0,0.0,0.0,0.0,0.035950282168841705,-0.15033278639419087,0.1131208117016549,-0.06927365384227735,-0.008037866012925613,-0.024812362057539478,0.4564391170520336
3608,4.0,300.62629,550.3421599999999,0.0,0.0,0.0,0.0,0.0,0.035960248978425535,-0.12003232235626789,0.05381178864906005,-0.10106974494205721,-0.01016145158185719,-0.04565370679392006,0.4137403322729916
3609,4.0,300.76599999999996,893.9856900000001,0.0,0.0,0.0,0.0,0.0,0.03597021578800934,-0.16970561154863983,0.037269868763499664,-0.13931358009917985,-0.015855544267820383,-0.032657036537498574,0.4514783357549426
3610,4.0,300.27392000000003,795.19312,0.0,0.0,0.0,0.0,0.0,0.03598018259759317,-0.17415125649489083,0.049918360954308655,-0.11748595392746089,0.003016494892979867,-0.016226010795882585,0.4349444144656716
3611,4.0,299.61609,289.85267999999996,0.0,0.0,0.0,0.0,0.0,0.035990149407176986,-0.1366744587562189,0.08856745156842692,-0.04000096585778796,-0.008050408731938482,-0.014286037088172086,0.47552978245113553
3612,4.0,300.19987000000003,-48.672031,0.0,0.0,0.0,0.0,0.0,0.0360001162167608,-0.12910543997921486,0.1253307388516809,0.01856978290694488,0.009015164378177452,-0.0029610815622359973,0.4553614850406796
3613,4.0,299.01514,302.76908,0.0,0.0,0.0,0.0,0.0,0.03601008302634463,-0.13854870799619287,0.08651308901717711,-0.03999861917055636,0.01101337504068549,0.012643194919286187,0.4540620221849326
3614,4.0,299.84542999999996,710.82752,0.0,0.0,0.0,0.0,0.0,0.03602004983592845,-0.14166377317612586,0.03920065735905367,-0.11361069786000288,0.013575748768072087,0.028231332353215573,0.4060271280067576
3615,4.0,300.22413,387.5468,0.0,0.0,0.0,0.0,0.0,0.03603001664551228,-0.12237026523950488,0.09589628852847681,-0.09133056939237542,0.001120028624688219,0.005616124509318335,0.4611921314161196
3616,4.0,299.73861,64.622062,0.0,0.0,0.0,0.0,0.0,0.036039983455096083,-0.10067375667047622,0.11835701464092788,-0.037326751610863566,-0.025562861207857977,-0.0030235244168736273,0.4289179372434046
3617,4.0,300.95156000000003,448.96775999999994,0.0,0.0,0.0,0.0,0.0,0.036049950264679914,-0.15143799907326685,0.091418343195538,-0.07645533649030423,-0.024852628616513477,0.01826262627163088,0.4681775687980285
3618,4.0,301.49277,754.2289,0.0,0.0,0.0,0.0,0.0,0.036059917074263745,-0.2260380817232218,0.06654113009184824,-0.06976980391274352,-0.028266378647674374,0.03136493494372807,0.45461051472906455
3619,4.0,300.8868,690.52366,0.0,0.0,0.0,0.0,0.0,0.03606988388384755,-0.17585958603098983,0.04790444025430016,-0.08194680752727022,-0.024821928151733577,-0.002209545249115138,0.4442174463333486
3620,4.0,301.68531,255.64706,0.0,0.0,0.0,0.0,0.0,0.03607985069343138,-0.1042834571119759,0.0915115581517376,-0.06493842073292314,-0.0029141759859567773,-0.017810847436293784,0.42840115942740264
3621,4.0,300.349,-21.490555999999998,0.0,0.0,0.0,0.0,0.0,0.036089817503015195,-0.07840726046969412,0.10804112550532889,-0.023101268375167683,0.019469215636461982,-0.010993404894464591,0.4362159014861575
3622,4.0,299.69978,260.93962999999997,0.0,0.0,0.0,0.0,0.0,0.03609978431259901,-0.08286881141601492,0.06793555677346744,-0.06438587924139154,0.0036208597701510364,-0.025535745621931876,0.4423183420684216
3623,4.0,300.48576,524.26183,0.0,0.0,0.0,0.0,0.0,0.03610975112218284,-0.14940845912296688,0.07028445593003574,-0.08023850534892392,0.032758843854546166,-0.012863592014787687,0.45667072575989154
3624,4.0,299.48584,276.87001000000004,0.0,0.0,0.0,0.0,0.0,0.03611971793176666,-0.14765230418214786,0.08481557896564593,-0.02132484235284808,-0.014256267800234085,0.008758409639937731,0.4547385996742056
3625,4.0,300.12682,142.51065,0.0,0.0,0.0,0.0,0.0,0.03612968474135049,-0.10025106520575981,0.08493210070064572,-0.028000715617205473,0.011763700925236887,0.02023427012446698,0.41237075251032457
3626,4.0,300.21026,563.27889,0.0,0.0,0.0,0.0,0.0,0.03613965155093429,-0.14122602886792388,0.04794682551923325,-0.07794351312417583,-0.026486165096480975,0.002936780683762687,0.42488003426989457
3627,4.0,300.60006,768.02268,0.0,0.0,0.0,0.0,0.0,0.036149618360518124,-0.16534839293861583,0.039897495797326266,-0.10800882309214088,0.004582577793915215,0.0006797959768906393,0.43799929258966463
3628,4.0,300.36971,590.98293,0.0,0.0,0.0,0.0,0.0,0.036159585170101954,-0.13577518915996786,0.06175422960466794,-0.10562309533418789,-0.005523207955273184,-0.0037082028406961263,0.4378260572200676
3629,4.0,299.97201,255.56561000000002,0.0,0.0,0.0,0.0,0.0,0.03616955197968576,-0.13248194394994986,0.10535594181282192,-0.050559564869340545,0.023826974308789276,0.029869194397859972,0.4669318487275856
3630,4.0,300.72504,130.9293,0.0,0.0,0.0,0.0,0.0,0.03617951878926959,-0.13499131861760588,0.11717926338719288,-0.021987186717966376,-0.01037992248891859,0.009331178136590582,0.47163194103894857
3631,4.0,301.45682999999997,281.74472000000003,0.0,0.0,0.0,0.0,0.0,0.036189485598853405,-0.11467957539049288,0.09431500636941641,-0.06527878664026464,0.002911078784376107,-0.0006805729775973235,0.45433355294673056
3632,4.0,300.31203,487.05006,0.0,0.0,0.0,0.0,0.0,0.03619945240843722,-0.17025403316526483,0.08446155647345663,-0.06225857484194294,-0.00019350065530702784,-0.012055800664064888,0.43831581165590255
3633,4.0,299.56242000000003,469.27565,0.0,0.0,0.0,0.0,0.0,0.03620941921802105,-0.14514169334936988,0.07501298814520553,-0.07251937052985463,0.01050956175971299,-0.01122408647848109,0.42029088271198056
3634,4.0,299.68077,292.33141,0.0,0.0,0.0,0.0,0.0,0.03621938602760487,-0.11917658198431288,0.08150724240863852,-0.05119211360201825,0.02459706363654118,-0.022800847826518478,0.43450640671244356
3635,4.0,299.63617999999997,411.80138,0.0,0.0,0.0,0.0,0.0,0.0362293528371887,-0.13114924649092288,0.06973928887273192,-0.06376737618160004,0.008240893367262851,-0.021146138472461377,0.4351085001868656
3636,4.0,300.09341,713.3226400000001,0.0,0.0,0.0,0.0,0.0,0.0362393196467725,-0.16512530566409886,0.059271133578355444,-0.11097809171518488,0.031082228033327074,0.02197810901032048,0.4696652732573535
3637,4.0,300.84339,550.43604,0.0,0.0,0.0,0.0,0.0,0.03624928645635633,-0.11847848306291589,0.03435715976103767,-0.08319749252320321,-0.014834742414825085,0.03311021872422417,0.39934232192951863
3638,4.0,300.4241,185.33674,0.0,0.0,0.0,0.0,0.0,0.036259253265940164,-0.1134950758910919,0.08047990002624772,-0.02332256625000808,-0.0025108723526288076,0.008719925691864663,0.4503264021137556
3639,4.0,299.79747000000003,239.67063,0.0,0.0,0.0,0.0,0.0,0.03626922007552397,-0.10061890437631271,0.07090512835829132,-0.04314011092634746,-0.02731951973397668,-0.012749846585061887,0.4184350746238266
3640,4.0,299.67699,407.29855,0.0,0.0,0.0,0.0,0.0,0.0362791868851078,-0.12932235656062288,0.07689531096197633,-0.07138154436980994,0.007674588798297943,-0.0057268859174996346,0.4478063376575446
3641,4.0,299.95858,301.65502000000004,0.0,0.0,0.0,0.0,0.0,0.036289153694691614,-0.13803711802070287,0.09087036740895701,-0.04452884415565475,0.0023871878513470977,-0.008812177452519202,0.44506715786720863
3642,4.0,300.37523999999996,324.29516,0.0,0.0,0.0,0.0,0.0,0.03629912050427543,-0.1106773793505069,0.0955677431968019,-0.08346799179639942,0.005737192292216795,-0.005289079801041535,0.4442070909173265
3643,4.0,301.57877,385.57985,0.0,0.0,0.0,0.0,0.0,0.03630908731385926,-0.1010115306840619,0.06244945900178174,-0.07864457478886522,-0.007163592790016563,0.013567630608270886,0.44622248589623054
3644,4.0,301.19374,586.82223,0.0,0.0,0.0,0.0,0.0,0.03631905412344308,-0.17797060142183083,0.06211405903318035,-0.06252276663326664,0.023944998693687377,0.014539351639672286,0.44376057186325857
3645,4.0,300.59465,860.51276,0.0,0.0,0.0,0.0,0.0,0.03632902093302691,-0.18012713200716382,0.03381053970309047,-0.1152577966925589,0.012778985631437688,0.018018820059069084,0.4438426856513626
3646,4.0,300.47455,741.82009,0.0,0.0,0.0,0.0,0.0,0.03633898774261071,-0.19783613970240682,0.06700311134244223,-0.09466175372588771,-0.006576006118601274,-0.026816038799036976,0.48317595009075354
3647,4.0,299.49875,265.40278,0.0,0.0,0.0,0.0,0.0,0.03634895455219454,-0.13065530733217487,0.08332036125682941,-0.03334087092398776,-0.0017317424021846687,-0.025315252267670875,0.4751963623732296
3648,4.0,299.6322,251.49466,0.0,0.0,0.0,0.0,0.0,0.036358921361778374,-0.1130590743730619,0.10746134379810889,-0.07085036421688654,-0.015521238609326986,-0.005674937395472715,0.47664847135654154
3649,4.0,299.45556,507.3427,0.0,0.0,0.0,0.0,0.0,0.036368888171362176,-0.13301130633219388,0.058102351614505644,-0.07931056178809302,-0.002087610326781098,0.005390752862450885,0.4479021607195016
3650,4.0,300.14576,435.85943,0.0,0.0,0.0,0.0,0.0,0.03637885498094601,-0.15709110376618485,0.0961434871023734,-0.07154276259322093,-0.03987506244011226,0.0023245792289931077,0.47149834401326357
3651,4.0,300.60995,299.32696,0.0,0.0,0.0,0.0,0.0,0.036388821790529824,-0.12511612234799988,0.07673744659639634,-0.04260924082795466,-0.025048277078322474,-0.003869992030538476,0.4019954463888616
3652,4.0,301.1717,452.05422999999996,0.0,0.0,0.0,0.0,0.0,0.03639878860011364,-0.16954322808761385,0.09483097662508871,-0.06270094261035124,-0.0008229456104109083,0.01131045490375499,0.4582515276384046
3653,4.0,301.366,635.3455299999999,0.0,0.0,0.0,0.0,0.0,0.03640875540969747,-0.15810859938410385,0.04439039974149136,-0.07941097993925351,0.02361907464002118,0.014288223681887886,0.4157849493847796
3654,4.0,301.50709,612.1085400000001,0.0,0.0,0.0,0.0,0.0,0.03641872221928129,-0.11897556329697388,0.047535997186687655,-0.11462614671271988,0.02226659853904218,-0.005743447490384135,0.44798247092242754
3655,4.0,299.94011,373.61568,0.0,0.0,0.0,0.0,0.0,0.03642868902886512,-0.1123682303223809,0.05946152225889535,-0.060663129472984745,0.002223137289931568,-0.005300670774235475,0.4203433791996616
3656,4.0,299.0902,168.15886,0.0,0.0,0.0,0.0,0.0,0.03643865583844892,-0.09776579170498241,0.08607482795142411,-0.03942512974645736,-0.018884466977251782,-0.0029625521934311377,0.45389621393856855
3657,4.0,300.09865,215.96185,0.0,0.0,0.0,0.0,0.0,0.03644862264803275,-0.09585102664650981,0.06110663613450545,-0.030902619320601073,0.007172192243615264,0.011126421327842289,0.42683039885738056
3658,4.0,299.85585,322.36342,0.0,0.0,0.0,0.0,0.0,0.03645858945761658,-0.14473992955221887,0.07811552246115183,-0.03136602216108537,-0.022431262826043276,-0.025885380741188176,0.4695969396706095
3659,4.0,299.77234,294.05517000000003,0.0,0.0,0.0,0.0,0.0,0.036468556267200386,-0.13604699349929286,0.098755621542171,-0.052094056152033046,0.006044305763076535,-0.025858333043018773,0.44906223075899154
3660,4.0,299.91991,370.40417,0.0,0.0,0.0,0.0,0.0,0.03647852307678422,-0.1043765038686589,0.07328818113598033,-0.08150530000819683,-0.016286371117589685,-0.01881789239268138,0.4423157988106706
3661,4.0,299.99376,468.4233,0.0,0.0,0.0,0.0,0.0,0.036488489886368033,-0.15421101128444184,0.08072415814835412,-0.06890213252086103,0.0074678536578697725,0.018467305831581182,0.4373904306045746
3662,4.0,300.42661,738.05522,0.0,0.0,0.0,0.0,0.0,0.03649845669595185,-0.15926618696084885,0.05042086511615195,-0.11550503984945991,-0.019641995043513983,0.007827621176801062,0.44837190346586153
3663,4.0,301.18414,631.33353,0.0,0.0,0.0,0.0,0.0,0.03650842350553568,-0.18421062110267283,0.06828984271068272,-0.07598884425026503,-0.019962203353366084,0.02955946410729197,0.4323298644376356
3664,4.0,300.08945,327.97005,0.0,0.0,0.0,0.0,0.0,0.0365183903151195,-0.16266887331416785,0.10706366339886089,-0.04408949080629396,0.0034864920664399762,0.02069077171852018,0.4603937612648265
3665,4.0,299.56747,221.22827999999998,0.0,0.0,0.0,0.0,0.0,0.03652835712470333,-0.0985737867189753,0.06830958284913094,-0.036983668166753865,0.015770471789424385,0.007785591360003043,0.4442775725942825
3666,4.0,300.12891,302.33637999999996,0.0,0.0,0.0,0.0,0.0,0.03653832393428713,-0.10955328982206788,0.0981364071808093,-0.08048583260558322,0.034338467323192866,-0.01805321382046348,0.4802490657193925
3667,4.0,299.80287999999996,416.80548,0.0,0.0,0.0,0.0,0.0,0.03654829074387096,-0.14458221717415387,0.08169006515068172,-0.06380630525044204,0.004726278442972366,-0.041930777680245564,0.4731159268704065
3668,4.0,299.47899,429.22351,0.0,0.0,0.0,0.0,0.0,0.03655825755345479,-0.13070407505948786,0.07725268933849683,-0.07702184259471402,0.004545251889381436,-0.011150846734752888,0.48109900016827456
3669,4.0,298.91414,296.98593,0.0,0.0,0.0,0.0,0.0,0.036568224363038596,-0.13625984694779986,0.08865351196567041,-0.042669974025698554,-0.02402596041642768,-0.008431847137383522,0.44169510206441265
3670,4.0,298.88944,372.90522999999996,0.0,0.0,0.0,0.0,0.0,0.036578191172622426,-0.17152213593041685,0.09909594995925881,-0.04092769149199866,-0.009215543806028362,0.008134391257201912,0.45091891024223163
3671,4.0,300.1487,624.85405,0.0,0.0,0.0,0.0,0.0,0.03658815798220624,-0.12065312042753588,0.04261034324406346,-0.11189725141089889,-0.023115191444791777,0.002920292875485467,0.4078683858234756
3672,4.0,299.83238,573.91435,0.0,0.0,0.0,0.0,0.0,0.03659812479179006,-0.15545253649947086,0.06510812593917174,-0.08411121917188102,0.014054675613338488,0.017374941163773184,0.43730470964611456
3673,4.0,299.86298999999997,263.60654,0.0,0.0,0.0,0.0,0.0,0.03660809160137389,-0.11444431898227489,0.08879301015993782,-0.05447849302935865,0.003410365775826897,0.009529470775860542,0.4298250595279306
3674,4.0,300.05964,65.98269599999999,0.0,0.0,0.0,0.0,0.0,0.03661805841095771,-0.1037027634796659,0.1059709136960149,-0.022325236335579278,0.023557196469664275,0.004045452092055036,0.4580219454307466
3675,4.0,300.31531,299.29413,0.0,0.0,0.0,0.0,0.0,0.03662802522054154,-0.16683310831014583,0.09688479303453461,-0.02102962686996258,0.006207287345636564,0.004650592612177756,0.4645449152020136
3676,4.0,300.5105,544.89396,0.0,0.0,0.0,0.0,0.0,0.03663799203012534,-0.17055109782958283,0.06562417421510174,-0.060707234223337535,0.012245020053989386,0.015220165527613383,0.4461205022736656
3677,4.0,300.37586,529.01618,0.0,0.0,0.0,0.0,0.0,0.03664795883970917,-0.12870519605721387,0.04843446834185986,-0.08053697640438072,-0.005873634321532574,0.008265493559815701,0.44785429478477756
3678,4.0,299.41922999999997,426.24274,0.0,0.0,0.0,0.0,0.0,0.036657925649293,-0.13837012266606788,0.07127680977322344,-0.06247383273293724,0.0010667369383287391,-0.003580429165985846,0.45695980601342157
3679,4.0,299.55467999999996,456.30848,0.0,0.0,0.0,0.0,0.0,0.036667892458876805,-0.14058986992513986,0.07290894695480284,-0.07102545890041702,-0.014560567070266088,0.0026328867137706876,0.4813189362349805
3680,4.0,299.40901,464.51424000000003,0.0,0.0,0.0,0.0,0.0,0.036677859268460636,-0.14502283911263986,0.09170933849175701,-0.08788723448479473,-0.0030331002382686873,-0.01897404943184288,0.4725442714289886
3681,4.0,298.88642000000004,298.38312,0.0,0.0,0.0,0.0,0.0,0.03668782607804445,-0.16357478983107485,0.13512487511328689,-0.06225110110920534,-0.01947818695284738,-0.009462283985579722,0.49551525914604855
3682,4.0,297.99676,271.29618,0.0,0.0,0.0,0.0,0.0,0.03669779288762828,-0.10972308014132488,0.10107444135627071,-0.07381862870908143,0.013636835590100885,0.008505672640994532,0.44604772051898256
3683,4.0,299.33543,486.77129,0.0,0.0,0.0,0.0,0.0,0.0367077596972121,-0.12846828805133287,0.08293149917320172,-0.1024295235365069,0.016572105619289484,0.011875730922543388,0.4576870865376986
3684,4.0,300.77724,497.00613,0.0,0.0,0.0,0.0,0.0,0.03671772650679592,-0.17535009348320682,0.08907026173180042,-0.06479762355202753,0.027273753253459876,0.016026080339150983,0.4404654318755536
3685,4.0,300.1105,496.59607,0.0,0.0,0.0,0.0,0.0,0.03672769331637975,-0.16306347343311187,0.07401038527725634,-0.06189971408052615,0.025124477538842876,-0.005913890038730505,0.45570999241257454
3686,4.0,300.21552,394.89448,0.0,0.0,0.0,0.0,0.0,0.03673766012596355,-0.16830196631761082,0.09418438627252522,-0.04592048135974866,0.015129040906370086,-0.022467061965326378,0.4556431584359785
3687,4.0,300.37712,292.22547000000003,0.0,0.0,0.0,0.0,0.0,0.03674762693554738,-0.13439411914116686,0.08267343247873252,-0.037108559347579666,0.016153354684211984,-0.028951605239800973,0.46557046615822756
3688,4.0,299.99695,276.53111,0.0,0.0,0.0,0.0,0.0,0.0367575937451312,-0.08191453956458562,0.06159155230111294,-0.06373556418146044,-0.014383494522540386,-0.016132664117169987,0.43114064319276857
3689,4.0,300.92961,442.81881,0.0,0.0,0.0,0.0,0.0,0.036767560554715015,-0.08517048906492283,0.046036181348917356,-0.09547155333830872,0.004575085012075736,0.013229025729603187,0.4380313923528326
3690,4.0,299.73691,391.21218,0.0,0.0,0.0,0.0,0.0,0.03677752736429883,-0.14451028654955486,0.08993375448027051,-0.06434220512233123,-0.024572946257660978,0.016960622184633085,0.45486900496207555
3691,4.0,299.95705,316.06242000000003,0.0,0.0,0.0,0.0,0.0,0.03678749417388266,-0.12960517492853488,0.08471602207707042,-0.05118592669690765,-0.001907636945344108,0.018109026675721784,0.4410928768674776
3692,4.0,299.89346,246.65429,0.0,0.0,0.0,0.0,0.0,0.03679746098346649,-0.16613275997352683,0.12329380217565089,-0.03213778537800247,-0.023158297130545978,-0.006980618668408423,0.47635284550736556
3693,4.0,299.50346,377.5131,0.0,0.0,0.0,0.0,0.0,0.036807427793050296,-0.15934544338367085,0.1048091008663529,-0.06021821743357535,-0.0026719806384039578,-0.004751946601130616,0.47444088309866955
3694,4.0,298.60564,667.39674,0.0,0.0,0.0,0.0,0.0,0.036817394602634126,-0.13438517214278387,0.05623590642680185,-0.12472267733416988,0.0009862308842909099,0.014238828752762986,0.4573007342745686
3695,4.0,298.7601,636.8251799999999,0.0,0.0,0.0,0.0,0.0,0.03682736141221793,-0.14720618029561885,0.07500730279889443,-0.12138007671178089,0.012970973220635385,0.0032639806219548068,0.45735717230513856
3696,4.0,298.81869,413.47612999999996,0.0,0.0,0.0,0.0,0.0,0.03683732822180176,-0.14397306134653484,0.07530970222498894,-0.05702305483323736,0.023219067818543576,0.008306573961270023,0.4604220512076186
3697,4.0,298.9838,221.12735,0.0,0.0,0.0,0.0,0.0,0.03684729503138558,-0.12723503095711988,0.0927388218716091,-0.03272098072480936,-0.017049560212160586,-0.008010776163552053,0.47371455502948656
3698,4.0,298.87901,273.36093,0.0,0.0,0.0,0.0,0.0,0.03685726184096941,-0.15801586673495185,0.08533651009380783,-0.01041553721668349,0.005136761358558875,-0.01196743106984349,0.46721314722034757
3699,4.0,299.8096,315.08308999999997,0.0,0.0,0.0,0.0,0.0,0.03686722865055321,-0.12823126858794087,0.09033586582220582,-0.05788199302250795,-0.007134278451373463,-0.03103286451495527,0.48314105375730954
3700,4.0,300.41167,397.82703,0.0,0.0,0.0,0.0,0.0,0.03687719546013704,-0.08438952553709772,0.06325839735161774,-0.0997983562068309,0.018578921409596782,-0.013992023319905187,0.4348180317806986
3701,4.0,300.27501,433.33380999999997,0.0,0.0,0.0,0.0,0.0,0.03688716226972086,-0.1100342897770389,0.06811904218107603,-0.08980741435180171,-0.001972850836355218,-0.006628242910281644,0.46377998230402057
3702,4.0,300.08109,463.56624000000005,0.0,0.0,0.0,0.0,0.0,0.036897129079304675,-0.14736131901842983,0.08148774139721393,-0.07503898510302123,-0.006492303351690453,0.014221942939846485,0.4402142978382686
3703,4.0,300.14554,588.18306,0.0,0.0,0.0,0.0,0.0,0.036907095888888505,-0.17921821626996084,0.06511390450449203,-0.06468865357002303,-0.017666376210535586,0.005587703857263434,0.45500114290761656
3704,4.0,300.05955,552.23364,0.0,0.0,0.0,0.0,0.0,0.03691706269847232,-0.2196144712567608,0.09209044414586921,-0.040341206122117064,0.0006093913981347484,0.00932822289134892,0.45904228828144655
3705,4.0,299.46923,462.27459000000005,0.0,0.0,0.0,0.0,0.0,0.03692702950805614,-0.13702556004836988,0.06650987740576383,-0.07000424364138093,-0.0007832753693857603,0.021276533627830378,0.4477031989298656
3706,4.0,298.85025,265.42031000000003,0.0,0.0,0.0,0.0,0.0,0.036936996317639956,-0.0884580833791331,0.07633779643895393,-0.06856086076793014,0.009133160189422732,0.006763454752651013,0.4462100330525016
3707,4.0,299.42354,244.87707999999998,0.0,0.0,0.0,0.0,0.0,0.036946963127223786,-0.10475030196304991,0.1013940933918179,-0.07108030207532963,0.027696649394696474,-0.006399120110218984,0.4546039083384126
3708,4.0,299.70713,283.22915,0.0,0.0,0.0,0.0,0.0,0.03695692993680762,-0.11791737555503888,0.08077503140937492,-0.048952244209210356,0.023796615309293077,0.004230918302284126,0.4436153021964216
3709,4.0,299.91324,153.4741,0.0,0.0,0.0,0.0,0.0,0.03696689674639142,-0.14084257450007984,0.1039892194154369,-0.00979893997900508,0.012541833432282589,0.0010479153110961891,0.45951461481556155
3710,4.0,299.87222,219.0056,0.0,0.0,0.0,0.0,0.0,0.03697686355597525,-0.18505131471064282,0.11754713396849888,0.0009319454123658512,-0.011052049783752389,0.008152257693565193,0.4613560144872936
3711,4.0,299.80707,507.96538,0.0,0.0,0.0,0.0,0.0,0.03698683036555907,-0.12384377406492887,0.06250073047009184,-0.09306574397662382,-0.0012280640861254888,-0.026318785299211875,0.4834801986982805
3712,4.0,300.70797000000005,678.0163299999999,0.0,0.0,0.0,0.0,0.0,0.036996797175142884,-0.16106979240385083,0.06300623283898103,-0.1080364746873699,0.0047566994533746855,-0.0004950594992510686,0.4644362238637866
3713,4.0,300.48526,693.07463,0.0,0.0,0.0,0.0,0.0,0.037006763984726715,-0.16702341694392786,0.07573498457021102,-0.11938893894027089,0.015803416603175784,0.004895685348391525,0.47230649202802155
3714,4.0,300.31458,486.70685,0.0,0.0,0.0,0.0,0.0,0.03701673079431053,-0.15238397949912785,0.07329411371531583,-0.06885686557264353,-0.0023618467703211275,0.012342926358151988,0.44865632276893164
3715,4.0,300.29594,274.93505,0.0,0.0,0.0,0.0,0.0,0.03702669760389435,-0.17200804001587183,0.12644282136643487,-0.038008172435614565,-0.01049596495662109,0.003169907442920507,0.48065887472233754
3716,4.0,300.67817,393.7121,0.0,0.0,0.0,0.0,0.0,0.037036664413478165,-0.17306499159268482,0.07643504311730143,-0.02304870095997968,-0.0016093907300844985,0.01073895347635219,0.45333847042102354
3717,4.0,299.76644,481.60396,0.0,0.0,0.0,0.0,0.0,0.037046631223061996,-0.11827844722817388,0.07350067285420163,-0.1016178088813969,0.009686981010530591,0.012285515607485987,0.4520923349180396
3718,4.0,299.50872999999996,193.72783,0.0,0.0,0.0,0.0,0.0,0.03705659803264583,-0.08534358055300562,0.07732498473313183,-0.05086982711621105,-0.02736159291787897,-0.015506179686340786,0.4390246510283595
3719,4.0,299.3009,129.27834,0.0,0.0,0.0,0.0,0.0,0.03706656484222963,-0.06822277467331364,0.07600846786495173,-0.04708308047148826,0.03594622672061636,-0.03378197820927167,0.4390991350432106
3720,4.0,299.7122,446.21774000000005,0.0,0.0,0.0,0.0,0.0,0.03707653165181346,-0.12218687710390588,0.05515146638802595,-0.06860364221365234,-0.0017158826063194282,-0.02232279845583868,0.44751926363921257
3721,4.0,299.28046,540.83025,0.0,0.0,0.0,0.0,0.0,0.03708649846139728,-0.16575823233906384,0.048570894361824046,-0.047211553491417556,0.04667467279343155,0.000876844922590356,0.4592879203706886
3722,4.0,299.86026,423.39884000000006,0.0,0.0,0.0,0.0,0.0,0.037096465270981094,-0.16319577349866884,0.07581377185823672,-0.04132066939753256,-0.018298639206685084,-0.006651955597071904,0.47645157659710946
3723,4.0,299.7651,365.96349,0.0,0.0,0.0,0.0,0.0,0.037106432080564924,-0.09082955268167892,0.08286939808782283,-0.1032836123107989,0.0020275956246831083,0.0029652029570177473,0.45470766514865263
3724,4.0,300.68204,279.94151,0.0,0.0,0.0,0.0,0.0,0.03711639889014874,-0.12717625231881888,0.11448132287592688,-0.07240029844435314,-0.018499861557294182,0.0022009415398660174,0.4630621148731725
3725,4.0,300.82881000000003,426.37318,0.0,0.0,0.0,0.0,0.0,0.03712636569973257,-0.1142350220416189,0.08642657468388881,-0.10179834978421491,0.0005249303857765954,0.003971164242423397,0.43113717787742656
3726,4.0,300.78192,568.875,0.0,0.0,0.0,0.0,0.0,0.037136332509316375,-0.18065612961937183,0.06350564456151915,-0.05577331013339714,-0.01933135992060668,0.0003632186589043907,0.44620481481448654
3727,4.0,299.69716,350.40066,0.0,0.0,0.0,0.0,0.0,0.037146299318900206,-0.16888409876506283,0.0960196649004031,-0.03364861423110967,-0.03663158706175616,-0.015321542213368485,0.46984786092537356
3728,4.0,298.6021,220.94315,0.0,0.0,0.0,0.0,0.0,0.037156266128484036,-0.12107111649128888,0.07274554923042673,-0.01883563440193238,-0.008960473292104861,0.031069305041551674,0.46336669785323253
3729,4.0,299.40963999999997,394.21246,0.0,0.0,0.0,0.0,0.0,0.03716623293806784,-0.09372599496703551,0.05752310591658854,-0.08362785631767683,0.005400712502983825,0.006675573443652804,0.46623536087384754
3730,4.0,300.30908,538.14314,0.0,0.0,0.0,0.0,0.0,0.03717619974765167,-0.13527584937818687,0.06561483306242984,-0.09392105574378651,0.04181277356034946,0.0006128793697489843,0.4631536620197076
3731,4.0,299.00216,398.70531,0.0,0.0,0.0,0.0,0.0,0.03718616655723549,-0.12215183891544787,0.07930095820364523,-0.07834557886985663,0.013067614988673188,-0.02698577136303827,0.46704577856882956
3732,4.0,299.35963,316.15799,0.0,0.0,0.0,0.0,0.0,0.0371961333668193,-0.15067292432025986,0.0983325946916715,-0.04376379980015076,0.014200740681503985,-0.019205762504461182,0.45466253498919856
3733,4.0,299.8068,377.40977999999996,0.0,0.0,0.0,0.0,0.0,0.037206100176403134,-0.18398181909759181,0.1021536763292829,-0.03289500136323387,-0.007064975994883842,-0.007151313516029692,0.49531580086386356
3734,4.0,299.82866,415.01875,0.0,0.0,0.0,0.0,0.0,0.03721606698598695,-0.13774133005151087,0.07450815350813222,-0.06292215841193353,-0.03273918376285587,0.008758017208174,0.4591976499192795
3735,4.0,300.33906,420.19384,0.0,0.0,0.0,0.0,0.0,0.03722603379557078,-0.11797443166816989,0.07835352072414042,-0.08810752417578561,-0.017515449568390285,0.019805057382106982,0.4761729429521106
3736,4.0,300.13785,393.48148,0.0,0.0,0.0,0.0,0.0,0.037236000605154584,-0.1249327950074069,0.07393968777802902,-0.06861543441831613,-0.011086496234151989,0.039484191081536266,0.4314049596138546
3737,4.0,298.86627999999996,352.09108,0.0,0.0,0.0,0.0,0.0,0.037245967414738415,-0.1044685576402439,0.062180912261528234,-0.06473924920051644,0.014440831305949087,0.04095680115412156,0.43671296145521354
3738,4.0,299.88175,370.30894,0.0,0.0,0.0,0.0,0.0,0.037255934224322246,-0.16489117396349184,0.06806991880297794,-0.015743416998504286,-0.0061256643758810046,0.00998626752966787,0.42507919870955063
3739,4.0,301.04017000000005,467.5417,0.0,0.0,0.0,0.0,0.0,0.03726590103390605,-0.15896716672383784,0.05692708788976615,-0.040080923449679166,0.0005702885771656004,-0.024430018211805078,0.4564053150286976
3740,4.0,301.16522000000003,328.83504,0.0,0.0,0.0,0.0,0.0,0.03727586784348988,-0.13426366319079186,0.07255536117340664,-0.038249342171416165,0.008864787221561383,-0.0023505048540017675,0.46564335937042156
3741,4.0,299.65347,250.36415,0.0,0.0,0.0,0.0,0.0,0.037285834653073696,-0.0997144935490543,0.07972639354963243,-0.056116350007752544,-0.00047542600537589356,-0.009803455730725752,0.47672686651677854
3742,4.0,299.91862000000003,472.27090999999996,0.0,0.0,0.0,0.0,0.0,0.03729580146265751,-0.14570818121527787,0.07532614930061214,-0.07317653718696193,5.135705146654635e-05,-0.017133780547222484,0.4774629724494265
3743,4.0,299.35417,479.42867,0.0,0.0,0.0,0.0,0.0,0.037305768272241344,-0.12099415001369289,0.07262471105000093,-0.0973649063956681,-0.024277461250248877,-0.02662767357894677,0.44935334764522256
3744,4.0,300.11413,515.99483,0.0,0.0,0.0,0.0,0.0,0.03731573508182516,-0.19406879477059882,0.06999951378991413,-0.032780268014660566,0.0018325360638322284,-0.006826936087316134,0.45021524857778555
3745,4.0,299.86368,564.57489,0.0,0.0,0.0,0.0,0.0,0.03732570189140899,-0.15798956276235585,0.06914500755658093,-0.08277210986622122,0.008698121562962763,0.0002707953043454158,0.4628803276727315
3746,4.0,299.10148,500.7791,0.0,0.0,0.0,0.0,0.0,0.037335668700992794,-0.15691417003372285,0.07633531498945903,-0.07164548487510884,-0.015779855498600486,0.0065490846713943335,0.47416217852616355
3747,4.0,298.61772,328.54662,0.0,0.0,0.0,0.0,0.0,0.037345635510576625,-0.10980450491936089,0.1037370822605529,-0.09380254297234021,0.0064497148287872945,-0.008075560233870741,0.48205600475522353
3748,4.0,299.92507,439.98072,0.0,0.0,0.0,0.0,0.0,0.037355602320160455,-0.12928688267462188,0.08512734386241473,-0.0895836167889646,0.0035155883536615567,0.005344130894874655,0.46790318067094855
3749,4.0,299.01806,562.93647,0.0,0.0,0.0,0.0,0.0,0.03736556912974426,-0.14542869644019488,0.06570544497912253,-0.09139537990852172,0.014657477349580386,0.008295047126807412,0.4576126025228476
3750,4.0,299.89119,476.95027000000005,0.0,0.0,0.0,0.0,0.0,0.03737553593932809,-0.2015891674103018,0.08745530319241643,-0.03084710740062247,-0.017710899433179682,-0.008690620168497431,0.46752614017623756
3751,4.0,300.06199,355.45597000000004,0.0,0.0,0.0,0.0,0.0,0.037385502748911906,-0.14530336753532586,0.06741601582444273,-0.03016238236729537,-0.001053544422026739,-0.02136428209974048,0.47475255882942957
3752,4.0,301.14852,336.12745,0.0,0.0,0.0,0.0,0.0,0.03739546955849572,-0.13597603559478988,0.07001607333629843,-0.036214393492082365,0.0020454547656456683,-0.008547767913749012,0.4638020508911985
3753,4.0,301.6111,371.61974,0.0,0.0,0.0,0.0,0.0,0.03740543636807955,-0.11036917906758989,0.09215897126338232,-0.0947529198903851,0.03943312327649626,0.01141780672534979,0.4743461340818185
3754,4.0,300.96654,444.08300999999994,0.0,0.0,0.0,0.0,0.0,0.03741540317766337,-0.1020992749314139,0.05808144623844244,-0.0909723165810186,0.02252161535071038,0.014356861243661884,0.44152588929771264
3755,4.0,300.19122000000004,412.25655,0.0,0.0,0.0,0.0,0.0,0.0374253699872472,-0.12769028422704987,0.07368354220574942,-0.07130895918564634,-7.318810445010353e-05,-0.011087141674465688,0.4248173343537066
3756,4.0,300.97175,311.27299999999997,0.0,0.0,0.0,0.0,0.0,0.037435336796831004,-0.15685264548765085,0.1042722505658699,-0.042038818511908355,-0.008528941017615942,-0.0035644467668585066,0.4403291294721016
3757,4.0,300.24062000000004,142.54078,0.0,0.0,0.0,0.0,0.0,0.037445303606414834,-0.10060511606895191,0.09101483863471523,-0.033738559429236564,-0.0006067749127990215,0.006766886934714744,0.42199869549052854
3758,4.0,300.19392999999997,227.32337,0.0,0.0,0.0,0.0,0.0,0.037455270415998665,-0.12542377547586286,0.12496265548785387,-0.06863950620094184,-0.008610182194733822,0.0032408441704964166,0.48813552562022555
3759,4.0,299.51747,277.06172000000004,0.0,0.0,0.0,0.0,0.0,0.03746523722558247,-0.1145740453925779,0.1094769211620309,-0.07912272143155463,-0.023699913759499376,-0.013108673909225385,0.46449009837160354
3760,4.0,299.88929,346.23047,0.0,0.0,0.0,0.0,0.0,0.0374752040351663,-0.12389603750508689,0.09471050929419951,-0.07605989233402692,-0.01967896347341248,-0.005727408957201255,0.4929768649955285
3761,4.0,299.11978999999997,444.60318,0.0,0.0,0.0,0.0,0.0,0.037485170844750115,-0.15613200175152886,0.08376605248556572,-0.06278231571263215,-0.005134418319027635,0.04102378711823256,0.46945887421198357
3762,4.0,299.52327,748.368,0.0,0.0,0.0,0.0,0.0,0.03749513765433393,-0.2180434269767108,0.05378861156627265,-0.06323037288035194,-0.0028221981068042674,0.028240084807579374,0.5138337874389465
3763,4.0,300.3943,731.80669,0.0,0.0,0.0,0.0,0.0,0.03750510446391776,-0.18079188486776984,0.059251845349451854,-0.1009109271081331,0.00992730093347332,-0.014236740444306886,0.4664352953835796
3764,4.0,300.22587000000004,594.01335,0.0,0.0,0.0,0.0,0.0,0.03751507127350158,-0.17117270650093083,0.08547839145231041,-0.09487091083802991,0.004104807978938006,-0.027144081558662277,0.4996907716156396
3765,4.0,300.44273,405.93973,0.0,0.0,0.0,0.0,0.0,0.03752503808308541,-0.1153182269285229,0.08712861717467502,-0.0952059277980935,0.004846514955488785,-0.02023758750529438,0.4570517989900006
3766,4.0,300.8688,237.42547000000002,0.0,0.0,0.0,0.0,0.0,0.03753500489266921,-0.1133188007711949,0.13122336573573787,-0.0900759843968075,0.03780458921227247,-0.018343154323328382,0.4746636157356515
3767,4.0,299.13788999999997,234.23189,0.0,0.0,0.0,0.0,0.0,0.037544971702253044,-0.10415038697634289,0.06944884377131723,-0.03649909954493066,-0.013535791250378588,-0.02273671517468908,0.42282126205420956
3768,4.0,300.08107,342.2943,0.0,0.0,0.0,0.0,0.0,0.037554938511836874,-0.14746614987377588,0.0987670418840481,-0.05534981110835104,0.0033455722822822768,0.01895684849814528,0.4551858178708426
3769,4.0,299.09011,355.77733,0.0,0.0,0.0,0.0,0.0,0.03756490532142068,-0.1065922183923329,0.04806530080042586,-0.04962050595491265,-0.030355645638368973,0.04772549623363975,0.4379938109066236
3770,4.0,298.73212,311.53083,0.0,0.0,0.0,0.0,0.0,0.03757487213100451,-0.12542076612306588,0.07172125267783654,-0.040998080963195564,0.014832384581842384,0.046030621645618656,0.4880732310040775
3771,4.0,300.06479,396.75346,0.0,0.0,0.0,0.0,0.0,0.037584838940588325,-0.1057787406820489,0.07113325047255523,-0.08595765672311022,-0.0008169150599232392,-0.012490174902434288,0.47146353887232856
3772,4.0,299.96426,457.23075,0.0,0.0,0.0,0.0,0.0,0.03759480575017214,-0.13129116229992888,0.06428386623457363,-0.07197943285631693,0.01949415374792318,-0.017847590924670084,0.4793674165423805
3773,4.0,299.04964,398.85055,0.0,0.0,0.0,0.0,0.0,0.03760477255975597,-0.13930339693567487,0.07474022729778614,-0.05667743623737745,-0.0004912420491018155,-0.00970259772769684,0.4383262683969346
3774,4.0,300.60177999999996,452.51724,0.0,0.0,0.0,0.0,0.0,0.03761473936933979,-0.18933531586844082,0.09631423291647472,-0.04453286473205156,-0.024183991968274178,-0.014395973710771988,0.46218805493940956
3775,4.0,300.2129,288.15541,0.0,0.0,0.0,0.0,0.0,0.03762470617892362,-0.13415308720737887,0.1105446638524089,-0.06398362705769234,-0.018206154803807585,0.009314010133521232,0.4303007601848786
3776,4.0,300.95212000000004,281.02052000000003,0.0,0.0,0.0,0.0,0.0,0.03763467298850742,-0.17372696814801683,0.1345704246585669,-0.046266676494915455,-0.004575792260645536,-0.0024945580127687076,0.48626509633312853
3777,4.0,301.29627999999997,313.15619,0.0,0.0,0.0,0.0,0.0,0.03764463979809125,-0.12554548707787488,0.1122509263583039,-0.08189710254361472,0.017197958795306383,0.032897168705197766,0.4691035274019135
3778,4.0,300.45378999999997,406.71861,0.0,0.0,0.0,0.0,0.0,0.037654606607675084,-0.16215773930122285,0.1103764136733039,-0.07185097300863892,-0.0035733176701589968,-0.006330077248404984,0.5136581101366084
3779,4.0,299.55841000000004,451.37791,0.0,0.0,0.0,0.0,0.0,0.03766457341725889,-0.13678361618949186,0.08381057469495973,-0.08423457730530552,0.0007969824951485483,-0.02107927308511228,0.47434561732426755
3780,4.0,300.01907,555.47232,0.0,0.0,0.0,0.0,0.0,0.03767454022684272,-0.18353260479825784,0.07275417097552764,-0.05807128232668935,-0.005254049718584335,-0.01258121339741909,0.5046627189288325
3781,4.0,299.52727999999996,630.70169,0.0,0.0,0.0,0.0,0.0,0.037684507036426534,-0.15423523809433284,0.06389989105617824,-0.1013822181006459,0.005758331425078064,0.014797739534423185,0.4786382311079155
3782,4.0,299.47316,512.96421,0.0,0.0,0.0,0.0,0.0,0.03769447384601035,-0.16738194535931183,0.09376570626495472,-0.08231207000281883,-0.006595828735607613,0.008155926469527272,0.5041301546762725
3783,4.0,299.9497,252.75463,0.0,0.0,0.0,0.0,0.0,0.03770444065559418,-0.06809992417818923,0.06936768345155735,-0.07809885652350702,-0.021519639684573082,0.005693267393756744,0.44896063217146454
3784,4.0,300.03511000000003,193.4176,0.0,0.0,0.0,0.0,0.0,0.037714407465178,-0.1092675634263689,0.1121764828734569,-0.06170304932886685,0.007906101754021493,-0.00016866501382844086,0.45911913316903064
3785,4.0,299.89585,234.77505,0.0,0.0,0.0,0.0,0.0,0.03772437427476183,-0.1130622661108769,0.06676669982911024,-0.025070186585234775,0.013819418191870386,0.015443275093632585,0.3987056360966826
3786,4.0,299.96033,149.54307,0.0,0.0,0.0,0.0,0.0,0.03773434108434563,-0.12304451225354789,0.09738267069642131,-0.01979551459266518,0.018900095346794182,0.03655856010054896,0.44116002495160456
3787,4.0,300.13217000000003,222.58937000000003,0.0,0.0,0.0,0.0,0.0,0.03774430789392946,-0.1099792905616109,0.08938553044741501,-0.04706785030923516,-0.00022764946348975275,-0.00944306100998256,0.42766087890434257
3788,4.0,299.98373,376.30917999999997,0.0,0.0,0.0,0.0,0.0,0.037754274703513294,-0.14099621361274287,0.09086353911653311,-0.06425592079681564,0.008781471718838783,-0.0018846294806234485,0.48751952022193057
3789,4.0,299.73432,332.44926,0.0,0.0,0.0,0.0,0.0,0.0377642415130971,-0.10614259879295891,0.0950851645981751,-0.08999883350769332,0.02157841224337348,-0.004276883987770586,0.47065679927520954
3790,4.0,300.12416,503.88493,0.0,0.0,0.0,0.0,0.0,0.03777420832268093,-0.15447206504020586,0.08386176814301212,-0.08255813880285393,0.020068340288090982,-0.017132654826361383,0.4952888078811995
3791,4.0,299.64116,583.46815,0.0,0.0,0.0,0.0,0.0,0.037784175132264744,-0.16563070468147784,0.06066997093765994,-0.07239901161672614,-0.008244521714545941,-0.012502668276167288,0.47668040899969355
3792,4.0,299.06942000000004,558.76004,0.0,0.0,0.0,0.0,0.0,0.03779414194184856,-0.16118741047545884,0.06722719362855743,-0.07588888915440023,-0.012223447959360388,-0.01992856243679598,0.4845090629823216
3793,4.0,300.32415,518.2910400000001,0.0,0.0,0.0,0.0,0.0,0.03780410875143238,-0.16427167285235186,0.09946677923085681,-0.09274264081123601,-0.011598273660910489,0.026915815562884172,0.47518869206997255
3794,4.0,301.13704,467.67424000000005,0.0,0.0,0.0,0.0,0.0,0.03781407556101621,-0.1809397788523658,0.12311349432035587,-0.08433501166846762,-0.007544002746610102,0.027306932127984376,0.5102410356318695
3795,4.0,300.42405,342.72039,0.0,0.0,0.0,0.0,0.0,0.03782404237060004,-0.1214223900359569,0.10200739341234591,-0.08476344724800092,-0.015750507722704084,0.01237067522539059,0.46930687656448256
3796,4.0,300.81212999999997,452.3087,0.0,0.0,0.0,0.0,0.0,0.03783400918018384,-0.16293012971995186,0.09483835815206722,-0.06939878313687664,0.0017538876923952383,-0.02131103479373538,0.47976396210151656
3797,4.0,299.76414,642.5899099999999,0.0,0.0,0.0,0.0,0.0,0.03784397598976767,-0.16898345806986884,0.058966318564022534,-0.08531415070385111,0.012557642160342788,-0.016003872936709285,0.4491345565511296
3798,4.0,299.5288,573.6933799999999,0.0,0.0,0.0,0.0,0.0,0.03785394279935149,-0.18286993923285783,0.07621538772087312,-0.06773390885781634,0.029342971064425773,-0.029394607302771873,0.48058589031763455
3799,4.0,300.53049,326.51372000000003,0.0,0.0,0.0,0.0,0.0,0.037863909608935306,-0.13410288066492387,0.07791612902697322,-0.04306526720771096,-0.010242359602342191,-0.015702187851935286,0.46424215607213354
3800,4.0,299.33902,277.38187,0.0,0.0,0.0,0.0,0.0,0.03787387641851912,-0.1093409531311119,0.07830748370584692,-0.05328369688244145,0.008400648254879432,0.003999755931095176,0.49864399306983054
3801,4.0,299.68091,434.98097,0.0,0.0,0.0,0.0,0.0,0.037883843228102954,-0.11534347712101489,0.06826400989938322,-0.08514388618354732,-0.015246238479186585,0.03231372815186667,0.4520917776304846
3802,4.0,299.8607,572.47374,0.0,0.0,0.0,0.0,0.0,0.037893810037686756,-0.15728448254776986,0.06015609000369384,-0.07688932873338593,-0.012050360524277989,0.04157039400392846,0.47872769095924456
3803,4.0,300.43823,471.80222000000003,0.0,0.0,0.0,0.0,0.0,0.03790377684727059,-0.11605254954099489,0.04778592444310355,-0.07514947090717533,-0.02293960736146298,-0.005967199558291744,0.4237662494949726
3804,4.0,300.86123,333.81597999999997,0.0,0.0,0.0,0.0,0.0,0.03791374365685442,-0.1319513048725799,0.07722535894354952,-0.046745777619199055,-0.005158597911463975,-0.012049106120654188,0.4548690353595786
3805,4.0,300.4615,263.9206,0.0,0.0,0.0,0.0,0.0,0.03792371046643822,-0.1106608633738769,0.098392422043826,-0.06795683401231734,0.010540006885467688,0.0005235914162994495,0.47047005728177954
3806,4.0,301.17386,393.6974,0.0,0.0,0.0,0.0,0.0,0.03793367727602205,-0.15121481047373986,0.10814198442028289,-0.07660135494896513,0.014369834897942286,-0.00954626559891806,0.48108532129192455
3807,4.0,301.36752,517.97138,0.0,0.0,0.0,0.0,0.0,0.03794364408560587,-0.16048619074375384,0.1052471491495849,-0.10221133025997291,0.005223088949853745,-0.013491162649724088,0.48001981788426756
3808,4.0,300.19436,347.86335,0.0,0.0,0.0,0.0,0.0,0.0379536108951897,-0.14853674992943586,0.08920487403408561,-0.046409894330299954,0.018239602189608583,0.014718795192631987,0.4725517593472275
3809,4.0,300.20063999999996,407.87122999999997,0.0,0.0,0.0,0.0,0.0,0.0379635777047735,-0.14242344730609985,0.0912763169422711,-0.07283553394530752,0.013873082956916685,0.03340114714593657,0.4799492551473036
3810,4.0,299.70707999999996,807.83664,0.0,0.0,0.0,0.0,0.0,0.03797354451435733,-0.20739261815305782,0.06402075456785654,-0.1021903053203979,0.01107561595457819,0.025280692333260076,0.4812673516723896
3811,4.0,299.19599999999997,576.69037,0.0,0.0,0.0,0.0,0.0,0.03798351132394115,-0.16825989617345885,0.08278375413637043,-0.08982333251087272,-0.012657758362973488,-0.006583155813956894,0.5022029023235675
3812,4.0,300.26342,219.16734,0.0,0.0,0.0,0.0,0.0,0.037993478133524966,-0.1056966066289429,0.11064033492685088,-0.07156512299642773,0.0007946212475130113,-0.006914494980132523,0.4869116613544396
3813,4.0,299.64227,164.55006,0.0,0.0,0.0,0.0,0.0,0.0380034449431088,-0.1023807963391979,0.10772863917448891,-0.05536694719404224,-0.02277535141425218,-3.768776451549276e-05,0.49561680707107053
3814,4.0,300.2283,427.56069,0.0,0.0,0.0,0.0,0.0,0.038013411752692614,-0.14848310846914184,0.08939349357995091,-0.07087815969362973,-0.018636715168800583,-0.01885292956788928,0.4691266092391916
3815,4.0,300.55215,457.97564000000006,0.0,0.0,0.0,0.0,0.0,0.03802337856227643,-0.14197231796407686,0.07667448728818273,-0.07391532620587472,-0.033780606268636264,-0.027139048745415575,0.4414894832216196
3816,4.0,300.58099,179.78284,0.0,0.0,0.0,0.0,0.0,0.03803334537186025,-0.1115039178545799,0.09216187422491882,-0.03530745359257436,0.009223395278403242,-0.0036352239075436664,0.45155243473475554
3817,4.0,300.65749,103.35073,0.0,0.0,0.0,0.0,0.0,0.03804331218144408,-0.08627080673276573,0.1015945142615979,-0.04673974776785395,0.02145004054845418,0.00969964005065494,0.4608170059640976
3818,4.0,300.92429,330.29407000000003,0.0,0.0,0.0,0.0,0.0,0.03805327899102791,-0.12630604273543589,0.08793870455012441,-0.062033812665010644,0.028745476732207675,0.004626527314352696,0.4733741333933895
3819,4.0,301.05695,564.74916,0.0,0.0,0.0,0.0,0.0,0.03806324580061171,-0.15644370787979184,0.04448236029406716,-0.059708293241249745,-0.017686755709796883,-0.004171351558055345,0.4541776542863446
3820,4.0,300.87986,538.9044,0.0,0.0,0.0,0.0,0.0,0.03807321261019554,-0.15637070321008686,0.044452386329608955,-0.051895165289904045,-0.008215158030622971,-0.005183241977746155,0.4473852207834836
3821,4.0,299.76711,303.56005,0.0,0.0,0.0,0.0,0.0,0.03808317941977936,-0.12016653746451388,0.06453856589896054,-0.036646706779748364,0.015001371393770085,0.01018513224994429,0.46434170789445856
3822,4.0,299.51682,210.27261000000001,0.0,0.0,0.0,0.0,0.0,0.038093146229363176,-0.13552422737519987,0.1032321797357229,-0.03162558035970177,0.00890494799722494,0.014835254106125587,0.46280557008035356
3823,4.0,299.40644,452.75272,0.0,0.0,0.0,0.0,0.0,0.038103113038947006,-0.13938880378660387,0.08794196113594582,-0.08617868406017391,0.014176802647891487,-0.012816430288883188,0.4781385670861026
3824,4.0,300.11257,419.3625,0.0,0.0,0.0,0.0,0.0,0.03811307984853082,-0.1427474441580759,0.1045290182737109,-0.08925730668701032,-0.015923131089240684,-0.01924075205691438,0.49066703980256654
3825,4.0,300.69818,147.1475,0.0,0.0,0.0,0.0,0.0,0.03812304665811464,-0.13163662992152386,0.12831402072360787,-0.04140656463500976,0.007423676257484804,-0.02000581161116988,0.5000300584116245
3826,4.0,299.65142000000003,225.99517999999998,0.0,0.0,0.0,0.0,0.0,0.03813301346769846,-0.14267814798373687,0.11027376130567289,-0.036292504942291366,0.007282257346327843,0.007953585997432821,0.46779436774270955
3827,4.0,299.62027,641.04202,0.0,0.0,0.0,0.0,0.0,0.03814298027728229,-0.19764759412379881,0.07225698232370893,-0.06947015343417035,-0.003171660770893547,0.005323886664501704,0.46941778692042857
3828,4.0,299.67503,772.97253,0.0,0.0,0.0,0.0,0.0,0.03815294708686612,-0.20883233508764681,0.05398296104145345,-0.08011497192323212,-0.012385291358083089,0.012522683005392589,0.4666185416641646
3829,4.0,299.8767,512.92394,0.0,0.0,0.0,0.0,0.0,0.03816291389644992,-0.13886060664197486,0.06583309523997063,-0.08288856168696412,0.026258187876981375,0.010839701947045291,0.4685454900418396
3830,4.0,300.83667,294.51116,0.0,0.0,0.0,0.0,0.0,0.03817288070603375,-0.12149257787038388,0.07992217170745422,-0.047953629493654754,0.030899917995834473,-0.006268635788841183,0.4857175055815855
3831,4.0,300.48371000000003,171.70934,0.0,0.0,0.0,0.0,0.0,0.03818284751561757,-0.1145728598899609,0.09066744178492982,-0.028289938738999577,0.014783544913772286,-0.05190423894454955,0.4631425567986116
3832,4.0,301.3051,335.13932,0.0,0.0,0.0,0.0,0.0,0.038192814325201385,-0.13053194413249988,0.06757469889610353,-0.03891673556178277,-0.007949468959626503,-0.03639044164395696,0.45563127301230555
3833,4.0,301.06212999999997,357.1324,0.0,0.0,0.0,0.0,0.0,0.038202781134785216,-0.1298903845666829,0.08473663259735452,-0.06340558307439384,-0.0020628916852915577,-0.01906668075598488,0.45417157478574455
3834,4.0,299.50028,185.20522,0.0,0.0,0.0,0.0,0.0,0.03821274794436903,-0.1043553573390719,0.09011611315376791,-0.042058521160102856,-0.005905574700459844,0.03552756393829757,0.4766737418140355
3835,4.0,300.44378,194.44318,0.0,0.0,0.0,0.0,0.0,0.03822271475395285,-0.06602875282103053,0.09445880479710822,-0.08753592344987302,-0.02323276797314568,0.02771751525400577,0.4493422221591246
3836,4.0,300.22196,497.97662,0.0,0.0,0.0,0.0,0.0,0.038232681563536666,-0.1300242855673979,0.07526006310258992,-0.09660823351249032,-0.04500298846044916,0.013578674021110786,0.4936208056990805
3837,4.0,299.39461,703.20637,0.0,0.0,0.0,0.0,0.0,0.0382426483731205,-0.17732665058577785,0.06117711578496124,-0.0976076446426245,-0.03809537273922056,0.02512400941729668,0.49048648876724754
3838,4.0,300.3584,625.4218,0.0,0.0,0.0,0.0,0.0,0.03825261518270433,-0.17124383665795084,0.06181978992588824,-0.08068856571209143,0.0034299654778112364,-0.004581223686481575,0.48833142739455954
3839,4.0,299.56124,478.62052,0.0,0.0,0.0,0.0,0.0,0.03826258199228813,-0.18078039461163584,0.06900608184862003,-0.03371437416259967,0.021713102565916378,-0.02261453241138058,0.46561300239742553
3840,4.0,300.5585,444.30262,0.0,0.0,0.0,0.0,0.0,0.03827254880187196,-0.16748906615988385,0.10072369470165471,-0.06829153281184953,0.027354204298149772,0.011092149156459888,0.48440795075484255
3841,4.0,300.85809,426.49813,0.0,0.0,0.0,0.0,0.0,0.03828251561145578,-0.12058010562532989,0.07902048854946501,-0.08808516985207941,0.02474370929701398,0.0072782096148283635,0.49545743296284156
3842,4.0,299.72683,233.18336000000002,0.0,0.0,0.0,0.0,0.0,0.038292482421039595,-0.1039040050820269,0.11228219525638988,-0.07926010598611342,0.005791386176465314,0.014032730642672686,0.5065734654374084
3843,4.0,300.28617,287.26351,0.0,0.0,0.0,0.0,0.0,0.038302449230623425,-0.13944088484174388,0.1032729123897429,-0.05115295553865365,-0.004940015850866605,-0.03406122183083087,0.5122580011484285
3844,4.0,300.92013,324.64251,0.0,0.0,0.0,0.0,0.0,0.03831241604020724,-0.13927751852812087,0.08720436167265042,-0.04661005378155416,0.009155771068054252,-0.02419972166282658,0.47160718733900553
3845,4.0,299.68136,266.96497,0.0,0.0,0.0,0.0,0.0,0.03832238284979106,-0.15055041225066887,0.1075622736405699,-0.038162545141349966,-0.015301094826350486,0.01208096169054809,0.47522888770143956
3846,4.0,299.48277,626.7846599999999,0.0,0.0,0.0,0.0,0.0,0.038332349659374876,-0.14379377687384087,0.05390403595141415,-0.1006371408516125,-0.006108548453866795,0.011979466454531289,0.45023269674450755
3847,4.0,299.01756,586.96426,0.0,0.0,0.0,0.0,0.0,0.038342316468958706,-0.12711880103814888,0.056776701309924155,-0.10808037881420289,-0.027619053688788375,-0.003103116428128747,0.45764710368875255
3848,4.0,299.27599,193.27892,0.0,0.0,0.0,0.0,0.0,0.03835228327854254,-0.0935420282656294,0.083439099983048,-0.04864903823603625,-0.023496231237647477,0.04369133924574946,0.46833600058366454
3849,4.0,299.89354,172.59127,0.0,0.0,0.0,0.0,0.0,0.03836225008812634,-0.11414316078755289,0.1010586539064626,-0.03937893263464806,0.016672614962958982,0.027090864650160175,0.4774204260777275
3850,4.0,300.77137999999997,485.1304,0.0,0.0,0.0,0.0,0.0,0.03837221689771017,-0.17311339454996183,0.06982348185004113,-0.044177613167490956,-0.0005420106616522874,0.012459669994923686,0.4754242017907156
3851,4.0,300.3034,499.72749000000005,0.0,0.0,0.0,0.0,0.0,0.03838218370729399,-0.17024407291678184,0.06269505258751994,-0.04435566350156316,0.013449603183622486,-0.02253180662021618,0.44601011880777164
3852,4.0,301.07515,444.34779000000003,0.0,0.0,0.0,0.0,0.0,0.038392150516877804,-0.12327573592636788,0.07541630424150973,-0.08721119604457492,0.025142773795898576,-0.007009776257261053,0.46883222968763855
3853,4.0,300.35106,480.14052999999996,0.0,0.0,0.0,0.0,0.0,0.038402117326461635,-0.12481343414562687,0.08122175412671302,-0.1023590519920519,0.012460765318281788,0.010560369159477289,0.48850704390189154
3854,4.0,299.54772,387.96181,0.0,0.0,0.0,0.0,0.0,0.03841208413604545,-0.1356174261193979,0.09086700645837532,-0.07318028519908183,-0.013987319812940985,-0.003275512623992927,0.5061791996909976
3855,4.0,300.25391,557.7680799999999,0.0,0.0,0.0,0.0,0.0,0.03842205094562927,-0.15446156776916986,0.06820855573466034,-0.08329455681653272,-0.03416270592109657,-0.03294133830355697,0.48737122093729457
3856,4.0,299.88806,648.04747,0.0,0.0,0.0,0.0,0.0,0.038432017755213085,-0.2075535830639438,0.08765518197339292,-0.07709184399112262,-0.005696878110488094,0.008560686345898962,0.5017868922300106
3857,4.0,298.74845,276.90047000000004,0.0,0.0,0.0,0.0,0.0,0.038441984564796916,-0.15379897313127686,0.10992958051170489,-0.040301439095442364,0.016303711879801085,0.007964297064239923,0.4934828618304665
3858,4.0,299.00576,270.76739,0.0,0.0,0.0,0.0,0.0,0.03845195137438075,-0.12350936100192489,0.10668011783850789,-0.06547729044085544,0.01017297628849459,0.0006407640327659864,0.4731984966210555
3859,4.0,298.92174,618.32921,0.0,0.0,0.0,0.0,0.0,0.03846191818396455,-0.15925056264430684,0.07472969557624673,-0.1034357720783159,0.0007365341017427562,-0.012519345359563188,0.4846713045883336
3860,4.0,297.94434,431.276,0.0,0.0,0.0,0.0,0.0,0.03847188499354838,-0.13941244291143687,0.08899301965017722,-0.08067770975052002,-0.004259899788269376,0.02223265364744208,0.48533346352868356
3861,4.0,298.68453999999997,121.88385,0.0,0.0,0.0,0.0,0.0,0.0384818518031322,-0.1158899127674439,0.11950731694945389,-0.04066704202302456,0.017474040063303484,0.026555291044803177,0.4836788362478845
3862,4.0,298.80017000000004,255.3192,0.0,0.0,0.0,0.0,0.0,0.038491818612716014,-0.15336607215855286,0.09512930785203172,-0.01937389615980468,-0.003095988720300297,-0.00821830528675858,0.48834046558545147
3863,4.0,300.04381,498.98784000000006,0.0,0.0,0.0,0.0,0.0,0.038501785422299845,-0.16237947895310684,0.06984743204265484,-0.05914779469668285,0.005545398537763225,-0.01868061220288288,0.45408067611927355
3864,4.0,300.44007,516.53827,0.0,0.0,0.0,0.0,0.0,0.03851175223188366,-0.11499508120663089,0.04128250229276576,-0.08330215619228272,-0.0013158374839880487,-0.0070704392367730235,0.4470259932255306
3865,4.0,300.23967999999996,421.97765,0.0,0.0,0.0,0.0,0.0,0.03852171904146749,-0.1202225397975409,0.07534173714015054,-0.08338986413418883,0.01991324716153448,-0.001057417266558959,0.4618647977600065
3866,4.0,299.8409,451.72212,0.0,0.0,0.0,0.0,0.0,0.038531685851051295,-0.12869184142089587,0.08130764429793973,-0.08992804684245723,-0.036979587808601166,-0.0036313947340907565,0.47445327514739255
3867,4.0,300.14406,264.01878999999997,0.0,0.0,0.0,0.0,0.0,0.038541652660635126,-0.12801546658164287,0.09104707923964711,-0.04328673024231766,-0.014495782898622387,-0.004797457945272235,0.4586865260388356
3868,4.0,301.34996,342.47733999999997,0.0,0.0,0.0,0.0,0.0,0.038551619470218956,-0.18124465567495482,0.1042557244567389,-0.027115622403103577,-0.01027982756453999,0.024612713284335678,0.4813595776964915
3869,4.0,300.21657000000005,517.6836400000001,0.0,0.0,0.0,0.0,0.0,0.03856158627980276,-0.15817419719557785,0.08287419380054613,-0.08206289660447733,0.016780356885842285,0.011898514864291988,0.49036832354058557
3870,4.0,300.65178,274.29807999999997,0.0,0.0,0.0,0.0,0.0,0.03857155308938659,-0.1163357529439449,0.1018803419823069,-0.06892435208230394,0.02599462024771927,-0.007967927539348222,0.4679209125476986
3871,4.0,299.8501,189.88528,0.0,0.0,0.0,0.0,0.0,0.03858151989897041,-0.1107499685876709,0.11017795850871788,-0.05714837056585504,0.0027341675460663276,-0.040104741919779856,0.4843006475692525
3872,4.0,299.61872999999997,554.88486,0.0,0.0,0.0,0.0,0.0,0.038591486708554223,-0.14638317803439485,0.08156980350956282,-0.1038577704799639,0.013471279643011787,0.004904934193979316,0.49702721068026656
3873,4.0,299.19946,442.53234000000003,0.0,0.0,0.0,0.0,0.0,0.038601453518138054,-0.16430790667592785,0.1103399164047019,-0.08055078700324372,0.005963420844693814,0.01235552916289579,0.5147581349751725
3874,4.0,299.35411,294.3775,0.0,0.0,0.0,0.0,0.0,0.03861142032772187,-0.15554678902377286,0.1036302958325139,-0.03756691113631547,0.01995949493584878,0.014273578164942485,0.5032580807127055
3875,4.0,299.90279,479.75881,0.0,0.0,0.0,0.0,0.0,0.0386213871373057,-0.15008398283213586,0.07195817182946863,-0.06770889171284733,0.016319305798840084,-0.0063165304998680245,0.46212198090038853
3876,4.0,300.23292999999995,438.06347,0.0,0.0,0.0,0.0,0.0,0.038631353946889505,-0.14206853619357285,0.08767663349126002,-0.07876844866659063,0.007220096580518054,0.0036129361543690364,0.4685773770224866
3877,4.0,299.31991,329.28707,0.0,0.0,0.0,0.0,0.0,0.038641320756473335,-0.1193975414336199,0.09054793096213501,-0.07124543347062684,0.002220611865382328,0.0012276624337858488,0.4621968195527746
3878,4.0,299.41244,467.2815,0.0,0.0,0.0,0.0,0.0,0.038651287566057166,-0.13538449005390887,0.06731258629398502,-0.07397000422102103,-0.026140126001829574,-0.0015264800207768488,0.48123507965670453
3879,4.0,300.35827,382.14269,0.0,0.0,0.0,0.0,0.0,0.03866125437564097,-0.16277559894720084,0.09740700389757281,-0.05079323756765225,-0.01063506089059879,0.00032098736745648674,0.47433978100369156
3880,4.0,299.71495,159.65445,0.0,0.0,0.0,0.0,0.0,0.0386712211852248,-0.12255915532314687,0.10207448070146691,-0.028046296672953972,0.003390067640548627,0.039902373583307664,0.47656103800541255
3881,4.0,299.77248,449.19434,0.0,0.0,0.0,0.0,0.0,0.038681187994808616,-0.13424758291170485,0.06217561701650565,-0.06447189708213084,0.0055824669754465945,0.03472455411479667,0.4493107911410225
3882,4.0,299.52083,730.50593,0.0,0.0,0.0,0.0,0.0,0.03869115480439243,-0.14717957234799284,0.043532659213838955,-0.11840864986602388,0.011736643094566488,-0.002732910913292307,0.47741032397423055
3883,4.0,300.66604,494.46290999999997,0.0,0.0,0.0,0.0,0.0,0.038701121613976264,-0.10501327076150291,0.044152860480798056,-0.08944396559393211,-0.01003121915445425,-0.03364607097335867,0.4604356895539645
3884,4.0,301.15033999999997,267.9833,0.0,0.0,0.0,0.0,0.0,0.03871108842356008,-0.10776920970849291,0.08358241711694232,-0.05727343805219824,0.014513624206383184,-0.016786625864210983,0.4921982025586805
3885,4.0,300.1886,409.29802,0.0,0.0,0.0,0.0,0.0,0.03872105523314391,-0.18560035440982883,0.1011171366757344,-0.03993315612134567,0.0017231985760164583,0.0007599539288566133,0.5229727359208906
3886,4.0,300.35312000000005,451.35079,0.0,0.0,0.0,0.0,0.0,0.038731022042727714,-0.17512271002826585,0.08293059940711292,-0.04500726032287076,0.004205667907142106,0.033096496278119863,0.4987079190186396
3887,4.0,299.91291,557.8787,0.0,0.0,0.0,0.0,0.0,0.038740988852311545,-0.16040482676072385,0.08033228975167973,-0.08950866363931732,-0.013797216868929289,0.012456212785582487,0.48153322849862956
3888,4.0,299.65358,576.9465700000001,0.0,0.0,0.0,0.0,0.0,0.038750955661895375,-0.15450912972886385,0.08271448025353363,-0.1035827034753169,0.008171663662130412,0.035180622037807065,0.4742561473404376
3889,4.0,298.77057,459.67289000000005,0.0,0.0,0.0,0.0,0.0,0.03876092247147918,-0.13585334114018088,0.1018270652920489,-0.1057028077195549,-0.004496726227517326,0.01263106226258879,0.4911224754575146
3890,4.0,298.75135,507.46210999999994,0.0,0.0,0.0,0.0,0.0,0.03877088928106301,-0.14278273565905886,0.08782616590126772,-0.0992992352870715,-0.002929655103759447,-0.025599485132722477,0.49844391670508453
3891,4.0,299.1834,629.32492,0.0,0.0,0.0,0.0,0.0,0.038780856090646826,-0.2050511491594728,0.0995097379953465,-0.08575765027262111,-0.017684255008550084,-0.012427428376741687,0.5085849188734236
3892,4.0,300.46336,558.16508,0.0,0.0,0.0,0.0,0.0,0.03879082290023064,-0.15552823641444186,0.08824835884693491,-0.1023883653174449,-0.014004610925897488,0.0033566733490528666,0.5119315927612146
3893,4.0,300.62431000000004,257.78031,0.0,0.0,0.0,0.0,0.0,0.03880078970981447,-0.1101210138530979,0.09912180404881041,-0.06735956462162143,0.03437448025824707,0.02193927417373778,0.4910295502908435
3894,4.0,300.73339,356.06424,0.0,0.0,0.0,0.0,0.0,0.03881075651939829,-0.1017997885993569,0.06505738034766353,-0.07149222775773353,-0.01035680012163659,0.001037122069705979,0.4892383166315625
3895,4.0,300.43279,445.74704,0.0,0.0,0.0,0.0,0.0,0.03882072332898212,-0.12306430102800088,0.07327009664819553,-0.0857017644633556,0.03226492293429997,-0.03328439337666386,0.45971907855324057
3896,4.0,300.00586,253.65302000000003,0.0,0.0,0.0,0.0,0.0,0.038830690138565924,-0.13631277913302386,0.0940074555798135,-0.03479885979763007,-0.008740694988439431,-0.03346168883941157,0.47169813666798155
3897,4.0,299.38455,218.17099,0.0,0.0,0.0,0.0,0.0,0.038840656948149754,-0.14918947551135486,0.09173076062537122,-0.008859819458971102,0.026003384861084274,0.003772367409903676,0.45683578420118154
3898,4.0,299.89701,363.12905,0.0,0.0,0.0,0.0,0.0,0.038850623757733585,-0.15211375582995884,0.09256756841920773,-0.05083597949662055,-0.00022040401599968275,0.013547957344329288,0.47923558257186955
3899,4.0,299.88102000000003,431.61600999999996,0.0,0.0,0.0,0.0,0.0,0.03886059056731739,-0.15684814665720687,0.08568355534580852,-0.06003589929008194,-0.003208535171182767,0.030429583511416072,0.4354842741189516
3900,4.0,299.02877,373.20758,0.0,0.0,0.0,0.0,0.0,0.03887055737690122,-0.12215519277327888,0.09647235363433,-0.08776294314802811,-0.03933225017604086,0.03637331771726696,0.4699184033973355
3901,4.0,299.28291,348.47811,0.0,0.0,0.0,0.0,0.0,0.038880524186485035,-0.12165782882919289,0.1072607608083129,-0.09153157288096292,-0.02067409666162448,0.02395727117889858,0.5013024168271965
3902,4.0,300.32951,252.24091,0.0,0.0,0.0,0.0,0.0,0.03889049099606885,-0.13258019881214686,0.09873995466912482,-0.04283469505470525,-0.006489286602167724,-0.022934009154660477,0.5055867624900285
3903,4.0,300.02196000000004,340.14718999999997,0.0,0.0,0.0,0.0,0.0,0.03890045780565267,-0.14615457867933385,0.0980840373493908,-0.05532570690172215,0.017712509487588585,-0.04007263911686156,0.5242594216928765
3904,4.0,299.76134,604.56965,0.0,0.0,0.0,0.0,0.0,0.0389104246152365,-0.17281119270763684,0.06072252518059664,-0.07168541300854943,0.016183194899656986,-0.007974715403093132,0.5059604693919105
3905,4.0,298.88674,631.43966,0.0,0.0,0.0,0.0,0.0,0.0389203914248203,-0.16127665754426684,0.061291965657296034,-0.09195719263846833,0.02162761465497938,0.009332979492618361,0.5199959692471064
3906,4.0,300.42984,424.23920999999996,0.0,0.0,0.0,0.0,0.0,0.03893035823440413,-0.11575890966201488,0.06941114580134673,-0.08261036779250852,-0.01032293021054389,0.0023649946344067975,0.4662701558822815
3907,4.0,300.80692999999997,464.17523,0.0,0.0,0.0,0.0,0.0,0.038940325043987964,-0.14057175301335187,0.062127271814484346,-0.06265319421263885,0.013041149909311288,0.0045644931034803955,0.47885545166435356
3908,4.0,300.38167999999996,415.50545,0.0,0.0,0.0,0.0,0.0,0.03895029185357178,-0.18120931351146682,0.1108573224357659,-0.05595129663271304,0.002062208754724158,-0.010210601304457891,0.4800664476538695
3909,4.0,300.4156,224.04735,0.0,0.0,0.0,0.0,0.0,0.0389602586631556,-0.17124573143563782,0.12778865054675786,-0.02464771499579008,-0.009412031441570181,-0.003924768026969446,0.5000306866266866
3910,4.0,299.87857,268.36585,0.0,0.0,0.0,0.0,0.0,0.038970225472739414,-0.14540918124326888,0.1060150306053689,-0.04218235957407476,-0.011403126757900988,-0.016538543736227183,0.47236743902153655
3911,4.0,300.1697,359.94727,0.0,0.0,0.0,0.0,0.0,0.038980192282323245,-0.1295208927852169,0.09506895664957551,-0.07496305011402701,-0.01925608861042798,0.0031654760949331668,0.4753639438072685
3912,4.0,299.90015,395.97696,0.0,0.0,0.0,0.0,0.0,0.03899015909190705,-0.08492229446617791,0.06360125585420523,-0.099046069683336,-0.004716021210885056,0.038964449508991764,0.45811035150197155
3913,4.0,298.45923999999997,544.8030200000001,0.0,0.0,0.0,0.0,0.0,0.03900012590149088,-0.11265663169834389,0.046551166725492456,-0.0995010503889891,-0.014197465857180786,0.042724802001859664,0.47611382994127655
3914,4.0,298.58313,625.94479,0.0,0.0,0.0,0.0,0.0,0.039010092711074695,-0.16350194728138584,0.061218393567535036,-0.08798802956499241,0.01022673021954969,0.00034554670576530467,0.4943307393816455
3915,4.0,298.91331,373.37818,0.0,0.0,0.0,0.0,0.0,0.03902005952065851,-0.15394504326569286,0.06334951893311075,-0.022902122174013478,0.0002876863152349287,-0.03521057776376347,0.48068229093214854
3916,4.0,299.6465,132.69988,0.0,0.0,0.0,0.0,0.0,0.03903002633024233,-0.13738331839367787,0.1092792867300259,-0.01223342036684459,0.04663181028770136,-0.022832959748687678,0.4805216401287935
3917,4.0,300.65695,346.70422,0.0,0.0,0.0,0.0,0.0,0.03903999313982616,-0.14807632908399584,0.1135838568648539,-0.07089695041673423,0.01171738931616629,-0.009200663823009821,0.5049809807852426
3918,4.0,300.00973999999997,499.20392000000004,0.0,0.0,0.0,0.0,0.0,0.03904995994940999,-0.13034971110201488,0.07741970031272952,-0.0988155127290818,-0.008246548012095923,-0.028230696032152773,0.4634465419611125
3919,4.0,299.96213,493.38259000000005,0.0,0.0,0.0,0.0,0.0,0.03905992675899379,-0.14781166815787586,0.08344848571872432,-0.08561280515757601,-0.012463617617313289,0.01014823069455239,0.47317531345876757
3920,4.0,300.02429,542.9355,0.0,0.0,0.0,0.0,0.0,0.039069893568577624,-0.17227770639748582,0.0943486786967396,-0.08710981023956892,0.027824698876083975,0.04687741907219105,0.47798705579864953
3921,4.0,300.8253,543.72466,0.0,0.0,0.0,0.0,0.0,0.03907986037816143,-0.1868383940445138,0.1022413123304319,-0.08068163710790761,0.01008872383340452,0.03914200436376506,0.5238736571148045
3922,4.0,300.72706,423.00814,0.0,0.0,0.0,0.0,0.0,0.03908982718774526,-0.16394519353763085,0.10396253040780289,-0.06860124993016622,-0.0038896266896512664,-0.04256477232081596,0.4950331648809695
3923,4.0,300.48393,424.76243,0.0,0.0,0.0,0.0,0.0,0.03909979399732909,-0.15748152929471684,0.10140237164513491,-0.07303801171279052,-0.02253623958940368,-0.00943965466579638,0.5107823543652935
3924,4.0,299.45887999999997,410.69928,0.0,0.0,0.0,0.0,0.0,0.039109760806912905,-0.0922791761624956,0.06011740512812594,-0.0926805549246086,-0.005999760451580254,0.012677199592642187,0.4859063551352235
3925,4.0,300.03215,208.9122,0.0,0.0,0.0,0.0,0.0,0.03911972761649672,-0.10479488496744989,0.1013495306524199,-0.06005874098708624,-0.004751233171735206,0.02922134761517247,0.5020279748263036
3926,4.0,299.22784,404.96173999999996,0.0,0.0,0.0,0.0,0.0,0.03912969442608054,-0.12678197643990688,0.07428664183752072,-0.07060291942321563,-0.01137834570020529,-0.01892569207082038,0.48288670771720754
3927,4.0,299.53569,677.53768,0.0,0.0,0.0,0.0,0.0,0.03913966123566437,-0.19149798674937982,0.06529463792482904,-0.07975118676632932,0.009558437164419302,-0.005717239472572604,0.4906690460377645
3928,4.0,298.5286,376.04365,0.0,0.0,0.0,0.0,0.0,0.0391496280452482,-0.16734630935329484,0.09527865078427071,-0.04224021919453506,0.033724836983132264,-0.0006000853849763164,0.4773657207048285
3929,4.0,299.9851,268.42839,0.0,0.0,0.0,0.0,0.0,0.039159594854832,-0.13528338795893088,0.1107633840189949,-0.05707553004266624,0.03630286441131376,0.00014309985254285588,0.4782344002805605
3930,4.0,300.85396000000003,447.38979000000006,0.0,0.0,0.0,0.0,0.0,0.03916956166441583,-0.11560580757190489,0.07249950677489422,-0.09288902201343271,-0.0006851238789639624,-0.058625840185919945,0.4514436724690216
3931,4.0,300.43841000000003,463.94462000000004,0.0,0.0,0.0,0.0,0.0,0.039179528473999636,-0.13736702533206988,0.0939371968178795,-0.0975977482288978,-0.0075084479019261125,-0.0033598015560865964,0.46549169609545354
3932,4.0,300.00072,215.00827999999998,0.0,0.0,0.0,0.0,0.0,0.03918949528358347,-0.12097430044423388,0.08859503324939902,-0.03297787711541307,-0.017059272214369085,0.02459965654354708,0.46049443779476257
3933,4.0,299.89887000000004,295.28175,0.0,0.0,0.0,0.0,0.0,0.0391994620931673,-0.14721461053645085,0.09847010488924271,-0.04101377418074436,-0.003179417403059067,0.03414268916537107,0.5121609317888485
3934,4.0,300.04093,386.82094,0.0,0.0,0.0,0.0,0.0,0.039209428902751114,-0.13860368694661887,0.07031569949686922,-0.04929591939137846,-0.03191715219522767,-0.02170363779673228,0.4895921435664825
3935,4.0,300.67503,584.44863,0.0,0.0,0.0,0.0,0.0,0.03921939571233493,-0.15459590446742785,0.04367807478869036,-0.06673996015897123,-0.004988951879021215,-0.00994503220227326,0.49935613563761355
3936,4.0,299.86671,785.73133,0.0,0.0,0.0,0.0,0.0,0.03922936252191875,-0.14590382967708684,0.034612088419947167,-0.12755096233829988,0.015863396956095385,0.006649071279337243,0.48327272560780454
3937,4.0,299.42981000000003,641.08943,0.0,0.0,0.0,0.0,0.0,0.03923932933150258,-0.18236958620097682,0.07213134741730973,-0.08463693790676542,0.017747935750834883,0.024159349725842178,0.5259915828713275
3938,4.0,299.42534,369.18357000000003,0.0,0.0,0.0,0.0,0.0,0.03924929614108641,-0.13184155975424888,0.08889506167025951,-0.06927608868226763,0.001830005573032488,-0.002874380081654227,0.46631995712469654
3939,4.0,299.58105,308.0429,0.0,0.0,0.0,0.0,0.0,0.03925926295067021,-0.16679109896099983,0.13404108254132488,-0.06088733030936164,-0.0017472483711149882,0.012234522782953387,0.4999436889731005
3940,4.0,300.932,348.67852,0.0,0.0,0.0,0.0,0.0,0.03926922976025404,-0.15459216557455885,0.09491459610284131,-0.04631199410563796,0.013942889809306087,0.024484432781925376,0.4595217379637646
3941,4.0,301.03683,264.03402,0.0,0.0,0.0,0.0,0.0,0.039279196569837846,-0.13514658906292987,0.10660239142333688,-0.05171555252417766,-0.006352214027314714,-0.003979686486364476,0.5054682932883365
3942,4.0,299.60541,184.45946999999998,0.0,0.0,0.0,0.0,0.0,0.03928916337942168,-0.09656901161436941,0.09033871406823692,-0.049840774367651455,-0.01077630288828829,-0.053008630891044545,0.45997309022080957
3943,4.0,299.82648,394.37998999999996,0.0,0.0,0.0,0.0,0.0,0.03929913018900551,-0.12694577845107285,0.07530248180477633,-0.06823836960560274,0.0019376594444820983,-0.010810298442393389,0.49937138505161854
3944,4.0,300.47532,445.41110999999995,0.0,0.0,0.0,0.0,0.0,0.039309096998589324,-0.14115765475117587,0.08910008573524382,-0.08333628650865113,0.037218322704412464,0.04012069858235467,0.4926409219248735
3945,4.0,299.9993,509.05158,0.0,0.0,0.0,0.0,0.0,0.03931906380817314,-0.13452355170894087,0.054627341495548855,-0.07484275807540514,0.001229800391496849,0.042400496108603164,0.5231267803335935
3946,4.0,299.92691,609.4839599999999,0.0,0.0,0.0,0.0,0.0,0.03932903061775696,-0.16298360906022982,0.07036480159671522,-0.09264909553550382,-0.024772874687892375,-0.004778386450565026,0.5172041713790775
3947,4.0,299.98756000000003,494.51925,0.0,0.0,0.0,0.0,0.0,0.03933899742734079,-0.14463238318660485,0.08515193949534211,-0.09084105914981451,-0.03673827317803526,0.0036299985767779663,0.4968970992349255
3948,4.0,299.216,264.13991,0.0,0.0,0.0,0.0,0.0,0.03934896423692462,-0.12178594417183689,0.0896758762503199,-0.04818186610517996,-0.0004485744014983466,0.021517380136850082,0.4894802706229416
3949,4.0,300.34911,422.93807999999996,0.0,0.0,0.0,0.0,0.0,0.03935893104650842,-0.15695296738005185,0.10288442216890191,-0.07449406933174223,-0.01004530819444473,0.01952070292704338,0.48059684355121557
3950,4.0,299.68109,531.30114,0.0,0.0,0.0,0.0,0.0,0.03936889785609225,-0.14097815749596088,0.06709668701567745,-0.08762080949025061,-0.00908359402103093,-0.029069327676169272,0.4633375567803566
3951,4.0,298.99258,308.95842000000005,0.0,0.0,0.0,0.0,0.0,0.03937886466567607,-0.15622174531288585,0.09849179857388371,-0.036185701289000664,0.01106095523888129,-0.016643014887787685,0.45546733927862654
3952,4.0,298.64986,385.72261000000003,0.0,0.0,0.0,0.0,0.0,0.039388831475259886,-0.13919322625230188,0.0950332709943036,-0.07309009175468043,0.047306067434245355,0.015018290643939884,0.5011335586980316
3953,4.0,299.79195,516.2572299999999,0.0,0.0,0.0,0.0,0.0,0.03939879828484372,-0.16262105804194885,0.08509082632881072,-0.07939907121082823,0.023555266228223775,-0.004128193081970937,0.4857967417394055
3954,4.0,299.50906000000003,508.57182,0.0,0.0,0.0,0.0,0.0,0.039408765094427534,-0.13397611294491285,0.07517429958762573,-0.09579132493736771,0.0012637092113933887,-0.028009436660816175,0.5041318366714386
3955,4.0,301.62757,599.56884,0.0,0.0,0.0,0.0,0.0,0.03941873190401135,-0.16938382358188184,0.06224158263776594,-0.07511171315544893,-0.001086299048734369,-0.015978343087189685,0.4892213041623836
3956,4.0,299.75905,480.10379000000006,0.0,0.0,0.0,0.0,0.0,0.03942869871359517,-0.14196315818317287,0.07515097558357384,-0.07912737528926392,0.00955266944087507,0.017606226644849284,0.5103748353075744
3957,4.0,300.46439,275.21247999999997,0.0,0.0,0.0,0.0,0.0,0.039438665523179,-0.14808471879482388,0.11768470293457588,-0.05325770397762615,-0.013663901526772089,0.003846192204239616,0.5174746584932725
3958,4.0,300.42607999999996,276.21401000000003,0.0,0.0,0.0,0.0,0.0,0.03944863233276283,-0.1192421493982839,0.09839184854426941,-0.06311186213540584,-0.03295313050822077,-0.004917555845174975,0.4933737246621956
3959,4.0,299.73976,424.26201,0.0,0.0,0.0,0.0,0.0,0.03945859914234663,-0.15919959616427684,0.0952575995001931,-0.06502305751377614,-0.016432324728244185,-0.0010686639373689189,0.4787083378823346
3960,4.0,299.85005,420.1857,0.0,0.0,0.0,0.0,0.0,0.03946856595193046,-0.16418590123138685,0.11922688985177787,-0.08276695444971242,0.03396657616549007,0.022392198994937978,0.4951758507600515
3961,4.0,299.69259,381.10958999999997,0.0,0.0,0.0,0.0,0.0,0.03947853276151428,-0.16729948706617384,0.09184835336572672,-0.04039666433984036,0.03197295390473487,0.012166543833744388,0.46891720084102456
3962,4.0,298.11395,407.02947,0.0,0.0,0.0,0.0,0.0,0.039488499571098096,-0.14937963215762184,0.09595738143000622,-0.07030454462651833,0.005756028408925774,-0.03218816518622457,0.4791554243564586
3963,4.0,300.05785,490.68440999999996,0.0,0.0,0.0,0.0,0.0,0.039498466380681926,-0.17078922173558383,0.07349363583225714,-0.051860220320455244,-0.007403005550144763,-0.003707285950680637,0.4820625199533665
3964,4.0,299.06806,465.60859000000005,0.0,0.0,0.0,0.0,0.0,0.03950843319026574,-0.14036306402275586,0.07781650222414083,-0.07898682027514223,-0.02061130352642728,0.01039648912805359,0.5045634204190325
3965,4.0,299.21689,551.97897,0.0,0.0,0.0,0.0,0.0,0.03951839999984956,-0.16972012129007183,0.06291579114830514,-0.060983491796852037,0.007829804528116543,0.0021915642141655477,0.48604040812345356
3966,4.0,299.48961,405.97722000000005,0.0,0.0,0.0,0.0,0.0,0.03952836680943338,-0.13040578436254888,0.07800673790391563,-0.07100789015693314,-0.015125343556755185,-0.02028770184199028,0.4908855370541305
3967,4.0,299.61147,208.01408999999998,0.0,0.0,0.0,0.0,0.0,0.03953833361901721,-0.09145957335535711,0.06399034287935514,-0.03576185978542076,0.03286467580099097,-0.011170819920724091,0.47494748788366753
3968,4.0,299.55785,407.98929,0.0,0.0,0.0,0.0,0.0,0.03954830042860104,-0.13269324712580388,0.09090188252681732,-0.08222719409494222,0.02872698086488227,0.005274691649621534,0.4922914215678805
3969,4.0,299.7869,567.96267,0.0,0.0,0.0,0.0,0.0,0.03955826723818484,-0.17269493239116282,0.09160412057487283,-0.09155565884909,0.002136234071254888,-0.017746039959897784,0.48863678044469555
3970,4.0,299.87752,343.65859,0.0,0.0,0.0,0.0,0.0,0.03956823404776867,-0.13754429343706487,0.1119840160169619,-0.07890335177165453,-0.01750501410561038,-0.03181843833073537,0.4838101838583475
3971,4.0,300.42402999999996,260.71738999999997,0.0,0.0,0.0,0.0,0.0,0.03957820085735249,-0.14327433421007585,0.11436539693198589,-0.05034263410243115,0.011896311045324489,0.012965004164296289,0.4817860141335775
3972,4.0,300.13703,456.08544000000006,0.0,0.0,0.0,0.0,0.0,0.039588167666936305,-0.18313031411105482,0.11990743928144287,-0.07541571047695113,0.00842690156497043,0.04595170668808036,0.5111171321983335
3973,4.0,300.39602,639.12901,0.0,0.0,0.0,0.0,0.0,0.039598134476520136,-0.18278787610725883,0.09126195614860381,-0.1027533481359659,0.0035570143747249866,7.995416811911203e-05,0.49977570223902157
3974,4.0,298.97707,514.72295,0.0,0.0,0.0,0.0,0.0,0.03960810128610395,-0.16842908867515682,0.09846613497535091,-0.08649997452113282,-0.012130131678150788,-0.03488950211182577,0.5083323358884955
3975,4.0,298.99745,401.14457000000004,0.0,0.0,0.0,0.0,0.0,0.03961806809568777,-0.14170574199526786,0.09084469367792322,-0.07107688843574274,0.009326225370101781,-0.013058298154003688,0.49257760392612454
3976,4.0,300.21432999999996,489.91828,0.0,0.0,0.0,0.0,0.0,0.039628034905271586,-0.14573096921002687,0.1096309554422329,-0.1128229060397539,0.018470211832867983,0.02050180462787058,0.5438588095696855
3977,4.0,299.72917,532.61409,0.0,0.0,0.0,0.0,0.0,0.03963800171485542,-0.17995647029282083,0.07827999119088362,-0.06022490488423535,-0.008868918850169142,0.02290420136321868,0.4983308278614235
3978,4.0,299.59058999999996,482.76653,0.0,0.0,0.0,0.0,0.0,0.03964796852443925,-0.16752813708373984,0.0941856335833983,-0.07340646896590443,-0.03196844494178987,0.0025988835602898373,0.5135167009526526
3979,4.0,300.71474,418.98945,0.0,0.0,0.0,0.0,0.0,0.03965793533402305,-0.15508916474860884,0.08299827640779213,-0.05527144533236695,-0.002017933879679568,-0.011612603043824688,0.47663303955751857
3980,4.0,299.86172999999997,310.60072,0.0,0.0,0.0,0.0,0.0,0.03966790214360688,-0.12723311591443087,0.09769260870325981,-0.06487436002185083,-0.010577114130629891,0.0033953300562679866,0.49600788107966653
3981,4.0,300.38061,431.89570999999995,0.0,0.0,0.0,0.0,0.0,0.0396778689531907,-0.13746344621158588,0.06961607360757154,-0.06343813677360664,-0.008753004051979242,-0.037609765536044865,0.47752500362054856
3982,4.0,300.14973,667.80103,0.0,0.0,0.0,0.0,0.0,0.039687835762774515,-0.14293171382126185,0.04795151889369645,-0.1080146391477149,-0.020477238379196083,-0.03940449693467106,0.4875274134402095
3983,4.0,299.34707000000003,420.26277999999996,0.0,0.0,0.0,0.0,0.0,0.039697802572358346,-0.15507955913766086,0.06997843616133394,-0.04264826412905596,0.016346263317750586,0.014634994343111486,0.46019080726979655
3984,4.0,299.64946000000003,267.01001,0.0,0.0,0.0,0.0,0.0,0.03970776938194216,-0.10695356364299491,0.1001540232039325,-0.07436483232123753,0.01968934827368738,0.05449145553788795,0.49144616833446053
3985,4.0,299.67633,447.27483,0.0,0.0,0.0,0.0,0.0,0.03971773619152598,-0.15693610689838786,0.08153160904704333,-0.06055588606915065,0.01033360784009769,0.01837196001042128,0.4925508338584825
3986,4.0,298.56836,467.26475,0.0,0.0,0.0,0.0,0.0,0.039727703001109796,-0.14754887161193986,0.08189239599690022,-0.07638034179740283,-0.02276669319214768,-0.008217340571338373,0.5046397080190616
3987,4.0,298.74559,399.0976,0.0,0.0,0.0,0.0,0.0,0.03973766981069363,-0.14221441381046987,0.07691246224641902,-0.05601375134237686,0.003251675104790347,-0.02134833455641658,0.48835280697166955
3988,4.0,299.25073,455.23138,0.0,0.0,0.0,0.0,0.0,0.03974763662027746,-0.13911022080410987,0.0936240407287234,-0.09289279231705481,0.009514854744493052,-0.007432389904369773,0.5385466027404114
3989,4.0,299.51808,403.10423,0.0,0.0,0.0,0.0,0.0,0.03975760342986126,-0.18406375050067783,0.09572183523225959,-0.034191707165458766,-8.600675071695541e-05,-0.05268741541059304,0.5084429321369105
3990,4.0,300.08547000000004,474.43172999999996,0.0,0.0,0.0,0.0,0.0,0.03976757023944509,-0.14403590311773687,0.09331834013380311,-0.0934978353625179,-0.026964700827208775,-0.012375064624823788,0.5121912684968425
3991,4.0,300.47496,530.11002,0.0,0.0,0.0,0.0,0.0,0.03977753704902891,-0.17366280915168483,0.08193620082522342,-0.06941359989308893,-0.00995356711184059,0.033452561482510766,0.48802717878703256
3992,4.0,300.29274,457.43980999999997,0.0,0.0,0.0,0.0,0.0,0.039787503858612724,-0.15470432222812786,0.1063811583965029,-0.0907271191760695,-0.0058986737580037744,0.06834577816920313,0.5133604476547315
3993,4.0,300.93523999999996,426.32845,0.0,0.0,0.0,0.0,0.0,0.039797470668196555,-0.15949328670576185,0.09342780255535622,-0.06352771821494764,-0.007980492144563252,0.014531435116640986,0.4852834089737435
3994,4.0,300.28154,393.1553,0.0,0.0,0.0,0.0,0.0,0.03980743747778037,-0.16744336858037384,0.09813448099236922,-0.05020050855065445,0.0032023317500955366,-0.005585026850499234,0.49754554890142255
3995,4.0,299.14799999999997,391.84725,0.0,0.0,0.0,0.0,0.0,0.03981740428736419,-0.17607072708682783,0.1021629577001989,-0.04520400410803786,0.030294270040061674,-0.004159390140624846,0.5045440572096215
3996,4.0,300.30039,265.14261,0.0,0.0,0.0,0.0,0.0,0.039827371096948005,-0.1127157751066809,0.0985562301344926,-0.06643718785683993,0.013070560506713886,0.01761967247367628,0.49802693389143154
3997,4.0,300.12104,227.2822,0.0,0.0,0.0,0.0,0.0,0.039837337906531836,-0.1143315847761489,0.08363531586491302,-0.038391845665480165,0.002264275547966598,-0.02163041325175558,0.49609975246623356
3998,4.0,300.34779,580.62475,0.0,0.0,0.0,0.0,0.0,0.03984730471611567,-0.13810633313503387,0.06707185225572643,-0.1054609449206849,-0.03315782628017267,-0.02226909316078838,0.47836225217817857
3999,4.0,300.46757,603.57871,0.0,0.0,0.0,0.0,0.0,0.03985727152569947,-0.14259717916824585,0.04636897929126196,-0.08724466166887773,-0.01108552858030649,-0.0076256876259467735,0.4813685550923775
4000,4.0,299.13521000000003,248.79373999999999,0.0,0.0,0.0,0.0,0.0,0.0398672383352833,-0.13030668850276889,0.0964010218405401,-0.04172141893133346,-0.016462504382472685,0.0076430932361645715,0.4797533432404686
4001,4.0,299.78842000000003,403.63847000000004,0.0,0.0,0.0,0.0,0.0,0.03987720514486712,-0.16055179868772884,0.09793431850136472,-0.06007853077478934,0.007479256369195133,-0.022825427247444276,0.5083876897414585
4002,4.0,300.12854,445.83275999999995,0.0,0.0,0.0,0.0,0.0,0.039887171954450934,-0.14367756721987188,0.07478450430065593,-0.06662896469001683,-0.012404347552713788,-0.0023006007667016174,0.4711370798226095
4003,4.0,299.34362999999996,297.49124,0.0,0.0,0.0,0.0,0.0,0.039897138764034765,-0.15593884588496584,0.12691930222595987,-0.061410357851980436,0.02078542548986178,0.029527248833612574,0.5070643445808545
4004,4.0,299.14497,451.29457,0.0,0.0,0.0,0.0,0.0,0.03990710557361858,-0.14109015202951386,0.0929109831961001,-0.08900311263442331,-0.0003756690708331506,0.028577767628656076,0.5076541270665615
4005,4.0,300.10952000000003,521.79274,0.0,0.0,0.0,0.0,0.0,0.03991707238320241,-0.18126429246189282,0.0880274561396335,-0.06537512949952294,0.004069892292417095,-0.007785588725552782,0.5124561726029866
4006,4.0,300.60925,408.03431,0.0,0.0,0.0,0.0,0.0,0.039927039192786215,-0.15972777304390384,0.1012135058794953,-0.06551797952512114,-0.007262727457275394,-0.008137430196901831,0.5124564461805136
4007,4.0,301.18537000000003,629.32308,0.0,0.0,0.0,0.0,0.0,0.039937006002370046,-0.16260631525299385,0.06891805067993202,-0.09761024058938071,0.026990786951033276,-0.014997927356680187,0.5032925717461095
4008,4.0,301.02916,756.69841,0.0,0.0,0.0,0.0,0.0,0.039946972811953876,-0.16300655917499485,0.06569965526805113,-0.13271051290750788,0.012756517823720288,-0.015233277997157487,0.5125662824913535
4009,4.0,300.9028,547.66581,0.0,0.0,0.0,0.0,0.0,0.03995693962153768,-0.15819014575215187,0.07769380371653142,-0.08598038898910373,-0.008631768576189231,-0.021072151963409478,0.5022766567983465
4010,4.0,301.01982999999996,560.83722,0.0,0.0,0.0,0.0,0.0,0.03996690643112151,-0.13291725645791186,0.04116756528092236,-0.07873081858437683,-0.029542853898402673,0.011783896012979987,0.46401155048187454
4011,4.0,300.01795,404.77008,0.0,0.0,0.0,0.0,0.0,0.03997687324070533,-0.18089274378272382,0.10917719164994988,-0.051324453184329155,-0.014889259323205485,0.02857357479974227,0.49799465174324553
4012,4.0,300.19953,172.88868,0.0,0.0,0.0,0.0,0.0,0.039986840050289144,-0.13556772620199287,0.1062546237240149,-0.023240740224932478,0.0005164549843876385,0.03659118574051887,0.4933415641040216
4013,4.0,300.10873,243.45302999999998,0.0,0.0,0.0,0.0,0.0,0.03999680685987296,-0.13611302700830988,0.095107353762115,-0.03299796479864557,-0.009578034637253421,0.0022388590811331876,0.5055534873567445
4014,4.0,300.18765,375.2751,0.0,0.0,0.0,0.0,0.0,0.04000677366945679,-0.1247488597167539,0.0881204481808111,-0.07744584419180972,0.009118411624942162,0.01068638504791409,0.48171022302609756
4015,4.0,300.43743,387.10193,0.0,0.0,0.0,0.0,0.0,0.040016740479040594,-0.13486377069501787,0.09037252318432361,-0.07317806922111313,0.002154054506063628,0.013710727866893486,0.49987966169928155
4016,4.0,300.97216000000003,509.17022000000003,0.0,0.0,0.0,0.0,0.0,0.040026707288624425,-0.1110192296692449,0.06858072756264084,-0.11233652572675189,0.013102837588649385,0.01122575935439619,0.4699127393292766
4017,4.0,300.00514,707.8571,0.0,0.0,0.0,0.0,0.0,0.04003667409820824,-0.21654883241670578,0.07427942141730813,-0.07290147119556503,0.006791543869273192,-0.025565975938665376,0.5082619048740444
4018,4.0,298.30723,618.56647,0.0,0.0,0.0,0.0,0.0,0.04004664090779206,-0.15173628977020587,0.034946502496201265,-0.07123897400123932,-0.004476346829581036,-0.0100870649403408,0.4555692013111795
4019,4.0,298.89723,235.18502,0.0,0.0,0.0,0.0,0.0,0.04005660771737589,-0.13346158454413287,0.1113327495151869,-0.04936153645460436,0.003978819954878956,-0.012987512502017688,0.5082425720621365
4020,4.0,299.94318,317.34351000000004,0.0,0.0,0.0,0.0,0.0,0.040066574526959706,-0.11699927977192989,0.07999691815408112,-0.05946214439445675,0.0057729832241740844,-0.01809450274878838,0.5094336779521895
4021,4.0,300.92467,480.86530999999997,0.0,0.0,0.0,0.0,0.0,0.040076541336543536,-0.14668196522388285,0.09062081708157832,-0.09010989990415473,-0.012625420486031987,-0.03615294493976787,0.5254998627302986
4022,4.0,299.81262999999996,318.17852999999997,0.0,0.0,0.0,0.0,0.0,0.04008650814612734,-0.13587903716271688,0.0979565431290581,-0.05879583720819735,-0.02115295764563438,-0.01184572656058219,0.4853894759942115
4023,4.0,299.98302,446.12708,0.0,0.0,0.0,0.0,0.0,0.04009647495571117,-0.17303652939737582,0.08382850618197941,-0.046403465258415454,0.0013860608834935586,0.02131747906437138,0.5197591524337345
4024,4.0,300.88629,568.0242099999999,0.0,0.0,0.0,0.0,0.0,0.04010644176529499,-0.17933519599400582,0.0953222063530693,-0.08865219068754002,0.007354345227342364,0.04040635101079636,0.5045654367867315
4025,4.0,300.70486,553.55495,0.0,0.0,0.0,0.0,0.0,0.040116408574878804,-0.16586135080174083,0.09394553383970232,-0.0963510635443596,0.030592568843001468,0.017682306528607784,0.5268655617450826
4026,4.0,299.97251,572.4785,0.0,0.0,0.0,0.0,0.0,0.04012637538446262,-0.14980354560195885,0.07029997588181743,-0.09451559746521322,0.0016291012816297785,-0.0018089737433568081,0.4748244286590225
4027,4.0,298.56818,413.42049,0.0,0.0,0.0,0.0,0.0,0.04013634219404645,-0.11649997038765189,0.10585632524220591,-0.11502585361216788,-0.017659597567366583,-0.017765258274544483,0.5235809696909185
4028,4.0,299.23329,135.50347,0.0,0.0,0.0,0.0,0.0,0.04014630900363027,-0.1120019100137279,0.1147857234709689,-0.04397348684209526,-0.012829771752949887,-0.011817191411265988,0.4967708280074635
4029,4.0,300.0808,323.05713,0.0,0.0,0.0,0.0,0.0,0.040156275813214085,-0.16841374806864284,0.1048081585437599,-0.03459570517908026,-0.015525530736750587,-0.00925864016988164,0.5281561383974525
4030,4.0,300.43095,585.2421400000001,0.0,0.0,0.0,0.0,0.0,0.040166242622797915,-0.17715609019644485,0.06692324696956024,-0.06766615890312994,0.00910521971659022,0.005252067497413705,0.4656028496314235
4031,4.0,299.07974,483.495,0.0,0.0,0.0,0.0,0.0,0.04017620943238172,-0.16927948921908484,0.06550417095275834,-0.04319508582377306,0.004538920900106616,-0.005102679576870265,0.5149461030012236
4032,4.0,300.46193,346.60525,0.0,0.0,0.0,0.0,0.0,0.04018617624196555,-0.11901128036299888,0.0950347189286965,-0.08138277577960462,0.009868491695019303,-0.01112036209224429,0.48475630613922255
4033,4.0,300.01746,439.27340999999996,0.0,0.0,0.0,0.0,0.0,0.04019614305154938,-0.13438562810532886,0.08487217607648162,-0.08401469595410492,-0.0007926460279005723,-0.028790676805918573,0.5278705842542705
4034,4.0,300.71127,536.91205,0.0,0.0,0.0,0.0,0.0,0.040206109861133196,-0.16211909394240884,0.07470063657662883,-0.07578939711383112,-0.006154946087870885,-0.006172863288064175,0.4938913637407825
4035,4.0,300.72215,359.52517,0.0,0.0,0.0,0.0,0.0,0.04021607667071701,-0.15774315047053683,0.1040038811443839,-0.05554741007660254,-0.005275810075081914,0.018783044695242182,0.5096173903278205
4036,4.0,299.56379,224.94971,0.0,0.0,0.0,0.0,0.0,0.04022604348030083,-0.11271996996209488,0.09610005515008702,-0.05175918104698345,-0.013494723210575486,0.024231101005173478,0.4865906029277536
4037,4.0,299.10663999999997,473.06537000000003,0.0,0.0,0.0,0.0,0.0,0.04023601028988466,-0.16915556873185483,0.1031420410068269,-0.07778653940543372,0.0011734817217886287,0.008960049348263022,0.5035290339219465
4038,4.0,298.38144,611.23761,0.0,0.0,0.0,0.0,0.0,0.04024597709946848,-0.15832752220070986,0.06676502897969533,-0.094238481668864,0.003722676510424567,-0.01023947994555799,0.48984902273183456
4039,4.0,298.78693,614.98961,0.0,0.0,0.0,0.0,0.0,0.040255943909052294,-0.17518463987437782,0.07514094542083392,-0.08689779373564452,0.009095659195271671,0.0029528574164743374,0.4982386626323275
4040,4.0,299.18306,405.95112,0.0,0.0,0.0,0.0,0.0,0.040265910718636125,-0.15869335614931485,0.1258495026378789,-0.0905551503690975,-0.004535920362585486,-0.028464178239445675,0.5344316218317945
4041,4.0,298.67047,333.51295,0.0,0.0,0.0,0.0,0.0,0.04027587752821993,-0.16489754730662085,0.1025527043511639,-0.039034761973181065,-0.009071515978513923,-0.007924979211334553,0.5201811609678836
4042,4.0,299.25132,499.45185999999995,0.0,0.0,0.0,0.0,0.0,0.04028584433780376,-0.14418234815468986,0.07660065074014563,-0.08423919671251143,-0.013719053742965188,0.007365801336947993,0.5113341095747476
4043,4.0,299.91733999999997,533.79932,0.0,0.0,0.0,0.0,0.0,0.04029581114738759,-0.18002104472169383,0.08864108141344361,-0.07088170201597933,0.00048494360542020756,0.024806107264672177,0.5139222340401756
4044,4.0,300.3455,378.79145,0.0,0.0,0.0,0.0,0.0,0.040305777956971406,-0.1057437632885969,0.08655983328404042,-0.0959592083199365,-0.003993210639424207,0.005151047577018815,0.5108772452371585
4045,4.0,300.09741,256.91253,0.0,0.0,0.0,0.0,0.0,0.04031574476655522,-0.16023519856148286,0.12860470191229587,-0.046464488245687954,-0.013266646692566088,-0.0042755089060598755,0.49279079174716456
4046,4.0,300.27365,382.32329,0.0,0.0,0.0,0.0,0.0,0.04032571157613904,-0.17232907817755583,0.10053848474237591,-0.044426136059268255,0.011233461068406291,-0.0027319200560195172,0.48565655858807055
4047,4.0,300.09041,431.40152,0.0,0.0,0.0,0.0,0.0,0.04033567838572287,-0.17902653974854382,0.10477836899081988,-0.05688711922632154,0.0033010177502100875,0.012231514443406487,0.4880092543927635
4048,4.0,299.94723999999997,337.18476,0.0,0.0,0.0,0.0,0.0,0.0403456451953067,-0.1033080012407059,0.1015908564287369,-0.10077860981732441,0.01780032686050548,0.0035316629585479963,0.49877843109309855
4049,4.0,299.52513,194.79295,0.0,0.0,0.0,0.0,0.0,0.040355612004890504,-0.12328083257437089,0.1181574043712279,-0.054088768669895856,-0.025923210433671677,-0.02128021375219358,0.5019857830921395
4050,4.0,299.20407,345.69164,0.0,0.0,0.0,0.0,0.0,0.040365578814474334,-0.10728543344824791,0.09600912304636271,-0.09380531522461381,-0.011947159988342887,-0.020205253681353282,0.5137224616504594
4051,4.0,299.93748999999997,425.88117,0.0,0.0,0.0,0.0,0.0,0.04037554562405814,-0.16476950289148384,0.09170469071354831,-0.05639242620949915,-0.013303072020410988,-0.010342942913268989,0.49567032694135255
4052,4.0,299.98158,480.18545,0.0,0.0,0.0,0.0,0.0,0.04038551243364197,-0.15488686936614385,0.09029019965344892,-0.08136771077711782,-0.014963928762824786,-0.018167930957035183,0.5390120594388484
4053,4.0,300.1313,589.24607,0.0,0.0,0.0,0.0,0.0,0.0403954792432258,-0.18599440737371883,0.06974657008795053,-0.06286825857286404,-0.004245388121662186,-0.0008044217469852452,0.49560373614478054
4054,4.0,299.41325,632.42682,0.0,0.0,0.0,0.0,0.0,0.040405446052809615,-0.17235036656215683,0.07422399663683812,-0.09411559267023582,-0.001194060223369569,-0.013506641058251688,0.5177282141982965
4055,4.0,300.56865,522.5638799999999,0.0,0.0,0.0,0.0,0.0,0.04041541286239343,-0.16646090101841185,0.09315934599436161,-0.08554481607586602,0.017592185024963482,0.04139141046651416,0.4937951657762885
4056,4.0,299.69256,394.11798999999996,0.0,0.0,0.0,0.0,0.0,0.04042537967197725,-0.12675422351966786,0.0995512903686974,-0.092599093669569,0.01123017611158209,-0.0009754204885765071,0.5465822637184694
4057,4.0,299.74406,469.08893,0.0,0.0,0.0,0.0,0.0,0.04043534648156108,-0.17971426298891682,0.10574362143358292,-0.06862068001408383,0.002347199226875528,0.00961290928714528,0.5046486955474485
4058,4.0,300.22919,491.22605,0.0,0.0,0.0,0.0,0.0,0.04044531329114491,-0.18572068799170482,0.11121071367314289,-0.07481047390071893,-0.004355831774612125,-0.013255443186210386,0.5203299871425715
4059,4.0,300.93244,383.82626,0.0,0.0,0.0,0.0,0.0,0.04045528010072871,-0.16207512902056984,0.08420883973951541,-0.03880731367023366,-0.017927521158808583,0.01056219908915789,0.4948871048790545
4060,4.0,300.50971,517.45561,0.0,0.0,0.0,0.0,0.0,0.040465246910312544,-0.14666262227947385,0.0957851714695104,-0.1064161256574539,-0.016720090796394485,-0.016036136846393486,0.5135831296292085
4061,4.0,299.81215,673.09766,0.0,0.0,0.0,0.0,0.0,0.04047521371989635,-0.14507067464986087,0.053384707784910446,-0.1129189216192299,-0.02247878932198378,-0.0060641858313635446,0.5113307557169166
4062,4.0,298.41191000000003,512.12107,0.0,0.0,0.0,0.0,0.0,0.04048518052948018,-0.12743950482729988,0.07191081758604513,-0.10014333138887731,0.018762013676166582,-0.006715848311277624,0.4988474435574095
4063,4.0,299.47382000000005,386.68233,0.0,0.0,0.0,0.0,0.0,0.04049514733906401,-0.17429941392451284,0.11354884907389888,-0.05679121003810604,0.004682707776747275,0.021617648326995777,0.5156755316157124
4064,4.0,299.69042,174.36912,0.0,0.0,0.0,0.0,0.0,0.040505114148647825,-0.11452631118036691,0.09741658924351881,-0.035894135532975366,0.017332003677535585,-0.0013193683566115188,0.48944081466404754
4065,4.0,299.50605,128.88838,0.0,0.0,0.0,0.0,0.0,0.04051508095823164,-0.13346479654694987,0.11749244886060188,-0.023206502504053476,-0.015138282760532185,-0.026121960454036773,0.5188670363831895
4066,4.0,299.51559,475.52437000000003,0.0,0.0,0.0,0.0,0.0,0.04052504776781546,-0.14203744968050486,0.0939913854332275,-0.0965014703892036,0.0059503557952543945,-0.004684244066548896,0.47959459734730153
4067,4.0,299.58597000000003,514.4841700000001,0.0,0.0,0.0,0.0,0.0,0.04053501457739929,-0.14892088317484686,0.08628226760464683,-0.09375172138707451,-0.013484141839781185,0.008617361882292401,0.5088394371660425
4068,4.0,299.71132,224.12876,0.0,0.0,0.0,0.0,0.0,0.04054498138698312,-0.0981220980628971,0.1129598670557709,-0.08296730945823592,-0.016547083408069985,-0.009020189794698421,0.5016099179675445
4069,4.0,301.43021,589.2837400000001,0.0,0.0,0.0,0.0,0.0,0.04055494819656692,-0.2009676803289658,0.0876761329457106,-0.06583599212200653,-0.015780656979429587,-0.01362210496014709,0.5180944027844365
4070,4.0,300.70694,923.3824300000001,0.0,0.0,0.0,0.0,0.0,0.040564915006150754,-0.22131832222741776,0.06021360714562035,-0.11958048373917489,0.013357181602251187,-0.016191144859941584,0.48886844994755946
4071,4.0,299.85904,673.30723,0.0,0.0,0.0,0.0,0.0,0.040574881815734556,-0.2030883519932598,0.08364181687755462,-0.08522204626976111,0.02078156804673108,0.008389465013525731,0.5118458718027545
4072,4.0,300.18055,211.01962000000003,0.0,0.0,0.0,0.0,0.0,0.04058484862531839,-0.11747866865924188,0.1187564682278509,-0.06542250299469834,0.008962297648909911,-0.016528127525199186,0.5111836520673985
4073,4.0,299.73933999999997,216.17486,0.0,0.0,0.0,0.0,0.0,0.04059481543490222,-0.1088485135825119,0.10593655438512391,-0.06279980440935815,-0.02405704591624558,-0.01980628442797808,0.5298361577257574
4074,4.0,299.85376,599.91134,0.0,0.0,0.0,0.0,0.0,0.040604782244486035,-0.16305345238962285,0.07380610493784542,-0.0931107231618129,0.014845553793392087,0.014901571325170586,0.5388373244591035
4075,4.0,299.63453,657.67946,0.0,0.0,0.0,0.0,0.0,0.04061474905406985,-0.2127829465650418,0.08002420903227453,-0.06715939909086664,0.004852090262839026,0.03779797572886976,0.5324690577131045
4076,4.0,299.43636000000004,404.94102999999996,0.0,0.0,0.0,0.0,0.0,0.04062471586365367,-0.16619930010759384,0.1042295015441509,-0.06112216419228794,-0.009377789971665811,0.016533710533250184,0.5310566073387065
4077,4.0,299.69901,352.14446,0.0,0.0,0.0,0.0,0.0,0.0406346826732375,-0.14440303402646987,0.09431688392185171,-0.05695697167496544,-0.014209377625356385,-0.005322421504857105,0.4975912870109366
4078,4.0,301.28032,565.07455,0.0,0.0,0.0,0.0,0.0,0.04064464948282133,-0.13993141948015586,0.06588498884384214,-0.0977221206256724,0.03082321395001437,-0.009964539394523471,0.48603800672071656
4079,4.0,300.11113,774.92401,0.0,0.0,0.0,0.0,0.0,0.04065461629240513,-0.1887040914536438,0.07419596507282163,-0.12104942280664789,0.03205523589235547,0.007711044118345804,0.4975098824979025
4080,4.0,301.17942999999997,527.25015,0.0,0.0,0.0,0.0,0.0,0.04066458310198896,-0.15552982721709885,0.08143182823019572,-0.08617288624310172,0.016012341681045088,-0.02326327490715648,0.5005282228232896
4081,4.0,301.78765,-50.327788,0.0,0.0,0.0,0.0,0.0,0.040674549911572766,-0.1135870486026689,0.13937647253288687,-0.010491037521384791,-0.012577668035319187,-0.009674954137143631,0.5110678274484676
4082,4.0,301.5599,92.393135,0.0,0.0,0.0,0.0,0.0,0.0406845167211566,-0.09957738054552231,0.1024884946923269,-0.030996317597098366,-0.04437231525370655,0.0007145239385655224,0.4827290054716435
4083,4.0,300.96218999999996,603.8702900000001,0.0,0.0,0.0,0.0,0.0,0.04069448353074043,-0.1960054298192298,0.07663409508619633,-0.06419015782557534,-0.006333062485849604,0.01059860617850099,0.5110771088193835
4084,4.0,300.68683,743.3657599999999,0.0,0.0,0.0,0.0,0.0,0.040704450340324244,-0.16779029528211284,0.07409521457562833,-0.13226954646398786,-0.02293863970761748,-0.013157358550030186,0.5228436073281465
4085,4.0,300.39065,383.90213,0.0,0.0,0.0,0.0,0.0,0.04071441714990806,-0.13689560059054387,0.09342791401286722,-0.07322897186638684,0.007303112161211054,-0.016547132044074785,0.5294278483329604
4086,4.0,300.56495,276.29977,0.0,0.0,0.0,0.0,0.0,0.04072438395949188,-0.13307662043363988,0.11685338189003087,-0.06776499537088435,0.0013151860654987586,0.0024138889166572877,0.5314500523525365
4087,4.0,299.83089,477.85664,0.0,0.0,0.0,0.0,0.0,0.04073435076907571,-0.18281150509959082,0.1075061699825329,-0.06995115440239143,0.019088315672120083,0.02344081861617868,0.5305618677123796
4088,4.0,299.98512999999997,869.5469,0.0,0.0,0.0,0.0,0.0,0.04074431757865954,-0.22334595726752976,0.07573725425043502,-0.11671184098356188,0.0073993728458862425,0.006564777483643093,0.5353992047497875
4089,4.0,299.92115,660.05534,0.0,0.0,0.0,0.0,0.0,0.04075428438824334,-0.1899055324947168,0.08369912022371001,-0.0944339234276526,-0.005775399420362545,-0.007619434859579673,0.4869487159105965
4090,4.0,300.6969,262.11197999999996,0.0,0.0,0.0,0.0,0.0,0.04076425119782717,-0.1126380385590089,0.1052756518748979,-0.07231310827324813,-0.026492008509807676,0.013149706485274987,0.49779948964148457
4091,4.0,299.87754,213.78856000000002,0.0,0.0,0.0,0.0,0.0,0.04077421800741099,-0.11900643702752088,0.1070159899816559,-0.052995934867291546,-0.01952642981660858,-0.012697782755173588,0.48641285859521155
4092,4.0,298.23229,376.58222,0.0,0.0,0.0,0.0,0.0,0.040784184816994806,-0.14966415278570186,0.10695522537315891,-0.07176266724917384,-0.0036771521966816666,-0.030461069245023467,0.5440583590443795
4093,4.0,298.71128,500.8676,0.0,0.0,0.0,0.0,0.0,0.04079415162657864,-0.17300581778684485,0.08868103994438722,-0.06792646082731973,0.0075188657341542725,-0.016404374224235685,0.5068138184936295
4094,4.0,299.97282,319.53483,0.0,0.0,0.0,0.0,0.0,0.040804118436162454,-0.12771155234664888,0.08217278357782233,-0.05159183570021775,0.019885033212499983,0.018168533840844683,0.5108150114160165
4095,4.0,300.20215,138.52521000000002,0.0,0.0,0.0,0.0,0.0,0.04081408524574627,-0.1121022521711309,0.08721826346402242,-0.017224218184897985,0.01087296188157779,0.027191229099065375,0.4885865739022406
4096,4.0,300.65814,403.7828,0.0,0.0,0.0,0.0,0.0,0.04082405205533009,-0.11494469227915789,0.07457326191980794,-0.08236846142388421,0.009161210802541111,-0.002091744387189098,0.4921485330387786
4097,4.0,299.71577,726.85229,0.0,0.0,0.0,0.0,0.0,0.04083401886491392,-0.18232542876161884,0.05731388192993974,-0.095933395773639,0.01220364297290579,-0.01028737425128479,0.5065702736995935
4098,4.0,299.23255,619.9844400000001,0.0,0.0,0.0,0.0,0.0,0.04084398567449775,-0.14001037192794785,0.06441912093742223,-0.11286854282425789,0.013568555705612186,0.012616416745643387,0.4970546697579765
4099,4.0,300.95689,321.81867,0.0,0.0,0.0,0.0,0.0,0.04085395248408155,-0.15922553536683684,0.1100430949204079,-0.04864240448763155,-0.005529751524418985,0.004031306918009016,0.5298336853955136
4100,4.0,300.22982,111.79561000000001,0.0,0.0,0.0,0.0,0.0,0.04086391929366538,-0.12193179139123089,0.1344229258415099,-0.04647421038039746,-0.04697535172085625,0.004602282367284906,0.5111507619691524
4101,4.0,299.51212999999996,368.94699999999995,0.0,0.0,0.0,0.0,0.0,0.0408738861032492,-0.15093436311106184,0.0998789957160394,-0.061095307998387444,-0.03242547545239527,-0.001045469933304849,0.5270505305508375
4102,4.0,298.85106,751.9934900000001,0.0,0.0,0.0,0.0,0.0,0.040883852912833016,-0.18877150298279682,0.07958761577618613,-0.11940335748919388,0.01309474577335079,0.04228569385902306,0.4912817685057355
4103,4.0,299.61881,726.77481,0.0,0.0,0.0,0.0,0.0,0.040893819722416846,-0.1983484288204658,0.07802834647554822,-0.10060130827507609,0.0014602335265888285,0.004807228006711465,0.5347643832971355
4104,4.0,300.64623,344.14724,0.0,0.0,0.0,0.0,0.0,0.04090378653200066,-0.14730379681025285,0.09851878041079659,-0.05582715221721094,0.0052474278252058046,-0.017216072667344085,0.5333166718192575
4105,4.0,300.78841,396.83778,0.0,0.0,0.0,0.0,0.0,0.04091375334158448,-0.17556403110932084,0.10096489078195892,-0.04602963271352105,0.0034886401566519764,-0.05439563044943075,0.5498265486836554
4106,4.0,300.36869,797.65234,0.0,0.0,0.0,0.0,0.0,0.0409237201511683,-0.19532553900212982,0.06048372138377854,-0.1076245783892189,0.017903656079203283,0.013534515568502686,0.5261731978192514
4107,4.0,299.61888999999996,843.0359800000001,0.0,0.0,0.0,0.0,0.0,0.04093368696075213,-0.19429042296497182,0.06568611014071433,-0.12765757651382187,0.016089674955177286,0.017932918742091283,0.5058121397097716
4108,4.0,299.68922000000003,438.65114000000005,0.0,0.0,0.0,0.0,0.0,0.04094365377033596,-0.12072278137191089,0.08693097362341912,-0.09954718569254231,-0.019615884601687082,0.003923496600743966,0.5148003368418375
4109,4.0,299.54837000000003,61.356713,0.0,0.0,0.0,0.0,0.0,0.04095362057991976,-0.09035833464317332,0.12301508747064388,-0.051307662616922045,-0.0026330505563118573,0.0017362161040261883,0.4801878856783546
4110,4.0,298.302,195.62531,0.0,0.0,0.0,0.0,0.0,0.04096358738950359,-0.10902428207735888,0.11435081626304688,-0.06479174163519703,0.015452688187061588,0.009010054051298101,0.49742050370658153
4111,4.0,298.59659,551.4179,0.0,0.0,0.0,0.0,0.0,0.04097355419908741,-0.17694401695051484,0.08308691653979021,-0.07376017633731263,0.045445761528897455,0.016964917351806982,0.5052793221446865
4112,4.0,299.64942,436.94619000000006,0.0,0.0,0.0,0.0,0.0,0.040983521008671225,-0.16255096140003084,0.0968406244494255,-0.06711039527628034,-0.02091204527535818,-0.012583135532858789,0.5286172786504635
4113,4.0,300.5461,17.376412,0.0,0.0,0.0,0.0,0.0,0.040993487818255056,-0.0949497153513073,0.1159848036393089,-0.026317087092044274,-0.026012510191484872,-0.01093647239784579,0.5161594294659695
4114,4.0,301.32472,178.51098000000002,0.0,0.0,0.0,0.0,0.0,0.04100345462783887,-0.08733878956341742,0.09374713845687221,-0.060671230407534235,-0.036047447365856064,0.027917051556448476,0.4979929190855745
4115,4.0,299.79267000000004,852.61812,0.0,0.0,0.0,0.0,0.0,0.04101342143742269,-0.2115317650765598,0.06061920913415015,-0.10826206468963391,0.02323761130862368,0.021788324226840183,0.5129814110573235
4116,4.0,299.65282,1056.5654,0.0,0.0,0.0,0.0,0.0,0.041023388247006506,-0.2246178901180598,0.03474761974007307,-0.13129923790322587,0.015298667079110885,-0.007156035160170683,0.5018486295586034
4117,4.0,300.22244,485.86457,0.0,0.0,0.0,0.0,0.0,0.04103335505659034,-0.1968103860961728,0.1030094876287449,-0.05388980485375966,0.008257746249551102,-0.029551569875762875,0.5248504504762065
4118,4.0,299.40165,68.71416500000001,0.0,0.0,0.0,0.0,0.0,0.04104332186617414,-0.1025735266407189,0.12085762469521888,-0.03917149196817526,0.012635978552073988,-0.008367743160531953,0.5048433915541636
4119,4.0,299.38139,274.68115,0.0,0.0,0.0,0.0,0.0,0.04105328867575797,-0.15418741268961283,0.1304032309722969,-0.05971203213411874,0.005163070904030425,-0.007902316656947931,0.5275553621481605
4120,4.0,301.1335,677.93021,0.0,0.0,0.0,0.0,0.0,0.04106325548534179,-0.14906743966931085,0.08630536869367672,-0.14331178393377186,0.014449859364340088,0.0018227514115915584,0.5152785199615305
4121,4.0,299.72354,275.26968,0.0,0.0,0.0,0.0,0.0,0.04107322229492562,-0.15845253699804784,0.13217270001942988,-0.057395274283972536,-0.0037589414407786367,-0.005681015173547545,0.5038475896208855
4122,4.0,300.4743,119.02543,0.0,0.0,0.0,0.0,0.0,0.041083189104509435,-0.09403721372200041,0.10509574931964291,-0.047239297292405655,-0.0034745626677126365,0.041346577189339456,0.4975215044765495
4123,4.0,300.57642000000004,335.24688,0.0,0.0,0.0,0.0,0.0,0.04109315591409325,-0.19416035204963483,0.09919225836801371,-0.006938590878110603,-0.012086717964366188,0.007561519105063833,0.5115804914690635
4124,4.0,299.31057000000004,765.95726,0.0,0.0,0.0,0.0,0.0,0.04110312272367708,-0.1952345086131458,0.05475660383730604,-0.09235397124512731,-0.021545915286166277,-0.02045714461646298,0.5275249038501545
4125,4.0,298.34896000000003,1015.4491,0.0,0.0,0.0,0.0,0.0,0.041113089533260885,-0.22925964962116577,0.047794704255220054,-0.12720622425677688,0.002162997755421258,-0.005677957286070755,0.5153002440436746
4126,4.0,299.31706,484.62673,0.0,0.0,0.0,0.0,0.0,0.041123056342844716,-0.09827477762771542,0.06550574250366344,-0.11454539067974988,0.0038754269014248566,0.007116355374329592,0.5117165304274895
4127,4.0,298.93242000000004,-81.76770400000001,0.0,0.0,0.0,0.0,0.0,0.04113302315242853,-0.05883635201344585,0.1071071014306479,-0.023415413396421378,0.019583580161998883,-0.00015918370840270883,0.5041117236569534
4128,4.0,299.71539,243.34928,0.0,0.0,0.0,0.0,0.0,0.04114298996201235,-0.12405149033542888,0.12516713949053487,-0.07508775384358433,0.02168102002800008,-0.008035333292975653,0.5062797444984205
4129,4.0,299.86329,585.09753,0.0,0.0,0.0,0.0,0.0,0.041152956771596166,-0.1943758298159008,0.08113135803229161,-0.06461056137156594,0.037381906866806966,-0.008547793852951572,0.5085382891038215
4130,4.0,300.46267,214.4484,0.0,0.0,0.0,0.0,0.0,0.04116292358118,-0.13194227681418885,0.10442390370833689,-0.037668589770600364,0.03891351950596536,0.0012250313272511788,0.4879172715486855
4131,4.0,300.46715,126.91895,0.0,0.0,0.0,0.0,0.0,0.04117289039076383,-0.12168656460202888,0.12913173381930987,-0.04602536287759966,-0.014771312958565085,-0.016526927837080783,0.5334470264446225
4132,4.0,301.0023,438.02315,0.0,0.0,0.0,0.0,0.0,0.04118285720034763,-0.13330428759860885,0.08462364811845383,-0.08446746270828952,-0.027661124846190474,-0.007736738317031623,0.5018409288578435
4133,4.0,300.59704,751.92678,0.0,0.0,0.0,0.0,0.0,0.04119282400993146,-0.18719856392505982,0.08361515117467293,-0.12498355883741688,-0.014022751142437785,0.002003733686153118,0.5290343222591225
4134,4.0,299.29427999999996,846.9315,0.0,0.0,0.0,0.0,0.0,0.04120279081951528,-0.2095916849775888,0.05310159557446945,-0.100955934664325,0.003215440571939277,0.04121098000795706,0.5203547509750155
4135,4.0,299.30966,666.10018,0.0,0.0,0.0,0.0,0.0,0.041212757629099095,-0.2236177413418528,0.09317034786394741,-0.07203043378685033,0.0007722541467230502,0.014231531325542788,0.5610714463059405
4136,4.0,300.14358,333.78604,0.0,0.0,0.0,0.0,0.0,0.04122272443868291,-0.17358459637646584,0.13416314878087188,-0.06204117190048695,-0.03337702166105557,0.012099008688079187,0.5455910416756435
4137,4.0,299.00389,256.50144,0.0,0.0,0.0,0.0,0.0,0.04123269124826674,-0.14578732618058887,0.1049285529206419,-0.037111265738596765,0.001116323270397529,0.00021562821364084779,0.5360155242556135
4138,4.0,298.93769,577.45183,0.0,0.0,0.0,0.0,0.0,0.04124265805785056,-0.13536027337651887,0.08912592057304351,-0.12929658961057988,0.023074631043288777,0.009340381183273851,0.5165023538298135
4139,4.0,299.5408,528.9381599999999,0.0,0.0,0.0,0.0,0.0,0.041252624867434376,-0.1331591091242809,0.08623703612018283,-0.1138619230897969,0.014779873908659988,-0.013172361744260884,0.5217495809301745
4140,4.0,299.77768,160.99874,0.0,0.0,0.0,0.0,0.0,0.04126259167701821,-0.11275014455007289,0.10573489735022192,-0.04192434860836106,-0.0035457834092915766,-0.04038185366312866,0.4952241219948155
4141,4.0,300.12118,165.33141,0.0,0.0,0.0,0.0,0.0,0.04127255848660201,-0.13674060372274685,0.12701189302009788,-0.040527906572292965,-0.004642677305046576,-0.019604567611320182,0.5071735121466285
4142,4.0,300.37214,351.17914,0.0,0.0,0.0,0.0,0.0,0.04128252529618584,-0.15952356261874984,0.09011065578872932,-0.037336781773603465,0.002100233903151948,0.006047559309147635,0.47906765663279655
4143,4.0,300.17437,629.64788,0.0,0.0,0.0,0.0,0.0,0.04129249210576967,-0.1885713556905438,0.07858269965825863,-0.08140857616690092,-0.004786872926777576,-0.011594843809321988,0.5088042368575686
4144,4.0,300.24033,771.27257,0.0,0.0,0.0,0.0,0.0,0.04130245891535349,-0.16037906994318185,0.05810558894857515,-0.13217411856956987,-0.014864919029303286,-0.0049507284375488545,0.5086537894827206
4145,4.0,300.56022,490.67665999999997,0.0,0.0,0.0,0.0,0.0,0.041312425724937304,-0.14389521334135186,0.05896162214980904,-0.06421986429200714,-0.024234678791276578,0.02163641473209788,0.5133410236503145
4146,4.0,299.75862,174.26475,0.0,0.0,0.0,0.0,0.0,0.04132239253452112,-0.08642277600926392,0.11884371919396187,-0.08539307883364072,0.01049561234558629,0.03613563660155966,0.5421903818225244
4147,4.0,299.43872000000005,627.29991,0.0,0.0,0.0,0.0,0.0,0.04133235934410495,-0.16678782616317683,0.053165374602013954,-0.07706105942658442,0.006010115968927265,0.009165153763980251,0.5465380454841055
4148,4.0,298.95481,826.3539999999999,0.0,0.0,0.0,0.0,0.0,0.04134232615368877,-0.2129276082818188,0.08061435831451771,-0.11887772386731789,0.010134930773739791,-0.004753595361693336,0.5468554359454295
4149,4.0,300.23471,367.20545,0.0,0.0,0.0,0.0,0.0,0.041352292963272586,-0.16559244435770185,0.11897696158211188,-0.06500580693082364,0.0037037729112589265,-0.0037447078099988864,0.5148120804104964
4150,4.0,299.70839,94.622066,0.0,0.0,0.0,0.0,0.0,0.041362259772856416,-0.06284060900413524,0.08352729935125262,-0.04944943590077936,0.016447520439993885,-0.006181562749447744,0.4897575161153035
4151,4.0,299.74386,448.56627000000003,0.0,0.0,0.0,0.0,0.0,0.04137222658244022,-0.1892351256985528,0.13456207547774288,-0.08167988907992742,0.011592510294341688,-0.01837443639366568,0.5126413035287575
4152,4.0,300.02935,831.60749,0.0,0.0,0.0,0.0,0.0,0.04138219339202405,-0.1941178968704448,0.07048862379868553,-0.1291586356094649,0.0035640179594161863,-0.011554485044588888,0.5303974070886485
4153,4.0,299.84533999999996,533.56555,0.0,0.0,0.0,0.0,0.0,0.04139216020160788,-0.1957358748951268,0.09029771492944061,-0.05675244410253015,0.005831193429168984,0.011998948214203988,0.5171659921153094
4154,4.0,300.7726,320.73652999999996,0.0,0.0,0.0,0.0,0.0,0.0414021270111917,-0.14994461028088085,0.11948910884515687,-0.06704039590637194,-0.024764319817298076,0.021662812936953182,0.5482577639513284
4155,4.0,301.30407,316.83911,0.0,0.0,0.0,0.0,0.0,0.041412093820775514,-0.15090432024559686,0.1101456256980269,-0.05555248443310335,-0.026504926435332574,0.003909790265316257,0.5175155431348075
4156,4.0,299.94834,677.06601,0.0,0.0,0.0,0.0,0.0,0.04142206063035933,-0.15376633634555584,0.05548253876545024,-0.10752735704212389,-0.014962542636687986,-0.016312775401945586,0.5169314652471635
4157,4.0,299.48084,822.328,0.0,0.0,0.0,0.0,0.0,0.04143202743994316,-0.1898836564250578,0.07703939613944642,-0.13712292325047887,-0.007688217113467953,0.022422346225163276,0.5216998100852626
4158,4.0,299.61055,307.07585,0.0,0.0,0.0,0.0,0.0,0.04144199424952698,-0.08076162205755152,0.06963333634952523,-0.08221510602124922,0.014888565246886988,0.007814680757123943,0.5190513668413815
4159,4.0,299.59414,-116.54007,0.0,0.0,0.0,0.0,0.0,0.041451961059110795,-0.08762774620043523,0.16142829042173185,-0.03837527294684456,-0.003648019027156447,-0.01921245806112198,0.5396578037275784
4160,4.0,299.89524,342.53513,0.0,0.0,0.0,0.0,0.0,0.041461927868694626,-0.14744906647708983,0.11069659057240289,-0.06736964544686634,0.03134280556154407,-0.005083540903681425,0.5351527924579685
4161,4.0,298.89894,709.88409,0.0,0.0,0.0,0.0,0.0,0.04147189467827843,-0.17249157309609284,0.05775387058711324,-0.10104933099229249,0.031043957577050075,-0.007380409667614722,0.49873014972583357
4162,4.0,299.46769,439.27662999999995,0.0,0.0,0.0,0.0,0.0,0.04148186148786226,-0.14334617364216587,0.09732217257270061,-0.08750511963358291,0.04102804884815316,-0.009195254891326,0.5088411900887155
4163,4.0,300.04253,269.861,0.0,0.0,0.0,0.0,0.0,0.04149182829744609,-0.1298119184789389,0.0881225912047726,-0.04034167424366326,-0.025827422835468176,-0.026339317799238274,0.5010249281548105
4164,4.0,300.46211,494.22995,0.0,0.0,0.0,0.0,0.0,0.04150179510702991,-0.17456698287841985,0.1017427426187269,-0.07740932767145582,-0.008092993607141281,-0.010456837290759491,0.5318754451420195
4165,4.0,300.64274,752.73493,0.0,0.0,0.0,0.0,0.0,0.041511761916613724,-0.21952180953511577,0.08725864857325812,-0.09654946399344022,-0.01099727550984659,0.039846933604086164,0.5504710669397644
4166,4.0,300.35967999999997,608.27034,0.0,0.0,0.0,0.0,0.0,0.04152172872619754,-0.17181114525643984,0.07713755170313362,-0.09022539926980361,-0.017526214337452682,0.031269294266789066,0.5347820746438815
4167,4.0,299.11024,270.69595,0.0,0.0,0.0,0.0,0.0,0.04153169553578137,-0.12056836205667087,0.13433794455562287,-0.0960543970873309,-0.003610111111765226,0.00897279410934583,0.5595914830773795
4168,4.0,300.40511000000004,232.63525,0.0,0.0,0.0,0.0,0.0,0.04154166234536519,-0.1257378120793559,0.1096616265227599,-0.05463912154121144,-0.02224425434783698,-0.01207501391246109,0.5051719682965915
4169,4.0,298.87511,387.50864,0.0,0.0,0.0,0.0,0.0,0.041551629154949005,-0.14162068978187387,0.0933275130869584,-0.06949977478759373,0.02820087608170977,0.01070660648015979,0.5115625062797885
4170,4.0,298.93686,578.05003,0.0,0.0,0.0,0.0,0.0,0.041561595964532835,-0.18088591447704983,0.08265485757789932,-0.07748172135135052,0.026388297295822177,-0.008176467784829543,0.5054449277410306
4171,4.0,299.20908,497.24422000000004,0.0,0.0,0.0,0.0,0.0,0.04157156277411664,-0.17219227928155484,0.08875540946197692,-0.06771295383249823,0.018896958324484583,-0.0007823895557508373,0.5523513348853325
4172,4.0,300.52037,183.28647,0.0,0.0,0.0,0.0,0.0,0.04158152958370047,-0.13130107188590687,0.13467003727589788,-0.05908348269958574,-0.01047032972909109,0.001273688812953299,0.5085828619757206
4173,4.0,300.27561000000003,266.98303,0.0,0.0,0.0,0.0,0.0,0.0415914963932843,-0.14086503825479688,0.1019505298167339,-0.042241669155428166,-0.007750552462269972,0.023370462582235078,0.5342153537304505
4174,4.0,301.12354,565.06622,0.0,0.0,0.0,0.0,0.0,0.041601463202868116,-0.16301867764619082,0.06474027460961763,-0.07348761915316333,0.007566463866876843,0.007543844882244523,0.49356601926617355
4175,4.0,300.58492,616.08924,0.0,0.0,0.0,0.0,0.0,0.04161143001245193,-0.18214711700902084,0.07290469637063333,-0.07803332254678934,-0.016626762356183683,-0.01968843432209718,0.5114010955388585
4176,4.0,300.49309,453.48265,0.0,0.0,0.0,0.0,0.0,0.04162139682203575,-0.15548660196783284,0.07970985122849983,-0.06207065443864665,0.0056943129665349345,-0.025084018462349877,0.5021203123079165
4177,4.0,299.89974,366.81858,0.0,0.0,0.0,0.0,0.0,0.04163136363161958,-0.15071375829928985,0.09439770480282811,-0.055187633337095345,-0.026965068636995073,0.005835439555038045,0.5271518555608375
4178,4.0,299.65626000000003,313.95687000000004,0.0,0.0,0.0,0.0,0.0,0.0416413304412034,-0.10391563719317491,0.1036184205413419,-0.0951378373913735,0.012560090172584387,0.019586486163285684,0.5213538561036195
4179,4.0,299.8158,533.39904,0.0,0.0,0.0,0.0,0.0,0.041651297250787214,-0.13387908411533686,0.07702812373208393,-0.10528902677621789,-0.017911931292769984,0.017479498441592183,0.5319705791939086
4180,4.0,299.90182999999996,591.0789599999999,0.0,0.0,0.0,0.0,0.0,0.041661264060371045,-0.14931297043354286,0.08892933688139222,-0.1192896100329679,0.006024754190471944,0.006404000429325634,0.5148227499340495
4181,4.0,300.27025,496.04514000000006,0.0,0.0,0.0,0.0,0.0,0.04167123086995485,-0.17034767773950685,0.07801398061563042,-0.05845163513597724,0.009242947965582941,0.02162326983855058,0.49919425880163754
4182,4.0,299.41898,453.60053,0.0,0.0,0.0,0.0,0.0,0.04168119767953868,-0.16120185942188484,0.09332945650065022,-0.07001083685978163,0.026414500956658274,-0.012704810657867188,0.5264646997405205
4183,4.0,300.30327,553.16929,0.0,0.0,0.0,0.0,0.0,0.04169116448912251,-0.1866345078593918,0.09890708824661959,-0.08042222887030602,0.030462027779618074,-0.03451976512383557,0.5409205869297055
4184,4.0,300.49384,759.47221,0.0,0.0,0.0,0.0,0.0,0.041701131298706326,-0.17281929870843682,0.06498985128149894,-0.12303114748472888,0.013671093575981884,-0.026891950483278877,0.5583644676037826
4185,4.0,301.58037,652.63967,0.0,0.0,0.0,0.0,0.0,0.04171109810829014,-0.17887049923314383,0.08627635326381311,-0.10579201425835891,0.007437254315449853,0.03017418875746057,0.5376340190378465
4186,4.0,301.55865,358.61413,0.0,0.0,0.0,0.0,0.0,0.04172106491787396,-0.12038789208135989,0.1060675372255509,-0.0946893941753656,-0.009033343807496621,0.014372010345906986,0.5382992582585004
4187,4.0,299.90763,376.71355,0.0,0.0,0.0,0.0,0.0,0.04173103172745779,-0.14159076850642086,0.09925928080912831,-0.07218002699186403,-0.033519001304817865,0.005507288580302064,0.5137326650789665
4188,4.0,301.13177,582.06008,0.0,0.0,0.0,0.0,0.0,0.04174099853704162,-0.16832561557494485,0.08823819898818222,-0.09684431673278991,-0.02849517761300507,-0.0002956103464494697,0.5248270545313974
4189,4.0,300.85046,514.07402,0.0,0.0,0.0,0.0,0.0,0.041750965346625424,-0.18302610133826985,0.08174955914355332,-0.05498912852325445,-0.0045682218638483955,0.028231941316525674,0.5055904101903885
4190,4.0,299.27488999999997,335.93622,0.0,0.0,0.0,0.0,0.0,0.041760932156209254,-0.1132188233838279,0.09623584484898841,-0.08513324503099712,0.0024951785271299476,0.006822870015989843,0.5176278619083925
4191,4.0,299.62316,223.07881,0.0,0.0,0.0,0.0,0.0,0.04177089896579306,-0.09069287841544023,0.09754608260629882,-0.07466359215297283,0.007957540408598092,-0.03073462144077097,0.5099363310617975
4192,4.0,300.25616,453.08426,0.0,0.0,0.0,0.0,0.0,0.04178086577537689,-0.12049642129957089,0.06201681539458314,-0.07924669562103992,0.02135797968411848,-0.02876973596610187,0.5198751695701845
4193,4.0,299.82366,606.75157,0.0,0.0,0.0,0.0,0.0,0.04179083258496072,-0.18336328057404683,0.08610389708354302,-0.08717794218954301,0.03619422474884186,-0.0023403684013263777,0.5116091563143925
4194,4.0,300.76671,499.31029,0.0,0.0,0.0,0.0,0.0,0.041800799394544536,-0.19558794038052682,0.09755035041572,-0.05374026940400165,0.00973741148125769,-0.029661175165580075,0.5292580478812025
4195,4.0,299.45426000000003,252.15579,0.0,0.0,0.0,0.0,0.0,0.04181076620412835,-0.14688367292128984,0.1219758171080759,-0.051741203963709244,-0.007881341366627832,-0.03270300972103577,0.5284288141318635
4196,4.0,299.555,515.16323,0.0,0.0,0.0,0.0,0.0,0.04182073301371217,-0.15163967637317086,0.08855439381438822,-0.09351147674861421,-0.014675375399346786,-0.026304559267807875,0.5511012375744575
4197,4.0,299.47144,809.21653,0.0,0.0,0.0,0.0,0.0,0.041830699823296,-0.16645447701277785,0.04342941308164936,-0.12295655201236688,0.018254795874858083,0.04341147754162926,0.5053638778655315
4198,4.0,299.62581,793.5950799999999,0.0,0.0,0.0,0.0,0.0,0.04184066663287983,-0.1982393929772048,0.07581053351091713,-0.11880422270506388,-0.025257672304238178,0.03226137047944937,0.5438880114375675
4199,4.0,299.72808,367.10645,0.0,0.0,0.0,0.0,0.0,0.04185063344246363,-0.13195573277551687,0.08871390471138071,-0.06834936203480683,-0.020396706274498178,0.02468136604486118,0.5165508581121006
4200,4.0,300.29904,138.24335,0.0,0.0,0.0,0.0,0.0,0.041860600252047464,-0.13403666477088888,0.11489304692156088,-0.02287891469372308,-0.02204306644773128,0.012013828805172589,0.5266484425136545
4201,4.0,300.3639,366.67771,0.0,0.0,0.0,0.0,0.0,0.04187056706163127,-0.15307372923970086,0.10945382919225191,-0.06784097392963284,0.026093640113741774,0.030473901044289868,0.5292946160773115
4202,4.0,300.27486,560.00455,0.0,0.0,0.0,0.0,0.0,0.0418805338712151,-0.16926823201047383,0.07153701847840403,-0.07249618838081673,0.02714079862833827,-0.021622111693686278,0.5342353147574205
4203,4.0,300.36275,392.81085,0.0,0.0,0.0,0.0,0.0,0.04189050068079893,-0.14511541977427686,0.11089236062422389,-0.08518163481602282,0.002096319515365628,-0.031062664200396266,0.5437201361609996
4204,4.0,301.01771,260.16702000000004,0.0,0.0,0.0,0.0,0.0,0.041900467490382745,-0.12369624485036888,0.1077910756456509,-0.06317911762404345,-0.0003265792313133607,-0.022176745546674377,0.5218971405422375
4205,4.0,300.25841,525.56849,0.0,0.0,0.0,0.0,0.0,0.04191043429996656,-0.16375181475604583,0.06925394714108243,-0.06526182888659104,0.006089842438470655,0.009348844760034142,0.5230280897738535
4206,4.0,300.9023,825.3721099999999,0.0,0.0,0.0,0.0,0.0,0.04192040110955038,-0.2082937318644908,0.08624003736697901,-0.12883881334790087,-7.501703810585523e-05,0.021082130450394282,0.5145204670317165
4207,4.0,300.43007,668.28092,0.0,0.0,0.0,0.0,0.0,0.04193036791913421,-0.16996792173452785,0.05576908994673065,-0.08894188294413041,-0.026292207749088872,-0.014206042006027186,0.5104044728729995
4208,4.0,299.22431,144.06478,0.0,0.0,0.0,0.0,0.0,0.04194033472871804,-0.08724769229992682,0.11801878162504688,-0.07456318210781314,0.004048313712987456,-0.0033922325507122868,0.5022259132333385
4209,4.0,299.44572,60.819772,0.0,0.0,0.0,0.0,0.0,0.04195030153830184,-0.08727223524384901,0.11378044764925589,-0.044995902802499856,0.01017089203303889,0.004565208154075965,0.5045265381153926
4210,4.0,299.63084,196.64508,0.0,0.0,0.0,0.0,0.0,0.041960268347885674,-0.13722708536075887,0.10665842415386691,-0.029206531872210267,-0.003206163861973737,-0.015600355203635183,0.5221610719282855
4211,4.0,299.2046,397.93856,0.0,0.0,0.0,0.0,0.0,0.041970235157469477,-0.17567527583779982,0.13355604985095587,-0.07884416175381292,-0.01848497995307548,-0.01150510328771529,0.5438773621790165
4212,4.0,299.32896,421.5152,0.0,0.0,0.0,0.0,0.0,0.04198020196705331,-0.16580037341072285,0.11145682198993188,-0.07378655225066573,-0.015827551207307684,0.01000715932817973,0.5457993456312015
4213,4.0,299.78989,458.49012,0.0,0.0,0.0,0.0,0.0,0.04199016877663714,-0.14349821181967087,0.09142438013963382,-0.08729571731491652,0.01090692906468009,0.04230831162775526,0.5244081364100535
4214,4.0,299.96404,606.1949900000001,0.0,0.0,0.0,0.0,0.0,0.042000135586220955,-0.19159371861882782,0.0993873667675194,-0.0920617884197911,0.0022393234536540177,0.014094049498974383,0.5505546499405135
4215,4.0,301.17967000000004,740.21715,0.0,0.0,0.0,0.0,0.0,0.04201010239580477,-0.2082349329611878,0.06860674883845894,-0.08537934422853523,0.01616854735621138,-0.03125530938890887,0.5179465999923495
4216,4.0,300.36188,764.56495,0.0,0.0,0.0,0.0,0.0,0.04202006920538859,-0.2199153052114508,0.08649965838710161,-0.09899301185509961,-0.007517154658710403,-0.04567488676076036,0.5701519505221164
4217,4.0,299.91215,523.55655,0.0,0.0,0.0,0.0,0.0,0.04203003601497242,-0.16757226412559484,0.08953894968480632,-0.08111480861840832,0.01885253541360038,-0.010266494206474089,0.5127316955701785
4218,4.0,299.36026,360.38919,0.0,0.0,0.0,0.0,0.0,0.04204000282455625,-0.13014906731721287,0.1014526795125999,-0.08085292805056273,-0.006513738252255915,-0.01218934905374509,0.5381959979408095
4219,4.0,300.50485,378.13562,0.0,0.0,0.0,0.0,0.0,0.04204996963414005,-0.12193372669892188,0.12045045014253389,-0.1134605037976799,-0.01146952503695399,-0.013254096576827487,0.5150498902089665
4220,4.0,299.99705,496.35118,0.0,0.0,0.0,0.0,0.0,0.04205993644372388,-0.13550983922377988,0.08756328525557341,-0.1029318118760789,-0.008781514477993002,0.014647208059816886,0.5440461899106784
4221,4.0,299.42073999999997,531.50938,0.0,0.0,0.0,0.0,0.0,0.042069903253307686,-0.17203706963123686,0.08629947968409551,-0.07582799079689002,-0.0015160602633734986,0.03667025876507276,0.5077234536384035
4222,4.0,298.3277,360.19464,0.0,0.0,0.0,0.0,0.0,0.04207987006289152,-0.1782392038908398,0.11170747979966988,-0.04295845240866916,-0.02119761259079148,0.02219499924722588,0.5431298267852405
4223,4.0,299.46125,303.12296000000003,0.0,0.0,0.0,0.0,0.0,0.04208983687247535,-0.15418601440447485,0.08296729628598462,-0.02092308970144818,-0.017826398798828583,-0.03059182207767777,0.5139963938149945
4224,4.0,300.21001,613.36044,0.0,0.0,0.0,0.0,0.0,0.042099803682059164,-0.16911894987324083,0.07704329309933103,-0.09437059732290282,-0.02260636662882468,-0.01309002909413529,0.5484867990039325
4225,4.0,300.30802,632.94836,0.0,0.0,0.0,0.0,0.0,0.04210977049164298,-0.16769395546260485,0.06620858850177894,-0.090915132798375,0.020615451772336677,0.01139604008670159,0.5101943349347605
4226,4.0,299.69985,528.88367,0.0,0.0,0.0,0.0,0.0,0.0421197373012268,-0.15722084030898884,0.08198416605845722,-0.08553075925722874,-0.0017560508800337283,-0.0012918397699446587,0.5235362448315045
4227,4.0,300.35688999999996,301.34918999999996,0.0,0.0,0.0,0.0,0.0,0.04212970411081063,-0.15570945619482685,0.14270677229906184,-0.07859994922796103,0.005867146075842235,-0.025211254303907076,0.5266252998813705
4228,4.0,301.45689,316.0271,0.0,0.0,0.0,0.0,0.0,0.04213967092039443,-0.14710343673547888,0.11931198259517588,-0.06827288901000952,-0.0003683629093970887,-0.018218389798765083,0.5409389875515215
4229,4.0,300.75654,329.32012000000003,0.0,0.0,0.0,0.0,0.0,0.04214963772997826,-0.16510734073982586,0.14160750739807285,-0.07660525900160042,0.023666964892747576,0.008171725774361543,0.5329016344457965
4230,4.0,300.25055,482.03249000000005,0.0,0.0,0.0,0.0,0.0,0.04215960453956208,-0.15243992103714885,0.1193338586648349,-0.11341977114365989,0.0006230919175068845,0.017159504940761284,0.5624419075961944
4231,4.0,300.26908,237.11878,0.0,0.0,0.0,0.0,0.0,0.04216957134914591,-0.11653150273076388,0.10715942566581191,-0.06270611221236144,-0.014432392959116287,0.013612647283713688,0.5322425659182515
4232,4.0,299.59504,258.03062,0.0,0.0,0.0,0.0,0.0,0.04217953815872971,-0.13477531396128786,0.1255779212135759,-0.06923747473420673,-0.012250395345769887,0.03369211103140247,0.5749934520174355
4233,4.0,299.98937,673.5726599999999,0.0,0.0,0.0,0.0,0.0,0.04218950496831354,-0.22112356542569678,0.08440075234820571,-0.06802645240018813,-0.008099997191832482,0.042628762104381254,0.5234609704815755
4234,4.0,300.172,852.79294,0.0,0.0,0.0,0.0,0.0,0.042199471777897374,-0.24761202046740377,0.07311263758265553,-0.08472837562228962,-0.0035990349709470962,0.008349410527797663,0.5451187151415284
4235,4.0,299.10404,530.20786,0.0,0.0,0.0,0.0,0.0,0.04220943858748118,-0.1789581656317958,0.1001402926518274,-0.08235207514326702,-0.02885614492137977,-0.05831559415105104,0.5045441585346315
4236,4.0,300.05521,320.77955,0.0,0.0,0.0,0.0,0.0,0.04221940539706501,-0.1060757344188599,0.0959114072332189,-0.08734464513574532,0.023471575822964177,-0.05009690170142925,0.5156418511823886
4237,4.0,300.91711000000004,353.53702999999996,0.0,0.0,0.0,0.0,0.0,0.042229372206648824,-0.1007303578343123,0.09845534690153622,-0.1051914203940849,0.02218080563982508,-0.006627123775546193,0.5191250199911505
4238,4.0,300.46721,329.15204,0.0,0.0,0.0,0.0,0.0,0.04223933901623264,-0.13389662347456788,0.13210541008028887,-0.09826278479953181,0.019388461629992183,0.006332136476583214,0.5349856061914685
4239,4.0,300.93793999999997,335.7141,0.0,0.0,0.0,0.0,0.0,0.04224930582581646,-0.1291116309373259,0.08775555452829892,-0.06069263126289634,-0.013803007593250786,-0.018318840373928783,0.5449067837506125
4240,4.0,301.29343,237.55421,0.0,0.0,0.0,0.0,0.0,0.04225927263540029,-0.13814177662353186,0.1146170882568259,-0.04868585771817005,-0.023303846454410578,0.01828513055635188,0.5180929842342965
4241,4.0,300.62505,550.22673,0.0,0.0,0.0,0.0,0.0,0.04226923944498409,-0.15827144894017584,0.06771540792424043,-0.07669914574261633,-0.006428660403634384,0.03256085174525587,0.5474918380682375
4242,4.0,299.74144,960.73615,0.0,0.0,0.0,0.0,0.0,0.04227920625456792,-0.2107598508853778,0.03504659032782917,-0.11632653236803489,0.01120829497567259,0.024347507229661877,0.5112888274277785
4243,4.0,298.67832000000004,890.04071,0.0,0.0,0.0,0.0,0.0,0.04228917306415175,-0.2032810316322758,0.05967085263680465,-0.12693997252799988,0.008578528058959803,-0.015409759820074883,0.5677283474754254
4244,4.0,299.23197000000005,526.55037,0.0,0.0,0.0,0.0,0.0,0.042299139873735556,-0.18306248714936083,0.07666709562870322,-0.05366277097010315,0.006370249473794674,0.0037146231986297665,0.5382452824256735
4245,4.0,299.30957,318.7091,0.0,0.0,0.0,0.0,0.0,0.042309106683319386,-0.15589790044842486,0.11710585341744788,-0.058087563229296146,0.008624997836371011,0.03951916239548767,0.5598035461908084
4246,4.0,299.7878,480.12347,0.0,0.0,0.0,0.0,0.0,0.0423190734929032,-0.2013349429602118,0.1218058545363019,-0.06641646283929453,-0.005529406006134885,0.018682205032040083,0.5342432586382044
4247,4.0,300.17003,525.46414,0.0,0.0,0.0,0.0,0.0,0.042329040302487034,-0.17063127630999586,0.11117914080002689,-0.1002758341044543,-0.002700881064381208,-0.02871821321176697,0.5227983049161754
4248,4.0,299.75234,201.91236999999998,0.0,0.0,0.0,0.0,0.0,0.04233900711207085,-0.1124594430963829,0.13184084034667787,-0.08075772205791662,0.004569091232434196,-0.023442254391570376,0.5340900248255815
4249,4.0,300.88268999999997,211.3531,0.0,0.0,0.0,0.0,0.0,0.04234897392165467,-0.1121809715713999,0.1271507893438059,-0.07921587660599833,0.015266648375950884,0.004015550473653976,0.5389465224223804
4250,4.0,300.98745,554.11154,0.0,0.0,0.0,0.0,0.0,0.0423589407312385,-0.18207589565949184,0.08706740268313361,-0.07342757901848783,-0.003178400809233737,-0.0019267303262534782,0.5538261001408805
4251,4.0,299.61003,772.04627,0.0,0.0,0.0,0.0,0.0,0.0423689075408223,-0.19646717802230082,0.06976051950207723,-0.1079761356439149,0.0015364639793121885,-0.016529496426084284,0.5443939373449984
4252,4.0,299.41487,696.43813,0.0,0.0,0.0,0.0,0.0,0.04237887435040613,-0.20891447927325382,0.06941460706368834,-0.07219992722382804,0.002098622632842928,0.014429988516628987,0.5302668599457645
4253,4.0,300.03637000000003,343.44212999999996,0.0,0.0,0.0,0.0,0.0,0.04238884115998996,-0.12278699474063288,0.07571030483752533,-0.057321139840406043,0.004051268046304026,0.029241686584429768,0.5031742646644335
4254,4.0,299.23692,150.7042,0.0,0.0,0.0,0.0,0.0,0.042398807969573765,-0.1292743893008889,0.12114509388108988,-0.037681028428827965,-0.02278566123401968,0.0011500985439308888,0.5088820544652486
4255,4.0,300.4188,397.15447,0.0,0.0,0.0,0.0,0.0,0.042408774779157596,-0.13924191291960689,0.09092142710799622,-0.07240455814777354,-0.044147513560020356,-0.03254371667281476,0.5220104725659225
4256,4.0,298.85992999999996,277.24827999999997,0.0,0.0,0.0,0.0,0.0,0.04241874158874141,-0.12684634821875987,0.12422689406023987,-0.08165709804542813,-0.0074645249286412535,-0.008926142048241633,0.5365294548388345
4257,4.0,298.88024,195.72444,0.0,0.0,0.0,0.0,0.0,0.04242870839832524,-0.1181944893248879,0.13492913545896887,-0.07622998764156402,0.0016883624296283983,0.024985443413121273,0.5447205990447375
4258,4.0,300.12872000000004,499.95294,0.0,0.0,0.0,0.0,0.0,0.04243867520790906,-0.14573310716773785,0.07933763177776462,-0.08557773758486512,0.004104443918177076,-0.003931525189236326,0.5308153119598925
4259,4.0,300.3753,787.2461,0.0,0.0,0.0,0.0,0.0,0.04244864201749288,-0.20230464357091382,0.07709713518314483,-0.11409563935786289,-0.009020443107223422,-0.023080513973369375,0.5362201703783105
4260,4.0,300.97553,933.6732,0.0,0.0,0.0,0.0,0.0,0.04245860882707671,-0.19235342314630482,0.04959930977607075,-0.14105922763646186,0.029770102591080372,0.005796831787802754,0.5221791077800655
4261,4.0,300.64277999999996,613.48502,0.0,0.0,0.0,0.0,0.0,0.04246857563666051,-0.1992019096446978,0.09992854161942921,-0.0872107573072816,0.03532353083191107,0.014426958898829985,0.5532205920136214
4262,4.0,300.4439,238.73309,0.0,0.0,0.0,0.0,0.0,0.04247854244624434,-0.12304953797404387,0.1139662067900889,-0.06348556701078764,0.005815106969256374,0.003309082410406007,0.5573516633338265
4263,4.0,300.78596,391.95564,0.0,0.0,0.0,0.0,0.0,0.04248850925582817,-0.18469471147044883,0.11356799950078889,-0.048018015458009156,-0.02937265726585557,-0.02165864949229228,0.5732053189034604
4264,4.0,299.27495,557.57448,0.0,0.0,0.0,0.0,0.0,0.042498476065411975,-0.18295976385422283,0.09003944355845123,-0.07656839696296243,-0.019873060649318378,0.015939380581094384,0.5392464140544775
4265,4.0,298.64699,445.1416,0.0,0.0,0.0,0.0,0.0,0.042508442874995805,-0.17816535822355184,0.11378433852963989,-0.07093090848058564,-0.011188606512979489,0.046905343231696955,0.5226559128796225
4266,4.0,299.23318,314.69405,0.0,0.0,0.0,0.0,0.0,0.04251840968457962,-0.13926724417210687,0.11214868942321389,-0.06854058259367884,-0.01001108678689234,0.004923829687144155,0.5049628334759515
4267,4.0,299.48681,219.60318999999998,0.0,0.0,0.0,0.0,0.0,0.04252837649416345,-0.14020456130961287,0.14324027887421487,-0.06978959775344702,-0.005885643767017813,-0.02672951028024727,0.5163559797203675
4268,4.0,300.4065,367.3574,0.0,0.0,0.0,0.0,0.0,0.04253834330374727,-0.13620957961033886,0.11730209969681588,-0.09275999677219891,0.030481258253265968,0.001379878943308449,0.5365166068275665
4269,4.0,300.07392999999996,436.55849000000006,0.0,0.0,0.0,0.0,0.0,0.042548310113331086,-0.13455941062997986,0.10590155672666988,-0.1040450190984439,0.05201769965099725,0.01012352552928918,0.5479170586052036
4270,4.0,299.42441,390.85647,0.0,0.0,0.0,0.0,0.0,0.04255827692291492,-0.13017764097003287,0.08492344551829152,-0.07355641072895253,0.012791601608432788,-0.027543369985818977,0.5339671175884515
4271,4.0,299.97559,481.03857,0.0,0.0,0.0,0.0,0.0,0.04256824373249872,-0.15118752364854687,0.08638524117255951,-0.08142143025766953,-0.02263905813005108,-0.00863669408625034,0.5379914024806175
4272,4.0,299.07752,373.47957,0.0,0.0,0.0,0.0,0.0,0.04257821054208255,-0.16274833238700984,0.09107943940809081,-0.04185957254271816,-0.016584202812233384,0.0020352151641100983,0.5091168447784205
4273,4.0,299.22892,493.19742,0.0,0.0,0.0,0.0,0.0,0.04258817735166638,-0.16100070901203284,0.08674659655572252,-0.07566558707086203,-0.0046343628787010056,0.029447060220698575,0.5507470965320065
4274,4.0,300.25163,646.55739,0.0,0.0,0.0,0.0,0.0,0.0425981441612502,-0.19390217592415482,0.08142384787240813,-0.08405897700997512,-0.023215584264699773,-0.007582891994723174,0.5254718564975345
4275,4.0,300.23152000000005,544.8548400000001,0.0,0.0,0.0,0.0,0.0,0.042608110970834015,-0.16759834518316885,0.1036908780559929,-0.10171480731346991,-0.006062583781630434,-0.017406689329156483,0.5893229970516515
4276,4.0,301.12055,441.54027,0.0,0.0,0.0,0.0,0.0,0.04261807778041783,-0.16912710653654583,0.1036924587261489,-0.06878256799581094,-0.028768805802510074,0.010750481222739888,0.5185321065626345
4277,4.0,301.13825,508.80862,0.0,0.0,0.0,0.0,0.0,0.04262804459000166,-0.16278621780824884,0.11360048429899489,-0.1054793759400039,0.017415084106234983,0.02080311683660778,0.5523634736215305
4278,4.0,301.2239,529.42331,0.0,0.0,0.0,0.0,0.0,0.04263801139958548,-0.17262801735455882,0.09813909026707411,-0.08644253438621392,-0.016101325304827087,0.007336530770709213,0.5067769767199934
4279,4.0,300.11002,567.4483,0.0,0.0,0.0,0.0,0.0,0.042647978209169296,-0.17038680945836884,0.1160352634942889,-0.11813855791936788,-0.0020791250664686685,-0.0068109382867872735,0.5667889430427134
4280,4.0,300.04025,575.84659,0.0,0.0,0.0,0.0,0.0,0.04265794501875313,-0.18742167146457883,0.09505914028260672,-0.08268045126217521,-0.004835232719600316,-0.0045046732493766355,0.5239708379318955
4281,4.0,299.65112999999997,511.29715999999996,0.0,0.0,0.0,0.0,0.0,0.04266791182833693,-0.15068006773346487,0.1067645722343429,-0.11150607607729289,0.00795364415798856,0.02530348134125918,0.5770390621143214
4282,4.0,299.81993,466.14693,0.0,0.0,0.0,0.0,0.0,0.04267787863792076,-0.16714030547546382,0.07436374713038042,-0.04892047172582466,-0.014672632531326087,-0.004031328500236147,0.5248671792353574
4283,4.0,298.69701000000003,365.74082999999996,0.0,0.0,0.0,0.0,0.0,0.04268784544750459,-0.14113507953894786,0.0956154743692626,-0.06565647358853945,-0.0029633578285856474,-0.0026503763224217775,0.5409291995555554
4284,4.0,299.08027999999996,258.15021,0.0,0.0,0.0,0.0,0.0,0.04269781225708841,-0.14538656550103685,0.0971864375893046,-0.030271094983774473,-0.0024309580265168777,0.015486680701416384,0.5082145860943745
4285,4.0,299.74852999999996,236.36776,0.0,0.0,0.0,0.0,0.0,0.042707779066672225,-0.12471283867569888,0.1083553546263409,-0.05549240680817415,0.014018484346266685,0.016826631004659184,0.5212815505764835
4286,4.0,300.28002000000004,338.90081000000004,0.0,0.0,0.0,0.0,0.0,0.04271774587625604,-0.14003883412325688,0.08595241923334332,-0.04893097304986105,0.0037794129431490166,0.004108973956724156,0.5143405948739644
4287,4.0,300.96764,474.25485999999995,0.0,0.0,0.0,0.0,0.0,0.04272771268583987,-0.14666098081431186,0.09632877406865982,-0.09382942449749322,-0.013654615089605587,-0.012015028493290988,0.5313912027867285
4288,4.0,300.81831,501.67393,0.0,0.0,0.0,0.0,0.0,0.04273767949542369,-0.14757628002714487,0.07343202617317672,-0.07835209406799963,0.018246526740791982,-0.021104428032094877,0.5193998640807754
4289,4.0,299.8148,514.9699099999999,0.0,0.0,0.0,0.0,0.0,0.042747646305007506,-0.15716106868558985,0.0956466419423386,-0.09502356709809591,-0.026103166691181977,0.01994325861624638,0.5355543434725984
4290,4.0,300.86647,656.25605,0.0,0.0,0.0,0.0,0.0,0.042757613114591336,-0.17636181357555583,0.07395526447181634,-0.0970789003429415,0.003059933735366947,-0.01017958166589649,0.5336872275133285
4291,4.0,300.38945,738.1695599999999,0.0,0.0,0.0,0.0,0.0,0.04276757992417514,-0.20359091391035883,0.06894132098172863,-0.08973552121745641,-0.01002763620077564,-0.003749934356664707,0.5565963461792824
4292,4.0,299.57001,595.82863,0.0,0.0,0.0,0.0,0.0,0.04277754673375897,-0.19006420746037683,0.09929002383041241,-0.09034284711539482,0.001048298015658959,0.023243931962747478,0.5477399323552224
4293,4.0,299.86028999999996,417.22028,0.0,0.0,0.0,0.0,0.0,0.0427875135433428,-0.17156695198233982,0.08944723433875473,-0.044704833539023554,0.014805453407434485,0.009194323613159092,0.5577563858212694
4294,4.0,298.82344,321.28052,0.0,0.0,0.0,0.0,0.0,0.04279748035292662,-0.14063845526743488,0.11972940110637187,-0.07675220255760262,-0.009412984504614242,0.002501369181265918,0.5475762924640725
4295,4.0,298.33603,516.98408,0.0,0.0,0.0,0.0,0.0,0.042807447162510434,-0.15600624728161785,0.09331592454556471,-0.09445993153121941,0.007130779090828103,-0.018009044222104285,0.5349972788326205
4296,4.0,298.96921000000003,705.92813,0.0,0.0,0.0,0.0,0.0,0.04281741397209425,-0.16532320354112984,0.06072530249912075,-0.1099866264923349,0.0017046796065887785,-0.013346416833188789,0.5365456465754325
4297,4.0,298.55334,612.54716,0.0,0.0,0.0,0.0,0.0,0.04282738078167808,-0.15729054178336785,0.08906655424968452,-0.1179750598832319,-0.004447989201682355,0.03009820513246157,0.5385510103783465
4298,4.0,299.54388,543.1944900000001,0.0,0.0,0.0,0.0,0.0,0.0428373475912619,-0.16143472455986685,0.08496979765736612,-0.08865263347783373,-0.026596378336358178,0.015164508712870485,0.5334085432058245
4299,4.0,301.03001,442.6012,0.0,0.0,0.0,0.0,0.0,0.042847314400845715,-0.15102899053790084,0.1038660487332809,-0.08737677326991611,-0.027709902706004475,-0.0015391092713482586,0.5027688734319246
4300,4.0,299.60958999999997,347.65272000000004,0.0,0.0,0.0,0.0,0.0,0.042857281210429546,-0.14735763078806585,0.11064566462237689,-0.06896577475964202,-0.012690503566455187,0.0006413094956923194,0.5384101686144465
4301,4.0,300.41149,459.72193,0.0,0.0,0.0,0.0,0.0,0.04286724802001335,-0.14058403360456387,0.07896578925606663,-0.07812573906191013,0.04191261719870326,0.007764746677620832,0.5201474298720545
4302,4.0,301.01113,492.12525999999997,0.0,0.0,0.0,0.0,0.0,0.04287721482959718,-0.16638727826614585,0.0906955473162036,-0.07390206073556553,0.025688899387796976,-0.018099053254987483,0.5647072713747684
4303,4.0,300.27472,359.2065,0.0,0.0,0.0,0.0,0.0,0.04288718163918101,-0.12707035755086787,0.09329889485113402,-0.07541834594046122,0.018068264637448882,-0.02077105152394318,0.5295622559587254
4304,4.0,299.98077,547.8570599999999,0.0,0.0,0.0,0.0,0.0,0.04289714844876483,-0.16916303638509184,0.07291616230876492,-0.07028799217288474,0.009809631591410262,-0.008518879038822902,0.5391542994878865
4305,4.0,300.36667,592.79027,0.0,0.0,0.0,0.0,0.0,0.042907115258348644,-0.17275182638427783,0.1021858166224549,-0.10962742933188489,0.008712378599819822,0.045140105516981555,0.5316581536580745
4306,4.0,299.84182999999996,417.23716,0.0,0.0,0.0,0.0,0.0,0.04291708206793246,-0.14463031615640087,0.09170882376070622,-0.07390818684567013,-0.028089238212191975,-0.010507820996041188,0.5225421046283906
4307,4.0,299.71277000000003,409.51867000000004,0.0,0.0,0.0,0.0,0.0,0.04292704887751629,-0.1275383169770519,0.1039756823941009,-0.10092081845560931,-0.03166911667674847,-0.005986825604778683,0.5411226289996455
4308,4.0,299.32501,484.58265,0.0,0.0,0.0,0.0,0.0,0.04293701568710011,-0.15290302699535385,0.11188661228484889,-0.1062846159269749,-0.024783483416439378,-0.0039188613868365064,0.5387891241518464
4309,4.0,298.69981,415.26321,0.0,0.0,0.0,0.0,0.0,0.042946982496683925,-0.13577897871534186,0.10528784127360091,-0.09573851535540581,0.03233295761226447,0.011511691439865489,0.5772034720755475
4310,4.0,300.30068,379.43144,0.0,0.0,0.0,0.0,0.0,0.042956949306267755,-0.1909529797855918,0.14615849995722086,-0.07054320454182222,0.001974939246136328,-0.02246821403069008,0.5742836196598804
4311,4.0,300.02647,561.18598,0.0,0.0,0.0,0.0,0.0,0.04296691611585156,-0.18619149465066984,0.08841019413965683,-0.07280522256856603,0.007306047141450713,-0.02154597405467208,0.5604151540836694
4312,4.0,299.73764,614.9803099999999,0.0,0.0,0.0,0.0,0.0,0.04297688292543539,-0.21843464284032077,0.09427613910883051,-0.06278015647666904,-0.0017429547238162382,-0.02145572285501498,0.5362775000689685
4313,4.0,299.96869,562.38784,0.0,0.0,0.0,0.0,0.0,0.04298684973501922,-0.16696010907767983,0.07132491584822113,-0.07531667034592664,0.013760637527069186,0.01858833551627588,0.5312915699043954
4314,4.0,300.28841,521.74823,0.0,0.0,0.0,0.0,0.0,0.042996816544603036,-0.18382131014925082,0.08945627658264711,-0.06423339726034273,0.002105655500462018,-0.005711227758404295,0.5285491071837355
4315,4.0,300.51698999999996,558.39468,0.0,0.0,0.0,0.0,0.0,0.04300678335418685,-0.15442135187270084,0.08433006599472952,-0.09964675777986931,-0.01131597509029979,-0.02495290693916018,0.5196069014737085
4316,4.0,299.92944,303.80839,0.0,0.0,0.0,0.0,0.0,0.04301675016377067,-0.15497749445508785,0.12002902929344288,-0.05740169524985624,0.025032269753242676,0.022777235046188078,0.5434841907427135
4317,4.0,300.39828,108.78901,0.0,0.0,0.0,0.0,0.0,0.0430267169733545,-0.10893882456392488,0.12357793776869289,-0.04770825780968845,-0.0072330271716692035,0.029260590791545468,0.5065870024587446
4318,4.0,300.9008,266.86275,0.0,0.0,0.0,0.0,0.0,0.04303668378293832,-0.12732271762077388,0.13030664797276487,-0.08410353873612302,0.02113026793614508,-0.01733705067628368,0.5652673453675434
4319,4.0,301.01751,654.57875,0.0,0.0,0.0,0.0,0.0,0.043046650592522134,-0.15345277596960985,0.06386392979687913,-0.1093867419031309,-0.04229846587653356,-0.01947165148970238,0.5253903101294864
4320,4.0,299.48841,785.38941,0.0,0.0,0.0,0.0,0.0,0.043056617402105965,-0.18042317328888083,0.07039363565481092,-0.12870923892511288,0.02330471379649618,0.002877067018269407,0.5553721070109594
4321,4.0,300.72761,671.35808,0.0,0.0,0.0,0.0,0.0,0.04306658421168977,-0.18344297269441182,0.08587199858615642,-0.10650511941373692,-0.014160299843512787,0.03091515626408837,0.5546064749703974
4322,4.0,301.17326,498.14177,0.0,0.0,0.0,0.0,0.0,0.0430765510212736,-0.17011810566434984,0.093851146553137,-0.07515569732903983,-0.0013753372523852188,-0.008741782408446752,0.5801424546531024
4323,4.0,301.0346,592.86505,0.0,0.0,0.0,0.0,0.0,0.04308651783085743,-0.1926523420583058,0.09097008945729881,-0.07853391875869432,-0.017822914231734682,-0.013313145752905188,0.5319338792752865
4324,4.0,300.80283,769.58233,0.0,0.0,0.0,0.0,0.0,0.043096484640441246,-0.21237208378199282,0.06946458258512053,-0.0910263126788476,0.029771701499738172,-0.000886186581887306,0.5230867062921385
4325,4.0,299.4082,496.89959000000005,0.0,0.0,0.0,0.0,0.0,0.04310645145002506,-0.16273229263792685,0.09001271604731341,-0.07832549118662413,0.025356433791485177,0.01013118316691993,0.5154150351475035
4326,4.0,300.13665,376.59195,0.0,0.0,0.0,0.0,0.0,0.04311641825960888,-0.14164502804927587,0.1111515803973069,-0.08398109962053922,0.011588141159910489,-0.025109779332892275,0.5473916478983495
4327,4.0,299.66495,467.82887,0.0,0.0,0.0,0.0,0.0,0.04312638506919271,-0.14974257834344185,0.1103627449294549,-0.10282846036587891,-0.013127575076590786,-0.006665798721263113,0.5492140592632075
4328,4.0,299.00971,654.70234,0.0,0.0,0.0,0.0,0.0,0.04313635187877654,-0.16830329367524186,0.1107409810592839,-0.14145084880011186,0.005935993583036954,0.015682814510023287,0.6032245553761284
4329,4.0,300.2957,554.72066,0.0,0.0,0.0,0.0,0.0,0.043146318688360344,-0.14547718045747984,0.0970318004252931,-0.1201758492329329,-0.013312299689071688,0.04983314459439845,0.5513649257804815
4330,4.0,300.91742999999997,631.4085200000001,0.0,0.0,0.0,0.0,0.0,0.043156285497944175,-0.17951829028707583,0.0916829392736516,-0.10409706975608089,-0.021646966718639277,0.00988719213753989,0.5831739570972885
4331,4.0,299.73758,629.80445,0.0,0.0,0.0,0.0,0.0,0.04316625230752798,-0.18067811714654183,0.07866039567592663,-0.08942710916526851,-0.02024560535333568,-0.02173647621922318,0.5048134500137085
4332,4.0,300.40831000000003,614.9934400000001,0.0,0.0,0.0,0.0,0.0,0.04317621911711181,-0.20713544514517682,0.09167148245477091,-0.07147868263039672,0.02306069784116368,0.015597249592078685,0.5554131233750075
4333,4.0,300.04127,270.00817,0.0,0.0,0.0,0.0,0.0,0.043186185926695625,-0.14361079403828186,0.11215488038132489,-0.05061982285278755,0.02436132086827518,0.019257989467615585,0.5066516883451285
4334,4.0,299.64037,139.82402,0.0,0.0,0.0,0.0,0.0,0.043196152736279456,-0.13730493336594188,0.13437484712426487,-0.03957292544579366,0.0015128954780111586,-0.021101743932579978,0.5826542509884974
4335,4.0,300.3841,268.99264,0.0,0.0,0.0,0.0,0.0,0.04320611954586327,-0.12481036399782389,0.10189028196578791,-0.05884695567574235,-0.014825631269925886,-0.016065626477303883,0.4932628345712516
4336,4.0,298.9533,443.85920999999996,0.0,0.0,0.0,0.0,0.0,0.04321608635544709,-0.15976610429518687,0.10792075139344891,-0.08307676276053812,0.007658762642336023,0.01051589153308769,0.5601791478703775
4337,4.0,299.24244,655.98705,0.0,0.0,0.0,0.0,0.0,0.04322605316503092,-0.16588124090120385,0.06933269389910414,-0.1028551392410119,0.019072448175554084,0.023924303060394878,0.5237932455868685
4338,4.0,299.6337,597.83663,0.0,0.0,0.0,0.0,0.0,0.04323601997461472,-0.1821750725792798,0.0966640656195005,-0.09621640159281951,-0.023663874479942577,-0.022111050463190778,0.5785930027326834
4339,4.0,298.07017,357.36438,0.0,0.0,0.0,0.0,0.0,0.04324598678419855,-0.15718358310281183,0.12791436448666488,-0.07936061938278333,-0.007263928563943933,-0.030780092052258574,0.5528924307037344
4340,4.0,298.09586,649.75733,0.0,0.0,0.0,0.0,0.0,0.04325595359378237,-0.19098815982906384,0.08580700163199172,-0.09232884973539801,4.257203023128226e-05,0.02351171471242558,0.5932118306704495
4341,4.0,300.30856,800.11994,0.0,0.0,0.0,0.0,0.0,0.04326592040336619,-0.19252225087796682,0.06889854358900684,-0.1195927744628879,0.003165687762879057,0.05335356959608736,0.5883646144445664
4342,4.0,300.37927,449.46885999999995,0.0,0.0,0.0,0.0,0.0,0.043275887212950004,-0.17373008895832484,0.09351236942195232,-0.05640959167944325,-0.04175547122744416,-0.015004772874355785,0.5484616501364504
4343,4.0,299.80105,307.52796,0.0,0.0,0.0,0.0,0.0,0.043285854022533835,-0.14921232430110987,0.1028125320743069,-0.04708102864003575,-0.022076062937237777,-0.004376836550510136,0.5481635620895314
4344,4.0,300.86017000000004,487.37721,0.0,0.0,0.0,0.0,0.0,0.04329582083211764,-0.1988813679755628,0.11189479934565691,-0.06116393441441035,0.002356339857352638,0.025556787786758576,0.5149741193664885
4345,4.0,300.22157999999996,469.84585999999996,0.0,0.0,0.0,0.0,0.0,0.04330578764170147,-0.15892358683703686,0.08706827306496952,-0.07096609663005843,0.03110586411840977,0.025742669530853676,0.5293087407837055
4346,4.0,300.77377,526.0740099999999,0.0,0.0,0.0,0.0,0.0,0.0433157544512853,-0.15433608687678585,0.1003290317612045,-0.1059063088696389,-0.0030057591028703275,-0.03392401256853937,0.5414675393336854
4347,4.0,300.54915,692.3947400000001,0.0,0.0,0.0,0.0,0.0,0.043325721260869116,-0.15854081134675987,0.07881103455504353,-0.13074092696562487,0.005617532622982305,-0.04416803390104555,0.5459410385251855
4348,4.0,299.38827000000003,537.87802,0.0,0.0,0.0,0.0,0.0,0.04333568807045293,-0.17047912667497983,0.09510115571125331,-0.08812351528886382,0.03524186084735087,0.01096815571522269,0.5624918810911265
4349,4.0,299.68526,465.99474000000004,0.0,0.0,0.0,0.0,0.0,0.04334565488003675,-0.13567365136744686,0.0943049620211751,-0.10028207268532,0.023552298418680877,0.02096411822449738,0.5474600828101035
4350,4.0,300.17689,520.43426,0.0,0.0,0.0,0.0,0.0,0.04335562168962058,-0.18101439458972982,0.09403562798559391,-0.07122025217914163,-0.008282092217653862,-0.03316842892921907,0.5689237090158985
4351,4.0,298.87545,525.15978,0.0,0.0,0.0,0.0,0.0,0.04336558849920438,-0.16604588390995284,0.09609988695057041,-0.08968946292091082,-0.029368172620912972,-0.024247056654498177,0.5511174090460536
4352,4.0,299.17232,319.8185,0.0,0.0,0.0,0.0,0.0,0.04337555530878821,-0.17381233446894184,0.13304326424034787,-0.05644776790346094,0.017349753792787383,0.031601915903616266,0.5594962882304845
4353,4.0,298.94052999999997,416.96977999999996,0.0,0.0,0.0,0.0,0.0,0.043385522118372044,-0.14858128227133086,0.09248886827069061,-0.07065599245020353,-0.01029982202876329,0.024838316458850977,0.5340995899065255
4354,4.0,298.84712,588.64205,0.0,0.0,0.0,0.0,0.0,0.04339548892795585,-0.19293353922605783,0.12332771565649787,-0.1093266561722009,-0.025321373311524977,-0.010541623019377189,0.5564200811918865
4355,4.0,300.07374,713.02022,0.0,0.0,0.0,0.0,0.0,0.04340545573753968,-0.16585162360078085,0.06441913613617374,-0.11530786137999989,-0.013388541692846185,-0.01930778260402978,0.5355135094935685
4356,4.0,300.19703,571.34914,0.0,0.0,0.0,0.0,0.0,0.043415422547123494,-0.19942118709883883,0.11209146105756589,-0.08634614998370152,0.02450907299785718,0.014194184953356987,0.5392192792167995
4357,4.0,300.65103999999997,432.46649,0.0,0.0,0.0,0.0,0.0,0.043425389356707325,-0.17161594262467483,0.13843609538007887,-0.09827916601389851,0.025634480764676275,0.013707087259284186,0.5609348905899635
4358,4.0,300.62189,296.94678,0.0,0.0,0.0,0.0,0.0,0.04343535616629114,-0.13873559184463688,0.0968651957643505,-0.048394012305117154,-0.020004138735254782,-0.04016308891353826,0.5454556410647805
4359,4.0,299.86122,511.39524000000006,0.0,0.0,0.0,0.0,0.0,0.04344532297587496,-0.17338589803185583,0.1335688573322199,-0.11563434069472088,0.0031438888015526668,-0.018083258712428683,0.6092635057071264
4360,4.0,299.99339,884.4419800000001,0.0,0.0,0.0,0.0,0.0,0.04345528978545879,-0.20765339833129481,0.07189774767300523,-0.13309262978521988,0.016853300760541284,0.010525439388779988,0.5718528326699804
4361,4.0,300.22425,495.48344000000003,0.0,0.0,0.0,0.0,0.0,0.04346525659504259,-0.15205038716870486,0.08649077421022482,-0.08505497956677291,0.016239684605982085,0.014642360671338485,0.5806623431469115
4362,4.0,300.03447,214.51993,0.0,0.0,0.0,0.0,0.0,0.04347522340462642,-0.1120703043954779,0.11712274429661489,-0.07026114205848484,-0.03439042678832087,-0.022818455073506178,0.5245227349963635
4363,4.0,298.35221,548.51795,0.0,0.0,0.0,0.0,0.0,0.043485190214210254,-0.16832735836511684,0.05496096422347485,-0.05336937224464695,-0.012529546761569988,-0.012614866472990387,0.5173092454144476
4364,4.0,299.54798999999997,774.3399400000001,0.0,0.0,0.0,0.0,0.0,0.04349515702379406,-0.22836429117030077,0.07918726343642443,-0.08620298078432183,0.004189108158107786,0.015274530448478787,0.5171478144085155
4365,4.0,300.25417999999996,403.48906,0.0,0.0,0.0,0.0,0.0,0.04350512383337789,-0.1894426494515338,0.1110530012950779,-0.044260950961715756,0.009993220755829101,0.0027766613300851373,0.5140612418213946
4366,4.0,300.55526000000003,154.98065,0.0,0.0,0.0,0.0,0.0,0.043515090642961704,-0.12811212050868187,0.09895229541308122,-0.017950424664068983,-0.008483417615798131,-0.03476188326173077,0.5441145741599275
4367,4.0,300.35983,257.30523999999997,0.0,0.0,0.0,0.0,0.0,0.043525057452545535,-0.1108263271152069,0.13703772918207088,-0.10442575795601988,0.004918496749217835,-0.009901669049668651,0.5352502873825905
4368,4.0,300.34905,561.05969,0.0,0.0,0.0,0.0,0.0,0.04353502426212935,-0.15691982396928086,0.09519398563241491,-0.10882229066992391,0.04824280600594425,0.027909029655406772,0.5773568274781824
4369,4.0,299.44236,736.21528,0.0,0.0,0.0,0.0,0.0,0.04354499107171317,-0.18285919878179782,0.08372309068132572,-0.12465495169748587,0.02718808397075497,-0.0034563276109629763,0.5477080453745754
4370,4.0,300.51769,661.86118,0.0,0.0,0.0,0.0,0.0,0.043554957881297,-0.18919528470462083,0.08590128962004723,-0.0978952769617616,-0.004656175924203785,-0.034440128732226065,0.5737232416920754
4371,4.0,298.5889,398.55765,0.0,0.0,0.0,0.0,0.0,0.0435649246908808,-0.16787981592844783,0.08284192178486112,-0.036113678458642565,-0.01104502188105879,-0.022705141288322978,0.5337585400553665
4372,4.0,299.23961,524.16542,0.0,0.0,0.0,0.0,0.0,0.04357489150046463,-0.18430990947997183,0.1063064615991309,-0.08132975442837183,-0.01037296450048189,0.025261589529124776,0.5533824688495974
4373,4.0,300.64261,795.8190400000001,0.0,0.0,0.0,0.0,0.0,0.04358485831004846,-0.20539211795062381,0.08455358491378911,-0.12107057946873588,-0.013123075232896688,0.038037624576271266,0.5605029319398325
4374,4.0,300.29,504.71065,0.0,0.0,0.0,0.0,0.0,0.043594825119632266,-0.14203259621252587,0.08562433999671443,-0.09701117774600782,-0.03702645366547646,-0.003093408782895677,0.5165513343396475
4375,4.0,300.99088,320.93728,0.0,0.0,0.0,0.0,0.0,0.0436047919292161,-0.14791289184286585,0.1406387085799599,-0.09028273200021192,-0.008031777291749703,0.016905178152411184,0.5641800976127405
4376,4.0,301.45752000000005,530.76665,0.0,0.0,0.0,0.0,0.0,0.043614758738799914,-0.2040255374082528,0.09992527490110681,-0.05723954990260375,-0.008072038075198133,0.021623210056794684,0.5130745490065155
4377,4.0,300.18325,606.71188,0.0,0.0,0.0,0.0,0.0,0.043624725548383744,-0.22681691641258678,0.11351081166514489,-0.07111914603116322,0.02292215007549008,-0.012288741795804387,0.5898466345708304
4378,4.0,300.72014,656.5362200000001,0.0,0.0,0.0,0.0,0.0,0.04363469235796756,-0.18836264643494582,0.08149022791295932,-0.0926981956088496,-0.015044785107554685,-0.05207382357403625,0.5362628991350276
4379,4.0,300.87257999999997,655.81791,0.0,0.0,0.0,0.0,0.0,0.04364465916755138,-0.12947886317106888,0.04639684772201236,-0.11627025645748089,0.016344437441070385,-0.024817618799058274,0.5728088037418274
4380,4.0,299.94843,515.05081,0.0,0.0,0.0,0.0,0.0,0.04365462597713521,-0.11159441122101091,0.07528581890688182,-0.12025399108064488,0.0026166874791219478,0.036291665971208566,0.5410319532481965
4381,4.0,300.43118,510.89154,0.0,0.0,0.0,0.0,0.0,0.04366459278671901,-0.1174072243946909,0.07258301682163604,-0.1104740605854409,0.002924338985784787,0.031013288523023267,0.5576571278414735
4382,4.0,299.64227999999997,456.64874000000003,0.0,0.0,0.0,0.0,0.0,0.04367455959630284,-0.18075208440384183,0.08544159932792933,-0.04349933443130006,-0.015630891521898883,-0.013939412334962887,0.5321927646758365
4383,4.0,299.35594,306.5133,0.0,0.0,0.0,0.0,0.0,0.04368452640588667,-0.16883659760037484,0.13390535769042985,-0.05824114965295394,-0.015417343997073382,-0.0036046865760298668,0.5507707863193445
4384,4.0,299.6359,185.79648,0.0,0.0,0.0,0.0,0.0,0.043694493215470476,-0.15450639395359386,0.10489795276762189,-0.006869053144947763,-0.004075282478974066,0.037260860970110665,0.5230476151032805
4385,4.0,299.98633,583.6562,0.0,0.0,0.0,0.0,0.0,0.043704460025054306,-0.14328799282142385,0.1047872247966939,-0.13891614287995585,-0.012858909786075588,0.0030372757406057775,0.5542835622960285
4386,4.0,299.32614,774.94963,0.0,0.0,0.0,0.0,0.0,0.04371442683463812,-0.1920266702540568,0.07275964556581793,-0.1162983133527499,-0.037885924824299665,-0.012574281753484988,0.5430441666217866
4387,4.0,299.63052999999996,664.06873,0.0,0.0,0.0,0.0,0.0,0.043724393644221954,-0.15474596680723784,0.09207239613508801,-0.13918674145166185,0.003953210666551517,-0.014959349885622884,0.5583795751627735
4388,4.0,300.1971,429.06679,0.0,0.0,0.0,0.0,0.0,0.04373436045380577,-0.2032693792561258,0.13377911686047086,-0.06093532188709804,0.01980691973579078,0.019425276045875482,0.5717676588665744
4389,4.0,300.99998,580.5570299999999,0.0,0.0,0.0,0.0,0.0,0.04374432726338959,-0.19197728444418283,0.0863683969028971,-0.07086595408292513,0.026387771419020274,-0.0010510754355080691,0.5952585654749465
4390,4.0,300.93176,742.3475900000001,0.0,0.0,0.0,0.0,0.0,0.04375429407297342,-0.2171990046083728,0.08110783239146982,-0.08956395872377451,-0.01789853308669768,-0.03816506002809816,0.5478259674212135
4391,4.0,301.02387999999996,652.16228,0.0,0.0,0.0,0.0,0.0,0.04376426088255722,-0.14120396028074586,0.06693970012468403,-0.12397678340555587,0.007471966642675693,0.006989629298897703,0.5784558086691434
4392,4.0,300.81211,443.14442,0.0,0.0,0.0,0.0,0.0,0.04377422769214105,-0.13350900464881288,0.07791918093627442,-0.07911501059829364,0.0006296283229744774,0.022884986088322276,0.5317890655709945
4393,4.0,300.74908999999997,334.13895,0.0,0.0,0.0,0.0,0.0,0.04378419450172488,-0.13571518448904588,0.12901346726763788,-0.09486818012901041,-0.003870420837980796,0.012323347326469686,0.5892020859172183
4394,4.0,299.89067,434.09114000000005,0.0,0.0,0.0,0.0,0.0,0.043794161311308685,-0.1857843099654838,0.099889418006568,-0.04605797838506855,-0.042196876408257464,-0.022584548314421377,0.5331326757335986
4395,4.0,300.82077000000004,682.14777,0.0,0.0,0.0,0.0,0.0,0.043804128120892516,-0.20788774281442282,0.09062135207763111,-0.09008949406039082,-0.004828198028131045,-0.004802649332159585,0.5721702636613085
4396,4.0,300.62992,473.7989,0.0,0.0,0.0,0.0,0.0,0.04381409493047633,-0.16699720416384084,0.09716591015552871,-0.07419173981990462,0.02047159052313868,0.010880158997038092,0.5189625149401125
4397,4.0,299.94036,261.12121,0.0,0.0,0.0,0.0,0.0,0.04382406174006016,-0.10177581510199091,0.08510060925852622,-0.06269911774692115,0.01663279322077888,-0.00953383778246653,0.5270557386563515
4398,4.0,299.56492000000003,495.11805,0.0,0.0,0.0,0.0,0.0,0.04383402854964398,-0.12585637247355688,0.06576034692254093,-0.09040749753802532,-0.0031920567861314767,-0.030231942999910468,0.5100773450782146
4399,4.0,300.04831,573.77377,0.0,0.0,0.0,0.0,0.0,0.0438439953592278,-0.14996718549310886,0.06707853970638643,-0.09152425113574031,-0.001970587134306808,-0.01043846301344609,0.5317279057949584
4400,4.0,299.025,355.15021,0.0,0.0,0.0,0.0,0.0,0.04385396216881163,-0.17147947810120684,0.0896141855312315,-0.026091504182530978,0.03573183515845756,0.03426516171820817,0.5601535227753485
4401,4.0,299.47278,370.20654,0.0,0.0,0.0,0.0,0.0,0.04386392897839543,-0.17242662376468285,0.10999855244601191,-0.05010547785027565,-0.005634584102290155,-0.004617895234100776,0.5604968321742305
4402,4.0,299.35336,532.87763,0.0,0.0,0.0,0.0,0.0,0.04387389578797926,-0.17720504030877585,0.07487968901504993,-0.05965614328510294,0.014475845176404685,-0.024853822225131276,0.5662445237639835
4403,4.0,299.71855,729.46042,0.0,0.0,0.0,0.0,0.0,0.04388386259756309,-0.16287894032489986,0.07466933626778974,-0.1335281449432019,-0.012496709352329188,-0.02068320578002348,0.5390270251428254
4404,4.0,300.1381,791.58507,0.0,0.0,0.0,0.0,0.0,0.043893829407146895,-0.1948269692904248,0.09540091055458681,-0.14119603666496386,0.02149436618732878,0.012218258092348187,0.5708770525586785
4405,4.0,300.57194,709.2839799999999,0.0,0.0,0.0,0.0,0.0,0.043903796216730726,-0.1974351054453278,0.08849167869944873,-0.1066611903266399,-0.001994104871777828,-0.0019534250080880384,0.5711492318005404
4406,4.0,300.07585,465.10500999999994,0.0,0.0,0.0,0.0,0.0,0.04391376302631454,-0.2038338406218338,0.13443974579316986,-0.07198621352598614,-0.011654264848186388,-0.011899783453417188,0.5809830165385594
4407,4.0,300.43206000000004,420.18951,0.0,0.0,0.0,0.0,0.0,0.04392372983589837,-0.16361223955477086,0.09047792855247633,-0.05459280486589035,-0.01876487914744938,0.008754632750189981,0.5557646097021964
4408,4.0,299.7278,488.69680999999997,0.0,0.0,0.0,0.0,0.0,0.04393369664548219,-0.15404981332603285,0.10738306009538288,-0.1018848712102539,-0.016460666346791282,0.036044291091794564,0.5550045809346874
4409,4.0,299.8263,549.54285,0.0,0.0,0.0,0.0,0.0,0.04394366345506601,-0.13765147503264288,0.09124737750616502,-0.12064321084155788,-0.0067355660568986135,-0.006985539517519073,0.5418111628400984
4410,4.0,299.45587,440.54512,0.0,0.0,0.0,0.0,0.0,0.04395363026464984,-0.14166943724418488,0.07815010772681513,-0.07039538553773364,-0.002418742891261338,-0.059428074873094344,0.5318128769483444
4411,4.0,299.74548,454.44869000000006,0.0,0.0,0.0,0.0,0.0,0.04396359707423364,-0.16492502664933284,0.12008246810371688,-0.09329849259084431,0.006424147185038963,-0.013705780166655189,0.5799749340140694
4412,4.0,298.87981,645.17174,0.0,0.0,0.0,0.0,0.0,0.04397356388381747,-0.18742554207996082,0.06310215722594804,-0.07179271011463884,0.016275501983766986,0.013980789416046486,0.5706685054230964
4413,4.0,298.61016,563.47468,0.0,0.0,0.0,0.0,0.0,0.0439835306934013,-0.18007507121702584,0.10545525045512291,-0.09666240591583672,0.0038508849707527566,0.013607849544490186,0.5910526149723514
4414,4.0,298.63405,632.52124,0.0,0.0,0.0,0.0,0.0,0.043993497502985104,-0.16111101141791884,0.07396593196886914,-0.1051255794025869,-0.016698557205269283,0.002051915045633248,0.5413695681815165
4415,4.0,299.67273,573.70913,0.0,0.0,0.0,0.0,0.0,0.044003464312568935,-0.13072322548637788,0.06469466822261664,-0.1083646967922629,0.018641762167548682,0.01999774512712378,0.5355464097243154
4416,4.0,300.00891,329.52381,0.0,0.0,0.0,0.0,0.0,0.04401343112215275,-0.15033077002649187,0.13066542970067388,-0.08050166767814602,0.010143235371559391,0.03363410246317747,0.5280245577394665
4417,4.0,300.20072999999996,440.77155,0.0,0.0,0.0,0.0,0.0,0.04402339793173658,-0.15218244405423786,0.08237910561618472,-0.06418020973609354,-0.010137496322992991,-0.028380403734427774,0.5549559651948895
4418,4.0,299.96236,492.20853,0.0,0.0,0.0,0.0,0.0,0.0440333647413204,-0.2065741147222778,0.12672442383422688,-0.06976941381145503,-0.018186180604586284,-0.05348472164928105,0.5688250691186635
4419,4.0,299.57715,536.99437,0.0,0.0,0.0,0.0,0.0,0.044043331550904216,-0.16146873936572384,0.1072633445960679,-0.10902747381517389,-0.004944915624375175,-0.0008913801675273732,0.5766086132068394
4420,4.0,300.16375,518.59925,0.0,0.0,0.0,0.0,0.0,0.04405329836048805,-0.17199729956481183,0.1032240332049189,-0.08886796533608532,0.0052608866236340856,0.039595089278481065,0.5671085626542575
4421,4.0,300.36364,638.74248,0.0,0.0,0.0,0.0,0.0,0.04406326517007185,-0.16314848511650185,0.10639633688300089,-0.13740962236627388,-0.006325657654118804,0.01179274675260349,0.5530536185296424
4422,4.0,300.6142,700.5257799999999,0.0,0.0,0.0,0.0,0.0,0.04407323197965568,-0.2221756635345308,0.08463667142198912,-0.07540335794498203,-0.011048122426364791,-0.02869628546635287,0.5627714773237205
4423,4.0,301.28332,741.46438,0.0,0.0,0.0,0.0,0.0,0.04408319878923951,-0.20611479831944682,0.05226583548123636,-0.07153769836922112,0.04393172979222416,-0.018409097653086483,0.5552211124810575
4424,4.0,300.509,637.8981,0.0,0.0,0.0,0.0,0.0,0.04409316559882333,-0.21854692108390178,0.1237844482715739,-0.09914262431186521,0.00927394196891681,0.02001700093202418,0.6014030255388574
4425,4.0,299.47123,563.27521,0.0,0.0,0.0,0.0,0.0,0.044103132408407145,-0.14892243344749986,0.07899467195016713,-0.10129384141367381,-0.012256751463647188,-0.0021986318362630683,0.5718257788923105
4426,4.0,299.79077,549.745,0.0,0.0,0.0,0.0,0.0,0.04411309921799096,-0.13669653747589786,0.09816005137189282,-0.12857226777659486,-0.05172339507995165,-0.01014416756165139,0.5634077983865204
4427,4.0,299.46058,422.06400999999994,0.0,0.0,0.0,0.0,0.0,0.04412306602757479,-0.13056103454287088,0.11094457340187688,-0.10868045592092589,-0.021513648336731778,0.025010548710848977,0.5241750584895505
4428,4.0,298.99137,458.54102,0.0,0.0,0.0,0.0,0.0,0.04413303283715861,-0.16147980405681583,0.09475438707652992,-0.07265960738344493,0.01053203463368089,0.03395228021982917,0.5303415060806315
4429,4.0,300.19061,510.50650999999993,0.0,0.0,0.0,0.0,0.0,0.044142999646742426,-0.19139973188718282,0.10900501006045689,-0.07278651493196973,-0.013779373534668286,0.001169248058895799,0.5457200182808725
4430,4.0,300.84168999999997,507.81704,0.0,0.0,0.0,0.0,0.0,0.044152966456326256,-0.17480252299666585,0.07895909065965552,-0.05852027067125105,-0.0013200945529581887,-0.038308987138552665,0.5502566834836065
4431,4.0,300.84317999999996,500.64232999999996,0.0,0.0,0.0,0.0,0.0,0.04416293326591006,-0.16385886462911084,0.087337214972762,-0.07566111458492063,0.0018527562801778084,-0.0031473616149454067,0.5562239261050275
4432,4.0,301.84721,587.97972,0.0,0.0,0.0,0.0,0.0,0.04417290007549389,-0.14650518347893587,0.1072132191136209,-0.13943919271407687,0.030580900254849868,0.02761757940989287,0.5823659610700455
4433,4.0,300.80171,592.02928,0.0,0.0,0.0,0.0,0.0,0.04418286688507772,-0.15417766522365084,0.07229025340399253,-0.0980747083557201,-0.0004004793101317306,-0.006849041860772805,0.5461489067832005
4434,4.0,301.22253,682.1111,0.0,0.0,0.0,0.0,0.0,0.04419283369466154,-0.1998127170699798,0.10481139081157889,-0.11234340569493088,-0.003559154662911216,-0.020664578190185082,0.5620551601655255
4435,4.0,301.22508,720.12677,0.0,0.0,0.0,0.0,0.0,0.044202800504245354,-0.23485790708617077,0.08557597655619133,-0.06961862395807322,-0.021013509100621882,-0.006661226227536844,0.5527224579994595
4436,4.0,300.01135,495.88311,0.0,0.0,0.0,0.0,0.0,0.04421276731382917,-0.2003360100841248,0.13272610682654687,-0.08312618403416562,0.03486360141276956,0.012942846411109488,0.5957843713493395
4437,4.0,300.28185,426.96972999999997,0.0,0.0,0.0,0.0,0.0,0.044222734123413,-0.16036129753642786,0.14084516842033587,-0.11027200838299989,-0.026913666459422076,-0.013860647338439386,0.5687869911799055
4438,4.0,300.20822999999996,482.14768,0.0,0.0,0.0,0.0,0.0,0.04423270093299682,-0.15023956738499086,0.1133253159693379,-0.1096466000237769,0.0026397088253689777,-0.003594380910587777,0.5900493352533355
4439,4.0,299.86417,532.69421,0.0,0.0,0.0,0.0,0.0,0.044242667742580635,-0.14981005066760086,0.08268614572773722,-0.09480183251246241,-0.023117152083735278,0.024876724717141578,0.5280480854067885
4440,4.0,300.1128,790.2368299999999,0.0,0.0,0.0,0.0,0.0,0.044252634552164466,-0.2233871357515938,0.07607579630759653,-0.09290092871535782,0.013631378225062286,0.04583844255215205,0.5829576079359364
4441,4.0,300.71965,878.1755099999999,0.0,0.0,0.0,0.0,0.0,0.04426260136174827,-0.24681228242847578,0.05193740971307324,-0.07206855225561233,-0.021897244559589777,-0.004420679071737056,0.5233649650346005
4442,4.0,300.00489,636.75004,0.0,0.0,0.0,0.0,0.0,0.0442725681713321,-0.1992463305290818,0.09703963487506631,-0.09134941989723581,-0.004863910027905545,-0.03635668521687546,0.5783537237215685
4443,4.0,300.24609,501.99019000000004,0.0,0.0,0.0,0.0,0.0,0.044282534980915916,-0.13430859070022588,0.07177313412270683,-0.0900570275006866,0.0025488186701988175,-0.028586083372226772,0.5501813483386715
4444,4.0,299.2308,439.41753,0.0,0.0,0.0,0.0,0.0,0.04429250179049975,-0.10516679841665491,0.08826687396601222,-0.11667203038713288,0.02019515563085668,-0.02090336881475188,0.5866968757074734
4445,4.0,298.05721,385.30326,0.0,0.0,0.0,0.0,0.0,0.04430246860008355,-0.12357334774573987,0.1167443865767739,-0.1102936210076329,0.02320346782000398,-0.017614883853703682,0.5681005041046545
4446,4.0,298.77732000000003,556.74692,0.0,0.0,0.0,0.0,0.0,0.04431243540966738,-0.18527201071492383,0.1014856709358559,-0.08545081787733912,0.01861302639471268,-0.01035743644269939,0.5395702791839405
4447,4.0,299.08935,581.2121099999999,0.0,0.0,0.0,0.0,0.0,0.044322402219251184,-0.2183497527469428,0.0958817038065374,-0.054205915580207355,0.02016990037211418,0.03814298738791976,0.5290654493021945
4448,4.0,299.26782000000003,548.05635,0.0,0.0,0.0,0.0,0.0,0.044332369028835014,-0.2111664174880028,0.1138298841216349,-0.06925891105332234,-0.0005489498644321335,0.029068104683298575,0.5525121782062065
4449,4.0,300.2102,747.95077,0.0,0.0,0.0,0.0,0.0,0.044342335838418845,-0.1882051873694058,0.07427821463643902,-0.1134313829898059,-0.024889683172670478,0.010677876786824388,0.5681466576467094
4450,4.0,300.1177,844.16311,0.0,0.0,0.0,0.0,0.0,0.04435230264800266,-0.18260830792453683,0.07553285941376284,-0.14952905614986886,-0.06004705314718275,-0.015059004046207986,0.5791856628486745
4451,4.0,300.28106,828.2162599999999,0.0,0.0,0.0,0.0,0.0,0.04436226945758648,-0.17411894394920183,0.05211456534730716,-0.12975268387809286,0.009715768256471672,0.009942164907140281,0.5757676865513464
4452,4.0,301.77864,763.19511,0.0,0.0,0.0,0.0,0.0,0.044372236267170295,-0.2144220913843128,0.08089807543526842,-0.09846824152230882,0.004755101659291995,0.005086906413888576,0.5825915206748065
4453,4.0,299.88889,513.6383900000001,0.0,0.0,0.0,0.0,0.0,0.044382203076754126,-0.21373901896189879,0.12922660442617287,-0.07162083857967644,0.017409992524482484,0.0055875949328776835,0.5803918661652175
4454,4.0,299.59283999999997,458.57475,0.0,0.0,0.0,0.0,0.0,0.04439216988633793,-0.20577601814851182,0.11620688779622688,-0.04982614607595775,0.005171191900931905,-0.02057381631247758,0.5733246493677374
4455,4.0,300.30688,514.76675,0.0,0.0,0.0,0.0,0.0,0.04440213669592176,-0.16629668357470484,0.11547453088894889,-0.1056540805222459,0.030556431278184967,-0.0017066364965069084,0.5691217082179394
4456,4.0,299.0881,392.2676,0.0,0.0,0.0,0.0,0.0,0.044412103505505576,-0.12284004851586888,0.11061932011977689,-0.1070188270819359,0.007973775005675322,-0.01870154594994888,0.5536847010894255
4457,4.0,299.23554,469.9176,0.0,0.0,0.0,0.0,0.0,0.04442207031508939,-0.13450672162477986,0.08634892932872582,-0.09468542831447421,-0.017016054057853783,-0.005098067465065086,0.5451666824012624
4458,4.0,299.83231,539.45969,0.0,0.0,0.0,0.0,0.0,0.044432037124673224,-0.1900440741808898,0.11225473617867988,-0.08619294454208132,-0.01903902814750578,0.011941369264021388,0.5296432349067175
4459,4.0,299.42978,526.03619,0.0,0.0,0.0,0.0,0.0,0.04444200393425704,-0.18959400875147184,0.07540069613696934,-0.045708558074833455,-0.00856720427981723,0.05844236389756224,0.5226723781937475
4460,4.0,301.19833,572.5015,0.0,0.0,0.0,0.0,0.0,0.04445197074384087,-0.1819341318380008,0.09234709532994871,-0.08443912007649232,-0.029649689975696572,0.03535959442947026,0.5606492756517755
4461,4.0,301.77512,612.8111299999999,0.0,0.0,0.0,0.0,0.0,0.044461937553424674,-0.16066756251165384,0.07281916387669193,-0.09843088704412221,-0.029416429670175572,0.0007208877875410852,0.5691346980842215
4462,4.0,300.7435,555.7135,0.0,0.0,0.0,0.0,0.0,0.044471904363008505,-0.14099790574040988,0.08723625675929823,-0.1151613758130429,-0.008221437141492672,-0.028457267873763677,0.5660769220649425
4463,4.0,300.75898,590.89766,0.0,0.0,0.0,0.0,0.0,0.044481871172592335,-0.17122369324596282,0.08218655364668133,-0.09058099533939823,0.024850476473301075,-0.013138207109890089,0.5713510914854625
4464,4.0,300.22974,537.7445,0.0,0.0,0.0,0.0,0.0,0.04449183798217614,-0.17328890973228384,0.09278648819606342,-0.08295848101011463,0.03922185252464546,-0.022724428503976477,0.5755767902325064
4465,4.0,299.87215,525.11154,0.0,0.0,0.0,0.0,0.0,0.04450180479175997,-0.1980812145040938,0.11696846683638888,-0.07850804339089063,0.004725458318341425,-0.013649625846113187,0.5820810250094245
4466,4.0,300.23422999999997,620.45237,0.0,0.0,0.0,0.0,0.0,0.044511771601343786,-0.18837606186626984,0.10502664566282291,-0.1052526105676239,-0.0031771987906401068,0.0006236867257130873,0.5618245241777634
4467,4.0,300.1198,548.15465,0.0,0.0,0.0,0.0,0.0,0.044521738410927617,-0.17671017909243683,0.11628279036121787,-0.1061979425134209,-0.007322985947347442,0.04038603331979117,0.5529070316376755
4468,4.0,299.89796,489.95735,0.0,0.0,0.0,0.0,0.0,0.04453170522051143,-0.14098777323940986,0.1027204681702209,-0.11066749002953088,-0.002259644995009598,0.02768381455567977,0.5711400720196365
4469,4.0,300.16783,550.96182,0.0,0.0,0.0,0.0,0.0,0.04454167203009525,-0.18650465985907683,0.10823056274402489,-0.08920453763505241,-0.01162854653414819,-0.0067373342796481234,0.5791718826473145
4470,4.0,301.18503,802.1071900000001,0.0,0.0,0.0,0.0,0.0,0.04455163883967908,-0.22196354975859678,0.08924526927582231,-0.11110227564744088,0.003326300772005327,-0.011848275897833788,0.5739626017631985
4471,4.0,301.49547,813.73273,0.0,0.0,0.0,0.0,0.0,0.044561605649262884,-0.22929274236943178,0.07812635410472082,-0.096188045788771,-0.00035130563429866665,0.010452402295071791,0.5646429401259194
4472,4.0,301.05736,604.18033,0.0,0.0,0.0,0.0,0.0,0.044571572458846714,-0.16823883070387982,0.08006528619132852,-0.09548218435835791,-0.0013895514287630487,0.015685585749046785,0.5735909314940174
4473,4.0,300.36635,446.19480999999996,0.0,0.0,0.0,0.0,0.0,0.044581539268430545,-0.14258757355729787,0.10651061122927889,-0.0995551174143251,-0.029669293325381273,0.004684552297229316,0.5550348061851704
4474,4.0,300.37289,636.83277,0.0,0.0,0.0,0.0,0.0,0.04459150607801435,-0.15533130112500587,0.07871021819659373,-0.11696017845057088,-0.01050736705999639,-0.0049279783383535955,0.5652495729607895
4475,4.0,300.30469,628.4868,0.0,0.0,0.0,0.0,0.0,0.04460147288759818,-0.18671440262977682,0.07358113808439293,-0.07791103035247003,-0.01059639729328299,0.009746236383003641,0.5223378942032365
4476,4.0,299.36505,467.38119000000006,0.0,0.0,0.0,0.0,0.0,0.044611439697181995,-0.16082910497509686,0.09696989287068332,-0.07821299712077183,0.035192974569776166,-0.02075615978722348,0.5648953407258295
4477,4.0,299.48798999999997,291.43602999999996,0.0,0.0,0.0,0.0,0.0,0.044621406506765826,-0.12833943303611586,0.08806500110883891,-0.048314842008553655,0.025863342551513176,-0.019701987555434782,0.5337085766929355
4478,4.0,300.3742,428.37417,0.0,0.0,0.0,0.0,0.0,0.04463137331634964,-0.12724758512585888,0.10235428971658189,-0.1053217547544479,-0.006082376507758824,-0.0015752221128623185,0.5606984689441304
4479,4.0,300.62914,791.42704,0.0,0.0,0.0,0.0,0.0,0.04464134012593346,-0.1966157914144678,0.07887626354348112,-0.12283453643532488,-0.015768077479438085,0.03671290950153207,0.5480311708314655
4480,4.0,300.18863,766.04989,0.0,0.0,0.0,0.0,0.0,0.04465130693551729,-0.2017086599945948,0.08848004152205022,-0.11963141982170189,-0.021317403070613878,0.02349394838517218,0.5937574151867945
4481,4.0,299.91331,506.97548,0.0,0.0,0.0,0.0,0.0,0.04466127374510109,-0.20296607297119182,0.12986349290902888,-0.08100531275960192,-0.009777250651339511,-0.008019585663896482,0.5859204322883445
4482,4.0,299.50212999999997,608.2022099999999,0.0,0.0,0.0,0.0,0.0,0.044671240554684924,-0.19864702349243482,0.09423417231618872,-0.08046543284131992,0.0028698050548027075,-0.047557586506568356,0.5867497977601964
4483,4.0,299.41235,789.69265,0.0,0.0,0.0,0.0,0.0,0.044681207364268755,-0.2136834117964108,0.08641887499637892,-0.11278230510824688,0.019870992605864283,0.0015744804137891185,0.5870152084913904
4484,4.0,299.65529,655.54566,0.0,0.0,0.0,0.0,0.0,0.04469117417385256,-0.16219472292987286,0.0918258430015051,-0.12890063173650188,0.005232244475107325,-0.0062521894224930544,0.5723442589684805
4485,4.0,300.51554,474.98928,0.0,0.0,0.0,0.0,0.0,0.04470114098343639,-0.15840308026066685,0.09462570228732972,-0.08060750266434112,0.007974158926138212,0.015128854468351686,0.5778549614923444
4486,4.0,300.78677000000005,476.49125999999995,0.0,0.0,0.0,0.0,0.0,0.044711107793020205,-0.17857748756922584,0.11795455170120787,-0.08421851830447062,-0.023507746825033978,0.012402533835034788,0.5432329351154165
4487,4.0,301.28089,483.54425,0.0,0.0,0.0,0.0,0.0,0.044721074602604036,-0.20609011554701082,0.1033185086442429,-0.04421377201055956,0.024920815281992977,0.03284084517188907,0.5526465554344685
4488,4.0,300.92239,487.68068,0.0,0.0,0.0,0.0,0.0,0.04473104141218785,-0.17109765506602384,0.07915401262114283,-0.05629910182228874,-0.008379856970777491,-0.01921974738234138,0.5522188321697554
4489,4.0,300.02334,544.37358,0.0,0.0,0.0,0.0,0.0,0.04474100822177167,-0.16183974088983885,0.0948215827834116,-0.0984578141655297,0.01226456260866809,-0.048930359020300455,0.5766938883352555
4490,4.0,300.37177,714.2147,0.0,0.0,0.0,0.0,0.0,0.0447509750313555,-0.14134767967492987,0.05215769737756395,-0.12791345256157488,-0.018505526638603283,-0.03130354921291977,0.5452444594789385
4491,4.0,299.61372,715.6415900000001,0.0,0.0,0.0,0.0,0.0,0.0447609418409393,-0.17873528100729882,0.08344293513467652,-0.12224482487712489,-0.007286581897754643,0.033999274759467166,0.5738024575848935
4492,4.0,299.07839,540.72596,0.0,0.0,0.0,0.0,0.0,0.044770908650523134,-0.16714828988625183,0.08212632302098702,-0.07934522000776352,-0.025496088026267977,0.03133005482228567,0.5719123307158525
4493,4.0,299.82037,610.87743,0.0,0.0,0.0,0.0,0.0,0.044780875460106964,-0.1842216553962618,0.07808917593205163,-0.07955900767286272,-0.013916077185159885,0.005587378300006305,0.5531603644276775
4494,4.0,300.6204,507.3454,0.0,0.0,0.0,0.0,0.0,0.04479084226969077,-0.18137136259995984,0.09462265139127861,-0.06747161792368023,0.0011796479565971889,-0.012844669569170188,0.5572459610833945
4495,4.0,299.31139,483.85875,0.0,0.0,0.0,0.0,0.0,0.0448008090792746,-0.13275416372181587,0.06921218806471115,-0.08353900036340742,0.028740744854240673,-0.02027523481275988,0.5434356054004185
4496,4.0,300.2564,494.02864000000005,0.0,0.0,0.0,0.0,0.0,0.044810775888858415,-0.1289306239394619,0.1072664755388769,-0.12850822023777386,0.01218069589789109,-0.03710734446070976,0.5739323562477134
4497,4.0,299.87335,474.20222,0.0,0.0,0.0,0.0,0.0,0.044820742698442245,-0.14628460906466687,0.1144760438429059,-0.11233706274930488,-0.01139528217562679,-0.03873215280431586,0.5830181496294115
4498,4.0,300.59431,679.3548099999999,0.0,0.0,0.0,0.0,0.0,0.04483070950802606,-0.20376236595977978,0.07815675566072122,-0.08090128743808542,0.0002857622546200387,-0.00015286902232199785,0.5752702212822505
4499,4.0,300.45131000000003,931.6967199999999,0.0,0.0,0.0,0.0,0.0,0.04484067631760988,-0.2555953065477928,0.08072121567006373,-0.1083384434821719,0.014922229468209385,0.04785034485796136,0.5743267739816396
4500,4.0,300.62701,878.30351,0.0,0.0,0.0,0.0,0.0,0.04485064312719371,-0.23359274274630878,0.07188295219504502,-0.1052725513295919,0.006856047370639193,0.018056732838060783,0.5818907163756425
4501,4.0,300.63767,623.34488,0.0,0.0,0.0,0.0,0.0,0.04486060993677751,-0.17038062863275885,0.08332278089806822,-0.1024234339034059,-0.014245166632138487,-0.005858511665115084,0.5721343439452634
4502,4.0,301.83749,576.50933,0.0,0.0,0.0,0.0,0.0,0.04487057674636134,-0.14380234896968686,0.11539334929093688,-0.14683544221652983,-0.004071141123165346,-0.0052678267788690255,0.5859531501340735
4503,4.0,301.11848,466.96124000000003,0.0,0.0,0.0,0.0,0.0,0.044880543555945174,-0.17458729854292485,0.09496343982391181,-0.062320702271824444,0.009344732889803331,-0.008074351730476471,0.5772413473642855
4504,4.0,300.73112000000003,427.75795999999997,0.0,0.0,0.0,0.0,0.0,0.04489051036552898,-0.16509990348409184,0.11985266298103688,-0.08478049619418351,0.002220396651061088,-0.025524968693868274,0.5818917498907444
4505,4.0,300.2245,471.02785,0.0,0.0,0.0,0.0,0.0,0.04490047717511281,-0.19531988506657183,0.09294248108870871,-0.04080330085672226,-0.021338255757671877,-0.031190281023991073,0.5459401569975985
4506,4.0,299.93429,650.08286,0.0,0.0,0.0,0.0,0.0,0.044910443984696624,-0.15649206017456385,0.05722677788509324,-0.09834367154176471,-0.008872474446095053,0.017648245113246183,0.5342879632326165
4507,4.0,299.96121,612.36516,0.0,0.0,0.0,0.0,0.0,0.044920410794280455,-0.17450627906492883,0.09887192036214881,-0.11050935208642389,0.0012704818763867988,0.028475698893082674,0.5452539536323755
4508,4.0,299.83692,552.30087,0.0,0.0,0.0,0.0,0.0,0.04493037760386427,-0.12515559857189587,0.08016693138836012,-0.12289700330398987,0.016629099924164382,0.0009234281029527582,0.5661497646146315
4509,4.0,300.31329,580.63128,0.0,0.0,0.0,0.0,0.0,0.04494034441344809,-0.18265916294705584,0.11296626066390189,-0.1068045044207839,-0.01060909331703599,-0.04276157487448887,0.5723768856217005
4510,4.0,300.53531,685.98782,0.0,0.0,0.0,0.0,0.0,0.04495031122303192,-0.1963216550429388,0.0963283383711168,-0.1085298464260619,0.007508898291595563,-0.00022009386014407278,0.5935061392944955
4511,4.0,300.55474,670.8426,0.0,0.0,0.0,0.0,0.0,0.04496027803261572,-0.21791741919427476,0.07174384916831664,-0.05774583551382024,0.0019085780520369882,0.011046472855201989,0.5363926052803285
4512,4.0,300.42281,709.8804,0.0,0.0,0.0,0.0,0.0,0.04497024484219955,-0.2014385275179348,0.08799403307183491,-0.1023414214403119,0.0015297067157202984,0.0053979944595905745,0.5762849811248995
4513,4.0,301.43609,648.66135,0.0,0.0,0.0,0.0,0.0,0.04498021165178338,-0.16833728821609684,0.07318471310201884,-0.1020242842915129,0.003018408719768747,-0.019040996892450084,0.5597893910869115
4514,4.0,300.70457000000005,588.4062700000001,0.0,0.0,0.0,0.0,0.0,0.044990178461367186,-0.13669566608081188,0.08828634660643402,-0.1304515022070609,0.0023888829174393876,0.022796535434092876,0.5792718499021805
4515,4.0,299.88757999999996,600.48605,0.0,0.0,0.0,0.0,0.0,0.04500014527095102,-0.17856029271502882,0.11565986446473989,-0.11963234187929289,-0.006028385678830344,0.00952925546021429,0.5944940581419954
4516,4.0,299.68781,554.0656799999999,0.0,0.0,0.0,0.0,0.0,0.045010112080534834,-0.17708515255694385,0.09556519487280041,-0.08690217300257672,-0.01952541454000838,-0.021512872187155183,0.5948111243632874
4517,4.0,300.57024,480.17124,0.0,0.0,0.0,0.0,0.0,0.045020078890118664,-0.2042123908591938,0.1331350646994079,-0.07488274801710183,-0.017515141540359883,-0.02220023369724248,0.5798280228820704
4518,4.0,300.39941,662.56024,0.0,0.0,0.0,0.0,0.0,0.04503004569970248,-0.1920409976104708,0.0970211177294888,-0.1063818879365749,0.00900469872054457,0.025392514614296077,0.5642827601128725
4519,4.0,299.4868,668.39282,0.0,0.0,0.0,0.0,0.0,0.0450400125092863,-0.18135071256292185,0.0934166294465035,-0.1152406423683659,0.037793833562460966,0.03344227091449517,0.5670081597018485
4520,4.0,299.40562,551.09524,0.0,0.0,0.0,0.0,0.0,0.04504997931887013,-0.17055621474258784,0.11899120787851787,-0.11595419335378788,-0.017362533916298686,-0.007059080905802043,0.5606170239010925
4521,4.0,299.6711,530.9712599999999,0.0,0.0,0.0,0.0,0.0,0.04505994612845393,-0.16629541701207984,0.10267777994350791,-0.09778437268531621,0.002300839792400208,-0.04189275749674326,0.5876523198892685
4522,4.0,300.22674,530.87491,0.0,0.0,0.0,0.0,0.0,0.04506991293803776,-0.16948364898173382,0.08553518310716532,-0.07742424980567852,-0.0008342891479304283,-0.007314865153095983,0.5504016187779105
4523,4.0,300.34315,610.69193,0.0,0.0,0.0,0.0,0.0,0.04507987974762159,-0.17933276419376584,0.07994541465149813,-0.08624774414723961,0.03079639018011707,0.026089955936378174,0.5697367510286395
4524,4.0,300.04446,572.6637,0.0,0.0,0.0,0.0,0.0,0.045089846557205396,-0.18106560424978382,0.08397759276194312,-0.07698745389957012,-0.06265548922411535,-0.00013708589909182487,0.5445358024914995
4525,4.0,300.03632999999996,527.75374,0.0,0.0,0.0,0.0,0.0,0.045099813366789226,-0.15437348593797687,0.1014390614312559,-0.10748953241589089,-0.03339517707634737,-0.0011160376351943388,0.5717451849793564
4526,4.0,301.18872999999996,547.51413,0.0,0.0,0.0,0.0,0.0,0.04510978017637304,-0.15366188039274684,0.08983669120019111,-0.1026054338863679,-0.03333793756494827,0.028039835177066274,0.5672626881269685
4527,4.0,300.76225,683.8976299999999,0.0,0.0,0.0,0.0,0.0,0.045119746985956874,-0.16445228468267686,0.07016606272210124,-0.11360157860910289,0.033081880145427366,0.024442835825570077,0.5777547814549574
4528,4.0,300.04514,778.10406,0.0,0.0,0.0,0.0,0.0,0.04512971379554069,-0.2087234816294038,0.08871734570872032,-0.11651806703443789,0.005661224676569375,-0.04236489050008916,0.5842615392246244
4529,4.0,300.29714,758.8906599999999,0.0,0.0,0.0,0.0,0.0,0.04513968060512451,-0.21422229872959478,0.09123177750762541,-0.1076932970110009,0.016711600773806585,-0.06193832397558664,0.5664864676228614
4530,4.0,299.16451,666.90401,0.0,0.0,0.0,0.0,0.0,0.04514964741470834,-0.1878830447651128,0.11432764323325989,-0.12916676187526688,0.03950302537439506,-0.019823040544881782,0.5658578979233264
4531,4.0,298.82207,612.36416,0.0,0.0,0.0,0.0,0.0,0.04515961422429214,-0.1764748922867158,0.096686980270512,-0.10635550290397089,0.04957210603738595,0.007886699939781682,0.5674559250535395
4532,4.0,299.81609,682.82051,0.0,0.0,0.0,0.0,0.0,0.04516958103387597,-0.18922900566794884,0.09333495642219301,-0.11166633171310889,-0.013533292575631987,-0.0007800606206609894,0.5809536424181605
4533,4.0,300.09411,659.61755,0.0,0.0,0.0,0.0,0.0,0.0451795478434598,-0.17932431368793184,0.08704639091580992,-0.1082293367114039,-0.04241762915454406,-0.017229730265441983,0.5861862787170814
4534,4.0,300.96398,598.6043099999999,0.0,0.0,0.0,0.0,0.0,0.045189514653043605,-0.18666115633702182,0.09524278274398082,-0.09054238848408801,-0.032689502083952666,0.014833171877170086,0.5703667494108156
4535,4.0,300.22483,650.7210200000001,0.0,0.0,0.0,0.0,0.0,0.045199481462627436,-0.18509558360751183,0.0875402915710541,-0.10024764447342221,-0.01027168711323659,0.020155156569909082,0.5799561584897165
4536,4.0,300.42463,641.78377,0.0,0.0,0.0,0.0,0.0,0.04520944827221125,-0.16120876978756685,0.06695021360772163,-0.10082768151966741,0.00965851851124656,-0.012000907839897388,0.5724544499168555
4537,4.0,300.74397,670.5371200000001,0.0,0.0,0.0,0.0,0.0,0.045219415081795084,-0.18177242725454182,0.09333100170705272,-0.1153851217001249,-0.02884878365940327,-0.009022486630025101,0.5687221938360104
4538,4.0,299.74223,668.2703700000001,0.0,0.0,0.0,0.0,0.0,0.0452293818913789,-0.17543822597690484,0.09068323430098842,-0.11838251814594487,0.0050741467580292954,0.020082653459003584,0.5736662463739505
4539,4.0,299.39714,596.81538,0.0,0.0,0.0,0.0,0.0,0.04523934870096272,-0.17962239160234983,0.08178524885182561,-0.08357982927618691,6.043251476347485e-05,0.026696424624731978,0.5584128908260615
4540,4.0,300.56621,566.41907,0.0,0.0,0.0,0.0,0.0,0.04524931551054655,-0.17268125351481284,0.09329997497574061,-0.0927959742434996,0.02115881625771258,-0.004144780492732986,0.5773672943517154
4541,4.0,299.37417999999997,473.19235999999995,0.0,0.0,0.0,0.0,0.0,0.04525928232013035,-0.18047766587925881,0.10417580942135189,-0.06753680840861404,-0.004885309262067486,-0.04839874215658395,0.5560356541039465
4542,4.0,299.91489,503.69156,0.0,0.0,0.0,0.0,0.0,0.04526924912971418,-0.13980448964012887,0.0945991287902071,-0.10790429621182489,0.02394277663621808,-0.002510484277840508,0.5541188584922735
4543,4.0,300.9881,569.14103,0.0,0.0,0.0,0.0,0.0,0.04527921593929801,-0.1892254998226028,0.09863170409469131,-0.08241086796706942,-0.0007244145868991533,0.0035766712240149667,0.5428105820762336
4544,4.0,300.9089,576.09056,0.0,0.0,0.0,0.0,0.0,0.045289182748881815,-0.15496872984172286,0.07784916535436442,-0.0979975767183578,0.015511132452829587,-0.015043560088183786,0.5672498198506986
4545,4.0,301.14725,556.97017,0.0,0.0,0.0,0.0,0.0,0.045299149558465646,-0.1970618950359948,0.1086294894408959,-0.08087262056625621,-0.03376478132857447,6.837127660796963e-05,0.5849166662092804
4546,4.0,300.77886,702.15791,0.0,0.0,0.0,0.0,0.0,0.04530911636804946,-0.20567797606883578,0.09295281421322851,-0.1007133099013798,0.02654739276027368,0.03595515142749717,0.5994208550307324
4547,4.0,298.72541,732.46319,0.0,0.0,0.0,0.0,0.0,0.04531908317763329,-0.2003320482762338,0.09042944960144182,-0.11274791539985289,0.002873031952396177,0.03058614483736747,0.5983182261394114
4548,4.0,300.25375,730.51883,0.0,0.0,0.0,0.0,0.0,0.045329049987217096,-0.16865626948007784,0.09335369850929272,-0.14675691533377985,-0.005072219252364065,-0.013688171906417386,0.5826577770988455
4549,4.0,300.75937999999996,655.1317700000001,0.0,0.0,0.0,0.0,0.0,0.04533901679680093,-0.17201348116890885,0.1071373165486299,-0.13426754393867488,-0.010731890109905091,-0.03249570685657657,0.5802462823908494
4550,4.0,299.54719,543.83928,0.0,0.0,0.0,0.0,0.0,0.04534898360638476,-0.15546387476808984,0.09562420149237391,-0.1054738841244619,0.013108070012165787,0.020543850454020178,0.5696437853319645
4551,4.0,299.41523,675.77009,0.0,0.0,0.0,0.0,0.0,0.04535895041596856,-0.2187377363427338,0.1026794315411709,-0.08935893364554011,0.015104429061441087,0.027511727198446075,0.5909740070295935
4552,4.0,299.41663,619.64124,0.0,0.0,0.0,0.0,0.0,0.04536891722555239,-0.21732947069124878,0.09099307807556761,-0.06201906886280554,-0.0007480112970829673,-0.026203355847819874,0.5675629850591055
4553,4.0,298.29627999999997,517.8254400000001,0.0,0.0,0.0,0.0,0.0,0.04537888403513621,-0.17643114014739783,0.09445908141438551,-0.07543394492575071,0.003136664530989687,-0.01769598945795818,0.5854257737220254
4554,4.0,299.05757,551.5806,0.0,0.0,0.0,0.0,0.0,0.045388850844720025,-0.15830579811856585,0.08958881374872751,-0.09894974911557991,0.027832088509063272,-0.017072474863172083,0.5494317763121945
4555,4.0,297.78139,517.39167,0.0,0.0,0.0,0.0,0.0,0.04539881765430384,-0.15236941909519086,0.10272509872317791,-0.1076298371572379,0.02302170595081548,-0.00088778512577507,0.5810951427946255
4556,4.0,298.21072000000004,556.01153,0.0,0.0,0.0,0.0,0.0,0.04540878446388767,-0.14948415903793785,0.1019327878074829,-0.12146226142739189,-0.04418292361126505,-0.02899850858692997,0.5640467437670795
4557,4.0,299.33828,604.6677900000001,0.0,0.0,0.0,0.0,0.0,0.045418751273471475,-0.1826866422897678,0.10137873252030191,-0.1024960028755679,-0.012699829520375589,0.01045022076760649,0.5885419636095693
4558,4.0,299.59661,533.1410400000001,0.0,0.0,0.0,0.0,0.0,0.045428718083055306,-0.17576580973423483,0.1046522497508729,-0.09094800364486912,-0.03052044772738367,0.04091340061258826,0.5719753244745694
4559,4.0,299.94196,545.07715,0.0,0.0,0.0,0.0,0.0,0.04543868489263912,-0.14522310799490487,0.1081069766293279,-0.1285737065917369,0.04161224629930896,0.04019421899636056,0.5790208273224065
4560,4.0,299.96788,676.57323,0.0,0.0,0.0,0.0,0.0,0.04544865170222295,-0.16743032805158684,0.06832208128911443,-0.10655311707097391,-0.005683061938749545,-0.02537226481104758,0.5698843917007105
4561,4.0,298.74512999999996,643.28356,0.0,0.0,0.0,0.0,0.0,0.04545861851180677,-0.15751580754559985,0.08854425928688801,-0.1265705922040449,0.037797173234790565,-0.022850114072880682,0.5755581261656645
4562,4.0,299.18296000000004,477.57903,0.0,0.0,0.0,0.0,0.0,0.04546858532139059,-0.17811840421391784,0.1024229374108569,-0.06947663722156024,0.03951159240399057,-0.022799308699616577,0.5558268840533425
4563,4.0,300.45606000000004,568.40715,0.0,0.0,0.0,0.0,0.0,0.04547855213097442,-0.21860418997955378,0.097601641135782,-0.05177903365619275,0.018672090769541884,-0.007464864367424753,0.5977369853520474
4564,4.0,300.27017,526.01338,0.0,0.0,0.0,0.0,0.0,0.04548851894055822,-0.2214251187879578,0.1117405421504329,-0.05021035936812665,-0.01800950119789938,-0.03748920903914686,0.5832390685487144
4565,4.0,301.05232,675.09864,0.0,0.0,0.0,0.0,0.0,0.04549848575014205,-0.18718181490090682,0.08014634011982792,-0.09817765659238031,-0.019947616604926482,-0.01959666730029048,0.6050292247317355
4566,4.0,300.55154,748.2760099999999,0.0,0.0,0.0,0.0,0.0,0.04550845255972587,-0.19397136064098283,0.1015176896390159,-0.13500355867881386,0.004770620192523555,0.032951837601093166,0.5820066321870825
4567,4.0,299.90057,863.7737300000001,0.0,0.0,0.0,0.0,0.0,0.045518419369309684,-0.18197946464747483,0.07623802068835683,-0.15682420355734386,0.013133316151657387,0.03668284839756526,0.6023031969276974
4568,4.0,299.46971,788.13594,0.0,0.0,0.0,0.0,0.0,0.045528386178893515,-0.17688566387725582,0.07518402070908513,-0.13787199878440687,0.004746021823820886,0.004515949507089516,0.5718719121693634
4569,4.0,299.47898,661.0382900000001,0.0,0.0,0.0,0.0,0.0,0.04553835298847733,-0.2110178648908418,0.1112498757895079,-0.1011711469590648,-0.01889081498912828,0.012977608995540289,0.5979227444928804
4570,4.0,299.18568,547.01849,0.0,0.0,0.0,0.0,0.0,0.04554831979806116,-0.15048579729179187,0.07128813385634103,-0.08708229644635351,0.0049015351451938555,0.03094784472556447,0.5437698766084085
4571,4.0,299.17006000000003,414.77432000000005,0.0,0.0,0.0,0.0,0.0,0.045558286607644966,-0.15229022346737486,0.09620234477418221,-0.06999316071178714,-0.03301630766520587,0.02787981866827387,0.5681447324715194
4572,4.0,300.5208,505.88974,0.0,0.0,0.0,0.0,0.0,0.045568253417228796,-0.14572586242952285,0.09533450112978271,-0.1033864875934519,-0.009901820327908581,-0.019270000534300984,0.5456767930316065
4573,4.0,300.53699,706.5932799999999,0.0,0.0,0.0,0.0,0.0,0.04557822022681263,-0.16642113095198682,0.05059366681470615,-0.09895925137501771,-0.03075226820451257,-0.019392419384882783,0.5581077100284424
4574,4.0,299.61534,701.02409,0.0,0.0,0.0,0.0,0.0,0.04558818703639643,-0.1865515632062058,0.06666031768786114,-0.09320257732312821,0.00908846785533694,0.012724158668526688,0.5555012761337075
4575,4.0,300.18226,688.57967,0.0,0.0,0.0,0.0,0.0,0.04559815384598026,-0.22271046706981182,0.08623184523992052,-0.07283240097599833,-0.007429742889808534,-0.006179817020850454,0.5953519060741584
4576,4.0,300.90252000000004,700.38245,0.0,0.0,0.0,0.0,0.0,0.04560812065556408,-0.1922446811455728,0.07462391834530734,-0.0952780134499578,0.02683321642798227,-0.04028048508337436,0.5850275563002244
4577,4.0,301.28997000000004,553.1792,0.0,0.0,0.0,0.0,0.0,0.045618087465147894,-0.2030323901902368,0.13353676770155287,-0.09865703838694159,0.016239587333972485,0.003251091168757717,0.6058484070400825
4578,4.0,299.95795,549.89499,0.0,0.0,0.0,0.0,0.0,0.045628054274731725,-0.15951352131025887,0.09479672471870831,-0.10243754847729891,0.061256628560058535,0.04654001489489186,0.5754125727887994
4579,4.0,299.07709,628.85852,0.0,0.0,0.0,0.0,0.0,0.04563802108431554,-0.17025277673514086,0.09669860427565921,-0.11760311603652389,-0.00945879394693528,0.031948675419088766,0.5747001465109884
4580,4.0,299.60297,680.20912,0.0,0.0,0.0,0.0,0.0,0.04564798789389937,-0.2026678329367578,0.1075013671770589,-0.1116001259515749,-0.035750801173829366,-0.012669037863086688,0.5812778824501604
4581,4.0,299.72979,576.58863,0.0,0.0,0.0,0.0,0.0,0.045657954703483175,-0.2082989095725018,0.1065090204266219,-0.07347864986327814,-0.06756022968467554,0.0017584125633668083,0.5889487429947154
4582,4.0,299.35443,575.1914,0.0,0.0,0.0,0.0,0.0,0.045667921513067006,-0.16589076545214385,0.08726784179141542,-0.0962209034630138,-0.005122464298322865,0.032741690543603263,0.5988503952244324
4583,4.0,300.65461,573.70786,0.0,0.0,0.0,0.0,0.0,0.045677888322650836,-0.18167965407538583,0.0982126805953369,-0.09092588642168632,0.0037495226731490763,0.032701160539603265,0.6008161814784404
4584,4.0,300.26536,687.97353,0.0,0.0,0.0,0.0,0.0,0.04568785513223464,-0.16495920357520585,0.08334901191665701,-0.12751659289490788,0.002059973221028528,-0.02666523881315418,0.5849639241939445
4585,4.0,300.735,766.36162,0.0,0.0,0.0,0.0,0.0,0.04569782194181847,-0.17465525722713182,0.08533921445832474,-0.14363875974104187,0.047693691326250856,-0.01048078647012309,0.5788526987333135
4586,4.0,300.5599,708.59302,0.0,0.0,0.0,0.0,0.0,0.04570778875140229,-0.19118837804882383,0.05521930246897086,-0.07942551095893763,0.03774633037127276,0.016355545701916684,0.5621616932810395
4587,4.0,300.67755,522.91777,0.0,0.0,0.0,0.0,0.0,0.045717755560986104,-0.16622466175759684,0.0929709250455159,-0.08570020608470183,0.03497708643721967,0.007219827055991453,0.5773269771302364
4588,4.0,301.42687,535.94794,0.0,0.0,0.0,0.0,0.0,0.045727722370569934,-0.17535753073894084,0.1008037556450561,-0.08836102111230382,-0.02558538271783068,-0.050813777160429355,0.5781559778320524
4589,4.0,301.46562,553.8566099999999,0.0,0.0,0.0,0.0,0.0,0.04573768918015375,-0.18112580143822482,0.11587564620603588,-0.10310842136850891,-0.013315066875094787,0.0004971877500261105,0.5967303213776974
4590,4.0,300.52033,532.06645,0.0,0.0,0.0,0.0,0.0,0.04574765598973758,-0.15457529496039385,0.10162777926238091,-0.10878740446898091,0.0003281706925829257,0.015684954494234484,0.5537243596983394
4591,4.0,299.99595,623.1147900000001,0.0,0.0,0.0,0.0,0.0,0.045757622799321385,-0.15317849930004088,0.07812327686416712,-0.1143561155610699,0.027771063495290578,0.031754457666420974,0.5692282109359504
4592,4.0,300.74798,580.93302,0.0,0.0,0.0,0.0,0.0,0.045767589608905215,-0.18706323424170382,0.09667797450362321,-0.08620387447091,-0.03306184008494957,-0.03906579073099336,0.5642453306541785
4593,4.0,300.63876,571.82442,0.0,0.0,0.0,0.0,0.0,0.045777556418489046,-0.20136300998798182,0.1160308051938489,-0.08848814245659972,0.021122198412348678,-0.014309096633947886,0.6026984961892103
4594,4.0,299.59821,721.03611,0.0,0.0,0.0,0.0,0.0,0.04578752322807285,-0.2086187723640698,0.08096677075229813,-0.09152497256981151,0.010607936185421791,0.012453515513816288,0.5958168561475454
4595,4.0,299.08131000000003,723.5466,0.0,0.0,0.0,0.0,0.0,0.04579749003765668,-0.2135161546024038,0.09685967152480532,-0.1032836224432999,0.04209320977727636,0.014594981096662485,0.6182516623091884
4596,4.0,299.70964,685.4667599999999,0.0,0.0,0.0,0.0,0.0,0.045807456847240496,-0.15926640987587085,0.09645268644988901,-0.14555105652227088,-0.007135485840192623,-0.03497226437999377,0.5785658070999995
4597,4.0,300.33495,749.22884,0.0,0.0,0.0,0.0,0.0,0.04581742365682431,-0.18689845951044182,0.08643102183857772,-0.1272794214440009,-0.016204416409751385,-0.019577788424427284,0.5852058376553194
4598,4.0,300.51021000000003,551.28981,0.0,0.0,0.0,0.0,0.0,0.045827390466408144,-0.20206273010953882,0.12930287176119987,-0.09481847413210481,0.007585579336638393,0.015241448845963885,0.5643609222255864
4599,4.0,299.96342999999996,475.55069000000003,0.0,0.0,0.0,0.0,0.0,0.04583735727599196,-0.18870927929415582,0.10787640143657191,-0.06372265334868624,0.01138920064852659,0.03267350387812377,0.5937245352210494
4600,4.0,300.5946,419.61967999999996,0.0,0.0,0.0,0.0,0.0,0.04584732408557579,-0.16806747997946883,0.11835535291076388,-0.07784178382738592,0.014840653715908484,-0.02054940103806798,0.5918213678232214
4601,4.0,301.98978,698.46454,0.0,0.0,0.0,0.0,0.0,0.045857290895159594,-0.18713525605881182,0.09143495847067781,-0.11661548089905188,-0.0027063318432941573,-0.014863597751172884,0.5999148752494885
4602,4.0,302.94698,740.25755,0.0,0.0,0.0,0.0,0.0,0.045867257704743425,-0.15963356104960585,0.05427965890923525,-0.11966591085510589,0.005991765199016183,0.037150460278964965,0.5654089572015194
4603,4.0,301.57321,613.3118900000001,0.0,0.0,0.0,0.0,0.0,0.045877224514327256,-0.16341234557504286,0.07928755290482221,-0.1023067074918859,0.007202229941504754,0.004652071450698706,0.5643682074938055
4604,4.0,300.91634,648.39572,0.0,0.0,0.0,0.0,0.0,0.04588719132391106,-0.18188573901322483,0.06723666447724214,-0.08244703694263902,-0.019571919679848084,-0.033105089652217964,0.5712096113739994
4605,4.0,300.57317,729.0989099999999,0.0,0.0,0.0,0.0,0.0,0.04589715813349489,-0.20170860933208978,0.08275370924440521,-0.10267295687303189,-0.02004223187276428,-0.02934882359700337,0.5733107881063694
4606,4.0,300.62108,606.7506,0.0,0.0,0.0,0.0,0.0,0.045907124943078706,-0.17948648436643683,0.10681516381183591,-0.11176571128291689,0.00045435279456612957,0.015751643576066184,0.6026445102238824
4607,4.0,300.59587,484.04789000000005,0.0,0.0,0.0,0.0,0.0,0.04591709175266254,-0.15488733546118985,0.11161095759514389,-0.1038620970578909,0.015465803696355987,0.027758544790305074,0.5904233866602514
4608,4.0,299.80881,525.37685,0.0,0.0,0.0,0.0,0.0,0.04592705856224635,-0.13519309724251988,0.1183656677967819,-0.14287400922806687,0.027096357478952275,-0.01131096456855529,0.5902887358544624
4609,4.0,299.49358,581.56921,0.0,0.0,0.0,0.0,0.0,0.04593702537183017,-0.2070206439088468,0.1095987543540549,-0.07936063356828472,0.005913142665456745,0.015840477238833386,0.5637793470656896
4610,4.0,299.96225,864.0817699999999,0.0,0.0,0.0,0.0,0.0,0.045946992181414,-0.22744747208231778,0.07586958775324533,-0.11108140269538089,0.041681043954598755,0.057108223570392844,0.5779802397347085
4611,4.0,300.24699,708.12025,0.0,0.0,0.0,0.0,0.0,0.045956958990997804,-0.2249788807311868,0.10845102570078288,-0.0987230262997041,-0.015514322164144386,0.005174437442327214,0.5699779248174415
4612,4.0,299.86902000000003,490.7827,0.0,0.0,0.0,0.0,0.0,0.045966925800581634,-0.17627991256997283,0.09762016030785972,-0.07052593268061763,-0.042908498165489056,-0.027935144150234077,0.6128922278927534
4613,4.0,300.10363,689.26576,0.0,0.0,0.0,0.0,0.0,0.045976892610165465,-0.16962733797841484,0.0951889558589185,-0.13508119390147588,-0.05161607872211035,-0.06027711360888794,0.6041512840500894
4614,4.0,299.90841,881.36154,0.0,0.0,0.0,0.0,0.0,0.04598685941974927,-0.1955964922113708,0.07455721507797422,-0.14687261836269885,0.015803746922708382,0.02373897252435418,0.6162660974132285
4615,4.0,300.61003,709.40997,0.0,0.0,0.0,0.0,0.0,0.0459968262293331,-0.2123379575186248,0.1019859631727309,-0.1052909215539049,-0.023279029932961378,0.01086706881899619,0.5993808113867805
4616,4.0,300.69826,506.98542000000003,0.0,0.0,0.0,0.0,0.0,0.046006793038916916,-0.16713517842995784,0.1030607580838049,-0.09003648486815923,0.0035031364218576465,-0.015953350260223088,0.5992142026728374
4617,4.0,299.09515,479.43469000000005,0.0,0.0,0.0,0.0,0.0,0.046016759848500746,-0.16006396942708384,0.07953414758165922,-0.06520635648336634,-0.004680047995234776,0.025066766866147276,0.5711369208118254
4618,4.0,299.94496000000004,623.41209,0.0,0.0,0.0,0.0,0.0,0.04602672665808456,-0.1932660271138718,0.1045357361218739,-0.10077141878136471,0.025610629870572374,0.058737002841140855,0.5982740889650555
4619,4.0,300.91146000000003,687.15445,0.0,0.0,0.0,0.0,0.0,0.04603669346766838,-0.17637158130651984,0.08745946055757672,-0.11996567076468989,0.012717408396360487,-0.013472356727868088,0.5612119739623095
4620,4.0,299.83462000000003,542.54704,0.0,0.0,0.0,0.0,0.0,0.04604666027725221,-0.15890372713507686,0.09600013551797572,-0.1020171611433099,-0.03716125443228026,-0.034155713482156465,0.5801544819317894
4621,4.0,300.03946,452.05887,0.0,0.0,0.0,0.0,0.0,0.04605662708683601,-0.18173382242573183,0.1039474329813129,-0.05962821811234694,0.016095076591460384,-0.021924846505563877,0.5710854274417434
4622,4.0,300.0811,776.84056,0.0,0.0,0.0,0.0,0.0,0.046066593896419844,-0.1895887297184508,0.06541346581705644,-0.1119648757225729,0.016553323002185785,0.01885495302833898,0.5721986245316074
4623,4.0,299.62268,942.68985,0.0,0.0,0.0,0.0,0.0,0.046076560706003675,-0.21590215593788378,0.05820479930561644,-0.12885681880217786,0.006564925114182664,-0.0017960524741065782,0.5862457868954545
4624,4.0,299.63498,839.29571,0.0,0.0,0.0,0.0,0.0,0.04608652751558748,-0.1940962538483088,0.07490173227097542,-0.13593041907528788,-0.036473999313453465,-0.025946940751013677,0.6229915956144835
4625,4.0,300.08277999999996,610.63824,0.0,0.0,0.0,0.0,0.0,0.04609649432517131,-0.15465561529582086,0.09362215912328771,-0.12458532115061388,0.00886535535089245,-0.0006841852749988294,0.6093327410864594
4626,4.0,300.1074,451.18947000000003,0.0,0.0,0.0,0.0,0.0,0.046106461134755125,-0.17799011661875683,0.12864919372418687,-0.0878094158638646,0.018647740343138684,0.04316329307538536,0.6224161100876874
4627,4.0,300.38999,681.32345,0.0,0.0,0.0,0.0,0.0,0.046116427944338956,-0.21718408956690077,0.1120145047124709,-0.1019357363652739,0.023361152840316275,-0.00952462004365681,0.5984305347804955
4628,4.0,300.97289,885.11081,0.0,0.0,0.0,0.0,0.0,0.04612639475392277,-0.2174722882928438,0.07083717170058453,-0.12241646944406488,-0.04415547466605606,-0.02759099780676947,0.5779172358434905
4629,4.0,299.74215,762.1593799999999,0.0,0.0,0.0,0.0,0.0,0.04613636156350659,-0.2063062215283388,0.08980274833509122,-0.11517394011428289,-0.012334047247525688,-0.0014145267265029187,0.5675683654171365
4630,4.0,299.17941,618.0208,0.0,0.0,0.0,0.0,0.0,0.04614632837309042,-0.1787939684530908,0.08780991336966372,-0.0968788371504468,0.01163001473354309,0.038591709247705164,0.5623899886610705
4631,4.0,299.86323,688.86186,0.0,0.0,0.0,0.0,0.0,0.04615629518267422,-0.16067247677463883,0.0964083314267615,-0.14513265515847787,0.02318042549947988,0.01784728087013948,0.5709631281546735
4632,4.0,300.26161,717.90629,0.0,0.0,0.0,0.0,0.0,0.046166261992258054,-0.2190484292208968,0.09801673930424899,-0.09719389105704021,0.003296164180906077,-0.02891562472874997,0.6047373175104265
4633,4.0,300.09955,633.22468,0.0,0.0,0.0,0.0,0.0,0.046176228801841884,-0.18030874695508783,0.08575916508152061,-0.09793491023942309,0.014262129452062585,-0.006656942206114045,0.6024224463319665
4634,4.0,300.39006,348.27151000000003,0.0,0.0,0.0,0.0,0.0,0.04618619561142569,-0.14610384524682687,0.13456175123771086,-0.09432374362502872,0.002194627978492918,0.028060942189899372,0.6001110506013495
4635,4.0,299.87247,402.16571,0.0,0.0,0.0,0.0,0.0,0.04619616242100952,-0.15401376188747484,0.09920377902165071,-0.06743835393614733,-0.013213029550274487,-0.010397360523139589,0.6009406896507284
4636,4.0,300.62976000000003,636.9382400000001,0.0,0.0,0.0,0.0,0.0,0.046206129230593335,-0.17429730636430482,0.09830332696253301,-0.11761934830312588,-0.03216555147049277,-0.030058514099544367,0.6040049504706474
4637,4.0,300.55084,638.7158599999999,0.0,0.0,0.0,0.0,0.0,0.046216096040177165,-0.1804037999469688,0.10087556062664271,-0.1146254374376499,-0.0008197900152269752,-0.003871222116159876,0.5985657530063404
4638,4.0,299.46165,511.31729,0.0,0.0,0.0,0.0,0.0,0.04622606284976098,-0.18753687800094881,0.11022144720300991,-0.07811225574282943,0.018547425543488382,0.03471581483268417,0.5820561699844714
4639,4.0,300.09213,478.29642,0.0,0.0,0.0,0.0,0.0,0.0462360296593448,-0.18180191283245184,0.12457232115183088,-0.08816057592452141,0.02937125594096727,-0.020131386735813182,0.5642656868486875
4640,4.0,299.4696,558.93884,0.0,0.0,0.0,0.0,0.0,0.04624599646892863,-0.1850916420646228,0.11169415556085488,-0.0965059641533971,0.032247748345104965,-0.014831603366015286,0.5614300963113364
4641,4.0,299.29200000000003,756.0645900000001,0.0,0.0,0.0,0.0,0.0,0.04625596327851243,-0.21529795490325382,0.1038972163063569,-0.11842402087004089,0.014001092921550289,-0.008764160644855312,0.5755231994347175
4642,4.0,299.53477999999996,797.50486,0.0,0.0,0.0,0.0,0.0,0.04626593008809626,-0.2100006631154518,0.11982841590614388,-0.15224931856083787,0.01895272659673848,0.04744016804523005,0.6234814412428274
4643,4.0,299.40712,501.17024000000004,0.0,0.0,0.0,0.0,0.0,0.046275896897680094,-0.18548899822383882,0.11939368095073889,-0.08624791943950691,-0.05246044738819304,-0.017463068591220685,0.6181426771284324
4644,4.0,298.91277,470.69257999999996,0.0,0.0,0.0,0.0,0.0,0.0462858637072639,-0.2049024749722998,0.1263282126476239,-0.06450452170885064,-0.04301044936405086,-0.030763853706155968,0.6419225525328234
4645,4.0,300.07633,883.10872,0.0,0.0,0.0,0.0,0.0,0.04629583051684773,-0.2058398022423068,0.07533684719516792,-0.13794003852862188,-0.019775589029448683,-0.006627668194824923,0.5943656489568224
4646,4.0,299.64887000000004,954.7148699999999,0.0,0.0,0.0,0.0,0.0,0.046305797326431544,-0.21758962265442378,0.061547006786966646,-0.13416686740873887,0.02041543620259668,0.05400639751626645,0.6044529184723584
4647,4.0,300.46135,578.90973,0.0,0.0,0.0,0.0,0.0,0.046315764136015375,-0.16093783684332783,0.09314380881732823,-0.10818008262404288,0.006950048811566414,0.025711736018550774,0.5592216771883824
4648,4.0,300.2114,397.68102999999996,0.0,0.0,0.0,0.0,0.0,0.04632573094559919,-0.11950761079198288,0.1017584986577819,-0.1031359919037299,0.002881069356164407,0.0009401196048975811,0.5750242446879744
4649,4.0,300.04787999999996,382.77986,0.0,0.0,0.0,0.0,0.0,0.04633569775518301,-0.16562243656066183,0.12905920537715188,-0.07979229330963622,0.03997299306227726,0.013232398839186088,0.5497653483776155
4650,4.0,300.73127999999997,586.23959,0.0,0.0,0.0,0.0,0.0,0.04634566456476684,-0.18790218505950182,0.12368766262202188,-0.1139876775597079,0.038531715722534256,0.015360452030458587,0.5856308352772635
4651,4.0,301.03198,672.25766,0.0,0.0,0.0,0.0,0.0,0.04635563137435064,-0.18200533292252782,0.06510815025717413,-0.08745235666112561,-0.011034072700478188,-0.026185230830031075,0.5378546745121235
4652,4.0,299.53595,474.57732999999996,0.0,0.0,0.0,0.0,0.0,0.04636559818393447,-0.16499493077373184,0.12665857271022787,-0.1059233010738159,-0.025043777234628375,-0.048768351475061554,0.5961848787163664
4653,4.0,299.35952000000003,462.22101,0.0,0.0,0.0,0.0,0.0,0.0463755649935183,-0.16424653411737086,0.1001670850109716,-0.07642420134123143,-0.019230857669687882,0.016507684191181583,0.5963823408958544
4654,4.0,299.05189,795.94672,0.0,0.0,0.0,0.0,0.0,0.046385531803102106,-0.18902378199269482,0.06900045223106444,-0.1219245973155209,0.007588177208569784,0.050429041031208856,0.6335243709339874
4655,4.0,299.09067999999996,1051.5793,0.0,0.0,0.0,0.0,0.0,0.04639549861268594,-0.2730465839475998,0.08545253634950872,-0.13205980369328787,-0.009872785544968071,0.0009403063468910109,0.6402623523764744
4656,4.0,298.97983999999997,817.51375,0.0,0.0,0.0,0.0,0.0,0.046405465422269754,-0.22342836489816278,0.08190146863829563,-0.10697686839529491,0.002410698496067418,-0.01706759707719068,0.6059752051575964
4657,4.0,300.06462999999997,474.02467,0.0,0.0,0.0,0.0,0.0,0.046415432231853584,-0.16669324939884284,0.12082229266423188,-0.0982207024963786,0.008737296547604032,0.02045350502210378,0.5726204810782415
4658,4.0,300.06138,604.92629,0.0,0.0,0.0,0.0,0.0,0.04642539904143739,-0.18422949795203583,0.12082288034928987,-0.12047587258754289,0.026957889760036578,0.038580152117064566,0.5776444486515685
4659,4.0,301.17688,723.70237,0.0,0.0,0.0,0.0,0.0,0.04643536585102122,-0.18836959733063183,0.1029214361950549,-0.13453928748299387,-0.0035384055300134365,0.01009903132269679,0.5782540908392354
4660,4.0,300.10216,452.35642,0.0,0.0,0.0,0.0,0.0,0.046445332660605035,-0.16382434319820385,0.11631737258713089,-0.0899980857291195,-0.03802421826419817,-0.029748505165198866,0.5828811784808934
4661,4.0,300.53062,329.48737,0.0,0.0,0.0,0.0,0.0,0.04645529947018885,-0.1889911958694788,0.1409640631870699,-0.052128805564212545,-0.015382046416589785,0.006205930502427654,0.6152915230695454
4662,4.0,299.71067,441.16407999999996,0.0,0.0,0.0,0.0,0.0,0.04646526627977268,-0.16110723199504584,0.1069493687875809,-0.07994499719245693,0.0019085197901562382,0.007630735637944973,0.5991278737643174
4663,4.0,299.72276,793.46146,0.0,0.0,0.0,0.0,0.0,0.0464752330893565,-0.1910049189857178,0.06646267008360485,-0.11665022524498089,0.03552108623040827,-0.012383729939678989,0.5849432640244054
4664,4.0,299.10115,1021.5918,0.0,0.0,0.0,0.0,0.0,0.046485199898940316,-0.2221641732783968,0.040072999833897165,-0.1284472124492529,0.004346737145689556,-0.02790983113623587,0.5904245215003634
4665,4.0,300.01957000000004,865.67308,0.0,0.0,0.0,0.0,0.0,0.04649516670852413,-0.1830209641602628,0.05137285715485625,-0.13149489649753587,-0.0009454447104006281,0.03355024892465177,0.5860544650115724
4666,4.0,299.69279,488.49753,0.0,0.0,0.0,0.0,0.0,0.04650513351810796,-0.17443503745039785,0.1054882418783789,-0.07954425475140672,-0.016839366545166084,0.03388409760735007,0.5850792016578215
4667,4.0,300.59376000000003,496.39294,0.0,0.0,0.0,0.0,0.0,0.046515100327691766,-0.18363077860044683,0.1121810830289109,-0.07944137034950283,-0.03689886521288446,0.021149579469800978,0.5748365502394505
4668,4.0,300.34959,588.7110700000001,0.0,0.0,0.0,0.0,0.0,0.0465250671372756,-0.1832972470650298,0.1016372835483189,-0.0972934975948706,-0.015897489782210086,-0.025249806443711876,0.5767572367315075
4669,4.0,300.78336,566.0681599999999,0.0,0.0,0.0,0.0,0.0,0.046535033946859414,-0.14035334695429685,0.09399070148941001,-0.12570794146640787,0.01077675581108299,0.02817571505522657,0.5737842089505925
4670,4.0,300.90891,472.54597,0.0,0.0,0.0,0.0,0.0,0.046545000756443244,-0.16094633801166686,0.11551505076044788,-0.0982108932221605,0.03384586565457687,0.04203532279906336,0.5784923869977535
4671,4.0,300.49986,688.87415,0.0,0.0,0.0,0.0,0.0,0.04655496756602705,-0.15734072806082086,0.0920922619165486,-0.14415208237420285,0.01952427058064548,-0.006590387785220633,0.6039531125955314
4672,4.0,299.73233,1027.7634,0.0,0.0,0.0,0.0,0.0,0.04656493437561088,-0.26138327482902074,0.07466820852042844,-0.1256993592380609,0.018275701250921282,-0.025613363619342175,0.6225869541870483
4673,4.0,300.55086,1079.4752,0.0,0.0,0.0,0.0,0.0,0.04657490118519471,-0.26207202145199476,0.07112909716039534,-0.13719058809215687,0.021144240655024082,-0.005019776466938365,0.6580679633362514
4674,4.0,300.00613,873.21054,0.0,0.0,0.0,0.0,0.0,0.04658486799477851,-0.23143879594873076,0.08961950205450622,-0.12361491126484189,0.005396068980425546,-0.002097875259569168,0.6228398715445094
4675,4.0,299.48957,622.3398099999999,0.0,0.0,0.0,0.0,0.0,0.04659483480436234,-0.18704742754014383,0.1036562249025729,-0.1057845668701239,-0.04097344682676436,-0.030429225834130765,0.6083091963654434
4676,4.0,299.47891,571.65465,0.0,0.0,0.0,0.0,0.0,0.04660480161394616,-0.16930681657428184,0.09005834877881701,-0.094520266521674,-0.03170882898791777,-0.036411247721510366,0.5803404639876445
4677,4.0,300.10998,632.3624900000001,0.0,0.0,0.0,0.0,0.0,0.046614768423529976,-0.16270607985783983,0.08135560851792342,-0.1108719335022079,-0.03396833516766367,0.02236499525625318,0.5775406817088274
4678,4.0,298.99745,474.81769,0.0,0.0,0.0,0.0,0.0,0.046624735233113807,-0.16667617613465782,0.10098448906539309,-0.07864103044001541,0.007707032965174933,0.04031822358334886,0.5802810368692796
4679,4.0,299.06888,208.73298,0.0,0.0,0.0,0.0,0.0,0.04663470204269762,-0.14128357134110286,0.1017717317040879,-0.02393777624697458,-0.003803448350096126,0.0015345995991281887,0.5701292638523775
4680,4.0,298.16073,357.60533,0.0,0.0,0.0,0.0,0.0,0.046644668852281454,-0.12910663561433286,0.10011480839856231,-0.07971126673888952,0.032319601962696363,-0.004854172491794526,0.5827690927548315
4681,4.0,299.60778999999997,866.58845,0.0,0.0,0.0,0.0,0.0,0.04665463566186526,-0.2062161435944488,0.08141021661881283,-0.13861531905776686,0.04769738664936555,0.024779866113582374,0.5805916385549335
4682,4.0,299.79883,961.0512,0.0,0.0,0.0,0.0,0.0,0.04666460247144909,-0.1866875818996298,0.04428178439702186,-0.14972977086217784,0.043086275935284364,0.013470418380426787,0.5922078619413654
4683,4.0,299.88279,727.75689,0.0,0.0,0.0,0.0,0.0,0.04667456928103292,-0.1957208585286448,0.08614276434412892,-0.11164183132569089,-0.035395638775277564,-0.027818651799487174,0.5825979953429454
4684,4.0,299.84663,678.37712,0.0,0.0,0.0,0.0,0.0,0.04668453609061672,-0.2132477750484168,0.08738671224014702,-0.08034864563479394,-0.03645219113155117,-0.026316398081976274,0.6164970171110183
4685,4.0,300.88737000000003,624.21554,0.0,0.0,0.0,0.0,0.0,0.04669450290020055,-0.20732031262592182,0.10645362604365491,-0.08887926104820011,-0.015093133349326285,0.015508991455368286,0.6069975846409974
4686,4.0,300.78032,844.6667,0.0,0.0,0.0,0.0,0.0,0.04670446970978437,-0.2056656650801208,0.08044878108917651,-0.13154070553455688,0.03853761587786656,0.012305177725676488,0.6233098372058914
4687,4.0,300.25293,751.1672599999999,0.0,0.0,0.0,0.0,0.0,0.046714436519368185,-0.19211558295033182,0.09049500181666133,-0.1267155072333469,0.0015982272471077486,-0.023366488615342875,0.5806534974735384
4688,4.0,298.9943,389.26572999999996,0.0,0.0,0.0,0.0,0.0,0.046724403328952016,-0.14352083769440385,0.12337418330608389,-0.0981804045266515,0.014296280033432987,-0.03808553002774916,0.5882710002678274
4689,4.0,298.79053999999996,301.24781,0.0,0.0,0.0,0.0,0.0,0.04673437013853583,-0.14848201415903384,0.12929271899519787,-0.07238251793159833,0.03534052911558867,-0.004112512327398366,0.5837130162829894
4690,4.0,299.25757000000004,693.59969,0.0,0.0,0.0,0.0,0.0,0.046744336948119664,-0.22570633350798078,0.1055928295537009,-0.09072348566121091,0.00987751752426008,0.02100074214936188,0.6100405570763154
4691,4.0,298.41974,682.83085,0.0,0.0,0.0,0.0,0.0,0.046754303757703466,-0.23361945201894477,0.11876570906876288,-0.09270978009724291,-0.01916693070762878,0.0025063972322371475,0.6061779767676084
4692,4.0,299.41438,474.20544,0.0,0.0,0.0,0.0,0.0,0.0467642705672873,-0.17890371357142182,0.11824433109730689,-0.08348723037604812,-0.04264566108954905,-0.01996994559738018,0.6162229228264675
4693,4.0,300.55778,351.69257999999996,0.0,0.0,0.0,0.0,0.0,0.04677423737687113,-0.15342282429665385,0.14071167271966087,-0.09419461705878492,-0.015681110223355086,0.028719304482124675,0.6128492356910104
4694,4.0,300.91962,729.4202700000001,0.0,0.0,0.0,0.0,0.0,0.04678420418645493,-0.17178858017671284,0.07163803748687383,-0.12157500576601887,-0.01117383433977159,0.002342433911655228,0.6044674788762955
4695,4.0,300.87527,995.1395,0.0,0.0,0.0,0.0,0.0,0.04679417099603876,-0.2031620862030368,0.028505246279248775,-0.12784072146939687,0.005391606626985145,-0.0034436559052123767,0.5604119623458544
4696,4.0,300.41225,656.3503400000001,0.0,0.0,0.0,0.0,0.0,0.04680413780562258,-0.2147909448182158,0.09506647317358041,-0.07978963758112413,-0.014001384737579088,-0.026140580951124478,0.5820406875229435
4697,4.0,299.66071,168.43673,0.0,0.0,0.0,0.0,0.0,0.046814104615206395,-0.12157087170561087,0.11206033401449389,-0.04169002641673526,0.03306039823005727,0.003982530679395176,0.5683083824951705
4698,4.0,299.61649,12.687775,0.0,0.0,0.0,0.0,0.0,0.046824071424790226,-0.11001833108796388,0.14559141427375386,-0.03942984946542317,-0.014762030574398986,0.01910911161717248,0.5778532187021724
4699,4.0,299.88694,521.50726,0.0,0.0,0.0,0.0,0.0,0.04683403823437404,-0.13608577058061988,0.1022523668890229,-0.12469179347112189,0.0002515133069299308,-0.004276793504536656,0.5872368670832664
4700,4.0,299.38574,769.44993,0.0,0.0,0.0,0.0,0.0,0.04684400504395787,-0.1967902933466898,0.09323039813112391,-0.1303336713529319,-0.014978864069298785,-0.015334541198901385,0.5862321992116134
4701,4.0,300.36967000000004,595.38641,0.0,0.0,0.0,0.0,0.0,0.046853971853541676,-0.19598285460700182,0.11991391394958188,-0.10491366827667291,0.010696211547383889,0.026082515640893873,0.6202786083392324
4702,4.0,299.39072999999996,562.82028,0.0,0.0,0.0,0.0,0.0,0.04686393866312551,-0.2095135329973758,0.11322339314177889,-0.07479316758901093,0.006388760337221554,0.015561700725570286,0.6180327192275804
4703,4.0,298.95254,1030.4331,0.0,0.0,0.0,0.0,0.0,0.04687390547270934,-0.25156474963750775,0.06338852500896035,-0.12504969367144386,0.00992114736429101,-0.009720464974660201,0.6252615696810124
4704,4.0,300.58391,1305.8996,0.0,0.0,0.0,0.0,0.0,0.04688387228229314,-0.27688676129659573,0.05525360909085666,-0.17532773105349983,0.00984159243798955,-0.015092730075786487,0.6257477980064994
4705,4.0,300.53831,900.69522,0.0,0.0,0.0,0.0,0.0,0.04689383909187697,-0.21064908238444577,0.08422226732984062,-0.14736203842600087,0.04167884114888136,-0.0023508654697123577,0.6180169631885254
4706,4.0,300.22215,435.5983,0.0,0.0,0.0,0.0,0.0,0.04690380590146079,-0.14930790418304285,0.11807102480020287,-0.10117412084810831,0.012154653343820888,0.017319803133081485,0.5969562761499974
4707,4.0,299.68062000000003,297.00461,0.0,0.0,0.0,0.0,0.0,0.046913772711044605,-0.16485496040491784,0.14922342952220588,-0.07465044624617544,-0.04043775061814526,-0.01877507649645578,0.6000611581664255
4708,4.0,299.16154,350.00338999999997,0.0,0.0,0.0,0.0,0.0,0.046923739520628435,-0.17477490179893984,0.12185333543598788,-0.05347072461239965,-0.04222843002962156,-0.017265842499005982,0.5907684996443114
4709,4.0,299.59902999999997,632.27387,0.0,0.0,0.0,0.0,0.0,0.04693370633021225,-0.1945418609772868,0.11679886903465088,-0.11445248577808088,-0.04901818247271795,0.026770879255330074,0.6086856289100945
4710,4.0,298.64254,583.82737,0.0,0.0,0.0,0.0,0.0,0.04694367313979608,-0.17787711896760483,0.10864438421736589,-0.1082362166795829,0.007793026994536883,0.04348217301435636,0.6043261304873454
4711,4.0,297.50092,537.8394599999999,0.0,0.0,0.0,0.0,0.0,0.046953639949379886,-0.15108238881817085,0.08066658831742242,-0.0930739594084346,-0.005188857207150335,-0.0015428657947689985,0.6037663199395965
4712,4.0,298.61035,967.5069300000001,0.0,0.0,0.0,0.0,0.0,0.046963606758963716,-0.2060218123577698,0.06427085812978983,-0.15234698573797686,0.03206478476129787,0.0002119586777411928,0.6019672639895434
4713,4.0,299.48607999999996,1225.7902,0.0,0.0,0.0,0.0,0.0,0.04697357356854755,-0.24924589638615474,0.02118861695640368,-0.14455232629620388,0.02960453043198967,-0.010586287083785189,0.6032685608279714
4714,4.0,300.40767999999997,877.47785,0.0,0.0,0.0,0.0,0.0,0.04698354037813135,-0.21557931419102178,0.06600358368854653,-0.1171556242623599,0.039399665758194265,-0.014675174775826985,0.5865879817192264
4715,4.0,300.67392,392.83286,0.0,0.0,0.0,0.0,0.0,0.04699350718771518,-0.17200899247096585,0.12389154880714388,-0.07129393977941403,-0.022649264598308377,-0.04337056554234156,0.5840136273226575
4716,4.0,298.80223,222.8227,0.0,0.0,0.0,0.0,0.0,0.047003473997299,-0.1221574624535029,0.12209674850751089,-0.06767182195793885,-0.020088364136567182,-0.03756281861916157,0.5836746445017024
4717,4.0,299.71847,420.13912,0.0,0.0,0.0,0.0,0.0,0.047013440806882814,-0.16570242252355585,0.13097014440324686,-0.09297952956536511,0.0014322429992013788,0.02405428075672268,0.5886102161363055
4718,4.0,300.25068,538.59386,0.0,0.0,0.0,0.0,0.0,0.047023407616466645,-0.15403024746660185,0.1031622249488189,-0.1128510642600329,0.011195921165451388,0.05900307421140003,0.5974841997170994
4719,4.0,300.32453,498.0088,0.0,0.0,0.0,0.0,0.0,0.04703337442605046,-0.19209561179086082,0.1133018389645209,-0.07258846810717402,0.002349272336580128,0.011131985084141389,0.6092428455375873
4720,4.0,300.99419,579.6001200000001,0.0,0.0,0.0,0.0,0.0,0.04704334123563429,-0.18616836215088683,0.1114603379677789,-0.10147594373489591,-0.007235849883797783,-0.008125948756043702,0.6256823420500394
4721,4.0,300.30852000000004,872.2261199999999,0.0,0.0,0.0,0.0,0.0,0.047053308045218095,-0.22267801266910878,0.08225629666431443,-0.1247132439757389,0.015692500167729183,0.017232240085939685,0.6255317730851794
4722,4.0,298.82043,1388.3206,0.0,0.0,0.0,0.0,0.0,0.047063274854801926,-0.27715650873821773,0.03098230738796567,-0.17584060785661684,0.007035634602463073,0.019315581590049483,0.6261779328064504
4723,4.0,299.25472,1298.9577,0.0,0.0,0.0,0.0,0.0,0.047073241664385757,-0.2801265575638387,0.07904493827437802,-0.1937690753910188,-0.0005121394711517306,-0.02015583443422598,0.6137932909416814
4724,4.0,299.60924,457.31355,0.0,0.0,0.0,0.0,0.0,0.04708320847396956,-0.17566380584666783,0.11146062167780689,-0.07480871084554493,-0.033634023429669674,-0.009185425250780891,0.5777411127111084
4725,4.0,299.5834,49.143265,0.0,0.0,0.0,0.0,0.0,0.04709317528355339,-0.12425880130588887,0.15937966083954785,-0.050059179413456355,-0.00017249186693862184,-0.002327695277025638,0.5961497392028984
4726,4.0,299.01664,326.88539,0.0,0.0,0.0,0.0,0.0,0.04710314209313721,-0.1279439007270799,0.11413339305658889,-0.08555448653482041,0.0005391970890396095,-0.0035517836737337565,0.5823972603656344
4727,4.0,299.17241,519.56019,0.0,0.0,0.0,0.0,0.0,0.047113108902721024,-0.15886427117618285,0.1083701582103019,-0.1074392144159249,0.005124409029239795,-0.025023122131339875,0.5878430946180965
4728,4.0,300.3985,414.44651,0.0,0.0,0.0,0.0,0.0,0.047123075712304854,-0.15509850691453084,0.11817358597532489,-0.08905646835818912,-0.0009196062046355661,-0.025310011738153677,0.5930323030177314
4729,4.0,300.13352000000003,310.80149,0.0,0.0,0.0,0.0,0.0,0.04713304252188867,-0.15972147062828185,0.1262238681523259,-0.060978287744338444,0.04087549999259776,0.010705351063285889,0.5955423768279564
4730,4.0,300.24085,697.39373,0.0,0.0,0.0,0.0,0.0,0.0471430093314725,-0.1983358746517268,0.09046342286404473,-0.10411783125062991,-0.02246917053878448,0.03907117615527486,0.6006292267024894
4731,4.0,300.79947999999996,1364.0545,0.0,0.0,0.0,0.0,0.0,0.047152976141056305,-0.2806727297652417,0.054984792826076545,-0.18895058480547083,-0.002215016191705078,0.005783733503760055,0.6285730229953274
4732,4.0,299.6359,1378.4579999999999,0.0,0.0,0.0,0.0,0.0,0.047162942950640135,-0.25301634186326877,0.03548639963973497,-0.20148685954770482,-0.05074439182008155,-0.011103183450048888,0.6123321235024753
4733,4.0,299.78616,704.2495,0.0,0.0,0.0,0.0,0.0,0.047172909760223966,-0.21132632861878478,0.1168343935831569,-0.11958232785435688,-0.00023046861911048182,0.013567221255230489,0.6479759315452454
4734,4.0,299.65272000000004,137.34425,0.0,0.0,0.0,0.0,0.0,0.04718287656980777,-0.15196765529803985,0.16150780015707886,-0.051289368386366545,0.001033629497936289,0.01991321473753128,0.5941956357225434
4735,4.0,299.78728,443.20347000000004,0.0,0.0,0.0,0.0,0.0,0.0471928433793916,-0.1922697793505498,0.12914021472264686,-0.07159322244820093,0.038326420106523165,-0.002416011574291778,0.6198723153141343
4736,4.0,299.90903,716.91794,0.0,0.0,0.0,0.0,0.0,0.047202810188975416,-0.2339270646168038,0.13010540637040388,-0.1141034920461379,0.02285558055717018,-0.0024269961173008676,0.5891835637053905
4737,4.0,299.81122999999997,538.99473,0.0,0.0,0.0,0.0,0.0,0.04721277699855923,-0.17837332780657683,0.1095213015164109,-0.09498891293142582,0.02699058531426337,-0.008652450935905422,0.6155731863323435
4738,4.0,300.04164,261.08326,0.0,0.0,0.0,0.0,0.0,0.047222743808143064,-0.11693058141514989,0.12218788022150488,-0.08462009161060283,0.00875539501824021,0.006643180749880894,0.5828858394313534
4739,4.0,300.78977000000003,698.65854,0.0,0.0,0.0,0.0,0.0,0.04723271061772688,-0.16150367622917186,0.1036927525686779,-0.15456383510176286,-0.01982917476098718,-0.03193676567741337,0.6502107458333044
4740,4.0,300.4439,1202.8114,0.0,0.0,0.0,0.0,0.0,0.04724267742731071,-0.23998542881971774,0.04670152797408196,-0.17234072042120482,0.0005449714595044954,-0.02240615854156568,0.5978413197148443
4741,4.0,300.13297,1088.2521,0.0,0.0,0.0,0.0,0.0,0.047252644236894514,-0.25239522968446976,0.0916375710004241,-0.17004381416701783,-0.01022062842744749,-0.004693968633058636,0.6477136720218624
4742,4.0,299.4872,505.3524,0.0,0.0,0.0,0.0,0.0,0.047262611046478345,-0.18231930873101482,0.09029820635573911,-0.06159340654879594,0.019090363450572183,0.045571633535820055,0.5908604419583855
4743,4.0,300.4495,208.28425,0.0,0.0,0.0,0.0,0.0,0.047272577856062176,-0.13991190428322986,0.1383744999064999,-0.061775801699296945,-0.015828113561113185,0.02494554466393358,0.5994658939976774
4744,4.0,300.33725,462.73985,0.0,0.0,0.0,0.0,0.0,0.04728254466564598,-0.16775128515326285,0.1146290851380099,-0.08753916281044272,0.001992159228935808,0.018858101196399683,0.5744789641466594
4745,4.0,299.40792999999996,823.76063,0.0,0.0,0.0,0.0,0.0,0.04729251147522981,-0.2140158287567178,0.08526296941479992,-0.1216498140209019,-0.03038293145031187,0.012707499823632588,0.5960020174708194
4746,4.0,298.16752,430.67447000000004,0.0,0.0,0.0,0.0,0.0,0.047302478284813626,-0.17056920460886985,0.11706197968811788,-0.07740706103098212,0.012284162918602487,0.0007881324546676172,0.5751475268276414
4747,4.0,299.76777000000004,174.76241000000002,0.0,0.0,0.0,0.0,0.0,0.04731244509439746,-0.15268294907363386,0.1342458705190359,-0.03468633736077496,-0.014539938311480186,-0.04213594562674406,0.5894164795058775
4748,4.0,300.52297000000004,563.91426,0.0,0.0,0.0,0.0,0.0,0.047322411903981274,-0.18434405600834183,0.09125704188561881,-0.07832883592520423,-0.0008908008417826982,-0.03362660947868797,0.5888239511123994
4749,4.0,299.66732,1105.7092,0.0,0.0,0.0,0.0,0.0,0.04733237871356509,-0.2397381957953178,0.07581999929335133,-0.17218979681880983,0.00986361583421309,-0.03048711889184437,0.6204732030209373
4750,4.0,299.28337999999997,1058.97,0.0,0.0,0.0,0.0,0.0,0.04734234552314892,-0.2023395095068548,0.055203891948199954,-0.17476483009294583,0.020764143184761382,0.016803700141646085,0.6258261121067283
4751,4.0,301.05435,681.7786,0.0,0.0,0.0,0.0,0.0,0.047352312332732724,-0.16369834554826884,0.10143999362134791,-0.14498531846143686,-0.008644739697344382,-0.01067197865799229,0.6281094914720804
4752,4.0,300.28165,391.77986,0.0,0.0,0.0,0.0,0.0,0.047362279142316555,-0.15395451715412786,0.13315953468932287,-0.0982963041260899,0.02264642445827808,-0.004124942474325126,0.6295845201726544
4753,4.0,299.79218,589.51823,0.0,0.0,0.0,0.0,0.0,0.047372245951900385,-0.2209443518805098,0.1291679575103849,-0.08742242930617201,-0.00807568020268258,0.015611466504231786,0.6190926700246894
4754,4.0,299.80876,989.78483,0.0,0.0,0.0,0.0,0.0,0.04738221276148419,-0.25095974813529875,0.07486040179939643,-0.1247705230038919,0.016989620389244984,0.016494297130860383,0.6173918588043323
4755,4.0,299.72187,711.02967,0.0,0.0,0.0,0.0,0.0,0.04739217957106802,-0.21089132008585282,0.08241684411615922,-0.08766078727294611,-0.031912184229987366,-0.0014549829658956387,0.5869643534688714
4756,4.0,300.27112999999997,348.09459,0.0,0.0,0.0,0.0,0.0,0.047402146380651836,-0.13998846546078586,0.11466082013114189,-0.08048441810844363,-0.03665611784667717,0.002313758224550158,0.5959485381305414
4757,4.0,300.49357000000003,348.51428,0.0,0.0,0.0,0.0,0.0,0.047412113190235666,-0.14630588731676686,0.11487111005689589,-0.07450486348505753,-0.006448572287974534,0.022007536832974777,0.5696335109759504
4758,4.0,298.24915,698.71136,0.0,0.0,0.0,0.0,0.0,0.04742207999981948,-0.16562863765127386,0.07870100876643484,-0.12546318077225188,-0.01889545364808608,0.016468948653108682,0.6104605492427654
4759,4.0,298.83226,906.2157800000001,0.0,0.0,0.0,0.0,0.0,0.0474320468094033,-0.23014608133864975,0.062438954637995044,-0.1077598472775689,0.02096534121736808,-0.027420588391701372,0.5803221241608344
4760,4.0,299.50043,758.2397599999999,0.0,0.0,0.0,0.0,0.0,0.04744201361898713,-0.18147534232522183,0.08679744651199102,-0.13580804886071085,0.025533890360998776,-0.04722663875890636,0.6339498143859754
4761,4.0,298.85811,414.32446,0.0,0.0,0.0,0.0,0.0,0.04745198042857093,-0.17517314961824382,0.12974448668478386,-0.08051562823802383,0.04054026721026286,-0.003870976099035596,0.6035520378084485
4762,4.0,299.07885,633.13155,0.0,0.0,0.0,0.0,0.0,0.047461947238154764,-0.16103698336561287,0.10020586411879881,-0.13162505860538187,0.003081151395110967,-0.01131548569050149,0.6605527058939764
4763,4.0,300.25827999999996,944.5178,0.0,0.0,0.0,0.0,0.0,0.04747191404773858,-0.22846727791046478,0.07667078689881753,-0.13531332949938588,-0.02045760969825888,-0.016460510306275884,0.6163714652911274
4764,4.0,300.26167000000004,780.00871,0.0,0.0,0.0,0.0,0.0,0.0474818808573224,-0.18725412042804282,0.08632998965785661,-0.13617904025232488,-0.01999708854105898,-0.03139879269581957,0.6298714219384693
4765,4.0,300.49287999999996,406.59455,0.0,0.0,0.0,0.0,0.0,0.04749184766690623,-0.18682277986047283,0.11386994803058889,-0.05064175465120205,0.017244460895395785,0.024316746983126077,0.5930036584374044
4766,4.0,300.29566,400.10309,0.0,0.0,0.0,0.0,0.0,0.047501814476490045,-0.16840050488983585,0.12847640418463388,-0.08169724402764023,0.0017591274113123582,0.02123827533055458,0.5974575613719705
4767,4.0,300.18121,737.73723,0.0,0.0,0.0,0.0,0.0,0.047511781286073876,-0.20970166314344282,0.08270803192989722,-0.09726006946082151,-0.009235983492345601,0.001256958736577169,0.5938304097239985
4768,4.0,299.96949,858.02273,0.0,0.0,0.0,0.0,0.0,0.04752174809565768,-0.21210548754818181,0.08903040047286642,-0.13774239396411586,-0.02042332131487488,0.028379386431327373,0.6032954727506274
4769,4.0,298.8453,571.78163,0.0,0.0,0.0,0.0,0.0,0.04753171490524151,-0.18088423248188382,0.11936747830315289,-0.1122905748347169,-0.009695063301278251,0.04199532880436625,0.6296303292096754
4770,4.0,299.83772999999997,527.59712,0.0,0.0,0.0,0.0,0.0,0.04754168171482531,-0.15057783079837486,0.1031839794284659,-0.1129824929305039,0.006760336374143253,0.018334547776978984,0.6261380512825144
4771,4.0,299.81381,777.88445,0.0,0.0,0.0,0.0,0.0,0.04755164852440914,-0.1998915681927618,0.08904019252183282,-0.12560607943385488,0.00013912860116092386,-0.021544206946497682,0.6284573300989094
4772,4.0,299.52263999999997,962.61671,0.0,0.0,0.0,0.0,0.0,0.04756161533399296,-0.23539642924931878,0.1114351080402889,-0.16865012918447184,0.033332318079893675,-0.02681724659315618,0.6290122871786794
4773,4.0,300.23465,742.65735,0.0,0.0,0.0,0.0,0.0,0.04757158214357679,-0.2067862994257188,0.08129339901478383,-0.1002563908482854,0.015748480209253984,-0.015736131730285284,0.6047130907005355
4774,4.0,300.23357000000004,286.31338,0.0,0.0,0.0,0.0,0.0,0.04758154895316061,-0.16674764066421086,0.14241060942733288,-0.06269508501152314,0.017533747851946183,-0.0014052021911326587,0.6161892221281414
4775,4.0,300.68913,473.71542999999997,0.0,0.0,0.0,0.0,0.0,0.047591515762744424,-0.14532572996503287,0.08279665990289412,-0.08146859299682412,-0.024342463270664076,-0.015014026887519087,0.5488843578131685
4776,4.0,300.57687000000004,871.85549,0.0,0.0,0.0,0.0,0.0,0.047601482572328255,-0.20959249557766882,0.07222061069811933,-0.12765041283561487,0.0029234880583508074,0.023100098071302182,0.5821792900041225
4777,4.0,299.1402,836.20794,0.0,0.0,0.0,0.0,0.0,0.04761144938191206,-0.21049841209457582,0.08148389712633453,-0.1251718207059969,-0.0040228390855983065,0.012239591059953588,0.5757070637978634
4778,4.0,299.42236,461.35955,0.0,0.0,0.0,0.0,0.0,0.04762141619149589,-0.18809238223577282,0.11708427119031789,-0.06923366998008124,0.012931697620259187,0.0015315218519494384,0.6099172546716465
4779,4.0,300.10717999999997,350.43437,0.0,0.0,0.0,0.0,0.0,0.047631383001079705,-0.15907669905964786,0.1205188039942799,-0.06796540914791364,-0.03907862354350986,-0.03998298776126367,0.6110684081102564
4780,4.0,299.29184,687.07059,0.0,0.0,0.0,0.0,0.0,0.04764134981066352,-0.2035643059627328,0.1096258587942299,-0.1149138489461139,-0.007966923003199082,-0.026705509425128574,0.6384255528601964
4781,4.0,299.77911,1133.8787,0.0,0.0,0.0,0.0,0.0,0.04765131662024734,-0.2248702197904628,0.04423372797127905,-0.16403433928142885,-0.018832988805921283,-0.0012418697200629989,0.6095348439514053
4782,4.0,299.59333,920.1065,0.0,0.0,0.0,0.0,0.0,0.04766128342983117,-0.2170374013499238,0.07921575602923642,-0.14186776068625787,0.020462921155283084,0.018191305623592082,0.6403607490936853
4783,4.0,299.95113,513.0571,0.0,0.0,0.0,0.0,0.0,0.047671250239415,-0.17509369054540183,0.1023194947081479,-0.08318234342095812,0.031839808788594465,0.008030246777473653,0.6107965531084264
4784,4.0,300.49782000000005,650.1682900000001,0.0,0.0,0.0,0.0,0.0,0.0476812170489988,-0.18390263360227682,0.0989147889473796,-0.1126470868824019,0.01958156480754998,0.024821642415205375,0.6121750596044745
4785,4.0,300.3155,937.68085,0.0,0.0,0.0,0.0,0.0,0.047691183858582634,-0.24924267425083677,0.08394466416019332,-0.1197335554317819,0.021520916379699082,0.015814413406511085,0.6074438605150414
4786,4.0,300.71942,853.91716,0.0,0.0,0.0,0.0,0.0,0.04770115066816645,-0.2092277863366748,0.10036351468860771,-0.15070521660094688,-0.015568945463785287,0.0018269028999012783,0.5877777298541454
4787,4.0,300.63899,337.40596,0.0,0.0,0.0,0.0,0.0,0.04771111747775027,-0.16023993043944984,0.13025807276297088,-0.07258113724270053,-0.02542962591245868,-0.006746600350487613,0.5862222896256355
4788,4.0,299.76087,255.05049,0.0,0.0,0.0,0.0,0.0,0.0477210842873341,-0.13193184033815888,0.13902628316582585,-0.08462343229618251,-0.012288705318800788,-0.014829907185347886,0.6180310270999134
4789,4.0,299.74076,684.73225,0.0,0.0,0.0,0.0,0.0,0.047731051096917915,-0.21807562806488878,0.1064960508253419,-0.09656192494317001,0.012161785611274789,0.002229203010330208,0.6025459615191564
4790,4.0,299.74597,990.5087300000001,0.0,0.0,0.0,0.0,0.0,0.047741017906501745,-0.21729590171543578,0.07775555117762543,-0.16154956632620085,0.015427641657839686,0.004908728511628785,0.6465052699526024
4791,4.0,299.73714,917.1175400000001,0.0,0.0,0.0,0.0,0.0,0.04775098471608555,-0.22321703132480578,0.06455133892972115,-0.12011513528694089,0.012219518575472588,-0.0016787127423010485,0.5987923967887084
4792,4.0,298.05415,587.04714,0.0,0.0,0.0,0.0,0.0,0.04776095152566938,-0.14155276149516988,0.08341132781105713,-0.1203062443883019,0.003259675626254937,-0.009992886788596141,0.6329725346645254
4793,4.0,298.968,678.07985,0.0,0.0,0.0,0.0,0.0,0.04777091833525321,-0.18983363226762082,0.08398920967433962,-0.1002749221793643,0.007843355228328894,0.01040202552659999,0.5829603538437074
4794,4.0,300.44518,893.3823,0.0,0.0,0.0,0.0,0.0,0.04778088514483701,-0.21693532653484981,0.06783713371175384,-0.12246771963412288,-0.0018311760795480083,0.02003105775066148,0.6200574361074044
4795,4.0,300.14856000000003,634.2143599999999,0.0,0.0,0.0,0.0,0.0,0.04779085195442084,-0.20994310037727082,0.09680733614389021,-0.07964956284754983,-0.01142346876690859,0.005657908612967105,0.5852980636794215
4796,4.0,299.37106,243.95823,0.0,0.0,0.0,0.0,0.0,0.04780081876400466,-0.12444860331462088,0.12586216826412888,-0.07557077421925472,-0.012335006795370388,-0.005051296955024195,0.6142714132663685
4797,4.0,299.26312,236.4843,0.0,0.0,0.0,0.0,0.0,0.04781078557358848,-0.15936720799581883,0.14764278976370884,-0.06016090902116944,-0.019252049795529382,-0.025814758222468273,0.5952557182421654
4798,4.0,299.74307999999996,695.61599,0.0,0.0,0.0,0.0,0.0,0.04782075238317231,-0.16012177534528885,0.0978239694859741,-0.14915208658266485,0.0017321054496954986,-0.016248048985557585,0.6093934651649524
4799,4.0,300.58191,880.9405800000001,0.0,0.0,0.0,0.0,0.0,0.047830719192756124,-0.23570679788744978,0.09539190276119781,-0.1274690410677149,-0.01847482718707348,-0.0002558008139330748,0.6052204047606035
4800,4.0,299.94856,856.5903,0.0,0.0,0.0,0.0,0.0,0.047840686002339955,-0.20413561689911683,0.08903132557020772,-0.14527776270529885,0.012084764418173388,0.007913477708124441,0.6180128088631154
4801,4.0,299.74322,663.0876,0.0,0.0,0.0,0.0,0.0,0.04785065281192376,-0.21086354690061182,0.1029413668245219,-0.09363989606628823,0.027776534032580475,0.009388870874759411,0.6364810651232904
4802,4.0,300.55341,742.07709,0.0,0.0,0.0,0.0,0.0,0.04786061962150759,-0.1808286557138988,0.07985443087201871,-0.12459868591943288,0.013291587843777588,0.0058423732254723445,0.6193072459983664
4803,4.0,299.55172999999996,824.6764,0.0,0.0,0.0,0.0,0.0,0.04787058643109142,-0.2262317746123378,0.0964380399196935,-0.1208873027906479,0.015120012847979087,-0.008248053397769493,0.6430656101031345
4804,4.0,299.35265,684.57746,0.0,0.0,0.0,0.0,0.0,0.04788055324067522,-0.18011370644333885,0.09700271102817222,-0.12498345751240689,-0.005400830546620475,-0.01010534437744484,0.6199296855347964
4805,4.0,299.11293,457.59688,0.0,0.0,0.0,0.0,0.0,0.04789052005025905,-0.19644102603721983,0.1257272134833099,-0.06838421986474702,-0.0032045087179353874,0.016782788686082285,0.6106081493848324
4806,4.0,298.54519,466.38412999999997,0.0,0.0,0.0,0.0,0.0,0.04790048685984287,-0.18048993633796984,0.11857156021710188,-0.07985075885365632,0.014700161523292985,0.006799489573907374,0.5937898695874974
4807,4.0,300.08941,689.78046,0.0,0.0,0.0,0.0,0.0,0.047910453669426686,-0.21494687387610478,0.1024239911909609,-0.09715315435001981,0.003121400627508257,0.02019928057201378,0.6077498316477384
4808,4.0,299.82851,746.1028,0.0,0.0,0.0,0.0,0.0,0.04792042047901052,-0.21506591049785279,0.10765991042020591,-0.11939062093543688,0.0007732216181835322,0.018308354248643882,0.6135603042136875
4809,4.0,300.35658,761.62645,0.0,0.0,0.0,0.0,0.0,0.047930387288594334,-0.19186736707333482,0.1077922814132699,-0.14744034239372886,-0.018721584997176584,0.015599716856072187,0.6314667639559174
4810,4.0,300.45976,669.65428,0.0,0.0,0.0,0.0,0.0,0.047940354098178165,-0.16354387557052386,0.06414657489902403,-0.1041608842473789,-0.021665176849436477,0.007484457381958433,0.6163479274913044
4811,4.0,300.58816,683.69298,0.0,0.0,0.0,0.0,0.0,0.04795032090776197,-0.19444395062012382,0.09172775329907441,-0.10510939779848989,-0.032447654483834173,-0.02251782680858648,0.6196101165857574
4812,4.0,299.11022,609.5234,0.0,0.0,0.0,0.0,0.0,0.0479602877173458,-0.18720648754084182,0.09523224494294082,-0.09330565120280081,0.022309977802323376,-0.013016982881176186,0.5922780396432914
4813,4.0,300.24021,600.1793299999999,0.0,0.0,0.0,0.0,0.0,0.04797025452692963,-0.20975420016112778,0.1082436742003189,-0.08092899881507032,0.005990892284055035,-0.013434083231840787,0.6263162414451005
4814,4.0,299.56571,453.05659,0.0,0.0,0.0,0.0,0.0,0.04798022133651343,-0.18380588848272883,0.12165902446431089,-0.07557103158478014,0.03785746060249046,0.005217727742249635,0.6038658312319174
4815,4.0,298.23888999999997,326.04117,0.0,0.0,0.0,0.0,0.0,0.04799018814609726,-0.14355530846280587,0.11998763802685788,-0.07554070095628673,0.016883804654801784,-0.014952558070202588,0.6399168138273724
4816,4.0,297.84397,479.69174000000004,0.0,0.0,0.0,0.0,0.0,0.04800015495568108,-0.16323175400971987,0.12450628764281389,-0.1070888527963469,0.02142363930384858,-0.013829476725613087,0.5919315993016004
4817,4.0,300.28101000000004,863.09462,0.0,0.0,0.0,0.0,0.0,0.048010121765264896,-0.2273541922781118,0.09236987319219672,-0.12737490000092389,-0.006980453407317113,0.005538845545391495,0.6354252889165933
4818,4.0,299.9221,744.29098,0.0,0.0,0.0,0.0,0.0,0.04802008857484873,-0.1984420632622068,0.0988082507656151,-0.12661206453063786,-0.027890710093598774,0.014838749818970588,0.5829730498674605
4819,4.0,300.03202999999996,626.0466200000001,0.0,0.0,0.0,0.0,0.0,0.04803005538443254,-0.1981227881556968,0.11245039477298989,-0.1046301507661919,-0.011623564383406488,0.020223658356169683,0.6435165773251413
4820,4.0,300.47997000000004,708.56043,0.0,0.0,0.0,0.0,0.0,0.048040022194016374,-0.2005356304863258,0.11468183493821589,-0.1295308834312029,-0.03982737179765556,0.023981044052744777,0.6222168139255184
4821,4.0,299.92956000000004,774.93654,0.0,0.0,0.0,0.0,0.0,0.04804998900360018,-0.2067424054313868,0.09896483640956891,-0.12778378694627787,0.011516050441795688,0.028644433405735473,0.6644310929042434
4822,4.0,300.26142999999996,790.28896,0.0,0.0,0.0,0.0,0.0,0.04805995581318401,-0.1915072478552938,0.07675782204265721,-0.12547868349878188,-0.005686200582259306,0.0094745177646371,0.6292616074982854
4823,4.0,300.73787000000004,724.91761,0.0,0.0,0.0,0.0,0.0,0.04806992262276784,-0.19497919998544883,0.09595274581079871,-0.12133039705937787,0.035493190441905166,-0.004925245298858866,0.6109842576894514
4824,4.0,298.66737,487.98796,0.0,0.0,0.0,0.0,0.0,0.04807988943235164,-0.17161526374710784,0.11034352357505789,-0.08706441258208851,0.016689066091582584,-0.036965550241715765,0.5873726425966664
4825,4.0,299.89367999999996,746.03004,0.0,0.0,0.0,0.0,0.0,0.04808985624193547,-0.21943187345623977,0.08629739137563941,-0.0936400196828004,0.011925711510226089,-0.026511623005243477,0.5987802783175125
4826,4.0,300.39865,886.0297400000001,0.0,0.0,0.0,0.0,0.0,0.04809982305151929,-0.2209142786175418,0.08517151042102361,-0.13358813948162288,0.01194490955987079,-0.016509687386629283,0.6076964434999693
4827,4.0,299.80374,493.09544000000005,0.0,0.0,0.0,0.0,0.0,0.048109789861103106,-0.17830143771198184,0.13078973522294188,-0.1023770067838239,-0.002225563314645998,0.0003868803488171176,0.6206025849262065
4828,4.0,300.28927000000004,446.09095,0.0,0.0,0.0,0.0,0.0,0.048119756670686936,-0.15406202298973784,0.1111598586506239,-0.09269833949036381,-0.02126140783033758,0.029167719327129773,0.6249361846763994
4829,4.0,300.20556,779.2950400000001,0.0,0.0,0.0,0.0,0.0,0.04812972348027075,-0.2091294706794718,0.10406623655553789,-0.13182299701241687,-0.023785461452192277,0.020301849853136582,0.6394062371019824
4830,4.0,299.80868,987.3669699999999,0.0,0.0,0.0,0.0,0.0,0.048139690289854584,-0.22164534869719282,0.06424010294950454,-0.14272966161882086,-0.015043249020403087,0.04125614664441466,0.6151075573813894
4831,4.0,300.06277,893.87897,0.0,0.0,0.0,0.0,0.0,0.04814965709943839,-0.24481616959897476,0.09100296942304383,-0.11790368654618788,-0.0021714292121533777,0.016877211436401085,0.6358092701744894
4832,4.0,299.52609,643.9748,0.0,0.0,0.0,0.0,0.0,0.04815962390902222,-0.1830287155235278,0.1016502328845969,-0.1143737765103129,-0.0052073249061229555,-0.006939081493809025,0.6069349353873144
4833,4.0,299.9648,521.66433,0.0,0.0,0.0,0.0,0.0,0.04816959071860605,-0.1933101440232258,0.10696547946417088,-0.07222826681587492,-0.0045488240012839755,0.008334904332741012,0.6294269192521004
4834,4.0,302.11322,784.33623,0.0,0.0,0.0,0.0,0.0,0.04817955752818985,-0.1995132915329288,0.09313545457025371,-0.13204079512141187,-0.007905704154682253,-0.006045851982729135,0.6008704714187985
4835,4.0,301.30277,766.32952,0.0,0.0,0.0,0.0,0.0,0.04818952433777368,-0.2017941985680368,0.09622844103050772,-0.1273792772413559,0.025143113234682078,-0.012317643741656788,0.6218646588532634
4836,4.0,301.1631,524.59312,0.0,0.0,0.0,0.0,0.0,0.0481994911473575,-0.15140667951267583,0.08522536365058851,-0.0932818935277061,-0.0016830595852300484,-0.036761462419823865,0.5978292823036565
4837,4.0,301.18788,362.75147000000004,0.0,0.0,0.0,0.0,0.0,0.048209457956941315,-0.17320784972428382,0.16065195846011385,-0.09771149973812421,0.04604619732615586,-0.016218973773938085,0.6263523131486605
4838,4.0,300.16367,684.8566400000001,0.0,0.0,0.0,0.0,0.0,0.048219424766525146,-0.1943804502363568,0.08941637580695923,-0.1032152483265519,0.02079946812299768,0.004019093403953637,0.6029219684987653
4839,4.0,300.84437,1039.9855,0.0,0.0,0.0,0.0,0.0,0.04822939157610896,-0.27297915215344476,0.08206819590250032,-0.1252186733906209,0.02280531119320898,0.029350792341947676,0.6467940563636033
4840,4.0,300.60761,842.62229,0.0,0.0,0.0,0.0,0.0,0.04823935838569279,-0.22226804154614777,0.09119519208626473,-0.1250632914877859,-0.0016653478721570386,0.008995236788460752,0.6337149328802943
4841,4.0,300.22095,498.5165,0.0,0.0,0.0,0.0,0.0,0.048249325195276596,-0.16309552253377485,0.09990312424067072,-0.08834417380289111,-0.023321643179166976,0.023214869923379275,0.6472970033157404
4842,4.0,300.07308,599.2015,0.0,0.0,0.0,0.0,0.0,0.04825929200486043,-0.18614325381340882,0.12642220172689989,-0.12242124185203589,-0.03335407559929097,0.024301637397634874,0.6166821379042884
4843,4.0,300.47785,939.70967,0.0,0.0,0.0,0.0,0.0,0.04826925881444426,-0.21062285947185783,0.06818650133298373,-0.14321191800391586,-0.03582891059753817,-0.01006629675834114,0.6258382407104254
4844,4.0,299.58811000000003,698.1836,0.0,0.0,0.0,0.0,0.0,0.04827922562402806,-0.1847463264305428,0.09250791838582072,-0.11999197473728587,-0.014968140843490487,-0.021928367549661376,0.5981071661435814
4845,4.0,299.32158,493.93653,0.0,0.0,0.0,0.0,0.0,0.04828919243361189,-0.2025507620202038,0.14154817147221688,-0.08914177996360872,-0.012584529764996386,-0.018329068120438184,0.6344155243969374
4846,4.0,299.62431000000004,380.29139,0.0,0.0,0.0,0.0,0.0,0.04829915924319571,-0.18479761715060483,0.1261463342546739,-0.05694780176156045,0.038825443754272965,0.0033138638363028974,0.5955173090204825
4847,4.0,299.7902,565.91126,0.0,0.0,0.0,0.0,0.0,0.048309126052779525,-0.19144031255368782,0.13144927997803388,-0.1120318616866839,0.026177126855731273,0.003924522719120236,0.6308743064899465
4848,4.0,300.05692,721.27168,0.0,0.0,0.0,0.0,0.0,0.048319092862363355,-0.18986047326276984,0.08221153228814652,-0.1115996395915269,0.00985413100267701,-0.01007694814471735,0.5904312393485265
4849,4.0,300.64707000000004,747.88616,0.0,0.0,0.0,0.0,0.0,0.04832905967194717,-0.17796663961393983,0.07951823144908843,-0.12889030671798288,0.016861585093358885,-0.011407772509609488,0.6239452767411043
4850,4.0,301.71308,692.52542,0.0,0.0,0.0,0.0,0.0,0.048339026481531,-0.1838554364126188,0.09428419850012591,-0.12093919132826889,-0.001256760747507629,-0.005260282219949435,0.5921845977190694
4851,4.0,300.70777999999996,667.4761599999999,0.0,0.0,0.0,0.0,0.0,0.048348993291114806,-0.2132121694399028,0.10671281541923491,-0.096396724646866,-0.023096529404449978,0.005935820215944844,0.6613876442413783
4852,4.0,299.61908,662.16026,0.0,0.0,0.0,0.0,0.0,0.048358960100698636,-0.1955445327462428,0.09552382691096771,-0.1012594770365323,-0.03215849215704607,-0.02253686679121558,0.6216867625332064
4853,4.0,299.35323999999997,675.0242400000001,0.0,0.0,0.0,0.0,0.0,0.04836892691028247,-0.19703752637108982,0.1069570796208419,-0.1151100749604799,-0.016676470379589484,0.01002303533604657,0.6494289017911424
4854,4.0,299.88239,596.57117,0.0,0.0,0.0,0.0,0.0,0.04837889371986627,-0.17540880119400085,0.1024025812163479,-0.1083365183069819,-0.0030922243948537866,0.02184483622466748,0.5952837650049334
4855,4.0,300.13111000000004,636.00242,0.0,0.0,0.0,0.0,0.0,0.0483888605294501,-0.17140183274604384,0.11476061513349088,-0.13668764114001988,0.017362827758827682,0.015603859022480985,0.6161111512079365
4856,4.0,299.25856,483.88599000000005,0.0,0.0,0.0,0.0,0.0,0.04839882733903392,-0.17630804039274883,0.13381870454187786,-0.10459993564820992,0.024067085198236377,-0.0090165499976892,0.6159625479482704
4857,4.0,299.95527999999996,656.8144900000001,0.0,0.0,0.0,0.0,0.0,0.048408794148617734,-0.2196379381290768,0.10749429469136089,-0.08751155782471833,0.03502753008019807,-0.006841435898897154,0.6230288832181634
4858,4.0,300.34292999999997,818.96906,0.0,0.0,0.0,0.0,0.0,0.048418760958201565,-0.24201422909744474,0.10288348997880992,-0.10981540749043689,0.03238097857425377,0.003082567513450727,0.6199026418896274
4859,4.0,301.24929,834.9871400000001,0.0,0.0,0.0,0.0,0.0,0.04842872776778538,-0.23212458388141274,0.07550833673484264,-0.097198995811044,-0.0009861483550702651,0.006371867634204374,0.6157167132090083
4860,4.0,300.8905,620.6170599999999,0.0,0.0,0.0,0.0,0.0,0.04843869457736921,-0.15308086252040487,0.09393693033310323,-0.12950815623145986,-0.033986948572000665,-0.018374551904177083,0.6360900417771994
4861,4.0,301.29146000000003,774.01799,0.0,0.0,0.0,0.0,0.0,0.048448661386953015,-0.14359247447647386,0.056492037813580046,-0.14818170709439585,-0.01122714750703319,-0.014372290002934588,0.6153731403651005
4862,4.0,301.44629,883.7189599999999,0.0,0.0,0.0,0.0,0.0,0.048458628196536846,-0.20971178551194178,0.08883206183204191,-0.14774877572416886,-0.012438349186319489,-0.012926268626223387,0.6419933685823124
4863,4.0,301.66503,664.13255,0.0,0.0,0.0,0.0,0.0,0.04846859500612068,-0.23749201284113677,0.1146257414126799,-0.07901343936851933,0.016665159468723184,-0.006186180231478454,0.6418026343834884
4864,4.0,299.39209,387.15695,0.0,0.0,0.0,0.0,0.0,0.04847856181570448,-0.17095455375440083,0.1142987960029129,-0.061030290779220744,-0.025599383807712477,-0.01987720889522778,0.6344875664790475
4865,4.0,299.60877999999997,544.04293,0.0,0.0,0.0,0.0,0.0,0.04848852862528831,-0.2060592215514618,0.12209018264686289,-0.08140642301043842,0.01965831242312438,0.015867763050776286,0.6077933406070324
4866,4.0,300.15858,892.1659900000001,0.0,0.0,0.0,0.0,0.0,0.04849849543487213,-0.16639675215458086,0.05516295664415994,-0.15996239110455884,-0.005518884619746505,0.014229481520590488,0.6004019648375604
4867,4.0,300.16421,574.6497,0.0,0.0,0.0,0.0,0.0,0.048508462244455944,-0.15897323609193686,0.1168527739399709,-0.13255869764502487,0.019258066474623182,0.018209623158899884,0.6089708993432483
4868,4.0,299.47702999999996,359.11329,0.0,0.0,0.0,0.0,0.0,0.048518429054039774,-0.15161950256367984,0.13294603276075187,-0.09048799721872001,-0.01039983893288419,-0.008452836410555001,0.6380146394146423
4869,4.0,299.65037,456.76044,0.0,0.0,0.0,0.0,0.0,0.04852839586362359,-0.2048384476984808,0.13566806835939588,-0.06967338505972774,0.029783452161147875,0.02321979735861558,0.6529942350505135
4870,4.0,299.70497,998.30299,0.0,0.0,0.0,0.0,0.0,0.04853836267320742,-0.24406003171184976,0.08202351866584102,-0.14142267031483086,0.006919034745880563,0.027547207163947676,0.6324976952701624
4871,4.0,299.8178,1075.5495,0.0,0.0,0.0,0.0,0.0,0.048548329482791225,-0.2801308233467597,0.08364727221609303,-0.13045663938506788,-0.02039867907244288,0.0006123770915419135,0.6336810193994474
4872,4.0,300.79674,680.13328,0.0,0.0,0.0,0.0,0.0,0.048558296292375056,-0.16560712635165084,0.1030199241047749,-0.14415632789212185,-0.011216912667773091,-0.011446710697702388,0.6237842003727074
4873,4.0,300.71493,574.64709,0.0,0.0,0.0,0.0,0.0,0.04856826310195887,-0.13176964939465188,0.09317090717800261,-0.13607962015251285,-0.002161038737677918,-0.005864121625618744,0.6320083056043634
4874,4.0,301.09286000000003,720.8063900000001,0.0,0.0,0.0,0.0,0.0,0.04857822991154269,-0.2054128794451728,0.10962086347123691,-0.12331512095775488,0.024580972211703078,0.003951938835025997,0.6586268112964053
4875,4.0,300.22865,742.01226,0.0,0.0,0.0,0.0,0.0,0.048588196721126506,-0.21686911064081477,0.11056638793455291,-0.11925047831410587,0.0018289146066498183,-0.04158461091608156,0.6495691963999883
4876,4.0,299.90091,495.28965999999997,0.0,0.0,0.0,0.0,0.0,0.04859816353071034,-0.2287981648631208,0.15118984399127586,-0.07294736737209463,0.020648094637558283,-0.015169135212827088,0.6342666779572473
4877,4.0,299.9404,526.04135,0.0,0.0,0.0,0.0,0.0,0.04860813034029415,-0.1912115814761138,0.1099280201065509,-0.07861987580442763,-0.013392357592722788,0.026532208194275073,0.5912105097354344
4878,4.0,300.33794,715.0971099999999,0.0,0.0,0.0,0.0,0.0,0.04861809714987797,-0.16701881678847386,0.07843059967249752,-0.12878344936243688,0.012440633052044887,0.02132441070830548,0.5817722978364555
4879,4.0,300.12356,963.60265,0.0,0.0,0.0,0.0,0.0,0.0486280639594618,-0.2052810150771588,0.08590635384404702,-0.17353648726171783,-0.017153758799444183,0.006905619517206584,0.6117947564444414
4880,4.0,299.83317999999997,853.11902,0.0,0.0,0.0,0.0,0.0,0.048638030769045604,-0.2233192986573988,0.0934965657601426,-0.12950414376106387,-0.003081119275082797,0.0060093833891049645,0.6498822704158864
4881,4.0,299.50091000000003,516.64729,0.0,0.0,0.0,0.0,0.0,0.048647997578629434,-0.1910943889695478,0.12912264496591289,-0.09507613248678372,-0.008038654524153432,0.0076063887579171235,0.6562728590615884
4882,4.0,299.63905,542.54576,0.0,0.0,0.0,0.0,0.0,0.04865796438821325,-0.19132086049939884,0.1036856192879739,-0.07728512347419783,-0.017581538806162783,0.0004246123842559796,0.6349098587232244
4883,4.0,299.35616,760.00999,0.0,0.0,0.0,0.0,0.0,0.04866793119779708,-0.22885303235603577,0.11057729050562888,-0.11274832069989289,-0.040723430404339664,-0.02643866089204268,0.6251370716412253
4884,4.0,298.68093999999996,855.69355,0.0,0.0,0.0,0.0,0.0,0.048677898007380885,-0.18988974605815884,0.08711082652941922,-0.15733054489731585,-0.01275627970994679,-0.02146868536354428,0.5909782930775164
4885,4.0,299.71841,612.9418099999999,0.0,0.0,0.0,0.0,0.0,0.048687864816964715,-0.19303849167141582,0.1096743124140119,-0.1029548227858499,0.00013324938970819087,-0.004109540667505087,0.6370781632747193
4886,4.0,299.21709,296.20711,0.0,0.0,0.0,0.0,0.0,0.04869783162654853,-0.14340827574079487,0.12307674373922889,-0.06970803618664753,0.04728240601791016,-0.00881253867617985,0.6171629453417404
4887,4.0,299.79483,639.7939,0.0,0.0,0.0,0.0,0.0,0.04870779843613235,-0.2033290596870158,0.1062457679181409,-0.0973980731111914,0.030577921299555874,-0.009219539152497673,0.6662572127644674
4888,4.0,301.05634,976.5373900000001,0.0,0.0,0.0,0.0,0.0,0.04871776524571618,-0.25397612275549175,0.08939345102344673,-0.1322603056230759,0.02002706453201738,0.013730615939856286,0.6288495085501143
4889,4.0,299.81382,884.94484,0.0,0.0,0.0,0.0,0.0,0.048727732055299997,-0.21759811369026177,0.07670364052005993,-0.12810665909064287,-0.0036218672447254664,-0.0021894364902805582,0.6088617115124724
4890,4.0,300.66999,752.3498400000001,0.0,0.0,0.0,0.0,0.0,0.04873769886488381,-0.17599616201196883,0.07758078580037742,-0.13028019201265387,-0.02073473765360928,-0.0038607885785551664,0.6015605859294074
4891,4.0,300.93031,684.33211,0.0,0.0,0.0,0.0,0.0,0.04874766567446763,-0.19254116825733383,0.0936579258385676,-0.1091366413809479,-0.01942592655243968,-0.0017392633523769282,0.6302442675777664
4892,4.0,299.48037999999997,551.7904599999999,0.0,0.0,0.0,0.0,0.0,0.04875763248405146,-0.18401410124577783,0.13018458173321787,-0.11390100414615388,0.01212783970642459,0.0012069719680688588,0.6574888199765944
4893,4.0,300.14817999999997,653.9594400000001,0.0,0.0,0.0,0.0,0.0,0.04876759929363529,-0.2151024280314568,0.1147080781158059,-0.09839299250363231,0.013824005175073087,0.007010215298529384,0.6498526632479644
4894,4.0,300.37752,482.36212,0.0,0.0,0.0,0.0,0.0,0.048777566103219094,-0.17250454269737284,0.13469311911317589,-0.1088146102341659,-0.0030376278450155274,-0.007011077270389453,0.6527033208143024
4895,4.0,298.80323,367.24507,0.0,0.0,0.0,0.0,0.0,0.048787532912802925,-0.15877411218228485,0.13471965613329487,-0.08757887816136233,0.0038959843274037156,0.0008753517364479901,0.5880316503292055
4896,4.0,299.32369,790.1127700000001,0.0,0.0,0.0,0.0,0.0,0.04879749972238674,-0.1964240844955478,0.08355012787600562,-0.12730058823858986,-0.0034943372566642364,0.008240968246445242,0.5990711317587174
4897,4.0,299.59134,930.33106,0.0,0.0,0.0,0.0,0.0,0.04880746653197056,-0.27040091700899277,0.10115010074123772,-0.11354659965867689,0.014011434152070885,0.01989129611136808,0.6051378046124515
4898,4.0,300.3548,848.18246,0.0,0.0,0.0,0.0,0.0,0.04881743334155439,-0.2088255159144738,0.09117837720085521,-0.14017914899710485,-0.02280358360178848,-0.016219328411473086,0.6536349130887433
4899,4.0,299.81971,495.90895,0.0,0.0,0.0,0.0,0.0,0.048827400151138206,-0.18487210116545583,0.10929373567645188,-0.07516556537176372,0.004359690838942986,-0.00879030655043571,0.6521701080816784
4900,4.0,299.34726,396.15434,0.0,0.0,0.0,0.0,0.0,0.04883736696072202,-0.17087053505610883,0.14152455261238586,-0.09107504291590691,-0.01106136864492209,-0.001002417666095921,0.6590596818716263
4901,4.0,299.0113,661.74584,0.0,0.0,0.0,0.0,0.0,0.04884733377030584,-0.18657012594803782,0.0987819417267686,-0.11336602835835591,-0.0015174393980846084,0.007813158044873663,0.6177302539402294
4902,4.0,300.24414,721.5848,0.0,0.0,0.0,0.0,0.0,0.04885730057988967,-0.18263301096197482,0.07847097363598213,-0.1151817218750509,-0.0063553858041027434,-0.013291804679298988,0.6100200488942914
4903,4.0,299.17089,438.24877000000004,0.0,0.0,0.0,0.0,0.0,0.0488672673894735,-0.19084430871236682,0.12204182021958987,-0.06441419856843644,-0.004195644330527856,-0.008795727337145702,0.6184022515390504
4904,4.0,301.08052999999995,525.03923,0.0,0.0,0.0,0.0,0.0,0.048877234199057304,-0.17715263501360384,0.10943490168038389,-0.09188108944995751,0.009178807005102721,0.005638698809621244,0.6214015123650545
4905,4.0,299.74445,590.72457,0.0,0.0,0.0,0.0,0.0,0.048887201008641135,-0.20339123271315182,0.12306452394302289,-0.0992388151836085,-0.012908951168764287,0.02110170340257598,0.6487329509599573
4906,4.0,300.15974,960.50004,0.0,0.0,0.0,0.0,0.0,0.04889716781822495,-0.2136775146808288,0.08094560091795883,-0.15923611369788085,-0.025863427664521575,0.014616436667529984,0.6543552528498353
4907,4.0,300.37147999999996,1003.2065,0.0,0.0,0.0,0.0,0.0,0.04890713462780877,-0.2064794771629378,0.08109996146469302,-0.17957021935470083,-0.029708334864984372,-0.0034642753420973563,0.6251384901913654
4908,4.0,300.01611,743.79533,0.0,0.0,0.0,0.0,0.0,0.0489171014373926,-0.2046094734408828,0.1026560457288629,-0.12414177091933888,-0.0007433444697723873,0.013746134878387885,0.6315048621596774
4909,4.0,299.59391,670.4545400000001,0.0,0.0,0.0,0.0,0.0,0.048927068246976416,-0.22958973610624278,0.11764570293822688,-0.09185740675537021,0.03560471888041217,0.016741093444467284,0.6137777274201455
4910,4.0,300.04694,759.39247,0.0,0.0,0.0,0.0,0.0,0.04893703505656023,-0.2296604812282248,0.10616284352995689,-0.10733871013850589,0.05582237676948965,-0.015687207962456883,0.6428074745076584
4911,4.0,298.19738,701.1574099999999,0.0,0.0,0.0,0.0,0.0,0.04894700186614405,-0.21791450103398682,0.1067356135464849,-0.1019554542122199,0.030517613666853974,-0.018093395266429085,0.6413422034055474
4912,4.0,298.52167000000003,629.2475400000001,0.0,0.0,0.0,0.0,0.0,0.04895696867572788,-0.16680348087722183,0.097485330156803,-0.12195738608875689,0.01085853826640429,-0.023564096702845278,0.6345863887613005
4913,4.0,300.04697000000004,576.05124,0.0,0.0,0.0,0.0,0.0,0.04896693548531171,-0.15904033351355884,0.1028601244315039,-0.11892498185198189,-0.016335646483202786,-0.023917392694712877,0.6124406121906824
4914,4.0,300.19199,559.5184,0.0,0.0,0.0,0.0,0.0,0.048976902294895514,-0.1971261958873408,0.11029341835761289,-0.08324684996207442,-0.05228625956350205,0.005259622796784355,0.5957332427492934
4915,4.0,299.87483,786.09215,0.0,0.0,0.0,0.0,0.0,0.048986869104479344,-0.23433936621499477,0.08960999979506841,-0.09422301643258772,-0.05320432089610765,-0.015660202820791686,0.6084183234012134
4916,4.0,300.16397,825.52502,0.0,0.0,0.0,0.0,0.0,0.04899683591406316,-0.24746972975586076,0.1148340757657409,-0.1183033326506299,0.0006484383383608814,0.02263861230000708,0.6088209281959474
4917,4.0,300.27427,640.6915,0.0,0.0,0.0,0.0,0.0,0.04900680272364698,-0.2176732664501788,0.12160577817155589,-0.0986867337076223,0.008424129110046811,0.025130789073715774,0.6572101052715874
4918,4.0,300.71332,471.89094000000006,0.0,0.0,0.0,0.0,0.0,0.04901676953323081,-0.15803667889200584,0.13285462746923088,-0.1182610193264539,0.032115548591307864,0.008393413446515412,0.6500034956578504
4919,4.0,299.20777000000004,607.55133,0.0,0.0,0.0,0.0,0.0,0.049026736342814625,-0.14954291741123688,0.1136340735398099,-0.14877159090511285,-0.005232744412706665,-0.012647588371719788,0.6632655006517084
4920,4.0,299.10507,882.68026,0.0,0.0,0.0,0.0,0.0,0.04903670315239844,-0.2311620672139198,0.10746023935549989,-0.14461093268198785,0.012480619953991289,-0.004085494925406956,0.6494461777053474
4921,4.0,299.09119,951.8036599999999,0.0,0.0,0.0,0.0,0.0,0.04904666996198226,-0.23430476372407977,0.07688003722996893,-0.1318998216349989,-0.0021783796012143277,-0.024827767512059878,0.6317928379705984
4922,4.0,299.82294,619.65753,0.0,0.0,0.0,0.0,0.0,0.04905663677156609,-0.21462895652472883,0.11615443183854988,-0.08988589867804751,0.003470887812249957,-0.019174549335130683,0.6299631818675254
4923,4.0,299.08828,419.06141,0.0,0.0,0.0,0.0,0.0,0.04906660358114992,-0.17859243300820082,0.12095188735202188,-0.06974365800716313,0.012732824996631989,-0.015379765590614686,0.6259981518412073
4924,4.0,300.02887000000004,712.44013,0.0,0.0,0.0,0.0,0.0,0.04907657039073372,-0.18361073651346882,0.09401738847054382,-0.1269706638735289,0.023420443169917777,-0.007645421380919343,0.6414184200780694
4925,4.0,301.03128,765.8937,0.0,0.0,0.0,0.0,0.0,0.049086537200317554,-0.19287625006540382,0.1020295227945299,-0.14196583316343686,0.016058789065629086,0.0009016848399843651,0.6254270536873444
4926,4.0,300.73266,580.9063,0.0,0.0,0.0,0.0,0.0,0.04909650400990137,-0.17824047045346483,0.1102061471264999,-0.1085466866427239,-0.008984779236828673,0.007285040845677554,0.6561998543918833
4927,4.0,300.23281000000003,570.8814,0.0,0.0,0.0,0.0,0.0,0.04910647081948519,-0.17306857849803883,0.1081553289240999,-0.1086204411175029,0.015445761609377986,0.01965817766086108,0.6180812640398714
4928,4.0,300.28812,874.2351,0.0,0.0,0.0,0.0,0.0,0.04911643762906902,-0.23736747427134575,0.1028429397098079,-0.13122110618801489,0.012916369172746387,0.028365140134921373,0.6612549996707874
4929,4.0,299.41695,1040.5006,0.0,0.0,0.0,0.0,0.0,0.049126404438652835,-0.23964949588156376,0.07702032069306383,-0.15365700665976584,0.022210518185757477,0.02334466118168868,0.6424764760974914
4930,4.0,299.21799,874.51885,0.0,0.0,0.0,0.0,0.0,0.049136371248236665,-0.2150566493919388,0.11269534798466489,-0.16347058719079083,-0.02127962505388548,-0.0038584765444769865,0.6599323536527524
4931,4.0,298.79114,580.88957,0.0,0.0,0.0,0.0,0.0,0.04914633805782047,-0.17919408065257883,0.12136996447578287,-0.11875180727739089,-0.006657997911393233,0.010130537017331161,0.6272523528149875
4932,4.0,299.03337,683.8745700000001,0.0,0.0,0.0,0.0,0.0,0.0491563048674043,-0.2074880156499728,0.1040284929893129,-0.1044212692580769,-0.012519766871604788,0.008500931137151582,0.6380553416711594
4933,4.0,300.14893,741.83032,0.0,0.0,0.0,0.0,0.0,0.04916627167698813,-0.2038798928388788,0.08374464757720322,-0.10536263939598291,0.02263494433464508,-0.004826735806911735,0.5926092812334824
4934,4.0,300.9155,658.41583,0.0,0.0,0.0,0.0,0.0,0.04917623848657193,-0.2183337636603648,0.09635895473613841,-0.07816716579224862,-0.007268545235374562,-0.022088537059218878,0.6206549496913744
4935,4.0,300.40692,463.41250999999994,0.0,0.0,0.0,0.0,0.0,0.04918620529615576,-0.1850282328733648,0.11210280945868589,-0.06794040416194584,0.00999248240048123,-0.029319080653567975,0.6260734971186435
4936,4.0,300.73946,540.8324,0.0,0.0,0.0,0.0,0.0,0.04919617210573958,-0.18745803701066782,0.12557244966303588,-0.1025139475348389,-0.0019019716613849881,-0.019232348160584983,0.6425174620640364
4937,4.0,301.31588,796.30979,0.0,0.0,0.0,0.0,0.0,0.0492061389153234,-0.2137080945688468,0.10957511522922189,-0.13792531600466887,-0.016605867112621485,-0.02420660163100558,0.6394146876078164
4938,4.0,299.36203,939.3211,0.0,0.0,0.0,0.0,0.0,0.04921610572490723,-0.1993711730739028,0.09160424115163472,-0.17776322965636485,-0.019749263778600583,0.014476403477209786,0.6551558116213444
4939,4.0,298.71448,822.10017,0.0,0.0,0.0,0.0,0.0,0.049226072534491044,-0.2063857211311848,0.1035317167302849,-0.14704391842460485,-0.005193488672032425,0.027560146367724674,0.6297084609248864
4940,4.0,299.16631,596.14096,0.0,0.0,0.0,0.0,0.0,0.049236039344074875,-0.2204521555119338,0.13254532274370487,-0.0933051374850001,0.015900012774959088,0.047392265633502455,0.6406444185916814
4941,4.0,300.0377,428.60259,0.0,0.0,0.0,0.0,0.0,0.04924600615365868,-0.18812072284106984,0.13228688317319887,-0.07445064649870672,0.02029001205221828,0.01038487930840779,0.6267562149035224
4942,4.0,300.15811,438.2849,0.0,0.0,0.0,0.0,0.0,0.04925597296324251,-0.17917184994538485,0.11264991385018089,-0.06670572142484214,0.010308953438664491,-0.0020141369275798377,0.6323411177322094
4943,4.0,299.48816,443.66388,0.0,0.0,0.0,0.0,0.0,0.04926593977282634,-0.16958879394461085,0.11292527469735689,-0.07819922198566233,0.012611077930866488,0.0023601461313532877,0.6052863470771114
4944,4.0,299.15935,610.62053,0.0,0.0,0.0,0.0,0.0,0.04927590658241014,-0.1735122300543238,0.1054779573898639,-0.11757912227415589,-0.0023595741516718375,0.0047576699443204655,0.6317228426536904
4945,4.0,299.58707999999996,810.07526,0.0,0.0,0.0,0.0,0.0,0.04928587339199397,-0.19798663773975983,0.07405534419744343,-0.12231136501119189,-0.014928189405297589,-0.006935174806723463,0.6314802199172453
4946,4.0,300.50023999999996,760.36443,0.0,0.0,0.0,0.0,0.0,0.04929584020157779,-0.2094745633985298,0.10529756847456091,-0.1269548065094639,-0.022720245807563683,-0.011445135093796887,0.6581523164070764
4947,4.0,300.22131,842.00494,0.0,0.0,0.0,0.0,0.0,0.049305807011161606,-0.19903899929361982,0.09530649996326922,-0.15221598263254785,-0.005263845009951054,-0.004829993811283275,0.6515760800780523
4948,4.0,300.57088999999996,885.755,0.0,0.0,0.0,0.0,0.0,0.04931577382074544,-0.25364906588821373,0.12361980526282489,-0.13921814207226088,-0.0015302233719462887,-0.004571535799625456,0.6535784649256724
4949,4.0,301.17421,820.8512099999999,0.0,0.0,0.0,0.0,0.0,0.049325740630329254,-0.23391659774327078,0.1035294571825619,-0.11913112758482688,-0.000955529446790914,-0.0013125850524920587,0.6444440862016795
4950,4.0,301.39222,640.26235,0.0,0.0,0.0,0.0,0.0,0.049335707439913085,-0.17960070805020983,0.10080761815443731,-0.11583067816659788,0.01219054975511359,0.00903260535082374,0.6080598456483344
4951,4.0,299.98722999999995,530.0693200000001,0.0,0.0,0.0,0.0,0.0,0.04934567424949689,-0.17991363007859285,0.11263625523883289,-0.0938504656490698,0.014479662089531385,0.013665783132207787,0.6189269225733314
4952,4.0,299.17114,589.17313,0.0,0.0,0.0,0.0,0.0,0.04935564105908072,-0.19214635535586883,0.1020833263748399,-0.0890308939256651,0.0007474444647120253,0.014995027434893985,0.6245964925803744
4953,4.0,299.99508,609.43155,0.0,0.0,0.0,0.0,0.0,0.04936560786866455,-0.18123659020415883,0.10680329865316489,-0.11081867707695191,-0.022948314219572278,-0.02973320103568847,0.6353621026403573
4954,4.0,299.05827999999997,362.33444,0.0,0.0,0.0,0.0,0.0,0.04937557467824835,-0.17175774697616986,0.13239341628871287,-0.07077629259482622,-0.017088628096266285,-0.01786660658929678,0.6390788661271735
4955,4.0,299.50135,565.12559,0.0,0.0,0.0,0.0,0.0,0.04938554148783218,-0.16472518333210984,0.10747686678964088,-0.11453575467129888,-0.02080115619766428,-0.00015080084714538488,0.6434606661846234
4956,4.0,300.36982,838.2918599999999,0.0,0.0,0.0,0.0,0.0,0.049395508297416,-0.2019440582578268,0.08580026757182711,-0.13867600260625587,-0.0005783588912970785,0.0024774967049348874,0.6401855885488984
4957,4.0,299.92614,865.65033,0.0,0.0,0.0,0.0,0.0,0.049405475106999816,-0.21161661463993378,0.11100002857984989,-0.16251949998442586,-0.0006436084791092113,0.008011405087889122,0.6679622188402384
4958,4.0,299.62082999999996,676.00963,0.0,0.0,0.0,0.0,0.0,0.04941544191658365,-0.2053856736799878,0.11196029583212089,-0.11206467072492188,0.016442075233956483,0.021080560925989377,0.6592226834152133
4959,4.0,300.44624,581.2223700000001,0.0,0.0,0.0,0.0,0.0,0.049425408726167464,-0.17597966630034084,0.11831733576701188,-0.1190147558108419,0.027660725625651077,0.0018125346081832383,0.6588235945983264
4960,4.0,299.76431,654.96334,0.0,0.0,0.0,0.0,0.0,0.049435375535751294,-0.23841378672210878,0.12858700043304888,-0.08926571260983991,0.01181984713977809,-0.0015404550701310783,0.6438822896837344
4961,4.0,300.60891000000004,796.65434,0.0,0.0,0.0,0.0,0.0,0.0494453423453351,-0.23359870065689678,0.1274511369384479,-0.13601546115618085,-0.0015993883303973386,-0.012049539791696989,0.6075164396197045
4962,4.0,300.77781,679.65681,0.0,0.0,0.0,0.0,0.0,0.04945530915491893,-0.2042508538329898,0.0900825766019581,-0.09243042096517232,-0.028579266225553974,-0.015140837164034285,0.6094971409151845
4963,4.0,299.96592999999996,357.89597000000003,0.0,0.0,0.0,0.0,0.0,0.04946527596450276,-0.16053661006872982,0.13274426426833888,-0.08099908532448734,-0.009304759565408272,0.004788523815165506,0.6319703695206194
4964,4.0,300.38228,566.15355,0.0,0.0,0.0,0.0,0.0,0.04947524277408656,-0.17044743221185182,0.10042023642920571,-0.10206934352345991,0.0015157076523386987,-0.012636244023600187,0.6527183270482834
4965,4.0,300.47617,767.73198,0.0,0.0,0.0,0.0,0.0,0.04948520958367039,-0.2032075000725188,0.11386012963711989,-0.14402398729656085,0.014261801159030186,0.01313020446060029,0.6669241035827844
4966,4.0,299.5754,699.97347,0.0,0.0,0.0,0.0,0.0,0.04949517639325421,-0.2073573570495778,0.11158866609294389,-0.11700576457256989,0.01101495571084149,0.007015208696347193,0.6774846419550284
4967,4.0,299.1972,692.96329,0.0,0.0,0.0,0.0,0.0,0.049505143202838026,-0.16425618025832284,0.08089120458634033,-0.12727856018141587,0.012148627545476187,0.02090059554922818,0.6579259360697344
4968,4.0,299.13849,715.3297,0.0,0.0,0.0,0.0,0.0,0.049515110012421856,-0.1953216683867478,0.09412100747877022,-0.11624170306966289,-0.013620650946253587,0.0006227355878442174,0.6286476083351884
4969,4.0,299.1249,997.4125300000001,0.0,0.0,0.0,0.0,0.0,0.04952507682200567,-0.24354096395062175,0.08334445229120702,-0.14299199206971086,-0.0034455948606037365,-0.01005380257400806,0.6466335271502603
4970,4.0,299.67068,932.38166,0.0,0.0,0.0,0.0,0.0,0.049535043631589504,-0.23010515616711077,0.08354264198426682,-0.13685823192685587,-0.019764981314151782,-0.019033997360759284,0.6170864246941884
4971,4.0,299.78754,379.80285,0.0,0.0,0.0,0.0,0.0,0.04954501044117331,-0.15967966392915586,0.1283975631943529,-0.08416848705428293,-0.013474835137612686,0.002364284042111668,0.6402135643841594
4972,4.0,299.49127999999996,152.11754,0.0,0.0,0.0,0.0,0.0,0.04955497725075714,-0.14512723427044286,0.14787469231409586,-0.04898739182867915,-0.007296922013700134,-0.006877767906407843,0.6285002311081435
4973,4.0,300.70364,642.51893,0.0,0.0,0.0,0.0,0.0,0.04956494406034097,-0.18616624445817784,0.0991067015560699,-0.1082501691334599,0.01099011183163959,-0.008453568585077263,0.6382645372868053
4974,4.0,299.5064,903.9330699999999,0.0,0.0,0.0,0.0,0.0,0.04957491086992477,-0.24090021127499978,0.07692061789647392,-0.1107934876794659,0.02226383641926958,-0.006775518913641654,0.6284650409321704
4975,4.0,299.14527000000004,748.69195,0.0,0.0,0.0,0.0,0.0,0.0495848776795086,-0.2141675021641868,0.0905807916761281,-0.10399695051369989,0.026079032087050077,-0.011793155092393788,0.6573195869448923
4976,4.0,298.87774,486.88887,0.0,0.0,0.0,0.0,0.0,0.04959484448909242,-0.15101256575377986,0.09314136789783731,-0.09013086404872372,0.009729071622334612,-0.018089394955034283,0.6513043973287393
4977,4.0,298.79752,657.5244799999999,0.0,0.0,0.0,0.0,0.0,0.049604811298676235,-0.1894195270842518,0.12231716080176389,-0.13276865319824588,0.023050664638673477,-0.0025494850847895874,0.6714988669892783
4978,4.0,298.69322999999997,1018.8358,0.0,0.0,0.0,0.0,0.0,0.04961477810826005,-0.24194152840276978,0.07792130369523392,-0.14568041816253785,-0.008479895558450532,0.013386883002432487,0.6517943544145943
4979,4.0,299.70007999999996,999.83754,0.0,0.0,0.0,0.0,0.0,0.04962474491784388,-0.2070085862326568,0.062071762934256036,-0.15898881987847485,-0.015190797486714987,0.025084797651676774,0.6308710032946204
4980,4.0,299.45542,494.53872,0.0,0.0,0.0,0.0,0.0,0.04963471172742771,-0.1924480303081418,0.11479226906661488,-0.07267166100663452,-0.03408870218679297,0.012962501436549288,0.5987615129256604
4981,4.0,299.52873,322.098,0.0,0.0,0.0,0.0,0.0,0.049644678537011516,-0.17026785389662885,0.13374588225719086,-0.06138777250725144,-0.022850839559952277,0.011176901447824291,0.6153699688922875
4982,4.0,299.29008999999996,428.21355,0.0,0.0,0.0,0.0,0.0,0.04965464534659535,-0.2077402642623678,0.14513023349073886,-0.06755618985652684,0.02220078591854698,-0.004910849852038146,0.6169402633672634
4983,4.0,299.36652000000004,578.16885,0.0,0.0,0.0,0.0,0.0,0.049664612156179164,-0.19048190968160084,0.12431210839364988,-0.10957908716961388,-0.0015647869540574486,-0.008167878970356892,0.6698139941929944
4984,4.0,299.35814,405.69883,0.0,0.0,0.0,0.0,0.0,0.04967457896576298,-0.16980987498392983,0.13247646226690887,-0.08598890231644392,-0.009457507017983272,-0.02013700014136718,0.6383979823249754
4985,4.0,299.72221,558.36789,0.0,0.0,0.0,0.0,0.0,0.0496845457753468,-0.14172683786234985,0.09898286719509841,-0.12698593355253587,-0.0002131179675781058,-0.006632779028329323,0.6683103715745984
4986,4.0,300.51961,852.4091099999999,0.0,0.0,0.0,0.0,0.0,0.04969451258493063,-0.23754058805093078,0.07126008405382274,-0.09283057774766472,0.0074299000448990425,-0.0011131834109876489,0.6192099030612594
4987,4.0,300.27063,1073.2971,0.0,0.0,0.0,0.0,0.0,0.04970447939451443,-0.2361811103917608,0.06206815069764953,-0.15214256253030184,-0.004270741057714326,-0.020117145505657682,0.6556733797724245
4988,4.0,299.40997999999996,847.3842199999999,0.0,0.0,0.0,0.0,0.0,0.04971444620409826,-0.22309413422017677,0.08311247982656313,-0.1176019811964119,0.004309927492081725,-0.03380800049833987,0.6360671321924385
4989,4.0,299.68985,469.58848,0.0,0.0,0.0,0.0,0.0,0.04972441301368209,-0.17799165675890885,0.14084570544288888,-0.10559721692663389,0.0010874885030267589,0.005508558081352355,0.6816859720371674
4990,4.0,299.20412000000005,429.69980999999996,0.0,0.0,0.0,0.0,0.0,0.049734379823265895,-0.16853023130013883,0.13132085052785888,-0.09340862781046382,0.01813138505242838,0.020972746049098878,0.6412838401997873
4991,4.0,298.80732,713.4418099999999,0.0,0.0,0.0,0.0,0.0,0.049744346632849726,-0.1934537924899028,0.1074479384992859,-0.13086264870013786,-0.012988976648412186,0.03725451194498406,0.6534609785765774
4992,4.0,299.32657,780.08954,0.0,0.0,0.0,0.0,0.0,0.04975431344243354,-0.2229157312750698,0.10383838700555091,-0.1180503950281669,-0.024113860875852777,0.03020327511483117,0.6110143816149245
4993,4.0,299.4609,543.23151,0.0,0.0,0.0,0.0,0.0,0.04976428025201737,-0.16152160062344084,0.10816944349799289,-0.11177665438399689,-0.007089229655902493,0.02610665125827587,0.6236829260252125
4994,4.0,299.27882,488.36245,0.0,0.0,0.0,0.0,0.0,0.049774247061601176,-0.18284088935249082,0.1129139465612389,-0.07852304759837142,0.0008501159017099073,0.002128944750035488,0.6252856749008915
4995,4.0,300.47179,689.08555,0.0,0.0,0.0,0.0,0.0,0.04978421387118501,-0.20238906756924582,0.12221843984452088,-0.12929416794284088,0.011598410449673989,-0.037554351901325965,0.6631787765756493
4996,4.0,300.79347,828.14841,0.0,0.0,0.0,0.0,0.0,0.04979418068076881,-0.2023469670275908,0.07630785388524884,-0.12569732260535987,0.009101358828409182,-0.029522705420164174,0.6554393797943304
4997,4.0,300.13087,752.4848099999999,0.0,0.0,0.0,0.0,0.0,0.04980414749035264,-0.1999431628878538,0.1019769959093459,-0.13077042267603586,0.009460721756575542,0.006616728336145244,0.6623763939539603
4998,4.0,299.97139,592.9619700000001,0.0,0.0,0.0,0.0,0.0,0.04981411429993647,-0.1999059360791798,0.1015371744384389,-0.08187687199211813,0.0012006303396679889,0.010932151899419389,0.6406090358981894
4999,4.0,300.53907000000004,526.91763,0.0,0.0,0.0,0.0,0.0,0.04982408110952029,-0.1827885144548218,0.1118337712921339,-0.08921505415784033,-0.0019309081590657981,-0.00043844861834650966,0.6299533128115514
5000,4.0,299.51899,685.16958,0.0,0.0,0.0,0.0,0.0,0.049834047919104105,-0.24522017267884677,0.1252309337168309,-0.0882852067000715,-0.014341729366668488,-0.01902775270039298,0.6386557430179144
5001,4.0,298.54724,888.14397,0.0,0.0,0.0,0.0,0.0,0.04984401472868792,-0.23029979137881978,0.08271369498470611,-0.12238750062370587,-0.005966678950390364,-0.006619835872876932,0.6511263084911634
5002,4.0,298.3556,698.2203599999999,0.0,0.0,0.0,0.0,0.0,0.04985398153827175,-0.20918465227991778,0.1127301328605979,-0.1157870374847909,-0.012091947348132289,0.006806065060431323,0.6345707745772594
5003,4.0,298.94558,452.98637,0.0,0.0,0.0,0.0,0.0,0.04986394834785558,-0.18047782799927484,0.15637626595313583,-0.11359498235095189,-0.006158548495951414,0.029481495525347075,0.6394383672626535
5004,4.0,299.20624,573.20357,0.0,0.0,0.0,0.0,0.0,0.049873915157439386,-0.18188076395523384,0.13730503469095187,-0.12966384210932486,-0.03355142328151767,0.019074104839467584,0.6472549027740854
5005,4.0,300.27844,762.95672,0.0,0.0,0.0,0.0,0.0,0.049883881967023216,-0.1957778234492668,0.11928937698544488,-0.15543134943987982,-0.002025913122892058,0.018565252665747784,0.6601299374222523
5006,4.0,299.93403,784.91799,0.0,0.0,0.0,0.0,0.0,0.04989384877660702,-0.21114964819884777,0.1091636546286139,-0.13660946889480485,0.000914564555847994,-0.0001981482713957118,0.6510449951706384
5007,4.0,299.65696,707.18064,0.0,0.0,0.0,0.0,0.0,0.04990381558619085,-0.2004926788145868,0.1069352440811869,-0.12140781949951888,0.026893999274981074,-0.03465063954650187,0.6590631573194693
5008,4.0,299.80471,543.88193,0.0,0.0,0.0,0.0,0.0,0.04991378239577468,-0.18346427121151382,0.11210426853882989,-0.0939665263552741,0.047263046861499555,-0.045382919757695456,0.6425208361868694
5009,4.0,300.88599,525.48229,0.0,0.0,0.0,0.0,0.0,0.0499237492053585,-0.17746397637183084,0.1129165100839919,-0.09518603060587981,0.011271512662661689,-0.02206050245545208,0.6349639156160594
5010,4.0,299.33114,810.1096,0.0,0.0,0.0,0.0,0.0,0.049933716014942314,-0.22491079032446679,0.08329040350437282,-0.10463270415644389,0.0060358079384628645,-0.005596853100366395,0.6197333480629194
5011,4.0,299.30916,765.36771,0.0,0.0,0.0,0.0,0.0,0.04994368282452613,-0.2233803773734268,0.11555374678176689,-0.12482603897687089,-0.028090268687543676,0.01084816967813099,0.6443220706246374
5012,4.0,299.31243,324.86023,0.0,0.0,0.0,0.0,0.0,0.04995364963410996,-0.1979781568364228,0.15594632367070385,-0.056717560941337446,-0.014572081644402485,0.031002135679172572,0.6343317894086734
5013,4.0,298.47062999999997,426.56492000000003,0.0,0.0,0.0,0.0,0.0,0.04996361644369379,-0.15735552151228085,0.13726265043926886,-0.10957220720143489,-0.002223189573636728,0.024891144279314676,0.6531063106440744
5014,4.0,298.41517999999996,916.37014,0.0,0.0,0.0,0.0,0.0,0.049973583253277595,-0.22830189522914277,0.09280894992428022,-0.14306070055899187,0.006187907620248934,0.030723840459706973,0.6449746847490454
5015,4.0,299.29302,935.3168400000001,0.0,0.0,0.0,0.0,0.0,0.049983550062861426,-0.2185682601310078,0.1004990145979805,-0.16624372099197784,-0.007536266176796562,0.01089032797504169,0.6596172227391514
5016,4.0,300.02662000000004,539.5103,0.0,0.0,0.0,0.0,0.0,0.04999351687244524,-0.17819321246880085,0.1341467645267549,-0.11995121168576288,0.00044147689865537754,-0.019825728697397082,0.6585401885453565
5017,4.0,300.17472000000004,534.8589099999999,0.0,0.0,0.0,0.0,0.0,0.05000348368202906,-0.16081953989415285,0.11412659414841789,-0.1158908044275319,-0.023036755754550775,-0.02028215936394328,0.6764509039380063
5018,4.0,300.39096,795.28953,0.0,0.0,0.0,0.0,0.0,0.05001345049161289,-0.2237593227783258,0.1036623753306799,-0.12165120217353889,0.0007827383974952653,-0.026490830099941375,0.6560132339884653
5019,4.0,299.84671000000003,881.3854,0.0,0.0,0.0,0.0,0.0,0.05002341730119671,-0.21674281914835078,0.07458525069499113,-0.1257615829267019,0.00897549452218734,-0.017465187297179784,0.6517622850489294
5020,4.0,299.68156,663.24101,0.0,0.0,0.0,0.0,0.0,0.050033384110780524,-0.22314965019315577,0.11963935356998488,-0.0980984062490589,0.00858538026408606,0.001128702248194239,0.6478909705243604
5021,4.0,300.2038,426.83902,0.0,0.0,0.0,0.0,0.0,0.05004335092036434,-0.17066682112350384,0.14116602419700186,-0.10024760698316851,0.012936293722712789,0.01001843193819225,0.6417207333779054
5022,4.0,299.58701,521.32388,0.0,0.0,0.0,0.0,0.0,0.05005331772994817,-0.18103880378463882,0.1105982749151999,-0.08802891218002722,-0.005107890215509515,0.006807257047848963,0.6350827495877874
5023,4.0,299.32762,1010.6271,0.0,0.0,0.0,0.0,0.0,0.050063284539532,-0.2279808671999598,0.07961421967081173,-0.15883875753866486,-0.016093227410027885,-0.01021795851343399,0.6505441760437113
5024,4.0,299.73135,1051.3611,0.0,0.0,0.0,0.0,0.0,0.050073251349115805,-0.2529753761617258,0.09315571450600321,-0.15976784708535885,-0.0017729940429058884,0.0025212625231292377,0.6641427725882885
5025,4.0,300.06026,604.8609,0.0,0.0,0.0,0.0,0.0,0.050083218158699636,-0.17532293838052682,0.1095480209215479,-0.11808769276434788,-0.011253984449181789,0.007823696555188733,0.6631717344874544
5026,4.0,300.72207000000003,491.89257000000003,0.0,0.0,0.0,0.0,0.0,0.05009318496828345,-0.1908395160393938,0.1067263625730719,-0.06540991032245552,0.009207062700041341,0.022635955558244877,0.6468745590840485
5027,4.0,299.9507,814.01412,0.0,0.0,0.0,0.0,0.0,0.05010315177786727,-0.2143620867133908,0.08896143461806001,-0.12203931749184287,-0.008531032365822342,0.01237778317484209,0.6544392006206203
5028,4.0,300.38485,876.18614,0.0,0.0,0.0,0.0,0.0,0.0501131185874511,-0.24215021739336579,0.08999438128675391,-0.1141828801914729,0.0029302040826636273,-0.0016604800160266184,0.6523133816458184
5029,4.0,300.00955,586.04178,0.0,0.0,0.0,0.0,0.0,0.05012308539703492,-0.1918811168771918,0.1161403071321559,-0.1024012639912179,0.012342808821140387,-0.012674234822849588,0.6434986630633734
5030,4.0,299.4837,393.37678,0.0,0.0,0.0,0.0,0.0,0.05013305220661873,-0.15504738844698585,0.1101589094068379,-0.07468823844840523,0.013184636255972288,-0.007360133215888592,0.6403734451174384
5031,4.0,299.43529,554.7950099999999,0.0,0.0,0.0,0.0,0.0,0.05014301901620255,-0.17965648746821483,0.1103036319186209,-0.099290972232506,0.043327101166051964,-0.00014207549722175988,0.6378281406012364
5032,4.0,300.4372,892.04264,0.0,0.0,0.0,0.0,0.0,0.05015298582578638,-0.2278219591867768,0.09763057753213782,-0.14096730558738987,-0.0024793840858961576,0.008105676255992962,0.6393163922156154
5033,4.0,299.84231,907.66123,0.0,0.0,0.0,0.0,0.0,0.05016295263537021,-0.24668776412368676,0.0940247102157664,-0.12324330179066689,-0.0037449420734220066,0.004325339836702806,0.6288279668529884
5034,4.0,300.11,739.84762,0.0,0.0,0.0,0.0,0.0,0.050172919444954014,-0.20521054353270382,0.11612056902020788,-0.13580522189293187,-0.03458307400333367,-0.015793342870681588,0.6576951379619564
5035,4.0,299.27966000000004,507.78193,0.0,0.0,0.0,0.0,0.0,0.050182886254537845,-0.17319918643592885,0.10432881018645189,-0.08548265520873122,-0.018999924799646583,0.0009277335444826722,0.6385057414731103
5036,4.0,299.70976,762.19683,0.0,0.0,0.0,0.0,0.0,0.05019285306412166,-0.19174709428646483,0.0970932824148609,-0.13703499340680086,-0.01191239233766159,0.005247706671633325,0.6797052606091863
5037,4.0,300.11278,928.22659,0.0,0.0,0.0,0.0,0.0,0.05020281987370548,-0.2190928298402788,0.09255042017451531,-0.15561529486303385,0.01946070129587168,0.012485662899738988,0.6753905073108534
5038,4.0,301.00217000000004,500.61238,0.0,0.0,0.0,0.0,0.0,0.05021278668328931,-0.19013127448449582,0.13147409447298286,-0.0935164791643579,0.006848837184252603,0.025545231669368076,0.6546961000509743
5039,4.0,301.02209,329.87371,0.0,0.0,0.0,0.0,0.0,0.050222753492873126,-0.16743252680430384,0.14144680593221287,-0.07428765103462033,0.01265696904114559,-0.015642328075777586,0.6378824102765924
5040,4.0,300.722,757.62549,0.0,0.0,0.0,0.0,0.0,0.05023272030245694,-0.2390765029500138,0.1131087134954609,-0.10433143450421091,-0.0017310559252419185,-0.0026054753601403974,0.6487441068435583
5041,4.0,300.27024,999.96285,0.0,0.0,0.0,0.0,0.0,0.05024268711204076,-0.25870313712201176,0.09613365857640341,-0.14139425878202688,0.003639489690464666,-0.03141166401183987,0.6351976420166264
5042,4.0,299.84799,917.2512,0.0,0.0,0.0,0.0,0.0,0.05025265392162459,-0.2238063578479678,0.0942066311652206,-0.14922173739453887,0.018031096597280683,-0.026699992278334077,0.6591429203673413
5043,4.0,299.42697999999996,556.67934,0.0,0.0,0.0,0.0,0.0,0.05026262073120842,-0.17045919604551285,0.12575307162586188,-0.12451050276322989,-0.012333434231215188,0.0036530051295735368,0.6611667861170814
5044,4.0,299.0124,443.79767999999996,0.0,0.0,0.0,0.0,0.0,0.050272587540792224,-0.17012609007513782,0.14604801516631685,-0.11082534426260988,0.004547217594575436,0.017451916760620082,0.6830251036343294
5045,4.0,300.44931,761.59069,0.0,0.0,0.0,0.0,0.0,0.050282554350376055,-0.2074008052138658,0.11838049164574488,-0.14248424231209986,0.005644636860507285,-0.0004635067391495536,0.6515068345662184
5046,4.0,299.25898,955.9920300000001,0.0,0.0,0.0,0.0,0.0,0.05029252115995987,-0.24150119017431176,0.096066820546807,-0.14516333637150586,-0.01114378843455629,-0.009180278750872971,0.6518026225354104
5047,4.0,300.75227,670.3134,0.0,0.0,0.0,0.0,0.0,0.05030248796954369,-0.21329687714826281,0.12024168009192988,-0.1107033388180689,0.004440599872678086,-0.027991865890832076,0.6271841104207524
5048,4.0,301.19896,301.79215,0.0,0.0,0.0,0.0,0.0,0.05031245477912752,-0.13751904324457287,0.1079589509222189,-0.06217718755416064,-0.008629579348023173,0.011091316264877688,0.6312601318630244
5049,4.0,300.19706,448.63472,0.0,0.0,0.0,0.0,0.0,0.050322421588711336,-0.16188817424461885,0.12178965266720287,-0.0962752319068756,0.00977085825910863,0.014739768456451887,0.6393095426449394
5050,4.0,300.1569,1024.3216,0.0,0.0,0.0,0.0,0.0,0.05033238839829515,-0.24987488151823076,0.09867692443340421,-0.16017022896507085,0.007938486645767634,-0.0021888590390485682,0.6490182315256124
5051,4.0,300.7666,966.96478,0.0,0.0,0.0,0.0,0.0,0.05034235520787897,-0.23166048493810978,0.08316484155198083,-0.14543750158356386,-0.0095890089464365,-0.005612051345241345,0.6535964298499454
5052,4.0,300.15418999999997,530.49892,0.0,0.0,0.0,0.0,0.0,0.0503523220174628,-0.2127824298074908,0.13904384279005888,-0.08751984215753592,-0.006553772270331964,0.011445781547360688,0.6432359779749484
5053,4.0,300.28663,577.3795299999999,0.0,0.0,0.0,0.0,0.0,0.05036228882704663,-0.2060062488362338,0.13730033321048787,-0.10680303520813891,0.0031263693020236274,0.015023756114979286,0.6640902862331084
5054,4.0,299.86613,781.48665,0.0,0.0,0.0,0.0,0.0,0.050372255636630434,-0.21318789196750682,0.11741888690334189,-0.14178341774793388,0.013371676144931685,0.005544380120087714,0.6560636533134413
5055,4.0,298.37093,909.84049,0.0,0.0,0.0,0.0,0.0,0.050382222446214264,-0.20984640592022782,0.1034195296792129,-0.17014191704169984,-0.007613272880421533,-0.009037556597437392,0.6841388782767504
5056,4.0,299.74031,705.46653,0.0,0.0,0.0,0.0,0.0,0.05039218925579808,-0.18534617048974283,0.10955895389012689,-0.13865699403437987,-0.02078178690875268,0.015594222000779884,0.6635756058448133
5057,4.0,299.92917,319.10632999999996,0.0,0.0,0.0,0.0,0.0,0.0504021560653819,-0.13464833345875588,0.12255794955552787,-0.08490997942446252,-0.008095468166535502,0.013673570972476385,0.6483769556698233
5058,4.0,300.19734,499.03824000000003,0.0,0.0,0.0,0.0,0.0,0.05041212287496573,-0.1963532380485558,0.11794675980793888,-0.07328868370802993,-0.014453567859706086,0.008850399779416452,0.6297087851649183
5059,4.0,300.2193,1037.3325,0.0,0.0,0.0,0.0,0.0,0.050422089684549545,-0.2693455157048327,0.07743297591553973,-0.12341065017718288,0.013894055207486487,-0.015702706635986483,0.6192869809963664
5060,4.0,300.52299999999997,847.5936300000001,0.0,0.0,0.0,0.0,0.0,0.05043205649413336,-0.22964666049686078,0.11319897381436889,-0.14119961343781687,0.02235804436056718,-0.007450855982142232,0.6601294206647014
5061,4.0,300.89162000000005,306.56372999999996,0.0,0.0,0.0,0.0,0.0,0.05044202330371718,-0.16758209265156485,0.14589590606130487,-0.07150153344665193,0.026210525605527474,0.04071374170688346,0.6581054231924484
5062,4.0,300.87117,470.35193,0.0,0.0,0.0,0.0,0.0,0.05045199011330101,-0.16600044977546885,0.14698568694135786,-0.12396048021144689,-0.012795103400778388,0.01642545185281588,0.6841565797559973
5063,4.0,300.57755,913.1814699999999,0.0,0.0,0.0,0.0,0.0,0.05046195692288484,-0.2519558945736108,0.11511222305069188,-0.14074069220252486,-0.004184487940301806,0.006795420462830783,0.6729873009886753
5064,4.0,299.56476000000004,1149.3834,0.0,0.0,0.0,0.0,0.0,0.05047192373246864,-0.26130718987901175,0.07111414969492014,-0.15919081128590987,-0.019396982050083084,0.0019267835218837283,0.6741503398509584
5065,4.0,299.92156,845.57551,0.0,0.0,0.0,0.0,0.0,0.050481890542052474,-0.2147283563595388,0.08263635867082363,-0.12494184333079987,0.0073083244210504624,0.009924268478574041,0.6275266700145604
5066,4.0,299.2412,448.03393,0.0,0.0,0.0,0.0,0.0,0.05049185735163629,-0.17601119864345283,0.11870233027500789,-0.07888225995757292,-0.032583593130500264,-0.02614516894757727,0.6440858516288244
5067,4.0,300.60656,449.53077,0.0,0.0,0.0,0.0,0.0,0.05050182416122011,-0.17645263118201884,0.12590276919563587,-0.08609627136329043,-0.01058182979659529,-0.024606864804758478,0.6348675352665474
5068,4.0,300.46879,690.66265,0.0,0.0,0.0,0.0,0.0,0.05051179097080394,-0.18401209501057983,0.08137133719922572,-0.1073034389025249,0.01162389064993869,-0.009806464880872732,0.6538992599073323
5069,4.0,299.4911,645.60615,0.0,0.0,0.0,0.0,0.0,0.050521757780387755,-0.18249345602570183,0.11638198754600788,-0.13013667526848988,-0.013285722138948686,0.02116682397325288,0.6576102580010794
5070,4.0,300.17152000000004,398.82484,0.0,0.0,0.0,0.0,0.0,0.050531724589971586,-0.18026670720843885,0.15268104416344586,-0.0936471377647529,-0.007795992777579581,0.004684500013524155,0.6613963075297333
5071,4.0,299.26283,305.09641,0.0,0.0,0.0,0.0,0.0,0.05054169139955539,-0.16339981167130585,0.14098150122129088,-0.07032337081337633,-0.008630363806250593,-0.0031885600600363774,0.6468500282991274
5072,4.0,298.70301,894.38694,0.0,0.0,0.0,0.0,0.0,0.05055165820913922,-0.24421226240687374,0.10381423112316691,-0.13147327374040185,0.027071028252952475,0.013493781901232587,0.6608616559819673
5073,4.0,299.57268,1476.4864,0.0,0.0,0.0,0.0,0.0,0.05056162501872305,-0.2776489989493227,0.03276735920838657,-0.20393335191415482,0.017781924212189285,0.0074234025786327935,0.6603511704490863
5074,4.0,300.02644,1080.7829,0.0,0.0,0.0,0.0,0.0,0.05057159182830685,-0.21878866229275978,0.06935374822293204,-0.17909610950040986,-0.006672827029256754,-0.019520142599738083,0.6717841678199353
5075,4.0,300.04479,588.31698,0.0,0.0,0.0,0.0,0.0,0.05058155863789068,-0.17187033932728185,0.1049687688171109,-0.11193209708183789,-0.025242525228493275,-0.014745074847225585,0.6649498668229423
5076,4.0,301.1679,535.34776,0.0,0.0,0.0,0.0,0.0,0.0505915254474745,-0.1934265056647098,0.1175389165101879,-0.08684475819891031,-0.0023575546428975277,0.01993066493075348,0.6559727242494674
5077,4.0,300.51287,623.24655,0.0,0.0,0.0,0.0,0.0,0.05060149225705832,-0.2004432119447048,0.0962185284047794,-0.08522670316722072,-0.0018572944247256884,0.023518450799090377,0.6242668215278384
5078,4.0,301.21945,767.5257,0.0,0.0,0.0,0.0,0.0,0.05061145906664215,-0.23471484630455178,0.11878182987785388,-0.1173756312565729,-0.01758431409818668,0.0015514496443161587,0.6388169612413254
5079,4.0,300.49599,576.68521,0.0,0.0,0.0,0.0,0.0,0.050621425876225964,-0.18149356056201985,0.11889356096638087,-0.11269790137491689,-0.006996840701184413,-0.009304190726802131,0.6477379596267593
5080,4.0,299.18459,328.49874,0.0,0.0,0.0,0.0,0.0,0.050631392685809795,-0.15577133537843385,0.16479827919432383,-0.1088823460033509,0.00997151227773664,-0.005042953853700795,0.6617218546543624
5081,4.0,299.66932,806.50793,0.0,0.0,0.0,0.0,0.0,0.0506413594953936,-0.2072352198825238,0.10400961613994988,-0.14193266948766387,0.027516681991435074,-0.001017905984209499,0.6592495649403664
5082,4.0,300.14918,1271.9081,0.0,0.0,0.0,0.0,0.0,0.05065132630497743,-0.2713413853543097,0.06250986694624354,-0.1777967884996768,0.015246304340443086,-0.025361746261759476,0.6669059765384954
5083,4.0,299.9602,959.6985,0.0,0.0,0.0,0.0,0.0,0.05066129311456126,-0.23977156212111078,0.09181093606603391,-0.14376375427337787,0.016214439479740588,-0.002409350265484358,0.6535285724907484
5084,4.0,300.02695,512.0626599999999,0.0,0.0,0.0,0.0,0.0,0.05067125992414506,-0.1920781433591368,0.11404909064826889,-0.07762521175101192,0.008969386751909553,0.01370955857627809,0.6417702711752944
5085,4.0,299.89722,514.34702,0.0,0.0,0.0,0.0,0.0,0.05068122673372889,-0.19001368681039082,0.1120844493668739,-0.07841941744439393,0.005050937757863745,0.011316900187641091,0.6404919041866295
5086,4.0,299.87665,668.28188,0.0,0.0,0.0,0.0,0.0,0.05069119354331271,-0.20168400761966182,0.12024232857199388,-0.12169932142078789,-0.01913301418703148,-0.02026090036359518,0.6416543249663513
5087,4.0,301.00663,638.4764700000001,0.0,0.0,0.0,0.0,0.0,0.05070116035289653,-0.20889370764620377,0.11711683704853189,-0.1023040325116219,-0.04008230552281557,0.0073803993324637026,0.6575631317389283
5088,4.0,299.53835,357.89213,0.0,0.0,0.0,0.0,0.0,0.05071112716248034,-0.16913389531221584,0.16410615844851684,-0.10376253510306489,-0.0011456636495681988,-0.0026509587385792578,0.6463697680167294
5089,4.0,298.84794,351.39607,0.0,0.0,0.0,0.0,0.0,0.050721093972064174,-0.17096149451758583,0.1273211268181169,-0.06317526524716323,0.006156620382336124,0.02805696619650697,0.6400781333757933
5090,4.0,298.94456,871.0639800000001,0.0,0.0,0.0,0.0,0.0,0.05073106078164798,-0.21163468088921678,0.09668410466672822,-0.14983111613717984,0.013236905775630884,-0.013347568898552488,0.6640558762597124
5091,4.0,299.28551,1298.3618,0.0,0.0,0.0,0.0,0.0,0.05074102759123181,-0.2657985729347767,0.05849029569354274,-0.18736128175861883,0.01199164369423309,-0.018322874122576882,0.6627868311719673
5092,4.0,298.95206,1043.5375,0.0,0.0,0.0,0.0,0.0,0.05075099440081564,-0.25482249056402173,0.1027303676236979,-0.16511723006080184,0.013018167370543088,0.0028082213349248674,0.6925861315779294
5093,4.0,300.93795,568.63806,0.0,0.0,0.0,0.0,0.0,0.05076096121039944,-0.1887480057129778,0.1267737893790989,-0.11087755704026289,-0.0005952097673501303,-0.005094610357048895,0.6627310010914574
5094,4.0,300.2891,510.55212,0.0,0.0,0.0,0.0,0.0,0.05077092801998327,-0.17033842676609384,0.1154768107016739,-0.1003334758761431,-0.006385163502016573,-0.02907203406718637,0.6648691715849784
5095,4.0,300.76352,856.15938,0.0,0.0,0.0,0.0,0.0,0.05078089482956709,-0.21805927420827478,0.1016114558032699,-0.14380325076227585,-0.016886446197812485,0.012960625910614186,0.6484821310302035
5096,4.0,299.93613999999997,853.1624199999999,0.0,0.0,0.0,0.0,0.0,0.05079086163915092,-0.2203339294902658,0.0928731484373661,-0.13187929318797287,0.022799959206180775,0.028826132453417773,0.6494160132498704
5097,4.0,299.8619,417.02349,0.0,0.0,0.0,0.0,0.0,0.05080082844873472,-0.16464077959877985,0.1268529039469069,-0.08897685020508142,-0.006436178516726364,0.0011713696019551789,0.6334163078108224
5098,4.0,299.60964,366.80897999999996,0.0,0.0,0.0,0.0,0.0,0.05081079525831855,-0.18112711866335482,0.15160214558946686,-0.08197579863913142,-0.009367938444918542,-0.04244587552758176,0.6543909901808623
5099,4.0,299.39489,608.36057,0.0,0.0,0.0,0.0,0.0,0.05082076206790237,-0.20093664447840281,0.12376582473473588,-0.10775560175964989,0.0030016327431630872,-0.037093214688065264,0.6576197521545163
5100,4.0,298.45568,893.78085,0.0,0.0,0.0,0.0,0.0,0.050830728877486187,-0.22663315337445078,0.0991359328082048,-0.14418983607292885,0.03490976407407547,-0.01931464939995748,0.6583189352535204
5101,4.0,299.82882,1015.7224,0.0,0.0,0.0,0.0,0.0,0.05084069568707002,-0.23413591572741577,0.08658387061616273,-0.16120220392691886,-0.001969948178793748,0.026485117395877576,0.6868703776313283
5102,4.0,299.25945,601.22755,0.0,0.0,0.0,0.0,0.0,0.050850662496653834,-0.18002413513449883,0.1070893087588919,-0.1098233412387199,-0.031675616676139974,-0.01168907910837229,0.6705980673853763
5103,4.0,300.70622000000003,560.52041,0.0,0.0,0.0,0.0,0.0,0.05086062930623765,-0.18571350404849582,0.1261837637133679,-0.11085446507048388,-0.0087154525979732,0.015409589594058087,0.6711396900938303
5104,4.0,300.8009,970.93236,0.0,0.0,0.0,0.0,0.0,0.05087059611582147,-0.25040601708814975,0.1150302105875979,-0.15976338878491886,-0.004470734031977095,0.003540029668598727,0.6564469455612694
5105,4.0,300.19616,904.1907,0.0,0.0,0.0,0.0,0.0,0.0508805629254053,-0.25080659538268374,0.09322876578521282,-0.1172735665739999,0.005297007976448985,0.007932880535614353,0.6559418910489244
5106,4.0,300.04351,459.21730999999994,0.0,0.0,0.0,0.0,0.0,0.0508905297349891,-0.18099345071016282,0.12811860530932187,-0.08671575322267852,-0.004038722591515886,-0.04228298341500556,0.6247203826701013
5107,4.0,299.90707000000003,372.50437,0.0,0.0,0.0,0.0,0.0,0.05090049654457293,-0.16468703446584484,0.12916214145481086,-0.07770714214084783,-0.021846142304046377,0.012093947503829689,0.6462371437111404
5108,4.0,299.50289,600.52278,0.0,0.0,0.0,0.0,0.0,0.05091046335415676,-0.18164170785914083,0.12156563320259388,-0.12246785135663589,0.015552798310191684,0.024036040228422477,0.6683308290941173
5109,4.0,300.4977,910.08204,0.0,0.0,0.0,0.0,0.0,0.05092043016374058,-0.2169530584115998,0.09483712806644581,-0.15452628405305685,0.0026638775760292476,0.016905299742423184,0.6590827839739064
5110,4.0,300.21544,755.86896,0.0,0.0,0.0,0.0,0.0,0.050930396973324396,-0.22615137321690282,0.1077804365196009,-0.1113943551212669,-0.007453750128402863,-0.01302096900706959,0.6664371051872214
5111,4.0,298.62372999999997,640.2886,0.0,0.0,0.0,0.0,0.0,0.05094036378290821,-0.21725051824345679,0.12294733143645689,-0.10032855249390721,0.0033105790821287167,-0.023199596191371876,0.6577264473900464
5112,4.0,299.49522,826.59691,0.0,0.0,0.0,0.0,0.0,0.050950330592492044,-0.23174713808666178,0.0962116180390974,-0.1157293024940929,0.046400001969573654,0.01137032278591349,0.6632110992538394
5113,4.0,299.50212,1031.4567,0.0,0.0,0.0,0.0,0.0,0.050960297402075874,-0.2632001335833307,0.08481627810821492,-0.13515324611608687,0.018406423686072582,-0.0003263121892495057,0.6711826721630724
5114,4.0,299.19569,995.0869,0.0,0.0,0.0,0.0,0.0,0.05097026421165968,-0.22057854832940776,0.08911719547643242,-0.17102022249338183,0.004817943734469026,-0.015501410318120084,0.6633065271482573
5115,4.0,299.08994,670.32611,0.0,0.0,0.0,0.0,0.0,0.05098023102124351,-0.18861611094746084,0.12267768531984488,-0.13782398086216785,-0.03271779202674467,0.03011004293337987,0.6742327778790943
5116,4.0,298.5799,447.70214000000004,0.0,0.0,0.0,0.0,0.0,0.05099019783082731,-0.15711116611816484,0.1252539547591029,-0.1042330681845029,-0.02285816941117568,0.028978840389238873,0.6515955040824694
5117,4.0,299.63507999999996,831.74152,0.0,0.0,0.0,0.0,0.0,0.05100016464041114,-0.21216813680186478,0.08451330214281352,-0.12517381680869388,0.01943977362830628,0.01212528124992209,0.6553210423151513
5118,4.0,300.84647,995.8946300000001,0.0,0.0,0.0,0.0,0.0,0.05101013144999497,-0.2476209066707808,0.08344261900064533,-0.13854881945370387,-0.026278446799480774,-0.03941445009040336,0.6376124297874475
5119,4.0,300.76892000000004,591.07793,0.0,0.0,0.0,0.0,0.0,0.05102009825957879,-0.2019129109497528,0.11813075589359788,-0.09589077543468272,0.017188786855401185,-0.03301996549806687,0.6540618358858774
5120,4.0,300.48506000000003,522.0891799999999,0.0,0.0,0.0,0.0,0.0,0.051030065069162606,-0.16267717183248687,0.1152263454094549,-0.1112512436771429,-0.026875143703870178,0.0003123120518227997,0.6632968607423034
5121,4.0,300.78918999999996,828.80242,0.0,0.0,0.0,0.0,0.0,0.05104003187874642,-0.2145546751598978,0.1128434851492849,-0.15022404439345885,-0.0025709743968854175,0.019681895819201878,0.6862988843099264
5122,4.0,299.86062000000004,1074.231,0.0,0.0,0.0,0.0,0.0,0.05104999868833025,-0.24025649348646977,0.07896727164096293,-0.16525016847392185,0.005247719539909595,-0.02239543430250728,0.6720255949212623
5123,4.0,300.14983,1035.6453,0.0,0.0,0.0,0.0,0.0,0.051059965497914084,-0.23954938677168378,0.07803283112049082,-0.15329375649891586,0.01135217345012229,0.008285578304622912,0.6762339062965903
5124,4.0,299.30675,717.16699,0.0,0.0,0.0,0.0,0.0,0.05106993230749789,-0.2258331924205008,0.11346110161523888,-0.1056287695347479,0.02741963593660737,0.03151639962167647,0.6631543369832373
5125,4.0,297.90927,572.98609,0.0,0.0,0.0,0.0,0.0,0.05107989911708172,-0.19076866959240182,0.12236738760922089,-0.10577218495390191,0.008552071693548761,-0.01192274471393329,0.6562808130748734
5126,4.0,299.87996,862.4812,0.0,0.0,0.0,0.0,0.0,0.05108986592666552,-0.21717828364382777,0.12210828942614989,-0.16710275442675784,-0.01048369044490969,-0.020801236244422178,0.6673230505446573
5127,4.0,301.28242,866.2646800000001,0.0,0.0,0.0,0.0,0.0,0.05109983273624935,-0.2106944861214268,0.11361996909841789,-0.16624831101493084,-0.016062510733246382,-0.006724734413329614,0.6779766964685903
5128,4.0,300.11366,454.11256,0.0,0.0,0.0,0.0,0.0,0.05110979954583318,-0.15366892248094186,0.13354345515221286,-0.11791341374714788,-0.006560399736586044,0.02613181633775948,0.6797722465732974
5129,4.0,300.4037,521.54586,0.0,0.0,0.0,0.0,0.0,0.051119766355417,-0.17329770474315184,0.11130104491955789,-0.0965402596295318,-0.025883895316541575,0.015479931442500287,0.6620751344342283
5130,4.0,300.40681,902.37556,0.0,0.0,0.0,0.0,0.0,0.051129733165000815,-0.2629024913664557,0.10859675133016489,-0.11999389991247587,-0.019739924652428877,-0.006008704815512994,0.6663679508678964
5131,4.0,300.29729,1068.8815,0.0,0.0,0.0,0.0,0.0,0.05113969997458463,-0.2616765195404618,0.08867251851104621,-0.15190928195977887,0.016447169855459284,0.009852668578807679,0.6564571591222773
5132,4.0,299.46974,808.71477,0.0,0.0,0.0,0.0,0.0,0.05114966678416846,-0.2334955416642158,0.10412555221639191,-0.1164591060111189,0.025791871942459577,0.01119874408022999,0.6588321160316674
5133,4.0,299.25764,520.56254,0.0,0.0,0.0,0.0,0.0,0.05115963359375229,-0.19485395214058782,0.13413817216590687,-0.09752223171219492,0.02091487426963738,0.0025118063665709876,0.6738452705108504
5134,4.0,299.52632,528.26094,0.0,0.0,0.0,0.0,0.0,0.051169600403336096,-0.17877975255418782,0.1261734792248529,-0.1079718698609939,0.0005046843518184675,-0.04328055954920866,0.6528162272729454
5135,4.0,300.74887,769.7219200000001,0.0,0.0,0.0,0.0,0.0,0.05117956721291993,-0.21194530283987278,0.12505711066217587,-0.14708804546645984,0.005715793362029885,-0.005295294671854895,0.6614106652836503
5136,4.0,300.64485,863.46845,0.0,0.0,0.0,0.0,0.0,0.05118953402250373,-0.23754211805858177,0.09375884757502781,-0.11868958358874988,-0.01117659038004359,0.014277292739809088,0.6470098178398974
5137,4.0,300.39446,610.53018,0.0,0.0,0.0,0.0,0.0,0.05119950083208756,-0.17315037817861184,0.1085885034743509,-0.1210240611566449,-0.008543035731806982,-0.022009710254439277,0.6734638325107054
5138,4.0,300.92725,414.95504,0.0,0.0,0.0,0.0,0.0,0.05120946764167139,-0.17356939762496582,0.13859745545850388,-0.09116402755293901,-0.047228772663616955,-0.033447378708249265,0.6556603696411404
5139,4.0,301.70994,854.2185699999999,0.0,0.0,0.0,0.0,0.0,0.05121943445125521,-0.2184604604528688,0.10780515982204089,-0.14900581379822886,-0.011781615187004888,-0.026615972566791973,0.6934100457642434
5140,4.0,301.0473,1087.362,0.0,0.0,0.0,0.0,0.0,0.051229401260839025,-0.2521140527817198,0.08686266536792761,-0.16527950206431685,0.03071627654771047,0.016165320154642886,0.6717704585460823
5141,4.0,300.13049,853.67349,0.0,0.0,0.0,0.0,0.0,0.05123936807042284,-0.23209877640136575,0.0934877200867696,-0.12088436436535789,0.0037929727626122667,0.014225762892723485,0.6901069618957544
5142,4.0,299.51707000000005,666.97555,0.0,0.0,0.0,0.0,0.0,0.05124933488000667,-0.2319305160897598,0.12468400157785288,-0.09549739932185951,-0.02176360497740058,0.014333888837394686,0.6490056368268694
5143,4.0,299.30252,805.72855,0.0,0.0,0.0,0.0,0.0,0.0512593016895905,-0.2356907074758618,0.11589368205781589,-0.12512433980631088,-0.007573284154624953,-0.0019699346012424083,0.6689576256059773
5144,4.0,299.65795,849.82608,0.0,0.0,0.0,0.0,0.0,0.051269268499174306,-0.23844123566731779,0.10543592777571589,-0.12532060635068087,0.001110170309165279,0.02959118288842237,0.6504498627244034
5145,4.0,300.61458,705.1435799999999,0.0,0.0,0.0,0.0,0.0,0.051279235308758137,-0.2022151837195848,0.12063627007837288,-0.13276713332309587,0.034785019814514165,-0.03770643770158567,0.6784958250248243
5146,4.0,300.42421,478.97222999999997,0.0,0.0,0.0,0.0,0.0,0.05128920211834194,-0.17321247014473984,0.12967633548305788,-0.1020594643349849,-0.004585788175532055,-0.045838350346392956,0.6691646832639124
5147,4.0,299.44176,303.06962999999996,0.0,0.0,0.0,0.0,0.0,0.05129916892792577,-0.17336984815027184,0.15724307101618287,-0.07599882375049992,0.007550917063967493,0.0033974676086789466,0.6709100065611623
5148,4.0,299.59407999999996,607.96167,0.0,0.0,0.0,0.0,0.0,0.0513091357375096,-0.19738483810786683,0.1079427591856209,-0.0953630869416039,-0.004427508478736066,0.040442940485157466,0.6637410189236383
5149,4.0,299.83474,1021.4225,0.0,0.0,0.0,0.0,0.0,0.05131910254709342,-0.2292438834496098,0.09099941595494311,-0.17224246555900782,0.007175418634583683,0.011317088652159689,0.6691187425043783
5150,4.0,299.43756,1036.8662,0.0,0.0,0.0,0.0,0.0,0.051329069356677234,-0.24489013685627478,0.07540445326834014,-0.14569574863655085,-0.04398897538312386,-0.030036417141363576,0.6633403595690964
5151,4.0,300.53206,705.48227,0.0,0.0,0.0,0.0,0.0,0.05133903616626105,-0.19568480709008682,0.1076874708229259,-0.1264516569073069,-0.006800411530173363,-0.014850058703336687,0.6742167786600153
5152,4.0,299.37674,487.03815,0.0,0.0,0.0,0.0,0.0,0.05134900297584488,-0.17785439176786183,0.13496053607956787,-0.1051535856353509,-0.02138962348474148,0.013903870561205187,0.6581262657470054
5153,4.0,300.66042000000004,870.68107,0.0,0.0,0.0,0.0,0.0,0.05135896978542871,-0.23389941302157477,0.1039014618242759,-0.1346673521631329,0.026393061597792377,0.0064394191945211935,0.6810021092796753
5154,4.0,302.02423,854.5951,0.0,0.0,0.0,0.0,0.0,0.051368936595012515,-0.2109030028595058,0.10216909799580491,-0.15104166629665186,0.01193298664594409,0.004335843491214436,0.6664683740853075
5155,4.0,300.23127999999997,386.38621,0.0,0.0,0.0,0.0,0.0,0.051378903404596346,-0.17032040104681484,0.13559335129702185,-0.08272470698679292,0.03535503176426996,0.028463008948830273,0.6570566789414454
5156,4.0,298.98906,308.29104,0.0,0.0,0.0,0.0,0.0,0.05138887021418016,-0.16079631620186083,0.14895386446560185,-0.08187033146272263,0.015497838611517586,0.04279646107543186,0.6690686170219313
5157,4.0,299.88827000000003,740.4080700000001,0.0,0.0,0.0,0.0,0.0,0.05139883702376398,-0.22407435236691678,0.1250134193178639,-0.1260046312281889,-0.02892714740888717,-0.03466787391745276,0.6812091872026124
5158,4.0,299.27013,1153.3128,0.0,0.0,0.0,0.0,0.0,0.05140880383334781,-0.2462088919939258,0.07037178694290463,-0.17474118083561185,-0.023412673568150976,-0.06499550319055675,0.6815534895865923
5159,4.0,299.24618,1142.3264,0.0,0.0,0.0,0.0,0.0,0.05141877064293163,-0.2765791183012337,0.08137963369104452,-0.15203922115260285,-0.021959352737719377,-0.022862816176134275,0.6948034166392584
5160,4.0,300.5116,812.4095900000001,0.0,0.0,0.0,0.0,0.0,0.051428737452515444,-0.19951304835290481,0.09118721882122782,-0.13862640401386087,0.01917371441704828,0.03312381654056617,0.6900356898837203
5161,4.0,300.21169,639.05998,0.0,0.0,0.0,0.0,0.0,0.05143870426209926,-0.19638335184152783,0.1136753432163829,-0.11155027404665491,-0.010446749372763891,-0.0036083407611905063,0.6856424299676394
5162,4.0,301.45251,1022.0539,0.0,0.0,0.0,0.0,0.0,0.05144867107168309,-0.23448412925678175,0.07650215168467452,-0.15269687113000785,0.02233329471362458,-0.007903733687212783,0.6713186908564963
5163,4.0,300.93414,1026.3059,0.0,0.0,0.0,0.0,0.0,0.05145863788126692,-0.24995242554838376,0.08647484895840311,-0.14849380839019785,0.04948526543756546,0.0028939954890151174,0.6706905264570013
5164,4.0,301.19563,469.86697000000004,0.0,0.0,0.0,0.0,0.0,0.051468604690850725,-0.17552700695066684,0.12693451110996087,-0.09423532640805261,0.03010331900571627,0.04224083829034617,0.6531665787600224
5165,4.0,300.98806,276.46426,0.0,0.0,0.0,0.0,0.0,0.051478571500434556,-0.16205197625578485,0.15314394747163085,-0.07513020800952423,-0.031920694517577265,-0.017214126213901983,0.6636763229047534
5166,4.0,299.56012999999996,758.88352,0.0,0.0,0.0,0.0,0.0,0.05148853831001837,-0.18599609950138582,0.08386331537591482,-0.1285488515667839,-0.04316547054985025,-0.01839758510545028,0.6428055999949734
5167,4.0,299.24756,1131.2449,0.0,0.0,0.0,0.0,0.0,0.05149850511960219,-0.25201196783414476,0.06658466742214503,-0.15844290098959687,-0.021195000432033678,0.014332900918547187,0.6607716084455804
5168,4.0,299.67713,921.2283699999999,0.0,0.0,0.0,0.0,0.0,0.05150847192918602,-0.2149778489316618,0.07137642340380453,-0.13642899891949387,-0.0026838828820286175,0.012162440170839388,0.6345004955503234
5169,4.0,299.98154,580.06896,0.0,0.0,0.0,0.0,0.0,0.05151843873876984,-0.2023467745100718,0.12105167222186987,-0.09503137722986672,-0.003275840613050297,-0.028448537710902076,0.6806863400185114
5170,4.0,300.14218,567.84132,0.0,0.0,0.0,0.0,0.0,0.051528405548353653,-0.1942388586673828,0.1165891059989489,-0.09495983366680591,0.003915441971724036,-0.02913125853553137,0.6696053355999014
5171,4.0,298.89454,1028.1998,0.0,0.0,0.0,0.0,0.0,0.05153837235793747,-0.24738242812724476,0.07141616408597663,-0.13658078378447386,0.044104749339549866,-0.015927518462173683,0.6950831040643614
5172,4.0,298.40927999999997,1017.466,0.0,0.0,0.0,0.0,0.0,0.0515483391675213,-0.2175105891466238,0.09049967695262273,-0.18227333757397782,0.024061980444232578,0.005108227425142795,0.6637427921113134
5173,4.0,300.02327,609.21596,0.0,0.0,0.0,0.0,0.0,0.05155830597710513,-0.18798927390559683,0.11917552820420889,-0.11637269604259089,-0.027407939990703074,-0.021671199608030878,0.6966864203600963
5174,4.0,300.00136000000003,278.62922000000003,0.0,0.0,0.0,0.0,0.0,0.051568272786688935,-0.17346969381512584,0.16175879233934984,-0.07298542909885103,-0.03671421355441076,0.0019054253243508382,0.6513571775264484
5175,4.0,300.35939,655.8099,0.0,0.0,0.0,0.0,0.0,0.051578239596272765,-0.2241191785513408,0.14460560298646186,-0.1198362584619179,-0.023281278334933278,0.04122957720029246,0.6833662244129953
5176,4.0,300.23978999999997,1082.65,0.0,0.0,0.0,0.0,0.0,0.05158820640585658,-0.29493948369076073,0.10597005243342991,-0.14012913497216886,0.014562338231440885,0.04530750456600255,0.6684440496602914
5177,4.0,300.2422,927.9744099999999,0.0,0.0,0.0,0.0,0.0,0.0515981732154404,-0.24260297806804976,0.11510345843732689,-0.15458153658100987,-0.0059297787122235945,-0.02796734118541168,0.6922328112680592
5178,4.0,300.3832,701.5679299999999,0.0,0.0,0.0,0.0,0.0,0.05160814002502423,-0.17902986320887182,0.08242650950886311,-0.1166557879880299,0.008049379979111952,-0.014288700922684985,0.6633954601095343
5179,4.0,300.50924,867.3293800000001,0.0,0.0,0.0,0.0,0.0,0.051618106834608046,-0.1991708433966318,0.08505857457812772,-0.14953420346037688,0.011804846985297688,0.004398408949114165,0.6773077487525704
5180,4.0,299.11457,1073.7822,0.0,0.0,0.0,0.0,0.0,0.05162807364419186,-0.23366226183566977,0.05711343066265674,-0.14985413717945187,0.015416451323735285,0.008726556197869042,0.6740096500745734
5181,4.0,299.76198,1033.9009,0.0,0.0,0.0,0.0,0.0,0.05163804045377568,-0.2319078294200208,0.06834734161410744,-0.15071956422236285,-0.014372502785455587,-0.023547967787753477,0.6926760271268013
5182,4.0,298.90766,547.6029,0.0,0.0,0.0,0.0,0.0,0.05164800726335951,-0.2064522511327508,0.14244104746033687,-0.1024463941506719,-0.026258189903481576,0.007615691305760213,0.6864368788410453
5183,4.0,299.5547,226.53687000000002,0.0,0.0,0.0,0.0,0.0,0.05165797407294334,-0.14981466095555585,0.14433290698704887,-0.06337979383284864,-0.018320795946621785,0.010583220988982591,0.6640022449319193
5184,4.0,300.25224,507.44064000000003,0.0,0.0,0.0,0.0,0.0,0.051667940882527144,-0.16686947385623482,0.13411012540313888,-0.12148993328762289,0.01095394893557059,1.9452551725317382e-05,0.6439780114206813
5185,4.0,300.78296,1017.0394,0.0,0.0,0.0,0.0,0.0,0.051677907692110975,-0.2585300841374328,0.09821419439098632,-0.14883869845923586,0.005470236253295286,-0.02059490913980928,0.6676460645440363
5186,4.0,299.61497,947.64499,0.0,0.0,0.0,0.0,0.0,0.05168787450169479,-0.22945916869835678,0.08486963484523083,-0.14347087433197286,0.028583184463690677,-0.01013776078126909,0.6433874385998964
5187,4.0,300.16817000000003,623.95622,0.0,0.0,0.0,0.0,0.0,0.05169784131127861,-0.22744324682940076,0.12886119604260987,-0.09108505990639551,0.015776647548783884,0.027666999670270274,0.6755267083892954
5188,4.0,299.07202,638.84047,0.0,0.0,0.0,0.0,0.0,0.05170780812086244,-0.2097231643105648,0.1194095585798059,-0.1038779442894549,-0.014035668054712588,0.025529335801799273,0.6748635767288493
5189,4.0,299.16306000000003,1026.6965,0.0,0.0,0.0,0.0,0.0,0.051717774930446256,-0.26173064736080376,0.0946199156160086,-0.14497936055084887,-0.03598357309280217,-0.014969106470835788,0.7006681588805633
5190,4.0,298.88631000000004,1089.7827,0.0,0.0,0.0,0.0,0.0,0.05172774174003007,-0.22476937100800978,0.08814384108586983,-0.19464120001709082,-0.03171677388195187,-0.0039455444162949166,0.6853124752050753
5191,4.0,299.18347,752.06826,0.0,0.0,0.0,0.0,0.0,0.05173770854961389,-0.23126335169391576,0.12447446145717288,-0.12182108368530489,-0.008313818294184983,0.02314074966531418,0.6749025564601964
5192,4.0,299.35525,354.65671000000003,0.0,0.0,0.0,0.0,0.0,0.05174767535919772,-0.14855133059837486,0.14790227298181788,-0.1071577335381449,-0.005824569205315225,0.013064903531405589,0.6881868124262503
5193,4.0,301.09469,548.13083,0.0,0.0,0.0,0.0,0.0,0.05175764216878155,-0.22253167908966678,0.13236388004829788,-0.07645029253130642,-0.0018023457704776783,-0.014257928517147985,0.6685318275164543
5194,4.0,300.56807000000003,1036.6015,0.0,0.0,0.0,0.0,0.0,0.051767608978365354,-0.24801148418682778,0.07891074951063463,-0.14600023029160086,0.03605249233810397,0.0019200643564955984,0.6826625526160484
5195,4.0,300.10376,924.7965,0.0,0.0,0.0,0.0,0.0,0.051777575787949184,-0.25993595851868173,0.1207359434907099,-0.14191502880342285,0.05041980930954775,0.015266229903659587,0.6507214137512034
5196,4.0,300.16123999999996,505.1998,0.0,0.0,0.0,0.0,0.0,0.051787542597533,-0.15486086936857785,0.10049796487087691,-0.099205220876543,0.013598774876594588,-0.005530241329517324,0.6589748627057553
5197,4.0,300.22493,452.58550999999994,0.0,0.0,0.0,0.0,0.0,0.05179750940711682,-0.1893188201568128,0.1313112955794159,-0.07956716940241823,-0.01043259325561679,-0.07528440440974223,0.6555199939722863
5198,4.0,298.74694,920.74228,0.0,0.0,0.0,0.0,0.0,0.051807476216700635,-0.20949636854068182,0.08323418838882482,-0.15362047899366085,-0.0034108586206755367,-0.02561239089924618,0.6774696559860494
5199,4.0,299.27804,982.65715,0.0,0.0,0.0,0.0,0.0,0.051817443026284465,-0.2579545580806327,0.08283352802103272,-0.12358220355161388,0.00045701605152647257,0.015467601202033384,0.6600180138162064
5200,4.0,299.11789,542.46417,0.0,0.0,0.0,0.0,0.0,0.05182740983586827,-0.18117857150343283,0.13604419692901687,-0.11976118676200889,-0.017656721963582783,0.01938756794340398,0.6936075282087334
5201,4.0,299.95511,463.08472,0.0,0.0,0.0,0.0,0.0,0.0518373766454521,-0.16518643504263186,0.11693709661329289,-0.09251685018545222,-0.04988558839307425,0.016571374052717285,0.6667884192618934
5202,4.0,300.95077000000003,802.0627900000001,0.0,0.0,0.0,0.0,0.0,0.051847343455035916,-0.1909629704315778,0.10868168195354691,-0.16152577521385283,-0.0043539899899053556,0.02407345144861468,0.6693294275976713
5203,4.0,300.80014,1159.4949,0.0,0.0,0.0,0.0,0.0,0.05185731026461973,-0.25766310682186877,0.08195234595231682,-0.17674672702354383,0.03623461391107796,0.016211918513491783,0.6723981568505314
5204,4.0,300.47497999999996,1008.1005,0.0,0.0,0.0,0.0,0.0,0.05186727707420356,-0.24213491731685574,0.09993236157230621,-0.16423481081371386,0.03211426581668127,-0.014845198142606987,0.6822335729212113
5205,4.0,300.50442999999996,523.6573900000001,0.0,0.0,0.0,0.0,0.0,0.05187724388378738,-0.21080776748260677,0.14726530343895386,-0.09563630780456871,0.006794227158188014,-0.047005492871580956,0.7022207012137873
5206,4.0,300.05387,532.2263,0.0,0.0,0.0,0.0,0.0,0.05188721069337121,-0.18494360622501282,0.13535606838860387,-0.1121959676728799,-0.01044457392479919,-0.027087403387818575,0.6886479020167563
5207,4.0,298.81172999999995,1007.1293,0.0,0.0,0.0,0.0,0.0,0.051897177502955014,-0.25181442459464876,0.09972081521642821,-0.15404853663090684,0.0020669215835892782,0.007202049279011923,0.6771503910120403
5208,4.0,299.9105,1152.0225,0.0,0.0,0.0,0.0,0.0,0.051907144312538844,-0.24957297351843477,0.08862789700314241,-0.1892409924166318,0.008914329882550861,-0.001062760640961309,0.6860612974264784
5209,4.0,299.17987,650.44233,0.0,0.0,0.0,0.0,0.0,0.05191711112212266,-0.1974485512741548,0.10724842955459589,-0.10751809593620991,-0.00949975012392734,-0.018017076255646983,0.6732604732156354
5210,4.0,299.00627000000003,457.74141,0.0,0.0,0.0,0.0,0.0,0.05192707793170648,-0.17895625058910683,0.14670392235354987,-0.1068896275616849,-0.005938334596067994,-0.006610837198738833,0.6720768147138174
5211,4.0,299.84244,772.954,0.0,0.0,0.0,0.0,0.0,0.051937044741290295,-0.23637806594619878,0.1067772682580959,-0.10535792778301789,0.012520839903460687,0.012461398599594288,0.6997819500781013
5212,4.0,300.07829,1008.6109,0.0,0.0,0.0,0.0,0.0,0.051947011550874125,-0.2320311622221928,0.08913362836655422,-0.16369498155793683,0.018944169699643982,-0.0023692603160027875,0.6853023933665803
5213,4.0,299.8985,960.48921,0.0,0.0,0.0,0.0,0.0,0.05195697836045794,-0.21327517333112078,0.09556764491154221,-0.17425721205784783,-0.017070799960756784,-0.001956257954042628,0.6820006672532254
5214,4.0,300.24687,623.3199599999999,0.0,0.0,0.0,0.0,0.0,0.05196694517004176,-0.16666824238637484,0.0950147984317305,-0.11782025553295389,-0.025720899852455178,0.02787556200460377,0.6316870749251604
5215,4.0,300.0291,600.16887,0.0,0.0,0.0,0.0,0.0,0.05197691197962559,-0.16732440288613284,0.09032653885503532,-0.1054384811659679,0.00984283225081191,0.03368913916885917,0.6465938989388494
5216,4.0,300.21931,1016.7617,0.0,0.0,0.0,0.0,0.0,0.05198687878920939,-0.2555262636859788,0.09831202875439181,-0.15185594447451484,0.0021392159649741777,0.007101844720972504,0.6545612161976624
5217,4.0,300.5145,1097.3198,0.0,0.0,0.0,0.0,0.0,0.05199684559879322,-0.2620149856038657,0.07755232867131892,-0.14909516219204685,-0.004388637469124796,-0.02974312075416747,0.7003388728630653
5218,4.0,300.01543,592.81222,0.0,0.0,0.0,0.0,0.0,0.052006812408377054,-0.17835152266442483,0.12575680038622988,-0.12760539413367186,-0.01124600003839379,-0.02217307859456248,0.6939312818806853
5219,4.0,300.17409,511.59570999999994,0.0,0.0,0.0,0.0,0.0,0.05201677921796087,-0.17890436205148583,0.12781252271911386,-0.1044204789229989,-0.005343694082756546,0.03130114578368257,0.6910320187070503
5220,4.0,299.97182000000004,907.43753,0.0,0.0,0.0,0.0,0.0,0.05202674602754469,-0.21375010391799282,0.1074421021787099,-0.16953034967884284,-0.017344203208739587,0.01978876026749858,0.6937780784655653
5221,4.0,299.74528,1135.8301,0.0,0.0,0.0,0.0,0.0,0.052036712837128504,-0.27209023797321574,0.10151539969378989,-0.17468915044297684,-0.0067628248150638426,-0.008705981141338442,0.6787812170479903
5222,4.0,299.33492,900.5464599999999,0.0,0.0,0.0,0.0,0.0,0.052046679646712335,-0.24194801320340975,0.1008903317866005,-0.13268596185758486,-0.013959571958952487,0.0023381634677837678,0.6869041796546644
5223,4.0,299.36337000000003,570.3111299999999,0.0,0.0,0.0,0.0,0.0,0.05205664645629615,-0.2259508206246098,0.13293798755495786,-0.08034750775493162,0.007042452965035994,0.024846676785426076,0.6834735275985853
5224,4.0,300.05982,444.22445999999997,0.0,0.0,0.0,0.0,0.0,0.05206661326587997,-0.17247325353428483,0.15364677283375586,-0.11620666488120489,-0.02233201193899798,0.014068383873941385,0.6869290144146153
5225,4.0,299.54582,765.42474,0.0,0.0,0.0,0.0,0.0,0.0520765800754638,-0.2142215995870258,0.1144755777478599,-0.13292398443857587,-0.033377625558115166,0.01118756590512679,0.6679471518112514
5226,4.0,299.96243,1163.5761,0.0,0.0,0.0,0.0,0.0,0.0520865468850476,-0.23343452374319376,0.07525099856719533,-0.19551456080828483,0.011271841968944188,0.02147204935387628,0.6620949840036874
5227,4.0,300.85602,792.61581,0.0,0.0,0.0,0.0,0.0,0.05209651369463143,-0.21735289703356078,0.08576174278977503,-0.1093442664589389,0.027526652372419077,0.03548880408222227,0.6562076158876494
5228,4.0,301.35781000000003,233.06672000000003,0.0,0.0,0.0,0.0,0.0,0.05210648050421526,-0.17117772208892582,0.14603247190978286,-0.04570120897185816,0.007596625586578573,-0.006443331049182264,0.6629042769910584
5229,4.0,300.67058,501.66439,0.0,0.0,0.0,0.0,0.0,0.05211644731379908,-0.22180521929797076,0.15492277894968787,-0.08561100765189861,-0.014527495600252184,-0.05970629916505295,0.6900665028192613
5230,4.0,300.93182,1076.0616,0.0,0.0,0.0,0.0,0.0,0.0521264141233829,-0.2362785141238738,0.07414223343326873,-0.16495956834524184,-0.002143600500806898,-0.03168157458672797,0.6926340279101564
5231,4.0,299.90767999999997,766.44694,0.0,0.0,0.0,0.0,0.0,0.052136380932966714,-0.2144000025321328,0.1102280839911649,-0.12880881101243988,0.013052996829480487,0.02057923010776188,0.6686370940693434
5232,4.0,300.62519,445.2855,0.0,0.0,0.0,0.0,0.0,0.052146347742550545,-0.13414269126135286,0.11750967411230188,-0.11872265607201388,0.016464625114931984,0.006473346556894563,0.6527899435653514
5233,4.0,299.9644,565.57348,0.0,0.0,0.0,0.0,0.0,0.05215631455213436,-0.1991951006040258,0.12003267699380289,-0.09275779599298171,-0.015575325899664984,-0.0014158241932559687,0.6475817569913433
5234,4.0,299.70769,1009.5639,0.0,0.0,0.0,0.0,0.0,0.05216628136171818,-0.2545322146753738,0.08193690706054312,-0.1342869071480859,0.008465234538778602,0.01012554098506309,0.6851044549595453
5235,4.0,298.85195,1162.4659,0.0,0.0,0.0,0.0,0.0,0.05217624817130201,-0.29225497887582075,0.06823600467986934,-0.12934162857752488,0.017907264262809384,0.028412450808590575,0.6800309495888295
5236,4.0,299.04095,919.82556,0.0,0.0,0.0,0.0,0.0,0.05218621498088581,-0.22228975549579078,0.11033574181428989,-0.16764999054076585,0.011742640521908388,-0.004924624683172615,0.7358688726546033
5237,4.0,299.27265,437.84137000000004,0.0,0.0,0.0,0.0,0.0,0.05219618179046964,-0.18402155876651383,0.15899648004923084,-0.10806776385045791,-0.022794551490397077,-0.032780979316230766,0.6940504502249464
5238,4.0,300.36111,712.1165599999999,0.0,0.0,0.0,0.0,0.0,0.05220614860005347,-0.16352953808160886,0.11173657021004091,-0.16467268684442884,-0.01978598396222458,-0.023424168890535477,0.6998726055645483
5239,4.0,299.52116,1280.7292,0.0,0.0,0.0,0.0,0.0,0.05221611540963729,-0.29235367956806174,0.07226085597884123,-0.16921687036290484,0.01244196243617609,0.032295617319579265,0.6679922211756993
5240,4.0,299.83159,975.33855,0.0,0.0,0.0,0.0,0.0,0.05222608221922111,-0.25620042964001377,0.10494402524966889,-0.14522216567231186,-0.009051597812023152,0.004942518781263626,0.7063106649774353
5241,4.0,300.10909,369.43586,0.0,0.0,0.0,0.0,0.0,0.05223604902880492,-0.2038670853576148,0.14445293659389485,-0.05288512887610585,-0.013458307001981487,-0.015573040007439386,0.6809815403026453
5242,4.0,300.30395,461.87477,0.0,0.0,0.0,0.0,0.0,0.052246015838388754,-0.17013309163332885,0.14354113309390684,-0.11380643751432089,-0.01016105134806769,0.003960446792140666,0.6723891895871464
5243,4.0,299.90291,936.457,0.0,0.0,0.0,0.0,0.0,0.05225598264797257,-0.23941402669082476,0.0941840336614904,-0.13942955670562587,0.034198281132107565,0.01915529960973088,0.6713476394118534
5244,4.0,300.35872,994.4812699999999,0.0,0.0,0.0,0.0,0.0,0.05226594945755639,-0.1900400009154878,0.07631336799229303,-0.1885708389329928,0.017275646706973586,-0.021155328650868378,0.6495399641346034
5245,4.0,299.0436,625.54823,0.0,0.0,0.0,0.0,0.0,0.05227591626714022,-0.21160952188923382,0.12570416204353488,-0.10424569328074891,0.002294130252888028,-0.02052272722918548,0.6830896172681964
5246,4.0,299.34469,398.07833999999997,0.0,0.0,0.0,0.0,0.0,0.05228588307672402,-0.16006475976216186,0.12716524842273288,-0.08810635792492051,-1.6506142024529382e-05,0.001233143306226769,0.6849833918375974
5247,4.0,299.7411,616.0631,0.0,0.0,0.0,0.0,0.0,0.05229584988630785,-0.2148612745076568,0.12036790065688688,-0.09277442140062252,0.0024780084975603973,0.027773537852034774,0.7117896933031733
5248,4.0,300.03328,992.68804,0.0,0.0,0.0,0.0,0.0,0.05230581669589168,-0.22799844708919478,0.09296450103988191,-0.16671842866382786,0.014607606192908486,-0.002700680947486458,0.7121296893742283
5249,4.0,299.64153,995.01323,0.0,0.0,0.0,0.0,0.0,0.0523157835054755,-0.23728604949330978,0.10434763637330992,-0.16952076433289684,0.004862252857366995,-0.02589323748246358,0.7073157888116334
5250,4.0,299.48206,446.06234000000006,0.0,0.0,0.0,0.0,0.0,0.052325750315059316,-0.14425874721222987,0.1201642779167909,-0.1114973418614309,0.01856761759148118,0.01191677464434409,0.6498992524875624
5251,4.0,299.65409,495.19649000000004,0.0,0.0,0.0,0.0,0.0,0.05233571712464313,-0.2140598240760598,0.13316098363696588,-0.06962852341155024,-0.016786791023977284,0.02897690001529737,0.6569088862818594
5252,4.0,300.87329,1189.3518,0.0,0.0,0.0,0.0,0.0,0.052345683934226964,-0.2828775822478437,0.07433043045384233,-0.15298610337105284,-0.015315273234999786,0.01185280411253069,0.6597417106464374
5253,4.0,300.44707,1085.8735,0.0,0.0,0.0,0.0,0.0,0.052355650743810794,-0.28285980984108977,0.09455090619144792,-0.14176951595656184,-0.02917231441633327,0.006076333990787474,0.6945527588295204
5254,4.0,300.17141000000004,402.91542999999996,0.0,0.0,0.0,0.0,0.0,0.0523656175533946,-0.17846667853828982,0.15523702833570185,-0.0992465766793745,0.0035997142538141368,0.0011538194009481089,0.6863767019176064
5255,4.0,300.38596,508.6234,0.0,0.0,0.0,0.0,0.0,0.05237558436297843,-0.16085925929807285,0.1315195590049699,-0.1252691028480979,0.007198248071261773,0.0012121991226847388,0.7001218448241464
5256,4.0,300.04277,890.61196,0.0,0.0,0.0,0.0,0.0,0.05238555117256223,-0.2066001653823488,0.1068700718347549,-0.17099370573826483,0.002323324622719288,-0.03986156493553016,0.6776347954873474
5257,4.0,300.48475,1117.0848,0.0,0.0,0.0,0.0,0.0,0.05239551798214606,-0.25306637615320676,0.08140865824015901,-0.16790816666624586,0.012553144343148888,-0.02682879055154547,0.7113246723022794
5258,4.0,299.84701,819.7099099999999,0.0,0.0,0.0,0.0,0.0,0.05240548479172989,-0.21849115179839781,0.10868534991890891,-0.1393655395643079,0.008371396028467462,0.013283500081479386,0.6901093632984913
5259,4.0,299.08916,533.49942,0.0,0.0,0.0,0.0,0.0,0.05241545160131371,-0.2031819965675018,0.12119910011141989,-0.08018759865064982,-0.009820799735337471,0.03856697682601426,0.7059565847299903
5260,4.0,299.13444,541.25103,0.0,0.0,0.0,0.0,0.0,0.052425418410897526,-0.17553032027849383,0.12255553802028989,-0.1115520168368269,-0.02195980971351448,0.02255862228411268,0.6544925989008904
5261,4.0,299.19901,1020.8507,0.0,0.0,0.0,0.0,0.0,0.05243538522048134,-0.24070192836293075,0.07696547143865062,-0.14657666827349086,-0.03560293454698606,0.0014432493270876187,0.6489838215522163
5262,4.0,299.40069,1051.2351,0.0,0.0,0.0,0.0,0.0,0.05244535203006517,-0.22900062236560176,0.06937723333374984,-0.15992583304095084,0.020863109348528582,0.007037537384825864,0.6300486596459614
5263,4.0,300.85042000000004,386.31539,0.0,0.0,0.0,0.0,0.0,0.052455318839649004,-0.2027127807111938,0.15096259225884787,-0.06568004583886584,-0.004824581231899095,0.0014862380837802785,0.6680010060540663
5264,4.0,300.31785,212.92366,0.0,0.0,0.0,0.0,0.0,0.05246528564923281,-0.14291989932509588,0.14918322375823784,-0.07098680036935173,0.00930115462420249,-0.02619743238773527,0.6559644459961503
5265,4.0,299.69759,822.9925900000001,0.0,0.0,0.0,0.0,0.0,0.05247525245881664,-0.24523509785281977,0.14022173589880785,-0.14515583832076587,-0.0029609874313017075,-0.015469345005455484,0.7413280311458803
5266,4.0,299.10195,1155.8502,0.0,0.0,0.0,0.0,0.0,0.05248521926840044,-0.2268278392486648,0.08313896719742722,-0.2076607342620188,0.04710136558279286,0.018641850320307383,0.7038120712908433
5267,4.0,300.1715,898.4670699999999,0.0,0.0,0.0,0.0,0.0,0.05249518607798427,-0.2230433703901668,0.1047527945582959,-0.15482097771214084,0.033753016481663366,0.002409495261573668,0.6928550177569663
5268,4.0,300.35202999999996,756.73635,0.0,0.0,0.0,0.0,0.0,0.0525051528875681,-0.18042645621920483,0.1012912910631721,-0.15089378244455687,-0.02412803928450208,-0.02736255347897377,0.6890343860023993
5269,4.0,300.27602,951.3973,0.0,0.0,0.0,0.0,0.0,0.05251511969715192,-0.2653173196672807,0.1067967327925169,-0.13068043593465486,-0.025320399578178877,-0.03081219080217647,0.6970008723961303
5270,4.0,300.32918,1141.5854,0.0,0.0,0.0,0.0,0.0,0.052525086506735735,-0.26856353994015775,0.07781626107061702,-0.15626617632977086,-0.0076939955774632425,2.5314796305125875e-05,0.6903158231388674
5271,4.0,300.60342,951.66471,0.0,0.0,0.0,0.0,0.0,0.05253505331631955,-0.28223583016450776,0.12058965044127187,-0.12763612600920488,0.014333321417338686,0.02368235109551608,0.7022889638730243
5272,4.0,301.63788,392.52616,0.0,0.0,0.0,0.0,0.0,0.05254502012590338,-0.15906854239634285,0.14752072352416185,-0.1077703242836029,0.0018448391491964484,-0.01938092000949788,0.6941421088289923
5273,4.0,301.09378,138.1671,0.0,0.0,0.0,0.0,0.0,0.05255498693548721,-0.14028381773243487,0.16472099860919684,-0.06643652519127453,0.01788058336117618,0.007750463600236202,0.6696507697343854
5274,4.0,299.96164,677.92585,0.0,0.0,0.0,0.0,0.0,0.052564953745071016,-0.18367744890005283,0.1098095711698609,-0.13220465792758387,0.01161029688659709,0.014979435542355186,0.6609796793536153
5275,4.0,299.38809,1259.197,0.0,0.0,0.0,0.0,0.0,0.05257492055465485,-0.2964952278943007,0.06699204563810014,-0.15326127170070986,0.007143441981302833,0.01778114502286238,0.6792166207484613
5276,4.0,299.21813,772.8150400000001,0.0,0.0,0.0,0.0,0.0,0.05258488736423865,-0.19715163859735182,0.1196510566086399,-0.15741589095323885,-0.023368070298748978,-0.028130228231737373,0.6834930833255153
5277,4.0,299.30478999999997,338.79508,0.0,0.0,0.0,0.0,0.0,0.05259485417382248,-0.16809498971968384,0.13513905048218586,-0.07002930131635393,-0.002353171424289938,-0.02043077984886098,0.7089470809426294
5278,4.0,300.78573,731.7400299999999,0.0,0.0,0.0,0.0,0.0,0.05260482098340631,-0.17511109818211987,0.10994557973078391,-0.15726518013336485,0.004876590042306965,0.0007077403811335373,0.6979177016166144
5279,4.0,299.71576,1153.3931,0.0,0.0,0.0,0.0,0.0,0.05261478779299013,-0.27560193990479376,0.09979378948863021,-0.17479456898338083,0.01989786805151668,-0.0012561415503715189,0.6882115053311874
5280,4.0,300.26214,1106.6393,0.0,0.0,0.0,0.0,0.0,0.052624754602573945,-0.25710369144165873,0.061620462352966136,-0.14090749343398687,0.013652311972128288,-0.02895747702413047,0.6477712144950414
5281,4.0,299.9677,606.9274,0.0,0.0,0.0,0.0,0.0,0.05263472141215776,-0.25586570246947876,0.14319624302486889,-0.07182131720471213,-0.012493663522528588,-0.023257564229592877,0.7021684884361343
5282,4.0,298.85276,294.58157,0.0,0.0,0.0,0.0,0.0,0.05264468822174159,-0.17686182210240284,0.14205597189233288,-0.054739593394627244,0.014897450437013885,0.018935840783821982,0.6590505322232234
5283,4.0,299.092,522.3285900000001,0.0,0.0,0.0,0.0,0.0,0.05265465503132542,-0.20316792252361282,0.13939380924209788,-0.09500073452034251,-0.016902147521362085,0.03822059727932926,0.7122650697200893
5284,4.0,298.46911,843.3923699999999,0.0,0.0,0.0,0.0,0.0,0.052664621840909226,-0.19623061452145382,0.11777163979315587,-0.17791124523097282,-0.007318238364003893,0.034684918810634964,0.6832453132785624
5285,4.0,298.58785,826.49613,0.0,0.0,0.0,0.0,0.0,0.05267458865049306,-0.2091604660000308,0.1170054909950429,-0.15907920178739485,-0.026562310841495976,0.02037723971357698,0.7126805529235942
5286,4.0,299.87807999999995,493.47245999999996,0.0,0.0,0.0,0.0,0.0,0.05268455546007686,-0.17926212039679382,0.14286828436500185,-0.1136094616948809,-0.0028261832194475672,0.017840134417184184,0.6558348411758593
5287,4.0,299.78926,709.22471,0.0,0.0,0.0,0.0,0.0,0.05269452226966069,-0.2225501101089858,0.11833275743353389,-0.1113692366512879,0.007439584486704823,-0.01090675579891299,0.7022154019157644
5288,4.0,300.89096,1203.9159,0.0,0.0,0.0,0.0,0.0,0.05270448907924452,-0.28060701036375574,0.08833995057647431,-0.17369330797969482,0.022201716082138778,-0.05030899521236125,0.6932869865395983
5289,4.0,300.6807,1135.1523,0.0,0.0,0.0,0.0,0.0,0.05271445588882834,-0.26326089819182774,0.1082097607194719,-0.19000683723971484,0.02318876049480248,-0.03361162452295907,0.7313329977869473
5290,4.0,299.98582999999996,655.1328599999999,0.0,0.0,0.0,0.0,0.0,0.052724422698412154,-0.17639025550586282,0.10240066617365891,-0.1251544434667819,0.029604113986198576,-0.014560983516057184,0.6737539260143354
5291,4.0,300.55564,578.06011,0.0,0.0,0.0,0.0,0.0,0.05273438950799597,-0.1894038115752008,0.11582351448839089,-0.10213553915249289,-0.009681148236329939,0.023327329538728177,0.6924493934769343
5292,4.0,300.43005,580.15626,0.0,0.0,0.0,0.0,0.0,0.0527443563175798,-0.21302863944928982,0.13510167168599688,-0.0984260528278951,-0.03999542135324076,0.017549623454512983,0.6581546266173044
5293,4.0,298.74562000000003,800.05845,0.0,0.0,0.0,0.0,0.0,0.05275432312716363,-0.22751455937143877,0.08342108439627002,-0.0991043224448351,-0.03101895360433237,0.008395176603014422,0.6698219279412774
5294,4.0,299.07353,783.04047,0.0,0.0,0.0,0.0,0.0,0.052764289936747436,-0.23326282851374877,0.12755506600120486,-0.13231698683366988,-0.012925614066658788,0.02139574452859558,0.6675857761630863
5295,4.0,298.81646,522.10467,0.0,0.0,0.0,0.0,0.0,0.052774256746331266,-0.17170172437814085,0.12490627825228988,-0.11191132545478791,0.010280357494342291,-0.003747202127770056,0.7071765378503904
5296,4.0,299.84271,463.34725,0.0,0.0,0.0,0.0,0.0,0.05278422355591508,-0.13774889902975787,0.14200410361971386,-0.14510120387537387,0.014553588816827384,-0.013397794692759386,0.7007136132800493
5297,4.0,299.13291,1027.1395,0.0,0.0,0.0,0.0,0.0,0.0527941903654989,-0.2531911173730178,0.13081538058297287,-0.18984902353663982,-0.00949784349121417,-0.025747530091583374,0.7353102881394753
5298,4.0,299.60481,1343.5861,0.0,0.0,0.0,0.0,0.0,0.05280415717508273,-0.2637538241004757,0.037355116534162965,-0.18201790735626883,0.03365718126070517,0.03181978190036797,0.6796557126792964
5299,4.0,299.38917000000004,923.7854800000001,0.0,0.0,0.0,0.0,0.0,0.05281412398466655,-0.26037020711403874,0.10798413018720389,-0.12842164814922988,-0.002827247638677617,0.009472439183381962,0.7127602450439593
5300,4.0,301.34738,742.27765,0.0,0.0,0.0,0.0,0.0,0.052824090794250364,-0.21600113020765177,0.1130933931539489,-0.12272614907212788,-0.0006441667596493094,0.006779085553993655,0.6905135791608843
5301,4.0,300.92334,639.85702,0.0,0.0,0.0,0.0,0.0,0.05283405760383418,-0.23795456151178676,0.13958691444615587,-0.09613290877132942,-0.03268351174936147,-0.028221681146013075,0.7081435026858224
5302,4.0,299.81085,656.23421,0.0,0.0,0.0,0.0,0.0,0.05284402441341801,-0.18015801587021182,0.11694759388432889,-0.13626839877864386,-0.013120993003941189,-0.00018657780638379584,0.6864956676118473
5303,4.0,299.67312000000004,699.78202,0.0,0.0,0.0,0.0,0.0,0.052853991223001814,-0.2412859758530718,0.12821701215903386,-0.09964729986867281,0.01905773679735218,-0.004044653954951266,0.6816313781217794
5304,4.0,300.00322,716.78103,0.0,0.0,0.0,0.0,0.0,0.052863958032585645,-0.19641792393493981,0.12329492688326188,-0.14476053905925287,0.0007079822540649083,-0.0019396346742270383,0.6974386774993383
5305,4.0,300.19136000000003,601.61186,0.0,0.0,0.0,0.0,0.0,0.052873924842169476,-0.2057509402085368,0.13796421467600786,-0.11508825968582688,0.016005275274847686,-0.012259382874156887,0.6756418338656573
5306,4.0,300.29963,943.1378300000001,0.0,0.0,0.0,0.0,0.0,0.05288389165175329,-0.19817011706786783,0.07468620080245413,-0.16320643288972084,-0.0045832764298591655,-0.003009035548393687,0.6873448117256513
5307,4.0,299.51735,1384.7503,0.0,0.0,0.0,0.0,0.0,0.05289385846133711,-0.27169782647448776,0.05134069051718165,-0.2005723608024508,0.03254870794280736,-0.004232097117450466,0.6876757493408123
5308,4.0,299.40078,1107.7874,0.0,0.0,0.0,0.0,0.0,0.052903825270920926,-0.23988861277266274,0.06918159500444183,-0.16603268126114984,-0.027594421578857373,-0.020361537376777282,0.7188885944312803
5309,4.0,299.13827000000003,570.46183,0.0,0.0,0.0,0.0,0.0,0.05291379208050476,-0.20445635108577082,0.1080963375032779,-0.07704614134536213,-0.009345810582609691,0.004460326332249936,0.6759385033624363
5310,4.0,298.72985,626.24432,0.0,0.0,0.0,0.0,0.0,0.05292375889008856,-0.18853312576427084,0.11174571985844389,-0.11357523410650289,-0.03594539889528466,0.013043947492837386,0.6901800070954633
5311,4.0,299.2157,781.84307,0.0,0.0,0.0,0.0,0.0,0.05293372569967239,-0.2103369101611368,0.07716627430371834,-0.1044901297348729,0.005845028244709375,0.015722206634160987,0.6545215271912453
5312,4.0,299.75135,477.69724,0.0,0.0,0.0,0.0,0.0,0.05294369250925621,-0.18863853417217383,0.16834338798169884,-0.12491288464294188,0.00990550359334709,0.014548039246029685,0.6968190750631884
5313,4.0,299.90102,448.47999000000004,0.0,0.0,0.0,0.0,0.0,0.052953659318840024,-0.18426913629594782,0.15169740123136785,-0.1037549762573189,0.025973885097672875,-0.018155747637832783,0.6842002609678083
5314,4.0,300.23298,570.81059,0.0,0.0,0.0,0.0,0.0,0.05296362612842384,-0.1885430353502488,0.13342423614544688,-0.11839335992201487,-0.004191510574094886,0.017207246245722986,0.6936139116843633
5315,4.0,300.42486,822.16777,0.0,0.0,0.0,0.0,0.0,0.05297359293800767,-0.2595330700139198,0.12388828614182187,-0.11427368766543489,-0.02221852488804768,-0.0011330933701526088,0.6891082823321923
5316,4.0,301.08035,1338.8497,0.0,0.0,0.0,0.0,0.0,0.0529835597475915,-0.27734466928178775,0.07504372913998943,-0.2046759527799438,-0.008635940025525923,0.01979251739886938,0.7022347752576764
5317,4.0,299.6931,1142.8464,0.0,0.0,0.0,0.0,0.0,0.052993526557175305,-0.2922171035870827,0.10942012849392589,-0.16459979363223484,-0.01941619935147968,0.018621323899781585,0.7160596204170824
5318,4.0,299.58437000000004,622.7518299999999,0.0,0.0,0.0,0.0,0.0,0.053003493366759136,-0.16161125299228885,0.1143123836867539,-0.14200214804702085,0.003348276950774207,0.026009612296198872,0.7067639626746723
5319,4.0,299.43741,509.1578,0.0,0.0,0.0,0.0,0.0,0.05301346017634294,-0.17194510705216084,0.11804537944017189,-0.1008715339707453,0.01950475234396918,-0.007187726684873393,0.6960436144966563
5320,4.0,298.88577999999995,884.1216800000001,0.0,0.0,0.0,0.0,0.0,0.05302342698592677,-0.2321639891778018,0.1155839112372439,-0.15217083220809186,-0.005052591382026945,-0.031113459441159372,0.7091611198937533
5321,4.0,299.54937,827.4250599999999,0.0,0.0,0.0,0.0,0.0,0.053033393795510586,-0.25102647065438377,0.11114204571386589,-0.1116321345222339,0.025693401257991272,-0.03708347836785436,0.6964332496901103
5322,4.0,300.22631,350.70986,0.0,0.0,0.0,0.0,0.0,0.05304336060509442,-0.17617755404487084,0.13548699043402487,-0.06591647761719983,-0.01368176715253529,-0.010017101236835921,0.6424669920765554
5323,4.0,300.19704,405.19939,0.0,0.0,0.0,0.0,0.0,0.053053327414678234,-0.18171713419658483,0.14404432322606786,-0.08549768880046492,0.0017367880837076384,0.020355617969693082,0.6709365942437864
5324,4.0,300.58468,720.89932,0.0,0.0,0.0,0.0,0.0,0.05306329422426205,-0.18505515492852181,0.11976470273985589,-0.15384494428831386,-0.007549668638519282,0.0100070962026985,0.6831326094699394
5325,4.0,300.42077,1070.188,0.0,0.0,0.0,0.0,0.0,0.05307326103384588,-0.2273206840973048,0.08649131021952772,-0.18448103728936083,0.009696205842091011,0.02307520251634518,0.6886253875995343
5326,4.0,300.66654,1105.6828,0.0,0.0,0.0,0.0,0.0,0.053083227843429684,-0.25595690511097974,0.09061342035584832,-0.17075646335985084,0.005599480559200704,0.014372327493188286,0.7188536980978363
5327,4.0,300.50085,868.91259,0.0,0.0,0.0,0.0,0.0,0.053093194653013515,-0.22457969058928978,0.08011294238328183,-0.11966097632711889,-0.024531640104084377,-0.03370125257380467,0.6836858237595373
5328,4.0,299.60505,679.0408,0.0,0.0,0.0,0.0,0.0,0.053103161462597345,-0.19594163559293382,0.11480133765500988,-0.12527114961329988,-0.024741625041558274,-0.027909128953916576,0.7142285558963704
5329,4.0,299.31874,1029.0898,0.0,0.0,0.0,0.0,0.0,0.05311312827218115,-0.2592081105743488,0.08189934993233651,-0.13550885637118287,-0.006070073017094563,-0.02054411896529668,0.6876498810657593
5330,4.0,298.82244,1109.0515,0.0,0.0,0.0,0.0,0.0,0.05312309508176498,-0.21229037529392877,0.09123482232417592,-0.21606842014679278,0.050007389161095046,0.020242436920272982,0.7378964468997092
5331,4.0,298.64855,515.5488,0.0,0.0,0.0,0.0,0.0,0.053133061891348796,-0.18879113976973483,0.14109601874759287,-0.10901884092432189,0.01922036039865188,-0.015345910878273484,0.6821238379353813
5332,4.0,299.29807,319.54443,0.0,0.0,0.0,0.0,0.0,0.053143028700932626,-0.17317117007066382,0.17214853727473783,-0.0961108928731566,0.02131458015583528,-0.02178099336236668,0.7243385323466472
5333,4.0,300.07392999999996,902.61975,0.0,0.0,0.0,0.0,0.0,0.05315299551051644,-0.2852491346368977,0.12288465178527089,-0.1120093776669649,-0.023720455378776678,-0.006289293425254933,0.6850615438178104
5334,4.0,299.91222999999997,1177.4243,0.0,0.0,0.0,0.0,0.0,0.05316296232010026,-0.2771807963431147,0.08148667748460893,-0.16221347818922383,0.0036640953545680564,0.001942237612408928,0.6647547047211814
5335,4.0,300.42785,1036.1458,0.0,0.0,0.0,0.0,0.0,0.05317292912968409,-0.27061021394964874,0.1073379299359289,-0.15169016662565385,0.015533890050075584,0.016330727153967283,0.6781036871036233
5336,4.0,300.43118,819.33334,0.0,0.0,0.0,0.0,0.0,0.053182895939267893,-0.14743057466276485,0.09134334140988591,-0.1929696413271208,-0.017947441655774585,0.009179142998835882,0.6867476325142143
5337,4.0,299.95555,441.70988,0.0,0.0,0.0,0.0,0.0,0.053192862748851724,-0.17197917252052283,0.13417871230240788,-0.09646831988568191,0.016820429914047183,0.011589837340577887,0.7204191289723323
5338,4.0,299.73783,803.63104,0.0,0.0,0.0,0.0,0.0,0.053202829558435555,-0.1991348324880778,0.1016506179196349,-0.14679955289798785,-0.016074796390708884,0.0006049862021324894,0.6933386622946983
5339,4.0,299.26212000000004,978.65206,0.0,0.0,0.0,0.0,0.0,0.05321279636801937,-0.27646498580996975,0.08895199112712801,-0.1099727956284699,0.006896990476704962,-0.03494903866120157,0.6849721447614874
5340,4.0,298.40782,610.79065,0.0,0.0,0.0,0.0,0.0,0.05322276317760319,-0.2132826308518568,0.12453034220018788,-0.0969128134528,-0.008574350935422553,-0.04988958667796886,0.6853854190797743
5341,4.0,298.63934,351.23829,0.0,0.0,0.0,0.0,0.0,0.053232729987187005,-0.17006757488186283,0.12947640097332588,-0.06617649583136163,0.022488707013962578,-0.0045475651393597355,0.6479742495500794
5342,4.0,298.72252000000003,657.24917,0.0,0.0,0.0,0.0,0.0,0.053242696796770836,-0.16864835599679684,0.1062580789068559,-0.13739705806503388,0.02805188778700577,0.02118751859329528,0.6913034582763393
5343,4.0,298.42116,951.1090199999999,0.0,0.0,0.0,0.0,0.0,0.05325266360635465,-0.23438267252426878,0.1103460263028049,-0.16507675071930683,0.003917761402527946,0.016439458008948186,0.6701911968077214
5344,4.0,298.9171,833.82897,0.0,0.0,0.0,0.0,0.0,0.05326263041593847,-0.2142614405809578,0.13597883216506587,-0.17518057674147683,-0.021608564539849277,0.008858298874546032,0.7271672327833183
5345,4.0,299.56302,613.22027,0.0,0.0,0.0,0.0,0.0,0.0532725972255223,-0.22724552120488678,0.12388949190944087,-0.08304761560816151,-0.017728908940457082,0.017375454881573882,0.6621780198493824
5346,4.0,300.27641,691.0587,0.0,0.0,0.0,0.0,0.0,0.0532825640351061,-0.22554162970422578,0.12853301446772086,-0.11305597382775588,-0.01081770023437389,0.023515994680847977,0.7293916004628463
5347,4.0,300.40702999999996,905.62404,0.0,0.0,0.0,0.0,0.0,0.053292530844689934,-0.23896662610916977,0.07933826607232723,-0.11565872962462789,0.006409057763224754,-0.018226613336576682,0.6738980811060624
5348,4.0,299.09066,1063.1074,0.0,0.0,0.0,0.0,0.0,0.053302497654273764,-0.22479042634508778,0.1013764831050799,-0.1997441504357128,-0.0006391096587977124,-0.017466477164557084,0.7390352488196004
5349,4.0,299.09157999999996,933.43325,0.0,0.0,0.0,0.0,0.0,0.05331246446385758,-0.23558879478080375,0.1032629825387629,-0.15141459299595686,0.008839503085191032,0.007941378056252993,0.7249261768746433
5350,4.0,300.05662,523.2403,0.0,0.0,0.0,0.0,0.0,0.0533224312734414,-0.17888861614493182,0.11828941059425589,-0.0984527803390329,-0.03407997405043157,0.012463869916588188,0.6910002837139183
5351,4.0,300.48832000000004,565.80877,0.0,0.0,0.0,0.0,0.0,0.053332398083025215,-0.23084467675259576,0.13683815944237487,-0.07798521241879122,-0.024202175754568775,0.004803409472384605,0.7059476985266133
5352,4.0,300.53222,1100.4153,0.0,0.0,0.0,0.0,0.0,0.053342364892609045,-0.2716831647455407,0.09525027268872001,-0.15806587062738686,-0.00991348212728451,0.003623762529037517,0.6608860449118744
5353,4.0,299.52146,1009.7724,0.0,0.0,0.0,0.0,0.0,0.05335233170219286,-0.2411015947323748,0.08356501150672452,-0.14940900627802087,0.029634719205469076,0.0014073447084691085,0.6814779416591363
5354,4.0,300.41391,644.57894,0.0,0.0,0.0,0.0,0.0,0.05336229851177668,-0.15062975986599986,0.10934218929623389,-0.15464833002760184,0.03178275672846387,-0.002452309739249128,0.6388892262384573
5355,4.0,300.60595,696.25175,0.0,0.0,0.0,0.0,0.0,0.05337226532136051,-0.2024712117548528,0.11050718373120991,-0.11967911350390889,0.015025663051667486,-0.015052321661798485,0.7194285858070734
5356,4.0,301.04643,903.59995,0.0,0.0,0.0,0.0,0.0,0.05338223213094431,-0.22434885195150778,0.1115840659374899,-0.16190704096148087,-0.005519666544848675,-0.005477729744409835,0.6984936532384564
5357,4.0,300.63815,1074.1538,0.0,0.0,0.0,0.0,0.0,0.05339219894052814,-0.27918334331075073,0.07382818467077452,-0.12116077899263789,-0.032691347212384765,0.018696354056436482,0.7231085581827583
5358,4.0,300.59553999999997,1048.4286,0.0,0.0,0.0,0.0,0.0,0.053402165750111974,-0.2509727886640858,0.07375719028926793,-0.14148050663053888,-0.005029421898615295,0.019536564344108782,0.6840437036948573
5359,4.0,301.53932000000003,675.0163299999999,0.0,0.0,0.0,0.0,0.0,0.05341213255969579,-0.20389805028067082,0.12697180884614187,-0.12826186874096088,-0.04180555719313726,-0.012658709804817387,0.7042739309514253
5360,4.0,300.59654,496.67915,0.0,0.0,0.0,0.0,0.0,0.05342209936927961,-0.15832410754787285,0.1283097245431839,-0.12096367145068489,-0.017720165605344184,-0.026623167655752074,0.7114422295788814
5361,4.0,300.06052,1012.6410000000001,0.0,0.0,0.0,0.0,0.0,0.053432066178863424,-0.24440587423598176,0.1031770589302829,-0.16658877318103185,-0.008366181235502803,-0.006765355204538573,0.7077212712366514
5362,4.0,300.22687,1148.8482,0.0,0.0,0.0,0.0,0.0,0.053442032988447255,-0.27911391541389874,0.10948023448985789,-0.17958747500390382,0.0018798168466234784,0.0023333232733810778,0.7341149164665013
5363,4.0,299.92217,873.57905,0.0,0.0,0.0,0.0,0.0,0.05345199979803107,-0.24688393947554776,0.11016745110518089,-0.12882973462700487,-0.0002156222962602638,0.017401870311680882,0.6991435923826004
5364,4.0,300.54347,808.0847,0.0,0.0,0.0,0.0,0.0,0.05346196660761489,-0.23424435375311778,0.13249454878119388,-0.14388776595311686,-0.011989319298503687,0.004494251465473086,0.7117347244852483
5365,4.0,299.97232,1052.0242,0.0,0.0,0.0,0.0,0.0,0.05347193341719872,-0.2333808214878938,0.09190083060165581,-0.17830908775023682,0.01918625237378568,0.016591636014966986,0.6965377360404224
5366,4.0,300.25563,1087.4636,0.0,0.0,0.0,0.0,0.0,0.05348190022678252,-0.21275078600686778,0.06427943630513644,-0.18209043579842682,0.017045393727749384,-0.017320223631872984,0.6967461311884894
5367,4.0,300.32159,826.7609,0.0,0.0,0.0,0.0,0.0,0.05349186703636635,-0.2330103063238268,0.12349384814289387,-0.14179821119939387,0.024970554716151876,-0.03629129613492207,0.7333452820880443
5368,4.0,300.59843,548.94142,0.0,0.0,0.0,0.0,0.0,0.053501833845950184,-0.1914940350739898,0.13434953613676687,-0.10971998972851989,0.007086776070785343,-0.02066114631209638,0.7111522171352593
5369,4.0,300.90975,471.76698,0.0,0.0,0.0,0.0,0.0,0.053511800655534,-0.2172707224504508,0.14240646523442385,-0.06854112468248234,-0.006350331509953924,-0.0016490640311249485,0.7254541713692523
5370,4.0,300.74449,739.22066,0.0,0.0,0.0,0.0,0.0,0.05352176746511782,-0.18464956104599284,0.08960600252342392,-0.12966106580405087,0.004711065708620985,0.020489657785671783,0.6508130419577464
5371,4.0,301.49113,1090.0009,0.0,0.0,0.0,0.0,0.0,0.053531734274701634,-0.24402746585363577,0.06949988624510474,-0.15680548882799686,-0.014825491441412087,0.014844062289244883,0.6911889508825383
5372,4.0,301.20923,941.9102800000001,0.0,0.0,0.0,0.0,0.0,0.053541701084285465,-0.19659161526708183,0.09292985903221301,-0.18265545445168982,-0.0027780520158473877,0.007689559568525442,0.6801343112315305
5373,4.0,299.0426,541.09326,0.0,0.0,0.0,0.0,0.0,0.05355166789386928,-0.19777824259169283,0.1308566198620429,-0.09755721315864731,-0.016720219479157184,-0.0001032035148903939,0.7022139732331233
5374,4.0,299.58609,933.6523199999999,0.0,0.0,0.0,0.0,0.0,0.0535616347034531,-0.2314113672685238,0.08139716697077493,-0.13379279573682087,0.0035332070503753866,0.00014263760784723588,0.6821104326365584
5375,4.0,300.22547000000003,958.13764,0.0,0.0,0.0,0.0,0.0,0.05357160151303693,-0.2748253647631517,0.13958521218598788,-0.15600977339196584,0.004119791617441777,-0.014922202110456686,0.7173772508471223
5376,4.0,299.26155,664.5902,0.0,0.0,0.0,0.0,0.0,0.05358156832262073,-0.19303156104073182,0.10979540593346289,-0.11878267087543688,0.003037081601886617,0.007893974467549624,0.7001945353863203
5377,4.0,300.9039,773.80645,0.0,0.0,0.0,0.0,0.0,0.05359153513220456,-0.20034139044215582,0.13767511415747585,-0.17255155750201284,-0.005791856425836724,0.017582995859806584,0.7101322289220943
5378,4.0,300.70122000000003,777.1136,0.0,0.0,0.0,0.0,0.0,0.05360150194178839,-0.20147307934634479,0.11784519161791489,-0.15259523201247685,-0.004640590516465626,-0.014720065808257384,0.7265004027600073
5379,4.0,299.5242,795.21273,0.0,0.0,0.0,0.0,0.0,0.05361146875137221,-0.22767692256746278,0.12264784510439988,-0.13669573700831886,-0.009175399343691411,0.006804430688020024,0.7217191491156343
5380,4.0,301.42082,1085.0194,0.0,0.0,0.0,0.0,0.0,0.05362143556095603,-0.2814178029612747,0.1180849873865809,-0.16648599922338883,-0.0012820822728066687,-0.013386282145123185,0.7516198353266023
5381,4.0,300.52448,1098.9388,0.0,0.0,0.0,0.0,0.0,0.053631402370539843,-0.2996328986839647,0.09635355411310541,-0.13077062532605588,0.014359899980711787,0.01805456549609688,0.7092393833314773
5382,4.0,300.71668,728.09634,0.0,0.0,0.0,0.0,0.0,0.053641369180123674,-0.1960105163347318,0.1016603349880939,-0.12697292342125188,-0.013841404705790285,0.012304956837154688,0.6802679690522214
5383,4.0,301.57788999999997,636.26625,0.0,0.0,0.0,0.0,0.0,0.05365133598970749,-0.18799292160595682,0.12242318729222788,-0.12783931305175789,0.01122285132660919,-0.01038256707167959,0.6769875515884693
5384,4.0,299.45653,866.29212,0.0,0.0,0.0,0.0,0.0,0.05366130279929131,-0.21837878236230776,0.1142756027081239,-0.15922798743207886,0.007316030289385973,-0.008658488589276292,0.6973689253624543
5385,4.0,299.09087,844.82973,0.0,0.0,0.0,0.0,0.0,0.05367126960887514,-0.24463919533650877,0.13424103731605888,-0.14640897538194086,0.02781974813609537,-0.0008454394890533813,0.7196802163369074
5386,4.0,299.48152000000005,529.38806,0.0,0.0,0.0,0.0,0.0,0.05368123641845894,-0.19047614428853182,0.10908226024808089,-0.07952686433994043,0.007584185307150813,-0.02038333643942868,0.6558565449930014
5387,4.0,298.48114,778.7792599999999,0.0,0.0,0.0,0.0,0.0,0.05369120322804277,-0.24447313377761978,0.11021676598754789,-0.1024730831583059,0.008105001026126322,0.0015987866624879584,0.7251690326586113
5388,4.0,299.4451,1102.9496,0.0,0.0,0.0,0.0,0.0,0.0537011700376266,-0.2326235892906608,0.08969529316198623,-0.1923408284475618,0.004217213588056576,0.008585167886865102,0.6882970337721284
5389,4.0,299.64691,956.20259,0.0,0.0,0.0,0.0,0.0,0.05371113684721042,-0.22975705409525576,0.08407810818511323,-0.14498276507118488,0.032638142462883865,0.014285233580842788,0.7217865302472843
5390,4.0,300.76495,839.03804,0.0,0.0,0.0,0.0,0.0,0.053721103656794236,-0.2112131283176128,0.09968639713703141,-0.14351987510680886,-0.02055926908079188,0.0032979631051336168,0.6873744594235773
5391,4.0,300.81562,795.40299,0.0,0.0,0.0,0.0,0.0,0.05373107046637805,-0.23827704862111376,0.11867791094759789,-0.1221835131135739,-0.0039022778264248366,-0.0064489336129601935,0.7322434840618053
5392,4.0,300.67067000000003,781.26345,0.0,0.0,0.0,0.0,0.0,0.053741037275961884,-0.24944802964860377,0.1116661999905959,-0.09970274491414481,-0.03434600691718697,-0.00964547686788445,0.7031250674580413
5393,4.0,300.05167,1015.8453,0.0,0.0,0.0,0.0,0.0,0.053751004085545714,-0.2759680372984248,0.12341342648245687,-0.15623699472689084,0.012263070091270789,-0.014463626393448786,0.7227168559591003
5394,4.0,299.73582000000005,1007.0766,0.0,0.0,0.0,0.0,0.0,0.05376097089512952,-0.22900936671396477,0.09273130152936691,-0.16984808464520085,0.0045989460386806355,-0.01008852442578484,0.6865535343250584
5395,4.0,300.02586,574.63719,0.0,0.0,0.0,0.0,0.0,0.05377093770471335,-0.17672041291844684,0.14430712990450487,-0.14226207709517386,0.004816168317643805,0.013164464472981486,0.7115649341659913
5396,4.0,301.25323,628.39322,0.0,0.0,0.0,0.0,0.0,0.05378090451429715,-0.1921633678250478,0.14288583385673384,-0.14173830785348185,0.009093550317838543,0.004247333156554146,0.7022436006660473
5397,4.0,299.77774,1077.7629,0.0,0.0,0.0,0.0,0.0,0.05379087132388098,-0.26999939639186576,0.0943433682529655,-0.15195697564198585,0.01067363734840599,0.012726139572472187,0.7277695086427582
5398,4.0,299.33358,994.6814699999999,0.0,0.0,0.0,0.0,0.0,0.05380083813346481,-0.27213643204527477,0.1135210556236559,-0.14374296238132586,0.014656172283451587,-0.0027908057948560876,0.7082698144432884
5399,4.0,299.7394,767.69802,0.0,0.0,0.0,0.0,0.0,0.05381080494304863,-0.2137912418720528,0.06833784847392053,-0.08790763830205842,0.005125659886488245,-0.027967806267207573,0.7010859624267973
5400,4.0,299.32783,653.88779,0.0,0.0,0.0,0.0,0.0,0.053820771752632446,-0.17049116408616785,0.1146985130348619,-0.14297290243782687,-0.008877362871202502,-0.012325743662956188,0.6996883662988653
5401,4.0,299.98249,732.72482,0.0,0.0,0.0,0.0,0.0,0.05383073856221626,-0.2130634648552268,0.1272076326744159,-0.13687422101343386,-0.02956891063797427,0.012992914138300789,0.7195542592169762
5402,4.0,298.74795,676.53535,0.0,0.0,0.0,0.0,0.0,0.05384070537180009,-0.17973691926115282,0.09699615226027491,-0.12290909137768288,-0.012674436459619487,4.325389891257746e-05,0.6531582295791983
5403,4.0,298.98476,635.84055,0.0,0.0,0.0,0.0,0.0,0.053850672181383924,-0.22971670647627376,0.16748237870922383,-0.1310453275606669,-0.012029557486474888,0.022155593950836876,0.7176836982073663
5404,4.0,299.55154,647.71587,0.0,0.0,0.0,0.0,0.0,0.05386063899096773,-0.22995504316479579,0.12609330074443986,-0.0930277045413696,0.0026068849936795174,0.028629918598052972,0.6932564978440894
5405,4.0,300.20857,642.56935,0.0,0.0,0.0,0.0,0.0,0.05387060580055156,-0.2205637954079518,0.13112606332863486,-0.10588731043026389,0.01128977446921399,0.03294003729042857,0.7047788436087563
5406,4.0,300.14338,1043.6744,0.0,0.0,0.0,0.0,0.0,0.05388057261013536,-0.24097779583515677,0.09876038280439091,-0.17503354401946583,-0.0038975276086310262,-0.0060215624526569434,0.6854627503274063
5407,4.0,300.58366,1285.6511,0.0,0.0,0.0,0.0,0.0,0.05389053941971919,-0.26127997398132574,0.06609751501256683,-0.1956233737365238,0.010865549957096291,-0.016693135303984183,0.7217466385908473
5408,4.0,299.50197000000003,829.29612,0.0,0.0,0.0,0.0,0.0,0.05390050622930302,-0.1965248319529908,0.11689337487147788,-0.17245385992737083,-0.02003826905162318,0.0006432419460180374,0.7248886055609354
5409,4.0,300.59122,722.87854,0.0,0.0,0.0,0.0,0.0,0.05391047303888684,-0.23945039223691378,0.13418000926253587,-0.11446665101447888,-0.0008860285351367081,0.006959343760033753,0.7371751749485254
5410,4.0,300.10438999999997,1060.3018,0.0,0.0,0.0,0.0,0.0,0.053920439848470655,-0.2790395023265547,0.08347989241882392,-0.12674566155632289,-0.012262391213703788,-0.015692031032932884,0.7394396369345103
5411,4.0,299.52466,888.45073,0.0,0.0,0.0,0.0,0.0,0.05393040665805447,-0.2428390653413498,0.12059514225681388,-0.14782292536648686,0.015384603859842184,-0.010328452423588892,0.7264818197531733
5412,4.0,298.88589,599.1077700000001,0.0,0.0,0.0,0.0,0.0,0.0539403734676383,-0.16367670252613284,0.08378056020049751,-0.1022176529405969,0.030289816805872175,0.006244008035885614,0.7070253812004723
5413,4.0,299.39497,794.46664,0.0,0.0,0.0,0.0,0.0,0.053950340277222106,-0.1901015153290588,0.11042895069098889,-0.16182544393092785,0.01192372554003009,0.008899517787289023,0.6871422225006574
5414,4.0,299.22665,838.23674,0.0,0.0,0.0,0.0,0.0,0.053960307086805936,-0.19881432121644582,0.11750867099470289,-0.17349738594035885,-0.005243249688418455,0.020653202431312377,0.6864301204628783
5415,4.0,300.01271,777.92942,0.0,0.0,0.0,0.0,0.0,0.05397027389638975,-0.2271010317406268,0.09166879430225561,-0.1010388823572613,-0.006418622945493764,0.0027266528780246872,0.6816353500621714
5416,4.0,300.09092000000004,814.0271700000001,0.0,0.0,0.0,0.0,0.0,0.05398024070597357,-0.24807778114087078,0.15077118931495784,-0.15013734058240186,0.01046847446815799,0.03290618055158717,0.7072144638016333
5417,4.0,299.932,806.48824,0.0,0.0,0.0,0.0,0.0,0.05399020751555739,-0.21707891420652078,0.09133305692137092,-0.11940642763699688,-0.0006714397843759474,0.008580345323014152,0.7053128669414603
5418,4.0,299.37176,646.8247700000001,0.0,0.0,0.0,0.0,0.0,0.05400017432514122,-0.19189973028152882,0.09794920415858381,-0.10266805274254791,0.004180759686558856,-0.02391993392596368,0.6801124047643683
5419,4.0,300.37497,875.1067199999999,0.0,0.0,0.0,0.0,0.0,0.05401014113472505,-0.21112357727377482,0.13452955014953286,-0.18941656839395982,-0.015805357990367384,-0.018144061824429483,0.7237682447928643
5420,4.0,299.93981,920.9763,0.0,0.0,0.0,0.0,0.0,0.05402010794430885,-0.2084103265534978,0.07092475399947823,-0.14246823296051989,0.012255097839483989,0.0016820008402005583,0.7123474976157244
5421,4.0,299.6154,559.94558,0.0,0.0,0.0,0.0,0.0,0.05403007475389268,-0.2046815459204958,0.15664444285710286,-0.12217236736247387,0.015411878526033984,-0.002892559105673357,0.7399637000187312
5422,4.0,299.98114,719.66952,0.0,0.0,0.0,0.0,0.0,0.0540400415634765,-0.2156413554946448,0.1106250449828419,-0.11374524734078188,-0.024079906865001773,0.005789027634207545,0.7020447908639263
5423,4.0,300.37777,1086.3243,0.0,0.0,0.0,0.0,0.0,0.054050008373060315,-0.26542982082588373,0.07195600752725502,-0.13674166763535187,-0.03617791547523226,-0.006985710858110984,0.7241329742988603
5424,4.0,300.34981,1005.6916,0.0,0.0,0.0,0.0,0.0,0.05405997518264413,-0.25904871620111775,0.13529718842529287,-0.1819535963724218,-0.01056417087385249,-0.011649083087174989,0.7122618779822744
5425,4.0,300.29207,880.51709,0.0,0.0,0.0,0.0,0.0,0.05406994199222796,-0.2201598227255828,0.09446009567773561,-0.14195547774741488,0.016151243071003584,-0.005280791111248505,0.6943711438815964
5426,4.0,300.03104,984.0918800000001,0.0,0.0,0.0,0.0,0.0,0.054079908801811766,-0.27228074925701773,0.12991476336408886,-0.15677337893232784,0.010207098498862189,-0.017617058288418284,0.7114918889662823
5427,4.0,299.28129,857.2658,0.0,0.0,0.0,0.0,0.0,0.054089875611395596,-0.2677680068891447,0.14667653420334686,-0.13949592458717586,0.01010209235124889,-0.008844817987265571,0.7214034507819773
5428,4.0,299.10686,540.3933099999999,0.0,0.0,0.0,0.0,0.0,0.05409984242097943,-0.2014920473882168,0.12161523179498888,-0.08438925905232142,-0.012491727201587487,0.03223523267986977,0.7140775309689653
5429,4.0,299.04229,599.32597,0.0,0.0,0.0,0.0,0.0,0.05410980923056323,-0.19506731221414483,0.13342365859288988,-0.12053647507602389,0.017457985115468984,0.02197040729631038,0.7132926167790004
5430,4.0,299.72641,629.1105,0.0,0.0,0.0,0.0,0.0,0.05411977604014706,-0.18593808080065982,0.12059106899141189,-0.1258868713015669,-0.005079536437961215,-0.0026246239631802174,0.6941105258233753
5431,4.0,300.22443,618.95059,0.0,0.0,0.0,0.0,0.0,0.05412974284973088,-0.15659715447493586,0.08077913507227993,-0.11232749766836089,-0.019679067838172783,-0.028928200175741076,0.6824430927768894
5432,4.0,300.82945,874.0164800000001,0.0,0.0,0.0,0.0,0.0,0.05413970965931471,-0.2205484142714338,0.11219784218556489,-0.15732861972212586,-0.005917885689174844,-0.023727976734268977,0.7244220342873884
5433,4.0,300.53828,1041.8059,0.0,0.0,0.0,0.0,0.0,0.054149676468898525,-0.2362926185652658,0.04255315034216896,-0.12294352161608088,0.03933135243645226,-0.02161586500681978,0.6878116261792223
5434,4.0,299.71942,751.57961,0.0,0.0,0.0,0.0,0.0,0.05415964327848234,-0.21828017286257578,0.11565597358435589,-0.12583724231166887,0.04027048937113786,-0.008180023786055491,0.6952430050626424
5435,4.0,300.52846,872.1181,0.0,0.0,0.0,0.0,0.0,0.05416961008806617,-0.24737020833103876,0.11251582033194689,-0.13024772747944988,0.03306423236843567,-0.025437031757439575,0.6986676789431313
5436,4.0,300.29893,1055.3342,0.0,0.0,0.0,0.0,0.0,0.054179576897649975,-0.24649178128934474,0.09380936923826391,-0.16811283305394484,0.003933190668425696,0.019118281530577482,0.7204654446344033
5437,4.0,300.022,582.7099400000001,0.0,0.0,0.0,0.0,0.0,0.054189543707233806,-0.21221861692184676,0.16487690740208383,-0.12978754981403387,-0.003689541813604426,0.006997104348860433,0.7047521039386173
5438,4.0,299.61879,497.47416,0.0,0.0,0.0,0.0,0.0,0.05419951051681764,-0.18951100330327983,0.13508978626232387,-0.0967985046560186,-0.02541296808081468,-0.014323129134582786,0.7061145098905763
5439,4.0,299.68228,715.82388,0.0,0.0,0.0,0.0,0.0,0.05420947732640144,-0.25356102458702473,0.14359343706406885,-0.10762499382175991,-0.026976882119910978,-0.0052387978727790946,0.7229379572634214
5440,4.0,298.17318,797.67868,0.0,0.0,0.0,0.0,0.0,0.05421944413598527,-0.2271272141232108,0.12295726128743688,-0.13830444379458587,-0.02125330588253798,0.009626080423870172,0.7430850473492843
5441,4.0,299.40711,899.04749,0.0,0.0,0.0,0.0,0.0,0.05422941094556909,-0.2273529358479878,0.08565124381336961,-0.13158630178905686,-0.017857151952613684,0.03110675071224727,0.7079462634213564
5442,4.0,298.85989,1082.1268,0.0,0.0,0.0,0.0,0.0,0.05423937775515292,-0.22276179831987777,0.0990713543263314,-0.2052490673015058,-0.01064957873803159,0.0027884833243018775,0.7440297105500152
5443,4.0,299.0729,883.0718300000001,0.0,0.0,0.0,0.0,0.0,0.054249344564736734,-0.2298691398213178,0.1021787441367569,-0.14074138121259286,0.020159406140828482,0.00024390436609898677,0.6996637139239323
5444,4.0,300.51543,816.6578099999999,0.0,0.0,0.0,0.0,0.0,0.05425931137432055,-0.22550851669095778,0.12069647739931488,-0.14343153996309085,0.03408704146987907,0.014503505890884586,0.7377263323404203
5445,4.0,300.37074,937.2903,0.0,0.0,0.0,0.0,0.0,0.05426927818390438,-0.24997236631035175,0.1080201917582629,-0.14296068264162087,0.029556187256468573,0.01018011362219899,0.6901684661768244
5446,4.0,299.89784,851.27569,0.0,0.0,0.0,0.0,0.0,0.054279244993488185,-0.22735003795270178,0.1021608400074899,-0.13357735850055888,-0.002023677285221398,-0.006716610174027813,0.7210643463710102
5447,4.0,299.82472,465.84779000000003,0.0,0.0,0.0,0.0,0.0,0.054289211803072016,-0.18858738530712582,0.14374100680863286,-0.0967597225084411,-0.022892172058031478,-0.02090582087999388,0.6913134995848303
5448,4.0,299.61282,477.67322,0.0,0.0,0.0,0.0,0.0,0.054299178612655846,-0.17028529193084985,0.14295271849583485,-0.11786816199768188,0.00977617518768337,-0.004379865864334105,0.7221848287290933
5449,4.0,299.67475,816.45217,0.0,0.0,0.0,0.0,0.0,0.05430914542223965,-0.20470317881013078,0.0892138443372209,-0.13269173738315487,-0.006297890244403374,0.013040017095699487,0.6607512725160734
5450,4.0,299.94032999999996,902.5368,0.0,0.0,0.0,0.0,0.0,0.05431911223182348,-0.2075609797896738,0.08415611932356232,-0.15094379646949285,0.022509105764975775,0.0037010445327146564,0.6746055019283794
5451,4.0,299.88198,696.83226,0.0,0.0,0.0,0.0,0.0,0.0543290790414073,-0.2189798929841328,0.08735948317020972,-0.08019919428479422,0.005633080844441795,-0.003183648634151657,0.6680853591248913
5452,4.0,300.62236,733.2398400000001,0.0,0.0,0.0,0.0,0.0,0.05433904585099113,-0.22506475367716178,0.1307980844037659,-0.12861993106129888,0.012695547525452988,0.029629178753922267,0.7341958447519883
5453,4.0,299.06023,681.88959,0.0,0.0,0.0,0.0,0.0,0.054349012660574944,-0.20895920413266778,0.13451632723572787,-0.13283453471974788,-0.0008186628352857313,0.007701868125440203,0.7404592299801364
5454,4.0,299.19437999999997,877.96664,0.0,0.0,0.0,0.0,0.0,0.05435897947015876,-0.2049421335812138,0.10625941639698788,-0.16819721652227285,-0.04101548556016325,0.007160967965632514,0.7317590795864983
5455,4.0,298.64267,1152.3467,0.0,0.0,0.0,0.0,0.0,0.05436894627974259,-0.2660695869390237,0.12874470267861288,-0.2129597485749908,-0.017390706322079084,-0.019953149963722584,0.7496694504741143
5456,4.0,298.36435,864.2307599999999,0.0,0.0,0.0,0.0,0.0,0.054378913089326394,-0.23381598200834078,0.1263359133483839,-0.15522450456446585,0.014160940217575985,-0.005483942791373015,0.7136986868890763
5457,4.0,299.1476,604.10246,0.0,0.0,0.0,0.0,0.0,0.054388879898910225,-0.24061824403717177,0.14723494646595786,-0.09024877190986032,0.023387720257938276,0.014622032847832287,0.6876832676565543
5458,4.0,298.8158,1017.7269,0.0,0.0,0.0,0.0,0.0,0.054398846708494056,-0.27350575849541675,0.1115664455182509,-0.14742425198214085,0.006424547520153473,-0.03475232831328776,0.7068850055316184
5459,4.0,299.10682,1109.4691,0.0,0.0,0.0,0.0,0.0,0.05440881351807786,-0.28305404988525973,0.09024649007063511,-0.14444333098294684,-0.0029015041788811673,-0.012830206437242787,0.7229987421369203
5460,4.0,301.14218999999997,838.01785,0.0,0.0,0.0,0.0,0.0,0.05441878032766169,-0.2088355774879668,0.13535251188075287,-0.18125343042082084,-0.02104763232423958,0.004241814793859526,0.7426649335928223
5461,4.0,301.01953,720.9065400000001,0.0,0.0,0.0,0.0,0.0,0.054428747137245506,-0.17266953021115583,0.08169400162732023,-0.1281620534736099,0.023253382546430182,0.016377957780878586,0.6989325830492753
5462,4.0,300.87887,837.4687,0.0,0.0,0.0,0.0,0.0,0.05443871394682934,-0.2091589866548848,0.09843448914822771,-0.14384507772640387,0.0006795141413753243,0.008541524671932853,0.7233125152953873
5463,4.0,300.02406,1069.0661,0.0,0.0,0.0,0.0,0.0,0.054448680756413154,-0.24887676937472475,0.07546857578766852,-0.15156122041792786,0.010952371305164889,-0.004762962858867836,0.7012000543880573
5464,4.0,299.64092,1002.1687,0.0,0.0,0.0,0.0,0.0,0.05445864756599697,-0.25966724459216173,0.1126443713721339,-0.15761137729503186,0.0068023389345135835,-0.01195386973050509,0.7463383502403603
5465,4.0,299.40064,796.502,0.0,0.0,0.0,0.0,0.0,0.0544686143755808,-0.23176046232547678,0.13478770601001086,-0.14514396302959387,0.005509225914493265,0.008305080633272642,0.7242182088972723
5466,4.0,299.87504,504.45345,0.0,0.0,0.0,0.0,0.0,0.054478581185164604,-0.16828559219599484,0.15535989504282785,-0.14041555037793585,0.018979786453909082,-0.0058345539744506444,0.7168648908015564
5467,4.0,299.22467,620.03132,0.0,0.0,0.0,0.0,0.0,0.054488547994748435,-0.1945516793707558,0.13438208172997887,-0.12830444551016287,0.016882745808447286,-0.00972985121696155,0.6894136860448333
5468,4.0,299.82644,1176.0777,0.0,0.0,0.0,0.0,0.0,0.054498514804332265,-0.27695450719828174,0.11926838244337287,-0.1998121293849218,0.010675217005311889,0.02008227450346618,0.7089885532692224
5469,4.0,299.82491,969.55645,0.0,0.0,0.0,0.0,0.0,0.05450848161391607,-0.2800508373838657,0.09720472878010981,-0.11187484845118789,0.004420103241705225,0.006694423036588113,0.6927664394332244
5470,4.0,300.25382,488.51472,0.0,0.0,0.0,0.0,0.0,0.0545184484234999,-0.18026108367038382,0.12657956959993086,-0.09481476968973922,-0.009411617022279281,-0.0046213655143682655,0.7116070549726483
5471,4.0,300.49197000000004,802.59016,0.0,0.0,0.0,0.0,0.0,0.054528415233083716,-0.25925553067902873,0.14235875128721487,-0.12707058046588987,-0.01107447300846539,-0.02242238574191718,0.7490405666670482
5472,4.0,301.03052,1319.5791,0.0,0.0,0.0,0.0,0.0,0.054538382042667546,-0.24631879923227276,0.05584542618276444,-0.2106457386591158,-0.02438197901131398,-0.009103796910799801,0.7532862163085613
5473,4.0,299.70436,1024.8,0.0,0.0,0.0,0.0,0.0,0.05454834885225136,-0.2583172813514307,0.11598278727160989,-0.16917911666417884,-0.01333275619534059,-0.00046326396442559364,0.7443653192481373
5474,4.0,299.88018,821.11587,0.0,0.0,0.0,0.0,0.0,0.05455831566183518,-0.21124221872798382,0.1071118029111119,-0.14546830438660385,0.0063831192699398236,0.0017446867735371782,0.7323428231016094
5475,4.0,300.56269,679.7066599999999,0.0,0.0,0.0,0.0,0.0,0.05456828247141901,-0.26311538534496676,0.13895844607163085,-0.08245692119736452,0.03116284119803297,-0.0016467276790443682,0.7168536538579473
5476,4.0,299.22168999999997,784.45283,0.0,0.0,0.0,0.0,0.0,0.054578249281002814,-0.2445705375097328,0.14460645411654588,-0.13848999015289787,0.013219086759372289,0.008458944484807822,0.7257816335365703
5477,4.0,299.18336,1106.0466,0.0,0.0,0.0,0.0,0.0,0.054588216090586644,-0.28632675651575074,0.08225168434985923,-0.13213547321075586,-0.013520913699160288,0.002316740118269448,0.6805968092396754
5478,4.0,299.61971,927.0064699999999,0.0,0.0,0.0,0.0,0.0,0.054598182900170475,-0.20967760858606882,0.11551412870285688,-0.18762333863198183,-0.009316986758340001,0.007163796554611674,0.7006480762635813
5479,4.0,299.86445,319.57545,0.0,0.0,0.0,0.0,0.0,0.05460814970975429,-0.15884113867639985,0.14395267475452286,-0.08225449105263623,0.005956828132918165,0.0006946890207029684,0.6685591042091464
5480,4.0,300.79048,388.04107999999997,0.0,0.0,0.0,0.0,0.0,0.05461811651933811,-0.16267907674267484,0.14668447808413085,-0.1019602063551889,0.009736927553009929,0.0044772478115699555,0.7010436389701203
5481,4.0,300.66695,966.15887,0.0,0.0,0.0,0.0,0.0,0.054628083328921925,-0.2681606109053918,0.1143118466642009,-0.13983940623857488,-0.01113012171720749,0.013676346264500287,0.7049852325216253
5482,4.0,299.94535,960.92966,0.0,0.0,0.0,0.0,0.0,0.054638050138505756,-0.23484730849012475,0.08713301974635951,-0.14438432942962384,-0.0044616469011052665,-0.01168206539118009,0.7490967007225883
5483,4.0,300.79517999999996,723.72772,0.0,0.0,0.0,0.0,0.0,0.05464801694808957,-0.2063672394493608,0.12551279962964887,-0.13914071963211988,0.0037611608637976766,-0.008168542750497403,0.7454388374640852
5484,4.0,300.10942,928.31434,0.0,0.0,0.0,0.0,0.0,0.05465798375767339,-0.2048551967226338,0.11589059164501088,-0.19321978237930781,0.023545997016308978,-0.0041567165789109855,0.7633338069501813
5485,4.0,300.51661,1253.5652,0.0,0.0,0.0,0.0,0.0,0.05466795056725722,-0.27593535998269975,0.062377250746655344,-0.16749440598791082,0.021144063336256583,-0.011667893062031389,0.7393414935298243
5486,4.0,300.2854,1203.9776,0.0,0.0,0.0,0.0,0.0,0.05467791737684102,-0.2653550429685037,0.07992927560390532,-0.18055334552922783,-0.010152472159470991,-0.001868345132966308,0.7128473136250523
5487,4.0,300.41981,979.643,0.0,0.0,0.0,0.0,0.0,0.054687884186424854,-0.29501398797061373,0.12265856529045789,-0.12543158763413387,-0.0018380774273041181,-0.0004113808983551336,0.7325664676636813
5488,4.0,301.16291,710.01401,0.0,0.0,0.0,0.0,0.0,0.054697850996008684,-0.23755490527484377,0.14451642684516086,-0.12278805865323787,-0.0006604448758183344,0.007815494194304223,0.6981792822624303
5489,4.0,300.43322,516.8291,0.0,0.0,0.0,0.0,0.0,0.0547078178055925,-0.21678430160744477,0.18222286758649683,-0.12254170715642487,0.014879962753537987,0.0016513031111959283,0.7293902933702173
5490,4.0,299.30818999999997,738.91574,0.0,0.0,0.0,0.0,0.0,0.05471778461517632,-0.19590283824660482,0.1099716810533599,-0.13868077501422688,0.008800515045193212,-0.016615285272300984,0.6855919903776614
5491,4.0,299.61919,1023.3226,0.0,0.0,0.0,0.0,0.0,0.054727751424760135,-0.2679971230017567,0.1140129176196989,-0.15708031265261987,-0.019764773597881282,-0.01086810233409819,0.7615179411809693
5492,4.0,299.1905,769.45842,0.0,0.0,0.0,0.0,0.0,0.054737718234343966,-0.2151486018385138,0.12902691309646488,-0.14777446161420385,0.01053910205312839,0.0022987963709235376,0.7285609988258723
5493,4.0,299.33224,797.4945700000001,0.0,0.0,0.0,0.0,0.0,0.05474768504392778,-0.22476280514736177,0.09625419886129981,-0.1139098295545249,-0.016979097786956485,-0.0037233826444192566,0.7580707022207532
5494,4.0,299.02326,1044.4469,0.0,0.0,0.0,0.0,0.0,0.0547576518535116,-0.23990237270902076,0.1087270350280229,-0.18631042994740782,-0.03909726633209976,0.003311129580908047,0.7429726779131942
5495,4.0,299.84808,1081.6889999999999,0.0,0.0,0.0,0.0,0.0,0.05476761866309543,-0.23618964195760275,0.0928220451685726,-0.18543883221138782,-0.031163211034319467,-0.012112484914409189,0.7517346568279343
5496,4.0,300.83808,940.69471,0.0,0.0,0.0,0.0,0.0,0.05477758547267923,-0.2239311497302838,0.1078545658969169,-0.16987112595247483,-0.009697677182561221,-0.014856531344975485,0.7158744590938083
5497,4.0,301.5037,818.0113299999999,0.0,0.0,0.0,0.0,0.0,0.05478755228226306,-0.2271323614337188,0.1197402530149429,-0.14126291117156387,0.03572290538532626,-0.011185477596670688,0.6955331694937794
5498,4.0,300.57128,574.66148,0.0,0.0,0.0,0.0,0.0,0.054797519091846894,-0.20853449022075182,0.1260270848504049,-0.09217534133199791,0.047700400055162955,-0.02480177967349508,0.6796237041086374
5499,4.0,300.59032,709.28929,0.0,0.0,0.0,0.0,0.0,0.05480748590143071,-0.22536581054687377,0.13265573660710187,-0.12289615217390588,0.03505179539359286,-0.008043273424734283,0.7105303652838872
5500,4.0,299.39752000000004,922.0079199999999,0.0,0.0,0.0,0.0,0.0,0.05481745271101453,-0.2362212958907268,0.12157973764398589,-0.16562583094849684,-0.001001354979523542,-0.005880083253119035,0.7161857193920274
5501,4.0,300.30439,905.7605800000001,0.0,0.0,0.0,0.0,0.0,0.054827419520598344,-0.24264142077684378,0.1087357996413879,-0.14142297428986086,-0.009012929756406912,-0.007054130976413523,0.7096251580420503
5502,4.0,300.39429,773.01155,0.0,0.0,0.0,0.0,0.0,0.054837386330182175,-0.2003516850631718,0.11676431720624089,-0.15138884631091584,-0.024777502201099075,-0.013999699702662786,0.7372665194450403
5503,4.0,299.21286000000003,921.88475,0.0,0.0,0.0,0.0,0.0,0.05484735313976599,-0.25659075384353575,0.09315674498135491,-0.11679593060936087,-0.02268876108720638,0.005087558339002915,0.7383976307966723
5504,4.0,299.53327,1307.7757,0.0,0.0,0.0,0.0,0.0,0.05485731994934981,-0.2787081290138507,0.08422849172520491,-0.20305153048462582,-0.020389042050741782,0.024515606434501975,0.7568809034233294
5505,4.0,300.77821,1158.5756,0.0,0.0,0.0,0.0,0.0,0.05486728675893364,-0.27160793092561575,0.10048763985235791,-0.18105775156150883,-0.007199322319017794,-0.0023266790885003476,0.7545309332614053
5506,4.0,300.34795,827.4548,0.0,0.0,0.0,0.0,0.0,0.05487725356851744,-0.1924246546283348,0.0929411577840781,-0.15204209878288685,0.02012741986167168,0.008798896783458502,0.7228857039557643
5507,4.0,301.35823999999997,700.28574,0.0,0.0,0.0,0.0,0.0,0.05488722037810127,-0.2084116640436298,0.15278688826889186,-0.15724459089133286,0.014353558048335886,-0.012345611470916989,0.7367959762311013
5508,4.0,301.22104,741.52657,0.0,0.0,0.0,0.0,0.0,0.054897187187685104,-0.21040125154248682,0.13144284583989888,-0.14644715464570884,0.03554712270497787,0.006963215084690823,0.6970977999006963
5509,4.0,299.99485,748.16493,0.0,0.0,0.0,0.0,0.0,0.05490715399726892,-0.24580310559387777,0.13418938182596088,-0.11580972415452989,-0.015835578174599883,-0.007372384118872664,0.6826667576039633
5510,4.0,300.63471,714.54418,0.0,0.0,0.0,0.0,0.0,0.05491712080685274,-0.23217551996393976,0.13494109181014885,-0.1199691563450339,0.0021676477627801775,-0.029351103409728373,0.7062025917217692
5511,4.0,300.16424,427.89947,0.0,0.0,0.0,0.0,0.0,0.054927087616436554,-0.18957964086505383,0.13713103938377985,-0.07762214970920972,-0.014274947065827588,-0.026461537039550374,0.7042954726485513
5512,4.0,299.0017,800.64221,0.0,0.0,0.0,0.0,0.0,0.054937054426020385,-0.21521364236243282,0.11933381813483088,-0.14749541253666387,-0.021362684204332776,-0.0037089197151418765,0.7536342981154143
5513,4.0,299.6055,1351.5761,0.0,0.0,0.0,0.0,0.0,0.0549470212356042,-0.26907224215286274,0.06252313950930344,-0.2042962879674738,-2.5003575523660776e-05,-0.0004129771725626736,0.7313401108026494
5514,4.0,300.14987,1089.389,0.0,0.0,0.0,0.0,0.0,0.05495698804518802,-0.2345564550489198,0.07689013832021582,-0.17348072810871484,-0.02101803731531878,0.019048152464656284,0.7499720474839783
5515,4.0,300.30704,683.8478,0.0,0.0,0.0,0.0,0.0,0.05496695485477185,-0.2183774752696788,0.12924244152523587,-0.11873762177599088,0.024392975814649276,0.015143829291579588,0.7273442881057923
5516,4.0,301.20129,808.85014,0.0,0.0,0.0,0.0,0.0,0.05497692166435565,-0.24201805918282276,0.1166683928192739,-0.12052057718195489,0.019059777483053583,0.005730516392607934,0.7331824426644733
5517,4.0,301.12647999999996,925.4830900000001,0.0,0.0,0.0,0.0,0.0,0.05498688847393948,-0.2692345749513837,0.11518817627818789,-0.12727735441379687,0.006355327643547004,-0.0003104150855155837,0.7179170598378972
5518,4.0,301.33083999999997,746.30007,0.0,0.0,0.0,0.0,0.0,0.0549968552835233,-0.21214105262669178,0.13237467116186288,-0.14709020368917286,-0.022266823480564378,-0.01948442249396278,0.7042078873099072
5519,4.0,300.07729,508.28090999999995,0.0,0.0,0.0,0.0,0.0,0.05500682209310713,-0.18302462199312383,0.14151357911380286,-0.11299366907910688,-0.002492450351235698,-0.01122705428802399,0.7192120137306993
5520,4.0,299.40307,479.8342,0.0,0.0,0.0,0.0,0.0,0.05501678890269095,-0.17834536210381682,0.16319518581361087,-0.13070743904981988,0.018477130304550785,0.01122992989180779,0.7016368867711693
5521,4.0,299.07366,788.74041,0.0,0.0,0.0,0.0,0.0,0.055026755712274764,-0.25221997794717377,0.1131932489513039,-0.10073065775634191,0.018360062427747084,-0.009948008624442011,0.7173699858439053
5522,4.0,299.23079,1135.5032,0.0,0.0,0.0,0.0,0.0,0.055036722521858594,-0.27212181084633175,0.07300921615819864,-0.14605202763671285,0.01122271048484529,0.0037533549876772963,0.7002377606355863
5523,4.0,299.0474,990.7960099999999,0.0,0.0,0.0,0.0,0.0,0.0550466893314424,-0.25322518284137974,0.10924141144128789,-0.15719346229128686,-0.017609862186208084,-0.03319352612094597,0.7688413987962383
5524,4.0,299.25172000000003,739.2166900000001,0.0,0.0,0.0,0.0,0.0,0.05505665614102623,-0.2044672333918448,0.09362771173383572,-0.1138638989274919,0.007256067972318154,-0.00029791215683414073,0.7190630051709933
5525,4.0,299.70799999999997,915.29483,0.0,0.0,0.0,0.0,0.0,0.055066622950610045,-0.20756187144976182,0.09298340626024772,-0.16364831125833085,-0.019131244039106782,-0.013148608122166588,0.7530301781407923
5526,4.0,301.19174,1004.4776,0.0,0.0,0.0,0.0,0.0,0.05507658976019386,-0.23651235198195178,0.08120918171947222,-0.15003294542459886,0.01748604606373838,0.019532655225222982,0.7247498916222452
5527,4.0,300.75826,834.4979099999999,0.0,0.0,0.0,0.0,0.0,0.05508655656977768,-0.2061756135904488,0.0922253371184321,-0.13971625582142086,-0.013204635786446088,0.017586178478370684,0.7138293049594673
5528,4.0,299.61312999999996,624.09712,0.0,0.0,0.0,0.0,0.0,0.05509652337936151,-0.22413545134794677,0.13026349365100587,-0.09583798611772282,0.02246508004813078,0.008426959522876153,0.6849503598843373
5529,4.0,299.34907000000004,694.70191,0.0,0.0,0.0,0.0,0.0,0.05510649018894531,-0.2037499435135538,0.1328325487495519,-0.14025463612955488,0.011997087887020388,-0.017298796432008285,0.6865588640205843
5530,4.0,300.15682999999996,816.61978,0.0,0.0,0.0,0.0,0.0,0.05511645699852914,-0.22542574429028878,0.1307359316426319,-0.15354221555593683,0.02080274396057098,-0.018393414568038682,0.7124073401666303
5531,4.0,299.97709,918.33963,0.0,0.0,0.0,0.0,0.0,0.05512642380811297,-0.21302735262166278,0.1133380423905939,-0.17946299722911885,0.015137886579743087,3.212842092057827e-05,0.7249745089044133
5532,4.0,299.51867000000004,1066.746,0.0,0.0,0.0,0.0,0.0,0.05513639061769679,-0.2659946469616278,0.09755603677528121,-0.15582553412628286,-0.025826190723346576,0.012846625141863187,0.7541423619805563
5533,4.0,299.38988,1019.25,0.0,0.0,0.0,0.0,0.0,0.05514635742728061,-0.26597675296486173,0.11128132707261189,-0.15513112343524987,-0.034812303599956865,-0.002110190098634548,0.7461172489360394
5534,4.0,300.44511,949.42389,0.0,0.0,0.0,0.0,0.0,0.055156324236864424,-0.26010192888506173,0.1014555672753849,-0.12995479687553987,-0.027259043901758175,-0.0005181004113575295,0.7397811934107192
5535,4.0,300.29137000000003,1067.7326,0.0,0.0,0.0,0.0,0.0,0.055166291046448254,-0.24819786141022177,0.08254851191365382,-0.15891469050115886,-0.00988489499823818,0.014238738573504089,0.7437211961595673
5536,4.0,301.01831,1054.4566,0.0,0.0,0.0,0.0,0.0,0.05517625785603206,-0.23501201229387977,0.09201941024760872,-0.17753586646642583,0.017669739187617484,0.0017635668653004982,0.7324656087487273
5537,4.0,300.65657999999996,586.40684,0.0,0.0,0.0,0.0,0.0,0.05518622466561589,-0.18894806181272183,0.1235745231158559,-0.11287949605783888,0.01090914909564919,-0.01008924677178113,0.7232077351025463
5538,4.0,301.10947000000004,403.28522999999996,0.0,0.0,0.0,0.0,0.0,0.05519619147519972,-0.17130212893620383,0.14885600477094385,-0.1001425218020474,0.03697244946164667,0.006532139684671995,0.6846338205530973
5539,4.0,300.18799,609.95172,0.0,0.0,0.0,0.0,0.0,0.05520615828478352,-0.2029406809236858,0.13084701425109488,-0.1133164196334599,0.039461852969831665,-0.0018924370792689981,0.7051848225263234
5540,4.0,299.51631000000003,806.7244,0.0,0.0,0.0,0.0,0.0,0.05521612509436735,-0.23779077976562277,0.1031185336045069,-0.11055182753061589,0.0017738088986363084,0.00968366717607854,0.6696451563288314
5541,4.0,298.68821,818.559,0.0,0.0,0.0,0.0,0.0,0.05522609190395117,-0.24717062845884177,0.1338690428068459,-0.13551992106227487,-0.011031582131732389,-0.018139728153751783,0.7195740175939264
5542,4.0,299.76085,840.0251800000001,0.0,0.0,0.0,0.0,0.0,0.055236058713535,-0.22765317198511878,0.1107214962598609,-0.13841499951299688,-0.015663183802585884,-0.009821273632409241,0.7350672803679923
5543,4.0,298.90806000000003,779.16626,0.0,0.0,0.0,0.0,0.0,0.055246025523118816,-0.2229245060209358,0.12478280359510387,-0.13870538685915587,0.0009671765337753921,0.016676439982086486,0.7607092460111572
5544,4.0,299.63961,1228.2099,0.0,0.0,0.0,0.0,0.0,0.05525599233270263,-0.2458749855559718,0.07021966770539163,-0.19768983652046782,0.01033283574352149,0.016407451464789384,0.7695855803321833
5545,4.0,300.58579,1398.5697,0.0,0.0,0.0,0.0,0.0,0.055265959142286464,-0.29040520975826273,0.07058228255842894,-0.2053073494472578,-0.0065992243393427335,0.01253881901323509,0.7305911264612303
5546,4.0,300.51607,954.9174800000001,0.0,0.0,0.0,0.0,0.0,0.05527592595187027,-0.24244124308708775,0.12184574619273887,-0.16967556868317485,-0.026905164277832974,0.005183188680790895,0.7467405801325573
5547,4.0,300.59721,548.20103,0.0,0.0,0.0,0.0,0.0,0.0552858927614541,-0.18247200552108483,0.13190231423024487,-0.11606973426269089,0.014616315077517986,-0.0008576482712307941,0.6915085806265834
5548,4.0,300.0233,671.98101,0.0,0.0,0.0,0.0,0.0,0.05529585957103793,-0.21882357889120582,0.15819663055279184,-0.14363850642851686,0.004498504582767836,-0.003508214122083777,0.7423300848322754
5549,4.0,300.06487999999996,944.4016300000001,0.0,0.0,0.0,0.0,0.0,0.05530582638062173,-0.2662663398434417,0.1279523411004129,-0.14876051608151986,0.004214127836202036,0.01071227561446929,0.7147964420474163
5550,4.0,299.6475,858.0156199999999,0.0,0.0,0.0,0.0,0.0,0.05531579319020556,-0.24983619562941276,0.12196768070977289,-0.13294680283082785,-0.012848472296795489,-0.011306928793406988,0.7405241387815423
5551,4.0,299.78967,724.7927900000001,0.0,0.0,0.0,0.0,0.0,0.05532575999978938,-0.2225092254674508,0.13831474854810288,-0.13612443620443587,0.007534807400627592,-0.003950616543645496,0.7382937625289213
5552,4.0,299.01242,951.9272900000001,0.0,0.0,0.0,0.0,0.0,0.05533572680937321,-0.23761402841817877,0.1003962193620854,-0.15214432558547586,0.03126434048705017,-0.008805857608995481,0.7331043818767693
5553,4.0,299.44151,1260.9635,0.0,0.0,0.0,0.0,0.0,0.055345693618957026,-0.2875441258483957,0.07877301031854084,-0.17453029309229884,0.016871751031612186,0.005085703280719836,0.7339748447726773
5554,4.0,299.73578,1246.7647,0.0,0.0,0.0,0.0,0.0,0.05535566042854084,-0.3086792361067687,0.09266643731096531,-0.16297254436913786,-0.010652487779068688,-0.0031459430648054067,0.7331033483616674
5555,4.0,300.14044,703.13081,0.0,0.0,0.0,0.0,0.0,0.05536562723812467,-0.23411884246323078,0.13751685462435687,-0.1171322181850499,-0.006223743641835674,0.003929263918988156,0.7527915982722463
5556,4.0,300.17246,342.39324,0.0,0.0,0.0,0.0,0.0,0.055375594047708476,-0.14862044438769587,0.1270252780539189,-0.08248383312002051,-0.01285650838333859,0.0005141481888124755,0.6998757669048603
5557,4.0,301.2836,570.97493,0.0,0.0,0.0,0.0,0.0,0.05538556085729231,-0.17912268705053283,0.12891599260801787,-0.12335542804673287,0.00027631440671260874,0.0035302033717789466,0.7211355170580344
5558,4.0,300.57221,974.0069300000001,0.0,0.0,0.0,0.0,0.0,0.05539552766687614,-0.23299054794687676,0.1025628773821679,-0.16564610608299785,-0.007868275303938311,0.022412883482479377,0.6791183861512663
5559,4.0,300.07017,764.31352,0.0,0.0,0.0,0.0,0.0,0.05540549447645994,-0.2125120136208028,0.13940175312288186,-0.15922196872648484,-0.0010800256120652289,0.0008956625474850111,0.7356087004264263
5560,4.0,299.40724,502.02432999999996,0.0,0.0,0.0,0.0,0.0,0.05541546128604377,-0.2223718186213898,0.15320453982761084,-0.08343558400520103,0.02008225525171428,-0.003917509103253046,0.7202172794199113
5561,4.0,298.63804,990.57405,0.0,0.0,0.0,0.0,0.0,0.05542542809562759,-0.26642698051429575,0.1131218148192539,-0.14780461593717983,0.03141405730857608,-0.016856021337059785,0.7517102476330253
5562,4.0,299.40493,1421.7669,0.0,0.0,0.0,0.0,0.0,0.05543539490521142,-0.35566388642379265,0.1119199786106419,-0.1884377383998568,0.025997635680016874,0.0034540435425875564,0.7585295626610393
5563,4.0,300.51632,1293.7349,0.0,0.0,0.0,0.0,0.0,0.055445361714795235,-0.28710065667712875,0.07669475938293344,-0.18285720267910083,-0.00970147474261101,-0.015833773576171786,0.7595936171210533
5564,4.0,300.37232,696.26629,0.0,0.0,0.0,0.0,0.0,0.05545532852437905,-0.21610934531833179,0.14473874404960185,-0.14027696816175886,-0.008193805912590682,-0.017680882912217286,0.7554039698125673
5565,4.0,299.8977,631.48919,0.0,0.0,0.0,0.0,0.0,0.05546529533396288,-0.19234236858771384,0.11619421203747587,-0.11580879196443788,-0.017575515034318284,0.005609400379004714,0.7284345756108953
5566,4.0,300.30522,884.6623900000001,0.0,0.0,0.0,0.0,0.0,0.055475262143546686,-0.25088233582765873,0.10094647192164109,-0.11897941364735388,0.009222475753937491,0.02091048689670438,0.7223487320652692
5567,4.0,300.6504,998.8610699999999,0.0,0.0,0.0,0.0,0.0,0.055485228953130517,-0.25312278378627373,0.13118165022912087,-0.18168768914867883,-0.0003697335632048616,0.00982452211222984,0.7247615845283993
5568,4.0,301.09265,779.2504,0.0,0.0,0.0,0.0,0.0,0.05549519576271435,-0.21851764828851278,0.09836069414344471,-0.11671571159894388,-0.005219787173077885,-0.007021200449488534,0.7149858488886093
5569,4.0,300.45887999999997,563.90626,0.0,0.0,0.0,0.0,0.0,0.05550516257229815,-0.17339199779745781,0.13179189023434687,-0.12981331676407687,0.00947726417903315,0.015750192601922983,0.7160465494907924
5570,4.0,300.79726,745.98087,0.0,0.0,0.0,0.0,0.0,0.05551512938188198,-0.1835825985581918,0.12100370496213589,-0.16418066272836987,0.026830691408733075,0.012158157162666688,0.7178299608593013
5571,4.0,299.55302,1158.3906,0.0,0.0,0.0,0.0,0.0,0.0555250961914658,-0.26991556007859174,0.08941499069407252,-0.17162124192269784,0.0026169905422268576,0.006623091648098254,0.7450248437382273
5572,4.0,300.53202999999996,1212.4418,0.0,0.0,0.0,0.0,0.0,0.05553506300104963,-0.2966734991168947,0.10738683951825588,-0.17926538306211584,-0.007821151878887593,-0.03914170748148576,0.7303679479942043
5573,4.0,300.16656,698.6225900000001,0.0,0.0,0.0,0.0,0.0,0.055545029810633445,-0.2396039502895688,0.12039409317197189,-0.0931539656363306,0.0006084581036001394,-0.024925218866927577,0.7355808259161752
5574,4.0,300.13762,649.94801,0.0,0.0,0.0,0.0,0.0,0.05555499662021726,-0.22490916912430678,0.1159914910899689,-0.08865028476410192,0.0036768781125296164,-0.005176796288560015,0.7303282083252823
5575,4.0,298.83711,989.0274,0.0,0.0,0.0,0.0,0.0,0.05556496342980109,-0.24762016699820777,0.11422600411572888,-0.16724547070334284,0.02050738662267148,-0.01297972466174909,0.7315455067304203
5576,4.0,299.83971,1173.6273,0.0,0.0,0.0,0.0,0.0,0.055574930239384895,-0.2349556451908168,0.07312346719972433,-0.1949212015497248,0.001139630454497769,-0.0028074801424767173,0.7368391508178622
5577,4.0,300.10641,784.75829,0.0,0.0,0.0,0.0,0.0,0.055584897048968726,-0.2062079261361378,0.12064446727168189,-0.15298346892079287,0.006191098851438885,0.0017599921189476986,0.7099318587148193
5578,4.0,300.58151000000004,397.82793,0.0,0.0,0.0,0.0,0.0,0.05559486385855256,-0.17366479512188085,0.16529598764344383,-0.1125609504914009,-0.002413174170036748,0.03744040280833007,0.7560095893973373
5579,4.0,300.44837,448.42399000000006,0.0,0.0,0.0,0.0,0.0,0.05560483066813636,-0.19828575930178083,0.15787625100367284,-0.09590019055461191,-0.02231567429438558,0.013419079024359988,0.7112826021581273
5580,4.0,300.63891,1030.7876,0.0,0.0,0.0,0.0,0.0,0.05561479747772019,-0.2924622797137797,0.14538694040357386,-0.16625837258842385,-0.03516336030910346,0.005645565706873954,0.7857362803011333
5581,4.0,300.61662,1296.4286,0.0,0.0,0.0,0.0,0.0,0.05562476428730401,-0.2658257584349597,0.06928723645986784,-0.1975434117485168,-0.005940041922486494,-0.0011829247060955788,0.7072836383859603
5582,4.0,300.6065,953.90998,0.0,0.0,0.0,0.0,0.0,0.05563473109688784,-0.2294729691647188,0.1083931589875719,-0.16888500055765185,0.009238142323008661,0.020312398799927682,0.7899181559813523
5583,4.0,299.38035,825.06966,0.0,0.0,0.0,0.0,0.0,0.055644697906471655,-0.22532631405797576,0.13137286065549186,-0.15684711314210484,0.03641858669198467,-0.001974739635866628,0.7247432750990923
5584,4.0,299.4165,1248.8635,0.0,0.0,0.0,0.0,0.0,0.05565466471605547,-0.27150804473075774,0.07020364923456074,-0.1783189365412088,0.008986262128350022,-0.026641670615828172,0.7666209017320923
5585,4.0,300.03429,1260.8769,0.0,0.0,0.0,0.0,0.0,0.0556646315256393,-0.2982233867348567,0.0977553217916991,-0.18280701640164781,0.024562469251626976,-0.015280383994306488,0.7149426033743412
5586,4.0,300.28702999999996,871.88915,0.0,0.0,0.0,0.0,0.0,0.055674598335223105,-0.2527372117257207,0.11642769525801888,-0.12872300899397188,0.008707582076496441,-0.004693548235592146,0.7246825611531003
5587,4.0,299.5681,315.09148999999996,0.0,0.0,0.0,0.0,0.0,0.055684565144806936,-0.15630739534383886,0.13862335413105986,-0.07809590492596573,-0.0004924035174264436,-0.011294192239649989,0.6952686402901724
5588,4.0,300.33892000000003,292.99281,0.0,0.0,0.0,0.0,0.0,0.055694531954390766,-0.14365908553804785,0.17050550157508285,-0.11590892133931989,-0.003011186273055947,-0.03011205626132857,0.7107311103936993
5589,4.0,300.93277,871.91516,0.0,0.0,0.0,0.0,0.0,0.05570449876397457,-0.2081910693643588,0.0994181341068059,-0.15626750368740186,-0.0009284187953928012,-0.005192861571545535,0.7386919596857203
5590,4.0,302.41233,1323.3135,0.0,0.0,0.0,0.0,0.0,0.0557144655735584,-0.28029686464064674,0.0924887760649315,-0.2144461560741878,0.02259963864816068,0.02920708105376447,0.7529329770586993
5591,4.0,301.46252999999996,1061.3564,0.0,0.0,0.0,0.0,0.0,0.05572443238314222,-0.27300541559603675,0.1063402230924629,-0.15596065102711787,0.0018444465147826983,-0.0006877485817580002,0.7709305887799253
5592,4.0,301.08106000000004,959.0285,0.0,0.0,0.0,0.0,0.0,0.05573439919272605,-0.2847430263444487,0.1099044316442229,-0.11668212235812887,-0.015813699065190586,-0.006238093897701933,0.7404361684078603
5593,4.0,300.61715,1275.0051,0.0,0.0,0.0,0.0,0.0,0.055744366002309864,-0.25124094530305074,0.06185036474765574,-0.19817912486125683,0.00014973386439258186,-0.027120821389366674,0.7263633708164833
5594,4.0,300.88547,1326.8208,0.0,0.0,0.0,0.0,0.0,0.05575433281189368,-0.30103059613690675,0.06605143341126893,-0.16834123989148683,0.024954932426110077,0.006873315786793453,0.7332296702516342
5595,4.0,300.85916000000003,727.24023,0.0,0.0,0.0,0.0,0.0,0.05576429962147751,-0.2071429330634158,0.14066278340233587,-0.15458272208362683,-0.017323161043912884,-0.018344010519662883,0.7188150223415193
5596,4.0,300.78103,-36.943049,0.0,0.0,0.0,0.0,0.0,0.055774266431061315,-0.15769553784833787,0.20998354932126279,-0.04105824066138286,-0.00886378349601232,-0.010791257446514189,0.7554426962313893
5597,4.0,299.94306,205.81866000000002,0.0,0.0,0.0,0.0,0.0,0.055784233240645145,-0.15402916328899485,0.16350551392173784,-0.07204008499405284,-0.0007783631430334613,0.0008765557511443174,0.7088671456422404
5598,4.0,299.45961,1064.8648,0.0,0.0,0.0,0.0,0.0,0.055794200050228976,-0.28210024716862675,0.12126118194504688,-0.16285323416986286,0.013907339929547588,0.030239929437198675,0.7543253448161154
5599,4.0,300.26642000000004,1522.0448,0.0,0.0,0.0,0.0,0.0,0.05580416685981278,-0.28053095581124976,0.03595718096744747,-0.2180898236987898,0.003945278640793686,-0.012228640866122888,0.6953254228257764
5600,4.0,299.28012,1134.9855,0.0,0.0,0.0,0.0,0.0,0.05581413366939661,-0.26476230179250476,0.0999909497195884,-0.18023588414039685,-0.023259888625322276,-0.011607879271858489,0.7496400054262082
5601,4.0,299.52799,760.9050599999999,0.0,0.0,0.0,0.0,0.0,0.055824100478980426,-0.2009654815762488,0.11896484311091589,-0.14929550200181887,-0.004195391929927946,-0.00991948796460224,0.7406466508511333
5602,4.0,300.09382,998.7917199999999,0.0,0.0,0.0,0.0,0.0,0.05583406728856426,-0.24906299461060374,0.09903337973908359,-0.15357812513948085,0.002107191486288608,0.006299508810113114,0.7777252109030023
5603,4.0,300.23928,1230.4227,0.0,0.0,0.0,0.0,0.0,0.055844034098148074,-0.3005985158967637,0.10481766282969791,-0.17823692407811484,-0.015984676913564786,-0.0027955749604267675,0.7673318486647572
5604,4.0,300.74686,801.90967,0.0,0.0,0.0,0.0,0.0,0.05585400090773189,-0.2551550088493388,0.13616098413554287,-0.12476649026849389,-0.01066863189291199,-0.018935246006013283,0.7266667784264272
5605,4.0,300.7457,266.0582,0.0,0.0,0.0,0.0,0.0,0.05586396771731572,-0.17172997379092886,0.15379180945306986,-0.06293688498888694,0.008658019251829971,0.018645956009712583,0.7036368803485533
5606,4.0,301.22931,453.4237,0.0,0.0,0.0,0.0,0.0,0.055873934526899524,-0.18863193791402283,0.17049935114697584,-0.11969689604316387,0.03877861234790106,0.02255630599438408,0.6979394662287624
5607,4.0,299.91762,1056.7345,0.0,0.0,0.0,0.0,0.0,0.055883901336483355,-0.23436508250253277,0.08681454308092833,-0.17367037812993183,0.032224650295825365,0.01026442413651979,0.7258190629952643
5608,4.0,300.42118999999997,1234.0685,0.0,0.0,0.0,0.0,0.0,0.055893868146067185,-0.25039320960688577,0.08009859070886544,-0.2048313853452838,-0.002937996482557677,-0.005011174378889405,0.7440513130421472
5609,4.0,299.72583,767.4651700000001,0.0,0.0,0.0,0.0,0.0,0.05590383495565099,-0.2227209643408478,0.12523471313970388,-0.13580400599281187,-0.014988617614761387,0.0013574312992680388,0.7538127618555274
5610,4.0,299.82153999999997,567.26237,0.0,0.0,0.0,0.0,0.0,0.05591380176523482,-0.1821494576167518,0.12119343604336089,-0.1114775733519799,-0.04212331850399786,0.0045034506618059755,0.7489014778258213
5611,4.0,299.52723,922.9938300000001,0.0,0.0,0.0,0.0,0.0,0.055923768574818636,-0.23580913614754978,0.1115136045255359,-0.15627154655530084,-0.013159132750955288,-0.010539114212129589,0.7148349252862143
5612,4.0,300.15418999999997,1363.9956,0.0,0.0,0.0,0.0,0.0,0.055933735384402467,-0.30318938626996267,0.07668639095035752,-0.1881176121632628,-0.006358697916029624,-0.030709112869503473,0.7633777617395192
5613,4.0,301.10606,983.6441599999999,0.0,0.0,0.0,0.0,0.0,0.05594370219398628,-0.2369422132043758,0.11570345448404189,-0.17776450635149085,0.02356271766945918,-0.007173304792225063,0.7235970257909663
5614,4.0,300.78403,526.20352,0.0,0.0,0.0,0.0,0.0,0.0559536690035701,-0.21524071640510478,0.16535728927449383,-0.11006929756799391,0.007294307321817083,0.01227136658308959,0.7985490405981542
5615,4.0,300.27572999999995,759.0548,0.0,0.0,0.0,0.0,0.0,0.05596363581315393,-0.23058497061946479,0.13331076226674787,-0.1334594972489269,0.016128089292968485,0.0008453293892975151,0.7219261358460624
5616,4.0,299.60222999999996,1334.2216,0.0,0.0,0.0,0.0,0.0,0.055973602622737734,-0.2897388356974967,0.08974321279896551,-0.2055744117761148,-0.007036648257863114,0.021043943080625477,0.7674348252724204
5617,4.0,299.75379,1355.1266,0.0,0.0,0.0,0.0,0.0,0.055983569432321564,-0.28814952251814374,0.06572570592812214,-0.18950083027227582,0.006469119074827344,0.029699416237604175,0.6900327514584303
5618,4.0,300.17189,778.5774,0.0,0.0,0.0,0.0,0.0,0.055993536241905395,-0.22567317996470876,0.11672675602503389,-0.12772166458264686,-0.029394736998784674,0.019406122579235182,0.7302512317151854
5619,4.0,299.27218,498.0863,0.0,0.0,0.0,0.0,0.0,0.05600350305148921,-0.18216466650075283,0.14930493536024986,-0.11854606684458588,-0.013329193607988987,-0.014829494792557185,0.7334054387464812
5620,4.0,298.69301,796.7117900000001,0.0,0.0,0.0,0.0,0.0,0.05601346986107303,-0.21819214169388781,0.09036315872689941,-0.1143515052731149,-0.0025928362810430177,-0.03146107312646617,0.7372029886637703
5621,4.0,299.18776,1093.6905,0.0,0.0,0.0,0.0,0.0,0.056023436670656845,-0.2309692761173928,0.08907533000880061,-0.1905606594793728,0.025848035382252475,0.0006437442140926074,0.7802419721638872
5622,4.0,300.63653999999997,988.0895300000001,0.0,0.0,0.0,0.0,0.0,0.056033403480240676,-0.2267797098689148,0.09475292090363521,-0.16832775353265583,0.025700918560483177,-0.009162849430602832,0.7117403378908023
5623,4.0,300.061,710.79647,0.0,0.0,0.0,0.0,0.0,0.05604337028982449,-0.2184469740940378,0.12577942626096286,-0.12339682944581887,-0.0007909165011723812,-0.0033101596979123273,0.7547229036253513
5624,4.0,300.57916,819.69922,0.0,0.0,0.0,0.0,0.0,0.05605333709940831,-0.2286203293380698,0.11303864725104588,-0.13358641695645287,-0.002420257193535788,-0.015286457415405885,0.6779716200855894
5625,4.0,299.88231,1123.8376,0.0,0.0,0.0,0.0,0.0,0.05606330390899214,-0.2646606322774708,0.09633472792624741,-0.17329264862515284,0.009052538817391022,0.010857741851825689,0.7412912299022483
5626,4.0,300.89716,1151.6397,0.0,0.0,0.0,0.0,0.0,0.05607327071857594,-0.28550049158920476,0.10628565957457789,-0.17085488034206384,-0.003923034660023376,-0.001912242572348648,0.6877938537724684
5627,4.0,300.0169,660.27563,0.0,0.0,0.0,0.0,0.0,0.056083237528159774,-0.19385236454923882,0.14401696547336787,-0.15087189624239686,-0.013937051462229887,-0.0047457723616462655,0.7577038246245453
5628,4.0,300.28094,378.37109,0.0,0.0,0.0,0.0,0.0,0.05609320433774359,-0.17711010890690684,0.1295498109430709,-0.06745507053629714,0.007913911379167242,-0.008666508970442842,0.7244419547843542
5629,4.0,300.13144,849.4109900000001,0.0,0.0,0.0,0.0,0.0,0.05610317114732742,-0.2184299818898608,0.12759825072046688,-0.16736800303793584,0.002149285137842928,0.01909558371508738,0.7735129073222803
5630,4.0,299.29498,1344.9727,0.0,0.0,0.0,0.0,0.0,0.056113137956911224,-0.32740365212472466,0.06788419309939824,-0.14931865476660386,0.02462596659564368,0.011162520389154988,0.7552765840099953
5631,4.0,299.32555,1222.9383,0.0,0.0,0.0,0.0,0.0,0.056123104766495055,-0.2776801361248957,0.10418940723769389,-0.19825198767594782,-0.026020420635015574,-0.0022111734407008277,0.7556862106279223
5632,4.0,300.14375,760.45166,0.0,0.0,0.0,0.0,0.0,0.056133071576078886,-0.26294504787065576,0.14891940382970087,-0.11713267414759487,-0.008723506112418022,0.008240211145970523,0.7605502062754612
5633,4.0,300.23742999999996,773.82509,0.0,0.0,0.0,0.0,0.0,0.05614303838566269,-0.17678557503237785,0.10405581021200891,-0.16249373303438286,-0.014659879765567485,0.007160556484766903,0.7235481060761383
5634,4.0,300.82333,1046.3573,0.0,0.0,0.0,0.0,0.0,0.05615300519524652,-0.26732010981494075,0.11577418947352289,-0.16652058144930185,0.025236970591445078,0.00026929128655948074,0.7532333651833453
5635,4.0,299.93987999999996,1073.42,0.0,0.0,0.0,0.0,0.0,0.056162972004830336,-0.23496329522907178,0.10634061826000189,-0.19767018960102883,0.003773428485408397,-0.0015935526177713983,0.7440698555189773
5636,4.0,299.96886,553.21717,0.0,0.0,0.0,0.0,0.0,0.05617293881441415,-0.2165838503401618,0.16126423509804086,-0.11284458959189389,0.004111498064048267,-0.031924521563204966,0.7128657547768723
5637,4.0,300.69042,400.75473,0.0,0.0,0.0,0.0,0.0,0.05618290562399797,-0.17032393728966383,0.16004085719230285,-0.1115363418577799,0.007219023953962193,-0.006297388178978824,0.7310913781681013
5638,4.0,300.19387,736.80434,0.0,0.0,0.0,0.0,0.0,0.0561928724335818,-0.23430624306922576,0.12878199028229287,-0.1184458665421969,0.026027927805006477,-0.02041121702918028,0.7096825181302113
5639,4.0,299.47638,1272.0067,0.0,0.0,0.0,0.0,0.0,0.0562028392431656,-0.2909442081489577,0.0946313805408901,-0.19034544515813281,0.015657860186560485,0.01116320939922299,0.7681978431277243
5640,4.0,298.83842000000004,1129.1924,0.0,0.0,0.0,0.0,0.0,0.056212806052749434,-0.25827990255524175,0.08057726424160683,-0.16554365636538684,-0.013428395859029487,-0.016164334262295584,0.7354500862557722
5641,4.0,299.12363,668.77395,0.0,0.0,0.0,0.0,0.0,0.05622277286233325,-0.19851065016147582,0.10962305209145289,-0.1144029783781949,-0.014294851350791985,0.03679237262737447,0.7799936346968782
5642,4.0,299.79819,917.1822400000001,0.0,0.0,0.0,0.0,0.0,0.05623273967191707,-0.2351152422140678,0.09437085468842821,-0.13805611646007787,-0.029441446815144573,0.010191711282843591,0.7344604246181002
5643,4.0,299.85087999999996,1241.087,0.0,0.0,0.0,0.0,0.0,0.0562427064815009,-0.28327507012957276,0.09820449657427921,-0.19218887133006482,-0.017768395296854082,0.03985107779699516,0.7639974452356773
5644,4.0,300.11692999999997,1080.2719,0.0,0.0,0.0,0.0,0.0,0.056252673291084715,-0.26617448872187677,0.1164212915173869,-0.17862249613866782,-0.020032586745062378,-0.01052616183610129,0.7328365697428383
5645,4.0,300.70106,686.84587,0.0,0.0,0.0,0.0,0.0,0.056262640100668546,-0.22058288503983578,0.15938899287296884,-0.14759011089100987,0.01159717935080249,0.0036265538304129964,0.7307497102343813
5646,4.0,301.24787000000003,651.83909,0.0,0.0,0.0,0.0,0.0,0.05627260691025235,-0.21754319553484178,0.15019129615022686,-0.1307909105930579,0.042236900800457555,-0.008013587425954503,0.7670827208626703
5647,4.0,300.56808,835.2252,0.0,0.0,0.0,0.0,0.0,0.05628257371983618,-0.26191484609648275,0.16673529927799283,-0.15870805840826585,0.02121232700874368,-0.0037425293222838867,0.7497739672219293
5648,4.0,299.98134,1322.4557,0.0,0.0,0.0,0.0,0.0,0.05629254052942001,-0.30258575265538873,0.0999144594695394,-0.19932223309407282,0.016838224612303384,-0.03369479918391776,0.7987266937381873
5649,4.0,300.23475,1199.111,0.0,0.0,0.0,0.0,0.0,0.05630250733900381,-0.24729529875114575,0.06554781872731603,-0.18275232116124981,-0.02807227336576768,-0.0017681392577017585,0.7153792331074333
5650,4.0,299.48464,788.23443,0.0,0.0,0.0,0.0,0.0,0.05631247414858764,-0.21422989810534482,0.1059498178289329,-0.1313235052431209,-0.0008215593829490982,-0.008761049055123222,0.7634650228381312
5651,4.0,299.87093,802.60226,0.0,0.0,0.0,0.0,0.0,0.05632244095817146,-0.20393151793147382,0.09236142977911341,-0.13240096500195786,-0.02072643710879008,0.01174568229870859,0.7108780012606963
5652,4.0,300.48705,962.1379400000001,0.0,0.0,0.0,0.0,0.0,0.05633240776775528,-0.25858128366498573,0.12711685559795688,-0.16100147908210885,-0.009695499910746341,-0.0012692925234194187,0.7773656591050173
5653,4.0,299.67413,954.22544,0.0,0.0,0.0,0.0,0.0,0.05634237457733911,-0.23513941836145377,0.08969780500898411,-0.14461908934529286,0.0037376216454245363,0.018920185056526883,0.7425216904261853
5654,4.0,299.67917,576.36562,0.0,0.0,0.0,0.0,0.0,0.056352341386922924,-0.20926720176556482,0.15277302700752388,-0.11870657579292689,-0.004865597393297076,0.03197588523727417,0.7567115791991182
5655,4.0,299.69939,656.37815,0.0,0.0,0.0,0.0,0.0,0.056362308196506755,-0.1949376769963508,0.14574010872592888,-0.15032500463342285,0.0036447313345569763,0.04699772732281455,0.7420501542271483
5656,4.0,300.39136,964.2444800000001,0.0,0.0,0.0,0.0,0.0,0.05637227500609056,-0.24484600981441976,0.1198542537836939,-0.16811449478410884,-0.013056655675591588,-0.0008338491744720061,0.7130076705858783
5657,4.0,299.32547,1186.884,0.0,0.0,0.0,0.0,0.0,0.05638224181567439,-0.25763562747915675,0.09204921297280001,-0.1951966738544118,0.016507693310432486,0.016481378192085384,0.7423459117988372
5658,4.0,299.17101,1252.3304,0.0,0.0,0.0,0.0,0.0,0.05639220862525822,-0.28994116147746474,0.07032967018924803,-0.16106567860844484,0.015151336461570485,-0.041590596184422256,0.7286222092644132
5659,4.0,299.56525,833.61747,0.0,0.0,0.0,0.0,0.0,0.05640217543484202,-0.24463604412869777,0.1280660784241379,-0.13682892873396388,-0.004590589055830866,-0.033872163547672265,0.7767338774026653
5660,4.0,300.39538,708.79505,0.0,0.0,0.0,0.0,0.0,0.05641214224442585,-0.23272427595309778,0.12821015245585687,-0.1109418680241099,-0.024766048421968678,-0.05637992776951564,0.7470345138540663
5661,4.0,301.11992999999995,967.9083800000001,0.0,0.0,0.0,0.0,0.0,0.05642210905400967,-0.20653226749314782,0.0944079284963371,-0.1820956439039408,-0.008441019482588762,0.01033783714601509,0.7645762846203042
5662,4.0,301.32344,956.31969,0.0,0.0,0.0,0.0,0.0,0.0564320758635935,-0.2317302776049978,0.1035216146267879,-0.16248863638637984,0.01791891258595898,0.030912926100618267,0.7368701664034234
5663,4.0,300.40173,720.39068,0.0,0.0,0.0,0.0,0.0,0.05644204267317732,-0.1967095069162168,0.14210249020442386,-0.16437375779992686,0.014765300332471686,0.034560971978902365,0.7584134847295834
5664,4.0,300.68383,844.3932300000001,0.0,0.0,0.0,0.0,0.0,0.056452009482761134,-0.29324149943818273,0.14751581939367786,-0.11094877838979189,0.002315289650751298,0.010978278083721689,0.7518253731093872
5665,4.0,300.36082000000005,992.25685,0.0,0.0,0.0,0.0,0.0,0.056461976292344965,-0.27102966909354576,0.14938960253860586,-0.17998124425776582,-0.02033333558674398,0.018874348661753183,0.7658369906597263
5666,4.0,299.02302000000003,949.2624900000001,0.0,0.0,0.0,0.0,0.0,0.05647194310192877,-0.26783910664866173,0.12722477686610786,-0.14793776713282084,0.006644114865148083,0.014694889583022685,0.7673477566913273
5667,4.0,300.11477,1022.4887,0.0,0.0,0.0,0.0,0.0,0.0564819099115126,-0.19337520481214682,0.1023634697624879,-0.21979928807500082,-0.01748834918121568,0.017029238468154982,0.7307495379818643
5668,4.0,299.88785,959.3257800000001,0.0,0.0,0.0,0.0,0.0,0.05649187672109643,-0.27404774597390674,0.13267060098606887,-0.15023394384693586,-0.005934027877842954,-0.012114534719361488,0.7468445699903203
5669,4.0,299.77122,825.63982,0.0,0.0,0.0,0.0,0.0,0.05650184353068023,-0.21981047435610476,0.11442540160290789,-0.14558882035349785,-0.004866030456389816,-0.004663516211903215,0.7313903173451043
5670,4.0,300.27783,805.43575,0.0,0.0,0.0,0.0,0.0,0.05651181034026406,-0.29051600865669774,0.13362923690567888,-0.08794558755805372,0.030113319784203268,-0.00973436636073216,0.7623760120281542
5671,4.0,299.54756000000003,924.98952,0.0,0.0,0.0,0.0,0.0,0.05652177714984788,-0.22892189283283176,0.1013494698574139,-0.15360128803676684,0.055985184782307545,-0.02881171998399537,0.7654223180563012
5672,4.0,300.62174,830.9626599999999,0.0,0.0,0.0,0.0,0.0,0.05653174395943171,-0.2397127024228018,0.12225925355854889,-0.13513844253212587,0.008488076742407952,-0.04152648075784456,0.7483510601064992
5673,4.0,301.068,791.05884,0.0,0.0,0.0,0.0,0.0,0.05654171076901553,-0.16138011037947683,0.1099665641403549,-0.18904859648764383,-0.022815852033999277,-0.013144038364215588,0.7332248978436633
5674,4.0,299.87292,829.66517,0.0,0.0,0.0,0.0,0.0,0.056551677578599344,-0.2106602787980508,0.11108261859550089,-0.15261982359240384,-0.019863187540343982,0.004719098552763766,0.7286539645225473
5675,4.0,299.75986,955.26795,0.0,0.0,0.0,0.0,0.0,0.056561644388183174,-0.24434897011036577,0.11887134039168788,-0.16489997910686083,-0.0016714997188141782,0.05020450176929855,0.7600028080414373
5676,4.0,300.32132,991.4613699999999,0.0,0.0,0.0,0.0,0.0,0.05657161119776698,-0.3020681439743047,0.13379647383468388,-0.13310782853671987,-0.018086535563252085,0.02320834256623508,0.7630657516362263
5677,4.0,299.86203,772.96085,0.0,0.0,0.0,0.0,0.0,0.05658157800735081,-0.27897436047762575,0.17507463131102083,-0.13106106333471987,-0.014472851022359184,0.018660577208655584,0.7746423164137443
5678,4.0,300.28358,919.329,0.0,0.0,0.0,0.0,0.0,0.05659154481693464,-0.24484764114708074,0.13914545151008686,-0.17375086058537484,-0.02380373744424598,0.015002844659415487,0.7685202491770432
5679,4.0,299.34991,1019.2876,0.0,0.0,0.0,0.0,0.0,0.05660151162651844,-0.21357853027855983,0.11395557779653989,-0.21021502630660782,0.033705442362968165,-0.001047624001692439,0.7648081466406873
5680,4.0,298.68902,1063.535,0.0,0.0,0.0,0.0,0.0,0.05661147843610227,-0.2228526361913428,0.09728757818778641,-0.19772301032874182,0.021699853307608777,-0.02062221724325438,0.7558075878574013
5681,4.0,300.22963,1072.7412,0.0,0.0,0.0,0.0,0.0,0.05662144524568609,-0.26691356347731776,0.11989219999993889,-0.17906517497485683,0.005799100150801624,-0.025660323708476773,0.7595388813506513
5682,4.0,301.26556,818.26144,0.0,0.0,0.0,0.0,0.0,0.05663141205526992,-0.27789582667368273,0.14291841997994986,-0.1137536370516099,-0.011467797445533489,-0.026575594550306978,0.7634702917386513
5683,4.0,300.71308,645.0033599999999,0.0,0.0,0.0,0.0,0.0,0.056641378864853736,-0.2247405845726688,0.1252538433015919,-0.0965781764615239,0.011926629514816687,-0.02048620665583118,0.7264564175731664
5684,4.0,300.81102999999996,844.0641,0.0,0.0,0.0,0.0,0.0,0.05665134567443755,-0.21673079186966376,0.1055079698578259,-0.14535158810758486,0.014754883108193586,-0.004945297417012855,0.7590738603497573
5685,4.0,300.03505,1069.5124,0.0,0.0,0.0,0.0,0.0,0.056661312484021384,-0.2212151024397308,0.0934385267944146,-0.1973284912698058,0.024164305532081275,0.003865205741041106,0.7111682568843423
5686,4.0,299.94796,966.1234300000001,0.0,0.0,0.0,0.0,0.0,0.05667127929360519,-0.23876814054708076,0.12783135903847287,-0.18274061812259482,0.0029014422693000573,0.043818766591575554,0.7644602269538503
5687,4.0,300.35104,746.2119299999999,0.0,0.0,0.0,0.0,0.0,0.05668124610318902,-0.22303378504422078,0.14296366159691484,-0.14675967137405185,0.010754363997123092,0.02228063407942738,0.7269793458172753
5688,4.0,300.51872000000003,824.7402,0.0,0.0,0.0,0.0,0.0,0.05669121291277285,-0.26103830369997477,0.13990514590506287,-0.12956726924229386,-0.004438853333480716,0.021507316536856877,0.7718851311691313
5689,4.0,299.47454,1092.2216,0.0,0.0,0.0,0.0,0.0,0.05670117972235665,-0.2675941331719847,0.09545005217118673,-0.15986401465234984,0.01019550793096829,0.009171200333952002,0.7283444571470014
5690,4.0,298.63589,1075.2807,0.0,0.0,0.0,0.0,0.0,0.05671114653194048,-0.2586653327607808,0.1106864276738999,-0.17887956782153883,-0.03146504304035797,-0.002294443448493938,0.7565636446845183
5691,4.0,298.63108,755.1340799999999,0.0,0.0,0.0,0.0,0.0,0.0567211133415243,-0.19675186077039683,0.12596739428701387,-0.15875744421813984,-0.00987203948891944,-0.016543882551004085,0.7402589914953743
5692,4.0,300.11335,716.7117400000001,0.0,0.0,0.0,0.0,0.0,0.05673108015110813,-0.17673486186487283,0.11018704736211489,-0.15131465613859385,-0.014928959475373588,-0.013517637861586988,0.7530005101778643
5693,4.0,299.77625,776.3839,0.0,0.0,0.0,0.0,0.0,0.056741046960691946,-0.2236177920043578,0.12938816715461787,-0.14177169444427687,0.03689423263342726,-0.012690686964723289,0.7700952755299862
5694,4.0,299.75619,1031.0348,0.0,0.0,0.0,0.0,0.0,0.05675101377027576,-0.30187616347785773,0.12860084142941486,-0.14013352234510187,0.009564987623665781,0.02015400551779548,0.7890284109360413
5695,4.0,300.39079,970.73912,0.0,0.0,0.0,0.0,0.0,0.05676098057985959,-0.2735084436081818,0.1317186423846179,-0.15329064582110885,0.018129574374499684,-0.002895239152187857,0.7830254208510923
5696,4.0,300.34137000000004,956.9472800000001,0.0,0.0,0.0,0.0,0.0,0.056770947389443396,-0.26336089584419675,0.12034888195250988,-0.14787606020173086,-0.02267525243687318,0.006478693882972304,0.7624351858339943
5697,4.0,300.70063,1003.4118,0.0,0.0,0.0,0.0,0.0,0.05678091419902723,-0.2236330110208598,0.11246811651723888,-0.19384724763623382,0.0031871987585270272,-0.02133104141695988,0.7599182624530932
5698,4.0,300.16573999999997,994.7352300000001,0.0,0.0,0.0,0.0,0.0,0.05679088100861106,-0.2609153964628448,0.1330935113128069,-0.17455278724451884,-0.0037245201189815167,-0.006972428770500144,0.7446513394863653
5699,4.0,298.59297999999995,924.67624,0.0,0.0,0.0,0.0,0.0,0.05680084781819486,-0.24083553552111675,0.1340905798087099,-0.1743335300553798,-0.021723706228212878,-0.02179899679014348,0.7451608725641523
5700,4.0,298.75959,676.2310000000001,0.0,0.0,0.0,0.0,0.0,0.05681081462777869,-0.24478453593085278,0.15304774950713684,-0.1138205520882139,-0.012661889383631187,0.00990877112226957,0.7572853016707403
5701,4.0,300.26347999999996,538.8222,0.0,0.0,0.0,0.0,0.0,0.05682078143736251,-0.17777886410540783,0.12307961123701187,-0.10908925167377088,-0.016537737189147587,0.0052873038775912646,0.7173774940271463
5702,4.0,299.81548,593.87959,0.0,0.0,0.0,0.0,0.0,0.05683074824694634,-0.22493012313637475,0.15479344770692385,-0.1103878836644359,0.006890900235653904,0.04259789242683466,0.7382061974552793
5703,4.0,299.99984,1029.2229,0.0,0.0,0.0,0.0,0.0,0.056840715056530156,-0.2281523597793848,0.0974235452054553,-0.18212925340975783,0.016861522271852683,0.029295674576257976,0.7270896076931573
5704,4.0,300.0056,1073.3642,0.0,0.0,0.0,0.0,0.0,0.05685068186611397,-0.2581770171400878,0.09051426268781222,-0.15861316753640087,0.01081822915092609,0.024070757216598775,0.7624796269833802
5705,4.0,300.30701,918.53256,0.0,0.0,0.0,0.0,0.0,0.0568606486756978,-0.2207028639841768,0.08594793762815102,-0.14445603713920085,0.0074882214034299125,-0.008244442681038142,0.7516148400036092
5706,4.0,300.01186,951.09727,0.0,0.0,0.0,0.0,0.0,0.056870615485281606,-0.2556087523766198,0.1114852132577339,-0.14498628104903186,-0.00020191407618736783,-0.01824063975771098,0.7666226242572622
5707,4.0,299.44211,1152.5058,0.0,0.0,0.0,0.0,0.0,0.05688058229486544,-0.2602127987110037,0.11249819991270789,-0.2026183964643788,0.01105767433505749,-0.009934080285917392,0.7678007301485322
5708,4.0,300.08725,1043.2841,0.0,0.0,0.0,0.0,0.0,0.05689054910444927,-0.2578895986167217,0.11551570937301289,-0.17475843648481484,-0.016511193076277884,0.003918507154601546,0.7447303932591672
5709,4.0,300.63411,821.83836,0.0,0.0,0.0,0.0,0.0,0.05690051591403307,-0.2011360419655818,0.11832154075492689,-0.16700384095199583,0.0024299566314430476,-0.010700705311577388,0.7273409139829592
5710,4.0,301.33376,709.21689,0.0,0.0,0.0,0.0,0.0,0.0569104827236169,-0.2283597011473478,0.15835551830097283,-0.14558005574013286,-0.011433291213377989,-0.0093103722616872,0.7301495014051453
5711,4.0,301.22912,754.64658,0.0,0.0,0.0,0.0,0.0,0.05692044953320072,-0.24695646791770576,0.15098382998094384,-0.13342108493763588,0.002220879160758708,-0.012483214887497388,0.7648169821815592
5712,4.0,301.49358,950.7057,0.0,0.0,0.0,0.0,0.0,0.05693041634278455,-0.2657297935179887,0.11503903599596889,-0.13830003615665087,-0.014168055259778187,-0.016005216506341884,0.7595697550811983
5713,4.0,300.78175,1080.0818,0.0,0.0,0.0,0.0,0.0,0.056940383152368365,-0.24545909705242674,0.09093342601568041,-0.17379221132195583,-0.004255394574349746,-0.006289955888170313,0.7701999949278212
5714,4.0,299.8525,1062.3777,0.0,0.0,0.0,0.0,0.0,0.05695034996195218,-0.23661510567459276,0.07221725278728792,-0.15853845047402687,-0.006396818005991785,0.008792652629717252,0.7523816778117903
5715,4.0,299.79949,927.0908599999999,0.0,0.0,0.0,0.0,0.0,0.05696031677153601,-0.2260342617703448,0.11261415625415189,-0.16839236849153283,0.01993867973904448,0.021495840466224277,0.7517397028134323
5716,4.0,299.57352000000003,1150.5021,0.0,0.0,0.0,0.0,0.0,0.056970283581119815,-0.28081112959640075,0.0946047979245166,-0.16351756146542684,-0.0003177227668267957,0.018058507038985882,0.7667888884661712
5717,4.0,300.4373,1188.4772,0.0,0.0,0.0,0.0,0.0,0.056980250390703646,-0.26512560261585977,0.07650019003248093,-0.17264196980843582,0.013830643989728286,0.004324627724532526,0.7359059880057662
5718,4.0,300.30646,769.83497,0.0,0.0,0.0,0.0,0.0,0.05699021720028748,-0.24185102490383778,0.14307243399514988,-0.13523201617886085,-0.015106296481375384,-0.0015662620435530285,0.7734310468467012
5719,4.0,300.68236,598.4015099999999,0.0,0.0,0.0,0.0,0.0,0.05700018400987128,-0.1950025655327548,0.13831456616308488,-0.12521112467737588,-0.018947671491989584,0.0007238376422922134,0.7273899755528013
5720,4.0,300.60632999999996,640.94027,0.0,0.0,0.0,0.0,0.0,0.05701015081945511,-0.2215620392739708,0.14786207735035087,-0.1211298748645879,-0.018237830015183684,-0.01004392551335827,0.7374847431190773
5721,4.0,301.14242,719.1698,0.0,0.0,0.0,0.0,0.0,0.05702011762903893,-0.19229182767272582,0.10788640221505891,-0.13420423607242687,0.005245184489484405,0.007898639369685012,0.6931091915445514
5722,4.0,299.94587,858.7270199999999,0.0,0.0,0.0,0.0,0.0,0.05703008443862276,-0.24934939988386978,0.1112952187314829,-0.12297740469942489,0.01101458688780509,-0.016206521943459184,0.7319357904039383
5723,4.0,299.49573,887.4065800000001,0.0,0.0,0.0,0.0,0.0,0.057040051248206575,-0.25452647967980774,0.12909375720556188,-0.14431672538295187,0.018540707695325384,-0.034743811946197266,0.7465316378294363
5724,4.0,299.21958,956.6291,0.0,0.0,0.0,0.0,0.0,0.05705001805779039,-0.26092669420145975,0.1115390776330499,-0.14140374280296286,0.02183910730860208,-0.014672326529795885,0.7812111965470423
5725,4.0,299.00476000000003,1169.0354,0.0,0.0,0.0,0.0,0.0,0.05705998486737422,-0.23230067661629175,0.09056775520034151,-0.2136246534231118,0.02028031828851158,0.01092936242189409,0.7949251212180012
5726,4.0,299.3404,1301.7286,0.0,0.0,0.0,0.0,0.0,0.057069951676958025,-0.25631576789889676,0.08782719941636973,-0.22720443391333178,0.02919433740725677,0.035424817338407265,0.7845933240558323
5727,4.0,300.13331,1200.0594,0.0,0.0,0.0,0.0,0.0,0.057079918486541856,-0.2477659939525998,0.09513629725122151,-0.2121584096009048,-0.023717641583248978,0.05089222399642145,0.7880192746314473
5728,4.0,300.15072000000004,942.36385,0.0,0.0,0.0,0.0,0.0,0.057089885296125686,-0.28406214254225076,0.13753048283820188,-0.13992341480436588,-0.02628272271490277,0.038508412996734465,0.7520687051209023
5729,4.0,300.26702,880.18119,0.0,0.0,0.0,0.0,0.0,0.05709985210570949,-0.24389240974780674,0.12344077410265587,-0.14710147103028484,-0.04804338926701336,0.005358240199867135,0.7578303795620353
5730,4.0,300.10539,807.9005900000001,0.0,0.0,0.0,0.0,0.0,0.05710981891529332,-0.23282338194537877,0.1197158235550319,-0.13247405073167087,-0.003090799562563167,-0.04182140037170086,0.7328099010002063
5731,4.0,300.2882,815.90833,0.0,0.0,0.0,0.0,0.0,0.05711978572487714,-0.2052681670658908,0.1281195780294179,-0.17086717106577684,-0.008737685838292451,-0.05387493540854214,0.7498861542730012
5732,4.0,300.33187999999996,970.3295400000001,0.0,0.0,0.0,0.0,0.0,0.05712975253446097,-0.24336504346825977,0.08481050866214551,-0.13640141825177188,0.038099391289117164,-0.023906450606882977,0.7186599950762192
5733,4.0,300.88462999999996,879.93922,0.0,0.0,0.0,0.0,0.0,0.05713971934404477,-0.23475052284057277,0.1209283394196979,-0.15365736129730084,-0.0029356255786486874,0.013557426166513786,0.7529575483736243
5734,4.0,299.45546,788.37354,0.0,0.0,0.0,0.0,0.0,0.0571496861536286,-0.24469471130948778,0.11977159284053589,-0.11472274997725389,0.03999403522710396,-0.0025610636963323075,0.7422803849148704
5735,4.0,300.0806,1161.9503,0.0,0.0,0.0,0.0,0.0,0.05715965296321243,-0.25506646092309976,0.07859097487182533,-0.17672837706423283,-0.0018738374551333582,0.004234118652724976,0.7899969969716333
5736,4.0,299.66312999999997,1030.9342,0.0,0.0,0.0,0.0,0.0,0.057169619772796235,-0.25211622113693377,0.12995378362543986,-0.1912157965965298,0.02198964992895948,-0.009197881640885242,0.7874412661119022
5737,4.0,299.65455,739.64989,0.0,0.0,0.0,0.0,0.0,0.057179586582380065,-0.17581293599638584,0.13213514897072387,-0.18115731351633482,-0.012641403493109387,-0.0034527314850330663,0.7857586629958423
5738,4.0,299.41166,644.76755,0.0,0.0,0.0,0.0,0.0,0.05718955339196388,-0.18166421214386183,0.16207867539591986,-0.17640770367258482,0.007219860493244753,-0.0036193757640545767,0.7613278351972073
5739,4.0,300.0,944.58785,0.0,0.0,0.0,0.0,0.0,0.0571995202015477,-0.25219768644497376,0.12760772460890188,-0.16254116327156384,-0.01041139910327509,0.009655342174833081,0.7660650732572363
5740,4.0,298.8937,1034.1535,0.0,0.0,0.0,0.0,0.0,0.057209487011131516,-0.31617719565425967,0.1223166035142089,-0.1204962389145529,-0.011369116005044389,0.008325922073254532,0.7067125908946023
5741,4.0,300.28362000000004,992.65993,0.0,0.0,0.0,0.0,0.0,0.057219453820715346,-0.3040508109749787,0.14169437332914586,-0.13938739536896488,-0.039417503012954665,0.02256189508193568,0.7435937799594923
5742,4.0,300.3032,746.59143,0.0,0.0,0.0,0.0,0.0,0.05722942063029915,-0.24803381621903178,0.1157066968843619,-0.09461802793107232,-0.019156133514563183,-0.0029504567230124066,0.7370854921821742
5743,4.0,300.52756,730.4855299999999,0.0,0.0,0.0,0.0,0.0,0.05723938743988298,-0.19212584717384482,0.1247049859874239,-0.15462851085564586,0.02263786857443368,-0.008715523930780242,0.7896701224893732
5744,4.0,300.8607,961.13531,0.0,0.0,0.0,0.0,0.0,0.0572493542494668,-0.22554099135666278,0.1021940036832629,-0.16881415411065984,0.024348621804771875,-0.036362853883484265,0.7639956923130043
5745,4.0,299.44242,1021.7761,0.0,0.0,0.0,0.0,0.0,0.05725932105905063,-0.2359889880402998,0.09711791047179151,-0.17172334713527482,0.01151961100264709,-0.02972543852667237,0.7956760712646143
5746,4.0,298.88342,778.6210599999999,0.0,0.0,0.0,0.0,0.0,0.057269287868634444,-0.24434347829482375,0.1367468757408659,-0.12908475954467388,0.007408307381293012,-0.025015745670611877,0.7673894924629463
5747,4.0,300.65477999999996,807.73056,0.0,0.0,0.0,0.0,0.0,0.05727925467821826,-0.2261258291818818,0.13097900020912087,-0.15038309426165586,0.014241699290296287,0.01992053648275388,0.7781143597364083
5748,4.0,299.88171,1077.7727,0.0,0.0,0.0,0.0,0.0,0.05728922148780209,-0.24955828139198477,0.0929101016685131,-0.17096780706570883,0.01211086675399949,0.0040956989618640164,0.7540102139025143
5749,4.0,300.42337000000003,1074.6478,0.0,0.0,0.0,0.0,0.0,0.057299188297385895,-0.25822491347231474,0.13519192187240386,-0.2036330955120218,0.0006623630697151452,0.016020853995135184,0.7417382657138674
5750,4.0,299.76462000000004,810.21234,0.0,0.0,0.0,0.0,0.0,0.057309155106969725,-0.21505936490220678,0.11222334569058189,-0.14344829911974485,-0.018469809572578284,-0.0015090067254523686,0.7397685581819723
5751,4.0,299.91913,651.4719299999999,0.0,0.0,0.0,0.0,0.0,0.05731912191655354,-0.21245177590235778,0.13515781587403788,-0.12073724045083789,-0.024574850154598874,0.015809074591734185,0.7280618110316064
5752,4.0,299.23606,944.73225,0.0,0.0,0.0,0.0,0.0,0.05732908872613736,-0.2755170396789148,0.0985171004421308,-0.11017508087843389,-0.01211507984791529,-0.00975189710733731,0.7443085063150303
5753,4.0,299.29944,912.3045900000001,0.0,0.0,0.0,0.0,0.0,0.05733905553572119,-0.26585627752797175,0.1092106593007529,-0.12067218979441789,-0.013409598043174289,0.029620160828032267,0.7436303278905994
5754,4.0,298.62605,668.21476,0.0,0.0,0.0,0.0,0.0,0.057349022345305006,-0.22172137285219579,0.13975747483548887,-0.1211566955947349,0.016126974717858487,0.01237936384499809,0.7642999206555293
5755,4.0,300.32172,823.93093,0.0,0.0,0.0,0.0,0.0,0.05735898915488884,-0.2011335797678388,0.12456864305396788,-0.17388949346405683,0.015050924389910587,0.015883808879359883,0.7924983163009943
5756,4.0,300.53676,958.2156699999999,0.0,0.0,0.0,0.0,0.0,0.05736895596447264,-0.22849602381580178,0.11815640125362889,-0.18093401345929683,0.05403227187082004,-0.02023173598596688,0.7666611784235672
5757,4.0,301.21465,1280.8504,0.0,0.0,0.0,0.0,0.0,0.05737892277405647,-0.2663975253338887,0.0998227522294886,-0.2227717687008618,0.017029505966181385,-0.018576382204846184,0.7807067803822603
5758,4.0,300.21398,1268.5393,0.0,0.0,0.0,0.0,0.0,0.0573888895836403,-0.30376609782937974,0.094007146538533,-0.17584532960208282,0.007982615714122832,-0.019729606726660583,0.7483745371113163
5759,4.0,299.03503,835.29562,0.0,0.0,0.0,0.0,0.0,0.057398856393224104,-0.24742028315098077,0.14408647443022785,-0.15057519634811486,-0.04579084107570416,0.007169625782436973,0.7846367924851223
5760,4.0,299.52027999999996,664.5424,0.0,0.0,0.0,0.0,0.0,0.057408823202807935,-0.2028474720469868,0.1204521726677039,-0.1196089965969889,-0.016881574491331684,0.013802484756199187,0.7298012777432783
5761,4.0,300.24052,867.32827,0.0,0.0,0.0,0.0,0.0,0.05741879001239175,-0.23523753136863676,0.1359235391071089,-0.16433214361831985,-0.04782761867146845,0.01958110580525468,0.7699276231684403
5762,4.0,299.59438,830.49618,0.0,0.0,0.0,0.0,0.0,0.05742875682197557,-0.23560044715695377,0.13537177376515386,-0.15222142378558487,-0.008663768939522422,0.007886808560192403,0.7509952173024572
5763,4.0,300.08058,594.1093,0.0,0.0,0.0,0.0,0.0,0.0574387236315594,-0.2011760045495258,0.14407883452447387,-0.12349723239822788,-0.02471592192627158,-0.01684877051934418,0.7858416380465312
5764,4.0,300.95741,752.25812,0.0,0.0,0.0,0.0,0.0,0.057448690441143216,-0.23374511529634678,0.13371201943884886,-0.12863458265774488,0.01901274950616228,-0.014834812329081985,0.7524314891867062
5765,4.0,301.25785,1140.1769,0.0,0.0,0.0,0.0,0.0,0.05745865725072705,-0.2729473563653067,0.1084648160346439,-0.18210276705214384,0.00017009220699179382,0.005532472506237525,0.7982323290143972
5766,4.0,301.41477000000003,1237.2008,0.0,0.0,0.0,0.0,0.0,0.05746862406031085,-0.2780240940038417,0.1041083066996899,-0.20216236299187182,0.018860880541423982,0.019675083738779582,0.7718621810543663
5767,4.0,301.18987999999996,1164.3048,0.0,0.0,0.0,0.0,0.0,0.05747859086989468,-0.24334398813118174,0.1149286930600789,-0.2255043015705418,-0.007923164480405451,0.03448359614826597,0.7723122262187823
5768,4.0,300.13121,982.16595,0.0,0.0,0.0,0.0,0.0,0.05748855767947851,-0.24025343347116776,0.1007746814466867,-0.15907516905199684,0.014980073889918184,0.004390310952989957,0.7634142792731232
5769,4.0,300.08108,860.1409199999999,0.0,0.0,0.0,0.0,0.0,0.057498524489062314,-0.21726714567759778,0.0997715000129304,-0.14396571528330987,-0.009611315951363032,-0.023094841329783376,0.7321645214815123
5770,4.0,299.32488,844.71289,0.0,0.0,0.0,0.0,0.0,0.057508491298646144,-0.26931906987722276,0.13660813140467287,-0.12406068051383587,-0.006948373098551034,-0.056456592298581854,0.7598122764926333
5771,4.0,300.6098,1034.5088,0.0,0.0,0.0,0.0,0.0,0.05751845810822996,-0.25697747087670175,0.1196337908269359,-0.17712117359799884,-0.016826698892415882,-0.02921701901074527,0.7702122045915263
5772,4.0,301.18863999999996,832.63823,0.0,0.0,0.0,0.0,0.0,0.05752842491781378,-0.23081966974012777,0.12236295970628389,-0.14464452192280286,0.014692170019754286,-0.007858733223771583,0.7709098272853763
5773,4.0,300.80213,709.1420099999999,0.0,0.0,0.0,0.0,0.0,0.05753839172739761,-0.1976161124431918,0.13811445940083586,-0.15605980768190383,0.0062101080312649435,0.030484411487577173,0.7660090607917083
5774,4.0,299.57799,1030.9941,0.0,0.0,0.0,0.0,0.0,0.057548358536981425,-0.2689687589201497,0.12406784419204289,-0.16849555788171686,0.0004412288246333945,0.016797462574030485,0.7718632550994723
5775,4.0,299.31798,1375.1129999999998,0.0,0.0,0.0,0.0,0.0,0.057558325346565256,-0.3014893147221787,0.0989495555848108,-0.2154602370392698,-0.01950995031698218,0.01110730839120599,0.7836756842352682
5776,4.0,299.34488,1139.3514,0.0,0.0,0.0,0.0,0.0,0.05756829215614906,-0.26431097993296276,0.0910396318514121,-0.17306302588749084,-0.015642607732805184,0.015784055420264984,0.7660397318722353
5777,4.0,299.40847,840.83006,0.0,0.0,0.0,0.0,0.0,0.05757825896573289,-0.2186212125812338,0.12276546317600788,-0.15973559533467585,-0.01267771027069259,-0.003970608981368595,0.7788480237363152
5778,4.0,298.29875,789.30524,0.0,0.0,0.0,0.0,0.0,0.05758822577531672,-0.1988391762413988,0.13420342547234687,-0.17529334134510585,0.010169405595142188,0.008237540320031931,0.7773354237220333
5779,4.0,298.8166,769.83852,0.0,0.0,0.0,0.0,0.0,0.05759819258490052,-0.23905884200077077,0.14641720297275287,-0.14137005223713786,0.007088936319998544,0.022672380886089777,0.7732735269861553
5780,4.0,299.46476,1066.5257,0.0,0.0,0.0,0.0,0.0,0.057608159394484354,-0.2696639194162567,0.09304357406443581,-0.14757682718219886,0.01791592248491388,0.013467451584133986,0.7492297303282173
5781,4.0,300.29657000000003,980.70748,0.0,0.0,0.0,0.0,0.0,0.05761812620406817,-0.2767290387860297,0.1069094467336409,-0.12829099968133587,9.53261823464617e-05,-0.0026320345704365874,0.7280321430686784
5782,4.0,299.70366,670.2374900000001,0.0,0.0,0.0,0.0,0.0,0.05762809301365199,-0.24263327424603975,0.12900853273965088,-0.09011072266323591,-0.030885942237205175,-0.03227036408733697,0.7485729618783993
5783,4.0,299.43527,716.43539,0.0,0.0,0.0,0.0,0.0,0.05763805982323582,-0.21963176743596777,0.12526987291817387,-0.1234165776902679,-0.004349840730745856,-0.03677192726685667,0.7470873649792823
5784,4.0,299.41211,1109.5775,0.0,0.0,0.0,0.0,0.0,0.057648026632819635,-0.25142461714867775,0.1143935247547619,-0.2002527513234078,-0.018453542855472883,-0.003915795798658956,0.7952487127699372
5785,4.0,299.53137999999996,1149.6973,0.0,0.0,0.0,0.0,0.0,0.057657993442403466,-0.26381878356438676,0.0977288931893408,-0.18338937176412182,0.014393378777265887,0.0038567569577322765,0.7476406400638863
5786,4.0,299.81456000000003,877.8051199999999,0.0,0.0,0.0,0.0,0.0,0.05766796025198727,-0.24172613169651175,0.12240930576585789,-0.14751401580849985,-0.01762061580951938,0.008254645501595081,0.8064381552142492
5787,4.0,301.00012000000004,870.83075,0.0,0.0,0.0,0.0,0.0,0.0576779270615711,-0.24559922954125676,0.11739258293074588,-0.13650415167941088,0.007408379930000174,0.034619123415391466,0.7382899831060483
5788,4.0,300.72728,1106.3609,0.0,0.0,0.0,0.0,0.0,0.05768789387115493,-0.2764020123162547,0.12543875131234086,-0.1853428368969138,-0.0026489845220844174,0.02965913245337847,0.7949738382828092
5789,4.0,299.63801,1023.8805,0.0,0.0,0.0,0.0,0.0,0.05769786068073873,-0.2372800611852188,0.10622407423349989,-0.18017812888469684,0.02353636303435818,0.007062429393407514,0.7217109316573233
5790,4.0,299.12741,821.09825,0.0,0.0,0.0,0.0,0.0,0.057707827490322564,-0.2100648322442848,0.13478819237005887,-0.17431672023622083,0.003916222275626046,-0.011613636558926688,0.7835142937593403
5791,4.0,299.65311,508.97872,0.0,0.0,0.0,0.0,0.0,0.05771779429990638,-0.20684594945910578,0.16108978382832384,-0.1089606601035799,0.004651295098472086,-0.018994468447858084,0.7426357418574413
5792,4.0,299.9075,578.4284200000001,0.0,0.0,0.0,0.0,0.0,0.0577277611094902,-0.23364204749617476,0.14378730220570188,-0.0859730571113801,-0.022213775784828978,0.0004020674074109636,0.7710763954693153
5793,4.0,298.85827,1061.8605,0.0,0.0,0.0,0.0,0.0,0.05773772791907403,-0.29019036020705874,0.07906741418809622,-0.1116561384171029,-0.027489181370470975,-0.003490203297581247,0.7458443502866063
5794,4.0,298.71848,1250.5515,0.0,0.0,0.0,0.0,0.0,0.057747694728657845,-0.2971403439679687,0.08975459159758852,-0.17275068141166483,-0.01097662344630839,-0.009470625161727931,0.7712705848509803
5795,4.0,299.96842999999996,836.1918900000001,0.0,0.0,0.0,0.0,0.0,0.057757661538241675,-0.20061203967636682,0.1132505786419619,-0.16681999685385185,0.013703152809145885,-0.00890389725687124,0.7740856976038102
5796,4.0,300.78394,781.47205,0.0,0.0,0.0,0.0,0.0,0.05776762834782548,-0.1850645578894498,0.14343504580843686,-0.19591848282814883,0.02192045507963048,0.011241745401223888,0.7674635813102583
5797,4.0,300.08677,1082.0753,0.0,0.0,0.0,0.0,0.0,0.05777759515740931,-0.2238443040642128,0.10745463608244689,-0.21253419366549178,0.023607532708132078,-0.008063124412743424,0.7816019969781113
5798,4.0,299.47156,1214.1426,0.0,0.0,0.0,0.0,0.0,0.05778756196699314,-0.2710165779022537,0.09819010234335859,-0.19624255060763182,0.008113904150779993,0.007334328876916903,0.7563053368365253
5799,4.0,299.27378,867.25689,0.0,0.0,0.0,0.0,0.0,0.05779752877657694,-0.2481614046716238,0.11828288526361189,-0.13374592278719485,0.0003930784199438196,-0.0031408319273259766,0.7603143621821853
5800,4.0,299.70991000000004,555.6888,0.0,0.0,0.0,0.0,0.0,0.05780749558616077,-0.2107054089575048,0.15516456068854986,-0.1133746815142099,-0.02114799272014438,0.01933953380916338,0.7560851170597912
5801,4.0,299.08847000000003,711.11243,0.0,0.0,0.0,0.0,0.0,0.05781746239574459,-0.2159891839889728,0.14417326943379385,-0.14434450870069387,-0.014035914274486885,-0.016621575528921784,0.7535843955479893
5802,4.0,298.87633,1052.7499,0.0,0.0,0.0,0.0,0.0,0.05782742920532842,-0.24712901427723477,0.11522004299383289,-0.18810072128409583,-0.023654667076283876,-0.012225717639584386,0.7921910482081691
5803,4.0,299.3766,1234.9972,0.0,0.0,0.0,0.0,0.0,0.05783739601491224,-0.27195776565514174,0.10003266522620541,-0.2034832155572298,-0.005021184276627305,-0.032305948417598866,0.7744947871991842
5804,4.0,299.56362,978.2874300000001,0.0,0.0,0.0,0.0,0.0,0.057847362824496054,-0.28290223462277675,0.13675276272394687,-0.15122547999729286,-0.012975911801622789,0.016822214247473283,0.8006467621476833
5805,4.0,299.94501,832.4739999999999,0.0,0.0,0.0,0.0,0.0,0.057857329634079885,-0.26711476454967475,0.11390814755935888,-0.0998446921339039,0.002142368692660328,0.013972725971750687,0.7673108034601803
5806,4.0,300.31957,1040.1245,0.0,0.0,0.0,0.0,0.0,0.05786729644366369,-0.2726045231939717,0.13026774930142587,-0.17383510219868883,-0.0028146612485854374,0.016945708156411183,0.7860983854893703
5807,4.0,300.57301,1124.1235,0.0,0.0,0.0,0.0,0.0,0.05787726325324752,-0.24063698916402176,0.10671015057147192,-0.2077786259111538,0.030705877561934172,-0.0005346608696669195,0.7621641414322443
5808,4.0,300.40806000000003,839.00739,0.0,0.0,0.0,0.0,0.0,0.05788723006283135,-0.1955360417104048,0.13696443066983688,-0.19646567841215282,0.025405516639579274,-0.002169423078280388,0.7904661317679332
5809,4.0,298.86858,590.36848,0.0,0.0,0.0,0.0,0.0,0.05789719687241515,-0.1895932589463978,0.13735099571548787,-0.1272150192676449,0.029794788403266673,-0.04101611478847536,0.7429030777638252
5810,4.0,298.86679,815.0396900000001,0.0,0.0,0.0,0.0,0.0,0.05790716368199898,-0.2373597229080808,0.13390972479836086,-0.14430171914897086,-0.004630334702928456,-0.03286181944895907,0.7676943895505373
5811,4.0,299.29901,1060.3118,0.0,0.0,0.0,0.0,0.0,0.0579171304915828,-0.28467817833804876,0.08649892479402922,-0.12412904449808287,-0.0028342138344401276,-0.02640002769222987,0.7545362021619253
5812,4.0,299.64432,1035.768,0.0,0.0,0.0,0.0,0.0,0.05792709730116663,-0.25250185399249275,0.09383492847203641,-0.15618067828633284,-0.01180960014151679,0.029050914895352074,0.7702556527558143
5813,4.0,299.15008,843.16981,0.0,0.0,0.0,0.0,0.0,0.05793706411075045,-0.23182713418205678,0.12224580772972188,-0.14672123879775886,-0.016750878400682984,0.05285937003206365,0.7604163660697523
5814,4.0,300.22964,785.6598,0.0,0.0,0.0,0.0,0.0,0.057947030920334264,-0.16941770666522585,0.1279017089929159,-0.1973049636024838,-0.039802377957438864,0.045113395231095456,0.7890371856819073
5815,4.0,300.87523999999996,900.24015,0.0,0.0,0.0,0.0,0.0,0.057956997729918094,-0.24785427843381277,0.13649319844582986,-0.16228945168172185,-0.012730766072428788,0.0013121740782514987,0.7809147398327843
5816,4.0,300.93445,1256.6855,0.0,0.0,0.0,0.0,0.0,0.0579669645395019,-0.29013111547371173,0.09607330433419692,-0.1879432014235498,-0.012762834424843687,0.014656028401937384,0.7854222740951432
5817,4.0,299.88736,1143.4094,0.0,0.0,0.0,0.0,0.0,0.05797693134908573,-0.32977390755365066,0.12268623715068888,-0.14048022613181887,0.01809073852466688,-0.01882764492489388,0.7702145451992573
5818,4.0,300.32282999999995,952.92475,0.0,0.0,0.0,0.0,0.0,0.05798689815866956,-0.23940486690992077,0.12715959448717487,-0.17742006211249683,-0.010725615052035791,-0.017377956596070783,0.7691030605020622
5819,4.0,299.62207,874.11138,0.0,0.0,0.0,0.0,0.0,0.05799686496825336,-0.22474322915542974,0.11677573653486788,-0.15774053628527884,0.013320566796637588,-0.007797576284835862,0.7546336970865473
5820,4.0,299.93759,1125.0819999999999,0.0,0.0,0.0,0.0,0.0,0.05800683177783719,-0.22773037151023778,0.10913925556620589,-0.2234057288909288,0.009493580444068441,0.02189038992266328,0.7895539837629112
5821,4.0,299.48037,1120.5229,0.0,0.0,0.0,0.0,0.0,0.05801679858742101,-0.28098859021891476,0.0993938789259121,-0.15901626882368386,0.01873339645359228,-0.0048658727946742555,0.7628630002912162
5822,4.0,299.16495,849.7537,0.0,0.0,0.0,0.0,0.0,0.05802676539700484,-0.26475483413926776,0.13868530424217387,-0.13223436642051586,-0.007910483858053973,-0.024574795439093477,0.7996253553843782
5823,4.0,300.1553,775.57082,0.0,0.0,0.0,0.0,0.0,0.058036732206588657,-0.27515732576091373,0.12249349671666689,-0.08309033828537792,0.009894175254579071,-0.03282904283472427,0.7399904903513753
5824,4.0,300.63244,954.5595599999999,0.0,0.0,0.0,0.0,0.0,0.05804669901617247,-0.2296059886378468,0.1097905625979849,-0.17034684687442486,0.006623614181174822,0.017134169635260883,0.7719153564196143
5825,4.0,299.58563,1126.6292,0.0,0.0,0.0,0.0,0.0,0.058056665825756304,-0.23938534158049377,0.087447405921137,-0.1905292081962688,0.00826693126038259,0.017319654185316783,0.7233143188805653
5826,4.0,300.33718999999996,1242.4597,0.0,0.0,0.0,0.0,0.0,0.05806663263534011,-0.2442047846211358,0.10161075666070091,-0.2350826864883548,-0.016335084129397284,0.013717012044013687,0.7813738839830983
5827,4.0,301.09562,958.21509,0.0,0.0,0.0,0.0,0.0,0.05807659944492394,-0.24615286939589676,0.1094787348797099,-0.15459932925276584,-0.010581864247098689,-0.003056007087254417,0.7508012103058104
5828,4.0,300.58986,726.11768,0.0,0.0,0.0,0.0,0.0,0.05808656625450777,-0.22859822022088777,0.14099937495305487,-0.13312280437319787,0.002152639299648958,0.0092674641597025,0.7644960250798833
5829,4.0,300.78664,1042.0721,0.0,0.0,0.0,0.0,0.0,0.05809653306409157,-0.2980686938420897,0.1007939210395855,-0.1194891392426599,0.016893087038967882,-0.01683412905539918,0.7726682012439142
5830,4.0,299.49879,1134.2737,0.0,0.0,0.0,0.0,0.0,0.0581064998736754,-0.2587899523905798,0.1075008706845099,-0.1935018002796408,0.017511654946765785,-0.01880926963433038,0.7639492449284202
5831,4.0,298.46187000000003,898.2802199999999,0.0,0.0,0.0,0.0,0.0,0.05811646668325922,-0.22995897457518377,0.11200865825939389,-0.15510444456011685,0.007137001864992242,-0.03495732299401917,0.7753921620177483
5832,4.0,299.04724,857.6722699999999,0.0,0.0,0.0,0.0,0.0,0.05812643349284305,-0.19579266756323183,0.0971337029878501,-0.16205198638828586,0.02944988718847757,0.006363591407387573,0.7860787385699313
5833,4.0,299.21508,1023.3228,0.0,0.0,0.0,0.0,0.0,0.058136400302426866,-0.2863825156687537,0.13255074363173988,-0.15723282705767186,-0.01172062462373559,0.0070331244779903435,0.8102003224380462
5834,4.0,299.06325,1179.9456,0.0,0.0,0.0,0.0,0.0,0.05814636711201068,-0.2851201276341657,0.0988995445996251,-0.17245340396482584,0.0061810489303220344,-0.027750929202553475,0.7734326275168573
5835,4.0,301.03161,1137.0526,0.0,0.0,0.0,0.0,0.0,0.058156333921594514,-0.30547254272029273,0.1177422150102519,-0.15790527048653685,-0.03021395274438497,-0.01876266012973038,0.7911004263305332
5836,4.0,300.49922999999995,973.00981,0.0,0.0,0.0,0.0,0.0,0.058166300731178316,-0.22482135073813977,0.1241352253236929,-0.19508455773084682,-0.010807211069338688,0.03458852731537187,0.7579634598301692
5837,4.0,300.54127,956.00579,0.0,0.0,0.0,0.0,0.0,0.05817626754076215,-0.2176791939632638,0.099502548985887,-0.17242524574454685,-0.00883003841733194,0.027418116061457373,0.7621307345764473
5838,4.0,300.77315,996.1677099999999,0.0,0.0,0.0,0.0,0.0,0.05818623435034598,-0.23282733362076877,0.12868534648775487,-0.1986681193595168,-0.0007813613196818582,0.023891163702624275,0.7597675718982212
5839,4.0,300.40891,1047.2641,0.0,0.0,0.0,0.0,0.0,0.05819620115992978,-0.2840806343565757,0.11973430523685588,-0.15399582736070486,-0.014050137266140588,0.006643360905748674,0.7658446812279853
5840,4.0,300.09047000000004,744.85815,0.0,0.0,0.0,0.0,0.0,0.05820616796951361,-0.23869022161439077,0.14049846463361887,-0.12822651644497188,0.015424057792235987,-0.005522724533650474,0.7554725972418403
5841,4.0,299.68552999999997,643.48133,0.0,0.0,0.0,0.0,0.0,0.05821613477909743,-0.22512278251038878,0.1175322898545339,-0.08801176292208472,0.0027438964695514975,-0.011451067673132389,0.7626902918116713
5842,4.0,299.18712,972.04666,0.0,0.0,0.0,0.0,0.0,0.05822610158868126,-0.23520589770051478,0.1085535666109029,-0.16882558357178784,0.012733176594416688,-0.030415879303813568,0.7541458374283992
5843,4.0,299.42827,1278.0517,0.0,0.0,0.0,0.0,0.0,0.05823606839826506,-0.27766728811362773,0.08924033373458522,-0.20006885656275883,0.01129690876316809,-0.02631253151959468,0.7728200975664052
5844,4.0,298.69745,1033.8475,0.0,0.0,0.0,0.0,0.0,0.05824603520784889,-0.23460384475609677,0.1151637265532749,-0.1948237167576038,0.018298912784212085,0.005748817411939104,0.7663105229614603
5845,4.0,298.37416,774.03385,0.0,0.0,0.0,0.0,0.0,0.05825600201743271,-0.2518901042446178,0.14607124899110988,-0.1294681024550069,-0.007764385555285192,0.016699018234064784,0.7785611827655062
5846,4.0,298.92356,831.29283,0.0,0.0,0.0,0.0,0.0,0.058265968827016526,-0.25798821824895474,0.14677823411588387,-0.14148227981821387,-0.0034894182314037666,0.006215101125107724,0.7834686468423352
5847,4.0,299.3721,1097.4469,0.0,0.0,0.0,0.0,0.0,0.05827593563660036,-0.28467895854062575,0.1350432679502329,-0.18396075362801284,-0.0013483059688674387,0.02778509498267537,0.7821595074481332
5848,4.0,300.23382999999995,1204.9049,0.0,0.0,0.0,0.0,0.0,0.058285902446184173,-0.24687181087185078,0.1129643253562109,-0.23235350747650577,0.016175730286170285,0.043587148764466656,0.7796456339500332
5849,4.0,299.67368999999997,1037.5516,0.0,0.0,0.0,0.0,0.0,0.05829586925576799,-0.2439432039753198,0.14022841321696686,-0.21167497784569378,0.01230360820127159,0.01920506842814268,0.7866956153633122
5850,4.0,300.1665,922.34659,0.0,0.0,0.0,0.0,0.0,0.05830583606535181,-0.22155326452810478,0.12402958386826689,-0.18284665474555983,0.0030055301083477272,-0.005025340729862516,0.7733129930775503
5851,4.0,300.2146,993.6724199999999,0.0,0.0,0.0,0.0,0.0,0.05831580287493564,-0.30107328436361974,0.13470916899475988,-0.13568749236381286,-0.015684181384408184,-0.0047267613579700255,0.7944362685747552
5852,4.0,300.21486,1185.7501,0.0,0.0,0.0,0.0,0.0,0.05832576968451944,-0.29213089626857475,0.1056989472366739,-0.17400646305560083,0.020685929396292282,-0.023868740477911276,0.7759674347620232
5853,4.0,300.07434,1145.9706,0.0,0.0,0.0,0.0,0.0,0.05833573649410327,-0.2842406164148647,0.1051331483808339,-0.16923897948008684,-0.0010946907860625691,-0.0025167837550372175,0.7979576470447882
5854,4.0,299.09075,925.88461,0.0,0.0,0.0,0.0,0.0,0.05834570330368709,-0.1947177814596488,0.11891288364578789,-0.2056409012476768,0.002239663601712588,-0.04174334566349746,0.7671881799330782
5855,4.0,299.70288,868.71615,0.0,0.0,0.0,0.0,0.0,0.05835567011327092,-0.22881059744184779,0.14662753342851087,-0.18188495881064784,-0.015880372948270785,-0.025290687032246476,0.7745807716026702
5856,4.0,299.9288,949.0914,0.0,0.0,0.0,0.0,0.0,0.05836563692285472,-0.22336719498962576,0.1170753343244359,-0.18220821599005083,-0.002975005543785187,-0.007705604079883913,0.7571964193719682
5857,4.0,298.33168,936.7959800000001,0.0,0.0,0.0,0.0,0.0,0.05837560373243855,-0.29641720763660073,0.13599039334870686,-0.12433576778348489,-0.008220104818936182,0.014386785558865184,0.7728317296775533
5858,4.0,298.64369,933.4055400000001,0.0,0.0,0.0,0.0,0.0,0.05838557054202238,-0.24093063917550275,0.11736448550547288,-0.16016582132713586,0.0014140688387827287,-0.0069891825569286135,0.7611144041961433
5859,4.0,299.50982999999997,820.11712,0.0,0.0,0.0,0.0,0.0,0.058395537351606186,-0.2372103090483348,0.1232680757556119,-0.13535289691579086,-0.02183187675588848,0.021080280255711677,0.7560426010855953
5860,4.0,298.24596,757.7477299999999,0.0,0.0,0.0,0.0,0.0,0.05840550416119002,-0.17668146358460282,0.11104564509935189,-0.16470056135467984,0.02849038696653227,0.013853617409245586,0.7557685169335453
5861,4.0,299.49584,973.4910000000001,0.0,0.0,0.0,0.0,0.0,0.05841547097077383,-0.23854995740304777,0.1150447304615309,-0.17241172898821283,-0.008418907528306482,0.013147961668602787,0.7706451967567592
5862,4.0,299.8629,955.1884,0.0,0.0,0.0,0.0,0.0,0.05842543778035765,-0.2564969572817788,0.1133581959350829,-0.14721466119895588,-0.003941339023079876,-0.0045132786811509255,0.7707114531807983
5863,4.0,299.51231,852.14619,0.0,0.0,0.0,0.0,0.0,0.05843540458994148,-0.2985390648035117,0.13725464576347887,-0.09774674260310241,-0.034820859483801266,-0.007130869270087003,0.7777436115248182
5864,4.0,300.76306,951.19159,0.0,0.0,0.0,0.0,0.0,0.0584453713995253,-0.26318240170658075,0.1150704163515659,-0.14102651992323387,0.020329363646351982,0.0048829305561327255,0.7735472261031672
5865,4.0,299.89883,1097.858,0.0,0.0,0.0,0.0,0.0,0.05845533820910913,-0.2718654281735287,0.11196323425741089,-0.17381920430461986,0.0004977603680551236,0.020222061474012083,0.8046619176564482
5866,4.0,299.5841,1214.0646,0.0,0.0,0.0,0.0,0.0,0.05846530501869293,-0.22749390933440075,0.09648085885566941,-0.23803225752945475,0.03723335224314576,-0.024183732576248576,0.7687451096392353
5867,4.0,299.98607999999996,1088.5981,0.0,0.0,0.0,0.0,0.0,0.05847527182827676,-0.24719214989096575,0.1254462088330769,-0.2091606990475538,-0.008057940625231822,-0.027341088788855373,0.7850130831747593
5868,4.0,299.22454,805.61824,0.0,0.0,0.0,0.0,0.0,0.05848523863786059,-0.23374028209336978,0.1324084427876959,-0.14355598734037286,0.027938571975322374,-0.030676982708832467,0.7655341200723352
5869,4.0,298.07825,823.22971,0.0,0.0,0.0,0.0,0.0,0.058495205447444396,-0.27921134954351473,0.13109517946558688,-0.1021251128089639,-0.015723519806290588,0.005692418999448015,0.7909504146532282
5870,4.0,298.71042,1031.191,0.0,0.0,0.0,0.0,0.0,0.058505172257028226,-0.2824074544664457,0.10688494634622289,-0.13793379690800586,-0.0056754558755488845,0.005920058401364275,0.7574906975985113
5871,4.0,299.09334,1120.644,0.0,0.0,0.0,0.0,0.0,0.05851513906661204,-0.29236904043957773,0.09797367110874851,-0.14625242824149087,-0.03225900251396567,0.034811258939103765,0.7978075948374793
5872,4.0,300.70032000000003,928.7085699999999,0.0,0.0,0.0,0.0,0.0,0.05852510587619586,-0.2057018887711958,0.0977072511804549,-0.17430957682301584,-0.008027639279666312,0.021733269282656682,0.7336888144019483
5873,4.0,300.50627000000003,791.91671,0.0,0.0,0.0,0.0,0.0,0.05853507268577969,-0.2025078407459678,0.12466785037125888,-0.16288291226529183,-0.01067694054373199,0.017628492815796783,0.8041119558996712
5874,4.0,300.44097999999997,1037.6064,0.0,0.0,0.0,0.0,0.0,0.05854503949536351,-0.2275381680987688,0.08450216145796402,-0.17237042891413684,-0.005012428174563145,-0.019102177946738182,0.7493820116857463
5875,4.0,300.37021,1315.0234,0.0,0.0,0.0,0.0,0.0,0.05855500630494734,-0.3007210583638577,0.10089973170777822,-0.1999129477698718,-0.008175252796634632,-0.010929084791366688,0.7967842325014812
5876,4.0,300.06968,1007.6749,0.0,0.0,0.0,0.0,0.0,0.05856497311453114,-0.27039261849067375,0.12192171968523688,-0.15783710915230986,0.026414138213122475,-0.005035631297878115,0.7453642521242243
5877,4.0,300.06338,777.84088,0.0,0.0,0.0,0.0,0.0,0.05857493992411497,-0.23379644654641277,0.15848206310596186,-0.16112982747227583,0.005369646457567844,0.01034680440940009,0.7960569418447032
5878,4.0,300.37539,902.73553,0.0,0.0,0.0,0.0,0.0,0.0585849067336988,-0.2076835222567678,0.1170639656583139,-0.18378949409611084,-0.003519570629204577,-0.024166199296518177,0.7665172766443653
5879,4.0,299.76117,1126.9591,0.0,0.0,0.0,0.0,0.0,0.058594873543282605,-0.26927076824495577,0.13197886527529987,-0.20527552326161683,-0.016043013774822184,-0.006923202142216853,0.8092084519151562
5880,4.0,299.68737000000004,1133.9836,0.0,0.0,0.0,0.0,0.0,0.058604840352866436,-0.25124705520115376,0.0985617523475376,-0.19201738888314082,0.008304883556128191,-0.001022477059385629,0.7792864063920802
5881,4.0,300.23507,946.92944,0.0,0.0,0.0,0.0,0.0,0.05861480716245025,-0.2933792913192817,0.14752063233165286,-0.14198424391775386,0.02333927981040758,0.012273351540035489,0.8304218965387602
5882,4.0,300.42152000000004,916.81163,0.0,0.0,0.0,0.0,0.0,0.05862477397203407,-0.27231579757797675,0.13238534068541588,-0.13875738685428785,-0.008243205603991052,-0.006132343517890184,0.7751562773944682
5883,4.0,300.04908,1308.0696,0.0,0.0,0.0,0.0,0.0,0.0586347407816179,-0.31479924644576673,0.1072899930736979,-0.19011125266251983,-0.0015073959617683986,0.0030863929378782675,0.8050446120867173
5884,4.0,298.835,1313.1668,0.0,0.0,0.0,0.0,0.0,0.05864470759120172,-0.26038178856268174,0.09666308074040332,-0.2354512156822258,-0.001868019271734148,0.01070748496799649,0.7638338053445273
5885,4.0,297.81345,855.7493400000001,0.0,0.0,0.0,0.0,0.0,0.05865467440078555,-0.2306029760737418,0.13801110789063586,-0.16753456108937384,0.004881828038698915,0.020416884136989583,0.8057142589453062
5886,4.0,298.37748999999997,561.84053,0.0,0.0,0.0,0.0,0.0,0.05866464121036935,-0.18169288712169182,0.15763718477507885,-0.14672979062860286,-0.0015670565329564386,-0.031728446523103866,0.7682501673628882
5887,4.0,298.97531000000004,778.5015599999999,0.0,0.0,0.0,0.0,0.0,0.05867460801995318,-0.2596872866791397,0.15197037080830786,-0.12892812121171487,-0.007023712600461463,-0.01908386649093098,0.8099827472440733
5888,4.0,299.44282000000004,1017.5615,0.0,0.0,0.0,0.0,0.0,0.05868457482953701,-0.2462023565307808,0.1140593346067799,-0.17717026556534382,0.001031387074139979,-0.012729877452091089,0.7642179081924353
5889,4.0,300.09661,1074.5508,0.0,0.0,0.0,0.0,0.0,0.058694541639120815,-0.2732881833014438,0.13661454527780587,-0.1899629837753868,0.014350229521757385,0.02283873426100758,0.7887905808725693
5890,4.0,300.6536,966.99834,0.0,0.0,0.0,0.0,0.0,0.058704508448704645,-0.20389663173053083,0.08861338624846032,-0.1786601079823798,-0.013140840546899988,0.010733545760568489,0.7400458442043383
5891,4.0,300.42066,917.4743699999999,0.0,0.0,0.0,0.0,0.0,0.05871447525828846,-0.23940320517975677,0.10430184760129091,-0.14378794055326485,-0.004797225404374285,0.007888949760303722,0.7693484696762823
5892,4.0,300.49887,1169.762,0.0,0.0,0.0,0.0,0.0,0.05872444206787228,-0.24465210414278277,0.06623505966064144,-0.17716137936196683,-0.004567469221674116,-0.0004382828506301496,0.7529088211763153
5893,4.0,299.20412999999996,1066.5038,0.0,0.0,0.0,0.0,0.0,0.05873440887745611,-0.30069313319110175,0.10399497467600491,-0.12749235595251587,0.0008010682336592793,0.0014079138510502786,0.7820841824356992
5894,4.0,298.87886000000003,798.73493,0.0,0.0,0.0,0.0,0.0,0.058744375687039926,-0.24901416608828478,0.15919279725610586,-0.15297410648986887,0.013067838916945287,-0.017056952884890186,0.7785445451988642
5895,4.0,300.1841,775.4452,0.0,0.0,0.0,0.0,0.0,0.05875434249662376,-0.25618066113056276,0.14907209048726985,-0.1286073971575619,-0.0021282862387954978,-0.00782565678883219,0.7922273630917532
5896,4.0,300.59545,793.8847400000001,0.0,0.0,0.0,0.0,0.0,0.05876430930620756,-0.19712121069684882,0.1357897090339009,-0.17998964410109483,0.0059840089721507035,0.024870835707560376,0.7627054399006663
5897,4.0,300.55765,1066.3677,0.0,0.0,0.0,0.0,0.0,0.05877427611579139,-0.28752805570180967,0.14762835094978385,-0.18424944884650482,-0.008144146727839701,0.023665449070597977,0.7795219769078293
5898,4.0,301.15885,1264.8762,0.0,0.0,0.0,0.0,0.0,0.05878424292537522,-0.26712635613081875,0.0976942906984258,-0.2150587164221428,-0.0028093052085568374,-0.006022709451770144,0.8019876162700152
5899,4.0,299.46424,1122.1768,0.0,0.0,0.0,0.0,0.0,0.058794209734959024,-0.3044286722022707,0.10646021216930489,-0.14314527654483886,-0.013632773470449985,-0.04381406207136125,0.8024376513019302
5900,4.0,299.57354,1084.8006,0.0,0.0,0.0,0.0,0.0,0.058804176544542855,-0.24606479769720477,0.11330973218279988,-0.1969972192821118,-0.0025007899061837476,-0.011638133906594388,0.8184235664071172
5901,4.0,299.47592000000003,1062.5536,0.0,0.0,0.0,0.0,0.0,0.05881414335412667,-0.25700325809174673,0.09237636609883751,-0.15836287449669886,0.01119819996492629,-0.01788565670442688,0.7965011202910401
5902,4.0,299.10904,978.44535,0.0,0.0,0.0,0.0,0.0,0.05882411016371049,-0.22448085817453578,0.11888882908841389,-0.19183093059973882,-0.0026110325303138476,0.01007636015568432,0.7802339776205983
5903,4.0,299.29005,941.71785,0.0,0.0,0.0,0.0,0.0,0.05883407697329432,-0.26173210644094774,0.11136181966055589,-0.13588841985864286,0.0010032140401445172,-0.005355424276514224,0.7686308150279553
5904,4.0,299.22997999999995,821.94958,0.0,0.0,0.0,0.0,0.0,0.058844043782878136,-0.23141186376107278,0.1144999160152619,-0.13294020657267688,-0.01195768157738129,0.022419808033662777,0.7512901642740663
5905,4.0,300.05622,821.43278,0.0,0.0,0.0,0.0,0.0,0.05885401059246197,-0.2662883780331168,0.15480582962314585,-0.13821250148051187,0.003594297925404587,0.015861092825367986,0.7770151353654233
5906,4.0,300.91053999999997,906.8538699999999,0.0,0.0,0.0,0.0,0.0,0.05886397740204577,-0.23102092147498976,0.12359536567041289,-0.16823538565353985,-0.024502225453681376,-0.012111172755529687,0.7803436619439232
5907,4.0,300.41688,1014.9262,0.0,0.0,0.0,0.0,0.0,0.0588739442116296,-0.24408170513148877,0.11700352528984888,-0.18143404225114584,0.007721055941258893,-0.03094171456245947,0.7766765173145043
5908,4.0,300.10927000000004,1021.5919,0.0,0.0,0.0,0.0,0.0,0.05888391102121343,-0.22832510878893378,0.11983461699675589,-0.2020479467905798,-0.006619110791105373,0.011172150318105388,0.7641351053942633
5909,4.0,300.64751,968.59895,0.0,0.0,0.0,0.0,0.0,0.058893877830797234,-0.25016989941734674,0.1025923021650719,-0.14685229256569288,0.019152087606913882,0.008023034868561893,0.7612948133764483
5910,4.0,299.33295,953.2860800000001,0.0,0.0,0.0,0.0,0.0,0.058903844640381064,-0.24633589276145978,0.12222806572047089,-0.16566733367259284,-0.004683551003480496,0.005530302327173344,0.7958483136491132
5911,4.0,299.78958,1127.2892,0.0,0.0,0.0,0.0,0.0,0.05891381144996488,-0.32434561266041967,0.12724109019271787,-0.14556324592097386,0.0008466913595519312,-0.014930099381736086,0.8077733351360212
5912,4.0,299.30191,1072.1918,0.0,0.0,0.0,0.0,0.0,0.0589237782595487,-0.2614196505076108,0.13126705708004988,-0.1957669310106918,0.012402503437531789,0.009090826701569741,0.8246531597444302
5913,4.0,300.49897999999996,880.1949400000001,0.0,0.0,0.0,0.0,0.0,0.05893374506913253,-0.24306658051880378,0.14528288975080486,-0.16977359049784885,0.017366156285406182,-0.0006598901619185885,0.8156006718935193
5914,4.0,300.51215,851.4735900000001,0.0,0.0,0.0,0.0,0.0,0.058943711878716346,-0.21670135695425882,0.14292259457036185,-0.18504795072031083,-0.014605859349736088,-0.006607110059570993,0.8030412950490052
5915,4.0,299.48615,1095.5989,0.0,0.0,0.0,0.0,0.0,0.058953678688300176,-0.2834022735471267,0.13100730028441387,-0.18063973523275384,-0.01275244759806859,-0.016366569863004683,0.7617466114635373
5916,4.0,298.77846,1107.5757,0.0,0.0,0.0,0.0,0.0,0.05896364549788398,-0.26913696856925073,0.1215808826165989,-0.18911926054961783,-0.008051337476980142,0.028136208433827577,0.7646755324675993
5917,4.0,299.23037999999997,1010.4335,0.0,0.0,0.0,0.0,0.0,0.05897361230746781,-0.2825324591312827,0.11801765691743589,-0.14263175126165786,0.03930400380300317,0.022509053075970578,0.7611766481497863
5918,4.0,299.69923,852.3303099999999,0.0,0.0,0.0,0.0,0.0,0.05898357911705164,-0.2207934890731208,0.13471507624284287,-0.17300871568213083,-0.024429111352965577,-0.01995066243472708,0.7926952414579294
5919,4.0,300.48397,728.6375099999999,0.0,0.0,0.0,0.0,0.0,0.05899354592663544,-0.2072800460669478,0.1133545887647269,-0.12756215875190488,-0.0009232261419428261,-0.05880151546175774,0.7707345654155794
5920,4.0,300.64692,1033.9962,0.0,0.0,0.0,0.0,0.0,0.059003512736219274,-0.21375678123615183,0.08563002838277582,-0.1861822538097578,-0.021335290987879278,-0.007226345597859785,0.7796926183571703
5921,4.0,301.17984,1296.5624,0.0,0.0,0.0,0.0,0.0,0.05901347954580309,-0.2761434207582338,0.058956777801080947,-0.17693596161221986,0.026070338401192078,0.01053305801628189,0.7668984208019812
5922,4.0,300.55223,1213.8642,0.0,0.0,0.0,0.0,0.0,0.05902344635538691,-0.26571255813378775,0.07960136254029282,-0.18287320189817982,-0.01988339681358848,0.012203131281605288,0.7994486952294433
5923,4.0,300.47724,948.8098,0.0,0.0,0.0,0.0,0.0,0.05903341316497074,-0.27971268542799277,0.12534075989516988,-0.13404256188647087,-0.004286368515331636,0.0019275558211099481,0.7695931898404342
5924,4.0,299.34411,864.3362900000001,0.0,0.0,0.0,0.0,0.0,0.059043379974554555,-0.2152701411880088,0.13714088817475187,-0.18460738957683082,-0.008186571914826742,0.039853954414029065,0.8074955120911023
5925,4.0,300.13842,925.27121,0.0,0.0,0.0,0.0,0.0,0.059053346784138386,-0.22689257579755379,0.12139995667874288,-0.17576672165932483,0.025724350982295772,-0.0002693361938039127,0.7714309114143033
5926,4.0,299.60808,929.75309,0.0,0.0,0.0,0.0,0.0,0.05906331359372219,-0.20220788831886483,0.13036470720349488,-0.2107785453497228,0.0015292790228530885,-0.013278879661023386,0.7910125268843583
5927,4.0,300.1996,879.49006,0.0,0.0,0.0,0.0,0.0,0.05907328040330602,-0.24249953536534075,0.13159176320709587,-0.15643524724145685,-0.012814781730970488,-0.058457672080073034,0.7638758552236773
5928,4.0,299.22042000000005,889.51074,0.0,0.0,0.0,0.0,0.0,0.05908324721288985,-0.2526899132110528,0.14840279826621586,-0.16610193690548486,-0.002221220930017438,0.003494454388375797,0.8033230292393102
5929,4.0,300.06346,952.31264,0.0,0.0,0.0,0.0,0.0,0.05909321402247365,-0.3038607860512247,0.14395160070941687,-0.1295700759450709,0.0071879542608458535,0.015844508960981284,0.7862711041014163
5930,4.0,299.9644,1115.2781,0.0,0.0,0.0,0.0,0.0,0.059103180832057484,-0.2726496533534257,0.1180845415565369,-0.18445157197645282,-0.006247448627925175,0.011534319341098689,0.8131965536462513
5931,4.0,300.50922,1125.1471,0.0,0.0,0.0,0.0,0.0,0.0591131476416413,-0.28652020622484276,0.1097265961191719,-0.16522302350374285,-0.015225331076623185,-0.03051730766532377,0.7949205109300462
5932,4.0,301.38366,1013.9227,0.0,0.0,0.0,0.0,0.0,0.05912311445122512,-0.2384370306794028,0.11526021836029789,-0.18503037083107582,0.018050342269680084,0.023733387489802978,0.8009978837048363
5933,4.0,300.26502,894.7357199999999,0.0,0.0,0.0,0.0,0.0,0.05913308126080895,-0.23897548191504375,0.12264424806654489,-0.15564608753357284,0.03867299926347786,0.003948242599986206,0.7781287681528303
5934,4.0,300.09488999999996,849.8770599999999,0.0,0.0,0.0,0.0,0.0,0.059143048070392765,-0.22613074344486678,0.13219351217648387,-0.16440417556792883,0.008495248121315711,0.0096226954592611,0.7859293145776842
5935,4.0,299.6976,869.89897,0.0,0.0,0.0,0.0,0.0,0.059153014879976595,-0.26608756199579775,0.14904621207971586,-0.14738621457338685,-0.0024225192743840378,-0.023574731775894878,0.7786807969398113
5936,4.0,300.02342000000004,902.3367099999999,0.0,0.0,0.0,0.0,0.0,0.0591629816895604,-0.24230124232077077,0.13993387154539788,-0.17192045467722783,-0.028856488413163676,0.03463787259524186,0.7907394255849053
5937,4.0,299.99318,795.9223900000001,0.0,0.0,0.0,0.0,0.0,0.05917294849914423,-0.24118013174762576,0.14794827453635787,-0.14870867820640385,-0.016546866572548585,0.01066339136339479,0.7773808274590143
5938,4.0,300.21618,955.7194800000001,0.0,0.0,0.0,0.0,0.0,0.05918291530872806,-0.22401765089132078,0.13016989973926887,-0.1966671023995318,-0.02204347580077168,-0.02989055674971827,0.7934945437993142
5939,4.0,298.87658,1154.2779,0.0,0.0,0.0,0.0,0.0,0.05919288211831186,-0.28371439510793073,0.10619349434548189,-0.17335075851838783,-0.011830898658618789,-0.03939639498687146,0.7914155572441343
5940,4.0,300.03379,1273.7173,0.0,0.0,0.0,0.0,0.0,0.05920284892789569,-0.2824703165026497,0.08810096642113842,-0.19280891959625882,0.0029450262091014574,0.012475112939697788,0.8085376094214493
5941,4.0,299.8085,1095.9848,0.0,0.0,0.0,0.0,0.0,0.05921281573747951,-0.3022771268074297,0.10850626809623488,-0.13938116388084987,0.02302176978557178,0.006000263935554944,0.7862871337179983
5942,4.0,299.70661,901.33472,0.0,0.0,0.0,0.0,0.0,0.05922278254706334,-0.2266567621017808,0.11831413389669589,-0.16564062439995683,0.014157638035500086,0.022503372795909977,0.7960150439530682
5943,4.0,299.1278,871.30711,0.0,0.0,0.0,0.0,0.0,0.05923274935664716,-0.25907777621398576,0.12040120618767389,-0.12617904196790186,-0.004773076209440946,0.021080661237749283,0.7823016563046623
5944,4.0,298.96809,963.0336,0.0,0.0,0.0,0.0,0.0,0.059242716166230974,-0.24415386880361079,0.12693052903706786,-0.17551482768446483,0.01398987928269359,0.028969984583364874,0.7807079152223723
5945,4.0,300.38007000000005,946.0807300000001,0.0,0.0,0.0,0.0,0.0,0.059252682975814805,-0.2657873562561698,0.14289325084746585,-0.16469081388871784,0.014092398914561488,-0.00029043831263902975,0.7900718052265163
5946,4.0,301.17902000000004,800.8983400000001,0.0,0.0,0.0,0.0,0.0,0.05926264978539861,-0.22610800611262277,0.15791155263715684,-0.17525665155898484,-0.027049724669599973,-0.014649121076005685,0.7980944358082883
5947,4.0,300.24307999999996,910.90411,0.0,0.0,0.0,0.0,0.0,0.05927261659498244,-0.26375721848831074,0.16103311275023086,-0.17416800551904382,-0.012302831038444888,-0.02663819010173468,0.7972829339356992
5948,4.0,300.1606,1254.3113,0.0,0.0,0.0,0.0,0.0,0.059282583404566255,-0.27323061043076174,0.1049133237716389,-0.21296203852021678,-0.026803304271780178,0.03243189236527857,0.7978737195390052
5949,4.0,299.84232000000003,1298.6539,0.0,0.0,0.0,0.0,0.0,0.05929255021415007,-0.3049091452671897,0.085570785675929,-0.17541999760760585,0.008732161801397272,0.049833382708171954,0.7935710948443693
5950,4.0,300.402,1150.1252,0.0,0.0,0.0,0.0,0.0,0.0593025170237339,-0.26696773182766376,0.09326995440177781,-0.17591157589362083,0.0037041658496477065,0.008830326484335372,0.7793360252494772
5951,4.0,300.60897,1022.9654,0.0,0.0,0.0,0.0,0.0,0.05931248383331772,-0.2765770208735267,0.09575940857246781,-0.13013833699865388,0.01852991860826058,-0.0027182678281471476,0.7988141574868192
5952,4.0,299.59186,859.0564400000001,0.0,0.0,0.0,0.0,0.0,0.05932245064290155,-0.24924758851382176,0.14106068671660585,-0.15294480329697685,0.002189427776329698,-0.012629809885465188,0.7967376533943843
5953,4.0,299.03337,812.5131200000001,0.0,0.0,0.0,0.0,0.0,0.05933241745248535,-0.24375616813936077,0.1307863205701049,-0.1340138463786369,0.013481189228989787,-0.014143981450652286,0.7827991317062593
5954,4.0,299.55644,762.5855799999999,0.0,0.0,0.0,0.0,0.0,0.059342384262069184,-0.2040836878314918,0.14143087764064088,-0.16915416031421582,-0.017631333969077182,-0.020593638524183878,0.7888320329341603
5955,4.0,299.20517,777.05198,0.0,0.0,0.0,0.0,0.0,0.05935235107165299,-0.23294325956470976,0.15013891112005684,-0.15340004643440586,-0.011427231977779988,-0.006329967614744164,0.7673651947255483
5956,4.0,299.23502,1022.0011,0.0,0.0,0.0,0.0,0.0,0.05936231788123682,-0.24315489539751978,0.1082323460642009,-0.17574025556671283,-0.008416132134957571,0.02159660008266848,0.7774990636131832
5957,4.0,300.21267,991.45199,0.0,0.0,0.0,0.0,0.0,0.059372284690820634,-0.2739790577496277,0.14371018374059086,-0.17110777743452282,-0.004632854250627116,0.03312564343049647,0.7765102733705973
5958,4.0,300.31453999999997,955.50722,0.0,0.0,0.0,0.0,0.0,0.059382251500404465,-0.23073685680945477,0.1251796835267729,-0.18489315650253382,-0.0004524184899927287,-0.012820992954083487,0.8003529905461902
5959,4.0,300.7642,1127.5841,0.0,0.0,0.0,0.0,0.0,0.05939221830998828,-0.26867371062353074,0.1148424350790659,-0.18892611481555582,-0.002207972077009878,-0.014535262162268685,0.8004200981003132
5960,4.0,299.93649,1175.8977,0.0,0.0,0.0,0.0,0.0,0.0594021851195721,-0.27214066743069276,0.1127945147719519,-0.1980973961081908,0.0018929879833483683,0.004921114176876155,0.8148137919983602
5961,4.0,299.1243,1104.3903,0.0,0.0,0.0,0.0,0.0,0.05941215192915593,-0.29053782393135075,0.099456557563848,-0.14462580719345589,-0.004085117084444666,0.02240200218965548,0.8070403398811802
5962,4.0,298.73397,938.1212800000001,0.0,0.0,0.0,0.0,0.0,0.05942211873873973,-0.26095043465130274,0.14935124088981988,-0.17356624641715485,-0.004190047542275496,-0.010716647788650792,0.8039222450834482
5963,4.0,298.67278999999996,928.1415900000001,0.0,0.0,0.0,0.0,0.0,0.05943208554832356,-0.28944501343349877,0.13475341762662688,-0.12744026476487488,-0.02336390685408808,-0.009934897168148011,0.8098119234097142
5964,4.0,298.27418,896.98895,0.0,0.0,0.0,0.0,0.0,0.05944205235790738,-0.2085281472751258,0.11488347170811589,-0.17901757248515884,0.005150531427417875,0.001040233456788049,0.7999649258903913
5965,4.0,298.87451,854.54764,0.0,0.0,0.0,0.0,0.0,0.059452019167491196,-0.24012236957073277,0.15533362146773486,-0.17497239437593085,0.007593988299218294,0.021133440422208178,0.8059487756809512
5966,4.0,299.31627000000003,860.1980599999999,0.0,0.0,0.0,0.0,0.0,0.05946198597707501,-0.19669249444703782,0.11576513101762888,-0.18055135955903182,0.018211978965382382,-0.021100817821988582,0.7889891069646623
5967,4.0,299.99438,1076.1881,0.0,0.0,0.0,0.0,0.0,0.059471952786658844,-0.2824630920294367,0.12991666827427686,-0.17458787609548182,-0.008487863047961862,-0.00999738035013962,0.7789017867866213
5968,4.0,300.32428,1260.0911,0.0,0.0,0.0,0.0,0.0,0.059481919596242674,-0.2984746220971517,0.11043274024636289,-0.19499434807444382,0.028701408458858473,0.02068930757212568,0.7692320168422893
5969,4.0,300.63655,1153.1212,0.0,0.0,0.0,0.0,0.0,0.05949188640582648,-0.3073814147161837,0.1017779935897059,-0.14491662010465686,-0.014546313681109384,0.03197447884613537,0.7755031635662032
5970,4.0,299.76104,945.1434300000001,0.0,0.0,0.0,0.0,0.0,0.05950185321541031,-0.22699457968512077,0.12081252493326788,-0.18111795888245083,0.0013086020676739687,-0.01998718908758198,0.7898676758613702
5971,4.0,299.28918,1018.8084,0.0,0.0,0.0,0.0,0.0,0.059511820024994125,-0.24927707409173178,0.1059588458873239,-0.16637408574984386,-0.017569745588248885,-0.019626581482992782,0.8076040413093133
5972,4.0,299.36471,1031.6589999999999,0.0,0.0,0.0,0.0,0.0,0.05952178683457794,-0.2324139275799688,0.0988484504500825,-0.18003311253038484,0.03955530907955506,-0.017574054940924184,0.8064683804647322
5973,4.0,299.64561000000003,847.9019300000001,0.0,0.0,0.0,0.0,0.0,0.05953175364416177,-0.2436918976855178,0.13864996207868588,-0.15269908001522586,0.0014394972619673186,0.010079887887232481,0.8105455266146152
5974,4.0,299.80685,771.06961,0.0,0.0,0.0,0.0,0.0,0.05954172045374559,-0.23708983361144476,0.12539066246259487,-0.12268673364323787,0.016399736578527984,-0.013746358806659987,0.7865398990879442
5975,4.0,300.21632,1057.1648,0.0,0.0,0.0,0.0,0.0,0.059551687263329406,-0.27919254362165874,0.1309078700521009,-0.17306704849038784,-0.004779257845651025,0.022155603070087775,0.7938716248240293
5976,4.0,300.42562000000004,1354.6149,0.0,0.0,0.0,0.0,0.0,0.05956165407291322,-0.27995916864731873,0.08459885186200662,-0.21640880125288578,0.017544142784722085,0.02746110724995027,0.7848869943323152
5977,4.0,299.19597000000005,1262.1865,0.0,0.0,0.0,0.0,0.0,0.05957162088249705,-0.2826182104872457,0.09403144224943082,-0.1950864119785298,-0.001842608681751318,0.035115215730601966,0.8165382828735542
5978,4.0,298.8485,1004.8872,0.0,0.0,0.0,0.0,0.0,0.059581587692080884,-0.2565986166643118,0.13243056203737888,-0.18129256213968284,-0.004165426780745616,-0.047313986997026956,0.8062517678583543
5979,4.0,299.4514,1085.8231,0.0,0.0,0.0,0.0,0.0,0.05959155450166469,-0.2789637112190747,0.12010749538118688,-0.17120688342680385,-0.018314544193504784,-0.02911440210686777,0.8168683490936293
5980,4.0,299.87208,990.99944,0.0,0.0,0.0,0.0,0.0,0.05960152131124852,-0.28972060732819777,0.13528393511398487,-0.14680242039577085,0.012275093316957386,-0.017389917000251182,0.7822280436848973
5981,4.0,300.18408,861.42804,0.0,0.0,0.0,0.0,0.0,0.059611488120832334,-0.2505368276760598,0.13182317939743488,-0.14313896399671586,0.01031261127152549,0.042748538398702254,0.7840663428113233
5982,4.0,300.41066,750.08053,0.0,0.0,0.0,0.0,0.0,0.05962145493041615,-0.2034784431492588,0.12184583738524787,-0.14637314685840486,0.0009754423139836611,0.014957668903706986,0.7750506359390423
5983,4.0,299.82255,691.08926,0.0,0.0,0.0,0.0,0.0,0.05963142173999998,-0.22058659353520177,0.15430885071409783,-0.14379613774657388,0.007473396946516853,0.026062298261648575,0.8072854754778732
5984,4.0,300.23942,1048.978,0.0,0.0,0.0,0.0,0.0,0.0596413885495838,-0.24204264063024875,0.09072640483474902,-0.16754688221058983,0.026544578964745977,0.000997468790487505,0.7964361101646242
5985,4.0,300.80437,1293.0345,0.0,0.0,0.0,0.0,0.0,0.05965135535916763,-0.2887516666550707,0.0956841473947901,-0.19998268977425482,0.026021339652856277,-0.007686984494721303,0.8168602633578312
5986,4.0,299.13124,1018.9141,0.0,0.0,0.0,0.0,0.0,0.05966132216875143,-0.26453293236736775,0.12188206107632288,-0.16707355255887585,0.007390975333032472,-0.04651666555958746,0.7960202419260812
5987,4.0,298.86175,1088.8174,0.0,0.0,0.0,0.0,0.0,0.05967128897833526,-0.24865346931768678,0.10566588488591092,-0.1879857275302468,-0.018092189498810085,-0.01731610882321688,0.7800024702377503
5988,4.0,300.01602,1237.185,0.0,0.0,0.0,0.0,0.0,0.059681255787919094,-0.2837198970559737,0.1073651255686129,-0.1997185557381868,0.0003212911297039657,0.016016299435935685,0.7715878739872943
5989,4.0,299.20375,937.1776,0.0,0.0,0.0,0.0,0.0,0.059691222597502896,-0.29433633643623475,0.15752974986697585,-0.14807200250606886,-0.03222139877625447,0.05906221154023644,0.8135684063004502
5990,4.0,299.46623999999997,807.3439599999999,0.0,0.0,0.0,0.0,0.0,0.05970118940708673,-0.25560951231419476,0.13503762414717588,-0.12484051832079987,-0.013240065089442686,-0.005355999701246015,0.7958804438097843
5991,4.0,300.32018,859.96418,0.0,0.0,0.0,0.0,0.0,0.059711156216670544,-0.27755968095300776,0.16723974584027784,-0.15108769824869486,-0.018596553987836984,0.00041417656683854457,0.8199191640847212
5992,4.0,299.79046,1029.0845,0.0,0.0,0.0,0.0,0.0,0.05972112302625436,-0.24897298760422074,0.11047816424834589,-0.17432116840415984,-0.0035108311444420567,-0.02919901659621857,0.7879158724587423
5993,4.0,300.19043,1246.6748,0.0,0.0,0.0,0.0,0.0,0.05973108983583819,-0.26967794279764074,0.0997567845817281,-0.2090368393553298,0.0026084782281367578,-0.014302120407009386,0.7988502697203833
5994,4.0,300.30481000000003,1144.5447,0.0,0.0,0.0,0.0,0.0,0.05974105664542201,-0.2337303826398928,0.11000895852453889,-0.2241915854034868,-0.006687068968687322,-0.022144211099213478,0.7951920619568462
5995,4.0,301.09566,894.3713300000001,0.0,0.0,0.0,0.0,0.0,0.05975102345500584,-0.25360035895590677,0.13037030034404687,-0.14863649426927986,-0.0056927404023797345,0.016111636137844686,0.8232768520010992
5996,4.0,300.05233,822.32055,0.0,0.0,0.0,0.0,0.0,0.05976099026458964,-0.21317432454866778,0.13529391562746987,-0.17208449986841784,0.026388828238874572,0.02030453901890198,0.7956475178767962
5997,4.0,299.86367,985.0288400000001,0.0,0.0,0.0,0.0,0.0,0.05977095707417347,-0.27875469798844676,0.13068827849042886,-0.15135774966534685,0.0024092576544252177,0.03259158564728907,0.8225393173858102
5998,4.0,299.42862,1167.5486,0.0,0.0,0.0,0.0,0.0,0.0597809238837573,-0.26567952618052776,0.11508566576557089,-0.20431178056150281,0.007366362272203352,-0.014432435515620486,0.7899351177880263
5999,4.0,299.98267000000004,1038.9427,0.0,0.0,0.0,0.0,0.0,0.059790890693341106,-0.25593647798896374,0.13397698433999888,-0.1938531346193148,-0.0066565388312492335,-0.013280601172943288,0.7833474722628763
6000,4.0,299.06632,792.39063,0.0,0.0,0.0,0.0,0.0,0.05980085750292494,-0.23848626450176177,0.12984328870203488,-0.13222400087199287,0.013700757485909485,0.021824068650617878,0.7545103034893693
6001,4.0,300.08061000000004,945.8439,0.0,0.0,0.0,0.0,0.0,0.059810824312508754,-0.2868296629378837,0.15129357040401287,-0.15197683534394588,-0.01993099221053578,0.03280225452858047,0.7948784813158982
6002,4.0,300.06161000000003,1078.6232,0.0,0.0,0.0,0.0,0.0,0.05982079112209257,-0.27366244749088076,0.11705577859750589,-0.17126784055281985,-0.018694265747980384,-0.003736618223850507,0.8026963441849612
6003,4.0,300.88517,1088.2903,0.0,0.0,0.0,0.0,0.0,0.0598307579316764,-0.2818349377624427,0.1318345683285589,-0.18081271728982584,-0.017906698869253584,0.006637580111278154,0.8368540487035642
6004,4.0,300.76948,1116.1297,0.0,0.0,0.0,0.0,0.0,0.05984072474126022,-0.25665599701747477,0.100709117072466,-0.18332866795063082,0.04407285323965195,-0.003144294304242687,0.8049823276030702
6005,4.0,300.35663,1134.0421,0.0,0.0,0.0,0.0,0.0,0.05985069155084405,-0.2417370849300928,0.0999997062269526,-0.2029830955728718,0.015045975676422185,-0.02771724167647877,0.8130429550635923
6006,4.0,299.9203,1175.5631,0.0,0.0,0.0,0.0,0.0,0.05986065836042785,-0.2863585725688907,0.11774010745004389,-0.1887233634705458,0.014632840173398885,-0.042614047686429055,0.7947455834327822
6007,4.0,300.29106,1254.7872,0.0,0.0,0.0,0.0,0.0,0.05987062517001168,-0.2988525441194497,0.11245647427358989,-0.19502790691775582,-0.01883074344369968,0.012746994286030388,0.8357260277647371
6008,4.0,299.63313,1108.3995,0.0,0.0,0.0,0.0,0.0,0.05988059197959551,-0.27836574167255973,0.1134055451122559,-0.17196556457167983,0.017828499266285883,0.036496124642637066,0.7945806161840012
6009,4.0,300.59893999999997,869.32466,0.0,0.0,0.0,0.0,0.0,0.059890558789179316,-0.2682882500204887,0.14448556324711484,-0.14045031498886687,-0.019317585798747282,0.02108430285860868,0.8172812991718842
6010,4.0,299.52106000000003,886.7392,0.0,0.0,0.0,0.0,0.0,0.059900525598763146,-0.22826925844342177,0.11844015181163288,-0.15971746829038685,-0.020177980028411584,-0.0016436315920388086,0.7667276374976263
6011,4.0,300.86692,1031.7741,0.0,0.0,0.0,0.0,0.0,0.05991049240834696,-0.23696976347459478,0.11895959447539789,-0.19562341426652782,-0.014541429815627385,-0.026893639571195574,0.7860073044378812
6012,4.0,300.16379,1040.7306,0.0,0.0,0.0,0.0,0.0,0.05992045921793078,-0.24756888641064675,0.09429602616854323,-0.16308326220756483,0.01972360220656798,-0.0017214806104719083,0.7580644909976403
6013,4.0,300.29898,927.8509300000001,0.0,0.0,0.0,0.0,0.0,0.05993042602751461,-0.24106552302881476,0.08748875260471761,-0.12846673777867987,0.01901560079194368,0.0027048431762472375,0.7764607051757053
6014,4.0,299.71486,876.64031,0.0,0.0,0.0,0.0,0.0,0.05994039283709843,-0.26697837095371374,0.13707917111116086,-0.13657756164915588,0.0029018387540641873,0.014757826599734087,0.8072325432926493
6015,4.0,300.86307,1017.9266,0.0,0.0,0.0,0.0,0.0,0.05995035964668226,-0.24628387250132575,0.11630136323555089,-0.17944175950702282,-0.0052176568147426355,0.02907262681849487,0.8183874035110482
6016,4.0,298.48925,1023.4512,0.0,0.0,0.0,0.0,0.0,0.05996032645626606,-0.2434995220215318,0.11937011275341289,-0.1869742100879178,-0.0017473650975265084,0.03412912073328197,0.8106948695468542
6017,4.0,300.43692000000004,1197.45,0.0,0.0,0.0,0.0,0.0,0.05997029326584989,-0.2167795291994738,0.095131712294519,-0.2423470817552948,0.015800747702412386,-0.02922218759950537,0.8018283941493012
6018,4.0,300.09913,1012.0228,0.0,0.0,0.0,0.0,0.0,0.05998026007543372,-0.26339427230249074,0.1169830171078249,-0.16121840579601784,-0.005330500755854464,-0.05113097611748445,0.8213619916971172
6019,4.0,301.3704,970.5440199999999,0.0,0.0,0.0,0.0,0.0,0.059990226885017525,-0.2590977676384587,0.13938335250106587,-0.17530673651142784,0.03219479792137917,-0.02888050953328437,0.8050607024983053
6020,4.0,300.29694,1177.688,0.0,0.0,0.0,0.0,0.0,0.060000193694601356,-0.3277230893512507,0.1095212204564029,-0.13978586610329086,0.0023199660026128176,0.013379939199497188,0.8124332723459212
6021,4.0,300.34327,1234.2746,0.0,0.0,0.0,0.0,0.0,0.06001016050418517,-0.3318320414217727,0.1040658413879989,-0.14742246866196487,0.030836538188829372,0.006771898976334393,0.7959256651617472
6022,4.0,299.72836,1015.1129,0.0,0.0,0.0,0.0,0.0,0.06002012731376899,-0.25683286995493076,0.13528863659444887,-0.18702473073790382,-0.016429646708229884,-0.005852925009363724,0.7856567199032812
6023,4.0,300.36084,867.7652699999999,0.0,0.0,0.0,0.0,0.0,0.06003009412335282,-0.2024227885325738,0.1020849577075009,-0.16344113201038382,0.01074548893949719,0.013031305171339687,0.7882979994689552
6024,4.0,299.4195,982.3839800000001,0.0,0.0,0.0,0.0,0.0,0.06004006093293664,-0.22813715089538378,0.12830930911064287,-0.1987923539542778,-0.02126241601418708,0.002340694566533568,0.8081294216186642
6025,4.0,298.93671,1195.4154,0.0,0.0,0.0,0.0,0.0,0.06005002774252047,-0.2582986679470938,0.09692475156547821,-0.20200252278859682,0.008982058255010132,-0.036030771295710265,0.8155029540538752
6026,4.0,298.84337,1058.5966,0.0,0.0,0.0,0.0,0.0,0.06005999455210427,-0.26636235542291775,0.11860693277809288,-0.17403151059807284,-0.03205897174547417,-0.02017231900010288,0.8158147919046512
6027,4.0,300.52122,873.9151099999999,0.0,0.0,0.0,0.0,0.0,0.0600699613616881,-0.25687684500927077,0.14599455609104087,-0.15476607982172286,0.035728761970904264,-0.00013604351805144988,0.8231708559081382
6028,4.0,301.1868,928.78483,0.0,0.0,0.0,0.0,0.0,0.06007992817127193,-0.2152902238049908,0.0930938799054006,-0.16013105671620484,-0.0016897610187414282,0.045081715966718956,0.7821300320027242
6029,4.0,301.62809,1135.3204,0.0,0.0,0.0,0.0,0.0,0.060089894980855735,-0.25298339097001676,0.08259249000774412,-0.17471816992584083,-0.0040136303647144754,-0.002176532040981988,0.7750808409245232
6030,4.0,300.56895,1165.6858,0.0,0.0,0.0,0.0,0.0,0.060099861790439565,-0.27803850242026373,0.11374991842374288,-0.1900507920290528,-0.020406505416215283,-0.03189329319512297,0.7801198856593382
6031,4.0,301.36679,1001.0267,0.0,0.0,0.0,0.0,0.0,0.06010982860002338,-0.25542506026599077,0.1057140953256689,-0.15457615622297885,0.018745776343314084,-0.03635146191260996,0.7685433411468223
6032,4.0,300.95396,770.31007,0.0,0.0,0.0,0.0,0.0,0.0601197954096072,-0.2768134019893557,0.16821336772886683,-0.12555499136381287,0.019565379150452582,0.00017233459025809984,0.8229841139147083
6033,4.0,300.77217,914.5568099999999,0.0,0.0,0.0,0.0,0.0,0.06012976221919103,-0.2682730917989927,0.12776177915410586,-0.1374911282043179,-0.00929611674470529,-0.023846627307728876,0.7842470357016562
6034,4.0,299.55124,1079.2857,0.0,0.0,0.0,0.0,0.0,0.060139729028774846,-0.24964499533554274,0.10401779306825691,-0.18244870076878483,-0.026989114075118177,0.006454770642811265,0.8240197872394213
6035,4.0,299.94342,1022.1228,0.0,0.0,0.0,0.0,0.0,0.06014969583835868,-0.2473213291462148,0.13753120224577287,-0.2009097021582438,0.019258977386463084,0.032606471304508174,0.8241790802876422
6036,4.0,299.31077999999997,1117.1368,0.0,0.0,0.0,0.0,0.0,0.06015966264794248,-0.24052354568282577,0.09179709405641782,-0.19085525181344684,0.033220035783312264,0.05275869654187795,0.8289251741535452
6037,4.0,298.97812000000005,1088.5296,0.0,0.0,0.0,0.0,0.0,0.06016962945752631,-0.2585536219372558,0.1156991076411129,-0.1880313035197448,0.012984133312934187,-0.024971107950706475,0.8073657856807992
6038,4.0,298.86877999999996,1144.8215,0.0,0.0,0.0,0.0,0.0,0.06017959626711014,-0.3147754452009177,0.11671164846604289,-0.14993334293976884,-0.013520169973586885,-0.04428919024200276,0.8266007277616402
6039,4.0,300.06637,1122.3856,0.0,0.0,0.0,0.0,0.0,0.060189563076693944,-0.27516435771660774,0.09362042747886681,-0.15963327733957783,0.012452765708742288,-0.029912277792111974,0.7794565513488723
6040,4.0,300.38752,1014.6342,0.0,0.0,0.0,0.0,0.0,0.060199529886277775,-0.26915741595626874,0.13213412558812287,-0.17140015075087783,0.0017347256131290882,0.029136510210799674,0.7876856721685233
6041,4.0,300.16353,852.9644699999999,0.0,0.0,0.0,0.0,0.0,0.06020949669586159,-0.23922994954515778,0.12377747711088588,-0.14382742690966188,-0.024995071315571476,0.0013928790434164584,0.7699130627645032
6042,4.0,300.1957,878.50221,0.0,0.0,0.0,0.0,0.0,0.06021946350544541,-0.24890150280966578,0.14513737690394385,-0.16327861682684486,-0.044994985811159356,0.011393910234991388,0.7935549943002803
6043,4.0,300.23087000000004,845.2561099999999,0.0,0.0,0.0,0.0,0.0,0.06022943031502924,-0.24006254728482876,0.15623475544416987,-0.17310895651452382,0.01255672820875259,0.015083182220094186,0.8025708835575793
6044,4.0,299.75407,840.37092,0.0,0.0,0.0,0.0,0.0,0.060239397124613056,-0.2740099517451767,0.14783832676800687,-0.12928014456145687,0.01822859120077188,0.015904648394166585,0.8258247200400542
6045,4.0,300.69815,1162.6708,0.0,0.0,0.0,0.0,0.0,0.06024936393419689,-0.24887184497923873,0.1099639398225959,-0.2145149861534808,0.024951866331307478,-0.05258296857703495,0.8179753248278793
6046,4.0,298.97287,1240.3218,0.0,0.0,0.0,0.0,0.0,0.06025933074378069,-0.27712203796981577,0.10717976159531889,-0.2070845698576558,-0.013632567780679688,-0.013646930600847186,0.8216690875374252
6047,4.0,299.33,1228.7966,0.0,0.0,0.0,0.0,0.0,0.06026929755336452,-0.25141657194288375,0.07923217777360712,-0.20133907702061982,-0.0033938843510253067,0.016925550558921785,0.8093337200250191
6048,4.0,299.38244,1138.7456,0.0,0.0,0.0,0.0,0.0,0.06027926436294835,-0.26732925946334374,0.11664840139480089,-0.19546936985382482,-0.008249989212085543,0.04698742763554806,0.8088242781397412
6049,4.0,300.68247,1060.0601,0.0,0.0,0.0,0.0,0.0,0.060289231172532154,-0.28676248445625374,0.1084131301470429,-0.14388243625759087,-0.019543645949057678,0.010128931015922661,0.8103159950694622
6050,4.0,299.5743,815.59684,0.0,0.0,0.0,0.0,0.0,0.060299197982115985,-0.2901987701828887,0.16629842636487682,-0.12402073819489387,-0.022456254639759775,-0.015191856333069485,0.8144917608515783
6051,4.0,301.82454,831.0815200000001,0.0,0.0,0.0,0.0,0.0,0.0603091647916998,-0.24484006203633277,0.15745980521257286,-0.16524776707118485,0.013677868166150487,-0.01153789206095129,0.7918032368648953
6052,4.0,300.93047,915.94146,0.0,0.0,0.0,0.0,0.0,0.06031913160128362,-0.25156876210790374,0.12993522088360787,-0.15678979358394785,0.005684034456195525,0.007100264050816503,0.7870063183739763
6053,4.0,300.72115,1055.3029,0.0,0.0,0.0,0.0,0.0,0.06032909841086745,-0.2773302102028607,0.15718271170772585,-0.2006382321914518,-0.0005993444053106874,-0.015544791607901487,0.8019615960074473
6054,4.0,300.03746,1118.1991,0.0,0.0,0.0,0.0,0.0,0.060339065220451266,-0.27174655367179673,0.1001228394188549,-0.16828088058302984,-0.032516472404125966,0.001968934624718718,0.7901912674133063
6055,4.0,299.88551,994.3838,0.0,0.0,0.0,0.0,0.0,0.060349032030035096,-0.2800676168055217,0.13485081122623888,-0.15705103985723085,0.017604072475136682,0.023863677267161577,0.8155809743115752
6056,4.0,299.11382000000003,1009.3148,0.0,0.0,0.0,0.0,0.0,0.0603589988396189,-0.26912391790796275,0.13622905427726087,-0.17391164311124283,-0.011565043110630889,0.015848980433672586,0.8118476036556203
6057,4.0,299.40496,1047.755,0.0,0.0,0.0,0.0,0.0,0.06036896564920273,-0.22570054784990978,0.09840308346137822,-0.1911939002618688,0.02220311234077658,-0.026775601000796075,0.8253972906178701
6058,4.0,299.76479,955.55887,0.0,0.0,0.0,0.0,0.0,0.06037893245878655,-0.24383373243451575,0.13487198815332888,-0.18150429088057882,-0.02333841348157208,-0.03465165786285236,0.8021412351176763
6059,4.0,299.95655,1056.6709,0.0,0.0,0.0,0.0,0.0,0.060388899268370363,-0.23470044802063075,0.10584668923375491,-0.19234780974075083,0.023162023864413777,0.017586686116670785,0.8082636873894152
6060,4.0,300.02111,1080.1404,0.0,0.0,0.0,0.0,0.0,0.06039886607795418,-0.26754589233472376,0.11355700573720388,-0.17434681376419084,-0.018345427043302682,0.017870074944389084,0.7740828301060272
6061,4.0,299.98663999999997,1170.5763,0.0,0.0,0.0,0.0,0.0,0.06040883288753801,-0.31355131749010573,0.11339776335148788,-0.15567242190367184,-0.017323726437468684,-0.005010301970553305,0.8078340085520093
6062,4.0,300.78106,1135.3351,0.0,0.0,0.0,0.0,0.0,0.06041879969712183,-0.3229121373464467,0.1328902837402499,-0.15509167760885686,-0.03870286582342546,-0.013288150899438385,0.8058020773314732
6063,4.0,300.27712,1139.0217,0.0,0.0,0.0,0.0,0.0,0.060428766506705645,-0.26117714936117775,0.1052753478998679,-0.19033236409934182,0.025328388041967274,-0.001095271074394839,0.8084352914263512
6064,4.0,300.52637000000004,1074.0721,0.0,0.0,0.0,0.0,0.0,0.060438733316289475,-0.27983773062283374,0.14752661050724286,-0.19417997870407183,0.011644196181942689,-0.015246548533717185,0.8440879350099932
6065,4.0,300.93422999999996,1126.5903,0.0,0.0,0.0,0.0,0.0,0.06044870012587328,-0.23453836853463475,0.1065190718676139,-0.2144360235731878,-0.01111008469647999,-0.03932757706657966,0.8072905619933752
6066,4.0,299.96434,1139.8084,0.0,0.0,0.0,0.0,0.0,0.06045866693545711,-0.2526893255259947,0.1125967486174339,-0.2063807055431898,-0.00991422058395739,-0.011918617746275988,0.8486742899976312
6067,4.0,299.36895,1003.9585,0.0,0.0,0.0,0.0,0.0,0.060468633745040926,-0.2575611738618087,0.13252383170908388,-0.18014098313603083,0.0023260313177114176,0.05552412356280435,0.8063105667616572
6068,4.0,300.41112999999996,1169.4244,0.0,0.0,0.0,0.0,0.0,0.060478600554624756,-0.2660943406389667,0.10169317442383491,-0.19107466099010081,0.004406679096430366,0.03350950512488067,0.8321509875694082
6069,4.0,299.2123,1036.8226,0.0,0.0,0.0,0.0,0.0,0.06048856736420856,-0.25800826033593277,0.12549739822812886,-0.18265730869937283,-0.015437959583607986,-0.007989559111758093,0.7950958437273502
6070,4.0,300.00444,898.7520199999999,0.0,0.0,0.0,0.0,0.0,0.06049853417379239,-0.23170170395217776,0.11939457261082688,-0.16089104495370984,-0.03322582042813317,-0.026141129119428577,0.8140450796774942
6071,4.0,300.0188,909.2329599999999,0.0,0.0,0.0,0.0,0.0,0.06050850098337622,-0.23395401706946375,0.1294605334767599,-0.17189063472678484,0.007077222743542503,-0.004896302823002466,0.7636865193099913
6072,4.0,299.57794,1097.2278,0.0,0.0,0.0,0.0,0.0,0.06051846779296002,-0.27422179194358376,0.1109260106600449,-0.17023407213829483,0.001874373565761268,-0.014868824095188684,0.8108378391359642
6073,4.0,299.90823,1029.6443,0.0,0.0,0.0,0.0,0.0,0.060528434602543854,-0.30673311703720174,0.13255619491727785,-0.13880923486190486,-0.014387475582183288,-0.018602023511876783,0.7982519860663372
6074,4.0,301.15295,971.09245,0.0,0.0,0.0,0.0,0.0,0.06053840141212767,-0.25436244462111873,0.1277089482938919,-0.16853435522804583,0.029788876088933176,0.0014081803358265785,0.8263045446249092
6075,4.0,300.01612,894.2397800000001,0.0,0.0,0.0,0.0,0.0,0.06054836822171149,-0.24718367912012976,0.14398797638800687,-0.16863086730007085,0.019722027615912584,0.049371314318069355,0.8213984383032142
6076,4.0,300.10422,1159.1684,0.0,0.0,0.0,0.0,0.0,0.060558335031295304,-0.25337192172086176,0.12314459096592488,-0.22213090827761378,0.04015364238285596,0.009059092519037821,0.8213161016000882
6077,4.0,300.91815,1269.8749,0.0,0.0,0.0,0.0,0.0,0.060568301840879135,-0.25644509914166075,0.0914473069496465,-0.22101246255223178,-0.01242534412128599,-0.01070730562272879,0.7926335142618373
6078,4.0,301.72476,1018.0518,0.0,0.0,0.0,0.0,0.0,0.060578268650462966,-0.26141017661917576,0.12979486547975588,-0.1778470051746328,-0.01145439822621109,-0.016568265401410483,0.8055755146091133
6079,4.0,301.02545,1001.6116,0.0,0.0,0.0,0.0,0.0,0.06058823546004677,-0.28574204028054373,0.1141238887706509,-0.13284676464845485,-0.027939073534121873,0.0007513719842196414,0.7967931085723573
6080,4.0,300.24753,1110.9083,0.0,0.0,0.0,0.0,0.0,0.0605982022696306,-0.28307715198753974,0.11214200197255389,-0.16675323380476284,-0.008117093558119763,0.007771671026154213,0.8081241729831462
6081,4.0,299.79318,1249.0389,0.0,0.0,0.0,0.0,0.0,0.060608169079214416,-0.3191062382483337,0.11150305659199489,-0.17207346557482883,-0.035097509185104465,0.01163794848182609,0.8324268854391372
6082,4.0,300.37399,1258.2576,0.0,0.0,0.0,0.0,0.0,0.06061813588879823,-0.2724220064534587,0.1144330719061649,-0.22448994702793276,0.029340962802727574,-0.02547930961786208,0.8331382275393412
6083,4.0,300.13246000000004,1145.2336,0.0,0.0,0.0,0.0,0.0,0.060628102698382064,-0.25516898156821777,0.1070561045531149,-0.20000954090190481,0.005681679764288135,-0.0004495320241678566,0.8115284400066212
6084,4.0,300.18504,1073.9986,0.0,0.0,0.0,0.0,0.0,0.06063806950796588,-0.28113087079795673,0.12555915582172386,-0.17089705181122583,0.02909059072951777,-0.03643152792226186,0.8040101546621242
6085,4.0,300.26607,1175.7771,0.0,0.0,0.0,0.0,0.0,0.0606480363175497,-0.3002343639433247,0.12448057135527588,-0.18165307652526283,0.004687234268919006,-0.013006107667852887,0.8048575053232513
6086,4.0,299.45081,1029.0682,0.0,0.0,0.0,0.0,0.0,0.060658003127133514,-0.2502072680810348,0.12177257940301787,-0.18437632802402684,0.022574715735450977,-0.0073283005454469535,0.7933912936141243
6087,4.0,300.01335,837.9092400000001,0.0,0.0,0.0,0.0,0.0,0.060667969936717345,-0.22864863954586379,0.12962799332078687,-0.15568284824720086,0.001148687187866599,0.05939098080018345,0.8168773264895153
6088,4.0,300.8385,974.1638300000001,0.0,0.0,0.0,0.0,0.0,0.060677936746301175,-0.22607491336435678,0.1091343615682229,-0.17918092866628083,-0.014150567576302288,0.012634079721386589,0.7818616119187333
6089,4.0,299.6301,1088.2811,0.0,0.0,0.0,0.0,0.0,0.06068790355588498,-0.24292925473275076,0.11369935724375288,-0.2015803825319348,-0.025012615741052978,0.0016692249723396784,0.8209169925181992
6090,4.0,299.85537,1017.3417,0.0,0.0,0.0,0.0,0.0,0.06069787036546881,-0.2915790903966157,0.12726308785238888,-0.14493047123352387,-0.001212637150702969,-0.022702423751554776,0.8037455342660083
6091,4.0,300.41022000000004,1060.224,0.0,0.0,0.0,0.0,0.0,0.060707837175052626,-0.2789820814433877,0.12903460366472388,-0.17233414442805584,-0.004604078657062185,0.006454127330322774,0.8385055754390572
6092,4.0,298.75012000000004,1088.2339,0.0,0.0,0.0,0.0,0.0,0.06071780398463644,-0.28936207891281374,0.1156719120084289,-0.15710575536263083,0.006329870444059573,-0.04308767016742196,0.8090916748411312
6093,4.0,300.13195,1073.9511,0.0,0.0,0.0,0.0,0.0,0.06072777079422027,-0.2900067896864417,0.13634942838914085,-0.17279697680873382,-0.010874521273481689,0.006801223244828474,0.8363488016737002
6094,4.0,301.56266,1101.9149,0.0,0.0,0.0,0.0,0.0,0.06073773760380409,-0.25440430198274977,0.14116569995696987,-0.22171602289166778,0.007408877638449294,-0.005828241831627684,0.7984762081809662
6095,4.0,300.40873,1062.6163,0.0,0.0,0.0,0.0,0.0,0.06074770441338791,-0.2377699372110658,0.12078122563767889,-0.2060201202301028,0.01164558838758009,0.01982210531503948,0.8293654718519992
6096,4.0,299.93604,895.6904,0.0,0.0,0.0,0.0,0.0,0.060757671222971724,-0.27075279850372075,0.15547042036373585,-0.15698512793822586,-0.013483531863220988,-0.017963350695594682,0.8186576170477162
6097,4.0,301.09942,957.77223,0.0,0.0,0.0,0.0,0.0,0.060767638032555554,-0.25689053401812173,0.15102318461482786,-0.18527149395737283,-0.012608404977102687,-0.00041244179147483564,0.8322250966817222
6098,4.0,300.47683,1004.2911,0.0,0.0,0.0,0.0,0.0,0.060777604842139385,-0.27785730290488075,0.14060936485706388,-0.16803145893841384,-0.0009337812898245382,-0.01039787525419039,0.8298742145947082
6099,4.0,300.22477000000003,1006.2706,0.0,0.0,0.0,0.0,0.0,0.06078757165172319,-0.25170169038852275,0.13823154044989086,-0.1924109960169868,0.00969752316854602,0.044521728100202454,0.8335537715378522
6100,4.0,299.52153,939.49693,0.0,0.0,0.0,0.0,0.0,0.06079753846130702,-0.2240407428610998,0.1057758731842659,-0.16731873881807383,0.023969192066325078,7.918374745857743e-05,0.8027282210331073
6101,4.0,299.52852,1038.5032,0.0,0.0,0.0,0.0,0.0,0.060807505270890835,-0.2562402908989478,0.10513929880894089,-0.16457803915258784,-0.01989310070979618,0.024066718401700177,0.8115110931649092
6102,4.0,299.32587,1237.7663,0.0,0.0,0.0,0.0,0.0,0.06081747208047465,-0.3319140437523657,0.12341273747238889,-0.16774875202801284,-0.013028618032074488,-0.008270542787714021,0.8005124355819262
6103,4.0,299.87795,1284.578,0.0,0.0,0.0,0.0,0.0,0.06082743889005848,-0.2874541999020207,0.09354038477396721,-0.1965658179195358,-0.011654536399213189,0.0030811094465568274,0.8034161063934963
6104,4.0,299.75345,1148.1223,0.0,0.0,0.0,0.0,0.0,0.0608374056996423,-0.2932549351345087,0.1117521641290799,-0.16749773958073982,0.00029519195521817776,-0.024618309464637975,0.8135014102038383
6105,4.0,300.0172,1071.6487,0.0,0.0,0.0,0.0,0.0,0.060847372509226116,-0.2538320487237728,0.14180185889975386,-0.2137242457754408,-0.0016780245428331285,-0.008391781809879383,0.8282459723465132
6106,4.0,300.01212000000004,1020.6636,0.0,0.0,0.0,0.0,0.0,0.06085733931880993,-0.22975099485965778,0.12293742185047889,-0.2034426652882278,0.017623002013504883,0.01036159380785969,0.8044478685728232
6107,4.0,299.97886,939.1828300000001,0.0,0.0,0.0,0.0,0.0,0.060867306128393764,-0.26757685725777974,0.14933769373598288,-0.16724896641618783,0.002176355431489558,0.038172354415568065,0.8245118113554802
6108,4.0,300.18197000000004,888.0627900000001,0.0,0.0,0.0,0.0,0.0,0.060877272937977595,-0.24248047613095977,0.11020949085182989,-0.13767793099275386,0.02987030390671947,0.01024908049025549,0.7862172903886052
6109,4.0,299.59549,770.84825,0.0,0.0,0.0,0.0,0.0,0.0608872397475614,-0.2545347680656258,0.13465352129926786,-0.11443737821908988,-0.02078004513183078,0.009293003128473,0.8023945071126722
6110,4.0,300.3363,894.40934,0.0,0.0,0.0,0.0,0.0,0.06089720655714523,-0.2679937995414287,0.14367101149172484,-0.14755531588257584,0.0024024943113327276,0.0031128090772603373,0.8112524610768842
6111,4.0,299.99681,1116.6626,0.0,0.0,0.0,0.0,0.0,0.060907173366729045,-0.26779860704216474,0.10679151455450189,-0.1784304447147138,-0.029639947575985072,-0.0021024723752728677,0.8323097638600783
6112,4.0,298.86487,1165.6891,0.0,0.0,0.0,0.0,0.0,0.06091714017631286,-0.2543566792280497,0.10663968915951791,-0.2066233789421398,-0.014654005954737787,0.0005612130885374194,0.8134337250971583
6113,4.0,300.26461,1269.1885,0.0,0.0,0.0,0.0,0.0,0.06092710698589669,-0.3088550147341167,0.1212494079788849,-0.19819600560792283,-0.02263547223794718,0.004290483222662725,0.8315839728134482
6114,4.0,300.03529,1275.386,0.0,0.0,0.0,0.0,0.0,0.06093707379548051,-0.28397326024347874,0.08580784364282482,-0.1895200921566768,0.004603376677392905,0.00989588947109825,0.8135219893133692
6115,4.0,299.37658999999996,1111.4427,0.0,0.0,0.0,0.0,0.0,0.060947040605064326,-0.2844285439109117,0.14696474306179086,-0.2003870373591608,-0.015988265845418986,0.015403899181496487,0.8307964343057243
6116,4.0,300.09306000000004,986.08794,0.0,0.0,0.0,0.0,0.0,0.06095700741464814,-0.26878968722997676,0.14167023771176387,-0.17262665959942486,0.03504374005529787,-0.02229761615110338,0.8348009810859423
6117,4.0,301.35179,892.5423099999999,0.0,0.0,0.0,0.0,0.0,0.06096697422423197,-0.21618332270813279,0.14408935206051188,-0.1992166017711478,0.003244628254319877,-0.012811597085906188,0.8192205281407712
6118,4.0,300.2529,697.99192,0.0,0.0,0.0,0.0,0.0,0.060976941033815804,-0.22409863997181378,0.16220107600799985,-0.15027455491094385,0.03486411715707047,-0.004412172938472566,0.8344620185299891
6119,4.0,300.15191,991.1726,0.0,0.0,0.0,0.0,0.0,0.06098690784339961,-0.2675185041845207,0.11455959644615189,-0.14833281308180887,-0.023970538675707975,0.000986465401026555,0.8128719893742192
6120,4.0,299.42009,1305.1796,0.0,0.0,0.0,0.0,0.0,0.06099687465298344,-0.28600069263357075,0.08706985170862531,-0.19781116308744182,-0.029015972965653572,-0.0016237694582785685,0.7986261793282672
6121,4.0,300.16957,1277.2003,0.0,0.0,0.0,0.0,0.0,0.061006841462567254,-0.2958322178238667,0.08652805269465393,-0.17893283437929583,-0.02213768880831978,-0.016071400989623785,0.8114057252870103
6122,4.0,299.9497,1137.9241,0.0,0.0,0.0,0.0,0.0,0.06101680827215107,-0.2748146243120917,0.1021067324521499,-0.17319262057528084,0.011997563101317289,0.010872757205057591,0.8174615259671713
6123,4.0,299.30662,1028.2097,0.0,0.0,0.0,0.0,0.0,0.0610267750817349,-0.23166438595099476,0.14455130291360288,-0.22543698123389777,0.01132667703785599,-0.001950169840816778,0.8374819192605302
6124,4.0,299.73557999999997,966.16892,0.0,0.0,0.0,0.0,0.0,0.06103674189131872,-0.25423308298085173,0.13734140023704086,-0.17679953761875583,0.012488144349233886,-0.015613351149417785,0.8272972764103842
6125,4.0,299.75145,888.71411,0.0,0.0,0.0,0.0,0.0,0.061046708700902536,-0.2544509317523518,0.16131149308270484,-0.17700746667177683,-0.0009479263321480452,-0.005824755542008614,0.8142813088058082
6126,4.0,299.59148,839.01179,0.0,0.0,0.0,0.0,0.0,0.06105667551048635,-0.26150160217569873,0.14877201647015487,-0.14230904123730886,0.015447254126775285,0.026801479408350076,0.7941596715624573
6127,4.0,299.92715,945.17574,0.0,0.0,0.0,0.0,0.0,0.06106664232007018,-0.27319650443239574,0.14134889557504987,-0.15546221303792584,0.003196354081130587,0.005966885856060785,0.8050805723327663
6128,4.0,299.51092,1127.2866,0.0,0.0,0.0,0.0,0.0,0.061076609129654014,-0.27262387627088175,0.1157919112177719,-0.18583500286798682,-0.0025454215465885474,-0.015299105816404186,0.7995639828258212
6129,4.0,299.51591,1219.2062,0.0,0.0,0.0,0.0,0.0,0.06108657593923782,-0.2595739141254507,0.08721419830462122,-0.1982485324931068,0.029159905142358573,-0.021346329334468683,0.8189932054808362
6130,4.0,300.88766,1229.3006,0.0,0.0,0.0,0.0,0.0,0.06109654274882165,-0.29318264987237475,0.1098205142709409,-0.19031454103008283,-0.001956100900277128,-0.005204751757494005,0.8398198925412702
6131,4.0,301.47478,1060.1860000000001,0.0,0.0,0.0,0.0,0.0,0.061106509558405464,-0.26548872105419674,0.12244431355681289,-0.17922566365819584,0.03119524493623097,-0.016793328513622485,0.8460055310892453
6132,4.0,300.6057,993.6857,0.0,0.0,0.0,0.0,0.0,0.06111647636798928,-0.26877247211077776,0.11879210423386789,-0.15207527259116085,-0.03527990636210567,0.0068397391102796926,0.8313659315244293
6133,4.0,300.68827000000005,1064.5624,0.0,0.0,0.0,0.0,0.0,0.06112644317757311,-0.2932703973310347,0.15091765461691284,-0.18124765489525083,-0.012699816348124287,-0.005714398927242265,0.8291682731175373
6134,4.0,299.19325,976.5767099999999,0.0,0.0,0.0,0.0,0.0,0.06113640998715693,-0.25215692339345075,0.13816593250591586,-0.18286395092476682,-0.016050224062533786,0.00958388007708032,0.8150614303228002
6135,4.0,298.435,998.70115,0.0,0.0,0.0,0.0,0.0,0.06114637679674076,-0.2347902422444928,0.12473097585248889,-0.1935209405740298,0.03159218566290597,-0.0041980356007638555,0.7960754437915293
6136,4.0,299.84174,1015.5697,0.0,0.0,0.0,0.0,0.0,0.06115634360632456,-0.23998071720675276,0.13571014863604888,-0.2044372513213858,0.0077410947858365725,0.0013419666709417986,0.8160867583639922
6137,4.0,300.34096,1047.6663,0.0,0.0,0.0,0.0,0.0,0.06116631041590839,-0.25229869734744276,0.0953608436058825,-0.16152654528392885,0.026186204563377176,-0.024823410536629877,0.7787427166534223
6138,4.0,299.5963,1109.5399,0.0,0.0,0.0,0.0,0.0,0.06117627722549222,-0.26989644004920477,0.10723247086552092,-0.17460847547001485,-0.005533641695527915,0.0014637019830061387,0.8280329973079942
6139,4.0,300.24202,1196.8387,0.0,0.0,0.0,0.0,0.0,0.061186244035076026,-0.3073892572719577,0.10062228559189641,-0.15704209285884785,0.01902115542899188,-0.003078810280754917,0.8163824551406752
6140,4.0,300.47033,1271.6926,0.0,0.0,0.0,0.0,0.0,0.06119621084465986,-0.27347897829527373,0.09527408406607,-0.20835790099332377,-0.003889162621105466,0.02202489279393768,0.8267430894006902
6141,4.0,300.3022,1063.7427,0.0,0.0,0.0,0.0,0.0,0.061206177654243674,-0.27021560369820374,0.12819981730483687,-0.18133543275141384,-0.0002406392487117448,-0.008659439929795181,0.8147706376766013
6142,4.0,300.7847,942.2905400000001,0.0,0.0,0.0,0.0,0.0,0.06121614446382749,-0.25439288265412274,0.1244441348816799,-0.15648404536627286,-0.011971457725740887,0.014368116425772686,0.8304578466523083
6143,4.0,299.99301,1025.9789,0.0,0.0,0.0,0.0,0.0,0.06122611127341132,-0.2860041275514097,0.15239381815759886,-0.17826164738055483,-0.020118788997319878,-0.02127210167189298,0.8160838402037042
6144,4.0,300.6492,1189.2449,0.0,0.0,0.0,0.0,0.0,0.06123607808299514,-0.3102273404045547,0.13304212940023588,-0.18431553301802683,-0.0017290517165441184,-0.0011859865452477588,0.8109145523010353
6145,4.0,299.51844,1166.6476,0.0,0.0,0.0,0.0,0.0,0.06124604489257897,-0.2949071711450717,0.11245778136621891,-0.17218233929807383,-0.016487511394940684,-0.014136501638414086,0.8038666075204572
6146,4.0,299.264,1120.9671,0.0,0.0,0.0,0.0,0.0,0.06125601170216277,-0.24676708134151476,0.13757221860982086,-0.2315511451198188,0.019630243368854182,0.03076809821082487,0.8275328671911352
6147,4.0,298.6124,1065.3084,0.0,0.0,0.0,0.0,0.0,0.0612659785117466,-0.25722410608354274,0.1131680088913129,-0.17977106578952282,0.01930968548771758,-0.00025811936320939774,0.8207858880877602
6148,4.0,299.89844,1194.0701,0.0,0.0,0.0,0.0,0.0,0.06127594532133043,-0.2720722730489427,0.1045571967589919,-0.1954524181796518,0.014070125650863288,0.028320775992542974,0.8282218063316282
6149,4.0,299.51285,1103.9793,0.0,0.0,0.0,0.0,0.0,0.061285912130914236,-0.28759926691883775,0.11214678451302589,-0.16012964829856585,-0.009084346460555191,-0.04692800862318386,0.8307577990794112
6150,4.0,299.87254,878.3919300000001,0.0,0.0,0.0,0.0,0.0,0.061295878940498066,-0.2613350035942567,0.11531795335099589,-0.12099216404349689,0.000885651373051985,0.006645974381731604,0.8359498749768293
6151,4.0,299.49894,763.97567,0.0,0.0,0.0,0.0,0.0,0.06130584575008188,-0.24974587451549876,0.15333983911346385,-0.13582349079223488,-0.02081503265778378,-0.01968376425238628,0.8197645015894572
6152,4.0,300.00879,969.81486,0.0,0.0,0.0,0.0,0.0,0.0613158125596657,-0.2237363929285628,0.11150904490008588,-0.18257215516096884,-0.006571408394947514,0.01059718154886039,0.7977115589930012
6153,4.0,301.12599,1175.3353,0.0,0.0,0.0,0.0,0.0,0.06132577936924953,-0.26543682238407473,0.0994081252223181,-0.1912439041543038,-0.03348722172868147,-0.02397130063978318,0.7873123806991823
6154,4.0,301.98568,1107.3801,0.0,0.0,0.0,0.0,0.0,0.06133574617883335,-0.25838345671546176,0.13350085811800888,-0.21173330052144979,-0.002445409708718148,0.014580608143993987,0.8224876517632113
6155,4.0,300.27291,1002.0777,0.0,0.0,0.0,0.0,0.0,0.06134571298841718,-0.25376917655506775,0.1054322598103539,-0.15626969230761786,0.01019635703455209,0.01101162718426299,0.8058491731961211
6156,4.0,300.27181,1078.6752,0.0,0.0,0.0,0.0,0.0,0.06135567979800098,-0.2906233625047927,0.13337206389779788,-0.17063902767326083,-0.012309818411134488,0.02272687144996758,0.8323648542680153
6157,4.0,300.45872,1141.1760000000002,0.0,0.0,0.0,0.0,0.0,0.06136564660758481,-0.2706807361566087,0.12549239277263488,-0.2017006755838068,0.03288176933017797,-0.01106989109151319,0.8312547171934532
6158,4.0,299.8491,1017.6511,0.0,0.0,0.0,0.0,0.0,0.06137561341716864,-0.23892228628479378,0.12680231236941386,-0.1972205497366528,0.010494733857749591,0.018513250644115586,0.8315435745319613
6159,4.0,299.72514,886.8404300000001,0.0,0.0,0.0,0.0,0.0,0.061385580226752445,-0.25652065720161776,0.1739369844962438,-0.18699367462233882,0.04488990265653846,-0.0072735107688146235,0.8493813663149142
6160,4.0,299.02385,915.6510900000001,0.0,0.0,0.0,0.0,0.0,0.061395547036336276,-0.24857426355736978,0.1182004472354759,-0.14796125427013884,-0.0042767562169329755,-0.018854751391569086,0.8275396660993062
6161,4.0,298.82174,1135.3622,0.0,0.0,0.0,0.0,0.0,0.06140551384592009,-0.30744075064203974,0.12777745413315286,-0.16545847242947984,-0.00835590444768856,-0.04863635538453455,0.8394988543795862
6162,4.0,299.48917,1296.0093,0.0,0.0,0.0,0.0,0.0,0.06141548065550391,-0.3383501374600587,0.14331123677871785,-0.1989155854314398,-0.017562235378507682,-0.023890070405766375,0.8509442539316591
6163,4.0,299.93683,1181.8742,0.0,0.0,0.0,0.0,0.0,0.06142544746508774,-0.2880028241686657,0.092887707828053,-0.16414512804736284,-0.008934053808997462,0.0009903567171080981,0.8141730632976252
6164,4.0,300.22396000000003,940.2756099999999,0.0,0.0,0.0,0.0,0.0,0.06143541427467156,-0.22785363338490278,0.14059381146802885,-0.1985604919338948,-0.03235008761845507,0.015377865746677185,0.8014677075112042
6165,4.0,300.69625,990.5288199999999,0.0,0.0,0.0,0.0,0.0,0.06144538108425539,-0.25957617367317376,0.1278707744673629,-0.16939062249005285,0.008531425608186151,-0.0028788591537212776,0.8111597385602333
6166,4.0,299.52504,1016.5551,0.0,0.0,0.0,0.0,0.0,0.06145534789383919,-0.24524662863895774,0.1117194260183489,-0.17548016439854383,-0.0019254983154568884,0.03153717834147717,0.8200081477085033
6167,4.0,300.09076,951.13484,0.0,0.0,0.0,0.0,0.0,0.06146531470342302,-0.28129321372897875,0.14718988723401086,-0.15501791300157686,0.03832486679411986,0.014581510949833086,0.8306203517033461
6168,4.0,299.58848,774.95591,0.0,0.0,0.0,0.0,0.0,0.061475281513006824,-0.24607985459369075,0.1364440862134829,-0.12593147457096887,-0.009771734315145091,0.01960193316106018,0.8128930447112972
6169,4.0,299.30602999999996,899.58061,0.0,0.0,0.0,0.0,0.0,0.061485248322590655,-0.23639597007546578,0.12390691981116088,-0.16096098960811286,0.006681999070486964,-0.0069445095759197335,0.8130537968396623
6170,4.0,299.27722,1171.0056,0.0,0.0,0.0,0.0,0.0,0.06149521513217447,-0.24901833054619577,0.1088982236324179,-0.2158363554763898,-0.02111325850671638,-0.008864085545867132,0.8274272257357091
6171,4.0,299.04787999999996,1292.0619,0.0,0.0,0.0,0.0,0.0,0.0615051819417583,-0.2904868067888157,0.0990042984479635,-0.2012720606590058,0.007617172677406414,-0.0027117428014781773,0.8173897473300872
6172,4.0,298.72262,1185.3507,0.0,0.0,0.0,0.0,0.0,0.061515148751342105,-0.27448635154469375,0.11893200367517488,-0.2047626768560028,-0.02103704994019518,-0.037784237070763865,0.8396818777451491
6173,4.0,299.5479,879.22867,0.0,0.0,0.0,0.0,0.0,0.061525115560925936,-0.27953321857028074,0.15110675748307587,-0.13883710937215588,0.008436905788507771,-0.03117631641111287,0.8330405502297011
6174,4.0,300.42717999999996,994.9590900000001,0.0,0.0,0.0,0.0,0.0,0.06153508237050977,-0.2729413883222177,0.13622783837714086,-0.16572916219369485,-0.02147157616607958,0.013946691523681288,0.8552290352920342
6175,4.0,301.24449,1240.88,0.0,0.0,0.0,0.0,0.0,0.06154504918009357,-0.27528004048052473,0.13577704340765087,-0.23769354828602676,0.016736084949222983,0.022598785491576477,0.8205752029944672
6176,4.0,299.82104,1179.7593,0.0,0.0,0.0,0.0,0.0,0.0615550159896774,-0.25573195345627875,0.1145834078235019,-0.2174688128450008,0.014375203096972086,0.027565451745248274,0.8166243483370482
6177,4.0,299.28328999999997,848.5537400000001,0.0,0.0,0.0,0.0,0.0,0.06156498279926122,-0.2375830736276238,0.14835144675114786,-0.16870752980263684,0.009267783840109052,0.0023306390725411678,0.8053001740269393
6178,4.0,300.06789,930.3021699999999,0.0,0.0,0.0,0.0,0.0,0.06157494960884505,-0.25746287846960775,0.15136383929844788,-0.17668957971790383,0.02163758807571368,0.014064837498591385,0.8379683097060332
6179,4.0,301.05905,1019.3175,0.0,0.0,0.0,0.0,0.0,0.06158491641842885,-0.3100197761215697,0.12487539438924188,-0.12470267577719588,-0.016988747980908884,0.001098383981352059,0.8376655708411551
6180,4.0,301.67338,1120.9447,0.0,0.0,0.0,0.0,0.0,0.06159488322801268,-0.2858194931181877,0.12703609956498688,-0.18195579512513882,0.003080905681961717,-0.018160498767551683,0.8390554358708242
6181,4.0,301.79665,1133.0531,0.0,0.0,0.0,0.0,0.0,0.061604850037596484,-0.25175461244124575,0.1039836364073859,-0.19664888416273382,-0.04398540874277186,-0.03346823240855737,0.8077068253994573
6182,4.0,299.58,932.51714,0.0,0.0,0.0,0.0,0.0,0.061614816847180315,-0.23308722213891778,0.14519055226919186,-0.1955652537107878,0.009905287872400801,-0.00975657680292416,0.8242505650821972
6183,4.0,300.34008,1065.6312,0.0,0.0,0.0,0.0,0.0,0.061624783656764145,-0.24674396910673377,0.1254617115596069,-0.20264302857430982,-0.015933738804537585,-0.0028110579285798173,0.8099805788888592
6184,4.0,300.46776,1210.4321,0.0,0.0,0.0,0.0,0.0,0.06163475046634796,-0.28918565180540173,0.1097353303350339,-0.18849080230759382,0.016822845502285584,0.0032172489193927466,0.8263648330058592
6185,4.0,299.95574,1014.666,0.0,0.0,0.0,0.0,0.0,0.06164471727593178,-0.31147306047499773,0.16701706386580084,-0.16397714131328386,-0.015521851625637486,-0.0038864588645386266,0.8276059225233452
6186,4.0,299.85582999999997,890.88595,0.0,0.0,0.0,0.0,0.0,0.061654684085515596,-0.2504421293217138,0.15113251430061786,-0.17149746329048182,0.02150039502542378,-0.0072913047577957526,0.8539699909827763
6187,4.0,299.69537,929.0986300000001,0.0,0.0,0.0,0.0,0.0,0.06166465089509943,-0.24795547172129978,0.13188815912634788,-0.16635547234550685,-0.011547169378866889,0.03515077270311117,0.8134498155087463
6188,4.0,299.23332,1199.4928,0.0,0.0,0.0,0.0,0.0,0.06167461770468326,-0.27535407866533174,0.12359098842998088,-0.2128527797619338,0.005036806769319125,-0.0002567512121293718,0.8404267178936592
6189,4.0,299.91281000000004,1346.2191,0.0,0.0,0.0,0.0,0.0,0.06168458451426706,-0.2773704362318308,0.06109422280753034,-0.19294077383177183,-0.008840045680619581,-0.0037135178440956765,0.8165203990092892
6190,4.0,300.83215,1176.5472,0.0,0.0,0.0,0.0,0.0,0.06169455132385089,-0.2938994027281127,0.12523673963990387,-0.1889783073282068,0.02018501401060578,-0.004906004692709965,0.8719704702017851
6191,4.0,300.42533,980.0479,0.0,0.0,0.0,0.0,0.0,0.061704518133434694,-0.2970832574573347,0.12868305654252887,-0.12950989902163187,0.004410219594929786,-0.003344260123402777,0.8575606757596492
6192,4.0,301.40726,1092.236,0.0,0.0,0.0,0.0,0.0,0.061714484943018524,-0.2630404656325728,0.1335353187539099,-0.2025073341209178,-0.013276702186558485,-0.026028945108106875,0.8432020301825611
6193,4.0,301.28452000000004,1080.1732,0.0,0.0,0.0,0.0,0.0,0.061724451752602355,-0.2605562094348957,0.12871180244786587,-0.1965012637556648,-0.006046218779265334,-0.010647126672789591,0.8200738367124862
6194,4.0,301.32165,1028.8812,0.0,0.0,0.0,0.0,0.0,0.06173441856218617,-0.2188335695371918,0.11261351790658888,-0.2065341622708348,0.021300884054233582,0.0016196043924175086,0.8169184948410783
6195,4.0,300.19674,937.66741,0.0,0.0,0.0,0.0,0.0,0.06174438537176999,-0.24491864971408875,0.14201705295599187,-0.18212587928692484,0.012193859029940189,0.03296050696894877,0.8062150071447263
6196,4.0,300.53805,950.02903,0.0,0.0,0.0,0.0,0.0,0.061754352181353805,-0.26818282134758376,0.1277871509366099,-0.14838943349739686,-0.0013877041725057387,0.0051695853928983545,0.8003310030190203
6197,4.0,299.31338,1289.4113,0.0,0.0,0.0,0.0,0.0,0.061764318990937636,-0.3225013049609007,0.07429579148592373,-0.14374332715136184,-0.01207588530754709,0.013804899331187488,0.8309513399810122
6198,4.0,299.93985,1421.1843,0.0,0.0,0.0,0.0,0.0,0.06177428580052147,-0.2935780403263967,0.09194529201604382,-0.23037179293092577,-0.004391134826646266,0.00938238789796959,0.8419960092510361
6199,4.0,300.47006,1198.8182,0.0,0.0,0.0,0.0,0.0,0.06178425261010527,-0.2690775515833867,0.08768872359145322,-0.18302195714536082,-0.0018526171609390782,0.015469582105978884,0.8386330321691361
6200,4.0,300.40981,1073.7926,0.0,0.0,0.0,0.0,0.0,0.0617942194196891,-0.22437037338363178,0.0970169816425806,-0.1990527389649758,-0.01986870874013888,-0.01963716589353738,0.8360463870488543
6201,4.0,300.49075,1152.12,0.0,0.0,0.0,0.0,0.0,0.0618041862292729,-0.2846034511431737,0.10978285176472391,-0.17539512231765084,-0.008111116699754893,-0.007787322801773923,0.8317108823884732
6202,4.0,300.02385,1042.3577,0.0,0.0,0.0,0.0,0.0,0.061814153038856734,-0.2939460223652137,0.14336751268927186,-0.16627219331978785,-0.016286957789397587,-0.020994698112515378,0.8525011025778082
6203,4.0,300.42393,911.8987099999999,0.0,0.0,0.0,0.0,0.0,0.061824119848440565,-0.2844613225516467,0.15689933605225884,-0.14963244819007285,0.012972933859578886,0.014267989077390885,0.8275463839474692
6204,4.0,300.46154,1011.5010000000001,0.0,0.0,0.0,0.0,0.0,0.06183408665802438,-0.25419109389670774,0.13606185787825986,-0.18934180066908082,-0.0008281715389941672,-0.026520538592873375,0.8105702701820572
6205,4.0,300.41071,1125.7213,0.0,0.0,0.0,0.0,0.0,0.0618440534676082,-0.2681310746649767,0.13231407880588286,-0.2063741599475438,0.01095920669033949,0.012636103181836288,0.7961151530629482
6206,4.0,299.98175,1284.65,0.0,0.0,0.0,0.0,0.0,0.061854020277192015,-0.2526935102489078,0.09392449978087641,-0.23173249662271675,0.019430654377406282,0.008337154659888102,0.8228858185225072
6207,4.0,299.63128,1215.1955,0.0,0.0,0.0,0.0,0.0,0.061863987086775846,-0.28749252102080275,0.09335197801062292,-0.17524854555818484,2.077671559200218e-05,0.03812411965780767,0.8382690524682141
6208,4.0,299.18291,1035.7479,0.0,0.0,0.0,0.0,0.0,0.061873953896359676,-0.30629232284619873,0.14631850228051188,-0.15486766827674886,-0.013681542211013087,0.0023847074151022974,0.8744531963918113
6209,4.0,299.32342,986.7376199999999,0.0,0.0,0.0,0.0,0.0,0.06188392070594348,-0.28112755747012974,0.11722313711652288,-0.1360391813410219,-0.01942269732437098,0.029215119166807774,0.8563423945019143
6210,4.0,299.38043999999996,1081.7166,0.0,0.0,0.0,0.0,0.0,0.06189388751552731,-0.26247521393178674,0.12130227936910289,-0.1876419013738138,-0.008694087510339633,0.011445769388359488,0.8550279862071922
6211,4.0,299.88088999999997,1225.3541,0.0,0.0,0.0,0.0,0.0,0.06190385432511111,-0.26905032555319974,0.11666792672422789,-0.22009466061165178,-0.020909160552323478,-0.0062257657850602445,0.8419015439442131
6212,4.0,300.92015,1241.0596,0.0,0.0,0.0,0.0,0.0,0.061913821134694944,-0.24652404317252877,0.09236270748748951,-0.22308978737724777,0.004555546915697475,-0.051606929073707355,0.8054837648125582
6213,4.0,299.55671,971.2819,0.0,0.0,0.0,0.0,0.0,0.061923787944278774,-0.2562712659545047,0.12984696679989788,-0.16882114553634983,-0.002930293856622487,-0.03883795941950817,0.8092534199545942
6214,4.0,300.24286,937.37505,0.0,0.0,0.0,0.0,0.0,0.06193375475386259,-0.2720936120960487,0.15010066092878188,-0.16294566284398485,0.03710585700956297,-0.012189702678029988,0.8273566427337432
6215,4.0,301.6136,1128.4734,0.0,0.0,0.0,0.0,0.0,0.06194372156344641,-0.26835863037243474,0.1252652119677139,-0.1999343070819798,0.0012295145536436389,0.02765540302287577,0.8204514547597542
6216,4.0,300.57777999999996,1072.0242,0.0,0.0,0.0,0.0,0.0,0.061953688373030225,-0.2733649572615207,0.15183301462475188,-0.20433664571895682,0.02470038981548868,0.016825881199585183,0.8238351325411972
6217,4.0,300.43855,1034.463,0.0,0.0,0.0,0.0,0.0,0.061963655182614055,-0.2591354504096777,0.1042714602307919,-0.15958694141250485,-0.018789063400836182,0.01930356545711358,0.8118074586866583
6218,4.0,299.83815,941.83834,0.0,0.0,0.0,0.0,0.0,0.061973621992197886,-0.25031305139147475,0.13496308946981989,-0.17094537370849483,0.008946230744724231,0.006413741613137014,0.8383501834037211
6219,4.0,298.92671,971.4431,0.0,0.0,0.0,0.0,0.0,0.06198358880178169,-0.3017179647397447,0.15075174504553887,-0.14432822577158685,-0.026548748488907477,-0.003248111706838667,0.8767526560362501
6220,4.0,299.2615,1232.8692,0.0,0.0,0.0,0.0,0.0,0.06199355561136552,-0.3055023626707357,0.11259441814220389,-0.18185351766004482,-0.009860743776804641,-0.023663741744179477,0.8575171161378501
6221,4.0,299.35848,1263.7044,0.0,0.0,0.0,0.0,0.0,0.062003522420949336,-0.29205499370358373,0.1315607678865369,-0.22364034695158377,-0.02882353954641187,-0.007882231506840682,0.8546378241236863
6222,4.0,299.44985,1049.4779,0.0,0.0,0.0,0.0,0.0,0.06201348923053315,-0.24722804934200876,0.12896066680492688,-0.2007477037322558,0.029944602496802177,0.013207675536746089,0.8358077970478073
6223,4.0,300.53015,966.7349,0.0,0.0,0.0,0.0,0.0,0.062023456040116984,-0.24238588923412477,0.14934143262885186,-0.2008188136242738,-0.002886550532580357,0.017581803264438884,0.8145001809599092
6224,4.0,300.52834,1105.344,0.0,0.0,0.0,0.0,0.0,0.0620334228497008,-0.2872091352328347,0.14026132358021487,-0.18904917404020083,0.035623363695502265,-0.022284894796097878,0.8019560231318973
6225,4.0,300.06113999999997,1126.2763,0.0,0.0,0.0,0.0,0.0,0.06204338965928462,-0.3129792972786517,0.11810199985575989,-0.14748258479039786,-0.016892316968891884,-0.006248935268471894,0.8299420212914002
6226,4.0,300.42352,891.29915,0.0,0.0,0.0,0.0,0.0,0.062053356468868434,-0.2670517606584567,0.16386053649177584,-0.16774145662729284,0.04004576569770936,0.006578870272658943,0.8486332229710782
6227,4.0,298.77833,756.9629,0.0,0.0,0.0,0.0,0.0,0.062063323278452265,-0.22467312238101078,0.15124082060380684,-0.15666552859168384,-0.0026153468479146375,0.014720641334314185,0.8677782593705462
6228,4.0,299.19766,1039.5513,0.0,0.0,0.0,0.0,0.0,0.062073290088036095,-0.25034368194199774,0.1138409184152239,-0.17949487407726483,-7.308764678218913e-05,0.01785320230372388,0.8379235747141182
6229,4.0,298.17283,1342.0861,0.0,0.0,0.0,0.0,0.0,0.0620832568976199,-0.27278422309920675,0.08345463817333151,-0.21863109176970877,-0.03532750783855357,-0.005790215467299775,0.8258418439667442
6230,4.0,298.83085,1314.8325,0.0,0.0,0.0,0.0,0.0,0.06209322370720373,-0.3168940599675087,0.09092208774706141,-0.17370428147827785,-0.0013226833056386787,0.008894803235898733,0.8331211340101542
6231,4.0,299.22154,1233.9224,0.0,0.0,0.0,0.0,0.0,0.062103190516787546,-0.3286533644005617,0.1129530377500969,-0.15938128203970786,-0.01045326457090689,-0.015717887148984686,0.8481869065670302
6232,4.0,299.97905,984.03629,0.0,0.0,0.0,0.0,0.0,0.06211315732637136,-0.26840858360236475,0.14400009485920287,-0.17471396493792582,0.007346393544532593,-0.02675048151756698,0.8540247470181802
6233,4.0,299.72693,866.12935,0.0,0.0,0.0,0.0,0.0,0.06212312413595519,-0.2119058570134798,0.13096023481726887,-0.18233607802016982,-0.012541281210978089,0.00877221253809997,0.8190253153765052
6234,4.0,301.31375,1072.2301,0.0,0.0,0.0,0.0,0.0,0.06213309094553901,-0.24305805908546277,0.14233655097752387,-0.22520967883896476,-0.0004241810842184136,0.023600918211479277,0.8452428374739732
6235,4.0,300.19862,1057.3809,0.0,0.0,0.0,0.0,0.0,0.06214305775512283,-0.24561848129315678,0.13703842832463986,-0.2128373479629108,0.007743386453587742,0.03568697249702997,0.8164017879525832
6236,4.0,300.176,1046.2342,0.0,0.0,0.0,0.0,0.0,0.062153024564706644,-0.3231909128464597,0.13291218007491087,-0.12775034969297788,-0.00906769430311175,0.007774805717988583,0.8283952747487482
6237,4.0,299.63788,1103.5448,0.0,0.0,0.0,0.0,0.0,0.062162991374290474,-0.3204115678221597,0.13643157257474786,-0.15147004817392984,0.033251412085908864,-0.020255397402302082,0.8354441010569131
6238,4.0,300.00766,1264.3896,0.0,0.0,0.0,0.0,0.0,0.062172958183874305,-0.3072097498842417,0.09447027073523982,-0.17160338845593584,-0.0012297429402161786,-0.0076582590570363224,0.8518975702882442
6239,4.0,299.4023,1280.348,0.0,0.0,0.0,0.0,0.0,0.06218292499345811,-0.2845842196562757,0.1196271844362839,-0.2242367864904478,0.03903897709359706,-0.003839374348291746,0.8777837292055091
6240,4.0,299.83277999999996,1165.1182,0.0,0.0,0.0,0.0,0.0,0.06219289180304194,-0.25305043772913377,0.11060307772067389,-0.2117194899225868,-0.013371520104416288,-0.015186444564285384,0.8588747395493372
6241,4.0,299.42753999999996,855.83375,0.0,0.0,0.0,0.0,0.0,0.062202858612625755,-0.2232296868185548,0.12336717161539187,-0.16028957969434984,-0.01067280344357369,0.021100325382439982,0.8252987925756492
6242,4.0,299.25385,825.25549,0.0,0.0,0.0,0.0,0.0,0.06221282542220957,-0.27331060652615674,0.15181682288815385,-0.12936327159966088,-0.026992761775478175,0.03012409772551697,0.8379832146150042
6243,4.0,298.98211000000003,1006.8188,0.0,0.0,0.0,0.0,0.0,0.0622227922317934,-0.2910190366688427,0.13172701183044389,-0.14675573996366387,-0.004462271873766945,0.01163248706378709,0.8191973348459822
6244,4.0,299.31054,1137.5722,0.0,0.0,0.0,0.0,0.0,0.06223275904137722,-0.2639880165960888,0.11793384086916389,-0.1997393780277418,-0.016121333954551786,-0.01030771828679259,0.8191584159096412
6245,4.0,299.39722,910.47366,0.0,0.0,0.0,0.0,0.0,0.062242725850961036,-0.22707743314579779,0.13961437352386588,-0.1892981903847768,0.022871689207259977,-0.04710991944013705,0.8175684441177232
6246,4.0,300.08862999999997,905.0025300000001,0.0,0.0,0.0,0.0,0.0,0.06225269266054485,-0.18555866930071482,0.11528112170986089,-0.2048206246292218,0.005401214872383405,0.015314517350425185,0.8446048141510052
6247,4.0,300.22663,1185.0776,0.0,0.0,0.0,0.0,0.0,0.062262659470128684,-0.2612396466273457,0.1127056020756769,-0.21169996459315982,0.008721758053345501,-0.00987859602766652,0.8380724008888062
6248,4.0,300.40472,1252.9396,0.0,0.0,0.0,0.0,0.0,0.062272626279712515,-0.35505347416604965,0.13635991552767587,-0.16216878372731283,0.002118903441544488,0.02277396326161518,0.8526951399719582
6249,4.0,299.86542000000003,1008.227,0.0,0.0,0.0,0.0,0.0,0.06228259308929632,-0.3025493871092997,0.13047027773141387,-0.13439671306142287,-0.007575021270596393,0.013742637139042686,0.8222313197529132
6250,4.0,299.92199,764.47224,0.0,0.0,0.0,0.0,0.0,0.06229255989888015,-0.25625941092833476,0.15950944804485684,-0.13563050717818886,0.005787945685750764,0.027016809240101476,0.8449810643106381
6251,4.0,300.31952,925.53341,0.0,0.0,0.0,0.0,0.0,0.062302526708463965,-0.23182655662949975,0.13143845846696586,-0.18095094486846783,-0.028821152329176272,-0.01978261997189258,0.8533905233830873
6252,4.0,299.56084,1299.4476,0.0,0.0,0.0,0.0,0.0,0.06231249351804778,-0.2553757251186218,0.1043770915537169,-0.24400097949602176,-0.018126535637449783,0.002265405119178078,0.8517018508989282
6253,4.0,299.48075,1338.934,0.0,0.0,0.0,0.0,0.0,0.06232246032763161,-0.2909350787655567,0.1132426854236829,-0.22931010947614577,-0.013326364613709788,-0.02101063856308858,0.8427107052090712
6254,4.0,300.7911,1112.0137,0.0,0.0,0.0,0.0,0.0,0.06233242713721543,-0.30527549597334575,0.14039356285076587,-0.1731424545628298,0.022300169541355375,0.023864659106508476,0.8493565315549632
6255,4.0,300.95138,1114.9363,0.0,0.0,0.0,0.0,0.0,0.062342393946799246,-0.2718264281771797,0.12212337672013887,-0.18920974378354782,-0.00029033988552431574,-0.005394158902662035,0.8434543902524673
6256,4.0,300.2339,1384.2529,0.0,0.0,0.0,0.0,0.0,0.06235236075638306,-0.3197772225970547,0.11781251430218989,-0.21881360851022177,0.020171606685282582,-0.0004495922618863016,0.8368876987393852
6257,4.0,300.60257,1451.9238,0.0,0.0,0.0,0.0,0.0,0.062362327565966894,-0.3033032147861967,0.09412500677691492,-0.23217038278593277,0.0028795290133623876,-0.019601082030976182,0.8635407461273362
6258,4.0,299.35342,1092.3696,0.0,0.0,0.0,0.0,0.0,0.062372294375550724,-0.2504907146640088,0.12578807941681688,-0.2073504466838958,0.020485865190547483,-0.009188849124193802,0.8536804648992021
6259,4.0,299.08675,800.26033,0.0,0.0,0.0,0.0,0.0,0.06238226118513453,-0.2231722355378848,0.13728133477111287,-0.15736824793353685,-0.02087525619072738,-0.01171647232482579,0.8440036123366712
6260,4.0,299.8936,997.1950400000001,0.0,0.0,0.0,0.0,0.0,0.06239222799471836,-0.28579450637072173,0.11967550633355288,-0.13700340026868288,-0.004756625790092415,0.018121300174183085,0.8379113650504132
6261,4.0,299.57563999999996,1233.2459,0.0,0.0,0.0,0.0,0.0,0.062402194804302175,-0.27234097684296177,0.09088264800016901,-0.1934176397263348,-0.025589184432205876,0.0030407110637448173,0.8032116933183222
6262,4.0,300.30618,1211.3679,0.0,0.0,0.0,0.0,0.0,0.06241216161388599,-0.2970809776446097,0.11215120228346188,-0.18329579811738683,-0.003114612155813287,0.035024261335375464,0.8244568729350582
6263,4.0,300.81387,1031.4418,0.0,0.0,0.0,0.0,0.0,0.06242212842346982,-0.21848505203279578,0.11888784623581689,-0.21393533616877378,-0.0023444070135749577,-0.007467873010946683,0.8304383821178872
6264,4.0,300.64236,1033.2276,0.0,0.0,0.0,0.0,0.0,0.06243209523305364,-0.23892849750790676,0.11082023748210591,-0.18596713068102683,0.009213820368933272,-0.0031107514702822673,0.8504591705787852
6265,4.0,300.95502999999997,1345.6934,0.0,0.0,0.0,0.0,0.0,0.062442062042637456,-0.29075392991267873,0.11777011991800589,-0.2360733816411288,0.006416612353320333,-0.024626356696932177,0.8449061142007411
6266,4.0,300.62492000000003,1393.8788,0.0,0.0,0.0,0.0,0.0,0.06245202885222127,-0.3378432084350287,0.12237209922218588,-0.20823325096602177,-0.005944924369418354,0.01059096627274699,0.8772931439045922
6267,4.0,300.17641000000003,1037.3405,0.0,0.0,0.0,0.0,0.0,0.0624619956618051,-0.2719191405613297,0.1311265496886829,-0.17453302886756883,-0.0027971422556814477,-0.00956377841099644,0.8398839096825883
6268,4.0,299.42958,958.5491,0.0,0.0,0.0,0.0,0.0,0.062471962471388934,-0.27961368076072174,0.14108324166383188,-0.15284455233208286,-0.026110270587633076,0.02111226552161838,0.8564507008051031
6269,4.0,299.8293,1220.9565,0.0,0.0,0.0,0.0,0.0,0.06248192928097274,-0.2929292562873667,0.1076512167343479,-0.18586225929567682,0.007511134230591234,0.01158214069281829,0.8248024824116672
6270,4.0,300.42723,1335.8674,0.0,0.0,0.0,0.0,0.0,0.06249189609055657,-0.3081737762943837,0.11608920892961289,-0.2139857554937498,-0.030215568878294474,0.0091356220831907,0.8513672655834071
6271,4.0,300.04841,999.98452,0.0,0.0,0.0,0.0,0.0,0.06250186290014038,-0.2861931189600617,0.14592324354900285,-0.16370045310847683,0.03046138537905467,-0.015279935124512185,0.8318400717762232
6272,4.0,299.73242,777.37608,0.0,0.0,0.0,0.0,0.0,0.0625118297097242,-0.24784541249543776,0.1391033205709289,-0.12756082126177287,-0.015614149590496585,-0.016664216132880084,0.8159181839448553
6273,4.0,300.57351,976.01493,0.0,0.0,0.0,0.0,0.0,0.06252179651930802,-0.25681013262268676,0.15486527700651284,-0.19473931302427383,0.044513645404154756,-0.016057273243479483,0.8497852984672792
6274,4.0,299.62935,1099.6748,0.0,0.0,0.0,0.0,0.0,0.06253176332889185,-0.2857802398093137,0.15179877690387286,-0.2002922072823018,-0.025713548722979675,0.011121665131872889,0.8430797004979882
6275,4.0,299.19928,1142.5943,0.0,0.0,0.0,0.0,0.0,0.06254173013847565,-0.2774881657609497,0.14920766335064986,-0.21903964434252976,0.026587350277967176,0.019859713105751083,0.8632525170038902
6276,4.0,299.19935,884.1367300000001,0.0,0.0,0.0,0.0,0.0,0.06255169694805948,-0.2511267824142837,0.15868840135632584,-0.17631710898114383,-0.032039620695064365,0.02049767158071268,0.8409779056830572
6277,4.0,298.83558999999997,748.57644,0.0,0.0,0.0,0.0,0.0,0.06256166375764331,-0.24791302667461076,0.14680367682589487,-0.12643918379857588,0.006097811853157175,0.012701662489806488,0.8442161618101482
6278,4.0,300.98772,1261.1924,0.0,0.0,0.0,0.0,0.0,0.06257163056722712,-0.2966955271740687,0.11245341425828789,-0.1991288948424918,-0.013172012172976387,-0.004967719527150746,0.8392402222915611
6279,4.0,300.42228,1360.8951,0.0,0.0,0.0,0.0,0.0,0.06258159737681095,-0.2994523780461487,0.0882882119998681,-0.2025139709090728,0.02220695661165598,-0.015543207897995185,0.8377197797215052
6280,4.0,299.91957,999.89581,0.0,0.0,0.0,0.0,0.0,0.06259156418639476,-0.2516793786213207,0.12054524982188987,-0.17280922700244283,0.0072177624575876925,0.007300699308747924,0.8388991927054041
6281,4.0,300.83937000000003,846.8467699999999,0.0,0.0,0.0,0.0,0.0,0.0626015309959786,-0.2248653561899828,0.15372052730853486,-0.18627545255395583,0.02138760103754188,-0.0017158387325900985,0.8154800951316191
6282,4.0,299.81829,999.2198400000001,0.0,0.0,0.0,0.0,0.0,0.0626114978055624,-0.27424480285335473,0.14588094035732785,-0.17537401631806784,0.00043090920673742757,0.01999197872080468,0.8535288421542382
6283,4.0,299.79618,1255.8637,0.0,0.0,0.0,0.0,0.0,0.06262146461514623,-0.3174458253094637,0.14262854939134187,-0.2069339299652888,-0.001100859959296419,-0.020622266892509282,0.8430247316800632
6284,4.0,300.70901000000003,1332.9370000000001,0.0,0.0,0.0,0.0,0.0,0.06263143142473004,-0.30408048907040774,0.1122382607320539,-0.2133373260922548,-0.018309814342037982,-0.0037591188608711466,0.8523132358767671
6285,4.0,298.50116,1137.6831,0.0,0.0,0.0,0.0,0.0,0.06264139823431386,-0.26802392346690174,0.11735538651957489,-0.19515872763816683,-0.019378073789966983,-0.02030143746034588,0.8415288502924313
6286,4.0,300.46661,1134.3104,0.0,0.0,0.0,0.0,0.0,0.06265136504389769,-0.28011837050303073,0.15263307690371186,-0.2173167341374918,0.0012867897314462588,2.8193663767497974e-06,0.8806907640074112
6287,4.0,300.83718999999996,1298.0389,0.0,0.0,0.0,0.0,0.0,0.06266133185348151,-0.2803353580119457,0.1065180079550089,-0.22075406351172977,-0.00911010824302268,0.00919950324634528,0.8531242919193122
6288,4.0,299.15547999999995,1427.0888,0.0,0.0,0.0,0.0,0.0,0.06267129866306533,-0.32815538237391473,0.10886146291878988,-0.21450544133753882,-0.004035999785847166,0.02193072436939398,0.8576175596202632
6289,4.0,299.87113,1294.9782,0.0,0.0,0.0,0.0,0.0,0.06268126547264914,-0.30026989862433173,0.11818509649646088,-0.21155624519897578,-0.0016909716499609083,0.007193968710789433,0.8406584177940263
6290,4.0,298.78564,913.41481,0.0,0.0,0.0,0.0,0.0,0.06269123228223297,-0.25265911040801275,0.12062159821692489,-0.14561777904135587,0.017292336962620784,0.008730769798409893,0.8217032036682923
6291,4.0,298.52907999999996,840.1315800000001,0.0,0.0,0.0,0.0,0.0,0.06270119909181678,-0.2449735374720058,0.16242808456040386,-0.17283357540234584,0.02114969194056208,-0.016211207211921586,0.8573055292519682
6292,4.0,300.56113,1111.9932,0.0,0.0,0.0,0.0,0.0,0.0627111659014006,-0.24933890261283373,0.12910287645646187,-0.2177821401734238,0.010032456434151361,-0.011974688980309789,0.8480148060375452
6293,4.0,300.91152999999997,1088.9053,0.0,0.0,0.0,0.0,0.0,0.06272113271098444,-0.25116048311260974,0.13113734080224787,-0.2109768789242968,-0.023748075563252577,0.0014581140100296485,0.8401754420013602
6294,4.0,300.18091,1059.5419,0.0,0.0,0.0,0.0,0.0,0.06273109952056825,-0.2947563995301917,0.14388180804252887,-0.17119967921859283,5.207163191406994e-06,0.03494936492773377,0.8611700955308712
6295,4.0,300.92418,1272.9201,0.0,0.0,0.0,0.0,0.0,0.06274106633015207,-0.3042981757218917,0.1114816668823839,-0.19411940661309382,-0.009145970811762041,0.023163200247779875,0.8259491167548312
6296,4.0,300.2317,1367.6316,0.0,0.0,0.0,0.0,0.0,0.06275103313973589,-0.30269599426626875,0.1014246226173309,-0.2144544951225108,0.013032653807222789,0.012032870814301887,0.8259850466033772
6297,4.0,300.23578,1276.8952,0.0,0.0,0.0,0.0,0.0,0.06276099994931972,-0.2900476337979727,0.09254340747057321,-0.19064003749220682,-0.0014972976072967683,0.00015543352792759486,0.8230096680822302
6298,4.0,299.56959,1157.7732,0.0,0.0,0.0,0.0,0.0,0.06277096675890353,-0.25855427041731976,0.1018454861788669,-0.19522536909724383,0.005291450603625515,0.0025829380434661377,0.8458186371083001
6299,4.0,299.70741,1013.6017,0.0,0.0,0.0,0.0,0.0,0.06278093356848735,-0.25183752669692877,0.11736141535766989,-0.17363348569379083,0.012151928714301988,0.002946607689857537,0.8495881909253261
6300,4.0,299.28144,953.5201300000001,0.0,0.0,0.0,0.0,0.0,0.06279090037807118,-0.2816362394178327,0.1241599080961289,-0.1323699798138999,-0.008302580438650892,0.0005429651331139865,0.8422927091453182
6301,4.0,300.4897,1228.9791,0.0,0.0,0.0,0.0,0.0,0.06280086718765499,-0.2929489336043087,0.09739192065658421,-0.1780219326718968,-0.0055733213800439945,0.007453296698983113,0.8341466950988691
6302,4.0,301.08072000000004,1237.8656,0.0,0.0,0.0,0.0,0.0,0.06281083399723882,-0.29965696337383974,0.11463237820083488,-0.1912556578554638,-0.016690809895004686,-0.01049716059173909,0.8447626075890782
6303,4.0,300.1748,1143.2184,0.0,0.0,0.0,0.0,0.0,0.06282080080682265,-0.27585352990462375,0.1058664678757069,-0.17752276514263285,0.019660786779868582,0.01206559777928179,0.8573151449954173
6304,4.0,300.35194,1188.5703,0.0,0.0,0.0,0.0,0.0,0.06283076761640646,-0.25747962749376074,0.12681653840081789,-0.23063259337416475,0.0009205394890376742,-0.03243211933330097,0.8354975297346862
6305,4.0,300.62712,1352.7897,0.0,0.0,0.0,0.0,0.0,0.06284073442599028,-0.28900637746520874,0.10294726394010391,-0.22515516598358476,-0.003741486485280966,-0.02494655183453298,0.8698311040731462
6306,4.0,299.66876,1260.5355,0.0,0.0,0.0,0.0,0.0,0.0628507012355741,-0.3052088747792707,0.1092500341996389,-0.1872124859814338,-0.026001355321133977,-0.005972859877325374,0.8424166195000473
6307,4.0,299.7593,1116.5201,0.0,0.0,0.0,0.0,0.0,0.06286066804515793,-0.29499091626583673,0.12711611592538388,-0.17151945081765185,0.0002835945478861027,0.036795119548395566,0.8305674296506232
6308,4.0,299.73821,1146.0099,0.0,0.0,0.0,0.0,0.0,0.06287063485474174,-0.3028276863817657,0.1028188344899289,-0.14834955197346086,0.002422249141907378,0.015504284908653784,0.8207509512243122
6309,4.0,300.36928,1147.8128,0.0,0.0,0.0,0.0,0.0,0.06288060166432556,-0.28014125982278976,0.11547627367912089,-0.18424144417071484,0.016229357560962884,0.02872267961820777,0.8355433995667131
6310,4.0,300.21861,1159.5156,0.0,0.0,0.0,0.0,0.0,0.06289056847390939,-0.25848282615276874,0.11224068239979289,-0.2062216556749928,0.003956992521224756,-0.008879507719014182,0.8443025515136742
6311,4.0,299.27522999999997,1194.5242,0.0,0.0,0.0,0.0,0.0,0.0629005352834932,-0.26428911399580474,0.10645380842867289,-0.2052702138310928,0.01712819652592138,0.02032171968759758,0.8643515488573561
6312,4.0,299.13076,1158.6268,0.0,0.0,0.0,0.0,0.0,0.06291050209307703,-0.28388387131965676,0.11887938559748189,-0.18718912043412783,0.014480406828354884,-0.02506787029550618,0.8703110097180091
6313,4.0,298.64642000000003,1154.7987,0.0,0.0,0.0,0.0,0.0,0.06292046890266086,-0.2930058174649227,0.12174227309252689,-0.17976642510406485,0.021212596533270282,-0.016750268424122784,0.8433092928381473
6314,4.0,298.4165,1213.6552,0.0,0.0,0.0,0.0,0.0,0.06293043571224467,-0.29838678344598274,0.11777040362803388,-0.18830450614420782,0.003397003540133147,-0.03135725754772037,0.8445753691030992
6315,4.0,298.21943999999996,1122.1954,0.0,0.0,0.0,0.0,0.0,0.06294040252182849,-0.24393393273690478,0.1132386830857879,-0.21042413072974478,0.0092818442051217,0.017074264262848686,0.8238793001130562
6316,4.0,298.68635,1140.7206,0.0,0.0,0.0,0.0,0.0,0.0629503693314123,-0.2576327194513698,0.1161407630947009,-0.2052586323824498,-0.014591289826548186,-0.022392874832754678,0.8267303933769372
6317,4.0,299.1228,1194.4376,0.0,0.0,0.0,0.0,0.0,0.06296033614099614,-0.27443167656929773,0.1295046503861139,-0.21815216897744277,-0.0042795580561094965,-0.00903141072895584,0.8439373052501272
6318,4.0,299.13799,1092.9619,0.0,0.0,0.0,0.0,0.0,0.06297030295057997,-0.29941281062974373,0.13067100257622388,-0.16349131828783683,0.016191134727440586,0.002369518492128268,0.8626752785544212
6319,4.0,299.69581,1011.791,0.0,0.0,0.0,0.0,0.0,0.06298026976016377,-0.27547198044696775,0.13976483103121487,-0.17185206029547784,-0.025158032329154475,0.06147540648190024,0.8493236819867213
6320,4.0,300.26997,1107.5746,0.0,0.0,0.0,0.0,0.0,0.0629902365697476,-0.3096006756152077,0.14742500178721488,-0.17449932816924282,0.022907257325520278,0.006909118269801884,0.8574768698438782
6321,4.0,299.85527,1150.1524,0.0,0.0,0.0,0.0,0.0,0.0630002033793314,-0.2571286275266198,0.12190943909402488,-0.2143984117294758,-0.03337757793536047,-0.0037123454124049662,0.8412700358193881
6322,4.0,300.55092,1141.136,0.0,0.0,0.0,0.0,0.0,0.06301017018891523,-0.28095785834338177,0.14004126592349686,-0.2059602472816938,0.020857313557956583,-0.008089703786716603,0.8673854729692813
6323,4.0,301.10735,1147.7079,0.0,0.0,0.0,0.0,0.0,0.06302013699849907,-0.2722502909590117,0.12927621315106888,-0.2059004756582948,-0.006116826301883754,-0.003081939501038747,0.8719807749553022
6324,4.0,300.37831,1264.3981,0.0,0.0,0.0,0.0,0.0,0.06303010380808288,-0.3044849177153217,0.1076026415245539,-0.18746317418867484,0.03153074926959267,-0.028942240782376772,0.8630622185026092
6325,4.0,301.0106,1300.5809,0.0,0.0,0.0,0.0,0.0,0.0630400706176667,-0.3058265115102267,0.12266186848578389,-0.2121794852029848,-0.005415460966139385,-0.014724833149977886,0.8523603925364213
6326,4.0,300.22897,1145.5886,0.0,0.0,0.0,0.0,0.0,0.06305003742725052,-0.2966761133021527,0.12202598312052688,-0.17358018873853084,0.03366048648253137,-0.009142649884559291,0.8199436036771331
6327,4.0,299.28916,897.62416,0.0,0.0,0.0,0.0,0.0,0.06306000423683435,-0.22417034768139077,0.1380042684524609,-0.1866892537622948,-0.0062991598467786744,0.03242243975509567,0.8274980316526972
6328,4.0,299.83256,814.58704,0.0,0.0,0.0,0.0,0.0,0.06306997104641818,-0.24075588393075578,0.14074262751021588,-0.14760086147457085,0.012708677220248788,-0.0008604196217118053,0.8179790434557462
6329,4.0,299.04156,889.1783800000001,0.0,0.0,0.0,0.0,0.0,0.06307993785600198,-0.25749686287796175,0.14806205239008688,-0.16085321019497584,-0.024364447758083774,0.011116507688863889,0.8534026823842872
6330,4.0,297.64732999999995,882.4969199999999,0.0,0.0,0.0,0.0,0.0,0.06308990466558581,-0.2776164026936057,0.17183243364104084,-0.16247305259984185,-0.002022099350840668,-0.018653856320742283,0.8480774654237292
6331,4.0,300.05683999999997,1010.69,0.0,0.0,0.0,0.0,0.0,0.06309987147516961,-0.26920608235857174,0.13770431602535788,-0.17572274660498483,-0.010874509114480489,0.025813578799351877,0.8757289593277191
6332,4.0,299.94219,1232.4488,0.0,0.0,0.0,0.0,0.0,0.06310983828475344,-0.2958322076913657,0.11972192332063389,-0.1985233765827318,-0.007932966357897822,-0.003903862245606206,0.8545590844584151
6333,4.0,299.81669,1626.3801,0.0,0.0,0.0,0.0,0.0,0.06311980509433728,-0.3065246610941287,0.08504749063528382,-0.27290176011080675,-0.004991936711165795,0.011957571133120386,0.8528149669287842
6334,4.0,300.0583,1677.2053,0.0,0.0,0.0,0.0,0.0,0.06312977190392109,-0.3501381776659476,0.08624812006302673,-0.24593848593973877,0.025332468400119976,-0.006225731334556844,0.8408021777182142
6335,4.0,299.50613,1282.5611,0.0,0.0,0.0,0.0,0.0,0.06313973871350491,-0.29073477948578874,0.12597534830029888,-0.2251070973988408,0.019226370998245083,0.01840959819863588,0.8721012503921922
6336,4.0,300.33328,996.69933,0.0,0.0,0.0,0.0,0.0,0.06314970552308873,-0.28487453607492774,0.12679355788854987,-0.14489073156460186,0.02184655165708678,-0.027452819877382375,0.8316981357022153
6337,4.0,300.5667,1050.8598,0.0,0.0,0.0,0.0,0.0,0.06315967233267256,-0.28779281795293976,0.14256981128304486,-0.17421211229589684,-0.017676344565019382,-0.018124921530040482,0.8736599532860243
6338,4.0,299.50752,1026.6974,0.0,0.0,0.0,0.0,0.0,0.06316963914225639,-0.2843801814836387,0.15988536383195684,-0.1875955654467408,0.002885851288686347,-0.02139637578340788,0.8399739572189753
6339,4.0,300.36511,1124.4316,0.0,0.0,0.0,0.0,0.0,0.06317960595184019,-0.24488363179063274,0.1065565621213139,-0.20347206980612978,-0.002899659354424097,0.025616402356392075,0.8698895787364171
6340,4.0,300.62172999999996,1165.9226,0.0,0.0,0.0,0.0,0.0,0.06318957276142402,-0.27580573489740673,0.13204633759945886,-0.21065194988222882,-0.012706804734063989,-0.001050531522854389,0.8507593256559081
6341,4.0,299.7661,1203.588,0.0,0.0,0.0,0.0,0.0,0.06319953957100782,-0.27627880110409475,0.1112799794499789,-0.20086187675352382,-0.006937910885968494,0.007925818689042404,0.8728559291991732
6342,4.0,299.30082999999996,1351.7519,0.0,0.0,0.0,0.0,0.0,0.06320950638059165,-0.3034545031586277,0.09703235872609822,-0.2044766667502758,0.003480241225248067,-0.004931668899192825,0.8609287798870551
6343,4.0,299.70579,1376.5916,0.0,0.0,0.0,0.0,0.0,0.06321947319017548,-0.3084252041741977,0.11375001974875289,-0.2237742884823028,0.027574853692926175,0.028721603546601575,0.8724852113850862
6344,4.0,299.49555,1187.6459,0.0,0.0,0.0,0.0,0.0,0.0632294399997593,-0.24581660208520978,0.07993825401304143,-0.1951363652084598,-0.015835860871377786,-0.025089571072897877,0.8417149134082942
6345,4.0,300.2761,966.2439999999999,0.0,0.0,0.0,0.0,0.0,0.06323940680934312,-0.2361537323740588,0.12211645622195588,-0.17967677273521682,-0.015171224534533286,-0.0017804455854662981,0.8262031588199031
6346,4.0,299.75611000000004,1007.8847,0.0,0.0,0.0,0.0,0.0,0.06324937361892694,-0.26484821526848373,0.13177801884047788,-0.17330157535853383,-0.018791448591571582,-0.004656833523518686,0.8420689936557393
6347,4.0,300.19512000000003,1014.8047,0.0,0.0,0.0,0.0,0.0,0.06325934042851077,-0.2613260869933768,0.12423886054392089,-0.17138805254468384,0.013294894078853887,0.026846539653547174,0.8368133971095522
6348,4.0,300.84101,1001.9315,0.0,0.0,0.0,0.0,0.0,0.0632693072380946,-0.29308092969483573,0.15439093410469887,-0.16587216218030784,0.0004095192640789046,-0.017012479311500985,0.8640727125623372
6349,4.0,301.18682,1124.3331,0.0,0.0,0.0,0.0,0.0,0.0632792740476784,-0.29117241233647967,0.12986469867664788,-0.18046148427516184,0.002705724501184217,-0.007419848907882072,0.8444602841567411
6350,4.0,299.46552,1179.5162,0.0,0.0,0.0,0.0,0.0,0.06328924085726223,-0.2717232185219937,0.11596824713267488,-0.2027884806261648,0.004027310558289606,-0.014427653988398586,0.8718904741063902
6351,4.0,298.68208,1372.4775,0.0,0.0,0.0,0.0,0.0,0.06329920766684603,-0.2932420060632327,0.1082956539304489,-0.2322525573690428,0.017873700353246882,0.01905702954878238,0.8682700605715832
6352,4.0,299.83247,1608.1984,0.0,0.0,0.0,0.0,0.0,0.06330917447642986,-0.3238639034303787,0.07055698069018183,-0.2355452351590048,-0.01748632470751588,0.006119908102062904,0.8803496330962441
6353,4.0,299.77795,1341.0817,0.0,0.0,0.0,0.0,0.0,0.0633191412860137,-0.2972625824600327,0.10609432755819491,-0.2164871052206138,-0.01834945369920008,0.005639450539870434,0.8720102402682101
6354,4.0,299.5763,1061.2925,0.0,0.0,0.0,0.0,0.0,0.06332910809559751,-0.2896633485650467,0.1325018036519099,-0.16544488474563884,-0.014819264006297485,0.007895966213271193,0.8893416400486862
6355,4.0,300.00362,907.9513599999999,0.0,0.0,0.0,0.0,0.0,0.06333907490518133,-0.25650751534782074,0.12596607706188387,-0.14545310563510386,-0.006600826389075843,0.014155812158819886,0.8480569572417052
6356,4.0,300.42525,907.6529800000001,0.0,0.0,0.0,0.0,0.0,0.06334904171476514,-0.24937510603890675,0.15833003506095786,-0.18485876679413982,0.00973254940065284,-0.015425428719621286,0.8476653766080593
6357,4.0,301.20586000000003,1027.7421,0.0,0.0,0.0,0.0,0.0,0.06335900852434898,-0.26458597601010275,0.1114966731163649,-0.15931862265352384,-0.011737141613615689,-0.024671151470603076,0.8051473455143562
6358,4.0,300.57358999999997,982.84928,0.0,0.0,0.0,0.0,0.0,0.0633689753339328,-0.2578635479566508,0.13439085647584487,-0.17528895397217284,0.03016404409745937,-0.0061701086663423135,0.8389079573187692
6359,4.0,301.12216,1056.4154,0.0,0.0,0.0,0.0,0.0,0.06337894214351661,-0.26844025780049074,0.1212556192019979,-0.17393926430896883,-0.004886518880036866,0.006162531886069545,0.8147937195138794
6360,4.0,301.35447999999997,1312.2913,0.0,0.0,0.0,0.0,0.0,0.06338890895310044,-0.3216599730053677,0.09883972940647182,-0.17608355483309385,0.010901321738626688,0.01105829444411869,0.8685008890768642
6361,4.0,300.5355,1427.7791,0.0,0.0,0.0,0.0,0.0,0.06339887576268426,-0.3021385344587517,0.0927866168788261,-0.22465727514944678,-0.025399443218479877,-0.017194494493214484,0.8468919222767252
6362,4.0,300.1207,1421.1607,0.0,0.0,0.0,0.0,0.0,0.06340884257226807,-0.29275918225808173,0.08567546150400973,-0.22491365782224979,0.010941262031068488,0.01880856035926038,0.8739634723534792
6363,4.0,300.0044,1214.1124,0.0,0.0,0.0,0.0,0.0,0.0634188093818519,-0.26324726997798276,0.1151356493930039,-0.2209482528933948,-0.006405540468152624,0.003101987059567287,0.8617654002296232
6364,4.0,300.02651000000003,1031.3849,0.0,0.0,0.0,0.0,0.0,0.06342877619143572,-0.2695348110885148,0.14899651216231086,-0.19297696712534382,0.03092496959130687,-0.02006715275897378,0.8645778683996922
6365,4.0,300.08929,1042.5421,0.0,0.0,0.0,0.0,0.0,0.06343874300101954,-0.27866041506664174,0.13812590912696587,-0.17637223991908482,-0.011557019183088988,-0.03580625837830257,0.8525420581468502
6366,4.0,299.6532,1060.4598,0.0,0.0,0.0,0.0,0.0,0.06344870981060335,-0.31469379750785964,0.16699600852872284,-0.17465552067215784,0.015459891382022485,-0.005813268021649885,0.8789622099993161
6367,4.0,299.00231,1079.8465,0.0,0.0,0.0,0.0,0.0,0.06345867662018718,-0.2907821489279637,0.14360316426502887,-0.18106739770246083,-0.004552280906650145,0.006064613321580734,0.8479796867890793
6368,4.0,299.33418,1181.5385,0.0,0.0,0.0,0.0,0.0,0.06346864342977102,-0.30504200262030173,0.15741121987027787,-0.21152742836613178,-0.03291939738589157,-0.00045465929258887863,0.8514826747697971
6369,4.0,300.03972000000005,1359.6452,0.0,0.0,0.0,0.0,0.0,0.06347861023935482,-0.30250461158738073,0.11684326965403288,-0.2276368485260078,-0.018566205120841783,-0.029006727058491073,0.8498450599581773
6370,4.0,300.08744,1484.9305,0.0,0.0,0.0,0.0,0.0,0.06348857704893865,-0.3112283909733507,0.100490275315868,-0.24064365634967977,-0.026717765698338176,0.01157239322685629,0.8665246967443293
6371,4.0,301.15263999999996,1403.9294,0.0,0.0,0.0,0.0,0.0,0.06349854385852247,-0.3045959293962777,0.1081581052293739,-0.2303216674484788,0.0034216686820174066,0.019294951818013484,0.8529722132118032
6372,4.0,300.07512,1181.8711,0.0,0.0,0.0,0.0,0.0,0.06350851066810628,-0.30141424302226977,0.1257680778598429,-0.18361314804870682,-0.0023501278236395576,0.006465390314459344,0.8692385858121691
6373,4.0,300.82437000000004,1094.7613,0.0,0.0,0.0,0.0,0.0,0.06351847747769011,-0.23758776497558678,0.1121436333052149,-0.2073359774724678,-0.015353535585275985,-0.014657164255299487,0.8423380723522953
6374,4.0,300.16875,934.02486,0.0,0.0,0.0,0.0,0.0,0.06352844428727393,-0.24981743023756076,0.15287161624225387,-0.1869744127379378,0.003318279681563707,0.008329206118153642,0.8521807230286893
6375,4.0,300.88966,988.0293300000001,0.0,0.0,0.0,0.0,0.0,0.06353841109685775,-0.23791496369787876,0.13699258889011587,-0.1994138613006158,0.03245694700050127,-0.003902723048518777,0.8383158342253312
6376,4.0,299.85325,989.71789,0.0,0.0,0.0,0.0,0.0,0.06354837790644156,-0.26851843004570575,0.14578958572831188,-0.17812067389414182,0.015568294957221085,-9.055922464774962e-05,0.8386390002122251
6377,4.0,299.52112999999997,872.7018800000001,0.0,0.0,0.0,0.0,0.0,0.0635583447160254,-0.25216701536444674,0.14378381662535789,-0.15689638749446785,0.021765511914088778,-0.05584595205956635,0.8306254382188482
6378,4.0,300.18782000000004,1072.0822,0.0,0.0,0.0,0.0,0.0,0.06356831152560923,-0.27493696412916574,0.13748940567914786,-0.18843867058994881,-0.005817714568388725,-0.003722228147255316,0.8729002082285432
6379,4.0,300.31799,1506.0046,0.0,0.0,0.0,0.0,0.0,0.06357827833519303,-0.3272347534655557,0.11082007536208988,-0.24137310522917077,0.01078031231893399,0.0021449741639674677,0.8678582149359372
6380,4.0,299.60308,1606.1867,0.0,0.0,0.0,0.0,0.0,0.06358824514477686,-0.34247304198445766,0.09113224696355252,-0.23689984921769477,-0.028271492520929076,-0.0016400578589361085,0.8739602704831632
6381,4.0,300.7159,1238.236,0.0,0.0,0.0,0.0,0.0,0.06359821195436068,-0.30872033353082473,0.14121821670965287,-0.20889071855840882,0.017006973310457585,0.011229069642472889,0.8772159038494691
6382,4.0,300.29846000000003,1176.4168,0.0,0.0,0.0,0.0,0.0,0.06360817876394449,-0.2877251024487567,0.1374741461326419,-0.2073503554913868,-0.026123057803895074,0.03793697337758776,0.8757625890985382
6383,4.0,300.25687999999997,1158.4569999999999,0.0,0.0,0.0,0.0,0.0,0.06361814557352831,-0.3107232857985007,0.14520717970333286,-0.18662590536604282,0.02073091364773188,0.017981223414108582,0.8892271225223841
6384,4.0,301.27463,1248.766,0.0,0.0,0.0,0.0,0.0,0.06362811238311214,-0.2910525752471527,0.1287885764079429,-0.2173296834737698,-0.04115839840726766,-0.0037442045286742165,0.8764959491234151
6385,4.0,301.21727000000004,1170.125,0.0,0.0,0.0,0.0,0.0,0.06363807919269594,-0.26589060644135976,0.11425010933560789,-0.20404829500549881,0.014181312624086588,-0.017424072647872085,0.8514808711846191
6386,4.0,301.70457000000005,947.4019999999999,0.0,0.0,0.0,0.0,0.0,0.06364804600227977,-0.24485338627514777,0.13239825962419088,-0.17553143485360384,-0.016842789304003885,0.02201056847727398,0.8546133743987732
6387,4.0,300.90552,1044.8980000000001,0.0,0.0,0.0,0.0,0.0,0.06365801281186359,-0.25232535595757377,0.09429278984772381,-0.15959033580033982,0.025873476065763273,-0.005743141286203915,0.8302517110519642
6388,4.0,299.7196,1380.6316,0.0,0.0,0.0,0.0,0.0,0.06366797962144741,-0.29950168279601475,0.07648760850598922,-0.19666346483167282,0.006810868169880353,-0.02058241373957608,0.8206452793713832
6389,4.0,299.67694,1475.5401,0.0,0.0,0.0,0.0,0.0,0.06367794643103124,-0.32344625187165965,0.09125821421598451,-0.2163393125610278,0.011807594919568887,-0.030104253222308468,0.8418593218125462
6390,4.0,299.92618,1155.125,0.0,0.0,0.0,0.0,0.0,0.06368791324061505,-0.26949149464673977,0.0997584392191414,-0.18139611629990282,0.027549826415456176,0.025057966789028774,0.8453221242942981
6391,4.0,298.74382,960.76761,0.0,0.0,0.0,0.0,0.0,0.06369788005019889,-0.24424409872501576,0.13314941232082386,-0.18095467362883583,-0.033596251492441866,-0.013397002331181187,0.8598361416417202
6392,4.0,299.28062,1196.7283,0.0,0.0,0.0,0.0,0.0,0.06370784685978269,-0.2886876596462537,0.12696487821545788,-0.2020527394635528,-0.03266832617011277,0.008798550150599292,0.8618956129999741
6393,4.0,299.49121,1262.7194,0.0,0.0,0.0,0.0,0.0,0.06371781366936652,-0.28161663302839773,0.10867698047308288,-0.2108955250737678,-0.04577155082030036,-0.007433339117063452,0.8633769947786751
6394,4.0,299.80437,929.64593,0.0,0.0,0.0,0.0,0.0,0.06372778047895032,-0.2335198697991168,0.1417361597632699,-0.1908054303060298,0.008408563055385562,0.05679023225175955,0.8690872467772333
6395,4.0,300.66726,991.35323,0.0,0.0,0.0,0.0,0.0,0.06373774728853415,-0.2670073803040768,0.14252789312640785,-0.17686714166542783,-0.0026845233574168278,0.011534138982580888,0.8732444092875131
6396,4.0,300.1893,1308.7401,0.0,0.0,0.0,0.0,0.0,0.06374771409811797,-0.28882162144197476,0.08936103005999702,-0.1983637086319738,0.00979660393089953,-0.011039728662536389,0.8627608373928651
6397,4.0,300.19629,1418.1593,0.0,0.0,0.0,0.0,0.0,0.0637576809077018,-0.3298751211061397,0.12734923437589088,-0.22855911889952882,0.006457904220070525,-0.02944920324466007,0.8717672020992242
6398,4.0,301.56212999999997,1622.5555,0.0,0.0,0.0,0.0,0.0,0.06376764771728562,-0.3570902385895626,0.09207416324326241,-0.22820029664161579,0.02891233774542557,0.006481272097851754,0.8619368928090482
6399,4.0,300.45758,1349.6779,0.0,0.0,0.0,0.0,0.0,0.06377761452686943,-0.3076973156998607,0.12379740774035289,-0.2263684823158298,0.007286124415334493,-0.006822516999655003,0.8734601302338032
6400,4.0,300.21537,1191.7024,0.0,0.0,0.0,0.0,0.0,0.06378758133645326,-0.30372890141820874,0.12556759619505686,-0.1840864777004208,-0.016822626640263984,-0.003788612747431966,0.8610135483904212
6401,4.0,300.28772000000004,1351.4794,0.0,0.0,0.0,0.0,0.0,0.06379754814603707,-0.3093224979327537,0.11640627515090489,-0.2178997785100338,-0.018114122310474684,0.003405262339048227,0.890946942314617
6402,4.0,299.52082,1126.2697,0.0,0.0,0.0,0.0,0.0,0.0638075149556209,-0.29182048710043973,0.14749900957451886,-0.19803639845217083,0.005205893791681715,0.04118329497547476,0.8844476420656862
6403,4.0,299.46473,914.37952,0.0,0.0,0.0,0.0,0.0,0.06381748176520473,-0.23675045562295075,0.13454130385069288,-0.17573939430412783,0.0017224524186428185,0.007679137379321853,0.8870725171122412
6404,4.0,299.87645,956.85395,0.0,0.0,0.0,0.0,0.0,0.06382744857478855,-0.24122869682491876,0.1257519367857499,-0.17538295318394984,-0.017691155241731087,-0.013246445525322387,0.8395874934983343
6405,4.0,298.96462,1124.6416,0.0,0.0,0.0,0.0,0.0,0.06383741538437236,-0.2347170957197738,0.09051448154983381,-0.19766034081005682,0.004340429866467076,-0.01066522737257599,0.8461342746469512
6406,4.0,299.81082999999995,1236.5019,0.0,0.0,0.0,0.0,0.0,0.06384738219395618,-0.2839043491041777,0.1056319410075609,-0.19759331431594182,0.02642160586635947,0.025542158481814774,0.8232349135794602
6407,4.0,300.2169,1269.9803,0.0,0.0,0.0,0.0,0.0,0.06385734900354001,-0.28294722292721675,0.0994140243644003,-0.2025091073085928,0.01877453542090238,-0.0069194605135725834,0.8365734696183732
6408,4.0,300.10629,1144.3524,0.0,0.0,0.0,0.0,0.0,0.06386731581312383,-0.2760219726012477,0.1210760307542739,-0.19290862340609882,-0.02127476753290608,-0.018118625193919085,0.8487676204643423
6409,4.0,300.94554,1003.7219,0.0,0.0,0.0,0.0,0.0,0.06387728262270764,-0.2858152070702647,0.15713812870332586,-0.17642932642971884,-0.008951602996754432,-0.008957592318095531,0.8806475590231472
6410,4.0,300.73829,1175.0102,0.0,0.0,0.0,0.0,0.0,0.06388724943229147,-0.27858298249399976,0.13055210780948986,-0.20914289624329677,0.0009402496251504132,0.012356748102766088,0.8943055117585821
6411,4.0,300.87262999999996,1438.6936,0.0,0.0,0.0,0.0,0.0,0.06389721624187528,-0.3189616271940617,0.12771813847229888,-0.24608343136654376,0.026194741195469676,0.01995605393850918,0.8882345325919232
6412,4.0,300.98534,1326.5942,0.0,0.0,0.0,0.0,0.0,0.06390718305145911,-0.3110684393125647,0.11016079405202389,-0.2023438766147858,-0.014574907598931383,-0.013476451271522187,0.881445584669406
6413,4.0,300.64134,1133.6848,0.0,0.0,0.0,0.0,0.0,0.06391714986104294,-0.29594603620759974,0.14240599913937785,-0.1910718340223218,0.022097704946123682,0.011703552372800687,0.8773481228550181
6414,4.0,300.80312000000004,1232.8762,0.0,0.0,0.0,0.0,0.0,0.06392711667062675,-0.3092836499239197,0.13316021356688987,-0.19864014352425582,-0.012449658070685588,0.023077387083560774,0.8703415592085243
6415,4.0,300.52099999999996,1329.1114,0.0,0.0,0.0,0.0,0.0,0.06393708348021057,-0.3471323408467947,0.15449400190487086,-0.2113783286139168,-0.0027023325451494577,0.015180658906214384,0.885104542238017
6416,4.0,299.73187,1200.4054,0.0,0.0,0.0,0.0,0.0,0.06394705028979439,-0.26227030436406373,0.1124492498003769,-0.21507221291347478,-0.03565426275730177,-0.018151716928934983,0.8515627823227031
6417,4.0,299.94327999999996,1170.7234,0.0,0.0,0.0,0.0,0.0,0.06395701709937822,-0.2840800770690207,0.11667147309957789,-0.18846208679975984,-0.002786546395410717,0.012267629716720789,0.8524518890204512
6418,4.0,299.97066,1174.5143,0.0,0.0,0.0,0.0,0.0,0.06396698390896204,-0.28439725474782374,0.14362842459002184,-0.21625419955262778,0.013776988343932886,0.01087068612185319,0.8578337669266012
6419,4.0,299.52042,1207.9096,0.0,0.0,0.0,0.0,0.0,0.06397695071854585,-0.28486396787638474,0.12460766331531888,-0.2069180624687228,0.02254952228496458,0.007464739940312472,0.8478014864939921
6420,4.0,299.85336,1356.5675,0.0,0.0,0.0,0.0,0.0,0.06398691752812968,-0.28523174726518175,0.1089826476307499,-0.23611355700759376,-0.004606390893790386,-0.03583639750252707,0.8509451759892502
6421,4.0,300.72782,1268.8667,0.0,0.0,0.0,0.0,0.0,0.06399688433771349,-0.3176428821889117,0.11751125478245789,-0.18557215565954582,0.02063627608839188,-0.01083149360798519,0.8862250043310981
6422,4.0,300.62001000000004,1092.0364,0.0,0.0,0.0,0.0,0.0,0.06400685114729732,-0.2416192439434628,0.12768888594191188,-0.21802142931703977,0.01073327319629159,0.004917807637824826,0.8768725640530841
6423,4.0,301.27472,1202.7059,0.0,0.0,0.0,0.0,0.0,0.06401681795688115,-0.2887643322813207,0.12156117490215389,-0.19838938438950782,-0.007439246871771503,-0.0005355265094923514,0.8582811877732581
6424,4.0,300.24653,1468.5644,0.0,0.0,0.0,0.0,0.0,0.06402678476646496,-0.2991416243729797,0.1032234961823659,-0.25048878948881875,-0.019016711314053282,-0.018334038112178683,0.8538316519466231
6425,4.0,299.48425,1365.3804,0.0,0.0,0.0,0.0,0.0,0.06403675157604878,-0.3053920501323487,0.10559885839179589,-0.2152483563108588,-0.022320967512907977,0.03418507037730377,0.8507153607340691
6426,4.0,299.65229,955.52998,0.0,0.0,0.0,0.0,0.0,0.0640467183856326,-0.2652626852218888,0.15042922753870885,-0.17562379260021882,0.01097834293172809,0.03488282884666717,0.8739579704054362
6427,4.0,298.4204,920.03474,0.0,0.0,0.0,0.0,0.0,0.06405668519521643,-0.26464417709584676,0.16343229646951185,-0.17845570503970684,-0.006970462153381055,0.029599825911775374,0.8905516025231002
6428,4.0,298.96544,1237.1316,0.0,0.0,0.0,0.0,0.0,0.06406665200480025,-0.28350759076252074,0.13669349772559786,-0.2292430120545238,0.03235176049437017,-0.011811070367411887,0.8964700064897011
6429,4.0,300.02047999999996,1215.5035,0.0,0.0,0.0,0.0,0.0,0.06407661881438406,-0.2954315280718217,0.14266564447750285,-0.2167168191507848,-0.00023403598900255377,0.004377324025133246,0.8819472143964132
6430,4.0,299.77364,1165.9427,0.0,0.0,0.0,0.0,0.0,0.06408658562396789,-0.2858507012212677,0.14004811549417287,-0.2086148916161868,0.039384419383939565,0.017452444663922182,0.8790569083536621
6431,4.0,299.43789,1250.5768,0.0,0.0,0.0,0.0,0.0,0.0640965524335517,-0.3053121654944647,0.1341084839379769,-0.2089404488733168,-0.04068554599635076,-0.015718957141090284,0.873194658707603
6432,4.0,299.87592,1302.1699,0.0,0.0,0.0,0.0,0.0,0.06410651924313553,-0.32669740667252367,0.11285221936514689,-0.18198193697771883,-0.008591088712499442,-0.03478913766292057,0.8772232195151912
6433,4.0,300.59107,1477.5339,0.0,0.0,0.0,0.0,0.0,0.06411648605271936,-0.3330941761438357,0.1020563232596749,-0.21809554856185479,-0.023929593239166977,0.007977088536152342,0.8646623025305252
6434,4.0,300.58259,1422.7365,0.0,0.0,0.0,0.0,0.0,0.06412645286230317,-0.3132150704444207,0.1027133247570159,-0.22197461444968877,0.03392241669963186,0.014056072885226385,0.8547498693197442
6435,4.0,300.04032,995.0418099999999,0.0,0.0,0.0,0.0,0.0,0.06413641967188699,-0.2508815150950777,0.12102109233385187,-0.17260743824502783,-0.002590012859639367,0.006870264789417342,0.8371333409611282
6436,4.0,299.33374,894.0738699999999,0.0,0.0,0.0,0.0,0.0,0.06414638648147081,-0.21902623904370677,0.12094358883370289,-0.17369348023221182,0.004849883505446235,-0.039103988233263165,0.8162769555402632
6437,4.0,300.1025,1163.9427,0.0,0.0,0.0,0.0,0.0,0.06415635329105464,-0.2746543382787727,0.10160013779965289,-0.18075530653915983,-0.008746019921689961,0.01153736821064959,0.8512292913172902
6438,4.0,300.60549,1258.3093,0.0,0.0,0.0,0.0,0.0,0.06416632010063845,-0.29104480361888574,0.12091980785385589,-0.21236960131924779,-0.018198874601839082,0.004559736299560936,0.8765546467017081
6439,4.0,300.91156,1117.0309,0.0,0.0,0.0,0.0,0.0,0.06417628691022227,-0.2656913913391987,0.12052042519443988,-0.19437853519366782,-0.005383006160136344,0.003129607345368197,0.8934871400503152
6440,4.0,299.26937000000004,1064.8511,0.0,0.0,0.0,0.0,0.0,0.0641862537198061,-0.2425853880463138,0.13123388327177588,-0.21233664029349478,-0.016116149153790085,-0.04626622458537086,0.8706160689256162
6441,4.0,299.55944,1527.5049,0.0,0.0,0.0,0.0,0.0,0.0641962205293899,-0.33166762132804567,0.11100154845499989,-0.24365728506210177,0.01039385771754389,0.0010575513195471892,0.8967260446574702
6442,4.0,299.27133,1687.2918,0.0,0.0,0.0,0.0,0.0,0.06420618733897374,-0.34917822452120767,0.08275472654750562,-0.24647109072230278,0.02205388390579888,-0.007392578092040654,0.8495645112704893
6443,4.0,299.38095,1553.7513,0.0,0.0,0.0,0.0,0.0,0.06421615414855757,-0.37307163459930365,0.11541509363808289,-0.21464504693631678,0.015200524687674986,0.012952284835790988,0.8765986217560482
6444,4.0,300.48397,1181.8223,0.0,0.0,0.0,0.0,0.0,0.06422612095814138,-0.3147429806677137,0.13078825587779588,-0.17528972404224882,0.0039148202414626765,0.0027091911337513474,0.8581242353327683
6445,4.0,300.8955,788.20463,0.0,0.0,0.0,0.0,0.0,0.0642360877677252,-0.24983410833420677,0.14902161036728787,-0.13878202909671988,-0.01197062888715909,0.03516597956061197,0.8543880985040402
6446,4.0,299.49965,978.2995800000001,0.0,0.0,0.0,0.0,0.0,0.06424605457730902,-0.2618504135226238,0.16475090975214884,-0.20027913635601183,-0.021536108038448378,0.03373500190813547,0.8644382425359122
6447,4.0,299.74956000000003,1383.3427,0.0,0.0,0.0,0.0,0.0,0.06425602138689285,-0.3121205171563967,0.12309649198367788,-0.23147761356006177,-0.027929778990954574,-1.092245408271229e-05,0.8692451719378191
6448,4.0,300.15822000000003,1059.1678,0.0,0.0,0.0,0.0,0.0,0.06426598819647666,-0.23554869034184578,0.12272322077933888,-0.2091350840850258,-0.01929286756255778,-0.031467975386147366,0.8696821664409472
6449,4.0,299.7217,913.90345,0.0,0.0,0.0,0.0,0.0,0.06427595500606048,-0.26563209594334675,0.15593652554223686,-0.16810825316349284,0.012159679064316888,-0.015376787648570785,0.8763825157747203
6450,4.0,299.90452999999997,1431.1668,0.0,0.0,0.0,0.0,0.0,0.06428592181564431,-0.2907745698172157,0.1032897019438999,-0.24755410309168777,0.033780026689579065,-0.016835254776260283,0.8912925619237271
6451,4.0,299.75057999999996,1620.858,0.0,0.0,0.0,0.0,0.0,0.06429588862522811,-0.3242534778288267,0.09333435556488372,-0.26178122880579574,0.023830741572661077,0.00031069389141309965,0.8821905970704332
6452,4.0,299.82136,1247.3253,0.0,0.0,0.0,0.0,0.0,0.06430585543481195,-0.26976556866628876,0.11689484408412289,-0.2262850209050928,-0.021579849032015277,-0.004081224988160546,0.8510892196234662
6453,4.0,301.50597,1049.7202,0.0,0.0,0.0,0.0,0.0,0.06431582224439578,-0.27187613822708573,0.1268976085413189,-0.17411020973333982,0.019101639910935084,0.019333831237600584,0.8534785241542722
6454,4.0,299.80973,1077.7128,0.0,0.0,0.0,0.0,0.0,0.06432578905397959,-0.2582606508033417,0.12038870268143989,-0.1897258427219828,-0.01842609391026388,0.004641414998071996,0.8386453836878551
6455,4.0,299.23739,1125.5926,0.0,0.0,0.0,0.0,0.0,0.06433575586356341,-0.3275531065144747,0.11348969553306089,-0.1280886333713639,-0.007055768996525183,-0.004576632244978436,0.8501196406027762
6456,4.0,298.58031,1330.6063,0.0,0.0,0.0,0.0,0.0,0.06434572267314723,-0.3192891602888867,0.11341730894591688,-0.19859924875021984,-0.031521277407657866,-0.03364944712269186,0.8580001223280191
6457,4.0,299.12363999999997,1175.3437,0.0,0.0,0.0,0.0,0.0,0.06435568948273106,-0.2855387924429847,0.15615566114136387,-0.2278919950336888,-0.005699737096970255,0.006936712717725243,0.8936875507875942
6458,4.0,298.91195,865.67516,0.0,0.0,0.0,0.0,0.0,0.06436565629231489,-0.2215332629711308,0.13815455370729288,-0.17976492549391682,-0.0012935465897381088,0.016947461079084184,0.8809356665565812
6459,4.0,299.55826,1219.9972,0.0,0.0,0.0,0.0,0.0,0.06437562310189869,-0.26201101366347374,0.13776300347114986,-0.24660068541009278,-0.007133172083589273,0.003395047359490087,0.8905243967579152
6460,4.0,299.67815,1736.0048,0.0,0.0,0.0,0.0,0.0,0.06438558991148252,-0.34836600324104766,0.09121805810127141,-0.2705541508216157,0.008621436768894562,0.01144577040160959,0.8722693384512811
6461,4.0,300.92202000000003,1487.2553,0.0,0.0,0.0,0.0,0.0,0.06439555672106632,-0.37064777824008766,0.1163765362604699,-0.1978172223230398,0.005099433224874875,-0.0026637709821187273,0.8830909001817862
6462,4.0,300.6231,880.46095,0.0,0.0,0.0,0.0,0.0,0.06440552353065016,-0.26793783773840574,0.16646049571837185,-0.16616079660379385,0.043627493343698365,-0.014912051370954886,0.8674633817694701
6463,4.0,300.45358999999996,996.17841,0.0,0.0,0.0,0.0,0.0,0.06441549034023399,-0.28292367499489274,0.14219618544117085,-0.1620858694716298,-0.017558626181651483,-0.039093709824248764,0.8559659315597602
6464,4.0,300.40283,1220.0495,0.0,0.0,0.0,0.0,0.0,0.0644254571498178,-0.28899476561906273,0.13985661122527288,-0.2217264391026958,0.014854742958548984,-0.008561861817339972,0.8650506103663481
6465,4.0,300.07842999999997,1151.8783,0.0,0.0,0.0,0.0,0.0,0.06443542395940162,-0.27646723522519173,0.13617718600464185,-0.20985219157829882,-0.013168730255902487,0.012178925749966388,0.8536937891380171
6466,4.0,299.53783,1076.8464,0.0,0.0,0.0,0.0,0.0,0.06444539076898544,-0.2723515045115007,0.12709907305870188,-0.18208197516009184,0.01025532920362219,0.04445891368675316,0.8584823584481122
6467,4.0,299.28548,919.3293800000001,0.0,0.0,0.0,0.0,0.0,0.06445535757856927,-0.2958703565576307,0.17123244772682683,-0.15481526298157686,-0.023357591266214773,0.02085547045602468,0.8810832666986482
6468,4.0,299.70391,1149.2235,0.0,0.0,0.0,0.0,0.0,0.0644653243881531,-0.25612421296749177,0.0985977521103405,-0.1918088012175548,-0.018038626058773783,0.009276311656925681,0.8487307077631991
6469,4.0,299.21693999999997,1573.1987,0.0,0.0,0.0,0.0,0.0,0.0644752911977369,-0.32900795127305665,0.1128501523349429,-0.26205533322284774,-0.004247769259397186,-0.0005752137629866785,0.9089543622968113
6470,4.0,299.49422999999996,1445.6106,0.0,0.0,0.0,0.0,0.0,0.06448525800732073,-0.2825457428400937,0.1061865738472989,-0.26307034637802174,0.0037218950919474464,-0.027855032544327675,0.8891826915054991
6471,4.0,300.1415,1098.7608,0.0,0.0,0.0,0.0,0.0,0.06449522481690453,-0.24748755282511978,0.11574291044293589,-0.2022512047606398,-0.012272739536975089,-0.04340787239777346,0.8830814161608502
6472,4.0,300.58654,1169.2557,0.0,0.0,0.0,0.0,0.0,0.06450519162648836,-0.3071035916712647,0.14400200990189185,-0.19232295471579783,-0.019413160614429784,-0.029207493446555176,0.8454489325443132
6473,4.0,300.60692,1530.8119,0.0,0.0,0.0,0.0,0.0,0.0645151584360722,-0.35938235217077663,0.1123214890952679,-0.21826773015134776,0.02226808801668918,0.007851824580614753,0.8941846006241493
6474,4.0,300.50401,1246.7015,0.0,0.0,0.0,0.0,0.0,0.06452512524565601,-0.27444602419071373,0.1119571446243099,-0.2164772462971408,0.01957424914182798,0.025151480654007876,0.8442415741226562
6475,4.0,300.51985,1027.7494,0.0,0.0,0.0,0.0,0.0,0.06453509205523983,-0.2960300042433867,0.15921188688798985,-0.17559204747458582,0.021402972041558877,-0.01014224745271189,0.9008235571343632
6476,4.0,299.89612999999997,1104.2939999999999,0.0,0.0,0.0,0.0,0.0,0.06454505886482365,-0.24494572375676077,0.11386545933264589,-0.2045975373547048,-0.005072904817381724,-5.965993385372704e-07,0.8453400689535692
6477,4.0,299.78737,1237.5792,0.0,0.0,0.0,0.0,0.0,0.06455502567440748,-0.2923257949253097,0.12794562325224987,-0.2118130230393178,-0.021985240264524277,-0.0021106678460566983,0.8849983333625352
6478,4.0,299.76124,1376.6415,0.0,0.0,0.0,0.0,0.0,0.06456499248399131,-0.3104470839537417,0.12219946167014788,-0.23021702911065178,-0.019312035214699482,0.01012455570066585,0.8602507129201352
6479,4.0,299.44837,1514.0299,0.0,0.0,0.0,0.0,0.0,0.06457495929357511,-0.3306620212663007,0.07666879383587083,-0.20623404772371579,-0.02322027358616258,-0.0019018449037974782,0.8775265156676242
6480,4.0,298.78974,961.3775400000001,0.0,0.0,0.0,0.0,0.0,0.06458492610315894,-0.2371052248804638,0.14418305742975987,-0.19931259708562182,-0.02191106529095378,-0.0011332931830723288,0.877671329371916
6481,4.0,299.28085,774.26258,0.0,0.0,0.0,0.0,0.0,0.06459489291274274,-0.23291971163238578,0.14688345000626787,-0.14932022530425884,0.017177211486258784,0.006431657293455155,0.8902711754254241
6482,4.0,300.45984,1370.8807,0.0,0.0,0.0,0.0,0.0,0.06460485972232657,-0.26558653008634975,0.09379396884999401,-0.24492092952681377,0.011269310870194388,0.0015462168154997185,0.8721604343305333
6483,4.0,300.42597,1511.7928,0.0,0.0,0.0,0.0,0.0,0.0646148265319104,-0.3352788548169467,0.1038340908251269,-0.2281025078744648,0.03600248945891907,-0.006455521359810354,0.8783283207367562
6484,4.0,300.90693999999996,1062.6311,0.0,0.0,0.0,0.0,0.0,0.06462479334149422,-0.28146217318315375,0.1034762818173139,-0.14502741900309185,-0.005400001100088614,-0.006042654773363594,0.8345880465774272
6485,4.0,299.98028999999997,889.05118,0.0,0.0,0.0,0.0,0.0,0.06463476015107804,-0.2804167726574807,0.16222248598261282,-0.15205506838416685,0.014858876005706886,0.02239943360065198,0.8409961745823602
6486,4.0,300.31746,1249.1007,0.0,0.0,0.0,0.0,0.0,0.06464472696066186,-0.3030956505032117,0.11305616634527488,-0.18965591833258183,-0.017620970447054383,0.014281342700458789,0.8666855198002013
6487,4.0,300.0781,1403.3007,0.0,0.0,0.0,0.0,0.0,0.06465469377024569,-0.3151269011306037,0.1125487610926979,-0.22399022221111375,-0.008866779980533052,0.007402876462082024,0.877207189898609
6488,4.0,299.89746,1334.9087,0.0,0.0,0.0,0.0,0.0,0.06466466057982949,-0.26475329399911574,0.0945525648818616,-0.23557818605225678,-0.024045200009326476,-0.008455667026034362,0.8797509644071602
6489,4.0,299.23941,968.5599199999999,0.0,0.0,0.0,0.0,0.0,0.06467462738941332,-0.27709206603185776,0.14747964636510785,-0.16480561512504785,-0.0018434273878321181,-0.01043453464280839,0.8993980864961801
6490,4.0,299.10943,918.51077,0.0,0.0,0.0,0.0,0.0,0.06468459419899715,-0.25027827664804275,0.14311041060889784,-0.17203647181367784,-0.00022062743764673275,0.015565583499953486,0.8781329154549712
6491,4.0,299.53261000000003,1442.4209,0.0,0.0,0.0,0.0,0.0,0.06469456100858095,-0.33277891350772165,0.10161486032360591,-0.2072958932985118,0.014403190077984185,0.0088505593663072,0.8795075817331401
6492,4.0,300.09879,1718.1194,0.0,0.0,0.0,0.0,0.0,0.06470452781816478,-0.3404201263543507,0.07716197508354403,-0.25900725400702573,0.010514241961924891,0.021458308669270183,0.8849256529328622
6493,4.0,299.78249,1140.1487,0.0,0.0,0.0,0.0,0.0,0.0647144946277486,-0.28187868990176074,0.13556826322454588,-0.2002663086097458,0.0033669191314140466,0.01955734509040968,0.8889258427376502
6494,4.0,301.48661,839.4512,0.0,0.0,0.0,0.0,0.0,0.06472446143733243,-0.21587934767813277,0.13900805479652686,-0.17830091082192984,-0.022303522385936275,0.006507154963706193,0.8582229664225122
6495,4.0,300.46257,1228.9347,0.0,0.0,0.0,0.0,0.0,0.06473442824691623,-0.3219723377461957,0.13144886454549287,-0.18304199923233883,-0.022040368162714978,-0.02928315891102277,0.8553516993491401
6496,4.0,300.15083,1469.4321,0.0,0.0,0.0,0.0,0.0,0.06474439505650006,-0.3204984945482387,0.09573784053083922,-0.2219100197558138,-0.013002645392261187,-0.04231529798719476,0.8460582910219522
6497,4.0,300.56555,1251.1007,0.0,0.0,0.0,0.0,0.0,0.06475436186608388,-0.2960580408736537,0.08651137966425841,-0.17075670653987482,0.028049407350760974,-0.003354439031257357,0.8571550109496132
6498,4.0,300.02927999999997,1010.8602,0.0,0.0,0.0,0.0,0.0,0.0647643286756677,-0.2633930564023707,0.14672035727017185,-0.19060356048860683,0.022191114446342478,0.028915893240026472,0.880510932379663
6499,4.0,299.16623,1064.0746,0.0,0.0,0.0,0.0,0.0,0.06477429548525152,-0.26263864104041573,0.13544441366482285,-0.19625788108164482,0.008380576074373461,0.009871935630784189,0.8934755484691711
6500,4.0,300.16708,1444.675,0.0,0.0,0.0,0.0,0.0,0.06478426229483535,-0.28424980659327176,0.0983335461335154,-0.25322887107174374,-0.024069424792717273,-0.0048605718754510955,0.8853966825068491
6501,4.0,299.43574,1599.4854,0.0,0.0,0.0,0.0,0.0,0.06479422910441918,-0.35350323191055266,0.10774820503391991,-0.24044859557292877,-0.02197599537061188,-0.011385829565443888,0.9092388221298852
6502,4.0,299.71006,1336.5894,0.0,0.0,0.0,0.0,0.0,0.06480419591400298,-0.29281985567406976,0.1007462506621308,-0.21421620909649378,0.009792260735670891,0.0074359629281974034,0.8756101152234901
6503,4.0,300.41871000000003,964.64141,0.0,0.0,0.0,0.0,0.0,0.06481416272358681,-0.2792481710521487,0.15782740221635183,-0.17180612966844483,-0.01825964731633688,-0.0036403087005204967,0.8768488337357422
6504,4.0,299.81113,1098.9532,0.0,0.0,0.0,0.0,0.0,0.06482412953317061,-0.30055674972764174,0.15358681882533884,-0.18708439090379184,0.020042575364548183,-0.0013090454659177289,0.8486270725429713
6505,4.0,300.13447,1393.2162,0.0,0.0,0.0,0.0,0.0,0.06483409634275444,-0.3275616583453187,0.13658501916989188,-0.2325263071485598,0.01916388994407868,0.02026617737011598,0.8888214577123481
6506,4.0,301.27382,1108.5323,0.0,0.0,0.0,0.0,0.0,0.06484406315233826,-0.26900393896362174,0.16331074698751585,-0.23127294717236277,0.024237331480038374,0.04517056178848736,0.8857942210510831
6507,4.0,300.51021000000003,870.36231,0.0,0.0,0.0,0.0,0.0,0.06485402996192209,-0.2769569997935277,0.1748761254839298,-0.16248753194377083,-0.0027379219416618574,-0.013587875345268887,0.8775753137924401
6508,4.0,300.42575,1156.6053,0.0,0.0,0.0,0.0,0.0,0.06486399677150591,-0.2767973217102687,0.14372943549249087,-0.2185112546803818,-0.006080991597522145,-0.024381846275550876,0.8727173469829961
6509,4.0,301.10828,1524.4622,0.0,0.0,0.0,0.0,0.0,0.06487396358108972,-0.3313009261168557,0.09382819339862172,-0.2259257021546308,-0.0014907374208493285,-0.023228809205004978,0.8940280534836992
6510,4.0,300.67879,1511.8949,0.0,0.0,0.0,0.0,0.0,0.06488393039067356,-0.30741412242941174,0.09120121687135932,-0.24336539810579474,0.008898418309605511,-0.006003515252475824,0.8847334697863952
6511,4.0,300.64282000000003,1387.2654,0.0,0.0,0.0,0.0,0.0,0.06489389720025736,-0.3044651897358747,0.1076592619401419,-0.22488810365472778,-0.007331642244276753,-0.01944385195995878,0.8986321606130893
6512,4.0,300.12933,1036.3462,0.0,0.0,0.0,0.0,0.0,0.06490386400984119,-0.26776243401359473,0.13828929570559087,-0.18555021879488082,-0.01905671848100168,-0.008715045068782982,0.8926375501064672
6513,4.0,299.82687999999996,934.7188699999999,0.0,0.0,0.0,0.0,0.0,0.06491383081942502,-0.2707249543909727,0.14817722852895387,-0.16158347980704785,0.011369340946566591,0.01306646900281009,0.8852200831469201
6514,4.0,299.70175,1439.067,0.0,0.0,0.0,0.0,0.0,0.06492379762900882,-0.29541774787046177,0.10375467228228889,-0.24577734877633578,0.037337796036953565,0.021589410059958878,0.8807717024253993
6515,4.0,299.58502000000004,1427.8053,0.0,0.0,0.0,0.0,0.0,0.06493376443859265,-0.33288633828332365,0.11931677526814889,-0.2204475958864838,0.029154728447597675,0.0003335376047850987,0.8491059750702352
6516,4.0,299.32451000000003,902.8353,0.0,0.0,0.0,0.0,0.0,0.06494373124817647,-0.2647111326624548,0.16500549897227484,-0.17473375371237884,-0.008104074003609832,-0.008584545143353642,0.8634082231467572
6517,4.0,300.16619,942.59029,0.0,0.0,0.0,0.0,0.0,0.0649536980577603,-0.26956380017387577,0.15903588534561985,-0.17599599989195283,-0.01887913829497588,0.006551579698440574,0.8623821959629961
6518,4.0,300.85353,1409.5751,0.0,0.0,0.0,0.0,0.0,0.06496366486734412,-0.31643005221671466,0.11598461112178987,-0.22803018208232678,-0.010445674314407792,0.01847914261924938,0.8961321078463531
6519,4.0,301.34682999999995,1374.9072,0.0,0.0,0.0,0.0,0.0,0.06497363167692793,-0.3297202458283547,0.12157379999839987,-0.20979099127225878,-0.014682624190562186,0.0041106065052852764,0.874652381096469
6520,4.0,301.90897,1300.0595,0.0,0.0,0.0,0.0,0.0,0.06498359848651176,-0.2830678199541187,0.10850316755092891,-0.22062098324359578,-0.00920063839043231,-0.025175218064100575,0.8887596291912462
6521,4.0,301.436,1146.3165,0.0,0.0,0.0,0.0,0.0,0.06499356529609557,-0.30042576688721473,0.13421926257140987,-0.18224507802868883,0.007516039576975353,-0.016707392746141282,0.8948410448339351
6522,4.0,300.10282,1054.1249,0.0,0.0,0.0,0.0,0.0,0.0650035321056794,-0.25178495928174077,0.13777183901202186,-0.2064145075665258,0.028985621058908072,0.001046166745398619,0.9149510904961421
6523,4.0,300.30967000000004,1286.0285,0.0,0.0,0.0,0.0,0.0,0.06501349891526323,-0.3117626372210767,0.11566377561012589,-0.19482170038990482,0.002330722463024398,-0.004088034738107616,0.8735410686517913
6524,4.0,300.03354,1469.2146,0.0,0.0,0.0,0.0,0.0,0.06502346572484703,-0.3384641990238157,0.13042520836696586,-0.2385655513220868,-0.014879144047457186,0.007585913303871353,0.9194862560887281
6525,4.0,299.64886,1090.0283,0.0,0.0,0.0,0.0,0.0,0.06503343253443086,-0.3039878982762697,0.14045533057686188,-0.16780880736143985,-0.006948744353387675,0.044079358305293956,0.8588470879541082
6526,4.0,299.34576,840.5958400000001,0.0,0.0,0.0,0.0,0.0,0.06504339934401468,-0.22953097773294381,0.13866265810243886,-0.16465183415737084,-0.006124743534190125,0.04456286808076266,0.8536987743285093
6527,4.0,299.53109,1221.5489,0.0,0.0,0.0,0.0,0.0,0.06505336615359851,-0.30842397814157674,0.14681665655967585,-0.2097130520745668,0.009136918536693652,0.025374394662757774,0.8667761144916422
6528,4.0,300.11307999999997,1478.1665,0.0,0.0,0.0,0.0,0.0,0.06506333296318233,-0.29287710430471975,0.09851105640528432,-0.25495967449506074,-0.010325598098057191,-0.036172895834236864,0.8699487322772551
6529,4.0,300.97614,1130.1019999999999,0.0,0.0,0.0,0.0,0.0,0.06507329977276614,-0.2869637260586147,0.1390504593132119,-0.19560951247515582,0.01019074666874839,-0.019385848457984283,0.8962415185921512
6530,4.0,300.56804,1048.7187,0.0,0.0,0.0,0.0,0.0,0.06508326658234997,-0.24727312883895775,0.12673261089503488,-0.1982437904826388,0.007914100147660872,-0.01148038505152579,0.8874903713209801
6531,4.0,299.7744,1360.2568,0.0,0.0,0.0,0.0,0.0,0.06509323339193378,-0.3051945676878587,0.09140590352406032,-0.1996954333709048,0.001039828359398069,0.000987966348664687,0.8898512339214792
6532,4.0,300.57987,1520.1975,0.0,0.0,0.0,0.0,0.0,0.06510320020151761,-0.3047517267316537,0.09606619841124561,-0.25341655538776675,-0.0016055160617020985,-0.0008157703102252613,0.8765736755385862
6533,4.0,300.54726,1503.2738,0.0,0.0,0.0,0.0,0.0,0.06511316701110144,-0.33688425840788766,0.09800530882987091,-0.21807874887519677,-0.0015360489520712286,0.014290334281846185,0.8978655963824351
6534,4.0,299.97738,1379.0231,0.0,0.0,0.0,0.0,0.0,0.06512313382068524,-0.2873809013897867,0.11117796542991089,-0.24298565223331678,0.008236151559444871,0.004227939650965156,0.898730516800296
6535,4.0,298.24541,940.0464199999999,0.0,0.0,0.0,0.0,0.0,0.06513310063026907,-0.27608402403737176,0.15118259925306085,-0.16084920785708084,-0.031719116516183074,-0.00999203353068693,0.8969101724656422
6536,4.0,298.60597,1044.5309,0.0,0.0,0.0,0.0,0.0,0.06514306743985289,-0.26899478931521875,0.14475577678378287,-0.1932722889994898,0.0062659167321978335,-0.00924621134018001,0.8711356939743993
6537,4.0,300.13229,1537.796,0.0,0.0,0.0,0.0,0.0,0.06515303424943672,-0.3357291330288857,0.1104732702503629,-0.24219571232285578,-0.02647189448207258,0.01039283636144309,0.8656395721194742
6538,4.0,300.28123999999997,1145.3641,0.0,0.0,0.0,0.0,0.0,0.06516300105902054,-0.29395604340870274,0.14080618868898886,-0.1950122319387088,0.012135434015924089,0.03645294802937586,0.8628136277230752
6539,4.0,300.54501,826.54587,0.0,0.0,0.0,0.0,0.0,0.06517296786860435,-0.24885754802032775,0.14436376045259386,-0.14675550691614087,-0.01992854115854388,0.0014692007899738285,0.8612352171147982
6540,4.0,301.1865,1235.9277,0.0,0.0,0.0,0.0,0.0,0.06518293467818818,-0.28856734632937975,0.14586535657078986,-0.23298918005924177,0.009093367730170521,-0.006965735544314572,0.9049715193337352
6541,4.0,299.54817,1423.2165,0.0,0.0,0.0,0.0,0.0,0.06519290148777199,-0.30317566686360875,0.1122852451391909,-0.24173185655957677,-0.020894433975370084,-0.007380416659040413,0.909170589868151
6542,4.0,300.62699,1507.1999,0.0,0.0,0.0,0.0,0.0,0.06520286829735582,-0.30029366947167774,0.09192792389607972,-0.24978540140189978,0.004446002927511326,0.0013638040344469788,0.904147726737433
6543,4.0,301.45235,1534.6591,0.0,0.0,0.0,0.0,0.0,0.06521283510693965,-0.3072461660928357,0.07181307846814904,-0.2310649471918348,-0.014938741391838985,0.0024996327745695477,0.8779077408852481
6544,4.0,300.5669,1340.3184,0.0,0.0,0.0,0.0,0.0,0.06522280191652347,-0.3243030966862237,0.09992733078555971,-0.18304755184288682,0.006986988667812093,0.013592541361979385,0.8813874849086721
6545,4.0,301.61652000000004,1095.7147,0.0,0.0,0.0,0.0,0.0,0.06523276872610728,-0.28749985695152674,0.1314121747593719,-0.17698222661178584,0.017697898421146583,0.03025441587387837,0.8422121354973662
6546,4.0,300.82828,1198.7266,0.0,0.0,0.0,0.0,0.0,0.0652427355356911,-0.2888798529252217,0.12452507329966787,-0.2000281644387428,0.025765154563822775,0.009372064500650751,0.8834628136309912
6547,4.0,299.88537,1204.7936,0.0,0.0,0.0,0.0,0.0,0.06525270234527493,-0.2796062941674927,0.12245833693819688,-0.2090792134745118,-0.009575032478532131,-0.02092969710535028,0.8714516557530823
6548,4.0,300.5872,1099.3901,0.0,0.0,0.0,0.0,0.0,0.06526266915485875,-0.24951594780280675,0.14794008747554988,-0.23261128843444678,-0.016847603255228983,-0.04073291442527566,0.8830119173364911
6549,4.0,300.15604,1116.3764,0.0,0.0,0.0,0.0,0.0,0.06527263596444256,-0.2652189533475728,0.1186626615335929,-0.1927942578673118,-0.02106117643832628,-0.003368675499137387,0.8579875884242821
6550,4.0,299.53744,1337.9518,0.0,0.0,0.0,0.0,0.0,0.0652826027740264,-0.3158806781449957,0.12089979616438089,-0.21172306669543978,-0.022159478751720276,0.008225046034373842,0.8920522664512043
6551,4.0,299.65319,1388.463,0.0,0.0,0.0,0.0,0.0,0.0652925695836102,-0.3077258184251737,0.09948912240881191,-0.21382136579752578,-0.0032822000746529265,-0.002036042888116788,0.8725241303214272
6552,4.0,299.79587999999995,1390.6093,0.0,0.0,0.0,0.0,0.0,0.06530253639319403,-0.3101123669157077,0.1053240244346719,-0.21792218146974476,0.0032783450633224664,0.007733222339184624,0.9152047069961721
6553,4.0,300.7559,1419.0896,0.0,0.0,0.0,0.0,0.0,0.06531250320277786,-0.34304937864133767,0.14175162195979585,-0.2300700369186448,0.025751431104468377,0.011486581075887289,0.9305767749257771
6554,4.0,300.32007999999996,1166.7216,0.0,0.0,0.0,0.0,0.0,0.06532247001236167,-0.26273991538791075,0.13028749754587488,-0.22220182565211277,0.021607012240696083,0.017669755399619083,0.9023423075767523
6555,4.0,300.152,950.72058,0.0,0.0,0.0,0.0,0.0,0.06533243682194549,-0.2795920276060847,0.15137609962465784,-0.16077938479268986,0.01951245101822898,-0.004620188624377116,0.8755826764107821
6556,4.0,300.56422000000003,1278.7579,0.0,0.0,0.0,0.0,0.0,0.06534240363152931,-0.3093155166395647,0.15197129286589886,-0.23136624724157076,0.0026156723038467575,-0.012465250976474489,0.8863844797643372
6557,4.0,299.22901,1291.5092,0.0,0.0,0.0,0.0,0.0,0.06535237044111314,-0.32136770101402273,0.13795650384274685,-0.2091753506439998,-0.0022979401745890377,0.013225863376041088,0.8448111422688681
6558,4.0,299.39928,989.27212,0.0,0.0,0.0,0.0,0.0,0.06536233725069696,-0.26879119697262577,0.15746415205550185,-0.18938697135853882,-0.02853751424193337,0.0023553986493347477,0.8682575266678462
6559,4.0,299.98857999999996,1137.7011,0.0,0.0,0.0,0.0,0.0,0.06537230406028077,-0.26748137870085675,0.13337740372582488,-0.2117287510285008,-0.02411942057915148,-0.014274288453262587,0.8809192924349653
6560,4.0,299.70367999999996,1313.8775,0.0,0.0,0.0,0.0,0.0,0.0653822708698646,-0.26363716861646275,0.0998406715575071,-0.23558946352586976,-0.025764031882711976,-0.02243643445455368,0.8893888676358472
6561,4.0,299.86052,1239.904,0.0,0.0,0.0,0.0,0.0,0.0653922376794484,-0.3143953244259027,0.13418094145262788,-0.19668548275634581,0.026363361210861178,0.004220054943986996,0.9013497075137902
6562,4.0,300.66511,1361.4602,0.0,0.0,0.0,0.0,0.0,0.06540220448903224,-0.2918119454020967,0.09679970231763681,-0.2188376529350948,0.012278582950301788,0.008685473567264502,0.9080386679164392
6563,4.0,300.10552,1205.1723,0.0,0.0,0.0,0.0,0.0,0.06541217129861607,-0.27965717958751474,0.12049052418398888,-0.2071756205116418,0.02026811166455688,-6.378901515073564e-05,0.8847727534927722
6564,4.0,300.99117,1115.0871,0.0,0.0,0.0,0.0,0.0,0.06542213810819988,-0.2946915211262887,0.15451410478685484,-0.19878120820317782,0.02106757308620758,0.012586412383682188,0.9041810626657231
6565,4.0,300.12791,1444.0754,0.0,0.0,0.0,0.0,0.0,0.0654321049177837,-0.2961713121023327,0.08580465393151002,-0.2285962038531888,-0.0011237338776538988,0.027149645314961376,0.8811123469765182
6566,4.0,299.31125,1518.9549,0.0,0.0,0.0,0.0,0.0,0.06544207172736752,-0.3409610904502397,0.13049884125173286,-0.25126209183263776,0.004476164849863075,0.0073801044766846026,0.8901343866619241
6567,4.0,300.09648,1130.7057,0.0,0.0,0.0,0.0,0.0,0.06545203853695135,-0.30372397702272275,0.13628671834045186,-0.17626906066140183,-0.02039447611102808,-0.018430768032975182,0.8568874926582112
6568,4.0,301.1278,1051.6342,0.0,0.0,0.0,0.0,0.0,0.06546200534653517,-0.2703458266010557,0.13257322765145887,-0.18189792841192784,0.011526017783029389,-0.012927332538828386,0.8692045710063121
6569,4.0,301.22237,1465.6904,0.0,0.0,0.0,0.0,0.0,0.06547197215611898,-0.34550700662638667,0.13491147450972588,-0.23493776132655178,0.006038901897643213,-0.021442252708185578,0.8776875717710191
6570,4.0,301.3075,1580.5229,0.0,0.0,0.0,0.0,0.0,0.06548193896570281,-0.35712106165760465,0.09623598265100201,-0.21955443618833578,0.011256371666417388,-0.003082432751187427,0.8892182869815121
6571,4.0,301.54716,1142.4959,0.0,0.0,0.0,0.0,0.0,0.06549190577528662,-0.26453579986515074,0.13166866888968587,-0.21442307423690982,-0.011847615258768589,-0.027703274023850276,0.8954565740046831
6572,4.0,300.63302000000004,1037.5105,0.0,0.0,0.0,0.0,0.0,0.06550187258487045,-0.28735979539020373,0.15265066692544785,-0.18066814676555784,0.014048066182936187,-0.01979607086697008,0.917110265664236
6573,4.0,300.18055,1376.5071,0.0,0.0,0.0,0.0,0.0,0.06551183939445428,-0.3053718155278517,0.0916387494102904,-0.2046907158339008,0.0017676697176054184,0.010689090425681091,0.9223476135761222
6574,4.0,299.76846,1383.9675,0.0,0.0,0.0,0.0,0.0,0.0655218062040381,-0.30648659328787176,0.1178193740053669,-0.23202435318152076,0.017497972017415382,-0.01109409864965229,0.8853133629511262
6575,4.0,299.18106,1256.5878,0.0,0.0,0.0,0.0,0.0,0.06553177301362191,-0.2897888091924287,0.10418293256955491,-0.19636544771226083,-0.008616144360972241,-0.02069142323833448,0.8741726375716221
6576,4.0,299.72811,1262.8205,0.0,0.0,0.0,0.0,0.0,0.06554173982320573,-0.3089386078673667,0.12502458533396588,-0.19995186670621282,0.0025772534064301073,0.002398734140211628,0.8713770501482192
6577,4.0,300.09441,1160.4453,0.0,0.0,0.0,0.0,0.0,0.06555170663278956,-0.26517686293841874,0.1298371281414269,-0.2174066702163678,0.021283605100278276,0.014302049479502386,0.8540768483383222
6578,4.0,300.33594,1253.3912,0.0,0.0,0.0,0.0,0.0,0.06556167344237337,-0.35937362808741563,0.13820196367947188,-0.15982795308129086,0.021161790146756083,0.032043785152975374,0.8802105746525202
6579,4.0,300.71493,1391.4226,0.0,0.0,0.0,0.0,0.0,0.06557164025195719,-0.33351189863006164,0.13987605549469187,-0.22932189357480878,-0.02050179044236918,-0.018807850070940282,0.8917887606301981
6580,4.0,301.3966,1084.7757,0.0,0.0,0.0,0.0,0.0,0.06558160706154102,-0.27031005887252574,0.13232558932701888,-0.1917602462727628,-0.030025175131504076,-0.023158416694057774,0.9007030816974732
6581,4.0,300.62257999999997,1114.9273,0.0,0.0,0.0,0.0,0.0,0.06559157387112483,-0.2590720006884158,0.11792330306812389,-0.19776136184502682,-0.03801583868587116,-0.020000866950681883,0.9068892775330032
6582,4.0,300.0501,1574.5631,0.0,0.0,0.0,0.0,0.0,0.06560154068070866,-0.31887390000040367,0.1070537031503779,-0.26680767884186773,0.005844982648454874,0.008300817282151882,0.9133281374134691
6583,4.0,299.54165,1470.2299,0.0,0.0,0.0,0.0,0.0,0.06561150749029249,-0.2902933773447257,0.08799837282201323,-0.24461818052943476,-0.0035131867482745363,-9.68461132252172e-06,0.901649578880885
6584,4.0,299.93414,1106.1738,0.0,0.0,0.0,0.0,0.0,0.0656214742998763,-0.2962316916757917,0.14470113220588984,-0.18471866470281284,0.03603193957307557,0.026300313749888875,0.9182713185563232
6585,4.0,300.26032999999995,1244.1792,0.0,0.0,0.0,0.0,0.0,0.06563144110946012,-0.28882570483987774,0.12459294079136589,-0.2139666253318618,0.03936012873929226,0.013191230487623088,0.8956763682163752
6586,4.0,299.4494,1358.703,0.0,0.0,0.0,0.0,0.0,0.06564140791904394,-0.3037680128720687,0.11258140801091988,-0.22182519045744178,0.03192436957568997,0.028470178706537872,0.8686131369229422
6587,4.0,300.33193,1308.2315,0.0,0.0,0.0,0.0,0.0,0.06565137472862777,-0.3098427714616007,0.13978187389789687,-0.22760880176323978,0.013944298226945089,0.00800433574326643,0.8842024254089852
6588,4.0,300.02961,1239.458,0.0,0.0,0.0,0.0,0.0,0.06566134153821158,-0.26710186587590173,0.1080475799084659,-0.21771000689880482,-0.04338213483198336,-0.007525525928386583,0.8651454505757082
6589,4.0,299.65594,1028.3031,0.0,0.0,0.0,0.0,0.0,0.0656713083477954,-0.26940658428835973,0.14692496286286486,-0.19009683411359682,-0.02971661818455187,0.005803516401362474,0.9050286970368783
6590,4.0,300.24352000000005,1103.9005,0.0,0.0,0.0,0.0,0.0,0.06568127515737923,-0.3336312797568437,0.17740937232394183,-0.17933627003911182,-0.050120404037498754,0.008283710682038592,0.8888947460920811
6591,4.0,301.72099,1608.5822,0.0,0.0,0.0,0.0,0.0,0.06569124196696303,-0.33715377280198666,0.07956214672167253,-0.23137718021014977,-0.035468115541680466,0.007255348767397174,0.9083024574474732
6592,4.0,300.57597999999996,1602.7419,0.0,0.0,0.0,0.0,0.0,0.06570120877654687,-0.3365635039562317,0.1119989817209389,-0.2626289847669628,-0.01133517921944509,0.006133570259786254,0.9143353890728771
6593,4.0,301.17131,1406.7574,0.0,0.0,0.0,0.0,0.0,0.0657111755861307,-0.2712415802194597,0.08529841695629832,-0.24167595555155977,0.03407048597649517,0.011451609761935887,0.9019781556233131
6594,4.0,300.7752,1292.7874,0.0,0.0,0.0,0.0,0.0,0.06572114239571451,-0.2698235873670148,0.1000745053625847,-0.2232260087206918,0.027591427424811875,0.003792094578750596,0.8873538662675081
6595,4.0,300.34871,1270.0015,0.0,0.0,0.0,0.0,0.0,0.06573110920529833,-0.3126587049470117,0.14610684446712285,-0.21949688358265582,0.04059440921610626,-0.03412239680561837,0.9096456724425381
6596,4.0,299.95425,1099.4915,0.0,0.0,0.0,0.0,0.0,0.06574107601488215,-0.30874039588280466,0.12015399342827589,-0.14563154911021486,0.004817937553643415,-0.011877993510016688,0.8910524925775343
6597,4.0,299.18615,988.5282800000001,0.0,0.0,0.0,0.0,0.0,0.06575104282446598,-0.27358327212806677,0.15657200560745385,-0.18347664299523483,0.012263180535531687,-0.011595749654911388,0.8697275904429302
6598,4.0,298.9412,1209.251,0.0,0.0,0.0,0.0,0.0,0.06576100963404978,-0.3266093349738317,0.14955866331779086,-0.1905314474789898,-0.03676642126581326,0.005448760417425785,0.8736491419074572
6599,4.0,300.76921,1300.7482,0.0,0.0,0.0,0.0,0.0,0.06577097644363361,-0.2971325014121947,0.13447588842423688,-0.23273837026198876,-0.03507379811951437,-0.01004319769581144,0.8710897734798673
6600,4.0,300.81962999999996,1300.1222,0.0,0.0,0.0,0.0,0.0,0.06578094325321743,-0.29385776828150373,0.1256560427962859,-0.2270029491309468,-0.025623635948855975,-7.122556363616583e-05,0.8776312148004571
6601,4.0,299.88333,1502.4258,0.0,0.0,0.0,0.0,0.0,0.06579091006280124,-0.3236395799907397,0.09036651663773082,-0.22342687542051576,0.003051621740821617,0.012581539663951287,0.9231883477140962
6602,4.0,299.31181000000004,1494.2308,0.0,0.0,0.0,0.0,0.0,0.06580087687238508,-0.3599210060564376,0.1072662019613499,-0.2015540582943368,0.007068413952473144,0.016470613423022983,0.8936225001311742
6603,4.0,299.49953999999997,1315.5933,0.0,0.0,0.0,0.0,0.0,0.06581084368196889,-0.28953218333960173,0.1288006847466379,-0.23917600410983378,0.0025642883647755575,0.0005427764659453665,0.9114610315867001
6604,4.0,301.32852,1414.5257,0.0,0.0,0.0,0.0,0.0,0.06582081049155272,-0.3230700625070327,0.0936397663702754,-0.2005502111552648,0.005069881076433305,0.004940670207781185,0.8717824515132292
6605,4.0,301.5247,1339.6609,0.0,0.0,0.0,0.0,0.0,0.06583077730113653,-0.25780262122813774,0.12944887096810886,-0.2788697221397987,0.027711943391705872,-0.009122418117162572,0.9165890700777981
6606,4.0,300.93862,1124.6652,0.0,0.0,0.0,0.0,0.0,0.06584074411072036,-0.27083472990680674,0.12718468255965087,-0.19822008043029882,0.015460666518348985,-0.009373162762434141,0.8637328279487931
6607,4.0,300.28232,1271.9724,0.0,0.0,0.0,0.0,0.0,0.06585071092030417,-0.31866101615439374,0.16481803757127386,-0.23280486986605178,-0.005701956114689255,-0.042449889011227857,0.93058166892376
6608,4.0,299.38943,1312.1804,0.0,0.0,0.0,0.0,0.0,0.06586067772988799,-0.34720223483869267,0.16551679510523584,-0.2171846265894538,0.0068717905414179235,0.01085343148590029,0.8963226900576621
6609,4.0,300.08534,1203.3175,0.0,0.0,0.0,0.0,0.0,0.0658706445394718,-0.29668008524254474,0.13577957653290088,-0.2048779644523808,-0.006054536549336235,0.02389425310217918,0.8995558799342531
6610,4.0,300.10866,1332.3195,0.0,0.0,0.0,0.0,0.0,0.06588061134905564,-0.3233754966171767,0.13700262006610586,-0.21861897329851276,-0.015001471705529986,0.015259900130284885,0.8851968391896261
6611,4.0,299.92694,1528.1675,0.0,0.0,0.0,0.0,0.0,0.06589057815863944,-0.3146068505167787,0.1172283148245339,-0.26714621583277876,-0.035558286694579666,-0.031130365519077868,0.8955983986211801
6612,4.0,299.49282,1218.3839,0.0,0.0,0.0,0.0,0.0,0.06590054496822327,-0.2862400324396917,0.13530549707611286,-0.21942374719043778,-0.03146178746778667,-0.0016235315471550883,0.8963790976907292
6613,4.0,301.09304,1123.8884,0.0,0.0,0.0,0.0,0.0,0.0659105117778071,-0.28213672417222674,0.15869690252466484,-0.21819417832658877,-0.004722496790949146,0.0005820935183831574,0.9298903081155282
6614,4.0,299.86017000000004,1443.7933,0.0,0.0,0.0,0.0,0.0,0.0659204785873909,-0.31282336822076273,0.10188440511520791,-0.22793813844324282,-0.006263648166548944,0.008658211364048932,0.9064737335344921
6615,4.0,299.94088,1436.1797,0.0,0.0,0.0,0.0,0.0,0.06593044539697474,-0.3257445361459827,0.13753931837907388,-0.24835755975848278,0.02680009936171387,-0.006311713812867654,0.9206899769425261
6616,4.0,299.39425,1121.0968,0.0,0.0,0.0,0.0,0.0,0.06594041220655855,-0.28587865679152674,0.15036605139497386,-0.2052728381488518,0.01219910158595759,0.03477801217682257,0.8807633937745792
6617,4.0,299.42939,1133.2178,0.0,0.0,0.0,0.0,0.0,0.06595037901614238,-0.24853439216593476,0.12899723500103588,-0.2249327575866348,0.026493416927446677,0.015378499027989684,0.8863730807007121
6618,4.0,299.57047,1165.8368,0.0,0.0,0.0,0.0,0.0,0.0659603458257262,-0.3034354337917457,0.16673452920791684,-0.21768438180377578,0.007730566813322543,-0.02123587899406808,0.8902524302985741
6619,4.0,299.66294,1122.4787,0.0,0.0,0.0,0.0,0.0,0.06597031263531002,-0.3046922489507837,0.14810719268204184,-0.18462043010561782,-0.024335515414728375,-0.04516979475816166,0.9077068285086892
6620,4.0,299.0811,1241.1635,0.0,0.0,0.0,0.0,0.0,0.06598027944489385,-0.3153260959677627,0.13595081579980087,-0.19790744211194383,-0.008188920324583513,-0.012150649992675788,0.8965292816205512
6621,4.0,299.71948,1414.586,0.0,0.0,0.0,0.0,0.0,0.06599024625447765,-0.3256082540075327,0.12036273308137689,-0.22475329072892278,-0.02903496836527827,0.001757743109025738,0.9150893180747841
6622,4.0,299.68682,1298.4935,0.0,0.0,0.0,0.0,0.0,0.06600021306406148,-0.2916589142394937,0.0979245173331474,-0.2009751986447078,-0.02114655694475268,0.004204075179309916,0.8769184845476161
6623,4.0,300.28527,1436.8396,0.0,0.0,0.0,0.0,0.0,0.06601017987364531,-0.30511145078215574,0.11437375624531089,-0.24602565584584174,-0.005662748402069755,-0.023321222680375477,0.8943650604669592
6624,4.0,299.79705,1491.8504,0.0,0.0,0.0,0.0,0.0,0.06602014668322911,-0.36113216416596966,0.1112169248962559,-0.20357001056079582,0.023564128113598374,0.022944073767903774,0.9109030043591272
6625,4.0,300.08811000000003,997.3906699999999,0.0,0.0,0.0,0.0,0.0,0.06603011349281294,-0.27442332738847375,0.14480499034113986,-0.17356352077438583,0.03314597632025317,0.027437476231118075,0.9046092013629772
6626,4.0,300.83928,888.1878800000001,0.0,0.0,0.0,0.0,0.0,0.06604008030239676,-0.2757176429337127,0.16346252171999484,-0.15773181220191784,0.013099483730818387,-0.0009227408863374351,0.9287519925556852
6627,4.0,299.88324,1171.3012,0.0,0.0,0.0,0.0,0.0,0.06605004711198059,-0.27381552931598874,0.12484167342591389,-0.2070724615189608,0.007223699900523674,-0.0035242043232368873,0.8855750550544532
6628,4.0,299.78136,1317.9399,0.0,0.0,0.0,0.0,0.0,0.06606001392156441,-0.3048580673296487,0.13300597663666788,-0.22876874008021675,-0.02229737499757958,-0.02268314565515218,0.8856861680604191
6629,4.0,300.71099,1377.0037,0.0,0.0,0.0,0.0,0.0,0.06606998073114823,-0.25786937414472577,0.08105407947366483,-0.24175943722729876,0.0046812525469536554,0.0054215938650196555,0.8479497148511211
6630,4.0,300.90561,1492.5897,0.0,0.0,0.0,0.0,0.0,0.06607994754073206,-0.3692555118076816,0.09074815627464572,-0.17520265546115585,-0.04917773795271486,-0.03438590566637467,0.8876097625802633
6631,4.0,300.68359,1495.8663,0.0,0.0,0.0,0.0,0.0,0.06608991435031586,-0.3321705682801827,0.1059177687282699,-0.22845319373407477,0.006715146027633313,-0.026958803711626775,0.8930450894291883
6632,4.0,301.05385,1448.1156,0.0,0.0,0.0,0.0,0.0,0.06609988115989969,-0.3534337634836967,0.09183082413899672,-0.17858805576776884,-0.004581273133086456,-0.0020616509605441077,0.9036219917905471
6633,4.0,300.55391000000003,1240.6209,0.0,0.0,0.0,0.0,0.0,0.06610984796948352,-0.27035625294458476,0.12933602530447189,-0.2360975577885148,0.027794848528137975,0.025697043892100774,0.887835362715028
6634,4.0,301.11177999999995,1322.6394,0.0,0.0,0.0,0.0,0.0,0.06611981477906732,-0.2906660507315057,0.13218998606613586,-0.24357329676131276,-0.00989108544972413,0.0003549558171214117,0.9248019282333442
6635,4.0,300.34362999999996,1161.6897,0.0,0.0,0.0,0.0,0.0,0.06612978158865115,-0.25739779741568475,0.1053997750121479,-0.2011266491371548,-0.013480613702932987,-0.015944618070861286,0.8776145367038112
6636,4.0,299.70277999999996,1178.3031,0.0,0.0,0.0,0.0,0.0,0.06613974839823497,-0.3196317097501937,0.15689943737726883,-0.19544244779866782,0.015211389768497285,-0.0018991348650800183,0.9165871854326121
6637,4.0,299.80401,1487.7952,0.0,0.0,0.0,0.0,0.0,0.0661497152078188,-0.3088952407630867,0.1004312261397903,-0.24378856174505775,-0.0026148562322162176,0.00966234890059959,0.904627146022248
6638,4.0,300.78612999999996,1446.2177,0.0,0.0,0.0,0.0,0.0,0.06615968201740262,-0.3097243630549147,0.1013590552033599,-0.23124877102497676,0.024214737016058478,-0.0070825878014969925,0.9209336534590752
6639,4.0,299.68377999999996,1428.5202,0.0,0.0,0.0,0.0,0.0,0.06616964882698644,-0.28124059565128573,0.1154877234052509,-0.2684815882720698,-0.040166439731618965,-0.030804883242455273,0.895585266899884
6640,4.0,299.54104,1681.3833,0.0,0.0,0.0,0.0,0.0,0.06617961563657027,-0.33096225740343166,0.08445042592110812,-0.2645867055501747,0.015495429102779784,-0.0004015172734016696,0.8975236244736852
6641,4.0,298.82063,1438.0881,0.0,0.0,0.0,0.0,0.0,0.06618958244615407,-0.3114477596200007,0.1051705981045299,-0.23086570169217077,-0.002722985520612747,0.028271964695475677,0.8931957495865572
6642,4.0,300.51311,1136.6326,0.0,0.0,0.0,0.0,0.0,0.0661995492557379,-0.3111064767213187,0.14254187597778786,-0.17694331780794584,0.012216030968628389,0.027076869639778973,0.9323779080385352
6643,4.0,300.724,1229.4595,0.0,0.0,0.0,0.0,0.0,0.06620951606532173,-0.3130954664026167,0.13178051143572386,-0.1924100131643898,-0.02250310833763388,0.012412381612756688,0.8943021781657531
6644,4.0,301.42388,1145.4858,0.0,0.0,0.0,0.0,0.0,0.06621948287490553,-0.31202136050161067,0.16658198440536184,-0.2027597144558258,-0.008298965871569162,0.00954844925420857,0.9269038750357902
6645,4.0,300.60411,1005.804,0.0,0.0,0.0,0.0,0.0,0.06622944968448936,-0.2274960472921118,0.11540207337429788,-0.1936453271563058,-0.02102563061156818,0.02171605517670778,0.8553859269375181
6646,4.0,301.52376,1450.4632,0.0,0.0,0.0,0.0,0.0,0.06623941649407318,-0.28442185646025175,0.1094639515607509,-0.26594668983439473,-0.0030845454789709373,-0.014357030456428586,0.8958657547925661
6647,4.0,299.5269,1608.7220000000002,0.0,0.0,0.0,0.0,0.0,0.06624938330365701,-0.3270070052405787,0.10196214166287991,-0.2639664445014598,-0.029361307851485472,-0.016312262697394983,0.8697876052463531
6648,4.0,300.43048999999996,1282.8555,0.0,0.0,0.0,0.0,0.0,0.06625935011324083,-0.3028819661896227,0.1063362308870689,-0.19341031392811184,0.015164755945894885,-0.02300666425308098,0.9046438747813991
6649,4.0,299.3854,1091.1401,0.0,0.0,0.0,0.0,0.0,0.06626931692282464,-0.2777103208453747,0.1314714498902219,-0.18544046354404883,0.022159264955949182,0.014984744972879186,0.8859593909498841
6650,4.0,299.34404,1272.5204,0.0,0.0,0.0,0.0,0.0,0.06627928373240848,-0.33140521994964867,0.14432875266163886,-0.1997379797426038,0.024362367555628477,0.007368681905657284,0.9528332794673232
6651,4.0,298.92847,1293.6393,0.0,0.0,0.0,0.0,0.0,0.06628925054199228,-0.2936798922264487,0.1163488137377339,-0.21590296653796381,-0.028943953175045768,-0.013560218683789385,0.8911615081557932
6652,4.0,299.60887,1246.0112,0.0,0.0,0.0,0.0,0.0,0.06629921735157611,-0.3219191319834447,0.16465488404017184,-0.2214920540895638,-0.006501903997712963,-0.009899216275151581,0.9156835588609311
6653,4.0,299.64541,1083.4125,0.0,0.0,0.0,0.0,0.0,0.06630918416115994,-0.2859821298917387,0.13634244709595186,-0.1796906542615868,-0.026263884369043575,0.006763242882055104,0.8665330965876582
6654,4.0,300.40862999999996,1158.638,0.0,0.0,0.0,0.0,0.0,0.06631915097074374,-0.3116780815002317,0.15227397093577086,-0.19279291024467882,0.015703863767600686,0.007662499204729793,0.9269903964618292
6655,4.0,299.86187,1344.9059,0.0,0.0,0.0,0.0,0.0,0.06632911778032757,-0.3113211540200057,0.1258614387240569,-0.2233580960037278,-0.014938465787811788,-0.008482109104618992,0.8723482908990732
6656,4.0,299.38385,1594.8886,0.0,0.0,0.0,0.0,0.0,0.06633908458991139,-0.3484792136747207,0.1067157538445249,-0.24304284006896076,0.0037711484700333766,-0.0036441389885485164,0.917553461257976
6657,4.0,301.19085,1295.171,0.0,0.0,0.0,0.0,0.0,0.06634905139949522,-0.2390762293724868,0.0976854936610576,-0.25230890077594975,0.024587432694340678,0.017458930477812284,0.8893514685746562
6658,4.0,301.7259,817.3892400000001,0.0,0.0,0.0,0.0,0.0,0.06635901820907904,-0.24044634615770677,0.16669345204886282,-0.17471302261533284,0.018457562418619584,-0.0031784276603613873,0.9336806639571071
6659,4.0,300.08436,1244.1079,0.0,0.0,0.0,0.0,0.0,0.06636898501866285,-0.2834158207009637,0.12703528896490687,-0.2217972146221808,0.018031270876297883,-0.02045592263684238,0.9024856216708962
6660,4.0,298.96211,1733.7915,0.0,0.0,0.0,0.0,0.0,0.06637895182824669,-0.38366609658489564,0.11787136386799789,-0.2612345905093467,-0.02943944463294697,-0.03106837487795987,0.9425652157364441
6661,4.0,299.60427000000004,1278.7401,0.0,0.0,0.0,0.0,0.0,0.06638891863783049,-0.3036728686876787,0.13295156510629785,-0.2179837566783218,0.013080571417701888,0.007494168168266813,0.887258347180581
6662,4.0,299.39412000000004,1094.2567,0.0,0.0,0.0,0.0,0.0,0.06639888544741432,-0.3054135816969737,0.15188321103470587,-0.17909634254793283,-0.013095072039882989,-0.004186361946361756,0.921772492819362
6663,4.0,299.70881,1271.7316,0.0,0.0,0.0,0.0,0.0,0.06640885225699815,-0.2866690830620357,0.13384556580202886,-0.23375113400194078,0.004955972006816355,0.00941430051384412,0.859338412927598
6664,4.0,299.74161000000004,1408.5527,0.0,0.0,0.0,0.0,0.0,0.06641881906658195,-0.3508608377697687,0.12402958386826689,-0.20133357507257682,-0.0056467894090197245,-0.007607385998665544,0.889008554343313
6665,4.0,300.62314,1494.8697,0.0,0.0,0.0,0.0,0.0,0.06642878587616578,-0.3135724133571877,0.09526707034887781,-0.23609770977602978,0.011272333395242688,0.03623633643624796,0.8673009273809372
6666,4.0,301.40234,1233.9883,0.0,0.0,0.0,0.0,0.0,0.0664387526857496,-0.3208172630296987,0.15060880585393185,-0.2048931834688828,0.012973267218861788,-0.003817906719748056,0.9260762422216091
6667,4.0,300.36786,890.2589199999999,0.0,0.0,0.0,0.0,0.0,0.06644871949533343,-0.24126921669641777,0.16264281252159585,-0.1919900817929458,0.006498819461758544,-0.014983903975296184,0.9155141434442112
6668,4.0,300.03289,1403.451,0.0,0.0,0.0,0.0,0.0,0.06645868630491725,-0.3164477739609637,0.13755250076287487,-0.24771877649793975,-0.002186653092255858,-0.015751067036759284,0.9430273591070542
6669,4.0,299.57837,1921.2663,0.0,0.0,0.0,0.0,0.0,0.06646865311450106,-0.3404307553478997,0.06928137987428984,-0.3128676067201287,-0.00022408203280267476,-0.02097744550306268,0.9204389037002471
6670,4.0,300.02704,1518.9549,0.0,0.0,0.0,0.0,0.0,0.0664786199240849,-0.34018724095136665,0.12834184457135386,-0.24987894465113175,0.0035636648417563367,-0.005774815281679895,0.934956963915568
6671,4.0,299.8612,1146.018,0.0,0.0,0.0,0.0,0.0,0.0664885867336687,-0.27832201993074474,0.1304975746891079,-0.2005364309539048,0.0046151677674815955,-0.021583886833663777,0.8809149455920362
6672,4.0,299.22222999999997,1314.8215,0.0,0.0,0.0,0.0,0.0,0.06649855354325253,-0.3462533970475497,0.13468251038462886,-0.1881020081117228,0.05288409536100385,-0.005616884852193375,0.9026414392712742
6673,4.0,298.85979,1520.9053,0.0,0.0,0.0,0.0,0.0,0.06650852035283636,-0.34010862287610766,0.10644417242022192,-0.22865279387127377,0.029393633569425773,0.03014535469936487,0.9040388327491862
6674,4.0,300.54836,1160.8215,0.0,0.0,0.0,0.0,0.0,0.06651848716242016,-0.2966440743339907,0.14927198446699788,-0.2054886705526528,0.018916445150407784,0.008692654774698232,0.8950486192494211
6675,4.0,299.29971,1053.3114,0.0,0.0,0.0,0.0,0.0,0.06652845397200399,-0.26034270750632477,0.14202513869178984,-0.2018628057323078,-0.03540360798731407,-0.01076960023887679,0.8872124570835521
6676,4.0,299.67886,1237.3273,0.0,0.0,0.0,0.0,0.0,0.06653842078158781,-0.3072294778636887,0.13664308853312288,-0.2055301935417508,-0.030376111263888773,0.004216338038645166,0.8990709181713911
6677,4.0,300.9742,1372.04,0.0,0.0,0.0,0.0,0.0,0.06654838759117164,-0.2898675285926977,0.1009805110455005,-0.2281788765345018,-0.03454261897984107,0.022323113576619775,0.8896719494487851
6678,4.0,300.51842,1538.7320000000002,0.0,0.0,0.0,0.0,0.0,0.06655835440075546,-0.3239530289091747,0.0969032726898584,-0.24068634457639276,-0.025265845179544777,0.006926243209741984,0.9344973435377071
6679,4.0,300.49708,1548.2154,0.0,0.0,0.0,0.0,0.0,0.06656832121033927,-0.32943468155267164,0.1261289570154589,-0.26731308799174774,-0.016302084600140484,-0.024802126205029272,0.934288897727135
6680,4.0,301.2736,1352.3271,0.0,0.0,0.0,0.0,0.0,0.0665782880199231,-0.29501044159526374,0.10425577511924392,-0.2203190245812948,0.03996485565072417,-0.018758920223611284,0.937900789828601
6681,4.0,301.20104,1223.1982,0.0,0.0,0.0,0.0,0.0,0.06658825482950691,-0.2707150853349987,0.12318255744717188,-0.22428917152061778,0.03711466012643177,-0.006080016749600933,0.8905028550607891
6682,4.0,300.0088,1380.5527,0.0,0.0,0.0,0.0,0.0,0.06659822163909074,-0.3320838644691257,0.11562321520862288,-0.2031929092710788,0.023601820004068276,-0.017591763512921882,0.9085476335741702
6683,4.0,299.83345,1249.7116,0.0,0.0,0.0,0.0,0.0,0.06660818844867457,-0.2985393789110427,0.1148593259582329,-0.19620106814853783,-0.018909309843203582,-0.017980561761793284,0.8599258750705762
6684,4.0,300.28952999999996,1141.2522,0.0,0.0,0.0,0.0,0.0,0.06661815525825839,-0.3291491983369967,0.12490557910972087,-0.14266856263779087,-0.014479473625012788,0.023223226196953977,0.8755374854563222
6685,4.0,299.96961,1179.7238,0.0,0.0,0.0,0.0,0.0,0.0666281220678422,-0.29403960614444974,0.14250315969146687,-0.20707013104373082,-0.020311921559130582,0.036629151208515766,0.8816166516837892
6686,4.0,299.9663,1238.7438,0.0,0.0,0.0,0.0,0.0,0.06663808887742602,-0.2979175777221757,0.13585010887236187,-0.2144797351825018,-0.02284417034779408,0.020622600251792182,0.9244778401888591
6687,4.0,300.03707,1274.9629,0.0,0.0,0.0,0.0,0.0,0.06664805568700985,-0.25200279792073976,0.11716458139324389,-0.2527186591163898,-0.00931033892575891,-0.01064448816952919,0.9065700328239962
6688,4.0,300.06273999999996,1745.5487,0.0,0.0,0.0,0.0,0.0,0.06665802249659367,-0.36812553529616165,0.08428234900777021,-0.2467600392533198,-0.016878564125284583,0.009013495960562792,0.9200458133239522
6689,4.0,300.14366,1740.2167,0.0,0.0,0.0,0.0,0.0,0.06666798930617748,-0.32512887525272166,0.07664152423592953,-0.28049507662520873,0.03384766316025427,0.005710373081944944,0.9192759155004689
6690,4.0,300.68594,1231.2234,0.0,0.0,0.0,0.0,0.0,0.06667795611576131,-0.3118723620744057,0.12663540981294188,-0.18902420755773683,-0.01031942132544759,-0.01109114299911059,0.9334153748159251
6691,4.0,300.33234,1192.9536,0.0,0.0,0.0,0.0,0.0,0.06668792292534512,-0.2662516578494928,0.1274790722437049,-0.22385551061031878,0.02207986971786348,-0.02513774300915208,0.9280887798352311
6692,4.0,300.61022,1355.0635,0.0,0.0,0.0,0.0,0.0,0.06669788973492895,-0.3248999111276247,0.12843224674527587,-0.21543780368205578,-0.01088272657279149,0.0013933448344874285,0.9045088794705761
6693,4.0,300.51111000000003,1183.622,0.0,0.0,0.0,0.0,0.0,0.06670785654451278,-0.27137161060479276,0.1271691089056139,-0.2155890312594808,0.025836052686569876,0.022773589372328276,0.8784431422380882
6694,4.0,300.37903,1157.333,0.0,0.0,0.0,0.0,0.0,0.0667178233540966,-0.3037025467831077,0.13823480311521288,-0.18633258972709482,-0.026845694602963772,-0.005038614610147545,0.8726451630458721
6695,4.0,300.43161000000003,1350.4104,0.0,0.0,0.0,0.0,0.0,0.06672779016368041,-0.3108069498592577,0.13416048393310886,-0.23384457592616278,0.007989656789067733,-0.015130227422237186,0.8973986400738501
6696,4.0,298.86131,1565.7239,0.0,0.0,0.0,0.0,0.0,0.06673775697326423,-0.36170879466537864,0.100552884039547,-0.2147850578351348,-0.01828274739211668,0.006285648764645234,0.9068775643618472
6697,4.0,300.4344,1612.0057,0.0,0.0,0.0,0.0,0.0,0.06674772378284806,-0.3294315810073657,0.1070723469522179,-0.2676502672275248,0.01171610552828959,0.02225135115153738,0.945576392383624
6698,4.0,300.78694,1445.0363,0.0,0.0,0.0,0.0,0.0,0.06675769059243188,-0.3000729025398897,0.11936530994793887,-0.25854736005163775,-0.026699051982241272,-0.0008015779085920802,0.9534329310090041
6699,4.0,301.24386,1235.0876,0.0,0.0,0.0,0.0,0.0,0.06676765740201569,-0.2599015080152818,0.13486360857500188,-0.25039787055734575,-0.015128025629769885,-0.034354555708280665,0.9500877871288641
6700,4.0,301.14013,1337.6248,0.0,0.0,0.0,0.0,0.0,0.06677762421159952,-0.3220025933941817,0.13323380592165285,-0.2178357411037138,-0.001998639469950358,-0.012292739067448887,0.9012336802448392
6701,4.0,300.15058999999997,1471.7873,0.0,0.0,0.0,0.0,0.0,0.06678759102118333,-0.34701364873008067,0.13047012574389885,-0.2308430656849368,0.012546536939246788,-0.004468155715772636,0.9231833625236042
6702,4.0,298.62331,1157.4598,0.0,0.0,0.0,0.0,0.0,0.06679755783076716,-0.3331768168219917,0.16314167607582983,-0.18180373668263183,0.014283515108673187,0.005092020084493255,0.899653699098907
6703,4.0,300.36823,1002.4939999999999,0.0,0.0,0.0,0.0,0.0,0.06680752464035097,-0.24711540632839174,0.13519879170808186,-0.19281652910450983,0.024189495942817378,-0.0013349848711277487,0.9072494474135491
6704,4.0,300.23843999999997,1120.7307,0.0,0.0,0.0,0.0,0.0,0.0668174914499348,-0.3183412141578317,0.15555996127507285,-0.17789289527166183,0.04097103225177606,0.014193497969789184,0.8954614680026661
6705,4.0,299.19694,1502.4552,0.0,0.0,0.0,0.0,0.0,0.06682745825951862,-0.3008874542952797,0.1059950695783989,-0.26181650004177676,0.02138197749948688,0.018078244137683785,0.9002944784621472
6706,4.0,299.54184,1409.0739,0.0,0.0,0.0,0.0,0.0,0.06683742506910244,-0.3319714950330357,0.12117759894429787,-0.21752937480347778,-0.017276983183855482,-0.0032040660289666973,0.8905786360357681
6707,4.0,300.16558,1353.2333,0.0,0.0,0.0,0.0,0.0,0.06684739187868627,-0.28022526838858075,0.1108798571179899,-0.24200373182640875,-0.047582432412270455,-0.03683085485292236,0.9119181087068101
6708,4.0,300.53458,1514.9389,0.0,0.0,0.0,0.0,0.0,0.06685735868827007,-0.37932258724872464,0.13446323293048787,-0.21564424325742979,-0.029946060563696076,0.0047531922908035555,0.9350335960206312
6709,4.0,301.36896,1481.1519,0.0,0.0,0.0,0.0,0.0,0.0668673254978539,-0.2863018204307897,0.1043855724570539,-0.2683169249983188,-0.005674102680040334,0.009499707364773121,0.9248647801370471
6710,4.0,300.07441,1200.7449,0.0,0.0,0.0,0.0,0.0,0.06687729230743772,-0.29218095082351475,0.12900253429905886,-0.2018180707403928,-0.0001720377991713088,-0.003495213110050676,0.9348297199680101
6711,4.0,300.94862,1318.5749,0.0,0.0,0.0,0.0,0.0,0.06688725911702154,-0.23980672189958074,0.10233428815960789,-0.26334142117727477,0.00882963220536685,-0.0017110597384934485,0.8835109531432421
6712,4.0,302.39195,1370.9847,0.0,0.0,0.0,0.0,0.0,0.06689722592660535,-0.3359782304334697,0.0995701925493129,-0.18033705716288181,0.030857379730136265,0.013743829734410387,0.8796657500737501
6713,4.0,302.68007,1112.608,0.0,0.0,0.0,0.0,0.0,0.06690719273618918,-0.2968303806298777,0.13869866901099287,-0.18007332842685383,0.04380227999919846,0.004415820436182546,0.8587496740894942
6714,4.0,301.03174,1227.9078,0.0,0.0,0.0,0.0,0.0,0.06691715954577299,-0.3425701822715447,0.13364684719241687,-0.16432998539560684,0.00990059662576281,-0.009204283051042011,0.9015383240199051
6715,4.0,300.43302,1404.104,0.0,0.0,0.0,0.0,0.0,0.06692712635535682,-0.2931430925884707,0.12455339363996289,-0.25822286670711275,0.006338269274138474,-0.026739221269205676,0.9097540699382363
6716,4.0,300.0245,1425.1101,0.0,0.0,0.0,0.0,0.0,0.06693709316494065,-0.3321419135673547,0.13748113755833188,-0.23853710939177977,-0.013965731506310386,0.006679298454995432,0.9257182609612792
6717,4.0,300.50408,1567.7255,0.0,0.0,0.0,0.0,0.0,0.06694705997452445,-0.3084488331665297,0.12068529111821087,-0.28878586384594573,0.0024352223908877375,0.008225171677386242,0.9395030523442321
6718,4.0,300.16329,1627.7957,0.0,0.0,0.0,0.0,0.0,0.06695702678410828,-0.35702650515827267,0.11848017519058288,-0.25626293703868275,-0.018295070539832883,-0.01021760792889939,0.9541180704616221
6719,4.0,299.41222,1219.8337,0.0,0.0,0.0,0.0,0.0,0.0669669935936921,-0.28145055120450674,0.1307944063059029,-0.22014283052140582,-0.019031999231562083,0.008662926726039301,0.9383551109084391
6720,4.0,299.59013999999996,1228.8754,0.0,0.0,0.0,0.0,0.0,0.06697696040327593,-0.3226634655069047,0.16927664198630385,-0.2201606029281598,0.0002741361115151277,0.03955366254814256,0.9307697889373262
6721,4.0,299.52362,1393.6348,0.0,0.0,0.0,0.0,0.0,0.06698692721285973,-0.3033765639609357,0.1239850616588729,-0.24423867783698078,0.020086215033105082,0.006689126676990404,0.9198980713268712
6722,4.0,299.56942999999995,1150.5002,0.0,0.0,0.0,0.0,0.0,0.06699689402244356,-0.2811339510782608,0.11719205060345488,-0.1857814424677008,0.008019864814299033,-0.01880761297041688,0.896682333048156
6723,4.0,299.75216,1099.3586,0.0,0.0,0.0,0.0,0.0,0.06700686083202739,-0.25824574589437077,0.13455106144915588,-0.2104828688380418,-0.004610826801403176,-0.038723849219746365,0.8889009370501921
6724,4.0,300.74703999999997,1389.3894,0.0,0.0,0.0,0.0,0.0,0.0670168276416112,-0.3411400101528977,0.1204296278529789,-0.20162930224676281,0.01014237613547459,-0.0008214857095343272,0.9092704557980072
6725,4.0,300.19442999999995,1379.606,0.0,0.0,0.0,0.0,0.0,0.06702679445119503,-0.3321879556518987,0.13961039145097287,-0.22678821103725377,0.016348112499183085,0.01007579911910395,0.914900559713655
6726,4.0,300.93307000000004,1324.1509,0.0,0.0,0.0,0.0,0.0,0.06703676126077884,-0.32919254517627466,0.14877529940047887,-0.2220915536437298,0.0036985130286648167,-0.015447939083842883,0.954896621440959
6727,4.0,301.18933,1469.0465,0.0,0.0,0.0,0.0,0.0,0.06704672807036267,-0.2775466302917197,0.096701945974489,-0.26570877871091475,0.01799636643685308,-0.007782687587866462,0.9090204768658361
6728,4.0,300.84866,1493.0708,0.0,0.0,0.0,0.0,0.0,0.06705669487994649,-0.2964306230679247,0.13108471259205387,-0.28851033074625276,0.0007468001187084334,0.009366232841025212,0.9518686856371251
6729,4.0,300.03788,1485.9042,0.0,0.0,0.0,0.0,0.0,0.06706666168953031,-0.30710259868616674,0.1002250419034415,-0.24480022104240076,-0.004785653378957215,-0.006254983155668774,0.8964679495919982
6730,4.0,299.59371,1497.7759,0.0,0.0,0.0,0.0,0.0,0.06707662849911414,-0.3613808157405097,0.12316686220312288,-0.2170725307308908,-0.05035717930761665,-0.013570861862839786,0.949487223662093
6731,4.0,299.40223,1252.6039,0.0,0.0,0.0,0.0,0.0,0.06708659530869794,-0.29285874421290775,0.1074210975041369,-0.1953226512393448,-0.03288025452127847,0.0012320603445198888,0.8779275499247032
6732,4.0,299.83622,1148.4201,0.0,0.0,0.0,0.0,0.0,0.06709656211828177,-0.2940758197030237,0.10498541651625388,-0.16000062103083185,-0.0004936895749833675,0.026846010736994975,0.925027893138145
6733,4.0,299.56871,1443.1952,0.0,0.0,0.0,0.0,0.0,0.0671065289278656,-0.3044210626940197,0.1106220254975439,-0.24489627715188075,0.017472875838938584,0.03330363803581317,0.8772729498300992
6734,4.0,299.59013999999996,1533.5174,0.0,0.0,0.0,0.0,0.0,0.0671164957374494,-0.3505626382653387,0.1113902919883659,-0.22697865139354875,0.03313031552670757,0.008183940706967062,0.9255485517020302
6735,4.0,300.35789,1170.9015,0.0,0.0,0.0,0.0,0.0,0.06712646254703324,-0.29333224611713876,0.1347052375843719,-0.19729779992427682,0.014697052871986187,-0.00901601844668674,0.8978269915536252
6736,4.0,300.06756,1234.9053,0.0,0.0,0.0,0.0,0.0,0.06713642935661705,-0.3255350162903047,0.15231027568685387,-0.2021556451437088,0.03778003512259917,0.011039615178525189,0.9337122368302231
6737,4.0,300.83197,1499.6707,0.0,0.0,0.0,0.0,0.0,0.06714639616620088,-0.3311396167009357,0.12758686178934286,-0.25230970124352875,-0.002951570690172347,0.01060845395622289,0.923606536295368
6738,4.0,300.96182000000005,1490.3107,0.0,0.0,0.0,0.0,0.0,0.0671563629757847,-0.3392156455629777,0.11846271689135988,-0.2322643110702028,-0.03170358035239977,-0.012426619803161888,0.9347365516213152
6739,4.0,299.90054,1423.3633,0.0,0.0,0.0,0.0,0.0,0.06716632978536852,-0.25970296165818674,0.1024587051393869,-0.2754226452995987,-0.03769501938620876,-0.018001114526821682,0.9199167049962101
6740,4.0,300.27462,1550.1935,0.0,0.0,0.0,0.0,0.0,0.06717629659495235,-0.3158281005973067,0.08098198672904983,-0.2363740129457988,0.0006349250372097223,0.01686986334667588,0.9157887544863131
6741,4.0,299.83114,1318.8434,0.0,0.0,0.0,0.0,0.0,0.06718626340453615,-0.3069129283999477,0.1109466708295839,-0.2049291943774368,-0.006662229649110873,0.024942268826360275,0.897273392228989
6742,4.0,299.46597,1141.214,0.0,0.0,0.0,0.0,0.0,0.06719623021411998,-0.3589716717727457,0.13893650920696587,-0.12686539732063987,0.0016035790314859284,-0.0023969959096650775,0.9071573733769621
6743,4.0,300.01897,1242.9817,0.0,0.0,0.0,0.0,0.0,0.06720619702370381,-0.2965905949937127,0.11864511204186087,-0.1998899267275998,0.0019104103121928182,-0.005016383902953545,0.9041199231546893
6744,4.0,298.98462,1134.1051,0.0,0.0,0.0,0.0,0.0,0.06721616383328761,-0.29385020943575774,0.14966067733785887,-0.2005500996977538,0.028503560231082373,0.0007619601133921083,0.9428312749477021
6745,4.0,299.95876,1238.9801,0.0,0.0,0.0,0.0,0.0,0.06722613064287145,-0.24633484911385675,0.13427410979932286,-0.26455827375236873,0.009258996124641771,0.0004663761621077436,0.9032519224565242
6746,4.0,300.02362999999997,1498.7836,0.0,0.0,0.0,0.0,0.0,0.06723609745245526,-0.34548524201423864,0.14814494638076786,-0.25825249414003676,-0.014322596165030186,-0.03482429136188997,0.957496752920072
6747,4.0,299.3057,1483.4037,0.0,0.0,0.0,0.0,0.0,0.06724606426203909,-0.3071292876938007,0.12531528678765588,-0.26910368330346573,-0.018094810776818786,-0.03441886365237736,0.9301216331133582
6748,4.0,299.9887,1441.5863,0.0,0.0,0.0,0.0,0.0,0.06725603107162291,-0.36590105615912266,0.13846862070828886,-0.2107737932067538,-0.0019023470705470382,0.007039910619210083,0.937155524115049
6749,4.0,300.40362999999996,1658.2052,0.0,0.0,0.0,0.0,0.0,0.06726599788120673,-0.3365473122196337,0.1011889305115699,-0.26869459370809173,-0.0040696931887724466,0.02116038578211748,0.9019753793180392
6750,4.0,300.17021,1522.7249,0.0,0.0,0.0,0.0,0.0,0.06727596469079056,-0.3311591724278657,0.09574527778657321,-0.2274564494782038,-0.012713820477756385,-0.012934318898267887,0.9257154947885062
6751,4.0,300.90382999999997,1129.2471,0.0,0.0,0.0,0.0,0.0,0.06728593150037436,-0.2587705587836657,0.14487131769268588,-0.2293636800089328,-0.005587363506554845,-0.0005009530481927166,0.912503341699568
6752,4.0,300.15044,1133.1588,0.0,0.0,0.0,0.0,0.0,0.06729589830995819,-0.27280557227881375,0.11864783768462989,-0.1902942456305798,0.015989130147754285,0.04013045719406776,0.9242027529192101
6753,4.0,299.95976,1337.6269,0.0,0.0,0.0,0.0,0.0,0.06730586511954202,-0.3214299753651687,0.13159821761023288,-0.21677341930137078,0.01962080190442238,0.037580684244924764,0.9382113509842511
6754,4.0,300.2765,1363.7225,0.0,0.0,0.0,0.0,0.0,0.06731583192912582,-0.3506351869724986,0.13170265329803987,-0.19560505417471583,-0.0040803186359460964,0.0025026642162187277,0.9185465983434912
6755,4.0,299.29561,1333.7271,0.0,0.0,0.0,0.0,0.0,0.06732579873870966,-0.31944836214459865,0.15134557039914487,-0.23731693335635778,0.00016470156447227882,-0.027359601881432476,0.9296001031543871
6756,4.0,299.39853,1459.0982,0.0,0.0,0.0,0.0,0.0,0.06733576554829347,-0.2908447779166447,0.1259507465878709,-0.27863538778917174,0.026568389328845875,-0.003390001981942147,0.9125727999939232
6757,4.0,298.9333,1443.069,0.0,0.0,0.0,0.0,0.0,0.0673457323578773,-0.2919679757849957,0.12980084365534586,-0.2764898205699207,0.028957519580634673,0.005923787161732274,0.936262698789434
6758,4.0,299.40306,1505.7516,0.0,0.0,0.0,0.0,0.0,0.06735569916746112,-0.31401606491347267,0.1157023196439299,-0.2593971425130047,0.028879706025955073,-0.018201162520564883,0.9083107964957962
6759,4.0,300.09559,1457.6694,0.0,0.0,0.0,0.0,0.0,0.06736566597704494,-0.3482476150993637,0.12900787412708586,-0.22385535862280379,2.8496557659641273e-05,-0.004481785550817796,0.9226958169729872
6760,4.0,300.69222,1194.6576,0.0,0.0,0.0,0.0,0.0,0.06737563278662877,-0.3199108702852447,0.1239563360185379,-0.16719153540051984,0.009359076964843982,0.036839790705554265,0.9085359508005171
6761,4.0,300.94096,1193.4589,0.0,0.0,0.0,0.0,0.0,0.06738559959621257,-0.28916475858833973,0.1062261615287059,-0.17984309773913182,-0.027015158655688574,0.02836539344744637,0.8969183797914522
6762,4.0,300.57319,1458.1807,0.0,0.0,0.0,0.0,0.0,0.0673955664057964,-0.3152227545900637,0.10082900887729841,-0.2288567813814058,-0.02208997688761098,-0.026806515261347075,0.926710263206682
6763,4.0,300.33714,1362.504,0.0,0.0,0.0,0.0,0.0,0.06740553321538023,-0.3064043173797517,0.1289255678214629,-0.23668842445182875,-0.026751600145677373,-0.020000752453420582,0.9234380530687402
6764,4.0,300.5226,1298.0037,0.0,0.0,0.0,0.0,0.0,0.06741550002496403,-0.31495520590115866,0.13875581631663286,-0.2183613240630848,0.018938241173308883,0.006307504771952254,0.957263401422042
6765,4.0,300.19617,1459.2174,0.0,0.0,0.0,0.0,0.0,0.06742546683454786,-0.3202212997183817,0.1099508182338009,-0.23329516132443978,0.008369093924240264,0.02760790185818777,0.9102733099519812
6766,4.0,299.695,1592.092,0.0,0.0,0.0,0.0,0.0,0.06743543364413168,-0.36974153748314864,0.12317688324661188,-0.23739155922622276,-0.011558361739471489,-0.026662033903087873,0.9418062711465421
6767,4.0,299.66969,1491.7316,0.0,0.0,0.0,0.0,0.0,0.06744540045371551,-0.29951474358980373,0.0991836437156635,-0.2531180519083068,-0.016540988708718483,-0.025681943425860474,0.8814872292485161
6768,4.0,299.83935,1292.632,0.0,0.0,0.0,0.0,0.0,0.06745536726329933,-0.28692064266436274,0.11687677783483988,-0.22288399628193778,0.04849402515623765,0.015734854021909186,0.907675215105569
6769,4.0,300.81241,1131.2336,0.0,0.0,0.0,0.0,0.0,0.06746533407288315,-0.26651935852591274,0.16330692703463884,-0.2406543360057338,0.015164101386330285,0.012738663343708186,0.9113824135114412
6770,4.0,299.82296,1108.3265,0.0,0.0,0.0,0.0,0.0,0.06747530088246698,-0.30174525156493776,0.15457182964505187,-0.1897301490349078,-0.02158087444111648,-0.030740383794089676,0.9128344718322481
6771,4.0,298.551,1121.0743,0.0,0.0,0.0,0.0,0.0,0.06748526769205078,-0.3079304848128727,0.13537445887791885,-0.16822255790727383,-0.046530281614431256,-0.014410568565212386,0.9247826055539371
6772,4.0,298.72679,1354.145,0.0,0.0,0.0,0.0,0.0,0.06749523450163461,-0.34894850045853565,0.12855616723250587,-0.19123392364081881,0.0004053881319636936,0.038359601007547865,0.922717723440149
6773,4.0,298.46128,1535.5918,0.0,0.0,0.0,0.0,0.0,0.06750520131121844,-0.31005054852710673,0.10017228501048481,-0.25690329083688074,0.013235178184210387,0.05125987470245575,0.9437976926280801
6774,4.0,298.71594,1540.4183,0.0,0.0,0.0,0.0,0.0,0.06751516812080224,-0.3302988015029537,0.12134971973878489,-0.25929960705837873,0.010143468419082391,-0.01123734080303919,0.9265321946341082
6775,4.0,299.58102,1445.7574,0.0,0.0,0.0,0.0,0.0,0.06752513493038607,-0.30597705007758375,0.13747545322527088,-0.27097257245041073,0.006737891567203123,-0.016533634539492685,0.9758172266531621
6776,4.0,299.39855,1224.5286,0.0,0.0,0.0,0.0,0.0,0.06753510173996989,-0.2967827578751777,0.13833224737732985,-0.2137756074230098,0.03131040688959657,-0.019206328911267084,0.9249968268900791
6777,4.0,300.55683,1184.4144,0.0,0.0,0.0,0.0,0.0,0.06754506854955372,-0.3082147622609287,0.16043011748321986,-0.21224776812722382,0.022681522428491977,0.0005378477033514354,0.9265043201238571
6778,4.0,300.55444,1355.8309,0.0,0.0,0.0,0.0,0.0,0.06755503535913754,-0.3282250635832917,0.13207570158735688,-0.2159893663739908,-0.028775921857962374,-0.02974832683318127,0.8828178596773392
6779,4.0,299.67765,1262.663,0.0,0.0,0.0,0.0,0.0,0.06756500216872136,-0.27618728435506273,0.13427393754680586,-0.24190467649663278,-0.03247429890846377,0.00940413670341603,0.8874638444333622
6780,4.0,300.06095,1054.7994,0.0,0.0,0.0,0.0,0.0,0.06757496897830519,-0.26699243486510177,0.14349415881927088,-0.19713441334565182,-0.0058555364588464545,0.02505278908101777,0.8979885644145712
6781,4.0,299.0559,1336.6572,0.0,0.0,0.0,0.0,0.0,0.06758493578788899,-0.2751954138321727,0.1040881531552009,-0.23520315179274376,0.0034593488187861466,0.01882047111418588,0.9297255536492681
6782,4.0,299.26682999999997,1642.9949,0.0,0.0,0.0,0.0,0.0,0.06759490259747282,-0.3615153246912846,0.11040361943848889,-0.24831771876455078,0.001801243860993928,-0.037553621348003864,0.9444691126743441
6783,4.0,300.24522,1686.5417,0.0,0.0,0.0,0.0,0.0,0.06760486940705665,-0.34705358091652166,0.06942918266637683,-0.23504216661685576,-0.006751282173899674,-0.01071737732872279,0.9463085871708862
6784,4.0,299.6741,1267.3872,0.0,0.0,0.0,0.0,0.0,0.06761483621664045,-0.3154732198822827,0.11472058162203988,-0.18450143401387384,0.004974249316095186,0.019562370810905682,0.9209071468364591
6785,4.0,300.843,1476.9346,0.0,0.0,0.0,0.0,0.0,0.06762480302622428,-0.31328432608875567,0.11704141071108788,-0.2527083138328688,0.0030725520428372772,0.024868291436559276,0.93477034351215
6786,4.0,300.84595,1503.5672,0.0,0.0,0.0,0.0,0.0,0.0676347698358081,-0.31732298899984074,0.09503725610694691,-0.23476114170162077,-0.005945820082506754,-0.005808742846703284,0.9078345284187922
6787,4.0,299.61689,1255.7307,0.0,0.0,0.0,0.0,0.0,0.06764473664539193,-0.2939704619576257,0.14472744631098686,-0.23246775142528078,-0.00028439275591737975,0.0007219670914151042,0.9261933536681671
6788,4.0,300.01841,1277.9728,0.0,0.0,0.0,0.0,0.0,0.06765470345497575,-0.2988268886269177,0.14161609975892087,-0.23126102121868575,0.0011978610258196788,0.0030894352213035174,0.9132687001626031
6789,4.0,299.67831,1330.8717,0.0,0.0,0.0,0.0,0.0,0.06766467026455956,-0.33197960103383567,0.13889844140070887,-0.2114706053005238,0.005937483364658985,-0.016472763539735185,0.9290447610395791
6790,4.0,298.70392000000004,1384.35,0.0,0.0,0.0,0.0,0.0,0.0676746370741434,-0.31320251627568174,0.12337588556625188,-0.2309811919385688,0.005242726040766775,-0.03157211824467547,0.9029128585755613
6791,4.0,299.66992,1546.5184,0.0,0.0,0.0,0.0,0.0,0.0676846038837272,-0.35472096601323366,0.13264806630384487,-0.24803008745866376,0.014630646486932386,0.0068194585042281545,0.9506034402372551
6792,4.0,299.22876,1545.1544,0.0,0.0,0.0,0.0,0.0,0.06769457069331103,-0.3062527858272967,0.10651875776008289,-0.26995434729241974,0.008541046519210662,0.039857188708348264,0.9459887446443201
6793,4.0,299.06066,1309.1971,0.0,0.0,0.0,0.0,0.0,0.06770453750289486,-0.3085698861559767,0.15323829118844184,-0.24263164291337877,0.011872240275948888,0.027906412430398472,0.9642326065373491
6794,4.0,300.03692,1464.9276,0.0,0.0,0.0,0.0,0.0,0.06771450431247866,-0.33482906296505566,0.10364064111603491,-0.21411297917630578,-0.011293985536629591,-0.0029474767544683074,0.947612660314588
6795,4.0,299.93082999999996,1583.8699,0.0,0.0,0.0,0.0,0.0,0.0677244711220625,-0.36613623150733265,0.1140137282197789,-0.22933439708104278,-0.002471406666533848,-0.015878488303084786,0.9387681420467021
6796,4.0,300.38276,1347.2639,0.0,0.0,0.0,0.0,0.0,0.06773443793164631,-0.30552309376778175,0.12515460558679786,-0.22916609623943276,-0.0009099682304793723,-0.0014386546431841586,0.9154578574011561
6797,4.0,300.06825,1137.8919,0.0,0.0,0.0,0.0,0.0,0.06774440474123014,-0.2894192059534517,0.13729450702241286,-0.1937660255082178,-0.008214255832733932,0.0014683762070424487,0.8906127420341342
6798,4.0,299.98139,1348.7358,0.0,0.0,0.0,0.0,0.0,0.06775437155081396,-0.2880244671908017,0.12847103395910386,-0.2504285821678767,-0.015276180019641586,-0.03233749190646197,0.9258798135572232
6799,4.0,301.03552,1387.0243,0.0,0.0,0.0,0.0,0.0,0.06776433836039777,-0.3072457810577977,0.1156053921393639,-0.2299803541522938,0.01013255875525569,-0.013577226086717888,0.8901625955447082
6800,4.0,300.45239,1144.9229,0.0,0.0,0.0,0.0,0.0,0.0677743051699816,-0.2786744992430317,0.13423062110503087,-0.2035840846046848,0.015488937209389085,-0.004442504174916026,0.9282319723393632
6801,4.0,299.90258,1177.8419,0.0,0.0,0.0,0.0,0.0,0.06778427197956541,-0.30639806562663474,0.15355714072990986,-0.20519360199103182,0.0070549230340166925,-0.013840172593668687,0.9096626038517092
6802,4.0,300.14134,1462.7106,0.0,0.0,0.0,0.0,0.0,0.06779423878914924,-0.3124047439419477,0.0989791272889793,-0.2312018778103488,-0.032889730436213675,-0.02031505756819008,0.9215417149765861
6803,4.0,299.89432999999997,1380.7571,0.0,0.0,0.0,0.0,0.0,0.06780420559873307,-0.33145811160486865,0.15010504830171484,-0.23836261759205876,0.0021207701522037176,0.009263966015057261,0.9481165090593141
6804,4.0,299.83769,1477.7520000000002,0.0,0.0,0.0,0.0,0.0,0.06781417240831687,-0.2994958667404407,0.1079055121119449,-0.25760933363906174,0.008056473033786983,0.04946412397422895,0.954719637045992
6805,4.0,300.27037,1527.4271,0.0,0.0,0.0,0.0,0.0,0.0678241392179007,-0.3278150721953287,0.11183207916446689,-0.24831672577945274,0.01847406116999788,0.04391177788450505,0.9651786781557191
6806,4.0,299.44549,1292.4482,0.0,0.0,0.0,0.0,0.0,0.06783410602748452,-0.3125505404988367,0.1335962150849199,-0.21391765495452883,-0.008612912802428312,0.0036521238046365563,0.9239625721155061
6807,4.0,299.25735,1457.4411,0.0,0.0,0.0,0.0,0.0,0.06784407283706835,-0.3417729570928647,0.14557509081464287,-0.24682783581751075,0.004264485555571956,-0.024041352698696776,0.9365536028931442
6808,4.0,300.63665,1464.8445,0.0,0.0,0.0,0.0,0.0,0.06785403964665217,-0.33629556009978767,0.12937474159079287,-0.23835535258884177,0.014046022457484486,-0.008148775152971492,0.8948517346224902
6809,4.0,300.32274,1147.8103,0.0,0.0,0.0,0.0,0.0,0.06786400645623598,-0.2959194687899777,0.15146237787067285,-0.2044485895900048,0.02134431094026948,-0.018376717219640782,0.9413388183454081
6810,4.0,300.38431,1290.6211,0.0,0.0,0.0,0.0,0.0,0.06787397326581981,-0.2924216686497717,0.12284044368340788,-0.22273537275726982,-0.0015120503261027486,-0.025392841894078373,0.9094140333371772
6811,4.0,299.53071,1607.8651,0.0,0.0,0.0,0.0,0.0,0.06788394007540362,-0.35577546552480466,0.12062118278438388,-0.25359654913553076,-0.0013460222044670486,-0.006081462860143654,0.9612162319171561
6812,4.0,300.1723,1430.8815,0.0,0.0,0.0,0.0,0.0,0.06789390688498745,-0.3164153094277597,0.12220504467819888,-0.24074199227188478,0.02083598869635198,0.03128529956536868,0.9333981394317241
6813,4.0,299.80432,1472.495,0.0,0.0,0.0,0.0,0.0,0.06790387369457127,-0.3068835441470477,0.10553880305836891,-0.24625696057866978,0.00012610032256763287,0.01790193659378358,0.9569241551560611
6814,4.0,300.40997000000004,1522.9853,0.0,0.0,0.0,0.0,0.0,0.06791384050415508,-0.3277353091474567,0.11047118295515689,-0.24568538619725977,-0.028774008841773575,-0.006090841097769214,0.923608046038017
6815,4.0,300.69372000000004,1530.884,0.0,0.0,0.0,0.0,0.0,0.0679238073137389,-0.3149297226611437,0.08880490774261202,-0.23922570402723878,-0.025966593749953276,-0.007622665202223483,0.9380980290930672
6816,4.0,301.45736,1498.2156,0.0,0.0,0.0,0.0,0.0,0.06793377412332273,-0.3085079664423657,0.1026649319322399,-0.24957709744634177,-0.01794653884993548,0.02013997707016098,0.9054743953583652
6817,4.0,301.27504,1396.5128,0.0,0.0,0.0,0.0,0.0,0.06794374093290656,-0.32088125990601474,0.1208055233750769,-0.22442927361194479,-0.005203468577567365,-0.0005538979193079685,0.942854326387477
6818,4.0,301.34692,1174.104,0.0,0.0,0.0,0.0,0.0,0.06795370774249036,-0.3040528982701847,0.14253879569748387,-0.1953841859179178,-0.01813637632242098,-0.01933979218793888,0.9138908458565042
6819,4.0,301.36714,1333.2328,0.0,0.0,0.0,0.0,0.0,0.0679636745520742,-0.31509353480481067,0.1390567110663289,-0.22923264650600078,0.009909663694282662,-0.009927361323179281,0.9383484234577791
6820,4.0,299.6412,1522.1685,0.0,0.0,0.0,0.0,0.0,0.06797364136165801,-0.33690938701036766,0.1173397419380309,-0.24313157038021777,0.006196532709075164,0.006448866839778604,0.9139739424972052
6821,4.0,300.36187,1498.8323,0.0,0.0,0.0,0.0,0.0,0.06798360817124183,-0.3178073833426467,0.1200513917231499,-0.2578516017379717,0.022609795467163078,-0.01698601524538918,0.938433708718696
6822,4.0,300.5129,1283.9063,0.0,0.0,0.0,0.0,0.0,0.06799357498082564,-0.29142105377851873,0.14357762023000786,-0.2424320326436788,0.005684501868466655,-0.017610984867318883,0.9308453368647822
6823,4.0,300.30514,1421.3429999999998,0.0,0.0,0.0,0.0,0.0,0.06800354179040947,-0.35007225561444166,0.13528392498148387,-0.2172644504323318,0.01657068098964888,0.004199248562458566,0.9683355702997801
6824,4.0,299.85754,1578.3344,0.0,0.0,0.0,0.0,0.0,0.06801350859999328,-0.35662979747912066,0.12411704761689889,-0.24726149672780975,-0.007651628145731903,0.045771766642571654,0.9427202328692431
6825,4.0,299.73779,1345.7164,0.0,0.0,0.0,0.0,0.0,0.06802347540957711,-0.3377723011930307,0.13622232629659686,-0.2075142284300598,-0.025014530783741978,0.036463612486678364,0.9494763818860231
6826,4.0,299.23401,1266.4483,0.0,0.0,0.0,0.0,0.0,0.06803344221916093,-0.2797732879164737,0.1265252897920739,-0.2317206719940498,-0.031070064979126674,0.015316409088361885,0.9315048917523752
6827,4.0,301.11933999999997,1532.6715,0.0,0.0,0.0,0.0,0.0,0.06804340902874474,-0.33312844426221766,0.09732764513649073,-0.23009307822591876,0.007588598112661322,-0.0058394265928565356,0.9042337922009271
6828,4.0,300.68973,1483.03,0.0,0.0,0.0,0.0,0.0,0.06805337583832857,-0.3038910315667097,0.1061443618481329,-0.25305742915482377,0.012259457854664289,0.0038368309892157365,0.9266889342920771
6829,4.0,300.75156,1274.614,0.0,0.0,0.0,0.0,0.0,0.06806334264791239,-0.3434012905335687,0.15103509030350287,-0.19508461852585282,0.003093182828123377,-0.016476544989108385,0.9178784510950502
6830,4.0,301.13416,1328.7893,0.0,0.0,0.0,0.0,0.0,0.06807330945749622,-0.3089219703007247,0.1341768073922199,-0.22917359429017278,-0.017897356703331584,-0.02145987819367508,0.9501029656153621
6831,4.0,300.50612,1224.8023,0.0,0.0,0.0,0.0,0.0,0.06808327626708002,-0.34524455458548464,0.16285335575987483,-0.18991811706095882,0.0012792552037026587,0.004486121045345676,0.9237432136013571
6832,4.0,299.95572000000004,1477.5707,0.0,0.0,0.0,0.0,0.0,0.06809324307666385,-0.3005351978980147,0.12691943394847288,-0.2755288237775777,-0.003851815336994577,0.03651884170987907,0.9294274352048462
6833,4.0,300.31991,1786.0518,0.0,0.0,0.0,0.0,0.0,0.06810320988624768,-0.3462244180946897,0.06615812560704865,-0.26284884990616175,0.004060001958190996,0.0007272655585730223,0.8872142201387262
6834,4.0,299.51301,1502.4223,0.0,0.0,0.0,0.0,0.0,0.06811317669583149,-0.29459296228906173,0.1026434510301199,-0.26474934232372577,-0.016268921937617586,-0.021494183802310777,0.9359716123007061
6835,4.0,299.35127,1308.0209,0.0,0.0,0.0,0.0,0.0,0.06812314350541532,-0.3320193508352587,0.11384452558557989,-0.17943085693594685,0.025714301567803972,-0.011255718120102887,0.9175135392040362
6836,4.0,299.96207999999996,1440.2445,0.0,0.0,0.0,0.0,0.0,0.06813311031499913,-0.3094514644054817,0.11685305764999888,-0.24519996847185277,0.00932797150399911,-0.00024591755219267273,0.950234546273348
6837,4.0,299.71641,1287.1207,0.0,0.0,0.0,0.0,0.0,0.06814307712458295,-0.33708099104730366,0.15567896749931787,-0.2098505197156338,0.0035778240999787465,0.008088353225658311,0.9384326346735901
6838,4.0,300.25352000000004,1215.6367,0.0,0.0,0.0,0.0,0.0,0.06815304393416678,-0.2570778332991068,0.12072512197964187,-0.23317048089963477,-0.039706552868981664,-0.00035706494786706666,0.9222700087509632
6839,4.0,300.54408,1216.4038,0.0,0.0,0.0,0.0,0.0,0.0681630107437506,-0.3153232791324847,0.15504744924199185,-0.2094805517066208,-0.013781327080861086,0.003042076316929557,0.8982222097551301
6840,4.0,300.60572,1368.9641,0.0,0.0,0.0,0.0,0.0,0.06817297755333443,-0.3168796718160887,0.15211094912718187,-0.25136217054501475,-0.0025867099682883973,0.015529878592929685,0.9146060788370922
6841,4.0,300.91311,1475.049,0.0,0.0,0.0,0.0,0.0,0.06818294436291823,-0.37456324007151365,0.13562721411536385,-0.20944204820282078,0.0039815320200966165,-0.01653090687022348,0.943723613913269
6842,4.0,299.57943,1578.4659,0.0,0.0,0.0,0.0,0.0,0.06819291117250206,-0.33544236298558366,0.13685381415641987,-0.28122569074231474,-0.0027058452805961376,-0.028880946244077475,0.9711693369869511
6843,4.0,298.73442,1529.2571,0.0,0.0,0.0,0.0,0.0,0.0682028779820859,-0.35725590498091264,0.1257323709263189,-0.23333244892811977,0.017662716351174383,0.008425166374174183,0.967578824462595
6844,4.0,298.82518999999996,1380.0338,0.0,0.0,0.0,0.0,0.0,0.0682128447916697,-0.2957159271098897,0.14039504219591187,-0.26417493084203575,0.03233466797843326,0.04069889252666797,0.9575057505809601
6845,4.0,299.47677000000004,1409.9432,0.0,0.0,0.0,0.0,0.0,0.06822281160125353,-0.31746026412338874,0.1162016898232139,-0.22732896235062178,0.01329904029826309,0.00948375698434894,0.9314683843512721
6846,4.0,299.73095,1415.6114,0.0,0.0,0.0,0.0,0.0,0.06823277841083734,-0.3068193851507157,0.10028515701862441,-0.22377630485000177,-0.00899431483219476,-0.02086202821067188,0.9181059966700071
6847,4.0,300.21831000000003,1297.5593,0.0,0.0,0.0,0.0,0.0,0.06824274522042116,-0.3331920966334997,0.14845960106682185,-0.2096931315776008,-0.020457431366241282,-0.020480973219064683,0.9298701748360411
6848,4.0,299.27349,1177.6128,0.0,0.0,0.0,0.0,0.0,0.06825271203000499,-0.2883051273360007,0.13139121061480286,-0.2010509796196868,-0.015112049715443185,-0.011729107553572789,0.9289916971318422
6849,4.0,299.73618999999997,1272.2842,0.0,0.0,0.0,0.0,0.0,0.06826267883958881,-0.3022119748259997,0.12101070652032689,-0.2055413798228548,-0.008904552627035923,-0.008372769488978011,0.9336382695729232
6850,4.0,300.89666,1497.7371,0.0,0.0,0.0,0.0,0.0,0.06827264564917264,-0.2916420537578297,0.11582652384118788,-0.2794591499879707,-0.024513473543041477,-0.016842844019509286,0.933023632062263
6851,4.0,300.84642,1625.7417,0.0,0.0,0.0,0.0,0.0,0.06828261245875644,-0.3259667317604117,0.08680909382189052,-0.25502725827673073,0.016496032828281684,0.016633615979860086,0.9093654783923852
6852,4.0,299.77853,1506.0771,0.0,0.0,0.0,0.0,0.0,0.06829257926834027,-0.3350890832057177,0.13713499105916988,-0.25985572937576373,0.007398601559910123,-0.0015197427182119284,0.9364811251134911
6853,4.0,300.39178,1556.6351,0.0,0.0,0.0,0.0,0.0,0.0683025460779241,-0.36805870131956564,0.10775587533717688,-0.21287538537166478,0.03675171090086146,-0.00896153061858421,0.9512645555300021
6854,4.0,300.16844,1394.2049,0.0,0.0,0.0,0.0,0.0,0.0683125128875079,-0.3231963236019937,0.0991281378751855,-0.1997352844973378,0.017074878292409282,-0.027337398531991176,0.942619698194321
6855,4.0,298.9627,1442.6439,0.0,0.0,0.0,0.0,0.0,0.06832247969709174,-0.3209458343348877,0.12905246726398686,-0.24663434557841477,0.033970743663151365,0.007901015745144542,0.9646308948866571
6856,4.0,299.65508,1559.6014,0.0,0.0,0.0,0.0,0.0,0.06833244650667555,-0.3035276496833467,0.1107033286855679,-0.2812555512227617,-0.01004250878706845,0.011331990521380389,0.9356614868425991
6857,4.0,298.93309,1231.6827,0.0,0.0,0.0,0.0,0.0,0.06834241331625937,-0.3003574535654727,0.14239388066818187,-0.21643721278568978,-0.038873047257221065,0.01990419681164128,0.946680439825085
6858,4.0,299.34132,1034.1082,0.0,0.0,0.0,0.0,0.0,0.0683523801258432,-0.25780787999615673,0.15533119979999585,-0.2118663909220848,-0.022455871631221976,0.012321183024256088,0.9149160725726861
6859,4.0,300.75572999999997,1374.8737,0.0,0.0,0.0,0.0,0.0,0.06836234693542702,-0.34259783386677367,0.13757617028521085,-0.21290562075464878,-0.007064722277058804,0.03209009980179627,0.952578528127181
6860,4.0,300.87067,1491.4474,0.0,0.0,0.0,0.0,0.0,0.06837231374501085,-0.3402372448438017,0.14039708896111386,-0.25352262240823475,0.014660215151350589,0.01260792267005509,0.93662955612064
6861,4.0,300.22621000000004,1377.0344,0.0,0.0,0.0,0.0,0.0,0.06838228055459465,-0.34130685191436366,0.13668869492012387,-0.21396589579178982,-0.012378348568397889,-0.012683980262311387,0.9415305961918351
6862,4.0,300.98384,1400.5524,0.0,0.0,0.0,0.0,0.0,0.06839224736417848,-0.3063694007813057,0.13200963768083687,-0.25137320483860376,-0.017890711809175782,-0.02055538934615898,0.9323571566764872
6863,4.0,300.91152,1409.5163,0.0,0.0,0.0,0.0,0.0,0.06840221417376231,-0.33890926913024066,0.12927302141325386,-0.2188215219935028,0.012922590528360386,0.00960940790009972,0.934191220417495
6864,4.0,300.90339,1619.605,0.0,0.0,0.0,0.0,0.0,0.06841218098334612,-0.3096037660280127,0.07337529936632822,-0.25609100876171476,0.012690915959245888,0.023156705314638877,0.9273568484929952
6865,4.0,301.40812999999997,1609.5243,0.0,0.0,0.0,0.0,0.0,0.06842214779292995,-0.3678226849737727,0.1171774699345159,-0.2386099722064708,0.007511879476039784,0.02925071464282077,0.92335577716062
6866,4.0,299.77608,1280.2305,0.0,0.0,0.0,0.0,0.0,0.06843211460251376,-0.2828654435116457,0.12279949824686688,-0.22909216951213676,0.003784424883443656,-0.017106500814780184,0.9585992500888801
6867,4.0,299.45035,1082.6687,0.0,0.0,0.0,0.0,0.0,0.0684420814120976,-0.29056044980608375,0.14969930243167084,-0.18824309305564682,0.00946059834271336,0.0026021605124382477,0.9323730140405521
6868,4.0,299.44155,1343.8295,0.0,0.0,0.0,0.0,0.0,0.06845204822168141,-0.27422074829598075,0.1347519484139819,-0.2690218126953857,-0.0038466418846339963,-0.02704238671237577,0.9624641710053181
6869,4.0,300.19993,1658.1107,0.0,0.0,0.0,0.0,0.0,0.06846201503126523,-0.3535321905984107,0.08663496983195583,-0.23712701989011478,-0.026105420159404376,-0.013046795738868489,0.9281135436676751
6870,4.0,300.35515,1463.8295,0.0,0.0,0.0,0.0,0.0,0.06847198184084906,-0.3030882537774817,0.1125933339645969,-0.25447269636449976,-0.024784172426507378,-0.025276438709340276,0.9188457401705141
6871,4.0,300.34372,1313.1376,0.0,0.0,0.0,0.0,0.0,0.06848194865043286,-0.33828068929820465,0.14412775423930185,-0.2050080961627238,-0.026270063168153373,0.013649109088562187,0.9365224150550661
6872,4.0,300.62345,1581.5422,0.0,0.0,0.0,0.0,0.0,0.06849191546001669,-0.3466703595962007,0.11042861631845591,-0.24450760454602175,0.016405998464145984,0.028883700257849275,0.9475431412252272
6873,4.0,301.5014,1669.3936,0.0,0.0,0.0,0.0,0.0,0.06850188226960052,-0.3869622092926966,0.14112827049827587,-0.2616200308473867,0.014821683647536285,0.0041073390776878065,0.9637727328469632
6874,4.0,300.93106,1417.6744,0.0,0.0,0.0,0.0,0.0,0.06851184907918433,-0.3156900655361837,0.12167962383884387,-0.23692716644039077,0.02201771999647978,-0.008122373401740842,0.9385375465889442
6875,4.0,300.56525,1378.4591,0.0,0.0,0.0,0.0,0.0,0.06852181588876816,-0.34529658497811966,0.13885234865365986,-0.21257290995181283,0.003114497050601927,0.0007889195270802952,0.9656242751521961
6876,4.0,299.84722999999997,1410.4343,0.0,0.0,0.0,0.0,0.0,0.06853178269835197,-0.2966289667749997,0.1148528107600899,-0.24696066277311976,0.03435419397799497,0.0016978598254657183,0.915467331289591
6877,4.0,299.76392000000004,1326.9521,0.0,0.0,0.0,0.0,0.0,0.0685417495079358,-0.3051076308292787,0.12032146340480387,-0.21857412684908678,-0.002819127553701227,-0.0009547981132662372,0.9581210872341891
6878,4.0,299.74757999999997,1322.4013,0.0,0.0,0.0,0.0,0.0,0.06855171631751962,-0.2926824386955077,0.14222091887611188,-0.25151544488764177,-0.002140404811316508,-0.014151510912145386,0.9379672489026601
6879,4.0,299.61671,1293.5934,0.0,0.0,0.0,0.0,0.0,0.06856168312710344,-0.3208242848528917,0.14682591766558986,-0.21922173551800078,-0.031768588452315574,-0.0008355416365115391,0.9711661351166351
6880,4.0,299.48458999999997,1189.2454,0.0,0.0,0.0,0.0,0.0,0.06857164993668727,-0.27619763977108475,0.12452360408702287,-0.2098268907233018,-0.02390131545537618,-0.00979462333092906,0.9181938150561741
6881,4.0,299.8869,1530.8078,0.0,0.0,0.0,0.0,0.0,0.06858161674627107,-0.3371880713178717,0.1115501929866469,-0.23968947873050978,-0.02145266790596348,-0.007421947855464224,0.9296721655014991
6882,4.0,300.40696,1786.5105,0.0,0.0,0.0,0.0,0.0,0.0685915835558549,-0.36035896314716065,0.06986158815980192,-0.25255721797795677,0.006123348896752485,-0.02176110731590408,0.9051350275023722
6883,4.0,299.80935,1609.7112,0.0,0.0,0.0,0.0,0.0,0.06860155036543873,-0.3401470351873987,0.10003384464932182,-0.24919883091900974,0.020921025710994478,0.028458555714640774,0.9468267936695293
6884,4.0,299.93757999999997,1312.1708,0.0,0.0,0.0,0.0,0.0,0.06861151717502253,-0.3129759028908167,0.13591037698830988,-0.22180165265761878,0.031933916418132174,0.03928876958774966,0.92541571461392
6885,4.0,300.77841,1291.4659,0.0,0.0,0.0,0.0,0.0,0.06862148398460637,-0.3152684217720707,0.14164943568721086,-0.2189543996116168,0.026537197437767474,0.030876243407247973,0.961525982472726
6886,4.0,300.9827,1292.8149,0.0,0.0,0.0,0.0,0.0,0.06863145079419018,-0.2916635650574527,0.13796629183871287,-0.2392861747932068,0.013153383569887886,-0.014725163469510487,0.937106817182742
6887,4.0,300.4593,1418.9349,0.0,0.0,0.0,0.0,0.0,0.06864141760377401,-0.3145074101519647,0.1165223632148619,-0.23333574199094478,-0.008527819147105221,-0.023710962238589775,0.949922627362564
6888,4.0,299.35069,1446.9261,0.0,0.0,0.0,0.0,0.0,0.06865138441335783,-0.31509493308994874,0.11579970311104089,-0.24053416454387377,-0.00903141417400618,-0.015226097093698786,0.9159995814346202
6889,4.0,299.58883,1332.4562,0.0,0.0,0.0,0.0,0.0,0.06866135122294165,-0.32481519328676367,0.13269890106136187,-0.2129171110107828,-0.037130997771044165,-0.012578145276116288,0.96052391865383
6890,4.0,299.36351,1324.0839,0.0,0.0,0.0,0.0,0.0,0.06867131803252548,-0.2887506939349747,0.12113568078766089,-0.2348734503427048,-0.026510561119138673,-0.008043404944597262,0.9329530693252992
6891,4.0,299.73989,1797.8484,0.0,0.0,0.0,0.0,0.0,0.06868128484210928,-0.39839283565831163,0.12029464267465688,-0.26840281820929573,-0.015166102555277786,0.015659038596426787,0.996375057932062
6892,4.0,299.09646000000004,1816.0409,0.0,0.0,0.0,0.0,0.0,0.06869125165169311,-0.37010575023159364,0.09482339751434071,-0.2767487363679737,-0.018293823228959782,0.027647328432828872,0.9173949788098351
6893,4.0,299.83926,1395.9051,0.0,0.0,0.0,0.0,0.0,0.06870121846127694,-0.35390772135047266,0.13380391109041787,-0.20421647425709682,-0.012199747026271288,0.011891102939810489,0.950068018619413
6894,4.0,300.09165,1405.684,0.0,0.0,0.0,0.0,0.0,0.06871118527086074,-0.30333232546156974,0.11394128083762889,-0.23790178131407777,-0.005285827673520575,-0.014036105778755786,0.9074684918201671
6895,4.0,301.38645,1584.4562,0.0,0.0,0.0,0.0,0.0,0.06872115208044458,-0.3516755820426777,0.11912786491950487,-0.24908741393801376,0.037640060700784767,-0.00965025880040639,0.9669662945121431
6896,4.0,301.52718,1413.3553,0.0,0.0,0.0,0.0,0.0,0.06873111889002839,-0.28573690310253674,0.13519751501295588,-0.27908534176107874,0.049961191036035656,0.01191157363158079,0.9445254696449061
6897,4.0,299.8726,1114.98,0.0,0.0,0.0,0.0,0.0,0.06874108569961222,-0.27954846798428573,0.16884209954841783,-0.2282197105135318,0.030520540946392873,0.03889368918825826,0.9726431801849081
6898,4.0,299.18502,1127.2867,0.0,0.0,0.0,0.0,0.0,0.06875105250919604,-0.25445029340478875,0.13740170888299286,-0.2256184137968038,0.0006040720174947664,0.006768733380371974,0.936243051869995
6899,4.0,299.68843,1455.3161,0.0,0.0,0.0,0.0,0.0,0.06876101931877986,-0.3433496755734747,0.14814928309119585,-0.24717937280720476,-0.01910333609160248,-0.012265871727797289,0.9334606569628942
6900,4.0,300.5663,1811.0474,0.0,0.0,0.0,0.0,0.0,0.06877098612836369,-0.3716867243626237,0.06541244547420573,-0.24423891088450378,-0.0023874540321483675,-0.002713986339849597,0.9223455668109201
6901,4.0,300.03112999999996,1757.1241,0.0,0.0,0.0,0.0,0.0,0.06878095293794749,-0.37991855056004165,0.11460931662855889,-0.26881262721224075,-0.01981062924440688,-0.014236068659490588,0.9466497282145541
6902,4.0,299.92257,1425.6328,0.0,0.0,0.0,0.0,0.0,0.06879091974753132,-0.3089486491758577,0.12840467621005489,-0.25281281031568176,-0.007499355907453804,0.00925583549360484,0.9710455482222341
6903,4.0,298.37357000000003,1396.8131,0.0,0.0,0.0,0.0,0.0,0.06880088655711515,-0.3160283897445737,0.13448629450276386,-0.2430542188675838,-0.021886637857542978,-0.003545998522287807,0.9808339292232722
6904,4.0,299.13194,1800.2494,0.0,0.0,0.0,0.0,0.0,0.06881085336669895,-0.36663061649612466,0.1084333748840409,-0.2890336136278967,0.02042082669312868,0.008039733128884882,0.959368550094804
6905,4.0,299.19979,1648.1054,0.0,0.0,0.0,0.0,0.0,0.06882082017628278,-0.3622458476158817,0.1077358028526959,-0.24647283351247476,-0.0021438540159819178,0.010120593892774851,0.946378856065321
6906,4.0,299.43977,1017.2610000000001,0.0,0.0,0.0,0.0,0.0,0.0688307869858666,-0.2662543936247627,0.15040771623908586,-0.19337527573965382,0.02185327862450068,-0.010644053485236291,0.9186119935049452
6907,4.0,299.74543,860.4359,0.0,0.0,0.0,0.0,0.0,0.06884075379545043,-0.25406010092377973,0.18057594100645782,-0.1880668685982548,0.0005363825741043386,-0.038290127514441365,0.9375950314784252
6908,4.0,301.6425,1346.4988,0.0,0.0,0.0,0.0,0.0,0.06885072060503425,-0.2703101095350307,0.10723710141847789,-0.24622901514091175,0.02176972804775488,-0.02259202610015938,0.9165174535607301
6909,4.0,300.28513,1570.3927,0.0,0.0,0.0,0.0,0.0,0.06886068741461807,-0.33832190831227266,0.1148017530875509,-0.25384002300205977,0.008646946150762143,0.0025055839977068876,0.9618246075421981
6910,4.0,299.99014,1456.4763,0.0,0.0,0.0,0.0,0.0,0.0688706542242019,-0.3148543368537037,0.1046184071975329,-0.23249650746311878,-0.03685173692423326,-0.0016159832392101286,0.922979243290959
6911,4.0,300.00825,1266.3185,0.0,0.0,0.0,0.0,0.0,0.0688806210337857,-0.3251089648882567,0.13442619863933286,-0.1942464175131288,-0.05306042924940665,0.005362676006154915,0.9427824261603812
6912,4.0,299.85847,1455.6355,0.0,0.0,0.0,0.0,0.0,0.06889058784336953,-0.3264736101229367,0.11347511486412189,-0.22947834952274979,-0.032068129499877966,-0.0016671391970088283,0.932314853484812
6913,4.0,299.68356,1832.315,0.0,0.0,0.0,0.0,0.0,0.06890055465295336,-0.3591094839188467,0.07992361558884672,-0.27779213065844877,0.01061807780567269,0.013853776489511287,0.952283013735516
6914,4.0,299.92416000000003,1722.7361,0.0,0.0,0.0,0.0,0.0,0.06891052146253716,-0.3334158931830867,0.11348258251735888,-0.30373543688135374,0.033296113640570564,-0.004841701713538755,0.970370054910568
6915,4.0,300.30357999999995,1160.9596,0.0,0.0,0.0,0.0,0.0,0.068920488272121,-0.2828731138149027,0.16961594904729085,-0.23964557460367675,0.028240560021876273,-0.006237120164355833,0.986143987962334
6916,4.0,301.22683,1160.1205,0.0,0.0,0.0,0.0,0.0,0.06893045508170481,-0.2933262375440457,0.11549968988893189,-0.17482111613600085,0.0017162524426059282,0.001132239098993299,0.9337950294958941
6917,4.0,301.22096,1696.4968,0.0,0.0,0.0,0.0,0.0,0.06894042189128864,-0.3872484017834416,0.12497126811370388,-0.25341553200516576,0.014735247334505685,0.007591883474785563,0.939914675064856
6918,4.0,300.49277,1932.7881,0.0,0.0,0.0,0.0,0.0,0.06895038870087244,-0.4009284940335616,0.08148285854498201,-0.26807367404681176,0.003279723995383557,0.0032483813326902775,0.9291638179263291
6919,4.0,300.16696,1600.3562,0.0,0.0,0.0,0.0,0.0,0.06896035551045628,-0.3295628982203257,0.0909247951513286,-0.24783021374393774,0.0075171092651059234,-0.006665683616051754,0.9309791061429842
6920,4.0,300.66856,1230.1932,0.0,0.0,0.0,0.0,0.0,0.0689703223200401,-0.29309831706655176,0.14232499992638387,-0.22317468760312678,-0.023998118330179875,-0.01967319402734308,0.9604133730679202
6921,4.0,300.0099,1329.9552,0.0,0.0,0.0,0.0,0.0,0.06898028912962391,-0.3144608107798657,0.12842629896718888,-0.2182386600059788,-0.01929748190351318,0.0050653020979063955,0.9755019944145511
6922,4.0,300.23251,1612.6011,0.0,0.0,0.0,0.0,0.0,0.06899025593920774,-0.3538725210419987,0.13718094195120487,-0.27349886839473675,-0.03675253365994267,0.01090840840982609,0.972882205883498
6923,4.0,299.11702,1646.7086,0.0,0.0,0.0,0.0,0.0,0.06900022274879156,-0.3517773832802247,0.12351491361247288,-0.27229583655100675,-0.015945817758979686,0.03002147980838937,0.958629303086846
6924,4.0,299.42888,1299.2541,0.0,0.0,0.0,0.0,0.0,0.06901018955837537,-0.3026114182804217,0.14042288630865987,-0.23275227205336077,-0.014830693467425484,0.03769239405519967,0.9133234460655061
6925,4.0,300.25064,1207.7015,0.0,0.0,0.0,0.0,0.0,0.06902015636795919,-0.2792319995805527,0.15363409707500486,-0.24151319718799677,0.017920429421358682,0.021526866184286276,0.9300389417726971
6926,4.0,300.1008,1464.4021,0.0,0.0,0.0,0.0,0.0,0.06903012317754302,-0.3264475391978637,0.1057566923598729,-0.2244508051765698,0.002409709766619838,0.00088047209450333,0.9353197682463742
6927,4.0,299.28541,1724.8251,0.0,0.0,0.0,0.0,0.0,0.06904008998712682,-0.35960957350570166,0.09841388572069432,-0.2631080798117457,0.01824125986677218,-0.05601303598780624,0.9383574616486712
6928,4.0,300.18953999999997,1550.9466,0.0,0.0,0.0,0.0,0.0,0.06905005679671065,-0.35010139668731766,0.10801928996567389,-0.22936693254175378,0.0025212383064518477,-0.026739517138234872,0.9453271328590241
6929,4.0,299.73455,1273.5092,0.0,0.0,0.0,0.0,0.0,0.06906002360629448,-0.3070806111589967,0.098623564656638,-0.17865795989216782,0.0009425442414593741,-0.00901118716888493,0.9247665759373551
6930,4.0,300.84661,1408.5168,0.0,0.0,0.0,0.0,0.0,0.0690699904158783,-0.3110564626963827,0.13192239684722687,-0.24901986055384676,0.013269241626072188,0.01102169889025699,0.961581305928186
6931,4.0,301.19487999999996,1666.6945,0.0,0.0,0.0,0.0,0.0,0.06907995722546212,-0.3220112465500357,0.09321735658908681,-0.27783962169063575,-0.012568357280150289,0.014957458147686184,0.9582784551072202
6932,4.0,299.25637,1708.6301,0.0,0.0,0.0,0.0,0.0,0.06908992403504594,-0.3271742523020847,0.09139124382161351,-0.28359789161143273,0.014728714911110986,0.017838580091530783,0.9716254515194661
6933,4.0,299.59972999999997,1511.0910000000001,0.0,0.0,0.0,0.0,0.0,0.06909989084462977,-0.3300301179739367,0.16123637072029084,-0.2905401848040837,0.004618003854511495,0.003184393575625177,0.9822130538018811
6934,4.0,300.24137,1361.4664,0.0,0.0,0.0,0.0,0.0,0.06910985765421357,-0.33834887089743365,0.15201841912804986,-0.22752133801460778,-0.03686000808479957,0.01892096424585378,0.983566158117922
6935,4.0,299.21429,1340.8576,0.0,0.0,0.0,0.0,0.0,0.0691198244637974,-0.3236660359508507,0.15261611509703785,-0.23653730833191478,0.0003817661918523896,0.00947235092929825,0.928537264594493
6936,4.0,300.01372000000003,1682.1116,0.0,0.0,0.0,0.0,0.0,0.06912979127338122,-0.3242706017555167,0.08350239569029483,-0.2705517088888747,-0.01911178457093628,0.017309088013273986,0.9204826862370681
6937,4.0,299.49624,1708.9886,0.0,0.0,0.0,0.0,0.0,0.06913975808296503,-0.3406927108962527,0.06884874538634214,-0.24764590355074775,0.03167845276316986,0.015110613940051485,0.913614380566719
6938,4.0,299.28915,1173.7216,0.0,0.0,0.0,0.0,0.0,0.06914972489254886,-0.29667505952204876,0.15474459891960285,-0.21485158783670077,-0.0003789422536911886,-0.026926509404439577,0.944543698014205
6939,4.0,300.40072999999995,1005.4361,0.0,0.0,0.0,0.0,0.0,0.06915969170213268,-0.28593659443224473,0.15113253456561987,-0.17082339866145685,0.014908368206841386,-0.07141769004062723,0.957535560398902
6940,4.0,300.04591,1375.5472,0.0,0.0,0.0,0.0,0.0,0.06916965851171651,-0.3286745818576557,0.12176467605223788,-0.2112220955809978,0.007181332164817304,-0.05170277848016695,0.9568738472885961
6941,4.0,298.99449,1553.0919,0.0,0.0,0.0,0.0,0.0,0.06917962532130031,-0.34803561278094064,0.1317993274900809,-0.25586487160439675,0.02546186145114008,-0.020206395614215982,0.952534897577875
6942,4.0,299.95083999999997,1548.2901,0.0,0.0,0.0,0.0,0.0,0.06918959213088414,-0.3036421469446467,0.1037451578638499,-0.2707445405154057,-0.004783883535007545,0.025659670162162272,0.9475562121515171
6943,4.0,299.31597,1340.5970000000002,0.0,0.0,0.0,0.0,0.0,0.06919955894046798,-0.2946773660223917,0.15006829772058786,-0.2628989348586047,-0.04084014972310896,-0.0017045349144744985,0.9413164660482021
6944,4.0,300.32422,1314.9586,0.0,0.0,0.0,0.0,0.0,0.06920952575005178,-0.28819518970015073,0.13057687164193388,-0.24209625169303978,-0.025494860980396876,0.03591017629530847,0.9426807667778482
6945,4.0,300.86539,1331.7261,0.0,0.0,0.0,0.0,0.0,0.06921949255963561,-0.3093869710366167,0.11949816730105088,-0.21492267746371682,-0.00986083709713885,-0.008103508812704052,0.9417439360003901
6946,4.0,300.05859,1287.0877,0.0,0.0,0.0,0.0,0.0,0.06922945936921943,-0.3394881389123707,0.16745979336449485,-0.21921416653975379,0.0018128644210907883,0.005435515414768604,0.979500380634161
6947,4.0,299.58587,1454.3104,0.0,0.0,0.0,0.0,0.0,0.06923942617880324,-0.3278243738312467,0.1018330839976429,-0.2160827373707058,0.007227821801930474,-0.02030852615804548,0.942700018529748
6948,4.0,299.87438,1442.8028,0.0,0.0,0.0,0.0,0.0,0.06924939298838707,-0.3241150273351627,0.1077863842976879,-0.2222473712441078,0.004171092166029746,0.0026922993426592573,0.9339941027430412
6949,4.0,298.88468,1536.1329,0.0,0.0,0.0,0.0,0.0,0.06925935979797089,-0.3239145152728737,0.1050757882926729,-0.24810732751378678,0.023246781222028678,0.01709624165751768,0.9473841116220321
6950,4.0,298.97886,1755.4162,0.0,0.0,0.0,0.0,0.0,0.06926932660755472,-0.3589141394320676,0.1049482910325899,-0.27963685379050873,-0.0013721720617228387,-0.0017423976389112582,0.9685370246846621
6951,4.0,299.06526,1470.6049,0.0,0.0,0.0,0.0,0.0,0.06927929341713852,-0.3352705259011247,0.14667121464032187,-0.25842785733484375,0.013758611026869188,-0.012522647541639089,0.9796737274612691
6952,4.0,299.45616,1228.6777,0.0,0.0,0.0,0.0,0.0,0.06928926022672235,-0.29225381363820574,0.1344384184355389,-0.21567193538266277,-0.025152374340596077,-0.028827238922526973,0.9590589616592501
6953,4.0,300.09711,1483.1883,0.0,0.0,0.0,0.0,0.0,0.06929922703630619,-0.3133736440850707,0.12680161322684488,-0.26428016699742174,0.03693701306589937,-0.0013908289344891289,0.9592042009285842
6954,4.0,300.8686,1505.8156,0.0,0.0,0.0,0.0,0.0,0.06930919384588999,-0.3232386065286667,0.1261216008197329,-0.26061334660803476,0.0026252268469897175,0.005440882701873314,0.9318900686453891
6955,4.0,300.05953,1366.2484,0.0,0.0,0.0,0.0,0.0,0.06931916065547382,-0.2939803208810987,0.10577749438442591,-0.22710256174827778,0.0024083699460126073,-0.0005610412413204595,0.9387320500781401
6956,4.0,300.34486,1388.9128,0.0,0.0,0.0,0.0,0.0,0.06932912746505764,-0.3254218970491407,0.13206882161917788,-0.2288417244849198,-0.027311839298218676,0.025581813037728374,0.931482468527662
6957,4.0,299.34855,1335.5802,0.0,0.0,0.0,0.0,0.0,0.06933909427464145,-0.3353665820106047,0.12948573300674687,-0.20010217222604681,-0.001299113993737569,0.018053323251474282,0.9463406362715492
6958,4.0,300.10756000000003,1515.3957,0.0,0.0,0.0,0.0,0.0,0.06934906108422528,-0.3538285763851617,0.1056098622878819,-0.21242374940459177,-0.013576421566138488,0.012345066342363188,0.967721561004182
6959,4.0,300.40221,1931.7,0.0,0.0,0.0,0.0,0.0,0.0693590278938091,-0.3786479349346416,0.07663903670693402,-0.28517965607754076,-0.00901456645929344,-0.04679448759125636,0.9561854350381551
6960,4.0,299.54828,1805.4357,0.0,0.0,0.0,0.0,0.0,0.06936899470339293,-0.3584822111794397,0.06554985738651724,-0.2558750243703988,0.00883014298474226,-0.03215852863404967,0.9484195518992221
6961,4.0,299.01874,1359.9669,0.0,0.0,0.0,0.0,0.0,0.06937896151297673,-0.29035259168056976,0.12202252793768589,-0.24506591548362275,0.005536525506637525,-0.03536989918298726,0.9504013272398082
6962,4.0,299.54644,1374.8694,0.0,0.0,0.0,0.0,0.0,0.06938892832256056,-0.32634233343998065,0.15867979886297687,-0.25026343253407773,0.008042872177694681,0.01040780814492069,0.9877891312221971
6963,4.0,299.1308,1622.6832,0.0,0.0,0.0,0.0,0.0,0.0693988951321444,-0.33829618189223365,0.11516892452628788,-0.27012792716705075,-0.005272954634975105,-0.0003793270354166636,0.9568799977167032
6964,4.0,299.62797,1512.7305,0.0,0.0,0.0,0.0,0.0,0.0694088619417282,-0.3531900363046427,0.14488778300681088,-0.25153005595408373,0.008803032059766623,0.015898002486760685,0.982167903377425
6965,4.0,299.93312000000003,1387.1064,0.0,0.0,0.0,0.0,0.0,0.06941882875131203,-0.2817961404161137,0.09525144501908572,-0.2351010263151648,0.011572525962619387,0.02399787109715548,0.9286277579609242
6966,4.0,299.96381,1427.6979,0.0,0.0,0.0,0.0,0.0,0.06942879556089585,-0.3267737044050537,0.13683449147701288,-0.24404530918789674,-0.01048426394446629,0.011284742669217388,0.9623862419401271
6967,4.0,300.71139,1537.7573,0.0,0.0,0.0,0.0,0.0,0.06943876237047966,-0.3175372204684837,0.1024775921212509,-0.25238019305298576,-0.022037107523893183,-0.017814096929364483,0.9196045429054022
6968,4.0,301.90448,1618.3378,0.0,0.0,0.0,0.0,0.0,0.06944872918006349,-0.34963926344920865,0.0944804569384951,-0.2367754626354188,-0.014137772254039487,-0.01116178375633229,0.948896579913801
6969,4.0,300.32538,1501.7543,0.0,0.0,0.0,0.0,0.0,0.06945869598964731,-0.33151964628344166,0.1169962906841349,-0.24197244266332077,-0.011721157593288189,0.009418471253905741,0.9509167675656781
6970,4.0,299.9254,1350.2227,0.0,0.0,0.0,0.0,0.0,0.06946866279923114,-0.32078905414691467,0.12730627257165086,-0.21695119403141577,0.015468255761597985,0.007253897387953932,0.989678305636144
6971,4.0,298.40837,1350.8896,0.0,0.0,0.0,0.0,0.0,0.06947862960881494,-0.2845256132704917,0.11431695344470488,-0.2404280367283998,-0.009744273109609881,-0.026391749438912877,0.9436299997365301
6972,4.0,299.42585,1640.6607,0.0,0.0,0.0,0.0,0.0,0.06948859641839877,-0.3331703928163577,0.1190318088100249,-0.28458129136348675,0.024795332363108775,-0.01013566234031199,0.9632980454401151
6973,4.0,299.90078,1531.0695,0.0,0.0,0.0,0.0,0.0,0.0694985632279826,-0.3061361708732877,0.09412318292673491,-0.25339391938053274,0.0072486473338857944,-0.004401780336171896,0.9421070645712282
6974,4.0,300.83741000000003,1281.4539,0.0,0.0,0.0,0.0,0.0,0.06950853003756641,-0.3167462673079227,0.15919625243894686,-0.2319799930921428,0.023063260350666578,0.015482502058003986,0.9836915579502981
6975,4.0,298.30512000000004,1182.3287,0.0,0.0,0.0,0.0,0.0,0.06951849684715024,-0.30631977179140774,0.14926920816172384,-0.2023478282901758,-0.023169592842660777,-0.005995523951587145,0.9413572696297291
6976,4.0,299.80085,1475.6896,0.0,0.0,0.0,0.0,0.0,0.06952846365673405,-0.3584450451657717,0.11807229136282789,-0.2082000467602448,-0.01201152062144479,0.014341674651163087,0.9608047105215421
6977,4.0,300.6048,1552.9096,0.0,0.0,0.0,0.0,0.0,0.06953843046631787,-0.3393952948057077,0.1223371522262369,-0.25498757940281475,-0.018954865567699583,0.015586355127003484,0.9311646423687951
6978,4.0,301.1317,1464.4192,0.0,0.0,0.0,0.0,0.0,0.0695483972759017,-0.3297526799640557,0.1103075835940109,-0.22570177388253077,-0.015123171148540787,0.005812995761348015,0.9552643299022491
6979,4.0,300.65876000000003,1263.4346,0.0,0.0,0.0,0.0,0.0,0.06955836408548552,-0.2930095766227937,0.13797992005255785,-0.2290229138678018,-0.04169427497440456,-0.034828785126083464,0.9208283159786792
6980,4.0,301.36552,1355.5484,0.0,0.0,0.0,0.0,0.0,0.06956833089506935,-0.33293940219106066,0.15386996143328285,-0.23298343493117477,-0.016202345326546984,-0.015563962299793486,0.965867921271242
6981,4.0,301.29888,1708.4216,0.0,0.0,0.0,0.0,0.0,0.06957829770465315,-0.34432967080519267,0.08129404141534721,-0.25628188481555275,0.0031909639958986272,0.013505848696673487,0.9534094945341911
6982,4.0,301.39842000000004,1833.8672,0.0,0.0,0.0,0.0,0.0,0.06958826451423698,-0.38338415974457063,0.13649243850825485,-0.31055809563469766,0.01139306315790779,-0.004719164920645316,1.019307106447779
6983,4.0,300.57417999999996,1565.9269,0.0,0.0,0.0,0.0,0.0,0.06959823132382081,-0.32434166098502965,0.1135796214794359,-0.2652406470322137,-0.014391804186610485,0.0003935909725069046,0.9514408711799032
6984,4.0,300.2714,1426.1436,0.0,0.0,0.0,0.0,0.0,0.06960819813340462,-0.3153277273004237,0.11760887129709188,-0.23579317745847475,0.006241191808557675,-0.006217957375814614,0.9638780804598601
6985,4.0,299.6683,1686.4123,0.0,0.0,0.0,0.0,0.0,0.06961816494298845,-0.33484350177898065,0.0997733421016122,-0.27755706676774977,0.011596173193453189,0.022002769491254275,0.9346407285593582
6986,4.0,299.98295,1709.5778,0.0,0.0,0.0,0.0,0.0,0.06962813175257226,-0.36782305987630964,0.10301154452644791,-0.25485744769247176,0.017360272342075482,0.004803194258063366,0.9639715831790882
6987,4.0,299.7084,1324.7365,0.0,0.0,0.0,0.0,0.0,0.06963809856215608,-0.3079263507524647,0.1340873678058929,-0.22884783438302275,0.00915714989879033,-0.002212104820192748,0.9303131069847551
6988,4.0,299.7266,1270.1528,0.0,0.0,0.0,0.0,0.0,0.06964806537173991,-0.3175186475941507,0.13926785212216686,-0.2078439501451008,0.0013731991933492087,0.006411378207278764,0.953428168733534
6989,4.0,299.59654,1238.3067,0.0,0.0,0.0,0.0,0.0,0.06965803218132373,-0.2929843466953037,0.1282635710011289,-0.21169353045502481,0.006814948224058023,0.051684604826373354,0.9287898171819181
6990,4.0,300.2103,1456.5482,0.0,0.0,0.0,0.0,0.0,0.06966799899090756,-0.33257896886548866,0.14147307950730587,-0.2516483833007618,-0.011525103831439188,-0.0007729068115099634,0.9805491350176652
6991,4.0,299.86659,1664.7816,0.0,0.0,0.0,0.0,0.0,0.06967796580049136,-0.3202003862363177,0.10284042684955991,-0.28869208754919073,-0.015659499625222287,-0.030150485797871267,0.949574667145723
6992,4.0,301.00117,1657.6808,0.0,0.0,0.0,0.0,0.0,0.06968793261007519,-0.3753722898788607,0.11896802471622989,-0.24748929561529176,-0.009091202921331872,-0.02159748768975608,0.993338924934919
6993,4.0,300.80699,1435.4582,0.0,0.0,0.0,0.0,0.0,0.06969789941965902,-0.3083809758073327,0.12204788958768889,-0.25001035305660074,0.03428630926104526,0.013363931874417386,0.9586270030091191
6994,4.0,300.96682999999996,1498.1932,0.0,0.0,0.0,0.0,0.0,0.06970786622924283,-0.35982070442903863,0.1119195834431029,-0.2075122019298598,0.012531202412233388,-0.008386173875875922,0.9805398840442522
6995,4.0,299.8803,1604.4121,0.0,0.0,0.0,0.0,0.0,0.06971783303882666,-0.3520591681330347,0.13039356456634288,-0.26603560253066977,0.00989158721117365,-0.01175506600788469,0.9346391276242001
6996,4.0,299.95714,1461.4909,0.0,0.0,0.0,0.0,0.0,0.06972779984841047,-0.34738474144670467,0.12844306825634386,-0.22531505684936476,0.008955966760960101,-0.013587346428716686,0.9457273261185201
6997,4.0,299.8715,1224.2601,0.0,0.0,0.0,0.0,0.0,0.06973776665799429,-0.26648298284732275,0.12598324151857787,-0.23164473903155577,0.006990198948103923,0.03056047718583427,0.9269596848512981
6998,4.0,299.46943999999996,1202.2293,0.0,0.0,0.0,0.0,0.0,0.06974773346757812,-0.33118013657243467,0.1937051393097088,-0.2279726700066508,0.005474350454001325,0.002946492584646177,0.9907657459084661
6999,4.0,299.30679,1557.6855,0.0,0.0,0.0,0.0,0.0,0.06975770027716194,-0.3173532547803277,0.08943550698209732,-0.24557974474183375,-0.023592783839676477,-0.012875598015222589,0.9599229296220172
7000,4.0,300.45513,1622.5524,0.0,0.0,0.0,0.0,0.0,0.06976766708674577,-0.3737843547196436,0.13132576479084387,-0.25075680427276975,0.0012985857864604388,-0.008779744228743292,0.971831323674784
7001,4.0,299.09641,1541.5753,0.0,0.0,0.0,0.0,0.0,0.06977763389632957,-0.3141689238235587,0.10906870296174288,-0.2635001772029428,-0.012938366832417387,0.02304054328342458,0.954598827236569
7002,4.0,299.11589,1547.2283,0.0,0.0,0.0,0.0,0.0,0.0697876007059134,-0.33315349180468967,0.0931130901140465,-0.2302783611392048,0.004488792884534365,-0.02645055340846637,0.9609995382507701
7003,4.0,299.57768,1636.7259,0.0,0.0,0.0,0.0,0.0,0.06979756751549723,-0.29919187144543874,0.1067321279661409,-0.3050640610749787,-0.015047822831354484,-0.023678621321897977,0.950318210334105
7004,4.0,300.06515,1683.9288,0.0,0.0,0.0,0.0,0.0,0.06980753432508104,-0.3454759201133187,0.07123472139056963,-0.2376311219473658,0.033036942503492366,-0.019060743110398883,0.9501260170551371
7005,4.0,300.77983,1426.425,0.0,0.0,0.0,0.0,0.0,0.06981750113466487,-0.3079495237822517,0.12660605595754487,-0.25225411434304273,0.016348618110982985,0.014363899278856486,0.9572479797555201
7006,4.0,299.58941,1100.9073,0.0,0.0,0.0,0.0,0.0,0.06982746794424868,-0.3065143259431087,0.18196683955122883,-0.21010083302033783,0.02155463632977698,-0.01272290122515259,0.9777273956091811
7007,4.0,298.83295,1153.246,0.0,0.0,0.0,0.0,0.0,0.06983743475383251,-0.27840126622106576,0.13665566296686388,-0.2088123943256788,-0.02964016441150647,-0.00924547936830777,0.9346315890434561
7008,4.0,299.15043,1641.3706,0.0,0.0,0.0,0.0,0.0,0.06984740156341633,-0.35500091688336266,0.12958682496922386,-0.27352159559447975,-0.004004480614986466,0.004217809480440386,0.9687694439926
7009,4.0,300.54034,1681.4784,0.0,0.0,0.0,0.0,0.0,0.06985736837300015,-0.34366656954224967,0.11417532134572689,-0.28163619888782876,-0.01986431022145478,0.03978172690715076,0.9476184459726591
7010,4.0,300.7387,1557.5396,0.0,0.0,0.0,0.0,0.0,0.06986733518258398,-0.35655691439942766,0.1236931949675679,-0.24058941707182677,-0.008206873799130383,-0.0025819724161208375,0.9901607849362611
7011,4.0,299.6875,1526.3039,0.0,0.0,0.0,0.0,0.0,0.06987730199216778,-0.3377988686106527,0.14169314729652485,-0.2678525626099898,-0.008622635038462821,-0.0035374131528654964,0.9800939020127372
7012,4.0,300.48807,1572.1017,0.0,0.0,0.0,0.0,0.0,0.06988726880175161,-0.35394337762149164,0.12498353857241488,-0.24891982237147375,-0.002829765159876078,0.01943940581851998,0.974004258779236
7013,4.0,300.72209,1700.6059,0.0,0.0,0.0,0.0,0.0,0.06989723561133544,-0.3222381335124277,0.0987068953581121,-0.2934104994223617,-0.00025829823224955077,0.022843507682228682,0.9672910513016941
7014,4.0,299.96519,1646.2676,0.0,0.0,0.0,0.0,0.0,0.06990720242091925,-0.35014967805458264,0.13057400414415088,-0.2808485691875957,-0.002255544979804958,-0.03174820388680377,0.9804315068135561
7015,4.0,299.91828,1386.3558,0.0,0.0,0.0,0.0,0.0,0.06991716923050308,-0.2971584304822537,0.11789134515996989,-0.2421504504408888,-0.002092175423781638,-0.014237866165167985,0.9521547565378582
7016,4.0,299.59146,1167.9914,0.0,0.0,0.0,0.0,0.0,0.06992713604008689,-0.3192131766638877,0.15152506765435986,-0.18735210171271283,0.03730257951647797,-0.007499667076559513,0.9501828097232421
7017,4.0,299.10501,1269.9057,0.0,0.0,0.0,0.0,0.0,0.06993710284967072,-0.31988801136298867,0.14562118356169187,-0.2117528055858748,0.03431150676453207,0.029168556271712373,0.9448244696169151
7018,4.0,299.13892000000004,1507.0689,0.0,0.0,0.0,0.0,0.0,0.06994706965925454,-0.3656088550952846,0.1193286100293169,-0.2118310690235988,-0.01016667893912309,-0.02220033198250218,0.9682687464556852
7019,4.0,300.05307,1435.3306,0.0,0.0,0.0,0.0,0.0,0.06995703646883836,-0.2987428091336197,0.11763065617424188,-0.25519250923553977,0.0012953119753873388,-0.007289261741619123,0.9377492380111441
7020,4.0,299.95816,1561.8667,0.0,0.0,0.0,0.0,0.0,0.06996700327842219,-0.3136615489684847,0.07814245059580943,-0.23924937354957476,-0.030945849636117573,0.0051685049643167245,0.9401357358391731
7021,4.0,300.2057,1738.3004,0.0,0.0,0.0,0.0,0.0,0.06997697008800599,-0.3238345799724847,0.09942950074642772,-0.30399484917195574,0.006088094278073124,0.028126195496339372,0.9581273896498111
7022,4.0,300.05888999999996,1658.2687,0.0,0.0,0.0,0.0,0.0,0.06998693689758982,-0.36282300500534265,0.11152730366688789,-0.2527765866246068,-0.03660485651086807,-0.013220117234723987,0.9872681382857792
7023,4.0,300.60456,1525.2395,0.0,0.0,0.0,0.0,0.0,0.06999690370717365,-0.3203488375084687,0.11717185652896188,-0.2604577316576767,-0.011128703167067489,0.016217684919810883,0.9706909613497391
7024,4.0,300.67227,1500.4858,0.0,0.0,0.0,0.0,0.0,0.07000687051675746,-0.3421503724901127,0.12990483351310886,-0.24386465682756778,-0.006287622373190014,0.007076488035894993,0.9817238363885992
7025,4.0,301.51281,1328.7719,0.0,0.0,0.0,0.0,0.0,0.07001683732634129,-0.27089222171748073,0.11005441292402489,-0.24307566937220076,0.028274636635989375,0.03485645901281467,0.947531458451574
7026,4.0,300.58187999999996,1311.7631,0.0,0.0,0.0,0.0,0.0,0.0700268041359251,-0.3165241223559987,0.15240584543628585,-0.2346249406231788,0.01048565918985399,-0.02757358307730077,0.9522055710303731
7027,4.0,299.78826000000004,1666.4965,0.0,0.0,0.0,0.0,0.0,0.07003677094550893,-0.35857305918340565,0.12075962314554688,-0.2687598774120348,0.031121515792704467,-0.005772829716783934,0.958307616445098
7028,4.0,299.74554,1558.5505,0.0,0.0,0.0,0.0,0.0,0.07004673775509274,-0.3862922787240796,0.11664315275928289,-0.2041112887642158,0.014137798598542087,0.005968730680517854,0.9388568014304521
7029,4.0,299.55739,1357.9712,0.0,0.0,0.0,0.0,0.0,0.07005670456467657,-0.33643736445128264,0.14914292680176086,-0.22549488847711277,0.006510876327348463,0.0015442920456097587,0.9659532571946641
7030,4.0,299.54981000000004,1639.5532,0.0,0.0,0.0,0.0,0.0,0.07006667137426037,-0.39636234325291764,0.13551549315933786,-0.23753639319551678,-0.036426530572768664,-0.03261220832657437,0.982023474708171
7031,4.0,299.38978,1814.6547,0.0,0.0,0.0,0.0,0.0,0.0700766381838442,-0.33074828937981465,0.1059837515747819,-0.3268451790671077,-0.033817985064825265,-0.0022357577252271076,0.9924393007011331
7032,4.0,299.55076,1500.4369,0.0,0.0,0.0,0.0,0.0,0.07008660499342803,-0.32231751152526167,0.13175198844540886,-0.26552983874325475,-0.012776488983191288,0.01996303421844808,0.962582863122032
7033,4.0,300.40542,1318.3801,0.0,0.0,0.0,0.0,0.0,0.07009657180301185,-0.2810265668326627,0.13231678418364987,-0.25204485793239073,-0.0030621825426388875,0.022132258801033877,0.979693769548247
7034,4.0,300.28947,1370.4518,0.0,0.0,0.0,0.0,0.0,0.07010653861259566,-0.3387784484098296,0.15097088064466585,-0.22877555925338977,0.00998966779435345,-0.006290779356526584,0.9659159087959781
7035,4.0,300.40657999999996,1397.3729,0.0,0.0,0.0,0.0,0.0,0.07011650542217948,-0.3008930879658357,0.1118398305277319,-0.2357132117605828,0.008333165392919391,0.00972870006352294,0.9618981998969611
7036,4.0,300.82956,1524.8931,0.0,0.0,0.0,0.0,0.0,0.07012647223176331,-0.3375746464960237,0.0907943442672041,-0.21674911143147177,0.02878477665058627,0.01142776697383279,0.9297676237934202
7037,4.0,299.84612999999996,1643.7875,0.0,0.0,0.0,0.0,0.0,0.07013643904134712,-0.30055220023469276,0.09150648987473742,-0.2906246594649207,0.027879629190505177,-0.017905685619153584,0.9488445900511701
7038,4.0,300.00257999999997,1501.1215,0.0,0.0,0.0,0.0,0.0,0.07014640585093095,-0.3317525722164297,0.1191231431740389,-0.24367402395375376,0.008831377933964142,-0.029189224547252174,0.9647027951137531
7039,4.0,300.16925,1477.5044,0.0,0.0,0.0,0.0,0.0,0.07015637266051476,-0.3310346439905757,0.13200758078313388,-0.25009738110768975,0.021348828009215275,-0.017357095803011983,0.972334534071947
7040,4.0,299.71432999999996,1687.4784,0.0,0.0,0.0,0.0,0.0,0.07016633947009858,-0.3953758530880586,0.12015803629617489,-0.2377334906049688,0.016657901558256884,0.030336142600444174,0.9646162331577101
7041,4.0,299.96207999999996,1573.5407,0.0,0.0,0.0,0.0,0.0,0.0701763062796824,-0.34580668547596266,0.1141391888471609,-0.24664958485991875,-0.015827339438036783,0.015894041692119786,0.981816629832757
7042,4.0,299.435,1328.5266,0.0,0.0,0.0,0.0,0.0,0.07018627308926623,-0.3139959215014847,0.14463622340448387,-0.2344792251262978,-0.015199509411074787,-0.014410752976730586,0.9765066420212021
7043,4.0,299.83001,1590.6058,0.0,0.0,0.0,0.0,0.0,0.07019623989885006,-0.3167496718282587,0.1071180647967299,-0.27387282860914375,-0.011389693088075189,0.004277134159220276,0.967731308470144
7044,4.0,299.89041000000003,1681.5048,0.0,0.0,0.0,0.0,0.0,0.07020620670843386,-0.35297030288795667,0.1030980558199859,-0.26126323508967375,0.00022591298586587577,0.027897871745305572,0.9692338874409371
7045,4.0,300.6785,1409.1025,0.0,0.0,0.0,0.0,0.0,0.07021617351801769,-0.3172552430981547,0.13449226254585286,-0.2455689840257718,-0.011346688727330988,0.0012837768322739088,0.981402149746851
7046,4.0,299.86195,1455.1092,0.0,0.0,0.0,0.0,0.0,0.07022614032760151,-0.34097072645869064,0.1109164759766039,-0.21226261224118878,-0.03315797218818707,-0.007501798144169832,0.964830626746369
7047,4.0,300.30492000000004,1646.7101,0.0,0.0,0.0,0.0,0.0,0.07023610713718532,-0.36312975634061667,0.13785866441309086,-0.27528767025377776,0.022145852564375478,-0.005039158725451245,0.979330468724892
7048,4.0,300.50244,1506.1437,0.0,0.0,0.0,0.0,0.0,0.07024607394676916,-0.3303365146716757,0.1124797587608879,-0.23997332048102277,0.037846083830367666,0.0063134153637605835,0.9326772119855742
7049,4.0,300.96001,1409.4137,0.0,0.0,0.0,0.0,0.0,0.07025604075635297,-0.29948436635180575,0.13023951002113887,-0.25918171540924373,0.015381549924040784,-0.01050763759777309,0.955670166964802
7050,4.0,300.38583,1481.0064,0.0,0.0,0.0,0.0,0.0,0.0702660075659368,-0.3374978016084397,0.1312806447638909,-0.24397181815814378,0.0005215049012960265,-0.01911462471096658,0.9721586034570842
7051,4.0,300.6583,1455.6295,0.0,0.0,0.0,0.0,0.0,0.0702759743755206,-0.3280156146551207,0.12385688552122288,-0.23831628166498575,0.012709733026852988,-0.006747282774429963,0.963133919188917
7052,4.0,298.9278,1483.516,0.0,0.0,0.0,0.0,0.0,0.07028594118510444,-0.33996411314684566,0.11840622819828489,-0.2293939457894198,-0.0031192889129748468,0.01926812703486608,0.9680101751626661
7053,4.0,298.7936,1531.8463,0.0,0.0,0.0,0.0,0.0,0.07029590799468827,-0.3080991909545227,0.1144473891300779,-0.27199123330594477,-0.012403767973656589,0.016159450396813584,0.9741853671021101
7054,4.0,298.61146,1493.4622,0.0,0.0,0.0,0.0,0.0,0.07030587480427207,-0.31399747177413767,0.1164098519237579,-0.25638758706598475,-0.04923637980225236,0.006547661662953894,0.9585621144727151
7055,4.0,298.32459,1499.915,0.0,0.0,0.0,0.0,0.0,0.0703158416138559,-0.3174531612401877,0.12658300451776988,-0.26506655040003174,-0.006312948863414544,0.008649079954147732,0.9669177294348501
7056,4.0,299.56964,1564.5456,0.0,0.0,0.0,0.0,0.0,0.07032580842343972,-0.37100887017822465,0.11907910732469289,-0.2236530227103348,0.002055058654068498,0.013773306193069487,0.9433930106706412
7057,4.0,300.28567000000004,1537.8575,0.0,0.0,0.0,0.0,0.0,0.07033577523302353,-0.34186405840935563,0.12324793234362388,-0.24885414349999177,0.050191124841478356,-0.018848582724960282,0.98605103239816
7058,4.0,299.85269,1386.2153,0.0,0.0,0.0,0.0,0.0,0.07034574204260736,-0.35623526828768365,0.13767413130487888,-0.2028137004211538,-0.002153235597332808,-0.013464064289049687,0.9681273676692321
7059,4.0,300.27841,1528.4335,0.0,0.0,0.0,0.0,0.0,0.07035570885219118,-0.33707973461717966,0.12526293215498888,-0.25278880642081275,0.02010225275568788,-0.001953351952755828,0.973387544105871
7060,4.0,300.00936,1610.9687,0.0,0.0,0.0,0.0,0.0,0.07036567566177501,-0.3601627877952997,0.13359428990972988,-0.2631257711584918,-0.004288754314017096,0.025096194688801577,0.955524816237957
7061,4.0,299.93678,1513.305,0.0,0.0,0.0,0.0,0.0,0.07037564247135882,-0.32632044723782067,0.14382678856209888,-0.27751327409842774,-0.005882154538973454,0.015046909893014385,0.9721010103214002
7062,4.0,299.27634,1508.475,0.0,0.0,0.0,0.0,0.0,0.07038560928094265,-0.34870147008415564,0.1213349262873249,-0.23117218958241878,-0.025524900806111576,0.005923310427560224,0.949550430203331
7063,4.0,299.40322000000003,1539.7853,0.0,0.0,0.0,0.0,0.0,0.07039557609052648,-0.3247775713105507,0.1309083969421529,-0.2741871083926607,0.0026512299856310275,0.006342796272935254,0.9740185760031491
7064,4.0,300.61158,1405.4055,0.0,0.0,0.0,0.0,0.0,0.07040554290011028,-0.32260891212152065,0.12290312333459388,-0.22750239023773777,-0.02314301225278748,0.023328740996117477,0.9588127824149542
7065,4.0,301.70702,1320.1689,0.0,0.0,0.0,0.0,0.0,0.07041550970969411,-0.26030683845278474,0.13838880699791187,-0.27938036979269576,-0.012978411489619488,-0.005882729659730214,0.9834881783902261
7066,4.0,300.40602,1371.2051,0.0,0.0,0.0,0.0,0.0,0.07042547651927793,-0.29679451157633774,0.13310145519359087,-0.25311906515840676,-0.022125510555367878,0.010732994552514091,0.9823893086567761
7067,4.0,300.99744,1513.3975,0.0,0.0,0.0,0.0,0.0,0.07043544332886174,-0.3167221924855467,0.11522882787219989,-0.2585416858510778,0.0014594439007858985,-0.004702825857482776,0.9600305671801401
7068,4.0,300.57402,1513.7662,0.0,0.0,0.0,0.0,0.0,0.07044541013844557,-0.37478830318372564,0.13722214070027086,-0.2225809635745308,0.007033079084385863,0.008128299394950692,0.9556265262829952
7069,4.0,300.57407,1626.05,0.0,0.0,0.0,0.0,0.0,0.07045537694802939,-0.37309859718446464,0.11860345733024989,-0.23978346780978577,-0.01081585510594179,-0.014483958269955386,0.9536598382363981
7070,4.0,299.5317,1557.4144,0.0,0.0,0.0,0.0,0.0,0.07046534375761322,-0.37021281023715963,0.1260721440823519,-0.22927441267512277,0.021057623983475677,-0.02978135878644127,0.96876883604254
7071,4.0,299.69084,1514.7303,0.0,0.0,0.0,0.0,0.0,0.07047531056719702,-0.3091519882059257,0.1238556493561009,-0.27514385966708477,0.019353520713543782,-0.02164623515206708,0.955091813940223
7072,4.0,299.56126,1541.4279,0.0,0.0,0.0,0.0,0.0,0.07048527737678086,-0.34563313599883466,0.14312893282072586,-0.26605139909972875,0.01981489908032828,0.02108462912514088,1.002185398775498
7073,4.0,300.12817,1463.942,0.0,0.0,0.0,0.0,0.0,0.07049524418636469,-0.33179250440287067,0.15368690767021687,-0.26689620650310475,-0.0043017555287002155,0.015111226956361986,0.9931638150526371
7074,4.0,300.36483,1552.09,0.0,0.0,0.0,0.0,0.0,0.07050521099594849,-0.35913100535097064,0.13966996042435187,-0.25233555938608077,-0.015160387824713788,0.03654340795855357,0.9984594552427761
7075,4.0,299.78972999999996,1658.7437,0.0,0.0,0.0,0.0,0.0,0.07051517780553232,-0.3438947028022647,0.1010325069876321,-0.26135447826117875,-0.047593661249878655,0.01969312567006018,0.9668301035662021
7076,4.0,300.69282000000004,1765.3306,0.0,0.0,0.0,0.0,0.0,0.07052514461511614,-0.35066978946341365,0.09217962028717022,-0.27812624987892376,-0.027127735808049076,0.014103372413144485,0.987954351783503
7077,4.0,300.35414,1603.9022,0.0,0.0,0.0,0.0,0.0,0.07053511142469995,-0.3047412193281167,0.095702091040811,-0.2785070900615097,-0.023350200619985377,-0.023981766500066077,0.9633113595464291
7078,4.0,299.89465,1485.6643,0.0,0.0,0.0,0.0,0.0,0.07054507823428378,-0.3288198717894947,0.12472595013199288,-0.24751092850492673,-0.0007848568602743414,-0.02835962197487677,0.992110501043683
7079,4.0,300.41766,1410.4904,0.0,0.0,0.0,0.0,0.0,0.0705550450438676,-0.3270074713356247,0.1317413797168619,-0.23348775990344775,0.03229020555079517,-0.028371668505315674,0.9533366114544981
7080,4.0,302.01022,1350.0947,0.0,0.0,0.0,0.0,0.0,0.07056501185345143,-0.34646838845376765,0.14380116346706986,-0.2077278620811438,0.02936962156855597,0.019416788049787782,0.9562079494553771
7081,4.0,301.05804,1419.0952,0.0,0.0,0.0,0.0,0.0,0.07057497866303523,-0.3288940619618167,0.12516081680991087,-0.22763626084094976,0.01975326408999538,-0.0008283765296218982,0.9346142118042411
7082,4.0,299.80519,1630.8912,0.0,0.0,0.0,0.0,0.0,0.07058494547261907,-0.3444470051667727,0.12023842755910889,-0.2715416339715727,0.0030884537872566567,0.0012923644308464389,0.9792941741063101
7083,4.0,299.17326,1562.5458,0.0,0.0,0.0,0.0,0.0,0.0705949122822029,-0.3244484068830647,0.1053461740818579,-0.25587267363016675,-0.0013053434553523687,-0.008027619014664311,0.9478853056514961
7084,4.0,300.17978999999997,1548.2706,0.0,0.0,0.0,0.0,0.0,0.0706048790917867,-0.34925682233146466,0.14251806460043787,-0.2638968646170928,0.002236117732987638,-0.00022912527239290378,1.023915975852639
7085,4.0,300.14945,1662.1827,0.0,0.0,0.0,0.0,0.0,0.07061484590137053,-0.3482141069185567,0.12336625969030188,-0.28041418886972574,-0.021784003728413777,0.002442340979465288,0.9774184151236871
7086,4.0,300.37762000000004,1773.4446,0.0,0.0,0.0,0.0,0.0,0.07062481271095435,-0.3785191913769356,0.1160842034741189,-0.2766478774530198,-0.035719034769944265,0.016054677296723285,1.018366303729929
7087,4.0,300.04868999999997,1560.8394,0.0,0.0,0.0,0.0,0.0,0.07063477952053816,-0.31974936835180573,0.10826543881246689,-0.2629722637683417,-0.05163979282745075,0.007713009316914753,0.953661722881584
7088,4.0,300.0737,1515.9114,0.0,0.0,0.0,0.0,0.0,0.070644746330122,-0.3258967060460007,0.12273523792552489,-0.2576377553043668,3.0351998951259072e-05,0.014387451264180886,1.016122157408449
7089,4.0,300.32886,1553.6128,0.0,0.0,0.0,0.0,0.0,0.07065471313970581,-0.3296051203519927,0.13803016712501687,-0.28068452399640575,0.01839372664906948,0.00023963286844742277,0.9678428673061541
7090,4.0,300.65185,1457.3567,0.0,0.0,0.0,0.0,0.0,0.07066467994928964,-0.3577772525548657,0.15323442057305986,-0.23845720448889376,0.01868605842217038,-0.022137406111541878,1.009274947605182
7091,4.0,300.35283,1432.7997,0.0,0.0,0.0,0.0,0.0,0.07067464675887344,-0.33408110200623764,0.13081250295268887,-0.23226673273794177,0.04186057262056686,-0.04562039214388216,0.9708863868965262
7092,4.0,300.61782999999997,1533.3636,0.0,0.0,0.0,0.0,0.0,0.07068461356845727,-0.3504549399122096,0.1329258082887559,-0.24857513495245578,0.015203112528430384,-0.008102952538399152,0.9778706185108161
7093,4.0,299.6984,1626.4363,0.0,0.0,0.0,0.0,0.0,0.0706945803780411,-0.33345417377186465,0.1035120090158399,-0.26445384819706275,0.00997177876251294,0.010823692595465291,0.9465036682126392
7094,4.0,298.50874,1635.2320000000002,0.0,0.0,0.0,0.0,0.0,0.07070454718762491,-0.3266119187615867,0.1061135185150889,-0.27657128587796076,-0.024478222572062478,-0.0037443703977155865,0.9565043859046332
7095,4.0,299.46294,1622.0373,0.0,0.0,0.0,0.0,0.0,0.07071451399720874,-0.32552790327460274,0.1013181725883251,-0.26884911434834174,-0.015228743702959985,0.02027182015992288,0.9724948201052661
7096,4.0,300.18278,1500.3919,0.0,0.0,0.0,0.0,0.0,0.07072448080679256,-0.3106933442580457,0.1121959879378819,-0.25758430636159174,-0.026171921789967575,0.018241976234592883,0.9858906551723321
7097,4.0,299.85458,1256.4197,0.0,0.0,0.0,0.0,0.0,0.07073444761637637,-0.2923728502599537,0.12504583318856288,-0.2145932090612008,-0.0067230289107612935,-0.0026063050093222775,0.976567102654669
7098,4.0,299.29884,1336.5607,0.0,0.0,0.0,0.0,0.0,0.0707444144259602,-0.32838631220420567,0.14448392178195288,-0.2223786985895688,-0.036531386759367165,0.0015188246122963187,0.977380114269907
7099,4.0,300.63367,1566.5126,0.0,0.0,0.0,0.0,0.0,0.07075438123554402,-0.3206936363849977,0.1002925679298558,-0.25577962687348377,0.006829090864978794,0.006088334215696805,0.9529134376827341
7100,4.0,300.75333,1553.4124,0.0,0.0,0.0,0.0,0.0,0.07076434804512785,-0.3527673995554317,0.13785771195799687,-0.25728888316243576,0.006140644062709384,0.019362720011201682,0.980485462381381
7101,4.0,300.74022,1596.4239,0.0,0.0,0.0,0.0,0.0,0.07077431485471165,-0.3480652402138647,0.13520436458363186,-0.2724121475299857,0.007463192302109733,-0.0064435730133061446,0.973972908821142
7102,4.0,299.35736,1652.5922,0.0,0.0,0.0,0.0,0.0,0.07078428166429548,-0.4022658220455456,0.16322122634118083,-0.2633021678684007,0.02814238824618747,-0.03367717572492847,1.0073574528509401
7103,4.0,299.91533,1604.2631,0.0,0.0,0.0,0.0,0.0,0.07079424847387931,-0.35613715528050066,0.13113832365484487,-0.2626571024572378,0.0061992601756943435,-0.015403098713917486,0.967147169787494
7104,4.0,299.41239,1640.6952,0.0,0.0,0.0,0.0,0.0,0.07080421528346312,-0.37112396525708363,0.1144326260761209,-0.24203903345989278,0.01926668720647398,0.004601161206049255,0.9898984038228661
7105,4.0,300.16994,1703.779,0.0,0.0,0.0,0.0,0.0,0.07081418209304695,-0.3292699574839147,0.1017265306171269,-0.2903628457715817,-0.022518854244187876,-0.007401855207306233,0.9563947522438131
7106,4.0,298.86433999999997,1298.3233,0.0,0.0,0.0,0.0,0.0,0.07082414890263077,-0.3199246707516067,0.13804001591598886,-0.2127731990990798,-0.016311652720834787,0.016216889518482384,0.9862967050174061
7107,4.0,299.71406,1294.6243,0.0,0.0,0.0,0.0,0.0,0.07083411571221458,-0.29249725710723173,0.11385814366692389,-0.2148943368584198,-0.029876632666844073,0.013135740859146688,0.96745313078769
7108,4.0,299.55147,1548.405,0.0,0.0,0.0,0.0,0.0,0.07084408252179841,-0.34359722270540566,0.12317247560867689,-0.25025171936292173,-0.0038191916221998663,0.014800588793704385,0.9997272439003971
7109,4.0,300.54056,1542.1799,0.0,0.0,0.0,0.0,0.0,0.07085404933138223,-0.3422949328818797,0.1037508117994079,-0.2302400602854248,-0.030286153906760673,-0.011097711899508889,0.970846181132558
7110,4.0,300.25496,1681.6789999999999,0.0,0.0,0.0,0.0,0.0,0.07086401614096606,-0.34068127130262366,0.0990574636807105,-0.2695646209064567,0.004166608736987267,-0.0066201711573350246,0.953411804744419
7111,4.0,300.1265,1784.2298,0.0,0.0,0.0,0.0,0.0,0.07087398295054986,-0.34101325256538767,0.07160892478500064,-0.27295698224125675,8.331437193548832e-05,0.007473884117164932,0.9519289942830771
7112,4.0,299.87388,1603.2679999999998,0.0,0.0,0.0,0.0,0.0,0.0708839497601337,-0.3411823437420757,0.10429819990093091,-0.25046930468939577,0.03896826338236817,0.021669172094580778,0.9516313824637052
7113,4.0,300.87969,1456.9169,0.0,0.0,0.0,0.0,0.0,0.07089391656971752,-0.3454590596316547,0.14722598933507386,-0.24463328808842577,0.013431576451093387,-0.0013565348769045687,0.981844433415501
7114,4.0,298.9914,1394.8214,0.0,0.0,0.0,0.0,0.0,0.07090388337930133,-0.3444412701712067,0.14652712034360088,-0.2260767169495348,0.039129362042267364,-0.01188079109354279,0.977709501612415
7115,4.0,299.83626,1399.5228,0.0,0.0,0.0,0.0,0.0,0.07091385018888516,-0.3293560432124107,0.14250461877161086,-0.23856855054238277,0.013884834631576486,7.658692930729143e-05,0.991587481607065
7116,4.0,299.7717,1411.4758,0.0,0.0,0.0,0.0,0.0,0.07092381699846897,-0.3088076351594407,0.13343335539634688,-0.2536791290186808,-0.001223050727280709,-0.018219425340367284,0.9911066539046111
7117,4.0,298.5115,1515.7363,0.0,0.0,0.0,0.0,0.0,0.07093378380805279,-0.3174061565680487,0.1125891492416839,-0.25592895967322177,-0.04087023818482846,-0.022631481045803276,0.980515231669319
7118,4.0,298.57788,1742.1069,0.0,0.0,0.0,0.0,0.0,0.07094375061763662,-0.36444281701270564,0.11529641165386989,-0.2804105918318707,-0.04105736521329646,-0.006829223195441853,1.008519600053135
7119,4.0,299.90079,1799.4875,0.0,0.0,0.0,0.0,0.0,0.07095371742722044,-0.38614291552683866,0.11514764627418789,-0.27600398741197274,-0.026968259361559974,0.021636098598066682,0.9940411275192211
7120,4.0,299.06043,1682.4393,0.0,0.0,0.0,0.0,0.0,0.07096368423680427,-0.3803733478674266,0.12904554676580388,-0.26009172545655473,-0.0030244911587940368,0.01817958231993508,1.0179948462432689
7121,4.0,300.02313,1577.9879,0.0,0.0,0.0,0.0,0.0,0.07097365104638807,-0.34614501981685364,0.15241771059495685,-0.28594161002023977,-0.012173220138653289,0.007360638321063443,0.9812754326893451
7122,4.0,299.48314,1432.8431,0.0,0.0,0.0,0.0,0.0,0.0709836178559719,-0.31252207830352774,0.12779775966515686,-0.25082419553692076,0.010007900115327841,-0.014888731419903385,0.9596562016656931
7123,4.0,299.94961,1365.7056,0.0,0.0,0.0,0.0,0.0,0.07099358466555573,-0.3074702058224467,0.13868451390709585,-0.24635469868331578,0.03869438795983876,-0.006039284906181015,0.9412455790712061
7124,4.0,300.60048,1384.8387,0.0,0.0,0.0,0.0,0.0,0.07100355147513954,-0.3222030142639617,0.1371270370458849,-0.23588040815958378,0.02086330591904798,-0.016539702894341583,0.955742877791978
7125,4.0,301.18731,1269.9151,0.0,0.0,0.0,0.0,0.0,0.07101351828472337,-0.29053825962889374,0.12107059973373789,-0.2165548207247968,0.02245595775748048,-0.023554928815940478,0.9760528376989152
7126,4.0,300.56386000000003,1336.2401,0.0,0.0,0.0,0.0,0.0,0.07102348509430718,-0.3082232431642657,0.13227358933188688,-0.23023395038732178,-0.020462648591006178,-0.017198947727403983,0.9745821153112662
7127,4.0,300.16495,1750.9235,0.0,0.0,0.0,0.0,0.0,0.071033451903891,-0.3225307905388107,0.06121197361490144,-0.27091819131754374,-0.00011491556133878292,0.016409266195718485,0.9915286523062591
7128,4.0,299.71417,1828.0115,0.0,0.0,0.0,0.0,0.0,0.07104341871347483,-0.34998915897374067,0.07411466492454792,-0.2797953565036517,-0.03329457957991917,0.019552200819651984,0.979890593380172
7129,4.0,299.50947,1647.4269,0.0,0.0,0.0,0.0,0.0,0.07105338552305865,-0.3272359085706697,0.1110874416659769,-0.2846281541806117,-0.022466451988766182,3.716190696534466e-05,1.000948696630945
7130,4.0,300.28308,1557.9679,0.0,0.0,0.0,0.0,0.0,0.07106335233264248,-0.3407168971761397,0.10753754020562889,-0.2404039821710258,-0.024775419972143577,-0.007254224769061244,0.980112312767054
7131,4.0,299.51153,1396.2746,0.0,0.0,0.0,0.0,0.0,0.07107331914222628,-0.3337737427209037,0.17141670725751182,-0.26207556782734476,0.021100510807208282,0.02998526827631557,1.011311529643677
7132,4.0,299.43611,1405.6462,0.0,0.0,0.0,0.0,0.0,0.07108328595181011,-0.34553373616402466,0.16217441739786886,-0.24392203718073077,0.02074630491675088,0.0027621440906023978,0.9857672514426531
7133,4.0,299.75441,1501.7038,0.0,0.0,0.0,0.0,0.0,0.07109325276139394,-0.32758042373717067,0.15192619310394787,-0.2808262168903898,0.01043051001341119,-0.025022940759571975,0.9906195643165391
7134,4.0,300.0951,1431.9555,0.0,0.0,0.0,0.0,0.0,0.07110321957097775,-0.33851450689128065,0.13387410905734587,-0.2306383283697308,0.02225408388705708,-0.017644428200119484,0.9767439553271231
7135,4.0,300.44462999999996,1440.9107,0.0,0.0,0.0,0.0,0.0,0.07111318638056158,-0.3426201355014747,0.13183122460322885,-0.2272119826265768,0.008727412090228513,0.012034129270926088,0.966739843247294
7136,4.0,299.93176,1715.1994,0.0,0.0,0.0,0.0,0.0,0.0711231531901454,-0.3749687224965317,0.1093905517235069,-0.25579960816545577,0.007555169471987174,-0.005936727378759375,0.9898700733500702
7137,4.0,299.30133,1750.9338,0.0,0.0,0.0,0.0,0.0,0.07113311999972921,-0.35937436775998866,0.08967305130904112,-0.26253884603806676,-0.026134219766996675,-0.02721910766231677,1.0031631648569959
7138,4.0,299.79157000000004,1486.3624,0.0,0.0,0.0,0.0,0.0,0.07114308680931303,-0.3290391289786337,0.11841912687205788,-0.2411970631567968,-0.0031152876896549573,0.004326591403226326,0.987943165502399
7139,4.0,301.29402999999996,1406.3659,0.0,0.0,0.0,0.0,0.0,0.07115305361889686,-0.29804864162261074,0.10949691258650389,-0.23894837747486877,-0.026395050607738675,0.041813097800381456,0.9978162440792961
7140,4.0,299.63752,1251.8051,0.0,0.0,0.0,0.0,0.0,0.07116302042848066,-0.2988700834786807,0.13377895474045487,-0.21542637422092778,-0.0093472991483316,0.013696324516721987,0.962292232595849
7141,4.0,299.72219,1470.2972,0.0,0.0,0.0,0.0,0.0,0.07117298723806449,-0.33218168363377965,0.13773388266327588,-0.2524858243759108,-0.032583803886521066,-0.02373823690478158,0.9800074616467062
7142,4.0,298.49205,1493.9596,0.0,0.0,0.0,0.0,0.0,0.07118295404764831,-0.32673344797858067,0.12568257981640488,-0.25307554606661176,0.023226138277741375,-0.006250729329098954,0.9293311764453461
7143,4.0,298.69289,1404.2443,0.0,0.0,0.0,0.0,0.0,0.07119292085723214,-0.30914309187004774,0.12978779299405788,-0.24749990434383876,0.034541267304207666,-0.013808518660544687,0.9570632642622902
7144,4.0,299.32987,1482.6434,0.0,0.0,0.0,0.0,0.0,0.07120288766681596,-0.3408258823568957,0.12399741317759187,-0.23385811294749875,0.04101504682286996,0.0046617514342040456,0.9602753380067971
7145,4.0,299.70776,1602.2334,0.0,0.0,0.0,0.0,0.0,0.07121285447639977,-0.34225037014248166,0.100802305684163,-0.24559088036043275,-0.01009310462021187,-0.01990976664744098,1.0028875709622969
7146,4.0,299.53539,1678.5281,0.0,0.0,0.0,0.0,0.0,0.0712228212859836,-0.37650617753576665,0.12291296199306487,-0.2566374241431417,0.01054298077451119,0.007841166405462873,0.9881788069456551
7147,4.0,300.51238,1737.8544,0.0,0.0,0.0,0.0,0.0,0.0712327880955674,-0.3720171857502376,0.11137237772659789,-0.26761952521949073,-0.027414394393840073,0.024921873115097373,1.031386263539899
7148,4.0,300.24217000000004,1575.1426,0.0,0.0,0.0,0.0,0.0,0.07124275490515124,-0.3294374375929437,0.11962831927639589,-0.26899489064022875,0.0005372451235169654,0.005544859286060005,0.9903273024576951
7149,4.0,299.96674,1537.4021,0.0,0.0,0.0,0.0,0.0,0.07125272171473505,-0.33289543726922166,0.1381960766963909,-0.27263249902923276,-0.040974503646618664,-0.015448336277882085,1.012649627725737
7150,4.0,299.79042000000004,1692.7242,0.0,0.0,0.0,0.0,0.0,0.07126268852431887,-0.3621238117738377,0.11954534422570688,-0.27196740166359273,-0.004531611719185255,-0.011009890473591591,1.001646684094831
7151,4.0,299.6137,1637.611,0.0,0.0,0.0,0.0,0.0,0.07127265533390269,-0.35938654702619066,0.13313272409167687,-0.27153902991881573,0.02119948102397588,-0.009419213256953971,0.982373056125172
7152,4.0,299.40193999999997,1420.0194,0.0,0.0,0.0,0.0,0.0,0.07128262214348652,-0.33712700273434465,0.13654828885376688,-0.2310717359675048,-0.011810749167130189,-0.013583510263838089,1.0028559980891811
7153,4.0,300.08501,1344.855,0.0,0.0,0.0,0.0,0.0,0.07129258895307035,-0.33896862532109867,0.16905070747900583,-0.23888443126105777,0.007844324098074512,0.0006974521638581693,0.970798284800331
7154,4.0,298.62432,1430.0062,0.0,0.0,0.0,0.0,0.0,0.07130255576265415,-0.31615825800989067,0.13053340321264387,-0.24906132274793877,0.011606670464489188,0.010305880251111189,0.969509785310666
7155,4.0,299.32009,1500.6992,0.0,0.0,0.0,0.0,0.0,0.07131252257223798,-0.32678373558104373,0.12185363941101787,-0.25124499830345076,0.026481677411788074,0.03224951747977957,0.963827732062391
7156,4.0,299.38187,1584.9128,0.0,0.0,0.0,0.0,0.0,0.0713224893818218,-0.32606662808777065,0.10884799682496091,-0.26455530492957574,-0.0013730462939091188,-0.012817860998024387,0.989940321979503
7157,4.0,299.96558,1436.8919,0.0,0.0,0.0,0.0,0.0,0.07133245619140562,-0.32899808221708265,0.12363012014884288,-0.23141128620851578,-0.0033969241013253066,-0.029644318736916468,0.994084119720964
7158,4.0,298.91625,1327.0988,0.0,0.0,0.0,0.0,0.0,0.07134242300098945,-0.31464052081760174,0.13104955281358388,-0.2198139295389458,-0.018843837674741983,0.00955690948724353,0.9752702843816832
7159,4.0,300.74516,1607.6725,0.0,0.0,0.0,0.0,0.0,0.07135238981057326,-0.34868973664799763,0.1147513641600779,-0.25475391379725376,0.01011061348061486,0.026675066325874075,0.9975983446452912
7160,4.0,300.13214,1628.8185,0.0,0.0,0.0,0.0,0.0,0.07136235662015708,-0.32723282829036565,0.11833529055878389,-0.2862226146704727,-0.0019379875348644782,0.015247287193040087,0.9657918869837381
7161,4.0,301.16618,1541.2301,0.0,0.0,0.0,0.0,0.0,0.0713723234297409,-0.3340684769099917,0.13062808130198786,-0.26505508040889975,-0.02264192562783408,-0.02088523873071258,0.99380138241306
7162,4.0,300.76327000000003,1434.392,0.0,0.0,0.0,0.0,0.0,0.07138229023932473,-0.3363457261122387,0.15221305433975885,-0.2518866693267788,-0.0039376199899128364,-0.0029643216320807673,0.9680373809278511
7163,4.0,299.89075,1427.7874,0.0,0.0,0.0,0.0,0.0,0.07139225704890856,-0.3576254879548877,0.14868059091363187,-0.22506683083986678,0.028236698525745178,0.009024789646177391,1.0002584098678189
7164,4.0,299.62922000000003,1537.2447,0.0,0.0,0.0,0.0,0.0,0.07140222385849236,-0.35149485875484165,0.13917043825755288,-0.25495958330255175,0.028359077859573076,0.016229058652183385,0.9932371642273761
7165,4.0,299.81841000000003,1737.4408,0.0,0.0,0.0,0.0,0.0,0.07141219066807619,-0.3709230377622536,0.13022559809726586,-0.28744118977073674,0.026173514619124774,-0.028556093195766973,0.987166661288264
7166,4.0,300.04386,1779.4849,0.0,0.0,0.0,0.0,0.0,0.07142215747766001,-0.3682036467463706,0.1113908999384259,-0.2841062391866027,-0.0063563570043235935,0.00917000196305873,0.979975817846083
7167,4.0,299.5785,1646.2203,0.0,0.0,0.0,0.0,0.0,0.07143212428724383,-0.3479317039831857,0.11022935055378988,-0.26270750151721173,0.0014589331214104886,0.01059360680250759,0.9877443962302821
7168,4.0,299.5195,1666.4701,0.0,0.0,0.0,0.0,0.0,0.07144209109682766,-0.3283891189069827,0.1014445735117999,-0.2796207532464198,-0.00907185328947221,-0.03205905483198237,1.008970273432613
7169,4.0,299.99321000000003,1814.1729,0.0,0.0,0.0,0.0,0.0,0.07145205790641147,-0.3717435676932337,0.1155337046947889,-0.2952533987042417,-0.013635925691511086,-0.04217489293408786,1.0206408475544089
7170,4.0,300.68777,1726.507,0.0,0.0,0.0,0.0,0.0,0.07146202471599529,-0.3609168789172226,0.1169800584175329,-0.28087819662051977,-0.028659601759732475,0.007826624037377652,0.992023614847608
7171,4.0,300.81609,1363.7789,0.0,0.0,0.0,0.0,0.0,0.0714719915255791,-0.31699402722237474,0.14888133602344386,-0.24644205097443675,-0.0015125551273025687,0.03448578375523187,0.975733380207387
7172,4.0,300.09698,1362.5827,0.0,0.0,0.0,0.0,0.0,0.07148195833516294,-0.3150773430682127,0.13478210273695787,-0.23389587677872578,0.001170348955129449,0.025176583925235373,0.9655227373596751
7173,4.0,301.55021,1752.2438,0.0,0.0,0.0,0.0,0.0,0.07149192514474677,-0.36405203684663867,0.1032098578360199,-0.27179618266169475,0.00043242560643958465,-0.022917639086044876,0.9777675608431451
7174,4.0,300.08622,1714.1631,0.0,0.0,0.0,0.0,0.0,0.07150189195433057,-0.36846084001925367,0.10689958781016791,-0.25950151740580574,0.016391773445992085,-0.013090697839201288,0.9658314544001431
7175,4.0,299.01595,1648.5662,0.0,0.0,0.0,0.0,0.0,0.0715118587639144,-0.3703194142801806,0.12465817383280389,-0.2554617095221077,0.014087744043602086,-0.00016716164452256984,1.005863527036001
7176,4.0,299.52058999999997,1643.6906,0.0,0.0,0.0,0.0,0.0,0.07152182557349822,-0.34241600613632867,0.11449949045021988,-0.2717243736271077,0.02735314545179527,0.01003321454787618,0.9899050203460189
7177,4.0,299.79945,1664.461,0.0,0.0,0.0,0.0,0.0,0.07153179238308204,-0.3214720455093207,0.09455154859201131,-0.27903407130601876,0.004979157702229606,-0.04144572877787496,0.9926540894573311
7178,4.0,299.49587,1880.9097,0.0,0.0,0.0,0.0,0.0,0.07154175919266587,-0.3515583895361116,0.08455447353412682,-0.3047456776285567,0.0025874162036080978,-6.075326414888034e-05,0.980945285409262
7179,4.0,300.40051,1757.5341,0.0,0.0,0.0,0.0,0.0,0.07155172600224968,-0.37091713051417063,0.12240416858785089,-0.2857335289797037,-0.014167781682251187,0.001067326345911909,1.013899694639109
7180,4.0,298.88558,1182.1168,0.0,0.0,0.0,0.0,0.0,0.0715616928118335,-0.2920749142005497,0.14787588794921386,-0.2151349736246688,0.0030186540276179574,-0.011531173199538189,1.0037992326072709
7181,4.0,300.49158,1213.4204,0.0,0.0,0.0,0.0,0.0,0.07157165962141732,-0.3238828512072487,0.17395548644306982,-0.2189221377284328,-0.00968838466589412,-0.056341103065433946,1.025369888421129
7182,4.0,300.77882,1805.8018,0.0,0.0,0.0,0.0,0.0,0.07158162643100115,-0.35908751665667865,0.1073466134892859,-0.29717775316166073,0.008915284465470071,-0.01668146772908268,1.001333143983887
7183,4.0,300.07873,1922.5536,0.0,0.0,0.0,0.0,0.0,0.07159159324058498,-0.37686847524152267,0.10300640734844091,-0.3105462304760267,-0.0009315665176234573,0.03489354801947507,0.9769024276427631
7184,4.0,299.71232000000003,1723.9794,0.0,0.0,0.0,0.0,0.0,0.07160156005016878,-0.36443376868931265,0.12521836941559086,-0.28483128042815875,-0.019102651134534878,0.04077986235540906,0.968573288905741
7185,4.0,299.43426,1536.7415,0.0,0.0,0.0,0.0,0.0,0.07161152685975261,-0.36259711102804865,0.12532452762856788,-0.2298584601652638,-0.029804485206723675,0.013821404162066385,0.9671538673706551
7186,4.0,299.84542000000005,1397.0375,0.0,0.0,0.0,0.0,0.0,0.07162149366933643,-0.3294796597246107,0.14712492777009986,-0.24230980428411575,0.001096066475723339,0.018619652037116585,0.993920925659858
7187,4.0,300.66418999999996,1489.7156,0.0,0.0,0.0,0.0,0.0,0.07163146047892024,-0.35554884200743864,0.14055394007659386,-0.2378414422706228,0.024360294445923875,0.026192628569011178,1.0171792812377791
7188,4.0,298.80975,1588.5793,0.0,0.0,0.0,0.0,0.0,0.07164142728850408,-0.3343560980833777,0.12861228102304387,-0.27714460304954275,0.02137571257411858,-0.01347213077309579,1.0109356341215792
7189,4.0,299.62196,1518.3649,0.0,0.0,0.0,0.0,0.0,0.07165139409808789,-0.3119920674412197,0.13260654331474686,-0.28215950203447476,-0.015872618545255485,-0.04330489781661066,1.0035885171164751
7190,4.0,299.12137,1301.3716,0.0,0.0,0.0,0.0,0.0,0.07166136090767172,-0.3083561106498787,0.14290558210118287,-0.23013393246995079,-0.012078172213022789,-0.016652121979686484,0.9645468761883651
7191,4.0,298.90117000000004,1672.0374,0.0,0.0,0.0,0.0,0.0,0.07167132771725553,-0.3757078073844736,0.12148915308504588,-0.2540389746591948,-0.002077986882631338,-0.0076202443450845625,0.9728541084582251
7192,4.0,299.29329,1827.9231,0.0,0.0,0.0,0.0,0.0,0.07168129452683936,-0.3929193396781196,0.11635822683116288,-0.27908187644573673,-0.02161213219345138,0.0032535832573786666,0.9701736465111841
7193,4.0,299.71201,1428.1708,0.0,0.0,0.0,0.0,0.0,0.07169126133642319,-0.35052749875187067,0.12967569713549487,-0.21327647029124877,-0.02037784259738648,-0.007256556460191362,0.9794306082322751
7194,4.0,299.59396,1112.5583,0.0,0.0,0.0,0.0,0.0,0.07170122814600699,-0.2798645513529807,0.16323289898233284,-0.2215583003811018,0.01206136036736359,0.03265003801905787,0.9746141846769311
7195,4.0,300.73341,1290.1561,0.0,0.0,0.0,0.0,0.0,0.07171119495559082,-0.2979623127140907,0.14468734187202886,-0.2389002582276198,0.04133192457964336,0.03393895395451397,0.988000586385566
7196,4.0,300.83437999999995,1453.1495,0.0,0.0,0.0,0.0,0.0,0.07172116176517464,-0.3194210449219027,0.13500069118103086,-0.25730080911611275,0.00047727639257601255,0.02250753928032118,0.99659237981351
7197,4.0,299.89277000000004,1718.3839,0.0,0.0,0.0,0.0,0.0,0.07173112857475845,-0.38315828603227864,0.12551996330785586,-0.2647074646970927,-0.013774174548405186,-0.01898060921299028,1.005282954993703
7198,4.0,299.77837,1853.0631,0.0,0.0,0.0,0.0,0.0,0.07174109538434228,-0.38608890929650863,0.09350130473086032,-0.2706973129282448,-0.017727572463575182,0.005079169641425015,1.007853215859868
7199,4.0,300.42622,1684.8257,0.0,0.0,0.0,0.0,0.0,0.0717510621939261,-0.38721380942502764,0.14160800389062186,-0.26653914730036576,-0.000954461430523009,0.007025905577652893,1.019664175783019
7200,4.0,301.1813,1838.6167,0.0,0.0,0.0,0.0,0.0,0.07176102900350993,-0.3248361878288357,0.08768190948453072,-0.3217392800906947,-0.011304691537186188,-0.03177562952726047,0.9909204388012331
7201,4.0,300.28726,1945.858,0.0,0.0,0.0,0.0,0.0,0.07177099581309374,-0.37218161597646565,0.09492383390400301,-0.3142344608400267,-0.002227447149231918,-0.04013886615664766,1.002503366789379
7202,4.0,299.79192,1541.6458,0.0,0.0,0.0,0.0,0.0,0.07178096262267757,-0.3090497006083307,0.13340457909350686,-0.29297671692205074,0.002268507690984278,-0.005373417571790025,0.9808019409176151
7203,4.0,298.79424,1117.1043,0.0,0.0,0.0,0.0,0.0,0.0717909294322614,-0.3124984999737007,0.15565339306679385,-0.18272671633122284,0.025045101552509077,0.015395151793383187,0.9898147701596122
7204,4.0,299.48062000000004,1284.2166,0.0,0.0,0.0,0.0,0.0,0.0718008962418452,-0.3222509612586937,0.16660357676499282,-0.23472241528279877,0.019060899150914284,0.02204619435078998,0.983352605526846
7205,4.0,299.37255,1711.0539,0.0,0.0,0.0,0.0,0.0,0.07181086305142903,-0.39427889839729763,0.12920568081160788,-0.25504444299842677,0.009299168957981522,0.011074802314747887,1.002580900687031
7206,4.0,298.995,1808.2532,0.0,0.0,0.0,0.0,0.0,0.07182082986101285,-0.3479024818503017,0.09181575407025941,-0.2935770980038037,-0.0014544156471646484,-0.0011586411541989789,0.973093509059352
7207,4.0,298.8841,1780.3151,0.0,0.0,0.0,0.0,0.0,0.07183079667059666,-0.36326651470661364,0.10171782679876791,-0.27962265815660775,-0.012986152720383488,0.01780626855909188,0.978732418118369
7208,4.0,300.77723,1662.2297,0.0,0.0,0.0,0.0,0.0,0.0718407634801805,-0.3220843424122497,0.11042585014568289,-0.29361781039282175,-0.028357764687443474,-0.018524302162956283,0.9816429486331161
7209,4.0,301.35235,1500.4539,0.0,0.0,0.0,0.0,0.0,0.07185073028976431,-0.3440305796406747,0.12855171906456686,-0.24062165869000876,-0.029750783964673767,-0.02283675335706208,0.9826432595293392
7210,4.0,301.11977,1585.4057,0.0,0.0,0.0,0.0,0.0,0.07186069709934814,-0.34761462762939266,0.12667179562403288,-0.2609809233468118,-0.01303692769614459,0.016488876242825384,1.016183965664549
7211,4.0,299.46137999999996,1684.098,0.0,0.0,0.0,0.0,0.0,0.07187066390893194,-0.3766921697241226,0.13483521730719988,-0.2700667977885177,0.020147655479418783,0.02756300474625677,1.0017516568051912
7212,4.0,300.24242000000004,1447.0585,0.0,0.0,0.0,0.0,0.0,0.07188063071851578,-0.3141604327877207,0.14519419996955188,-0.27090342826358677,0.026989107995617576,0.01018516568719759,1.030593901961699
7213,4.0,299.54511,1314.1997,0.0,0.0,0.0,0.0,0.0,0.0718905975280996,-0.3260408003427217,0.15524866044684985,-0.2286917634701198,0.008425426475474852,-0.019136315355857282,0.9880627594117021
7214,4.0,299.57547,1590.6684,0.0,0.0,0.0,0.0,0.0,0.07190056433768341,-0.3232226275745897,0.12388397982889687,-0.2841848268643587,0.029030368209824273,-0.02091453381760378,1.008405771536901
7215,4.0,299.19649,1735.4369,0.0,0.0,0.0,0.0,0.0,0.07191053114726724,-0.3939612546234486,0.12303968918307188,-0.2566079183002297,-0.008271872779795282,-0.005216616510864964,0.9776588289749141
7216,4.0,300.04812000000004,1864.6993,0.0,0.0,0.0,0.0,0.0,0.07192049795685106,-0.37181255989254264,0.08490132829510873,-0.2799107859550437,-0.011171177598009388,-0.004211609099103456,0.989962552686697
7217,4.0,299.98942999999997,1619.0473,0.0,0.0,0.0,0.0,0.0,0.07193046476643487,-0.3865532919498397,0.14472269416801786,-0.2503193436745958,-0.02189531229164908,-0.008355631174136593,0.9959088716935531
7218,4.0,300.84631,1396.5038,0.0,0.0,0.0,0.0,0.0,0.0719404315760187,-0.2933399265528967,0.12872962551712488,-0.25989199359684273,0.0093599039795756,0.0022671481120000976,0.9868972279541731
7219,4.0,300.17591,1443.7989,0.0,0.0,0.0,0.0,0.0,0.07195039838560252,-0.3392445738533327,0.12588154160604087,-0.2255157614291728,0.002719851234078417,0.007110416310193453,0.9980966813094729
7220,4.0,300.85758,1695.3269,0.0,0.0,0.0,0.0,0.0,0.07196036519518635,-0.31547670546262674,0.10299906128521591,-0.3028593808448937,-0.006596303139304433,-0.021033463034841177,0.98187401018592
7221,4.0,300.45685,1448.6678,0.0,0.0,0.0,0.0,0.0,0.07197033200477015,-0.35108451272934366,0.12860368866219588,-0.2178780240303868,-0.014030418405944486,-0.015833199063365087,1.016758985096299
7222,4.0,299.08051,1086.6287,0.0,0.0,0.0,0.0,0.0,0.07198029881435399,-0.2650077514967287,0.15410706195668286,-0.2194073122738158,0.01135184819684019,-0.0014838427605438787,0.9786079707410871
7223,4.0,299.11106,1368.1244,0.0,0.0,0.0,0.0,0.0,0.07199026562393782,-0.35331807058727865,0.14364979403463085,-0.2062073891135848,0.01037677736060819,0.04505257692034316,0.993227122918885
7224,4.0,299.51493,1769.7041,0.0,0.0,0.0,0.0,0.0,0.07200023243352162,-0.3593073716633767,0.0950820620263689,-0.27372054725161477,-0.006693198827817294,0.010153235136796291,0.9856361166147111
7225,4.0,299.76567,1844.375,0.0,0.0,0.0,0.0,0.0,0.07201019924310545,-0.4015499203198916,0.1094242929518369,-0.26851830845569374,-0.011352177503122689,-0.009794823954448861,0.981233625990219
7226,4.0,299.78298,1611.2406,0.0,0.0,0.0,0.0,0.0,0.07202016605268927,-0.3210818732933137,0.1089221667322809,-0.2776171930286837,0.01132881296906679,-0.017863742131264085,0.97923469632544
7227,4.0,299.86689,1602.2307,0.0,0.0,0.0,0.0,0.0,0.07203013286227308,-0.35816100076523866,0.12011502382942989,-0.24899215829611276,0.04255099515920626,0.007218151849601123,1.005882738257897
7228,4.0,300.35534,1741.7673,0.0,0.0,0.0,0.0,0.0,0.07204009967185691,-0.35732938587816465,0.1148443399892539,-0.2869687112491067,0.005593624986872805,-0.006515727262202214,1.032295452854629
7229,4.0,300.84771,1760.9751,0.0,0.0,0.0,0.0,0.0,0.07205006648144073,-0.37261408125164663,0.1097248229314969,-0.2724032005316027,-0.01882639356102038,-0.015736819727103182,1.010786483706859
7230,4.0,300.77438,1580.285,0.0,0.0,0.0,0.0,0.0,0.07206003329102456,-0.33574091712754867,0.12688434509750987,-0.27151060825351075,-0.02066950967842178,0.009341046077989471,1.0168535213306291
7231,4.0,300.12192999999996,1378.8929999999998,0.0,0.0,0.0,0.0,0.0,0.07207000010060836,-0.3193011673025717,0.13719193571478988,-0.23703980945400777,0.006812400710656603,0.020992651347313377,0.994743289573519
7232,4.0,301.06674,1513.1596,0.0,0.0,0.0,0.0,0.0,0.0720799669101922,-0.30378354599610174,0.0990583452082975,-0.2552375279374828,-0.007914973062622023,-0.016840896552817085,0.9756823731973531
7233,4.0,299.57755,1823.8442,0.0,0.0,0.0,0.0,0.0,0.07208993371977603,-0.3744573149060596,0.1166699430919269,-0.2966157235961927,-0.016515085983162085,-0.018865980229177282,1.009515928876465
7234,4.0,298.92632000000003,1729.3734,0.0,0.0,0.0,0.0,0.0,0.07209990052935983,-0.34988124783809066,0.1061170040954329,-0.28192207727104274,0.02119405709619058,0.0004235438005680186,0.983547159678547
7235,4.0,299.49099,1315.0214,0.0,0.0,0.0,0.0,0.0,0.07210986733894366,-0.3072611723268167,0.15419761611811986,-0.24667012343944575,0.04410335105441186,0.03787912692937876,0.999095168355516
7236,4.0,299.3454,1352.8355,0.0,0.0,0.0,0.0,0.0,0.07211983414852748,-0.3036227432052317,0.13492587279364687,-0.24253134128597975,0.024021831422270178,0.005417120568478175,0.9706565108463391
7237,4.0,299.07551,1750.5772,0.0,0.0,0.0,0.0,0.0,0.07212980095811129,-0.38776606112703066,0.1036339941953789,-0.24799971022066578,-0.00836813822674594,-0.016928072538420685,1.011002528893181
7238,4.0,299.25217000000004,1806.1173,0.0,0.0,0.0,0.0,0.0,0.07213976776769512,-0.36513320510084163,0.1004458483519834,-0.2843272087684107,-0.026088329669967675,-0.000919247868737701,0.9614940650945761
7239,4.0,299.51235,1556.5069,0.0,0.0,0.0,0.0,0.0,0.07214973457727894,-0.3514041526058897,0.12655677147268088,-0.24829184035699678,-0.009570934185852661,0.016653318628054588,1.025311930515409
7240,4.0,299.96308,1420.0072,0.0,0.0,0.0,0.0,0.0,0.07215970138686277,-0.3007980957689607,0.13309779736072985,-0.26394642267948376,-0.0047688605823998954,-0.03156177802740497,1.0069928550674572
7241,4.0,300.57049,1602.6664,0.0,0.0,0.0,0.0,0.0,0.07216966819644657,-0.3342287832083127,0.1315391147318999,-0.2844809086760797,-0.008436445367662332,-0.034630789977042865,1.032506006225409
7242,4.0,300.73042999999996,1792.3327,0.0,0.0,0.0,0.0,0.0,0.0721796350060304,-0.35495923177424865,0.1033465250095079,-0.29321167948773974,0.001051384882088609,-0.018455549090670882,1.0009179343579089
7243,4.0,300.43397000000004,1796.3424,0.0,0.0,0.0,0.0,0.0,0.07218960181561422,-0.3978626018809816,0.1260762680102589,-0.27425690105954875,0.03375973939607686,0.00976331988101465,1.0035729130649351
7244,4.0,299.90214,1437.0707,0.0,0.0,0.0,0.0,0.0,0.07219956862519804,-0.3413994123109987,0.14290942231906184,-0.2383436292851848,0.03139746533818857,0.0029074784027957774,0.982423303197631
7245,4.0,299.82277,1299.1778,0.0,0.0,0.0,0.0,0.0,0.07220953543478185,-0.34155993139184065,0.15735341395207286,-0.2107110831580648,0.0004082509687962336,0.012720181661884189,0.978262665239508
7246,4.0,299.59462,1663.6712,0.0,0.0,0.0,0.0,0.0,0.07221950224436569,-0.3608033543760187,0.14503223194106687,-0.2899433804951837,0.00953365397889839,0.023128445769349876,1.003809547493289
7247,4.0,299.5822,1806.5099,0.0,0.0,0.0,0.0,0.0,0.0722294690539495,-0.38645808697044365,0.12232565183760188,-0.28500147604745574,0.0005273374120516504,0.04162616024968216,1.005564760111515
7248,4.0,300.4604,1477.3429999999998,0.0,0.0,0.0,0.0,0.0,0.07223943586353332,-0.3251164021439907,0.13659675260604986,-0.26055573320734876,-0.024985555883882373,-0.015424390138268785,1.016530091898709
7249,4.0,299.29199,1399.9903,0.0,0.0,0.0,0.0,0.0,0.07224940267311715,-0.35510659886879264,0.14856920433013884,-0.21902470903605578,-0.011832444878271387,-0.03063857850354227,1.014524059350729
7250,4.0,299.65842999999995,1756.2257,0.0,0.0,0.0,0.0,0.0,0.07225936948270095,-0.35950110508249666,0.11602183793046389,-0.2903694825597367,-0.006905686290388174,0.008235678574298192,1.012343058775481
7251,4.0,300.07739,1802.0021,0.0,0.0,0.0,0.0,0.0,0.07226933629228478,-0.38312704753169563,0.13242743109456986,-0.29706401583793574,-0.007968231615703232,0.016208389363393486,1.0188831626059391
7252,4.0,300.92171,1562.5078,0.0,0.0,0.0,0.0,0.0,0.0722793031018686,-0.27808087653944574,0.11685751595043888,-0.3137399846587257,0.010662846234840989,-0.030989578470683267,0.9948949933784911
7253,4.0,300.27099999999996,1352.4212,0.0,0.0,0.0,0.0,0.0,0.07228926991145243,-0.3213725240844987,0.16057775815529085,-0.2503074987809268,-0.004280828671734896,-0.027244336576556675,1.013720855996459
7254,4.0,300.31523,1383.2448,0.0,0.0,0.0,0.0,0.0,0.07229923672103623,-0.28708271201785773,0.12664034434092888,-0.26002951190041473,0.026419559101157473,0.012782742762808488,0.9758255657014852
7255,4.0,300.48975,1583.5749,0.0,0.0,0.0,0.0,0.0,0.07230920353062006,-0.3852241104686596,0.13371880821451887,-0.2298619153481048,0.009081269118676481,0.033632884536557266,1.015737021045439
7256,4.0,300.87624,1922.5242,0.0,0.0,0.0,0.0,0.0,0.0723191703402039,-0.4007702750304466,0.09855942288555772,-0.28218850125233674,-0.012050483127540089,0.009531917673527032,0.982625061557543
7257,4.0,299.77206,1624.922,0.0,0.0,0.0,0.0,0.0,0.0723291371497877,-0.36990370816165363,0.13741218588902687,-0.2614442015575338,-0.006404503204025254,0.0028596859287040276,1.014208026644539
7258,4.0,299.80061,1393.9554,0.0,0.0,0.0,0.0,0.0,0.07233910395937153,-0.28966051146476673,0.12304951770904188,-0.2571166407779368,0.005178259016404375,0.024176842475568578,0.9772160994762201
7259,4.0,299.57277,1697.8409,0.0,0.0,0.0,0.0,0.0,0.07234907076895535,-0.36403371728483064,0.13898810390205787,-0.29105561499745275,-0.001027320496188639,0.03352925032957937,1.027579685564219
7260,4.0,299.81981,1885.2304,0.0,0.0,0.0,0.0,0.0,0.07235903757853916,-0.36245706973172764,0.11563820117760189,-0.32624408871028465,-0.04823791302121135,-0.02000550054338918,1.016769218922309
7261,4.0,300.19811,1616.4275,0.0,0.0,0.0,0.0,0.0,0.07236900438812298,-0.37153198080735167,0.13334519250514587,-0.25316680950311876,-0.016715672012708384,-0.011932199350616388,1.023492741285869
7262,4.0,299.97301,1402.6295,0.0,0.0,0.0,0.0,0.0,0.07237897119770681,-0.34577925679575566,0.17183455133374984,-0.25241963887937874,-0.01044080463442719,0.013396270764608989,1.008577557958855
7263,4.0,299.65434,1504.1773,0.0,0.0,0.0,0.0,0.0,0.07238893800729064,-0.3383426495418197,0.13941538133672687,-0.25830509195272777,0.021559975144553878,0.023176655195857775,0.998543544868575
7264,4.0,299.86852000000005,1632.9904,0.0,0.0,0.0,0.0,0.0,0.07239890481687444,-0.33664167620144664,0.13523810581196188,-0.2949847557052287,-0.003986712666532906,-0.026791118926077575,1.004340683063208
7265,4.0,299.79793,1774.6772,0.0,0.0,0.0,0.0,0.0,0.07240887162645827,-0.3514422204121467,0.11561414662022788,-0.30362949145089774,0.012218787008900387,-0.008862056917841922,0.997067543447905
7266,4.0,300.87438,1580.7720000000002,0.0,0.0,0.0,0.0,0.0,0.07241883843604208,-0.34907502499852266,0.1010698776778203,-0.2325100850144588,0.026103846581999074,0.03141154951457857,1.0057421092765182
7267,4.0,300.23087999999996,1310.3381,0.0,0.0,0.0,0.0,0.0,0.07242880524562591,-0.35515359340843067,0.17775828499587684,-0.2209147447125878,0.022163288572096276,-0.004728138364855925,1.022956326682929
7268,4.0,300.07572999999996,1540.483,0.0,0.0,0.0,0.0,0.0,0.07243877205520974,-0.3853202983006527,0.14374740041676387,-0.22669547838810178,-0.017264470558370586,-0.0074207918384251335,0.997646240977518
7269,4.0,300.08624,1866.5877,0.0,0.0,0.0,0.0,0.0,0.07244873886479355,-0.36664284642483164,0.1049954780897469,-0.3057486837700457,-0.030923491259410973,-0.015029755568821385,1.01182183279154
7270,4.0,299.79263,1529.6879999999999,0.0,0.0,0.0,0.0,0.0,0.07245870567437737,-0.3223917624925897,0.13999433217886487,-0.2825895152444137,-0.004959799761719125,0.012205443518333487,0.986652548320025
7271,4.0,298.99894,1213.1989999999998,0.0,0.0,0.0,0.0,0.0,0.07246867248396119,-0.27214125511575077,0.14546004639828886,-0.24210098357100676,-0.027557150187178973,0.0016463154889036886,1.0326905190686189
7272,4.0,299.61922000000004,1448.3948,0.0,0.0,0.0,0.0,0.0,0.07247863929354502,-0.3448728437862997,0.16392157467779983,-0.25932459380584477,-0.025845640059016076,-0.023220591746693976,1.0140575590046892
7273,4.0,298.83985,1809.2132,0.0,0.0,0.0,0.0,0.0,0.07248860610312885,-0.39275761482965865,0.0984338143236611,-0.25563183421389774,-0.007456536768827883,-0.01873343394384598,1.053834312880349
7274,4.0,300.75952,1990.3469,0.0,0.0,0.0,0.0,0.0,0.07249857291271265,-0.3934121135992526,0.07712152411305183,-0.28872517016495575,0.015442295280785884,0.02925855821184487,1.006380821609554
7275,4.0,300.70884,1747.6035,0.0,0.0,0.0,0.0,0.0,0.07250853972229648,-0.3489552487042017,0.1085261075331929,-0.2907986851695957,0.04315614763568016,0.016689557517881082,1.0053136260742301
7276,4.0,299.70642000000004,1503.6025,0.0,0.0,0.0,0.0,0.0,0.0725185065318803,-0.29557618978859873,0.1096093326850989,-0.2710907478095737,-0.0013674963178113787,-0.026903244168893472,0.9746699742274371
7277,4.0,299.85635,1683.2208,0.0,0.0,0.0,0.0,0.0,0.07252847334146412,-0.3465599153353007,0.10744696577918988,-0.27254414362051277,0.005936975827683894,-0.013491641917021388,0.9998781979002951
7278,4.0,299.95373,1743.5861,0.0,0.0,0.0,0.0,0.0,0.07253844015104795,-0.3706322045860507,0.1084529002134679,-0.26782732254999875,0.004392767172557366,0.0019291650649187679,1.009544158024251
7279,4.0,299.58199,1439.1917,0.0,0.0,0.0,0.0,0.0,0.07254840696063176,-0.36571816451607264,0.1328976298034749,-0.2046578156031538,0.002702727814013467,-0.0006095101814439713,1.017126794882599
7280,4.0,300.23076000000003,1322.7628,0.0,0.0,0.0,0.0,0.0,0.07255837377021558,-0.3229226244849817,0.17424452616659583,-0.25340877362699876,-0.029336441680781374,-0.02284555546068078,1.0086586280993561
7281,4.0,300.19015,1515.4584,0.0,0.0,0.0,0.0,0.0,0.0725683405797994,-0.3156563547053567,0.1147864226135379,-0.25979158051193274,-0.007277336294567173,0.0026004421415936575,0.9711314414332111
7282,4.0,299.71446000000003,1811.8809,0.0,0.0,0.0,0.0,0.0,0.07257830738938323,-0.32890409313780666,0.08648919759306922,-0.30835165234943873,0.0021974731847737177,0.06542814071825473,1.000579579752016
7283,4.0,300.76202,1871.0874,0.0,0.0,0.0,0.0,0.0,0.07258827419896706,-0.3808669425211406,0.0957009693729503,-0.2835978814789317,-0.0011066662876694589,0.02203153870134358,0.999250671848363
7284,4.0,300.21074,1640.9321,0.0,0.0,0.0,0.0,0.0,0.07259824100855086,-0.37235698930377364,0.11219459978524489,-0.23863998467443276,-0.002280991641491348,-0.0050015513400396856,1.036198390914819
7285,4.0,299.91636,1472.3005,0.0,0.0,0.0,0.0,0.0,0.07260820781813469,-0.3823393671689576,0.16729607241333683,-0.23249929390089377,0.004809693852154826,0.001860139023056428,1.028460503876149
7286,4.0,299.20538,1599.4179,0.0,0.0,0.0,0.0,0.0,0.07261817462771851,-0.35432726768687867,0.13559523594220788,-0.26745106225786475,0.029746557698506673,0.018089575313552084,1.038480128815009
7287,4.0,298.36809,1718.2399,0.0,0.0,0.0,0.0,0.0,0.07262814143730233,-0.3537587837182737,0.12666375041823888,-0.29520698171716075,-0.006320378114472754,-0.0008325182704656562,0.9884148131589471
7288,4.0,298.96595,1742.9386,0.0,0.0,0.0,0.0,0.0,0.07263810824688616,-0.32330978734819166,0.13028054665018887,-0.3367805623926537,-0.014890128691791285,-0.02224293914920718,1.0103863411098681
7289,4.0,299.431,1494.8728,0.0,0.0,0.0,0.0,0.0,0.07264807505646997,-0.33487638174472567,0.1160483344205789,-0.23557595690203678,-0.008237328246786003,-0.018724680476232082,0.990765441933436
7290,4.0,299.62403,1394.2418,0.0,0.0,0.0,0.0,0.0,0.07265804186605379,-0.3261121635472647,0.16403856453434584,-0.26174109396933476,-0.0004247518783972466,0.01880926558132998,1.0350699342784488
7291,4.0,300.61341,1699.8001,0.0,0.0,0.0,0.0,0.0,0.07266800867563761,-0.3766045945179796,0.1147370368036639,-0.25482922867718677,-0.0004854506053727446,-0.0029697919667206474,1.017654900834719
7292,4.0,300.10382999999996,1847.1889999999999,0.0,0.0,0.0,0.0,0.0,0.07267797548522144,-0.35282000750062364,0.10070754248181059,-0.3093868494466047,-0.02486474911420968,-0.02196761883203518,1.033755951548769
7293,4.0,300.62279,1576.6407,0.0,0.0,0.0,0.0,0.0,0.07268794229480527,-0.3244506562982867,0.12437891197274288,-0.2791876597561767,0.003372000276690517,0.00930883191888518,0.994630920137429
7294,4.0,300.10868999999997,1564.6387,0.0,0.0,0.0,0.0,0.0,0.07269790910438907,-0.2971272730416787,0.08376286176100083,-0.26224668550423275,0.02367431602222308,0.053758817960332245,0.9914175798302971
7295,4.0,299.17104,1598.5573,0.0,0.0,0.0,0.0,0.0,0.0727078759139729,-0.35509918187806067,0.1086080693337819,-0.2394303906799398,0.0025080078945961077,0.010634699160313092,0.9908482953941131
7296,4.0,299.68067,1728.5534,0.0,0.0,0.0,0.0,0.0,0.07271784272355672,-0.40488121307116465,0.12423306475334889,-0.2447889334362868,-0.020649301418427378,-0.024108053939529677,1.005241391474601
7297,4.0,299.36424,1654.2842,0.0,0.0,0.0,0.0,0.0,0.07272780953314054,-0.3814079876770376,0.1269363349601409,-0.24838944673912977,-0.024915465321464977,-0.021155357021871178,1.00481145932467
7298,4.0,299.47295,1418.021,0.0,0.0,0.0,0.0,0.0,0.07273777634272437,-0.3303682901948117,0.16413752867161285,-0.26481220435992975,0.02324469899307318,0.01809558489989518,1.031145515316139
7299,4.0,300.03535,1349.5134,0.0,0.0,0.0,0.0,0.0,0.07274774315230818,-0.28251974284252773,0.13919995423296586,-0.26689860790584174,-0.0024532416253660976,-0.01048174703121789,0.995294396302909
7300,4.0,300.19523,1582.2545,0.0,0.0,0.0,0.0,0.0,0.072757709961892,-0.3176001129021907,0.11197717657878689,-0.2753429227817307,-0.013093377885715789,-0.01941977105808218,0.989129255804457
7301,4.0,301.26203,1929.1171,0.0,0.0,0.0,0.0,0.0,0.07276767677147582,-0.4049665084645826,0.11906069657037589,-0.3004976164518057,-0.010779351757839188,-0.01855235601847498,1.000562445692825
7302,4.0,300.80966,1630.1434,0.0,0.0,0.0,0.0,0.0,0.07277764358105965,-0.4022884479202786,0.13669554449079988,-0.22992997535732176,0.027238754581755776,0.022375407414280776,1.0020031454800111
7303,4.0,299.82347000000004,1261.5884,0.0,0.0,0.0,0.0,0.0,0.07278761039064348,-0.32991164877224466,0.14827222072582888,-0.2018519335587348,0.006818896859697724,-0.015766429934775485,1.0232890780157688
7304,4.0,300.44635,1485.7656,0.0,0.0,0.0,0.0,0.0,0.07279757720022728,-0.3213715918944067,0.12913380084951387,-0.2593978416555738,-0.02326793484436638,-0.029053155191323173,1.011902305114482
7305,4.0,299.53045,1879.9476,0.0,0.0,0.0,0.0,0.0,0.07280754400981111,-0.3529934049902367,0.09200208063114841,-0.3104658189480907,-0.023132782479777878,0.005235882346941355,1.012716471834834
7306,4.0,300.13507000000004,1874.8638,0.0,0.0,0.0,0.0,0.0,0.07281751081939493,-0.3599750832142746,0.1093418853212039,-0.3192785819578427,-0.012792933019064187,0.029156270614249868,0.990221731929776
7307,4.0,300.1499,1520.8767,0.0,0.0,0.0,0.0,0.0,0.07282747762897875,-0.34755156294316863,0.12136668154545889,-0.23612366924359177,0.01220056269260179,0.011400306882872689,0.998814477812814
7308,4.0,298.10821,1286.1692,0.0,0.0,0.0,0.0,0.0,0.07283744443856258,-0.3406643702909557,0.15786590572015186,-0.2081648464517708,-0.00039776712332405864,-0.037289855121722164,0.9942255390374212
7309,4.0,299.54881,1564.7955,0.0,0.0,0.0,0.0,0.0,0.0728474112481464,-0.3504475026564756,0.13071954738851488,-0.25593079365590277,0.02964075918931517,-0.02102883146863408,1.020872476527269
7310,4.0,299.52401000000003,1720.7131,0.0,0.0,0.0,0.0,0.0,0.07285737805773021,-0.34675065966662566,0.10003599375278391,-0.27633914014754973,0.023828577270447477,0.014878329394376786,0.9795421974657881
7311,4.0,299.02612,1545.0374,0.0,0.0,0.0,0.0,0.0,0.07286734486731403,-0.2971584203497527,0.1163854123313459,-0.28887977186521374,0.023511069272111877,0.0065757978957057235,1.0031669746773721
7312,4.0,300.3012,1390.2729,0.0,0.0,0.0,0.0,0.0,0.07287731167689786,-0.2927447333116557,0.1065623072493809,-0.2364258305559128,-0.02358042421495668,-0.014263663512713987,0.977631704269737
7313,4.0,300.02246,1491.588,0.0,0.0,0.0,0.0,0.0,0.07288727848648169,-0.3288214220621477,0.11971818442776488,-0.24430226941325675,0.0073396333425154135,0.013716299729193386,0.999776335867742
7314,4.0,299.35481,1926.1493,0.0,0.0,0.0,0.0,0.0,0.07289724529606549,-0.42628997178404454,0.11094887971480188,-0.2701601890502347,-0.0015492204940961585,0.04153592120902626,1.025348407519009
7315,4.0,300.87496,1996.1463,0.0,0.0,0.0,0.0,0.0,0.07290721210564932,-0.39997838967979366,0.09510605984173731,-0.3019063076683327,-0.004500199344885095,0.012485794622251987,1.034860900782819
7316,4.0,300.67627999999996,1422.129,0.0,0.0,0.0,0.0,0.0,0.07291717891523314,-0.3203166769502947,0.15543298077254086,-0.26740800926111574,-0.014882736019061685,-0.03338471222931457,1.024542569714479
7317,4.0,300.79042999999996,1330.5497,0.0,0.0,0.0,0.0,0.0,0.07292714572481696,-0.2936319249667147,0.14141298364387486,-0.2522349537836518,0.015157969196725086,0.0012085857715031288,1.00831132649508
7318,4.0,300.11048,1672.4633,0.0,0.0,0.0,0.0,0.0,0.07293711253440079,-0.3482847811130316,0.13770214767014388,-0.2978044483485107,0.012346560886260688,0.02104207566069118,1.0250983373943292
7319,4.0,299.26072999999997,1692.2613,0.0,0.0,0.0,0.0,0.0,0.0729470793439846,-0.3734637927855066,0.1264471276793599,-0.26738850419669075,0.008225281209722053,0.012083270887525989,0.9984283484647061
7320,4.0,300.35107999999997,1547.6494,0.0,0.0,0.0,0.0,0.0,0.07295704615356842,-0.3575860927909997,0.14975020811669484,-0.26261088812017674,-0.015786888467544585,-0.03314898871280047,1.009832133835172
7321,4.0,299.8621,1477.7137,0.0,0.0,0.0,0.0,0.0,0.07296701296315224,-0.33897044917127866,0.1122548679011929,-0.22247249515132578,0.001253033810989809,-0.008532301461572592,1.000278502617302
7322,4.0,300.12057000000004,1696.2818,0.0,0.0,0.0,0.0,0.0,0.07297697977273607,-0.34175367494346165,0.11616876932746488,-0.29004239529495573,0.009373437454536252,0.023513426091844477,1.004805237969056
7323,4.0,299.80206,1979.2135,0.0,0.0,0.0,0.0,0.0,0.0729869465823199,-0.3781704408250166,0.08515403793629922,-0.3086150872429377,-0.01900193407459488,0.02371240004048168,1.003243292674904
7324,4.0,299.71007000000003,1884.9256,0.0,0.0,0.0,0.0,0.0,0.0729969133919037,-0.35299782276067265,0.07140791217716223,-0.2913804021845067,-0.014206077469780686,-0.016152896695166785,1.008734125364307
7325,4.0,299.92555,1492.4538,0.0,0.0,0.0,0.0,0.0,0.07300688020148753,-0.3368242638694667,0.13828160513733187,-0.25512601976397775,-0.010759453552375389,0.008563317553758642,1.017896257008539
7326,4.0,300.54067000000003,1479.7972,0.0,0.0,0.0,0.0,0.0,0.07301684701107135,-0.3399405348170187,0.12842268166433188,-0.23830354511122875,0.015778308265697788,0.037272927765551564,1.015197971992239
7327,4.0,300.29398,1633.3192,0.0,0.0,0.0,0.0,0.0,0.07302681382065516,-0.35900816904134764,0.13734299103969788,-0.2748230748179258,-0.02221290641624318,0.002102586467234128,1.018815477499259
7328,4.0,301.2797,1739.2714,0.0,0.0,0.0,0.0,0.0,0.073036780630239,-0.34122682542146565,0.1095036101696649,-0.2969718708738417,-0.008491483593219181,-0.03945788508244007,1.0094195282619511
7329,4.0,301.79285,1536.2313,0.0,0.0,0.0,0.0,0.0,0.07304674743982281,-0.3248537474530687,0.12281936808132789,-0.2649415862651987,-0.00033447978552308467,-0.012918674316723886,0.988716619833733
7330,4.0,300.23882000000003,1458.0219,0.0,0.0,0.0,0.0,0.0,0.07305671424940664,-0.3232114514259867,0.13137675153587589,-0.25136755090304574,0.05293422894945165,0.01031793691405109,0.995890268421717
7331,4.0,300.33134,1727.777,0.0,0.0,0.0,0.0,0.0,0.07306668105899045,-0.3959625046309566,0.12702403175629587,-0.25626259253364875,0.024309263117887475,0.012664051659344588,0.9931525882415291
7332,4.0,300.07841,1952.2925,0.0,0.0,0.0,0.0,0.0,0.07307664786857428,-0.4045874414696716,0.1108376957813289,-0.2996984357004327,0.012779828655520888,-0.02377878109428298,1.024108594696649
7333,4.0,299.44196,1717.0776,0.0,0.0,0.0,0.0,0.0,0.07308661467815811,-0.36914801610457265,0.1008056808202461,-0.25360638779400174,-0.013468017990939884,0.018761341891350283,1.006824300913322
7334,4.0,299.46737,1446.4909,0.0,0.0,0.0,0.0,0.0,0.07309658148774191,-0.3363921127018167,0.16292258100670684,-0.26622758302711674,-0.003377554711088697,0.04923354472847255,1.045222598955439
7335,4.0,299.49745,1456.8164,0.0,0.0,0.0,0.0,0.0,0.07310654829732574,-0.34009737579999766,0.16089804651190084,-0.26363648973889575,-0.020383317187676782,0.024991892750007773,1.033385811287239
7336,4.0,300.44178,1585.8223,0.0,0.0,0.0,0.0,0.0,0.07311651510690956,-0.35264843386119066,0.14285693596388188,-0.27225887318735875,-0.037136655759602566,-0.025744296810514274,1.029688157697309
7337,4.0,300.82684,1848.3437,0.0,0.0,0.0,0.0,0.0,0.07312648191649337,-0.37872190219194163,0.1113211174040389,-0.2944495468699077,-0.008074666749932562,-0.02406531910331208,1.040134563578289
7338,4.0,300.77225,1586.4336,0.0,0.0,0.0,0.0,0.0,0.0731364487260772,-0.35193404187818567,0.13667206748598287,-0.26697423689330574,0.03324387654491517,-0.014115410837582588,1.0043646160305701
7339,4.0,300.4525,1538.3751,0.0,0.0,0.0,0.0,0.0,0.07314641553566102,-0.3180584971149297,0.13006689273410288,-0.2796360026604247,0.038552100288046065,-0.007046371912447763,1.004499905183922
7340,4.0,301.20989,1875.5954,0.0,0.0,0.0,0.0,0.0,0.07315638234524485,-0.3767208447019526,0.0994833874132459,-0.29289670056165373,0.011355009537152188,-0.03421215252597657,0.9738756672090451
7341,4.0,299.86829,1946.1198,0.0,0.0,0.0,0.0,0.0,0.07316634915482866,-0.38293817771305566,0.0967339575848983,-0.3053676206724377,0.012644570912921987,0.009174273622830312,1.0100394549381329
7342,4.0,299.54929,1601.9463,0.0,0.0,0.0,0.0,0.0,0.07317631596441249,-0.35299571520046463,0.12478341154516388,-0.25873936081308674,0.006008605213028165,0.03384523845276497,1.002711164119887
7343,4.0,299.21247,1324.2268,0.0,0.0,0.0,0.0,0.0,0.07318628277399632,-0.3208011827506117,0.15422616950593787,-0.23595684774712775,0.0045797325876344155,0.008633580470018052,1.043236932734469
7344,4.0,299.574,1386.8496,0.0,0.0,0.0,0.0,0.0,0.07319624958358012,-0.3109755344108957,0.14570996453545385,-0.25630208902254675,-0.05007286335605685,-0.016716922363331783,1.036156847660719
7345,4.0,299.4274,1591.0510000000002,0.0,0.0,0.0,0.0,0.0,0.07320621639316395,-0.3143131903727967,0.14136564459920287,-0.3106922398154367,-0.018581517356352984,0.0046420523323848955,1.048090502038479
7346,4.0,299.23532,1850.3715,0.0,0.0,0.0,0.0,0.0,0.07321618320274777,-0.37806580248718963,0.12171957629028689,-0.30612051615924274,0.00011269769872489689,0.028830398236338768,1.042160050528189
7347,4.0,299.73767999999995,1811.7996,0.0,0.0,0.0,0.0,0.0,0.07322615001233158,-0.38145147637132965,0.12849964814192788,-0.29779000953458573,0.008381995941738593,0.024112494001467876,1.032204159020619
7348,4.0,300.93492000000003,1725.7920000000001,0.0,0.0,0.0,0.0,0.0,0.07323611682191541,-0.3946332724872716,0.1357798906404319,-0.2657442829944187,0.0009985080709825741,-0.02281551462171598,1.018874955280129
7349,4.0,300.72179,1768.1504,0.0,0.0,0.0,0.0,0.0,0.07324608363149923,-0.3897487281277046,0.12849011345848688,-0.27621494608279273,0.013929158243950886,0.008088159998864242,1.015887387360279
7350,4.0,300.34171000000003,1834.9389999999999,0.0,0.0,0.0,0.0,0.0,0.07325605044108306,-0.39291005830720366,0.13827068230125386,-0.30313626156721973,0.02820658067977277,0.025553438995178077,1.0271166302685188
7351,4.0,300.40725,1591.175,0.0,0.0,0.0,0.0,0.0,0.07326601725066686,-0.33395048393584664,0.14534899418732886,-0.2950759887442327,0.004171491589219166,0.005959333900415464,1.036379762682719
7352,4.0,300.88504,1238.5996,0.0,0.0,0.0,0.0,0.0,0.0732759840602507,-0.31179318671159173,0.16849021805368983,-0.23320040217508778,-0.00953238275532293,-0.03034098289617187,1.016458556441649
7353,4.0,300.02329,1309.2599,0.0,0.0,0.0,0.0,0.0,0.0732859508698345,-0.3276503379940707,0.16573098604387485,-0.23606296543010077,0.014310270990813787,-0.01825461551634028,1.027323333288919
7354,4.0,299.48866,1647.703,0.0,0.0,0.0,0.0,0.0,0.07329591767941833,-0.38265127594724063,0.13236737576114288,-0.2505766686699918,0.027386797514116476,0.007249288214574043,1.017178065337659
7355,4.0,298.72991,1982.9424,0.0,0.0,0.0,0.0,0.0,0.07330588448900215,-0.4020735983690746,0.09474209128656641,-0.29543346337951276,0.0005718077126430274,0.010635246315367091,1.022663193428999
7356,4.0,298.87224,1930.3368,0.0,0.0,0.0,0.0,0.0,0.07331585129858598,-0.35706644747721467,0.0932126510556224,-0.3229203750697597,-0.02887218264396257,-0.0013577799586274488,1.0108727619528741
7357,4.0,298.98548,1675.5161,0.0,0.0,0.0,0.0,0.0,0.07332581810816978,-0.32094858024265865,0.11546269612778089,-0.3038291625156037,-0.02461302637861658,0.01980127795923398,1.0241737466780791
7358,4.0,300.24147999999997,1722.5929,0.0,0.0,0.0,0.0,0.0,0.07333578491775361,-0.32993497378954667,0.1007392774749426,-0.29442952504793174,-0.0027340596349306775,0.043744486239994655,1.006673093600899
7359,4.0,300.07445,1860.7979999999998,0.0,0.0,0.0,0.0,0.0,0.07334575172733744,-0.3920335969707036,0.1079445323732959,-0.28154706327653173,-0.015081533662181486,0.001189104518455479,1.016964776191609
7360,4.0,301.30361,1603.0641,0.0,0.0,0.0,0.0,0.0,0.07335571853692124,-0.3976176588018076,0.14017728461692086,-0.2298510735720348,-0.002875634789253057,-0.01998788823015098,1.006392494250706
7361,4.0,299.69035,1133.9591,0.0,0.0,0.0,0.0,0.0,0.07336568534650507,-0.3470974647783527,0.2029045686901218,-0.2005023452205408,-0.0005570087693674854,-0.01122155639298139,1.014481300196509
7362,4.0,299.30471,1267.3603,0.0,0.0,0.0,0.0,0.0,0.07337565215608889,-0.30487181713350575,0.15431290371449785,-0.23468698192680176,0.04123044859537846,0.004278108703166456,1.024913824551119
7363,4.0,299.36655,1756.1858,0.0,0.0,0.0,0.0,0.0,0.07338561896567271,-0.3531797011536226,0.12935117339346688,-0.31000811361291875,0.030252762249715175,-0.010832637567348091,1.0428950621507291
7364,4.0,299.64795,2136.835,0.0,0.0,0.0,0.0,0.0,0.07339558577525652,-0.4022378664752866,0.1027464681677869,-0.35005308492254966,0.013178125110829686,-0.013253312321250089,1.039495101440179
7365,4.0,299.01148,1893.5558,0.0,0.0,0.0,0.0,0.0,0.07340555258484036,-0.38916780144787166,0.1192859623326079,-0.30571185212891067,0.0009536030658332951,0.00878663574797343,1.0382621787184991
7366,4.0,299.08817999999997,1613.2536,0.0,0.0,0.0,0.0,0.0,0.07341551939442416,-0.3903032697749336,0.14598886162547886,-0.24607439317565177,-0.0012521003036726787,0.025832211455440773,1.0515815539330189
7367,4.0,300.57022,1758.4983,0.0,0.0,0.0,0.0,0.0,0.07342548620400799,-0.37782930991384966,0.12431184494862388,-0.2810221085322227,-0.01077657139956479,-0.0032067538775069665,1.028290480509369
7368,4.0,301.71806000000004,1803.6204,0.0,0.0,0.0,0.0,0.0,0.07343545301359182,-0.37351561039562065,0.10795253704908589,-0.28269250198457774,-0.03185286350288287,-0.007513544043304063,1.017682967862489
7369,4.0,300.72294,1574.6075,0.0,0.0,0.0,0.0,0.0,0.07344541982317564,-0.31384320444641267,0.13147962681852887,-0.29627777429033975,-0.018158212875326086,0.023792805488917077,1.01297440478029
7370,4.0,299.91137000000003,1302.6182,0.0,0.0,0.0,0.0,0.0,0.07345538663275945,-0.3001324208507637,0.15033191499910487,-0.24616289043938577,0.007688973707317623,0.02227207718233288,1.0001059866552762
7371,4.0,300.04895,1372.1445,0.0,0.0,0.0,0.0,0.0,0.07346535344234327,-0.3251731644145927,0.12995184831774886,-0.22187636971999278,0.006194240838673973,0.006041305732180454,0.997406293221337
7372,4.0,299.7904,1741.3147,0.0,0.0,0.0,0.0,0.0,0.0734753202519271,-0.39599960984961863,0.1226324031728759,-0.25594898149519774,0.0047723502157442955,-0.015448982731445883,0.984135219639084
7373,4.0,300.16164,1978.5626,0.0,0.0,0.0,0.0,0.0,0.07348528706151093,-0.3999184052738736,0.09075654497222362,-0.2922717785624787,0.010918361565558388,-0.002215913222018608,1.015513295423359
7374,4.0,299.16792000000004,1657.8492,0.0,0.0,0.0,0.0,0.0,0.07349525387109473,-0.3446172818460777,0.11568894474260989,-0.2750164333345087,0.012879727009380088,0.010676270785415888,1.012307503829472
7375,4.0,299.0449,1515.9587,0.0,0.0,0.0,0.0,0.0,0.07350522068067857,-0.3173228775423297,0.1331723219055849,-0.2766630458070167,0.01835313585006348,-0.013552411591768888,1.041587158921649
7376,4.0,300.01588,1863.0826,0.0,0.0,0.0,0.0,0.0,0.07351518749026237,-0.36171039560053664,0.1044434594352669,-0.3090636631947087,0.003917637279390696,-0.015300335902025588,1.0277463652056689
7377,4.0,300.80664,1920.7346,0.0,0.0,0.0,0.0,0.0,0.0735251542998462,-0.3971322714739036,0.13528014555861087,-0.32200324187424567,0.012887878606434588,0.02011734004967688,1.055706799065149
7378,4.0,300.04643,1649.6769,0.0,0.0,0.0,0.0,0.0,0.07353512110943003,-0.3807931576488587,0.13904853413802187,-0.25971596165696975,-0.007615503955816723,0.0025995238330280275,1.028328578713129
7379,4.0,299.30375,1439.1344,0.0,0.0,0.0,0.0,0.0,0.07354508791901385,-0.3369183238762497,0.15900276219985085,-0.25954535060513173,0.014007410535923786,-0.004353667573723536,1.040681212007239
7380,4.0,299.51227,1626.6223,0.0,0.0,0.0,0.0,0.0,0.07355505472859766,-0.34984649335966067,0.11547517936901289,-0.26008123831801977,-0.01065543532360959,-0.022915404869574375,0.998587823897945
7381,4.0,300.72938,1878.6866,0.0,0.0,0.0,0.0,0.0,0.07356502153818148,-0.35940985177849066,0.09585761479866,-0.3075215674700157,0.029469555386168675,-0.007412282462760322,1.020248213140659
7382,4.0,300.89441,1739.9545,0.0,0.0,0.0,0.0,0.0,0.07357498834776531,-0.37846262162385264,0.13864711484590486,-0.2890871942931847,-0.01945443535725328,0.02140330236109148,1.013934651767559
7383,4.0,301.11045,1557.704,0.0,0.0,0.0,0.0,0.0,0.07358495515734914,-0.36149255696153765,0.13935607580837386,-0.25136664911045675,-0.005152314139643815,0.024619635809018877,1.046778647134009
7384,4.0,299.1461,1344.0137,0.0,0.0,0.0,0.0,0.0,0.07359492196693294,-0.33377878870640165,0.15135580422515485,-0.22612363042916478,-0.001047983300177899,0.006742866422544103,1.031747385875539
7385,4.0,298.69192999999996,1720.1152,0.0,0.0,0.0,0.0,0.0,0.07360488877651677,-0.35666338671993564,0.1091368136334649,-0.27534550656948575,0.03470044078891686,0.016137941123690786,1.0234193819786293
7386,4.0,300.20107,2006.5805,0.0,0.0,0.0,0.0,0.0,0.07361485558610058,-0.37132956383487464,0.07925261198837383,-0.3178734371166657,0.01116107954751279,-0.00984698272587153,1.0220232246658392
7387,4.0,300.25206000000003,1666.3188,0.0,0.0,0.0,0.0,0.0,0.07362482239568441,-0.3306686783194577,0.1020315999572349,-0.27788222885734076,-0.004481234950713456,-0.02812602223057227,0.9853758126640211
7388,4.0,298.40984,1327.7731,0.0,0.0,0.0,0.0,0.0,0.07363478920526824,-0.29529498248834574,0.11900859525023388,-0.2273234908000818,-0.007214026199168952,-0.03142989846063947,0.9900329837011481
7389,4.0,299.38052999999996,1571.5792,0.0,0.0,0.0,0.0,0.0,0.07364475601485206,-0.34270901780024665,0.11225979229667889,-0.24727161909630876,0.015422155921798287,0.013287575373381587,1.006127012592005
7390,4.0,300.07353,1777.7349,0.0,0.0,0.0,0.0,0.0,0.07365472282443587,-0.36455522697879966,0.1088705011096819,-0.28470228355792776,-0.0029932625880620175,0.024248671775157576,1.020650270780339
7391,4.0,300.80566,1694.7992,0.0,0.0,0.0,0.0,0.0,0.07366468963401969,-0.3451672334703537,0.1163394411743089,-0.2863488352354297,-0.026023854539604475,0.0016041932636965484,1.031363465412649
7392,4.0,300.75988,1466.145,0.0,0.0,0.0,0.0,0.0,0.07367465644360352,-0.31361062301845866,0.13726609548960889,-0.26932694283049974,-0.007973221872445731,-0.015339021790843586,1.016237363944819
7393,4.0,299.46585,1348.9611,0.0,0.0,0.0,0.0,0.0,0.07368462325318735,-0.32181453417562167,0.16408240786617284,-0.2523183746643848,0.017546077079162985,0.0037302879438507563,1.024668516701909
7394,4.0,298.85868,1747.6729,0.0,0.0,0.0,0.0,0.0,0.07369459006277115,-0.3911503468585336,0.13771617105152786,-0.2778147362681797,0.018817499251642583,-0.001360460309116979,1.013938704767959
7395,4.0,299.71603,2088.6009,0.0,0.0,0.0,0.0,0.0,0.07370455687235498,-0.4519771790441745,0.12570011917563587,-0.3086054512344867,0.009187595936470122,-0.01883729511884628,1.0516064798854792
7396,4.0,299.95238,1731.3305,0.0,0.0,0.0,0.0,0.0,0.07371452368193879,-0.37617354779293866,0.1108930192367889,-0.26100070198876374,0.02697632685885618,-0.02413563967350218,1.010413192237518
7397,4.0,299.5566,1318.7503,0.0,0.0,0.0,0.0,0.0,0.07372449049152262,-0.3020245032924977,0.12704536067090086,-0.22588801938341177,0.029847741866742772,-0.007714052457892703,1.050800844730969
7398,4.0,300.51385,1598.0653,0.0,0.0,0.0,0.0,0.0,0.07373445730110645,-0.31359117874903975,0.11464038287662488,-0.2868211415045427,0.004440766349669515,0.007817891341390803,1.0093900730815442
7399,4.0,300.62957,1860.6787,0.0,0.0,0.0,0.0,0.0,0.07374442411069027,-0.3513777371757827,0.1039419310332699,-0.3181640473778467,-0.009285072825240341,-0.007336967785477343,1.028006466506339
7400,4.0,300.84355,1625.3477,0.0,0.0,0.0,0.0,0.0,0.07375439092027408,-0.35918383621118466,0.12953637524674488,-0.26441767516849274,-0.04251855595725476,-0.0024331802866361975,1.01226512971029
7401,4.0,300.15178,1302.5865,0.0,0.0,0.0,0.0,0.0,0.0737643577298579,-0.3093077956738027,0.13354930160528988,-0.22019529661158377,-0.013856128242993386,0.02235369650438808,1.014371362560659
7402,4.0,299.47135,1247.8682,0.0,0.0,0.0,0.0,0.0,0.07377432453944173,-0.29092672958473276,0.15489821776726384,-0.24329226171357676,0.0023847512888316275,0.019968903976277378,1.034509302998119
7403,4.0,299.47227999999996,1670.9589,0.0,0.0,0.0,0.0,0.0,0.07378429134902556,-0.3490501801060707,0.12204601507500387,-0.2809255964601977,-0.0038141330724006267,-0.013093354580963487,1.0175451658488892
7404,4.0,299.3028,2057.2857,0.0,0.0,0.0,0.0,0.0,0.07379425815860936,-0.3911866718746186,0.09434644549351923,-0.3285232630877217,0.009706651538696922,-0.01798377275136018,1.027096669241549
7405,4.0,299.23512,1876.5737,0.0,0.0,0.0,0.0,0.0,0.0738042249681932,-0.38033076096572366,0.1128639933313089,-0.3029647791202957,0.025887443718391773,0.0012697423051388087,0.9909816289747722
7406,4.0,300.04708999999997,1503.5024,0.0,0.0,0.0,0.0,0.0,0.073814191777777,-0.3583863779849817,0.14017805468699684,-0.23881887397958776,0.025424458336948678,-0.007520088929674993,1.032452405295119
7407,4.0,300.58461,1613.1199,0.0,0.0,0.0,0.0,0.0,0.07382415858736083,-0.3671940139492276,0.1271486311210929,-0.25030279730046273,-0.012894582269096188,-0.02085592743181978,1.012231834312004
7408,4.0,300.41902999999996,2000.3287,0.0,0.0,0.0,0.0,0.0,0.07383412539694466,-0.3883871935708316,0.0943687410487196,-0.31403152710999865,-0.01936272913045258,0.0025686254805035976,1.0480072128802589
7409,4.0,300.45637999999997,1721.0574,0.0,0.0,0.0,0.0,0.0,0.07384409220652847,-0.3592667504668677,0.13631104647535286,-0.30020277080520674,-0.015927442468416184,0.022536555723434878,1.0583711402030989
7410,4.0,300.02216,1261.8755,0.0,0.0,0.0,0.0,0.0,0.07385405901611229,-0.2764615711571327,0.14702899325063187,-0.2541460650622638,0.007663178892896873,0.02388413478668058,1.049178023370809
7411,4.0,299.34244,1339.6233,0.0,0.0,0.0,0.0,0.0,0.07386402582569611,-0.31265053815120575,0.15312230444949484,-0.24768381936948977,-0.000911702428290524,-0.006746669352819424,1.0356553901862289
7412,4.0,298.74226,1868.2664,0.0,0.0,0.0,0.0,0.0,0.07387399263527994,-0.4127622520839626,0.12883484140750887,-0.28397892431153776,-0.0006781281368285363,-0.014398639571785086,1.020370107127689
7413,4.0,299.0981,2207.5159,0.0,0.0,0.0,0.0,0.0,0.07388395944486377,-0.4413410927444746,0.07823004404045422,-0.3079186500517047,0.013221442565854787,-0.027491721588471678,1.014556382028919
7414,4.0,298.51313,1864.3242,0.0,0.0,0.0,0.0,0.0,0.07389392625444757,-0.39930838818366965,0.1102400200773429,-0.27763964665089974,0.00998908588482102,-0.011767613083872988,1.025974596080809
7415,4.0,299.33883,1478.2696,0.0,0.0,0.0,0.0,0.0,0.0739038930640314,-0.3382501094101867,0.13488710584482086,-0.24599403231022077,-0.0076732847454192435,-0.026062243546143178,1.037859006503709
7416,4.0,300.03767999999997,1396.2363,0.0,0.0,0.0,0.0,0.0,0.07391385987361522,-0.3096967013271847,0.16159957021863583,-0.2763238400710398,-0.00023322602727011678,-0.016547384343349684,1.027325055814089
7417,4.0,300.63071,1579.2889,0.0,0.0,0.0,0.0,0.0,0.07392382668319904,-0.3487735425637687,0.13964044444893886,-0.27093129264133675,0.004311739993860606,0.03827836976028096,1.014300941678709
7418,4.0,299.86638999999997,1738.2602,0.0,0.0,0.0,0.0,0.0,0.07393379349278287,-0.36508123550321264,0.12080039632957089,-0.28410684713666273,0.012712665372642387,0.03114863239188067,1.032442374119129
7419,4.0,300.76456,1551.3041,0.0,0.0,0.0,0.0,0.0,0.07394376030236668,-0.33433424227872066,0.1146750157650429,-0.2518984939554458,0.0072408463213658935,-0.01035940113464329,1.0061759728368371
7420,4.0,298.6861,1401.2966,0.0,0.0,0.0,0.0,0.0,0.0739537271119505,-0.33312936631980866,0.14221760554828486,-0.23504741525237377,-0.015662766343544684,-0.014862847946098885,1.044458405730019
7421,4.0,299.44966,1878.4866,0.0,0.0,0.0,0.0,0.0,0.07396369392153432,-0.3743044458634726,0.1215351039770809,-0.3182436787032057,-0.012147326532347789,0.007170505688823813,1.041208811334309
7422,4.0,299.34166,2080.4439,0.0,0.0,0.0,0.0,0.0,0.07397366073111815,-0.4091853779059526,0.11095078462498989,-0.3341684137673547,-0.015897840366744687,0.013379652449718886,1.066319073987499
7423,4.0,300.50503,1791.7948,0.0,0.0,0.0,0.0,0.0,0.07398362754070198,-0.36400438369443566,0.12695079403906787,-0.3076072782959747,-0.028662637457032077,0.007476363742809653,1.034030441000859
7424,4.0,301.27903,1484.1122,0.0,0.0,0.0,0.0,0.0,0.07399359435028578,-0.3662298355515706,0.14667489273818488,-0.23157811783748075,-0.01027572187513479,0.010386826775099991,1.033012732600419
7425,4.0,301.02966000000004,1497.8962,0.0,0.0,0.0,0.0,0.0,0.07400356115986961,-0.34439521795416167,0.14369438717153185,-0.25462221154925574,-0.007787370120553593,0.029536326541258474,1.0202536846911991
7426,4.0,300.07403,1660.2403,0.0,0.0,0.0,0.0,0.0,0.07401352796945343,-0.3958330214006776,0.14706723330940585,-0.2559057967759358,0.008376604640606512,0.009099642078764751,1.026728960780259
7427,4.0,299.69748,1854.0815,0.0,0.0,0.0,0.0,0.0,0.07402349477903725,-0.3585934255104157,0.11775204353622189,-0.32275308747824966,0.003688396334366376,-0.023293747390663876,1.033654221238729
7428,4.0,299.0351,1771.4513,0.0,0.0,0.0,0.0,0.0,0.07403346158862108,-0.36273373767153266,0.13548611903893887,-0.3112293332959437,0.008058925301679003,0.004149583703507026,1.044097790019429
7429,4.0,299.00034,1625.9248,0.0,0.0,0.0,0.0,0.0,0.0740434283982049,-0.3318790866239157,0.13854696520602086,-0.3009084083073477,0.008941033987611351,0.01062506720486249,1.043066098767609
7430,4.0,299.00385,1712.1689,0.0,0.0,0.0,0.0,0.0,0.07405339520778871,-0.36585571321714766,0.13013685765350788,-0.28473771691392474,0.0016630309744783784,-0.0071685816282089235,1.0672322149776188
7431,4.0,299.1256,1880.0754,0.0,0.0,0.0,0.0,0.0,0.07406336201737253,-0.36917254688949364,0.1023925500403579,-0.3047159792681257,-0.013724634724515988,-0.03577440584815897,1.041716044334369
7432,4.0,300.39482000000004,1705.3986,0.0,0.0,0.0,0.0,0.0,0.07407332882695636,-0.3792535443869106,0.13647587186911989,-0.2756209079466657,0.001248147513707569,-0.0004943498695435336,1.0565441489477891
7433,4.0,300.17379,1231.6660000000002,0.0,0.0,0.0,0.0,0.0,0.07408329563654019,-0.2875596387074267,0.16086820629645585,-0.24770425662400677,0.006392885987653724,0.016644209509655585,1.003413792269231
7434,4.0,299.66967999999997,1329.1623,0.0,0.0,0.0,0.0,0.0,0.07409326244612399,-0.3257139461254637,0.17311630257774882,-0.25143450646965376,-0.0026556196890392576,0.01062543704114899,1.018463271764499
7435,4.0,299.79764,1824.1121,0.0,0.0,0.0,0.0,0.0,0.07410322925570782,-0.3832561761244397,0.11668296335571189,-0.2879113378171367,-0.029493662632547872,-0.00968655828258887,0.9916345268092079
7436,4.0,300.2044,1907.8386,0.0,0.0,0.0,0.0,0.0,0.07411319606529164,-0.41055755158887564,0.1136831553746539,-0.28306087919093376,-0.00911605500785958,0.011203644157713591,1.031246536351109
7437,4.0,300.18543999999997,1693.5933,0.0,0.0,0.0,0.0,0.0,0.07412316287487546,-0.37244021766698765,0.14160371784269887,-0.28397357435100967,-0.008657202774899392,0.015881172402599685,1.033267463675559
7438,4.0,300.32306,1686.0649,0.0,0.0,0.0,0.0,0.0,0.07413312968445929,-0.39102748015140765,0.14506989444728385,-0.26656403272282175,-0.0020111279800828783,-0.026878512760452677,1.079265877140249
7439,4.0,301.12098,1811.1157,0.0,0.0,0.0,0.0,0.0,0.0741430964940431,-0.34310077068640965,0.12678375976008288,-0.3342169281821427,-0.013180955118358989,-0.03907862759651026,1.050176783994379
7440,4.0,301.46781,1958.32,0.0,0.0,0.0,0.0,0.0,0.07415306330362692,-0.3859331322261346,0.12799251646687787,-0.3373397751228437,0.029599410479234374,-0.004804421607909496,1.0898864607134189
7441,4.0,300.12483,1901.6212,0.0,0.0,0.0,0.0,0.0,0.07416303011321074,-0.3759888424322096,0.12173648743445589,-0.3237929961883807,0.014983233203729985,0.021759215577967377,1.0595415453936088
7442,4.0,299.36368,1607.9764,0.0,0.0,0.0,0.0,0.0,0.07417299692279457,-0.3551913876371607,0.13927364791273886,-0.2728669347048697,0.013479710897093888,-0.008723256042293343,1.0544628319173792
7443,4.0,299.8999,1485.7046,0.0,0.0,0.0,0.0,0.0,0.0741829637323784,-0.3332422018509447,0.14109380986237485,-0.25946869823506674,-0.024809679984524775,-0.014550266369749487,1.015503466897389
7444,4.0,299.42177000000004,1775.2773,0.0,0.0,0.0,0.0,0.0,0.0741929305419622,-0.38055774925312563,0.1117688523582269,-0.27085107363091976,-0.001963713954903478,0.026926547907943372,1.0311362947402292
7445,4.0,299.72764,1839.4382,0.0,0.0,0.0,0.0,0.0,0.07420289735154603,-0.3727958785845887,0.1268154643557119,-0.3131628576667677,-0.007223712667474932,0.023321575291410275,0.9935023419110469
7446,4.0,299.64059,1575.4526,0.0,0.0,0.0,0.0,0.0,0.07421286416112985,-0.36263772209205664,0.13654980872891687,-0.2528103177204358,-0.01241985838524459,0.004834681410220905,1.023415430303239
7447,4.0,299.52547999999996,1301.4503,0.0,0.0,0.0,0.0,0.0,0.07422283097071367,-0.3175361869533817,0.13993241246525387,-0.2180046093653798,-0.024784497679789477,-0.02022849966514748,1.0035824882783801
7448,4.0,300.77126,1601.7801,0.0,0.0,0.0,0.0,0.0,0.0742327977802975,-0.3588894363946296,0.13768475016592685,-0.26569647785470074,0.004789485693485435,0.011995342057098091,1.0620884508449688
7449,4.0,302.2949,1904.3788,0.0,0.0,0.0,0.0,0.0,0.07424276458988131,-0.36549526975907465,0.09395818426720082,-0.30734650825023874,0.024449881966765476,0.014246626725532587,1.0470947811652092
7450,4.0,300.83695,1873.6557,0.0,0.0,0.0,0.0,0.0,0.07425273139946513,-0.3926121222477996,0.12981847420708587,-0.3067508894439557,0.013921029951648687,-0.03056109628164537,1.0718371327070888
7451,4.0,300.39283,1781.0949,0.0,0.0,0.0,0.0,0.0,0.07426269820904895,-0.31906753209451366,0.09821785729009781,-0.32055869173667967,0.004508989593477626,-0.05014955422962565,1.014318470905439
7452,4.0,300.60242999999997,1717.1660000000002,0.0,0.0,0.0,0.0,0.0,0.07427266501863278,-0.3914485767604666,0.12745341675117286,-0.25798042635568574,0.015874851748475884,-0.013826417723561187,1.034716613968579
7453,4.0,300.39381000000003,1842.5555,0.0,0.0,0.0,0.0,0.0,0.07428263182821661,-0.38884335876585163,0.11537582006420688,-0.28662331455501877,0.018341791501943882,0.01803967679912748,1.017564012300749
7454,4.0,299.82425,1889.8998,0.0,0.0,0.0,0.0,0.0,0.07429259863780041,-0.4288152342132686,0.12234392073690488,-0.2680110247931287,-0.027148701979118273,-0.006800379612795213,1.0379927555169088
7455,4.0,299.68453999999997,1469.2477,0.0,0.0,0.0,0.0,0.0,0.07430256544738424,-0.3280039318814677,0.15746375688796285,-0.2760744285589247,-0.024917779584693375,0.013261856046093288,1.043239871159759
7456,4.0,299.09099,1226.2531,0.0,0.0,0.0,0.0,0.0,0.07431253225696806,-0.3200731017587557,0.1854565438231358,-0.23813376492447275,-0.024906973272376877,0.025538803610733678,1.0715466339034188
7457,4.0,300.47168999999997,1751.2627,0.0,0.0,0.0,0.0,0.0,0.07432249906655188,-0.3410393437554627,0.12500298284183387,-0.3163037607242507,-2.170620942548608e-05,0.03347189125466847,1.042570619468709
7458,4.0,299.62377999999995,2138.5159,0.0,0.0,0.0,0.0,0.0,0.07433246587613569,-0.4495940756039806,0.11722532573673888,-0.3176866849907347,-0.0001052578592031419,-0.015598105788413185,1.0574715767643188
7459,4.0,300.16842,1990.9816,0.0,0.0,0.0,0.0,0.0,0.07434243268571952,-0.3897424054470806,0.0990256182433176,-0.3144919175579357,-0.004915107528958345,-0.028698298794301573,1.0347426544961489
7460,4.0,299.91067999999996,1746.4149,0.0,0.0,0.0,0.0,0.0,0.07435239949530334,-0.3684380013619996,0.11643587218632588,-0.27886440257677375,0.024293227421804876,0.006136103283711244,1.032824572056849
7461,4.0,300.94407,1662.991,0.0,0.0,0.0,0.0,0.0,0.07436236630488716,-0.3231162768440937,0.11586976935545588,-0.2982612518910937,0.008274416341521313,0.02416130833828548,1.0551323875834588
7462,4.0,301.60098,1699.9131,0.0,0.0,0.0,0.0,0.0,0.07437233311447099,-0.3253874161482377,0.1082127396747659,-0.2995564590964207,-0.0006911104138672873,-0.037388223467930366,1.042800728566419
7463,4.0,300.92861,1584.72,0.0,0.0,0.0,0.0,0.0,0.07438229992405479,-0.31838527027217967,0.12716493431520187,-0.29049498371712273,-0.012144458021314688,-0.029061707022167177,1.0262930605872391
7464,4.0,300.46645,1429.7609,0.0,0.0,0.0,0.0,0.0,0.07439226673363862,-0.3720203977530546,0.14776540315830988,-0.21035663814058378,0.006961158896262893,0.0005182299351178124,1.01143770967863
7465,4.0,300.39487,1380.121,0.0,0.0,0.0,0.0,0.0,0.07440223354322244,-0.3343636974591277,0.14485280561335886,-0.2300114204003598,0.016444240549420185,-0.006512083310867583,1.018866342654279
7466,4.0,300.17894,1772.0418,0.0,0.0,0.0,0.0,0.0,0.07441220035280627,-0.4153979486415856,0.12229256922183689,-0.2455510798965048,-0.017454958537420285,-0.02558319308436458,1.014556584678939
7467,4.0,299.78042,2185.6905,0.0,0.0,0.0,0.0,0.0,0.07442216716239007,-0.38732046413055365,0.08092924604809472,-0.35800410911975467,-0.030858800306776474,-0.005762942219658114,1.054216206843039
7468,4.0,300.14382,1960.1352,0.0,0.0,0.0,0.0,0.0,0.0744321339719739,-0.3488340133297367,0.10164054621364091,-0.34863868910795964,-0.007078886702856724,0.03129801686737377,1.0661218955180387
7469,4.0,300.11075,1716.8607,0.0,0.0,0.0,0.0,0.0,0.07444210078155772,-0.3246712915075617,0.1208912848635409,-0.3181027862768007,-0.01005087590241922,0.039694497219291865,1.0599640706853088
7470,4.0,300.11436000000003,1807.932,0.0,0.0,0.0,0.0,0.0,0.07445206759114154,-0.40373579462812065,0.13110293082885188,-0.27693331000618976,-0.005577582502014535,-0.017141740640008084,1.0551529565604891
7471,4.0,299.93605,1753.1297,0.0,0.0,0.0,0.0,0.0,0.07446203440072537,-0.3848857355977646,0.13491740202281086,-0.2829393094439357,0.0018457381046851683,-0.05404419073174635,1.030843262811309
7472,4.0,300.03389,1484.5494,0.0,0.0,0.0,0.0,0.0,0.07447200121030918,-0.35994738095654066,0.13124168529754587,-0.22256026287498779,0.02137059059486308,-0.013947150525976587,1.0332938081781589
7473,4.0,300.58797000000004,1395.3796,0.0,0.0,0.0,0.0,0.0,0.074481968019893,-0.3131981694327527,0.15418120146649986,-0.26514358780513475,0.04257817457988866,-0.01192917885206829,1.031985094348999
7474,4.0,300.46492,1580.3553,0.0,0.0,0.0,0.0,0.0,0.07449193482947682,-0.3213406776338557,0.12450961110314189,-0.2835574730649437,-0.002041657002945858,-0.02404633079643808,1.042888172050049
7475,4.0,300.0955,1763.0285,0.0,0.0,0.0,0.0,0.0,0.07450190163906065,-0.3700281048764306,0.12107221080139688,-0.28696073697081975,-0.02490332253226658,-0.0013587226865204886,1.044087049568369
7476,4.0,299.63172000000003,2059.0046,0.0,0.0,0.0,0.0,0.0,0.07451186844864445,-0.4416607022235176,0.09490588316523141,-0.2791311710631017,0.009927777667645372,0.015814026344972882,1.026678298275259
7477,4.0,299.67936000000003,2090.0116,0.0,0.0,0.0,0.0,0.0,0.07452183525822828,-0.4222342457412756,0.09096839023688111,-0.30404547114695174,0.007285351812133242,0.03331190919637947,1.0378754211553292
7478,4.0,300.06635,1918.1201,0.0,0.0,0.0,0.0,0.0,0.07453180206781211,-0.39544306196719164,0.0961432348030985,-0.28376078169750873,-0.02219661132813498,-0.01089011620577079,1.013709102295299
7479,4.0,301.01212000000004,1755.1735,0.0,0.0,0.0,0.0,0.0,0.07454176887739593,-0.3127514882586687,0.10213343159228491,-0.3229108707838217,-0.02063900274441098,0.001045164134424669,1.033978258620709
7480,4.0,300.2632,1665.5209,0.0,0.0,0.0,0.0,0.0,0.07455173568697974,-0.33333242163984866,0.1149449557241839,-0.28788931989246375,-0.007758976218301332,0.03791706807937326,1.020211736137059
7481,4.0,300.62056,1565.9287,0.0,0.0,0.0,0.0,0.0,0.07456170249656356,-0.3249545962355217,0.13437859614963488,-0.2854272133419727,0.02603520902022508,0.04718522418756905,1.056540805222459
7482,4.0,300.51085,1335.5711,0.0,0.0,0.0,0.0,0.0,0.07457166930614739,-0.33248780675399164,0.13539212995966288,-0.20888459852780478,-0.005415839921676786,-0.006926097909677644,1.010079366859572
7483,4.0,300.94698,1487.2268,0.0,0.0,0.0,0.0,0.0,0.07458163611573121,-0.34190166012056666,0.13256291276544088,-0.24274106379167779,0.00026887403016830075,-0.029282570212714677,1.0181594993845189
7484,4.0,299.73839,1739.6337,0.0,0.0,0.0,0.0,0.0,0.07459160292531503,-0.40434554827329866,0.14199778093908985,-0.2664574489448028,-0.014818032907425987,-0.04289105506501755,1.0394302534337791
7485,4.0,299.66051,1993.7027,0.0,0.0,0.0,0.0,0.0,0.07460156973489886,-0.3503265611245397,0.08828927084622261,-0.3439985406725127,0.007301601405311953,-0.016400079057061784,1.020816545121749
7486,4.0,300.45038,2053.3371,0.0,0.0,0.0,0.0,0.0,0.07461153654448266,-0.3933604682416556,0.10040526565897821,-0.33120801108268566,-0.006396666626426844,-0.027452816837632076,1.069392970815869
7487,4.0,300.57185,1876.6633,0.0,0.0,0.0,0.0,0.0,0.07462150335406649,-0.3817598590392646,0.12346637893268288,-0.3121653129433177,0.0013777710791254187,0.008281017665922812,1.0609773207853088
7488,4.0,300.20196,1661.0658,0.0,0.0,0.0,0.0,0.0,0.07463147016365032,-0.39513176113896864,0.14920769374815285,-0.25899844886365675,0.0005048523486850474,0.04464238288236016,1.059888988852899
7489,4.0,300.0195,1845.4145,0.0,0.0,0.0,0.0,0.0,0.07464143697323414,-0.3996531262651926,0.13293522138218486,-0.2942420332494277,0.006270726427772514,0.039755007502013766,1.051486308423619
7490,4.0,299.19234,1892.6315,0.0,0.0,0.0,0.0,0.0,0.07465140378281795,-0.3911135253498996,0.0950397243841905,-0.27923889981373373,-0.02072304272095508,-0.0027750918056802373,1.032078009383169
7491,4.0,299.74269,1556.8615,0.0,0.0,0.0,0.0,0.0,0.07466137059240177,-0.2924672041092657,0.13105384899400788,-0.3118336559205857,-0.0026883987350742973,-0.019715482020266583,1.024034627439349
7492,4.0,300.61967999999996,1434.7243,0.0,0.0,0.0,0.0,0.0,0.0746713374019856,-0.3229052877757707,0.13641360765047486,-0.24962869214143377,0.00908000640640186,-0.003211235482699267,1.025992530607579
7493,4.0,299.80306,1557.7528,0.0,0.0,0.0,0.0,0.0,0.07468130421156942,-0.3370777486469837,0.1335225720676519,-0.26996277753325176,0.0005886407048318145,0.007616883293177853,1.052752465748579
7494,4.0,300.98599,1928.2721,0.0,0.0,0.0,0.0,0.0,0.07469127102115324,-0.3928684339930956,0.07980214210060822,-0.2730802846459257,0.016419615532239886,-0.016032278390012686,1.015435984440729
7495,4.0,301.26455,2055.4781,0.0,0.0,0.0,0.0,0.0,0.07470123783073707,-0.3989089751267506,0.08895006493868791,-0.31485511705628066,0.02270122710318668,0.006217216386016485,1.045927618375019
7496,4.0,300.9174,1905.8322,0.0,0.0,0.0,0.0,0.0,0.07471120464032087,-0.39644203537328265,0.1050883424614119,-0.28797170725809473,0.019735607193752783,0.015098446832850684,1.028045071335149
7497,4.0,300.54742999999996,1901.8722,0.0,0.0,0.0,0.0,0.0,0.0747211714499047,-0.3439716794123617,0.1205730534046339,-0.35472301277843565,0.01187912936337879,-0.024167049413352078,1.064719658704649
7498,4.0,300.05282,1765.8326,0.0,0.0,0.0,0.0,0.0,0.07473113825948853,-0.37417537806573464,0.1186764214699509,-0.28127006096419377,-0.024909501331376375,-0.016627904289046383,1.009801138514613
7499,4.0,300.02872,1703.8072,0.0,0.0,0.0,0.0,0.0,0.07474110506907235,-0.3506869640526087,0.13218028926267889,-0.2994081598117847,-0.013270971243992888,0.003985889096851626,1.045765701009039
7500,4.0,300.59084,1664.629,0.0,0.0,0.0,0.0,0.0,0.07475107187865616,-0.38275275294475564,0.13289753861096587,-0.25615042574757874,-0.022443543417255275,0.04491012915503466,1.029304642534459
7501,4.0,299.87955,1433.3939,0.0,0.0,0.0,0.0,0.0,0.07476103868823998,-0.3500181683241037,0.14445394984399487,-0.2301517251417068,-0.02690567900888377,0.027356269301853576,1.055085575428839
7502,4.0,298.63241,1310.2075,0.0,0.0,0.0,0.0,0.0,0.07477100549782381,-0.3202468944159077,0.16467368996202786,-0.24269713939984278,-0.012523276769951188,-0.011543418326996688,1.0450214688105892
7503,4.0,299.87214,1761.3481,0.0,0.0,0.0,0.0,0.0,0.07478097230740763,-0.32171074696787866,0.11143220001250188,-0.32512729458256573,0.013580801846320788,-0.02203209598889858,1.023735212034799
7504,4.0,300.08696000000003,2032.339,0.0,0.0,0.0,0.0,0.0,0.07479093911699145,-0.4160865027470406,0.10092157737993421,-0.30261539022081374,0.041699768816446756,-0.006234050725827904,1.052697446268149
7505,4.0,300.39081,1949.5654,0.0,0.0,0.0,0.0,0.0,0.07480090592657528,-0.4084987489756876,0.11974000983491888,-0.3038604719436937,0.026065818292495973,-0.03971810594662186,1.042909146327119
7506,4.0,299.11599,1946.9864,0.0,0.0,0.0,0.0,0.0,0.07481087273615908,-0.42275230025240357,0.10110242023128199,-0.2701853683152197,-0.01130834937004719,-0.01983601723891248,1.0437573379858291
7507,4.0,299.18032999999997,1818.8163,0.0,0.0,0.0,0.0,0.0,0.07482083954574291,-0.38500149942168965,0.13607032864909588,-0.3039435685843947,0.0009527900136880532,-0.0036359562847159466,1.048203682074649
7508,4.0,299.8031,1693.2012,0.0,0.0,0.0,0.0,0.0,0.07483080635532674,-0.3472524819111517,0.12943783667451988,-0.29687625046190474,-0.007212772910120263,0.03652338714982767,1.045923160074579
7509,4.0,301.45423,1684.7593,0.0,0.0,0.0,0.0,0.0,0.07484077316491056,-0.3252865268357807,0.14427543544137686,-0.33111367749837567,-0.009382255263531501,0.01993042175072948,1.0586950762600689
7510,4.0,300.91512,1545.5195,0.0,0.0,0.0,0.0,0.0,0.07485073997449437,-0.34720296437876463,0.14608424898989286,-0.26868063112171375,-0.025929577697300074,-0.004340223264771685,1.0268169108889391
7511,4.0,299.67719,1379.8151,0.0,0.0,0.0,0.0,0.0,0.07486070678407819,-0.2951066800897617,0.12212481553528089,-0.24644746172997076,0.019220835612948784,0.018160304223532483,1.016368275857739
7512,4.0,300.41423,1857.7994,0.0,0.0,0.0,0.0,0.0,0.07487067359366202,-0.4030028196382816,0.0961550178885114,-0.25787683166546177,0.005567795519298635,0.025078768813581773,1.021188610558469
7513,4.0,300.09005,2192.1055,0.0,0.0,0.0,0.0,0.0,0.07488064040324585,-0.40585591913736063,0.08265058875522802,-0.3431400037302817,0.012402217701003589,0.008831729734398861,1.064219315805269
7514,4.0,299.69676,1954.3875,0.0,0.0,0.0,0.0,0.0,0.07489060721282965,-0.38176345607711965,0.09145466618512282,-0.3037761999328767,-0.02229595036793898,-0.016327940716192285,1.045442271577119
7515,4.0,299.51223,1829.4988,0.0,0.0,0.0,0.0,0.0,0.07490057402241349,-0.3482037717675367,0.13112816075634187,-0.3390463416037687,0.008288577119618872,-0.01235005558585559,1.073580226854119
7516,4.0,299.43802999999997,1898.48,0.0,0.0,0.0,0.0,0.0,0.07491054083199729,-0.4042476784461396,0.1300386230563129,-0.30288145956457274,0.01934028665398768,-0.01044438951328099,1.064922410049659
7517,4.0,299.12602000000004,1934.8912,0.0,0.0,0.0,0.0,0.0,0.07492050764158112,-0.4133279800122956,0.12934609701046587,-0.3041767376974067,0.030644918409417972,-0.03592959016722446,1.056508989169319
7518,4.0,300.19997,1661.4316,0.0,0.0,0.0,0.0,0.0,0.07493047445116495,-0.42744278695281857,0.17772637775022782,-0.2553173112503567,0.01949803956205668,-0.029805219813046173,1.053447150017139
7519,4.0,299.98041,1426.8554,0.0,0.0,0.0,0.0,0.0,0.07494044126074877,-0.34870378029438365,0.16132308466384884,-0.24634770725762578,0.02297645116159918,0.01110653730787989,1.041523020190319
7520,4.0,300.47181,1352.7306,0.0,0.0,0.0,0.0,0.0,0.07495040807033258,-0.29848938515110873,0.17897701208365585,-0.29168396178196576,0.00048015423564253364,0.04554209324240466,1.041275483190889
7521,4.0,299.97935,1582.9059,0.0,0.0,0.0,0.0,0.0,0.0749603748799164,-0.3329022361773927,0.14940588546771286,-0.2976675177299967,-0.04115562210199366,0.03057526658429387,1.0559999323190792
7522,4.0,300.35047000000003,2054.784,0.0,0.0,0.0,0.0,0.0,0.07497034168950023,-0.40215844793244865,0.09438256887283432,-0.3168271550634057,-0.047041609158145356,0.01017175329562389,1.0424005961019291
7523,4.0,300.16362000000004,2128.8084,0.0,0.0,0.0,0.0,0.0,0.07498030849908406,-0.4112951773966736,0.08594574191518432,-0.32175516785226266,-0.005687102881473355,0.013253778416296087,1.054858303431409
7524,4.0,299.98331,1824.7668,0.0,0.0,0.0,0.0,0.0,0.07499027530866786,-0.3987282113089106,0.09305203875577123,-0.24900736718011374,0.004640387562470595,-0.001687434596511828,1.061782854614809
7525,4.0,298.7601,1870.5593,0.0,0.0,0.0,0.0,0.0,0.0750002421182517,-0.37916670885334064,0.11580635003169688,-0.3052429503801337,0.02300861273302328,-0.04209556051750836,1.056314141175089
7526,4.0,299.66247000000004,2076.8098,0.0,0.0,0.0,0.0,0.0,0.0750102089278355,-0.40031963204847165,0.1104084323764639,-0.34138710132228367,0.008356234969871182,-0.04496846601629205,1.0495956850620292
7527,4.0,300.97141,1644.3525,0.0,0.0,0.0,0.0,0.0,0.07502017573741933,-0.36547785198985566,0.15660571643828083,-0.29096994470149773,0.014684278827975485,0.01085730716753279,1.056369363305539
7528,4.0,301.36208,1311.3769,0.0,0.0,0.0,0.0,0.0,0.07503014254700316,-0.3079483382796347,0.16031849785220384,-0.25099601235637775,0.02376541227246358,0.03225745832081327,1.0396871123341291
7529,4.0,300.66856,1471.7972,0.0,0.0,0.0,0.0,0.0,0.07504010935658698,-0.35370053197002466,0.16735912696705985,-0.2610481930209507,-0.0015230793507912286,0.012156807513533489,1.030337853661429
7530,4.0,300.45097000000004,1877.7404,0.0,0.0,0.0,0.0,0.0,0.07505007616617079,-0.4138140462177666,0.12784645646496287,-0.2848185945369067,-0.005319891723332434,-0.02470449347839368,1.0255105275350092
7531,4.0,300.52849,2115.2478,0.0,0.0,0.0,0.0,0.0,0.07506004297575461,-0.3916070896061106,0.08816807194876122,-0.33954349276533363,-0.01311925426676959,-0.0017105400425171584,1.0278728188181492
7532,4.0,300.32782000000003,1996.4464,0.0,0.0,0.0,0.0,0.0,0.07507000978533844,-0.3651533890428336,0.10508906186898291,-0.34680552715954066,-0.0032879839088737466,0.014800506720446287,1.0648531037428188
7533,4.0,298.8959,1827.9445,0.0,0.0,0.0,0.0,0.0,0.07507997659492227,-0.36320509148555163,0.11899517981890989,-0.31143958269169375,-0.029771893004007073,-0.0018740539866797282,1.084553117487059
7534,4.0,299.628,1974.0337,0.0,0.0,0.0,0.0,0.0,0.07508994340450607,-0.4078371574553936,0.1158880483872599,-0.3081078339778757,-0.008536504220337372,0.0027893183437092874,1.101638743323279
7535,4.0,300.07659,2174.4588,0.0,0.0,0.0,0.0,0.0,0.0750999102140899,-0.4415901496190546,0.09082201714068522,-0.3102130535781447,0.008651927389578753,0.012448415826062988,1.0695049349519188
7536,4.0,301.0646,1865.4752,0.0,0.0,0.0,0.0,0.0,0.07510987702367371,-0.4156757919515066,0.14314684708249387,-0.2945289248827417,0.035449098863803666,0.006673928837415494,1.082415970376139
7537,4.0,302.06459,1430.0518,0.0,0.0,0.0,0.0,0.0,0.07511984383325754,-0.31792293438405067,0.14542971982279587,-0.2622068343777998,0.00019245567021389584,-0.026140015557568678,1.013046659644921
7538,4.0,301.54571,1511.3324,0.0,0.0,0.0,0.0,0.0,0.07512981064284137,-0.3318156976976597,0.14030774056729586,-0.2678993443671068,-0.007594469086390743,-0.04254451745131696,1.020095111050549
7539,4.0,300.98554,1844.1332,0.0,0.0,0.0,0.0,0.0,0.07513977745242519,-0.38440804897062064,0.13638696930534586,-0.3125493448637187,-0.004875287002678365,0.016753718540713284,1.0194791563147592
7540,4.0,300.36989,2060.5166,0.0,0.0,0.0,0.0,0.0,0.075149744262009,-0.3904290445098466,0.0924685678049371,-0.3283851165690877,-0.0067337170781161335,0.03560099822604496,1.050496261750909
7541,4.0,300.0178,1755.8057,0.0,0.0,0.0,0.0,0.0,0.07515971107159282,-0.38057708206503366,0.12306430102800088,-0.27620830929463774,-0.00994195486039455,0.02296426581589658,1.032411064691039
7542,4.0,299.49261,1645.3712,0.0,0.0,0.0,0.0,0.0,0.07516967788117665,-0.36262005101031264,0.13401534598878487,-0.2715470447271067,-0.017188479840620885,0.0011620828608136487,1.0495305330805988
7543,4.0,300.50511,1827.8984,0.0,0.0,0.0,0.0,0.0,0.07517964469076048,-0.37515175599459566,0.11943999661280988,-0.29992372172766674,-0.006849317768775034,0.014621527236032385,1.061689635605609
7544,4.0,300.29989,2031.3506,0.0,0.0,0.0,0.0,0.0,0.07518961150034428,-0.39714090436475563,0.11833441916369788,-0.3386733642419587,0.011916048144022388,-0.006027408095133864,1.095891082131029
7545,4.0,300.10342,2024.3038,0.0,0.0,0.0,0.0,0.0,0.07519957830992811,-0.40587116855136557,0.11900993274036588,-0.3284765623906127,-0.02226072878121288,-0.029759172662251674,1.101405999775309
7546,4.0,299.29652999999996,1720.6746,0.0,0.0,0.0,0.0,0.0,0.07520954511951192,-0.35375585542548466,0.1202876411164659,-0.2895738887137177,-0.006827463281343163,-0.03400768574854727,1.067644303793289
7547,4.0,298.83232999999996,1491.3385,0.0,0.0,0.0,0.0,0.0,0.07521951192909575,-0.3668396803892576,0.16195673074638484,-0.24844670550228073,0.006658482650241073,0.025221817436199577,1.043291850889889
7548,4.0,299.33547999999996,1849.6395,0.0,0.0,0.0,0.0,0.0,0.07522947873867958,-0.4077581746100986,0.13929768220511085,-0.2937837503616987,0.021769216356454377,0.016178007059144985,1.039579201198479
7549,4.0,299.46246,1982.2697,0.0,0.0,0.0,0.0,0.0,0.0752394455482634,-0.39499771828323965,0.11329140248849089,-0.3208541655983407,0.01055889082758139,-0.0017504110286521183,1.016621081757689
7550,4.0,299.13273,1612.6231,0.0,0.0,0.0,0.0,0.0,0.07524941235784721,-0.3489599501846657,0.13745868393611588,-0.27869589908514375,-0.01064805177013089,-0.013918242500623587,1.0250015720097791
7551,4.0,299.80402999999995,1415.9207,0.0,0.0,0.0,0.0,0.0,0.07525937916743103,-0.3365759264024577,0.13749104714430987,-0.2313196478694718,0.016259173458405485,0.01137085676871619,1.045652520972869
7552,4.0,300.02881,1556.9763,0.0,0.0,0.0,0.0,0.0,0.07526934597701486,-0.36333393636826766,0.16532432824874085,-0.2752722891172597,0.0048570588360293855,0.007743446437993663,1.081253873836449
7553,4.0,300.54375,2064.1044,0.0,0.0,0.0,0.0,0.0,0.07527931278659869,-0.4138300657018476,0.08832299991555141,-0.3019291361930857,-0.025803431099600375,-0.009392161201809142,1.081223780308479
7554,4.0,299.93382,2092.2453,0.0,0.0,0.0,0.0,0.0,0.07528927959618249,-0.38880413585448065,0.08642362612609782,-0.33360980898722464,-0.020611949979991082,-0.02254211846648388,1.060427429956039
7555,4.0,299.27705,1803.4404,0.0,0.0,0.0,0.0,0.0,0.07529924640576632,-0.3267603801662387,0.1147105301810479,-0.3361510098405217,-0.012781041515890589,0.03144135325301997,1.062876860747779
7556,4.0,299.28421000000003,1656.3141,0.0,0.0,0.0,0.0,0.0,0.07530921321535014,-0.3574988519573897,0.13360309505309886,-0.2795823713326317,0.008707846737422562,0.025804740218729576,1.0487958254330891
7557,4.0,301.06891,1697.5161,0.0,0.0,0.0,0.0,0.0,0.07531918002493396,-0.37602717368349264,0.14497736444815187,-0.28495269818764174,0.02371721804470718,-0.02667116125998868,1.033613691234729
7558,4.0,300.20448999999996,1604.7091,0.0,0.0,0.0,0.0,0.0,0.07532914683451779,-0.37639204504450263,0.12516829459564888,-0.23656773623241775,0.0015870138109010687,-0.016547954803155983,1.017941650613019
7559,4.0,300.36566,1491.5859,0.0,0.0,0.0,0.0,0.0,0.0753391136441016,-0.3672046936052817,0.14665026062825384,-0.23285044585554976,0.04052346853685496,0.005542587376685786,1.036569443101439
7560,4.0,300.40425,1372.594,0.0,0.0,0.0,0.0,0.0,0.07534908045368542,-0.3248329555610167,0.17020824439324583,-0.2626095911600487,0.02212394305746318,0.016868122583004085,1.029189638648109
7561,4.0,299.71927999999997,1683.7879999999998,0.0,0.0,0.0,0.0,0.0,0.07535904726326924,-0.3464570299201467,0.12896554053790787,-0.2943380285639017,-0.03482462370792277,-0.0037225377964858765,1.057761264967909
7562,4.0,299.65103999999997,2177.7133,0.0,0.0,0.0,0.0,0.0,0.07536901407285307,-0.4071710265746516,0.0947587815422136,-0.34955821357370964,-0.01908489392653238,-0.011317800966979989,1.0602348111120292
7563,4.0,299.11298,2199.1156,0.0,0.0,0.0,0.0,0.0,0.0753789808824369,-0.4101048821067006,0.05659204661170015,-0.31496340309446774,-0.023786712816065776,0.016471001497811284,1.0710999932593388
7564,4.0,298.53962,1894.6167,0.0,0.0,0.0,0.0,0.0,0.0753889476920207,-0.39515235038100066,0.1059271919541999,-0.2866910199267007,0.016650263679003085,0.0076235066051065226,1.075694677162799
7565,4.0,299.75284,2095.2592,0.0,0.0,0.0,0.0,0.0,0.07539891450160453,-0.4252495463163626,0.0952573056576641,-0.30691423549257674,-0.02109448804861388,-0.022358068678569577,1.078946298058709
7566,4.0,300.16739,1855.1865,0.0,0.0,0.0,0.0,0.0,0.07540888131118835,-0.3411935908181857,0.08641278536327791,-0.3091495564056857,0.015346577596839286,-0.0001230481599539079,1.024862554096059
7567,4.0,299.70582,1450.5767,0.0,0.0,0.0,0.0,0.0,0.07541884812077217,-0.3005216608766787,0.14747321222697288,-0.2878906472500947,0.015782544664365884,0.024015592841404476,1.032479560397799
7568,4.0,301.01414,1598.3635,0.0,0.0,0.0,0.0,0.0,0.07542881493035598,-0.3384100509384717,0.13881904312287285,-0.2862715749153047,0.02943836045533997,0.012879083595566589,1.032641781738809
7569,4.0,299.8504,1494.4095,0.0,0.0,0.0,0.0,0.0,0.07543878173993981,-0.35224988206685665,0.14656710319254684,-0.24858041398547678,-0.00941185189365246,-0.04163501808205636,1.023258680512769
7570,4.0,299.82861,1483.6494,0.0,0.0,0.0,0.0,0.0,0.07544874854952362,-0.3645368972844906,0.15126984008667085,-0.23772530354416077,0.013952369777241687,-0.04602418750748366,1.049693666346699
7571,4.0,300.81326,1824.1542,0.0,0.0,0.0,0.0,0.0,0.07545871535910745,-0.3804959511295266,0.1086685907622549,-0.2826699774348547,0.016764299911507585,0.012114931913400687,1.047925544922199
7572,4.0,299.06682,1940.5672,0.0,0.0,0.0,0.0,0.0,0.07546868216869126,-0.3583394341078487,0.1067605698964479,-0.3383051187581157,0.008783059988370532,0.03374560861018227,1.070975363497039
7573,4.0,299.32844,1835.0652,0.0,0.0,0.0,0.0,0.0,0.07547864897827508,-0.3875057673088416,0.12359908429827988,-0.2939073162113937,-0.03818692900500646,0.025335830363951775,1.0555157000962891
7574,4.0,299.63485,1798.3496,0.0,0.0,0.0,0.0,0.0,0.07548861578785891,-0.35481345548236165,0.1015487153570779,-0.2933886233527027,-0.01302666549913179,0.027575217449712072,1.073199751441569
7575,4.0,299.29594,1776.4345,0.0,0.0,0.0,0.0,0.0,0.07549858259744273,-0.4013016841778926,0.12580290326577986,-0.26449296978342374,0.01013501892649849,0.01903977288632928,1.064334015716589
7576,4.0,299.30986,1733.1496,0.0,0.0,0.0,0.0,0.0,0.07550854940702656,-0.3871356067823096,0.12096677199599087,-0.26066535673566776,-0.0035925764134846867,0.007083649484951773,1.074001840220729
7577,4.0,300.2913,1578.7515,0.0,0.0,0.0,0.0,0.0,0.07551851621661036,-0.36865447211336366,0.14846819342766987,-0.2597147457568498,-0.01988185667343648,-0.07214420860082903,1.030656520817879
7578,4.0,300.51642999999996,1693.7558,0.0,0.0,0.0,0.0,0.0,0.0755284830261942,-0.3319803305739077,0.13851842195070388,-0.3213975614944697,-0.01114765094393749,-0.035469402369307464,1.0179569506895292
7579,4.0,301.29617,1696.0217,0.0,0.0,0.0,0.0,0.0,0.075538449835778,-0.35798076383745064,0.13370688226084187,-0.29127436556154174,0.017360375693585683,0.03716121491552636,1.020560902121519
7580,4.0,300.33518,1546.7468,0.0,0.0,0.0,0.0,0.0,0.07554841664536183,-0.30901760084516267,0.14231092588249486,-0.3034657299697357,0.03672923904014366,0.04247647872035206,1.037883527156129
7581,4.0,300.11292000000003,1832.3097,0.0,0.0,0.0,0.0,0.0,0.07555838345494564,-0.4088892454317266,0.12383890033194789,-0.27192604079451077,-0.0032825613996385872,0.025944087438732073,1.0562641879451589
7582,4.0,299.73418,1825.6552,0.0,0.0,0.0,0.0,0.0,0.07556835026452947,-0.40982343162642365,0.1253382065049179,-0.27046835893564874,0.002777144042432778,0.007427142586076903,1.062167484352769
7583,4.0,299.43427,1532.2785,0.0,0.0,0.0,0.0,0.0,0.07557831707411329,-0.3491784069062257,0.15547155520384787,-0.27206754117097576,0.015326761464633586,-0.007245113624162044,1.074462261066169
7584,4.0,299.82555,1892.3691,0.0,0.0,0.0,0.0,0.0,0.07558828388369711,-0.3234090959904927,0.06823986414950023,-0.32006373932783166,-0.012803660297872886,-0.02099718158851048,1.0529499481930689
7585,4.0,299.47994,2158.3455,0.0,0.0,0.0,0.0,0.0,0.07559825069328094,-0.4003828284572086,0.09348485866848721,-0.34918518554939465,-0.01996963756934978,-0.04841871230280486,1.062755777360829
7586,4.0,299.76788,1973.6894,0.0,0.0,0.0,0.0,0.0,0.07560821750286474,-0.37628085097852865,0.08271921213150063,-0.30639066890090466,-0.041544235939346856,-0.014302925940838885,1.031246637676119
7587,4.0,300.97184,1606.4951,0.0,0.0,0.0,0.0,0.0,0.07561818431244857,-0.3831318199396666,0.14621611335790685,-0.25141867950309177,0.0035468216866690466,0.05525188453918644,1.049940595396069
7588,4.0,300.73401,1556.475,0.0,0.0,0.0,0.0,0.0,0.0756281511220324,-0.3828523655620866,0.16753396327181483,-0.25781113252897775,0.009081744636948412,0.03446078687526487,1.0491890677968991
7589,4.0,300.5322,1712.6378,0.0,0.0,0.0,0.0,0.0,0.0756381179316162,-0.35932427267504463,0.11104598960438589,-0.2723208638284767,0.02973742932835577,0.01110918391714109,1.0376671982597792
7590,4.0,300.34705,1733.7846,0.0,0.0,0.0,0.0,0.0,0.07564808474120004,-0.36042763110643766,0.1242297514255219,-0.29082934611762173,0.016708478950248483,-0.015139231162625784,1.022317371169869
7591,4.0,299.85766,1798.5739,0.0,0.0,0.0,0.0,0.0,0.07565805155078385,-0.35115819627661565,0.12561986976771589,-0.32118321856831566,0.04696080448917055,-0.012348700870471888,1.055374351707339
7592,4.0,300.95729,1785.43,0.0,0.0,0.0,0.0,0.0,0.07566801836036768,-0.3603923193404527,0.1062689814779319,-0.28860277968537673,0.0006223173182029374,-0.013249132664587587,1.053638552961029
7593,4.0,300.50335,1909.6285,0.0,0.0,0.0,0.0,0.0,0.0756779851699515,-0.37335696582746364,0.09281430292455851,-0.29993673185895076,-0.00886665139909536,-0.01967084632686138,1.084882119794529
7594,4.0,299.91185,2149.8806,0.0,0.0,0.0,0.0,0.0,0.07568795197953532,-0.4263787122278026,0.08109798664024813,-0.30822929226736273,-0.026223206430528976,-0.0016932766926133983,1.064766166884239
7595,4.0,300.64687999999995,2124.5763,0.0,0.0,0.0,0.0,0.0,0.07569791878911915,-0.3921920186238386,0.09018426739524421,-0.34381039026144367,-0.02354061361852768,0.013023799014598887,1.078318285646729
7596,4.0,299.70301,1555.8289,0.0,0.0,0.0,0.0,0.0,0.07570788559870295,-0.3378047353287317,0.14942241157684386,-0.28455082293297973,-0.004701819700133476,0.002198954252444888,1.037321781300689
7597,4.0,299.0996,1532.4847,0.0,0.0,0.0,0.0,0.0,0.07571785240828678,-0.30571978587719373,0.11173891081777189,-0.27185620759761875,-0.011591697667761488,-0.018852657003612383,1.031880324288659
7598,4.0,299.61185,1898.1736,0.0,0.0,0.0,0.0,0.0,0.07572781921787061,-0.3915024512682836,0.11884115567120887,-0.3043360712756317,0.03151830047886407,0.0032989965189106065,1.026960488428109
7599,4.0,299.23451,1779.9895,0.0,0.0,0.0,0.0,0.0,0.07573778602745443,-0.39966476850884164,0.13517017752525787,-0.27657777067860073,0.016025367011080587,0.019300737476084483,1.057377952455079
7600,4.0,299.73958999999996,1711.9835,0.0,0.0,0.0,0.0,0.0,0.07574775283703825,-0.37565881674213863,0.1083460732554249,-0.25308749228529076,0.013269376388335488,0.023825142352608478,1.0601911400327189
7601,4.0,300.96743,1872.7446,0.0,0.0,0.0,0.0,0.0,0.07575771964662206,-0.37968737754972665,0.12141113282734589,-0.31099134111245574,-0.014064779743335688,-0.016809322666450986,1.074152814485629
7602,4.0,300.24889,1913.306,0.0,0.0,0.0,0.0,0.0,0.0757676864562059,-0.37594664056554467,0.1131699138015009,-0.3188205118526347,-0.004542970050156235,-0.03389153081008367,1.061596619246429
7603,4.0,300.94851,1943.8868,0.0,0.0,0.0,0.0,0.0,0.07577765326578971,-0.3804873486361776,0.11219756860803788,-0.3226032581859627,0.01035286668474839,-0.030178597408645674,1.042555623367229
7604,4.0,299.9934,1956.0211,0.0,0.0,0.0,0.0,0.0,0.07578762007537353,-0.39810922695532164,0.12364090112990689,-0.3201132568602187,-0.00013548473088630187,-0.011183757098000888,1.054622013508089
7605,4.0,299.54639,1634.4197,0.0,0.0,0.0,0.0,0.0,0.07579758688495736,-0.38248430246326165,0.12337971565162989,-0.23771820066095978,-0.02900699962276797,-0.002243533913119558,1.036764797720719
7606,4.0,299.67644,1573.4323,0.0,0.0,0.0,0.0,0.0,0.07580755369454116,-0.35526098778652965,0.13668570583232886,-0.25970884864126775,-0.0006800430680600254,0.03198614540778677,1.063444382128789
7607,4.0,299.78314,1768.6594,0.0,0.0,0.0,0.0,0.0,0.07581752050412499,-0.37937553969895066,0.1250250210315089,-0.2832777755073398,-0.023695864812099777,0.06052805816840424,1.059991428438009
7608,4.0,300.31505,1847.2407,0.0,0.0,0.0,0.0,0.0,0.07582748731370882,-0.38089501968141165,0.13711332777203186,-0.3177333451578397,-0.0049868282081366256,0.025618767282125476,1.085749664530149
7609,4.0,300.97451,1876.6191,0.0,0.0,0.0,0.0,0.0,0.07583745412329264,-0.33826738532439166,0.08598496178680502,-0.31816291253773465,-0.02823435690476407,-0.02881790992885627,1.013535532553169
7610,4.0,299.96271,1857.0496,0.0,0.0,0.0,0.0,0.0,0.07584742093287646,-0.37344155194581163,0.1010426627933844,-0.29209782378531074,0.0026847256021367873,-0.023188359247762875,1.0657981621110888
7611,4.0,300.17925,2008.1164,0.0,0.0,0.0,0.0,0.0,0.07585738774246027,-0.4265157543038276,0.1018555781498629,-0.2857570566470257,0.024207606775104775,-0.004191093925653766,1.044039224163649
7612,4.0,299.67807,1952.9935,0.0,0.0,0.0,0.0,0.0,0.0758673545520441,-0.4128990408474626,0.1198204517603579,-0.30058265853269867,0.03222981483158507,0.002938387191796237,1.088550997081619
7613,4.0,299.98702000000003,1676.4177,0.0,0.0,0.0,0.0,0.0,0.07587732136162792,-0.3600819304373197,0.12089082890099588,-0.27039801911370676,0.0006739740140685564,-0.025761169451179476,1.046031375185259
7614,4.0,300.12345,1689.378,0.0,0.0,0.0,0.0,0.0,0.07588728817121174,-0.32567652679927067,0.1328793811691739,-0.3207315826012427,0.002213852879265268,0.00028004790909107673,1.0881779183947988
7615,4.0,299.52002000000005,1488.6182,0.0,0.0,0.0,0.0,0.0,0.07589725498079557,-0.3125450993457997,0.13730337296078787,-0.27726102548603276,0.001234034155714689,0.01887234850605578,1.0180192655706792
7616,4.0,299.52236,1543.97,0.0,0.0,0.0,0.0,0.0,0.07590722179037937,-0.3465125357606247,0.14895037888525783,-0.27176619045873474,-0.024981157365198275,-0.0013471096244743687,1.067663352895169
7617,4.0,299.90513,1858.4158,0.0,0.0,0.0,0.0,0.0,0.0759171885999632,-0.41604276074022356,0.13266371088538886,-0.28153294870263873,-0.026258093644722078,-0.02742093796298587,1.045059161714309
7618,4.0,299.5497,1888.3864,0.0,0.0,0.0,0.0,0.0,0.07592715540954703,-0.3949038609264766,0.12415436561808188,-0.3032728172831967,-0.03234426041712997,-0.0015138665769069985,1.078575853822149
7619,4.0,299.82653999999997,1677.3731,0.0,0.0,0.0,0.0,0.0,0.07593712221913085,-0.36478903443937466,0.14757615843713284,-0.2926666522589497,0.024608289434399078,0.036127101995967366,1.074743741943949
7620,4.0,299.25883,1929.6021,0.0,0.0,0.0,0.0,0.0,0.07594708902871466,-0.37983014448881663,0.13733493570140287,-0.3440556373156477,0.006018723021901714,0.015312592175235184,1.073876805158389
7621,4.0,300.02112999999997,2096.4158,0.0,0.0,0.0,0.0,0.0,0.07595705583829848,-0.38825041493983264,0.1132590291477959,-0.36226668003793766,0.023695272060791275,-0.018194649348922086,1.052681234266549
7622,4.0,300.95758,1834.7768,0.0,0.0,0.0,0.0,0.0,0.07596702264788231,-0.38823214604052964,0.1285664719860229,-0.29806066890129773,-0.0014910611542562787,-0.023506521805663077,1.0645491287128188
7623,4.0,300.58018,1548.4068,0.0,0.0,0.0,0.0,0.0,0.07597698945746613,-0.36615662823184564,0.15047754943597785,-0.25499793481883676,0.022143542354147477,-0.009278711539787533,1.063766190360549
7624,4.0,300.44491,1540.3661,0.0,0.0,0.0,0.0,0.0,0.07598695626704995,-0.3873230377858076,0.17547843174087283,-0.2563882254135478,-0.03504183514510986,-0.014545458498024987,1.082893312498249
7625,4.0,300.51142999999996,1696.1601,0.0,0.0,0.0,0.0,0.0,0.07599692307663378,-0.3568630679171427,0.12551367102473487,-0.28424092038989474,-0.027060439789407472,-0.007662229477553174,1.053699449292039
7626,4.0,299.78334,1804.1111,0.0,0.0,0.0,0.0,0.0,0.07600688988621758,-0.35772617461732464,0.11483082323291988,-0.3055093743614277,-0.018954343743898084,0.012650834825040187,1.051160548516469
7627,4.0,300.05935,2071.4224,0.0,0.0,0.0,0.0,0.0,0.07601685669580141,-0.36973718050771864,0.08625970759117033,-0.3461831990806217,0.010418052103431689,0.03847950395813136,1.030509700878389
7628,4.0,299.93215,1866.9196,0.0,0.0,0.0,0.0,0.0,0.07602682350538524,-0.39195523220796963,0.1099648112176819,-0.28550653055980074,0.019397799742913783,0.01032389685113929,1.0488355448370088
7629,4.0,299.23897,1772.1870000000001,0.0,0.0,0.0,0.0,0.0,0.07603679031496906,-0.3903395441285136,0.14723428785339288,-0.2955953402154887,0.01911322845232878,-0.028213594396964973,1.063775512261469
7630,4.0,299.87769,2013.8279,0.0,0.0,0.0,0.0,0.0,0.07604675712455287,-0.4268671494385076,0.12918403778947188,-0.3144702948008017,0.021969724365742977,-0.0008635557016988122,1.100454253956379
7631,4.0,299.91072,1853.5922,0.0,0.0,0.0,0.0,0.0,0.07605672393413669,-0.38440058131738364,0.14606777354326686,-0.32511293682864867,-0.01003428605985693,0.03037155265168887,1.095183326936179
7632,4.0,300.1016,1715.1651,0.0,0.0,0.0,0.0,0.0,0.07606669074372052,-0.3418186242748717,0.15435495359364787,-0.33390367178122665,-0.03104833583073217,0.023354569754416576,1.0880692979840791
7633,4.0,300.16206,1850.3895,0.0,0.0,0.0,0.0,0.0,0.07607665755330434,-0.34765995030636565,0.11836251658897087,-0.33317478018929064,-0.03692888983984766,0.007723748653399643,1.0564429252627991
7634,4.0,299.851,1878.9957,0.0,0.0,0.0,0.0,0.0,0.07608662436288816,-0.39379899275243463,0.11897884622729789,-0.2963476176197327,0.013248560178281089,-0.0012752376670561588,1.053010945849089
7635,4.0,299.78119,1765.4566,0.0,0.0,0.0,0.0,0.0,0.07609659117247199,-0.3949634400323566,0.14104654174520986,-0.28273784492655274,0.022972136742673375,-0.012917473615355387,1.076531317770369
7636,4.0,300.93287999999995,1732.9749,0.0,0.0,0.0,0.0,0.0,0.07610655798205579,-0.3849725913963366,0.12428857059382689,-0.26609707641423674,0.01777046131380798,-0.028543946353568172,1.057429729535189
7637,4.0,300.44581,1778.899,0.0,0.0,0.0,0.0,0.0,0.07611652479163962,-0.36681679106949866,0.13487689228381286,-0.3088009781062837,-0.016203607836171585,-0.018577940583499982,1.0838490099925688
7638,4.0,300.6727,1898.2307,0.0,0.0,0.0,0.0,0.0,0.07612649160122345,-0.35725395954072064,0.09605945827158041,-0.3158202377765307,-0.006790140213909664,0.019454699815529383,1.050517945303049
7639,4.0,300.7318,2007.7908,0.0,0.0,0.0,0.0,0.0,0.07613645841080727,-0.3785289489753987,0.0946259637058555,-0.3264152874471807,-0.007950769567454863,0.05825502104682295,1.062518068887369
7640,4.0,299.8379,1872.4443,0.0,0.0,0.0,0.0,0.0,0.07614642522039108,-0.39019779043952363,0.13096301112254288,-0.3099415430813487,-0.0037127605409709363,0.033447813392542165,1.062120874848169
7641,4.0,299.53834,1731.3025,0.0,0.0,0.0,0.0,0.0,0.0761563920299749,-0.3866446161813526,0.13537931234589787,-0.27500744580612174,-0.023696428179155377,-0.015104352054433487,1.058221280513309
7642,4.0,299.9423,1715.017,0.0,0.0,0.0,0.0,0.0,0.07616635883955873,-0.3770130052357866,0.14384081194348286,-0.2881501507332057,0.008131247344791632,-0.02063977585423728,1.0653858706453991
7643,4.0,298.73438,1822.8570000000002,0.0,0.0,0.0,0.0,0.0,0.07617632564914255,-0.36928888826597567,0.13825379142208685,-0.3230679042843197,0.029968286204639573,-0.021601385662890778,1.0651922385512889
7644,4.0,299.56037000000003,1773.5420000000001,0.0,0.0,0.0,0.0,0.0,0.07618629245872637,-0.3280734205733257,0.11679088462386288,-0.3278299467067967,0.044390611510762255,-0.003778545499738406,1.0546212029080089
7645,4.0,299.88075,1714.9185,0.0,0.0,0.0,0.0,0.0,0.0761962592683102,-0.36238541268465563,0.13773395359078286,-0.29664093325868074,-0.0005714121296714864,0.0024803875074701875,1.055449636189769
7646,4.0,300.22008999999997,1901.31,0.0,0.0,0.0,0.0,0.0,0.076206226077894,-0.3986016969014246,0.0994841828145744,-0.27883325526869973,-0.015788092208663385,0.013648675417519384,1.0705643892564791
7647,4.0,300.6476,2001.0164,0.0,0.0,0.0,0.0,0.0,0.07621619288747783,-0.43491672234043854,0.11713865232318489,-0.2904809400707367,-0.006869540315595843,0.017552090718506483,1.0950846363764388
7648,4.0,300.28209,1962.638,0.0,0.0,0.0,0.0,0.0,0.07622615969706166,-0.4033906816440606,0.1129054149953969,-0.3061076782804757,-0.017562223219506484,-0.006990258932509843,1.089337887109279
7649,4.0,299.9148,1986.3222,0.0,0.0,0.0,0.0,0.0,0.07623612650664548,-0.3936093528637186,0.1071439229392819,-0.3173269102777277,-0.02122764532375548,-0.01804671078132168,1.078052206170469
7650,4.0,300.46691,1992.1103,0.0,0.0,0.0,0.0,0.0,0.0762460933162293,-0.3587070817741327,0.1015443178516439,-0.3483890242833197,-0.034344356332774065,-0.0006199865997929135,1.057304694472849
7651,4.0,300.79512,1740.9133,0.0,0.0,0.0,0.0,0.0,0.07625606012581311,-0.36650303817603364,0.13630896931264785,-0.2990001239965147,0.023344243722647477,0.026854430845325974,1.0585760193733191
7652,4.0,299.84936,1701.5075,0.0,0.0,0.0,0.0,0.0,0.07626602693539694,-0.3735001785965976,0.1069073493059339,-0.25062297419956175,0.008062972121253393,0.005318927615862285,1.033909965563969
7653,4.0,300.15173,1621.8204,0.0,0.0,0.0,0.0,0.0,0.07627599374498077,-0.38067565103476164,0.14881264779916487,-0.2611299015090148,0.03480555839404117,-0.003133442091696657,1.0710421366786291
7654,4.0,299.68179,1535.2312,0.0,0.0,0.0,0.0,0.0,0.07628596055456457,-0.34619383820667166,0.13127778739860888,-0.25175589926887276,-0.015751545290806485,-0.017519097268750283,1.043534220313809
7655,4.0,299.75055,1752.0432,0.0,0.0,0.0,0.0,0.0,0.0762959273641484,-0.3459523807078417,0.12127253034616689,-0.3078975440521217,0.003817915838998956,-0.01877108834406218,1.075038597723049
7656,4.0,299.02123,1847.9101,0.0,0.0,0.0,0.0,0.0,0.07630589417373221,-0.34859128926828165,0.1073158410837489,-0.3204430799002697,-0.004793912076547285,-0.01780156707862788,1.049765809753819
7657,4.0,298.28721,1832.1251,0.0,0.0,0.0,0.0,0.0,0.07631586098331604,-0.36950016104432665,0.0932014870660206,-0.28062162143019775,-0.017978995277138685,-0.020149615105112182,1.063991942482829
7658,4.0,298.12928999999997,1874.4205,0.0,0.0,0.0,0.0,0.0,0.07632582779289987,-0.4091793085378536,0.13057216002896888,-0.2911698893437307,-0.012672229600901688,0.0027982956382702775,1.047666051571589
7659,4.0,298.41441000000003,1949.2098,0.0,0.0,0.0,0.0,0.0,0.07633579460248369,-0.4270681174633416,0.12257103061431888,-0.28801400031726876,-0.008066830982934231,0.01814922636018918,1.1062767943310188
7660,4.0,299.18388999999996,1723.0617,0.0,0.0,0.0,0.0,0.0,0.0763457614120675,-0.3516900309891037,0.13217611467226686,-0.3042538055000127,0.011423142500376387,0.013967187546704089,1.074032339048739
7661,4.0,299.56881,1575.8293,0.0,0.0,0.0,0.0,0.0,0.07635572822165132,-0.33399998120323166,0.17306820359550182,-0.31808098113464867,0.027894580708980772,-0.01171785338471209,1.108577783983109
7662,4.0,300.2174,1613.0106,0.0,0.0,0.0,0.0,0.0,0.07636569503123515,-0.33259515046958565,0.13987224567431586,-0.29759204073004775,0.027546350967613178,-0.00913019501433009,1.053280065075649
7663,4.0,299.93441,1792.5057,0.0,0.0,0.0,0.0,0.0,0.07637566184081898,-0.39114176463018663,0.15384722410103885,-0.3075824334035227,-0.008725742760688762,-0.006037572614837025,1.089288845804439
7664,4.0,300.24953,1803.1589,0.0,0.0,0.0,0.0,0.0,0.07638562865040278,-0.4129099940810436,0.11810797803134988,-0.25331325454007175,-0.03609302842160457,-0.0008998290521612132,1.039382732004089
7665,4.0,300.13921,1877.3804,0.0,0.0,0.0,0.0,0.0,0.07639559545998661,-0.4072954131569276,0.11102706209251789,-0.27440841234700175,-0.005115965514831485,0.00010202229832131689,1.0780087377411791
7666,4.0,299.6482,1939.1525,0.0,0.0,0.0,0.0,0.0,0.07640556226957042,-0.3880983970273296,0.11557385979625188,-0.3169293919984957,0.014258482764952686,0.002167973421362318,1.060084951422239
7667,4.0,299.58041000000003,1947.0195,0.0,0.0,0.0,0.0,0.0,0.07641552907915425,-0.36568760489305663,0.1149036657826089,-0.3410613718126367,0.024580337917140475,0.02040456402902368,1.0872911219072792
7668,4.0,299.79001,1860.444,0.0,0.0,0.0,0.0,0.0,0.07642549588873808,-0.35744155266423466,0.09997326749209332,-0.3080602517531797,0.01918764559267318,-0.009519586318485021,1.0498768619647791
7669,4.0,300.05346000000003,1702.2382,0.0,0.0,0.0,0.0,0.0,0.0764354626983219,-0.35054741924883664,0.15142191879417985,-0.3183124074574887,-0.0023549343781389277,-0.03142520913917667,1.0828375837427489
7670,4.0,301.62381,1631.1715,0.0,0.0,0.0,0.0,0.0,0.07644542950790571,-0.35779322137644165,0.12244323951170687,-0.26048543391541074,0.00916157628185218,-0.01082242400634009,1.0559309299872688
7671,4.0,301.39882,1734.2727,0.0,0.0,0.0,0.0,0.0,0.07645539631748953,-0.37437547469548266,0.14026782864585688,-0.29306794996105473,-0.017566078636136982,0.014936895250156786,1.075962479164229
7672,4.0,300.68199,1877.5391,0.0,0.0,0.0,0.0,0.0,0.07646536312707336,-0.37049186944720064,0.1177018977887729,-0.3179350224577437,-0.023712480087239578,0.04395140406941586,1.0549149441119992
7673,4.0,300.08313,2038.0265,0.0,0.0,0.0,0.0,0.0,0.07647532993665716,-0.37392024169055466,0.08138061857014173,-0.3269695453843817,-0.03909150701853136,0.0066140778765336646,1.039699879285389
7674,4.0,299.47134,1872.7247,0.0,0.0,0.0,0.0,0.0,0.076485296746241,-0.3701616917696146,0.12134461295828088,-0.32044445792040566,0.009443229108174151,-0.001981779190936378,1.052366113485449
7675,4.0,299.52315,1837.4732,0.0,0.0,0.0,0.0,0.0,0.07649526355582482,-0.39752761126542063,0.1005722816994614,-0.2615906567269878,0.0038619825924730063,-0.007227444872893274,1.056190119362849
7676,4.0,300.0288,1984.5513,0.0,0.0,0.0,0.0,0.0,0.07650523036540863,-0.4341420521089846,0.1097553420245089,-0.2788673207370617,0.04959882442927285,-0.016726569517533884,1.0898351902583592
7677,4.0,300.12446,1874.4395,0.0,0.0,0.0,0.0,0.0,0.07651519717499246,-0.4115400191508376,0.1278109927114629,-0.2860537666738087,0.0028289287219185276,-0.021327948977654682,1.0972912924442189
7678,4.0,300.8507,1747.2826,0.0,0.0,0.0,0.0,0.0,0.07652516398457627,-0.35842266247106264,0.13466807157070387,-0.3073756797206177,-0.006405792058152454,-0.017534209893991785,1.1095811042321289
7679,4.0,301.13495,1788.4047,0.0,0.0,0.0,0.0,0.0,0.0765351307941601,-0.3785035569278926,0.17204786074480183,-0.3371746761515497,-0.0035862889939641666,0.013161947559733088,1.1064590780240091
7680,4.0,299.39572999999996,1874.4501,0.0,0.0,0.0,0.0,0.0,0.07654509760374391,-0.37387010607560667,0.13024838609201486,-0.3261643155299117,-0.01118560222643299,0.005560155714869645,1.0677268836764389
7681,4.0,299.95893,2050.8843,0.0,0.0,0.0,0.0,0.0,0.07655506441332774,-0.39692912496135463,0.1032820316406429,-0.3297705030333147,-0.004335050926986215,-0.009270150589692631,1.040824485571379
7682,4.0,300.78172,2130.0291,0.0,0.0,0.0,0.0,0.0,0.07656503122291156,-0.4138657726353716,0.1020047386970839,-0.3356146155025837,-0.011661041464855188,-0.00960257362950023,1.057653353832259
7683,4.0,300.86852000000005,1756.9778,0.0,0.0,0.0,0.0,0.0,0.07657499803249537,-0.36646611534238965,0.10655624801378291,-0.2741675324007288,0.017857226933121084,0.02766184222726127,1.0519940480487289
7684,4.0,301.45922,1569.1899,0.0,0.0,0.0,0.0,0.0,0.07658496484207919,-0.3222868708422377,0.13263133754469386,-0.28733902376315373,0.02829405152115547,0.02265485976536058,1.0715941553331092
7685,4.0,301.04838,1613.9442,0.0,0.0,0.0,0.0,0.0,0.07659493165166302,-0.33960274763118165,0.13401087755584387,-0.2850068766704887,-0.0040451975636299166,0.01019282281820329,1.0645172113346688
7686,4.0,300.14201,1813.7389,0.0,0.0,0.0,0.0,0.0,0.07660489846124684,-0.36097711663566767,0.09483423017115981,-0.28518844095590773,-0.008583901628215132,-0.024526926464619177,1.0733958153359189
7687,4.0,300.65141,1951.8363,0.0,0.0,0.0,0.0,0.0,0.07661486527083065,-0.4066851934167036,0.11846172390626188,-0.3050860182046457,-0.03085103171825977,-0.03083554216398107,1.058073548648729
7688,4.0,299.82292,1993.9005,0.0,0.0,0.0,0.0,0.0,0.07662483208041448,-0.40279950087321564,0.09930950255033481,-0.30260596699488373,0.002894066213872097,-0.04154396337506996,1.078077841397999
7689,4.0,299.48498,1845.5286,0.0,0.0,0.0,0.0,0.0,0.07663479888999829,-0.37155836583995566,0.1163855136563559,-0.30582175936725775,0.0011160610412716489,-0.04565503313830096,1.0564665339901291
7690,4.0,299.37946,1833.8168,0.0,0.0,0.0,0.0,0.0,0.07664476569958212,-0.3504807372597557,0.14000971331538287,-0.34696348271762967,0.00973875606414039,0.013042072980152386,1.107877729489019
7691,4.0,300.85801000000004,1853.3839,0.0,0.0,0.0,0.0,0.0,0.07665473250916593,-0.37194086775270563,0.1339200599493809,-0.3253616289331927,0.005189847253823045,0.046415570557360154,1.080268285464179
7692,4.0,300.3456,1671.0602,0.0,0.0,0.0,0.0,0.0,0.07666469931874977,-0.37651020013866365,0.17097798009671283,-0.3024283543848547,0.004972224741070375,0.045757334921397365,1.0818875604489888
7693,4.0,300.63707,1533.3198,0.0,0.0,0.0,0.0,0.0,0.07667466612833358,-0.3644131693147797,0.15921226179052683,-0.2608900145478398,-0.0044296077302932455,0.00852197005957796,1.056427017236229
7694,4.0,300.04238,1703.7317,0.0,0.0,0.0,0.0,0.0,0.0766846329379174,-0.3965223861062126,0.14413712680272686,-0.26550663531596475,-0.023302344817762378,-0.031012038172399867,1.084684840000059
7695,4.0,300.61037000000005,2102.4663,0.0,0.0,0.0,0.0,0.0,0.07669459974750123,-0.41086267159148865,0.1091501277397789,-0.3373847026322777,-0.02570078683797018,-0.03623978452633826,1.088144987766549
7696,4.0,300.83507000000003,1930.8526,0.0,0.0,0.0,0.0,0.0,0.07670456655708503,-0.3975869066612726,0.1323082222203049,-0.3216522925696097,-0.021735553148382082,-0.023797116868092577,1.0972131708615092
7697,4.0,301.34353,1827.8606,0.0,0.0,0.0,0.0,0.0,0.07671453336666886,-0.3642842433720556,0.11278404789841888,-0.3041237751146797,0.005356795102574515,-0.003475722839077137,1.094138767408089
7698,4.0,300.43036,1945.9483,0.0,0.0,0.0,0.0,0.0,0.0767245001762527,-0.39718744294184866,0.11934665601359788,-0.3136789059426977,0.012940176497095987,0.035412132460405366,1.0769942717410592
7699,4.0,300.13822000000005,2003.0633,0.0,0.0,0.0,0.0,0.0,0.0767344669858365,-0.4129628857362636,0.10094286576453522,-0.2968612239629217,0.04222613805789536,0.04754689874451355,1.051016160377219
7700,4.0,298.89896,1787.1974,0.0,0.0,0.0,0.0,0.0,0.07674443379542033,-0.39196192979113065,0.12337991830164988,-0.27468136165893975,0.023281979504002476,0.003906645339655877,1.045362832769279
7701,4.0,298.76491,1631.5668,0.0,0.0,0.0,0.0,0.0,0.07675440060500414,-0.3320604178618117,0.13844524502848185,-0.3023404042761747,-0.006112751820581634,-0.026995890691786973,1.058059667122359
7702,4.0,299.68607000000003,1552.3542,0.0,0.0,0.0,0.0,0.0,0.07676436741458798,-0.3140383766806747,0.14253854238495886,-0.3003770903524107,-0.01061069019919359,-0.021671939280603878,1.080659400002779
7703,4.0,299.12498999999997,1622.4299,0.0,0.0,0.0,0.0,0.0,0.07677433422417179,-0.3131717134726417,0.13531091796414788,-0.3153173718844017,-0.011102551181986489,-0.006249277949655714,1.0952450338672688
7704,4.0,299.59943,2072.1817,0.0,0.0,0.0,0.0,0.0,0.07678430103375561,-0.3978391958036716,0.08844999865658522,-0.32050229423611365,-0.025525858327456078,0.01116486910288679,1.0779499692353791
7705,4.0,299.94251,2171.4106,0.0,0.0,0.0,0.0,0.0,0.07679426784333944,-0.43087638756668856,0.09298352481050941,-0.32216174458738867,-0.02215243058402468,0.005821500374737354,1.092388276535329
7706,4.0,300.15645,1989.8515,0.0,0.0,0.0,0.0,0.0,0.07680423465292324,-0.4220638981344636,0.1051090938234599,-0.2879103650970407,0.024305558675521876,0.008997226203707092,1.071772993975759
7707,4.0,300.10244,1955.7043,0.0,0.0,0.0,0.0,0.0,0.07681420146250707,-0.3990712369977646,0.12178127308887589,-0.3171953093547397,0.04362978328892436,0.01043445864905089,1.0966270056786591
7708,4.0,300.77802,1975.3787,0.0,0.0,0.0,0.0,0.0,0.0768241682720909,-0.41237584915832765,0.14106558071458888,-0.3291555210176207,0.022640970132989775,-0.006239116571027864,1.115551984421409
7709,4.0,300.23386,1815.5994,0.0,0.0,0.0,0.0,0.0,0.0768341350816747,-0.3687101907363627,0.13643729743781288,-0.31962399891693266,-0.020968165145396782,-0.0014823052548421387,1.093579352027879
7710,4.0,299.79008999999996,1726.8712,0.0,0.0,0.0,0.0,0.0,0.07684410189125854,-0.4037054376551246,0.17819508698148584,-0.2994153944174987,-0.03519231697046127,0.029987381916024174,1.109323536056709
7711,4.0,298.83312,1854.7012,0.0,0.0,0.0,0.0,0.0,0.07685406870084235,-0.3872736114459296,0.13110136029119687,-0.30761060175630267,-0.013516557736980385,0.031333327620108674,1.0544283814139792
7712,4.0,299.74942000000004,2016.9153,0.0,0.0,0.0,0.0,0.0,0.07686403551042618,-0.40456931442538263,0.12305347951693288,-0.3315760437840077,-0.0076879456637661625,0.0008677170387995044,1.092664387187579
7713,4.0,300.55361,1883.7386,0.0,0.0,0.0,0.0,0.0,0.07687400232001,-0.3852192772656826,0.12976085067389886,-0.3171510809878747,-0.022564455564938378,-0.04445902717076436,1.0391860601596792
7714,4.0,299.97484,1720.4596,0.0,0.0,0.0,0.0,0.0,0.07688396912959382,-0.35377189517456764,0.1318640133764649,-0.3010688767256847,0.025586850917225575,-0.026545297359066876,1.111368781383559
7715,4.0,300.62942000000004,1699.0786,0.0,0.0,0.0,0.0,0.0,0.07689393593917765,-0.34925363059364967,0.1130617392208249,-0.2802855669020317,0.026361475552425073,-0.00869003775233995,1.0553493244298688
7716,4.0,300.48248,1799.3324,0.0,0.0,0.0,0.0,0.0,0.07690390274876145,-0.3921239586146216,0.1207573433328219,-0.27558551512067275,0.01871529474055578,0.0038642905735507857,1.112201571640749
7717,4.0,300.43012000000004,1949.3742,0.0,0.0,0.0,0.0,0.0,0.07691386955834528,-0.4008740926356926,0.09666387107548131,-0.28835086544551475,-0.02243713866337318,-0.0075727530089225335,1.048964734224759
7718,4.0,300.9707,1949.5132,0.0,0.0,0.0,0.0,0.0,0.07692383636792911,-0.39048536095040465,0.1253235042459669,-0.3274414666184567,-0.015679167822913384,0.03825940475815926,1.0967477850905791
7719,4.0,299.64772999999997,1682.8284,0.0,0.0,0.0,0.0,0.0,0.07693380317751292,-0.35019667259422066,0.14862109286775987,-0.3099622539133927,-0.009078051441658921,0.01983700110475958,1.060058708244649
7720,4.0,298.80885,1744.5463,0.0,0.0,0.0,0.0,0.0,0.07694376998709675,-0.3556331545482596,0.14505899187620785,-0.3197243512068367,0.027314514278482676,-0.022066801831323778,1.083519501060049
7721,4.0,299.3603,1901.0069,0.0,0.0,0.0,0.0,0.0,0.07695373679668056,-0.4019040917598456,0.16310440873715185,-0.33905895656751367,0.0007875098935411752,-0.036533295722555564,1.0901960086189688
7722,4.0,299.36787999999996,1964.4254,0.0,0.0,0.0,0.0,0.0,0.0769637036062644,-0.4089028635130706,0.10942459692686689,-0.2976579931790567,0.016507309288644585,-0.007839142033088083,1.0739720506677888
7723,4.0,299.91696,1872.943,0.0,0.0,0.0,0.0,0.0,0.07697367041584821,-0.40521245466135564,0.13361015740629587,-0.2977255972257287,0.0026541051841147876,0.045040005526352456,1.087900794492449
7724,4.0,300.32034,1816.3756,0.0,0.0,0.0,0.0,0.0,0.07698363722543203,-0.36727862033257763,0.12204958171535588,-0.3069037888840457,-0.005384605778069214,0.032531363127595574,1.0834455338027489
7725,4.0,299.71924,1734.3,0.0,0.0,0.0,0.0,0.0,0.07699360403501586,-0.37253476403381863,0.13757180317727985,-0.2922209235399597,0.0013238815752069388,-0.002569524739967348,1.097874721851799
7726,4.0,300.34121,2110.3554,0.0,0.0,0.0,0.0,0.0,0.07700357084459966,-0.39855515832433164,0.11292179924951389,-0.35586199708334465,-0.006978958762094603,-0.0006793524671893684,1.1224979151819188
7727,4.0,300.33291,2232.1423,0.0,0.0,0.0,0.0,0.0,0.07701353765418349,-0.43219716920453966,0.09348117550437372,-0.3397995106681007,-0.007630433081465112,-0.01075846664677799,1.1026195694200789
7728,4.0,300.45637,1958.7571,0.0,0.0,0.0,0.0,0.0,0.07702350446376732,-0.4185601907461746,0.13377317921488485,-0.3106262569689247,-0.008347394160098663,-0.017138162853904983,1.102047083113579
7729,4.0,300.91655,1772.2738,0.0,0.0,0.0,0.0,0.0,0.07703347127335113,-0.3586356679070847,0.13993738752324486,-0.3200287112718747,0.00976442361434858,-0.025870094850179576,1.0517266513473391
7730,4.0,300.45063,1817.8017,0.0,0.0,0.0,0.0,0.0,0.07704343808293496,-0.3666235440104266,0.12891305418272786,-0.3148558263313507,0.014120752692109788,0.011024051656989189,1.055247695444839
7731,4.0,300.29955,1821.8706,0.0,0.0,0.0,0.0,0.0,0.07705340489251877,-0.3530216746680267,0.12223988021663688,-0.3230213758397277,0.03183843076845847,0.027843263644416177,1.038500292491999
7732,4.0,300.5802,1662.4094,0.0,0.0,0.0,0.0,0.0,0.0770633717021026,-0.3649388738641626,0.12712735286899288,-0.2675194161096107,-0.009299633431827362,0.0024655479531306376,1.066857109790599
7733,4.0,299.65154,1585.0216,0.0,0.0,0.0,0.0,0.0,0.07707333851168642,-0.34315222352648767,0.13626196464050885,-0.27491673965716973,0.010116834329603811,-0.034790819658086565,1.067173345146809
7734,4.0,299.56945,1684.0568,0.0,0.0,0.0,0.0,0.0,0.07708330532127024,-0.4183027137632636,0.15446084836159887,-0.24806936103253976,-0.01772985024979998,-0.02104706186443328,1.085696570224909
7735,4.0,299.14885,2060.1669,0.0,0.0,0.0,0.0,0.0,0.07709327213085407,-0.3921233303995596,0.07741445876996222,-0.3115304205631587,-0.01999800147939908,0.01898409479333428,1.072032993951419
7736,4.0,299.97691000000003,2127.6596,0.0,0.0,0.0,0.0,0.0,0.07710323894043787,-0.41822925313101356,0.12777876122578188,-0.35630489883455563,-0.03621167392881396,0.02155040398410928,1.0841185345191688
7737,4.0,300.25639,1949.279,0.0,0.0,0.0,0.0,0.0,0.0771132057500217,-0.37654770052486464,0.13123250525163987,-0.3472169370976437,-0.008353604876586613,0.024909221674348773,1.120033285638679
7738,4.0,300.48152999999996,1687.8291,0.0,0.0,0.0,0.0,0.0,0.07712317255960553,-0.37340855039005466,0.14131643104184588,-0.2809657718266627,0.023027339621371476,0.015985066001603185,1.090131261937579
7739,4.0,301.00948999999997,1752.3516,0.0,0.0,0.0,0.0,0.0,0.07713313936918934,-0.4045579558917616,0.16432379443749584,-0.29243698899128373,0.036430709216181065,0.03413136609550357,1.1315271894730388
7740,4.0,301.01241,2006.1597,0.0,0.0,0.0,0.0,0.0,0.07714310617877317,-0.4280587214236066,0.11723526572021988,-0.2989989992889037,0.009157672127891871,-0.013166728073704885,1.069241692575939
7741,4.0,299.66987,1769.7129,0.0,0.0,0.0,0.0,0.0,0.07715307298835698,-0.38605728576088766,0.14396869423860387,-0.29585995047910374,0.0028309050662385774,-0.03908525627866446,1.0923656810580988
7742,4.0,299.47174,1569.2757,0.0,0.0,0.0,0.0,0.0,0.07716303979794081,-0.33414302171984867,0.15609870635324286,-0.2989763126191647,0.003052917079749457,-0.0071014523905337835,1.060276050391099
7743,4.0,299.03312999999997,1693.145,0.0,0.0,0.0,0.0,0.0,0.07717300660752463,-0.3354517355490087,0.12878234491982787,-0.3080044115401687,0.011738333195733289,0.01917018931995038,1.089550163005229
7744,4.0,299.41547,2000.4019,0.0,0.0,0.0,0.0,0.0,0.07718297341710845,-0.3846303256450576,0.12151104941970689,-0.3449529614717067,-0.0006816758901986723,0.015373559433752185,1.095052921648309
7745,4.0,300.68212,2068.7995,0.0,0.0,0.0,0.0,0.0,0.07719294022669228,-0.43412807939010556,0.1072865885533619,-0.3020219093722417,-0.01780096520806848,-0.02721550251846097,1.0951492817328188
7746,4.0,299.69755,1836.8429999999998,0.0,0.0,0.0,0.0,0.0,0.07720290703627608,-0.38182082629778163,0.1075226960916639,-0.28405628595667276,0.006048321678522874,-0.013658091550698687,1.075813734049549
7747,4.0,299.81554,1648.2224,0.0,0.0,0.0,0.0,0.0,0.07721287384585991,-0.3431155641378697,0.1289284454517469,-0.28683135506555074,-0.004073437553191986,0.015412661768361285,1.054692434390039
7748,4.0,300.25122000000005,1715.7176,0.0,0.0,0.0,0.0,0.0,0.07722284065544374,-0.3420207575373207,0.11337809616704689,-0.2928926576937547,0.004221419285246646,0.006035664664898724,1.076497171241999
7749,4.0,300.02077,1904.6805,0.0,0.0,0.0,0.0,0.0,0.07723280746502756,-0.3377719566879967,0.09380709145203911,-0.33501043473295566,-0.028284644507227074,-0.010902313710474591,1.0594875391632792
7750,4.0,299.49802999999997,1863.9131,0.0,0.0,0.0,0.0,0.0,0.07724277427461138,-0.3704732053803586,0.12155604785664789,-0.3176658728336807,-0.008248226562211582,0.008940652802923731,1.0885613322326388
7751,4.0,298.91822,1685.3915,0.0,0.0,0.0,0.0,0.0,0.07725274108419519,-0.36895047286507665,0.1138480922259319,-0.2572145511350998,0.01775841478336908,0.01934549982575218,1.052834336356659
7752,4.0,299.80892,1670.0073,0.0,0.0,0.0,0.0,0.0,0.07726270789377902,-0.37506990565151765,0.15492730817763486,-0.2874979317763367,0.006441584003359844,-0.03139250851869937,1.0888421038353489
7753,4.0,300.19206,2023.214,0.0,0.0,0.0,0.0,0.0,0.07727267470336284,-0.4148561232831116,0.1095269250544659,-0.3096773482502747,0.01304145388434129,-0.047509773260849555,1.068997397976829
7754,4.0,300.28545,2141.7274,0.0,0.0,0.0,0.0,0.0,0.07728264151294666,-0.40127998036075063,0.11204793183326989,-0.36179960213934065,0.01042521780813889,-0.029759697525803472,1.098692009382459
7755,4.0,300.15622,1884.6052,0.0,0.0,0.0,0.0,0.0,0.07729260832253049,-0.36919071446378665,0.12870368631456489,-0.3323859041914347,0.005388570220410474,0.041864953913999255,1.105522632281589
7756,4.0,300.03156,1792.7651,0.0,0.0,0.0,0.0,0.0,0.07730257513211429,-0.3667623288766237,0.12657353062933488,-0.3047670268081637,0.004421421784060356,0.029227008643481173,1.1291403775374789
7757,4.0,298.9597,1877.5557,0.0,0.0,0.0,0.0,0.0,0.07731254194169812,-0.43867282019613657,0.14682681945817885,-0.27888403936371176,-0.02779967058536387,0.003171018370330147,1.123669637597559
7758,4.0,299.12469,2100.0855,0.0,0.0,0.0,0.0,0.0,0.07732250875128195,-0.4045277509062806,0.08306531404765823,-0.3169111028341907,-0.035102739582120665,0.0038163642491208264,1.085789890559119
7759,4.0,298.46827,1908.0755,0.0,0.0,0.0,0.0,0.0,0.07733247556086577,-0.4122017727911476,0.12830889367810186,-0.2961144485067207,0.006359726162231104,0.024655040794013077,1.075175183836529
7760,4.0,298.50507000000005,1719.4391,0.0,0.0,0.0,0.0,0.0,0.07734244237044959,-0.3230518240052327,0.1214178608080099,-0.3210325786759487,0.008356144993262303,-0.007565513235633022,1.048452840274239
7761,4.0,299.35578,1606.6256,0.0,0.0,0.0,0.0,0.0,0.0773524091800334,-0.3139437188563327,0.1220465824950599,-0.29647691846499374,0.01965128350718068,-0.02277481337844908,1.0481136041407588
7762,4.0,299.19108,1789.6966,0.0,0.0,0.0,0.0,0.0,0.07736237598961723,-0.3499994839922596,0.1056361662604779,-0.29965974981161475,0.011102352584966889,-0.0033561882049049866,1.0608262451953991
7763,4.0,299.77648999999997,1988.1481,0.0,0.0,0.0,0.0,0.0,0.07737234279920105,-0.4144171022797836,0.12226681240429488,-0.3121970985989547,0.02171842415544158,0.01983902355195918,1.074769782471519
7764,4.0,299.61813,1815.2622,0.0,0.0,0.0,0.0,0.0,0.07738230960878487,-0.3988273882286986,0.11288168467805489,-0.26584868828472275,-0.01977688193657628,-0.004600766646460316,1.0759646069894389
7765,4.0,299.65065,1666.9251,0.0,0.0,0.0,0.0,0.0,0.0773922764183687,-0.37598980501980467,0.13636475886315386,-0.26707857125610274,-0.03611301376657696,-0.031725205136033975,1.074316353051769
7766,4.0,299.99838,1902.1631,0.0,0.0,0.0,0.0,0.0,0.0774022432279525,-0.35718605151901867,0.10040911094310771,-0.3214331569704827,-0.016624961810755984,-0.015732611699437883,1.0824478877542887
7767,4.0,298.93392,2218.6044,0.0,0.0,0.0,0.0,0.0,0.07741221003753633,-0.37504797891935365,0.07658616632996613,-0.3759385244322436,0.014632785457893488,0.04007550458814436,1.0817507716854888
7768,4.0,299.69798,2020.1253,0.0,0.0,0.0,0.0,0.0,0.07742217684712015,-0.41638299999130257,0.12769380020489687,-0.3253784387523517,-0.012384492917004289,0.018500031783310982,1.112891898933879
7769,4.0,299.95937000000004,1741.9284,0.0,0.0,0.0,0.0,0.0,0.07743214365670396,-0.38588405039129064,0.13011395820124788,-0.27373265559030974,-0.0009887559643351161,-0.013949533690211785,1.098986257211499
7770,4.0,299.85062,1510.876,0.0,0.0,0.0,0.0,0.0,0.0774421104662878,-0.38847698779469364,0.18424530465359581,-0.25503691455018374,-0.00018601935359118083,-0.0015625064320573786,1.089841675058999
7771,4.0,300.02949,1882.5456,0.0,0.0,0.0,0.0,0.0,0.0774520772758716,-0.40388352649270065,0.12428005929298688,-0.2926433880366537,0.029352404422856773,0.01957126309378328,1.104733107803669
7772,4.0,300.18414,2032.9626,0.0,0.0,0.0,0.0,0.0,0.07746204408545543,-0.3840970419849266,0.13196939138686486,-0.3658422268583167,-0.0015029750502570886,-0.013956175544617287,1.071109821785309
7773,4.0,299.85758,1857.9266,0.0,0.0,0.0,0.0,0.0,0.07747201089503926,-0.37580323527889165,0.13552406525518387,-0.3244841239490897,-0.027543861412117475,-0.03666791511759146,1.105560021210279
7774,4.0,299.99764,1645.489,0.0,0.0,0.0,0.0,0.0,0.07748197770462306,-0.3550752185131956,0.13751004558368488,-0.2826223952101587,-0.0013237250280664888,-0.016117776433450682,1.067272137031559
7775,4.0,298.35127,1725.4969,0.0,0.0,0.0,0.0,0.0,0.07749194451420689,-0.39010384189025166,0.15078676296899485,-0.2851908930211497,0.02223016510519648,0.02110312093946588,1.121651344723369
7776,4.0,298.6064,2032.3222,0.0,0.0,0.0,0.0,0.0,0.07750191132379071,-0.4127804905857626,0.08965274780353732,-0.2946474650119407,0.006932306093040343,0.006493090241718113,1.0544067991868489
7777,4.0,299.93665,1912.339,0.0,0.0,0.0,0.0,0.0,0.07751187813337454,-0.39091212162752265,0.11339004238572589,-0.3037812357858737,-0.016023688055664884,-0.008792088046761532,1.103120621594529
7778,4.0,299.64882,1519.3598,0.0,0.0,0.0,0.0,0.0,0.07752184494295836,-0.2822563687440347,0.1076235448741169,-0.28721460678337474,0.02066662090238668,0.013572377684989386,1.035126270984009
7779,4.0,300.14968999999996,1579.2185,0.0,0.0,0.0,0.0,0.0,0.07753181175254217,-0.32039112043514173,0.11997075728019188,-0.27962261762660373,0.026778132099545875,0.019072204995530084,1.090516094325559
7780,4.0,299.87498999999997,1963.0847,0.0,0.0,0.0,0.0,0.0,0.077541778562126,-0.4006719492407426,0.11212075411795688,-0.30817754558475574,0.005329240070080045,-0.01284857463505559,1.079065861570509
7781,4.0,298.76062,2047.1255,0.0,0.0,0.0,0.0,0.0,0.07755174537170981,-0.4293618623772166,0.12067700273239287,-0.3135901654989397,-0.031124282978727567,-0.03287602622861117,1.0781120892513791
7782,4.0,299.32555,1897.7456,0.0,0.0,0.0,0.0,0.0,0.07756171218129364,-0.4139722854858836,0.12821997084932588,-0.2911149610558097,-0.017723216501395283,-0.012752577294081387,1.0976167483763388
7783,4.0,299.7217,1817.1354,0.0,0.0,0.0,0.0,0.0,0.07757167899087747,-0.37002309942093664,0.14569010483349387,-0.3280308032741197,0.0038253338429810567,0.018819447731584883,1.0832914184625388
7784,4.0,299.92298,1860.7534,0.0,0.0,0.0,0.0,0.0,0.07758164580046127,-0.34302689462161867,0.13042152013660188,-0.3530172062350857,0.03054354780316347,0.00022267065647338274,1.110747557747249
7785,4.0,301.2863,2181.9695,0.0,0.0,0.0,0.0,0.0,0.0775916126100451,-0.41821015336662865,0.10699925109000388,-0.35205334194495963,-0.004555437282036656,-0.03992819828860636,1.0831941464529389
7786,4.0,301.01523,2050.0556,0.0,0.0,0.0,0.0,0.0,0.07760157941962892,-0.44205922362034855,0.14255799678687886,-0.3236644755456967,0.013887448816834486,-0.029376452900730172,1.1488784894854789
7787,4.0,299.68789,1620.6985,0.0,0.0,0.0,0.0,0.0,0.07761154622921275,-0.39027617546725957,0.12381936487001988,-0.2261950645612148,0.01025737698207429,0.008628539753420572,1.085163094047259
7788,4.0,300.35671,1622.5915,0.0,0.0,0.0,0.0,0.0,0.07762151303879657,-0.3956761398876946,0.17173370255129683,-0.26928485242134576,-0.008284914929782441,0.02268972570130158,1.1381649908781388
7789,4.0,300.13858,2098.7172,0.0,0.0,0.0,0.0,0.0,0.07763147984838038,-0.4005710497957846,0.08512861650454032,-0.3225151966197717,-0.046443240391090955,0.0027544142082395174,1.057435099760719
7790,4.0,299.54008999999996,2121.0063,0.0,0.0,0.0,0.0,0.0,0.07764144665796421,-0.36000742615746667,0.0955413733629494,-0.38026690594442164,-0.02212544064111098,0.016015429054099785,1.0764429623616492
7791,4.0,299.07761,1711.3726,0.0,0.0,0.0,0.0,0.0,0.07765141346754802,-0.3491265386336067,0.14275141609846786,-0.3138394148910387,-0.0014309862651023487,0.00926741947537309,1.086754099354279
7792,4.0,299.88338,1613.0311,0.0,0.0,0.0,0.0,0.0,0.07766138027713185,-0.35875498823886065,0.13420000068700888,-0.26576617932907975,0.027039867772627176,-0.025720239213389978,1.072130063310999
7793,4.0,299.80826,1663.5246,0.0,0.0,0.0,0.0,0.0,0.07767134708671568,-0.3896455488700216,0.16950577836391784,-0.28553015955213273,0.017415778182553483,-0.03281851719268547,1.109825398831239
7794,4.0,301.35062,1959.2752,0.0,0.0,0.0,0.0,0.0,0.07768131389629948,-0.42114470804124665,0.11548293073227787,-0.28990895025678576,0.003119589544279517,-5.409054996357165e-05,1.081205845781709
7795,4.0,299.77864,1788.9279999999999,0.0,0.0,0.0,0.0,0.0,0.07769128070588331,-0.3504466008638867,0.1157611286797339,-0.30910398041618775,0.013749526226472587,0.024891971091396275,1.096633794454329
7796,4.0,299.8488,1592.3133,0.0,0.0,0.0,0.0,0.0,0.07770124751546713,-0.3075666976294697,0.13718588661169287,-0.3136426721191217,-0.007613261937320453,0.038501246278777164,1.0885152293530889
7797,4.0,300.06301,1644.9097,0.0,0.0,0.0,0.0,0.0,0.07771121432505096,-0.34189053463446867,0.12369790658053288,-0.2818188372183537,-0.016520600090206287,-0.004006128159649066,1.078432073632959
7798,4.0,299.5303,1985.1477,0.0,0.0,0.0,0.0,0.0,0.07772118113463478,-0.42605151350551057,0.13159940311284987,-0.3089832314017707,0.019818167825150883,-0.007893137117666982,1.105983255777049
7799,4.0,298.80522,2090.1011,0.0,0.0,0.0,0.0,0.0,0.07773114794421859,-0.4577072806121915,0.12037138623723088,-0.2980026704655737,0.016002007543275184,0.014408046585713485,1.0978034903697689
7800,4.0,299.4714,1803.3427,0.0,0.0,0.0,0.0,0.0,0.07774111475380242,-0.4146377070915556,0.14053187148941587,-0.27406531573064075,0.014778078429482788,0.006866991991594343,1.1161398721294291
7801,4.0,298.29775,1706.2878,0.0,0.0,0.0,0.0,0.0,0.07775108156338623,-0.33861159651586265,0.14336712765423384,-0.3234243960670027,-0.018045954896747086,0.004832717326227066,1.074660148810699
7802,4.0,298.75174,2127.2796,0.0,0.0,0.0,0.0,0.0,0.07776104837297006,-0.4074821956803616,0.13412103810671586,-0.37327871252224065,-0.012225270796290289,0.02034901259229118,1.1216098014692688
7803,4.0,299.45735,2292.6317,0.0,0.0,0.0,0.0,0.0,0.07777101518255389,-0.4277811111612086,0.11667338814226688,-0.38579506676750863,-0.007711613260926973,0.024535909940005776,1.1114317042147688
7804,4.0,299.38433,1898.8031,0.0,0.0,0.0,0.0,0.0,0.07778098199213769,-0.4243696905920276,0.14820194169889286,-0.3010209702609567,-0.005983527273053165,-0.0058389466162841646,1.121934649451329
7805,4.0,300.33792,1818.2852,0.0,0.0,0.0,0.0,0.0,0.07779094880172152,-0.38596106753139164,0.11579039134262188,-0.2825426220297857,0.003516338260060567,-0.05243317981475195,1.0856857284488388
7806,4.0,299.89079,1772.2062,0.0,0.0,0.0,0.0,0.0,0.07780091561130534,-0.4034801110978866,0.15032986823390285,-0.2855561798147007,0.027029435349597578,-0.03150097288890397,1.086084746338219
7807,4.0,299.59421000000003,1983.1347,0.0,0.0,0.0,0.0,0.0,0.07781088242088917,-0.3296926043656267,0.08290556402364213,-0.35603639769055667,0.02827147934867777,-0.002311918770318618,1.082623382671609
7808,4.0,301.19212000000005,2092.2695,0.0,0.0,0.0,0.0,0.0,0.07782084923047299,-0.38935955902929664,0.08460481179909482,-0.3312429479461337,0.011884957577953988,0.014502215010257186,1.055323385227309
7809,4.0,300.29627999999997,1747.7253,0.0,0.0,0.0,0.0,0.0,0.0778308160400568,-0.3400878107190537,0.12809391240438486,-0.31927095218458973,-0.015041347149965386,0.0093415530070145,1.0993326874206888
7810,4.0,299.64167000000003,1569.9631,0.0,0.0,0.0,0.0,0.0,0.07784078284964063,-0.3508468751833907,0.12946052334425887,-0.25584321844975977,0.008191886918226293,0.01996770935440948,1.0685151922542389
7811,4.0,299.87534,1784.0402,0.0,0.0,0.0,0.0,0.0,0.07785074965922444,-0.3945893784929397,0.15939299521086384,-0.30710727990162867,-0.008101814759861862,0.0033741709623797468,1.127718990297199
7812,4.0,298.83461,2099.2813,0.0,0.0,0.0,0.0,0.0,0.07786071646880827,-0.4146260547154056,0.12177184986294588,-0.3452748912934787,-0.01996499789714188,-0.019619782574821783,1.093768323171529
7813,4.0,299.47579,2055.4565,0.0,0.0,0.0,0.0,0.0,0.07787068327839208,-0.3812207897210626,0.1161251387781589,-0.3597117901757897,-0.015699215989391984,-0.03363162810643326,1.111553395551779
7814,4.0,299.50928999999996,1820.0927,0.0,0.0,0.0,0.0,0.0,0.07788065008797591,-0.38036125979373364,0.16191391079715883,-0.3348153739562047,0.0020423309155873683,0.01094745096267929,1.118572077669469
7815,4.0,298.12687,1804.2404,0.0,0.0,0.0,0.0,0.0,0.07789061689755973,-0.39947606081021764,0.15039029846986685,-0.29935825724435966,0.017034725217446485,0.026634541388124575,1.111017487573889
7816,4.0,299.80473,2171.2082,0.0,0.0,0.0,0.0,0.0,0.07790058370714355,-0.4646838013932206,0.11245903779634289,-0.3077683040018667,0.023959281467096978,0.008999314714813212,1.118457884383199
7817,4.0,300.09297000000004,2197.5243,0.0,0.0,0.0,0.0,0.0,0.07791055051672736,-0.4583520724458276,0.11245886554382588,-0.32209931824872773,-0.00011987822728105989,-0.007976710695190053,1.102424721425849
7818,4.0,298.96783,1902.9643,0.0,0.0,0.0,0.0,0.0,0.0779205173263112,-0.4115533332571516,0.12046562862903189,-0.28736590528830674,0.02128965116362498,0.0007149802152180534,1.107021938454559
7819,4.0,300.23564,1669.3397,0.0,0.0,0.0,0.0,0.0,0.077930484135895,-0.3336241464761397,0.15417656078104186,-0.3279899996925927,-0.0005784828928443164,-0.001025514479210399,1.0906397108377592
7820,4.0,299.87313,1757.2232,0.0,0.0,0.0,0.0,0.0,0.07794045094547883,-0.36223444855225667,0.14104823387287688,-0.3129657501248147,-0.016418871806666485,-0.0017907143686047484,1.113885491981939
7821,4.0,299.8978,2057.8336,0.0,0.0,0.0,0.0,0.0,0.07795041775506265,-0.37921828328343066,0.10815945285200691,-0.35447118973108266,-0.025748130948892677,-0.0014207957048716186,1.073898286060509
7822,4.0,300.75577000000004,1918.8517,0.0,0.0,0.0,0.0,0.0,0.07796038456464648,-0.4122172147226716,0.1282461228344069,-0.2993119314497877,-0.02039716932979388,0.039514925996819564,1.1101246115857688
7823,4.0,300.29815,1556.359,0.0,0.0,0.0,0.0,0.0,0.07797035137423029,-0.35576408672618165,0.14667832765602387,-0.26400849438060975,-3.401342277061347e-05,0.009677566194576421,1.074007615746299
7824,4.0,300.02248,1731.7383,0.0,0.0,0.0,0.0,0.0,0.07798031818381411,-0.37919346878848165,0.14071432743492285,-0.28792606034108975,0.0026047040741642774,-0.007253573553221974,1.073502003946399
7825,4.0,299.14636,2131.6628,0.0,0.0,0.0,0.0,0.0,0.07799028499339794,-0.3714154469133506,0.07514496599723072,-0.3517017846902637,0.009217526229849012,-0.017062507521938382,1.080838745270479
7826,4.0,298.55662,2022.9662,0.0,0.0,0.0,0.0,0.0,0.07800025180298174,-0.3835306655765296,0.08341819156723453,-0.3148187413776907,0.012320961122484188,-0.004505438962477206,1.0801905691815092
7827,4.0,299.87633,1703.28,0.0,0.0,0.0,0.0,0.0,0.07801021861256557,-0.3618249029943376,0.14693313979117184,-0.30286283602773467,0.015035824936920383,-0.008419405439405623,1.108264487052189
7828,4.0,299.3035,1507.4778,0.0,0.0,0.0,0.0,0.0,0.0780201854221494,-0.35720004450289966,0.15623676167936784,-0.25727233678830275,0.011744958838137188,-0.013952778117031987,1.093094917155069
7829,4.0,298.92361,1646.6423,0.0,0.0,0.0,0.0,0.0,0.07803015223173321,-0.3841479071399467,0.17184990207276482,-0.2882401476070877,0.015047739744846288,0.006446309092551174,1.125946005272219
7830,4.0,299.51338,2034.0884,0.0,0.0,0.0,0.0,0.0,0.07804011904131704,-0.4152479166992786,0.15306469104880888,-0.35612886689468265,0.008444323792489872,0.040538610546349364,1.1276274938131687
7831,4.0,299.51875,2012.8952,0.0,0.0,0.0,0.0,0.0,0.07805008585090085,-0.40510594181084364,0.14451869652538488,-0.35128265378639867,-0.011733891107294888,0.024713200336502976,1.142007133932329
7832,4.0,300.37606,1959.661,0.0,0.0,0.0,0.0,0.0,0.07806005266048469,-0.42235274534047057,0.15609939536331086,-0.3294346511551687,-0.03188976708477497,-0.00891718927433306,1.122828741339569
7833,4.0,300.51122999999995,2051.6197,0.0,0.0,0.0,0.0,0.0,0.0780700194700685,-0.39875164778372363,0.1034541828326329,-0.3283437050375007,-0.029414841907268872,-0.007887323797868252,1.097456249560499
7834,4.0,300.15423,2296.9399,0.0,0.0,0.0,0.0,0.0,0.07807998627965232,-0.4660883788143415,0.08075993803588533,-0.31288393017923977,0.0030424426068407073,-0.007919206624189842,1.101913942050439
7835,4.0,300.45911,2306.1148,0.0,0.0,0.0,0.0,0.0,0.07808995308923615,-0.43641471128827863,0.1003332793056237,-0.36491989568978966,0.0026224982657954274,-0.002722511623540977,1.092390809660579
7836,4.0,300.44291,1720.7741,0.0,0.0,0.0,0.0,0.0,0.07809991989881995,-0.39088781375762366,0.12573574504915186,-0.25792027982974974,0.0028266031102890075,-0.008451137696762352,1.0763197511494889
7837,4.0,299.38479,1300.7385,0.0,0.0,0.0,0.0,0.0,0.07810988670840378,-0.2832612291332067,0.17225193944744285,-0.2843827348738907,0.004410485269106006,-0.01118972919409029,1.081166936977869
7838,4.0,299.38248,1466.5601,0.0,0.0,0.0,0.0,0.0,0.07811985351798761,-0.34057152618429265,0.15493736975112787,-0.26016349396113775,0.02051170002834718,0.0016385565262629384,1.093373864907599
7839,4.0,298.58666,1756.7962,0.0,0.0,0.0,0.0,0.0,0.07812982032757142,-0.31797090164378466,0.0993435366079437,-0.3153947943245427,0.01700864314662238,-0.018912202672239083,1.068539915556679
7840,4.0,299.27491000000003,1893.5103,0.0,0.0,0.0,0.0,0.0,0.07813978713715525,-0.4074630857834756,0.13195892451333188,-0.30007568897766473,-0.005470053361652235,-0.019805717007922084,1.0879438576216989
7841,4.0,299.77204,1928.0588,0.0,0.0,0.0,0.0,0.0,0.07814975394673906,-0.37597493050833664,0.08878260408141081,-0.29888941629058874,-0.013544648069502686,0.005129025700670425,1.096136288655229
7842,4.0,300.34336,1871.4406,0.0,0.0,0.0,0.0,0.0,0.0781597207563229,-0.39894678962048263,0.12126274235020087,-0.29118717539043676,-0.012391361739432187,0.05723399121255515,1.0866336239173888
7843,4.0,300.43766,2186.7447,0.0,0.0,0.0,0.0,0.0,0.07816968756590671,-0.40928427111571264,0.09781426761626659,-0.35324577519264366,-0.023825338923127878,0.02954518538688277,1.118471563259549
7844,4.0,300.98615,2280.7503,0.0,0.0,0.0,0.0,0.0,0.07817965437549053,-0.4405729073136606,0.08418701433236142,-0.33690526308246066,-0.02960333479687167,-0.022601868811630777,1.078645970729069
7845,4.0,300.74374,1835.3823,0.0,0.0,0.0,0.0,0.0,0.07818962118507436,-0.37139830272165864,0.14183268196779586,-0.3283447790826067,-0.01098041401493249,-0.017343991439468683,1.106318844210169
7846,4.0,300.8923,1612.8449,0.0,0.0,0.0,0.0,0.0,0.07819958799465816,-0.38604287734446563,0.14002659406204887,-0.24424831384543177,0.03110700402477227,0.0034150591502900966,1.0876977391724092
7847,4.0,299.46366,1714.9861,0.0,0.0,0.0,0.0,0.0,0.07820955480424199,-0.3632708412845406,0.15562011793350986,-0.31366221771355074,0.03932803404237476,-0.007987812268585692,1.129565942579479
7848,4.0,299.35135,2015.7396,0.0,0.0,0.0,0.0,0.0,0.07821952161382582,-0.42942910165385256,0.14075338822627786,-0.3240587919546127,-0.00011642513173526591,-0.0017595170059758083,1.1129543151400387
7849,4.0,299.36418,2027.7287,0.0,0.0,0.0,0.0,0.0,0.07822948842340963,-0.4005791253990816,0.12441487221879188,-0.3402146493665717,-0.004011090045388766,0.020243408627118882,1.1301213049592886
7850,4.0,299.06251000000003,1846.0409,0.0,0.0,0.0,0.0,0.0,0.07823945523299346,-0.3908813796194886,0.14228387210482488,-0.31255283044406273,-0.0004444391150577256,0.013016845079162589,1.1222055925280687
7851,4.0,299.51427,2021.6178,0.0,0.0,0.0,0.0,0.0,0.07824942204257727,-0.37644387278711766,0.1080607217622629,-0.34613819051117967,-0.015237155705290184,-0.012390377873585089,1.1069788753253091
7852,4.0,300.5465,2207.3759,0.0,0.0,0.0,0.0,0.0,0.0782593888521611,-0.4364805016172716,0.08375208483293721,-0.3182587457321927,-0.013810797460019588,-0.04309269588791796,1.0980600452950888
7853,4.0,301.14885,2152.5287,0.0,0.0,0.0,0.0,0.0,0.07826935566174492,-0.4069665121744676,0.1081092767070549,-0.35545773055844665,-0.005773151828990724,-0.003574791949054497,1.077302198446449
7854,4.0,301.02727999999996,1943.0279999999998,0.0,0.0,0.0,0.0,0.0,0.07827932247132874,-0.39406887191656964,0.1100293045865469,-0.3065924069958147,-0.013878045855906488,0.036559684808159965,1.103512648058219
7855,4.0,300.52877,1599.7249,0.0,0.0,0.0,0.0,0.0,0.07828928928091257,-0.3423857808858457,0.13814442120629286,-0.28203505465719275,-0.004658339922442355,0.031079670590074673,1.064639915921779
7856,4.0,301.34644,1640.8366,0.0,0.0,0.0,0.0,0.0,0.07829925609049637,-0.3363048617357057,0.1310186993480389,-0.2934872024549317,-0.02957620097244377,-0.009222875177126912,1.0997853062403589
7857,4.0,302.19371,1999.9372,0.0,0.0,0.0,0.0,0.0,0.0783092229000802,-0.3801994842827677,0.08844423934301682,-0.31617572644161474,0.004463695996782495,-0.02922756694428627,1.067939666197439
7858,4.0,301.96311000000003,1957.0261,0.0,0.0,0.0,0.0,0.0,0.07831918970966403,-0.39132591270336065,0.13138644833933286,-0.33494762335925665,0.021791000220354274,-0.02007367707636768,1.1114943230709489
7859,4.0,301.50572999999997,1683.9308,0.0,0.0,0.0,0.0,0.0,0.07832915651924784,-0.34024393229446165,0.14124936401772686,-0.3128783370386877,0.030256749388858674,-0.015106230620118883,1.105117940191649
7860,4.0,301.65946,1977.182,0.0,0.0,0.0,0.0,0.0,0.07833912332883167,-0.4036814540252576,0.11883172231277789,-0.3161642159204787,0.013235190343211588,-0.017755152118047086,1.1276193878123688
7861,4.0,300.02007000000003,2213.9141,0.0,0.0,0.0,0.0,0.0,0.07834909013841548,-0.43799200732144555,0.13352286591018087,-0.36850546355365765,0.004610976762417975,0.006070151442652305,1.131320385127629
7862,4.0,299.92127999999997,2259.0191,0.0,0.0,0.0,0.0,0.0,0.07835905694799931,-0.44489083208480656,0.09956148873095391,-0.34135607560422165,0.015038668116700986,0.02455299232344168,1.1135555777493789
7863,4.0,299.83894,2039.1998,0.0,0.0,0.0,0.0,0.0,0.07836902375758313,-0.4117173885808426,0.12534558296564588,-0.33349399450079464,-0.01818115083108988,0.008221480001971902,1.122523043784399
7864,4.0,299.77561000000003,1711.0603,0.0,0.0,0.0,0.0,0.0,0.07837899056716695,-0.38302777941939864,0.1472583728082699,-0.2843501994131797,-0.016092417823197983,-0.026299025909011772,1.084274777684589
7865,4.0,299.13382,1676.1527,0.0,0.0,0.0,0.0,0.0,0.07838895737675076,-0.3543185740010207,0.14669516787268588,-0.3018851510062447,-0.0063292393918972945,-0.028290838505088373,1.073344139580819
7866,4.0,300.19732,1860.8015,0.0,0.0,0.0,0.0,0.0,0.07839892418633458,-0.39484662242832763,0.15278882357658286,-0.3235794030673007,0.002117518126007768,0.004088713109049566,1.1095300364270888
7867,4.0,300.61071,1811.604,0.0,0.0,0.0,0.0,0.0,0.07840889099591841,-0.3839034402883197,0.14755775781531685,-0.3143366876426157,0.004633368069752826,-0.0017748759523166183,1.102390473572469
7868,4.0,300.31445,1670.4422,0.0,0.0,0.0,0.0,0.0,0.07841885780550223,-0.3407739431567697,0.12577907162342786,-0.2927778463249237,0.005162576944606675,-0.010429037761015891,1.1007796085634889
7869,4.0,301.03272000000004,1872.4495,0.0,0.0,0.0,0.0,0.0,0.07842882461508605,-0.3738208925182496,0.11913452197266189,-0.3144915325228977,0.012408181691092188,0.013514610270288186,1.085554917860929
7870,4.0,300.42843,2257.4192,0.0,0.0,0.0,0.0,0.0,0.07843879142466988,-0.4187124315736996,0.07613203675439702,-0.3436186732100227,0.04090278884429096,0.001159357825994709,1.105027760932749
7871,4.0,300.7778,2481.4816,0.0,0.0,0.0,0.0,0.0,0.0784487582342537,-0.44325868882372654,0.06767013084352194,-0.37871988582424265,0.009233845028009552,0.003023596053655697,1.101717067556009
7872,4.0,300.80668,2125.0909,0.0,0.0,0.0,0.0,0.0,0.07845872504383751,-0.42737871914899556,0.092621993121829,-0.3112178531723107,-0.02922935533071277,-0.041881687739400764,1.0971806455332989
7873,4.0,300.37135,1765.6334,0.0,0.0,0.0,0.0,0.0,0.07846869185342134,-0.36821013154701066,0.1152182394086549,-0.28371659386064774,-0.025538236190677677,-0.016152892642166385,1.084096546991999
7874,4.0,298.97917,1693.6295,0.0,0.0,0.0,0.0,0.0,0.07847865866300514,-0.3659908402504837,0.15489903849984485,-0.3037292864532467,-0.03063063563600837,0.0018460191802629083,1.0904789080468889
7875,4.0,300.14673,1816.0454,0.0,0.0,0.0,0.0,0.0,0.07848862547258897,-0.40510803923855065,0.14398375113508988,-0.2909081668429007,0.017628728903070084,0.009114774563708211,1.099602009297269
7876,4.0,300.39237,1846.2279,0.0,0.0,0.0,0.0,0.0,0.07849859228217279,-0.37563208720450064,0.1332507069333209,-0.3188258010181567,-0.013707065981032086,-0.006504387676358084,1.093282773723609
7877,4.0,299.63241,1657.6951,0.0,0.0,0.0,0.0,0.0,0.07850855909175662,-0.36525771327312967,0.16367795895625684,-0.30231816343647966,0.0009058280804382711,0.031601489325324174,1.1178318984714188
7878,4.0,299.8255,1835.9928,0.0,0.0,0.0,0.0,0.0,0.07851852590134044,-0.40381485853342364,0.15560716859723184,-0.30988825625858973,0.03083081940526497,0.015035972871434985,1.125001453528999
7879,4.0,300.28582,2317.8214,0.0,0.0,0.0,0.0,0.0,0.07852849271092426,-0.4326041613722066,0.1050884133889189,-0.37704408161635367,0.005517422195877175,0.018064288644056483,1.1440594720098791
7880,4.0,300.32355,2457.9482,0.0,0.0,0.0,0.0,0.0,0.07853845952050809,-0.4461324687573466,0.07604940924849234,-0.37707182440409165,-0.013013088961041886,-0.008172523810140303,1.1221999183275089
7881,4.0,300.54655,2160.9625,0.0,0.0,0.0,0.0,0.0,0.07854842633009189,-0.4123983027805436,0.09619246254595691,-0.34067280053178767,-0.014244907240112886,-0.01018544129122479,1.123071820038559
7882,4.0,300.83714,1808.3728,0.0,0.0,0.0,0.0,0.0,0.07855839313967572,-0.3787167954114376,0.13996218175319186,-0.3109455624729377,0.005077355518445975,0.00046733710823758156,1.1241005728650888
7883,4.0,300.48781,1748.6591,0.0,0.0,0.0,0.0,0.0,0.07856835994925955,-0.38255766177050166,0.14147964536795385,-0.2904706961122257,0.008872624103134823,-0.019212576611383682,1.1165643225963189
7884,4.0,301.29894,1769.0065,0.0,0.0,0.0,0.0,0.0,0.07857832675884335,-0.42463424006063655,0.1891261506502978,-0.30222572462985675,0.010453971819476689,-0.03498455307720657,1.109555063704559
7885,4.0,300.0887,1681.2685,0.0,0.0,0.0,0.0,0.0,0.07858829356842718,-0.34434963183216266,0.13121696199510588,-0.29793097288849774,-0.0030528642894192474,-0.0031896012758391374,1.074050273575509
7886,4.0,299.95558,1678.5712,0.0,0.0,0.0,0.0,0.0,0.078598260378011,-0.36694716595986565,0.12950616012876287,-0.27280272504603276,-0.0035012115506426766,-0.0016052236377232384,1.086012602931099
7887,4.0,300.04691,1986.8559,0.0,0.0,0.0,0.0,0.0,0.07860822718759483,-0.39176437641913364,0.12791605661433186,-0.3401062620033747,-0.015246096624172586,0.02079011379807448,1.100336007669709
7888,4.0,299.88619,2200.6679,0.0,0.0,0.0,0.0,0.0,0.07861819399717865,-0.3978699783417096,0.08199267431954692,-0.35307079703287464,-0.03404172487240667,0.002099402936744938,1.094967909964919
7889,4.0,300.51583999999997,2259.9982,0.0,0.0,0.0,0.0,0.0,0.07862816080676246,-0.4051336947310826,0.08649228091312351,-0.3683416007474856,-0.015647963772833784,0.02215544905607258,1.131829138002839
7890,4.0,300.26092,2138.5192,0.0,0.0,0.0,0.0,0.0,0.0786381276163463,-0.4078309563647816,0.1097042032919619,-0.35192967477025466,-0.0034581235967652262,0.012740181192357987,1.1358287401225688
7891,4.0,299.7349,1908.024,0.0,0.0,0.0,0.0,0.0,0.0786480944259301,-0.37382529002368364,0.11658874122891288,-0.3227550937134477,0.0040325866528853165,0.010680052234789092,1.139602083494969
7892,4.0,300.86937,2006.8472,0.0,0.0,0.0,0.0,0.0,0.07865806123551393,-0.4126888826442216,0.14137648637527286,-0.3387190314239657,0.024622614764312874,-0.01995645113254838,1.130776573798959
7893,4.0,300.31287000000003,2078.7615,0.0,0.0,0.0,0.0,0.0,0.07866802804509776,-0.4142116354245056,0.13404665541687488,-0.35172661945021466,0.034924026582483066,-0.002125224602293338,1.117066995970929
7894,4.0,299.3321,1984.9331,0.0,0.0,0.0,0.0,0.0,0.07867799485468156,-0.3705538094258137,0.12299086066075288,-0.35580714985543166,0.02374110034956418,0.01049403978143109,1.106003216804019
7895,4.0,300.31095,1872.5946,0.0,0.0,0.0,0.0,0.0,0.0786879616642654,-0.40695787928361565,0.15961417757519283,-0.3218782980044147,-0.01943375593596238,-0.0060093642386780735,1.1258950387921889
7896,4.0,299.78943,1839.6921,0.0,0.0,0.0,0.0,0.0,0.07869792847384921,-0.38589912755277866,0.13221109206571888,-0.30553243593370366,-0.016665543490511085,-0.02105499358621608,1.1031151500439889
7897,4.0,299.60200000000003,2055.9755,0.0,0.0,0.0,0.0,0.0,0.07870789528343304,-0.41709110982368763,0.10787517540395089,-0.31574926973952666,-0.032892470264484074,0.003878898600242486,1.107016973529069
7898,4.0,300.95482999999996,2121.0352,0.0,0.0,0.0,0.0,0.0,0.07871786209301686,-0.40806723615560064,0.1030775881679659,-0.33975210069592165,0.0015944684945367886,-0.003168235478930497,1.1230253118589688
7899,4.0,299.79004,1909.4132,0.0,0.0,0.0,0.0,0.0,0.07872782890260067,-0.4047457719302976,0.1168750857071729,-0.2925432485292707,0.009522505492023122,0.001991568301477488,1.1119685241177488
7900,4.0,299.87827999999996,1854.7188,0.0,0.0,0.0,0.0,0.0,0.0787377957121845,-0.38860368458719763,0.15080501160329585,-0.32598952988766167,0.0021792032722206182,-0.006809126088983424,1.1355688414719187
7901,4.0,299.98554,1829.4469,0.0,0.0,0.0,0.0,0.0,0.07874776252176831,-0.40417574782154064,0.14332091331717287,-0.2952513519390398,0.03620192950260226,0.015290528654307684,1.118495881261949
7902,4.0,299.42003,1838.9661,0.0,0.0,0.0,0.0,0.0,0.07875772933135214,-0.36171377985587067,0.13251955579366187,-0.32980556148677465,0.022877901443623082,0.008083563491110602,1.1139057569839388
7903,4.0,299.68539,2013.7683,0.0,0.0,0.0,0.0,0.0,0.07876769614093597,-0.4060033166294076,0.13037711951721986,-0.3365090924258617,0.005940497885031494,0.008044644149469562,1.1046302629185187
7904,4.0,298.71815,1893.4302,0.0,0.0,0.0,0.0,0.0,0.07877766295051977,-0.38977223553002466,0.1281634720237499,-0.3139467282091297,-0.022372111311705477,-0.04723656253038575,1.0891419245399387
7905,4.0,298.9773,1655.2976,0.0,0.0,0.0,0.0,0.0,0.0787876297601036,-0.37828999420431564,0.16790783229371284,-0.2927869655758237,-0.03243197747828697,-0.011903144403998887,1.065232971205309
7906,4.0,300.30832999999996,1911.9394,0.0,0.0,0.0,0.0,0.0,0.07879759656968742,-0.37641201620397363,0.13023347105054286,-0.3350032913197507,-0.0016350076177876884,0.0061988310642769945,1.1223733867446288
7907,4.0,300.11028999999996,2082.7726,0.0,0.0,0.0,0.0,0.0,0.07880756337927125,-0.4286168094461856,0.13085324573920987,-0.33534732012620366,0.011507402352192189,0.016093106833265987,1.111879459433959
7908,4.0,299.82484,2030.0775,0.0,0.0,0.0,0.0,0.0,0.07881753018885507,-0.3889403065354196,0.13458829839033087,-0.36274087095223667,0.013345183707817088,0.019067529859568683,1.152119065955299
7909,4.0,300.36855,2003.8266,0.0,0.0,0.0,0.0,0.0,0.07882749699843888,-0.4162879267344196,0.11979928496576889,-0.3126246090811467,0.016164148837527283,0.025104145662336274,1.1350280698935489
7910,4.0,299.92186,2039.3251,0.0,0.0,0.0,0.0,0.0,0.07883746380802271,-0.4138275832391026,0.12300119581177289,-0.3290775108924217,0.008867688359247701,-0.015809738270549684,1.1559693150102888
7911,4.0,300.36154,2006.6861,0.0,0.0,0.0,0.0,0.0,0.07884743061760652,-0.39334161165729464,0.11339390286860689,-0.3300347789243967,-0.004911312704683825,-0.022122383665559277,1.130240767146079
7912,4.0,300.04805,2080.3117,0.0,0.0,0.0,0.0,0.0,0.07885739742719035,-0.41604852613329263,0.1098255501239379,-0.3261398252749947,-0.0026149695135773976,-0.02469889425834108,1.1147832315705388
7913,4.0,298.36361,2015.4720000000002,0.0,0.0,0.0,0.0,0.0,0.07886736423677418,-0.42324766809379255,0.15065504045599487,-0.3400605238938607,-0.008804228302834682,0.0022113979769229877,1.101679475977299
7914,4.0,299.64158,1750.7588,0.0,0.0,0.0,0.0,0.0,0.07887733104635798,-0.36105429589578464,0.14612286395120386,-0.3172555166756817,0.01167011714600089,-0.005559193329924665,1.078321629372059
7915,4.0,299.93874,1748.126,0.0,0.0,0.0,0.0,0.0,0.07888729785594181,-0.37928632302764564,0.14063441239953586,-0.29273475279817074,-0.0036011681663826265,0.0027031495287050877,1.089889905763759
7916,4.0,300.13222,1995.6821,0.0,0.0,0.0,0.0,0.0,0.07889726466552563,-0.40341803939676063,0.14602557167660185,-0.3492450584978037,0.024223766087699578,0.0006938594931111003,1.091167918114889
7917,4.0,300.65012,1977.5616,0.0,0.0,0.0,0.0,0.0,0.07890723147510946,-0.3852619857573976,0.0912884303472166,-0.3071558044489177,0.014554835114450385,0.006437997098005843,1.089637505163849
7918,4.0,301.14108999999996,1760.5562,0.0,0.0,0.0,0.0,0.0,0.07891719828469328,-0.37662878079786666,0.15419926771578285,-0.3127356004971007,-0.00012224897920253488,0.006127969925158545,1.127705514070869
7919,4.0,300.18396,1836.4342,0.0,0.0,0.0,0.0,0.0,0.0789271650942771,-0.3832311488469696,0.12753396000162187,-0.30253295219267773,-0.022647947373178375,-0.014997454168883486,1.1262987176320292
7920,4.0,300.15788,2006.0558,0.0,0.0,0.0,0.0,0.0,0.07893713190386091,-0.3850660333205586,0.0993379049638879,-0.3240627436300027,-0.007683184300221253,0.0018271060565463282,1.131587781829019
7921,4.0,299.54017000000005,1969.8087,0.0,0.0,0.0,0.0,0.0,0.07894709871344473,-0.4302428124116596,0.14133138661332187,-0.3098612531434247,-0.007075002611248394,0.0024301383071859777,1.1320176025214388
7922,4.0,299.46078,2053.8648,0.0,0.0,0.0,0.0,0.0,0.07895706552302856,-0.40182167399671165,0.11295465895025689,-0.33545660928198967,0.007343880785609602,0.003284922778996637,1.1016408711484889
7923,4.0,299.53282,2056.7649,0.0,0.0,0.0,0.0,0.0,0.07896703233261237,-0.40201666384595564,0.1153839463300089,-0.33857245466449964,-0.008269683450304212,-0.02267071104992498,1.102953739303059
7924,4.0,298.96358,1832.6862,0.0,0.0,0.0,0.0,0.0,0.07897699914219619,-0.3973716518100286,0.15933796559793284,-0.3190571665459907,0.02081628706140758,-0.008897143843629732,1.0965200064680989
7925,4.0,299.56784,2078.6905,0.0,0.0,0.0,0.0,0.0,0.07898696595178002,-0.4241310093984716,0.11821087357900488,-0.3259498712787477,0.020717429315401083,0.013013476022580087,1.093478027017879
7926,4.0,300.83176000000003,2075.7028,0.0,0.0,0.0,0.0,0.0,0.07899693276136384,-0.4120967798157856,0.13775138149250285,-0.3566164327103017,0.013333169601381386,0.016469383337401586,1.1180653512944592
7927,4.0,301.26268999999996,1781.0713,0.0,0.0,0.0,0.0,0.0,0.07900689957094766,-0.3983443617735276,0.13277020347089888,-0.2758270435470097,-0.008312851450939561,-0.006652440741219784,1.128006246700549
7928,4.0,301.26065,1887.4972,0.0,0.0,0.0,0.0,0.0,0.07901686638053149,-0.3538427821515637,0.09361003254609092,-0.3135192683894427,-0.023078730653193377,0.01068199159548049,1.113494478768349
7929,4.0,300.41673,2133.2714,0.0,0.0,0.0,0.0,0.0,0.07902683319011529,-0.4029312335187166,0.1075811808874359,-0.3531111750493596,0.016547574834368483,0.03698479692736526,1.1264555687475089
7930,4.0,300.89275,2196.4776,0.0,0.0,0.0,0.0,0.0,0.07903679999969912,-0.37989587402280367,0.06919083584535383,-0.3569692970576267,0.013471438723277489,0.016510542569713686,1.119788484414519
7931,4.0,301.14963,2078.072,0.0,0.0,0.0,0.0,0.0,0.07904676680928294,-0.39252547923174863,0.10073789236205591,-0.3398944319374687,0.00952280784585296,-0.007816531762406622,1.112873863082099
7932,4.0,300.5085,1948.0829999999999,0.0,0.0,0.0,0.0,0.0,0.07905673361886677,-0.37101610478393865,0.10694396816454789,-0.3280964517480987,0.0038772469012544764,-0.02199324696681448,1.099412430203559
7933,4.0,299.84949,1768.1285,0.0,0.0,0.0,0.0,0.0,0.07906670042845058,-0.4064508793310786,0.15077148315748687,-0.2817875075252617,0.01824379805827268,-3.734811902897236e-05,1.102068057390649
7934,4.0,299.9463,1840.6664,0.0,0.0,0.0,0.0,0.0,0.0790766672380344,-0.36309967294514767,0.14023105779972786,-0.3366480191470727,-0.017247141955160382,0.017021797159420586,1.089586640008829
7935,4.0,299.41225,1954.096,0.0,0.0,0.0,0.0,0.0,0.07908663404761823,-0.4013511003852696,0.1188854043030759,-0.3115307042731867,-0.003942074338677447,-0.015844827121512684,1.0980585254199389
7936,4.0,299.82905,2003.9954,0.0,0.0,0.0,0.0,0.0,0.07909660085720203,-0.3786402342338816,0.12262912024255189,-0.35315344784353164,-0.009965209456814601,0.016595195562568287,1.118584439320689
7937,4.0,299.82842,1900.8196,0.0,0.0,0.0,0.0,0.0,0.07910656766678587,-0.4022284331168556,0.13921519351446987,-0.3147884451997007,0.01044898156273419,0.001960575210068708,1.124800019409119
7938,4.0,299.59603,2141.9098,0.0,0.0,0.0,0.0,0.0,0.0791165344763697,-0.43385432961058856,0.09818265292862341,-0.3154154240965787,0.022084201362040982,-0.0010573004388224289,1.131586059303849
7939,4.0,300.17782,2335.5916,0.0,0.0,0.0,0.0,0.0,0.0791265012859535,-0.47727230917810953,0.1043615482971829,-0.3370507759293217,0.01057001732692949,-0.025680368835205077,1.141759596932899
7940,4.0,301.15599,2166.9229,0.0,0.0,0.0,0.0,0.0,0.07913646809553733,-0.40458024739396165,0.08292522918158293,-0.3370354150578057,-0.007046531904638554,0.0023696821320194177,1.1148328808254389
7941,4.0,300.9783,1987.6355,0.0,0.0,0.0,0.0,0.0,0.07914643490512115,-0.3765652094865926,0.10682489101279591,-0.3344512524002687,-0.025426135265864177,0.004287504773993776,1.106907947818309
7942,4.0,300.13922,1869.3585,0.0,0.0,0.0,0.0,0.0,0.07915640171470498,-0.3525804245144787,0.13453125240970087,-0.3501891441459777,-0.02318537826596868,0.013171108353887188,1.1113457806062887
7943,4.0,299.32852,1802.7742,0.0,0.0,0.0,0.0,0.0,0.0791663685242888,-0.3666141207844967,0.13142279362041986,-0.3128070042316477,-0.031554558620442465,-0.01981051880014598,1.104892593369409
7944,4.0,298.63976,1820.2542,0.0,0.0,0.0,0.0,0.0,0.07917633533387261,-0.36886952431458764,0.13559420242710588,-0.3200364930326427,0.02207716231359628,-0.006777126232275284,1.0962583852922791
7945,4.0,299.8321,1805.6806,0.0,0.0,0.0,0.0,0.0,0.07918630214345644,-0.39958294856326665,0.14506985391727983,-0.29436873004193176,0.02730848746688787,-0.008487765168002202,1.114752226117479
7946,4.0,300.64243,1852.2320000000002,0.0,0.0,0.0,0.0,0.0,0.07919626895304024,-0.35702371872049765,0.1092352204831769,-0.3152437795296387,0.015608290978418383,0.013438082529985487,1.075877771455869
7947,4.0,299.9924,2116.5598,0.0,0.0,0.0,0.0,0.0,0.07920623576262407,-0.41616497896728566,0.13001889507686587,-0.35723525494387465,0.006615976707221064,-0.007102015048314313,1.112387401709089
7948,4.0,300.25696,2262.4592,0.0,0.0,0.0,0.0,0.0,0.0792162025722079,-0.3891512956037426,0.052806922180387454,-0.35138672470416965,0.026909526319513474,0.015879508645935483,1.090848643008379
7949,4.0,299.92884,1899.8525,0.0,0.0,0.0,0.0,0.0,0.07922616938179171,-0.3851687870131997,0.12762364276797286,-0.3199625764378477,0.005965671070515894,0.027733957263378475,1.143687406573159
7950,4.0,301.29573,1840.2726,0.0,0.0,0.0,0.0,0.0,0.07923613619137554,-0.3767932616865996,0.11701944344891989,-0.29962309042299673,0.002307687944526068,-0.014378026011750686,1.116436551758709
7951,4.0,300.4539,1858.5353,0.0,0.0,0.0,0.0,0.0,0.07924610300095936,-0.4001292626196836,0.13786775326648787,-0.3026868040878617,-0.015452271741270484,-0.03190448555572757,1.143974561651499
7952,4.0,299.31662,1909.8383,0.0,0.0,0.0,0.0,0.0,0.07925606981054319,-0.37748502779487164,0.13647296384133287,-0.3395310804516087,-0.019080609905109583,0.0068757899408876345,1.1021378703225388
7953,4.0,299.60733999999997,2035.3168,0.0,0.0,0.0,0.0,0.0,0.079266036620127,-0.4013441900195876,0.14051897281564288,-0.35786026813555866,0.012194964485799289,0.009100365539336153,1.131661141136259
7954,4.0,300.29017999999996,1936.5199,0.0,0.0,0.0,0.0,0.0,0.07927600342971082,-0.37935404866432965,0.12827793888754688,-0.3375775849213137,-0.007050089223089633,0.02221087383654258,1.098167247155669
7955,4.0,299.96654,1915.5929999999998,0.0,0.0,0.0,0.0,0.0,0.07928597023929465,-0.4166679360519236,0.17710776829917582,-0.3427322820225427,-0.001072652089762519,0.006336545229093323,1.1354986232399888
7956,4.0,300.80817,1988.2431,0.0,0.0,0.0,0.0,0.0,0.07929593704887845,-0.43306056974725055,0.14993102259703986,-0.32124669868708067,0.00960257595997546,-0.0005970726580564835,1.107243840226459
7957,4.0,299.83581000000004,1972.1383,0.0,0.0,0.0,0.0,0.0,0.07930590385846228,-0.42518880197286757,0.12741749703512786,-0.3017094838364077,0.00947954845005859,0.0050022515971837956,1.1212771514614388
7958,4.0,300.49131,1828.3022,0.0,0.0,0.0,0.0,0.0,0.07931587066804612,-0.3776601478096546,0.13493912610495487,-0.31303720452186673,-0.004615295234344176,-0.017239961051701683,1.085029041059029
7959,4.0,301.08917,1921.6611,0.0,0.0,0.0,0.0,0.0,0.07932583747762992,-0.38319262507816765,0.1003535362016229,-0.3012979016457877,-0.027847107915295575,-0.03423249656148437,1.110854050332759
7960,4.0,300.51111000000003,1907.6372,0.0,0.0,0.0,0.0,0.0,0.07933580428721375,-0.35445743992722567,0.1156812744393529,-0.3410978994787417,0.0004303138108461666,0.0025671469459576774,1.0853261259883489
7961,4.0,299.98455,2088.2542,0.0,0.0,0.0,0.0,0.0,0.07934577109679757,-0.39836304610537165,0.09546756417266501,-0.3318816501466687,0.03436960956501637,0.012318945768035288,1.1282386862734888
7962,4.0,299.47931,2045.3552,0.0,0.0,0.0,0.0,0.0,0.0793557379063814,-0.38469621729906067,0.09112907549073951,-0.3281697705253347,0.05089402454184915,0.02237169283941418,1.106718672699629
7963,4.0,299.171,1923.6378,0.0,0.0,0.0,0.0,0.0,0.07936570471596521,-0.39466579781548167,0.13742844855313188,-0.32750050870178365,0.01916306718499748,0.007037571936654273,1.119030168039679
7964,4.0,299.49717000000004,1952.5491,0.0,0.0,0.0,0.0,0.0,0.07937567152554903,-0.3925126920154866,0.12517753543656088,-0.32619100453754574,0.0032204404545577267,0.018530759605843584,1.1018926637983388
7965,4.0,299.12109,1920.5657,0.0,0.0,0.0,0.0,0.0,0.07938563833513286,-0.4063595145695616,0.17186692467444484,-0.34931143651185464,0.00012826765439903187,0.028633758815931974,1.124415592321179
7966,4.0,299.78567000000004,2061.6546,0.0,0.0,0.0,0.0,0.0,0.07939560514471666,-0.3975121895988986,0.11286193643360588,-0.34204124545434267,-0.010673747792666888,0.014308671068905885,1.0896098434361188
7967,4.0,299.43885,1992.5949,0.0,0.0,0.0,0.0,0.0,0.0794055719543005,-0.43389473802457657,0.12950513674616188,-0.30130948309443073,-0.0057943585456336644,-0.015910191885463682,1.1231091076422388
7968,4.0,299.35264,1991.7994,0.0,0.0,0.0,0.0,0.0,0.07941553876388432,-0.42505767727742655,0.13888880539225787,-0.3192884104838127,-0.02328389049369108,-0.018108449123164786,1.1345493092212988
7969,4.0,300.45416,2206.4691,0.0,0.0,0.0,0.0,0.0,0.07942550557346813,-0.4436631377336426,0.09219155232034783,-0.3192399365990287,0.025129795075367677,0.003063349401454047,1.1326029571042089
7970,4.0,300.23269,2310.6986,0.0,0.0,0.0,0.0,0.0,0.07943547238305196,-0.4343874916807076,0.09315994178542042,-0.3611671314269207,-0.0038807252875227662,-0.005848868969213425,1.1361835803075888
7971,4.0,300.12864,2103.7383,0.0,0.0,0.0,0.0,0.0,0.07944543919263578,-0.4006550684940766,0.100787826340234,-0.3396166595550547,0.006699319972996404,-0.02279923371910918,1.1145347826460188
7972,4.0,300.37341000000004,1913.2392,0.0,0.0,0.0,0.0,0.0,0.0794554060022196,-0.35612658708195766,0.12081869562637688,-0.3462690618940957,-0.00941382742737243,-0.01892256619426188,1.1232537997565188
7973,4.0,299.95378,1719.9598,0.0,0.0,0.0,0.0,0.0,0.07946537281180342,-0.37989849834056266,0.16439812646483185,-0.3073244700605637,-0.016911864589821086,0.018934661360705582,1.117458819784599
7974,4.0,299.77891,1822.6729999999998,0.0,0.0,0.0,0.0,0.0,0.07947533962138724,-0.37854250626173663,0.13631354920309988,-0.31181811266405174,-0.030995965999313674,0.04349020910089946,1.117188484657919
7975,4.0,300.35286,2074.0945,0.0,0.0,0.0,0.0,0.0,0.07948530643097106,-0.4205222583723156,0.11731095550268988,-0.3272616349907087,-0.023564441207879278,-0.01240284794256579,1.100410481552059
7976,4.0,299.28784,2020.3796,0.0,0.0,0.0,0.0,0.0,0.07949527324055487,-0.40886150264398863,0.13130928934421787,-0.33659272608911567,-0.001998020272814248,-0.004584613312041106,1.1315806890783189
7977,4.0,299.76649,2130.953,0.0,0.0,0.0,0.0,0.0,0.07950524005013869,-0.42129898550147254,0.11072319852002889,-0.33718071512214565,0.005885558552684405,0.006630275287332224,1.0873148319596189
7978,4.0,299.87917000000004,2294.3599,0.0,0.0,0.0,0.0,0.0,0.07951520685972252,-0.43154097830727856,0.10006717956436172,-0.3659543328493806,0.03450152358228526,0.013805625831509188,1.1231136672676887
7979,4.0,300.20043,2244.8077,0.0,0.0,0.0,0.0,0.0,0.07952517366930634,-0.44138015353582954,0.08647362089928191,-0.3274589451826817,0.024712028006137275,-0.019679880464752983,1.1157496695159188
7980,4.0,299.84912,1951.681,0.0,0.0,0.0,0.0,0.0,0.07953514047889017,-0.3764119959389716,0.12294540626126689,-0.33979571098022565,0.02671432976724908,-0.013857092857088587,1.1560424716675088
7981,4.0,299.78035,1814.9266,0.0,0.0,0.0,0.0,0.0,0.07954510728847398,-0.38422965615801463,0.17079745945889682,-0.33826017098367966,0.005936738423185464,0.014237037326586188,1.162156422770909
7982,4.0,299.30651,1722.0026,0.0,0.0,0.0,0.0,0.0,0.0795550740980578,-0.3206935046624847,0.14118032115591286,-0.3439326084885057,-0.02038105662670368,0.02526429288039158,1.1458447173610689
7983,4.0,299.26022,1811.1682,0.0,0.0,0.0,0.0,0.0,0.07956504090764163,-0.3487649299379187,0.15570991215737184,-0.35749490028199965,-0.02111580987046818,0.008505838510035902,1.136436183557519
7984,4.0,298.72683,2203.257,0.0,0.0,0.0,0.0,0.0,0.07957500771722543,-0.3972436175273926,0.10201334119043291,-0.37450485660075167,-0.009629637742321251,-0.0074105640919157325,1.127752934175549
7985,4.0,298.88297,2246.7214,0.0,0.0,0.0,0.0,0.0,0.07958497452680927,-0.46820114712785554,0.1176553592116799,-0.33240140691796466,0.030623403056794573,0.014935088625228486,1.1162502150653189
7986,4.0,300.12658,2252.029,0.0,0.0,0.0,0.0,0.0,0.07959494133639308,-0.4451927400846025,0.12121951710093488,-0.3605873598522017,0.007418453155869323,-0.002437138142851808,1.127197470470729
7987,4.0,300.67217999999997,2256.5064,0.0,0.0,0.0,0.0,0.0,0.0796049081459769,-0.4621127805894805,0.07943728796484993,-0.3032461181430617,-0.0004961846222946095,0.008421867434498602,1.114374587805209
7988,4.0,300.40047999999996,2108.6123,0.0,0.0,0.0,0.0,0.0,0.07961487495556073,-0.4076004217020296,0.1067878567216409,-0.34015292217047965,-0.015472646174281287,-0.012605976216612988,1.115424720208849
7989,4.0,300.11887,1995.5927,0.0,0.0,0.0,0.0,0.0,0.07962484176514455,-0.3992377443866976,0.10581477185560491,-0.31318736818668674,-0.006298086612272755,0.0012288872505067288,1.122920237823599
7990,4.0,300.20105,1862.3191,0.0,0.0,0.0,0.0,0.0,0.07963480857472838,-0.38133758706008963,0.12839271985887488,-0.3131536573558597,-0.01706917470759638,0.008254862033141451,1.1110095842231091
7991,4.0,300.84135,1818.0419,0.0,0.0,0.0,0.0,0.0,0.07964477538431218,-0.37530000461672663,0.12515778719211187,-0.3024971338016427,-0.019944927439161084,0.003981528676371286,1.111379623159629
7992,4.0,300.79578,1768.7862,0.0,0.0,0.0,0.0,0.0,0.07965474219389601,-0.34849889099166265,0.12457700236729288,-0.3137449597167167,-0.0006827613039707943,-0.006402408309443505,1.128320455556559
7993,4.0,300.37547,2011.2917,0.0,0.0,0.0,0.0,0.0,0.07966470900347984,-0.3826558457051917,0.1088253608177269,-0.3375519902237877,0.02094107489072318,0.03363937946969826,1.114786473970859
7994,4.0,300.39996,2177.9566,0.0,0.0,0.0,0.0,0.0,0.07967467581306364,-0.4114193106664246,0.1272885913574059,-0.3779137035146786,0.005834705961965645,0.028593901609998373,1.125350112888409
7995,4.0,299.97796,2090.939,0.0,0.0,0.0,0.0,0.0,0.07968464262264748,-0.3977588653357436,0.0984149881368031,-0.33624936602772865,-0.019539823969680483,0.01931471222146368,1.095951471836989
7996,4.0,300.02477999999996,2121.8741,0.0,0.0,0.0,0.0,0.0,0.07969460943223129,-0.4392050196786606,0.12537518000106687,-0.3311669035261287,-0.03410702276185107,-0.008197340432914512,1.139924904976829
7997,4.0,299.59841,2280.6366,0.0,0.0,0.0,0.0,0.0,0.07970457624181512,-0.45903964369868555,0.09692411423116531,-0.3311410453835767,0.018326590723943683,-0.0015144177849613985,1.1061116345647188
7998,4.0,299.5661,2076.3776,0.0,0.0,0.0,0.0,0.0,0.07971454305139894,-0.4398520102650136,0.1252518370663939,-0.31656677005270767,0.01971780844249618,-0.004836406164541126,1.160254045708159
7999,4.0,299.70124,1838.6770000000001,0.0,0.0,0.0,0.0,0.0,0.07972450986098276,-0.40329202148182364,0.15417389593327885,-0.30979376055426366,0.01949658352166298,-0.013630530134728588,1.109974245270929
8000,4.0,300.38837,1961.2039,0.0,0.0,0.0,0.0,0.0,0.07973447667056659,-0.35714140771961267,0.11360114291155989,-0.35261674953056366,0.0007470509589031892,-0.037401252850966266,1.1357486933646688
8001,4.0,300.66569,1827.5356,0.0,0.0,0.0,0.0,0.0,0.07974444348015039,-0.37364072651796865,0.14084154098497786,-0.3227259931705757,0.00988711695438247,0.002033723558637888,1.1110301532001388
8002,4.0,301.16086,2063.0676,0.0,0.0,0.0,0.0,0.0,0.07975441028973422,-0.39892154956049164,0.12199762225022788,-0.35019710829176365,0.0055070523917037555,0.004623014477581006,1.138170969053729
8003,4.0,300.7591,2220.7747,0.0,0.0,0.0,0.0,0.0,0.07976437709931805,-0.43260588389737653,0.0979521192791215,-0.3404062954904857,0.007827034302343142,0.03543794298020267,1.1150573157225887
8004,4.0,300.39206,1973.9368,0.0,0.0,0.0,0.0,0.0,0.07977434390890185,-0.37933717805016465,0.12217687632541888,-0.3428671861408567,-0.016870923206280485,-0.008701469543943182,1.1361197455512888
8005,4.0,299.61834,1794.6792,0.0,0.0,0.0,0.0,0.0,0.07978431071848568,-0.3849683661434196,0.14695944376376785,-0.3075287514132247,-0.01783578960075538,-0.008457799512194821,1.1253110014345489
8006,4.0,299.64571,2021.8938,0.0,0.0,0.0,0.0,0.0,0.0797942775280695,-0.3875295178911856,0.12662425392934087,-0.35369996454996866,-0.0049495556005581046,-0.017755316264563285,1.113526193496479
8007,4.0,299.17456,2096.3649,0.0,0.0,0.0,0.0,0.0,0.07980424433765333,-0.4356678953020736,0.13020414759264887,-0.3317788153940197,-0.015198635989488587,-0.002207090042797828,1.1273044696812888
8008,4.0,299.16105,1918.826,0.0,0.0,0.0,0.0,0.0,0.07981421114723715,-0.3917122244364866,0.13639812518894687,-0.3279611017997407,0.00014640826610687088,-0.024881533602116177,1.1153609867775591
8009,4.0,299.49442,1817.6139,0.0,0.0,0.0,0.0,0.0,0.07982417795682097,-0.4129551749030026,0.14537800353769187,-0.2849320785481067,-0.016472903368248987,0.019610515389407182,1.109818103430519
8010,4.0,300.03046,1844.2248,0.0,0.0,0.0,0.0,0.0,0.0798341447664048,-0.3901321723630476,0.15341038158542586,-0.32387648799662067,0.035569622936698464,0.0036645261885105765,1.1361247104767789
8011,4.0,299.99037999999996,1968.6664,0.0,0.0,0.0,0.0,0.0,0.0798441115759886,-0.40544408363421564,0.14462882667875385,-0.3376101609120287,0.01141411849498579,0.01019189468111169,1.1169847200628091
8012,4.0,299.77429,2180.1108,0.0,0.0,0.0,0.0,0.0,0.07985407838557243,-0.39129134060994863,0.11654783632237588,-0.3879557212807486,0.0024303636540082174,-0.009327368924164641,1.145189752496429
8013,4.0,300.4412,2183.2977,0.0,0.0,0.0,0.0,0.0,0.07986404519515626,-0.42270577180781166,0.1011643571701447,-0.3421265712452637,-0.019354938250433683,-0.007234168091281804,1.133396230607499
8014,4.0,301.08172,1965.3077,0.0,0.0,0.0,0.0,0.0,0.07987401200474006,-0.3906621832253556,0.13944113815426887,-0.34618341186314266,-0.007085209180830702,0.008436151930433372,1.1551200087764688
8015,4.0,300.61239,2070.8037,0.0,0.0,0.0,0.0,0.0,0.0798839788143239,-0.42905621548455164,0.12095042827187788,-0.3213668296189367,-0.0005651353290120144,0.025863797500808076,1.144566401034909
8016,4.0,300.68142,2262.9515,0.0,0.0,0.0,0.0,0.0,0.07989394562390771,-0.43543874879195854,0.096694873488791,-0.34913687378462666,0.03816476618556917,-0.0013812634482450886,1.1395810078928887
8017,4.0,299.43242000000004,2015.3524,0.0,0.0,0.0,0.0,0.0,0.07990391243349154,-0.4009568245063576,0.11275261688031689,-0.3244125884920297,-0.007085215969606374,0.01908168192371538,1.137265224789339
8018,4.0,299.85355,1953.2286,0.0,0.0,0.0,0.0,0.0,0.07991387924307536,-0.3818060936413276,0.11456300096648789,-0.3264896194745167,0.0017986035338833485,-0.002200340682556718,1.1135588201496989
8019,4.0,299.43309,2022.2631,0.0,0.0,0.0,0.0,0.0,0.07992384605265918,-0.42892641814674165,0.12473084412997587,-0.3105219124736267,-0.023709884140483375,0.002984258138398347,1.131379660258479
8020,4.0,298.93191,1921.5417,0.0,0.0,0.0,0.0,0.0,0.079933812862243,-0.4032530113529736,0.13436999365628588,-0.3152176883395637,-0.029634255136923273,-0.013991043507058487,1.107593918136009
8021,4.0,299.49029,1856.3470000000002,0.0,0.0,0.0,0.0,0.0,0.07994377967182681,-0.38078711867826265,0.12606010667116388,-0.3095561128758097,-0.013185219888029885,-0.015708619963570085,1.129476067295609
8022,4.0,299.48843,1963.2885,0.0,0.0,0.0,0.0,0.0,0.07995374648141064,-0.37788632549697665,0.11391657780019089,-0.33282092285686765,-0.0013394813710965185,-0.001218097758141889,1.100287472989919
8023,4.0,299.76081,2130.2264,0.0,0.0,0.0,0.0,0.0,0.07996371329099446,-0.3903217007942526,0.09492047497992151,-0.3521344222179617,-0.009716583416177121,0.007057810391501654,1.122567930763829
8024,4.0,300.60147,2142.3661,0.0,0.0,0.0,0.0,0.0,0.07997368010057827,-0.39183818155641764,0.07856613200587352,-0.3379537641534397,-0.013334799920792288,-0.01197160768675569,1.101167582026779
8025,4.0,301.27195,2097.3686,0.0,0.0,0.0,0.0,0.0,0.0799836469101621,-0.40637637505122565,0.09164706312736091,-0.3228183711821927,0.004390859526594096,-0.001023321603343979,1.134481320139589
8026,4.0,299.87359,1945.3401,0.0,0.0,0.0,0.0,0.0,0.07999361371974592,-0.39300074419115366,0.1186602803958579,-0.3169943514624067,0.022647057739590578,0.006548213884258394,1.129223261395659
8027,4.0,300.97909,1954.995,0.0,0.0,0.0,0.0,0.0,0.08000358052932975,-0.41687083938444863,0.12358027837642388,-0.3009791128993257,-0.015531099559300186,0.016172523349603785,1.1479114435900388
8028,4.0,298.80863999999997,2017.6595,0.0,0.0,0.0,0.0,0.0,0.08001354733891357,-0.4107560574159666,0.12254410855916187,-0.32510616831798067,-0.02080570265086298,0.0008950839411479073,1.120964766455609
8029,4.0,300.46263999999996,2184.2392,0.0,0.0,0.0,0.0,0.0,0.08002351414849738,-0.4101180847555036,0.10931971540901589,-0.36315580700068767,-0.025942314251057075,0.002758012259344617,1.139898053849179
8030,4.0,299.82141,2115.3645,0.0,0.0,0.0,0.0,0.0,0.0800334809580812,-0.4012504339878346,0.11620255108579888,-0.35797010444639865,0.016145555698192284,0.017046841662142282,1.127669442367309
8031,4.0,299.91067999999996,2135.0607,0.0,0.0,0.0,0.0,0.0,0.08004344776766502,-0.4241423375345896,0.11733361177492589,-0.34219642470715766,0.006214800392478044,0.01226747570270559,1.1387159962825188
8032,4.0,299.91681,2206.9713,0.0,0.0,0.0,0.0,0.0,0.08005341457724884,-0.4266831229553456,0.1116823511971899,-0.35586340550098366,-0.0008273152818646613,-0.007325892961884343,1.111797791475899
8033,4.0,300.91231,2155.565,0.0,0.0,0.0,0.0,0.0,0.08006338138683267,-0.4090953911645716,0.1134988654464659,-0.3596414199563447,0.018874898856557482,-0.016249305415681585,1.152909502358309
8034,4.0,300.14307,1936.0331,0.0,0.0,0.0,0.0,0.0,0.08007334819641648,-0.36328330426077066,0.1014236498972349,-0.3266460652899567,0.033233010450842766,-0.013772856310025089,1.103881876394659
8035,4.0,301.49231000000003,2073.7729,0.0,0.0,0.0,0.0,0.0,0.08008331500600031,-0.3942130776708016,0.09244314130692771,-0.3286052552858137,0.02191765952260458,-0.003610369490540726,1.130192840416349
8036,4.0,301.15776,1965.9694,0.0,0.0,0.0,0.0,0.0,0.08009328181558413,-0.3891689869504886,0.11096521330641389,-0.3194018235675057,-0.03947165413804896,-0.013850249365913185,1.108408976516449
8037,4.0,301.14981,1880.3046,0.0,0.0,0.0,0.0,0.0,0.08010324862516795,-0.4048706651376236,0.13212530017975188,-0.2988202721037647,-0.023993164550440975,-0.0069268444723513236,1.1509041790853989
8038,4.0,301.36449,2008.0662,0.0,0.0,0.0,0.0,0.0,0.08011321543475178,-0.38294765160149064,0.1084472361454089,-0.33590157806340465,-0.034035788240070766,0.006006692298164374,1.1288359972074389
8039,4.0,300.45765,2052.7374,0.0,0.0,0.0,0.0,0.0,0.08012318224433558,-0.4361933364064306,0.14020786450493886,-0.32799545097813065,-0.009637969495243532,0.017933446645393383,1.1630518318842789
8040,4.0,299.66472999999996,2138.1729,0.0,0.0,0.0,0.0,0.0,0.08013314905391941,-0.39843821913029065,0.11414220833245887,-0.36565516062485465,-0.014599657245873986,0.003381719574299737,1.097023085142749
8041,4.0,300.11601,2145.9079,0.0,0.0,0.0,0.0,0.0,0.08014311586350323,-0.42487005375640957,0.11985295682356589,-0.34728530108189065,-0.025818492049086775,0.014837146857312387,1.131604297805649
8042,4.0,299.96636,1918.4094,0.0,0.0,0.0,0.0,0.0,0.08015308267308704,-0.3738959439531567,0.11696624781866989,-0.3262188587827947,0.011679011455378687,0.012618852598883788,1.113077627677209
8043,4.0,299.68415,1918.05,0.0,0.0,0.0,0.0,0.0,0.08016304948267088,-0.4349555298192686,0.15210016814611785,-0.3001839446183487,-0.0005297975224994445,-0.010939498975894489,1.1431514985952689
8044,4.0,299.82903999999996,1959.9834,0.0,0.0,0.0,0.0,0.0,0.08017301629225469,-0.4052670485767436,0.12937847035116087,-0.31989744472141973,0.03137998474746337,-0.026418190200272373,1.129232684621589
8045,4.0,299.38076,1858.5279999999998,0.0,0.0,0.0,0.0,0.0,0.08018298310183852,-0.40111793127225764,0.14462652660102684,-0.30845471001710967,-0.011518400168777589,-0.03414522533037137,1.158155503426049
8046,4.0,300.02711,2036.6029,0.0,0.0,0.0,0.0,0.0,0.08019294991142233,-0.35725376702320166,0.10972529915904389,-0.37154798002643064,0.004141180313802676,0.00983834294491885,1.128604773534619
8047,4.0,301.31355,2305.3024,0.0,0.0,0.0,0.0,0.0,0.08020291672100616,-0.42988012967086553,0.09493774988087642,-0.36581198134283166,-0.02181524526874708,0.014895812011602186,1.143309970910909
8048,4.0,301.23951,2176.5303,0.0,0.0,0.0,0.0,0.0,0.08021288353058999,-0.4207183020016636,0.12228066353316189,-0.36317323490240766,0.028313500856824974,0.029813889180901772,1.1437657308058888
8049,4.0,300.53011000000004,1948.095,0.0,0.0,0.0,0.0,0.0,0.08022285034017379,-0.4468890524745156,0.15857648788278084,-0.3038596917411167,0.004271233699912946,0.026512657533595576,1.1617595327067387
8050,4.0,300.86526000000003,2038.8021,0.0,0.0,0.0,0.0,0.0,0.08023281714975762,-0.4231346299126366,0.12523075133181288,-0.32184105093073867,-0.006176382812286524,-0.013851578750044384,1.137783096915449
8051,4.0,300.3891,2302.4975,0.0,0.0,0.0,0.0,0.0,0.08024278395934144,-0.4621996769180565,0.11674052609389289,-0.35444260594576166,0.011253517340885689,-0.024239185727721376,1.1579522454559887
8052,4.0,300.50801,2153.2432,0.0,0.0,0.0,0.0,0.0,0.08025275076892525,-0.4065905153273596,0.11602752226352489,-0.3639691833859616,0.01030982990000099,-0.006061639128562204,1.099003685113219
8053,4.0,300.65325,1860.3555,0.0,0.0,0.0,0.0,0.0,0.08026271757850909,-0.38906833068555463,0.14847868056620486,-0.3249119789363157,0.009184539670193491,0.013298940999753286,1.140581693691649
8054,4.0,300.2325,1791.2555,0.0,0.0,0.0,0.0,0.0,0.0802726843880929,-0.36096138086161467,0.13184776084486088,-0.3153833142009097,-0.023431686193027376,-0.01045468920054749,1.1138753594809387
8055,4.0,300.09094,1977.0646,0.0,0.0,0.0,0.0,0.0,0.08028265119767673,-0.43462155245380757,0.15573214286456585,-0.32208885137519466,-0.033565939102450267,0.0011472147328212788,1.160390125196589
8056,4.0,300.37438,2205.9613,0.0,0.0,0.0,0.0,0.0,0.08029261800726054,-0.4139385746550566,0.1029275967556629,-0.3595461541819427,0.0014326565065671886,-0.01211483666789129,1.123360697642069
8057,4.0,300.34686,2025.674,0.0,0.0,0.0,0.0,0.0,0.08030258481684437,-0.4145628076441636,0.13426791884121186,-0.3354594362497687,0.019887815597274584,0.002328312042361508,1.173921168356999
8058,4.0,298.86946,1891.1068,0.0,0.0,0.0,0.0,0.0,0.0803125516264282,-0.3511690988476917,0.14079625883800886,-0.3644764062535207,0.006373176449358544,0.023273453004410978,1.128508312125099
8059,4.0,300.6645,2141.7502,0.0,0.0,0.0,0.0,0.0,0.080322518436012,-0.4178405501276516,0.1196542686114569,-0.35285228964880966,-0.02585880927056577,-0.01018020481470799,1.1555163922155889
8060,4.0,300.25094,2185.5453,0.0,0.0,0.0,0.0,0.0,0.08033248524559583,-0.43826604081099063,0.1150704872790729,-0.3411556344694397,-0.015183142382209485,0.005417229999488975,1.1220892714165889
8061,4.0,301.0065,2203.0151,0.0,0.0,0.0,0.0,0.0,0.08034245205517965,-0.48178660181863553,0.15108748546617387,-0.3389624748929917,-0.023623129666921375,-0.01979003290962418,1.1637947468575989
8062,4.0,301.19691,2064.638,0.0,0.0,0.0,0.0,0.0,0.08035241886476346,-0.4252727801411556,0.13044019433594486,-0.33276581218392864,-0.016307763866950983,-0.02348569039685718,1.106321579985439
8063,4.0,300.29213,1944.0427,0.0,0.0,0.0,0.0,0.0,0.0803623856743473,-0.4045662240125776,0.14741038058827186,-0.3337845844969737,0.007628243650649033,-0.013420101393710887,1.1502472890455688
8064,4.0,299.80773999999997,2100.9213,0.0,0.0,0.0,0.0,0.0,0.08037235248393111,-0.38602680719787963,0.1320450203743289,-0.3846458385040886,0.012070516095267188,0.013822254278900287,1.1248174473108388
8065,4.0,300.75149,2196.4085,0.0,0.0,0.0,0.0,0.0,0.08038231929351494,-0.4289114625752656,0.12440470932028888,-0.36314659655727866,0.05152254459212925,-0.011481672892402888,1.174738658537679
8066,4.0,298.96806000000004,1877.7734,0.0,0.0,0.0,0.0,0.0,0.08039228610309875,-0.3916162392545136,0.14835523630652186,-0.3275352226502097,-0.006720317250843674,0.008968658326412662,1.1479709213709088
8067,4.0,299.77903,1991.4674,0.0,0.0,0.0,0.0,0.0,0.08040225291268258,-0.42215715767366757,0.1293054454164539,-0.3125046605343087,0.02300626604579168,0.029023870236932973,1.175804394992859
8068,4.0,300.13081,2085.0029,0.0,0.0,0.0,0.0,0.0,0.0804122197222664,-0.4070468426423956,0.0937090088423591,-0.3204509832510497,-0.04049578755737306,0.028653862711166073,1.116862319450729
8069,4.0,299.67075,2289.1077,0.0,0.0,0.0,0.0,0.0,0.08042218653185021,-0.4494435269041226,0.0998754513671896,-0.34626350928354765,-0.005983502448425714,-0.0027343070706050973,1.1698950190846489
8070,4.0,300.36482,2226.4196,0.0,0.0,0.0,0.0,0.0,0.08043215334143404,-0.40668251843643966,0.11484833219464789,-0.38494177846079564,-0.038424760081728564,-0.033270763136318666,1.1138033173988289
8071,4.0,300.03331000000003,1957.5467,0.0,0.0,0.0,0.0,0.0,0.08044212015101786,-0.38728062313662165,0.13186874525443187,-0.33963343897671067,0.007453196184573192,-0.024100811227814874,1.144253712054049
8072,4.0,300.33404,1766.9892,0.0,0.0,0.0,0.0,0.0,0.08045208696060169,-0.3434206233454767,0.14824001963765088,-0.34194000150435067,-0.014381755785368787,-0.013167571097788088,1.119969754857409
8073,4.0,300.69827999999995,1965.5096,0.0,0.0,0.0,0.0,0.0,0.0804620537701855,-0.4093001386122786,0.14249974503862986,-0.3306654257866367,0.02125743183694518,-0.017564878948018586,1.150185784764499
8074,4.0,299.82861,2156.6621,0.0,0.0,0.0,0.0,0.0,0.08047202057976932,-0.41120858504312763,0.11016423910236389,-0.35452707047409765,0.014361482677367985,0.006392689923759374,1.127685553043899
8075,4.0,299.33666,2043.1309,0.0,0.0,0.0,0.0,0.0,0.08048198738935315,-0.4331675284278066,0.11942095764343089,-0.3073142159695517,0.02516255750410108,0.006123300058097665,1.1296137679841989
8076,4.0,299.28512,1947.3591,0.0,0.0,0.0,0.0,0.0,0.08049195419893695,-0.37034327632003566,0.1029105842864839,-0.3245158386772197,0.004252915556655086,0.01358303606279129,1.1458786612394187
8077,4.0,299.15777,2036.5546,0.0,0.0,0.0,0.0,0.0,0.08050192100852079,-0.4415954894470816,0.13256719881336387,-0.31003344486541873,-0.026663650036997374,-0.03051183814128397,1.1611816761747091
8078,4.0,299.34322000000003,2310.4132,0.0,0.0,0.0,0.0,0.0,0.0805118878181046,-0.4164233172127816,0.0936073241285736,-0.37949192160543666,-0.039513639169192566,-0.03085369149977227,1.160894318446349
8079,4.0,300.12265,2239.0228,0.0,0.0,0.0,0.0,0.0,0.08052185462768842,-0.45849817297774653,0.1141689277375959,-0.33627776742803167,-0.012002312204535988,-0.027911711728421475,1.1516886373128188
8080,4.0,300.71144,1979.8986,0.0,0.0,0.0,0.0,0.0,0.08053182143727225,-0.39279098115545164,0.1239386142742889,-0.33298737958329566,0.001838199321291148,0.01170961667464919,1.1353750067277888
8081,4.0,300.20499,1794.3435,0.0,0.0,0.0,0.0,0.0,0.08054178824685607,-0.4082954504756236,0.14753447332801886,-0.2846746522277008,0.013277006161588488,-0.02083546079304988,1.123835000013879
8082,4.0,300.11972000000003,1936.3701,0.0,0.0,0.0,0.0,0.0,0.0805517550564399,-0.3909217069734686,0.14838931190738486,-0.3460757743050197,0.01038743877816039,-0.008479885020649492,1.126647579641459
8083,4.0,299.6027,2267.0195,0.0,0.0,0.0,0.0,0.0,0.08056172186602371,-0.45212409017617355,0.12170050692340488,-0.35869372713781467,0.03289611492509377,0.005848179857820415,1.1430775313379689
8084,4.0,300.74318999999997,2246.4387,0.0,0.0,0.0,0.0,0.0,0.08057168867560753,-0.3946819895520796,0.09878884803945022,-0.3869681165407796,0.024312227887680078,0.027816516881526473,1.1505128618967788
8085,4.0,299.47395,1799.1549,0.0,0.0,0.0,0.0,0.0,0.08058165548519135,-0.3971081257240206,0.14198209582754187,-0.2917721348056677,-0.010762084962885091,0.0007372725888131393,1.1454232053194688
8086,4.0,299.9356,1953.3646,0.0,0.0,0.0,0.0,0.0,0.08059162229477516,-0.37992316084799665,0.12294822309654489,-0.3367991251344857,-0.026511539918735273,0.0018867038062281682,1.1602489794576591
8087,4.0,298.36068,2306.1473,0.0,0.0,0.0,0.0,0.0,0.08060158910435898,-0.46640140216773457,0.091495684575671,-0.3261054760966047,-0.017611281749598185,0.0056014158668917045,1.124271913456999
8088,4.0,299.48318,2263.0477,0.0,0.0,0.0,0.0,0.0,0.08061155591394281,-0.4213694773109296,0.10600288173666989,-0.37254338679216964,0.017542404047550485,0.0032557552602930275,1.132277703822109
8089,4.0,299.02558,1877.1815,0.0,0.0,0.0,0.0,0.0,0.08062152272352663,-0.4051173915369736,0.11696267104581688,-0.28246160255178976,0.0046649757986722655,-0.013106713270281886,1.121669988525209
8090,4.0,300.5899,1794.3402,0.0,0.0,0.0,0.0,0.0,0.08063148953311046,-0.3317858574822147,0.12148151317929189,-0.33513028195478367,0.0093109234697416,-0.013162960809833087,1.150395122235159
8091,4.0,300.12698,2060.656,0.0,0.0,0.0,0.0,0.0,0.08064145634269428,-0.42079823730205257,0.13028905795102888,-0.3358787900686557,-0.0004310025574691406,-0.018641108621234182,1.144782425956229
8092,4.0,301.35277,2609.0078,0.0,0.0,0.0,0.0,0.0,0.08065142315227809,-0.45585565724695054,0.08290999496632942,-0.42012757719336363,-0.009847500699322652,0.015981013001203182,1.1653678176378488
8093,4.0,300.30537999999996,2381.0068,0.0,0.0,0.0,0.0,0.0,0.08066138996186192,-0.4731635192276036,0.1114444806037139,-0.36204757483631367,-0.012138870960263289,-0.007444269856492233,1.1510807885778291
8094,4.0,300.46802,1950.8147,0.0,0.0,0.0,0.0,0.0,0.08067135677144573,-0.3877088023638796,0.14320756102848586,-0.34849770548904563,-0.014111368982933687,-0.008943257564955802,1.1583465010698988
8095,4.0,300.1104,2126.3163,0.0,0.0,0.0,0.0,0.0,0.08068132358102956,-0.4438296248575736,0.13004002134145087,-0.3325574676983667,0.006722340103343313,0.021179804720283982,1.1613032661867089
8096,4.0,299.97611,2519.7827,0.0,0.0,0.0,0.0,0.0,0.08069129039061337,-0.45102896946809357,0.09382057477111981,-0.40874261800975564,0.007109268703130192,0.01139168007152129,1.158178098903279
8097,4.0,299.00248,2233.8269,0.0,0.0,0.0,0.0,0.0,0.08070125720019719,-0.44126893920485355,0.0952588913940706,-0.33301755417127366,0.03306385037314797,-0.008998057068789091,1.152812939623779
8098,4.0,299.32583,1592.9975,0.0,0.0,0.0,0.0,0.0,0.08071122400978102,-0.33555115564882065,0.15111829840171484,-0.2997986258703207,-0.0027045230905406474,-0.0009175923396643131,1.137108069698829
8099,4.0,300.10289,1748.5886,0.0,0.0,0.0,0.0,0.0,0.08072119081936484,-0.3801516994080516,0.12675378782212487,-0.27812937068923177,0.02939907472246277,-0.010292138553254991,1.121113714220309
8100,4.0,301.20194,2110.2008,0.0,0.0,0.0,0.0,0.0,0.08073115762894867,-0.4099272289666676,0.12362966418629788,-0.3551507968381547,-0.012130007048388488,-0.006417044707138005,1.094478206191589
8101,4.0,301.28044,2212.0068,0.0,0.0,0.0,0.0,0.0,0.08074112443853247,-0.4378211024270786,0.12110264883440089,-0.35567637979752564,-0.018026169162044383,-0.0027436274516499477,1.1337640403937987
8102,4.0,300.71075,2028.0143,0.0,0.0,0.0,0.0,0.0,0.0807510912481163,-0.37148673919038666,0.13347979264842985,-0.37845875100847065,-0.015461110321892785,-0.005806320672339235,1.1373857002262289
8103,4.0,301.1416,1805.1569,0.0,0.0,0.0,0.0,0.0,0.08076105805770013,-0.3846386545608796,0.15758113177954686,-0.3216651101833747,-0.004067474576353486,0.007755865743144353,1.1587349811582388
8104,4.0,300.51747,1859.4597,0.0,0.0,0.0,0.0,0.0,0.08077102486728394,-0.37233258010886466,0.15050540368122683,-0.3434021315311517,-0.005742012728242535,0.0012515642943697787,1.1535641632479188
8105,4.0,299.74262999999996,2334.3911,0.0,0.0,0.0,0.0,0.0,0.08078099167686777,-0.4523288376238806,0.1038587837300639,-0.36112656089291667,0.01948750682726718,-0.006339476460307614,1.165093530835779
8106,4.0,299.90584,2319.8241,0.0,0.0,0.0,0.0,0.0,0.08079095848645158,-0.44366538714886455,0.11594448641782991,-0.37744770979368863,0.03566058543792576,0.02191228017782368,1.1512960028990689
8107,4.0,299.90091,1834.9726,0.0,0.0,0.0,0.0,0.0,0.0808009252960354,-0.41766554157037955,0.15400850311945585,-0.29412881268325375,0.030926634361221172,0.025203259760618078,1.1417092384029288
8108,4.0,299.99764,1832.5345,0.0,0.0,0.0,0.0,0.0,0.08081089210561923,-0.38655276505978764,0.14825484348661386,-0.31874679790785965,-0.009043588880582732,-0.0027900835501848075,1.1493897754859388
8109,4.0,300.1899,2151.6,0.0,0.0,0.0,0.0,0.0,0.08082085891520305,-0.4463416339754896,0.13359733979253086,-0.34128838036504067,-0.04455392412212996,-0.029254862888730176,1.1474656135460388
8110,4.0,299.68449,2266.2999,0.0,0.0,0.0,0.0,0.0,0.08083082572478688,-0.4088466382650216,0.1037066036975449,-0.3837585353915186,-0.02940844728588777,-0.025889754941869875,1.1752839897414988
8111,4.0,299.31247,2097.1397,0.0,0.0,0.0,0.0,0.0,0.08084079253437068,-0.4013431463719846,0.1021150613679719,-0.3382499979526757,0.002411184045515338,-0.014838733606968985,1.125745483077429
8112,4.0,299.81957,1982.9143,0.0,0.0,0.0,0.0,0.0,0.08085075934395451,-0.3984187545958696,0.1111159849212939,-0.3154536641553527,0.03091040817411977,-0.0021646313172324783,1.144975754075309
8113,4.0,299.98115,1924.9014,0.0,0.0,0.0,0.0,0.0,0.08086072615353834,-0.4068166220871746,0.12496937333601688,-0.3032747019283827,0.005365175998126645,-0.008672197761804282,1.107194190971559
8114,4.0,301.17467999999997,2318.5713,0.0,0.0,0.0,0.0,0.0,0.08087069296312215,-0.4077199649488276,0.08403655175876193,-0.38110435715207164,-0.002479581770990668,0.03283173909324037,1.147424475591979
8115,4.0,300.98922999999996,2404.7468,0.0,0.0,0.0,0.0,0.0,0.08088065977270598,-0.4568352066486246,0.08265150979956892,-0.35679929395584864,0.008259491775498371,0.027008405343772076,1.116958983510269
8116,4.0,301.61084,1985.7492,0.0,0.0,0.0,0.0,0.0,0.08089062658228979,-0.3754994628989116,0.12971966205733387,-0.35783836166839667,-0.0033637348916497867,0.016748555018203683,1.162518659681659
8117,4.0,300.67973,1752.4335,0.0,0.0,0.0,0.0,0.0,0.08090059339187361,-0.37472453935493266,0.13134281779002688,-0.2893143041705987,-0.014821150677983687,-0.015048508801672187,1.1223245480898092
8118,4.0,300.38428999999996,2081.9451,0.0,0.0,0.0,0.0,0.0,0.08091056020145744,-0.3860805094531796,0.11769295079038988,-0.36447174530306065,0.005959318093713905,-0.004415753865650976,1.1640837257861187
8119,4.0,300.46437000000003,2332.9988,0.0,0.0,0.0,0.0,0.0,0.08092052701104126,-0.45778123773699053,0.08815526750724752,-0.33954741404322064,0.005931411463434734,0.015555557390213985,1.124268975031709
8120,4.0,300.45357,2165.2033,0.0,0.0,0.0,0.0,0.0,0.08093049382062509,-0.4036553425701806,0.10745100864708891,-0.36196338388550464,0.022743632633121777,-0.0017716620243244281,1.143532379307859
8121,4.0,299.61578,1733.0322,0.0,0.0,0.0,0.0,0.0,0.08094046063020889,-0.4133753291894686,0.15964683462591583,-0.27307003055491375,-0.005888319152581855,-0.020584448345776878,1.1442067985744189
8122,4.0,300.09005,1956.5337,0.0,0.0,0.0,0.0,0.0,0.08095042743979272,-0.36837069115785664,0.13280255654659187,-0.35916926567474666,-0.0019283957041178379,0.00963542714941762,1.1695628757018688
8123,4.0,300.23242,2482.8548,0.0,0.0,0.0,0.0,0.0,0.08096039424937655,-0.4800397890437385,0.08157457591753382,-0.35626066033518966,0.0033592972615118268,0.013522968570363086,1.161453328526519
8124,4.0,300.26971000000003,2497.794,0.0,0.0,0.0,0.0,0.0,0.08097036105896036,-0.45433754515212454,0.0981564107642835,-0.40308585548397663,0.0058856280616412645,0.014401830296349985,1.153268598193749
8125,4.0,299.90945,1942.8821,0.0,0.0,0.0,0.0,0.0,0.08098032786854419,-0.4219728272154756,0.14297938723846687,-0.3115942046569537,-0.026408960505111472,0.008211851086271602,1.134187781585619
8126,4.0,300.82301,1644.3798,0.0,0.0,0.0,0.0,0.0,0.080990294678128,-0.34447931771246165,0.15245385322602387,-0.3078249142849537,-0.00964057912087608,-0.005592833030594645,1.135581811073199
8127,4.0,301.2228,1934.473,0.0,0.0,0.0,0.0,0.0,0.08100026148771182,-0.4209784742298406,0.12530160791130587,-0.2923546117581537,-0.004512441331268286,0.01084500833781899,1.1313233235529188
8128,4.0,301.19391,2334.871,0.0,0.0,0.0,0.0,0.0,0.08101022829729565,-0.40632081854824265,0.08161767045753691,-0.38503934431292464,0.015257880722835586,-0.008564260585626713,1.1380308365648988
8129,4.0,300.3036,2027.6073,0.0,0.0,0.0,0.0,0.0,0.08102019510687947,-0.42387697746590064,0.11851041057356689,-0.3109754330858857,0.014742328939454586,-0.026302125441067675,1.1442711399557688
8130,4.0,298.68206000000004,1720.4623,0.0,0.0,0.0,0.0,0.0,0.0810301619164633,-0.3529859474695007,0.13085758244963788,-0.30084920410400473,0.007483462471685243,-0.02324470405932368,1.121104088344359
8131,4.0,300.23944,2116.9268,0.0,0.0,0.0,0.0,0.0,0.0810401287260471,-0.4145861123964636,0.08078819048842362,-0.3096949686695137,0.001066223727153089,-0.0028651736912456275,1.120733745432809
8132,4.0,300.25997,2594.5903,0.0,0.0,0.0,0.0,0.0,0.08105009553563093,-0.46785390631858553,0.07661947895350382,-0.3974562581933786,-0.011988139875387289,0.012094223107856888,1.122019053184659
8133,4.0,299.87892,2525.1013,0.0,0.0,0.0,0.0,0.0,0.08106006234521475,-0.47746636683726157,0.07348378501478493,-0.36358517173056265,-0.013868730034487088,0.017947138693994683,1.164676781069649
8134,4.0,299.38288,1922.0839999999998,0.0,0.0,0.0,0.0,0.0,0.08107002915479856,-0.37881775565140163,0.13952689964273288,-0.3449746956863517,0.008796230719795382,0.015476944381205487,1.1551225419017188
8135,4.0,300.33364,1723.2941,0.0,0.0,0.0,0.0,0.0,0.0810799959643824,-0.36635036165096563,0.16268999957875283,-0.3201780035416087,0.004879602333529256,0.033743806038254366,1.1748181986705288
8136,4.0,300.49992000000003,2045.6869,0.0,0.0,0.0,0.0,0.0,0.08108996277396621,-0.39591697930396363,0.12342154261575788,-0.34934232037490265,0.015224232713514786,0.0014019873512153788,1.127263129077209
8137,4.0,300.85682,2426.3512,0.0,0.0,0.0,0.0,0.0,0.08109992958355004,-0.4536353121703196,0.0955229666616328,-0.37943783431509864,-0.006870833324048453,-0.01933298314726688,1.175963576583569
8138,4.0,300.33162000000004,2089.4609,0.0,0.0,0.0,0.0,0.0,0.08110989639313386,-0.45387512820398757,0.14323194995839286,-0.3245007716482327,0.018747445166228782,-0.014830548572661185,1.1586387223987389
8139,4.0,300.31183,1761.648,0.0,0.0,0.0,0.0,0.0,0.08111986320271768,-0.3937267885503086,0.15402775487135587,-0.2957979699704867,-0.0015869579808205584,-0.0024975628059402577,1.1665176538513289
8140,4.0,300.65769,1963.5764,0.0,0.0,0.0,0.0,0.0,0.0811298300123015,-0.4055699394291366,0.13760133941769487,-0.3289095950858497,-0.003251234746296887,-0.03456588624188737,1.1651645596677886
8141,4.0,300.92274,2500.9321,0.0,0.0,0.0,0.0,0.0,0.08113979682188531,-0.48666548211014354,0.12066473227368188,-0.39422017042150165,-0.014873764702676286,-0.02119567728310048,1.179535688486109
8142,4.0,300.33317999999997,2498.1598,0.0,0.0,0.0,0.0,0.0,0.08114976363146913,-0.4580175377928116,0.1092468829918279,-0.4106075453488096,0.00972791175494514,-0.020274504259437783,1.1575979118960187
8143,4.0,300.18942000000004,1882.2643,0.0,0.0,0.0,0.0,0.0,0.08115973044105296,-0.3955079910335996,0.15756577090803087,-0.33421913706736067,0.012884761849126987,0.020980958441159377,1.136617960625459
8144,4.0,300.39432,1711.8102,0.0,0.0,0.0,0.0,0.0,0.08116969725063677,-0.38415519240816565,0.16046499355166183,-0.2966573681753027,0.01073067623628529,0.028287943649552675,1.151940328637659
8145,4.0,300.09947,2113.6596,0.0,0.0,0.0,0.0,0.0,0.0811796640602206,-0.4265778158724525,0.12765359444092889,-0.34357549862326164,-0.02034415203156148,0.018207961428735882,1.1569761816346589
8146,4.0,299.55666,2311.6461,0.0,0.0,0.0,0.0,0.0,0.08118963086980441,-0.4430375976519066,0.1041238296912219,-0.36376892463619764,-0.016925314471648484,0.014798109370709684,1.147680523892249
8147,4.0,299.68147,2065.8457,0.0,0.0,0.0,0.0,0.0,0.08119959767938824,-0.40512775708549664,0.1078761278590449,-0.3307138895389197,-0.022792517897446376,0.035109363198024365,1.147551739804539
8148,4.0,299.75248,1801.6704,0.0,0.0,0.0,0.0,0.0,0.08120956448897207,-0.3321128738194887,0.12003236288627188,-0.3355823130893957,0.0002191433200927618,-0.003915273772207436,1.121278570011579
8149,4.0,300.40987,1988.7575,0.0,0.0,0.0,0.0,0.0,0.08121953129855587,-0.40212030919868463,0.14514502694219886,-0.34755732833623765,-0.015001957052327883,-0.019746099398538282,1.152554560848279
8150,4.0,301.51333,2394.1629,0.0,0.0,0.0,0.0,0.0,0.0812294981081397,-0.44667439544083054,0.11722454553416188,-0.3983158793132166,0.015026342942484587,-0.012908509391720687,1.165519399852809
8151,4.0,301.31277,2274.9284,0.0,0.0,0.0,0.0,0.0,0.08123946491772352,-0.4568965792071816,0.13632027718376388,-0.3709451266144337,0.028685355537524174,0.02050700665388398,1.172602220701829
8152,4.0,301.00362,1761.1276,0.0,0.0,0.0,0.0,0.0,0.08124943172730734,-0.38470487045491464,0.17048661459321882,-0.3211205591821317,0.03502557450750507,0.016125912831753686,1.173796538594699
8153,4.0,299.46107,1832.2818,0.0,0.0,0.0,0.0,0.0,0.08125939853689117,-0.4202764236330536,0.16460040158229483,-0.3012918829401937,-0.011372111172339988,-0.007915462259770304,1.168742345770889
8154,4.0,299.77156,2358.3211,0.0,0.0,0.0,0.0,0.0,0.08126936534647498,-0.4367902116428376,0.12006702617219288,-0.40014755178398864,0.008716090134936122,0.009771581415705001,1.1650924162606688
8155,4.0,300.0898,2477.6766,0.0,0.0,0.0,0.0,0.0,0.08127933215605881,-0.49252024383796356,0.11075462953813091,-0.3713862045154646,-0.014192561726696787,0.018020892155523584,1.1495370007254688
8156,4.0,299.85216,2049.169,0.0,0.0,0.0,0.0,0.0,0.08128929896564262,-0.39171894228464965,0.13264351681089587,-0.36382079290881664,-0.013681836053542087,0.01922191675080548,1.173599765425279
8157,4.0,299.17367,1754.3742,0.0,0.0,0.0,0.0,0.0,0.08129926577522645,-0.4074102751882636,0.16905768877219482,-0.2949333433951547,-0.03681080162019326,0.004913913109740466,1.176300887541859
8158,4.0,300.30303,2053.1282,0.0,0.0,0.0,0.0,0.0,0.08130923258481028,-0.3980725371692006,0.13487306219843487,-0.3609002210855786,-0.012795062870774386,0.004251629235653137,1.184094807311059
8159,4.0,300.37027,2355.3954,0.0,0.0,0.0,0.0,0.0,0.08131919939439408,-0.4466000938109976,0.1065959370201999,-0.37597723058606364,0.004867073192067725,0.029662554198966174,1.1556532823040988
8160,4.0,300.8798,2350.6876,0.0,0.0,0.0,0.0,0.0,0.08132916620397791,-0.4128310416332516,0.09057169572998042,-0.39229097262860463,0.0055634195960917645,0.014312294451263486,1.155790375042629
8161,4.0,300.35323999999997,1829.8383,0.0,0.0,0.0,0.0,0.0,0.08133913301356173,-0.3907397069905066,0.14924532585686687,-0.3147307710040087,-0.007759235509001924,-0.023699820540490177,1.142494203255399
8162,4.0,299.93326,1602.3155,0.0,0.0,0.0,0.0,0.0,0.08134909982314555,-0.3450664252179047,0.14486325222188984,-0.28686071905344873,-0.027191514835593573,-0.01847063537140978,1.1455795498098988
8163,4.0,299.38232,2052.0677,0.0,0.0,0.0,0.0,0.0,0.08135906663272938,-0.4149950398718216,0.1300242855673979,-0.3388065762326057,-0.014531522256149587,0.003360929708747937,1.1292613595994188
8164,4.0,299.95249,2603.6473,0.0,0.0,0.0,0.0,0.0,0.0813690334423132,-0.4793030852935315,0.07430320037065494,-0.38644389133654267,-0.003941605710506196,-0.016308727467796085,1.1552029939596589
8165,4.0,298.75347,2277.632,0.0,0.0,0.0,0.0,0.0,0.08137900025189702,-0.4325509049469506,0.08460894484625271,-0.34440129745476167,0.0030485031596638374,-0.0028784870882845575,1.1202973386147388
8166,4.0,298.46808,1821.184,0.0,0.0,0.0,0.0,0.0,0.08138896706148083,-0.37762877758655866,0.13959148420410686,-0.3155571676530677,0.03222686627379407,-0.009143714101139322,1.1516741478363888
8167,4.0,300.65328,2032.3031,0.0,0.0,0.0,0.0,0.0,0.08139893387106466,-0.4116839614600436,0.12336760731293488,-0.3294530517769847,0.03647968871276497,0.022017501134458183,1.1528692763293389
8168,4.0,300.60981,2231.3391,0.0,0.0,0.0,0.0,0.0,0.08140890068064849,-0.4378779862876926,0.12957401748795988,-0.3699674010629397,0.02311141506166908,0.0101097809943327,1.1837191954989887
8169,4.0,299.82673,2322.17,0.0,0.0,0.0,0.0,0.0,0.08141886749023229,-0.4507670544497446,0.12949558179771886,-0.38461022276307366,-0.01303942941064149,-0.019063627833433582,1.2155092081114187
8170,4.0,300.84373,2062.0151,0.0,0.0,0.0,0.0,0.0,0.08142883429981612,-0.4186867862136686,0.13916766195227886,-0.34728196748906165,-0.02027570090780588,0.018390681832518983,1.1837252749995888
8171,4.0,299.96233,1798.7814,0.0,0.0,0.0,0.0,0.0,0.08143880110939994,-0.3882364827509576,0.16744099757513983,-0.3259891347201227,-0.014769903527675985,0.025074775594937676,1.187847885681459
8172,4.0,299.88827000000003,2077.637,0.0,0.0,0.0,0.0,0.0,0.08144876791898376,-0.4344067940951126,0.14106205460424087,-0.3382050299132377,0.003894716042253546,-0.0075178461005786425,1.128890003437769
8173,4.0,299.87388,2614.8432,0.0,0.0,0.0,0.0,0.0,0.08145873472856759,-0.49622750303884156,0.09091083459145081,-0.38953036259865365,-0.008120735178979164,-0.02721667484882668,1.1532402271909488
8174,4.0,300.21153,2347.6511,0.0,0.0,0.0,0.0,0.0,0.0814687015381514,-0.44652650145623457,0.10360021243704491,-0.37070103466534365,0.021045536923032782,-0.009324241629056,1.121239255907699
8175,4.0,300.16947000000005,1651.6548,0.0,0.0,0.0,0.0,0.0,0.08147866834773523,-0.36244289436282867,0.14744555049924285,-0.28706446338355673,0.05078437061602715,-0.0015625476713364485,1.173746382714749
8176,4.0,300.71018,1702.6368,0.0,0.0,0.0,0.0,0.0,0.08148863515731904,-0.35618382558010664,0.13331599063726388,-0.2946912272837597,0.006111510690534144,0.01723677944638768,1.1544152933319187
8177,4.0,299.80368,2157.6007,0.0,0.0,0.0,0.0,0.0,0.08149860196690287,-0.4045752622034696,0.11939849388871389,-0.3706799590632636,-0.00957825390457506,-0.01158858698995449,1.182408556494639
8178,4.0,298.19642999999996,2243.3949,0.0,0.0,0.0,0.0,0.0,0.0815085687764867,-0.42959360280758757,0.10071322377512132,-0.3530556590763807,-0.03576074622356087,0.005714041148631954,1.138458225457079
8179,4.0,298.49237999999997,2157.8712,0.0,0.0,0.0,0.0,0.0,0.0815185355860705,-0.4159145035425656,0.12064460912669588,-0.36066908860526764,-0.015738883717556884,0.02882413939047107,1.1467870399540687
8180,4.0,299.0327,1958.5266,0.0,0.0,0.0,0.0,0.0,0.08152850239565433,-0.4111442740592806,0.13045679137258287,-0.3146557094366007,-0.026536937032491773,0.0028234295096507974,1.144113072940169
8181,4.0,298.90783,2099.9575,0.0,0.0,0.0,0.0,0.0,0.08153846920523815,-0.41945816338229763,0.1146308481931839,-0.33350731873960965,-0.015612857696619086,-0.012189000495710688,1.1618953082201389
8182,4.0,299.44102000000004,2502.7192,0.0,0.0,0.0,0.0,0.0,0.08154843601482197,-0.45470673295856057,0.0933318295323844,-0.3993892252766476,0.008081731737579822,0.014127076385983884,1.1677391268468789
8183,4.0,300.4635,2266.3438,0.0,0.0,0.0,0.0,0.0,0.0815584028244058,-0.4348612164999606,0.10863652139658989,-0.36268722949194265,0.036514316534932464,0.011484834232714888,1.155024459292039
8184,4.0,300.54564,1638.7493,0.0,0.0,0.0,0.0,0.0,0.08156836963398961,-0.3785812428130596,0.17694462490057483,-0.29650225984999473,0.019310314716029682,0.007092725368747494,1.1553125262954687
8185,4.0,300.6644,1877.3416,0.0,0.0,0.0,0.0,0.0,0.08157833644357344,-0.4143099713467106,0.14018413418759687,-0.2965391421536347,-0.01106559795083949,-0.023105865490871378,1.148115410835169
8186,4.0,300.57612,2461.2924,0.0,0.0,0.0,0.0,0.0,0.08158830325315725,-0.47391129780140356,0.09844580917834492,-0.37270593237321165,0.002949869848554487,0.013529148382722987,1.175693950731959
8187,4.0,299.8905,2448.6901,0.0,0.0,0.0,0.0,0.0,0.08159827006274108,-0.47288232205985153,0.0969820427526324,-0.36844035210223164,-0.015957208716603884,0.02651232113456237,1.1877569971474888
8188,4.0,299.08026,2059.7904,0.0,0.0,0.0,0.0,0.0,0.0816082368723249,-0.3916228051151616,0.11987289758553389,-0.35437494110408363,-0.005177986046827435,0.026581803746919774,1.1835102633283687
8189,4.0,299.41104,1922.0401,0.0,0.0,0.0,0.0,0.0,0.08161820368190871,-0.37992145858782866,0.15289889293494585,-0.35722965167082166,-0.01339026827101659,-0.01145524631654479,1.185452967745099
8190,4.0,299.59202,2154.6456,0.0,0.0,0.0,0.0,0.0,0.08162817049149254,-0.3939226801921416,0.11612131882528189,-0.37715710966500865,0.010659596741770291,0.008015060691599903,1.1653059080567387
8191,4.0,299.48634,2326.236,0.0,0.0,0.0,0.0,0.0,0.08163813730107636,-0.4307440976336326,0.0966498902506015,-0.3730234646895496,0.012218972433668688,-0.004920574418547885,1.139278147437999
8192,4.0,299.57205,2212.9285,0.0,0.0,0.0,0.0,0.0,0.08164810411066017,-0.42616986111719063,0.11516213575061789,-0.36166726154377965,-0.0060065215655225246,0.0024656302290387575,1.1519614042397388
8193,4.0,300.14822000000004,1682.2234,0.0,0.0,0.0,0.0,0.0,0.081658070920244,-0.38584110885205264,0.17302985207921684,-0.29854264157636473,-0.0013777859739018887,-0.028009614992833772,1.150570718477489
8194,4.0,300.60055,1670.1821,0.0,0.0,0.0,0.0,0.0,0.08166803772982782,-0.3601574783647757,0.15186032171494684,-0.2993964871706327,-0.012524963831367687,0.013058737904547089,1.1659004832154187
8195,4.0,300.99351,2136.4813,0.0,0.0,0.0,0.0,0.0,0.08167800453941164,-0.4102242632334826,0.11792038490783588,-0.35713309906879265,0.02283425366906538,0.030963891567398174,1.1562307335360889
8196,4.0,299.69277999999997,2527.8255,0.0,0.0,0.0,0.0,0.0,0.08168797134899546,-0.46816170130146256,0.09436899740099491,-0.3946031384292976,-0.013517773637100385,0.009361890355071642,1.1748467723233489
8197,4.0,299.51963,2237.5253,0.0,0.0,0.0,0.0,0.0,0.08169793815857927,-0.4459151874059026,0.1131697314164829,-0.3474063743363397,0.012130516713188788,-0.02015542710768578,1.133829496350259
8198,4.0,300.05656,1972.3737,0.0,0.0,0.0,0.0,0.0,0.0817079049681631,-0.4183578041712006,0.12767909794594587,-0.30887365853595666,0.012423558774609787,-0.007442796692171843,1.159066921890999
8199,4.0,300.65832,2129.5028,0.0,0.0,0.0,0.0,0.0,0.08171787177774692,-0.42547861176646956,0.13545567087343388,-0.35729273662204764,0.037401196108960665,0.0017427551135465386,1.1597281689062588
8200,4.0,300.20075,2390.4988,0.0,0.0,0.0,0.0,0.0,0.08172783858733075,-0.4500718432911326,0.1219060649711919,-0.39848615599252163,-0.018580937777295782,0.005725872768724645,1.1899875659176289
8201,4.0,299.38351,2318.1219,0.0,0.0,0.0,0.0,0.0,0.08173780539691455,-0.4326151551357916,0.12056474475381389,-0.3926007637141786,-0.006356393278677174,-0.02285582779019458,1.175268081714929
8202,4.0,298.59767,1907.3775,0.0,0.0,0.0,0.0,0.0,0.08174777220649838,-0.39071783092084766,0.15643126516856384,-0.3455085670315407,-0.030201896081445075,-0.004631858124453806,1.162596781264369
8203,4.0,299.58153,1865.8124,0.0,0.0,0.0,0.0,0.0,0.08175773901608221,-0.3814262667088416,0.13571860927438387,-0.3214527329624147,0.002006037310255468,0.0050405053348341455,1.1406793710012888
8204,4.0,299.68838,2187.1521,0.0,0.0,0.0,0.0,0.0,0.08176770582566602,-0.4376485459350486,0.11441651539953089,-0.34160759467654467,0.004347950006059256,-0.016367751312621283,1.1389066899513387
8205,4.0,299.66949,2580.956,0.0,0.0,0.0,0.0,0.0,0.08177767263524985,-0.48951752782911856,0.09339702508356872,-0.3884256768096296,0.0002834550841423387,-0.026464081310551477,1.172163990033579
8206,4.0,299.55795,2291.364,0.0,0.0,0.0,0.0,0.0,0.08178763944483367,-0.45182319542647753,0.09602967986439151,-0.3407239392643347,0.006798698934854343,0.012468624086057386,1.174499328864059
8207,4.0,300.1,1789.9782,0.0,0.0,0.0,0.0,0.0,0.08179760625441748,-0.3547438553329927,0.14086256592455287,-0.3302273977684067,0.019943801718299983,0.023142215838208875,1.1924243310831188
8208,4.0,300.09758,1989.4073,0.0,0.0,0.0,0.0,0.0,0.08180757306400131,-0.37392076858060663,0.1075485643667169,-0.33835793948582865,-0.004063171607153817,0.04310368458525246,1.155638590177649
8209,4.0,300.53961,2563.2283,0.0,0.0,0.0,0.0,0.0,0.08181753987358513,-0.43963235790833555,0.07938769849170582,-0.41891273085346764,-0.014492264894275185,-0.003429106748351487,1.166368402111599
8210,4.0,299.58957000000004,2344.4145,0.0,0.0,0.0,0.0,0.0,0.08182750668316896,-0.45830166325335253,0.09918883560917591,-0.35353065045825866,-0.007222536790733884,-0.0008712450236601891,1.128735077497479
8211,4.0,300.12239,1677.6577,0.0,0.0,0.0,0.0,0.0,0.08183747349275276,-0.36348761601093466,0.15766029700985987,-0.3041387306861557,-0.015762224946860484,-0.003248056383383207,1.1585916062690889
8212,4.0,299.43982,1520.8239999999998,0.0,0.0,0.0,0.0,0.0,0.0818474403023366,-0.37740368407684366,0.18317671083313383,-0.2680655579135107,-0.00980605248808203,-0.014668786233946487,1.162130584893359
8213,4.0,300.06777999999997,2223.1577,0.0,0.0,0.0,0.0,0.0,0.08185740711192042,-0.42229783731755155,0.12316176555511987,-0.37664834665729763,-0.0014728203219810485,-0.031215475487727573,1.184771861027879
8214,4.0,298.95582,2528.9397,0.0,0.0,0.0,0.0,0.0,0.08186737392150423,-0.46358516470729355,0.08742440210411671,-0.3925737504665126,0.02318532760346368,0.00025458722402330275,1.1660993842100489
8215,4.0,299.04082999999997,2267.0112,0.0,0.0,0.0,0.0,0.0,0.08187734073108806,-0.41651935305725957,0.1049837953160939,-0.3775792296566687,0.026054839727662475,0.01011758930225332,1.1641511069177688
8216,4.0,299.18487000000005,1923.0215,0.0,0.0,0.0,0.0,0.0,0.08188730754067187,-0.42526042862243657,0.13715133478328287,-0.29644142431399073,-0.0013236144824805788,0.022354227447440478,1.1642728995797889
8217,4.0,300.7399,2054.9235,0.0,0.0,0.0,0.0,0.0,0.08189727435025569,-0.41196239245502264,0.12935899568423886,-0.34204202565691966,-0.008839109944152232,-0.002173021230710498,1.167470615570379
8218,4.0,300.61987999999997,2406.512,0.0,0.0,0.0,0.0,0.0,0.08190724115983952,-0.4753520786485976,0.11441034470642189,-0.3705778133206826,0.002099739437103148,0.001241873266438349,1.1957613689624589
8219,4.0,300.82974,2308.9746,0.0,0.0,0.0,0.0,0.0,0.08191720796942334,-0.4263737371698116,0.12651279641834087,-0.40200969268526765,0.01173336016424249,0.02344240435258518,1.1790590556390688
8220,4.0,299.86149,1688.8928,0.0,0.0,0.0,0.0,0.0,0.08192717477900717,-0.34259195701619366,0.16186793964012183,-0.3326572120382107,-0.011728587756271489,0.004603090130264626,1.1638187608849688
8221,4.0,300.13451000000003,1581.6981,0.0,0.0,0.0,0.0,0.0,0.08193714158859097,-0.32553394224519866,0.15748325181988687,-0.3127460471056317,-0.02057815910240618,-0.010039546955701141,1.1555356439674889
8222,4.0,299.8557,2207.8373,0.0,0.0,0.0,0.0,0.0,0.0819471083981748,-0.4557274709767996,0.13193369458584187,-0.34733363311166066,0.0028066971027994373,0.003269829810807077,1.1568759711997687
8223,4.0,298.65999,2301.2834,0.0,0.0,0.0,0.0,0.0,0.08195707520775863,-0.44999888928393256,0.12152238768832588,-0.3710561889578946,-0.004347413996756356,-0.007455715934921873,1.1517593621697988
8224,4.0,298.51572000000004,1969.2334,0.0,0.0,0.0,0.0,0.0,0.08196704201734244,-0.43087022700608063,0.14482625846073888,-0.31255381329665965,-0.0033331032265516767,-0.0007268311377251484,1.184584916384429
8225,4.0,300.41691000000003,1884.0625,0.0,0.0,0.0,0.0,0.0,0.08197700882692627,-0.4060023135118086,0.15340319764221685,-0.3201088390897827,-0.015249064433715487,-0.015848357284861087,1.1754495548078387
8226,4.0,300.38332,2152.4857,0.0,0.0,0.0,0.0,0.0,0.08198697563651008,-0.4087693070173896,0.10848047074868888,-0.35401305883086864,0.014060266727390285,0.006355236147062974,1.1779345506780887
8227,4.0,300.67272,2473.5951,0.0,0.0,0.0,0.0,0.0,0.0819969424460939,-0.4452822100684326,0.08004879554595101,-0.38667773932712163,0.014723630422109184,-0.0014478104724127685,1.161995721305049
8228,4.0,300.19228,2507.8561,0.0,0.0,0.0,0.0,0.0,0.08200690925567773,-0.44485570270383956,0.08649481809137391,-0.40396474862071663,0.007776637268869342,-0.0031816906296584166,1.1884745808683088
8229,4.0,301.35303,2059.175,0.0,0.0,0.0,0.0,0.0,0.08201687606526155,-0.4090255478351786,0.12590079335794088,-0.34281303805551266,-0.009149308558916451,-0.006015394697973234,1.1581504371755489
8230,4.0,300.44874,1876.1906,0.0,0.0,0.0,0.0,0.0,0.08202684287484538,-0.4047683066125216,0.1427753389333289,-0.30832213637402567,-0.010164179251126391,0.0015607000097790985,1.183998447226549
8231,4.0,300.39477999999997,2257.9463,0.0,0.0,0.0,0.0,0.0,0.08203680968442918,-0.44930351600530455,0.12605775593093188,-0.3631135139415137,0.0048878991293230855,0.0052944349291450445,1.150304031051169
8232,4.0,299.95454,2548.1793,0.0,0.0,0.0,0.0,0.0,0.08204677649401301,-0.4621719645278215,0.0915374659435445,-0.4039483947641026,0.005084356367361906,-0.02052749558415608,1.1641031801880388
8233,4.0,300.21332,2227.5099,0.0,0.0,0.0,0.0,0.0,0.08205674330359684,-0.43039572198425063,0.1142441818225229,-0.36095585864856966,-0.005316898177236995,0.020305107452208083,1.140378131746559
8234,4.0,299.86904,1923.1470000000002,0.0,0.0,0.0,0.0,0.0,0.08206671011318065,-0.39607356697441765,0.1211710128186479,-0.30968610273113867,-0.0035173328663587263,0.024034445372765077,1.144198591248609
8235,4.0,299.6572,2131.4701,0.0,0.0,0.0,0.0,0.0,0.08207667692276448,-0.4205045264955656,0.12152314762590087,-0.3489323188544387,0.0062266992923773745,0.028004588259087675,1.1661236008874387
8236,4.0,298.64999,2235.9525,0.0,0.0,0.0,0.0,0.0,0.0820866437323483,-0.4464831647494576,0.11244572369002889,-0.3456362770741447,0.008865039520836282,-0.026849850954873973,1.186193450918179
8237,4.0,299.84337,2264.2564,0.0,0.0,0.0,0.0,0.0,0.08209661054193211,-0.41817668571582556,0.11902376360423088,-0.3891244748735956,0.004855487690424326,-0.015313840499358385,1.1731128987522288
8238,4.0,300.77204,2175.4621,0.0,0.0,0.0,0.0,0.0,0.08210657735151594,-0.42410706629860856,0.1272715484907239,-0.36445064943597866,0.028382022908087574,-0.003339968299954207,1.1721299448302187
8239,4.0,300.00655,1950.3870000000002,0.0,0.0,0.0,0.0,0.0,0.08211654416109976,-0.39075336560185464,0.13666325221011286,-0.3387788233123667,0.015206672076031685,-0.0004950161220142875,1.1697220572925788
8240,4.0,299.3448,2105.2027,0.0,0.0,0.0,0.0,0.0,0.08212651097068359,-0.41518750672831656,0.14501005189637786,-0.3697515889241406,0.012906038074726787,-0.012693273792228588,1.1704876690681387
8241,4.0,300.15421000000003,2507.3348,0.0,0.0,0.0,0.0,0.0,0.08213647778026739,-0.4667747240345786,0.1062779690063189,-0.4016704058892826,-0.025332906124163175,0.0014941220814833685,1.186005290374609
8242,4.0,300.26391,2283.7884,0.0,0.0,0.0,0.0,0.0,0.08214644458985122,-0.4597653030228026,0.13332012469767188,-0.36776946907852065,-0.029858361741040867,0.01767572952220868,1.1830406219070189
8243,4.0,300.3418,1894.9314,0.0,0.0,0.0,0.0,0.0,0.08215641139943504,-0.39362386260515064,0.14089597278034988,-0.32328394947064165,-0.039110157913122064,0.0076426097132168535,1.1755709421698188
8244,4.0,300.58923,2070.3071,0.0,0.0,0.0,0.0,0.0,0.08216637820901886,-0.44141984254224653,0.14734301972162386,-0.3352448298785887,-0.0028117862527516973,-0.016394560897017182,1.1609021204721188
8245,4.0,300.96528,2561.7533,0.0,0.0,0.0,0.0,0.0,0.08217634501860267,-0.4710576106172666,0.09998643569039291,-0.4076378511607236,0.0043224549110180855,-0.02045845880184268,1.182419094295679
8246,4.0,300.78947,2452.6845,0.0,0.0,0.0,0.0,0.0,0.0821863118281865,-0.4540284633416205,0.10002751690244731,-0.39155390410836166,0.025639117397133874,0.002171586367243888,1.158353188520559
8247,4.0,300.27983,2031.0584,0.0,0.0,0.0,0.0,0.0,0.08219627863777032,-0.37598599519942866,0.13303794467732286,-0.37444297741714466,0.004348404347404095,0.014001484036088885,1.195720534983429
8248,4.0,299.96664,1896.2366,0.0,0.0,0.0,0.0,0.0,0.08220624544735415,-0.3849453147036446,0.14691866044724286,-0.33838192311569565,0.005704805677945484,-0.0054358138169230555,1.187429109415129
8249,4.0,299.51637999999997,2283.4361,0.0,0.0,0.0,0.0,0.0,0.08221621225693797,-0.4139611093372806,0.09386097710560723,-0.37400742172915863,-0.008538685342502631,0.006620701999062415,1.179929437474969
8250,4.0,299.88543,2539.715,0.0,0.0,0.0,0.0,0.0,0.08222617906652178,-0.4854515679603396,0.07131824663606294,-0.3578766219921726,0.014076704683762587,-0.011223204950894091,1.142037632760339
8251,4.0,299.7186,2201.3971,0.0,0.0,0.0,0.0,0.0,0.0822361458761056,-0.42355957687207557,0.10905823608820991,-0.35466838846554466,-0.010981155714005689,0.010795840376716489,1.146031560679509
8252,4.0,299.39216,1808.6734,0.0,0.0,0.0,0.0,0.0,0.08224611268568942,-0.39255661640732165,0.14684276801475288,-0.3040777127651337,-0.004754577606340275,-0.011871589769384688,1.136564967645229
8253,4.0,299.85392,2094.7167,0.0,0.0,0.0,0.0,0.0,0.08225607949527325,-0.4013134176140506,0.13402480974471886,-0.36945296385466864,0.003120896231608477,0.017667127028859683,1.167374458135889
8254,4.0,299.91155,2520.5102,0.0,0.0,0.0,0.0,0.0,0.08226604630485707,-0.46314522164637456,0.1024666895501749,-0.4054936315641056,0.02220701943316218,0.01892964374621038,1.1667311456473988
8255,4.0,300.00694,2340.0460000000003,0.0,0.0,0.0,0.0,0.0,0.0822760131144409,-0.44291060701687357,0.12379066962718789,-0.39219560552919264,0.01108207846371599,-0.002018074316143428,1.1884934273201688
8256,4.0,300.31433,1905.1505,0.0,0.0,0.0,0.0,0.0,0.0822859799240247,-0.41750622825715655,0.16325637598714984,-0.3248683281220077,0.02743209587308708,-0.03742794185860026,1.179258564583759
8257,4.0,300.42385,1992.8463,0.0,0.0,0.0,0.0,0.0,0.08229594673360853,-0.4095929577586776,0.12900929267722588,-0.3251918487464367,0.013001687870916686,-0.001097421799057099,1.186288696427579
8258,4.0,299.87264,2439.5874,0.0,0.0,0.0,0.0,0.0,0.08230591354319236,-0.45413143994928357,0.10058223586844381,-0.3880244297700296,0.029028857453925173,-0.004895093407683106,1.1810768418882092
8259,4.0,299.89313,2544.7478,0.0,0.0,0.0,0.0,0.0,0.08231588035277616,-0.47402303902243154,0.1051323276482529,-0.4046490774732546,-0.01034668281938809,0.004687372780207676,1.187342172556549
8260,4.0,301.05382000000003,2110.0249,0.0,0.0,0.0,0.0,0.0,0.08232584716236,-0.4126463160075206,0.12110844462497289,-0.34985701089569865,-0.02936281658088437,-0.0016644810366964885,1.199884486269379
8261,4.0,300.84114,1873.7561,0.0,0.0,0.0,0.0,0.0,0.08233581397194381,-0.4158734365160126,0.17005220387784584,-0.3237538442045167,-0.026301749525280575,0.005907479813297864,1.1764618929827488
8262,4.0,299.30189,2241.6087,0.0,0.0,0.0,0.0,0.0,0.08234578078152763,-0.4548878514139356,0.12580327816831688,-0.3523084985851417,0.005007501549926925,-0.005980267546156454,1.1578311620690387
8263,4.0,298.55701,2591.3179,0.0,0.0,0.0,0.0,0.0,0.08235574759111146,-0.4836592703884536,0.09442760682652922,-0.3984642900553636,-0.004176860193549006,-0.028258759006922374,1.1525882007515988
8264,4.0,298.86785,2415.5864,0.0,0.0,0.0,0.0,0.0,0.08236571440069528,-0.42836964734929256,0.1014018346225819,-0.4073101356808806,0.01833046336582588,-0.03341521612357507,1.182953887698459
8265,4.0,300.10969,1937.1142,0.0,0.0,0.0,0.0,0.0,0.0823756812102791,-0.4015724853996186,0.14907821051787384,-0.33634008230918166,-0.0005330271862656875,0.004520918485579916,1.1664930318738989
8266,4.0,300.27106000000003,1946.6825,0.0,0.0,0.0,0.0,0.0,0.08238564801986291,-0.37281554576902964,0.1283958508016839,-0.34732318650312966,0.0002164402120059858,0.01981957016328928,1.1792834905362188
8267,4.0,300.23927000000003,2266.1044,0.0,0.0,0.0,0.0,0.0,0.08239561482944674,-0.4443729092961916,0.1146948248044979,-0.3591610583489367,-0.016287175638169088,0.03598846303778477,1.1840204347537189
8268,4.0,300.49206000000004,2442.1967,0.0,0.0,0.0,0.0,0.0,0.08240558163903057,-0.4465661600651486,0.08915053039147232,-0.38495118142172363,0.001929697426521308,0.012688115335969488,1.183940894620869
8269,4.0,301.44552000000004,2247.424,0.0,0.0,0.0,0.0,0.0,0.08241554844861437,-0.41824113855468664,0.09587514199888982,-0.36079478228017264,0.03507071074645967,0.03448968476811687,1.1547888786437888
8270,4.0,301.66715,2005.675,0.0,0.0,0.0,0.0,0.0,0.0824255152581982,-0.37844543690215665,0.12718079167926688,-0.3584104730723596,0.023026022396241477,-0.006129577142467165,1.165262236977429
8271,4.0,300.23163999999997,2092.9035,0.0,0.0,0.0,0.0,0.0,0.08243548206778202,-0.41754083074807163,0.13495238954876387,-0.3536019731327976,-0.0009392988013890741,-0.033039601271754766,1.171964886388929
8272,4.0,299.49415,2438.3792,0.0,0.0,0.0,0.0,0.0,0.08244544887736584,-0.45635696273392556,0.10426221938987991,-0.3891116471273296,-0.014781268140797586,-0.03726965395447847,1.1823282057617088
8273,4.0,299.51555,2352.0628,0.0,0.0,0.0,0.0,0.0,0.08245541568694967,-0.49652610784331147,0.14273465694181386,-0.36117690929038565,-0.014268359926927486,0.02235358403362698,1.1880995770062988
8274,4.0,298.84119,1977.0102,0.0,0.0,0.0,0.0,0.0,0.08246538249653348,-0.45246717666003355,0.15376221241764884,-0.3022567503479187,-0.003370191219961977,0.034339526169547364,1.1634203509456489
8275,4.0,298.58496,2001.7516,0.0,0.0,0.0,0.0,0.0,0.08247534930611732,-0.3901287779752126,0.14140243571033387,-0.35975615026516766,-0.006412071067697144,0.015664590193724685,1.1678616287839687
8276,4.0,299.7381,2401.6386,0.0,0.0,0.0,0.0,0.0,0.08248531611570112,-0.4506598424566636,0.11008396942944189,-0.38946229245693564,0.011475112098005388,-0.0030195247134288876,1.1813118145863988
8277,4.0,299.99993,2511.228,0.0,0.0,0.0,0.0,0.0,0.08249528292528495,-0.4363706349089286,0.10406211262763089,-0.43104208435554153,0.008415384964333831,-0.01021954222334029,1.1941855624069388
8278,4.0,300.42445,2196.0772,0.0,0.0,0.0,0.0,0.0,0.08250524973486878,-0.4254907910326716,0.11448045148084089,-0.35654229320048464,0.0074044839833656735,-0.016088675890578684,1.1886666930872687
8279,4.0,300.36497,1896.3703,0.0,0.0,0.0,0.0,0.0,0.08251521654445258,-0.3984328286397586,0.13687404876091686,-0.3148904186897647,-0.016412281628016088,-0.023764250074598876,1.1861391407128188
8280,4.0,300.57462999999996,2033.1316,0.0,0.0,0.0,0.0,0.0,0.08252518335403641,-0.40809477629331864,0.09794356947477771,-0.30787003431190674,-0.005570171590783135,0.0030725043187575674,1.1541545840811889
8281,4.0,300.41565,2484.0177,0.0,0.0,0.0,0.0,0.0,0.08253515016362023,-0.42813350941348755,0.06697417494608644,-0.3939200153443786,0.007516294510700513,0.00985428035574175,1.132881499556699
8282,4.0,299.50699,2420.6527,0.0,0.0,0.0,0.0,0.0,0.08254511697320405,-0.44873010764121357,0.0941732030311715,-0.38126107654503866,0.010788742559765991,0.0015845886981117286,1.1491577412130387
8283,4.0,298.60284,2089.159,0.0,0.0,0.0,0.0,0.0,0.08255508378278788,-0.38558787738706063,0.11551888084582589,-0.3649831731585347,0.003745142088991746,-0.013789528327170487,1.1701495475097687
8284,4.0,297.85516,1938.767,0.0,0.0,0.0,0.0,0.0,0.0825650505923717,-0.4189007542372856,0.16196274945197883,-0.3323987522027027,0.0018376794226648383,-0.006812596470575924,1.168644161836199
8285,4.0,298.49773,2216.5454,0.0,0.0,0.0,0.0,0.0,0.08257501740195552,-0.4672951596834415,0.13189655896967686,-0.33837586388009766,-0.0007987245253829732,0.012588401393628488,1.182683349921759
8286,4.0,299.51252,2440.6523,0.0,0.0,0.0,0.0,0.0,0.08258498421153933,-0.4801529082849026,0.1066545028759799,-0.36839894057064465,-0.0029028705466410177,0.023686178141143776,1.167493413697629
8287,4.0,299.932,2286.0029,0.0,0.0,0.0,0.0,0.0,0.08259495102112316,-0.4336789258857776,0.09431182476410241,-0.35552070405216163,0.015490373998030884,0.015525346325232385,1.147113711786309
8288,4.0,299.13037,1967.0347,0.0,0.0,0.0,0.0,0.0,0.08260491783070699,-0.3941610472781666,0.12686054385266088,-0.3306289386505357,0.005129276378745165,0.007037993550020884,1.157465378782939
8289,4.0,299.48913,2162.077,0.0,0.0,0.0,0.0,0.0,0.08261488464029079,-0.3803067976008586,0.0910490905410956,-0.3679597169172966,0.006225321069591354,-0.017819373935885282,1.1757954783919788
8290,4.0,299.87694,2332.4949,0.0,0.0,0.0,0.0,0.0,0.08262485144987462,-0.4509910232518486,0.1025435344377589,-0.36057272852075767,-0.0006973381022944123,-0.04498515728518936,1.195162031528309
8291,4.0,299.40379,2267.1681,0.0,0.0,0.0,0.0,0.0,0.08263481825945844,-0.4607366450986665,0.12351152935713888,-0.3519373856035157,0.012513759311761888,-0.03626008904509216,1.194236427561959
8292,4.0,299.94482999999997,2173.1191,0.0,0.0,0.0,0.0,0.0,0.08264478506904226,-0.4172342111353106,0.11206872372532191,-0.3554084562060837,0.012944686473291089,0.002211340322992298,1.1803083930123688
8293,4.0,300.44646,1944.59,0.0,0.0,0.0,0.0,0.0,0.08265475187862609,-0.4076388137483186,0.15376274944020185,-0.3372307595445847,0.0024260363668061474,0.02145953368864108,1.162983336177519
8294,4.0,300.71356000000003,2076.0211,0.0,0.0,0.0,0.0,0.0,0.0826647186882099,-0.3892386276298616,0.13378414258096688,-0.37560409110423765,0.005843433389051974,0.03840652157992856,1.1804078941721887
8295,4.0,300.61312000000004,2353.3943,0.0,0.0,0.0,0.0,0.0,0.08267468549779373,-0.4427241588659726,0.11760165695637988,-0.39025061116723664,-0.0018876019511168082,-0.007487295596813543,1.171945634637029
8296,4.0,301.01696,2206.6025,0.0,0.0,0.0,0.0,0.0,0.08268465230737754,-0.4564395628820776,0.14038024874445187,-0.35469274699794867,-0.00022064142049811277,0.002764695150379167,1.1998349383394886
8297,4.0,299.51309,1936.2712,0.0,0.0,0.0,0.0,0.0,0.08269461911696137,-0.4183325945087126,0.11766791338041888,-0.28791342511234275,0.004649294942774686,-0.015274949934020184,1.145316611408949
8298,4.0,299.68401,2173.6842,0.0,0.0,0.0,0.0,0.0,0.08270458592654518,-0.39608951553099164,0.1082104091995359,-0.37286661357406964,-0.014353391875319485,0.001964421811423338,1.1710276300464288
8299,4.0,299.30672000000004,2459.3979,0.0,0.0,0.0,0.0,0.0,0.082714552736129,-0.4663364832338276,0.0918397245278751,-0.3730987795694826,-0.004292009278638336,-0.0006120810401276954,1.1597368828571188
8300,4.0,299.48357000000004,2521.1718,0.0,0.0,0.0,0.0,0.0,0.08272451954571282,-0.42733930372010553,0.09206528615913631,-0.43109926205868454,0.002286981570782508,0.02235884178839588,1.198361267394049
8301,4.0,299.92711,2027.8424,0.0,0.0,0.0,0.0,0.0,0.08273448635529665,-0.3997216523694556,0.14156626811900286,-0.35825808025731964,0.01851448579598748,0.019596121158486583,1.1909424528118688
8302,4.0,299.93414,1739.116,0.0,0.0,0.0,0.0,0.0,0.08274445316488047,-0.39273587048251263,0.18055059962145684,-0.31646256741242373,0.011721783781849989,-0.01101130902373159,1.2484333515607788
8303,4.0,300.2473,2153.5311,0.0,0.0,0.0,0.0,0.0,0.0827544199744643,-0.4431484066828426,0.13641427639554088,-0.34788554030862967,0.008697849302660893,-0.050174743627111655,1.1826184005903488
8304,4.0,300.40227999999996,2706.5439,0.0,0.0,0.0,0.0,0.0,0.0827643867840481,-0.49745336340732454,0.0960910483699481,-0.42135944613493964,0.011540319808190888,-0.025222367631003877,1.1948867314761389
8305,4.0,300.65283,2598.4929,0.0,0.0,0.0,0.0,0.0,0.08277435359363193,-0.4771563629691665,0.1079560631594339,-0.4206766574225536,0.02755661215137587,0.015538111249992185,1.146985029023609
8306,4.0,300.34166,2124.1518,0.0,0.0,0.0,0.0,0.0,0.08278432040321575,-0.3804277796627986,0.1089278409328409,-0.37418915826709465,-0.0029597120534008373,0.04046997298457536,1.169240054220009
8307,4.0,300.54134,2058.0963,0.0,0.0,0.0,0.0,0.0,0.08279428721279956,-0.4011412461570586,0.13493625860717187,-0.35940490711800266,-0.01094520357395749,0.016737943249906385,1.1746278089767388
8308,4.0,301.15238,2591.0257,0.0,0.0,0.0,0.0,0.0,0.0828042540223834,-0.4955096254754925,0.0994391509403801,-0.39153663832665764,-0.024204422130040478,0.03375033744839897,1.212934336957299
8309,4.0,300.34211,2390.8618,0.0,0.0,0.0,0.0,0.0,0.08281422083196721,-0.4346599141025936,0.08862000986436401,-0.38072237199687264,-0.006376493627535925,-0.0016930139568624683,1.1811567873210989
8310,4.0,300.0783,1809.4364,0.0,0.0,0.0,0.0,0.0,0.08282418764155103,-0.3730395449686366,0.13736318511419088,-0.3143471342511467,0.01227564249851159,-0.008820310608421882,1.1772156497321389
8311,4.0,300.22229,1847.2687,0.0,0.0,0.0,0.0,0.0,0.08283415445113484,-0.3640812995095266,0.13502480653341087,-0.3324670452594427,-0.0027782972223715876,-0.039330925858160164,1.173082197274199
8312,4.0,300.3798,2222.0693,0.0,0.0,0.0,0.0,0.0,0.08284412126071868,-0.4100902406427556,0.11750342235918489,-0.38286676384600765,0.00950225882984993,0.0072617118767001635,1.1747793911916988
8313,4.0,299.50022,2370.8811,0.0,0.0,0.0,0.0,0.0,0.0828540880703025,-0.44800324254947754,0.1042126005324829,-0.37689802161443864,-0.001110864284158769,-0.0030591400565636168,1.167940256991729
8314,4.0,300.11015,2179.6373,0.0,0.0,0.0,0.0,0.0,0.08286405487988631,-0.4576082455474175,0.14230294147170686,-0.3472500095809077,-0.007929112461142473,0.016322408370646285,1.193311532870679
8315,4.0,299.9146,1980.1837,0.0,0.0,0.0,0.0,0.0,0.08287402168947014,-0.4114601851754586,0.13555958980368987,-0.32602579410874066,-0.009863204555997502,-0.025745028377086476,1.180619562118079
8316,4.0,300.46717,2141.7637,0.0,0.0,0.0,0.0,0.0,0.08288398849905396,-0.4490777030880186,0.12600880581860088,-0.3279737775584917,0.014058076080674088,0.01159943383227499,1.157288262665459
8317,4.0,300.97471,2662.6412,0.0,0.0,0.0,0.0,0.0,0.08289395530863777,-0.4810899721098836,0.07885763392714251,-0.4071440943869936,0.014598825367541885,9.58334234525225e-05,1.180415898847979
8318,4.0,301.01534,2596.0581,0.0,0.0,0.0,0.0,0.0,0.0829039221182216,-0.4624248920177836,0.08543904391117711,-0.41215098869613565,0.005825655612072444,0.003560441591863226,1.1588796732725188
8319,4.0,301.22033,2010.2789,0.0,0.0,0.0,0.0,0.0,0.08291388892780542,-0.40436557009527463,0.13276554252043887,-0.33947457149353166,-0.003175645478236807,-0.004883547625443625,1.2151566984016289
8320,4.0,301.48843999999997,1868.9747,0.0,0.0,0.0,0.0,0.0,0.08292385573738925,-0.4235094007271236,0.15523832529582984,-0.2998505650704467,-0.009030108905227362,0.013784471195921386,1.2027339482005988
8321,4.0,300.9482,2321.4251,0.0,0.0,0.0,0.0,0.0,0.08293382254697305,-0.4402281489671356,0.11342903224957389,-0.37885614769769066,0.008672777543511501,-0.010556515769346991,1.216651951574199
8322,4.0,299.73625,2413.7469,0.0,0.0,0.0,0.0,0.0,0.08294378935655689,-0.4481419564881675,0.0975556152632396,-0.3831324278897266,-0.007260606420841063,-0.021259679225666978,1.1593361424425688
8323,4.0,299.62759,2270.7793,0.0,0.0,0.0,0.0,0.0,0.08295375616614072,-0.40384734333162964,0.1013500372774699,-0.3877628896542176,0.01932354066958498,-0.026590172179495677,1.169141262335259
8324,4.0,300.73028999999997,2137.2835,0.0,0.0,0.0,0.0,0.0,0.08296372297572452,-0.39064846381900165,0.11289517103688589,-0.37192750298388666,0.024629817959273773,0.01036850113379139,1.132937734937249
8325,4.0,300.30908999999997,2051.317,0.0,0.0,0.0,0.0,0.0,0.08297368978530835,-0.43868229408457154,0.13867789738394287,-0.3235447499138807,0.00013447315264896687,0.014879574678749685,1.163637794417109
8326,4.0,300.72269,2209.7957,0.0,0.0,0.0,0.0,0.0,0.08298365659489217,-0.4683050356606086,0.13935695733596087,-0.3427746257442217,-0.025450613361779974,0.025366508537229476,1.188884643183779
8327,4.0,300.75787,2387.6811,0.0,0.0,0.0,0.0,0.0,0.08299362340447598,-0.4616133597476915,0.1061622761099009,-0.3703443402326406,-0.01815387819139828,-0.013326502415723385,1.1947369731113588
8328,4.0,301.07352000000003,2085.0317,0.0,0.0,0.0,0.0,0.0,0.08300359021405981,-0.43233978415611457,0.15971395231253985,-0.36117175184737665,0.0038254521905927365,0.008313057343359883,1.2160741963671788
8329,4.0,299.87575,1985.5269,0.0,0.0,0.0,0.0,0.0,0.08301355702364363,-0.3701432303527927,0.14589001907822385,-0.37929739785123867,0.019898055502785183,-0.015430744229645885,1.1855012997748688
8330,4.0,300.06717000000003,2392.9838,0.0,0.0,0.0,0.0,0.0,0.08302352383322746,-0.4087731776327716,0.10836639905243088,-0.42700053368167157,0.008019524970215493,-0.01957503137090518,1.197395234748709
8331,4.0,298.38377,2464.7613,0.0,0.0,0.0,0.0,0.0,0.08303349064281126,-0.43922914516354156,0.09892733906311821,-0.40892410123516665,-0.028946583572305375,-0.0070252199113102235,1.1901833258369487
8332,4.0,299.35139,2235.8014,0.0,0.0,0.0,0.0,0.0,0.0830434574523951,-0.4584390397019106,0.1316368528365459,-0.35282561077367663,-0.019744027302083782,0.037848550081111064,1.191937768385099
8333,4.0,299.96561,2094.2658,0.0,0.0,0.0,0.0,0.0,0.08305342426197893,-0.43156803208494854,0.12757098416027587,-0.3326074715908017,-0.004206263799525916,0.02882878818192987,1.1632248950013588
8334,4.0,299.51889,2062.883,0.0,0.0,0.0,0.0,0.0,0.08306339107156273,-0.44942165083446356,0.15642490195793585,-0.33406818306746267,-0.0047910965584944155,0.0021400798620094382,1.186029000426949
8335,4.0,300.23306,2256.4233,0.0,0.0,0.0,0.0,0.0,0.08307335788114656,-0.39199041225144166,0.09582752329719021,-0.3897334584486976,-0.0022041060212533276,-0.04188304448128466,1.163168760945819
8336,4.0,300.59136,2431.4195,0.0,0.0,0.0,0.0,0.0,0.08308332469073038,-0.4382089543003566,0.09852097004426272,-0.39940283322549064,0.016166834963542383,-0.03431615048974036,1.1834663895990387
8337,4.0,299.80914,2236.6867,0.0,0.0,0.0,0.0,0.0,0.08309329150031419,-0.47312434697873756,0.14761863388132485,-0.35439117337068565,0.005418390880128546,0.004628445700767026,1.1925237309179288
8338,4.0,300.47116,2104.3831,0.0,0.0,0.0,0.0,0.0,0.08310325830989802,-0.43200499619057353,0.1234940507929139,-0.33116897055633265,0.0017687967556916484,0.00972010182582436,1.190922694434919
8339,4.0,300.36572,2190.0513,0.0,0.0,0.0,0.0,0.0,0.08311322511948184,-0.45280684849105657,0.12217241802497888,-0.3350864892854617,-0.019444559208528583,0.030339070893233174,1.196220371257759
8340,4.0,299.82014,2591.3927,0.0,0.0,0.0,0.0,0.0,0.08312319192906567,-0.44581391305840756,0.07375803939285172,-0.4156628122177256,-0.018238004294200885,0.02742294521143397,1.2091605882848588
8341,4.0,299.99227,2454.3842,0.0,0.0,0.0,0.0,0.0,0.08313315873864947,-0.40320166997040663,0.06653193586044084,-0.4094017574648076,0.014616252256011786,-0.0026123947437482874,1.153082869450419
8342,4.0,299.57975,2006.3396,0.0,0.0,0.0,0.0,0.0,0.0831431255482333,-0.3595730863696006,0.12746901067021188,-0.37777306440079866,0.009869569185175642,-0.04011571643161296,1.1865961165079189
8343,4.0,298.1845,1911.7666,0.0,0.0,0.0,0.0,0.0,0.08315309235781713,-0.38595587969087963,0.12567668270082288,-0.32085012273044167,0.015084729452996885,-0.037535874272502365,1.1615800861140289
8344,4.0,299.41059,2237.837,0.0,0.0,0.0,0.0,0.0,0.08316305916740094,-0.4376378054839886,0.1129188000292179,-0.35552754349033666,0.009215870579185612,-0.01262477504571829,1.1965687266421388
8345,4.0,299.41486000000003,2288.3537,0.0,0.0,0.0,0.0,0.0,0.08317302597698477,-0.4757940178122136,0.12590691338854487,-0.34571528018444164,-0.0016361374929741985,0.03967243065861406,1.175674901630079
8346,4.0,299.71734,2157.0876,0.0,0.0,0.0,0.0,0.0,0.08318299278656859,-0.45446809229500856,0.13631764273350389,-0.33755032849362365,0.007318817841736084,0.02965881834584747,1.190261954044709
8347,4.0,299.5657,2153.3024,0.0,0.0,0.0,0.0,0.0,0.0831929595961524,-0.37490589085783066,0.1281806871429489,-0.40782495792418966,0.006691491096098754,0.0080055229684086,1.1663787372626189
8348,4.0,300.51874,2376.1229,0.0,0.0,0.0,0.0,0.0,0.08320292640573623,-0.45806007403200955,0.11518986840585488,-0.37941182418503167,0.016047825699547085,0.006780784267786304,1.1968894202987888
8349,4.0,299.40833,2804.5911,0.0,0.0,0.0,0.0,0.0,0.08321289321532005,-0.4910065089835695,0.06051577453744194,-0.4220349293141046,-0.016763950340223086,-0.008335073342857692,1.183312476908849
8350,4.0,299.96583,2516.7481,0.0,0.0,0.0,0.0,0.0,0.08322286002490387,-0.5036241375763325,0.12156641340517088,-0.38297086516128165,0.0072156317952774135,-0.026158827558925277,1.2179285453751887
8351,4.0,300.31446,1999.4826,0.0,0.0,0.0,0.0,0.0,0.08323282683448768,-0.42983981244938657,0.12457852224244288,-0.3025314829800327,-0.03921442540141246,-0.012456926113652888,1.2017426856277689
8352,4.0,299.65403,2053.8334,0.0,0.0,0.0,0.0,0.0,0.08324279364407151,-0.3968307383766446,0.13435726723502986,-0.36184059823838666,0.001157912728702089,0.016873899121824184,1.167488347447129
8353,4.0,299.88847000000004,2395.1503,0.0,0.0,0.0,0.0,0.0,0.08325276045365533,-0.3834296040115556,0.07100994604138602,-0.41564622531358864,-0.013432785258462686,0.017112444539866784,1.1859294992671288
8354,4.0,300.28831,2160.6205,0.0,0.0,0.0,0.0,0.0,0.08326272726323915,-0.4048443409000256,0.12455021203464887,-0.37648055244073764,0.0038485553061228363,-0.02162379672860258,1.1513714900315188
8355,4.0,299.50855,1878.7179,0.0,0.0,0.0,0.0,0.0,0.08327269407282296,-0.38916387003748365,0.15993885330473584,-0.3418583335462907,0.026572640926265476,-0.021260730979270778,1.201349949889009
8356,4.0,300.14423,2045.3939,0.0,0.0,0.0,0.0,0.0,0.0832826608824068,-0.42975607746112254,0.1087047333933219,-0.3006973179140147,0.03958350175033746,-0.018166432360137284,1.1467455980249788
8357,4.0,299.15965,2267.3351,0.0,0.0,0.0,0.0,0.0,0.08329262769199061,-0.47916820144021954,0.13792142512428487,-0.3479664787266177,0.012378673821679988,0.026974703632195975,1.2014491470737987
8358,4.0,298.55966,2431.8225,0.0,0.0,0.0,0.0,0.0,0.08330259450157444,-0.45635180529091657,0.1104515866982229,-0.3933130987994806,-0.029144126811801372,-0.005720027734197785,1.151422861811589
8359,4.0,299.67102,2348.3252,0.0,0.0,0.0,0.0,0.0,0.08331256131115825,-0.41524498840648966,0.10757377402920489,-0.4061609986099696,-0.009136267118204361,0.026048759213812372,1.199427713124299
8360,4.0,300.4105,1947.575,0.0,0.0,0.0,0.0,0.0,0.08332252812074208,-0.4006866413671926,0.14386393431076486,-0.3351914822608237,-0.00813801190378424,0.004848235251508565,1.1859027494644887
8361,4.0,300.05471,1951.1878,0.0,0.0,0.0,0.0,0.0,0.08333249493032589,-0.3556664702115476,0.13329620186281085,-0.37074211182439765,0.016400211792824883,0.018409652914141282,1.210277696520109
8362,4.0,300.60117,2269.3997,0.0,0.0,0.0,0.0,0.0,0.08334246173990971,-0.48157259326501456,0.1254641940223519,-0.3337324629118297,-0.02788795506657687,-0.04930344986612165,1.2170034480338887
8363,4.0,299.3176,2307.0473,0.0,0.0,0.0,0.0,0.0,0.08335242854949354,-0.44511378763681053,0.14338291409079185,-0.39955390881540065,-0.00954847884111149,-0.021558088472867682,1.2210985996380488
8364,4.0,300.10356,2263.8847,0.0,0.0,0.0,0.0,0.0,0.08336239535907736,-0.41936418443552265,0.098364415811062,-0.36716466009383064,0.016432566895018087,-0.002488907116961008,1.1762344183352988
8365,4.0,299.84361,2375.5525,0.0,0.0,0.0,0.0,0.0,0.08337236216866117,-0.4043687719655906,0.09163655369732372,-0.4093764160798066,0.01931384285287788,0.01240124498090759,1.149329588429999
8366,4.0,299.84118,2493.1999,0.0,0.0,0.0,0.0,0.0,0.08338232897824499,-0.48718888658179954,0.1002159165730409,-0.37089753425723665,0.005982790234930425,0.0035747239599727863,1.1853590394608289
8367,4.0,299.06072,2423.8927,0.0,0.0,0.0,0.0,0.0,0.08339229578782882,-0.4525006341783356,0.08857131205130792,-0.37287351380725064,-0.027464036555989377,-0.015697378966960683,1.171701137387899
8368,4.0,299.10166,2052.5482,0.0,0.0,0.0,0.0,0.0,0.08340226259741265,-0.46844770127468854,0.15928673567287685,-0.3147624452021347,0.007277187042827443,-0.021274122092592378,1.2123064258703289
8369,4.0,299.38544,1846.8525,0.0,0.0,0.0,0.0,0.0,0.08341222940699645,-0.39601937835906964,0.15172670442425987,-0.3171043701582647,-0.008148629244957092,0.0037893591074556264,1.1868031235033487
8370,4.0,299.44939,2046.8016,0.0,0.0,0.0,0.0,0.0,0.08342219621658029,-0.3896702417749586,0.14585000583177485,-0.37835635195336464,-0.0021303720141263483,-0.019972532424885482,1.185817332481059
8371,4.0,299.5134,2293.1164,0.0,0.0,0.0,0.0,0.0,0.0834321630261641,-0.4305942683413456,0.13430788142515587,-0.40076374969980266,0.001968594476660148,0.02301256846141368,1.180305758562109
8372,4.0,300.12366000000003,2496.7244,0.0,0.0,0.0,0.0,0.0,0.08344212983574792,-0.4357950075271186,0.07969531615581534,-0.40284217896742763,0.005126351125706465,0.03155198597843857,1.169371776733009
8373,4.0,300.70607,2310.2817,0.0,0.0,0.0,0.0,0.0,0.08345209664533175,-0.4318901645567406,0.1027564182837689,-0.37313419266047765,0.022428272724998182,0.035833610051501964,1.182892586067409
8374,4.0,300.69621,2142.6917,0.0,0.0,0.0,0.0,0.0,0.08346206345491557,-0.4601504596508146,0.11498800872093289,-0.3061623431233707,-0.006947458235035744,-0.02114852264994668,1.185219210947029
8375,4.0,300.22718,2245.368,0.0,0.0,0.0,0.0,0.0,0.08347203026449938,-0.4568475682998445,0.12446128920587288,-0.3501495260670677,-0.0062660889847148335,0.00936760072866021,1.220366627765809
8376,4.0,299.95018999999996,2301.4379,0.0,0.0,0.0,0.0,0.0,0.0834819970740832,-0.43789955838232164,0.1157816064642549,-0.3774616926450686,0.021289025988313278,-0.02476228926409768,1.174426070881829
8377,4.0,299.72059,2135.7257,0.0,0.0,0.0,0.0,0.0,0.08349196388366703,-0.4326121153854916,0.13491368339494386,-0.3515088618712237,0.0024560282657911177,0.015609366036774484,1.193102195400019
8378,4.0,299.4171,2012.0609,0.0,0.0,0.0,0.0,0.0,0.08350193069325086,-0.4112885608735206,0.13507183147055188,-0.33539956330135967,0.0064430924287837135,-0.01017969211015739,1.177178362128459
8379,4.0,299.02107,2110.9217,0.0,0.0,0.0,0.0,0.0,0.08351189750283466,-0.4400616415782026,0.14944785428685486,-0.3510537099263037,-0.017692395459853485,0.004914190942917886,1.215448210455399
8380,4.0,299.27153,2331.7996,0.0,0.0,0.0,0.0,0.0,0.0835218643124185,-0.46741227112999956,0.13507899514875887,-0.37647556725024567,-0.004379159223714365,0.01962345965943468,1.223858996885479
8381,4.0,299.37183,2506.9608,0.0,0.0,0.0,0.0,0.0,0.08353183112200231,-0.4282542482954036,0.1098837410771809,-0.4436829873031016,-0.017826211347560083,-0.002304184530980308,1.2053221942560388
8382,4.0,301.32004,2364.6711,0.0,0.0,0.0,0.0,0.0,0.08354179793158613,-0.4183024908482416,0.1087146531118009,-0.4092131308261916,0.010765454019467591,-0.028163202429741678,1.1919467863109887
8383,4.0,300.16151,2198.0512,0.0,0.0,0.0,0.0,0.0,0.08355176474116996,-0.4020409717158546,0.11812370367290188,-0.38423542155108364,-0.013432569436191387,-0.006818120507471103,1.171910170883529
8384,4.0,300.38513,2289.5312,0.0,0.0,0.0,0.0,0.0,0.08356173155075378,-0.43469065611062757,0.1012731670586334,-0.36254283122019165,0.015431422093962786,-0.016299779456162983,1.167070381780879
8385,4.0,300.00566000000003,2222.9372,0.0,0.0,0.0,0.0,0.0,0.08357169836033759,-0.4470533509782305,0.1130285755450519,-0.34169262662493666,-0.01121931609701029,0.027019276504094972,1.1943692646500688
8386,4.0,299.76914,1977.2676,0.0,0.0,0.0,0.0,0.0,0.08358166516992141,-0.44817442102137156,0.14987468589147984,-0.3027402226331337,-0.012917715782129288,0.009048237976016562,1.2173433934424387
8387,4.0,299.86102,2023.4177,0.0,0.0,0.0,0.0,0.0,0.08359163197950524,-0.37124772362429764,0.13900268457099688,-0.3828234068742286,0.0017010983754353383,0.00905193421105635,1.202113433839359
8388,4.0,299.80539,2185.0797,0.0,0.0,0.0,0.0,0.0,0.08360159878908907,-0.4345327714800456,0.13105094096622089,-0.3607278368460657,0.013601733566886588,-0.004886706533955385,1.177980248257599
8389,4.0,299.7043,2510.6305,0.0,0.0,0.0,0.0,0.0,0.08361156559867287,-0.4355813941410365,0.11069951886519189,-0.43828710628056955,0.027048200741449577,0.012629563665690888,1.1814778862777888
8390,4.0,301.19313999999997,2549.4989,0.0,0.0,0.0,0.0,0.0,0.0836215324082567,-0.4845925345255595,0.09185220878235723,-0.38224368596201463,-0.0008834718923518873,-0.022957923883520682,1.145748255951549
8391,4.0,301.32166,2178.9570000000003,0.0,0.0,0.0,0.0,0.0,0.08363149921784052,-0.4410465814704086,0.14486951410750787,-0.36617145208080865,0.002959203401850637,0.032124429728434364,1.2301662761079588
8392,4.0,301.02262,2004.6951,0.0,0.0,0.0,0.0,0.0,0.08364146602742434,-0.4425239710437156,0.15207325622346185,-0.3189265383430987,-0.016160566998423786,0.015473183196834285,1.1905057420187688
8393,4.0,300.73652999999996,2214.7492,0.0,0.0,0.0,0.0,0.0,0.08365143283700817,-0.3900687530392886,0.11771436076500288,-0.4008740723706906,-0.01100617691197509,0.009992306500263871,1.2327255432105386
8394,4.0,299.77044,2479.8327,0.0,0.0,0.0,0.0,0.0,0.08366139964659199,-0.46193963641239255,0.10293922886681091,-0.3948068320969006,-0.03070424318952287,-0.03054255887106587,1.1988170272890288
8395,4.0,299.43291,2437.1063,0.0,0.0,0.0,0.0,0.0,0.08367136645617582,-0.42119337444354954,0.09635922628716521,-0.4159853094595536,0.004272968485409156,-0.024280856651333976,1.2278744057067688
8396,4.0,300.15814,2156.4634,0.0,0.0,0.0,0.0,0.0,0.08368133326575962,-0.4563270921209775,0.1386538833565729,-0.3378378179444967,0.007213828818049473,-0.01317952136946749,1.169613132906829
8397,4.0,299.20711,2153.5216,0.0,0.0,0.0,0.0,0.0,0.08369130007534345,-0.46253680549132853,0.16258327394571986,-0.3546632512875377,0.020797062667260283,0.012941932459519289,1.210168974784379
8398,4.0,299.78106,2421.1272,0.0,0.0,0.0,0.0,0.0,0.08370126688492728,-0.4851137503769995,0.11707355100425991,-0.36792202401357665,0.0026672109662082273,0.022925401595060978,1.1953706597238989
8399,4.0,299.85841,2395.1902,0.0,0.0,0.0,0.0,0.0,0.08371123369451108,-0.4016256708973676,0.1099501798862379,-0.43640252188957557,0.0002372966784868588,0.008143827148758163,1.191230823790329
8400,4.0,299.96696000000003,2092.8695,0.0,0.0,0.0,0.0,0.0,0.08372120050409491,-0.4025490457134976,0.12209560353489789,-0.35572663700248564,-0.009126664648331673,-0.001131159379686739,1.1793883619215688
8401,4.0,300.24532,2085.5857,0.0,0.0,0.0,0.0,0.0,0.08373116731367873,-0.3827833733627776,0.0978840754819061,-0.3490666758176986,0.0028909121689608174,-0.014369060774865886,1.1608691898438688
8402,4.0,300.42189,2163.1545,0.0,0.0,0.0,0.0,0.0,0.08374113412326255,-0.4500932127357416,0.13628636370291686,-0.34373811513181063,0.0035268374562717566,-0.03477035707231707,1.181609203490749
8403,4.0,300.35872,2452.589,0.0,0.0,0.0,0.0,0.0,0.08375110093284638,-0.4822353601554245,0.08945768297378591,-0.35274813767103064,-0.013284918631619388,-0.002348237200277968,1.1927634658915889
8404,4.0,301.06399,2486.894,0.0,0.0,0.0,0.0,0.0,0.0837610677424302,-0.4640815457987826,0.0919760107193255,-0.38384815736286365,-0.009374620930653051,0.02268637386997078,1.2014136833202989
8405,4.0,301.62564,2195.2916,0.0,0.0,0.0,0.0,0.0,0.08377103455201401,-0.4176068743895896,0.13377116284718588,-0.3834781184263436,-0.01124579434862349,0.02125125101133518,1.204036785179179
8406,4.0,300.85915,1997.3120000000001,0.0,0.0,0.0,0.0,0.0,0.08378100136159783,-0.38119024023054765,0.1299345217410389,-0.3558772464973497,0.011196032622962388,0.016139927093886786,1.1969738240321188
8407,4.0,300.93437,2300.4169,0.0,0.0,0.0,0.0,0.0,0.08379096817118166,-0.4300038475080756,0.12158000108901189,-0.3908454599034436,0.018795356697207284,-0.012676492344072386,1.2008557878152388
8408,4.0,299.59911,2463.7061,0.0,0.0,0.0,0.0,0.0,0.08380093498076548,-0.4910581239436635,0.11661603818660687,-0.3744630600341266,0.00910578348894586,-0.007419277130850643,1.183436296071069
8409,4.0,300.79881,2227.7584,0.0,0.0,0.0,0.0,0.0,0.0838109017903493,-0.4867259630086125,0.15353488975771387,-0.34399187348685467,-0.003132926955345817,-0.002111299202194008,1.1996871051498987
8410,4.0,299.88358999999997,2075.6861,0.0,0.0,0.0,0.0,0.0,0.08382086859993311,-0.4127633463940706,0.15287792879037687,-0.37107133704688966,0.008423457122580491,0.002191026482337478,1.199466520603129
8411,4.0,299.39465,2183.0491,0.0,0.0,0.0,0.0,0.0,0.08383083540951694,-0.4238400039697516,0.14227392198884287,-0.38202632355056265,-0.0076269946172507624,-0.005334974761671015,1.215413455976969
8412,4.0,300.29713,2527.2761,0.0,0.0,0.0,0.0,0.0,0.08384080221910076,-0.4433635804740786,0.09540345786533821,-0.4202687127997926,-0.021893277685448277,0.006408968495890943,1.210654321582279
8413,4.0,299.2885,2470.5145,0.0,0.0,0.0,0.0,0.0,0.08385076902868459,-0.4592753560694486,0.1064175138100909,-0.3981168567285746,-0.003962054718724356,-0.00938054479603769,1.2049835660726187
8414,4.0,300.05841000000004,2179.3972,0.0,0.0,0.0,0.0,0.0,0.08386073583826839,-0.45712496577972156,0.12416534924916588,-0.3295227228538607,-0.0007822497171045363,0.0036439942964342363,1.2067392245208888
8415,4.0,300.17971,1982.1134,0.0,0.0,0.0,0.0,0.0,0.08387070264785222,-0.40504491375732066,0.13494122353266189,-0.3324092798712417,0.017585756966329084,-0.00025235361550286274,1.205299193478769
8416,4.0,299.47776,2151.3693,0.0,0.0,0.0,0.0,0.0,0.08388066945743604,-0.4121891578274026,0.11553327912974688,-0.35730666881092266,-0.005636953486323994,0.015093714954883685,1.182399842543779
8417,4.0,300.15803999999997,2377.8826,0.0,0.0,0.0,0.0,0.0,0.08389063626701986,-0.43422782372994956,0.1081434435004269,-0.3967325645744556,-0.0025823738658104574,0.004563094007742316,1.1832697177546287
8418,4.0,301.3108,2176.6291,0.0,0.0,0.0,0.0,0.0,0.08390060307660369,-0.43542545495064655,0.14006748883608486,-0.36628292985681066,-0.011351951548350388,0.00997197421845723,1.191810098872499
8419,4.0,301.17534,1991.8309,0.0,0.0,0.0,0.0,0.0,0.0839105698861875,-0.37926374781541766,0.11552540617646988,-0.3417285159434787,0.0072753357335697336,-0.03047269426342077,1.1777304821079488
8420,4.0,300.31273999999996,2230.019,0.0,0.0,0.0,0.0,0.0,0.08392053669577132,-0.45926078553301053,0.14479370273502587,-0.36340299949508365,0.04337061316509626,-0.008337310700403503,1.188926389087899
8421,4.0,300.30629,2610.0559,0.0,0.0,0.0,0.0,0.0,0.08393050350535514,-0.4510381292489976,0.08553465216411292,-0.4278883332867906,0.015575966273728184,-0.016200242832589484,1.1934973629390189
8422,4.0,299.54053,2425.9586,0.0,0.0,0.0,0.0,0.0,0.08394047031493897,-0.44886497122952357,0.1088053187307489,-0.3973711958474836,0.013712894195607289,-0.009414582602671962,1.1958648217976688
8423,4.0,300.74523999999997,2115.9459,0.0,0.0,0.0,0.0,0.0,0.0839504371245228,-0.38678041195975466,0.14061535316515486,-0.3970296495037756,-0.01858785422247838,-0.0012990401278052787,1.2196788335979287
8424,4.0,299.7733,2042.4287,0.0,0.0,0.0,0.0,0.0,0.0839604039341066,-0.3852082835020976,0.1078182611458339,-0.34345731313159766,-0.004077283141296516,0.018660319843130182,1.198562498863909
8425,4.0,299.43037000000004,2263.4891,0.0,0.0,0.0,0.0,0.0,0.08397037074369043,-0.44189165231881056,0.11879396861405188,-0.36494649350491465,0.0007060972339763713,0.0005796321211077364,1.2035482973059688
8426,4.0,299.8071,2558.2281,0.0,0.0,0.0,0.0,0.0,0.08398033755327425,-0.5326413608926095,0.11328074309743888,-0.35827684564917167,-0.02255420350042658,0.015953934905530785,1.203650736891079
8427,4.0,301.78865,2487.6674,0.0,0.0,0.0,0.0,0.0,0.08399030436285806,-0.46265161686015954,0.08966770945451392,-0.3832048651393757,0.008690993044534231,-0.0046721318775035155,1.228850570853109
8428,4.0,301.39634,2204.594,0.0,0.0,0.0,0.0,0.0,0.0840002711724419,-0.43262678724693965,0.12255459569769689,-0.36006933573857663,0.009405019142928121,-0.000919379084625651,1.2006914386490188
8429,4.0,300.30672000000004,2161.6092,0.0,0.0,0.0,0.0,0.0,0.08401023798202571,-0.41325014213961364,0.13469747608860588,-0.37852253510226563,0.01752340763467568,-0.013327910833362386,1.1949520861075886
8430,4.0,300.18695,2397.4484,0.0,0.0,0.0,0.0,0.0,0.08402020479160953,-0.45580668686961756,0.10964434047605388,-0.3826021130523886,0.006174130762614264,-0.016243810560389284,1.169377045633529
8431,4.0,299.99556,2367.3818,0.0,0.0,0.0,0.0,0.0,0.08403017160119335,-0.4541460307507236,0.12967585925551087,-0.39515477204873967,0.026707971622871574,0.0025474569633894273,1.2062873149762887
8432,4.0,300.37899,2021.2313,0.0,0.0,0.0,0.0,0.0,0.08404013841077718,-0.41718311293276755,0.1201460900774959,-0.3173668120666657,0.003283673644273357,0.02758993896041497,1.1822008402241388
8433,4.0,299.66202999999996,2057.9099,0.0,0.0,0.0,0.0,0.0,0.08405010522036101,-0.3905888543156186,0.13095708360945787,-0.36592145288363565,0.016723294693210683,-0.016555014116602682,1.2067246337194488
8434,4.0,299.29498,2281.7827,0.0,0.0,0.0,0.0,0.0,0.08406007202994481,-0.4453025966604446,0.13476802869306886,-0.3830703967186046,-0.02848878704462437,-0.0077180862065408026,1.214157836453049
8435,4.0,300.08926,2467.1938,0.0,0.0,0.0,0.0,0.0,0.08407003883952864,-0.44115337803094856,0.0870521178053751,-0.3958640369862386,-0.008260991284321362,-0.02045516269926738,1.205465265170159
8436,4.0,300.27695,2370.1753,0.0,0.0,0.0,0.0,0.0,0.08408000564911246,-0.4557203072985926,0.12121317415530888,-0.38596697477947467,-0.013598665445583788,0.004060888653353506,1.1993566842922887
8437,4.0,299.51428,2288.5983,0.0,0.0,0.0,0.0,0.0,0.08408997245869627,-0.4536903417832506,0.10048622434196822,-0.3424726265519167,0.004826864996299485,-0.003911261200486426,1.1776559069005887
8438,4.0,300.19055,2229.9599,0.0,0.0,0.0,0.0,0.0,0.0840999392682801,-0.48257358303880454,0.15691533527133786,-0.35219387973382965,0.01971216159968888,0.005067263851425006,1.216503611759559
8439,4.0,300.42305,2293.3224,0.0,0.0,0.0,0.0,0.0,0.08410990607786392,-0.4394118645540746,0.12946059427176587,-0.3871614953223646,0.031213328410765673,0.0029298615028048175,1.2052264421215888
8440,4.0,300.50311,2291.7519,0.0,0.0,0.0,0.0,0.0,0.08411987288744774,-0.4441015203894076,0.12185186622334289,-0.37438568825649066,0.025034153385178576,0.02154090476442178,1.2311509525551387
8441,4.0,301.25556,2250.7238,0.0,0.0,0.0,0.0,0.0,0.08412983969703156,-0.4162420467698916,0.1346037909843599,-0.4025255889736826,0.006320870452696344,-0.013765413988040587,1.201456543799529
8442,4.0,300.72985,2370.7548,0.0,0.0,0.0,0.0,0.0,0.08413980650661539,-0.4653641076428615,0.11219150937243988,-0.36747767331472264,-0.017134035886247685,-0.0035906249951170965,1.214641156750749
8443,4.0,300.41702000000004,2383.3724,0.0,0.0,0.0,0.0,0.0,0.08414977331619922,-0.48286432502249854,0.13821210631297287,-0.37983346794914463,-0.0065197370981479544,0.0009546299644121421,1.204345117184609
8444,4.0,300.48062999999996,2469.8292,0.0,0.0,0.0,0.0,0.0,0.08415974012578302,-0.4650510741569675,0.1009070696650024,-0.3866223854741586,-0.025808979657147974,0.017540906463902686,1.217798038762309
8445,4.0,299.72774,2237.4335,0.0,0.0,0.0,0.0,0.0,0.08416970693536685,-0.4047857750442456,0.1025543458163259,-0.3778924759250837,0.008205845451603891,-0.0006072352019219485,1.1658199298324687
8446,4.0,299.66213999999997,2243.8172,0.0,0.0,0.0,0.0,0.0,0.08417967374495067,-0.4291898733052426,0.12414514504217189,-0.37701968255394563,0.006057835185036785,-0.0014864620120523787,1.2201317563926288
8447,4.0,299.71296,2152.5503,0.0,0.0,0.0,0.0,0.0,0.08418964055453448,-0.4094759071071256,0.1196304673666079,-0.36447610227849064,0.00982502975052994,-0.007758155384395322,1.1719807944154987
8448,4.0,299.79762,2132.1449,0.0,0.0,0.0,0.0,0.0,0.08419960736411831,-0.41760750260465157,0.11213205185657191,-0.34264336932626765,0.00984714920286296,0.01054499612896009,1.1957974406660188
8449,4.0,300.09123999999997,2258.9776,0.0,0.0,0.0,0.0,0.0,0.08420957417370213,-0.4482392994252746,0.1323940343712739,-0.37082751867532665,-0.003187199771777127,0.010367960058237992,1.185210598321179
8450,4.0,299.65217,2466.8884,0.0,0.0,0.0,0.0,0.0,0.08421954098328595,-0.46231966599489854,0.1180575587063739,-0.4056103782406276,0.01032283293853429,0.018644475651316484,1.227110921756419
8451,4.0,299.03606,2444.9183,0.0,0.0,0.0,0.0,0.0,0.08422950779286976,-0.43577755936039664,0.13751995516966287,-0.44493651953181557,0.0063399819707825045,0.0010910777388559892,1.200257362306179
8452,4.0,299.12505,2326.2792,0.0,0.0,0.0,0.0,0.0,0.0842394746024536,-0.4433328182010426,0.13704968553325086,-0.4008476670730846,0.017541904515251183,0.0013520531703872588,1.235954669954229
8453,4.0,299.07333,2323.2174,0.0,0.0,0.0,0.0,0.0,0.08424944141203743,-0.4122389084073126,0.08203712560143393,-0.3759982859231416,-0.006402606805138093,-0.023036182254994177,1.1823938643681888
8454,4.0,299.51853,2386.0355,0.0,0.0,0.0,0.0,0.0,0.08425940822162123,-0.4824838597424495,0.12321872034324088,-0.36603008342685667,-0.0020891207787051684,-0.0029808076165078073,1.220429449272009
8455,4.0,300.43677,2437.9022,0.0,0.0,0.0,0.0,0.0,0.08426937503120506,-0.49807995726916454,0.10963415731254889,-0.35261560455795066,-0.02846275158330487,-0.004988641723165605,1.1903294365013688
8456,4.0,299.51155,2330.2662,0.0,0.0,0.0,0.0,0.0,0.08427934184078888,-0.4566042565533316,0.11664855338231589,-0.36838702474946866,-0.008181738306549701,0.019685153418273378,1.212222528762049
8457,4.0,300.21947,2101.3922,0.0,0.0,0.0,0.0,0.0,0.0842893086503727,-0.40060000848364263,0.14681189428420585,-0.38498264283732864,-0.00886512098614432,0.017145019517331682,1.2115312895438288
8458,4.0,299.74832000000004,2165.9626,0.0,0.0,0.0,0.0,0.0,0.08429927545995652,-0.4291717057309496,0.13286588467784188,-0.36209273539327064,0.004206344048933836,0.01097400014179949,1.2202260899769388
8459,4.0,299.75579,2474.1787,0.0,0.0,0.0,0.0,0.0,0.08430924226954034,-0.45974364986816557,0.1198528757635579,-0.4121977501882506,0.010013395882545231,-0.010676120824401092,1.2162136195809388
8460,4.0,298.93446,2436.7766,0.0,0.0,0.0,0.0,0.0,0.08431920907912416,-0.4834873927739905,0.11229248987740591,-0.3695243371917126,0.01692276108139648,-0.01094410926384949,1.195906669026799
8461,4.0,299.26347999999996,2243.3789,0.0,0.0,0.0,0.0,0.0,0.08432917588870797,-0.4377252388351176,0.1109807666954489,-0.3551866962891977,0.01835129578788188,-0.02295210681469658,1.1753206693951188
8462,4.0,300.00737000000004,2244.1538,0.0,0.0,0.0,0.0,0.0,0.08433914269829179,-0.41964492564072964,0.12150228480634188,-0.38402407784522563,0.027984073997563072,-0.006861755312427524,1.181179078823299
8463,4.0,301.06056,2270.5791,0.0,0.0,0.0,0.0,0.0,0.08434910950787562,-0.41634523616007557,0.10146785799909791,-0.37532198201139566,0.00948856404547336,-0.000993989299776606,1.208193947689459
8464,4.0,300.95511,2195.9058,0.0,0.0,0.0,0.0,0.0,0.08435907631745944,-0.4182200832176086,0.12970624662600988,-0.3789866847080737,-0.017930692631621583,0.007950075187161332,1.2086936826387789
8465,4.0,301.44996000000003,2322.4543,0.0,0.0,0.0,0.0,0.0,0.08436904312704326,-0.4317267881106166,0.08846577192089192,-0.36270707906140165,-0.04431518416006816,0.011111581266877689,1.1957070587570988
8466,4.0,300.64364,2382.2447,0.0,0.0,0.0,0.0,0.0,0.08437900993662709,-0.4979864849474396,0.11994002540465888,-0.34609645473956063,-0.03511657551223617,0.006262685984253984,1.2178815305705488
8467,4.0,299.98684,2390.7476,0.0,0.0,0.0,0.0,0.0,0.0843889767462109,-0.47428292754058055,0.12391690032464589,-0.37636153608399164,-0.02021433949499998,0.007075616438158973,1.2031568787923388
8468,4.0,299.61969,2280.8979999999997,0.0,0.0,0.0,0.0,0.0,0.08439894355579473,-0.4487266220608696,0.13060011559922788,-0.3752095315152976,0.01190723590790269,-0.0031117255076033973,1.2100722093998288
8469,4.0,300.04287,2288.5777,0.0,0.0,0.0,0.0,0.0,0.08440891036537854,-0.4029820277462296,0.12022760604804089,-0.4129160634491426,0.025665354495223273,-0.004840768104896615,1.206334836405979
8470,4.0,300.02949,2316.667,0.0,0.0,0.0,0.0,0.0,0.08441887717496237,-0.44757716074992654,0.14430561002935488,-0.40093737010443764,0.027629188216288573,0.003559322862427817,1.227228762743049
8471,4.0,299.55157,2326.1631,0.0,0.0,0.0,0.0,0.0,0.08442884398454617,-0.44640242898148963,0.12126897383831588,-0.38196202269921664,0.013216193930336788,-0.01018669974784899,1.2089509468391688
8472,4.0,298.93077999999997,2407.9759,0.0,0.0,0.0,0.0,0.0,0.08443881079413,-0.5164214660743305,0.13906705634984987,-0.3546101265847946,-0.0011214758498060491,-0.03729894498836926,1.2276844213130187
8473,4.0,300.22544,2475.9697,0.0,0.0,0.0,0.0,0.0,0.08444877760371383,-0.4479389720956346,0.09464902730463172,-0.39934304133708964,0.002604628688356837,-0.02767815150087087,1.1839801073997387
8474,4.0,300.82333,2458.0917,0.0,0.0,0.0,0.0,0.0,0.08445874441329765,-0.4601304175638366,0.10395654209971189,-0.39102461265362465,-0.005152885004750155,-0.008352571260159602,1.2290099550938387
8475,4.0,300.34725,2366.4563,0.0,0.0,0.0,0.0,0.0,0.08446871122288147,-0.4115845413602316,0.11875974102567388,-0.4265188447166326,-0.016023422584138684,0.017264435094617087,1.1983717038700787
8476,4.0,300.70376,2256.6,0.0,0.0,0.0,0.0,0.0,0.08447867803246528,-0.40449770804081564,0.10251466694240992,-0.3839670217320946,-0.008945837097060382,0.012604039895671887,1.225653665462599
8477,4.0,300.80785,2071.7952,0.0,0.0,0.0,0.0,0.0,0.08448864484204911,-0.40641704691023967,0.11280468780295588,-0.33616165909907264,-0.0044424633409369954,0.024289061950643776,1.181899600969409
8478,4.0,301.67395,2269.0567,0.0,0.0,0.0,0.0,0.0,0.08449861165163294,-0.44936794857916357,0.1165988939949149,-0.3569675238699516,-0.008900633679624152,0.03579057225350447,1.2323560108990688
8479,4.0,300.05159,2265.9286,0.0,0.0,0.0,0.0,0.0,0.08450857846121675,-0.44555888814073863,0.13054124576841786,-0.37376806165803567,0.016021167089416085,0.017095965040240385,1.174591027998109
8480,4.0,299.67744,2344.7644,0.0,0.0,0.0,0.0,0.0,0.08451854527080058,-0.44369450795673854,0.12434771400216388,-0.39340303487835665,0.01942229303758108,-0.01176802851641399,1.2103156933988588
8481,4.0,299.71214,2519.8331,0.0,0.0,0.0,0.0,0.0,0.0845285120803844,-0.44908414735865454,0.1021523793691549,-0.41903456404549166,0.024201665076518376,-0.02103314487430978,1.1956907454304888
8482,4.0,300.44404,2539.825,0.0,0.0,0.0,0.0,0.0,0.08453847888996821,-0.47155984829433356,0.11922687971927688,-0.4197103917296906,0.018738051324551683,-0.009117543877556521,1.2332595260132386
8483,4.0,299.95132,2358.1281,0.0,0.0,0.0,0.0,0.0,0.08454844569955204,-0.49945698442006653,0.14847700870353986,-0.36583208422481567,-0.01875855646682538,0.011217830672363689,1.2315459174441188
8484,4.0,300.17532,2283.4541,0.0,0.0,0.0,0.0,0.0,0.08455841250913586,-0.48410259770470654,0.12829886250211187,-0.33830929334852766,0.002851676490638557,-0.013239786445665187,1.2301507733814288
8485,4.0,299.15337999999997,2165.8128,0.0,0.0,0.0,0.0,0.0,0.08456837931871967,-0.42501724859843665,0.14559838543444184,-0.37893413755788763,-0.005975954545780795,-0.006496536913258274,1.225770391874119
8486,4.0,299.37282999999996,2120.9653,0.0,0.0,0.0,0.0,0.0,0.08457834612830349,-0.4144047912910686,0.14165544426030388,-0.3719711537981947,0.006435037293138734,0.0025834375757654376,1.2197468226796389
8487,4.0,298.91795,2284.7486,0.0,0.0,0.0,0.0,0.0,0.08458831293788732,-0.4018369943382236,0.1106305570633859,-0.4033000970851206,-0.013547200446504589,0.008022632912247222,1.221325162360409
8488,4.0,298.90128,2395.1774,0.0,0.0,0.0,0.0,0.0,0.08459827974747115,-0.4393833719612626,0.1108355882211209,-0.39952633828017964,-0.026921001376895973,0.0028646179235657775,1.2136041965984088
8489,4.0,301.10985,2435.5548,0.0,0.0,0.0,0.0,0.0,0.08460824655705496,-0.49083338507148355,0.1110517448649539,-0.3605662031901136,-0.024545507444952975,0.012040898794844188,1.200815055161219
8490,4.0,300.35991,2381.9244,0.0,0.0,0.0,0.0,0.0,0.08461821336663879,-0.4708688218586346,0.10294348451723091,-0.3561202036063276,0.0036796475277029368,0.020173471065466582,1.190813162099109
8491,4.0,300.80382000000003,2468.3526,0.0,0.0,0.0,0.0,0.0,0.0846281801762226,-0.4662757490228336,0.10049281958686909,-0.38453463430561363,0.0016412660583553485,0.017894276423027586,1.176812882817389
8492,4.0,301.36961,2371.0907,0.0,0.0,0.0,0.0,0.0,0.08463814698580642,-0.4212290813770736,0.08629895279404351,-0.38582223200268967,0.035700333212848566,-0.02311677616794818,1.187493856096519
8493,4.0,299.4033,2000.2517,0.0,0.0,0.0,0.0,0.0,0.08464811379539025,-0.3589561082512096,0.11141706205600789,-0.36048752431984865,0.009681737846563131,-0.027062887801649078,1.1866935911675387
8494,4.0,299.5024,1963.7408,0.0,0.0,0.0,0.0,0.0,0.08465808060497407,-0.40368412900552164,0.13388368427079086,-0.3271277137249917,0.02431593739629618,-0.03906927732458746,1.2103696996291888
8495,4.0,299.9824,2191.4854,0.0,0.0,0.0,0.0,0.0,0.08466804741455788,-0.4460361998653456,0.13621429122330386,-0.35633492143501866,-0.007776050495736432,-0.0013780468858026389,1.2284043355090688
8496,4.0,299.40344,2164.5392,0.0,0.0,0.0,0.0,0.0,0.0846780142241417,-0.43775504865305953,0.13160277723568287,-0.35181359683879865,-0.024423492881161076,0.014755556919510087,1.201000277279499
8497,4.0,299.96527000000003,2455.5206,0.0,0.0,0.0,0.0,0.0,0.08468798103372553,-0.4281326278859006,0.09844367730013451,-0.4167279913853506,-0.016179512748793586,0.017956374468656184,1.217895918721969
8498,4.0,300.79407000000003,2624.3124,0.0,0.0,0.0,0.0,0.0,0.08469794784330936,-0.46713880506051053,0.09759079733321181,-0.4281774236728216,-0.004554922956285896,0.016156849383806886,1.202103301338359
8499,4.0,300.47094,2507.5869,0.0,0.0,0.0,0.0,0.0,0.08470791465289317,-0.43856739152323154,0.1068262082379259,-0.43050260973729954,0.025101597338334773,0.013588809561861087,1.2514897191624188
8500,4.0,301.41284,2398.1351,0.0,0.0,0.0,0.0,0.0,0.084717881462477,-0.4922141916452585,0.12182612967080289,-0.35858513712459766,0.013468369588724587,-0.03234759400995897,1.2127026066594289
8501,4.0,301.10364,2356.7502,0.0,0.0,0.0,0.0,0.0,0.08472784827206081,-0.4900842386100485,0.16057691715770786,-0.38688588116266365,0.015268747830158086,-0.008731643118671082,1.2580942859642388
8502,4.0,299.51362,2159.2073,0.0,0.0,0.0,0.0,0.0,0.08473781508164463,-0.46306476958843457,0.13980496586767585,-0.3330852899404587,0.0004297930914872756,-0.02042341048088368,1.195488500710529
8503,4.0,300.14239,2275.1279,0.0,0.0,0.0,0.0,0.0,0.08474778189122846,-0.4342581807029456,0.12285705085254688,-0.38018095193843865,0.0008712395318446472,0.02216964165022328,1.2148214139435387
8504,4.0,300.0661,2376.6644,0.0,0.0,0.0,0.0,0.0,0.08475774870081228,-0.4256421807301126,0.1091653568887819,-0.4059698084486006,-0.017043856627347684,0.006767037605004613,1.1864556800440589
8505,4.0,300.51707999999996,2193.8272,0.0,0.0,0.0,0.0,0.0,0.0847677155103961,-0.3908250226489266,0.1075243679543289,-0.3835680139752156,-0.006328755159674505,0.0007021317277225063,1.208175202562609
8506,4.0,299.8694,2166.2926,0.0,0.0,0.0,0.0,0.0,0.08477768231997991,-0.41148176740258857,0.1067418349020989,-0.35375892557328764,-0.013834199484329186,-0.014962232582157385,1.2161847419530887
8507,4.0,299.89512,2531.2388,0.0,0.0,0.0,0.0,0.0,0.08478764912956374,-0.4614224836938536,0.07896278699602033,-0.38697370968133166,0.0012635120329239286,-0.02215433954721308,1.2113416091251088
8508,4.0,299.08266000000003,2617.8184,0.0,0.0,0.0,0.0,0.0,0.08479761593914756,-0.46210710638892055,0.06506027925619964,-0.39870460258158064,-0.0059823447088614545,-0.028533423751279676,1.205807642378949
8509,4.0,300.17426,2410.8613,0.0,0.0,0.0,0.0,0.0,0.08480758274873137,-0.4446758609435905,0.1089910981365839,-0.39715685292132963,0.0035343093651591766,0.017661578471312084,1.1945559053184887
8510,4.0,300.29671,2245.6025,0.0,0.0,0.0,0.0,0.0,0.0848175495583152,-0.4166429695694596,0.1050033307780219,-0.37096746877913866,0.009047975645565672,0.04118779785891916,1.1911093351033388
8511,4.0,299.67952,2143.9612,0.0,0.0,0.0,0.0,0.0,0.08482751636789902,-0.4255040848739836,0.13598981579614988,-0.36219640101100165,0.005140867351939105,0.018813293250477484,1.2114742435631989
8512,4.0,301.73004,2148.6041,0.0,0.0,0.0,0.0,0.0,0.08483748317748284,-0.4325691029187466,0.12414557060721387,-0.34469847357659067,-0.0060763097741100836,-0.0013483123523430687,1.2104900737410689
8513,4.0,301.28809,2173.4132,0.0,0.0,0.0,0.0,0.0,0.08484744998706667,-0.4583171051848765,0.1297075841161419,-0.3320538114711597,0.00982392976622138,-0.00874186812940521,1.215445272030109
8514,4.0,300.68462999999997,2199.3203,0.0,0.0,0.0,0.0,0.0,0.08485741679665049,-0.4307464990363696,0.13519539732024685,-0.3729873423234846,0.010548759339831489,-0.004454033441178875,1.2099405882118388
8515,4.0,300.36655,2336.2072,0.0,0.0,0.0,0.0,0.0,0.0848673836062343,-0.4363905148758906,0.11173148369453889,-0.38548963265736463,0.0064661262380069735,0.012535889707195987,1.2399072572693186
8516,4.0,300.53869,2503.7478,0.0,0.0,0.0,0.0,0.0,0.08487735041581812,-0.43628590693556657,0.08665100654128852,-0.4114419162761556,-0.000864805940864701,0.0025521745545300173,1.207006925197309
8517,4.0,300.08103,2686.5391,0.0,0.0,0.0,0.0,0.0,0.08488731722540194,-0.5105461353694805,0.1095159920858869,-0.4156106703675796,-0.0013378506463855785,0.028124058551878477,1.2604433036710687
8518,4.0,300.13398,2577.5317,0.0,0.0,0.0,0.0,0.0,0.08489728403498577,-0.4960711078859065,0.10403267771222591,-0.39146683552726863,0.007454499122876784,0.017368998451936683,1.2325195494652088
8519,4.0,300.01825,2178.9422,0.0,0.0,0.0,0.0,0.0,0.08490725084456958,-0.4621171071674075,0.15133899440599585,-0.35156591798435466,-0.006266650021295204,-0.012468602807805288,1.2292227376148386
8520,4.0,300.34391,2255.3679,0.0,0.0,0.0,0.0,0.0,0.0849172176541534,-0.40308292719118766,0.11691880744898789,-0.3994114154538376,-0.007228480009195432,-0.03201073090821317,1.1975614077651089
8521,4.0,300.01325,2419.496,0.0,0.0,0.0,0.0,0.0,0.08492718446373723,-0.4361909654011966,0.10178824768071791,-0.4010636514644006,-0.002183340777678958,-0.007012845290488943,1.190788844096709
8522,4.0,299.89878999999996,2214.3423,0.0,0.0,0.0,0.0,0.0,0.08493715127332105,-0.40223349936735564,0.11302698474239488,-0.3838982524478076,0.02240815261776248,0.012251279913107187,1.1829835759263887
8523,4.0,300.69551,2052.2467,0.0,0.0,0.0,0.0,0.0,0.08494711808290488,-0.42324963379898656,0.13235400085982285,-0.3329361091282357,-0.005777892218258565,0.008963244227153331,1.195091104021309
8524,4.0,300.91517000000005,2281.541,0.0,0.0,0.0,0.0,0.0,0.08495708489248868,-0.4494338807631706,0.11636497507682889,-0.36046257810238663,-0.006450357128025683,-0.0030258702935051472,1.2154614840317088
8525,4.0,301.49405,2488.8139,0.0,0.0,0.0,0.0,0.0,0.08496705170207251,-0.4455247112148656,0.09852913177381822,-0.4095416974361186,-0.01347195142782809,0.0015484195198921084,1.2132202761355189
8526,4.0,300.59751,2624.4147,0.0,0.0,0.0,0.0,0.0,0.08497701851165632,-0.45820686357399654,0.08485346134713462,-0.42440314811032953,0.007605972210801012,0.01134441195435629,1.2297816463699989
8527,4.0,300.51127,2667.3295,0.0,0.0,0.0,0.0,0.0,0.08498698532124015,-0.45429431990285857,0.09991951862728872,-0.45642677566581563,0.01190514962594679,0.019753005711219882,1.239578052311829
8528,4.0,299.9059,2310.9466,0.0,0.0,0.0,0.0,0.0,0.08499695213082398,-0.47655222272954256,0.13460278786676086,-0.3605206272006157,0.002165556921198828,-0.013497099282059988,1.219774889707409
8529,4.0,299.9883,2257.9458,0.0,0.0,0.0,0.0,0.0,0.0850069189404078,-0.4730353836199575,0.13579198884662588,-0.34911576778504366,-0.007599630278425112,0.002225136736353898,1.249395229880709
8530,4.0,300.23975,2400.6182,0.0,0.0,0.0,0.0,0.0,0.08501688574999161,-0.5294094274461425,0.16202783050590186,-0.3623463822908036,-0.009299575068621602,0.00940348751407696,1.2468358614531188
8531,4.0,299.25383999999997,2420.8284,0.0,0.0,0.0,0.0,0.0,0.08502685255957543,-0.4575722346388636,0.1251761270189219,-0.4034752880274106,0.008028331430809622,0.011606442483216689,1.2468571397052186
8532,4.0,300.09615,2241.9233,0.0,0.0,0.0,0.0,0.0,0.08503681936915926,-0.43225812633055555,0.14201906932369085,-0.3912496352358326,-0.0015276988593221387,-0.002062412721969288,1.201241532128309
8533,4.0,299.98299,2213.4025,0.0,0.0,0.0,0.0,0.0,0.08504678617874309,-0.38783338146367463,0.12592101782993687,-0.4109067378383376,0.01867196917952988,-0.0024661431362393775,1.2099456544623386
8534,4.0,299.39713,2356.4291,0.0,0.0,0.0,0.0,0.0,0.08505675298832689,-0.46070082670763157,0.13124650836802187,-0.3868412981582636,0.02154713929228708,0.006383486573101073,1.2219643205234887
8535,4.0,300.14681,2506.7656,0.0,0.0,0.0,0.0,0.0,0.08506671979791072,-0.4966784601283475,0.12203537594895389,-0.38735106428357363,-0.0007775997705406222,-0.010448041266641391,1.2297088950128188
8536,4.0,299.62635,2523.5176,0.0,0.0,0.0,0.0,0.0,0.08507668660749453,-0.48959866889712655,0.1028861244290699,-0.38037377343246864,0.0054974389787299845,-0.022924603153982183,1.227169284962179
8537,4.0,298.67559,2343.3577,0.0,0.0,0.0,0.0,0.0,0.08508665341707836,-0.4181567753513606,0.11088957418644889,-0.4050550158608176,-0.011729886742899688,0.007339876623864424,1.208019162047209
8538,4.0,299.29798999999997,2175.4768,0.0,0.0,0.0,0.0,0.0,0.08509662022666219,-0.39299650880573567,0.13281624555544289,-0.4011103724265116,-0.013778942903375788,0.01047822700037049,1.2185337596599188
8539,4.0,299.28844,2408.0613,0.0,0.0,0.0,0.0,0.0,0.085106587036246,-0.40896724542442464,0.10268378851660091,-0.42570703886901357,0.011124257025628689,-0.0003055381405317667,1.205996208222559
8540,4.0,299.74047,2622.9166,0.0,0.0,0.0,0.0,0.0,0.08511655384582982,-0.49713276094318354,0.09757966779411341,-0.3977480742221786,-0.014369780182436887,-0.008498384535675252,1.2124474702842487
8541,4.0,300.13532000000004,2354.5721,0.0,0.0,0.0,0.0,0.0,0.08512652065541364,-0.47857605808177955,0.11993002462617187,-0.35708510141155564,0.0026577492367744274,-0.009387680407216922,1.2137745239402187
8542,4.0,299.73496,2069.6175,0.0,0.0,0.0,0.0,0.0,0.08513648746499747,-0.4583632891244346,0.16950291086613484,-0.34025165326022366,0.006167412002526175,0.013328055728126686,1.244214482119409
8543,4.0,300.56332000000003,2371.9534,0.0,0.0,0.0,0.0,0.0,0.0851464542745813,-0.4705854867331716,0.13780126379492588,-0.3882303728528546,0.0035965708480289065,0.023190097984934478,1.2291453253071987
8544,4.0,300.27364,2493.3271,0.0,0.0,0.0,0.0,0.0,0.0851564210841651,-0.4492986422723236,0.1141725349079519,-0.42278308279044163,0.0071408182714938935,-0.013377588459265188,1.228701623088409
8545,4.0,299.97956,2426.1021,0.0,0.0,0.0,0.0,0.0,0.08516638789374893,-0.4440409179009266,0.11496416694607989,-0.4083976874107136,0.0027271230260710877,-0.02908378472859607,1.226001210246899
8546,4.0,300.69773,2489.2028,0.0,0.0,0.0,0.0,0.0,0.08517635470333274,-0.4854202281347465,0.13458195544470486,-0.4058172231160416,0.006507985423488155,-0.02051766097868548,1.265361720981479
8547,4.0,300.06799,2431.6239,0.0,0.0,0.0,0.0,0.0,0.08518632151291657,-0.5133942294130655,0.12860501601982688,-0.35436374469047865,-0.0034584100425684968,-0.0025938638179694275,1.2440154797997687
8548,4.0,299.23056,2441.0108,0.0,0.0,0.0,0.0,0.0,0.0851962883225004,-0.47458583865797555,0.12971165738154386,-0.3971321397513906,-0.0003538539886976697,0.005557373026120015,1.253053062741709
8549,4.0,298.73639,2500.3973,0.0,0.0,0.0,0.0,0.0,0.08520625513208421,-0.4594334940125556,0.1019809273197339,-0.4026057674540956,0.0024988591581181978,0.008551236876791372,1.2164319749774888
8550,4.0,298.98305,2330.0385,0.0,0.0,0.0,0.0,0.0,0.08521622194166803,-0.39468527248240365,0.1316954085598249,-0.4452836488835746,0.0030031823065410175,0.04722531950727616,1.2579120022712489
8551,4.0,298.70493999999997,2139.5749,0.0,0.0,0.0,0.0,0.0,0.08522618875125185,-0.4146405847218396,0.1273699249429329,-0.3631066947683407,0.01111019818049119,0.016277246800439186,1.1842280496992088
8552,4.0,300.80409,2295.3183,0.0,0.0,0.0,0.0,0.0,0.08523615556083568,-0.46160242677911256,0.11365721617209389,-0.34977422836252864,-0.003929545197215916,-0.004590518330973886,1.2168711175708289
8553,4.0,300.97942,2259.0408,0.0,0.0,0.0,0.0,0.0,0.08524612237041951,-0.4762078494180555,0.12105589747478687,-0.3315400328754537,0.016243858183143986,-0.013317350740820187,1.1798142309385988
8554,4.0,300.65693,2324.9334,0.0,0.0,0.0,0.0,0.0,0.08525608918000331,-0.4555819074674336,0.11979185784253589,-0.37093166052060467,0.01142932636573669,-0.008033889918208203,1.2443581609835888
8555,4.0,300.54913,2393.2302,0.0,0.0,0.0,0.0,0.0,0.08526605598958714,-0.4486410834874276,0.10971059690009288,-0.38855172512206965,0.011119642684673291,-0.008871033807102871,1.194447690207809
8556,4.0,300.98079,2469.7367,0.0,0.0,0.0,0.0,0.0,0.08527602279917096,-0.4275105024570016,0.09265523076485932,-0.4158830319944596,-0.03002421051740887,-0.019330915103812782,1.241083437985399
8557,4.0,300.23056,2404.1686,0.0,0.0,0.0,0.0,0.0,0.08528598960875478,-0.4333625182770506,0.1023668540178219,-0.39981155805082863,-0.005676128166990235,-0.026798394061795575,1.1983946033223387
8558,4.0,299.69087,2501.4855,0.0,0.0,0.0,0.0,0.0,0.0852959564183386,-0.46984522647511356,0.1187078322230509,-0.4092517153899996,-0.02040229232229948,-2.2567035299692977e-05,1.260757816502109
8559,4.0,299.6486,2526.0693,0.0,0.0,0.0,0.0,0.0,0.08530592322792242,-0.4873542793956225,0.10062609439902231,-0.3811337920674766,0.018176767511157283,0.002992670850003617,1.2028363877857091
8560,4.0,299.72721,2193.3618,0.0,0.0,0.0,0.0,0.0,0.08531589003750624,-0.4572553812000925,0.15156386500068886,-0.3610357128889507,0.006758561565268093,-0.008722015418870903,1.2210332450065988
8561,4.0,300.30899,1904.3066,0.0,0.0,0.0,0.0,0.0,0.08532585684709006,-0.40147202165220364,0.17761985476721484,-0.35500948897920864,0.013432277620162587,0.013180905469104087,1.229277655770259
8562,4.0,299.68032,2162.0353,0.0,0.0,0.0,0.0,0.0,0.08533582365667389,-0.40587442108418664,0.15051830235499986,-0.40184861631687063,0.012232433461247187,0.026950205271278175,1.2495038502914289
8563,4.0,300.28334,2640.482,0.0,0.0,0.0,0.0,0.0,0.0853457904662577,-0.4698260557832215,0.08927257636601732,-0.4220871116942546,-0.0006389871163306185,0.01005528495890436,1.2534520806310887
8564,4.0,299.43791,2712.8508,0.0,0.0,0.0,0.0,0.0,0.08535575727584152,-0.5059411365800025,0.10989700452098988,-0.42859478138901164,0.005801450181758555,-0.0038027929799314465,1.2276734782119387
8565,4.0,299.91519,2516.5433,0.0,0.0,0.0,0.0,0.0,0.08536572408542534,-0.48709055065959456,0.1024777035787619,-0.3803534881654666,-0.01057073977425079,-0.019396384232524082,1.2248847099617088
8566,4.0,300.21827,2254.8563,0.0,0.0,0.0,0.0,0.0,0.08537569089500917,-0.4484656696301156,0.14731389891374985,-0.38426823058932164,0.007647643945013691,0.005040314033215265,1.2415504449564887
8567,4.0,300.60359,2303.7978,0.0,0.0,0.0,0.0,0.0,0.08538565770459298,-0.41856000836115664,0.11506795415382289,-0.39680494102909863,-0.008504318026935841,-0.013630225146448486,1.2276676013613588
8568,4.0,300.11197000000004,2453.3501,0.0,0.0,0.0,0.0,0.0,0.0853956245141768,-0.42587174267276856,0.09342194191677781,-0.4133073907702636,0.0044999316442086755,-0.02201343496180688,1.207353862031549
8569,4.0,302.19534,2304.2868,0.0,0.0,0.0,0.0,0.0,0.08540559132376063,-0.4219482761655526,0.12665407387978386,-0.4051514570053356,0.0004337649204217645,-0.007845909834481014,1.2247250217459487
8570,4.0,300.37757,1992.8986,0.0,0.0,0.0,0.0,0.0,0.08541555813334445,-0.4062026026590756,0.13624375653621187,-0.3358325757315947,-0.0035617917476214764,0.025566563623723376,1.1995998643162888
8571,4.0,300.67694,2357.2791,0.0,0.0,0.0,0.0,0.0,0.08542552494292827,-0.4481158349005896,0.09236324349679241,-0.36080140893582663,0.006541635560634164,0.0031402264090662165,1.192502250015809
8572,4.0,300.6063,2683.0354,0.0,0.0,0.0,0.0,0.0,0.08543549175251208,-0.5031238554719585,0.08595573864067092,-0.39840764937477363,-0.005822457693431834,0.005618762607278695,1.2026280635651487
8573,4.0,300.27446000000003,2548.4428,0.0,0.0,0.0,0.0,0.0,0.08544545856209591,-0.4606409638917236,0.08900974030332742,-0.4030317681936386,0.009200797774673041,-0.012293292302003489,1.218251366857049
8574,4.0,299.37426,2131.8886,0.0,0.0,0.0,0.0,0.0,0.08545542537167973,-0.4185676887969146,0.14964960251426584,-0.3791228249915096,-0.010088830325990032,-0.0037176685218053163,1.2321285362516188
8575,4.0,300.97468,2236.7158,0.0,0.0,0.0,0.0,0.0,0.08546539218126355,-0.40597187547880464,0.12067869486005989,-0.3946125717877286,-0.03783262482928936,-0.014649227467266185,1.244235253746459
8576,4.0,299.233,2303.4455,0.0,0.0,0.0,0.0,0.0,0.08547535899084738,-0.4470589035887786,0.1165527505853609,-0.3696837518299457,-0.015655125424540586,-0.020857458452720877,1.2128710088260488
8577,4.0,300.31473,2435.7635,0.0,0.0,0.0,0.0,0.0,0.0854853258004312,-0.49506401834651453,0.13345839280631788,-0.37880564731270666,-0.002175902204719828,0.005613528258587104,1.2600501626322687
8578,4.0,300.03743,2285.6606,0.0,0.0,0.0,0.0,0.0,0.08549529261001503,-0.4536546449822275,0.1190703427113279,-0.36019944718391766,0.02181361393608608,0.016752070996050684,1.2123843448030187
8579,4.0,299.6111,2096.9175,0.0,0.0,0.0,0.0,0.0,0.08550525941959883,-0.4222288856482466,0.15182838407179486,-0.36701004826107164,0.01091598853382419,-0.01049085817611709,1.2186702444483888
8580,4.0,299.70907,2484.3659,0.0,0.0,0.0,0.0,0.0,0.08551522622918266,-0.4329691543232286,0.08393059011630433,-0.4061466307235516,0.0007220883369220703,0.0018038543985515682,1.1894243001870388
8581,4.0,300.12827999999996,2773.1141,0.0,0.0,0.0,0.0,0.0,0.08552519303876646,-0.4794259114706536,0.061988428179781535,-0.4255199523705496,0.01293764945134659,0.013593245570798886,1.224421654666009
8582,4.0,299.58293,2325.5541,0.0,0.0,0.0,0.0,0.0,0.08553515984835029,-0.4583344114965845,0.12882010875105487,-0.37739608470109365,0.009786955358147291,0.02245838449146998,1.218102013792309
8583,4.0,301.64006,2086.9395,0.0,0.0,0.0,0.0,0.0,0.08554512665793412,-0.43351776845737255,0.13366176223388887,-0.3345214908972007,-0.009021466185849392,0.007925391502800243,1.2215993478374687
8584,4.0,300.96894,2219.37,0.0,0.0,0.0,0.0,0.0,0.08555509346751794,-0.4069257288579426,0.08334535509704612,-0.35105269667620365,-0.019830115057079982,-0.008425604199542393,1.1906801223609789
8585,4.0,300.55432,2259.2863,0.0,0.0,0.0,0.0,0.0,0.08556506027710176,-0.42719151106051956,0.1276143107345519,-0.38718941036261967,0.02010517598222638,0.009362834906814861,1.227663041735909
8586,4.0,300.78832,2496.0137,0.0,0.0,0.0,0.0,0.0,0.08557502708668557,-0.4334853039241686,0.0897211654900396,-0.4149617039435316,0.009273246068748131,0.021187727322815878,1.2222956533061886
8587,4.0,300.38379,2462.5188,0.0,0.0,0.0,0.0,0.0,0.0855849938962694,-0.4367914275429576,0.1002936298159606,-0.4120464212858156,0.014893407569114886,-0.017555642160106983,1.1999256242234388
8588,4.0,298.80151,2287.0787,0.0,0.0,0.0,0.0,0.0,0.08559496070585323,-0.43020050921998454,0.1088962376622219,-0.37391055501959863,-0.022154002134929778,-0.014430356326415286,1.2212117796742188
8589,4.0,300.16024,2413.1033,0.0,0.0,0.0,0.0,0.0,0.08560492751543704,-0.4578476866785486,0.1023139522301009,-0.37798941356215066,-0.014747165182181884,0.012601385180409888,1.2104723418643186
8590,4.0,299.87127999999996,2611.4737,0.0,0.0,0.0,0.0,0.0,0.08561489432502087,-0.4801866697782346,0.11434078508705689,-0.42797691161053253,0.010022132023582422,0.029779696043027177,1.2426962281695688
8591,4.0,299.48846000000003,2439.2578,0.0,0.0,0.0,0.0,0.0,0.08562486113460467,-0.47791982665451455,0.1193833052697149,-0.3829369516804347,-0.012665551269492589,-0.0006490472307434744,1.216029410712759
8592,4.0,299.5616,2173.8449,0.0,0.0,0.0,0.0,0.0,0.0856348279441885,-0.41858426556855055,0.10480332534078289,-0.3470136082000767,-0.001123518967307689,-0.0028014605249576273,1.205546527828179
8593,4.0,300.08896,2276.3144,0.0,0.0,0.0,0.0,0.0,0.08564479475377233,-0.4302894523137626,0.1223277999278139,-0.38398107551098165,-0.01923888868998048,-0.015003987605528287,1.2349120356013288
8594,4.0,299.41815,2520.6526,0.0,0.0,0.0,0.0,0.0,0.08565476156335615,-0.47330966028952653,0.11426986771255788,-0.4071756672601096,0.017129897772839284,0.0012227144295725188,1.2512103661098488
8595,4.0,300.94891,2657.2270000000003,0.0,0.0,0.0,0.0,0.0,0.08566472837293997,-0.4951677852892555,0.1111746014395789,-0.4237374630596316,0.007691487175515681,-0.030832928991973173,1.2586075984648988
8596,4.0,300.29674,2460.3057,0.0,0.0,0.0,0.0,0.0,0.08567469518252378,-0.4461748530090296,0.1023180457605049,-0.4040147018506466,0.004623892053492616,-0.014942225958932886,1.2187966980608689
8597,4.0,299.61933,2240.0427,0.0,0.0,0.0,0.0,0.0,0.08568466199210761,-0.42783567467909356,0.13625190306701587,-0.38933327532170264,-0.01077582362099099,0.006139360882782744,1.249682486284059
8598,4.0,300.08335,2289.4320000000002,0.0,0.0,0.0,0.0,0.0,0.08569462880169144,-0.4241482143851696,0.13846759732568786,-0.4102495539559786,0.009660555447922591,0.01004004699462549,1.2079197622123987
8599,4.0,300.51916,2510.4994,0.0,0.0,0.0,0.0,0.0,0.08570459561127525,-0.4627216223095686,0.1035335912429699,-0.4039410790983806,-0.0014489533172005586,-0.008511124939782632,1.238983781128179
8600,4.0,299.70597999999995,2339.2002,0.0,0.0,0.0,0.0,0.0,0.08571456242085908,-0.4413321660110936,0.1026335009141379,-0.3723597960065506,0.006246500833781634,-0.03021741907297707,1.1848335679589688
8601,4.0,300.55168,1988.711,0.0,0.0,0.0,0.0,0.0,0.08572452923044288,-0.4054879472310446,0.15379479854086484,-0.35282531693114766,0.007176469070962353,0.005492262993244155,1.2660732252016988
8602,4.0,300.48582000000005,2141.6335,0.0,0.0,0.0,0.0,0.0,0.08573449604002671,-0.4140455333356126,0.13550793431359187,-0.37246550838948367,-0.006079890194663444,0.02676638143813618,1.2467349417431588
8603,4.0,300.22122,2731.8184,0.0,0.0,0.0,0.0,0.0,0.08574446284961054,-0.49045032587117854,0.0985623927216008,-0.4385166479582236,-0.003039992770748927,-0.006896665223422863,1.2746731854254487
8604,4.0,298.9752,2909.6135,0.0,0.0,0.0,0.0,0.0,0.08575442965919436,-0.5230547078539806,0.06713162995862604,-0.42852678217480056,-0.01004682411791934,0.018493023132369283,1.211102988726559
8605,4.0,299.50527999999997,2489.6967,0.0,0.0,0.0,0.0,0.0,0.08576439646877818,-0.46064845180996256,0.10005938868434282,-0.39621655682852963,0.0002750618776014937,0.009594772616980331,1.2489252844843288
8606,4.0,299.63894,2121.422,0.0,0.0,0.0,0.0,0.0,0.08577436327836199,-0.4476033431325106,0.15085939273616283,-0.3481153555638107,-0.001067846751163269,-0.017219147881397584,1.2111076496770188
8607,4.0,299.43692999999996,2426.8681,0.0,0.0,0.0,0.0,0.0,0.08578433008794582,-0.4540874142324386,0.13564360850198187,-0.4192635079055866,-0.009459131055243552,-0.037669889770478665,1.2626419550630588
8608,4.0,299.13386,2590.1756,0.0,0.0,0.0,0.0,0.0,0.08579429689752965,-0.48763804008612754,0.10425760910192491,-0.4039682747310646,0.014353253060055788,-0.014801126829507487,1.2316910148584388
8609,4.0,299.70642000000004,2472.4902,0.0,0.0,0.0,0.0,0.0,0.08580426370711346,-0.4417555626978795,0.11979563726540889,-0.4296153674197356,0.02252973857676208,0.014852853247112486,1.2652475276952089
8610,4.0,299.41775,2236.5138,0.0,0.0,0.0,0.0,0.0,0.08581423051669729,-0.4621635342869896,0.14612185070110387,-0.3638026759970287,-0.00016359187322776084,0.026055256173453573,1.238287475659459
8611,4.0,301.04409,2503.6679999999997,0.0,0.0,0.0,0.0,0.0,0.08582419732628109,-0.4677491565232476,0.1096359608977269,-0.4029393699170196,-0.03315634288202626,-0.013994766187925884,1.2254144371139888
8612,4.0,300.92394,2811.4824,0.0,0.0,0.0,0.0,0.0,0.08583416413586492,-0.5232845028441595,0.08298229644046502,-0.4143182394675266,-0.026743568112134675,-0.004118230401687697,1.2046039012601488
8613,4.0,299.8646,2705.7738,0.0,0.0,0.0,0.0,0.0,0.08584413094544875,-0.4790029910114145,0.099082171784399,-0.44256684165544663,0.00962754781266499,0.017644200218846984,1.2419046771914488
8614,4.0,300.23013,2334.5748,0.0,0.0,0.0,0.0,0.0,0.08585409775503257,-0.4437487472345916,0.12793030291073787,-0.3938340005433897,0.010997322119351189,-0.014364685560934088,1.250425705232409
8615,4.0,299.85688,2100.6681,0.0,0.0,0.0,0.0,0.0,0.08586406456461639,-0.41741964603611165,0.14431188204747386,-0.36544290499390664,0.0011002864597398191,-0.008116450245631271,1.245599291031079
8616,4.0,299.73636,2340.3546,0.0,0.0,0.0,0.0,0.0,0.0858740313742002,-0.45556306101557353,0.11818105362856188,-0.37402734222612466,-0.006762413638173264,-0.03207384727019227,1.2198499715398188
8617,4.0,299.26257000000004,2640.2065,0.0,0.0,0.0,0.0,0.0,0.08588399818378403,-0.49307143162736156,0.1068838317711129,-0.4163692501874456,0.02660064513252927,0.0035732341783507567,1.2459039753361487
8618,4.0,299.00743,2484.3957,0.0,0.0,0.0,0.0,0.0,0.08589396499336785,-0.4710347516950106,0.11602458383823488,-0.4001840895825946,-0.0034692398622873165,0.016892008940861486,1.2434673114956687
8619,4.0,299.22821,2173.2568,0.0,0.0,0.0,0.0,0.0,0.08590393180295167,-0.43899467909040163,0.14977750507438886,-0.37139863709419163,-0.023755795515764476,-0.01027470761178469,1.2441975608427387
8620,4.0,300.55829,2310.3823,0.0,0.0,0.0,0.0,0.0,0.08591389861253548,-0.45043208409918556,0.15196127182240984,-0.4038276964121906,-0.004221659121545316,0.009180592351778922,1.2554877000819886
8621,4.0,301.03722,2533.2952,0.0,0.0,0.0,0.0,0.0,0.08592386542211931,-0.48132237115281956,0.13493298580934887,-0.42366908894288363,-0.0061760494530036245,0.04146218699924926,1.2597744572800589
8622,4.0,301.16567000000003,2617.3905,0.0,0.0,0.0,0.0,0.0,0.08593383223170313,-0.4749812899070035,0.11319143523362489,-0.43383150108583557,0.024917550590170773,-0.0004667079508529886,1.2585722360364089
8623,4.0,300.31397000000004,2540.4481,0.0,0.0,0.0,0.0,0.0,0.08594379904128695,-0.4686045523901685,0.1071353305784339,-0.4107635453342056,-0.01802997999567048,-0.010752659710454889,1.221729449150309
8624,4.0,300.2857,2431.7195,0.0,0.0,0.0,0.0,0.0,0.08595376585087078,-0.4582803748687516,0.0987798220075594,-0.37968145003664167,-0.006372498686366654,-0.016316719984584886,1.225477663920229
8625,4.0,300.23065,2189.928,0.0,0.0,0.0,0.0,0.0,0.0859637326604546,-0.4657989641882786,0.15999500762527785,-0.3598794830673397,-0.0007940721976813243,-0.006478074888486214,1.2519353465563987
8626,4.0,299.98672999999997,2300.6108,0.0,0.0,0.0,0.0,0.0,0.08597369947003841,-0.46312672983204956,0.16437618960016684,-0.4005776967164406,0.0032760283682938276,-0.009964327118627521,1.2719482519315188
8627,4.0,299.95718999999997,2571.7474,0.0,0.0,0.0,0.0,0.0,0.08598366627962223,-0.4966149293470775,0.13131148809693488,-0.4164435619497796,-0.007722725980073712,-0.01970383876336748,1.2357256754316288
8628,4.0,300.25333,2501.7644,0.0,0.0,0.0,0.0,0.0,0.08599363308920606,-0.47738268251150257,0.12476384568573289,-0.4078550514521596,0.0005881273923311545,-0.014298690555420886,1.2500804909233387
8629,4.0,299.26948,2350.5115,0.0,0.0,0.0,0.0,0.0,0.08600359989878988,-0.45661692217958155,0.13083522001993086,-0.3887151015681936,0.005143662706314985,0.021049758122949378,1.2311240001024788
8630,4.0,299.80592,2522.6195,0.0,0.0,0.0,0.0,0.0,0.08601356670837369,-0.45764885661142557,0.1003320512465025,-0.4094965368791616,-0.00015817457209811483,0.0077501238574776725,1.2562038652526688
8631,4.0,299.32912000000005,2531.363,0.0,0.0,0.0,0.0,0.0,0.08602353351795751,-0.44620376103438253,0.09198838554279681,-0.4152557795200546,-0.008667017014042981,-0.002403705550502268,1.2328834075761188
8632,4.0,299.78805,2551.1862,0.0,0.0,0.0,0.0,0.0,0.08603350032754134,-0.4828045837966025,0.11219961537323987,-0.4048919332572226,0.008663690513964682,-0.0013020312421004787,1.2489547700622385
8633,4.0,298.96346,2279.5987,0.0,0.0,0.0,0.0,0.0,0.08604346713712516,-0.4453122630663986,0.14670784363143688,-0.39433666378549864,0.009167113896298701,0.005020024713212865,1.2410075455529088
8634,4.0,300.53295,2126.0891,0.0,0.0,0.0,0.0,0.0,0.08605343394670897,-0.4394867538689656,0.15800841934671686,-0.36479965330042263,-0.004735816470138696,-0.0069951217223897634,1.2623068732549887
8635,4.0,300.95989,2414.3751,0.0,0.0,0.0,0.0,0.0,0.0860634007562928,-0.4290957423709526,0.1023630847274499,-0.40717706554524763,-0.016178193497163384,-0.015241530919221986,1.226700960765959
8636,4.0,300.89909,2698.4578,0.0,0.0,0.0,0.0,0.0,0.08607336756587661,-0.5332935291869735,0.12002456086050188,-0.4069948325147626,0.005587291768447765,-0.006299333416520805,1.234552331815829
8637,4.0,299.39086000000003,2593.1056,0.0,0.0,0.0,0.0,0.0,0.08608333437546044,-0.4712023533940516,0.11781887751281789,-0.4348558766719336,0.0037643455088619765,0.035349229894197365,1.239604396814429
8638,4.0,300.67708,2515.8145,0.0,0.0,0.0,0.0,0.0,0.08609330118504427,-0.5063031404432295,0.12765720161128488,-0.38609884927998966,-0.019470017117291082,-0.016013277924137485,1.2642629525730387
8639,4.0,300.77939,2627.7423,0.0,0.0,0.0,0.0,0.0,0.08610326799462809,-0.4751266608988506,0.0966813293747043,-0.4203226987651206,0.005500573467914335,-0.004917991644042986,1.2557173025546489
8640,4.0,299.48357000000004,2683.3439,0.0,0.0,0.0,0.0,0.0,0.0861132348042119,-0.5144991583821136,0.09136619526589142,-0.3925365743203436,0.005669790692914775,-0.002841804800214297,1.2450989481316987
8641,4.0,299.61122,2589.2866,0.0,0.0,0.0,0.0,0.0,0.08612320161379572,-0.46545075065891256,0.1002620640355953,-0.4218897913697806,0.02027918547489978,0.008855128009683091,1.248550179297309
8642,4.0,299.50979,2408.5929,0.0,0.0,0.0,0.0,0.0,0.08613316842337955,-0.47519927040101656,0.1334978892952159,-0.3904507077969846,-0.025427920612540376,-0.0015122174110442383,1.2643255714292188
8643,4.0,299.52036,2254.0193,0.0,0.0,0.0,0.0,0.0,0.08614313523296337,-0.41763032099690367,0.1045705615278109,-0.37210583500148664,-0.026439958865420773,0.01238172471773109,1.227870758006409
8644,4.0,299.29663,2269.9301,0.0,0.0,0.0,0.0,0.0,0.08615310204254718,-0.4512857878384396,0.14552987959518085,-0.3842461721346446,-0.006375077002571114,0.018978833998815083,1.2563908098961187
8645,4.0,299.04087000000004,2513.1839,0.0,0.0,0.0,0.0,0.0,0.08616306885213101,-0.4762673677289295,0.1276405741771439,-0.41531835784623056,0.0066427562994140045,0.026321341729214177,1.2224178512682489
8646,4.0,297.90738999999996,2403.4001,0.0,0.0,0.0,0.0,0.0,0.08617303566171482,-0.4643241989327306,0.12221401194158389,-0.38846342037585463,-0.01935206771290038,-0.025737138198557774,1.2262357776450488
8647,4.0,299.87331,2176.7517,0.0,0.0,0.0,0.0,0.0,0.08618300247129865,-0.40688748879916864,0.1162091169464469,-0.3709998015898296,-0.015334331456130685,-0.019269123059714382,1.2011744549716887
8648,4.0,300.22645,2333.8193,0.0,0.0,0.0,0.0,0.0,0.08619296928088248,-0.43931226206924456,0.11527520432927689,-0.38538574412461163,0.003947783901665936,0.003066672760457037,1.2271429404595788
8649,4.0,299.87956,2544.9436,0.0,0.0,0.0,0.0,0.0,0.0862029360904663,-0.4629520353823085,0.09336902290380511,-0.4040162825208026,0.015954080813545185,0.006440507019828554,1.2392052776000386
8650,4.0,299.68724,2417.0911,0.0,0.0,0.0,0.0,0.0,0.08621290290005011,-0.4738966259399556,0.13343934370443788,-0.3942780776647166,0.004815079377761336,-0.007480345309077602,1.2812297241725288
8651,4.0,300.50178999999997,2342.17,0.0,0.0,0.0,0.0,0.0,0.08622286970963393,-0.4225739378373006,0.1084070202489399,-0.39779429869174066,-0.023792219830359274,-0.005317675137413675,1.2499515041856089
8652,4.0,299.54708,2486.8916,0.0,0.0,0.0,0.0,0.0,0.08623283651921776,-0.4828155066326806,0.10856288851182289,-0.38170031033088764,-0.00913375628445656,0.010882259464495388,1.2585429531085186
8653,4.0,300.18277,2653.7306,0.0,0.0,0.0,0.0,0.0,0.08624280332880159,-0.4711942676582535,0.11472852550282389,-0.4502020864589865,-0.0019064979509066983,0.028640174715565174,1.2351910846788687
8654,4.0,299.94855,2579.8177,0.0,0.0,0.0,0.0,0.0,0.08625277013838539,-0.4897489541519585,0.1132280844897419,-0.4076792930898136,-0.01133077360801029,-0.013617141047907186,1.2507911845434787
8655,4.0,299.89162000000005,2293.8883,0.0,0.0,0.0,0.0,0.0,0.08626273694796922,-0.4312954171455436,0.13054454896374387,-0.3965339067598496,-0.004407893172700186,-0.006611563597735523,1.2098704713049189
8656,4.0,299.82447,2100.2532,0.0,0.0,0.0,0.0,0.0,0.08627270375755303,-0.4342605719731816,0.14589315002103287,-0.35005710752544666,-0.008227376813578872,0.02136797640960508,1.2470387141231387
8657,4.0,300.89959,2222.0218,0.0,0.0,0.0,0.0,0.0,0.08628267056713686,-0.44627455681886957,0.1251485767487029,-0.35431315311298567,0.01156578683620429,0.006368138671186354,1.208944462038529
8658,4.0,299.75093,2647.7177,0.0,0.0,0.0,0.0,0.0,0.08629263737672069,-0.5078849555718425,0.12163471659441188,-0.41858981817909857,0.000877560267028455,-0.016816646438173783,1.261679266143049
8659,4.0,299.59847,2609.0448,0.0,0.0,0.0,0.0,0.0,0.0863026041863045,-0.44092834531623953,0.06063681638113785,-0.41279295356199264,0.01190039748297779,-0.02094925181903018,1.1866305670113189
8660,4.0,299.19268,2311.1816,0.0,0.0,0.0,0.0,0.0,0.08631257099588832,-0.4312448762305556,0.1154590180299179,-0.3867556481273106,0.014521464735656986,-0.006377324999242974,1.2518924860771687
8661,4.0,300.56872999999996,2469.2027,0.0,0.0,0.0,0.0,0.0,0.08632253780547214,-0.42233652320636955,0.09218388505684111,-0.4204233448975536,0.002155615012542638,0.008155364419696803,1.2374509363768988
8662,4.0,300.26316,2595.032,0.0,0.0,0.0,0.0,0.0,0.08633250461505597,-0.4797348108961396,0.1017596740278979,-0.4108497931827176,-0.005570317498797535,-0.002453736294064918,1.271069662769809
8663,4.0,299.62799,2428.2446,0.0,0.0,0.0,0.0,0.0,0.0863424714246398,-0.4478796159047766,0.11809196867976987,-0.4083380779073306,-0.01166258667125769,0.0004937879311705745,1.225587297581049
8664,4.0,298.72962,2219.26,0.0,0.0,0.0,0.0,0.0,0.0863524382342236,-0.44047831028432455,0.1262416709565829,-0.36036297561755665,-0.01208889543883109,0.02834822493775197,1.234100219621209
8665,4.0,298.42188,2057.5971,0.0,0.0,0.0,0.0,0.0,0.08636240504380743,-0.40125132564792265,0.12986448589412689,-0.35407131057911767,-0.013292636557631089,0.0007132791709501733,1.179810785888259
8666,4.0,299.06932,2222.3295,0.0,0.0,0.0,0.0,0.0,0.08637237185339124,-0.4719650774068266,0.16264564962187583,-0.36621323851493265,-0.02128125739979658,-0.028818750926439273,1.2288714438051689
8667,4.0,300.26217,2452.4469,0.0,0.0,0.0,0.0,0.0,0.08638233866297507,-0.45810871003680953,0.10365794742774291,-0.39103185739183965,0.015706887305899087,-0.010398174162969889,1.196639552824129
8668,4.0,299.52196000000004,2435.2483,0.0,0.0,0.0,0.0,0.0,0.0863923054725589,-0.47378165245110854,0.10926831323144288,-0.3757413256977817,0.006565296166369285,0.006397684030852254,1.2425505228051887
8669,4.0,298.8429,2431.1372,0.0,0.0,0.0,0.0,0.0,0.08640227228214271,-0.4422602220426856,0.12103248126497587,-0.4177772726589066,0.006145881045851234,0.025296499034820077,1.2589214020208688
8670,4.0,300.50867,2701.305,0.0,0.0,0.0,0.0,0.0,0.08641223909172653,-0.49870562907341354,0.08698585834158583,-0.40940948856307063,-0.03333927505508027,0.0005767771369634715,1.2367968834373488
8671,4.0,299.87483,2624.8062,0.0,0.0,0.0,0.0,0.0,0.08642220590131035,-0.47578763433658355,0.1066648380269999,-0.42875274707960165,0.022786412052343778,0.02240830561852758,1.2465275294476887
8672,4.0,299.63052999999996,2449.4078,0.0,0.0,0.0,0.0,0.0,0.08643217271089418,-0.46909737697380655,0.12237724653269387,-0.39783866891361963,0.0005461386324271865,0.016853728352083482,1.246086866979199
8673,4.0,300.30385,2352.1582,0.0,0.0,0.0,0.0,0.0,0.086442139520478,-0.4097843201725636,0.08194065405941292,-0.3871537034290956,0.015760774985967386,-0.03152023983955547,1.2495550194214788
8674,4.0,300.70467,2194.99,0.0,0.0,0.0,0.0,0.0,0.08645210633006181,-0.4340951082318516,0.15446466831447586,-0.38759170104982266,-0.029546121629975174,-0.045510906417576755,1.2380270703837588
8675,4.0,299.60072,2175.5135,0.0,0.0,0.0,0.0,0.0,0.08646207313964563,-0.4164587708337806,0.12401919805474189,-0.36886221878136666,0.00975429111334858,-0.008187501673118502,1.2086643997108888
8676,4.0,299.75976,2213.6436,0.0,0.0,0.0,0.0,0.0,0.08647203994922945,-0.4404545394369786,0.11937180488107989,-0.3518096451634087,-0.002444843707212288,0.038340138499627065,1.2102750620698488
8677,4.0,299.4959,2386.9606,0.0,0.0,0.0,0.0,0.0,0.08648200675881328,-0.4558384015977476,0.1100003965611939,-0.37973843522226564,-0.011324809617921688,0.016384234865248086,1.225878100359749
8678,4.0,299.43478,2584.764,0.0,0.0,0.0,0.0,0.0,0.08649197356839709,-0.48775031832970855,0.09492971075458301,-0.3928831159870446,-0.015095527659312588,0.0037159973684153867,1.2166122321702788
8679,4.0,299.72744,2613.1206,0.0,0.0,0.0,0.0,0.0,0.08650194037798092,-0.4628924461439275,0.1040918515180659,-0.43552281815275556,-0.0031431853020082367,0.004823127521980625,1.2481008028779588
8680,4.0,300.23533,2463.7309,0.0,0.0,0.0,0.0,0.0,0.08651190718756474,-0.46698734443556256,0.1135117843852409,-0.3954371141891046,0.03186142647947797,0.024109535311175878,1.2501786748580288
8681,4.0,299.80896,2594.4037,0.0,0.0,0.0,0.0,0.0,0.08652187399714856,-0.4452471313499705,0.08428062648260022,-0.4276674447649906,0.010644062604487189,-0.026664568041587972,1.280167128792659
8682,4.0,300.20609,2628.6216,0.0,0.0,0.0,0.0,0.0,0.08653184080673237,-0.4839910591336985,0.11163642057015688,-0.4266807012876066,-0.0002468825918529148,-0.017347998843614185,1.251908090128709
8683,4.0,300.10992000000005,2600.3652,0.0,0.0,0.0,0.0,0.0,0.0865418076163162,-0.4845875696000696,0.1049468218199449,-0.41080534190083057,-0.011405186695354291,0.02503537536479918,1.256769866758529
8684,4.0,299.92494,2401.6539,0.0,0.0,0.0,0.0,0.0,0.08655177442590002,-0.4736158948672496,0.11903055237990089,-0.3754574940797697,0.005039509816610895,0.026873130375921473,1.2322564084142387
8685,4.0,299.82313999999997,2341.7023,0.0,0.0,0.0,0.0,0.0,0.08656174123548384,-0.44026730095099964,0.13664838783114588,-0.40820012390621563,-0.0015299258817169285,-0.015015223535887185,1.2740373709876989
8686,4.0,300.52857,2470.5235,0.0,0.0,0.0,0.0,0.0,0.08657170804506766,-0.4529387533890746,0.07832311511513962,-0.3763618096615186,-0.004148697818944596,-0.04949080588911225,1.2254814129455989
8687,4.0,301.05324,2353.2669,0.0,0.0,0.0,0.0,0.0,0.08658167485465149,-0.4424886795427326,0.14809809369614385,-0.42094379067891763,0.03974757632578036,-0.009743470108905632,1.257408416971549
8688,4.0,300.94911,2351.6544,0.0,0.0,0.0,0.0,0.0,0.0865916416642353,-0.4546069176912096,0.11958153751927887,-0.37981882648519966,0.007791115295573212,0.027266049512949576,1.2280574999998386
8689,4.0,300.98022000000003,2555.6835,0.0,0.0,0.0,0.0,0.0,0.08660160847381912,-0.48182753712267556,0.12522839045907988,-0.42026482191940856,0.01143048451060099,0.004017518306673186,1.2490288386445487
8690,4.0,300.11267999999995,2682.9487,0.0,0.0,0.0,0.0,0.0,0.08661157528340295,-0.4917194114889275,0.0916343286001041,-0.41546431652313565,-0.013746708377944488,0.004032148827517106,1.2275994096296288
8691,4.0,299.43169,2715.1538,0.0,0.0,0.0,0.0,0.0,0.08662154209298675,-0.47129616008830955,0.08893242932069742,-0.44297521184324956,0.008212894733874602,0.038574834580539764,1.2535302022137986
8692,4.0,299.69387,2646.5323,0.0,0.0,0.0,0.0,0.0,0.08663150890257058,-0.47808812749612456,0.08039070361994471,-0.4067822931737866,0.004874622310612766,0.03846500434920037,1.2541355178235387
8693,4.0,300.25079,2311.6204,0.0,0.0,0.0,0.0,0.0,0.08664147571215441,-0.4344846421002956,0.13998882009832087,-0.4081790685691376,-0.01956692537010518,-0.022650470365927378,1.2769233099225188
8694,4.0,300.26177,2332.4253,0.0,0.0,0.0,0.0,0.0,0.08665144252173823,-0.4527658523920106,0.1111093076031349,-0.36734249561888166,-0.027939911491954576,-0.028732584137935273,1.2369645763288988
8695,4.0,300.64032000000003,2521.4447,0.0,0.0,0.0,0.0,0.0,0.08666140933132205,-0.4698998710530065,0.11828155790598088,-0.4148379151788146,-0.0026105241827386774,-0.015571590046546286,1.2425156670017488
8696,4.0,299.80406,2485.263,0.0,0.0,0.0,0.0,0.0,0.08667137614090586,-0.48414074657097156,0.11320694809265588,-0.38452410663707465,-0.0007534518826999112,0.03452269949612517,1.219689776699009
8697,4.0,299.76279,2438.4863,0.0,0.0,0.0,0.0,0.0,0.0866813429504897,-0.4545725786453206,0.13579153288408088,-0.42245789030334757,-0.01013774456926749,-0.02263819990721638,1.2563470374917989
8698,4.0,299.44304,2412.1328,0.0,0.0,0.0,0.0,0.0,0.08669130976007351,-0.46684923844693255,0.13080327224427787,-0.3971821841738296,0.019486577676925482,-0.021451976869395276,1.2299111397327789
8699,4.0,299.72521,2638.7877,0.0,0.0,0.0,0.0,0.0,0.08670127656965733,-0.4665492150923225,0.09574450568999701,-0.4313208699880556,0.032409811619099366,-0.0025187172388780378,1.2618441219343186
8700,4.0,300.51774,2732.3251,0.0,0.0,0.0,0.0,0.0,0.08671124337924116,-0.5233209899802606,0.1283350760606859,-0.4355726700576756,0.024843033138066475,0.0020858996566372676,1.245037646500649
8701,4.0,300.79475,2728.8761,0.0,0.0,0.0,0.0,0.0,0.08672121018882496,-0.5156594716016275,0.12555218466103588,-0.4394028972906896,-0.017606478944124183,-0.023122316619494977,1.2942481641073489
8702,4.0,300.84353,2323.6418,0.0,0.0,0.0,0.0,0.0,0.0867311769984088,-0.46135745330243555,0.13667306047108085,-0.38164468290039766,-0.03434742749382717,-0.015948163432961186,1.2306168684274288
8703,4.0,300.70586000000003,2223.7344,0.0,0.0,0.0,0.0,0.0,0.08674114380799262,-0.43025276252764155,0.13482020094071787,-0.38052716936510766,0.012256229639845689,0.03169455736025927,1.2676040434527789
8704,4.0,299.88478,2495.4055,0.0,0.0,0.0,0.0,0.0,0.08675111061757644,-0.4540243596787156,0.10661710381478891,-0.4111337159932386,0.004487565737338255,0.04669974566715605,1.226678871913779
8705,4.0,300.0318,2671.7211,0.0,0.0,0.0,0.0,0.0,0.08676107742716026,-0.4920118557327896,0.12830329040504887,-0.44842794632889255,-0.003928392422577146,-0.024649510474967277,1.285612841455109
8706,4.0,299.61137,2490.7193,0.0,0.0,0.0,0.0,0.0,0.08677104423674407,-0.48145533996344253,0.11401460974736588,-0.3896757335905006,-0.03223783875912697,-0.044891357683682055,1.2446349809109087
8707,4.0,299.15574,2449.3182,0.0,0.0,0.0,0.0,0.0,0.0867810110463279,-0.4705241648371196,0.11861110736850489,-0.3926185259884316,0.005333960093020875,-0.012299883493903988,1.2596202406148387
8708,4.0,299.54731,2722.2137,0.0,0.0,0.0,0.0,0.0,0.08679097785591172,-0.5055863065274836,0.09838142017424022,-0.4202801118634176,0.028243353552401974,0.008638346494513421,1.2184395274006188
8709,4.0,300.68782000000004,2873.3217,0.0,0.0,0.0,0.0,0.0,0.08680094466549554,-0.5199923012817446,0.1093960638040509,-0.4628218023469556,-0.006414036164941084,-0.012384953945799788,1.2715652433937188
8710,4.0,301.10947000000004,2724.2119,0.0,0.0,0.0,0.0,0.0,0.08681091147507937,-0.5046333245434316,0.09610346271017331,-0.4195625281425976,-0.007046566355141953,-0.02023585484762338,1.247893086607459
8711,4.0,300.41324,2430.5738,0.0,0.0,0.0,0.0,0.0,0.08682087828466317,-0.4406788324791146,0.1220076736912199,-0.4201625951168196,0.0007651755815244502,0.006294751094268564,1.2742080023045388
8712,4.0,300.52575,2314.5041,0.0,0.0,0.0,0.0,0.0,0.086830845094247,-0.46668199138542654,0.14043414351727088,-0.3773036256294686,0.02313355457635408,0.023967928543450378,1.2708116892943488
8713,4.0,300.65962,2695.2077,0.0,0.0,0.0,0.0,0.0,0.08684081190383083,-0.48053057699467555,0.1159653492373889,-0.45471059344144155,-0.001162604279315109,-0.013413492976558685,1.2853460527037788
8714,4.0,300.79867,2790.7073,0.0,0.0,0.0,0.0,0.0,0.08685077871341465,-0.5208111188200556,0.1102747036282659,-0.43776889978192657,-0.023538748225093577,-0.0054151127120800144,1.252595276346529
8715,4.0,300.00332000000003,2471.7528,0.0,0.0,0.0,0.0,0.0,0.08686074552299847,-0.4214279823717036,0.08810045270333772,-0.4180235937582166,-0.014658496679180988,0.02896053399968217,1.2333561900727787
8716,4.0,300.54242,2248.9445,0.0,0.0,0.0,0.0,0.0,0.08687071233258228,-0.4360926193464906,0.14646457241492786,-0.39399492492427163,0.0026955748762575275,0.026402001503424675,1.2468841934828887
8717,4.0,299.5668,2504.3652,0.0,0.0,0.0,0.0,0.0,0.08688067914216611,-0.46644821432235456,0.1189845204278579,-0.4138007827739576,0.0007415535806181403,-0.0075664250593980124,1.2568912541205088
8718,4.0,300.23299,2694.7044,0.0,0.0,0.0,0.0,0.0,0.08689064595174995,-0.5433840816328335,0.14098678025431186,-0.4167255595851106,0.0035020386666993063,-0.040123235760605065,1.2864469489374288
8719,4.0,300.36431,2539.1174,0.0,0.0,0.0,0.0,0.0,0.08690061276133375,-0.47864920460649857,0.12709058202286388,-0.42026966525488657,0.006138475504845364,-0.00038001553885961365,1.2565522206370487
8720,4.0,300.35766,2263.3041,0.0,0.0,0.0,0.0,0.0,0.08691057957091758,-0.44702621614055255,0.14392831622211885,-0.38489002164568764,0.027160514448784073,0.0026942521795769872,1.2661024068045788
8721,4.0,299.5269,2314.0709,0.0,0.0,0.0,0.0,0.0,0.08692054638050138,-0.44454401684057854,0.15747579429915085,-0.4163515588406996,0.03967940992530286,-0.006711436721667233,1.2519885421866488
8722,4.0,299.48062000000004,2743.3844,0.0,0.0,0.0,0.0,0.0,0.08693051319008521,-0.49627591612861954,0.09025293636777132,-0.42789736134518164,0.016306811411856983,-0.011498129087276989,1.239627701566729
8723,4.0,299.91827,2700.0811,0.0,0.0,0.0,0.0,0.0,0.08694047999966903,-0.4982076673117686,0.1190581330476229,-0.44160769911078657,-0.010857056894758091,0.027893701207893973,1.2447318476204687
8724,4.0,300.98259,2406.6706,0.0,0.0,0.0,0.0,0.0,0.08695044680925286,-0.46685709113520757,0.1047941250298749,-0.36950480172978467,-0.02041734516578508,0.015632251303533084,1.2708090548440887
8725,4.0,300.94289,2134.005,0.0,0.0,0.0,0.0,0.0,0.08696041361883668,-0.4438125211958856,0.15018755725735786,-0.3550592699566217,-0.040773063447238064,-0.018666130832453682,1.2746243467706289
8726,4.0,300.93935,2470.0638,0.0,0.0,0.0,0.0,0.0,0.0869703804284205,-0.46513509285525956,0.12658664208562886,-0.41228926693728263,-0.008054689814935992,-0.012993710552879385,1.2575006227306489
8727,4.0,299.46903,2710.0499,0.0,0.0,0.0,0.0,0.0,0.08698034723800432,-0.47204653258236556,0.08999161308748072,-0.44173257205311056,0.0041676325248883065,0.015265385866326286,1.2470849183276989
8728,4.0,300.68346,2564.8312,0.0,0.0,0.0,0.0,0.0,0.08699031404758814,-0.44624407825586154,0.1014073872331299,-0.4348079600747046,0.02510307060398018,0.02481444631299518,1.2613302014835988
8729,4.0,299.47863,2408.5591,0.0,0.0,0.0,0.0,0.0,0.08700028085717196,-0.46585060954587554,0.12139739315598988,-0.3876885981568856,0.0037176307275765866,-0.010789184336809591,1.2494036398565387
8730,4.0,299.64783,2545.8237,0.0,0.0,0.0,0.0,0.0,0.08701024766675577,-0.5216765154654636,0.12964449916491588,-0.38183482941416363,0.023275808810893476,-0.014038715911013385,1.2724631856323387
8731,4.0,299.11376,2712.4337,0.0,0.0,0.0,0.0,0.0,0.08702021447633959,-0.5304621943000425,0.1099807496417549,-0.4040306706722226,0.033350855490473175,0.015941923838845386,1.2335945064962988
8732,4.0,300.37331,2619.9236,0.0,0.0,0.0,0.0,0.0,0.08703018128592342,-0.47348316923665057,0.1110815040203909,-0.4339896896914476,0.011276322560886388,-0.012122360049883788,1.2773739022419885
8733,4.0,299.98162,2400.5064,0.0,0.0,0.0,0.0,0.0,0.08704014809550724,-0.40660158001845165,0.09133724975028472,-0.4144296564485226,-0.026839524923104874,-0.03550971452453597,1.2241522314644186
8734,4.0,299.98321,2301.54,0.0,0.0,0.0,0.0,0.0,0.08705011490509107,-0.4222227960151456,0.1344474363614289,-0.41183533089248264,-0.018372981366522084,-0.022802142760146277,1.274477729481159
8735,4.0,298.70212000000004,2266.105,0.0,0.0,0.0,0.0,0.0,0.08706008171467489,-0.42843357329810156,0.11783046909396187,-0.37823622102150867,-0.010276470666958689,0.03229740671925587,1.2218204390092886
8736,4.0,300.77026,2400.4919,0.0,0.0,0.0,0.0,0.0,0.0870700485242587,-0.4771101486321056,0.13029191531631087,-0.38287135386896065,0.002176193007498528,0.02162381395385428,1.293504742508979
8737,4.0,300.61467999999996,2509.5129,0.0,0.0,0.0,0.0,0.0,0.08708001533384252,-0.4898601887479366,0.1305223790515559,-0.4034914594990066,-0.03162608394500147,0.016254975563241184,1.2596141611142386
8738,4.0,299.36221,2484.776,0.0,0.0,0.0,0.0,0.0,0.08708998214342635,-0.4692621517050686,0.10399833866633691,-0.39004604610454763,-0.0018679914073563982,-0.03137426799039917,1.2626286814867487
8739,4.0,298.61304,2537.2845,0.0,0.0,0.0,0.0,0.0,0.08709994895301017,-0.4374317408111516,0.10580041410168789,-0.4396398052965706,0.007178132726301544,-0.011807057897015888,1.2448855576606386
8740,4.0,299.22816,2752.6027,0.0,0.0,0.0,0.0,0.0,0.08710991576259398,-0.4691303076020566,0.08717198326570492,-0.45476416397422853,0.02088941129462438,-0.014711911171452588,1.2575796562384487
8741,4.0,298.85787999999997,2520.3665,0.0,0.0,0.0,0.0,0.0,0.0871198825721778,-0.4749460085385216,0.11222318357056588,-0.40340564734803763,0.0013539746978768986,-0.005219576315732075,1.2516459623278389
8742,4.0,299.95309,2416.4488,0.0,0.0,0.0,0.0,0.0,0.08712984938176163,-0.5131702606109615,0.14133383867856386,-0.36270367454106567,0.0012045115941760388,0.01199759147232009,1.242272588302759
8743,4.0,299.19636,2131.1819,0.0,0.0,0.0,0.0,0.0,0.08713981619134545,-0.4568780975253575,0.14594595048374384,-0.3368939450788437,-0.003047588600123577,0.03919794184878566,1.236970250529459
8744,4.0,299.73773,2301.2183,0.0,0.0,0.0,0.0,0.0,0.08714978300092927,-0.4213641577479046,0.12536468273003087,-0.4035134166286736,0.024184317221556274,0.005496423600804775,1.2472160328906388
8745,4.0,300.0116,2722.028,0.0,0.0,0.0,0.0,0.0,0.0871597498105131,-0.41872399275734057,0.06270144315590064,-0.47140599639914954,-0.02082155393542738,-0.012490445440210989,1.256643007846009
8746,4.0,299.89051,2804.6935,0.0,0.0,0.0,0.0,0.0,0.0871697166200969,-0.4530750051300216,0.06656199392465734,-0.4660437654124386,0.0005706652326252735,-0.034928256901650565,1.2668287044762587
8747,4.0,299.24682,2668.5869,0.0,0.0,0.0,0.0,0.0,0.08717968342968073,-0.4726950531763695,0.0960732820426947,-0.4345620037454306,-0.004445482218284936,0.006549573969867624,1.2562009268273788
8748,4.0,299.93617,2450.8042,0.0,0.0,0.0,0.0,0.0,0.08718965023926456,-0.5140794803231945,0.12133231210206688,-0.35223611199799765,-0.005830226383273545,0.014891905932466684,1.2805782043582288
8749,4.0,300.14747,2482.8413,0.0,0.0,0.0,0.0,0.0,0.08719961704884838,-0.4832290646609955,0.1150212331917119,-0.3865139069184526,0.003808439620088726,0.02318897023757318,1.255859461543679
8750,4.0,300.99292,2709.4078,0.0,0.0,0.0,0.0,0.0,0.0872095838584322,-0.5076830249594135,0.0981538675065325,-0.4140631436223506,0.0013744938230019787,0.012564700460539386,1.2590349873570787
8751,4.0,301.15088,2385.2835,0.0,0.0,0.0,0.0,0.0,0.08721955066801601,-0.41594992676606163,0.09853992795363371,-0.40765662668507663,0.018494147839980282,0.014462882667875385,1.211185061984659
8752,4.0,299.63635,1931.7837,0.0,0.0,0.0,0.0,0.0,0.08722951747759984,-0.3766448813419556,0.16338062071441184,-0.3739497576659676,0.031980691082498465,-0.013641316182043088,1.2499134059818489
8753,4.0,298.86131,2196.1424,0.0,0.0,0.0,0.0,0.0,0.08723948428718366,-0.4367851352598366,0.14344887667230186,-0.37423620346923764,0.02157772931280608,0.013361803035957288,1.2527811064148686
8754,4.0,299.37959,2676.5812,0.0,0.0,0.0,0.0,0.0,0.08724945109676747,-0.5200450409494495,0.08206881094531102,-0.37563761955004665,0.0015186873169077684,-0.013192205234219288,1.2538767337479988
8755,4.0,299.0987,2723.6511,0.0,0.0,0.0,0.0,0.0,0.0872594179063513,-0.5181820489180865,0.08657185144347651,-0.3963117415429236,0.008404498199959393,0.029428316107098677,1.2237718573768788
8756,4.0,299.69608,2473.2802,0.0,0.0,0.0,0.0,0.0,0.08726938471593511,-0.4545223721028656,0.10857418625043788,-0.4058672371409776,-0.03732458021589926,-0.01146545278480209,1.2428094082057386
8757,4.0,300.42953,2324.1703,0.0,0.0,0.0,0.0,0.0,0.08727935152551894,-0.37713690545801465,0.10029086566968781,-0.4296436978925316,-0.007229200632666554,-0.02067599751881208,1.2413556982872687
8758,4.0,301.07626,2472.4703,0.0,0.0,0.0,0.0,0.0,0.08728931833510277,-0.4025114642672886,0.10435039241358189,-0.45340818202790356,-0.012993731831131486,-0.018149194949436086,1.2607753457288386
8759,4.0,301.5295,2674.2671,0.0,0.0,0.0,0.0,0.0,0.08729928514468659,-0.5023965344176775,0.10786380673782889,-0.41837769427066357,0.023812814138641777,-0.001119460292707129,1.279074338559809
8760,4.0,300.23579,2492.2088,0.0,0.0,0.0,0.0,0.0,0.0873092519542704,-0.5176909265946165,0.14213961568808786,-0.38201793383973465,0.022072863093421977,-0.004286401749934916,1.2775436216337388
8761,4.0,298.69032000000004,2151.5258,0.0,0.0,0.0,0.0,0.0,0.08731921876385422,-0.4754524714685055,0.15396036360720483,-0.3325180218719737,0.012120043760155188,0.013522444720061387,1.2358929630231388
8762,4.0,299.23818,2581.4944,0.0,0.0,0.0,0.0,0.0,0.08732918557343805,-0.4725749121120125,0.08633287032789091,-0.39846780603321064,0.01129496940247669,-0.007108489311153273,1.2217265107250188
8763,4.0,300.0052,3032.236,0.0,0.0,0.0,0.0,0.0,0.08733915238302187,-0.49717548969990055,0.06731218403369535,-0.4918607396128755,-0.02078969937878358,0.0022009573465675775,1.1932430371639189
8764,4.0,300.81402,2616.9961,0.0,0.0,0.0,0.0,0.0,0.08734911919260568,-0.45468512033392755,0.10631897523786589,-0.4471353026463186,-0.008246000857041922,-0.0097918920139595,1.251185845457429
8765,4.0,301.33881,2040.0848,0.0,0.0,0.0,0.0,0.0,0.08735908600218951,-0.4267224877217306,0.14647808917126184,-0.33989044986457567,-0.009675261861199002,-0.02127860369778468,1.2716093197730687
8766,4.0,301.20077000000003,2069.944,0.0,0.0,0.0,0.0,0.0,0.08736905281177332,-0.4186102149036116,0.14679757706029284,-0.35739864152249967,-0.006355009786990634,0.00048468976600515547,1.2829356320408887
8767,4.0,300.87008,2490.4074,0.0,0.0,0.0,0.0,0.0,0.08737901962135715,-0.4789890892200425,0.1029663738369899,-0.3809989386116676,-0.0014450141047867887,0.014971944584365885,1.257512883056859
8768,4.0,300.40084,2854.7518,0.0,0.0,0.0,0.0,0.0,0.08738898643094098,-0.49189110671837255,0.0878677071288675,-0.46374985837854754,0.005129195724037206,0.023981181854758376,1.267869920279019
8769,4.0,299.12568999999996,2596.2129,0.0,0.0,0.0,0.0,0.0,0.0873989532405248,-0.4393332971413206,0.09042577555657921,-0.4402763594068936,-0.0045638359094655355,0.017356445296447785,1.2298879363054886
8770,4.0,299.10828,2177.8111,0.0,0.0,0.0,0.0,0.0,0.08740892005010861,-0.4072200881444936,0.11595355500622488,-0.37073365118606266,0.02502215650399458,-0.006732205308966933,1.2236415534140188
8771,4.0,299.32332,2292.8338,0.0,0.0,0.0,0.0,0.0,0.08741888685969243,-0.44956732580134057,0.12409765400998488,-0.37149455134865766,0.008096516880389003,-0.007924633287750412,1.2463728061574189
8772,4.0,299.80959,2733.361,0.0,0.0,0.0,0.0,0.0,0.08742885366927626,-0.5249893873299185,0.1122124025895019,-0.4180965173679136,0.02206839364723088,0.0006762441806526043,1.2676892577861887
8773,4.0,299.94865,2523.1094,0.0,0.0,0.0,0.0,0.0,0.08743882047886008,-0.49831655116751455,0.11153253203740389,-0.38017822629566966,-0.003855241844857746,-0.03182645313902637,1.2546658529258787
8774,4.0,300.83759,1996.0392,0.0,0.0,0.0,0.0,0.0,0.0874487872884439,-0.4001195860812286,0.15086658681187287,-0.3574930764318197,-0.016010506685113987,-0.023747054207151775,1.2386032043906188
8775,4.0,299.85463,2262.0659,0.0,0.0,0.0,0.0,0.0,0.08745875409802772,-0.3934747121904306,0.09707492536279921,-0.39121174981459367,-0.010331207450610792,-0.0015936845429344185,1.2131721467557688
8776,4.0,299.33726,2769.2187,0.0,0.0,0.0,0.0,0.0,0.08746872090761153,-0.4912853250135865,0.09701996465087499,-0.4475079861655996,-0.005806394436946515,0.013983284037792686,1.2618339894333188
8777,4.0,298.7864,2819.6167,0.0,0.0,0.0,0.0,0.0,0.08747868771719536,-0.5248511496187754,0.1020108891251909,-0.4342528003449146,0.011037621102328388,0.009648099767093311,1.2959181015971588
8778,4.0,300.11508,2610.5471,0.0,0.0,0.0,0.0,0.0,0.08748865452677917,-0.4713968872807506,0.07814026805509403,-0.4002845128000056,-0.006190587261463394,-0.006044915131686675,1.2840971206305187
8779,4.0,299.57535,2341.4189,0.0,0.0,0.0,0.0,0.0,0.087498621336363,-0.47521740757780656,0.14131792051949285,-0.37783340344425365,-3.701595538119036e-05,-0.004388577484718876,1.2967065114999687
8780,4.0,299.92152000000004,2496.7678,0.0,0.0,0.0,0.0,0.0,0.08750858814594682,-0.4462083003948306,0.0957088048359736,-0.40845556425642565,0.0009300882971850681,0.01884222458058278,1.2533738577233688
8781,4.0,300.44965,2907.5065,0.0,0.0,0.0,0.0,0.0,0.08751855495553064,-0.5039578008342626,0.07412450459626901,-0.45397607831145054,0.022009067853875876,0.010067803765214869,1.2340479359160488
8782,4.0,300.10456,2786.6375,0.0,0.0,0.0,0.0,0.0,0.08752852176511447,-0.49000715054244054,0.10411809469565589,-0.4611791516823386,-0.01242404310815759,-0.001170627193606909,1.226670056637909
8783,4.0,300.84394,2075.6927,0.0,0.0,0.0,0.0,0.0,0.08753848857469829,-0.41843204500602754,0.13082922157933888,-0.34335593745909265,-0.0018419472320860384,0.008700455584568112,1.2553044031388987
8784,4.0,300.14463,1855.0058,0.0,0.0,0.0,0.0,0.0,0.0875484553842821,-0.4010760435131236,0.17189152638687283,-0.3346909265789227,-0.004054878357735337,0.02677812602004527,1.2703492419487088
8785,4.0,300.16222,2753.5938,0.0,0.0,0.0,0.0,0.0,0.08755842219386592,-0.5071104778579075,0.1044510385460149,-0.43436431865092057,0.02112265944114418,0.005455243394215605,1.3065308831445588
8786,4.0,299.51294,3071.813,0.0,0.0,0.0,0.0,0.0,0.08756838900344974,-0.48830731204217953,0.04411078324389536,-0.4895579362431065,-0.027376227289073272,-0.005743223460787025,1.2545902644684186
8787,4.0,299.19287,2574.4748,0.0,0.0,0.0,0.0,0.0,0.08757835581303357,-0.4268991782741686,0.0866764148007961,-0.4423532890643706,-0.005153030304814495,-0.025297395761158577,1.2339741713087689
8788,4.0,299.20358,2377.5937,0.0,0.0,0.0,0.0,0.0,0.08758832262261738,-0.4454849816784446,0.1095582648800589,-0.38680240961942564,-0.006286093480114124,0.017999747652436785,1.2422666101271687
8789,4.0,300.00633,2561.5582,0.0,0.0,0.0,0.0,0.0,0.0875982894322012,-0.5017086693222905,0.12427586443757288,-0.4012169258070276,0.025704421366078874,0.007342201830193904,1.270346911473479
8790,4.0,299.53812,2620.5281,0.0,0.0,0.0,0.0,0.0,0.08760825624178503,-0.5284082552873345,0.1278380667541349,-0.39600490914764164,0.00989136156037638,-0.014567178527168587,1.292979878957179
8791,4.0,300.08485,2583.2789,0.0,0.0,0.0,0.0,0.0,0.08761822305136885,-0.49193251824995954,0.11220801521656888,-0.4055277882249766,0.007223297842883993,-0.01059587850923179,1.284002483071179
8792,4.0,300.07472,2136.4709,0.0,0.0,0.0,0.0,0.0,0.08762818986095267,-0.4077353866153496,0.17067515003932585,-0.4123735794781036,0.005064310936658576,0.012854346107625187,1.2818019065039987
8793,4.0,300.48521,2313.4947,0.0,0.0,0.0,0.0,0.0,0.0876381566705365,-0.43810149912725155,0.14007788478211086,-0.4052209862271976,0.01011756032330046,0.008408769353105923,1.2540384484639588
8794,4.0,301.40623,3030.1137,0.0,0.0,0.0,0.0,0.0,0.0876481234801203,-0.5297617345059125,0.08631161639379331,-0.47762879082829157,-0.006656336383879254,-0.015618641328189886,1.255847099892459
8795,4.0,299.91244,3108.2095,0.0,0.0,0.0,0.0,0.0,0.08765809028970413,-0.5728320679641234,0.1022308353243979,-0.47421685350155957,-0.02068864693306048,-0.02035592194472308,1.2831220700592887
8796,4.0,299.7845,2407.6024,0.0,0.0,0.0,0.0,0.0,0.08766805709928795,-0.4655914404352976,0.11342234479891389,-0.37968190599918666,-0.016666895166144485,0.006840842033013544,1.2945177899589588
8797,4.0,300.7192,2039.0293,0.0,0.0,0.0,0.0,0.0,0.08767802390887178,-0.42763722964700857,0.16232109548234486,-0.3544978584737147,-0.018077411246101585,-0.005006909305243475,1.3006035727095788
8798,4.0,300.1135,2578.5372,0.0,0.0,0.0,0.0,0.0,0.0876879907184556,-0.4373119138543256,0.1010341079227901,-0.44753310463557855,-0.0010206033573007091,-0.014529775412977185,1.2721007460715688
8799,4.0,299.66977,2872.0559,0.0,0.0,0.0,0.0,0.0,0.08769795752803941,-0.4847652531376055,0.06868537603296883,-0.45695338200778757,-0.009044829200030143,-0.004754092867492435,1.2430100317255386
8800,4.0,298.99891,2603.6579,0.0,0.0,0.0,0.0,0.0,0.08770792433762324,-0.45873361177098254,0.10187165842894991,-0.43458505518520557,0.02596033287758537,0.02811694350967627,1.2241093709851887
8801,4.0,300.16656,2319.3936,0.0,0.0,0.0,0.0,0.0,0.08771789114720704,-0.4673784792391646,0.12498856429291087,-0.3626478241955537,0.019655289898076085,0.043174217937963555,1.2355315367124688
8802,4.0,301.04535,2318.4992,0.0,0.0,0.0,0.0,0.0,0.08772785795679088,-0.47691377063022455,0.12842655227971386,-0.35627863539196364,0.02090313880697918,0.020305323274479377,1.2599481283471987
8803,4.0,300.31219,2672.6735,0.0,0.0,0.0,0.0,0.0,0.0877378247663747,-0.5113925437080145,0.14041319963770388,-0.4414466734048946,-0.004903434482506305,-0.025200787430374075,1.2873395209505187
8804,4.0,300.27937000000003,2924.4718,0.0,0.0,0.0,0.0,0.0,0.08774779157595852,-0.4726448365014136,0.08047104624687393,-0.4967926128846135,-0.01153871076703209,-0.009129407921652411,1.293120214096029
8805,4.0,301.04713,2628.4664,0.0,0.0,0.0,0.0,0.0,0.08775775838554234,-0.4568040897380536,0.12670461479477188,-0.46888867785070953,-0.014119127438949384,-0.03412875393674576,1.3046714678860487
8806,4.0,300.43453,2294.7667,0.0,0.0,0.0,0.0,0.0,0.08776772519512616,-0.4310040672117896,0.13752628798278788,-0.4040740073789996,-0.015333699188068286,-0.01217907976398159,1.2732917202391087
8807,4.0,300.09817000000004,2578.6555,0.0,0.0,0.0,0.0,0.0,0.08777769200470999,-0.5216820072810054,0.1341288502649869,-0.3962937259561456,-0.014891308114907685,0.007704025942853163,1.287321079798699
8808,4.0,299.3431,2874.1833,0.0,0.0,0.0,0.0,0.0,0.0877876588142938,-0.5511886506605845,0.12525111765882288,-0.4477424117087356,0.02234708606073568,0.02423383374069318,1.2982585066781387
8809,4.0,299.25356,2651.4986,0.0,0.0,0.0,0.0,0.0,0.08779762562387762,-0.5111227760013906,0.1104444230200159,-0.4053110134985826,0.01076013850944299,0.01142146455821079,1.2815046189246588
8810,4.0,299.70819,2196.9939,0.0,0.0,0.0,0.0,0.0,0.08780759243346145,-0.43370951590629664,0.15979138488518185,-0.3939131556412016,-0.008171124005127152,-0.02112492101536738,1.2669537395385988
8811,4.0,299.56599,2278.375,0.0,0.0,0.0,0.0,0.0,0.08781755924304525,-0.44337612451031655,0.15673524019856383,-0.4059282145319956,0.013235448721987089,-0.02990273702917037,1.2807671755018788
8812,4.0,300.55393,2671.6013,0.0,0.0,0.0,0.0,0.0,0.08782752605262908,-0.46184229347528555,0.11693283083037188,-0.4671906429356266,-0.004175556140670306,0.0007711473229763151,1.2578837325934589
8813,4.0,299.98062000000004,2809.8555,0.0,0.0,0.0,0.0,0.0,0.08783749286221292,-0.4951553628430295,0.08255566545935981,-0.4415262236702456,0.017499159546532583,0.004465997189084606,1.2752237855297888
8814,4.0,299.71383,2514.7025,0.0,0.0,0.0,0.0,0.0,0.08784745967179673,-0.4843448759361175,0.11079499742211488,-0.39085688936457164,-0.02232933087923338,-0.005971521880568324,1.263805672802909
8815,4.0,300.55114,2195.0745,0.0,0.0,0.0,0.0,0.0,0.08785742648138055,-0.4507547637260315,0.17003454292860284,-0.38652760605980463,-0.011440117479301688,0.016864012840598484,1.2916417808751186
8816,4.0,299.81819,2329.3922,0.0,0.0,0.0,0.0,0.0,0.08786739329096437,-0.4308072231148625,0.12802398801498388,-0.40529384904188864,-0.012911488347014687,0.018955035793716383,1.2701616893551988
8817,4.0,301.50518999999997,2855.8664,0.0,0.0,0.0,0.0,0.0,0.0878773601005482,-0.48743967611405054,0.08147831107853322,-0.46215070654072354,0.006291175841290714,0.010936072164056291,1.261996717399379
8818,4.0,300.93731,2843.665,0.0,0.0,0.0,0.0,0.0,0.08788732691013201,-0.48349402956214554,0.07794388194721222,-0.4588530232952675,-0.005674971643326095,-0.007587685782271283,1.236848660517459
8819,4.0,299.68523999999996,2280.7278,0.0,0.0,0.0,0.0,0.0,0.08789729371971583,-0.45521131124335856,0.12818332159320886,-0.36625631177668366,0.0061852693196385545,-0.026809625939154078,1.2488331800502388
8820,4.0,299.11242000000004,2187.6229,0.0,0.0,0.0,0.0,0.0,0.08790726052929966,-0.47123586157485853,0.16509562756866986,-0.3588425026499977,0.012641783461896887,0.012260988875565386,1.288270596467409
8821,4.0,299.80309,2729.0040000000004,0.0,0.0,0.0,0.0,0.0,0.08791722733888346,-0.5114434088630345,0.10913168658795891,-0.4272373707600456,-0.002992049423717287,-0.003136581748456517,1.2802871989295088
8822,4.0,298.5023,2800.6251,0.0,0.0,0.0,0.0,0.0,0.0879271941484673,-0.5092554675246016,0.10882850189303689,-0.4508931230271866,-0.013000340248283688,-0.02170010459363358,1.2863248523003787
8823,4.0,299.81419,2598.5488,0.0,0.0,0.0,0.0,0.0,0.08793716095805112,-0.4779746333524236,0.12011594588702089,-0.43203525183855956,0.00027434871165110973,-0.02219650595012458,1.273238524608859
8824,4.0,299.63554,2310.1925,0.0,0.0,0.0,0.0,0.0,0.08794712776763494,-0.43029629175193757,0.14452033799054687,-0.41646489086438465,0.017800787889300985,0.006927247543241102,1.2807262401978388
8825,4.0,300.16826000000003,2339.5805,0.0,0.0,0.0,0.0,0.0,0.08795709457721876,-0.44296018534426657,0.1191507542392639,-0.3873646418349136,0.01166837334257879,-0.0004631326066826295,1.2752232789047386
8826,4.0,300.50608,2820.5001,0.0,0.0,0.0,0.0,0.0,0.08796706138680258,-0.5200747697073835,0.10771714891835489,-0.44500399185597456,-0.008720154382412231,-0.01014408954139369,1.2933567066693687
8827,4.0,300.03700000000003,2957.0927,0.0,0.0,0.0,0.0,0.0,0.0879770281963864,-0.5376722286991175,0.08062926626323902,-0.4418393888786526,-0.026364278202201677,-0.01914713382717498,1.2709935676872988
8828,4.0,300.47934,2497.9392,0.0,0.0,0.0,0.0,0.0,0.08798699500597022,-0.47193753726910853,0.12509426654334288,-0.41246787253240963,-0.005872475366068193,0.01067977257776149,1.2883909705792886
8829,4.0,300.09552,2312.712,0.0,0.0,0.0,0.0,0.0,0.08799696181555404,-0.42106463088584356,0.0975647902428951,-0.37950685691191066,-0.0015026548632254885,0.008101269226008023,1.2332308510354089
8830,4.0,299.14091,2614.1843,0.0,0.0,0.0,0.0,0.0,0.08800692862513787,-0.4429485937631225,0.08340270707920633,-0.43510087041361256,-0.002264161962630388,-0.026290235964394275,1.2648899517349188
8831,4.0,299.3406,2724.4711,0.0,0.0,0.0,0.0,0.0,0.08801689543472167,-0.5001818331441035,0.099296768023078,-0.42728610808985557,0.033326704674339666,-0.007517887745157752,1.2681691330335487
8832,4.0,297.74383,2266.7756,0.0,0.0,0.0,0.0,0.0,0.0880268622443055,-0.4359011049450896,0.13216272963844586,-0.3853048057066237,0.030229039025123867,0.013679782195589386,1.2788444321121188
8833,4.0,298.50883999999996,1988.192,0.0,0.0,0.0,0.0,0.0,0.08803682905388932,-0.43794311800412056,0.17002816958547384,-0.3364457541621107,0.012859773075160789,-0.002375888288881918,1.2676635212336487
8834,4.0,298.88284,2489.9663,0.0,0.0,0.0,0.0,0.0,0.08804679586347315,-0.43544256874483556,0.11244739555269388,-0.43389240754934655,-0.007757582594113793,-0.003406511271121487,1.2504387761586988
8835,4.0,299.32857,2851.31,0.0,0.0,0.0,0.0,0.0,0.08805676267305697,-0.5130274936718715,0.09804518934055681,-0.45174473947123456,-0.028087046552225676,-3.816471248331386e-06,1.2356806871271888
8836,4.0,299.35965,2894.5607,0.0,0.0,0.0,0.0,0.0,0.08806672948264078,-0.48846617952535853,0.08219899534465921,-0.47360699853137156,0.0054225204822361045,0.005585773210522895,1.269322312972359
8837,4.0,300.3073,2614.3488,0.0,0.0,0.0,0.0,0.0,0.08807669629222462,-0.4890618996566516,0.0971359767210745,-0.4027708258953856,-0.011976160219454988,-0.0016075535050031782,1.2831853981905386
8838,4.0,299.36474,2242.7634,0.0,0.0,0.0,0.0,0.0,0.08808666310180843,-0.42638809492372864,0.13565367007547485,-0.39100965708214863,-0.007256463241182163,-0.03082310350575347,1.3096534159777289
8839,4.0,300.85487,2626.2711,0.0,0.0,0.0,0.0,0.0,0.08809662991139225,-0.5181482772922535,0.1133599893877599,-0.3935325383736376,-0.006843107964212174,0.003167313522664507,1.3012456692979488
8840,4.0,300.68085,2986.5082,0.0,0.0,0.0,0.0,0.0,0.08810659672097607,-0.5137448139476655,0.07988518199930363,-0.4739642907816336,0.007110997105150774,0.02891205504864768,1.2854459591636387
8841,4.0,300.39327000000003,2591.7712,0.0,0.0,0.0,0.0,0.0,0.08811656353055988,-0.5055593642073245,0.12850952733040286,-0.41078390152871463,0.008169786211020123,0.02364089396767458,1.2359994556086489
8842,4.0,300.17145,2258.3993,0.0,0.0,0.0,0.0,0.0,0.08812653034014371,-0.42935234795877764,0.12352236100070788,-0.3806670080114086,-0.024026541008734977,-0.0015771424244518386,1.2470178411710788
8843,4.0,298.96161,2474.6428,0.0,0.0,0.0,0.0,0.0,0.08813649714972753,-0.48538598028136654,0.12324913811124288,-0.3900927771991596,-0.007502023794967103,-0.003536132404739097,1.2629356962670488
8844,4.0,299.26223999999996,2783.2553,0.0,0.0,0.0,0.0,0.0,0.08814646395931135,-0.48395535220017455,0.0958547128503736,-0.45793947700510756,-0.014314540826735186,-0.003630795396656606,1.2853250784267087
8845,4.0,299.13208,2596.0813,0.0,0.0,0.0,0.0,0.0,0.08815643076889518,-0.4777577978310235,0.0988412239503693,-0.41022731311628363,-0.02199149505739158,-0.00974236414642148,1.2791530680925787
8846,4.0,298.33081,2253.9574,0.0,0.0,0.0,0.0,0.0,0.08816639757847898,-0.40694440305728563,0.12509080122800087,-0.40329315632193563,-0.026956715403170677,-0.026564432587205377,1.2436712787407989
8847,4.0,300.12122,2319.7126,0.0,0.0,0.0,0.0,0.0,0.08817636438806281,-0.4423625805677876,0.1128069372181779,-0.37557906382676765,-0.014524074867914587,0.03165357240696437,1.261668728342009
8848,4.0,300.3806,2491.9134,0.0,0.0,0.0,0.0,0.0,0.08818633119764664,-0.4499797895195476,0.0944239054239139,-0.40192356642676763,0.014323925549161386,0.02427881697888268,1.2238624419358188
8849,4.0,300.16275,2706.5872,0.0,0.0,0.0,0.0,0.0,0.08819629800723044,-0.5027923099067375,0.11310775090786589,-0.43305036631874355,0.030292842370670765,0.0071827755395847525,1.2976388029169788
8850,4.0,300.66924,2595.2394,0.0,0.0,0.0,0.0,0.0,0.08820626481681428,-0.4616170682430576,0.08920839710468333,-0.4164792891483056,0.005270438127026745,-0.02783205811156027,1.2482627202439387
8851,4.0,300.08692,2243.4329,0.0,0.0,0.0,0.0,0.0,0.08821623162639809,-0.4487984614929595,0.15411022329699484,-0.3872593246195197,0.008318629306984793,-0.03285672280095607,1.3074761441628486
8852,4.0,299.66311,2482.7201,0.0,0.0,0.0,0.0,0.0,0.08822619843598192,-0.4674391830526555,0.12557055488534888,-0.4128162988442966,0.0009535702162650531,-0.018166107106855182,1.2459642637170987
8853,4.0,300.27855,2991.2778,0.0,0.0,0.0,0.0,0.0,0.08823616524556574,-0.5688406427727004,0.10121764297965359,-0.44165075210753557,-0.012090892554778188,0.024653600965620977,1.277013083881379
8854,4.0,297.51665,2737.6744,0.0,0.0,0.0,0.0,0.0,0.08824613205514956,-0.5034249326066725,0.1103550340961939,-0.4391147694922536,-0.006941351478008054,0.0003070607210595337,1.2410548643325787
8855,4.0,298.55855,2425.2378,0.0,0.0,0.0,0.0,0.0,0.08825609886473339,-0.4800735100070665,0.12740151808105088,-0.38453974108611766,-0.025412193957738274,0.037977634090850663,1.2949538928019988
8856,4.0,298.91524,2344.2339,0.0,0.0,0.0,0.0,0.0,0.08826606567431719,-0.4238539969536326,0.12985854824854087,-0.41859314163942657,-0.015808306548158384,0.002291555483058918,1.2658501075296789
8857,4.0,299.76698999999996,2450.7663,0.0,0.0,0.0,0.0,0.0,0.08827603248390102,-0.47516104047474356,0.14492398643288384,-0.4147347055236286,-0.007033760596403123,0.0012137821233159688,1.3057428785417886
8858,4.0,299.75397999999996,2614.7009,0.0,0.0,0.0,0.0,0.0,0.08828599929348485,-0.46826796083944955,0.08886989861727611,-0.4154057202698526,-0.026910317667841573,-0.039370188286285066,1.2506665547811788
8859,4.0,299.61464,2614.2501,0.0,0.0,0.0,0.0,0.0,0.08829596610306865,-0.4959988428887745,0.1095156070508489,-0.40818350660457564,0.003302778677558877,0.004762867005408375,1.2707222193105188
8860,4.0,299.45694,2265.0781,0.0,0.0,0.0,0.0,0.0,0.08830593291265249,-0.4310884506801176,0.1116436551758709,-0.36908237776309466,-0.004053408942440316,0.017449782855909483,1.2319706718860388
8861,4.0,300.81571,2425.9809,0.0,0.0,0.0,0.0,0.0,0.0883158997222363,-0.46454900873241756,0.12172387247071087,-0.39461248059521964,0.01173466117737089,0.02964284749777127,1.271591486571309
8862,4.0,299.06201,2781.4339,0.0,0.0,0.0,0.0,0.0,0.08832586653182013,-0.4745813499600326,0.094432438003006,-0.4653375503577405,0.011307365504200091,-0.013841817098580988,1.257247614180679
8863,4.0,300.09657000000004,2827.9117,0.0,0.0,0.0,0.0,0.0,0.08833583334140395,-0.5249215907657275,0.1061717094683319,-0.4408646625474546,0.014903530950863986,0.0038372835067103962,1.3123834157221588
8864,4.0,300.78193,2468.0838,0.0,0.0,0.0,0.0,0.0,0.08834580015098777,-0.4301199761020366,0.11302248591195088,-0.4331383366924255,0.024910891510513577,-0.01061967164807999,1.2647271224438488
8865,4.0,300.774,2399.6111,0.0,0.0,0.0,0.0,0.0,0.0883557669605716,-0.47613958675881857,0.12589439974980987,-0.3791766589693226,-0.007745526539123953,0.0006491267100813184,1.2719242379041489
8866,4.0,301.21901,2583.2756,0.0,0.0,0.0,0.0,0.0,0.0883657337701554,-0.47976122632624657,0.11931352273532789,-0.4248035642848476,-0.02055067671994388,0.0047545060708832155,1.2470349650977688
8867,4.0,301.26812,2699.178,0.0,0.0,0.0,0.0,0.0,0.08837570057973923,-0.5191545663640664,0.11817490320045489,-0.41950305036172764,-0.025451736042890773,0.022855800432441876,1.2856267229814788
8868,4.0,298.77256,2390.8396,0.0,0.0,0.0,0.0,0.0,0.08838566738932306,-0.4079042042145106,0.1060221740185739,-0.4248734988067496,-0.012646070523069989,0.01036635000382909,1.2715278544650288
8869,4.0,299.66673,2287.4242,0.0,0.0,0.0,0.0,0.0,0.08839563419890686,-0.47106971895596156,0.15903606773063783,-0.3832861987249026,-0.012898421473725087,-0.002187510200515448,1.3124431974780588
8870,4.0,299.8581,2614.8964,0.0,0.0,0.0,0.0,0.0,0.0884056010084907,-0.4409951286303305,0.11401990904538889,-0.46788801231695154,-0.004510990357125086,-0.04852922546471165,1.2859928102426088
8871,4.0,299.37433,2908.0570000000002,0.0,0.0,0.0,0.0,0.0,0.08841556781807451,-0.5564280453376725,0.1062938567678869,-0.43384252524692357,0.01015104955633059,-0.012722327725595988,1.3029253339887188
8872,4.0,299.63552999999996,3046.5047,0.0,0.0,0.0,0.0,0.0,0.08842553462765834,-0.5142526042352805,0.08530549856124722,-0.4971142488638565,0.021036997251189984,0.01175041417667559,1.2769209794472887
8873,4.0,300.86298,2667.3728,0.0,0.0,0.0,0.0,0.0,0.08843550143724216,-0.5017021541241474,0.1071294233303509,-0.4162420062398876,0.0052368884029656455,0.026749159226186474,1.286405709658359
8874,4.0,300.34584,2224.9147,0.0,0.0,0.0,0.0,0.0,0.08844546824682598,-0.4059359760277616,0.13384474506944788,-0.40422729185412765,-0.00984228225865763,-0.001031757214401509,1.2725524529661487
8875,4.0,301.08465,2515.3337,0.0,0.0,0.0,0.0,0.0,0.0884554350564098,-0.49274714093285654,0.1259688229696549,-0.3978203189543086,-0.019182567183171982,0.004978778848017215,1.2952118662774588
8876,4.0,300.29425,2589.6385,0.0,0.0,0.0,0.0,0.0,0.08846540186599361,-0.4458773323821666,0.08630730298811762,-0.42761540423985456,-0.01051224180622749,0.009542845373205511,1.2556919713021488
8877,4.0,299.73267000000004,2300.5655,0.0,0.0,0.0,0.0,0.0,0.08847536867557744,-0.4759776389953355,0.13734054910695687,-0.36067735672608364,-0.010380281179453991,0.00023530982676327178,1.2584997886542588
8878,4.0,299.91096,2390.5917,0.0,0.0,0.0,0.0,0.0,0.08848533548516127,-0.4313633859622516,0.10481390367182691,-0.40013069130232465,-0.0018673168867648282,-0.002338551238597038,1.239886080342229
8879,4.0,300.27785,2624.6232,0.0,0.0,0.0,0.0,0.0,0.08849530229474509,-0.47651385094825555,0.10741217077075589,-0.4287182560461976,-0.009082313982179601,-0.002392735699619628,1.2650753765032188
8880,4.0,299.00651,2754.6785,0.0,0.0,0.0,0.0,0.0,0.0885052691043289,-0.45602336027100154,0.09393624740253582,-0.47526637795513954,0.014911379586138586,0.02717017376198737,1.2922280473829788
8881,4.0,299.5579,2791.3724,0.0,0.0,0.0,0.0,0.0,0.08851523591391272,-0.5078352353894354,0.11047227726526489,-0.45114454077449956,-0.0078088880063022425,0.015311517116879085,1.3039983658446188
8882,4.0,299.62506,2674.9569,0.0,0.0,0.0,0.0,0.0,0.08852520272349655,-0.4914025276526536,0.13464496946842386,-0.45636255587447755,0.016022601851557683,-0.026833239732734576,1.3137384350808887
8883,4.0,300.59904,2528.365,0.0,0.0,0.0,0.0,0.0,0.08853516953308037,-0.5335583218356065,0.14798383961486786,-0.3829853647702126,0.016846526170372685,-0.03303905209020057,1.3174322383204387
8884,4.0,300.27386,2587.3204,0.0,0.0,0.0,0.0,0.0,0.08854513634266419,-0.4740288956080095,0.1064285481036799,-0.41888044870528157,0.013278691196504787,-0.02064335566684058,1.2759574799271987
8885,4.0,300.37331,2836.652,0.0,0.0,0.0,0.0,0.0,0.08855510315224802,-0.5287888320248945,0.11036312996449289,-0.4438456950041596,0.013313687841708688,0.007672784706494893,1.2934353348771288
8886,4.0,300.40427999999997,2648.7682,0.0,0.0,0.0,0.0,0.0,0.08856506996183182,-0.47993082412798455,0.11353331594986589,-0.43876188487992657,-0.014763894954582987,-0.004589427364591215,1.294286464961129
8887,4.0,301.26007000000004,2239.271,0.0,0.0,0.0,0.0,0.0,0.08857503677141565,-0.4594251346992306,0.15826271472431383,-0.37952004942821266,-0.029486811035371676,0.015810649182389586,1.2940474392625387
8888,4.0,300.07591,2443.7529,0.0,0.0,0.0,0.0,0.0,0.08858500358099947,-0.4450686169473526,0.13122841172123587,-0.42899963559896764,-0.034955626813351764,0.01073031754574989,1.2920451557399288
8889,4.0,300.87293,2833.6782,0.0,0.0,0.0,0.0,0.0,0.0885949703905833,-0.5317282806974956,0.09565474186363801,-0.4252938658757366,-0.025497930114949774,-0.008043001873707482,1.2862089364889386
8890,4.0,299.57347000000004,2818.2681,0.0,0.0,0.0,0.0,0.0,0.08860493720016711,-0.4546866908715826,0.07400906197262572,-0.4760055135055865,-0.011328092548245688,-0.027267262373319272,1.2624917913982387
8891,4.0,300.378,2628.7681,0.0,0.0,0.0,0.0,0.0,0.08861490400975093,-0.4777847604161845,0.1010786737019384,-0.4223737601475446,0.0035096000455705567,-0.016874010579335182,1.2787478693775887
8892,4.0,300.45067,2428.6181,0.0,0.0,0.0,0.0,0.0,0.08862487081933475,-0.4245812673454086,0.12907871044157687,-0.4427366927697095,0.0053001598935350554,0.0028562473631646673,1.2984936820263488
8893,4.0,300.14454,2507.2399,0.0,0.0,0.0,0.0,0.0,0.08863483762891858,-0.47768405348874554,0.1210015670044249,-0.4054558373353756,0.008596435835927162,0.02186761307366538,1.3040872278783888
8894,4.0,299.73222999999996,2706.1228,0.0,0.0,0.0,0.0,0.0,0.0886448044385024,-0.4919724301713985,0.11643603430634189,-0.44705736344862657,-0.0038168702662207668,0.03080312424028167,1.2843597550564385
8895,4.0,299.27952,2873.2082,0.0,0.0,0.0,0.0,0.0,0.08865477124808621,-0.5619262139577994,0.08887335785311752,-0.4003306764745616,0.013239777326414286,0.015932999131964585,1.2803982511404686
8896,4.0,298.97607999999997,2473.4577,0.0,0.0,0.0,0.0,0.0,0.08866473805767003,-0.4395343867561665,0.12688643239271588,-0.4392214343302806,-0.0034185440213590273,-0.003333250451791207,1.2411500085169689
8897,4.0,299.95444,2366.334,0.0,0.0,0.0,0.0,0.0,0.08867470486725386,-0.46106081420315953,0.12412203280739088,-0.38236767737675165,-0.006958836020408643,-0.031402156686151574,1.2626872473425288
8898,4.0,299.79514,2716.2113,0.0,0.0,0.0,0.0,0.0,0.08868467167683768,-0.46996993729742154,0.12691081119012187,-0.48260128529653856,0.0015772208500095784,-0.03105297043668957,1.2987216632988487
8899,4.0,299.87556,2717.5667,0.0,0.0,0.0,0.0,0.0,0.08869463848642149,-0.5314787982578735,0.13924018026193588,-0.4338338011635626,0.003114258227553357,0.005283722747762835,1.3134843119558088
8900,4.0,300.66213,2386.1724,0.0,0.0,0.0,0.0,0.0,0.08870460529600532,-0.46649696178466554,0.15067368425783487,-0.40951353921583966,0.014747523872717286,0.0045797326889594255,1.3159130724455088
8901,4.0,300.42802,2340.302,0.0,0.0,0.0,0.0,0.0,0.08871457210558913,-0.5021493419232815,0.16042828350053887,-0.36967231223631664,-0.0067539993053678336,0.03097927270391617,1.2913533085716489
8902,4.0,301.56327000000005,2724.1477,0.0,0.0,0.0,0.0,0.0,0.08872453891517296,-0.4663416305443356,0.1004999599603238,-0.4622311889961665,-0.011941344946018988,0.01052572107230779,1.2861508772582089
8903,4.0,301.05799,2741.3455,0.0,0.0,0.0,0.0,0.0,0.08873450572475679,-0.5143413750765415,0.12020383520069489,-0.43916305085951857,-0.015118704742099986,-0.02097040746786808,1.2546852060027887
8904,4.0,299.44728,2583.1069,0.0,0.0,0.0,0.0,0.0,0.08874447253434059,-0.44088327595179155,0.11195657720425391,-0.45627329867316857,-0.021118773627010676,-0.006378250805859344,1.292025701338009
8905,4.0,300.08679,2370.3011,0.0,0.0,0.0,0.0,0.0,0.08875443934392442,-0.48664658499577856,0.14210196331437186,-0.37596772630012565,-0.008950478289143431,-0.013671471518269187,1.2686929833352487
8906,4.0,300.28646000000003,2290.6811,0.0,0.0,0.0,0.0,0.0,0.08876440615350824,-0.44460988822957953,0.14601273379783486,-0.39771270166118766,-0.009090847270546772,0.0034236465462126066,1.2933851789971789
8907,4.0,299.4846,2500.9957,0.0,0.0,0.0,0.0,0.0,0.08877437296309207,-0.5043898608094035,0.12444315202908289,-0.38029353415704964,-0.005414378612382564,0.02846005735128897,1.2560188457844088
8908,4.0,299.50291,2826.9741,0.0,0.0,0.0,0.0,0.0,0.08878433977267589,-0.4688850098853476,0.08382051366519061,-0.4742650335438146,0.01089156717991399,0.009327470350499651,1.2651481278603989
8909,4.0,299.28392,2578.6279999999997,0.0,0.0,0.0,0.0,0.0,0.0887943065822597,-0.47809731767453156,0.09076601987390873,-0.3965072380172176,0.015348588898287786,0.009117828803484641,1.2531321975745187
8910,4.0,299.90807,2428.158,0.0,0.0,0.0,0.0,0.0,0.08880427339184353,-0.3971374390494136,0.1069992206925009,-0.4479611724053255,-0.007339130263840764,-0.0022301076400194878,1.2922619912613287
8911,4.0,300.0832,2653.1934,0.0,0.0,0.0,0.0,0.0,0.08881424020142734,-0.5243839501301665,0.1143616884366199,-0.39648229179975564,0.007054810563255592,-0.01995161083682068,1.308981124536379
8912,4.0,300.27339,2676.137,0.0,0.0,0.0,0.0,0.0,0.08882420701101117,-0.48966828931149753,0.11412027146779388,-0.4379307968829046,-0.020238646351648883,0.013741055455636588,1.3112519193354886
8913,4.0,300.3622,2731.5139,0.0,0.0,0.0,0.0,0.0,0.088834173820595,-0.5271616232918015,0.08713428833548471,-0.39028469690060064,0.000979382975345074,0.006289319668432524,1.2832946265513188
8914,4.0,300.85892,2811.4876,0.0,0.0,0.0,0.0,0.0,0.0888441406301788,-0.46752894687901453,0.1035511002046979,-0.4906441606153085,0.011876914398660189,-0.016285256542479684,1.2720558590921387
8915,4.0,300.46063,2598.886,0.0,0.0,0.0,0.0,0.0,0.08885410743976263,-0.49054687847320755,0.12696261866773487,-0.4264121798786056,0.01039054540296699,-0.007491032463182343,1.2795232083541088
8916,4.0,300.515,2633.185,0.0,0.0,0.0,0.0,0.0,0.08886407424934645,-0.43252191586158967,0.1043634836048739,-0.4722640571138335,0.024345031859667576,-0.00990711719413134,1.296272739132159
8917,4.0,299.4616,2671.9928,0.0,0.0,0.0,0.0,0.0,0.08887404105893028,-0.5199994649599515,0.12840667231275188,-0.4206262887600826,-0.004340609718359826,-0.014977113173125986,1.2930020691343687
8918,4.0,300.12879,2612.9814,0.0,0.0,0.0,0.0,0.0,0.0888840078685141,-0.4847231019334456,0.11611119645678289,-0.4256691939777786,-0.011635249183559689,0.010697946231555091,1.3008960980134487
8919,4.0,300.08283,2374.6429,0.0,0.0,0.0,0.0,0.0,0.08889397467809791,-0.4951515834201565,0.14332683069775687,-0.37000739404438665,-0.026891699197254076,0.0008702319660777082,1.2689036380310388
8920,4.0,299.58361,2366.5763,0.0,0.0,0.0,0.0,0.0,0.08890394148768174,-0.4262086989935236,0.1161341364390469,-0.40930552910281065,-0.02832084995980027,0.017710047289845585,1.2701606761050988
8921,4.0,299.55337000000003,2764.8186,0.0,0.0,0.0,0.0,0.0,0.08891390829726555,-0.4845408790354615,0.07539518912267584,-0.4312901279800216,-0.028917323949167673,-0.0047106383197288056,1.2734189844516688
8922,4.0,300.02842000000004,2818.0209,0.0,0.0,0.0,0.0,0.0,0.08892387510684938,-0.47065489436502156,0.09435758415186851,-0.48031068145797357,-0.016468922308606086,-0.030112526409374972,1.2854675413907688
8923,4.0,298.96555,2582.6645,0.0,0.0,0.0,0.0,0.0,0.0889338419164332,-0.5056097936648015,0.1101111954596289,-0.3895669105297606,0.003198975460464297,-0.029655902212059673,1.3061906337609788
8924,4.0,299.48226,2482.4583,0.0,0.0,0.0,0.0,0.0,0.08894380872601701,-0.4703026987627626,0.12404165167695788,-0.40834429926294463,-0.003926707488985856,-0.004615300807219725,1.2890832230476088
8925,4.0,300.33428,2605.6167,0.0,0.0,0.0,0.0,0.0,0.08895377553560084,-0.48898329171389354,0.10468301202390891,-0.40774214499351663,0.024900424636980577,0.016865349317480384,1.2878033868462988
8926,4.0,300.44354,2683.4686,0.0,0.0,0.0,0.0,0.0,0.08896374234518466,-0.45821228446203155,0.08566148979838081,-0.44315666467115755,-0.009932320878443751,0.01086430163297309,1.256569749863779
8927,4.0,300.61717000000004,2730.0096,0.0,0.0,0.0,0.0,0.0,0.08897370915476849,-0.47711351262243756,0.1124644181543739,-0.4652056454597226,0.01145548240381809,-0.0061017584622966746,1.2847359748185687
8928,4.0,300.29841,2321.9628,0.0,0.0,0.0,0.0,0.0,0.0889836759643523,-0.4125222739302786,0.12685836536494588,-0.4201548133560516,-0.02229441833378778,0.0024149603273130277,1.2602446053264589
8929,4.0,299.51465,2334.9877,0.0,0.0,0.0,0.0,0.0,0.08899364277393612,-0.47038113445300356,0.1273836950117919,-0.36678052684841966,0.017618630852573484,0.005431046272552535,1.3166338985666488
8930,4.0,298.97497000000004,2842.3747,0.0,0.0,0.0,0.0,0.0,0.08900360958351995,-0.5117121633195585,0.1062701467155469,-0.4585689079672275,-0.023468969743706977,0.01666802190025568,1.2969319596472186
8931,4.0,299.02049,3091.934,0.0,0.0,0.0,0.0,0.0,0.08901357639310375,-0.5689220878157385,0.07984249478584071,-0.45079113940462157,-0.02050413206335028,0.003066600617049917,1.3225352697990687
8932,4.0,299.41172,2716.9934,0.0,0.0,0.0,0.0,0.0,0.08902354320268759,-0.4669112189555496,0.0992287566498658,-0.45821568898236753,-0.015046167180691086,-0.001053827422779669,1.272793707814959
8933,4.0,299.26704,2544.0681,0.0,0.0,0.0,0.0,0.0,0.08903351001227142,-0.45085414329583956,0.12625558288045588,-0.4487346267366596,-0.0001042933970954569,-0.0016980882120382586,1.2972442433280387
8934,4.0,300.37576,2664.7911,0.0,0.0,0.0,0.0,0.0,0.08904347682185522,-0.45855775208362654,0.1018037402747469,-0.45327596302235457,0.012511384253527488,-0.013918360037635186,1.2832711191489987
8935,4.0,301.13456,2576.4505,0.0,0.0,0.0,0.0,0.0,0.08905344363143905,-0.5179049047507346,0.14451317431233984,-0.4097848774601186,0.013614557260152186,-0.037953478208466666,1.3138903212708788
8936,4.0,301.08005,2468.6294,0.0,0.0,0.0,0.0,0.0,0.08906341044102287,-0.47243497214070157,0.11415623171384288,-0.39212294536452164,0.004291403051103506,0.0039182596176021165,1.2799129043425688
8937,4.0,300.63181000000003,2312.4504,0.0,0.0,0.0,0.0,0.0,0.0890733772506067,-0.4873881016839605,0.14321733889195085,-0.3587564169215017,-0.0004344772453745656,0.017336442726223682,1.3043649597307987
8938,4.0,300.99967999999996,2324.3662,0.0,0.0,0.0,0.0,0.0,0.08908334406019051,-0.4213025521418246,0.12845114385964088,-0.41369786696130056,-0.010946615031346791,0.01171986671266079,1.2670356101466789
8939,4.0,299.69381,2836.1285,0.0,0.0,0.0,0.0,0.0,0.08909331086977433,-0.4898495901518905,0.07624388335343543,-0.4485065238741475,-0.012757782359845088,-0.009407530280650951,1.2656250646824687
8940,4.0,299.75581,3100.5219,0.0,0.0,0.0,0.0,0.0,0.08910327767935816,-0.5115479560083525,0.07508908120121534,-0.5060223485755175,-0.014682207744771088,-0.015553289736490186,1.2944823262054588
8941,4.0,299.56355,2654.6817,0.0,0.0,0.0,0.0,0.0,0.08911324448894196,-0.5390175613868915,0.1243229906997239,-0.3922623685782816,0.0008769816302938481,0.006812352378626833,1.2836336600347789
8942,4.0,301.05754,2220.0311,0.0,0.0,0.0,0.0,0.0,0.0891232112985258,-0.43022051077695855,0.12912433709357987,-0.37373784654005365,-0.012645835449046789,-0.0013087567909642389,1.2928222172416188
8943,4.0,299.85741,2419.1592,0.0,0.0,0.0,0.0,0.0,0.08913317810810961,-0.5011173973589365,0.15259655937010785,-0.3868431321409446,-0.005317299829576635,-0.013035746246527988,1.3030939388053588
8944,4.0,300.17439,2702.5447,0.0,0.0,0.0,0.0,0.0,0.08914314491769344,-0.4319788036754886,0.08292678350723633,-0.4724540719050866,-0.018815112034406983,-0.0063251117149649245,1.268966864837279
8945,4.0,300.63936,2521.1529,0.0,0.0,0.0,0.0,0.0,0.08915311172727726,-0.4669501378918905,0.12982118971735387,-0.42923857010504857,0.02050567017700208,0.006006024566348474,1.265535797348659
8946,4.0,301.26951,2429.9598,0.0,0.0,0.0,0.0,0.0,0.08916307853686108,-0.4157048924943786,0.10697565249517489,-0.4299178428395876,0.011289067220644189,0.0050969586654806545,1.2701842848324287
8947,4.0,301.10751,2531.9545,0.0,0.0,0.0,0.0,0.0,0.08917304534644489,-0.5150097047100005,0.11659371628690389,-0.3712349566730377,0.009189090075067581,-0.0058812108991553235,1.3089015844035288
8948,4.0,301.56503,2835.2876,0.0,0.0,0.0,0.0,0.0,0.08918301215602872,-0.5007362430688196,0.09432343863674861,-0.45544384200880755,0.011097671369504888,0.007532123503762712,1.293565334864959
8949,4.0,299.50932,3129.1336,0.0,0.0,0.0,0.0,0.0,0.08919297896561254,-0.5700143815560395,0.06696517829844853,-0.4481292807294166,-0.016344984596124382,0.01072581567555559,1.3349743333267088
8950,4.0,299.74967999999996,3067.1558,0.0,0.0,0.0,0.0,0.0,0.08920294577519636,-0.49304166233942354,0.06115560651183844,-0.5004527154258376,0.002885950891171177,0.006302166666450424,1.2838070271268887
8951,4.0,300.64062,2492.7923,0.0,0.0,0.0,0.0,0.0,0.08921291258478017,-0.45785344193911653,0.11847144097472088,-0.4183645929468706,-0.020802444038541378,-0.01388973470906009,1.2993268775835787
8952,4.0,300.56012000000004,2394.1855,0.0,0.0,0.0,0.0,0.0,0.089222879394364,-0.4232574560897586,0.10760543809482989,-0.4121205911931356,0.005456232528963224,-0.0020736502735283478,1.2516661260048287
8953,4.0,299.69185,2804.163,0.0,0.0,0.0,0.0,0.0,0.08923284620394782,-0.5345262492586335,0.1206374758459919,-0.4385067687697486,-0.017742654691313683,0.02067585363729788,1.2980572752082788
8954,4.0,299.63387,2677.138,0.0,0.0,0.0,0.0,0.0,0.08924281301353164,-0.5081193608499766,0.11237632619067989,-0.4180400489398406,-0.014680565266358985,-0.0005059856689218975,1.2896567226042088
8955,4.0,298.94146,2195.5419,0.0,0.0,0.0,0.0,0.0,0.08925277982311547,-0.4542494329234285,0.15368395911242586,-0.36682443097525264,-0.003915647560169326,-0.008853892959136201,1.2843410099295887
8956,4.0,300.58041000000003,2341.3803,0.0,0.0,0.0,0.0,0.0,0.08926274663269927,-0.41636467029699364,0.13847577425399488,-0.43383225089090954,0.0006881556853831784,0.0036712536625495263,1.2724942924104088
8957,4.0,300.65406,2767.4986,0.0,0.0,0.0,0.0,0.0,0.0892727134422831,-0.46009677766051654,0.08335728611697361,-0.46451098145616454,0.02371165327515798,0.00017462667344181085,1.2762327799793687
8958,4.0,300.3154,2855.8021,0.0,0.0,0.0,0.0,0.0,0.08928268025186693,-0.48422007392130056,0.09400872011593832,-0.4778811711631995,0.017075587567479285,0.01060232277986779,1.278296871758079
8959,4.0,299.81512999999995,2803.0031,0.0,0.0,0.0,0.0,0.0,0.08929264706145074,-0.5196068102811995,0.09691994166725351,-0.4293560665866446,0.005041288070536396,0.007870381445596174,1.3075949983995787
8960,4.0,301.32268999999997,2313.7887,0.0,0.0,0.0,0.0,0.0,0.08930261387103457,-0.4888046557212635,0.13852782491163187,-0.35305715868652865,0.005039226714532955,0.01860819319173568,1.3063062455973886
8961,4.0,299.95766000000003,2318.6115,0.0,0.0,0.0,0.0,0.0,0.08931258068061838,-0.4777934743670445,0.14684277814725386,-0.37384930405105365,-0.025822205610703274,0.03006130965657027,1.3388572090349187
8962,4.0,300.40831000000003,2959.2114,0.0,0.0,0.0,0.0,0.0,0.08932254749020221,-0.4991323086905235,0.06396918013776653,-0.4643632293265826,-0.03411215487360757,0.011816666547714188,1.2784170432199387
8963,4.0,298.92884,2978.2832,0.0,0.0,0.0,0.0,0.0,0.08933251429978603,-0.5210567002467925,0.11699066714607988,-0.5012577021002835,-0.018854059341750783,-0.017919069639724484,1.320000523348909
8964,4.0,298.90995,2435.8388,0.0,0.0,0.0,0.0,0.0,0.08934248110936985,-0.4238202962553066,0.10651603211731389,-0.42312989803466966,0.015353218437994686,0.008031326091480172,1.2446146145838988
8965,4.0,298.6852,2340.7134,0.0,0.0,0.0,0.0,0.0,0.08935244791895368,-0.45563664323783554,0.14365641055778386,-0.3995382034388506,0.029249678087968474,0.008081037661261321,1.3282462513376987
8966,4.0,299.47857,2659.1747,0.0,0.0,0.0,0.0,0.0,0.08936241472853748,-0.5191843559170065,0.13147955589102187,-0.42061790918175557,0.024462890071549274,-0.01070710195945869,1.2946999723269388
8967,4.0,299.70667000000003,2807.3686,0.0,0.0,0.0,0.0,0.0,0.08937238153812131,-0.5240102229632825,0.09663994520087,-0.4259996756303946,-0.0039438300984507265,-0.016581705150736883,1.3420537091253886
8968,4.0,300.99515,2645.7004,0.0,0.0,0.0,0.0,0.0,0.08938234834770514,-0.43749800736769157,0.08890209159945332,-0.4556309285072716,-0.0015910085494203186,-0.006134598809962764,1.266249328069079
8969,4.0,299.09137000000004,2489.7591,0.0,0.0,0.0,0.0,0.0,0.08939231515728895,-0.4292383775875296,0.10592359491634488,-0.4335098043115866,-0.01030067822509779,0.015316647202135384,1.3106835873543987
8970,4.0,299.95286,2661.6377,0.0,0.0,0.0,0.0,0.0,0.08940228196687278,-0.4236961832505576,0.08375737805145962,-0.46913258741478153,-0.009928447831261511,0.0010897781442777289,1.2666664831352488
8971,4.0,300.82133,2962.5035,0.0,0.0,0.0,0.0,0.0,0.0894122487764566,-0.5307172698802165,0.09624152816879931,-0.4660513343906855,-0.007248771659673063,-0.009986501894416,1.3001134636362088
8972,4.0,299.86528,2817.8259999999996,0.0,0.0,0.0,0.0,0.0,0.08942221558604042,-0.5259045852177415,0.10212344094629891,-0.43276760874583764,-0.0018048750453772981,0.0014375100758711988,1.3043349675278386
8973,4.0,300.36131,2340.0024,0.0,0.0,0.0,0.0,0.0,0.08943218239562424,-0.49793829477268353,0.15752648720165385,-0.37089050230154263,-0.0011935456949687887,0.014932206941944087,1.3120997056941588
8974,4.0,300.28477000000004,2183.5063,0.0,0.0,0.0,0.0,0.0,0.08944214920520806,-0.4284933550540016,0.16858045810759584,-0.4038184758362806,-0.014895445215065984,0.007504224472859293,1.3054925044420789
8975,4.0,299.50867,2747.2958,0.0,0.0,0.0,0.0,0.0,0.08945211601479189,-0.4994531036721835,0.0999123671080829,-0.4355685765272716,0.013417499367454087,-0.016625743026583085,1.2890459354439288
8976,4.0,299.40351,2973.8425,0.0,0.0,0.0,0.0,0.0,0.08946208282437569,-0.49252138881057655,0.1009875186831921,-0.5124400011313905,0.007615552895796554,0.008332746008703002,1.3007052016946088
8977,4.0,299.20241,2603.1417,0.0,0.0,0.0,0.0,0.0,0.08947204963395952,-0.5137318646113875,0.12296942028863689,-0.4005276320289996,0.009276435881387941,0.009514833770215982,1.3033204002027088
8978,4.0,298.08988,2479.5097,0.0,0.0,0.0,0.0,0.0,0.08948201644354335,-0.4737719860451546,0.14326681589433385,-0.42320385515946857,-0.008085689492470422,-0.01186404713564029,1.3419953459196288
8979,4.0,298.92298999999997,2845.375,0.0,0.0,0.0,0.0,0.0,0.08949198325312716,-0.5488207459718905,0.13629719534648588,-0.4523994104933456,-0.018768928094848984,6.070552284391865e-05,1.3368914025159087
8980,4.0,299.95088,3105.1756,0.0,0.0,0.0,0.0,0.0,0.08950195006271099,-0.5011914152787416,0.05374550588051844,-0.4964499418332945,0.00024225478480368579,0.010467371038799089,1.3093837901261187
8981,4.0,300.08221000000003,2743.5817,0.0,0.0,0.0,0.0,0.0,0.0895119168722948,-0.49493112046339854,0.1052659246739379,-0.4443151439079906,0.01125977517350329,0.01113158687685209,1.2846234027324588
8982,4.0,300.06591000000003,2444.7296,0.0,0.0,0.0,0.0,0.0,0.08952188368187863,-0.4065664405049836,0.1174562150370259,-0.45402651790142856,0.007382129153034424,-0.00021080731152006178,1.2649139657622888
8983,4.0,300.60398,2293.315,0.0,0.0,0.0,0.0,0.0,0.08953185049146245,-0.4798449207845066,0.13720783360885888,-0.3544733986163007,-0.004897107343581865,-0.02150195340407758,1.2889673072361687
8984,4.0,300.3053,2538.3409,0.0,0.0,0.0,0.0,0.0,0.08954181730104627,-0.4738350000688735,0.11833135914839589,-0.4160885900422466,-0.0007436099716960902,0.007425385711728513,1.2830199344492088
8985,4.0,298.47629,2730.743,0.0,0.0,0.0,0.0,0.0,0.0895517841106301,-0.5413271130023264,0.10887254787488389,-0.39762312021984664,-0.028388046679932073,0.01979825746068588,1.2955684289876488
8986,4.0,299.59028,2559.1235,0.0,0.0,0.0,0.0,0.0,0.0895617509202139,-0.4595184145034366,0.11840543786320688,-0.43679666604597456,-0.022226858870120183,0.013660273078163986,1.2880480867454487
8987,4.0,298.93605,2464.5408,0.0,0.0,0.0,0.0,0.0,0.08957171772979773,-0.4560815106942406,0.11969836525580888,-0.4127757080452906,-0.024005232359131976,0.02075768878162438,1.2827791862254487
8988,4.0,299.11626,2873.5533,0.0,0.0,0.0,0.0,0.0,0.08958168453938156,-0.48075699786202153,0.08140197382924932,-0.4741334427533276,0.018795278676949585,0.038312026888852664,1.289423675081209
8989,4.0,299.98706,2885.6081,0.0,0.0,0.0,0.0,0.0,0.08959165134896536,-0.5505044028680545,0.12184716474287889,-0.4484955706405666,0.02050013580495588,0.014061906166052088,1.3100387549907588
8990,4.0,300.28758,2546.5412,0.0,0.0,0.0,0.0,0.0,0.0896016181585492,-0.4713734609384385,0.13235703047762187,-0.4350685072054186,0.02083520342752448,-0.015582846241907184,1.3330711456638789
8991,4.0,299.86602,2447.9282,0.0,0.0,0.0,0.0,0.0,0.08961158496813301,-0.48800325595217153,0.13753193178584486,-0.3936377137340176,-0.013947111009222687,-0.035191574258137966,1.300786261702609
8992,4.0,301.45105,2655.0791,0.0,0.0,0.0,0.0,0.0,0.08962155177771684,-0.48486737861518453,0.12764834580541087,-0.44985871626509855,0.013457817602183187,-0.008496134411178182,1.3251651604336188
8993,4.0,300.62528,2735.7958,0.0,0.0,0.0,0.0,0.0,0.08963151858730066,-0.47129604863079855,0.09348297301005111,-0.4538005225991246,-0.023233865323003977,-0.0001074654677260159,1.2667247450159989
8994,4.0,300.2534,2630.3084,0.0,0.0,0.0,0.0,0.0,0.08964148539688448,-0.4802603127955025,0.12174147262494787,-0.4410292346286966,0.00030262832942459073,0.011714294850360888,1.2915731838433486
8995,4.0,300.80516,2563.993,0.0,0.0,0.0,0.0,0.0,0.08965145220646831,-0.5043051227035404,0.14450279863131585,-0.4195875351550656,-0.03145942659505367,0.003977406065689416,1.2898618044244488
8996,4.0,300.32675,2414.3387,0.0,0.0,0.0,0.0,0.0,0.08966141901605211,-0.47573127736602155,0.13497785252377686,-0.3931452437879146,0.012333040076926288,0.028118756214105176,1.2986185144386688
8997,4.0,299.03648,2641.5758,0.0,0.0,0.0,0.0,0.0,0.08967138582563594,-0.5078601106793905,0.11559338512567889,-0.4107063676310626,0.0005302076050799165,0.029093097510265176,1.3073949828298386
8998,4.0,299.51845,3006.1734,0.0,0.0,0.0,0.0,0.0,0.08968135263521976,-0.5091396125081675,0.08449462996997072,-0.48915665880600356,0.0066679572479511435,0.01031620628288029,1.2998209383323387
8999,4.0,299.68462,2807.4833,0.0,0.0,0.0,0.0,0.0,0.08969131944480357,-0.4755815797962475,0.06556900680015713,-0.44339223518690657,-0.013518855788207187,-0.015424541112533684,1.2887977904944388
9000,4.0,300.54148,2562.9961,0.0,0.0,0.0,0.0,0.0,0.0897012862543874,-0.4269640870755746,0.1014778081150799,-0.45360052729438655,0.006068022604192203,-0.026442485911170172,1.2686529599562988
9001,4.0,300.98843999999997,2687.38,0.0,0.0,0.0,0.0,0.0,0.08971125306397122,-0.4935021237148675,0.1120637284023289,-0.43545802080886054,-0.005001777396136995,-0.015037641694349685,1.3190160495517487
9002,4.0,300.33864,2729.5163,0.0,0.0,0.0,0.0,0.0,0.08972121987355504,-0.48332393526785855,0.12182698080088689,-0.46820782444601455,0.003958231523447036,-0.015799516603540883,1.2914007286763287
9003,4.0,300.30574,2485.4822,0.0,0.0,0.0,0.0,0.0,0.08973118668313887,-0.5109173699411185,0.15647483492286385,-0.4010819912912106,-0.018465666392919383,-0.027061045712967274,1.3272652225908788
9004,4.0,300.35437,2430.176,0.0,0.0,0.0,0.0,0.0,0.08974115349272267,-0.4543376768746376,0.14531362162633787,-0.42968876725697963,-0.0005802998225261335,0.004202295101534236,1.2954948670303887
9005,4.0,299.88221,2554.4187,0.0,0.0,0.0,0.0,0.0,0.0897511203023065,-0.4668718035266596,0.11902525308187788,-0.42863294038777755,0.011793209807899187,0.03528996894884877,1.3060689424239686
9006,4.0,299.95867000000004,2800.5453,0.0,0.0,0.0,0.0,0.0,0.08976108711189032,-0.49321280028131353,0.11033646122186089,-0.46841951265690657,0.012638537008576489,0.02154204771053458,1.3088374456721987
9007,4.0,301.09807,2992.2212,0.0,0.0,0.0,0.0,0.0,0.08977105392147415,-0.5333139360439875,0.1008432673327056,-0.47708985323260256,-0.011950202778393188,0.005860000838787055,1.3092662531145187
9008,4.0,301.11346000000003,2955.3143,0.0,0.0,0.0,0.0,0.0,0.08978102073105797,-0.5159844513062005,0.09182580449800132,-0.47418309200822756,-0.018594543699638585,-0.011431648734965888,1.3591400442366788
9009,4.0,300.73503999999997,2528.5049,0.0,0.0,0.0,0.0,0.0,0.08979098754064178,-0.5012675610237565,0.13734494661239088,-0.40467974855378164,-0.008014817511575904,0.0009650080367063781,1.3124517087788987
9010,4.0,300.51306,2633.6531,0.0,0.0,0.0,0.0,0.0,0.08980095435022561,-0.4904410647652645,0.12454125490376489,-0.4346649702205926,-0.017526938811274182,-0.012327689103148187,1.3491142384722088
9011,4.0,299.46987,2936.2322,0.0,0.0,0.0,0.0,0.0,0.08981092115980942,-0.5034405873207175,0.08620476005149742,-0.47530545901149657,0.013538430766889088,-0.0027921615234898878,1.2676314012054788
9012,4.0,299.57741,2601.9338,0.0,0.0,0.0,0.0,0.0,0.08982088796939325,-0.47443786361337154,0.12633074577287387,-0.4428157870725155,0.007587430139271054,0.003102920161584377,1.3062433227661787
9013,4.0,299.33891,2204.2509,0.0,0.0,0.0,0.0,0.0,0.08983085477897708,-0.4321974123845636,0.13486236227737888,-0.3727021732153406,0.028178707182771875,0.026498649350963077,1.2576560552959886
9014,4.0,299.16733999999997,2343.737,0.0,0.0,0.0,0.0,0.0,0.08984082158856088,-0.4385923782706976,0.13008807979369388,-0.4039332264101056,0.011217605730841488,0.005158991863102856,1.3119146862258988
9015,4.0,299.61427000000003,2567.9001,0.0,0.0,0.0,0.0,0.0,0.08985078839814471,-0.5043142824844444,0.11175810177466589,-0.3880213190922226,-7.402372066182243e-06,-0.020350119061400378,1.2831556086375988
9016,4.0,301.03215,2777.9318,0.0,0.0,0.0,0.0,0.0,0.08986075520772853,-0.48746602061665056,0.07487420327900852,-0.43183007882581065,-0.014121262356910089,-0.015359441820108883,1.2888807756776288
9017,4.0,299.74422000000004,2897.0836,0.0,0.0,0.0,0.0,0.0,0.08987072201731236,-0.5128721826965436,0.09293813728553,-0.46070702779824363,-0.014330437707554088,0.004519156038355975,1.2888477437243688
9018,4.0,300.39701,2904.6224,0.0,0.0,0.0,0.0,0.0,0.08988068882689618,-0.4811458021903935,0.06462340836958384,-0.4664102883711116,-0.017954125053434182,-0.0002847293373355977,1.3033390440045487
9019,4.0,300.39049,2826.9402,0.0,0.0,0.0,0.0,0.0,0.08989065563648,-0.48927435793761953,0.08472814358801672,-0.4547730299126036,-0.02114657923625488,-0.008305441755608281,1.3138081466877687
9020,4.0,300.98817,2974.8728,0.0,0.0,0.0,0.0,0.0,0.08990062244606382,-0.5146845628854114,0.0942566330311554,-0.4838591137056765,-0.012231244918879888,0.0047946159813917555,1.3116853877282686
9021,4.0,300.04793,2711.1846,0.0,0.0,0.0,0.0,0.0,0.08991058925564763,-0.5405991434679815,0.1331686438077219,-0.4167019103277766,0.014322610350531586,0.015954808327116987,1.3279688234603186
9022,4.0,300.59651,2219.0569,0.0,0.0,0.0,0.0,0.0,0.08992055606523146,-0.4348071190771216,0.15489853187479485,-0.3946292904143786,0.0020301930913144577,-0.002141686370042988,1.2942319521057488
9023,4.0,298.25966,2378.6451,0.0,0.0,0.0,0.0,0.0,0.08993052287481529,-0.45639489881766954,0.12986655292433089,-0.3965203798710146,-0.019017123706843983,-0.0016672533902950984,1.2832310957700488
9024,4.0,299.10659,2931.1108,0.0,0.0,0.0,0.0,0.0,0.08994048968439909,-0.5150368294151775,0.08527498554773583,-0.4612226403766305,0.006308996377424464,-0.0016007694916086483,1.2882891389442386
9025,4.0,298.9789,2993.8052,0.0,0.0,0.0,0.0,0.0,0.08995045649398292,-0.5119326465413185,0.07670452103439683,-0.47481391112298454,-0.013086607348547588,0.030532125434786173,1.2889230282067987
9026,4.0,300.07396,2741.4021,0.0,0.0,0.0,0.0,0.0,0.08996042330356674,-0.48408665928063355,0.0982429139518207,-0.4474740524197505,0.007477773882973823,0.007695675951429082,1.3318936477226686
9027,4.0,298.92463,2582.1814,0.0,0.0,0.0,0.0,0.0,0.08997039011315057,-0.4928028696883565,0.12265254658486388,-0.4147683352944476,-0.016293378755281286,-0.014850603831890487,1.3291510836769989
9028,4.0,300.33295,2688.2727,0.0,0.0,0.0,0.0,0.0,0.08998035692273439,-0.4791599839819085,0.11643720967645789,-0.4544450104577306,0.006535958624298894,-0.01022135695426939,1.3248055579731288
9029,4.0,300.82132,2749.9997,0.0,0.0,0.0,0.0,0.0,0.0899903237323182,-0.5062542105959006,0.0995427385378534,-0.4292197641831926,-0.004175863763400666,0.012615382217291289,1.275624728594359
9030,4.0,300.89127,2681.4106,0.0,0.0,0.0,0.0,0.0,0.09000029054190203,-0.4871683581347735,0.1186744253672539,-0.4465879348097976,-0.0026662022757336775,0.01147037920678829,1.3075840552984987
9031,4.0,300.13338999999996,2433.3048,0.0,0.0,0.0,0.0,0.0,0.09001025735148584,-0.4278943418598836,0.11089578540956191,-0.42266536339382366,-0.037803242602889565,0.0005607556263822715,1.2730298964132687
9032,4.0,299.39684,2208.2738,0.0,0.0,0.0,0.0,0.0,0.09002022416106967,-0.4223767289703376,0.12399549813490288,-0.3728788536352776,-0.007141157203652343,0.0016268676731093386,1.3007762305266188
9033,4.0,299.50624,2747.5252,0.0,0.0,0.0,0.0,0.0,0.0900301909706535,-0.5013725236016155,0.099990216126516,-0.4337967364749046,-0.00963237412554131,0.02148807187770758,1.3127479831081386
9034,4.0,300.0681,3142.6406,0.0,0.0,0.0,0.0,0.0,0.0900401577802373,-0.5439876645849026,0.07324658113987473,-0.48454317911318856,0.008892743298445431,-0.02276542460302248,1.3044149129607288
9035,4.0,299.86641000000003,2703.2128,0.0,0.0,0.0,0.0,0.0,0.09005012458982113,-0.5036540385867835,0.1145555029157479,-0.4326106360403456,0.012998734246875188,-0.03382770112003417,1.3098594097230587
9036,4.0,299.40599,2540.2927,0.0,0.0,0.0,0.0,0.0,0.09006009139940495,-0.4630861289005425,0.12077197466426588,-0.4298713954550036,0.025485171269690576,-0.00982717125461629,1.274999755932679
9037,4.0,299.83935,2747.3496,0.0,0.0,0.0,0.0,0.0,0.09007005820898878,-0.4945264081084565,0.11225760367646291,-0.4528568827809946,0.017434641859665184,0.020851072950590677,1.3190287151779987
9038,4.0,298.91922999999997,2718.2286,0.0,0.0,0.0,0.0,0.0,0.0900800250185726,-0.5215734780627944,0.12500369211690388,-0.4297038342859666,-0.013900773055649488,0.0064372145649536135,1.3232079665404588
9039,4.0,299.85913,2650.6033,0.0,0.0,0.0,0.0,0.0,0.09008999182815641,-0.49868904216927656,0.12850548446250387,-0.43553364979632453,-0.02608561314644958,-0.020856141227590882,1.341524995223209
9040,4.0,299.28092999999996,2433.924,0.0,0.0,0.0,0.0,0.0,0.09009995863774024,-0.4575566913823296,0.12102064650380788,-0.4033160760391976,-0.03179964963413107,0.0018934441485433885,1.2931355141725387
9041,4.0,299.97402999999997,2394.2903,0.0,0.0,0.0,0.0,0.0,0.09010992544732405,-0.48937893548044054,0.16322247263880385,-0.4016480029295716,-0.014941030323814886,0.017976262541618982,1.309051038793279
9042,4.0,301.11169,2796.6426,0.0,0.0,0.0,0.0,0.0,0.09011989225690788,-0.48548529905616855,0.09133025629809452,-0.45595446939670253,-0.022954090758392377,-0.0024882767740737975,1.261795384604509
9043,4.0,300.88392000000005,2889.7569,0.0,0.0,0.0,0.0,0.0,0.09012985906649171,-0.5296354936759535,0.1139685676628219,-0.46274702448957555,-0.002211159559174458,-0.024600922092921976,1.293951383153059
9044,4.0,300.3785,2540.1734,0.0,0.0,0.0,0.0,0.0,0.09013982587607552,-0.48379762968960854,0.13322452455073686,-0.4215761803313296,0.02085767528824228,0.005211684110703175,1.314191965825649
9045,4.0,301.18242999999995,2354.3956,0.0,0.0,0.0,0.0,0.0,0.09014979268565934,-0.4370086784968986,0.12718136923182388,-0.40585017400929363,0.03811236291689737,0.027948647734316774,1.3181697830682289
9046,4.0,299.11461,2583.7292,0.0,0.0,0.0,0.0,0.0,0.09015975949524316,-0.4838518284374575,0.12837393420202087,-0.4299112871114406,0.01118118850899739,0.012505385812935487,1.3299741467332287
9047,4.0,298.78225,3086.79,0.0,0.0,0.0,0.0,0.0,0.09016972630482697,-0.5284208195885745,0.07508646701595734,-0.48497271609558057,0.001994597007351398,-0.02254519064078708,1.3106597759770486
9048,4.0,298.90168,2954.4709999999995,0.0,0.0,0.0,0.0,0.0,0.0901796931144108,-0.49420198569143853,0.060693840070265646,-0.46457725814520556,-0.014161733592404288,-0.007174922243359693,1.2738097950152387
9049,4.0,299.75191,2622.0133,0.0,0.0,0.0,0.0,0.0,0.09018965992399462,-0.4829709797280245,0.12089215625862687,-0.4349477379259996,-0.0019591647659295084,0.014233768581763586,1.3048180851755187
9050,4.0,300.14449,2536.4474,0.0,0.0,0.0,0.0,0.0,0.09019962673357844,-0.4901481442938555,0.12814921559484288,-0.4090177559419096,-0.03393954771907257,0.010104713527932581,1.329459719657459
9051,4.0,300.11023,2750.4309999999996,0.0,0.0,0.0,0.0,0.0,0.09020959354316227,-0.4994862268179525,0.10806925332810491,-0.4446453722480816,-0.039787072814678366,0.0008518836380993691,1.334061800286649
9052,4.0,299.84742,2888.6787,0.0,0.0,0.0,0.0,0.0,0.09021956035274609,-0.5381691974756645,0.11552349113378088,-0.4554404780184756,-0.013137089495029789,0.02153517888810668,1.303932403263109
9053,4.0,300.30135,2816.3098,0.0,0.0,0.0,0.0,0.0,0.0902295271623299,-0.4989593367659525,0.0970219293428189,-0.45415043838865854,0.02366600838465318,0.03605618259496817,1.3160487466338986
9054,4.0,299.14796,2581.4196,0.0,0.0,0.0,0.0,0.0,0.09023949397191372,-0.4485307506840386,0.11462933845053488,-0.4507856881190836,0.028403131947420873,0.023378019401480876,1.2609273332438387
9055,4.0,300.08819,2714.131,0.0,0.0,0.0,0.0,0.0,0.09024946078149754,-0.5060313766339085,0.12674998813424987,-0.4457466737817716,0.006802759230655064,-0.025847701009719476,1.3231365324084088
9056,4.0,300.33725,3005.2287,0.0,0.0,0.0,0.0,0.0,0.09025942759108137,-0.5241352681581235,0.08304819721371892,-0.4724274234274566,0.01036871087656209,-0.01858019911797288,1.3153968215195588
9057,4.0,300.37869,2864.5431,0.0,0.0,0.0,0.0,0.0,0.09026939440066518,-0.5073839135298935,0.12311032284754289,-0.4864759840764415,0.012109081407323289,-0.0059402032319024155,1.3883914600485687
9058,4.0,300.44097999999997,2496.5466,0.0,0.0,0.0,0.0,0.0,0.09027936121024902,-0.48428140594985347,0.13439301469855788,-0.4089994363801016,0.0065370399648056144,0.006093826740513874,1.3328705221440789
9059,4.0,300.64669,2701.7469,0.0,0.0,0.0,0.0,0.0,0.09028932801983283,-0.4675433147654326,0.1055506682170399,-0.4592709382990126,-0.02173156398273838,-0.016900440194943585,1.3350211454813288
9060,4.0,300.83022,3121.3992,0.0,0.0,0.0,0.0,0.0,0.09029929482941665,-0.5280064914901835,0.057275873905438646,-0.47809681104948154,-0.012576461254450088,0.02210548670689168,1.263568774929529
9061,4.0,300.07172,2948.6822,0.0,0.0,0.0,0.0,0.0,0.09030926163900047,-0.5190601111897445,0.08778173285788252,-0.46504738592660355,0.005382407633302276,0.016485957069287287,1.2957609465066489
9062,4.0,299.49933,2458.7163,0.0,0.0,0.0,0.0,0.0,0.09031922844858428,-0.47105327390683854,0.1144239931852689,-0.39075908033241863,0.003816897016023406,0.003572882783216077,1.2928914222234487
9063,4.0,300.31917000000004,2331.2437,0.0,0.0,0.0,0.0,0.0,0.09032919525816813,-0.44997225093880355,0.15185536692195786,-0.4105229794954636,-0.013344781447527385,-0.03028959186434997,1.3004528010946987
9064,4.0,299.01042,2398.815,0.0,0.0,0.0,0.0,0.0,0.09033916206775193,-0.4746051512048815,0.15211039183962685,-0.4066850920916936,0.001022840410871489,0.01001557599146039,1.3272532662396987
9065,4.0,299.94536,2863.5311,0.0,0.0,0.0,0.0,0.0,0.09034912887733576,-0.4625144835916255,0.08151237654689522,-0.4894398318114505,0.003915758511055277,0.0005923811885034715,1.3013243988307188
9066,4.0,299.4801,3040.8663,0.0,0.0,0.0,0.0,0.0,0.09035909568691956,-0.5225144834306645,0.085439995353021,-0.48727294581009556,0.01877729348767458,0.0016614616527234984,1.3104236887037488
9067,4.0,299.42755,2738.203,0.0,0.0,0.0,0.0,0.0,0.0903690624965034,-0.5009549024403995,0.1007122530815255,-0.4321026937652156,-0.008748493873134122,-0.05082665151619995,1.3060061209177687
9068,4.0,300.26569,2685.9801,0.0,0.0,0.0,0.0,0.0,0.09037902930608722,-0.4927173919099206,0.09265159826325083,-0.41640507871098165,0.016077112680437485,-0.00019203241538212382,1.3194187151414887
9069,4.0,301.40985,2979.2264,0.0,0.0,0.0,0.0,0.0,0.09038899611567103,-0.5404355542393364,0.0926608016139091,-0.45783566953236254,0.015014338968549886,0.006271706341944224,1.3595095765481489
9070,4.0,299.54258,2967.5354,0.0,0.0,0.0,0.0,0.0,0.09039896292525486,-0.5196671695896565,0.07681512133581223,-0.45920462107996757,0.01045649379897559,0.01947637120866818,1.3234701956663386
9071,4.0,301.16418999999996,2581.6454,0.0,0.0,0.0,0.0,0.0,0.09040892973483866,-0.4452896169266636,0.1022510192663899,-0.4417171301215866,-0.032848841741678264,-0.03578340249579687,1.2932145476803387
9072,4.0,300.11211000000003,2379.231,0.0,0.0,0.0,0.0,0.0,0.0904188965444225,-0.4396681256368656,0.13124104694998287,-0.41479972578254565,-0.03629737259577176,0.011644856821007889,1.260075899184809
9073,4.0,299.70865,2676.8421,0.0,0.0,0.0,0.0,0.0,0.09042886335400632,-0.4898732698067276,0.09636755520298722,-0.4201874501417726,-0.013143347327647385,0.016290938849040485,1.3033808912336788
9074,4.0,299.82718,2948.2891,0.0,0.0,0.0,0.0,0.0,0.09043883016359014,-0.5274020270105275,0.10848322678896088,-0.4772874775321065,-0.005554072262594255,0.01185287605328779,1.2939647580543787
9075,4.0,299.45423,2830.926,0.0,0.0,0.0,0.0,0.0,0.09044879697317396,-0.5329608690466425,0.1141054172213279,-0.4416753538199636,-0.006737171146382023,-0.03708840175009026,1.3306356977235185
9076,4.0,299.42144,2596.2942,0.0,0.0,0.0,0.0,0.0,0.09045876378275777,-0.47852839479707554,0.12383565793162789,-0.4345158704683776,0.023698111187571477,-0.0035042631559688464,1.3575800443827186
9077,4.0,300.44982999999996,2689.0586,0.0,0.0,0.0,0.0,0.0,0.0904687305923416,-0.44692487086555055,0.11329911332175188,-0.48378091106295856,0.04278528087382846,0.003971670158198326,1.3322057287534688
9078,4.0,300.63632,3036.2894,0.0,0.0,0.0,0.0,0.0,0.09047869740192543,-0.5259726148294555,0.08041788405387723,-0.47740143777085353,0.006845356163534054,-3.780371984368666e-05,1.3433640441547088
9079,4.0,301.33821,3096.6406,0.0,0.0,0.0,0.0,0.0,0.09048866421150925,-0.5310373657193075,0.06677577652350603,-0.4770398189426645,-0.009675773957799541,-0.03769741065644476,1.2883562161008588
9080,4.0,300.38332,2552.2048,0.0,0.0,0.0,0.0,0.0,0.09049863102109307,-0.4943689490429165,0.12960896448390888,-0.4110465460871356,-0.014787665801928987,0.01011681578712698,1.3285500237176788
9081,4.0,300.40475,2125.4907,0.0,0.0,0.0,0.0,0.0,0.09050859783067688,-0.4608800098553156,0.15475508605813784,-0.3399711755000427,0.004605694993621706,0.01264579795879309,1.292163199376579
9082,4.0,300.97006,2536.5527,0.0,0.0,0.0,0.0,0.0,0.0905185646402607,-0.48045906180261755,0.14375582052509486,-0.43434544180155765,-0.014909294317432787,0.01039218686812899,1.3144386922249987
9083,4.0,299.72482,2858.9692,0.0,0.0,0.0,0.0,0.0,0.09052853144984455,-0.46580578336145156,0.08851786209528281,-0.4917673179536555,-0.023123925660653775,-0.003618358258304156,1.2454327127146387
9084,4.0,299.50944,2665.6988,0.0,0.0,0.0,0.0,0.0,0.09053849825942835,-0.49694706259735655,0.13399922517969387,-0.4473580352833006,0.003982989884340496,0.031204118980606765,1.3050245855458988
9085,4.0,300.39927,2610.8025,0.0,0.0,0.0,0.0,0.0,0.09054846506901218,-0.4702179606568995,0.1262902157688739,-0.4496910233735486,0.026861175037991573,0.03800507796980916,1.3026305795346287
9086,4.0,299.3591,2605.8358,0.0,0.0,0.0,0.0,0.0,0.090558431878596,-0.5166754169468936,0.1354215952725709,-0.41085517354074863,-0.0068784551939506736,0.014124919176520985,1.3400199135246686
9087,4.0,299.78713,2871.3616,0.0,0.0,0.0,0.0,0.0,0.09056839868817981,-0.5385531888660615,0.100685538742639,-0.43495458749667554,-0.016595547160352987,-0.04637194710080486,1.3586194363352988
9088,4.0,300.4785,3193.5034,0.0,0.0,0.0,0.0,0.0,0.09057836549776364,-0.5481338231990965,0.07100950223784223,-0.49362096781909653,-0.03073947794850027,-0.0025846413168842375,1.3341198595173789
9089,4.0,299.69649,2855.4113,0.0,0.0,0.0,0.0,0.0,0.09058833230734745,-0.4782919832837435,0.09193371968665172,-0.4816154638767456,0.003109681680826687,-0.0024429074875961976,1.3201164391603488
9090,4.0,300.37833,2430.4948,0.0,0.0,0.0,0.0,0.0,0.09059829911693128,-0.4686601190256526,0.13598350324802685,-0.4061330937022156,-0.004071925986692806,-0.0051702863593175346,1.2876229270034887
9091,4.0,300.72673,2701.6881,0.0,0.0,0.0,0.0,0.0,0.0906082659265151,-0.46120065284946055,0.08796031109525682,-0.4480053703746875,-0.004371277353836486,-0.004427506553560876,1.2943939707967387
9092,4.0,301.25369,2849.8842,0.0,0.0,0.0,0.0,0.0,0.09061823273609892,-0.5449867595810055,0.12243268144566487,-0.4437395367911826,0.01591785408271988,0.03527757588687567,1.2958094811864387
9093,4.0,300.67651,2602.5217,0.0,0.0,0.0,0.0,0.0,0.09062819954568274,-0.5062937070847986,0.14565125682465987,-0.43045915144051056,0.017582113318969483,0.02552332013595558,1.3211630251886386
9094,4.0,300.53825,2382.3964,0.0,0.0,0.0,0.0,0.0,0.09063816635526656,-0.4367630970701616,0.1210481967740269,-0.4084741067332556,-0.02080199415549698,-0.0009138853337759601,1.2957251787781188
9095,4.0,299.62307000000004,2440.0771,0.0,0.0,0.0,0.0,0.0,0.09064813316485038,-0.4393788427333156,0.13228606244061786,-0.43462973951461553,-0.020982802556341378,-0.02628609886423598,1.3085073287896187
9096,4.0,300.37396,2848.0637,0.0,0.0,0.0,0.0,0.0,0.09065809997443419,-0.5196266395856565,0.09185867331799522,-0.43797228947449957,0.0005593871307972114,0.001207256792671969,1.3222592604718288
9097,4.0,299.86125,3034.9925,0.0,0.0,0.0,0.0,0.0,0.09066806678401802,-0.5282005896793395,0.08538458577130252,-0.4797459262497365,0.0046715119710923365,-0.0005997754115057244,1.3127462605829685
9098,4.0,300.66643,2917.0093,0.0,0.0,0.0,0.0,0.0,0.09067803359360185,-0.5550418280083634,0.1107144643041669,-0.4423706156410806,0.017362642334059385,-0.024398673319961577,1.3564704341982088
9099,4.0,299.8797,2633.2991,0.0,0.0,0.0,0.0,0.0,0.09068800040318567,-0.49200497576461055,0.10614588172328289,-0.4145980890126456,0.004172591776177746,-0.024161742009328274,1.3068711325281386
9100,4.0,300.29436,2776.0428,0.0,0.0,0.0,0.0,0.0,0.09069796721276949,-0.4662009407679506,0.08014431564612812,-0.4577910865279626,0.017421046069823382,-0.006285225935378504,1.3195221679766989
9101,4.0,299.99029,3038.0543,0.0,0.0,0.0,0.0,0.0,0.0907079340223533,-0.5063050149559145,0.08495390482954762,-0.5021415297650106,0.004854005204203015,0.01074334388903549,1.2946739317993687
9102,4.0,299.72282,2721.4267,0.0,0.0,0.0,0.0,0.0,0.09071790083193712,-0.4897734646718775,0.11285543136796389,-0.4503277193388856,-0.012831056554076686,0.008923791308009632,1.3161705392959187
9103,4.0,299.09644,2075.7371,0.0,0.0,0.0,0.0,0.0,0.09072786764152094,-0.4080887778527266,0.14384880648677187,-0.36673226574615664,-0.03652023290226636,0.002170427006479468,1.2765818446388189
9104,4.0,299.4741,2265.6108,0.0,0.0,0.0,0.0,0.0,0.09073783445110477,-0.4624662123568616,0.14050032901380288,-0.36672323768776566,-0.013114640939064288,0.012260976716564188,1.3192465639494988
9105,4.0,300.21045,2904.8514,0.0,0.0,0.0,0.0,0.0,0.09074780126068858,-0.5050690828814375,0.1037604174103559,-0.48169362598945953,-0.015579946320120986,-0.005581757193751545,1.329163344003209
9106,4.0,300.93565,3158.3228,0.0,0.0,0.0,0.0,0.0,0.09075776807027242,-0.5214887804869355,0.08072297163248701,-0.5192854580119846,0.0018547438715739682,-0.02842563116589137,1.3122074141797886
9107,4.0,301.14718999999997,2990.8749,0.0,0.0,0.0,0.0,0.0,0.09076773487985623,-0.5252824192588385,0.07411087334267373,-0.45797974356408155,0.004490906929543006,-0.01861421291057978,1.2958639940418186
9108,4.0,300.49507,2891.6314,0.0,0.0,0.0,0.0,0.0,0.09077770168944005,-0.4903878792675155,0.096731705129926,-0.4853275562806005,0.03081469150342327,0.0045877609734767556,1.314355200416759
9109,4.0,300.06374,2947.5355,0.0,0.0,0.0,0.0,0.0,0.09078766849902387,-0.5236259579953585,0.08844543193838451,-0.46079667003459057,0.007862883698831202,0.023503905593904875,1.3159868370527885
9110,4.0,300.20779,3026.8732,0.0,0.0,0.0,0.0,0.0,0.09079763530860768,-0.5546124531459874,0.09987090795374122,-0.4653523438092006,-0.005154540047463495,-0.005645955098887385,1.3574916889739987
9111,4.0,299.5605,2642.7624,0.0,0.0,0.0,0.0,0.0,0.09080760211819151,-0.4760349382884906,0.1016474464468219,-0.42894629811370355,-0.014678301665635586,-0.009830925143586772,1.3259855890395886
9112,4.0,299.34979,2240.9308,0.0,0.0,0.0,0.0,0.0,0.09081756892777533,-0.4114439630413576,0.13983345846048786,-0.40957649244455263,-0.00971644895788885,0.005602702897168725,1.330007077361479
9113,4.0,299.49374,2287.5663,0.0,0.0,0.0,0.0,0.0,0.09082753573735916,-0.44752750136252556,0.15404992478354385,-0.4018854479580056,0.015271674096446884,-0.0006887608692704054,1.2966225130666786
9114,4.0,299.46181,2989.4213,0.0,0.0,0.0,0.0,0.0,0.09083750254694298,-0.5178664316444375,0.09410290677898381,-0.48494591563043554,-0.01005614237113898,-0.025384524124007473,1.326179221133699
9115,4.0,300.26243,3174.0275,0.0,0.0,0.0,0.0,0.0,0.0908474693565268,-0.5691126700270475,0.08637194935774772,-0.4820843656255226,-0.005636166798946354,0.01072861123258149,1.282107401409149
9116,4.0,299.46663,2751.9336,0.0,0.0,0.0,0.0,0.0,0.09085743616611061,-0.5365543503937915,0.11743563592749488,-0.41740037401920954,-0.01958635444077268,-0.0015387650702892886,1.3383513945849987
9117,4.0,299.97901,2547.1772,0.0,0.0,0.0,0.0,0.0,0.09086740297569443,-0.4439464829916066,0.1062777055612929,-0.4366094984875026,-0.0042235824728851365,0.025561613896984872,1.3092688875647789
9118,4.0,300.60611,2833.8261,0.0,0.0,0.0,0.0,0.0,0.09087736978527827,-0.5210884656374275,0.1240558270458569,-0.46437972503821057,-0.01098734464561649,-0.006890243750914114,1.3449567719868987
9119,4.0,300.30861,3052.2771,0.0,0.0,0.0,0.0,0.0,0.09088733659486208,-0.5103077885484575,0.06765400598143052,-0.4851622242617835,0.006533725522403503,0.01015603981307309,1.2967112737754387
9120,4.0,300.1571,2783.1744,0.0,0.0,0.0,0.0,0.0,0.0908973034044459,-0.4944973886255925,0.09799135029649331,-0.4495094996181336,0.007508019398458823,-0.002021263824808208,1.3121240236965588
9121,4.0,301.04607000000004,2364.8619,0.0,0.0,0.0,0.0,0.0,0.09090727021402971,-0.46036170203166255,0.13321628682742387,-0.39171356192661866,0.003111532584784357,0.0034443757180834165,1.3223546073062387
9122,4.0,301.32956,2465.3308,0.0,0.0,0.0,0.0,0.0,0.09091723702361354,-0.4847719507207665,0.14839606015305087,-0.41302313358720955,0.0041117058816437764,-0.035224960848932965,1.3565257576536687
9123,4.0,302.15142000000003,3042.6890000000003,0.0,0.0,0.0,0.0,0.0,0.09092720383319737,-0.49685844374361054,0.07272229210088144,-0.5007653334791905,-0.005507748697172475,0.008264471089139792,1.3373224391084486
9124,4.0,301.23244,3039.4505,0.0,0.0,0.0,0.0,0.0,0.09093717064278117,-0.5421939788603796,0.1136930142981269,-0.49541608222626055,-0.0015163872391807686,0.011095509093791488,1.3447529060667787
9125,4.0,299.37142,2634.9788,0.0,0.0,0.0,0.0,0.0,0.090947137452365,-0.47889002375776557,0.1139897040599079,-0.4360674502140066,-0.00974647125437682,0.015896524154864786,1.3108795499237387
9126,4.0,300.04826,2559.4944,0.0,0.0,0.0,0.0,0.0,0.0909571042619488,-0.4866845514770255,0.13939529871974488,-0.43073314440005156,-0.012810727717320386,-0.024879321677147875,1.2883647274016987
9127,4.0,300.05112,2836.5882,0.0,0.0,0.0,0.0,0.0,0.09096707107153265,-0.5476152620629186,0.11451472973172389,-0.4291514407289496,0.0005777617323506434,-0.003248629072339727,1.2989068854171288
9128,4.0,299.48227,2979.9406,0.0,0.0,0.0,0.0,0.0,0.09097703788111647,-0.5357273964571775,0.09147302121068432,-0.46157314385122256,0.012131191537755388,-0.002268891003497108,1.3316120655198789
9129,4.0,300.05657,2637.603,0.0,0.0,0.0,0.0,0.0,0.09098700469070028,-0.46526399853298156,0.11732216204879589,-0.45382362470140464,0.02111586762572388,0.014347327573470988,1.338230919148109
9130,4.0,299.0748,2273.5533,0.0,0.0,0.0,0.0,0.0,0.0909969715002841,-0.4397692479968455,0.16511680449575986,-0.4164509890730126,0.0024148621433783377,-0.014601128485019186,1.3660361230922686
9131,4.0,299.13574,2572.2144,0.0,0.0,0.0,0.0,0.0,0.09100693830986793,-0.44956429618354155,0.10998123600180289,-0.44230588922469255,0.001188622920682949,0.010158749243840491,1.2972211412257588
9132,4.0,299.28188,3003.2642,0.0,0.0,0.0,0.0,0.0,0.09101690511945175,-0.5151349322898595,0.08292885357719063,-0.4807112496200065,0.004435794635403846,-0.023337036474686178,1.3176352936404787
9133,4.0,299.01642000000004,2812.5189,0.0,0.0,0.0,0.0,0.0,0.09102687192903557,-0.5233924747748155,0.11274521002208589,-0.4442882421178356,-0.0020790241467587077,-0.0031638199376447167,1.2896268317262587
9134,4.0,299.76845,2493.6553,0.0,0.0,0.0,0.0,0.0,0.0910368387386194,-0.4676107566920885,0.13905473522863387,-0.4294529434287056,-0.018355672015063784,-0.02711027446907577,1.3263542094259688
9135,4.0,300.94806,2333.5767,0.0,0.0,0.0,0.0,0.0,0.09104680554820321,-0.4506893381670746,0.14319485487223185,-0.4018545640949576,-0.02352370754060918,-0.005950058609000063,1.2992748978534487
9136,4.0,300.16219,2719.6145,0.0,0.0,0.0,0.0,0.0,0.09105677235778703,-0.5173061955316466,0.14449044711259687,-0.45387915080688457,-0.002345542562962028,-0.004452554400007905,1.3724876891289886
9137,4.0,301.20639,3213.0890000000004,0.0,0.0,0.0,0.0,0.0,0.09106673916737085,-0.5619475732699074,0.08492892112183192,-0.49968016288709255,-0.001192286225094489,0.011684626887432888,1.313403251947809
9138,4.0,300.41213,2978.6419,0.0,0.0,0.0,0.0,0.0,0.09107670597695466,-0.5435371026629355,0.1005760560560839,-0.4624717143049045,0.0011708413946780489,-0.02825593102589327,1.3491452439252687
9139,4.0,300.31902,2642.1534,0.0,0.0,0.0,0.0,0.0,0.0910866727865385,-0.5293109800664265,0.11675169210999488,-0.39058935080816765,-0.01136198373759049,-0.009839073194265921,1.3080217793416988
9140,4.0,299.56212999999997,2694.4075,0.0,0.0,0.0,0.0,0.0,0.09109663959612233,-0.4765473489965616,0.10880143798286589,-0.4512866896310286,0.014158860015120685,-0.004469516814631965,1.3402058449180188
9141,4.0,299.43957,2673.8042,0.0,0.0,0.0,0.0,0.0,0.09110660640570614,-0.5012755960970495,0.12637483228472488,-0.43786895822930155,0.014685332608079487,0.015170766545488087,1.343264441669879
9142,4.0,299.59397,2635.2853,0.0,0.0,0.0,0.0,0.0,0.09111657321528996,-0.46797537474057355,0.1143442504023989,-0.4474298037878836,-0.0012574272634234087,0.0030376348364412166,1.3336730162232788
9143,4.0,300.528,2470.1283,0.0,0.0,0.0,0.0,0.0,0.09112654002487378,-0.45158301462277356,0.1174067380346429,-0.4166810576407186,-0.006879732091726693,0.01954591056303118,1.3046971031135788
9144,4.0,299.06221,2467.9929,0.0,0.0,0.0,0.0,0.0,0.09113650683445759,-0.4579141356201065,0.12757478384815088,-0.4198688640453306,-0.018893135331857283,0.004104177028100736,1.3039006885349786
9145,4.0,300.41187,2881.6387,0.0,0.0,0.0,0.0,0.0,0.09114647364404142,-0.5138050314011084,0.09312199050292491,-0.4552631693834766,0.014379723205668186,0.014726485760890987,1.3037734243224188
9146,4.0,300.29702000000003,3188.1712,0.0,0.0,0.0,0.0,0.0,0.09115644045362525,-0.5319431099836975,0.07351202834807233,-0.5106933504765095,0.001035942849239599,0.0006627185279827263,1.3179911470755987
9147,4.0,299.76063,2886.8008,0.0,0.0,0.0,0.0,0.0,0.09116640726320907,-0.5379568303872054,0.1048139340693299,-0.4443724533336466,0.01008937656911894,0.015234144325992986,1.3354553231491786
9148,4.0,300.39731,2551.3938,0.0,0.0,0.0,0.0,0.0,0.09117637407279289,-0.46595989870166155,0.11186495913021188,-0.4214650673253636,0.0025821729383156277,-0.0016523401726732782,1.3398324622561688
9149,4.0,300.73413999999997,2601.8892,0.0,0.0,0.0,0.0,0.0,0.0911863408823767,-0.4586179290070656,0.12431042639848389,-0.4566018551505946,-0.004130216846395666,0.014436318290003686,1.3118948265239385
9150,4.0,300.15636,3069.9127,0.0,0.0,0.0,0.0,0.0,0.09119630769196052,-0.5524454252896185,0.07425478728087694,-0.4549861569386376,0.009816542970342361,-0.011848080340564488,1.3247031183880187
9151,4.0,300.63639,2970.5654,0.0,0.0,0.0,0.0,0.0,0.09120627450154435,-0.5086992033522025,0.08931328672853511,-0.4835917879317935,0.001119874914648049,-0.016287875793988184,1.3028519746814788
9152,4.0,300.0089,2454.7509,0.0,0.0,0.0,0.0,0.0,0.09121624131112817,-0.4563174155825226,0.14153095635301785,-0.43139649897551957,-0.0036081659755482563,-0.01298602707737109,1.3436126957292487
9153,4.0,300.1649,2596.5441,0.0,0.0,0.0,0.0,0.0,0.09122620812071199,-0.48070342732923454,0.14418992726543786,-0.4527710604975245,-0.014247404901609386,0.005143429557466975,1.3567409719749088
9154,4.0,300.19794,2874.4181,0.0,0.0,0.0,0.0,0.0,0.09123617493029582,-0.5079989259430906,0.12724267086287389,-0.49299507309982554,-0.01230940399184359,0.0037260920751866562,1.3439124151088286
9155,4.0,299.49045,3111.0398,0.0,0.0,0.0,0.0,0.0,0.09124614173987963,-0.5151709229334115,0.06779945499353524,-0.4983069658215685,-0.005737754747347306,0.013827858565203386,1.3429033193342386
9156,4.0,299.48292999999995,2972.7684,0.0,0.0,0.0,0.0,0.0,0.09125610854946345,-0.5607249553017445,0.1090710334369729,-0.45199344170827954,0.003612573816133277,0.0062593337476231446,1.3085078354146686
9157,4.0,299.80885,2753.3001,0.0,0.0,0.0,0.0,0.0,0.09126607535904727,-0.47299380996835455,0.09485913484536772,-0.45879981753251653,-0.009644767086189401,0.0029573764105953275,1.3446014251768288
9158,4.0,300.1081,2599.6893,0.0,0.0,0.0,0.0,0.0,0.09127604216863108,-0.4902049572269625,0.10731661115382489,-0.4073522970175416,-0.005768084261265594,-0.007834292516784472,1.2982091613982687
9159,4.0,301.15802,2964.2670000000003,0.0,0.0,0.0,0.0,0.0,0.09128600897821491,-0.5258813615254495,0.1069526821154079,-0.4821344505779655,0.012946030042923688,-0.008487079096359491,1.3806657320110987
9160,4.0,300.575,3010.2802,0.0,0.0,0.0,0.0,0.0,0.09129597578779873,-0.5037577852645225,0.07301808817607423,-0.4843103241077076,0.02727269440710537,-0.014389849627167587,1.2938932225973188
9161,4.0,300.46326,2605.0002,0.0,0.0,0.0,0.0,0.0,0.09130594259738256,-0.45035248317132953,0.11934179241311788,-0.4608443333192946,0.03156097046707527,-0.002824090655341047,1.3367646449283987
9162,4.0,301.04286,2610.2025,0.0,0.0,0.0,0.0,0.0,0.09131590940696638,-0.4791177517177405,0.12273849045834588,-0.43705713211668057,0.014670597925125286,0.003603738173936267,1.2941690292745387
9163,4.0,300.21561,2903.5992,0.0,0.0,0.0,0.0,0.0,0.0913258762165502,-0.46938746034493556,0.08832901558139511,-0.5015631970054335,0.021314326843310277,0.0013180636957827586,1.3350204362062588
9164,4.0,299.4557,2887.8158,0.0,0.0,0.0,0.0,0.0,0.09133584302613401,-0.5305014678739185,0.10217061787095491,-0.4494930647015116,0.009230546088333971,0.0041626450039210765,1.3317765160111088
9165,4.0,299.74889,2780.2151,0.0,0.0,0.0,0.0,0.0,0.09134580983571783,-0.49852821911340456,0.1135504398765559,-0.4601382094571056,0.004467363050219406,-0.006524225492115924,1.3620454375734186
9166,4.0,299.64917,2670.6512,0.0,0.0,0.0,0.0,0.0,0.09135577664530166,-0.4800959433642806,0.1016305960976589,-0.4333459313729136,-0.005386552434161335,-0.007265357550559963,1.3435360940216887
9167,4.0,299.07329,2742.3790000000004,0.0,0.0,0.0,0.0,0.0,0.09136574345488548,-0.5136410976674295,0.12125840563977289,-0.4412320366362115,-0.016024185561463986,-0.0035306930755522772,1.3217161584182289
9168,4.0,300.01947,3013.5124,0.0,0.0,0.0,0.0,0.0,0.09137571026446929,-0.5547389675534734,0.0964177961959456,-0.45771135387759354,-0.029575388345863575,0.020410563482865778,1.3143705004932686
9169,4.0,300.23717,3035.8682,0.0,0.0,0.0,0.0,0.0,0.09138567707405312,-0.5274192117322235,0.08467860173762733,-0.48008751312344855,-0.005419461176209175,0.0019692187400467583,1.289012700840649
9170,4.0,299.78312999999997,2573.9204,0.0,0.0,0.0,0.0,0.0,0.09139564388363694,-0.5033680588785595,0.14807203290357185,-0.4271114947001226,-0.0004438368898607906,-0.006315153290332103,1.3375799059588587
9171,4.0,300.25547,2585.4051,0.0,0.0,0.0,0.0,0.0,0.09140561069322076,-0.4755889765219775,0.12622402013984088,-0.4365336567175176,0.007312037374716903,-0.028615381498868275,1.3313872253226886
9172,4.0,300.14105,2825.8173,0.0,0.0,0.0,0.0,0.0,0.09141557750280457,-0.4836004917501525,0.10973897803539388,-0.4851163949597605,0.018407603109188982,-0.03368129154683467,1.3368313167849788
9173,4.0,300.38058,2812.5085,0.0,0.0,0.0,0.0,0.0,0.09142554431238839,-0.5136728731905655,0.13139532441020887,-0.4726548068823976,0.004765962180488845,-0.03060318770404947,1.3504790863569087
9174,4.0,300.70757000000003,2779.8871,0.0,0.0,0.0,0.0,0.0,0.09143551112197222,-0.48396479569110656,0.09556755574553341,-0.4566190297397896,-0.009819306002040052,-0.004854539490980745,1.309354000573179
9175,4.0,300.22751,2832.8509999999997,0.0,0.0,0.0,0.0,0.0,0.09144547793155605,-0.4934205368168155,0.09492674902454072,-0.46262217181225357,-0.01802098638778288,-0.005380003798765035,1.3111922389045987
9176,4.0,298.83092999999997,2792.7182,0.0,0.0,0.0,0.0,0.0,0.09145544474113987,-0.5032736239692395,0.09231502495103361,-0.4379579823830876,-0.016267260207453588,0.023522402474480376,1.3087006569086987
9177,4.0,299.17252,2751.6472,0.0,0.0,0.0,0.0,0.0,0.09146541155072369,-0.5005845595288495,0.10802260329350091,-0.4438700839340665,0.00030408038774539767,0.01941460044282188,1.3484061793023288
9178,4.0,299.48066,2868.1735,0.0,0.0,0.0,0.0,0.0,0.0914753783603075,-0.5031471500917575,0.0890699344520181,-0.45777590804146456,0.0015879277624912683,0.026370882566353476,1.3299243961533187
9179,4.0,300.03761000000003,2588.3709,0.0,0.0,0.0,0.0,0.0,0.09148534516989132,-0.5127745661819095,0.14210661413233086,-0.4161321597965466,-0.0010197602318924989,0.002205796223745138,1.3280084415392288
9180,4.0,299.95864,2522.7713,0.0,0.0,0.0,0.0,0.0,0.09149531197947515,-0.4513213833144526,0.11390686073173188,-0.42944496915041863,-0.012305061201914989,0.02688591556568327,1.2979006267428186
9181,4.0,299.85215,2829.8041,0.0,0.0,0.0,0.0,0.0,0.09150527878905898,-0.5102234658751356,0.1119123589698899,-0.4618786894188776,-0.014827120747572886,-7.545057843939234e-05,1.3093146864692988
9182,4.0,300.57547999999997,3077.9192,0.0,0.0,0.0,0.0,0.0,0.0915152455986428,-0.5388536479182144,0.11126074796308089,-0.5080176710699406,-0.011238199025873889,0.017707068334551584,1.3354214805958387
9183,4.0,300.633,2870.6724,0.0,0.0,0.0,0.0,0.0,0.09152521240822661,-0.5035667065606645,0.1137985341635409,-0.48284455651304753,0.011293810244362289,-0.012206622941449887,1.3284806160858287
9184,4.0,299.9058,2571.8749,0.0,0.0,0.0,0.0,0.0,0.09153517921781043,-0.47536761177263054,0.1260174488419539,-0.43243558695306955,0.01152199011388189,0.0028985471097893274,1.3547116346746286
9185,4.0,299.34817000000004,2708.619,0.0,0.0,0.0,0.0,0.0,0.09154514602739425,-0.5140498934202745,0.12958357243640287,-0.4388862207996976,0.00020855570767784585,-0.019493635977122083,1.3513226170651589
9186,4.0,299.9701,2782.2458,0.0,0.0,0.0,0.0,0.0,0.09155511283697808,-0.4858597557631245,0.1035194462715739,-0.46339294103082257,-0.005261314113851275,0.006079772151026795,1.3248443654519588
9187,4.0,301.2977,2681.8788,0.0,0.0,0.0,0.0,0.0,0.0915650796465619,-0.4603734658653236,0.09204978545910651,-0.4469005224656476,0.007994884652958683,-0.0024836558469927476,1.3148988090954088
9188,4.0,300.862,2677.8657,0.0,0.0,0.0,0.0,0.0,0.09157504645614571,-0.4991216189019685,0.0984198091807789,-0.4133024866397796,-0.004272742935936896,0.008815007561373512,1.308132324927609
9189,4.0,300.32284,2768.3874,0.0,0.0,0.0,0.0,0.0,0.09158501326572954,-0.47932041187024155,0.1108734939073619,-0.47307373513624257,-0.016146984380833285,-0.019342010192407784,1.3329302025749687
9190,4.0,300.48613,2767.2653,0.0,0.0,0.0,0.0,0.0,0.09159498007531336,-0.5319094498153755,0.1125647299142739,-0.4218348326843566,-0.03537530284577057,-0.011523256676506888,1.3332104675526288
9191,4.0,300.9284,3011.4376,0.0,0.0,0.0,0.0,0.0,0.09160494688489718,-0.5497648924150704,0.11600144120595089,-0.4816383937265085,-0.009318029494017912,-0.011104981968976389,1.3353511610388986
9192,4.0,300.02551,2886.7451,0.0,0.0,0.0,0.0,0.0,0.09161491369448099,-0.49608849525762255,0.08577279126886543,-0.4671827395848466,-0.00028469520093972873,0.004639783868061016,1.3076557934055788
9193,4.0,300.17775,2559.0223,0.0,0.0,0.0,0.0,0.0,0.09162488050406481,-0.4753330498117196,0.13646321637537087,-0.4390090368443185,0.02339071542523388,0.006248218596676164,1.3287974593920986
9194,4.0,299.97081000000003,2741.6290000000004,0.0,0.0,0.0,0.0,0.0,0.09163484731364864,-0.4947542576584435,0.12709415879571687,-0.46572664852864154,0.016748350341683486,-0.0024684525358672975,1.3195907650084686
9195,4.0,300.388,2963.742,0.0,0.0,0.0,0.0,0.0,0.09164481412323247,-0.5164181628790044,0.09464787827901831,-0.4791332747092726,0.037828058111088664,-0.007693420254056462,1.3459686035367588
9196,4.0,300.07741,2750.3896,0.0,0.0,0.0,0.0,0.0,0.09165478093281629,-0.5207738616138785,0.11890473711498388,-0.4341806468052936,0.0012758437932659788,0.007854598960713562,1.3507960309881886
9197,4.0,300.46771,2852.5097,0.0,0.0,0.0,0.0,0.0,0.0916647477424001,-0.5245814427071575,0.09446692700990982,-0.43697721708129356,0.0037701875036385358,-0.01158825565717179,1.3434980971429387
9198,4.0,299.32614,2919.0312,0.0,0.0,0.0,0.0,0.0,0.09167471455198392,-0.5046692341269755,0.08728905823525931,-0.46993240651371754,-0.039300324691890064,-0.01967662691868188,1.3271763605571087
9199,4.0,300.21605,2941.3755,0.0,0.0,0.0,0.0,0.0,0.09168468136156774,-0.5092059803897175,0.09239031145996382,-0.4772890278047595,-0.006719744460562144,-0.01150755028670679,1.3453255950232987
9200,4.0,300.86665,3026.2909,0.0,0.0,0.0,0.0,0.0,0.09169464817115157,-0.5089752329444445,0.08499577738993012,-0.49593740953521154,0.003176757520221557,0.00978116260732559,1.3192758468773886
9201,4.0,300.34608,2854.5226,0.0,0.0,0.0,0.0,0.0,0.0917046149807354,-0.49906045912593255,0.12794747749993288,-0.4965906012121765,0.013287459862870188,0.003929283677365106,1.3591839179660088
9202,4.0,301.59972999999997,2526.6608,0.0,0.0,0.0,0.0,0.0,0.09171458179031922,-0.5074678714331795,0.16164058658268385,-0.42221451776182856,0.027498337098374577,-0.0056381778977448345,1.3487689228381288
9203,4.0,301.87703999999997,2660.2857,0.0,0.0,0.0,0.0,0.0,0.09172454859990303,-0.4871068437212025,0.12973421232876986,-0.45128778394113656,0.017391401411647682,-0.014417711978417387,1.3234248020618589
9204,4.0,300.31476000000004,3022.2798,0.0,0.0,0.0,0.0,0.0,0.09173451540948685,-0.5029252787173605,0.09183602413850993,-0.5076083484270435,0.020934224306797082,0.0024325988837288178,1.3265059942909487
9205,4.0,300.55596,3200.22,0.0,0.0,0.0,0.0,0.0,0.09174448221907067,-0.5425394870119785,0.060619035868383034,-0.49086650821725253,-0.015495176803504885,-0.037621986345500964,1.3291476386266587
9206,4.0,300.46809,2972.664,0.0,0.0,0.0,0.0,0.0,0.0917544490286545,-0.4853166233120215,0.06530483932683584,-0.4836038354754826,-0.021384322160218277,-0.03841870388588087,1.3347541540799788
9207,4.0,300.10576000000003,2749.7495,0.0,0.0,0.0,0.0,0.0,0.09176441583823831,-0.5101348368888885,0.12043191779820489,-0.44615228792930256,-0.017841311813800383,-0.014169563989177087,1.3371497812914088
9208,4.0,299.86746,2829.5009999999997,0.0,0.0,0.0,0.0,0.0,0.09177438264782213,-0.5273969810250295,0.11454959566766489,-0.4472502558701636,-0.002335873725207788,0.021676834291836977,1.3794804320441187
9209,4.0,299.95572000000004,2748.6483,0.0,0.0,0.0,0.0,0.0,0.09178434945740596,-0.5146263617996675,0.12584139663707888,-0.4467354741568586,0.01025315983515809,0.019262817604342085,1.3210353556760386
9210,4.0,301.04405,2760.9233,0.0,0.0,0.0,0.0,0.0,0.09179431626698978,-0.46689685106913154,0.1084960038727219,-0.48085089574878853,0.002899005504134567,0.015393515394471684,1.3385631638558988
9211,4.0,300.63154,2885.725,0.0,0.0,0.0,0.0,0.0,0.0918042830765736,-0.5028950635993785,0.09641271575994421,-0.4707060027000655,0.022956587406638775,0.012298174140985288,1.3160376008827988
9212,4.0,300.30246,2906.3606,0.0,0.0,0.0,0.0,0.0,0.09181424988615741,-0.48601216884316656,0.12126138459506687,-0.5187102561952165,0.01918176570234288,-0.0038660019529696862,1.3426374425079985
9213,4.0,300.16089,2929.1861,0.0,0.0,0.0,0.0,0.0,0.09182421669574123,-0.5494184318083775,0.1087815985459079,-0.44976260949311353,0.004301542036904147,-0.03421154457591657,1.3517973247370088
9214,4.0,299.93537000000003,3058.4532,0.0,0.0,0.0,0.0,0.0,0.09183418350532506,-0.5638701545396514,0.12135710633201388,-0.4871803651484586,-0.017239934707199086,-0.036912124603693065,1.3647284225132088
9215,4.0,299.17348,2806.6042,0.0,0.0,0.0,0.0,0.0,0.09184415031490888,-0.5321600164326046,0.12225322472045388,-0.44323080418097455,-0.006367245997848254,-0.006952896550972464,1.3259347238845687
9216,4.0,300.06195,2693.9438,0.0,0.0,0.0,0.0,0.0,0.09185411712449269,-0.5016182570158675,0.1055405357160399,-0.4228139261234856,-0.0016062162175211987,0.03628584788913436,1.3203372263571387
9217,4.0,299.04667,2791.7772,0.0,0.0,0.0,0.0,0.0,0.09186408393407652,-0.5038350658496495,0.1184511861052219,-0.4632466682463866,-0.010122002411738861,0.02737819806051777,1.340841051405709
9218,4.0,299.22587000000004,2863.5107,0.0,0.0,0.0,0.0,0.0,0.09187405074366034,-0.47641161401316556,0.06504792773748064,-0.45907204743688357,0.0054770529946680455,0.010394421084599492,1.3331450115961687
9219,4.0,300.64827,2737.3756,0.0,0.0,0.0,0.0,0.0,0.09188401755324416,-0.5050631857658555,0.11393276953678891,-0.4409634139022005,0.009177640754237621,0.019148442946304182,1.3464463509589089
9220,4.0,300.60848,2803.8183,0.0,0.0,0.0,0.0,0.0,0.09189398436282797,-0.5180413186116974,0.1189167339961679,-0.45316616724151854,0.025300570273721873,-0.0038730518431904564,1.3577185556713887
9221,4.0,300.23634,2914.1776,0.0,0.0,0.0,0.0,0.0,0.0919039511724118,-0.5206668218733145,0.1051082021633719,-0.47027861380788555,-0.01026077744940989,-0.0007375614765491503,1.3252056904376186
9222,4.0,299.9357,2880.2099,0.0,0.0,0.0,0.0,0.0,0.09191391798199562,-0.4982980289556865,0.1049320283684849,-0.48214590030409554,-0.03983093235850697,-0.00927302193782601,1.3249578494631589
9223,4.0,300.57389,2978.9588,0.0,0.0,0.0,0.0,0.0,0.09192388479157944,-0.49282363118290556,0.08348085297991872,-0.4961863245547775,-0.005531425312259175,0.0075846501862966926,1.3032847337991889
9224,4.0,300.40565,2838.4369,0.0,0.0,0.0,0.0,0.0,0.09193385160116327,-0.5068533555125315,0.12633006689530688,-0.48229066334588255,-0.008474858388228403,0.005575265300360844,1.3415254005232489
9225,4.0,299.47471,2498.3673,0.0,0.0,0.0,0.0,0.0,0.09194381841074709,-0.4927692905800425,0.15711288864333484,-0.42378487303181056,0.01822927818433968,-0.00999662659339023,1.3720217967330088
9226,4.0,299.22297000000003,2673.5187,0.0,0.0,0.0,0.0,0.0,0.0919537852203309,-0.5265332055797814,0.11319852798432488,-0.3993482494426036,0.02129173440583058,-0.043658950706302956,1.3375825404091188
9227,4.0,298.54677999999996,3131.1714,0.0,0.0,0.0,0.0,0.0,0.09196375202991472,-0.5678277473102356,0.09390266728097171,-0.47787285237987853,0.03673427489314067,-0.0026861638093287274,1.3462811911926087
9228,4.0,298.2446,2913.7396,0.0,0.0,0.0,0.0,0.0,0.09197371883949854,-0.5519114830169225,0.11725329143949889,-0.45104590087726454,0.00032993592624464067,-0.0077805176114523035,1.3190167588268187
9229,4.0,299.7161,2677.2786,0.0,0.0,0.0,0.0,0.0,0.09198368564908237,-0.45424320143531355,0.0976813687199005,-0.4572639938259425,0.004935526342323525,0.019141085737328083,1.3552402472517988
9230,4.0,300.29893,2716.1373,0.0,0.0,0.0,0.0,0.0,0.0919936524586662,-0.4681451143973256,0.1283929833039009,-0.48588577602569255,-0.02655248940827668,-0.002063037593305958,1.3481931941313088
9231,4.0,299.49315,2746.0887,0.0,0.0,0.0,0.0,0.0,0.09200361926825001,-0.48871854972776557,0.10501370645904591,-0.4510375415639396,-0.009080632392313642,0.01028728609852609,1.3828900186306188
9232,4.0,300.87124,2758.5398,0.0,0.0,0.0,0.0,0.0,0.09201358607783383,-0.5072368504103795,0.13450984243508787,-0.4658001902208996,-0.017941584056946482,-0.012454772957190387,1.3334832344795486
9233,4.0,301.03643,2837.7444,0.0,0.0,0.0,0.0,0.0,0.09202355288741765,-0.5153871099747475,0.13578697325863087,-0.4830033024062146,-0.009725013353034091,0.005373381905386505,1.3423839273329787
9234,4.0,300.01782000000003,2798.6834,0.0,0.0,0.0,0.0,0.0,0.09203351969700146,-0.5064157023968385,0.0883849621856666,-0.43269914343658056,0.0022064960755892077,-0.00826261967855707,1.2921321939235186
9235,4.0,300.56275,2825.3712,0.0,0.0,0.0,0.0,0.0,0.0920434865065853,-0.4880277968695935,0.10908197653805289,-0.47989648508209554,0.007850328820817133,0.037431752692226365,1.303767142171799
9236,4.0,298.92053,2948.7094,0.0,0.0,0.0,0.0,0.0,0.09205345331616913,-0.5350477690851035,0.09623910751431042,-0.4575253819542396,-0.006009389772580594,0.001093076982628299,1.3271286364773986
9237,4.0,298.8781,2929.9646,0.0,0.0,0.0,0.0,0.0,0.09206342012575294,-0.5456981016812095,0.10148355324314691,-0.4464215186133736,-0.013729625994508589,-0.008205175895937812,1.3449821032393987
9238,4.0,299.41867,2654.6505,0.0,0.0,0.0,0.0,0.0,0.09207338693533676,-0.4788070689720786,0.11621265318929588,-0.44435306985923356,0.005322180756633345,-0.03371323526948727,1.3757028330212986
9239,4.0,298.96274,2574.3165,0.0,0.0,0.0,0.0,0.0,0.09208335374492058,-0.4670923272784236,0.08968991381720533,-0.4051255279352766,0.016944135592255983,0.016406136266159586,1.3400009657477987
9240,4.0,299.45831,3043.7351,0.0,0.0,0.0,0.0,0.0,0.0920933205545044,-0.5345597169094365,0.11929883060887789,-0.5099585820339936,0.002689008407659467,-0.015072626180552384,1.3770188422511787
9241,4.0,300.27859,3102.3104,0.0,0.0,0.0,0.0,0.0,0.09210328736408822,-0.5278860059207925,0.09127606464299622,-0.5064149627242654,-0.014075178729111987,0.003110179591925827,1.3332366094052088
9242,4.0,299.79621000000003,2754.8494,0.0,0.0,0.0,0.0,0.0,0.09211325417367204,-0.5106097066807546,0.12532932030154087,-0.45212504263126757,-0.006575905300216323,-0.0005736479876071485,1.3577549313499786
9243,4.0,301.03191,2855.671,0.0,0.0,0.0,0.0,0.0,0.09212322098325586,-0.5243898371132475,0.11708371390276288,-0.46074655468464454,-0.005760881268954714,0.03588493420881726,1.3387925636785387
9244,4.0,299.93956000000003,2906.841,0.0,0.0,0.0,0.0,0.0,0.09213318779283969,-0.5309266580133815,0.09682804798918432,-0.44950848636803353,-0.0025973589228643675,-0.01110418758089799,1.351180762051159
9245,4.0,299.74512999999996,3021.4916,0.0,0.0,0.0,0.0,0.0,0.0921431546024235,-0.5616855467940475,0.10600757308463289,-0.4627800159128315,-0.03765465555522517,-0.01120875701771819,1.3363086823833987
9246,4.0,300.67786,3176.3686,0.0,0.0,0.0,0.0,0.0,0.09215312141200732,-0.5444682896373365,0.08186355180630352,-0.5029319965655235,0.016485886141780287,-0.02119703605148458,1.337529750078909
9247,4.0,299.59629,2726.1679,0.0,0.0,0.0,0.0,0.0,0.09216308822159114,-0.4901101575476065,0.07739822042385963,-0.4159750249710386,-0.01044175101002059,0.032253420519164765,1.308152589929609
9248,4.0,299.35242,2572.2737,0.0,0.0,0.0,0.0,0.0,0.09217305503117496,-0.4702372732038056,0.12027621165533788,-0.43194590344474154,0.024006210145478477,-0.008550067484850963,1.3531500136205088
9249,4.0,300.59182999999996,2860.3390000000004,0.0,0.0,0.0,0.0,0.0,0.09218302184075879,-0.5306370913998035,0.0981519990733481,-0.4369865491147146,0.001171773888745079,-0.0004464636900825355,1.3428216513761788
9250,4.0,300.35317000000003,2953.7617,0.0,0.0,0.0,0.0,0.0,0.09219298865034262,-0.48841194024750556,0.08093678766858903,-0.49039464777818353,0.02100298041883278,0.007817098067887513,1.3641866376847385
9251,4.0,300.81833,2610.5289,0.0,0.0,0.0,0.0,0.0,0.09220295545992643,-0.46754097415770157,0.13487930381905086,-0.4608739303547155,0.027452626346613274,0.030351796301239076,1.3321331800463088
9252,4.0,301.30347,2898.3338,0.0,0.0,0.0,0.0,0.0,0.09221292226951025,-0.4678584152815306,0.08674452851226842,-0.49990721196950055,0.0070428590756760725,-0.02119554758708768,1.3537372933784686
9253,4.0,300.7263,3050.8803,0.0,0.0,0.0,0.0,0.0,0.09222288907909407,-0.5510434519212545,0.12717035520323686,-0.5035183542658925,-0.03090702189228557,-0.012179325983755887,1.3386599292404486
9254,4.0,299.9974,3099.1086,0.0,0.0,0.0,0.0,0.0,0.09223285588867788,-0.5547502450270865,0.09650012479307081,-0.48380150030499053,-0.04655621980374116,-0.007127910579795004,1.3783986862373587
9255,4.0,300.18493,3094.7223,0.0,0.0,0.0,0.0,0.0,0.09224282269826171,-0.5426082664287665,0.07015031985529753,-0.46826035133119853,-0.01896131186483578,0.04707549426798955,1.3246709983598488
9256,4.0,299.36562000000004,2854.0913,0.0,0.0,0.0,0.0,0.0,0.09225278950784555,-0.5381937383930865,0.15178656724016787,-0.48116530725481854,0.0026302319985086874,-0.0003063646182408337,1.3941390199158086
9257,4.0,299.59119,2696.5586,0.0,0.0,0.0,0.0,0.0,0.09226275631742936,-0.5025557261408885,0.1090785112227109,-0.42620928667858154,0.004765018236695685,-0.007809498590812503,1.3475411676919589
9258,4.0,300.04689,2740.5871,0.0,0.0,0.0,0.0,0.0,0.09227272312701318,-0.4943154899676406,0.13779302607161287,-0.4765475719115836,0.015431280238948786,-0.004916630950483695,1.3544471763985289
9259,4.0,300.07623,2961.12,0.0,0.0,0.0,0.0,0.0,0.092282689936597,-0.5085309126430936,0.09554530983958791,-0.48712094816259455,0.015152836071718486,0.00942972795589169,1.3165202119054287
9260,4.0,300.81437,2836.1348,0.0,0.0,0.0,0.0,0.0,0.09229265674618081,-0.49233297495448153,0.09773473356291722,-0.46751591648272856,-0.00015833846530178986,-0.023819450926796774,1.3356196723153988
9261,4.0,301.57957999999996,2759.2017,0.0,0.0,0.0,0.0,0.0,0.09230262355576464,-0.46590618631386055,0.12286293783562788,-0.4956851710553175,-0.011214539636038889,-0.010708645139360989,1.3472662729398288
9262,4.0,300.59752000000003,2861.2484,0.0,0.0,0.0,0.0,0.0,0.09231259036534846,-0.4938712709912995,0.10087438424327659,-0.4767511642541765,-0.01760104285733768,-0.006030257861040114,1.3466682527308087
9263,4.0,299.91961000000003,3035.3585,0.0,0.0,0.0,0.0,0.0,0.09232255717493228,-0.5238015947676925,0.09030861344751621,-0.4891802168708286,0.0005193516941710216,0.005034343963626065,1.3776264883361486
9264,4.0,299.82164,2953.0038,0.0,0.0,0.0,0.0,0.0,0.09233252398451611,-0.48400989545305756,0.0944501587340049,-0.5080796617110585,0.00012138012737428589,-0.033140690194481466,1.3228504919051787
9265,4.0,299.7057,2817.5562,0.0,0.0,0.0,0.0,0.0,0.09234249079409992,-0.5324479517135216,0.1067335059862769,-0.4307522644294386,0.027010918204020077,-0.020110142934216584,1.3631655855589686
9266,4.0,299.47441000000003,2847.5044,0.0,0.0,0.0,0.0,0.0,0.09235245760368374,-0.5432885524134056,0.11807313236041088,-0.4403548153621366,0.001004936828759543,-0.03519322686905107,1.3158527840645589
9267,4.0,299.37414,2764.2733,0.0,0.0,0.0,0.0,0.0,0.09236242441326756,-0.5243100943303775,0.09124915879984082,-0.4072091349109126,0.007358366006389182,-0.002015855298424428,1.3394280741412588
9268,4.0,299.34479,2741.545,0.0,0.0,0.0,0.0,0.0,0.09237239122285137,-0.4962095178495665,0.10692842490801391,-0.4440801408122976,-0.015464935341020284,-0.004885822371918125,1.3331077239924887
9269,4.0,300.32052000000004,2866.7357,0.0,0.0,0.0,0.0,0.0,0.0923823580324352,-0.5009570201331086,0.12416641316177089,-0.49462547357073355,0.010906154941603689,0.015847606466536983,1.3745841035858888
9270,4.0,300.29028,2797.0197,0.0,0.0,0.0,0.0,0.0,0.09239232484201902,-0.47068100582009853,0.10170528276252991,-0.48124841402802054,0.01311369051047049,0.007147215628650263,1.3426318696324488
9271,4.0,300.16216000000003,2820.1690000000003,0.0,0.0,0.0,0.0,0.0,0.09240229165160284,-0.47977338532744657,0.1145353493712589,-0.49202292042388157,-0.00098634740805241,0.026098506753972073,1.3512945500373887
9272,4.0,301.02847,3094.0569,0.0,0.0,0.0,0.0,0.0,0.09241225846118667,-0.5383083369793965,0.09181817979099881,-0.4940258929565595,0.004103131961947596,0.01305647025082329,1.3668334495959589
9273,4.0,300.99312000000003,3031.3284,0.0,0.0,0.0,0.0,0.0,0.09242222527077049,-0.5307166214001525,0.07371416870327203,-0.46444567748721954,-0.015579792306105785,-0.016975832081884183,1.3488093515171187
9274,4.0,299.48357999999996,2686.2975,0.0,0.0,0.0,0.0,0.0,0.0924321920803543,-0.5348267691057925,0.15778706472987086,-0.43952764864300153,0.008909095533859272,-0.008426293209610391,1.3829337910349386
9275,4.0,299.44979,2920.1266,0.0,0.0,0.0,0.0,0.0,0.09244215888993812,-0.5149683033109146,0.08702197969440072,-0.4596992492487835,-0.029461289291852873,-0.024529438311617077,1.3181696817432187
9276,4.0,300.15911,2906.3979999999997,0.0,0.0,0.0,0.0,0.0,0.09245212569952194,-0.5048522270950355,0.1059461397310699,-0.4845663420104745,-0.024605064259330775,-0.019769135639561782,1.3539140041959088
9277,4.0,299.83345,2757.9349,0.0,0.0,0.0,0.0,0.0,0.09246209250910577,-0.5044722887050385,0.10823340997680589,-0.44210446523731356,-0.040362656626734064,-0.027463783243464376,1.2887095364107288
9278,4.0,300.04227000000003,2882.245,0.0,0.0,0.0,0.0,0.0,0.09247205931868958,-0.5016828517097425,0.08357898219910333,-0.4580266266462086,0.007883365333702583,0.00020409218899983082,1.3257468673160289
9279,4.0,299.20769,2852.5457,0.0,0.0,0.0,0.0,0.0,0.09248202612827341,-0.5415192049562845,0.13652313998628487,-0.4621066098963716,0.015812536867325887,-0.00985782875759195,1.3325107170335688
9280,4.0,300.71993,2786.3233,0.0,0.0,0.0,0.0,0.0,0.09249199293785723,-0.4842352220102955,0.09834279001417771,-0.46108026860507956,0.03408604037878027,0.02143058310678388,1.3725508146102186
9281,4.0,302.01923,2799.6336,0.0,0.0,0.0,0.0,0.0,0.09250195974744105,-0.49114297350703756,0.11801192192186988,-0.4778876356988375,0.028679408772687272,0.024944675295347774,1.3696522100491488
9282,4.0,300.94316000000003,3068.7201,0.0,0.0,0.0,0.0,0.0,0.09251192655702487,-0.4750741948086725,0.08219297562581512,-0.5399330632497445,0.023350668741531577,0.030176308476669772,1.3684207058776088
9283,4.0,299.71808,2948.4448,0.0,0.0,0.0,0.0,0.0,0.09252189336660868,-0.5289211219579505,0.1022109553574359,-0.46954342993282855,0.0036059120007008068,0.0039943323072849065,1.3523958515710788
9284,4.0,299.06227,2940.7716,0.0,0.0,0.0,0.0,0.0,0.09253186017619251,-0.5023040550810505,0.08712173923299622,-0.47873881644534255,-0.02315501014722158,0.0006737748597614014,1.3355067962542588
9285,4.0,299.19307000000003,2893.3461,0.0,0.0,0.0,0.0,0.0,0.09254182698577634,-0.5771432546221045,0.12341602040271289,-0.4257777231959896,-0.03790914041059087,-0.02294213136746208,1.3550684000348385
9286,4.0,300.40803999999997,2822.7163,0.0,0.0,0.0,0.0,0.0,0.09255179379536016,-0.5256897154015354,0.1073670710088049,-0.43971263771375857,-0.01915998893119368,-0.007568114755264773,1.3263337417739487
9287,4.0,299.58332,2700.2313,0.0,0.0,0.0,0.0,0.0,0.09256176060494398,-0.4914290140102675,0.13859976566873186,-0.46797365221540355,0.005728595371743344,-0.014330373872797786,1.3394806618214488
9288,4.0,299.18643,2893.528,0.0,0.0,0.0,0.0,0.0,0.0925717274145278,-0.48620948916764056,0.0909127020113851,-0.48426345115808156,0.03384560828905147,0.03464829488577047,1.3288277555700885
9289,4.0,299.80067,3003.7816,0.0,0.0,0.0,0.0,0.0,0.09258169422411161,-0.5215013042581715,0.10437819599632589,-0.4959514937116016,0.014946395483094383,0.001064282643936519,1.3398978168876186
9290,4.0,300.55803,2759.2682,0.0,0.0,0.0,0.0,0.0,0.09259166103369544,-0.46160118048148957,0.11657143491720488,-0.49371886804375853,0.011136944943380888,0.006879209659975134,1.3475444100922789
9291,4.0,300.46488999999997,2902.8146,0.0,0.0,0.0,0.0,0.0,0.09260162784327927,-0.5290234298205475,0.0991947175260064,-0.45255443775864557,-0.008408221184801822,-0.02130967501210118,1.3612986722497187
9292,4.0,301.06295,3068.425,0.0,0.0,0.0,0.0,0.0,0.09261159465286309,-0.5369950635247864,0.1293971546830049,-0.5251266827184684,-0.0005176823342337685,-0.00096623885186785,1.3981135947580685
9293,4.0,300.65847,2880.7259999999997,0.0,0.0,0.0,0.0,0.0,0.0926215614624469,-0.49630630349911853,0.09217074218979401,-0.47153322008170556,-0.003994386212190226,-0.014716537671409185,1.3428977464586886
9294,4.0,301.4332,2776.9197,0.0,0.0,0.0,0.0,0.0,0.09263152827203072,-0.4771769420786976,0.1208848304604039,-0.48782214762929754,-0.03442759381523897,0.02642207601440587,1.3488531239214385
9295,4.0,301.16047000000003,3055.19,0.0,0.0,0.0,0.0,0.0,0.09264149508161454,-0.5479483477682915,0.095659808114138,-0.4764129413707966,-0.0054663646246631845,-0.0053752919831500144,1.3463392504233387
9296,4.0,300.53413,2957.5667,0.0,0.0,0.0,0.0,0.0,0.09265146189119837,-0.5453151235409125,0.08724187725760292,-0.4409531902086916,-0.018493244020891083,0.018026927073119182,1.3298940999753288
9297,4.0,299.76094,2829.4790000000003,0.0,0.0,0.0,0.0,0.0,0.09266142870078219,-0.5642021054049124,0.13372160478479486,-0.4296104531567506,0.027257023481058774,-0.01119053878092019,1.3732349610777386
9298,4.0,300.26925,3009.7481,0.0,0.0,0.0,0.0,0.0,0.092671395510366,-0.5276871150586635,0.08448130370465551,-0.4716824414239325,-0.019791692613287983,-0.012105750854244588,1.3251423623063687
9299,4.0,299.5663,3028.3766,0.0,0.0,0.0,0.0,0.0,0.09268136231994983,-0.48997573978934056,0.0954396045494056,-0.5260147356361125,0.004905108776971545,-0.024600336434364177,1.3615409403486287
9300,4.0,299.74118,2875.4527,0.0,0.0,0.0,0.0,0.0,0.09269132912953365,-0.4950455569296925,0.12782672848551588,-0.5068469923019036,-0.012191805171987488,-0.002238846516831948,1.3266911150842187
9301,4.0,298.99241,2905.9853,0.0,0.0,0.0,0.0,0.0,0.09270129593911747,-0.5132922863205045,0.11375202598395089,-0.4838067185430055,0.028048117483383674,-0.01049801273507319,1.3781612817389286
9302,4.0,299.8053,2738.8324,0.0,0.0,0.0,0.0,0.0,0.09271126274870128,-0.5107837019879266,0.1126618094063549,-0.43441478863840155,-0.0005161747396749804,0.01150738310044029,1.3217659089981386
9303,4.0,300.79071,2585.8191,0.0,0.0,0.0,0.0,0.0,0.0927212295582851,-0.5036318788070966,0.12240116936755488,-0.4047937290575306,0.021791637554667183,-0.018564201925394083,1.386986487459909
9304,4.0,301.32892000000004,3006.8338,0.0,0.0,0.0,0.0,0.0,0.09273119636786893,-0.5149456774361815,0.07749130467079633,-0.4765480076091265,0.015709250205132284,0.012325773047209089,1.3416330076838685
9305,4.0,300.24099,3199.0753,0.0,0.0,0.0,0.0,0.0,0.09274116317745276,-0.5340491199190445,0.08047516814828072,-0.5188650605454945,-0.02144347874080658,-0.002193341758815978,1.3710879854408486
9306,4.0,301.32937999999996,2910.4051,0.0,0.0,0.0,0.0,0.0,0.09275112998703658,-0.5083118986339785,0.10026657198529022,-0.4766451681612156,-0.0078014185292150625,0.00989397919068472,1.3409411605155888
9307,4.0,300.17616,2852.0804,0.0,0.0,0.0,0.0,0.0,0.0927610967966204,-0.5105428220416535,0.0986665355801289,-0.45508493869088656,-0.04928273802082755,-0.0015784074672016886,1.3328771082697288
9308,4.0,299.90193,3068.1193,0.0,0.0,0.0,0.0,0.0,0.09277106360620421,-0.5809619915989844,0.13892928473375285,-0.4905989595283475,-0.02176248432278998,0.020023376301653382,1.3634317663602387
9309,4.0,299.44672,3049.6316,0.0,0.0,0.0,0.0,0.0,0.09278103041578803,-0.5883408334647194,0.13135146081337987,-0.4700224743151065,-0.024379166229036374,-0.00905241388365369,1.3498181433166787
9310,4.0,300.10318,2856.228,0.0,0.0,0.0,0.0,0.0,0.09279099722537186,-0.4931366849338015,0.12330430957918788,-0.49838961663222553,0.01115868219777619,0.011175595368445387,1.3844476880093486
9311,4.0,299.07063,2649.5322,0.0,0.0,0.0,0.0,0.0,0.09280096403495569,-0.46145365126692955,0.12911448830260788,-0.47305247714914456,0.02343765220961618,3.9720591449117166e-05,1.3678744627486987
9312,4.0,299.88593,2603.2682,0.0,0.0,0.0,0.0,0.0,0.09281093084453951,-0.4501169430530836,0.1259802625632839,-0.46719183857074453,0.024190133277130276,0.023862719745817076,1.3741444543674988
9313,4.0,300.07473,3026.8805,0.0,0.0,0.0,0.0,0.0,0.09282089765412332,-0.5198209910873375,0.09573308737462011,-0.49600817492219557,0.016881063813281284,-0.0034458746189563465,1.3586361549619488
9314,4.0,300.27064,3271.8164,0.0,0.0,0.0,0.0,0.0,0.09283086446370714,-0.5778692989812595,0.06328245089574164,-0.4799636534312246,-0.014789670010626787,0.0026878708317721973,1.3465397726181287
9315,4.0,302.01204,3072.7172,0.0,0.0,0.0,0.0,0.0,0.09284083127329096,-0.5695595031886465,0.0964953098285956,-0.46096510259871354,-0.02029308929277198,-0.013163851456670988,1.3586204495853988
9316,4.0,301.25248,2902.1146,0.0,0.0,0.0,0.0,0.0,0.09285079808287479,-0.4791546137563785,0.08211784009114984,-0.4851335999464586,-0.027023514929263272,-0.012170106421095988,1.3294053081270887
9317,4.0,300.31124,3032.0434,0.0,0.0,0.0,0.0,0.0,0.0928607648924586,-0.5435257339968135,0.1048045716384059,-0.48294433125039454,-0.04283574072880846,-0.016274184758636984,1.3699967150831487
9318,4.0,300.65165,3109.5465,0.0,0.0,0.0,0.0,0.0,0.09287073170204242,-0.5148639588156165,0.1158095822995159,-0.5461701242402944,-0.02041684056723528,0.009619602006705802,1.3407400303707386
9319,4.0,300.79544,2681.0641,0.0,0.0,0.0,0.0,0.0,0.09288069851162625,-0.4989838776833745,0.13373512154112888,-0.44972777395467556,0.0037222136577788863,0.006347945508618444,1.3516258828200884
9320,4.0,298.73391000000004,2536.5089,0.0,0.0,0.0,0.0,0.0,0.09289066532121007,-0.4767278797668785,0.15258194830366587,-0.44688943750955357,0.0020742741316149183,0.04145150329019486,1.3469727343858588
9321,4.0,299.2609,2909.6586,0.0,0.0,0.0,0.0,0.0,0.09290063213079389,-0.5624307314475915,0.14439513067568985,-0.4664279695853566,0.01054114983158049,0.004083123413547905,1.3732274630269987
9322,4.0,299.41128,3035.7069,0.0,0.0,0.0,0.0,0.0,0.0929105989403777,-0.5059821326790486,0.08486175885220351,-0.5016587262248615,-0.005981084935012124,-0.005676672991569005,1.3610108078963088
9323,4.0,300.5249,3071.2306,0.0,0.0,0.0,0.0,0.0,0.09292056574996152,-0.5353236770873335,0.09881739636101772,-0.49707113507210154,-0.009041272793504153,-0.009464900096012911,1.3640052659168387
9324,4.0,300.13222,3162.7858,0.0,0.0,0.0,0.0,0.0,0.09293053255954535,-0.5107284089299695,0.06546750548463974,-0.5161469968872425,0.017932901516839583,-0.023435227502126878,1.3739232618706687
9325,4.0,300.10737,3004.4995,0.0,0.0,0.0,0.0,0.0,0.09294049936912917,-0.5329753078605676,0.08291917501223542,-0.4632366978654025,0.008896282783694752,-0.02107832569626878,1.3567794754787088
9326,4.0,300.09432000000004,3034.2305,0.0,0.0,0.0,0.0,0.0,0.09295046617871298,-0.5673822516387684,0.1015100902632659,-0.45645813575641053,-0.008192017526164181,0.0009673899141139509,1.3723071279611687
9327,4.0,298.96464,3030.7457,0.0,0.0,0.0,0.0,0.0,0.09296043298829682,-0.5230616283521635,0.0875151021735681,-0.48572447674227354,0.015921829062862186,0.005984193079693874,1.3415594457266087
9328,4.0,298.92675,2515.8907,0.0,0.0,0.0,0.0,0.0,0.09297039979788063,-0.46541334146522056,0.15916711136607084,-0.45852172091007054,-0.019754993707916082,0.008560367881392533,1.3627472145926787
9329,4.0,298.89408,2472.0771,0.0,0.0,0.0,0.0,0.0,0.09298036660746445,-0.44568588890827254,0.15279539956973184,-0.4585592212962716,0.011881382831601188,0.004255710303080906,1.3436432958822686
9330,4.0,298.67708,2720.0327,0.0,0.0,0.0,0.0,0.0,0.09299033341704827,-0.5074223765036896,0.14304806533024486,-0.4624476901450335,-0.03406463851016807,-0.01297888873041659,1.3413479804307387
9331,4.0,299.17425,2927.7286,0.0,0.0,0.0,0.0,0.0,0.09300030022663208,-0.5234302588710446,0.12413975455163988,-0.4906658846974525,-0.013782145786941884,0.02556719994478618,1.3741879227967886
9332,4.0,299.66343,2982.9559999999997,0.0,0.0,0.0,0.0,0.0,0.09301026703621591,-0.5425915072721125,0.09510602944423431,-0.45925866784030156,-0.01901851489923128,0.0043975262056270455,1.3407311137698588
9333,4.0,299.38077999999996,3136.2056,0.0,0.0,0.0,0.0,0.0,0.09302023384579973,-0.5534076582470835,0.10516780153425391,-0.5050883548983395,0.012635889386065188,0.008252310568064643,1.3747431838515887
9334,4.0,300.1569,3168.5222,0.0,0.0,0.0,0.0,0.0,0.09303020065538356,-0.5429318883782055,0.08156604536494191,-0.5017857776549005,0.02817085854749727,-0.02089801277472328,1.3588055703786688
9335,4.0,301.24255,2940.7270000000003,0.0,0.0,0.0,0.0,0.0,0.09304016746496738,-0.5121522685004934,0.07706518234124134,-0.45882050809955854,0.034026008350105566,-0.014286438335211687,1.3850520916939986
9336,4.0,299.66592,2855.0928,0.0,0.0,0.0,0.0,0.0,0.0930501342745512,-0.49133805454879054,0.0954312756335836,-0.47197015378982754,0.028362730626183573,-0.03985210624584667,1.3534390938740386
9337,4.0,298.44738,2713.6854,0.0,0.0,0.0,0.0,0.0,0.09306010108413501,-0.5188285126143874,0.13853295195713786,-0.44459705035081254,0.005447447650596225,-0.032816021557689166,1.3962089885450988
9338,4.0,298.65373,2532.5197,0.0,0.0,0.0,0.0,0.0,0.09307006789371883,-0.48712010716501153,0.14289223759736586,-0.4255948923479456,-0.02881359550993047,-0.03454589583066447,1.344807925547209
9339,4.0,299.4571,2573.6477,0.0,0.0,0.0,0.0,0.0,0.09308003470330266,-0.4679819709987246,0.13878536268954886,-0.4531280183752536,-0.05722215341163685,0.021844384315122877,1.3549960539776988
9340,4.0,300.43233,2922.908,0.0,0.0,0.0,0.0,0.0,0.09309000151288649,-0.4917795985448675,0.1009493536049255,-0.49766081623279856,-0.04643422955795166,0.027992479920392676,1.3329013249471187
9341,4.0,300.72693,3190.4945,0.0,0.0,0.0,0.0,0.0,0.0930999683224703,-0.5309245605856745,0.09647168286276381,-0.5353777947751744,-0.014700601273836386,0.013290734687193386,1.3432549171189385
9342,4.0,300.67807,3167.1806,0.0,0.0,0.0,0.0,0.0,0.09310993513205412,-0.5547189153339945,0.09527083153324901,-0.5032957229539206,0.033910485679704366,-0.008935773193092151,1.3487960779408088
9343,4.0,300.34332,3160.3056,0.0,0.0,0.0,0.0,0.0,0.09311990194163794,-0.5553909230653165,0.06485873367880864,-0.47012178295740753,0.03536184992419286,0.007268285235398904,1.3600378851502886
9344,4.0,301.1078,3036.5578,0.0,0.0,0.0,0.0,0.0,0.09312986875122176,-0.5271716342027896,0.09397006867762372,-0.4898361949855685,0.025655741791524574,-0.015021660713772486,1.4145494233051588
9345,4.0,299.47944,2772.0534,0.0,0.0,0.0,0.0,0.0,0.09313983556080559,-0.47998355366318857,0.08867978452751332,-0.45133124223792553,-0.0008127015303098962,-0.004414218386449435,1.3466915574831089
9346,4.0,299.61895,2835.7886,0.0,0.0,0.0,0.0,0.0,0.0931498023703894,-0.4889856829841295,0.10869773183513089,-0.48172096347715754,-0.004579421114553676,0.0024175343878670677,1.4010117940190987
9347,4.0,299.21999,2824.3797,0.0,0.0,0.0,0.0,0.0,0.09315976917997323,-0.5072365160378466,0.11053633493658689,-0.46184072293763057,-0.02730262682830947,0.004427687418703726,1.327687241257529
9348,4.0,298.85953,2627.2057,0.0,0.0,0.0,0.0,0.0,0.09316973598955705,-0.47734420940520556,0.10570782330754991,-0.4269685555085156,-0.013376639043921485,0.016240749531837184,1.3578091402303287
9349,4.0,299.93129,2914.1008,0.0,0.0,0.0,0.0,0.0,0.09317970279914087,-0.5429717293721376,0.1141691405201169,-0.4570112993835036,-0.037697290079682866,0.0022907648440058876,1.3365475054319687
9350,4.0,301.26097000000004,3255.5898,0.0,0.0,0.0,0.0,0.0,0.09318966960872468,-0.5507945470341895,0.08747218393908242,-0.5262956490938365,0.015428238462148585,-0.005271625554818935,1.3742716172550486
9351,4.0,300.34997000000004,2957.5721,0.0,0.0,0.0,0.0,0.0,0.0931996364183085,-0.5228367070949655,0.09493294099590181,-0.47112429260634753,0.011430415609594189,0.01167600311583179,1.3329964691315088
9352,4.0,300.21553,2874.881,0.0,0.0,0.0,0.0,0.0,0.09320960322789233,-0.4915203585067825,0.09671722983899741,-0.4790889146198945,0.053155367744026356,0.006272724658294724,1.3664603709091385
9353,4.0,299.32169,3032.3618,0.0,0.0,0.0,0.0,0.0,0.09321957003747615,-0.5474497172615804,0.08588128603657302,-0.4601938470200965,0.007307813743000063,0.017408886055373284,1.3589784308457287
9354,4.0,299.33808,3079.8217,0.0,0.0,0.0,0.0,0.0,0.09322953684705998,-0.5560978575275854,0.0895683967592125,-0.4696594369367776,-0.0034248415733805463,-0.017408614504346484,1.363604728152309
9355,4.0,298.92708999999996,2849.7078,0.0,0.0,0.0,0.0,0.0,0.0932395036566438,-0.5292540962058124,0.1017494402018879,-0.43873536812480957,-0.025936441453477475,-0.0003126373557674047,1.3695453121635988
9356,4.0,299.01631000000003,2876.1344,0.0,0.0,0.0,0.0,0.0,0.09324947046622761,-0.4803784374921605,0.08938595297270673,-0.48328053776607555,-0.03763346849563417,-0.0053794876491640945,1.3601280644091887
9357,4.0,298.32493,2778.3799,0.0,0.0,0.0,0.0,0.0,0.09325943727581143,-0.4498853343452256,0.11076816655946689,-0.5054409456681375,-0.030433274781530368,0.008967400680388541,1.3727883204336588
9358,4.0,300.4161,2901.3622,0.0,0.0,0.0,0.0,0.0,0.09326940408539525,-0.5008873186587295,0.1006701221423675,-0.4817244693225035,0.002973193649956367,-0.0098047369854772,1.3633659051037388
9359,4.0,300.56826,3044.6149,0.0,0.0,0.0,0.0,0.0,0.09327937089497908,-0.5275382787514745,0.10082114403002221,-0.4987697678047435,0.0025945152364587176,0.017254666350402983,1.3379812543234686
9360,4.0,300.5426,2880.4452,0.0,0.0,0.0,0.0,0.0,0.09328933770456291,-0.5507058369879344,0.11686951283162289,-0.44174709192704353,0.030602296043961467,-0.006983130515406323,1.3596199194840386
9361,4.0,300.30487999999997,2755.1256,0.0,0.0,0.0,0.0,0.0,0.09329930451414672,-0.49053834690736553,0.08917196873708812,-0.4361229965844886,0.011828303725112687,0.015026946839544185,1.3186759014931788
9362,4.0,300.63375,3100.9782,0.0,0.0,0.0,0.0,0.0,0.09330927132373054,-0.5450615779683895,0.10908347614820088,-0.5066418395541564,-0.0019056333445963683,-0.0038343720338730562,1.3935062452283589
9363,4.0,299.18735,3212.0338,0.0,0.0,0.0,0.0,0.0,0.09331923813331436,-0.5185824752251055,0.07342859024208763,-0.5312241989052465,-0.014341375742383587,-0.008587740934169042,1.3541873790728887
9364,4.0,299.23199,2837.6458,0.0,0.0,0.0,0.0,0.0,0.09332920494289818,-0.49445867233927154,0.11497949742009289,-0.4830943125301965,-0.009810989346544261,-0.00016818450023351784,1.3817959111726386
9365,4.0,298.99927,2954.5699,0.0,0.0,0.0,0.0,0.0,0.093339171752482,-0.49812140933075555,0.09445249731523572,-0.4944465538680755,-0.00018547351576231083,0.0002683065898472987,1.3586565212889588
9366,4.0,299.81323,3283.9971,0.0,0.0,0.0,0.0,0.0,0.09334913856206584,-0.6106982577162254,0.08086084761334432,-0.46841569270402955,0.014301864054734088,-0.01180638104594909,1.3744965587772486
9367,4.0,300.25244,3106.6299,0.0,0.0,0.0,0.0,0.0,0.09335910537164965,-0.5416671698683875,0.08944490589002492,-0.4921156530730335,0.0037206336968979565,0.012263719584584887,1.3598835671600589
9368,4.0,300.44781,2687.4011,0.0,0.0,0.0,0.0,0.0,0.09336907218123347,-0.4830413702124715,0.12563770296947588,-0.4594991424865346,0.013015283660758489,-0.004779464548671426,1.3531033027908987
9369,4.0,300.5909,2765.2007,0.0,0.0,0.0,0.0,0.0,0.09337903899081729,-0.4469559675111196,0.10477130663762291,-0.49836729473252256,-0.0012883880321539988,-0.0004980226681085106,1.3880929565691087
9370,4.0,301.75337,2881.0123,0.0,0.0,0.0,0.0,0.0,0.0933890058004011,-0.49468636990174353,0.1229337336201149,-0.5040031640412395,-0.019321897177922782,-0.028858564562618576,1.348385205025259
9371,4.0,301.89829,3108.0081,0.0,0.0,0.0,0.0,0.0,0.09339897260998493,-0.5409336375909934,0.08427890294418011,-0.48810212889692955,-0.02078134513170908,-0.006023029740126754,1.3763298321831787
9372,4.0,301.19621,3206.0582,0.0,0.0,0.0,0.0,0.0,0.09340893941956875,-0.5978198793427284,0.08036116231327922,-0.4571029275900466,-0.014638966283503484,-0.003401842721285737,1.3360811064109386
9373,4.0,300.76859,2874.637,0.0,0.0,0.0,0.0,0.0,0.09341890622915257,-0.5283193831210634,0.1120374345622339,-0.45753592988778063,0.0019180355258203682,0.0034177412233047967,1.3470792269713685
9374,4.0,300.98689,2663.8461,0.0,0.0,0.0,0.0,0.0,0.0934288730387364,-0.5026948149821154,0.1156596212847159,-0.4227074842004806,0.01763532110822068,0.004146027195656026,1.3394631325947186
9375,4.0,300.6902,3006.2613,0.0,0.0,0.0,0.0,0.0,0.09343883984832022,-0.5163107685009055,0.0997074970571138,-0.4972250882922955,0.004523273278812316,0.036819026171254966,1.3829788806643886
9376,4.0,300.29326000000003,3053.6493,0.0,0.0,0.0,0.0,0.0,0.09344880665790403,-0.5159928714145315,0.1046315490513299,-0.5168718152137765,0.02103323404031858,-0.006281103020721604,1.3742998869328387
9377,4.0,299.85402999999997,2613.2237,0.0,0.0,0.0,0.0,0.0,0.09345877346748785,-0.4780723309270656,0.12236662767164588,-0.4386490594812916,-0.039072210683626964,-0.014005409366976288,1.3782881406514487
9378,4.0,299.55927,2666.2356,0.0,0.0,0.0,0.0,0.0,0.09346874027707167,-0.5147317803400715,0.13976463851369586,-0.43550190467069155,0.009029208429863492,-0.009016927737326482,1.3857902443918486
9379,4.0,300.19592,3098.2809,0.0,0.0,0.0,0.0,0.0,0.0934787070866555,-0.5575319306591174,0.1065068014089029,-0.4907749002757116,-0.035146296164169366,0.00907947434877435,1.3512971844876487
9380,4.0,299.82975,3141.0322,0.0,0.0,0.0,0.0,0.0,0.09348867389623931,-0.5568254825568965,0.09320631621599722,-0.4911761878453156,0.006923855485881334,0.012472804755969989,1.3727968317344987
9381,4.0,300.244,3086.6175,0.0,0.0,0.0,0.0,0.0,0.09349864070582313,-0.5105105398934675,0.08905083671413332,-0.5167949601936915,-0.02478890734422468,-0.013520959295414789,1.3451278086037788
9382,4.0,301.32217,3077.7429,0.0,0.0,0.0,0.0,0.0,0.09350860751540696,-0.5313814958507705,0.1050863666237169,-0.5092618510002315,0.0068255137881507635,-0.002174554075461778,1.3841910317590187
9383,4.0,300.95639,2780.7162,0.0,0.0,0.0,0.0,0.0,0.09351857432499078,-0.5104549935229855,0.14139865628746087,-0.4762119429484595,-0.012977474233276987,0.023266010682426477,1.3613634189311088
9384,4.0,301.11843999999996,2943.8138,0.0,0.0,0.0,0.0,0.0,0.0935285411345746,-0.5235114404690565,0.07898546252000822,-0.45031990718061454,0.015527314056926585,0.022040817032509277,1.3596210340591488
9385,4.0,301.66587000000004,3180.9939,0.0,0.0,0.0,0.0,0.0,0.09353850794415841,-0.5479473750481955,0.10358126466017491,-0.5225765956617945,-0.028563651028262874,-0.0033798669478168966,1.3551211903650486
9386,4.0,300.77594,2953.7112,0.0,0.0,0.0,0.0,0.0,0.09354847475374223,-0.5161234793524214,0.06961591047430543,-0.4513468868194696,0.012353409443686588,-0.006351865469280313,1.3500292033125088
9387,4.0,300.50838,2674.6733,0.0,0.0,0.0,0.0,0.0,0.09355844156332606,-0.46396062453184855,0.1181122742117739,-0.46718555642012455,-0.0006864299786078645,-0.004111574868405845,1.3643694280027787
9388,4.0,300.14935,3028.1272,0.0,0.0,0.0,0.0,0.0,0.09356840837290988,-0.5197261204804745,0.08092519811394522,-0.48167412092503453,0.003158608184430357,-0.016098314938779983,1.3712373385055887
9389,4.0,300.04028,3182.1352,0.0,0.0,0.0,0.0,0.0,0.09357837518249369,-0.5529574610951524,0.08613332794594761,-0.5004655026420995,0.002941897900742717,-0.026663589241991373,1.3962238833215685
9390,4.0,299.94652,3046.5189,0.0,0.0,0.0,0.0,0.0,0.09358834199207752,-0.5463287384109485,0.1142025271109119,-0.4939394627230295,0.002699386216508677,-0.0016388904934958983,1.3502650879357887
9391,4.0,299.91213999999997,2968.7826,0.0,0.0,0.0,0.0,0.0,0.09359830880166134,-0.5381535224966175,0.1139993502008599,-0.47828159747021853,0.0038610956946604764,0.012573818698189288,1.3841248665274886
9392,4.0,299.49467999999996,2829.5219,0.0,0.0,0.0,0.0,0.0,0.09360827561124516,-0.5129374967979895,0.12947548904823586,-0.4766420169534046,-0.013382802644279787,0.026608864617340477,1.3537489457546186
9393,4.0,299.48719,2810.2157,0.0,0.0,0.0,0.0,0.0,0.09361824242082897,-0.48866356064483857,0.13256757371590086,-0.49813940465253154,-0.015799592597298382,0.014131514421421885,1.3847886466679986
9394,4.0,300.8488,3031.2607,0.0,0.0,0.0,0.0,0.0,0.09362820923041279,-0.5443952140401245,0.1077823414297889,-0.48481468960998453,-0.0001022359522374029,0.0028753425679242167,1.3791374468852686
9395,4.0,300.69825,3003.989,0.0,0.0,0.0,0.0,0.0,0.09363817603999663,-0.5381716394084055,0.1152592051101979,-0.4902252120964615,0.017587491650500282,-0.001243407327089749,1.3984673203679787
9396,4.0,300.11773999999997,2693.3872,0.0,0.0,0.0,0.0,0.0,0.09364814284958045,-0.5015183809535105,0.1096265680692999,-0.4268306521699056,0.01935825664451118,-0.014439756247592986,1.3617909091482987
9397,4.0,300.28961,2895.2748,0.0,0.0,0.0,0.0,0.0,0.09365810965916427,-0.49614899642109356,0.08360087245426372,-0.46754311211541255,0.03020342406259587,-0.023371660243853277,1.383756752766159
9398,4.0,300.47837999999996,3330.0641,0.0,0.0,0.0,0.0,0.0,0.09366807646874808,-0.5752463288448925,0.06629429426148743,-0.5033042849172655,-0.0008365970986107052,-0.0015652253873757187,1.359571486129259
9399,4.0,300.13997,3280.7663,0.0,0.0,0.0,0.0,0.0,0.0936780432783319,-0.5381030930391405,0.06686395360020844,-0.5260318899603055,0.011648296805097389,-0.008383221771709571,1.3845705952464789
9400,4.0,300.09722,2854.6041,0.0,0.0,0.0,0.0,0.0,0.09368801008791573,-0.5314278419103444,0.096734288917681,-0.4330348027972076,-0.03421808611856217,0.0018820940248982182,1.3654310101325486
9401,4.0,299.73647,2844.2337,0.0,0.0,0.0,0.0,0.0,0.09369797689749955,-0.4986829829336785,0.12902111730589289,-0.49491414852422355,0.0003345287660329187,0.0034049490421173066,1.3882853727630986
9402,4.0,298.69885,3013.4057,0.0,0.0,0.0,0.0,0.0,0.09370794370708338,-0.5342171167856244,0.09426464277319592,-0.47604762417974256,-0.024798047873376774,0.0028264561890245076,1.3469954311880987
9403,4.0,298.20968999999997,3120.9419,0.0,0.0,0.0,0.0,0.0,0.0937179105166672,-0.5227057039895365,0.09240052907397223,-0.5183832297254415,-0.0014352203332952185,0.002138885848091598,1.3402134442937688
9404,4.0,298.02449,2889.1648,0.0,0.0,0.0,0.0,0.0,0.09372787732625101,-0.5076944645530425,0.1065171669574259,-0.47705663889432454,-0.0027361246386344773,0.006454350751969823,1.3172043583729487
9405,4.0,299.76736,2649.1144,0.0,0.0,0.0,0.0,0.0,0.09373784413583483,-0.47483726653778957,0.11952958818665188,-0.4499569508622936,0.018966812799628682,0.0002791629567187387,1.3663661386498385
9406,4.0,299.93666,2609.8916,0.0,0.0,0.0,0.0,0.0,0.09374781094541865,-0.5079850444167205,0.13635010726670788,-0.4217069503892356,0.011519259404862387,0.017071977357372984,1.3617527096195288
9407,4.0,299.90297999999996,3217.4688,0.0,0.0,0.0,0.0,0.0,0.09375777775500248,-0.5468581311906955,0.060986680494916734,-0.4921587263347845,0.01880062154472688,-0.004779778149577376,1.4080208502608385
9408,4.0,299.87697000000003,3474.8745,0.0,0.0,0.0,0.0,0.0,0.0937677445645863,-0.5857413605981715,0.04037782194098076,-0.5109115336205425,-0.011674989865731789,-0.01018110255429659,1.3726366368936886
9409,4.0,300.10425,3016.3971,0.0,0.0,0.0,0.0,0.0,0.09377771137417013,-0.5105120597686175,0.09389128442934831,-0.5002886297046435,-0.020791171631178877,-0.026731004824144776,1.3921545695949589
9410,4.0,300.60437,2914.5478,0.0,0.0,0.0,0.0,0.0,0.09378767818375394,-0.5119253308755964,0.09961997757972631,-0.47364439759256255,-0.017174020761693883,0.009242290467593051,1.3496412298492186
9411,4.0,301.06347,3135.8406,0.0,0.0,0.0,0.0,0.0,0.09379764499333776,-0.5477103859823065,0.10744528378402389,-0.5129521281294335,-0.006871579481422094,-0.005504629508064635,1.3801308372833088
9412,4.0,300.12435,2894.9159,0.0,0.0,0.0,0.0,0.0,0.09380761180292158,-0.5701698141213796,0.14442393737603287,-0.4542362910696316,0.015026528367252885,0.014930783325553587,1.3479912533863787
9413,4.0,299.60508,2603.5059,0.0,0.0,0.0,0.0,0.0,0.09381757861250539,-0.48869626835806657,0.15158448464022387,-0.45428900033983355,0.0018858907743479279,0.010033052934485231,1.3884933930086287
9414,4.0,300.27164,2618.7351,0.0,0.0,0.0,0.0,0.0,0.09382754542208922,-0.4993147038410245,0.15025806933181687,-0.44697344607534456,0.024467974560551078,0.026510938048175874,1.3711938700762987
9415,4.0,299.85712,2828.6548,0.0,0.0,0.0,0.0,0.0,0.09383751223167305,-0.4841474441541326,0.1120626746222249,-0.4877556581577356,0.013025824501548787,0.010040846550279401,1.3767262156222986
9416,4.0,299.07582,3137.9498,0.0,0.0,0.0,0.0,0.0,0.09384747904125687,-0.5339675938159985,0.07827619960900942,-0.4981669954527545,-0.004150038754126936,0.01137040485917159,1.3592908158515589
9417,4.0,299.60305,3278.3115,0.0,0.0,0.0,0.0,0.0,0.09385744585084069,-0.5608743894264925,0.07705712193669582,-0.5127075599527965,-0.01844852625422778,-0.008787199621654081,1.3762867690539287
9418,4.0,299.30464,3024.9871,0.0,0.0,0.0,0.0,0.0,0.0938674126604245,-0.5572476025485564,0.09047449768763773,-0.4527474315051926,-0.03419646234817807,0.019112002419707782,1.4050835395459487
9419,4.0,299.5299,2786.4085,0.0,0.0,0.0,0.0,0.0,0.09387737947000832,-0.4942464369733255,0.1048306121659759,-0.45758277243990353,-0.028557135830119873,-0.014567808768730785,1.3506037161192088
9420,4.0,300.85795,2973.6425,0.0,0.0,0.0,0.0,0.0,0.09388734627959215,-0.5159147599643226,0.09743109898495081,-0.48542941831315356,-0.02400946977105018,-0.003621561344520277,1.3765910480589587
9421,4.0,301.03,2974.8135,0.0,0.0,0.0,0.0,0.0,0.09389731308917597,-0.49662794961086254,0.11588930481738388,-0.5235303578484235,0.0009838196327629381,0.001986221887324838,1.3363983550172487
9422,4.0,299.7334,2764.4843,0.0,0.0,0.0,0.0,0.0,0.0939072798987598,-0.4576677334607886,0.1124816434060739,-0.4951481181048145,0.033459457662691365,0.02052391374505258,1.3465972238987987
9423,4.0,300.48856,2847.7578,0.0,0.0,0.0,0.0,0.0,0.09391724670834362,-0.5179899772291304,0.13266133988015488,-0.4803186152062565,0.017352653714573583,-0.003908916134454986,1.3451409808550787
9424,4.0,300.61733,3055.7871,0.0,0.0,0.0,0.0,0.0,0.09392721351792743,-0.5663462236765204,0.0957050710093551,-0.45824181056994556,-0.018296877164761183,-0.001188904908185779,1.3634346034605187
9425,4.0,300.05161,3068.6449,0.0,0.0,0.0,0.0,0.0,0.09393718032751125,-0.5544144640764475,0.0928275856201194,-0.4712045521467686,-0.00990852561177034,-0.0025936744415257372,1.3793666440578887
9426,4.0,300.55339,3244.9546,0.0,0.0,0.0,0.0,0.0,0.09394714713709507,-0.5652050912813995,0.07327495923542543,-0.49445504490391357,-0.03193358913834987,0.024633190055606578,1.3880783657676687
9427,4.0,299.5071,3229.0909,0.0,0.0,0.0,0.0,0.0,0.0939571139466789,-0.5284596270674045,0.08317448262668233,-0.5362778648390044,-0.007512137044215203,0.001834139937415518,1.4034596036106788
9428,4.0,299.93147999999997,2950.9052,0.0,0.0,0.0,0.0,0.0,0.09396708075626271,-0.5010861892558565,0.09670082228012811,-0.49261614795992853,-0.026167352032016578,-0.007784050814551003,1.3828824192548685
9429,4.0,300.01101,2847.5135,0.0,0.0,0.0,0.0,0.0,0.09397704756584654,-0.5119144992320275,0.1094506374544369,-0.46310913981031354,0.03449541672393257,-0.013726152573165786,1.4035691359464886
9430,4.0,299.4233,3024.9102,0.0,0.0,0.0,0.0,0.0,0.09398701437543036,-0.5754261706051415,0.14569113834859587,-0.48976213653575956,0.019476305347411682,0.0036005247525691267,1.391242137879909
9431,4.0,299.30865,2925.5753,0.0,0.0,0.0,0.0,0.0,0.09399698118501418,-0.5203674166012655,0.1193587339547899,-0.4882931366732805,0.029924786364596473,-0.013595307534752387,1.3758529966861186
9432,4.0,299.38777999999996,2685.353,0.0,0.0,0.0,0.0,0.0,0.094006947994598,-0.5021067651540795,0.13812378130175587,-0.4522972546182636,-0.01991063094977628,-0.027564973491201076,1.3541268880419186
9433,4.0,299.47146000000004,2806.3468,0.0,0.0,0.0,0.0,0.0,0.09401691480418181,-0.4577807513769426,0.1223197344570179,-0.5175983256679776,0.03033209466629467,-0.0016355311641143584,1.3471727499555988
9434,4.0,301.0685,2957.6644,0.0,0.0,0.0,0.0,0.0,0.09402688161376564,-0.5088598744205595,0.0950208809720808,-0.48521714241720354,-0.027690984313387377,0.03130919200272667,1.3561709174686487
9435,4.0,301.03952000000004,3005.7502,0.0,0.0,0.0,0.0,0.0,0.09403684842334946,-0.5169061542596655,0.08190788859092922,-0.47867475877402055,-0.012965718505616787,0.003535331835835087,1.3426328828825487
9436,4.0,300.37865,3085.7129,0.0,0.0,0.0,0.0,0.0,0.09404681523293328,-0.5681329889028605,0.07757468704802552,-0.4474213634145506,-0.04327896368030116,-0.006334433919859953,1.3827517099919686
9437,4.0,299.99823,3002.3469,0.0,0.0,0.0,0.0,0.0,0.0940567820425171,-0.5226051591821135,0.07529392997393233,-0.46532726586922557,0.006501665883939463,0.002865918734044157,1.3842770566925087
9438,4.0,299.85987,2882.0229999999997,0.0,0.0,0.0,0.0,0.0,0.09406674885210092,-0.5254947458172935,0.12202194025262789,-0.47259023245352455,0.03455664337447517,0.015735137731937184,1.4100371166348287
9439,4.0,299.45703,3071.8116,0.0,0.0,0.0,0.0,0.0,0.09407671566168474,-0.4738132759867295,0.07652863297603801,-0.5364693589754035,0.014228090328203187,-0.015741000397015786,1.3726746337724385
9440,4.0,298.43818999999996,3126.6029,0.0,0.0,0.0,0.0,0.0,0.09408668247126856,-0.5542908880942514,0.1054441857640309,-0.5015625079953656,-0.0025064421192165774,-0.03026487261491037,1.3767331057229788
9441,4.0,298.57478,2926.5564,0.0,0.0,0.0,0.0,0.0,0.09409664928085237,-0.49183874195320454,0.1116910854130519,-0.5094524028140375,0.0003908657857004496,-0.034307787123414965,1.3568498963606588
9442,4.0,299.17936000000003,2800.1557,0.0,0.0,0.0,0.0,0.0,0.0941066160904362,-0.5394841630579416,0.13290862356705987,-0.4446018632887876,0.00919482355075843,0.024467709089024875,1.3724685387020985
9443,4.0,300.56585,2961.0107,0.0,0.0,0.0,0.0,0.0,0.09411658290002002,-0.5282842537400965,0.12585368736079186,-0.49764274998351554,0.015108017993295286,0.002163477225368578,1.3790579067524187
9444,4.0,300.64509,3002.9881,0.0,0.0,0.0,0.0,0.0,0.09412654970960384,-0.5270112873744645,0.11029771453803688,-0.4961198148182135,-0.004269276506019786,0.013580271916518488,1.3837336506638787
9445,4.0,299.91084,2969.1229,0.0,0.0,0.0,0.0,0.0,0.09413651651918767,-0.4770815851117866,0.07997396601281592,-0.5054316136347166,-0.0023652880716357578,0.008689296559891802,1.3693063877900187
9446,4.0,299.77714,3118.7975,0.0,0.0,0.0,0.0,0.0,0.09414648332877149,-0.5567576049326974,0.0900730976472726,-0.48135205938074954,0.00926580627988888,0.014161530942384287,1.3963126440303288
9447,4.0,300.67894,3182.0283,0.0,0.0,0.0,0.0,0.0,0.0941564501383553,-0.5589585158724105,0.059930693532198945,-0.4682293256131365,-0.0018281171788211183,-0.0015557049907611287,1.3651171052515687
9448,4.0,301.04835,3199.0484,0.0,0.0,0.0,0.0,0.0,0.09416641694793912,-0.5736227678121594,0.07852126731794572,-0.4773293348937376,-0.017828658346551583,-0.02145196977664458,1.3913381939893885
9449,4.0,300.35663999999997,3112.8324,0.0,0.0,0.0,0.0,0.0,0.09417638375752294,-0.5424924012798314,0.08704602513252382,-0.4907769571734146,-0.014741095814082884,-0.01010522268610783,1.3695019450593187
9450,4.0,300.61107000000004,2978.6073,0.0,0.0,0.0,0.0,0.0,0.09418635056710678,-0.47372092837261554,0.08643826759004282,-0.5181395836063956,0.0006783032568433195,0.013166579125940187,1.3947816231292287
9451,4.0,301.56467999999995,2726.5504,0.0,0.0,0.0,0.0,0.0,0.0941963173766906,-0.4463611998349206,0.1132116597056209,-0.4956536995072115,0.013040908755787489,-0.012651787280134188,1.3393428598078487
9452,4.0,300.65584,3001.4625,0.0,0.0,0.0,0.0,0.0,0.09420628418627441,-0.5049579090804655,0.08253801464261783,-0.48994976005677654,-0.007052451210397744,-0.0015217858357135686,1.3813390367025487
9453,4.0,300.38371,3041.5212,0.0,0.0,0.0,0.0,0.0,0.09421625099585823,-0.5492973585539285,0.08691565328190712,-0.4621647907171136,0.007342040216802953,0.016533072185687184,1.332548612587309
9454,4.0,299.18977,2727.3206,0.0,0.0,0.0,0.0,0.0,0.09422621780544205,-0.5219063712506485,0.12648677615577286,-0.43361777624224257,0.007742279275203472,0.017241474847351085,1.3823453967018686
9455,4.0,299.20239,2859.9115,0.0,0.0,0.0,0.0,0.0,0.09423618461502588,-0.5096631892323404,0.091889869262074,-0.4515683630263276,-0.02026516209351578,0.009931663380453861,1.3528676208176387
9456,4.0,299.77867000000003,3150.7518,0.0,0.0,0.0,0.0,0.0,0.0942461514246097,-0.5409762447576985,0.1056390236257599,-0.5224126517956145,-0.0052937843212558355,-0.02203177276211668,1.4181290332584386
9457,4.0,299.94604,3031.6993,0.0,0.0,0.0,0.0,0.0,0.09425611823419353,-0.49887391978252255,0.07066542682188465,-0.49335239574759054,-0.003102387496006807,-0.010037529676077052,1.3555679323341385
9458,4.0,299.19445,2981.3590000000004,0.0,0.0,0.0,0.0,0.0,0.09426608504377734,-0.5316492978522005,0.1057192122386739,-0.4803286159847435,0.0025438089590543974,0.01203062342558009,1.4196703893105587
9459,4.0,299.0781,3013.3037,0.0,0.0,0.0,0.0,0.0,0.09427605185336116,-0.5459057064941985,0.1095102165603169,-0.47957359267272853,-0.015168576912021985,0.01027370246768549,1.3703559122435987
9460,4.0,300.32223999999997,2828.9029,0.0,0.0,0.0,0.0,0.0,0.09428601866294498,-0.5293522801405025,0.13059069237329787,-0.46115424599488053,-0.03369956145938777,0.010202934040951189,1.4040208428410688
9461,4.0,300.96745,2856.978,0.0,0.0,0.0,0.0,0.0,0.09429598547252879,-0.5115426263128265,0.11794335528760289,-0.47485069210161457,-0.008752623069941642,0.0070414230976343535,1.3712257874544487
9462,4.0,300.60697000000005,3062.3936,0.0,0.0,0.0,0.0,0.0,0.09430595228211262,-0.5169723498886984,0.095613918017109,-0.5095327332819656,-0.0018041681007825282,0.002476648918576218,1.3986441325104286
9463,4.0,300.40005,2880.8619,0.0,0.0,0.0,0.0,0.0,0.09431591909169644,-0.4986527475506945,0.0989289876210309,-0.47598632254869255,0.0038068638135332067,-0.0037629643476506662,1.3628000049228886
9464,4.0,300.31043999999997,2937.1729,0.0,0.0,0.0,0.0,0.0,0.09432588590128026,-0.5344361510597414,0.09971540040789381,-0.4581064707540886,0.013130471958626688,-0.03060467008894577,1.3757984838307387
9465,4.0,299.93334,3142.7933,0.0,0.0,0.0,0.0,0.0,0.09433585271086409,-0.5747390958448324,0.07889131740021683,-0.4594829102199326,0.01008584063024497,-0.009377498966237092,1.355799865282029
9466,4.0,299.48005,3082.0455,0.0,0.0,0.0,0.0,0.0,0.0943458195204479,-0.5530487042666574,0.1083707053653559,-0.49218688455506354,0.018400802174517783,-0.010341418985118589,1.384000946040259
9467,4.0,299.01092,2738.4639,0.0,0.0,0.0,0.0,0.0,0.09435578633003172,-0.4841752578693775,0.12637627109986688,-0.47462566951940655,-0.001144797320732699,-0.006679076046598484,1.3805181014715286
9468,4.0,298.02822000000003,2855.9357,0.0,0.0,0.0,0.0,0.0,0.09436575313961554,-0.4842276834295516,0.1067464654550559,-0.49065192211107456,-0.040502254119511256,-0.0099894312004551,1.3959450368940487
9469,4.0,299.47,3077.3658,0.0,0.0,0.0,0.0,0.0,0.09437571994919935,-0.5150109915376275,0.1075550998298619,-0.5279864798007085,-0.01990914248537938,0.019158744660070882,1.3997518175197488
9470,4.0,299.37052,2849.4579,0.0,0.0,0.0,0.0,0.0,0.0943856867587832,-0.5330054925810465,0.1213199504508469,-0.45447851863853755,-0.006979051677128774,0.01929874643963798,1.3832019983364088
9471,4.0,299.08557,2888.2346,0.0,0.0,0.0,0.0,0.0,0.09439565356836702,-0.5221465115243485,0.10589533537105592,-0.4617000331612456,-0.0009112931461776312,0.040062691027379756,1.3668271674453387
9472,4.0,299.54958,3179.5646,0.0,0.0,0.0,0.0,0.0,0.09440562037795083,-0.5977219791180665,0.11887107694666188,-0.4876573425005325,-0.027566408253342677,-0.024837804767550476,1.3762573848010289
9473,4.0,300.24691,3146.2158,0.0,0.0,0.0,0.0,0.0,0.09441558718753465,-0.5361368913525916,0.07882520891069243,-0.4990593749483255,-0.021326487871010477,-0.024463923586651275,1.3702837688364788
9474,4.0,300.82746000000003,3079.5452,0.0,0.0,0.0,0.0,0.0,0.09442555399711847,-0.5511864316428655,0.11535635552978588,-0.5002747583107745,0.016528043425440883,-0.016267851945511985,1.3812206890908687
9475,4.0,300.50588,3306.511,0.0,0.0,0.0,0.0,0.0,0.0944355208067023,-0.5486036064754605,0.07929307511786722,-0.5357862561554865,0.029296765846615672,0.028921894720368768,1.3917131978513986
9476,4.0,300.25189,2924.5759,0.0,0.0,0.0,0.0,0.0,0.09444548761628611,-0.5365196364453655,0.11743893912282088,-0.4699173394847306,0.014437396388110089,-0.0014671411564955586,1.3801389432841087
9477,4.0,300.28086,2858.5187,0.0,0.0,0.0,0.0,0.0,0.09445545442586994,-0.5161982268122985,0.1072161879364139,-0.4599362585796745,-0.00931320996991726,0.01015090972781679,1.3997770474472384
9478,4.0,299.765,3197.1796,0.0,0.0,0.0,0.0,0.0,0.09446542123545376,-0.5496057513543644,0.09470560516371551,-0.5169626125552375,0.008795493681672642,0.0038081496279101065,1.4022817003694288
9479,4.0,299.44152,3127.0609,0.0,0.0,0.0,0.0,0.0,0.09447538804503758,-0.5038288140965325,0.08457772863717193,-0.5312973555624665,-0.016595605928858784,0.005344541362490165,1.4130059394278287
9480,4.0,299.89748,2937.8320000000003,0.0,0.0,0.0,0.0,0.0,0.0944853548546214,-0.48214400552640857,0.11588793692974889,-0.5267715118708005,-0.003234753929445357,-0.024355203877421478,1.3969788559710787
9481,4.0,299.47271,3092.5305,0.0,0.0,0.0,0.0,0.0,0.09449532166420521,-0.5450588016631155,0.1131788506673829,-0.5081721005176816,-0.034462500281183965,0.0015657746702549284,1.3845278360922588
9482,4.0,299.14255,3086.6405,0.0,0.0,0.0,0.0,0.0,0.09450528847378904,-0.5382882644949155,0.1064262074959489,-0.5063995714552465,0.028784056229765174,0.007154721582741044,1.3735803780368288
9483,4.0,300.3762,2935.8169,0.0,0.0,0.0,0.0,0.0,0.09451525528337286,-0.5316313329279275,0.1148430632941279,-0.4756267606182066,0.001092297489326369,0.022532513868785978,1.3814918348176288
9484,4.0,300.38894,3162.7466,0.0,0.0,0.0,0.0,0.0,0.09452522209295669,-0.5299839706503455,0.07887173127578383,-0.5102837542560855,-0.001117502693513929,-0.018351570378658984,1.3821830740358485
9485,4.0,300.78402,3296.2323,0.0,0.0,0.0,0.0,0.0,0.0945351889025405,-0.5787479489379754,0.10679935711027588,-0.5300237305842694,-0.004478249915918856,0.001109027261727469,1.4006425656826589
9486,4.0,300.91312999999997,2896.0531,0.0,0.0,0.0,0.0,0.0,0.09454515571212432,-0.5097025033362205,0.11841217597637188,-0.48903751072674456,0.012039082037414887,-0.0029425398960060776,1.3879401584540287
9487,4.0,300.85708999999997,2841.0803,0.0,0.0,0.0,0.0,0.0,0.09455512252170814,-0.5322910499355366,0.13010418033778287,-0.46143059982715456,0.03164120163649347,0.015009380122560485,1.4000408977732788
9488,4.0,300.25041,3217.7690000000002,0.0,0.0,0.0,0.0,0.0,0.09456508933129196,-0.5575353250469525,0.08536642225000993,-0.5059525153786255,0.007763405438463463,-0.027330476007307973,1.3955617243812186
9489,4.0,301.25262999999995,3257.5452,0.0,0.0,0.0,0.0,0.0,0.09457505614087577,-0.5818437015710024,0.08228137359103932,-0.49065006786339155,-0.035879921660572564,-0.014927019101432088,1.3955749979575287
9490,4.0,299.49311,2966.9672,0.0,0.0,0.0,0.0,0.0,0.0945850229504596,-0.48850870563205556,0.1007519562734439,-0.5141271841379025,-0.02046412489640188,-0.013442498273921289,1.3973915527368088
9491,4.0,298.79314,3012.7607,0.0,0.0,0.0,0.0,0.0,0.09459498976004342,-0.5126370073483335,0.10797323774862891,-0.5111402444331145,-0.019485542135323282,0.01030164182594289,1.3904401504257589
9492,4.0,299.05161,3134.5228,0.0,0.0,0.0,0.0,0.0,0.09460495656962725,-0.5190212226509064,0.08872768187299042,-0.5225231163215165,0.008447040923958031,-0.016052130999221984,1.3829688494883987
9493,4.0,300.80991,3159.2454,0.0,0.0,0.0,0.0,0.0,0.09461492337921107,-0.5617680557496905,0.09750455759070059,-0.4960682201231216,0.011359878203882689,0.005339901386307235,1.3695833090423488
9494,4.0,301.11442999999997,3115.9643,0.0,0.0,0.0,0.0,0.0,0.09462489018879489,-0.5561763134828285,0.08718777375526332,-0.47818678765836153,0.024092708266765177,0.01087379983941049,1.3627835902712688
9495,4.0,299.68703999999997,2797.4614,0.0,0.0,0.0,0.0,0.0,0.0946348569983787,-0.5251434722726255,0.12686661322075987,-0.4520815640694765,0.006988778472788733,0.004080692727883016,1.3878787554979686
9496,4.0,299.64845,2692.9824,0.0,0.0,0.0,0.0,0.0,0.09464482380796252,-0.4584350981590216,0.1004295259061225,-0.46059382749707156,-0.013109717556828385,-0.027544801708210272,1.3677944159907987
9497,4.0,299.94106,3178.5709,0.0,0.0,0.0,0.0,0.0,0.09465479061754635,-0.5457071398721015,0.09521951852168481,-0.5157185744799605,-0.02158809283482888,0.005716889799963094,1.4017483255167884
9498,4.0,298.48475,3273.0255,0.0,0.0,0.0,0.0,0.0,0.09466475742713017,-0.5707094103296334,0.09013884643301151,-0.5143474545771416,0.016559450125540484,0.0026652187138616074,1.3768485149093688
9499,4.0,299.01099,2843.2465,0.0,0.0,0.0,0.0,0.0,0.09467472423671398,-0.5204856527554345,0.1081745502784969,-0.4519648275254556,0.011767950496156289,0.034399489297215265,1.3927649514551987
9500,4.0,299.2655,2860.0972,0.0,0.0,0.0,0.0,0.0,0.09468469104629781,-0.5273242195353485,0.08806476704806582,-0.4301386705663816,0.017902855611624285,-0.03337957302480737,1.3390606696549987
9501,4.0,299.36096000000003,3288.8720000000003,0.0,0.0,0.0,0.0,0.0,0.09469465785588163,-0.5825605861492534,0.08268262569688982,-0.49985701555954654,0.00014761699241616286,0.008168542750497403,1.4312892268822486
9502,4.0,300.60079,3229.4162,0.0,0.0,0.0,0.0,0.0,0.09470462466546545,-0.5384935084351715,0.08146183765840742,-0.5246302003019695,0.01085535666109029,0.006741279875537525,1.3732092245251988
9503,4.0,300.39763,2835.2843,0.0,0.0,0.0,0.0,0.0,0.09471459147504926,-0.4966686214698765,0.13535868257386185,-0.5005457013875145,0.005874425061910615,0.008047406471892182,1.4268222124913885
9504,4.0,300.23548,2723.2677,0.0,0.0,0.0,0.0,0.0,0.09472455828463308,-0.4920090085000085,0.12589257589962988,-0.46168894820515155,-0.03273727175991717,-0.025200637469359275,1.3669632469337687
9505,4.0,300.3933,2916.4333,0.0,0.0,0.0,0.0,0.0,0.09473452509421693,-0.5214065957713244,0.12397518247039788,-0.4890914966920725,-0.017728178387134984,-0.018610914781504284,1.4007384191421186
9506,4.0,299.73336,3042.4667,0.0,0.0,0.0,0.0,0.0,0.09474449190380074,-0.5739060928051215,0.10799457679573489,-0.4589224005296146,0.014547077671684786,0.0050215012212585855,1.3302363758591087
9507,4.0,299.22139,3255.3195,0.0,0.0,0.0,0.0,0.0,0.09475445871338456,-0.5750751199754954,0.08256784877856221,-0.49702857856790156,0.014553533088071884,0.016656083787577484,1.3949241874182987
9508,4.0,300.65967,2962.7439,0.0,0.0,0.0,0.0,0.0,0.09476442552296838,-0.5144277749125685,0.1028874315216989,-0.4890598123614455,-0.0027703848536656975,-0.02476845489095618,1.3741265198407286
9509,4.0,300.48982,2820.5745,0.0,0.0,0.0,0.0,0.0,0.0947743923325522,-0.48022592308710854,0.1023324237794239,-0.4794907088145485,0.004649668122786515,0.014709358794450685,1.4010618485740385
9510,4.0,300.88194,3073.79,0.0,0.0,0.0,0.0,0.0,0.09478435914213602,-0.5325143499925744,0.08730488114882091,-0.48914592848744454,0.018170337426022684,0.027409295719336875,1.3788085459028088
9511,4.0,299.97306000000003,3299.3616,0.0,0.0,0.0,0.0,0.0,0.09479432595171984,-0.5619525787254015,0.09208700821478011,-0.5330579688037255,0.015732011855378685,0.015544574772380087,1.3969866579968486
9512,4.0,300.96547000000004,3139.8626,0.0,0.0,0.0,0.0,0.0,0.09480429276130367,-0.5492596048552025,0.06724484343204934,-0.4724250524222226,-0.04142766354184206,-0.01075721325640429,1.356106677412309
9513,4.0,300.01732000000004,3065.4808,0.0,0.0,0.0,0.0,0.0,0.09481425957088749,-0.5473708256087945,0.10251320786226589,-0.4869720105303955,-0.01024185095079199,-0.02180306600254508,1.3966440781380385
9514,4.0,299.21531,3019.4251,0.0,0.0,0.0,0.0,0.0,0.0948242263804713,-0.5297216705969585,0.11875328662253688,-0.5068614513808305,-0.0024722376329408572,0.017830506514733984,1.3902793476348887
9515,4.0,299.19146,2945.5853,0.0,0.0,0.0,0.0,0.0,0.09483419319005512,-0.5292347431289025,0.13921971260991586,-0.5053693696810735,-0.007188284276403424,0.00952846309863609,1.4194563908894386
9516,4.0,299.54432,2972.7602,0.0,0.0,0.0,0.0,0.0,0.09484415999963894,-0.5126148880986505,0.11868152825045489,-0.5097115111296094,0.007546817656712914,-0.026580039678495673,1.3744290763205886
9517,4.0,299.34266,3238.8356,0.0,0.0,0.0,0.0,0.0,0.09485412680922277,-0.5710025537160645,0.08512382484481743,-0.4986464147375696,0.0022723538870388677,-0.003906621122978487,1.3960806097574288
9518,4.0,299.88704,2964.8104,0.0,0.0,0.0,0.0,0.0,0.09486409361880659,-0.5485183516120465,0.12948489200916388,-0.4821948808139295,0.06222078263971314,0.01967629355939898,1.3597573161975987
9519,4.0,299.62185,2839.6056,0.0,0.0,0.0,0.0,0.0,0.0948740604283904,-0.5235053407034546,0.11459229402687889,-0.4542561609040926,0.006730144763563573,0.013760935422598588,1.3779036122384987
9520,4.0,301.13354,3159.0549,0.0,0.0,0.0,0.0,0.0,0.09488402723797423,-0.5175178330800335,0.08417752423192483,-0.5269335001642874,-0.021348146091897977,0.017628667094813984,1.3911930965750687
9521,4.0,300.69538,3160.5594,0.0,0.0,0.0,0.0,0.0,0.09489399404755805,-0.5611906045177004,0.12039437688199989,-0.5199349209285815,-0.05123075592108195,-0.0070755552378529325,1.4259603419563287
9522,4.0,300.08811000000003,2975.2665,0.0,0.0,0.0,0.0,0.0,0.09490396085714187,-0.4863704338135245,0.06599812835000814,-0.4840344363704795,-0.017012284767481782,0.030237927255001074,1.394066572533659
9523,4.0,300.15841,2937.5565,0.0,0.0,0.0,0.0,0.0,0.09491392766672568,-0.5490521114997244,0.14023567822018385,-0.48412740206715454,-0.005405465659202925,-0.021313936742021776,1.3906416858706487
9524,4.0,299.17559,3068.5945,0.0,0.0,0.0,0.0,0.0,0.0949238944763095,-0.5377195373462865,0.1109576544606679,-0.5060142121772144,0.007648479268396133,-0.03206035787161097,1.3737512120036885
9525,4.0,299.68183999999997,2989.9749,0.0,0.0,0.0,0.0,0.0,0.09493386128589335,-0.5252037809185774,0.1017208462840659,-0.4853947651597335,0.013065257155690489,-0.024044417780249277,1.3608352116539788
9526,4.0,299.98124,3067.6459999999997,0.0,0.0,0.0,0.0,0.0,0.09494382809547716,-0.5242459657315486,0.1131365069457039,-0.5213783362260356,0.013739460599979186,0.02100952702772888,1.4058402347206287
9527,4.0,298.2389,3049.2189,0.0,0.0,0.0,0.0,0.0,0.09495379490506098,-0.5517186817878945,0.1162191379899359,-0.4913868729386085,-0.002010828260703298,0.01171838432776449,1.3791750384639787
9528,4.0,299.89206,3074.8867,0.0,0.0,0.0,0.0,0.0,0.0949637617146448,-0.5233533126584504,0.1026351829093039,-0.5139706471299534,-0.006793874141853174,-0.002984827078329497,1.3995626437260786
9529,4.0,300.33271,3162.4171,0.0,0.0,0.0,0.0,0.0,0.09497372852422861,-0.5637850415312515,0.1029910566094259,-0.5005018479231865,0.030078714253537968,-0.015358627167028486,1.3968087312792885
9530,4.0,300.50568,3297.6012,0.0,0.0,0.0,0.0,0.0,0.09498369533381244,-0.5502967068625565,0.07784222864417983,-0.5299339566254095,0.006245941317076414,0.040523930578900566,1.4050607414186986
9531,4.0,301.16429,3184.5978,0.0,0.0,0.0,0.0,0.0,0.09499366214339626,-0.5443999459180915,0.0958645403630935,-0.5195028204234365,0.026536407102689476,-0.008800112582253493,1.3974380609163986
9532,4.0,300.40442,2936.5702,0.0,0.0,0.0,0.0,0.0,0.09500362895298009,-0.4994933398336545,0.11662925096791088,-0.5097799359088625,-0.020026744344985782,-0.02226994733062268,1.4200882536517987
9533,4.0,299.92627999999996,3046.3877,0.0,0.0,0.0,0.0,0.0,0.09501359576256391,-0.5211459878456045,0.1008303129301771,-0.5057101155572025,-0.012252097605937887,-0.0011863652981351387,1.4139070227417587
9534,4.0,299.84695,3156.8408,0.0,0.0,0.0,0.0,0.0,0.09502356257214772,-0.5188335079373805,0.0966101414624286,-0.5373774134500214,-0.030350095054321173,0.047229817324470055,1.4034561585603387
9535,4.0,299.58319,3038.4735,0.0,0.0,0.0,0.0,0.0,0.09503352938173154,-0.5376988366467434,0.08222709276993222,-0.46814832640014253,-0.008972067507699123,0.018661293576476282,1.3859096052536288
9536,4.0,299.52364,3048.1344,0.0,0.0,0.0,0.0,0.0,0.09504349619131536,-0.5346104807394465,0.11483064084790189,-0.5067768855274845,-0.024579472601555078,-0.01599716116804688,1.3748396452611087
9537,4.0,300.22672,3131.0229999999997,0.0,0.0,0.0,0.0,0.0,0.09505346300089919,-0.5743702626759315,0.11857676832261589,-0.4959593058698725,0.02801595793845977,-0.025337241821341075,1.4041115287250188
9538,4.0,299.96685,2945.3021,0.0,0.0,0.0,0.0,0.0,0.095063429810483,-0.5467665333816555,0.1142426619473729,-0.4627744329047806,-0.0041533074989495355,0.023437268187828274,1.3969947639976485
9539,4.0,301.43157,3081.7293,0.0,0.0,0.0,0.0,0.0,0.09507339662006682,-0.5667538845892535,0.12277481547443088,-0.4927896873045556,0.05063822550110375,-0.01954616286230608,1.4161326265864087
9540,4.0,301.03316,3229.0826,0.0,0.0,0.0,0.0,0.0,0.09508336342965065,-0.5538579060615194,0.08559799549411441,-0.5133005848388236,-0.006967435980632393,-0.03053585318190407,1.3878648739715986
9541,4.0,301.18748,2995.3458,0.0,0.0,0.0,0.0,0.0,0.09509333023923447,-0.5342914589454615,0.1015786670300339,-0.4777975374999455,0.03350841993402357,-0.006353981642114165,1.3929617246246186
9542,4.0,300.9824,3000.1065,0.0,0.0,0.0,0.0,0.0,0.09510329704881829,-0.5092609694726445,0.11116577603120789,-0.5138622698992575,0.0014288976526712187,0.026443089808229774,1.3799302137635088
9543,4.0,300.42641000000003,3164.3107,0.0,0.0,0.0,0.0,0.0,0.0951132638584021,-0.5150449556809795,0.07038405436186534,-0.5172105244572045,-0.0099314003407279,-0.02066659050488368,1.3944620440476885
9544,4.0,300.43404,3074.4875,0.0,0.0,0.0,0.0,0.0,0.09512323066798592,-0.5332216390923785,0.1124466052176159,-0.5137924063048624,-0.05567675043861745,-0.028494332562421672,1.3849448898334185
9545,4.0,299.67677000000003,2960.4106,0.0,0.0,0.0,0.0,0.0,0.09513319747756975,-0.5164353881307044,0.11231485230711288,-0.4957703752562265,-0.019685179762775982,-0.0025534181163777477,1.3986564941616488
9546,4.0,299.79546,2996.5466,0.0,0.0,0.0,0.0,0.0,0.09514316428715357,-0.5465068576460275,0.08549159410111341,-0.4498600841527336,-0.01077752993415939,0.061458252157707234,1.3932589108789488
9547,4.0,300.24264,3114.4924,0.0,0.0,0.0,0.0,0.0,0.0951531310967374,-0.5500352275417505,0.09384420984295241,-0.49053689795972255,0.011330825283765389,0.005283624361178125,1.3833938065803386
9548,4.0,300.99419,3228.9147,0.0,0.0,0.0,0.0,0.0,0.09516309790632121,-0.5598673708146075,0.08620362521138542,-0.5078457022629685,0.007072635253714753,0.003463418740462817,1.3824517879623686
9549,4.0,300.29617,3299.2532,0.0,0.0,0.0,0.0,0.0,0.09517306471590503,-0.5643552480250265,0.08372349800786592,-0.5222588505629355,0.016317282338390384,-0.011428192538874789,1.3802428014193588
9550,4.0,300.82189,3096.8796,0.0,0.0,0.0,0.0,0.0,0.09518303152548885,-0.5735458925270724,0.14180701634276285,-0.5096351829995766,0.03525716295036107,0.03408814489923797,1.4151777396921685
9551,4.0,300.60509,2972.5466,0.0,0.0,0.0,0.0,0.0,0.09519299833507266,-0.5163469719269785,0.0930022294073554,-0.4802351943255235,-0.01115300090446549,-0.03809483369016736,1.3885878279179487
9552,4.0,300.58127,3051.7929999999997,0.0,0.0,0.0,0.0,0.0,0.0952029651446565,-0.5569126727280015,0.12210026448535789,-0.4928564503536445,-0.0019303839034640583,-0.03845365493483026,1.4212898669453886
9553,4.0,300.69028,3150.8271,0.0,0.0,0.0,0.0,0.0,0.09521293195424031,-0.5397837912450125,0.08900297483240972,-0.5069919377287085,-0.03015590972565657,-0.014661485766975985,1.3972871879765087
9554,4.0,300.16988,3055.7768,0.0,0.0,0.0,0.0,0.0,0.09522289876382413,-0.5042968039202195,0.08910614193109151,-0.5136891865171755,0.014944150120872786,0.016492770162959684,1.4019285827095787
9555,4.0,299.00843,2899.7786,0.0,0.0,0.0,0.0,0.0,0.09523286557340796,-0.5105590239107526,0.12471256509817187,-0.49561382811577653,0.012081091386560888,0.0035640109679904966,1.4084191588751487
9556,4.0,298.90274,2937.7056,0.0,0.0,0.0,0.0,0.0,0.09524283238299178,-0.5000516001087505,0.098373393206948,-0.49131095010861553,-0.013750548595823486,0.009007069117828512,1.3926378898926588
9557,4.0,299.47111,2970.4339,0.0,0.0,0.0,0.0,0.0,0.0952527991925756,-0.5605789358298334,0.1112526419622809,-0.4536114399979636,0.016519923239139485,0.025991568338418078,1.3907137279527588
9558,4.0,299.63548,3161.5379,0.0,0.0,0.0,0.0,0.0,0.09526276600215941,-0.5774242694048385,0.10476892549988791,-0.4883732340936855,0.012049182114411689,0.04057327889852086,1.3998924566336288
9559,4.0,300.23371000000003,3109.1355,0.0,0.0,0.0,0.0,0.0,0.09527273281174323,-0.5683589639401625,0.097710717509047,-0.47445131957469955,-0.00031566348798606073,-0.0004403106275252755,1.3603902935350687
9560,4.0,300.64259,2958.9511,0.0,0.0,0.0,0.0,0.0,0.09528269962132707,-0.4633486721339536,0.0994482945092825,-0.5355468656868605,0.014329586577470086,-0.03397974335053957,1.3940900799359788
9561,4.0,300.2129,2981.5759999999996,0.0,0.0,0.0,0.0,0.0,0.09529266643091089,-0.5354350434058245,0.1078797755594049,-0.4787693963333606,0.006726226018801824,-0.0026825810583001376,1.3854166590799786
9562,4.0,300.36419,3325.8235,0.0,0.0,0.0,0.0,0.0,0.0953026332404947,-0.5566587826504444,0.09594176825921531,-0.5502502898754754,0.0054332202006420844,-0.0002018619951322278,1.4230984170488787
9563,4.0,300.94588,3148.6688,0.0,0.0,0.0,0.0,0.0,0.09531260005007852,-0.5825666859148555,0.1093351776055419,-0.4838851744982485,-0.005629823853320354,-0.03751378542032236,1.4010718797500288
9564,4.0,299.94785,2955.8782,0.0,0.0,0.0,0.0,0.0,0.09532256685966234,-0.5185213965090775,0.1063883322072109,-0.4863800900869775,-0.02305838965743588,-0.004803425481736185,1.4368880416348089
9565,4.0,300.35888,3232.1507,0.0,0.0,0.0,0.0,0.0,0.09533253366924617,-0.5557293891287204,0.07510560021759563,-0.5018693201256454,0.026446970556112774,0.006473124959097694,1.3735397467078185
9566,4.0,300.62521,3295.9493,0.0,0.0,0.0,0.0,0.0,0.09534250047882999,-0.5466692208420515,0.1039120908178249,-0.5591291775867535,-0.006052623938447474,0.012534227977031987,1.4457924835136087
9567,4.0,300.53776,3217.8212,0.0,0.0,0.0,0.0,0.0,0.09535246728841382,-0.5785109092095815,0.1006371043746089,-0.5002635011021636,-0.0028415069046848975,-0.0012644884007202888,1.3854651937597686
9568,4.0,300.32725,3207.1792,0.0,0.0,0.0,0.0,0.0,0.09536243409799763,-0.5454806683422504,0.1018775656770329,-0.5312993010026585,-0.04076735986242516,-0.007660460342878573,1.4382786260720486
9569,4.0,299.7763,2863.8927,0.0,0.0,0.0,0.0,0.0,0.09537240090758145,-0.5452117213682075,0.1251224146311209,-0.4504625626621936,0.02136563884162438,0.04585888892591995,1.3779122248643487
9570,4.0,299.317,2856.6483,0.0,0.0,0.0,0.0,0.0,0.09538236771716527,-0.4941207331659196,0.11650541154068889,-0.49073445133171956,0.007049716853677883,0.014139251599185488,1.4088798836956187
9571,4.0,300.27353,3141.255,0.0,0.0,0.0,0.0,0.0,0.09539233452674908,-0.5356520106497374,0.1061643532726059,-0.5253754254855175,0.03211917906641617,-0.003148291069262137,1.3819175011846387
9572,4.0,299.32702,3098.2,0.0,0.0,0.0,0.0,0.0,0.09540230133633291,-0.49238975749008557,0.0920603698696511,-0.5414460381665634,-0.01232237865937409,-0.022951468467133578,1.3936444525419986
9573,4.0,299.85799,2867.1311,0.0,0.0,0.0,0.0,0.0,0.09541226814591673,-0.4861513286119005,0.1076524630319709,-0.4930374066890036,0.03771045321173196,0.012058021708284088,1.4061812947042884
9574,4.0,300.54524,3067.2633,0.0,0.0,0.0,0.0,0.0,0.09542223495550055,-0.5145309035077466,0.09177792235127571,-0.5096184745054275,-0.012191381633445688,0.004368341461671735,1.3848200574210987
9575,4.0,301.00933,3370.2088,0.0,0.0,0.0,0.0,0.0,0.09543220176508438,-0.6037085140213914,0.07910599571215393,-0.4998568129095265,-0.01899819011547538,-0.007123265132061533,1.4286416043709487
9576,4.0,300.84904,3212.3932,0.0,0.0,0.0,0.0,0.0,0.0954421685746682,-0.5687764229813624,0.08723811708648183,-0.49494903472516655,-0.038173938125474365,-0.02024399732542698,1.3871660353776287
9577,4.0,299.79406,3012.2463,0.0,0.0,0.0,0.0,0.0,0.09545213538425201,-0.5228767710039195,0.1009243810429609,-0.49369526944892955,-0.00967497298359549,0.02074492385686458,1.4019781306394687
9578,4.0,300.08911,3067.3571,0.0,0.0,0.0,0.0,0.0,0.09546210219383583,-0.5395086431803574,0.1309384094101149,-0.5238297428554705,0.03375402973176336,-0.0025492220450636276,1.3925208595061087
9579,4.0,300.68862,3243.7511,0.0,0.0,0.0,0.0,0.0,0.09547206900341965,-0.5626377485755225,0.1069917935692679,-0.5303733727962765,0.01282798741952379,-0.011776828593532488,1.4331076055117087
9580,4.0,299.57427,3123.8398,0.0,0.0,0.0,0.0,0.0,0.09548203581300349,-0.5585689617389644,0.12431175375611488,-0.5153120990698444,0.004107021322456447,-0.012565434053611789,1.3863525981973488
9581,4.0,298.35098,3037.2293,0.0,0.0,0.0,0.0,0.0,0.09549200262258731,-0.5539888179744396,0.14328702010132788,-0.5125400697112665,-0.0057045028174905945,0.018666532079493283,1.4275034205336186
9582,4.0,297.93643,2986.2429,0.0,0.0,0.0,0.0,0.0,0.09550196943217112,-0.5332938027645004,0.11499562836168489,-0.4894451108444715,-0.014782217556141286,0.010980823367972889,1.3979683960187386
9583,4.0,298.84042,3226.4734,0.0,0.0,0.0,0.0,0.0,0.09551193624175494,-0.5416075198350006,0.07900787966522063,-0.5181677114291715,-0.02464506534677858,-0.02021471439753698,1.4139824085491988
9584,4.0,299.64538,3390.185,0.0,0.0,0.0,0.0,0.0,0.09552190305133876,-0.5624107096256155,0.06906214092365263,-0.5371830112858355,5.482476010528255e-05,-0.03581486999090247,1.4072186601566685
9585,4.0,299.7113,3117.9967,0.0,0.0,0.0,0.0,0.0,0.09553186986092259,-0.5178104293114105,0.07824315245699792,-0.5082258635679875,-0.011607083870529989,0.020202885715869583,1.4007865485218687
9586,4.0,300.5148,2796.3713,0.0,0.0,0.0,0.0,0.0,0.0955418366705064,-0.4933705937193865,0.11485799860060188,-0.47151447495485554,0.02148213828512198,0.016876300524561183,1.3927504619787687
9587,4.0,299.68703,2887.993,0.0,0.0,0.0,0.0,0.0,0.09555180348009024,-0.5236267179329335,0.1127182575694259,-0.46696929845128154,-0.01265268805947309,0.015434731368789385,1.3929268688211787
9588,4.0,299.45637,3214.188,0.0,0.0,0.0,0.0,0.0,0.09556177028967405,-0.5372161242991035,0.07487516485335342,-0.5146919393461395,0.05019062125617865,-0.00959520000587251,1.3675180013635186
9589,4.0,299.592,3147.2817,0.0,0.0,0.0,0.0,0.0,0.09557173709925787,-0.5191156575602266,0.09586528206216671,-0.5334446757043905,0.018412214410394083,0.014693186309604589,1.3926394097678088
9590,4.0,300.06853,2832.2309999999998,0.0,0.0,0.0,0.0,0.0,0.09558170390884169,-0.4744172541063375,0.1048884282166819,-0.4913986773022735,0.02060011217907278,-0.018799857554151485,1.3740249921807088
9591,4.0,299.80379,3019.1098,0.0,0.0,0.0,0.0,0.0,0.0955916707184255,-0.5433458618390615,0.12154870179342289,-0.4959368319826546,-0.03783103706638266,-0.03695197674337617,1.4138672020128287
9592,4.0,300.94616,3193.7984,0.0,0.0,0.0,0.0,0.0,0.09560163752800933,-0.5526014759375194,0.09510538501717072,-0.5133388856926036,-0.006037390229819024,-0.023678649692900778,1.3839289039581488
9593,4.0,300.02637000000004,3153.5573,0.0,0.0,0.0,0.0,0.0,0.09561160433759315,-0.5766911728249875,0.09316895160530961,-0.47508044656178955,-0.016339500886583185,0.030148610271936174,1.4181331875838488
9594,4.0,301.68017000000003,3179.7259999999997,0.0,0.0,0.0,0.0,0.0,0.09562157114717697,-0.5167085400926625,0.08481582113241982,-0.5346645984272875,0.03086285837342697,0.02216911577342138,1.4105611695865488
9595,4.0,300.44704,3000.2375,0.0,0.0,0.0,0.0,0.0,0.0956315379567608,-0.5533706239559284,0.11423573131668888,-0.47286237116538254,-0.012510288930169387,-0.0016034633183245085,1.4417694753165686
9596,4.0,300.16218,3062.4304,0.0,0.0,0.0,0.0,0.0,0.09564150476634461,-0.4983648629322825,0.09298454414011001,-0.5255220427749875,0.03431059382619196,-0.03220698833333227,1.3993257458526986
9597,4.0,300.00586,3255.6953,0.0,0.0,0.0,0.0,0.0,0.09565147157592843,-0.5834000233270994,0.1032136980538989,-0.5094637512151575,0.026542405543281473,0.018694526153256084,1.3948577182117385
9598,4.0,300.32516,3258.1878,0.0,0.0,0.0,0.0,0.0,0.09566143838551225,-0.5513221564937605,0.06823483133625353,-0.5073204030136256,0.0006275268827970814,0.01107922819118469,1.3780254049005187
9599,4.0,300.21841,3081.8267,0.0,0.0,0.0,0.0,0.0,0.09567140519509607,-0.5744500966513104,0.11744759227867489,-0.4797958592146646,-0.040603747329027856,5.721370594555314e-05,1.3710493806120387
9600,4.0,300.1956,2999.3011,0.0,0.0,0.0,0.0,0.0,0.0956813720046799,-0.5210646137300735,0.1090549227603829,-0.49970297114684353,-0.04417118510885656,-0.01924932516601048,1.3837652640669988
9601,4.0,299.25046000000003,2973.8965,0.0,0.0,0.0,0.0,0.0,0.09569133881426371,-0.5219900454439065,0.0976863903873961,-0.4796866308538845,0.008680941907517262,0.015628514437164287,1.3710393494360487
9602,4.0,300.12545,3102.3634,0.0,0.0,0.0,0.0,0.0,0.09570130562384754,-0.5086554917428885,0.07960552699820382,-0.5139910438544666,0.017553973337192285,-0.02126196005164208,1.4062259790336988
9603,4.0,298.96446000000003,3268.6714,0.0,0.0,0.0,0.0,0.0,0.09571127243343136,-0.5463126176018575,0.06440138703417203,-0.5116832654267065,0.018933225585313882,-0.02657786727028127,1.3703716176201486
9604,4.0,299.4654,3306.3316,0.0,0.0,0.0,0.0,0.0,0.09572123924301518,-0.5653680421624815,0.05694170402245864,-0.4966159020671736,0.009870250494542881,-0.04627455958069345,1.4082210684805987
9605,4.0,300.0634,3047.9498,0.0,0.0,0.0,0.0,0.0,0.095731206052599,-0.5178803131708075,0.09059982152625622,-0.49922014734169246,0.023968003523957775,0.02998824419185927,1.3951073830363787
9606,4.0,300.92831,3089.917,0.0,0.0,0.0,0.0,0.0,0.09574117286218281,-0.5054350890825594,0.07107278375958763,-0.5048953003567865,0.007351485632910143,0.015647790507066685,1.4085237262854686
9607,4.0,300.85374,3420.447,0.0,0.0,0.0,0.0,0.0,0.09575113967176664,-0.5688010753562954,0.09535901671595222,-0.5662884076258144,-0.01040322116171799,0.01214702255731779,1.4413219227473986
9608,4.0,300.95434,3240.0229,0.0,0.0,0.0,0.0,0.0,0.09576110648135046,-0.5534060269144224,0.11820735760115789,-0.5496873889149214,-0.04324743133718916,-0.007759441705397273,1.3932182795499386
9609,4.0,300.44622999999996,2913.1905,0.0,0.0,0.0,0.0,0.0,0.09577107329093427,-0.5092498845165505,0.1081967505881879,-0.48448403570485155,-2.7154380232678674e-05,0.03361218079726397,1.3947594329520387
9610,4.0,301.07407,2924.5157,0.0,0.0,0.0,0.0,0.0,0.0957810401005181,-0.5334230529472564,0.14402330841899386,-0.4995800132472086,0.0013810056774196486,0.015000457442179886,1.3878909144991687
9611,4.0,299.50255,3132.9981,0.0,0.0,0.0,0.0,0.0,0.09579100691010192,-0.5701721040666055,0.10634615060554789,-0.4885272278438835,-0.0055660981227311146,-0.017781311195878786,1.4333384238844884
9612,4.0,299.14887000000004,3203.3401,0.0,0.0,0.0,0.0,0.0,0.09580097371968574,-0.5745510771562764,0.11042870751096491,-0.5096130434848916,0.02113370893348468,-0.04015729514946646,1.4125802730608188
9613,4.0,300.03549,3130.1315,0.0,0.0,0.0,0.0,0.0,0.09581094052926956,-0.5447399926516515,0.1258684909447529,-0.5326103149095455,0.012139236743549386,0.008329989867105992,1.4550337297256486
9614,4.0,299.4258,3037.0964,0.0,0.0,0.0,0.0,0.0,0.09582090733885337,-0.5055184998307916,0.07835635275816992,-0.49603930196526747,0.026071769110333272,0.002206795592318768,1.3969506876182987
9615,4.0,300.14484,3213.8146,0.0,0.0,0.0,0.0,0.0,0.09583087414843722,-0.5261207925240794,0.1022341689172269,-0.5530327557100835,-0.03157146571161107,-0.01990225846419998,1.4337101853461787
9616,4.0,301.06281,3554.6387,0.0,0.0,0.0,0.0,0.0,0.09584084095802103,-0.5942302382134584,0.03900811754855146,-0.5252992898730036,-0.015528991999092185,-0.01082160834000959,1.3966891677674886
9617,4.0,299.71491000000003,3368.1619,0.0,0.0,0.0,0.0,0.0,0.09585080776760485,-0.5714058677858684,0.08175143770923872,-0.5341826966797274,-0.008992100374101211,0.014667691923838485,1.4029859091889287
9618,4.0,299.84965,2755.4177,0.0,0.0,0.0,0.0,0.0,0.09586077457718867,-0.5029450066968075,0.13921175859663087,-0.4738449400523545,0.008565515191900533,0.023996824409802178,1.3838806732533886
9619,4.0,299.83898999999997,2691.8905,0.0,0.0,0.0,0.0,0.0,0.09587074138677248,-0.47177638997320454,0.12870360525455687,-0.4751947006430655,-0.026741727036702974,0.004433476623150076,1.4010972110025288
9620,4.0,299.88858999999997,3086.5195,0.0,0.0,0.0,0.0,0.0,0.09588070819635632,-0.5211950190179435,0.11463253018834989,-0.5316623789109914,0.007190623262934264,0.00952126263945046,1.3772364883726589
9621,4.0,300.69331,3398.9484,0.0,0.0,0.0,0.0,0.0,0.09589067500594013,-0.5443033122560544,0.054181366556784544,-0.5430735103446825,-0.003034162934973567,0.04350095968446046,1.3866992310565587
9622,4.0,300.83395,3122.7421,0.0,0.0,0.0,0.0,0.0,0.09590064181552396,-0.5435488563640954,0.08786192552379692,-0.49354870282196456,0.007363394158685424,0.015934007315814087,1.4039929784633187
9623,4.0,300.0911,3190.7506,0.0,0.0,0.0,0.0,0.0,0.09591060862510778,-0.5540625319192145,0.09998211620521659,-0.5158281169482715,-0.035709112011714964,-0.03991935970798406,1.4490753125125986
9624,4.0,300.91048,3352.6409999999996,0.0,0.0,0.0,0.0,0.0,0.0959205754346916,-0.5803980267258254,0.07549597103062222,-0.5142170898192755,-0.007069089992939863,-0.04904036454390715,1.4457975497641087
9625,4.0,300.29136,3420.1048,0.0,0.0,0.0,0.0,0.0,0.09593054224427541,-0.5742688667384245,0.08137012028585562,-0.5467277259028255,0.01758455727821068,-0.009004269913102252,1.4450434890396886
9626,4.0,299.59605,3408.5563,0.0,0.0,0.0,0.0,0.0,0.09594050905385923,-0.5597436023148925,0.10051784382458881,-0.5768902359396334,0.034460276197214465,0.029673154821512372,1.4299862885786587
9627,4.0,299.67332000000005,3064.3789,0.0,0.0,0.0,0.0,0.0,0.09595047586344306,-0.5356380176658565,0.11410274224106388,-0.5099593926340735,-0.02035707603658698,-0.0024239155330218376,1.4143791972883588
9628,4.0,299.6074,2739.9797,0.0,0.0,0.0,0.0,0.0,0.09596044267302688,-0.5124294126678455,0.14576025213791685,-0.46621623071195956,-0.0003585994847460136,0.010240360459894892,1.3966580609894186
9629,4.0,300.16239,2964.2575,0.0,0.0,0.0,0.0,0.0,0.0959704094826107,-0.5485832604134525,0.12474687374655788,-0.4772238656908286,-0.014449927252096786,0.02319318434473908,1.3963054499546186
9630,4.0,299.98794,3169.1712,0.0,0.0,0.0,0.0,0.0,0.09598037629219452,-0.5724143961404025,0.10880300852052091,-0.4997375229752536,0.007131688178817823,0.023766908842861277,1.4004735555659786
9631,4.0,299.49818999999997,2924.9664,0.0,0.0,0.0,0.0,0.0,0.09599034310177834,-0.5120925678046016,0.14896724949942286,-0.5259914207513114,-0.04094602422605796,-0.022328823240933278,1.4142303508486687
9632,4.0,301.01267,3061.1736,0.0,0.0,0.0,0.0,0.0,0.09600030991136216,-0.5211736293083326,0.05973770181215215,-0.46908441750502755,-0.013083005244442088,-0.03405348060006687,1.385457493059009
9633,4.0,300.21188,3260.6272,0.0,0.0,0.0,0.0,0.0,0.09601027672094598,-0.5483991326052805,0.09233775316402673,-0.5350878532590595,0.029510632545222674,0.008019558204818773,1.3953550213608188
9634,4.0,299.90488999999997,3334.2543,0.0,0.0,0.0,0.0,0.0,0.09602024353052979,-0.5438611197799135,0.05263119320229435,-0.5223001303720095,0.017190980541867684,0.017744582906253983,1.4326157739131686
9635,4.0,299.15055,3214.0242,0.0,0.0,0.0,0.0,0.0,0.09603021034011364,-0.5509857675930615,0.07484845254096713,-0.5008457956696315,-0.0009948001430366302,-0.038904456997070964,1.4092294549801185
9636,4.0,300.09304,3131.6609,0.0,0.0,0.0,0.0,0.0,0.09604017714969745,-0.5561277484055355,0.11138257102260388,-0.5072015285118935,-0.040670734306388956,-0.023504841836997276,1.4355417362269385
9637,4.0,301.17006000000003,2977.6927,0.0,0.0,0.0,0.0,0.0,0.09605014395928127,-0.4988117872863906,0.07719408700571322,-0.4835265244928525,0.022978155448267378,0.002265546872867068,1.3765701751068988
9638,4.0,301.05709,3035.4392,0.0,0.0,0.0,0.0,0.0,0.09606011076886509,-0.5083714574748566,0.0972706011823609,-0.5115968655906795,0.01111371719808849,0.01327641442353009,1.4052801100653487
9639,4.0,299.79392,3291.3918,0.0,0.0,0.0,0.0,0.0,0.0960700775784489,-0.5589849009050145,0.09910659516480941,-0.5406226204727985,0.0013569741208229189,-0.017213151467305784,1.3920755360871586
9640,4.0,300.84384,3206.3106,0.0,0.0,0.0,0.0,0.0,0.09608004438803273,-0.5780016193118184,0.0985798337955721,-0.4952165935465725,-0.030184611047989175,-0.030243194129020868,1.4020317315697588
9641,4.0,300.14787,2873.9018,0.0,0.0,0.0,0.0,0.0,0.09609001119761655,-0.5353647137163835,0.15070998900891786,-0.4889396814295895,0.014162582695988087,0.007527640277370254,1.4111713487967685
9642,4.0,300.90811,3139.8111,0.0,0.0,0.0,0.0,0.0,0.09609997800720038,-0.5582597380734464,0.1094125392506769,-0.5055769643615615,0.0008856206411764523,0.043257396651922665,1.4317847061811486
9643,4.0,299.51862,3527.7154,0.0,0.0,0.0,0.0,0.0,0.0961099448167842,-0.5752160427994035,0.05122449504871405,-0.5483458559150225,0.04094250824821096,-0.035605006643440566,1.4360011438222788
9644,4.0,298.65825,3395.3458,0.0,0.0,0.0,0.0,0.0,0.09611991162636802,-0.5833012517073515,0.0937808624599505,-0.5425799460884715,-0.015754283092576683,-0.008766480480959262,1.4200357672966186
9645,4.0,298.96747,3062.5054,0.0,0.0,0.0,0.0,0.0,0.09612987843595183,-0.5166534091547216,0.07828247568012883,-0.49255424851131957,0.019004990036896482,-0.001032015795827029,1.4126613330688187
9646,4.0,300.17217999999997,2843.9383,0.0,0.0,0.0,0.0,0.0,0.09613984524553565,-0.5073092369975235,0.1114749085042169,-0.46865191169984255,-0.013567477607505787,0.012193697923174289,1.3959481779693588
9647,4.0,299.73541,2924.0568,0.0,0.0,0.0,0.0,0.0,0.09614981205511947,-0.5048879036310565,0.12360422147628689,-0.5075565713469335,-0.01023365375748299,-0.008525971688197891,1.4158295634814986
9648,4.0,300.10789,3336.0963,0.0,0.0,0.0,0.0,0.0,0.0961597788647033,-0.5619221609573994,0.049278237163883354,-0.5014460348963705,-0.02297621608757598,-0.014053027055425786,1.3736582969695186
9649,4.0,299.42453,3140.63,0.0,0.0,0.0,0.0,0.0,0.09616974567428711,-0.5470484195594755,0.11136685551355288,-0.5189915242904755,0.026280862387719178,0.019695392310533882,1.3886891529279486
9650,4.0,300.4124,2681.5124,0.0,0.0,0.0,0.0,0.0,0.09617971248387094,-0.4837999297673355,0.12249096359141687,-0.45380383592695156,0.0075647608974337725,0.013696263721715988,1.3733695206910186
9651,4.0,300.28892,2946.0196,0.0,0.0,0.0,0.0,0.0,0.09618967929345476,-0.5371486114449405,0.11944578227088087,-0.4778135569840265,0.03255989929016187,-0.05152574240944485,1.3982150210930788
9652,4.0,300.68223,3557.4066,0.0,0.0,0.0,0.0,0.0,0.09619964610303858,-0.6130916659099365,0.09301919729353002,-0.5612902981950395,-0.01148130001636609,-0.017738260225629982,1.4277464992326088
9653,4.0,300.13794,3465.1505,0.0,0.0,0.0,0.0,0.0,0.0962096129126224,-0.5802710968857984,0.05019377246398966,-0.5232418855449534,0.015313421013816985,-0.001872987135649438,1.4106416216444886
9654,4.0,299.29344,2927.0974,0.0,0.0,0.0,0.0,0.0,0.09621957972220621,-0.5104418921991924,0.1142995255429849,-0.49362214318921255,-0.01983511443307338,0.018473217132664584,1.4360223207493685
9655,4.0,299.19075,2997.4753,0.0,0.0,0.0,0.0,0.0,0.09622954653179004,-0.4846628236849966,0.09257469156741072,-0.5190695040181715,-0.030293307452466674,-0.02134299472838958,1.4219716829376787
9656,4.0,298.69191,3260.6932,0.0,0.0,0.0,0.0,0.0,0.09623951334137386,-0.5693272358682234,0.08111608024728383,-0.5029581688156065,-0.007354475024680174,-0.0005294914196442345,1.4131518474422287
9657,4.0,298.10741,3420.0408,0.0,0.0,0.0,0.0,0.0,0.09624948015095769,-0.5646145285931155,0.09279674127382531,-0.5677892134089324,0.022983904629334775,0.00971232796840714,1.4028273355482788
9658,4.0,299.82005,2938.9759,0.0,0.0,0.0,0.0,0.0,0.0962594469605415,-0.5403079556542435,0.1127386340289369,-0.46580595561396854,0.017261562530583585,0.036034429128571265,1.4132971475065685
9659,4.0,300.19965,2572.1507,0.0,0.0,0.0,0.0,0.0,0.09626941377012532,-0.44749464166178254,0.15442347969791084,-0.48879841410064756,-0.004639335302241746,-0.02706712014731677,1.4082142797049286
9660,4.0,300.72078,3047.7739,0.0,0.0,0.0,0.0,0.0,0.09627938057970914,-0.5471287500274035,0.12326995026829689,-0.5025883629266096,-0.01128056503905509,0.008521078196839942,1.4114945755786688
9661,4.0,300.40292,3619.348,0.0,0.0,0.0,0.0,0.0,0.09628934738929296,-0.5985250203523205,0.04966268046382495,-0.5513290871244444,0.008007022375906581,0.01093295439349859,1.4004415368628187
9662,4.0,299.45777000000004,3575.6545,0.0,0.0,0.0,0.0,0.0,0.09629931419887679,-0.6152482674227764,0.06986399766853973,-0.5415254060468965,-0.0015170987434009885,-0.0012698808164274787,1.4333197800826485
9663,4.0,299.93483,2988.2379,0.0,0.0,0.0,0.0,0.0,0.0963092810084606,-0.5259672243389235,0.09043735396547191,-0.4728198349261845,-0.01064758466183479,-0.035460473609426266,1.4104812241536588
9664,4.0,299.89622,3001.2241,0.0,0.0,0.0,0.0,0.0,0.09631924781804442,-0.5276189638569375,0.08895381700380822,-0.4736320359413425,-0.016624851366495084,-0.016926555703020985,1.4047300165860588
9665,4.0,298.86579,3404.1204,0.0,0.0,0.0,0.0,0.0,0.09632921462762825,-0.5612229069308884,0.07227579432506553,-0.5458205022932895,0.011723344187003989,0.022498478797926977,1.4093401018910385
9666,4.0,298.79701,3273.9691,0.0,0.0,0.0,0.0,0.0,0.09633918143721207,-0.5520395172995585,0.08624672380438891,-0.5294120517639015,-0.004260500645578676,0.005787403495622255,1.4188737720819387
9667,4.0,299.03497000000004,2717.1542,0.0,0.0,0.0,0.0,0.0,0.09634914824679588,-0.4809940274579146,0.14870404765344686,-0.49365705978765856,-0.01904358270670528,-0.016041857656458085,1.4115770541368087
9668,4.0,301.06541,2642.3536,0.0,0.0,0.0,0.0,0.0,0.0963591150563797,-0.4893489027474765,0.15242748845842186,-0.4662881005415526,-0.020847089864447582,0.008688434892006762,1.4088205072397588
9669,4.0,300.81404,2986.0232,0.0,0.0,0.0,0.0,0.0,0.09636908186596352,-0.5432130956784585,0.12093451011280688,-0.48539789610254247,0.01064120321270499,0.037728692726782066,1.3903179524636988
9670,4.0,300.55695,3547.0162,0.0,0.0,0.0,0.0,0.0,0.09637904867554736,-0.6142639253481295,0.10269502546020991,-0.5666354356525635,-0.008541397103745262,0.019248461876925284,1.4348481665334885
9671,4.0,299.86858,3611.0516,0.0,0.0,0.0,0.0,0.0,0.09638901548513118,-0.6000052976884125,0.07154349213329293,-0.5692077027539265,-0.008137567492290382,-0.03882909044138286,1.4247899367658188
9672,4.0,300.49113,3245.0136,0.0,0.0,0.0,0.0,0.0,0.096398982294715,-0.5859648227752254,0.11493897754859389,-0.5153772510512745,-0.013317674980852186,-0.02080305300185148,1.4554303158147885
9673,4.0,299.26993,3104.8413,0.0,0.0,0.0,0.0,0.0,0.09640894910429881,-0.5496410732528505,0.11199564812810991,-0.5061488021879975,0.02225870836051348,0.004520191782608196,1.417495954595959
9674,4.0,299.07549,3336.1548,0.0,0.0,0.0,0.0,0.0,0.09641891591388263,-0.5907059010531335,0.09607446146581111,-0.5194763036683195,0.023907231822710078,0.008607292608098642,1.4574362470377589
9675,4.0,298.92371,3469.8294,0.0,0.0,0.0,0.0,0.0,0.09642888272346646,-0.5634193393051594,0.08254552079935863,-0.5738676906263315,0.02059954374576668,-0.008356410566113512,1.4257411759596985
9676,4.0,299.88074,3196.6453,0.0,0.0,0.0,0.0,0.0,0.09643884953305028,-0.5097615150220445,0.07933398407740462,-0.5412728027969665,-0.027853501523426576,0.010107303597838199,1.4190660869509186
9677,4.0,299.92976,2898.1125,0.0,0.0,0.0,0.0,0.0,0.09644881634263411,-0.48218860879581055,0.0953257659006706,-0.49409098414298347,0.0015012135149582385,0.016101484385092783,1.3894277109258386
9678,4.0,300.69491,2983.3632,0.0,0.0,0.0,0.0,0.0,0.09645878315221793,-0.5207424204632755,0.14425548454690787,-0.5303809721720265,-0.04567653227892276,0.006096998314651884,1.4373658903819686
9679,4.0,300.52847,3321.8203,0.0,0.0,0.0,0.0,0.0,0.09646874996180174,-0.5693965827050674,0.06407172814063723,-0.5044255677429276,-0.002923239001476227,-0.016734682611084586,1.3984776555189986
9680,4.0,300.26282000000003,3410.7954,0.0,0.0,0.0,0.0,0.0,0.09647871677138556,-0.5946646995913365,0.07806398045506503,-0.5201959138893395,-0.006209131055518524,0.007810320741943644,1.4218750188781384
9681,4.0,300.87413,3200.3152,0.0,0.0,0.0,0.0,0.0,0.09648868358096938,-0.5673932150048504,0.0939682032841896,-0.4993909103810455,0.022777859208249682,0.04239308114437136,1.3927940317330685
9682,4.0,299.88629,3008.2239,0.0,0.0,0.0,0.0,0.0,0.0964986503905532,-0.5506350817334514,0.10759195173599889,-0.47138182025176356,-0.004221160298521086,0.013125639768899789,1.4100756201386289
9683,4.0,298.62609,3191.7447,0.0,0.0,0.0,0.0,0.0,0.09650861720013702,-0.5635733634528605,0.12341348727746289,-0.5300508248919436,-0.020262982592550677,-0.04986067459961545,1.4187710285217987
9684,4.0,300.35602,3397.1076,0.0,0.0,0.0,0.0,0.0,0.09651858400972084,-0.5846318010761664,0.06829749173568764,-0.5163015681899975,-0.013533219621624787,-0.031561062672834365,1.4184193294120886
9685,4.0,300.13081,3047.428,0.0,0.0,0.0,0.0,0.0,0.09652855081930467,-0.5237333321084555,0.1017965360665359,-0.5044052115484186,-0.002510146156282138,0.01748034754517598,1.4238999992029886
9686,4.0,299.49261,2774.8377,0.0,0.0,0.0,0.0,0.0,0.09653851762888849,-0.5141183688620325,0.14513001057571687,-0.4744930249488155,-0.016515786138981185,0.015175048540410683,1.4217668037674587
9687,4.0,299.42007,2817.2462,0.0,0.0,0.0,0.0,0.0,0.0965484844384723,-0.46994566995752657,0.0961091794672375,-0.4825360117250965,-0.016696598592825983,-0.0068231548405929526,1.4013490036523788
9688,4.0,299.1406,3289.7931,0.0,0.0,0.0,0.0,0.0,0.09655845124805612,-0.5728306190164805,0.09152979260053722,-0.5187141369430995,-0.004386524032066215,0.01744860241954298,1.4129087687432385
9689,4.0,300.68765,3616.0668,0.0,0.0,0.0,0.0,0.0,0.09656841805763994,-0.5914295946720565,0.05342861089849335,-0.5611930363179405,0.012477630866196288,0.02294226308997508,1.3953692068622185
9690,4.0,301.79102,3265.9256,0.0,0.0,0.0,0.0,0.0,0.09657838486722378,-0.5981283329381705,0.10689499778721491,-0.5015264970868115,0.007130326370683424,-0.008929914378363931,1.4413778541529185
9691,4.0,300.32412,2897.7992,0.0,0.0,0.0,0.0,0.0,0.0965883516768076,-0.5374556768877454,0.14051491981524286,-0.4839178518139735,-0.008003890419847483,-0.027061895829801178,1.4255748002932789
9692,4.0,300.47137000000004,3201.2262,0.0,0.0,0.0,0.0,0.0,0.09659831848639142,-0.5779468430114125,0.09360464712180942,-0.48875062922593154,0.03023913504912027,-0.022334401182733776,1.4165507949026785
9693,4.0,300.51734,3540.5074,0.0,0.0,0.0,0.0,0.0,0.09660828529597523,-0.5803803353790795,0.06838905712072443,-0.5642345699381165,0.011290643837799789,0.013566599119669088,1.4122496495531887
9694,4.0,299.81104,3337.7451,0.0,0.0,0.0,0.0,0.0,0.09661825210555905,-0.5739136719158694,0.0974983554868385,-0.5381758646613225,-0.002256331971157628,0.0027285303291349774,1.4455181967115385
9695,4.0,299.94875,2959.5744,0.0,0.0,0.0,0.0,0.0,0.09662821891514288,-0.49195674505985054,0.06977162370992313,-0.47745160378330453,-0.04403650998506516,-0.02770198212997277,1.3989927918698386
9696,4.0,298.45716,2789.6736,0.0,0.0,0.0,0.0,0.0,0.0966381857247267,-0.5031602210180475,0.14225675753214886,-0.48708765276430854,-0.0007651972144140852,0.02606783567344508,1.4112820970326987
9697,4.0,299.41196,3233.3644,0.0,0.0,0.0,0.0,0.0,0.09664815253431053,-0.5525686466342795,0.07078332252402003,-0.5010767052349205,0.008994574426870381,0.02763568517592977,1.4130512317072985
9698,4.0,301.12476000000004,3481.5261,0.0,0.0,0.0,0.0,0.0,0.09665811934389434,-0.5807357125866525,0.061160838935354844,-0.5387221381877355,0.04195557191019256,0.01124483784052909,1.4291058755667687
9699,4.0,299.32665,3073.8886,0.0,0.0,0.0,0.0,0.0,0.09666808615347816,-0.5248938885079935,0.1053471366694529,-0.5148386275631165,-0.01910794333980718,-0.02114921166001468,1.4156115120599786
9700,4.0,299.1573,2907.5284,0.0,0.0,0.0,0.0,0.0,0.09667805296306198,-0.5143295808453775,0.10433617651467891,-0.47382261815265153,0.013314186360757888,-0.014786397212803786,1.3960536573047686
9701,4.0,300.82769,3142.1406,0.0,0.0,0.0,0.0,0.0,0.0966880197726458,-0.5585586671179484,0.14662641885340086,-0.5432000247521686,-0.014092756591846787,0.008485071645261372,1.4251709188034185
9702,4.0,300.64993,3371.1059999999998,0.0,0.0,0.0,0.0,0.0,0.09669798658222961,-0.5902597872991054,0.0989489456082506,-0.5334211986995735,-0.004972674320139745,-0.02057273517462088,1.4389049159588587
9703,4.0,301.4105,3281.8418,0.0,0.0,0.0,0.0,0.0,0.09670795339181343,-0.5856775258418715,0.1171691612836959,-0.5290895950520775,-0.02053254663590458,-0.01112804962075299,1.4294702403027288
9704,4.0,301.0121,2925.5188,0.0,0.0,0.0,0.0,0.0,0.09671792020139726,-0.5224070282575595,0.13979801497198985,-0.5066756517099935,0.0092314451451477,-0.0005166425977761545,1.4247970295165187
9705,4.0,299.12028,2917.4341,0.0,0.0,0.0,0.0,0.0,0.09672788701098109,-0.5028458703070235,0.08334264769277892,-0.4673239055887786,0.021011187744642782,0.015081501238178285,1.4120449730329885
9706,4.0,299.33069,3496.2734,0.0,0.0,0.0,0.0,0.0,0.0967378538205649,-0.5798176370685454,0.08569243040343441,-0.5686545999218395,0.015258392414136087,-0.03391906790805137,1.4474347592756887
9707,4.0,300.01697,3579.6881,0.0,0.0,0.0,0.0,0.0,0.09674782063014872,-0.5877307961095134,0.05427800224532175,-0.5546830158829514,-0.02220745411745508,-0.007873852536463744,1.4178789631337587
9708,4.0,298.77639,3067.4662,0.0,0.0,0.0,0.0,0.0,0.09675778743973254,-0.5270261112234276,0.07390095933270682,-0.4793079691590135,-0.023107345849267477,0.010667060342006889,1.4257662032371685
9709,4.0,299.06622000000004,2927.9344,0.0,0.0,0.0,0.0,0.0,0.09676775424931636,-0.5168501924566425,0.13937671571291085,-0.5125454804668005,-0.021762001002492277,0.043868299322714056,1.4284826254302587
9710,4.0,299.61247000000003,3206.0901,0.0,0.0,0.0,0.0,0.0,0.09677772105890019,-0.5447758110426865,0.08434155726411363,-0.5141371038563816,-0.005191048461816595,-0.024168093060955076,1.4391635987093885
9711,4.0,300.51297,3542.4473,0.0,0.0,0.0,0.0,0.0,0.096787687868484,-0.5822162331027684,0.05902950788000885,-0.5536288203464105,-0.008254617231917291,-0.025696721678568974,1.4008735867054587
9712,4.0,301.44229,3362.0618,0.0,0.0,0.0,0.0,0.0,0.09679765467806782,-0.5656143835267935,0.1027729747904029,-0.5591414277804625,0.028920946318275173,-0.00888496052442733,1.4143508262855586
9713,4.0,301.85284,2915.3693,0.0,0.0,0.0,0.0,0.0,0.09680762148765165,-0.5142312651881745,0.09339926436628972,-0.4653674615006926,0.006230023664630464,0.026694867259328275,1.3950228779780385
9714,4.0,300.63237999999996,2874.7844,0.0,0.0,0.0,0.0,0.0,0.09681758829723547,-0.5360448071835036,0.13056911014616787,-0.46838696706369454,0.003576034598977137,-0.012929484682040788,1.4153078410050086
9715,4.0,300.72362000000004,3401.3176,0.0,0.0,0.0,0.0,0.0,0.09682755510681929,-0.5598812624734785,0.07566812728886273,-0.5497024863414115,-0.006958122591013233,-0.0009097830691560981,1.4060317389895287
9716,4.0,301.33907,3625.7847,0.0,0.0,0.0,0.0,0.0,0.0968375219164031,-0.5789775919406395,0.03584834169470587,-0.5590187535908555,0.03192561789981317,-0.001142338365390019,1.4216755099334486
9717,4.0,300.46828999999997,3050.623,0.0,0.0,0.0,0.0,0.0,0.09684748872598692,-0.4850574339364415,0.11607177089539188,-0.5583275346376374,0.003136089207582907,0.03302030898985076,1.4490384302089587
9718,4.0,299.68745,2725.5522,0.0,0.0,0.0,0.0,0.0,0.09685745553557075,-0.47452994778245955,0.1133945209511679,-0.46736439506277455,-0.012041465201650088,-0.02670865860643937,1.4433117432937788
9719,4.0,299.98152999999996,3139.2799,0.0,0.0,0.0,0.0,0.0,0.09686742234515457,-0.5568261310369604,0.12816348215625087,-0.5256000427676856,-0.040642219422074764,-0.007527196879126493,1.4389276127610986
9720,4.0,299.76534,3625.9393,0.0,0.0,0.0,0.0,0.0,0.0968773891547384,-0.6446391976409354,0.07824658737483693,-0.5358024073620805,-0.006555327001285405,0.024855468756543774,1.4407540973913586
9721,4.0,300.74375,3419.2703,0.0,0.0,0.0,0.0,0.0,0.09688735596432221,-0.5907119501562305,0.07190296692427034,-0.5205638250006495,-0.010993755478999188,0.03996076313357026,1.4362626636730886
9722,4.0,299.87507999999997,3076.1575,0.0,0.0,0.0,0.0,0.0,0.09689732277390603,-0.5758132524083435,0.16880521724477782,-0.5280670331836584,-0.014321256648397986,-0.022226754505359877,1.4457190228813586
9723,4.0,299.05986,3054.4659,0.0,0.0,0.0,0.0,0.0,0.09690728958348985,-0.5338256577419904,0.0952499342631866,-0.4899056330149215,-0.014056728458041089,-0.03195380043809457,1.4108776075927787
9724,4.0,300.07191,3295.677,0.0,0.0,0.0,0.0,0.0,0.09691725639307366,-0.5663316430075814,0.09233009907277132,-0.5278019669574985,0.036030958746978765,-0.030373733165904075,1.4089565867281886
9725,4.0,300.83859,3340.5796,0.0,0.0,0.0,0.0,0.0,0.09692722320265751,-0.5471911155710585,0.0975618660031065,-0.5658235183474335,-0.002674859788563107,0.01168649329411709,1.4140289167287885
9726,4.0,300.52991000000003,3053.3857,0.0,0.0,0.0,0.0,0.0,0.09693719001224133,-0.5547688786964254,0.08898880452976123,-0.46237294268515655,0.008073059836598973,-0.02973354554072247,1.4189326419127486
9727,4.0,301.09002999999996,2771.9082,0.0,0.0,0.0,0.0,0.0,0.09694715682182514,-0.4728443961086085,0.13196907727933385,-0.5017155492904696,-0.03274668080034577,-0.005295068919732616,1.4187052685903088
9728,4.0,300.30073,2921.905,0.0,0.0,0.0,0.0,0.0,0.09695712363140896,-0.5148451224962575,0.0998842392853069,-0.4732252666886976,0.02064173953293108,0.019653643366663583,1.4319857350009884
9729,4.0,299.97893999999997,3410.3940000000002,0.0,0.0,0.0,0.0,0.0,0.09696709044099278,-0.5331554535958465,0.07566186337674452,-0.5791810322957174,0.005280518445646595,0.043788386313827254,1.4392253056404787
9730,4.0,299.71173999999996,3404.1849,0.0,0.0,0.0,0.0,0.0,0.0969770572505766,-0.5697220791671914,0.09820078503916291,-0.5632659231075184,0.006971859729243983,-0.015078015657834287,1.4419492258843087
9731,4.0,299.23815,3144.7277,0.0,0.0,0.0,0.0,0.0,0.09698702406016042,-0.5276029038428525,0.07160709384206992,-0.49992286668354546,-0.041260453970589764,-0.018475437163633684,1.4162125720192986
9732,4.0,299.34127,3209.0415,0.0,0.0,0.0,0.0,0.0,0.09699699086974425,-0.5773047058930384,0.10781190806770691,-0.5059756884084126,0.008283083378901681,0.002219955684617568,1.4102723933080488
9733,4.0,299.6432,3373.1806,0.0,0.0,0.0,0.0,0.0,0.09700695767932807,-0.5680604705932034,0.07963366799323113,-0.5369358897189465,-0.00015224130375254683,0.015616343276963087,1.4218398590996686
9734,4.0,300.20407,3332.2746,0.0,0.0,0.0,0.0,0.0,0.09701692448891189,-0.5901536088211264,0.1037051446174009,-0.5264798072995115,0.03845966958742386,-0.01822393025031188,1.4231288145518786
9735,4.0,300.16751,3185.8019,0.0,0.0,0.0,0.0,0.0,0.0970268912984957,-0.5786732420081024,0.14145955261847087,-0.5311905387369245,0.0026056877373613575,0.003301060610689317,1.4424850325371885
9736,4.0,299.99126,2910.6065,0.0,0.0,0.0,0.0,0.0,0.09703685810807952,-0.5345881183097395,0.11513047168499288,-0.46529405153094755,0.017174817176272485,0.018921126365869782,1.4215891810249286
9737,4.0,300.01062,2755.4404,0.0,0.0,0.0,0.0,0.0,0.09704682491766335,-0.49676362379925254,0.14809861045369485,-0.48892004464265154,0.008493592470652312,0.017971758644924483,1.4568710561319786
9738,4.0,300.49185,3333.7595,0.0,0.0,0.0,0.0,0.0,0.09705679172724717,-0.5544761102125315,0.095159870514798,-0.5540633931817995,-0.008886521233556361,-0.02207950494782748,1.4618278756211787
9739,4.0,300.49475,3460.1978,0.0,0.0,0.0,0.0,0.0,0.09706675853683099,-0.5571770702090955,0.06712187033366283,-0.5617585210662495,-0.01930424636118078,-0.006514182967724805,1.4505700590601185
9740,4.0,301.11294,3135.5269,0.0,0.0,0.0,0.0,0.0,0.09707672534641482,-0.5568234155266925,0.1191227682715019,-0.5154212565031175,-0.012332958003668189,0.005426070201311434,1.4497505423792385
9741,4.0,300.9109,3070.6563,0.0,0.0,0.0,0.0,0.0,0.09708669215599863,-0.5206269910118835,0.10212562956651491,-0.5149014895993205,-0.017615843401548384,0.012711438326771289,1.4204833198657887
9742,4.0,300.80601,3350.3869,0.0,0.0,0.0,0.0,0.0,0.09709665896558245,-0.5953143144954485,0.0906529046857451,-0.5137725466029025,-0.025676491127072376,-0.021601724088424184,1.4106229778426487
9743,4.0,300.35327,3552.6188,0.0,0.0,0.0,0.0,0.0,0.09710662577516627,-0.5842136428923975,0.07916534481026122,-0.5748591153191774,-0.016564950047083284,-0.025469303773124577,1.3918325587131788
9744,4.0,300.17062000000004,3252.9811,0.0,0.0,0.0,0.0,0.0,0.09711659258475008,-0.5866630432866344,0.08381799979169252,-0.48597997788748953,0.022487803194873375,0.019783873362266283,1.3877879682890089
9745,4.0,299.4118,2922.4372,0.0,0.0,0.0,0.0,0.0,0.09712655939433393,-0.5130165911007956,0.1146390555189939,-0.4899703898288125,0.006924715431241202,0.026958623353108974,1.4074696422064386
9746,4.0,299.6968,2753.7024,0.0,0.0,0.0,0.0,0.0,0.09713652620391774,-0.5088488502594715,0.14460966611936288,-0.4728175855109626,-0.0015311645799641785,-0.008655107880317642,1.4499120544451787
9747,4.0,299.42947000000004,3134.2156,0.0,0.0,0.0,0.0,0.0,0.09714649301350156,-0.5262953248538045,0.07249058206801343,-0.4989185433169265,-0.006344371370215703,-0.019908045135521083,1.4066800164035087
9748,4.0,299.47365,3625.3081,0.0,0.0,0.0,0.0,0.0,0.09715645982308538,-0.6072236407383074,0.08214696596527432,-0.5769264494982075,0.014994578565099686,0.011376034476727189,1.4544974164477185
9749,4.0,299.51007000000004,3248.947,0.0,0.0,0.0,0.0,0.0,0.0971664266326692,-0.5518645087422864,0.08185498578995812,-0.5175892368145805,0.014876768989222787,-0.00948959239299985,1.4360975039067885
9750,4.0,301.00703,3006.0637,0.0,0.0,0.0,0.0,0.0,0.09717639344225303,-0.5185046170874215,0.12433933442383689,-0.5196030308583265,-0.029124949027158675,-0.021795215340770276,1.4653236897911885
9751,4.0,300.95474,3424.0706,0.0,0.0,0.0,0.0,0.0,0.09718636025183684,-0.5910380343034124,0.0978482712763725,-0.5476422145155785,-0.0007616344345449664,-0.0013191362210136087,1.4482378613049487
9752,4.0,300.38152,3715.5196,0.0,0.0,0.0,0.0,0.0,0.09719632706142067,-0.6441225616799474,0.07497148440785942,-0.5602740995372485,0.014521555928165985,0.03174814714479817,1.4408469111005187
9753,4.0,299.70675,3310.6704,0.0,0.0,0.0,0.0,0.0,0.09720629387100449,-0.5974288661291384,0.13912204543277687,-0.5480543033312485,0.019107603901023684,0.03443996154595957,1.4331526951411588
9754,4.0,299.60863,2953.7034,0.0,0.0,0.0,0.0,0.0,0.0972162606805883,-0.5526192483442735,0.12311043430505389,-0.4683432554543806,-0.029354350876298868,-0.008367430268901072,1.4181339981839287
9755,4.0,299.7477,2851.7395,0.0,0.0,0.0,0.0,0.0,0.09722622749017212,-0.5151379315101555,0.13599170044133585,-0.4877113689958646,-0.020729921675883983,0.005032703207739135,1.4185400074989987
9756,4.0,299.9304,2987.1548,0.0,0.0,0.0,0.0,0.0,0.09723619429975594,-0.5335600950232815,0.14238130623444087,-0.5168416710233016,0.014482543772815786,0.02983655659888887,1.4358369973060787
9757,4.0,300.07511,3177.2617,0.0,0.0,0.0,0.0,0.0,0.09724616110933976,-0.5363469887608265,0.09890302815346891,-0.5283642498354916,0.02605391564357127,0.0062130442274047236,1.4477600125577885
9758,4.0,299.62669,3155.7471,0.0,0.0,0.0,0.0,0.0,0.09725612791892357,-0.5464481296702315,0.12559229923249488,-0.5384124990896765,-0.019027199465838383,-0.0056340500181624445,1.4741484902121285
9759,4.0,299.3964,3050.3555,0.0,0.0,0.0,0.0,0.0,0.09726609472850739,-0.5045832193259865,0.08961510454907223,-0.5122637766739986,-0.017577445275758784,-0.04051233291825596,1.4319450023469686
9760,4.0,299.56119,3429.3466,0.0,0.0,0.0,0.0,0.0,0.09727606153809124,-0.5596752788606494,0.042899826771133256,-0.5256602703536295,0.008699785623601993,-0.0009093839296767061,1.4176579732869485
9761,4.0,298.88957999999997,3679.2855,0.0,0.0,0.0,0.0,0.0,0.09728602834767505,-0.5873616083030774,0.05295148459865465,-0.5840007793113895,0.007909090639166472,-0.017446131102549084,1.4222746447175787
9762,4.0,298.07,3284.6633,0.0,0.0,0.0,0.0,0.0,0.09729599515725887,-0.5653921068523565,0.08913519181145851,-0.5221987040369995,-0.011248990139438888,-0.01911618612937068,1.4395280647703586
9763,4.0,299.91147,2884.1393,0.0,0.0,0.0,0.0,0.0,0.09730596196684269,-0.5125181936416074,0.13661718986056687,-0.5008053264606375,-0.013345003349299289,-0.01145755450027259,1.4221931794095386
9764,4.0,300.17003,2849.7127,0.0,0.0,0.0,0.0,0.0,0.0973159287764265,-0.5298219519593554,0.16228172058345885,-0.49870129236298555,-0.0031247774861165273,0.030538754116940372,1.4577724434209385
9765,4.0,299.98505,3158.4081,0.0,0.0,0.0,0.0,0.0,0.09732589558601033,-0.5728876852621124,0.1176347294396439,-0.5048242411272735,0.026284331756061576,0.009711034352004471,1.4258527347957088
9766,4.0,300.17854,3365.6292,0.0,0.0,0.0,0.0,0.0,0.09733586239559415,-0.5957763666735494,0.1164567248733839,-0.5437475952387095,-0.0035574840161463365,-0.007913643881140842,1.4330710271830986
9767,4.0,300.5311,3258.7237,0.0,0.0,0.0,0.0,0.0,0.09734582920517797,-0.5499349259143514,0.07883092465450652,-0.5194666271298645,0.014911224558873285,-0.02284891438476228,1.4156730163410487
9768,4.0,300.48132999999996,3285.324,0.0,0.0,0.0,0.0,0.0,0.0973557960147618,-0.5531838211674925,0.08021505874160993,-0.5256877091663374,-0.01045051562338559,0.021164186483242583,1.4230775440968186
9769,4.0,300.60152999999997,3460.2354,0.0,0.0,0.0,0.0,0.0,0.09736576282434561,-0.5474758895116635,0.07573424996388853,-0.5800835240272865,-5.972823298996764e-05,0.015895674038030883,1.4699294181207385
9770,4.0,299.65513,3476.5414,0.0,0.0,0.0,0.0,0.0,0.09737572963392943,-0.5788587275714084,0.039408614783077466,-0.5173316686391606,-0.011787368421072688,-0.012976244147655589,1.4334978081252185
9771,4.0,299.60922,3460.0845,0.0,0.0,0.0,0.0,0.0,0.09738569644351325,-0.5891574623828144,0.0926591682547479,-0.5552809955619674,0.017485214185406283,-0.007840938626840393,1.4529676114467385
9772,4.0,299.0513,3045.5735,0.0,0.0,0.0,0.0,0.0,0.09739566325309706,-0.5535308390617405,0.0997095569945671,-0.47195701193603057,0.00938348382927775,0.031612711070181675,1.4115368281078386
9773,4.0,298.79115,2858.4346,0.0,0.0,0.0,0.0,0.0,0.0974056300626809,-0.5029961758268575,0.11893898496836387,-0.4848355625620445,0.006324828714211994,-0.003440280059854207,1.4328362571349287
9774,4.0,299.73304,3217.724,0.0,0.0,0.0,0.0,0.0,0.09741559687226471,-0.5548353479029855,0.13099370246807188,-0.5542661039968054,-0.018659968245345483,-0.002790099052911338,1.4322743086294687
9775,4.0,300.06067,3272.9754,0.0,0.0,0.0,0.0,0.0,0.09742556368184854,-0.5401302822492084,0.07953520541476362,-0.5343077013445645,0.015383078918441683,-0.024551220149016773,1.4200714337001386
9776,4.0,299.7909,3040.3533,0.0,0.0,0.0,0.0,0.0,0.09743553049143236,-0.5494831683572665,0.11516195336559988,-0.48987026045393056,0.008115109817073982,0.02311533127330558,1.4088245602401588
9777,4.0,300.63908,3047.9653,0.0,0.0,0.0,0.0,0.0,0.09744549730101618,-0.5334467224695926,0.1039472404637939,-0.4970058716331605,-0.0024938127673201577,-0.0033922464322386566,1.4205113868935588
9778,4.0,299.50923,3288.4366,0.0,0.0,0.0,0.0,0.0,0.09745546411059999,-0.5793439831767995,0.05953322895522224,-0.47979184674426856,-0.015708115365020283,-0.02003563156161288,1.4030607883713186
9779,4.0,299.57427,3517.0927,0.0,0.0,0.0,0.0,0.0,0.09746543092018381,-0.5685917277531345,0.058445079407830246,-0.5589617076102255,-0.0015716773587124786,-0.0060607457459490345,1.4253119632173386
9780,4.0,300.14624,3299.7914,0.0,0.0,0.0,0.0,0.0,0.09747539772976765,-0.5476366720375315,0.08111572662299892,-0.5365332443942085,-0.007596234978665023,0.03229157749143057,1.4559642986174886
9781,4.0,300.08835,2971.3927,0.0,0.0,0.0,0.0,0.0,0.09748536453935147,-0.4896072511254736,0.10474829572785191,-0.5183702297266585,0.007145114553242903,-0.007009007200435154,1.4608983199794385
9782,4.0,300.20507000000003,2991.0039,0.0,0.0,0.0,0.0,0.0,0.09749533134893529,-0.5286745880761196,0.12959168856970388,-0.5101076007262005,-0.03582381090978487,0.008250889079499352,1.4554754054442385
9783,4.0,301.05762000000004,3289.1088,0.0,0.0,0.0,0.0,0.0,0.0975052981585191,-0.5632676355001874,0.08626846409853452,-0.5228077788046106,0.012042464266248687,-0.008275813208109174,1.4299339035484884
9784,4.0,300.47328,3321.3738,0.0,0.0,0.0,0.0,0.0,0.09751526496810292,-0.6155370639662785,0.11592937885883889,-0.5100070052562725,0.001116173106732709,0.03790906543008347,1.4123746846155287
9785,4.0,299.47117000000003,3064.9283,0.0,0.0,0.0,0.0,0.0,0.09752523177768675,-0.5675675953470605,0.13041880462633387,-0.4945128812196215,0.008279364548384663,0.012066835970903989,1.4188203738016687
9786,4.0,299.801,3046.3538,0.0,0.0,0.0,0.0,0.0,0.09753519858727057,-0.5252494379680835,0.09643180336532801,-0.4971978521296075,-0.02858144268676877,-0.005070100951705006,1.3940974766617087
9787,4.0,299.3363,3227.9046,0.0,0.0,0.0,0.0,0.0,0.09754516539685439,-0.5401812284642366,0.11686237955091888,-0.5578835487088194,0.0027540036392989975,-0.029816405080900072,1.4389224451855886
9788,4.0,300.08154,3434.7436,0.0,0.0,0.0,0.0,0.0,0.09755513220643822,-0.5800223642512504,0.07002858190878293,-0.5340824963773385,0.011089642375712491,0.01946495998604198,1.4305440827587088
9789,4.0,300.09056,3395.5762,0.0,0.0,0.0,0.0,0.0,0.09756509901602203,-0.5802861943122885,0.08791087158312752,-0.5397950383211224,0.006593359445113914,-0.00969631983272726,1.4638334015441086
9790,4.0,300.44335,3228.0488,0.0,0.0,0.0,0.0,0.0,0.09757506582560585,-0.5486526781778034,0.0903275602111361,-0.5229211310932975,-0.012068048831273688,0.0017054790609176784,1.4546975333424685
9791,4.0,301.23773,3382.7312,0.0,0.0,0.0,0.0,0.0,0.09758503263518967,-0.5617429575447135,0.05771608851738444,-0.5242389540408564,0.002204407057858038,-0.0052022453820466455,1.4443925771754487
9792,4.0,300.75522,3430.1335,0.0,0.0,0.0,0.0,0.0,0.09759499944477348,-0.5411061636855204,0.08522263395481912,-0.5867913916768014,-0.0003448715670911737,0.04188802460552616,1.4501082196645385
9793,4.0,300.51919,3255.5365,0.0,0.0,0.0,0.0,0.0,0.09760496625435731,-0.5716033603628594,0.1089786858228589,-0.5269771205810925,0.016105459365235084,0.015779283012293983,1.4407642298923586
9794,4.0,300.20238,3064.6448,0.0,0.0,0.0,0.0,0.0,0.09761493306394113,-0.5353163006266055,0.10313862635398989,-0.4993978004817255,-0.014699564718984086,-0.004683769257552035,1.4295727812128487
9795,4.0,300.29704,2846.2522,0.0,0.0,0.0,0.0,0.0,0.09762489987352496,-0.5264910239781184,0.13453374500494686,-0.47323231890939355,-0.005935364253399844,-0.016956648217740882,1.3902951543364488
9796,4.0,300.08822999999995,3255.1783,0.0,0.0,0.0,0.0,0.0,0.09763486668310878,-0.5848064448634024,0.08452954048891612,-0.48921601499686157,0.003637256385919257,0.015929914798660183,1.4123947469675087
9797,4.0,300.26698,3668.2266,0.0,0.0,0.0,0.0,0.0,0.0976448334926926,-0.6262160918052164,0.10566343282066891,-0.5944966216647485,-0.01061132246725599,-0.007338212765875213,1.4318118612838286
9798,4.0,299.25086,3277.8071,0.0,0.0,0.0,0.0,0.0,0.09765480030227641,-0.5709853385968655,0.1022753676662929,-0.5276615406261396,0.00998208797433038,-0.019391337233775983,1.4443061469419185
9799,4.0,300.0447,3107.9539,0.0,0.0,0.0,0.0,0.0,0.09766476711186023,-0.5165266819647145,0.09005367161635541,-0.5182673747090075,0.014834803209831089,-0.028383540756737373,1.4589502453371788
9800,4.0,299.66188999999997,3262.6490000000003,0.0,0.0,0.0,0.0,0.0,0.09767473392144407,-0.5543286215279755,0.11398768769220889,-0.5514228938187025,0.021070998884795678,0.00869153715983793,1.4707543050271485
9801,4.0,299.62426,3416.4547,0.0,0.0,0.0,0.0,0.0,0.09768470073102789,-0.5564879081535805,0.05089014886021665,-0.5329191535400255,0.002397001887840668,-0.024556575175795275,1.4652344224573788
9802,4.0,299.85463,3341.4379,0.0,0.0,0.0,0.0,0.0,0.09769466754061171,-0.5893365239404864,0.09437978648805971,-0.5207569606022104,0.006196695639691244,0.0034610464180036865,1.4567507833451085
9803,4.0,300.10612000000003,3087.4277,0.0,0.0,0.0,0.0,0.0,0.09770463435019552,-0.5467810836530914,0.11888582986811788,-0.5106056840778574,-0.0015899789859937085,0.024326711284609476,1.4440758351941887
9804,4.0,299.33608,2921.7822,0.0,0.0,0.0,0.0,0.0,0.09771460115977934,-0.5219286830178506,0.12528564922223087,-0.4915057879703445,0.01100018759063399,0.06436331010866414,1.4299448466495688
9805,4.0,300.87018,3286.8812,0.0,0.0,0.0,0.0,0.0,0.09772456796936316,-0.5736564685104855,0.13823621153285187,-0.5637095746638034,-0.02253159687744548,0.018778638070557283,1.4648603305204586
9806,4.0,300.69563999999997,3585.5815,0.0,0.0,0.0,0.0,0.0,0.09773453477894697,-0.5799103494526954,0.07697408913075113,-0.5869909715489985,-0.016163137613927486,-0.004526989069579036,1.4225806462477786
9807,4.0,300.796,3281.3281,0.0,0.0,0.0,0.0,0.0,0.09774450158853082,-0.5515037207791795,0.08150322689849222,-0.5274413208494055,0.008169375540754593,-0.012707387352871488,1.4261719085772089
9808,4.0,300.27412000000004,2832.0659,0.0,0.0,0.0,0.0,0.0,0.09775446839811464,-0.5108908734510036,0.13558379634857887,-0.48557023981205155,0.01917996617016528,0.022852842755399977,1.4256135064470985
9809,4.0,299.08749,3088.6449,0.0,0.0,0.0,0.0,0.0,0.09776443520769845,-0.5440110605297115,0.08703677821211123,-0.4818966306469945,0.0003493356329242426,0.005136980220580475,1.4408448846003186
9810,4.0,298.60056000000003,3392.39,0.0,0.0,0.0,0.0,0.0,0.09777440201728227,-0.6000333748486835,0.1020197449310649,-0.5331882221040805,-0.01103728369004509,-0.015314456555419185,1.4437613223631487
9811,4.0,299.77304,3208.3203,0.0,0.0,0.0,0.0,0.0,0.09778436882686609,-0.5420078346845084,0.09335324153349761,-0.5265946693308474,-0.00017668335836228984,-0.019069272649740683,1.4640991770453387
9812,4.0,299.20356,3074.4787,0.0,0.0,0.0,0.0,0.0,0.0977943356364499,-0.5085647349314315,0.08146284077600642,-0.5074628558451846,0.02279578664226898,-0.012031249614141887,1.4389104888344086
9813,4.0,299.37674,3312.5677,0.0,0.0,0.0,0.0,0.0,0.09780430244603372,-0.5554617796448095,0.12699640042606888,-0.5784724665007874,-0.009394499073764872,-0.01904092089869258,1.4743850841104786
9814,4.0,300.31993,3569.1885,0.0,0.0,0.0,0.0,0.0,0.09781426925561754,-0.6065088941177674,0.06886346689704503,-0.5472987429966805,0.005074557934919875,-0.004342596093855866,1.4393857031313086
9815,4.0,300.61183,3483.9638,0.0,0.0,0.0,0.0,0.0,0.09782423606520138,-0.5922255127581074,0.1048059293935399,-0.5716184172593454,-0.02130657649329538,0.011801237788441488,1.4459764897317686
9816,4.0,300.11489,3274.6607,0.0,0.0,0.0,0.0,0.0,0.0978342028747852,-0.5922268705132414,0.13387797967272788,-0.5370661936818065,0.0006970048747340253,0.03272347838630586,1.4393453757773287
9817,4.0,299.16021,3060.3174,0.0,0.0,0.0,0.0,0.0,0.09784416968436901,-0.5315095909284125,0.10433036045910489,-0.5030808430052135,-0.013198796426119788,0.00985092832176093,1.4357493511724286
9818,4.0,298.86472000000003,3057.6728,0.0,0.0,0.0,0.0,0.0,0.09785413649395283,-0.5344293724165725,0.13077153725114588,-0.5257983662097585,-0.012852288196672088,-0.030448043914987972,1.4372211982676886
9819,4.0,300.31715,3492.058,0.0,0.0,0.0,0.0,0.0,0.09786410330353665,-0.5910041309550664,0.058737064649396944,-0.5292313791385705,0.01889581132537138,-0.007902927849408253,1.4351244798357587
9820,4.0,301.39858,3342.0491,0.0,0.0,0.0,0.0,0.0,0.09787407011312048,-0.5554789744990065,0.08899213508283992,-0.5494126258853045,0.02999992291251187,-0.006733240546594103,1.4555694350535184
9821,4.0,301.11745,3054.828,0.0,0.0,0.0,0.0,0.0,0.0978840369227043,-0.5405739642029964,0.1074870296881439,-0.49550449842998656,0.02812666159138537,-0.006443979427921254,1.4589829733154087
9822,4.0,299.37959,3342.5456,0.0,0.0,0.0,0.0,0.0,0.09789400373228811,-0.5817518909794415,0.06812127842404674,-0.5024197885074725,-0.013965247172762589,-0.019143755651341583,1.4491447201444485
9823,4.0,298.70592,3559.4732,0.0,0.0,0.0,0.0,0.0,0.09790397054187194,-0.5895287374844564,0.07441551711773974,-0.5668777341489765,0.012545109269855886,0.021060043624714482,1.4467427094573886
9824,4.0,299.49664,3287.0383,0.0,0.0,0.0,0.0,0.0,0.09791393735145576,-0.5331669742494836,0.08021870441546972,-0.5462292980461345,0.011484312408913388,0.0008876885833055422,1.4239751823604088
9825,4.0,299.98472999999996,3174.2752,0.0,0.0,0.0,0.0,0.0,0.09792390416103958,-0.5562629463663784,0.11042527259312589,-0.5190627355075035,0.010374397236123292,0.015701609286128185,1.4322190864990187
9826,4.0,299.10395,2960.325,0.0,0.0,0.0,0.0,0.0,0.0979338709706234,-0.5284731336912375,0.15650514123335485,-0.5278968882268665,0.0006205641726149154,-0.022808892019062377,1.4283807937952087
9827,4.0,299.4961,2965.4813,0.0,0.0,0.0,0.0,0.0,0.09794383778020721,-0.5385603322792665,0.11640097585288188,-0.47927291070555356,-0.014183435383046087,0.006492163827151683,1.4410473319702988
9828,4.0,300.7373,3452.1532,0.0,0.0,0.0,0.0,0.0,0.09795380458979104,-0.5860641820800314,0.1035464696517409,-0.5668506398413025,0.005111531431068875,0.008353102507187031,1.4507413996520289
9829,4.0,301.61779,3606.5239,0.0,0.0,0.0,0.0,0.0,0.09796377139937486,-0.5976787234712974,0.08523960184099373,-0.5838540809619115,-0.03339418611774957,-0.005341397551404895,1.4465790695662386
9830,4.0,300.56408999999996,3248.2836,0.0,0.0,0.0,0.0,0.0,0.09797373820895869,-0.5587738611741865,0.09097813668959301,-0.5196013691281626,-0.00021972652658531979,-0.026812445814182375,1.4606012350501185
9831,4.0,299.67134,3230.2188,0.0,0.0,0.0,0.0,0.0,0.0979837050185425,-0.5957137478173693,0.13488402556451687,-0.5210761343837106,-0.022890812276397277,0.019302152986474183,1.4577376889425087
9832,4.0,299.61028,3546.1093,0.0,0.0,0.0,0.0,0.0,0.09799367182812632,-0.5918746039834755,0.07185751860428494,-0.5579116056040885,0.04163358838616526,5.6824298733371655e-05,1.4939562124419987
9833,4.0,300.2235,3390.2701,0.0,0.0,0.0,0.0,0.0,0.09800363863771014,-0.5978039713161584,0.09595692242771091,-0.5287103963346536,-0.004757794776732786,-0.015507731985493984,1.4805452394184384
9834,4.0,300.73385,3097.2928,0.0,0.0,0.0,0.0,0.0,0.09801360544729396,-0.5236887389715544,0.12434610293450488,-0.5421570256292325,0.019790229480143584,-0.053026750842582855,1.4692803301066786
9835,4.0,299.28628,2954.9621,0.0,0.0,0.0,0.0,0.0,0.0980235722568778,-0.5190741548361305,0.1086103390140059,-0.4877708873067385,0.019385031778403682,-0.006989159252176314,1.4150451052540787
9836,4.0,299.65516,3066.5863,0.0,0.0,0.0,0.0,0.0,0.09803353906646162,-0.5473948396361645,0.14068395019692487,-0.5254547629683475,0.02081813421633988,0.001878839769552048,1.4471055543181985
9837,4.0,299.79954,3317.437,0.0,0.0,0.0,0.0,0.0,0.09804350587604543,-0.5760131261230694,0.0952000215632606,-0.5276049202105515,-0.0035960360546261265,0.00885922934211286,1.4316528823431385
9838,4.0,300.2746,3365.5787,0.0,0.0,0.0,0.0,0.0,0.09805347268562925,-0.5633158358074445,0.08182339366509023,-0.5415594309852545,-0.004730621536875996,-0.027827538002864177,1.4326568105422186
9839,4.0,299.84425,3201.3567,0.0,0.0,0.0,0.0,0.0,0.09806343949521307,-0.5344639647749865,0.11652596025271689,-0.5551945045334314,-0.01756393459892538,0.05169427731182795,1.4708563393122185
9840,4.0,299.74915,3074.3609,0.0,0.0,0.0,0.0,0.0,0.0980734063047969,-0.5079600171392505,0.08696659443068461,-0.5135355068745084,-0.0014571342985079585,0.004892075239610235,1.4433328188958587
9841,4.0,299.28321,3424.7847,0.0,0.0,0.0,0.0,0.0,0.09808337311438071,-0.5449769918500416,0.06322577373814803,-0.5592978026683955,-0.02213215038327318,0.022135487015852478,1.4480598332623786
9842,4.0,299.87642999999997,3763.6198,0.0,0.0,0.0,0.0,0.0,0.09809333992396453,-0.6162366827628254,0.061861530763757736,-0.5896712916410255,0.02361595382971318,-0.02843006413507887,1.4611145475507787
9843,4.0,300.45283,3348.2417,0.0,0.0,0.0,0.0,0.0,0.09810330673354836,-0.5983385722014194,0.08337440295091293,-0.5028177019542435,0.013577344636979587,0.03070652908174847,1.4616119520248685
9844,4.0,300.24085,2878.9538,0.0,0.0,0.0,0.0,0.0,0.09811327354313218,-0.5149315121997835,0.15245699430133386,-0.5126555295601615,0.018744043685643082,0.00926918384777222,1.4796963384846586
9845,4.0,299.28328999999997,3127.2558,0.0,0.0,0.0,0.0,0.0,0.098123240352716,-0.5347216545404185,0.10742512010703391,-0.5233111310567875,-0.013165915447124686,-0.015053023844117785,1.4798089105707686
9846,4.0,298.60900000000004,3462.1834,0.0,0.0,0.0,0.0,0.0,0.09813320716229981,-0.5502844870663505,0.08300323728028172,-0.5851360551209325,-0.01189826256501709,-0.026784878318711677,1.4507176895996885
9847,4.0,298.91503,3427.9919,0.0,0.0,0.0,0.0,0.0,0.09814317397188363,-0.5823130390173225,0.11158840264791789,-0.5712992941403504,-0.020591153021688582,0.011593994705738188,1.4558667226328585
9848,4.0,299.1232,3166.4949,0.0,0.0,0.0,0.0,0.0,0.09815314078146746,-0.5679300855703354,0.0988043446864796,-0.49340964437824053,0.0053874800646278856,-0.03003690248816147,1.4460629199652988
9849,4.0,298.27487,3054.7670000000003,0.0,0.0,0.0,0.0,0.0,0.09816310759105128,-0.5827410865220675,0.15433469872414884,-0.5001665026700906,-0.023937985989745277,-0.005143499978348925,1.4573931839085086
9850,4.0,299.24641,3452.1139,0.0,0.0,0.0,0.0,0.0,0.09817307440063511,-0.5801815762394634,0.06263470341156394,-0.5318095433555154,-0.019319153296651983,-0.012344612406318387,1.4313281356860885
9851,4.0,299.13784,3596.0566,0.0,0.0,0.0,0.0,0.0,0.09818304121021892,-0.5961677851871795,0.07369322482370502,-0.5706368717549745,0.026221936828153675,0.05570897381829764,1.4684325437480088
9852,4.0,300.21685,3302.0818,0.0,0.0,0.0,0.0,0.0,0.09819300801980274,-0.5174717099354815,0.10803195559192388,-0.5943106396088934,-0.0016902949002191184,0.01082150194874909,1.4721159105115287
9853,4.0,300.02202,2865.8184,0.0,0.0,0.0,0.0,0.0,0.09820297482938656,-0.4839600334156365,0.09802936845349541,-0.48520657421866054,0.028304558924692472,-0.0012519698983848087,1.4460882512177986
9854,4.0,299.89734,2939.3963,0.0,0.0,0.0,0.0,0.0,0.09821294163897037,-0.5164162275713136,0.12200955833640588,-0.4990964193719815,-0.02316793111249678,-0.024684147416385676,1.4404284388092186
9855,4.0,299.40192,3420.8423,0.0,0.0,0.0,0.0,0.0,0.09822290844855422,-0.6150411185723323,0.10261694440750391,-0.5274264564704385,0.017861209006014084,0.03763217660175666,1.4273579178192588
9856,4.0,300.31442999999996,3416.1220000000003,0.0,0.0,0.0,0.0,0.0,0.09823287525813804,-0.5799829994848654,0.07570017436302552,-0.5341329562323185,0.002119265273155198,-0.0054646583114947855,1.4338782835377686
9857,4.0,300.68235,3065.9636,0.0,0.0,0.0,0.0,0.0,0.09824284206772185,-0.5241578737678545,0.11492975697268389,-0.5227482706262375,-0.01117459630384679,0.0009999144621213741,1.4284002481971285
9858,4.0,301.23382000000004,3163.6202,0.0,0.0,0.0,0.0,0.0,0.09825280887730567,-0.5094784230766055,0.08651773679538582,-0.5387008700681365,0.005223262924895914,-0.03370003363393437,1.4354778001456285
9859,4.0,300.82026,3634.2372,0.0,0.0,0.0,0.0,0.0,0.09826277568688949,-0.5924138556866955,0.06821884832917613,-0.5805223626455964,-0.011685520574021089,0.007184404339120503,1.4570769485522985
9860,4.0,300.1549,3752.4384,0.0,0.0,0.0,0.0,0.0,0.0982727424964733,-0.6321253055934104,0.06813533726918423,-0.5766575937166735,-0.0020930158134145776,-0.015083201471846086,1.4840772266170186
9861,4.0,299.92204,3386.1890000000003,0.0,0.0,0.0,0.0,0.0,0.09828270930605712,-0.5951778297069784,0.08621901952015473,-0.5203580744353434,-0.012139575169082789,-0.026948455388355476,1.4703012809074385
9862,4.0,299.82319,3055.8545,0.0,0.0,0.0,0.0,0.0,0.09829267611564094,-0.5353915344465305,0.13309951988589985,-0.5266114386200025,-0.005313407733292515,-0.0034466899813118167,1.4668098237128586
9863,4.0,299.98103,3027.7585,0.0,0.0,0.0,0.0,0.0,0.09830264292522478,-0.5331198074573285,0.10606346396014889,-0.4933066272405735,-0.0025263388048052276,0.044813661666014054,1.4625063478881384
9864,4.0,299.96295,3364.0377,0.0,0.0,0.0,0.0,0.0,0.0983126097348086,-0.5649660554503084,0.09626013144063532,-0.5538775225834555,-0.006684802328213623,0.038394411214733366,1.4464190773754486
9865,4.0,298.79632000000004,3410.1820000000002,0.0,0.0,0.0,0.0,0.0,0.09832257654439241,-0.5879607836172114,0.09650104685066181,-0.5451504400021594,-0.00976155479934045,0.0056028470826579545,1.4435894751461884
9866,4.0,299.73975,2961.8279,0.0,0.0,0.0,0.0,0.0,0.09833254335397623,-0.5084858838086495,0.09630769340032931,-0.48814354042851654,0.009456786495837161,-0.02014022632968558,1.4181974276401885
9867,4.0,300.51878999999997,2859.6746,0.0,0.0,0.0,0.0,0.0,0.09834251016356005,-0.5079727435605065,0.13551909019719288,-0.49681599869692156,-0.003924110022354507,0.006321645082397794,1.4358461165569787
9868,4.0,301.29717999999997,3568.2813,0.0,0.0,0.0,0.0,0.0,0.09835247697314387,-0.5783791765640804,0.06609510550382904,-0.5723843330099354,-0.024557788036164978,-0.006466139207608254,1.4311093749894988
9869,4.0,300.05253,3696.6059,0.0,0.0,0.0,0.0,0.0,0.09836244378272768,-0.5929599569605914,0.04344275150596576,-0.5741586757900494,-0.03096327247158707,-0.015352921555715384,1.4532896223285185
9870,4.0,300.31068,3236.9323,0.0,0.0,0.0,0.0,0.0,0.09837241059231153,-0.5245726476962895,0.1022404409353459,-0.5616143659745224,-0.0046037735674570755,-0.00911249616953335,1.4355612919538685
9871,4.0,300.64407,3028.3295,0.0,0.0,0.0,0.0,0.0,0.09838237740189534,-0.5331678253795675,0.08695771937305873,-0.4743264567648765,0.024275443869299775,-0.0026145299656840175,1.4687662070059384
9872,4.0,300.15136,3080.9441,0.0,0.0,0.0,0.0,0.0,0.09839234421147916,-0.5415367544480165,0.1159180709877229,-0.5109113917655285,0.011440583574347688,-0.0006735068753749533,1.4512890613310787
9873,4.0,299.07974,3246.335,0.0,0.0,0.0,0.0,0.0,0.09840231102106298,-0.5701626403106715,0.09312494716671672,-0.5097670980300956,0.01048795825433089,-0.035861942550798165,1.4466149386197786
9874,4.0,298.85547,3247.6005,0.0,0.0,0.0,0.0,0.0,0.0984122778306468,-0.5509211526341844,0.08455006184319143,-0.5208183838232725,0.013411385416350688,0.01050627882938899,1.4242208955096587
9875,4.0,299.48091,3019.2975,0.0,0.0,0.0,0.0,0.0,0.09842224464023062,-0.5458904570801935,0.12420590965066888,-0.4961065108444005,0.0005026000659652645,0.031205204171463868,1.4538256316314186
9876,4.0,300.08191,2856.4838,0.0,0.0,0.0,0.0,0.0,0.09843221144981444,-0.49820677565168053,0.1099766257138479,-0.4800695887291795,-0.0020072741846525383,0.024982398596570775,1.4082076935792787
9877,4.0,301.29537,3327.3173,0.0,0.0,0.0,0.0,0.0,0.09844217825939826,-0.6051837453719854,0.12011942133486389,-0.5263570419173955,-0.027256481392255272,-0.014463969885232686,1.4565299961483187
9878,4.0,299.84002000000004,3734.2482,0.0,0.0,0.0,0.0,0.0,0.09845214506898209,-0.5971373338103664,0.08461858490770412,-0.6225994475607814,-0.008215495442906272,-0.01229932721959909,1.4470435434120787
9879,4.0,300.07027,3386.1676,0.0,0.0,0.0,0.0,0.0,0.0984621118785659,-0.5648359642699694,0.0943860807976809,-0.5588605143227385,0.04132249628746286,-0.0073262615822707235,1.4790154344174586
9880,4.0,300.43656,3054.9412,0.0,0.0,0.0,0.0,0.0,0.09847207868814972,-0.5096306537716294,0.12822228105955388,-0.5472174600736585,-0.01019991252915299,0.003923404800284906,1.4621945708323685
9881,4.0,300.52731,3237.6714,0.0,0.0,0.0,0.0,0.0,0.09848204549773354,-0.5647392799454275,0.0983841904000136,-0.5178161744394775,0.014689435257734385,-0.03507855026248336,1.4796012956252786
9882,4.0,299.93101,3200.8219,0.0,0.0,0.0,0.0,0.0,0.09849201230731736,-0.5568905230808155,0.0991680457436241,-0.5152474537134645,-0.028906897605638675,0.016545567585920382,1.4353004813781287
9883,4.0,299.74515,3164.6994,0.0,0.0,0.0,0.0,0.0,0.09850197911690119,-0.5815012433022044,0.12078105338516189,-0.5012694152714395,0.022309353640261778,-0.007662862860190682,1.4690970331635884
9884,4.0,299.33518,3186.6259,0.0,0.0,0.0,0.0,0.0,0.098511945926485,-0.5262054394374335,0.05876402115505734,-0.5012132812158996,-0.01013116634696827,-0.014624159659792186,1.4005752858760185
9885,4.0,299.39051,3142.4159999999997,0.0,0.0,0.0,0.0,0.0,0.09852191273606883,-0.5450893207561275,0.1036481695642779,-0.5137748466806296,0.0028036949440781475,-0.02834836983251627,1.4480425066856686
9886,4.0,299.32307000000003,3324.1894,0.0,0.0,0.0,0.0,0.0,0.09853187954565265,-0.5402834957968295,0.08340056709499512,-0.5535876418623464,-0.014464012441736885,0.006192650238666994,1.4194745280662286
9887,4.0,299.57496000000003,3588.3426,0.0,0.0,0.0,0.0,0.0,0.09854184635523647,-0.5973947297332693,0.06358595577769524,-0.5569577826224534,0.015810365472361584,-0.008184085804381383,1.4467436213824785
9888,4.0,299.5726,3484.2646,0.0,0.0,0.0,0.0,0.0,0.09855181316482028,-0.5788781414433245,0.09457481180105722,-0.5748261137634204,-0.013679609943072386,0.012547409347582887,1.4716591373664487
9889,4.0,300.47979,3207.9675,0.0,0.0,0.0,0.0,0.0,0.0985617799744041,-0.5979910780796244,0.13224145917121588,-0.5093923981431155,0.029720639774198768,-0.018040828864491182,1.4860288476346286
9890,4.0,301.23452000000003,3228.1556,0.0,0.0,0.0,0.0,0.0,0.09857174678398795,-0.5420019071714235,0.11890951965545588,-0.5581862977061984,-0.01206695350791559,0.03693723902067166,1.4823443662959985
9891,4.0,300.37492000000003,3363.3063,0.0,0.0,0.0,0.0,0.0,0.09858171359357176,-0.5705695007558255,0.11957182045081988,-0.5713634430041815,0.02239671403738358,0.0015587206257087485,1.4966140687793086
9892,4.0,300.62494,3380.3352,0.0,0.0,0.0,0.0,0.0,0.09859168040315558,-0.5468676962716396,0.08562777187480311,-0.5662975674067184,-0.01956633363204678,-0.0013225102425215988,1.4813404380969184
9893,4.0,300.10548,3303.9324,0.0,0.0,0.0,0.0,0.0,0.0986016472127394,-0.5654629532993485,0.1046010806208229,-0.5434510979944475,-0.0033196425029482068,-0.021479966890157683,1.4672182648281684
9894,4.0,300.05521,3254.6090000000004,0.0,0.0,0.0,0.0,0.0,0.09861161402232321,-0.5725975613609795,0.1163178589471789,-0.5330401558669675,0.0005384492699358055,0.005395933812862205,1.4558077514770387
9895,4.0,300.34761000000003,3364.6208,0.0,0.0,0.0,0.0,0.0,0.09862158083190704,-0.6075742050079055,0.10410763795462388,-0.5192941415653415,0.019726631824366982,0.005062995535378756,1.4455435279640385
9896,4.0,300.02886,3613.4055,0.0,0.0,0.0,0.0,0.0,0.09863154764149086,-0.5917073265244664,0.08693360300742861,-0.5936113247873764,-0.006689438960671223,0.00951136115947326,1.4503708540904587
9897,4.0,299.13876,3448.0338,0.0,0.0,0.0,0.0,0.0,0.09864151445107468,-0.5920161043599405,0.0929189554478869,-0.5490190390164604,0.021234374317669582,-0.02922812727159157,1.4635662074927385
9898,4.0,299.76219,3182.6323,0.0,0.0,0.0,0.0,0.0,0.09865148126065851,-0.5280906013809845,0.1153360094677779,-0.5546861366932595,-0.013433100379243786,0.015250981502904685,1.4865539138364485
9899,4.0,299.85345,3211.6586,0.0,0.0,0.0,0.0,0.0,0.09866144807024232,-0.5476042581668324,0.10033248593079541,-0.5289922419824695,0.01026798571062129,-0.021761676762460276,1.4884338980719884
9900,4.0,299.50581,3468.618,0.0,0.0,0.0,0.0,0.0,0.09867141487982614,-0.5821087677971625,0.06822184957597234,-0.5404863484668495,-0.015397196532084984,0.004623962980999615,1.4722143984212486
9901,4.0,299.5443,3624.1674,0.0,0.0,0.0,0.0,0.0,0.09868138168940996,-0.6298720906835354,0.07783754844196793,-0.5496218417659525,-0.0032802091395314373,-0.012741196468958188,1.4578671823052884
9902,4.0,299.84119,3381.3625,0.0,0.0,0.0,0.0,0.0,0.09869134849899378,-0.5656008870354614,0.07409811145766423,-0.5363469988933275,0.011743806772773488,0.04867609201370625,1.4234674427352987
9903,4.0,300.51855,3071.505,0.0,0.0,0.0,0.0,0.0,0.0987013153085776,-0.5371527455053484,0.1172490661865819,-0.5137571654663845,-0.017055094584206783,0.03282356520468367,1.4480868870400485
9904,4.0,300.48132999999996,3066.0618,0.0,0.0,0.0,0.0,0.0,0.09871128211816142,-0.5024616458691035,0.12298768918793987,-0.5525322810881904,-0.014462581732595686,0.02125864976356538,1.4482480951309589
9905,4.0,300.28071,3338.7741,0.0,0.0,0.0,0.0,0.0,0.09872124892774525,-0.5532609193676015,0.08970981303591921,-0.5513528579717905,-0.0075431709696030125,-0.013710187804590187,1.4637238692082986
9906,4.0,298.76447,3255.185,0.0,0.0,0.0,0.0,0.0,0.09873121573732907,-0.5741474185814385,0.12280865802777088,-0.5381562177418835,0.0006562963664639085,0.012010190224063489,1.4645876649185485
9907,4.0,299.34021,3096.1453,0.0,0.0,0.0,0.0,0.0,0.09874118254691289,-0.5695502015527284,0.13494363506789986,-0.5065442939670295,0.007899517148246642,-0.03053975419478907,1.4742617715733086
9908,4.0,299.12474,3338.0069,0.0,0.0,0.0,0.0,0.0,0.0987511493564967,-0.5918114785022454,0.11686831719650488,-0.5397275862619655,-0.004015205563319937,-0.005948478546794124,1.4754405867396485
9909,4.0,298.54593,3731.6663,0.0,0.0,0.0,0.0,0.0,0.09876111616608052,-0.6340167192900783,0.09610503223457821,-0.5964216955297384,0.0015297707531266185,-0.01976178653658648,1.4815901029215586
9910,4.0,300.11385,3700.8427,0.0,0.0,0.0,0.0,0.0,0.09877108297566436,-0.6086354628976435,0.08443176692051661,-0.6007600879529045,0.025842941773999772,0.016712331327128686,1.4909402735193484
9911,4.0,300.32473,3279.526,0.0,0.0,0.0,0.0,0.0,0.09878104978524818,-0.5729760406708325,0.12453678647082388,-0.5484547701682715,-0.0011242134489262289,0.0056669976690141245,1.5043412153669184
9912,4.0,299.94354,3022.0281,0.0,0.0,0.0,0.0,0.0,0.098791016594832,-0.5295321016357495,0.12307518333407488,-0.5121641741891685,0.015205245419890885,-0.0022159713825743482,1.4860956208162186
9913,4.0,300.52293,3240.3466,0.0,0.0,0.0,0.0,0.0,0.09880098340441582,-0.5723095450200545,0.1012341174130295,-0.5139090313913726,-0.006375727205160284,-0.01164782159080049,1.4465127016846886
9914,4.0,300.57992,3426.4197,0.0,0.0,0.0,0.0,0.0,0.09881095021399963,-0.5890917125838254,0.08308479479408083,-0.5355391041910944,-0.0032033689128978973,0.03540708748815746,1.4329680809729386
9915,4.0,299.42739,3175.7354,0.0,0.0,0.0,0.0,0.0,0.09882091702358345,-0.5553355185498485,0.1056896354682549,-0.5156984006704696,0.00018166339141128084,0.004400982705693175,1.4394838870659987
9916,4.0,299.88223999999997,2895.0948,0.0,0.0,0.0,0.0,0.0,0.09883088383316727,-0.4942929856829196,0.14253032492664786,-0.5282738679265715,-0.023320770770830876,0.0018946195186593882,1.4378718061568987
9917,4.0,299.67318,3127.8866,0.0,0.0,0.0,0.0,0.0,0.09884085064275108,-0.5363753597636265,0.1091480201795709,-0.5235720936200424,0.012806378847891186,0.005379178202583555,1.4718128474066186
9918,4.0,299.91024,3585.6779,0.0,0.0,0.0,0.0,0.0,0.09885081745233491,-0.5912505229818834,0.07478374233658074,-0.5734897483390314,-0.001963697945551898,-0.0017666854464582784,1.4705997843868988
9919,4.0,299.49332999999996,3734.563,0.0,0.0,0.0,0.0,0.0,0.09886078426191874,-0.6139657055786975,0.06625916589377054,-0.5875073541974614,-0.0007723253883375812,-0.02175924800197058,1.4846962211031087
9920,4.0,298.35143,3402.218,0.0,0.0,0.0,0.0,0.0,0.09887075107150256,-0.5838437660758934,0.08929355976233823,-0.5396391295282355,-0.01833506858753038,-0.02060400508595698,1.4741076562330986
9921,4.0,298.18497,3232.1852,0.0,0.0,0.0,0.0,0.0,0.09888071788108638,-0.5695469186224045,0.092620756956707,-0.5055774304566075,0.011927855547437688,0.005275513294127625,1.4372421725447586
9922,4.0,299.05871,3361.4518,0.0,0.0,0.0,0.0,0.0,0.0988906846906702,-0.5668541862166524,0.08395595581930772,-0.5388991833777085,0.010948234205006591,0.026205157406497676,1.4499340419723488
9923,4.0,298.85319,3254.2961,0.0,0.0,0.0,0.0,0.0,0.09890065150025401,-0.5859764954163775,0.1134492871190729,-0.5166975564615786,-0.00934852487697757,-0.009968041997469151,1.4679541883757985
9924,4.0,298.87973,3183.4592,0.0,0.0,0.0,0.0,0.0,0.09891061830983783,-0.5489912759637204,0.12913742828487187,-0.5478382581449265,-0.02040831406764378,-0.02846289546481907,1.4879416611734086
9925,4.0,300.07525,3092.6420000000003,0.0,0.0,0.0,0.0,0.0,0.09892058511942167,-0.5418404153704854,0.12782324290517189,-0.5260687925289474,0.007060848925901533,-0.0077903565738983325,1.4540480400283686
9926,4.0,300.71241000000003,3272.6699,0.0,0.0,0.0,0.0,0.0,0.09893055192900549,-0.5670049274340295,0.1055741654868589,-0.5333791690854255,0.029103735623065074,0.02048379005434268,1.4705546947574486
9927,4.0,300.39421,3708.4339,0.0,0.0,0.0,0.0,0.0,0.0989405187385893,-0.6151733882403864,0.08445244330205721,-0.5965503580274364,0.0036348291453047066,0.019108724555634282,1.4394934116169387
9928,4.0,300.13192999999995,3791.8966,0.0,0.0,0.0,0.0,0.0,0.09895048554817312,-0.6314816688648884,0.06673768439924664,-0.5878979114485064,0.016980457568590682,0.003014596771567537,1.4785414360206788
9929,4.0,299.9337,3407.1175,0.0,0.0,0.0,0.0,0.0,0.09896045235775694,-0.6141131638657504,0.1030127198965639,-0.5245782003068374,-0.008108840129430212,0.016346735492297187,1.4627829651654385
9930,4.0,300.30062000000004,3291.5824,0.0,0.0,0.0,0.0,0.0,0.09897041916734077,-0.5632039020688975,0.09830757957320271,-0.5356625281857754,0.0029579730122542072,-0.003681000216586436,1.4893521053126086
9931,4.0,298.72764,3267.7216,0.0,0.0,0.0,0.0,0.0,0.09898038597692459,-0.5552990719437515,0.0898296085819921,-0.5278363262683895,-0.017784012520645383,-0.024975286594118875,1.4665702913892185
9932,4.0,298.508,3335.3136,0.0,0.0,0.0,0.0,0.0,0.0989903527865084,-0.5578653811345264,0.0992362212633525,-0.5552229059337345,-0.009893289370016642,-0.04039427509610456,1.4620780470708685
9933,4.0,298.7094,3224.0278,0.0,0.0,0.0,0.0,0.0,0.09900031959609223,-0.5252654169221604,0.07500765743642944,-0.5297661928063525,0.026711700383239577,0.0037422631414826164,1.4138390336600486
9934,4.0,299.73786,2797.5038,0.0,0.0,0.0,0.0,0.0,0.09901028640567605,-0.5101091408663525,0.12427364541985389,-0.46453579595111355,0.01905223180955888,0.01939575601746208,1.4265029373848788
9935,4.0,300.14482999999996,2962.163,0.0,0.0,0.0,0.0,0.0,0.09902025321525987,-0.5468703307218994,0.13953242185577788,-0.4930856677912665,-0.010667019812002888,0.004203948624372426,1.4743269235547385
9936,4.0,299.06681000000003,3533.1948,0.0,0.0,0.0,0.0,0.0,0.09903022002484368,-0.5935418563605204,0.09067818324923992,-0.5711393019495605,-0.009729684233345071,-0.03039334664808977,1.4752620520720288
9937,4.0,299.16957,3791.1455,0.0,0.0,0.0,0.0,0.0,0.0990401868344275,-0.6225614000195264,0.08917851635923432,-0.6190306793835715,-0.037896574082850666,0.015250091869316884,1.4833963225498186
9938,4.0,300.453,3576.6568,0.0,0.0,0.0,0.0,0.0,0.09905015364401133,-0.5827450888599625,0.08789019824133723,-0.5923594745538284,0.024856005779096774,0.0006581484559241953,1.4838312094927386
9939,4.0,299.37178,3262.5799,0.0,0.0,0.0,0.0,0.0,0.09906012045359515,-0.5548063385526225,0.11301834171904189,-0.5499548464113175,-0.0006363661321644473,0.0065814240682109835,1.4798628154760884
9940,4.0,298.97912,3450.9456,0.0,0.0,0.0,0.0,0.0,0.09907008726317898,-0.6078145580641264,0.09929108267676691,-0.5404778067685064,0.0022721913617228277,-0.006580689563213493,1.4696569551688485
9941,4.0,300.94795,3575.2107,0.0,0.0,0.0,0.0,0.0,0.0990800540727628,-0.6371089863427614,0.07782927120190102,-0.5274950737672105,-0.014518675258131686,0.015386479385777287,1.4744237902642987
9942,4.0,300.45862,3227.8765,0.0,0.0,0.0,0.0,0.0,0.09909002088234661,-0.5565062277153884,0.09056101911367671,-0.5152486392160814,0.017228479914818587,0.015179045812055186,1.4491810958230384
9943,4.0,300.08597000000003,2872.4501,0.0,0.0,0.0,0.0,0.0,0.09909998769193043,-0.49372822034218156,0.12466791116626488,-0.5040927860125846,-0.012356430955484788,-0.009045941647314931,1.4659645704794386
9944,4.0,300.33429,3060.2892,0.0,0.0,0.0,0.0,0.0,0.09910995450151425,-0.4898591147028305,0.09681786786542959,-0.5372102575810245,0.03336097583247197,-0.016888998574814382,1.4410223046928288
9945,4.0,301.32285,3649.9192,0.0,0.0,0.0,0.0,0.0,0.09911992131109809,-0.5662156562686345,0.06502542345275965,-0.6082940482764484,-0.005747121839221765,0.017265585133480584,1.4360209021992287
9946,4.0,301.84506,3718.5574,0.0,0.0,0.0,0.0,0.0,0.09912988812068191,-0.6212739948399694,0.06339503108785244,-0.5724696385358544,0.02778194782786477,-0.01113193847463679,1.4546384608616385
9947,4.0,300.81493,3258.9949,0.0,0.0,0.0,0.0,0.0,0.09913985493026573,-0.5605244635044575,0.09694913036288422,-0.5270777464485235,-0.03521538766198817,0.004485144778874325,1.4711727773184486
9948,4.0,299.23438,3128.7356,0.0,0.0,0.0,0.0,0.0,0.09914982173984954,-0.5601326903532925,0.11949701219593688,-0.5104218095822105,0.0005560629105316365,-0.008402256789413181,1.4912164854966086
9949,4.0,300.14354,3593.5315,0.0,0.0,0.0,0.0,0.0,0.09915978854943336,-0.5979860219616254,0.06073471559254975,-0.5550925310433674,-0.006797355466546754,0.044540812665835955,1.4618720533255385
9950,4.0,300.96226,3727.7655,0.0,0.0,0.0,0.0,0.0,0.09916975535901719,-0.6059095161536134,0.06808139993986104,-0.5953195023359604,-0.002358644292055068,-0.0011664446998441288,1.4785677805232786
9951,4.0,299.57441,3307.5676,0.0,0.0,0.0,0.0,0.0,0.099179722168601,-0.5308554062663495,0.08434974533817172,-0.5589123015353494,-0.003207345108940317,-0.02185891128180658,1.4587774861951286
9952,4.0,298.62074,3049.0325,0.0,0.0,0.0,0.0,0.0,0.09918968897818482,-0.5459070439843305,0.11371857859814989,-0.4946413005372955,-0.015977500063106487,-0.02854688579210827,1.4613644150254386
9953,4.0,299.68341000000004,3336.5165,0.0,0.0,0.0,0.0,0.0,0.09919965578776865,-0.5677898314914935,0.10491704239950589,-0.5513449140910065,0.014166595166384088,0.02357260192418468,1.4645802681928186
9954,4.0,300.46423,3519.8876,0.0,0.0,0.0,0.0,0.0,0.09920962259735247,-0.6287053534583874,0.09315988099041442,-0.5344124714049044,0.006049892722802925,-0.02260681549861898,1.4602733473177587
9955,4.0,300.65747000000005,3389.9013,0.0,0.0,0.0,0.0,0.0,0.09921958940693629,-0.5868780752228565,0.11193166138429489,-0.5554989355259765,-0.025714625807835977,-0.0058093951771176645,1.4943501640808785
9956,4.0,300.1385,3157.3079,0.0,0.0,0.0,0.0,0.0,0.0992295562165201,-0.5326363655696165,0.11578689562977688,-0.5428932835493955,0.008138231677730931,-0.01229251007292629,1.4723565574102786
9957,4.0,299.92902000000004,3321.6426,0.0,0.0,0.0,0.0,0.0,0.09923952302610392,-0.5487670639815925,0.09879627110968281,-0.5597256272581185,0.019875942332602783,0.03311178318237857,1.4883757375162485
9958,4.0,300.66806,3803.9742,0.0,0.0,0.0,0.0,0.0,0.09924948983568775,-0.6231954514021024,0.05359446474111185,-0.5867121859164844,-0.002879785061662657,-0.012605580035823887,1.4645812814429187
9959,4.0,300.43911,3611.8778,0.0,0.0,0.0,0.0,0.0,0.09925945664527157,-0.6013424838453825,0.06781530425159943,-0.5643934779512995,0.012871894586107088,-0.026472436570876074,1.4820862914955286
9960,4.0,300.0742,3134.8951,0.0,0.0,0.0,0.0,0.0,0.0992694234548554,-0.5487713702945175,0.08441338352395232,-0.48857184124578656,-0.010815146844121888,-0.005206488974790455,1.4366394913852787
9961,4.0,300.03802,2974.9706,0.0,0.0,0.0,0.0,0.0,0.09927939026443922,-0.5175761962857934,0.11413557154430388,-0.5008761526426275,0.02100133287417018,0.01991990320144138,1.4643032456154788
9962,4.0,299.63653999999997,3079.7722,0.0,0.0,0.0,0.0,0.0,0.09928935707402303,-0.5067677662765845,0.07773271859987202,-0.5071388083307035,-0.012788640891640588,-0.005329953499475454,1.4372915178246286
9963,4.0,299.53206,3235.5242,0.0,0.0,0.0,0.0,0.0,0.09929932388360685,-0.5300890244207135,0.1033791212652249,-0.5568086423402345,-0.017753841985667783,0.012540495942150589,1.4714229487681385
9964,4.0,299.83119,3253.5838,0.0,0.0,0.0,0.0,0.0,0.09930929069319067,-0.5526305967453934,0.0947609296324256,-0.5311385792717964,-0.008198685218447231,0.003953228195778246,1.4809310850565185
9965,4.0,299.79945,3242.9857,0.0,0.0,0.0,0.0,0.0,0.09931925750277451,-0.5460557688340084,0.09096751174904441,-0.5306984132958555,0.019632314452058583,0.03735111622276817,1.4619824975864384
9966,4.0,299.40806000000003,3402.0928,0.0,0.0,0.0,0.0,0.0,0.09932922431235833,-0.6192167019694305,0.12140727234446488,-0.5363418515828194,0.006283906278448264,-0.008419848128374312,1.4847454650579686
9967,4.0,298.38689,3734.8116,0.0,0.0,0.0,0.0,0.0,0.09933919112194214,-0.6295564126148804,0.06486726727115084,-0.5706003136913664,0.008489638059487043,-0.003267005781453367,1.4650009696343385
9968,4.0,299.3449,3685.5649,0.0,0.0,0.0,0.0,0.0,0.09934915793152596,-0.6192300363407465,0.07545119348220303,-0.5765408571726525,-0.01020887067328709,-0.0018926949514194483,1.4774264556106385
9969,4.0,300.22938999999997,3191.0538,0.0,0.0,0.0,0.0,0.0,0.09935912474110978,-0.5471568575851774,0.09926690551613081,-0.5221107133983155,0.015953250961713288,0.03787646106836567,1.4671419670956385
9970,4.0,300.15783999999996,2950.2947,0.0,0.0,0.0,0.0,0.0,0.0993690915506936,-0.5273336934237834,0.13625648295746787,-0.5057387297400265,-0.017777856013037784,-0.020631889728708983,1.4822548963121684
9971,4.0,300.03569,3106.116,0.0,0.0,0.0,0.0,0.0,0.09937905836027741,-0.5238158005340945,0.12601454081416688,-0.5463804344310504,-0.025629380063672873,-0.02721644686755418,1.4818687466990588
9972,4.0,300.21046,3262.4361,0.0,0.0,0.0,0.0,0.0,0.09938902516986123,-0.5587805790223495,0.10464458958011691,-0.5375631219283495,0.01059586938998089,-0.00870591649598206,1.4692698936306487
9973,4.0,300.67633,3410.1046,0.0,0.0,0.0,0.0,0.0,0.09939899197944506,-0.5746297458940405,0.08090608213755862,-0.5428629873714055,-0.004244111325211176,0.03169966211426307,1.4527851251037285
9974,4.0,301.28389,3364.7868,0.0,0.0,0.0,0.0,0.0,0.09940895878902888,-0.5560902885493385,0.07696286941239383,-0.5436837503499085,0.016952738085604983,0.0026191076269857973,1.4236456734278886
9975,4.0,299.68203,3233.7575,0.0,0.0,0.0,0.0,0.0,0.0994189255986127,-0.5552188731983365,0.0989842198839819,-0.5267468696283685,-0.008473714023565462,-0.013373691499380589,1.4590960520265686
9976,4.0,299.60397,3654.2398,0.0,0.0,0.0,0.0,0.0,0.09942889240819652,-0.5909652221512264,0.05484083025186855,-0.5746732548533344,0.032304940233749364,0.023147230412953777,1.4586363404561986
9977,4.0,299.91202000000004,3742.0867,0.0,0.0,0.0,0.0,0.0,0.09943885921778034,-0.6098662476616123,0.061476656832523645,-0.5891113189732604,0.005538290081686675,0.005300550501448604,1.4813452003723886
9978,4.0,299.11442,3085.2667,0.0,0.0,0.0,0.0,0.0,0.09944882602736416,-0.5546457992067785,0.12401742486706688,-0.5072156633507886,0.0032057652493843974,-0.02662968589364537,1.4682277659027987
9979,4.0,299.38925,2887.8232,0.0,0.0,0.0,0.0,0.0,0.09945879283694797,-0.5148919447833785,0.13933960036174786,-0.5022737791680626,-0.02445245562201948,-0.03230085987559667,1.4727000491941786
9980,4.0,299.49667,3352.199,0.0,0.0,0.0,0.0,0.0,0.0994687596465318,-0.5823416734651484,0.09266613333593532,-0.5293092372762545,0.017729344638000084,0.02429970411644408,1.4510423349317287
9981,4.0,300.19302999999996,3732.5301,0.0,0.0,0.0,0.0,0.0,0.09947872645611563,-0.6199084883427044,0.061073031694938947,-0.5757604823431355,0.01892150228165688,0.03289741897797247,1.4603187409222385
9982,4.0,300.20018,3576.9734,0.0,0.0,0.0,0.0,0.0,0.09948869326569945,-0.6145969603909974,0.08279034938127132,-0.5555040017764765,0.002262171331483928,-0.0019980631332934783,1.4737655829993386
9983,4.0,299.4935,3201.0933,0.0,0.0,0.0,0.0,0.0,0.09949866007528327,-0.5355468150243554,0.09543796511074382,-0.5329435829999365,-0.012522692124643488,-0.023552133258914577,1.4784720283888286
9984,4.0,299.54976,3212.2519,0.0,0.0,0.0,0.0,0.0,0.09950862688486709,-0.5693005873905934,0.11383858793999388,-0.5209823783519576,-0.007486716625706403,-0.002160862736135548,1.5039378405021087
9985,4.0,300.67181,3696.656,0.0,0.0,0.0,0.0,0.0,0.09951859369445092,-0.5892600944854434,0.05368381009517954,-0.5881148280299144,0.016756950808532286,0.012503171861466988,1.4679484128502287
9986,4.0,300.62446,3833.3947,0.0,0.0,0.0,0.0,0.0,0.09952856050403473,-0.6386916323364564,0.06472192667680685,-0.5912865541554394,-0.028116417632874372,-0.020575875236680783,1.4880497749590786
9987,4.0,300.42393,3248.8791,0.0,0.0,0.0,0.0,0.0,0.09953852731361855,-0.5577423827048875,0.12417377948999789,-0.5540095085414815,-0.0038527386104856964,-0.027593118539228773,1.4811798379560686
9988,4.0,300.20586000000003,2822.1357,0.0,0.0,0.0,0.0,0.0,0.09954849412320238,-0.5205600354452755,0.15305880406572783,-0.4903575526920225,0.014262579335106988,0.008513804074372043,1.4774432755622986
9989,4.0,300.33842999999996,3333.5001,0.0,0.0,0.0,0.0,0.0,0.0995584609327862,-0.5679662889964084,0.1060853400298079,-0.5514198338034005,0.03499158705940077,0.017568821504157683,1.4724382253683386
9990,4.0,299.22642,3822.6111,0.0,0.0,0.0,0.0,0.0,0.09956842774237001,-0.6315013664468324,0.057929239861420845,-0.5884062083611714,0.004607275663777706,-0.017045957094804984,1.4581355922567787
9991,4.0,299.11073999999996,3493.495,0.0,0.0,0.0,0.0,0.0,0.09957839455195383,-0.5577407311072244,0.07403338808102652,-0.5782278983241504,0.015796518396494985,-0.020727401722885282,1.4649563866299384
9992,4.0,299.16327,2986.0878,0.0,0.0,0.0,0.0,0.0,0.09958836136153765,-0.5079642626571695,0.1063020134311919,-0.5060338793616556,0.012558488224176288,0.031702517453044865,1.4380798264024286
9993,4.0,300.51491,3185.2861,0.0,0.0,0.0,0.0,0.0,0.09959832817112148,-0.5414167045761685,0.0891557921992416,-0.5159865082039036,0.02163036968200128,0.013654121636806885,1.4690746403363786
9994,4.0,300.54347,3560.8396,0.0,0.0,0.0,0.0,0.0,0.0996082949807053,-0.6050597336922464,0.0898482321188301,-0.5671948105027693,-0.03710598163932526,-0.012515816209464887,1.4591813676849885
9995,4.0,300.44571,3672.3064,0.0,0.0,0.0,0.0,0.0,0.09961826179028913,-0.6237785059071455,0.07460047984399412,-0.5671114098870385,-0.004141496042533836,-0.01922322283018438,1.5175275508433086
9996,4.0,300.06822999999997,3409.3949,0.0,0.0,0.0,0.0,0.0,0.09962822859987294,-0.5726685395304845,0.08943600752764673,-0.5531383971655094,0.0016534682240096083,0.031857630844603364,1.4897603437778986
9997,4.0,300.37953,3190.7308,0.0,0.0,0.0,0.0,0.0,0.09963819540945676,-0.5442843847441865,0.1151659253059919,-0.5407840312137285,0.042076358414863256,0.015066013710399785,1.5017576302619384
9998,4.0,300.06763,3454.994,0.0,0.0,0.0,0.0,0.0,0.09964816221904058,-0.6043779886274634,0.1117205405934589,-0.5575744668983155,-0.02091740232863688,-0.017529900541316486,1.4830625579668786
9999,4.0,300.77946000000003,3843.1479999999997,0.0,0.0,0.0,0.0,0.0,0.09965812902862439,-0.6612976372349954,0.09277262592144532,-0.5996960132278883,0.004659256812457845,-0.04635208942534505,1.4864191515731486
10000,4.0,299.95443,3539.3026,0.0,0.0,0.0,0.0,0.0,0.09966809583820824,-0.6252650957913604,0.11995393732853189,-0.5705484555512484,-0.01055012013471579,0.01113543621398199,1.4942339442944086
10001,4.0,300.57964,3228.9616,0.0,0.0,0.0,0.0,0.0,0.09967806264779205,-0.5660653912788045,0.1086490553003269,-0.5241073733828705,0.018290159316598182,0.021398786305395778,1.4682095274009987
10002,4.0,301.04292999999996,3252.9563,0.0,0.0,0.0,0.0,0.0,0.09968802945737587,-0.5597623170442395,0.12657098737158387,-0.5556261693410335,-0.03521735032743187,0.000988087604304154,1.4941232973834884
10003,4.0,300.00627000000003,3423.7763,0.0,0.0,0.0,0.0,0.0,0.09969799626695969,-0.5667226156911674,0.10482104708503191,-0.5788409348996524,-0.007776900207270293,-0.027783245801242876,1.4891741785950485
10004,4.0,299.69302000000005,3536.5087,0.0,0.0,0.0,0.0,0.0,0.0997079630765435,-0.5865709591175465,0.07524272132712843,-0.5636820953210915,0.004817408434441195,0.014364613620176986,1.5059862269042685
10005,4.0,299.57416,3324.5587,0.0,0.0,0.0,0.0,0.0,0.09971792988612733,-0.5579635448042145,0.10795061187389589,-0.5605698773739395,0.015391228488995984,-0.007542073417094692,1.4704167914188384
10006,4.0,298.68971,3193.4896,0.0,0.0,0.0,0.0,0.0,0.09972789669571115,-0.5690198664503884,0.1095531479670539,-0.5112743784813525,-0.021639935776195378,-0.007316597405466942,1.4853875616463383
10007,4.0,299.02629,3308.0865,0.0,0.0,0.0,0.0,0.0,0.09973786350529497,-0.5747357419870015,0.11964959752849588,-0.5504895486215885,-0.026874660383572477,-0.0037456260172395064,1.4653290600167184
10008,4.0,299.72456,3536.9629,0.0,0.0,0.0,0.0,0.0,0.0997478303148788,-0.5805666315424655,0.07121383627950843,-0.5657956235721805,0.03054597048415257,0.046962318284819955,1.4637517335860486
10009,4.0,300.50922,3516.3332,0.0,0.0,0.0,0.0,0.0,0.09975779712446262,-0.5767619990069774,0.07301539495730844,-0.5651308808440754,0.0053737629887491145,0.015452958724838288,1.4833602508462587
10010,4.0,300.71191,3313.3266,0.0,0.0,0.0,0.0,0.0,0.09976776393404643,-0.5791513845977915,0.1223834982858109,-0.5504006561903155,0.006590638159320344,-0.02133532847813298,1.4677536661810087
10011,4.0,301.67411,3283.8764,0.0,0.0,0.0,0.0,0.0,0.09977773074363025,-0.5552865279075134,0.1022483341536249,-0.5451782233199015,-0.008450697338268892,-0.04246278869825096,1.4799618100108587
10012,4.0,301.16409,3480.6695,0.0,0.0,0.0,0.0,0.0,0.09978769755321407,-0.5952511586167154,0.10173378548784291,-0.5645192526862124,0.023379862503412778,0.01064619346944749,1.4849130566245088
10013,4.0,300.60253,3699.1484,0.0,0.0,0.0,0.0,0.0,0.0997976643627979,-0.6031765374538894,0.07158066321321144,-0.5928528766900235,0.025500945547247373,0.0015430976263918787,1.4904906944499785
10014,4.0,300.00266,3519.2457,0.0,0.0,0.0,0.0,0.0,0.09980763117238171,-0.6050167617555053,0.09542358607857472,-0.5601696334519385,-0.005656834466536094,0.016194760136298385,1.4815180608394485
10015,4.0,300.09521,3240.5225,0.0,0.0,0.0,0.0,0.0,0.09981759798196554,-0.5632693884228605,0.13375538654312885,-0.5555239425384445,-0.03119975187267577,-0.007324508152972674,1.5073953538183384
10016,4.0,299.81377000000003,3236.9849,0.0,0.0,0.0,0.0,0.0,0.09982756479154936,-0.5740965128964144,0.12414279430193988,-0.5340088634925715,-0.012503563989255688,-0.0012882472917151086,1.5018814494241586
10017,4.0,299.53592000000003,3508.698,0.0,0.0,0.0,0.0,0.0,0.09983753160113318,-0.5641883556010554,0.06726132698467614,-0.5696295491680594,-0.016549421989300785,-0.023908112337046976,1.4728807116870086
10018,4.0,299.50285,3512.0238,0.0,0.0,0.0,0.0,0.0,0.099847498410717,-0.6184773840339655,0.10913402719568989,-0.5582241729949364,-0.013824916086912989,-0.02999871207864237,1.4763884822081985
10019,4.0,300.30669,3325.3673,0.0,0.0,0.0,0.0,0.0,0.09985746522030081,-0.5528501477770614,0.1039869193377099,-0.5619653963391664,0.004165356157213646,-0.02279897432708358,1.4585157636942987
10020,4.0,300.32505,3187.9529,0.0,0.0,0.0,0.0,0.0,0.09986743202988463,-0.5643293088224665,0.1068805995032939,-0.5116093792294145,0.002985140172610397,0.02940253598480437,1.4922534456489487
10021,4.0,299.93422000000004,3346.1705,0.0,0.0,0.0,0.0,0.0,0.09987739883946847,-0.5553719955534485,0.08971907414183322,-0.5514993536712485,-0.0015961381280515687,0.009809748115171761,1.4704444531465686
10022,4.0,299.92056,3680.7027,0.0,0.0,0.0,0.0,0.0,0.09988736564905229,-0.6428122266506273,0.0940296558895045,-0.5700591368129564,-0.035984695773912966,0.011604165710241988,1.5033988927739186
10023,4.0,299.93746,3607.7082,0.0,0.0,0.0,0.0,0.0,0.0998973324586361,-0.5793991850422474,0.08047368373688422,-0.5977276938486303,-0.013782760829752588,-0.001183279039655549,1.4661354044462984
10024,4.0,300.80396,3116.5575,0.0,0.0,0.0,0.0,0.0,0.09990729926821992,-0.5423724223354905,0.09517055929010292,-0.5001537965138365,-0.006799109301144844,0.013979282713147788,1.4732250140709884
10025,4.0,300.86915,3156.1154,0.0,0.0,0.0,0.0,0.0,0.09991726607780374,-0.5206429800984615,0.1114281267470999,-0.5501654301796005,0.02053594406348988,-0.009140759970472772,1.4691433386931587
10026,4.0,300.21082,3534.1176,0.0,0.0,0.0,0.0,0.0,0.09992723288738756,-0.5959747509106285,0.06942763442022404,-0.5477363859798725,-0.014381900680133087,-0.014613967377036288,1.4873593463409385
10027,4.0,300.12006,3555.5432,0.0,0.0,0.0,0.0,0.0,0.09993719969697137,-0.5965250571724395,0.07279219217228003,-0.5570634646078835,0.01612336450775218,-0.004748169204757816,1.4964488076879985
10028,4.0,300.85643,3320.1479999999997,0.0,0.0,0.0,0.0,0.0,0.0999471665065552,-0.5907574552182214,0.12094143061098987,-0.5394260632972074,0.0020394439634024483,0.028580551026680775,1.4817361122609685
10029,4.0,300.30559,3139.4991,0.0,0.0,0.0,0.0,0.0,0.09995713331613902,-0.5528753979695534,0.12230638995320088,-0.5237603048261175,0.013819640093642286,0.005842282843563425,1.4835724254171985
10030,4.0,299.47823,3410.3818,0.0,0.0,0.0,0.0,0.0,0.09996710012572285,-0.5886604328112615,0.1082105105245459,-0.5562209978122384,0.004024707113482666,0.01152933820360709,1.4693357548871486
10031,4.0,299.28501,3845.2888,0.0,0.0,0.0,0.0,0.0,0.09997706693530667,-0.6248663109495034,0.06601809646972884,-0.6100235547396374,0.006379471772229844,-0.012708751187506088,1.4922157527452287
10032,4.0,299.29174,3624.0395,0.0,0.0,0.0,0.0,0.0,0.09998703374489049,-0.6273222569393864,0.0979774809291245,-0.5722727336439215,-0.014242396406365087,0.014181907401895287,1.4719971575998088
10033,4.0,299.04479,3054.8043,0.0,0.0,0.0,0.0,0.0,0.0999970005544743,-0.5169775681267135,0.12556519479231987,-0.5371718351372324,-0.004583621340193206,0.003816330710542517,1.4662791846354886
10034,4.0,300.03681,3062.619,0.0,0.0,0.0,0.0,0.0,0.10000696736405812,-0.5428047964181625,0.11188688586237588,-0.5000417918477825,-0.016715595005700783,0.0033016590361983765,1.4800794483474686
10035,4.0,300.90144,3469.3294,0.0,0.0,0.0,0.0,0.0,0.10001693417364195,-0.5594455953279814,0.06339623685547144,-0.5585401550386214,-0.0026321798705009275,-0.008672001495259912,1.4558644934826386
10036,4.0,300.50172000000003,3480.0341,0.0,0.0,0.0,0.0,0.0,0.10002690098322578,-0.5741343881851525,0.07135068279826413,-0.5550597625351334,0.0015603770869722286,0.015976587124766385,1.4739087552384686
10037,4.0,299.72664,3060.1036,0.0,0.0,0.0,0.0,0.0,0.1000368677928096,-0.49823398141686553,0.1062628209173239,-0.5382239332460665,0.0005447566707482975,-0.00912215963706206,1.4462220002309987
10038,4.0,300.18507999999997,3049.1293,0.0,0.0,0.0,0.0,0.0,0.10004683460239341,-0.5523789966130624,0.12132461140130688,-0.4958047750971215,-0.006873909754002073,-0.016132136213867884,1.4907928456297985
10039,4.0,300.77952999999997,3513.9154,0.0,0.0,0.0,0.0,0.0,0.10005680141197723,-0.5840878580249835,0.07963460322307343,-0.5636892792643005,-0.00813136082880283,-0.02183915391810668,1.4668162071884885
10040,4.0,300.00832,3812.1567,0.0,0.0,0.0,0.0,0.0,0.10006676822156105,-0.6696853620927994,0.06623274337091284,-0.5553478295385634,-0.008703864765854571,0.015870009426247986,1.4926426350123587
10041,4.0,299.68351,3690.8918,0.0,0.0,0.0,0.0,0.0,0.10007673503114488,-0.5969008209720245,0.07837565821232523,-0.6034137899648044,-0.008493109758304673,0.014428231540955587,1.4635569869168288
10042,4.0,299.67841,3192.8631,0.0,0.0,0.0,0.0,0.0,0.1000867018407287,-0.5388935294421505,0.10518209849316489,-0.5368392256594064,0.007995909656759842,0.013245402890969487,1.4821358394254185
10043,4.0,299.5191,3023.1028,0.0,0.0,0.0,0.0,0.0,0.10009666865031253,-0.4938651914906995,0.11763736388990388,-0.5427199569872895,0.011044162644973989,-0.015389175644293384,1.4785032364919086
10044,4.0,300.12678999999997,3482.7138,0.0,0.0,0.0,0.0,0.0,0.10010663545989634,-0.6051851233921214,0.0981202904247187,-0.5515931907630094,0.019018364938216483,-0.0015268008157585087,1.4903855190895985
10045,4.0,300.07867999999996,3503.9292,0.0,0.0,0.0,0.0,0.0,0.10011660226948016,-0.5755387629562534,0.07549710485748413,-0.5650653235626054,-0.005743433912832795,-0.017147722868598482,1.4893512947125287
10046,4.0,298.87302,3060.2649,0.0,0.0,0.0,0.0,0.0,0.10012656907906398,-0.5701249980694565,0.12084230435370688,-0.4809614210696965,0.018034927695908785,-0.002048188919715508,1.4648519205446286
10047,4.0,300.16384,3036.0985,0.0,0.0,0.0,0.0,0.0,0.10013653588864779,-0.5173058814241156,0.12070773460792589,-0.5262999959367655,-0.017508033590908384,0.0018874533073271382,1.4681272514928787
10048,4.0,300.86436000000003,3691.465,0.0,0.0,0.0,0.0,0.0,0.10014650269823162,-0.6176498930747985,0.05684679491209185,-0.5613100768369915,0.006625770478712634,0.022121214374943878,1.4816982167072286
10049,4.0,300.51658,3874.9044,0.0,0.0,0.0,0.0,0.0,0.10015646950781544,-0.5979574888388094,0.05676452103047205,-0.6366812124155434,-0.01852619896714348,0.003240393375526927,1.4923933754877587
10050,4.0,300.08457000000004,3570.6317,0.0,0.0,0.0,0.0,0.0,0.10016643631739927,-0.6045589652278245,0.08177810543862063,-0.5626020112444955,0.021043350329316982,-0.03720115115496776,1.4997214028609787
10051,4.0,299.98287,3194.2356,0.0,0.0,0.0,0.0,0.0,0.10017640312698309,-0.5516385337049844,0.1190047448998539,-0.5383340735319365,0.011901781582614387,-0.03714001569693417,1.4712188801979986
10052,4.0,299.82987,3308.4175,0.0,0.0,0.0,0.0,0.0,0.1001863699365669,-0.5983078504583875,0.10788246067216989,-0.5152509291613075,0.02678712368093327,-0.014252040520816887,1.4810478114680383
10053,4.0,298.98562999999996,3716.6115,0.0,0.0,0.0,0.0,0.0,0.10019633674615072,-0.5764297644316884,0.03647021989058046,-0.5897975426034855,0.02387306502933808,0.01095387395506319,1.4470517507378886
10054,4.0,299.56922000000003,3612.9847,0.0,0.0,0.0,0.0,0.0,0.10020630355573454,-0.6103652125408564,0.08968965543842981,-0.5775815764828635,-0.00996099403242357,0.002246874700024268,1.4715579136814587
10055,4.0,300.66778999999997,3025.3938,0.0,0.0,0.0,0.0,0.0,0.10021627036531838,-0.47290659953224756,0.1000217748141306,-0.5467593291734445,-0.02202484922418338,0.025070012306217578,1.4673035804865886
10056,4.0,300.67335,2759.4936,0.0,0.0,0.0,0.0,0.0,0.1002262371749022,-0.5191500574011214,0.14958706471809385,-0.46925416729428054,-0.04196096037422436,0.02418689391656058,1.5052226416289087
10057,4.0,300.90364,3562.6693,0.0,0.0,0.0,0.0,0.0,0.10023620398448602,-0.5806997016780985,0.07276680823077483,-0.5750296047810035,-0.014769065569843287,0.02702874127327907,1.4932231259946487
10058,4.0,301.08688,3994.8814,0.0,0.0,0.0,0.0,0.0,0.10024617079406983,-0.6830625229605224,0.06317824318920714,-0.5944599116136254,-0.012997924660045287,-0.018289066019740282,1.4964944039424986
10059,4.0,299.72809,3574.8894,0.0,0.0,0.0,0.0,0.0,0.10025613760365365,-0.5805801888288035,0.07573113320658093,-0.5818280468569574,0.019879167507671082,-0.001760354761158488,1.4746021222818986
10060,4.0,300.11106,3353.1915,0.0,0.0,0.0,0.0,0.0,0.10026610441323748,-0.5871463129218295,0.1084604995892179,-0.5406006633431314,0.03874154968574326,-0.017926836201740983,1.4839944440838486
10061,4.0,300.1951,3487.637,0.0,0.0,0.0,0.0,0.0,0.1002760712228213,-0.5682879452406535,0.0924095662516141,-0.5842761908210704,0.027993147652208575,0.016638521123594183,1.5051030781171086
10062,4.0,299.41131,3587.2993,0.0,0.0,0.0,0.0,0.0,0.10028603803240511,-0.6049135824978225,0.10447630900350889,-0.5900121388421645,0.016531817782063384,-0.017317630724867084,1.5064075362958484
10063,4.0,299.57835,3523.2805,0.0,0.0,0.0,0.0,0.0,0.10029600484198894,-0.5893505574543715,0.0946081771136001,-0.5762469234511435,-0.013636272223045287,0.0017592864915780583,1.5019661571325187
10064,4.0,300.32533,3164.8284,0.0,0.0,0.0,0.0,0.0,0.10030597165157276,-0.5581780701153864,0.1061395489101579,-0.5099902764971215,-0.00880311058664937,-0.005024172655147235,1.4835010926101588
10065,4.0,299.53989,2823.8326,0.0,0.0,0.0,0.0,0.0,0.10031593846115658,-0.4944987970432315,0.1301339597582219,-0.49400977214746855,-0.02849041736403527,0.014139877787747288,1.4578191542505485
10066,4.0,300.84488,3500.5371,0.0,0.0,0.0,0.0,0.0,0.1003259052707404,-0.5915523397891704,0.07389211568583402,-0.5464156448720254,0.001066023002308279,-0.0007108147643219553,1.4731113274097685
10067,4.0,301.22555,4023.7421,0.0,0.0,0.0,0.0,0.0,0.10033587208032421,-0.6237358784754383,0.035814893295654765,-0.6351961525389794,0.015033974742237787,0.002885098342537037,1.4784676714133986
10068,4.0,299.84225,3608.6894,0.0,0.0,0.0,0.0,0.0,0.10034583888990804,-0.6222416689504714,0.08897596969074452,-0.5636857835514555,0.014224093056558685,-0.004799364983285446,1.5185886263480286
10069,4.0,299.88097999999997,3115.6026,0.0,0.0,0.0,0.0,0.0,0.10035580569949186,-0.5232719588079214,0.1044445537453749,-0.5282379887405305,-0.013146327296191487,0.012206070720145387,1.4786001032014684
10070,4.0,299.59362999999996,3262.9709999999995,0.0,0.0,0.0,0.0,0.0,0.10036577250907569,-0.5987096953155464,0.13648930756544586,-0.5296413299965296,-0.01964228787279288,-0.024953025489421875,1.5281908935706985
10071,4.0,299.59211,3822.6377,0.0,0.0,0.0,0.0,0.0,0.10037573931865951,-0.6054075419215724,0.06660847474649463,-0.6231873555338034,-0.018512884860829484,-0.0071239326612274135,1.4553153119284385
10072,4.0,299.12152000000003,3669.1075,0.0,0.0,0.0,0.0,0.0,0.10038570612824332,-0.6429389437081334,0.09053818450942311,-0.5629163112930144,0.007969575387985853,0.0034033938045388164,1.4881629549952486
10073,4.0,299.09522000000004,3052.6963,0.0,0.0,0.0,0.0,0.0,0.10039567293782714,-0.5250997302658085,0.12557350344313986,-0.5284172124182185,0.0026961356088628674,0.022149330038718683,1.4609293254324986
10074,4.0,300.18517,2890.0888,0.0,0.0,0.0,0.0,0.0,0.10040563974741096,-0.5569631021854784,0.16777783230588283,-0.4893295699355685,0.0019511632312148182,-0.01095030630146109,1.5243227099889385
10075,4.0,300.784,3399.051,0.0,0.0,0.0,0.0,0.0,0.10041560655699477,-0.5679591455832034,0.10107021103710322,-0.5663376819781775,0.003596918190163186,-0.01119541150065109,1.4812139844844385
10076,4.0,300.01824,3927.4374,0.0,0.0,0.0,0.0,0.0,0.1004255733665786,-0.6420164706845924,0.06486407654658594,-0.6166905073501143,0.02410628581810518,-0.021082956249225782,1.5144422042888086
10077,4.0,300.343,3731.7126,0.0,0.0,0.0,0.0,0.0,0.10043554017616244,-0.5905649376992215,0.055181333961223655,-0.5989638488381295,0.006068212284610925,-0.012758183606884686,1.4792288248885186
10078,4.0,300.06298,3163.3948,0.0,0.0,0.0,0.0,0.0,0.10044550698574625,-0.5525908266789684,0.10703445139847789,-0.5160366640838535,0.0065781672797395625,-0.02856264689741377,1.4791991366605886
10079,4.0,299.98697000000004,3309.4892,0.0,0.0,0.0,0.0,0.0,0.10045547379533007,-0.5563296283554594,0.09741911730251832,-0.5470915536162325,-0.02112376692350348,0.0017428661657574983,1.4838927137738087
10080,4.0,300.14448,3881.1589,0.0,0.0,0.0,0.0,0.0,0.10046544060491389,-0.6401424443596404,0.052155034556301154,-0.5917879710999254,0.005637440251672035,0.0014232921504679986,1.4907498838255586
10081,4.0,299.10368,3707.9271,0.0,0.0,0.0,0.0,0.0,0.1004754074144977,-0.5934481509912725,0.07890999261280993,-0.6125790829493485,-0.01383573354498059,0.03013322102941737,1.5090112850778186
10082,4.0,299.5876,3264.0088,0.0,0.0,0.0,0.0,0.0,0.10048537422408152,-0.5578035323484225,0.09330367941810622,-0.5276773371951985,-0.006427604090405135,0.008588565618425432,1.4789237352834086
10083,4.0,299.33644,3181.2125,0.0,0.0,0.0,0.0,0.0,0.10049534103366534,-0.5444666684371765,0.11866006761333688,-0.5412025845650366,0.014824143818779086,0.024671962070683076,1.4834290505280485
10084,4.0,298.998,3508.8043,0.0,0.0,0.0,0.0,0.0,0.10050530784324917,-0.6039746745576594,0.08233071177815862,-0.5449449326168775,0.030315503709157268,0.0018656741043776984,1.4663371425412086
10085,4.0,299.98125,3904.0197,0.0,0.0,0.0,0.0,0.0,0.100515274652833,-0.6272903294287354,0.048068779288019156,-0.6075029431283724,-0.005976544156013984,0.004997998378564035,1.4729110078649985
10086,4.0,300.43113,3596.1089,0.0,0.0,0.0,0.0,0.0,0.10052524146241681,-0.6255784231197834,0.1041405787153749,-0.5716894663563574,-0.015524660354914684,-0.036892722890778266,1.5066739197471386
10087,4.0,300.61117,3140.0566,0.0,0.0,0.0,0.0,0.0,0.10053520827200063,-0.5280749973294444,0.13185992997856186,-0.5582837318358145,-0.03589422267248397,-0.0025566168456184375,1.5097195468977185
10088,4.0,300.53508,3265.0876,0.0,0.0,0.0,0.0,0.0,0.10054517508158445,-0.5475810648720434,0.11087291635480488,-0.5557969729103904,-0.012811457257392387,-0.014965482075228086,1.5205242380140587
10089,4.0,300.4972,3788.167,0.0,0.0,0.0,0.0,0.0,0.10055514189116826,-0.5897337990396945,0.05995074271192764,-0.6217251343144935,0.01018867963854439,0.0005711340533140425,1.5002535618134987
10090,4.0,300.84772000000004,3944.2353,0.0,0.0,0.0,0.0,0.0,0.1005651087007521,-0.6517966342273194,0.05866164135170324,-0.6058140477291915,0.00994259422120765,-0.006866935452238763,1.4995591815199685
10091,4.0,301.11644,3431.9558,0.0,0.0,0.0,0.0,0.0,0.10057507551033593,-0.6037141578244485,0.1168523990374339,-0.5563670882116565,0.02054399534878448,0.00046454808667482667,1.4918377091329185
10092,4.0,300.21366,2982.1973,0.0,0.0,0.0,0.0,0.0,0.10058504231991974,-0.5561399884667435,0.14933097588781988,-0.4997045112869955,0.005493920771732766,0.017216401973626585,1.5035705373408588
10093,4.0,300.99806,3416.6553,0.0,0.0,0.0,0.0,0.0,0.10059500912950356,-0.5655416726996174,0.0968796244457745,-0.5699158531163154,-0.0004357362390213186,0.035073302640215465,1.5153057973490385
10094,4.0,299.40161,3723.389,0.0,0.0,0.0,0.0,0.0,0.10060497593908738,-0.6301649300949363,0.07675126631451024,-0.5784036364214945,0.00979436920780398,-0.01167745510322509,1.4722964716793485
10095,4.0,298.97583,3526.5374,0.0,0.0,0.0,0.0,0.0,0.1006149427486712,-0.5838000949965835,0.07922189429834223,-0.5674011183556305,0.001059827281921809,0.027051933554817977,1.4983413562247787
10096,4.0,299.82288,3247.4045,0.0,0.0,0.0,0.0,0.0,0.10062490955825502,-0.5691525414184824,0.0935548884358986,-0.5115322202342996,-0.0049882333833753045,0.0026219694505682373,1.4511061696880285
10097,4.0,300.43678,3244.5079,0.0,0.0,0.0,0.0,0.0,0.10063487636783884,-0.5411464302444945,0.1114624759254899,-0.5565654116537295,-0.004766697901386455,-6.341459998703374e-05,1.5044740524550286
10098,4.0,299.54725,3625.0129,0.0,0.0,0.0,0.0,0.0,0.10064484317742267,-0.6019362078739784,0.06745926235196084,-0.5674364605191184,-0.010860649879612688,-0.025578128860364775,1.4763860504079587
10099,4.0,300.39477,3881.123,0.0,0.0,0.0,0.0,0.0,0.10065480998700649,-0.6064129190682954,0.08021037245989741,-0.6535619286840404,-0.0007006432734581073,-0.004948927790796145,1.5404921550847384
10100,4.0,300.12969,3327.7665,0.0,0.0,0.0,0.0,0.0,0.1006647767965903,-0.5603882218960115,0.09881820898759791,-0.5499879188945814,-0.0027894552337977972,0.0049126900155447555,1.5050020570821385
10101,4.0,301.1988,3121.9721,0.0,0.0,0.0,0.0,0.0,0.10067474360617412,-0.5054778279717775,0.11155822805993988,-0.5550819729773255,-0.01770136272323848,0.01934114589007248,1.5055242861836786
10102,4.0,301.45852,3589.4309,0.0,0.0,0.0,0.0,0.0,0.10068471041575794,-0.6150494170906514,0.08973369128777582,-0.5657816305882994,-0.004804143369432036,-0.013414272165885588,1.4834962290096787
10103,4.0,300.24227,3913.6646,0.0,0.0,0.0,0.0,0.0,0.10069467722534177,-0.6563772846168944,0.07229246431571074,-0.6055715060527544,0.01088688393795179,0.00035349956394519063,1.5000655025949385
10104,4.0,299.36199,3590.0223,0.0,0.0,0.0,0.0,0.0,0.10070464403492559,-0.6294459480889784,0.1067972090200639,-0.5686283972742535,0.03135433128143157,0.016079907224213288,1.4845533528390087
10105,4.0,300.31655,3124.1459999999997,0.0,0.0,0.0,0.0,0.0,0.10071461084450942,-0.5412097279782415,0.11909267474353188,-0.5275453208396695,0.01000059498740688,0.008474802659472902,1.5021797502535987
10106,4.0,298.85135,3202.1299,0.0,0.0,0.0,0.0,0.0,0.10072457765409323,-0.5766135578673274,0.1315490445828799,-0.5283030292644495,0.003195100994731917,-0.01631319387423688,1.4986456352298088
10107,4.0,299.5786,3822.1728,0.0,0.0,0.0,0.0,0.0,0.10073454446367705,-0.6200830814674354,0.06850374385979315,-0.6102657721760424,-0.01027844346490339,0.0015868648631363685,1.5071551122196285
10108,4.0,299.65064,3791.5086,0.0,0.0,0.0,0.0,0.0,0.10074451127326087,-0.6406430101740425,0.06456201149302444,-0.5764429265504875,-0.004573843780703236,0.02288801874587158,1.4962156588399886
10109,4.0,299.93771,3413.1981,0.0,0.0,0.0,0.0,0.0,0.10075447808284468,-0.5769159218296684,0.11358945000540589,-0.5742005230191796,-0.02000397560198868,0.0029387459836566474,1.5096015032610686
10110,4.0,299.66573,3190.2772,0.0,0.0,0.0,0.0,0.0,0.10076444489242851,-0.5327165339175285,0.10064479190311759,-0.5376928686036545,-0.02187622063326488,-0.012344355040792988,1.4830830256188985
10111,4.0,300.11134,3442.8734,0.0,0.0,0.0,0.0,0.0,0.10077441170201235,-0.5513256116766015,0.09102096170506951,-0.5862428890001684,-0.006973211810177424,-0.013801620453863886,1.5043482067926086
10112,4.0,300.17,3748.6313,0.0,0.0,0.0,0.0,0.0,0.10078437851159616,-0.6225959011854314,0.06411433936034264,-0.5810087328260974,0.018323277396116684,0.014173666638831985,1.4857622615333186
10113,4.0,301.06731,3547.4924,0.0,0.0,0.0,0.0,0.0,0.10079434532117998,-0.5862140519023225,0.0864939588552891,-0.5786290339062394,0.011742557435400189,0.013581484776888185,1.4770153800450685
10114,4.0,299.06458,3112.8501,0.0,0.0,0.0,0.0,0.0,0.1008043121307638,-0.5506939312992595,0.096861684852754,-0.4923964449407455,0.012872368787153886,0.00974728256373189,1.4606866520335486
10115,4.0,299.06152000000003,3414.3215,0.0,0.0,0.0,0.0,0.0,0.10081427894034761,-0.5705667852455575,0.08958124173073023,-0.5568829338375665,0.01112856029880339,0.008954904469555262,1.4805900250728585
10116,4.0,299.82072999999997,3846.553,0.0,0.0,0.0,0.0,0.0,0.10082424574993144,-0.6191700012723215,0.05489287280350474,-0.6049789168642704,0.004180337465242186,0.026775026487989375,1.4747824807996985
10117,4.0,299.53274,3692.9809999999998,0.0,0.0,0.0,0.0,0.0,0.10083421255951526,-0.6088734854786345,0.10148759611104591,-0.6151881310293413,-0.003947255086438746,-0.007100928945532123,1.5166934433609884
10118,4.0,298.92397,3339.0837,0.0,0.0,0.0,0.0,0.0,0.10084417936909909,-0.5680340146330924,0.10648721528446989,-0.5534512786638884,-0.04212539465345276,-0.02206762864340538,1.5156608401840788
10119,4.0,299.29986,3210.1919,0.0,0.0,0.0,0.0,0.0,0.10085414617868291,-0.5451112981507965,0.1021056584070439,-0.5328125494970045,-0.03109731026106557,-0.027078342905424373,1.5221681349762985
10120,4.0,300.34887000000003,3478.1187,0.0,0.0,0.0,0.0,0.0,0.10086411298826672,-0.6157848340132314,0.1041938554056329,-0.5456702677009625,-0.0015367983518451884,0.008742717131664001,1.5107395857733885
10121,4.0,299.80574,3770.7258,0.0,0.0,0.0,0.0,0.0,0.10087407979785054,-0.6239365222602403,0.05960637041369075,-0.5818763484892244,0.02768737207678087,0.009043047197079272,1.4932947627767184
10122,4.0,299.68176,3632.6772,0.0,0.0,0.0,0.0,0.0,0.10088404660743436,-0.6069945246256954,0.06136554585305785,-0.5586141729584265,0.024736327770035475,0.01142857960041299,1.4831594246764384
10123,4.0,299.54047,3078.0272,0.0,0.0,0.0,0.0,0.0,0.10089401341701819,-0.5404465480029215,0.12457118631171889,-0.5197680690346146,0.01139961078005399,-0.005570318106747595,1.4738084434785685
10124,4.0,300.27149,3136.1042,0.0,0.0,0.0,0.0,0.0,0.100903980226602,-0.5592062048593555,0.1083968269529339,-0.5024879802392025,-0.004264792874327286,0.03069193929355857,1.4920524168291085
10125,4.0,301.24359,3767.7219,0.0,0.0,0.0,0.0,0.0,0.10091394703618584,-0.6145608886874374,0.0979547071198769,-0.6286871960165954,-0.004562576236941215,0.002406908636718388,1.4883019729089684
10126,4.0,301.29643,3748.7654,0.0,0.0,0.0,0.0,0.0,0.10092391384576965,-0.6076718012575375,0.05152054038343145,-0.5833797988551035,-0.02078990608180398,-0.0007342512492674563,1.4915638276308887
10127,4.0,301.00753,3294.5031,0.0,0.0,0.0,0.0,0.0,0.10093388065535347,-0.5298736378469565,0.09276481984267491,-0.5643378606533105,-0.007079022073070083,-0.020739297279059283,1.4782344212403786
10128,4.0,301.41062,3312.8092,0.0,0.0,0.0,0.0,0.0,0.10094384746493729,-0.5664104029378545,0.1134619527453229,-0.5540628358942444,-0.004667909360361785,0.017838366295759682,1.4915102267005986
10129,4.0,300.21122,3604.0646,0.0,0.0,0.0,0.0,0.0,0.1009538142745211,-0.5997709228077814,0.08100342406141552,-0.5767781299485695,0.013721133945420487,-0.01102316202340139,1.5094740363984884
10130,4.0,299.20859,3575.5571,0.0,0.0,0.0,0.0,0.0,0.10096378108410492,-0.6016920753948845,0.06740230452408953,-0.5525903099214176,-0.0025695554414453775,-0.01127183183644319,1.4937299536946684
10131,4.0,300.25556,3543.8351,0.0,0.0,0.0,0.0,0.0,0.10097374789368875,-0.5902662315697415,0.06422831479784115,-0.5511994519066505,0.015348985079076885,-0.018890553570602483,1.4940396029252287
10132,4.0,299.71702999999997,3372.4713,0.0,0.0,0.0,0.0,0.0,0.10098371470327257,-0.5739666547635985,0.08749171129500961,-0.5386721140302986,0.006418174582324514,0.02630914219801018,1.4705203455790588
10133,4.0,300.33787,3353.7433,0.0,0.0,0.0,0.0,0.0,0.1009936815128564,-0.5494470155936985,0.08915430880109522,-0.5591615103974444,0.01980583251843348,0.004922791916391735,1.5012330706851686
10134,4.0,299.46527000000003,3694.6893,0.0,0.0,0.0,0.0,0.0,0.10100364832244021,-0.6214870306734944,0.08825262868285631,-0.5898588948970405,-0.020241495610930083,-0.002374443698214348,1.4866839138242787
10135,4.0,299.34934,3842.6526,0.0,0.0,0.0,0.0,0.0,0.10101361513202403,-0.6261481939160154,0.07624164609721462,-0.6181638844530254,-0.003294076176425007,-0.00903891273137123,1.5202484313368385
10136,4.0,299.24969,3346.3345,0.0,0.0,0.0,0.0,0.0,0.10102358194160785,-0.5822406625626795,0.1276624401143019,-0.5626238873141545,0.004225436923218156,0.014633742979237986,1.5125739737544286
10137,4.0,299.64918,3270.6038,0.0,0.0,0.0,0.0,0.0,0.10103354875119167,-0.5577350163766605,0.11282073768453989,-0.5492676095309925,0.013199914040980087,-0.015834252843469086,1.5207031779817184
10138,4.0,298.54684,3619.2677,0.0,0.0,0.0,0.0,0.0,0.10104351556077548,-0.6007301970749545,0.08750609336692901,-0.5869429029642544,0.0006410259883143394,-0.014811448808276185,1.4971484568820486
10139,4.0,299.63638,3699.3097,0.0,0.0,0.0,0.0,0.0,0.10105348237035931,-0.5671417161975295,0.06758980240209414,-0.6249458814798564,0.016061499509646585,-0.032321328540866764,1.4978804287542884
10140,4.0,300.73232,3411.8497,0.0,0.0,0.0,0.0,0.0,0.10106344917994314,-0.5792716573846615,0.08120112942092751,-0.5390465808697554,0.006368702646192014,0.018643087498679482,1.4969506704625286
10141,4.0,300.94464,3228.4059,0.0,0.0,0.0,0.0,0.0,0.10107341598952696,-0.5494935744357934,0.11671809273667888,-0.5485792884730605,-0.008529090269355671,-0.006462046893104374,1.4894198917442987
10142,4.0,300.96993,3330.9547,0.0,0.0,0.0,0.0,0.0,0.10108338279911078,-0.5964303486855924,0.1102029553886849,-0.5262996716967334,-0.042560142781109055,0.022533627430645877,1.4864450907757087
10143,4.0,301.93097,3695.6645,0.0,0.0,0.0,0.0,0.0,0.1010933496086946,-0.5884116900442125,0.05745496383411344,-0.5924330162460865,-0.0012511151206004488,-0.002881612154242977,1.4771228858806786
10144,4.0,300.72462,3811.9738,0.0,0.0,0.0,0.0,0.0,0.10110331641827841,-0.6142265161544375,0.06255023685672774,-0.6070685830755045,0.026373185683830774,0.032770949153490866,1.4913719180619485
10145,4.0,300.46161,3414.1433,0.0,0.0,0.0,0.0,0.0,0.10111328322786224,-0.5491348636353915,0.09074199267428741,-0.5794214461469445,0.038073766194088164,-0.004713679995203996,1.4839045687999786
10146,4.0,299.85111,3222.5089,0.0,0.0,0.0,0.0,0.0,0.10112325003744607,-0.5698578648130924,0.12714547991328187,-0.5368498546529555,0.018134827063018083,0.0015836163833157684,1.5239244013746285
10147,4.0,298.95165,3610.2834,0.0,0.0,0.0,0.0,0.0,0.10113321684702989,-0.6055164764398234,0.09307551272083792,-0.5849950309720144,0.004852192094474075,-0.01979433516954878,1.5273796855406383
10148,4.0,299.46302000000003,3921.052,0.0,0.0,0.0,0.0,0.0,0.1011431836566137,-0.6684174923751703,0.07411632969446223,-0.5976007336111004,-0.013469608793596885,0.0027230553335446375,1.5453826066923886
10149,4.0,299.87177,3599.3853,0.0,0.0,0.0,0.0,0.0,0.10115315046619752,-0.6070593726320954,0.10212253915370992,-0.5891864210706724,-0.009006766156048611,-0.02094643093075178,1.5315511348773285
10150,4.0,299.41289,3306.9412,0.0,0.0,0.0,0.0,0.0,0.10116311727578134,-0.5838259936691396,0.1218412676272969,-0.5432428345688934,-0.03522521416145797,-0.03767200746318766,1.5011844346803687
10151,4.0,300.86011,3589.4633,0.0,0.0,0.0,0.0,0.0,0.10117308408536517,-0.5784827003267974,0.08623824898055252,-0.5988627467431514,0.007271565632597654,-0.023361804360130578,1.4779162607089786
10152,4.0,301.03477000000004,3759.3134,0.0,0.0,0.0,0.0,0.0,0.10118305089494899,-0.6226140282297205,0.07742227599448373,-0.5975456634681654,0.01056924624360339,0.01018257581994199,1.5057348395544587
10153,4.0,301.00695,3590.4391,0.0,0.0,0.0,0.0,0.0,0.1011930177045328,-0.5981888746316454,0.06998833460156083,-0.5632033143838394,0.046765396167635254,0.02363729287681918,1.5023506855454685
10154,4.0,300.95384,3366.1861,0.0,0.0,0.0,0.0,0.0,0.10120298451411663,-0.5926615142761374,0.11259458026221988,-0.5431695765866635,0.01028353200690559,0.043334443176276556,1.5121545895380384
10155,4.0,299.91157999999996,3269.8361,0.0,0.0,0.0,0.0,0.0,0.10121295132370045,-0.5551031093744115,0.1032353005460309,-0.5420807278967025,0.0016501577332828886,0.037247965336087964,1.4958095481999087
10156,4.0,299.6215,3641.9245,0.0,0.0,0.0,0.0,0.0,0.10122291813328427,-0.5807533938008974,0.05177856553464654,-0.5780792849319835,-0.013453351195742386,0.022157377271012878,1.4913138588312185
10157,4.0,299.6123,3891.7922,0.0,0.0,0.0,0.0,0.0,0.10123288494286808,-0.6082182976989724,0.07007083443795294,-0.6448601773552445,-0.016004864908557185,-0.014830002430857287,1.4801131895757986
10158,4.0,298.64262,3528.9091,0.0,0.0,0.0,0.0,0.0,0.1012428517524519,-0.5934247347814614,0.09169129554722631,-0.5709667961200354,-0.012388411155140989,-0.01950011672476168,1.5093328906595587
10159,4.0,299.4016,3221.278,0.0,0.0,0.0,0.0,0.0,0.10125281856203573,-0.5653876688169185,0.10912578947237689,-0.5229261872112966,-0.02027906388488778,-0.004771134619599326,1.4784464944863087
10160,4.0,298.85303999999996,3379.1561,0.0,0.0,0.0,0.0,0.0,0.10126278537161956,-0.5967921904288034,0.0978649503862686,-0.5282518297368964,-0.009849599444254781,0.008748601074994701,1.5128076292274886
10161,4.0,299.4938,3645.4833,0.0,0.0,0.0,0.0,0.0,0.10127275218120338,-0.6216148319086074,0.05966651795287685,-0.5461875622745155,-0.0029747648968864375,0.0025057313242714276,1.4794723088875485
10162,4.0,301.04,3751.4496,0.0,0.0,0.0,0.0,0.0,0.1012827189907872,-0.6081192828992005,0.06825649057039114,-0.6004842103481774,0.014315561169585886,0.004275001571734806,1.4926596576140385
10163,4.0,301.36843,3455.9564,0.0,0.0,0.0,0.0,0.0,0.10129268580037101,-0.5702694368712115,0.09022578227834141,-0.5704807907095705,0.022605791102767878,0.026832205204382474,1.4674681323028287
10164,4.0,299.8426,3297.8691,0.0,0.0,0.0,0.0,0.0,0.10130265260995483,-0.5526737814646555,0.11123093814513889,-0.5610270152890555,0.006872989925561294,0.005419681760755944,1.5260736061617384
10165,4.0,299.53432999999995,3646.3673,0.0,0.0,0.0,0.0,0.0,0.10131261941953866,-0.6012222009260114,0.08941527643060072,-0.5965976666746055,-0.00957941458256461,0.012976842978464688,1.5201467010267986
10166,4.0,299.85972999999996,3951.8193,0.0,0.0,0.0,0.0,0.0,0.10132258622912249,-0.6642906463078824,0.05755892126787324,-0.5945226824573204,-0.03245497217605637,-0.016800723212852284,1.5247046039516285
10167,4.0,300.42544,3707.1388,0.0,0.0,0.0,0.0,0.0,0.10133255303870631,-0.6402677428670064,0.09581270755422801,-0.5824226118831364,0.0014936969217414085,0.01942190090979238,1.5161132563537285
10168,4.0,299.63074,3231.7498,0.0,0.0,0.0,0.0,0.0,0.10134251984829012,-0.5729808840063104,0.1316886299166559,-0.5410790085828404,-0.003430207745910147,-0.0024748851541271473,1.4983307170987286
10169,4.0,298.61708,3265.651,0.0,0.0,0.0,0.0,0.0,0.10135248665787394,-0.5458421250504235,0.1018888330181449,-0.5487230483972485,0.02084662174290138,0.00047780348527803255,1.4932351836708384
10170,4.0,298.85419,3744.2154,0.0,0.0,0.0,0.0,0.0,0.10136245346745776,-0.6133037594208685,0.09725928925824451,-0.6221035122993364,0.0030613153018782973,-0.02337315377450068,1.4982962665953288
10171,4.0,299.70047,3780.0001,0.0,0.0,0.0,0.0,0.0,0.10137242027704159,-0.6232128185088164,0.06101640621310045,-0.5868292467005374,0.016499114121835787,-0.014195696722506186,1.4932291041702386
10172,4.0,299.58999,3318.0765,0.0,0.0,0.0,0.0,0.0,0.1013823870866254,-0.6012983770685294,0.11190486091914989,-0.5192188976129155,0.0007420092391881101,-0.014611275171520588,1.4989591348107487
10173,4.0,300.12116000000003,3223.1221,0.0,0.0,0.0,0.0,0.0,0.10139235389620924,-0.5647523002092124,0.1052327204681609,-0.5202290471676094,-0.017944427236727085,0.010674729632013791,1.4971222137044589
10174,4.0,299.20916,3660.8511,0.0,0.0,0.0,0.0,0.0,0.10140232070579305,-0.6022988500847684,0.06977182028044253,-0.5802802971967064,0.004104803925937606,0.0024667269709469975,1.4945983090303685
10175,4.0,300.36984,3975.7299,0.0,0.0,0.0,0.0,0.0,0.10141228751537687,-0.6232743025248845,0.05343508860638266,-0.6386833946131434,0.012306837429340288,0.031648601401973765,1.5172319857891385
10176,4.0,299.57959,3699.4599,0.0,0.0,0.0,0.0,0.0,0.10142225432496069,-0.6002715494171894,0.08694825967012511,-0.6112201625777334,0.009714487305695251,-0.0004996056282097365,1.5217822893382185
10177,4.0,300.93445,3312.6622,0.0,0.0,0.0,0.0,0.0,0.1014322211345445,-0.5408264255979125,0.10683903598419191,-0.5729792020111444,-0.02009228136145378,-0.03081281800398837,1.5101096481862184
10178,4.0,300.93228999999997,3303.3307,0.0,0.0,0.0,0.0,0.0,0.10144218794412833,-0.5952726192538335,0.1229641919181209,-0.5318216212967075,-0.02062007219279268,-0.03628858569090457,1.5221736065268385
10179,4.0,300.84098,3871.3883,0.0,0.0,0.0,0.0,0.0,0.10145215475371215,-0.6414100607647444,0.06284743729655914,-0.5982427491394624,-0.022815134652928476,0.023095400643838578,1.4810541949436686
10180,4.0,299.42766,3909.3231,0.0,0.0,0.0,0.0,0.0,0.10146212156329598,-0.6745501075454123,0.07505582734618342,-0.5888423314692135,-0.005383579254392905,0.0049146427511374755,1.5131855715147884
10181,4.0,300.7458,3370.7153,0.0,0.0,0.0,0.0,0.0,0.1014720883728798,-0.5595529289110744,0.1109801283478859,-0.5760404940082705,-0.014793904382794685,0.02687104409396558,1.4915306943526185
10182,4.0,300.39935,3200.2916,0.0,0.0,0.0,0.0,0.0,0.10148205518246362,-0.5360428009483055,0.09920236857751151,-0.5359683169334545,-0.018142940156568782,-0.02139558240857958,1.5024182693271386
10183,4.0,300.39354,3675.3436,0.0,0.0,0.0,0.0,0.0,0.10149202199204743,-0.5990858441501694,0.08650648769277561,-0.6046333175201625,0.01961378008122938,0.015687257611711785,1.5291498334653386
10184,4.0,299.14064,4023.0236,0.0,0.0,0.0,0.0,0.0,0.10150198880163125,-0.6731036322326563,0.07144727491704703,-0.6212423510393464,0.018178291439307683,-0.008629524328542741,1.5334433794390787
10185,4.0,299.22937,3606.0323,0.0,0.0,0.0,0.0,0.0,0.10151195561121507,-0.5795848935205754,0.07119665763731303,-0.5877555396769555,0.00980551759335424,-0.002016918603079368,1.5272646816542883
10186,4.0,300.39214,3241.1736,0.0,0.0,0.0,0.0,0.0,0.1015219224207989,-0.5425086639439365,0.12049663408209188,-0.5632238023008614,0.002307631810470528,-0.0046926964975580856,1.5148682759558587
10187,4.0,300.45912999999996,3510.4869,0.0,0.0,0.0,0.0,0.0,0.10153188923038271,-0.5735668870691445,0.08007339928487922,-0.5736068800505915,-0.01851034565607888,0.035065267566922464,1.5077183779502186
10188,4.0,299.59029,3798.9784,0.0,0.0,0.0,0.0,0.0,0.10154185603996653,-0.6077722447399504,0.08475364000028301,-0.6317759673564334,-0.01970438997142188,-0.001045341554517179,1.5096351431643884
10189,4.0,300.41853,3863.7375,0.0,0.0,0.0,0.0,0.0,0.10155182284955036,-0.6291312731379224,0.07032254298804463,-0.6156709750994944,-0.008501844683441742,-0.01021517815515959,1.5132556884217085
10190,4.0,300.86537000000004,3491.7973,0.0,0.0,0.0,0.0,0.0,0.10156178965913418,-0.5815465051841714,0.10028784821089,-0.5801605411673875,-0.008020867019972941,-0.015100748937077883,1.4943302030539087
10191,4.0,300.4781,3264.1904,0.0,0.0,0.0,0.0,0.0,0.101571756468718,-0.5684094339276434,0.11924926241398588,-0.5430722133845545,0.02147288933820918,0.010100002624242651,1.4941900705650786
10192,4.0,301.12228999999996,3810.4273,0.0,0.0,0.0,0.0,0.0,0.10158172327830181,-0.6281730222533505,0.06881780275478834,-0.5989195495437574,0.01962633019696798,0.01015315610328849,1.5013528368469884
10193,4.0,300.82808,4182.7523,0.0,0.0,0.0,0.0,0.0,0.10159169008788563,-0.6720038607066173,0.037944705489100866,-0.6373930915383004,0.0028526182052814974,0.016878228739501486,1.5136735527629486
10194,4.0,300.60717,3728.3162,0.0,0.0,0.0,0.0,0.0,0.10160165689746946,-0.6129609566470364,0.08565019307301593,-0.6060042550379634,0.007205318125159533,0.005655660109670194,1.5441797774986785
10195,4.0,300.7244,3242.6604,0.0,0.0,0.0,0.0,0.0,0.10161162370705329,-0.5675218268400435,0.12151221465732187,-0.5396781801870895,-0.004174844737775096,0.027560073413717474,1.5218160305665487
10196,4.0,299.0167,3434.3801,0.0,0.0,0.0,0.0,0.0,0.1016215905166371,-0.5773174221817935,0.11592994627889489,-0.5825783180260035,-0.02933326716821807,-0.018058678278252784,1.5556649673821785
10197,4.0,299.60237,3910.7883,0.0,0.0,0.0,0.0,0.0,0.10163155732622092,-0.6251532735103245,0.05847184440922174,-0.6221005637415454,-0.003073268309332967,-0.026320104550842074,1.5167418767157685
10198,4.0,300.50777,3840.6379,0.0,0.0,0.0,0.0,0.0,0.10164152413580474,-0.6067078559074034,0.061747101390214436,-0.6224972714206974,-0.023474137319216975,-0.03750338440804586,1.5204863424603186
10199,4.0,300.24323,3421.4794,0.0,0.0,0.0,0.0,0.0,0.10165149094538856,-0.5792716573846615,0.09023593605759352,-0.5510085657203115,0.004337674028845095,-0.0004992271590323846,1.4784911788157187
10200,4.0,299.83603999999997,3297.1759,0.0,0.0,0.0,0.0,0.0,0.10166145775497239,-0.5746989002133654,0.1125860993588829,-0.5401463523957944,-0.0012135668076697188,0.0017691209957236484,1.5030786044173088
10201,4.0,300.92328,3491.8837,0.0,0.0,0.0,0.0,0.0,0.10167142456455622,-0.6287572115985054,0.11342182804136289,-0.5461100587743665,0.011924987036404591,0.028445954936397178,1.4985514029705087
10202,4.0,299.88845,3673.6826,0.0,0.0,0.0,0.0,0.0,0.10168139137414003,-0.6150282502960625,0.08647493103166122,-0.5881544663738264,0.031724645821978766,0.015752402500391085,1.5163554231276286
10203,4.0,300.08699,3458.8685,0.0,0.0,0.0,0.0,0.0,0.10169135818372385,-0.5737707529892644,0.09202038296770472,-0.5696592677934924,0.013649363414337288,0.03283502810306497,1.5114280892163383
10204,4.0,299.80997,3196.5424,0.0,0.0,0.0,0.0,0.0,0.10170132499330767,-0.5344671261152986,0.1091247154272709,-0.5463266713807444,-0.0006542199231664794,-0.011288663947104389,1.4849953325326286
10205,4.0,299.04634,3500.6351,0.0,0.0,0.0,0.0,0.0,0.10171129180289148,-0.5733696579371795,0.08826037903287122,-0.5789963674649925,-0.025664996817937977,-0.01124887665542769,1.5169592188622185
10206,4.0,298.49168,3924.3503,0.0,0.0,0.0,0.0,0.0,0.10172125861247532,-0.6267622234766155,0.06035816449763704,-0.6265004300482784,-0.005892417039961285,0.00026062912291209176,1.5022480433103385
10207,4.0,299.45741,3768.1409999999996,0.0,0.0,0.0,0.0,0.0,0.10173122542205913,-0.6167111573871524,0.07181451323029064,-0.6005241425346185,0.008096025251440483,0.02265515462113968,1.5402483671106786
10208,4.0,299.3491,3318.5799,0.0,0.0,0.0,0.0,0.0,0.10174119223164295,-0.5537481001481824,0.0975410376340509,-0.5525583621457645,0.015536226604806183,-0.003320042635412697,1.5020168196375185
10209,4.0,300.33317999999997,3202.0765,0.0,0.0,0.0,0.0,0.0,0.10175115904122678,-0.5700878624532915,0.14834909601091587,-0.5516125438399194,0.002019544744688548,-0.016125151880928584,1.5307372923970086
10210,4.0,300.70932999999997,3493.9444,0.0,0.0,0.0,0.0,0.0,0.1017611258508106,-0.5855318306099925,0.0948788618115646,-0.5714188779171524,0.0039384559212453365,-0.03018624440715037,1.4838714355217086
10211,4.0,300.14127,3814.7677,0.0,0.0,0.0,0.0,0.0,0.10177109266039441,-0.6493241418633033,0.07820306828304192,-0.5884730626027693,0.005548063993476285,-0.01001705077698094,1.5090255719042287
10212,4.0,299.52367000000004,3718.5923,0.0,0.0,0.0,0.0,0.0,0.10178105946997823,-0.6404098714585333,0.07897872238034302,-0.5689280558588274,-0.013929001190185386,0.004604391447368056,1.4935230480242485
10213,4.0,299.8581,3398.7052,0.0,0.0,0.0,0.0,0.0,0.10179102627956205,-0.6078892751265004,0.1082930296126899,-0.5335252797498454,-0.017670859842228086,0.01917286733996468,1.5274689528744485
10214,4.0,299.73427999999996,3397.9473,0.0,0.0,0.0,0.0,0.0,0.10180099308914588,-0.5654788613259185,0.0999298862023119,-0.5673421573323115,-0.026881534272250877,0.03129270642359967,1.5130080500972685
10215,4.0,300.75057999999996,3873.5759999999996,0.0,0.0,0.0,0.0,0.0,0.10181095989872971,-0.6025913348586345,0.03482518200872787,-0.6097042188381214,-0.015026371313487384,0.025564855284054774,1.5380983517234883
10216,4.0,301.07083,3777.1075,0.0,0.0,0.0,0.0,0.0,0.10182092670831352,-0.5912880436330864,0.06315937545909503,-0.6200176863059814,-0.005541505833529046,0.005985377265085744,1.4822602665376987
10217,4.0,301.36183,3421.4326,0.0,0.0,0.0,0.0,0.0,0.10183089351789734,-0.5691041485937065,0.08874591632179002,-0.5596718540753115,0.01226741490769959,-0.02067389299835438,1.5020420495650086
10218,4.0,301.22092000000004,3137.7319,0.0,0.0,0.0,0.0,0.0,0.10184086032748116,-0.5596342320990985,0.11678030629281888,-0.5109382226281765,0.011529954259667888,-0.007878222785470053,1.4798785208526386
10219,4.0,300.02142000000003,3553.6662,0.0,0.0,0.0,0.0,0.0,0.10185082713706498,-0.6104739038790834,0.09699938351484381,-0.5667512602714945,0.0036532930952519567,0.006836083506568913,1.5288357259343384
10220,4.0,299.70427,3847.745,0.0,0.0,0.0,0.0,0.0,0.1018607939466488,-0.6228710289850844,0.054304312297418354,-0.6010516810666825,-0.016817972782554685,0.010673310068623688,1.4953299769275785
10221,4.0,299.5522,3737.2935,0.0,0.0,0.0,0.0,0.0,0.10187076075623264,-0.6027100877703544,0.07525157510650222,-0.6085853880777015,-0.02263529289267948,0.004251005478891576,1.5307194591952484
10222,4.0,299.99964,3524.6826,0.0,0.0,0.0,0.0,0.0,0.10188072756581645,-0.5601571603432075,0.07956250642545802,-0.5908208542769785,-0.012982007514224386,0.027419086755053175,1.4934642795184485
10223,4.0,299.13986,3456.7096,0.0,0.0,0.0,0.0,0.0,0.10189069437540027,-0.5942653270644215,0.0981532838744749,-0.5546413510388395,0.02985291450850327,0.01151777499346589,1.5104720877469884
10224,4.0,299.87586,3655.9409,0.0,0.0,0.0,0.0,0.0,0.10190066118498409,-0.6048709449336144,0.06944267915770884,-0.5758864901255715,0.03167472704255217,0.01100975064507779,1.4910451449046984
10225,4.0,300.14534,3752.2572,0.0,0.0,0.0,0.0,0.0,0.1019106279945679,-0.6520627035710784,0.07897080281756143,-0.5675005992504485,0.04220522660233156,-0.015033706230961286,1.5134268263635986
10226,4.0,300.12883999999997,3364.3703,0.0,0.0,0.0,0.0,0.0,0.10192059480415173,-0.5544365934586315,0.1024044354640309,-0.5706524048790075,-0.005076380366549735,0.005695148796542425,1.5109815498972685
10227,4.0,300.26403,3198.2301,0.0,0.0,0.0,0.0,0.0,0.10193056161373555,-0.5486658200316005,0.12030875724854989,-0.5438250379438525,-0.01830355346967008,-0.006215283104825683,1.5387688193146585
10228,4.0,299.86183,3750.8233,0.0,0.0,0.0,0.0,0.0,0.10194052842331937,-0.5746723733257475,0.06307665068118073,-0.6285608943916304,-0.05014782461170495,0.002308177850949418,1.5196370362264986
10229,4.0,298.98374,4015.9699,0.0,0.0,0.0,0.0,0.0,0.1019504952329032,-0.6699628811626883,0.06831541309020633,-0.6191070885736124,-0.02192363060544388,-0.018788787796808985,1.5192201851353586
10230,4.0,299.73419,3842.9971,0.0,0.0,0.0,0.0,0.0,0.10196046204248702,-0.6152353788815044,0.051787902634318046,-0.6047276815019754,-0.005782109669149795,0.00908208265718177,1.5213233883679285
10231,4.0,299.64366,3457.8208,0.0,0.0,0.0,0.0,0.0,0.10197042885207083,-0.5991915261355995,0.0958181547867656,-0.5477178232380405,0.008755948151469803,-0.024249653614504475,1.4972805846950883
10232,4.0,299.04519,3396.0534,0.0,0.0,0.0,0.0,0.0,0.10198039566165465,-0.5567967974465655,0.11254716015753988,-0.5880657867250744,0.00989397655623446,0.003927926530181166,1.5178696240770686
10233,4.0,299.53798,3648.2717,0.0,0.0,0.0,0.0,0.0,0.10199036247123847,-0.6173918486718315,0.08694473558627733,-0.5785363924495965,0.011993855619201388,-0.001213856901173349,1.5012237487842486
10234,4.0,299.29900000000004,3738.2698,0.0,0.0,0.0,0.0,0.0,0.1020003292808223,-0.5904780413706454,0.07699265085933302,-0.6228553033435323,0.017335822617162485,0.01095816608248679,1.5278275420848384
10235,4.0,299.25329,3430.0969,0.0,0.0,0.0,0.0,0.0,0.10201029609040613,-0.5987210538491674,0.0997006241816855,-0.5436433723334235,0.006395609907897554,-0.015470628793332187,1.5103158445815685
10236,4.0,300.84626000000003,3417.7375,0.0,0.0,0.0,0.0,0.0,0.10202026289998994,-0.5492754318217644,0.07678911120574522,-0.5664205557038564,-0.015126817835650685,-0.015534232528609384,1.5139559455658187
10237,4.0,300.45457999999996,3703.2591,0.0,0.0,0.0,0.0,0.0,0.10203022970957376,-0.6199554626173404,0.08330023101709272,-0.5890430563140234,0.020106131477070677,-0.025604374064454975,1.5192142069597685
10238,4.0,299.94642999999996,3987.1075,0.0,0.0,0.0,0.0,0.0,0.10204019651915758,-0.6109495842710294,0.051406660191442355,-0.6524381836606354,0.01962450330703768,0.0032625478863134065,1.5398286789192586
10239,4.0,300.34795,3673.8548,0.0,0.0,0.0,0.0,0.0,0.1020501633287414,-0.6142782425720424,0.09731066813106522,-0.5997925658299174,0.024659675399970476,-0.0021421769857414077,1.5274717899747285
10240,4.0,300.72718,3422.7592,0.0,0.0,0.0,0.0,0.0,0.10206013013832521,-0.5475505052490275,0.10042997376266671,-0.5933128010429145,-0.017566564996184985,-0.0006040192778270615,1.5254871370038585
10241,4.0,300.06147999999996,3560.7785,0.0,0.0,0.0,0.0,0.0,0.10207009694790904,-0.6241918916829434,0.10713959636135491,-0.5653354661717664,0.0007047044001239093,-0.007815289011158973,1.5082821503058588
10242,4.0,299.39866,3782.9801,0.0,0.0,0.0,0.0,0.0,0.10208006375749286,-0.6202207821560254,0.07592978595493642,-0.6056404881195624,-0.008053432472886903,0.03066957078435097,1.5138808637334087
10243,4.0,298.84353,3705.3935,0.0,0.0,0.0,0.0,0.0,0.10209003056707668,-0.6180859756528364,0.08617475062328572,-0.5944358773212535,-0.00041720059149699256,-0.01231249440464859,1.5085138806037286
10244,4.0,298.84415,3384.2128,0.0,0.0,0.0,0.0,0.0,0.1020999973766605,-0.5660020834125564,0.10513416163093389,-0.5678482554922595,0.004376176316744976,0.007567231201177572,1.5114712536705985
10245,4.0,298.80048,3248.0988,0.0,0.0,0.0,0.0,0.0,0.10210996418624432,-0.5651469104606575,0.1166609656960409,-0.5388549854083465,-0.0020036762348724486,-0.012162628635357988,1.5252862095090285
10246,4.0,299.9614,3446.1927,0.0,0.0,0.0,0.0,0.0,0.10211993099582814,-0.5691032366686165,0.10119282341845409,-0.5796461140916175,0.012767151883519788,0.016734855876851685,1.5167734901188885
10247,4.0,300.26481,3759.9668,0.0,0.0,0.0,0.0,0.0,0.10212989780541196,-0.6238037257021344,0.08015008103919713,-0.5992823741395654,-0.01137911982328169,-0.00987700856873485,1.5319222883889585
10248,4.0,300.81825,3695.4892,0.0,0.0,0.0,0.0,0.0,0.10213986461499577,-0.6123343019901905,0.08549544242499323,-0.5964975676972265,0.002109060122123028,-0.007177538252467873,1.5020807557188285
10249,4.0,300.60729,3568.7034,0.0,0.0,0.0,0.0,0.0,0.1021498314245796,-0.5904582627286934,0.0961905768875208,-0.5905290281156774,-0.013482859065154588,-0.023610083058633775,1.5362651796425686
10250,4.0,300.42736,3513.4927,0.0,0.0,0.0,0.0,0.0,0.10215979823416343,-0.5943187456096934,0.1062521209962679,-0.5799474040088525,-0.029395446273854674,0.004708836254425956,1.5129001389616186
10251,4.0,299.19723,3742.3547,0.0,0.0,0.0,0.0,0.0,0.10216976504374725,-0.6143903586956074,0.08607402647059502,-0.6092660590973784,-0.024781606877254177,0.0077888010323448114,1.5353914540813383
10252,4.0,300.24672999999996,3774.9618,0.0,0.0,0.0,0.0,0.0,0.10217973185333107,-0.6085992088090655,0.06281920713552304,-0.6017141237170605,-0.01283342654606059,0.01952074852329788,1.4986573889309684
10253,4.0,299.72059,3529.3751,0.0,0.0,0.0,0.0,0.0,0.10218969866291489,-0.6082599929405874,0.08169226795639913,-0.5462741748930635,0.01683551416828588,0.020501468228837378,1.5183333886478385
10254,4.0,300.12765,3443.9838,0.0,0.0,0.0,0.0,0.0,0.1021996654724987,-0.5808171170996865,0.08730819143689761,-0.5533761664339755,0.033616439487434265,0.03400084327062197,1.4942153004925685
10255,4.0,299.99585,3623.7990000000004,0.0,0.0,0.0,0.0,0.0,0.10220963228208253,-0.6097513045702684,0.09061437483744252,-0.5824074941916444,0.03582841815798957,0.022826365517036876,1.5227850016371787
10256,4.0,299.95853999999997,3749.0494,0.0,0.0,0.0,0.0,0.0,0.10221959909166636,-0.6163268721542264,0.0850317173709771,-0.6083222470267314,0.025260369576004374,0.014460256323616184,1.5140160312967486
10257,4.0,299.14994,3636.1472,0.0,0.0,0.0,0.0,0.0,0.10222956590125018,-0.5914870054227224,0.0976244301437811,-0.6114353870314744,-0.02080879509016818,-0.026766873877684772,1.5228916968727086
10258,4.0,300.02532,3510.5313,0.0,0.0,0.0,0.0,0.0,0.102239532710834,-0.5774685484342085,0.08266074658748052,-0.5723060493072094,-0.008063959432150831,-0.004473619869586906,1.4991159859262286
10259,4.0,300.28856,3578.067,0.0,0.0,0.0,0.0,0.0,0.10224949952041781,-0.5878339145721905,0.06875964523879864,-0.5685687573733674,-0.02776616747080737,-0.036167542833958566,1.5070523686594883
10260,4.0,299.94832,3909.4717,0.0,0.0,0.0,0.0,0.0,0.10225946633000163,-0.6155957210145674,0.044314716038521954,-0.6171007925806065,-0.01081186796679829,-0.006488555440895563,1.5111197572109085
10261,4.0,300.21516,3945.4348,0.0,0.0,0.0,0.0,0.0,0.10226943313958546,-0.6412715494760743,0.04089984433950036,-0.5989419727684704,0.01032351890885199,-0.02379708748383968,1.5178023442704285
10262,4.0,300.19194,3432.6495,0.0,0.0,0.0,0.0,0.0,0.10227939994916928,-0.5725720983859665,0.10092450871247349,-0.5717921389889904,0.027532889940034676,0.013952128623717886,1.5304676665453987
10263,4.0,300.79963,3318.7988,0.0,0.0,0.0,0.0,0.0,0.1022893667587531,-0.5673917559247065,0.1114443083511969,-0.5528845070879524,0.02108358649078798,0.008504467987950641,1.5031075833701686
10264,4.0,300.26425,3768.9776,0.0,0.0,0.0,0.0,0.0,0.10229933356833693,-0.6311759307797143,0.08582858385912173,-0.6003277341352344,-0.003263345516792127,0.012504362430334488,1.5191916114825386
10265,4.0,299.5885,3991.4806,0.0,0.0,0.0,0.0,0.0,0.10230930037792074,-0.6674663545063004,0.07097785134446853,-0.6168219157555834,-0.001065317577588659,-0.005164639111210195,1.4905899929597788
10266,4.0,299.51134,3583.5634,0.0,0.0,0.0,0.0,0.0,0.10231926718750456,-0.5769437760749174,0.08321176719061202,-0.5955817719918445,-0.016630834608335587,-0.015021061882963387,1.5283004259065087
10267,4.0,299.36959,3200.9154,0.0,0.0,0.0,0.0,0.0,0.10232923399708838,-0.5655922946746135,0.14292435762553585,-0.5503304075608825,-0.011962096308066989,-0.007255945673031083,1.5160868105261185
10268,4.0,299.02855,3479.6471,0.0,0.0,0.0,0.0,0.0,0.10233920080667219,-0.5334845470958255,0.09597025274602651,-0.6202115311826124,-0.035709450437248366,-0.019448014391369582,1.5464667842993884
10269,4.0,299.90699,3846.2546,0.0,0.0,0.0,0.0,0.0,0.10234916761625602,-0.6455187595227414,0.08156890779647442,-0.6052154904976185,-0.027198210392254372,-0.03610893239517417,1.5253188361622485
10270,4.0,300.02571,3955.0612,0.0,0.0,0.0,0.0,0.0,0.10235913442583985,-0.6090419079102565,0.035066937403087264,-0.6282648936399173,0.021457893236729184,-0.006704338195441664,1.5305940188328686
10271,4.0,300.30649,3550.8905,0.0,0.0,0.0,0.0,0.0,0.10236910123542367,-0.6168543093612804,0.090868340908757,-0.5533960666659394,0.03773713006036476,0.024703636268809077,1.5149607856899885
10272,4.0,300.78803999999997,3464.9859,0.0,0.0,0.0,0.0,0.0,0.10237906804500749,-0.5654788613259185,0.07993346741956901,-0.5677237777174745,0.03288661266565597,0.02104995165371848,1.5172332016892587
10273,4.0,300.93268,3699.6291,0.0,0.0,0.0,0.0,0.0,0.1023890348545913,-0.6637756011495514,0.11094271915419389,-0.5717619745335134,-0.018438324852220984,0.014491971051746187,1.5295956635093384
10274,4.0,299.91022000000004,3929.7659999999996,0.0,0.0,0.0,0.0,0.0,0.10239900166417512,-0.6065361606779585,0.055020403500841045,-0.6430349896851124,-0.011055224296315688,0.016621503588164683,1.5163561324026986
10275,4.0,299.63431,3599.9796,0.0,0.0,0.0,0.0,0.0,0.10240896847375895,-0.6283015834260384,0.0990681169922619,-0.5650704404756105,-0.003464670813611387,0.0013356366949170786,1.5314760530449185
10276,4.0,299.26312,3347.9947,0.0,0.0,0.0,0.0,0.0,0.10241893528334278,-0.5566614981607124,0.1144818193684759,-0.5755271207126045,-0.009431975648588522,-0.01951178429966318,1.5078394613371684
10277,4.0,298.93112,3667.6519,0.0,0.0,0.0,0.0,0.0,0.1024289020929266,-0.6251319040657154,0.08744015510342142,-0.5771828625685134,0.007178576124545304,-0.034108667266763364,1.5267516731286588
10278,4.0,299.76304,3947.3959999999997,0.0,0.0,0.0,0.0,0.0,0.10243886890251042,-0.6031688874156345,0.06288439660720674,-0.6596253388724523,0.008878417563231591,-0.02280921321934408,1.5196420011519884
10279,4.0,299.61416,3755.2929,0.0,0.0,0.0,0.0,0.0,0.10244883571209423,-0.5900390507648204,0.053105065956061945,-0.6045812871275275,0.03543299933296477,0.015984383071035786,1.5370118436412585
10280,4.0,299.33601,3323.1248,0.0,0.0,0.0,0.0,0.0,0.10245880252167805,-0.5334455572319775,0.1143124647467619,-0.5910138784210284,0.014344411439683187,0.0023542041287918573,1.5358908850556285
10281,4.0,300.79715,3465.7973,0.0,0.0,0.0,0.0,0.0,0.10246876933126188,-0.6055332153314754,0.1029750877878499,-0.5509577005652915,-0.017954651943486184,0.011156963725606591,1.5421230824456984
10282,4.0,300.61234,3538.0303,0.0,0.0,0.0,0.0,0.0,0.1024787361408457,-0.5963064484633644,0.08379320353524533,-0.5629596176022885,-0.030279484694602468,0.02034979988761888,1.5125169277737984
10283,4.0,299.94622999999996,3894.3568,0.0,0.0,0.0,0.0,0.0,0.10248870295042951,-0.6440854665937864,0.05910056103002124,-0.5988023266396885,-0.015345255305458787,0.012462246689927988,1.5124384008910485
10284,4.0,299.98222999999996,3911.7641,0.0,0.0,0.0,0.0,0.0,0.10249866976001334,-0.6268238290826954,0.05970192901737165,-0.6219567227573494,-0.0035362257250733066,-0.002995666017299217,1.4857732046343985
10285,4.0,300.01223,3426.0434,0.0,0.0,0.0,0.0,0.0,0.10250863656959716,-0.5944750495701194,0.11555595566698489,-0.5625125412606655,-0.002150027850166228,-0.016533888865267785,1.5370119449662685
10286,4.0,301.45527999999996,3651.1523,0.0,0.0,0.0,0.0,0.0,0.10251860337918098,-0.5983161895067104,0.07754112719146343,-0.5890840726780715,0.02798892442579177,0.01041024805116149,1.5249536608262086
10287,4.0,300.35077,4000.1879,0.0,0.0,0.0,0.0,0.0,0.1025285701887648,-0.6438804557010535,0.07165730241102514,-0.6437341018566094,0.006361175819149174,0.017009705032727182,1.5684962600235286
10288,4.0,298.46968,3660.8806,0.0,0.0,0.0,0.0,0.0,0.10253853699834861,-0.5946988157222034,0.07599525204389743,-0.5941127113343594,0.019283400766873484,-0.009835935867981292,1.5102562654756886
10289,4.0,298.99849,3387.426,0.0,0.0,0.0,0.0,0.0,0.10254850380793244,-0.5572123414450765,0.10517880543033989,-0.5776593940905435,-0.011887535286208388,-0.01908955690349258,1.5483918581643785
10290,4.0,299.20195,3431.5498,0.0,0.0,0.0,0.0,0.0,0.10255847061751626,-0.5594197878479344,0.08202345179133443,-0.5657091122786425,-0.017416640458388585,-0.01209164134660209,1.5004809351359385
10291,4.0,299.29967,3657.219,0.0,0.0,0.0,0.0,0.0,0.10256843742710009,-0.6007461354990274,0.07776286380359713,-0.5887199612546364,-0.016233730748394484,-0.0029515358343689072,1.5417045088293884
10292,4.0,300.2014,3904.5461,0.0,0.0,0.0,0.0,0.0,0.1025784042366839,-0.6178825758277624,0.045323533169334455,-0.6143254701592034,-0.00015383011030684987,-0.013932819116562186,1.5024232342526287
10293,4.0,299.65783999999996,3837.2737,0.0,0.0,0.0,0.0,0.0,0.10258837104626772,-0.6614475779847934,0.07303540664678343,-0.5780232218039504,0.015815657677633887,0.01847743326633068,1.5399493570061686
10294,4.0,299.8966,3729.4925,0.0,0.0,0.0,0.0,0.0,0.10259833785585154,-0.6294253892444494,0.09370388483660341,-0.5979510952306785,0.010128085053414171,0.03559946011239317,1.5111458990634883
10295,4.0,301.27262,3701.8158,0.0,0.0,0.0,0.0,0.0,0.10260830466543536,-0.6336248042838994,0.07805111116554492,-0.5696858757411184,0.003794992778011626,0.040113553142649465,1.5121371616363186
10296,4.0,300.15353,3630.6389,0.0,0.0,0.0,0.0,0.0,0.10261827147501919,-0.5740009735444854,0.10644969463326691,-0.6360723099004494,-0.007095898766735682,-0.013055488411476386,1.5148952284085184
10297,4.0,300.25502,3737.3354,0.0,0.0,0.0,0.0,0.0,0.102628238284603,-0.6198144182034204,0.08012313973228823,-0.5963653689566795,-0.018226429938308582,-0.02017405672402438,1.5237346196308985
10298,4.0,299.89845,3464.905,0.0,0.0,0.0,0.0,0.0,0.10263820509418682,-0.5625325732151425,0.1152307226498869,-0.6059427608893945,0.00977341864078632,-0.030273843931295768,1.5532260743914785
10299,4.0,299.43497,3405.5928,0.0,0.0,0.0,0.0,0.0,0.10264817190377065,-0.5871245381771805,0.08786684789278272,-0.5359574852898854,-0.02153842432817698,-0.026774391180176677,1.5334735742920587
10300,4.0,299.53434,3663.0026,0.0,0.0,0.0,0.0,0.0,0.10265813871335447,-0.5722816705098035,0.06341357964418304,-0.6045932333462065,-0.012917201051078488,-0.043766745318191455,1.5335472375743286
10301,4.0,300.81632,3899.1777,0.0,0.0,0.0,0.0,0.0,0.10266810552293829,-0.6466707843564373,0.060708784495990535,-0.5992906726578844,-0.013721510874457688,0.0017388295800091183,1.5276496153672787
10302,4.0,299.82989,3777.4864,0.0,0.0,0.0,0.0,0.0,0.1026780723325221,-0.5981086049587234,0.05186196817687775,-0.6020148867442434,0.032897246725455465,0.020827220029986583,1.5206371140751986
10303,4.0,300.03055,3645.53,0.0,0.0,0.0,0.0,0.0,0.10268803914210592,-0.6527177292307244,0.1095905571607459,-0.5650229089134194,0.03453431843502187,0.04246207435693046,1.5303667468354385
10304,4.0,300.28527,3607.6424,0.0,0.0,0.0,0.0,0.0,0.10269800595168975,-0.5784325039168434,0.08941405647748031,-0.6076147552769074,-0.009708935911047371,0.0017504017067511985,1.5138268575030787
10305,4.0,299.80368,3461.2501,0.0,0.0,0.0,0.0,0.0,0.10270797276127358,-0.6401182175497494,0.13001405174138786,-0.5420294371766404,-0.009292714149544481,0.012769870433538088,1.5320168246232886
10306,4.0,298.53186,3632.9936,0.0,0.0,0.0,0.0,0.0,0.1027179395708574,-0.5827088753013885,0.09906611582331441,-0.6206965841379833,-0.010339313451410792,0.024597855998119374,1.5175638251968884
10307,4.0,299.70378999999997,3646.703,0.0,0.0,0.0,0.0,0.0,0.10272790638044121,-0.6412321239146833,0.10859049957704789,-0.5758650294884534,-0.0008576782127712491,0.02661570101576518,1.5500360591016487
10308,4.0,300.27847,3533.7823,0.0,0.0,0.0,0.0,0.0,0.10273787319002503,-0.5165252735470754,0.062451901947772843,-0.6201081999374144,-0.024357431001141277,-0.022603829450574278,1.5201828740553687
10309,4.0,301.31425,3642.3764,0.0,0.0,0.0,0.0,0.0,0.10274783999960885,-0.6084225891841344,0.07667745509772562,-0.5754463444146325,-0.005719139316510104,-0.014971974981868886,1.5528462069289886
10310,4.0,300.32196,3912.2607,0.0,0.0,0.0,0.0,0.0,0.10275780680919268,-0.5888204959295584,0.04465845201569606,-0.6450675085907064,0.03371816675772397,-0.011428017246607488,1.5320349618000786
10311,4.0,300.5382,3821.9562,0.0,0.0,0.0,0.0,0.0,0.10276777361877651,-0.6588673771351473,0.06528800012342394,-0.5681998634094605,0.037773352738189665,0.006171713553175704,1.5231257576458086
10312,4.0,299.50092,3559.0169,0.0,0.0,0.0,0.0,0.0,0.10277774042836033,-0.5830423055117955,0.08896830850673841,-0.5877782770091995,0.015314295448653287,-0.015361880713099586,1.5138384085542185
10313,4.0,299.58185,3671.7704,0.0,0.0,0.0,0.0,0.0,0.10278770723794414,-0.6265395009721344,0.08022375141421782,-0.5698107790809455,-0.015983591722707684,-0.005417816569971865,1.5098225944328885
10314,4.0,299.65622,3783.9807,0.0,0.0,0.0,0.0,0.0,0.10279767404752796,-0.6182556747795844,0.1121004181884499,-0.6440804003432864,-0.024328283848764676,0.016689344735360087,1.5435621002377184
10315,4.0,299.40435,3723.1302,0.0,0.0,0.0,0.0,0.0,0.10280764085711178,-0.6132930392348104,0.08759035524524501,-0.6060359495010914,-0.010062493524090792,0.029633553967854075,1.5141906142889787
10316,4.0,299.96278,3616.6484,0.0,0.0,0.0,0.0,0.0,0.1028176076666956,-0.5969690734987605,0.1082493990633839,-0.6106511213215734,0.002911334022076297,0.0032587355328121564,1.5362303238391286
10317,4.0,300.24258,3721.8109,0.0,0.0,0.0,0.0,0.0,0.10282757447627942,-0.6191319435985654,0.06754935345810213,-0.5797549979473634,-0.006375034344741904,0.01985825605210728,1.5069839742777384
10318,4.0,299.9628,3803.409,0.0,0.0,0.0,0.0,0.0,0.10283754128586324,-0.6176623661835294,0.055318967775307044,-0.5937979654557964,-0.007897142697962304,-0.003975868661312686,1.5290106129015986
10319,4.0,300.59959,3864.9629999999997,0.0,0.0,0.0,0.0,0.0,0.10284750809544707,-0.6301812738190494,0.07006037263067043,-0.6147313578842614,0.014688689505660787,0.029654663007187373,1.5411902844036385
10320,4.0,300.39033,3520.7626,0.0,0.0,0.0,0.0,0.0,0.10285747490503089,-0.5705976792411065,0.09858404688948791,-0.5982102744737574,0.005802920407653654,-0.008593674830729673,1.5352250784149186
10321,4.0,300.1562,3279.2448,0.0,0.0,0.0,0.0,0.0,0.1028674417146147,-0.5306747741710225,0.1101477028607319,-0.5762814550145515,0.013924976560788187,-0.015386983984327085,1.5701676160634785
10322,4.0,300.2155,3590.3939,0.0,0.0,0.0,0.0,0.0,0.10287740852419852,-0.5720486533843064,0.08690574268267902,-0.6062471918819394,-0.0005082850880363325,-0.01933071245379278,1.5158327887260485
10323,4.0,299.30065,3943.692,0.0,0.0,0.0,0.0,0.0,0.10288737533378234,-0.6793771499618044,0.07220518599184703,-0.5916119087625494,0.0004892626548989645,-0.014199817610662887,1.5701341788101786
10324,4.0,299.68564,3947.0367,0.0,0.0,0.0,0.0,0.0,0.10289734214336617,-0.6451218086635654,0.07343500310197053,-0.6281137876525044,0.007486444872029582,-0.01345529359618409,1.4842987230888787
10325,4.0,299.72911,3677.1422,0.0,0.0,0.0,0.0,0.0,0.10290730895295,-0.6256368673855514,0.08983795269656561,-0.5819605090425304,0.005681453201565775,0.008140985995477763,1.5465676026843385
10326,4.0,298.34016,3682.2876,0.0,0.0,0.0,0.0,0.0,0.10291727576253382,-0.5946013917250884,0.09448982038266922,-0.6192118991639564,0.022923879693410778,0.027544005293631674,1.5021296956986587
10327,4.0,299.24717000000004,3942.3423,0.0,0.0,0.0,0.0,0.0,0.10292724257211763,-0.6491977693108314,0.08575928768478272,-0.6349351494457204,0.004866088819595576,0.017359294555728984,1.5627797056093484
10328,4.0,299.69592,3724.0472,0.0,0.0,0.0,0.0,0.0,0.10293720938170145,-0.6116132833515314,0.08265791252695082,-0.6030619895300844,0.006690279046329134,0.024185209894894377,1.5169700606382885
10329,4.0,299.72462,3455.7226,0.0,0.0,0.0,0.0,0.0,0.10294717619128527,-0.5961388062343194,0.09031134010353531,-0.5446259209553934,-0.022870943455186376,-0.0036455768917654265,1.5420419211126883
10330,4.0,300.28935,3436.5684,0.0,0.0,0.0,0.0,0.0,0.1029571430008691,-0.5443012553583515,0.06338529375439145,-0.5637150056843395,-0.01928779117955678,-0.004149917062789926,1.5254549156506787
10331,4.0,300.11915,3779.6229,0.0,0.0,0.0,0.0,0.0,0.10296710981045293,-0.6073919111824144,0.05291802910685286,-0.5944371033538745,-0.02698472670218518,-0.02123928756740448,1.5344107293095486
10332,4.0,300.33842999999996,4164.4048,0.0,0.0,0.0,0.0,0.0,0.10297707662003674,-0.6189346739365964,0.02824059751212997,-0.6751809874551754,-0.004092912929389056,-0.015973670990978586,1.5613541640436588
10333,4.0,300.79305,3998.8853,0.0,0.0,0.0,0.0,0.0,0.10298704342962056,-0.6117430097618344,0.035156179405644764,-0.6389744608368694,0.014909957996248287,0.013375065466516187,1.5408839788984086
10334,4.0,300.38882,3411.3237,0.0,0.0,0.0,0.0,0.0,0.10299701023920438,-0.5576060499039325,0.1120406870950549,-0.5913918612383324,0.04430270699833676,0.0025978534902381775,1.5452631445055984
10335,4.0,299.72656,3575.9873,0.0,0.0,0.0,0.0,0.0,0.1030069770487882,-0.6356182421331363,0.11104627331441388,-0.5624388881108965,0.023391557436066978,-0.001088987099924659,1.5041848708764884
10336,4.0,299.33826,3872.3414,0.0,0.0,0.0,0.0,0.0,0.10301694385837203,-0.6428514799595014,0.09323370436620021,-0.6274773247346904,0.005956606433796284,-0.012425827441583688,1.5013464533713585
10337,4.0,299.2092,3585.9568,0.0,0.0,0.0,0.0,0.0,0.10302691066795584,-0.6432597690872964,0.11354741025875689,-0.5603289771626644,-0.008114598024448472,-0.002956111975795537,1.5070269360819786
10338,4.0,299.61287999999996,3299.7290000000003,0.0,0.0,0.0,0.0,0.0,0.10303687747753966,-0.5218917196542024,0.10114551375803499,-0.5822890047249505,-0.0010650875698159591,0.003247148511293607,1.5241939259012285
10339,4.0,298.96394,3243.3549,0.0,0.0,0.0,0.0,0.0,0.10304684428712349,-0.6011943872107663,0.14276442622975188,-0.5274689319146305,-0.012568954084459188,-0.0058029950841860245,1.5579391059066185
10340,4.0,299.79347,3798.7005,0.0,0.0,0.0,0.0,0.0,0.10305681109670731,-0.5977064155965305,0.06453295148015645,-0.6215366292658894,-0.001219921912296919,0.00992637938250737,1.5528127696756884
10341,4.0,299.11514,4139.6151,0.0,0.0,0.0,0.0,0.0,0.10306677790629112,-0.7055199651293993,0.04261349242537426,-0.5954331484671764,0.007079580779175224,0.014918240302565687,1.5660152158286684
10342,4.0,299.38178999999997,4129.1391,0.0,0.0,0.0,0.0,0.0,0.10307674471587494,-0.6382001249779484,0.057063282888707545,-0.6740183437604313,0.006755771581117743,0.01983059331112718,1.5444579146511286
10343,4.0,301.19346,3719.9604,0.0,0.0,0.0,0.0,0.0,0.10308671152545876,-0.6515551159334834,0.09767401657717491,-0.5768939849650034,-0.001007832859665359,0.004888464826853915,1.5582805711903185
10344,4.0,300.76357,3554.0974,0.0,0.0,0.0,0.0,0.0,0.10309667833504259,-0.5525547245779056,0.08026437261072683,-0.6080665027014914,-0.002088072470151708,0.010063366337726929,1.5195284158157787
10345,4.0,300.25293,3784.0778,0.0,0.0,0.0,0.0,0.0,0.1031066451446264,-0.6340708268454184,0.1008661688114658,-0.6170605158891314,0.017832172297898383,0.014997403506378484,1.5329076741112087
10346,4.0,300.4428,3765.4748,0.0,0.0,0.0,0.0,0.0,0.10311661195421022,-0.6023609927134014,0.06946119832978653,-0.6117105148311274,-0.013979721450441086,0.007155669984834643,1.5049806775050287
10347,4.0,299.79,3343.3492,0.0,0.0,0.0,0.0,0.0,0.10312657876379405,-0.5914741675439554,0.10690260729546588,-0.5317231232544865,0.0034802732439512267,-0.02633622941293347,1.4931643574888487
10348,4.0,298.45061,3433.0829,0.0,0.0,0.0,0.0,0.0,0.10313654557337787,-0.5761860271201334,0.09096300278609942,-0.5583484481197014,-0.005238757038800066,-0.02776935008937147,1.4831818175036486
10349,4.0,298.66681,3816.2609,0.0,0.0,0.0,0.0,0.0,0.10314651238296169,-0.6274184549038804,0.06534364984541614,-0.5979732246128624,0.018346679420426282,-0.018458950571256585,1.5069266243220787
10350,4.0,298.51482999999996,3896.3675,0.0,0.0,0.0,0.0,0.0,0.1031564791925455,-0.5818696509060635,0.054002343502616346,-0.6565311263795773,0.004596423248581656,-0.01929645244141158,1.5420026070088086
10351,4.0,299.55343,3863.1412,0.0,0.0,0.0,0.0,0.0,0.10316644600212933,-0.6037715483101125,0.04597834199345905,-0.6165052649668323,0.005378699543236314,-0.004838199414568105,1.5656624021438486
10352,4.0,299.46652,3725.8913,0.0,0.0,0.0,0.0,0.0,0.10317641281171315,-0.5831947489893405,0.07028882709096713,-0.6196719957693644,-0.0035854469831310665,0.01068127522765979,1.5787639285868684
10353,4.0,299.29172,3703.8322,0.0,0.0,0.0,0.0,0.0,0.10318637962129697,-0.6191441836597734,0.08492189423238841,-0.5916502298813314,-0.004509716803074396,0.007839653217763531,1.5829057910206383
10354,4.0,299.51465,3871.8026,0.0,0.0,0.0,0.0,0.0,0.1031963464308808,-0.6471070493194935,0.07941962093610633,-0.6092438891851905,-0.014917940380536086,0.005296992980347505,1.5327256943932486
10355,4.0,299.7704,4049.0058,0.0,0.0,0.0,0.0,0.0,0.10320631324046461,-0.6766688236370133,0.08779281376097611,-0.6419206577551364,-0.026697780353365775,-0.018797736821692182,1.5548521381519587
10356,4.0,299.6672,3531.6177,0.0,0.0,0.0,0.0,0.0,0.10321628005004843,-0.6134675209020304,0.14300254000325185,-0.6030585951422495,0.008347263856135803,0.0024035486993867878,1.4949057291107088
10357,4.0,300.28333,3311.7731,0.0,0.0,0.0,0.0,0.0,0.10322624685963225,-0.5916157996429334,0.15649948729779686,-0.5715799948155534,0.04358314743982176,-0.001972186650914668,1.5673323396336587
10358,4.0,300.56804,3619.8612,0.0,0.0,0.0,0.0,0.0,0.10323621366921606,-0.6134194523172863,0.11742233195368187,-0.6043502965022305,0.036143108307797066,0.0031746166240852673,1.5105496013796385
10359,4.0,300.84389,3880.9444,0.0,0.0,0.0,0.0,0.0,0.1032461804787999,-0.6643072737420234,0.09232903313366611,-0.6077319579159745,-0.006455119200845664,-0.02175561955336248,1.6039894991014383
10360,4.0,301.13237000000004,3658.0503,0.0,0.0,0.0,0.0,0.0,0.10325614728838373,-0.5913016617144304,0.08125046558154662,-0.6019047565908744,-0.026631430710317577,-0.0003881437298368036,1.5191615179545686
10361,4.0,299.95518,3532.9138,0.0,0.0,0.0,0.0,0.0,0.10326611409796754,-0.5750474886452684,0.0962637102399885,-0.5951338039901334,-0.016622520891265084,0.004977240734365415,1.5890519634772184
10362,4.0,299.93877000000003,3789.2203,0.0,0.0,0.0,0.0,0.0,0.10327608090755136,-0.5820180920457134,0.056119534652816855,-0.6259298081219624,-0.0025049332884926677,0.015230994131432087,1.5260773551871087
10363,4.0,299.94335,4039.5552,0.0,0.0,0.0,0.0,0.0,0.10328604771713518,-0.6428655134733864,0.04669244418693546,-0.6317508590189553,0.0003973832129936696,-0.0004349452048007496,1.5703141320279386
10364,4.0,299.11886,3940.9676,0.0,0.0,0.0,0.0,0.0,0.103296014526719,-0.6223223033934295,0.06494008752933764,-0.6405735316146854,0.005033974127339565,0.0037373295254207067,1.5329440497897986
10365,4.0,299.37786,3573.9053,0.0,0.0,0.0,0.0,0.0,0.10330598133630282,-0.6238426547709764,0.12166545860244589,-0.5842007543511255,0.021761773021219778,-0.006752615813681293,1.5451142980659085
10366,4.0,299.31777999999997,3330.0441,0.0,0.0,0.0,0.0,0.0,0.10331594814588665,-0.5574574365117655,0.12527958998663288,-0.5800724086736895,0.01999654543900538,0.008431686131942631,1.5353392717011884
10367,4.0,299.48097,3689.5023,0.0,0.0,0.0,0.0,0.0,0.10332591495547047,-0.6111489716257075,0.07996456203863783,-0.5903321637537484,-0.0036494514588228167,-0.017569767879751085,1.4965275372207685
10368,4.0,299.26667000000003,4062.0455,0.0,0.0,0.0,0.0,0.0,0.10333588176505429,-0.6410925588459093,0.06069478847235925,-0.6543626191780624,-0.017402250280468382,-0.003116974751071457,1.5287683448026883
10369,4.0,300.05827999999997,3742.9066,0.0,0.0,0.0,0.0,0.0,0.1033458485746381,-0.6308894849764445,0.09209390034196033,-0.5989545472022114,-0.04359147128939325,-0.008153833804095742,1.5412702298365286
10370,4.0,300.53869,3519.6509,0.0,0.0,0.0,0.0,0.0,0.10335581538422192,-0.5937710940631444,0.10402037685601191,-0.5801352605773925,0.002076419384726638,0.013715332075347888,1.5897583001219286
10371,4.0,300.38627,3816.4440000000004,0.0,0.0,0.0,0.0,0.0,0.10336578219380575,-0.6519352265759973,0.1053474406444829,-0.6135158934618045,-0.014028414197246687,-0.00951795437787396,1.5842582772541185
10372,4.0,299.68961,4121.7437,0.0,0.0,0.0,0.0,0.0,0.10337574900338957,-0.6288257883652734,0.044187441693460956,-0.6682688080554963,0.00034293307779485966,0.004500241496089256,1.5779829154097884
10373,4.0,300.37932,4121.9676,0.0,0.0,0.0,0.0,0.0,0.10338571581297339,-0.6414508136837663,0.034946573423708265,-0.6464709714367174,0.01062079939544129,-0.008915473740588752,1.5444198164473684
10374,4.0,300.32152,3820.8755,0.0,0.0,0.0,0.0,0.0,0.10339568262255722,-0.5838060934371755,0.06225180329152464,-0.6398964576328634,0.02174372703693878,-0.001146934569168629,1.5367572138911287
10375,4.0,300.20664,3483.8109,0.0,0.0,0.0,0.0,0.0,0.10340564943214103,-0.6104383691980765,0.1068194194622559,-0.5553725629735045,0.02390208957845258,-0.02928444776514997,1.5362319450392883
10376,4.0,299.12206000000003,3480.6940000000004,0.0,0.0,0.0,0.0,0.0,0.10341561624172485,-0.5615983363579404,0.0946491245766413,-0.5910948371040184,-4.0889225478452364e-05,-0.0024758125819436777,1.5264844790772885
10377,4.0,298.90349,3536.9082,0.0,0.0,0.0,0.0,0.0,0.10342558305130867,-0.6319282791114654,0.1145752308951949,-0.5577787482509765,-0.009065944318864042,0.006463844094806744,1.5453520065393684
10378,4.0,298.69897000000003,3568.1219,0.0,0.0,0.0,0.0,0.0,0.10343554986089248,-0.5662052299251055,0.1004486722800121,-0.6188634221895645,-0.02349864885238608,0.026469290429315576,1.5186802241570685
10379,4.0,298.85556,3417.259,0.0,0.0,0.0,0.0,0.0,0.10344551667047631,-0.5848803310606944,0.1109233255472799,-0.5648044015293544,0.02071411193457368,-0.0074473506434212825,1.5151335448320384
10380,4.0,298.87949,3768.4978,0.0,0.0,0.0,0.0,0.0,0.10345548348006015,-0.5845670847922795,0.05425142672169895,-0.6152135737393524,0.02196821664959418,-0.003724281397257957,1.5106732178918385
10381,4.0,299.48489,4134.2397,0.0,0.0,0.0,0.0,0.0,0.10346545028964396,-0.7005190996583524,0.05568606018053624,-0.6118726044496244,0.036995335741655366,-0.0014572429189186784,1.5583929406264088
10382,4.0,300.61752,4043.4207,0.0,0.0,0.0,0.0,0.0,0.10347541709922778,-0.6548612902147773,0.050861486041387856,-0.6250991254249804,0.006129478958532475,0.0063237224477528135,1.5753274908727184
10383,4.0,300.55146,3742.5107,0.0,0.0,0.0,0.0,0.0,0.1034853839088116,-0.6246319563338744,0.06892384241750363,-0.5819216812986984,-0.0065288838081256646,0.0025612087937466276,1.5691398764870486
10384,4.0,300.0797,3727.9502,0.0,0.0,0.0,0.0,0.0,0.10349535071839541,-0.5599925781294645,0.06676971222165753,-0.6399809120286983,-0.029760025818835873,0.018887937358844285,1.5395835737200685
10385,4.0,300.42914,3788.4253,0.0,0.0,0.0,0.0,0.0,0.10350531752797924,-0.5612184992929534,0.03673434987364806,-0.6271025437877025,-0.013343762117926787,0.004451070900536496,1.5121938023169086
10386,4.0,300.92136,3689.2424,0.0,0.0,0.0,0.0,0.0,0.10351528433756307,-0.6017447644000844,0.095029840129465,-0.6147226540659024,-0.027760636138511475,-0.008206923144410253,1.5214064748761287
10387,4.0,300.46531,3636.85,0.0,0.0,0.0,0.0,0.0,0.10352525114714689,-0.6401965519149804,0.11105195764747489,-0.5763669834554924,-0.004405926960881136,-0.03387953899515017,1.5322947591257186
10388,4.0,300.79072,3351.0185,0.0,0.0,0.0,0.0,0.0,0.10353521795673071,-0.6276860035927854,0.14304572472251387,-0.5339856701977825,0.007076632728009274,-0.015882727741503185,1.5455329730072285
10389,4.0,299.80655,3478.0592,0.0,0.0,0.0,0.0,0.0,0.10354518476631452,-0.6010326015672994,0.1086758557654719,-0.5648863937274465,0.015010169444388384,0.002325017966286408,1.5569609142600784
10390,4.0,299.17155,3970.7348,0.0,0.0,0.0,0.0,0.0,0.10355515157589834,-0.6149934046251234,0.07933251486475962,-0.6713433432314294,0.0007145252659231534,0.020698829083315377,1.5403172681174786
10391,4.0,299.11106,4290.6616,0.0,0.0,0.0,0.0,0.0,0.10356511838548217,-0.6485147982134274,0.025417613832523177,-0.6811568123049433,0.009866244812922552,-0.006179927667761374,1.5682500402492285
10392,4.0,299.22789,3891.6034,0.0,0.0,0.0,0.0,0.0,0.10357508519506599,-0.6189479069829024,0.060966672858442136,-0.6249690139796394,-0.0065677519806366545,-0.01147711529345309,1.5406154676219086
10393,4.0,299.40084,3528.45,0.0,0.0,0.0,0.0,0.0,0.1035850520046498,-0.5889377390986295,0.06561980204092024,-0.5492427747710414,0.0004158629595099786,-0.006221978661486484,1.5574755439858685
10394,4.0,299.4809,3575.7874,0.0,0.0,0.0,0.0,0.0,0.10359501881423364,-0.6051850423321135,0.07914733124998342,-0.5609123660402404,0.003417386180469757,0.008320605853954862,1.5431578134478185
10395,4.0,300.2845,3713.3294,0.0,0.0,0.0,0.0,0.0,0.10360498562381745,-0.6147640048024835,0.08819810265522501,-0.6021935227368734,-0.018151166734130683,0.0024454572301478377,1.5395874240704486
10396,4.0,300.52543,3565.042,0.0,0.0,0.0,0.0,0.0,0.10361495243340127,-0.5492837810025885,0.06420719055975635,-0.5986071544054264,-0.00850765668601534,0.023705663953816875,1.4855215133095585
10397,4.0,301.09508999999997,3296.7147,0.0,0.0,0.0,0.0,0.0,0.10362491924298509,-0.5213197805027565,0.10388881646302789,-0.5846879959267124,-0.0025429386785435076,0.0004209231609068816,1.5203209800439985
10398,4.0,301.14585,3442.0434,0.0,0.0,0.0,0.0,0.0,0.1036348860525689,-0.5709346862243665,0.10436161922468991,-0.5797221889091254,0.01958156176779968,-0.0012642027655170988,1.5265017043289886
10399,4.0,299.71333,3870.882,0.0,0.0,0.0,0.0,0.0,0.10364485286215273,-0.6694586777804273,0.07581880365823333,-0.5830116040337654,0.013746696218943286,-0.021666422133809378,1.5484495120950685
10400,4.0,299.76227,4224.5264,0.0,0.0,0.0,0.0,0.0,0.10365481967173655,-0.7339985852225203,0.07890694880950952,-0.6290588966832794,0.024074774753245275,-0.018798014452219583,1.5700247477993785
10401,4.0,299.65155,3982.4392,0.0,0.0,0.0,0.0,0.0,0.10366478648132037,-0.6455272708235813,0.04469969129476605,-0.6097344846186084,0.0014963973345829187,-0.01790839504992098,1.5342041276141587
10402,4.0,300.14815,3513.5231,0.0,0.0,0.0,0.0,0.0,0.1036747532909042,-0.5419951690582585,0.09650243500329882,-0.6225305566864824,0.007024042919994063,0.01032806333555049,1.5624280064996385
10403,4.0,299.69801,3790.1875,0.0,0.0,0.0,0.0,0.0,0.10368472010048801,-0.5755818868805094,0.05239591044957375,-0.6289364048786904,-0.009239659361058382,0.025303273624988677,1.5199307774304884
10404,4.0,299.85059,3971.3893,0.0,0.0,0.0,0.0,0.0,0.10369468691007183,-0.6155767023101905,0.06083538908273544,-0.6524618835804743,-0.007162671239050613,0.013976019034575687,1.5608903994728884
10405,4.0,299.19197,3455.8131,0.0,0.0,0.0,0.0,0.0,0.10370465371965565,-0.5989156890608764,0.09875399831551082,-0.5503192010147765,-0.024781487313742377,0.004260862578514396,1.5165801619998087
10406,4.0,300.15242,3270.8844,0.0,0.0,0.0,0.0,0.0,0.10371462052923947,-0.5678630286787174,0.12495996024258789,-0.5513641253129025,-0.02250978869554318,-0.004227718762443356,1.5696447790118786
10407,4.0,299.10177999999996,3595.0735,0.0,0.0,0.0,0.0,0.0,0.1037245873388233,-0.6280740783810853,0.08622694313593672,-0.5509654316635545,-0.016352801820645885,-0.009062299962229372,1.5019778095086687
10408,4.0,300.0575,4027.585,0.0,0.0,0.0,0.0,0.0,0.10373455414840711,-0.6059995940875034,0.04578275230015586,-0.6640684304284513,-0.001333506235256819,-0.015472207436987986,1.5397881489152587
10409,4.0,300.05152000000004,4153.0251,0.0,0.0,0.0,0.0,0.0,0.10374452095799094,-0.6517241868451693,0.03845802609576166,-0.6491497615210934,0.024580539553910374,-0.010114799824728021,1.5105809108077286
10410,4.0,300.51554,3945.8196,0.0,0.0,0.0,0.0,0.0,0.10375448776757476,-0.6102505024970354,0.07036434462092014,-0.6595444713819714,0.02114864322670858,-0.005182560364403885,1.5779837260098684
10411,4.0,299.93196,3516.6976,0.0,0.0,0.0,0.0,0.0,0.10376445457715858,-0.6310095348482925,0.1075158363884869,-0.5454945600011214,0.030707999307643574,-0.0036228901207014164,1.5672859327790787
10412,4.0,300.93863999999996,3863.0791,0.0,0.0,0.0,0.0,0.0,0.1037744213867424,-0.6346634970939103,0.07208033534102523,-0.6116964306547374,0.01951907463413268,0.002011977286316698,1.5915463825733984
10413,4.0,299.33126,3943.6495,0.0,0.0,0.0,0.0,0.0,0.10378438819632621,-0.6596976443995883,0.08267410223704863,-0.6217474460816954,0.016658439594059982,0.002233598793239038,1.5321086250823486
10414,4.0,300.18845,3808.9196,0.0,0.0,0.0,0.0,0.0,0.10379435500591004,-0.5712136745069004,0.06884531046850313,-0.6554480937451904,-0.007472407203819174,-0.0025869637874384476,1.5465352800061485
10415,4.0,298.93174,3428.397,0.0,0.0,0.0,0.0,0.0,0.10380432181549387,-0.5646951225060695,0.09454746620735842,-0.5719994398269495,-0.027569848237432176,0.008520729233505503,1.4978810367043485
10416,4.0,298.87417,3561.2451,0.0,0.0,0.0,0.0,0.0,0.10381428862507769,-0.5793378327486924,0.09836704722157172,-0.6015587924767304,-0.036889674021227364,-0.008032796722675312,1.5456570961444787
10417,4.0,299.83386,3797.7932,0.0,0.0,0.0,0.0,0.0,0.1038242554346615,-0.6539016917075724,0.08598354019691472,-0.5865161422871364,-0.0064614468463951545,0.01099382235350579,1.5389015550777587
10418,4.0,301.09961,3861.7062,0.0,0.0,0.0,0.0,0.0,0.10383422224424532,-0.6207632965245674,0.07485093297721192,-0.6279498944488294,-0.007935834058330841,0.016726253383502684,1.5813269447148184
10419,4.0,299.96017,3814.0244,0.0,0.0,0.0,0.0,0.0,0.10384418905382914,-0.6338099960046764,0.06921027808827264,-0.5947684564015764,0.02044868701787828,0.003030774120014117,1.5433256076643787
10420,4.0,300.49916,3833.6218,0.0,0.0,0.0,0.0,0.0,0.10385415586341297,-0.6100079709530994,0.07771390355876513,-0.6330312221103174,0.008747133787524891,-0.017807141980678086,1.5664079515674285
10421,4.0,300.32698,4002.5861,0.0,0.0,0.0,0.0,0.0,0.1038641226729968,-0.6367832365681124,0.046979511112516754,-0.6268825165284874,0.019203316518719784,0.007790665007228773,1.5353177907990685
10422,4.0,299.76614,4036.3779999999997,0.0,0.0,0.0,0.0,0.0,0.10387408948258062,-0.6385454912745334,0.06919479056049413,-0.6576074310333004,0.004784298967548545,-0.0003521364284531597,1.5741711698585985
10423,4.0,299.17127,3790.7739,0.0,0.0,0.0,0.0,0.0,0.10388405629216443,-0.6043308421003104,0.06324324723612254,-0.6112130292970295,-0.017432984182501585,0.003244791792886017,1.5586636810531285
10424,4.0,299.52826,3464.2764,0.0,0.0,0.0,0.0,0.0,0.10389402310174825,-0.5808597951938984,0.1017043404399369,-0.5738980881293315,-0.025905031713627576,-0.0037233819351441865,1.5511803224395786
10425,4.0,298.76905,3537.1201,0.0,0.0,0.0,0.0,0.0,0.10390398991133207,-0.5892631342357435,0.11227443376062389,-0.5982074880359824,-0.008397591178002723,-0.007956867002581632,1.5544717640644183
10426,4.0,299.10242999999997,3860.7642,0.0,0.0,0.0,0.0,0.0,0.1039139567209159,-0.6232843944958804,0.07656271364315152,-0.6268542468506975,0.028887792775003175,0.009396300227142631,1.5241009095420486
10427,4.0,300.15089,3977.6617,0.0,0.0,0.0,0.0,0.0,0.10392392353049971,-0.6441811174032264,0.07393547164436293,-0.6388641989609873,-0.0016934508703055884,0.004359828033006526,1.5572127069099286
10428,4.0,300.04967,3770.2276,0.0,0.0,0.0,0.0,0.0,0.10393389034008353,-0.6291873261334544,0.07147662674594384,-0.5883443393100654,0.014062673196377787,-0.006236665012410914,1.5297085395704786
10429,4.0,300.34258,3784.8958,0.0,0.0,0.0,0.0,0.0,0.10394385714966736,-0.6389322691027054,0.08647224287914591,-0.5980537881283134,-0.021297964880695477,0.004110214478821587,1.6022967634843786
10430,4.0,301.17342,3823.219,0.0,0.0,0.0,0.0,0.0,0.10395382395925118,-0.6362628313167524,0.08712124679344761,-0.6130215287380144,-0.003151108613815207,0.030839090565831267,1.5782281219339884
10431,4.0,299.88425,3854.7774,0.0,0.0,0.0,0.0,0.0,0.103963790768835,-0.6154141364641464,0.06594125360864503,-0.6222831919395694,-0.013893590125690589,0.02077620390070168,1.5847280200004785
10432,4.0,299.39294,3903.2093,0.0,0.0,0.0,0.0,0.0,0.10397375757841881,-0.6117053979181224,0.05877931717856695,-0.6335520833242224,-0.009071186976206451,-0.004513928377115046,1.5303358427073885
10433,4.0,300.62793,3811.2527,0.0,0.0,0.0,0.0,0.0,0.10398372438800263,-0.6277962148061623,0.08049837360207092,-0.6112278024834874,0.005265452125934665,-0.006587834293643624,1.5519042896360287
10434,4.0,299.28763,3469.2876,0.0,0.0,0.0,0.0,0.0,0.10399369119758646,-0.5782240175762674,0.1014819725729909,-0.5778347370203484,0.035504920838312866,-0.015045129612588685,1.5234257810004186
10435,4.0,299.22974,3647.7999,0.0,0.0,0.0,0.0,0.0,0.10400365800717029,-0.6089157785378084,0.0919277151665591,-0.5918520085062454,0.016929310730042883,0.005428002975877184,1.5571024652990486
10436,4.0,300.22904,3835.5369,0.0,0.0,0.0,0.0,0.0,0.10401362481675411,-0.6235352954856425,0.08917446437208441,-0.6315466181962984,-0.0052592089854435154,-0.016563390655179384,1.5502819749009185
10437,4.0,300.04061,3699.0389,0.0,0.0,0.0,0.0,0.0,0.10402359162633792,-0.5969026853522085,0.07605268001981513,-0.6035654633722733,-0.01954578897301918,0.008668826678721582,1.5647212954509684
10438,4.0,299.62225,3546.9212,0.0,0.0,0.0,0.0,0.0,0.10403355843592174,-0.5863237463581484,0.09987372580226932,-0.5917254434362544,0.0013734429813232686,0.026770501313042774,1.5441201983927986
10439,4.0,300.58625,3875.4422,0.0,0.0,0.0,0.0,0.0,0.10404352524550556,-0.6448080456375994,0.07338773093180513,-0.6066173321434694,-0.008773299654132262,-0.0022080371276662976,1.5551364561300185
10440,4.0,299.80404,3898.2546,0.0,0.0,0.0,0.0,0.0,0.10405349205508939,-0.6487690226635174,0.07404201894537833,-0.6102450613439985,-0.019434953597580584,-0.01854121533362548,1.5399128800025685
10441,4.0,299.81842,3881.4951,0.0,0.0,0.0,0.0,0.0,0.10406345886467322,-0.6775139552804214,0.09129243369836172,-0.5936560699117924,-0.014255654783923587,-0.002111652015878828,1.5787707173625385
10442,4.0,299.93784,3844.5587,0.0,0.0,0.0,0.0,0.0,0.10407342567425704,-0.6307374569314405,0.08072700740763533,-0.6186393925924544,0.028056504154461374,0.029584064806469874,1.5881831015164685
10443,4.0,300.44535,3436.4697,0.0,0.0,0.0,0.0,0.0,0.10408339248384085,-0.5813326992805704,0.13794064647868184,-0.6012089476147034,0.023414733505604274,0.017283673674265785,1.5795075528352587
10444,4.0,300.65227000000004,3591.8190000000004,0.0,0.0,0.0,0.0,0.0,0.10409335929342467,-0.5554407243077314,0.07202231866679942,-0.6084048674398854,0.006149264591910165,-0.007062205465135414,1.5430802998151685
10445,4.0,301.38047,3986.4168,0.0,0.0,0.0,0.0,0.0,0.10410332610300849,-0.6575741862975193,0.08380581343273982,-0.6380027945209733,0.0028869893711986673,-0.006775553465470064,1.5444042123958286
10446,4.0,300.29016,3892.327,0.0,0.0,0.0,0.0,0.0,0.10411329291259232,-0.6219991070090324,0.06306861864763803,-0.6242397272201644,0.009057253875406361,-0.013511329366464387,1.5324550552915384
10447,4.0,299.93951,3553.8184,0.0,0.0,0.0,0.0,0.0,0.10412325972217613,-0.6261498961761834,0.1024882008497979,-0.5566103695606665,8.305083571697932e-05,-0.03723952496275497,1.5686566575143586
10448,4.0,299.26421,3691.594,0.0,0.0,0.0,0.0,0.0,0.10413322653175995,-0.6017172039973644,0.08404293320789172,-0.6044781281348465,-0.023780242200927178,-0.02243911855406858,1.5553530890013985
10449,4.0,299.68822,4016.1278,0.0,0.0,0.0,0.0,0.0,0.10414319334134378,-0.6769790605526314,0.0959117679502545,-0.6397352799394564,-0.015888582300580986,0.02046531647851948,1.6084148689131885
10450,4.0,300.26541000000003,4107.8867,0.0,0.0,0.0,0.0,0.0,0.1041531601509276,-0.6320206672555834,0.049816650909270656,-0.6664909594300363,0.004413689976522286,0.04631017025545795,1.5526637205859786
10451,4.0,300.10292000000004,3853.0685,0.0,0.0,0.0,0.0,0.0,0.10416312696051142,-0.6447766551495014,0.0936486333219005,-0.6201085849724524,0.0011526703753347088,0.018108067127877086,1.5627835559597285
10452,4.0,300.20362,3695.7234,0.0,0.0,0.0,0.0,0.0,0.10417309377009523,-0.6092948556652205,0.0958173289879341,-0.6099301229479164,-0.01948874805863968,-0.026564154956677976,1.5183681431262686
10453,4.0,301.04165,3571.0028,0.0,0.0,0.0,0.0,0.0,0.10418306057967905,-0.6131609924817784,0.1063741568383119,-0.5787088476166165,0.01095871830379129,-0.024351255241781774,1.5585833303201986
10454,4.0,300.18008,3581.1947,0.0,0.0,0.0,0.0,0.0,0.10419302738926288,-0.5857604704950574,0.0967760338085509,-0.5996093296818334,0.02392422909313758,0.005426374378991455,1.5476979844958985
10455,4.0,300.37822,3813.8873,0.0,0.0,0.0,0.0,0.0,0.1042029941988467,-0.6167311589441264,0.0993731022326116,-0.6419684527623534,0.017971255059624783,-0.005544226815347585,1.5893447927561184
10456,4.0,300.38842,3693.123,0.0,0.0,0.0,0.0,0.0,0.10421296100843051,-0.5894787639895245,0.1066775644482559,-0.6398159650449193,-0.002926629640285857,-0.0027350576862791775,1.5461665582947586
10457,4.0,299.04263,3714.2173,0.0,0.0,0.0,0.0,0.0,0.10422292781801434,-0.6086816974997064,0.08482781902685392,-0.6051754569861674,-0.0005890191740091664,0.01047463300226579,1.5757325882626985
10458,4.0,299.4345,4153.1608,0.0,0.0,0.0,0.0,0.0,0.10423289462759816,-0.6926781549520113,0.07440033153849103,-0.6441793644805534,0.0009449591710852091,0.02046881523111478,1.5567112494354385
10459,4.0,300.79758,4289.9462,0.0,0.0,0.0,0.0,0.0,0.10424286143718198,-0.7197498570162804,0.07688137269360072,-0.6611680425472053,-0.0063269050663169145,-0.02096672734350488,1.6048814631644686
10460,4.0,300.54249,3900.9719,0.0,0.0,0.0,0.0,0.0,0.1042528282467658,-0.6604155320954384,0.07707171071163563,-0.6024542421201045,-0.005443973722628375,-0.025236121487861276,1.5633099393866785
10461,4.0,301.03164,3713.4844,0.0,0.0,0.0,0.0,0.0,0.10426279505634961,-0.6190031493783544,0.10906134676601689,-0.6188647394146944,-0.007673111884952182,-0.004495088106080655,1.6116719613596384
10462,4.0,300.33942,3713.6988,0.0,0.0,0.0,0.0,0.0,0.10427276186593344,-0.5974790220090884,0.09295153549160232,-0.6243442135704764,0.0066520495253561745,0.014367757735237286,1.5325873857545984
10463,4.0,299.93563,3861.1751,0.0,0.0,0.0,0.0,0.0,0.10428272867551726,-0.6033364181871684,0.06808633446784804,-0.6384507321251814,-0.0016927076513572384,-0.0011574511932815387,1.5647280842266384
10464,4.0,299.59312,3938.5679999999998,0.0,0.0,0.0,0.0,0.0,0.10429269548510109,-0.6473022114212544,0.06882123665937723,-0.6187453582879124,0.008816739104469402,0.007603674868849283,1.5000409819425187
10465,4.0,299.92703,3869.113,0.0,0.0,0.0,0.0,0.0,0.1043026622946849,-0.6245451613303084,0.07428693770654993,-0.6258555064921295,0.0066774280966358434,0.0026007792499019274,1.5660710459091784
10466,4.0,299.76718999999997,3456.0009,0.0,0.0,0.0,0.0,0.0,0.10431262910426872,-0.5745702073181644,0.11393775472728089,-0.5899055246666425,0.014138638582874986,0.006513473186029755,1.5485338145033885
10467,4.0,300.04498,3712.3418,0.0,0.0,0.0,0.0,0.0,0.10432259591385254,-0.5842099546620335,0.09046938584088321,-0.6347186280318514,-0.002790201188521417,0.00015114305210165785,1.6052709565029086
10468,4.0,299.86305,4170.4125,0.0,0.0,0.0,0.0,0.0,0.10433256272343636,-0.6638171444036514,0.04685735975996136,-0.6507414761031833,-0.0022418329701766877,0.007845848634174972,1.5636539377956284
10469,4.0,300.29894,4120.7387,0.0,0.0,0.0,0.0,0.0,0.10434252953302019,-0.6608157050899324,0.048569828422718855,-0.6403557841681954,-0.022012441976708878,0.0006075078573913574,1.5760537885443986
10470,4.0,300.3571,3741.8996,0.0,0.0,0.0,0.0,0.0,0.10435249634260402,-0.6609936115424904,0.09577269734752931,-0.5722231147865244,-0.006301747991509104,0.00969226379257696,1.5411281721725085
10471,4.0,299.62452,3809.8218,0.0,0.0,0.0,0.0,0.0,0.10436246315218783,-0.6488361910126463,0.07160276321114253,-0.5808572620686484,-0.0004168771114025676,-0.012981571816681386,1.5438631368424285
10472,4.0,300.17019,3900.1955,0.0,0.0,0.0,0.0,0.0,0.10437242996177165,-0.6474853057143244,0.07494393109789013,-0.6130206674754295,0.035788392752539366,-0.027141629493420274,1.5712513883704384
10473,4.0,299.46036000000004,3762.3744,0.0,0.0,0.0,0.0,0.0,0.10438239677135547,-0.6061928614115775,0.08424832913566271,-0.6217233509943174,0.0031950387811757776,-0.02865938188446077,1.5603897525984785
10474,4.0,299.5108,3625.6195,0.0,0.0,0.0,0.0,0.0,0.10439236358093928,-0.5876227228538474,0.1058030181544449,-0.6202780915816815,-0.017396326820383782,-0.014515076193776484,1.5758385742231587
10475,4.0,301.09597,3654.7826,0.0,0.0,0.0,0.0,0.0,0.10440233039052312,-0.5943127978316065,0.09601066419976481,-0.6126605279923864,-0.026453193938226975,-0.0029704297063335877,1.5444427158996286
10476,4.0,301.19608,3647.7209,0.0,0.0,0.0,0.0,0.0,0.10441229720010693,-0.6041085552933725,0.08914129968306132,-0.5938488103458145,-0.01094342025378149,0.01736662744670268,1.5657506562275587
10477,4.0,299.62462,3956.1274,0.0,0.0,0.0,0.0,0.0,0.10442226400969076,-0.6432829117195804,0.0867643142469711,-0.6460453354672103,0.012416168128380388,0.017519147931255283,1.5568109532452785
10478,4.0,300.37372999999997,4316.9816,0.0,0.0,0.0,0.0,0.0,0.10443223081927458,-0.6960858264958223,0.04417074434506305,-0.6603395383379383,0.0005851659358663815,0.0037032280866801564,1.5892384014956185
10479,4.0,298.97322,3733.5855,0.0,0.0,0.0,0.0,0.0,0.1044421976288584,-0.6189777370658465,0.08070745674695583,-0.5966464850644234,0.017645775822752483,-0.015212806292137086,1.5636437039696185
10480,4.0,299.44766,3639.7670000000003,0.0,0.0,0.0,0.0,0.0,0.10445216443844221,-0.5944775826953693,0.07297332785290672,-0.5848940099370444,0.005637293330407535,-0.021991590302900977,1.5562422159641487
10481,4.0,300.21915,3892.1981,0.0,0.0,0.0,0.0,0.0,0.10446213124802603,-0.6405599641958464,0.07638544249840623,-0.6189565094762515,0.017432582935461984,0.000991006392807216,1.5444241734227986
10482,4.0,299.56581,3892.0408,0.0,0.0,0.0,0.0,0.0,0.10447209805760986,-0.6458158647170634,0.07230601045629763,-0.6095733677202074,-0.008643397242286893,0.02713449722596637,1.5477919127801685
10483,4.0,299.24232,3604.6138,0.0,0.0,0.0,0.0,0.0,0.10448206486719368,-0.5803502114536064,0.07749731223063923,-0.5928596857306954,-0.020694740619161878,0.011117942451005489,1.5190348616920686
10484,4.0,299.83645,3485.3852,0.0,0.0,0.0,0.0,0.0,0.10449203167677751,-0.5943830464610395,0.12388067663357087,-0.5889677009040865,-0.015493712657110383,0.006871336706698134,1.5781089637222285
10485,4.0,299.1528,3479.863,0.0,0.0,0.0,0.0,0.0,0.10450199848636132,-0.5474315192897845,0.08892883329609251,-0.5992887576151954,0.002979615021140107,-0.035472476570110864,1.5530127852454285
10486,4.0,299.67053,3955.0012,0.0,0.0,0.0,0.0,0.0,0.10451196529594514,-0.6328916367765414,0.06058193976897194,-0.6299119114124654,0.017692038795818283,-0.031012658281461075,1.5814434684763186
10487,4.0,299.89882,4364.7438,0.0,0.0,0.0,0.0,0.0,0.10452193210552896,-0.6815005979313724,0.025022716831299873,-0.6702952474604904,0.019731833850380378,-0.04115342233602656,1.5497796055013384
10488,4.0,300.48933,4029.7315,0.0,0.0,0.0,0.0,0.0,0.10453189891511278,-0.6541433619889233,0.062055135500115044,-0.6328495159698845,0.014559411965152086,-0.01229695520111499,1.5789666799318784
10489,4.0,300.50317,3551.8862,0.0,0.0,0.0,0.0,0.0,0.1045418657246966,-0.5739820055026135,0.08227972807287692,-0.5879824266393474,0.00934983460405683,0.03653446703967117,1.5423697075200384
10490,4.0,300.49883,3852.7192,0.0,0.0,0.0,0.0,0.0,0.10455183253428044,-0.6502922618038494,0.0986641564688941,-0.6195023371726204,-0.014840431814136586,0.041017757266887465,1.6007545968321786
10491,4.0,299.73503,4073.41,0.0,0.0,0.0,0.0,0.0,0.10456179934386425,-0.6432915040804285,0.056444258005114545,-0.6513676950624864,-0.015508804004099784,0.015188237003712286,1.5551423329805985
10492,4.0,300.25225,3629.8489,0.0,0.0,0.0,0.0,0.0,0.10457176615344807,-0.6332041231073814,0.1039244119390409,-0.5741037272371264,-0.04231579042674336,-0.0030657549585164576,1.5649832206018184
10493,4.0,299.50844,3358.2851,0.0,0.0,0.0,0.0,0.0,0.10458173296303189,-0.5554691054430324,0.10535191920992491,-0.5707176277879444,-1.9473803632914782e-06,-0.016901184933767084,1.5430088656831185
10494,4.0,299.50657,3638.1985,0.0,0.0,0.0,0.0,0.0,0.1045916997726157,-0.6074536079810035,0.08117805467640023,-0.5796459418391005,0.002030220347742148,-0.010605852943216188,1.5349924361919587
10495,4.0,298.06194,4001.4959999999996,0.0,0.0,0.0,0.0,0.0,0.10460166658219953,-0.6146280266390634,0.052611603024860946,-0.6543384430306763,0.018783618194798783,0.006406167568639514,1.5401118823222086
10496,4.0,299.76538,4173.4364,0.0,0.0,0.0,0.0,0.0,0.10461163339178337,-0.6809501092845434,0.05623476854693955,-0.6439051182084874,-0.002360783465666188,0.01047619036766949,1.5471577195425785
10497,4.0,299.58943999999997,4054.3924,0.0,0.0,0.0,0.0,0.0,0.10462160020136718,-0.6319885269624115,0.044090866799929754,-0.6445363831532884,0.012994126998670488,0.01346893599553049,1.5809917615817384
10498,4.0,300.15517,3681.0370000000003,0.0,0.0,0.0,0.0,0.0,0.104631567010951,-0.6456564703438324,0.1044661663700079,-0.5777530386647854,0.029407293194023874,0.01068067031735009,1.5849896411762985
10499,4.0,299.60823999999997,3677.0208,0.0,0.0,0.0,0.0,0.0,0.10464153382053482,-0.5901902884747464,0.08126854905608133,-0.6088007645189575,0.015802141934549985,-0.04220622262717986,1.5563871107284484
10500,4.0,299.69845,4005.4455,0.0,0.0,0.0,0.0,0.0,0.10465150063011863,-0.6423085906884224,0.07690926037610303,-0.6521560745677935,0.013944706566735385,-0.042594837477783164,1.5610646784900883
10501,4.0,299.67434,3843.3559,0.0,0.0,0.0,0.0,0.0,0.10466146743970246,-0.6154627522039444,0.08970162698836132,-0.6425230856020914,0.0010081603420976789,-0.013026577346373087,1.5347271673157787
10502,4.0,300.5758,3367.117,0.0,0.0,0.0,0.0,0.0,0.10467143424928628,-0.5870467205695005,0.12460322527988088,-0.5610759856663885,0.009706796940086271,0.03920300404628526,1.5455466518835785
10503,4.0,300.17642,3466.2796,0.0,0.0,0.0,0.0,0.0,0.1046814010588701,-0.5775163637064274,0.10328739173367191,-0.5794334734256315,-0.029466928028659373,0.005371065311682875,1.5278400050610685
10504,4.0,300.01058,4021.1036,0.0,0.0,0.0,0.0,0.0,0.10469136786845393,-0.6862034665480093,0.07698882584020553,-0.6131004609208044,-0.037545688612970966,0.004477739035218436,1.5761314035020586
10505,4.0,299.52976,4136.222,0.0,0.0,0.0,0.0,0.0,0.10470133467803774,-0.6288222318574224,0.04089455416072826,-0.6693805258002143,-0.018976918956126083,0.006422967255297514,1.5416674238757286
10506,4.0,299.77702,3977.8190000000004,0.0,0.0,0.0,0.0,0.0,0.10471130148762156,-0.6207270728334924,0.056186407132916644,-0.6446169973312443,0.004988585386460046,-0.01180231993954829,1.5882829066513184
10507,4.0,299.47687,3876.0065,0.0,0.0,0.0,0.0,0.0,0.10472126829720538,-0.5927092991508535,0.057439774201864344,-0.6429396732482053,0.01134813666172389,-0.02536342521717518,1.5717550749951485
10508,4.0,299.50788,3825.9338,0.0,0.0,0.0,0.0,0.0,0.1047312351067892,-0.6427968455141094,0.08849032297081491,-0.6086818089572175,-0.007628784219577383,-0.017220523875033384,1.5940172942672586
10509,4.0,299.26032000000004,4038.9405,0.0,0.0,0.0,0.0,0.0,0.10474120191637303,-0.6619405241584434,0.06302338614992394,-0.6288199013821923,0.03089910840900457,0.02447865016360468,1.5832935618339086
10510,4.0,299.92253999999997,4070.7948,0.0,0.0,0.0,0.0,0.0,0.10475116872595684,-0.7084456437331413,0.08016626770954463,-0.6091405782049945,0.0027187736425970674,0.02265876685774618,1.5757706864664585
10511,4.0,299.94813999999997,3550.5036,0.0,0.0,0.0,0.0,0.0,0.10476113553554066,-0.5874585763376474,0.10012570894313809,-0.5919315689040975,0.01300920719990879,-0.005330678074621965,1.5372743767421684
10512,4.0,300.07777000000004,3512.5115,0.0,0.0,0.0,0.0,0.0,0.10477110234512449,-0.5583174629316434,0.08343367808176291,-0.5928319936054625,-0.01009723442496945,-0.014202402411667986,1.5232868644117086
10513,4.0,300.5965,4022.908,0.0,0.0,0.0,0.0,0.0,0.1047810691547083,-0.6303900540021544,0.08426485017854322,-0.6767383933888794,0.006257887434430404,0.000913567710267113,1.5489888651232986
10514,4.0,300.42127999999997,4053.4757,0.0,0.0,0.0,0.0,0.0,0.10479103596429212,-0.6209686823198374,0.05293138475642095,-0.6641180898158523,0.007087615852468222,0.01104838789789099,1.5649539376739285
10515,4.0,300.99677,3504.5024,0.0,0.0,0.0,0.0,0.0,0.10480100277387594,-0.6215048942727575,0.12456141858075487,-0.5683377566155694,-0.02492394318505168,0.001033214774670359,1.5714514039401786
10516,4.0,300.53489,3734.1617,0.0,0.0,0.0,0.0,0.0,0.10481096958345976,-0.6409611808379434,0.08730986633931291,-0.5814405901512184,-0.022781791631887777,0.01763817036750188,1.6003089694381984
10517,4.0,300.02022999999997,4007.5462,0.0,0.0,0.0,0.0,0.0,0.10482093639304359,-0.6381441125124204,0.06284689723425584,-0.6428967621064704,0.018824541339837582,0.02508332742578168,1.5922601159438383
10518,4.0,299.64322000000004,4062.7652,0.0,0.0,0.0,0.0,0.0,0.1048309032026274,-0.6064585558527994,0.05627353144276515,-0.6847941268514183,0.037730900598749964,0.011557011077088189,1.5737999150219586
10519,4.0,300.72323,4017.7519,0.0,0.0,0.0,0.0,0.0,0.10484087001221122,-0.6209608701615663,0.056938622728904535,-0.6572740109553944,0.02800239761237147,-0.03767820348754916,1.5659377021960184
10520,4.0,299.49462,3607.6040000000003,0.0,0.0,0.0,0.0,0.0,0.10485083682179505,-0.6046108436329444,0.1132225825416989,-0.6052332831693744,0.0017293393782475085,-0.03085116850702327,1.5719604607904185
10521,4.0,299.8845,3448.8757,0.0,0.0,0.0,0.0,0.0,0.10486080363137887,-0.6255816959176064,0.12342729787632588,-0.5462176963324895,0.01111541641850619,0.01995654333830748,1.5453711569662585
10522,4.0,299.52005,3835.1687,0.0,0.0,0.0,0.0,0.0,0.10487077044096269,-0.6946370713703414,0.09148743975960731,-0.5626458849738255,-0.019037618716616682,0.02220997609695398,1.5492044847445785
10523,4.0,299.2437,4126.2455,0.0,0.0,0.0,0.0,0.0,0.1048807372505465,-0.6582241761041684,0.06478396190092924,-0.6608353925393754,-0.021321829960300777,-0.012099144463592589,1.5381754600560986
10524,4.0,300.0162,3806.2824,0.0,0.0,0.0,0.0,0.0,0.10489070406013032,-0.6048269394817715,0.09220971888139072,-0.6443975780220894,-0.03915772189931626,-0.018059407818324782,1.5584877808357684
10525,4.0,301.12867,3642.4672,0.0,0.0,0.0,0.0,0.0,0.10490067086971416,-0.5260321230078285,0.07727020235322522,-0.6584571628321624,0.0013263644432519785,0.007667594231532633,1.5814809587300185
10526,4.0,300.19194,4008.4848,0.0,0.0,0.0,0.0,0.0,0.10491063767929798,-0.6462639340437843,0.08728501030110983,-0.6595003646051184,-0.0018105146941088883,0.01172489445965699,1.6058899509889983
10527,4.0,300.58598,4293.4234,0.0,0.0,0.0,0.0,0.0,0.1049206044888818,-0.7013657511769104,0.05085933795117586,-0.6545870844727154,0.008095525921791202,-0.015112117603199884,1.6084963342212284
10528,4.0,300.28212,3907.2882,0.0,0.0,0.0,0.0,0.0,0.10493057129846561,-0.6780065468165364,0.07658696983729543,-0.5862984657681535,-0.005593501978310665,-0.008572076796898111,1.5603157853411787
10529,4.0,299.5689,3681.3907,0.0,0.0,0.0,0.0,0.0,0.10494053810804943,-0.5879962169732084,0.06420541635883124,-0.5952600448200924,0.0028501946123673074,0.03986726953359316,1.5587189031835786
10530,4.0,299.32782000000003,3625.2219,0.0,0.0,0.0,0.0,0.0,0.10495050491763326,-0.6004131409861634,0.08306788972941241,-0.5846316794861545,0.029917645991141766,0.02999951254622137,1.5238178074641087
10531,4.0,299.02131,3623.5949,0.0,0.0,0.0,0.0,0.0,0.10496047172721708,-0.5462265014758585,0.06529906177476565,-0.6205549419065044,0.001992522681746678,-0.008660552883705023,1.5425430746121485
10532,4.0,297.81257,3850.5981,0.0,0.0,0.0,0.0,0.0,0.10497043853680091,-0.6544061889323624,0.07231571840550573,-0.5883952145975865,0.013756281564889289,-0.03727176860743717,1.5443297385134784
10533,4.0,299.32972,3858.8351,0.0,0.0,0.0,0.0,0.0,0.10498040534638473,-0.6677934316385804,0.100807787367204,-0.6060038598704244,0.0030212855394526673,-0.002124456457392528,1.5890258216246385
10534,4.0,299.3849,3559.7665,0.0,0.0,0.0,0.0,0.0,0.10499037215596854,-0.6393979588486655,0.0994368346506515,-0.5421190186179815,0.007247821231079263,0.008468568638232652,1.5574041098538185
10535,4.0,300.32455,3871.4249,0.0,0.0,0.0,0.0,0.0,0.10500033896555236,-0.6055507546907064,0.07543623487097673,-0.6467019721945154,-0.013593716732095387,0.0006259191385984094,1.5694278421654684
10536,4.0,300.5526,4459.8107,0.0,0.0,0.0,0.0,0.0,0.10501030577513618,-0.7066949198128583,0.051508015598945356,-0.7004841830599063,0.008865460931552872,0.0012266451306854487,1.5766577869290086
10537,4.0,299.91582,4181.9001,0.0,0.0,0.0,0.0,0.0,0.10502027258472,-0.6027958391263174,0.03191775305253697,-0.7003151121482204,0.022631147686520376,0.03030106996148277,1.5838873263925086
10538,4.0,299.74188,3570.7259999999997,0.0,0.0,0.0,0.0,0.0,0.10503023939430382,-0.6264593326242224,0.11269997853762188,-0.5716521990176795,-0.00022443325568483782,0.011834421729216489,1.5946937400340184
10539,4.0,300.67301000000003,3704.4714,0.0,0.0,0.0,0.0,0.0,0.10504020620388765,-0.6150685675175415,0.0988136594946489,-0.6098118867937474,-0.028776433549262872,-0.03611473325199666,1.5854942397260985
10540,4.0,299.68486,3845.2572,0.0,0.0,0.0,0.0,0.0,0.10505017301347147,-0.6512490434757764,0.07646016361378062,-0.5940732756404674,0.006701303106092123,-0.010123515295463171,1.5769074517536485
10541,4.0,299.93613,3981.4842,0.0,0.0,0.0,0.0,0.0,0.10506013982305529,-0.6254606023981554,0.06351638197282884,-0.6483275597274484,0.006703197579804094,0.015836920730982383,1.5326998565156984
10542,4.0,299.46763,3992.6575,0.0,0.0,0.0,0.0,0.0,0.1050701066326391,-0.6397911302849684,0.08668951308483883,-0.6605665671553443,0.016015487822605586,0.018666488509738982,1.5620959644418686
10543,4.0,298.04184,3774.3829,0.0,0.0,0.0,0.0,0.0,0.10508007344222292,-0.5959784087434894,0.0908328427047536,-0.6421725821274994,-0.038064425041416265,-0.028897458167707075,1.5373623268508485
10544,4.0,299.01473,3747.3514,0.0,0.0,0.0,0.0,0.0,0.10509004025180675,-0.6375178935531174,0.10185599358240391,-0.6034393542648274,0.007136483182266054,-0.022325328541338375,1.6077584854984086
10545,4.0,300.06524,4240.9308,0.0,0.0,0.0,0.0,0.0,0.10510000706139058,-0.6709734157524204,0.040221289999282255,-0.6583849383650343,0.0003826558355726906,0.001966133900117308,1.5831982149994985
10546,4.0,300.39601,4273.7651,0.0,0.0,0.0,0.0,0.0,0.1051099738709744,-0.6944130113757283,0.06122479528166685,-0.6659296492721394,0.0027994278439320173,-0.0019117379737988484,1.5943649403765685
10547,4.0,300.31559,3612.5491,0.0,0.0,0.0,0.0,0.0,0.10511994068055822,-0.6118633737412135,0.09795484694839071,-0.5842161962826494,-0.028432696558838677,-0.009974475325004069,1.5713767274078085
10548,4.0,299.58671,3578.5290000000005,0.0,0.0,0.0,0.0,0.0,0.10512990749014203,-0.5874860455478584,0.10435966365199689,-0.6046570681025064,-0.01302874266183679,0.027451068981209577,1.5837520575041586
10549,4.0,300.31295,4012.3953,0.0,0.0,0.0,0.0,0.0,0.10513987429972585,-0.6549050220890933,0.07571989220997152,-0.6404828457307353,0.03542131453281157,0.05962496456627584,1.5881096408842184
10550,4.0,300.41209,3996.3454,0.0,0.0,0.0,0.0,0.0,0.10514984110930968,-0.6547359005149024,0.06644913002251852,-0.6265024464159774,0.02021402437421888,0.014099547394016988,1.5992295541066683
10551,4.0,301.30602000000005,3622.0235,0.0,0.0,0.0,0.0,0.0,0.1051598079188935,-0.6189187152475214,0.12566205136937886,-0.6077480179300594,0.0019323200217551384,-0.019342712374727084,1.5851970534717685
10552,4.0,300.13432,3648.9281,0.0,0.0,0.0,0.0,0.0,0.10516977472847733,-0.6180642313056904,0.1180516109282869,-0.6091703981554375,0.01052109051935079,-0.018066946399068782,1.5835170848059685
10553,4.0,299.32603,3612.5498,0.0,0.0,0.0,0.0,0.0,0.10517974153806114,-0.6045312123075854,0.12798656868879088,-0.6215802902126984,0.03712158467761517,0.01864147845752068,1.5715543501503384
10554,4.0,298.80303,4151.5331,0.0,0.0,0.0,0.0,0.0,0.10518970834764496,-0.6562583594526574,0.05548072302127104,-0.6611847510413544,-0.0032187308989890073,0.004756239640479305,1.5573879991772286
10555,4.0,299.50867999999997,4320.0657,0.0,0.0,0.0,0.0,0.0,0.10519967515722878,-0.6871015607741443,0.06263368509521344,-0.6887242402792904,-0.027769919535927674,-0.033938409839210266,1.5756633832808684
10556,4.0,298.51052000000004,3745.8176,0.0,0.0,0.0,0.0,0.0,0.1052096419668126,-0.6622223698062594,0.11508581775308589,-0.5914984652813534,-0.02203889793681988,-2.8107744212018373e-05,1.6312905097958383
10557,4.0,299.48267999999996,3470.5982,0.0,0.0,0.0,0.0,0.0,0.10521960877639643,-0.5554111070073084,0.07747936959786843,-0.5770434596197554,-0.014968594779535287,0.023116431662914178,1.5714069222607885
10558,4.0,299.6543,3970.5619,0.0,0.0,0.0,0.0,0.0,0.10522957558598024,-0.6578827513504724,0.07854213216400492,-0.6276110636153894,0.000914046957299411,-0.008689124003399773,1.6273299178049585
10559,4.0,300.52801,4390.2188,0.0,0.0,0.0,0.0,0.0,0.10523954239556407,-0.6335686094333534,0.003661520179438906,-0.7046097929620724,-0.03130994687405118,-0.044252492349880955,1.5463660672394486
10560,4.0,300.72316,3818.4096,0.0,0.0,0.0,0.0,0.0,0.10524950920514789,-0.6284606332942354,0.07691318266724013,-0.6091537301912924,0.008975845106721942,0.001136543385418099,1.5640062448553986
10561,4.0,299.97442,3513.1465,0.0,0.0,0.0,0.0,0.0,0.1052594760147317,-0.5607348547552214,0.09097827651810682,-0.5981522152430274,0.02637964413996818,0.051630274356011356,1.5120491102026286
10562,4.0,299.89172,3879.7385,0.0,0.0,0.0,0.0,0.0,0.10526944282431552,-0.6776455663359103,0.08707576402295882,-0.5887738154974514,0.0002466777025501938,0.01994355549852568,1.5755273037924384
10563,4.0,300.25882,4020.6057,0.0,0.0,0.0,0.0,0.0,0.10527940963389934,-0.6065748870967804,0.07354443917902102,-0.6891332994771613,-0.02153101645669588,-0.03774503746414516,1.5684875460726684
10564,4.0,299.83066,3819.5663,0.0,0.0,0.0,0.0,0.0,0.10528937644348317,-0.6493196430328594,0.1085111823592199,-0.6202443199558484,-0.006646076416016673,-0.01946015819381808,1.5965864912208185
10565,4.0,300.18596,3731.4539,0.0,0.0,0.0,0.0,0.0,0.10529934325306699,-0.5669632625899175,0.0992459271860604,-0.6665514707260084,0.025368458030421877,0.021722828753626276,1.6045374647555184
10566,4.0,299.04866,3646.4457,0.0,0.0,0.0,0.0,0.0,0.1053093100626508,-0.6114087993488505,0.09067505534618121,-0.5876947041409514,0.01075547553248279,0.0014242843249659188,1.5533159496753486
10567,4.0,299.24781,4005.0089,0.0,0.0,0.0,0.0,0.0,0.10531927687223464,-0.6378225879906884,0.05567028286322914,-0.6352704035063074,-0.020329257255091483,-0.023614694359838876,1.5869136004661786
10568,4.0,299.01529,4380.3882,0.0,0.0,0.0,0.0,0.0,0.10532924368181845,-0.7371579496968254,0.04217849098519296,-0.6365491656625114,0.01144982948151019,0.02233000773030018,1.5519708601675986
10569,4.0,299.20857,3689.0981,0.0,0.0,0.0,0.0,0.0,0.10533921049140227,-0.6209618327491614,0.1053803814052339,-0.6058122644090155,0.013270068438153789,0.05744913764603844,1.5930367721454883
10570,4.0,298.5767,3112.1196,0.0,0.0,0.0,0.0,0.0,0.10534917730098609,-0.5669768097437544,0.1290597525322059,-0.5080895814295375,0.006932177308952634,-0.002157622767615788,1.5424919054820985
10571,4.0,300.40823,3649.0914,0.0,0.0,0.0,0.0,0.0,0.1053591441105699,-0.5737894373211084,0.09384219043550311,-0.6292854087431344,-0.03907777646642626,-0.07207917820941102,1.5887153617939984
10572,4.0,300.48941,4119.5951,0.0,0.0,0.0,0.0,0.0,0.10536911092015373,-0.6705934368324193,0.07003702430861614,-0.6516976295600484,0.00999832611778296,-0.00932575724855558,1.5550082799923683
10573,4.0,300.96956,3911.3209,0.0,0.0,0.0,0.0,0.0,0.10537907772973755,-0.6381660493770854,0.06496239727003944,-0.6157402408763304,0.00831082363351443,0.025052578324996976,1.5774117463284183
10574,4.0,300.05638,3739.1479,0.0,0.0,0.0,0.0,0.0,0.10538904453932137,-0.6526726598662764,0.1035083613154799,-0.5874432863936385,0.011291065349841388,0.0016455457228027185,1.5632133766521485
10575,4.0,300.63886,3955.1405,0.0,0.0,0.0,0.0,0.0,0.1053990113489052,-0.6365448593495864,0.05634732746079824,-0.6220664273456764,-0.04258066413538436,-0.04362395203459886,1.5826894621242884
10576,4.0,300.1612,4005.6344,0.0,0.0,0.0,0.0,0.0,0.10540897815848901,-0.6521396497836723,0.06728041661656015,-0.6327535915829174,0.020006110519949383,0.014951853861383086,1.5998128821892383
10577,4.0,300.25055,4116.6759,0.0,0.0,0.0,0.0,0.0,0.10541894496807283,-0.5847184643572194,0.02014084137249628,-0.6867890440458014,0.03043416745486847,0.039648564565758666,1.5495490911035883
10578,4.0,299.10777,3731.8576,0.0,0.0,0.0,0.0,0.0,0.10542891177765665,-0.6215567828103784,0.08978173758101761,-0.6026164837261164,0.011788498194934188,-0.018283667423207483,1.5868287914328085
10579,4.0,299.22774,3314.9579,0.0,0.0,0.0,0.0,0.0,0.10543887858724046,-0.5394592573704835,0.08713682652698522,-0.5553419830854865,-0.03125221593635357,-0.04141525528111746,1.5417084605047786
10580,4.0,297.99922999999995,3582.4341,0.0,0.0,0.0,0.0,0.0,0.10544884539682431,-0.6145312004595074,0.08448305460082833,-0.5589223833738445,-0.017163375556143282,0.01338675735942009,1.5652289337510685
10581,4.0,300.02969,4301.6426,0.0,0.0,0.0,0.0,0.0,0.10545881220640813,-0.6932334261393124,0.05858954151433754,-0.6729480679448034,0.0027978104941223975,0.059106494622606844,1.5848685577893484
10582,4.0,299.76606,4169.399,0.0,0.0,0.0,0.0,0.0,0.10546877901599194,-0.6754470061364294,0.05041433978550795,-0.6423605197560474,-0.028035263392615074,0.004420723350766426,1.6016181898924087
10583,4.0,299.57481,3665.0081,0.0,0.0,0.0,0.0,0.0,0.10547874582557576,-0.5677093996985555,0.07094266116849553,-0.6173042025381814,-0.0013579557575197985,-0.04804784756745336,1.5839434604480485
10584,4.0,299.47976,4022.5006,0.0,0.0,0.0,0.0,0.0,0.10548871263515958,-0.6526442989959773,0.07912265050404763,-0.6492180951078373,0.01839428798962488,-0.015258700442166484,1.6086596701373486
10585,4.0,299.75448,4302.2647,0.0,0.0,0.0,0.0,0.0,0.1054986794447434,-0.6886403127735073,0.05960730767003324,-0.6787480432397164,0.04324668862486586,0.015225858979925285,1.5949306379073984
10586,4.0,299.17357000000004,4048.3789,0.0,0.0,0.0,0.0,0.0,0.10550864625432722,-0.6597168961514884,0.06089505938112444,-0.6317842456097503,-0.002448851617982838,-0.019076424168946483,1.5677710769269586
10587,4.0,300.61727,3764.4964,0.0,0.0,0.0,0.0,0.0,0.10551861306391105,-0.6324882821767334,0.095542787860089,-0.6073674209274974,-0.01082524793436879,-0.039659789350366466,1.5848265079101986
10588,4.0,299.72346,3490.0474,0.0,0.0,0.0,0.0,0.0,0.10552857987349487,-0.5773687534318594,0.09083691293040531,-0.5743554286944674,-0.015548717952038986,0.03342525540556587,1.5600678430417085
10589,4.0,300.82869,3555.3513,0.0,0.0,0.0,0.0,0.0,0.10553854668307869,-0.5481296587411855,0.090257979313519,-0.6228663477696225,0.00982483946216116,0.056002399901506544,1.5473173064333285
10590,4.0,300.87818,4261.4697,0.0,0.0,0.0,0.0,0.0,0.1055485134926625,-0.6885502652371203,0.03123757953865907,-0.6380676830573774,-0.02957212264079127,0.01218781094009329,1.5702827212748383
10591,4.0,300.36542000000003,4237.7948,0.0,0.0,0.0,0.0,0.0,0.10555848030224632,-0.6575377700889253,0.04495128838734676,-0.6755973116562634,0.005590917379955584,-0.03819019673657896,1.5569007272041384
10592,4.0,299.87076,3581.9678,0.0,0.0,0.0,0.0,0.0,0.10556844711183015,-0.6087341737223854,0.08077949781581573,-0.5608740854514624,-0.002061809939484798,-0.017187111952985883,1.5942588530910986
10593,4.0,299.48841,3614.7667,0.0,0.0,0.0,0.0,0.0,0.10557841392141397,-0.5677307995406674,0.07735981723181952,-0.6084278276871514,0.031043024373707966,-0.004811983088105756,1.5748933132048684
10594,4.0,298.0252,4177.6683,0.0,0.0,0.0,0.0,0.0,0.10558838073099779,-0.6861419825319414,0.06667288198910114,-0.6504377543857084,-0.00921497902042262,-0.030819533825651172,1.6181090379199286
10595,4.0,300.16116,4180.0326,0.0,0.0,0.0,0.0,0.0,0.10559834754058162,-0.6288372279589024,0.04746872852579875,-0.6892570375793733,-0.0034000329552821263,-0.04114367790981486,1.5619073985982586
10596,4.0,300.25374,3642.5228,0.0,0.0,0.0,0.0,0.0,0.10560831435016543,-0.6426710606466954,0.10855777159881791,-0.5731226984903065,-0.004515296467400066,-0.003620428429583466,1.5820798908641285
10597,4.0,299.9591,3551.0239,0.0,0.0,0.0,0.0,0.0,0.10561828115974925,-0.5797646136908124,0.1070693274669199,-0.6067273001768224,0.006921244137723613,0.02650211263980487,1.5744678494878785
10598,4.0,300.90233,3859.1578,0.0,0.0,0.0,0.0,0.0,0.10562824796933307,-0.6617662755387465,0.08323254793691291,-0.5945538702953984,-0.02976244748657487,-0.013257938821206686,1.5709467040653686
10599,4.0,300.2093,4253.7433,0.0,0.0,0.0,0.0,0.0,0.10563821477891688,-0.6618194813014974,0.05748860981693404,-0.6887008747319844,-0.000987825932465829,-0.007338896203067664,1.5855394306805586
10600,4.0,300.09673,4333.8952,0.0,0.0,0.0,0.0,0.0,0.10564818158850073,-0.6987887825950833,0.06244432283702485,-0.6810514545595453,0.01697224213677988,0.056969274557679646,1.5860335927543285
10601,4.0,300.78314,3834.2504,0.0,0.0,0.0,0.0,0.0,0.10565814839808454,-0.5966042325352535,0.08364594587171212,-0.6525581119424714,0.037327953325482166,0.057992849676198645,1.6270607985783985
10602,4.0,300.56813,3516.1512,0.0,0.0,0.0,0.0,0.0,0.10566811520766836,-0.6051534593264964,0.13134441872518487,-0.5950131157707225,-0.011612812786595388,-0.01875134820561398,1.5767517152132786
10603,4.0,299.53014,4120.9848,0.0,0.0,0.0,0.0,0.0,0.10567808201725218,-0.6366777977627064,0.05793472053121174,-0.6739334131370494,-0.03263902703022117,-0.061461180450496235,1.6134990539399585
10604,4.0,299.94028,4257.6753,0.0,0.0,0.0,0.0,0.0,0.105688048826836,-0.6956110580289664,0.07132573354105183,-0.6699416535730933,0.016527072731845085,-0.017429818789189186,1.5966536697024485
10605,4.0,300.12914,3621.1149,0.0,0.0,0.0,0.0,0.0,0.10569801563641983,-0.5821088083271665,0.1171793241821989,-0.6357990262159784,0.022246481471556778,0.004726593766403485,1.6155347747158684
10606,4.0,299.30005,3400.5918,0.0,0.0,0.0,0.0,0.0,0.10570798244600364,-0.5923226834426975,0.1145850492886639,-0.5559573704012204,-0.02125136348209628,-0.015224420164783287,1.5647443975532487
10607,4.0,298.98778,3876.5689,0.0,0.0,0.0,0.0,0.0,0.10571794925558747,-0.6527379334377184,0.1113095764853999,-0.6369517907222474,-0.018251246459757783,-0.0061936906438696746,1.5928061564227285
10608,4.0,299.65317999999996,4177.2294,0.0,0.0,0.0,0.0,0.0,0.10572791606517129,-0.7070099595339503,0.04794737267428725,-0.6107108422824674,-0.0011770742000181786,0.06163637848553695,1.5553585605519384
10609,4.0,299.62722,4090.0933,0.0,0.0,0.0,0.0,0.0,0.10573788287475511,-0.6228365886141854,0.03652561022054707,-0.6569752541634093,0.006141823283175764,0.05042828514663425,1.5627419113806185
10610,4.0,300.06977,3865.9242,0.0,0.0,0.0,0.0,0.0,0.10574784968433892,-0.6727150102893024,0.1048313518385489,-0.6072607662219713,-0.02158442486946688,-0.014040074679397488,1.5895974973310587
10611,4.0,300.90777,3743.9811,0.0,0.0,0.0,0.0,0.0,0.10575781649392274,-0.5867239092201414,0.0984578871195369,-0.6498107552238284,-0.02769397745418277,-0.032798310959191265,1.5989636772804285
10612,4.0,300.34192,3847.8199,0.0,0.0,0.0,0.0,0.0,0.10576778330350657,-0.6520727043495654,0.12384263922481689,-0.6414111145448484,0.009009680769961262,0.014776264711803785,1.6225115082794184
10613,4.0,300.51796,4336.1433,0.0,0.0,0.0,0.0,0.0,0.10577775011309039,-0.6872512887414214,0.07410593982793683,-0.7049339316690623,-0.004355114292216316,0.03293390915382377,1.6156074247480383
10614,4.0,300.9182,4194.1392,0.0,0.0,0.0,0.0,0.0,0.10578771692267422,-0.6872255521888814,0.060486906028842845,-0.6481749439973864,-0.032082317027778175,-0.034195380197071266,1.6133252815478085
10615,4.0,300.44178999999997,3580.4441,0.0,0.0,0.0,0.0,0.0,0.10579768373225804,-0.5772087713735705,0.09276056621875511,-0.6039173853970055,-0.02833114964706677,-0.03678091479524367,1.5675837269834685
10616,4.0,299.46808,3744.5817,0.0,0.0,0.0,0.0,0.0,0.10580765054184185,-0.6388873922557764,0.1001802501695209,-0.5995522026411955,0.025110875669500477,0.005257822352681665,1.5936095624270183
10617,4.0,299.67947000000004,4067.7615,0.0,0.0,0.0,0.0,0.0,0.10581761735142567,-0.6208351460891584,0.06688793723007544,-0.6825507303350123,0.02979573376560997,0.008324714684435373,1.5880940368326786
10618,4.0,299.72086,3931.1829,0.0,0.0,0.0,0.0,0.0,0.10582758416100949,-0.6427461931416104,0.08584320404481462,-0.6380784437734394,-0.013121155123957189,-0.044187373805704255,1.5809642011790186
10619,4.0,299.52067,3671.8678,0.0,0.0,0.0,0.0,0.0,0.10583755097059332,-0.6299016877189564,0.09417693685779001,-0.5804313930516185,-0.01022167308830059,-0.014002457769434987,1.5563089891457385
10620,4.0,299.00507000000005,3774.9299,0.0,0.0,0.0,0.0,0.0,0.10584751778017713,-0.6504518182970964,0.09140407764738011,-0.5884366869241795,0.013734627397002187,0.04307071342699846,1.5716365247334485
10621,4.0,299.05179,3784.3754,0.0,0.0,0.0,0.0,0.0,0.10585748458976095,-0.5980672947521465,0.06062679229789854,-0.6129151172125125,0.01947130394491808,0.05864760885106835,1.5454073299948285
10622,4.0,299.95217,4149.5697,0.0,0.0,0.0,0.0,0.0,0.10586745139934478,-0.6504788619422653,0.04676689273803295,-0.6576536048403573,-0.03129269730434877,-0.02485131747088408,1.5985914091936884
10623,4.0,299.73682,4149.9251,0.0,0.0,0.0,0.0,0.0,0.1058774182089286,-0.6120498725546194,0.07167847528511473,-0.7211022115272473,-0.008319063585977652,-0.030041728598387767,1.5911279102820983
10624,4.0,299.58926,3649.3184,0.0,0.0,0.0,0.0,0.0,0.10588738501851241,-0.6040031671504714,0.09254923163214801,-0.5978477437204784,-0.007984404505849372,0.008636381802569522,1.6117013456125384
10625,4.0,300.81299,3544.2523,0.0,0.0,0.0,0.0,0.0,0.10589735182809623,-0.5870163433315024,0.10810023851616289,-0.5984481045372295,0.018680452109367085,0.023531307929609273,1.5673684113372184
10626,4.0,301.08089,4154.3074,0.0,0.0,0.0,0.0,0.0,0.10590731863768005,-0.6895017172135214,0.06363600526638473,-0.6369400268885864,-0.02106378555733378,-0.03612345834860776,1.5863843799389485
10627,4.0,300.6548,4294.9798,0.0,0.0,0.0,0.0,0.0,0.10591728544726388,-0.6897645948194654,0.04774666606797905,-0.6635486837896564,-0.01059243649864209,-0.023158388323054977,1.5531961835135286
10628,4.0,299.78677000000005,3845.1169,0.0,0.0,0.0,0.0,0.0,0.1059272522568477,-0.6542960790439953,0.11120072302715689,-0.6257241791466684,0.02969690337735617,0.007750133179378592,1.6141198722762284
10629,4.0,298.01802000000004,3654.8740000000003,0.0,0.0,0.0,0.0,0.0,0.10593721906643151,-0.5841881292548795,0.09856736170009121,-0.6253696733341814,0.03641983906910826,0.015626821296247186,1.5978656181470585
10630,4.0,299.86825,3938.7459,0.0,0.0,0.0,0.0,0.0,0.10594718587601534,-0.6768063318080844,0.10840350427109291,-0.6288775857103854,0.024363285560219078,-0.03113750690578267,1.6371921850032884
10631,4.0,300.31447000000003,4169.1235,0.0,0.0,0.0,0.0,0.0,0.10595715268559916,-0.6701568678943334,0.06339929889727364,-0.6605518648963934,-0.016901268020275285,-0.010869338499220189,1.5893360788052586
10632,4.0,299.57664,4195.7006,0.0,0.0,0.0,0.0,0.0,0.10596711949518298,-0.7013984791551404,0.06001226117849904,-0.6340020068986264,0.006657661107059994,0.03066528574967807,1.6032346277769385
10633,4.0,299.36355,3772.5093,0.0,0.0,0.0,0.0,0.0,0.1059770863047668,-0.6149203087629095,0.0988593337694066,-0.6306876455565245,-0.0023871264483910377,0.06347109779935964,1.5903473024050585
10634,4.0,299.31609,3320.4271,0.0,0.0,0.0,0.0,0.0,0.10598705311435061,-0.5370138795791435,0.1137907929327769,-0.5861038508214464,-0.03454383285346087,-0.019878524093857583,1.5832869757082586
10635,4.0,299.70596,3806.8947,0.0,0.0,0.0,0.0,0.0,0.10599701992393445,-0.5711298179286245,0.07211850953854274,-0.6581896141432574,-0.03976297164779976,-0.022933951399404778,1.5776427673512183
10636,4.0,299.33029,4267.3796,0.0,0.0,0.0,0.0,0.0,0.10600698673351827,-0.6935798968785063,0.062082471974562944,-0.6656794170274434,0.0015085215813044886,0.007412173335724553,1.5983287747677686
10637,4.0,299.18462,3744.2597,0.0,0.0,0.0,0.0,0.0,0.10601695354310209,-0.6052580976643234,0.06065640554532114,-0.5935597706222885,0.03536581173208386,0.016598098524104786,1.5665597364324086
10638,4.0,299.44497,3558.0344,0.0,0.0,0.0,0.0,0.0,0.1060269203526859,-0.6149145433698404,0.0864202996260195,-0.5530593636577095,0.01976630461878238,-0.04038828070851296,1.5567727537165086
10639,4.0,300.37147000000004,4189.3373,0.0,0.0,0.0,0.0,0.0,0.10603688716226972,-0.6565978387661614,0.04628781086550125,-0.6631439005072074,0.0007277718391179883,-0.005712439402873875,1.5802805613365485
10640,4.0,300.12079,4481.9963,0.0,0.0,0.0,0.0,0.0,0.10604685397185355,-0.6981532923973653,0.03430421136381207,-0.6985658777055843,0.026223352338543372,0.03494214248102097,1.5946999208596284
10641,4.0,300.71544,4166.122,0.0,0.0,0.0,0.0,0.0,0.10605682078143737,-0.6268610457588685,0.06163347147100004,-0.7011694745000393,0.0030706337577479574,0.04247429617963666,1.6027894056829983
10642,4.0,299.31735,3794.054,0.0,0.0,0.0,0.0,0.0,0.1060667875910212,-0.6443410184015074,0.1064444156002459,-0.6154010756703574,-0.007930517737706163,-0.02339395073280318,1.6071740428407284
10643,4.0,300.25453999999996,3704.4944,0.0,0.0,0.0,0.0,0.0,0.10607675440060502,-0.5909068589454665,0.09266557604838031,-0.6278325195572454,-0.03213476690595457,-0.015698400323061485,1.5815838036151684
10644,4.0,300.63132,3896.6322,0.0,0.0,0.0,0.0,0.0,0.10608672121018883,-0.6694521524497834,0.08120941578024533,-0.5962361694364284,0.004221950430949066,0.026707173181792773,1.5949892037631785
10645,4.0,300.08692,4187.2844,0.0,0.0,0.0,0.0,0.0,0.10609668801977265,-0.6649091443014233,0.04507342150140036,-0.6529941742555074,0.003202501874787327,0.0017393684264122983,1.5614572115788286
10646,4.0,299.32922,4052.5487,0.0,0.0,0.0,0.0,0.0,0.10610665482935647,-0.6571067942913913,0.08302667882134522,-0.6577934941491633,-0.0050335827088259354,-0.03622183277431657,1.5985910038936484
10647,4.0,298.61388999999997,3566.9009,0.0,0.0,0.0,0.0,0.0,0.1061166216389403,-0.5665831519474034,0.0969368487584221,-0.6146025028690444,-0.00978817520994268,0.0015105337946780784,1.5598160503918588
10648,4.0,298.81715,3938.9133,0.0,0.0,0.0,0.0,0.0,0.10612658844852411,-0.6624495506111804,0.08847170450022741,-0.6233534373576944,0.02219369418109708,0.016907631230903285,1.6165353591896183
10649,4.0,299.68635,4465.1263,0.0,0.0,0.0,0.0,0.0,0.10613655525810793,-0.6901824388957033,0.03285473277775967,-0.6999591979180944,0.0026384443905691874,0.02667742415885677,1.5987955790888384
10650,4.0,300.7151,4112.4386,0.0,0.0,0.0,0.0,0.0,0.10614652206769176,-0.6964624616904933,0.059718458166252944,-0.6133346534164175,-0.011935647440706689,-0.05525411267615635,1.6275868780303184
10651,4.0,300.12725,3546.7879,0.0,0.0,0.0,0.0,0.0,0.10615648887727558,-0.5811902363165105,0.1118144283477249,-0.6087591402048493,0.005868704150521004,-0.03017356864839937,1.5741266881792084
10652,4.0,299.67766,3668.6882,0.0,0.0,0.0,0.0,0.0,0.1061664556868594,-0.5991128573978354,0.10806820968050189,-0.6241449478058104,0.013993939375844287,0.02197957822296548,1.5965150570887685
10653,4.0,300.24708,3821.2983,0.0,0.0,0.0,0.0,0.0,0.10617642249644321,-0.6078792338180093,0.09122046963650941,-0.6449204961336974,0.03974424475945156,0.028662603006528675,1.5576316858262786
10654,4.0,299.83981,3917.3553,0.0,0.0,0.0,0.0,0.0,0.10618638930602703,-0.6275402880959045,0.08915627754603951,-0.6523941782087923,-0.014925204370502985,-0.03139663852610697,1.5745743420733884
10655,4.0,298.91776,3902.1013,0.0,0.0,0.0,0.0,0.0,0.10619635611561087,-0.6162437653810244,0.053136949896958656,-0.6230345371537214,-0.003245184021999727,-0.026206475644877773,1.5591396046250985
10656,4.0,298.2792,3772.7714,0.0,0.0,0.0,0.0,0.0,0.10620632292519469,-0.6445026520574594,0.08014784682272662,-0.5824734871706575,0.005352187955694824,0.0035033992589335867,1.5846955959972786
10657,4.0,299.76386,3922.4614,0.0,0.0,0.0,0.0,0.0,0.10621628973477851,-0.6199828912975474,0.05207850478949825,-0.6244259220585403,-0.004999263826613925,0.024028764079454375,1.5807688465597383
10658,4.0,299.37566,4402.985,0.0,0.0,0.0,0.0,0.0,0.10622625654436232,-0.6707710089124443,0.03271255251047757,-0.7003390552480834,-0.018717559354529283,0.001000853815891581,1.6060420398290087
10659,4.0,300.59812999999997,4310.329000000001,0.0,0.0,0.0,0.0,0.0,0.10623622335394614,-0.6770407776162224,0.05930277129947784,-0.6924943919138753,-0.004301865668986086,-0.0028210118949121973,1.6168641588470685
10660,4.0,300.02615,3813.4082,0.0,0.0,0.0,0.0,0.0,0.10624619016352997,-0.6263844939718364,0.08093970177587663,-0.6137360929735364,0.04159102174946426,0.04347597496349466,1.6029838483771883
10661,4.0,300.43744,3794.3236,0.0,0.0,0.0,0.0,0.0,0.10625615697311379,-0.6484102308031074,0.09774987151941121,-0.6027192576837594,0.013292434920861186,0.013355130784048787,1.5927639038935586
10662,4.0,299.53241,4039.965,0.0,0.0,0.0,0.0,0.0,0.10626612378269762,-0.6921952095568483,0.09039113152241011,-0.6262444121455114,-0.009152032479160282,-0.03283420534398377,1.5852381914258284
10663,4.0,300.56687999999997,3939.0125,0.0,0.0,0.0,0.0,0.0,0.10627609059228144,-0.6058986743775434,0.061434671801380035,-0.6528974595334623,-0.008857547245621851,-0.03394293096115647,1.5547142348133485
10664,4.0,300.39905,3824.3607,0.0,0.0,0.0,0.0,0.0,0.10628605740186525,-0.5990473710438725,0.07643478879152633,-0.6398975823404743,0.031728986585407175,0.006639339316101773,1.5588999709764486
10665,4.0,300.31262999999996,3818.1315,0.0,0.0,0.0,0.0,0.0,0.10629602421144907,-0.6082403764186515,0.0898413906541549,-0.6422176312269454,-0.006513468322429274,0.016347900729912185,1.5798462823436883
10666,4.0,300.60246,3848.2043,0.0,0.0,0.0,0.0,0.0,0.10630599102103289,-0.6421781550030494,0.08561123259342082,-0.6131910961422494,-0.02091571121421998,-0.025083502718048975,1.5926575126330584
10667,4.0,300.98214,4203.5877,0.0,0.0,0.0,0.0,0.0,0.10631595783061672,-0.6724874343168423,0.051655794073029955,-0.6569540468388164,-0.016803914950667284,-0.01025328649142059,1.6036625232941684
10668,4.0,301.29927000000004,4293.1635,0.0,0.0,0.0,0.0,0.0,0.10632592464020053,-0.7112148055939362,0.05529143371708965,-0.6490911348703075,0.0059934689790593345,0.025041913867694478,1.6208535271407885
10669,4.0,301.29116,3828.0091,0.0,0.0,0.0,0.0,0.0,0.10633589144978435,-0.5778452140263824,0.06639071311450323,-0.6521646871936434,0.003011720458508667,0.01895518778123138,1.5931671774333587
10670,4.0,300.61012999999997,3544.3008,0.0,0.0,0.0,0.0,0.0,0.10634585825936818,-0.5705870401150565,0.1144998856177589,-0.6212918077767274,-0.011453800408652091,-0.01791169723199688,1.5948590011253285
10671,4.0,299.41845,3916.2743,0.0,0.0,0.0,0.0,0.0,0.106355825068952,-0.6403462697497564,0.07965531608161763,-0.6297586472023394,-0.004439369888381696,0.0010996146749235188,1.5888309736304087
10672,4.0,300.75741,4209.1923,0.0,0.0,0.0,0.0,0.0,0.10636579187853581,-0.7029021727010434,0.06102559943125774,-0.6376127641599804,0.011025819778413689,0.03318489626984427,1.5841826887966586
10673,4.0,301.33447,3922.5791,0.0,0.0,0.0,0.0,0.0,0.10637575868811963,-0.6676606654779774,0.06927040738895694,-0.5939758415108515,-0.011301109698082689,-0.006538358304510723,1.5780923464205885
10674,4.0,300.22422,3852.7113,0.0,0.0,0.0,0.0,0.0,0.10638572549770345,-0.6264918072899274,0.07466138225450472,-0.6192976099899155,-0.030612501498968672,-0.03394332106244497,1.5795017773096884
10675,4.0,299.31702,4160.3143,0.0,0.0,0.0,0.0,0.0,0.10639569230728728,-0.6015362071320014,0.060785660794327644,-0.7238811107215034,-0.025205481818087374,-0.0006563319214099173,1.6017831470086883
10676,4.0,299.71934,4234.3479,0.0,0.0,0.0,0.0,0.0,0.1064056591168711,-0.6311858504981934,0.039103145209179964,-0.6950533246439223,0.004817713321396285,0.03494668488121927,1.5964759456349087
10677,4.0,298.83083999999997,4005.5879999999997,0.0,0.0,0.0,0.0,0.0,0.10641562592645493,-0.6413492860237464,0.08329007622459052,-0.6595395267214834,0.0073155674367402935,-0.006573164661345844,1.6183065203644185
10678,4.0,299.21959,3738.5682,0.0,0.0,0.0,0.0,0.0,0.10642559273603874,-0.6520897269512453,0.1169215938867629,-0.6012632476875625,-0.025170505437885474,-0.020157756569665678,1.6158185860688785
10679,4.0,298.90066,3378.4004,0.0,0.0,0.0,0.0,0.0,0.10643555954562256,-0.6178863856481385,0.13273676621759886,-0.5417997637764734,0.030913511759176074,-0.014048413727720487,1.6075141908992985
10680,4.0,299.2061,3770.9159999999997,0.0,0.0,0.0,0.0,0.0,0.10644552635520638,-0.6105978851613194,0.08441791173864921,-0.6200843480300604,-0.004027236287057276,0.016533619340741185,1.5836870068477384
10681,4.0,299.99787000000003,4303.3832,0.0,0.0,0.0,0.0,0.0,0.1064554931647902,-0.6461399730265504,0.03638353026502487,-0.6983646057057203,0.014510658423340485,3.9898477636673156e-05,1.5979522510306086
10682,4.0,300.23427000000004,3994.3053,0.0,0.0,0.0,0.0,0.0,0.10646545997437402,-0.6006741238144204,0.05285515288514746,-0.6663501176661364,-0.025521076800234178,-0.009036970026954501,1.6037514866529485
10683,4.0,300.13063,3608.5877,0.0,0.0,0.0,0.0,0.0,0.10647542678395784,-0.5874383214681484,0.1055281234023149,-0.6150103562992963,0.014702476799771486,0.008706531538792762,1.5891345433603685
10684,4.0,300.68156,4078.6922,0.0,0.0,0.0,0.0,0.0,0.10648539359354166,-0.6890555426644873,0.07725604116982762,-0.6280210854008554,0.008785998413660533,0.027051614381036475,1.6093600286064684
10685,4.0,299.55317,4264.7598,0.0,0.0,0.0,0.0,0.0,0.10649536040312549,-0.7357536255882293,0.07155338652051943,-0.6321802440138324,-0.0007285309052979022,-0.006597749047197134,1.5952383619627686
10686,4.0,299.73846000000003,3915.9372,0.0,0.0,0.0,0.0,0.0,0.1065053272127093,-0.6209011694656744,0.07738436726849242,-0.6468303205846825,-0.018416863201852884,-0.03494426929298087,1.6059836766232485
10687,4.0,299.2823,3654.0527,0.0,0.0,0.0,0.0,0.0,0.10651529402229312,-0.5784907657975934,0.10696172030629991,-0.6392117336127864,-0.014108488312899386,-0.006309116650211334,1.6002487823822584
10688,4.0,299.44322,3761.35,0.0,0.0,0.0,0.0,0.0,0.10652526083187694,-0.5984958894119454,0.13081588720802287,-0.6756764870190773,0.015942076839610485,0.010271602000228188,1.6330116164156985
10689,4.0,299.4675,3924.0687,0.0,0.0,0.0,0.0,0.0,0.10653522764146076,-0.6291608397758404,0.07266976521569743,-0.6363278211781664,0.003943870729779736,-0.017712200446308085,1.5968888450506586
10690,4.0,300.33657999999997,4185.2141,0.0,0.0,0.0,0.0,0.0,0.1065451944510446,-0.7031592342514134,0.07013988439251763,-0.6391812246522754,-0.0044002847790242956,-0.02075534209439278,1.6117337696157383
10691,4.0,300.78092000000004,4199.1825,0.0,0.0,0.0,0.0,0.0,0.10655516126062842,-0.7050357025091064,0.06859733371852973,-0.6400082596488974,0.014848673590449984,0.0019801396509495682,1.5928413162011985
10692,4.0,300.98871,3778.6152,0.0,0.0,0.0,0.0,0.0,0.10656512807021223,-0.6090890341724073,0.05693650807594586,-0.5964521538277445,0.026770687751061173,0.032397085197843366,1.5501414371120485
10693,4.0,299.76891,3878.7986,0.0,0.0,0.0,0.0,0.0,0.10657509487979605,-0.5853479257168425,0.07082599453873144,-0.6645359946870965,0.006019683279021484,-0.012027008149223289,1.5719513415395185
10694,4.0,300.25858999999997,4229.2673,0.0,0.0,0.0,0.0,0.0,0.10658506168937987,-0.6423552204580244,0.035637969695693765,-0.6788744056596873,-0.0012320513265939989,-0.03068585168695777,1.5815521902120484
10695,4.0,299.79708,3891.9575,0.0,0.0,0.0,0.0,0.0,0.1065950284989637,-0.6207130190546054,0.07665684457744151,-0.6390017172645595,0.003755379765352127,0.0016596348641182085,1.6075888674316685
10696,4.0,300.13737000000003,3625.0384,0.0,0.0,0.0,0.0,0.0,0.10660499530854751,-0.6459034095257034,0.11822475510537488,-0.5742424918383214,-0.0011522484579930688,0.01138121015823799,1.6017907463844385
10697,4.0,298.29621000000003,3878.8995,0.0,0.0,0.0,0.0,0.0,0.10661496211813135,-0.6693544852726444,0.08830653257492622,-0.5980406462745164,-0.013568178776574987,-0.020309807919421982,1.6107372381423883
10698,4.0,298.70247,4066.6173,0.0,0.0,0.0,0.0,0.0,0.10662492892771516,-0.6394131576001654,0.06981398465685383,-0.6665509438359564,-0.02371932864466548,-0.005733911084417964,1.5921706459600085
10699,4.0,299.77057,4054.3518,0.0,0.0,0.0,0.0,0.0,0.10663489573729898,-0.6034580183316693,0.049487518905787856,-0.6784512116229213,-0.0046788635058678755,-0.008314943305771011,1.5863478016103385
10700,4.0,299.67275,4127.7315,0.0,0.0,0.0,0.0,0.0,0.1066448625468828,-0.6466045583299014,0.06446093472929894,-0.6725836930763424,0.03690157059065147,0.01090632820737079,1.5911037949297184
10701,4.0,298.52483,3836.3935,0.0,0.0,0.0,0.0,0.0,0.10665482935646661,-0.6207039200687073,0.08298582457731321,-0.6284497408556604,0.004549968467271926,-0.02676931074417527,1.6061075971104786
10702,4.0,300.1151,3671.845,0.0,0.0,0.0,0.0,0.0,0.10666479616605044,-0.6455776800160564,0.08466208778749752,-0.5552336058547904,0.008001294979716331,-0.015563195269467785,1.6008579483423786
10703,4.0,299.82122000000004,4028.4258,0.0,0.0,0.0,0.0,0.0,0.10667476297563426,-0.6692605367233724,0.09390892207383901,-0.6491892377449894,0.0004320784061603186,0.004870081126314586,1.6065048924746883
10704,4.0,300.87149,4160.188,0.0,0.0,0.0,0.0,0.0,0.10668472978521808,-0.6773628999555134,0.08866243869905142,-0.6758928057829263,-0.01334728113552409,0.024590022561596273,1.5955056573391486
10705,4.0,300.80396,3798.6126,0.0,0.0,0.0,0.0,0.0,0.10669469659480191,-0.5717948747642604,0.09246008183534961,-0.6753485891542164,-0.013791486939613786,-0.021191557408193878,1.5857179653481785
10706,4.0,300.60549,3748.6852,0.0,0.0,0.0,0.0,0.0,0.10670466340438572,-0.6043681094389884,0.11217517578082789,-0.6473137726048954,-0.014688224423864886,-0.0007898498933221152,1.6203039402865484
10707,4.0,299.92947000000004,4195.9622,0.0,0.0,0.0,0.0,0.0,0.10671463021396954,-0.6447262763545294,0.046626824083959253,-0.6773682701810434,0.02107382281282438,0.03857954416700456,1.6166618128020984
10708,4.0,300.24304,4093.5102,0.0,0.0,0.0,0.0,0.0,0.10672459702355336,-0.6941349451507853,0.07647181092368013,-0.6266617597292005,0.022399915907699578,0.017121597228020084,1.6105039879693686
10709,4.0,298.96029,3886.8171,0.0,0.0,0.0,0.0,0.0,0.10673456383313717,-0.6265997285580783,0.06225499806908994,-0.6171506140880234,0.024671264954614275,-0.02738528675821737,1.5921436935073485
10710,4.0,300.38617999999997,3908.0751,0.0,0.0,0.0,0.0,0.0,0.10674453064272102,-0.6060692043693734,0.054250885646145545,-0.6361389310945245,-0.016850087744474183,-0.018469402246038085,1.5793758303222585
10711,4.0,299.72885,3693.9675,0.0,0.0,0.0,0.0,0.0,0.10675449745230484,-0.5775411275388714,0.08636862691066982,-0.6317013921490734,0.02110078843773568,0.025717836797402877,1.5860058297015884
10712,4.0,300.19923,3857.8185,0.0,0.0,0.0,0.0,0.0,0.10676446426188865,-0.6049027609867544,0.08238930803144162,-0.6501670443564914,-0.014367114321423787,0.027853282661404972,1.5842190644752485
10713,4.0,300.53797000000003,4177.1737,0.0,0.0,0.0,0.0,0.0,0.10677443107147247,-0.7000204488866394,0.07530669996494263,-0.6450427346257614,0.0025219807148001176,-0.021030964360094582,1.6134904413141085
10714,4.0,301.34351000000004,3911.0057,0.0,0.0,0.0,0.0,0.0,0.10678439788105629,-0.6790066246652363,0.12044878841236989,-0.6302902286023024,-0.0027490896802890275,-0.009768585336484309,1.6274725834190382
10715,4.0,300.89817999999997,3647.6799,0.0,0.0,0.0,0.0,0.0,0.10679436469064012,-0.5952331531624385,0.08607972397590732,-0.5996501737933645,0.0025979846048011174,-0.015841823848216287,1.6128004179960085
10716,4.0,301.15051,4178.6763,0.0,0.0,0.0,0.0,0.0,0.10680433150022393,-0.6391863213002784,0.05766736638632595,-0.6886942987388354,-0.004458610595855605,0.0027677625624068975,1.6140521871695483
10717,4.0,300.00902,4376.724,0.0,0.0,0.0,0.0,0.0,0.10681429830980776,-0.6756974005011414,0.06662575876670043,-0.7213431826660294,-0.02032921267208708,-0.023214839525876274,1.5981400062741384
10718,4.0,300.30076,3908.741,0.0,0.0,0.0,0.0,0.0,0.10682426511939158,-0.6124835841274234,0.057409721203898346,-0.6330857957607033,0.004765111455704885,0.011259649530490889,1.5961867640563683
10719,4.0,299.83257000000003,3677.0813,0.0,0.0,0.0,0.0,0.0,0.1068342319289754,-0.6416473132756594,0.1063656252724699,-0.5824592104767484,0.007968169199497072,0.030031345824613077,1.5991124223951085
10720,4.0,299.19259,3750.5601,0.0,0.0,0.0,0.0,0.0,0.10684419873855922,-0.6479772589028764,0.09625970587559332,-0.5883590618340184,-0.02072577950947518,0.027905546101562973,1.6187481960830086
10721,4.0,299.23662,3819.7644,0.0,0.0,0.0,0.0,0.0,0.10685416554814303,-0.6322897966146444,0.09776192007635032,-0.6265851174916364,-0.042131694029324464,-0.013164862680270789,1.5949706612863486
10722,4.0,299.81286,4071.8047,0.0,0.0,0.0,0.0,0.0,0.10686413235772686,-0.6139008981023014,0.049430509402161454,-0.6732565722027504,-0.00048771236198096247,-0.0046316042039787455,1.6092094596416084
10723,4.0,299.97277,4180.1674,0.0,0.0,0.0,0.0,0.0,0.10687409916731068,-0.6330962221042324,0.03834470420457766,-0.6759149756951143,0.04291937337881236,0.027376426899342974,1.5882574740738087
10724,4.0,300.05317,3955.7663,0.0,0.0,0.0,0.0,0.0,0.1068840659768945,-0.6112242561081374,0.07661016515858463,-0.6678400816731844,0.036053158043419666,0.00022853392950204277,1.6170315477635884
10725,4.0,300.34197,4118.0496,0.0,0.0,0.0,0.0,0.0,0.10689403278647833,-0.7020317098051354,0.06593797473132144,-0.6156905105614224,0.0034931256121946566,-0.026487276631840678,1.6011538173715787
10726,4.0,301.62112,4507.581,0.0,0.0,0.0,0.0,0.0,0.10690399959606214,-0.7223604351039243,0.04524794471187446,-0.6930795742441284,0.0034805358783771474,-0.024638463009126976,1.6279842747195383
10727,4.0,300.70238,4125.2704,0.0,0.0,0.0,0.0,0.0,0.10691396640564596,-0.6382777703331114,0.055746075997209356,-0.6714475053417093,-0.018194531811910483,0.00920006904520112,1.5945985958496285
10728,4.0,300.47747000000004,3685.5370000000003,0.0,0.0,0.0,0.0,0.0,0.10692393321522978,-0.5314088840009734,0.05917245517761664,-0.6480747943575024,-0.02007389593838928,0.00888377887216071,1.6018924766944784
10729,4.0,300.74714,3934.9,0.0,0.0,0.0,0.0,0.0,0.1069339000248136,-0.6212447119120794,0.08422822524042863,-0.6590948619150984,-0.04242886305840276,0.0005193646131097965,1.5857350892748685
10730,4.0,300.76569,4244.9005,0.0,0.0,0.0,0.0,0.0,0.10694386683439742,-0.6685442600951814,0.040306088900151256,-0.6621055927322343,0.012021616645441189,0.016527189255606582,1.6019595538510985
10731,4.0,299.93311,3952.4939,0.0,0.0,0.0,0.0,0.0,0.10695383364398124,-0.6770351338131654,0.06788990884321233,-0.5923142430693644,0.02136344819490818,0.01076598192276969,1.6009284705493385
10732,4.0,300.00155,3882.288,0.0,0.0,0.0,0.0,0.0,0.10696380045356507,-0.6367874820860313,0.07349394487353762,-0.6168250770958954,0.044178511920329656,-0.01032535086503279,1.6103118757504087
10733,4.0,299.32997,3944.696,0.0,0.0,0.0,0.0,0.0,0.10697376726314889,-0.6044005131771865,0.08079943857778371,-0.6754880123679764,-0.012989694029482987,-0.022524149489210478,1.6219356782475882
10734,4.0,300.12237999999996,4092.9481,0.0,0.0,0.0,0.0,0.0,0.1069837340727327,-0.6261090520646524,0.07211203183065343,-0.6901570063181933,-0.004292434843680337,-0.013627563338435789,1.6002717831595286
10735,4.0,299.22642,4315.4667,0.0,0.0,0.0,0.0,0.0,0.10699370088231652,-0.6457634898193945,0.05382569955968295,-0.7198563192042873,-0.008371574968435122,0.03793782552092186,1.6207405497546385
10736,4.0,299.37545,4192.2106,0.0,0.0,0.0,0.0,0.0,0.10700366769190034,-0.6802514530755913,0.05371611048186735,-0.6477919861220914,-0.0012196208756922089,0.014662162618042787,1.5981834747034285
10737,4.0,300.13186,3828.7618,0.0,0.0,0.0,0.0,0.0,0.10701363450148417,-0.6733575121777124,0.10444786707320192,-0.5949383277808414,-0.013980154108233786,-0.02310915551394608,1.6337681089403584
10738,4.0,300.64066,3772.7309999999998,0.0,0.0,0.0,0.0,0.0,0.10702360131106799,-0.6484258956496534,0.1062734195133699,-0.6046635326381444,-0.024390246118879876,-0.03901471481995256,1.6024801617524784
10739,4.0,300.487,4079.9615,0.0,0.0,0.0,0.0,0.0,0.1070335681206518,-0.6363413885970054,0.05960827025762824,-0.6634732979822163,0.01779880698535548,0.016347297846102685,1.6144677210355585
10740,4.0,299.94574,4055.3851,0.0,0.0,0.0,0.0,0.0,0.10704353493023563,-0.6208261990907754,0.07071700429172494,-0.6826266025025004,0.023770694345234877,-0.0012441804369160488,1.6032939029077884
10741,4.0,300.06132,3915.9599,0.0,0.0,0.0,0.0,0.0,0.10705350173981945,-0.5914575705073174,0.04202969014175746,-0.6409261629144875,0.016914334893564885,0.0021964126158940476,1.5767870776417685
10742,4.0,300.04051,4073.52,0.0,0.0,0.0,0.0,0.0,0.10706346854940327,-0.6661510140214864,0.06786157026441553,-0.6399589346340294,0.015076432961178086,0.006922079967731104,1.6008693980685085
10743,4.0,299.7556,4285.8758,0.0,0.0,0.0,0.0,0.0,0.10707343535898708,-0.7078519703670504,0.038309873732390164,-0.6332571363526134,0.007509491448204102,0.03359660207697647,1.6031695771205183
10744,4.0,299.61376,4109.0631,0.0,0.0,0.0,0.0,0.0,0.1070834021685709,-0.6521354853257614,0.04859590542729245,-0.6455130042621734,-0.012219225746193689,-0.003483170936587207,1.5891147849834184
10745,4.0,300.9512,4084.3697,0.0,0.0,0.0,0.0,0.0,0.10709336897815475,-0.6336231729512384,0.08129575684776652,-0.6892189900381183,-0.016592548953307085,-0.006876485841056312,1.6117210026644786
10746,4.0,299.91119,3780.3799,0.0,0.0,0.0,0.0,0.0,0.10710333578773856,-0.6029145211105305,0.1093540645874059,-0.6555806369907713,0.020291365754351882,0.008858484907264392,1.6035044562785685
10747,4.0,299.0895,3640.5244,0.0,0.0,0.0,0.0,0.0,0.10711330259732238,-0.5877692084208045,0.1064546291612539,-0.6253139243136795,0.013346567807453687,0.047222018338450356,1.5957069901340184
10748,4.0,298.597,3984.0375,0.0,0.0,0.0,0.0,0.0,0.1071232694069062,-0.6572966165651254,0.08114507541214543,-0.6348963824968944,0.015397350546100183,0.001126990362150289,1.5920865462017084
10749,4.0,299.66475,4254.7958,0.0,0.0,0.0,0.0,0.0,0.10713323621649001,-0.7197539505466843,0.052364284887452546,-0.6259619990776394,-0.007439710940317304,-0.021495369304927778,1.6291008763297383
10750,4.0,299.06375,3967.4964,0.0,0.0,0.0,0.0,0.0,0.10714320302607384,-0.6398040086937393,0.07232269564569434,-0.6385385099813444,-0.008471238957546192,-0.03325843390910187,1.5927507316422584
10751,4.0,300.5288,3930.9088,0.0,0.0,0.0,0.0,0.0,0.10715316983565766,-0.6494185767726234,0.08745178012181873,-0.6329313156504573,-0.014622646877392885,-0.0003112344198114457,1.6352287089595086
10752,4.0,300.0599,4220.6052,0.0,0.0,0.0,0.0,0.0,0.10716313664524149,-0.6412582657672633,0.056777323445485535,-0.6984776337543753,-0.02032468445739018,-0.02113954626731078,1.6126499503561587
10753,4.0,300.98764,4226.3132,0.0,0.0,0.0,0.0,0.0,0.10717310345482531,-0.6840578993287584,0.06999143413361673,-0.6706272084582524,-0.003880232847974166,0.015126916120910383,1.6233150156087184
10754,4.0,300.61742000000004,4041.5732,0.0,0.0,0.0,0.0,0.0,0.10718307026440912,-0.6711849418432964,0.08267926778605843,-0.6400316657262074,-0.00096215656853996,0.009998778533952611,1.6159376429556285
10755,4.0,300.11695,3800.9236,0.0,0.0,0.0,0.0,0.0,0.10719303707399294,-0.6877579948514293,0.1253200085331219,-0.5929478891519004,0.027777547282680476,0.04220347975915916,1.6296295902319184
10756,4.0,299.36559,3677.0715,0.0,0.0,0.0,0.0,0.0,0.10720300388357676,-0.5951021095270055,0.10426348595250491,-0.6268993060826444,0.004335380537243746,-0.01133560883748749,1.6193603004684183
10757,4.0,299.4342,3841.0351,0.0,0.0,0.0,0.0,0.0,0.10721297069316059,-0.6191841563762184,0.08197972397001883,-0.6303743283606024,0.001050494640550749,-0.020602954345603282,1.5914276296616785
10758,4.0,298.60195,4163.0543,0.0,0.0,0.0,0.0,0.0,0.1072229375027444,-0.6380297672386354,0.07726304982076933,-0.7046978342632614,0.00872360429635271,-0.00947960134171381,1.6135813298480786
10759,4.0,298.70022,4087.256,0.0,0.0,0.0,0.0,0.0,0.10723290431232822,-0.6642788419442174,0.07758870029690852,-0.6557336073583684,-0.0078016460038625125,0.018593208236006784,1.6036634352192587
10760,4.0,299.89067,3782.2857,0.0,0.0,0.0,0.0,0.0,0.10724287112191205,-0.6331669672262145,0.08706020151467292,-0.6036136535470294,-0.013246582314085887,0.01101582609267739,1.6053304342837786
10761,4.0,300.96102,3986.4001,0.0,0.0,0.0,0.0,0.0,0.10725283793149587,-0.6798939784403114,0.0928058888957281,-0.6246779984184184,-0.01031442802895479,0.006644006346062373,1.6287777508728485
10762,4.0,300.91845,4332.3465,0.0,0.0,0.0,0.0,0.0,0.10726280474107969,-0.6747705806346713,0.03837330926815077,-0.6805278677028713,0.01059584912497889,0.01013546678304269,1.6337659811151484
10763,4.0,300.06302999999997,4039.2533,0.0,0.0,0.0,0.0,0.0,0.1072727715506635,-0.6574837638585953,0.1033833363856409,-0.6737317257046443,0.028472437241010774,0.006167514239461265,1.6475455745250882
10764,4.0,299.39947,3791.2121,0.0,0.0,0.0,0.0,0.0,0.10728273836024732,-0.5948336489130104,0.10422519523122589,-0.6618253682845784,0.013506558984993589,-0.03811030500594426,1.6110015950934784
10765,4.0,299.70777999999996,3907.5446,0.0,0.0,0.0,0.0,0.0,0.10729270516983117,-0.6465503899795554,0.09602867674679251,-0.6372742879640754,0.008761037504072082,-0.030321223505971766,1.6411125509651985
10766,4.0,299.25289,3950.3609,0.0,0.0,0.0,0.0,0.0,0.10730267197941498,-0.6344506639104054,0.08621045958330992,-0.6525708687612304,-0.003875215537453996,0.008204331554629482,1.6032389847523685
10767,4.0,299.69786,4106.2403,0.0,0.0,0.0,0.0,0.0,0.1073126387889988,-0.6824566703282294,0.07222071100987923,-0.6379585661541084,0.005393461178643175,0.043239572569413555,1.6244659663973087
10768,4.0,300.52971,4417.8076,0.0,0.0,0.0,0.0,0.0,0.10732260559858262,-0.6794928124607192,0.05428791791080035,-0.7176983092738083,-0.02966460096416817,0.02174726125328758,1.6104742997414383
10769,4.0,301.00163,4135.8758,0.0,0.0,0.0,0.0,0.0,0.10733257240816643,-0.6451341500497834,0.08335614621061112,-0.6954249645156003,-0.016358181165426783,0.014780400798711985,1.6372521694092084
10770,4.0,300.40015,3968.9011,0.0,0.0,0.0,0.0,0.0,0.10734253921775026,-0.5997720576478934,0.06477594709263823,-0.6714507173445263,-0.018278011461149282,0.0008143886018588972,1.6053108785568484
10771,4.0,300.63718,4436.6851,0.0,0.0,0.0,0.0,0.0,0.10735250602733408,-0.7014701868647174,0.06229684428496984,-0.7094681549390554,0.0022163977582164277,0.01068486010651359,1.6568649423198383
10772,4.0,301.24609,4322.4566,0.0,0.0,0.0,0.0,0.0,0.10736247283691791,-0.7112028492427563,0.04553438747539416,-0.6482503905998324,-0.002863552389760617,-0.02109058399597858,1.6249822173232586
10773,4.0,300.4877,3757.1432,0.0,0.0,0.0,0.0,0.0,0.10737243964650173,-0.6245572798015043,0.08831467505272982,-0.6058351131987704,-0.003431946685731767,-0.016100083060204485,1.6342927698421383
10774,4.0,299.80501,3697.6585,0.0,0.0,0.0,0.0,0.0,0.10738240645608554,-0.6136044616530455,0.1302642231910779,-0.6406556048727854,0.004892565247358595,-0.0007121180471305794,1.6120773627246485
10775,4.0,299.49795,4069.0039,0.0,0.0,0.0,0.0,0.0,0.10739237326566936,-0.6384936230019144,0.08408467100601091,-0.6824666204442114,-0.006329652797938094,0.020242920240570682,1.6228414225119785
10776,4.0,299.98807,4093.7139,0.0,0.0,0.0,0.0,0.0,0.10740234007525318,-0.6386215356945384,0.07988399244368623,-0.6856492491408124,-0.012378729550435489,-0.0028189306792067974,1.5960648700693385
10777,4.0,300.05993,4077.3036,0.0,0.0,0.0,0.0,0.0,0.10741230688483701,-0.6528899716152233,0.08101266490232752,-0.6675211612042093,0.0042021579074706964,-0.032381545994309764,1.6170930520446585
10778,4.0,299.87556,3989.4517,0.0,0.0,0.0,0.0,0.0,0.10742227369442083,-0.6523890308982844,0.08113962919285793,-0.6414443086181244,0.01918579641124068,0.009050974156586601,1.6153082119935085
10779,4.0,299.38004,3927.17,0.0,0.0,0.0,0.0,0.0,0.10743224050400464,-0.6444354431783264,0.092917821621025,-0.6422439858620465,0.008128390486134682,0.023957082714379976,1.6336595898546484
10780,4.0,299.45007999999996,4099.1978,0.0,0.0,0.0,0.0,0.0,0.10744220731358847,-0.6561205371740554,0.06095591214238014,-0.6508891674377594,-0.019646611410969583,-0.0013710681257388887,1.6306865114112283
10781,4.0,299.78249,4317.5488,0.0,0.0,0.0,0.0,0.0,0.10745217412317229,-0.6921270887526253,0.07413578308313214,-0.6944357385754714,-0.025032922286307078,0.012828877053111589,1.6576337964957184
10782,4.0,300.05017000000004,4018.4639,0.0,0.0,0.0,0.0,0.0,0.1074621409327561,-0.6174243638675404,0.08696772521779622,-0.6910560327344204,0.0015713312324783185,0.028671732389929677,1.6252053349952784
10783,4.0,300.95826,3815.1243,0.0,0.0,0.0,0.0,0.0,0.10747210774233992,-0.6393200703134784,0.07534753191747243,-0.5957299699514704,0.016920509639674286,0.012227987319808387,1.6244547193211984
10784,4.0,301.91852,4308.9184,0.0,0.0,0.0,0.0,0.0,0.10748207455192374,-0.7044331530721393,0.05991449064984985,-0.6652849283660104,0.01190053123199099,-0.025571806179740773,1.6040378311312087
10785,4.0,300.96921000000003,4318.8627,0.0,0.0,0.0,0.0,0.0,0.10749204136150757,-0.6984479353939443,0.042669516036653365,-0.6570479852555874,0.005879615739522895,-0.029466386953105973,1.6019400994491784
10786,4.0,300.06851,3830.199,0.0,0.0,0.0,0.0,0.0,0.10750200817109139,-0.5880531616288284,0.07563108894470733,-0.6518627893263483,0.03245032135809737,-0.024224387210010877,1.5823302649638382
10787,4.0,300.28776,3902.9129,0.0,0.0,0.0,0.0,0.0,0.1075119749806752,-0.6072247857109204,0.09153383040218573,-0.6706971024501504,0.015447927938091785,0.01870019326106538,1.6005216506341884
10788,4.0,300.62978,4160.988,0.0,0.0,0.0,0.0,0.0,0.10752194179025903,-0.6266237527179495,0.04553152504386166,-0.6837442274953014,-0.005934713341535605,-0.0017410384652271182,1.5975385410147787
10789,4.0,300.36105,4045.6124,0.0,0.0,0.0,0.0,0.0,0.10753190859984285,-0.6572913375321043,0.08145343477532813,-0.6539272661400963,-0.01881716690560978,-0.030236866382146368,1.6055235597528383
10790,4.0,299.89364,4143.4789,0.0,0.0,0.0,0.0,0.0,0.10754187540942667,-0.6567386298675564,0.03886918373458976,-0.6416446788253994,-0.014008384269269885,-0.006988509758862213,1.6245082189264786
10791,4.0,299.81163,4101.923,0.0,0.0,0.0,0.0,0.0,0.10755184221901049,-0.6634826300156373,0.06066558052497664,-0.6440651205317783,0.004816607054937106,-0.00020655951378833678,1.6281760829634684
10792,4.0,301.04201,3858.6685,0.0,0.0,0.0,0.0,0.0,0.10756180902859432,-0.6287223557950654,0.1049007189403949,-0.6491172463253844,-0.01828707397004368,-0.006500836234757584,1.6531660728297883
10793,4.0,299.58199,4026.4489,0.0,0.0,0.0,0.0,0.0,0.10757177583817813,-0.6384008295577565,0.07649964287742693,-0.6620387384906363,-0.01255211994729779,0.02016931066055598,1.6221904093227286
10794,4.0,299.02438,4336.3933,0.0,0.0,0.0,0.0,0.0,0.10758174264776195,-0.6649601918414614,0.06902425854216393,-0.7222193298949983,-0.01746407880157038,0.034762353409777166,1.6348606965231884
10795,4.0,298.42323999999996,3991.1618,0.0,0.0,0.0,0.0,0.0,0.10759170945734578,-0.6668725291526943,0.06781347128216852,-0.6141544639398264,0.01076498488467129,0.024411707769247976,1.5773716216244587
10796,4.0,299.34427999999997,3920.1095,0.0,0.0,0.0,0.0,0.0,0.1076016762669296,-0.6398061263864484,0.07974799705501451,-0.6315572674548494,-0.0024615656775876177,-0.027039244623815677,1.5823577240415485
10797,4.0,299.50636000000003,3954.152,0.0,0.0,0.0,0.0,0.0,0.10761164307651341,-0.6733951037564224,0.1101349359094719,-0.6387032847126064,0.0071759709572131935,-0.05679562172904144,1.6072088986441684
10798,4.0,300.55575,3864.1447,0.0,0.0,0.0,0.0,0.0,0.10762160988609723,-0.6099652624613844,0.08891418068639641,-0.6535524142656014,0.019857588320291383,-0.01903602690070958,1.6317543756916184
10799,4.0,300.71227999999996,3921.8278,0.0,0.0,0.0,0.0,0.0,0.10763157669568105,-0.6139403337961934,0.08301466167515922,-0.6612120682640503,0.004129878724837296,-0.007552972441795342,1.6218476268138984
10800,4.0,300.88329,4203.8443,0.0,0.0,0.0,0.0,0.0,0.10764154350526489,-0.6478657811268744,0.05185844004002955,-0.6818563601739833,0.004338823358433526,0.002259166943612418,1.6202505420062785
10801,4.0,299.37734,4011.8692,0.0,0.0,0.0,0.0,0.0,0.10765151031484871,-0.6770337355280274,0.06876695685152023,-0.6112412685773164,-0.012806702074673089,-0.006263271338836754,1.6105171602206683
10802,4.0,299.77918999999997,4002.2824,0.0,0.0,0.0,0.0,0.0,0.10766147712443253,-0.6395757943737164,0.04561657219100516,-0.6226346985317603,-0.007958748810667353,0.013140864864902386,1.5907545276202484
10803,4.0,299.08417000000003,4289.7221,0.0,0.0,0.0,0.0,0.0,0.10767144393401634,-0.6805873454837413,0.016561242564967382,-0.6399422970673874,0.0016884718606391986,-0.00851436541492744,1.5939674423623382
10804,4.0,299.82412999999997,4197.3749,0.0,0.0,0.0,0.0,0.0,0.10768141074360016,-0.6405074373106624,0.04904004334362545,-0.6844297519829573,-0.0014255384246146887,-0.002190557347541178,1.6053041911061883
10805,4.0,300.543,3817.8915,0.0,0.0,0.0,0.0,0.0,0.10769137755318399,-0.5851187994717295,0.08184963177642972,-0.6572745277129454,-0.002202702568539818,-0.0068917647406392234,1.6110524602484986
10806,4.0,300.96301,3720.9282,0.0,0.0,0.0,0.0,0.0,0.1077013443627678,-0.6042956215268345,0.0963533028270806,-0.6231269455628414,0.01102415196874909,0.03803828521533647,1.6117180642391884
10807,4.0,300.49664,4062.3013,0.0,0.0,0.0,0.0,0.0,0.10771131117235164,-0.6771476552367703,0.0962807389211691,-0.6539712310619353,0.007104317963141593,0.02262671674383308,1.6131563727561384
10808,4.0,301.11367,4088.4507,0.0,0.0,0.0,0.0,0.0,0.10772127798193545,-0.6688702429173533,0.06424373241136275,-0.6381604157065294,-0.02156721988276888,-0.02100673957670378,1.6072714161753385
10809,4.0,299.37414,3970.6464,0.0,0.0,0.0,0.0,0.0,0.10773124479151927,-0.6531362015220245,0.06371503472118434,-0.6175561978380514,-0.011869524765680888,-0.023892319820988377,1.6245716483827384
10810,4.0,300.56402,4108.945,0.0,0.0,0.0,0.0,0.0,0.10774121160110309,-0.6373336542874344,0.07989101122712892,-0.6915740264505423,0.017869099184542783,-0.0008500228042907193,1.6583923155205784
10811,4.0,300.52831000000003,4115.0916,0.0,0.0,0.0,0.0,0.0,0.1077511784106869,-0.6258884675178824,0.05608432623834204,-0.6810809604024574,0.01079152089154019,0.011406421847226188,1.6180867464177286
10812,4.0,300.53156,4225.2974,0.0,0.0,0.0,0.0,0.0,0.10776114522027073,-0.6680920364430504,0.06581114013680384,-0.6821039984984234,-0.02102815765731758,-0.018281809122524084,1.6334102290050383
10813,4.0,299.89237,4423.7003,0.0,0.0,0.0,0.0,0.0,0.10777111202985455,-0.7112236411348083,0.042469599765423166,-0.6759403981401233,-0.02890511631196287,-0.024529279231351377,1.6080702625541785
10814,4.0,300.81919,4123.4164,0.0,0.0,0.0,0.0,0.0,0.10778107883943837,-0.6708063916059364,0.05666499352614945,-0.6392742207464535,0.004580324224367806,0.02114208851181168,1.5976885020295786
10815,4.0,300.50271000000004,3726.9793,0.0,0.0,0.0,0.0,0.0,0.1077910456490222,-0.6192900714091714,0.1040404189429899,-0.6176589819281953,0.02121845311884828,0.01041615833899479,1.5945054781654384
10816,4.0,300.18003999999996,4074.0265,0.0,0.0,0.0,0.0,0.0,0.10780101245860602,-0.6220715442586814,0.05964373502437834,-0.6759745244034914,-0.00014454425069290684,0.017042090532423382,1.6139105348055685
10817,4.0,299.32277,4081.0078,0.0,0.0,0.0,0.0,0.0,0.10781097926818983,-0.6304615793267134,0.07644525465180922,-0.6865081407205783,-0.015075055954292187,0.005066142284889315,1.6274609310428882
10818,4.0,299.59129,3850.1173,0.0,0.0,0.0,0.0,0.0,0.10782094607777365,-0.6329482977221333,0.0968117954575803,-0.6342030154534644,-0.001918004317717288,0.014445810416940487,1.6256685929409984
10819,4.0,299.06284,4055.5101,0.0,0.0,0.0,0.0,0.0,0.10783091288735747,-0.6638030703597624,0.06765874393889813,-0.6366294758654374,-0.0058572615171417035,0.007174297473348034,1.6162496226614185
10820,4.0,299.2147,4287.6669,0.0,0.0,0.0,0.0,0.0,0.10784087969694131,-0.7037404345087733,0.07120589645172484,-0.6708091375137073,-0.010688391283112091,-0.012330968993721887,1.6293951241587785
10821,4.0,299.10329,4270.7507,0.0,0.0,0.0,0.0,0.0,0.10785084650652513,-0.6828189781664863,0.05468186043042945,-0.6700644696177144,-0.003939113520560237,-0.02032564501848498,1.6236916406708886
10822,4.0,299.78535,4276.0649,0.0,0.0,0.0,0.0,0.0,0.10786081331610894,-0.6263210037205704,0.06242442361831094,-0.7359203862896873,-0.013129902512070489,0.016420821299858883,1.6295971662287183
10823,4.0,300.30554,4200.8544,0.0,0.0,0.0,0.0,0.0,0.10787078012569276,-0.6622369200776953,0.07067881793520622,-0.6853967472158923,0.012754919928312588,0.002095076257492928,1.6236341893902184
10824,4.0,300.2684,4050.5353,0.0,0.0,0.0,0.0,0.0,0.10788074693527658,-0.6538100736335304,0.07446566590493903,-0.6519172008567184,-0.015873417999584385,-0.004596326381872095,1.6457990353277183
10825,4.0,299.83128999999997,4130.7037,0.0,0.0,0.0,0.0,0.0,0.10789071374486041,-0.6719622465250104,0.059075355420533646,-0.6427438829313824,-0.018599983839425484,-0.003975491326975446,1.6058050406306184
10826,4.0,300.0922,4373.2234,0.0,0.0,0.0,0.0,0.0,0.10790068055444423,-0.6995697248446563,0.055223184230103944,-0.6850041735971484,-0.008948701048468032,-0.0016833481588585284,1.6482321527928485
10827,4.0,300.24097,4136.8589,0.0,0.0,0.0,0.0,0.0,0.10791064736402806,-0.6702926231427313,0.07868726808182872,-0.6658964653313644,0.01160187880476629,0.007232067319849473,1.5976861715543484
10828,4.0,299.44391,3922.262,0.0,0.0,0.0,0.0,0.0,0.10792061417361187,-0.6046489519692054,0.08215114967493722,-0.6697719139163414,0.013956220127621686,-0.006350815032901644,1.6339688337851683
10829,4.0,299.73816,4167.1856,0.0,0.0,0.0,0.0,0.0,0.10793058098319569,-0.6883026066476783,0.08511760247595332,-0.6635353595508414,-0.002316215254717648,-0.01236298972338209,1.6130859518741885
10830,4.0,301.29058,4408.3298,0.0,0.0,0.0,0.0,0.0,0.1079405477927795,-0.7007561191217443,0.04291646028477486,-0.6821825152486723,-0.008839304893471471,0.023049494334807977,1.6497670240443285
10831,4.0,301.98427999999996,4043.4222,0.0,0.0,0.0,0.0,0.0,0.10795051460236332,-0.6492365261271563,0.05498776468861985,-0.6348506139898774,-0.01967412925718538,-0.004245317903430256,1.5846362195414185
10832,4.0,302.34597,3962.4371,0.0,0.0,0.0,0.0,0.0,0.10796048141194714,-0.6563940640385504,0.08175944542477902,-0.6298473268510913,-0.006694742716994663,-0.0021661723693095682,1.6229223811949685
10833,4.0,301.74253,4055.9824,0.0,0.0,0.0,0.0,0.0,0.10797044822153097,-0.6585803132493164,0.08878666924081202,-0.6631237165652154,-0.001998117848798878,-0.008200452630596662,1.6110914703773485
10834,4.0,300.10426,3953.2854,0.0,0.0,0.0,0.0,0.0,0.10798041503111479,-0.6020706154997434,0.07641702854377352,-0.6760464651605913,0.012286554188838488,0.02099665976470898,1.6067862720274586
10835,4.0,300.27979,4089.3132,0.0,0.0,0.0,0.0,0.0,0.10799038184069862,-0.6645395511949475,0.07965723720380721,-0.6581667754860034,-0.015588160738681684,-0.009402708628725092,1.6142163336857485
10836,4.0,299.78472,4240.7564,0.0,0.0,0.0,0.0,0.0,0.10800034865028244,-0.6729611186060913,0.06434929685978114,-0.6804722402723813,0.0017133238458418981,-0.007722041833606192,1.6288450306794884
10837,4.0,299.50202,4035.0747,0.0,0.0,0.0,0.0,0.0,0.10801031545986625,-0.6660031909643974,0.07351225126309434,-0.6340710294954384,-0.014576081955797288,-0.015953891335776484,1.6201870112250085
10838,4.0,299.69372999999996,4232.7783,0.0,0.0,0.0,0.0,0.0,0.10802028226945007,-0.6721876541422563,0.06707095046313744,-0.6815421918479774,0.030319402695542074,0.0023342447230220178,1.6296583665347586
10839,4.0,300.89682,4636.7128,0.0,0.0,0.0,0.0,0.0,0.10803024907903389,-0.7150228223847583,0.04259124043992816,-0.7370133386425533,0.004550451280944575,0.0009148050406267282,1.6403725744171682
10840,4.0,300.65963999999997,4348.2375,0.0,0.0,0.0,0.0,0.0,0.10804021588861772,-0.6626217727306773,0.05057705863231705,-0.7097109296630153,-0.025864264609104175,0.002917035681714007,1.6153805580506486
10841,4.0,300.19667000000004,3958.9288,0.0,0.0,0.0,0.0,0.0,0.10805018269820153,-0.6470276409091563,0.07845052219596371,-0.6348383840611704,-0.006732129416534443,-0.0042150753263705465,1.6360198546375884
10842,4.0,300.29359,4087.1424,0.0,0.0,0.0,0.0,0.0,0.10806014950778535,-0.6568060312642083,0.06218021109245903,-0.6477634226017724,0.0013899580460281786,0.010443269871920489,1.6135820391231486
10843,4.0,300.15236,4145.1423,0.0,0.0,0.0,0.0,0.0,0.10807011631736918,-0.6656566898277003,0.06375556675168453,-0.6581186258412514,0.007689599186604352,-0.0037213230109409863,1.6309261450598787
10844,4.0,298.81677,4006.5185,0.0,0.0,0.0,0.0,0.0,0.108080083126953,-0.6479247117526904,0.07734816890866993,-0.6473050383890334,0.004079917996856556,-0.002972641833951907,1.6203469020907884
10845,4.0,300.02941,4083.0306,0.0,0.0,0.0,0.0,0.0,0.10809004993653681,-0.6328651605514284,0.08191168827880423,-0.6901858738135423,-0.016528537891489684,-0.012144799486598388,1.6404237435472184
10846,4.0,299.6731,3998.4573,0.0,0.0,0.0,0.0,0.0,0.10810001674612063,-0.6333883522405634,0.097355036326444,-0.6793978506613473,0.008465168474872081,0.001113969997040279,1.6357642116373585
10847,4.0,299.72028,3990.009,0.0,0.0,0.0,0.0,0.0,0.10810998355570445,-0.6484956275215353,0.09050398731854811,-0.6548714733782824,0.005143164896540855,-0.008920740817258572,1.6260139085750784
10848,4.0,299.62895,4290.2981,0.0,0.0,0.0,0.0,0.0,0.10811995036528828,-0.7064302892842413,0.08574306149768132,-0.6834562719493823,-0.0024683333776555376,-0.01913553616653038,1.6218559354647184
10849,4.0,299.38293999999996,4307.9329,0.0,0.0,0.0,0.0,0.0,0.1081299171748721,-0.7195089872025083,0.06756199071334934,-0.6575570421058274,0.003901809704878636,-0.005444149521520725,1.6244448907952285
10850,4.0,298.86309,3803.2296,0.0,0.0,0.0,0.0,0.0,0.10813988398445593,-0.6339138034774213,0.10325166453514589,-0.6254246826821105,0.002219440142966688,-0.006708487353276154,1.6301854592367784
10851,4.0,300.02193,3878.8521,0.0,0.0,0.0,0.0,0.0,0.10814985079403974,-0.6060507530850524,0.08468293844805531,-0.6577063749055654,0.015999122820240484,0.0037120125597471165,1.6174246888023884
10852,4.0,297.8749,4177.8068,0.0,0.0,0.0,0.0,0.0,0.10815981760362356,-0.6501589383556914,0.07012160434746352,-0.6899115971439733,-0.007225641389040284,0.007938650184333772,1.6326609305560884
10853,4.0,300.45261,4202.0179,0.0,0.0,0.0,0.0,0.0,0.10816978441320738,-0.6706459738501044,0.05316788138276135,-0.6598304206926924,0.007939835585625762,0.02211333736866648,1.6326405642290787
10854,4.0,300.37616,4068.2854,0.0,0.0,0.0,0.0,0.0,0.10817975122279119,-0.6323848800040284,0.05714192528196895,-0.6614142319240024,-0.017963823883391385,-0.0032017723347153274,1.6155975962220686
10855,4.0,300.38545,4152.6839,0.0,0.0,0.0,0.0,0.0,0.10818971803237504,-0.6914837559991334,0.06827599158181574,-0.6391044405596974,0.014041360493774387,0.01093929733912459,1.6396408051949485
10856,4.0,300.32448999999997,4358.1299,0.0,0.0,0.0,0.0,0.0,0.10819968484195885,-0.6903279821400674,0.07182459101578523,-0.7062592830648643,0.009821063990963552,-0.01921018534114768,1.6209064187960085
10857,4.0,299.92816,4339.7257,0.0,0.0,0.0,0.0,0.0,0.10820965165154267,-0.6620536332671063,0.04748590514149396,-0.7046005115911563,0.020573618728708082,-0.0047190901427879356,1.6300508996234986
10858,4.0,299.58066,4286.2096,0.0,0.0,0.0,0.0,0.0,0.10821961846112649,-0.6610241812980073,0.06200677408609215,-0.7038832825078714,-0.012104780160648788,-0.005820025994516844,1.6029764516514586
10859,4.0,301.04697000000004,4140.5902,0.0,0.0,0.0,0.0,0.0,0.1082295852707103,-0.6650335511487014,0.05710684251050654,-0.6507093256775104,-0.0035614100563088067,-0.013354054712442588,1.6272514922472183
10860,4.0,299.54598,3810.6856,0.0,0.0,0.0,0.0,0.0,0.10823955208029414,-0.6203257953963894,0.08170022500943443,-0.6197277042598623,-0.0016781553534210385,-0.014951488078096984,1.5936868734096485
10861,4.0,299.20148,4057.7269,0.0,0.0,0.0,0.0,0.0,0.10824951888987795,-0.7014699740821962,0.09848843154380141,-0.6304661085546603,0.0003879648202666467,0.006080392361413004,1.6282668701724285
10862,4.0,300.25624,4264.0112,0.0,0.0,0.0,0.0,0.0,0.10825948569946178,-0.6612546247682504,0.035698419183409665,-0.6705967096302423,0.0021631633204875983,-0.002455335101397708,1.6019423285993986
10863,4.0,299.11697999999996,3791.3065,0.0,0.0,0.0,0.0,0.0,0.1082694525090456,-0.5938990067557685,0.08406426313574683,-0.6426277442049204,-0.02094765291037238,0.007686929677890893,1.6079858588208484
10864,4.0,298.70364,4038.7462,0.0,0.0,0.0,0.0,0.0,0.10827941931862942,-0.6324717054050973,0.0884660718429215,-0.6836723576657083,0.018842841649893683,-0.011034540822024388,1.6314798862395286
10865,4.0,299.2113,4369.8014,0.0,0.0,0.0,0.0,0.0,0.10828938612821323,-0.7028135741122993,0.061287030116058946,-0.6867839575302993,0.0007093163498090734,0.02228899541925258,1.6397069704264786
10866,4.0,299.15,3983.9428,0.0,0.0,0.0,0.0,0.0,0.10829935293779705,-0.6571442440150873,0.1018370154080309,-0.6557119035412263,-0.00044551080942349365,0.016228701988148183,1.6217620071804484
10867,4.0,300.43736,4052.698,0.0,0.0,0.0,0.0,0.0,0.10830931974738088,-0.7003629983479464,0.08877405326381692,-0.6203300409143084,-0.02003087131264308,-0.012227055129716387,1.6367082567555284
10868,4.0,300.28931,4274.3148,0.0,0.0,0.0,0.0,0.0,0.1083192865569647,-0.6614108476686684,0.06962613619431464,-0.7075002611248393,-0.0030410456389278373,-0.0003271533489525217,1.6398640241919784
10869,4.0,300.04513,4264.0347,0.0,0.0,0.0,0.0,0.0,0.10832925336654851,-0.6857405936373273,0.07209592115406342,-0.6825154185690273,0.015237715019345384,0.02104086887982208,1.6178161073160184
10870,4.0,300.54801000000003,4330.3821,0.0,0.0,0.0,0.0,0.0,0.10833922017613234,-0.6713038264775294,0.03370290923771817,-0.6787271094926504,0.03160593445351287,0.0069152234056294145,1.6088025384014486
10871,4.0,299.75755,4262.7665,0.0,0.0,0.0,0.0,0.0,0.10834918698571616,-0.6567213032908464,0.046083791944616155,-0.6851370816127653,-0.003847258143344816,0.0016336729647559685,1.6180230129864384
10872,4.0,299.76096,3974.1523,0.0,0.0,0.0,0.0,0.0,0.10835915379529998,-0.6225996806083044,0.07534630385835123,-0.6607896949598654,0.017376511701428184,-0.020206077453684582,1.6272672989487784
10873,4.0,300.26825,4042.7156,0.0,0.0,0.0,0.0,0.0,0.1083691206048838,-0.6525035585570874,0.07217930859754314,-0.6485603336729213,0.008240561933155142,-0.008485210460525071,1.6391619431976883
10874,4.0,299.25743,4359.7346,0.0,0.0,0.0,0.0,0.0,0.10837908741446761,-0.6513529928035354,0.04039475031040146,-0.7142922184001533,-0.025950987671913076,0.009416246967286221,1.6050074101518985
10875,4.0,299.96725,4253.8695,0.0,0.0,0.0,0.0,0.0,0.10838905422405146,-0.6598110676157823,0.06901313812231642,-0.7022721743188673,-0.02098010528457518,0.006225841677492734,1.6434452553454184
10876,4.0,300.50428,3912.7642,0.0,0.0,0.0,0.0,0.0,0.10839902103363527,-0.6090451503105765,0.07044121078675622,-0.6507786826468553,-0.022656749476797078,0.011734241691829489,1.6034718296253485
10877,4.0,299.43633,4140.7914,0.0,0.0,0.0,0.0,0.0,0.10840898784321909,-0.6644491388885244,0.07955473986344151,-0.6738028051991594,-0.0020581732835508884,0.028281935076459673,1.6403759181424984
10878,4.0,299.37624,4451.2658,0.0,0.0,0.0,0.0,0.0,0.1084189546528029,-0.7364334454778223,0.06661061270420564,-0.6832508354916074,0.01145235348750929,-0.007859214517569083,1.6108445413279786
10879,4.0,299.22485,4149.2054,0.0,0.0,0.0,0.0,0.0,0.10842892146238672,-0.6781875031518954,0.07567640250242942,-0.6587437403579454,-0.003081384645283987,-0.024719541255628776,1.6536423003767882
10880,4.0,299.60656,3967.4904,0.0,0.0,0.0,0.0,0.0,0.10843888827197055,-0.5961460104425305,0.05988382970182384,-0.6697558437697554,0.01304453720439559,-0.04040772295143176,1.6113966613074684
10881,4.0,300.54174,4139.32,0.0,0.0,0.0,0.0,0.0,0.10844885508155437,-0.6523599404879133,0.07067282152111443,-0.6765627870140484,0.01337854496735959,-0.01177442719079549,1.6320593639717182
10882,4.0,299.74986,4075.9067,0.0,0.0,0.0,0.0,0.0,0.1084588218911382,-0.6565631552152383,0.09095306077611821,-0.6733637537983284,-0.003049530595265237,0.001739237311849358,1.6123927874807786
10883,4.0,300.51775,4189.2047,0.0,0.0,0.0,0.0,0.0,0.10846878870072202,-0.6833813218394853,0.058309970612996045,-0.6483422822514013,-0.0009179493076745433,0.008101266591557762,1.6249331760184182
10884,4.0,300.64668,4262.6435,0.0,0.0,0.0,0.0,0.0,0.10847875551030584,-0.7016564019680953,0.07414444941123742,-0.6682252281686953,-0.011827688682301989,0.02040147158971848,1.6569863296818184
10885,4.0,300.57324,4162.9306,0.0,0.0,0.0,0.0,0.0,0.10848872231988965,-0.6707843838137644,0.07905850467996693,-0.6737010647566184,0.016720068504892285,0.023876259806903374,1.6523308507723584
10886,4.0,301.04352,4209.0932,0.0,0.0,0.0,0.0,0.0,0.10849868912947347,-0.6479719596048533,0.05562926143293064,-0.6871165264781214,0.000930545222317663,-0.014253252367936488,1.6269915935965684
10887,4.0,299.13989,4391.2301,0.0,0.0,0.0,0.0,0.0,0.10850865593905729,-0.6759040629915374,0.045833575911921755,-0.7047538264637874,0.025408647582388273,-0.014064862829843884,1.6206867461743286
10888,4.0,299.18391,4248.7995,0.0,0.0,0.0,0.0,0.0,0.1085186227486411,-0.6474476026781034,0.037503626574819766,-0.6815849813997003,0.007181177137552004,-0.024741895579334976,1.6063001146294784
10889,4.0,299.74922000000004,4115.2071,0.0,0.0,0.0,0.0,0.0,0.10852858955822493,-0.6775857440500063,0.06342776919858344,-0.6367622217610384,-0.004191189880438236,0.0005686961330434385,1.6169286015534285
10890,4.0,299.05305,4083.2705,0.0,0.0,0.0,0.0,0.0,0.10853855636780876,-0.6727890484741094,0.07395342136988442,-0.6423766405651384,-0.01972855902605718,0.014060589954172188,1.6214519526498485
10891,4.0,299.64794,4007.6379,0.0,0.0,0.0,0.0,0.0,0.10854852317739258,-0.6601073216800203,0.09812945729837341,-0.6562439814337383,-0.007018316334403893,0.008450421328941653,1.6501865095857284
10892,4.0,300.51535,4138.1029,0.0,0.0,0.0,0.0,0.0,0.1085584899869764,-0.6045289932898664,0.055477601197712945,-0.7088285509459313,-0.012542449488343387,0.005829437061445644,1.6240450623057683
10893,4.0,299.79126,4301.4367,0.0,0.0,0.0,0.0,0.0,0.10856845679656021,-0.6834863046823464,0.06531915148449834,-0.6893621825422503,0.015673184581072884,0.008091837387452172,1.6364980073597786
10894,4.0,300.54611,4410.5821,0.0,0.0,0.0,0.0,0.0,0.10857842360614403,-0.6821411239820874,0.047401278493141956,-0.7059669908085173,0.012560145901339886,0.008617395724845742,1.6204701133029484
10895,4.0,300.74313,4158.8477,0.0,0.0,0.0,0.0,0.0,0.10858839041572786,-0.6990970943355114,0.07723878856037493,-0.6423275384652924,0.018172770239512782,-0.013934620675239987,1.6505089257675483
10896,4.0,299.86827,4057.2149,0.0,0.0,0.0,0.0,0.0,0.10859835722531168,-0.6576256087400943,0.07286319567303752,-0.6485295916648874,0.004194293465494535,-0.02211542466387248,1.6414550294989985
10897,4.0,300.29035,4475.8396,0.0,0.0,0.0,0.0,0.0,0.1086083240348955,-0.6968330883120714,0.045476640325694956,-0.7091870286988103,-0.016835605360794884,0.0025032953697060175,1.6587001409009585
10898,4.0,300.33461,4527.5493,0.0,0.0,0.0,0.0,0.0,0.10861829084447933,-0.6729766415976233,0.033277887297771765,-0.7365631718881254,-0.00988663566058497,0.005993331683670784,1.6407269079771385
10899,4.0,300.74536,4111.1951,0.0,0.0,0.0,0.0,0.0,0.10862825765406314,-0.6621783643544163,0.09208944406802051,-0.6796117173599544,-0.02961479870850307,-0.009984927101110581,1.6299523103887685
10900,4.0,300.80784,4039.2061,0.0,0.0,0.0,0.0,0.0,0.10863822446364696,-0.6584544169243913,0.0898853069399891,-0.6592486834127794,-0.010092776428504481,-0.01132957493314199,1.6187458656077784
10901,4.0,300.59571,4127.0,0.0,0.0,0.0,0.0,0.0,0.10864819127323078,-0.6943616091981554,0.0881413363316226,-0.6482846587182144,0.02148104296176388,0.008466752894053452,1.6161795057544985
10902,4.0,300.40033999999997,4205.0592,0.0,0.0,0.0,0.0,0.0,0.1086581580828146,-0.7010661128573383,0.08266856178550183,-0.6598354362806874,0.03299020938238017,0.01304873205980959,1.6442879754535882
10903,4.0,300.80719,4285.8911,0.0,0.0,0.0,0.0,0.0,0.10866812489239842,-0.6666867497468594,0.06179749741043814,-0.6979146112038093,0.0034359466931515367,-0.003786760627574176,1.6417642734295184
10904,4.0,299.99645,3966.7761,0.0,0.0,0.0,0.0,0.0,0.10867809170198224,-0.6099643708012965,0.09209355988992672,-0.6879300852484134,0.0016690456270719786,-0.00956780749869408,1.6520929396488786
10905,4.0,300.39321,4011.9274,0.0,0.0,0.0,0.0,0.0,0.10868805851156607,-0.6177671970388754,0.07125295279961893,-0.6730115075335643,-0.017352263613285086,-0.0006821616828266164,1.6332763786668285
10906,4.0,299.71509,4330.51,0.0,0.0,0.0,0.0,0.0,0.10869802532114989,-0.6779348593719614,0.03991303297435966,-0.6783450838074474,0.016926873863552384,0.01036253714370279,1.6224097779693785
10907,4.0,299.7329,4336.1654,0.0,0.0,0.0,0.0,0.0,0.1087079921307337,-0.7065276930163543,0.06796597859446984,-0.6795242941413263,-0.02194756559930608,-0.02830526617326227,1.6555535940404185
10908,4.0,300.19807000000003,4063.0764,0.0,0.0,0.0,0.0,0.0,0.10871795894031752,-0.6451703332108544,0.06332226250542074,-0.6532257019033574,0.002380562208943198,-0.02947558625076387,1.6303830430062785
10909,4.0,299.46004,3878.3913,0.0,0.0,0.0,0.0,0.0,0.10872792574990134,-0.6069713211984055,0.09007226272919022,-0.6620350603927734,-0.0047637014168657255,-0.004301365123436686,1.6489983725184685
10910,4.0,298.01566,4031.3895,0.0,0.0,0.0,0.0,0.0,0.10873789255948518,-0.6371569941324994,0.0960165288913436,-0.6843012921352793,0.029591954984998576,0.013477945815419686,1.6314874856152786
10911,4.0,298.59921,4157.752,0.0,0.0,0.0,0.0,0.0,0.108747859369069,-0.6723436439951513,0.08743559142497101,-0.6789447454816294,0.01085141511820129,-0.01070200328495549,1.6539377641059483
10912,4.0,299.14445,4032.2162,0.0,0.0,0.0,0.0,0.0,0.10875782617865282,-0.6499578082108414,0.0923690899498694,-0.6681043170342623,-0.005239278558626535,-0.005713248077778684,1.6163501370713382
10913,4.0,299.02412000000004,4315.1653,0.0,0.0,0.0,0.0,0.0,0.10876779298823663,-0.6913398846174343,0.06392063633872565,-0.6842832664160003,0.004686661174662446,0.016782045973758986,1.6663811846090182
10914,4.0,298.93981,4420.5581,0.0,0.0,0.0,0.0,0.0,0.10877775979782045,-0.6961698147966113,0.04821389392759086,-0.6957833713409723,-0.0017588383310588283,0.013539597017754186,1.6189858032314586
10915,4.0,299.819,4375.038,0.0,0.0,0.0,0.0,0.0,0.10878772660740428,-0.6898101910739654,0.06474401552898684,-0.7048361226369093,-0.016319531753612383,-0.0055248033175556354,1.6638335698825881
10916,4.0,300.12528,4324.6145,0.0,0.0,0.0,0.0,0.0,0.1087976934169881,-0.6711069621156003,0.052214454581915454,-0.6956823199084994,-0.02938482842605677,-0.008716367562813503,1.6497788790704984
10917,4.0,300.67632000000003,4150.0037,0.0,0.0,0.0,0.0,0.0,0.10880766022657191,-0.6450780970542513,0.07193518118469963,-0.6883545863778083,-7.932184027495612e-05,0.023495836070108477,1.6514755663629483
10918,4.0,299.80003999999997,3947.9415,0.0,0.0,0.0,0.0,0.0,0.10881762703615575,-0.6375886589401014,0.05581761145426935,-0.6183045742294104,0.014168190022041486,0.01053313907628989,1.6111429434824285
10919,4.0,300.62852000000004,4069.3579,0.0,0.0,0.0,0.0,0.0,0.10882759384573956,-0.6756134729953583,0.08372713456247483,-0.6450968320486004,0.03309484974670737,-0.008210110829224852,1.6402769236077286
10920,4.0,300.27749,4142.3149,0.0,0.0,0.0,0.0,0.0,0.10883756065532338,-0.6531528897511714,0.07509517387406663,-0.6811025932920924,0.0038585178850810663,-0.007917885852684492,1.6174411034540086
10921,4.0,299.34214,4005.2987,0.0,0.0,0.0,0.0,0.0,0.1088475274649072,-0.6339319203892093,0.08470824842230322,-0.6682871073523023,-0.016200804173144883,-0.0011401017171192788,1.6300677195751585
10922,4.0,299.24839,4097.0248,0.0,0.0,0.0,0.0,0.0,0.10885749427449101,-0.6495561660037024,0.08023481610530983,-0.6760718876056003,-0.01008162348332877,0.014554970889963785,1.6289840485932086
10923,4.0,299.22401,4401.2549,0.0,0.0,0.0,0.0,0.0,0.10886746108407484,-0.7058279424972944,0.05266930255180546,-0.6847129452534063,-0.005016957301185136,0.016744094691263485,1.6184948835580086
10924,4.0,299.12399,4251.9827,0.0,0.0,0.0,0.0,0.0,0.10887742789365866,-0.6902129782537173,0.05774830176456364,-0.6600319054750774,0.01008152631264418,0.015332441744694187,1.6408150607358383
10925,4.0,299.66511,4110.5849,0.0,0.0,0.0,0.0,0.0,0.10888739470324249,-0.6689753878802304,0.06403981886848803,-0.6445796084025545,0.025280144164955977,0.02331078316459518,1.6399001972205485
10926,4.0,299.95849,4255.34,0.0,0.0,0.0,0.0,0.0,0.10889736151282631,-0.6536287423956344,0.060537303062316646,-0.7004256678666313,-0.019072386367297984,0.007890994904305563,1.6441143043864486
10927,4.0,300.14538,4226.8186,0.0,0.0,0.0,0.0,0.0,0.10890732832241012,-0.6849939296386374,0.07877999870448052,-0.6786333939909013,-0.01164817420183529,-0.028916269155813575,1.6760715032653783
10928,4.0,300.64876,4011.5268,0.0,0.0,0.0,0.0,0.0,0.10891729513199394,-0.6192841641610884,0.08129806199174401,-0.6814178863257093,-0.02861204790603927,-0.018565568799778984,1.6570232119854584
10929,4.0,300.17807999999997,4041.3931,0.0,0.0,0.0,0.0,0.0,0.10892726194157776,-0.6426058985327644,0.08775942109068052,-0.6736361052927073,0.006478727421550614,-6.108717058683435e-05,1.6545686136182085
10930,4.0,299.84439,4361.3357,0.0,0.0,0.0,0.0,0.0,0.1089372287511616,-0.6830709835988573,0.05296682824491895,-0.6956329847611303,-0.02055131912050728,0.001793598990314438,1.6305568153984284
10931,4.0,300.4923,4340.6625,0.0,0.0,0.0,0.0,0.0,0.10894719556074542,-0.6969061943067864,0.06706312310611494,-0.6896099525892033,-0.000976659166558755,-0.016553501334203385,1.6419374378716085
10932,4.0,300.16027,4240.4059,0.0,0.0,0.0,0.0,0.0,0.10895716237032924,-0.6635982823820514,0.07475180368017863,-0.7001310147375512,0.022764292802660777,0.0009724658614174082,1.6214356393232383
10933,4.0,299.53679,4143.8408,0.0,0.0,0.0,0.0,0.0,0.10896712917991305,-0.6709601016461064,0.08436486606941401,-0.6730289050377813,0.02028381501460668,0.016189043379234182,1.6546628458775083
10934,4.0,298.62371,4076.7091,0.0,0.0,0.0,0.0,0.0,0.10897709598949687,-0.6445460394267414,0.07923705657283862,-0.6739087911596193,0.016777073955518283,0.006106949241233964,1.6363311250683084
10935,4.0,299.49884,4320.1618,0.0,0.0,0.0,0.0,0.0,0.1089870627990807,-0.6938313247583203,0.06745613444890214,-0.6868461305564354,-0.004199536224161956,-0.008084748689752572,1.6554326119784784
10936,4.0,298.73621,4336.1958,0.0,0.0,0.0,0.0,0.0,0.10899702960866452,-0.6822946111072353,0.04709829340848966,-0.6828989235993764,-0.0038053961207633567,0.026030092107220078,1.6493798611811183
10937,4.0,299.42037999999997,4098.7176,0.0,0.0,0.0,0.0,0.0,0.10900699641824835,-0.6334685509859783,0.07465332184995924,-0.6870925833782583,-0.0008299650119361693,-0.008455682528760894,1.6553942097996883
10938,4.0,299.82223999999997,4145.5128,0.0,0.0,0.0,0.0,0.0,0.10901696322783216,-0.6407839836604554,0.06493044645463614,-0.6842788486455643,-0.014141780671435088,-0.014585300505207089,1.6434036107663086
10939,4.0,300.7167,4401.2974,0.0,0.0,0.0,0.0,0.0,0.10902693003741598,-0.6934270987634263,0.054290628354817856,-0.6987480499410633,-0.03901971520919606,-0.03319824280016147,1.6585022531564284
10940,4.0,300.48172999999997,4185.8325,0.0,0.0,0.0,0.0,0.0,0.1090368968469998,-0.6586902002226613,0.07472042737758203,-0.6884187960366454,0.008862804392440691,-0.005577648464596045,1.6359688881575585
10941,4.0,300.84727000000004,3939.3109,0.0,0.0,0.0,0.0,0.0,0.10904686365658361,-0.6208198358801474,0.06768301127879314,-0.6443153223789714,0.01934587270178898,0.015262794985820585,1.6279003776112584
10942,4.0,299.68661000000003,3910.1717,0.0,0.0,0.0,0.0,0.0,0.10905683046616743,-0.6478045200258284,0.08652409291326311,-0.6273141408060854,0.03948526006039176,0.0013641655620826587,1.6165451877155883
10943,4.0,299.8808,4118.606,0.0,0.0,0.0,0.0,0.0,0.10906679727575125,-0.6536981094974803,0.08575735643009211,-0.6840126171817894,0.006990111403295284,-0.002252246648079438,1.6482435011939682
10944,4.0,299.97837000000004,4193.4025,0.0,0.0,0.0,0.0,0.0,0.10907676408533507,-0.6805783275578514,0.06789441273990683,-0.6620057369348794,-0.01029324299586399,0.0016156929430564786,1.6260384292274985
10945,4.0,299.23606,4233.9914,0.0,0.0,0.0,0.0,0.0,0.10908673089491891,-0.6721633260073554,0.08456113058728382,-0.6994254582954184,0.023982133296602277,0.01023348758446659,1.6747139507813984
10946,4.0,299.77446000000003,4253.5173,0.0,0.0,0.0,0.0,0.0,0.10909669770450273,-0.6760786966462724,0.04376735225500136,-0.6606517004287464,0.007135132317232733,0.0035167368726499062,1.6406315611427285
10947,4.0,300.84828999999996,4278.1459,0.0,0.0,0.0,0.0,0.0,0.10910666451408654,-0.6749385775012514,0.06837645735573093,-0.6938874182838564,-0.00937167510863732,-0.01756872727189838,1.6840051502233684
10948,4.0,299.89976,4379.1626,0.0,0.0,0.0,0.0,0.0,0.10911663132367036,-0.6867481796692684,0.05473024920220504,-0.6991381613620643,-0.028333899607838175,-0.01172329960399959,1.6419696592247883
10949,4.0,301.02032,4353.3903,0.0,0.0,0.0,0.0,0.0,0.10912659813325418,-0.6502328448179854,0.030604441094423174,-0.7036935412941453,-0.016637156275709487,0.017860701367713984,1.6448740393114285
10950,4.0,301.33348,4050.6802,0.0,0.0,0.0,0.0,0.0,0.10913656494283801,-0.6314961988713225,0.08031337034581253,-0.6801228007103943,-0.01087957840473079,0.0014347818999769489,1.6355013745614184
10951,4.0,300.82836000000003,4059.6582,0.0,0.0,0.0,0.0,0.0,0.10914653175242182,-0.6474043976938394,0.08060372222821802,-0.6672340567883743,0.021975649852327774,-0.011148833406804188,1.6497721916198382
10952,4.0,298.90084,4002.0002,0.0,0.0,0.0,0.0,0.0,0.10915649856200564,-0.6496859228115084,0.07656539368966603,-0.6433875905874115,-0.006858467518503044,-0.0016800229760053583,1.6233765198897885
10953,4.0,299.61383,4078.929,0.0,0.0,0.0,0.0,0.0,0.10916646537158947,-0.6592153373519885,0.07077841839353603,-0.6514556451711664,0.02276541548377158,-0.007865209006485692,1.6350838141952084
10954,4.0,299.48569,4257.4133,0.0,0.0,0.0,0.0,0.0,0.10917643218117329,-0.6730824755705683,0.028974710381831272,-0.6500395774939114,-0.0036331093559099767,-0.01051145451089979,1.6069896313225285
10955,4.0,300.51825,4377.113,0.0,0.0,0.0,0.0,0.0,0.1091863989907571,-0.6933680465475983,0.050010726806924456,-0.6871757306814643,0.029374122425500176,-0.002396991957989688,1.6517487385899086
10956,4.0,300.0826,4082.0647,0.0,0.0,0.0,0.0,0.0,0.10919636580034092,-0.6639840165626204,0.07943023878390422,-0.6562919588259734,0.0078006991216440615,0.0008580435502273052,1.6443556605602685
10957,4.0,299.33825,3837.0914,0.0,0.0,0.0,0.0,0.0,0.10920633260992474,-0.6015155672274645,0.07449255148309243,-0.6393569627496194,0.012819775027463289,0.024587663715363476,1.6371293634970883
10958,4.0,299.37607,4120.5475,0.0,0.0,0.0,0.0,0.0,0.10921629941950857,-0.6381659987145804,0.07410097794219714,-0.6884785271300403,-0.01962748732858218,0.0013038604625060088,1.6424736498245285
10959,4.0,301.6156,4371.0425,0.0,0.0,0.0,0.0,0.0,0.10922626622909239,-0.7123207376805833,0.06466375700181594,-0.6810307943900064,-0.014306607078452186,-0.010497035961976792,1.6458748264351986
10960,4.0,301.08622,4112.5885,0.0,0.0,0.0,0.0,0.0,0.10923623303867622,-0.6626011125611384,0.054029000086247156,-0.6415520981637624,-0.015251255080431686,0.011158582899266389,1.6342255913605086
10961,4.0,301.08833,3932.5696,0.0,0.0,0.0,0.0,0.0,0.10924619984826003,-0.6239849049525154,0.07796998833603873,-0.6493880475471104,-0.008427871954591201,0.022382226587453778,1.6388119666131484
10962,4.0,300.29987,4111.5488,0.0,0.0,0.0,0.0,0.0,0.10925616665784385,-0.6332078923977534,0.05823333040193224,-0.6748335946583903,-0.024520125529947978,0.006755222095588514,1.6702666947674885
10963,4.0,300.03179,4381.3863,0.0,0.0,0.0,0.0,0.0,0.10926613346742767,-0.6880358178963484,0.06991976594079365,-0.7137159729357824,0.013305483555648987,-0.00907935539321261,1.6571384185218285
10964,4.0,300.83294,4482.7057,0.0,0.0,0.0,0.0,0.0,0.10927610027701148,-0.7095048649901783,0.046675442863507555,-0.6998011714324983,0.026413068221016876,0.0037434157134713666,1.6644367576671184
10965,4.0,299.80682,4054.1908,0.0,0.0,0.0,0.0,0.0,0.10928606708659533,-0.6779045226639674,0.07227249720924014,-0.6267407527069964,0.04682498439276615,0.013002758876272386,1.6347811563903385
10966,4.0,299.2676,3902.4598,0.0,0.0,0.0,0.0,0.0,0.10929603389617915,-0.6422808681656864,0.1145168676894349,-0.6584863343025414,0.016896705355074985,-0.005222310064501875,1.6477862214238383
10967,4.0,298.86753,4218.5783,0.0,0.0,0.0,0.0,0.0,0.10930600070576296,-0.6696630807231003,0.06517478968975093,-0.6778541945315003,-0.03311836120202777,-0.011717604125187488,1.6219399338980085
10968,4.0,298.74979,4438.9187,0.0,0.0,0.0,0.0,0.0,0.10931596751534678,-0.6762468252353654,0.07021217168115183,-0.7432857823265953,-0.018454551039322382,0.012300323244447386,1.6645249104258182
10969,4.0,299.07709,4111.0865,0.0,0.0,0.0,0.0,0.0,0.1093259343249306,-0.5973104070599474,0.06069301224493394,-0.7130502676200824,-0.024847171251474877,0.01106867113839279,1.6318776882287884
10970,4.0,300.29391,3915.5488,0.0,0.0,0.0,0.0,0.0,0.10933590113451443,-0.6050027383741214,0.06428604877528904,-0.6495123733343804,-0.02908378168884577,0.0029657768618743872,1.6463648341835586
10971,4.0,299.3471,4369.4201,0.0,0.0,0.0,0.0,0.0,0.10934586794409824,-0.7019265547097574,0.05540945404898735,-0.6816775113988324,-0.02490413414559668,-0.023869561210492274,1.6446995576442085
10972,4.0,299.58181,4694.8444,0.0,0.0,0.0,0.0,0.0,0.10935583475368206,-0.7495549430803132,0.01042813394192669,-0.6879886713691954,0.020487517801460582,0.017106600113289985,1.6524066418798382
10973,4.0,300.05041,4235.0238,0.0,0.0,0.0,0.0,0.0,0.10936580156326589,-0.6631717344874544,0.05949942186563574,-0.6836691659278933,0.025416791073441976,0.00811892166395018,1.6417349905016285
10974,4.0,300.62072,3912.8735,0.0,0.0,0.0,0.0,0.0,0.10937576837284971,-0.6231799081455683,0.11350864330993088,-0.6797445848455674,0.03432201416806907,-0.0037049174785718864,1.6831510817140782
10975,4.0,300.53077,4090.9199,0.0,0.0,0.0,0.0,0.0,0.10938573518243352,-0.6414478549934743,0.09953647969198572,-0.7016261361876084,-0.014359768258198789,0.008765065173219582,1.6651553546380384
10976,4.0,299.24634,4401.3101,0.0,0.0,0.0,0.0,0.0,0.10939570199201734,-0.7281831274660793,0.1040410572905529,-0.7137462995112753,-0.00026192663019514574,0.033785961295414765,1.6868479247039283
10977,4.0,299.24225,4372.4129,0.0,0.0,0.0,0.0,0.0,0.10940566880160116,-0.7052044491807603,0.08414957879416683,-0.7080494629440414,0.008478651591302762,0.0026633512939273074,1.6599496809242784
10978,4.0,300.20779,4208.2227,0.0,0.0,0.0,0.0,0.0,0.10941563561118499,-0.6950490892585043,0.0977867761145534,-0.6819323032689784,-0.02632929675574927,-0.03175298034777517,1.6494929398922786
10979,4.0,300.17761,4091.9509,0.0,0.0,0.0,0.0,0.0,0.1094256024207688,-0.6402607413088154,0.08798423696986811,-0.6915744114855804,-0.011050796393378689,-0.03803706222246576,1.6440330417284286
10980,4.0,300.48811,4231.2909,0.0,0.0,0.0,0.0,0.0,0.10943556923035264,-0.6678757886067084,0.06343586506688244,-0.6817668597926503,-0.029902758307422474,-0.015344244081858987,1.663205354820588
10981,4.0,300.36022,4460.61,0.0,0.0,0.0,0.0,0.0,0.10944553603993645,-0.6691993060198294,0.050015455645141156,-0.7367302162996112,0.017087475017652485,0.01981617678870438,1.6574286133504683
10982,4.0,300.25379,4352.1974,0.0,0.0,0.0,0.0,0.0,0.10945550284952027,-0.6884743120096243,0.04684573575481416,-0.6813307468171093,0.012215030890779688,0.006248836071287104,1.6936979006799684
10983,4.0,301.17202000000003,4065.0474,0.0,0.0,0.0,0.0,0.0,0.10946546965910409,-0.6534498328254774,0.06080175019266554,-0.6430248369191104,0.014997189710607385,0.027597679177928873,1.6449054500645286
10984,4.0,301.15157999999997,4266.2362,0.0,0.0,0.0,0.0,0.0,0.1094754364686879,-0.7117243994667294,0.09625685357656182,-0.6813617421376683,0.01067206377100069,0.027248874923754572,1.6714338575576784
10985,4.0,300.29126,4385.3706,0.0,0.0,0.0,0.0,0.0,0.10948540327827175,-0.6833606616699464,0.04476794382150205,-0.6944504307019214,0.0001164823803659159,-0.0036731824854398863,1.6162592485373684
10986,4.0,300.09323,4142.559,0.0,0.0,0.0,0.0,0.0,0.10949537008785556,-0.6504555977199693,0.08199352646288101,-0.6907724341639314,-0.01168984917844829,-0.03434064074465736,1.6513199311475883
10987,4.0,299.40465,4173.4459,0.0,0.0,0.0,0.0,0.0,0.10950533689743938,-0.6318034466991455,0.06573997147628004,-0.7025598664197603,0.02224420368533198,-0.02230696034352558,1.6340471580178986
10988,4.0,298.96484,4232.5014,0.0,0.0,0.0,0.0,0.0,0.1095153037070232,-0.6900913679767153,0.07561617390323533,-0.6720995520460614,0.011218712199950688,0.014188328367778986,1.6588706708927883
10989,4.0,299.68028,4181.9619,0.0,0.0,0.0,0.0,0.0,0.10952527051660702,-0.6632449316746784,0.08881023135863741,-0.6967773088940663,0.008744686484558362,0.00096922246811231,1.6366844453781786
10990,4.0,300.55642,4221.5788,0.0,0.0,0.0,0.0,0.0,0.10953523732619083,-0.6666891714145984,0.043175679044607757,-0.6597410621663733,-0.025802169603225872,-0.03184873349547527,1.6503301884499086
10991,4.0,300.25746000000004,4270.9404,0.0,0.0,0.0,0.0,0.0,0.10954520413577466,-0.6599571276176974,0.057103324506159354,-0.6954054493186743,-0.002822984287556857,0.0005342779219241255,1.6549872885595285
10992,4.0,300.31857,4205.0556,0.0,0.0,0.0,0.0,0.0,0.10955517094535848,-0.6574084591111634,0.07848163606678442,-0.6993050943160394,-0.0033436674734192867,0.023427724385136378,1.6758082608893983
10993,4.0,300.51821,4040.6479,0.0,0.0,0.0,0.0,0.0,0.10956513775494231,-0.6480610546861464,0.07738350701915751,-0.6575785027429454,0.015750524947955785,0.028039580851291174,1.6621588701173085
10994,4.0,301.2674,4178.718,0.0,0.0,0.0,0.0,0.0,0.10957510456452613,-0.7036105865084583,0.09696758266045531,-0.6635829113780344,-0.01031633496564299,-0.0028866288568130875,1.6967793968840883
10995,4.0,300.64042,4287.8867,0.0,0.0,0.0,0.0,0.0,0.10958507137410994,-0.6987514240638963,0.06085973646938835,-0.6655187966215914,0.02990539883718307,-0.0032571759382582365,1.6489230880360384
10996,4.0,300.55451,4372.2654,0.0,0.0,0.0,0.0,0.0,0.10959503818369376,-0.6995580116735003,0.07416692228520533,-0.7036684025591644,0.03551923603572567,0.009541246768522742,1.6451536963390285
10997,4.0,299.86564,4441.9326,0.0,0.0,0.0,0.0,0.0,0.10960500499327758,-0.6834782088140474,0.07579317856320433,-0.7425515509066323,0.029743841174988572,-0.013457907781442086,1.6226012822382785
10998,4.0,299.40004,4355.0825,0.0,0.0,0.0,0.0,0.0,0.1096149718028614,-0.6510495750610904,0.033395208487100474,-0.7061819822147354,-0.007543787228313832,-0.028253046302858575,1.6374639386801084
10999,4.0,299.48848,4133.1608,0.0,0.0,0.0,0.0,0.0,0.10962493861244521,-0.6272941797791154,0.07721337016836632,-0.7062968543785723,-0.018302186595285184,0.0007142502394485103,1.6469020593865786
11000,4.0,300.00468,4388.0738,0.0,0.0,0.0,0.0,0.0,0.10963490542202906,-0.7252730731788793,0.05893173735135965,-0.6675235220769423,0.016173076584158383,0.035479861136839666,1.6778363822895586
11001,4.0,299.49993,4266.9656,0.0,0.0,0.0,0.0,0.0,0.10964487223161287,-0.6700351968223254,0.03279076832544687,-0.6598065687853384,-0.051354825356076654,0.011304133236381091,1.6298451085281884
11002,4.0,300.54117,3920.8392,0.0,0.0,0.0,0.0,0.0,0.10965483904119669,-0.6457845248914704,0.09218555286650572,-0.6382382535792114,-0.025304094357569678,-0.029139131488808367,1.6553788083981684
11003,4.0,301.26826,4167.6223,0.0,0.0,0.0,0.0,0.0,0.1096648058507805,-0.5983478738373375,0.02307559971038438,-0.6915808354912144,-0.02615641095743677,-0.00987595772705614,1.6196253666945786
11004,4.0,300.81702,4519.4125,0.0,0.0,0.0,0.0,0.0,0.10967477266036432,-0.6933692827127204,0.04159836477293896,-0.7220176323300923,0.058150737346530944,0.03919695494318826,1.6487046313144784
11005,4.0,300.48982,4384.8731,0.0,0.0,0.0,0.0,0.0,0.10968473946994815,-0.6717398583930624,0.05981920562369594,-0.7209712894818263,0.04029857565065976,0.01075657794859159,1.6439943355746085
11006,4.0,301.5853,4094.0759,0.0,0.0,0.0,0.0,0.0,0.10969470627953197,-0.7034947314920243,0.09667513740334321,-0.6376772575288454,0.00026513788320707175,-0.013906895112753687,1.6655779812547482
11007,4.0,301.28416,4185.814,0.0,0.0,0.0,0.0,0.0,0.10970467308911579,-0.6847947348014783,0.11436976403991689,-0.7019579451978554,-0.012127099020601488,-0.007923480006486593,1.6544234148788786
11008,4.0,300.48142,4403.9959,0.0,0.0,0.0,0.0,0.0,0.10971463989869962,-0.7326287825448312,0.08512753739318382,-0.6912035416839784,0.002438098602621598,0.01093074550828059,1.6713773182020983
11009,4.0,299.64642000000003,4403.3964,0.0,0.0,0.0,0.0,0.0,0.10972460670828343,-0.6651742409250864,0.06056081857063744,-0.7339091152386903,-0.0004328297209769676,-0.01055110704031319,1.6412295813517483
11010,4.0,299.71612000000005,4403.5902,0.0,0.0,0.0,0.0,0.0,0.10973457351786725,-0.6848016249021583,0.06260079398371735,-0.7163806281812634,-0.029711774849073874,-0.03969459854430186,1.6691876847359983
11011,4.0,299.1885,4161.1133,0.0,0.0,0.0,0.0,0.0,0.10974454032745107,-0.6565538029168153,0.06348775259125333,-0.6718084959548364,-0.009389713594867581,-0.006382736058752004,1.6834504971186286
11012,4.0,300.24677,4012.3194,0.0,0.0,0.0,0.0,0.0,0.10975450713703488,-0.6811286540846644,0.09588845509195372,-0.6344047028858694,0.002137994694628648,0.03217396448607307,1.6862084625658182
11013,4.0,299.88506,4327.1553,0.0,0.0,0.0,0.0,0.0,0.10976447394661872,-0.6720149253977094,0.035022371623938967,-0.6783545982258864,0.022000677129797776,0.031501888866994364,1.6669280356879883
11014,4.0,300.2931,4382.0066,0.0,0.0,0.0,0.0,0.0,0.10977444075620253,-0.6768733279046963,0.031844560931563466,-0.6869918156558134,-0.006040123674613795,-0.01112195593465159,1.6310474310968484
11015,4.0,300.8222,4258.7981,0.0,0.0,0.0,0.0,0.0,0.10978440756578636,-0.6099982842821434,0.06845165368540222,-0.7530216364424492,0.01006201861376892,-0.004738045620358696,1.6477945300746584
11016,4.0,301.94023,4380.6079,0.0,0.0,0.0,0.0,0.0,0.10979437437537018,-0.6676721557341113,0.04239557576611756,-0.7063188419057423,0.012924944308342687,0.019890191668759084,1.6336918112078285
11017,4.0,302.02493,4358.3299,0.0,0.0,0.0,0.0,0.0,0.109804341184954,-0.6949861765597953,0.09311138076112782,-0.7229486774494793,0.003077338838959697,-0.006357767651112813,1.6647491426729482
11018,4.0,300.94,4257.2872,0.0,0.0,0.0,0.0,0.0,0.10981430799453781,-0.7068835464514743,0.1020544386144889,-0.6892798863691284,-0.02135340587316708,-0.04683248244350616,1.6634359705433484
11019,4.0,300.20678,4164.8091,0.0,0.0,0.0,0.0,0.0,0.10982427480412163,-0.6568270156737794,0.05215299184409954,-0.6613239412075914,-0.005764158119778114,-0.00975481830737561,1.6387041568025085
11020,4.0,300.13223999999997,4247.9433,0.0,0.0,0.0,0.0,0.0,0.10983424161370547,-0.6886660391935463,0.07670180856387913,-0.6793044796646324,0.0006009635587054853,0.01873652435665098,1.6579368596006285
11021,4.0,300.53798,4297.7399,0.0,0.0,0.0,0.0,0.0,0.10984420842328929,-0.6284064852088913,0.029209859385538675,-0.7072089821185923,0.009137001623201852,0.006787741952247973,1.6282766986983985
11022,4.0,299.96627,4215.2531,0.0,0.0,0.0,0.0,0.0,0.10985417523287311,-0.6659306321247364,0.05663509251569844,-0.6720361428548034,-0.018142206563496382,-0.017967283119232784,1.6633032347802486
11023,4.0,299.99385,4328.5229,0.0,0.0,0.0,0.0,0.0,0.10986414204245692,-0.6891136120277184,0.06159745549619553,-0.6882467360371644,0.025421434798650274,0.0071896318990364244,1.6670776927277586
11024,4.0,299.44946,4427.8353,0.0,0.0,0.0,0.0,0.0,0.10987410885204074,-0.7170639235186993,0.03285911103144177,-0.6617465576918004,-0.0018968723789317284,0.02080973234651068,1.6765560394631984
11025,4.0,300.16012,4491.0974,0.0,0.0,0.0,0.0,0.0,0.10988407566162457,-0.6859599825489794,0.04459767322169766,-0.7238191606103894,-0.0007211401982734964,-0.006265552772761914,1.6540094008880184
11026,4.0,301.15134,4503.4552,0.0,0.0,0.0,0.0,0.0,0.10989404247120839,-0.6950738834884513,0.045975908166718864,-0.7198399450826714,-0.006242437903530654,-0.014352670441248288,1.6567862127870685
11027,4.0,300.56532000000004,4126.2211,0.0,0.0,0.0,0.0,0.0,0.1099040092807922,-0.6169087107591494,0.07589285906829202,-0.7132523400875252,0.015806614420491385,0.03920616437334717,1.6601445289185086
11028,4.0,299.79829,4007.417,0.0,0.0,0.0,0.0,0.0,0.10991397609037604,-0.6693577884679703,0.12963556229903386,-0.6784324664960714,0.04227223789769506,0.032437908031122266,1.6776165070178584
11029,4.0,300.25297,4208.3579,0.0,0.0,0.0,0.0,0.0,0.10992394289995985,-0.6927762375616914,0.1017710122965169,-0.6882304835055604,0.007941776668842332,-0.006096784214905755,1.6739227037783087
11030,4.0,299.89617999999996,4224.4519,0.0,0.0,0.0,0.0,0.0,0.10993390970954367,-0.7112138936688462,0.08306910360303221,-0.6559830897979904,-0.005598041744058704,-0.04428753965758986,1.6656003740819585
11031,4.0,299.72053999999997,4217.3209,0.0,0.0,0.0,0.0,0.0,0.10994387651912749,-0.6530318367617244,0.061580913175062944,-0.6905093133779634,0.000983196514348941,-0.011084384620943591,1.6617895404558582
11032,4.0,300.37702,4425.7989,0.0,0.0,0.0,0.0,0.0,0.1099538433287113,-0.6965249994866652,0.022429063060076183,-0.6712363946833744,0.0076362751775666815,0.02136731171753948,1.6280758725285784
11033,4.0,300.53091,4628.8799,0.0,0.0,0.0,0.0,0.0,0.10996381013829513,-0.6693110675058593,0.019365312918207582,-0.7571181458017433,-0.03389964289038427,0.0051228239007833545,1.6587042952263682
11034,4.0,300.27522999999997,4466.5456,0.0,0.0,0.0,0.0,0.0,0.10997377694787895,-0.6934880660219434,0.025692618015663974,-0.6899228644850853,-0.008686224689563633,0.01221915583193679,1.6764512694028584
11035,4.0,301.30293,4293.7744,0.0,0.0,0.0,0.0,0.0,0.10998374375746278,-0.6371103947604004,0.041404871494092665,-0.7094946716941724,-0.020964882215072783,0.04755999500205605,1.6775697961882485
11036,4.0,301.03475,4228.3908,0.0,0.0,0.0,0.0,0.0,0.1099937105670466,-0.6791930322861334,0.08045569550785892,-0.6865878835034483,0.044277611833110055,0.04502343584746716,1.6919244090299383
11037,4.0,299.28656,4069.1784,0.0,0.0,0.0,0.0,0.0,0.11000367737663042,-0.6351227121717314,0.08714742005678072,-0.6889533361269004,0.0017552752370821785,-0.015953927812780086,1.6437793239033884
11038,4.0,298.70662999999996,4226.3401,0.0,0.0,0.0,0.0,0.0,0.11001364418621423,-0.6827704536191973,0.06893821334367194,-0.6708696082796753,-0.005303598965699465,-0.042611547998432364,1.6630453626297983
11039,4.0,299.49087000000003,4342.7628,0.0,0.0,0.0,0.0,0.0,0.11002361099579805,-0.6598925835863274,0.060864255564834345,-0.7210631203383893,-0.01941314034942778,-0.006562852207128084,1.6193568554180786
11040,4.0,299.30297,4139.9374,0.0,0.0,0.0,0.0,0.0,0.1100335778053819,-0.6925106241804774,0.08260831292130572,-0.6485352759979484,-0.017292871958673583,0.014592440878661786,1.6473841637841586
11041,4.0,300.72583,4188.7763,0.0,0.0,0.0,0.0,0.0,0.11004354461496571,-0.6315768637117833,0.04377405794416316,-0.6854805835291663,-0.018313749805426383,-0.024122363057441875,1.6255146802508085
11042,4.0,300.3599,4198.6125,0.0,0.0,0.0,0.0,0.0,0.11005351142454953,-0.6720507032587404,0.03394567788217757,-0.6381683291898104,-0.008376801312450922,-0.03399092355214296,1.6413369858623486
11043,4.0,299.50336,4287.816,0.0,0.0,0.0,0.0,0.0,0.11006347823413334,-0.6227013197258354,0.02707622419946527,-0.7077639088008593,0.016500196272942587,0.02122461367945628,1.6659835852697784
11044,4.0,299.48052,4272.7347,0.0,0.0,0.0,0.0,0.0,0.11007344504371716,-0.6642860360199274,0.047670316659693956,-0.6821889493868074,0.03948946606155686,0.02857831174395977,1.6550045138112284
11045,4.0,300.79896,4166.2819,0.0,0.0,0.0,0.0,0.0,0.11008341185330098,-0.6312015356097413,0.06414862774372664,-0.6993927607146913,0.02664162603282377,0.015540134710441885,1.6950289060113286
11046,4.0,300.37852000000004,4147.7913,0.0,0.0,0.0,0.0,0.0,0.1100933786628848,-0.7026248765461763,0.09975347226715121,-0.6579535876649634,0.018216146463043682,-0.0018412540676926285,1.6718733041260483
11047,4.0,300.09618,4200.9671,0.0,0.0,0.0,0.0,0.0,0.11010334547246863,-0.6492878067147174,0.06871318468196333,-0.6964144842982584,-0.0049153004517773855,0.026487321214845077,1.6815204583281482
11048,4.0,299.56862,4436.6021,0.0,0.0,0.0,0.0,0.0,0.11011331228205246,-0.7159280600240983,0.05806364343418544,-0.6907518347893984,-0.01449499965629509,0.02403673937099148,1.6299273844363085
11049,4.0,300.60597,4631.9741,0.0,0.0,0.0,0.0,0.0,0.11012327909163627,-0.7027222600132873,0.04166485019150056,-0.7469470602379353,-0.02603707542690927,-0.05502618206616135,1.6779886737795884
11050,4.0,298.98581,4214.4523,0.0,0.0,0.0,0.0,0.0,0.11013324590122009,-0.7023988204488664,0.06988250265511603,-0.6485719455190674,-0.014744593553428085,-0.04076818971425706,1.6373484281687085
11051,4.0,299.28901,4124.9371,0.0,0.0,0.0,0.0,0.0,0.1101432127108039,-0.6476717639977264,0.08175409039800052,-0.6879602193063873,0.00905122331478619,0.0067827570657310035,1.6468403524554884
11052,4.0,299.09681,4367.5598,0.0,0.0,0.0,0.0,0.0,0.11015317952038772,-0.7159367030474514,0.053283566173178545,-0.6649759782780194,0.027447539831111274,0.03555274522978276,1.6660570459020285
11053,4.0,299.17058,4259.7946,0.0,0.0,0.0,0.0,0.0,0.11016314632997154,-0.6412003686565494,0.05390484655149415,-0.7075756671972813,-0.017767144946230683,0.011491147794087988,1.6563329860173384
11054,4.0,299.78349,4141.7818,0.0,0.0,0.0,0.0,0.0,0.11017311313955536,-0.6590704729851914,0.05352288672754765,-0.6534506434255574,-0.004041917977031246,-0.013288979738020186,1.6644845830718382
11055,4.0,300.75007,4067.2334,0.0,0.0,0.0,0.0,0.0,0.1101830799491392,-0.5979509635081655,0.07482346376700093,-0.7132099051733374,0.005658045300405594,0.013561591637674886,1.6778689076177682
11056,4.0,299.52099999999996,4272.6267,0.0,0.0,0.0,0.0,0.0,0.11019304675872302,-0.6874161445326913,0.07720489129152952,-0.6885605699906373,0.001160342198466859,0.014559545714165286,1.6941592334504982
11057,4.0,300.61411,4578.4238,0.0,0.0,0.0,0.0,0.0,0.11020301356830683,-0.6958075677533604,0.06365367229512835,-0.7595726124464803,-0.006723691576326693,-0.02985927569263107,1.6733703811487985
11058,4.0,301.04539,4437.635,0.0,0.0,0.0,0.0,0.0,0.11021298037789065,-0.7243310545609093,0.06297277329417884,-0.6875719418680674,-0.019482789134801583,-0.03103777776469017,1.6667315664935984
11059,4.0,300.47224,4266.4558,0.0,0.0,0.0,0.0,0.0,0.11022294718747447,-0.6433710543457795,0.05717197929318505,-0.7106969537328284,0.036739349249641465,0.014043261350961988,1.6339068228790485
11060,4.0,299.77385,4149.5284,0.0,0.0,0.0,0.0,0.0,0.1102329139970583,-0.6901231941623563,0.07211225575892553,-0.6433420956579213,0.023331075524347877,0.026413530263062472,1.6294733470664984
11061,4.0,299.19532000000004,4372.3056,0.0,0.0,0.0,0.0,0.0,0.11024288080664212,-0.6891750859112853,0.06499069025258174,-0.7048873221644623,-0.03033790869536847,-0.011349058719314888,1.6563258932666383
11062,4.0,299.15635,4434.3645,0.0,0.0,0.0,0.0,0.0,0.11025284761622593,-0.7352092367070023,0.0918958281859121,-0.7046226713708433,-0.013189102662413089,-0.012802833485791287,1.6759913551824683
11063,4.0,299.49029,4078.3572,0.0,0.0,0.0,0.0,0.0,0.11026281442580976,-0.6385650571339644,0.08255879336241852,-0.6837124925021694,-0.023991219110248978,0.01059869230475949,1.6984794279018682
11064,4.0,299.29422999999997,4004.4687,0.0,0.0,0.0,0.0,0.0,0.11027278123539358,-0.6517113185688994,0.0971791624535866,-0.6627263300084963,0.021140062011611678,0.02023816303135118,1.6819653764470586
11065,4.0,300.09721,4522.0366,0.0,0.0,0.0,0.0,0.0,0.1102827480449774,-0.6639548045622373,0.04797185887620386,-0.7586032563408123,-0.028232316219062675,-0.03360038757935006,1.7012504642753483
11066,4.0,299.91758,4627.1185,0.0,0.0,0.0,0.0,0.0,0.11029271485456121,-0.7306208248216612,0.03852791198165886,-0.7144355831568023,0.0013898972510221785,0.013959257851421485,1.6582949421859683
11067,4.0,300.51321,4385.3014,0.0,0.0,0.0,0.0,0.0,0.11030268166414503,-0.6634408233165114,0.05173903864824555,-0.7213203440087753,0.02809520422878077,0.02239141372611048,1.6795171615554383
11068,4.0,300.64671,4181.3049,0.0,0.0,0.0,0.0,0.0,0.11031264847372886,-0.6876039707037284,0.07803892379334212,-0.6614472334797593,0.03636788061723037,0.03301607867068326,1.6695383705956086
11069,4.0,300.39162000000005,4139.8278,0.0,0.0,0.0,0.0,0.0,0.11032261528331268,-0.6764678454796783,0.10621362762496891,-0.6881500719776243,-0.01951760238173738,-0.04089509726278186,1.6475074763213284
11070,4.0,300.01962000000003,4288.8536,0.0,0.0,0.0,0.0,0.0,0.11033258209289651,-0.7008842344643883,0.07983141084299682,-0.6826515689849644,-0.012163597302453588,-0.03261384877848627,1.6454855357467784
11071,4.0,299.83867000000004,4346.1692,0.0,0.0,0.0,0.0,0.0,0.11034254890248033,-0.6728576556383804,0.06220542582119754,-0.7104746871908922,-0.02306309823065058,0.008335927715342013,1.6274225288640984
11072,4.0,299.34449,4217.4314,0.0,0.0,0.0,0.0,0.0,0.11035251571206414,-0.7143588801242323,0.09083350942331941,-0.6584684808357795,0.0005439149334927245,-0.004564482160379316,1.6952030837035184
11073,4.0,299.00021,4018.3315,0.0,0.0,0.0,0.0,0.0,0.11036248252164796,-0.6181285220245354,0.09771351407932301,-0.7010574293039813,0.0002673704886099127,-0.028921644447594073,1.6581978728263884
11074,4.0,300.0505,4425.6084,0.0,0.0,0.0,0.0,0.0,0.11037244933123178,-0.7051058194160263,0.05670093553369665,-0.6968695653156713,0.005243246344693126,-0.003583358573349957,1.718179745621138
11075,4.0,299.66193,4787.6118,0.0,0.0,0.0,0.0,0.0,0.11038241614081562,-0.6895793119061794,0.02287444119453158,-0.7886095738747052,0.04312660430251446,0.03238618566651767,1.6874591171642483
11076,4.0,300.49408999999997,4549.718,0.0,0.0,0.0,0.0,0.0,0.11039238295039944,-0.6919342267285913,0.014672977036360087,-0.7057394249685582,0.019300898582850383,0.015569462221336287,1.6962206907789483
11077,4.0,300.26639,4405.2637,0.0,0.0,0.0,0.0,0.0,0.11040234975998325,-0.6522833590453554,0.03431278041990777,-0.7211196090314643,-0.0076910345566960124,-0.04834046305058225,1.6599487689991883
11078,4.0,301.21587,4490.0464,0.0,0.0,0.0,0.0,0.0,0.11041231656956707,-0.7505854082995123,0.08531171282411051,-0.6995882977189893,-0.014534646106207885,-0.0029724124341292675,1.6882065917630185
11079,4.0,300.15047000000004,4319.1638,0.0,0.0,0.0,0.0,0.0,0.11042228337915089,-0.6785132934565484,0.05181792016853055,-0.6862225865773963,-0.026240877512272977,0.046726831868829255,1.6495789648257684
11080,4.0,300.20533,4162.8953,0.0,0.0,0.0,0.0,0.0,0.11043225018873472,-0.7011502632781433,0.10964278007089989,-0.6739087404971144,-0.019027482162616283,0.027648181589413075,1.6643751520610384
11081,4.0,299.5735,4234.7637,0.0,0.0,0.0,0.0,0.0,0.11044221699831853,-0.6575281746104783,0.08569656851684283,-0.7154308075375233,-0.032844835350782864,-0.037503412779048666,1.6480694248267882
11082,4.0,299.40131,4200.0169,0.0,0.0,0.0,0.0,0.0,0.11045218380790235,-0.6750515548874014,0.07167856951737402,-0.6733272869272294,0.012332382477611387,-0.015053172791882487,1.6293806346823485
11083,4.0,298.72718,4135.8783,0.0,0.0,0.0,0.0,0.0,0.11046215061748618,-0.6598176942714363,0.08227939876659442,-0.6796654297477553,0.05258419156990566,-0.0093125851999056,1.6543674834733586
11084,4.0,299.6584,4585.6281,0.0,0.0,0.0,0.0,0.0,0.11047211742707,-0.7260745438754783,0.04070056033633256,-0.7085424395151944,0.014564682892172286,-0.0037897054363398063,1.6655282306748385
11085,4.0,300.29359,4744.8843,0.0,0.0,0.0,0.0,0.0,0.11048208423665382,-0.7000286359474474,0.024448002387829976,-0.7667457037469092,-0.008925518291480071,-0.03689491353749447,1.6940556792902786
11086,4.0,300.05156,4409.9127,0.0,0.0,0.0,0.0,0.0,0.11049205104623763,-0.7032912506069423,0.06343558439660474,-0.7006476912285433,-0.01876157088587288,0.02021920005572968,1.6945307922621684
11087,4.0,299.2461,4289.7323,0.0,0.0,0.0,0.0,0.0,0.11050201785582145,-0.6439991275527654,0.05367839832639545,-0.7136507804243484,-0.002881622388068987,0.06756836202997814,1.6766127814687986
11088,4.0,299.70316,4397.9506,0.0,0.0,0.0,0.0,0.0,0.11051198466540528,-0.6857983590255283,0.05216007344904845,-0.7032288850632874,-0.02989186586884747,0.01975270984219068,1.6846509958371083
11089,4.0,301.54385,4406.5275,0.0,0.0,0.0,0.0,0.0,0.1105219514749891,-0.6875398623699014,0.051102576743681655,-0.7030370362893533,-0.04419437941689566,-0.02965226565745077,1.6527467899384085
11090,4.0,300.95759,4326.3545,0.0,0.0,0.0,0.0,0.0,0.11053191828457293,-0.7135109721755503,0.07448711539630593,-0.6760798618838874,0.008651450250106663,-0.010524656146452689,1.6553594553212585
11091,4.0,300.17008,4096.1986,0.0,0.0,0.0,0.0,0.0,0.11054188509415674,-0.6635583603281113,0.1166853647584489,-0.6982691068837954,0.043017638373510365,0.025577005166003874,1.6513523551507885
11092,4.0,299.6888,4124.4757,0.0,0.0,0.0,0.0,0.0,0.11055185190374056,-0.6994562104359533,0.08047936503019493,-0.6347607995010134,0.004707979450141396,0.012845209631473488,1.6655625798532285
11093,4.0,298.92794,4448.4395,0.0,0.0,0.0,0.0,0.0,0.11056181871332438,-0.6696858788503504,0.053933118255784354,-0.7364617658181173,-0.02112130067276008,-0.049172705139468156,1.6536516222777085
11094,4.0,299.5349,4634.4593,0.0,0.0,0.0,0.0,0.0,0.1105717855229082,-0.7337843132238733,0.042976406187191056,-0.7179519865688443,-0.02993433118053847,0.004675290583365256,1.6817779251785583
11095,4.0,299.65055,4404.2114,0.0,0.0,0.0,0.0,0.0,0.11058175233249204,-0.6665264637135403,0.03323008823755437,-0.7054739129123543,0.025586655359956273,0.017614500845165883,1.6865980572292683
11096,4.0,298.78987,3980.3468,0.0,0.0,0.0,0.0,0.0,0.11059171914207586,-0.6384044468606134,0.09792114726331481,-0.6694427494888553,0.012890848442477688,-0.005016735399413236,1.6851128352326885
11097,4.0,299.84025,4339.3416,0.0,0.0,0.0,0.0,0.0,0.11060168595165967,-0.6551385154421374,0.036705562425056966,-0.7006185400231664,-0.015718988551843383,-0.02291351617138798,1.7005374401799784
11098,4.0,300.48503999999997,4575.2043,0.0,0.0,0.0,0.0,0.0,0.11061165276124349,-0.7207790860703572,0.04524333847691986,-0.7152121177684403,0.01108855110535479,0.021636015511558478,1.6611026582130686
11099,4.0,299.86665,4158.8646,0.0,0.0,0.0,0.0,0.0,0.1106216195708273,-0.6429270988144644,0.05146738832293575,-0.6727312830859083,0.03403852604184097,0.053815002678377244,1.6596640457210883
11100,4.0,300.85646,4202.8985,0.0,0.0,0.0,0.0,0.0,0.11063158638041112,-0.6748776811702414,0.04909386414918716,-0.6517923887094004,-0.027418031961699077,0.03894754849732376,1.6298105566997785
11101,4.0,301.05487999999997,4366.4344,0.0,0.0,0.0,0.0,0.0,0.11064155318999494,-0.6986301278944254,0.08786744267059142,-0.7165243577079483,-0.031525736721347966,-0.030892939742395768,1.6600905226881786
11102,4.0,299.93065,4419.1242,0.0,0.0,0.0,0.0,0.0,0.11065151999957876,-0.7056341482831683,0.06401884560466814,-0.7016881166962253,-0.06480800328605194,0.0026030488288009174,1.6380919510920884
11103,4.0,299.2638,4628.1077,0.0,0.0,0.0,0.0,0.0,0.11066148680916259,-0.7259500458356913,0.05373218468145375,-0.7346113178229923,-0.007813750492207132,0.013480320873654089,1.6695829536000084
11104,4.0,299.52427,4515.0612,0.0,0.0,0.0,0.0,0.0,0.11067145361874642,-0.7158921504405543,0.05424486795380165,-0.7108185842748324,0.0028636803632482474,0.015430036981076086,1.6862325779181984
11105,4.0,298.84853,4164.0089,0.0,0.0,0.0,0.0,0.0,0.11068142042833023,-0.6258803919145854,0.05459107423471954,-0.6944654268034013,-0.0017935967611642184,-0.01034021220424949,1.6761940052024684
11106,4.0,300.1654,4291.4971,0.0,0.0,0.0,0.0,0.0,0.11069138723791405,-0.6896427109649363,0.06347356506335314,-0.6783388320543303,0.027673456099907474,0.0070174002549884835,1.6878819464309787
11107,4.0,301.15794,4555.3344,0.0,0.0,0.0,0.0,0.0,0.11070135404749787,-0.6915061994888484,0.03742776656633297,-0.7306294678450144,0.028833484596143374,0.013926836887971788,1.6747953147644283
11108,4.0,300.84347,4407.0458,0.0,0.0,0.0,0.0,0.0,0.11071132085708169,-0.6754576959249843,0.04116740620065666,-0.7053415824492943,0.007317515410057543,-0.003754567037446916,1.6838604581090884
11109,4.0,300.19142999999997,4185.8168,0.0,0.0,0.0,0.0,0.0,0.1107212876666655,-0.6415263514787214,0.07637966291983582,-0.7072370998088674,0.009565929946258782,-0.03196918765411317,1.6559477483293183
11110,4.0,300.05338,4335.622,0.0,0.0,0.0,0.0,0.0,0.11073125447624933,-0.6728042168281063,0.042856887258395454,-0.6879734928826974,-0.03061398388386497,-0.0027979152641827375,1.6740553382163983
11111,4.0,300.22391,4346.5492,0.0,0.0,0.0,0.0,0.0,0.11074122128583316,-0.6734259369569654,0.05369368016440365,-0.7015101595811623,0.0025261670589132776,0.01236355714343809,1.6409848814525985
11112,4.0,299.81251000000003,4218.3252,0.0,0.0,0.0,0.0,0.0,0.11075118809541698,-0.7008555290890554,0.11197987182405288,-0.6933898820872534,-0.03033381212521417,0.01194899599752409,1.6848894135856383
11113,4.0,299.18356,4231.0663,0.0,0.0,0.0,0.0,0.0,0.1107611549050008,-0.6734206680564453,0.06546922294355924,-0.6781870573218514,0.0012271078820061188,-0.0028944000797800472,1.6792657742056285
11114,4.0,298.54015,4195.8226,0.0,0.0,0.0,0.0,0.0,0.11077112171458461,-0.6776830565896104,0.09595337098611041,-0.6936956100399263,0.03019396435966227,-0.010793612239746592,1.6925028735120284
11115,4.0,299.72446,4326.8268,0.0,0.0,0.0,0.0,0.0,0.11078108852416844,-0.6772742304392624,0.07693079700697852,-0.7149038566905174,0.017292662215902883,0.001968408849241828,1.6740818853690183
11116,4.0,300.08173,4579.0479,0.0,0.0,0.0,0.0,0.0,0.11079105533375226,-0.7009565197265223,0.031845769738932765,-0.7228054646803453,0.015265699973857285,-0.02690256934432687,1.6622007173464384
11117,4.0,299.6596,4514.8601,0.0,0.0,0.0,0.0,0.0,0.11080102214333608,-0.6908779641618463,0.03295066020447697,-0.7144774202534313,0.016540243969894983,-0.042922415155612556,1.6663721666831286
11118,4.0,299.80404,4384.9561,0.0,0.0,0.0,0.0,0.0,0.11081098895291991,-0.7193294696822913,0.05474185800860075,-0.6683295422664903,0.0030604701499698872,0.0058426380890484846,1.6543566416972884
11119,4.0,300.06982999999997,4241.673,0.0,0.0,0.0,0.0,0.0,0.11082095576250373,-0.6575496555125984,0.07488730764255183,-0.7067003407008933,-0.003421828775533207,0.00838455541149119,1.6786236776172587
11120,4.0,300.29397,4277.7327,0.0,0.0,0.0,0.0,0.0,0.11083092257208754,-0.6663366414398064,0.08705019060368492,-0.7210374952433604,-0.017293349199470683,0.014852500636077685,1.6727897888414986
11121,4.0,299.8064,4309.9792,0.0,0.0,0.0,0.0,0.0,0.11084088938167136,-0.6384748272125593,0.07222594748639603,-0.7438771961449633,-0.023381745122098577,-0.026328231829894178,1.6801393984418485
11122,4.0,299.36455,4226.0879,0.0,0.0,0.0,0.0,0.0,0.11085085619125518,-0.6590798759461193,0.06784532685206243,-0.6933906521573293,0.02193275796234468,-0.017291162605754883,1.6670321977982685
11123,4.0,300.14018,4396.6075,0.0,0.0,0.0,0.0,0.0,0.110860823000839,-0.6961902013886233,0.05118152615172336,-0.6914502174208234,0.012535724547429688,-0.006370062731801244,1.6667004597155284
11124,4.0,301.5232,4581.9084,0.0,0.0,0.0,0.0,0.0,0.11087078981042282,-0.7781317167106213,0.06711467625795284,-0.6817687140403333,0.005862444494053224,-0.001044535615387639,1.6890152666678284
11125,4.0,299.96677,4626.2249,0.0,0.0,0.0,0.0,0.0,0.11088075662000665,-0.7017565516079795,0.02126184454113068,-0.7257621588696483,-0.011876762411145188,-0.005352814042931615,1.6547662987127183
11126,4.0,300.43361,4480.6555,0.0,0.0,0.0,0.0,0.0,0.11089072342959047,-0.6988551606091343,0.055075825241560745,-0.7182280465585894,-0.0022476682775025877,0.014214968739408185,1.6875743237006182
11127,4.0,299.91517000000005,4342.9523,0.0,0.0,0.0,0.0,0.0,0.11090069023917429,-0.6386695840142804,0.052813312748768146,-0.7342928026540574,0.02161372096960818,0.038151544285014265,1.6529303908565285
11128,4.0,299.09011,4175.5994,0.0,0.0,0.0,0.0,0.0,0.1109106570487581,-0.6334443748385924,0.06010229756913494,-0.6959358857460244,-0.003272805422375747,0.014054692838590187,1.6708432340743882
11129,4.0,298.91157999999996,4127.7587,0.0,0.0,0.0,0.0,0.0,0.11092062385834192,-0.6773923348709184,0.08039178171805113,-0.6577350296183934,0.017183131906593086,-0.015019789240837786,1.6622087220222286
11130,4.0,298.9063,4178.6967,0.0,0.0,0.0,0.0,0.0,0.11093059066792577,-0.7085737084132803,0.10068736765906951,-0.6623331281746904,0.011791443712974888,0.0016783532411655687,1.6881348536559382
11131,4.0,299.38727,4260.0177,0.0,0.0,0.0,0.0,0.0,0.11094055747750958,-0.6640106346427473,0.04691400044055136,-0.6778423901678353,0.017779225927172983,0.017194654586730286,1.6744007551754883
11132,4.0,300.22378,4391.5717,0.0,0.0,0.0,0.0,0.0,0.1109505242870934,-0.6789227782194613,0.060739585272530344,-0.7167449321222173,0.027060297934393473,-0.008343994199388112,1.6807294139750786
11133,4.0,300.11912,4655.9097,0.0,0.0,0.0,0.0,0.0,0.11096049109667722,-0.6653580546257274,0.022915846646617978,-0.7728380827556803,-0.04042738202987196,-0.023469935371052277,1.6867112372654383
11134,4.0,300.18741,4701.0737,0.0,0.0,0.0,0.0,0.0,0.11097045790626103,-0.7101147604903703,0.023214880055880276,-0.7421091355154692,-0.017264290199852782,-0.026433015062485476,1.6529530876587684
11135,4.0,300.7717,4531.2164,0.0,0.0,0.0,0.0,0.0,0.11098042471584486,-0.7343598595456753,0.06377315373367023,-0.7067899525397373,-0.0006138945450241745,-0.017487395712871584,1.6887129128379883
11136,4.0,299.99231000000003,4304.7667,0.0,0.0,0.0,0.0,0.0,0.11099039152542868,-0.7216999277612374,0.07354522951409902,-0.6603868976476124,0.02047454718693048,0.0014223453695745587,1.6644510444935283
11137,4.0,299.77785,4234.0242,0.0,0.0,0.0,0.0,0.0,0.1110003583350125,-0.6730657772089204,0.08136249253910283,-0.6953343394266563,0.0011054848380528588,0.001088274582454339,1.6637145129958384
11138,4.0,300.36172999999997,4354.564,0.0,0.0,0.0,0.0,0.0,0.11101032514459633,-0.6809232784218954,0.07093010699975653,-0.7136855653002813,-0.0049562876342225054,0.04535698055513546,1.6696340214050485
11139,4.0,299.0268,4275.1022,0.0,0.0,0.0,0.0,0.0,0.11102029195418014,-0.6298144671503484,0.053783578753025946,-0.7234934108357403,0.00027919293878919774,0.04917959827989845,1.6633703119368681
11140,4.0,299.33939,4220.0844,0.0,0.0,0.0,0.0,0.0,0.11103025876376396,-0.6729611794010973,0.08554635722926811,-0.6953854680267023,0.006687240410604243,-0.005405687966274865,1.6983944162184785
11141,4.0,298.88569,4370.7461,0.0,0.0,0.0,0.0,0.0,0.11104022557334778,-0.7076406266611923,0.056276511411309245,-0.6772335788452504,-0.004226891139761675,-0.024713619822044376,1.6652048012429186
11142,4.0,299.33957000000004,4469.7263,0.0,0.0,0.0,0.0,0.0,0.1110501923829316,-0.7259216241703863,0.06282130253672985,-0.6955848655138813,-0.017755947519375582,-0.044020050750440756,1.6870624297500982
11143,4.0,300.62901,4582.8195,0.0,0.0,0.0,0.0,0.0,0.11106015919251543,-0.7028158944550283,0.04619438211353055,-0.7364411867085863,-0.014548549924080086,0.004424615143075516,1.6495670084745884
11144,4.0,300.2025,4452.3668,0.0,0.0,0.0,0.0,0.0,0.11107012600209924,-0.6729204568795784,0.059841572106403354,-0.7403294427748273,-0.03687250449828286,-0.0006805648108015173,1.6774302716494784
11145,4.0,299.19824,4226.5257,0.0,0.0,0.0,0.0,0.0,0.11108009281168307,-0.6282233199883144,0.07841815088176893,-0.7349531174792253,0.006183748937863504,0.010932475126201291,1.6548528302712584
11146,4.0,300.82153999999997,4326.2112,0.0,0.0,0.0,0.0,0.0,0.11109005962126689,-0.6958281873928953,0.07295516027861373,-0.6921871440860523,0.026754499054213475,0.012048849768378887,1.6991640809944384
11147,4.0,300.7484,4333.3584,0.0,0.0,0.0,0.0,0.0,0.1111000264308507,-0.7320256960853113,0.09406314684505981,-0.6792701912812483,0.03986931427229496,0.01986941801520888,1.6966308544194284
11148,4.0,300.25609,4239.5497,0.0,0.0,0.0,0.0,0.0,0.11110999324043452,-0.7001336593203124,0.07636959830659253,-0.6649531801507693,0.039887239679814064,-0.025544155597761877,1.6856118609069384
11149,4.0,300.37369,4318.7601,0.0,0.0,0.0,0.0,0.0,0.11111996005001834,-0.6873809543567184,0.07483279985342232,-0.7002470825365064,0.014379366541632986,-0.016231391153913585,1.6846384315358685
11150,4.0,300.70273,4526.9894,0.0,0.0,0.0,0.0,0.0,0.11112992685960218,-0.6731989588020644,0.04459925389185366,-0.7474920266717192,0.015790973891947786,-0.02313655886290058,1.6606652381448985
11151,4.0,300.03934,4476.576,0.0,0.0,0.0,0.0,0.0,0.111139893669186,-0.6821240101878984,0.06109866489596875,-0.7397419603668473,-0.03954116410815906,0.02939970293752477,1.6948013300388682
11152,4.0,300.05407,4474.1609,0.0,0.0,0.0,0.0,0.0,0.11114986047876982,-0.7295796596814063,0.06489068145446164,-0.6953442084826303,-0.036600692052957066,0.012031447197911388,1.6961771210246483
11153,4.0,299.86406,4288.6966,0.0,0.0,0.0,0.0,0.0,0.11115982728835364,-0.7232792198971013,0.1050228155774449,-0.6854002631937394,-0.03085615673726557,0.012433886832879089,1.7074908689912283
11154,4.0,299.43185,4293.1633,0.0,0.0,0.0,0.0,0.0,0.11116979409793745,-0.6992891761569683,0.08976564108992902,-0.6954908966996073,0.005883953463200994,-0.008347116529571262,1.6832576756245983
11155,4.0,299.6503,4485.9623,0.0,0.0,0.0,0.0,0.0,0.11117976090752127,-0.7098489545916373,0.06937795172807074,-0.7231495238843013,0.017137933859382382,-0.007246353740959432,1.6684874275918882
11156,4.0,299.63121,4496.0782,0.0,0.0,0.0,0.0,0.0,0.11118972771710509,-0.6897187047224363,0.06548875333923673,-0.7424655665031463,0.002080309454510558,-0.03363059256483107,1.6688460168022783
11157,4.0,299.40438,4388.9104,0.0,0.0,0.0,0.0,0.0,0.1111996945266889,-0.6522615336382014,0.039365538481576166,-0.7212231733241853,-0.02028264471074118,-0.021956581498695876,1.6577419102813884
11158,4.0,301.17744,4357.2685,0.0,0.0,0.0,0.0,0.0,0.11120966133627273,-0.7187297370806023,0.08272721376754033,-0.6884982855069903,0.023937285833926177,-0.010212012761847189,1.7085349218942683
11159,4.0,300.42046,4493.3106,0.0,0.0,0.0,0.0,0.0,0.11121962814585655,-0.7080853117325794,0.04668051519350816,-0.7044494360012463,-0.0023297417382526077,0.05073467373837245,1.685936607563988
11160,4.0,300.24816,4447.6763,0.0,0.0,0.0,0.0,0.0,0.11122959495544038,-0.7172123139958443,0.05586846242378794,-0.6906386750182303,0.02335323125103448,-0.009554912067321402,1.7111153659239384
11161,4.0,300.67231,4539.1376,0.0,0.0,0.0,0.0,0.0,0.1112395617650242,-0.6832874644827223,0.05038359473772366,-0.7468806112963773,-0.04392155169496966,-0.005177250629904855,1.6760547846387284
11162,4.0,300.45853,4554.6402,0.0,0.0,0.0,0.0,0.0,0.11124952857460801,-0.6837806943664003,0.039057923857216965,-0.7397741107925203,-0.011660648323816388,-0.0028807549446583773,1.6907477216888085
11163,4.0,299.6174,4486.0593,0.0,0.0,0.0,0.0,0.0,0.11125949538419183,-0.6686967542352313,0.039856499698280264,-0.7348097628550774,0.008961725871878481,0.004858694728315836,1.6765348625361085
11164,4.0,299.52034,4464.3619,0.0,0.0,0.0,0.0,0.0,0.11126946219377565,-0.7284801921303973,0.08231913640901621,-0.7108934938547253,0.012944153503738488,0.01753101410317638,1.7154286702746284
11165,4.0,298.4519,4394.3352,0.0,0.0,0.0,0.0,0.0,0.11127942900335948,-0.7081604239624923,0.07584056421738093,-0.7034483043724423,-0.029869903672929972,0.02292146714492268,1.6878009877479883
11166,4.0,300.1835,4337.3113,0.0,0.0,0.0,0.0,0.0,0.11128939581294331,-0.7048085521016882,0.08748743436633752,-0.7011132289869884,0.0037727839570197864,0.01282759225198479,1.6863630845310784
11167,4.0,300.29517999999996,4376.8082,0.0,0.0,0.0,0.0,0.0,0.11129936262252713,-0.6943807190950414,0.07450997735831223,-0.7105696692552663,0.01036701266939449,0.030894940911343267,1.6944168016259185
11168,4.0,299.93453999999997,4563.7319,0.0,0.0,0.0,0.0,0.0,0.11130932943211094,-0.6857503208382874,0.04823267755794466,-0.7497429009738633,0.03342879367491507,-0.030641903990370475,1.6741067099964686
11169,4.0,300.10909,4511.5070000000005,0.0,0.0,0.0,0.0,0.0,0.11131929624169476,-0.6872943822681744,0.06529667253102985,-0.7493877770788152,-0.0021769322747714876,-0.026514417549019273,1.7023112358050385
11170,4.0,300.35776,4517.2155,0.0,0.0,0.0,0.0,0.0,0.11132926305127858,-0.7064147460277074,0.060528805946978036,-0.7272347760349843,-0.006026823348501155,-0.015067666321312885,1.7045662239025883
11171,4.0,300.00948999999997,4697.6721,0.0,0.0,0.0,0.0,0.0,0.11133922986086241,-0.7088678042548053,0.022852519528618078,-0.7419597216557233,0.025395941426134272,0.015916335220819984,1.7133789666473385
11172,4.0,300.74745,4707.8453,0.0,0.0,0.0,0.0,0.0,0.11134919667044622,-0.7294964313181923,0.03195056918352567,-0.7335215572079413,0.005223827001226585,0.004212849013250826,1.7042258731939985
11173,4.0,299.63615,4370.9199,0.0,0.0,0.0,0.0,0.0,0.11135916348003005,-0.6787892217237803,0.05995093320294645,-0.7098122040105103,-0.021968896540411276,-0.012830850864306386,1.6845650722286285
11174,4.0,300.06203999999997,4226.6526,0.0,0.0,0.0,0.0,0.0,0.11136913028961387,-0.6551624078794954,0.06689848516361645,-0.6965329332349484,-0.03244698979176857,-0.011780976839441888,1.6956733330749285
11175,4.0,299.22206,4189.1214,0.0,0.0,0.0,0.0,0.0,0.11137909709919769,-0.6540090962181724,0.07378927384043434,-0.6931684768079023,-0.03213803767727737,0.02176444394848338,1.6614028842176984
11176,4.0,299.82369,4191.0031,0.0,0.0,0.0,0.0,0.0,0.1113890639087815,-0.6871671991156223,0.09961131935762181,-0.6864044143078414,0.0030518310782922773,0.017519506621790682,1.6843534042827382
11177,4.0,299.57812,4428.4141,0.0,0.0,0.0,0.0,0.0,0.11139903071836532,-0.6850127963554994,0.04650166337860686,-0.7076161769362794,-0.008149959338363362,0.011543594632514089,1.6572925338620383
11178,4.0,298.86875,4485.7193,0.0,0.0,0.0,0.0,0.0,0.11140899752794915,-0.7128704866548393,0.05348493443180204,-0.7041610954202894,0.018948631039834282,0.017036751717646483,1.6938740035473485
11179,4.0,299.30024,4459.0035,0.0,0.0,0.0,0.0,0.0,0.11141896433753297,-0.6673666608289613,0.034100497431207064,-0.7221595684041003,0.025609716932232275,0.008317699042067982,1.6694553854124183
11180,4.0,300.67197000000004,4454.4325,0.0,0.0,0.0,0.0,0.0,0.1114289311471168,-0.6835500583786384,0.04433097667612676,-0.7148171731444622,0.015925437246468284,-0.026251112351533074,1.6958364663410284
11181,4.0,300.7029,4432.5185,0.0,0.0,0.0,0.0,0.0,0.11143889795670062,-0.6924698712614553,0.043766012738369164,-0.6986711037284693,0.014488804645183685,-0.06026763668070265,1.6980056321551087
11182,4.0,300.60235,4327.5582,0.0,0.0,0.0,0.0,0.0,0.11144886476628443,-0.6781220978579403,0.050771895480795956,-0.6881194110295983,0.0005046767727077196,-0.02852027277823177,1.6990616414093285
11183,4.0,300.21544,4144.3209,0.0,0.0,0.0,0.0,0.0,0.11145883157586825,-0.6616000518598414,0.0963830670487681,-0.6945531033345543,0.0014499012126691084,0.012004313373483488,1.6808641762383785
11184,4.0,299.4699,4151.3187,0.0,0.0,0.0,0.0,0.0,0.11146879838545207,-0.6664838058843304,0.07511823240659232,-0.6705316387088204,-0.009059983571175762,0.0071369596124630725,1.6602164696756085
11185,4.0,300.0913,4278.6682,0.0,0.0,0.0,0.0,0.0,0.11147876519503591,-0.6672531768177614,0.06585317380395223,-0.6992082985339864,-0.02013748346166488,0.008949403737412381,1.6767615265834785
11186,4.0,299.9694,4411.4108,0.0,0.0,0.0,0.0,0.0,0.11148873200461973,-0.6828341870504873,0.05348820722962504,-0.7116127494382103,-0.0054816408897958345,0.0013556156564138487,1.6674903894934883
11187,4.0,299.41303999999997,4459.4693,0.0,0.0,0.0,0.0,0.0,0.11149869881420355,-0.7077407256385714,0.06633533899653823,-0.7141619144372934,0.0015801474202734086,0.004346104674977136,1.7123567999464584
11188,4.0,299.72572,4465.4198,0.0,0.0,0.0,0.0,0.0,0.11150866562378736,-0.7037921305288753,0.05074635955177575,-0.7043303385844923,0.0017213943828883983,-0.01102045259263399,1.6818643554120882
11189,4.0,299.33855,4388.4789,0.0,0.0,0.0,0.0,0.0,0.11151863243337118,-0.6868709247863823,0.06322262455683723,-0.7103397020125704,0.005914205868786675,-0.024244534674999277,1.7105971898227983
11190,4.0,299.68478,4446.4841,0.0,0.0,0.0,0.0,0.0,0.11152859924295501,-0.6858931181748803,0.03429244246390057,-0.7000194457690403,0.028772187018093767,0.03015843575815587,1.6919512601575881
11191,4.0,299.56099,4542.915,0.0,0.0,0.0,0.0,0.0,0.11153856605253883,-0.6715969495989584,0.029224602174493672,-0.7385603688952334,0.019110552458814684,0.013754813365494386,1.6851935912656586
11192,4.0,298.87721,4454.8389,0.0,0.0,0.0,0.0,0.0,0.11154853286212264,-0.7090212711149514,0.05636577266561865,-0.7015042827305823,-0.001848855571267838,0.005066371583386946,1.6827974574291786
11193,4.0,299.80595,4436.773,0.0,0.0,0.0,0.0,0.0,0.11155849967170647,-0.6891619136599854,0.046685432496243455,-0.7061917296806973,-0.02977060820288027,-0.029573386163665973,1.6696853931851183
11194,4.0,300.29773,4182.4297,0.0,0.0,0.0,0.0,0.0,0.11156846648129029,-0.6606589856969654,0.08692837868991302,-0.6976235753775863,0.0051183283127396745,0.017689268570044884,1.6875813151263086
11195,4.0,300.52964,4243.5842,0.0,0.0,0.0,0.0,0.0,0.11157843329087411,-0.6675282438224084,0.06260632936901364,-0.6850217129563795,0.0023929899240697178,0.005590053786895355,1.6739658682325682
11196,4.0,300.83467,4416.9232,0.0,0.0,0.0,0.0,0.0,0.11158840010045792,-0.6787042100403904,0.06469435715483594,-0.7286245194746414,-0.01049581600885639,0.013516912374515385,1.7041787570643485
11197,4.0,300.42109,4324.9758,0.0,0.0,0.0,0.0,0.0,0.11159836691004174,-0.6631246588878084,0.06466318856850985,-0.7162231691157234,0.00041559302968333854,-0.01014592352407469,1.6867212684414283
11198,4.0,299.54026,4188.9366,0.0,0.0,0.0,0.0,0.0,0.11160833371962557,-0.6589095182068063,0.07986783617084173,-0.6942904486436323,0.0037979164098501665,0.02966282473674287,1.6995828572607685
11199,4.0,300.7278,4482.7617,0.0,0.0,0.0,0.0,0.0,0.11161830052920939,-0.7274430901230433,0.08255924425871301,-0.7177637854952703,0.026035406603994574,0.02672342470014668,1.6874988365681682
11200,4.0,299.50994,4638.5157,0.0,0.0,0.0,0.0,0.0,0.11162826733879322,-0.7324112174833592,0.04379221943895555,-0.7213739550715663,0.013311151676708386,-0.0005263320450374286,1.6851650176128383
11201,4.0,298.98249,4326.9781,0.0,0.0,0.0,0.0,0.0,0.11163823414837704,-0.6960245755272773,0.08201213378771742,-0.7012808509510313,-0.005778412623509925,-0.011298203696795888,1.7061666524355383
11202,4.0,299.3255,4298.4898,0.0,0.0,0.0,0.0,0.0,0.11164820095796085,-0.6516522359555683,0.05933217277762954,-0.7143135067847542,-0.016944838787825385,0.012171674932250789,1.6812803180544484
11203,4.0,299.45333999999997,4350.5738,0.0,0.0,0.0,0.0,0.0,0.11165816776754467,-0.6693550121626963,0.07189551143003453,-0.7250063046925512,-0.007464946643332873,-0.003620118172402846,1.7082717808432986
11204,4.0,299.76063,4303.9532,0.0,0.0,0.0,0.0,0.0,0.11166813457712849,-0.6750107715708764,0.06785570455958663,-0.7011392289845544,-0.018727973539057082,-0.013200579746295788,1.6682920729726087
11205,4.0,300.00948,4412.6504,0.0,0.0,0.0,0.0,0.0,0.1116781013867123,-0.7064944482805733,0.07453969395724502,-0.7093807925154333,-0.026382551154505076,-0.017977238301465286,1.6730635690185183
11206,4.0,299.63304,4390.495,0.0,0.0,0.0,0.0,0.0,0.11168806819629615,-0.6859026224608183,0.04622135179144225,-0.6949195756307224,-0.003260857177196547,0.017865881102225183,1.6572932431371086
11207,4.0,299.63586000000004,4372.4062,0.0,0.0,0.0,0.0,0.0,0.11169803500587996,-0.6902593952407983,0.07347263723718472,-0.7123155498400713,0.017800878068559883,-0.004350185945054925,1.7024551173192384
11208,4.0,300.84819,4540.499,0.0,0.0,0.0,0.0,0.0,0.11170800181546378,-0.6794159473081334,0.05071912845533825,-0.7515014978474233,0.010872753152057189,-0.007478544155699843,1.6890420164704683
11209,4.0,300.74021,4503.6386,0.0,0.0,0.0,0.0,0.0,0.1117179686250476,-0.6817986758457903,0.06294423206536204,-0.7501392236179774,0.017159981168308282,-0.03211476028273007,1.7047023033910182
11210,4.0,300.19981,4352.6433,0.0,0.0,0.0,0.0,0.0,0.11172793543463141,-0.6655302058177174,0.054861026352861754,-0.7124257103909433,0.0049583584134518756,0.029779308981488974,1.7070029890680785
11211,4.0,300.7803,4446.5545,0.0,0.0,0.0,0.0,0.0,0.11173790224421523,-0.6994467466800193,0.05991110234151545,-0.7121058982618803,-0.012910858105452488,0.017652156258632184,1.6808500920619884
11212,4.0,300.13394,4464.6298,0.0,0.0,0.0,0.0,0.0,0.11174786905379905,-0.7248105650382334,0.042994160355443255,-0.6753195696713523,0.004261448845022256,-0.011477954264535888,1.6684061649338684
11213,4.0,300.13725,4466.7987,0.0,0.0,0.0,0.0,0.0,0.11175783586338287,-0.7331563413418973,0.05272013426957215,-0.6773590597376343,0.006799587757842064,-0.004349823809469186,1.6654641932685184
11214,4.0,300.08909,4402.4119,0.0,0.0,0.0,0.0,0.0,0.1117678026729667,-0.6820217631203074,0.05270123411545686,-0.7089027613832554,-0.006500333460057964,0.02246087708671598,1.6780307236587384
11215,4.0,299.29549,4284.4008,0.0,0.0,0.0,0.0,0.0,0.11177776948255053,-0.6581585782926944,0.07262396023167683,-0.7168162243992533,0.005436988275113965,0.008227318754348142,1.6950611273645084
11216,4.0,299.54367,4474.1795,0.0,0.0,0.0,0.0,0.0,0.11178773629213434,-0.6850659919857494,0.05591868923124495,-0.7308915449833794,-0.04981257865711875,0.01039031134219389,1.7128967609247483
11217,4.0,300.2657,4779.1001,0.0,0.0,0.0,0.0,0.0,0.11179770310171816,-0.7306404514760984,0.039761485209903066,-0.7618481188585553,0.014543768396858186,-0.0009278190222611081,1.7136670336507684
11218,4.0,299.63943,4652.0853,0.0,0.0,0.0,0.0,0.0,0.11180766991130198,-0.7303330212632573,0.04158533235015276,-0.7253700716109523,0.014609214220817185,0.014270217214360788,1.6887133181380283
11219,4.0,301.2881,4300.2878,0.0,0.0,0.0,0.0,0.0,0.1118176367208858,-0.6893515130186973,0.08563185831245641,-0.7034604735061434,-0.0013082708362162788,0.0004740931457968505,1.6973520858406086
11220,4.0,300.35089,4206.7979,0.0,0.0,0.0,0.0,0.0,0.11182760353046962,-0.6461953471445154,0.07801355910358883,-0.7105797409612604,-0.01947321696110688,-0.04552937898014986,1.6660148946978683
11221,4.0,300.57417999999996,4350.999,0.0,0.0,0.0,0.0,0.0,0.11183757034005345,-0.6687270909432254,0.07347731237314613,-0.7273452709583893,0.015556459182802986,-0.05484094981538035,1.6811925705957882
11222,4.0,300.71287,4356.183,0.0,0.0,0.0,0.0,0.0,0.11184753714963727,-0.6641586502173553,0.05297558373903305,-0.7129877906189164,0.019423148220665484,0.0002027461470369868,1.6917208470848484
11223,4.0,300.6036,4264.6545,0.0,0.0,0.0,0.0,0.0,0.11185750395922109,-0.6722635263097444,0.06949800565291914,-0.6935829467613074,0.005179738158900355,-0.01161829142988609,1.7004272998941083
11224,4.0,300.15969,4304.4715,0.0,0.0,0.0,0.0,0.0,0.1118674707688049,-0.7037797080826493,0.07384138124007693,-0.6785135265040713,-0.018053829876524284,0.007075583406205714,1.6726351668762385
11225,4.0,299.50221,4576.2203,0.0,0.0,0.0,0.0,0.0,0.11187743757838872,-0.7435352546337163,0.05282357798553125,-0.7003450232911723,-0.01086364302040809,-0.005054037695219686,1.6915123202142683
11226,4.0,298.71004,4719.9587,0.0,0.0,0.0,0.0,0.0,0.11188740438797255,-0.7038744165694963,0.03284037806359297,-0.7637155590578573,0.018644518207820683,0.024711146478550276,1.6895502627206287
11227,4.0,299.50372000000004,4616.4545,0.0,0.0,0.0,0.0,0.0,0.11189737119755637,-0.6896925223398523,0.04760660349340595,-0.7612009762846872,0.002967480033967477,0.008226511092693432,1.7236498776109983
11228,4.0,298.93526,4423.5921,0.0,0.0,0.0,0.0,0.0,0.1119073380071402,-0.6413972228859773,0.05150631536527755,-0.7547706277050613,-0.020504220216108978,0.0009844465913948141,1.7124084757015587
11229,4.0,299.39207000000005,4327.0515,0.0,0.0,0.0,0.0,0.0,0.11191730481672402,-0.6684870013320303,0.06176884979036084,-0.7085974488631233,-0.003438420340620667,-0.0038857493868186066,1.7082794815440587
11230,4.0,300.14464,4443.4915,0.0,0.0,0.0,0.0,0.0,0.11192727162630783,-0.7027178219778493,0.05465363128264345,-0.7026462561232864,0.004697794868086256,0.02515017153487868,1.6729155331789083
11231,4.0,299.5866,4520.35,0.0,0.0,0.0,0.0,0.0,0.11193723843589165,-0.7149748753900264,0.04633908841331196,-0.7054377398837843,0.028700920072310274,0.009992126243071081,1.6765983933173785
11232,4.0,300.28728,4372.5747,0.0,0.0,0.0,0.0,0.0,0.11194720524547547,-0.6764474994176704,0.05893991731941694,-0.7116459333789854,-0.004359970495970586,-0.018110160502583683,1.6540591514679284
11233,4.0,300.09592999999995,4293.3804,0.0,0.0,0.0,0.0,0.0,0.1119571720550593,-0.6549683907503474,0.047011344390908455,-0.6971233945982224,0.0017068578916537586,-0.024831141634892875,1.6791517835693786
11234,4.0,300.42069,4443.1205,0.0,0.0,0.0,0.0,0.0,0.11196713886464311,-0.6778622701347974,0.05933098626176244,-0.7320663983418283,0.008292275786458901,-0.007152422011639093,1.7036257251597682
11235,4.0,300.69153,4645.9667,0.0,0.0,0.0,0.0,0.0,0.11197710567422695,-0.7178932484605473,0.05272747222679635,-0.7470921069897503,0.02640700594566858,-0.004373710572626626,1.7210267757521183
11236,4.0,299.45099,4563.8625,0.0,0.0,0.0,0.0,0.0,0.11198707248381076,-0.7309920289957963,0.06553907640545324,-0.7218472847232803,-0.006360598975867244,-0.004087482212828087,1.7265684431990382
11237,4.0,299.01468,4500.4112,0.0,0.0,0.0,0.0,0.0,0.11199703929339458,-0.7088990326228873,0.046082178850456956,-0.7051957757599043,-0.016804554311480382,0.006490799587217044,1.6883953602566484
11238,4.0,299.25583,4349.3658,0.0,0.0,0.0,0.0,0.0,0.1120070061029784,-0.6921009874300493,0.07404191458061803,-0.7040395155407904,-0.025532196206831576,0.014071304060729588,1.6690922365765783
11239,4.0,300.21574,4374.0099,0.0,0.0,0.0,0.0,0.0,0.11201697291256221,-0.6855562631791353,0.07128711959299093,-0.7153206469866513,-0.024720484591471876,0.018646896305805384,1.6764706224797683
11240,4.0,299.8031,4340.7805,0.0,0.0,0.0,0.0,0.0,0.11202693972214604,-0.6614153464991124,0.056936448294189944,-0.7150099946384924,-0.005623787618499625,0.006866377151433663,1.6805764132099783
11241,4.0,300.12225,4173.6499,0.0,0.0,0.0,0.0,0.0,0.11203690653172987,-0.6835491160560453,0.07971971724472351,-0.6648559689361754,0.012037283518487388,-0.005533204782084795,1.6949305194266184
11242,4.0,301.08288,4163.3727,0.0,0.0,0.0,0.0,0.0,0.11204687334131369,-0.6748617528786692,0.07711935575783782,-0.6678189250110964,-0.0025330668867942375,0.014871348101187785,1.6888842534298985
11243,4.0,301.55396,4390.663,0.0,0.0,0.0,0.0,0.0,0.11205684015089751,-0.6974033859983554,0.05868644976715164,-0.6959349940859364,0.01034907307637399,-0.013838156225969686,1.6912328658366882
11244,4.0,300.63527,4669.1773,0.0,0.0,0.0,0.0,0.0,0.11206680696048132,-0.7100585555073233,0.04001896219281406,-0.7492737357800603,0.016279858959196983,-0.044496017892165056,1.6865588444503985
11245,4.0,300.32247,4652.3498,0.0,0.0,0.0,0.0,0.0,0.11207677377006514,-0.7073425284817724,0.04723020033300786,-0.7540858428899783,0.028750069794910973,-0.02959301281810297,1.6907548144395086
11246,4.0,299.64313,4343.0307,0.0,0.0,0.0,0.0,0.0,0.11208674057964897,-0.6573258386980093,0.04141367967721196,-0.7042607283026223,0.012489993530666387,-0.009075152634447832,1.6863075584255984
11247,4.0,300.09726,4101.3519,0.0,0.0,0.0,0.0,0.0,0.11209670738923279,-0.6575753414026334,0.1063498489684129,-0.6954830541438333,-0.009189511485784172,-0.00865239439654984,1.7218650375598483
11248,4.0,299.38185,4416.6465,0.0,0.0,0.0,0.0,0.0,0.11210667419881662,-0.6851524627492833,0.05645954997562374,-0.7138573314572333,-0.03436535492784647,0.018867076565785484,1.7149162696990587
11249,4.0,299.19927,4565.2208,0.0,0.0,0.0,0.0,0.0,0.11211664100840044,-0.6895531092585934,0.042399650044769664,-0.7405596734625493,0.016317758565937382,0.013752559897271989,1.6883070048479285
11250,4.0,300.42905,4399.1832,0.0,0.0,0.0,0.0,0.0,0.11212660781798425,-0.6904443133840484,0.06482586789856502,-0.7116234088292623,-0.008813246228724682,0.03125898039402117,1.6819716585976785
11251,4.0,299.71205,4357.4816,0.0,0.0,0.0,0.0,0.0,0.11213657462756807,-0.6806404803189854,0.06837266678710684,-0.7122977875658183,-0.018184492529919685,0.009274863621207772,1.6674738735168586
11252,4.0,299.27437000000003,4487.6427,0.0,0.0,0.0,0.0,0.0,0.11214654143715189,-0.7192204338390303,0.07878715630318693,-0.7236980569584373,-0.017739818604283784,-0.02013040590971638,1.6909537154341385
11253,4.0,299.9713,4755.5049,0.0,0.0,0.0,0.0,0.0,0.11215650824673572,-0.7515851720406812,0.03762226296277826,-0.7315918223924913,0.01105182484223019,0.005130922200882595,1.7013260527328087
11254,4.0,300.42397,4753.9754,0.0,0.0,0.0,0.0,0.0,0.11216647505631953,-0.7425914121655663,0.058792572516375145,-0.7612909832910703,0.04567232931750796,0.009626898218025882,1.7281550915306285
11255,4.0,300.83315,4389.8143,0.0,0.0,0.0,0.0,0.0,0.11217644186590336,-0.6617515428822923,0.05701013285471204,-0.7296525326285983,0.002581166679641318,-0.02455621243225948,1.7051129736565482
11256,4.0,300.74394,4163.0049,0.0,0.0,0.0,0.0,0.0,0.11218640867548718,-0.6416768191185714,0.07369909964778484,-0.6974718006451074,-0.00826620020043544,-0.03746891363964386,1.7124449527051584
11257,4.0,300.69108,4604.8055,0.0,0.0,0.0,0.0,0.0,0.112196375485071,-0.6944292537748313,0.051986991080216545,-0.7573036313650493,-0.014008552468786486,-0.018862993167882484,1.6876812215861683
11258,4.0,299.32785,4755.2133,0.0,0.0,0.0,0.0,0.0,0.11220634229465482,-0.7312024810415663,0.02476576876494108,-0.7390294023665233,0.023722822331010276,0.0008235867241466812,1.6969289525988482
11259,4.0,300.07964,4434.0209,0.0,0.0,0.0,0.0,0.0,0.11221630910423863,-0.6996416757342573,0.05155520366935245,-0.6997451589669703,-0.018963620048563584,0.01088109321363029,1.7050497468503087
11260,4.0,299.79757,4161.8913,0.0,0.0,0.0,0.0,0.0,0.11222627591382245,-0.6586417972653843,0.09510657051978773,-0.7015757979226404,-0.017162447419051683,0.012890910250733788,1.6934295920534883
11261,4.0,299.6703,4527.7445,0.0,0.0,0.0,0.0,0.0,0.11223624272340628,-0.6737268013091584,0.04405802128468816,-0.7466524881688633,-0.027275870946168873,0.003105171501981567,1.7018443301589585
11262,4.0,299.56304,4885.0116,0.0,0.0,0.0,0.0,0.0,0.11224620953299011,-0.7329245806465243,0.029838710768601468,-0.7818356727161733,0.008740761356320983,0.02109327620149428,1.6857680027473485
11263,4.0,299.91551,4623.9964,0.0,0.0,0.0,0.0,0.0,0.11225617634257393,-0.7170641261687193,0.06342526849733664,-0.7519405796457572,-0.0004031886294416196,-0.02222390423282858,1.7137231677063085
11264,4.0,299.03481,4388.2485,0.0,0.0,0.0,0.0,0.0,0.11226614315215774,-0.7074947794417983,0.05170387785652545,-0.6781270627834304,0.01318194607695679,-0.013095394253414787,1.7074672602638983
11265,4.0,298.96488,4184.6562,0.0,0.0,0.0,0.0,0.0,0.11227610996174156,-0.6992326570663904,0.11382095738825389,-0.6866192942565484,0.007795501047306053,0.01042967408207869,1.7117967766161883
11266,4.0,299.29079,4321.5596,0.0,0.0,0.0,0.0,0.0,0.11228607677132538,-0.6811801575872474,0.07168592571310003,-0.7041519761693894,0.014686393480934186,0.03156608231382977,1.7115142824883085
11267,4.0,298.41759,4625.2954,0.0,0.0,0.0,0.0,0.0,0.1122960435809092,-0.6677167184735093,0.02715740985047768,-0.7654149922580783,0.020388366212925082,-0.006794425957857633,1.7168372905636484
11268,4.0,298.02687000000003,4441.0455,0.0,0.0,0.0,0.0,0.0,0.11230601039049301,-0.6755704402636113,0.07242737755327563,-0.7468238794232783,-0.006977991513549144,-0.01930097255010768,1.7104245320057585
11269,4.0,299.79716,4161.12,0.0,0.0,0.0,0.0,0.0,0.11231597720007684,-0.6385157219865953,0.07071040803357394,-0.6970712831455794,0.006787607291309683,0.006239877015227915,1.6845359919507585
11270,4.0,300.14531,4329.9412,0.0,0.0,0.0,0.0,0.0,0.11232594400966067,-0.7032075257511794,0.08084586265761542,-0.6938323380084204,-0.014235283390663087,0.02139236939251248,1.6987101449496385
11271,4.0,299.62299,4716.5639,0.0,0.0,0.0,0.0,0.0,0.11233591081924449,-0.7328032439470493,0.03596552001577046,-0.7368799341343872,-0.003111112795267927,0.012827323740708288,1.6733732182490784
11272,4.0,300.56718,4630.8077,0.0,0.0,0.0,0.0,0.0,0.1123458776288283,-0.7105301727663683,0.03305792792631347,-0.7301776798904263,-0.009635943906968621,-0.008067845347609343,1.6944571289798986
11273,4.0,299.94471,4302.728,0.0,0.0,0.0,0.0,0.0,0.11235584443841212,-0.6492841590143574,0.061489644672305444,-0.7201273737385383,-0.008320462175090682,0.006759015096012852,1.6963921326958684
11274,4.0,299.36278,4266.1776,0.0,0.0,0.0,0.0,0.0,0.11236581124799594,-0.6542281912872954,0.05553121327375404,-0.6981144950510363,-0.021775127657537776,0.011359203379316089,1.7101817572817983
11275,4.0,299.81948,4428.5138,0.0,0.0,0.0,0.0,0.0,0.11237577805757977,-0.6856320948166192,0.04125828865512606,-0.7017838181681704,-0.007784281734248793,0.0009404503094652192,1.7147459423572482
11276,4.0,299.2674,4552.2606,0.0,0.0,0.0,0.0,0.0,0.1123857448671636,-0.7134864211256273,0.04696100916569075,-0.7172481425193803,0.023243258151430978,0.0013575017201499888,1.6992680404546985
11277,4.0,300.11582999999996,4604.1511,0.0,0.0,0.0,0.0,0.0,0.11239571167674742,-0.7235359774724414,0.026266860284587273,-0.7022778383869263,0.02400256447161868,0.01002553877306864,1.6819590942964384
11278,4.0,299.24401,4350.4047,0.0,0.0,0.0,0.0,0.0,0.11240567848633123,-0.6542882364882213,0.05887616362312494,-0.7270023263295433,0.01882317041245228,-0.006677508143393744,1.6627658069272087
11279,4.0,299.56289,4240.9453,0.0,0.0,0.0,0.0,0.0,0.11241564529591505,-0.6570169899350284,0.07557536626870794,-0.7076998612620383,-0.016940369341634284,-0.025768374672640575,1.6957432473318286
11280,4.0,299.41297000000003,4566.2804,0.0,0.0,0.0,0.0,0.0,0.11242561210549887,-0.6861021618030113,0.03147955683479037,-0.7334126125571893,-0.004023653333378666,-0.024449857648763076,1.6884611201881383
11281,4.0,298.66262,4544.7473,0.0,0.0,0.0,0.0,0.0,0.1124355789150827,-0.7239106773594214,0.08589752640917582,-0.7434765570554234,0.023028391374975275,0.002089545026522038,1.7284148888562685
11282,4.0,299.00998,4389.5841,0.0,0.0,0.0,0.0,0.0,0.11244554572466652,-0.7045044656141773,0.05694953948548194,-0.6867690526213283,0.006407384785984644,0.0070285355696124525,1.6995236834549285
11283,4.0,300.27856,4282.8371,0.0,0.0,0.0,0.0,0.0,0.11245551253425033,-0.7000970607267004,0.08747260849087432,-0.6892510898012864,-0.0008290861795944353,0.004757041931908485,1.7150226609595585
11284,4.0,298.73737,4408.7732,0.0,0.0,0.0,0.0,0.0,0.11246547934383416,-0.6888535512570523,0.06560236704644953,-0.7169057653105904,-0.015764041704289786,-0.012983510164122688,1.6958402153663983
11285,4.0,300.18993,4692.2084,0.0,0.0,0.0,0.0,0.0,0.11247544615341798,-0.7147298917808483,0.03562841981350126,-0.7472127242816543,0.005282848718226575,0.008552794647495112,1.6944998881341184
11286,4.0,300.44709,4541.2012,0.0,0.0,0.0,0.0,0.0,0.1124854129630018,-0.6958843315809363,0.06267377534867004,-0.7472012238930192,-0.004285734119444026,0.005663100607804515,1.7102451867380584
11287,4.0,300.46697,4222.0646,0.0,0.0,0.0,0.0,0.0,0.11249537977258561,-0.6570613804219093,0.05935795593967414,-0.6856987768057003,-0.0036599457914335267,-0.0037599270291509062,1.6962265676295285
11288,4.0,299.98801000000003,4245.6369,0.0,0.0,0.0,0.0,0.0,0.11250534658216943,-0.6826985635246023,0.061121288744201537,-0.6689903333192054,0.006233056930129824,0.0077944776647050525,1.7045760524285583
11289,4.0,299.80151,4563.062,0.0,0.0,0.0,0.0,0.0,0.11251531339175326,-0.6974812340035383,0.03945181368784086,-0.7290274687744093,-0.002191631797947218,0.00023897630264762475,1.6600597198851383
11290,4.0,299.42203,4650.9215,0.0,0.0,0.0,0.0,0.0,0.11252528020133709,-0.7372305591989913,0.03861131969014056,-0.7151447670342933,0.03018501736127927,-0.023150134387740377,1.6940966145943184
11291,4.0,299.49146,4425.3315,0.0,0.0,0.0,0.0,0.0,0.11253524701092091,-0.6873496347961273,0.07651413336710702,-0.7343547831626743,-0.01103338470366029,-0.016883445964266382,1.7072070576382183
11292,4.0,298.10497999999995,4171.1068,0.0,0.0,0.0,0.0,0.0,0.11254521382050472,-0.6681965227933624,0.0903427934131395,-0.6900585893359804,-0.005133738934835585,-0.01040712318785309,1.7038356705804882
11293,4.0,299.54483999999997,4459.7463,0.0,0.0,0.0,0.0,0.0,0.11255518063008854,-0.6857141174122143,0.08603758189099822,-0.7559749767739213,-0.018719252495446384,0.011759017683274689,1.7184470409975183
11294,4.0,299.44748,4742.7684,0.0,0.0,0.0,0.0,0.0,0.11256514743967236,-0.7593349850330282,0.07723852511534893,-0.7595866864903692,0.006276923769359144,0.008526184673368912,1.7185406653067583
11295,4.0,300.5064,4673.9133,0.0,0.0,0.0,0.0,0.0,0.11257511424925619,-0.7061850118325343,0.03610748446078126,-0.7506754153058953,0.008610388695104202,-0.004749783818792166,1.7112286472851181
11296,4.0,300.66782,4469.377,0.0,0.0,0.0,0.0,0.0,0.11258508105884002,-0.7114969957467864,0.06968527048340074,-0.7167672742869223,0.026691569130252772,-0.031979785236909065,1.6899081426559486
11297,4.0,300.05402999999995,4336.1683,0.0,0.0,0.0,0.0,0.0,0.11259504786842384,-0.6869901235281464,0.08599386217568342,-0.7170906226588343,0.015520881945291786,-0.00042941106580207254,1.7272095265373084
11298,4.0,299.24863,4397.2713,0.0,0.0,0.0,0.0,0.0,0.11260501467800765,-0.6919430116069583,0.05220354086508835,-0.6969212106732683,0.00932607115343656,-0.02336104644905578,1.6904200366064686
11299,4.0,300.28795,4472.7407,0.0,0.0,0.0,0.0,0.0,0.11261498148759147,-0.6968369589274533,0.08666319796649173,-0.7494277193977573,0.015825648323619882,0.02023779319506468,1.7423385664304285
11300,4.0,299.55447000000004,4448.674,0.0,0.0,0.0,0.0,0.0,0.11262494829717529,-0.6810208746715274,0.042516103892012755,-0.7137810337247034,-0.008013969927867251,0.02608318843896027,1.6954281265507285
11301,4.0,298.8277,4335.2648,0.0,0.0,0.0,0.0,0.0,0.11263491510675912,-0.6735662214333104,0.07289344422827283,-0.7171394613136544,0.00013722677125322787,0.03161261886442257,1.7185345858061585
11302,4.0,298.73217,4409.1873,0.0,0.0,0.0,0.0,0.0,0.11264488191634293,-0.7073290623879434,0.09040641133391811,-0.7233601988450933,-0.030562384122522473,-0.004971226993696905,1.6962313299049985
11303,4.0,299.56169,4652.0364,0.0,0.0,0.0,0.0,0.0,0.11265484872592677,-0.7293070042119973,0.051888404885236855,-0.7366842958050793,-0.019553070188237782,-0.009329559064255791,1.7065986009531682
11304,4.0,299.03739,4670.5781,0.0,0.0,0.0,0.0,0.0,0.11266481553551058,-0.7220171155725413,0.05798840860101035,-0.7557104171728113,0.0021871842379582777,-0.00948861085762798,1.7070678370744785
11305,4.0,300.3877,4584.3773,0.0,0.0,0.0,0.0,0.0,0.1126747823450944,-0.6861991703675854,0.036671007556896666,-0.7440080675278793,0.0019573278448232184,0.012034660213978489,1.6941829435028384
11306,4.0,300.08081,4462.2737,0.0,0.0,0.0,0.0,0.0,0.11268474915467822,-0.6607466216981144,0.03762203396825566,-0.7332951870031003,-0.00045498467759349154,-0.019174955648420783,1.7136844615524884
11307,4.0,300.22549,4465.8311,0.0,0.0,0.0,0.0,0.0,0.11269471596426203,-0.6860275865956513,0.06423702570895085,-0.7357105725914803,-0.005873937891262534,-0.006625239434335223,1.7113912739261683
11308,4.0,299.65905,4507.3471,0.0,0.0,0.0,0.0,0.0,0.11270468277384586,-0.7066667818575814,0.04299479363675576,-0.7064489736160853,0.029461164662090575,0.006433462601158323,1.7196930346454882
11309,4.0,300.60682,4528.4929,0.0,0.0,0.0,0.0,0.0,0.11271464958342968,-0.6978479292147283,0.04961250938512345,-0.7283133301039293,0.0007411487365406853,0.007878203939018192,1.7031841507661882
11310,4.0,300.21871,4449.4676,0.0,0.0,0.0,0.0,0.0,0.11272461639301351,-0.7061909697431222,0.07283746722649834,-0.7191735608894043,-0.024813183803370577,-0.007650725846517853,1.7104800581112383
11311,4.0,300.72422,4483.6869,0.0,0.0,0.0,0.0,0.0,0.11273458320259733,-0.6938238571050833,0.055808216599342146,-0.7249131971408623,-0.017878957094765682,0.01826758714412048,1.7034821476205986
11312,4.0,299.91573,4541.7243,0.0,0.0,0.0,0.0,0.0,0.11274455001218114,-0.6793977594688383,0.07609397300114043,-0.7772669786777783,-0.0075212248843621035,0.020313954138831178,1.7172456303539485
11313,4.0,299.70346,4699.4057,0.0,0.0,0.0,0.0,0.0,0.11275451682176496,-0.7261403747344753,0.05717453774968754,-0.7595361455753813,0.017811721871130084,0.01074133056108679,1.7328444129934284
11314,4.0,299.71833,4593.5567,0.0,0.0,0.0,0.0,0.0,0.11276448363134878,-0.7078518082470343,0.07186199007697623,-0.7603367144793912,-0.004907736843755915,-0.033159787932366264,1.7434801953180985
11315,4.0,299.38477,4273.7763,0.0,0.0,0.0,0.0,0.0,0.1127744504409326,-0.7117123417905393,0.11574247474539288,-0.7031514018281403,0.015280106363779085,0.005422154394974975,1.7268119271980684
11316,4.0,299.74914,4360.4564,0.0,0.0,0.0,0.0,0.0,0.11278441725051642,-0.6877067851913754,0.05604326934429005,-0.6938063380108543,0.003179792102946047,-0.008892300710801751,1.713142676724018
11317,4.0,299.61402000000004,4641.0804,0.0,0.0,0.0,0.0,0.0,0.11279438406010024,-0.7209901460661874,0.046804220871716956,-0.7365866387604413,0.012216058326381089,-0.0018639353672060984,1.6977179704517182
11318,4.0,299.61012,4894.6677,0.0,0.0,0.0,0.0,0.0,0.11280435086968407,-0.7034406340691853,-0.01012278180371578,-0.7742933530793042,-0.005718751950996875,-0.023683057330835776,1.7125273299382882
11319,4.0,300.4666,4693.5776,0.0,0.0,0.0,0.0,0.0,0.11281431767926789,-0.7008195688430063,0.02125650268660348,-0.7471673408096753,0.024988311924154374,0.006788397829037703,1.7079227161838482
11320,4.0,300.9123,4477.5879,0.0,0.0,0.0,0.0,0.0,0.1128242844888517,-0.6836812134715824,0.07222775816432474,-0.7496214730818793,0.004841489032342766,0.0030186160307392076,1.7299317242559682
11321,4.0,299.70252,4355.9205,0.0,0.0,0.0,0.0,0.0,0.11283425129843552,-0.6748958791420374,0.06674603560657084,-0.7159412322753983,0.0033563417122951375,-0.015810400936115087,1.7142788340611486
11322,4.0,300.10472999999996,4569.55,0.0,0.0,0.0,0.0,0.0,0.11284421810801934,-0.7290906854481484,0.07149426439043452,-0.7314326914642864,0.0024410707691399276,-0.00975165453526337,1.7155231051839483
11323,4.0,300.05902000000003,4720.1552,0.0,0.0,0.0,0.0,0.0,0.11285418491760316,-0.7139171132131333,0.05244127466980086,-0.7733334911270733,-0.006235139260410334,0.014631159191482987,1.7005501058062282
11324,4.0,298.95072000000005,4346.7467,0.0,0.0,0.0,0.0,0.0,0.11286415172718699,-0.6972484195280614,0.06906789719747072,-0.6931219280983083,0.005395750718569135,0.015654128386442184,1.6974887732790984
11325,4.0,298.76544,4243.8596,0.0,0.0,0.0,0.0,0.0,0.11287411853677082,-0.6840304706485514,0.09977974786874441,-0.7057766213797294,-0.028896940396905973,0.0032775702309709967,1.710612793874338
11326,4.0,299.08612999999997,4663.4112,0.0,0.0,0.0,0.0,0.0,0.11288408534635463,-0.7363934626288763,0.050466960902951254,-0.7316340546566593,-0.018497822898092982,0.0035286764038782465,1.7319084738760584
11327,4.0,299.24756,4889.0194,0.0,0.0,0.0,0.0,0.0,0.11289405215593845,-0.7534653791912432,0.014465682277901685,-0.7471401249119893,0.005752408370293505,0.030062770763214473,1.7172176646511883
11328,4.0,299.17706,4686.7435,0.0,0.0,0.0,0.0,0.0,0.11290401896552227,-0.7399529393026693,0.06941902888712473,-0.7541190876257593,-0.013269688469366289,0.02093276725315328,1.7338339530410884
11329,4.0,299.4806,4457.7752,0.0,0.0,0.0,0.0,0.0,0.11291398577510608,-0.6930991299710583,0.05843614862144885,-0.7203893799493963,-0.01868204493852428,-0.016580278494596087,1.7075358572956683
11330,4.0,299.60292000000004,4413.432,0.0,0.0,0.0,0.0,0.0,0.11292395258468992,-0.6948492966037864,0.10759389717619089,-0.7543177251753633,0.011340121853432888,-0.010981956181584688,1.7420224323992282
11331,4.0,300.44275,4557.2035,0.0,0.0,0.0,0.0,0.0,0.11293391939427375,-0.7056980539669754,0.06697835865574933,-0.7465563915293792,0.04003015455341866,0.01345127099328709,1.7366998296239284
11332,4.0,301.3264,4643.8862,0.0,0.0,0.0,0.0,0.0,0.11294388620385756,-0.7283715717196774,0.06429774573444344,-0.7475516159101003,0.026605238195232576,-0.02366930448722848,1.7167017177002681
11333,4.0,299.71702999999997,4388.1065,0.0,0.0,0.0,0.0,0.0,0.11295385301344138,-0.6925406873109443,0.08732565074937072,-0.7286597603131193,-0.03301615365119067,-0.013931025663885186,1.7144338613264485
11334,4.0,299.66302,4300.1004,0.0,0.0,0.0,0.0,0.0,0.1129638198230252,-0.6865919567688504,0.06507292157769734,-0.6856041189813584,-0.014281578787732088,0.004298288389508036,1.6870631390251685
11335,4.0,300.62417999999997,4649.7827,0.0,0.0,0.0,0.0,0.0,0.11297378663260901,-0.7078387474532453,0.025800267732788176,-0.7313793539790223,-0.0022634178317569482,0.04622843136989096,1.6910395377176086
11336,4.0,301.2545,4809.8969,0.0,0.0,0.0,0.0,0.0,0.11298375344219284,-0.7363228289644053,0.03337585439694037,-0.7591415657214393,0.0043462498737164654,0.022693420011166178,1.7136305566471683
11337,4.0,300.37332000000004,4575.2336,0.0,0.0,0.0,0.0,0.0,0.11299372025177666,-0.7047735139132303,0.03936600052362176,-0.7253492594538983,-0.013205513261032687,-0.013024732217940985,1.7203910626393786
11338,4.0,299.68956000000003,4245.1748,0.0,0.0,0.0,0.0,0.0,0.11300368706136048,-0.6696656341133523,0.1066250578280739,-0.7273865507674633,-0.005197473784675725,0.005071768356069565,1.7302317476105784
11339,4.0,299.89103,4297.1047,0.0,0.0,0.0,0.0,0.0,0.11301365387094431,-0.6659364076503064,0.08021841158619084,-0.7204945350447743,0.015508221385292287,0.01968319581908018,1.7253778743315382
11340,4.0,299.84085,4581.4696,0.0,0.0,0.0,0.0,0.0,0.11302362068052813,-0.7000588814629324,0.06992401956471343,-0.7625174820071162,-0.0033872996439254467,-0.02157737974152158,1.7418053942278087
11341,4.0,299.51465,4630.9641,0.0,0.0,0.0,0.0,0.0,0.11303358749011194,-0.7097284284922423,0.07891619876967243,-0.7768852164376012,-0.013622280252414387,-0.028639505970499173,1.7209024499648484
11342,4.0,299.00887,4383.4211,0.0,0.0,0.0,0.0,0.0,0.11304355429969576,-0.7086291635912533,0.09276444291363772,-0.7165858315915153,0.002699068663927338,-0.021744173880232878,1.7477968433941184
11343,4.0,300.42205,4259.9746,0.0,0.0,0.0,0.0,0.0,0.11305352110927958,-0.6963608124404613,0.1099580933695189,-0.7085231978957953,0.014904303047440186,-0.00989042075765853,1.7181986933980082
11344,4.0,300.15395,4572.838,0.0,0.0,0.0,0.0,0.0,0.1130634879188634,-0.7241419820922493,0.05467436339293954,-0.7205609333238273,-0.0006374491242688304,-0.018154280451687984,1.7314446079802785
11345,4.0,301.44239,4915.6528,0.0,0.0,0.0,0.0,0.0,0.11307345472844724,-0.7642815504312163,0.027240234940151875,-0.7571943928717684,0.005004910264121185,-0.0007126170018773223,1.6968318832392684
11346,4.0,299.70185,4789.8798,0.0,0.0,0.0,0.0,0.0,0.11308342153803105,-0.7499800724247703,0.048813116864479554,-0.7548369145266033,-0.014798556214003788,0.044191871622898164,1.7315961901952381
11347,4.0,299.59629,4330.5236,0.0,0.0,0.0,0.0,0.0,0.11309338834761487,-0.6700078694671284,0.053461276055217145,-0.6998244356547944,0.005861143987549874,0.05517198672905115,1.6952165599298485
11348,4.0,300.17400000000004,4397.8098,0.0,0.0,0.0,0.0,0.0,0.11310335515719869,-0.6790172333937833,0.07118914641432174,-0.7289962809363313,-0.014059280835042987,0.0017711893431527782,1.7475847701481884
11349,4.0,300.43634,4668.2419,0.0,0.0,0.0,0.0,0.0,0.1131133219667825,-0.7011534955459624,0.04394949307972726,-0.7618249660937703,0.0030923614875923173,-0.03307366066061617,1.7169441884491983
11350,4.0,298.58869,4641.8127,0.0,0.0,0.0,0.0,0.0,0.11312328877636633,-0.6992569244062853,0.054004231187552654,-0.7657424645578972,0.02120191383746598,-0.04401696945688666,1.7282020050102584
11351,4.0,299.40559,4382.3782,0.0,0.0,0.0,0.0,0.0,0.11313325558595017,-0.6595143879865024,0.06853826022444964,-0.7411574099615413,0.022598418695040277,-0.017484167498052983,1.6901434193291685
11352,4.0,299.18595,4179.573,0.0,0.0,0.0,0.0,0.0,0.11314322239553398,-0.6462475295246654,0.05445658960194695,-0.6786948881394704,0.000940428038228021,-0.023379011373328776,1.6957583447583182
11353,4.0,299.0274,4464.6990000000005,0.0,0.0,0.0,0.0,0.0,0.1131531892051178,-0.6841767130354843,0.050606827920255046,-0.7235871364699903,0.0017190952170864882,-0.005277491968922904,1.6850667323531383
11354,4.0,299.9177,4822.7335,0.0,0.0,0.0,0.0,0.0,0.11316315601470162,-0.7574169937862373,0.036071009483681464,-0.7446445811081983,0.005622516496249175,0.016600355032077484,1.6976151255665684
11355,4.0,300.40567999999996,4701.0275,0.0,0.0,0.0,0.0,0.0,0.11317312282428543,-0.7339892835866022,0.025443034251031973,-0.7204487158752524,0.008845758283358372,0.014959861576923385,1.6943908624233583
11356,4.0,299.77827,4453.9631,0.0,0.0,0.0,0.0,0.0,0.11318308963386926,-0.7078106297629703,0.06286562209610384,-0.7089485704202763,-0.011826302556165187,-0.028142842182232272,1.7284987859645484
11357,4.0,300.07306,4591.7453,0.0,0.0,0.0,0.0,0.0,0.11319305644345308,-0.7167643054641294,0.03274730496240737,-0.7117589208976364,-0.02114815787991068,-0.007199078835018764,1.7190659341585983
11358,4.0,300.36715,4984.2731,0.0,0.0,0.0,0.0,0.0,0.1132030232530369,-0.7607864354037752,0.02079007732107088,-0.7750982080312373,0.013744503545726885,0.0078086680297055336,1.7437020970899983
11359,4.0,301.02756,4796.295999999999,0.0,0.0,0.0,0.0,0.0,0.11321299006262073,-0.7241873756967294,0.04578985315685666,-0.7795566908562553,0.00976578623308306,0.01277015414356609,1.7382702659539184
11360,4.0,300.14237,4285.0167,0.0,0.0,0.0,0.0,0.0,0.11322295687220454,-0.6708978475599623,0.06601529280670214,-0.6976555130207384,-0.002034050534445158,0.004430686233699686,1.7332385672823283
11361,4.0,300.7351,4170.8649,0.0,0.0,0.0,0.0,0.0,0.11323292368178836,-0.6496930560922124,0.09573579883188771,-0.7138815380021223,-0.013467325941121587,-0.0022138947264943977,1.7173577971400185
11362,4.0,300.25591000000003,4444.3587,0.0,0.0,0.0,0.0,0.0,0.11324289049137218,-0.7145474358353413,0.059784501807770944,-0.6962111250031884,0.02955757338260537,0.0006882851078184514,1.7013912047142383
11363,4.0,300.61441,4689.9727,0.0,0.0,0.0,0.0,0.0,0.113252857300956,-0.7237711730856533,0.022811921636861375,-0.7246753366798874,0.023432724774379878,9.68281999766993e-05,1.6783631710165483
11364,4.0,299.83083,4561.6906,0.0,0.0,0.0,0.0,0.0,0.11326282411053983,-0.7113690830541624,0.04055601818306736,-0.7158269680616213,0.002486771287075218,-0.01255596523142729,1.6953439254674183
11365,4.0,299.25057999999996,4423.6644,0.0,0.0,0.0,0.0,0.0,0.11327279092012366,-0.6610866582991733,0.03518092702608717,-0.7187777854003443,-0.004772275235236896,-0.01156056251868869,1.7025885623574086
11366,4.0,298.56936,4534.6444,0.0,0.0,0.0,0.0,0.0,0.11328275772970747,-0.7127116799666663,0.05169664831706195,-0.7174036460122273,0.012092987955984989,0.024742369780381777,1.7229096984129482
11367,4.0,299.529,4896.759,0.0,0.0,0.0,0.0,0.0,0.11329272453929129,-0.7092624449037533,0.019162713560712582,-0.7983927366377283,0.016556298917729487,0.01901168964655768,1.7338028462630184
11368,4.0,300.16602,4743.9987,0.0,0.0,0.0,0.0,0.0,0.1133026913488751,-0.7239078402591413,0.031497940231354674,-0.7496472501644232,0.005935021673541035,-0.0024215109892095276,1.7286767126821083
11369,4.0,300.21595,4484.4577,0.0,0.0,0.0,0.0,0.0,0.11331265815845892,-0.6701675982128924,0.06030190581233474,-0.7532974633846713,-0.024100964228579977,0.02226487196087178,1.7473608418760884
11370,4.0,300.74456000000004,4307.4628,0.0,0.0,0.0,0.0,0.0,0.11332262496804274,-0.6926709203462973,0.07052577157385173,-0.6872159972404384,-0.004053004554325406,0.008520360714444132,1.7221404389370285
11371,4.0,300.45621,4538.1213,0.0,0.0,0.0,0.0,0.0,0.11333259177762657,-0.7000188986139863,0.06943929895537523,-0.7488959454802753,-0.012601002171872088,0.007660983382580192,1.7349321134994684
11372,4.0,300.83311000000003,4681.4314,0.0,0.0,0.0,0.0,0.0,0.11334255858721039,-0.7414325580261963,0.07494446305419263,-0.7565501380606853,-0.009154250888929221,-0.01949572023257778,1.7261908048867682
11373,4.0,299.3802,4548.5982,0.0,0.0,0.0,0.0,0.0,0.1133525253967942,-0.6922569063554374,0.043694398247801365,-0.7340977621423083,0.005544227625947666,-0.011882968568007688,1.7216952168430881
11374,4.0,299.88313,4626.1789,0.0,0.0,0.0,0.0,0.0,0.11336249220637803,-0.7395752199303913,0.05717424694690885,-0.7238418979426333,0.01235058247590759,4.372397501822036e-05,1.7104763090858683
11375,4.0,299.84664,4717.6309,0.0,0.0,0.0,0.0,0.0,0.11337245901596185,-0.7265856576234213,0.058050520832140344,-0.7655068636446453,0.014738970015373087,0.01860869171078488,1.7263960893570285
11376,4.0,299.47447,4747.4788,0.0,0.0,0.0,0.0,0.0,0.11338242582554567,-0.7427841829970914,0.044121635152466365,-0.7444524790217393,0.015796624787755485,0.005851930403065564,1.7229731278692086
11377,4.0,300.18252,4683.6074,0.0,0.0,0.0,0.0,0.0,0.11339239263512949,-0.7070457373949813,0.07020060036500984,-0.7868545537739983,-0.004976606845102855,0.018507690940816883,1.7470944584247983
11378,4.0,301.38555,4715.8047,0.0,0.0,0.0,0.0,0.0,0.1134023594447133,-0.7172567450127293,0.03224809082363877,-0.7484782128615484,-0.02018127714423698,0.0031284200189010173,1.7532166168540084
11379,4.0,300.51912000000004,4500.8917,0.0,0.0,0.0,0.0,0.0,0.11341232625429713,-0.6746106796363904,0.05616023082983325,-0.7497082579529443,-0.016506928306606983,0.009506903973608372,1.7247717481217182
11380,4.0,299.97274,4546.0322,0.0,0.0,0.0,0.0,0.0,0.11342229306388096,-0.6989385916223684,0.046493284813529955,-0.7294349675671263,-0.016530419496925384,0.014687415850285088,1.7286751928069584
11381,4.0,299.91821,4618.2117,0.0,0.0,0.0,0.0,0.0,0.11343225987346478,-0.6942271306448834,0.03418686079023047,-0.7437807651329463,-0.0054796024332446555,0.01091111885384359,1.6978705659167783
11382,4.0,300.11082999999996,4563.6771,0.0,0.0,0.0,0.0,0.0,0.1134422266830486,-0.7184185679748923,0.06109878040648014,-0.7299240836553983,-0.018751571120635982,0.000921234163173733,1.7047306743938182
11383,4.0,299.85963,4462.4998,0.0,0.0,0.0,0.0,0.0,0.11345219349263241,-0.7112040347453733,0.06863648164939334,-0.7139209736960143,0.005482347631740585,-0.014527695210521885,1.7197721694782986
11384,4.0,299.74594,4416.3918,0.0,0.0,0.0,0.0,0.0,0.11346216030221623,-0.7023115694827553,0.08325279267391092,-0.7234140429554072,0.026080769810971575,-0.02028565609003838,1.7254348189871584
11385,4.0,299.98433,4440.2333,0.0,0.0,0.0,0.0,0.0,0.11347212711180006,-0.6946624938153504,0.07787509543767353,-0.7329326663823222,0.04112472304019416,-0.0067637035055505635,1.7485772486211382
11386,4.0,299.99051000000003,4566.0526,0.0,0.0,0.0,0.0,0.0,0.11348209392138389,-0.7108395889494054,0.06534197291650064,-0.7424683529409213,0.01313423212974779,0.014314138566445487,1.7334253092757586
11387,4.0,299.23167,4850.5952,0.0,0.0,0.0,0.0,0.0,0.11349206073096771,-0.7572224497670373,0.04854689553320555,-0.7657842611245222,0.00878573304345934,0.03906322619499026,1.7436624790110884
11388,4.0,299.39418,4627.5351,0.0,0.0,0.0,0.0,0.0,0.11350202754055153,-0.7270484292090933,0.07219980360731583,-0.7518064861275233,-0.021790302091035378,0.019122952613538483,1.7304121061283784
11389,4.0,299.29675,4495.255999999999,0.0,0.0,0.0,0.0,0.0,0.11351199435013534,-0.7078299119123733,0.07071279626405964,-0.7293284749816162,-0.01891127453514748,-0.008286784477541952,1.7648338332255382
11390,4.0,300.07988,4709.6024,0.0,0.0,0.0,0.0,0.0,0.11352196115971916,-0.6957552637831984,0.047531707085764256,-0.7833779710908862,-0.030905038961839867,-0.04592915680710486,1.7265813114753086
11391,4.0,300.60263,4548.0014,0.0,0.0,0.0,0.0,0.0,0.11353192796930299,-0.7021816708199353,0.06893675223702773,-0.7492339454486333,-0.006193268321227994,-0.034454233173618065,1.7477131489358582
11392,4.0,300.13809,4307.0224,0.0,0.0,0.0,0.0,0.0,0.1135418947788868,-0.6719211794984573,0.05831560732330235,-0.6956216870225153,-0.0011820413546583988,0.006457139216245024,1.7048248053281085
11393,4.0,301.00951000000003,4364.7833,0.0,0.0,0.0,0.0,0.0,0.11355186158847062,-0.6855854245170133,0.08760889366907461,-0.7288086168853103,0.010248612368709291,0.008193738024833983,1.7206370797636585
11394,4.0,301.71826,4651.1119,0.0,0.0,0.0,0.0,0.0,0.11356182839805445,-0.7265243559923713,0.024132430710435478,-0.7114299591201704,0.01950705039519598,0.017494154091038584,1.6899424918343382
11395,4.0,300.93585,4782.5577,0.0,0.0,0.0,0.0,0.0,0.11357179520763827,-0.7508573950238553,0.049452812050112545,-0.7523735312809863,0.009315417639235142,0.004476875340833196,1.7130000111099382
11396,4.0,299.19254,4730.8677,0.0,0.0,0.0,0.0,0.0,0.11358176201722209,-0.7235501325763383,0.04718361311991005,-0.7616991406963523,0.006606041080715494,0.005080711200127155,1.7133826143476985
11397,4.0,299.34691000000004,4637.5070000000005,0.0,0.0,0.0,0.0,0.0,0.1135917288268059,-0.6991409174023363,0.052874551558311944,-0.7634199737386852,-0.00918839326297381,-0.011455979909617189,1.745839953475988
11398,4.0,299.392,4470.1787,0.0,0.0,0.0,0.0,0.0,0.11360169563638972,-0.6970560438640753,0.07658029353238652,-0.7383469581591713,0.007814282955134682,0.004242378566215166,1.7212923486033282
11399,4.0,300.02353,4571.3042,0.0,0.0,0.0,0.0,0.0,0.11361166244597355,-0.6851397363280274,0.05955641819701085,-0.7639789939513563,0.01858356006855458,-0.009493816835316771,1.7358506247151182
11400,4.0,299.56341000000003,4612.3108,0.0,0.0,0.0,0.0,0.0,0.11362162925555738,-0.7357986037601683,0.06586146826927085,-0.7320901691891742,-0.002379600330623268,0.0031471038441199667,1.7306908512308883
11401,4.0,300.35576000000003,4548.0056,0.0,0.0,0.0,0.0,0.0,0.1136315960651412,-0.6926965353088254,0.046687641381461455,-0.7364712498390532,-0.015077576920540986,-0.013111021609707089,1.7426069763819183
11402,4.0,300.37441,4605.2912,0.0,0.0,0.0,0.0,0.0,0.11364156287472502,-0.7167938417045443,0.036729502485169666,-0.7198291944991103,-0.001001444895337416,-0.016907284699369085,1.7159746094285087
11403,4.0,300.236,4917.48,0.0,0.0,0.0,0.0,0.0,0.11365152968430883,-0.7356102506990794,0.01971837079630168,-0.7788992536613712,0.0003963717968763506,0.0021951487890443182,1.7367359013274883
11404,4.0,300.04918,4734.4977,0.0,0.0,0.0,0.0,0.0,0.11366149649389265,-0.7537439723062382,0.06185501252586444,-0.7472801256783064,0.012396826197221489,0.024994975056811974,1.7079630435378284
11405,4.0,300.38308,4632.0947,0.0,0.0,0.0,0.0,0.0,0.11367146330347648,-0.7168701191720723,0.05546964718442795,-0.7466406635401963,0.010966955013854189,0.027188845934830178,1.7293523478487884
11406,4.0,300.06466,4627.4939,0.0,0.0,0.0,0.0,0.0,0.11368143011306031,-0.7482469182612212,0.08692641501121923,-0.7453221110525653,0.013723597156413588,0.028232057840287178,1.6988277832862484
11407,4.0,299.82407,4535.7928,0.0,0.0,0.0,0.0,0.0,0.11369139692264413,-0.7200043550438973,0.07490828698587233,-0.7336716803427573,0.004256285525162676,-0.01083372883770579,1.7324157068761183
11408,4.0,299.30283,4421.7795,0.0,0.0,0.0,0.0,0.0,0.11370136373222794,-0.6786167969542634,0.05776014564498254,-0.7232538987771023,0.026541800632971776,-0.022003236599550377,1.7280543744706882
11409,4.0,299.66382999999996,4331.292,0.0,0.0,0.0,0.0,0.0,0.11371133054181176,-0.6784433690671473,0.0943660376974528,-0.7325272751498133,-0.011612684103832687,-0.02127522349545108,1.7566112073390285
11410,4.0,300.19706,4489.5615,0.0,0.0,0.0,0.0,0.0,0.11372129735139558,-0.6762615781568214,0.027978637910776573,-0.7164316655888003,0.006563326306849875,-0.017467067889365383,1.7069359119114584
11411,4.0,300.2067,4722.3162,0.0,0.0,0.0,0.0,0.0,0.11373126416097941,-0.6975206089024244,0.016952134188545385,-0.7548977297976053,-0.007112638874287803,-0.00011756119787988687,1.7301637585288683
11412,4.0,300.75516,4919.9337,0.0,0.0,0.0,0.0,0.0,0.11374123097056323,-0.7337984784602714,0.016528563222742185,-0.7782670970564822,-0.029862986214497268,0.04297865053616256,1.7025919060827381
11413,4.0,300.96215,4838.3867,0.0,0.0,0.0,0.0,0.0,0.11375119778014704,-0.7210255490246813,0.014884787850514185,-0.7646079790834324,-0.005362883215800365,0.002020269927785118,1.7097167768109085
11414,4.0,301.34064,4621.713,0.0,0.0,0.0,0.0,0.0,0.11376116458973087,-0.7135503268094343,0.03677447559085817,-0.7281095047138133,-0.012894193181057789,-0.002920208877052177,1.7188507198373584
11415,4.0,300.4807,4610.3973,0.0,0.0,0.0,0.0,0.0,0.11377113139931469,-0.7418605346034343,0.05896181264082785,-0.7185469264975602,0.03278719357909407,-0.0027981871191845673,1.7205816549831883
11416,4.0,299.95196,4584.8564,0.0,0.0,0.0,0.0,0.0,0.1137810982088985,-0.7251318666449432,0.08585013872849902,-0.7544001429384973,0.013585337153768388,-0.01996821800595968,1.7587312305232585
11417,4.0,299.20207999999997,4475.5423,0.0,0.0,0.0,0.0,0.0,0.11379106501848232,-0.6982462378290384,0.07580472353484373,-0.7380115825085722,0.023652862477855776,-0.0010752574597446489,1.7309226828537685
11418,4.0,299.48314,4493.1077,0.0,0.0,0.0,0.0,0.0,0.11380103182806614,-0.7049193206026203,0.08820641333254522,-0.7490796477234053,-0.016573104683888087,0.003797537049012726,1.7388252230336882
11419,4.0,298.85256,4551.5628,0.0,0.0,0.0,0.0,0.0,0.11381099863764997,-0.7091504706352023,0.06946732241339093,-0.7438782803225703,-0.00966241962545657,0.006353123115304434,1.7189058406427982
11420,4.0,300.83664,4673.1397,0.0,0.0,0.0,0.0,0.0,0.1138209654472338,-0.7145160250822413,0.04257530809535576,-0.7485770554088033,-0.02801780306689187,0.012342921291901489,1.7260652631993785
11421,4.0,300.34826,4790.6335,0.0,0.0,0.0,0.0,0.0,0.11383093225681762,-0.7294608054446763,0.024873058778279774,-0.7516452071091063,0.004019585134227166,-0.0023752746646213577,1.725956440138638
11422,4.0,300.37966,4763.0551,0.0,0.0,0.0,0.0,0.0,0.11384089906640144,-0.6886118100481943,0.0014123285817359786,-0.7606503356503432,0.0033078755282118974,-0.01146013727477749,1.7255283419713883
11423,4.0,299.55492000000004,4483.2435,0.0,0.0,0.0,0.0,0.0,0.11385086587598525,-0.6894615114495534,0.04678326179339846,-0.7201158328198993,0.004746372914980535,-0.010891162893124091,1.725856938978818
11424,4.0,301.11528,4463.9293,0.0,0.0,0.0,0.0,0.0,0.11386083268556907,-0.6784397922942944,0.07842083903428423,-0.7569040967181182,0.016468807811344785,-0.004600399241974055,1.7299042651782583
11425,4.0,300.99269,4492.0873,0.0,0.0,0.0,0.0,0.0,0.11387079949515289,-0.6933180527876643,0.07126321803638203,-0.7434275360155853,-0.01034420339639339,0.012996585143413088,1.7079325447098184
11426,4.0,300.97087999999997,4538.8662,0.0,0.0,0.0,0.0,0.0,0.11388076630473672,-0.7079327061350184,0.07124341102342722,-0.7430127012921443,0.00963158683021361,0.0038373564607175957,1.7205712185071584
11427,4.0,300.31762000000003,4391.0287,0.0,0.0,0.0,0.0,0.0,0.11389073311432053,-0.7251122298580053,0.09432583801298541,-0.7039766940345903,0.005360352117050564,-0.003159919634034787,1.7213318653572285
11428,4.0,299.94307000000003,4576.9895,0.0,0.0,0.0,0.0,0.0,0.11390069992390435,-0.7066982027431823,0.06501488869146993,-0.7496072166529723,0.0047698126321938554,-0.012605596247825488,1.7383197125587984
11429,4.0,299.71502999999996,4757.4323,0.0,0.0,0.0,0.0,0.0,0.11391066673348818,-0.7218170898703004,0.061927537928272144,-0.7862510822794402,0.015772241937349083,-0.008431044440654302,1.7464728294884484
11430,4.0,300.16967999999997,4957.907,0.0,0.0,0.0,0.0,0.0,0.113920633543072,-0.7205444781422033,0.011999975649805388,-0.7985354225168102,0.0029384572073781474,0.008583989375673793,1.7564754318256286
11431,4.0,299.78405,5035.8447,0.0,0.0,0.0,0.0,0.0,0.11393060035265581,-0.7243613304738973,-0.01069160227267899,-0.7957181211437643,-0.015237907536864385,0.021352585140586078,1.7174157550457385
11432,4.0,299.9683,4662.6334,0.0,0.0,0.0,0.0,0.0,0.11394056716223963,-0.7372981227156593,0.07498897107808523,-0.7550149729666763,-0.01866206364655228,0.0007871830291914163,1.7621102169567382
11433,4.0,300.27483,4418.8933,0.0,0.0,0.0,0.0,0.0,0.11395053397182345,-0.7207715373571123,0.059952335541084846,-0.6824140327640213,-0.01968964008971618,0.011599697277300989,1.7320000716850983
11434,4.0,300.20862,4478.2742,0.0,0.0,0.0,0.0,0.0,0.11396050078140728,-0.7235728192460773,0.1037606808553819,-0.7414714161675313,-0.001803808700972058,0.015117982294778684,1.7804985784465286
11435,4.0,299.92681,4559.5426,0.0,0.0,0.0,0.0,0.0,0.11397046759099111,-0.7239928114125274,0.09671664519368971,-0.7587109141639372,-0.006991679103850003,-0.01219095201540329,1.7438871165582583
11436,4.0,300.6787,4536.8823,0.0,0.0,0.0,0.0,0.0,0.11398043440057493,-0.6886490976518743,0.07573365518607983,-0.7661834816639224,0.01263860590958329,-0.0035702211778533967,1.7632437398436085
11437,4.0,300.55705,4613.4296,0.0,0.0,0.0,0.0,0.0,0.11399040121015874,-0.6825787669652794,0.08552038154970451,-0.8053090197003122,0.016015951891151382,0.00040128083149083463,1.7056252729071084
11438,4.0,299.80676,4810.9709,0.0,0.0,0.0,0.0,0.0,0.11400036801974256,-0.7492202767047843,0.036628113640413365,-0.7498228464067533,0.028000301197914572,0.0012829473857420488,1.714635194121318
11439,4.0,300.09427,4803.8034,0.0,0.0,0.0,0.0,0.0,0.11401033482932638,-0.7446555951367854,0.028100819660834976,-0.7436815172856512,0.005853614728706795,-0.014112621360057287,1.7131995200546284
11440,4.0,301.44158,4647.8297,0.0,0.0,0.0,0.0,0.0,0.11402030163891021,-0.7258686919851624,0.05575796750038295,-0.7427134581401112,0.0019099503979724281,-0.01981788310187278,1.7195340557047982
11441,4.0,300.78952999999996,4517.7155,0.0,0.0,0.0,0.0,0.0,0.11403026844849404,-0.7040622528730344,0.05435709148187724,-0.7235675503455573,-0.01147729869172119,0.007922318213921932,1.7546551280209786
11442,4.0,299.47104,4444.6553,0.0,0.0,0.0,0.0,0.0,0.11404023525807785,-0.6514357753367054,0.06911709352957604,-0.7687455352042774,-0.028614096697741474,-0.0061673882924738336,1.7447690494452983
11443,4.0,299.57846,4561.1737,0.0,0.0,0.0,0.0,0.0,0.11405020206766167,-0.6912932041853274,0.06068173679782114,-0.7558714530112043,-0.03158251824370187,0.0034740236186594367,1.7657971300956086
11444,4.0,299.65401,4685.7285,0.0,0.0,0.0,0.0,0.0,0.11406016887724549,-0.7345004783945532,0.05761075407673875,-0.7474547492005403,-0.010535154430738792,-0.011810336774339488,1.7409815205714985
11445,4.0,300.19753,4768.1935,0.0,0.0,0.0,0.0,0.0,0.1140701356868293,-0.7557520212219172,0.06065465566239845,-0.7543144118475363,0.02326149665323098,0.015798178100158787,1.7331019811688482
11446,4.0,299.61365,4822.1825,0.0,0.0,0.0,0.0,0.0,0.11408010249641314,-0.7547751974630122,0.021122750633653178,-0.7321706111146133,0.029604219364208973,0.017474455495844483,1.7147296290306382
11447,4.0,300.33173,4697.1543,0.0,0.0,0.0,0.0,0.0,0.11409006930599695,-0.7384753673443444,0.06856930114126314,-0.7579115408950453,0.028086279521899973,-0.0022969446563657877,1.7177498236037083
11448,4.0,300.85343,4585.1549,0.0,0.0,0.0,0.0,0.0,0.11410003611558077,-0.6805605754160993,0.06000781301056004,-0.7732198449958573,0.007319915596894423,-0.04744093406230566,1.7255817402516584
11449,4.0,301.87347,4415.0157,0.0,0.0,0.0,0.0,0.0,0.1141100029251646,-0.6669657481618944,0.03936832795910146,-0.7144571045889263,-0.014484204489729686,-0.027340766575323572,1.7160561760615587
11450,4.0,300.02665,4371.0152,0.0,0.0,0.0,0.0,0.0,0.11411996973474842,-0.6909199228484874,0.1013267426576709,-0.7390862963596383,-0.016523138281706786,-0.0032353515443543372,1.7639737865406586
11451,4.0,299.77441,4549.3017,0.0,0.0,0.0,0.0,0.0,0.11412993654433223,-0.6966131623778663,0.04656312206342236,-0.7328240763691053,-0.042826696458415865,-0.010855494463103889,1.7267494096668983
11452,4.0,299.53923,4484.9342,0.0,0.0,0.0,0.0,0.0,0.11413990335391605,-0.7318107857391013,0.08569814310749822,-0.7171953724541723,0.0016175704954917785,-0.0010308774093396788,1.7673508477989484
11453,4.0,299.22404,4583.2589,0.0,0.0,0.0,0.0,0.0,0.11414987016349987,-0.7005637535902594,0.05229160648427975,-0.7449241064132853,0.004806711755785516,0.018519423363724783,1.7336391050468585
11454,4.0,299.57824,4747.4864,0.0,0.0,0.0,0.0,0.0,0.1141598369730837,-0.7075980397594894,0.01958076433997098,-0.7551000353125713,0.01978002199863618,-2.126719450165868e-05,1.7294216541556287
11455,4.0,300.35481,4663.6856,0.0,0.0,0.0,0.0,0.0,0.11416980378266753,-0.7136742067666604,0.03682922250701126,-0.7407989930036682,0.005311344350788875,-0.003774269179016366,1.7227953024766585
11456,4.0,300.15446000000003,4546.343,0.0,0.0,0.0,0.0,0.0,0.11417977059225135,-0.7063201996608763,0.05108418422786645,-0.7267387293160283,-0.008560152464421272,-0.02096214340005248,1.702190152418088
11457,4.0,300.49827999999997,4533.5373,0.0,0.0,0.0,0.0,0.0,0.11418973740183516,-0.7059700001613144,0.025847618936461373,-0.6979597514957644,0.006997969563120823,0.01943755866358768,1.7008444549602786
11458,4.0,300.22854,4481.7166,0.0,0.0,0.0,0.0,0.0,0.11419970421141898,-0.7287800330999893,0.07629360454909252,-0.7098435134386003,-0.007360130378788313,0.010080053148323791,1.7305740234943585
11459,4.0,300.04188,4607.5294,0.0,0.0,0.0,0.0,0.0,0.1142096710210028,-0.7064596127421353,0.03380827002286647,-0.7279225398053613,-0.015537705949952184,-0.0015718226587768185,1.7111734251546684
11460,4.0,301.16112999999996,4735.5426,0.0,0.0,0.0,0.0,0.0,0.11421963783058663,-0.6935783972683583,0.05274322623935115,-0.7986515308457691,0.013120339457626688,-0.03544333043098436,1.7289534312844184
11461,4.0,300.40407999999996,4711.0477,0.0,0.0,0.0,0.0,0.0,0.11422960464017046,-0.7107091431315313,0.041178711032022364,-0.7625104297864203,0.010104709069632142,-0.024565742049449977,1.7381003439121483
11462,4.0,299.63895,4764.5235,0.0,0.0,0.0,0.0,0.0,0.11423957144975427,-0.6704769738659253,-0.00016020303800330884,-0.7776589950089673,0.03577954201291586,-0.018063690826497485,1.7421886054156286
11463,4.0,301.01302000000004,4663.9721,0.0,0.0,0.0,0.0,0.0,0.11424953825933809,-0.7226850703034633,0.07000662883211634,-0.7650526033598133,-0.013187337580738886,0.007337282804933433,1.7482474357135884
11464,4.0,300.93789,4729.8127,0.0,0.0,0.0,0.0,0.0,0.11425950506892191,-0.7278838133865394,0.03428888798254976,-0.7441500441318912,-0.005105486279647266,0.023821031596952775,1.759479211747078
11465,4.0,300.05022,4539.6821,0.0,0.0,0.0,0.0,0.0,0.11426947187850572,-0.7072407677742294,0.05898113228048454,-0.7316903609647163,-0.035261762092564965,0.014659762228555886,1.7137674467356783
11466,4.0,299.59503,4424.9029,0.0,0.0,0.0,0.0,0.0,0.11427943868808955,-0.6975364054714833,0.08986888924861883,-0.7373924664324703,-0.021553436641658583,0.02191227308507298,1.7240965182550785
11467,4.0,299.65952000000004,4632.9597,0.0,0.0,0.0,0.0,0.0,0.11428940549767337,-0.7367985397538543,0.05117335732941715,-0.7226788894778533,-0.02919785541160397,-0.00814160600321395,1.7133018583147286
11468,4.0,299.30707,4596.1317,0.0,0.0,0.0,0.0,0.0,0.11429937230725719,-0.7110716434873073,0.09130795770314382,-0.7773455866205363,0.013037831515233788,0.0006905912042510454,1.7636046595292283
11469,4.0,299.05577999999997,4538.5543,0.0,0.0,0.0,0.0,0.0,0.11430933911684102,-0.7026810713967223,0.05397346080851585,-0.7308995699241713,0.018147413655760284,0.014741129251336187,1.7468580671764684
11470,4.0,299.82383,4592.9529999999995,0.0,0.0,0.0,0.0,0.0,0.11431930592642484,-0.7071857178962964,0.049072877713115956,-0.7380301959129093,0.034798026906047864,-0.005635959082675854,1.7573040677574085
11471,4.0,300.58962,4755.2882,0.0,0.0,0.0,0.0,0.0,0.11432927273600865,-0.7226405176965662,0.04039697642087116,-0.7632453299514493,0.00952515980198508,0.0006860826162085823,1.7215537671291283
11472,4.0,301.12207,4802.779,0.0,0.0,0.0,0.0,0.0,0.11433923954559247,-0.7311446345933573,0.020353429349477082,-0.7491336843512383,0.0033588157650643064,-0.005530986980265915,1.7169926218039784
11473,4.0,300.78047000000004,4613.3356,0.0,0.0,0.0,0.0,0.0,0.11434920635517629,-0.7192001688370303,0.05198239396451285,-0.7351210738158014,-0.007904614201549682,-0.0022593646287069275,1.7300430804419584
11474,4.0,299.71429,4350.1889,0.0,0.0,0.0,0.0,0.0,0.11435917316476012,-0.6492198176330074,0.06014404955275554,-0.7332730170909123,-0.02024245617202488,-0.01004044155421443,1.7342663068587583
11475,4.0,300.71436,4590.3477,0.0,0.0,0.0,0.0,0.0,0.11436913997434393,-0.6975802589358113,0.044230312305191956,-0.7420011331873103,-0.006484445495839943,0.002232106985116808,1.7724152744487685
11476,4.0,299.62588,4877.2985,0.0,0.0,0.0,0.0,0.0,0.11437910678392776,-0.7314476470357623,0.07609154424065072,-0.8272208570878422,0.009580361363458051,0.028224757373316672,1.7606422202118586
11477,4.0,299.34612000000004,4831.2811,0.0,0.0,0.0,0.0,0.0,0.11438907359351158,-0.7398439743869153,0.03250485447847937,-0.7612496832169943,-0.002015826319471568,0.03334518534291357,1.7410894317071484
11478,4.0,299.80081,4771.7411,0.0,0.0,0.0,0.0,0.0,0.1143990404030954,-0.7470901615495583,0.05080388277320286,-0.7542038763941273,0.02123075093531198,-0.013380738653826088,1.7104011259284484
11479,4.0,300.45799,4775.5668,0.0,0.0,0.0,0.0,0.0,0.11440900721267921,-0.7748334964426122,0.06389149729234984,-0.7407110530274893,-0.002918614831994857,-0.015322096461173185,1.7400429470038683
11480,4.0,299.31671,4864.048,0.0,0.0,0.0,0.0,0.0,0.11441897402226303,-0.7622963705702942,0.03401281887355387,-0.7502655860379482,0.0016178725453465884,-0.026687124002064078,1.7374501413229781
11481,4.0,299.7017,4672.9191,0.0,0.0,0.0,0.0,0.0,0.11442894083184685,-0.7310426003082873,0.08960645341971842,-0.7790145817877533,0.013950770868583887,-0.013372446215007685,1.7767258430241881
11482,4.0,298.71546,4374.648,0.0,0.0,0.0,0.0,0.0,0.11443890764143068,-0.6408121317482334,0.04186026459253646,-0.7308318848174913,-0.019462030680002882,-0.00935096691104358,1.7543526728661285
11483,4.0,299.37177,4457.2945,0.0,0.0,0.0,0.0,0.0,0.1144488744510145,-0.6540950502241554,0.05143294693878665,-0.7522441189782143,-0.0013167311705762487,-0.013900932135915187,1.7313585830467884
11484,4.0,299.76907,4800.9972,0.0,0.0,0.0,0.0,0.0,0.11445884126059833,-0.7437906949839264,0.05593419601077535,-0.7715267648737633,0.002316401490086028,0.000984871416764241,1.7274416621352184
11485,4.0,299.8565,4801.5233,0.0,0.0,0.0,0.0,0.0,0.11446880807018214,-0.7363008819672393,0.006024429241164874,-0.7292667477855242,0.019030545217668584,0.028873039853547174,1.7121293252990086
11486,4.0,301.02139,4418.2725,0.0,0.0,0.0,0.0,0.0,0.11447877487976596,-0.7023418048657394,0.08223423213013682,-0.7229369541458223,0.01045885467170859,-0.004649881209282545,1.7572623218532881
11487,4.0,300.72215,4264.0536,0.0,0.0,0.0,0.0,0.0,0.11448874168934978,-0.6657864061055023,0.08549077438178251,-0.7158701831783864,0.005525270324526725,-0.008001568253268303,1.7717416657822882
11488,4.0,299.61127999999997,4567.0326,0.0,0.0,0.0,0.0,0.0,0.1144987084989336,-0.6842128759315533,0.07922042913869763,-0.7832714278428712,0.011096731073412091,0.007007936499054483,1.7660392968695084
11489,4.0,299.61782,4998.6697,0.0,0.0,0.0,0.0,0.0,0.11450867530851742,-0.7635721639037053,0.06048615825026904,-0.8163847653509032,0.0030551329563931473,-0.005654715659251985,1.7598697183356182
11490,4.0,299.56722,4780.8192,0.0,0.0,0.0,0.0,0.0,0.11451864211810125,-0.7409896056124803,0.030508276567182472,-0.7427683357655274,-0.017746139258407585,-0.009052344881321882,1.7180456926329084
11491,4.0,300.46312,4452.5735,0.0,0.0,0.0,0.0,0.0,0.11452860892768507,-0.7324891566810513,0.09748804364057082,-0.7184700613449744,-0.015578478120726087,-0.03346229070997097,1.7247721534217584
11492,4.0,300.24542,4605.1509,0.0,0.0,0.0,0.0,0.0,0.11453857573726889,-0.7279552272535873,0.07310237538564274,-0.7449980432730823,0.02060196642675578,0.005091679733784665,1.7514064455503584
11493,4.0,300.83276,4676.0252,0.0,0.0,0.0,0.0,0.0,0.1145485425468527,-0.7335109079493902,0.06497184076097144,-0.7528558180635843,0.005632454250579955,0.02211326745440958,1.7892198247072482
11494,4.0,300.57276,4541.3539,0.0,0.0,0.0,0.0,0.0,0.11455850935643652,-0.6549652091450333,0.07020832842352252,-0.7957013113246053,0.01983013329558178,-0.004630397017809606,1.7710222582112884
11495,4.0,300.2566,4267.8391,0.0,0.0,0.0,0.0,0.0,0.11456847616602035,-0.6486465105939264,0.06752625135582214,-0.7161962470605663,-0.012761780644739687,-0.01831660717070838,1.7869137688046584
11496,4.0,298.81425,4359.7537,0.0,0.0,0.0,0.0,0.0,0.11457844297560418,-0.6833646336103384,0.07942966832409792,-0.7213212863313684,0.0011893234818020888,-0.004308157040181996,1.7278477727752983
11497,4.0,299.06408999999996,4913.0826,0.0,0.0,0.0,0.0,0.0,0.114588409785188,-0.7694890783926592,0.043838525981775664,-0.7678038813563433,-0.007285334890856573,0.004531688726192856,1.7394874832990481
11498,4.0,298.94122999999996,5163.3536,0.0,0.0,0.0,0.0,0.0,0.11459837659477182,-0.8042326441190822,-0.012194431516246688,-0.7531034969180282,-0.016940997556696286,-0.01030148173242709,1.7246920053388481
11499,4.0,300.25669,4812.259,0.0,0.0,0.0,0.0,0.0,0.11460834340435563,-0.7597378127427843,0.08322263632443472,-0.7862914096334203,0.00993810461133956,-0.028195123860892072,1.7731729828735483
11500,4.0,300.49737999999996,4510.646,0.0,0.0,0.0,0.0,0.0,0.11461831021393945,-0.6559972550343884,0.05924626842090144,-0.7743727614896413,-0.001058496580565479,0.003582381192303497,1.7452439597671683
11501,4.0,300.50662,4512.0461,0.0,0.0,0.0,0.0,0.0,0.11462827702352328,-0.6816535379014663,0.05107472959118335,-0.7409705261130973,0.01769820644917698,-0.0003345161510691737,1.7504660481325485
11502,4.0,300.93852999999996,4702.8902,0.0,0.0,0.0,0.0,0.0,0.1146382438331071,-0.7136906315507813,0.057265084818373856,-0.7731356439125472,-0.005272769210206805,-0.014111441936940885,1.7211301272623183
11503,4.0,300.69603,4611.6317,0.0,0.0,0.0,0.0,0.0,0.11464821064269091,-0.7210847228305213,0.05067996329922295,-0.7314161349576523,-0.014819690584589587,0.016655679500787585,1.7124160750773083
11504,4.0,299.0837,4342.1265,0.0,0.0,0.0,0.0,0.0,0.11465817745227475,-0.7033991718750934,0.09546905567681221,-0.7119679138632623,0.006440001813328693,0.04105520395083317,1.7502587371620881
11505,4.0,299.303,4492.8461,0.0,0.0,0.0,0.0,0.0,0.11466814426185856,-0.7118472053788494,0.07004218479137543,-0.7239080023791573,0.0003918669679917586,0.0035893198276632865,1.7543248084883782
11506,4.0,299.293,4698.2059,0.0,0.0,0.0,0.0,0.0,0.11467811107144238,-0.6807292106302424,0.006581007622419884,-0.7539890775054283,0.0011607939053614388,0.0005319866493404946,1.7485229384157785
11507,4.0,299.32445,4866.502,0.0,0.0,0.0,0.0,0.0,0.1146880778810262,-0.7312870570274133,0.050747561266394355,-0.7987556118960412,0.014540901912325287,-0.013661631846548087,1.7696658203024183
11508,4.0,299.61584,5005.0091,0.0,0.0,0.0,0.0,0.0,0.11469804469061001,-0.7343552897877244,-0.003971148435721837,-0.7830713616106263,0.025046631560160078,0.006470847071547884,1.7146129026191184
11509,4.0,300.4238,4844.5029,0.0,0.0,0.0,0.0,0.0,0.11470801150019384,-0.7791960244831603,0.04300099979361826,-0.7364128765007923,0.0097584051114046,-0.01045473986305249,1.7442595872950184
11510,4.0,300.10378,4602.1657,0.0,0.0,0.0,0.0,0.0,0.11471797830977767,-0.7528243667804803,0.07866814298619122,-0.7247872197559294,-0.026662754323908973,-0.009073851925294462,1.7268713036539283
11511,4.0,301.01794,4682.8809,0.0,0.0,0.0,0.0,0.0,0.11472794511936149,-0.7340014628528043,0.05903339977364294,-0.7485107888522632,-0.017339477410273182,-0.008127055529127932,1.768091432297038
11512,4.0,299.42101,4637.1477,0.0,0.0,0.0,0.0,0.0,0.11473791192894531,-0.6859689295473623,0.06641685496708324,-0.7900250437344013,-0.013954764087227987,0.026450785442739273,1.7526453464476281
11513,4.0,300.2318,4489.0502,0.0,0.0,0.0,0.0,0.0,0.11474787873852912,-0.6793139130230634,0.07180904573275103,-0.7570543009129422,-0.00037695657733771763,0.000976933858660865,1.7613793596596083
11514,4.0,300.80284,4493.7895,0.0,0.0,0.0,0.0,0.0,0.11475784554811294,-0.6400072970613023,0.02122022326677298,-0.7472127344141554,-0.009576904660741901,0.005205467618689654,1.6999228026693185
11515,4.0,301.62065,4762.3306,0.0,0.0,0.0,0.0,0.0,0.11476781235769677,-0.7339366655089092,0.057052080395601945,-0.7707450221566112,0.0038429840517729967,0.013592090465684886,1.7491686827045085
11516,4.0,300.3216,4917.0788,0.0,0.0,0.0,0.0,0.0,0.1147777791672806,-0.7486710748855823,-0.0018010806264028183,-0.7441970184065273,0.015219248536272883,0.015366816254336686,1.7328419811931883
11517,4.0,300.97441000000003,4847.5248,0.0,0.0,0.0,0.0,0.0,0.11478774597686442,-0.7468639433322323,0.04276197105527796,-0.7694245140962873,0.01891051865057288,-0.006393183984508134,1.7434890105939684
11518,4.0,300.66445,4608.736,0.0,0.0,0.0,0.0,0.0,0.11479771278644824,-0.7160136492600453,0.06983481505240963,-0.7547618428266942,-0.0002507215634342918,-0.014786591756822986,1.7603515187581682
11519,4.0,300.87278,4558.7667,0.0,0.0,0.0,0.0,0.0,0.11480767959603205,-0.7060284748245853,0.05787359520567914,-0.7375963424850913,0.0005810050547282344,-0.03589609819841907,1.7566207318899683
11520,4.0,299.8724,4676.5616,0.0,0.0,0.0,0.0,0.0,0.11481764640561587,-0.7024210714210624,0.07939658064208242,-0.7985334568116162,-0.003820722136475916,-0.013345919327389686,1.7458133049983582
11521,4.0,299.78039,4849.8007,0.0,0.0,0.0,0.0,0.0,0.1148276132151997,-0.7760982453499333,0.04032284907005536,-0.7384429230761423,-0.013925516623091485,-0.019927576544448683,1.7492554169130683
11522,4.0,299.60385,4625.7746,0.0,0.0,0.0,0.0,0.0,0.11483758002478352,-0.7477078996055243,0.07079342462751703,-0.7292054968169793,0.0023497001307723475,0.013754012897915386,1.7267982483217181
11523,4.0,300.08266000000003,4478.4428,0.0,0.0,0.0,0.0,0.0,0.11484754683436733,-0.7138113400351943,0.07927255882984242,-0.7267959982116803,0.0069926280125686534,0.008967663821439511,1.7582721269029482
11524,4.0,300.07886,4550.6441,0.0,0.0,0.0,0.0,0.0,0.11485751364395116,-0.6802050158235083,0.027224816313380175,-0.7303019651476923,0.01296697290924059,0.02402136938022458,1.7382846541053383
11525,4.0,300.13282999999996,4865.6447,0.0,0.0,0.0,0.0,0.0,0.11486748045353498,-0.7413699999650223,0.05402386594799045,-0.7916883545685572,0.002277748329246258,-0.0014296495855704286,1.7568837716159285
11526,4.0,300.37214,4814.6919,0.0,0.0,0.0,0.0,0.0,0.1148774472631188,-0.6921492687973143,0.008493160116834642,-0.7798900096091513,-0.009221387928630132,-0.003894414499023786,1.7177165890004285
11527,4.0,300.56273999999996,4506.8279,0.0,0.0,0.0,0.0,0.0,0.11488741407270261,-0.6976680367919743,0.06302649885423114,-0.7353216061430923,-0.017058204248763684,-0.005381928973955035,1.7790575341543085
11528,4.0,300.81981,4585.3186,0.0,0.0,0.0,0.0,0.0,0.11489738088228643,-0.6755559507871813,0.05209880525525175,-0.7703652154891273,-0.022525829457876276,0.0032651887200490365,1.7279571024610885
11529,4.0,301.46079,4835.4274,0.0,0.0,0.0,0.0,0.0,0.11490734769187026,-0.7468772777035483,0.013074928627894987,-0.7360468196371652,0.000959844848569311,-0.024262563434028578,1.7481207794510885
11530,4.0,301.24397999999997,4779.7618,0.0,0.0,0.0,0.0,0.0,0.11491731450145408,-0.7200051453789753,0.018258930948516182,-0.7511820099583922,0.01143832503987479,-0.027257889809894274,1.6912877839921083
11531,4.0,300.16434,4498.6909,0.0,0.0,0.0,0.0,0.0,0.1149272813110379,-0.7022125242854803,0.053788332922495144,-0.7190655180312413,0.03264511463682197,-0.01128486121947909,1.7332978424131782
11532,4.0,300.04458999999997,4425.5072,0.0,0.0,0.0,0.0,0.0,0.11493724812062173,-0.6498743670651064,0.04398537023926805,-0.7393546860461263,0.02259067543777608,0.001144057040209639,1.7023688897357283
11533,4.0,300.41382000000004,4686.6498,0.0,0.0,0.0,0.0,0.0,0.11494721493020554,-0.7278979076954303,0.06712782115150014,-0.7638544148515614,0.02014567457547328,0.021878770983766577,1.7638786423562685
11534,4.0,299.99762000000004,5024.096,0.0,0.0,0.0,0.0,0.0,0.11495718173978936,-0.7327558643723733,0.004610721828692816,-0.7990545814705472,-0.011086481035400489,0.02903161450744727,1.7458362044506182
11535,4.0,298.90629,4997.314,0.0,0.0,0.0,0.0,0.0,0.11496714854937318,-0.7720471802576242,0.039227381830441166,-0.7862388928807372,-0.018176782709908784,0.015754638743361787,1.7712686806356084
11536,4.0,299.11716,4579.7896,0.0,0.0,0.0,0.0,0.0,0.114977115358957,-0.7171845509431043,0.07127712388075444,-0.7462342590575872,-0.026865998108467577,0.02176316927985758,1.7714700134304782
11537,4.0,300.11521,4724.7715,0.0,0.0,0.0,0.0,0.0,0.11498708216854082,-0.7325880701558133,0.02953110323699297,-0.7331555915368233,-0.020699702504901583,-0.018399717996910783,1.7401231964117883
11538,4.0,300.86037000000005,4983.2301,0.0,0.0,0.0,0.0,0.0,0.11499704897812464,-0.7610774509649963,0.03744036531807636,-0.7911404395769822,0.006575894154465224,-0.021563519493403682,1.7437140534411786
11539,4.0,300.14527999999996,4736.8573,0.0,0.0,0.0,0.0,0.0,0.11500701578770847,-0.7347197153186903,0.05873135498508344,-0.7638979947383623,-0.009687809139837321,-0.018948692848090382,1.7502895399651281
11540,4.0,299.94342,4356.4155,0.0,0.0,0.0,0.0,0.0,0.11501698259729229,-0.6413659033253863,0.06535656979744124,-0.7482321856047673,0.02916567357517787,-0.007624957376599703,1.7393783562632785
11541,4.0,300.08541,4366.483,0.0,0.0,0.0,0.0,0.0,0.1150269494068761,-0.6818757943109013,0.0949108855809751,-0.7403369002955633,0.011609662592034489,-0.01144813330084279,1.7363862287179783
11542,4.0,300.39024,4551.7846,0.0,0.0,0.0,0.0,0.0,0.11503691621645992,-0.7037315787028994,0.04997716492386215,-0.7298744546655004,0.027671629209977178,0.008864456699378761,1.7234159181629085
11543,4.0,299.96497999999997,4828.0254,0.0,0.0,0.0,0.0,0.0,0.11504688302604375,-0.7667050622853983,0.06109425827128384,-0.7619883628048962,-0.018850693324918583,-0.01103893427445799,1.7497999375168083
11544,4.0,299.05944,5034.6669,0.0,0.0,0.0,0.0,0.0,0.11505684983562757,-0.7519817783948233,0.016125053595668883,-0.7945562981816012,-0.012838719764582987,0.003176915384587137,1.7355800869384184
11545,4.0,299.22385,4701.5024,0.0,0.0,0.0,0.0,0.0,0.1150668166452114,-0.7173073669877253,0.03549244266333137,-0.7473244047076764,-0.02077657981648878,-0.009612223924777641,1.7593225632816183
11546,4.0,300.33446000000004,4621.5802,0.0,0.0,0.0,0.0,0.0,0.11507678345479522,-0.6752221456742373,0.04366781968442826,-0.7732906407803443,-0.00039242669747949964,0.00938407191963579,1.7453503510276682
11547,4.0,300.27891,4748.9356,0.0,0.0,0.0,0.0,0.0,0.11508675026437903,-0.7402681614087794,0.029723717014752474,-0.7330134021502903,-0.02109574650523808,0.005105035282027755,1.773975375627738
11548,4.0,300.61737999999997,4657.8498,0.0,0.0,0.0,0.0,0.0,0.11509671707396285,-0.7063837304421464,0.04227762534847676,-0.7517639194908223,-0.006114197323174295,-0.016389113664479586,1.7484775448112984
11549,4.0,300.31802000000005,4521.3529,0.0,0.0,0.0,0.0,0.0,0.11510668388354667,-0.7167123257339992,0.056764654779485245,-0.7144307195563223,0.005067006891199645,-0.013537875505834287,1.7425835703046082
11550,4.0,300.86319,4531.3035,0.0,0.0,0.0,0.0,0.0,0.1151166506931305,-0.6964265926369533,0.05894781155094604,-0.7399243453848473,0.02855448212810797,0.0025865767259002476,1.7335507496381382
11551,4.0,300.78094,4672.1489,0.0,0.0,0.0,0.0,0.0,0.11512661750271432,-0.7265657472589563,0.07915095564559113,-0.7728018084021003,0.02155425332123918,-0.003688293489481226,1.7439780050922284
11552,4.0,301.40346,4825.4223,0.0,0.0,0.0,0.0,0.0,0.11513658431229815,-0.6954999450230004,0.030519301741520573,-0.8018272390441873,0.013461402481036987,0.0015902549953209486,1.7763217588843083
11553,4.0,301.03083,5002.0983,0.0,0.0,0.0,0.0,0.0,0.11514655112188196,-0.7641036845086623,0.02014233186339338,-0.7765516241071783,0.025142189150590875,-0.017748967239436683,1.7540684562130784
11554,4.0,300.49641,4967.7931,0.0,0.0,0.0,0.0,0.0,0.11515651793146578,-0.7649361302608183,0.05469199394467955,-0.7998409142106523,0.013701731219255588,0.003987147654800837,1.7891265043730382
11555,4.0,299.29019,4789.2933,0.0,0.0,0.0,0.0,0.0,0.1151664847410496,-0.7707674048513202,0.02630278000063227,-0.7113609567883604,-0.011838948930663288,-0.0013597333021702288,1.7433137183266685
11556,4.0,300.03752000000003,4921.306,0.0,0.0,0.0,0.0,0.0,0.11517645155063343,-0.7439785616849672,0.04685754011847915,-0.7988331255286912,-0.015448842902932086,-0.018888258559125983,1.767449031733638
11557,4.0,299.92368,4927.5043,0.0,0.0,0.0,0.0,0.0,0.11518641836021724,-0.7368696496458723,0.008410335533785493,-0.7693789381067893,-0.025299850866150875,-0.004109910402466576,1.7288148186707384
11558,4.0,300.75407,4570.3858,0.0,0.0,0.0,0.0,0.0,0.11519638516980106,-0.6684300364114084,0.044719193319440756,-0.7655723196011053,-0.006342028128034444,0.01290145818427479,1.7657892267448283
11559,4.0,299.81205,4412.9434,0.0,0.0,0.0,0.0,0.0,0.11520635197938489,-0.6683200886430574,0.06627816534639565,-0.7393826922788903,-0.009999860583734402,0.002232369923517758,1.755266827106348
11560,4.0,299.8357,4606.2642,0.0,0.0,0.0,0.0,0.0,0.11521631878896871,-0.6998779453925753,0.05426236678302865,-0.7545737126806272,-0.015581609063535087,0.012955002372559187,1.7415290809255384
11561,4.0,299.07312,4753.2662,0.0,0.0,0.0,0.0,0.0,0.11522628559855252,-0.7451209302452103,0.046193147974908755,-0.7459464554991833,-0.007462534094844773,0.008097402359651394,1.7336762913255284
11562,4.0,300.20532000000003,4828.97,0.0,0.0,0.0,0.0,0.0,0.11523625240813634,-0.7507327247315513,0.06612008718504453,-0.7832736671255922,0.01190716194064539,0.015251394908945486,1.7377976861072784
11563,4.0,298.8741,4806.272,0.0,0.0,0.0,0.0,0.0,0.11524621921772016,-0.7422755922418973,0.04555054070848836,-0.7642616299342503,0.018325888541624383,0.024982564769587177,1.7428658617824684
11564,4.0,299.17801000000003,4728.9862,0.0,0.0,0.0,0.0,0.0,0.11525618602730399,-0.7148366072813803,0.07798921273018601,-0.8006463163176393,0.004992405238012035,-0.012246119430347887,1.7823167544259682
11565,4.0,298.89758,4569.2165,0.0,0.0,0.0,0.0,0.0,0.11526615283688782,-0.7179069374693984,0.06910206500409283,-0.7401228410794373,0.0015130585099522485,-0.017389750827234783,1.7652753062941082
11566,4.0,300.06421,4884.7016,0.0,0.0,0.0,0.0,0.0,0.11527611964647164,-0.7549819410134163,0.056822578234701854,-0.7866679536355822,-0.021100267627184283,-0.012268658165572289,1.798159932989568
11567,4.0,300.33165,4936.7182,0.0,0.0,0.0,0.0,0.0,0.11528608645605545,-0.7865309520895613,0.05041907166347495,-0.7645271825204583,-0.024655782493086274,0.006613921633368244,1.7605725086049784
11568,4.0,300.25495,4786.1801,0.0,0.0,0.0,0.0,0.0,0.11529605326563927,-0.7272510285665883,0.04737359244740955,-0.7750018074167233,-0.03076978628549147,0.005630419137754104,1.7622388997194383
11569,4.0,300.38916,4788.1317,0.0,0.0,0.0,0.0,0.0,0.11530602007522309,-0.7159848222947003,0.05598779288806495,-0.7954754477448143,-0.02900828138414447,0.016228737451901683,1.7525738109905684
11570,4.0,300.63527999999997,4799.6021,0.0,0.0,0.0,0.0,0.0,0.11531598688480692,-0.7247279547575803,0.06078283585304885,-0.7950140541792782,0.013997103755906586,0.016288607360560384,1.7960087017022586
11571,4.0,300.23211000000003,4551.6282,0.0,0.0,0.0,0.0,0.0,0.11532595369439073,-0.6990099041644063,0.06235908317236234,-0.7469304834662993,0.017207167212215182,0.013502097644803288,1.7474477787346685
11572,4.0,300.27606000000003,4504.9324,0.0,0.0,0.0,0.0,0.0,0.11533592050397456,-0.6997192096319094,0.07949323963537193,-0.7491609914414333,0.023475638955865182,-0.02102590722884548,1.7754505664483282
11573,4.0,299.78357,4582.2526,0.0,0.0,0.0,0.0,0.0,0.11534588731355838,-0.7164284434534823,0.06866868780382185,-0.7451306067836653,-0.012212053961985887,-0.015506199951342784,1.7166735493474883
11574,4.0,299.72283999999996,4727.6725,0.0,0.0,0.0,0.0,0.0,0.1153558541231422,-0.7469873267969093,0.07349409888755283,-0.7636011732540683,0.004262350232311216,0.0037154690598132463,1.7470172487671785
11575,4.0,300.85739,4990.3032,0.0,0.0,0.0,0.0,0.0,0.11536582093272602,-0.7397977093873492,0.014880240384065385,-0.7920100817403093,-0.022805900904767182,0.01041087322647319,1.7188759497648485
11576,4.0,300.24677,4931.2458,0.0,0.0,0.0,0.0,0.0,0.11537578774230983,-0.7356819077461513,0.020300136447217478,-0.7835938237596892,0.006222773860164964,0.002383945856327138,1.7479547077596984
11577,4.0,300.47422,4728.0987,0.0,0.0,0.0,0.0,0.0,0.11538575455189365,-0.7102843481596073,0.04127863573038416,-0.7682182195872352,-0.015250762640883087,0.012138421077218887,1.7641176680548585
11578,4.0,301.45153999999997,4580.4209,0.0,0.0,0.0,0.0,0.0,0.11539572136147748,-0.7137794935845514,0.057818411578732944,-0.7363725086168084,0.016894040507311983,-0.003205738702231777,1.7812763492232881
11579,4.0,300.52678,4608.3991,0.0,0.0,0.0,0.0,0.0,0.1154056881710613,-0.7328348877476724,0.07953943370743093,-0.7475428107667313,-0.015036604126247285,-0.012096455297827187,1.7751777995214082
11580,4.0,299.90358,4639.9902,0.0,0.0,0.0,0.0,0.0,0.11541565498064513,-0.6933238080482323,0.05693517261231404,-0.7740525237955364,-0.012670377379718887,-0.02285036231915518,1.761306506977418
11581,4.0,300.08257000000003,4660.4745,0.0,0.0,0.0,0.0,0.0,0.11542562179022894,-0.7000649204335283,0.03437859810665347,-0.7509815688236103,-0.026247576108684074,-0.00923402700772751,1.752606741618818
11582,4.0,300.06038,4819.8937,0.0,0.0,0.0,0.0,0.0,0.11543558859981276,-0.7225469035198273,0.04056840820529017,-0.7831488347132722,0.016823736149123483,-0.001122905748347169,1.7419924401962683
11583,4.0,299.82824,4825.5631,0.0,0.0,0.0,0.0,0.0,0.11544555540939658,-0.7625469878500283,0.052797863724493445,-0.7571015588976062,0.013128694717951288,0.015234948846572385,1.7645874108012183
11584,4.0,300.08446000000004,4854.8085,0.0,0.0,0.0,0.0,0.0,0.1154555222189804,-0.7313858083821593,0.022980298472228877,-0.7673350302700712,0.02028217050969438,-0.01123675413123129,1.7495983007469087
11585,4.0,300.25133999999997,4793.7804,0.0,0.0,0.0,0.0,0.0,0.11546548902856424,-0.7429488057408382,0.07327786624996233,-0.7875186176245362,0.028404708564576473,0.0015025302334631886,1.7749437387483085
11586,4.0,299.81509,4761.7724,0.0,0.0,0.0,0.0,0.0,0.11547545583814806,-0.7277575320265763,0.048539714629746857,-0.7682421018920923,0.012528884096004589,-0.0009721197351832482,1.7543064686615684
11587,4.0,300.3156,4635.249,0.0,0.0,0.0,0.0,0.0,0.11548542264773187,-0.7138856011350233,0.07864685764134052,-0.7737612245242872,0.005302706798986414,0.014480472689611385,1.7518443722435784
11588,4.0,300.5712,4466.4907,0.0,0.0,0.0,0.0,0.0,0.11549538945731569,-0.7017233676672043,0.06682475298033963,-0.7228030328801053,-0.03468162068155947,-0.008845924355049762,1.7600102561244884
11589,4.0,298.99011,4552.7481,0.0,0.0,0.0,0.0,0.0,0.1155053562668995,-0.6943555195650544,0.05207016878092555,-0.7416363935488133,-0.013713845637451188,-0.00970748088390377,1.7606363433612784
11590,4.0,300.05759,4857.3799,0.0,0.0,0.0,0.0,0.0,0.11551532307648334,-0.7569697046620932,0.05581105673937244,-0.7753635478349243,-0.03181690021708357,-0.02180994090447358,1.7757364043015382
11591,4.0,300.02443,5018.1703,0.0,0.0,0.0,0.0,0.0,0.11552528988606715,-0.7346424853960682,-0.0032734434659637164,-0.7874825357884753,0.01770174978477668,-0.01996818254220618,1.7547558450809184
11592,4.0,299.96634,4949.1140000000005,0.0,0.0,0.0,0.0,0.0,0.11553525669565097,-0.7507267161584583,0.036919054221126964,-0.7905994146860873,0.012814014700644789,-0.005752766351553834,1.7654130069826983
11593,4.0,300.75035,4923.6974,0.0,0.0,0.0,0.0,0.0,0.1155452235052348,-0.7275962428756583,0.034225456499789565,-0.8033102825530523,0.03402760928526357,0.031658557597456366,1.726063338024188
11594,4.0,300.71827,4804.1665,0.0,0.0,0.0,0.0,0.0,0.11555519031481862,-0.7456849559133752,0.04272091821422636,-0.7573826142103443,0.02853703700113627,0.008559650196346701,1.7571628206934682
11595,4.0,300.40314,4785.9128,0.0,0.0,0.0,0.0,0.0,0.11556515712440243,-0.7798892395390752,0.08374493027398111,-0.7586536655332873,0.003978588325906095,0.006276107900378624,1.7473832347032985
11596,4.0,300.99022,4631.3514,0.0,0.0,0.0,0.0,0.0,0.11557512393398625,-0.7474368754687762,0.08941113223769172,-0.7497894395509562,-0.017056904248885382,-0.01938197885585238,1.7877707757392383
11597,4.0,299.59372,4353.5351,0.0,0.0,0.0,0.0,0.0,0.11558509074357007,-0.6740696344804934,0.08282579185651921,-0.7321221270973283,-0.019187198749379082,-0.01171380443731249,1.7843477129264083
11598,4.0,299.51299,4682.8146,0.0,0.0,0.0,0.0,0.0,0.1155950575531539,-0.6973075122738933,0.07384998373342593,-0.8000011698464682,0.0028982393857339577,-0.0032998317409680365,1.7730674022131285
11599,4.0,299.7929,5171.7723,0.0,0.0,0.0,0.0,0.0,0.11560502436273772,-0.7597735602063123,0.003979851139505726,-0.8162959438471372,-0.0068531486647531135,-0.01046810564512159,1.7417114659435382
11600,4.0,299.77492,5180.1753,0.0,0.0,0.0,0.0,0.0,0.11561499117232155,-0.7708351102230022,-0.00971127469492819,-0.7940975593313273,-0.005305007991288526,0.009037064765838852,1.7308175074933883
11601,4.0,300.71473,4938.32,0.0,0.0,0.0,0.0,0.0,0.11562495798190536,-0.7539594804700073,0.024032893073611877,-0.7711993938989542,-0.013669235275298487,0.02161919555989848,1.7627367094935684
11602,4.0,300.52945,4856.6891,0.0,0.0,0.0,0.0,0.0,0.11563492479148918,-0.7408816134168223,0.02602197496066897,-0.7614525764170182,0.011496962836411889,0.010178786264567991,1.7602897105020683
11603,4.0,299.51915,4740.9695,0.0,0.0,0.0,0.0,0.0,0.115644891601073,-0.7034885506664142,0.06300469877832965,-0.8006525072757502,0.016691982225370383,0.0012695487743697089,1.7771914314451382
11604,4.0,299.65457000000004,4785.5891,0.0,0.0,0.0,0.0,0.0,0.11565485841065681,-0.6830710950563684,0.030891911293544266,-0.8025204135700983,0.026099155234036078,-0.014672244456537788,1.744703390838818
11605,4.0,299.99397,4718.0829,0.0,0.0,0.0,0.0,0.0,0.11566482522024064,-0.6898829728286483,0.05587873475330175,-0.8001751550211393,0.010471466595703291,-0.029869670625406974,1.7660677691973183
11606,4.0,299.50556,4558.4604,0.0,0.0,0.0,0.0,0.0,0.11567479202982446,-0.7067972074104534,0.07571122588186623,-0.7545721522754734,-0.01010459994259637,-0.02586193008087377,1.7419850434705384
11607,4.0,300.35592,4774.7195,0.0,0.0,0.0,0.0,0.0,0.11568475883940829,-0.7641621287744303,0.04448059014614246,-0.7317139696920463,-0.0004990431528142245,-0.016789254234970383,1.7412060567936585
11608,4.0,300.81437,5085.0608,0.0,0.0,0.0,0.0,0.0,0.11569472564899211,-0.8071827623152362,0.03176626709633647,-0.7703150089466723,-0.01080486438210709,-0.0015677717862020285,1.7847174478878984
11609,4.0,300.48092,5032.8235,0.0,0.0,0.0,0.0,0.0,0.11570469245857593,-0.7521953107208973,0.01188847862205149,-0.7895458372321073,-0.003947839427771416,0.02616639552392218,1.7447184882653086
11610,4.0,300.47552,4721.9945,0.0,0.0,0.0,0.0,0.0,0.11571465926815974,-0.6864485920122013,0.04022407745030736,-0.7891439214474413,0.016408617715654484,0.02077191177327808,1.7829823584166584
11611,4.0,300.27252999999996,4743.2792,0.0,0.0,0.0,0.0,0.0,0.11572462607774356,-0.6924814020475933,0.02325880343446518,-0.7726158364787463,-0.004263474838597206,0.012569895393802087,1.7501428213506482
11612,4.0,299.84289,4796.2419,0.0,0.0,0.0,0.0,0.0,0.11573459288732739,-0.7382105949607133,0.029554019914504674,-0.7492812034332973,-0.004088792547857406,0.0023940057072949677,1.773000629031538
11613,4.0,300.37514,4810.883,0.0,0.0,0.0,0.0,0.0,0.1157445596969112,-0.7480542690197083,0.052043080552752155,-0.7663771036255314,-0.025936786971761577,-0.012539726885324688,1.7708409877683984
11614,4.0,300.37459,4689.5675,0.0,0.0,0.0,0.0,0.0,0.11575452650649504,-0.7408315588618822,0.07775703761552213,-0.7624369083591643,0.02049654788635178,0.01207024150449009,1.7817090070159882
11615,4.0,299.19518999999997,4718.3786,0.0,0.0,0.0,0.0,0.0,0.11576449331607885,-0.7152017522199173,0.06190047503135124,-0.7809679759930382,0.01910529065104538,0.007537930541410822,1.7568302720106481
11616,4.0,298.78056000000004,4734.6159,0.0,0.0,0.0,0.0,0.0,0.11577446012566267,-0.6811722441039664,0.03703490822431086,-0.7950676956395722,0.022516108336416877,0.007347389772030913,1.7474591271357882
11617,4.0,299.87095,4809.9935,0.0,0.0,0.0,0.0,0.0,0.11578442693524649,-0.6977020313328294,0.025695970860244877,-0.7901118590029692,0.006985532830068414,-0.018322778877067483,1.745897708731688
11618,4.0,300.06112,4887.2608,0.0,0.0,0.0,0.0,0.0,0.1157943937448303,-0.7495858674733652,0.035590542498263066,-0.7716099223094703,-0.0024745945539984674,-0.01797953939244238,1.7379003283424086
11619,4.0,299.51254,4548.4484,0.0,0.0,0.0,0.0,0.0,0.11580436055441413,-0.7391932347751923,0.056028602549092546,-0.6994501005378504,-0.012968535340894788,-0.032297089571974566,1.7643491957027084
11620,4.0,299.12852000000004,4546.0353,0.0,0.0,0.0,0.0,0.0,0.11581432736399797,-0.7312084693496573,0.05467141483514854,-0.7053441662370493,-0.03452782350188086,-0.01112481937943419,1.7668323677227786
11621,4.0,300.08447,4864.8179,0.0,0.0,0.0,0.0,0.0,0.11582429417358178,-0.7299391304193833,0.04807383540601815,-0.7969178700571702,-0.008287482910835881,0.0023453835840213377,1.7848617347021383
11622,4.0,300.54241,4969.4341,0.0,0.0,0.0,0.0,0.0,0.1158342609831656,-0.7151083812232023,0.02148308567396548,-0.8169585992800362,-0.005350974082075025,0.03577520631573797,1.761279351874738
11623,4.0,301.14425,4929.7374,0.0,0.0,0.0,0.0,0.0,0.11584422779274942,-0.7012880348942403,0.02362600932370558,-0.8208550424070852,0.024121217071578775,0.03677118354128326,1.7669921572635483
11624,4.0,299.48187,4813.9752,0.0,0.0,0.0,0.0,0.0,0.11585419460233323,-0.7379091631884642,0.04104489615756586,-0.7664639999541072,0.0006534490424903994,0.018991022384267982,1.7721361240462183
11625,4.0,299.23156,4806.1027,0.0,0.0,0.0,0.0,0.0,0.11586416141191706,-0.7682237114027772,0.06440322203010314,-0.7571147210164052,0.015145365378731184,-0.007875595934585804,1.7691600058524983
11626,4.0,299.00957,4828.0128,0.0,0.0,0.0,0.0,0.0,0.11587412822150088,-0.7596477550738963,0.06943927970362335,-0.7773868765621113,0.004992148885736735,-0.0029949938271828774,1.7696086729967784
11627,4.0,298.88465,4828.3714,0.0,0.0,0.0,0.0,0.0,0.1158840950310847,-0.7287156815861383,0.03621358187875226,-0.7752022485515052,0.01124202708475169,-0.004931729491548805,1.7384458621962484
11628,4.0,298.67134,4709.835,0.0,0.0,0.0,0.0,0.0,0.11589406184066853,-0.7001085205853314,0.03791677018384386,-0.7694804758993102,-0.0099722809292625,-0.003462588888630916,1.7475464692944085
11629,4.0,298.79741,4574.9828,0.0,0.0,0.0,0.0,0.0,0.11590402865025234,-0.6912557139316273,0.06315726283263653,-0.7625820767009912,-0.028790017180103475,-0.008547005645698783,1.7417834067006381
11630,4.0,299.10212,4787.2281,0.0,0.0,0.0,0.0,0.0,0.11591399545983616,-0.7426781666391283,0.030429765896434074,-0.7429494035583972,-0.028278229620843975,-0.003178895376607547,1.7619983541456983
11631,4.0,300.27738,4991.7953,0.0,0.0,0.0,0.0,0.0,0.11592396226941998,-0.7698462794504123,0.04027502670508567,-0.7878098561007792,0.005500941784325684,-0.007884993930588313,1.7933457791144483
11632,4.0,299.52817000000005,4843.8762,0.0,0.0,0.0,0.0,0.0,0.1159339290790038,-0.7440428220063092,0.03709321063506486,-0.7654677927207894,0.005620417447342015,0.03430263069365607,1.7776497244653684
11633,4.0,300.11452,4823.3797,0.0,0.0,0.0,0.0,0.0,0.11594389588858763,-0.6934527643884593,0.02955901726399787,-0.8022932428976782,0.035839263987059965,0.011684154712886289,1.7735484933606085
11634,4.0,299.68708,4896.6199,0.0,0.0,0.0,0.0,0.0,0.11595386269817144,-0.7062394841579104,0.03231717218895657,-0.8145278730851422,0.01825588815846588,0.033786276416195866,1.7361271406674086
11635,4.0,299.7478,4890.2323,0.0,0.0,0.0,0.0,0.0,0.11596382950775527,-0.7119447914959803,0.022387932198766877,-0.7969516518155043,0.004510320294833956,0.009579698495242631,1.7608951274368183
11636,4.0,300.84007,4901.1321,0.0,0.0,0.0,0.0,0.0,0.11597379631733909,-0.7685275952402683,0.032780229511156764,-0.7540744134288503,-0.019220331014398982,-0.003871392950126736,1.747511613490968
11637,4.0,300.5876,4738.022,0.0,0.0,0.0,0.0,0.0,0.1159837631269229,-0.7653749688791283,0.06852034900243194,-0.7433857495814613,-0.004252701760883985,-0.03427526888795567,1.7902055144045284
11638,4.0,300.3536,4674.805,0.0,0.0,0.0,0.0,0.0,0.11599372993650672,-0.7350547059342513,0.06599025134373072,-0.7519595274226273,-0.02000864263194928,-0.02089220583840018,1.7662386031641786
11639,4.0,300.8019,4927.7069,0.0,0.0,0.0,0.0,0.0,0.11600369674609054,-0.7323715994044493,0.03846803295374926,-0.8039962934007563,0.025373250703394877,-0.015079233584454486,1.7678965843028085
11640,4.0,299.62421,5009.3552,0.0,0.0,0.0,0.0,0.0,0.11601366355567438,-0.7404971052688742,0.025995983069103775,-0.8082177567623823,0.01763621479480888,0.014144508340704286,1.7557866244076483
11641,4.0,300.68155,4889.0605,0.0,0.0,0.0,0.0,0.0,0.1160236303652582,-0.7344381736459044,0.024926069997011576,-0.7766402024309202,0.03276582818748547,0.014385352823223788,1.7613330541300385
11642,4.0,299.8573,4724.7153,0.0,0.0,0.0,0.0,0.0,0.11603359717484202,-0.7482254981541072,0.07401230437294573,-0.7619822833042963,0.007167502111552384,-0.001093271020022449,1.7724607693782584
11643,4.0,299.01299,4823.7193,0.0,0.0,0.0,0.0,0.0,0.11604356398442583,-0.7487263172810343,0.04692971290985205,-0.7644936135446453,-0.0025077485025705075,-0.018823902992274585,1.7751894518975584
11644,4.0,299.96283999999997,4931.9311,0.0,0.0,0.0,0.0,0.0,0.11605353079400965,-0.7479803524249132,0.043413584088587164,-0.7946171235851043,-0.011308296681041989,-0.012165449523636388,1.7794236214154382
11645,4.0,299.78435,4928.186,0.0,0.0,0.0,0.0,0.0,0.11606349760359348,-0.7251547559647024,0.034690972979982464,-0.8075817194096103,-0.009865175530092021,-0.005491524435246265,1.764174207410438
11646,4.0,298.84718,4799.4738,0.0,0.0,0.0,0.0,0.0,0.1160734644131773,-0.7329200210210743,0.03998674286613426,-0.7659869212770233,-0.0024811753094229373,0.015318241044542685,1.7417566568979983
11647,4.0,299.11,4760.7661,0.0,0.0,0.0,0.0,0.0,0.11608343122276112,-0.7402768145646332,0.06138938864116094,-0.7682665921470093,0.016178870348230186,0.016875811124762885,1.7491967497322782
11648,4.0,299.3358,4787.1155,0.0,0.0,0.0,0.0,0.0,0.11609339803234495,-0.7555832948152653,0.04124882287269186,-0.7408290966641393,0.028133597288319875,0.016851556957119183,1.7551522285200385
11649,4.0,300.34886,4864.2994,0.0,0.0,0.0,0.0,0.0,0.11610336484192876,-0.7399723227770824,0.04541768639512666,-0.7840709227017753,0.0006045503424694734,-0.0034665869708754966,1.7707690470112984
11650,4.0,300.99365,4849.1668,0.0,0.0,0.0,0.0,0.0,0.11611333165151258,-0.7087415026298403,0.04087023007882766,-0.8061543539937402,-0.005080800467460965,0.0016416228237155584,1.7859677985112985
11651,4.0,300.28555,4792.8968,0.0,0.0,0.0,0.0,0.0,0.1161232984610964,-0.6980431115814913,0.05515011268589235,-0.8140279658833053,0.005179983162774535,-0.020997881744329584,1.7692930455906286
11652,4.0,300.07412,4893.1819,0.0,0.0,0.0,0.0,0.0,0.11613326527068021,-0.7151590842582063,0.02860612545920477,-0.8008521580754543,-0.015388499806476686,0.005457492910762614,1.7649662650136084
11653,4.0,300.8652,5070.523,0.0,0.0,0.0,0.0,0.0,0.11614323208026404,-0.7761624043462653,0.03007799687246717,-0.7952279816728912,-0.015504319359157184,-0.008150328060074753,1.7698394913695585
11654,4.0,299.53963,5063.3853,0.0,0.0,0.0,0.0,0.0,0.11615319888984786,-0.7833339149765383,0.04155678098883496,-0.7973655644813543,-0.0003228246330678107,0.004895186626692306,1.7776728265676482
11655,4.0,299.22303,4851.7332,0.0,0.0,0.0,0.0,0.0,0.11616316569943169,-0.7525560581540003,0.05639548521155104,-0.7786451811987963,0.002667615050348107,0.0069299455242823734,1.7880971435964483
11656,4.0,298.68944,4745.4694,0.0,0.0,0.0,0.0,0.0,0.11617313250901551,-0.7050670929972044,0.06205591164969164,-0.7994930147888173,0.01934102024706008,0.007702004407578653,1.7912953662120883
11657,4.0,299.6457,4779.1861,0.0,0.0,0.0,0.0,0.0,0.11618309931859933,-0.7166387435117373,0.06947685811008203,-0.8055913618406773,0.04034571001881156,-0.008413375182760481,1.7762738321545781
11658,4.0,299.53126000000003,4926.2587,0.0,0.0,0.0,0.0,0.0,0.11619306612818314,-0.7367372381228042,0.02652339393165518,-0.7872457899026102,-0.016222416797777885,-0.0030903858525473376,1.7582815501288782
11659,4.0,300.46598,4963.5954,0.0,0.0,0.0,0.0,0.0,0.11620303293776696,-0.7697943199852842,0.03095711697722957,-0.7699718819328082,-0.012548450968685688,-0.0061226658648600735,1.7472838348684883
11660,4.0,300.08009,4806.2464,0.0,0.0,0.0,0.0,0.0,0.11621299974735079,-0.7697399287199163,0.03999561691051007,-0.7312345808047344,-0.022639845425378776,-0.011526467666073788,1.7610274578998784
11661,4.0,301.39142000000004,4934.2074,0.0,0.0,0.0,0.0,0.0,0.1162229665569346,-0.7374967501327624,0.022962298084202377,-0.7853414066046622,-0.016563255892916084,-0.0027063543374463775,1.7680631626192482
11662,4.0,300.13991,4981.5574,0.0,0.0,0.0,0.0,0.0,0.11623293336651844,-0.7089113841416064,0.016419488875977384,-0.8217771709255922,-0.001173001542566239,-0.01031815780257289,1.7836185781544482
11663,4.0,299.32623,4839.3107,0.0,0.0,0.0,0.0,0.0,0.11624290017610225,-0.6837570248440643,0.04420904013259255,-0.8314816446858492,0.00872808306444473,0.015173562102513985,1.7882095130325384
11664,4.0,299.54631,4732.5503,0.0,0.0,0.0,0.0,0.0,0.11625286698568607,-0.7303936136192373,0.045087155093255754,-0.7532706629195263,0.016828559219599484,0.021137985862156778,1.7766362717153483
11665,4.0,299.16503,4678.8279999999995,0.0,0.0,0.0,0.0,0.0,0.11626283379526989,-0.7569872440213242,0.07939536068896202,-0.7446550074517273,0.001026622873494789,0.0076016272930472025,1.7752088049744683
11666,4.0,299.27645,4797.3598,0.0,0.0,0.0,0.0,0.0,0.1162728006048537,-0.7843863879879093,0.06953917704423244,-0.7434303832483663,-0.012921395906492487,0.009155231816351032,1.7732361083547783
11667,4.0,299.26561,4897.5489,0.0,0.0,0.0,0.0,0.0,0.11628276741443754,-0.7526566333589263,0.056425259565739544,-0.7925012040637793,-0.02083443842369898,0.01023401954076909,1.786306933319768
11668,4.0,299.4246,4881.7875,0.0,0.0,0.0,0.0,0.0,0.11629273422402135,-0.7126014383557864,0.05142591498309265,-0.8227659814331802,-0.017392577795013787,-0.0032852410408530466,1.7917207286040682
11669,4.0,300.81457,5000.2625,0.0,0.0,0.0,0.0,0.0,0.11630270103360518,-0.7234220476311973,0.03256291978870997,-0.8290958054703852,0.0003179292975946787,-0.001043594508694759,1.8014734634665883
11670,4.0,301.272,4875.595,0.0,0.0,0.0,0.0,0.0,0.116312667843189,-0.7449938990801732,0.04282937143867986,-0.7798946097646053,0.014123201717601487,-0.000908336056820789,1.7854269256079185
11671,4.0,300.43705,4825.1144,0.0,0.0,0.0,0.0,0.0,0.11632263465277282,-0.7525704564379213,0.037927219832125166,-0.7520710457286333,0.02121053051631638,0.007087738354405313,1.7721838481259284
11672,4.0,300.79665,5024.9737,0.0,0.0,0.0,0.0,0.0,0.11633260146235663,-0.7921438307535092,0.024368421724975976,-0.7596911019131742,-0.005780284704394684,0.0035985459764488366,1.7572742782044684
11673,4.0,299.14001,4898.6639,0.0,0.0,0.0,0.0,0.0,0.11634256827194045,-0.7299933595647353,0.04449714057327586,-0.8035752981167072,-0.001969049729930078,0.023796842277315478,1.7837733014447181
11674,4.0,299.17701,4685.9696,0.0,0.0,0.0,0.0,0.0,0.11635253508152428,-0.6628848732516434,0.025381868395495374,-0.7869147509624393,-0.0061478617471467135,-0.001900975535211678,1.7547356814039283
11675,4.0,300.15234,4726.0847,0.0,0.0,0.0,0.0,0.0,0.11636250189110811,-0.6724179456249844,0.03536795982229587,-0.7995617536756012,0.00016444399629685883,0.013676839717298985,1.7864284220067583
11676,4.0,300.13257999999996,4895.4903,0.0,0.0,0.0,0.0,0.0,0.11637246870069193,-0.7426281222166893,0.03908761512489726,-0.7845663006756652,-0.0002904713749897927,-0.03264214682727907,1.7699506449055282
11677,4.0,300.27598,5108.008,0.0,0.0,0.0,0.0,0.0,0.11638243551027574,-0.7953726129921652,0.026836109257017772,-0.7841703731990902,0.0006134889916716495,-0.026546604451695877,1.7654459376109484
11678,4.0,300.06655,4980.0187,0.0,0.0,0.0,0.0,0.0,0.11639240231985956,-0.8062065769038943,0.05068198068017205,-0.7582767263635862,0.021098960534555282,-0.01888718350076988,1.762927403162388
11679,4.0,300.32545,4821.0884,0.0,0.0,0.0,0.0,0.0,0.11640236912944338,-0.7246640794712763,0.04738830990511205,-0.7882147204432363,0.02257080965631548,0.021978703788129182,1.7603234517303985
11680,4.0,301.15127,4805.9448,0.0,0.0,0.0,0.0,0.0,0.11641233593902721,-0.6985291575219603,0.04718646643219166,-0.8095445165758233,0.02000571940541078,0.0016458201109297984,1.7798980251122585
11681,4.0,300.17217999999997,4768.2665,0.0,0.0,0.0,0.0,0.0,0.11642230274861103,-0.6872901063527523,0.04946943948425355,-0.8116132794374942,-0.02443805936459868,0.0028023140868418672,1.7813008698757082
11682,4.0,298.39862,4771.2803,0.0,0.0,0.0,0.0,0.0,0.11643226955819484,-0.7437847066758353,0.05740446750212985,-0.7639698341704523,-0.01723747554920638,-0.02071859556626618,1.8088378665183984
11683,4.0,299.20191,4702.1406,0.0,0.0,0.0,0.0,0.0,0.11644223636777867,-0.7456940852967763,0.05868657034391354,-0.7423258291818553,-0.021276723105599082,-0.010992745268649488,1.7655442228706482
11684,4.0,300.53401,4615.8398,0.0,0.0,0.0,0.0,0.0,0.11645220317736249,-0.7442205359413483,0.07541323206720651,-0.7342927317265503,-0.013008049055044487,-0.002685443185857607,1.7965762230832685
11685,4.0,301.15931,4861.1648,0.0,0.0,0.0,0.0,0.0,0.1164621699869463,-0.7338900154743053,0.04510800879356386,-0.7888907203799522,-0.012993723725130687,0.015483111021314085,1.7578357200848784
11686,4.0,300.60951,5166.7853,0.0,0.0,0.0,0.0,0.0,0.11647213679653012,-0.7580518456363923,0.04626318686157105,-0.8587850466504852,0.016509391517600086,0.012777995686089987,1.7951817882956482
11687,4.0,299.55745,4854.6162,0.0,0.0,0.0,0.0,0.0,0.11648210360611394,-0.7185182312547282,0.04163407170646296,-0.7987979353527183,0.026730796094624178,0.009652332214086021,1.7704372076035482
11688,4.0,299.94032000000004,4722.3385,0.0,0.0,0.0,0.0,0.0,0.11649207041569777,-0.7206527641803903,0.05371521071577854,-0.7685354479285433,0.02658794302927568,-0.02061372316766608,1.7945886316871082
11689,4.0,300.56514,4932.3843,0.0,0.0,0.0,0.0,0.0,0.11650203722528159,-0.7773701984654652,0.04462898062328746,-0.7665804527881003,0.005201162319014755,0.00033632057724475675,1.7781377057135281
11690,4.0,299.86321,5080.1931,0.0,0.0,0.0,0.0,0.0,0.11651200403486542,-0.7747373491406232,0.012248183420801589,-0.7817626883114702,-0.012926938384539488,-0.005292080237237655,1.7588377231087684
11691,4.0,299.28965,5051.6008,0.0,0.0,0.0,0.0,0.0,0.11652197084444924,-0.7388736556936524,0.00874481314082086,-0.8054316533599153,-0.031537143890973764,-0.001011986212355263,1.7482554403893786
11692,4.0,300.4765,4879.5565,0.0,0.0,0.0,0.0,0.0,0.11653193765403305,-0.6870960486936003,0.011826614637195988,-0.8079939095502902,-0.017662788291931485,-0.003156803282027227,1.7516570223000882
11693,4.0,299.34905,4581.6649,0.0,0.0,0.0,0.0,0.0,0.11654190446361687,-0.6737520515016504,0.04692546333893265,-0.7658851301719772,-0.012550395395627589,0.011764031244769489,1.7646213546795682
11694,4.0,300.62744,4776.4251,0.0,0.0,0.0,0.0,0.0,0.11655187127320069,-0.7265656763314493,0.04708790759496466,-0.7724361973685173,0.028511942849159675,-0.027547832339259375,1.7863449301985181
11695,4.0,300.69923,5055.9475,0.0,0.0,0.0,0.0,0.0,0.11656183808278453,-0.7934534970377632,0.003747085300033527,-0.7471753758829683,0.03314893703704537,-0.00896093057187499,1.7620482060506182
11696,4.0,299.38991,4831.4452,0.0,0.0,0.0,0.0,0.0,0.11657180489236835,-0.7435833130859593,0.06283055249689275,-0.7878859410507882,0.027614831475621673,-0.01063106868520479,1.7835685235995085
11697,4.0,299.42978,4568.9142,0.0,0.0,0.0,0.0,0.0,0.11658177170195216,-0.6937228259376124,0.05130988568764145,-0.7464228958287042,0.012177655134340989,0.016473200250528286,1.749713608608288
11698,4.0,300.0879,4716.0661,0.0,0.0,0.0,0.0,0.0,0.11659173851153598,-0.7240935082074653,0.07207909917590323,-0.7815519221581692,-0.03534339661337167,0.002681604791828787,1.7737650249069783
11699,4.0,299.1252,5006.1035,0.0,0.0,0.0,0.0,0.0,0.1166017053211198,-0.7691587588600592,0.05574055175766415,-0.8083122524667082,-0.023233602891228076,0.014890856205363085,1.7676130769248284
11700,4.0,300.17486,5071.5741,0.0,0.0,0.0,0.0,0.0,0.11661167213070363,-0.8027186356871612,0.03861628056263016,-0.7775295320436902,-0.007147118052665633,-0.010770860722001188,1.801013245271168
11701,4.0,299.80554,4733.5474,0.0,0.0,0.0,0.0,0.0,0.11662163894028744,-0.7516270699323163,0.05725604966723215,-0.7445091804973353,0.011722172869888386,-0.005979117709942974,1.7916307519951884
11702,4.0,300.69386000000003,4743.4637,0.0,0.0,0.0,0.0,0.0,0.11663160574987126,-0.7295146191574874,0.06527491399838244,-0.7776548001535533,0.0031997021634360173,-0.036507173121727465,1.7929615546765285
11703,4.0,300.91407000000004,4931.5428,0.0,0.0,0.0,0.0,0.0,0.11664157255945509,-0.7019862655381504,0.020012082616038783,-0.8170916998131722,0.02803743884057977,-0.012981843367708188,1.7522069131293585
11704,4.0,300.72652,4903.2979,0.0,0.0,0.0,0.0,0.0,0.11665153936903891,-0.7169549484704443,0.04708502388518005,-0.8206102107854222,-0.009797040236392591,0.013948035093313885,1.7782644633010383
11705,4.0,299.9029,4711.1887,0.0,0.0,0.0,0.0,0.0,0.11666150617862273,-0.6846789709775534,0.029358729129980974,-0.7767634947030883,0.021381333072423278,0.02165572018625318,1.7692017517566183
11706,4.0,300.13719,4605.7631,0.0,0.0,0.0,0.0,0.0,0.11667147298820654,-0.7404209797888612,0.06574910085968104,-0.7253650965529613,0.007324029594950443,0.007602587752816993,1.7881639167780383
11707,4.0,299.68358,4817.9437,0.0,0.0,0.0,0.0,0.0,0.11668143979779036,-0.7481439011235542,0.051540746616925655,-0.7679314090139293,-0.01203602404861309,0.02043528374555548,1.7744672072262784
11708,4.0,300.22368,5277.297,0.0,0.0,0.0,0.0,0.0,0.11669140660737419,-0.7823958682989602,-0.006606063169567675,-0.8151645893154812,0.015009255492798185,0.0008228500203964742,1.7711177063707082
11709,4.0,300.12872999999996,5250.8416,0.0,0.0,0.0,0.0,0.0,0.116701373416958,-0.7287933168088003,0.0037422585818571662,-0.8710736729357782,-0.008930872406333482,0.0023957552862426375,1.7578089702822381
11710,4.0,300.74273999999997,4875.5726,0.0,0.0,0.0,0.0,0.0,0.11671134022654184,-0.7154696859438603,0.02630248514485318,-0.7928851447916713,0.0016936937463545583,-0.012974993797032186,1.7763781969148784
11711,4.0,300.85091,4766.2328,0.0,0.0,0.0,0.0,0.0,0.11672130703612565,-0.7106585110240343,0.03386850672806137,-0.7720257500180092,0.005193710371154305,-0.016964334732999485,1.7678567635738782
11712,4.0,300.14646,4865.904,0.0,0.0,0.0,0.0,0.0,0.11673127384570947,-0.7848991432010143,0.06747998534300603,-0.7616941453733592,-0.005369129497366824,-0.021431432210367682,1.8124760423274582
11713,4.0,299.57739,4895.0197,0.0,0.0,0.0,0.0,0.0,0.11674124065529329,-0.7607468375898673,0.03956712560222126,-0.7667840451306933,0.002315333220505598,0.0017022245015964786,1.7881598637776381
11714,4.0,300.2751,4905.8807,0.0,0.0,0.0,0.0,0.0,0.1167512074648771,-0.7320220382524503,0.04528398095168096,-0.8045271655256492,-0.019381851186339782,-0.025378829658445477,1.7898986009492381
11715,4.0,299.71909,4712.0575,0.0,0.0,0.0,0.0,0.0,0.11676117427446094,-0.6811309440298904,0.053902229326485855,-0.8051190961015682,-0.01178746873283259,0.003046510603342187,1.7668589148753984
11716,4.0,298.4547,4775.387,0.0,0.0,0.0,0.0,0.0,0.11677114108404475,-0.7031469739252033,0.03144004920014127,-0.7798914686892953,-0.008491507708571561,-0.003074438917173497,1.7935501516596182
11717,4.0,299.08274,5211.9398,0.0,0.0,0.0,0.0,0.0,0.11678110789362858,-0.7861378313157632,0.01970956261318238,-0.8178712843076112,0.015481838379188484,0.01700853472886168,1.7816371675838982
11718,4.0,300.88055,5280.1374,0.0,0.0,0.0,0.0,0.0,0.1167910747032124,-0.8123096659662222,0.004954878507308435,-0.7976751427844073,0.008607567300200751,0.02015451112959538,1.7759740114499882
11719,4.0,300.46161,4815.6291,0.0,0.0,0.0,0.0,0.0,0.11680104151279622,-0.7511584417610663,0.03680358930598146,-0.7494761527525373,-0.006599989545818254,0.015864300775184588,1.7550776533126784
11720,4.0,300.86695,4613.5827,0.0,0.0,0.0,0.0,0.0,0.11681100832238003,-0.6823518597378854,0.05328619657043815,-0.7733482744460323,-0.0023416831946561378,-0.0032372947553961167,1.7683768648502083
11721,4.0,299.87439,4729.9558,0.0,0.0,0.0,0.0,0.0,0.11682097513196385,-0.6896608076117223,0.017342589101330283,-0.7654702245210293,-0.03317926057278807,-0.004486580959566066,1.759560170430068
11722,4.0,299.58607,4989.2876,0.0,0.0,0.0,0.0,0.0,0.11683094194154768,-0.7260618275867233,0.033369458762309165,-0.8239264871702132,-0.005947159295163925,0.0025461142043569076,1.7842915788708682
11723,4.0,300.50167000000005,5067.8729,0.0,0.0,0.0,0.0,0.0,0.1168409087511315,-0.7752374285949772,0.02266572788593318,-0.7879351039456403,-0.007875956752946412,-0.02354478618243948,1.7698784001733983
11724,4.0,299.47425,4686.8088,0.0,0.0,0.0,0.0,0.0,0.11685087556071531,-0.7493080748259493,0.06843954534670724,-0.7438043231977713,0.025795065706774773,0.016852957268757383,1.8125298459077681
11725,4.0,300.02479,4676.9776,0.0,0.0,0.0,0.0,0.0,0.11686084237029915,-0.7367042163020453,0.06940861774234723,-0.7543887945373773,0.017843876349803483,-0.016868864282077286,1.7732774489588585
11726,4.0,299.97087999999997,5099.9465,0.0,0.0,0.0,0.0,0.0,0.11687080917988296,-0.7431423162449363,0.017202491063003686,-0.8243165783262122,0.03836790459211736,0.008267905297703722,1.7942194033506682
11727,4.0,299.24727,5305.6659,0.0,0.0,0.0,0.0,0.0,0.11688077598946678,-0.7696180955278923,0.008064111115690803,-0.8512359686354491,0.014110936325140988,-0.012670703646251088,1.7558875441176085
11728,4.0,299.27407,4937.2466,0.0,0.0,0.0,0.0,0.0,0.1168907427990506,-0.7580273351164732,0.05505849967810085,-0.7978308590597752,0.006780087658342555,-0.014097757994340387,1.8004813902936785
11729,4.0,300.16879,4569.0034,0.0,0.0,0.0,0.0,0.0,0.11690070960863441,-0.7318987155827793,0.08128681998188451,-0.7382510540372063,-0.009011121814253481,-0.018585659522761783,1.7714633259798183
11730,4.0,300.24105,4721.1027,0.0,0.0,0.0,0.0,0.0,0.11691067641821826,-0.7504689352005173,0.07617826021070893,-0.7608066598757712,-0.023870457936830777,0.012698849707528888,1.7957163790484083
11731,4.0,300.79442,5212.1614,0.0,0.0,0.0,0.0,0.0,0.11692064322780207,-0.7932125866939872,0.02868576894356497,-0.8198401001794182,-0.007951795888481153,0.015150085097696985,1.7686470986518785
11732,4.0,300.74748999999997,5171.3045,0.0,0.0,0.0,0.0,0.0,0.11693061003738589,-0.7689383465658063,0.01896897608859218,-0.8219780578904182,-0.018516569038193084,0.015514119514124385,1.773573621963088
11733,4.0,299.65204,4571.6385,0.0,0.0,0.0,0.0,0.0,0.11694057684696971,-0.6643861045998034,0.05823447740104545,-0.7835123179216452,0.0028555900678247973,0.01881703416984668,1.7870788272459484
11734,4.0,301.10078,4483.1433,0.0,0.0,0.0,0.0,0.0,0.11695054365655352,-0.6722532924837343,0.048153880137417955,-0.7386642067654813,0.00867693369277168,-0.0071494601802717835,1.7796231303601282
11735,4.0,300.49205,4897.3873,0.0,0.0,0.0,0.0,0.0,0.11696051046613734,-0.7427833014695043,0.049658818967693856,-0.7955589699505573,0.006481386392463034,-0.026326437363967073,1.8036871109600585
11736,4.0,299.27116,5166.7636,0.0,0.0,0.0,0.0,0.0,0.11697047727572117,-0.8122237727552452,0.014612175950859486,-0.7729555184422703,-0.010861138266160888,-0.02030213153666438,1.7874703470845883
11737,4.0,298.58806,4851.6446,0.0,0.0,0.0,0.0,0.0,0.11698044408530499,-0.7481288340945673,0.05537121702996364,-0.7820211988094833,0.015577646242393984,-0.035883962501971366,1.7889129112519584
11738,4.0,300.10344,4594.6399,0.0,0.0,0.0,0.0,0.0,0.11699041089488882,-0.7128060338159783,0.08044305014661092,-0.7642928279048293,0.0039230511760000066,0.009710647189141261,1.7603551664585282
11739,4.0,299.47765,4768.4984,0.0,0.0,0.0,0.0,0.0,0.11700037770447264,-0.6896489323205504,0.03380793058408297,-0.7936634424584832,0.014372206916426385,-0.015714399542140482,1.7593279335071483
11740,4.0,300.13936,5144.8753,0.0,0.0,0.0,0.0,0.0,0.11701034451405645,-0.7772594502295352,0.045380662236472656,-0.8320348488429462,0.01069550328556399,-0.003173992056723627,1.7771269887387784
11741,4.0,300.13133,5156.9081,0.0,0.0,0.0,0.0,0.0,0.11702031132364027,-0.7657337100770333,0.04491717529623006,-0.8467547687431891,0.01330421294002359,0.006594122523764224,1.7947317026012282
11742,4.0,300.57376,4616.7117,0.0,0.0,0.0,0.0,0.0,0.11703027813322409,-0.7618429715480473,0.07583592758492333,-0.7173580294927253,0.0097318964622884,0.035824681291620766,1.7955357165555783
11743,4.0,301.29902999999996,4658.1537,0.0,0.0,0.0,0.0,0.0,0.11704024494280792,-0.7099070036898664,0.061068054610447745,-0.7671234636491913,0.013826237365043388,0.004659419135123866,1.7969600422211485
11744,4.0,301.74855,5162.1142,0.0,0.0,0.0,0.0,0.0,0.11705021175239173,-0.7728154062184422,0.00094779405234749,-0.7972861966010213,-0.015265098103297885,0.02262119047778768,1.7926110714669383
11745,4.0,300.66577,5365.9138,0.0,0.0,0.0,0.0,0.0,0.11706017856197556,-0.7740452385273172,0.02272850176937848,-0.8797870563757222,-0.008967118794210721,-0.012879963096653386,1.8164291362675982
11746,4.0,300.50452,5095.1619,0.0,0.0,0.0,0.0,0.0,0.11707014537155938,-0.7428588189994574,0.006455140377772754,-0.8123983152174712,0.011917670357432488,-0.008584464285995663,1.795472996374388
11747,4.0,300.21213,4724.4391,0.0,0.0,0.0,0.0,0.0,0.1170801121811432,-0.7207220502222282,0.05322124622577804,-0.7686107222784723,0.01050654227441499,-0.005700693605064655,1.8013109381505483
11748,4.0,300.12082999999996,4921.2899,0.0,0.0,0.0,0.0,0.0,0.11709007899072701,-0.7680195516401283,0.049820532670403754,-0.7777502280479712,0.02670328128815868,-0.02520106708740168,1.8045564795458582
11749,4.0,299.47091,5237.9592,0.0,0.0,0.0,0.0,0.0,0.11710004580031083,-0.7872947197499394,0.011198396535445689,-0.8161124645190293,0.03325305456432097,0.006418042961136524,1.7811389525097285
11750,4.0,299.95486,5061.851,0.0,0.0,0.0,0.0,0.0,0.11711001260989466,-0.7553952963917112,0.024762999552417776,-0.8080440147677352,0.016415438915327683,0.02936077184218257,1.7550764374125585
11751,4.0,299.32406000000003,4665.4861,0.0,0.0,0.0,0.0,0.0,0.11711997941947849,-0.7061866532976964,0.06233310141329815,-0.7743377233011833,-0.014548412122066486,-0.015352278141901885,1.7715448926128683
11752,4.0,299.48394,4681.9408,0.0,0.0,0.0,0.0,0.0,0.11712994622906231,-0.6964017173469983,0.04953339684381566,-0.7763247878072912,-0.04592245314444325,-0.015107984556041985,1.770014580986838
11753,4.0,299.1742,4881.9844,0.0,0.0,0.0,0.0,0.0,0.11713991303864613,-0.7660275728710353,0.08758746444270972,-0.8055612480477052,-0.04146429658595746,-0.0017287197758113582,1.8264322452298283
11754,4.0,298.8051,5150.0682,0.0,0.0,0.0,0.0,0.0,0.11714987984822994,-0.7826688378759002,0.018829353264562483,-0.8016526560519572,-0.005872816426051855,0.007567749478603722,1.8013249210019282
11755,4.0,299.60444,5081.0827,0.0,0.0,0.0,0.0,0.0,0.11715984665781377,-0.7554599417480913,0.026785606845533574,-0.8158479251829213,-0.009061508309926242,-0.013237843031973387,1.820621762531378
11756,4.0,300.39153999999996,4850.6167,0.0,0.0,0.0,0.0,0.0,0.11716981346739759,-0.7506938260602123,0.04563635691245776,-0.7694088897797452,0.001836992844397078,-0.0005473713119688425,1.7985776960057984
11757,4.0,300.5735,5047.7025,0.0,0.0,0.0,0.0,0.0,0.11717978027698141,-0.7371571694942483,0.02405685137222638,-0.8212751865610501,0.012755720395891589,-0.01028874011241959,1.8086134316212483
11758,4.0,300.46885,5241.248,0.0,0.0,0.0,0.0,0.0,0.11718974708656524,-0.7674493350138523,0.013572572229008588,-0.8393317491730942,0.016114626238889786,0.028423298664161174,1.7915365197358883
11759,4.0,299.99327,5026.5938,0.0,0.0,0.0,0.0,0.0,0.11719971389614905,-0.7575321496601023,0.04112699170716806,-0.8115538421866283,0.023075183264593273,-0.015271891945218384,1.8066670795041584
11760,4.0,300.43721,4744.7288,0.0,0.0,0.0,0.0,0.0,0.11720968070573287,-0.7430458244379133,0.05976383353223114,-0.7589970965221813,0.015564037280300884,-0.01148512908849399,1.799263564998488
11761,4.0,301.6288,4677.2721,0.0,0.0,0.0,0.0,0.0,0.11721964751531669,-0.7333937559728283,0.0931502338362123,-0.7815304108585462,0.021372807586081878,0.016555683874918785,1.793214461901488
11762,4.0,300.05682,4809.2349,0.0,0.0,0.0,0.0,0.0,0.1172296143249005,-0.7460445482413642,0.047097414920652954,-0.7629401998163353,-0.0041231802297512065,0.04189897986560736,1.7705422816389182
11763,4.0,299.39677,5145.6720000000005,0.0,0.0,0.0,0.0,0.0,0.11723958113448432,-0.7416418347018503,0.02192226879730948,-0.8444362295993671,-0.012683339888248187,0.0025510189427909676,1.7801187109840382
11764,4.0,299.26294,5214.483,0.0,0.0,0.0,0.0,0.0,0.11724954794406815,-0.7751362150424882,0.009236031419075332,-0.8191724392910252,-0.0077491966323111625,0.0044957912003250455,1.7797645800740882
11765,4.0,299.29483999999997,4865.3475,0.0,0.0,0.0,0.0,0.0,0.11725951475365198,-0.7304376494685834,0.04079878682752676,-0.7893052916583673,0.001945059513937428,0.004186520418677396,1.8163445298842482
11766,4.0,299.92585,4700.0368,0.0,0.0,0.0,0.0,0.0,0.1172694815632358,-0.7072412440017763,0.04416387248288486,-0.7656164466429602,0.01025908329524269,0.0006037248374805024,1.7807164272180283
11767,4.0,300.27017,4932.8896,0.0,0.0,0.0,0.0,0.0,0.11727944837281962,-0.7227739323372333,0.014307382214778685,-0.7910087271964833,-0.014005749819009886,-0.008090891214508792,1.8141229790399982
11768,4.0,300.82389,5014.226,0.0,0.0,0.0,0.0,0.0,0.11728941518240343,-0.7687373076134653,0.03653638309561026,-0.7919985610866722,-0.014134221825689087,-0.028550633804228176,1.7681032873232083
11769,4.0,300.06424,4899.3819,0.0,0.0,0.0,0.0,0.0,0.11729938199198725,-0.7288071882026693,0.03498399882940187,-0.7954665716739382,0.017920055532071783,-0.013768089981554687,1.7892350234587482
11770,4.0,299.96974,4816.0034,0.0,0.0,0.0,0.0,0.0,0.11730934880157108,-0.7506538432112663,0.06073719096254404,-0.7740281348656293,-0.01914022650124328,-0.01003598122727423,1.7594211525163481
11771,4.0,300.08737,4989.391,0.0,0.0,0.0,0.0,0.0,0.1173193156111549,-0.7379395201614602,0.041839502084737364,-0.8205502466445042,-0.008995345712846502,-0.01065867569742939,1.8172298064966184
11772,4.0,300.2646,5090.5759,0.0,0.0,0.0,0.0,0.0,0.11732928242073873,-0.7589561004231353,0.03147927413801247,-0.8199311204359012,-0.01995317630822518,-0.006942891820810073,1.7885367928148383
11773,4.0,300.31432,4980.0714,0.0,0.0,0.0,0.0,0.0,0.11733924923032255,-0.7579453733158843,0.05391590414983545,-0.8097878891173422,0.002174193865051228,0.024429400129244078,1.8172091361945781
11774,4.0,301.24395,4795.4509,0.0,0.0,0.0,0.0,0.0,0.11734921603990636,-0.7432591541139674,0.04051561584857996,-0.7549537827931373,-0.01025033185412899,0.0005964075910883465,1.7737555003560384
11775,4.0,301.51403999999997,4673.0951,0.0,0.0,0.0,0.0,0.0,0.11735918284949018,-0.7087985891404743,0.058453106375122445,-0.7701587353837492,-0.01151051201674909,-0.007447895771975083,1.7809461310156982
11776,4.0,301.87619,4900.1015,0.0,0.0,0.0,0.0,0.0,0.117369149659074,-0.7403388254707532,0.028231371869969477,-0.7774010519310103,-0.007826829929797973,0.0050006361725493656,1.7713205590407284
11777,4.0,301.70652,5170.9683,0.0,0.0,0.0,0.0,0.0,0.11737911646865783,-0.7508453474801663,-0.014002212562910787,-0.8069976820519703,0.043463711597534364,0.017384456595462283,1.7734300444239184
11778,4.0,299.79605,4925.8955,0.0,0.0,0.0,0.0,0.0,0.11738908327824164,-0.7036014469925563,0.014599617729120088,-0.8083474021126772,0.029099285428625873,0.007806933750834373,1.7664644566114684
11779,4.0,299.95358999999996,4894.7652,0.0,0.0,0.0,0.0,0.0,0.11739905008782546,-0.7314295402564753,0.019737349983924783,-0.7761942102669043,0.005120668312520615,-0.009105298142147961,1.7927938617849783
11780,4.0,300.54816,5129.5713,0.0,0.0,0.0,0.0,0.0,0.11740901689740929,-0.7557473400064553,0.0018822632376649185,-0.8053965037139462,0.013235917856783385,-0.02113370386723418,1.7784997399742581
11781,4.0,300.83549,5180.4128,0.0,0.0,0.0,0.0,0.0,0.11741898370699311,-0.7787562030122532,0.016199669333032882,-0.8121595934939112,0.009233334552609171,0.027523023923810973,1.7665061011905785
11782,4.0,300.24731,4901.1439,0.0,0.0,0.0,0.0,0.0,0.11742895051657692,-0.7583841916691922,0.036204159666072364,-0.7676453482456973,0.007128982091775753,-0.0018392710359219186,1.7522182615304782
11783,4.0,299.65168,4674.5845,0.0,0.0,0.0,0.0,0.0,0.11743891732616074,-0.7072442938845773,0.05461334648516764,-0.7683259990003722,-0.015838062663845087,-0.02982828645157267,1.7739429516245382
11784,4.0,300.1068,4753.2161,0.0,0.0,0.0,0.0,0.0,0.11744888413574456,-0.7081873054876454,0.040256056636713465,-0.7769277729418013,-0.01904729221532138,-0.045283492565132755,1.7707344951828883
11785,4.0,299.20476,4930.7791,0.0,0.0,0.0,0.0,0.0,0.11745885094532839,-0.7442305772498393,0.02960460439924697,-0.7842077418627783,-0.002948969981140677,0.02742970764260137,1.7923827862194086
11786,4.0,299.7231,5071.5771,0.0,0.0,0.0,0.0,0.0,0.11746881775491222,-0.7537688475961932,0.02169751675287818,-0.8095614783824971,-0.0024546076891509175,0.0018684711812787481,1.7695043082364785
11787,4.0,299.96022,4841.488,0.0,0.0,0.0,0.0,0.0,0.11747878456449604,-0.7338669437695283,0.05186503528493045,-0.7896895363612892,0.005576580498990645,0.021108423277239177,1.7937111571005082
11788,4.0,300.1921,4809.6834,0.0,0.0,0.0,0.0,0.0,0.11748875137407985,-0.7279460877376853,0.04714585131518325,-0.7812234264757493,0.010773482000009889,0.0018564842299457283,1.7869588584341083
11789,4.0,300.69362,5148.8735,0.0,0.0,0.0,0.0,0.0,0.11749871818366367,-0.7547735154678463,0.02257610084833768,-0.8329315650489452,0.02880407298549067,0.029023849971930974,1.7888351949692882
11790,4.0,301.2971,5186.8972,0.0,0.0,0.0,0.0,0.0,0.11750868499324749,-0.7707586098404522,0.01945661789796868,-0.8253852430741813,0.01006301686776744,-0.007057412184212353,1.8165545766299782
11791,4.0,299.87966,4733.0578,0.0,0.0,0.0,0.0,0.0,0.11751865180283132,-0.7400628972035214,0.07674430832607351,-0.7754128019222853,-0.008852241969423262,-0.02135169753349848,1.8240388471686184
11792,4.0,299.95476,4786.867,0.0,0.0,0.0,0.0,0.0,0.11752861861241513,-0.7370963846207493,0.052453557287513046,-0.7704452014520212,0.011272297931489188,-0.03739334443393576,1.8171196662107483
11793,4.0,299.8331,4872.1594,0.0,0.0,0.0,0.0,0.0,0.11753858542199895,-0.7555854125079743,0.05121168756745005,-0.7766410636935053,0.009141811420101542,0.03131062271186787,1.7763954221665783
11794,4.0,300.21337,5005.8457,0.0,0.0,0.0,0.0,0.0,0.11754855223158278,-0.7621259520359753,0.04455499107448525,-0.8040811429641302,0.013385051046251687,0.004132839644279516,1.7829479079132584
11795,4.0,298.87075,5000.1718,0.0,0.0,0.0,0.0,0.0,0.1175585190411666,-0.7216719215284733,0.024789761514058976,-0.8230452128957383,-0.015413218042666184,0.0006835918144152593,1.7501825407545681
11796,4.0,298.72777,4720.5593,0.0,0.0,0.0,0.0,0.0,0.11756848585075041,-0.7269302741149323,0.07333015907437322,-0.7813320266214673,-0.009247810856787872,0.009649904770821451,1.7912957715121283
11797,4.0,299.07866,4793.7739,0.0,0.0,0.0,0.0,0.0,0.11757845266033423,-0.7085916328075493,0.036496652545939166,-0.7850925929101062,0.011714983860428888,0.023979088480051775,1.7711910656779482
11798,4.0,299.89288,4967.4899,0.0,0.0,0.0,0.0,0.0,0.11758841946991806,-0.7518543723272493,0.02371784625976918,-0.7818563531507142,0.01994816578648068,-0.003998878963133626,1.8052929097185382
11799,4.0,299.8591,5051.5642,0.0,0.0,0.0,0.0,0.0,0.11759838627950188,-0.7432901899645302,0.01916857825229138,-0.8114277837416872,-0.024881993617661576,-0.023420050028878977,1.8139282323707784
11800,4.0,300.41201,5008.8183,0.0,0.0,0.0,0.0,0.0,0.11760835308908571,-0.7327619844029774,0.025333472530969077,-0.8151272003867912,0.015092801003293486,-0.03164978082509017,1.795607150687628
11801,4.0,300.45065,4916.2921,0.0,0.0,0.0,0.0,0.0,0.11761831989866953,-0.7205252973178103,0.03118294813301737,-0.8050876853484682,-0.00927797206986455,0.03787777018749486,1.791229808930618
11802,4.0,300.72692,5108.2934,0.0,0.0,0.0,0.0,0.0,0.11762828670825334,-0.7738984388528293,0.029638708371112772,-0.8085339110585843,0.013582063342695287,0.0014158177084553285,1.7990867528560381
11803,4.0,300.06156,5163.6479,0.0,0.0,0.0,0.0,0.0,0.11763825351783716,-0.7732298457743443,0.024867532512234378,-0.8212577079968252,-0.016287597150210685,3.6696126026875665e-05,1.811623696343338
11804,4.0,299.64447,4948.7009,0.0,0.0,0.0,0.0,0.0,0.11764822032742098,-0.7528329895388313,0.04530981781598086,-0.7967583338289252,-0.002948707752014797,-0.008075658721780463,1.7854066606059185
11805,4.0,299.87276,4871.8153,0.0,0.0,0.0,0.0,0.0,0.11765818713700481,-0.7242077926862442,0.038049359025679366,-0.7947517642583922,0.023785319597178275,0.024325691955008874,1.7906239866958282
11806,4.0,300.41303999999997,4791.5062,0.0,0.0,0.0,0.0,0.0,0.11766815394658864,-0.7116584470177203,0.04894509269000455,-0.7937848804829682,-0.001881580712397558,-0.036318672126123865,1.7702789379379285
11807,4.0,299.44338999999997,4825.731,0.0,0.0,0.0,0.0,0.0,0.11767812075617246,-0.7302099316411093,0.04633848350300225,-0.7830302743190712,-0.012705684079453387,-0.022876829425017276,1.7832756943206085
11808,4.0,299.08468999999997,5108.2979,0.0,0.0,0.0,0.0,0.0,0.11768808756575627,-0.7893905667867832,0.018315433827092584,-0.7817198582297432,-0.019296403805406783,-0.008157366095269352,1.8020376411222683
11809,4.0,300.20381000000003,5169.852,0.0,0.0,0.0,0.0,0.0,0.11769805437534009,-0.7809250243212993,0.004174151168081647,-0.7947550370562153,0.02145855387579438,0.04462790455168126,1.8024504392130083
11810,4.0,300.03073,5048.8362,0.0,0.0,0.0,0.0,0.0,0.1177080211849239,-0.7527127876794683,0.015818083398373286,-0.7978254179067382,0.004547525217305796,0.009096777519407042,1.8232465869154284
11811,4.0,299.86976,5102.9248,0.0,0.0,0.0,0.0,0.0,0.11771798799450774,-0.7301006120878203,0.006081278043325415,-0.8271423707350962,-0.0038869633617634163,-0.002104587129556578,1.7833023427982384
11812,4.0,299.30203,5176.8003,0.0,0.0,0.0,0.0,0.0,0.11772795480409155,-0.7433479452202303,0.0007933036170829714,-0.8310633750445693,-0.006219910719357394,0.0035162641914782567,1.7909432618023384
11813,4.0,300.20955,5019.9682,0.0,0.0,0.0,0.0,0.0,0.11773792161367538,-0.7304478224995873,0.014120137649299088,-0.8096172881980052,0.02357028968745648,0.03258194558583767,1.7451720190100681
11814,4.0,300.62427,4818.1526,0.0,0.0,0.0,0.0,0.0,0.1177478884232592,-0.7596390309905353,0.06594188486345734,-0.7709009410819992,0.00019173339514511284,0.007349755204389363,1.7907588502841383
11815,4.0,301.1241,4748.5834,0.0,0.0,0.0,0.0,0.0,0.11775785523284302,-0.7343949889266423,0.05786206137979085,-0.7669178549388993,-0.006891286081291983,-0.02700202085489197,1.7870247196906084
11816,4.0,300.34853,4781.615,0.0,0.0,0.0,0.0,0.0,0.11776782204242683,-0.7506204971504753,0.08121550338684612,-0.7840865571508183,0.0016953879005217587,0.005417280965969005,1.8266941703806783
11817,4.0,300.52792,5267.1668,0.0,0.0,0.0,0.0,0.0,0.11777778885201065,-0.7652561146423982,-0.0034625568699277564,-0.8323685222333771,0.002979546018808297,0.032478578876886176,1.8104730495297783
11818,4.0,299.58805,5455.6899,0.0,0.0,0.0,0.0,0.0,0.11778775566159447,-0.7835931955446273,0.007272921361231453,-0.8820732424438512,-0.005127385654058565,-0.01976250290440718,1.8077918884401682
11819,4.0,299.2899,5055.5577,0.0,0.0,0.0,0.0,0.0,0.11779772247117828,-0.7750167021931933,0.03765411042667136,-0.7994007178372082,-0.027765829045273974,-0.025395200740311177,1.7980544536541585
11820,4.0,299.19521000000003,4993.1355,0.0,0.0,0.0,0.0,0.0,0.11780768928076213,-0.7777485764503083,0.02151619058123268,-0.7615561204447372,0.006350317527102544,0.00038266845053643565,1.8082600099863682
11821,4.0,299.65731,5138.6294,0.0,0.0,0.0,0.0,0.0,0.11781765609034595,-0.7937411790061553,0.03321788465334997,-0.8014917418035762,0.017686372701259084,0.02114252522260478,1.8022351235667582
11822,4.0,300.24368,5003.1916,0.0,0.0,0.0,0.0,0.0,0.11782762289992976,-0.7698326715015692,0.04875071180407065,-0.7997633600479982,-0.015598226365175084,-0.003447944688910647,1.8154428386202583
11823,4.0,301.26499,4664.4791,0.0,0.0,0.0,0.0,0.0,0.11783758970951358,-0.6797303588141633,0.06320554622640173,-0.8013603739281112,-0.03204802459139377,-0.00950567611713719,1.7778724368373484
11824,4.0,300.69607,4792.8653,0.0,0.0,0.0,0.0,0.0,0.1178475565190974,-0.6788262560149353,0.04624286410431536,-0.8243279976548392,0.006438887136893683,0.019070354800847483,1.7946738460205183
11825,4.0,300.96622,5186.3754,0.0,0.0,0.0,0.0,0.0,0.11785752332868123,-0.7661888417569512,0.015308578691589086,-0.8256483638601493,-0.002213203385951168,0.033135151769434865,1.7652926328708183
11826,4.0,300.13802999999996,5376.5576,0.0,0.0,0.0,0.0,0.0,0.11786749013826504,-0.8194350939819472,0.009194387143940361,-0.8240985370371932,0.01104910527896179,-0.016032318920016685,1.8032624578431482
11827,4.0,299.99062999999995,5161.9122,0.0,0.0,0.0,0.0,0.0,0.11787745694784887,-0.7818848153460233,0.012966797616973287,-0.8001743950835642,-0.02423563935237138,-0.013797813673238188,1.777330044058818
11828,4.0,298.86444,4843.2979,0.0,0.0,0.0,0.0,0.0,0.11788742375743269,-0.7424598517725823,0.05524166793842815,-0.7850234385907813,0.016785504196350283,0.04457879637233466,1.8353629302862182
11829,4.0,299.51555,4792.9464,0.0,0.0,0.0,0.0,0.0,0.11789739056701651,-0.6906190280987914,0.030090096091911267,-0.7964070906817602,-0.0013114844602334387,0.01985629845291408,1.771942086652068
11830,4.0,299.28335,5066.7099,0.0,0.0,0.0,0.0,0.0,0.11790735737660032,-0.7296054164989483,0.015033621117952884,-0.8255814994860502,-0.013716916798504286,-0.0017818743694323082,1.7906715081255182
11831,4.0,300.10454,5102.4861,0.0,0.0,0.0,0.0,0.0,0.11791732418618414,-0.7834240233079313,0.03005576717852327,-0.7976601061529233,-0.016867262333669183,-0.022560279961276276,1.7866482972784585
11832,4.0,300.28915,4786.5593,0.0,0.0,0.0,0.0,0.0,0.11792729099576797,-0.7428583630369123,0.06547823276344843,-0.7776143613420622,0.034242096092931766,0.015027180900317287,1.8195910845296583
11833,4.0,300.03675,4788.0413,0.0,0.0,0.0,0.0,0.0,0.11793725780535179,-0.7556846400902673,0.04339292189254796,-0.7431532897435192,0.02651002105683537,0.022083241814196276,1.7738985712701583
11834,4.0,299.91025,5119.7714,0.0,0.0,0.0,0.0,0.0,0.1179472246149356,-0.7952756550900962,0.06567491271385924,-0.8266819194921532,0.017357578110059585,-0.016146507140036185,1.8139826439011484
11835,4.0,300.48745,5408.2398,0.0,0.0,0.0,0.0,0.0,0.11795719142451944,-0.7769628415277623,-0.005282816800848425,-0.8617242116130581,0.002796150182508537,-0.0018238201877970384,1.7956204242639384
11836,4.0,301.64297999999997,5154.6085,0.0,0.0,0.0,0.0,0.0,0.11796715823410325,-0.7494877747311842,0.029746887004789176,-0.8471313836728582,0.022118181717394582,0.04838215018619645,1.797222676647068
11837,4.0,301.74653,4742.1293,0.0,0.0,0.0,0.0,0.0,0.11797712504368707,-0.7155119384730303,0.06329188830717304,-0.7892688450522702,-0.005758650092234515,0.005100698672924765,1.8045161521918784
11838,4.0,300.77336,4735.7211,0.0,0.0,0.0,0.0,0.0,0.11798709185327089,-0.7429676217951953,0.05863260768333785,-0.7552059402130232,-0.039419685553670064,-0.03700232412759506,1.8029711484393982
11839,4.0,300.21839,5077.4408,0.0,0.0,0.0,0.0,0.0,0.1179970586628547,-0.8001898471475892,0.049541482579613653,-0.7927668681074982,-0.014295707547126486,-0.032320778346062465,1.8061323874263882
11840,4.0,300.09339,5220.8892,0.0,0.0,0.0,0.0,0.0,0.11800702547243853,-0.7937405001285882,0.033399797496803364,-0.8266792546443902,0.003781379661593116,0.017243158869017283,1.8046439230294884
11841,4.0,299.97105,5026.2825,0.0,0.0,0.0,0.0,0.0,0.11801699228202236,-0.7101353902624064,0.01135139527404549,-0.8290803736713622,0.01013916311940749,0.012166795119769189,1.7809381263399084
11842,4.0,300.80568,4833.2141,0.0,0.0,0.0,0.0,0.0,0.11802695909160618,-0.7132874998659953,0.050394544931554354,-0.8062834521889812,-0.037123288964283366,-0.006863837237407993,1.7968979299900183
11843,4.0,299.67285,4942.3983,0.0,0.0,0.0,0.0,0.0,0.11803692590119,-0.7370232583610322,0.024499489678411375,-0.7898419089113273,0.03710316176429697,-0.0025181937938763776,1.7956381561406882
11844,4.0,298.6885,5334.3923,0.0,0.0,0.0,0.0,0.0,0.11804689271077382,-0.8066494685226042,0.01204896831864059,-0.8269215632733042,0.039945824787345964,0.02281862023327248,1.8303007327866183
11845,4.0,299.5434,5182.3181,0.0,0.0,0.0,0.0,0.0,0.11805685952035763,-0.7876569161306852,0.03534554875658407,-0.8229839416621911,0.03910015308163467,-0.010579852945650189,1.8040913977499582
11846,4.0,299.5876,4821.8174,0.0,0.0,0.0,0.0,0.0,0.11806682632994146,-0.7234722947036564,0.03860291376731097,-0.7808426977506743,-0.012989137755178088,-0.039206417685872165,1.8061111091742883
11847,4.0,299.6609,4817.9415,0.0,0.0,0.0,0.0,0.0,0.11807679313952528,-0.7127302629735003,0.06137066377931294,-0.8131743330715582,0.01266961440239359,-0.008166495782645382,1.7877929659164282
11848,4.0,300.22017999999997,5098.2559,0.0,0.0,0.0,0.0,0.0,0.1180867599491091,-0.7631738350243933,0.03804159854316346,-0.8246102587351962,-0.013225195644225186,0.05967246674421394,1.8024771890156481
11849,4.0,299.87996,5163.209,0.0,0.0,0.0,0.0,0.0,0.11809672675869293,-0.7545460610853982,-0.0029381739026501873,-0.8120023674758943,0.014093284495148886,0.008864191329177571,1.7813295448535382
11850,4.0,300.96052000000003,4955.6285,0.0,0.0,0.0,0.0,0.0,0.11810669356827674,-0.7788472840637423,0.06749333592632364,-0.7950333869911862,-0.018972400873930182,-0.009223106096824701,1.8193363534545184
11851,4.0,300.05093,4805.9332,0.0,0.0,0.0,0.0,0.0,0.11811666037786056,-0.7554395146260753,0.059773080452643734,-0.7652172565010632,0.007208799247203092,-0.02724382083225577,1.8226679197833182
11852,4.0,299.65867000000003,4999.5654,0.0,0.0,0.0,0.0,0.0,0.11812662718744438,-0.7498363631630872,0.04635654468603475,-0.8162632158689073,0.030566339850912873,0.02284537712866318,1.8084197995271383
11853,4.0,299.44139,5346.9092,0.0,0.0,0.0,0.0,0.0,0.1181365939970282,-0.7739959337774512,0.017981781714913683,-0.8693127151894852,-0.010144569821941089,-0.025024038109430272,1.8123158474866483
11854,4.0,299.24949,5429.6484,0.0,0.0,0.0,0.0,0.0,0.11814656080661202,-0.7899233640868663,-0.00025977350413014874,-0.8602944143969482,-0.005832930747790444,-0.024297527655229276,1.8191868990647682
11855,4.0,300.09641,5083.8237,0.0,0.0,0.0,0.0,0.0,0.11815652761619586,-0.7604917721421943,0.042017833089087256,-0.8268815094968512,0.0025608866815398372,0.006555347772912454,1.8286983790784785
11856,4.0,299.85092000000003,4790.3142,0.0,0.0,0.0,0.0,0.0,0.11816649442577967,-0.7242373795891643,0.05820554404443994,-0.7901040772422012,0.02069995987042698,0.03107464182982837,1.8236628300565085
11857,4.0,299.1846,4931.9832,0.0,0.0,0.0,0.0,0.0,0.11817646123536349,-0.7559085683623672,0.044103223384899255,-0.7873943931622763,0.0014280171383343186,-0.03152725963624827,1.8006316552835084
11858,4.0,300.85447,5259.8055,0.0,0.0,0.0,0.0,0.0,0.1181864280449473,-0.7555202605265442,0.004479375738104966,-0.8478086400396982,-0.009534957322502022,-0.04228777203497816,1.7799086642383084
11859,4.0,300.71813,5115.1381,0.0,0.0,0.0,0.0,0.0,0.11819639485453112,-0.7670086624128613,-0.0081668688613322,-0.7796987181227722,-0.024830455664575177,-0.01992773866446468,1.7676827885317086
11860,4.0,300.37127000000004,4849.7866,0.0,0.0,0.0,0.0,0.0,0.11820636166411495,-0.7164136803995252,0.03003198619867627,-0.7878323502529992,-0.018063635097741983,0.035960152829990766,1.7751869187723084
11861,4.0,300.55617,4939.7418,0.0,0.0,0.0,0.0,0.0,0.11821632847369878,-0.7475693781843533,0.03105158735030307,-0.7850403801324533,-0.050753928530022745,0.01000953722351441,1.7867321943867382
11862,4.0,299.42975,5178.4515,0.0,0.0,0.0,0.0,0.0,0.1182262952832826,-0.7624557548110242,0.009113270393934761,-0.8207774578469282,-0.01104851252765329,0.014749600022172186,1.839390295458688
11863,4.0,300.00021,5392.946,0.0,0.0,0.0,0.0,0.0,0.11823626209286642,-0.8109161633686942,0.026313175946658277,-0.8547179316765922,-0.013799110633366187,0.0035506174228686566,1.8505261167077083
11864,4.0,300.41026,5099.7647,0.0,0.0,0.0,0.0,0.0,0.11824622890245023,-0.7386164320232662,0.028280121358780674,-0.8398648099182032,0.05979198060675904,0.008074616188752572,1.8250348720169183
11865,4.0,300.24186000000003,4912.8388,0.0,0.0,0.0,0.0,0.0,0.11825619571203405,-0.7116250401619233,0.04340258120575126,-0.8251578494867392,0.011238209158374889,-0.03071638395222107,1.7874912200366484
11866,4.0,300.34811,5151.8232,0.0,0.0,0.0,0.0,0.0,0.11826616252161788,-0.7691002234017822,0.030263959676570272,-0.8271893551422332,0.025246465758132178,-0.006618696169164454,1.778983870872038
11867,4.0,299.67103,5352.8837,0.0,0.0,0.0,0.0,0.0,0.1182761293312017,-0.7987572026986982,0.014527221009475087,-0.8429129904590351,0.011251447270931388,-0.010308687967138292,1.7967562776260382
11868,4.0,300.14694,4883.2498,0.0,0.0,0.0,0.0,0.0,0.11828609614078553,-0.7895900757314732,0.060758093298856945,-0.7555540118873754,0.01050772575053179,0.039745081704034166,1.8019718811907783
11869,4.0,300.9268,4542.6926,0.0,0.0,0.0,0.0,0.0,0.11829606295036935,-0.6968430586930553,0.07846447262334053,-0.7624865373490622,-0.021608053861798877,-0.01822400117781888,1.8325930084878483
11870,4.0,300.73604,4848.406,0.0,0.0,0.0,0.0,0.0,0.11830602975995316,-0.7252488159714854,0.03756946857956787,-0.7861149926585093,-0.015330175104220486,-0.033565571292663965,1.8065328238659084
11871,4.0,300.57288,5285.8954,0.0,0.0,0.0,0.0,0.0,0.11831599656953698,-0.7683815352383533,0.01103957870152159,-0.8494382501755282,-0.00990450787247382,-0.006547275614665794,1.815449728720938
11872,4.0,300.94076,5379.1572,0.0,0.0,0.0,0.0,0.0,0.1183259633791208,-0.7992380911961582,-0.0012688949240801787,-0.8346224768158251,-0.011199528335807389,0.005654286750484655,1.7829333171118185
11873,4.0,300.51089,5091.3023,0.0,0.0,0.0,0.0,0.0,0.11833593018870461,-0.7528772077731952,0.028034923953831573,-0.8227864896152042,0.009822744668904421,0.002146677234735548,1.807347882246348
11874,4.0,300.07302000000004,4741.902,0.0,0.0,0.0,0.0,0.0,0.11834589699828843,-0.7455294118905242,0.07007393093025853,-0.7659643359322943,-0.037106076884834666,0.0036440304694628062,1.8018372202524882
11875,4.0,299.29192,4835.424,0.0,0.0,0.0,0.0,0.0,0.11835586380787227,-0.7236054155017944,0.058991232357481355,-0.8052339783979062,0.024485523039032977,0.003822788964029897,1.8155841870092084
11876,4.0,299.4854,5290.1258,0.0,0.0,0.0,0.0,0.0,0.11836583061745609,-0.7815773952656833,0.017813503164805882,-0.8443022678036463,-0.008891297593202752,0.015330787107280886,1.7855395990190381
11877,4.0,299.87532999999996,5102.11,0.0,0.0,0.0,0.0,0.0,0.11837579742703991,-0.7365566060274773,0.017016476583145482,-0.8313739058027162,0.01110455843043459,-0.023016274930279478,1.7965005333007984
11878,4.0,300.28551,4560.3578,0.0,0.0,0.0,0.0,0.0,0.11838576423662373,-0.6926912664083054,0.05499232836707025,-0.7485359579847473,-0.012043189753320289,-0.037625090943807366,1.7761935827466584
11879,4.0,300.40394,4807.0545,0.0,0.0,0.0,0.0,0.0,0.11839573104620754,-0.7351142242451253,0.05633424842850744,-0.7824445448337642,-0.0029846573589377475,0.0015639773672275483,1.8071845463302283
11880,4.0,300.57966,5222.4276,0.0,0.0,0.0,0.0,0.0,0.11840569785579137,-0.8155529782113122,0.01944913301947998,-0.7913837513234953,0.008104653481342023,0.017262059023132582,1.8283122294653682
11881,4.0,300.13244,5268.3398,0.0,0.0,0.0,0.0,0.0,0.11841566466537519,-0.7872517579456992,0.027945171273223674,-0.8421371651224673,-0.007240294100061394,-0.007401471084193322,1.8390473102998384
11882,4.0,300.51639,5102.3277,0.0,0.0,0.0,0.0,0.0,0.11842563147495902,-0.7673708689261083,0.036115018988524865,-0.8197243768854972,-0.015848946996419287,-0.0004539162762905486,1.8326996023983682
11883,4.0,298.92744,4926.3471,0.0,0.0,0.0,0.0,0.0,0.11843559828454284,-0.7259663388972992,0.04780028219702055,-0.8193204548656332,-0.0012678670831787388,-0.007214036635644984,1.8114083806970882
11884,4.0,299.49589,5153.1421,0.0,0.0,0.0,0.0,0.0,0.11844556509412665,-0.7575975650865583,0.03419420887995567,-0.8430231510099071,-0.0004968633681390965,0.02215749075502408,1.7901644777754782
11885,4.0,300.31177,5352.9946,0.0,0.0,0.0,0.0,0.0,0.11845553190371047,-0.7978995878140582,0.015752890886939284,-0.8450299840254663,0.012134174546049788,0.02076832892092448,1.8033525357770381
11886,4.0,299.70642999999995,5014.2706,0.0,0.0,0.0,0.0,0.0,0.11846549871329429,-0.7684174549543983,0.043527893898618664,-0.7993234980470872,0.01296714516175759,-0.006484402128735664,1.8137784740059981
11887,4.0,299.44857,4620.2201,0.0,0.0,0.0,0.0,0.0,0.11847546552287812,-0.7229844857080133,0.07771852093947083,-0.7591655898813102,0.033060961597112866,0.02162066983879398,1.8183794400600783
11888,4.0,300.94875,4731.1034,0.0,0.0,0.0,0.0,0.0,0.11848543233246193,-0.7210380423984144,0.044105683556142056,-0.7612049482250793,0.031249216716057567,0.01075559813574489,1.8033057236224181
11889,4.0,300.38355,5202.1946,0.0,0.0,0.0,0.0,0.0,0.11849539914204575,-0.7514018041700843,0.017997667449981485,-0.8479331279469843,0.007122879083773433,-0.004898991279492795,1.8091924027283883
11890,4.0,301.20402,5510.8241,0.0,0.0,0.0,0.0,0.0,0.11850536595162958,-0.7828772836864722,-0.02240978395042348,-0.8698658686840772,-0.027116997383489272,-0.030017675054263872,1.8031879839607985
11891,4.0,300.17283,5125.5693,0.0,0.0,0.0,0.0,0.0,0.1185153327612134,-0.7796352886665123,0.026120771911669474,-0.8045305599134842,-0.016327273997626485,0.003956461578172356,1.8287410369076882
11892,4.0,299.66582999999997,4982.3973,0.0,0.0,0.0,0.0,0.0,0.11852529957079722,-0.7601392320349013,0.04805848466700315,-0.8024436294775202,-0.011561620351793091,0.017894592557058785,1.8155328152291383
11893,4.0,300.51365,5175.0326,0.0,0.0,0.0,0.0,0.0,0.11853526638038103,-0.7876686698318452,0.048093119581921355,-0.8335051456655531,-0.030326701136012373,-0.011731474505806389,1.851393864093348
11894,4.0,300.00262000000004,5223.3295,0.0,0.0,0.0,0.0,0.0,0.11854523318996485,-0.7868840190869063,0.04925731962881895,-0.8501350420042962,-0.002300224344289468,-0.02741723858687077,1.8320306546823484
11895,4.0,299.8369,5214.282999999999,0.0,0.0,0.0,0.0,0.0,0.11855519999954868,-0.7567279431882333,0.026297568855367978,-0.8545814570206233,0.0030567076483735568,-0.0018720234334793282,1.8156545065661485
11896,4.0,300.1234,4935.7713,0.0,0.0,0.0,0.0,0.0,0.11856516680913251,-0.7347851814076513,0.043514616269308255,-0.8090806608125443,0.05167364247354145,-0.0016814392969951384,1.7960252176788882
11897,4.0,299.42971,4706.0676,0.0,0.0,0.0,0.0,0.0,0.11857513361871633,-0.7258676078075553,0.08730768582509772,-0.7919671098035682,-0.016096741361374685,-0.017349735554285584,1.8122035793755684
11898,4.0,300.7818,5133.6035,0.0,0.0,0.0,0.0,0.0,0.11858510042830014,-0.7675663856654042,0.01264791565150209,-0.8055688068934512,0.02012500933968378,-0.03099945563265807,1.8141520593178684
11899,4.0,301.19827000000004,5400.5767,0.0,0.0,0.0,0.0,0.0,0.11859506723788396,-0.8110205078639923,0.019720396283251583,-0.8503403568720592,-0.02936159764101407,0.011286364882627489,1.8270131415121582
11900,4.0,300.56222,5081.5526,0.0,0.0,0.0,0.0,0.0,0.11860503404746778,-0.7809010710889353,0.03011283646390557,-0.7938768734595473,0.02367655023869358,0.024252878789572774,1.8161275930378382
11901,4.0,300.50943,4893.9027,0.0,0.0,0.0,0.0,0.0,0.11861500085705161,-0.7029780043385273,0.020851209739354178,-0.8054974234239062,-0.008971549027622951,0.03274633629531177,1.7955754359594984
11902,4.0,300.58203,5027.1468,0.0,0.0,0.0,0.0,0.0,0.11862496766663543,-0.7405375643453673,0.015105115031758787,-0.8026946419247932,-0.000983037596203257,-0.003893809892689116,1.8054793477369382
11903,4.0,300.90563,5149.4408,0.0,0.0,0.0,0.0,0.0,0.11863493447621924,-0.7385971904038673,0.03824128379337086,-0.8649455059334751,0.013650841746233187,0.026927160924253873,1.813926915145648
11904,4.0,301.42522,5087.6467,0.0,0.0,0.0,0.0,0.0,0.11864490128580307,-0.7513587005108303,0.026485623007677473,-0.8216444756924962,0.02070438068061328,-0.008950657330436101,1.7859045717050583
11905,4.0,300.66087000000005,4672.9011,0.0,0.0,0.0,0.0,0.0,0.11865486809538689,-0.7226347523034973,0.08196024727659662,-0.7797707399398802,0.0024068304138106676,-0.013704342364763287,1.8297067655779982
11906,4.0,300.30977,4656.6751,0.0,0.0,0.0,0.0,0.0,0.1186648349049707,-0.7306553563850693,0.06848459545940334,-0.7533422085090873,-0.0045746220581050455,-0.055654236021395444,1.7827671440954185
11907,4.0,299.88353,5222.27,0.0,0.0,0.0,0.0,0.0,0.11867480171455452,-0.7598725446085812,0.00854451082130256,-0.8361116504877952,0.016824047216904184,0.02678382656510787,1.8105726520146082
11908,4.0,299.34991,5557.2253,0.0,0.0,0.0,0.0,0.0,0.11868476852413834,-0.8309191287603332,-0.020360443066669284,-0.8379781584970052,0.024583482032200774,0.011530367665708688,1.7829823584166584
11909,4.0,299.06426,5377.7708,0.0,0.0,0.0,0.0,0.0,0.11869473533372217,-0.8022798477313562,0.004626916098416066,-0.8370551079209072,0.020963847686720678,0.020564288721787283,1.8452920719911483
11910,4.0,299.3934,4893.0244,0.0,0.0,0.0,0.0,0.0,0.118704702143306,-0.7338798424433013,0.026393951231380174,-0.7798713354098082,-0.008165518198948903,-0.04262311424832386,1.8066379992262884
11911,4.0,300.8015,4840.6587,0.0,0.0,0.0,0.0,0.0,0.11871466895288982,-0.7569155667092503,0.07817783734230183,-0.7927016553310623,-0.01024898524474609,-0.0002326084310691648,1.8901693242201882
11912,4.0,300.87334,5255.5002,0.0,0.0,0.0,0.0,0.0,0.11872463576247363,-0.7865845428873502,0.03388084102152867,-0.8448371422664342,-0.0005299053728400886,0.006260911378028844,1.8193251063784084
11913,4.0,299.52799,5225.155,0.0,0.0,0.0,0.0,0.0,0.11873460257205745,-0.7593809967200692,0.02717315981003208,-0.8561087998238601,0.0068514894677143634,0.015818463367160786,1.8512125936504584
11914,4.0,300.29523,4675.2399,0.0,0.0,0.0,0.0,0.0,0.11874456938164127,-0.7051504226854284,0.07561091513521634,-0.7916166671239823,-0.018176476708378585,-0.016438991913902183,1.780715616617948
11915,4.0,301.50441,4741.9649,0.0,0.0,0.0,0.0,0.0,0.1187545361912251,-0.6828043974975473,0.039157196022514364,-0.7977917273409133,0.004111501711748626,0.015262524448043886,1.7974587639203683
11916,4.0,299.59686,5013.1719,0.0,0.0,0.0,0.0,0.0,0.11876450300080893,-0.7510685968746993,0.039933206783850664,-0.8127437017790582,0.009648535363311303,-0.008196142062021242,1.7926336669441685
11917,4.0,299.43492000000003,5310.6677,0.0,0.0,0.0,0.0,0.0,0.11877446981039275,-0.8021561298941463,-0.0015167941604209286,-0.8106374689286893,0.022890884217154378,-0.004785412326758426,1.8041916081848484
11918,4.0,299.50813999999997,5115.0288,0.0,0.0,0.0,0.0,0.0,0.11878443661997656,-0.7716703120154302,0.008074867373452362,-0.7912455946723602,0.0058379200926078545,-0.05593835540243586,1.7909699102799683
11919,4.0,299.27719,4956.1917,0.0,0.0,0.0,0.0,0.0,0.11879440342956038,-0.7371746075284693,0.03928579164570576,-0.8086697068369862,0.043538908940455756,0.018141022074129484,1.8111468608462784
11920,4.0,301.19228,5174.3829,0.0,0.0,0.0,0.0,0.0,0.1188043702391442,-0.7700662053846172,0.004111673558965586,-0.8069286695876592,0.006140016860897484,0.048759421701930254,1.807405536177038
11921,4.0,300.30694,5389.4627,0.0,0.0,0.0,0.0,0.0,0.11881433704872801,-0.7689548929399393,0.020333544316264583,-0.8896407312132041,-0.009441188523797762,0.023660786093637774,1.8328191659101682
11922,4.0,299.24459,4973.6745,0.0,0.0,0.0,0.0,0.0,0.11882430385831184,-0.7627268802727822,0.05515846085346625,-0.8043044328886673,-0.04649839564703436,-0.030300886563214672,1.8291286050709379
11923,4.0,301.02961,4622.0407,0.0,0.0,0.0,0.0,0.0,0.11883427066789566,-0.7201699505077402,0.08345178587430002,-0.7682668049295303,-0.015993050412391185,0.018766008921310882,1.8478421185178182
11924,4.0,302.56282000000004,4817.037,0.0,0.0,0.0,0.0,0.0,0.11884423747747949,-0.7274198259007474,0.05987894887609215,-0.7967180976674543,0.01009469603081893,0.012661365533329487,1.7937256465769382
11925,4.0,302.14455,5367.3155,0.0,0.0,0.0,0.0,0.0,0.11885420428706331,-0.8198738819377522,0.009435285936665221,-0.8210913019329021,-0.01830435697699938,0.006824797521655074,1.8002058875914881
11926,4.0,301.33474,5481.2114,0.0,0.0,0.0,0.0,0.0,0.11886417109664713,-0.8038382973126633,-0.007424965820887072,-0.8548881374283901,-0.016273232303542984,-0.029399394909494368,1.7577433116757584
11927,4.0,300.29131,5011.9108,0.0,0.0,0.0,0.0,0.0,0.11887413790623094,-0.7467513205836173,0.04730134467552925,-0.8240457669719852,0.00011660319017533889,-0.007060417686658973,1.8098676325950283
11928,4.0,300.67439,4900.1206,0.0,0.0,0.0,0.0,0.0,0.11888410471581476,-0.7561782144789793,0.06842111128763793,-0.8017571930647742,0.02718885302758087,-0.0016672045516402784,1.8438462654234584
11929,4.0,299.50527,5106.0788,0.0,0.0,0.0,0.0,0.0,0.11889407152539858,-0.7891136961969583,0.05786026995361404,-0.8208670392882691,0.0016863978390095086,-0.025059285027408874,1.8640281809152583
11930,4.0,299.90682999999996,5291.4477,0.0,0.0,0.0,0.0,0.0,0.11890403833498242,-0.7851238618081923,0.010945577463244389,-0.8342896748204802,0.025309242681327775,-0.039173723144895464,1.8501169663173282
11931,4.0,299.95687000000004,5173.9895,0.0,0.0,0.0,0.0,0.0,0.11891400514456624,-0.7716176736727353,0.027116627547202773,-0.8282625693831512,0.0024058673195906178,0.03524890192229577,1.8322659313555683
11932,4.0,299.35752,4885.5774,0.0,0.0,0.0,0.0,0.0,0.11892397195415005,-0.6867972412391103,0.018587093271653286,-0.8168833958576142,0.01118617065973909,0.03104298384370397,1.8005580933262484
11933,4.0,300.51569,4917.1976,0.0,0.0,0.0,0.0,0.0,0.11893393876373387,-0.7183954658726124,0.02164590888553488,-0.7979557320020992,-0.042704436688099756,0.004895536299301815,1.7681014634730283
11934,4.0,301.25083,5107.8107,0.0,0.0,0.0,0.0,0.0,0.11894390557331769,-0.7790079044695942,0.04442303146096186,-0.8180620286389362,-0.04428670068650705,-0.02973318279718667,1.8168405158081982
11935,4.0,299.73685,5121.4665,0.0,0.0,0.0,0.0,0.0,0.11895387238290152,-0.7640529004136503,0.015618888561214286,-0.8083639079568062,0.0054711008596056146,0.0012167800263868387,1.7848800745289484
11936,4.0,301.29998,4955.6144,0.0,0.0,0.0,0.0,0.0,0.11896383919248534,-0.7666255221525483,0.04553117648582726,-0.7852886973344603,0.019219953072111683,0.038119142573316465,1.8310839751139183
11937,4.0,300.03429,4928.7172,0.0,0.0,0.0,0.0,0.0,0.11897380600206917,-0.7637662823578633,0.06115622155464914,-0.7955969060343012,0.0024151480825565577,0.002541448998246487,1.7898113601156285
11938,4.0,299.71152,5305.2205,0.0,0.0,0.0,0.0,0.0,0.11898377281165298,-0.7737800304461433,0.017768157183080585,-0.8566426813015502,0.0037196088957468167,-0.016486960186886283,1.814645512116568
11939,4.0,299.57181,5296.0688,0.0,0.0,0.0,0.0,0.0,0.1189937396212368,-0.7776415063122413,0.024866099776592977,-0.8570972658264141,0.013312989712389789,0.015268999116182885,1.8207685824708681
11940,4.0,299.39659,5082.6279,0.0,0.0,0.0,0.0,0.0,0.11900370643082062,-0.7803202254691103,0.04547810345883936,-0.8101498625830662,0.02917087053494077,0.012075752571783989,1.8629651802353482
11941,4.0,299.21764,4948.7205,0.0,0.0,0.0,0.0,0.0,0.11901367324040443,-0.7766105648654953,0.06180677371510364,-0.7894836743384723,0.008179105781464892,-0.02865697034922277,1.8415749639992982
11942,4.0,300.8485,4970.5398,0.0,0.0,0.0,0.0,0.0,0.11902364004998826,-0.7670647762033993,0.06699724969061373,-0.8108524603349072,0.016943705974213585,-0.023603036917438376,1.8463882059493284
11943,4.0,301.16731,5174.38,0.0,0.0,0.0,0.0,0.0,0.11903360685957208,-0.7692911399856243,0.005496226624985334,-0.8090874090582102,0.012472609198700687,0.014670252406841186,1.7853595444762684
11944,4.0,300.47685,5373.1203,0.0,0.0,0.0,0.0,0.0,0.1190435736691559,-0.7495275447976092,0.005231780406561525,-0.8889986346248342,-0.015174134588820484,0.04703603628259536,1.7776173004621683
11945,4.0,299.53587999999996,5033.5002,0.0,0.0,0.0,0.0,0.0,0.11905354047873973,-0.7494028846378064,0.03532874805667596,-0.8159842377188742,-0.03319956103854157,0.0007772659755601792,1.7814203320624984
11946,4.0,300.10513,4716.1736,0.0,0.0,0.0,0.0,0.0,0.11906350728832354,-0.7266426022790413,0.06486912759833444,-0.7718255419307503,-0.05008338291859505,-0.003245539875434847,1.837630077384968
11947,4.0,300.81577000000004,4946.48,0.0,0.0,0.0,0.0,0.0,0.11907347409790736,-0.7590852492808813,0.047416045600099356,-0.7919372189256182,0.013016963629424288,0.017513598360457586,1.8556623827896181
11948,4.0,300.15546,5208.5112,0.0,0.0,0.0,0.0,0.0,0.11908344090749118,-0.8132863884001172,0.03672457606318347,-0.8066955410046512,0.01003680023733006,0.005881828779066305,1.8652666765124881
11949,4.0,299.74739,5267.789000000001,0.0,0.0,0.0,0.0,0.0,0.119093407717075,-0.7903904419854633,0.017151762696747185,-0.8280376481259533,0.012281869933626188,-0.027304459797740373,1.8036003767514985
11950,4.0,300.25993,5202.5817,0.0,0.0,0.0,0.0,0.0,0.11910337452665883,-0.7603576887564613,0.024760629560433876,-0.8458578600196711,-0.013767114221708385,-0.040223138167464666,1.801342247578638
11951,4.0,300.18003999999996,5145.3814,0.0,0.0,0.0,0.0,0.0,0.11911334133624266,-0.7372913440724903,0.008573876025100681,-0.8353500005201261,0.03152687966746077,0.01063581474867319,1.7874582894083983
11952,4.0,300.01096,5290.1519,0.0,0.0,0.0,0.0,0.0,0.11912330814582647,-0.7765450886440333,0.03816242355133796,-0.8696914072818591,0.0018087001658298081,0.02468613743958208,1.8307728060082082
11953,4.0,299.60262,5236.4859,0.0,0.0,0.0,0.0,0.0,0.11913327495541029,-0.7785955623413993,0.02083613663086658,-0.8340015368895433,0.011157936445702591,-0.03326851676084697,1.8256750434300981
11954,4.0,299.04509,4759.9091,0.0,0.0,0.0,0.0,0.0,0.1191432417649941,-0.7456429972267343,0.08495194216410391,-0.7862024361421392,-0.019249007005479084,-0.013880722862670685,1.862745507613668
11955,4.0,298.92978,4651.3721,0.0,0.0,0.0,0.0,0.0,0.11915320857457792,-0.6839283147734693,0.053368177622779046,-0.7833408456072223,0.03379801998485487,0.012126796058821589,1.8093987004487482
11956,4.0,299.50953,5186.3908,0.0,0.0,0.0,0.0,0.0,0.11916317538416175,-0.7642665847272393,0.027890879306365475,-0.8401576087996002,0.00900645812801821,0.007198910838152183,1.8156138752371382
11957,4.0,299.21957000000003,5586.5118,0.0,0.0,0.0,0.0,0.0,0.11917314219374557,-0.8153707147833242,-0.008170766631816883,-0.8746186094706362,-0.012875617266974488,-0.024080894783849276,1.7984464801178484
11958,4.0,299.05251,5325.1558,0.0,0.0,0.0,0.0,0.0,0.11918310900332939,-0.8111785343495882,0.01085656952145999,-0.8183924393640452,-0.015117573954988384,-0.004982154592050375,1.8499571767765586
11959,4.0,300.21227000000005,4858.1065,0.0,0.0,0.0,0.0,0.0,0.11919307581291322,-0.7409207451356843,0.053560692102028754,-0.7893830079410372,0.01791707556352768,0.023318924629148682,1.8447307314357484
11960,4.0,300.44048,5049.267,0.0,0.0,0.0,0.0,0.0,0.11920304262249704,-0.7634921374108072,0.03324491411301757,-0.8046038584257182,0.020617487391787582,0.02612988609631897,1.849192983551138
11961,4.0,300.49231000000003,5334.3193,0.0,0.0,0.0,0.0,0.0,0.11921300943208085,-0.7701698000748413,0.004417406273914056,-0.8557474647056992,0.03368076364353257,-0.04446500838610466,1.7797619456238285
11962,4.0,300.13567,5131.4542,0.0,0.0,0.0,0.0,0.0,0.11922297624166467,-0.7580277505490143,0.03928093716447666,-0.8410871239113362,0.014902538979016087,0.002762836343070717,1.810893953621318
11963,4.0,300.78011000000004,4755.215,0.0,0.0,0.0,0.0,0.0,0.11923294305124849,-0.7067298060138013,0.04930170403619936,-0.7880385263833473,0.02047462926018858,0.016504749818891985,1.7763648220135584
11964,4.0,300.04058,4736.741,0.0,0.0,0.0,0.0,0.0,0.11924290986083232,-0.7159779828565254,0.06251570326681953,-0.7863887120405232,-0.004149627070611306,-0.00029716060896996867,1.8427098041112984
11965,4.0,299.10877,5133.6558,0.0,0.0,0.0,0.0,0.0,0.11925287667041615,-0.7886260087913273,0.04082540794740406,-0.8127025840900003,-0.027161831673914075,-0.048449820094124955,1.8466701934521583
11966,4.0,298.99016,5614.5373,0.0,0.0,0.0,0.0,0.0,0.11926284347999996,-0.8498700973681481,0.0013072471496402486,-0.8581163117169862,0.004725454265341026,-0.00011611309123446987,1.874251773099248
11967,4.0,298.91805,5276.095,0.0,0.0,0.0,0.0,0.0,0.11927281028958378,-0.7723184577068972,0.015193610268992587,-0.8466762823904432,-0.02119392537367758,0.006138691327116664,1.8235169220421081
11968,4.0,299.32417999999996,4946.590999999999,0.0,0.0,0.0,0.0,0.0,0.1192827770991676,-0.7209789293875803,0.02795115654156437,-0.8106123707237122,-0.010773900472301189,0.009274001041397641,1.8236355736288181
11969,4.0,299.37049,5129.5238,0.0,0.0,0.0,0.0,0.0,0.11929274390875141,-0.7704157766691172,0.037040205495833665,-0.8258715828571793,-0.03369192560663417,-0.04251982758613026,1.7975562385799884
11970,4.0,299.71873,5188.2737,0.0,0.0,0.0,0.0,0.0,0.11930271071833524,-0.7971281397179223,0.03846161198786557,-0.8184391197961522,0.032812426546334365,0.002104818049254368,1.8491143553433782
11971,4.0,298.98021,4852.5215,0.0,0.0,0.0,0.0,0.0,0.11931267752791908,-0.7606561314409153,0.062239295732290235,-0.7766285399222692,0.05094526865240655,0.03334220132136907,1.8273825724986184
11972,4.0,300.29785,4800.015,0.0,0.0,0.0,0.0,0.0,0.11932264433750289,-0.7096509553895963,0.054515312511492456,-0.8039490556810942,0.04541966020632146,0.023955993470522477,1.833096796437568
11973,4.0,299.95959,4972.8703,0.0,0.0,0.0,0.0,0.0,0.11933261114708671,-0.7270601727777524,0.029003617393934172,-0.8135718614832912,0.007865261898140912,-0.04407929953678816,1.7902561769095284
11974,4.0,299.72992,5292.2145,0.0,0.0,0.0,0.0,0.0,0.11934257795667053,-0.7861287931248712,0.013455187204923587,-0.8360274595369863,-0.004187366786485926,0.002141848895359028,1.8039037438314383
11975,4.0,299.89182999999997,5288.4735,0.0,0.0,0.0,0.0,0.0,0.11935254476625434,-0.7848458563782552,0.024382900055654876,-0.8471009253748523,-0.016868584625049685,0.013792849760998286,1.7998099094524085
11976,4.0,300.01175,5030.4976,0.0,0.0,0.0,0.0,0.0,0.11936251157583816,-0.7523349365846773,0.016415676015851085,-0.7932263972928503,-0.03024719444041567,-0.01051192161919589,1.8289516916034785
11977,4.0,299.82546,4902.2757,0.0,0.0,0.0,0.0,0.0,0.11937247838542198,-0.7617103776399612,0.06860017385856003,-0.7970591880486172,-0.03760403256697906,-0.028856845077198875,1.8652416492350183
11978,4.0,299.04392,5082.8691,0.0,0.0,0.0,0.0,0.0,0.1193824451950058,-0.7766055594100013,0.047516156736479555,-0.8159758682730482,-0.001095054238873439,0.020595530262120583,1.8393437872790983
11979,4.0,299.93129,5267.588000000001,0.0,0.0,0.0,0.0,0.0,0.11939241200458964,-0.7813461614603622,0.021790838100338276,-0.8416598939278642,0.049332463269485045,0.04031518585954906,1.8319542556248083
11980,4.0,299.25406,5191.5171,0.0,0.0,0.0,0.0,0.0,0.11940237881417345,-0.7853845305289182,0.030926538102461675,-0.8236335768313052,0.008603220862571793,0.014926668516897485,1.8098149435898283
11981,4.0,299.6845,5231.3568,0.0,0.0,0.0,0.0,0.0,0.11941234562375727,-0.7599104502948223,0.027779369106360273,-0.8580707661249912,0.01037253082943909,-0.04621223760679275,1.827487950509018
11982,4.0,298.82108,5184.4028,0.0,0.0,0.0,0.0,0.0,0.11942231243334109,-0.7868640377949342,0.03252163997963597,-0.8215865988467842,0.005670329944617994,0.016124238942588486,1.8242560879900585
11983,4.0,299.27425,5132.8032,0.0,0.0,0.0,0.0,0.0,0.1194322792429249,-0.7647958863144773,0.040720345057785164,-0.8361684836859042,0.010483538457394689,0.009937308298085971,1.8539040898910883
11984,4.0,299.37421,4998.1942,0.0,0.0,0.0,0.0,0.0,0.11944224605250872,-0.7414869898215682,0.03010720076684937,-0.8079464590481072,0.007879135115860093,0.0026488099390921875,1.815430578294048
11985,4.0,300.26579,5040.0559,0.0,0.0,0.0,0.0,0.0,0.11945221286209257,-0.7354504915558123,0.05071912845533825,-0.8473197873964522,-0.02805196074101297,-0.0037598693752202163,1.8407991183977284
11986,4.0,300.3896,5093.8128,0.0,0.0,0.0,0.0,0.0,0.11946217967167638,-0.7872083604439163,0.02210118748671738,-0.7832847318166842,-0.026405876171807074,0.016557544202102384,1.8100031041333984
11987,4.0,300.80554,5332.6606,0.0,0.0,0.0,0.0,0.0,0.1194721464812602,-0.7853968009876293,0.02349260177578928,-0.8590914534807251,-0.012645693594032788,0.025893826180771677,1.831619376466758
11988,4.0,300.18832000000003,5348.513000000001,0.0,0.0,0.0,0.0,0.0,0.11948211329084402,-0.8034285896347282,0.004708516776669425,-0.8270943325478552,-0.018654538238059584,0.003424988089345007,1.8329172485198484
11989,4.0,299.83114,5215.4923,0.0,0.0,0.0,0.0,0.0,0.11949208010042783,-0.7785788842447533,0.048101042184453255,-0.8549015933897183,0.02242297646672548,-0.016697135615378986,1.8528689535889282
11990,4.0,300.47325,5240.6223,0.0,0.0,0.0,0.0,0.0,0.11950204691001166,-0.7698772342409673,0.01915932626562828,-0.8423004199785792,0.01039378273703649,0.016814370678449184,1.8272517619107083
11991,4.0,299.52214,4981.1823,0.0,0.0,0.0,0.0,0.0,0.11951201371959548,-0.7386298069245864,0.03898203953072776,-0.8145072737106092,0.037984535337281765,0.016988396383124185,1.8177017783931981
11992,4.0,299.86927000000003,4878.7678,0.0,0.0,0.0,0.0,0.0,0.11952198052917931,-0.7212007197019692,0.04173489515766346,-0.8035577587574763,-0.0004876427213015895,-0.020404016873969682,1.8159109601664583
11993,4.0,300.21741000000003,4943.0518,0.0,0.0,0.0,0.0,0.0,0.11953194733876313,-0.7214002691766633,0.050800274589596746,-0.8319643266359863,-0.0062407160876357245,-0.013207471873475988,1.8191682552629285
11994,4.0,300.19099,5026.9221,0.0,0.0,0.0,0.0,0.0,0.11954191414834694,-0.7670367699706353,0.05056541740191815,-0.8115874314274432,0.0074230878631517325,-0.0008785743074635332,1.8428426411994085
11995,4.0,300.20739,5086.3372,0.0,0.0,0.0,0.0,0.0,0.11955188095793076,-0.7478845192304553,0.04624880377640155,-0.8444837814265602,0.0040755339676488865,0.014811145846496288,1.8444319239812583
11996,4.0,300.27857,5094.9552,0.0,0.0,0.0,0.0,0.0,0.11956184776751458,-0.7597846248974043,0.04191338017602857,-0.8308679191002792,-0.005890072683204915,-0.013460151117163487,1.8419580738621082
11997,4.0,300.14747,5339.1312,0.0,0.0,0.0,0.0,0.0,0.11957181457709841,-0.7915475533346612,0.00932075949376234,-0.8407357693066603,-0.005491930241911314,-0.027890921862869674,1.858891306883288
11998,4.0,301.25237999999996,5438.0044,0.0,0.0,0.0,0.0,0.0,0.11958178138668223,-0.8216950368724862,0.004279786240032016,-0.8356023099275273,-0.001856566404528838,0.038845340946486666,1.8031560665826483
11999,4.0,300.728,5221.8817,0.0,0.0,0.0,0.0,0.0,0.11959174819626604,-0.7997266905268793,0.024677827775511977,-0.8122727937950832,-0.012787215248749886,0.025015724392359776,1.8299451833265286
12000,4.0,300.77136,4786.7935,0.0,0.0,0.0,0.0,0.0,0.11960171500584987,-0.7379146246065034,0.06283197915303354,-0.7799830563658342,-0.016856379014345085,0.0013946362217398787,1.8133505784887682
12001,4.0,300.21195,4861.673,0.0,0.0,0.0,0.0,0.0,0.11961168181543369,-0.7150203095245103,0.050386521004012454,-0.8131934227034422,-0.02235343711236248,0.00929557759432708,1.8445679021446784
12002,4.0,300.60562000000004,5152.4641,0.0,0.0,0.0,0.0,0.0,0.11962164862501751,-0.7390769744587183,0.0071278830193922844,-0.8342713248611692,0.042488210130009856,-0.00024762371337355775,1.8319046063699085
12003,4.0,299.57018,5167.879,0.0,0.0,0.0,0.0,0.0,0.11963161543460132,-0.7638875886598352,0.03522182078687307,-0.8422403950426552,0.004732445285730986,0.005971252862666775,1.8307515277561084
12004,4.0,299.6576,5170.1151,0.0,0.0,0.0,0.0,0.0,0.11964158224418514,-0.7212857415178603,0.0012763284307888087,-0.8515764814640552,0.007301367648513884,-0.04464550369266816,1.8111893160254682
12005,4.0,299.40692,5274.5126,0.0,0.0,0.0,0.0,0.0,0.11965154905376897,-0.7815998083578952,0.013968698302603187,-0.8356890238710851,0.003783068040234746,-0.025982542306527277,1.8399552837144482
12006,4.0,299.89383,5436.5056,0.0,0.0,0.0,0.0,0.0,0.1196615158633528,-0.7951985670224883,-0.005726555699292045,-0.8516368306400113,0.004973011124472985,0.02038935311852248,1.8409581986634282
12007,4.0,300.43102000000005,5231.642,0.0,0.0,0.0,0.0,0.0,0.11967148267293662,-0.7755473108730603,0.018238564621506182,-0.8329797856212043,0.013958141249811288,0.017069583047386684,1.8131208746910983
12008,4.0,300.38622000000004,4706.5123,0.0,0.0,0.0,0.0,0.0,0.11968144948252044,-0.7113540160251753,0.06286471726376452,-0.7821729228794573,-0.02029505905096638,-0.02713201982947187,1.8306904287750785
12009,4.0,299.86187,4618.5759,0.0,0.0,0.0,0.0,0.0,0.11969141629210425,-0.7114838032304843,0.08584383529962693,-0.7782917798289182,-0.025307637693169373,0.017160065268066585,1.8059800959363586
12010,4.0,301.59025,5094.4626,0.0,0.0,0.0,0.0,0.0,0.11970138310168807,-0.7680015461858513,0.019335264986492084,-0.7999231293237662,0.01857638423134638,0.03499949750293147,1.7939119832703283
12011,4.0,301.13211,5296.4576,0.0,0.0,0.0,0.0,0.0,0.1197113499112719,-0.7965188116377863,0.023254885196328477,-0.8367269162135172,0.00020869592122668376,0.047621275354853956,1.8148044910572585
12012,4.0,302.54267999999996,5124.06,0.0,0.0,0.0,0.0,0.0,0.11972131672085572,-0.7507420972949763,0.03275951563936247,-0.8396037156324352,-0.0019308753297625583,-0.01118051571093099,1.8273672724221082
12013,4.0,301.74874,5047.3587,0.0,0.0,0.0,0.0,0.0,0.11973128353043953,-0.7261935298347213,0.04628429286115405,-0.8543617742664422,-0.0010026776458065792,-0.03008661355131757,1.8453130462682183
12014,4.0,300.3456,5311.3656,0.0,0.0,0.0,0.0,0.0,0.11974125034002336,-0.7890692145175683,0.022888329813652276,-0.8483416197247992,0.02922799858882887,0.0013133147952140787,1.8651088121469084
12015,4.0,300.67645,5638.5612,0.0,0.0,0.0,0.0,0.0,0.11975121714960718,-0.8154440031630572,-0.028190268366412873,-0.8703475272516132,0.02230941240876758,-0.0008398486891091121,1.8475859688925382
12016,4.0,301.19251,5297.4329,0.0,0.0,0.0,0.0,0.0,0.119761183959191,-0.7728070266401152,0.030507792233634673,-0.8679880933337552,-0.015232849392365187,-0.043398528205351256,1.8500224300829982
12017,4.0,299.13018999999997,4804.1376,0.0,0.0,0.0,0.0,0.0,0.11977115076877481,-0.7268354643030753,0.05839634511777054,-0.7918987660843232,-0.02188114604200098,-0.002085796001152038,1.8506667558215881
12018,4.0,299.17633,5007.5559,0.0,0.0,0.0,0.0,0.0,0.11978111757835863,-0.7446953348057074,0.04344830411651376,-0.8209249262664822,-0.0004992377069659255,0.016804192581194685,1.8338980746166484
12019,4.0,298.14653,5172.2778,0.0,0.0,0.0,0.0,0.0,0.11979108438794246,-0.7720796245258262,0.03448039630445017,-0.8346440691754563,0.007909438791900833,0.018418379024002483,1.8204733213917281
12020,4.0,299.19063,5290.7688,0.0,0.0,0.0,0.0,0.0,0.11980105119752629,-0.7776360246292003,0.01091165182339619,-0.8415372197382572,-0.016911333646768684,-0.014065581224164788,1.8195023238208983
12021,4.0,300.90216000000004,5308.4137,0.0,0.0,0.0,0.0,0.0,0.11981101800711011,-0.7860917689662172,0.020700563767486583,-0.8482340226966802,0.005513676919532545,0.009008163529261521,1.8220436563967084
12022,4.0,300.56647000000004,5130.8617,0.0,0.0,0.0,0.0,0.0,0.11982098481669393,-0.7591820653279363,0.018878771498439684,-0.8193505483936032,0.008509299975027522,0.02252664715070698,1.8185324408251782
12023,4.0,300.29076000000003,5106.4913,0.0,0.0,0.0,0.0,0.0,0.11983095162627774,-0.7571809571754422,0.01954669684510878,-0.8146115776759032,0.0028909116623357677,0.02344626382221608,1.8156558237912783
12024,4.0,301.05334,5302.5265,0.0,0.0,0.0,0.0,0.0,0.11984091843586156,-0.7584978175354062,0.020539028396794282,-0.8738768597349312,-0.023346536707623777,-0.03733095457227836,1.8612464040907182
12025,4.0,300.51863,5224.6341,0.0,0.0,0.0,0.0,0.0,0.11985088524544539,-0.7630806362801953,0.023290166564810477,-0.8483678325048862,-0.0021344016084490383,-0.012091203622558888,1.8577554535211882
12026,4.0,299.66336,5077.8023,0.0,0.0,0.0,0.0,0.0,0.11986085205502922,-0.7709180244786853,0.048735624510081656,-0.8213427095477142,0.03128542419513097,0.016999406358710785,1.8583090933758282
12027,4.0,299.48136,5107.2034,0.0,0.0,0.0,0.0,0.0,0.11987081886461304,-0.7669660349811542,0.04116562288048066,-0.8266618976701772,0.016395399868099986,0.0013711787726498087,1.8254250746304284
12028,4.0,298.29412,5312.4302,0.0,0.0,0.0,0.0,0.0,0.11988078567419685,-0.7963348459496302,0.02968142496882857,-0.8481927023576021,0.002222473509791058,-0.03624339169669426,1.8320108963053983
12029,4.0,299.07081,5383.6566,0.0,0.0,0.0,0.0,0.0,0.11989075248378067,-0.7801563322654352,0.010959104352079389,-0.8672999647933423,-0.015715313493730686,0.01043654695750699,1.8324854013272285
12030,4.0,299.6732,5232.9463,0.0,0.0,0.0,0.0,0.0,0.11990071929336449,-0.7911375011516922,0.030005920339853772,-0.8295534297455492,0.0025498911954296676,0.029322514558156872,1.8359147462906782
12031,4.0,299.98627,5205.1224,0.0,0.0,0.0,0.0,0.0,0.1199106861029483,-0.7943844003021363,0.04109183902144876,-0.8289346683069823,-0.010097474159943111,0.004256780295186505,1.851986514076838
12032,4.0,299.56718,5099.741,0.0,0.0,0.0,0.0,0.0,0.11992065291253212,-0.7786298507247833,0.04967771709530895,-0.8212417898377542,-0.029312992033717074,-0.039850045295143265,1.850894027819018
12033,4.0,299.78421000000003,5331.7972,0.0,0.0,0.0,0.0,0.0,0.11993061972211595,-0.7711972964712472,-0.008504561308284852,-0.8410313444933311,-0.004956762544544375,0.007160336609495202,1.8393786430825383
12034,4.0,300.6281,5556.1595,0.0,0.0,0.0,0.0,0.0,0.11994058653169978,-0.8037724056586603,0.0053641380247242045,-0.8905254809355221,0.03674542469724107,0.038313577161505664,1.831043445109918
12035,4.0,299.46994,5290.0418,0.0,0.0,0.0,0.0,0.0,0.1199505533412836,-0.7565463282403093,0.0019047632667354981,-0.8533990448164283,0.005206992762740175,0.018569753522691985,1.807116354598498
12036,4.0,299.49667999999997,4892.9198,0.0,0.0,0.0,0.0,0.0,0.11996052015086742,-0.7103854907845893,0.04440346762803105,-0.8213434188227843,-0.005362048196392954,-0.01996604255799498,1.8379779261442983
12037,4.0,299.72062,4876.5367,0.0,0.0,0.0,0.0,0.0,0.11997048696045123,-0.7339360676913503,0.060858948160810535,-0.8092682742010602,-0.013009345001922386,0.013505268104366187,1.8335232734046583
12038,4.0,300.34993,5143.5319,0.0,0.0,0.0,0.0,0.0,0.11998045377003505,-0.7725632184010534,0.02192854892142928,-0.8128706012215823,0.028661729584942473,0.028958893547770273,1.8390871310287682
12039,4.0,300.03357,5081.5839,0.0,0.0,0.0,0.0,0.0,0.11999042057961887,-0.7690055453124383,0.03188366731917297,-0.8075527303242492,-0.024584435500544878,-0.008094273949967642,1.8147299158498984
12040,4.0,301.00009,5174.7211,0.0,0.0,0.0,0.0,0.0,0.12000038738920271,-0.7775528063984872,0.020333912126050877,-0.8157670880899431,-0.014221918621844087,-0.04557351210150546,1.831015783382188
12041,4.0,300.75503,5320.4998,0.0,0.0,0.0,0.0,0.0,0.12001035419878653,-0.7758937917447553,0.008417986787940611,-0.8498232750810273,-0.025630219034755677,-0.0032902175173941868,1.8111064321672883
12042,4.0,301.24638,5426.645,0.0,0.0,0.0,0.0,0.0,0.12002032100837035,-0.8056462799960973,0.02353284705651118,-0.8674511315757611,0.018922648267519982,0.017246990980895483,1.8516277222164281
12043,4.0,300.43433,5448.4387,0.0,0.0,0.0,0.0,0.0,0.12003028781795416,-0.8023898562947133,0.01045599224017609,-0.8642554420853712,0.0035026279729574667,-0.00044181181834343155,1.8526278000651282
12044,4.0,299.91919,5193.2505,0.0,0.0,0.0,0.0,0.0,0.12004025462753798,-0.7903499930414712,0.05617545491258575,-0.8444439303001272,-0.01077053141571869,-0.027554774115694475,1.8832875321910085
12045,4.0,298.95204,4972.1813,0.0,0.0,0.0,0.0,0.0,0.12005022143712181,-0.7499391168557283,0.04432801393283436,-0.8058078528570431,0.0036652119561782566,0.0036877929439318264,1.834738464249588
12046,4.0,299.6109,5057.34,0.0,0.0,0.0,0.0,0.0,0.12006018824670563,-0.7658239906609433,0.04654046376468616,-0.8180215391649402,0.02059929955249258,0.04491470499248625,1.850496327154768
12047,4.0,298.94874,5193.135,0.0,0.0,0.0,0.0,0.0,0.12007015505628944,-0.7622695093101433,0.030841602412829173,-0.8471554686277353,-0.021992992641039377,0.025492291378143274,1.8219765792400882
12048,4.0,299.87432,5095.2824,0.0,0.0,0.0,0.0,0.0,0.12008012186587327,-0.7453563893034483,0.029774915529055375,-0.8332571527035783,-0.027299152393716577,-0.022611542310335478,1.865212974257188
12049,4.0,299.66702999999995,4997.1458,0.0,0.0,0.0,0.0,0.0,0.12009008867545709,-0.7510214300825443,0.05586920310961104,-0.8238553063506883,0.0015575537668935885,0.002099665875145888,1.8231080756267581
12050,4.0,300.16964,5316.7623,0.0,0.0,0.0,0.0,0.0,0.12010005548504091,-0.7810305239217112,0.015387246416102986,-0.8505197122722602,0.03550968919328347,0.033621206829154766,1.8449421967316182
12051,4.0,299.99079,5500.0098,0.0,0.0,0.0,0.0,0.0,0.12011002229462472,-0.8238685596619962,0.002936273957387677,-0.8509333614930841,0.023616102777477877,-0.02006044099031138,1.8115418257352585
12052,4.0,301.12995,5444.9422,0.0,0.0,0.0,0.0,0.0,0.12011998910420854,-0.7747581106351723,0.00939080071089987,-0.8897591700173932,-0.02014181915884278,-0.03159414630184947,1.8521410347170881
12053,4.0,301.45057,5146.2817,0.0,0.0,0.0,0.0,0.0,0.12012995591379237,-0.7405562486772113,0.016953033954634183,-0.8407379275293733,0.0020186491329251583,-0.013455215575926384,1.8124279129477083
12054,4.0,301.51689,5049.4318,0.0,0.0,0.0,0.0,0.0,0.12013992272337619,-0.7336566031812692,0.03988493960208706,-0.8411295385605221,0.00024017765249618875,0.027509522366228476,1.8598828734311483
12055,4.0,300.3959,5035.1144,0.0,0.0,0.0,0.0,0.0,0.12014988953296002,-0.7709061390550123,0.051913005584414744,-0.8115559092168322,-0.013264729623376888,0.0018268345055195282,1.8552084467448182
12056,4.0,299.85643999999996,5187.9513,0.0,0.0,0.0,0.0,0.0,0.12015985634254384,-0.7688091875755593,0.02860605959794827,-0.8368045210386763,-0.021254072912863683,-0.03872481282059146,1.8613679941027184
12057,4.0,299.70342999999997,5255.4263,0.0,0.0,0.0,0.0,0.0,0.12016982315212765,-0.7754760996560323,0.03035520892757587,-0.8523974774900812,0.0022438413331998977,-0.008768882694296341,1.8599297869107783
12058,4.0,300.15522999999996,5310.3998,0.0,0.0,0.0,0.0,0.0,0.12017978996171147,-0.7663050514109202,0.012639805597701689,-0.8605637058760252,0.025686462521306477,0.03172427902544257,1.8235518791705583
12059,4.0,299.8059,5459.2329,0.0,0.0,0.0,0.0,0.0,0.12018975677129529,-0.7973052153053982,0.015652781777059286,-0.8778180378538952,0.02314175987566388,-0.003801603424314046,1.8381446057857482
12060,4.0,300.63892999999996,5469.5196,0.0,0.0,0.0,0.0,0.0,0.12019972358087912,-0.8145908972413622,0.03059921373715727,-0.8786056878191302,-0.01879083861501138,-0.0030460150227182774,1.849453895451888
12061,4.0,300.15963999999997,5296.4743,0.0,0.0,0.0,0.0,0.0,0.12020969039046295,-0.8012254698097973,0.021157551721587783,-0.8299280080425172,-0.0017775782903333183,0.019713986463118983,1.874864789409748
12062,4.0,299.62329,5167.462,0.0,0.0,0.0,0.0,0.0,0.12021965720004676,-0.7867580214369713,0.029932393846347268,-0.8139537858434842,0.014867074212265985,0.03966455770533706,1.846471900407588
12063,4.0,300.05772,5239.9604,0.0,0.0,0.0,0.0,0.0,0.12022962400963058,-0.7939095203777692,0.02751526648104537,-0.8264228618390862,-0.0023482761090818077,-0.003837304379662456,1.8725977436360084
12064,4.0,300.27886,5144.7289,0.0,0.0,0.0,0.0,0.0,0.1202395908192144,-0.7622017634084572,0.03125912528878547,-0.8329264886659441,-0.001719419457118488,-0.04323009665447836,1.8346654089173784
12065,4.0,300.30851,5120.2299,0.0,0.0,0.0,0.0,0.0,0.12024955762879821,-0.7254853389423284,0.02328245674479958,-0.8542191593148672,0.006751835307129264,-0.018984786843152582,1.8323789087417182
12066,4.0,300.01117,5199.7853,0.0,0.0,0.0,0.0,0.0,0.12025952443838205,-0.7591392149812073,0.009888939082037302,-0.8313546033883112,0.024044437032001178,0.02917111878121527,1.8294626736289081
12067,4.0,300.05216,5283.8776,0.0,0.0,0.0,0.0,0.0,0.12026949124796586,-0.7866920284579583,0.02042901983343728,-0.8399038301795542,0.006696547112772744,-0.021419483965188477,1.8400534676491382
12068,4.0,300.74925,5325.4942,0.0,0.0,0.0,0.0,0.0,0.12027945805754968,-0.8090419343937222,0.021659937333169378,-0.8314352682287722,0.0034923359863917266,-0.026577213723966774,1.847845360918138
12069,4.0,301.46837999999997,5334.4486,0.0,0.0,0.0,0.0,0.0,0.12028942486713351,-0.7740974107749662,-0.0021788497492607277,-0.8452628998259533,0.014112443028039686,-0.004046659379549186,1.8501456412951582
12070,4.0,300.50543,5184.4607,0.0,0.0,0.0,0.0,0.0,0.12029939167671733,-0.7563295129839113,0.03258594691048257,-0.8522030347958912,0.031229790685140372,0.026407608829478076,1.848004441183838
12071,4.0,299.61959,5227.0502,0.0,0.0,0.0,0.0,0.0,0.12030935848630114,-0.7458494773321123,0.024659764565979275,-0.8677030154181201,-0.017092627394410986,-0.027012946730720272,1.862720480336198
12072,4.0,299.28987,5295.8656,0.0,0.0,0.0,0.0,0.0,0.12031932529588496,-0.8022163473475893,0.03752121862305597,-0.8451157759114333,-0.025121237165023076,-0.001125440798772359,1.8527029832225483
12073,4.0,299.38987000000003,5388.3888,0.0,0.0,0.0,0.0,0.0,0.12032929210546878,-0.8134828069320023,0.03553272036805647,-0.8599855453689652,-0.02009242625621808,0.021829956646948978,1.8728265355085882
12074,4.0,299.90684,5269.0259,0.0,0.0,0.0,0.0,0.0,0.12033925891505261,-0.8046354312988342,0.007171631713659942,-0.8041885069447262,-0.0008054849199176722,0.044540712354076056,1.8353201711319984
12075,4.0,299.57316000000003,5193.7253,0.0,0.0,0.0,0.0,0.0,0.12034922572463644,-0.7861930939762173,0.028980141402367272,-0.8215498381331562,-0.008065762713353804,-0.017562886898321983,1.8506828664981783
12076,4.0,299.79,5367.4594,0.0,0.0,0.0,0.0,0.0,0.12035919253422026,-0.7699726114728802,0.00942700778467323,-0.8710280158862722,0.003507019601540887,-0.03634137399461436,1.8265190807633982
12077,4.0,299.94933,5270.4751,0.0,0.0,0.0,0.0,0.0,0.12036915934380407,-0.7585976226702563,0.006329553094128255,-0.8498247442936722,0.005798427758035265,-0.015955249090910485,1.844338806297068
12078,4.0,300.43003999999996,5117.6735,0.0,0.0,0.0,0.0,0.0,0.12037912615338789,-0.7270781782320294,0.025176117830189377,-0.8537428912378633,0.024173221119711177,0.008833078876907012,1.829704739077798
12079,4.0,300.95082,5132.7988,0.0,0.0,0.0,0.0,0.0,0.1203890929629717,-0.7861772872746573,0.03507694020807447,-0.8091423170811293,0.014668151939383884,-0.028601794828277374,1.8553623594350082
12080,4.0,301.37134,5228.9247,0.0,0.0,0.0,0.0,0.0,0.12039905977255554,-0.8037089964674022,0.06531980503081283,-0.8510733723919022,0.004711120120151355,-0.02201793885850138,1.8531887353204881
12081,4.0,301.08256,5178.4519,0.0,0.0,0.0,0.0,0.0,0.12040902658213937,-0.7769599334999753,0.04261418244869236,-0.8397743266842732,0.020015404049866584,0.009271371454738121,1.856016918999608
12082,4.0,300.15925,5254.7012,0.0,0.0,0.0,0.0,0.0,0.12041899339172318,-0.7418395096638593,0.008437458921737362,-0.8638958902873861,-0.004767089218575075,0.03158714271715827,1.8303892908453583
12083,4.0,300.57772,5384.5451,0.0,0.0,0.0,0.0,0.0,0.120428960201307,-0.7808466190285612,0.028656071596384076,-0.8845766997309231,-0.02400357164221808,-0.0020026570065968577,1.8565594131031482
12084,4.0,299.91013,5259.318,0.0,0.0,0.0,0.0,0.0,0.12043892701089082,-0.7649777951049302,0.005874597111777594,-0.8395981630218872,-0.031830647994440374,0.015624038911472585,1.8431992039095981
12085,4.0,299.37976000000003,5105.0561,0.0,0.0,0.0,0.0,0.0,0.12044889382047463,-0.7940827354823642,0.03563521669517206,-0.7933620512162382,0.00016401571574459084,0.009421089694814162,1.8396245588818083
12086,4.0,300.0417,5118.0906,0.0,0.0,0.0,0.0,0.0,0.12045886063005845,-0.7811410695076213,0.028179838983133573,-0.8028104969412272,-0.0017867707992155484,0.022884955690819275,1.8426046287509183
12087,4.0,299.86956000000004,5074.7112,0.0,0.0,0.0,0.0,0.0,0.12046882743964227,-0.7722770563078113,0.02902866290990597,-0.7993370958634293,0.012260031354220886,-0.023849357003498276,1.8270115203119983
12088,4.0,299.70803,5162.5468,0.0,0.0,0.0,0.0,0.0,0.1204787942492261,-0.7513874565486682,0.02856179779382997,-0.8464596495190632,0.0016463279518799184,-0.019552718590453082,1.827055292716318
12089,4.0,299.14755,5298.64,0.0,0.0,0.0,0.0,0.0,0.12048876105880992,-0.7743463156620313,0.03413879524523677,-0.8704467244364031,-0.004569224981447396,0.0006075748534879695,1.8527757345797284
12090,4.0,299.75257999999997,5184.5177,0.0,0.0,0.0,0.0,0.0,0.12049872786839375,-0.7453917112019344,0.02195865055540008,-0.852530871865746,-0.007732580546571284,0.015902095003914585,1.8527165607738882
12091,4.0,299.27094,5231.0893,0.0,0.0,0.0,0.0,0.0,0.12050869467797756,-0.7973640547387053,0.04878016293147725,-0.8415366523182012,-0.0031588492366291473,-0.021949229355970278,1.8681865593256586
12092,4.0,299.21606,5440.0286,0.0,0.0,0.0,0.0,0.0,0.12051866148756138,-0.8229861404149081,0.021784677539730277,-0.8524313909709281,-0.01056190322012869,-0.003364488243099137,1.8464949011848584
12093,4.0,298.02592000000004,5317.2811,0.0,0.0,0.0,0.0,0.0,0.1205286282971452,-0.7918628159707752,0.004147899985815856,-0.8286057774570232,-0.004442675920807975,-0.009699609754476951,1.8393787444075484
12094,4.0,298.74892,5089.8094,0.0,0.0,0.0,0.0,0.0,0.12053859510672901,-0.7049977056303564,0.005776969451392494,-0.8479542339465672,-0.014063123079422184,0.008216359137291513,1.8035980462762684
12095,4.0,299.97619,5250.6186,0.0,0.0,0.0,0.0,0.0,0.12054856191631286,-0.7638668170327853,0.0012826084535835988,-0.8334727317948543,-0.023361188304069774,0.005910610857431874,1.8277337649832783
12096,4.0,300.52061000000003,5289.2747,0.0,0.0,0.0,0.0,0.0,0.12055852872589667,-0.7629634336411283,0.017756518992431983,-0.8626005108295421,0.00040109045192954565,0.013722801755085088,1.829788129561028
12097,4.0,300.34187000000003,4986.6734,0.0,0.0,0.0,0.0,0.0,0.12056849553548049,-0.7783404259662192,0.054306258750860446,-0.7917900139510902,0.01819771240397438,0.045327842522009755,1.8516487978185086
12098,4.0,300.33131000000003,5025.3239,0.0,0.0,0.0,0.0,0.0,0.12057846234506431,-0.7503125501800832,0.038030622004830164,-0.8152910733254642,-0.006234188629166514,0.03256716530662897,1.8513023676093183
12099,4.0,300.00233,5319.3197,0.0,0.0,0.0,0.0,0.0,0.12058842915464812,-0.7983531286913192,0.026300054357863274,-0.8448873082788853,-0.007203661866546073,-0.023889523250712374,1.863859778748638
12100,4.0,300.01093,5458.7622,0.0,0.0,0.0,0.0,0.0,0.12059839596423196,-0.7940696645560743,0.00993592673157462,-0.8751936795648911,-0.012665625236749887,-0.03295288124869617,1.837296414127038
12101,4.0,300.18677,5428.3253,0.0,0.0,0.0,0.0,0.0,0.12060836277381577,-0.7972618279361163,0.011561973976077989,-0.8643755020897202,0.017399002813897883,-0.012718563501474489,1.866016481586488
12102,4.0,298.9753,5274.5092,0.0,0.0,0.0,0.0,0.0,0.12061832958339959,-0.7655465526510623,0.016313966984063184,-0.8540864944792742,0.01937193957386158,-0.03084966991012537,1.8396258761069382
12103,4.0,300.35444,5148.1144,0.0,0.0,0.0,0.0,0.0,0.12062829639298342,-0.7845811447896303,0.03166834559342237,-0.8119854158017212,-0.002871200300190407,-0.04532226863320966,1.852542383081698
12104,4.0,300.42838,5168.1338,0.0,0.0,0.0,0.0,0.0,0.12063826320256724,-0.7911394161943812,0.04503513280662155,-0.8248793475642532,0.01974722005314888,-0.005512856997551625,1.8459260625787182
12105,4.0,300.79992999999996,5421.2421,0.0,0.0,0.0,0.0,0.0,0.12064823001215105,-0.8035692388811092,0.031209952261432472,-0.8755629382988341,0.019066353476202582,0.02926952157792687,1.8715383906564582
12106,4.0,301.28231,5265.266,0.0,0.0,0.0,0.0,0.0,0.12065819682173487,-0.7561593680271192,0.03094651230168297,-0.8752965345825422,0.02030206567540788,0.05897178504831205,1.8637838863161484
12107,4.0,300.03792000000004,5094.169,0.0,0.0,0.0,0.0,0.0,0.12066816363131869,-0.7389415434503522,0.02965377236034947,-0.8392123984438152,-0.035095385412894864,0.010826449648987388,1.8535526947564083
12108,4.0,300.14897,5489.8752,0.0,0.0,0.0,0.0,0.0,0.12067813044090252,-0.7827915627280123,0.0022089155141779876,-0.8882023315037451,-0.027146767684677373,-0.01034480526695279,1.8469273563275383
12109,4.0,300.49285,5638.4805,0.0,0.0,0.0,0.0,0.0,0.12068809725048633,-0.8330884060319241,-0.005042358569267045,-0.8758265150473472,-0.029170230160877574,0.010348756942342791,1.8518174026351482
12110,4.0,300.05739,5253.5577,0.0,0.0,0.0,0.0,0.0,0.12069806406007016,-0.7453300549333493,-0.006952361352269643,-0.8446679497647362,0.01718904523417668,-0.016181445016734283,1.8444663744846583
12111,4.0,299.55481000000003,5133.6818,0.0,0.0,0.0,0.0,0.0,0.12070803086965398,-0.7573063570078182,0.010687203753994888,-0.8138919269248792,0.002504018931602428,-0.03570907350821117,1.8378078014525083
12112,4.0,299.76801,5245.263000000001,0.0,0.0,0.0,0.0,0.0,0.1207179976792378,-0.7734031824689512,0.027559097653871174,-0.8485848909413082,0.012213966978174689,-0.027909929421495575,1.8334433279717681
12113,4.0,299.37955,5236.8893,0.0,0.0,0.0,0.0,0.0,0.12072796448882162,-0.7785708086414562,0.007195322818223072,-0.8205080954403442,0.05374579161704665,0.01800030899299218,1.8214843423415084
12114,4.0,300.08346,5279.515,0.0,0.0,0.0,0.0,0.0,0.12073793129840543,-0.7700115810717263,0.024827310536264774,-0.8596564721339882,0.016936105585213485,0.02483546112006918,1.826999665285828
12115,4.0,298.69995,5129.906,0.0,0.0,0.0,0.0,0.0,0.12074789810798926,-0.7788510837516173,0.03666034512609437,-0.8171726078336572,-0.006490464302758953,-0.01012743231769975,1.8467512534601582
12116,4.0,299.30951,4995.1144,0.0,0.0,0.0,0.0,0.0,0.12075786491757308,-0.7204974329400603,0.03459844196760037,-0.8324910545679702,-0.017796315403359585,-0.04142404725223516,1.855443014142968
12117,4.0,299.90856,5187.2946,0.0,0.0,0.0,0.0,0.0,0.12076783172715691,-0.7795855279541013,0.05045903424741895,-0.8476815480796551,-0.015742610451424686,0.029096817151382272,1.867837089366168
12118,4.0,300.87433,5439.5925,0.0,0.0,0.0,0.0,0.0,0.12077779853674073,-0.7909593312541082,0.012324850989618089,-0.8748658019650322,-0.021174943146304182,0.014927040379684186,1.8749634799694883
12119,4.0,301.70466,5295.9278,0.0,0.0,0.0,0.0,0.0,0.12078776534632454,-0.7962735848485842,0.02189988204960008,-0.8354561182030992,-0.026218768395090974,-0.01185765656725959,1.8679308150004184
12120,4.0,300.67705,5162.4012,0.0,0.0,0.0,0.0,0.0,0.12079773215590836,-0.7672483669890182,0.057820214150660854,-0.8598129179494282,-0.0007832295400837373,-0.011504712173176689,1.8651783211037682
12121,4.0,300.22261000000003,5388.3176,0.0,0.0,0.0,0.0,0.0,0.12080769896549219,-0.8345797075291042,0.011106750090400888,-0.8144410476840732,0.02798071709998177,0.04122045794939246,1.8498655789675182
12122,4.0,299.65076,5435.2563,0.0,0.0,0.0,0.0,0.0,0.12081766577507601,-0.7845201977961153,0.017569959384019986,-0.8852319685705932,0.020346843223827082,0.012314492533845789,1.8606866847354782
12123,4.0,300.15417,5215.2035,0.0,0.0,0.0,0.0,0.0,0.12082763258465982,-0.7877210143320112,0.0090360672211154,-0.8066066789708812,-0.003987463788832036,-0.0035957851739013666,1.8262330402601683
12124,4.0,299.89712000000003,5241.0172,0.0,0.0,0.0,0.0,0.0,0.12083759939424366,-0.7425131284628402,0.012522483395122888,-0.8631477368110492,0.01187581400905159,-0.02979979385876067,1.851281393332248
12125,4.0,299.31761,5158.7337,0.0,0.0,0.0,0.0,0.0,0.12084756620382747,-0.7687702483742163,0.03154820959531587,-0.8309042035863602,0.024701733385121275,0.01176720778383299,1.8098433145926283
12126,4.0,299.60337000000004,5240.8789,0.0,0.0,0.0,0.0,0.0,0.12085753301341129,-0.7461012294519582,-0.0033382538807850072,-0.8436568376224473,-0.007408736796685392,-0.02378949317434018,1.8430921033740284
12127,4.0,300.5522,5383.4434,0.0,0.0,0.0,0.0,0.0,0.1208674998229951,-0.8060792316313262,0.028837201197510175,-0.8591903365579843,-0.01955046005598018,-0.04362897370209446,1.8384845511942982
12128,4.0,300.47914,5402.9898,0.0,0.0,0.0,0.0,0.0,0.12087746663257892,-0.7622866838993383,0.0006347876810261664,-0.8807220734355011,0.00945462107904845,-0.04301445676819636,1.8727111263221983
12129,4.0,301.32563,5167.8096,0.0,0.0,0.0,0.0,0.0,0.12088743344216275,-0.7572527966075323,0.018122789651830083,-0.8317550702253341,0.02730928185496627,0.055737634610626245,1.8618221327975384
12130,4.0,300.72213,5369.2873,0.0,0.0,0.0,0.0,0.0,0.12089740025174658,-0.7598646817878053,0.01712267025987598,-0.8893872667006891,0.026467438208132774,0.03899498684050556,1.868598850791348
12131,4.0,299.36003999999997,5692.4795,0.0,0.0,0.0,0.0,0.0,0.1209073670613304,-0.8394814163453651,-0.01819804981625768,-0.8726921474530092,-0.025694431733342977,0.02046245809998738,1.8483476289927083
12132,4.0,300.22938999999997,5503.5478,0.0,0.0,0.0,0.0,0.0,0.12091733387091422,-0.8187942943537052,0.02915026812065747,-0.8832970864446351,-0.023814746406582477,-0.0011496744987640388,1.8704101366701085
12133,4.0,300.10097,5199.4882,0.0,0.0,0.0,0.0,0.0,0.12092730068049803,-0.8050096144282632,0.04682352936562255,-0.8223285107025052,0.0021419559958945978,0.03801077344862126,1.8632186954103682
12134,4.0,299.79152,5181.7141,0.0,0.0,0.0,0.0,0.0,0.12093726749008185,-0.7675059047669353,0.04663015565028805,-0.8542359590015252,0.012585840910625787,-0.02195771025930728,1.8512747058815882
12135,4.0,299.83799999999997,5191.4928,0.0,0.0,0.0,0.0,0.0,0.12094723429966568,-0.7885307835469293,0.05590413997305905,-0.8454575451701632,-0.018992355821399583,-0.04782206200792005,1.8697332856033084
12136,4.0,299.85034,5364.9358,0.0,0.0,0.0,0.0,0.0,0.12095720110924951,-0.7579212174335003,0.018394337638879783,-0.8912796429849522,0.021294700188873278,-0.04267550434474437,1.854107246536138
12137,4.0,300.17697999999996,5480.9498,0.0,0.0,0.0,0.0,0.0,0.12096716791883333,-0.8250641542499922,0.02176932882721548,-0.8627770595269663,0.01923452259529958,0.008877918537557341,1.8635625924943082
12138,4.0,300.24549,5248.9058,0.0,0.0,0.0,0.0,0.0,0.12097713472841715,-0.7573367849083212,0.02300748599891208,-0.8612069980995132,0.002915215985859417,0.008750210622778552,1.8538210033828884
12139,4.0,301.93294,5215.5738,0.0,0.0,0.0,0.0,0.0,0.12098710153800096,-0.7755110770494843,0.0027953858879581073,-0.8126884999136103,-0.03971896315620646,-0.02139403213592658,1.8593589218044382
12140,4.0,301.55732,5438.9769,0.0,0.0,0.0,0.0,0.0,0.12099706834758478,-0.7846815680070413,0.008309526369411402,-0.8769411205548502,-0.01744691231837618,-0.007720793509482993,1.863547292417798
12141,4.0,301.19462000000004,5443.1596,0.0,0.0,0.0,0.0,0.0,0.1210070351571686,-0.8116192069505793,0.006669877052915613,-0.8496352665249722,0.001926884441593688,0.03634921148413787,1.884810852391348
12142,4.0,300.08907999999997,5256.8295,0.0,0.0,0.0,0.0,0.0,0.12101700196675241,-0.7528388258594073,-0.0023790892472728277,-0.8427269780056773,0.014136544194918287,0.005373334687931845,1.8426217526776085
12143,4.0,300.10075,5341.4614,0.0,0.0,0.0,0.0,0.0,0.12102696877633624,-0.7951047704607312,0.019775047953895283,-0.8483411840272563,-0.009032269863715631,-0.02170506242637288,1.8393895861836183
12144,4.0,299.97962,5428.7103,0.0,0.0,0.0,0.0,0.0,0.12103693558592006,-0.8058342480221482,-0.006412563507245744,-0.8379455825062903,0.002122477782597248,-0.016096122265563582,1.8335939982616383
12145,4.0,300.77942,5312.0695,0.0,0.0,0.0,0.0,0.0,0.12104690239550389,-0.7942404782579323,0.023589417822844277,-0.8440854120172442,0.02106120176957878,0.02241381871232168,1.8333899296914984
12146,4.0,300.15494,5106.6155,0.0,0.0,0.0,0.0,0.0,0.12105686920508771,-0.7543458428656383,0.053692106586998356,-0.8516298696118243,0.0028332620886211976,0.007344174932113633,1.842701191485448
12147,4.0,299.33564,5195.8094,0.0,0.0,0.0,0.0,0.0,0.12106683601467153,-0.7599688236330833,0.03331153936009297,-0.8527390238337893,-0.02360125055751208,-0.01964378342994048,1.8784540252389783
12148,4.0,299.41916000000003,5292.6544,0.0,0.0,0.0,0.0,0.0,0.12107680282425534,-0.7492091714836884,0.035016852450644266,-0.8946424579468361,-0.030434802762681176,-0.014955800470522586,1.8719129892184283
12149,4.0,300.40761000000003,5445.0646,0.0,0.0,0.0,0.0,0.0,0.12108676963383916,-0.8136225442532932,0.017710093899350184,-0.8592512328889942,-0.010852368586545388,0.04760968478696005,1.8860718421407985
12150,4.0,299.48511,5424.701,0.0,0.0,0.0,0.0,0.0,0.121096736443423,-0.8037870572551062,0.014447084072316185,-0.8596336841392392,0.0022414363840875477,0.024230089781573677,1.845554402442038
12151,4.0,300.26597999999996,5208.1378,0.0,0.0,0.0,0.0,0.0,0.12110670325300682,-0.8001807886916953,0.033648078221806765,-0.8166111355557442,0.005082071589711415,-0.024954130945280976,1.8638104334687682
12152,4.0,300.70186,5172.781,0.0,0.0,0.0,0.0,0.0,0.12111667006259064,-0.7719101584466013,0.028109700797961476,-0.8285957868110372,0.012869496223120386,-0.007746309477476223,1.8392605994458882
12153,4.0,300.67682,5436.4635,0.0,0.0,0.0,0.0,0.0,0.12112663687217445,-0.8346809210815932,0.03838633561143636,-0.8562545761157472,0.02036061227943598,-0.007507815025913653,1.8855313745374582
12154,4.0,301.11412,5283.2883,0.0,0.0,0.0,0.0,0.0,0.12113660368175827,-0.7612931009837793,0.02926562056504187,-0.873960229953159,0.005454640206431075,-0.0030640388168220872,1.8302809744096684
12155,4.0,300.57839,4923.6362,0.0,0.0,0.0,0.0,0.0,0.1211465704913421,-0.7631478147618252,0.07880922894336533,-0.8123238717326242,-0.015598596201461588,-0.006477470282151544,1.850917839196368
12156,4.0,299.83733,5157.7694,0.0,0.0,0.0,0.0,0.0,0.12115653730092592,-0.7599220216109642,0.033487988759007166,-0.8413990833521242,-0.004494882922935406,0.023149698690197378,1.8343685266380783
12157,4.0,298.98522,5338.8611,0.0,0.0,0.0,0.0,0.0,0.12116650411050973,-0.8053977297465672,0.03730106774732876,-0.8547838131980942,-0.012487397583910187,0.055086038802568744,1.860042358996888
12158,4.0,299.54417,5358.9098,0.0,0.0,0.0,0.0,0.0,0.12117647092009357,-0.7790839387570982,0.008671859640245912,-0.8585626787835391,-0.031468762681475075,0.04191907565484066,1.8600874486263381
12159,4.0,299.57611,5299.6118,0.0,0.0,0.0,0.0,0.0,0.12118643772967738,-0.7786744033316803,0.017824206125612183,-0.8500994667932853,-0.004390601755768656,-0.033318087995489264,1.8735047038005181
12160,4.0,300.38354,5262.8979,0.0,0.0,0.0,0.0,0.0,0.1211964045392612,-0.7354697939702174,0.0073941215759179835,-0.8717138646139602,0.008348931057850341,-0.0030313290770938874,1.8639679938593183
12161,4.0,300.16646000000003,5338.8837,0.0,0.0,0.0,0.0,0.0,0.12120637134884502,-0.7978253875092353,0.014086750045253985,-0.8391486954100281,0.03856518843958776,0.0035464706968344065,1.854858976785328
12162,4.0,301.09697,5494.5706,0.0,0.0,0.0,0.0,0.0,0.12121633815842883,-0.7966240275281703,-0.013517979326870688,-0.8600702530773251,0.007583627614295773,-0.0055683269689760844,1.8299169136487383
12163,4.0,299.95487,5400.3403,0.0,0.0,0.0,0.0,0.0,0.12122630496801266,-0.8321832190550892,0.018661222648969283,-0.8280466153893382,-0.016193980946971484,-0.026115747204423577,1.8282743339116283
12164,4.0,300.24051000000003,5146.8958,0.0,0.0,0.0,0.0,0.0,0.12123627177759648,-0.7687996326271163,0.05294161655593074,-0.8486698012996882,-0.00997140912887646,-0.017066268706309583,1.8509144954710381
12165,4.0,299.98649,5158.6824,0.0,0.0,0.0,0.0,0.0,0.12124623858718031,-0.7787454321636903,0.03709032692528026,-0.8264555188898092,0.02570856353248768,0.0015893110515277887,1.8495793358142683
12166,4.0,300.19818,5406.0224,0.0,0.0,0.0,0.0,0.0,0.12125620539676413,-0.7690645772632643,0.045387689125916154,-0.9196189411893231,0.015151698191856185,0.023286675918215975,1.8658916491741684
12167,4.0,299.78618,5333.2186,0.0,0.0,0.0,0.0,0.0,0.12126617220634794,-0.7957865763205202,0.040479789351544164,-0.8658584949360801,0.016400590748362285,-0.018269499147059182,1.8755271510001181
12168,4.0,300.0038,5224.5854,0.0,0.0,0.0,0.0,0.0,0.12127613901593176,-0.7323106422784332,0.006614349832860505,-0.8624471959569111,0.001156849728022179,0.008866664064721612,1.8574749858935085
12169,4.0,299.87167,5383.6002,0.0,0.0,0.0,0.0,0.0,0.12128610582551558,-0.8199660775643512,0.02383414001349648,-0.8403480896858992,-0.001090856039734109,0.022380861739569078,1.879817657223558
12170,4.0,299.6527,5500.984,0.0,0.0,0.0,0.0,0.0,0.12129607263509941,-0.8068029961777562,-0.029080407566012774,-0.8362783706592491,-0.024279792738728975,0.022327855587087775,1.8420722671483782
12171,4.0,300.90899,5509.2188,0.0,0.0,0.0,0.0,0.0,0.12130603944468323,-0.8205056028450982,-0.02079763616681688,-0.8333617201138982,-0.03318874965997457,-0.00907328683571369,1.8558216657053381
12172,4.0,301.24467000000004,5440.4082,0.0,0.0,0.0,0.0,0.0,0.12131600625426706,-0.7762375368411802,-0.008562184132196782,-0.8689485227060423,-0.003529061236266226,0.017364640463256583,1.8333243724100283
12173,4.0,299.92548999999997,5215.6616,0.0,0.0,0.0,0.0,0.0,0.12132597306385087,-0.7698756738358132,0.02277650347961588,-0.8383317118543981,0.03480565363955057,0.010021292039249521,1.8521669739196482
12174,4.0,300.23069,5106.5737,0.0,0.0,0.0,0.0,0.0,0.12133593987343469,-0.7237700281130404,0.029048403048354175,-0.8575492665635231,0.05376501297144365,0.011278157556817488,1.8298344350905984
12175,4.0,301.09805,5274.6777,0.0,0.0,0.0,0.0,0.0,0.1213459066830185,-0.7872981648002793,0.023305708808094378,-0.8393778520526441,0.009526276707570312,-0.03807699339565667,1.8627570586648081
12176,4.0,300.37178,5335.3371,0.0,0.0,0.0,0.0,0.0,0.12135587349260232,-0.8057667149029832,0.05326464879381155,-0.8693072031089413,-0.020034348786986282,-0.013505254932114887,1.878894181082418
12177,4.0,299.69131,5285.6649,0.0,0.0,0.0,0.0,0.0,0.12136584030218615,-0.7969810259359033,0.049245292350131954,-0.8589744129616741,-0.005503684348371354,-0.0027522381523247576,1.8702084999002082
12178,4.0,299.96808,5389.7727,0.0,0.0,0.0,0.0,0.0,0.12137580711176997,-0.7778026029456402,0.009782034103736601,-0.8703357634179522,-0.010710058623250491,0.02076917295825778,1.8770241266978582
12179,4.0,299.68429,5602.3382,0.0,0.0,0.0,0.0,0.0,0.12138577392135379,-0.8144713641270652,0.008206228156166662,-0.8967057999204722,-0.023554931855690776,-0.007912534878906393,1.8535612060572482
12180,4.0,300.33502000000004,5582.4721,0.0,0.0,0.0,0.0,0.0,0.12139574073093762,-0.7884299043669732,-0.019315378940029482,-0.8891868458309092,-0.024565213132897775,-0.001937381307329648,1.8658226468423582
12181,4.0,300.1906,5330.6334,0.0,0.0,0.0,0.0,0.0,0.12140570754052143,-0.7838069609182243,0.0036753478009035868,-0.8402478285885042,-0.015300475730539385,0.02899683165801447,1.860210355863468
12182,4.0,300.04444,5217.4696,0.0,0.0,0.0,0.0,0.0,0.12141567435010525,-0.8019337518946993,0.05267630107024616,-0.8367230354656342,-0.006364134408116165,0.04914954021568195,1.8804614763370981
12183,4.0,300.26155,5195.1349,0.0,0.0,0.0,0.0,0.0,0.12142564115968907,-0.7984113703070672,0.03258854387048887,-0.8133684616582172,-0.014130729152594387,0.002847919156617737,1.8586084074553681
12184,4.0,300.65336,5128.0794,0.0,0.0,0.0,0.0,0.0,0.1214356079692729,-0.7696426769753183,0.06535913635994453,-0.8545245528950072,-0.002112540838866548,0.017033529582328486,1.8629865598124582
12185,4.0,299.60668,5190.5624,0.0,0.0,0.0,0.0,0.0,0.12144557477885673,-0.7409251629061203,0.03453010534110607,-0.8714062925461051,0.011225950858665089,-0.00948372993057127,1.8519569271739182
12186,4.0,298.35229,5345.0893,0.0,0.0,0.0,0.0,0.0,0.12145554158844055,-0.7638748419735772,4.982467787656285e-05,-0.8609486598540171,0.03205837190141497,-0.027790970820005274,1.8329444036225284
12187,4.0,298.46751,5433.3906,0.0,0.0,0.0,0.0,0.0,0.12146550839802436,-0.7988035284932703,-0.007836456515023042,-0.8449750861350482,0.024162387449641977,-0.04982237779883585,1.8529356254455083
12188,4.0,299.43827000000005,5412.8937,0.0,0.0,0.0,0.0,0.0,0.12147547520760818,-0.7893521342104902,0.0038525770984197565,-0.8598849701640392,0.016003379483910587,0.0033623508933381973,1.8542569035759082
12189,4.0,299.61134,5408.3646,0.0,0.0,0.0,0.0,0.0,0.121485442017192,-0.8105678079843142,0.003116175296742557,-0.8365561531741641,0.02044624305863708,0.019573937060797183,1.8667433872082282
12190,4.0,300.26182,5229.1294,0.0,0.0,0.0,0.0,0.0,0.12149540882677583,-0.7625838397561653,0.035704971871806365,-0.8626458841690201,-0.03134399917016187,0.05089571970926645,1.8667866529874981
12191,4.0,299.16837000000004,5031.6957,0.0,0.0,0.0,0.0,0.0,0.12150537563635964,-0.7382935092163962,0.018099534548784983,-0.8093158766907582,-0.007007231580959913,0.012148243523688288,1.8241807021826182
12192,4.0,299.84172,5222.58,0.0,0.0,0.0,0.0,0.0,0.12151534244594348,-0.7465869612848963,0.03504095057777257,-0.8759878953907742,-0.044099495637781365,0.024953339596952874,1.8651278612487883
12193,4.0,300.41472000000005,5286.6026,0.0,0.0,0.0,0.0,0.0,0.12152530925552729,-0.7995016780771723,0.030927120721269172,-0.8384206144181723,-0.005093950832558806,0.011906898495619388,1.8704911966781084
12194,4.0,299.85722999999996,5175.9251,0.0,0.0,0.0,0.0,0.0,0.12153527606511111,-0.7803062324852292,0.047624404271162754,-0.8406701512301842,-0.02006329632909318,-0.006036518632083004,1.8938441796828682
12195,4.0,299.31432,5362.8757,0.0,0.0,0.0,0.0,0.0,0.12154524287469493,-0.8383271218314452,0.03916685634896776,-0.8310200484702932,0.012791882278710488,0.003662134411649527,1.8588854300327082
12196,4.0,299.85917,5466.5614,0.0,0.0,0.0,0.0,0.0,0.12155520968427874,-0.7970701919447033,0.02193565788413088,-0.8865636527795202,0.02219519987074568,0.00959942242168923,1.8649124442775282
12197,4.0,299.61487999999997,5283.2693,0.0,0.0,0.0,0.0,0.0,0.12156517649386257,-0.7603165102723973,0.030291446112032973,-0.8759568696727122,0.04906182112802475,-0.005777456723365585,1.8330345828814283
12198,4.0,301.35627999999997,5452.7403,0.0,0.0,0.0,0.0,0.0,0.12157514330344639,-0.7769492234464183,0.0025480439391723573,-0.8830957232522622,-0.012772025616500789,-0.005169188604159195,1.8638984849024582
12199,4.0,300.17045,5276.8046,0.0,0.0,0.0,0.0,0.0,0.1215851101130302,-0.7964453814030392,0.023886448036658875,-0.8314578941035052,-0.006974725301851795,-0.037128792938826566,1.8456589698523582
12200,4.0,298.3693,5039.2697,0.0,0.0,0.0,0.0,0.0,0.12159507692261404,-0.7569765035702642,0.04973455637291855,-0.8245702049587432,-0.015219152277513383,-0.001047848841889629,1.874551391153818
12201,4.0,299.05332000000004,5232.933,0.0,0.0,0.0,0.0,0.0,0.12160504373219785,-0.8013936693263972,0.024974415199032873,-0.8142617226813752,-0.022007786092499378,0.00012889057016300884,1.8723593258874782
12202,4.0,299.79896,5555.3625,0.0,0.0,0.0,0.0,0.0,0.12161501054178167,-0.7949352334539992,-0.006962580688803214,-0.8867936504197191,-0.017644060390333182,-0.008501923615624532,1.8498304191890482
12203,4.0,298.83123,5457.2729,0.0,0.0,0.0,0.0,0.0,0.12162497735136549,-0.7710783003795032,-0.01029448625373669,-0.8775019038226951,-0.02315942690440748,0.007643927546296913,1.8340177394534585
12204,4.0,300.06315,5365.9467,0.0,0.0,0.0,0.0,0.0,0.1216349441609493,-0.7624912894920313,0.015019132654772987,-0.8836416522736411,0.0024184648554338977,0.031014043394347768,1.846912157576038
12205,4.0,299.90372,5360.3688,0.0,0.0,0.0,0.0,0.0,0.12164491097053313,-0.7896902962988642,0.024293003493532774,-0.8640209658797301,0.02261994418016468,-0.002379090361847938,1.8693667930421383
12206,4.0,299.81924,5345.4384,0.0,0.0,0.0,0.0,0.0,0.12165487778011697,-0.7855004767378612,0.042733605118728465,-0.8821129111852662,-0.017982757474759983,-0.0037640709180848764,1.8785620376996381
12207,4.0,300.34011,5340.3872,0.0,0.0,0.0,0.0,0.0,0.12166484458970078,-0.8274751524654392,0.04387687040530996,-0.8397460671389841,-0.006191872467890234,-0.009194033620980471,1.8617832239936982
12208,4.0,300.67674,5287.4173,0.0,0.0,0.0,0.0,0.0,0.1216748113992846,-0.7757296958910602,0.03368866699431257,-0.8652018176787712,-0.008641056938530923,-0.006767477760848053,1.8771117728315083
12209,4.0,299.58072999999996,5158.2597,0.0,0.0,0.0,0.0,0.0,0.12168477820886842,-0.7670193724664183,0.03812484109187886,-0.8390876166940002,0.012146709463036887,0.012243645073603688,1.8433552444249983
12210,4.0,300.51937000000004,5431.3656,0.0,0.0,0.0,0.0,0.0,0.12169474501845225,-0.8139306634762021,0.015043682691445884,-0.8521125515619612,-0.006159239532519615,-0.01025675079351249,1.891930960844048
12211,4.0,299.95318,5614.18,0.0,0.0,0.0,0.0,0.0,0.12170471182803606,-0.8364515148363372,0.017793092254791483,-0.8879121062776022,0.01861813824146718,0.01082024450537499,1.8587598883453182
12212,4.0,298.78077,5394.6899,0.0,0.0,0.0,0.0,0.0,0.12171467863761988,-0.8146580959879942,0.022988859422323777,-0.8481817795215242,-0.003549424523525927,0.009473275823989531,1.9141073578326881
12213,4.0,299.51012000000003,5185.5617,0.0,0.0,0.0,0.0,0.0,0.1217246454472037,-0.7811519315486932,0.04589797707502766,-0.8410273117579332,-0.002289068258038448,0.0028135835557790774,1.877595397104238
12214,4.0,300.07896,5337.5606,0.0,0.0,0.0,0.0,0.0,0.12173461225678753,-0.7597966319110893,0.01039928569832959,-0.8730877810870551,-0.0012562847226106487,-0.007553037796426793,1.8607695685936585
12215,4.0,298.90693,5430.2698,0.0,0.0,0.0,0.0,0.0,0.12174457906637134,-0.7800608739735142,-0.003463824243152837,-0.8671417153927241,-0.004315009143983246,0.0023711815395173978,1.8329564612987181
12216,4.0,298.95277000000004,5310.9325,0.0,0.0,0.0,0.0,0.0,0.12175454587595516,-0.7652690133161713,0.016230786243603884,-0.8653526399561562,0.007680369390118443,0.0057031080787279444,1.8480536851386982
12217,4.0,299.71468,5129.1291,0.0,0.0,0.0,0.0,0.0,0.12176451268553899,-0.7633887048405993,0.03989112752044776,-0.8356296068852211,0.003173354823735737,0.010651232362194792,1.8772749060976084
12218,4.0,299.53108,5274.4539,0.0,0.0,0.0,0.0,0.0,0.12177447949512281,-0.7750893724903652,0.028959570398837075,-0.8571724895138383,0.02124095639031918,-0.002317108333355788,1.8408694379546684
12219,4.0,300.06202,5534.7564,0.0,0.0,0.0,0.0,0.0,0.12178444630470663,-0.8108393184811102,-0.00022683999824986482,-0.8713615879516933,-0.01227542160998979,0.007722855878736533,1.8731123733617983
12220,4.0,299.83044,5563.733,0.0,0.0,0.0,0.0,0.0,0.12179441311429046,-0.7698673043899873,-0.03302811101562077,-0.8883404982873812,0.0023765799334001777,-0.002718893003458847,1.8165478891793183
12221,4.0,300.43217999999996,5423.5753,0.0,0.0,0.0,0.0,0.0,0.12180437992387427,-0.8034678936061073,0.017966789666434082,-0.8631303798368362,-0.02514701323431698,0.015075554473341383,1.8944082560135382
12222,4.0,300.51509,5176.8443,0.0,0.0,0.0,0.0,0.0,0.12181434673345809,-0.7634071865224232,0.02266952757380818,-0.8328937302902111,-0.012281399785579789,-0.012216906416714789,1.846321939392788
12223,4.0,300.52204,5228.3498,0.0,0.0,0.0,0.0,0.0,0.1218243135430419,-0.7726011038222923,0.017832568478687482,-0.8345192671606393,0.0022475380748647376,-0.013704280556507187,1.8882277343785683
12224,4.0,300.36868,5468.2283,0.0,0.0,0.0,0.0,0.0,0.12183428035262572,-0.8143212815222532,0.028485004582001074,-0.8763685937183461,-0.03138628817633547,-0.02365260308583018,1.8891087553405181
12225,4.0,299.85033,5599.799,0.0,0.0,0.0,0.0,0.0,0.12184424716220955,-0.8219620688038403,0.018213278965260683,-0.8984502822201392,0.022119857633059976,-0.007455642980914673,1.8997761510683084
12226,4.0,298.46417,5499.2717,0.0,0.0,0.0,0.0,0.0,0.12185421397179337,-0.7859573714729533,0.011880498264263887,-0.8975644077902102,0.014274331009766786,-0.009348961486445661,1.8656396538742983
12227,4.0,298.61208999999997,5453.0516,0.0,0.0,0.0,0.0,0.0,0.1218641807813772,-0.7987141395694483,0.014914521674698686,-0.8737919189790482,0.051794957894764355,0.028083580223633574,1.8535582676319582
12228,4.0,299.2828,5412.9201,0.0,0.0,0.0,0.0,0.0,0.12187414759096102,-0.8018533302342622,0.0057509884016033646,-0.8492902143359181,0.02690765484657877,-0.007105681797776192,1.8449457431069682
12229,4.0,299.88518,5327.1557,0.0,0.0,0.0,0.0,0.0,0.12188411440054484,-0.7923065283220663,0.037685117906231566,-0.8647008972268341,0.003990371512644006,0.015187545967144086,1.872614259612638
12230,4.0,300.43692999999996,5209.06,0.0,0.0,0.0,0.0,0.0,0.12189408121012865,-0.7762499592874063,0.014084197668252087,-0.8212584172718952,-0.018832535883126583,0.004589925377015366,1.8582693739719085
12231,4.0,300.05427000000003,5073.8161,0.0,0.0,0.0,0.0,0.0,0.12190404801971248,-0.7260112866717353,0.009141457086541571,-0.8254435860149393,-0.01052812551479509,0.006239872455602464,1.848735501130988
12232,4.0,299.80332999999996,5174.3287,0.0,0.0,0.0,0.0,0.0,0.1219140148292963,-0.7331920888054253,0.01934215306067188,-0.8590167769483552,-0.017175290364069184,-0.00950784984257672,1.8384067335866183
12233,4.0,300.38356,5628.2783,0.0,0.0,0.0,0.0,0.0,0.12192398163888012,-0.8025530908858233,-0.013225849190539686,-0.8950771219747341,-0.0036027851108922067,0.02113090932345838,1.8609871133901281
12234,4.0,300.70352,5825.1652,0.0,0.0,0.0,0.0,0.0,0.12193394844846395,-0.8402348893847271,0.0003276570558422337,-0.9307975215925631,-0.018231293538788586,-0.017060741427014085,1.8478747451710382
12235,4.0,300.44382,5545.2489,0.0,0.0,0.0,0.0,0.0,0.12194391525804776,-0.8106308929355402,0.008114780814766513,-0.8831010934777922,-0.004648910515686745,0.008246898900605553,1.875454703617968
12236,4.0,300.19552000000004,5131.6246,0.0,0.0,0.0,0.0,0.0,0.12195388206763158,-0.7614866114878773,0.031783769978563865,-0.8301828809726712,0.0038902647332392363,-0.019253005290373684,1.8656364114739783
12237,4.0,300.30543,5052.0413,0.0,0.0,0.0,0.0,0.0,0.1219638488772154,-0.7629785310676184,0.07232304926997923,-0.8450389208913481,0.01198977931404909,0.007090741931676744,1.907612424691688
12238,4.0,299.21166,5390.1806,0.0,0.0,0.0,0.0,0.0,0.12197381568679921,-0.8017557846471353,-0.0029841212483098373,-0.8337404020737713,-0.0073146027213200834,-0.02237376898886908,1.8464441373548484
12239,4.0,299.11028999999996,5450.2458,0.0,0.0,0.0,0.0,0.0,0.12198378249638304,-0.8107448126442832,-0.002256190521443668,-0.8437376341854211,-0.011777595623858187,0.00945377876424032,1.8575362875245585
12240,4.0,299.53312,5179.6013,0.0,0.0,0.0,0.0,0.0,0.12199374930596686,-0.7607583683760053,0.010119356815727761,-0.8238304513257352,-0.0027547664139742777,-0.014329999983510885,1.8613244243484184
12241,4.0,299.82635,5264.1697,0.0,0.0,0.0,0.0,0.0,0.12200371611555069,-0.7912872696489732,0.03662325611943396,-0.8455121188205492,-0.0015930076918676186,0.03312820492674927,1.8834592780829584
12242,4.0,299.55975,5594.4995,0.0,0.0,0.0,0.0,0.0,0.12201368292513451,-0.8082273522408293,0.007122072435368824,-0.8994828853970491,0.004001574613699666,0.007116556403149433,1.8837075243574581
12243,4.0,300.33982000000003,5673.2048,0.0,0.0,0.0,0.0,0.0,0.12202364973471833,-0.8188599124301813,-0.004859654478810555,-0.9007930481738521,-0.006533029926209853,0.021005185251050378,1.8641449073267782
12244,4.0,301.02599,5443.5298,0.0,0.0,0.0,0.0,0.0,0.12203361654430214,-0.7664859064212692,0.0074674917249340535,-0.8956786986916051,-0.009109836489345862,0.0054701679602385455,1.864057666493168
12245,4.0,300.55966,5034.7499,0.0,0.0,0.0,0.0,0.0,0.12204358335388597,-0.7475780820027124,0.05403693890078065,-0.8368971118328141,-0.014951666410114587,0.009281378515375742,1.8506596630708883
12246,4.0,301.21597,5207.695,0.0,0.0,0.0,0.0,0.0,0.12205355016346979,-0.7563731941957222,0.012952544227816588,-0.8395885776759412,0.00914479108467061,-0.006650045215333363,1.8457607001623983
12247,4.0,300.68869,5521.2874,0.0,0.0,0.0,0.0,0.0,0.1220635169730536,-0.8259123459087022,0.0013886397063230687,-0.8538097961419663,-0.014938377635053087,0.014236106149744288,1.867260246084238
12248,4.0,300.19397000000004,5151.5682,0.0,0.0,0.0,0.0,0.0,0.12207348378263742,-0.7598969234059872,0.02274067292957968,-0.8287918608378881,0.01301812684053909,-0.01256786788035199,1.8551247522865586
12249,4.0,299.43547,5068.5137,0.0,0.0,0.0,0.0,0.0,0.12208345059222125,-0.7628431405892563,0.021359564407274878,-0.7992180288441783,0.013192542646502589,0.00012002218985526788,1.8856904548031586
12250,4.0,299.4547,5456.0904,0.0,0.0,0.0,0.0,0.0,0.12209341740180507,-0.8044216051302312,0.025521934009818774,-0.879615584061299,0.023170122772463077,-0.026345526995851076,1.8537702395528783
12251,4.0,298.64862,5761.6947,0.0,0.0,0.0,0.0,0.0,0.12210338421138889,-0.8641733586947702,-0.0056005130610526045,-0.8816374638408432,0.01144817383084679,-0.015603117323407785,1.8812040873353884
12252,4.0,299.31015,5657.3626,0.0,0.0,0.0,0.0,0.0,0.1221133510209727,-0.8316955519144601,0.04222425847895986,-0.9302256635011251,-0.006987337124521483,0.0007361816528279723,1.8537622348770881
12253,4.0,300.12113999999997,5452.7051,0.0,0.0,0.0,0.0,0.0,0.12212331783055654,-0.8183641899512571,0.03358601361343146,-0.8727080048170742,-0.03833387256100866,0.027619457975578274,1.9168458688779584
12254,4.0,300.41638,5225.2814,0.0,0.0,0.0,0.0,0.0,0.12213328464014035,-0.7438381049561053,0.028359573338871975,-0.8728765285737061,-0.023639338628771076,0.025505783816474874,1.8573433647055182
12255,4.0,299.0813,5221.5519,0.0,0.0,0.0,0.0,0.0,0.12214325144972418,-0.7726888107509483,0.06582817996373554,-0.8803607687148431,-0.03243386111022287,0.041237831135607056,1.9055273586359083
12256,4.0,299.70937999999995,5421.1203,0.0,0.0,0.0,0.0,0.0,0.122153218259308,-0.7816940507496962,0.007636876744151053,-0.8738280312126122,-0.01053009729948969,0.0009109536060691209,1.8795896759510582
12257,4.0,300.00973999999997,5419.9026,0.0,0.0,0.0,0.0,0.0,0.12216318506889182,-0.7849020410963002,0.01904202534130158,-0.8816550335975771,0.007203233363078783,-0.002149031014717848,1.8883221692878882
12258,4.0,299.81424,5250.3048,0.0,0.0,0.0,0.0,0.0,0.12217315187847563,-0.7528428484623042,0.016616850743705485,-0.8597355664367942,0.026940658428835973,-0.024007380449343977,1.8584559133153182
12259,4.0,299.95747,5456.9792,0.0,0.0,0.0,0.0,0.0,0.12218311868805946,-0.8077563530643452,0.009003138822015621,-0.8600322055360701,0.05420192337481336,0.003235445877938647,1.8657073389809784
12260,4.0,301.38537,5804.9859,0.0,0.0,0.0,0.0,0.0,0.12219308549764328,-0.8374572364880941,-0.02224178809709358,-0.9048717344638872,0.033833201041576964,-0.02405706719449768,1.8833058720178182
12261,4.0,300.32397000000003,5622.9432,0.0,0.0,0.0,0.0,0.0,0.12220305230722711,-0.8272111805493872,-0.012867965202219288,-0.8691551851964381,-0.007353093255518804,-0.009431295656446412,1.8708328646118284
12262,4.0,300.6497,5438.3981,0.0,0.0,0.0,0.0,0.0,0.12221301911681093,-0.7820164162690113,-0.0051921400361493245,-0.8659286726380061,-0.02500236874279168,-0.02310730633251358,1.8842073606317882
12263,4.0,300.62543,5525.5318,0.0,0.0,0.0,0.0,0.0,0.12222298592639474,-0.7903758106540192,0.014032466184396589,-0.9032803339893282,-0.005109087269177655,0.007358992701576033,1.8819042431544883
12264,4.0,299.09778,5481.3119,0.0,0.0,0.0,0.0,0.0,0.12223295273597856,-0.7864468320662593,0.005640887227187225,-0.8853760020723082,0.005978103953217925,0.01181610318065859,1.8771341656587182
12265,4.0,299.17987,5437.0929,0.0,0.0,0.0,0.0,0.0,0.12224291954556238,-0.7863858546752412,0.02356056248649648,-0.8899151700027892,0.00931232064030449,0.03559337149254226,1.884002582786578
12266,4.0,299.13604,5349.0002,0.0,0.0,0.0,0.0,0.0,0.12225288635514621,-0.7735682206452393,0.017858924127038583,-0.8702532139323053,-0.02170622057123718,0.02169966281658998,1.8395831169527184
12267,4.0,299.07072999999997,5210.162,0.0,0.0,0.0,0.0,0.0,0.12226285316473003,-0.8046292808707273,0.047188495972141954,-0.8263183653562732,-0.0052432087531144155,0.024422294206292775,1.8780214687712884
12268,4.0,299.41742,5285.5306,0.0,0.0,0.0,0.0,0.0,0.12227281997431384,-0.8035801617171872,0.03942475383067026,-0.8425139320396513,-0.007293795022566524,-0.0019664025127188183,1.8786212115054781
12269,4.0,300.05292000000003,5519.5935,0.0,0.0,0.0,0.0,0.0,0.12228278678389767,-0.8144385044263223,0.003262166397650757,-0.8666422540209311,0.004831590085490816,-0.03437305461535636,1.9117450665495483
12270,4.0,299.05972,5482.1578,0.0,0.0,0.0,0.0,0.0,0.12229275359348149,-0.7916335174731453,0.012173453186176289,-0.8869790143930132,-0.006663716390982603,-0.025666076942544577,1.858799709074248
12271,4.0,301.11442,5459.1952,0.0,0.0,0.0,0.0,0.0,0.12230272040306531,-0.8061421240650332,0.027501821665468475,-0.8808187273625402,0.007922600404074782,-0.02640610111332927,1.9011123239751782
12272,4.0,301.71386,5578.2514,0.0,0.0,0.0,0.0,0.0,0.12231268721264914,-0.8122379785216471,0.0021848628819791777,-0.8855960394640242,0.013707678997342588,-0.015142877849735685,1.8774174703866784
12273,4.0,301.51396,5589.2499,0.0,0.0,0.0,0.0,0.0,0.12232265402223295,-0.8657205611999672,0.036073204183398065,-0.8693450378676751,0.003155001824674437,-0.007790512411763712,1.9136771318402284
12274,4.0,300.70316,5392.5263,0.0,0.0,0.0,0.0,0.0,0.12233262083181677,-0.7657320686118713,-0.006796477789310133,-0.8666648089681572,-0.0048241854564100356,0.014841611237252986,1.8567657108235085
12275,4.0,300.24088,5309.6209,0.0,0.0,0.0,0.0,0.0,0.12234258764140059,-0.7585587746614223,0.030270895373504768,-0.8857043052372091,-7.686780527476173e-05,0.014548767772851587,1.8649024131015381
12276,4.0,299.98174,5360.2833,0.0,0.0,0.0,0.0,0.0,0.12235255445098442,-0.7496716998893362,0.017786349075375983,-0.8975069261120371,-0.028618885317714074,-0.003223878918772077,1.8645715869438881
12277,4.0,299.97011000000003,5209.1494,0.0,0.0,0.0,0.0,0.0,0.12236252126056824,-0.7534538889351092,0.014441920549806588,-0.8444393909396792,-0.006539628514836083,-0.01877705942690148,1.863298944818288
12278,4.0,299.58306,5214.0147,0.0,0.0,0.0,0.0,0.0,0.12237248807015205,-0.7485416524503092,0.01104855508415749,-0.8474371825530382,-0.01062860344771149,0.02477476743907918,1.858529576597588
12279,4.0,300.32092,5559.0573,0.0,0.0,0.0,0.0,0.0,0.12238245487973587,-0.8433266396798591,0.004021478493364027,-0.8505094581812482,0.013590552352033087,0.03266242297503017,1.8952285832944982
12280,4.0,300.09114,5552.2536,0.0,0.0,0.0,0.0,0.0,0.1223924216893197,-0.8324057997045563,0.023133467436845478,-0.8784741274261462,0.01104857534915949,0.014690245857814385,1.8932259957968582
12281,4.0,300.15688,5587.5529,0.0,0.0,0.0,0.0,0.0,0.12240238849890352,-0.8300116214407691,0.029010965483659373,-0.8974759105264761,0.014697444999774883,-0.0028703408614555877,1.8969308434624983
12282,4.0,300.63096,5702.7477,0.0,0.0,0.0,0.0,0.0,0.12241235530848733,-0.8056742558313582,-0.003118180923990497,-0.9247004613683301,0.013673619608481185,-0.007241004388381493,1.8686342132198384
12283,4.0,299.97468,5548.3053,0.0,0.0,0.0,0.0,0.0,0.12242232211807116,-0.8132583821673531,0.03261391159999247,-0.9059017943830462,0.023082029795518978,-0.031149810801746967,1.8877890984102783
12284,4.0,300.30755,5244.8549,0.0,0.0,0.0,0.0,0.0,0.12243228892765498,-0.8000871947799583,0.06670217504949214,-0.8609199139486802,-0.01728755036914838,-0.023307193219490877,1.8804642121123682
12285,4.0,300.45332,5249.893,0.0,0.0,0.0,0.0,0.0,0.1224422557372388,-0.8322728916889393,0.05921712228177495,-0.8227806026321233,-0.016466942417910684,-0.04168615884110356,1.9006551455300582
12286,4.0,300.05255,5246.3343,0.0,0.0,0.0,0.0,0.0,0.12245222254682263,-0.7715545583240063,0.04452166730519646,-0.8677217402799682,-0.0008612460183608642,0.04255124847173126,1.8594009716835882
12287,4.0,300.37756,5299.9559,0.0,0.0,0.0,0.0,0.0,0.12246218935640645,-0.7745056087102523,0.02446225071073618,-0.8610109038076602,0.01802871039329518,0.027507176692246973,1.8829061448533682
12288,4.0,300.04033,5556.6067,0.0,0.0,0.0,0.0,0.0,0.12247215616599026,-0.7834852742764763,0.0028933978741061375,-0.9084778105097793,-0.009010348197802132,0.003088525120063697,1.8675509475379284
12289,4.0,299.48312999999996,5621.2904,0.0,0.0,0.0,0.0,0.0,0.12248212297557409,-0.8230101139122742,0.01107935282094699,-0.8968011670198841,-0.02861398929323087,-0.03043868249731407,1.893275645051758
12290,4.0,299.33882,5513.0825,0.0,0.0,0.0,0.0,0.0,0.12249208978515791,-0.8161860568737922,-0.01917445307637118,-0.8404789205388111,-0.001233025667890159,0.016328494963996985,1.8809269634330381
12291,4.0,300.09231,5539.7349,0.0,0.0,0.0,0.0,0.0,0.12250205659474173,-0.8254898104845012,0.01112687830363739,-0.8695781664506832,0.00999875745835053,0.0010407456547135991,1.898316361649238
12292,4.0,300.29327,5649.5452,0.0,0.0,0.0,0.0,0.0,0.12251202340432554,-0.8258975119272383,0.012815022884494287,-0.9042381897063613,-0.0013993766110077187,-0.0015403364185443684,1.8850651781664483
12293,4.0,299.60775,5360.1542,0.0,0.0,0.0,0.0,0.0,0.12252199021390936,-0.7832267232484592,0.03660390912202456,-0.8827302236761901,-0.0017674258283063484,-0.03687529194930796,1.8709289207213085
12294,4.0,300.1287,5062.1024,0.0,0.0,0.0,0.0,0.0,0.12253195702349319,-0.7214885739228784,0.04307530851620196,-0.8603394837613961,0.0022700433728358375,0.013831140482277288,1.8420578789969582
12295,4.0,301.02847,5113.6898,0.0,0.0,0.0,0.0,0.0,0.12254192383307701,-0.7399587654907442,0.026316393015725775,-0.8407916399171743,0.039029078653370165,0.00017409644979698183,1.8558257187057383
12296,4.0,299.73714,5423.3582,0.0,0.0,0.0,0.0,0.0,0.12255189064266084,-0.8323096321375653,0.04747606141677246,-0.8637319160237031,-0.006225954148253833,-0.008406073297239842,1.8993957769807683
12297,4.0,300.16503,5764.9395,0.0,0.0,0.0,0.0,0.0,0.12256185745224465,-0.8646227351141201,-0.0017182826918312984,-0.8860566528269831,-0.003626964500678527,0.007033859185637853,1.889225481752038
12298,4.0,301.41275,5648.1906,0.0,0.0,0.0,0.0,0.0,0.12257182426182847,-0.8231616961272342,-0.013920141331310988,-0.8798270594896701,-0.02200449606942468,0.04045207088180856,1.8918830341143182
12299,4.0,301.42959,5523.9134,0.0,0.0,0.0,0.0,0.0,0.12258179107141229,-0.7830167575627373,0.010268512600673291,-0.9063835036130872,-0.022975813827286275,0.006695806933574694,1.920336616797468
12300,4.0,300.02918,5620.814,0.0,0.0,0.0,0.0,0.0,0.12259175788099612,-0.7868535405238982,-0.0031740974347340273,-0.9185594767522621,-0.012783391242872488,-0.015538530735533585,1.9118732426871983
12301,4.0,300.11597,5698.4041,0.0,0.0,0.0,0.0,0.0,0.12260172469057994,-0.8417642992181682,0.014299913548291588,-0.9047081857652461,0.025991838876194773,-0.03228386767141967,1.914752595496368
12302,4.0,299.65945,5362.0339,0.0,0.0,0.0,0.0,0.0,0.12261169150016375,-0.8246211207762683,0.06510386724900144,-0.8704071671524992,0.01036123511732429,0.014009603209140185,1.9161185579561784
12303,4.0,300.08172,5022.4754,0.0,0.0,0.0,0.0,0.0,0.12262165830974757,-0.7597682913057923,0.05558701397001115,-0.8225258512919812,0.025945945739415475,-0.014789882793147788,1.879764765568338
12304,4.0,299.56202,5147.2085,0.0,0.0,0.0,0.0,0.0,0.1226316251193314,-0.7396540102581672,0.05683824510774804,-0.8818071021725851,-0.024106016293578576,-0.006960836885381113,1.8673525531683481
12305,4.0,300.48767000000004,5570.6947,0.0,0.0,0.0,0.0,0.0,0.12264159192891522,-0.8150859003127152,0.01876858257656488,-0.8970347819629401,0.012712705902646386,-0.0035636295806528565,1.8491404971959584
12306,4.0,299.51741,5615.8382,0.0,0.0,0.0,0.0,0.0,0.12265155873849903,-0.7736279010761293,-0.02863904798145397,-0.9048076362625611,-0.014817078425831786,0.029708243672475373,1.8415172087435983
12307,4.0,300.41541,5365.8642,0.0,0.0,0.0,0.0,0.0,0.12266152554808285,-0.7866769411639692,0.00978602164818014,-0.8541978202677613,-0.01042586932795319,-0.009300231654686401,1.8783273689764783
12308,4.0,300.93022,5348.397,0.0,0.0,0.0,0.0,0.0,0.12267149235766668,-0.7886225738734882,0.017431039755559683,-0.8545875871837282,-0.033005577346646865,-0.025122539191401578,1.9213041693179584
12309,4.0,299.48872,5448.825,0.0,0.0,0.0,0.0,0.0,0.1226814591672505,-0.7974365021208553,0.006152015464606655,-0.8650222697610511,0.017619221577381782,-0.030628266657274573,1.902106423648288
12310,4.0,300.05929,5556.975,0.0,0.0,0.0,0.0,0.0,0.12269142597683433,-0.7808545021143393,0.0028433598351427676,-0.9111704922530262,0.0017757758197304281,0.017353610222667983,1.908888714517648
12311,4.0,299.71409,5397.6592,0.0,0.0,0.0,0.0,0.0,0.12270139278641815,-0.7621321328615852,0.01206682887815329,-0.8906883203590932,-0.005055043751243975,-0.014031539060555088,1.878023495271488
12312,4.0,298.64209,5111.2805,0.0,0.0,0.0,0.0,0.0,0.12271135959600196,-0.7519083785575793,0.08470168762790571,-0.8864949341577382,-0.009867450681866561,-0.03142357476676537,1.8916456296158881
12313,4.0,298.35175,5216.7391,0.0,0.0,0.0,0.0,0.0,0.12272132640558578,-0.7933955391320432,0.03408380413580957,-0.8264466732164362,0.020132773875200082,-0.007945141773749442,1.8586262406571281
12314,4.0,300.17905,5420.1195,0.0,0.0,0.0,0.0,0.0,0.12273129321516961,-0.8367264805159742,0.048002607976988555,-0.8588571089975972,0.04124049193036966,0.016534942645371784,1.8993865564048582
12315,4.0,300.13934,5530.9364,0.0,0.0,0.0,0.0,0.0,0.12274126002475343,-0.8246529064319053,0.018407017450631183,-0.8750206569778152,0.017001155228383382,-0.014911710918921288,1.873536823828688
12316,4.0,299.88338,5620.8894,0.0,0.0,0.0,0.0,0.0,0.12275122683433726,-0.8149476220715682,0.003234849276279767,-0.8968972535268671,-0.016950674095151285,-0.002946839014855367,1.9085905150132183
12317,4.0,300.17762999999997,5648.5472,0.0,0.0,0.0,0.0,0.0,0.12276119364392107,-0.7930648446969063,-0.01199610300792319,-0.9119563588980851,-0.007792069067892343,0.017348856053198785,1.8668248525162683
12318,4.0,300.14909,5680.6121,0.0,0.0,0.0,0.0,0.0,0.12277116045350489,-0.8035675467534422,-0.017104680004350482,-0.9060920016918181,0.009156040085955802,0.050100855403319454,1.909138278017278
12319,4.0,300.47631,5546.7337,0.0,0.0,0.0,0.0,0.0,0.12278112726308871,-0.8268113621924282,-0.00992752070742001,-0.8493296601623113,-0.015953675513505183,0.035886200771442264,1.8884438606248983
12320,4.0,299.75334,5370.4104,0.0,0.0,0.0,0.0,0.0,0.12279109407267252,-0.7933075586258603,0.033382147693311465,-0.8725452565860122,-0.04545366487967746,-0.018404080038591283,1.9341748773881982
12321,4.0,300.34175,5231.3106,0.0,0.0,0.0,0.0,0.0,0.12280106088225635,-0.7684803372556043,0.015596390355993884,-0.8373038608204572,-0.021249461611658582,-0.017939638616754485,1.8715875332863083
12322,4.0,299.22175,5298.9517,0.0,0.0,0.0,0.0,0.0,0.12281102769184017,-0.7686922382490172,0.028154486452381475,-0.8702112653781652,-0.0005471089612529504,-0.02360896747027368,1.8712506276280583
12323,4.0,299.61182,5354.3509,0.0,0.0,0.0,0.0,0.0,0.12282099450142399,-0.7388470680110283,-0.0036626715355275365,-0.8850792312505191,0.030647614667934073,-0.04084631433671736,1.8218919728567382
12324,4.0,299.76813,5587.3391,0.0,0.0,0.0,0.0,0.0,0.12283096131100782,-0.8088820232629402,-0.007889740399356754,-0.8816397943160732,0.004914349212583506,-0.037150067137926165,1.8591905196378182
12325,4.0,299.96428,5612.9389,0.0,0.0,0.0,0.0,0.0,0.12284092812059164,-0.8334718300022652,0.008490615643183522,-0.8812120609188592,0.016949970899581883,0.014318672860642987,1.865605912645968
12326,4.0,299.38293999999996,5484.0039,0.0,0.0,0.0,0.0,0.0,0.12285089493017545,-0.8289603035345122,0.018188284111793882,-0.8562282214806463,0.0095608426201567,0.04581867404270105,1.8976833843117682
12327,4.0,300.53255,5513.5936,0.0,0.0,0.0,0.0,0.0,0.12286086173975927,-0.8182961198095393,0.016383740399199286,-0.8740824177827181,-0.019031308194993882,0.031852505825597566,1.8960419191497682
12328,4.0,301.01812,5599.1552,0.0,0.0,0.0,0.0,0.0,0.1228708285493431,-0.8258954651620363,0.043259300548860555,-0.9193672194669801,-0.02390662995215068,-0.008767338501143942,1.919541924744038
12329,4.0,300.59986000000004,5527.2039,0.0,0.0,0.0,0.0,0.0,0.12288079535892692,-0.7632807126449412,-0.03606896778472997,-0.8807822908889442,-0.009131468365730762,-0.0007205784118880523,1.8677621088587684
12330,4.0,300.38178999999997,5335.4446,0.0,0.0,0.0,0.0,0.0,0.12289076216851073,-0.7816630148991333,0.03503287497447557,-0.8752117964766791,0.0017781983993945183,0.023026545233293078,1.911546368204938
12331,4.0,299.52186,5343.1771,0.0,0.0,0.0,0.0,0.0,0.12290072897809456,-0.7988462471174862,0.023233837965251275,-0.8485799969433252,0.0021082313848662377,0.011169835041626887,1.8797162308885482
12332,4.0,299.58789,5343.4981,0.0,0.0,0.0,0.0,0.0,0.12291069578767838,-0.7778725577325443,0.02098563357712078,-0.8674030731235182,0.006854079030994933,-0.025662757535216976,1.8912225976991384
12333,4.0,299.58155,5346.6108,0.0,0.0,0.0,0.0,0.0,0.1229206625972622,-0.7849842967394183,0.028550931699757573,-0.8688028274741632,0.009467055684275652,0.014523568242864588,1.8688235896635281
12334,4.0,300.27525,5592.2168,0.0,0.0,0.0,0.0,0.0,0.12293062940684601,-0.7904609641924233,-0.008494962688762542,-0.9009383381056911,0.012289355825364988,-0.008438398609880103,1.856766014798538
12335,4.0,300.23211000000003,5525.0426,0.0,0.0,0.0,0.0,0.0,0.12294059621642985,-0.7781535725152783,-0.01168046952227259,-0.8896409541282262,0.037090859894832864,-0.010881512699171689,1.8485801698906585
12336,4.0,299.54188,5355.504,0.0,0.0,0.0,0.0,0.0,0.12295056302601366,-0.7993680101239803,0.034970465861066266,-0.8635419518949552,-0.010910838183565889,-0.051158326777433746,1.8853827307477882
12337,4.0,300.43962,5551.8146,0.0,0.0,0.0,0.0,0.0,0.12296052983559748,-0.8413147302812991,0.02831205596218237,-0.8746103312173191,0.02013941674285568,0.007168873241587703,1.9083560489400784
12338,4.0,300.62457,5579.0869999999995,0.0,0.0,0.0,0.0,0.0,0.12297049664518131,-0.8363781251315942,0.02168598799324038,-0.8812109868737532,-0.027312641792297872,0.014856236489196387,1.9071825026742582
12339,4.0,299.84304,5214.4374,0.0,0.0,0.0,0.0,0.0,0.12298046345476513,-0.7854465617000402,0.04929829850261325,-0.8489104988609432,-0.023064530966291977,0.03105074331296977,1.9219459619312982
12340,4.0,301.05772,5377.1669999999995,0.0,0.0,0.0,0.0,0.0,0.12299043026434894,-0.7740932260520532,0.015379647040352986,-0.8758109109958071,-0.03766154970890556,-0.0034660567370981663,1.8813216243469884
12341,4.0,300.94071,5506.661999999999,0.0,0.0,0.0,0.0,0.0,0.12300039707393277,-0.7639045099365053,-0.0067386242483504335,-0.9032446169233033,-0.013258597433771687,0.014948060253008686,1.8757540176975083
12342,4.0,300.35979,5399.2141,0.0,0.0,0.0,0.0,0.0,0.12301036388351659,-0.7819350928159853,0.011355708679721188,-0.8706469021261591,-0.002267413279551268,0.0025521126449489077,1.8638793344755682
12343,4.0,300.76822999999996,5545.2881,0.0,0.0,0.0,0.0,0.0,0.12302033069310041,-0.8257113880163692,0.037663386731336866,-0.8975811264168603,-0.025519594415337875,0.001047566043786719,1.9113209200576882
12344,4.0,300.12854,5473.4236,0.0,0.0,0.0,0.0,0.0,0.12303029750268424,-0.8304385341054022,0.044721279601396664,-0.8780668616809523,-0.003805508895499486,-0.017219280617160684,1.918909048731578
12345,4.0,299.37874,5449.184,0.0,0.0,0.0,0.0,0.0,0.12304026431226806,-0.8008450551922532,0.02919748354881727,-0.8847682951923321,0.015449006036198185,0.016524932747633884,1.9163624472552483
12346,4.0,300.46532,5707.2146,0.0,0.0,0.0,0.0,0.0,0.12305023112185187,-0.8117696847229302,0.013356273730161588,-0.9364373223116681,0.04660110374342086,0.002326987217855758,1.897383664932188
12347,4.0,299.52957000000004,5727.8409,0.0,0.0,0.0,0.0,0.0,0.12306019793143569,-0.8172180115706382,-0.02062185753946888,-0.9032807392893683,0.020078941923887282,-0.016559328535528484,1.8874026448221382
12348,4.0,299.27326,5455.0041,0.0,0.0,0.0,0.0,0.0,0.1230701647410195,-0.8268996568061422,0.039195922441336364,-0.8704812965298151,-0.010960008171168592,-0.03942441033888636,1.9131178177850283
12349,4.0,300.75753,5436.164000000001,0.0,0.0,0.0,0.0,0.0,0.12308013155060334,-0.8143497741150652,0.02317815379275568,-0.8612865078348602,0.02362938344653858,0.014783438522511787,1.8842121229072584
12350,4.0,300.32346,5406.8166,0.0,0.0,0.0,0.0,0.0,0.12309009836018715,-0.8181395929340912,0.007684334845709803,-0.8330819921587912,0.011231526773965389,0.009122250018970981,1.8973518488790482
12351,4.0,301.25857,5319.8216,0.0,0.0,0.0,0.0,0.0,0.12310006516977098,-0.7645908652892432,0.03518300114904187,-0.8876850571951942,-0.005765949039329864,0.046175074632875054,1.8872223876293484
12352,4.0,300.86987,5382.9215,0.0,0.0,0.0,0.0,0.0,0.1231100319793548,-0.7548983073501623,0.002911097326852937,-0.8842865251672852,-0.03962512707769556,-0.002083407770666338,1.8834590754329381
12353,4.0,300.4627,5622.6853,0.0,0.0,0.0,0.0,0.0,0.12311999878893862,-0.7720959074549333,0.0014993597739002887,-0.9385593821285991,-0.012744484465532687,0.02015817504195698,1.8816328947777083
12354,4.0,300.45464,5528.5491,0.0,0.0,0.0,0.0,0.0,0.12312996559852243,-0.7979520032417312,-0.001057589924375999,-0.8815312853628642,0.015114677072952486,0.0028770124040890174,1.885988755632598
12355,4.0,300.34905,5380.6122,0.0,0.0,0.0,0.0,0.0,0.12313993240810625,-0.8007514410155142,0.028871296050125075,-0.8636916089347251,0.016765446910620787,-0.006083184878688604,1.9051564077742982
12356,4.0,299.48742999999996,5591.5617,0.0,0.0,0.0,0.0,0.0,0.12314989921769008,-0.8561485698902851,0.03997662961688617,-0.8835232033369512,0.012814235589166589,-0.02155758894056838,1.9186444891304681
12357,4.0,300.13324,5675.4845,0.0,0.0,0.0,0.0,0.0,0.1231598660272739,-0.8299314024303521,-0.0007124908117098684,-0.8945616917813651,-0.025178456411420178,0.004021464915812686,1.9183019092716582
12358,4.0,299.22264,5431.2584,0.0,0.0,0.0,0.0,0.0,0.12316983283685771,-0.7807601280000253,0.01360146505561009,-0.8838082609875841,0.012891211186013487,-0.0015366995599604386,1.8890990281395583
12359,4.0,299.24971,5457.2933,0.0,0.0,0.0,0.0,0.0,0.12317979964644155,-0.7963952660530933,0.03299220244532687,-0.89547782185928,-0.04658706415003525,-0.008501748424682242,1.8960033143209583
12360,4.0,299.95702,5464.3412,0.0,0.0,0.0,0.0,0.0,0.12318976645602536,-0.8087635439287472,0.041777085878577355,-0.8940368180970641,0.007599682663455283,-0.024146772252350877,1.8892035955498783
12361,4.0,299.67006000000003,5347.9346,0.0,0.0,0.0,0.0,0.0,0.12319973326560918,-0.7939391376781922,0.04066348551517356,-0.8723629120980162,-0.026067617824673574,0.001063363322120789,1.905906719473348
12362,4.0,299.47017999999997,5495.6007,0.0,0.0,0.0,0.0,0.0,0.123209700075193,-0.8059447125480502,0.014735163234747384,-0.8793158444167172,0.013795553112265086,0.018227345916398983,1.884693214054738
12363,4.0,300.95842999999996,5588.8782,0.0,0.0,0.0,0.0,0.0,0.12321966688477683,-0.8016509031292842,0.005372004594525574,-0.9026005343647371,-0.011489155744391388,0.006616254540398483,1.891169706043918
12364,4.0,300.51777999999996,5368.8784,0.0,0.0,0.0,0.0,0.0,0.12322963369436064,-0.7732743173212333,0.04614070822923336,-0.9048713595613501,-0.004142685598151236,-0.024493419297062276,1.919198027660098
12365,4.0,300.83752000000004,5594.2783,0.0,0.0,0.0,0.0,0.0,0.12323960050394447,-0.7954717291169473,-0.0034538530515687573,-0.9015953396030321,0.01130216753118709,0.022949617259200878,1.9008809989773483
12366,4.0,300.63875,5710.8041,0.0,0.0,0.0,0.0,0.0,0.12324956731352829,-0.8329297310662642,0.004742790467926975,-0.9077549173584352,0.0022018202303527375,-0.0032388916375537167,1.9001101183012683
12367,4.0,301.32525,5600.7377,0.0,0.0,0.0,0.0,0.0,0.12325953412311211,-0.8169216055188853,0.00030457978832218474,-0.8858673878408042,0.016227742440303485,0.014297469589050387,1.8894670405758782
12368,4.0,300.44229,5454.1042,0.0,0.0,0.0,0.0,0.0,0.12326950093269592,-0.8233011294734952,0.012267431119701187,-0.8468777773053293,0.021675331641938682,-0.02967398669984447,1.8865988335178085
12369,4.0,300.70081,5501.8407,0.0,0.0,0.0,0.0,0.0,0.12327946774227976,-0.8116870035147702,0.025644700405184875,-0.8863798998738852,0.035328626466663966,0.004773624681720076,1.875983316195138
12370,4.0,299.26162,5426.9883,0.0,0.0,0.0,0.0,0.0,0.12328943455186357,-0.8019424455805573,0.007599622172424313,-0.8553261147841151,0.0020756003746708078,-0.0012833950396362287,1.8550464280538284
12371,4.0,299.81504,5391.7285,0.0,0.0,0.0,0.0,0.0,0.1232994013614474,-0.7796340119713863,0.026583721829359072,-0.8859005515165772,-0.027131457475666372,0.0045162944174235555,1.883207586758118
12372,4.0,299.95171,5413.7864,0.0,0.0,0.0,0.0,0.0,0.12330936817103122,-0.7740029049381393,0.016198468631664385,-0.8878514429941151,0.0014506997550729189,-0.025587634159552872,1.894516268474198
12373,4.0,299.80149,5503.0558,0.0,0.0,0.0,0.0,0.0,0.12331933498061504,-0.7967836144189202,0.01074673929012059,-0.8867546808208732,-6.892972838733453e-05,-0.024182499450876877,1.9168502258533882
12374,4.0,299.58702999999997,5584.411,0.0,0.0,0.0,0.0,0.0,0.12332930179019885,-0.8294125677166472,0.015382579386142384,-0.8834915190063242,0.02799720977185947,-0.005890973969168864,1.9040291670380483
12375,4.0,299.75629,5728.2998,0.0,0.0,0.0,0.0,0.0,0.12333926859978267,-0.8223370118708442,-0.022300457304383774,-0.8966226323522642,-0.014443131383676085,-0.009538604212261942,1.9083030559598482
12376,4.0,300.63748,5596.9554,0.0,0.0,0.0,0.0,0.0,0.1233492354093665,-0.8330316741588253,0.01760949538967188,-0.8859125281327591,-0.01077102993476789,-0.013953479286101186,1.8909505400472881
12377,4.0,300.18399,5274.1375,0.0,0.0,0.0,0.0,0.0,0.12335920221895032,-0.7716767562860662,0.04983400383048325,-0.8813633391587893,0.005916893514676925,0.022166181401131777,1.8953421686307081
12378,4.0,300.75235,5364.9991,0.0,0.0,0.0,0.0,0.0,0.12336916902853413,-0.7823724115591453,0.01927108673840818,-0.8677244456577352,0.024268412926855876,0.012847985936747488,1.8564445105418084
12379,4.0,300.35008,5369.6545,0.0,0.0,0.0,0.0,0.0,0.12337913583811796,-0.7706236449271323,0.028286358926396273,-0.8899035986866471,0.003942099973904977,-0.0008708738701485592,1.8847883582391283
12380,4.0,300.55836,5284.3809,0.0,0.0,0.0,0.0,0.0,0.12338910264770178,-0.7940972756212993,0.01641451888423688,-0.8286370970176141,-0.013199228070662386,-0.036704188457921366,1.885598046394038
12381,4.0,299.34574,5412.3897,0.0,0.0,0.0,0.0,0.0,0.1233990694572856,-0.7825124123254622,0.008709739995234412,-0.8714286651083131,0.009011136709029952,-0.015391654054037984,1.8544619853961484
12382,4.0,299.94943,5638.7253,0.0,0.0,0.0,0.0,0.0,0.12340903626686942,-0.8217843143387972,-0.022647005050585377,-0.8696003768928752,0.005161784988328515,0.0004822773897695725,1.8924532912705982
12383,4.0,299.56216,5735.0334,0.0,0.0,0.0,0.0,0.0,0.12341900307645323,-0.8020470332558793,-0.02954803059316357,-0.9117118819139571,-0.002899940733976867,0.019472839018819584,1.8858413277430481
12384,4.0,299.7276,5893.5961,0.0,0.0,0.0,0.0,0.0,0.12342896988603706,-0.8252732586731292,-0.024811343741188974,-0.9414214488910632,-0.02044208265372648,0.03298648771476287,1.926116094042858
12385,4.0,299.50772,5552.3852,0.0,0.0,0.0,0.0,0.0,0.12343893669562088,-0.8020185406630672,0.008377079449603371,-0.8941449926777402,-0.01749030171415838,0.014170687683537988,1.904739759333178
12386,4.0,300.07647000000003,5238.7603,0.0,0.0,0.0,0.0,0.0,0.12344890350520471,-0.7915023927777042,0.04226748474147596,-0.8432174214515803,0.02149584755897498,-0.011476015917094589,1.9054554178788083
12387,4.0,300.43523,5275.2186,0.0,0.0,0.0,0.0,0.0,0.12345887031478853,-0.7732820281544942,0.027130362152308275,-0.8573830530171191,-0.008658929454394802,-0.029548565589216372,1.8650921948452681
12388,4.0,301.32431,5517.7503,0.0,0.0,0.0,0.0,0.0,0.12346883712437234,-0.8051598996830952,0.007229428613939053,-0.8793278514304023,0.001170514824170819,-0.009742301223590271,1.8838274931692982
12389,4.0,300.75199,5590.6187,0.0,0.0,0.0,0.0,0.0,0.12347880393395616,-0.8087648206238732,0.019446785318998284,-0.910090458838935,-0.014839417550786486,0.0005940872686243484,1.8554743235710582
12390,4.0,300.59365,5488.1847,0.0,0.0,0.0,0.0,0.0,0.12348877074353999,-0.7907997544958592,0.014516123894379887,-0.8919874792398103,0.016554032277255784,0.026180053122020073,1.8725511341314083
12391,4.0,300.6483,5475.9371,0.0,0.0,0.0,0.0,0.0,0.12349873755312381,-0.8082780046133282,0.02985699790640627,-0.8861271446364402,0.007429370824371812,0.015058803422688186,1.9041250204975082
12392,4.0,300.7008,5583.6465,0.0,0.0,0.0,0.0,0.0,0.12350870436270762,-0.8176209102079013,0.014364426168908486,-0.8940326435066522,-0.015434766832542884,-0.005758128167108005,1.935365344930688
12393,4.0,299.51097999999996,5606.0221,0.0,0.0,0.0,0.0,0.0,0.12351867117229146,-0.8228610141600592,0.012845258267478288,-0.8940749770958302,-0.02011059484376118,-0.01072136142811599,1.911678192042948
12394,4.0,299.38543,5527.2021,0.0,0.0,0.0,0.0,0.0,0.12352863798187527,-0.8179977885825962,0.018329059001187285,-0.8804626915424021,-0.03226195005850657,-0.01015888907235429,1.921920833328818
12395,4.0,299.77141,5327.385,0.0,0.0,0.0,0.0,0.0,0.12353860479145909,-0.7783059855953203,0.04250329641074876,-0.8835893179059762,-0.018054906961380582,-0.004425331105596176,1.8949367672656983
12396,4.0,300.38599999999997,5412.728,0.0,0.0,0.0,0.0,0.0,0.12354857160104292,-0.7934558883079993,0.025160809647678577,-0.8770390714420172,-0.029262349793719073,0.017805101294976682,1.9145474123511184
12397,4.0,298.9581,5543.1004,0.0,0.0,0.0,0.0,0.0,0.12355853841062674,-0.8163879570887183,0.013220451607256987,-0.8817965947690481,-0.007454983355099572,0.02103069888856838,1.8721483672166583
12398,4.0,300.05256,5484.8727,0.0,0.0,0.0,0.0,0.0,0.12356850522021055,-0.8266158657181343,0.03215268623397307,-0.8728011630312681,0.007435728766099294,0.008586642875035673,1.892321872732628
12399,4.0,300.85454,5337.5962,0.0,0.0,0.0,0.0,0.0,0.12357847202979438,-0.8084220786450472,0.044711771262458254,-0.8587856444680442,0.016214081802455284,-0.012376885435253488,1.8570504341016083
12400,4.0,301.35045,5425.2184,0.0,0.0,0.0,0.0,0.0,0.1235884388393782,-0.8214328786741132,0.04383805178072886,-0.8715361000164162,0.04083092002794806,-0.008214291600462463,1.9097707487296982
12401,4.0,300.67474,5659.5214,0.0,0.0,0.0,0.0,0.0,0.12359840564896202,-0.8007257044629742,-0.007526438664076663,-0.9121010408798642,0.002547786776296978,-0.037382382081103865,1.8857564173846684
12402,4.0,301.30506,5827.0832,0.0,0.0,0.0,0.0,0.0,0.12360837245854583,-0.8444374353669862,-0.0017503127433924183,-0.9251000365452651,-0.00985710094004512,0.015946978943594287,1.934367800207238
12403,4.0,300.22867,5625.8777,0.0,0.0,0.0,0.0,0.0,0.12361833926812965,-0.8031207946518513,0.022529247150463578,-0.929534799185442,-0.025264159131378375,0.018242036016348783,1.9360356098718379
12404,4.0,300.32332,5371.8204,0.0,0.0,0.0,0.0,0.0,0.12362830607771348,-0.7956111928607112,0.01979738302584958,-0.8570854513302483,-0.0028699709238440775,0.03195958001666497,1.9370885793757582
12405,4.0,300.475,5432.8824,0.0,0.0,0.0,0.0,0.0,0.1236382728872973,-0.7681530676058053,0.008907796445906061,-0.8922153085247952,0.014409027411810287,0.009794025108070021,1.916773624145828
12406,4.0,300.34402,5727.2621,0.0,0.0,0.0,0.0,0.0,0.12364823969688112,-0.8287423939680062,-0.018312420421295182,-0.8938898664350611,0.0027376568754356972,-0.0003314209861212047,1.868070339539188
12407,4.0,299.80821000000003,5697.4418,0.0,0.0,0.0,0.0,0.0,0.12365820650646495,-0.8183285235477372,0.015692348180214186,-0.9292438646842291,0.009019733730828412,-0.007955949200641053,1.8792426377918083
12408,4.0,299.98577,5354.254,0.0,0.0,0.0,0.0,0.0,0.12366817331604876,-0.8229419424455462,0.06110561781815495,-0.8657231956502273,-0.03014233521406687,-0.006075471208327324,1.8689741586283881
12409,4.0,299.59471,5248.8037,0.0,0.0,0.0,0.0,0.0,0.12367814012563258,-0.7789183128957523,0.020081109265851178,-0.8366680565152081,0.005427799413932095,-0.013760539241809486,1.8780319052473182
12410,4.0,300.47151,5450.4491,0.0,0.0,0.0,0.0,0.0,0.1236881069352164,-0.8292070096688602,0.043551552275203555,-0.871144965212814,-0.005736905643763505,-0.0007717154523073853,1.915179781738528
12411,4.0,301.0446,5681.5981,0.0,0.0,0.0,0.0,0.0,0.12369807374480023,-0.8492370085731672,0.03430288400618107,-0.912129837447706,0.011483451146328387,-0.03325771652803107,1.9464158505212883
12412,4.0,300.418,5765.7466,0.0,0.0,0.0,0.0,0.0,0.12370804055438404,-0.8255723093076432,-0.005952517057717694,-0.9211181561697841,-0.005918309936991714,-0.02558248380929458,1.9352569271699882
12413,4.0,300.31982,5683.4407,0.0,0.0,0.0,0.0,0.0,0.12371800736396786,-0.8067807958680652,0.012214533384980589,-0.9330577887231342,0.014809259174810087,-0.04151613446107346,1.918125299779228
12414,4.0,300.83801,5715.732,0.0,0.0,0.0,0.0,0.0,0.12372797417355169,-0.8303759760442282,-0.0016138151879711584,-0.9054500266934602,0.015763733676259384,0.014780152552437486,1.9058724716199682
12415,4.0,300.31136000000004,5676.0714,0.0,0.0,0.0,0.0,0.0,0.12373794098313551,-0.8148910827159882,-0.0009054468349556452,-0.9095874510917921,-0.0050006467103504045,0.028507768258747675,1.9104747548991783
12416,4.0,300.55756,5508.1686,0.0,0.0,0.0,0.0,0.0,0.12374790779271932,-0.8094080013898503,0.02676456772045718,-0.8917022999991652,-0.023941236496066078,0.05432863435281875,1.913030171651378
12417,4.0,299.75775,5467.4069,0.0,0.0,0.0,0.0,0.0,0.12375787460230314,-0.7861849373129123,-0.0013580704574311187,-0.8744121800277632,-0.022135033079807683,0.01287642381405409,1.8872212730542381
12418,4.0,299.27882,5431.4073,0.0,0.0,0.0,0.0,0.0,0.12376784141188697,-0.7699580713339452,0.04105768641357816,-0.9221118201453512,0.0074425041668679725,0.020879051825601982,1.912742712598008
12419,4.0,300.07751,5534.0226,0.0,0.0,0.0,0.0,0.0,0.12377780822147079,-0.7876051289180742,0.015308362869317787,-0.909907911700919,0.017935783200123984,-0.014426038867739186,1.8946966269919983
12420,4.0,299.93346,5622.6451,0.0,0.0,0.0,0.0,0.0,0.12378777503105462,-0.8420137208627843,0.03620919045281886,-0.9033391835551361,0.012937795359360987,-0.004840014550797246,1.9208869129267783
12421,4.0,300.6233,5700.1284,0.0,0.0,0.0,0.0,0.0,0.12379774184063844,-0.8517232203435373,0.0007326870140280783,-0.8817061723301243,0.018126290430925583,-0.01117919645930079,1.8998735244029183
12422,4.0,301.29651,5661.5313,0.0,0.0,0.0,0.0,0.0,0.12380770865022225,-0.8371502217077943,-0.012921455688248387,-0.8708924531553931,0.032191275864031574,0.01981634194847068,1.9202316440871081
12423,4.0,301.22039,5564.1955,0.0,0.0,0.0,0.0,0.0,0.12381767545980607,-0.8375267555774553,0.05505584293633865,-0.908905594569498,0.02634551686335008,0.007137392878205833,1.941996154910098
12424,4.0,300.70023,5637.8389,0.0,0.0,0.0,0.0,0.0,0.1238276422693899,-0.7986950803350672,0.015063961878947287,-0.9301311171342941,-0.032997515928851265,-0.008542940283647561,1.9211766011303681
12425,4.0,301.66913,5499.5739,0.0,0.0,0.0,0.0,0.0,0.12383760907897372,-0.7871588429115293,0.014209251982343987,-0.8987835604430312,-0.06076829774061404,-0.050139904035673255,1.8932809139522782
12426,4.0,300.87937999999997,5297.9661,0.0,0.0,0.0,0.0,0.0,0.12384757588855755,-0.7700792763109072,0.04809495660435266,-0.8884650672546751,-0.023949038521836077,0.01045536706486439,1.9012197284857784
12427,4.0,300.23213,5483.5182,0.0,0.0,0.0,0.0,0.0,0.12385754269814137,-0.8051886050584282,0.007181736248957183,-0.8688457386158983,0.008317345417783081,0.009758902211903661,1.9037675458622283
12428,4.0,299.86365,5637.7609,0.0,0.0,0.0,0.0,0.0,0.12386750950772518,-0.8495470529712663,0.02954682178579427,-0.8937383146176042,0.024705458092488874,0.026032220945680175,1.9009460496337682
12429,4.0,299.49123,5597.573,0.0,0.0,0.0,0.0,0.0,0.123877476317309,-0.8418331900924673,0.022417255656660875,-0.8821064973121332,-0.0016381218419700386,0.0027184316706883177,1.9180755491993182
12430,4.0,299.25898,5689.3857,0.0,0.0,0.0,0.0,0.0,0.12388744312689282,-0.8162383811089562,-0.005533627712676535,-0.9076591854889873,-0.009345418657471011,0.009213722995598661,1.9120752847571383
12431,4.0,300.50293,5683.526999999999,0.0,0.0,0.0,0.0,0.0,0.12389740993647665,-0.8197397985520192,0.04049408529720506,-0.9484045760627441,0.008590471339213512,0.0017721243703450581,1.926513389407068
12432,4.0,300.1107,5600.6307,0.0,0.0,0.0,0.0,0.0,0.12390737674606046,-0.8136002932810973,-0.016870827960771086,-0.8719807546903001,0.005677618353912305,-0.0019919820114933182,1.8996654028323783
12433,4.0,300.47109,5625.3113,0.0,0.0,0.0,0.0,0.0,0.12391734355564428,-0.8116942786504882,0.007486324396592693,-0.9057462098301912,0.0033099337431400275,-0.030354471281503072,1.9009469615588583
12434,4.0,300.21942,5541.3634,0.0,0.0,0.0,0.0,0.0,0.12392731036522811,-0.8276707806622462,0.005560523322005926,-0.8623258491249352,-0.010471393641696091,0.0038091688561856965,1.8942847408263481
12435,4.0,300.27769,5316.4578,0.0,0.0,0.0,0.0,0.0,0.12393727717481193,-0.7557414530233743,0.004258734348004356,-0.8645877070581631,0.01903525581738348,0.013722670032572087,1.895520297998288
12436,4.0,300.14387,5330.4609,0.0,0.0,0.0,0.0,0.0,0.12394724398439574,-0.7894591334210502,0.04726156143685295,-0.878129429874627,0.011348484206508188,0.024711817250116477,1.9045081303603182
12437,4.0,300.66267999999997,5440.5137,0.0,0.0,0.0,0.0,0.0,0.12395721079397956,-0.7704381694963273,0.013547280493262486,-0.8968894413685963,0.0025466329884081076,0.014820427217412287,1.8977400249923582
12438,4.0,298.42745,5379.7337,0.0,0.0,0.0,0.0,0.0,0.12396717760356338,-0.7786205592213663,0.03311567304951247,-0.8897998216114053,0.009278546481346241,0.013356280822912289,1.8923058633810481
12439,4.0,299.39211,5761.6063,0.0,0.0,0.0,0.0,0.0,0.12397714441314721,-0.8146871357358603,0.01793490572553738,-0.9546322138273642,-0.01845698081306218,-0.004596192734183905,1.9236622049506782
12440,4.0,299.53772999999995,5897.7694,0.0,0.0,0.0,0.0,0.0,0.12398711122273103,-0.8698415810791803,-0.028512765608240873,-0.8944202825974091,-0.0015745500240709883,-0.024902871635972077,1.8933467752087783
12441,4.0,300.3314,5575.0106,0.0,0.0,0.0,0.0,0.0,0.12399707803231486,-0.8079376437722372,0.02787489832578827,-0.9146012557666162,-0.011242999804847689,-0.031039812370890967,1.9159208728616683
12442,4.0,300.11966,5350.8158,0.0,0.0,0.0,0.0,0.0,0.12400704484189867,-0.7945095974844922,0.02311777320604658,-0.8551225528390252,0.0004962837586843936,-0.0066846149782701335,1.893655512514248
12443,4.0,300.30863,5496.6703,0.0,0.0,0.0,0.0,0.0,0.12401701165148249,-0.7770042327943473,0.0015591122468723985,-0.8954054150071341,-0.007971951054170312,-0.0030340561384130274,1.9161902960632582
12444,4.0,300.61954,5551.1127,0.0,0.0,0.0,0.0,0.0,0.1240269784610663,-0.7955815552952862,-0.005412612010833214,-0.8864054844389102,0.008505809328433022,0.011373057547933389,1.877574625477188
12445,4.0,300.74043,5559.5731,0.0,0.0,0.0,0.0,0.0,0.12403694527065014,-0.8074181707109692,-0.011564166649294388,-0.8709890564199272,0.01948368079488958,0.02095938837303058,1.9219914568607879
12446,4.0,300.74387,5404.45,0.0,0.0,0.0,0.0,0.0,0.12404691208023395,-0.8303794312270693,0.03954571258785796,-0.8519841322442872,0.011751384870271388,0.0014185598672009586,1.899926922683188
12447,4.0,299.43771,5372.2705,0.0,0.0,0.0,0.0,0.0,0.12405687888981777,-0.7770045975643832,0.04482086790072526,-0.9008523334372032,-0.023924124728377273,0.00022008709163340477,1.9335919546056681
12448,4.0,299.4236,5680.0992,0.0,0.0,0.0,0.0,0.0,0.1240668456994016,-0.8225606665654173,-0.005607669545183895,-0.898439987599123,-0.04177297917592206,0.004196480261860356,1.894863813258498
12449,4.0,299.49649,5935.2564,0.0,0.0,0.0,0.0,0.0,0.12407681250898542,-0.8360138617206443,0.008853419771339502,-0.97700929513081,-0.03183346888271877,-0.007941532475568232,1.916830062176398
12450,4.0,299.42304,5581.4008,0.0,0.0,0.0,0.0,0.0,0.12408677931856923,-0.7984536532337403,-0.00038506311516027064,-0.89776776708528,-0.008281788749248913,-0.015767662046897085,1.8923950293898482
12451,4.0,300.39345,5283.0718,0.0,0.0,0.0,0.0,0.0,0.12409674612815305,-0.7838683436092823,0.03483877070581897,-0.8568923258611881,0.006804846728511084,-0.015829051830705786,1.9266025554158681
12452,4.0,300.4661,5543.076999999999,0.0,0.0,0.0,0.0,0.0,0.12410671293773688,-0.8481890141272382,0.03445558687575167,-0.8712235832880731,0.024564595050336775,-0.018819534871093484,1.910347389361608
12453,4.0,300.4053,5860.8907,0.0,0.0,0.0,0.0,0.0,0.1241166797473207,-0.8528849723781933,-0.01173907590805659,-0.9169403841524701,0.017793686019350084,-0.003258616475925407,1.9024231656295483
12454,4.0,299.55059,5554.8244,0.0,0.0,0.0,0.0,0.0,0.12412664655690453,-0.8124407197341562,0.038138679048494564,-0.9142258567370671,0.016510370317196685,0.017628339815031684,1.920217559910718
12455,4.0,299.8951,5344.2334,0.0,0.0,0.0,0.0,0.0,0.12413661336648835,-0.7543931717778093,0.01925659118247758,-0.889376931549669,-0.008551838544700752,0.038933148186902564,1.8974689805906084
12456,4.0,300.45243,5386.4346,0.0,0.0,0.0,0.0,0.0,0.12414658017607216,-0.7643253228355363,0.0020319646577892977,-0.8750482680430401,-0.014135022293268087,0.045087360783026054,1.898536236920938
12457,4.0,300.66955,5455.6088,0.0,0.0,0.0,0.0,0.0,0.12415654698565598,-0.7913355712812402,0.02221450735140118,-0.8892477928244241,-0.024852871796537477,0.015659928230014587,1.9082352695281584
12458,4.0,300.20878999999996,5671.7361,0.0,0.0,0.0,0.0,0.0,0.1241665137952398,-0.8458327618146941,0.005179756397402155,-0.8834131441110892,-0.0017971127390112186,-0.013400013710478387,1.9352973558489783
12459,4.0,300.79357000000005,5762.9495,0.0,0.0,0.0,0.0,0.0,0.12417648060482363,-0.8314940975295781,0.015188112373949987,-0.9354867518628541,0.0006032512241187604,-0.015172065532116285,1.9315934201084282
12460,4.0,299.62588,5451.2785,0.0,0.0,0.0,0.0,0.0,0.12418644741440744,-0.8000354075673473,0.03666457645851197,-0.8936817144670182,-0.00039027349035449465,-0.015032403191332686,1.9221393913753881
12461,4.0,298.82939,5605.0853,0.0,0.0,0.0,0.0,0.0,0.12419641422399126,-0.7738041052685193,-0.017119993253111785,-0.9128818919369281,-0.02128908475681908,0.015214591638813285,1.908456056724948
12462,4.0,299.40067,5991.8603,0.0,0.0,0.0,0.0,0.0,0.12420638103357509,-0.8747485486634602,0.003400676977045687,-0.9500280459029681,-0.01985181380797148,-0.015899476765656183,1.9269286192980482
12463,4.0,299.39812,5605.1428,0.0,0.0,0.0,0.0,0.0,0.12421634784315891,-0.8348590200516702,0.02950587938900357,-0.8984703141746161,0.01948788578280458,-0.003438000855079267,1.9303650570121982
12464,4.0,299.27777000000003,5106.5584,0.0,0.0,0.0,0.0,0.0,0.12422631465274273,-0.7712045209444602,0.04872739286626925,-0.8297891015863083,0.015859195007930683,-0.01205203846644359,1.9155525564503182
12465,4.0,299.88379,5197.3177,0.0,0.0,0.0,0.0,0.0,0.12423628146232654,-0.7478491365369633,0.05163058238404175,-0.8836362313856062,0.015848075601333285,-0.007445150370829132,1.9186932264602783
12466,4.0,299.55747,5599.2296,0.0,0.0,0.0,0.0,0.0,0.12424624827191037,-0.8004261168059073,0.0034354660073040964,-0.9050353236925321,0.0007046356207071213,-0.005692480199754055,1.9306999361702484
12467,4.0,300.49629,5875.951,0.0,0.0,0.0,0.0,0.0,0.12425621508149419,-0.7975021100648303,-0.017620346284992785,-0.971019943392207,0.01052417586590529,0.020104217447631783,1.9101397744161184
12468,4.0,299.95026,5809.6733,0.0,0.0,0.0,0.0,0.0,0.124266181891078,-0.8344229577386342,-0.027495475680092172,-0.9040771842654712,0.011424868065296688,0.03101244043268957,1.8998477878503783
12469,4.0,300.97375,5392.0783,0.0,0.0,0.0,0.0,0.0,0.12427614870066184,-0.7874422489644992,0.01132884134006959,-0.862943769565919,-0.01943113668445388,0.02336325432102368,1.9071955736005481
12470,4.0,300.04677000000004,5389.2968,0.0,0.0,0.0,0.0,0.0,0.12428611551024565,-0.8010739078598392,0.04336544964258666,-0.8805032114139012,-0.006140256089246094,-0.005174951970727995,1.941614767572458
12471,4.0,300.72573,5841.0959,0.0,0.0,0.0,0.0,0.0,0.12429608231982947,-0.8459922879104382,-0.012833558268573589,-0.9167214410708622,-0.032478738970401974,-0.016520949661490786,1.9141164770835881
12472,4.0,299.80559,5613.5856,0.0,0.0,0.0,0.0,0.0,0.12430604912941329,-0.8485926828345772,0.03528519958062807,-0.8930823669003671,0.013815616477495185,-0.022458145364446378,1.9267753145579183
12473,4.0,298.81624,5082.6320000000005,0.0,0.0,0.0,0.0,0.0,0.12431601593899712,-0.7248323904453874,0.03320178613576117,-0.8533626184753332,0.01135553744045429,-0.018147036726723086,1.8979425736873483
12474,4.0,299.12957,5257.6876,0.0,0.0,0.0,0.0,0.0,0.12432598274858093,-0.8136169207152383,0.04745281340647805,-0.8320416274861152,0.03196174634537877,-0.016691312467054284,1.920998978387838
12475,4.0,299.89185,5835.4402,0.0,0.0,0.0,0.0,0.0,0.12433594955816475,-0.8572628612902571,0.026958807764627175,-0.9435240543060741,0.008741908963384242,-0.00987609593436978,1.921089056321728
12476,4.0,299.71522000000004,5936.9795,0.0,0.0,0.0,0.0,0.0,0.12434591636774858,-0.8519204697405042,-0.02170228916084918,-0.9310707647470302,0.035645060419893564,-0.019417359522844183,1.9093596731641282
12477,4.0,299.62251000000003,5697.6592,0.0,0.0,0.0,0.0,0.0,0.1243558831773324,-0.7983733835608182,-0.013689737377821887,-0.9198829941653831,0.001081686227654119,0.010681146544897092,1.915206835516198
12478,4.0,299.53747999999996,5521.0959,0.0,0.0,0.0,0.0,0.0,0.12436584998691622,-0.7902757623391452,0.022110880237173978,-0.9101104198659051,-0.0013684383364293488,-0.004199512311459596,1.918989703439538
12479,4.0,299.92963,5567.7466,0.0,0.0,0.0,0.0,0.0,0.12437581679650005,-0.7835437084097433,-0.00968504843861486,-0.8992271816018131,-0.05740052697249094,0.002434583232724658,1.8997693622926382
12480,4.0,300.34976,5665.1336,0.0,0.0,0.0,0.0,0.0,0.12438578360608386,-0.8462478397181591,0.017336183334198084,-0.8931475087492962,-0.02975107983370297,0.008511085929653781,1.9032438982105482
12481,4.0,300.04988,5385.5802,0.0,0.0,0.0,0.0,0.0,0.12439575041566768,-0.7922152750180602,0.019185626185223882,-0.8640522550428181,-0.017198306340090685,0.03003635533310747,1.9032713572882582
12482,4.0,299.91643,5045.3766,0.0,0.0,0.0,0.0,0.0,0.12440571722525151,-0.7579155938954453,0.060206211433140436,-0.8359591259502421,0.012358365249925687,0.0007815128613668142,1.920220599661018
12483,4.0,299.85173,5319.5097,0.0,0.0,0.0,0.0,0.0,0.12441568403483533,-0.7713861561573863,0.02968084944277177,-0.8752928159546751,0.009726326018538642,-0.00958546895456213,1.9076236717677981
12484,4.0,299.56379,5931.4566,0.0,0.0,0.0,0.0,0.0,0.12442565084441914,-0.8573948675132853,-0.03529798781014017,-0.9103218446317711,0.02181177488715458,-0.02836890942529337,1.8830318891907782
12485,4.0,298.95628,6086.1111,0.0,0.0,0.0,0.0,0.0,0.12443561765400296,-0.8450844664833431,-0.05791016441503824,-0.9470311864797011,-0.0022974662775172676,-0.031607128062130674,1.8725234724036783
12486,4.0,298.94141,5706.9049,0.0,0.0,0.0,0.0,0.0,0.12444558446358679,-0.8626334617227942,0.011317136274914388,-0.8834402688162662,0.02684854690199527,-0.03671924434115726,1.9226087288217084
12487,4.0,298.40719,5410.5271,0.0,0.0,0.0,0.0,0.0,0.12445555127317061,-0.7752959336557513,-0.0005578087607189385,-0.8688114097025101,0.0023943466659536177,-0.003194605211457987,1.8917979211059182
12488,4.0,299.38071,5578.5214,0.0,0.0,0.0,0.0,0.0,0.12446551808275443,-0.8414807614426851,0.04758724636349555,-0.9018376887619503,0.0006169306476238144,0.03051830774317247,1.9556152495041979
12489,4.0,299.95033,5619.416,0.0,0.0,0.0,0.0,0.0,0.12447548489233826,-0.7863908702632363,0.007639302059590412,-0.929410594988184,-0.027819585002829272,0.018017243441913484,1.9281083463894781
12490,4.0,299.73689,5476.1599,0.0,0.0,0.0,0.0,0.0,0.12448545170192207,-0.7872272676907822,0.03122828702199197,-0.908616868953503,-0.01832216788725718,-7.475287063253393e-05,1.9582704713912482
12491,4.0,299.73598,5332.9853,0.0,0.0,0.0,0.0,0.0,0.12449541851150589,-0.7758021432732103,0.057435266252169444,-0.9027274743372652,-0.003488544404517527,-0.0014133446689362588,1.8916092539372982
12492,4.0,299.32452,5515.5137,0.0,0.0,0.0,0.0,0.0,0.1245053853210897,-0.8487860514836613,0.025988244878090077,-0.8537806348040883,-0.005237733554874055,0.008053394476008153,1.9034387462047782
12493,4.0,299.51854,5920.3667,0.0,0.0,0.0,0.0,0.0,0.12451535213067352,-0.8480730273882912,-0.02318056431474358,-0.9283900393549631,-0.02440885243046618,0.004459550993273415,1.8715529814578984
12494,4.0,300.55088,5999.0644,0.0,0.0,0.0,0.0,0.0,0.12452531894025735,-0.8814164435965302,-0.007182265165509382,-0.9349670660190651,-0.017178975554682882,0.0012658699672316387,1.9342119623418583
12495,4.0,300.4805,5591.6439,0.0,0.0,0.0,0.0,0.0,0.12453528574984117,-0.7891735691453672,-0.02110347861675118,-0.8894430663836961,0.02321931201181768,0.035502749443348566,1.8952593860975382
12496,4.0,300.87439,5355.6032,0.0,0.0,0.0,0.0,0.0,0.124545252559425,-0.7550365754588083,0.020592922156363182,-0.8935259779266481,0.022175631984814478,0.008548628061758903,1.9181892358605381
12497,4.0,300.54098999999997,5338.5388,0.0,0.0,0.0,0.0,0.0,0.12455521936900882,-0.7664141581816882,0.01004481170189573,-0.8664131480408201,0.01845467262933438,-0.015812459860318283,1.908871691915968
12498,4.0,301.13951000000003,5666.348000000001,0.0,0.0,0.0,0.0,0.0,0.12456518617859264,-0.8231510570011842,0.011104452039174092,-0.9103816871826771,-0.017051924124643885,-0.029314406530856672,1.9444178226490982
12499,4.0,299.46911,5797.4088,0.0,0.0,0.0,0.0,0.0,0.12457515298817645,-0.8156956032953881,-0.005586680170687405,-0.940985234590512,0.03026975242739197,-0.014348499903836685,1.9162809819472084
12500,4.0,300.28794,5686.393,0.0,0.0,0.0,0.0,0.0,0.12458511979776027,-0.8300272254923092,0.007013436623247305,-0.9055077008891522,-0.017271765959090586,0.008539748343182541,1.914314668803148
12501,4.0,299.5955,5537.8565,0.0,0.0,0.0,0.0,0.0,0.1245950866073441,-0.8018496825339022,0.045151169194823454,-0.9266715671853633,-0.01835731449347588,-0.013787271819197788,1.9314902712482482
12502,4.0,300.48515,5672.1081,0.0,0.0,0.0,0.0,0.0,0.12460505341692792,-0.7964422808577333,0.0032546992510388067,-0.9309916501792221,-0.04007146172024536,0.007793026690561852,1.917970171188918
12503,4.0,299.60047000000003,5758.7103,0.0,0.0,0.0,0.0,0.0,0.12461502022651175,-0.8419636055128382,-0.0074495558809389234,-0.9010909741007551,-0.003997306500303437,0.04201262802332356,1.905647530097768
12504,4.0,299.91147,5757.7201,0.0,0.0,0.0,0.0,0.0,0.12462498703609556,-0.8720770843773071,0.01851216444000838,-0.8966382161388022,0.023149794948956876,0.02204062147523998,1.9203809971518484
12505,4.0,300.61305,5525.7797,0.0,0.0,0.0,0.0,0.0,0.12463495384567938,-0.8204568249852843,0.016996170037891382,-0.8762384012129972,0.013140586221124887,-0.015051515114718885,1.9253712538943484
12506,4.0,300.69835,5246.8527,0.0,0.0,0.0,0.0,0.0,0.1246449206552632,-0.7988056056559752,0.06612208835399204,-0.8622286987053471,0.021548135317135376,0.0009642034857294749,1.951969879619428
12507,4.0,300.28287,5624.9461,0.0,0.0,0.0,0.0,0.0,0.12465488746484703,-0.7942472265035982,0.02393570921677058,-0.9395316361295531,-0.012751931853767688,0.016477358628938683,1.9361079559289782
12508,4.0,300.0088,5980.4287,0.0,0.0,0.0,0.0,0.0,0.12466485427443084,-0.8380632715054053,-0.03300428241301907,-0.946833440590185,0.016808257740595883,0.012300859253750289,1.917806733947788
12509,4.0,299.80564,5752.1255,0.0,0.0,0.0,0.0,0.0,0.12467482108401468,-0.8352600543087492,0.033773908685475265,-0.9470163828957401,-0.03117713309069347,-0.003896741731853466,1.927326319962298
12510,4.0,298.81414,5593.036,0.0,0.0,0.0,0.0,0.0,0.12468478789359849,-0.8527842857157562,0.014308016509341288,-0.8616670237774142,0.0028252797043333976,0.002209368538297698,1.9249852056062482
12511,4.0,298.9777,5774.9268,0.0,0.0,0.0,0.0,0.0,0.12469475470318231,-0.8349834370314493,0.0028037857312871073,-0.923253904995566,-0.02407371692014088,-0.014519297393693086,1.9190529302457784
12512,4.0,299.16059,5702.849,0.0,0.0,0.0,0.0,0.0,0.12470472151276613,-0.8385115333496451,0.0093699655530686,-0.9043821218830661,0.0017697122271569982,-0.006498362384638434,1.9147933281503882
12513,4.0,299.77212000000003,5540.7734,0.0,0.0,0.0,0.0,0.0,0.12471468832234994,-0.7623737423479302,-0.002766783357510257,-0.9191162475497111,-0.006016806965962614,-0.006233487966722364,1.908343788613868
12514,4.0,300.36484,5374.8078,0.0,0.0,0.0,0.0,0.0,0.12472465513193377,-0.7691199412487283,0.03990797179011016,-0.904595400896615,0.025017748866059578,-0.009102180168940242,1.9214734834096683
12515,4.0,300.6152,5323.9093,0.0,0.0,0.0,0.0,0.0,0.12473462194151759,-0.7828525097215272,0.023658798096941578,-0.8591417613481902,0.004214958903934056,-0.003029510799789437,1.9131019097584583
12516,4.0,300.08453,5716.6081,0.0,0.0,0.0,0.0,0.0,0.1247445887511014,-0.8424159203574783,-0.002317933929537268,-0.8929722570120001,-0.01631655279831838,0.0013599332164149587,1.923731308607498
12517,4.0,300.02128999999996,6056.0171,0.0,0.0,0.0,0.0,0.0,0.12475455556068524,-0.8725177063157932,0.004258300069011496,-0.9726185683399791,0.007455352178135973,-0.01705128577708088,1.9616432769991181
12518,4.0,299.318,5801.5479,0.0,0.0,0.0,0.0,0.0,0.12476452237026905,-0.8288872583348033,-0.009696794439074102,-0.9249416452896332,0.020382306977327083,0.01992547607699138,1.941533099614398
12519,4.0,299.03303,5545.0109,0.0,0.0,0.0,0.0,0.0,0.12477448917985287,-0.7631996729019433,0.02102396685490398,-0.9433691688957881,0.024999126342471676,0.026428149435505272,1.9265124774819782
12520,4.0,298.93811,5707.9075,0.0,0.0,0.0,0.0,0.0,0.12478445598943669,-0.8079527918612323,-0.002263743389014078,-0.9248448292425782,-0.0017087724277177082,0.022335268524819377,1.9054642331546783
12521,4.0,299.42348,5777.588000000001,0.0,0.0,0.0,0.0,0.0,0.12479442279902052,-0.8536892903075732,0.0016405318573328887,-0.9041937181594721,-0.007874884025065544,-0.004608458531944446,1.9240809812170083
12522,4.0,298.77426,5607.2087,0.0,0.0,0.0,0.0,0.0,0.12480438960860434,-0.8416805338324013,0.038546678386760964,-0.9013175874856201,0.008577130888396912,-0.01042387829150669,1.9221552994019582
12523,4.0,299.6004,5320.6112,0.0,0.0,0.0,0.0,0.0,0.12481435641818815,-0.8170052594471413,0.03724176424547596,-0.8375694539366692,0.00969209316126012,-0.015434032226220385,1.9212526962128782
12524,4.0,300.10494,5220.5626,0.0,0.0,0.0,0.0,0.0,0.12482432322777198,-0.7631488888069312,0.03797406846374876,-0.8617458546351943,-0.004930562835383665,-0.02223293229121958,1.896885449858018
12525,4.0,301.3724,5489.3552,0.0,0.0,0.0,0.0,0.0,0.1248342900373558,-0.7633701319662662,0.013908918573203387,-0.9191657042870922,-0.0075332682737256915,-0.020095622047033482,1.927604153139718
12526,4.0,300.67952,5889.1142,0.0,0.0,0.0,0.0,0.0,0.12484425684693962,-0.8312152308370563,-0.02387160493594398,-0.935056829845424,0.007813037164136732,0.025667270551162375,1.9250320177608682
12527,4.0,300.01735,6005.9315,0.0,0.0,0.0,0.0,0.0,0.12485422365652343,-0.8740415534061852,-0.01006646333665758,-0.9415451869932752,0.040577863855223356,0.02279740986892918,1.9264653613523282
12528,4.0,299.55484,5640.3924,0.0,0.0,0.0,0.0,0.0,0.12486419046610726,-0.8254362399517142,-0.006101281424149594,-0.8830009235729062,0.017467271552635485,0.006081589415081144,1.913884037510648
12529,4.0,300.05134,5556.286,0.0,0.0,0.0,0.0,0.0,0.12487415727569108,-0.8140184615973672,0.02916343834545727,-0.904117187379419,-0.01017500785494509,-0.008571468036238032,1.9399980257128981
12530,4.0,300.034,5867.8226,0.0,0.0,0.0,0.0,0.0,0.1248841240852749,-0.8426351066191101,0.023845372904105076,-0.9648818161414211,-0.017709447445786383,-0.037073768392146066,1.9416497247009081
12531,4.0,299.43861,5714.2128,0.0,0.0,0.0,0.0,0.0,0.12489409089485873,-0.8185002086446812,-0.0014908344902089085,-0.9169869632595671,0.005767702671277934,0.002096021721161238,1.903361840522188
12532,4.0,299.43805,5222.9269,0.0,0.0,0.0,0.0,0.0,0.12490405770444254,-0.7891096127990552,0.06075096001815294,-0.8592806982019022,-0.01176991822785049,0.006667716297077364,1.9225594848668484
12533,4.0,300.9847,5182.9466,0.0,0.0,0.0,0.0,0.0,0.12491402451402636,-0.8073936297935472,0.057573234438785856,-0.8256659640143862,-0.008730219400955572,0.01105304074235019,1.9053819572465585
12534,4.0,301.42082999999997,5451.0662,0.0,0.0,0.0,0.0,0.0,0.12492399132361019,-0.8379828701099703,0.030225983062822273,-0.8492311317225871,-0.011472222308720189,0.003281762654584757,1.9133944350623282
12535,4.0,300.98496,5823.3406,0.0,0.0,0.0,0.0,0.0,0.12493395813319401,-0.8608436972761583,-0.0007293953900182202,-0.9085770482245731,0.0031692615973067675,0.007484808067818044,1.929039219256348
12536,4.0,299.8242,5962.6293,0.0,0.0,0.0,0.0,0.0,0.12494392494277783,-0.8211056799518213,-0.04837080077182636,-0.9430139335432292,0.024151280202045773,-0.023097835483828877,1.9045815909925679
12537,4.0,299.62134,5691.2365,0.0,0.0,0.0,0.0,0.0,0.12495389175236166,-0.7681626022892463,-0.0004583665011272516,-0.96137281958761,0.007734213095132403,-0.026944801608494873,1.959338943621698
12538,4.0,300.05124,5632.8474,0.0,0.0,0.0,0.0,0.0,0.12496385856194547,-0.8097890746199592,0.017328144207904683,-0.9197840097631141,0.015742328767896885,-0.004804110033503745,1.9335455477510881
12539,4.0,299.38539,6006.8089,0.0,0.0,0.0,0.0,0.0,0.12497382537152929,-0.8592798774693211,-0.01826308831367648,-0.948376954865018,-0.016334464020336087,0.006622219442412173,1.9411894051804781
12540,4.0,299.34429,5880.4627,0.0,0.0,0.0,0.0,0.0,0.12498379218111311,-0.8694876629517512,0.021252764806984584,-0.9392789315546132,0.018309591427015985,0.005125630704885364,1.9045469378391482
12541,4.0,300.7668,5146.915,0.0,0.0,0.0,0.0,0.0,0.12499375899069692,-0.7546213455678283,0.057058989748033855,-0.8669712867259042,-0.01044904134449009,-0.014425167472653187,1.9084547394998181
12542,4.0,300.18796000000003,5005.6711,0.0,0.0,0.0,0.0,0.0,0.12500372580028074,-0.7267849436530893,0.04762232406870745,-0.8424364082745002,0.017737949157849285,0.0012213202987599288,1.8776975327143184
12543,4.0,299.783,5536.205,0.0,0.0,0.0,0.0,0.0,0.12501369260986459,-0.7958110057804313,0.0072493472870548735,-0.894306433816173,-0.016064420709684883,0.00036434759176830764,1.903034864714918
12544,4.0,299.84475,5897.8307,0.0,0.0,0.0,0.0,0.0,0.1250236594194484,-0.8715647952592481,-0.03863297588452786,-0.8825954918103931,0.008718354850234632,0.002903774365730217,1.911173796143168
12545,4.0,299.0801,5742.2559,0.0,0.0,0.0,0.0,0.0,0.12503362622903222,-0.8374386332162581,0.011785703651158387,-0.9198494961170771,-0.00979733478819666,0.008621638101689432,1.932325594630688
12546,4.0,300.00406,5609.786,0.0,0.0,0.0,0.0,0.0,0.12504359303861604,-0.8468614335812161,0.024819754730269077,-0.8831931877793812,-0.008799155466209033,0.019239688144309378,1.968259800152118
12547,4.0,299.93636000000004,5746.2498,0.0,0.0,0.0,0.0,0.0,0.12505355984819985,-0.8027712233673513,-0.008243646773084591,-0.935701581149056,-0.03009826187446717,0.03068317062719317,1.948519256403878
12548,4.0,300.12107000000003,6007.653,0.0,0.0,0.0,0.0,0.0,0.12506352665778367,-0.8387994382330592,-0.0022110299644866683,-0.9851660496283191,0.0011748093833946589,0.008685527978794872,1.9759054814316879
12549,4.0,300.20385,5952.6585,0.0,0.0,0.0,0.0,0.0,0.1250734934673675,-0.8357942802914732,-0.013517248773548589,-0.9601480231317321,-0.0011357011719349789,-0.020391685620252682,1.9357637548700082
12550,4.0,299.79422,5411.8301,0.0,0.0,0.0,0.0,0.0,0.12508346027695133,-0.8139263470307762,0.06287827455010253,-0.8940131283097261,0.030967683149272368,-0.016145769493963385,1.9509488274936584
12551,4.0,299.53553,5235.0738,0.0,0.0,0.0,0.0,0.0,0.12509342708653515,-0.7945293153314382,0.045584255592315756,-0.8423866678270912,0.02181839951630838,-0.005462356713892635,1.888561296311488
12552,4.0,299.93765,5667.4485,0.0,0.0,0.0,0.0,0.0,0.12510339389611896,-0.8389319510811372,-0.015827932189345285,-0.8680029577127222,-0.001802942270811548,-0.023399931948143476,1.891289978830788
12553,4.0,298.56647000000004,5918.1086,0.0,0.0,0.0,0.0,0.0,0.12511336070570278,-0.8444168765224572,0.01152430640361049,-0.9660646640431589,-0.024393892805989775,-0.024209407320532478,1.9087933676832383
12554,4.0,298.77011,5798.3699,0.0,0.0,0.0,0.0,0.0,0.1251233275152866,-0.7902182705284713,-0.04284877011184436,-0.92949262771628,-0.021976102775122477,0.018981594092087484,1.9013681696254283
12555,4.0,300.33257000000003,5544.1104,0.0,0.0,0.0,0.0,0.0,0.12513329432487041,-0.7938014977846083,0.012562702331342187,-0.9040323276835441,-0.011988604957183189,0.04292509013587656,1.948566271208518
12556,4.0,301.16442,5558.5078,0.0,0.0,0.0,0.0,0.0,0.12514326113445423,-0.8123764188828102,0.03536747143574767,-0.9126386207204191,-0.0031401299476566972,0.016431435094656385,1.9459388123742083
12557,4.0,301.52867000000003,5859.236,0.0,0.0,0.0,0.0,0.0,0.12515322794403808,-0.8621086285684971,-0.012168977660484588,-0.9067838285950962,-0.013726874007236987,-0.004851667230922276,1.9729417248891878
12558,4.0,300.42987,5915.9326,0.0,0.0,0.0,0.0,0.0,0.1251631947536219,-0.8441124556624133,0.005465135248316855,-0.9596484705674301,0.01049503479302929,-0.0026828468338013674,1.939825266570848
12559,4.0,299.25863,5589.8518,0.0,0.0,0.0,0.0,0.0,0.1251731615632057,-0.7924336101496082,0.009604689397034042,-0.9163464473413531,0.015302826470771386,0.007206890587989723,1.9096413566919281
12560,4.0,299.29648,5396.7655,0.0,0.0,0.0,0.0,0.0,0.12518312837278953,-0.7433311657985743,0.007886012652238853,-0.9050368030376782,0.004089864769113226,-0.0008762171026958952,1.9035133214121382
12561,4.0,300.18002,5512.53,0.0,0.0,0.0,0.0,0.0,0.12519309518237334,-0.8062482316155052,0.04771273333538016,-0.9171359819517741,-0.0073891029481726826,-0.02177889998766008,1.9176685266341482
12562,4.0,299.18003999999996,5722.6846,0.0,0.0,0.0,0.0,0.0,0.12520306199195716,-0.8460073954694293,0.014314552985736386,-0.9078603865613442,-0.005893683399936265,-0.026223734333831076,1.9346317518582878
12563,4.0,299.05616000000003,5638.763000000001,0.0,0.0,0.0,0.0,0.0,0.125213028801541,-0.8632956814581502,0.031997636677170864,-0.8827450880551571,0.02019908400149438,-0.017111923729315383,1.909932362120648
12564,4.0,300.19349,5351.0725,0.0,0.0,0.0,0.0,0.0,0.12522299561112482,-0.8072654739208992,0.047695855628464456,-0.8670228104934892,-0.00016362052794058885,0.00022536679339947078,1.9491890147199782
12565,4.0,301.21619,5539.4306,0.0,0.0,0.0,0.0,0.0,0.12523296242070864,-0.7745065814303482,-0.011997787029589388,-0.8973442082784782,-5.818392838005665e-05,0.0048179017859148856,1.918910669931738
12566,4.0,300.79868999999997,6013.6153,0.0,0.0,0.0,0.0,0.0,0.12524292923029245,-0.8353211938197832,0.0024536264577540777,-0.9951213331858291,-0.011838229523092289,0.04030689240748057,1.9852940542082682
12567,4.0,300.14502000000005,6146.4185,0.0,0.0,0.0,0.0,0.0,0.12525289603987627,-0.8518156084876553,-0.05741197061912035,-0.9591301627437772,0.014548293571804786,0.06310284826251623,1.9305333578538082
12568,4.0,300.00687,5797.6196,0.0,0.0,0.0,0.0,0.0,0.1252628628494601,-0.8337608089307853,-0.007937682631813284,-0.920633103214413,0.015401942595553384,0.02113363699272758,1.9521841820155783
12569,4.0,300.39824,5474.9326,0.0,0.0,0.0,0.0,0.0,0.1252728296590439,-0.8242005713222632,0.05986926321838624,-0.8999115003218502,-0.0002835140755631608,-0.026826705282839678,1.9560824591253083
12570,4.0,300.35022000000004,5636.8164,0.0,0.0,0.0,0.0,0.0,0.12528279646862772,-0.8155481551408362,0.0001209536909371999,-0.8980242308180911,-0.011270384915300389,-0.03020147862240387,1.9141496103618583
12571,4.0,300.53566,5798.9451,0.0,0.0,0.0,0.0,0.0,0.12529276327821157,-0.7962566635719143,0.0028272097431238773,-0.9693050581279612,-0.007900173025036372,-0.020213454927662678,1.891031904030318
12572,4.0,299.84455,5624.8801,0.0,0.0,0.0,0.0,0.0,0.12530273008779538,-0.8076997934437632,-0.0003389587765301267,-0.9017843512766862,0.01305830220700409,-0.0024369763268108375,1.8999875150391683
12573,4.0,299.94302999999996,5289.5207,0.0,0.0,0.0,0.0,0.0,0.1253126968973792,-0.7862595429177753,0.04306045224323576,-0.8646831248200801,0.00028756169560512974,-0.0033375321427387772,1.934310044951538
12574,4.0,299.73906,5271.8845,0.0,0.0,0.0,0.0,0.0,0.12532266370696302,-0.8106165959766293,0.06865472927044423,-0.8605593894305992,0.01666936445663818,-9.75389371665936e-05,1.931603755259448
12575,4.0,299.54777,5737.0943,0.0,0.0,0.0,0.0,0.0,0.12533263051654683,-0.8631658233253341,-0.0037695704343276367,-0.8769980145479651,-0.025010536551847776,-0.005020062507441595,1.9498228026575282
12576,4.0,298.81606,6215.839,0.0,0.0,0.0,0.0,0.0,0.12534259732613065,-0.8714142161618872,-0.047992832140023756,-0.970052816436759,0.01026148773772999,-0.007464637399402353,1.9351986652892381
12577,4.0,299.41784,5814.0377,0.0,0.0,0.0,0.0,0.0,0.1253525641357145,-0.7921132711304932,-0.00033712072058372463,-0.9748718845748642,0.007589877442237582,-0.0002490823375550127,1.924088681917768
12578,4.0,299.46562,5525.1479,0.0,0.0,0.0,0.0,0.0,0.1253625309452983,-0.7802375239959483,0.01854828680607338,-0.9178177574140601,0.019872759714038683,0.01085168666922809,1.9440734189401083
12579,4.0,300.32344,5747.6781,0.0,0.0,0.0,0.0,0.0,0.12537249775488213,-0.8158536804434893,0.01003758439158245,-0.9413345120324832,-0.007773136084473803,-0.007821953359716692,1.921261308838728
12580,4.0,300.06152000000003,5698.8021,0.0,0.0,0.0,0.0,0.0,0.12538246456446595,-0.8575570077942871,0.01145686549020459,-0.8861933909279781,-0.015629771880538386,0.0017042625528476184,1.9410673085434282
12581,4.0,300.42105,5503.6528,0.0,0.0,0.0,0.0,0.0,0.12539243137404976,-0.8476197803535591,0.031645887918205974,-0.8569991325542292,-0.019387413929388784,-0.016774529684517182,1.9256889078006982
12582,4.0,300.28376000000003,5416.5548,0.0,0.0,0.0,0.0,0.0,0.12540239818363358,-0.7932952273721432,0.04317743703353126,-0.8963796245807811,0.0024521028335787076,-0.014920905150328685,1.9338897488100584
12583,4.0,300.48655,5478.6338,0.0,0.0,0.0,0.0,0.0,0.1254123649932174,-0.7665326679133843,-0.02159347015310958,-0.8772417315945181,0.004590226514945086,-0.0043207671403265166,1.8920348189792981
12584,4.0,299.41222,5697.9366,0.0,0.0,0.0,0.0,0.0,0.12542233180280124,-0.8504121659066461,0.023029615381096078,-0.9046478872517951,0.015007762975400884,0.0017127853034137482,1.927644885793738
12585,4.0,299.86496,6185.5804,0.0,0.0,0.0,0.0,0.0,0.12543229861238506,-0.8996722922382422,-0.030593638835107073,-0.9499960575973111,0.02032560854148138,-0.005691488633206194,1.9377698887429982
12586,4.0,299.4925,5752.9976,0.0,0.0,0.0,0.0,0.0,0.12544226542196887,-0.8466963852724272,0.009342859896993481,-0.9114140877095671,0.01981641388922778,0.008156451333079072,1.951787089301388
12587,4.0,300.26781,5329.6245,0.0,0.0,0.0,0.0,0.0,0.1254522322315527,-0.8024333652540073,0.05899551739215424,-0.8766349062421291,-0.0021663343880005577,-0.0016485111005453785,1.952852623106548
12588,4.0,299.76542,5681.3339,0.0,0.0,0.0,0.0,0.0,0.1254621990411365,-0.7751412204979823,-0.004684245282449016,-0.9471581771147342,-0.013863845155754987,0.0024568004636923275,1.9189024626059283
12589,4.0,299.27554,5755.1828,0.0,0.0,0.0,0.0,0.0,0.12547216585072032,-0.8374721109995622,0.03470025435089847,-0.946660012703069,-0.02031194689038308,-0.0029453320079816376,1.9404086959784281
12590,4.0,298.49028,5370.4205,0.0,0.0,0.0,0.0,0.0,0.12548213266030414,-0.7758732126352242,0.04879916745035286,-0.9053996782959912,0.0019984500935066683,0.017856522724301584,1.9213179495193182
12591,4.0,300.40196000000003,5308.103,0.0,0.0,0.0,0.0,0.0,0.12549209946988799,-0.8006733802278102,0.029136020811001372,-0.8419933950657782,0.008610714151036323,0.003467225115788477,1.9250419476118483
12592,4.0,299.99672999999996,5544.9135,0.0,0.0,0.0,0.0,0.0,0.1255020662794718,-0.8393633321787112,0.04143848707941026,-0.8875903892383511,0.008269737152559513,0.0005587848954677754,1.9451642839977679
12593,4.0,300.4932,5862.0248,0.0,0.0,0.0,0.0,0.0,0.12551203308905562,-0.8722532176421902,-0.00898122212102761,-0.9006747208271743,-0.009892424257081261,0.0018844035258511484,1.941755406686338
12594,4.0,300.28458,6083.5364,0.0,0.0,0.0,0.0,0.0,0.12552199989863944,-0.8300871896332273,-0.032499342397935366,-0.9866566317179281,0.013700678452401686,0.021868894835041876,1.955230113141188
12595,4.0,300.41998,5897.1351,0.0,0.0,0.0,0.0,0.0,0.12553196670822325,-0.8472982963618312,0.006330383249935183,-0.9516139038994801,0.016879803330156883,0.017771281033138884,1.936823918449638
12596,4.0,300.45697,5677.2112,0.0,0.0,0.0,0.0,0.0,0.12554193351780707,-0.8153589408171622,0.01144942823447059,-0.9218209363066431,0.006052067360167545,0.023301270772656375,1.961611866246018
12597,4.0,300.55161,5776.4866,0.0,0.0,0.0,0.0,0.0,0.1255519003273909,-0.8356216123419323,0.024773703526474178,-0.9450597665551371,0.005650313188892494,-0.00947257506022037,1.933680411339398
12598,4.0,299.93567,5816.4326,0.0,0.0,0.0,0.0,0.0,0.12556186713697473,-0.861825982453102,0.016666262898082086,-0.9228905737747082,-0.025502787635929176,-0.007099957745311273,1.970971966694788
12599,4.0,299.43001,5519.2345,0.0,0.0,0.0,0.0,0.0,0.12557183394655855,-0.7721663182043822,0.02278495499869998,-0.9283281095088511,-0.01848545820712268,-0.016097809326980086,1.9083690185413584
12600,4.0,299.55343,5192.4618,0.0,0.0,0.0,0.0,0.0,0.12558180075614236,-0.7479064966251243,0.06587819398867154,-0.8963504125803982,-0.013608823277836286,0.0008682065601878161,1.9379172153075381
12601,4.0,299.76957000000004,5510.85,0.0,0.0,0.0,0.0,0.0,0.12559176756572618,-0.7959113378053333,0.019621898241030583,-0.898871348431695,-0.01021900216103699,0.0026639971395410475,1.9237592743102583
12602,4.0,299.63914,5828.5288,0.0,0.0,0.0,0.0,0.0,0.12560173437531,-0.8606639365759172,0.02063295566781418,-0.931696223768758,-0.006325690686072063,0.006705496441630973,1.9445000985572178
12603,4.0,299.3507,5980.3589,0.0,0.0,0.0,0.0,0.0,0.12561170118489381,-0.8788315513989212,-0.02889736596194797,-0.9101508586773961,0.000895627063466509,-0.001948638819915678,1.9342894759745082
12604,4.0,299.84727999999996,6087.1708,0.0,0.0,0.0,0.0,0.0,0.12562166799447766,-0.8939834907443012,-0.013926632211451588,-0.942437799536369,0.01970131070436798,0.010788947236286189,1.9584736280362982
12605,4.0,299.41687,5863.1143,0.0,0.0,0.0,0.0,0.0,0.12563163480406148,-0.8339266779721551,0.01239769049955679,-0.9607113699223301,0.038382785183085966,-0.008725497351514542,1.9620811023673281
12606,4.0,299.1353,5541.6412,0.0,0.0,0.0,0.0,0.0,0.1256416016136453,-0.7558509144316773,-0.004790891577999185,-0.9238787661997351,0.00837397596587208,0.004251881028302986,1.9189691344625082
12607,4.0,300.55742000000004,5648.0924,0.0,0.0,0.0,0.0,0.0,0.1256515684232291,-0.8209904430179482,0.053707924434309454,-0.9495965432153821,-0.012264250527637289,0.01012677360380974,1.9822229944801781
12608,4.0,300.32341,5722.6622,0.0,0.0,0.0,0.0,0.0,0.12566153523281293,-0.8040450104655642,0.005522341423787666,-0.9410237380943122,-0.00975571706021431,0.012022055382734488,1.9101081610129982
12609,4.0,299.54451,5377.1317,0.0,0.0,0.0,0.0,0.0,0.12567150204239674,-0.8453883705858362,0.062256144054953035,-0.8513815524098172,-0.01949375250088358,0.00978596328497438,1.9659778596019084
12610,4.0,299.56509,5476.3527,0.0,0.0,0.0,0.0,0.0,0.12568146885198056,-0.8095441112757833,0.031536737577683674,-0.8866671056147301,-0.0026472077880340676,-0.00032233290279428073,1.907747997555068
12611,4.0,298.76832,5882.8538,0.0,0.0,0.0,0.0,0.0,0.12569143566156438,-0.8274484431928032,-0.030507629100368572,-0.9302845941269411,-0.006098602390885194,-0.01945698874750528,1.9430374720378683
12612,4.0,298.75346,5983.6969,0.0,0.0,0.0,0.0,0.0,0.12570140247114822,-0.8472357585656591,-0.011586912087539189,-0.9600717760617071,0.004821045293025125,-0.014737413663219484,1.9225568504165882
12613,4.0,299.91324,6086.8476,0.0,0.0,0.0,0.0,0.0,0.12571136928073204,-0.8631385770301452,-0.007542339597895962,-0.9795687750159111,0.017637111521147383,-0.016550007647858585,1.967985716000068
12614,4.0,300.39046,5826.0781,0.0,0.0,0.0,0.0,0.0,0.12572133609031585,-0.8362009076891042,-0.017089022250555183,-0.9176923373166821,0.01942359303745938,-0.01028736411878379,1.938286848944018
12615,4.0,299.95564,5606.0564,0.0,0.0,0.0,0.0,0.0,0.12573130289989967,-0.8379224094765032,0.04767930824108136,-0.9138580773482702,0.023712277437219577,-0.0017261900956116985,1.993697849212658
12616,4.0,299.32234,5725.017,0.0,0.0,0.0,0.0,0.0,0.1257412697094835,-0.8490043967477102,0.024405278697363475,-0.9156630912089111,-0.008337071573379902,-0.005003053685962955,1.9332586966477783
12617,4.0,299.8899,5934.7457,0.0,0.0,0.0,0.0,0.0,0.1257512365190673,-0.8288345693296032,0.0025217912370314177,-0.9777017198516471,-0.015434868157552885,-0.003503742244092437,1.9511114541347083
12618,4.0,300.50586,5460.9494,0.0,0.0,0.0,0.0,0.0,0.12576120332865115,-0.7726697413840662,0.04560423181803726,-0.9329267552202021,-0.01971937087415038,0.01761337107130438,1.935437792312838
12619,4.0,300.18613999999997,5350.9831,0.0,0.0,0.0,0.0,0.0,0.12577117013823497,-0.7452845296063563,0.008177193271901143,-0.8894578902326591,-0.0025357546340094976,0.018588189608261484,1.913539025851598
12620,4.0,300.46828,5731.3403,0.0,0.0,0.0,0.0,0.0,0.12578113694781878,-0.8307002363412302,5.072462635038085e-05,-0.9115348164589822,-0.017011770036430986,0.0076569700002591026,1.9153294387782984
12621,4.0,300.99642,6110.1775,0.0,0.0,0.0,0.0,0.0,0.1257911037574026,-0.9134769027931511,-0.012218920757913589,-0.9316455815287601,-0.006521322023954374,-0.004302629963536516,1.9587124510848681
12622,4.0,301.0496,5997.7538,0.0,0.0,0.0,0.0,0.0,0.12580107056698642,-0.8516210442034532,-0.05445121633666664,-0.9170951378402431,-0.005211301203490385,-0.012738761628967886,1.919169048707238
12623,4.0,301.11458,5612.797,0.0,0.0,0.0,0.0,0.0,0.12581103737657023,-0.8093999663165573,0.024013058702904374,-0.9207632450572572,0.021614686596953477,-0.03673675330288526,1.9561166056536783
12624,4.0,300.0097,5558.2872,0.0,0.0,0.0,0.0,0.0,0.12582100418615405,-0.7990495152200472,0.023553246820774476,-0.9140842347705902,0.03145075722719807,-0.00916941640582594,1.9279262653465083
12625,4.0,300.07812,5790.6551,0.0,0.0,0.0,0.0,0.0,0.12583097099573787,-0.8242799392025961,0.03555997578249637,-0.9714945801365501,0.01044754781384269,0.003071298652463577,1.9674594338981284
12626,4.0,299.7358,5861.3322,0.0,0.0,0.0,0.0,0.0,0.1258409378053217,-0.8397644880258022,0.005240729228794705,-0.9471748856088831,0.0008748096273794883,0.007339825556059383,1.9222208566834282
12627,4.0,299.62391,5553.5145,0.0,0.0,0.0,0.0,0.0,0.12585090461490553,-0.8405643273897402,0.04190898875009516,-0.8894743960767882,-0.02029937245664208,-0.001196549474890239,1.959606846948138
12628,4.0,299.58776,5272.7864,0.0,0.0,0.0,0.0,0.0,0.12586087142448935,-0.7758781370307103,0.051368049283131746,-0.8782853184025121,-0.007532628710262572,0.01174778175291579,1.9054802425062582
12629,4.0,300.67008,5603.9037,0.0,0.0,0.0,0.0,0.0,0.12587083823407316,-0.8126978218145302,0.02071008629192638,-0.9114590658815062,-0.022883681022193476,0.012358031890642789,1.9417824604640084
12630,4.0,299.9865,5911.3903,0.0,0.0,0.0,0.0,0.0,0.12588080504365698,-0.8445941243624502,-0.001975652371556708,-0.950345253979274,-0.0024832161977743576,0.002936877955772287,1.9394701224107984
12631,4.0,300.08454,5904.2336,0.0,0.0,0.0,0.0,0.0,0.1258907718532408,-0.8218950929722302,-0.015698003129022284,-0.957146492625504,0.008210012239990122,0.0023226992447575676,1.9625462854882383
12632,4.0,298.14254,5629.5227,0.0,0.0,0.0,0.0,0.0,0.12590073866282464,-0.8468845356834963,0.0007874704983772872,-0.8651372837799022,0.024111918475411078,-0.0069477220853617835,1.943896809447678
12633,4.0,299.05257,5748.1906,0.0,0.0,0.0,0.0,0.0,0.12591070547240846,-0.8727682729330221,0.020347421789634182,-0.894885556910828,0.03356006326512037,-0.008424077332966701,1.9478651021393183
12634,4.0,299.62967000000003,5839.2819,0.0,0.0,0.0,0.0,0.0,0.12592067228199227,-0.8395248645096531,-0.0030334378532020072,-0.9324375884694251,-0.004215809324742986,-0.017366559558945983,1.921224730510118
12635,4.0,300.08831000000004,5692.8196,0.0,0.0,0.0,0.0,0.0,0.1259306390915761,-0.8064318629311282,0.0022851303628498077,-0.9263282679189822,0.006833718783485534,0.003376874718946587,1.895468115618138
12636,4.0,299.85761,5526.4401,0.0,0.0,0.0,0.0,0.0,0.1259406059011599,-0.7722451085321583,0.013432029373888089,-0.9210867251516821,0.01004218322981132,-0.002005585299385858,1.938454744485588
12637,4.0,300.59791,5438.2025,0.0,0.0,0.0,0.0,0.0,0.12595057271074372,-0.7635733190088192,0.023139707030961278,-0.9126441530659652,0.005686274144216564,0.007569115441063533,1.9298181046082181
12638,4.0,299.50408,5511.6712,0.0,0.0,0.0,0.0,0.0,0.12596053952032754,-0.8199489536376612,0.023754461065382777,-0.8792159278243562,-0.015547023797871786,-0.004515662858636226,1.9430662483407082
12639,4.0,299.7878,5830.3631,0.0,0.0,0.0,0.0,0.0,0.12597050632991139,-0.8527787229727072,0.0022146868854225777,-0.9217207765342581,-0.02810394553739347,-0.005158427077497115,1.9543101833753982
12640,4.0,299.77678,5958.3126,0.0,0.0,0.0,0.0,0.0,0.1259804731394952,-0.8402207444133312,-0.032594983074874365,-0.9383625076341691,-0.02099495142504038,0.005169208565186165,1.9357678078704084
12641,4.0,300.31855,5937.6187,0.0,0.0,0.0,0.0,0.0,0.12599043994907902,-0.8481798543463341,-0.0058937353796663944,-0.9508142165230571,-0.01956856683526718,0.0008312207935801052,1.948358149637978
12642,4.0,300.33232000000004,5967.9496,0.0,0.0,0.0,0.0,0.0,0.12600040675866284,-0.8382309238669512,-0.02546023113172918,-0.9504164955938051,-0.0037896707831863866,0.016236001441868587,1.9381756954080482
12643,4.0,300.84488,5873.3730000000005,0.0,0.0,0.0,0.0,0.0,0.12601037356824665,-0.8511827831377001,-0.002030327448277718,-0.9321456305856112,-0.006085592462251214,0.0007140448131232364,1.9636700811741483
12644,4.0,300.60964,5572.9267,0.0,0.0,0.0,0.0,0.0,0.12602034037783047,-0.8499209625231682,0.04432754885103846,-0.8884371522144202,0.009650115830817282,0.004978631724102695,1.948177791120178
12645,4.0,300.31568,5451.0476,0.0,0.0,0.0,0.0,0.0,0.1260303071874143,-0.8099835173141492,0.037990379763858564,-0.8849892242441361,0.005109656107783795,-0.013268910293289487,1.945472616003198
12646,4.0,299.54644,5522.9364,0.0,0.0,0.0,0.0,0.0,0.12604027399699813,-0.7890039206811242,0.02799969223460447,-0.9178305243653202,0.033099110463377865,-0.027931335343108172,1.9212652605141183
12647,4.0,299.6935,5602.7725,0.0,0.0,0.0,0.0,0.0,0.12605024080658195,-0.7851993388081412,0.016751378946232385,-0.9346549849882652,0.02209927852352898,-0.01182991884577209,1.9338889382099782
12648,4.0,298.59072000000003,5602.931,0.0,0.0,0.0,0.0,0.0,0.12606020761616576,-0.7753123685723733,0.009011828049573182,-0.9368505966299552,-0.014578290841015286,-0.005204106722480345,1.9166476771583982
12649,4.0,299.71677999999997,5799.7552,0.0,0.0,0.0,0.0,0.0,0.12607017442574958,-0.8326269618038832,0.000967074043527777,-0.9313208754017142,0.009097973863800112,-0.005628493151964025,1.954619123330888
12650,4.0,300.24285,5822.0815,0.0,0.0,0.0,0.0,0.0,0.1260801412353334,-0.8922642079746211,0.0008901791317863401,-0.8783933815256773,-0.010280635124869689,0.0027434878257861675,1.956533051444778
12651,4.0,299.61345,5774.6636,0.0,0.0,0.0,0.0,0.0,0.12609010804491722,-0.8227527585193752,-0.03665733476004726,-0.8959434609427351,0.0025393935190936275,0.0041307646093997254,1.9324756569704982
12652,4.0,300.57986,5892.2472,0.0,0.0,0.0,0.0,0.0,0.12610007485450103,-0.8479993641060212,-0.02100599179812998,-0.922090673615764,-0.027860309550848474,-0.0064447030911426745,1.9432640347602284
12653,4.0,300.98026,5925.6891,0.0,0.0,0.0,0.0,0.0,0.12611004166408485,-0.8228671443231642,-0.023575659912986477,-0.9548187126407701,-0.02322540468466898,0.015261406833183585,1.929312492808318
12654,4.0,299.95125,5691.2195,0.0,0.0,0.0,0.0,0.0,0.1261200084736687,-0.8198641750017942,0.013120361749128886,-0.923244816142169,0.006850943832535514,0.014141982308204987,1.9220972401712282
12655,4.0,301.73031000000003,5529.1673,0.0,0.0,0.0,0.0,0.0,0.1261299752832525,-0.8153185324031742,0.04855853777685455,-0.913968795186697,0.023327306233975876,0.027662584939584574,1.9271589310457784
12656,4.0,301.35898,5514.9512,0.0,0.0,0.0,0.0,0.0,0.12613994209283633,-0.8378740369167292,0.05121682981170755,-0.8897502635490141,0.03102560153823847,0.0025938121422143276,1.961945529503948
12657,4.0,300.89715,5630.1047,0.0,0.0,0.0,0.0,0.0,0.12614990890242014,-0.7903406306105473,0.007755239757232572,-0.9288258483554742,0.003333067762798177,-0.031967651566961575,1.919531184292978
12658,4.0,300.50377000000003,5878.6809,0.0,0.0,0.0,0.0,0.0,0.12615987571200396,-0.8366819177765762,-0.011186817113302888,-0.9391034670347961,0.003157540117499947,-0.022195492700024577,1.9296900297955784
12659,4.0,299.60851,5987.7852,0.0,0.0,0.0,0.0,0.0,0.12616984252158778,-0.8294292154157902,-0.018753634097839585,-0.9719543423694251,-0.0040215555003716265,-0.015043406074168585,1.933645656860968
12660,4.0,298.80733,5838.4202,0.0,0.0,0.0,0.0,0.0,0.12617980933117162,-0.8289519239561852,-0.008972318591073902,-0.9368097119884201,-0.005873915397110314,0.018283977477738085,1.9422404495092083
12661,4.0,299.98251,5752.659000000001,0.0,0.0,0.0,0.0,0.0,0.12618977614075544,-0.8488431481267963,0.004599109779896795,-0.9044206659168701,-0.025128825395021974,0.03674415205511546,1.966819667784988
12662,4.0,299.83033,5907.5251,0.0,0.0,0.0,0.0,0.0,0.12619974295033926,-0.885272427647086,0.016367411873837785,-0.926835095619002,-0.01872681539419278,0.005737375893134915,1.985580601336548
12663,4.0,300.01108999999997,5807.986,0.0,0.0,0.0,0.0,0.0,0.12620970975992307,-0.8225481833241852,-0.010938024696998989,-0.931996520700895,-0.023965597054970273,0.02348262936830508,1.939595461448168
12664,4.0,299.8064,5585.085999999999,0.0,0.0,0.0,0.0,0.0,0.1262196765695069,-0.8142655021042482,0.036619749260837865,-0.9200809224399171,0.012467166019163487,-0.006024006513223154,1.9536210719823879
12665,4.0,300.03772999999995,5610.9802,0.0,0.0,0.0,0.0,0.0,0.1262296433790907,-0.8052904164284762,0.03425743771269586,-0.934564907054375,0.016926318602497586,-0.006472497554635775,1.9314552127947882
12666,4.0,299.56924,5728.1049,0.0,0.0,0.0,0.0,0.0,0.12623961018867452,-0.8310608419193191,0.014413964979547587,-0.9245539859338742,0.01201777541431209,-0.0045213676593492454,1.925301035662418
12667,4.0,299.38641,5718.4622,0.0,0.0,0.0,0.0,0.0,0.12624957699825837,-0.8376761795697023,0.024547384997388275,-0.9251409313193012,0.027682826636832268,0.006599733294867964,1.9288137711090982
12668,4.0,300.65394,5854.5217,0.0,0.0,0.0,0.0,0.0,0.12625954380784218,-0.8394204490868482,-0.01118229599135669,-0.9290256612751941,0.014743189188789486,-0.0033186532668755767,1.952663145337848
12669,4.0,300.89476,5922.8248,0.0,0.0,0.0,0.0,0.0,0.126269510617426,-0.8204228811069343,-0.022294151849011477,-0.9576737981100452,-0.018400440444232086,-0.00893130506412618,1.940131268101048
12670,4.0,300.43149,5790.5163,0.0,0.0,0.0,0.0,0.0,0.12627947742700982,-0.8279753737748072,0.005871820502528564,-0.9380688069601832,-0.02297199286115918,-0.002245005152264758,1.9670893949616082
12671,4.0,301.28045,5868.3087,0.0,0.0,0.0,0.0,0.0,0.12628944423659363,-0.8259172703041882,-0.019916857371640784,-0.9379851935619311,-0.014631003150967586,0.028505121649486473,1.9453365365147681
12672,4.0,301.47206,5964.5547,0.0,0.0,0.0,0.0,0.0,0.12629941104617745,-0.8928819358980861,0.027406932820103678,-0.947600703963408,0.006629738062129203,0.038004023176455064,1.986679065769958
12673,4.0,300.96326,5774.6974,0.0,0.0,0.0,0.0,0.0,0.1263093778557613,-0.8820202494636211,0.02120199185772368,-0.8945455507072722,0.000931242024278932,0.001960358881172358,1.9492782820537882
12674,4.0,300.37442999999996,5713.8995,0.0,0.0,0.0,0.0,0.0,0.1263193446653451,-0.8348311050114153,0.012312076945607387,-0.914363749943176,-0.000931674813794145,0.002092807387869008,1.969095731484618
12675,4.0,299.72915,5729.361,0.0,0.0,0.0,0.0,0.0,0.12632931147492893,-0.8000317902644902,0.026703245824405177,-0.968254145521744,0.015276377603411086,-0.007973574787455561,1.931969031920498
12676,4.0,300.36913,5591.8207,0.0,0.0,0.0,0.0,0.0,0.12633927828451275,-0.7865748359513922,0.02273842148785748,-0.9359374455073342,-0.002604824549601168,-0.004325267895945706,1.952709957492468
12677,4.0,300.04113,5754.566999999999,0.0,0.0,0.0,0.0,0.0,0.12634924509409656,-0.8047598381461122,0.02205265078042718,-0.9665374870698231,0.007010957098927593,0.0008371995163251592,1.9294577928726582
12678,4.0,299.86348,6064.9307,0.0,0.0,0.0,0.0,0.0,0.12635921190368038,-0.9063018052575242,0.014564266446381187,-0.951849940510275,0.0014153683320359788,-0.0028267286519763975,1.956537003120168
12679,4.0,300.16758,5917.9389,0.0,0.0,0.0,0.0,0.0,0.1263691787132642,-0.8733313157485901,-0.00996647875521487,-0.9156078589459602,0.010999375977303888,0.013414363358394589,1.959476745635298
12680,4.0,299.78384,5769.6524,0.0,0.0,0.0,0.0,0.0,0.126379145522848,-0.8273389513869972,0.008094684012283112,-0.934585992788956,0.0007633929908885223,-0.009643138185328642,1.9564147038330983
12681,4.0,300.73901,5908.7788,0.0,0.0,0.0,0.0,0.0,0.12638911233243186,-0.8149223921440782,-0.009009929117560772,-0.972188899635074,-0.008574808519167712,-0.029152363521864275,1.9549622098147479
12682,4.0,301.62435,5896.6656,0.0,0.0,0.0,0.0,0.0,0.12639907914201567,-0.8313905028393541,-0.006003310778605645,-0.9550452956281321,-0.00887811926240215,-0.012380623314872387,1.968672395592838
12683,4.0,300.06217000000004,5598.4007,0.0,0.0,0.0,0.0,0.0,0.1264090459515995,-0.7953573230481562,0.02158229197800638,-0.9279989957438701,0.018827526374632184,0.018573235050035584,1.9433255390412982
12684,4.0,299.83981,5744.4579,0.0,0.0,0.0,0.0,0.0,0.1264190127611833,-0.877520101794491,0.028349781289905576,-0.8970014359021492,-0.008158906742046402,0.014306788450220088,1.951283909301728
12685,4.0,300.33099,6071.0803,0.0,0.0,0.0,0.0,0.0,0.12642897957076712,-0.8963390337817753,0.006076483647827244,-0.9551942535253332,-0.02149049455869668,0.005614245234357865,1.931929515166598
12686,4.0,299.54744,5960.4296,0.0,0.0,0.0,0.0,0.0,0.12643894638035094,-0.8452473261719161,-0.018064159961293784,-0.9485102884456772,-0.013879288100529087,-0.008715147305718072,1.9316349633625283
12687,4.0,299.66172,5854.738,0.0,0.0,0.0,0.0,0.0,0.1264489131899348,-0.7999877240176412,0.0025594145304695475,-0.982265844132091,0.011786504118737388,0.021163152968140583,1.9354275584868283
12688,4.0,299.99438,5957.8556,0.0,0.0,0.0,0.0,0.0,0.1264588799995186,-0.8314816244208473,0.002177100575613098,-0.981734820019683,0.0012480625020241788,0.009773386014133101,1.9759411478352082
12689,4.0,299.35651,5761.505,0.0,0.0,0.0,0.0,0.0,0.12646884680910242,-0.8120517330207662,0.001895197983141478,-0.9411971051864221,9.222323766422492e-05,-0.002283420807281088,1.9521202459342681
12690,4.0,299.45466,5673.8436,0.0,0.0,0.0,0.0,0.0,0.12647881361868624,-0.8778432677813852,0.02939728228303587,-0.8762608041727081,-0.014626829573805686,0.0022363026511308883,1.986598107086968
12691,4.0,300.01689,5826.3181,0.0,0.0,0.0,0.0,0.0,0.12648878042827005,-0.8487820795432691,-0.0012189778671787487,-0.9210541491609671,0.03490039151065046,0.007361145858038533,1.933014908673718
12692,4.0,299.48216,5564.6143,0.0,0.0,0.0,0.0,0.0,0.12649874723785387,-0.8157865830218672,0.020438387330611783,-0.8961555949836713,0.0032824747667550363,-0.017639988138181285,1.9378837780542382
12693,4.0,299.69999,5605.3853,0.0,0.0,0.0,0.0,0.0,0.1265087140474377,-0.7867680019504563,0.015324121948123087,-0.9324532735809732,0.006639345294277364,-0.02162396290161898,1.932716101219228
12694,4.0,300.93063,6042.8522,0.0,0.0,0.0,0.0,0.0,0.1265186808570215,-0.8567746469945742,-0.005950415475685285,-0.9741511192487301,-0.02266359803422298,0.003398156112121897,1.961394929399608
12695,4.0,300.63231,5942.5563,0.0,0.0,0.0,0.0,0.0,0.12652864766660535,-0.8356440862291502,-0.009002696842322001,-0.9617419364665392,0.016958337305657586,0.03371709169936787,1.936054456323698
12696,4.0,299.90867000000003,5730.1091,0.0,0.0,0.0,0.0,0.0,0.12653861447618917,-0.8721733735343101,0.03312095714878397,-0.9027576691902452,0.006145581630446683,0.022731394598413977,1.954479193492078
12697,4.0,300.8538,6044.2868,0.0,0.0,0.0,0.0,0.0,0.12654858128577298,-0.8646703781338221,-0.020509772826656978,-0.9521321103981232,0.013490080498617288,-0.004773674432299985,1.9306548465407984
12698,4.0,300.61731000000003,6016.9408,0.0,0.0,0.0,0.0,0.0,0.1265585480953568,-0.8705844656549971,-0.001814814420908238,-0.9566004724116162,-0.016528124485448884,-0.01662813733656938,1.9503956942640681
12699,4.0,299.98323999999997,5665.8439,0.0,0.0,0.0,0.0,0.0,0.12656851490494062,-0.8004938221775892,0.019496688899673383,-0.941277952411901,0.006322668971623844,-0.007170054691204304,1.966310509609738
12700,4.0,299.23137,5604.2991,0.0,0.0,0.0,0.0,0.0,0.12657848171452443,-0.7773919326801102,-0.006588391885173654,-0.9195866691736382,0.007477689276590473,-0.01031774642303229,1.9517143379442083
12701,4.0,298.69312,5653.3336,0.0,0.0,0.0,0.0,0.0,0.12658844852410828,-0.8065685605021192,0.021596353862894182,-0.93350003186178,0.002129918888681628,-0.011555498294688889,1.974990415266378
12702,4.0,299.29758,5765.8482,0.0,0.0,0.0,0.0,0.0,0.1265984153336921,-0.8660067739557141,0.00974596736510209,-0.8964130618340811,-0.024012895569638273,-0.006644888177624405,1.9402855860912782
12703,4.0,299.9999,6041.3697,0.0,0.0,0.0,0.0,0.0,0.1266083821432759,-0.8639253556002943,-0.04464402130777186,-0.927856157877273,-0.01160568153239159,0.030042832027746675,1.9147786360239383
12704,4.0,300.12712,5908.955,0.0,0.0,0.0,0.0,0.0,0.12661834895285973,-0.8689620293298752,0.0016467367982952682,-0.9288594781262931,-0.0008228666376981142,0.015373900899035885,1.9254662967537282
12705,4.0,300.27786000000003,5669.7212,0.0,0.0,0.0,0.0,0.0,0.12662831576244354,-0.7994867529031993,0.026839161166318973,-0.950806069992253,0.01012316308972841,0.0074467059123826534,1.9239716515312182
12706,4.0,300.0503,5715.5131,0.0,0.0,0.0,0.0,0.0,0.12663828257202736,-0.8238724708073822,0.03831743257813617,-0.9518182359146461,-0.011065042689784688,-0.01109957526644279,1.972488599444468
12707,4.0,299.75247,5792.4772,0.0,0.0,0.0,0.0,0.0,0.12664824938161118,-0.8436659771383491,0.026702680430849376,-0.943805150148816,0.00996642211453428,0.004865924673079376,1.9713545699325483
12708,4.0,299.08912999999995,5642.2254,0.0,0.0,0.0,0.0,0.0,0.126658216191195,-0.8357661828662002,0.02187117464776688,-0.9012006077615752,-0.0041888713615594155,-0.03158726025416987,1.974565762149468
12709,4.0,298.67438,5587.9317,0.0,0.0,0.0,0.0,0.0,0.12666818300077884,-0.7897806984727862,0.016337406498626486,-0.9251484091050391,0.013286807329805788,-0.018318502961645482,1.9347982288497179
12710,4.0,298.59993,5834.1916,0.0,0.0,0.0,0.0,0.0,0.12667814981036266,-0.8632214203583213,0.014591028408022386,-0.924818180764948,0.01767664347379888,-0.02023723793400988,1.9778163697952784
12711,4.0,298.28283999999996,5890.9021,0.0,0.0,0.0,0.0,0.0,0.12668811661994647,-0.8286827743321222,0.005730609510292125,-0.9677349764355061,0.02965366495583887,0.006113859606915964,1.948430191720088
12712,4.0,299.18458,5770.6058,0.0,0.0,0.0,0.0,0.0,0.1266980834295303,-0.8178944674698992,0.014615455841433185,-0.9508410372532041,0.0060097696400430835,0.02127396605207698,1.9563383047755583
12713,4.0,300.22778999999997,5798.6203,0.0,0.0,0.0,0.0,0.0,0.1267080502391141,-0.8350833130938061,0.013357423769025089,-0.9409098893130761,-0.00909206327199178,-0.0014405575268719587,1.961879364272418
12714,4.0,300.02757,5878.5925,0.0,0.0,0.0,0.0,0.0,0.12671801704869792,-0.8835102843981761,0.026443080688978875,-0.9298781187168251,-0.008405020530385941,-0.00031836986887065965,1.9702256066711283
12715,4.0,300.08576,5883.4971,0.0,0.0,0.0,0.0,0.0,0.12672798385828177,-0.8352795188431702,-0.012030186714786988,-0.9411265019194541,-0.024828808119912577,0.018063129485942086,1.9365959371771382
12716,4.0,299.9601,5796.6634,0.0,0.0,0.0,0.0,0.0,0.12673795066786558,-0.8677029039606091,0.022166688026181776,-0.9165047068744722,-0.008874532964998212,-0.017398989641646583,1.9427361314581284
12717,4.0,300.32293,5699.6817,0.0,0.0,0.0,0.0,0.0,0.1267479174774494,-0.8019811922643812,0.02327696594250768,-0.9538566823333251,-0.018429102249810782,-0.014611913519083586,1.956706418536888
12718,4.0,300.80431,5622.2255,0.0,0.0,0.0,0.0,0.0,0.12675788428703322,-0.8200670479368162,0.03528354392996467,-0.9242326640621621,0.002256379087287278,-0.013098921377012886,1.961080011268528
12719,4.0,300.57842,5795.5822,0.0,0.0,0.0,0.0,0.0,0.12676785109661703,-0.8338224651993701,0.011801647141481887,-0.9396914662003272,0.04244628184087186,-0.025028615973382077,1.9615068935356583
12720,4.0,300.413,6045.5749,0.0,0.0,0.0,0.0,0.0,0.12677781790620085,-0.8623886199686303,-0.017234410467653883,-0.9580807902777121,0.00015795300469874783,-0.030419989046219172,1.9700848662322379
12721,4.0,300.25333,5762.3293,0.0,0.0,0.0,0.0,0.0,0.12678778471578467,-0.8162715954472343,-0.008640434397669481,-0.9266921969573991,0.02213234594054248,0.0012301486455562189,1.9525559434772681
12722,4.0,298.99062000000004,5872.1007,0.0,0.0,0.0,0.0,0.0,0.1267977515253685,-0.8598060075837463,0.016986534029440382,-0.9421525189707141,-0.0022725602860842378,0.009377616807223722,1.9759590823619781
12723,4.0,299.47036,6113.7728,0.0,0.0,0.0,0.0,0.0,0.12680771833495233,-0.8684499732593393,-0.009154190701873281,-0.980830109270395,-0.001839028970473028,0.050859317686173855,1.9494585392465782
12724,4.0,299.34112000000005,5845.7897,0.0,0.0,0.0,0.0,0.0,0.12681768514453615,-0.8626970229015672,0.040756936558646456,-0.9550340282870201,-0.03430208252535197,-0.005934289904318814,1.977621521801048
12725,4.0,299.23064,5655.3078,0.0,0.0,0.0,0.0,0.0,0.12682765195411996,-0.8173631596474632,0.01938125944828138,-0.9210904437795491,-0.00896357008838549,0.015376160446758885,1.962095287868728
12726,4.0,299.99149,5803.4892,0.0,0.0,0.0,0.0,0.0,0.12683761876370378,-0.8536610611597872,0.03135996799173787,-0.941814701387374,-0.01992634544557718,0.0014565705261523187,1.988969314970988
12727,4.0,300.5054,5837.1901,0.0,0.0,0.0,0.0,0.0,0.1268475855732876,-0.8410364411413342,0.02232132215044298,-0.9556449269048111,0.011907389921917887,8.068615215035322e-05,1.9594291228805982
12728,4.0,300.47201,5844.1192,0.0,0.0,0.0,0.0,0.0,0.1268575523828714,-0.8334844044360062,0.013100936731461787,-0.95608284346553,0.008117876597797042,-0.019390159837159783,1.970712979969228
12729,4.0,301.02612,5993.0712,0.0,0.0,0.0,0.0,0.0,0.12686751919245526,-0.8251570692841622,-0.017206047570854685,-0.9793808779173672,0.014221451513547988,-0.014027160806872985,1.958747712188348
12730,4.0,300.81746,5999.2176,0.0,0.0,0.0,0.0,0.0,0.12687748600203907,-0.8825553063114271,0.0058360767880259335,-0.9468931108885741,0.021346563395241776,-0.01011478938825199,1.9809194482265282
12731,4.0,300.59042999999997,5960.8066,0.0,0.0,0.0,0.0,0.0,0.1268874528116229,-0.8506613038412342,-0.02896217242509387,-0.9323128877796182,-0.013885247024367187,-0.0033655666451805673,1.9398577918990585
12732,4.0,300.0358,5947.9993,0.0,0.0,0.0,0.0,0.0,0.1268974196212067,-0.8631089495972212,-0.0037974973296088063,-0.9411368066729712,-0.001086531386982299,-0.0056580174360278445,1.959432263955908
12733,4.0,300.20435,5753.5244,0.0,0.0,0.0,0.0,0.0,0.12690738643079053,-0.8189400098505861,0.01380707072615179,-0.9437948251302971,0.007773971813156283,0.009111242880484661,1.971822083528688
12734,4.0,299.99801,5588.3089,0.0,0.0,0.0,0.0,0.0,0.12691735324037434,-0.8038640034677003,0.035342748133307664,-0.930185103099622,-0.006786009801202025,0.024337932016216875,1.9801316462737781
12735,4.0,299.86642,5711.7839,0.0,0.0,0.0,0.0,0.0,0.12692732004995816,-0.7940110075077852,0.004375055358159346,-0.946603716527513,-0.02048792816775108,0.014100053005816886,1.956358671102568
12736,4.0,298.93145,6018.7928,0.0,0.0,0.0,0.0,0.0,0.126937286859542,-0.887841725925656,0.014522448601504086,-0.9562434638713821,-0.025552623328847578,-0.0071043201922918135,1.986176595045368
12737,4.0,300.11282,6009.233,0.0,0.0,0.0,0.0,0.0,0.12694725366912582,-0.8494662361432903,-0.012311226828773489,-0.964879323546175,0.009551394569599251,0.0013944345849699787,1.941879124523548
12738,4.0,298.47008,5761.9762,0.0,0.0,0.0,0.0,0.0,0.12695722047870964,-0.8380437563084792,-0.0011704502801394487,-0.9122826659602892,0.006432789093816854,-0.008303971529713182,1.9467073625750582
12739,4.0,299.13844,5948.3762,0.0,0.0,0.0,0.0,0.0,0.12696718728829345,-0.8470104826709262,-0.013423809889076887,-0.947723550405532,0.000979219994066489,-0.012826690459395787,1.931372227611598
12740,4.0,299.3558,5920.5257,0.0,0.0,0.0,0.0,0.0,0.12697715409787727,-0.8362851898324222,0.004108478477425256,-0.967515253151321,-0.0019996198907471178,-0.04137602831674606,1.963781538685148
12741,4.0,299.98467999999997,5642.3581,0.0,0.0,0.0,0.0,0.0,0.1269871209074611,-0.7737240078481142,-0.007820410686439442,-0.9335915486108121,0.0011536104687774888,-0.00955503304938334,1.9339064674367084
12742,4.0,300.55021,5795.014,0.0,0.0,0.0,0.0,0.0,0.12699708771704493,-0.8558520219835182,0.013385523220798286,-0.9190730628304491,0.037007188741325164,0.03848115758229457,1.9900957451071581
12743,4.0,301.02738999999997,5847.3071,0.0,0.0,0.0,0.0,0.0,0.12700705452662875,-0.8438212779811762,-0.0049313010894065255,-0.9286827571763521,0.005552342745998564,0.01135568942796929,1.941339974145338
12744,4.0,299.2243,5709.2838,0.0,0.0,0.0,0.0,0.0,0.12701702133621257,-0.8591378907328081,-0.0035523722707168468,-0.8727894498601122,0.006894317421616154,0.00029027079199999675,1.952355015982438
12745,4.0,300.25567,5975.7314,0.0,0.0,0.0,0.0,0.0,0.12702698814579638,-0.8520102943618691,0.003914413826847566,-0.9683772351438922,-0.03383397820440367,-0.02454685000133548,1.9589979849630481
12746,4.0,300.23705,6209.5961,0.0,0.0,0.0,0.0,0.0,0.1270369549553802,-0.8621259146152032,-0.044272647920870156,-0.9811635800108061,0.017159467450507584,0.0010721024015832691,1.9663849834920881
12747,4.0,301.01613,5795.9237,0.0,0.0,0.0,0.0,0.0,0.12704692176496402,-0.7964655349475283,-0.004433808057257785,-0.9609167455850991,-0.02174564410612798,0.0006933607612793793,1.9448017431119882
12748,4.0,300.69153,5723.0787,0.0,0.0,0.0,0.0,0.0,0.12705688857454783,-0.8520699950577613,0.028368120103465472,-0.9159711496368141,-0.018554902315976285,0.0006552601054541373,1.9512999186533084
12749,4.0,300.48148,5882.3803,0.0,0.0,0.0,0.0,0.0,0.12706685538413165,-0.8295598132211792,-0.016984825689771783,-0.941552077093955,-0.027265945148189273,0.009128871405724461,1.9442966379371383
12750,4.0,299.62138,5710.93,0.0,0.0,0.0,0.0,0.0,0.1270768221937155,-0.8571398831256201,0.016387280695048686,-0.8952275288195781,0.0020743597512483678,0.028376475363790073,1.9354130690103983
12751,4.0,299.52271,5625.6329,0.0,0.0,0.0,0.0,0.0,0.1270867890032993,-0.8018669989781112,-0.006713436269414573,-0.9014714900433092,0.03641983805585817,-0.009183708501136461,1.9198164141961283
12752,4.0,300.01919,5829.4772,0.0,0.0,0.0,0.0,0.0,0.12709675581288313,-0.8287778475890052,-0.015094788999989686,-0.9281428772580701,0.01876976706593178,-0.04263876085636806,1.959047634217948
12753,4.0,300.453,5816.8988,0.0,0.0,0.0,0.0,0.0,0.12710672262246694,-0.8133571335220993,0.01140451592378809,-0.9662393584929001,0.025638212564794576,-0.03161567887972457,1.9833994791712881
12754,4.0,299.27088,5916.4095,0.0,0.0,0.0,0.0,0.0,0.12711668943205076,-0.8587355797806032,-0.015452755061568187,-0.9242524123066111,0.008151827163597702,0.006828312283601954,1.9685875865594682
12755,4.0,299.7693,6315.0484,0.0,0.0,0.0,0.0,0.0,0.12712665624163458,-0.8940884938521642,-0.02064558785681088,-1.004882954251726,-0.008504469507825792,0.008239951551294903,1.9679060745422083
12756,4.0,300.98422999999997,6096.9215,0.0,0.0,0.0,0.0,0.0,0.12713662305121842,-0.9083145961836712,-0.005473701163337245,-0.939523580791258,-0.018078280614687383,-0.027656187278453176,1.9413496000212882
12757,4.0,301.17569,5655.2617,0.0,0.0,0.0,0.0,0.0,0.12714658986080224,-0.7940996364940323,0.017910584683387083,-0.9428692920914542,-0.017177881244574884,-0.00986488715911356,1.9531697703878481
12758,4.0,301.31248,5777.6439,0.0,0.0,0.0,0.0,0.0,0.12715655667038606,-0.8224747429569372,0.014493827325929385,-0.948278548015306,0.00953478750178526,0.04341183724541475,1.9418758821232283
12759,4.0,300.08698,5849.2514,0.0,0.0,0.0,0.0,0.0,0.12716652347996987,-0.8316173087417382,0.011869955396973388,-0.958279022527276,0.00913120441407971,0.0014745029250971084,1.9807689805866782
12760,4.0,300.09933,5532.6978,0.0,0.0,0.0,0.0,0.0,0.1271764902895537,-0.8141192597173152,0.022553329065590277,-0.8902360561769582,-0.002436039779743408,-0.00905660387546721,1.9488803787395184
12761,4.0,300.17678,5582.2827,0.0,0.0,0.0,0.0,0.0,0.1271864570991375,-0.7989482712700553,0.025193312684386373,-0.9231195784298091,0.015072824777571986,0.0001335395237418249,1.9838224097630281
12762,4.0,299.51082,5915.920999999999,0.0,0.0,0.0,0.0,0.0,0.12719642390872132,-0.8632035972890623,-0.006968416502754164,-0.9281202513833372,0.025193242770129475,0.018906739227699882,1.9315233032015082
12763,4.0,299.62908999999996,6170.1998,0.0,0.0,0.0,0.0,0.0,0.12720639071830514,-0.8456283487395202,-0.03795603362521886,-0.9920022859330031,0.01947429809896358,-0.006097400068316535,1.9454017898212081
12764,4.0,299.82903,6190.0195,0.0,0.0,0.0,0.0,0.0,0.12721635752788898,-0.8662539056551042,-0.04568974202047645,-0.9696677307362541,0.0006603120589952264,-0.02881214858878767,1.9587044464090781
12765,4.0,299.56209,5999.5413,0.0,0.0,0.0,0.0,0.0,0.1272263243374728,-0.8443761337359361,0.014676001587908587,-0.9940105982937081,0.02077353398668818,-0.02192259202409138,1.9995984098449981
12766,4.0,300.31498999999997,5568.2821,0.0,0.0,0.0,0.0,0.0,0.12723629114705662,-0.8132692746059282,0.024838968991915376,-0.9041884087289481,0.003001095213985037,0.012534233043282487,1.9730228862221983
12767,4.0,300.07322999999997,5572.571999999999,0.0,0.0,0.0,0.0,0.0,0.12724625795664044,-0.8113834236523092,0.01881710509735368,-0.9013564354944541,-0.0006419181651598904,-0.011828439500626089,1.9493273233586283
12768,4.0,300.45407,6079.4143,0.0,0.0,0.0,0.0,0.0,0.12725622476622425,-0.9001048183084293,-0.004235215799933256,-0.9436501026185141,-0.028221281925473674,-0.03381980790175517,1.956367790353468
12769,4.0,301.44087,6016.1402,0.0,0.0,0.0,0.0,0.0,0.12726619157580807,-0.8570465526589092,0.0022458262901457974,-0.9739556734369411,-0.010371966449133392,0.004991060148504285,1.949624712262978
12770,4.0,300.49638,5624.0485,0.0,0.0,0.0,0.0,0.0,0.1272761583853919,-0.8235229096553832,0.002628365895799517,-0.8886757726129701,0.008167429087312493,0.04186027776478776,1.9550220928956583
12771,4.0,300.20712000000003,6117.8019,0.0,0.0,0.0,0.0,0.0,0.12728612519497573,-0.8621003097851763,-0.008016879982154453,-0.9895418208476741,-0.017580396873300083,0.002250606094842528,1.9905571792026981
12772,4.0,300.79059,6459.7105,0.0,0.0,0.0,0.0,0.0,0.12729609200455955,-0.9126275965593311,-0.05671008518209965,-0.994253018380133,-0.009059935036495971,-0.01886019051810588,1.996630498977088
12773,4.0,300.03967,6062.5881,0.0,0.0,0.0,0.0,0.0,0.12730605881414336,-0.8428276140056091,-0.011028694368947389,-0.9890191053860862,0.004327496438215646,-0.005799111904502784,1.9917572726211379
12774,4.0,300.52815,6039.0231,0.0,0.0,0.0,0.0,0.0,0.12731602562372718,-0.8739501683796662,-0.008520696100227232,-0.9532413558125971,0.05939568937339815,0.02930079959526377,1.958276753541868
12775,4.0,300.0498,5933.1542,0.0,0.0,0.0,0.0,0.0,0.127325992433311,-0.8577421691175612,0.02218724079121018,-0.9679758057192741,0.00932787737306482,-0.016595699147867984,1.9708693244596582
12776,4.0,299.89968,5516.6773,0.0,0.0,0.0,0.0,0.0,0.12733595924289481,-0.8217167609546302,0.03258175813456917,-0.8877971429212562,-0.017392571715513182,-0.03585489944935307,1.9381087195764382
12777,4.0,300.10988,5652.2390000000005,0.0,0.0,0.0,0.0,0.0,0.12734592605247866,-0.8291836137240512,0.03944787315820196,-0.9284037891588202,-0.02049841024003558,0.001201030066832439,1.9778267049462983
12778,4.0,298.93192999999997,5938.0063,0.0,0.0,0.0,0.0,0.0,0.12735589286206248,-0.8469805006004673,-0.01127320580357879,-0.9467519448846421,-0.004514525992024026,0.03938496451249336,1.9524879543955582
12779,4.0,299.32627,5711.1778,0.0,0.0,0.0,0.0,0.0,0.1273658596716463,-0.8237989493801262,0.004007932555427147,-0.9162644247457581,-0.02297164734287508,0.0055711462360543244,1.9601054673223481
12780,4.0,299.79402999999996,5919.6817,0.0,0.0,0.0,0.0,0.0,0.1273758264812301,-0.8294151717694042,-0.03999203405815646,-0.9300282013216371,-0.024506624985615576,-0.02195811251959698,1.926931659048348
12781,4.0,299.47837999999996,6397.8215,0.0,0.0,0.0,0.0,0.0,0.12738579329081393,-0.8795542824302491,-0.044891177325164254,-1.020332515548979,0.013991704146123687,0.018991813732596084,1.9591632460543582
12782,4.0,299.99322,6124.472,0.0,0.0,0.0,0.0,0.0,0.12739576010039774,-0.8656862525515812,-0.037566801705304666,-0.958433512770023,0.026434473129379375,0.03963498498791846,1.961858795295388
12783,4.0,301.57661,5799.5353,0.0,0.0,0.0,0.0,0.0,0.12740572690998156,-0.8139757429731512,-0.001171098050928379,-0.9477670796298282,0.015485306734280785,0.004998060997420215,1.980833423293038
12784,4.0,300.15594,5787.9879,0.0,0.0,0.0,0.0,0.0,0.1274156937195654,-0.8360864408253073,0.007820637857111862,-0.931137993891165,-0.021805545425539776,-0.01809599526618568,1.9918274908530682
12785,4.0,300.7324,5783.126,0.0,0.0,0.0,0.0,0.0,0.12742566052914922,-0.8233093874618101,0.024059920506779277,-0.958676419216496,0.007348287612944523,0.008945535959130661,1.996243336113878
12786,4.0,299.6608,5894.4779,0.0,0.0,0.0,0.0,0.0,0.12743562733873304,-0.8486476415200013,0.0038261384648854663,-0.9469525785369431,0.0005259829803779786,0.030978587746848574,1.960408327777238
12787,4.0,299.40781,6308.1042,0.0,0.0,0.0,0.0,0.0,0.12744559414831685,-0.8890992098297601,-0.025114019784560775,-1.0032929317973032,-0.0040941939814904856,-0.025810550194802974,1.947948999247598
12788,4.0,299.704,6064.5442,0.0,0.0,0.0,0.0,0.0,0.12745556095790067,-0.9093181596127151,0.01141540329611259,-0.9455672528677221,-0.03627074944939426,-0.04771610340521275,1.966414063769958
12789,4.0,299.76265,5715.4712,0.0,0.0,0.0,0.0,0.0,0.1274655277674845,-0.8209429418532602,0.02097191315751668,-0.9373895038281411,0.01212434298032949,0.015152886734223485,1.960625872573708
12790,4.0,299.85672999999997,5949.5129,0.0,0.0,0.0,0.0,0.0,0.1274754945770683,-0.8560931045798112,-0.01119338905345149,-0.9412168838283741,0.007241316266762273,0.045860610437839865,1.9707195660948782
12791,4.0,300.10308,6205.0787,0.0,0.0,0.0,0.0,0.0,0.12748546138665215,-0.8576051675715402,-0.037084697307724665,-0.991499105933343,0.007245887037963372,-0.006302827812140675,1.990411879138358
12792,4.0,299.36272,5744.316999999999,0.0,0.0,0.0,0.0,0.0,0.12749542819623597,-0.8115597696997132,0.004705633168209836,-0.9392747974942051,-0.03561036572321947,-0.03383340470484707,1.971623790484118
12793,4.0,299.14991000000003,5544.5139,0.0,0.0,0.0,0.0,0.0,0.12750539500581978,-0.7483670187955743,0.008426755555631023,-0.9454535054114961,0.02902020531132127,0.006720482410609974,1.970828997105678
12794,4.0,298.71124,5884.8185,0.0,0.0,0.0,0.0,0.0,0.1275153618154036,-0.8568983344342812,-0.0017347530722067984,-0.9302047804165641,0.0029423081657082074,0.016236509080168684,1.9534041351359783
12795,4.0,299.26804,6048.6927,0.0,0.0,0.0,0.0,0.0,0.12752532862498742,-0.8448844205161001,-0.02100780956880938,-0.97275931891137,0.005533913854504775,-0.011019288368269091,1.9518204252296782
12796,4.0,300.41524,5929.9654,0.0,0.0,0.0,0.0,0.0,0.12753529543457123,-0.8806743392232902,-0.024004160340526177,-0.8978829229591452,-0.031251536045536474,-0.03664057661664336,1.945159927022338
12797,4.0,300.16925,5850.1092,0.0,0.0,0.0,0.0,0.0,0.12754526224415508,-0.8283239216767062,0.009579257934099151,-0.9595424643419682,0.02252369048691518,0.010834871783818591,1.9851108585901882
12798,4.0,300.66897,5768.0917,0.0,0.0,0.0,0.0,0.0,0.1275552290537389,-0.8200226169199312,0.005622587930381224,-0.9389558162302241,0.01129920782764499,0.02359109069875938,1.9460177445569982
12799,4.0,301.12868,5999.2169,0.0,0.0,0.0,0.0,0.0,0.1275651958633227,-0.8097262328487572,-0.04005611604748086,-0.9738297872445172,-0.0025115109028418276,-0.007620433214903202,1.9511834962168182
12800,4.0,300.59767,6343.6316,0.0,0.0,0.0,0.0,0.0,0.12757516267290653,-0.9434462468308951,-0.005896448052834115,-0.9789629122511171,-0.01910592291910778,-0.0075227839722909725,1.9899418324169682
12801,4.0,299.73674,6050.2943,0.0,0.0,0.0,0.0,0.0,0.12758512948249034,-0.8480277452413221,-0.017782411585487382,-0.9733282183125161,0.015014815196096884,0.014738017560279086,1.9647051161512983
12802,4.0,298.94223999999997,5489.6292,0.0,0.0,0.0,0.0,0.0,0.12759509629207416,-0.8246810443871823,0.03703813745237956,-0.8810673080095731,0.005128818491024975,0.02162411184938368,1.9941779271100382
12803,4.0,298.38412,5844.7146,0.0,0.0,0.0,0.0,0.0,0.12760506310165798,-0.8121677197597132,-0.010948650650797689,-0.9535309325586762,-0.012079134800617789,-0.032853365903374766,1.9637100032280879
12804,4.0,299.72061,6068.5047,0.0,0.0,0.0,0.0,0.0,0.1276150299112418,-0.8645123415157251,-0.011354661992367888,-0.9688068835837951,-0.005167874925404545,-0.03256844706800547,2.018381432248738
12805,4.0,300.30995,5659.7069,0.0,0.0,0.0,0.0,0.0,0.12762499672082564,-0.7979384459553932,0.021925078539836777,-0.9443961890646471,0.03270454378168717,-0.017127673688869784,1.9588222873957082
12806,4.0,301.42758,5701.5892,0.0,0.0,0.0,0.0,0.0,0.12763496353040946,-0.8412735315322333,0.017251876872877683,-0.9091190762330672,0.04356944323221926,-0.016502397052159785,1.9786664866291783
12807,4.0,300.00686,5988.4558,0.0,0.0,0.0,0.0,0.0,0.12764493033999327,-0.8528241165771873,-0.020276892489923478,-0.9472400274578121,0.013932030807984386,-0.04226250259073426,1.9253287987151582
12808,4.0,301.41319,6091.1866,0.0,0.0,0.0,0.0,0.0,0.1276548971495771,-0.8964513120253562,-0.011010107309112989,-0.9441072101361272,0.00020365601522928382,-0.023888601193121375,1.981967250154938
12809,4.0,300.5461,6062.8631,0.0,0.0,0.0,0.0,0.0,0.1276648639591609,-0.8464471358803282,-0.02231535106760368,-0.9741965229857111,0.0026068102158221377,0.03006654511983697,1.9527472450961483
12810,4.0,300.19173,5981.0493,0.0,0.0,0.0,0.0,0.0,0.12767483076874472,-0.8325033047616792,-0.0028153737660557574,-0.982770959439442,0.0035002727744250267,0.04599555711265805,1.996949368783558
12811,4.0,299.56032000000005,5657.0758,0.0,0.0,0.0,0.0,0.0,0.12768479757832857,-0.7832466538779262,0.00948569441986515,-0.9458488452030132,-0.002887012878600987,-0.0024191312700246677,1.9452432161805582
12812,4.0,300.13036,5822.6998,0.0,0.0,0.0,0.0,0.0,0.12769476438791239,-0.8139879222393532,-0.005443207097602714,-0.950524224344437,-0.010439988968096689,0.003353337425748637,1.975938513384948
12813,4.0,299.87212,6041.0053,0.0,0.0,0.0,0.0,0.0,0.1277047311974962,-0.8684962585239071,-0.008461003003710981,-0.9593574854037121,-0.0007767197121662673,0.007831438292577783,1.969008389325998
12814,4.0,300.13245,5962.5227,0.0,0.0,0.0,0.0,0.0,0.12771469800708002,-0.8743607981151922,0.002577880506916998,-0.940675109132405,0.001084735705155079,-0.008006285945733903,1.998948511230858
12815,4.0,299.89682,5730.3582,0.0,0.0,0.0,0.0,0.0,0.12772466481666384,-0.8066247148226612,-0.013473027499434288,-0.9217880563408982,-0.006580149196935164,-0.027045031295136773,1.9519893340213479
12816,4.0,300.50482,6081.8296,0.0,0.0,0.0,0.0,0.0,0.12773463162624765,-0.8851695320994312,0.024941420736026575,-0.9884962278044821,0.01071045683053979,-0.024218991653228376,2.027579311356498
12817,4.0,301.13097,6341.4273,0.0,0.0,0.0,0.0,0.0,0.12774459843583147,-0.9060549876656652,-0.03385514702549287,-0.9877254180559091,0.03311870165406137,0.0044570091540725556,1.973456557264998
12818,4.0,300.56961,5958.2051,0.0,0.0,0.0,0.0,0.0,0.12775456524541529,-0.8516013466215092,0.015629380765999786,-0.9751736203221432,0.009276849490078763,0.001013145755504701,1.997218285360098
12819,4.0,300.28719,5707.6961,0.0,0.0,0.0,0.0,0.0,0.12776453205499913,-0.8159602540890073,0.0072645846433836815,-0.926301416791332,0.014233562891993288,-0.025634397678168077,1.929106397737978
12820,4.0,299.31462,5940.5431,0.0,0.0,0.0,0.0,0.0,0.12777449886458295,-0.8784381671800972,0.01843605010574648,-0.9457746550306911,-0.02822697335128537,-0.002629695583905747,2.009334628730888
12821,4.0,299.96817999999996,5888.7596,0.0,0.0,0.0,0.0,0.0,0.12778446567416676,-0.8164542844402642,0.0016657500311217286,-0.975247344399419,-0.002853381283931807,0.02884577734635657,1.948638718590668
12822,4.0,298.48778,5839.7506,0.0,0.0,0.0,0.0,0.0,0.12779443248375058,-0.8513714503063202,0.0002220553704826588,-0.9239889571481102,-0.030267278070647767,0.01963302575362878,1.999236274259258
12823,4.0,299.61548999999997,6028.5247,0.0,0.0,0.0,0.0,0.0,0.1278043992933344,-0.8234795425511032,-0.02524480200146798,-0.983796642118169,-0.015694905623466586,-0.01149673384188929,1.9546051404795082
12824,4.0,300.35719,5993.7176,0.0,0.0,0.0,0.0,0.0,0.12781436610291821,-0.8563042557681502,-0.01134918740207759,-0.9542870400482981,-0.0026693879340480777,-0.027474146765487175,1.9905537341523583
12825,4.0,299.31352999999996,5948.6448,0.0,0.0,0.0,0.0,0.0,0.12782433291250206,-0.8268354370148042,-0.03959318943454356,-0.9418108611694951,0.00969328443940269,-0.016713040602198685,1.9359521180635981
12826,4.0,299.02171,6165.8711,0.0,0.0,0.0,0.0,0.0,0.12783429972208588,-0.921040308164601,0.014490577832858684,-0.9677211253066391,0.0016858169427271784,-0.010630895419437689,1.9951773970086784
12827,4.0,299.27611,5890.3414,0.0,0.0,0.0,0.0,0.0,0.1278442665316697,-0.8300530735023602,-0.009287141679294522,-0.9511764838313101,-0.013633274015999387,-0.020559058324771083,1.9531054290064982
12828,4.0,299.28282,5466.1995,0.0,0.0,0.0,0.0,0.0,0.1278542333412535,-0.8197842700989083,0.05132551608368405,-0.8931294019700091,0.028788651318968673,0.014144694778722688,1.972069823178138
12829,4.0,300.31428999999997,5852.8991,0.0,0.0,0.0,0.0,0.0,0.12786420015083733,-0.8172664246604162,0.008865335795165522,-0.970734095406496,0.013381324312383888,0.025762917307601975,1.9710504935775381
12830,4.0,300.31942000000004,6089.0121,0.0,0.0,0.0,0.0,0.0,0.12787416696042114,-0.8679024129052992,-0.02518686638725018,-0.957818368634313,0.027681396940941173,0.0027806232393011478,1.9571941971350282
12831,4.0,300.00207,5792.3139,0.0,0.0,0.0,0.0,0.0,0.12788413377000496,-0.8135086144120492,0.005414153468210345,-0.952624337164202,-0.018970967125038683,-0.025533061522416977,1.9498441822346382
12832,4.0,300.91549,5991.1688,0.0,0.0,0.0,0.0,0.0,0.1278941005795888,-0.8785408803427341,0.006921141292838464,-0.949545971902891,0.01970991319771698,0.007427781946890003,1.996681870757158
12833,4.0,300.69455,6028.3614,0.0,0.0,0.0,0.0,0.0,0.12790406738917262,-0.8397059120375213,-0.02353160582513868,-0.9692338165134301,-0.008439733870861882,0.032233389577937865,1.993558122023868
12834,4.0,299.48964,5878.2312,0.0,0.0,0.0,0.0,0.0,0.12791403419875644,-0.8628628007504282,0.015550233774188587,-0.9395229323111942,-0.012382065169764688,0.013918765337675186,1.997828261920298
12835,4.0,299.58333999999996,6291.4432,0.0,0.0,0.0,0.0,0.0,0.12792400100834025,-0.8691023036737191,-0.05062038824634336,-0.992718947596232,-0.03594166202891586,-0.00993279619406566,1.9590902920471582
12836,4.0,299.18903,6283.8972,0.0,0.0,0.0,0.0,0.0,0.12793396781792407,-0.9047776744571041,-0.023954419893117182,-0.981415747563193,-0.02208664937428258,-0.005353695266543584,1.993149376933528
12837,4.0,299.44926,5616.4271,0.0,0.0,0.0,0.0,0.0,0.1279439346275079,-0.7979770102541992,0.025022979263075774,-0.934299577383189,0.013056759027101789,-0.002256735447347448,1.9446751881744981
12838,4.0,299.96316,5484.9274,0.0,0.0,0.0,0.0,0.0,0.1279539014370917,-0.8085773592228722,0.014394261318102987,-0.8730978831905521,0.012492596570173289,-0.025185650487130177,1.983843789340138
12839,4.0,299.64645,5933.6865,0.0,0.0,0.0,0.0,0.0,0.12796386824667555,-0.8272893223970992,0.008565717132645463,-0.984968942086366,-0.012787595217537388,-0.02110679397107838,1.946615764766018
12840,4.0,299.34372,6116.2247,0.0,0.0,0.0,0.0,0.0,0.12797383505625937,-0.8606414930862022,-0.007645391084741353,-0.9908926858809941,0.007051351428739203,0.011078553366618091,1.9807000795798781
12841,4.0,300.4274,5854.39,0.0,0.0,0.0,0.0,0.0,0.12798380186584318,-0.8070593180555532,-0.019168513404284982,-0.9533605241568581,-0.013996237427071088,0.03907778761217736,1.9142451598462882
12842,4.0,299.63844,5897.9583,0.0,0.0,0.0,0.0,0.0,0.127993768675427,-0.8300422114612882,-0.0032272171725515365,-0.959562607753956,0.02135752574807368,0.007404303624847872,1.9783383962467982
12843,4.0,300.54969,6098.3513,0.0,0.0,0.0,0.0,0.0,0.12800373548501082,-0.8649028481042652,-0.04055065505028806,-0.9482930172267342,-0.02998450631224037,-0.017424581299422284,1.955016418695098
12844,4.0,300.36702,6030.0502,0.0,0.0,0.0,0.0,0.0,0.12801370229459463,-0.8754010411978562,0.012501598284061688,-0.970085240439959,0.006588526951411983,0.005970940376335934,2.012170006485718
12845,4.0,299.84762,6151.8636,0.0,0.0,0.0,0.0,0.0,0.12802366910417845,-0.8693937954624871,-0.02231967663228058,-0.9782994563506391,-0.0008040016940237892,0.011481254420111591,2.014367441977588
12846,4.0,299.57383,5907.204000000001,0.0,0.0,0.0,0.0,0.0,0.1280336359137623,-0.8626186784038351,0.002134691701952668,-0.9351585398904622,0.01014792165327189,0.006678834487774644,1.9774917244632382
12847,4.0,300.26322000000005,5519.0052,0.0,0.0,0.0,0.0,0.0,0.1280436027233461,-0.8165429843540182,0.05394939611864086,-0.9150461738855261,-0.013981223087089288,-0.034892583405379866,1.977604499199368
12848,4.0,299.9792,5952.8951,0.0,0.0,0.0,0.0,0.0,0.12805356953292993,-0.8538568717416122,-0.017398590421107186,-0.938276016605633,0.008823250046961982,-0.0005529317448076145,1.9477769493806179
12849,4.0,300.02356000000003,6269.19,0.0,0.0,0.0,0.0,0.0,0.12806353634251375,-0.8985478886022722,-0.0030625523789253872,-1.004066781296176,-0.007813199284152732,0.04019427979136656,1.9790638833183982
12850,4.0,299.43714,5889.5291,0.0,0.0,0.0,0.0,0.0,0.12807350315209756,-0.8316356890985521,-0.004093342040806406,-0.954540757873338,0.01208893799533529,0.0002120777143629408,1.960658093926888
12851,4.0,299.3841,5717.2832,0.0,0.0,0.0,0.0,0.0,0.12808346996168138,-0.7987506368380501,0.0033433029060333072,-0.942504015430404,0.0027792905114446174,-0.021341857861777377,1.970454398543708
12852,4.0,299.47935,6059.8282,0.0,0.0,0.0,0.0,0.0,0.1280934367712652,-0.8718278653827111,-0.006952455077903894,-0.963256137415979,0.014881082394898484,-0.0036434859488590665,1.9941543183827082
12853,4.0,299.23011,6047.3335,0.0,0.0,0.0,0.0,0.0,0.12810340358084904,-0.8420538354342432,-0.03551672418872776,-0.9606678103005312,0.008063492323854731,0.029771818023499673,1.955595389802238
12854,4.0,300.60465,5894.91,0.0,0.0,0.0,0.0,0.0,0.12811337039043286,-0.8319124684958682,-0.028934592770621975,-0.9310583929633092,-0.03251726679220437,0.015465895902115086,1.9595932693967981
12855,4.0,300.60368,5809.2225,0.0,0.0,0.0,0.0,0.0,0.12812333720001667,-0.8206552598848682,0.01042595748071189,-0.9556292823232672,-0.02446653067915858,-0.007907877272171723,1.963312910513898
12856,4.0,300.2385,5787.326999999999,0.0,0.0,0.0,0.0,0.0,0.1281333040096005,-0.8168008463719671,-0.005258497075923255,-0.937143557631368,-0.006208863456167114,0.0041185059043898865,1.989672510540388
12857,4.0,300.33061000000004,6064.3983,0.0,0.0,0.0,0.0,0.0,0.1281432708191843,-0.8337880856234772,-0.023430324384892978,-0.9862072552985781,-0.002191649631148978,0.008258201198846002,1.963864726518358
12858,4.0,300.48982,6524.4379,0.0,0.0,0.0,0.0,0.0,0.12815323762876812,-0.926636822839434,-0.05731390928769245,-0.9993154793247591,0.012680993201016589,-0.016274945709462085,1.964998350730238
12859,4.0,299.71274,6218.5522,0.0,0.0,0.0,0.0,0.0,0.12816320443835194,-0.8612843901421512,-0.036619714810334464,-0.9923804916653292,-0.033405739195389764,-0.03206465303878487,1.9593683278745981
12860,4.0,300.73463,5580.0788,0.0,0.0,0.0,0.0,0.0,0.12817317124793579,-0.8352272655355132,0.03372114166001757,-0.8946984906773661,0.03895428863698896,0.004500207146910865,1.939907745128988
12861,4.0,299.92783,5863.8543,0.0,0.0,0.0,0.0,0.0,0.1281831380575196,-0.8431292078978743,0.008110175795712033,-0.9474462542506651,0.03198488695116257,0.026528952621703773,1.9961016837498982
12862,4.0,301.09992,6289.6229,0.0,0.0,0.0,0.0,0.0,0.12819310486710342,-0.8934269225968721,-0.025715881224709875,-0.9927455251463551,0.01328404115703279,0.0060144320090532236,1.9711192932593282
12863,4.0,299.63272,5971.9262,0.0,0.0,0.0,0.0,0.0,0.12820307167668724,-0.8414337567705462,0.0065575251460523445,-0.9804402106319151,-0.015086244261896383,-0.036432832988390666,2.033200721586288
12864,4.0,299.87416,5735.2399,0.0,0.0,0.0,0.0,0.0,0.12821303848627105,-0.8326455042807133,0.030415950231320574,-0.9411401807958041,-0.017180012109535184,-0.010717008505686389,1.972456884716338
12865,4.0,299.09752000000003,6047.6699,0.0,0.0,0.0,0.0,0.0,0.12822300529585487,-0.8762717675387902,0.012222322238499289,-0.974291190942554,0.009283909918100571,0.007914037630129702,2.0219249704984583
12866,4.0,299.62467000000004,6169.451999999999,0.0,0.0,0.0,0.0,0.0,0.12823297210543871,-0.8817222424767102,-0.043667514696148164,-0.9499695813721981,-0.002391446642842408,0.006500705120194644,1.9358239419259482
12867,4.0,299.92207,6259.7257,0.0,0.0,0.0,0.0,0.0,0.12824293891502253,-0.8811634249140591,-0.017442408421681682,-1.004194481206279,-0.03262479289281637,0.02065078886957418,2.0059637482982082
12868,4.0,299.99922000000004,6158.6847,0.0,0.0,0.0,0.0,0.0,0.12825290572460635,-0.8496772150791122,-0.015720479042740484,-1.0066886672549362,-0.007701402131719213,0.019777099785347783,1.9525800588296482
12869,4.0,298.88481,5543.7462,0.0,0.0,0.0,0.0,0.0,0.12826287253419016,-0.8062215223428691,0.05885242621303224,-0.9377913182877972,0.013056047725531587,0.013444611913629886,1.996035011893318
12870,4.0,300.6547,5683.3459,0.0,0.0,0.0,0.0,0.0,0.12827283934377398,-0.8064239089178432,0.002222652348433708,-0.92339397668939,0.023513940822895277,-0.003964789582069266,1.9555531372730681
12871,4.0,300.19833,6259.6962,0.0,0.0,0.0,0.0,0.0,0.1282828061533578,-0.8773689350120721,-0.01807338155045388,-1.0073490327426091,0.01163637794417109,-0.025137919314669476,1.989394981337998
12872,4.0,300.29421,6028.2748,0.0,0.0,0.0,0.0,0.0,0.12829277296294161,-0.8688999677612501,-0.0008531746403167811,-0.9626918685677901,0.016855076987966587,0.004066069502439817,1.9648285300134782
12873,4.0,299.914,5709.5969,0.0,0.0,0.0,0.0,0.0,0.12830273977252543,-0.8136549783889943,0.014235569127191287,-0.9361554867963531,-0.00036066197558956564,0.007282734891099973,1.9829910380559783
12874,4.0,300.37642999999997,5843.6598,0.0,0.0,0.0,0.0,0.0,0.12831270658210928,-0.8209121593152222,-0.01240360281389029,-0.9430109140579311,0.007497604808630983,-0.0012459245443131788,1.963216347779368
12875,4.0,299.6157,6183.6742,0.0,0.0,0.0,0.0,0.0,0.1283226733916931,-0.8680647153063171,-0.0009483067467655891,-1.010669544512818,-0.02015701993684298,-0.016460775777802087,2.026650161014798
12876,4.0,299.81862,6261.4553,0.0,0.0,0.0,0.0,0.0,0.1283326402012769,-0.8854694135990271,-0.038498262257232664,-0.9793583938976481,-0.007609949014793492,-0.015736812634352483,1.980592776394288
12877,4.0,299.13447,6078.0896,0.0,0.0,0.0,0.0,0.0,0.12834260701086073,-0.8851621759037052,-0.0030167159841516873,-0.9594085937387561,-0.020525213744930878,-0.013700411967625385,2.004303234034328
12878,4.0,300.15626000000003,5928.3534,0.0,0.0,0.0,0.0,0.0,0.12835257382044454,-0.8714250782029592,0.01864643223725958,-0.9492927708354022,-0.00033182850517892364,-0.014933541392325788,1.9701693712905781
12879,4.0,299.78312,5946.8999,0.0,0.0,0.0,0.0,0.0,0.12836254063002836,-0.8485420101970763,0.005617612365765175,-0.964784675854334,-0.0006969369160498184,0.004217647259099376,1.9987284333091382
12880,4.0,299.64907,6035.6559,0.0,0.0,0.0,0.0,0.0,0.1283725074396122,-0.8723092605052211,0.016002318611055884,-0.9783817525237611,4.793499075806525e-05,0.015924520255127785,1.9637413126561785
12881,4.0,299.67618,6142.3842,0.0,0.0,0.0,0.0,0.0,0.12838247424919602,-0.8913853553678851,0.028390466321170874,-1.0041365435655611,0.015892712307988586,0.018489501075021682,2.0403464652665178
12882,4.0,300.64886,5671.4764,0.0,0.0,0.0,0.0,0.0,0.12839244105877984,-0.8120521484533072,0.005840224223335255,-0.9177752819698681,-0.0003164134551800767,0.012396215207411188,1.9702632995748481
12883,4.0,300.06976000000003,5573.503000000001,0.0,0.0,0.0,0.0,0.0,0.12840240786836365,-0.8097335485144792,0.04305676401287176,-0.9275289591549811,0.02026563224156218,-0.016199530517769182,2.017612476747848
12884,4.0,300.57791000000003,6267.9881,0.0,0.0,0.0,0.0,0.0,0.12841237467794747,-0.8717314445031953,-0.060694767194107144,-0.9728856509338382,0.021935251570840777,-0.01893216369920908,1.9553052962986082
12885,4.0,300.8033,6420.416,0.0,0.0,0.0,0.0,0.0,0.1284223414875313,-0.8935977160337282,-0.04974427040162725,-1.008304152684372,-0.024843072654820376,-0.0013511799514510786,2.0011315585713083
12886,4.0,301.36339,6013.6602,0.0,0.0,0.0,0.0,0.0,0.1284323082971151,-0.8327613288996442,-0.03726196743921986,-0.9579792322201891,-0.024387822424640677,0.010331823506671589,1.949813176781578
12887,4.0,301.4807,5752.8648,0.0,0.0,0.0,0.0,0.0,0.12844227510669892,-0.8218504187753212,0.024132196649662374,-0.9510090138547822,-0.03209212326224597,-0.002130062466220798,2.0172661478636678
12888,4.0,299.71064,5821.8432,0.0,0.0,0.0,0.0,0.0,0.12845224191628277,-0.8255957761799593,0.014728347101324686,-0.9588275150714081,-0.0004240280834533136,0.015473864100901485,1.973885060732288
12889,4.0,299.5236,6024.2133,0.0,0.0,0.0,0.0,0.0,0.12846220872586658,-0.8705922676807673,0.02526614206182408,-0.9858842919617041,0.005017842780447526,-0.0064324048693789335,2.0005109428850583
12890,4.0,300.38865,6073.4694,0.0,0.0,0.0,0.0,0.0,0.1284721755354504,-0.8853692335616401,0.003168253109482237,-0.963982050052621,-0.01714331928366388,-0.004586699188696965,1.971641927660908
12891,4.0,299.16013,5924.0316,0.0,0.0,0.0,0.0,0.0,0.12848214234503422,-0.8329708082253182,0.012271642187116788,-0.980058509186744,-0.0004997122525177596,-0.004549572590457855,2.0049686353749983
12892,4.0,299.16417,5723.4686,0.0,0.0,0.0,0.0,0.0,0.12849210915461803,-0.8145102627984042,0.010023396661032231,-0.9353046708198841,-0.0024372998575677676,0.009387019565501701,1.9718671731581379
12893,4.0,300.43132,6153.9788,0.0,0.0,0.0,0.0,0.0,0.12850207596420185,-0.8621742871749771,-0.04243738753149406,-0.966044226788642,0.025963158832114273,0.03929123989149347,1.9994536164057082
12894,4.0,300.38813999999996,6451.6171,0.0,0.0,0.0,0.0,0.0,0.1285120427737857,-0.9152602736316561,-0.04531150183764705,-1.000558737197459,-0.003817978153880106,0.025938642232694677,1.9855708741355877
12895,4.0,300.07232999999997,6157.1782,0.0,0.0,0.0,0.0,0.0,0.1285220095833695,-0.8922503467132531,-0.03041070564880297,-0.948967365565787,0.006555043595232433,-0.0011313579767063388,1.9949294547092082
12896,4.0,301.17076000000003,5812.7074,0.0,0.0,0.0,0.0,0.0,0.12853197639295333,-0.8281817728201771,0.001278018126655569,-0.940014145827173,-0.012662871222978088,-0.025542412807589877,1.9715242893242981
12897,4.0,300.61787000000004,5992.4229,0.0,0.0,0.0,0.0,0.0,0.12854194320253715,-0.8269467932007942,-0.009973805870663,-0.9846263318300531,-0.010295858194372091,-0.036668622366161266,1.990196259517078
12898,4.0,300.5317,6107.0611,0.0,0.0,0.0,0.0,0.0,0.12855191001212096,-0.8423224277707512,-0.017704610189808984,-0.9963670431237711,-0.023691184609887877,-0.01028502047130249,1.9663411097627583
12899,4.0,299.8909,5936.8853,0.0,0.0,0.0,0.0,0.0,0.12856187682170478,-0.8351040745883552,0.005018406958103206,-0.9745792275484811,-0.024916088470276477,0.0033520491795714967,1.976455676235988
12900,4.0,299.23786,5787.7082,0.0,0.0,0.0,0.0,0.0,0.1285718436312886,-0.8226378458255342,0.001990589299230868,-0.9386715083846651,-0.000902679608402541,0.04517094682352536,1.9711667133640083
12901,4.0,299.2159,5746.4287,0.0,0.0,0.0,0.0,0.0,0.12858181044087244,-0.8662640381561042,0.012496597894818188,-0.8930033941875732,0.01101336896118489,0.013749026694173288,1.977357266174968
12902,4.0,300.3257,5964.5843,0.0,0.0,0.0,0.0,0.0,0.12859177725045626,-0.8445834852364003,-0.027366355193348974,-0.9411348409677771,0.03830621083327867,0.015214838871837687,1.9840709600125583
12903,4.0,299.66033999999996,6245.6196,0.0,0.0,0.0,0.0,0.0,0.12860174406004007,-0.871218223195044,-0.05317994919145235,-0.97411423694509,0.007449125046996404,-0.014782259099395385,1.982177499550688
12904,4.0,299.31782999999996,6314.1301,0.0,0.0,0.0,0.0,0.0,0.1286117108696239,-0.8678990489149673,-0.019803890117991784,-1.031634915114439,0.017243017014003284,-0.022802205581652475,2.0073220100572584
12905,4.0,299.87911,5902.8459,0.0,0.0,0.0,0.0,0.0,0.1286216776792077,-0.8269240558685502,-0.016571146071444783,-0.950822565703881,0.0021382099089498883,-0.012375851920151488,1.9784160112044582
12906,4.0,299.86457,5840.4479,0.0,0.0,0.0,0.0,0.0,0.12863164448879152,-0.8318900554036562,0.01942283816613488,-0.962883109391664,-0.016514210535075683,0.00015222168723061084,2.0002849881127585
12907,4.0,300.81535,6118.5183,0.0,0.0,0.0,0.0,0.0,0.12864161129837534,-0.9142272550222051,0.018144039532927283,-0.96379357540152,-0.003529465928356167,0.0026004655476709678,1.9952267422885481
12908,4.0,301.24503,5939.3495,0.0,0.0,0.0,0.0,0.0,0.12865157810795919,-0.8599832959537432,0.01955839988376378,-0.9649890585320051,-0.04449567845338155,0.0006803358770739233,2.008435470592148
12909,4.0,299.8142,5724.4984,0.0,0.0,0.0,0.0,0.0,0.128661544917543,-0.8017690987534493,0.0033638852579646267,-0.9416993529959901,-0.006446995366843904,0.0007221405598322244,1.9674783816749981
12910,4.0,299.78735,5972.4366,0.0,0.0,0.0,0.0,0.0,0.12867151172712682,-0.8364737759410341,0.005756683475115425,-0.9847544978352021,-0.0013143643196676588,-0.012824524130681988,2.008821012255198
12911,4.0,299.54299,6241.6893,0.0,0.0,0.0,0.0,0.0,0.12868147853671064,-0.8655782299584202,-0.047472530240173956,-0.9842669117545809,0.013516386497713489,-0.006540114165609014,1.9401829438561484
12912,4.0,298.53317999999996,6142.432,0.0,0.0,0.0,0.0,0.0,0.12869144534629445,-0.8895045301347622,-0.014886085823892286,-0.9627553284215531,0.020457684678766283,-0.005530960230463275,1.9982404520609782
12913,4.0,298.64267,6015.5131,0.0,0.0,0.0,0.0,0.0,0.12870141215587827,-0.8955214017460812,-0.023440679800914976,-0.9096036934908951,0.017304318645053284,0.0027565002875453975,1.9655018347049285
12914,4.0,298.67439,5951.5163,0.0,0.0,0.0,0.0,0.0,0.1287113789654621,-0.8296484523399272,-0.029346029053227574,-0.950117850259331,0.027696204577902575,0.005341029842943604,2.0150383148687983
12915,4.0,298.86446,5640.6708,0.0,0.0,0.0,0.0,0.0,0.12872134577504593,-0.7869269606261442,0.02147730710864518,-0.9491734403711252,-0.008362576598272052,-0.02988568605648757,1.9617921234388083
12916,4.0,300.06618,5951.3291,0.0,0.0,0.0,0.0,0.0,0.12873131258462975,-0.7939071696375373,-0.0042747969965396156,-1.010873461095443,0.005158303562309925,0.002000822517290808,2.030266855921738
12917,4.0,300.82631000000003,6066.4162,0.0,0.0,0.0,0.0,0.0,0.12874127939421356,-0.8328111909370651,-0.007240615806968143,-1.003987231030825,-0.021452725661219182,-0.004279684915022016,1.953696153814798
12918,4.0,299.8323,5898.3832,0.0,0.0,0.0,0.0,0.0,0.12875124620379738,-0.8500560287614982,0.008586861737057272,-0.9514920605749552,-0.0037148538143525266,0.016091728813129983,2.003229898203398
12919,4.0,300.25005,6091.1385,0.0,0.0,0.0,0.0,0.0,0.1287612130133812,-0.9154130616142352,-0.016834479639933786,-0.9193064751234851,-0.020754377480297584,0.02079762907406618,1.9431680799757582
12920,4.0,299.91966,6331.2193,0.0,0.0,0.0,0.0,0.0,0.12877117982296502,-0.8876757150292721,-0.016677395476930784,-1.0201794134588689,0.005043712372725656,0.02073280437241848,1.983724124503328
12921,4.0,300.5519,6109.5365,0.0,0.0,0.0,0.0,0.0,0.12878114663254886,-0.8731662066447953,-0.026598273114045175,-0.9573820631412532,0.01103048174212379,0.006355223380111714,1.959594890596958
12922,4.0,300.30622999999997,5928.819,0.0,0.0,0.0,0.0,0.0,0.12879111344213268,-0.8043838716965073,0.005805326673991134,-1.0036343970810029,0.0018653162244423784,-0.03140337765252207,1.984225379327798
12923,4.0,301.83829,5879.2676,0.0,0.0,0.0,0.0,0.0,0.1288010802517165,-0.8333445353922023,-0.004525379724445206,-0.9492806320992041,0.017271710230335087,-0.035653778423753966,1.982120554895068
12924,4.0,300.67332000000005,5867.6252,0.0,0.0,0.0,0.0,0.0,0.1288110470613003,-0.8495964590461421,0.005231352511044295,-0.939246446756407,0.017782043775701084,-0.027481568822469674,2.015138018678638
12925,4.0,301.3141,6113.0559,0.0,0.0,0.0,0.0,0.0,0.12882101387088413,-0.8925068915060721,-0.03175233896046187,-0.9339571292468921,0.03304183143522487,0.00963662339248568,1.9945767423493979
12926,4.0,299.94696,6338.429,0.0,0.0,0.0,0.0,0.0,0.12883098068046794,-0.8751455704501432,-0.032543411684534666,-1.0190351501209391,-0.006461951850244994,0.015482680390021587,2.010739094694498
12927,4.0,300.10796,6108.7697,0.0,0.0,0.0,0.0,0.0,0.12884094749005176,-0.8565897592488271,-0.02817765846891837,-0.9721460391558442,-0.03040135841663047,0.023199326666845276,1.979025379814598
12928,4.0,299.27767,5845.6198,0.0,0.0,0.0,0.0,0.0,0.12885091429963558,-0.7852912912547163,0.02039167650100178,-1.012022841346378,-0.028924055982832073,0.006865634135135333,1.9947765552691181
12929,4.0,299.55685,6161.9296,0.0,0.0,0.0,0.0,0.0,0.12886088110921942,-0.8583042594780351,-0.024839920433759276,-0.9899285581458421,-0.020810289634065678,0.008507368517686902,1.9538483439798182
12930,4.0,299.69673,6319.656999999999,0.0,0.0,0.0,0.0,0.0,0.12887084791880324,-0.9279121298127971,0.0012400744435358188,-0.9943458827517979,-0.0037004574556067163,-0.002384273541409478,2.007966031820818
12931,4.0,300.26241,5863.2517,0.0,0.0,0.0,0.0,0.0,0.12888081472838706,-0.8689066653444111,0.00946207981568457,-0.9228375199994721,-0.009439569046162931,-0.0024729284668590376,1.9463522184150082
12932,4.0,300.68016,5706.6827,0.0,0.0,0.0,0.0,0.0,0.12889078153797087,-0.8327519563362191,0.024183835927758773,-0.9261209164185181,0.013798743836829986,0.013870126293124885,1.996255697765098
12933,4.0,300.49213,5764.0473,0.0,0.0,0.0,0.0,0.0,0.1289007483475547,-0.8258582180883602,0.021777731710294776,-0.9480459665873521,0.013388875052129087,0.013323730163449787,1.9841704611723783
12934,4.0,300.12632,6015.6098,0.0,0.0,0.0,0.0,0.0,0.1289107151571385,-0.7978787452595013,-0.021356936036515478,-1.009359493193526,0.022253245929224376,0.014443969341508787,2.0115819161276782
12935,4.0,299.85728,6373.899,0.0,0.0,0.0,0.0,0.0,0.12892068196672235,-0.876395232063475,-0.04196070807494946,-1.019150154007289,0.013826341729803685,-0.003133580805635347,1.9951606783820282
12936,4.0,299.53472999999997,6287.7952,0.0,0.0,0.0,0.0,0.0,0.12893064877630617,-0.9101991501771621,-0.0019067686913334183,-0.999226809808508,0.022084690761839276,-0.016910762173712283,2.036935054829838
12937,4.0,298.57585,6016.1567,0.0,0.0,0.0,0.0,0.0,0.12894061558588998,-0.8781074828774611,-0.009015722577657542,-0.9416382033524551,0.0075562606410198635,-0.020181504112259382,1.9988827512993679
12938,4.0,300.22477000000003,6259.8572,0.0,0.0,0.0,0.0,0.0,0.1289505823954738,-0.8862472249057912,-0.005820099353824084,-1.010772956818024,0.008606305702501241,-0.012655302244731088,2.0109913939693977
12939,4.0,299.89117000000005,6385.6577,0.0,0.0,0.0,0.0,0.0,0.12896054920505762,-0.896616603514169,-0.025563381005159272,-1.018900489182649,-0.015941039271508087,0.013862195584592184,1.9981766173046782
12940,4.0,299.75363,6064.5419,0.0,0.0,0.0,0.0,0.0,0.12897051601464143,-0.8149270328295363,-0.016536167664742682,-1.012006092322225,-0.026959467390442273,0.03032751173609237,1.9708520992079583
12941,4.0,300.02465,5617.6125,0.0,0.0,0.0,0.0,0.0,0.12898048282422525,-0.8374555342279262,0.032399395408071366,-0.9025577853430182,-0.026249415157615575,0.018871079916930582,1.9897663374996482
12942,4.0,300.20418,5788.7835,0.0,0.0,0.0,0.0,0.0,0.12899044963380907,-0.8709584866644102,0.02284023488440568,-0.9115273893357492,-0.0031119764896531668,0.01874101305459398,1.979161459303028
12943,4.0,300.18535,6116.5663,0.0,0.0,0.0,0.0,0.0,0.1290004164433929,-0.9082606507483472,-0.02168724037036398,-0.9293355232882752,0.007804567913175883,0.005776771259672934,1.9839701416276083
12944,4.0,300.25807000000003,6179.7771,0.0,0.0,0.0,0.0,0.0,0.12901038325297673,-0.8707957586983502,-0.015144396711635586,-0.9925577699028251,0.011203494196698789,-0.005091157302033105,2.0009288072262983
12945,4.0,299.3196,6192.2876,0.0,0.0,0.0,0.0,0.0,0.12902035006256055,-0.8486235160351202,-0.034972045517972165,-0.9987052595845352,-0.003528867908147147,-0.004824887942704365,1.984443228099298
12946,4.0,300.05536,6108.9496,0.0,0.0,0.0,0.0,0.0,0.12903031687214436,-0.8084188565097293,-0.00933810542354925,-1.0392111887621591,-0.0029605220455307772,-0.0013151379361190088,2.0193681351961184
12947,4.0,298.74506,6009.3797,0.0,0.0,0.0,0.0,0.0,0.12904028368172818,-0.8736971192996922,0.0010175426327236389,-0.954021811702122,0.014094836794302087,-0.006421755813477954,2.0033028522105982
12948,4.0,299.21539,6252.1206,0.0,0.0,0.0,0.0,0.0,0.129050250491312,-0.8881543135815062,-0.03519564752353997,-0.9771385655785682,0.013549131701195186,-0.009298764367216591,2.023469670275908
12949,4.0,299.86383,6106.0976,0.0,0.0,0.0,0.0,0.0,0.12906021730089584,-0.9248819648587432,0.012730680959420388,-0.9439499131906032,0.01076939758885679,-0.02195683075822048,2.003368004192028
12950,4.0,300.70432,5806.7066,0.0,0.0,0.0,0.0,0.0,0.12907018411047966,-0.8393142503438672,0.013651922884089885,-0.939431486489669,-0.025129886267876676,-0.013195452700789789,1.985559424409458
12951,4.0,300.55368,5884.0856,0.0,0.0,0.0,0.0,0.0,0.12908015092006347,-0.8386374600720732,0.013112300331333288,-0.963089944134577,-0.01149803485501769,0.005383713510031155,1.9606362077247284
12952,4.0,300.88353,6278.6477,0.0,0.0,0.0,0.0,0.0,0.1290901177296473,-0.8651241520586062,-0.02132477953134188,-1.022103170098729,-0.014915651448560186,0.02366035951534568,1.9732318183928181
12953,4.0,300.03845,6301.8944,0.0,0.0,0.0,0.0,0.0,0.1291000845392311,-0.9272252678350091,-0.01113477861466709,-0.9772584735954021,-0.015749505618355183,0.02041531967883518,2.0158044332694085
12954,4.0,300.09513,5990.7423,0.0,0.0,0.0,0.0,0.0,0.12911005134881492,-0.8725203914285582,0.017934365663234083,-0.966450063851195,-0.004392409393947055,0.0021724798511820677,2.0057627194783683
12955,4.0,299.78404,5975.1337,0.0,0.0,0.0,0.0,0.0,0.12912001815839874,-0.8765578181745212,0.013264080130062788,-0.9529977096935511,0.01869678570097908,-0.03349992788493547,2.050858732403998
12956,4.0,300.1161,6178.3037,0.0,0.0,0.0,0.0,0.0,0.1291299849679826,-0.8591447605684862,0.007931588033786793,-1.026836871915909,0.03955701235297317,-0.03301184835151577,2.015292640643898
12957,4.0,299.79646,6282.4922,0.0,0.0,0.0,0.0,0.0,0.1291399517775664,-0.8342625602478043,-0.03527463239533517,-1.040183604883129,0.013564481426960089,-0.016810528434069986,2.037034555989658
12958,4.0,299.62293,6038.8446,0.0,0.0,0.0,0.0,0.0,0.12914991858715022,-0.8207926667309293,-0.030992193669191374,-0.9838731121032162,0.0016574342875510285,0.01192977869612749,1.9712458481968183
12959,4.0,299.7513,5731.6218,0.0,0.0,0.0,0.0,0.0,0.12915988539673404,-0.8423969928456103,0.04698090939765476,-0.9468538170496961,-0.014218130079720188,0.026220488893760774,2.0249161861186677
12960,4.0,300.17517000000004,5660.5685,0.0,0.0,0.0,0.0,0.0,0.12916985220631785,-0.8103391377017461,-0.0007885280173741564,-0.9095438104099852,-0.012878396611998787,0.03423254215773887,1.9437976122628882
12961,4.0,300.0771,5965.7116,0.0,0.0,0.0,0.0,0.0,0.12917981901590167,-0.8923348112415891,0.03236019580145267,-0.9534527501809602,-0.0025904931401867677,0.006005542664600915,2.012945750762278
12962,4.0,300.22371,6172.9093,0.0,0.0,0.0,0.0,0.0,0.1291897858254855,-0.8952008499444453,0.007061436003009473,-0.98827086071724,-0.02117350027816178,-0.014235215502906386,1.9745172274696783
12963,4.0,299.66992999999997,6061.4749,0.0,0.0,0.0,0.0,0.0,0.12919975263506933,-0.8412634192962353,-0.007861146380209743,-0.9934124463621751,0.004589105151059415,-0.015417838463122184,2.0030874352393377
12964,4.0,300.33754,5952.7871,0.0,0.0,0.0,0.0,0.0,0.12920971944465315,-0.8432033778051943,0.014682386076788685,-0.9809776486174561,0.01054300813226389,-0.007085993031108063,1.981227374931918
12965,4.0,300.88768999999996,6306.928000000001,0.0,0.0,0.0,0.0,0.0,0.12921968625423697,-0.9130677321377692,-0.005973900383853064,-0.9981070063279921,0.009377897072201382,0.01894484655071078,2.060299892860768
12966,4.0,300.99667999999997,6411.28,0.0,0.0,0.0,0.0,0.0,0.12922965306382078,-0.9155337093036421,-0.03172504808226847,-1.0016102780187381,0.01034505249997719,-0.006963744203893043,2.007307723230848
12967,4.0,301.30348,6008.5029,0.0,0.0,0.0,0.0,0.0,0.1292396198734046,-0.8812166509418122,0.03973335434737676,-0.9849515648471511,-0.005583466445345234,0.004246422751339296,2.046077813132158
12968,4.0,301.29276,5796.5358,0.0,0.0,0.0,0.0,0.0,0.12924958668298842,-0.8073721488914272,0.005769207347676434,-0.9603992179640232,0.0038825208680249765,0.0035474338923794663,1.9879514039205282
12969,4.0,299.60384,5944.3687,0.0,0.0,0.0,0.0,0.0,0.12925955349257223,-0.8067387054589112,0.008039270174914192,-1.008240216603062,-0.014873437422893985,-0.008754430910770062,1.9983650818232783
12970,4.0,299.7718,6175.2399,0.0,0.0,0.0,0.0,0.0,0.12926952030215608,-0.8848830558986582,-0.019569554754114683,-0.9726661302996731,-0.002188577456845778,0.004602788891009896,1.9552766213207782
12971,4.0,299.5002,6224.7768,0.0,0.0,0.0,0.0,0.0,0.1292794871117399,-0.90101199125546,-0.012757147052032387,-0.9784075802688101,-0.028784527391061677,0.004813516338157076,2.002263257607998
12972,4.0,299.89457999999996,5927.5171,0.0,0.0,0.0,0.0,0.0,0.1292894539213237,-0.8526365031886712,-0.0001978320360395018,-0.948982848027315,-0.006651977280624044,0.02141247835399708,1.9892657919502483
12973,4.0,300.16502,5969.6978,0.0,0.0,0.0,0.0,0.0,0.12929942073090753,-0.8736972611547061,0.009288511188129681,-0.9502303210204311,-0.011951495685520789,-0.001013714472520829,2.056547625090448
12974,4.0,299.23705,6167.286999999999,0.0,0.0,0.0,0.0,0.0,0.12930938754049134,-0.8431777527101653,-0.014703908522162789,-1.016819577452279,0.016763114408890584,0.009822666547321711,2.0150981979497082
12975,4.0,298.63526,6413.764,0.0,0.0,0.0,0.0,0.0,0.12931935435007516,-0.8929704534268222,-0.005694725865950684,-1.050958911746569,0.015504086311634186,-0.004951358071160996,2.036090612196498
12976,4.0,299.71788,6203.3183,0.0,0.0,0.0,0.0,0.0,0.12932932115965898,-0.8516222905010762,-0.06135593922885974,-0.972675644718112,-0.0013461458209792488,-0.012986719127189386,1.9692374851736083
12977,4.0,299.93729,5725.8445,0.0,0.0,0.0,0.0,0.0,0.12933928796924282,-0.8505774067329542,0.021329363474794277,-0.9112657073649231,0.012914683124579988,-0.015623819036200885,1.994352307452248
12978,4.0,300.06146,5945.8078,0.0,0.0,0.0,0.0,0.0,0.12934925477882664,-0.8308765317261293,-0.02074478301510068,-0.955755776465751,-0.020430855842618483,-0.007958824905749862,1.9568971122057082
12979,4.0,300.43044,6157.8587,0.0,0.0,0.0,0.0,0.0,0.12935922158841046,-0.904564152263531,-0.0007558343883225464,-0.966515296892633,0.024961080827716874,0.018543846744135183,2.0135865301255182
12980,4.0,300.99066,6086.4973,0.0,0.0,0.0,0.0,0.0,0.12936918839799427,-0.8007821526260452,-0.014879161272708885,-1.0344818439204089,-0.014613211492461687,0.000941583173739524,1.9886690889663583
12981,4.0,300.89765,6113.8224,0.0,0.0,0.0,0.0,0.0,0.1293791552075781,-0.8685747752741562,-0.01986691427421178,-0.970007645747301,0.009371472255967302,0.017511651907015483,2.020946981501938
12982,4.0,300.21386,6221.5923,0.0,0.0,0.0,0.0,0.0,0.1293891220171619,-0.8952688795561592,-0.005227256751490075,-0.990712560410717,-0.02391302254703158,-0.005005014223581445,2.0152123912359783
12983,4.0,298.92274,6361.6981,0.0,0.0,0.0,0.0,0.0,0.12939908882674572,-0.9443425678693552,0.002617953332471878,-0.992072737212456,-0.0067728851726567224,-0.0032505020651495773,2.005284870731208
12984,4.0,298.93663,6388.0046,0.0,0.0,0.0,0.0,0.0,0.12940905563632957,-0.9027622186831941,-0.045514069784388954,-0.9935175811925511,-0.008494550599946872,-0.013065196360684489,2.0268971913891782
12985,4.0,299.3211,6083.8801,0.0,0.0,0.0,0.0,0.0,0.12941902244591338,-0.8782957852760452,0.013484199595036887,-0.984536041113642,-0.006084287497447424,-0.014493500046147087,2.0375287180634283
12986,4.0,300.35567000000003,5710.2681,0.0,0.0,0.0,0.0,0.0,0.1294289892554972,-0.7575206492714673,-0.006206169325476223,-0.9720521007390731,0.02062886416391038,0.0016527657377152782,2.007931885292448
12987,4.0,300.0797,5830.6301,0.0,0.0,0.0,0.0,0.0,0.12943895606508102,-0.8241833967330682,0.011757596093384387,-0.9599401548737172,0.0098686132850313,-0.024873223938046078,1.9848301883124881
12988,4.0,299.94812,6292.9055,0.0,0.0,0.0,0.0,0.0,0.12944892287466483,-0.87693808080455,-0.02215714017048948,-1.013790871578369,0.014542956783528087,-0.017388419416603382,1.975850157976228
12989,4.0,299.66435,6240.0235,0.0,0.0,0.0,0.0,0.0,0.12945888968424865,-0.8758607325032242,-0.04936977721766766,-0.971580817852561,-0.005409301418781485,-0.027447966409403373,1.9591356856516382
12990,4.0,298.98811,5947.4628,0.0,0.0,0.0,0.0,0.0,0.1294688564938325,-0.8481879299496312,-0.0033980082789323066,-0.9562942580988951,-0.016740564527915083,0.008244308425399893,1.9944039832073481
12991,4.0,298.99683,6148.6613,0.0,0.0,0.0,0.0,0.0,0.1294788233034163,-0.8663684839764121,-0.00904982117929781,-0.993621206280278,-0.01015436085765739,0.023678294042115678,2.039369996145148
12992,4.0,299.70029,6127.147,0.0,0.0,0.0,0.0,0.0,0.12948879011300013,-0.8235156547846673,-0.025774417696236975,-1.0132096206585042,0.011784090556999189,0.034254137557120166,2.0140542463716784
12993,4.0,298.67351,6101.0163,0.0,0.0,0.0,0.0,0.0,0.12949875692258395,-0.8551924974934282,0.01049929753619999,-1.0098634128657589,0.028210961973205176,0.029762018881782575,2.062871217639538
12994,4.0,299.13237000000004,6287.1018,0.0,0.0,0.0,0.0,0.0,0.12950872373216776,-0.8807848442791962,-0.042503262973495465,-0.98783384594911,-0.023804698005340776,-0.012294219425844988,1.976282309143878
12995,4.0,299.65972,6046.9039,0.0,0.0,0.0,0.0,0.0,0.12951869054175158,-0.8686151938206451,-0.014567567615206986,-0.9549250228412621,0.002152596033869688,-0.02919640646396097,1.9886616922406284
12996,4.0,300.64704,5958.7761,0.0,0.0,0.0,0.0,0.0,0.1295286573513354,-0.8869751539101323,0.02086608729057248,-0.9452100923399731,-0.02059425356699458,-0.033291202417335866,1.968588903784598
12997,4.0,300.33108,6209.5967,0.0,0.0,0.0,0.0,0.0,0.1295386241609192,-0.8656440810824192,-0.03222433720154447,-0.9896939096876841,0.009517891759017781,-0.006953772607008924,1.9973949961775381
12998,4.0,299.52075,6006.6141,0.0,0.0,0.0,0.0,0.0,0.12954859097050306,-0.8375543767751813,0.024225488612869578,-1.012531796871608,0.003407937825937277,0.0007984156259574873,1.9879064156160882
12999,4.0,299.66508,5803.804,0.0,0.0,0.0,0.0,0.0,0.12955855778008687,-0.8166155127961762,-0.0037623467717147157,-0.9438336224766262,-0.00947604412458774,0.010149536773931291,2.015066787196608
13000,4.0,300.13174,6027.9084,0.0,0.0,0.0,0.0,0.0,0.1295685245896707,-0.8541271967357912,-0.008798448724264281,-0.969407984073119,0.012684427105605488,0.03828025643196716,1.988105417935728
13001,4.0,300.5926,6293.1089,0.0,0.0,0.0,0.0,0.0,0.1295784913992545,-0.896682333048156,-0.02886780743003077,-0.9873978342985791,-0.013177727916790486,0.004313915948450355,2.003695587949358
13002,4.0,300.19506,6261.9584,0.0,0.0,0.0,0.0,0.0,0.12958845820883833,-0.8975010999239622,-0.05547217524342745,-0.95050571226511,0.026848422272232973,-0.009053424094003391,2.0098068032774883
13003,4.0,299.10278999999997,6183.5099,0.0,0.0,0.0,0.0,0.0,0.12959842501842214,-0.8565486820897732,-0.029921193379741872,-0.9931627207425291,-0.03698097494798806,-0.005900743118683004,1.9971921435075182
13004,4.0,298.59406,6170.0819,0.0,0.0,0.0,0.0,0.0,0.129608391828006,-0.8370261492330492,-0.02963998810598907,-1.008884684196666,-0.0022050953586509677,0.008231968964357081,2.023874362365848
13005,4.0,300.22041,6050.981,0.0,0.0,0.0,0.0,0.0,0.1296183586375898,-0.8411529041078282,-0.011085953132098389,-0.9871082575525,-0.03568236930182567,0.007264230411148724,1.9885442565540379
13006,4.0,299.85463,6106.6517,0.0,0.0,0.0,0.0,0.0,0.12962832544717362,-0.8398507561393161,-0.028104859488983676,-0.9883140150389991,-0.005807635972294045,0.021834514245898776,1.965328670262838
13007,4.0,300.67906,6192.5662,0.0,0.0,0.0,0.0,0.0,0.12963829225675744,-0.9155636711090991,-0.028004641961342974,-0.938817193484043,-0.007363809996526463,-0.004194039646344486,1.949206949246748
13008,4.0,300.23778,5944.1589,0.0,0.0,0.0,0.0,0.0,0.12964825906634125,-0.8596625617670892,0.024633816244168376,-0.9718471303763441,-0.004343380653408295,-0.026579158150908676,1.9900996967825482
13009,4.0,300.29327,5926.1374,0.0,0.0,0.0,0.0,0.0,0.12965822587592507,-0.8453680042588262,-0.0066333571888363835,-0.949396436453133,0.02317010757371158,-0.03789540377898517,1.9906537419372283
13010,4.0,300.70327000000003,6272.9662,0.0,0.0,0.0,0.0,0.0,0.1296681926855089,-0.8554886603651571,-0.03625486878057697,-1.015081549555749,0.03623517930463377,-0.025594717791001975,2.019573115691348
13011,4.0,300.92405,6355.974,0.0,0.0,0.0,0.0,0.0,0.1296781594950927,-0.896787670528552,-0.027231094410999773,-1.008038630495667,0.03348603318631417,0.028683377673328972,2.0401123031684083
13012,4.0,299.35787,6185.5074,0.0,0.0,0.0,0.0,0.0,0.12968812630467655,-0.8367271999235453,-0.053684339011731745,-0.9898282767834451,-0.02226164982555378,0.03128320720391217,2.010409484436968
13013,4.0,299.34366,6246.5381,0.0,0.0,0.0,0.0,0.0,0.12969809311426037,-0.912627545896826,-0.024855114119008773,-0.9613089341688051,-0.04354416872172486,0.028583929202514173,2.007130404463348
13014,4.0,299.51725,6266.9751,0.0,0.0,0.0,0.0,0.0,0.12970805992384418,-0.8740810802925862,-0.03473148069248027,-0.996191386086435,-0.038971885751475664,0.008373657602690663,1.9916486522104182
13015,4.0,299.92132999999995,5849.2467,0.0,0.0,0.0,0.0,0.0,0.129718026733428,-0.8305869955100541,-0.005981015122080235,-0.9414569531745671,0.0005345265937636675,-0.02139304928332958,1.971804149001918
13016,4.0,300.48857000000004,5805.4877,0.0,0.0,0.0,0.0,0.0,0.12972799354301182,-0.8255920575520923,0.028553982595808675,-0.967685205590594,0.009044839535181162,-0.0016883278777999884,1.9987700778882482
13017,4.0,300.15397,5919.8768,0.0,0.0,0.0,0.0,0.0,0.12973796035259563,-0.8522046458635503,0.02103738431272818,-0.968327474431481,0.014925294549761886,-0.006612794696607024,1.9715734319541482
13018,4.0,299.73555,6018.0004,0.0,0.0,0.0,0.0,0.0,0.12974792716217948,-0.8504471129025951,-0.0006435394261148965,-0.978231193691402,0.026395026289736275,0.017483705456007383,2.002093538216248
13019,4.0,300.87127000000004,6207.4553,0.0,0.0,0.0,0.0,0.0,0.1297578939717633,-0.9126152450406121,-0.01086663413470329,-0.9634295349055921,0.02378915373555668,0.01953853207580298,1.981225449756728
13020,4.0,300.16303,6284.0056,0.0,0.0,0.0,0.0,0.0,0.1297678607813471,-0.8799882067855742,-0.013205054258737386,-1.016987472993849,-0.006401805830934044,-0.008894465013015352,2.036305927842748
13021,4.0,299.49695,6195.7319,0.0,0.0,0.0,0.0,0.0,0.12977782759093093,-0.8785471219633502,0.0025411678213437374,-1.0073418487994,-0.007254822079995193,-0.013615121640457887,2.004682898846798
13022,4.0,300.32284,6335.6309,0.0,0.0,0.0,0.0,0.0,0.12978779440051474,-0.884625153350705,-0.02643699308237808,-1.014811417079089,-0.011705484640741387,-0.006769255305498483,2.054008622989868
13023,4.0,299.7132,6247.7207,0.0,0.0,0.0,0.0,0.0,0.12979776121009856,-0.8642469409170321,-0.03006910965584007,-1.0048350579194991,0.015007661650390886,0.004975380913806865,2.013547013371618
13024,4.0,299.54264,6024.3511,0.0,0.0,0.0,0.0,0.0,0.12980772801968238,-0.8558762893234131,-0.008262453505540673,-0.9671135704141781,-0.025757565320573772,-0.007237259821311933,2.0208806136203883
13025,4.0,299.82781,6025.7707,0.0,0.0,0.0,0.0,0.0,0.12981769482926622,-0.8738439392391821,-0.006539684142266574,-0.951300211801021,-0.02106624876832688,-0.0014312340047517985,1.997592579947038
13026,4.0,299.44437,6166.1572,0.0,0.0,0.0,0.0,0.0,0.12982766163885004,-0.8592383139502191,-0.015742372337651182,-0.9993771355933442,-0.03271746474696237,0.008415525198147674,1.9828022695623482
13027,4.0,299.97361,6213.3969,0.0,0.0,0.0,0.0,0.0,0.12983762844843386,-0.8783560736569952,0.005627884087328915,-1.015989320320339,-0.0096050709870217,0.01988224373497468,2.026711259995828
13028,4.0,300.5744,6051.7364,0.0,0.0,0.0,0.0,0.0,0.12984759525801767,-0.8497309983944202,0.008622059816381053,-0.998467814556101,0.014974750273892785,-0.008921967052529591,1.987140195890468
13029,4.0,300.15357,6134.391,0.0,0.0,0.0,0.0,0.0,0.1298575620676015,-0.8684762772319352,-0.003001192485994637,-0.993224214891098,0.022620509573720478,-0.01131848288429729,2.0202529051834377
13030,4.0,300.62059,6448.4635,0.0,0.0,0.0,0.0,0.0,0.1298675288771853,-0.9089736951087191,-0.04015782609251886,-1.0110403535194141,0.018622921795189283,0.01134721561738299,1.985857522588878
13031,4.0,300.69658,6472.1286,0.0,0.0,0.0,0.0,0.0,0.12987749568676912,-0.9211291803308721,-0.04357845203885836,-1.002657867164627,-0.024092016216946878,0.002140921568867508,2.0281442996122583
13032,4.0,299.82405,6242.338000000001,0.0,0.0,0.0,0.0,0.0,0.12988746249635297,-0.8402095479997262,-0.03283358320842237,-1.024471743532489,-0.007313248309911413,-0.002279541579273238,1.994426578684578
13033,4.0,298.81485,5924.8304,0.0,0.0,0.0,0.0,0.0,0.12989742930593678,-0.8293713385700782,0.003456272794132567,-0.975085447298441,-0.0028587022655069474,0.006841697722722993,2.020419888799918
13034,4.0,300.02937000000003,5929.2298,0.0,0.0,0.0,0.0,0.0,0.1299073961155206,-0.8357671961163002,0.014651617724252086,-0.981222226926594,0.01763973381240618,0.026679258141537772,2.004225011126608
13035,4.0,299.84539,6095.9236,0.0,0.0,0.0,0.0,0.0,0.12991736292510442,-0.8498865120197682,-0.02995297903537887,-0.9731690671193092,0.002765182219702237,0.005741831153824615,1.987031778129768
13036,4.0,299.24705,5983.5992,0.0,0.0,0.0,0.0,0.0,0.12992732973468823,-0.8804393867901021,0.017160590131618383,-0.955585965881492,-0.018234869298391482,-0.027933054828527874,2.008819087080008
13037,4.0,300.43282999999997,6129.2536,0.0,0.0,0.0,0.0,0.0,0.12993729654427205,-0.8894821879700572,-0.002998109672565387,-0.9706597633791602,-0.024644627622735376,-0.015680715055816086,1.9785466191423482
13038,4.0,300.68901,6142.7643,0.0,0.0,0.0,0.0,0.0,0.12994726335385587,-0.8655566679962923,-0.013443683776538288,-0.9882466339073491,-0.007402878184607192,-0.010973843088033989,2.017464035608198
13039,4.0,299.86916,6236.4631,0.0,0.0,0.0,0.0,0.0,0.1299572301634397,-0.8944534057431781,0.01259595112012359,-1.013871627611339,0.014166005454825888,0.01068182744896429,2.023654993719198
13040,4.0,300.37826,6492.1181,0.0,0.0,0.0,0.0,0.0,0.12996719697302353,-0.911950248999982,-0.040166510659125965,-1.021325095346939,0.007877993284322402,-0.023947024180637273,2.043947252146888
13041,4.0,300.70194,6238.6352,0.0,0.0,0.0,0.0,0.0,0.12997716378260735,-0.8892526868224071,-0.011305469713262989,-0.995831165543384,0.03596969561943257,-0.017983929805125684,2.0137026485869782
13042,4.0,300.45311,6146.595,0.0,0.0,0.0,0.0,0.0,0.12998713059219116,-0.8771894478893582,-0.0037143364488514664,-0.9875076199469142,0.019348522350800482,-0.0022993101900492478,2.0314934964927978
13043,4.0,300.80214,6309.3306,0.0,0.0,0.0,0.0,0.0,0.12999709740177498,-0.8783392233078321,-0.031432053643602166,-1.008107683489982,0.009422167286295512,0.0046729057979298955,2.0074743015472882
13044,4.0,299.80337000000003,6187.0597,0.0,0.0,0.0,0.0,0.0,0.1300070642113588,-0.8280842171005492,-0.03038641399090557,-1.0222409721123291,-0.029007655195582675,-0.004302919043790046,2.0056617997684083
13045,4.0,299.69265,6057.1332,0.0,0.0,0.0,0.0,0.0,0.13001703102094264,-0.8456555139747012,-0.006549975216907223,-0.9890117593228611,-0.04399971178118346,0.023950758007255775,2.019934845977048
13046,4.0,300.76218,6174.5867,0.0,0.0,0.0,0.0,0.0,0.13002699783052646,-0.858621943781888,-0.00972794042992297,-1.008570282823137,-0.017179937129027784,0.02002270147708678,2.0080270294768376
13047,4.0,299.24178,6034.7053,0.0,0.0,0.0,0.0,0.0,0.13003696464011028,-0.8912772618472171,0.0014685423800588485,-0.9445910066613742,0.0076505875378792025,0.009407275042950762,2.020332040016248
13048,4.0,298.5523,6233.880999999999,0.0,0.0,0.0,0.0,0.0,0.1300469314496941,-0.8959580922741791,-0.024816354262933476,-0.974169732653067,-0.002110626809427648,-0.03326594310559297,2.0078046210798877
13049,4.0,299.04579,6444.6021,0.0,0.0,0.0,0.0,0.0,0.1300568982592779,-0.9227823991940322,-0.037072955765565865,-0.999142760712713,0.01940710745833238,-0.05018956443632436,1.9961924709588583
13050,4.0,299.30791,6372.0615,0.0,0.0,0.0,0.0,0.0,0.13006686506886173,-0.8607530823197153,-0.03173415821391757,-1.0444603309052092,-0.0003983970811762306,-0.023149465642674377,2.009597567131838
13051,4.0,300.56184,6099.3498,0.0,0.0,0.0,0.0,0.0,0.13007683187844554,-0.8544114133888412,-0.01006215053893194,-0.989576484133595,0.024070914270364275,0.013567340818742288,2.017161783103368
13052,4.0,300.34001,6108.1123,0.0,0.0,0.0,0.0,0.0,0.13008679868802936,-0.8384204421656551,-0.018063005869429882,-1.0002301807200331,-0.007894520812003543,0.0016113282669257185,2.036974672908748
13053,4.0,300.28951,6241.5226,0.0,0.0,0.0,0.0,0.0,0.1300967654976132,-0.8959975988955782,-0.021493637660506878,-0.979775792143842,-0.018457187516082583,0.022827332157632274,2.012422305760618
13054,4.0,300.36475,6110.2743,0.0,0.0,0.0,0.0,0.0,0.13010673230719702,-0.8829270779056182,-0.008169251417617342,-0.966274487873867,-0.017070347037962084,0.006229559393434644,2.0022642708580984
13055,4.0,300.13656000000003,5960.7243,0.0,0.0,0.0,0.0,0.0,0.13011669911678084,-0.8511836241352831,-0.003253718323616997,-0.9574739953228261,-0.013856979373077385,0.012783437852377089,1.9823091207386783
13056,4.0,300.36572,6066.4367,0.0,0.0,0.0,0.0,0.0,0.13012666592636465,-0.8474903984482903,-0.026431367517822872,-0.9701235007637351,-0.026222155690175275,-0.03671176858191947,1.997159922154338
13057,4.0,300.44146,6239.0366,0.0,0.0,0.0,0.0,0.0,0.13013663273594847,-0.8636839892939732,-0.02255816125531718,-1.010269189133306,-0.020059642549232582,0.0012585675750859486,2.004206063349738
13058,4.0,300.03889,6377.6345,0.0,0.0,0.0,0.0,0.0,0.1301465995455323,-0.9031147790554892,-0.03135167555291947,-1.004175188924375,-0.005247239360687206,0.03411629298701597,2.0340461774697283
13059,4.0,299.23812999999996,6370.605,0.0,0.0,0.0,0.0,0.0,0.13015656635511613,-0.9199068359402361,-0.01118522327089559,-1.005412792861517,0.016336542196291184,0.03216425653686497,2.062213010374578
13060,4.0,300.14887999999996,6140.6246,0.0,0.0,0.0,0.0,0.0,0.13016653316469995,-0.8798031771848133,-0.0025580484666847276,-0.9842353186164631,0.018683466528414586,-0.013307458380093886,2.0140091567422282
13061,4.0,299.00862,6078.6068,0.0,0.0,0.0,0.0,0.0,0.13017649997428377,-0.8309807748964172,-0.016668502180803086,-1.000095418456733,-0.0031538331420090967,-0.018774468546395782,2.002864925517378
13062,4.0,298.75001000000003,6260.994000000001,0.0,0.0,0.0,0.0,0.0,0.13018646678386758,-0.8589529421920551,-0.02057982184582028,-1.023653037451689,0.0047189978357038255,0.002403798060236398,1.984457109625668
13063,4.0,297.69333,6142.2247,0.0,0.0,0.0,0.0,0.0,0.1301964335934514,-0.8490651816212091,-0.02029682615914078,-0.997720927642389,-0.01116598165149659,0.008425813638338062,2.020388072746778
13064,4.0,298.6955,5875.5645,0.0,0.0,0.0,0.0,0.0,0.13020640040303522,-0.8443917985824821,0.022448550899249478,-0.9640816424049501,0.008024198890276772,-0.011132822028723989,2.0013124237141584
13065,4.0,298.59567000000004,5951.9302,0.0,0.0,0.0,0.0,0.0,0.13021636721261903,-0.8671293030789992,0.00025283922574578874,-0.9423616841888571,0.0036278335652892967,0.01302745380770959,2.032887019355328
13066,4.0,299.81631,6214.8029,0.0,0.0,0.0,0.0,0.0,0.13022633402220285,-0.8845274861735661,-0.004910028714157105,-0.9997073841984371,0.0034070150590712073,0.015447900580339086,2.008559796379418
13067,4.0,300.08337,6378.3538,0.0,0.0,0.0,0.0,0.0,0.1302363008317867,-0.8739811637002252,-0.04109112569337836,-1.023788002365009,-0.019836575539717582,0.009200774875220781,2.0213118528629477
13068,4.0,301.09855,6507.0866,0.0,0.0,0.0,0.0,0.0,0.1302462676413705,-0.8930056436027951,-0.052636259452794355,-1.032349965710009,-0.07070708052024553,-0.010686992997974092,1.9969863524122082
13069,4.0,299.91774,6183.9839,0.0,0.0,0.0,0.0,0.0,0.13025623445095433,-0.8523226591026972,-0.012904921473116589,-1.014549086628199,-0.014054054491027186,0.01077204217161779,2.020015196709978
13070,4.0,299.9539,5853.1123,0.0,0.0,0.0,0.0,0.0,0.13026620126053814,-0.8398411809258712,0.017680700527199285,-0.9570394934149442,0.009149318691417451,0.013540921335634885,2.0329264347842178
13071,4.0,299.26172,6052.0357,0.0,0.0,0.0,0.0,0.0,0.13027616807012196,-0.9074721293880261,0.037762179629336964,-0.9699577837098802,0.03283051407386947,0.027601334984289676,2.028943247316108
13072,4.0,299.746,6319.0888,0.0,0.0,0.0,0.0,0.0,0.13028613487970578,-0.8915768495042842,-0.01896358863781048,-1.010304764344317,0.0007630292948976283,-0.025477513125434774,2.020048127338228
13073,4.0,299.59117000000003,6060.0067,0.0,0.0,0.0,0.0,0.0,0.13029610168928962,-0.8326279041264761,-0.02764937114503047,-0.9818134583599442,0.0038871513196569664,-0.017634476057637283,1.967400766717338
13074,4.0,299.26044,5945.6327,0.0,0.0,0.0,0.0,0.0,0.13030606849887344,-0.8165543428876393,0.007655780545966712,-0.9984253087144059,0.010281804415485091,-0.021465128855693277,2.017957691056918
13075,4.0,299.72062,6286.6827,0.0,0.0,0.0,0.0,0.0,0.13031603530845726,-0.8821463180410632,-0.03263130099820867,-0.996216950386458,0.014800691131964486,-0.006499360841286974,1.991540741074768
13076,4.0,300.76068,6478.9654,0.0,0.0,0.0,0.0,0.0,0.13032600211804107,-0.9326467638200691,-0.02966843307604637,-1.007128508990845,-0.013128102979892888,-0.009475323805091652,2.062077032211158
13077,4.0,300.42168,6333.3066,0.0,0.0,0.0,0.0,0.0,0.1303359689276249,-0.9038149551395911,-0.03175996468071447,-0.989592148980141,-0.016761827581263586,0.018530509333068882,2.021303442887118
13078,4.0,300.71988999999996,6245.7153,0.0,0.0,0.0,0.0,0.0,0.1303459357372087,-0.8612622810249692,-0.03473247975707887,-1.0025467338936591,-0.008382597001697913,0.03287366332937797,2.0459536899949082
13079,4.0,300.07072999999997,6159.8702,0.0,0.0,0.0,0.0,0.0,0.13035590254679252,-0.8537663581101792,-0.011804309962744688,-1.006876067860931,-0.024784451070284874,0.012028889754658989,2.017179008355068
13080,4.0,300.43439,6245.5565,0.0,0.0,0.0,0.0,0.0,0.13036586935637637,-0.8496868814850662,-0.013334276070490588,-1.035472093243139,-0.011091161237612389,-0.01155039151418489,2.024459108998558
13081,4.0,299.24145,6350.098000000001,0.0,0.0,0.0,0.0,0.0,0.13037583616596018,-0.8895147031657661,-0.04373808756561316,-0.99701845148056,0.003081352322605797,-0.026191464344646274,2.0043866245175583
13082,4.0,298.82918,6247.835999999999,0.0,0.0,0.0,0.0,0.0,0.130385802975544,-0.8979448730702592,-0.0017894314926531383,-0.9994518323907161,0.03236864225428627,-0.006299542652666454,2.0270707611313084
13083,4.0,300.42574,6043.6661,0.0,0.0,0.0,0.0,0.0,0.13039576978512782,-0.8866822334387232,-0.0022663211985934875,-0.9481750242525891,0.03680297527642086,-0.012259639226432188,2.031662202634448
13084,4.0,299.78747000000004,6247.9805,0.0,0.0,0.0,0.0,0.0,0.13040573659471164,-0.8614696527904353,-0.03702860074243836,-1.0007318104470402,0.0005773917744741314,0.0015136698037375785,1.987708325221538
13085,4.0,299.79336,6429.3062,0.0,0.0,0.0,0.0,0.0,0.13041570340429545,-0.8804173080704232,-0.04306463493964855,-1.0308665675636088,-0.012724199198530687,0.00996373994019457,2.012229585591598
13086,4.0,300.59289,6343.3762,0.0,0.0,0.0,0.0,0.0,0.13042567021387927,-0.8722458715789652,-0.04667225112569255,-1.0093098540711272,-0.01782679193986738,0.02350528665379118,1.999313686566898
13087,4.0,301.13802999999996,6134.0772,0.0,0.0,0.0,0.0,0.0,0.1304356370234631,-0.8688727113335603,-0.011859261555417989,-0.983874328003336,-0.02064001194151058,0.001157135059250339,2.035799809417798
13088,4.0,300.45966,6187.4383,0.0,0.0,0.0,0.0,0.0,0.13044560383304693,-0.91969449924928,-0.004816406532742316,-0.9563158403260251,-0.030371675254950967,-0.0017855433480444083,2.052998513965178
13089,4.0,301.45668,6421.3553,0.0,0.0,0.0,0.0,0.0,0.13045557064263075,-0.8955337633973012,-0.043688072527427055,-1.012709835046679,-0.024762843511902374,0.01101420691901759,2.036703324531968
13090,4.0,299.12667999999996,6300.9627,0.0,0.0,0.0,0.0,0.0,0.13046553745221456,-0.869479800130975,-0.026491633607270675,-1.019363848453379,0.003711932816964246,0.02210885981647458,2.027418407240618
13091,4.0,299.37969,6295.2639,0.0,0.0,0.0,0.0,0.0,0.13047550426179838,-0.8328654302149183,-0.028174275226834473,-1.052563291954909,-0.0024806910772001475,0.012648202401280386,2.011870793731188
13092,4.0,299.34507,6129.7947,0.0,0.0,0.0,0.0,0.0,0.1304854710713822,-0.8744828643547392,0.015447355451785286,-1.0042690158836352,0.01939559187094588,-0.0003007006515068437,2.0109956496198182
13093,4.0,299.18621,5992.4707,0.0,0.0,0.0,0.0,0.0,0.13049543788096601,-0.8433812842577522,-0.014071891745787586,-0.964108301015081,0.04071489681199746,0.0009761437566303882,2.003121581767708
13094,4.0,299.67384,6244.9833,0.0,0.0,0.0,0.0,0.0,0.13050540469054986,-0.9358543286016312,-0.017743057964853485,-0.9447216145992641,0.030441820532873767,0.00909103674831547,2.018913895176288
13095,4.0,300.27917,6481.6865,0.0,0.0,0.0,0.0,0.0,0.13051537150013368,-0.9027276263247802,-0.04782558609176786,-1.0197175740632891,0.01010287376972601,-0.03093735961352967,2.008203233669228
13096,4.0,299.84528,6274.2765,0.0,0.0,0.0,0.0,0.0,0.1305253383097175,-0.8945458040197971,-0.014396598886083687,-0.998280981370162,-0.001014243490398039,-0.017013387183590585,2.0053927818668584
13097,4.0,300.24994,6362.9954,0.0,0.0,0.0,0.0,0.0,0.1305353051193013,-0.8482482284630822,-0.052480552296677245,-1.033462919619849,-0.04119957182508117,0.026383902830138473,2.031368765405488
13098,4.0,300.80447000000004,6448.1492,0.0,0.0,0.0,0.0,0.0,0.13054527192888513,-0.8772370098490522,-0.03125388374601817,-1.0515855056084091,-0.033237656202551265,0.027872859666587074,2.028348773482438
13099,4.0,301.36035,6390.9046,0.0,0.0,0.0,0.0,0.0,0.13055523873846894,-0.8736911411241022,-0.017024806512217584,-1.051959496220319,-0.05149178434559345,0.013252263607396586,2.065231279772458
13100,4.0,300.24104,6242.168000000001,0.0,0.0,0.0,0.0,0.0,0.13056520554805276,-0.9127543338818392,0.0018879978279308784,-0.9865968803595311,-0.008509403427862732,-0.015786609823767086,2.0213369814654283
13101,4.0,300.13342,6119.130999999999,0.0,0.0,0.0,0.0,0.0,0.1305751723576366,-0.8593518587564251,0.003385780579375527,-1.004096966016655,0.027219039774560073,-0.015684744751463784,2.039398975098008
13102,4.0,299.95401,6147.1763,0.0,0.0,0.0,0.0,0.0,0.13058513916722042,-0.8591812477045873,-0.020922060239346583,-0.9884847882108531,0.03200001477515557,-0.004533795171825746,1.9948896339802784
13103,4.0,300.31931000000003,6253.7233,0.0,0.0,0.0,0.0,0.0,0.13059510597680424,-0.8395009011447883,-0.026794987514959377,-1.0346798329899491,0.022423376700514978,-0.016763350496163884,2.0343992951295777
13104,4.0,300.26945,6401.9312,0.0,0.0,0.0,0.0,0.0,0.13060507278638805,-0.9006959990792741,-0.03231437764518077,-1.01301685995948,-0.01094616109530199,-0.0009021078820336161,2.004825260485848
13105,4.0,299.65993,6253.4094,0.0,0.0,0.0,0.0,0.0,0.13061503959597187,-0.9056940679800451,-0.006883443728168004,-0.988302788227891,-0.009899770522956281,0.002267261393361278,2.030447518414568
13106,4.0,299.47534,6065.2763,0.0,0.0,0.0,0.0,0.0,0.1306250064055557,-0.8968838279630421,-0.0006718818755270783,-0.9461368210139341,-0.006471856471297503,-0.001026682452600669,2.031942568937118
13107,4.0,300.17918,6323.9756,0.0,0.0,0.0,0.0,0.0,0.1306349732151395,-0.8964301452307673,-0.01069677998068999,-1.0152037475178088,-0.011062297795263791,-0.004521512148813506,2.027008142275128
13108,4.0,299.57077999999996,6348.7255,0.0,0.0,0.0,0.0,0.0,0.13064494002472335,-0.90511018260992,-0.002178841744584938,-1.022565009494309,-0.025323329897468078,0.0029879049268332573,2.047547836377238
13109,4.0,299.9222,6051.5812,0.0,0.0,0.0,0.0,0.0,0.13065490683430717,-0.8174586584693883,-0.013188540308607588,-1.00888239425144,-0.005182604339458225,0.019961462667542982,2.0177309256845377
13110,4.0,299.55619,5892.1685,0.0,0.0,0.0,0.0,0.0,0.13066487364389098,-0.8263651572458912,0.008943439342023742,-0.9736503811818111,-0.00973690718668292,0.023226456438272775,2.052244959865808
13111,4.0,300.55321000000004,6123.0664,0.0,0.0,0.0,0.0,0.0,0.1306748404534748,-0.8576589002243432,-0.00089866388547372,-1.0027017307614559,0.0067306880682671925,0.012346422070996989,2.0236821488218784
13112,4.0,301.13046,6351.1754,0.0,0.0,0.0,0.0,0.0,0.13068480726305862,-0.9225810056041561,-0.015250760614382883,-0.992766975650972,0.0003019571424258497,-0.006220415317907194,2.034955468109468
13113,4.0,300.60507,6371.5601,0.0,0.0,0.0,0.0,0.0,0.13069477407264243,-0.908427046679769,-0.013874759885832188,-1.0144933578726991,0.025450962933064477,-0.017730330530347383,2.0114123993859483
13114,4.0,300.4956,6125.8335,0.0,0.0,0.0,0.0,0.0,0.13070474088222628,-0.8864798975262541,0.009357945265807292,-0.984978476769807,0.02184698836787988,-0.01814020640779898,2.0388409782679378
13115,4.0,300.63311,6174.1498,0.0,0.0,0.0,0.0,0.0,0.1307147076918101,-0.8601144307816853,-0.008533210650887323,-1.008139732590645,0.005298799301300775,-0.00908570218918899,2.042398499369038
13116,4.0,298.81478,6515.9479,0.0,0.0,0.0,0.0,0.0,0.1307246745013939,-0.9054107733845861,-0.04697638624920836,-1.0282982825351392,-0.021727987209885377,0.0060010053306531145,2.013635976730398
13117,4.0,299.15795,6523.7307,0.0,0.0,0.0,0.0,0.0,0.13073464131097773,-0.9299493603313562,-0.02159558379281818,-1.031506333676749,-0.018950964554814584,0.03416146975597457,2.042496075353668
13118,4.0,298.85047000000003,6081.9162,0.0,0.0,0.0,0.0,0.0,0.13074460812056155,-0.8818022385721052,-0.002170453958932128,-0.9647779580061712,0.006542413230085915,0.03491382214072597,2.019232055707688
13119,4.0,299.83036,5851.2428,0.0,0.0,0.0,0.0,0.0,0.13075457493014536,-0.8425756693682442,0.029841222615599367,-0.9658972548616371,0.00030863680119258075,-0.006329383070761474,2.0386620383002785
13120,4.0,300.28532,6319.906999999999,0.0,0.0,0.0,0.0,0.0,0.13076454173972918,-0.8852431041891922,-0.028492553295246074,-1.007358273583521,-0.01929447964346688,-0.0025511569474545876,2.022973380376928
13121,4.0,300.35356,6510.9053,0.0,0.0,0.0,0.0,0.0,0.130774508549313,-0.8838213927088802,-0.03190079529886337,-1.0634303992774092,-0.01993452845338478,-0.0023915789733054676,2.0165404581420483
13122,4.0,300.56757000000005,6241.2679,0.0,0.0,0.0,0.0,0.0,0.13078447535889684,-0.8577848776092762,-0.028607362637576874,-1.010797355880432,-0.007322143328564283,0.015603217635167685,2.013262999368588
13123,4.0,300.92453,6060.3781,0.0,0.0,0.0,0.0,0.0,0.13079444216848066,-0.8348444393827311,-0.0012850273855473289,-1.0060741513342881,-0.007174986382091023,0.014076322688474885,2.020934315875688
13124,4.0,300.24253,6190.4589,0.0,0.0,0.0,0.0,0.0,0.13080440897806447,-0.8863121742372011,-0.028026136035714272,-0.967406632740601,0.025669906014672478,0.0012078611963566189,2.0219033882713284
13125,4.0,299.47342000000003,6422.2504,0.0,0.0,0.0,0.0,0.0,0.1308143757876483,-0.8821497833564053,-0.04785183838860875,-1.022202164633499,0.01168817022303259,-0.005170088370247995,2.019733310532158
13126,4.0,298.59127,6425.4835,0.0,0.0,0.0,0.0,0.0,0.1308243425972321,-0.9418189671702951,-0.001999351683445648,-1.009368217276887,0.033478444956315266,-0.003417503616156346,2.045880128037648
13127,4.0,299.21397,6318.2066,0.0,0.0,0.0,0.0,0.0,0.13083430940681592,-0.8585282789426442,-0.04960288654892375,-1.012445873263128,0.0021242675875738884,-0.012924987878096988,2.022079896438748
13128,4.0,298.84901,6069.6659,0.0,0.0,0.0,0.0,0.0,0.13084427621639977,-0.8773130238715542,0.004235861037596936,-0.971949711816468,0.003060072145330607,0.004207419005964926,2.023845383412988
13129,4.0,298.59427999999997,6228.6171,0.0,0.0,0.0,0.0,0.0,0.13085424302598359,-0.8467674445019403,-0.01257360895541859,-1.034002981923149,-0.018690255304084583,0.02017247605386838,2.015929063031708
13130,4.0,299.03452000000004,6366.7867,0.0,0.0,0.0,0.0,0.0,0.1308642098355674,-0.9185982031710842,-0.016002592188582885,-1.00074336149818,-0.0066334557780711135,0.025678535865774177,2.015366810551218
13131,4.0,299.84008,6187.1562,0.0,0.0,0.0,0.0,0.0,0.13087417664515122,-0.8414785626899682,-0.02153809502189448,-1.017724308466569,-0.03661344684521586,0.010151496399624689,2.017027730115138
13132,4.0,299.84171000000003,5912.5077,0.0,0.0,0.0,0.0,0.0,0.13088414345473504,-0.8669886740976201,0.003243339298867667,-0.9335093537627001,-0.014378018918999987,0.0006375157555954064,2.003194839749938
13133,4.0,299.44125,6245.7847,0.0,0.0,0.0,0.0,0.0,0.13089411026431885,-0.8480756618385512,-0.030316364971742272,-1.020170598182999,-0.001286598531152389,-0.006768441463018164,2.020590216141728
13134,4.0,300.22612999999996,6502.1012,0.0,0.0,0.0,0.0,0.0,0.13090407707390267,-0.9325392883819621,-0.024455296775299874,-1.019481790765019,-0.0025462309307684276,0.028599540346804873,2.020507230958538
13135,4.0,300.21726,6569.6309,0.0,0.0,0.0,0.0,0.0,0.1309140438834865,-0.8859129536978011,-0.06885743400594964,-1.042233409835429,0.0054796330333976755,-0.00046483296194044157,2.040270775484048
13136,4.0,300.21713,6433.1788,0.0,0.0,0.0,0.0,0.0,0.13092401069307033,-0.9051714741084691,-0.05221439176040925,-0.9981398660287352,-0.002990882362252107,-0.016965788746892984,2.027911049439238
13137,4.0,300.30091,6128.34,0.0,0.0,0.0,0.0,0.0,0.13093397750265415,-0.8501184145701552,-0.005870570253230175,-1.0068733320856609,0.025479948978675178,-0.019322950958026785,2.035184361307058
13138,4.0,299.64243,6131.2701,0.0,0.0,0.0,0.0,0.0,0.13094394431223796,-0.8765476147460143,-0.0037950344225907364,-0.9834103709150471,-0.009171682134374552,-0.02424857956939848,2.014761292291458
13139,4.0,299.02972,6343.4139,0.0,0.0,0.0,0.0,0.0,0.13095391112182178,-0.8661162961590233,-0.03858829560811826,-1.023534791165019,-0.010156495775618089,-0.004077653180233036,2.019086856968358
13140,4.0,298.5714,6283.2381,0.0,0.0,0.0,0.0,0.0,0.1309638779314056,-0.8926946467496022,-0.030997875975752175,-0.9862549591132861,-0.03539380580584667,0.026492194947826075,1.9913061736766182
13141,4.0,298.56014,6168.4989,0.0,0.0,0.0,0.0,0.0,0.13097384474098941,-0.8262081034803912,-0.04802018887947365,-1.000841363047852,-0.007863754587292153,0.03308522488400747,1.994368418128838
13142,4.0,299.29465,6232.8266,0.0,0.0,0.0,0.0,0.0,0.13098381155057326,-0.8669166624130132,-0.020044381989476483,-1.0076625931185552,-0.01027420706623529,0.020646677100668382,2.0360125919387984
13143,4.0,299.20799999999997,6531.835,0.0,0.0,0.0,0.0,0.0,0.13099377836015708,-0.8879215700335361,-0.058349385028635944,-1.0392438154153791,0.0041979198876024365,0.007495725432345503,2.052927485133168
13144,4.0,299.77391,6458.5884,0.0,0.0,0.0,0.0,0.0,0.1310037451697409,-0.9138686759443161,-0.02112022358790378,-1.028260690956429,0.010758752383306189,-0.02171343389869908,2.054653860653548
13145,4.0,300.23035,6242.6097,0.0,0.0,0.0,0.0,0.0,0.1310137119793247,-0.8818627802655802,-0.024831453715923678,-0.990903223682034,0.03335961909058807,-0.012477398831923387,2.041126870493538
13146,4.0,299.9926,6211.3657,0.0,0.0,0.0,0.0,0.0,0.13102367878890853,-0.917272081705206,0.016734017919018986,-0.987562001079781,0.025651268292333076,0.004930636701315955,2.054336612047238
13147,4.0,300.0844,6177.8993,0.0,0.0,0.0,0.0,0.0,0.13103364559849234,-0.8570886633330652,-0.0005428326506634115,-1.020295633245339,0.016150180171648685,-0.0008229835971571572,2.0180330768643584
13148,4.0,299.6113,6195.8109,0.0,0.0,0.0,0.0,0.0,0.13104361240807616,-0.8671271651212882,-0.027472892361863375,-0.988771750771674,-0.013319800779561988,0.0033390508019886566,2.0349763410615282
13149,4.0,299.29041,6209.5594,0.0,0.0,0.0,0.0,0.0,0.13105357921766,-0.8648636859879002,-0.011664275759174388,-1.011023047207706,-0.00918102561752168,-0.006608510877834243,2.016468213409918
13150,4.0,298.98073,6177.0917,0.0,0.0,0.0,0.0,0.0,0.13106354602724382,-0.8671195049505321,0.00012874268631091386,-1.010690893692425,-0.014597299412891286,-0.015520343909488685,2.0302050476656377
13151,4.0,298.71932999999996,6170.895,0.0,0.0,0.0,0.0,0.0,0.13107351283682764,-0.8646899034632493,-0.017676837004567982,-0.993431262416532,0.0018637808465658482,0.002914704395883927,1.995387038454368
13152,4.0,298.03639,6544.0997,0.0,0.0,0.0,0.0,0.0,0.13108347964641145,-0.9257332266652561,-0.03893948809277826,-1.024570231442209,-0.003500378051110417,-0.01954581734402198,2.035106746349398
13153,4.0,299.5975,6633.397,0.0,0.0,0.0,0.0,0.0,0.13109344645599527,-0.894965775921245,-0.06088455096433734,-1.0605367596418291,0.004211761593243506,-0.011116355701348888,2.011458400940488
13154,4.0,300.05933,6229.7643,0.0,0.0,0.0,0.0,0.0,0.1311034132655791,-0.8696656200668142,-0.016109121251096484,-1.007918053733767,0.0012260771026793888,0.00036747816980727167,2.076775339486768
13155,4.0,300.12432,5942.0626,0.0,0.0,0.0,0.0,0.0,0.1311133800751629,-0.8118349988243763,0.02375456137714268,-1.018158182159389,0.011512379436683389,0.0029214593290005876,2.050341670877968
13156,4.0,299.91925,6238.879,0.0,0.0,0.0,0.0,0.0,0.13112334688474675,-0.8733364833241001,-0.018289917149824284,-1.004837023624693,0.017846909007352783,0.004014088151109656,2.060441241249718
13157,4.0,300.89177,6394.1606,0.0,0.0,0.0,0.0,0.0,0.13113331369433057,-0.8982849096713181,-0.027257882717143574,-1.018122414430859,-0.029776953175006473,0.01161859540491609,2.017737511810188
13158,4.0,300.20515,6574.6259,0.0,0.0,0.0,0.0,0.0,0.13114328050391438,-0.9604312265346822,-0.032701014631588865,-1.005389852879253,0.018663362633180483,0.005770741003027795,2.017846132220908
13159,4.0,299.17301000000003,6397.075,0.0,0.0,0.0,0.0,0.0,0.1311532473134982,-0.8734621972640071,-0.046290242665741256,-1.024798618014749,-0.0071864123981686834,-0.0012531573261769988,1.9843781774428781
13160,4.0,299.45116,6036.5611,0.0,0.0,0.0,0.0,0.0,0.13116321412308202,-0.8916627427152611,0.03720864515270736,-0.980509749986278,0.009082624340685231,-0.01028292810984599,2.029416637762828
13161,4.0,299.86779,6224.7033,0.0,0.0,0.0,0.0,0.0,0.13117318093266583,-0.8218129589191242,-0.021820697567535182,-1.0485207280309392,-0.0074070573346446435,-0.013216598217126688,2.027824923180738
13162,4.0,301.12285,6475.3347,0.0,0.0,0.0,0.0,0.0,0.13118314774224965,-0.9376773276515471,0.0070785153466950725,-1.0377412668420891,0.011902267942662387,0.010673702196412388,2.090568814423078
13163,4.0,301.46533999999997,6273.8849,0.0,0.0,0.0,0.0,0.0,0.1311931145518335,-0.8874012965046892,0.01408384809696759,-1.0337869570018292,0.002257021791825708,0.032972887871920674,2.050212076190178
13164,4.0,300.36746,6094.5513,0.0,0.0,0.0,0.0,0.0,0.1312030813614173,-0.9237566796951862,0.016839053450885183,-0.9456737859832361,0.005375580252803465,-0.008732066049262821,2.051856378452458
13165,4.0,300.63538,6328.3579,0.0,0.0,0.0,0.0,0.0,0.13121304817100113,-0.8799544250272401,-0.01890405411493488,-1.0248042922153089,-0.011184734884347389,-0.01068178691896029,2.014077956424018
13166,4.0,300.70507000000003,6455.4197,0.0,0.0,0.0,0.0,0.0,0.13122301498058495,-0.955270287812837,-0.015607196668310385,-0.991408906409441,-0.005783177432105175,-0.00027766420783332374,2.0355288663410582
13167,4.0,299.90907999999996,6315.4287,0.0,0.0,0.0,0.0,0.0,0.13123298179016876,-0.8276955850246942,-0.05149832487498895,-1.0405387490431792,0.0069801414276113236,0.013128695731201385,2.0153460389241684
13168,4.0,300.394,6083.4623,0.0,0.0,0.0,0.0,0.0,0.13124294859975258,-0.8805478349483051,0.00963739893411222,-0.9783101866691981,-0.004981921443202366,-0.0003782684322421876,2.0413918353946876
13169,4.0,299.51714,6043.4238,0.0,0.0,0.0,0.0,0.0,0.1312529154093364,-0.8208200042186272,-0.012365661663895789,-1.003864252866188,-0.01840537294571888,0.0013063646088031487,2.020910504498338
13170,4.0,299.58862999999997,6166.3738,0.0,0.0,0.0,0.0,0.0,0.13126288221892024,-0.9039234843578021,0.002780998243163157,-0.9732811832428742,-0.014446294750488288,-0.0006573706344849303,2.0069699056475083
13171,4.0,299.73368,6532.8335,0.0,0.0,0.0,0.0,0.0,0.13127284902850406,-0.9010709928087831,-0.04648811723801995,-1.038259138968199,-0.013317028527288385,-0.008806623322096052,2.0113967953344085
13172,4.0,299.83717,6571.5372,0.0,0.0,0.0,0.0,0.0,0.13128281583808787,-0.9528883293452561,-0.03478588411684947,-1.00990901925276,-0.014376682442118085,-0.017652640592179983,2.037577962018288
13173,4.0,300.14599,6291.5764,0.0,0.0,0.0,0.0,0.0,0.1312927826476717,-0.8361350363001031,-0.03584609531923417,-1.040500954814449,-0.0011647704053788887,-0.0032358007181236665,2.039219224530268
13174,4.0,300.24383,6292.3303,0.0,0.0,0.0,0.0,0.0,0.1313027494572555,-0.8895230016840853,-0.001896492815444268,-1.021291759418649,-0.006775365811551543,0.03823552144005217,2.083056882156708
13175,4.0,300.48169,6538.1748,0.0,0.0,0.0,0.0,0.0,0.13131271626683932,-0.8896617764177812,-0.03784238952050307,-1.059937726182709,-0.006287930097245384,0.037937565115646166,2.044442528795768
13176,4.0,301.42905,6473.6886,0.0,0.0,0.0,0.0,0.0,0.13132268307642314,-0.932566392822137,-0.036017153214366264,-0.9992561433989031,-0.003019336958185357,-0.006936202242324864,2.0333710489280983
13177,4.0,300.27099999999996,6166.5718,0.0,0.0,0.0,0.0,0.0,0.13133264988600699,-0.8841688766981741,-0.007568462097399053,-0.9827465198470301,0.004428695602553226,-0.03288827034281957,1.9985586125923782
13178,4.0,299.2932,6188.0118,0.0,0.0,0.0,0.0,0.0,0.1313426166955908,-0.8980653181096462,-0.0007518418688210153,-0.982183902596504,0.007633909035933163,-0.028355205217690874,2.034819895246088
13179,4.0,299.64465,6235.1114,0.0,0.0,0.0,0.0,0.0,0.13135258350517462,-0.8619939894521832,-0.013593806911354285,-1.019730341014549,0.02227416042453848,-0.007864782124218562,2.021706919076938
13180,4.0,299.91807,6330.2476,0.0,0.0,0.0,0.0,0.0,0.13136255031475844,-0.8868741430076632,-0.014048573821236286,-1.0233145105932793,-0.015865415350294586,0.011015522117647388,2.075791676289688
13181,4.0,300.11306,6447.6891,0.0,0.0,0.0,0.0,0.0,0.13137251712434225,-0.8800025645394911,-0.026033594912815775,-1.0539003767868689,0.008609342413050941,0.02177301401782918,2.048025381149368
13182,4.0,299.99164,6314.4858,0.0,0.0,0.0,0.0,0.0,0.13138248393392607,-0.8717381826163602,-0.014766287238069086,-1.0329415011183891,-0.014866183565428088,0.026083000987691774,2.064014366402358
13183,4.0,300.05883,6181.2268,0.0,0.0,0.0,0.0,0.0,0.13139245074350991,-0.8617499279005961,-0.033685104406960965,-0.9835035899242471,-0.02838462493434437,-0.0004188387534636666,2.015029296942908
13184,4.0,301.12057999999996,6606.2377,0.0,0.0,0.0,0.0,0.0,0.13140241755309373,-0.9380918989299621,-0.03623387829150536,-1.033805499478659,-0.021350694415899478,-0.02615930581297248,2.0393475019929284
13185,4.0,301.2216,6604.1511,0.0,0.0,0.0,0.0,0.0,0.13141238436267755,-0.9063339556831971,-0.06719812956268903,-1.033964985044399,-0.00882728886186058,-0.01937114011953268,2.011645142933918
13186,4.0,300.34558,5991.0675,0.0,0.0,0.0,0.0,0.0,0.13142235117226136,-0.8513766888093373,0.0029716120678752777,-0.9727298637309632,0.023489441448727374,0.018530484001816384,2.045195778920108
13187,4.0,299.18467999999996,6018.7204,0.0,0.0,0.0,0.0,0.0,0.13143231798184518,-0.8182756318925172,-0.01010764212469661,-1.0011574160190442,-0.022948841109624276,0.006708566082808924,2.016523739515398
13188,4.0,299.99258,6475.6493,0.0,0.0,0.0,0.0,0.0,0.131442284791429,-0.8831858923786612,-0.05204781040421896,-1.033202007719099,-0.006281983636383514,-0.0016739736702583385,2.057508388835268
13189,4.0,299.0548,6488.0506,0.0,0.0,0.0,0.0,0.0,0.13145225160101282,-0.9053305138441652,-0.02001896359746788,-1.046855958116639,-0.013748494737870787,-0.016003069429379985,2.016832476820868
13190,4.0,299.16401,6587.3383,0.0,0.0,0.0,0.0,0.0,0.13146221841059663,-0.9148137748425901,-0.05655543687233704,-1.031017136528469,0.017885736751184784,0.015542484437423785,2.038704493479468
13191,4.0,299.05602000000005,6416.0797,0.0,0.0,0.0,0.0,0.0,0.13147218522018048,-0.9016848197193632,-0.004652713141987035,-1.043990486833839,0.007002706102038283,-0.007192762132570353,2.042325849336868
13192,4.0,299.0759,6289.0739,0.0,0.0,0.0,0.0,0.0,0.1314821520297643,-0.9017166155075012,-0.016053714709128284,-0.9939511002478361,-0.002702269318343217,0.015225159837356285,2.071408660332118
13193,4.0,300.02852,6401.4593,0.0,0.0,0.0,0.0,0.0,0.1314921188393481,-0.8843812032566292,-0.01924759453483968,-1.042254992062559,-0.015696777096401285,0.023924537121167978,2.037235078184448
13194,4.0,300.3257,6540.8332,0.0,0.0,0.0,0.0,0.0,0.13150208564893193,-0.923334488776019,-0.04301234312848776,-1.021903154528989,0.021695563206685378,0.03729969276694306,2.045823690007078
13195,4.0,300.29855,6152.9331,0.0,0.0,0.0,0.0,0.0,0.13151205245851574,-0.8440484081235922,-0.007298691351024753,-1.018990871091569,-0.013011956147430089,0.001979858271396798,2.039766480909278
13196,4.0,300.7439,5984.6592,0.0,0.0,0.0,0.0,0.0,0.13152201926809956,-0.8520275094810683,0.0013811284833317686,-0.9685405609275112,-0.01234710196181409,-0.024951289792000578,2.001004598333778
13197,4.0,299.31907,6381.8239,0.0,0.0,0.0,0.0,0.0,0.1315319860776834,-0.8888193096221362,-0.03049071390319917,-1.020605079825879,-0.006858468531753144,-0.03455421258748527,2.049491756694088
13198,4.0,299.8342,6564.9991,0.0,0.0,0.0,0.0,0.0,0.13154195288726722,-0.946709124935416,-0.040315323661562666,-1.008571346735742,0.01936500387692708,-0.006111249778633395,2.0098056887023783
13199,4.0,299.88507999999996,6470.4651,0.0,0.0,0.0,0.0,0.0,0.13155191969685104,-0.8455506527218521,-0.05786376769295924,-1.063445395378889,-0.002101449803271948,-0.013324043257730686,2.059628817319538
13200,4.0,299.69591,6175.875,0.0,0.0,0.0,0.0,0.0,0.13156188650643486,-0.8651803469091522,-0.016995926857867383,-0.99513552881973,-0.010484887093277792,0.006088534332591555,2.002748300430868
13201,4.0,299.88847999999996,6316.9175,0.0,0.0,0.0,0.0,0.0,0.13157185331601867,-0.8428852679362991,-0.029173245593175176,-1.048126675067049,-0.01141274756760049,0.006629927843872933,2.0655164083505984
13202,4.0,300.56619,6270.7167,0.0,0.0,0.0,0.0,0.0,0.1315818201256025,-0.8962075544487991,-0.02208552365342148,-0.9878482239680291,0.03176454254466627,0.02839606047497297,1.987048294106398
13203,4.0,300.81068999999997,6112.4011,0.0,0.0,0.0,0.0,0.0,0.1315917869351863,-0.8816712455991771,-0.01057508256417939,-0.9657709735016741,0.015501278595607086,-0.0015247489843060087,2.068991653543578
13204,4.0,300.90123,6063.3943,0.0,0.0,0.0,0.0,0.0,0.13160175374477012,-0.9084674753587592,0.013683164424423185,-0.9483361512834911,0.01021434121057699,-0.02810559612180637,1.9919326662134482
13205,4.0,299.77221000000003,6209.1291,0.0,0.0,0.0,0.0,0.0,0.13161172055435397,-0.8618357501840661,-0.015202445809864585,-1.010382014531941,-0.02029873613557928,-0.008557785005562622,2.0379735348573282
13206,4.0,299.20923999999997,6370.906,0.0,0.0,0.0,0.0,0.0,0.13162168736393778,-0.9085010848645763,-0.034183563674405074,-0.9939116848189461,-0.03117025109601427,0.03483993695668407,2.0052855800062783
13207,4.0,299.44106,6697.2054,0.0,0.0,0.0,0.0,0.0,0.1316316541735216,-0.8854240706570521,-0.05544522279076744,-1.0949139037345887,-0.015323459282557687,0.0037424495795010163,2.053662395430698
13208,4.0,299.56206000000003,6462.4353,0.0,0.0,0.0,0.0,0.0,0.13164162098310542,-0.9099164128692582,-0.05365754462608736,-1.000845010748212,-0.006752062376476674,-0.005996689797152204,2.0066904512699284
13209,4.0,299.5265,6216.7741,0.0,0.0,0.0,0.0,0.0,0.13165158779268923,-0.8835369430083071,-0.00942482321745763,-0.996782313544755,0.039310969897440665,-0.0011286957633935989,2.043801242807478
13210,4.0,299.96571,6295.0661,0.0,0.0,0.0,0.0,0.0,0.13166155460227305,-0.9178226615445441,-0.010557260508170489,-0.985162979480516,0.03443425289489617,-0.00040144282991682256,2.022995773204138
13211,4.0,299.71997000000005,6158.7205,0.0,0.0,0.0,0.0,0.0,0.1316715214118569,-0.8429689826595612,-0.036677274508765165,-0.992451003739788,0.03799387952970396,-0.023177583332949378,2.0282353907962483
13212,4.0,300.06442000000004,6032.1707,0.0,0.0,0.0,0.0,0.0,0.1316814882214407,-0.8391436595570312,0.004578430358605896,-0.9990640413124441,0.004064193368554655,-0.011453573440629689,2.0261628890417085
13213,4.0,300.93953,6329.4091,0.0,0.0,0.0,0.0,0.0,0.13169145503102453,-0.8141108092114812,-0.048831445545538456,-1.0610400409664988,-0.00018840450379657684,-0.002982236907098867,2.0195766620666977
13214,4.0,300.81886000000003,6300.3844,0.0,0.0,0.0,0.0,0.0,0.13170142184060835,-0.8891165465389711,-0.014898905464157485,-1.0111440799321512,-0.005006344418312725,0.02119891461716998,2.0225967553147584
13215,4.0,300.63159,6424.536999999999,0.0,0.0,0.0,0.0,0.0,0.13171138865019216,-0.9159091893931991,-0.027663614401686173,-1.009326035675224,0.0065988746667332236,0.019538361849786183,2.032467229838898
13216,4.0,301.02946000000003,6607.4931,0.0,0.0,0.0,0.0,0.0,0.13172135545977598,-0.929228250500188,-0.06904850257730664,-1.010236167312547,-0.0006155998246774723,-0.0045633814667956855,2.016077909471398
13217,4.0,299.33858,6449.3069,0.0,0.0,0.0,0.0,0.0,0.1317313222693598,-0.9236377443984481,-0.028667958033307173,-1.0081225580014501,0.006754449289737244,-0.0059065230012284335,2.0178732873235883
13218,4.0,299.69844,6302.0733,0.0,0.0,0.0,0.0,0.0,0.1317412890789436,-0.8698668008741691,-0.01795632380615118,-1.027849818040879,-0.0012967136042506687,-0.0056519063220247245,2.032789443370698
13219,4.0,299.67706,6046.3244,0.0,0.0,0.0,0.0,0.0,0.13175125588852746,-0.8323069571573012,0.0026352173916507076,-1.0082599141850062,-0.0016249638774964487,0.0015431015780672684,2.036474431334378
13220,4.0,299.55096000000003,6146.5008,0.0,0.0,0.0,0.0,0.0,0.13176122269811127,-0.8545737259223601,0.017675082055394784,-1.031484143499559,0.005203680954788325,0.004509969203674306,2.077719485929948
13221,4.0,300.64476,6221.4725,0.0,0.0,0.0,0.0,0.0,0.1317711895076951,-0.904340527966461,0.0012523203815943988,-0.9880840781938061,-0.009203636090853161,0.015635783493381683,2.0337708774175582
13222,4.0,300.41823999999997,6341.5258,0.0,0.0,0.0,0.0,0.0,0.1317811563172789,-0.8904975658952671,-0.03312090344652867,-1.004047043184228,-0.0037802816024597465,0.0018970769541269185,2.059177414399988
13223,4.0,299.88072999999997,6430.8132,0.0,0.0,0.0,0.0,0.0,0.13179112312686272,-0.9261390941253121,-0.006064149455684954,-1.0226034116730989,-0.012976181326149385,-0.005160657240967215,2.0257414783251178
13224,4.0,300.31358,6568.7559,0.0,0.0,0.0,0.0,0.0,0.13180108993644654,-0.8898758558989092,-0.05671606943719024,-1.050145879866329,-0.01104934541923549,-0.01087358199063899,2.038879583096748
13225,4.0,299.59042,6503.7786,0.0,0.0,0.0,0.0,0.0,0.1318110567460304,-0.8797237687744762,-0.03752402937883336,-1.059738521213049,-0.009771105593458042,0.006366358694735683,1.9987934839655581
13226,4.0,300.36843,6468.5198,0.0,0.0,0.0,0.0,0.0,0.1318210235556142,-0.8910791714526671,-0.02808912979443127,-1.0471002527157491,-0.0013322696648347787,0.03857448804900556,2.055939472380428
13227,4.0,300.37761,6243.1878,0.0,0.0,0.0,0.0,0.0,0.13183099036519802,-0.8904132736194482,-0.005640597032358584,-1.001719334127001,0.016102416575184787,0.01989720741245148,2.0258535437861784
13228,4.0,299.76583,6126.2791,0.0,0.0,0.0,0.0,0.0,0.13184095717478184,-0.8750330084965342,0.017494077084030984,-1.004696931665867,0.0005067686376716705,0.008470893236612072,2.059074974814878
13229,4.0,301.09392,6356.3542,0.0,0.0,0.0,0.0,0.0,0.13185092398436565,-0.9043012138625811,-0.03959725155419446,-0.9882745084176,-0.012018120932596188,-0.000953538937234466,2.034088429998898
13230,4.0,301.14915,6395.3393,0.0,0.0,0.0,0.0,0.0,0.13186089079394947,-0.8763577316772743,-0.01134681335709329,-1.0563189034505591,-0.016853277455788983,-0.013087044059340686,2.055732769360028
13231,4.0,299.99683999999996,6292.7713,0.0,0.0,0.0,0.0,0.0,0.1318708576035333,-0.8423100661195312,-0.03464898186933826,-1.035886309884019,-0.016434585289217284,0.005571280896992615,2.058259815109428
13232,4.0,300.35332999999997,6486.3422,0.0,0.0,0.0,0.0,0.0,0.13188082441311713,-0.8911372509483991,-0.029276783541393573,-1.051272006027469,0.011810955870150588,0.01043973869532199,2.0644756991728883
13233,4.0,299.67913,6736.099,0.0,0.0,0.0,0.0,0.0,0.13189079122270095,-0.9165284777218181,-0.06016290613711654,-1.0709144671660291,-0.004962107033521836,0.017466716291580683,2.076104365270548
13234,4.0,299.66173,6582.1541,0.0,0.0,0.0,0.0,0.0,0.13190075803228477,-0.9367930845542791,-0.04613084119975955,-1.017886529807579,0.028216884420039674,0.015047761023098386,2.0308898020832182
13235,4.0,299.65274,6447.9677,0.0,0.0,0.0,0.0,0.0,0.13191072484186858,-0.923889841023328,-0.015761915905579984,-1.020369397852619,0.022611382216819683,0.005081454216425484,2.043416410419498
13236,4.0,299.15533999999997,6375.6255,0.0,0.0,0.0,0.0,0.0,0.1319206916514524,-0.9156827077308471,-0.005950290845922984,-1.0163979640856688,0.009070468885860581,-0.024268288297093578,2.008342555557978
13237,4.0,298.54306,6186.2899,0.0,0.0,0.0,0.0,0.0,0.13193065846103622,-0.8578625026994371,-0.0067105537755300934,-1.015904612611979,-0.041222667847860564,-0.025550726524660373,2.043567688659428
13238,4.0,300.27317,6116.3669,0.0,0.0,0.0,0.0,0.0,0.13194062527062006,-0.8929483747071433,0.018521650487444585,-0.9847960816193061,-0.01064697873827499,-0.01071296158478699,2.049988350568098
13239,4.0,300.73525,6188.6255,0.0,0.0,0.0,0.0,0.0,0.13195059208020388,-0.8441179981404602,-0.013376616752419287,-1.0236930608306392,-0.01882271951615778,0.038944591833531966,2.095105844395848
13240,4.0,300.76532000000003,6178.1779,0.0,0.0,0.0,0.0,0.0,0.1319605588897877,-0.8739742026720382,-0.013997130100409186,-0.990040481751888,0.003775379599800957,0.04215062458094276,2.057864444920408
13241,4.0,300.61062000000004,6427.5271,0.0,0.0,0.0,0.0,0.0,0.1319705256993715,-0.8774533590104041,-0.026578791354372477,-1.049775638279789,-0.010103380698751042,0.031000068648968572,2.055189667306428
13242,4.0,300.44755,6770.4890000000005,0.0,0.0,0.0,0.0,0.0,0.13198049250895533,-0.9142590609428441,-0.07991668698466294,-1.063883828697159,0.0015394610717829786,-0.017844451875860284,2.005203202773148
13243,4.0,300.06095,6776.4131,0.0,0.0,0.0,0.0,0.0,0.13199045931853914,-0.907935559586263,-0.06275982358691234,-1.089165026642219,0.023551763422628078,-0.02202597190529418,2.030918477061048
13244,4.0,300.17768,6462.0039,0.0,0.0,0.0,0.0,0.0,0.13200042612812296,-0.9004598104809641,-0.033888832525067365,-1.0299392410720891,-0.003575647132138897,-0.024294890165218977,2.029126746909218
13245,4.0,300.38607,6343.0782,0.0,0.0,0.0,0.0,0.0,0.13201039293770678,-0.8744655681755321,-0.04104661158998516,-1.0126252083983271,-0.005792969379746563,0.0004957687641885675,2.042723550001118
13246,4.0,299.42297,6155.7634,0.0,0.0,0.0,0.0,0.0,0.13202035974729062,-0.8909805315554321,0.009323828425665221,-0.9895416587276581,-0.013109923246598688,0.006321448511878394,2.0530911250243182
13247,4.0,299.96508,6162.4463,0.0,0.0,0.0,0.0,0.0,0.13203032655687444,-0.8758096545656832,-0.009801589121391532,-0.9876185505678621,0.0004410481216105605,0.036012850954441664,2.036093955921828
13248,4.0,299.44001000000003,6363.2384,0.0,0.0,0.0,0.0,0.0,0.13204029336645826,-0.8912345128254981,-0.020183884236744283,-1.022847199647159,0.014829101651518383,0.00045330696847541456,2.050480080841628
13249,4.0,299.79155,6587.7269,0.0,0.0,0.0,0.0,0.0,0.13205026017604207,-0.9375208007760991,-0.01884502520385918,-1.0461386783708488,-0.0015743046148967684,0.0014595838306247085,2.0300546813507983
13250,4.0,300.58759,6567.932,0.0,0.0,0.0,0.0,0.0,0.1320602269856259,-0.9174536763881282,-0.04582029828261136,-1.0332133561202188,0.01137979464784829,-0.037271307578641666,2.065102698334768
13251,4.0,300.36552,6413.5285,0.0,0.0,0.0,0.0,0.0,0.1320701937952097,-0.8984749345950721,-0.03382311717658177,-1.017254464395199,0.02375146083183668,-0.0007957866979105321,2.0288875185606083
13252,4.0,300.61884,6509.7754,0.0,0.0,0.0,0.0,0.0,0.13208016060479355,-0.8727732581235143,-0.04921203140234936,-1.056823907300399,-0.004866762428262055,-0.0075093632720664525,2.084824902256198
13253,4.0,301.08873,6454.1568,0.0,0.0,0.0,0.0,0.0,0.13209012741437737,-0.8879735092336621,-0.02887210968995537,-1.045056932564089,-4.534250323770666e-05,-0.008662513623973533,2.024856201712748
13254,4.0,300.48512999999997,6314.2636,0.0,0.0,0.0,0.0,0.0,0.13210009422396118,-0.8365717166957003,-0.03351065009749367,-1.049296067007459,-0.02647231700736427,-0.018546467008893782,2.0655276554267084
13255,4.0,299.51457,6070.9853,0.0,0.0,0.0,0.0,0.0,0.132110061033545,-0.8851228010048191,0.004788433534581595,-0.965093565147319,-0.007992343421707881,0.012434097588899887,2.017151346627338
13256,4.0,300.46387000000004,6236.7641,0.0,0.0,0.0,0.0,0.0,0.13212002784312882,-0.8592394994528362,-0.01859412826709758,-1.017986942892489,0.02138099768664018,-0.005497421550828265,2.054179152981698
13257,4.0,299.30826,6251.3015,0.0,0.0,0.0,0.0,0.0,0.13212999465271263,-0.916669390413225,0.010184517207133589,-0.993754681715951,0.018810922245243483,0.006327873936062534,2.040758554082188
13258,4.0,299.65234,6414.7172,0.0,0.0,0.0,0.0,0.0,0.13213996146229645,-0.8920035088563922,-0.024496907917156575,-1.0334134730149689,0.01203452139871479,-0.013172011159726289,2.061619448465998
13259,4.0,300.2027,6409.8555,0.0,0.0,0.0,0.0,0.0,0.13214992827188027,-0.9056786463135231,-0.013416025088558589,-1.0293413221880792,-0.015518433933050186,-0.014828320435691286,2.044967797647608
13260,4.0,299.67304,6410.3562,0.0,0.0,0.0,0.0,0.0,0.1321598950814641,-0.8780762545093792,-0.03293305397073937,-1.037578944176069,-0.011316815074632688,0.005003697606401506,2.051400213257438
13261,4.0,300.58571,6572.944,0.0,0.0,0.0,0.0,0.0,0.13216986189104793,-0.9275917806611812,-0.03569277538035266,-1.0347263411695389,-0.004691862592725786,-0.006012262437939104,2.039024376536038
13262,4.0,301.63707999999997,6571.7179,0.0,0.0,0.0,0.0,0.0,0.13217982870063175,-0.9183419724857962,-0.03583949196833247,-1.043456706681159,-3.494209789801657e-05,0.006085049360197614,2.064909268890678
13263,4.0,300.44161,6094.8857,0.0,0.0,0.0,0.0,0.0,0.13218979551021556,-0.8648886828678671,-0.017696349161743685,-0.9701080284347081,-0.013042219901416888,0.020982965689607478,2.055212769408708
13264,4.0,299.68478,6042.7556,0.0,0.0,0.0,0.0,0.0,0.13219976231979938,-0.8491632844958912,0.025334693497339578,-1.013018217714614,0.024650106266026078,0.004630598755904516,2.084996445498128
13265,4.0,299.68787000000003,6322.8747,0.0,0.0,0.0,0.0,0.0,0.1322097291293832,-0.8642877647635612,-0.016938298258429883,-1.0407699727159991,-0.012794801452248589,0.016138660531261787,2.044657033841938
13266,4.0,298.70658,6522.8442,0.0,0.0,0.0,0.0,0.0,0.13221969593896704,-0.8999193631426261,-0.03074400312344687,-1.052118373835999,0.01701378539087988,0.014255544339662687,2.061690983923058
13267,4.0,299.32088,6600.4834,0.0,0.0,0.0,0.0,0.0,0.13222966274855086,-0.905738721911952,-0.047946396914440956,-1.052697040968109,-0.0017595616903052181,0.002010994231069678,2.0151808791578683
13268,4.0,298.86012,6444.7191,0.0,0.0,0.0,0.0,0.0,0.13223962955813467,-0.919358677768637,-0.025758226972889077,-1.013916818565799,0.00996114510801348,-0.005654250881431114,2.034251360614978
13269,4.0,300.35454,6451.6973,0.0,0.0,0.0,0.0,0.0,0.1322495963677185,-0.9126469496362412,-0.025808347389085575,-1.022699569107589,0.011798498973421188,-0.022328860731186978,2.047435872241188
13270,4.0,300.55239,6529.3893,0.0,0.0,0.0,0.0,0.0,0.1322595631773023,-0.925226581350254,-0.03246140226119097,-1.027083294340229,0.015965713937943285,-0.009343980044979031,2.070045838947618
13271,4.0,300.93691,6491.871,0.0,0.0,0.0,0.0,0.0,0.13226952998688613,-0.8775028056152842,-0.036752745429213564,-1.0591111167511291,-0.0023678920230677477,0.0009013713404034252,2.076473796257008
13272,4.0,300.45897,6290.5806,0.0,0.0,0.0,0.0,0.0,0.13227949679646994,-0.8743203593037011,-0.006749350716559054,-1.031109747587609,-0.007355905328521333,0.003927099920749587,2.042396472868838
13273,4.0,300.00411,6231.4391,0.0,0.0,0.0,0.0,0.0,0.13228946360605376,-0.8538843916143282,-0.00990734689792901,-1.030410199718569,-0.008979679853050402,0.00843429970925057,2.070024155395478
13274,4.0,299.17328,6417.2458,0.0,0.0,0.0,0.0,0.0,0.1322994304156376,-0.9066216275190881,-0.026578807566374076,-1.017482040367659,0.0044254559380084955,-0.005921967263227665,2.0212498419568283
13275,4.0,300.72229,6635.7649,0.0,0.0,0.0,0.0,0.0,0.13230939722522142,-0.9185751517313091,-0.03768573598879257,-1.060845902247339,-0.0004753025509837095,-0.02224753322516058,2.091170279682438
13276,4.0,300.75987000000003,6354.7969,0.0,0.0,0.0,0.0,0.0,0.13231936403480524,-0.9046116432957182,-0.017708438248686786,-1.0093794947505002,0.026584530402938872,-0.038290284568206864,2.031862015554168
13277,4.0,301.63427,6309.7655,0.0,0.0,0.0,0.0,0.0,0.13232933084438905,-0.8754395345691552,-0.015435356544101086,-1.027136287320459,0.012694697408619088,-0.022569312072667682,2.0987371301042277
13278,4.0,300.59186,6324.0461,0.0,0.0,0.0,0.0,0.0,0.13233929765397287,-0.9035737813507891,0.00962397063451195,-1.028402343320409,-0.002398115956325618,0.01047960502050649,2.025391299090558
13279,4.0,300.97926,6541.9376,0.0,0.0,0.0,0.0,0.0,0.1323492644635567,-0.900076751280659,-0.050747396106628054,-1.037761531844089,-0.012962775014076288,0.03061884039159427,2.057325699842238
13280,4.0,299.87965,6545.0589,0.0,0.0,0.0,0.0,0.0,0.13235923127314053,-0.9150620616470942,-0.032694843938479864,-1.041777548615439,-0.005601210481096434,0.02957095031042557,2.0257645804273983
13281,4.0,300.03786,6402.3501,0.0,0.0,0.0,0.0,0.0,0.13236919808272435,-0.8976250609411961,-0.027018573308525574,-1.021510925415279,4.491566150058066e-05,-0.007034356691436952,2.065788972627498
13282,4.0,299.63808,6336.4315,0.0,0.0,0.0,0.0,0.0,0.13237916489230817,-0.8766006685212501,-0.026101136137981575,-1.023415126328209,0.02117533628734298,-0.0008562024241331002,2.067105285832408
13283,4.0,299.35017,6448.5187,0.0,0.0,0.0,0.0,0.0,0.13238913170189198,-0.8797005349496831,-0.05200741820223254,-1.028480768878149,0.010813240920683791,-0.02175730762802908,2.0572254894073483
13284,4.0,299.56804,6570.6233,0.0,0.0,0.0,0.0,0.0,0.1323990985114758,-0.8924026078057802,-0.05663477536841715,-1.0482680234559991,0.002070938309635698,-0.012012852032076188,2.052615809402408
13285,4.0,300.84757,6430.8058,0.0,0.0,0.0,0.0,0.0,0.13240906532105962,-0.8747380513924242,-0.012535909972197988,-1.067530414482049,0.007438901556137424,0.00979927577008822,2.038429396077318
13286,4.0,300.79612000000003,6322.4639,0.0,0.0,0.0,0.0,0.0,0.13241903213064343,-0.8779995818743122,-0.026561948097960177,-1.017309585200639,-0.02066758956948228,0.028103457150845276,2.0679722226179678
13287,4.0,300.1547,6448.2073,0.0,0.0,0.0,0.0,0.0,0.13242899894022728,-0.9233291590804931,-0.010125064352216051,-1.0266397947714592,0.0037167539622650564,0.011178840808515689,2.048125490259248
13288,4.0,300.43894,6585.1984,0.0,0.0,0.0,0.0,0.0,0.1324389657498111,-0.929305125785275,-0.03033684275626327,-1.042093885296659,-0.024984074512236176,-0.0046086139645097855,2.076655269349918
13289,4.0,299.88539,6524.6082,0.0,0.0,0.0,0.0,0.0,0.1324489325593949,-0.9214203985421131,-0.037127418971690966,-1.024770145686939,-0.00021164396226013281,-0.03366410682513867,2.052207976237158
13290,4.0,299.58579,6619.4758,0.0,0.0,0.0,0.0,0.0,0.13245889936897873,-0.9274881859709571,-0.022021259279079077,-1.0626459410499889,-0.02093430941980548,0.005323247911638665,2.062624187265158
13291,4.0,299.94057000000004,6509.4272,0.0,0.0,0.0,0.0,0.0,0.13246886617856254,-0.9115790448258472,-0.038873900413805264,-1.028250355805409,-0.0057860803936416755,0.002968943065786867,2.022153965021058
13292,4.0,300.15479,6350.9302,0.0,0.0,0.0,0.0,0.0,0.13247883298814636,-0.8792382091940552,-0.05350492281652475,-0.9977810741683251,0.014400171605936285,0.03132046744983947,2.051056822798548
13293,4.0,300.01932999999997,6385.1825,0.0,0.0,0.0,0.0,0.0,0.13248879979773018,-0.9012047316894821,-0.015906103421310186,-1.023825188643679,-0.0002018667371426958,0.009927080855551601,2.064038076454698
13294,4.0,299.55163,6404.8285,0.0,0.0,0.0,0.0,0.0,0.13249876660731402,-0.8699016769426112,-0.023922645383231272,-1.053083595881259,0.017612598974728184,0.017204743517975983,2.0764394470786183
13295,4.0,300.35233999999997,6306.8124,0.0,0.0,0.0,0.0,0.0,0.13250873341689784,-0.8644253945246442,-0.02754774519975077,-1.025140387273479,-0.01787941508381088,-0.015380354288922786,2.050954383213438
13296,4.0,299.82444,6338.2002,0.0,0.0,0.0,0.0,0.0,0.13251870022648166,-0.8512881611481002,-0.03753926764708726,-1.037827190450569,-0.0025070241300740176,-0.0052494488538552654,2.045200946495618
13297,4.0,300.45873,6379.0854,0.0,0.0,0.0,0.0,0.0,0.13252866703606547,-0.9107116926077461,-0.015595274767633787,-1.012775716568181,-0.004994570756125756,-0.005693500035979704,2.050617072255148
13298,4.0,300.67933999999997,6569.1849,0.0,0.0,0.0,0.0,0.0,0.1325386338456493,-0.9308403212767871,-0.011602675219344888,-1.054425240338669,-0.0016124275419592085,0.03666235136129236,2.059027453385188
13299,4.0,300.7723,6574.1625,0.0,0.0,0.0,0.0,0.0,0.1325486006552331,-0.9474660835551222,-0.03018473871750177,-1.0207304188632491,0.014279313160508487,0.014393000834978588,2.045811024380828
13300,4.0,298.8906,6514.726,0.0,0.0,0.0,0.0,0.0,0.13255856746481692,-0.9024165788090821,-0.048921447485670955,-1.028975944202019,0.017131110633208983,0.0049884188081436055,2.048115053783218
13301,4.0,298.65464,6474.6398,0.0,0.0,0.0,0.0,0.0,0.13256853427440077,-0.8794639613163351,-0.029687683814696268,-1.058977165087909,0.012423109904815488,-0.01082399251749489,2.054792371942218
13302,4.0,299.27207000000004,6596.6789,0.0,0.0,0.0,0.0,0.0,0.13257850108398458,-0.8911658144687181,-0.07380939394767003,-1.040250479389729,0.0004541645124325475,-0.00983619201760657,2.0346685156811484
13303,4.0,299.68566,6482.1169,0.0,0.0,0.0,0.0,0.0,0.1325884678935684,-0.8986297997403562,-0.025345972997452774,-1.046425934774199,-0.018477654154852485,0.003103227682989727,2.0444934952757983
13304,4.0,299.92152000000004,6176.1153,0.0,0.0,0.0,0.0,0.0,0.13259843470315222,-0.8845668306749492,0.004247841706779336,-0.9970658411877371,-0.019607510089610584,0.01124847439513799,2.0577628159353782
13305,4.0,299.74956000000003,6177.8238,0.0,0.0,0.0,0.0,0.0,0.13260840151273603,-0.8255245750954322,-0.02054311078144718,-1.0318364505593292,-0.003989636399696457,0.007689158726785882,2.090559897822198
13306,4.0,299.61752,6324.189,0.0,0.0,0.0,0.0,0.0,0.13261836832231985,-0.8939044471040002,0.018632246735859583,-1.047123354818029,-0.016365753183424085,0.02902725753201727,2.072437514483658
13307,4.0,300.60866,6636.7693,0.0,0.0,0.0,0.0,0.0,0.1326283351319037,-0.8909863374785051,-0.06458687867697864,-1.061838887345339,0.0014827136959574487,-0.003282630199320377,2.053950969059178
13308,4.0,301.19996000000003,6514.6903,0.0,0.0,0.0,0.0,0.0,0.1326383019414875,-0.9108103527699831,-0.048876146086950054,-1.0206167322020292,-0.005073932556958155,-0.005606610698829395,2.023648407593548
13309,4.0,299.0097,6411.1594,0.0,0.0,0.0,0.0,0.0,0.13264826875107133,-0.9048012223894282,-0.02710058374511937,-1.016930528338229,-0.013539559527500486,-0.0031574083949869472,2.054698443657948
13310,4.0,298.41441000000003,6639.3815,0.0,0.0,0.0,0.0,0.0,0.13265823556065515,-0.949004349194437,-0.05568837039076424,-1.013513443700989,0.009025729435645141,0.004461516394492386,2.0361716722044982
13311,4.0,299.86986,6770.0133,0.0,0.0,0.0,0.0,0.0,0.13266820237023896,-0.9561222791594222,-0.030610831662803872,-1.071181863867419,-0.008462431483701962,-0.005621395537663545,2.073749572038148
13312,4.0,299.67007,6373.3238,0.0,0.0,0.0,0.0,0.0,0.13267816917982278,-0.8769210987328742,-0.019771503605045482,-1.040638655503039,-0.014663780778452486,0.003931577574266497,2.0592238212545677
13313,4.0,299.85831,6066.3579,0.0,0.0,0.0,0.0,0.0,0.1326881359894066,-0.8298845801432312,0.01263810131103349,-1.0267748610097889,-0.0033137760888442363,-0.008619348764413491,2.110637043253658
13314,4.0,300.79058,6240.1587,0.0,0.0,0.0,0.0,0.0,0.1326981027989904,-0.8788132014396102,0.023739114379368178,-1.041778359215519,-0.01076471536014469,0.02368497642652518,2.054665209054668
13315,4.0,301.18979,6692.9272,0.0,0.0,0.0,0.0,0.0,0.13270806960857426,-0.961366172666954,-0.042793036290093865,-1.030323566835019,0.012936621002495088,0.005851826443605305,2.080848503563758
13316,4.0,299.70954,6735.3677,0.0,0.0,0.0,0.0,0.0,0.13271803641815808,-0.9561666088512971,-0.04521612967198455,-1.046000876357249,0.002559890048741478,0.010883120727080389,2.0683173356020284
13317,4.0,300.5041,6471.6413,0.0,0.0,0.0,0.0,0.0,0.1327280032277419,-0.9043402239914312,-0.029662501509960974,-1.033214673345349,0.016629635933467286,0.016446109995854684,2.082998012325898
13318,4.0,300.3212,6425.6328,0.0,0.0,0.0,0.0,0.0,0.1327379700373257,-0.8782864633751252,-0.05409370319788285,-1.020851704900219,0.0013191408819640687,0.009694041641202421,2.049922084011558
13319,4.0,299.76907,6696.9614,0.0,0.0,0.0,0.0,0.0,0.13274793684690953,-0.920150978551831,-0.04355637433242946,-1.0720016845233291,-0.007722265356578254,-0.004024305157167996,2.0414440177748383
13320,4.0,299.91715,6729.0155,0.0,0.0,0.0,0.0,0.0,0.13275790365649334,-0.9426168813590431,-0.06707218054875884,-1.0357636052969088,-0.02280140106107308,-0.006478113898615063,2.043368078389728
13321,4.0,300.06085,6178.0142,0.0,0.0,0.0,0.0,0.0,0.1327678704660772,-0.8853579054255221,0.012870706043739789,-1.0054748544301422,-0.005709882668896545,0.011056123049154388,2.0540063938396482
13322,4.0,299.95701,6012.8237,0.0,0.0,0.0,0.0,0.0,0.132777837275661,-0.8377518693521723,0.014615442669181886,-1.004611838922469,0.0014135420500557387,0.025647543584965477,2.071732900364118
13323,4.0,300.05605,6420.8586,0.0,0.0,0.0,0.0,0.0,0.13278780408524482,-0.8934463769987921,-0.018739421238686882,-1.0395949065750292,0.008010888431663131,-0.008899150180152741,2.062631989290928
13324,4.0,298.63452,6539.8759,0.0,0.0,0.0,0.0,0.0,0.13279777089482864,-0.881737025795669,-0.022377495722736878,-1.083844450367119,-0.0016158894122508686,-0.025423314377585774,2.094062602092888
13325,4.0,298.51038,6420.8225,0.0,0.0,0.0,0.0,0.0,0.13280773770441245,-0.8776248617223301,-0.03880904531465457,-1.035335811104689,0.008183853364808442,0.013787639628984086,2.066205722393628
13326,4.0,299.13422,6543.9572,0.0,0.0,0.0,0.0,0.0,0.13281770451399627,-0.8932399070259152,-0.06116732880224535,-1.034792303751049,0.004709625880228886,0.0031999392639594166,2.072018130267268
13327,4.0,299.79041,6542.2997,0.0,0.0,0.0,0.0,0.0,0.1328276713235801,-0.9384445606272671,-0.024808678893425976,-1.025442538453299,-0.008897879969827382,-0.014228888769281987,2.047027025825838
13328,4.0,300.4575,6638.4287,0.0,0.0,0.0,0.0,0.0,0.1328376381331639,-0.93110004767492,-0.04893450118670925,-1.037882007280979,-0.032328341244808864,-0.02521979093599958,2.0672470395213978
13329,4.0,300.09028,6638.664000000001,0.0,0.0,0.0,0.0,0.0,0.13284760494274775,-0.9244318690318222,-0.013463144257958887,-1.0800930945218887,-0.0033971463070722363,-0.007113320487630073,2.077372650420718
13330,4.0,300.13835,6322.145,0.0,0.0,0.0,0.0,0.0,0.13285757175233157,-0.8608259653994081,0.0013878810859731987,-1.0623361904944189,0.014423346662223486,0.01965054788760808,2.0719944202149283
13331,4.0,300.62314,6184.8722,0.0,0.0,0.0,0.0,0.0,0.13286753856191538,-0.8662919734613612,0.010980380577679189,-1.024735087233479,0.0016635509744296984,-0.0031664809350573373,2.055446323556758
13332,4.0,300.24363999999997,6499.7559,0.0,0.0,0.0,0.0,0.0,0.1328775053714992,-0.9304492877981951,0.007017127994686614,-1.052331359007019,0.015972385176601683,-0.027428228297455372,2.085265058099638
13333,4.0,299.6313,6581.5486,0.0,0.0,0.0,0.0,0.0,0.13288747218108302,-0.9371645116434361,-0.029121173657286073,-1.034340799506489,-0.004065734724606776,0.0005730953711351094,2.0808422214131377
13334,4.0,300.22187,6520.3574,0.0,0.0,0.0,0.0,0.0,0.13289743899066683,-0.899983187766425,-0.051822369349719656,-1.030220316649829,0.03895659276771636,1.6796643867949683e-05,2.074143321027008
13335,4.0,299.56705,6498.7808,0.0,0.0,0.0,0.0,0.0,0.13290740580025068,-0.8986487373847251,-0.024992712469338676,-1.051825645882109,-0.005708155077476045,-0.02108566365349298,2.075252221936448
13336,4.0,299.49601,6532.1792,0.0,0.0,0.0,0.0,0.0,0.1329173726098345,-0.8750956678827181,-0.06404821668531685,-1.046475482704089,0.01218219246828879,-0.03019224284774237,2.064086408484468
13337,4.0,300.09647,6444.8947,0.0,0.0,0.0,0.0,0.0,0.1329273394194183,-0.8694317720762352,-0.04683033941954466,-1.042824945243809,0.007968152075570382,0.004261957192597426,2.058271264835558
13338,4.0,300.48355,6482.8443,0.0,0.0,0.0,0.0,0.0,0.13293730622900213,-0.9055306206064141,-0.04059509315992376,-1.024497074784989,0.01055918163036009,0.03651217047122067,2.044246059601378
13339,4.0,298.82592999999997,6321.563,0.0,0.0,0.0,0.0,0.0,0.13294727303858594,-0.8997091846743831,-0.01926601440840758,-1.002622109568598,-0.0067615967559426435,0.03253647497435007,2.036400666727098
13340,4.0,299.03431,6021.1323,0.0,0.0,0.0,0.0,0.0,0.13295723984816976,-0.8556726159208121,0.04545154921346866,-1.020052757196369,-0.003883318802478726,-0.01246665736761329,2.063378855939638
13341,4.0,299.87726000000004,6232.7186,0.0,0.0,0.0,0.0,0.0,0.13296720665775358,-0.8586088424580952,-0.0030418735655845467,-1.032940082568249,0.015370295755180088,0.012616244493126387,2.058253431633798
13342,4.0,299.99784,6678.4414,0.0,0.0,0.0,0.0,0.0,0.13297717346733742,-0.900798661579406,-0.05368607977540354,-1.075594669377929,-0.005191611930197205,-0.004592325462527236,2.038618772521008
13343,4.0,300.25115,6795.1551,0.0,0.0,0.0,0.0,0.0,0.13298714027692124,-0.9181376607356321,-0.07620514173586192,-1.071214693170659,-0.002721910563581657,-0.019527149224179582,2.048996682695228
13344,4.0,300.35964,6568.5382,0.0,0.0,0.0,0.0,0.0,0.13299710708650506,-0.9458225918929221,-0.04710115685327225,-1.003747840562199,-0.02221703237065038,-0.025428331992080975,2.047143346937318
13345,4.0,299.54196,6533.1056,0.0,0.0,0.0,0.0,0.0,0.13300707389608887,-0.9158648799663262,-0.033634779314244266,-1.036401344909849,0.0028298236244068474,-0.01120022139887579,2.074356407523038
13346,4.0,300.15353,6454.0683,0.0,0.0,0.0,0.0,0.0,0.1330170407056727,-0.8944604782288761,-0.05216757453953875,-1.015247519922129,0.014729908519728788,-0.008711827087790391,2.052742566989918
13347,4.0,299.66222999999997,6396.2292,0.0,0.0,0.0,0.0,0.0,0.1330270075152565,-0.857649375673403,-0.04212162738958096,-1.044522949761389,0.00013892742035356888,-0.029947538895591968,2.079411106971898
13348,4.0,300.3005,6376.9927,0.0,0.0,0.0,0.0,0.0,0.13303697432484032,-0.8770087549990251,-0.02025004034902338,-1.041187735732229,0.018377191420687583,-0.03983140858605396,2.0553555363477978
13349,4.0,299.65989,6369.0493,0.0,0.0,0.0,0.0,0.0,0.13304694113442417,-0.8928699795469061,-0.03340465299128257,-1.0097573255802892,0.007844379725505004,0.015395118356129884,2.079242502155258
13350,4.0,300.39246,6436.295,0.0,0.0,0.0,0.0,0.0,0.13305690794400798,-0.9251610342012851,-0.01878777859970938,-1.0125241670983551,0.017859336519829284,0.029335436536682177,2.044751266101238
13351,4.0,299.98472999999996,6720.7663,0.0,0.0,0.0,0.0,0.0,0.1330668747535918,-0.938700700120046,-0.03922541105899666,-1.065019074109199,-0.029288190711019374,0.030918780659696072,2.053099332350128
13352,4.0,300.29978,6787.1097,0.0,0.0,0.0,0.0,0.0,0.13307684156317562,-0.9403419930295293,-0.046879257107872455,-1.075890639732139,-0.0067132373684199425,0.015155031784685186,2.0609518179751083
13353,4.0,299.6566,6533.8953,0.0,0.0,0.0,0.0,0.0,0.13308680837275944,-0.8946559544381681,-0.014598236669233787,-1.076886867230459,-0.004154927077909376,0.01903686587179238,2.061007141430568
13354,4.0,300.08481,6382.6959,0.0,0.0,0.0,0.0,0.0,0.13309677518234325,-0.8591924846481962,-0.04720763930628125,-1.033780066901149,0.012253090591035886,-0.0069828309986767634,2.055210641583498
13355,4.0,299.62708,6210.4992,0.0,0.0,0.0,0.0,0.0,0.13310674199192707,-0.8712569192163631,-0.019218767569494682,-0.997361000941867,-0.01023528509014399,-0.03426363069730707,2.059389386320908
13356,4.0,299.81819,6275.2907,0.0,0.0,0.0,0.0,0.0,0.1331167088015109,-0.8744742010663841,-0.014545956003824087,-1.018511502469259,-0.0011909693039395188,-0.03786652919088546,2.071684163034308
13357,4.0,300.21761000000004,6308.6454,0.0,0.0,0.0,0.0,0.0,0.13312667561109473,-0.8849546014882191,-0.03596403763087417,-0.996752037631767,0.015742965088959684,0.01202606785313049,2.0569853491336483
13358,4.0,300.29803,6384.5753,0.0,0.0,0.0,0.0,0.0,0.13313664242067855,-0.8705861881801671,-0.015564220678568984,-1.054601039231019,0.0074580387094511135,0.0026010144252501376,2.066715589843948
13359,4.0,301.06792,6542.7143,0.0,0.0,0.0,0.0,0.0,0.13314660923026236,-0.9071630273125201,-0.030468832767289674,-1.051189932769369,-0.02025272546178838,-0.006689255461078114,2.041904337295268
13360,4.0,301.2142,6843.468000000001,0.0,0.0,0.0,0.0,0.0,0.13315657603984618,-0.9380179215401611,-0.05583570404805495,-1.086389734618319,-0.01998294458291308,-0.004585885042241615,2.080051278385078
13361,4.0,300.9159,6907.8092,0.0,0.0,0.0,0.0,0.0,0.13316654284943,-1.002790511735218,-0.03923690739463126,-1.057774133244179,0.004509812757858865,0.017739656484267785,2.0765141236109876
13362,4.0,299.70412999999996,6678.5761,0.0,0.0,0.0,0.0,0.0,0.13317650965901384,-0.9362792654285691,-0.035762698756503564,-1.058078412249209,-0.002777557043173537,0.017532419481065084,2.070661185733348
13363,4.0,299.26167999999996,6391.2803,0.0,0.0,0.0,0.0,0.0,0.13318647646859766,-0.9104690293412971,-0.012357566808846887,-1.019962983237509,-0.027069963327097372,0.01101645532098949,2.0483187170533177
13364,4.0,299.21846,6320.0536,0.0,0.0,0.0,0.0,0.0,0.13319644327818148,-0.8377236706018892,-0.01225126876735609,-1.0711635240406092,-0.034268349403022764,-0.0014819151535536387,2.073560398244478
13365,4.0,299.74951,6330.5854,0.0,0.0,0.0,0.0,0.0,0.1332064100877653,-0.8653098301394312,-0.03434457620804576,-1.024685437978579,-0.02071570577698098,0.018772232303425083,2.0490091456714583
13366,4.0,298.49769,6352.5113,0.0,0.0,0.0,0.0,0.0,0.1332163768973491,-0.8648207748461652,-0.017750022032790785,-1.0484339938223792,-0.004827983219109846,0.0031155948057602673,2.063776860578918
13367,4.0,299.19001000000003,6422.2067,0.0,0.0,0.0,0.0,0.0,0.13322634370693293,-0.9195124486038131,-0.042797759048809954,-0.9898802463810741,-0.008199783784205652,-0.029427445725262767,2.050608763604328
13368,4.0,300.11584,6583.4468,0.0,0.0,0.0,0.0,0.0,0.13323631051651674,-0.8854625842933531,-0.04949928983219955,-1.066241560354849,0.00846132055629232,-0.026667098127087677,2.065286501902908
13369,4.0,299.80851,6797.4301,0.0,0.0,0.0,0.0,0.0,0.13324627732610056,-0.949931432505933,-0.04624378312215605,-1.070073773558059,0.03693279389248296,0.022361510689159276,2.061646502243668
13370,4.0,300.01755,6804.1911,0.0,0.0,0.0,0.0,0.0,0.1332562441356844,-0.8962431499248121,-0.08098288953488891,-1.091078144156029,0.03713789800422517,0.018287248249060882,2.0561600569271983
13371,4.0,300.5003,6495.6407,0.0,0.0,0.0,0.0,0.0,0.13326621094526822,-0.8981435207523643,-0.027852771983354577,-1.0485162697304988,0.02154756485732908,-0.007580549765792014,2.0591583652981083
13372,4.0,299.52022999999997,6252.7547,0.0,0.0,0.0,0.0,0.0,0.13327617775485204,-0.8872797064926892,-0.0037188959729764566,-1.009682699710424,0.0023413409187723576,-0.016118008467723585,2.070301785922878
13373,4.0,300.20144,6327.0767,0.0,0.0,0.0,0.0,0.0,0.13328614456443585,-0.9098031720380821,-0.008975749759887531,-1.004494403235879,0.0003062952612714887,0.01924860778493968,2.0715670313227483
13374,4.0,299.9107,6446.2226,0.0,0.0,0.0,0.0,0.0,0.13329611137401967,-0.897375112406528,-0.020028515506160582,-1.042087096520989,-0.03861346575385236,0.007656352424323154,2.0527166277873583
13375,4.0,299.73591,6428.223000000001,0.0,0.0,0.0,0.0,0.0,0.1333060781836035,-0.8843255859586402,-0.027441546456769772,-1.0422521549622792,-0.05334067092231436,-0.016267922873018984,2.083002470626338
13376,4.0,299.42058,6552.8045,0.0,0.0,0.0,0.0,0.0,0.13331604499318733,-0.8842296413066711,-0.02972754608688037,-1.077931730733579,-0.03395978333681967,0.004973379136909305,2.075549914815828
13377,4.0,299.64471000000003,6813.7268,0.0,0.0,0.0,0.0,0.0,0.13332601180277115,-0.9196286785227842,-0.06462769644400704,-1.086946414223259,0.0031088084618905074,0.029546400273752674,2.081420280595188
13378,4.0,300.22196,6790.411999999999,0.0,0.0,0.0,0.0,0.0,0.13333597861235497,-0.9687667690123362,-0.05494138823154285,-1.0404075331552292,0.02191127300722428,0.002950624618553977,2.078210304278388
13379,4.0,301.5997,6757.2017,0.0,0.0,0.0,0.0,0.0,0.13334594542193878,-0.9422624160765601,-0.04657482104907695,-1.065183321950409,0.03390512356017517,-0.006630624655966704,2.075498543035758
13380,4.0,301.57576,6450.9980000000005,0.0,0.0,0.0,0.0,0.0,0.1333559122315226,-0.9000269905682481,-0.017236393398099584,-1.0436789124280892,0.007351900457501083,-0.021529185513765182,2.0768434298934877
13381,4.0,300.76183,6405.9735,0.0,0.0,0.0,0.0,0.0,0.13336587904110642,-0.8729738309808092,-0.031951228809340766,-1.042330985820059,0.01089747544124709,-0.015187415257881184,2.084880934986728
13382,4.0,300.09976,6517.7428,0.0,0.0,0.0,0.0,0.0,0.13337584585069023,-0.8681612273783422,-0.033562951027905366,-1.079506828014029,-0.04006641472149726,-0.017263485679273383,2.037421820177878
13383,4.0,300.0303,6386.7465,0.0,0.0,0.0,0.0,0.0,0.13338581266027405,-0.8727012160414042,-0.03773306692746376,-1.030977214474529,-0.031215979073027266,-0.03352722585587957,2.065173929816798
13384,4.0,299.44961,6281.2961,0.0,0.0,0.0,0.0,0.0,0.1333957794698579,-0.9110509895362321,0.01380155661910759,-1.0121077314397562,-0.011672080824694689,-0.01005939166155966,2.055562442018218
13385,4.0,299.12767,6544.3671,0.0,0.0,0.0,0.0,0.0,0.1334057462794417,-0.9128826417420022,-0.04668526429672686,-1.029756248104029,0.017808531146565183,0.02207867509599558,2.056993151159418
13386,4.0,300.10407999999995,6622.0153,0.0,0.0,0.0,0.0,0.0,0.13341571308902553,-0.9024455172319381,-0.07082369547425453,-1.0396581333812691,0.042040639322338064,0.006265634440719974,2.0365160759134877
13387,4.0,300.00739,6766.7396,0.0,0.0,0.0,0.0,0.0,0.13342567989860935,-0.9085417465910892,-0.05122402490066766,-1.0971540983806791,-0.008870004547651291,-0.012966438926437887,2.099727886052008
13388,4.0,300.23411,6714.0197,0.0,0.0,0.0,0.0,0.0,0.13343564670819316,-0.8820513055791862,-0.05380005926590244,-1.1050429596842488,-0.005065456415896625,0.012384462519501288,2.074886236000328
13389,4.0,300.2707,6478.816,0.0,0.0,0.0,0.0,0.0,0.13344561351777698,-0.916099467629478,-0.010262671213846792,-1.043036106564649,0.017613440985561283,0.027564805291684473,2.090054589997328
13390,4.0,299.99944,6525.3285,0.0,0.0,0.0,0.0,0.0,0.13345558032736082,-0.9379271545962031,-0.016845764206297485,-1.028763972281099,0.02181424113789798,0.04588842111333455,2.082208386522968
13391,4.0,301.24829,6672.9674,0.0,0.0,0.0,0.0,0.0,0.13346554713694464,-0.9613070292586171,-0.024415251104847678,-1.042693222730809,0.023087008906510376,0.005243944372687015,2.067279058224558
13392,4.0,300.93604,6569.2913,0.0,0.0,0.0,0.0,0.0,0.13347551394652846,-0.9238376282456752,0.0002733821419832167,-1.073336236230039,-0.00957622649244997,0.012328572657235387,2.107602359204158
13393,4.0,300.7808,6384.1908,0.0,0.0,0.0,0.0,0.0,0.13348548075611227,-0.8705852762550771,-0.023568227723502977,-1.046481055579639,0.004004081191797046,-0.015180610270209586,2.057207858855608
13394,4.0,300.86293,6483.4754,0.0,0.0,0.0,0.0,0.0,0.1334954475656961,-0.8573224505286382,-0.04687786186248476,-1.0666143350666388,-0.008626976916466331,-0.04089779554779816,2.059999565531128
13395,4.0,300.16817000000003,6641.1882,0.0,0.0,0.0,0.0,0.0,0.1335054143752799,-0.9519403933467021,-0.02661216477291618,-1.040202856635029,0.014178994307857786,-0.03117234852372127,2.059425559349478
13396,4.0,299.94383,6750.7841,0.0,0.0,0.0,0.0,0.0,0.13351538118486372,-0.9532668289201112,-0.05876357937801374,-1.0400394193938989,-0.013443420331512287,-0.013379095162163885,2.078218815579228
13397,4.0,300.33527000000004,6767.0912,0.0,0.0,0.0,0.0,0.0,0.13352534799444757,-0.9587005649663791,-0.05408214201424185,-1.044244002008859,0.016141096384502184,0.015543130890987586,2.051450065162358
13398,4.0,299.69767,6535.951999999999,0.0,0.0,0.0,0.0,0.0,0.13353531480403139,-0.8714977079701273,-0.05554611514297474,-1.059722410536459,-0.04118584228622616,0.01151710016889929,2.065285286002788
13399,4.0,300.0679,6399.0069,0.0,0.0,0.0,0.0,0.0,0.1335452816136152,-0.8781928390658851,-0.016827891487783585,-1.050117610188539,-0.01010181330217135,-0.013925672663606887,2.0651345143879083
13400,4.0,299.91157000000004,6536.3508,0.0,0.0,0.0,0.0,0.0,0.13355524842319902,-0.8660976118271793,-0.01206776410799559,-1.108722070797349,-0.021866589691064378,-0.0015878324156568583,2.095517122611438
13401,4.0,300.48631,6478.8899,0.0,0.0,0.0,0.0,0.0,0.13356521523278284,-0.9491229602511432,-0.025812571628752473,-0.9944852147730491,0.01292514290536229,0.016437131586718588,2.059270734734198
13402,4.0,301.10266,6307.0803,0.0,0.0,0.0,0.0,0.0,0.13357518204236665,-0.8883998139482351,-0.012633391724568687,-1.0161616741623491,0.01841581448799938,0.006309353953384754,2.059692246775798
13403,4.0,299.95374,6351.4117,0.0,0.0,0.0,0.0,0.0,0.13358514885195047,-0.9175445649220981,-0.01107864962537759,-1.0020473535818741,0.006643993477786104,-0.0014013375539262487,2.068030889798758
13404,4.0,299.71089,6748.0414,0.0,0.0,0.0,0.0,0.0,0.1335951156615343,-0.922996914372703,-0.050438825987424545,-1.0778003121956092,0.01028988305853239,0.005448825873382245,2.076266079986508
13405,4.0,300.92863,6740.5627,0.0,0.0,0.0,0.0,0.0,0.13360508247111813,-0.9217991108994892,-0.03575270709726747,-1.0914108954888688,-0.008437074697299441,-0.013084118806301987,2.075322744143408
13406,4.0,301.47991,6553.9411,0.0,0.0,0.0,0.0,0.0,0.13361504928070195,-0.8703229356716862,-0.04075666804736996,-1.081154879301679,-0.014219176767073486,0.003590458315475647,2.0751801798543377
13407,4.0,300.62327999999997,6491.1102,0.0,0.0,0.0,0.0,0.0,0.13362501609028576,-0.9164302228596212,-0.025251624214391276,-1.031453543346539,0.006137951147918614,-0.03451290947365897,2.0907721737181477
13408,4.0,299.0475,6503.6361,0.0,0.0,0.0,0.0,0.0,0.13363498289986958,-0.9294729909293422,-0.003154660359390737,-1.044315334815899,0.03668287778181817,0.014198642240546885,2.090940575884768
13409,4.0,299.12602999999996,6604.9069,0.0,0.0,0.0,0.0,0.0,0.1336449497094534,-0.9358276091964941,-0.04419971316542205,-1.027699451726039,0.027800409244686772,0.018789402839619683,2.080595798988818
13410,4.0,300.26867999999996,6596.7011,0.0,0.0,0.0,0.0,0.0,0.13365491651903721,-0.9139440313542532,-0.03516150910117076,-1.056126892556609,0.018676441665471284,0.013610171913719386,2.0575881316181377
13411,4.0,300.92154,6421.0824,0.0,0.0,0.0,0.0,0.0,0.13366488332862106,-0.8707056301019551,-0.017862973074438182,-1.063280134287579,0.0085575213578866,0.01252102634147909,2.073081130947178
13412,4.0,300.09734,6459.2657,0.0,0.0,0.0,0.0,0.0,0.13367485013820488,-0.8866369208942512,-0.044840089255122256,-1.031978508223349,0.018862745934858084,0.0029487771596466475,2.052931234158538
13413,4.0,298.83107,6811.3648,0.0,0.0,0.0,0.0,0.0,0.1336848169477887,-0.9542721351393272,-0.04786825405347886,-1.068344459612389,0.007720524896881483,-0.008533392934580311,2.0718713103277784
13414,4.0,298.55836,6900.5242,0.0,0.0,0.0,0.0,0.0,0.1336947837573725,-0.9636516798575162,-0.09424289741279981,-1.039692482559659,-0.02167707747186098,-0.008363080487546783,2.0330491393713284
13415,4.0,299.61062000000004,6648.7829,0.0,0.0,0.0,0.0,0.0,0.13370475056695633,-0.9172812009561061,-0.06565269720541674,-1.038130050905459,0.001023733388184619,-0.03449466793210867,2.071720437387888
13416,4.0,300.03573,6472.2462,0.0,0.0,0.0,0.0,0.0,0.13371471737654014,-0.8657673733545872,-0.01952435974665428,-1.0821094622208889,-0.031407206724649965,-4.704435506591636e-05,2.045165989367168
13417,4.0,299.58181,6377.901,0.0,0.0,0.0,0.0,0.0,0.13372468418612396,-0.8460746550110672,-0.04245274333675956,-1.050195225146199,-0.004797744289750496,0.0069004381614952235,2.075386680224718
13418,4.0,299.61669,6381.3778,0.0,0.0,0.0,0.0,0.0,0.1337346509957078,-0.8681004627698452,0.002433422149435068,-1.074112487131649,-0.013604100519120187,-0.0003172537738855097,2.070697764061958
13419,4.0,300.14571,6633.8024,0.0,0.0,0.0,0.0,0.0,0.13374461780529162,-0.918908105714169,-0.02883200119799697,-1.0687701259793991,-0.00934870908584575,-0.006630514920980873,2.119321508535748
13420,4.0,300.69923,6651.5061,0.0,0.0,0.0,0.0,0.0,0.13375458461487544,-0.9551881537597311,-0.033106141405821764,-1.033597479233129,0.014554677047434787,-0.011702946449240888,2.081882018665758
13421,4.0,300.70422,6691.7869,0.0,0.0,0.0,0.0,0.0,0.13376455142445925,-0.9464314842755152,-0.02004500919128838,-1.067659603869799,0.026625966252528274,-0.011672984643783888,2.102812422006428
13422,4.0,301.28732,6795.2862,0.0,0.0,0.0,0.0,0.0,0.13377451823404307,-0.9558190843319991,-0.051399852164020446,-1.058378435603819,0.01976226276413348,0.0019119983790745478,2.0631660734186377
13423,4.0,299.16853,6761.2833,0.0,0.0,0.0,0.0,0.0,0.1337844850436269,-0.9224689097455931,-0.04580976048157136,-1.086982587251829,-0.0018385179884475983,-0.021196423035174078,2.0940447688911283
13424,4.0,299.43174,6553.9712,0.0,0.0,0.0,0.0,0.0,0.1337944518532107,-0.926455228156512,0.0026644251363832873,-1.068452776048079,-0.015765112709645486,-0.00012571148784175788,2.092946912407778
13425,4.0,300.04778999999996,6501.1374,0.0,0.0,0.0,0.0,0.0,0.13380441866279455,-0.9207648865224192,-0.048221304838822254,-1.0071972478776292,-0.02047951717867098,0.011411733304250387,2.069073321501638
13426,4.0,299.92701,6404.0692,0.0,0.0,0.0,0.0,0.0,0.13381438547237837,-0.9128124539075753,-0.01308381584452209,-1.020780878718229,0.003192343333259757,0.005453732536991495,2.092330045746898
13427,4.0,299.11927000000003,6407.3668,0.0,0.0,0.0,0.0,0.0,0.13382435228196218,-0.9034577034193332,-0.01075948800287879,-1.033462311669789,0.013915659726118686,0.008091927668036082,2.073025706166708
13428,4.0,299.30142,6749.7541,0.0,0.0,0.0,0.0,0.0,0.133834319091546,-0.8932756240919402,-0.06862003964002064,-1.089861028135909,0.0037611366471202866,0.017750693817607084,2.085018838325338
13429,4.0,299.57827000000003,6764.8774,0.0,0.0,0.0,0.0,0.0,0.13384428590112982,-0.9023143824039961,-0.054929846299653744,-1.099109569748669,-0.008949193690666652,0.013319708573802887,2.0471771894906583
13430,4.0,300.58095,6688.0939,0.0,0.0,0.0,0.0,0.0,0.13385425271071363,-0.8822688199781531,-0.06932917589475693,-1.0814154872273989,0.0036897123435962564,-0.008638047585733923,2.066355480758408
13431,4.0,300.32701000000003,6679.2816,0.0,0.0,0.0,0.0,0.0,0.13386421952029748,-0.9369958460317901,-0.05058165473477065,-1.042757361462139,0.024576512898012975,-0.009436607822745682,2.0562902595650483
13432,4.0,300.15954,6912.6485,0.0,0.0,0.0,0.0,0.0,0.1338741863298813,-0.9272008181100961,-0.08165621347809082,-1.092415532963019,0.009457088950992011,-0.019050384654626582,2.095515805386308
13433,4.0,299.6482,6762.5224,0.0,0.0,0.0,0.0,0.0,0.1338841531394651,-0.9614963854373052,-0.06472969425207344,-1.029411844395039,0.010113140931664301,-0.02138861631414208,2.053631896602688
13434,4.0,300.42006000000003,6526.0923,0.0,0.0,0.0,0.0,0.0,0.13389411994904893,-0.8569125705981862,-0.033568342531687466,-1.0932881439491389,-0.014232634754901687,-0.03791945934960926,2.091178993633298
13435,4.0,300.64104,6451.8884,0.0,0.0,0.0,0.0,0.0,0.13390408675863275,-0.8855522366622012,-0.03143299799269537,-1.044227790007259,-0.011001488603762388,-0.018047074538107583,2.065193080243688
13436,4.0,300.85828,6773.0755,0.0,0.0,0.0,0.0,0.0,0.13391405356821656,-0.9221087094675441,-0.03310004569322017,-1.103637075170499,-0.015617372739064685,0.006863751415124524,2.108575281950178
13437,4.0,300.03862999999996,6811.3345,0.0,0.0,0.0,0.0,0.0,0.13392402037780038,-0.9869238055042961,-0.02875057034046037,-1.0548012574507792,-0.005661870420858104,0.02940006466781047,2.0739222298551883
13438,4.0,301.33684,6712.5768,0.0,0.0,0.0,0.0,0.0,0.1339339871873842,-0.9510524924165731,-0.04240497771379546,-1.0469982184306792,-0.0067544849561407645,0.02321591255773218,2.1083177137747584
13439,4.0,301.09634,6541.391,0.0,0.0,0.0,0.0,0.0,0.13394395399696804,-0.9348620730437031,0.0018265602187174583,-1.055383977583289,0.016181030597443382,0.0056279508605105045,2.092817824345038
13440,4.0,300.8741,6575.8963,0.0,0.0,0.0,0.0,0.0,0.13395392080655186,-0.8672045774289282,-0.031014837782426172,-1.1006889226795389,0.03215218467517357,-0.016648275682306885,2.098512695207078
13441,4.0,299.49855,6815.3677,0.0,0.0,0.0,0.0,0.0,0.13396388761613567,-0.9083309399077841,-0.07801880672585673,-1.085351862540889,0.0012234679836718887,-0.01000499593789122,2.040807291411998
13442,4.0,300.55753,6769.6933,0.0,0.0,0.0,0.0,0.0,0.1339738544257195,-0.9246508425109331,-0.041097181889226064,-1.0920697107038888,-0.017622948311249585,-0.026498155898164375,2.083989882848788
13443,4.0,300.38895,6379.5565,0.0,0.0,0.0,0.0,0.0,0.1339838212353033,-0.9110032147940171,-0.03810338754751156,-0.9901192720796641,-0.0005087849344431636,0.0034996384798624265,2.065075340582068
13444,4.0,300.67023,6345.9905,0.0,0.0,0.0,0.0,0.0,0.13399378804488712,-0.8942088578315431,0.0007800172332917073,-1.035593784580149,0.018039008054061483,0.02296228288545088,2.087787341573568
13445,4.0,299.63641,6621.9254,0.0,0.0,0.0,0.0,0.0,0.13400375485447097,-0.9072498425810881,-0.05249901067374895,-1.053151078337919,0.027772859987717873,0.018033158561234185,2.064269705427558
13446,4.0,299.89062,6916.3718,0.0,0.0,0.0,0.0,0.0,0.13401372166405479,-0.8986547560903191,-0.08422686849854472,-1.1195227089132889,-0.007272713138335904,-0.014332698268527186,2.065242324198548
13447,4.0,299.92314,6717.5333,0.0,0.0,0.0,0.0,0.0,0.1340236884736386,-0.9024413223765242,-0.04972240243796905,-1.089798611929749,-0.015480247576531487,-0.004483160227228465,2.065408801189978
13448,4.0,302.27743,6512.081,0.0,0.0,0.0,0.0,0.0,0.13403365528322242,-0.8998522454560022,-0.05108400285609855,-1.0285737852373291,-0.003377032178012127,0.01068760398778439,2.0755438353152282
13449,4.0,299.74681,6556.1428,0.0,0.0,0.0,0.0,0.0,0.13404362209280624,-0.9446751064196741,-0.014110295951077786,-1.0341182897845291,-0.014200193526449988,0.027492781448076275,2.087433311988628
13450,4.0,299.7438,6700.8059,0.0,0.0,0.0,0.0,0.0,0.13405358890239005,-0.9681866022700781,-0.023221066960990876,-1.0454700346298589,-0.0015074032571691185,0.011349930114400887,2.080884473942308
13451,4.0,299.77297999999996,6570.3546,0.0,0.0,0.0,0.0,0.0,0.13406355571197387,-0.8983567997659131,-0.025299055464822372,-1.073567865202899,0.00016107845569220583,-0.002052808326921408,2.102249662900888
13452,4.0,300.4646,6309.2683,0.0,0.0,0.0,0.0,0.0,0.1340735225215577,-0.8601889553265402,0.02220586838104858,-1.0798769682755591,-0.005093688704757935,0.0009879975770327692,2.085389789186948
13453,4.0,299.94955,6481.9206,0.0,0.0,0.0,0.0,0.0,0.13408348933114153,-0.8616334851991042,-0.04567269408754395,-1.063035839688469,0.003096710863646567,-0.014188892748084686,2.077758394733788
13454,4.0,299.66817000000003,6728.4687,0.0,0.0,0.0,0.0,0.0,0.13409345614072535,-0.955660500558848,-0.02528500979193618,-1.0643410071422792,0.018225181614185383,-0.04350761876411766,2.068881411932698
13455,4.0,298.37611,6908.9019,0.0,0.0,0.0,0.0,0.0,0.13410342295030916,-0.983495868958485,-0.04405932533756686,-1.072578426480249,0.006078149329666635,-0.010702451141499689,2.0906975985107876
13456,4.0,299.43565,6693.8929,0.0,0.0,0.0,0.0,0.0,0.13411338975989298,-0.9540112333710782,-0.03557565380129367,-1.045189364352159,0.00926741390249754,-0.00897782742921758,2.0839831953981283
13457,4.0,300.08407,6253.5968,0.0,0.0,0.0,0.0,0.0,0.1341233565694768,-0.8481854981493913,-0.011185074323130888,-1.041566691269629,-0.02013062578498808,0.01173343311824969,2.085005970049068
13458,4.0,300.61341,6161.6624,0.0,0.0,0.0,0.0,0.0,0.13413332337906061,-0.8135483439484702,-0.007501973335112123,-1.051941156393509,-0.009044831429180361,-0.015203317204950587,2.0786762979993783
13459,4.0,301.00073,6606.201999999999,0.0,0.0,0.0,0.0,0.0,0.13414329018864446,-0.8802254491639881,-0.04625256090777236,-1.081642455249799,-0.006349820223953463,0.012592000457983688,2.066299346702868
13460,4.0,299.78673,6597.2389,0.0,0.0,0.0,0.0,0.0,0.13415325699822828,-0.9195991828123731,-0.021960416650324378,-1.063836307267469,-0.001006822811435675,0.036021755396320465,2.0772268437313284
13461,4.0,299.9802,6397.1226,0.0,0.0,0.0,0.0,0.0,0.1341632238078121,-0.9211536705857891,-0.04053691943193246,-0.982874939164704,-0.008781305241847353,0.03155369229160697,2.060876837467708
13462,4.0,300.60558,6640.1402,0.0,0.0,0.0,0.0,0.0,0.1341731906173959,-0.9465253416322781,-0.03119836979953937,-1.040713129385389,0.0056559788781516546,0.004363323745851526,2.0858935771366682
13463,4.0,299.97312999999997,6886.1206,0.0,0.0,0.0,0.0,0.0,0.13418315742697973,-0.9538975872398622,-0.06426271970498663,-1.075048426249019,-0.01900963376210478,0.005450549411802345,2.0794647079021877
13464,4.0,299.95178,6959.7009,0.0,0.0,0.0,0.0,0.0,0.13419312423656354,-0.9139936603441511,-0.0918327989634416,-1.109748797123679,0.004467239028407166,-0.017132314374327787,2.091252859565588
13465,4.0,300.4237,6713.3164,0.0,0.0,0.0,0.0,0.0,0.13420309104614736,-0.9206003448386801,-0.03043203760315827,-1.0896481442898989,-0.02396375091328808,-0.024959987530858978,2.0986651893471278
13466,4.0,300.45644,6358.3471,0.0,0.0,0.0,0.0,0.0,0.1342130578557312,-0.8957358865272492,-0.018779188265361582,-1.018263661494799,0.015465204865546884,-0.031703720180913574,2.084586687157688
13467,4.0,300.09421000000003,6205.5947,0.0,0.0,0.0,0.0,0.0,0.13422302466531502,-0.9368949769843351,0.03788236932969876,-0.987333209207201,0.036317578829265965,0.0008140615247266172,2.112770036039168
13468,4.0,300.12318999999997,6573.6374,0.0,0.0,0.0,0.0,0.0,0.13423299147489884,-0.9253456483695052,-0.008422523108638311,-1.064453477903379,0.02039805085738088,0.012966422714436288,2.1134545878067277
13469,4.0,298.74017000000003,6688.5847,0.0,0.0,0.0,0.0,0.0,0.13424295828448266,-0.9011239249940071,-0.04334173148424586,-1.088697107746039,0.029290343867481874,0.021361032606669775,2.082765370102938
13470,4.0,298.31573,6600.494000000001,0.0,0.0,0.0,0.0,0.0,0.13425292509406647,-0.8572408838955882,-0.05439554330992215,-1.094748946618309,-0.02796026565996337,-0.0008038369902200343,2.092096592923858
13471,4.0,299.0466,6746.2698,0.0,0.0,0.0,0.0,0.0,0.1342628919036503,-0.8981537545783741,-0.06510067956418684,-1.087443109422279,-0.015492163397707485,0.01916357887629798,2.076182790828288
13472,4.0,299.87515,6759.2880000000005,0.0,0.0,0.0,0.0,0.0,0.1342728587132341,-0.9333039679674301,-0.05386562667987345,-1.067485223527589,-0.013973662214843087,-0.005148853383927265,2.077974824955148
13473,4.0,300.41683,6715.6086,0.0,0.0,0.0,0.0,0.0,0.13428282552281795,-0.9627355193820981,-0.04093283373625616,-1.037708944163899,-0.009375157649231022,-0.007268320192527353,2.0722662752167578
13474,4.0,300.88802000000004,6775.8816,0.0,0.0,0.0,0.0,0.0,0.13429279233240177,-0.9442707284372651,-0.051265555995766446,-1.064162573799669,-0.012781004025636887,-0.033706101988783266,2.080154123270228
13475,4.0,299.91771,6517.183000000001,0.0,0.0,0.0,0.0,0.0,0.13430275914198558,-0.8860743745712321,-0.02963895053788667,-1.065347569791619,0.02845287847433047,0.0008887594569387291,2.093021690265158
13476,4.0,299.90009,6359.4413,0.0,0.0,0.0,0.0,0.0,0.1343127259515694,-0.8334694387320294,-0.023429765070837775,-1.0762121439888688,0.032495568041312865,0.020153288136724682,2.106023816873368
13477,4.0,300.99093,6603.1283,0.0,0.0,0.0,0.0,0.0,0.13432269276115322,-0.8911846507880772,-0.04590758167272555,-1.070093835910039,0.023934637198164778,0.01055772660321649,2.103099678409778
13478,4.0,299.6089,6638.6149,0.0,0.0,0.0,0.0,0.0,0.13433265957073703,-0.9178781065900162,-0.024591917339283276,-1.0755031728938989,0.003400740507826957,0.0033082659334754266,2.103187527193448
13479,4.0,298.8968,6606.335999999999,0.0,0.0,0.0,0.0,0.0,0.13434262638032085,-0.94860049810208,-0.018282649106856983,-1.041278016316139,0.0067196692774047235,-0.005775033029126385,2.115767331159978
13480,4.0,299.50675,6674.6041,0.0,0.0,0.0,0.0,0.0,0.13435259318990467,-0.9305785075834481,-0.03300381834447327,-1.065330648514949,-0.01009585843133365,-0.013055700180747287,2.0739008502780782
13481,4.0,299.16253,6849.8387,0.0,0.0,0.0,0.0,0.0,0.1343625599994885,-0.925089660864241,-0.03641791288066817,-1.1206723424767489,-0.014804406720081185,-0.008159714302376104,2.117120830643558
13482,4.0,300.99451,6989.1369,0.0,0.0,0.0,0.0,0.0,0.13437252680907233,-0.9419320154839521,-0.06943151922110744,-1.113159599610299,-0.026452073283616376,-0.0018563819930106382,2.081040413132698
13483,4.0,300.3949,6805.7884,0.0,0.0,0.0,0.0,0.0,0.13438249361865615,-0.9303460072155022,-0.02192393964672438,-1.1165197395919189,-0.007948914914471823,0.00915192760777493,2.1497238751362278
13484,4.0,300.09659,6595.2611,0.0,0.0,0.0,0.0,0.0,0.13439246042823996,-0.9483289369427791,-0.011758513084724889,-1.044707259954579,0.0033907663778175875,0.01930774207402578,2.089815361648718
13485,4.0,300.65762,6555.4713,0.0,0.0,0.0,0.0,0.0,0.13440242723782378,-0.929026502272777,-0.026984419687404875,-1.036688702638209,0.018981952782622883,-0.006982370375181304,2.135930298874908
13486,4.0,300.54541,6494.9696,0.0,0.0,0.0,0.0,0.0,0.13441239404740762,-0.8990242884017892,-0.03228160204419607,-1.043002669311349,-6.985982409137783e-06,-0.033331496334062564,2.069949478863108
13487,4.0,299.29965,6661.9651,0.0,0.0,0.0,0.0,0.0,0.13442236085699144,-0.8898393383653052,-0.05905257654503554,-1.0761791120356092,0.013197399154231886,-0.014778074376482386,2.1025688366823876
13488,4.0,300.64284,6501.6772,0.0,0.0,0.0,0.0,0.0,0.13443232766657526,-0.8943560425410692,-0.03585736063384597,-1.0461341187453992,0.003189765219705317,-0.0053507729519301755,2.062583150636108
13489,4.0,299.74491,6416.0562,0.0,0.0,0.0,0.0,0.0,0.13444229447615907,-0.8594772991188052,-0.02330063445159358,-1.0675429787832889,-0.017814759594929883,0.02010725922443198,2.084851044108778
13490,4.0,300.05332000000004,6867.6239,0.0,0.0,0.0,0.0,0.0,0.1344522612857429,-0.948494876911656,-0.06481241193723704,-1.0742788627980688,-0.007014391307491524,0.015080228596052684,2.0589808438805877
13491,4.0,300.39296,6986.5444,0.0,0.0,0.0,0.0,0.0,0.1344622280953267,-0.9437897994098011,-0.06981262892822003,-1.110132616261559,-0.0092705940892614,-0.0058908121531278945,2.097829460664648
13492,4.0,300.29312000000004,6727.8369999999995,0.0,0.0,0.0,0.0,0.0,0.13447219490491052,-0.9302345294395001,-0.04922224496335736,-1.065637663295249,0.008894725823591092,0.005961096347639405,2.097297403037138
13493,4.0,299.73877999999996,6737.7565,0.0,0.0,0.0,0.0,0.0,0.13448216171449434,-0.9202349871176222,-0.03243776313635797,-1.095436943436209,-0.006853871416049443,-0.015133621810072185,2.097372991494598
13494,4.0,299.26051,6642.5305,0.0,0.0,0.0,0.0,0.0,0.13449212852407819,-0.9306041022809741,-0.009822252229355819,-1.078737061913059,-0.015250314784338883,-0.031283445317685676,2.105634222209918
13495,4.0,299.65939,6604.5594,0.0,0.0,0.0,0.0,0.0,0.134502095333662,-0.9147127943376242,-0.02938228618155587,-1.0635260500868489,-0.006088478806486074,-0.007027243270434914,2.106536014798918
13496,4.0,299.76721000000003,6684.8535,0.0,0.0,0.0,0.0,0.0,0.13451206214324582,-0.9342703045878001,-0.03444692257414657,-1.063311342390659,0.016092494830205584,0.029766376870462675,2.095026709563038
13497,4.0,300.17326,6708.6042,0.0,0.0,0.0,0.0,0.0,0.13452202895282964,-0.9317938301508911,-0.03660343086797736,-1.0708509363847591,0.01198151017998299,0.0089648408053359,2.101115734713978
13498,4.0,300.09267,6586.7836,0.0,0.0,0.0,0.0,0.0,0.13453199576241345,-0.8975467063109632,-0.05096918540776695,-1.0537018810922791,0.005077209813081595,-0.002134338685617828,2.080563982935678
13499,4.0,300.49555,6763.5985,0.0,0.0,0.0,0.0,0.0,0.13454196257199727,-0.925896349798855,-0.03166885323172247,-1.098399788053619,0.019665201510554283,-0.0033590479006622167,2.110677167957618
13500,4.0,300.95912999999996,7030.6239,0.0,0.0,0.0,0.0,0.0,0.13455192938158111,-0.940361072528912,-0.08257707036772233,-1.114195951812579,-0.004974900734584475,0.026923971212939074,2.091436865783748
13501,4.0,301.23935,6728.5636,0.0,0.0,0.0,0.0,0.0,0.13456189619116493,-0.947516573807605,-0.021164674869790782,-1.0766340613305092,-0.037388724013479764,0.02745888316598077,2.1118414936475283
13502,4.0,300.25083,6424.009,0.0,0.0,0.0,0.0,0.0,0.13457186300074875,-0.8919771643537922,-0.022211730032877082,-1.038549435121849,-0.05575278168637115,0.008901615822946081,2.089260708543978
13503,4.0,299.53988,6504.7082,0.0,0.0,0.0,0.0,0.0,0.13458182981033256,-0.9156994263574971,-0.026202748911009974,-1.035366715232739,-0.017063047584241684,0.0027840347510628377,2.078087599691278
13504,4.0,299.32905,6672.1671,0.0,0.0,0.0,0.0,0.0,0.13459179661991638,-0.8900247428686031,-0.04165687186021316,-1.096490622215199,0.0066165395676516135,0.005404656984298115,2.093264667639138
13505,4.0,299.77666,6532.1568,0.0,0.0,0.0,0.0,0.0,0.1346017634295002,-0.9025727915769992,-0.03542334609926207,-1.047616402316689,0.027286513111969175,-0.02377067104048258,2.066949143991998
13506,4.0,300.61779,6418.4306,0.0,0.0,0.0,0.0,0.0,0.13461173023908402,-0.8942204392801862,-0.024286500454390975,-1.032535694453339,0.008021780667588112,-0.025517981321178676,2.080628526967048
13507,4.0,299.72126000000003,6404.6966,0.0,0.0,0.0,0.0,0.0,0.13462169704866783,-0.9202052482271872,-0.03196793223723927,-0.9946946637012201,0.01885835856192508,-0.01071816766380079,2.064330905733598
13508,4.0,299.75962000000004,6785.3867,0.0,0.0,0.0,0.0,0.0,0.13463166385825165,-0.9298621296302471,-0.06744905892345383,-1.065276946259649,0.029023809441926972,0.03042408966937387,2.1122289604857682
13509,4.0,299.85746,6990.6429,0.0,0.0,0.0,0.0,0.0,0.1346416306678355,-0.9456030611262561,-0.07278936925750143,-1.106588470061779,0.0058052003217036645,0.01015873303183889,2.054445536432988
13510,4.0,300.9694,6801.1116,0.0,0.0,0.0,0.0,0.0,0.1346515974774193,-0.909642156464691,-0.04001339742326486,-1.1177125376096388,-0.02221872145856708,0.0018730446882551182,2.134837609967068
13511,4.0,300.97184,6434.1343,0.0,0.0,0.0,0.0,0.0,0.13466156428700313,-0.8816312830152332,0.001014100216833899,-1.075198995213879,-0.006599909397735343,0.0038508254929718864,2.076677459527108
13512,4.0,300.04996,6524.4917,0.0,0.0,0.0,0.0,0.0,0.13467153109658694,-0.9058311911160782,-0.015205124843128987,-1.062246213885539,-0.007079310950673592,0.007514490114922433,2.119210354999778
13513,4.0,300.19826,6845.8066,0.0,0.0,0.0,0.0,0.0,0.13468149790617076,-0.9674099562009292,-0.05102471252649705,-1.062519588762519,0.002196212397674288,-0.017348064704870683,2.076798948214098
13514,4.0,300.9667,6889.9364,0.0,0.0,0.0,0.0,0.0,0.1346914647157546,-0.9645256485987701,-0.06654020296800674,-1.0633027297648092,-0.026250200426443077,-0.005398542931869704,2.090433748184748
13515,4.0,300.34902999999997,6570.3734,0.0,0.0,0.0,0.0,0.0,0.13470143152533842,-0.892103840881294,-0.06440256240428803,-1.040723059236369,0.023596587580551876,-0.0010881471155917589,2.0634906174256678
13516,4.0,300.15322000000003,6526.3526,0.0,0.0,0.0,0.0,0.0,0.13471139833492224,-0.8734251224428482,-0.045154733808675254,-1.065268333633799,0.0003322691372499107,0.023003926451310774,2.076078831368028
13517,4.0,299.76135,6790.2022,0.0,0.0,0.0,0.0,0.0,0.13472136514450606,-0.9073194427304572,-0.07536649286659373,-1.081365939297509,0.02056645302400088,0.009074125097521422,2.074840741070838
13518,4.0,299.46308,6911.7976,0.0,0.0,0.0,0.0,0.0,0.13473133195408987,-0.96062260921357,-0.07227441630492953,-1.068116883639929,0.0012809989057997488,-0.013119065802250987,2.064407000816108
13519,4.0,300.14281,6634.2003,0.0,0.0,0.0,0.0,0.0,0.1347412987636737,-0.9301851334971252,-0.051732091805559946,-1.0347139795183191,-0.015302596462998684,0.005816687538087364,2.089230918991038
13520,4.0,298.77797000000004,6422.8807,0.0,0.0,0.0,0.0,0.0,0.1347512655732575,-0.8889919370416732,-0.024677578515987373,-1.0387258419642589,0.00923605908080306,0.0005540049995785366,2.074786633515498
13521,4.0,298.80908,6528.1954,0.0,0.0,0.0,0.0,0.0,0.13476123238284135,-0.8534337688973552,-0.05242443141338854,-1.078550218594619,0.0051850282363474455,-0.028444470525000674,2.078545791386498
13522,4.0,300.78938999999997,6864.1683,0.0,0.0,0.0,0.0,0.0,0.13477119919242517,-0.9119465810346202,-0.06601747636066764,-1.108571704482509,-0.00973701124746819,-0.0019529314539643281,2.103134432888208
13523,4.0,301.00619,6746.0699,0.0,0.0,0.0,0.0,0.0,0.13478116600200898,-0.9045514055772731,-0.056789725626709545,-1.089295634580109,-0.008666889141880362,-0.013534461866247386,2.0924223528310084
13524,4.0,300.45833999999996,6456.3332,0.0,0.0,0.0,0.0,0.0,0.1347911328115928,-0.9200260954770061,-0.031028891561313176,-1.0115090931481752,-0.005425616163941625,0.02318533165646408,2.106150473135868
13525,4.0,300.80588,6623.0839,0.0,0.0,0.0,0.0,0.0,0.13480109962117662,-0.9341133825448131,-0.04747084317875745,-1.031667947067699,-0.028079852476515677,0.015441949762501786,2.0830455337555875
13526,4.0,300.2064,6867.1601,0.0,0.0,0.0,0.0,0.0,0.13481106643076043,-0.9910876149352321,-0.03667761293429857,-1.0596799553572689,0.004800231109470925,0.005549278779021175,2.105370777183918
13527,4.0,300.65492,6728.7342,0.0,0.0,0.0,0.0,0.0,0.13482103324034425,-0.9375630938352731,-0.02026568391731728,-1.0875383549316788,-0.012843732312827687,0.012402535861534988,2.0863752762342083
13528,4.0,299.60326000000003,6355.8724,0.0,0.0,0.0,0.0,0.0,0.1348310000499281,-0.8829210490675231,0.00912096045556871,-1.058226448088819,0.015263456638135884,0.018814133234810383,2.131871218974308
13529,4.0,299.23385,6315.3725,0.0,0.0,0.0,0.0,0.0,0.1348409668595119,-0.8710369730171562,0.0047690333415419455,-1.0534475553171792,0.00012409906242762388,-0.013707698249094485,2.110616879576668
13530,4.0,299.22857999999997,6836.9358,0.0,0.0,0.0,0.0,0.0,0.13485093366909573,-0.9498969212075271,-0.04816100328562095,-1.080199891082429,0.0077143450845215825,-0.015767840378914683,2.1306944303081683
13531,4.0,299.69496000000004,7201.3730000000005,0.0,0.0,0.0,0.0,0.0,0.13486090047867955,-0.9731935675067271,-0.1039679918258419,-1.1118760143836188,0.014216438965303287,-0.008650816158194082,2.091927582807178
13532,4.0,298.66972999999996,6808.3106,0.0,0.0,0.0,0.0,0.0,0.13487086728826336,-0.9154984785976652,-0.06217545996274014,-1.091882462085409,0.011741154084011688,0.00935311348138043,2.093824285669368
13533,4.0,301.07039,6483.0656,0.0,0.0,0.0,0.0,0.0,0.13488083409784718,-0.8494245409016753,-0.057846272916732645,-1.0634192535263092,-0.014949402809391185,-0.01840775610995408,2.0752090574821875
13534,4.0,300.3277,6345.5238,0.0,0.0,0.0,0.0,0.0,0.134890800907431,-0.8327922127626922,-0.04433278532755526,-1.0517558329502188,0.00025889525947347274,-0.0036883323982850663,2.065460274295058
13535,4.0,300.59744,6717.4128,0.0,0.0,0.0,0.0,0.0,0.1349007677170148,-0.9101512943749392,-0.06833034940993044,-1.063444078153759,-0.014655966593681288,0.003999687334063406,2.078713078978008
13536,4.0,300.02842000000004,6888.9384,0.0,0.0,0.0,0.0,0.0,0.13491073452659866,-0.9514718563679612,-0.06659302268246964,-1.076000374717969,0.016712671779162285,0.04151278465624286,2.064460500421388
13537,4.0,301.22823999999997,6498.5322,0.0,0.0,0.0,0.0,0.0,0.13492070133618247,-0.9185206287434281,-0.04852260792830855,-1.008348269593726,-0.0005302955957186005,0.026196738311416775,2.072031302518568
13538,4.0,300.05727,6443.552,0.0,0.0,0.0,0.0,0.0,0.1349306681457663,-0.8994288487692162,-0.018935766816564684,-1.0403143141460292,0.0028471798893447775,0.027819419843062975,2.080003655630378
13539,4.0,299.38869,6823.4659,0.0,0.0,0.0,0.0,0.0,0.1349406349553501,-0.9399494194107851,-0.01864246333661788,-1.115571337498319,0.010827799298120592,-0.027057422330609676,2.099428369322448
13540,4.0,298.45212999999995,6956.2308,0.0,0.0,0.0,0.0,0.0,0.13495060176493393,-0.9210353229741092,-0.053250611226926155,-1.1402345542073888,0.015325991394557587,-0.004693645912901786,2.117913800171818
13541,4.0,299.62831,6715.3249,0.0,0.0,0.0,0.0,0.0,0.13496056857451777,-0.9205996152986081,-0.017312733687133784,-1.103378696394999,0.017094190839315286,-0.015412056858051587,2.116509030233178
13542,4.0,300.62911,6578.9421,0.0,0.0,0.0,0.0,0.0,0.1349705353841016,-0.9187421657452921,-0.03452637354098776,-1.0465655606379791,-0.02011650817134478,-0.0045422395981591455,2.134404141574288
13543,4.0,300.95158,6502.5321,0.0,0.0,0.0,0.0,0.0,0.1349805021936854,-0.93996243967457,-0.012666991097884687,-1.023977986758759,-0.024124744195176878,0.013875396206894987,2.098352196391238
13544,4.0,299.57767,6627.2595,0.0,0.0,0.0,0.0,0.0,0.13499046900326922,-0.930409122564231,-0.030823416600034372,-1.053288880351519,-0.02151645301300858,0.008486009306903913,2.117904072970858
13545,4.0,300.94773,6899.7163,0.0,0.0,0.0,0.0,0.0,0.13500043581285304,-0.9441478718626402,-0.06740117981647853,-1.085792423684369,-0.0019166617613347882,0.004014294955455066,2.096305228539218
13546,4.0,301.52149,6808.1163,0.0,0.0,0.0,0.0,0.0,0.13501040262243685,-0.9204815007344511,-0.03779739918956287,-1.111218415068719,0.008802905504829131,-0.008028787798654662,2.1075867551526177
13547,4.0,301.06792,6415.4016,0.0,0.0,0.0,0.0,0.0,0.13502036943202067,-0.8775137689813661,-0.024987573264831475,-1.0476205566420989,0.01897355091279368,-0.007940634938629653,2.0840954635092084
13548,4.0,299.45189,6580.3141,0.0,0.0,0.0,0.0,0.0,0.1350303362416045,-0.9191314766987141,-0.033627960141071264,-1.047491772554389,0.015694333137160087,-0.012384136252969089,2.084870194535668
13549,4.0,299.6982,7048.6548,0.0,0.0,0.0,0.0,0.0,0.13504030305118833,-0.9673982632947751,-0.06176853669607995,-1.1134482745637888,-0.009319394341902612,0.001090286795827929,2.0818222369098582
13550,4.0,299.6031,6912.1997,0.0,0.0,0.0,0.0,0.0,0.13505026986077215,-0.9475565161265471,-0.07473292176456513,-1.0788466955738791,-0.014834978502098386,0.0051680560945224245,2.080363156765858
13551,4.0,299.92746,6652.0003,0.0,0.0,0.0,0.0,0.0,0.13506023667035597,-0.8831676538768611,-0.03560391334658267,-1.1032704812843188,-0.009674134823112772,0.012877887960448588,2.0958434904686483
13552,4.0,299.85435,6623.1209,0.0,0.0,0.0,0.0,0.0,0.13507020347993978,-0.8832284590153622,-0.06485504240869433,-1.0651798769000689,0.012184413512507989,0.0004248291184523696,2.096088899642868
13553,4.0,300.73107999999996,6698.9723,0.0,0.0,0.0,0.0,0.0,0.1350801702895236,-0.9235672525889911,-0.05271852218866305,-1.060034491567259,0.012545412231635788,0.002240921450386728,2.1056271294592177
13554,4.0,300.08924,6784.1084,0.0,0.0,0.0,0.0,0.0,0.13509013709910742,-0.9709198545473291,-0.035804656429894464,-1.0554750687672791,0.015209640898824687,0.010136663431410791,2.096905477898458
13555,4.0,299.81102000000004,6689.7854,0.0,0.0,0.0,0.0,0.0,0.13510010390869126,-0.9493125798748572,-0.04193512148342426,-1.042280019340029,-0.0038541977919547064,-0.004723378723836185,2.108956871937838
13556,4.0,298.66095,6397.7676,0.0,0.0,0.0,0.0,0.0,0.13511007071827508,-0.89825351918322,-0.01883125716150038,-1.027676856248809,-0.014124832037012387,0.008973955597935462,2.0870788771036484
13557,4.0,298.8306,6537.7244,0.0,0.0,0.0,0.0,0.0,0.1351200375278589,-0.8942159404497422,-0.01931759998424868,-1.0737714271479888,0.0016561154412208685,0.000960938094764706,2.112157830328748
13558,4.0,298.90696,6990.3452,0.0,0.0,0.0,0.0,0.0,0.1351300043374427,-0.9548286424917501,-0.050424782341038546,-1.119637003524569,0.0036484548260244565,-0.020122772083462984,2.098440551799958
13559,4.0,299.32646,6848.9158,0.0,0.0,0.0,0.0,0.0,0.13513997114702653,-0.9444868242860921,-0.01835007887451178,-1.119062490717869,0.01065164779473579,-0.017986798316158785,2.127600977752868
13560,4.0,299.27277000000004,6291.9368,0.0,0.0,0.0,0.0,0.0,0.13514993795661034,-0.8919623607698313,0.018707837219819782,-1.039337135749589,0.00960082871150302,-0.010336157177349292,2.092840217172248
13561,4.0,300.85992000000005,6452.0717,0.0,0.0,0.0,0.0,0.0,0.13515990476619416,-0.8803032566391672,-0.023993410770215277,-1.056972044465019,0.0025631356914617973,-0.002959354477440547,2.103469514696278
13562,4.0,299.71385,6741.1212,0.0,0.0,0.0,0.0,0.0,0.13516987157577798,-0.9124954484812892,-0.04375533105581496,-1.092881729334029,0.006451625818475894,0.006050570688444834,2.072582003947918
13563,4.0,299.63177,6893.6415,0.0,0.0,0.0,0.0,0.0,0.1351798383853618,-0.9189875343895081,-0.10399575487858188,-1.072511551973649,-0.0004889043899286066,0.015594327378790285,2.070041177997158
13564,4.0,299.03333,6800.715,0.0,0.0,0.0,0.0,0.0,0.13518980519494564,-0.9304771521759452,-0.06989416111076664,-1.066876260217489,0.01216844063793159,-0.011416211869692388,2.064543485604578
13565,4.0,300.5031,6577.4487,0.0,0.0,0.0,0.0,0.0,0.13519977200452946,-0.9099737526924171,-0.06792919356283944,-1.021477184186949,-0.007603302398112523,0.01015793053775969,2.092552150168818
13566,4.0,300.47539,6497.8159,0.0,0.0,0.0,0.0,0.0,0.13520973881411327,-0.9001470303075951,-0.05731180172748445,-1.0177149865656492,0.0013722547429309987,-0.00984252189230628,2.094134644174998
13567,4.0,300.05208,6862.5994,0.0,0.0,0.0,0.0,0.0,0.1352197056236971,-0.9268539116733591,-0.047289585908118756,-1.111915328487499,-0.01194690768906799,-0.022891588425973875,2.103257846750388
13568,4.0,299.73792000000003,7034.9004,0.0,0.0,0.0,0.0,0.0,0.1352296724332809,-0.9336341456450162,-0.07484947187056773,-1.129950470992429,-0.0010080299672073122,-0.015723177327756785,2.105234495045468
13569,4.0,300.82101,6646.0792,0.0,0.0,0.0,0.0,0.0,0.13523963924286475,-0.9023971345396631,-0.00986465796194094,-1.107980371724149,-0.015467145239488384,0.02046733385946858,2.088196593288958
13570,4.0,300.30893,6571.374,0.0,0.0,0.0,0.0,0.0,0.13524960605244857,-0.9112813316814652,-0.011342595196926989,-1.074909712310329,0.028724506508138074,-0.003912973289180396,2.101779413529478
13571,4.0,299.97502000000003,6884.5168,0.0,0.0,0.0,0.0,0.0,0.13525957286203238,-0.9779789349465061,-0.04892783197455105,-1.065814475437699,-0.016886429985810882,0.007181214830455723,2.100530886756258
13572,4.0,299.74634,6925.6098,0.0,0.0,0.0,0.0,0.0,0.1352695396716162,-0.9870793900571511,-0.026055388909216676,-1.0920776140546689,0.016195963877417185,-0.014033299075978788,2.109130441679968
13573,4.0,299.78074,6719.9379,0.0,0.0,0.0,0.0,0.0,0.13527950648120002,-0.9214265388377191,-0.06189370348093294,-1.059373143226989,-0.009071266009714252,0.01013048807735133,2.100380621766428
13574,4.0,300.41982,6528.153,0.0,0.0,0.0,0.0,0.0,0.13528947329078383,-0.8913325042426692,-0.037810000981056566,-1.055252964345359,-0.02359554190644868,-0.012382320508789887,2.098899148795218
13575,4.0,300.41611,6489.1168,0.0,0.0,0.0,0.0,0.0,0.13529944010036765,-0.872610398434941,-0.03354773403790357,-1.0663713576926592,-0.014677648119321087,-0.015163826795553184,2.110701587285028
13576,4.0,299.73371000000003,6667.581999999999,0.0,0.0,0.0,0.0,0.0,0.13530940690995147,-0.9207542372638681,-0.05417864192726565,-1.051845505584069,-0.006837593451867933,0.006002449516020645,2.107424635136618
13577,4.0,298.84747999999996,6876.007,0.0,0.0,0.0,0.0,0.0,0.1353193737195353,-0.9628828662116401,-0.04781100744932905,-1.079440561457489,0.01871843480261568,0.02968841842101877,2.120493838901448
13578,4.0,298.7242,6691.7885,0.0,0.0,0.0,0.0,0.0,0.13532934052911913,-0.9385488949900641,-0.032082835811829365,-1.063504873159759,0.008139237125805162,0.005385558131838205,2.1093976357313378
13579,4.0,299.3709,6666.0524,0.0,0.0,0.0,0.0,0.0,0.13533930733870295,-0.9010633123730253,-0.037425519177611166,-1.0878246994099388,-0.016254021081646985,0.004714601242194915,2.103999039198538
13580,4.0,300.43286,7023.4734,0.0,0.0,0.0,0.0,0.0,0.13534927414828676,-0.92231810773321,-0.057673221958653854,-1.154969237161589,-0.013143304771143186,-0.01954924922211068,2.095597372019358
13581,4.0,300.58489,7047.0231,0.0,0.0,0.0,0.0,0.0,0.13535924095787058,-0.9326210880625351,-0.07564597561517653,-1.1338519905024789,-0.014517097627725987,0.01856202141117888,2.077817771189648
13582,4.0,299.91951,6823.9782,0.0,0.0,0.0,0.0,0.0,0.1353692077674544,-0.9357886294651472,-0.06814927756406003,-1.070381092313389,0.0003500082891356287,-0.003790390900032457,2.0929540051584783
13583,4.0,300.85817000000003,6579.5754,0.0,0.0,0.0,0.0,0.0,0.13537917457703824,-0.9550087274320231,-0.027426767190811177,-1.017591167403429,0.0008759477098918082,-0.008624424843439461,2.0903247224739876
13584,4.0,299.82406000000003,6578.7162,0.0,0.0,0.0,0.0,0.0,0.13538914138662206,-0.9294264827497521,-0.05130958171261145,-1.0190293745953691,0.016013048929614884,0.0037635199126804966,2.1161542913731677
13585,4.0,299.98607000000004,6773.4059,0.0,0.0,0.0,0.0,0.0,0.13539910819620588,-0.9184784876717691,-0.04165430124470946,-1.0988134980694488,0.04195960160584026,0.02032105600878208,2.114418897926898
13586,4.0,299.33227,6949.9817,0.0,0.0,0.0,0.0,0.0,0.1354090750057897,-0.9111848500069432,-0.07122901577925653,-1.1302070259177488,-0.0011855200449017189,0.007935222967195532,2.115524049810968
13587,4.0,298.48285,6974.7849,0.0,0.0,0.0,0.0,0.0,0.1354190418153735,-0.9229948372099982,-0.051799031160166355,-1.145366564638879,-0.026551707179199472,-0.007265497277748753,2.123571383430178
13588,4.0,299.04975,6843.7946,0.0,0.0,0.0,0.0,0.0,0.13542900862495733,-0.9636131459562131,-0.02338850957976618,-1.0933410356043591,-0.027756350090588473,-0.008755959094570883,2.132642403625418
13589,4.0,300.06835,6840.7119999999995,0.0,0.0,0.0,0.0,0.0,0.13543897543454114,-0.960763298989955,-0.04623034033307936,-1.072412050813829,0.0013051458715828688,0.04196747050611686,2.111710581734608
13590,4.0,300.03044,6897.9154,0.0,0.0,0.0,0.0,0.0,0.13544894224412496,-0.9820883328470721,-0.027444831413593974,-1.0872608257292888,0.020171909647062482,0.01688513606543318,2.1053280180296983
13591,4.0,300.99093,6844.0924,0.0,0.0,0.0,0.0,0.0,0.1354589090537088,-0.9210803923385571,-0.04427967177056336,-1.115073122424149,-0.006838219944404763,-0.019242152368552583,2.0947884944645283
13592,4.0,300.8106,6436.7156,0.0,0.0,0.0,0.0,0.0,0.13546887586329262,-0.8675928346022462,-0.03433954846104957,-1.054668420362669,-0.021545813961156277,-0.016606803355713885,2.074834458920218
13593,4.0,300.07484,6450.0655,0.0,0.0,0.0,0.0,0.0,0.13547884267287644,-0.8474641248731971,-0.02655302541757958,-1.086641729918189,0.00013976369619110286,-0.017295599627942783,2.0956949480039877
13594,4.0,299.91287,6822.8968,0.0,0.0,0.0,0.0,0.0,0.13548880948246025,-0.945823736865535,-0.07798883985414923,-1.050177695919469,0.028058141566622976,0.000982672157422191,2.098420084147938
13595,4.0,299.70493,7066.1217,0.0,0.0,0.0,0.0,0.0,0.13549877629204407,-0.971627032189622,-0.08805949308129532,-1.088238004125729,-0.008619226161151392,-0.016624855419495484,2.114302982115458
13596,4.0,300.022,6973.889,0.0,0.0,0.0,0.0,0.0,0.13550874310162792,-0.966700052915867,-0.057016078606298856,-1.096171955058749,0.003430256179264927,-0.023354642708423773,2.124926504113918
13597,4.0,299.04062999999996,6767.0363,0.0,0.0,0.0,0.0,0.0,0.13551870991121173,-0.9029839786000801,-0.056836505357326345,-1.097189562134179,0.0023521032560345177,0.016016169739922884,2.1332650458118683
13598,4.0,298.60451,6864.8983,0.0,0.0,0.0,0.0,0.0,0.13552867672079555,-0.9146702479659251,-0.034672582490667465,-1.1374147805040988,0.009736919041709091,-0.008318292300001534,2.1412729640021877
13599,4.0,298.93593,7063.5626,0.0,0.0,0.0,0.0,0.0,0.13553864353037937,-0.9483583819906851,-0.06044985552568624,-1.138338459295259,-0.0033410084011818567,-0.02214134056168018,2.119708570073948
13600,4.0,299.40777,6845.736,0.0,0.0,0.0,0.0,0.0,0.13554861033996318,-0.980344701677489,-0.03243395838223247,-1.0681541712436091,0.011053625387657888,-0.01035033153299819,2.1347103457545082
13601,4.0,299.57147000000003,6379.906,0.0,0.0,0.0,0.0,0.0,0.135558577149547,-0.9180642102358831,0.004784479934016405,-1.026052413688489,0.04022178345208096,0.03844921892589246,2.091652080104988
13602,4.0,299.36304,6342.8041,0.0,0.0,0.0,0.0,0.0,0.13556854395913082,-0.9054896143748672,-0.020645303133532782,-1.001919157179222,0.002898480133957717,0.021601892287940776,2.082932860344468
13603,4.0,299.33508,6725.5402,0.0,0.0,0.0,0.0,0.0,0.13557851076871463,-0.9185829537570792,-0.02113065398443318,-1.1046826479486889,-0.025654149975617473,-0.014687109848754886,2.085449469617838
13604,4.0,300.01526,6986.8501,0.0,0.0,0.0,0.0,0.0,0.13558847757829848,-0.934046609363223,-0.08714586471787723,-1.1026354774466491,-0.03400898473517547,-0.01991395744985458,2.099720691976298
13605,4.0,300.22472999999997,6830.6739,0.0,0.0,0.0,0.0,0.0,0.1355984443878823,-0.9108275678891821,-0.07387899409703903,-1.0916476920372389,-0.017487229539855185,-0.005315462705820324,2.1003092889593877
13606,4.0,299.57612,6697.7468,0.0,0.0,0.0,0.0,0.0,0.1356084111974661,-0.9269604042588689,-0.032441647937241365,-1.0765457059217889,0.020879124779609178,-0.015097032335711087,2.1358547104174477
13607,4.0,300.11165,6906.6391,0.0,0.0,0.0,0.0,0.0,0.13561837800704993,-0.951916288126823,-0.07431030224060584,-1.0732192058434888,-0.011301008373072689,-0.036223214847452966,2.116992451855888
13608,4.0,300.05662,6898.4388,0.0,0.0,0.0,0.0,0.0,0.13562834481663374,-0.9316006134893221,-0.05413686765214285,-1.1112156792934489,0.03169680474898107,0.003880183806669327,2.1281369870557683
13609,4.0,299.96617000000003,6621.861,0.0,0.0,0.0,0.0,0.0,0.13563831162621756,-0.8871742474222811,-0.032706022113583075,-1.093000178270719,0.02193098274816948,0.015482332845237286,2.100940239796658
13610,4.0,299.92723,6442.9852,0.0,0.0,0.0,0.0,0.0,0.1356482784358014,-0.8638809347159101,-0.03567609424395637,-1.058949604685189,-0.0026684108569766476,0.03514651198644067,2.080807365609698
13611,4.0,299.62441,6456.894,0.0,0.0,0.0,0.0,0.0,0.13565824524538522,-0.9079873467988742,-0.015791553471004985,-1.038955647086939,-0.04287459481714306,-0.01189893637633359,2.062230944901348
13612,4.0,299.38613,6674.5418,0.0,0.0,0.0,0.0,0.0,0.13566821205496904,-0.9371680377537842,-0.05503755985153424,-1.036688499988189,-0.02726055263115707,-0.0034766837041469664,2.093502477437608
13613,4.0,298.93994,6876.1598,0.0,0.0,0.0,0.0,0.0,0.13567817886455286,-0.963153647168364,-0.055485464018488945,-1.071541770302939,0.003074572666186697,-0.0042491042164039365,2.1074169344358578
13614,4.0,299.26519,6881.9815,0.0,0.0,0.0,0.0,0.0,0.13568814567413667,-0.9528110791576322,-0.04728068349274016,-1.091858752033069,0.007201291671912154,0.004825023515567746,2.125900034809998
13615,4.0,299.7473,6718.8186,0.0,0.0,0.0,0.0,0.0,0.1356981124837205,-0.904289632413938,-0.06719319807445234,-1.0708702894616688,-0.0013853346871468889,-0.0023311872408452675,2.119836543561578
13616,4.0,301.04898,6806.1483,0.0,0.0,0.0,0.0,0.0,0.1357080792933043,-0.9230019400931991,-0.04511862056186116,-1.1007785953133888,-0.016525680526207683,0.006695200402064833,2.1285176651183377
13617,4.0,300.03026,6885.7353,0.0,0.0,0.0,0.0,0.0,0.13571804610288812,-0.9478785472733291,-0.05385274320485194,-1.0913603343088791,0.05328149812972445,0.03752302322148407,2.126873362856058
13618,4.0,300.08706,6756.0557,0.0,0.0,0.0,0.0,0.0,0.13572801291247194,-0.9312409603663271,-0.06655983164894394,-1.055871452206399,0.014542642675997086,0.02177072103285288,2.107085905628188
13619,4.0,300.36453,6676.0567,0.0,0.0,0.0,0.0,0.0,0.13573797972205578,-0.9310058660781251,-0.014824392065053586,-1.0835242633355189,0.013545712995357787,-0.03828931995411166,2.132116222848488
13620,4.0,300.07987,6596.3403,0.0,0.0,0.0,0.0,0.0,0.1357479465316396,-0.9013698509257781,-0.04054606908033546,-1.063206876305349,-0.02361077510845208,-0.014239103343540086,2.086753826471568
13621,4.0,299.752,6559.5163,0.0,0.0,0.0,0.0,0.0,0.13575791334122342,-0.874636351479887,-0.024199919246596077,-1.095092945027259,0.003606972670905486,0.014168727044594487,2.096310902739778
13622,4.0,300.4026,6878.9198,0.0,0.0,0.0,0.0,0.0,0.13576788015080724,-0.9260429062933192,-0.05945976629647204,-1.105517160731049,0.008482773898009603,0.027667380652307873,2.064789300078838
13623,4.0,300.2964,7059.5866,0.0,0.0,0.0,0.0,0.0,0.13577784696039105,-0.9777945234283061,-0.07816856306413653,-1.089974917447149,-0.017153828713701087,-0.011794980969073988,2.102708361221158
13624,4.0,300.49141000000003,6750.8081,0.0,0.0,0.0,0.0,0.0,0.1357878137699749,-0.9422124020516242,-0.04912382392814395,-1.060740828211969,-0.005470170493363795,0.008529611282557092,2.111383808577358
13625,4.0,300.28607,6658.8063,0.0,0.0,0.0,0.0,0.0,0.1357977805795587,-0.9137075286484121,-0.03676484870165807,-1.073638488734869,0.01908855479914368,0.004937729148040925,2.1523973355250776
13626,4.0,298.92262999999997,6921.2519999999995,0.0,0.0,0.0,0.0,0.0,0.13580774738914253,-0.931018633029385,-0.06575188425770573,-1.1071172852889688,0.006330710428392474,0.00964022833369146,2.131541710041788
13627,4.0,298.98925,7101.379,0.0,0.0,0.0,0.0,0.0,0.13581771419872635,-0.9241294240094731,-0.06031549856242624,-1.1741969750342187,-0.005998571706562934,-0.04012911463768526,2.1417886069780776
13628,4.0,298.90089,6824.8504,0.0,0.0,0.0,0.0,0.0,0.13582768100831016,-0.9204105630949502,-0.06160431215962223,-1.0925692430031888,-0.036756329294817265,-0.010036289964579701,2.097993505855838
13629,4.0,299.27293,6700.1630000000005,0.0,0.0,0.0,0.0,0.0,0.13583764781789398,-0.9278823503923581,-0.034868624093515266,-1.073931216688759,-0.007257566366566033,0.01026869701219149,2.116527370059988
13630,4.0,299.87535,6554.4607,0.0,0.0,0.0,0.0,0.0,0.1358476146274778,-0.9340010435062261,-0.02179425275317528,-1.036597104829169,-0.006151318247212844,0.004244161785066156,2.080859649314858
13631,4.0,300.44735,6692.4847,0.0,0.0,0.0,0.0,0.0,0.13585758143706161,-0.9200330463726921,-0.04299144281867505,-1.0713237188814189,0.012655430927493789,-0.03219497929314707,2.123320908005458
13632,4.0,300.52283,6968.2185,0.0,0.0,0.0,0.0,0.0,0.13586754824664546,-0.946682263675265,-0.05091175743184925,-1.1205704095166888,0.009591714222878491,-0.007610119342135303,2.107526669421688
13633,4.0,300.59381,6981.4949,0.0,0.0,0.0,0.0,0.0,0.13587751505622928,-0.9309821560257852,-0.05810712706222695,-1.1331108993793388,0.016226595441190286,0.022079644776341275,2.1349130970995183
13634,4.0,300.07877,6692.9521,0.0,0.0,0.0,0.0,0.0,0.1358874818658131,-0.9208408701474182,-0.04890159690296186,-1.064747827057429,0.0003722185590751117,0.016030062412043983,2.093867450123628
13635,4.0,300.2907,6872.2965,0.0,0.0,0.0,0.0,0.0,0.1358974486753969,-0.9457488171531412,-0.05759174550486274,-1.085665970071889,-0.029734900256106173,-0.03505136780205067,2.136341678415508
13636,4.0,300.15103999999997,7134.8211,0.0,0.0,0.0,0.0,0.0,0.13590741548498073,-0.9831679305636201,-0.09008771884621561,-1.0955518459975488,-0.015499150770397084,0.01098835282946599,2.103700231744048
13637,4.0,299.15018,6825.0226,0.0,0.0,0.0,0.0,0.0,0.13591738229456454,-0.9208526238485782,-0.05157390319994795,-1.102209912404649,0.00867227568073697,-0.009235260031774202,2.154112767944378
13638,4.0,299.75516,6505.1028,0.0,0.0,0.0,0.0,0.0,0.1359273491041484,-0.8526151033465591,-0.04162581777114836,-1.083147942248379,0.021306282650766378,0.014518128103077687,2.114374213597488
13639,4.0,299.52766,6587.6234,0.0,0.0,0.0,0.0,0.0,0.1359373159137322,-0.8574760085812931,-0.049656336504948856,-1.095340684676709,-0.004958707579436335,-0.03295529785018467,2.117858679366378
13640,4.0,298.49651,6804.084,0.0,0.0,0.0,0.0,0.0,0.13594728272331602,-0.9387811623104871,-0.04101740060285226,-1.088473078148929,0.020012496022079582,0.01230141350155499,2.086383584885028
13641,4.0,298.47143,7172.0944,0.0,0.0,0.0,0.0,0.0,0.13595724953289984,-1.016133505809569,-0.07698135920021863,-1.0870228132807989,0.009433345157423681,0.03312568902675097,2.087444052439688
13642,4.0,299.78594,7197.5966,0.0,0.0,0.0,0.0,0.0,0.13596721634248365,-1.0014458579250112,-0.07940649225456062,-1.1070373398560789,-0.0036820907776690666,0.016516592686060785,2.099621900091548
13643,4.0,298.7264,6590.3296,0.0,0.0,0.0,0.0,0.0,0.13597718315206747,-0.9335981347364621,-0.017356393620692682,-1.0523410862079792,-0.01190956536988259,-0.033012624501092366,2.118952077549288
13644,4.0,300.41856,6618.6578,0.0,0.0,0.0,0.0,0.0,0.1359871499616513,-0.8886363977140841,-0.03209593916212257,-1.091174402915529,-0.008127293136276382,-0.008921247037008532,2.152887647248468
13645,4.0,300.31662,7063.0734,0.0,0.0,0.0,0.0,0.0,0.1359971167712351,-0.946722216126708,-0.05095692710805715,-1.1493188479789387,0.022384018013630578,-0.014918020427293986,2.145342379053808
13646,4.0,300.65314,7000.0868,0.0,0.0,0.0,0.0,0.0,0.13600708358081895,-0.958003742740108,-0.06928894783928673,-1.100558922691709,-0.014134015122668687,-0.0035932427267504462,2.131675965680038
13647,4.0,300.86225,6665.0875,0.0,0.0,0.0,0.0,0.0,0.13601705039040277,-0.9205335919220922,-0.04190817409701476,-1.063578435117019,-0.021881919151827276,-0.037512113557657364,2.097455672702758
13648,4.0,300.95862,6632.5597,0.0,0.0,0.0,0.0,0.0,0.13602701719998658,-0.9065788177023631,-0.050338262941499755,-1.059215481511429,0.005384368880195835,0.01163770124880169,2.085129282586238
13649,4.0,299.07434,6797.6625,0.0,0.0,0.0,0.0,0.0,0.1360369840095704,-0.9131653587849041,-0.05393634343085266,-1.0992179875093688,0.018720948676113784,0.048516765528231955,2.103348127334298
13650,4.0,299.3624,6952.0246,0.0,0.0,0.0,0.0,0.0,0.13604695081915422,-0.9110026575064621,-0.06462029363877644,-1.1376189503992489,0.03162491668088627,0.020216789533741782,2.093097481372638
13651,4.0,299.40037,6789.89,0.0,0.0,0.0,0.0,0.0,0.13605691762873806,-0.907399955583403,-0.056394423325446245,-1.100162640577599,-0.018799584989874583,-0.032871708769935074,2.123364984384808
13652,4.0,300.42249,6577.3167,0.0,0.0,0.0,0.0,0.0,0.13606688443832188,-0.9336336795499701,-0.01807266923563358,-1.047633728893399,-0.022235813974503978,0.0008765910629103023,2.108230270291128
13653,4.0,300.55761,6682.3528,0.0,0.0,0.0,0.0,0.0,0.1360768512479057,-0.963692797546574,-0.02063582620534748,-1.046939753899909,-0.00029525422956932373,0.01979003898912478,2.1235359196766783
13654,4.0,300.22821,7063.9245,0.0,0.0,0.0,0.0,0.0,0.1360868180574895,-0.983295042788665,-0.0878513228747505,-1.076110312353819,-0.0010770266957442589,0.01020105750176599,2.094604690896388
13655,4.0,300.5412,7115.908,0.0,0.0,0.0,0.0,0.0,0.13609678486707333,-0.965717413101388,-0.050932703337916455,-1.146408287066689,0.009354404058032803,-0.025861025248534477,2.145202449214998
13656,4.0,300.64333999999997,6799.4854,0.0,0.0,0.0,0.0,0.0,0.13610675167665715,-0.9055587281641881,-0.04099831299746846,-1.120316691691649,0.0008158029875409863,-6.636103197932394e-05,2.132170229078818
13657,4.0,299.65358,6606.7818,0.0,0.0,0.0,0.0,0.0,0.13611671848624096,-0.8947187050168611,-0.035499001431228666,-1.0780789559731092,0.017592796014773784,0.024512834182228375,2.130871141125608
13658,4.0,300.24161000000004,6818.0214,0.0,0.0,0.0,0.0,0.0,0.13612668529582478,-0.962515644110398,-0.02290050604010398,-1.0870921195876388,-0.005185128244132315,-0.019813987155238282,2.120799637781628
13659,4.0,299.90725,7122.2692,0.0,0.0,0.0,0.0,0.0,0.13613665210540862,-0.9703420081478,-0.08174773428012322,-1.1129022340848989,-0.009740159516853902,-0.05621466566495554,2.107240426268438
13660,4.0,300.0737,6978.7993,0.0,0.0,0.0,0.0,0.0,0.13614661891499244,-0.9850730940641451,-0.04679179437249055,-1.0895158138268388,-0.0016282635264470986,-0.006935382725643984,2.125204742591378
13661,4.0,299.60685,6684.9228,0.0,0.0,0.0,0.0,0.0,0.13615658572457626,-0.9011062133822592,-0.02694591314385458,-1.103997488231069,0.02857513013864577,0.02178018073578648,2.116225522855198
13662,4.0,299.95583999999997,6655.8993,0.0,0.0,0.0,0.0,0.0,0.13616655253416007,-0.9235671816614841,-0.02174318798788558,-1.0779168359571092,0.03118586730655547,0.03457019660781276,2.149453134709508
13663,4.0,299.04197,6893.8353,0.0,0.0,0.0,0.0,0.0,0.1361765193437439,-0.9294637196909271,-0.048353115504580955,-1.117736956937049,-0.011084403872695488,-0.014810850990717186,2.144989666693998
13664,4.0,300.68566,7087.3662,0.0,0.0,0.0,0.0,0.0,0.1361864861533277,-0.994808380759943,-0.06562118208755643,-1.0939528360147388,-0.02163750194945518,0.01349565540066749,2.1434984665218275
13665,4.0,301.35611,6955.4296,0.0,0.0,0.0,0.0,0.0,0.13619645296291152,-0.9461481086200481,-0.06476207873851952,-1.103366740043819,-0.02764450247829997,0.016881371841311683,2.106442086514648
13666,4.0,300.81305,6568.5683,0.0,0.0,0.0,0.0,0.0,0.13620641977249537,-0.9104237978568331,-0.02173252859683358,-1.064524405410379,0.0007305292979401284,-0.007074255947249703,2.108418734809728
13667,4.0,300.94212000000005,6668.483,0.0,0.0,0.0,0.0,0.0,0.13621638658207919,-0.8641292215204142,-0.06670586125335594,-1.096217247338219,-0.013818651161544687,-0.06802268918931674,2.0906828050593282
13668,4.0,300.18732,7076.1209,0.0,0.0,0.0,0.0,0.0,0.136226353391663,-0.9466555645351301,-0.05204973760590915,-1.1522587931440889,0.02111290994868198,-0.028544147990338074,2.1292646330920584
13669,4.0,300.25197000000003,7080.0849,0.0,0.0,0.0,0.0,0.0,0.13623632020124682,-0.9641688832385602,-0.07783196644716703,-1.110168181340069,0.024543560991510876,0.005372603729309704,2.1202841974557582
13670,4.0,299.92649,6739.6893,0.0,0.0,0.0,0.0,0.0,0.13624628701083064,-0.9361167705100322,-0.049025074599898154,-1.063555434339749,-0.003920984145796007,-0.005462865162792814,2.116670744949138
13671,4.0,299.14527999999996,6684.1641,0.0,0.0,0.0,0.0,0.0,0.13625625382041445,-0.9233038582254961,-0.03148587039616347,-1.0770292288695091,0.009072108729822422,-0.013591193739346386,2.127467026089648
13672,4.0,298.94583,7095.706999999999,0.0,0.0,0.0,0.0,0.0,0.13626622062999827,-0.9815357771700391,-0.05676501650977094,-1.1186169646488988,-0.006987100023998083,0.013677594588623486,2.151195418256458
13673,4.0,300.47218,7244.7807,0.0,0.0,0.0,0.0,0.0,0.13627618743958209,-0.9695013753348362,-0.08249503662637622,-1.150236041969459,0.008369213690402081,0.01997414957204508,2.119487782877158
13674,4.0,299.98838,6862.2349,0.0,0.0,0.0,0.0,0.0,0.13628615424916593,-0.9382498544880512,-0.029034316845463974,-1.118663878128529,-0.015557581863913785,-0.01109574112806439,2.169844590321988
13675,4.0,299.97925,6573.4379,0.0,0.0,0.0,0.0,0.0,0.13629612105874975,-0.9311087109632752,-0.007246159500915263,-1.059806104994719,-0.026094496310076272,-0.022018373542794276,2.123752248573028
13676,4.0,299.37987000000004,6821.9396,0.0,0.0,0.0,0.0,0.0,0.13630608786833356,-0.941374423953922,-0.04064689658453636,-1.091677988215229,0.00014306450024686686,0.00895604538916786,2.145211264490868
13677,4.0,300.26127,7152.6852,0.0,0.0,0.0,0.0,0.0,0.13631605467791738,-0.975166112138902,-0.08758668930638322,-1.111484899845019,0.003238463134086427,0.012317747093166988,2.070922097634098
13678,4.0,300.19666,7039.7217,0.0,0.0,0.0,0.0,0.0,0.1363260214875012,-0.943335437799959,-0.07651282830097823,-1.120051321490459,0.01809586557017288,0.012036082817118886,2.131117462224918
13679,4.0,299.71519,6520.7094,0.0,0.0,0.0,0.0,0.0,0.13633598829708504,-0.8635155465973492,-0.05025000277828915,-1.068367257739639,0.0023415882531217674,-0.02742934388581547,2.0700156440946382
13680,4.0,298.77438,6435.438,0.0,0.0,0.0,0.0,0.0,0.13634595510666886,-0.8779101220229831,-0.03581918542307837,-1.042483175985079,0.02824972486903077,-0.004049491616228707,2.143025886675188
13681,4.0,298.76015,6892.9684,0.0,0.0,0.0,0.0,0.0,0.13635592191625268,-0.9687315788363631,-0.07021853894478022,-1.056340181702659,0.022040718747249582,-0.012020696614350387,2.1053411902809978
13682,4.0,299.13122999999996,7177.0181,0.0,0.0,0.0,0.0,0.0,0.1363658887258365,-0.9787685506169351,-0.0866902507309116,-1.1161754372079389,0.012504452609593387,-0.006796562598343504,2.141755473699808
13683,4.0,299.60887,6649.9889,0.0,0.0,0.0,0.0,0.0,0.1363758555354203,-0.9093087667842882,-0.053559902780200855,-1.058561935196929,-0.04753441854303186,-0.024782694094611476,2.097205399928058
13684,4.0,300.33821,6472.0385,0.0,0.0,0.0,0.0,0.0,0.13638582234500413,-0.8495090155625121,0.0010903367490578588,-1.1189194198037489,-0.023250885898183776,-0.004727605192653306,2.141821740256348
13685,4.0,300.74291,6787.738,0.0,0.0,0.0,0.0,0.0,0.13639578915458794,-0.8860257284339312,-0.06637000937520993,-1.1109071446379988,-0.009181813824774471,0.02212418117123668,2.0969089229487983
13686,4.0,300.2709,6992.1775,0.0,0.0,0.0,0.0,0.0,0.13640575596417176,-0.957373268130385,-0.03758365610746806,-1.130490431970719,-0.002120087424286338,-0.0023950310150711576,2.140260220527238
13687,4.0,299.62041,6865.4992,0.0,0.0,0.0,0.0,0.0,0.1364157227737556,-0.976004829909177,-0.02032929981159568,-1.090606172259449,0.0019631109697689684,-0.003219921366531497,2.119670877170228
13688,4.0,300.84735,6764.5604,0.0,0.0,0.0,0.0,0.0,0.13642568958333942,-0.9530882233249841,-0.05134817438242025,-1.0518210862566588,-0.006186607620370634,0.024014640386310477,2.122707486394918
13689,4.0,299.47207000000003,6669.7333,0.0,0.0,0.0,0.0,0.0,0.13643565639292324,-0.9253248868749561,-0.024569079695279376,-1.077538387044759,-0.0034950479502843766,0.025156771846030077,2.1088115718734977
13690,4.0,299.89269,7068.8704,0.0,0.0,0.0,0.0,0.0,0.13644562320250705,-0.9228980718254483,-0.09511306646617881,-1.130749013396239,-0.015015284330893186,-0.006996873327837634,2.1359142895233276
13691,4.0,298.73242999999997,7190.3486,0.0,0.0,0.0,0.0,0.0,0.13645559001209087,-0.9203768927941272,-0.09675069039704971,-1.168558846177779,-0.008751595229040203,-0.04005486367035726,2.127885093080908
13692,4.0,299.54447000000005,6757.9733,0.0,0.0,0.0,0.0,0.0,0.1364655568216747,-0.9233865596986582,-0.024934450588588678,-1.105934113147199,0.015565045464150384,-0.01085978659052749,2.162902813886888
13693,4.0,298.7907,6492.73,0.0,0.0,0.0,0.0,0.0,0.13647552363125853,-0.9068566407472822,-0.05161828254107785,-1.015152882362789,0.026349258795969374,0.00990529810622681,2.112979677484858
13694,4.0,300.36431,6852.9367,0.0,0.0,0.0,0.0,0.0,0.13648549044084235,-0.9580502205221951,-0.03936601065612276,-1.085705385500779,0.02802527983937977,-0.023806509696519578,2.123884781686108
13695,4.0,299.66015,7036.8803,0.0,0.0,0.0,0.0,0.0,0.13649545725042617,-0.9462434858519612,-0.08847184635524141,-1.104320512362949,-0.02329169859896168,-0.001351134557846599,2.084086344258308
13696,4.0,300.73375,6923.5154,0.0,0.0,0.0,0.0,0.0,0.13650542406000998,-0.8943122093417432,-0.06853721556359653,-1.1417263623296188,-0.024420429826108776,0.012065374864259789,2.1023360931344177
13697,4.0,300.49861,6735.1795,0.0,0.0,0.0,0.0,0.0,0.1365153908695938,-0.8713930493672982,-0.042390554098621955,-1.1335427465719592,-0.02070810640123098,0.03038758226827087,2.104678322065578
13698,4.0,299.98885,6629.7021,0.0,0.0,0.0,0.0,0.0,0.13652535767917762,-0.9153531987983271,-0.03612553753781297,-1.063785138137419,-0.018684961072312083,-0.011961032395461988,2.1004260153709082
13699,4.0,299.63035,6811.0455,0.0,0.0,0.0,0.0,0.0,0.13653532448876143,-0.9446729279319591,-0.04215515076913946,-1.083559727089019,0.031048332790981868,-0.01023759834012229,2.1389874770766277
13700,4.0,300.86232,6962.2861,0.0,0.0,0.0,0.0,0.0,0.13654529129834525,-0.9885735691846151,-0.04753482789607225,-1.080252681412639,0.00998475018764312,0.0051328615615739955,2.135287493011468
13701,4.0,299.24655,6759.554,0.0,0.0,0.0,0.0,0.0,0.1365552581079291,-0.9294645505560092,-0.06068553040619554,-1.0645855043914092,-0.010065895308651521,0.014902074910470287,2.1439268686641078
13702,4.0,298.66004,6598.8355,0.0,0.0,0.0,0.0,0.0,0.1365652249175129,-0.899430540896883,-0.008623588405481912,-1.0978270990970989,-0.014916028377597383,-0.03076189205396237,2.118934244347528
13703,4.0,298.91197999999997,6831.5539,0.0,0.0,0.0,0.0,0.0,0.13657519172709673,-0.9196286785227842,-0.039149873264041665,-1.1178432468725388,0.007623786363459133,-0.006838152968573154,2.1462048575389274
13704,4.0,298.83245,7004.4829,0.0,0.0,0.0,0.0,0.0,0.13658515853668055,-0.9685377440922331,-0.05737226540070175,-1.103277878010049,0.026367108209730972,-0.0039032870235244364,2.1256921158894775
13705,4.0,299.86954,6987.7661,0.0,0.0,0.0,0.0,0.0,0.13659512534626436,-0.9734044248525371,-0.044448635277738756,-1.1062533882537091,-0.00975722882936351,0.0009519627659089101,2.141176401267658
13706,4.0,299.73174,6808.6627,0.0,0.0,0.0,0.0,0.0,0.13660509215584818,-0.9754041853823981,-0.04465762621686455,-1.0496016632376188,-0.04516182959912555,-0.02982196275769857,2.095498478809598
13707,4.0,299.95904,6655.2229,0.0,0.0,0.0,0.0,0.0,0.13661505896543202,-0.919756601347909,-0.017002661931282085,-1.0862622677557388,-0.02297133830159458,-0.014217595083667385,2.1220174630768183
13708,4.0,300.29138,6667.4996,0.0,0.0,0.0,0.0,0.0,0.13662502577501584,-0.8622821881781262,-0.058654370268985644,-1.105816880110629,0.00994547793099225,0.023146055042837777,2.112330792120818
13709,4.0,300.14107,6883.3417,0.0,0.0,0.0,0.0,0.0,0.13663499258459966,-0.8995293834441381,-0.07741218199698752,-1.1154223897336188,0.008108233395270332,0.028781301202743272,2.116485522830858
13710,4.0,299.73752,6912.9161,0.0,0.0,0.0,0.0,0.0,0.13664495939418347,-0.931794600220967,-0.05850773879401424,-1.111051532777249,0.01940536973441088,-0.0026047833103220977,2.120545413331538
13711,4.0,299.99428,6671.4201,0.0,0.0,0.0,0.0,0.0,0.1366549262037673,-0.8999574005513802,-0.0883818211103566,-1.0396059510011189,0.014962941857227387,0.02112012226289378,2.113786832514518
13712,4.0,300.54803,6724.2999,0.0,0.0,0.0,0.0,0.0,0.1366648930133511,-0.9234599595359021,-0.06186045165240124,-1.058698825285439,0.027092049139527077,-0.003004462041417317,2.114358609545948
13713,4.0,300.22413,7170.0332,0.0,0.0,0.0,0.0,0.0,0.13667485982293492,-0.9547155131180851,-0.07842511596295633,-1.1463703915129488,-0.013634749308144989,-0.02076045090139698,2.129920915181828
13714,4.0,300.68793999999997,7323.8808,0.0,0.0,0.0,0.0,0.0,0.13668482663251877,-0.947701532480859,-0.11201580167259889,-1.166559501080459,-0.029933304758187174,-0.021411316156132378,2.118910432970178
13715,4.0,301.03306000000003,6790.1923,0.0,0.0,0.0,0.0,0.0,0.13669479344210259,-0.922252459259231,-0.0024248589701899477,-1.1393715690972188,-0.016366614446009085,0.00022016531454112479,2.1462860188719377
13716,4.0,300.34137999999996,6516.445,0.0,0.0,0.0,0.0,0.0,0.1367047602516864,-0.9052461101108351,-0.025981249399399678,-1.049609161288359,0.004994670358610585,0.034461807218115564,2.124258063022948
13717,4.0,300.4217,6789.9474,0.0,0.0,0.0,0.0,0.0,0.13671472706127022,-0.9600225422393481,-0.026584219335158178,-1.0773677557279189,0.03155138714762947,0.020531938685844582,2.137859020440258
13718,4.0,300.27013,7194.1128,0.0,0.0,0.0,0.0,0.0,0.13672469387085404,-1.018673622485259,-0.05341407582580885,-1.114742904216559,0.02373763402097208,-0.028670052421263872,2.120850604261658
13719,4.0,299.41831,7179.0103,0.0,0.0,0.0,0.0,0.0,0.13673466068043785,-0.9750935431667401,-0.08961135856345251,-1.117534914867109,-0.013219284343141787,-0.02942535539030647,2.142338700457368
13720,4.0,299.88365,6765.2852,0.0,0.0,0.0,0.0,0.0,0.13674462749002167,-0.9068600959301231,-0.05193982428806154,-1.097677847357369,-0.0033069559024211373,0.00017474182931567582,2.124280557175168
13721,4.0,300.58681,6696.9316,0.0,0.0,0.0,0.0,0.0,0.13675459429960551,-0.9130570524817151,-0.03096468392897637,-1.091678292190259,-0.018006158485819483,0.0005468481000147055,2.1445005708707274
13722,4.0,300.0894,7112.7199,0.0,0.0,0.0,0.0,0.0,0.13676456110918933,-0.9576348791737042,-0.09594180372296882,-1.108512530676669,-0.004310381326801516,-0.013835850068742089,2.1138707296227977
13723,4.0,300.7632,7292.1556,0.0,0.0,0.0,0.0,0.0,0.13677452791877315,-0.9888595894228431,-0.08385911140124992,-1.1439144759205688,3.365618827560717e-05,0.009677586155603391,2.1301757475819776
13724,4.0,300.04206,6790.01,0.0,0.0,0.0,0.0,0.0,0.13678449472835696,-0.9235456399643581,-0.06498700607521815,-1.075460819039719,0.005276538601903815,0.016990726858354184,2.102223723698328
13725,4.0,299.1289,6457.659000000001,0.0,0.0,0.0,0.0,0.0,0.13679446153794078,-0.8601021400579723,-0.0028078521065884273,-1.100057059917179,0.0022069074551298077,-0.011646166953387188,2.106067082652638
13726,4.0,299.8689,6695.1732,0.0,0.0,0.0,0.0,0.0,0.1368044283475246,-0.8806406182599622,-0.04541799239665686,-1.1091069031853291,0.012175749210902887,-0.020732325105121182,2.109019389469008
13727,4.0,299.52921000000003,7133.7049,0.0,0.0,0.0,0.0,0.0,0.13681439515710841,-0.933779658491877,-0.08255479913052433,-1.1521336567567388,0.024439243853965578,0.006579451472916304,2.1320418502911482
13728,4.0,299.32874,7129.4097,0.0,0.0,0.0,0.0,0.0,0.13682436196669223,-0.986208602921211,-0.06813787546068474,-1.1128160065013888,-0.0054899331259642145,0.016066120943352684,2.110101641900818
13729,4.0,298.69678,6772.186,0.0,0.0,0.0,0.0,0.0,0.13683432877627608,-0.9508021487143661,-0.07507497777307344,-1.032698321094389,-0.01302749940396409,0.01154644693154559,2.136217960578298
13730,4.0,299.39531,6754.9292,0.0,0.0,0.0,0.0,0.0,0.1368442955858599,-0.974747599317598,-0.04899921139109566,-1.0295829823369291,-0.026436505709079978,-0.0004087393350794316,2.1103185787472283
13731,4.0,300.67815,7193.8437,0.0,0.0,0.0,0.0,0.0,0.1368542623954437,-0.9611423051898601,-0.07567777342981473,-1.1499288245391388,0.00897043050083756,-0.012196206730421887,2.1529819808327777
13732,4.0,300.6154,7146.7584,0.0,0.0,0.0,0.0,0.0,0.13686422920502753,-0.9523434135739771,-0.08522888469468602,-1.1348638220523388,-0.012990444847807089,-0.005358200379138205,2.115007798885018
13733,4.0,300.86296,6818.7917,0.0,0.0,0.0,0.0,0.0,0.13687419601461134,-0.9151900250022232,-0.015908031636250482,-1.141644390396529,0.009349963692119571,-0.01994689719735548,2.160229049523008
13734,4.0,300.38532999999995,6543.3472,0.0,0.0,0.0,0.0,0.0,0.13688416282419516,-0.9191340807514711,-0.026897683452344674,-1.042982404309349,0.01669709913837538,-0.03200632124377797,2.103558275405038
13735,4.0,299.9095,6678.0332,0.0,0.0,0.0,0.0,0.0,0.136894129633779,-0.942536165856077,-0.02794604368155977,-1.059473151011859,0.030573849047403973,0.005959984204329645,2.1536192138206682
13736,4.0,300.37717999999995,7075.16,0.0,0.0,0.0,0.0,0.0,0.13690409644336282,-0.9823805440434111,-0.05757410684712195,-1.110717261569259,0.026159041354696377,0.025135330460663973,2.116323098839828
13737,4.0,300.00781,7248.0635,0.0,0.0,0.0,0.0,0.0,0.13691406325294664,-0.954184772715705,-0.11076086102624591,-1.138284655714949,-0.017987300888208383,0.021784674499979978,2.1312290210609275
13738,4.0,299.55696,6823.0892,0.0,0.0,0.0,0.0,0.0,0.13692403006253046,-0.915378438858318,-0.04964737329456425,-1.109022904752039,-0.03852581354070176,0.0096314955363796,2.117290246060278
13739,4.0,299.62638,6661.1931,0.0,0.0,0.0,0.0,0.0,0.13693399687211427,-0.8889163080542092,-0.048094983962105355,-1.087825104709979,-0.01915468355367008,0.00829020652710468,2.140763907151948
13740,4.0,299.15622,6982.9242,0.0,0.0,0.0,0.0,0.0,0.1369439636816981,-0.965232583061039,-0.08062471879679023,-1.076777334894649,0.03208655038669597,0.02134426635726508,2.0986953842001084
13741,4.0,298.98233,7184.7078,0.0,0.0,0.0,0.0,0.0,0.1369539304912819,-0.991909097321306,-0.07090679312820564,-1.1211558654244689,0.016531967743078184,0.009910252392590762,2.1341630893754977
13742,4.0,299.96414,6781.7986,0.0,0.0,0.0,0.0,0.0,0.13696389730086575,-0.9434657214978172,-0.06616210160044103,-1.051869620936449,-0.008250422883128343,-0.01092724472918509,2.102825492932718
13743,4.0,299.83887999999996,6405.5931,0.0,0.0,0.0,0.0,0.0,0.13697386411044957,-0.8562853789187872,-0.008627210977239431,-1.0822277085075591,8.381359114050741e-05,-0.016955385708116284,2.136783354134098
13744,4.0,299.53418,6646.5268,0.0,0.0,0.0,0.0,0.0,0.13698383092003338,-0.8865509871532702,-0.024509492483398575,-1.1093176592061291,0.00887631780504936,-0.0014631178443234884,2.141803096454508
13745,4.0,299.7876,7180.9363,0.0,0.0,0.0,0.0,0.0,0.1369937977296172,-0.930212075817284,-0.092827905807151,-1.159785316211899,0.006356003987988754,-0.018445144025393982,2.146500523918108
13746,4.0,300.3803,7331.7888,0.0,0.0,0.0,0.0,0.0,0.13700376453920102,-1.004982364219037,-0.07147571178110353,-1.1522226201155188,0.005350153754794064,-0.021473347327254377,2.129915646281308
13747,4.0,299.80803,7089.8975,0.0,0.0,0.0,0.0,0.0,0.13701373134878483,-1.001414953796961,-0.06863760534375424,-1.0850992592909592,-0.01104255563031539,-0.012271469934599788,2.1321251394493683
13748,4.0,299.65443,6773.781999999999,0.0,0.0,0.0,0.0,0.0,0.13702369815836865,-0.951946989604853,-0.051122484068396354,-1.055991117043209,0.04091144909289566,0.036225943529972264,2.114310986791248
13749,4.0,299.40432000000004,6887.1644,0.0,0.0,0.0,0.0,0.0,0.1370336649679525,-0.9385817141608032,-0.043619562635165664,-1.111324705004209,0.0037070973848370267,0.03055561966485487,2.124884352909758
13750,4.0,299.83983,7095.9539,0.0,0.0,0.0,0.0,0.0,0.1370436317775363,-0.9468542730122411,-0.07598425422731203,-1.134154243007309,-0.009772582202828771,0.018463270056432883,2.1436057697074182
13751,4.0,300.88656000000003,6883.5254,0.0,0.0,0.0,0.0,0.0,0.13705359858712013,-0.9241816773171302,-0.060738968203219446,-1.107499179251659,-0.024938537026241978,-0.02142818474379718,2.128088756351008
13752,4.0,300.41011000000003,6567.335999999999,0.0,0.0,0.0,0.0,0.0,0.13706356539670395,-0.9017895492496991,-0.015824533748509884,-1.078692073608619,0.015523000651250883,0.019285488062079484,2.144931404813248
13753,4.0,300.39616,6574.3477,0.0,0.0,0.0,0.0,0.0,0.13707353220628776,-0.9055679284750962,-0.03140705473713497,-1.061462566258199,0.01017755313919629,-0.02203492295667758,2.108942483786418
13754,4.0,300.59935,6981.64,0.0,0.0,0.0,0.0,0.0,0.13708349901587158,-0.9261936981732011,-0.052994542661654154,-1.143056050435849,0.014572509235944687,-0.028271973814726577,2.147603446651958
13755,4.0,300.43701,7073.7885,0.0,0.0,0.0,0.0,0.0,0.1370934658254554,-0.9614373433539781,-0.05187233068565045,-1.136945443057779,-0.021333983895250277,-0.012613033503559488,2.131980244685068
13756,4.0,299.6588,6824.1438,0.0,0.0,0.0,0.0,0.0,0.13710343263503924,-0.9121734072020061,-0.05036452942384205,-1.1118313300542089,-0.01009639991218709,0.016260283980515086,2.1525052466607275
13757,4.0,299.81036,6714.4383,0.0,0.0,0.0,0.0,0.0,0.13711339944462306,-0.921072154615244,-0.043682369955864254,-1.0762670621442887,0.002637865115487017,0.007635966642911233,2.127199629388258
13758,4.0,299.14141,7053.5377,0.0,0.0,0.0,0.0,0.0,0.13712336625420687,-1.006604516834131,-0.06417131947971615,-1.073323469278779,0.021890120398136682,-0.005952082272099785,2.1249184994381283
13759,4.0,298.18585,7323.5985,0.0,0.0,0.0,0.0,0.0,0.1371333330637907,-1.046073931689459,-0.06963747040993323,-1.1104796544208089,0.03222716923557397,-0.00918477859456707,2.1121448607274678
13760,4.0,297.70668,7104.7289,0.0,0.0,0.0,0.0,0.0,0.1371432998733745,-0.9731224474822081,-0.06925282040697123,-1.1172849460674388,-0.005607071018349824,0.008025786551858463,2.118761687855498
13761,4.0,298.70715,6573.4085,0.0,0.0,0.0,0.0,0.0,0.13715326668295832,-0.8961773595958192,-0.03391562792396186,-1.068059027059219,-0.012544818467077187,-0.019107812630544282,2.126455701164838
13762,4.0,299.90232000000003,6707.8309,0.0,0.0,0.0,0.0,0.0,0.13716323349254217,-0.894148113488048,-0.027597733893434274,-1.117267214190689,-0.030504787947088174,0.004255377146448026,2.140583143334108
13763,4.0,299.97617,7071.906999999999,0.0,0.0,0.0,0.0,0.0,0.13717320030212599,-0.926985593656355,-0.07601956903304734,-1.1466780142433088,-0.0009058191233073872,0.008550431849586922,2.133101811220758
13764,4.0,300.09137000000004,6968.5147,0.0,0.0,0.0,0.0,0.0,0.1371831671117098,-0.9455464204456661,-0.05230523469812475,-1.1204028179501488,0.008755302609831091,0.014339855867233586,2.1374396362238683
13765,4.0,300.97351000000003,6855.606,0.0,0.0,0.0,0.0,0.0,0.13719313392129362,-0.8981948317374281,-0.07862923012935083,-1.107108976638149,-0.005468799565978495,-0.005909575822454724,2.1175279545337378
13766,4.0,300.3829,6912.635,0.0,0.0,0.0,0.0,0.0,0.13720310073087744,-0.9241499625890002,-0.07579856196098562,-1.101319873516809,0.0016208214071126185,-0.014162083163688785,2.1239520614927483
13767,4.0,299.94732999999997,7077.4965,0.0,0.0,0.0,0.0,0.0,0.13721306754046125,-0.9548435980632262,-0.0850585229023726,-1.1114801375695489,0.017345167822834785,-0.01997103686773788,2.122554080329778
13768,4.0,299.51527999999996,7159.26,0.0,0.0,0.0,0.0,0.0,0.13722303435004507,-0.9873005420239771,-0.07281048032333493,-1.116125281327989,0.016902627801909483,0.028866998856450974,2.133513697386408
13769,4.0,300.14943,6846.6117,0.0,0.0,0.0,0.0,0.0,0.13723300115962891,-0.9312683586490311,-0.06753949453462914,-1.0823911457486888,0.0026248618743036976,0.009349382998487261,2.113033683715188
13770,4.0,299.66798,6456.6607,0.0,0.0,0.0,0.0,0.0,0.13724296796921273,-0.9359809747316301,0.011650827903847189,-1.038333511525539,-0.013312814420122486,0.01879517937843978,2.146025512271228
13771,4.0,299.53168999999997,6740.4139,0.0,0.0,0.0,0.0,0.0,0.13725293477879655,-0.9051447243058292,-0.04519526482592536,-1.0985775121211592,-0.0007811090812019642,-5.865200129025185e-05,2.135179075250768
13772,4.0,299.0092,7179.331,0.0,0.0,0.0,0.0,0.0,0.13726290158838036,-0.974951911067762,-0.04317412674545455,-1.164211293973709,0.018833869320258184,0.005520565601662405,2.1486391909041775
13773,4.0,299.5603,7096.7364,0.0,0.0,0.0,0.0,0.0,0.13727286839796418,-0.9307811981334522,-0.06338282345064764,-1.1630666253357387,-0.009053154569476793,-0.01054504983121539,2.1316280389503084
13774,4.0,300.30532,6881.7501,0.0,0.0,0.0,0.0,0.0,0.137282835207548,-0.9330574948806052,-0.05843353747594114,-1.1003892032999592,-0.02301734998863558,0.0008230129814100573,2.153619720445718
13775,4.0,299.70678,6895.7923,0.0,0.0,0.0,0.0,0.0,0.13729280201713182,-0.9310727912472301,-0.05612412568901994,-1.108951774595019,-0.02074455300732798,-0.004520092382773386,2.128552723571798
13776,4.0,299.87723,7103.0435,0.0,0.0,0.0,0.0,0.0,0.13730276882671566,-0.9919882524191179,-0.08573388550477573,-1.081425721053409,0.02119688102421928,0.01169209758042019,2.134210002855128
13777,4.0,301.13569,7205.3475,0.0,0.0,0.0,0.0,0.0,0.13731273563629948,-0.9727516182106102,-0.08976290024840851,-1.127731250623409,0.02780271438866427,-0.006449083067349943,2.127901710382548
13778,4.0,300.85722999999996,6847.472,0.0,0.0,0.0,0.0,0.0,0.1373227024458833,-0.9460141569568281,-0.04232968715186486,-1.093116600707209,0.014009225266852887,0.013132252239052386,2.129802364920128
13779,4.0,300.45069,6529.225,0.0,0.0,0.0,0.0,0.0,0.1373326692554671,-0.8842785204914952,-0.03736245449138716,-1.063080422692869,0.0043908321688413965,-0.0014982205768128585,2.1386332448416683
13780,4.0,299.77185,6747.1635,0.0,0.0,0.0,0.0,0.0,0.13734263606505093,-0.925736053633035,-0.03747227661672576,-1.087760864653639,0.005704339278924454,0.0006911811184592654,2.123174290715988
13781,4.0,300.61949,7322.9454,0.0,0.0,0.0,0.0,0.0,0.13735260287463474,-0.9832594270476501,-0.1106843809086979,-1.132048709299509,0.003124273394191777,0.01062240944985019,2.1346058796691976
13782,4.0,300.85587000000004,7368.2078,0.0,0.0,0.0,0.0,0.0,0.13736256968421856,-0.978303276303516,-0.08531848032152842,-1.1761294456249387,-0.01928985517001048,0.009282722287658361,2.136964624576988
13783,4.0,300.06158999999997,6966.193,0.0,0.0,0.0,0.0,0.0,0.1373725364938024,-0.910723192996381,-0.07634977204188582,-1.1304757398442689,-0.022618570213029078,-0.004128426332143957,2.136884679144098
13784,4.0,299.83716,6764.0885,0.0,0.0,0.0,0.0,0.0,0.13738250330338622,-0.8862788687064141,-0.06022373660687003,-1.1096114004101187,-0.012437551758490789,-0.006106455180485203,2.150954568707688
13785,4.0,300.30102,6991.406,0.0,0.0,0.0,0.0,0.0,0.13739247011297004,-0.9375215201836701,-0.06693799989101623,-1.1207533011597388,2.071458208262008e-06,-0.0017134053111499384,2.144570383802618
13786,4.0,301.02918999999997,7214.7247,0.0,0.0,0.0,0.0,0.0,0.13740243692255386,-0.9912190537382041,-0.08110921649110642,-1.120767891961179,-0.008547374772710212,-0.00986831518685188,2.166836656075128
13787,4.0,300.36726,6916.8511,0.0,0.0,0.0,0.0,0.0,0.13741240373213767,-0.9865059411630561,-0.04293424282402986,-1.073109876157699,0.0035915443169328262,-0.0020633598068377583,2.128720011163308
13788,4.0,299.44617,6749.3384,0.0,0.0,0.0,0.0,0.0,0.1374223705417215,-0.9452293440918732,-0.029233321191604173,-1.0771676388331688,0.006074513788307834,0.008569448831438752,2.141278334227718
13789,4.0,300.09846,6763.6514,0.0,0.0,0.0,0.0,0.0,0.1374323373513053,-0.9281648951827431,-0.027120081716793677,-1.100696116755249,0.004938139716981445,0.008267737098187122,2.119286247432268
13790,4.0,300.3577,7071.5551,0.0,0.0,0.0,0.0,0.0,0.13744230416088915,-0.9575387825342201,-0.05548047173524624,-1.136556962969439,0.015159390786615384,-0.0010065156649328622,2.1585391510062277
13791,4.0,300.0148,7163.2676,0.0,0.0,0.0,0.0,0.0,0.13745227097047297,-0.9647075675217242,-0.06190523224057074,-1.150841661554229,-0.006132774149182684,-0.007012128213393173,2.1335907043940083
13792,4.0,300.63705,6904.3212,0.0,0.0,0.0,0.0,0.0,0.13746223778005678,-0.9431133637755421,-0.06423312165631553,-1.0913947848122791,-0.026488035556165575,-0.021731499134731977,2.1418560894347376
13793,4.0,301.64226,6708.2985,0.0,0.0,0.0,0.0,0.0,0.1374722045896406,-0.9218921475236712,-0.05220166229940295,-1.065061427963379,-0.025150058050867476,-0.011879642067929387,2.1278192318244082
13794,4.0,301.41521,7127.1684,0.0,0.0,0.0,0.0,0.0,0.13748217139922442,-0.9491149657078541,-0.09108642374103011,-1.126279871180169,-0.018500697488626684,-0.0025732637341613573,2.138030867657218
13795,4.0,300.07081,7345.8573,0.0,0.0,0.0,0.0,0.0,0.13749213820880823,-0.964613710164961,-0.1106917877669289,-1.1576517154763288,0.009576998285051142,-0.0006674240107846214,2.139024156730248
13796,4.0,299.01932999999997,7019.0453,0.0,0.0,0.0,0.0,0.0,0.13750210501839205,-0.9149547787265061,-0.06729515940551514,-1.1513645999308388,-0.005753446647670974,0.010284739801024791,2.139358225288218
13797,4.0,300.69937999999996,6877.7669,0.0,0.0,0.0,0.0,0.0,0.1375120718279759,-0.9184153419255371,-0.08848755781129201,-1.0837665314344291,0.0008937032257666411,0.02282716294486558,2.1247292243194478
13798,4.0,299.5159,7013.2934,0.0,0.0,0.0,0.0,0.0,0.1375220386375597,-0.9775813964022722,-0.04422723911763866,-1.1100574331041388,0.005459871414047354,-0.008649526493466802,2.126405849259918
13799,4.0,300.0635,7309.5587,0.0,0.0,0.0,0.0,0.0,0.13753200544714353,-1.013101628462846,-0.0923483021108178,-1.116473434062349,0.027257771259632576,0.006203128865901154,2.1253568314313878
13800,4.0,300.50891,7104.9005,0.0,0.0,0.0,0.0,0.0,0.13754197225672735,-0.9734398886060371,-0.08208523066318152,-1.104187269974799,0.017862859590426983,-0.025707831965915477,2.103188641768558
13801,4.0,300.827,6743.3365,0.0,0.0,0.0,0.0,0.0,0.13755193906631116,-0.9155346414937341,-0.028129678036933073,-1.106141626767679,-0.004105615133967666,0.0045317803240018965,2.120396161591808
13802,4.0,300.21259,6746.621,0.0,0.0,0.0,0.0,0.0,0.13756190587589498,-0.9017973310104671,-0.06236073375677524,-1.0866462895436388,-0.003939428438691316,-0.017313111629421084,2.1406325899389875
13803,4.0,300.55207,7131.3064,0.0,0.0,0.0,0.0,0.0,0.1375718726854788,-0.9620600159379311,-0.06697507673867543,-1.138703938606329,-0.007357379303441804,-0.006824061091482394,2.162393351736608
13804,4.0,299.28238,7280.4767,0.0,0.0,0.0,0.0,0.0,0.13758183949506264,-0.995987712683834,-0.08445597447865572,-1.132639434107809,-0.0009209249901707201,-0.012363417314924288,2.130322871496498
13805,4.0,300.05602000000005,6928.9555,0.0,0.0,0.0,0.0,0.0,0.13759180630464646,-0.9500630638264241,-0.06557136868614023,-1.0905950265083488,-0.00834883469776583,0.006124151897456734,2.147468887038678
13806,4.0,299.51825,6681.8275,0.0,0.0,0.0,0.0,0.0,0.13760177311423027,-0.9053623602948082,-0.04828548713990655,-1.0774608734121092,-0.0022997539935930475,0.007710897095756294,2.127351211603218
13807,4.0,299.29219,6881.3715,0.0,0.0,0.0,0.0,0.0,0.1376117399238141,-0.9295121631782082,-0.05720949487813754,-1.105043466309299,0.008386638755021802,0.014362265919695286,2.135335825041238
13808,4.0,300.02623,7184.0063,0.0,0.0,0.0,0.0,0.0,0.1376217067333979,-0.974247550260747,-0.0904036552936461,-1.119107276372289,0.024241276062677678,0.022179943363989978,2.114065577617028
13809,4.0,300.41048,7040.95,0.0,0.0,0.0,0.0,0.0,0.13763167354298173,-0.94475713914777,-0.06646295885988335,-1.1290528327288387,-0.00038553697170203667,0.004703068024256675,2.124753035696798
13810,4.0,299.79942,6670.2562,0.0,0.0,0.0,0.0,0.0,0.13764164035256554,-0.936491926359557,-0.028995494167882472,-1.062103953571499,-0.002975496970083687,-0.016519035632051884,2.121612163036818
13811,4.0,300.22185,6924.5714,0.0,0.0,0.0,0.0,0.0,0.1376516071621494,-0.9432202616610921,-0.045512826526516253,-1.116163683506779,-0.015411451947741885,-0.01854316584006798,2.1301199175014682
13812,4.0,300.13277999999997,7091.1437,0.0,0.0,0.0,0.0,0.0,0.1376615739717332,-0.9728744139902292,-0.05579018885356295,-1.126866036363019,0.005327789399911875,-0.030598988795635072,2.120170713444558
13813,4.0,300.56239,7038.4052,0.0,0.0,0.0,0.0,0.0,0.13767154078131702,-0.9202828327873441,-0.07653449260136633,-1.1426820598239387,0.013395406462273687,-0.029779172192725474,2.146436587836798
13814,4.0,300.9108,6842.4121,0.0,0.0,0.0,0.0,0.0,0.13768150759090084,-0.9200714485514822,-0.02346925345373498,-1.1363816707021388,0.0015413600037953886,-0.002599897620989918,2.161274622301198
13815,4.0,300.5831,6897.0165,0.0,0.0,0.0,0.0,0.0,0.13769147440048465,-0.9228353415117572,-0.06317972354760323,-1.110505694948379,-0.008277701399670523,0.01037378827281319,2.155417834073178
13816,4.0,300.08261,7015.0076,0.0,0.0,0.0,0.0,0.0,0.13770144121006847,-0.968678595988634,-0.06923307317577233,-1.0944754704163189,-0.0036493984658425866,0.026945249465039078,2.151283064390108
13817,4.0,300.75509,7404.2356,0.0,0.0,0.0,0.0,0.0,0.1377114080196523,-0.988788236350801,-0.11051027414401489,-1.151404218009749,-0.0026784747609448776,0.03302983151429057,2.163364653282468
13818,4.0,299.47946,7281.4577,0.0,0.0,0.0,0.0,0.0,0.13772137482923613,-0.982912145708376,-0.08899727530059721,-1.141471935229509,0.013887780149617187,1.6449083884898185e-05,2.146601038328028
13819,4.0,299.81825,6902.963000000001,0.0,0.0,0.0,0.0,0.0,0.13773134163881995,-0.9382495505130212,-0.018189591204422883,-1.1418891916206888,0.0019516768476905081,-0.0027795117039414474,2.1475593702726083
13820,4.0,299.93367,6877.3807,0.0,0.0,0.0,0.0,0.0,0.13774130844840377,-0.9326274006106581,-0.047439472955661456,-1.110485125971349,0.004294699964278887,-0.0035885226024846063,2.141634491637868
13821,4.0,299.81167,6938.9854,0.0,0.0,0.0,0.0,0.0,0.13775127525798758,-0.9594269639630689,-0.016258741813862884,-1.1335925984768789,-0.005792368015812214,-0.007013179865671963,2.153016836636218
13822,4.0,300.27513999999996,6946.6161,0.0,0.0,0.0,0.0,0.0,0.1377612420675714,-0.959675595272607,-0.03865058009176526,-1.113271665071359,0.0023923656606831076,0.02137171834222438,2.144989261393958
13823,4.0,300.39297999999997,6925.825,0.0,0.0,0.0,0.0,0.0,0.13777120887715522,-0.9370248959121571,-0.06466682816286903,-1.1035861086904688,-0.012006591159708289,-0.013224368832143589,2.1169301369747378
13824,4.0,299.83026,7053.74,0.0,0.0,0.0,0.0,0.0,0.13778117568673906,-0.924995580592456,-0.09269099950663941,-1.126474212549349,-0.004356363325614586,-0.009724781724061231,2.144192644165338
13825,4.0,298.80492000000004,6965.0556,0.0,0.0,0.0,0.0,0.0,0.13779114249632288,-0.917264391136947,-0.08545022208628032,-1.1144883757914388,0.00048697650936083944,-0.01812113197466648,2.132102442647128
13826,4.0,300.02979,7111.4458,0.0,0.0,0.0,0.0,0.0,0.1378011093059067,-0.9450733339739761,-0.07352990613283673,-1.143098708265059,0.012608731243634886,0.01034551555527289,2.176060474385448
13827,4.0,301.00998,7130.7944,0.0,0.0,0.0,0.0,0.0,0.1378110761154905,-0.9876390486173852,-0.05225182628535375,-1.1276925444695889,0.005250203623854755,0.02136861577041818,2.165292158947698
13828,4.0,301.01455,6801.3213,0.0,0.0,0.0,0.0,0.0,0.13782104292507433,-0.9512373092348132,-0.04412579961037736,-1.0720687616799491,-0.009512941424329222,0.01869239224854548,2.1495829320473185
13829,4.0,301.17347,6579.4641,0.0,0.0,0.0,0.0,0.0,0.13783100973465814,-0.9035577010717021,-0.02433943973236568,-1.072095612807599,-0.002110701384635008,-0.001920069220096078,2.1201649379189877
13830,4.0,299.42545,6831.7116,0.0,0.0,0.0,0.0,0.0,0.13784097654424196,-0.9294277087823731,-0.020460748747068682,-1.126781227329649,-0.008582847645461113,0.014898838589650885,2.151999533535818
13831,4.0,299.17274,7134.5576,0.0,0.0,0.0,0.0,0.0,0.1378509433538258,-0.9468951779187781,-0.07100908883180143,-1.150823119077399,0.013334899219302088,-0.016984671675756586,2.123937774666338
13832,4.0,299.77721,7042.3364,0.0,0.0,0.0,0.0,0.0,0.13786091016340962,-0.9445300394028571,-0.05718331958830424,-1.138981062508679,0.0004555375980405605,-0.013275205616160789,2.156102385840738
13833,4.0,299.52664,6948.9658,0.0,0.0,0.0,0.0,0.0,0.13787087697299344,-0.9442273512004842,-0.06161249820718014,-1.106472250275309,-0.01071638434362479,-0.006417878510645294,2.144637663609258
13834,4.0,298.37572,7028.5273,0.0,0.0,0.0,0.0,0.0,0.13788084378257726,-0.9755837535651201,-0.046703606150037054,-1.114209428038909,0.005748623678519985,0.015920771229757782,2.152225285658098
13835,4.0,300.57027999999997,7291.1056,0.0,0.0,0.0,0.0,0.0,0.13789081059216107,-0.975435859580524,-0.0890392431064891,-1.1518389023026487,0.006670409921143203,0.021259672132916275,2.1436096200577976
13836,4.0,299.97798,7211.6837,0.0,0.0,0.0,0.0,0.0,0.1379007774017449,-0.9550319207268121,-0.11366850377820789,-1.123471344552989,0.025610536651563178,0.009860796060509802,2.1302888262931376
13837,4.0,299.95658,6944.4935,0.0,0.0,0.0,0.0,0.0,0.1379107442113287,-0.925320844007057,-0.05053629760729425,-1.135095451025199,0.008511604207079932,-0.0034550531449871968,2.141648879789288
13838,4.0,300.46143,6701.3352,0.0,0.0,0.0,0.0,0.0,0.13792071102091255,-0.8958102388195872,-0.049162618234722656,-1.0920656577034888,0.007951718070873472,0.009334359235279532,2.1516249349738477
13839,4.0,300.67118,6849.646,0.0,0.0,0.0,0.0,0.0,0.13793067783049637,-0.939945528530401,-0.061353823562650935,-1.0808220266438289,-0.0029027045762746377,-0.004373034836134935,2.1461496354084777
13840,4.0,300.46379,7244.3957,0.0,0.0,0.0,0.0,0.0,0.13794064464008018,-0.992050091072721,-0.07956345888055202,-1.1305018816968488,-0.018338981759416582,-0.003504985603290147,2.119008008954808
13841,4.0,300.4587,7039.3427,0.0,0.0,0.0,0.0,0.0,0.137950611449664,-0.9479951520948371,-0.07982717849732913,-1.111962039317109,-0.022033203471257878,-0.00018645053203873482,2.099707317074978
13842,4.0,300.60044,6743.9858,0.0,0.0,0.0,0.0,0.0,0.13796057825924782,-0.9119371578086901,-0.04333647474272705,-1.094729593541399,-0.01595911869304238,0.019243537481439282,2.1129012519271178
13843,4.0,300.08134,6892.460999999999,0.0,0.0,0.0,0.0,0.0,0.13797054506883163,-0.9228668941198711,-0.03726457757147746,-1.1350045624912288,0.007085374137946983,0.017472290180380785,2.150934810330738
13844,4.0,300.04427000000004,7134.5224,0.0,0.0,0.0,0.0,0.0,0.13798051187841545,-0.987982499871281,-0.06382999605103014,-1.116904166679859,0.007134675341437633,0.003582549898445147,2.157621855690698
13845,4.0,299.99363,7094.8545,0.0,0.0,0.0,0.0,0.0,0.1379904786879993,-0.959671197767173,-0.054170972637258744,-1.1428164167871988,0.013231858776882786,-0.008413507817198572,2.173491885381948
13846,4.0,299.04867,6931.2012,0.0,0.0,0.0,0.0,0.0,0.1380004454975831,-0.9863832365759461,-0.03869083145198776,-1.081838012519099,-0.0016713619168005785,0.011987905814614189,2.169968713459238
13847,4.0,300.14842999999996,7028.6885,0.0,0.0,0.0,0.0,0.0,0.13801041230716693,-0.9351536864224832,-0.07587839289661433,-1.125513752779559,-0.01977072340246848,-0.005868635857464265,2.152344545194868
13848,4.0,299.80617,7056.3337,0.0,0.0,0.0,0.0,0.0,0.13802037911675075,-0.963486418766206,-0.05815736501543504,-1.123305475511619,-0.03205279497286457,0.01014105992359469,2.1325322633395483
13849,4.0,299.52862999999996,7213.0,0.0,0.0,0.0,0.0,0.0,0.13803034592633456,-0.9407104816933961,-0.08845707316878341,-1.163404341594069,-0.012028856317405688,0.002385807906035908,2.129905716430328
13850,4.0,300.75988,7058.9511,0.0,0.0,0.0,0.0,0.0,0.13804031273591838,-0.9700161570481411,-0.04505049773113796,-1.1306781872142488,0.022515068741814276,0.01171116289430179,2.1531270782470977
13851,4.0,301.99592,6642.8701,0.0,0.0,0.0,0.0,0.0,0.1380502795455022,-0.918493635760764,-0.018866710782499383,-1.081906305575839,0.0059815709910850945,-0.0038858367289772264,2.1542937344122377
13852,4.0,300.73496,6850.8448,0.0,0.0,0.0,0.0,0.0,0.13806024635508604,-0.9505390076633962,-0.04294125350147176,-1.0890055410764792,0.007578100031025243,-0.01131071429578059,2.142006354424568
13853,4.0,301.22937,7370.0029,0.0,0.0,0.0,0.0,0.0,0.13807021316466986,-0.9817093975746741,-0.07904770140740072,-1.179539741486509,0.013786230198094988,-0.005346433201751875,2.131143705402508
13854,4.0,299.7482,7188.0129,0.0,0.0,0.0,0.0,0.0,0.13808017997425368,-0.9504058564677552,-0.08256892079716802,-1.152001630268709,0.025905952757968476,0.03235926867761117,2.1479031660315377
13855,4.0,299.81144,6850.4111,0.0,0.0,0.0,0.0,0.0,0.1380901467838375,-0.9014586825620451,-0.05130197119111036,-1.129593300332179,0.014028056519961385,0.035487438221087464,2.138344164588138
13856,4.0,300.50075,6945.3838,0.0,0.0,0.0,0.0,0.0,0.1381001135934213,-0.9384547032607681,-0.06488571044947103,-1.107882795739519,-0.0016641292362617683,-0.014188492514295185,2.151817959117898
13857,4.0,299.43575,6960.7529,0.0,0.0,0.0,0.0,0.0,0.13811008040300513,-0.9782005732733802,-0.05154642689698625,-1.086148074469469,-1.3445520798969587e-05,-0.013615876511782385,2.140331148034238
13858,4.0,299.8824,7146.0049,0.0,0.0,0.0,0.0,0.0,0.13812004721258894,-0.9723865036695761,-0.08143659253216592,-1.118383917125899,-0.007735866313995562,-0.006679228946038574,2.144775566947868
13859,4.0,300.03654,7088.3029,0.0,0.0,0.0,0.0,0.0,0.1381300140221728,-0.9657083141154901,-0.07604683255348801,-1.1129119612858591,0.005362211025684025,-0.007556791178772223,2.1270639551998682
13860,4.0,300.5195,6998.6855,0.0,0.0,0.0,0.0,0.0,0.1381399808317566,-0.9309920858767652,-0.059911418475546645,-1.136522107165999,-0.029024763923521175,-0.0007208330720356854,2.1470257927699476
13861,4.0,300.56427,6958.8498,0.0,0.0,0.0,0.0,0.0,0.13814994764134042,-0.9392330313250832,-0.05272127214943445,-1.1233622175172189,-0.003973932948321646,0.013921797995224486,2.126924228011078
13862,4.0,300.99472000000003,7203.7212,0.0,0.0,0.0,0.0,0.0,0.13815991445092424,-0.9969849635647551,-0.03674654028560117,-1.156019876190279,0.0018544548926454482,0.04406751746462536,2.175336203213968
13863,4.0,300.46271,7224.5003,0.0,0.0,0.0,0.0,0.0,0.13816988126050805,-1.009329865760602,-0.05172891931949685,-1.135008919466659,0.015242345572302385,-0.007416324418734232,2.153590842817868
13864,4.0,301.48005,6926.4213,0.0,0.0,0.0,0.0,0.0,0.13817984807009187,-0.9505313576251411,-0.048740562077818954,-1.106187223022179,-0.00994690995735858,-0.061138834182933144,2.161926648740548
13865,4.0,300.82387,6858.5409,0.0,0.0,0.0,0.0,0.0,0.1381898148796757,-0.9436130176648542,-0.048212565556709754,-1.092999570320659,0.005965552621579204,-0.048174662910219046,2.126451242864398
13866,4.0,300.13667999999996,7167.6361,0.0,0.0,0.0,0.0,0.0,0.13819978168925953,-0.9515315367988512,-0.07123687454703213,-1.1560139993396987,0.01270823442995509,-0.008414095806231602,2.168093187524138
13867,4.0,299.74045,7158.5914,0.0,0.0,0.0,0.0,0.0,0.13820974849884335,-0.9589210988506441,-0.08751190232975233,-1.1295999877828389,0.035786036946056865,0.006003168720941624,2.1164832936806377
13868,4.0,299.45771,7054.8302,0.0,0.0,0.0,0.0,0.0,0.13821971530842717,-0.9726841560189521,-0.05546475521294515,-1.116343332749509,-0.02021850800591138,0.01024225118458149,2.180198182493808
13869,4.0,299.99096000000003,6988.2258,0.0,0.0,0.0,0.0,0.0,0.13822968211801098,-0.959972933514452,-0.05856806871821835,-1.1057051186245987,-0.01068114553164699,0.010186321805561688,2.137830446787438
13870,4.0,300.23116,6843.0258,0.0,0.0,0.0,0.0,0.0,0.1382396489275948,-0.9368663020065052,-0.025904818931106577,-1.117337837722659,-0.032782453595126264,0.025363365435419276,2.182648221235608
13871,4.0,299.32181,7042.1184,0.0,0.0,0.0,0.0,0.0,0.13824961573717862,-0.9428579132928311,-0.060178521334407646,-1.137591693971559,0.0031500939451650674,0.014688343987376687,2.1344848976072583
13872,4.0,299.61791,7479.5527,0.0,0.0,0.0,0.0,0.0,0.13825958254676243,-0.966293648433258,-0.11462796043039888,-1.192675617107919,-0.02056940664804238,-0.03359997214680907,2.1375823018379476
13873,4.0,300.40986000000004,7219.734,0.0,0.0,0.0,0.0,0.0,0.13826954935634628,-0.9711599137610211,-0.061932085394720934,-1.161526890483779,0.018089486147543285,-0.0007718521600108772,2.1233241504057783
13874,4.0,301.56287000000003,6919.5813,0.0,0.0,0.0,0.0,0.0,0.1382795161659301,-0.9390472721842501,-0.07441959950239263,-1.0899130078660388,0.020539494491840282,0.0010415473381927191,2.150883945175718
13875,4.0,301.21835,7083.2046,0.0,0.0,0.0,0.0,0.0,0.1382894829755139,-0.9582404480959691,-0.07290932895009053,-1.121967580079579,0.04644517063253146,-0.01080603468597259,2.147920492608248
13876,4.0,300.84157999999996,7268.9435,0.0,0.0,0.0,0.0,0.0,0.13829944978509773,-0.987948170957893,-0.07542265833288683,-1.146206548971779,0.01992817841500808,-0.03299235037984147,2.1492636569408083
13877,4.0,300.13003,7039.7544,0.0,0.0,0.0,0.0,0.0,0.13830941659468154,-0.9304825021364731,-0.08732614724191973,-1.1221009237927388,0.018250299070914282,-0.016355360277148383,2.149108224375468
13878,4.0,300.63202,6873.088000000001,0.0,0.0,0.0,0.0,0.0,0.13831938340426536,-0.9095341237390292,-0.03937252180126536,-1.1403404388428389,-0.008013666966087352,0.016803859221911785,2.1335804705679977
13879,4.0,299.29814,6874.9357,0.0,0.0,0.0,0.0,0.0,0.1383293502138492,-0.9250441659347513,-0.05291648997995095,-1.1118481500058688,-0.034739067909229066,0.029086991665162574,2.148258411516598
13880,4.0,299.52512,6959.8103,0.0,0.0,0.0,0.0,0.0,0.13833931702343302,-0.9806062620583031,-0.02979524031281127,-1.105207004875439,-0.04140474889083056,0.008044088077814681,2.139633424015378
13881,4.0,300.27865,7358.602,0.0,0.0,0.0,0.0,0.0,0.13834928383301684,-1.003318759542352,-0.07744273047425243,-1.156069829420209,-0.02411653889586708,0.034851100946285865,2.167233242164268
13882,4.0,300.09379,7229.1757,0.0,0.0,0.0,0.0,0.0,0.13835925064260066,-1.026293364562269,-0.04088344792638216,-1.1303120999531189,-0.012472894935228887,0.028314615431934972,2.182536763724608
13883,4.0,300.2705,6994.0816,0.0,0.0,0.0,0.0,0.0,0.13836921745218447,-0.9201304501048052,-0.057053184838210945,-1.148842519106929,0.006953752342006924,0.0036804394839810963,2.177095712012618
13884,4.0,300.22312999999997,7089.0838,0.0,0.0,0.0,0.0,0.0,0.1383791842617683,-0.9552793564012321,-0.06261270068564244,-1.1370124188893889,0.007692565070972062,-0.044131575135947364,2.140320103608148
13885,4.0,299.31147000000004,7407.2132,0.0,0.0,0.0,0.0,0.0,0.1383891510713521,-0.9946416301909861,-0.08089985166269371,-1.1760664214687189,0.03351188524936557,-0.021595524011062277,2.158203663898118
13886,4.0,298.99452,7164.7898,0.0,0.0,0.0,0.0,0.0,0.13839911788093595,-1.003081253718912,-0.06497579851586203,-1.1098601533096688,0.029367379246084676,-0.0028636919142993873,2.150363945224398
13887,4.0,300.00898,6769.7845,0.0,0.0,0.0,0.0,0.0,0.13840908469051977,-0.9164240622990132,-0.04936178166112855,-1.0920595782028888,0.0027934704399690674,0.024596837681768877,2.147885535479798
13888,4.0,298.38685,6745.6641,0.0,0.0,0.0,0.0,0.0,0.13841905150010358,-0.9211488272503111,-0.040854042395230064,-1.088510568402629,0.00963348495162594,-0.025039653306721376,2.151871154748148
13889,4.0,299.44989,7020.6589,0.0,0.0,0.0,0.0,0.0,0.1384290183096874,-0.9033812435667871,-0.05828225923601115,-1.172441519235969,-0.00944633147733033,0.01896862854380788,2.159773086978008
13890,4.0,299.63281,7093.7151,0.0,0.0,0.0,0.0,0.0,0.13843898511927122,-0.9405188457019831,-0.06571017888358974,-1.1500832438543789,0.010904648238704991,0.01178764098534959,2.136783860759148
13891,4.0,299.30271,7099.8743,0.0,0.0,0.0,0.0,0.0,0.13844895192885504,-0.9671481222425882,-0.04721415754417455,-1.1438222701614689,-0.016981058425899986,0.008664063795301522,2.155383282244768
13892,4.0,300.04884,7015.2252,0.0,0.0,0.0,0.0,0.0,0.13845891873843885,-0.9764336170864951,-0.06623924641005463,-1.089780373427949,-0.03097852289884217,-0.0014484980639306287,2.126746706593558
13893,4.0,301.43335,7057.8829,0.0,0.0,0.0,0.0,0.0,0.1384688855480227,-0.996944251175737,-0.06247503546080594,-1.086000849229939,-0.0014566239244325886,0.03519681884065557,2.1499756677860775
13894,4.0,299.68034,7218.2344,0.0,0.0,0.0,0.0,0.0,0.1384788523576065,-1.001717074579278,-0.05940485219405245,-1.133041086447449,0.006568022214438324,0.043815577893510864,2.151104428397478
13895,4.0,300.36847,7230.9854,0.0,0.0,0.0,0.0,0.0,0.13848881916719033,-0.9433880153476482,-0.08997815205990223,-1.164672829394259,0.011896831855875888,0.0061573332037814735,2.1698747851749682
13896,4.0,300.23194,6877.0641,0.0,0.0,0.0,0.0,0.0,0.13849878597677415,-0.8962998210029052,-0.059554385617310246,-1.134601592926459,-0.011007607621116291,-0.047418726659863956,2.132096059171498
13897,4.0,300.17474,6830.709,0.0,0.0,0.0,0.0,0.0,0.13850875278635796,-0.928057845309678,-0.04194045827170096,-1.1063666696148888,0.02321081084347868,-0.02407936376294818,2.150739455711458
13898,4.0,298.7874,7008.3346,0.0,0.0,0.0,0.0,0.0,0.13851871959594178,-0.9751751705947961,-0.03205963238453937,-1.123123901093699,0.036811173482979964,-0.0053143975773152045,2.147242324316318
13899,4.0,299.2348,6956.0943,0.0,0.0,0.0,0.0,0.0,0.1385286864055256,-0.964052541862078,-0.04554994086442916,-1.1048764826928188,0.032093540799135865,-6.374271975366663e-05,2.166541394995988
13900,4.0,298.03681,6678.938,0.0,0.0,0.0,0.0,0.0,0.13853865321510944,-0.9105322764125392,-0.04117299022195776,-1.078525089992139,-0.02315061365503768,-0.007759992305501612,2.154797623686968
13901,4.0,299.93676,6854.4901,0.0,0.0,0.0,0.0,0.0,0.13854862002469326,-0.9035206161180421,-0.045681180057131454,-1.1343920528057791,-0.012129975637635388,0.009301256962462591,2.160723920871848
13902,4.0,299.34862999999996,7090.7248,0.0,0.0,0.0,0.0,0.0,0.13855858683427708,-0.9521509365849811,-0.06315868948877734,-1.140093611118479,-0.024728277497990978,0.011417985057367387,2.179532882478148
13903,4.0,299.44216,7161.8909,0.0,0.0,0.0,0.0,0.0,0.1385685536438609,-0.9737492135965651,-0.07486371614047353,-1.128423097791689,-0.03321151333672117,-0.01114766310293869,2.123718203369668
13904,4.0,299.86056,7340.7128,0.0,0.0,0.0,0.0,0.0,0.1385785204534447,-1.0220549393939689,-0.09606678305655332,-1.113271665071359,-0.018735321628782282,0.006636329760654753,2.141771483051388
13905,4.0,299.8663,7131.6906,0.0,0.0,0.0,0.0,0.0,0.13858848726302853,-0.993503638871175,-0.057484326808761345,-1.116867892326279,0.01044217454856239,0.035319916568804365,2.1345629178649577
13906,4.0,299.81611000000004,6978.7944,0.0,0.0,0.0,0.0,0.0,0.13859845407261234,-0.9586093116623731,-0.04935856053906065,-1.113411392260149,0.03060872004959547,0.03236318286274747,2.1590794159595483
13907,4.0,299.97794,7064.6275,0.0,0.0,0.0,0.0,0.0,0.1386084208821962,-0.9070889485977092,-0.06868569014049984,-1.171695665837359,0.012162448276840189,-0.019123421748334785,2.152436750953968
13908,4.0,299.71191,6952.9245,0.0,0.0,0.0,0.0,0.0,0.13861838769178,-0.9317159720132071,-0.05781241313814095,-1.1239870888538888,0.028036440789231273,-0.05565766181998355,2.155364638442928
13909,4.0,299.75576,6772.4058,0.0,0.0,0.0,0.0,0.0,0.13862835450136382,-0.8870507828975962,-0.05645330126225705,-1.1151381730805687,0.016073408238071882,-0.028910833069027076,2.134453892154198
13910,4.0,300.75189,6844.8521,0.0,0.0,0.0,0.0,0.0,0.13863832131094764,-0.9600220558793,-0.04496997575894105,-1.075672081685569,0.008556730921483591,-0.02026483481373348,2.1516805624043376
13911,4.0,299.94697,7044.0596,0.0,0.0,0.0,0.0,0.0,0.13864828812053145,-0.9682958711608621,-0.06217052847450344,-1.1107518133976688,-0.007096155726961044,-0.007378811265581974,2.1570476468590276
13912,4.0,300.01787,7217.3721,0.0,0.0,0.0,0.0,0.0,0.13865825493011527,-0.9973830999265481,-0.08338154737736801,-1.1131362948579988,-0.019615119597861583,0.025471653500106474,2.1312432065623277
13913,4.0,300.43601,7306.7749,0.0,0.0,0.0,0.0,0.0,0.1386682217396991,-0.951980214075632,-0.09953666916975441,-1.1695602412516088,-0.000977878025369047,0.06555178560145754,2.154478855205508
13914,4.0,300.78782,7265.2699,0.0,0.0,0.0,0.0,0.0,0.13867818854928293,-0.9851570114374271,-0.06651597919786603,-1.1567876157910488,-0.008299710205092622,0.03046362162202537,2.155393414745768
13915,4.0,300.04895,7140.9289,0.0,0.0,0.0,0.0,0.0,0.13868815535886675,-0.95390536900063,-0.06502281028075174,-1.151735854767479,-0.04118522825666556,0.007983884911198093,2.145455255114948
13916,4.0,299.57906,6886.0698,0.0,0.0,0.0,0.0,0.0,0.13869812216845057,-0.964112232425469,-0.03570905526970936,-1.093371939732409,0.014851345530963686,-0.01029631618341729,2.128403877132108
13917,4.0,300.2209,6888.1705,0.0,0.0,0.0,0.0,0.0,0.13870808897803438,-0.9195378913138241,-0.04653087537898986,-1.127763066676549,0.006725566696961754,0.0050721012087274146,2.159294528955778
13918,4.0,299.7513,6720.6292,0.0,0.0,0.0,0.0,0.0,0.1387180557876182,-0.909486369261816,-0.03916564855484857,-1.094251440819209,0.014973320578001686,-0.019461393345689984,2.162186547391198
13919,4.0,300.13476,6772.1902,0.0,0.0,0.0,0.0,0.0,0.13872802259720202,-0.8897977849787042,-0.051879885478396046,-1.1168991004293591,-0.014004153950102386,-0.030972484941496268,2.1644777085173184
13920,4.0,300.59592999999995,7091.4837,0.0,0.0,0.0,0.0,0.0,0.13873798940678583,-0.9629597718942301,-0.07179449951431544,-1.120879653447209,0.006850408329857663,0.013320361106867289,2.1615251990509274
13921,4.0,300.22694,7343.7372,0.0,0.0,0.0,0.0,0.0,0.13874795621636968,-0.9644195410482982,-0.0982649389692444,-1.169628230333319,0.012628801701615688,0.03872272045913496,2.147227429539848
13922,4.0,299.64799999999997,7353.2677,0.0,0.0,0.0,0.0,0.0,0.1387579230259535,-1.0148035137283091,-0.09301147430126781,-1.1273947502651989,0.024648189196836878,0.009237417950512172,2.1852220791396277
13923,4.0,299.90302,7231.9561,0.0,0.0,0.0,0.0,0.0,0.1387678898355373,-0.998556413144845,-0.053948191364271945,-1.145829518609569,-0.03243349228718647,-0.022686656566748682,2.1548915519712377
13924,4.0,299.60267999999996,7239.5707,0.0,0.0,0.0,0.0,0.0,0.13877785664512113,-1.010710753394385,-0.050022961801881954,-1.1399149751258488,-0.006594982367799083,-0.006125119247327204,2.178656421141648
13925,4.0,298.89371,7105.206,0.0,0.0,0.0,0.0,0.0,0.13878782345470494,-0.9631417718771922,-0.06028423169084045,-1.136379238901899,-0.01031598742085869,0.049457651332590155,2.141351896184978
13926,4.0,300.0381,6907.5441,0.0,0.0,0.0,0.0,0.0,0.13879779026428876,-0.9298843907349442,-0.03842128362063547,-1.1314152253369887,-0.014520020854264485,0.009962496378346841,2.156987662453108
13927,4.0,298.84355,6926.2537,0.0,0.0,0.0,0.0,0.0,0.13880775707387258,-0.9125795077095851,-0.08200921664067952,-1.110819498504349,-0.0015531220136062085,-0.007245911761265812,2.137769145156388
13928,4.0,299.71661,6912.4237,0.0,0.0,0.0,0.0,0.0,0.13881772388345642,-0.9431961767062151,-0.03360562405586687,-1.124402420069879,0.030966631395668572,-0.00042533437561473466,2.166146227456988
13929,4.0,300.36078,6913.8667,0.0,0.0,0.0,0.0,0.0,0.13882769069304024,-0.9307348419413771,-0.06185519693738264,-1.109052795629989,0.050359339556829856,0.015207882909901185,2.1555744825386376
13930,4.0,300.85405,7212.880999999999,0.0,0.0,0.0,0.0,0.0,0.13883765750262406,-0.960734228844586,-0.08094654932005242,-1.1508549351305388,0.01998171145754138,-0.019006626435807982,2.197324034358998
13931,4.0,300.66414,7389.1071,0.0,0.0,0.0,0.0,0.0,0.13884762431220787,-1.000499462066609,-0.08577373460470851,-1.1598309124663988,-0.02345705088278068,-0.02801426581079277,2.1560232510079276
13932,4.0,301.14392999999995,7429.9174,0.0,0.0,0.0,0.0,0.0,0.1388575911217917,-0.998024071807307,-0.1095952789062119,-1.150889993583999,-0.004133201577215236,0.02314086517582558,2.1698937329518375
13933,4.0,299.97393999999997,7321.0816,0.0,0.0,0.0,0.0,0.0,0.1388675579313755,-1.010470937360717,-0.047322053481073045,-1.167633039561409,-0.026267977899447573,0.05359008040792915,2.135584983240828
13934,4.0,299.99686,7208.1313,0.0,0.0,0.0,0.0,0.0,0.13887752474095932,-0.9766445352273111,-0.057641115102735146,-1.1568062595928887,-0.01021472624561499,-0.009423765080378201,2.1944862248039274
13935,4.0,299.63813999999996,6745.9746,0.0,0.0,0.0,0.0,0.0,0.13888749155054317,-0.9279336309799191,-0.036889134972174165,-1.0857850269586389,-0.02091486109738608,-0.04132862239756746,2.1349886855569777
13936,4.0,298.98446,6767.1895,0.0,0.0,0.0,0.0,0.0,0.13889745836012699,-0.9345486747877731,0.00981110657958083,-1.1323190444261888,0.002331396375665908,-0.013068281707238985,2.199587027132338
13937,4.0,298.4865,6868.0059,0.0,0.0,0.0,0.0,0.0,0.1389074251697108,-0.946800388371923,-0.038075716700530664,-1.1028261711154688,0.017100819521469485,0.012916012508711187,2.131330447395938
13938,4.0,298.34234,6854.8315,0.0,0.0,0.0,0.0,0.0,0.13891739197929462,-0.9228088551541431,-0.03684169358924207,-1.1240470732598091,-0.025265988047808875,0.0026790443088260877,2.183812850900548
13939,4.0,299.49099,7145.1839,0.0,0.0,0.0,0.0,0.0,0.13892735878887844,-0.9580381324485021,-0.06959890205812684,-1.1443204852356388,-0.003140649744957997,-0.0066191991465140935,2.133209722356408
13940,4.0,300.44083,7636.857,0.0,0.0,0.0,0.0,0.0,0.13893732559846225,-0.9989320958844221,-0.13018716552097287,-1.192294533745309,0.02051263627143958,0.008648695121759751,2.1909925384591276
13941,4.0,299.71096,7375.0641,0.0,0.0,0.0,0.0,0.0,0.13894729240804607,-0.9779540900540541,-0.07675238494262063,-1.1871288834104987,0.023288122839358775,0.017571421503914282,2.1780300299298276
13942,4.0,300.71974,7232.6394,0.0,0.0,0.0,0.0,0.0,0.1389572592176299,-0.9553559885062951,-0.09365154540268791,-1.149534264950199,0.018951117555579683,-0.03559818645701747,2.198255717825948
13943,4.0,300.4301,7193.1352,0.0,0.0,0.0,0.0,0.0,0.13896722602721373,-0.985255884382185,-0.08395250772921742,-1.1173250707713989,0.002982768052801287,-0.02290744376353868,2.142549760453198
13944,4.0,299.93188,7151.4159,0.0,0.0,0.0,0.0,0.0,0.13897719283679755,-0.982024933788315,-0.05696507159626485,-1.134861896877149,0.02156875293017018,0.036267998475372765,2.139471709299418
13945,4.0,299.96849,7034.4154,0.0,0.0,0.0,0.0,0.0,0.13898715964638136,-0.9545701623912402,-0.07518679296135873,-1.1085296546033592,0.009099191283795261,0.046131623428836754,2.126533012147468
13946,4.0,299.30005,6765.3918,0.0,0.0,0.0,0.0,0.0,0.13899712645596518,-0.914358906607698,-0.008768715609354851,-1.1333825517311489,-0.013728179073365787,0.024249510746240377,2.150963383983558
13947,4.0,298.39553,6746.1326,0.0,0.0,0.0,0.0,0.0,0.139007093265549,-0.8713752870930451,-0.04983894443797086,-1.129441616792209,-0.02881845201765977,-0.019546174008057183,2.158732377800298
13948,4.0,299.85557,7038.2075,0.0,0.0,0.0,0.0,0.0,0.13901706007513284,-0.9355423286308392,-0.06561002012445484,-1.138286986190179,0.015898267958286885,-0.011546944437344688,2.161685495216748
13949,4.0,300.28889,7500.6688,0.0,0.0,0.0,0.0,0.0,0.13902702688471666,-1.000716702888049,-0.07880926136736852,-1.2004901058541488,0.01726644842256578,-0.00967301487777724,2.192857222618158
13950,4.0,300.01299,7593.4347,0.0,0.0,0.0,0.0,0.0,0.13903699369430048,-1.028489077528969,-0.13197025264944987,-1.1477552004246188,0.010708009831548291,-0.04378299278354496,2.1605755810572083
13951,4.0,301.06166,7308.3525,0.0,0.0,0.0,0.0,0.0,0.1390469605038843,-0.9791123261108631,-0.09401992159579381,-1.1484244521156688,0.0036274958490309663,-0.015783496106209785,2.166895627230948
13952,4.0,301.40477000000004,7205.1634,0.0,0.0,0.0,0.0,0.0,0.1390569273134681,-0.9799875512822411,-0.07085892314048123,-1.139343299419429,-2.4610127470080474e-05,0.05131306526645525,2.154818496639028
13953,4.0,301.11543,7422.0131,0.0,0.0,0.0,0.0,0.0,0.13906689412305193,-0.9837868439897022,-0.09592426335048772,-1.176395525101199,0.015174491252855686,0.05018378283125375,2.1916947207784276
13954,4.0,300.48073,7042.3832,0.0,0.0,0.0,0.0,0.0,0.13907686093263574,-0.966332972669639,-0.011117201765182388,-1.1632584335796687,-0.04974059737001475,0.008843095563420581,2.170438456205598
13955,4.0,299.84637000000004,6844.1059,0.0,0.0,0.0,0.0,0.0,0.1390868277422196,-0.921076379868161,-0.04765444308362736,-1.111706497641889,-0.041768961639275556,0.007675153786553701,2.167012657617498
13956,4.0,300.27229,6971.8859,0.0,0.0,0.0,0.0,0.0,0.1390967945518034,-0.9606470184084791,-0.03885934203636846,-1.119772880362979,-0.039540135659307564,0.011970647125660887,2.112247502962598
13957,4.0,300.18632,7134.153,0.0,0.0,0.0,0.0,0.0,0.13910676136138722,-0.9819218254581391,-0.024466015948107774,-1.1622165085018388,0.006204642762875564,-0.0015253855080188284,2.1677276068880578
13958,4.0,299.64895,7295.3357,0.0,0.0,0.0,0.0,0.0,0.13911672817097104,-0.9816598192472811,-0.10107145024197549,-1.134868584327809,0.026747135765736774,-0.016135349229934984,2.115579170616408
13959,4.0,299.09522999999996,7371.1587,0.0,0.0,0.0,0.0,0.0,0.13912669498055485,-0.9544141117433391,-0.0947553060943706,-1.1914787660897987,0.02318108208554468,-0.025441149605845974,2.1891201535993376
13960,4.0,299.76702,7128.6361,0.0,0.0,0.0,0.0,0.0,0.13913666179013867,-0.9301829043469051,-0.11180842990713288,-1.1249359975725388,0.017822726780466182,0.011087566226257591,2.132126051374458
13961,4.0,299.48672,7094.3527,0.0,0.0,0.0,0.0,0.0,0.1391466285997225,-0.942789954608624,-0.0941655935229205,-1.119550471966029,0.0014951171944065785,-0.013106608905521587,2.182147675686208
13962,4.0,300.90771,7321.7418,0.0,0.0,0.0,0.0,0.0,0.13915659540930633,-1.003785118033378,-0.08512049429173872,-1.1367211094856389,-0.008975467975034722,-0.01314953727250829,2.137772590206728
13963,4.0,300.5541,7220.101,0.0,0.0,0.0,0.0,0.0,0.13916656221889015,-0.980818497424249,-0.1019581190599829,-1.111953831991299,-0.014070653554165384,-0.016674464144391485,2.149242783988748
13964,4.0,300.14211,6878.5854,0.0,0.0,0.0,0.0,0.0,0.13917652902847397,-0.9147537600391672,-0.04531072974107086,-1.130853682131569,-0.009020666427545461,0.03894689495100926,2.118443122024058
13965,4.0,300.74562000000003,6915.6542,0.0,0.0,0.0,0.0,0.0,0.13918649583805778,-0.9287637259918431,-0.016157894044659987,-1.157264552613119,-0.009457103035168403,0.04477474272967305,2.1557785511087775
13966,4.0,299.69091000000003,7073.2701,0.0,0.0,0.0,0.0,0.0,0.1391964626476416,-0.9340265470112432,-0.04973658793936905,-1.1663343569082387,-0.014174823770446187,0.022813377677255078,2.1810543788283083
13967,4.0,299.73932,7043.4021,0.0,0.0,0.0,0.0,0.0,0.13920642945722542,-0.968494579637973,-0.030936689855213573,-1.1415870404408688,0.016893605823019086,0.01015113669583919,2.1602804213030775
13968,4.0,299.20113,7121.2883,0.0,0.0,0.0,0.0,0.0,0.13921639626680923,-0.9700283869768481,-0.07940558032947062,-1.1152598644175789,0.013729864108282086,0.005205300331098145,2.1687686200407983
13969,4.0,299.6091,7242.1074,0.0,0.0,0.0,0.0,0.0,0.13922636307639308,-1.0372710174706792,-0.04612409092759336,-1.118024719965449,0.003978978629844616,-0.018463185956674583,2.1661739905097277
13970,4.0,299.01595,7422.5830000000005,0.0,0.0,0.0,0.0,0.0,0.1392363298859769,-1.00420239468956,-0.08133515099840442,-1.1707422988182687,-0.02014361058501958,-0.04377851320485286,2.1871831233831682
13971,4.0,300.25251000000003,7422.6321,0.0,0.0,0.0,0.0,0.0,0.1392462966955607,-1.004681895034383,-0.09698253316568081,-1.154630406328149,0.006041541110178683,-0.025356594898251077,2.183058587526108
13972,4.0,300.97702000000004,7203.529,0.0,0.0,0.0,0.0,0.0,0.13925626350514453,-0.9300301366293281,-0.08114549185793653,-1.1785172708105989,0.003995964045245946,0.026269155296063773,2.197622031213408
13973,4.0,300.20457000000005,6876.1656,0.0,0.0,0.0,0.0,0.0,0.13926623031472835,-0.9299869721750681,-0.038949869853302864,-1.1212458420333489,-0.004700258281729376,0.016565039213092086,2.186615602002158
13974,4.0,299.80764,6933.2634,0.0,0.0,0.0,0.0,0.0,0.13927619712431216,-0.9185455850933911,-0.07112691664618014,-1.117866450299829,-0.00017933575328156086,0.004579391325000736,2.141973119821288
13975,4.0,300.89677,7261.6697,0.0,0.0,0.0,0.0,0.0,0.13928616393389598,-0.9997142641666161,-0.05348230200804224,-1.154169681507679,0.0040883954551432155,-0.002015183817583158,2.150400726203028
13976,4.0,299.85086,7109.1711,0.0,0.0,0.0,0.0,0.0,0.13929613074347982,-0.9135181927347261,-0.0998660838700151,-1.1476262136868887,0.01828812977664788,0.02689601766918027,2.092235002887518
13977,4.0,299.8629,6825.1246,0.0,0.0,0.0,0.0,0.0,0.13930609755306364,-0.9191183753749211,-0.03835748027508856,-1.117191625733229,-0.025915559382166574,0.01968443806370278,2.163444902690388
13978,4.0,300.81815,7131.0828,0.0,0.0,0.0,0.0,0.0,0.13931606436264746,-0.9279816286371562,-0.08686024268693851,-1.1528292529503887,-0.02038037876238678,0.015353198172992686,2.1467282012155775
13979,4.0,299.47697999999997,7416.2966,0.0,0.0,0.0,0.0,0.0,0.13932603117223127,-1.002989047959812,-0.1065409378047719,-1.144838965311809,-0.02071339354025278,-0.002169326616870868,2.194158641046598
13980,4.0,299.53137999999996,7367.2563,0.0,0.0,0.0,0.0,0.0,0.1393359979818151,-0.9820832260665681,-0.0965178090470661,-1.160860881193049,0.012414448642960688,0.003391322348147457,2.159813009031948
13981,4.0,299.60774,7334.441,0.0,0.0,0.0,0.0,0.0,0.1393459647913989,-0.993126486918953,-0.10650893936661389,-1.129851476457659,0.012471745909615488,-0.01991539018549598,2.187745274538648
13982,4.0,299.51665,7234.0922,0.0,0.0,0.0,0.0,0.0,0.13935593160098272,-0.964018375068706,-0.07054965995820933,-1.164415362543849,-0.000997481283861238,-0.03977545488903176,2.172490388983108
13983,4.0,299.34067999999996,7157.4977,0.0,0.0,0.0,0.0,0.0,0.13936589841056657,-0.992838977203078,-0.04375975085275116,-1.139101841920599,0.030260705117249074,-0.02068476314542718,2.210945256778308
13984,4.0,299.19917000000004,6936.8426,0.0,0.0,0.0,0.0,0.0,0.13937586522015039,-0.9344752141555231,-0.040809445205328664,-1.1333422243771687,0.025291743852100774,0.037728235750986966,2.162291824076588
13985,4.0,300.48124,6898.5375,0.0,0.0,0.0,0.0,0.0,0.1393858320297342,-0.957981532297916,-0.0014587009858125785,-1.1375429566417488,0.016384351389009587,0.02067414631087938,2.199836793281988
13986,4.0,300.85422,6928.5965,0.0,0.0,0.0,0.0,0.0,0.13939579883931802,-0.9552863984894272,-0.043845480930462054,-1.1069883998762489,-0.03491179868027626,-0.015905115502462687,2.143044226501998
13987,4.0,300.33128999999997,7040.6818,0.0,0.0,0.0,0.0,0.0,0.13940576564890184,-0.9629595591117092,-0.04878917984411715,-1.128442754843629,-0.03325941372194857,0.007071226228125694,2.155747444330708
13988,4.0,300.02677,7276.9024,0.0,0.0,0.0,0.0,0.0,0.13941573245848565,-0.9712184694843,-0.06566539930867034,-1.1751127504745988,-0.02248235798883598,0.004341488104871516,2.1337397534837184
13989,4.0,301.0067,7527.834,0.0,0.0,0.0,0.0,0.0,0.13942569926806947,-0.98164876468869,-0.11645688699339989,-1.1901679244354288,0.01129160642539479,-0.005170416865930415,2.1935206987836375
13990,4.0,299.87961,7246.0246,0.0,0.0,0.0,0.0,0.0,0.13943566607765331,-0.9415062072619281,-0.10581273522290391,-1.1552915520183988,0.007837798260805462,0.0008704101157102902,2.134950486028208
13991,4.0,299.55831,7250.8744,0.0,0.0,0.0,0.0,0.0,0.13944563288723713,-0.9620891671433082,-0.1105823770211309,-1.1314131988367888,0.02291297914883498,0.006546241491613734,2.194838126563658
13992,4.0,299.67165,7083.8261,0.0,0.0,0.0,0.0,0.0,0.13945559969682095,-0.9425031946978231,-0.09940548773230781,-1.1113975576863988,0.013922789967072387,0.03524055983422247,2.122650035114248
13993,4.0,298.78447,6909.3339,0.0,0.0,0.0,0.0,0.0,0.13946556650640476,-0.9156997303325272,-0.06062000656197885,-1.123945241624759,0.00945776083713332,-0.02403511918408158,2.1722319088825977
13994,4.0,299.16343,7062.3837,0.0,0.0,0.0,0.0,0.0,0.13947553331598858,-0.9430264674469662,-0.06181136677780694,-1.1419504932517388,0.007154270889096564,-0.03932658509473176,2.119064143010348
13995,4.0,299.06242000000003,7177.019,0.0,0.0,0.0,0.0,0.0,0.1394855001255724,-0.9876237992033802,-0.04130929971816046,-1.152701482112779,-0.006756749468789253,-0.024435399583086177,2.1682679731663876
13996,4.0,299.55296,7124.9175,0.0,0.0,0.0,0.0,0.0,0.13949546693515621,-0.953160285672096,-0.03442145453288307,-1.1782152209557888,0.005312787320256285,-0.002742879369101117,2.144892799984438
13997,4.0,300.66565,7306.3236,0.0,0.0,0.0,0.0,0.0,0.13950543374474006,-1.005303280790709,-0.07679743201556642,-1.138839207494679,-0.012950688966883488,-0.002070974685314288,2.1815455011517777
13998,4.0,300.5531,7471.8127,0.0,0.0,0.0,0.0,0.0,0.13951540055432388,-1.0208634586013792,-0.06830866788429064,-1.1820723601114589,-0.015812256197048187,0.005306619768222594,2.191095687319308
13999,4.0,299.62866,7505.2684,0.0,0.0,0.0,0.0,0.0,0.1395253673639077,-1.029336661237619,-0.08774832600208551,-1.1643292362853488,-0.004315541302935766,0.004757773295830665,2.1866055708261682
14000,4.0,300.6907,7262.8467,0.0,0.0,0.0,0.0,0.0,0.1395353341734915,-0.977706299742099,-0.08510575454253402,-1.1449120206440189,0.0012080358806738588,0.028822559733565175,2.1990583132301578
