,case,Temp,Pressure,e11,e22,e33,e12,e23,e13,s11,s22,s33,s12,s23,s13
0,8.0,300.0,-7.1293659,0.0,0.0,0.0,0.0,0.0,0.0,0.02196521540279798,-0.015781053160218685,-0.004017013100173326,0.02338602103752058,0.018268616606222084,-0.004874764266951776
1,8.0,300.28476,-191.30883,0.0,0.0,0.0,-1.0141143672261198e-05,0.0,0.0,0.06084976710165444,-0.016001383381213586,0.013304722604823887,-0.004404256212791246,-0.015711876549391487,-0.03007285564145977
2,8.0,301.0617,127.6097,0.0,0.0,0.0,-2.0282287344522396e-05,0.0,0.0,0.00977045012196835,0.012799893034001088,-0.061360504933810345,-0.00938867025123961,0.004179423311001965,0.007991496851249332
3,8.0,300.1854,347.88716,0.0,0.0,0.0,-3.0423431016783594e-05,0.0,0.0,-0.02401109502421058,-0.03277279630842317,-0.04896511856498095,-0.013618475498288886,0.03367493441570727,-0.016622007173464383
4,8.0,299.11502,375.66686,0.0,0.0,0.0,-4.056457468904479e-05,0.0,0.0,-0.05916968697834344,-0.03888165785657086,-0.016141998177091187,-0.014864742723785886,-0.005616420175697515,0.027019175179084975
5,8.0,299.3217,463.01111,0.0,0.0,0.0,-5.070571836130599e-05,0.0,0.0,-0.05621393105863304,-0.034430379239763866,-0.05009950575418625,-0.01969399199889568,-0.025870393758959075,0.008324569181721014
6,8.0,299.01004,473.41587999999996,0.0,0.0,0.0,-6.084686203356719e-05,0.0,0.0,-0.06001753413201944,-0.059524465355107345,-0.024364607851599576,-0.005075128394726175,-0.014080448642882087,0.04028738430330526
7,8.0,299.99329,272.75695,0.0,0.0,0.0,-7.09880057058284e-05,0.0,0.0,-0.0024954350820552674,-0.03677077722799317,-0.04364509045818506,0.03310973540392647,0.0031593564696292074,-0.013605431929751588
8,8.0,300.03361,272.22222,0.0,0.0,0.0,-8.112914937808958e-05,0.0,0.0,-0.02120017915329478,-0.02979586751462317,-0.03175271082324857,0.012126518428294188,0.015007631252887885,0.025930452132136374
9,8.0,299.90429,327.24433,0.0,0.0,0.0,-9.127029305035078e-05,0.0,0.0,-0.05317017842073804,-0.033761621001512566,-0.01254230459357909,-0.022699632247529276,0.0046504120510099355,0.016114938319920585
10,8.0,299.80872,107.43453000000001,0.0,0.0,0.0,-0.00010141143672261198,0.0,0.0,-0.06580124676282743,0.033171784813550265,-2.7954596525653872e-05,-0.006434486997009424,0.011652233281735888,0.03892284545988576
11,8.0,299.99928,73.767328,0.0,0.0,0.0,-0.00011155258039487319,0.0,0.0,0.008135836557144553,-0.02023659553344648,-0.01032266676551789,-0.026059987038170473,0.03179753903417277,-0.001190657324233729
12,8.0,300.23896,491.21198,0.0,0.0,0.0,-0.00012169372406713438,0.0,0.0,-0.04951613916811245,-0.03221454717907827,-0.06758549000966853,0.00962876958963557,0.008496159641105673,0.012174290130758887
13,8.0,299.55114,675.7180000000001,0.0,0.0,0.0,-0.00013183486773939558,0.0,0.0,-0.038893359881975766,-0.04672304839295586,-0.11978498800685788,-0.01893999105623158,-0.023548892885094774,0.0026711896953758975
14,8.0,299.84448,474.83471,0.0,0.0,0.0,-0.0001419760114116568,0.0,0.0,-0.02989006127041937,-0.07914586710358892,-0.035301967856532966,-0.004801883213758976,-0.00945217894365743,-0.036084185787981865
15,8.0,299.86736,285.21767,0.0,0.0,0.0,-0.000152117155083918,0.0,0.0,-0.05067473594195705,-0.017774179941674982,-0.018250132897897883,0.01101846256943759,0.009235907194613072,-0.004106974510301826
16,8.0,300.27416,-60.645419999999994,0.0,0.0,0.0,-0.00016225829875617917,0.0,0.0,-0.016581314036198287,-0.018600441828470683,0.05361644821528145,0.008519240667783591,0.0037930721624470764,-0.026692237875318773
17,8.0,300.59173,-255.99497999999997,0.0,0.0,0.0,-0.00017239944242844035,0.0,0.0,0.043059527145894456,-0.027604912770392773,0.06236146633659754,0.014927520660231586,-0.006891464717284614,-0.0017279843588887784
18,8.0,301.98797,150.87521999999998,0.0,0.0,0.0,-0.00018254058610070155,0.0,0.0,-0.004522224868933846,-0.017396306555381786,-0.02394376759481588,0.013637947125460589,-0.040228638089007465,0.005580500054352474
19,8.0,301.15436,404.61194,0.0,0.0,0.0,-0.00019268172977296278,0.0,0.0,0.0013609316730634987,-0.06845653755088424,-0.05589632173528744,0.021827835914489682,-0.0013491700685527186,0.006430983279488634
20,8.0,299.58855,27.601187,0.0,0.0,0.0,-0.00020282287344522396,0.0,0.0,0.009300941132406421,0.005566638792984475,-0.023257651369101476,0.0010288430057888989,-0.023838545624931276,-0.016548565792966284
21,8.0,299.57313,261.87446,0.0,0.0,0.0,-0.00021296401711748514,0.0,0.0,-0.042886829812100555,-0.007784438281389243,-0.028932028234618868,0.0017824918440432483,-0.0012098586162787488,0.02109712553862418
22,8.0,299.34261000000004,710.87563,0.0,0.0,0.0,-0.00022310516078974637,0.0,0.0,-0.12371860728007587,-0.04224314039457336,-0.05012669328086945,0.0012635131474990388,0.015467763322049383,0.0035165312842046163
23,8.0,300.71008,479.25459000000006,0.0,0.0,0.0,-0.00023324630446200758,0.0,0.0,-0.07654418433857284,-0.002733075971733597,-0.06640416907583123,0.0060573914828179936,0.05158944645648195,0.004603802141109896
24,8.0,301.06925,15.141886999999999,0.0,0.0,0.0,-0.00024338744813426875,0.0,0.0,-0.02312292254305478,0.002402425005025888,0.016117741982947284,-0.012106965741114488,0.02211248218558208,-0.008368673425448761
25,8.0,300.22627,99.239572,0.0,0.0,0.0,-0.00025352859180652993,0.0,0.0,0.011564819182358788,-0.0049626204473475054,-0.03676855111752346,-0.02213751756905288,0.004940081914773125,0.013284019878780688
26,8.0,298.01202,124.67551,0.0,0.0,0.0,-0.00026366973547879116,0.0,0.0,-0.04176353467173997,0.010737607880219388,-0.006872314087744594,-0.001987345986985778,-0.015296299113627185,0.01731839674194268
27,8.0,298.69486,249.46265,0.0,0.0,0.0,-0.00027381087915105234,0.0,0.0,-0.04362791688224016,-0.047546960552769656,0.015344461930630486,-0.017461105925776984,-0.002626589465724198,-0.0028701534101870873
28,8.0,299.53021,259.23171,0.0,0.0,0.0,-0.0002839520228233136,0.0,0.0,-0.05608104938751864,-0.0013808613906054086,-0.02133805513415208,0.025500754042978475,-0.02081326250985908,0.013245936873772186
29,8.0,299.90457000000004,44.11611,0.0,0.0,0.0,-0.0002940931664955747,0.0,0.0,0.013997974137742486,-0.014984035697809187,-0.012424134300666589,0.0029068759242863174,0.0006549031475764084,0.001072246688397509
30,8.0,300.43923,131.89923000000002,0.0,0.0,0.0,-0.000304234310167836,0.0,0.0,0.02085192712042498,-0.016405613429107985,-0.04454038608754386,0.02095389757073868,-0.015028117143409686,-0.001101104253895529
31,8.0,300.52085,595.19236,0.0,0.0,0.0,-0.00031437545384009716,0.0,0.0,-0.03881571756656307,-0.03845537948650046,-0.1036525164072069,0.015602036185551085,-0.009935345632642272,0.01898625200279718
32,8.0,300.98697000000004,540.77002,0.0,0.0,0.0,-0.00032451659751235834,0.0,0.0,-0.037640437629821964,-0.06227965551027344,-0.06446048889925494,-0.01025450036504039,0.0011416622235982889,-0.004492809610580786
33,8.0,300.5516,55.50445799999999,0.0,0.0,0.0,-0.00033465774118461957,0.0,0.0,-0.016266947113172683,-0.015755908345737087,0.015150887591776184,-0.02902431606697697,0.017642829291461683,-0.015850988695370785
34,8.0,299.91486000000003,212.78766000000002,0.0,0.0,0.0,-0.0003447988848568807,0.0,0.0,-0.01882983455835998,-0.04308227461063946,-0.0027700246432551478,-0.03338580349967227,0.013310836555927286,-0.03273402935959717
35,8.0,299.3292,419.28548,0.0,0.0,0.0,-0.0003549400285291419,0.0,0.0,-0.06711668451965103,-0.04841247676168945,-0.011923154066973689,-0.037682878623510566,0.03414020062312546,-0.02729879167668097
36,8.0,298.93489,83.23304499999999,0.0,0.0,0.0,-0.0003650811722014031,0.0,0.0,0.025786518942181272,-0.02294305342505308,-0.028144232361369474,-0.001123311757662239,0.0037082870417794365,-0.024673164798551774
37,8.0,298.7204,-79.259506,0.0,0.0,0.0,-0.00037522231587366434,0.0,0.0,0.03326306243555867,-0.005179878088739165,-0.003990273632684347,-0.002209462770556998,-0.002425499546903168,0.005386625793468575
38,8.0,299.01203,130.78233,0.0,0.0,0.0,-0.00038536345954592557,0.0,0.0,-0.015070788144870985,-0.013149996274803588,-0.01153377826554529,0.03029383028951827,-0.014166954870169588,0.016674304050875683
39,8.0,299.07992,176.90431999999998,0.0,0.0,0.0,-0.0003955046032181867,0.0,0.0,-0.04660815900386715,0.012514111922796688,-0.01968044788480898,0.028239078650230075,-0.006298256838289554,0.01004405298022085
40,8.0,299.51764,395.44129,0.0,0.0,0.0,-0.0004056457468904479,0.0,0.0,-0.03749318199278897,-0.05542964711023024,-0.027281449901219477,0.03918312002632286,0.000920847942633116,0.013886603766251088
41,8.0,300.6374,564.89814,0.0,0.0,0.0,-0.00041578689056270916,0.0,0.0,-0.07960925170557143,-0.015698169302038684,-0.07640750905908403,-0.0035518928007695267,-0.0015291541904407684,0.02337557037598918
42,8.0,299.35505,365.19537,0.0,0.0,0.0,-0.0004259280342349703,0.0,0.0,-0.018011291610826083,-0.03209740837476757,-0.06090157457926744,-0.012433317386322886,0.004540752450987375,0.02307895154171518
43,8.0,299.89816,362.17467999999997,0.0,0.0,0.0,-0.00043606917790723156,0.0,0.0,-0.04047294383386856,-0.03712856191780376,-0.03249055346656796,-0.045887914488284554,0.02676528915452837,-0.002930492048342047
44,8.0,301.04267000000004,598.13372,0.0,0.0,0.0,-0.00044621032157949274,0.0,0.0,-0.07509735236178164,-0.035829342242080765,-0.07089101986389894,-0.006531833885791813,0.0012935250075109786,0.020810998909135677
45,8.0,300.51873,359.40572000000003,0.0,0.0,0.0,-0.0004563514652517539,0.0,0.0,-0.054091017071867746,-0.04446468718582296,-0.010694661274730888,-0.024743943357787075,0.011693062194515389,-0.006556327889734183
46,8.0,299.90491000000003,-15.385183999999999,0.0,0.0,0.0,-0.00046649260892401515,0.0,0.0,0.008856966754639562,-0.012924558260054588,0.008744303273370542,0.008512205773664303,-0.025169380730274474,-0.01352989920104709
47,8.0,299.37522,-35.503045,0.0,0.0,0.0,-0.0004766337525962763,0.0,0.0,0.016241447661156087,-0.0017645014871927381,-0.0036849073089720366,-0.004317683212322156,0.003755592142573087,-0.002161723694745518
48,8.0,299.65604,44.879418,0.0,0.0,0.0,-0.0004867748962685375,0.0,0.0,0.01979274740664208,-0.013230620585260588,-0.02020434884901398,0.0017527508257830385,-0.0025611402980398675,-0.01968186542169888
49,8.0,301.1388,143.36758,0.0,0.0,0.0,-0.0004969160399407987,0.0,0.0,0.0018519596629491884,-0.017862783596669485,-0.02756933958588197,-0.01942532062887988,0.0004742945495192275,0.006537106332687163
50,8.0,301.58996,226.69709,0.0,0.0,0.0,-0.0005070571836130599,0.0,0.0,-0.02009848751831628,-0.018553431076831082,-0.030258336138515272,-0.010474168933719991,-0.025700629784204676,-0.013015592702038989
51,8.0,299.47402,324.93487000000005,0.0,0.0,0.0,-0.0005171983272853211,0.0,0.0,-0.028406062266710077,-0.03903238286194626,-0.03133364172763967,-0.007865242139763962,-0.012270218570726289,0.000975336773853245
52,8.0,299.13839,317.02266000000003,0.0,0.0,0.0,-0.0005273394709575823,0.0,0.0,-0.016067914396029684,-0.031987479858168466,-0.048311577316731455,0.016039418763467386,-6.938474860974154e-05,-0.015465633470339184
53,8.0,299.25919,451.90153,0.0,0.0,0.0,-0.0005374806146298435,0.0,0.0,-0.010525862927321791,-0.058111180062626944,-0.06872973713559694,0.0025238237154070076,-0.0017635820640519984,0.006089625906924284
54,8.0,300.2613,696.97743,0.0,0.0,0.0,-0.0005476217583021047,0.0,0.0,-0.08052268451172022,-0.035755402342533465,-0.09558564833931901,0.01038917447558169,-0.0007115883301108002,0.003994555931581976
55,8.0,300.6827,283.68416,0.0,0.0,0.0,-0.0005577629019743659,0.0,0.0,-0.03958687384667026,-0.02092336023922488,-0.025722665947379476,-0.012961067687657788,0.04562377538596605,0.018414414176361183
56,8.0,299.47303999999997,-150.14772,0.0,0.0,0.0,-0.0005679040456466271,0.0,0.0,-0.010223502004731091,0.008081598495191673,0.04778306201157105,-0.011153272455492289,0.030215332791021173,-0.006624386075101004
57,8.0,300.99487999999997,229.03654,0.0,0.0,0.0,-0.0005780451893188883,0.0,0.0,-0.04137943587683236,0.01166568316356329,-0.03990763640432706,-0.03356711953881677,0.01014101635384039,0.021744351199000377
58,8.0,301.11663,388.05654,0.0,0.0,0.0,-0.0005881863329911494,0.0,0.0,-0.06080910537514144,-0.01209726488465709,-0.04505312711514746,-0.028583550246976768,-0.022270935249470183,0.012955674157375488
59,8.0,301.2512,295.05196,0.0,0.0,0.0,-0.0005983274766634106,0.0,0.0,-0.01822077904250088,-0.022699298888246375,-0.04876835046181145,0.011305150539481489,-0.012529859855850888,-0.0026185620931319575
60,8.0,301.12397999999996,305.71443999999997,0.0,0.0,0.0,-0.000608468620335672,0.0,0.0,-0.04263594098133976,-0.0011591549733246888,-0.049134461027693754,0.0009069256228140901,-0.009440495460729361,0.013497045579804686
61,8.0,300.40244,346.00711,0.0,0.0,0.0,-0.0006186097640079332,0.0,0.0,-0.04380366815183546,-0.03252267552123817,-0.028851177969389574,0.028913321611272677,0.012788707766147187,0.004310294795242976
62,8.0,299.05446,427.89324000000005,0.0,0.0,0.0,-0.0006287509076801943,0.0,0.0,-0.05721787850946495,-0.021743525400168877,-0.05110745756941335,0.010853027199110389,-0.03221536791165927,-0.00043707760990120166
63,8.0,299.65904,519.72475,0.0,0.0,0.0,-0.0006388920513524554,0.0,0.0,-0.04264633388761546,-0.07182812320563384,-0.04350889039299316,-0.009310281271828222,0.012053709315858488,-0.009095252578006542
64,8.0,299.60057,265.30714,0.0,0.0,0.0,-0.0006490331950247167,0.0,0.0,-0.013146429634451588,-0.037780788980673566,-0.029719528238839076,-0.012017024595987988,-0.007926305049090402,-0.007797464624674842
65,8.0,299.49454,-141.22845,0.0,0.0,0.0,-0.0006591743386969779,0.0,0.0,0.04329146516003496,0.006538635529738083,-0.006900178262844573,-0.035827675445666264,-0.010520738921566089,-0.006129347438669494
66,8.0,300.28415,-204.78900000000002,0.0,0.0,0.0,-0.0006693154823692391,0.0,0.0,0.007608578796683263,0.018140415137319583,0.03650175020719226,-0.03770680247162167,-0.008303696837611072,0.002211807836588438
67,8.0,300.81622000000004,262.10807,0.0,0.0,0.0,-0.0006794566260415003,0.0,0.0,-0.06456837571690253,-0.001005116265219752,-0.014100816996392287,-0.009068967350537391,-0.0052685397016393855,0.01867683784626038
68,8.0,300.50092,287.15443999999997,0.0,0.0,0.0,-0.0006895977697137614,0.0,0.0,-0.03816709868729936,-0.03713635786407316,-0.011984323975510688,0.0052336011156662145,0.016542875380404682,-0.008905283383008042
69,8.0,300.54517000000004,109.57083999999999,0.0,0.0,0.0,-0.0006997389133860226,0.0,0.0,0.0025853726808064176,-0.03761727067953556,0.0017250978120038982,0.005145219767743655,-0.0003271525586174437,-0.040561203997079166
70,8.0,300.26399,449.29345,0.0,0.0,0.0,-0.0007098800570582839,0.0,0.0,-0.016959627173034883,-0.03885607329154586,-0.08075828947797263,0.02276599911582918,-4.3381218853892957e-07,-0.004918060545049785
71,8.0,299.53934,532.5904099999999,0.0,0.0,0.0,-0.0007200212007305452,0.0,0.0,-0.049100146299807156,-0.07058543579274013,-0.042208602751664756,-0.004813334257114105,-0.006014873684771814,-0.02307131568896158
72,8.0,299.08824,395.47591,0.0,0.0,0.0,-0.0007301623444028062,0.0,0.0,-0.045605211630883956,-0.025222568254523677,-0.04938702172111955,0.009433600192473851,-0.005649706961357665,0.022107088655299777
73,8.0,299.86567,189.05328,0.0,0.0,0.0,-0.0007403034880750673,0.0,0.0,-0.049712067286949047,0.0028533296081767073,-0.01060873969275109,-0.028747082733616175,-0.01896155099185938,0.012359769614564288
74,8.0,299.08876000000004,47.493227000000005,0.0,0.0,0.0,-0.0007504446317473287,0.0,0.0,-0.016978617506409083,-0.002009279710575468,0.004551142114862756,-0.026433137665747578,0.0002212829597989278,0.037549379883085265
75,8.0,300.98309,-21.457335999999998,0.0,0.0,0.0,-0.0007605857754195899,0.0,0.0,0.0021347965733380177,0.011880911670304688,-0.007493213281372573,-0.006896211186053054,0.007161057942241394,-0.00933729056781883
76,8.0,300.18131,391.43242999999995,0.0,0.0,0.0,-0.0007707269190918511,0.0,0.0,-0.029464886329707875,-0.03360046458635767,-0.05592033474940735,0.003976393119564447,0.028943571179758078,0.025231779711182775
77,8.0,299.94948999999997,609.49329,0.0,0.0,0.0,-0.0007808680627641123,0.0,0.0,-0.06554349620238945,-0.05152185456881116,-0.06820539135459804,0.008028218149448442,0.0015631504538209386,0.001283716341242939
78,8.0,300.12086,340.93255,0.0,0.0,0.0,-0.0007910092064363734,0.0,0.0,-0.05331067567960405,-0.015364776581885384,-0.034959528839486866,0.004509141074367576,-0.0027562321815689374,0.02713214243273397
79,8.0,300.06101,300.01015,0.0,0.0,0.0,-0.0008011503501086346,0.0,0.0,-0.04545497501205676,-0.04675875937948026,0.001018140956907689,-0.004269967137287946,-0.02203534446871918,-0.0027237365415868674
80,8.0,300.5636,613.07423,0.0,0.0,0.0,-0.0008112914937808958,0.0,0.0,-0.07924094846647273,-0.035937455014500665,-0.07118085296225322,-0.004045965607205716,-0.012672855789463488,0.013204804999212788
81,8.0,301.49883,466.53533,0.0,0.0,0.0,-0.0008214326374531571,0.0,0.0,-0.02310770048680248,-0.07037509621773123,-0.048332293215025954,-0.022366369223388777,0.002102914861591538,-0.02109590761200398
82,8.0,300.11477,54.599818000000006,0.0,0.0,0.0,-0.0008315737811254183,0.0,0.0,0.02942740519525877,-0.03031813410641687,-0.015706251998086385,-0.02239272385848978,0.005588551035672046,-0.01161001013681879
83,8.0,299.75568,130.62118999999998,0.0,0.0,0.0,-0.0008417149247976793,0.0,0.0,-0.006764940785247674,-0.002122910136414918,-0.030817729227223072,-0.013784975794471188,-0.0005775119054059874,0.02190505266486038
84,8.0,300.05293,121.3896,0.0,0.0,0.0,-0.0008518560684699406,0.0,0.0,-0.02694725772673727,-0.026354204469707477,0.016402053881506683,-0.008888740555250392,0.0037791864817516663,0.008391948692170852
85,8.0,298.5064,134.97315,0.0,0.0,0.0,-0.0008619972121422018,0.0,0.0,-0.023819529960304578,-0.01891295146406298,0.0017040131919980085,0.02205763394441898,-0.026544200009208575,0.012368397439165789
86,8.0,299.37422000000004,518.49556,0.0,0.0,0.0,-0.0008721383558144631,0.0,0.0,-0.046780193672095655,-0.05195281212784336,-0.05887669659267753,0.005310604070265815,0.004237717717080176,-0.013300927983199387
87,8.0,300.01817,504.71154,0.0,0.0,0.0,-0.0008822794994867244,0.0,0.0,-0.03593423693218306,-0.07447597167170612,-0.043009497922206964,0.0039321960621275355,0.012845157955718388,-0.02684230528137927
88,8.0,299.1625,148.17157,0.0,0.0,0.0,-0.0008924206431589855,0.0,0.0,-0.002321011778041028,-0.024018147244906578,-0.01870129973017458,-0.03612468843422917,0.02787097400815097,-0.002113948851205508
89,8.0,300.04325,409.76543,0.0,0.0,0.0,-0.0009025617868312466,0.0,0.0,-0.04113438032689726,-0.028764124587048075,-0.05465995396326744,-0.037434077087955764,0.01946257682180678,0.015041617687742087
90,8.0,300.63581,489.79869,0.0,0.0,0.0,-0.0009127029305035078,0.0,0.0,-0.09782104017993501,-0.030296736290805072,-0.02076879602922058,-0.027954749526418975,0.011810293204585189,0.03953547774859786
91,8.0,300.09179,60.765065,0.0,0.0,0.0,-0.0009228440741757691,0.0,0.0,-0.021890915799465182,0.015354350238356386,-0.01193449638859309,-0.001116346879124859,-0.02206236987538638,0.014979724318633685
92,8.0,300.15881,112.63383999999999,0.0,0.0,0.0,-0.0009329852178480303,0.0,0.0,-0.016452615061496687,-0.029547280788089575,0.01176201994332099,-0.0021870954772495177,-0.013241765323110487,0.004022974455811666
93,8.0,300.50512000000003,415.71598,0.0,0.0,0.0,-0.0009431263615202914,0.0,0.0,-0.02269353450842748,-0.04144091077364946,-0.06223283119665223,0.04051389838966046,-0.040244248220048066,-0.005229803656941435
94,8.0,299.60461000000004,377.28029,0.0,0.0,0.0,-0.0009532675051925526,0.0,0.0,-0.029503083831977674,-0.04384359527202596,-0.04133710735390486,0.008184661634413212,-0.001133375256330429,0.01194215655934909
95,8.0,299.71983,499.30672000000004,0.0,0.0,0.0,-0.0009634086488648138,0.0,0.0,-0.05353273247876935,-0.05746173335803154,-0.04078230935440057,0.015336121869057385,-0.015579939227370287,-0.02005082524686238
96,8.0,300.48629,455.01648,0.0,0.0,0.0,-0.000973549792537075,0.0,0.0,-0.07679549468137523,-0.026647505923154076,-0.03487064856721507,-0.027477270615545474,0.01039113511452519,0.03042994220195147
97,8.0,300.2924,-37.966715,0.0,0.0,0.0,-0.0009836909362093364,0.0,0.0,0.01880676184033288,-0.023294365473224877,0.016028537470643485,-0.018455043478870982,-0.005704055670221465,-0.028615466611876673
98,8.0,300.44127000000003,8.5326599,0.0,0.0,0.0,-0.0009938320798815975,0.0,0.0,0.025973843554418775,-0.013958620517108588,-0.014608938616789986,-0.016691183784291585,-0.006721038380939843,-0.016587247628783882
99,8.0,300.63524,557.29278,0.0,0.0,0.0,-0.0010039732235538586,0.0,0.0,-0.057369114192890744,-0.060629435867409445,-0.05140453844573295,-0.0073776105642134725,-0.009423910076467512,-0.01010766097114847
100,8.0,301.00136000000003,274.18662,0.0,0.0,0.0,-0.0010141143672261197,0.0,0.0,-0.02543749278623508,-0.04634980049336916,-0.01155859276049429,-0.031158426467347268,0.024351474103803374,-0.016215929970637685
101,8.0,299.67642,-131.66214,0.0,0.0,0.0,-0.0010242555108983808,0.0,0.0,0.009224274779490041,0.014549230828147287,0.016248496842101785,-0.011262347815507188,-0.01245197841341459,0.0004195242576863206
102,8.0,299.5398,319.1587,0.0,0.0,0.0,-0.0010343966545706422,0.0,0.0,-0.038823137597045365,-0.030550830031632177,-0.027642308791833475,-0.021235651012795582,0.024787679285103476,0.012753561159928489
103,8.0,299.31049,613.20549,0.0,0.0,0.0,-0.0010445377982429033,0.0,0.0,-0.06451710424859243,-0.04562134966522666,-0.07626070229184533,-0.0010831474356233289,-0.016983856009426083,0.012766042374660289
104,8.0,298.89628,524.29477,0.0,0.0,0.0,-0.0010546789419151647,0.0,0.0,-0.038424131866666565,-0.04788153674903975,-0.07306684982388664,-0.008003118525921303,-0.015051511061718486,0.007844628782379582
105,8.0,299.71251,401.91147,0.0,0.0,0.0,-0.0010648200855874258,0.0,0.0,-0.03307315504881627,-0.05165184645064035,-0.03744605066438747,-0.028282892597804175,-0.02049909621035328,0.0037721220007294566
106,8.0,299.95822000000004,112.18648999999999,0.0,0.0,0.0,-0.001074961229259687,0.0,0.0,-0.005577651808321375,0.0008190643559028582,-0.029343305436958768,-0.017704663892064286,0.00894348199985295,0.039446749463841066
107,8.0,299.2855,-152.98635,0.0,0.0,0.0,-0.0010851023729319482,0.0,0.0,0.003842061183581916,0.024314576601411876,0.018347391735246583,-0.0038581725694469865,-0.005241938238814026,0.01135122302152849
108,8.0,299.64037,421.27128,0.0,0.0,0.0,-0.0010952435166042094,0.0,0.0,-0.07017798968902833,-0.04805236970264966,-0.009825591395060371,-0.0037107408295466065,0.02135116557719598,0.024329912141675375
109,8.0,299.50526,610.26756,0.0,0.0,0.0,-0.0011053846602764707,0.0,0.0,-0.08220504546100632,-0.03566837125169417,-0.06763268314632613,0.005352642601014694,-0.004090150404316416,-0.01096987216089209
110,8.0,299.81209,38.088246999999996,0.0,0.0,0.0,-0.0011155258039487318,0.0,0.0,0.012688875273544488,-0.01113854993153929,-0.01312820126515259,-0.013106774065287888,0.024921093925770476,0.012778278382867886
111,8.0,300.19352000000003,130.88685,0.0,0.0,0.0,-0.001125666947620993,0.0,0.0,-0.0028484098736411673,-0.030151261947447872,-0.006786662334266424,-0.011981035978936188,-0.014757246007426787,-0.022313678191688578
112,8.0,299.17235,549.6695599999999,0.0,0.0,0.0,-0.0011358080912932543,0.0,0.0,-0.05957576519442025,-0.03979650617310936,-0.06771355063680713,-0.03553703883998267,-0.009511496833661651,0.013946132209626086
113,8.0,299.66593,325.8211,0.0,0.0,0.0,-0.0011459492349655154,0.0,0.0,-0.046823401696109955,-0.04254337957145466,-0.0096746974808933,-0.014070179353118587,-0.0034798545690099066,-0.008534947766858762
114,8.0,301.23636,-4.718765,0.0,0.0,0.0,-0.0011560903786377765,0.0,0.0,0.006462259675625374,-0.0015669865173745284,-0.0034608864258128974,-0.023776274313535576,0.012415979663861789,0.001975878832954058
115,8.0,300.33714,-9.2186999,0.0,0.0,0.0,-0.0011662315223100377,0.0,0.0,0.013215804842298387,-0.018824439001577483,0.008410889477615162,-0.013399818153209089,0.005507330630181215,-0.0026494077566511873
116,8.0,300.56801,239.44481000000002,0.0,0.0,0.0,-0.0011763726659822988,0.0,0.0,-0.01145603361187249,-0.03147738240007577,-0.029851826277895867,0.004532153909313766,0.00025214227179700473,-0.0026881146197462575
117,8.0,299.31189,371.56439,0.0,0.0,0.0,-0.0011865138096545601,0.0,0.0,-0.007078512002969744,-0.04820796337475555,-0.057659821726081355,0.008875894874457621,-0.009490201052334921,-0.005186838711626125
118,8.0,299.42033,516.10998,0.0,0.0,0.0,-0.0011966549533268213,0.0,0.0,-0.05296036978878154,-0.06633087461659763,-0.037593302248420064,-0.02235506540527318,0.01049488179226419,-0.0067626968415762136
119,8.0,299.78131,390.16475,0.0,0.0,0.0,-0.0012067960969990826,0.0,0.0,-0.05594325345341925,-0.016747059461056084,-0.04591002968496716,-0.029377091248293175,-0.013023529490072287,0.027891904715466678
120,8.0,299.40119,191.75732,0.0,0.0,0.0,-0.001216937240671344,0.0,0.0,-0.046548766336005555,-0.03985895075027216,0.028118279986558175,-0.043679948288125256,0.008054759526542872,-0.021693905529521777
121,8.0,297.94756,521.2549799999999,0.0,0.0,0.0,-0.0012270783843436048,0.0,0.0,-0.06190135757218834,-0.05937062156592414,-0.03717652107153697,-0.01888271405457878,-0.004164365299940856,0.01251246640463429
122,8.0,299.90637999999996,535.51765,0.0,0.0,0.0,-0.0012372195280158664,0.0,0.0,-0.07799432559019062,-0.019070717544383282,-0.06571895058970544,-0.0008136327274167981,0.02101876786864088,0.026111557415260073
123,8.0,299.50916,22.400026999999998,0.0,0.0,0.0,-0.0012473606716881273,0.0,0.0,0.03468520657366336,-0.017334379749020083,-0.024159875602644078,-0.0070827055411586135,-0.005411871831635165,0.023715582659045775
124,8.0,300.16218,15.913336,0.0,0.0,0.0,-0.0012575018153603886,0.0,0.0,-0.013325937022167588,0.011342483739415989,-0.0028538030999484374,-0.0030088321890986173,-0.013367491422018688,0.003895125496618956
125,8.0,299.76275,395.65487,0.0,0.0,0.0,-0.0012676429590326498,0.0,0.0,-0.05336530809849586,-0.01927297948959498,-0.04763091237655505,-0.00825906590648134,-0.01959122817375368,0.019534525684907583
126,8.0,299.84295,316.02054,0.0,0.0,0.0,-0.0012777841027049109,0.0,0.0,-0.03994411036817676,-0.04156184318633456,-0.014556398559354686,0.0018699234726470783,-0.03104371237052587,-0.005392530407101314
127,8.0,299.8704,296.59932000000003,0.0,0.0,0.0,-0.0012879252463771722,0.0,0.0,-0.03398857382516107,-0.02868888468762247,-0.02748132766894587,0.001110168282665079,-0.013748410638112487,-0.0075675737810363825
128,8.0,299.94914,220.72496,0.0,0.0,0.0,-0.0012980663900494334,0.0,0.0,-0.015742724948685984,-0.035347878218563965,-0.016004273170498785,-0.03212930042166507,-0.005350039257532765,-0.014594344775599686
129,8.0,300.87063,45.105225,0.0,0.0,0.0,-0.0013082075337216945,0.0,0.0,0.018615324445939482,-0.010646322152210189,-0.02167986390963598,-0.010612653877887391,0.00960753450198983,0.001012458579419382
130,8.0,301.20702,119.64395,0.0,0.0,0.0,-0.0013183486773939558,0.0,0.0,-0.006088527949115925,-0.018296146611439083,-0.011984099033988489,-0.01051191249994499,0.005392338497532375,0.0018015170332208884
131,8.0,300.49021,376.4947,0.0,0.0,0.0,-0.0013284898210662167,0.0,0.0,-0.04130342388083056,-0.025524023331524977,-0.047617541528235455,0.01086304216309879,0.005280677019287245,0.038251745600653364
132,8.0,299.06692000000004,330.43617,0.0,0.0,0.0,-0.0013386309647384783,0.0,0.0,-0.042516066401759055,-0.03374003066838177,-0.024188249645194376,0.006689224455625055,-0.01165907575966119,-0.003125623144649987
133,8.0,299.11706000000004,99.563423,0.0,0.0,0.0,-0.0013487721084107394,0.0,0.0,-0.017045584218768183,-0.01094909749409179,-0.002270113185767728,-0.005094028852816505,-0.006411191870585374,0.00959731982640672
134,8.0,298.93637,428.82887999999997,0.0,0.0,0.0,-0.0013589132520830005,0.0,0.0,-0.023199448256857276,-0.06791445786663514,-0.03923936553937386,-0.006036187299300305,-0.013122727688112385,-0.02396214997813008
135,8.0,300.34413,588.64634,0.0,0.0,0.0,-0.0013690543957552619,0.0,0.0,-0.06425970629918924,-0.01995491099239638,-0.0947191715693044,-0.03158287085473667,-0.0002382452021704708,0.04373248327931006
136,8.0,299.94374,218.78286,0.0,0.0,0.0,-0.0013791955394275228,0.0,0.0,-0.011113237930791189,-0.04459754757868526,-0.01079374193575939,-0.023375191420451778,-0.011208455069188389,-0.03552311577035857
137,8.0,300.31577000000004,109.57908,0.0,0.0,0.0,-0.0013893366830997843,0.0,0.0,-0.024130155963960977,-0.005092380092253785,-0.004086768175482616,-0.05182147363663125,-0.02806849090314437,0.012887279775625487
138,8.0,299.64732000000004,149.58465,0.0,0.0,0.0,-0.0013994778267720452,0.0,0.0,-0.016881772075101182,0.004161721021154886,-0.03274994650541807,-0.0038760238070587663,-0.0057342513338015455,0.008613844587220271
139,8.0,300.23077,101.14828,0.0,0.0,0.0,-0.0014096189704443066,0.0,0.0,-0.009012861260700151,-0.03732423976386567,0.015590548969167384,0.00907835977366435,-0.006841983357926182,0.003408233897616497
140,8.0,300.5066,344.48188999999996,0.0,0.0,0.0,-0.0014197601141165677,0.0,0.0,-0.02773816934404418,-0.017594760706717685,-0.05938096380969484,0.02930490629791907,0.002285863347972148,0.01370248102432959
141,8.0,299.62931000000003,465.33778,0.0,0.0,0.0,-0.0014299012577888288,0.0,0.0,-0.04041306277945876,-0.019096673972194982,-0.08194132787072943,-0.009826536554753651,0.016068837466870788,0.02021138384445828
142,8.0,298.86578,157.82348000000002,0.0,0.0,0.0,-0.0014400424014610904,0.0,0.0,0.00980460647886432,-0.018890858558882583,-0.03888814468371106,-0.007630773026873664,-0.001179570240314519,0.02124341960131228
143,8.0,298.94895,203.59881000000001,0.0,0.0,0.0,-0.0014501835451333513,0.0,0.0,-0.0058518819697107845,-0.02035581960646298,-0.03568125168696537,-0.034504015164281164,0.004358729163273076,0.003246038597134067
144,8.0,298.24879,487.4313,0.0,0.0,0.0,-0.0014603246888056124,0.0,0.0,-0.06032015647313594,-0.07060069027299563,-0.017246097294307285,-0.02829006235551177,-0.025529605326325873,-0.004326298472622415
145,8.0,299.93339,297.64107,0.0,0.0,0.0,-0.0014704658324778738,0.0,0.0,-0.04929076397486965,-0.013836315150537987,-0.027348373043824273,-0.054231722047004244,0.01868052405012418,-0.021385420523326683
146,8.0,301.06056,-141.59224,0.0,0.0,0.0,-0.0014806069761501347,0.0,0.0,0.02019157379175318,-0.004804452917337586,0.027653382602176375,-0.023526420011126876,-0.0009472426821730742,-0.01032032514453679
147,8.0,300.05776000000003,-84.305193,0.0,0.0,0.0,-0.0014907481198223962,0.0,0.0,0.023811588106020774,-0.017755484464079884,0.01957057003071488,-0.024848618172617676,0.025072589001221873,-0.012828677442841887
148,8.0,299.01342999999997,222.86301,0.0,0.0,0.0,-0.0015008892634946573,0.0,0.0,-0.04518907082806405,0.00973815622008119,-0.03229387554265737,0.014310370289323587,-0.0005164477497819245,0.005096270364687725
149,8.0,300.10305,203.0487,0.0,0.0,0.0,-0.0015110304071669185,0.0,0.0,-0.02652566361187918,-0.02379941086631898,-0.011396660195762789,-0.001333045206461319,0.00925626024804676,-0.012240332759026789
150,8.0,299.84263,327.15373,0.0,0.0,0.0,-0.0015211715508391798,0.0,0.0,-0.03192657643440777,-0.03920589586207066,-0.028314091581633272,0.003996048955604326,0.0026664276225559173,0.006752874192456793
151,8.0,300.2835,413.37618,0.0,0.0,0.0,-0.0015313126945114407,0.0,0.0,-0.07416418650993532,0.0006979262230499552,-0.05218977484922975,-0.029784517087002974,0.009519515694953053,0.024924669685373376
152,8.0,301.03342999999995,432.0981,0.0,0.0,0.0,-0.0015414538381837023,0.0,0.0,-0.017357751375826683,-0.08516562951744323,-0.02882365303042307,-0.016073259290307184,-0.017502201323332783,-0.01840281752896668
153,8.0,301.19038,491.63712999999996,0.0,0.0,0.0,-0.0015515949818559632,0.0,0.0,-0.07553717281943852,-0.00041241820301250764,-0.07349581938622263,-0.06007018564696574,-0.01151523274896499,0.03428014566068697
154,8.0,300.36442999999997,471.17072,0.0,0.0,0.0,-0.0015617361255282245,0.0,0.0,-0.037708952588333865,-0.037908595282037064,-0.06760658689000064,-0.027088645632441177,-0.007816431450646722,0.017502912624902982
155,8.0,300.32957999999996,95.64591800000001,0.0,0.0,0.0,-0.0015718772692004856,0.0,0.0,0.00820278077535143,-0.04335943802974336,0.0060826860556643745,-0.03173517247726767,0.02121958491920998,0.008807132986896352
156,8.0,300.08119,-116.81853000000001,0.0,0.0,0.0,-0.0015820184128727468,0.0,0.0,0.01035467533617689,0.012889489674093589,0.012265751151035387,-0.004023936638106626,-0.013237814660970588,-0.006814179065907113
157,8.0,299.58344,264.09881,0.0,0.0,0.0,-0.0015921595565450083,0.0,0.0,-0.05745644115275925,-0.03994237365750536,0.017119371117550384,0.0004360197261342966,0.006901881029637623,-0.011870292809256687
158,8.0,300.42571,345.72531000000004,0.0,0.0,0.0,-0.0016023007002172692,0.0,0.0,-0.035978461246047665,-0.020036790719727283,-0.04907660849998416,-0.008045250073029362,-0.00938370177937426,0.007282367283963693
159,8.0,300.54657000000003,99.017666,0.0,0.0,0.0,-0.0016124418438895306,0.0,0.0,-0.0031645431955660964,-0.008079404302100123,-0.018854949988588682,-0.01792201211801488,0.02847301276706757,-0.014791533377560685
160,8.0,299.36289,412.48691,0.0,0.0,0.0,-0.0016225829875617917,0.0,0.0,-0.03620031032894246,-0.06123970221713804,-0.027945708295776677,-0.036781258287027566,-0.029561862470278675,-0.0011837289226999488
161,8.0,299.69854,689.87738,0.0,0.0,0.0,-0.0016327241312340526,0.0,0.0,-0.07647961700245053,-0.036538081302777865,-0.0966877999898429,-0.02810761248950537,-0.013850472280935187,0.007063533532041482
162,8.0,299.58167000000003,368.27394,0.0,0.0,0.0,-0.0016428652749063142,0.0,0.0,-0.04026277448487646,-0.04618868764796855,-0.02549462084012318,-0.005603710270418145,-0.04015443474443416,0.025782637181048177
163,8.0,299.79109,296.65094,0.0,0.0,0.0,-0.0016530064185785753,0.0,0.0,-0.03656436703687207,-0.020611557852202377,-0.032998553496953666,0.0033428416745877867,-0.001012073676103895,0.02386897960493488
164,8.0,299.84708,269.03611,0.0,0.0,0.0,-0.0016631475622508366,0.0,0.0,-0.013504689538559088,0.0018151713889184681,-0.07009074074941753,0.00929444032241484,-0.018256585274534682,0.02270975360277818
165,8.0,300.54609,39.036547,0.0,0.0,0.0,-0.0016732887059230977,0.0,0.0,-0.011385287476640388,-0.02903482651026427,0.028553978542808268,-0.042567618540346866,0.0004515594666904495,-0.008456751000991343
166,8.0,300.53794,181.99012,0.0,0.0,0.0,-0.0016834298495953587,0.0,0.0,-0.01834425977918748,0.013954037586906286,-0.05093022999442235,-0.02342100248397298,-0.0005689950823529425,3.650174210119147e-05
167,8.0,301.6132,504.05109000000004,0.0,0.0,0.0,-0.0016935709932676202,0.0,0.0,-0.06700574275295194,-0.06151994490329584,-0.024693257548034774,-0.03770332803702876,0.03605666490201576,-0.003404889665661447
168,8.0,300.15938,182.83373999999998,0.0,0.0,0.0,-0.0017037121369398811,0.0,0.0,-0.017249679133410786,-0.028693617578839575,-0.009633594382636742,0.003687178509071187,0.011694820183438887,-0.012507387995133089
169,8.0,300.70755,154.6251,0.0,0.0,0.0,-0.0017138532806121427,0.0,0.0,-0.04259121105567525,0.02304912449852148,-0.027460083867349272,-0.02105707480192148,-0.006003668253240925,0.026085154144154275
170,8.0,299.78036000000003,485.82180999999997,0.0,0.0,0.0,-0.0017239944242844036,0.0,0.0,-0.02797388374130737,-0.05718560953353024,-0.06251820498131644,-0.02030085889453878,-0.015615429325372885,0.008005943568525112
171,8.0,299.60663999999997,445.43156,0.0,0.0,0.0,-0.001734135567956665,0.0,0.0,-0.04318449026747736,-0.02225624514952038,-0.06995933741019902,-0.017193423487858784,0.014358912061864288,0.025337778843894078
172,8.0,300.49818,393.16347,0.0,0.0,0.0,-0.0017442767116289263,0.0,0.0,-0.013645009478657587,-0.05480030024786855,-0.05106656684837775,-0.00017575250576042182,-0.0098153720585268,-0.014056192448738186
173,8.0,301.13572,459.41032,0.0,0.0,0.0,-0.0017544178553011872,0.0,0.0,-0.06181997940365694,-0.055694377950607145,-0.02213490946329548,-0.02174810529062088,0.011788788997712888,0.0064697260116372435
174,8.0,299.07939,227.0556,0.0,0.0,0.0,-0.0017645589989734487,0.0,0.0,-0.04587813054531896,0.017912239320800383,-0.04105334159714936,-0.006647995005081024,-0.037292273749710864,0.02309525372257408
175,8.0,299.83664,180.61663000000001,0.0,0.0,0.0,-0.0017747001426457096,0.0,0.0,-0.007640046190463853,-0.03734458987887406,-0.00991830975738596,-0.02341588759746818,-0.011638295013360288,0.00029573822874459074
176,8.0,300.60402999999997,442.37182,0.0,0.0,0.0,-0.001784841286317971,0.0,0.0,-0.023562989220485976,-0.04691614346451286,-0.06399085558390574,-0.004223457336497786,-0.04805690906309766,0.02810922051741407
177,8.0,301.55689,372.54591,0.0,0.0,0.0,-0.001794982429990232,0.0,0.0,-0.04044360821697336,-0.028675385156540174,-0.04412566079511366,-0.030802881060257675,-0.02929145844259187,-0.014755842656038286
178,8.0,301.29753,29.869267999999998,0.0,0.0,0.0,-0.0018051235736624932,0.0,0.0,0.00914060342333232,-0.043566435905922456,0.02534632155548718,-0.02182123965633868,0.002270179958949318,-0.007358607970513063
179,8.0,300.98196,278.26007000000004,0.0,0.0,0.0,-0.0018152647173347546,0.0,0.0,-0.05775076902855715,-0.020481499095866582,-0.006351844393678234,-0.014797754733174687,0.03879750946226607,-0.014597819210192587
180,8.0,299.79912,511.44787,0.0,0.0,0.0,-0.0018254058610070157,0.0,0.0,-0.05795429044364315,-0.04003296530919606,-0.057480126887096854,0.006411960724761254,0.030127248933327973,0.013652164037613686
181,8.0,300.13164,267.60325,0.0,0.0,0.0,-0.0018355470046792768,0.0,0.0,-0.024014123628759477,-0.024763571025474176,-0.03256701230586387,-0.014601163948772686,0.015925359226210585,0.003121126847331237
182,8.0,300.68564,253.28307999999998,0.0,0.0,0.0,-0.0018456881483515381,0.0,0.0,-0.010814187296277188,0.007470019175983492,-0.07364756270794852,-0.008762973521038152,-0.021621964772421776,0.03083349843852937
183,8.0,300.39249,404.39159,0.0,0.0,0.0,-0.001855829292023799,0.0,0.0,-0.03743508729830547,-0.04383411834384066,-0.04165574005985146,-0.01923973779356428,-0.0015967731318892384,0.015346663723097785
184,8.0,299.00257,301.06864,0.0,0.0,0.0,-0.0018659704356960606,0.0,0.0,-0.027301047171403574,-0.03361399248844277,-0.03060230921621277,-0.03401445932546577,-0.014711827071694288,-0.0007049042637061343
185,8.0,300.01995,363.48632000000003,0.0,0.0,0.0,-0.0018761115793683217,0.0,0.0,-0.06356047456418044,-0.06082527380698714,0.013894982331327988,-0.030102090946595075,-0.02118104899140678,0.00010801669604541791
186,8.0,300.60975,354.11985,0.0,0.0,0.0,-0.0018862527230405829,0.0,0.0,-0.03473029012361277,-0.04975496019018225,-0.023158342726800476,-0.02921772220631467,-0.01944959202177528,-0.014677500184806486
187,8.0,299.83576,63.365262,0.0,0.0,0.0,-0.0018963938667128442,0.0,0.0,0.004109217643373206,0.0036041061863725872,-0.026974781652453674,0.004876377158460956,0.017760723980346983,0.017145544380883483
188,8.0,299.59592999999995,172.73236,0.0,0.0,0.0,-0.001906535010385105,0.0,0.0,0.03079983827020737,-0.06276881010204924,-0.020537352481128878,0.006517395983791904,0.001064960508253419,-0.023013552327260774
189,8.0,299.50636000000003,557.15486,0.0,0.0,0.0,-0.0019166761540573667,0.0,0.0,-0.04205253183876176,-0.060117771924662146,-0.06719086253297184,-0.0005162517466825806,-0.021944990930801978,-0.00034969893374759765
190,8.0,299.78951,390.09215,0.0,0.0,0.0,-0.0019268172977296276,0.0,0.0,-0.042650861089062256,-0.04302315552030486,-0.03290425638964727,-0.007431683669050072,-0.007557543820946503,-0.006359501018058884
191,8.0,299.68792,-13.465345000000001,0.0,0.0,0.0,-0.001936958441401889,0.0,0.0,-0.021949010493948682,-0.01101232632683199,0.03705446496449096,-0.02865736855651207,0.01027561041762379,-0.014440988359714588
192,8.0,300.17797,187.84323999999998,0.0,0.0,0.0,-0.00194709958507415,0.0,0.0,-0.02230012698485118,0.002197797019505678,-0.036997323738351566,-0.014291970680757686,0.012952761063337988,0.004619318445191235
193,8.0,299.98614,409.83878,0.0,0.0,0.0,-0.001957240728746411,0.0,0.0,-0.045710935159568054,-0.04977970477087436,-0.029090116528470975,-0.05019299023491245,-0.012440823543063688,-0.005817436228586255
194,8.0,300.34577,273.77853999999996,0.0,0.0,0.0,-0.0019673818724186727,0.0,0.0,-0.006569191099753682,-0.041767771070408063,-0.03488487561186917,-0.026837549085409876,-0.004386386027402596,0.02003491215404188
195,8.0,301.015,305.39007999999995,0.0,0.0,0.0,-0.0019775230160909334,0.0,0.0,-0.031543526353353675,-0.04180333412241786,-0.01948409825393078,-0.0035143528978146266,-0.005911866172980764,-0.0033892074925387363
196,8.0,300.80497,221.87477,0.0,0.0,0.0,-0.001987664159763195,0.0,0.0,-0.024466801216935275,-0.02968993019016797,-0.013287656433389586,-0.01913902579987478,-0.007769082476123743,0.01575702089434688
197,8.0,299.29287999999997,89.189759,0.0,0.0,0.0,-0.0019978053034354556,0.0,0.0,-0.05512283599320035,0.004889282114384576,0.023122094717723078,-0.012170341495119188,-0.051660826886276656,0.0027820562789175776
198,8.0,299.91174,339.14017,0.0,0.0,0.0,-0.002007946447107717,0.0,0.0,-0.037742687737163265,-0.03336204683782767,-0.03198540877496407,-0.02824932564849137,-0.03607863419068397,0.00992475058297162
199,8.0,299.67433,436.01264000000003,0.0,0.0,0.0,-0.0020180875907799788,0.0,0.0,-0.049820779903428154,-0.03863109225259197,-0.044085083168358956,0.008810113563390513,0.00960878839898858,0.0050613095885373655
200,8.0,298.95474,140.81667,0.0,0.0,0.0,-0.0020282287344522395,0.0,0.0,0.013061471653316887,-0.01049032723306469,-0.045375896921252365,-0.03139551280524587,0.005202155506762775,-0.006667693600275124
201,8.0,299.9327,145.06086000000002,0.0,0.0,0.0,-0.002038369878124501,0.0,0.0,0.006972292083061654,-0.05267998018135925,0.0016128095372469086,-0.011813594373410988,-0.00919412987973997,-0.008761572702774903
202,8.0,299.70698,434.74427000000003,0.0,0.0,0.0,-0.0020485110217967617,0.0,0.0,-0.04592752547444386,-0.05175917091448245,-0.034464706126651666,-0.04797718958497996,-0.0026319082181491173,-0.0069885424868404425
203,8.0,300.22246,369.14802000000003,0.0,0.0,0.0,-0.0020586521654690233,0.0,0.0,-0.07282866106987923,-0.028441505755208072,-0.01094161464210329,0.009238001379919751,0.007219094982794203,0.0016866106215305085
204,8.0,300.47974,312.42901,0.0,0.0,0.0,-0.0020687933091412844,0.0,0.0,-0.03401252401777477,-0.04393278154582796,-0.017025314150517685,-0.017022406122730684,0.011336581557583488,-0.005024341969238946
205,8.0,300.38138,415.68667,0.0,0.0,0.0,-0.0020789344528135455,0.0,0.0,-0.05041484843705816,-0.005662561052126265,-0.07028095920394063,-0.028321785189642578,-0.03375695295830187,0.014567955689995285
206,8.0,299.86742000000004,409.94982999999996,0.0,0.0,0.0,-0.0020890755964858066,0.0,0.0,-0.018378924078358585,-0.04564310515812375,-0.060592483649512544,-0.04065565511840076,0.004520594752172966,0.008876686324110731
207,8.0,299.83349,283.35296,0.0,0.0,0.0,-0.0020992167401580678,0.0,0.0,-0.015047426650565385,-0.03657792128345976,-0.03450687860906377,-0.03717148825829026,0.006757469484310313,-0.017370209285806185
208,8.0,299.25404,422.14325999999994,0.0,0.0,0.0,-0.0021093578838303293,0.0,0.0,-0.05549756425118316,-0.017301835169058182,-0.055521610702556345,-0.03287560370331947,0.008140498318204632,0.03096655033566057
209,8.0,300.04778999999996,487.68137,0.0,0.0,0.0,-0.0021194990275025904,0.0,0.0,-0.06724732082854384,-0.06243402618950864,-0.018561611044888383,-0.018760875796304283,-0.044105690648892755,0.0009844987231124591
210,8.0,300.12748999999997,233.67744,0.0,0.0,0.0,-0.0021296401711748516,0.0,0.0,-0.027163456927074475,-0.0025006392358938776,-0.04136801148195486,-0.000838624176363262,-0.0030548161130868772,0.034837157611659765
211,8.0,299.7289,206.62586000000002,0.0,0.0,0.0,-0.0021397813148471127,0.0,0.0,-0.0076729457119357825,-0.037939290680566465,-0.017196867524948683,0.015572473600633487,0.005877061133370775,-0.01081632322748799
212,8.0,300.13813999999996,323.36559,0.0,0.0,0.0,-0.002149922458519374,0.0,0.0,-0.027610610275705078,-0.02983314802555247,-0.040851306619960066,-0.007666316523156533,0.00028697552028977873,0.0006159091192704974
213,8.0,300.58127,403.26001,0.0,0.0,0.0,-0.0021600636021916354,0.0,0.0,-0.05958653198998285,-0.023837501977328274,-0.03915693865698896,-0.01216888849447579,-0.025178692498693474,-0.007406500047089644
214,8.0,300.55284,264.64669,0.0,0.0,0.0,-0.0021702047458638965,0.0,0.0,-0.05076155931652585,-0.03388040633723577,0.004195980121610996,-0.05496350444147554,-7.054530196952924e-05,-0.00035722981379083765
215,8.0,300.14448,200.93167,0.0,0.0,0.0,-0.0021803458895361576,0.0,0.0,-0.03211335287834117,0.009204541429817512,-0.038169399778276464,-0.007599604339222553,-0.0007741815814607733,0.014823118409677885
216,8.0,300.53081000000003,397.28184,0.0,0.0,0.0,-0.0021904870332084187,0.0,0.0,-0.026434761905657873,-0.02939385344469747,-0.06493514489534984,-0.04711173619756636,0.00928171866343431,0.005143971747595485
217,8.0,299.80949,484.71025999999995,0.0,0.0,0.0,-0.00220062817688068,0.0,0.0,-0.02989658153481287,-0.06536402731817724,-0.052079204945317356,-0.015304152815152286,-0.023713014070042275,0.01257503257180909
218,8.0,300.71152,547.92119,0.0,0.0,0.0,-0.0022107693205529414,0.0,0.0,-0.040678110767116964,-0.04236508099110796,-0.08351117043616083,-0.004288535958620545,0.014004948338180789,-0.013427382608929488
219,8.0,301.01003,204.88009,0.0,0.0,0.0,-0.0022209104642252025,0.0,0.0,-0.04309218115686716,-0.03252033997975767,0.013334091658972386,-0.0033442238490491967,0.01081895261149749,0.0077035164807028825
220,8.0,300.13178,52.01079,0.0,0.0,0.0,-0.0022310516078974637,0.0,0.0,-0.0034023911935648667,-0.026282784523158877,0.013875193556874986,0.00954052199072621,0.014577911885477884,-0.007659774777860912
221,8.0,300.23089,328.11123,0.0,0.0,0.0,-0.0022411927515697248,0.0,0.0,-0.058539548767653646,-0.02126304524249918,-0.019935026972433982,-0.00953993481229326,-0.03757839936594926,0.038686857485095566
222,8.0,300.66524,373.37372,0.0,0.0,0.0,-0.002251333895241986,0.0,0.0,-0.02311830414909898,-0.047204311792952855,-0.043173670782909554,-0.01019904518706739,0.015666226592636185,0.005756547598277015
223,8.0,298.81262999999996,197.3527,0.0,0.0,0.0,-0.0022614750389142475,0.0,0.0,-0.014484342291743287,-0.01977382394777448,-0.025732126663563178,-0.028392398589111575,-0.02509461401864558,0.009133754865906422
224,8.0,299.2371,225.80049,0.0,0.0,0.0,-0.0022716161825865086,0.0,0.0,0.005892505699345034,-0.036774870758397166,-0.03775534424416237,-0.05696790970979495,-0.00921826955012237,-0.01848316724864658
225,8.0,299.209,490.39835,0.0,0.0,0.0,-0.0022817573262587693,0.0,0.0,-0.09669513997356731,-0.03443741626170837,-0.01793629691792468,-0.039373183453580665,-0.02224353088726558,-0.007733980655559462
226,8.0,299.80642,603.8765,0.0,0.0,0.0,-0.002291898469931031,0.0,0.0,-0.09987486773513199,-0.02633196059026218,-0.057356548878400644,-0.02757405525184737,0.028116575699889977,0.008900789314839511
227,8.0,300.4573,352.80355,0.0,0.0,0.0,-0.0023020396136032915,0.0,0.0,-0.02990653773029547,-0.04363689123837586,-0.03370003971343497,0.01058198786361089,0.025964443633241078,0.01075314505725279
228,8.0,301.80027,34.326073,0.0,0.0,0.0,-0.002312180757275553,0.0,0.0,0.011387845933142888,-0.0008436460971713871,-0.02097846888566368,-0.02257057964854278,0.011380057079624188,0.038933486612435966
229,8.0,300.55548999999996,26.05782,0.0,0.0,0.0,-0.0023223219009478146,0.0,0.0,0.03570998442005107,-0.0023932279365182075,-0.04123768320109246,-0.020231347911178584,-0.03133848708961787,0.02276236965397098
230,8.0,300.96386,386.71193999999997,0.0,0.0,0.0,-0.0023324630446200753,0.0,0.0,-0.03510187325328516,-0.06460050486432345,-0.017848396458499585,-0.04479722370964175,-0.02092760069089338,-0.008319223476843432
231,8.0,300.09832,513.0645,0.0,0.0,0.0,-0.002342604188292337,0.0,0.0,-0.08076018526890973,-0.043478520247745865,-0.03172008923627907,-0.019262584556819083,-0.002267031182938558,-0.015420152726350587
232,8.0,299.98827,175.70609,0.0,0.0,0.0,-0.0023527453319645976,0.0,0.0,-0.044380786024542554,-0.047767474172032656,0.03873799621764256,-0.03675736787616976,0.01238977904277599,-0.01976305512571168
233,8.0,299.88707,106.9051,0.0,0.0,0.0,-0.002362886475636859,0.0,0.0,-0.0028559132946066974,-0.023698891390148476,-0.005941675382972704,-0.02773906100413218,-0.013366892591209588,-0.025365550002634872
234,8.0,300.15328999999997,504.40407000000005,0.0,0.0,0.0,-0.0023730276193091203,0.0,0.0,-0.04522565827592495,-0.04222122987441096,-0.06587935314678593,-0.008458198023459151,-3.938996084873646e-05,0.005268064588667495
235,8.0,299.45077000000003,448.33572999999996,0.0,0.0,0.0,-0.0023831687629813814,0.0,0.0,-0.03936205492773236,-0.04402984279940716,-0.052890968236432155,0.004390571256940646,-0.015090627581828985,-0.018289801639312882
236,8.0,299.80319,116.29706000000002,0.0,0.0,0.0,-0.0023933099066536425,0.0,0.0,-0.00966269441888369,-0.007698771126509553,-0.017989937364968584,-0.010802227905346889,-0.02670713467828897,-0.01243310663030209
237,8.0,300.7964,9.8867047,0.0,0.0,0.0,-0.002403451050325904,0.0,0.0,-0.041573920114276464,0.008258679047593162,0.03030992982035717,-0.01966105326464488,-0.03838033514434416,0.0003894290071911506
238,8.0,300.8589,296.03492,0.0,0.0,0.0,-0.002413592193998165,0.0,0.0,-0.037891882734887666,-0.018484612143289184,-0.03361072779662057,-0.04011826070261407,0.00950108508093409,0.0018698328880881383
239,8.0,300.57833,440.50830999999994,0.0,0.0,0.0,-0.0024237333376704263,0.0,0.0,-0.051598622449387545,-0.017763861002656586,-0.06454104228220495,-0.029903800941775374,0.02029322506828538,0.03765273645953576
240,8.0,300.16345,429.93703,0.0,0.0,0.0,-0.002433874481342688,0.0,0.0,-0.003543297805471267,-0.04769521221465096,-0.07945161025501342,-0.06345102936787904,0.004000565416600066,0.01050919496317679
241,8.0,300.5652,550.05537,0.0,0.0,0.0,-0.0024440156250149486,0.0,0.0,-0.05072226243789755,-0.034958574357892666,-0.08152226080162073,-0.02189749888536488,-0.01029612569239849,0.02182945914114988
242,8.0,300.57677,374.33477999999997,0.0,0.0,0.0,-0.0024541567686872097,0.0,0.0,-0.037680410346266964,-0.033985481385855866,-0.04212253526167056,-0.001093802874999939,0.0031704154865206473,-0.016173933793742986
243,8.0,300.19171,274.32457999999997,0.0,0.0,0.0,-0.0024642979123594717,0.0,0.0,-0.05791281203754954,-0.03633515162575027,0.01086014325456269,0.013454169901823188,-0.005936070488719545,-0.014741788877151286
244,8.0,299.38477,358.24962999999997,0.0,0.0,0.0,-0.002474439056031733,0.0,0.0,-0.06317920273705184,-0.01016053357726659,-0.03555920469917027,-0.010833641698197189,-0.022398214660781682,-0.01051017274952329
245,8.0,299.77821,171.4307,0.0,0.0,0.0,-0.0024845801997039935,0.0,0.0,-0.03446796575222336,0.0051281369790077145,-0.022770823199555278,-0.010624834157339488,-0.03931688829127476,0.006140107749431453
246,8.0,299.69723999999997,2.7740337999999998,0.0,0.0,0.0,-0.0024947213433762546,0.0,0.0,0.020961796868518283,0.01271034908291379,-0.034515382817153065,-0.02726427632527458,0.0014831766499281385,0.016079767395699485
247,8.0,300.20532000000003,208.06106,0.0,0.0,0.0,-0.0025048624870485157,0.0,0.0,-0.013091127457243687,0.007353865453420014,-0.05750810474885804,-0.03847196841713767,-0.003105004417040077,0.010835036943584888
248,8.0,299.5106,362.72046,0.0,0.0,0.0,-0.0025150036307207773,0.0,0.0,-0.03757511643562526,-0.034442962792755764,-0.038239881455232466,-0.030937168109260768,-0.012355730799665688,0.0041863606291366266
249,8.0,299.5359,444.16752,0.0,0.0,0.0,-0.0025251447743930384,0.0,0.0,-0.07238258683260514,-0.03971973626603276,-0.022913514144887775,-0.03468519036166177,-0.00949392515175246,-0.0075934955556946635
250,8.0,299.71815,459.26322999999996,0.0,0.0,0.0,-0.0025352859180652995,0.0,0.0,-0.04985215012652416,-0.05752350817687824,-0.03222889682699447,0.006204397151051324,0.014615445708932187,-0.004404455519085916
251,8.0,300.58099,259.9641,0.0,0.0,0.0,-0.0025454270617375602,0.0,0.0,-0.024598231913906476,-0.04534354283230926,-0.009080820350207191,-0.013636533641571087,0.02013714402288138,-0.009172110739166852
252,8.0,300.75985,-92.17717900000001,0.0,0.0,0.0,-0.0025555682054098218,0.0,0.0,0.05902561193337435,-0.0003334785525692707,-0.03067257203114717,-0.029588404556648178,-0.015319042525371787,-0.0013104772896340388
253,8.0,301.00212,105.51113000000001,0.0,0.0,0.0,-0.0025657093490820833,0.0,0.0,0.016911015486237285,-0.040413760908777664,-0.008570003991168543,-0.03419103031439197,-0.02003113070466868,-0.004029918157421956
254,8.0,300.78507,393.79865,0.0,0.0,0.0,-0.0025758504927543445,0.0,0.0,-0.04502677450654666,-0.02826437747872687,-0.046413803449185755,-0.014249959305111484,0.004454437018693706,-0.014911753475425487
255,8.0,300.98807999999997,305.07752999999997,0.0,0.0,0.0,-0.0025859916364266056,0.0,0.0,-0.05985864942358874,-0.016308748746048183,-0.016568552151188784,-0.01925730957679848,0.005334310069605415,0.013992097287162487
256,8.0,300.63141,244.87194,0.0,0.0,0.0,-0.0025961327800988667,0.0,0.0,-0.030385432151558672,-0.024925215827177275,-0.019124306315672083,-0.023634578379801277,-0.025813537256097772,-0.020150173405917283
257,8.0,300.35155,589.06741,0.0,0.0,0.0,-0.002606273923771128,0.0,0.0,-0.06159872104557044,-0.03498843990459017,-0.08247462267661151,-0.03297873635149787,-0.018354399372938184,0.01706899738882888
258,8.0,299.57336000000004,474.11897,0.0,0.0,0.0,-0.002616415067443389,0.0,0.0,-0.023680832233616177,-0.05641715559143975,-0.06402233929101295,-0.01839960248639938,0.0036967927326450366,-0.009460943151722391
259,8.0,299.69821,310.10614,0.0,0.0,0.0,-0.0026265562111156505,0.0,0.0,-0.04211716604939066,-0.026132818442108376,-0.026014538718185078,-0.03339645275822327,0.015681265250620382,0.01228743368992529
260,8.0,300.30305,306.267,0.0,0.0,0.0,-0.0026366973547879116,0.0,0.0,-0.04363794096547946,-0.014482417116553285,-0.034977163444227265,-0.012579531402253088,-0.023054438995295978,0.008759994261769122
261,8.0,300.722,295.10758,0.0,0.0,0.0,-0.0026468384984601728,0.0,0.0,-0.05183539569300525,-0.047032136282960456,0.00916219831608857,-0.04162360685943016,-0.023669554760003177,0.0016096381657589186
262,8.0,300.55491,330.96506,0.0,0.0,0.0,-0.0026569796421324334,0.0,0.0,-0.038660613294255464,-0.028922671883195472,-0.033021827851750674,-0.015282266612992285,0.0028892320989700074,0.02025972803322948
263,8.0,299.64292,314.81788,0.0,0.0,0.0,-0.0026671207858046954,0.0,0.0,-0.029962385036057176,-0.03168077006614857,-0.03405362042858067,-0.020335163489924382,0.005699713792217955,0.008287614228048842
264,8.0,300.6231,389.23274,0.0,0.0,0.0,-0.0026772619294769566,0.0,0.0,-0.004326516321393916,-0.03712428600238176,-0.07686623068410632,-0.004673444846983095,-0.024751350216018077,0.03786964696144317
265,8.0,300.80485,248.55032000000003,0.0,0.0,0.0,-0.0026874030731492173,0.0,0.0,-0.02209136605349808,-0.007327265206494774,-0.04613445850261655,-0.03659421535831787,-0.0017536442083962082,-0.006759885781823785
266,8.0,300.44966,280.15857,0.0,0.0,0.0,-0.002697544216821479,0.0,0.0,-0.05456072638097444,-0.04452184969021446,0.013921366350681887,-0.012273081002258789,0.00948915943123212,-0.011180720387451189
267,8.0,299.7637,468.64336,0.0,0.0,0.0,-0.00270768536049374,0.0,0.0,-0.09099850099010282,-0.03029868274424717,-0.02115869669420078,-0.03754181799758896,0.04697171719274755,-0.017702086183809883
268,8.0,300.51522,257.87752,0.0,0.0,0.0,-0.002717826504166001,0.0,0.0,-0.03363067869108957,-0.018654062010512583,-0.026103586176723377,-0.03806007819848726,0.002029836021979218,-0.00947566993132581
269,8.0,299.87325,178.56585,0.0,0.0,0.0,-0.002727967647838262,0.0,0.0,0.0014924615672194884,-0.04960515521589765,-0.006166865252772213,-0.052755637539826046,0.0001056828162950819,-0.017095547581199185
270,8.0,300.30102999999997,323.92933999999997,0.0,0.0,0.0,-0.0027381087915105237,0.0,0.0,-0.008161147341992534,-0.02126772949771148,-0.06903755542322623,-0.03701937814002817,-0.006617776948673734,-0.00981871892493211
271,8.0,299.10731,371.88284,0.0,0.0,0.0,-0.002748249935182785,0.0,0.0,-0.051265238848485155,-0.03982887343430376,-0.021948986175946275,-0.023528279325060377,-0.003487875456801507,0.011489555978180887
272,8.0,299.62192000000005,415.10827,0.0,0.0,0.0,-0.0027583910788550456,0.0,0.0,-0.047789770740483156,-0.044894548408246956,-0.033498228664517765,-0.024617493798307476,-0.055507756533939044,0.010993509259224888
273,8.0,300.00579,448.45027999999996,0.0,0.0,0.0,-0.0027685322225273075,0.0,0.0,-0.06676719429515902,-0.030657209133130973,-0.03889328287496817,-0.014922183871954885,-0.032850209629313266,0.016202398015552184
274,8.0,299.62717999999995,381.98342,0.0,0.0,0.0,-0.0027786733661995687,0.0,0.0,-0.01158951918004649,-0.048153101961341156,-0.05637080041261485,0.00934305707546294,-0.015306867312170184,-0.0073364327894245435
275,8.0,299.79764,212.99257000000003,0.0,0.0,0.0,-0.0027888145098718294,0.0,0.0,-0.022709445574747775,-0.0032526188459334865,-0.03878235833352076,-0.025039284483684976,0.016078285010803182,0.02227637640250718
276,8.0,300.70664,258.45171,0.0,0.0,0.0,-0.0027989556535440905,0.0,0.0,0.009312286291126102,-0.041834792498272565,-0.046040361005579865,-0.038197073665007665,-0.012263785445841387,0.018281263993970284
277,8.0,301.38787,348.84146,0.0,0.0,0.0,-0.0028090967972163516,0.0,0.0,-0.08607173145911852,-0.033957126595057466,0.013989764785432287,-0.06459730603375773,-0.004266482772844066,0.015905965619296584
278,8.0,301.69786,453.37888,0.0,0.0,0.0,-0.002819237940888613,0.0,0.0,-0.07535453550216363,-0.013530459528352386,-0.04893086260560016,-0.03648773087880867,0.014240900849217487,0.01149987491719929
279,8.0,300.30962999999997,512.82267,0.0,0.0,0.0,-0.0028293790845608743,0.0,0.0,-0.08800879612579192,-0.05809574623710374,-0.00978074291913417,-0.03258295984918777,0.045825285499603546,-0.025893205058460374
280,8.0,299.78942,410.97164,0.0,0.0,0.0,-0.0028395202282331354,0.0,0.0,-0.014739187864144587,-0.01956768226792988,-0.09061824849257481,-0.03675553693323907,-0.0016668523459055183,0.011433965024694489
281,8.0,301.00906000000003,278.55508,0.0,0.0,0.0,-0.002849661371905397,0.0,0.0,0.006970218568057013,-0.029236477465665676,-0.06240752969939364,-0.03751189570888586,0.001997933437280678,0.002149296992869098
282,8.0,300.55937,194.35974,0.0,0.0,0.0,-0.0028598025155776577,0.0,0.0,0.017652389306155182,-0.044052467660890056,-0.03268043045580737,0.0037099984211983366,-0.017603803963860184,0.00019248711136449882
283,8.0,300.24176,132.12593,0.0,0.0,0.0,-0.002869943659249919,0.0,0.0,-0.053570580409754646,0.02096718938555048,-0.007559592106023653,0.001310684195304459,0.013316688075254787,0.024345034899417875
284,8.0,300.1705,20.504246,0.0,0.0,0.0,-0.0028800848029221808,0.0,0.0,-0.016360061757612385,-0.027849670424798474,0.037976953186783464,-0.00017414937184970485,-0.052068229420234154,0.011780191570614388
285,8.0,299.32214,187.2241,0.0,0.0,0.0,-0.0028902259465944415,0.0,0.0,-0.02142136861037448,-0.03556662574290267,7.654370203152523e-05,-0.029423668328889974,-0.027019270424594375,-0.013147465176053788
286,8.0,299.68554,478.25737000000004,0.0,0.0,0.0,-0.0029003670902667026,0.0,0.0,-0.027003149615503375,-0.03884117851507586,-0.07953397127614183,-0.011782077229050489,-0.02797858623502147,-0.01007276321915433
287,8.0,299.62752,539.1723900000001,0.0,0.0,0.0,-0.0029105082339389637,0.0,0.0,-0.022865982582696776,-0.09485713570292041,-0.04617182412655425,-0.023955156525939877,0.014361913308660487,-0.017228222549293182
288,8.0,300.39689,397.77221000000003,0.0,0.0,0.0,-0.002920649377611225,0.0,0.0,-0.026422141875662372,-0.026340493169354273,-0.06815018340964944,-0.026636689478336577,-0.02042994493077858,0.006004909788588453
289,8.0,299.91201,321.58673,0.0,0.0,0.0,-0.0029307905212834864,0.0,0.0,-0.07242105588590173,-0.013541296238171886,-0.01179198377527819,-0.048190029861235655,0.007094515173724133,0.007797488740027223
290,8.0,300.39371,300.01587,0.0,0.0,0.0,-0.0029409316649557475,0.0,0.0,-0.05006577161860695,-0.040421683511309564,-0.0007098771128119163,-0.028835827230374575,0.015917836857468184,-0.01235367288871259
291,8.0,300.06464,195.85013999999998,0.0,0.0,0.0,-0.0029510728086280086,0.0,0.0,-0.030629650756911174,0.012741976671535187,-0.04164587708337806,-0.04046692715477476,0.022754598025703978,0.006247334738613933
292,8.0,299.61952,150.42713,0.0,0.0,0.0,-0.0029612139523002693,0.0,0.0,0.04252552103844216,-0.05622556722278144,-0.03202604314372437,-0.048163797829396754,-0.00985014558605868,-0.009223816891769852
293,8.0,299.29287,233.3927,0.0,0.0,0.0,-0.0029713550959725313,0.0,0.0,0.008410058713858174,-0.02848738470648597,-0.05086822618105305,-0.06262451416855834,-0.026460504537698475,0.01969560306655468
294,8.0,300.15756,440.48753,0.0,0.0,0.0,-0.0029814962396447924,0.0,0.0,-0.025673447323771973,-0.03553523525480466,-0.07268852858104922,-0.024853252778575075,-0.024769847096593578,0.019568412821251983
295,8.0,299.88135,501.02885,0.0,0.0,0.0,-0.002991637383317053,0.0,0.0,-0.08651190858081062,-0.06292016534898684,-0.0028681854758428674,-0.014445620939171787,-0.015802050742040986,0.02367908640369388
296,8.0,301.19304,449.60107999999997,0.0,0.0,0.0,-0.0030017785269893147,0.0,0.0,-0.07422747411118134,-0.014786183417032686,-0.047653845266068355,-0.01106770348454729,-0.026497450676094773,0.0028709151716122677
297,8.0,301.18253,433.89223,0.0,0.0,0.0,-0.003011919670661576,0.0,0.0,-0.051977220309502255,-0.05498828144617085,-0.02492690086209358,-0.011460802980093188,-0.01979080095319998,-0.016805526018326283
298,8.0,300.47542999999996,444.90789,0.0,0.0,0.0,-0.003022060814333837,0.0,0.0,-0.005792290299529545,-0.06005345283481435,-0.06939514658226772,-0.007239692432152014,-0.0028893195424536376,-0.01882036066992498
299,8.0,299.18889,394.63993,0.0,0.0,0.0,-0.003032201958006098,0.0,0.0,-0.04333621737720166,-0.02170316866193598,-0.054921299535060246,-0.012401357451668689,-0.0044033684030536265,0.008297213252871192
300,8.0,299.94891,279.0023,0.0,0.0,0.0,-0.0030423431016783596,0.0,0.0,-0.025807186204470978,-0.04415026250754166,-0.014852284813806385,-0.04730075699047125,-0.025628083103544873,0.018773478601048083
301,8.0,299.24343,72.264184,0.0,0.0,0.0,-0.0030524842453506207,0.0,0.0,-0.04341285961476566,-0.013921254893170887,0.03536760619801097,-0.056162828803089655,-0.002331743717800188,0.011916027879020387
302,8.0,299.47011000000003,225.30491,0.0,0.0,0.0,-0.0030626253890228814,0.0,0.0,-0.01900324522022428,-0.025524621149083975,-0.023959200407088977,-0.028029002520247176,0.024642468386772275,0.015166798658096486
303,8.0,300.03765,465.28214,0.0,0.0,0.0,-0.0030727665326951434,0.0,0.0,-0.06014001884385774,-0.07563414288050872,-0.005659990335297555,-0.027875585309356073,0.03220823057795487,-0.03428360489652837
304,8.0,300.49547,371.61963,0.0,0.0,0.0,-0.0030829076763674045,0.0,0.0,0.016721015893735786,-0.03818421754773886,-0.09149988753708581,-0.05106806341877545,-0.015465497694825787,0.014399798729899486
305,8.0,299.65801,202.43979,0.0,0.0,0.0,-0.0030930488200396652,0.0,0.0,-0.003056937554821247,-0.05237112736537785,-0.006108574697044384,-0.03418120685467246,-0.028945654421963674,-0.02973904343576507
306,8.0,300.42566,281.88957999999997,0.0,0.0,0.0,-0.0031031899637119264,0.0,0.0,-0.01123902077170499,-0.03345944449044007,-0.040988926248542064,-0.01844902882627738,-0.012493560171018386,0.03363304361682297
307,8.0,300.35319,310.66865,0.0,0.0,0.0,-0.003113331107384188,0.0,0.0,-0.09641086657851172,-0.00910985442387263,0.011085208393274888,-0.02177384792266148,-0.023623073938165876,0.013188767276629985
308,8.0,299.96445,266.4595,0.0,0.0,0.0,-0.003123472251056449,0.0,0.0,-0.03744777217630736,-0.04503184278354686,0.0014825818721194387,-0.05096361455871715,-0.04022753060664817,-0.013916412570942987
309,8.0,299.90821,312.15826,0.0,0.0,0.0,-0.00313361339472871,0.0,0.0,-0.05781109489976085,-0.008244532657647023,-0.028832690208064976,-0.026607036714160072,-0.00024135204989209272,-0.007070486859527722
310,8.0,300.44673,381.54927000000004,0.0,0.0,0.0,-0.0031437545384009713,0.0,0.0,0.0019617504788596984,-0.05915261067440815,-0.058790591612429645,-0.03667191137598586,0.016373064796145684,-0.031245754440465866
311,8.0,300.11415,378.88054,0.0,0.0,0.0,-0.003153895682073233,0.0,0.0,-0.06629794196184743,-0.019816405783226982,-0.02905587678109177,-0.03572100452813867,0.0025969007311691474,0.0037192313587595567
312,8.0,300.20251,518.55453,0.0,0.0,0.0,-0.0031640368257454935,0.0,0.0,-0.07197010791564663,-0.02200626419084918,-0.06365125569363984,-0.061839635442346844,-0.026022966932516874,0.02671514644682968
313,8.0,299.64195,356.47236000000004,0.0,0.0,0.0,-0.003174177969417755,0.0,0.0,-0.07199536114788893,-0.047435248715994555,0.011071914551962889,-0.036200210017182564,-0.008115989419485792,0.04293654695475726
314,8.0,298.69588999999996,185.99598,0.0,0.0,0.0,-0.0031843191130900166,0.0,0.0,0.0013318742946457588,-0.029047484030513472,-0.028822523256561573,-0.02881190135576327,0.043725237527844955,0.004062718380384087
315,8.0,299.81314,379.55789,0.0,0.0,0.0,-0.0031944602567622773,0.0,0.0,-0.047151331984974156,-0.04186390722664596,-0.026360880774616374,-0.02791213020071277,0.02029228578544268,0.021495460497436777
316,8.0,300.33556,524.2035099999999,0.0,0.0,0.0,-0.0032046014004345385,0.0,0.0,-0.0013735337685322287,-0.08406478293304812,-0.07390646026749974,-0.07474704647095913,-0.015563295581227685,-0.03729354132558597
317,8.0,299.86773999999997,276.85877999999997,0.0,0.0,0.0,-0.0032147425441067996,0.0,0.0,-0.012577654863067887,-0.013287025178577288,-0.05829347591461814,-0.05230263064536775,-0.047706416734256754,-0.00043363954085439056
318,8.0,300.34311,158.22245,0.0,0.0,0.0,-0.003224883687779061,0.0,0.0,-0.029985442555332767,-0.030956121965631366,0.012845889522290588,-0.017071355221811586,0.015639040079203085,-0.01159701520428629
319,8.0,301.30426,482.12310999999994,0.0,0.0,0.0,-0.0032350248314513223,0.0,0.0,-0.0975827430081669,-0.02363324494266968,-0.025337399888356676,-0.007381989729820663,0.012243817326120688,0.034025726666577764
320,8.0,301.0208,576.96703,0.0,0.0,0.0,-0.0032451659751235834,0.0,0.0,-0.08600125788816332,-0.025032998280064576,-0.06434931509828294,-0.02646457172359987,-0.013747579773030488,0.004598953536731376
321,8.0,300.88367999999997,445.2761,0.0,0.0,0.0,-0.0032553071187958445,0.0,0.0,-0.026529892917796574,-0.06543445833262823,-0.04338846561860816,-0.04063946439505286,-0.02937718852030277,-0.0008315465433547543
322,8.0,299.47746,248.04523999999998,0.0,0.0,0.0,-0.003265448262468105,0.0,0.0,0.02131232162136238,-0.01010865537479661,-0.08660322571957292,-0.029572539086582368,0.0015887179962442587,-0.013058954740068487
323,8.0,299.99899,252.82297000000003,0.0,0.0,0.0,-0.003275589406140367,0.0,0.0,-0.01140597500393209,-0.04342071230304066,-0.022025183596716378,-0.022583387129806776,-0.027813798331508176,0.0019195448631693281
324,8.0,300.04893,369.89619,0.0,0.0,0.0,-0.0032857305498126283,0.0,0.0,-0.08183744339097682,-0.01913171114740288,-0.011470048887255689,-0.05461441647727325,-0.039053157528746565,0.015867127742963585
325,8.0,299.21002999999996,469.30287999999996,0.0,0.0,0.0,-0.003295871693484889,0.0,0.0,-0.08349561502062562,-0.02217519324752118,-0.03698554875893947,-0.03746603296960956,-0.04654685230656666,0.037099539395189465
326,8.0,300.22401,310.434,0.0,0.0,0.0,-0.0033060128371571506,0.0,0.0,-0.03595982757670867,-0.043816854588636864,-0.014587504324174588,-0.03248948854071287,0.03563835777048206,-0.007563708637204923
327,8.0,299.98451,422.60905999999994,0.0,0.0,0.0,-0.0033161539808294117,0.0,0.0,-0.031157264269482572,-0.018307711848080485,-0.07899762557420863,-0.03338403639149787,0.029385470826620172,0.03854926724076646
328,8.0,299.68686,701.99242,0.0,0.0,0.0,-0.0033262951245016732,0.0,0.0,-0.031306182649929674,-0.07210445981265613,-0.1099775275064369,-0.03766610629460526,0.007714190057256282,-0.016288279067527986
329,8.0,300.2224,570.0926900000001,0.0,0.0,0.0,-0.003336436268173934,0.0,0.0,-0.06326041169281653,-0.039863914662512066,-0.07016961517695185,-0.04844130372703445,-0.03656445721613096,0.0034861033837016164
330,8.0,300.45614,217.60612999999998,0.0,0.0,0.0,-0.0033465774118461955,0.0,0.0,-0.03595317457655207,-0.0016400210779574786,-0.028553633024524176,-0.0004672992836113486,0.021916658431505778,0.0026562749578789274
331,8.0,300.03191,87.40814,0.0,0.0,0.0,-0.0033567185555184566,0.0,0.0,-0.03827702213764796,-0.0058238910370232945,0.017531021195927084,-0.011638663836396689,-0.008209175802032571,0.014068935081995786
332,8.0,300.95934,212.6481,0.0,0.0,0.0,-0.0033668596991907173,0.0,0.0,-0.028499834510464676,-0.012331506016274888,-0.023808371036953276,-0.023296582464443678,-0.02482817990485058,-0.008264381112530911
333,8.0,300.34207999999995,190.31453,0.0,0.0,0.0,-0.0033770008428629793,0.0,0.0,-0.009422202952699032,-0.027940412037503973,-0.02048825139453298,-0.04314630593745886,-0.05705730066011715,-0.0016547417780602982
334,8.0,300.64176000000003,431.60093,0.0,0.0,0.0,-0.0033871419865352404,0.0,0.0,0.02058304296788818,-0.08585994192321651,-0.06591900668944943,-0.02899668068374957,0.008894360952230082,-0.03957853378509717
335,8.0,300.40536000000003,463.67675,0.0,0.0,0.0,-0.0033972831302075015,0.0,0.0,-0.06568777693712885,-0.021834909413437777,-0.053423467640985746,-0.033916920831089464,-0.012872006043618088,-0.007329084801024353
336,8.0,299.68255,364.74722,0.0,0.0,0.0,-0.0034074242738797622,0.0,0.0,-0.06391818731323394,-0.03144259651089267,-0.015513263317789884,-0.060206687660687444,-0.030321606514509575,0.0007511252882177942
337,8.0,299.21196000000003,441.32044,0.0,0.0,0.0,-0.003417565417552024,0.0,0.0,-0.07970329752685301,-0.03195452592516617,-0.02249256952334378,-0.03569128590270567,-0.027171296443098177,0.014904010218161285
338,8.0,299.43232,319.24807999999996,0.0,0.0,0.0,-0.0034277065612242853,0.0,0.0,-0.03858727222551726,-0.01108820153407029,-0.04736797194910486,-0.031524329316959074,0.03907219852462576,0.025552240320309772
339,8.0,300.08111,149.79631,0.0,0.0,0.0,-0.003437847704896546,0.0,0.0,0.0050425754047884455,-0.03316847249897337,-0.017408440225329284,-0.013854675242349988,0.02958648546095877,-0.006771629350482785
340,8.0,299.93448,272.87172999999996,0.0,0.0,0.0,-0.003447988848568807,0.0,0.0,0.012597490247025488,-0.026768024929798375,-0.06877565864337902,-0.06452959660907534,-0.008834077536205572,-0.0025730135627116675
341,8.0,299.70558,261.09305,0.0,0.0,0.0,-0.0034581299922410687,0.0,0.0,-0.05036307439669845,-0.02749771192306287,-0.0015049819947301586,-0.03705870744265966,-0.02197610176187238,-0.027735574410538075
342,8.0,300.49426,186.24501,0.0,0.0,0.0,-0.00346827113591333,0.0,0.0,-0.03491732697282187,-0.023025868382226276,0.001329363055597919,-0.04908245393981105,0.002154386953421438,-0.006246005455807745
343,8.0,300.19223,324.63434,0.0,0.0,0.0,-0.003478412279585591,0.0,0.0,-0.06381641039368934,-0.013741634021443688,-0.02112268983864718,-0.016215772916872182,-0.012963119519110288,-0.007917002703897332
344,8.0,299.76957000000004,553.01284,0.0,0.0,0.0,-0.0034885534232578525,0.0,0.0,-0.061412793705220854,-0.07486166734877132,-0.03182763458864297,-0.05701888328257565,-0.03177385431308527,-0.007244632836989593
345,8.0,300.22959,455.65115,0.0,0.0,0.0,-0.0034986945669301136,0.0,0.0,-0.02952942630807747,-0.05211315591641804,-0.05686398976628885,-0.04279462810600096,-0.027495204129065372,-0.01972228903443838
346,8.0,299.81788,408.45699,0.0,0.0,0.0,-0.0035088357106023743,0.0,0.0,-0.013887063781796488,-0.06228320796512404,-0.04799045404203905,-0.03812041825519236,0.01003175800085743,-0.014001705937860787
347,8.0,300.0563,323.39628,0.0,0.0,0.0,-0.0035189768542746355,0.0,0.0,-0.045797126266074455,-0.03258470770561027,-0.01992255994320358,-0.03104122180178007,0.013779672443447785,-0.01108546981180069
348,8.0,300.64297,382.41024,0.0,0.0,0.0,-0.0035291179979468974,0.0,0.0,-0.04055265013973496,-0.042461312392855256,-0.03322920063046676,-0.046686769986375456,0.003993800756282446,0.03005493226044087
349,8.0,301.03172,166.68769,0.0,0.0,0.0,-0.003539259141619158,0.0,0.0,-0.034411972538447265,-0.015557838216189087,-0.0006990862424269403,-0.04245069859805776,-0.007329814949046413,0.012667458206180787
350,8.0,300.553,209.30248,0.0,0.0,0.0,-0.0035494002852914193,0.0,0.0,-0.02089815969598778,-0.0017112730276394985,-0.04101329390019696,-0.036188405653517566,0.01792223199328658,0.022963468388067877
351,8.0,299.92196,364.17362,0.0,0.0,0.0,-0.0035595414289636804,0.0,0.0,-0.012803602542617186,-0.02550512317740968,-0.07239096033143153,-0.029406397480935473,0.017334682710799985,0.009378619722172701
352,8.0,299.17462,435.86713,0.0,0.0,0.0,-0.003569682572635942,0.0,0.0,-0.032494205219928365,-0.053726224744365544,-0.04627229192696966,-0.06105337160324865,-0.01050503050526579,-0.024289690165705775
353,8.0,298.74631,506.00114,0.0,0.0,0.0,-0.003579823716308203,0.0,0.0,-0.07704262131451473,-0.04918078682226575,-0.027588304588003675,-0.055507816315694944,-0.013119896667332988,-0.0043312817379392255
354,8.0,300.09301,349.31061,0.0,0.0,0.0,-0.003589964859980464,0.0,0.0,-0.06461500346000434,-0.026123798489718176,-0.015442902217595787,-0.03895369081942997,0.016453582715342183,-0.004595030232344176
355,8.0,300.04062999999996,158.63236,0.0,0.0,0.0,-0.0036001060036527257,0.0,0.0,-0.03856550761336926,-0.021301110009005877,0.01164634021915429,-0.014405486102710788,0.00022726297950410976,0.017132608216856783
356,8.0,299.54899,209.77451000000002,0.0,0.0,0.0,-0.0036102471473249864,0.0,0.0,-0.01768785001990488,-0.002390401779339288,-0.04368796208316616,-0.016843647526838586,-0.04487322861289286,0.013375296487538987
357,8.0,299.97344,285.53801,0.0,0.0,0.0,-0.0036203882909972476,0.0,0.0,0.003968315489767247,-0.044736465180645356,-0.04602827597163716,-0.037417236871293766,-0.04522405936726716,0.0011162081651861688
358,8.0,300.2773,180.49056000000002,0.0,0.0,0.0,-0.003630529434669509,0.0,0.0,-0.009484166742689381,0.0049367982751740555,-0.05031725522717645,-0.02629408124852377,-0.03894499814682206,0.0049786034544249055
359,8.0,300.31517,373.03325,0.0,0.0,0.0,-0.0036406705783417702,0.0,0.0,-0.04501156460929555,-0.027629726252091674,-0.04075150148511006,-0.05278819427878915,-0.010557801583723889,0.01212473612136829
360,8.0,300.54623,487.36869,0.0,0.0,0.0,-0.0036508117220140314,0.0,0.0,-0.06069277311791034,-0.04591142695685505,-0.041543712089045164,-0.04885909815401755,-0.006817478309557723,-0.00015271654844694986
361,8.0,300.24679,490.45992,0.0,0.0,0.0,-0.0036609528656862925,0.0,0.0,-0.07391923735126073,-0.028717483671694976,-0.046450847872841754,-0.05351785695405124,0.017574455174713684,0.02019649920048928
362,8.0,299.8582,550.49158,0.0,0.0,0.0,-0.0036710940093585536,0.0,0.0,-0.03789281188522936,-0.07204849699638304,-0.057394384650384746,-0.01129928686115279,0.030715490265632868,0.0011082660069273388
363,8.0,300.21259,402.65328999999997,0.0,0.0,0.0,-0.003681235153030815,0.0,0.0,-0.03719010166262726,-0.023331479811137774,-0.06187496443358354,-0.05323363219500045,0.0038283020578239965,-0.0036902628423755865
364,8.0,299.78735,198.43796,0.0,0.0,0.0,-0.0036913762967030763,0.0,0.0,-0.01062027351863939,-0.024732896905196877,-0.024967013407052374,-0.04317977561476205,-0.048301071939694656,-0.013678615944724288
365,8.0,299.46702999999997,210.29842999999997,0.0,0.0,0.0,-0.0037015174403753374,0.0,0.0,-0.031711066244138573,-0.03781175390372956,0.005597348883640324,-0.049863662674160356,-0.02978384530218667,-0.030174847370025574
366,8.0,299.67179,323.97821,0.0,0.0,0.0,-0.003711658584047598,0.0,0.0,-0.043128089727161055,-0.0014895480678819488,-0.05386364678917805,-0.005847701401123194,-0.014278054703884288,0.01800361320156828
367,8.0,300.38563,248.11912999999998,0.0,0.0,0.0,-0.0037217997277198597,0.0,0.0,-0.04858356809407486,-0.027148313904329972,0.00030985999671330066,-0.014615781094715287,-0.002073450561933638,0.01127950619270059
368,8.0,300.58038,343.82511,0.0,0.0,0.0,-0.0037319408713921212,0.0,0.0,-0.026084855235374776,-0.024498725687835978,-0.053930669230292654,-0.00903900280930512,-0.04371497735733236,0.03819546665034907
369,8.0,299.30161,366.74482,0.0,0.0,0.0,-0.003742082015064382,0.0,0.0,-0.036498269693098766,-0.03800385295043826,-0.03697914704480767,-0.034235329608763965,-0.022476508496008678,0.004217446534254566
370,8.0,299.97626,418.70625,0.0,0.0,0.0,-0.0037522231587366435,0.0,0.0,-0.030369994273035075,-0.041152827558217864,-0.055753422060434356,-0.024867544671235576,-0.01044560541340099,0.02113826855893468
371,8.0,300.52737,500.69763,0.0,0.0,0.0,-0.0037623643024089046,0.0,0.0,-0.054494838779971855,-0.039695123407853666,-0.05800961491235324,-0.04277021080509116,0.008564717156121773,-0.02952290199068357
372,8.0,300.30998,407.94011,0.0,0.0,0.0,-0.0037725054460811657,0.0,0.0,-0.049120150896531455,-0.03242263328586477,-0.042460821979806856,-0.05423683896000925,-0.01761447146091298,0.017267693706938682
373,8.0,300.13675,285.92643,0.0,0.0,0.0,-0.003782646589753427,0.0,0.0,-0.05610220807610685,-0.05181368579636265,0.02100139772217658,-0.05578609430990886,0.02051463237413658,-0.035159468415469367
374,8.0,299.68902,217.0072,0.0,0.0,0.0,-0.0037927877334256884,0.0,0.0,-0.030212525074994074,-0.0029421826240208174,-0.03281006364710117,-0.03775980457110256,0.012124510166595989,0.02679777395273437
375,8.0,299.73536,335.14681,0.0,0.0,0.0,-0.0038029288770979495,0.0,0.0,-0.04119222981485656,-0.03762144830969786,-0.02306258552609998,-0.04984632393844916,-0.007276223543307354,-0.03332941917135757
376,8.0,301.1141,516.0434,0.0,0.0,0.0,-0.00381307002077021,0.0,0.0,-0.03494542338484476,-0.05685914237781045,-0.06505974122039654,-0.05113450729408295,-0.04619186216053186,0.02537028796010248
377,8.0,300.7862,189.83536,0.0,0.0,0.0,-0.0038232111644424713,0.0,0.0,-0.018478965300481882,-0.013909156686976886,-0.025317087263601976,-0.04446331119218716,0.001078154037805519,-0.035795647623255364
378,8.0,299.7428,226.18608999999998,0.0,0.0,0.0,-0.0038333523081147333,0.0,0.0,-0.002022962335950838,-0.04809008692437205,-0.018641874638309783,-0.04533037868701005,0.003614199474593716,0.02984832549880037
379,8.0,299.76549,436.02300999999994,0.0,0.0,0.0,-0.003843493451786994,0.0,0.0,-0.05766751736059084,-0.027873567928406975,-0.04699902326969246,-0.025130204428408076,0.03494417100772117,0.002217803237430138
380,8.0,299.31237000000004,567.93193,0.0,0.0,0.0,-0.003853634595459255,0.0,0.0,-0.04118389785928426,-0.05623844968455285,-0.07521477690262053,-0.05902860406091964,-0.032602070759323865,0.03434663411899887
381,8.0,299.31717000000003,451.97105999999997,0.0,0.0,0.0,-0.0038637757391315163,0.0,0.0,-0.046158982194786854,-0.06486859361553174,-0.026360341725563174,-0.016503894635807585,8.259219109896463e-05,-0.015265952273132185
382,8.0,298.95057,359.55913,0.0,0.0,0.0,-0.003873916882803778,0.0,0.0,-0.03980287343673776,-0.007084708939256333,-0.062409414344579646,-0.03709416511665906,-0.028086462920168077,0.03439767557953627
383,8.0,299.51632,428.88699,0.0,0.0,0.0,-0.003884058026476039,0.0,0.0,-0.058618284379924245,-0.055961960076765446,-0.015790691195169883,-0.02233250235204638,-0.005352306911256564,-0.004817190484344686
384,8.0,300.9686,610.53955,0.0,0.0,0.0,-0.0038941991701483,0.0,0.0,-0.08589217746189792,-0.027433225646948577,-0.07226337491858983,-0.04702177782718816,-0.03790596184502717,0.02782486910210077
385,8.0,300.65214,486.49682,0.0,0.0,0.0,-0.0039043403138205616,0.0,0.0,-0.08022435328477721,-0.03026043761922267,-0.03739809455040456,-0.04751579399294375,0.016861001461301286,0.0054503324749559335
386,8.0,300.71882,188.47202,0.0,0.0,0.0,-0.003914481457492822,0.0,0.0,-0.01881671398281508,-0.0060058877775849735,-0.032468186983860566,-0.03310403992511437,0.013365426418314886,0.023236344745998682
387,8.0,300.18149,209.66529,0.0,0.0,0.0,-0.003924622601165084,0.0,0.0,-0.023258379895923376,-0.027239686771847772,-0.013234945136687387,-0.04802797367999195,0.006529261649087953,0.004705304469877396
388,8.0,300.22486000000004,423.75631,0.0,0.0,0.0,-0.003934763744837345,0.0,0.0,-0.03684331478940207,-0.04784569505325245,-0.04412232821553475,-0.047196014287883954,-0.04285768063322376,-0.01093641464259009
389,8.0,299.87744,599.8222099999999,0.0,0.0,0.0,-0.003944904888509606,0.0,0.0,-0.07047117867171383,-0.06632098732212184,-0.045538808285580455,-0.04300346705761176,-0.013852596053144787,-0.018437145429104584
390,8.0,299.95779,197.36302,0.0,0.0,0.0,-0.003955046032181867,0.0,0.0,-0.024517394820928476,-0.028007842818408873,-0.007468190664853032,-0.025329276662304976,-0.002384818365988248,0.006720026448064973
391,8.0,299.32207,-31.456153999999998,0.0,0.0,0.0,-0.003965187175854129,0.0,0.0,0.02402897483547518,-0.028691701522900473,0.014224611840609885,-0.06095210130875404,-0.0013148045768361088,-0.004501017645665855
392,8.0,300.15738999999996,350.94041,0.0,0.0,0.0,-0.00397532831952639,0.0,0.0,-0.02788940908047037,-0.03302349464816517,-0.04576421792932665,-0.06237881115180934,-0.037099036823139864,0.009193134361516721
393,8.0,299.78989,539.7251200000001,0.0,0.0,0.0,-0.003985469463198651,0.0,0.0,-0.050366366446273354,-0.06201962108411004,-0.05167697201337005,-0.06923092711206053,-0.01038547611271669,-0.018791030119280284
394,8.0,299.73805,373.55892,0.0,0.0,0.0,-0.003995610606870911,0.0,0.0,-0.030748659007656373,-0.05185261081220425,-0.03095131409390687,-0.032449022371469176,-0.012718547289472887,-0.0012094511884135387
395,8.0,299.72373,154.44887,0.0,0.0,0.0,-0.004005751750543174,0.0,0.0,-0.007092578244832972,-0.02365955296826608,-0.016196469489217085,-0.05342927761705915,-0.03167634013671137,-0.0018452949090914281
396,8.0,299.99332999999996,291.72795,0.0,0.0,0.0,-0.004015892894215434,0.0,0.0,-0.03738824778593276,-0.03716527298217687,-0.014124492598228885,-0.032930824820519365,-0.04668962025890676,-0.007531084719760193
397,8.0,299.89727999999997,510.46483,0.0,0.0,0.0,-0.004026034037887695,0.0,0.0,-0.05170666226780025,-0.03778255102259746,-0.06567934872279703,-0.03363418656293577,9.283137922849382e-05,-0.004341411199188926
398,8.0,301.22395,543.84635,0.0,0.0,0.0,-0.0040361751815599575,0.0,0.0,-0.07711434016984282,-0.01786393870178348,-0.07033743371151423,-0.015456745240461985,0.01853227745449338,0.030261868328363868
399,8.0,301.13972,200.62473,0.0,0.0,0.0,-0.004046316325232218,0.0,0.0,-0.005615225553829615,-0.03428348229326627,-0.02108619966279588,-0.05009309289430336,-0.002020321096915168,-0.008022962117204711
400,8.0,300.33136,24.853887,0.0,0.0,0.0,-0.004056457468904479,0.0,0.0,-0.004597599327972725,0.006684653279123914,-0.009642014997592792,-0.04327190943310496,-0.014329822664743386,-0.004559857382947886
401,8.0,299.96263,545.4257,0.0,0.0,0.0,-0.004066598612576741,0.0,0.0,-0.07146065589786764,-0.07143072752966394,-0.02290440907948918,-0.061199209703391745,-0.004088926803495656,-0.010283660689668291
402,8.0,298.58256,724.20588,0.0,0.0,0.0,-0.004076739756249002,0.0,0.0,-0.09325026593908471,-0.06922797044826873,-0.05766226872507285,-0.029627043835961573,0.017516414182485483,0.02219464156994058
403,8.0,299.25396,518.52925,0.0,0.0,0.0,-0.004086880899921263,0.0,0.0,-0.04601607745368325,-0.05465704086922995,-0.05694682498846404,-0.049695694178583154,0.0023349499450916176,-0.0008830131028391082
404,8.0,298.79367,304.39726,0.0,0.0,0.0,-0.004097022043593523,0.0,0.0,-0.03148096221267907,-0.03524917955282317,-0.025799023461665373,-0.027035635426959474,-0.030087897339194265,0.018022032061886087
405,8.0,298.99919,342.66367,0.0,0.0,0.0,-0.004107163187265786,0.0,0.0,-0.046300044847208656,-0.00916228190922182,-0.048698870889204354,-0.041668363129597256,-0.01925451807277298,-0.006002766359326915
406,8.0,299.72686,591.01093,0.0,0.0,0.0,-0.0041173043309380465,0.0,0.0,-0.05676182274545574,-0.05841900848275724,-0.06447173293561465,-0.02282776582867508,-0.007371413323951853,0.010473996681202991
407,8.0,300.23676,445.45652,0.0,0.0,0.0,-0.004127445474610307,0.0,0.0,-0.05536092747519815,-0.029487456475685368,-0.05055927507981195,-0.048904393473237856,-0.006568063149742363,-0.0005772434549244934
408,8.0,300.07532000000003,203.0668,0.0,0.0,0.0,-0.004137586618282569,0.0,0.0,0.009081670264391072,-0.01977306401019948,-0.051035841052345356,-0.07194791064570594,-0.014412952742697684,0.0028292497195502074
409,8.0,300.82844,71.766787,0.0,0.0,0.0,-0.0041477277619548295,0.0,0.0,0.008123257361128082,-0.03588041815312157,0.005941849459339885,-0.045775918941481454,0.012635216587998788,-0.014801408513035286
410,8.0,299.86981000000003,283.93359,0.0,0.0,0.0,-0.004157868905627091,0.0,0.0,-0.02662243608917987,-0.03192019295877777,-0.027766091477049875,-0.053880553880346654,0.03538975888494726,0.0037599641141045663
411,8.0,300.2314,630.64702,0.0,0.0,0.0,-0.0041680100492993526,0.0,0.0,-0.06473884896672694,-0.07553795910151613,-0.05142413774241725,-0.028861190906877773,0.00998293636863911,0.008281278679148572
412,8.0,299.41042000000004,611.0831599999999,0.0,0.0,0.0,-0.004178151192971613,0.0,0.0,-0.05809291825607465,-0.08980985628454273,-0.037851246339627165,-0.06089965953657845,-0.02241487147917558,-0.03481253867398007
413,8.0,299.03667,324.26279,0.0,0.0,0.0,-0.004188292336643875,0.0,0.0,-0.05098060777614425,-0.03636965785790576,-0.011217525684083591,-0.02568519798518168,-0.015196118062990087,0.017334580372539883
414,8.0,299.12548,281.01317,0.0,0.0,0.0,-0.0041984334803161355,0.0,0.0,-0.012953715544932187,-0.03961927555836806,-0.03284799770434497,-0.035137509259302174,-0.023100054501547874,0.007795052380161773
415,8.0,299.45445,418.53474,0.0,0.0,0.0,-0.004208574623988397,0.0,0.0,-0.03441234440123397,-0.007045068062219083,-0.0857666985960141,-0.01071012448450699,-0.03135936916092877,0.044528654677886054
416,8.0,299.7102,379.83896,0.0,0.0,0.0,-0.004218715767660659,0.0,0.0,-0.05397814709022835,-0.005368315756211515,-0.05611509763062895,-0.047598472161353454,-0.044643109382681866,0.016237166679483585
417,8.0,300.61458999999996,295.28779,0.0,0.0,0.0,-0.004228856911332919,0.0,0.0,-0.04300372847613756,-0.01234285644389509,-0.034413530917101066,-0.015065769517125686,-0.027589217526343773,0.008192899357726212
418,8.0,300.21952000000005,180.2639,0.0,0.0,0.0,-0.004238998055005181,0.0,0.0,-0.044729871962244656,-0.008286114111275791,-0.001779739856771648,-0.04259507863130696,0.02322268613465068,-0.004006464558682267
419,8.0,300.38747,298.75272,0.0,0.0,0.0,-0.0042491391986774416,0.0,0.0,-0.029690289893953472,-0.03724617390991117,-0.023876903220716877,-0.034970880280357164,0.008866003830956452,6.759581300168734e-05
420,8.0,300.84572000000003,560.92068,0.0,0.0,0.0,-0.004259280342349703,0.0,0.0,-0.05006417980269986,-0.07972151069740052,-0.04072019003051986,-0.05710284219911175,-0.00972929838770699,-0.02021336576165388
421,8.0,300.19164,545.98013,0.0,0.0,0.0,-0.004269421486021965,0.0,0.0,-0.04883965489784866,-0.04678775555759196,-0.07033691594071313,-0.04864383013052225,-0.012773568796403088,0.022234906102414378
422,8.0,300.14417000000003,158.30483,0.0,0.0,0.0,-0.004279562629694225,0.0,0.0,-0.023313098441073682,-0.03117857697208597,0.006370959863439784,-0.04186237012624426,0.009027873776831771,0.0025189703487530175
423,8.0,299.84153,154.35245,0.0,0.0,0.0,-0.004289703773366487,0.0,0.0,-0.015843592982890887,-0.01042368678723779,-0.02065201084919478,-0.05090177691836425,-0.032437785427860175,0.019070079196820282
424,8.0,299.72533,463.47303,0.0,0.0,0.0,-0.004299844917038748,0.0,0.0,-0.05828522501905385,-0.04781881960760005,-0.03478018458503696,-0.05057390945100625,-0.033894970794173175,-0.018324398050727282
425,8.0,300.01793,438.86884000000003,0.0,0.0,0.0,-0.004309986060711009,0.0,0.0,-0.05094179523106375,-0.026539604920005077,-0.05592377068049645,-0.053171332512601956,-0.01004174925479349,0.012185153185080988
426,8.0,300.60066,189.26081000000002,0.0,0.0,0.0,-0.004320127204383271,0.0,0.0,-0.014472940188367988,-0.006070254388862464,-0.03698736652961886,-0.036485366966325365,0.01875519652949378,-0.022302904303375278
427,8.0,299.42284,99.620891,0.0,0.0,0.0,-0.004330268348055531,0.0,0.0,0.0012933138461901387,-0.01104026467183929,-0.020535312808677583,-0.04178839476294346,-0.024924577479614275,0.02194339100889408
428,8.0,300.01061,263.70315,0.0,0.0,0.0,-0.004340409491727793,0.0,0.0,-0.03037205927673887,-0.034208116750828264,-0.015578996904777287,-0.03930086374094326,-0.044243448079488365,-0.03161919384432147
429,8.0,300.15252999999996,732.6216599999999,0.0,0.0,0.0,-0.004350550635400054,0.0,0.0,-0.08193782810488402,-0.06870418398132504,-0.07205668000419063,-0.04068765355655876,-0.035810726811243566,0.015431162701937185
430,8.0,300.34827,736.99973,0.0,0.0,0.0,-0.004360691779072315,0.0,0.0,-0.08962959605200241,-0.08507833903457833,-0.04932158096341105,-0.032703193119303864,0.008085630825289632,-0.03192184962269127
431,8.0,300.09299,203.51693,0.0,0.0,0.0,-0.004370832922744577,0.0,0.0,0.006690393138290395,-0.02147930523784238,-0.04707515178945575,-0.03968302621490976,0.0067497117375696835,0.02459426706626518
432,8.0,300.57671,-111.88878000000001,0.0,0.0,0.0,-0.0043809740664168375,0.0,0.0,0.03639649378680426,-0.0009925493599269952,-0.0013925503450840186,-0.04097166755958876,-0.005030367666258636,-0.017522539279339985
433,8.0,300.36207,259.801,0.0,0.0,0.0,-0.004391115210089099,0.0,0.0,-0.02337727668915758,-0.01027399631021449,-0.045321743769657856,-0.05060694748376686,-0.009994519641132292,0.054479973387754746
434,8.0,301.36726,522.4147,0.0,0.0,0.0,-0.00440125635376136,0.0,0.0,-0.06704846948316873,-0.022870283829371275,-0.06888227079240083,-0.04609701789817146,0.01867938211726148,0.019733511792545982
435,8.0,301.22064,173.88072,0.0,0.0,0.0,-0.004411397497433621,0.0,0.0,-0.02147109588553218,-0.0030487064176338975,-0.02833559376200537,-0.03910660748477166,-0.012087629889456188,0.0013531874025491989
436,8.0,299.85536,201.67817,0.0,0.0,0.0,-0.004421538641105883,0.0,0.0,-0.03219073174872787,-0.019102232662243583,-0.010012161642598421,-0.04255820038066736,-0.022054611419370682,-0.01834824387858068
437,8.0,299.84601000000004,596.17296,0.0,0.0,0.0,-0.0044316797847781435,0.0,0.0,-0.054244684555533544,-0.04760194456944616,-0.07937506326295883,-0.04467405404073586,-0.014003370707775088,-0.02095571635466818
438,8.0,299.99307999999996,695.43204,0.0,0.0,0.0,-0.004441820928450405,0.0,0.0,-0.07108736240202643,-0.05922659617020994,-0.08108001563647452,-0.03731398060660317,0.017763052429076782,0.0038723969796508268
439,8.0,299.86221,429.77668,0.0,0.0,0.0,-0.004451962072122666,0.0,0.0,-0.04499498682440946,-0.025102902404463577,-0.060543488954177146,-0.045901720020897055,-0.01021552468669379,0.002234285168856778
440,8.0,299.78869,61.064727000000005,0.0,0.0,0.0,-0.004462103215794927,0.0,0.0,0.006483968862992904,-0.016174151642514484,-0.008871969036945173,-0.050304333248651155,-0.023382159541389478,0.015605085055101985
441,8.0,299.93717999999996,-116.6056,0.0,0.0,0.0,-0.004472244359467189,0.0,0.0,0.012705735755208487,0.004662501644578086,0.018076954270306485,-0.050375528253677554,-0.026942166144984774,-0.01732517234536138
442,8.0,299.28193999999996,252.55692000000002,0.0,0.0,0.0,-0.0044823855031394496,0.0,0.0,-0.04398920437764646,-0.016475612799016385,-0.016306180157044686,-0.051368855830211356,0.02050635006781918,0.001226322511853609
443,8.0,300.65242,529.27626,0.0,0.0,0.0,-0.004492526646811711,0.0,0.0,-0.03247430498796437,-0.07265775110926173,-0.05575470990131145,-0.06510060154392915,0.013270467658693186,-0.018374729222944582
444,8.0,300.9628,280.601,0.0,0.0,0.0,-0.004502667790483972,0.0,0.0,-0.033418604431909464,-0.03186221782780607,-0.02001487412006428,-0.08146815121978052,-0.007538093776001932,-0.0009465155739013142
445,8.0,300.8223,120.79223,0.0,0.0,0.0,-0.004512808934156233,0.0,0.0,-0.005996135042722454,-0.01792477423778748,-0.012796913065456987,-0.043301221745247864,-0.02071522245668328,0.0002552506495262777
446,8.0,300.72134,549.52889,0.0,0.0,0.0,-0.004522950077828495,0.0,0.0,-0.06585310490294544,-0.043355316128336555,-0.057834638779084444,-0.03947546497167506,-0.024864388397174076,-0.007740823032159753
447,8.0,301.1844,840.65889,0.0,0.0,0.0,-0.004533091221500756,0.0,0.0,-0.1117547681818369,-0.04873479769800005,-0.09504974238792921,0.0006626085396843714,-0.020446580470920378,-0.0012663591643799189
448,8.0,300.69513,567.4285,0.0,0.0,0.0,-0.004543232365173017,0.0,0.0,-0.06906325245901235,-0.06107842117222084,-0.04234242167912166,-0.017217223719457685,-0.042014646417522755,-0.025063787910853275
449,8.0,300.55916,191.41866000000002,0.0,0.0,0.0,-0.004553373508845278,0.0,0.0,-0.013567588051766687,-0.007107847518539932,-0.037511057751053165,-0.003176336616130017,-0.018819555136095484,-0.008565557748404732
450,8.0,299.70183,106.71461000000001,0.0,0.0,0.0,-0.004563514652517539,0.0,0.0,-0.004388969105882526,-6.638772402670824e-05,-0.02798321982772877,-0.027061174395729973,0.007084072922168563,0.025295699580491177
451,8.0,299.35762,133.44462,0.0,0.0,0.0,-0.004573655796189801,0.0,0.0,-0.006844176335117614,-0.020605414516846082,-0.013114241718524886,-0.035369332776181366,0.0037679453838172566,0.025741357371974177
452,8.0,299.27029,412.89336000000003,0.0,0.0,0.0,-0.004583796939862062,0.0,0.0,-0.03617017931071877,-0.04206027914902636,-0.047278813033055554,-0.06663545759665764,-0.024436521250946877,0.013605058040464687
453,8.0,299.11615,365.53655,0.0,0.0,0.0,-0.004593938083534322,0.0,0.0,-0.04173294161147066,-0.05388247601578635,-0.015498565111839287,-0.05436845812149904,-0.017548258606628283,-0.004821969883741375
454,8.0,299.89783,146.58157,0.0,0.0,0.0,-0.004604079227206583,0.0,0.0,-0.019461955699495482,-0.025350743378923575,0.00025556173757197974,-0.04648456984941986,-0.0009673434363318642,-0.007967432870649403
455,8.0,300.41136,381.02268,0.0,0.0,0.0,-0.0046142203708788455,0.0,0.0,-0.027576182063807273,-0.03399845605338637,-0.054246742466486655,-0.04290411788530676,-0.011747669282154687,-0.02144737975369158
456,8.0,300.78322000000003,697.77142,0.0,0.0,0.0,-0.004624361514551106,0.0,0.0,-0.11146945721867889,-0.048639128650058254,-0.05199650043240504,-0.046207513834826554,-0.025832390800708475,0.0036014608943365166
457,8.0,300.14123,501.62501,0.0,0.0,0.0,-0.004634502658223367,0.0,0.0,-0.05509263911372015,-0.02347443724124658,-0.07391440009528333,-0.05083527427455095,-0.01015722632894019,0.013497676834616988
458,8.0,301.00338999999997,197.89655,0.0,0.0,0.0,-0.004644643801895629,0.0,0.0,-0.05731485262353554,0.004716638280195955,-0.007557394974506812,-0.04144316322862176,-0.003010719266084857,0.019602874470403084
459,8.0,301.14292,235.44419,0.0,0.0,0.0,-0.00465478494556789,0.0,0.0,-0.011947200518346888,-0.034878425261732564,-0.024743528938496177,-0.043591811741426865,0.014597644931175383,-0.008838292453971552
460,8.0,301.23167,433.67539000000005,0.0,0.0,0.0,-0.004664926089240151,0.0,0.0,-0.06496328285062684,-0.03394050422716697,-0.032922701594467675,-0.05143065294056025,-0.022505468197116775,0.005301995396091205
461,8.0,300.03951,563.2370099999999,0.0,0.0,0.0,-0.004675067232912413,0.0,0.0,-0.02787268032131937,-0.08917270536991082,-0.054164601320629946,-0.037939001904287964,-0.029305820249509274,-0.01007133038218792
462,8.0,299.68396,384.7557,0.0,0.0,0.0,-0.004685208376584674,0.0,0.0,-0.06026426863737024,-0.02036655397802238,-0.036325302834778264,-0.04371667657775005,-0.03143955878709287,0.02126729886641898
463,8.0,299.77501,170.70217,0.0,0.0,0.0,-0.0046953495202569345,0.0,0.0,-0.007806395816356284,-0.026467921528430475,-0.017614880813953383,-0.03586903631474826,-0.03701124680797567,0.01948289045981158
464,8.0,299.77492,259.58079,0.0,0.0,0.0,-0.004705490663929195,0.0,0.0,-0.013778586239340586,-0.05186156996958845,-0.013265921205494488,-0.04438916053661906,-0.024904221285105277,-0.002962990424099387
465,8.0,299.47121,586.96747,0.0,0.0,0.0,-0.004715631807601458,0.0,0.0,-0.06183744884863104,-0.05532277050293235,-0.06126323596396065,-0.05250340209968236,0.020054071700182783,0.005571543126118494
466,8.0,299.38567,571.63265,0.0,0.0,0.0,-0.004725772951273718,0.0,0.0,-0.06231048769756634,-0.050426139082922455,-0.06102542616549065,-0.029562538308095375,0.02010752469595818,0.015104382451936484
467,8.0,300.6197,229.71471,0.0,0.0,0.0,-0.004735914094945979,0.0,0.0,-0.023243707021225277,-0.017362948335589583,-0.029220879493626273,-0.06130057726989594,0.003867080760351156,-0.0034019219574435568
468,8.0,301.35918,257.76675,0.0,0.0,0.0,-0.0047460552386182405,0.0,0.0,-0.03310025442274077,-0.002324254684986078,-0.04293014828037576,-0.024804005783964772,-0.026591326271359576,0.022871567617247977
469,8.0,300.42467999999997,430.23285999999996,0.0,0.0,0.0,-0.004756196382290502,0.0,0.0,-0.04272118571225276,-0.04154571731099306,-0.04651314350223986,-0.035514498078258065,-0.027000703629761976,0.003034350284917057
470,8.0,300.52763,583.37555,0.0,0.0,0.0,-0.004766337525962763,0.0,0.0,-0.08088346234232621,-0.040793241309729465,-0.05565489564721054,-0.04079526780992946,-0.02064057733506638,0.02468567742403668
471,8.0,301.37669,427.37482,0.0,0.0,0.0,-0.004776478669635024,0.0,0.0,-0.029021073666656974,-0.05773639202288824,-0.04315380905444936,-0.06218531888621314,-0.028258425647639477,-0.00972050439008909
472,8.0,300.56257999999997,199.22763999999998,0.0,0.0,0.0,-0.004786619813307285,0.0,0.0,-0.015161572314080687,-0.038689473696853764,-0.006709181429594654,-0.06049357422775094,0.005274260714354005,-0.003814419923503937
473,8.0,299.88809,201.39385,0.0,0.0,0.0,-0.004796760956979547,0.0,0.0,-0.003736932939331566,-0.02010875984783008,-0.037373009517678864,-0.04899213789214755,0.01863505951813718,0.004537180744384876
474,8.0,298.99248,354.25307999999995,0.0,0.0,0.0,-0.004806902100651808,0.0,0.0,-0.05319849572128275,-0.029589423886248772,-0.024896169999810678,-0.03251899337037477,0.008612349941997761,0.02329240280778118
475,8.0,298.87724,443.2698,0.0,0.0,0.0,-0.004817043244324069,0.0,0.0,-0.061415318724470036,-0.02923292197106477,-0.04409470904430896,-0.05834422657237685,-0.0046844228038665356,0.002872286098997567
476,8.0,299.96131,352.89087,0.0,0.0,0.0,-0.00482718438799633,0.0,0.0,-0.06231536953654814,-0.013510988914430788,-0.03144365434399707,-0.05974731248935065,-0.02955096901845357,0.023453211678151776
477,8.0,300.79107999999997,318.35112000000004,0.0,0.0,0.0,-0.004837325531668591,0.0,0.0,-0.027661556490733073,-0.06277948570510283,-0.006329750069947694,-0.039452784381436665,0.013989900560945687,-0.03710988569196057
478,8.0,299.70102,554.12136,0.0,0.0,0.0,-0.004847466675340853,0.0,0.0,-0.05234086766439145,-0.027367898373251272,-0.08873029301849811,-0.04181847613191226,-0.006915511472632843,0.03327530148351657
479,8.0,300.19507999999996,617.2008400000001,0.0,0.0,0.0,-0.004857607819013113,0.0,0.0,-0.07278469310828993,-0.06598223856193994,-0.048846713198045254,-0.045235500987396364,-0.014823547014470187,-0.012143004007421188
480,8.0,300.10652000000005,335.70426000000003,0.0,0.0,0.0,-0.004867748962685376,0.0,0.0,-0.023853739310180776,-0.04006032812814656,-0.03813164506630037,-0.062023706508513236,-0.050771886361545046,0.008024510464682522
481,8.0,301.39812,156.82297,0.0,0.0,0.0,-0.004877890106357637,0.0,0.0,-0.018347969287803585,-0.015019959466854587,-0.014302337242530789,-0.03550372520319487,-0.03146303072565937,-0.025073361097798078
482,8.0,300.46847,387.33817999999997,0.0,0.0,0.0,-0.004888031250029897,0.0,0.0,-0.04189796256250696,-0.062176781240870546,-0.013666390069017686,-0.043714870966071864,-0.01998167700703798,0.01039008133442119
483,8.0,301.2337,442.8807,0.0,0.0,0.0,-0.004898172393702159,0.0,0.0,-0.04255795821389346,-0.04398379058236216,-0.048082924259415155,-0.029299498582135375,0.0022318973436711177,-0.016788399051885984
484,8.0,300.57223999999997,410.01837,0.0,0.0,0.0,-0.004908313537374419,0.0,0.0,-0.017964371038445382,-0.05502837169962745,-0.05164260459647825,-0.03354406607254157,-0.006710588124708483,0.0023606775810307377
485,8.0,300.7544,387.43727,0.0,0.0,0.0,-0.004918454681046681,0.0,0.0,-0.01058356954701699,-0.05293058530209204,-0.05425710092225895,-0.04419853779530605,0.03087272337640057,0.003735209198261446
486,8.0,300.78812,303.31837,0.0,0.0,0.0,-0.004928595824718943,0.0,0.0,-0.053883626054649844,-0.004479848520601626,-0.03383773634902457,-0.053836633541512045,0.00984619370801866,0.00999154848786406
487,8.0,300.72075,461.9345,0.0,0.0,0.0,-0.004938736968391204,0.0,0.0,-0.05954825342770505,-0.041902672148971754,-0.038965628932108164,-0.07982958192656633,-0.01801807329374538,0.008414867801482793
488,8.0,299.7859,652.43966,0.0,0.0,0.0,-0.004948878112063466,0.0,0.0,-0.12677229990145186,-0.03382657438592297,-0.03772649194756486,-0.08099150722698942,-0.025227819929791975,0.009929196825735431
489,8.0,299.82644,446.57837,0.0,0.0,0.0,-0.004959019255735725,0.0,0.0,-0.054673737204377744,-0.032126793640917674,-0.048948142572805546,-0.02835255556867937,-0.004158758683162526,0.016008689927684686
490,8.0,299.75012000000004,102.19035,0.0,0.0,0.0,-0.004969160399407987,0.0,0.0,-0.017161422009950484,-0.02263349538700208,0.008731602183367042,-0.03650596634085836,-0.009183071673448612,-0.003829018324319686
491,8.0,299.36367,175.93383,0.0,0.0,0.0,-0.0049793015430802485,0.0,0.0,0.002933703949834037,-0.009203391796254052,-0.04720980259524475,-0.03395001560585567,-0.023168735633076178,0.013990615915516286
492,8.0,300.43965,284.70395,0.0,0.0,0.0,-0.004989442686752509,0.0,0.0,-0.026436322310811874,-0.027481507014213574,-0.03262506140409287,-0.044679519511775255,-0.04504927777801755,-0.0007847003739288973
493,8.0,300.12746,195.99958999999998,0.0,0.0,0.0,-0.004999583830424771,0.0,0.0,-0.012966956697238987,-0.037968027466652565,-0.008643998504896232,-0.05099377800094405,-0.006299671031454124,-0.02097383123995598
494,8.0,300.2493,266.73287999999997,0.0,0.0,0.0,-0.0050097249740970315,0.0,0.0,-0.04759383958189625,-0.007292397244053572,-0.026193898171386475,-0.05305940890655596,-0.014792093704865988,0.01144923976995199
495,8.0,300.84289,496.73357999999996,0.0,0.0,0.0,-0.005019866117769294,0.0,0.0,-0.05019519101412965,-0.06818873048320373,-0.03261068237192377,-0.06055099409766785,-0.008193863971821412,-0.028883628317092177
496,8.0,301.49638,434.09115999999995,0.0,0.0,0.0,-0.005030007261441555,0.0,0.0,-0.04421362914229546,-0.03156664973388577,-0.05617259349430335,-0.07229817296677413,-0.007159446266632332,-0.0015802212862056986
497,8.0,301.35818,419.66781,0.0,0.0,0.0,-0.005040148405113815,0.0,0.0,-0.015140927343293184,-0.055518285215728144,-0.05690932358901295,-0.03989634879821306,0.01092157154187519,0.00853153493787194
498,8.0,299.89637999999997,549.09428,0.0,0.0,0.0,-0.005050289548786077,0.0,0.0,-0.048806808369356955,-0.06264345890567803,-0.05546068194754315,-0.03113405780244227,0.006146191100381834,0.006255640754983675
499,8.0,300.19012999999995,388.78114,0.0,0.0,0.0,-0.0050604306924583375,0.0,0.0,-0.047338121601158856,-0.03058137242939647,-0.040260265677628866,-0.06740789563814134,-0.032640391878105864,0.0101211000111998
500,8.0,299.17796,134.23515,0.0,0.0,0.0,-0.005070571836130599,0.0,0.0,-0.024903306320264978,-0.03815312596842036,0.02225229854038088,-0.045625859641421754,-0.032675247681545866,-0.046457825113030364
501,8.0,300.38665,337.94905,0.0,0.0,0.0,-0.0050807129798028615,0.0,0.0,-0.06456775864759165,-0.013904224185490088,-0.024256088765889576,-0.048674514383300546,-0.007317719883927722,0.00039061948486614163
502,8.0,299.53086,324.18512999999996,0.0,0.0,0.0,-0.0050908541234751204,0.0,0.0,-0.029722412961873772,-0.03517532881928467,-0.033646441822895265,-0.02145452316689658,0.00013019242428899186,-0.01747313219121388
503,8.0,300.1161,281.81314,0.0,0.0,0.0,-0.005100995267147383,0.0,0.0,-0.013587192414701486,-0.029535256549152872,-0.04254170872203976,-0.06577484855797214,-0.023548167398023182,0.02146271326745488
504,8.0,300.36498,565.87969,0.0,0.0,0.0,-0.0051111364108196436,0.0,0.0,-0.04476238513145346,-0.036826573871249865,-0.0904243357281871,-0.035312210801793864,-0.03123944189234287,0.03336225354084807
505,8.0,301.22688999999997,565.19038,0.0,0.0,0.0,-0.005121277554491905,0.0,0.0,-0.06196595834556395,-0.05807282651984175,-0.05176497785080555,-0.04249553795473306,-0.01946305912885438,0.03887343026575887
506,8.0,300.06503,275.73447000000004,0.0,0.0,0.0,-0.005131418698164167,0.0,0.0,-0.038212758776555666,-0.011881296705342688,-0.03372233830838567,-0.02347218377302418,0.011003647839725489,0.025389433320741974
507,8.0,301.41722000000004,689.62729,0.0,0.0,0.0,-0.005141559841836427,0.0,0.0,-0.11289940642230388,-0.04279053254909675,-0.05393953415541754,-0.027670965531161676,-0.019224333352293982,0.014260820332933386
508,8.0,300.50827000000004,790.94436,0.0,0.0,0.0,-0.005151700985508689,0.0,0.0,-0.08321005783769332,-0.08075647576029363,-0.07646080196134362,-0.061560352304033734,-0.015033557283196587,0.007512350029386222
509,8.0,300.40439,302.46902,0.0,0.0,0.0,-0.005161842129180949,0.0,0.0,-0.017412101097940585,-0.03812492417838707,-0.03640600313899276,-0.06701538585415365,-0.0015449294812476687,-0.012637825707006289
510,8.0,299.95387,220.98985,0.0,0.0,0.0,-0.005171983272853211,0.0,0.0,-0.023853645077921478,-0.018239956827143584,-0.025081793365130275,-0.09518703271022871,-0.008413607318358393,0.013595507145022088
511,8.0,299.5041,372.42966,0.0,0.0,0.0,-0.005182124416525473,0.0,0.0,-0.04244966913595616,-0.041719875751431164,-0.029039773197252473,-0.07047906074424173,-0.01145692020570999,-0.026379631980966975
512,8.0,299.65602,196.39609,0.0,0.0,0.0,-0.005192265560197733,0.0,0.0,-0.04031342685737546,-0.016087361705198984,-0.0032987195976582773,-0.057230580612718546,-0.025834112312628374,-0.0035469268620294267
513,8.0,300.20743,212.12079,0.0,0.0,0.0,-0.005202406703869995,0.0,0.0,-0.0007487159314675093,-0.047602710586521754,-0.016127996073959285,0.0003641291249142467,-0.013472167250099386,-0.02170415860728368
514,8.0,298.79419,399.71663,0.0,0.0,0.0,-0.005212547847542256,0.0,0.0,-0.025402948050575774,-0.03855565071639647,-0.057545274815526445,-0.014016325110303589,-0.02216195412171458,0.01229263166293829
515,8.0,299.91114,439.9426,0.0,0.0,0.0,-0.005222688991214517,0.0,0.0,-0.010072013920705381,-0.030861168272260174,-0.09279838273898731,-0.0042735498883165355,-0.035116017211431066,0.01078152619255379
516,8.0,299.67016,589.7388,0.0,0.0,0.0,-0.005232830134886778,0.0,0.0,-0.03807440454165117,-0.08719182574241321,-0.05399964015134954,-0.045274248684470456,-0.03692665461012706,0.015098048625561385
517,8.0,298.84062,572.77432,0.0,0.0,0.0,-0.005242971278559039,0.0,0.0,-0.05477998255686335,-0.03970037812287226,-0.07962873143874392,-0.03364946434794357,-4.684350559134405e-05,0.04038787540847296
518,8.0,299.8014,438.68315,0.0,0.0,0.0,-0.005253112422231301,0.0,0.0,-0.06485183141912744,-0.03217123783005397,-0.036325654432562964,-0.05227913438879886,0.011382321693597689,0.013470294763914589
519,8.0,300.50047,276.8906,0.0,0.0,0.0,-0.005263253565903562,0.0,0.0,-0.04539036815918056,-0.021932779240596778,-0.016844681041940587,-0.04364833691150546,-0.0011565736173699288,0.00012636419315867486
520,8.0,299.66139,352.43687,0.0,0.0,0.0,-0.005273394709575823,0.0,0.0,-0.04821659930535786,-0.011781182529212189,-0.04713422629678596,-0.06276988921340575,0.006774070877923744,-0.019461907063490682
521,8.0,300.69924,220.88237999999998,0.0,0.0,0.0,-0.005283535853248085,0.0,0.0,-0.02947621851882627,-0.027991233622769677,-0.00967527523610032,-0.04630002762195695,-0.0031038527569764167,-0.00911654025333247
522,8.0,299.642,-38.410674,0.0,0.0,0.0,-0.0052936769969203455,0.0,0.0,0.007679716046453963,0.022056780787834778,-0.018060610546193484,-0.058335588615274346,-0.0006975790531681923,-0.003483996431443677
523,8.0,299.26201000000003,205.98661,0.0,0.0,0.0,-0.005303818140592606,0.0,0.0,-0.02348288268083008,-0.016517452935395683,-0.02261445135137258,-0.05437974978061344,-0.010855980823151888,0.011644230632446089
524,8.0,299.77375,373.93197999999995,0.0,0.0,0.0,-0.005313959284264867,0.0,0.0,-0.05472335707502485,-0.03359766700283157,-0.025344962787103076,-0.05530091976452585,-0.017260671883745683,0.0007935713380243933
525,8.0,300.26456,423.58427,0.0,0.0,0.0,-0.005324100427937129,0.0,0.0,-0.024164996568649476,-0.03555450321870626,-0.06903954139342224,-0.04114172132387176,-0.02681190473862898,0.005903928979647425
526,8.0,300.71252999999996,692.05079,0.0,0.0,0.0,-0.005334241571609391,0.0,0.0,-0.07893376649990623,-0.07291397875479944,-0.05851841237056765,-0.05801767936989915,-0.024580864807192477,-0.007864032116494543
527,8.0,301.40839,844.73821,0.0,0.0,0.0,-0.005344382715281652,0.0,0.0,-0.07103608181446543,-0.08434710784816142,-0.1013961300245189,-0.056024786649215945,-0.03188615687466867,-0.012494302883341687
528,8.0,300.6038,369.35331,0.0,0.0,0.0,-0.005354523858953913,0.0,0.0,-0.06030367089400894,-0.030863945590784272,-0.02110656598980588,-0.053265365161632244,-0.02686259054838127,0.0015678303520578086
529,8.0,300.13867,180.1958,0.0,0.0,0.0,-0.005364665002626174,0.0,0.0,-0.014173515664567087,-0.023355551593763478,-0.017245957465793483,-0.05826076009538935,-0.012074549843915289,-0.016077021487928483
530,8.0,299.59902999999997,268.60359,0.0,0.0,0.0,-0.0053748061462984345,0.0,0.0,-0.06301099207470075,-0.0034564743295774567,-0.015181317518779384,-0.04801902262860855,0.018801329806546783,0.01822015589368938
531,8.0,299.88072,193.34089,0.0,0.0,0.0,-0.005384947289970696,0.0,0.0,0.002554619527021318,-0.02675940622444777,-0.03456601492465007,-0.06782072311313424,-0.0014886520508185185,-0.017189571110978585
532,8.0,299.5691,148.97716,0.0,0.0,0.0,-0.005395088433642958,0.0,0.0,-0.011307913672504189,-0.02100622383240288,-0.012971198162157587,-0.05992675097605985,-0.0014390793976260783,-0.04007728790832036
533,8.0,300.09968,376.71389,0.0,0.0,0.0,-0.005405229577315219,0.0,0.0,-0.035744918243748765,-0.01919883694002768,-0.059567861843640234,-0.07230326252202643,-0.014034148179562587,-0.004634784086767576
534,8.0,299.98541,460.92164,0.0,0.0,0.0,-0.00541537072098748,0.0,0.0,-0.05681763560071404,-0.04264741097247176,-0.04064362277346326,-0.05302591896425075,0.0043799963709469855,0.007637986556985582
535,8.0,300.65353999999996,659.51754,0.0,0.0,0.0,-0.005425511864659741,0.0,0.0,-0.07327692088761903,-0.058142593855477244,-0.06905734825067963,-0.05628688101283265,-0.022827738470922378,0.027172469786713976
536,8.0,301.19441,854.10918,0.0,0.0,0.0,-0.005435653008332002,0.0,0.0,-0.09355157105507121,-0.06712908467437484,-0.09894720889757921,-0.024227748160592578,0.008686265928842701,0.03271097690657207
537,8.0,300.84252000000004,510.13694000000004,0.0,0.0,0.0,-0.005445794152004263,0.0,0.0,-0.04177930286979616,-0.044898529467889865,-0.06839106031617213,-0.024626773142723275,-0.011734548706609789,0.02577702174899398
538,8.0,299.20232999999996,116.52859,0.0,0.0,0.0,-0.005455935295676524,0.0,0.0,-0.008656700101524781,0.013911595579967587,-0.04067667600497536,-0.03090553342788867,-0.004180301900163676,0.00907304791134011
539,8.0,299.53142,254.48795,0.0,0.0,0.0,-0.005466076439348785,0.0,0.0,-0.034101008109257466,-0.025782330166267874,-0.017474643960363082,-0.05493001247267015,-0.03271942639915597,-0.01837681955790088
540,8.0,299.18401,189.34643,0.0,0.0,0.0,-0.0054762175830210475,0.0,0.0,-0.05843629655596345,0.0020924300535317677,-0.0012127214531112889,-0.07731284599693383,-0.02238108870759148,-0.011144043773581488
541,8.0,299.76246000000003,-142.58656000000002,0.0,0.0,0.0,-0.005486358726693309,0.0,0.0,-0.01147025964327649,0.023439443635792978,0.03137356986108027,-0.06550512847410285,-0.007802451031066962,-0.025176301228457477
542,8.0,299.20419,37.341878,0.0,0.0,0.0,-0.00549649987036557,0.0,0.0,-0.0013621709792608087,-0.00971969480325919,-0.0002691326622563258,-0.08923317714912891,0.0012981025674877488,-0.012010325999576887
543,8.0,299.79758,443.21140999999994,0.0,0.0,0.0,-0.00550664101403783,0.0,0.0,-0.011668450349586388,-0.045070856965397255,-0.07798589433610852,-0.03961081694653326,-0.0093556138786522,-0.029835232281008175
544,8.0,300.69555,494.86692999999997,0.0,0.0,0.0,-0.005516782157710091,0.0,0.0,-0.011425661440124989,-0.05443896411645745,-0.08456256534942541,-0.06462146191614174,-0.02174013810508458,0.0028084885289762374
545,8.0,301.52461,459.94012999999995,0.0,0.0,0.0,-0.005526923301382353,0.0,0.0,-0.018875174460584683,-0.06609742483330794,-0.05483771653431125,-0.036873503562881466,-0.0098725396291688,-0.03334728682362097
546,8.0,300.18099,490.32719000000003,0.0,0.0,0.0,-0.005537064445054615,0.0,0.0,-0.07510476327301303,-0.013878359963437488,-0.06006409804036495,-0.061487609052854546,-0.03381031982781876,0.04630571398151816
547,8.0,300.52212000000003,418.66182000000003,0.0,0.0,0.0,-0.005547205588726876,0.0,0.0,-0.07488240553856802,-0.03286889294790717,-0.01951144182112938,-0.03297846581372117,-0.03229535184805307,-0.00013681906981049088
548,8.0,299.52281,411.71845,0.0,0.0,0.0,-0.005557346732399137,0.0,0.0,-0.04424646249853586,-0.03251585634806517,-0.04838980934370236,-0.04022037199469167,0.005323310125194805,0.03996196788793917
549,8.0,299.81167,413.21735,0.0,0.0,0.0,-0.005567487876071398,0.0,0.0,-0.024829130333444374,-0.036878108784585965,-0.06390051825799015,-0.04098892320879176,0.018904965026774783,-0.006743838028064993
550,8.0,299.05689,393.12772,0.0,0.0,0.0,-0.005577629019743659,0.0,0.0,-0.027282906954863274,-0.05228841170671446,-0.03992969181925376,-0.05040778709711125,-0.0026623868824821274,0.014507182975497485
551,8.0,299.81509,371.67638999999997,0.0,0.0,0.0,-0.00558777016341592,0.0,0.0,-0.03362184112371736,-0.05294557431082135,-0.026412925352752775,-0.07775586832490672,-0.02902181232597987,-0.02015505423164898
552,8.0,300.05747,497.58450999999997,0.0,0.0,0.0,-0.005597911307088181,0.0,0.0,-0.07373199785203163,-0.05879750603111204,-0.018723762471641484,-0.05638001794877454,-0.015142541450702485,-0.0029068366101824374
553,8.0,301.08745,541.6326799999999,0.0,0.0,0.0,-0.0056080524507604425,0.0,0.0,-0.08966234024223402,-0.032954424428598465,-0.04202604649439786,-0.05636851857338965,-0.01032820519056449,0.013164590115993887
554,8.0,300.36974,392.44935,0.0,0.0,0.0,-0.005618193594432703,0.0,0.0,-0.03127029231813757,-0.030736243654181074,-0.05728826595416164,-0.05995570155791703,0.0026830469506961174,0.006576504536325464
555,8.0,300.16642,369.25254,0.0,0.0,0.0,-0.005628334738104966,0.0,0.0,0.005868948647770135,-0.04530788858779045,-0.07280461157875573,-0.025262913847005474,-0.017066983047630085,0.005692909513821426
556,8.0,300.65645,462.82842999999997,0.0,0.0,0.0,-0.005638475881777226,0.0,0.0,-0.008512466280265012,-0.055860023063705036,-0.07631579573953262,-0.04998282493892075,-0.01899679183033738,0.017036216721593684
557,8.0,300.49613,366.96578,0.0,0.0,0.0,-0.005648617025449487,0.0,0.0,-0.025818878097374875,-0.04077367646354856,-0.04495587841029976,-0.03680244433336847,-0.016001745111499287,0.002733984046473217
558,8.0,300.53827,321.65243,0.0,0.0,0.0,-0.005658758169121749,0.0,0.0,-0.05759503046168694,-0.04536602381227796,0.005186747924417165,-0.06645488832283684,-0.028044672433043677,0.0026365271187299673
559,8.0,299.43577999999997,278.58317999999997,0.0,0.0,0.0,-0.005668899312794009,0.0,0.0,-0.06469900290654444,-0.008179160395645283,-0.011804166081230489,-0.03138990446594237,-0.007102974697484023,-0.0015544619355384486
560,8.0,300.50459,234.8577,0.0,0.0,0.0,-0.005679040456466271,0.0,0.0,-0.02540446184622518,-0.06278735663187963,0.016800943088123983,-0.04288168351484266,-0.0025950877227652177,-0.029646917723422973
561,8.0,300.35778,238.22977000000003,0.0,0.0,0.0,-0.005689181600138533,0.0,0.0,0.012608706925632488,-0.053714169094675746,-0.03131043931359977,-0.034131204988737666,-0.018659427169792082,-0.019620185848361584
562,8.0,300.12082000000004,384.24445,0.0,0.0,0.0,-0.005699322743810794,0.0,0.0,-0.028616535590732173,-0.03015350021691877,-0.05803068240843245,-0.04962198023380815,-0.036192613681182866,-0.006451773145040434
563,8.0,298.86609,530.04922,0.0,0.0,0.0,-0.005709463887483055,0.0,0.0,-0.04662553117683166,-0.06617456558992114,-0.04832162977097355,-0.08421313186693902,-0.02823773913359787,-0.005214531039509146
564,8.0,298.12318,376.72836,0.0,0.0,0.0,-0.005719605031155315,0.0,0.0,-0.07898252713446852,-0.017410454566528084,-0.018123032831854083,-0.06643665792703764,0.0008284192279811121,-0.0008171414706580843
565,8.0,298.60364,384.91664,0.0,0.0,0.0,-0.005729746174827577,0.0,0.0,-0.04952613893334936,-0.027085394112870274,-0.04039351515852956,-0.08214447134352812,0.017988748822601285,0.027159343131668474
566,8.0,300.63612,497.44028,0.0,0.0,0.0,-0.005739887318499838,0.0,0.0,-0.05251075525565805,-0.03930437059953936,-0.05939429615451064,-0.028199267040550972,0.02264398860503768,0.016646586594390184
567,8.0,300.62939,337.83139,0.0,0.0,0.0,-0.005750028462172099,0.0,0.0,0.0045656540854449755,-0.015843635539395086,-0.0914143266721416,-0.07079731652115114,-0.029026557376198175,0.020422484370292284
568,8.0,299.62201,308.67695,0.0,0.0,0.0,-0.0057601696058443615,0.0,0.0,-0.017535839200152586,-0.05946185561817824,-0.016832390318227582,-0.0021395389891060578,-0.030281710805072175,0.004804825692049376
569,8.0,300.61906,412.6998,0.0,0.0,0.0,-0.005770310749516622,0.0,0.0,-0.052272453017639456,-0.023674146809456377,-0.04950383425889805,-0.05414837108052815,-0.029690114601686173,0.03622531632816036
570,8.0,300.84716000000003,247.17036000000002,0.0,0.0,0.0,-0.005780451893188883,0.0,0.0,-0.07060215340614003,-0.010307013064722991,0.005775550293302434,-0.024376829674305774,-0.024967440998594576,2.7353407883571174e-05
571,8.0,301.51491,358.02111,0.0,0.0,0.0,-0.0057905930368611445,0.0,0.0,-0.05964038217979744,-0.025913043482168274,-0.023276050977667377,-0.04590764550748186,-0.007560472316385523,0.013046253650064987
572,8.0,300.75962999999996,550.91145,0.0,0.0,0.0,-0.005800734180533405,0.0,0.0,-0.06536439310146334,-0.026893763187707774,-0.07520516723867213,-0.057588286269021356,-0.0013281172645999689,-0.004201305460161566
573,8.0,298.92105,326.77212000000003,0.0,0.0,0.0,-0.005810875324205667,0.0,0.0,-0.009300621148024841,-0.03874525818110926,-0.05128468413115425,-0.06621076090999334,0.012983492938870987,-0.018649379781800483
574,8.0,299.67888,188.39455,0.0,0.0,0.0,-0.005821016467877927,0.0,0.0,0.0024400818370423276,-0.012522482381872788,-0.04718483712603086,-0.09475823134740932,-0.002322424147355418,-0.006394345979722813
575,8.0,300.91157999999996,365.90294,0.0,0.0,0.0,-0.005831157611550189,0.0,0.0,-0.03963647953181596,-0.02187985110837318,-0.04970902551014886,-0.06460867773963004,-0.005678463201845684,0.001184755953001309
576,8.0,300.05745,328.24622,0.0,0.0,0.0,-0.00584129875522245,0.0,0.0,-0.05598490107227955,-0.049358658824320355,0.005564905122063374,-0.07478643859509683,0.0015795522371646687,-0.0015749779195882185
577,8.0,299.47215,152.03778,0.0,0.0,0.0,-0.00585143989889471,0.0,0.0,-0.037985587090885564,-0.019842593232061483,0.01161249057306359,-0.027620256416657073,0.00100179815485228,-0.0005603356139508195
578,8.0,299.20486,251.2944,0.0,0.0,0.0,-0.005861581042566973,0.0,0.0,-0.00983045448891532,-0.047810378221016955,-0.018746388346374484,-0.04197171805053606,-0.02406154272018938,-0.018667422726331182
579,8.0,299.62662,458.90382,0.0,0.0,0.0,-0.0058717221862392335,0.0,0.0,-0.03333508830566707,-0.06001933974369765,-0.04614087338899966,-0.05645153212758244,-0.04922180825256425,-0.02535085382318448
580,8.0,299.86428,460.61436,0.0,0.0,0.0,-0.005881863329911495,0.0,0.0,-0.027377244592173677,-0.052569057666412046,-0.06006896062759485,-0.04656449501730786,-0.053679070111211744,-0.00904243722051907
581,8.0,299.48138,328.27695,0.0,0.0,0.0,-0.005892004473583757,0.0,0.0,-0.044082814501385056,-0.03475185411224097,-0.02095332609768228,-0.05215964484425615,-0.03191612070662587,-0.0049957399454161455
582,8.0,300.32296,360.3366,0.0,0.0,0.0,-0.005902145617256017,0.0,0.0,-0.06331323850003014,0.00048536995066478456,-0.046705460397720056,-0.05253112360916825,-0.02231670274323708,0.029383570982682673
583,8.0,301.36921,419.53442,0.0,0.0,0.0,-0.005912286760928278,0.0,0.0,-0.046777970601376256,-0.037523994928329966,-0.04322602136257616,-0.05457213456385035,-0.010953268031503389,0.006082711184266855
584,8.0,300.41752,456.86722000000003,0.0,0.0,0.0,-0.005922427904600539,0.0,0.0,-0.02624500447993027,-0.04634160937956075,-0.06628961405927553,-0.06997159874965914,0.014004029320340087,0.016697995864713884
585,8.0,300.58791,599.31863,0.0,0.0,0.0,-0.005932569048272801,0.0,0.0,-0.05634175255874804,-0.03949498422160146,-0.08634116276670932,-0.06946207073812263,0.040149508322447965,0.005927207184794805
586,8.0,300.38317,467.93214000000006,0.0,0.0,0.0,-0.005942710191945063,0.0,0.0,-0.03312428567536247,-0.06855426450977914,-0.040561136109322465,-0.08044554172860682,0.012786427953422186,0.023360616831013377
587,8.0,299.83537,251.08747000000002,0.0,0.0,0.0,-0.005952851335617323,0.0,0.0,-0.06339722984056945,-0.009676074791754231,-0.003251015782950277,-0.07975870710857152,0.020413284059384283,-0.004955234968693615
588,8.0,299.5722,577.21278,0.0,0.0,0.0,-0.005962992479289585,0.0,0.0,-0.08500616016370482,-0.06061339915807674,-0.029838713808351767,-0.06322815284938284,-0.015283401453104285,0.027668937004461474
589,8.0,300.54267999999996,427.61082000000005,0.0,0.0,0.0,-0.0059731336229618456,0.0,0.0,-0.05368607876215344,-0.04557111981801936,-0.03072581427090177,-0.03648365457365636,-0.00045405521314426057,-0.013256776623341989
590,8.0,298.52985,31.203740999999997,0.0,0.0,0.0,-0.005983274766634106,0.0,0.0,0.013326705065743388,-0.014134275527944386,-0.00867758723908618,-0.043365572245848756,-0.037017339480826965,0.0053288878643452855
591,8.0,300.42156,319.16896,0.0,0.0,0.0,-0.005993415910306369,0.0,0.0,-0.008097121081423632,-0.06932038595013944,-0.01960188857805578,-0.053796267684028246,-0.05009362383735575,-0.02134745606857988
592,8.0,301.10227000000003,435.52847,0.0,0.0,0.0,-0.006003557053978629,0.0,0.0,-0.03874527540636096,-0.039483939795511465,-0.054160565545481654,-0.048881010700680155,-0.038754037993225764,0.005221074608654945
593,8.0,300.51266,388.57529,0.0,0.0,0.0,-0.006013698197650891,0.0,0.0,-0.04792934796825835,-0.05583487419622304,-0.014352964283777286,-0.06635746027272144,-0.01107766677278059,0.007768104284477203
594,8.0,300.94385,544.68889,0.0,0.0,0.0,-0.006023839341323152,0.0,0.0,-0.07275061345442653,-0.05485994116200465,-0.03796126807523546,-0.03994857170836706,-0.0036678595786895567,-0.0006432884035351224
595,8.0,300.33259,418.17096000000004,0.0,0.0,0.0,-0.006033980484995413,0.0,0.0,-0.028676820931931874,-0.04294335092917876,-0.05549335825001804,-0.09334413950784931,-0.006556827827333524,0.01243012767500809
596,8.0,299.49882,204.14555,0.0,0.0,0.0,-0.006044121628667674,0.0,0.0,0.006504852454178954,-0.04505773537660226,-0.023502265141992978,-0.06460815895557885,-0.015763222998208985,-0.016282467064954384
597,8.0,299.22224,521.7841599999999,0.0,0.0,0.0,-0.0060542627723399346,0.0,0.0,-0.03506407902455517,-0.06284466099128513,-0.06070061668693444,-0.0907291801267729,0.02020840488916428,-0.00918707309941852
598,8.0,299.39422,597.33749,0.0,0.0,0.0,-0.006064403916012196,0.0,0.0,-0.08886614857865602,-0.04477002706370766,-0.04793950478726076,-0.06999511425797994,0.018257013879326985,-0.02051126230430398
599,8.0,298.99527,227.05808,0.0,0.0,0.0,-0.006074545059684457,0.0,0.0,-0.030105999052230766,-0.03534532381506186,-0.0035686617859494963,-0.06746349368437844,0.00030158161167378767,-0.006641539892668953
600,8.0,299.75498999999996,61.352030000000006,0.0,0.0,0.0,-0.006084686203356719,0.0,0.0,-0.02221954320439818,-0.004438344681930516,0.008008402321217772,-0.05837715517412665,-0.010495128012038491,0.0015818950740458886
601,8.0,300.05985,461.38738,0.0,0.0,0.0,-0.006094827347028981,0.0,0.0,-0.023694643845729276,-0.06307249635577074,-0.05348310247562125,-0.025818682540105577,-0.016478119579763785,0.027805258659665374
602,8.0,300.72452999999996,756.96248,0.0,0.0,0.0,-0.0061049684907012415,0.0,0.0,-0.05663419376285974,-0.08251462072430903,-0.09094887706645531,-0.030054583702406473,-0.045497821305785356,0.013153447404644187
603,8.0,300.47817000000003,697.60229,0.0,0.0,0.0,-0.006115109634373502,0.0,0.0,-0.056349003376463654,-0.05768132187995324,-0.09802335278765172,-0.04031309349809256,-0.05568390499757355,0.015469721934492685
604,8.0,300.14544,478.57298,0.0,0.0,0.0,-0.006125250778045763,0.0,0.0,-0.05371539918029715,-0.04318334124186396,-0.048575496543778254,-0.04221140742794156,-0.05153562869067055,0.015516879607396785
605,8.0,301.1853,367.74476,0.0,0.0,0.0,-0.006135391921718024,0.0,0.0,-0.048571921797425456,-0.018567020787172282,-0.04464628085549486,-0.06051563065592774,0.003414229703758237,0.02240584747378498
606,8.0,300.27296,515.27157,0.0,0.0,0.0,-0.006145533065390287,0.0,0.0,-0.06801735138778993,-0.03287340697710267,-0.05573893258400435,-0.04769918111529266,0.013954599940711788,-6.971551194588533e-05
607,8.0,299.25943,573.2275599999999,0.0,0.0,0.0,-0.0061556742090625475,0.0,0.0,-0.03589053038911957,-0.06840955719674763,-0.06994677817520953,-0.07580753733037143,0.01952077790755078,-0.017948118506841384
608,8.0,299.553,195.03436000000002,0.0,0.0,0.0,-0.006165815352734809,0.0,0.0,-0.0033566312991737163,-0.02143560882727988,-0.03449333449497707,-0.06226970032804094,0.01126186753495979,0.0016969556010764785
609,8.0,300.97807,52.534825,0.0,0.0,0.0,-0.00617595649640707,0.0,0.0,0.00992845532931225,-0.05723984070538244,0.031342110471975465,-0.06005874301358644,0.013200676005055288,-0.026325599406134378
610,8.0,300.14286,454.77932000000004,0.0,0.0,0.0,-0.0061860976400793305,0.0,0.0,-0.07528991851678642,-0.022362368911993977,-0.04058926798509886,-0.05780439123709924,-0.009847617223084151,-0.007514186849167503
611,8.0,299.6582,686.97487,0.0,0.0,0.0,-0.006196238783751592,0.0,0.0,-0.1053971709593909,-0.06014860917820554,-0.04327742556664936,-0.06681163341804484,-0.043575039412521555,0.0064252499051227945
612,8.0,299.97277,329.19526,0.0,0.0,0.0,-0.006206379927423853,0.0,0.0,-0.028560160381668368,-0.035665324408643465,-0.035841653230795766,-0.06758501378212153,-0.05211784625113095,0.010984207623306888
613,8.0,298.63779,217.38952,0.0,0.0,0.0,-0.006216521071096115,0.0,0.0,0.0012697074493353687,-0.02116013246959248,-0.04619056013415336,-0.044755377493761864,-0.02317795519573608,0.01042981087084219
614,8.0,298.74913,627.14671,0.0,0.0,0.0,-0.006226662214768376,0.0,0.0,-0.044027883173713755,-0.06246582907039734,-0.08414322571603981,-0.037602741686351665,-0.02985569588002777,0.019468517507143082
615,8.0,300.1156,519.88899,0.0,0.0,0.0,-0.006236803358440637,0.0,0.0,-0.07644740274202122,-0.022374396190680976,-0.05921147239921735,-0.05224245878817925,-0.03374834742520257,-0.0026725235378075372
616,8.0,299.303,326.4592,0.0,0.0,0.0,-0.006246944502112898,0.0,0.0,-0.03978467343844156,-0.023073344215661776,-0.03637742847292266,-0.06497061878135084,-0.026085701299208276,0.006883291335352963
617,8.0,300.10837000000004,193.77204,0.0,0.0,0.0,-0.006257085645785159,0.0,0.0,-0.04489148839294496,-0.0033072248189976766,-0.010703150284068689,-0.04151245737646056,0.022234276874102277,-0.005966342754007184
618,8.0,301.09356,147.17857,0.0,0.0,0.0,-0.00626722678945742,0.0,0.0,-0.00946467515449071,-0.005757072157853785,-0.029516864033337677,-0.06687537799508593,0.015178626326513785,0.019866162442637583
619,8.0,299.5989,284.94424,0.0,0.0,0.0,-0.006277367933129681,0.0,0.0,-0.020065464684307182,-0.05043325007212425,-0.016117217119395483,-0.07099561057897122,-0.00936067972385216,-0.023722467693475274
620,8.0,299.60828,592.97786,0.0,0.0,0.0,-0.0062875090768019426,0.0,0.0,-0.04427225984608186,-0.07470808903111434,-0.061270112892389345,-0.08418831939849021,-0.020253364822601483,0.026863663580237174
621,8.0,300.65592000000004,325.22281,0.0,0.0,0.0,-0.006297650220474205,0.0,0.0,-0.051236348048383853,-0.015204854305352287,-0.032418412085948166,-0.07134356370306152,-0.020592706334091878,0.0055916931242321445
622,8.0,299.96561,132.51338,0.0,0.0,0.0,-0.006307791364146466,0.0,0.0,-0.014633244460188786,-0.024037918794107875,-0.0016095971291298684,-0.04780693823692745,-0.03571474264252067,-0.0047259196511119555
623,8.0,299.95742,418.69396,0.0,0.0,0.0,-0.006317932507818726,0.0,0.0,-0.05037603589197765,-0.03547300346016287,-0.04142346969967817,-0.06282250526459854,-0.04033073114258326,-0.006532424813250134
624,8.0,299.75962000000004,485.08774000000005,0.0,0.0,0.0,-0.006328073651490987,0.0,0.0,-0.03827017965972267,-0.04562933002301425,-0.06355505063639513,-0.033398910902965866,-0.02118584166437978,0.014234254941811589
625,8.0,299.50827000000004,280.962,0.0,0.0,0.0,-0.006338214795163249,0.0,0.0,-0.008536969099483252,-0.04662345097437636,-0.03024501189970027,-0.043864193633308866,-0.0017022405109480584,-0.018571175112582283
626,8.0,299.68947000000003,232.43881000000002,0.0,0.0,0.0,-0.00634835593883551,0.0,0.0,-0.015787919956146385,-0.02230859167618658,-0.03255908362383137,-0.03757091144771026,-0.005357651298909015,-0.0017680471532676685
627,8.0,299.06028,231.83104,0.0,0.0,0.0,-0.006358497082507771,0.0,0.0,-0.038026115068385366,-0.043743235889371256,0.01129850463207559,-0.06640448723636264,-0.025535446713152374,-0.013156620903957385
628,8.0,299.78589,367.38204,0.0,0.0,0.0,-0.006368638226180033,0.0,0.0,-0.05848637745540604,-0.033565316966888865,-0.01962327322141628,-0.07670910396459912,-0.02043829613810278,-0.007557229916065522
629,8.0,299.68311,599.6979,0.0,0.0,0.0,-0.006378779369852294,0.0,0.0,-0.07488975565479343,-0.05825132572370824,-0.049152103738434955,-0.08040628537998251,-0.013140925659908386,-0.006079282244603444
630,8.0,300.16411,588.9861900000001,0.0,0.0,0.0,-0.006388920513524555,0.0,0.0,-0.04529232303975426,-0.06116005873277784,-0.07258471502880363,-0.08529093511755993,-0.0008738433515541243,0.005276890199688515
631,8.0,301.52622,396.58805,0.0,0.0,0.0,-0.006399061657196816,0.0,0.0,-0.025021445202424376,-0.039006864158177765,-0.05652455604903935,-0.08697711095347252,-0.014466904257522286,0.0019184681836130683
632,8.0,300.64574,309.5649,0.0,0.0,0.0,-0.006409202800869077,0.0,0.0,-0.02072593554999058,-0.03776186653505607,-0.03561219666615017,-0.08305844015897981,-0.004046420353850596,0.01373880806691479
633,8.0,299.75931,669.05647,0.0,0.0,0.0,-0.0064193439445413385,0.0,0.0,-0.09085811214899751,-0.05080440459700436,-0.06171394278069194,-0.09437974393155552,-0.006459949769372404,0.025726209282979178
634,8.0,299.50343,725.83461,0.0,0.0,0.0,-0.006429485088213599,0.0,0.0,-0.08618146948469882,-0.06086361113777074,-0.07359051672731852,-0.06448066169549584,-0.016020883379388083,-0.004735469431979445
635,8.0,299.31363,235.79058999999998,0.0,0.0,0.0,-0.006439626231885861,0.0,0.0,-0.020533791920277482,-0.03648187935948117,-0.014658781402459088,-0.03994843289310336,-0.033265471944296465,-0.009558938216593751
636,8.0,299.26164,189.01211,0.0,0.0,0.0,-0.006449767375558122,0.0,0.0,0.012979230195700289,-0.039148457753651965,-0.031285735262911674,-0.04542984843607696,-0.006553292901709654,-0.01039613753026889
637,8.0,300.71802,395.74667,0.0,0.0,0.0,-0.006459908519230383,0.0,0.0,-0.038023617406888865,-0.02037704618280788,-0.061896443309203346,-0.05063706735623945,-0.017897620148357583,0.017687766933396683
638,8.0,299.53426,352.0499,0.0,0.0,0.0,-0.0064700496629026445,0.0,0.0,-0.030598938133130076,-0.038946009370421864,-0.037469430397194865,-0.06795270603140995,0.011633316915618988,-0.022408613646557978
639,8.0,299.76072,370.32421,0.0,0.0,0.0,-0.006480190806574905,0.0,0.0,-0.04765458696514155,-0.032193429020494074,-0.032721297872090674,-0.07108031930058134,0.0013951582481913987,-0.006499058690107154
640,8.0,299.59283,303.25054,0.0,0.0,0.0,-0.006490331950247167,0.0,0.0,-0.03633106214834667,-0.012985430273062187,-0.04286409855935716,-0.060786375135648135,0.01108087776234749,-0.007855327487535462
641,8.0,300.64457999999996,340.97475,0.0,0.0,0.0,-0.006500473093919428,0.0,0.0,-0.01118546746416969,-0.06154048449607294,-0.03092185891349987,-0.06603535211893184,0.015613804072212484,0.003636176970587726
642,8.0,300.45653,588.93197,0.0,0.0,0.0,-0.006510614237591689,0.0,0.0,-0.03156719182268927,-0.05924788050181054,-0.08820554295070931,-0.07384713143439442,-0.010452536044084991,-0.008989797560598941
643,8.0,300.6535,709.3759,0.0,0.0,0.0,-0.00652075538126395,0.0,0.0,-0.07047926643401203,-0.06778987978009024,-0.07736341629617473,-0.07537714111189463,-0.05331136671617224,0.0015561817249331784
644,8.0,300.59125,153.89823,0.0,0.0,0.0,-0.00653089652493621,0.0,0.0,-0.01665510498798088,-0.015292246113227185,-0.014833867979988785,-0.08339755166269752,-0.04712971936034115,0.009074356827819293
645,8.0,300.19572,-35.094823999999996,0.0,0.0,0.0,-0.006541037668608473,0.0,0.0,0.005624931780512545,0.004713121086448836,0.0003298973518133337,-0.03630382598565867,-0.03963021257994746,0.0027232912181679174
646,8.0,299.006,344.84241000000003,0.0,0.0,0.0,-0.006551178812280734,0.0,0.0,-0.03000759929526947,-0.04760330435108036,-0.027212579291922473,-0.04120585600220136,-0.017394272962431085,-0.01002660369892374
647,8.0,299.02816,645.36315,0.0,0.0,0.0,-0.006561319955952995,0.0,0.0,-0.06769461805868864,-0.06821496960779334,-0.06026469420241224,-0.033734569250342766,-0.017383554802873284,-0.011791044492435489
648,8.0,299.80428,476.75591,0.0,0.0,0.0,-0.006571461099625257,0.0,0.0,-0.02938193053077077,-0.04666021270125446,-0.06887975083940213,-0.04727660921408805,-0.013976866111659287,-0.018790684600996182
649,8.0,299.12044,203.57747,0.0,0.0,0.0,-0.006581602243297517,0.0,0.0,-0.02182178073189208,-0.022134177896723277,-0.01792651094845888,-0.06403576181508765,-0.012179488103771887,0.02806221280552477
650,8.0,299.94629,399.62919,0.0,0.0,0.0,-0.00659174338696978,0.0,0.0,-0.042825717658819255,-0.04288785116820136,-0.035763726192104967,-0.08618189099674041,-0.010621177337728589,0.004159776594212986
651,8.0,300.36175,549.36834,0.0,0.0,0.0,-0.00660188453064204,0.0,0.0,-0.09344597316939951,-0.02092479196161618,-0.05262349148828425,-0.0938116085209849,-0.025776148327407773,0.02766509577333237
652,8.0,300.12692999999996,559.00518,0.0,0.0,0.0,-0.006612025674314301,0.0,0.0,-0.07046317399592383,-0.04888223268030075,-0.05057821069768075,-0.0948495586186726,-0.009015377565998493,0.008342511206541753
653,8.0,300.62371,275.94662999999997,0.0,0.0,0.0,-0.006622166817986563,0.0,0.0,-0.03329986266594057,-0.016321149914022084,-0.034259873565936266,-0.06111019872185704,-0.03087439827881587,0.03104351883975677
654,8.0,300.83474,157.30739,0.0,0.0,0.0,-0.006632307961658823,0.0,0.0,0.028205826821698376,-0.04511748268199886,-0.030905863747421273,-0.06115709497623535,-0.04131498810422186,-0.022113710244703277
655,8.0,299.25436,455.80382000000003,0.0,0.0,0.0,-0.006642449105331085,0.0,0.0,-0.049624799095586355,-0.04579945066180386,-0.04312872908797416,-0.02797273268919377,-0.07134134468534253,0.0018582137465414186
656,8.0,298.8821,631.53179,0.0,0.0,0.0,-0.0066525902490033465,0.0,0.0,-0.06933735180981385,-0.06717092177100384,-0.05546162325688605,-0.025418182265829273,-0.033692539636194764,-0.023550671139020273
657,8.0,298.89596,180.82037,0.0,0.0,0.0,-0.006662731392675606,0.0,0.0,-0.03599540582746996,-0.009292700774643163,-0.00967676977999782,-0.02194050729910948,-0.0005205351804203225,-0.0060950753686121045
658,8.0,299.24987999999996,-122.31687,0.0,0.0,0.0,-0.006672872536347868,0.0,0.0,0.018112510229565584,0.011253610559894888,0.007815152729020523,-0.03588835899415526,0.019982678098136784,-0.013465432176684687
659,8.0,298.86977,375.7095,0.0,0.0,0.0,-0.006683013680020129,0.0,0.0,-0.04593357964379136,-0.024859082006400374,-0.04341364691009336,-0.07405762198366823,0.017170043755051382,0.0038705990686733866
660,8.0,300.06958,664.01435,0.0,0.0,0.0,-0.006693154823692391,0.0,0.0,-0.07693799918868932,-0.04022697737209356,-0.08467880540089742,-0.08434430317188463,0.01055702746064749,0.014185864143535787
661,8.0,300.28429,461.66195999999997,0.0,0.0,0.0,-0.0067032959673646525,0.0,0.0,-0.06578326562655284,-0.028331678563618973,-0.04621876293743675,-0.08957838031244782,-0.02568261419742668,0.013561865215201887
662,8.0,299.59537,371.19493,0.0,0.0,0.0,-0.006713437111036913,0.0,0.0,-0.04405934762906905,-0.04607396848489666,-0.022700671842131877,-0.07315280484311973,-0.025036850656944772,0.01018905251458119
663,8.0,300.23897,501.13980999999995,0.0,0.0,0.0,-0.006723578254709175,0.0,0.0,-0.07087418572673752,-0.048503023830375754,-0.03295678023508097,-0.06133358895815394,-0.05361655865954235,-0.0027173576255823174
664,8.0,300.80222000000003,607.17974,0.0,0.0,0.0,-0.006733719398381435,0.0,0.0,-0.05550913050107465,-0.07333074878593143,-0.055727600394885946,-0.05973577055746154,-0.0016037833027060884,-0.003734729323014087
665,8.0,299.72815,581.04067,0.0,0.0,0.0,-0.006743860542053696,0.0,0.0,-0.05787644851796074,-0.05141620906038475,-0.06732919751612443,-0.07964372450047362,0.016355705795432485,0.0093600367153387
666,8.0,300.18511,291.77248,0.0,0.0,0.0,-0.006754001685725959,0.0,0.0,-0.015277406052262587,-0.046497729941718656,-0.026916412367193075,-0.08009419624318172,0.018771139006567183,-0.02128417252033428
667,8.0,300.79816,96.9196,0.0,0.0,0.0,-0.006764142829398219,0.0,0.0,-0.02319228255215008,0.0018452536698123582,-0.008114109029950212,-0.09294047991976122,-0.0039305806374931055,0.017169051783203482
668,8.0,301.93293,575.33538,0.0,0.0,0.0,-0.006774283973070481,0.0,0.0,-0.05590943521808165,-0.06122751281843504,-0.057750641359044536,-0.06959613689860393,-0.009057664748321911,-0.01180037145960599
669,8.0,301.26048,846.3408,0.0,0.0,0.0,-0.0067844251167427415,0.0,0.0,-0.11263701517640788,-0.04951698117894555,-0.09511246966186991,-0.048113244755407555,-0.028552692728431372,0.03954487868302566
670,8.0,300.26926000000003,489.4342,0.0,0.0,0.0,-0.006794566260415003,0.0,0.0,-0.05623227696494365,-0.03201740923962226,-0.060526087396959735,-0.03330726344467097,0.003010400092303357,-0.013677787106142487
671,8.0,300.10769,289.46722,0.0,0.0,0.0,-0.006804707404087264,0.0,0.0,-0.016173418049442084,-0.03678383599528197,-0.035033553852042564,-0.05764407277977704,-0.002807783104256617,0.021557991200858082
672,8.0,300.52841,320.20207,0.0,0.0,0.0,-0.0068148485477595245,0.0,0.0,-0.03339715291404237,-0.03440761961601767,-0.029528661304251972,-0.06410751714741934,0.010784374438584888,-0.02853083185752387
673,8.0,300.59582,419.46898,0.0,0.0,0.0,-0.006824989691431787,0.0,0.0,-0.03767180886616806,-0.04771365437972105,-0.04212263354693026,-0.08376314952402922,0.009039855661914292,0.015755299382426986
674,8.0,300.23321,376.80735,0.0,0.0,0.0,-0.006835130835104048,0.0,0.0,-0.02139876097414328,-0.058998398062188546,-0.03414286749738867,-0.09470734187438691,-0.003334065611496657,-0.026951416105147678
675,8.0,299.57724,229.11421,0.0,0.0,0.0,-0.006845271978776309,0.0,0.0,-0.031107066846278474,-0.04304570844103066,0.004507776733107926,-0.08525720402173091,-0.028770058179633674,-0.0016235486710817785
676,8.0,299.63509,39.989577000000004,0.0,0.0,0.0,-0.006855413122448571,0.0,0.0,0.005953213160536395,-0.007633439698486843,-0.01047560673561189,-0.07560421957855552,-0.02079493990830078,0.0007884493385038912
677,8.0,300.68297,381.57018999999997,0.0,0.0,0.0,-0.006865554266120831,0.0,0.0,-0.028983281464427177,-0.043374902252769555,-0.043629625221908754,-0.05514652274078804,-0.023454603883789178,0.01049984570450409
678,8.0,299.07937000000004,757.70727,0.0,0.0,0.0,-0.006875695409793092,0.0,0.0,-0.07918140077134583,-0.05899275020613114,-0.09214994016524101,-0.04986060671185875,-0.013819199329848788,0.027194264796364977
679,8.0,300.03578,733.6642099999999,0.0,0.0,0.0,-0.006885836553465353,0.0,0.0,-0.08263307472724951,-0.055876517762082946,-0.08450600876859371,-0.038997424720246164,-0.01028663761846209,-0.001948006450528268
680,8.0,300.35611,237.75097000000002,0.0,0.0,0.0,-0.006895977697137614,0.0,0.0,-0.030802306547450968,-0.019760320363691783,-0.021707730313886182,-0.04689238173641775,-0.006760974721706254,0.023455337476861578
681,8.0,300.5604,214.47876000000002,0.0,0.0,0.0,-0.006906118840809877,0.0,0.0,-0.032360479511480675,-0.026347222163268375,-0.006488485425313654,-0.06016299530312535,-0.019515782584557783,0.0013139259876743987
682,8.0,300.81151,560.3700299999999,0.0,0.0,0.0,-0.006916259984482137,0.0,0.0,-0.05285609014148995,-0.061482154727566234,-0.056000250798044444,-0.09350684720890731,-0.03318796236464687,0.0026327888338110272
683,8.0,300.89648,423.18063,0.0,0.0,0.0,-0.006926401128154399,0.0,0.0,-0.037990312889351965,-0.05002911425648915,-0.04061691856707776,-0.0933180412250236,-0.04540432669255816,-0.006005169180614054
684,8.0,300.60573,90.04498000000001,0.0,0.0,0.0,-0.00693654227182666,0.0,0.0,0.00972520941692844,-0.037484018158884566,0.0003873834882867736,-0.11795710509145989,-0.012790657259339588,-0.017256061595790684
685,8.0,300.74762999999996,-24.389244,0.0,0.0,0.0,-0.00694668341549892,0.0,0.0,0.01036235070568439,-0.008421442376081653,0.005472812745649564,-0.08702516433946501,0.0014228349720228788,-0.015044099137236986
686,8.0,300.12259,378.42506000000003,0.0,0.0,0.0,-0.006956824559171182,0.0,0.0,-0.030194496315964766,-0.05363181820604835,-0.031205455457488675,-0.07131145482064263,-0.01897241708593178,-0.010034304703658771
687,8.0,299.35916000000003,816.3529900000001,0.0,0.0,0.0,-0.006966965702843443,0.0,0.0,-0.1049096456737759,-0.08607872187155842,-0.05716255505400494,-0.039384824683979566,-0.023467313079793477,-0.016361791375533088
688,8.0,298.89182,648.28619,0.0,0.0,0.0,-0.006977106846515705,0.0,0.0,-0.05304744748912545,-0.05587884925056305,-0.08813651630089692,-0.01863956746783208,-0.006484452385940624,0.018283338116924983
689,8.0,299.15078,37.087624,0.0,0.0,0.0,-0.006987247990187966,0.0,0.0,-0.0024058567817895776,-0.004471294764582436,-0.004396559970331686,-0.02205964119286708,0.0037795582432133563,0.01918308698047328
690,8.0,299.39182999999997,119.95522,0.0,0.0,0.0,-0.006997389133860227,0.0,0.0,0.01794066402585568,-0.015307883602020487,-0.03909617202199176,-0.06126824648570514,-0.02060288240484618,0.03336653249602037
691,8.0,299.42054,655.16041,0.0,0.0,0.0,-0.007007530277532488,0.0,0.0,-0.092004721160909,-0.05202539528550675,-0.05512228782489625,-0.06881428981669163,-0.03441166147066657,0.006458320361886594
692,8.0,300.69645,734.3007200000001,0.0,0.0,0.0,-0.007017671421204749,0.0,0.0,-0.09460332465887121,-0.058049188408258845,-0.07055657133714144,-0.08332744286177832,0.002300659231232388,0.03371604906501497
693,8.0,300.97038,228.89619,0.0,0.0,0.0,-0.00702781256487701,0.0,0.0,-0.04095063350076286,-0.04192385718206256,0.013295763447439686,-0.07014972305098864,0.013917054971506387,-0.03785121898187446
694,8.0,300.19552000000004,-33.666343,0.0,0.0,0.0,-0.007037953708549271,0.0,0.0,0.0018243380599231483,0.005524940410294165,0.002884449051872957,-0.06585779118465793,-0.036801372314762666,0.004074190296691276
695,8.0,300.28995,431.11294000000004,0.0,0.0,0.0,-0.007048094852221533,0.0,0.0,-0.050667155817958956,-0.04611158032860865,-0.034268832723320465,-0.07992724302420472,-0.04348877737850816,-0.024534646417131076
696,8.0,300.50932,738.58925,0.0,0.0,0.0,-0.007058235995893795,0.0,0.0,-0.0866231837067926,-0.06108562234068154,-0.07680388439220322,-0.05088010451197535,-0.009620528522597241,0.01991633960083968
697,8.0,299.77904,434.52455,0.0,0.0,0.0,-0.007068377139566056,0.0,0.0,-0.06078162603242944,-0.028351109660786675,-0.042951877428770255,-0.061957705423499446,0.016047989846063284,-0.012878423969751487
698,8.0,299.75847000000005,254.10967000000002,0.0,0.0,0.0,-0.007078518283238316,0.0,0.0,-0.017846015320764585,-0.03880623151912686,-0.02059074873489868,-0.08919936803304222,0.001134244118291179,0.03498021636677857
699,8.0,299.2051,290.26707999999996,0.0,0.0,0.0,-0.007088659426910577,0.0,0.0,-0.035059000615053966,-0.03215623868882367,-0.02101870606038478,-0.08826346133967541,-0.015978046204910383,-0.01086961511649749
700,8.0,300.39734,793.31796,0.0,0.0,0.0,-0.0070988005705828385,0.0,0.0,-0.07807289198969453,-0.1059361389525829,-0.05713981974826114,-0.07213708443937593,0.003057173236794507,0.014578789360064487
701,8.0,301.12232,843.08074,0.0,0.0,0.0,-0.0071089417142551,0.0,0.0,-0.08427417714571371,-0.08576246118409592,-0.08623885591736243,-0.06966137196654214,-0.01014421214465579,0.0037897082734400867
702,8.0,301.33272,361.33481,0.0,0.0,0.0,-0.007119082857927361,0.0,0.0,-0.022016488897608277,-0.026804187825867375,-0.06101608501281874,-0.04978640134078525,-0.03678594558199017,-0.0039805372111484365
703,8.0,300.36516,-48.005179999999996,0.0,0.0,0.0,-0.007129224001599623,0.0,0.0,0.00945397462548465,-0.027866855146494472,0.03300525715961526,-0.06805293774455203,-0.053711637995925945,-0.022441573659060878
704,8.0,300.91713,345.35798,0.0,0.0,0.0,-0.007139365145271884,0.0,0.0,-0.04268210161614546,-0.02901901474245377,-0.033279086985890174,-0.04043062240369176,-0.0069415351802511824,-0.021405709843329082
705,8.0,301.07072,575.02299,0.0,0.0,0.0,-0.007149506288944145,0.0,0.0,-0.09211502660654532,-0.05355511618672845,-0.029122487842665766,-0.06350977051592634,0.022456012472985877,-0.02054651124878278
706,8.0,299.90456,189.92866,0.0,0.0,0.0,-0.007159647432616406,0.0,0.0,-0.008516813832469081,-0.036578683247534965,-0.012638071926780589,-0.07028360986620223,-0.009288018951231101,-0.02257437528341738
707,8.0,299.99296,18.817446,0.0,0.0,0.0,-0.007169788576288667,0.0,0.0,-0.010924310356895488,-0.0024764780846093576,0.007680754526481453,-0.08311814794762251,-0.037538473259008866,-0.004983550749363165
708,8.0,299.98814,486.70952,0.0,0.0,0.0,-0.007179929719960928,0.0,0.0,-0.04605220691249896,-0.032455131256322066,-0.06944020277446444,-0.07082382517026733,-0.018535437781555284,0.044223097964479964
709,8.0,299.90413,825.0396599999999,0.0,0.0,0.0,-0.007190070863633189,0.0,0.0,-0.09296874351805061,-0.08325141668027512,-0.07457129621461393,-0.05500844309666065,0.003837125135719767,0.03317982900609417
710,8.0,299.35339,842.34229,0.0,0.0,0.0,-0.0072002120073054515,0.0,0.0,-0.08476056657796661,-0.06236733305467654,-0.10892312931987588,-0.07006350863972995,-0.029326239265524474,0.04123784126810806
711,8.0,300.24228,596.51852,0.0,0.0,0.0,-0.007210353150977712,0.0,0.0,-0.07102485500335742,-0.05393224280769795,-0.05636963720150004,-0.040036783235572866,-0.008421022687890233,-0.0021468646860040475
712,8.0,300.35028,180.56679,0.0,0.0,0.0,-0.007220494294649973,0.0,0.0,-0.021688806855018578,-0.02803415591025577,-0.0051648315274041845,-0.04235199689256666,-0.019501781494675983,-0.0033914851774385266
713,8.0,300.02878,255.92121,0.0,0.0,0.0,-0.007230635438322234,0.0,0.0,-0.023454685957047278,-0.029772825194099076,-0.02456614734948998,-0.047059124199373956,-0.012696176753765089,-0.017811487810356984
714,8.0,299.25804,577.0618099999999,0.0,0.0,0.0,-0.007240776581994495,0.0,0.0,-0.05472634210981945,-0.05948057136077535,-0.06120546753600935,-0.1039103378951519,-0.08580738464052952,-0.0096392317008931
715,8.0,299.94372999999996,381.90802,0.0,0.0,0.0,-0.007250917725666757,0.0,0.0,-0.041156021322533064,-0.018497401386051382,-0.05643707912815604,-0.10227509408876591,-0.06631997001902144,0.0013091712102551389
716,8.0,299.13468,-99.577314,0.0,0.0,0.0,-0.007261058869339018,0.0,0.0,0.03358997643457257,-0.0040139942228253865,0.0006930349709747263,-0.08240184598817901,-0.008894078356777193,-0.018772322482683984
717,8.0,299.43127999999996,140.2297,0.0,0.0,0.0,-0.00727120001301128,0.0,0.0,-0.012548230080163886,-0.015891799369648487,-0.014186296801328485,-0.06374331554472544,0.04294814765515216,0.009236392845386002
718,8.0,300.23919,640.5175,0.0,0.0,0.0,-0.0072813411566835405,0.0,0.0,-0.039339740120780065,-0.07686456186119163,-0.07849702328280302,-0.08176120240045243,0.00029258106302300265,-0.02014469374937648
719,8.0,300.02114,632.56249,0.0,0.0,0.0,-0.007291482300355801,0.0,0.0,-0.06791083245777733,-0.06773213668339144,-0.05664023070695554,-0.07496743850021013,-0.016626171631375385,0.007078006492494853
720,8.0,299.79014,480.7379,0.0,0.0,0.0,-0.007301623444028063,0.0,0.0,-0.046568254175178854,-0.04581227739481976,-0.053751787017888346,-0.04211042185672506,-0.0024890546461755676,0.003440411275742156
721,8.0,299.99147999999997,244.72441,0.0,0.0,0.0,-0.007311764587700324,0.0,0.0,-0.043397052913205655,-0.01987858792861388,-0.01111446801641259,-0.043413878944366255,-0.018007591221460884,0.02922007902604727
722,8.0,300.54517999999996,180.10147,0.0,0.0,0.0,-0.007321905731372585,0.0,0.0,-0.004282165756566855,-0.029363666697718272,-0.02110051789995898,-0.06479313890708494,-0.051531246383988046,-0.0015711353712339884
723,8.0,300.88356,546.84155,0.0,0.0,0.0,-0.0073320468750448465,0.0,0.0,-0.06457370946542894,-0.04692732873236675,-0.05472513938195074,-0.09337158237355772,-0.03863723761444846,0.006524652779683094
724,8.0,300.42843,771.1388599999999,0.0,0.0,0.0,-0.007342188018717107,0.0,0.0,-0.1052273907726349,-0.04863989264063366,-0.08053967164964672,-0.08341752586191882,0.0001156104786548659,-0.00014754707815926288
725,8.0,301.07662,314.3013,0.0,0.0,0.0,-0.007352329162389368,0.0,0.0,-0.05605962522740425,-0.018859903768327583,-0.02062021607430688,-0.08088549390877672,0.004869441056226415,0.0015842587838791687
726,8.0,298.90842999999995,-66.892758,0.0,0.0,0.0,-0.00736247030606163,0.0,0.0,0.011917460614661788,-0.0005079368846394675,0.008924204916700451,-0.09179495001920622,-0.04030929988971816,0.0006451539084267334
727,8.0,299.32945,752.90184,0.0,0.0,0.0,-0.007372611449733891,0.0,0.0,-0.07328330233674883,-0.08109702810565353,-0.07448302794540253,-0.06958907251890672,-0.02770445040721637,0.02058668762849788
728,8.0,299.77032,1103.6848,0.0,0.0,0.0,-0.007382752593406153,0.0,0.0,-0.1002576878084134,-0.12444288858405689,-0.11079203873182289,-0.055900915811240855,0.0034717343827085066,0.02248937981202898
729,8.0,298.85257,503.90097000000003,0.0,0.0,0.0,-0.007392893737078413,0.0,0.0,-0.03368840152278637,-0.057171607430398355,-0.062313304532844345,-0.050996871453499355,0.01991622105057798,0.013114372427787789
730,8.0,299.24742000000003,62.665882999999994,0.0,0.0,0.0,-0.007403034880750675,0.0,0.0,0.013039181164366987,-0.02975965091629887,-0.002328394622244658,-0.09212837313686251,-0.01172237248015809,-0.007253484488538182
731,8.0,300.24278,190.98786,0.0,0.0,0.0,-0.0074131760244229355,0.0,0.0,-0.038178906090714664,-0.017841684689837184,-0.002034950300533958,-0.11699461882146989,-0.014322823133052588,0.012435435079031887
732,8.0,300.42328,464.29818,0.0,0.0,0.0,-0.007423317168095196,0.0,0.0,-0.06419473771602735,-0.04386396767853655,-0.03307634779988137,-0.08677638610866252,-0.0002905092300135287,-0.025261139646080375
733,8.0,300.80364,523.58713,0.0,0.0,0.0,-0.007433458311767459,0.0,0.0,-0.07947861742317883,-0.04086015229333306,-0.038818644846101966,-0.09007617387457623,0.01045895700996869,0.003096012430352637
734,8.0,300.45135,41.223376,0.0,0.0,0.0,-0.007443599455439719,0.0,0.0,0.026260168780926876,-0.033821526373924764,-0.004969519768603415,-0.06298088132147904,-0.04536712217538636,-0.04647816712203796
735,8.0,299.97059,-290.24942000000004,0.0,0.0,0.0,-0.007453740599111981,0.0,0.0,0.05475187297258915,0.008600934362396132,0.024875769222297277,-0.07350347145097784,-0.05856599155551335,-0.012619987438995789
736,8.0,300.34201,606.75568,0.0,0.0,0.0,-0.0074638817427842424,0.0,0.0,-0.05090750482117955,-0.0941899277373221,-0.03934114347216856,-0.05665928082208565,-0.013561054615121887,-0.04351357971445596
737,8.0,299.71636,1060.5031,0.0,0.0,0.0,-0.007474022886456503,0.0,0.0,-0.15711097360064585,-0.06141962301089484,-0.10383587414530289,-0.06678029865870234,-0.013391593602147386,0.026216952650911774
738,8.0,299.99859,530.2953200000001,0.0,0.0,0.0,-0.007484164030128764,0.0,0.0,-0.08659313476182702,-0.04744165954937725,-0.027161741494655174,-0.1014109842709849,-0.02502259321478768,-0.008623751437423003
739,8.0,299.84102,85.019134,0.0,0.0,0.0,-0.0074943051738010245,0.0,0.0,-0.008284364734978143,0.006395614872823045,-0.023954943743418878,-0.07426166116955533,-0.04934182468715895,0.05108535757148225
740,8.0,300.26375,378.51543,0.0,0.0,0.0,-0.007504446317473287,0.0,0.0,-0.042670112840962254,-0.02045133058738918,-0.051937794748111256,-0.06547387680126852,-0.024462204101231576,0.014336633731915589
741,8.0,300.86786,850.43736,0.0,0.0,0.0,-0.0075145874611455485,0.0,0.0,-0.08279020043350663,-0.05863445686477035,-0.1170870677605939,-0.06415851098520203,0.007561554467492323,0.040301120934910964
742,8.0,300.3887,526.55318,0.0,0.0,0.0,-0.007524728604817809,0.0,0.0,-0.07610309833154102,-0.026919470355994873,-0.057036448986309246,-0.08620865397163173,-0.022508287058894978,-0.004301433619143446
743,8.0,300.12244,128.59893,0.0,0.0,0.0,-0.007534869748490071,0.0,0.0,-0.017918230668641684,-0.01838277645523878,-0.0027898574940874977,-0.07164219079903372,-0.022546870609452877,-0.008626969418415592
744,8.0,299.77126,-92.389157,0.0,0.0,0.0,-0.007545010892162331,0.0,0.0,-0.015371580556306885,0.00961984285625457,0.03383573518007706,-0.05031651960760385,0.0025438292240563976,-0.025825477395276176
745,8.0,299.37122,408.20776,0.0,0.0,0.0,-0.007555152035834592,0.0,0.0,-0.06024277557624904,-0.032821639016243576,-0.031020551499740073,-0.05645997148766535,-0.008277502903975931,-0.012346087698463988
746,8.0,299.14101,933.4975300000001,0.0,0.0,0.0,-0.007565293179506854,0.0,0.0,-0.07890474499054202,-0.09540090548833631,-0.1094542952872979,-0.0981054503637541,-0.061221648126856244,-0.012293684429792187
747,8.0,299.71299999999997,475.51814,0.0,0.0,0.0,-0.007575434323179114,0.0,0.0,-0.023555239883721178,-0.035067487597891564,-0.08592291440368142,-0.1088686468619989,-0.08423740224658433,0.01345897676029759
748,8.0,299.99331,-157.26487,0.0,0.0,0.0,-0.007585575466851377,0.0,0.0,0.055453953966879146,-0.004578888043676065,-0.003070472650982057,-0.08510123443383791,-0.019646023725911583,0.003279935156704397
749,8.0,300.30476,200.91053,0.0,0.0,0.0,-0.0075957166105236375,0.0,0.0,-0.011623695092669388,-0.02914337194047687,-0.02030471836416968,-0.09056358871593032,0.009717450048987651,0.015098273567083587
750,8.0,299.98219,804.93919,0.0,0.0,0.0,-0.007605857754195899,0.0,0.0,-0.09643262815090942,-0.06516363988565053,-0.08308514537861542,-0.06720075084069774,-0.013761456233149987,0.013738986398932385
751,8.0,301.38998,665.40975,0.0,0.0,0.0,-0.00761599889786816,0.0,0.0,-0.07517469779491504,-0.062145809225063846,-0.06494744068531334,-0.08115939162280833,-0.014470740422400886,0.007558808154421283
752,8.0,300.37509,203.74348999999998,0.0,0.0,0.0,-0.00762614004154042,0.0,0.0,0.005517778758587365,-0.043331482459484365,-0.024119231101382775,-0.04649343274804455,-0.001819090944280298,-0.037204896127337364
753,8.0,299.79183,60.610707,0.0,0.0,0.0,-0.007636281185212682,0.0,0.0,-0.003195510955722377,0.01086369874916359,-0.026092328968112373,-0.035149339967469766,-0.022677904112384878,-0.0030321283287727675
754,8.0,298.81494,452.60770999999994,0.0,0.0,0.0,-0.007646422328884943,0.0,0.0,-0.03526340761072737,-0.04367728040061196,-0.05864075522739194,-0.09168634176748741,-0.05033727704915245,-0.02272811268134008
755,8.0,298.82755,789.09065,0.0,0.0,0.0,-0.007656563472557205,0.0,0.0,-0.0999558102061204,-0.04660165900447566,-0.09330638378262311,-0.09468113821355081,-0.06754545852471773,0.013180228618037288
756,8.0,297.83502999999996,425.29104,0.0,0.0,0.0,-0.007666704616229467,0.0,0.0,-0.061548484105612436,-0.03512186467775817,-0.03260750887261057,-0.09867269715398701,-0.006087395034179114,0.002073359774724678
757,8.0,299.78333,32.635108,0.0,0.0,0.0,-0.007676845759901727,0.0,0.0,-0.017822104644904784,-0.002699923745686727,0.010601770558563291,-0.08371311118109083,0.015903893522842088,0.028910234238217973
758,8.0,299.34442,93.32121500000001,0.0,0.0,0.0,-0.007686986903573988,0.0,0.0,-0.014682301977030387,-0.0013770110402254088,-0.012308005706705588,-0.06719895130852015,-0.006067565324422074,0.00985519228083175
759,8.0,299.4893,892.75811,0.0,0.0,0.0,-0.007697128047246249,0.0,0.0,-0.08363550331618151,-0.08816780850373522,-0.0995728634765765,-0.08742681870560522,-0.03953307938561117,0.04044865622897156
760,8.0,299.22907000000004,957.53538,0.0,0.0,0.0,-0.00770726919091851,0.0,0.0,-0.090823778169359,-0.07562099190746083,-0.12462207173174088,-0.035973836772591264,-0.017605087751736883,0.025369049768480274
761,8.0,300.4267,312.06253,0.0,0.0,0.0,-0.007717410334590772,0.0,0.0,-0.02116844010716238,-0.05317034864675485,-0.02052043019120878,-0.06516148875568824,-0.027494557675501574,0.0008778096481430672
762,8.0,300.34664,32.832301,0.0,0.0,0.0,-0.0077275514782630325,0.0,0.0,-0.009276694969438512,-0.02098974737252678,0.02028624276184628,-0.07462571483773463,-0.02946258118573037,-0.008401949875957892
763,8.0,301.88488,531.31339,0.0,0.0,0.0,-0.007737692621935295,0.0,0.0,-0.08315156392267042,-0.05083313327708966,-0.02752130443839127,-0.09643240219613711,-0.039052509048682564,-0.019173739748300785
764,8.0,300.49407,760.19358,0.0,0.0,0.0,-0.007747833765607556,0.0,0.0,-0.0990341589284105,-0.08318053274302942,-0.04886517360161716,-0.096893602230904,0.013309010679247089,-0.04697706006052486
765,8.0,299.89491,384.39907999999997,0.0,0.0,0.0,-0.007757974909279816,0.0,0.0,-0.047223279834824855,-0.03839733748102216,-0.03122710455912527,-0.07570589719959032,-0.005370036052231296,-0.028202149737085472
766,8.0,300.37689,-149.8683,0.0,0.0,0.0,-0.007768116052952078,0.0,0.0,0.015381231763509385,0.0015388148208691987,0.028636173390920273,-0.0902521115821899,-0.03409950748585937,-0.011922675812926489
767,8.0,300.30457,-137.95948,0.0,0.0,0.0,-0.0077782571966243386,0.0,0.0,0.036768606846278966,-0.006357692467955395,0.011525321680210688,-0.09268434447998261,-0.05386558007036885,0.012014001057689589
768,8.0,298.52993,637.24058,0.0,0.0,0.0,-0.0077883983402966,0.0,0.0,-0.05823334661393385,-0.07015794760205034,-0.06531393121998315,-0.06989908550625264,-0.01935101494604648,0.014396742767597887
769,8.0,297.91875,1042.1224,0.0,0.0,0.0,-0.007798539483968861,0.0,0.0,-0.1092511893047529,-0.086959829973017,-0.12056815940665087,-0.07523167386128814,0.015257447051792787,0.03456143807394837
770,8.0,298.28051,391.79944,0.0,0.0,0.0,-0.007808680627641123,0.0,0.0,-0.034902919569649964,-0.04551729698595746,-0.038677028959125566,-0.1026780535210349,-0.01852415422844168,0.007489083172639963
771,8.0,299.43307000000004,63.108098,0.0,0.0,0.0,-0.007818821771313383,0.0,0.0,0.009345215399500952,-0.022961233158347277,-0.005567268122621584,-0.07483892596352693,-0.03086153709529657,0.020417611650561378
772,8.0,299.85826000000003,532.94168,0.0,0.0,0.0,-0.007828962914985645,0.0,0.0,-0.06940084307432993,-0.04013441596220846,-0.05246570514296195,-0.09107212576886901,-0.008831863078112021,0.006889182472759373
773,8.0,299.04413,778.03833,0.0,0.0,0.0,-0.007839104058657904,0.0,0.0,-0.1033311438729899,-0.05187164167558245,-0.08130144219407763,-0.039222412851950765,-0.04520006661814926,0.02480365013317968
774,8.0,300.04578,289.88455,0.0,0.0,0.0,-0.007849245202330168,0.0,0.0,-0.04842670076659325,-0.03979126260384186,0.0001002979959106415,-0.06899765059453794,-0.027493985189195075,-0.007944268048188211
775,8.0,300.27886,-192.59593999999998,0.0,0.0,0.0,-0.00785938634600243,0.0,0.0,-0.00867736077768883,0.01870705803049288,0.04851465898127405,-0.05992159555955104,-0.012968796759420588,0.0005605269257022004
776,8.0,300.47143,128.405,0.0,0.0,0.0,-0.00786952748967469,0.0,0.0,-0.028945367672185373,0.000992618767558845,-0.01107916334317829,-0.056434786143179747,0.028976649742522675,-0.015720155815958585
777,8.0,300.2522,822.60453,0.0,0.0,0.0,-0.00787966863334695,0.0,0.0,-0.08650268496515032,-0.08208802318045712,-0.08146052853927822,-0.09369271679400122,0.014906347786141987,-0.015924010590327484
778,8.0,299.7452,897.6407199999999,0.0,0.0,0.0,-0.007889809777019212,0.0,0.0,-0.08616572661789511,-0.08244593857953063,-0.1042487026335459,-0.11811903258994087,-0.032329945219717174,0.005954753705988434
779,8.0,299.50492,355.75233,0.0,0.0,0.0,-0.007899950920691472,0.0,0.0,-0.00928913200646595,-0.06257352539702614,-0.036277168388777765,-0.1012563876369774,-0.05157961793051195,0.019636045238926782
780,8.0,299.83612999999997,-14.962570000000001,0.0,0.0,0.0,-0.007910092064363734,0.0,0.0,0.025758108422627376,-0.014386189767806385,-0.0068236702809188225,-0.06869609013952624,-0.011558522846237387,0.016492950521477485
781,8.0,298.86857000000003,319.54812000000004,0.0,0.0,0.0,-0.007920233208035997,0.0,0.0,-0.01120376574772559,-0.037491179810591364,-0.048439702791876454,-0.05121977532974825,-0.005207117493827485,0.007084230178584083
782,8.0,297.99141000000003,646.6603,0.0,0.0,0.0,-0.007930374351708258,0.0,0.0,-0.06978803633504292,-0.07729780227269913,-0.04948274548456675,-0.10993194138443789,-0.006871325459622025,-0.019920127129713482
783,8.0,299.50687999999997,213.21587000000002,0.0,0.0,0.0,-0.007940515495380518,0.0,0.0,-0.017325261511370184,-0.024895342174478977,-0.022591694767376682,-0.06772434681662264,-0.0063903792069063235,-0.03658277272493857
784,8.0,300.22086,-280.34454,0.0,0.0,0.0,-0.00795065663905278,0.0,0.0,0.033807935650333465,-0.0024221856111261075,0.05383198981630375,-0.08193913823726331,0.011144715558397791,-0.02440198664778858
785,8.0,300.39957999999996,80.80654799999999,0.0,0.0,0.0,-0.00796079778272504,0.0,0.0,-0.022665636693424182,-0.011493736648093488,0.00959620069167127,-0.06330562189902843,-0.022769324602657376,-0.027676389458946973
786,8.0,300.13466,856.30659,0.0,0.0,0.0,-0.007970938926397301,0.0,0.0,-0.1041109715474529,-0.061383882640117536,-0.09480097327637761,-0.09409904224310241,-0.08266264237841763,0.005952500947041105
787,8.0,300.02167000000003,837.63923,0.0,0.0,0.0,-0.007981080070069565,0.0,0.0,-0.09715963104465901,-0.07375279886333454,-0.08370898016043313,-0.1026608890643409,-0.061179851560231244,-0.0006074004528807574
788,8.0,300.21628,418.94772,0.0,0.0,0.0,-0.007991221213741823,0.0,0.0,-0.05320491668716645,-0.017687294758850083,-0.05645743329616485,-0.06702170650827743,-0.019383693275021582,0.027027156550122677
789,8.0,300.71567000000005,398.42035,0.0,0.0,0.0,-0.008001362357414086,0.0,0.0,-0.030266865677857073,-0.047713849936990356,-0.043129123242263055,-0.06631829005035564,0.00037082180394476267,0.002076206298230608
790,8.0,299.70299,544.13233,0.0,0.0,0.0,-0.008011503501086347,0.0,0.0,-0.060901493519259435,-0.046292575167471456,-0.05820857264898884,-0.07366419115533963,-0.0025556085604439274,0.024535729581487975
791,8.0,299.35175,809.07696,0.0,0.0,0.0,-0.008021644644758607,0.0,0.0,-0.07743758215049433,-0.06515763536555794,-0.1033439716192559,-0.05411498550298324,-0.005583380521736754,0.023387494303165977
792,8.0,298.99499,367.86099,0.0,0.0,0.0,-0.008031785788430869,0.0,0.0,-0.024475499969043774,-0.03706232778526697,-0.05028272670351875,-0.06394368473875034,0.028919952319927073,0.04526142499120486
793,8.0,299.36375,-109.61769,0.0,0.0,0.0,-0.008041926932103129,0.0,0.0,0.01967100743362728,-0.006459109075764433,0.02010914184311778,-0.07478148785510823,-0.02028134876386328,0.006973993431304563
794,8.0,299.68651,300.03417,0.0,0.0,0.0,-0.00805206807577539,0.0,0.0,-0.03943803855273136,-0.028519200759625975,-0.023245657527667777,-0.08219848973285933,-0.05361173558906636,0.0028169339685597374
795,8.0,300.03559,770.25189,0.0,0.0,0.0,-0.008062209219447652,0.0,0.0,-0.0907235758404698,-0.08504730115751512,-0.05836646639882174,-0.10333793264865991,-0.04232458239786106,-0.044598386549768054
796,8.0,299.93147999999997,746.4373,0.0,0.0,0.0,-0.008072350363119915,0.0,0.0,-0.07736222674055733,-0.07466641506775143,-0.07486965783905994,-0.06929052749619263,-0.006013806124466454,-0.025209769892510576
797,8.0,300.86947000000004,365.33361,0.0,0.0,0.0,-0.008082491506792177,0.0,0.0,-0.03271909506637327,-0.05972039550044414,-0.018612804492940782,-0.05635394499720135,-0.005632131226448074,-0.03132257906304787
798,8.0,300.35312999999996,127.11214,0.0,0.0,0.0,-0.008092632650464436,0.0,0.0,0.002468877391634228,-0.029962871396105175,-0.011144923274668291,-0.05627760369491704,-0.03667436344122787,0.006671112103462504
799,8.0,300.61215,261.372,0.0,0.0,0.0,-0.008102773794136696,0.0,0.0,-0.007885041857318042,-0.04332831605292187,-0.028237203124294976,-0.03958864298134487,-0.032643514714914064,-0.004531987736297366
800,8.0,300.20869,539.84268,0.0,0.0,0.0,-0.008112914937808958,0.0,0.0,-0.023552178855169078,-0.06037343822964445,-0.08017307877671682,-0.06391844569200944,-0.006343983396752415,0.02723196175308537
801,8.0,299.68913,589.0283599999999,0.0,0.0,0.0,-0.00812305608148122,0.0,0.0,-0.05641423641790165,-0.05293447820897625,-0.06970119978822284,-0.1037430300386399,-0.019185952451756083,-0.008250214153607743
802,8.0,300.08563,263.93451,0.0,0.0,0.0,-0.008133197225153483,0.0,0.0,-0.006501142033637763,-0.030516952014538672,-0.043211407256383866,-0.13153174840367288,-0.039326103800934264,0.015360164267430185
803,8.0,300.28396000000004,42.891781,0.0,0.0,0.0,-0.00814333836882574,0.0,0.0,-0.005825520140534074,-0.017718611279690783,0.01050610049737139,-0.12275082171206289,0.009363056808586762,-0.015120400922767384
804,8.0,299.43477,622.47183,0.0,0.0,0.0,-0.008153479512498004,0.0,0.0,-0.08718436619517701,-0.047122924505170555,-0.05490860351130724,-0.08819877038704092,0.018809462151849383,0.021196628724944377
805,8.0,299.89152,991.2333699999999,0.0,0.0,0.0,-0.008163620656170264,0.0,0.0,-0.14527039637707187,-0.08068023274326902,-0.07535956831541032,-0.07862193776838113,-0.009073490195008761,0.009012629226427251
806,8.0,299.72091,372.59271,0.0,0.0,0.0,-0.008173761799842525,0.0,0.0,-0.07544400244624333,-0.02630000470860837,-0.011514872031929389,-0.07472974623875173,-0.05850398571564385,0.013399227428400788
807,8.0,299.62892,92.380092,0.0,0.0,0.0,-0.008183902943514787,0.0,0.0,-0.006865626839734613,-0.012112285304139488,-0.0091033287892536,-0.03336361534898247,-0.04715484897607125,-0.012291197914046788
808,8.0,300.30025,387.28771,0.0,0.0,0.0,-0.008194044087187047,0.0,0.0,-0.04237906485573806,-0.047903979225504656,-0.027442750197888575,-0.03914739992054756,-0.008587130552308803,0.017555231793816486
809,8.0,300.66691000000003,606.53041,0.0,0.0,0.0,-0.008204185230859308,0.0,0.0,-0.05857383715103764,-0.06356090114247254,-0.06223536026890184,-0.07065211474207084,-0.014270929529181086,0.0023025924110981776
810,8.0,301.37068,575.78854,0.0,0.0,0.0,-0.008214326374531572,0.0,0.0,-0.06223090399496204,-0.04345610816878396,-0.06933832452990984,-0.11971963337540789,-0.05277509498149635,0.04508672648846345
811,8.0,300.99505,114.66861999999999,0.0,0.0,0.0,-0.008224467518203833,0.0,0.0,0.013688627868962387,-0.042541159540485554,-0.006003864317135275,-0.09497417419547122,-0.01757473077874088,-0.018193025109011784
812,8.0,299.81016,-91.394683,0.0,0.0,0.0,-0.008234608661876093,0.0,0.0,0.02994814279265157,-0.020660249585757882,0.01849380840119678,-0.07406785479642813,-0.002897724756008167,0.002917502891335117
813,8.0,299.94217000000003,516.2615099999999,0.0,0.0,0.0,-0.008244749805548353,0.0,0.0,-0.03414651621099876,-0.07654273539092983,-0.046241357401416654,-0.07412828300589193,-0.012238987162893988,-0.04897694218039786
814,8.0,299.13811,852.51255,0.0,0.0,0.0,-0.008254890949220614,0.0,0.0,-0.08106986793672302,-0.0953943507734394,-0.08267831026471392,-0.08640238941725191,-0.03344112796838237,-0.004051478700999816
815,8.0,299.17376,235.24489,0.0,0.0,0.0,-0.008265032092892876,0.0,0.0,-0.026950910493347774,-0.04818849782708446,0.0036308368385856967,-0.07231047483623823,0.0006969230547884504,-0.025456394966850576
816,8.0,299.74894,-81.320762,0.0,0.0,0.0,-0.008275173236565138,0.0,0.0,0.005978723251679045,-0.005806862963792755,0.02454762108466158,-0.05276667487316536,-0.0008060525730211952,0.01091110061534179
817,8.0,299.81517,427.58955999999995,0.0,0.0,0.0,-0.0082853143802374,0.0,0.0,-0.061724877775771146,-0.03144511139764087,-0.036806558128774466,-0.08589737543491091,-0.03343318104784807,0.004740885253763946
818,8.0,300.09817999999996,851.38385,0.0,0.0,0.0,-0.008295455523909659,0.0,0.0,-0.09937330893563201,-0.06118895662562985,-0.09823716477075331,-0.12274983885946589,-0.08004303217938222,0.024307282213941978
819,8.0,300.40774,648.6764400000001,0.0,0.0,0.0,-0.00830559666758192,0.0,0.0,-0.053142356599492256,-0.05536658850350685,-0.08867249621954401,-0.10411437606778891,-0.04305792114448596,0.009299534943917642
820,8.0,299.67992999999996,201.5411,0.0,0.0,0.0,-0.008315737811254182,0.0,0.0,0.002935639358850047,-0.01808415239901688,-0.04611494837194106,-0.07846262648165833,-0.0017060896454279384,0.017884272604790283
821,8.0,300.13164,186.02758,0.0,0.0,0.0,-0.008325878954926444,0.0,0.0,-0.0004226304569278786,-0.037306048884820364,-0.01881905864354648,-0.08204166394863183,0.015303696852607285,0.001089155603416289
822,8.0,300.26099,597.56843,0.0,0.0,0.0,-0.008336020098598705,0.0,0.0,-0.07382087913755353,-0.05838133077778874,-0.049443670507710355,-0.08901602346719752,-0.024419099428727477,0.016243118510570982
823,8.0,299.68708,709.60347,0.0,0.0,0.0,-0.008346161242270965,0.0,0.0,-0.09480541536481601,-0.06528617627324393,-0.05561014343004385,-0.08351764814405013,0.006865452155417374,-0.013215398529008287
824,8.0,299.18915,409.78146,0.0,0.0,0.0,-0.008356302385943227,0.0,0.0,-0.06493984434931364,-0.026755471774309474,-0.03286801749982077,-0.07193708609488764,-0.004158013640363996,0.02319548036946568
825,8.0,299.59567000000004,19.008871,0.0,0.0,0.0,-0.00836644352961549,0.0,0.0,0.004885564297117655,-0.01016283872124409,-0.0005009472118721405,-0.08045081265562702,-0.019670356927063083,-0.013540219153315589
826,8.0,300.08214,338.36712,0.0,0.0,0.0,-0.00837658467328775,0.0,0.0,-0.03880351904860917,-0.01030976910499499,-0.05374186932590955,-0.1032489591573789,-0.06501362314209504,0.015537142582896585
827,8.0,300.91863,978.00036,0.0,0.0,0.0,-0.008386725816960011,0.0,0.0,-0.11109811118952989,-0.08148766742995663,-0.10470190913827389,-0.07566701271375273,-0.0072546472943529425,-0.014255297106638287
828,8.0,300.01792,682.6254799999999,0.0,0.0,0.0,-0.008396866960632271,0.0,0.0,-0.07490771855256623,-0.03164613819098067,-0.1009472450314674,-0.07928488501730893,0.0016008428509158886,0.03352450426611097
829,8.0,299.31982,129.73747,0.0,0.0,0.0,-0.008407008104304533,0.0,0.0,-0.0057279239922270846,-0.023052096361064776,-0.010656929867507091,-0.07574546866899573,-0.018032357080405084,-0.03028244034514417
830,8.0,299.21026,299.42421,0.0,0.0,0.0,-0.008417149247976794,0.0,0.0,-0.015341387729827086,-0.04840085478304246,-0.027275240704606674,-0.07255195057357003,-0.026763425787594476,0.01045081959841559
831,8.0,299.89102,545.4183,0.0,0.0,0.0,-0.008427290391649056,0.0,0.0,-0.038062923404768065,-0.07576737310965753,-0.05196324860387336,-0.05404693663951735,-0.00996559986207813,-0.049693435644110245
832,8.0,299.5973,554.71962,0.0,0.0,0.0,-0.008437431535321317,0.0,0.0,-0.038182702738839364,-0.08016640753805843,-0.05027180488069086,-0.044093181063158154,-0.004436060512230086,-0.001138603728171439
833,8.0,300.80223,186.74229,0.0,0.0,0.0,-0.008447572678993577,0.0,0.0,-0.0029035411155571974,-0.02809930890493587,-0.02576214419777568,-0.11155253359437789,-0.03948041165866326,-0.0014611195124762685
834,8.0,300.67999,-50.434934000000005,0.0,0.0,0.0,-0.008457713822665839,0.0,0.0,-0.021525833682434378,0.017562014489985883,0.019294779565496484,-0.10783334843982288,-0.06599950535689403,0.02172029866812658
835,8.0,300.64558,219.6964,0.0,0.0,0.0,-0.0084678549663381,0.0,0.0,-0.036552346850935766,-0.018317477552544283,-0.011912393350911689,-0.1071012651100719,-0.008425933607149903,0.002605596240877327
836,8.0,300.86023,710.3448,0.0,0.0,0.0,-0.008477996110010362,0.0,0.0,-0.1054028654249529,-0.03796231881558917,-0.07256190068955203,-0.07345049974899993,0.016499090817083485,0.01071652518538869
837,8.0,299.88361000000003,747.1505900000001,0.0,0.0,0.0,-0.008488137253682623,0.0,0.0,-0.08999377131019372,-0.04319586298659976,-0.093925488712974,-0.09599723052993901,-0.024743532991496578,0.025113917446300676
838,8.0,299.85682,517.55998,0.0,0.0,0.0,-0.008498278397354883,0.0,0.0,-0.05774336217032614,-0.028781430898756073,-0.07080051636496694,-0.08296664679267052,-0.044805245610683456,0.013874075942014686
839,8.0,299.24309,539.47757,0.0,0.0,0.0,-0.008508419541027145,0.0,0.0,-0.05149528107168855,-0.04479885504230276,-0.06769357542433574,-0.056507924561897946,-0.003940991883595616,0.026250569249479473
840,8.0,300.00741,786.8489999999999,0.0,0.0,0.0,-0.008518560684699406,0.0,0.0,-0.0938076740708466,-0.07078297801898602,-0.07459179730388722,-0.04733005410386265,-0.002348161206520468,0.02712726971300308
841,8.0,300.69392999999997,681.81038,0.0,0.0,0.0,-0.008528701828371668,0.0,0.0,-0.0908364397426086,-0.057974266669364644,-0.05844262531608804,-0.07354245219557493,-0.03490585394193957,0.01194626528850459
842,8.0,301.43498,138.08765,0.0,0.0,0.0,-0.00853884297204393,0.0,0.0,-0.01972130212884098,-0.025393664653159575,0.003139769433271117,-0.1102137566347509,-0.06188976801754453,-0.022711205590171476
843,8.0,300.81568,-188.14465,0.0,0.0,0.0,-0.00854898411571619,0.0,0.0,0.028102161203967375,-0.02077939665176678,0.049868511075888855,-0.09892026759067031,-0.02175904839170088,-0.026972940577021976
844,8.0,300.20052000000004,-46.369605,0.0,0.0,0.0,-0.00855912525938845,0.0,0.0,0.017423800083595183,-0.006988632362124313,0.0036600337415422066,-0.07767960098987972,-0.006717148513805943,-0.013726454521695587
845,8.0,299.90116,508.85169,0.0,0.0,0.0,-0.008569266403060712,0.0,0.0,-0.04368754969037546,-0.05369329208961535,-0.05729736696655985,-0.0957548215892651,-0.036326419436388466,-0.0004639088677167405
846,8.0,300.04502,632.7461599999999,0.0,0.0,0.0,-0.008579407546732974,0.0,0.0,-0.08334091098210752,-0.05398577281048095,-0.05501234917579615,-0.09259205360787422,-0.024162402648393477,-0.004228982791943106
847,8.0,299.33238,360.35911,0.0,0.0,0.0,-0.008589548690405235,0.0,0.0,-0.043154666264033956,-0.025143355401455975,-0.041242148594283164,-0.05394558123201436,0.007734973235357423,-0.003862321220656426
848,8.0,299.21985,322.6153,0.0,0.0,0.0,-0.008599689834077495,0.0,0.0,-0.01855159000139938,-0.07331433717406172,-0.006201069739047934,-0.043150525110875255,0.024442144789001877,-0.03652777046976026
849,8.0,299.17346000000003,770.96535,0.0,0.0,0.0,-0.008609830977749757,0.0,0.0,-0.07893282113756292,-0.07445197182983752,-0.08096942141455972,-0.08633652714750183,-0.031194873073444266,0.013813087405245589
850,8.0,300.17742000000004,955.13539,0.0,0.0,0.0,-0.008619972121422018,0.0,0.0,-0.0964854813026256,-0.1060547702742909,-0.08779705725239492,-0.09575020420855941,-0.053279201091747753,-0.026917321252532773
851,8.0,300.82549,196.10813000000002,0.0,0.0,0.0,-0.00863011326509428,0.0,0.0,-0.012582543794800387,-0.014364969270962086,-0.03266446264748147,-0.09559835449557301,-0.017527747384853982,0.03337733880833687
852,8.0,299.79852,-445.1318,0.0,0.0,0.0,-0.008640254408766541,0.0,0.0,0.05806544397961315,0.01889367134116018,0.05834983693818055,-0.08715343268287411,-0.01936794838171768,-0.014034273822574985
853,8.0,299.70981,26.962089000000002,0.0,0.0,0.0,-0.008650395552438801,0.0,0.0,-0.014514030519673288,0.0013575425541290185,0.004960686659531655,-0.11086951183446889,-0.04114071415327236,0.022254331120081478
854,8.0,300.61364,798.83101,0.0,0.0,0.0,-0.008660536696111063,0.0,0.0,-0.08867323183911661,-0.07464624531126084,-0.07950520409255273,-0.12111325756294787,-0.030306241589993173,-0.023466027265416578
855,8.0,299.62978,817.2652,0.0,0.0,0.0,-0.008670677839783324,0.0,0.0,-0.09262516662114223,-0.06988904926401213,-0.08591399780280143,-0.08080265969985163,0.015161357505059488,0.013035595272263088
856,8.0,300.18806,367.54562000000004,0.0,0.0,0.0,-0.008680818983455586,0.0,0.0,-0.016426656607184786,-0.03377735981531586,-0.06152067444336784,-0.0983205005384779,0.0001210440829786209,-0.012470275683720387
857,8.0,300.01855,318.89361,0.0,0.0,0.0,-0.008690960127127847,0.0,0.0,-0.04250601496076705,-0.011492416383213189,-0.042937263322577954,-0.0897125619834405,-0.04477980898017305,0.04835992758500325
858,8.0,299.66482,781.93796,0.0,0.0,0.0,-0.008701101270800107,0.0,0.0,-0.0955659598766259,-0.03019305243457227,-0.11193060760419091,-0.1012435011222056,-0.030446484523084072,0.035933687750628863
859,8.0,300.04395,935.7900099999999,0.0,0.0,0.0,-0.008711242414472369,0.0,0.0,-0.11730479494208189,-0.05182649327762665,-0.11532550206424089,-0.04083136788449226,-0.0015525436504491286,0.04091125758862676
860,8.0,299.88617,274.63648,0.0,0.0,0.0,-0.00872138355814463,0.0,0.0,-0.014579215938356586,-0.037455824474852066,-0.03144759386038587,-0.06269853411486354,0.00922612588609773,-7.269257752844883e-05
861,8.0,299.55805,-244.09082,0.0,0.0,0.0,-0.008731524701816892,0.0,0.0,0.05062503095830155,0.006638485348917494,0.016933997011755384,-0.09124926215135101,-0.038287824396964064,-0.016526127369501785
862,8.0,299.45982000000004,120.70088999999999,0.0,0.0,0.0,-0.008741665845489154,0.0,0.0,0.007749267053193112,-0.038642113373929664,-0.005797210338040114,-0.08392756759125602,-0.028564677450614175,-0.04259780731382626
863,8.0,299.84627,614.5944900000001,0.0,0.0,0.0,-0.008751806989161413,0.0,0.0,-0.05667921347805285,-0.06866223340068484,-0.06147993064359674,-0.05161981660172925,0.003351681775085237,-0.008988945518589852
864,8.0,300.62138999999996,441.67256,0.0,0.0,0.0,-0.008761948132833675,0.0,0.0,-0.036143022181538566,-0.062107211489004534,-0.036007194992383466,-0.06775809615095343,0.012817669493755488,-0.034548220226393866
865,8.0,301.35393,25.775648999999998,0.0,0.0,0.0,-0.008772089276505936,0.0,0.0,0.02230061841114968,-0.019870174913033584,-0.01026559748013559,-0.1126511702803049,-0.06273638407234904,-0.004903176306380826
866,8.0,300.60052,231.33811,0.0,0.0,0.0,-0.008782230420178198,0.0,0.0,-0.007823003796095362,-0.05776073333004054,-0.004737272206557366,-0.10178890629328291,-0.01985951045573108,-0.027035645559460475
867,8.0,299.67002,769.48724,0.0,0.0,0.0,-0.00879237156385046,0.0,0.0,-0.08335290178379091,-0.06056344694139684,-0.08998855813842922,-0.07958631172330742,0.0010089220731253558,-0.0013011358329871087
868,8.0,299.72427999999996,991.046,0.0,0.0,0.0,-0.00880251270752272,0.0,0.0,-0.1034604041882469,-0.1029379015091799,-0.09485492985745271,-0.07837631378513991,0.017536198903938083,-0.013816515230333885
869,8.0,299.63455,294.01516000000004,0.0,0.0,0.0,-0.008812653851194981,0.0,0.0,-0.04974617936481565,-0.0007198008032313084,-0.03890728599135017,-0.11164633015613488,-0.05673592305964965,0.03384642091563167
870,8.0,299.94673,-134.69055,0.0,0.0,0.0,-0.008822794994867243,0.0,0.0,0.033221424949199364,-0.0004211862512953466,0.008142326424035052,-0.0946750050106955,-0.05027072982233475,0.005557717835129045
871,8.0,299.33038,258.30711,0.0,0.0,0.0,-0.008832936138539504,0.0,0.0,-0.02358686139284198,-0.009370076503954551,-0.04556197523586686,-0.08309245597808693,-0.014252205680583187,0.03348718322517767
872,8.0,299.07763,768.9089799999999,0.0,0.0,0.0,-0.008843077282211766,0.0,0.0,-0.08901096228294801,-0.048725795984111656,-0.09599237098245941,-0.07246939399517234,-0.017074355455357685,-0.0019475634575845482
873,8.0,299.44695,602.58085,0.0,0.0,0.0,-0.008853218425884025,0.0,0.0,-0.07573428036139153,-0.05116919692450655,-0.056266055683527355,-0.1209331016951679,-0.046682284328182756,0.008638017289555931
874,8.0,299.9922,69.519462,0.0,0.0,0.0,-0.008863359569556287,0.0,0.0,-0.009361927744000331,-0.017346277331694283,0.0055760248326358055,-0.10774286520589291,-0.033182271952085264,-0.017140826688417883
875,8.0,300.23057,357.01954,0.0,0.0,0.0,-0.008873500713228549,0.0,0.0,-0.04667066437603595,-0.04911837770885645,-0.012735983297193687,-0.08632814756917483,0.006369983191668394,0.02240594981204508
876,8.0,300.37487000000004,753.98712,0.0,0.0,0.0,-0.00888364185690081,0.0,0.0,-0.09517724572751282,-0.06778019817538473,-0.06623581149221565,-0.060995034741991236,0.0058952405626899445,-0.006417881145095555
877,8.0,300.82707999999997,729.56653,0.0,0.0,0.0,-0.008893783000573072,0.0,0.0,-0.08770562460312123,-0.06027422483285285,-0.07379015739452154,-0.07510330925911952,-0.06218771218294934,0.03386960509116976
878,8.0,299.80177000000003,206.29321000000002,0.0,0.0,0.0,-0.008903924144245332,0.0,0.0,-0.012241172743359688,-0.04714560104240855,-0.0033212114194030467,-0.07054214468221763,-0.026350038998546377,-0.02074259946113518
879,8.0,300.06701,-146.8596,0.0,0.0,0.0,-0.008914065287917593,0.0,0.0,0.03289948296842617,0.013727034100752787,-0.001984864132190838,-0.06075438885649134,0.007138878302852433,-0.009926527215696961
880,8.0,300.53323,168.13203000000001,0.0,0.0,0.0,-0.008924206431589855,0.0,0.0,-0.01024610254821159,-0.028097308749238475,-0.012764528579010887,-0.055461669866390645,0.025976971457477474,-0.05504552298407015
881,8.0,300.02758,703.01904,0.0,0.0,0.0,-0.008934347575262116,0.0,0.0,-0.057758357258556034,-0.06526311875396834,-0.09067875674879651,-0.10776457915553589,-0.03345705625995436,-0.004787907151154646
882,8.0,298.67816,514.38946,0.0,0.0,0.0,-0.008944488718934378,0.0,0.0,-0.044285496945388254,-0.047954457318986454,-0.06412159727080895,-0.10926661097127491,-0.026616608887854772,-0.029209666868019672
883,8.0,299.20759,65.616741,0.0,0.0,0.0,-0.008954629862606638,0.0,0.0,0.0066348006649288435,-0.03673530435524226,0.01015465267368619,-0.08898053134269472,-0.023719380320420577,0.011004535446813091
884,8.0,299.53339,127.79262,0.0,0.0,0.0,-0.008964771006278899,0.0,0.0,0.0014610547657948787,-0.034996128446348966,-0.005310692324349525,-0.08935791735568982,-0.015375753120218685,-0.004049380969317786
885,8.0,299.33052000000004,616.32875,0.0,0.0,0.0,-0.00897491214995116,0.0,0.0,-0.058897753956255745,-0.07589546413429914,-0.05255533116730735,-0.08134588739646402,-0.060625637192784534,0.022287592067864077
886,8.0,299.58128999999997,714.175,0.0,0.0,0.0,-0.008985053293623422,0.0,0.0,-0.08743814684172323,-0.061595092596962345,-0.06805812761156424,-0.10419408845315589,-0.02703912911330427,0.022560795705577178
887,8.0,299.65581000000003,203.47146999999998,0.0,0.0,0.0,-0.008995194437295684,0.0,0.0,-0.03343066008159927,0.0011748769671763289,-0.029594463792246176,-0.07804402652084572,0.01949789264079218,0.02861442195102357
888,8.0,300.06079,14.516901,0.0,0.0,0.0,-0.009005335580967944,0.0,0.0,-0.02161366828060298,0.005738988176694035,0.01146190438295189,-0.08254176366798782,-0.0017513589241206686,0.02123307229129108
889,8.0,299.96109,510.93768,0.0,0.0,0.0,-0.009015476724640205,0.0,0.0,-0.07796586947438222,-0.01859840215601938,-0.058748023962478545,-0.0915670731114665,-0.03118850986281627,0.02100546693457818
890,8.0,300.18636000000004,1092.0118,0.0,0.0,0.0,-0.009025617868312467,0.0,0.0,-0.14056760882044286,-0.07707651453035973,-0.1143001942880509,-0.11275272833782789,-0.05064792635756116,-0.0036664583551262665
891,8.0,299.39975,885.8023900000001,0.0,0.0,0.0,-0.009035759011984728,0.0,0.0,-0.09073180343128182,-0.08292855264191092,-0.0956014509878786,-0.07176337753749394,-0.007719128232943643,-0.005382928646503695
892,8.0,300.20375,99.228453,0.0,0.0,0.0,-0.00904590015565699,0.0,0.0,0.0045244581734792556,-0.024531737376093977,-0.010155693281538892,-0.10036831749408172,-0.01202664337918729,0.001011341694099154
893,8.0,299.72072000000003,31.509943,0.0,0.0,0.0,-0.00905604129932925,0.0,0.0,0.03641775278715236,-0.04049712302100486,-0.005498866242820845,-0.0994413253750947,-0.05239294264003086,5.686852304723624e-06
894,8.0,299.31347999999997,471.69530999999995,0.0,0.0,0.0,-0.009066182443001511,0.0,0.0,-0.04511064020407355,-0.06654092136232763,-0.03173203646820817,-0.0966948380250375,-0.02136426386123868,0.003826934676814046
895,8.0,299.33409,580.72362,0.0,0.0,0.0,-0.009076323586673773,0.0,0.0,-0.07259518696858713,-0.05904793383307735,-0.04488235900954396,-0.05820233913437364,0.013790219363738688,0.021335307199880877
896,8.0,299.22186,142.73855,0.0,0.0,0.0,-0.009086464730346034,0.0,0.0,0.019477042993484482,-0.059850676158551844,-0.003015320738763987,-0.07627132925889413,0.0035545766976344062,-0.015577464870626088
897,8.0,300.68791,28.491077,0.0,0.0,0.0,-0.009096605874018296,0.0,0.0,0.015175028275408686,-0.025660700637513974,0.0018250973895480881,-0.10952429060420589,-0.056923220314134444,-0.013682366996594485
898,8.0,300.97586,620.82303,0.0,0.0,0.0,-0.009106747017690556,0.0,0.0,-0.03101790185072857,-0.08002920536851763,-0.07766759296294463,-0.07634068420173892,-0.017659250022582285,-0.021647937412235082
899,8.0,300.22922,1026.2258,0.0,0.0,0.0,-0.009116888161362817,0.0,0.0,-0.0993376263201104,-0.1089514293951689,-0.1036579676927449,-0.08888652503816702,-0.0024131976774390677,-0.02144650227910498
900,8.0,301.16208,745.96452,0.0,0.0,0.0,-0.009127029305035079,0.0,0.0,-0.08524288274481752,-0.05541450712723604,-0.08609719848713192,-0.07211241990544173,0.005958044944963254,-0.01951806341053288
901,8.0,301.43883999999997,153.3927,0.0,0.0,0.0,-0.00913717044870734,0.0,0.0,-0.03647461131651386,-0.02143173415889748,0.01127879387788029,-0.096244402759333,-0.051332125514086356,-0.016710998903247187
902,8.0,300.27412999999996,89.966862,0.0,0.0,0.0,-0.009147311592379602,0.0,0.0,0.004298262450305476,-0.025298010803969272,-0.006347930816491994,-0.06580515385521303,-0.009383280064682642,-0.0014083860255968788
903,8.0,300.19237999999996,545.25589,0.0,0.0,0.0,-0.009157452736051862,0.0,0.0,-0.09163906453107151,-0.022244601892621278,-0.05186050707023355,-0.057490173261838355,-0.0018434862576629282,0.010141810741918791
904,8.0,299.59794,751.44455,0.0,0.0,0.0,-0.009167593879724123,0.0,0.0,-0.05658407942616386,-0.08461435357528652,-0.08722194764138601,-0.0939380378154625,-0.02440572047440708,0.04427215953432196
905,8.0,299.24542,191.9339,0.0,0.0,0.0,-0.009177735023396385,0.0,0.0,-0.015946448000541884,-0.01196507323686079,-0.030431590759864173,-0.1296628389917259,-0.07822734676868803,0.03815559424566396
906,8.0,299.91337000000004,-57.719161,0.0,0.0,0.0,-0.009187876167068645,0.0,0.0,0.006535622123940683,0.001950050986580048,0.009059510383379061,-0.1046203729027269,-0.04698138157220136,0.04571613515908126
907,8.0,299.06993,527.6732400000001,0.0,0.0,0.0,-0.009198017310740908,0.0,0.0,-0.07153610148706353,-0.04881882551554295,-0.04004456398309076,-0.08144057967130942,0.0013093156997193987,0.03016869592866847
908,8.0,298.68641,1047.1044,0.0,0.0,0.0,-0.009208158454413166,0.0,0.0,-0.12379345606496288,-0.06622787369093223,-0.12827227481948786,-0.07626266698378922,-0.010170875821037291,0.014340934978590089
909,8.0,299.33286,652.3065799999999,0.0,0.0,0.0,-0.00921829959808543,0.0,0.0,-0.06292359621382544,-0.06977573953182935,-0.06558557647904244,-0.1074263562721559,-0.04297105014716246,-0.025636678504143178
910,8.0,300.17227,-9.0600831,0.0,0.0,0.0,-0.009228440741757691,0.0,0.0,0.025631900016671576,-0.002858041423791727,-0.020019819793802383,-0.07759091931462753,-0.012604057120923589,-0.019010908430730583
911,8.0,300.51502,114.4023,0.0,0.0,0.0,-0.009238581885429952,0.0,0.0,0.0009668638549270331,-0.021971196618138275,-0.013771109466852687,-0.06001753413201944,0.013936362452161887,-0.015198187119694284
912,8.0,300.57263,430.64884000000006,0.0,0.0,0.0,-0.009248723029102212,0.0,0.0,-0.06358927822477314,-0.03819938590173586,-0.029117830945206175,-0.08339180045512992,-0.004301951592594566,0.014162038580684386
913,8.0,300.21747999999997,407.9628,0.0,0.0,0.0,-0.009258864172774474,0.0,0.0,-0.04715338888267716,-0.05221506861147605,-0.024642045861480576,-0.11401380927978688,-0.05066283937253296,-0.011313588886314289
914,8.0,300.34435,221.87226,0.0,0.0,0.0,-0.009269005316446734,0.0,0.0,-0.0010981065534746788,-0.05971495130765684,-0.006630569129861223,-0.10707543736502291,-0.030899699133812866,-0.01115494229165709
915,8.0,300.14361,91.600246,0.0,0.0,0.0,-0.009279146460118997,0.0,0.0,0.01208874345131609,-0.039374164279677465,-0.0005587669609410054,-0.08174638159123972,-0.00996005789065618,-0.023121346939149277
916,8.0,299.58151000000004,511.94892999999996,0.0,0.0,0.0,-0.009289287603791259,0.0,0.0,-0.015502274620455383,-0.08348656771048271,-0.05663085003752974,-0.07295868030946112,-0.033258890884896974,-0.013450653923976185
917,8.0,299.23918,935.8779300000001,0.0,0.0,0.0,-0.00929942874746352,0.0,0.0,-0.08996287934114491,-0.07159641823901634,-0.12292421920167589,-0.08596833333941392,-0.052226360270590445,0.0015230869501669786
918,8.0,298.43205,639.86506,0.0,0.0,0.0,-0.00930956989113578,0.0,0.0,-0.08161064154159321,-0.05699093075206694,-0.05590142952904155,-0.1022824806819949,-0.02108669919509518,0.03856432211075226
919,8.0,298.50111,33.731877000000004,0.0,0.0,0.0,-0.009319711034808041,0.0,0.0,0.00037659765375479466,-0.008406736874730333,-0.002223509051393258,-0.0861427917018816,0.02707476005307077,0.006053885840122015
920,8.0,299.74164,136.15921,0.0,0.0,0.0,-0.009329852178480301,0.0,0.0,-0.05835700365613785,0.027769204181357077,-0.01080120046974549,-0.1022792484141759,-0.0011771303340737187,0.015898418932551783
921,8.0,298.83865,696.63987,0.0,0.0,0.0,-0.009339993322152563,0.0,0.0,-0.1018947098687249,-0.04455105459784675,-0.06531536192912434,-0.09601173115212011,-0.021335320372132184,-0.008205831671402533
922,8.0,299.43676,665.11091,0.0,0.0,0.0,-0.009350134465824826,0.0,0.0,-0.08372284648805162,-0.029681543519090272,-0.08877271678693502,-0.1109680504066939,-0.03664352720093456,0.0099933686903437
923,8.0,300.5084,280.88334,0.0,0.0,0.0,-0.009360275609497084,0.0,0.0,-0.024448908233419376,-0.03851890621477007,-0.022413708268060776,-0.08746112228774072,-0.009778261773614301,0.008831816063307381
924,8.0,300.88808,88.869014,0.0,0.0,0.0,-0.009370416753169348,0.0,0.0,0.0021772742466802377,-0.03011164285528777,0.0009204073105621292,-0.09215207812295201,-0.04018439857639136,0.02239844770830468
925,8.0,299.80074,383.55433,0.0,0.0,0.0,-0.009380557896841609,0.0,0.0,-0.038073523014064165,-0.03612571890958087,-0.04239169704473476,-0.1068059533684269,-0.03486726329863096,0.011923253365483489
926,8.0,299.45682999999997,810.20113,0.0,0.0,0.0,-0.009390699040513869,0.0,0.0,-0.07294464882207634,-0.07919809001374292,-0.09413817294871432,-0.0981583501249749,-0.034081501018332266,0.013838234246227385
927,8.0,299.30787000000004,570.3528299999999,0.0,0.0,0.0,-0.00940084018418613,0.0,0.0,-0.048544861940254855,-0.08640569463907811,-0.03842246405700196,-0.09233206781771561,0.017997267216191982,-0.017316756290030787
928,8.0,300.08495,30.605665000000002,0.0,0.0,0.0,-0.00941098132785839,0.0,0.0,0.024645994497120273,-0.022248472508003277,-0.011700879419036888,-0.09520785196003341,-0.034378390390382964,-0.015832705610566385
929,8.0,300.19658,55.301642,0.0,0.0,0.0,-0.009421122471530652,0.0,0.0,-0.006793286760770204,-0.03448014907142576,0.02446311703957168,-0.1018456786963859,-0.052065185616933754,-0.02934774448564687
930,8.0,299.43354,611.0187099999999,0.0,0.0,0.0,-0.009431263615202915,0.0,0.0,-0.06024484665945344,-0.049114838426257156,-0.07637474663035063,-0.08699927478615993,-0.035277694437137366,-0.00877803325462443
931,8.0,298.92677000000003,740.67579,0.0,0.0,0.0,-0.009441404758875177,0.0,0.0,-0.09946250939493541,-0.04605546147182016,-0.07962897360551782,-0.06369332381129164,0.005132094632573305,-0.034292394841145865
932,8.0,298.70996,193.48735,0.0,0.0,0.0,-0.009451545902547437,0.0,0.0,-0.015460698942352184,-0.044981531876331554,0.0016269067845631985,-0.07634963525312233,-0.016507008353364883,-0.024952796494899277
933,8.0,299.02652,-198.03732,0.0,0.0,0.0,-0.009461687046219698,0.0,0.0,0.00910651100251766,0.01826700857831338,0.03282488040331347,-0.07910061231437263,-0.015497493093233486,-0.04165539859456776
934,8.0,299.40209,345.13797,0.0,0.0,0.0,-0.009471828189891958,0.0,0.0,-0.006488851917874823,-0.06745766749630344,-0.030966803648185572,-0.07058162394586394,-0.019003488400248285,0.0002020833902790778
935,8.0,299.26217,700.33358,0.0,0.0,0.0,-0.00948196933356422,0.0,0.0,-0.08049990056997162,-0.07635428303133102,-0.056029739415704743,-0.08598356350166701,0.006386855325708545,0.006393094210549274
936,8.0,300.79466,598.16742,0.0,0.0,0.0,-0.009492110477236481,0.0,0.0,-0.04523271961587186,-0.04438998025594996,-0.09220526058095072,-0.1072876828634699,-0.04618587790544125,0.04835865392962755
937,8.0,301.3037,221.12912999999998,0.0,0.0,0.0,-0.009502251620908744,0.0,0.0,-0.02055128568325398,-0.03061772682973437,-0.016048722425885585,-0.13706682972494288,-0.04185609304187476,0.041451874139731455
938,8.0,300.55356,119.9836,0.0,0.0,0.0,-0.009512392764581004,0.0,0.0,-0.025266675031376678,0.016652235463697682,-0.027857578841828975,-0.0990580118490146,-0.0024806396040950676,0.05433024238072745
939,8.0,300.00227,843.5332699999999,0.0,0.0,0.0,-0.009522533908253266,0.0,0.0,-0.11193719372984089,-0.07569248278151643,-0.06878337352964044,-0.09416419219803222,0.0028229249111009973,-0.0044166287057873154
940,8.0,300.99131,1118.6817,0.0,0.0,0.0,-0.009532675051925526,0.0,0.0,-0.13468306767218388,-0.09336186327859851,-0.11200635818166689,-0.08003387645147862,-0.03627964071902176,-0.0080359518821617
941,8.0,300.15103999999997,299.81792,0.0,0.0,0.0,-0.009542816195597787,0.0,0.0,-0.04808605925522455,-0.03225809869487647,-0.01079300530293669,-0.09950003409913881,-0.04732573664518655,-0.02633330517314487
942,8.0,298.42216,-114.95543,0.0,0.0,0.0,-0.009552957339270049,0.0,0.0,0.026820127263190476,-0.007798683868520174,0.015922138104142683,-0.05854684112862335,-0.04998026850891845,-0.02093621129024318
943,8.0,298.89224,276.1775,0.0,0.0,0.0,-0.009563098482942308,0.0,0.0,-0.04449514041757846,-0.009924383887760431,-0.029531538934535972,-0.06716680493584752,0.00019784184430046982,-0.013431586583594387
944,8.0,297.97845,717.65844,0.0,0.0,0.0,-0.00957323962661457,0.0,0.0,-0.06754431760510514,-0.07097500917793803,-0.07963092005895993,-0.08323446399285202,-0.05163670646764615,0.02168909461804698
945,8.0,298.90288,516.80853,0.0,0.0,0.0,-0.009583380770286833,0.0,0.0,-0.01802015045645038,-0.06987566929644164,-0.06920106967136384,-0.10775808422239488,-0.02975532737812217,-0.004607975414296766
946,8.0,299.16056000000003,178.91125,0.0,0.0,0.0,-0.009593521913959095,0.0,0.0,0.024977489399836274,-0.03897217250125396,-0.04038986847141966,-0.11815664443365288,-0.01266547020948459,0.009129195240456422
947,8.0,299.42306,197.63369,0.0,0.0,0.0,-0.009603663057631356,0.0,0.0,0.0072753841669245135,-0.04397800999054166,-0.023373081833743578,-0.07876924001491872,0.026003940122139076,-0.0016603512319389084
948,8.0,300.40924,700.8503099999999,0.0,0.0,0.0,-0.009613804201303616,0.0,0.0,-0.049591378054287955,-0.08670737364435151,-0.07674224129586953,-0.1035967471217029,-0.041173831219540755,0.018306596259720382
949,8.0,301.06087,829.0554599999999,0.0,0.0,0.0,-0.009623945344975878,0.0,0.0,-0.1072733149770519,-0.06032412233402735,-0.08441471898758413,-0.08288741772760122,-0.026091348142015573,0.035408727940069364
950,8.0,300.50007,251.71642000000003,0.0,0.0,0.0,-0.00963408648864814,0.0,0.0,-0.034665239467192764,-0.02009722703519188,-0.02175304083185798,-0.07490652393069833,-0.022797290305417377,-0.0014184583395409386
951,8.0,300.28312999999997,-27.892348,0.0,0.0,0.0,-0.0096442276323204,0.0,0.0,0.004762840863555795,0.0054289821807738245,-0.0017132459269092084,-0.06276107089778545,0.01014416249540089,-0.02247215557357908
952,8.0,298.84647,300.57622000000003,0.0,0.0,0.0,-0.00965436877599266,0.0,0.0,-0.05510735859792285,-0.02749868362990877,-0.008761623973229962,-0.08942757323381433,-0.019521781025149784,-0.03993759618328386
953,8.0,299.81956,828.03785,0.0,0.0,0.0,-0.00966450991966492,0.0,0.0,-0.10288089605855391,-0.07512709023896652,-0.07369484906361533,-0.1110051454928549,-0.029096450354846072,0.00042849820852198064
954,8.0,300.32667999999995,671.9630599999999,0.0,0.0,0.0,-0.009674651063337182,0.0,0.0,-0.0977662426012769,-0.04141352059694626,-0.06508022913741852,-0.0917454922685751,-0.007092465774071873,0.014622693486897487
955,8.0,299.59822,81.258729,0.0,0.0,0.0,-0.009684792207009444,0.0,0.0,-0.04040792053520126,0.008170110856352162,0.007537185194637263,-0.1011102131378011,-0.014076013647194385,0.03802946993946646
956,8.0,300.09547000000003,52.79919399999999,0.0,0.0,0.0,-0.009694933350681705,0.0,0.0,-0.0016454659800198487,0.007261141214243843,-0.021665311611699777,-0.11086084854611389,-0.06432145173378304,0.025575256296331273
957,8.0,299.85008,689.12262,0.0,0.0,0.0,-0.009705074494353967,0.0,0.0,-0.052589974188226356,-0.06978027787902723,-0.08710581600767472,-0.12086297465574687,-0.05911357318780544,0.03993148425868066
958,8.0,298.56042,985.11819,0.0,0.0,0.0,-0.009715215638026227,0.0,0.0,-0.1038673862234129,-0.0951818033264626,-0.1004021418089199,-0.09103590917054473,-0.019257272086544784,-0.010845497737617291
959,8.0,299.39213,654.66515,0.0,0.0,0.0,-0.00972535678169849,0.0,0.0,-0.048482154931316156,-0.08193325936018313,-0.06858644229320483,-0.0856822138026761,0.015614643043295287,-0.008837336351177191
960,8.0,299.38041,-101.20612,0.0,0.0,0.0,-0.009735497925370751,0.0,0.0,0.01789359349246018,-0.01996146570729328,0.03283200659126677,-0.0968699134568161,-0.016818714481627882,-0.014061597124771587
961,8.0,299.2108,2.8436538,0.0,0.0,0.0,-0.009745639069043013,0.0,0.0,-0.014462622262599686,-7.598773271490533e-05,0.013674209320039385,-0.10001527278823891,-0.01041398390428019,-0.01184287020855029
962,8.0,299.81622999999996,768.32334,0.0,0.0,0.0,-0.009755780212715275,0.0,0.0,-0.07148212565423653,-0.08312779003557412,-0.07894119564963942,-0.07844041502621622,-0.008929521845275191,-0.026616989869892374
963,8.0,300.12779,621.81196,0.0,0.0,0.0,-0.009765921356387534,0.0,0.0,-0.06357585367419824,-0.06292741717995254,-0.06251203732795774,-0.06271274697401623,0.016243010092810282,-0.03564854093398707
964,8.0,300.78879,-32.178656,0.0,0.0,0.0,-0.009776062500059794,0.0,0.0,0.01050649363841019,-0.015864085966163385,0.015139100453362883,-0.08051939144889522,-0.06027416302459675,-0.043723976031470456
965,8.0,301.46616,40.614126,0.0,0.0,0.0,-0.009786203643732056,0.0,0.0,0.0063139011158585235,-0.023549471450901877,0.004889890267094595,-0.09400394568146711,-0.034597818818788866,-0.015236404886966086
966,8.0,300.34309,648.45282,0.0,0.0,0.0,-0.009796344787404317,0.0,0.0,-0.0893945037903006,-0.05466998817900775,-0.05304897243052595,-0.1086677598971729,-0.017289861592626483,0.01343850910827759
967,8.0,299.2799,1003.1077,0.0,0.0,0.0,-0.009806485931076579,0.0,0.0,-0.11843334277096089,-0.08351414635170452,-0.10297221015756591,-0.08647525020544272,-0.007299734188027674,0.04001421815584586
968,8.0,299.23319,647.7321099999999,0.0,0.0,0.0,-0.009816627074748839,0.0,0.0,-0.03335070248970807,-0.06605485313035644,-0.09748883093589851,-0.1090267138775989,-0.01986586150735788,0.016235609314079885
969,8.0,299.24519,187.0292,0.0,0.0,0.0,-0.0098267682184211,0.0,0.0,-0.011045716970627388,-0.005225424997959294,-0.04058106673878946,-0.10675157223555991,-0.025789075372183577,0.028085714128344177
970,8.0,299.82002,297.33682000000005,0.0,0.0,0.0,-0.009836909362093362,0.0,0.0,-0.026774549247192272,-0.03874569489190236,-0.024862724640509877,-0.08512942710462032,-0.002010214636442738,-0.0074053303511742025
971,8.0,299.68259,590.21097,0.0,0.0,0.0,-0.009847050505765623,0.0,0.0,-0.08870678156317773,-0.03902189673666136,-0.051680719012239855,-0.09368045241479082,-0.01620638008844518,-0.02032999794091458
972,8.0,300.23531,510.23535,0.0,0.0,0.0,-0.009857191649437887,0.0,0.0,-0.09619894228034641,-0.013971528310132486,-0.044928335232831455,-0.0922843214465034,-0.04084652205298786,0.01969042839829398
973,8.0,300.65675,8.3188379,0.0,0.0,0.0,-0.009867332793110145,0.0,0.0,-0.020694757844413582,0.025987978393313776,-0.007821939275540304,-0.1086804457884249,-0.05334639578537935,-0.012140002760624989
974,8.0,299.87215,-17.864197,0.0,0.0,0.0,-0.009877473936782408,0.0,0.0,0.035498686310447565,-0.021661914184114478,-0.008406502206007173,-0.0934132614031711,-0.020123533034288082,-0.004741878542836976
975,8.0,298.92722000000003,608.74193,0.0,0.0,0.0,-0.00988761508045467,0.0,0.0,-0.05254108183115104,-0.08222090181182122,-0.05028036279103545,-0.07962591055046551,-0.029430524992316676,-0.03784162552992767
976,8.0,298.91565,1110.8767,0.0,0.0,0.0,-0.009897756224126931,0.0,0.0,-0.10758676389548691,-0.11839629834730488,-0.1116957058335079,-0.098246838269458,-0.04087918416996136,0.018290725723404084
977,8.0,298.96715,532.9429,0.0,0.0,0.0,-0.009907897367799191,0.0,0.0,-0.04686165087413486,-0.062150866356312943,-0.052988816785339045,-0.1142754304556069,-0.040696981536979364,-0.01111397861661429
978,8.0,299.27189,-155.07414,0.0,0.0,0.0,-0.00991803851147145,0.0,0.0,0.017658046281463485,-0.005297420673214715,0.034778040547825365,-0.11995214387585487,-0.004633253065866475,0.030891093600713567
979,8.0,299.75175,144.55077,0.0,0.0,0.0,-0.009928179655143712,0.0,0.0,0.015465232223299586,-0.03538582747455927,-0.024019231422513578,-0.10039438132640399,0.006865292568526623,-0.005235316649410526
980,8.0,299.72137000000004,756.73998,0.0,0.0,0.0,-0.009938320798815974,0.0,0.0,-0.04444464813859526,-0.08904752034655601,-0.09653788963754792,-0.09677057340376201,-0.028134674373176172,0.009544167968561041
981,8.0,299.72572,673.14774,0.0,0.0,0.0,-0.009948461942488235,0.0,0.0,-0.07592347745981383,-0.06506563934922864,-0.06363098866513964,-0.08272632514720263,-0.020975570990377678,-0.02185435672260708
982,8.0,299.58637999999996,128.17335,0.0,0.0,0.0,-0.009958603086160497,0.0,0.0,-0.013573434504843688,-0.02060168778297828,-0.004786375117003446,-0.07974109175558303,-0.016170333716137682,-0.026380064638759675
983,8.0,300.30002,-93.649253,0.0,0.0,0.0,-0.009968744229832757,0.0,0.0,0.0050031545043479056,-0.014145404053792686,0.03760928424224736,-0.09121117205359182,-0.04207148468188226,-0.026197363486728475
984,8.0,300.80638999999996,439.70509000000004,0.0,0.0,0.0,-0.009978885373505018,0.0,0.0,-0.07663207365224683,-0.02345273443735468,-0.033574561860801266,-0.11014624378058789,-0.04551375972985836,-0.0009925774674847691
985,8.0,300.00731,1019.5574,0.0,0.0,0.0,-0.00998902651717728,0.0,0.0,-0.10496985299471791,-0.07802404016262322,-0.12692608086912888,-0.11677369990216688,-0.05446711727048594,0.03645173922200656
986,8.0,299.73769,673.5174900000001,0.0,0.0,0.0,-0.009999167660849542,0.0,0.0,-0.03595459819294257,-0.07337601877389924,-0.09540188226143272,-0.08976288808940731,0.016971585550715085,-0.007457594804582304
987,8.0,299.07792,95.875366,0.0,0.0,0.0,-0.010009308804521805,0.0,0.0,-0.002406015963380288,-0.02196782553505558,-0.004769875656350076,-0.1055692917538779,0.008079689126703232,0.02215855568087918
988,8.0,299.66411,386.9841,0.0,0.0,0.0,-0.010019449948194063,0.0,0.0,-0.026630778177253178,-0.04841941144537386,-0.04258331479764595,-0.0945446544383309,-0.021565531808102275,-0.0098236948948482
989,8.0,299.15917,842.56517,0.0,0.0,0.0,-0.010029591091866326,0.0,0.0,-0.12373061429376088,-0.059382722811868446,-0.07300543673532563,-0.11095203092261288,-0.05545734734146405,0.037522384873921066
990,8.0,299.10939,544.4833,0.0,0.0,0.0,-0.010039732235538588,0.0,0.0,-0.07905709119607743,-0.04700774836630355,-0.03944448890286797,-0.08064233212327852,-0.005073726360562805,-0.0013345963910394087
991,8.0,298.4852,-7.1982132,0.0,0.0,0.0,-0.010049873379210848,0.0,0.0,0.027242262453601975,-0.011654883943997489,-0.013399301395658089,-0.10109407510345841,-0.03818441715800856,0.010034233978801791
992,8.0,299.08375,-25.786683,0.0,0.0,0.0,-0.01006001452288311,0.0,0.0,0.01086140576418729,-0.02126307260025188,0.018240173662664984,-0.0963996316614029,-0.026039651108663478,-0.02100001463579008
993,8.0,299.42062999999996,700.27752,0.0,0.0,0.0,-0.010070155666555369,0.0,0.0,-0.08591191962684631,-0.06399813781237444,-0.06295682271110464,-0.101139940882485,-0.04113743020969826,-0.0053102031272012455
994,8.0,299.8352,1014.2129,0.0,0.0,0.0,-0.01008029681022763,0.0,0.0,-0.11968726003471288,-0.0993477760463621,-0.08926035960956161,-0.07438559888203702,0.007499396842757843,-0.03825695269291726
995,8.0,299.16303,448.77772000000004,0.0,0.0,0.0,-0.010090437953899892,0.0,0.0,-0.06244844372518153,-0.04102833661118156,-0.032940440563968366,-0.08159726562702313,-0.013236052619046687,-0.004877161211388335
996,8.0,300.29295,-91.189551,0.0,0.0,0.0,-0.010100579097572154,0.0,0.0,0.015274148453191087,0.006241295970667954,0.006203902482352504,-0.1041363129324539,-0.02907322868905427,0.01228438887337479
997,8.0,300.57334,226.99674,0.0,0.0,0.0,-0.010110720241244415,0.0,0.0,0.016816530927662384,-0.024786222231459678,-0.061031648534354735,-0.0966208890062393,-0.04988014217378675,0.027661966857023573
998,8.0,299.64896,830.5572099999999,0.0,0.0,0.0,-0.010120861384916675,0.0,0.0,-0.07470974468177773,-0.06315356143002124,-0.1146053446881669,-0.0951097592178524,-0.0018243879118280684,0.02093298206217448
999,8.0,300.45754,728.75793,0.0,0.0,0.0,-0.010131002528588937,0.0,0.0,-0.05986410273562694,-0.08621070884283451,-0.07544940408252643,-0.0998333741302869,-0.028988733763215268,0.005468113696985805
1000,8.0,299.89985,50.839351,0.0,0.0,0.0,-0.010141143672261198,0.0,0.0,0.005463467843952295,-0.032462739751322967,0.01154537896594019,-0.12231840709938688,-0.04295644414697096,-0.014734678901199586
1001,8.0,300.21988999999996,124.90834,0.0,0.0,0.0,-0.01015128481593346,0.0,0.0,-0.061186580554145345,-0.003545838327446997,0.026763401469592073,-0.0997307947166631,-0.052175424188063445,0.013613410261038988
1002,8.0,300.90716000000003,906.41266,0.0,0.0,0.0,-0.010161425959605723,0.0,0.0,-0.11011241135974889,-0.0929178479655276,-0.07249656024360343,-0.07510354635964292,0.01032212670321459,-0.006457099699491124
1003,8.0,300.3834,979.95979,0.0,0.0,0.0,-0.010171567103277981,0.0,0.0,-0.1062397289475449,-0.07796227952927794,-0.11368129099446989,-0.05798661514833335,-0.011263948750665189,0.006245821753564614
1004,8.0,301.03128,471.33036,0.0,0.0,0.0,-0.010181708246950241,0.0,0.0,-0.04934694565316436,-0.043887660505624856,-0.05003805213562125,-0.11638574670387888,-0.04183603778264546,-0.005024765406455735
1005,8.0,301.85749,79.764511,0.0,0.0,0.0,-0.010191849390622504,0.0,0.0,-0.013477384474864289,-0.0010233228192440991,-0.00974571192475188,-0.1103975298053879,-0.07051743151227864,-0.013491971223303886
1006,8.0,300.86324,206.61352,0.0,0.0,0.0,-0.010201990534294766,0.0,0.0,-0.04267279491397696,-0.013483336305951686,-0.006649219720476894,-0.1088564574632959,-0.009508747987465361,-0.020654730412463178
1007,8.0,299.84199,644.30292,0.0,0.0,0.0,-0.010212131677967027,0.0,0.0,-0.08670798463416182,-0.05987762962446194,-0.04926638416421355,-0.09306940079623471,-0.03266617605340057,-0.007639508458635783
1008,8.0,299.87344,609.2341200000001,0.0,0.0,0.0,-0.010222272821639287,0.0,0.0,-0.03429306358621187,-0.06921344753458543,-0.08168544776997602,-0.12722056174569188,-0.03013900060798777,0.023564923514926877
1009,8.0,299.52139,-160.28335,0.0,0.0,0.0,-0.010232413965311549,0.0,0.0,0.061842651887894534,-0.0009401592432414932,-0.012180357472357689,-0.1120504142960149,-0.037420254330091565,0.018627231147864583
1010,8.0,300.67557,17.745392000000002,0.0,0.0,0.0,-0.01024255510898381,0.0,0.0,0.030167563115056674,-0.036120482433064066,0.0005587630903256235,-0.08702000689645602,0.017072235736148484,0.012842169881173487
1011,8.0,300.34366,750.03375,0.0,0.0,0.0,-0.010252696252656072,0.0,0.0,-0.07912139407392363,-0.07919236819042821,-0.06967776939291044,-0.08075070124797372,-0.01844781089965718,-0.031686605373474466
1012,8.0,300.06993,813.46527,0.0,0.0,0.0,-0.010262837396328333,0.0,0.0,-0.11391471342000689,-0.07049711280802333,-0.06286130565067784,-0.1123738234629329,-0.034368094756116865,-0.004465944094779366
1013,8.0,299.2795,384.98301000000004,0.0,0.0,0.0,-0.010272978540000593,0.0,0.0,-0.09162978619990582,-0.02933033583567877,0.003934901237244516,-0.0955825407012623,-0.053898204697088656,-0.010363509863798791
1014,8.0,299.9345,77.272153,0.0,0.0,0.0,-0.010283119683672855,0.0,0.0,-0.0066119326234219435,0.006442143621390073,-0.02331901582165768,-0.11458122933578689,-0.0024416866225507074,-0.0007855913348743282
1015,8.0,300.32563999999996,367.59519,0.0,0.0,0.0,-0.010293260827345116,0.0,0.0,-0.029153765860002675,-0.032450391272354266,-0.05013560278899875,-0.0924421452820794,-0.029139720187116476,0.008539645396972382
1016,8.0,300.32099999999997,635.19585,0.0,0.0,0.0,-0.010303401971017378,0.0,0.0,-0.026894393429269976,-0.05199401898291015,-0.1141952621076949,-0.12278964945589489,-0.04287134127107196,-0.005563454350570194
1017,8.0,299.89572999999996,519.34588,0.0,0.0,0.0,-0.010313543114689638,0.0,0.0,-0.05159301714983435,-0.042945845550924955,-0.06332931675261694,-0.1014792975927269,-0.035674145764014065,0.012600910979363089
1018,8.0,300.63664,272.41467,0.0,0.0,0.0,-0.010323684258361897,0.0,0.0,-0.03491981146206707,-0.04259881043142526,-0.005288633869672526,-0.07651724607141423,0.005120959925899395,-0.013489594138569289
1019,8.0,300.01906,242.18197,0.0,0.0,0.0,-0.010333825402034159,0.0,0.0,-0.058108062292069246,-0.00928864169474256,-0.006220566900122154,-0.1000889320175085,0.014391973399377186,0.007787887384729643
1020,8.0,301.24014,769.08727,0.0,0.0,0.0,-0.010343966545706422,0.0,0.0,-0.05244666009408235,-0.09577082688784472,-0.08556584000219092,-0.11588371167683188,-0.028300249572017176,-0.009678553809448891
1021,8.0,301.05465,870.5505400000001,0.0,0.0,0.0,-0.010354107689378684,0.0,0.0,-0.08370513791605393,-0.060256249776078845,-0.12066423578113289,-0.12915688268679187,-0.03796588342944096,0.028871665886411574
1022,8.0,300.0001,184.66711999999998,0.0,0.0,0.0,-0.010364248833050945,0.0,0.0,0.01976186658334438,-0.03479987912723067,-0.04109617978487716,-0.08835090684980561,0.0016318902525300283,-0.012593328828864788
1023,8.0,299.40169,-80.58310300000001,0.0,0.0,0.0,-0.010374389976723205,0.0,0.0,0.005093658509904955,-0.004180308283639306,0.02358190052035238,-0.11296173143595488,-0.04661956009399236,-0.013441791025351486
1024,8.0,300.74761,368.19207,0.0,0.0,0.0,-0.010384531120395467,0.0,0.0,-0.07790058678368933,-0.018602781422951586,-0.015417828330621185,-0.1105723458451409,-0.05216006027679715,-5.8809352951281244e-05
1025,8.0,299.24501000000004,649.72746,0.0,0.0,0.0,-0.010394672264067728,0.0,0.0,-0.08541021187958162,-0.056682260321103545,-0.05540845194463845,-0.12259897605207688,-0.046181185544228155,-0.01145509939528029
1026,8.0,299.48219,614.91825,0.0,0.0,0.0,-0.01040481340773999,0.0,0.0,-0.05510637777182604,-0.062402924477689144,-0.06941049124178214,-0.06844575656982023,0.01038990604215389,-0.012248394176822388
1027,8.0,299.66531000000003,377.17362,0.0,0.0,0.0,-0.010414954551412252,0.0,0.0,-0.013022494961720187,-0.04916817489827105,-0.05246069158146715,-0.11092448065239388,0.0047240586146532855,-0.01877526293447418
1028,8.0,299.49556,409.13659,0.0,0.0,0.0,-0.010425095695084511,0.0,0.0,0.0005760782274419944,-0.06786544087979754,-0.05707794461765454,-0.11472289183226789,-0.02379209114759658,0.006767410683691433
1029,8.0,300.46373,833.6887,0.0,0.0,0.0,-0.010435236838756773,0.0,0.0,-0.08112571828223503,-0.08909946562618261,-0.08319536267149302,-0.1279017799204229,-0.017161909383248585,-0.0035198982129619064
1030,8.0,300.14658,800.55311,0.0,0.0,0.0,-0.010445377982429034,0.0,0.0,-0.12416442719157489,-0.07192501625969643,-0.047258710151071553,-0.10339112827890991,-0.012068187646537387,0.009288708265274132
1031,8.0,299.38937000000004,237.15521,0.0,0.0,0.0,-0.010455519126101294,0.0,0.0,-0.026973727872349675,-0.03553146799093287,-0.009584065704498641,-0.08998301262063192,-0.027106595357962674,0.015719604607904187
1032,8.0,300.80541,-101.28448,0.0,0.0,0.0,-0.010465660269773556,0.0,0.0,0.028301439127634574,0.008317018745950842,-0.005830504419100984,-0.1273596505869189,-0.05383828311267485,0.013553992261924885
1033,8.0,300.9334,272.9105,0.0,0.0,0.0,-0.010475801413445816,0.0,0.0,-0.0019992609975616983,-0.034869425574344366,-0.04608929085290886,-0.11493177334038289,-0.03303783720333067,0.03415153281224387
1034,8.0,300.4701,710.84686,0.0,0.0,0.0,-0.010485942557118077,0.0,0.0,-0.05123779294302645,-0.06059943251869834,-0.1042424711454309,-0.0913755830280679,-0.018409372243863582,-0.01027998664480569
1035,8.0,299.37298,667.91128,0.0,0.0,0.0,-0.01049608370079034,0.0,0.0,-0.07700271040632582,-0.05370893464465915,-0.07231670632435323,-0.06868432529261514,0.002143475161769528,0.01841544465171288
1036,8.0,298.96541,257.97929,0.0,0.0,0.0,-0.010506224844462602,0.0,0.0,-0.045026855566554655,-0.031422965803455265,-0.001969439324593528,-0.09452667228880622,-0.05652984825431164,-0.031736104667359676
1037,8.0,299.4209,339.36197000000004,0.0,0.0,0.0,-0.010516365988134864,0.0,0.0,-0.04322397257087396,-0.024302325394452776,-0.035631267046282264,-0.1055732028992639,-0.05624326464902805,0.014889252230454786
1038,8.0,300.16056000000003,720.37553,0.0,0.0,0.0,-0.010526507131807123,0.0,0.0,-0.060369556468511346,-0.1028685648048369,-0.05573805713591795,-0.0903202546779151,-0.022505514806621378,-0.031783092114246965
1039,8.0,299.68377999999996,622.81472,0.0,0.0,0.0,-0.010536648275479385,0.0,0.0,-0.07124400276148563,-0.06172445829022973,-0.056351661131475946,-0.0901887834509399,-0.027559040911865573,0.006443750534723664
1040,8.0,300.30519,192.34811000000002,0.0,0.0,0.0,-0.010546789419151647,0.0,0.0,0.005174088276342755,-0.03994396851316276,-0.02369914064967308,-0.11117614157973088,-0.03606088711518247,0.0028579782983104976
1041,8.0,300.43293,2.3359872999999998,0.0,0.0,0.0,-0.010556930562823908,0.0,0.0,-0.016545870547700285,-0.021903620942469077,0.03773940987308976,-0.12931426069232388,-0.027404973194410272,-0.0100426116319536
1042,8.0,300.29345,444.24287999999996,0.0,0.0,0.0,-0.01056707170649617,0.0,0.0,-0.05764520863313914,-0.049789275931318946,-0.027604257197578076,-0.11311186470327189,-0.0018321464691687783,-0.0016938132085413484
1043,8.0,300.83106000000004,829.23505,0.0,0.0,0.0,-0.01057721285016843,0.0,0.0,-0.08591586724923592,-0.08642711170644182,-0.07972376923187342,-0.1054209620717389,-0.006180517075344545,-0.012763660223675187
1044,8.0,300.04961000000003,341.35245,0.0,0.0,0.0,-0.010587353993840691,0.0,0.0,-0.04260689819372346,-0.019238646523206584,-0.04191707651239336,-0.09010871034853732,-0.04412227147352916,0.019061861738509284
1045,8.0,298.73247000000003,-25.133418,0.0,0.0,0.0,-0.01059749513751295,0.0,0.0,0.014732602751744686,0.003978485683670966,-0.01107115664088809,-0.07877585451157151,-0.027763782280071973,-0.005276292280804506
1046,8.0,299.20661,394.29401,0.0,0.0,0.0,-0.010607636281185212,0.0,0.0,-0.035249560534860766,-0.04581850077693395,-0.03878747119352536,-0.0938513269116548,-0.025535431514400873,-0.0024588189592165376
1047,8.0,299.43768,867.28164,0.0,0.0,0.0,-0.010617777424857474,0.0,0.0,-0.13085689343956985,-0.05102520496604566,-0.08174986818483383,-0.07890743719605772,-0.004997063655346785,-0.003126376192124307
1048,8.0,299.5786,645.32637,0.0,0.0,0.0,-0.010627918568529734,0.0,0.0,-0.07601245905709562,-0.057239349279083945,-0.06291129535761145,-0.11933267316221789,-0.044419645179127665,-0.010209690392617989
1049,8.0,299.27551,154.28701,0.0,0.0,0.0,-0.010638059712201995,0.0,0.0,0.0012276594953605589,-0.02331140124715618,-0.024815658160114773,-0.1036504899070069,-0.02078956664302048,0.01051037235979299
1050,8.0,300.06394,53.888619999999996,0.0,0.0,0.0,-0.010648200855874259,0.0,0.0,0.003202059793768697,-0.001239381380467419,-0.018343473497109884,-0.10830818783418589,-0.015800676774905386,0.007931291455482523
1051,8.0,300.25649,511.43985,0.0,0.0,0.0,-0.01065834199954652,0.0,0.0,-0.044464002228755364,-0.06604362935899874,-0.044957311145941155,-0.09764447932350981,-0.005675134979242214,-0.006337472048959795
1052,8.0,300.60872,856.10811,0.0,0.0,0.0,-0.010668483143218782,0.0,0.0,-0.0891398223644155,-0.08508921526115173,-0.08600645180817591,-0.0976507452621282,-0.04663277794154686,0.0003855075367866317
1053,8.0,300.51519,461.0658,0.0,0.0,0.0,-0.010678624286891042,0.0,0.0,-0.09380475692380871,-0.027652655088604573,-0.018695079387810683,-0.1014736740546719,-0.013757934175802386,0.008430554534230953
1054,8.0,300.03936,140.62816999999998,0.0,0.0,0.0,-0.010688765430563303,0.0,0.0,0.005545596830807795,-0.04460223690014806,-0.003690811415979726,-0.07968562137885851,-0.028327283084685177,-0.026860806214955176
1055,8.0,300.28474,274.94207,0.0,0.0,0.0,-0.010698906574235565,0.0,0.0,-0.028406644885517574,-0.01160222330980029,-0.04356665476794406,-0.09930716903535451,-0.025290783291005973,0.003234636088458727
1056,8.0,300.80273,759.82196,0.0,0.0,0.0,-0.010709047717907826,0.0,0.0,-0.06966441982284294,-0.06313465722290554,-0.0981678260399101,-0.1065937180024809,-0.043050608518514256,0.023808645627730378
1057,8.0,300.45224,627.58407,0.0,0.0,0.0,-0.010719188861580086,0.0,0.0,-0.051863524529031355,-0.032128583040594266,-0.1067777748831459,-0.0953895125042119,-0.02131828054520048,0.011211220228711289
1058,8.0,300.59264,219.95432000000002,0.0,0.0,0.0,-0.010729330005252348,0.0,0.0,-0.03848830302199976,-0.0008260115836234963,-0.027546305371358677,-0.1065490032755679,-0.004744802478650545,-0.0019187419637900882
1059,8.0,299.6701,211.87561000000002,0.0,0.0,0.0,-0.010739471148924607,0.0,0.0,-0.05236751918177175,-0.02317688520363048,0.011139508466133888,-0.1219526035482849,-0.0006896794007510575,-0.016972301918535784
1060,8.0,299.84783999999996,505.92174000000006,0.0,0.0,0.0,-0.010749612292596869,0.0,0.0,-0.058560313301952945,-0.029994839436760172,-0.06523242335543894,-0.13515704580396187,-0.04300429488294346,0.007892887250192323
1061,8.0,299.21202999999997,593.66368,0.0,0.0,0.0,-0.01075975343626913,0.0,0.0,-0.05997102797892964,-0.06886018903297153,-0.05162771995250925,-0.11473885052134289,-0.02223932691260068,-0.012429231961919687
1062,8.0,299.12135,420.10744000000005,0.0,0.0,0.0,-0.010769894579941392,0.0,0.0,-0.04453750541750955,-0.05122780635004086,-0.03193686092292277,-0.08911317793978592,-0.03566281762789607,0.021639788854930876
1063,8.0,300.78345,217.40592999999998,0.0,0.0,0.0,-0.010780035723613652,0.0,0.0,0.007270238781591703,-0.036849008241713964,-0.03650720453248057,-0.11526237658301088,-0.027831200901975675,-0.005143793415577885
1064,8.0,301.14367000000004,226.57824,0.0,0.0,0.0,-0.010790176867285915,0.0,0.0,-0.024902766257961676,-0.056097552191897354,0.012126192161761988,-0.1262322983931579,-0.062322046854707144,-0.0007274056707968502
1065,8.0,301.06037000000003,729.89068,0.0,0.0,0.0,-0.010800318010958177,0.0,0.0,-0.10928274191286691,-0.042674798109424664,-0.06991100740692924,-0.1152326883550809,-0.02060339916239718,0.002900464989578607
1066,8.0,301.90861,892.2269,0.0,0.0,0.0,-0.010810459154630438,0.0,0.0,-0.08160053639834593,-0.08407726617428012,-0.1055368981481809,-0.07803080563354092,0.0006307713400147844,-0.013475503882678685
1067,8.0,300.91475,359.62041,0.0,0.0,0.0,-0.0108206002983027,0.0,0.0,-0.03313199752187357,-0.04841397434533725,-0.027769653051151373,-0.08913573086051171,-0.006153062557259995,-0.0068372159148806745
1068,8.0,299.40087,237.66457999999997,0.0,0.0,0.0,-0.01083074144197496,0.0,0.0,0.0020372607134119783,-0.005409378425789084,-0.06887198123763534,-0.1021269873216489,-0.04261836007885466,0.008324129836477652
1069,8.0,299.69633999999996,622.82998,0.0,0.0,0.0,-0.010840882585647221,0.0,0.0,-0.04264691346667266,-0.06866718110092314,-0.07801066728780343,-0.09588921604277881,-0.03359202522627477,0.01204812225480709
1070,8.0,299.86914,507.95424,0.0,0.0,0.0,-0.010851023729319483,0.0,0.0,-0.06612443605447373,-0.05396959424613425,-0.03431137504201907,-0.08541717088126842,-0.02129634266728538,-0.0024386298496490277
1071,8.0,300.30691,331.48794,0.0,0.0,0.0,-0.010861164872991743,0.0,0.0,-0.05853065749802615,-0.050342703003437954,0.008109303590025952,-0.1119104135296979,-0.023771030744268076,-0.000871257810876451
1072,8.0,299.32362,166.9604,0.0,0.0,0.0,-0.010871306016664004,0.0,0.0,-0.011509193778368988,-0.05730860391016885,0.018066003063225682,-0.1153075675374709,-0.07629409901514134,-0.014778982248571987
1073,8.0,299.53411,211.92966,0.0,0.0,0.0,-0.010881447160336264,0.0,0.0,-0.029268641063589975,-0.005448583605283335,-0.02970409947956637,-0.1073016049198439,-0.030170015180298677,0.021819436071160683
1074,8.0,298.99525,690.0482900000001,0.0,0.0,0.0,-0.010891588304008526,0.0,0.0,-0.038742641969351066,-0.08947210962870973,-0.08154269906938783,-0.08320988659842643,-0.013658816024520187,0.008691285468513091
1075,8.0,300.52556,821.39041,0.0,0.0,0.0,-0.010901729447680787,0.0,0.0,-0.07095364074657913,-0.07859268219824384,-0.100135850563389,-0.08704842653526082,-0.016175765749923784,0.01309446510307309
1076,8.0,300.50012999999996,367.98373,0.0,0.0,0.0,-0.010911870591353049,0.0,0.0,-0.058098099003835946,-0.02207551882193408,-0.03168424754049177,-0.12463953003096387,-0.04630303697475396,-0.0021420364479525383
1077,8.0,301.48644,204.53803,0.0,0.0,0.0,-0.010922011735025312,0.0,0.0,-0.030523649597699674,-0.028813338144405076,-0.0028374671778612077,-0.1115027323519629,-0.022227129407896878,-0.019187801633188582
1078,8.0,300.60200000000003,522.65306,0.0,0.0,0.0,-0.01093215287869757,0.0,0.0,-0.07621323051141023,-0.029161636786779473,-0.05349861330815204,-0.11291707750404789,-0.007742918939991603,-0.0015856926340956784
1079,8.0,302.09661,784.3828,0.0,0.0,0.0,-0.010942294022369833,0.0,0.0,-0.06608289482687393,-0.08737057724555461,-0.08497931308905522,-0.11985504411877188,-0.00984271896945073,0.012961824585482487
1080,8.0,299.9494,329.98733,0.0,0.0,0.0,-0.010952435166042095,0.0,0.0,-0.003961999699243926,-0.05349849171814005,-0.04284741640971076,-0.12611534906661587,-0.04434779865428696,0.004127382481890936
1081,8.0,300.26634,168.23666,0.0,0.0,0.0,-0.010962576309714357,0.0,0.0,0.005995978394256994,-0.017850666138723582,-0.039285056026133164,-0.13163920357677786,-0.017313288948188586,0.018046936736093984
1082,8.0,300.27972,473.55012999999997,0.0,0.0,0.0,-0.010972717453386618,0.0,0.0,-0.06966139223154413,-0.07059329658701594,-0.0036927260533686865,-0.1007536017916063,-0.0014186454868344088,-0.005899935355703285
1083,8.0,300.05799,530.20135,0.0,0.0,0.0,-0.010982858597058878,0.0,0.0,-0.04242585978510636,-0.05676855781887045,-0.06197355366831354,-0.1017913482260239,-0.0016717439120882784,-0.013098446162715988
1084,8.0,299.06975,568.09566,0.0,0.0,0.0,-0.01099299974073114,0.0,0.0,-0.07590967091395122,-0.062156386542857746,-0.03462083783456067,-0.12415318011546488,-0.04195748999263186,-0.013552669970544386
1085,8.0,299.1251,264.43147,0.0,0.0,0.0,-0.0110031408844034,0.0,0.0,-0.002143154062812838,-0.037327290659916766,-0.040910118695514364,-0.1021502211464419,-0.04577676095231455,-0.008984419026418122
1086,8.0,299.18417999999997,-140.73338999999999,0.0,0.0,0.0,-0.01101328202807566,0.0,0.0,0.033769007594741565,0.023709113057157276,-0.014698683191397088,-0.1011441002741455,-0.024220698979646876,-0.0005499456258354074
1087,8.0,300.29899,269.19182,0.0,0.0,0.0,-0.011023423171747922,0.0,0.0,-0.017536247539942883,-0.017205663549066785,-0.04708568047124486,-0.0969654305172429,-0.01910108566313038,0.016824677458466383
1088,8.0,300.11036,847.33701,0.0,0.0,0.0,-0.011033564315420182,0.0,0.0,-0.12389105231459488,-0.05583155580214554,-0.07784668998437012,-0.12975154903798086,-0.04851361432042096,0.005458191445381556
1089,8.0,300.41105,582.88055,0.0,0.0,0.0,-0.011043705459092444,0.0,0.0,-0.04695860674970366,-0.04227073626104686,-0.08795179067516593,-0.1142495115180489,-0.02034767307565898,0.006339930396352415
1090,8.0,300.3407,278.46528,0.0,0.0,0.0,-0.011053846602764705,0.0,0.0,-0.06426584760804534,-0.03740356407444436,0.017022920853781483,-0.09103215710542442,-0.014631504709767087,-0.02053509090690568
1091,8.0,299.68327,390.33468999999997,0.0,0.0,0.0,-0.011063987746436967,0.0,0.0,-0.03432881611599037,-0.025304268636586875,-0.05901891637671355,-0.07827962439434742,-0.031241210013767368,0.018378043564021684
1092,8.0,299.37357000000003,473.11623,0.0,0.0,0.0,-0.01107412889010923,0.0,0.0,-0.06229106977264994,-0.058999916924088444,-0.02252453351099838,-0.11559285823562689,-0.05157283624759265,0.012919502142055587
1093,8.0,299.86003999999997,490.95844000000005,0.0,0.0,0.0,-0.011084270033781488,0.0,0.0,-0.057087467142094346,-0.04553815068626555,-0.04661348971264326,-0.1044771297360899,-0.05262659304684035,0.005671580903191455
1094,8.0,299.43535,528.1977099999999,0.0,0.0,0.0,-0.011094411177453752,0.0,0.0,-0.06607494891958973,-0.048336236784415156,-0.046147728025926156,-0.1117203480759399,0.003190112967139637,-0.007106362093893333
1095,8.0,299.5962,229.53776000000002,0.0,0.0,0.0,-0.011104552321126013,0.0,0.0,-0.0008646080632526723,-0.04010671269122436,-0.028802426454078177,-0.12282554890693788,-0.01192249646765879,-0.029100715124516972
1096,8.0,300.39617000000004,273.36825,0.0,0.0,0.0,-0.011114693464798275,0.0,0.0,-0.034656526529582864,-0.011248420692882689,-0.03719217477233186,-0.13341446841448287,-0.024141845830364682,-0.004601582515440836
1097,8.0,300.85391,753.47593,0.0,0.0,0.0,-0.011124834608470534,0.0,0.0,-0.048924696978741654,-0.07991079189558113,-0.100202380564955,-0.12931543606243986,-0.039525357406599064,-0.00923272558929907
1098,8.0,301.42617,584.88531,0.0,0.0,0.0,-0.011134975752142796,0.0,0.0,-0.05481438138450825,-0.04143831887989367,-0.08153782938940722,-0.06981315176527163,-0.018723048130320982,0.02461045778961308
1099,8.0,301.67587000000003,168.75447,0.0,0.0,0.0,-0.011145116895815056,0.0,0.0,-0.02001898588897008,-0.007424387964355043,-0.023853771734183977,-0.0855807317389106,-0.027079989436836874,0.01094141503183359
1100,8.0,299.88864,238.51442000000003,0.0,0.0,0.0,-0.011155258039487317,0.0,0.0,-0.02056753416185758,-0.049063489950939454,-0.002871404875385597,-0.08703101788529273,-0.05282406941182975,0.004095175111562316
1101,8.0,299.68484,656.84582,0.0,0.0,0.0,-0.011165399183159579,0.0,0.0,-0.05667822251945504,-0.07885240150362613,-0.06413410280354315,-0.1251265385590279,-0.058790253186896235,-0.013383887835136886
1102,8.0,300.45974,727.63821,0.0,0.0,0.0,-0.01117554032683184,0.0,0.0,-0.0975014215816411,-0.07261464643675762,-0.05106777768224725,-0.11259789359004689,0.007674800162268803,-0.004213103440350936
1103,8.0,299.66626,352.26161,0.0,0.0,0.0,-0.0111856814705041,0.0,0.0,-0.02730982799677017,-0.04264713131544416,-0.037121775168633964,-0.1100547168990549,-0.006655280273300024,-0.02537412007198068
1104,8.0,299.22272999999996,265.49408999999997,0.0,0.0,0.0,-0.011195822614176362,0.0,0.0,-0.04822998231267866,-0.012354443972038687,-0.02011914768785528,-0.12329503834077288,-0.007590964558269873,0.03199309934322307
1105,8.0,298.75842,242.05818,0.0,0.0,0.0,-0.011205963757848623,0.0,0.0,-0.026994820699681375,-0.007482050102370853,-0.03910277030664296,-0.13126747251259088,-0.027579492351883974,-0.01166305580605399
1106,8.0,299.62868,496.80768,0.0,0.0,0.0,-0.011216104901520885,0.0,0.0,-0.05291137813319645,-0.03749248588997026,-0.060613264395813445,-0.097681596701173,-0.017372134460996183,0.0006460353853512285
1107,8.0,300.85056000000003,509.95855,0.0,0.0,0.0,-0.011226246045193148,0.0,0.0,-0.059008243813410244,-0.018607513300918584,-0.07739890842067752,-0.1118013168914309,-0.028803006033135372,-0.023017019669102978
1108,8.0,301.01047,176.0601,0.0,0.0,0.0,-0.011236387188865406,0.0,0.0,-0.04427909624450656,0.004228982791943106,-0.013467759612164386,-0.09427901167286401,-0.024998566015166375,8.335790926578512e-05
1109,8.0,300.79312999999996,226.50238,0.0,0.0,0.0,-0.01124652833253767,0.0,0.0,-0.013881369316234486,-0.026661586046543673,-0.028308110366292973,-0.1040823573646289,-0.042306151378542066,-0.01909087311537248
1110,8.0,300.43073,899.5125800000001,0.0,0.0,0.0,-0.011256669476209931,0.0,0.0,-0.12195775085879289,-0.07245391761314493,-0.07901769299243913,-0.11430367986839489,-0.017526473729478284,0.041608524631691665
1111,8.0,299.93554,929.1767800000001,0.0,0.0,0.0,-0.011266810619882191,0.0,0.0,-0.09157398347714851,-0.0973337519948434,-0.0935388030905611,-0.11510681229515789,-0.04058007881994196,0.015007784253652985
1112,8.0,299.44493,387.76184,0.0,0.0,0.0,-0.011276951763554453,0.0,0.0,-0.035982261947172765,-0.05051873696981115,-0.03136891701662107,-0.13061687475588188,-0.04524121571796036,0.016430372195301482
1113,8.0,299.37346,283.36747,0.0,0.0,0.0,-0.011287092907226712,0.0,0.0,0.005604394416885664,-0.08262828104102643,-0.009112747658208173,-0.1095675158534719,-0.054115709976804746,-0.014884085668194885
1114,8.0,299.76059,462.02893,0.0,0.0,0.0,-0.011297234050898974,0.0,0.0,-0.046355937749224856,-0.04480630749678825,-0.04928301159835455,-0.10050870734843709,-0.013528411749900287,0.011271902763950188
1115,8.0,300.25542,286.17412,0.0,0.0,0.0,-0.011307375194571236,0.0,0.0,-0.00016569349579017483,-0.031676059466433676,-0.05514803450993725,-0.10423065664926491,-0.00898531919780696,-0.01874582497931888
1116,8.0,299.29514,163.49709,0.0,0.0,0.0,-0.011317516338243497,0.0,0.0,-0.03248672338118997,-0.005722759963092434,-0.011489548885430188,-0.11972845878377888,-0.005550294764896445,-0.0070329960992026735
1117,8.0,298.49092,148.73788000000002,0.0,0.0,0.0,-0.011327657481915759,0.0,0.0,-0.0056673786510517245,0.003865711150190986,-0.04341093342632556,-0.1126393355191369,-0.026707912854365773,-0.02044400884216658
1118,8.0,299.29597,412.37374,0.0,0.0,0.0,-0.011337798625588019,0.0,0.0,-0.05895907686555785,-0.050102960937027256,-0.016289281171876883,-0.1116430877558149,-0.013306369136236385,-0.01001531811930994
1119,8.0,300.54536,823.44137,0.0,0.0,0.0,-0.01134793976926028,0.0,0.0,-0.06712258568823344,-0.08025821610311921,-0.1029248103178879,-0.0934423234425393,-0.03350363739355157,-0.013232348176681086
1120,8.0,299.63532000000004,834.6387900000001,0.0,0.0,0.0,-0.011358080912932542,0.0,0.0,-0.1102133209372079,-0.05776292600325694,-0.0857330992226981,-0.10258165290652091,-0.03768912733687726,0.03468360766500557
1121,8.0,299.70526,325.90511000000004,0.0,0.0,0.0,-0.011368222056604803,0.0,0.0,-0.017994270022396182,-0.039794541481165464,-0.041278205099091664,-0.08968056557178272,-0.05097494370808525,0.014843690426458186
1122,8.0,301.00853,212.95867,0.0,0.0,0.0,-0.011378363200277066,0.0,0.0,-0.04190494486894606,-0.03088432610329567,0.008055150539756462,-0.11142854217964089,-0.004802806385925086,0.02115831064591268
1123,8.0,300.95054,535.11257,0.0,0.0,0.0,-0.011388504343949326,0.0,0.0,-0.049549275486132756,-0.06019249709303695,-0.05291908795320736,-0.12783580720641188,-0.024640052798533874,-0.0013687853745885988
1124,8.0,300.61935,510.47407000000004,0.0,0.0,0.0,-0.011398645487621588,0.0,0.0,-0.07176732414663343,-0.04419917614286906,-0.03920486943971936,-0.1255562376614359,-0.03997245603972426,-0.006509929546455024
1125,8.0,300.85332999999997,195.69777,0.0,0.0,0.0,-0.011408786631293848,0.0,0.0,3.0222395144218174e-05,-0.026976218441095476,-0.03254123826307018,-0.1274171727950959,-0.04841854410328825,-0.011211969020535189
1126,8.0,299.78405,142.83843000000002,0.0,0.0,0.0,-0.01141892777496611,0.0,0.0,-0.025144199438789275,-0.006490525807040025,-0.01178459008929849,-0.1165554762281299,-0.003114293893956877,-0.023223990187529377
1127,8.0,300.14952,569.35075,0.0,0.0,0.0,-0.01142906891863837,0.0,0.0,-0.06162754091816473,-0.044396955469638365,-0.06704391593721934,-0.11362975709438389,-0.025149392345551774,0.001946530651757618
1128,8.0,299.39903,668.30283,0.0,0.0,0.0,-0.01143921006231063,0.0,0.0,-0.0957553454395668,-0.04441593567051155,-0.06297609168825635,-0.10593150839962591,-0.02713868296212947,-0.012025801368354188
1129,8.0,299.28933,629.3049900000001,0.0,0.0,0.0,-0.011449351205982892,0.0,0.0,-0.05799361164027385,-0.07712093440149363,-0.056178458185882144,-0.11521068056290888,-0.04272912148703596,-0.02267652406574868
1130,8.0,298.62507,528.7327799999999,0.0,0.0,0.0,-0.011459492349655154,0.0,0.0,-0.07356573668287293,-0.051304465812856546,-0.03585136016675376,-0.08823726882459042,-0.004468548755486426,-0.005256219694998495
1131,8.0,298.9022,204.32658999999998,0.0,0.0,0.0,-0.011469633493327415,0.0,0.0,-0.004264471876695606,-0.04944046357114386,-0.008405245674558161,-0.12149344926546989,-0.03669788502904926,-0.014839379047282686
1132,8.0,299.45086000000003,232.46643999999998,0.0,0.0,0.0,-0.011479774636999677,0.0,0.0,-0.013804945940692087,-0.04519140434304436,-0.01166764177600659,-0.10763328220757791,-0.04364099186153055,0.021703128131931978
1133,8.0,299.89768,509.83915,0.0,0.0,0.0,-0.011489915780671937,0.0,0.0,-0.02328138168644348,-0.037336871952862366,-0.0943601182903686,-0.13564472307709188,-0.05651188738303904,0.029841288476855868
1134,8.0,298.66013,348.33973,0.0,0.0,0.0,-0.011500056924344198,0.0,0.0,-0.02455816293870198,-0.03585928682228607,-0.04546913112920386,-0.1198448710877679,-0.006204842677120294,0.03513419187847477
1135,8.0,299.58903,250.72088,0.0,0.0,0.0,-0.01151019806801646,0.0,0.0,0.0070817040447597734,-0.039443102776731166,-0.04385148849030496,-0.13295030867617388,-0.03168216429828617,-0.044743514361591054
1136,8.0,298.77445,545.79523,0.0,0.0,0.0,-0.011520339211688723,0.0,0.0,-0.07777745561828722,-0.04800205474243396,-0.04012861003913546,-0.09343812554737502,-0.002149082183847898,0.008993325596122132
1137,8.0,299.68719,756.09074,0.0,0.0,0.0,-0.011530480355360985,0.0,0.0,-0.07262770115104603,-0.07001216827041302,-0.08719283595276292,-0.08155021535862962,-0.03157771442497777,-0.04898264475196066
1138,8.0,301.76071,706.34303,0.0,0.0,0.0,-0.011540621499033244,0.0,0.0,-0.08717026884653573,-0.045675653791086054,-0.08186472211016903,-0.08046235053451573,-0.010399060756807391,0.026192119917460975
1139,8.0,300.90193,476.15941,0.0,0.0,0.0,-0.011550762642705503,0.0,0.0,-0.048788420919792255,-0.04019470940940896,-0.05575743858383074,-0.10828665626956091,-0.03020378680613167,0.008632343392970962
1140,8.0,301.07221,363.97387000000003,0.0,0.0,0.0,-0.011560903786377766,0.0,0.0,-0.05461106667244265,-0.017639484552881585,-0.03838841682714176,-0.12368713573196988,-0.026292207749088872,0.04999334044845855
1141,8.0,299.8252,224.09853999999999,0.0,0.0,0.0,-0.011571044930050027,0.0,0.0,-0.02022835274388298,-0.028855979761613474,-0.019036025887459482,-0.1153719798463279,-0.02080590124788258,0.0041422582092590565
1142,8.0,299.37144,425.47538,0.0,0.0,0.0,-0.011581186073722289,0.0,0.0,-0.07139506213939402,-0.03500420100989567,-0.022934627237221478,-0.11900354926473589,-0.0006584446593259285,0.004902409478705146
1143,8.0,298.85513,659.20921,0.0,0.0,0.0,-0.011591327217394549,0.0,0.0,-0.05615998055705854,-0.07744125619535693,-0.06678190263361064,-0.1159460670879859,-0.03596618977408657,-0.0016787237867271385
1144,8.0,298.85193,284.07649,0.0,0.0,0.0,-0.01160146836106681,0.0,0.0,-0.007040359894304424,-0.03336431145180117,-0.04594748852791405,-0.1090246468473949,-0.027509253854951975,-0.024716321146810976
1145,8.0,299.34701,210.45237999999998,0.0,0.0,0.0,-0.011611609504739072,0.0,0.0,0.009099825679682871,-0.04141677920926786,-0.031655315197136366,-0.11697002724154289,-0.03210072778209517,0.007118282981319833
1146,8.0,300.72343,650.8975,0.0,0.0,0.0,-0.011621750648411333,0.0,0.0,-0.05636704733424444,-0.06011592882273024,-0.08137360991920002,-0.11715211841701388,-0.007173331947327744,-0.011483451146328387
1147,8.0,299.96824,516.8209,0.0,0.0,0.0,-0.011631891792083595,0.0,0.0,-0.06388190688015334,-0.05452036964274155,-0.03869837307248206,-0.12350506482150089,-0.03331368643705487,-0.012457309122190688
1148,8.0,300.69917999999996,159.17507,0.0,0.0,0.0,-0.011642032935755855,0.0,0.0,-0.033630468948318865,-0.022049366836853077,0.007294588600044843,-0.1226792153274959,-0.01969920010440968,-0.02656545394330618
1149,8.0,299.96531,120.30447,0.0,0.0,0.0,-0.011652174079428116,0.0,0.0,-0.02072029073368348,0.006309251513799644,-0.02215851515087518,-0.10953080580234889,-0.06245925409049844,-0.026172052499230474
1150,8.0,299.92389,322.77532,0.0,0.0,0.0,-0.011662315223100378,0.0,0.0,-0.04780203815944386,-0.03985135340102236,-0.010462246019793292,-0.09279953075135061,-0.032414517152563764,-0.008612727884285062
1151,8.0,299.07264,517.31576,0.0,0.0,0.0,-0.011672456366772641,0.0,0.0,-0.05513209912561454,-0.04107375453366396,-0.06104521899294403,-0.1094024574121819,-0.03343738806226327,0.012735248690871188
1152,8.0,298.03328,639.37995,0.0,0.0,0.0,-0.0116825975104449,0.0,0.0,-0.05423154675473695,-0.06269427643794334,-0.07742971730321813,-0.1288004719641169,-0.03795617244048256,0.03781421407497236
1153,8.0,298.03227000000004,509.27507,0.0,0.0,0.0,-0.01169273865411716,0.0,0.0,-0.05211980992982475,-0.05174997364332475,-0.05093712110835245,-0.13094469156073488,-0.023343256817050077,0.011618751445431489
1154,8.0,298.7688,427.93195999999995,0.0,0.0,0.0,-0.01170287979778942,0.0,0.0,-0.036604854484367864,-0.046110034108956054,-0.047365741785634755,-0.12515901322473288,0.0008094923037981703,0.0025890175440661375
1155,8.0,298.69892000000004,891.14673,0.0,0.0,0.0,-0.011713020941461684,0.0,0.0,-0.07108218874701584,-0.1026678399600269,-0.0971363273056091,-0.09956286979084021,-0.035279042059770366,-0.006429576179074764
1156,8.0,299.5567,837.05103,0.0,0.0,0.0,-0.011723162085133946,0.0,0.0,-0.1067665784695409,-0.03998555939001747,-0.10769047004322191,-0.12326034465734888,-0.04557172979457955,0.02241373663906358
1157,8.0,299.21381,184.48869,0.0,0.0,0.0,-0.011733303228806207,0.0,0.0,-0.005914428479833644,-0.015129461405161585,-0.03503606468579037,-0.10959522824370689,-0.032402653007142866,0.02145327180302308
1158,8.0,300.97742999999997,-121.71458,0.0,0.0,0.0,-0.011743444372478467,0.0,0.0,0.03146915075626337,0.0011332397847920589,0.004395801451306826,-0.0894848786064699,-0.02817467951362437,0.013861777112300884
1159,8.0,299.8468,290.22659,0.0,0.0,0.0,-0.011753585516150728,0.0,0.0,-0.03552159488195847,-0.01198489950156749,-0.040715142018521666,-0.1099509499563139,-0.024143281605756375,0.02282795429319368
1160,8.0,299.76656,640.93428,0.0,0.0,0.0,-0.01176372665982299,0.0,0.0,-0.07131430407992384,-0.06635000579173574,-0.05716370711936865,-0.12312130647862687,-0.037646787668198664,-0.03143855972249427
1161,8.0,300.00934,702.1488099999999,0.0,0.0,0.0,-0.011773867803495252,0.0,0.0,-0.07350659226128584,-0.07141453579306593,-0.06851457651661223,-0.13613532864301087,-0.040774074670837865,-0.00838020218508656
1162,8.0,300.77098,491.04783,0.0,0.0,0.0,-0.011784008947167513,0.0,0.0,-0.06936757604704674,-0.05375181234914085,-0.02614689045949718,-0.1183043459007299,-0.018094872585074882,-0.02031165304785408
1163,8.0,300.74594,202.8369,0.0,0.0,0.0,-0.011794150090839773,0.0,0.0,-0.0037392345369337164,-0.036385966118265264,-0.021532152310057978,-0.12617140206214789,-0.032227059804563175,0.004893404826391456
1164,8.0,301.50366,463.12219000000005,0.0,0.0,0.0,-0.011804291234512035,0.0,0.0,-0.024989679811789376,-0.06513561946738514,-0.050652282319741046,-0.1110674299765019,-0.036118935200161364,-0.0001014199616668709
1165,8.0,301.34564,754.57682,0.0,0.0,0.0,-0.011814432378184296,0.0,0.0,-0.059980630550127347,-0.07708034866873813,-0.09231153227793891,-0.14380812449525684,-0.01935582484427118,0.012350261275625888
1166,8.0,300.68613,449.07382,0.0,0.0,0.0,-0.011824573521856556,0.0,0.0,-0.028204963532613175,-0.06937983333350643,-0.03892243104059486,-0.1009238298349065,-0.003020129319763557,-0.02128537524820298
1167,8.0,300.18294,-10.992326,0.0,0.0,0.0,-0.01183471466552882,0.0,0.0,0.0029861368054087574,-0.0023218739525511178,0.0026771297727621376,-0.11482110616446088,-0.01821646057057468,-0.013161359874675089
1168,8.0,299.71927999999997,407.66997000000003,0.0,0.0,0.0,-0.011844855809201077,0.0,0.0,-0.06490133273951285,-0.036180118280949664,-0.022840039327136376,-0.11522249505907489,-0.03717645723678067,-0.012660735291767288
1169,8.0,299.25768,789.3443599999999,0.0,0.0,0.0,-0.01185499695287334,0.0,0.0,-0.07665097481961222,-0.06832618697851964,-0.0949638126999486,-0.14023505000512185,-0.04607497160249566,-0.0002880293814537867
1170,8.0,299.63086,479.1136,0.0,0.0,0.0,-0.011865138096545602,0.0,0.0,-0.06249410482768795,-0.046494970861696364,-0.03664949524402356,-0.12945473768618787,-0.04145452176224276,-0.013600034346468887
1171,8.0,300.34337999999997,313.27898,0.0,0.0,0.0,-0.011875279240217864,0.0,0.0,-0.03379950743600167,-0.050917397181905855,-0.010512082725961791,-0.11332057395886988,-0.035280636915427765,-0.005585248245646084
1172,8.0,300.02085,448.80636,0.0,0.0,0.0,-0.011885420383890125,0.0,0.0,-0.04500294691719505,-0.04238481808980586,-0.049038160724939654,-0.11474883103482789,-0.035347611733787664,0.016034489301730882
1173,8.0,299.7605,640.99122,0.0,0.0,0.0,-0.011895561527562385,0.0,0.0,-0.06645966174405794,-0.07415606024413333,-0.05422960232779504,-0.1037809255923799,-0.021292652410421182,0.0019090778883113183
1174,8.0,300.70358999999996,719.4984900000001,0.0,0.0,0.0,-0.011905702671234647,0.0,0.0,-0.08650317537819872,-0.06209345357914674,-0.07011294511210894,-0.0983587699815048,0.0018494714246786183,0.014326599516175285
1175,8.0,300.5871,554.6625700000001,0.0,0.0,0.0,-0.011915843814906908,0.0,0.0,-0.033536502160545066,-0.05234855519290015,-0.08271851501543183,-0.10774621906372389,-0.0009579972376744661,0.03374392560176617
1176,8.0,300.68192,169.05989,0.0,0.0,0.0,-0.01192598495857917,0.0,0.0,0.0015495338923520886,-0.04149587351207386,-0.011443645616149889,-0.1081191964255339,-0.034777763930548065,0.024851218172374276
1177,8.0,300.97665,312.20075,0.0,0.0,0.0,-0.011936126102251431,0.0,0.0,-0.012437789872264288,-0.02445697674396568,-0.05800646674429254,-0.13392564295743187,-0.038422551196510564,0.0038201187460413662
1178,8.0,300.41059,758.05745,0.0,0.0,0.0,-0.011946267245923691,0.0,0.0,-0.07054665364516263,-0.08748035377463872,-0.07240352665917173,-0.12361519497486989,-0.02204525506794728,-0.026073759133529675
1179,8.0,299.81122,530.1315099999999,0.0,0.0,0.0,-0.011956408389595953,0.0,0.0,-0.08463725505404672,-0.026179636676228978,-0.050329849925919455,-0.1258713280450329,-0.030883952214008772,-0.024498857410348976
1180,8.0,299.67352999999997,95.018525,0.0,0.0,0.0,-0.011966549533268213,0.0,0.0,-0.01999426461303028,-0.013100995499967589,0.004212001226892156,-0.13597236762942788,-0.05385725622079735,-0.02802771163961977
1181,8.0,299.32327999999995,166.05415,0.0,0.0,0.0,-0.011976690676940474,0.0,0.0,-0.005243836562876375,-0.04941596115722566,0.004183483606802685,-0.12892039011345188,-0.03351141003506867,-0.015730904373019383
1182,8.0,299.22015,549.5698,0.0,0.0,0.0,-0.011986831820612737,0.0,0.0,-0.05082692610697705,-0.05598490512527995,-0.06024366419658674,-0.1035228102619059,-0.023577620551929974,-0.005110977183264175
1183,8.0,299.34497999999996,664.19013,0.0,0.0,0.0,-0.011996972964284995,0.0,0.0,-0.05984428255042085,-0.05720568809751184,-0.08484724404452101,-0.1123890627444369,-0.012805026159007686,0.01686649935634388
1184,8.0,300.52319,559.6639,0.0,0.0,0.0,-0.012007114107957259,0.0,0.0,-0.028032881241629976,-0.07293257797363503,-0.06915839157715184,-0.1158917264851229,-0.04676241721234125,0.005101665820145215
1185,8.0,300.1268,381.92304,0.0,0.0,0.0,-0.01201725525162952,0.0,0.0,-0.045289180951194156,-0.029579243762494073,-0.04122664282800286,-0.13033483659054687,-0.005268399163850515,0.023762062467632974
1186,8.0,299.96903,438.76837,0.0,0.0,0.0,-0.012027396395301782,0.0,0.0,-0.025768717151174375,-0.05903506150380695,-0.04857085079206975,-0.12221330266651388,0.0004970143322714955,-0.016558884731984684
1187,8.0,300.12582000000003,768.52432,0.0,0.0,0.0,-0.012037537538974043,0.0,0.0,-0.05868468975172795,-0.07539714469536883,-0.0995303687806326,-0.12884524748603587,-0.014022173589880787,0.0033654296537670467
1188,8.0,300.37156,631.0327,0.0,0.0,0.0,-0.012047678682646303,0.0,0.0,-0.08521004026932623,-0.02836519282392657,-0.07824294980697794,-0.12086856779629887,-0.05019796833265375,0.017896081021455682
1189,8.0,299.91435,245.90214,0.0,0.0,0.0,-0.012057819826318565,0.0,0.0,0.006651401045292175,-0.04258939328499586,-0.038810118346510464,-0.11122130213668789,-0.03819890359468826,0.0033373620180469866
1190,8.0,300.71105,356.86636,0.0,0.0,0.0,-0.012067960969990826,0.0,0.0,-0.048844612730587954,-0.034546951637268675,-0.025086898119134077,-0.08567270445048761,-0.015081106070639286,-0.008716188521520831
1191,8.0,300.18519,626.99556,0.0,0.0,0.0,-0.012078102113663088,0.0,0.0,-0.08351661057594773,-0.049713868845626855,-0.05736051575254215,-0.1127516036302169,-0.02194017799282698,0.01028095835165159
1192,8.0,299.35096,581.59069,0.0,0.0,0.0,-0.012088243257335348,0.0,0.0,-0.07972423735341962,-0.039608287874283665,-0.057456523226017346,-0.1195232756385289,-0.05502828050711845,-0.002093731269310188
1193,8.0,299.99526000000003,441.99712999999997,0.0,0.0,0.0,-0.01209838440100761,0.0,0.0,-0.02880651390498157,-0.039076228220273464,-0.06647334771315865,-0.12495005065660988,-0.032245038914337575,0.0070391008297301634
1194,8.0,299.18777,233.54852000000002,0.0,0.0,0.0,-0.012108525544679869,0.0,0.0,-0.008763259865516413,-0.026163817815667772,-0.03606584190817147,-0.0964932782621451,-0.012253719819347988,0.02088260630695278
1195,8.0,299.24228,279.0528,0.0,0.0,0.0,-0.01211866668835213,0.0,0.0,0.003851360286374666,-0.012321308667268488,-0.07635513416141503,-0.12064157950889688,-0.018515630768600484,0.010891339198641489
1196,8.0,298.97282,543.24319,0.0,0.0,0.0,-0.012128807832024392,0.0,0.0,-0.07217464156758253,-0.053363140756531945,-0.039594583666681164,-0.13492959142151387,-0.04273567417543266,0.011762376607356188
1197,8.0,298.4305,497.04711,0.0,0.0,0.0,-0.012138948975696656,0.0,0.0,-0.05770956014699015,-0.049333190783056854,-0.044047157217115954,-0.13442352365906887,-0.023422943871164576,-0.0005254196943823865
1198,8.0,298.55192999999997,254.291,0.0,0.0,0.0,-0.012149090119368914,0.0,0.0,-0.012408681223391489,-0.04859765227046486,-0.016291780859873584,-0.1114725476314839,-0.024840641867830478,-0.030373583204889268
1199,8.0,300.19318,111.81356000000001,0.0,0.0,0.0,-0.012159231263041177,0.0,0.0,0.010827736476614388,-0.03876979707203106,-0.006046469457340073,-0.1121355880994209,-0.01738238145925748,-0.03732142900808826
1200,8.0,299.73451,423.40650999999997,0.0,0.0,0.0,-0.012169372406713438,0.0,0.0,-0.03176112485207897,-0.044436278692769254,-0.052507604047847045,-0.1065206525377699,-0.06403535651504765,-0.026636479735565877
1201,8.0,300.73416000000003,681.36022,0.0,0.0,0.0,-0.0121795135503857,0.0,0.0,-0.09020678789196682,-0.056770267171789145,-0.06013943723830034,-0.10649244365498589,-0.03489840250070417,0.004276994026731446
1202,8.0,300.46752000000004,393.65895,0.0,0.0,0.0,-0.012189654694057962,0.0,0.0,-0.07557122308904902,-0.04684014768051266,0.002748878214993157,-0.1002320323158814,-0.015614478896779086,-0.007871446371451273
1203,8.0,300.20765,348.00271000000004,0.0,0.0,0.0,-0.012199795837730221,0.0,0.0,-0.031009183846868175,-0.043887945228902964,-0.030887004123309966,-0.13961305629873585,0.005209744648686765,0.00966092629745919
1204,8.0,301.21132,721.24789,0.0,0.0,0.0,-0.012209936981402483,0.0,0.0,-0.05569841271250535,-0.07711515279642302,-0.08642778349125811,-0.13743433553621287,-0.027283747952446275,-0.005264191237510225
1205,8.0,300.86431,828.8022900000001,0.0,0.0,0.0,-0.012220078125074745,0.0,0.0,-0.07845663310731682,-0.07663611348039552,-0.09684245539235622,-0.12880743299230388,-0.01146197227070859,0.02043189949022148
1206,8.0,299.73838,601.07731,0.0,0.0,0.0,-0.012230219268747004,0.0,0.0,-0.03851665679954806,-0.057813983675795946,-0.08638185185097502,-0.08830648191242123,0.0017199814056239485,0.01033059544755039
1207,8.0,299.67421,303.94534,0.0,0.0,0.0,-0.012240360412419266,0.0,0.0,-0.04992973569993125,-0.018892735098067784,-0.02356932406011118,-0.0999867639834253,-0.02308560352862168,0.024170263442669274
1208,8.0,299.04891000000003,129.47165,0.0,0.0,0.0,-0.012250501556091526,0.0,0.0,-0.05059100601994355,-0.008342590544024581,0.019577446959143582,-0.1208667540786199,-0.06121286426173935,0.009288033542032541
1209,8.0,299.38297,356.06175,0.0,0.0,0.0,-0.012260642699763787,0.0,0.0,-0.051395385757579654,-0.038023354975112965,-0.01881513939215968,-0.14634805878592888,-0.059425229666813545,-0.01173186156734459
1210,8.0,299.80726,692.38305,0.0,0.0,0.0,-0.012270783843436049,0.0,0.0,-0.06374442606683503,-0.07084975322707623,-0.07587297808807993,-0.12305883960996189,-0.03515390871217067,-0.0002081932985145788
1211,8.0,299.94686,428.14502000000005,0.0,0.0,0.0,-0.01228092498710831,0.0,0.0,-0.039969682774200564,-0.04134226884991426,-0.04883344266148555,-0.13347039982000286,-0.024167187215365676,-0.005411105307934515
1212,8.0,300.05135,197.08621000000002,0.0,0.0,0.0,-0.012291066130780574,0.0,0.0,0.02253357271514048,-0.05957608740795204,-0.022866771904524682,-0.13361638889441088,-0.03147912721674797,0.002121590682134698
1213,8.0,300.66443,421.98335,0.0,0.0,0.0,-0.012301207274452833,0.0,0.0,-0.07639233361233634,-0.033740127940391364,-0.018139940936272785,-0.1130539169300529,-0.00035701383953202267,-0.004302163767165506
1214,8.0,299.351,717.4603099999999,0.0,0.0,0.0,-0.012311348418125095,0.0,0.0,-0.09125405482432401,-0.07717832184740733,-0.04965764359757786,-0.12353882631483289,-0.002051260891368688,0.014833748416476984
1215,8.0,300.33142000000004,534.9791299999999,0.0,0.0,0.0,-0.012321489561797357,0.0,0.0,-0.01133799504147299,-0.09512232757209281,-0.056159974477557946,-0.11598632351445888,-0.017384821365498283,-0.03743940678348176
1216,8.0,299.49751000000003,261.6058,0.0,0.0,0.0,-0.012331630705469618,0.0,0.0,0.023184108663593377,-0.06000575509960694,-0.04269998345391026,-0.12959776807030388,-0.03873375171297366,-0.017443869528325884
1217,8.0,300.24848,369.99377000000004,0.0,0.0,0.0,-0.01234177184914188,0.0,0.0,-0.0023921390979607477,-0.05440051938116324,-0.055676208349813947,-0.11625259550823788,-0.030133759065220467,0.0020670214900491385
1218,8.0,298.97917,414.82012000000003,0.0,0.0,0.0,-0.01235191299281414,0.0,0.0,-0.04407084193820346,-0.03899991326249176,-0.043024202207658166,-0.11270509545062689,-0.030675059560142673,0.006435814455965434
1219,8.0,299.6043,482.94895999999994,0.0,0.0,0.0,-0.012362054136486401,0.0,0.0,-0.1023726396758929,-0.024642473453022774,-0.01978931350205318,-0.1251508464289269,-0.037568381362210565,0.02949651391832927
1220,8.0,299.93225,483.05922000000004,0.0,0.0,0.0,-0.012372195280158661,0.0,0.0,-0.06865032264575933,-0.04271068641471655,-0.03547693183080057,-0.13351784018968488,-0.05169562493446095,0.0029220045588793974
1221,8.0,300.23464,441.9537,0.0,0.0,0.0,-0.012382336423830922,0.0,0.0,-0.034817290816949065,-0.04600459631680016,-0.05352100309561175,-0.1137057407193829,-0.030306350007753873,0.007775159747573522
1222,8.0,299.78526,649.79934,0.0,0.0,0.0,-0.012392477567503184,0.0,0.0,-0.06186696989029453,-0.04416616242811086,-0.09148964357857482,-0.0989894077244939,-0.008149984466965842,-0.013385728910568589
1223,8.0,299.63254,1029.1079,0.0,0.0,0.0,-0.012402618711175444,0.0,0.0,-0.09706063954963931,-0.09187657339426182,-0.12388588473908488,-0.1035345031680599,-0.025943159301640473,0.028194735786103774
1224,8.0,299.91007,753.64043,0.0,0.0,0.0,-0.012412759854847705,0.0,0.0,-0.06434724300182844,-0.08107261992399462,-0.08366800837938951,-0.1174909087204499,-0.015098397183595786,0.02015647176853888
1225,8.0,300.25375,116.50011,0.0,0.0,0.0,-0.012422900998519967,0.0,0.0,-0.033210879042158574,0.0016395551855614982,-0.0038418011836062567,-0.13345033746802287,-0.02027778820301188,0.04172637676407276
1226,8.0,300.71687000000003,296.53463,0.0,0.0,0.0,-0.01243304214219223,0.0,0.0,-0.027392381535417575,-0.043835699013996664,-0.018911043514124683,-0.1248589898701229,-0.004056089698229887,0.0016598559552900283
1227,8.0,300.16754,442.03930999999994,0.0,0.0,0.0,-0.012443183285864492,0.0,0.0,-0.03231291653853657,-0.04511336280709225,-0.05694263215955024,-0.12940648671642588,-0.04151817008052436,-0.022909408455482578
1228,8.0,299.66029,378.44295,0.0,0.0,0.0,-0.012453324429536752,0.0,0.0,-0.002116046582887538,-0.07619430198629214,-0.036726858915658765,-0.14339790005977088,-0.05208183331607674,-0.06906515230294984
1229,8.0,300.90986000000004,364.0146,0.0,0.0,0.0,-0.012463465573209013,0.0,0.0,0.019364157813093582,-0.06258546046995403,-0.06743004528532734,-0.10993611597484988,-0.03733084615451767,-0.03202806863067427
1230,8.0,301.13991,235.00536,0.0,0.0,0.0,-0.012473606716881275,0.0,0.0,-0.04753365860545686,-0.015321058893070784,-0.008581043047033013,-0.1106341642337419,-0.02069290157023038,-0.004822367787055646
1231,8.0,301.13163,254.6039,0.0,0.0,0.0,-0.012483747860553536,0.0,0.0,-0.06148405051850334,-0.008709795420014882,-0.007199383823298862,-0.1033633753586709,-0.04425109609124316,0.01133918865009079
1232,8.0,300.51767,639.37828,0.0,0.0,0.0,-0.012493889004225796,0.0,0.0,-0.07835677933646203,-0.04732426135304096,-0.06867399115484522,-0.14656471192231085,-0.04691484042488425,0.01041251874463559
1233,8.0,299.82256,881.8992699999999,0.0,0.0,0.0,-0.012504030147898058,0.0,0.0,-0.07649861746832573,-0.0951636539906714,-0.0964130845829806,-0.12046086635356187,-0.03918429438318876,0.0039738909997675065
1234,8.0,299.67264,455.87762000000004,0.0,0.0,0.0,-0.012514171291570318,0.0,0.0,-0.012652361792940886,-0.04842066584899766,-0.07750238658714002,-0.13580525229043486,-0.008435494229793462,-0.0016929640036325384
1235,8.0,301.25012000000004,443.10222000000005,0.0,0.0,0.0,-0.012524312435242579,0.0,0.0,-0.03057790103455387,-0.04620652692922916,-0.057907581640533355,-0.11333003771480388,-0.03095813732008027,0.003073953671700607
1236,8.0,299.19597999999996,642.85807,0.0,0.0,0.0,-0.01253445357891484,0.0,0.0,-0.08651209501882902,-0.054280585019826647,-0.05462012006208615,-0.13575031387001285,-0.026218135113778476,0.02107656365434488
1237,8.0,299.71461,563.59274,0.0,0.0,0.0,-0.012544594722587102,0.0,0.0,-0.10506460201156889,-0.04371879731020936,-0.02253472376725408,-0.14149204754917785,-0.002069228855391988,0.02940228469877957
1238,8.0,299.72177,131.51512,0.0,0.0,0.0,-0.012554735866259362,0.0,0.0,0.006308908629965805,-0.03197668367835297,-0.014309537397741384,-0.13101344058001987,0.025266864509145375,-0.01076511052768369
1239,8.0,299.88645,188.09062,0.0,0.0,0.0,-0.012564877009931624,0.0,0.0,-0.040737640223742065,-0.01016916849461879,-0.006268044962707874,-0.13418403186543287,-0.02633107399642468,-0.004882814538996276
1240,8.0,299.6912,448.65514,0.0,0.0,0.0,-0.012575018153603885,0.0,0.0,-0.008191185951807112,-0.04288535755970525,-0.08530341633229171,-0.13084675080606886,-0.03276498111040187,-0.049886317933146254
1241,8.0,299.85058,505.53575,0.0,0.0,0.0,-0.012585159297276148,0.0,0.0,-0.04502523740614496,-0.06268009904254414,-0.04596490832363326,-0.11090743778571191,-0.05223275489197155,-0.012943502997174288
1242,8.0,299.17895,620.90805,0.0,0.0,0.0,-0.01259530044094841,0.0,0.0,-0.08614631882547973,-0.03983386369104626,-0.06276036060946535,-0.1073788855049709,-0.026345128788561774,0.0026083779163768575
1243,8.0,300.61222999999995,682.48303,0.0,0.0,0.0,-0.01260544158462067,0.0,0.0,-0.1154262292566819,-0.03957112794011626,-0.05246043826894215,-0.1060374133000779,-0.05614939918626425,0.048398801938339855
1244,8.0,299.94237999999996,470.18595999999997,0.0,0.0,0.0,-0.012615582728292931,0.0,0.0,-0.018512439030785484,-0.08344493731687412,-0.04096741393566896,-0.12026111422884789,-0.042958416944915666,-0.0006854481189959623
1245,8.0,299.95342,484.28885,0.0,0.0,0.0,-0.012625723871965193,0.0,0.0,-0.016120646970983983,-0.058549559678641644,-0.07254151207103983,-0.1048098000089219,-0.008280945319865672,0.017844177285083182
1246,8.0,300.66674,560.37371,0.0,0.0,0.0,-0.012635865015637453,0.0,0.0,-0.0038037869782795463,-0.09011068314648202,-0.07642514569032463,-0.13529845498791787,0.015992839656370383,-0.012062235815449988
1247,8.0,300.5077,142.53776000000002,0.0,0.0,0.0,-0.012646006159309714,0.0,0.0,-0.009090819102193991,-0.026145240888334375,-0.008091859273654332,-0.15138268575030786,-0.014556942674658386,-0.016514820511635882
1248,8.0,300.41456,-43.470246,0.0,0.0,0.0,-0.012656147302981974,0.0,0.0,-0.043091114204511866,0.00975235073940708,0.04655263289838716,-0.16372408210080883,-0.024864610298945974,-0.021454851459928977
1249,8.0,300.32968,342.79075,0.0,0.0,0.0,-0.012666288446654236,0.0,0.0,-0.05377038319697365,-0.05355227807319835,0.003122834173749737,-0.15192020479585686,-0.02494637654226568,-0.024360102941654978
1250,8.0,299.47707,400.87752,0.0,0.0,0.0,-0.012676429590326497,0.0,0.0,-0.04439203310065255,-0.02111959537284178,-0.056345127694831146,-0.15120303650757785,-0.02073317218220478,-0.0003367249146971617
1251,8.0,299.25525,668.66794,0.0,0.0,0.0,-0.012686570733998759,0.0,0.0,-0.05254422189321095,-0.07396297226532703,-0.07675116296300002,-0.14048102659939787,-0.06822999205377593,-0.019567414769903483
1252,8.0,299.0924,934.4769,0.0,0.0,0.0,-0.01269671187767102,0.0,0.0,-0.08415237637769292,-0.07929860239716272,-0.12060666291045088,-0.1082079064717889,-0.05533634197477174,-0.0026241028486537876
1253,8.0,299.47392,758.9261700000001,0.0,0.0,0.0,-0.01270685302134328,0.0,0.0,-0.08467669074793872,-0.05319957483263924,-0.09281834072620701,-0.07461060525224343,-0.046579738351812255,0.016207507835806483
1254,8.0,299.71727999999996,465.48945999999995,0.0,0.0,0.0,-0.012716994165015542,0.0,0.0,-0.07126363752192344,-0.05644172589311465,-0.013791808139895488,-0.06754889749555713,-0.02839049570542377,0.018968035792499383
1255,8.0,300.28168999999997,513.73956,0.0,0.0,0.0,-0.012727135308687803,0.0,0.0,-0.07973289557552413,-0.03911362322846406,-0.037317480372448565,-0.12542060400304988,-0.029581311805948172,0.04212306113847246
1256,8.0,299.57362,410.76755,0.0,0.0,0.0,-0.012737276452360067,0.0,0.0,-0.041751215577024166,-0.05373328507106235,-0.029378578699439974,-0.13002338377480888,-0.018443179333450084,0.001967400868042348
1257,8.0,299.57872000000003,63.993478,0.0,0.0,0.0,-0.012747417596032328,0.0,0.0,0.03138508646171687,-0.03241789330189697,-0.01841961214937418,-0.13184998999508088,0.009504380170259293,-0.010470646876372391
1258,8.0,300.05166,134.89472,0.0,0.0,0.0,-0.012757558739704588,0.0,0.0,0.05329335720889486,-0.03756150950003236,-0.05673647528095415,-0.13078712103768386,0.012072996531511988,-0.038128390506979165
1259,8.0,299.6541,409.0848,0.0,0.0,0.0,-0.01276769988337685,0.0,0.0,-0.04292969333108086,-0.02268604861668868,-0.058735822404774346,-0.13835445781952185,-0.03538179777891157,0.01022179062531219
1260,8.0,298.48644,479.17865,0.0,0.0,0.0,-0.01277784102704911,0.0,0.0,-0.07869096340494343,-0.042681226168059055,-0.024286155949356975,-0.15005070769885184,-0.050024556657539354,-0.03745743250276076
1261,8.0,299.10239,462.61874000000006,0.0,0.0,0.0,-0.012787982170721371,0.0,0.0,-0.06489826664471024,-0.03768009522548586,-0.038046183499865965,-0.1179363233319089,-0.04892962644047816,0.008389562184210322
1262,8.0,299.26801,588.89679,0.0,0.0,0.0,-0.012798123314393632,0.0,0.0,-0.05709467439005565,-0.059241284243659535,-0.06267396077343834,-0.1042285389565559,-0.045657397050784254,0.0034094234532338966
1263,8.0,299.74444,561.21144,0.0,0.0,0.0,-0.012808264458065892,0.0,0.0,-0.05375530502223554,-0.04211636152881126,-0.07472259775929622,-0.10906944263431588,-0.04082096687221576,0.013311629930755587
1264,8.0,300.08829,473.67327,0.0,0.0,0.0,-0.012818405601738154,0.0,0.0,-0.02303693206006818,-0.05074973874085925,-0.07019817464427043,-0.1116322865097489,-0.024814077489958775,0.004556288513445666
1265,8.0,299.85809,507.31965,0.0,0.0,0.0,-0.012828546745410415,0.0,0.0,-0.06176755586998315,-0.053603486720002244,-0.03884146425160406,-0.08528387377761301,-0.006670602134687174,0.016246206896875785
1266,8.0,300.45159,242.33899,0.0,0.0,0.0,-0.012838687889082677,0.0,0.0,-0.022748992726150778,-0.00964025700866929,-0.04127575100734946,-0.1054208708792299,-0.01078839400173159,0.02127716386939258
1267,8.0,300.83688,139.94816,0.0,0.0,0.0,-0.012848829032754938,0.0,0.0,-0.026717600538571872,-0.03147217834756217,0.015649030725189087,-0.13033375241293987,-0.03805691584492517,-0.002769111603590037
1268,8.0,299.73387,360.92991,0.0,0.0,0.0,-0.012858970176427198,0.0,0.0,-0.04947199996725625,-0.03217184881986426,-0.028069830419776575,-0.16873930532577283,-0.023212495878394978,0.0008777473839244223
1269,8.0,299.62485,564.3500700000001,0.0,0.0,0.0,-0.01286911132009946,0.0,0.0,-0.048486449085239955,-0.03978718325893926,-0.08327469610132261,-0.15100688142071886,-0.01238613134241599,-0.017160927543901684
1270,8.0,299.31379,421.00628,0.0,0.0,0.0,-0.012879252463771721,0.0,0.0,0.004594747231591246,-0.05344147917476335,-0.07912866313014101,-0.14715420056548886,-0.016823510194351184,-0.013374817220241687
1271,8.0,299.94428,647.34736,0.0,0.0,0.0,-0.012889393607443985,0.0,0.0,-0.07990786360279213,-0.04756000310805686,-0.06930956545232153,-0.12912562392120688,-0.04750300272368136,0.009022563231732662
1272,8.0,300.2417,656.1067400000001,0.0,0.0,0.0,-0.012899534751116245,0.0,0.0,-0.07736729096455713,-0.04565478691852666,-0.07641798707836812,-0.12110263870189988,-0.05913305190772785,0.014446067782465885
1273,8.0,300.77194,488.83198,0.0,0.0,0.0,-0.012909675894788506,0.0,0.0,-0.08289218304282152,-0.04576248020540516,-0.01993805355048268,-0.1028289669909289,-0.027274396667273375,0.006471533649815644
1274,8.0,300.61812000000003,607.0856200000001,0.0,0.0,0.0,-0.012919817038460766,0.0,0.0,-0.06497737715951783,-0.06292153019687154,-0.056639963208929146,-0.09408980646844091,-0.018977329322416584,0.01995755152215698
1275,8.0,300.54991,581.02346,0.0,0.0,0.0,-0.012929958182133027,0.0,0.0,-0.04490142837642596,-0.048796930194132046,-0.08291826410039552,-0.09290726659473332,-0.027315894325118873,0.008285330564973463
1276,8.0,300.33995,315.82272,0.0,0.0,0.0,-0.012940099325805289,0.0,0.0,-0.0037534626961629267,-0.04929493045928086,-0.04295382692196266,-0.12372609519831489,-0.03128302887189457,-0.03350601549153627
1277,8.0,300.2355,-31.416641,0.0,0.0,0.0,-0.01295024046947755,0.0,0.0,0.0017015924361840984,0.0007248205252867163,0.007123461499930914,-0.12477646064947787,-0.029613946565168973,-0.01899710897761868
1278,8.0,299.72721,234.37614,0.0,0.0,0.0,-0.01296038161314981,0.0,0.0,-0.016037410501769184,-0.04561446057779675,-0.009592622601593142,-0.13189044907157388,-0.03967994998760617,-0.029040225106797074
1279,8.0,299.4248,510.02572999999995,0.0,0.0,0.0,-0.012970522756822072,0.0,0.0,-0.06233767117124914,-0.07085168448176683,-0.021845730924505778,-0.15898544575564186,-0.042992430737522555,-0.02082744699800898
1280,8.0,299.27702999999997,467.03878,0.0,0.0,0.0,-0.012980663900494334,0.0,0.0,-0.06273388438435235,-0.038860826447764965,-0.040373417342796064,-0.15046472168971184,-0.02832658090236587,-0.007836284769131093
1281,8.0,299.49166,412.49596,0.0,0.0,0.0,-0.012990805044166595,0.0,0.0,-0.028629809167042178,-0.04976144195107195,-0.04699722272426476,-0.15309351801415386,-0.004107247885178806,-0.006804939643545254
1282,8.0,299.54447999999996,431.30722000000003,0.0,0.0,0.0,-0.013000946187838857,0.0,0.0,-0.05117071477315635,-0.024141215588802476,-0.05579469579000774,-0.13833182181228787,-0.0007880712138315733,0.035177764672525064
1283,8.0,299.31857,655.78203,0.0,0.0,0.0,-0.013011087331511116,0.0,0.0,-0.07375033159934102,-0.04986511871455405,-0.07572591192881563,-0.12432964775288088,-0.028897338604195272,-0.00030119175356531174
1284,8.0,299.85041,871.62056,0.0,0.0,0.0,-0.013021228475183378,0.0,0.0,-0.1256790435735559,-0.06544020042094494,-0.07383164289336583,-0.10112613737637272,-0.03725846362037407,0.023492892578567976
1285,8.0,300.84717,385.9865,0.0,0.0,0.0,-0.013031369618855641,0.0,0.0,-0.07527750721631153,-0.023586675968073678,-0.01846607371945958,-0.09523920394462759,-0.027905063794515374,-0.0070780501635741636
1286,8.0,300.41262,-59.953427000000005,0.0,0.0,0.0,-0.0130415107625279,0.0,0.0,-0.001084933592899609,-0.02034347214074438,0.03965275030192176,-0.11378708443741088,-0.03414738051333407,0.006587049632766183
1287,8.0,300.97551,281.43497,0.0,0.0,0.0,-0.013051651906200163,0.0,0.0,0.010923625399827889,-0.03857638991944326,-0.05789643892918365,-0.12878348989244087,-0.04519441369584136,-0.016298323415769287
1288,8.0,300.60188999999997,692.17304,0.0,0.0,0.0,-0.01306179304987242,0.0,0.0,-0.061216732850621146,-0.0882055865204636,-0.06098100122810625,-0.14085235236354485,-0.03692288430650497,-0.017277390510395684
1289,8.0,300.36712,469.54972000000004,0.0,0.0,0.0,-0.013071934193544684,0.0,0.0,-0.018174404611924082,-0.07343920707663543,-0.05111777853493195,-0.14389371373120385,0.0024597816481365478,-0.02970979090537807
1290,8.0,300.47356,289.44486,0.0,0.0,0.0,-0.013082075337216946,0.0,0.0,-0.024411401767717774,-0.04391883517145156,-0.01965377306267638,-0.11884149004374188,-0.02478018731386408,-0.01198507783358509
1291,8.0,300.16186,372.09001,0.0,0.0,0.0,-0.013092216480889207,0.0,0.0,-0.06411485003839303,-0.040884764138262066,-0.008106459194345233,-0.16851271220590985,-0.03417539485209887,0.03229457468522637
1292,8.0,299.21839,621.8982599999999,0.0,0.0,0.0,-0.013102357624561469,0.0,0.0,-0.05771336895411604,-0.06173736203025324,-0.06959081226932844,-0.14245034909625487,-0.04483709206132646,-0.006497619469665115
1293,8.0,299.26896,822.8583,0.0,0.0,0.0,-0.013112498768233729,0.0,0.0,-0.07664370475014473,-0.06591227769553534,-0.1075723960090689,-0.12792277446249486,-0.019444089060482183,0.01822586961100328
1294,8.0,299.66261000000003,613.81603,0.0,0.0,0.0,-0.01312263991190599,0.0,0.0,-0.05416431153110135,-0.04543468467880425,-0.086985748910575,-0.11974340422275388,-0.016089057885866384,-0.005618147260492964
1295,8.0,300.16674,217.5937,0.0,0.0,0.0,-0.013132781055578252,0.0,0.0,-0.007434437581496862,-0.032157245859423075,-0.026551367740415978,-0.12169557239541788,-0.04047405030297776,0.02041395989720098
1296,8.0,300.70378,268.91888,0.0,0.0,0.0,-0.013142922199250513,0.0,0.0,-0.01025814401239999,-0.06075897077344354,-0.010727510842972889,-0.11209038701245991,-0.04502576125644666,-0.01976290009844638
1297,8.0,300.42162,739.84209,0.0,0.0,0.0,-0.013153063342922775,0.0,0.0,-0.09664518269063692,-0.07578943055108442,-0.05245890826129115,-0.1052647594363229,-0.02239627833984058,0.026313310708921574
1298,8.0,300.92407000000003,521.4942900000001,0.0,0.0,0.0,-0.013163204486595035,0.0,0.0,-0.043814536272408056,-0.043329275600766555,-0.07137743158765403,-0.0971166165514138,-0.024189862739353578,0.004868960877004025
1299,8.0,300.4929,157.48782,0.0,0.0,0.0,-0.013173345630267296,0.0,0.0,0.017943288343614684,-0.03197928975761017,-0.03383636339513907,-0.11971472924492389,-0.021239277434903482,0.004584343990164526
1300,8.0,299.6282,374.88522,0.0,0.0,0.0,-0.01318348677393956,0.0,0.0,-0.03692293598226006,-0.03263518782559227,-0.04439762320145425,-0.14589187332590686,-0.04745155494985386,0.0017578929687155284
1301,8.0,299.78963999999996,762.19106,0.0,0.0,0.0,-0.013193627917611818,0.0,0.0,-0.08046356136838521,-0.06622356129850664,-0.08499992664908962,-0.14676051237163487,-0.017573998198918587,-0.021942757727581582
1302,8.0,299.47097,591.1879,0.0,0.0,0.0,-0.01320376906128408,0.0,0.0,-0.1048381507467199,-0.026559500085718578,-0.04830870779244825,-0.14398742923295285,-0.04094617216057256,0.03670669118566836
1303,8.0,298.46227000000005,380.4996,0.0,0.0,0.0,-0.013213910204956339,0.0,0.0,-0.05070635137157725,-0.02050931990386228,-0.04444670604954836,-0.13949032131412287,-0.04534859084430746,0.01128402022189609
1304,8.0,299.15079,308.09166,0.0,0.0,0.0,-0.013224051348628602,0.0,0.0,-0.005563927741016915,-0.044041647163072156,-0.044046595876560554,-0.13166807107212689,-0.03015523388783987,0.01890612925113968
1305,8.0,299.87865,325.43931000000003,0.0,0.0,0.0,-0.013234192492300864,0.0,0.0,6.342277894184094e-05,-0.04039579091825417,-0.05859305546568435,-0.12248440786326989,-0.0016974918130293983,-0.03205755420858427
1306,8.0,300.58097000000004,677.4991200000001,0.0,0.0,0.0,-0.013244333635973125,0.0,0.0,-0.06294335256427525,-0.06033222833482735,-0.08266723341462072,-0.1159149501774149,-0.016554022144754786,-0.002793725272369217
1307,8.0,300.56307999999996,665.64228,0.0,0.0,0.0,-0.013254474779645387,0.0,0.0,-0.06617387455335293,-0.07819769805751194,-0.05796705840815324,-0.13537435755290886,-0.03452579092218026,-0.030054778246425672
1308,8.0,300.51383,177.99249,0.0,0.0,0.0,-0.013264615923317647,0.0,0.0,-0.026848438484234575,-0.03763779608681126,0.01038096107027109,-0.10970448700198988,-0.05468383728137455,-0.015278683760638685
1309,8.0,300.33385,92.811338,0.0,0.0,0.0,-0.013274757066989908,0.0,0.0,0.006457286644134573,-0.04601644019721905,0.011346824502844388,-0.12818367623074386,-0.04844412664181305,-0.012391999073745089
1310,8.0,300.89608,558.29462,0.0,0.0,0.0,-0.01328489821066217,0.0,0.0,-0.03365258515825157,-0.04326286313621216,-0.09279217658212481,-0.1311865746246069,-0.057415172489436346,0.01105092912914179
1311,8.0,299.46126,628.11295,0.0,0.0,0.0,-0.013295039354334431,0.0,0.0,-0.08105225157048443,-0.03927887418727306,-0.07059952706188084,-0.13119674765561087,-0.06997216819621534,0.027686378078432772
1312,8.0,300.53785,437.62251,0.0,0.0,0.0,-0.013305180498006693,0.0,0.0,-0.03657435768285807,-0.056806679327382745,-0.03964527758243426,-0.14013732203297688,-0.054697273990950646,-0.025285270197211874
1313,8.0,299.86262,392.59542000000005,0.0,0.0,0.0,-0.013315321641678953,0.0,0.0,-0.04400087701879846,-0.03732404116684607,-0.038014287399968066,-0.12258257153295789,-0.010578993709565391,-0.007740867919139182
1314,8.0,301.7511,623.86629,0.0,0.0,0.0,-0.013325462785351213,0.0,0.0,-0.08824428254178261,-0.05346933544651254,-0.047926155217193254,-0.13634500048620388,-0.011021639108501092,0.003255700038162577
1315,8.0,299.44065,785.8620599999999,0.0,0.0,0.0,-0.013335603929023474,0.0,0.0,-0.08605279381474952,-0.07046318108867454,-0.08236646734768742,-0.12016874634973188,0.008187773021495282,0.01959188779956878
1316,8.0,299.74214,802.80348,0.0,0.0,0.0,-0.013345745072695736,0.0,0.0,-0.06747849485210894,-0.07600961790381522,-0.10054409916118,-0.11896398184833089,-0.027498797113919973,-0.0014909741160726887
1317,8.0,299.7523,306.96852,0.0,0.0,0.0,-0.013355886216367999,0.0,0.0,-0.02123157673414348,-0.048049616702127956,-0.024029572653034178,-0.11653285035339689,-0.007320586976410682,-0.024289944491480874
1318,8.0,299.80686000000003,13.881544,0.0,0.0,0.0,-0.013366027360040259,0.0,0.0,0.021589673504984877,-0.019352411204684283,-0.006456904750171883,-0.13387912464534088,-0.046145698485975856,-0.005477720321183905
1319,8.0,299.11413,334.99492999999995,0.0,0.0,0.0,-0.01337616850371252,0.0,0.0,-0.06065403859308754,-0.031747392273473674,-0.00942866292871158,-0.13077359414884887,-0.04876632396161146,-0.03454072724190437
1320,8.0,300.77671000000004,472.103,0.0,0.0,0.0,-0.013386309647384782,0.0,0.0,-0.07837167107318171,-0.03229479050749767,-0.032841062007410465,-0.12182750769093889,-0.03001314582631687,0.01926879375343188
1321,8.0,299.28031,53.230229,0.0,0.0,0.0,-0.013396450791057044,0.0,0.0,0.012051022176593288,-0.015954543868840886,-0.01227713906890929,-0.1118342272546789,-0.006858593262840452,-0.023867544842793277
1322,8.0,300.84918,97.49141800000001,0.0,0.0,0.0,-0.013406591934729305,0.0,0.0,0.014130388700560787,-0.004612617113004865,-0.03915272860282346,-0.11802969432862388,0.0005798583393250623,0.02207553503393568
1323,8.0,300.16027,673.8802099999999,0.0,0.0,0.0,-0.013416733078401565,0.0,0.0,-0.06402702962572585,-0.04899319065900145,-0.09182253575317871,-0.17350089178570482,-0.02329590257362658,0.014495373545581986
1324,8.0,299.74557999999996,944.5750400000001,0.0,0.0,0.0,-0.013426874222073826,0.0,0.0,-0.07841936880838914,-0.07961220330311272,-0.12909565198324888,-0.15473467920112385,-0.04899446938062765,-0.00026621992285636077
1325,8.0,299.39071,731.79492,0.0,0.0,0.0,-0.013437015365746088,0.0,0.0,-0.08117061843391632,-0.1094781471946519,-0.03179862017202947,-0.15320798487795087,-0.03382592387935877,-0.01963231141230828
1326,8.0,299.19793,328.20754,0.0,0.0,0.0,-0.01344715650941835,0.0,0.0,-0.05377966254138945,-0.03370527416345157,-0.01228196011288509,-0.12632935762023687,-0.025241206990113178,0.00041453250133367255
1327,8.0,298.99796000000003,260.66114,0.0,0.0,0.0,-0.01345729765309061,0.0,0.0,-0.004563368294544386,-0.03676876086029417,-0.037902350621670765,-0.12023408071617987,-0.04534248803895516,0.009417338440293941
1328,8.0,299.63786,334.01572999999996,0.0,0.0,0.0,-0.01346743879676287,0.0,0.0,-0.03249464801022207,-0.021369766822531777,-0.04766802671446795,-0.1189561696900599,-0.03887687126309846,0.0025378619915674776
1329,8.0,299.5492,417.01152,0.0,0.0,0.0,-0.01347757994043513,0.0,0.0,-0.012463681452069589,-0.05199021220228445,-0.06230719564799145,-0.10894250266178788,-0.017192540947021683,0.008878751530464551
1330,8.0,300.51158,248.31149,0.0,0.0,0.0,-0.013487721084107392,0.0,0.0,-0.01180292586310809,-0.04896052246252736,-0.014717044296459184,-0.1233984911759829,-0.04395938341395336,-0.023626199814724375
1331,8.0,300.52047000000005,290.15189,0.0,0.0,0.0,-0.013497862227779656,0.0,0.0,-0.057223232522993356,-0.024723505090019977,-0.006252190841043194,-0.12348810301482689,-0.02912231153714837,0.005947091204757204
1332,8.0,299.97454,839.7655699999999,0.0,0.0,0.0,-0.013508003371451917,0.0,0.0,-0.11073010888571089,-0.07647027179677822,-0.06806738973072834,-0.14579448985879587,-0.05016425547532655,-0.0019289211756196981
1333,8.0,301.23925,982.9308300000001,0.0,0.0,0.0,-0.013518144515124177,0.0,0.0,-0.08315090328360522,-0.08523681844296901,-0.13039870174434987,-0.13113045070156787,-0.01986467701799098,0.0005829586515835395
1334,8.0,300.44875,477.98636,0.0,0.0,0.0,-0.013528285658796439,0.0,0.0,-0.03810511108593166,-0.035639886764882965,-0.07155092128302613,-0.12987855993801586,-0.018728803390888983,0.025931872708776577
1335,8.0,300.42277,302.23115,0.0,0.0,0.0,-0.0135384268024687,0.0,0.0,0.001838133460034648,-0.03762856740490046,-0.05608028843669354,-0.12245095034496788,-0.03968135941849526,-0.017708537547196583
1336,8.0,299.39042,470.71491,0.0,0.0,0.0,-0.013548567946140962,0.0,0.0,-0.06515926771146904,-0.037748233254960566,-0.04017807893551766,-0.12749617590539286,-0.04552479199694716,-0.006605726263909424
1337,8.0,299.09677999999997,477.5281,0.0,0.0,0.0,-0.013558709089813223,0.0,0.0,-0.07977650079357762,-0.05893287523122195,-0.006447242701193314,-0.12435318555270389,-0.04057969175840376,-0.03018392609092157
1338,8.0,299.56302999999997,359.39092,0.0,0.0,0.0,-0.013568850233485483,0.0,0.0,-0.02873386285956147,-0.05886723688974394,-0.02164476492617198,-0.11397327927578689,-0.036083445102158766,-0.0024389523671558577
1339,8.0,298.7038,210.99787999999998,0.0,0.0,0.0,-0.013578991377157745,0.0,0.0,0.0096837468175364,-0.028023337438938072,-0.045798496180209654,-0.1269479164087839,-0.04984019782834455,0.004840923740111976
1340,8.0,299.40834,296.32898,0.0,0.0,0.0,-0.013589132520830006,0.0,0.0,-0.029901245525023174,-0.027840043535598373,-0.03233532253799787,-0.14873382707388585,-0.03043667727536617,0.002427404153116138
1341,8.0,300.28236,686.78052,0.0,0.0,0.0,-0.013599273664502266,0.0,0.0,-0.036160379155751564,-0.07652947194712083,-0.0960742790807931,-0.15962716744147484,-0.012996740170678386,-0.01308191093433409
1342,8.0,300.23044,780.5353700000001,0.0,0.0,0.0,-0.013609414808174528,0.0,0.0,-0.09639906221484672,-0.07493519181577762,-0.06592900746793644,-0.16595154019314184,-0.021794494919949184,0.002828908051616487
1343,8.0,300.6028,505.98462,0.0,0.0,0.0,-0.013619555951846787,0.0,0.0,-0.059320487977476355,-0.06089641814950854,-0.03358978290380347,-0.1129108966784379,-0.03555044008580527,0.0013575170202264988
1344,8.0,299.74424,384.96227999999996,0.0,0.0,0.0,-0.013629697095519049,0.0,0.0,-0.02288148328272658,-0.04905422884502545,-0.045083208484116254,-0.15000779655711685,-0.02654921863695387,-0.013374567960717088
1345,8.0,299.09098,544.7207099999999,0.0,0.0,0.0,-0.01363983823919131,0.0,0.0,-0.052204316001414855,-0.04544193245676955,-0.06793524570568674,-0.1010603814978831,-0.013266213021523289,0.009047753946443792
1346,8.0,300.44497,531.02251,0.0,0.0,0.0,-0.013649979382863574,0.0,0.0,-0.038875492229712365,-0.05791035794580735,-0.06463173221915534,-0.15392102923832285,-0.02233851903114018,0.01989070943956018
1347,8.0,299.29093,226.28822999999997,0.0,0.0,0.0,-0.013660120526535835,0.0,0.0,0.011998212594631387,-0.029572094269788473,-0.05121208982773975,-0.12679369974356386,-0.039692553805600064,-0.006510996397485313
1348,8.0,298.64386,138.34671,0.0,0.0,0.0,-0.013670261670208095,0.0,0.0,-0.029326940434593673,-0.016955828498409983,0.004228825332877566,-0.14826927216803784,-0.04573971754190866,0.006362148336595154
1349,8.0,299.44524,566.05026,0.0,0.0,0.0,-0.013680402813880357,0.0,0.0,-0.0877590978638986,-0.053592473704665355,-0.03071357420969377,-0.12808441825094788,-0.020368363642700983,-0.007894306914907431
1350,8.0,298.74296,725.36265,0.0,0.0,0.0,-0.013690543957552618,0.0,0.0,-0.04522521345913105,-0.08321270748670483,-0.0920542133620435,-0.12243355284075089,-0.016422943045568284,0.008010311385731182
1351,8.0,299.50903,498.45782,0.0,0.0,0.0,-0.01370068510122488,0.0,0.0,-0.05083852072787135,-0.051408729248146545,-0.04927148081221655,-0.11427287706535488,-0.045339704640930456,0.007820708885943873
1352,8.0,300.54561,449.77491,0.0,0.0,0.0,-0.013710826244897141,0.0,0.0,-0.03274119607755447,-0.041854133416181355,-0.06212501125351124,-0.12061702845897389,-0.022940451398796274,0.0014945684181524187
1353,8.0,299.63219,259.83485,0.0,0.0,0.0,-0.013720967388569401,0.0,0.0,-0.018693654758170083,-0.03080122743609447,-0.02948842311628077,-0.12949822638047986,-0.025008101711857477,-0.029649380934416075
1354,8.0,300.61211000000003,405.09477000000004,0.0,0.0,0.0,-0.013731108532241663,0.0,0.0,-0.06900569276058163,-0.03640959308409707,-0.017723410032164384,-0.13537559371803087,-0.01052890267762179,0.004088042236158356
1355,8.0,300.45052000000004,556.39012,0.0,0.0,0.0,-0.013741249675913923,0.0,0.0,-0.04921039804318816,-0.053888241408855356,-0.06603006295340985,-0.15068748472419685,-0.036814933654101066,0.0017220862300566782
1356,8.0,300.77621,290.55932,0.0,0.0,0.0,-0.013751390819586184,0.0,0.0,-0.02193010628683298,-0.02225257414440808,-0.04414009859578855,-0.1372996745979229,-0.03298580782394577,-0.013640125613175586
1357,8.0,300.58457000000004,244.62847999999997,0.0,0.0,0.0,-0.013761531963258446,0.0,0.0,-0.029752234938816974,-0.02047517033574198,-0.024133544272295377,-0.13856979373077385,-0.029544306899046073,0.010171194994818791
1358,8.0,300.24974,485.68613,0.0,0.0,0.0,-0.013771673106930706,0.0,0.0,-0.03680588533070807,-0.048518318840635254,-0.062312251765990444,-0.12060078605987089,-0.0069080058225170935,-0.0006180461042614015
1359,8.0,298.95709,665.7540700000001,0.0,0.0,0.0,-0.013781814250602967,0.0,0.0,-0.056648839279805144,-0.07823382852957772,-0.06748994660473914,-0.13645426937698785,-0.037361421989535265,0.0030698408895447073
1360,8.0,300.34836,672.73866,0.0,0.0,0.0,-0.013791955394275229,0.0,0.0,-0.07906662993251883,-0.08113912966055863,-0.04428999577583226,-0.13521956333513188,-0.02697559022603347,-0.016056677452420686
1361,8.0,300.12416,421.45293,0.0,0.0,0.0,-0.013802096537947492,0.0,0.0,-0.03208171313071857,-0.045412922093156456,-0.05061652978996255,-0.12791805271702889,-0.044941414265122256,-0.013779775794957988
1362,8.0,299.80893,294.25834,0.0,0.0,0.0,-0.013812237681619753,0.0,0.0,-0.047655199981452054,-0.013083041721445686,-0.028708948052852575,-0.12037139636973188,-0.03263302960287927,0.01761343794581098
1363,8.0,298.84484,297.67337000000003,0.0,0.0,0.0,-0.013822378825292013,0.0,0.0,-0.04599853809445225,-0.01137408498353479,-0.03311264951121407,-0.12859706200654186,-0.04754634753645916,0.005056310313868975
1364,8.0,298.56555,667.01555,0.0,0.0,0.0,-0.013832519968964275,0.0,0.0,-0.058503952278390545,-0.06209182528623604,-0.08216029527033983,-0.12811849385181087,-0.04059067538948776,-0.00024322921729235476
1365,8.0,299.70999,723.73429,0.0,0.0,0.0,-0.013842661112636536,0.0,0.0,-0.07778102732488971,-0.04980257990513195,-0.09241354528475682,-0.15069618854255584,-0.06354546326394894,-0.013505240746613486
1366,8.0,300.56203999999997,361.69166,0.0,0.0,0.0,-0.013852802256308798,0.0,0.0,-0.05371959707546145,-0.05230312713791675,-0.003922508783221476,-0.14899712011237087,-0.03708475506298037,-0.014747445852459587
1367,8.0,299.99516,274.99543,0.0,0.0,0.0,-0.013862943399981058,0.0,0.0,0.005768807113886934,-0.04343333739928666,-0.045927213393413054,-0.13889534085540287,-0.05396665480759415,-0.022958213673049278
1368,8.0,300.38131,564.91722,0.0,0.0,0.0,-0.01387308454365332,0.0,0.0,-0.07933394557390083,-0.051024046821181356,-0.041362736501934255,-0.12031965981962589,-0.014287216511288486,0.004117808686996076
1369,8.0,300.52628,451.59180999999995,0.0,0.0,0.0,-0.01388322568732558,0.0,0.0,-0.031917461236508175,-0.050427517103058456,-0.05492765463968745,-0.12945749372645987,-0.015766314424264086,0.006393872386626073
1370,8.0,300.42339,148.66305,0.0,0.0,0.0,-0.01389336683099784,0.0,0.0,-0.007984357592369743,-0.014943654641573883,-0.022261842343072775,-0.14897696656788184,-0.001989386064737118,-0.0029798192923602674
1371,8.0,299.89434,251.00517999999997,0.0,0.0,0.0,-0.013903507974670102,0.0,0.0,-0.019061709750994284,-0.03736892713302596,-0.01986867023663508,-0.13470583540193087,-0.025075156576975274,0.0035089131633277665
1372,8.0,298.9389,414.77917,0.0,0.0,0.0,-0.013913649118342364,0.0,0.0,-0.03431843435546576,-0.05757958751691285,-0.03418448877174637,-0.15909307318126387,-0.03252716725893147,-0.029162129226328073
1373,8.0,299.05283,640.86285,0.0,0.0,0.0,-0.013923790262014624,0.0,0.0,-0.06429098330327604,-0.05206718779913135,-0.07844813396547802,-0.12633283306807988,-0.03877135342418467,-0.01285450721439109
1374,8.0,299.63865,624.93799,0.0,0.0,0.0,-0.013933931405686885,0.0,0.0,-0.11150834575751689,-0.03150781638007937,-0.04694937502804255,-0.13373552684116888,-0.037668100370802066,-0.0059732483574137145
1375,8.0,299.85936,355.6137,0.0,0.0,0.0,-0.013944072549359149,0.0,0.0,-0.04830534886836675,-0.016933972693752984,-0.04285836356379116,-0.11325305097220591,-0.04443264821766096,0.025118414250244477
1376,8.0,299.98589,291.7927,0.0,0.0,0.0,-0.01395421369303141,0.0,0.0,-0.003612882553438746,-0.05341758876390555,-0.03166722291231157,-0.12862937455223086,-0.056761187437643044,-0.023480119547807377
1377,8.0,300.19829,603.9766099999999,0.0,0.0,0.0,-0.013964354836703672,0.0,0.0,-0.07738246337155452,-0.06662213437109274,-0.03958920837490067,-0.13665960450975287,-0.04490348223437866,0.006445620487783213
1378,8.0,300.15778,753.63845,0.0,0.0,0.0,-0.013974495980375931,0.0,0.0,-0.07390059861567123,-0.06457681811673574,-0.09060985270224621,-0.16367196051566482,-0.016320353499443482,-0.005581240233550525
1379,8.0,300.30057999999997,282.26345,0.0,0.0,0.0,-0.013984637124048193,0.0,0.0,-0.03866721259215676,-0.008415928573012483,-0.038717899415159164,-0.15813085035629987,-0.014053396891712288,0.015717290344675786
1380,8.0,299.88409,70.94905200000001,0.0,0.0,0.0,-0.013994778267720455,0.0,0.0,-0.011091701299915688,-0.020253527955867583,0.009778488235011651,-0.15268167237850785,0.007053687780819783,0.01736333438387768
1381,8.0,300.31999,473.14592999999996,0.0,0.0,0.0,-0.014004919411392714,0.0,0.0,-0.043883010700915964,-0.04125880743917726,-0.058682729112784444,-0.14365300603744785,-0.015004450660823987,0.022001564736885377
1382,8.0,298.99627999999996,722.0561299999999,0.0,0.0,0.0,-0.014015060555064976,0.0,0.0,-0.07062790921043192,-0.07938796598973223,-0.06947116060476974,-0.13771554283646587,-0.037312410068948164,0.012474422916379686
1383,8.0,298.96317999999997,550.34037,0.0,0.0,0.0,-0.014025201698737236,0.0,0.0,-0.06177194932241674,-0.048945372347032154,-0.05657240779826194,-0.13918209063370288,-0.04448661493123705,0.0029904673350111474
1384,8.0,299.14766000000003,295.64427,0.0,0.0,0.0,-0.014035342842409497,0.0,0.0,-0.006703377026396805,-0.05093481393787475,-0.03223028497963147,-0.11085336062787489,-0.04921365260250936,-0.01837969820143498
1385,8.0,298.94734,312.9494,0.0,0.0,0.0,-0.014045483986081759,0.0,0.0,-0.02241336072327648,-0.043146085048937056,-0.029569357481268373,-0.12323975541531688,-0.022320310926843178,-0.02604557456874808
1386,8.0,299.25654,557.3517,0.0,0.0,0.0,-0.01405562512975402,0.0,0.0,-0.08593046514342662,-0.019929602031398583,-0.06356093255322565,-0.14811345456765987,-0.025861144812046273,0.027503160168850575
1387,8.0,299.65377,699.49973,0.0,0.0,0.0,-0.014065766273426282,0.0,0.0,-0.059694492774887746,-0.07094145945387693,-0.08199449816972693,-0.14921576935144987,-0.040087979723375564,0.0050986660932241645
1388,8.0,298.87776,223.34462000000002,0.0,0.0,0.0,-0.014075907417098542,0.0,0.0,-0.005640405933389724,-0.03141654483757157,-0.03083423709785227,-0.15474986782012287,-0.04863369053677155,0.008793989714549212
1389,8.0,299.43573,99.209136,0.0,0.0,0.0,-0.014086048560770803,0.0,0.0,0.027839545016549175,-0.04391015465784486,-0.014086490653228386,-0.12887431763140486,-0.04033474867922976,0.005142774693927345
1390,8.0,299.58187999999996,629.1754,0.0,0.0,0.0,-0.014096189704443067,0.0,0.0,-0.027242623170637574,-0.08710187649128592,-0.07690911041508822,-0.12454178179381688,-0.012629922356226288,-0.007578461761310942
1391,8.0,300.36246,799.42722,0.0,0.0,0.0,-0.014106330848115328,0.0,0.0,-0.1129758257448459,-0.05329189610225065,-0.07673818829546952,-0.13764790839229088,-0.015466278910652885,0.019217023766072584
1392,8.0,300.19854,582.0122,0.0,0.0,0.0,-0.01411647199178759,0.0,0.0,-0.057014421942385346,-0.06804228443300064,-0.05186047059322996,-0.11665201869765787,-0.01261795587254529,-0.01058591724749869
1393,8.0,300.60278999999997,315.63743999999997,0.0,0.0,0.0,-0.01412661313545985,0.0,0.0,-0.018113385677651982,-0.05139702316974125,-0.026435491445729875,-0.15575447489676986,-0.02132026043589588,-0.017282179130368284
1394,8.0,300.01342,454.48907,0.0,0.0,0.0,-0.014136754279132111,0.0,0.0,-0.06150382206770465,-0.03722775707609356,-0.039421748530873664,-0.1292915132275789,-0.03092172313798647,0.005504287738805905
1395,8.0,300.10166,645.6913400000001,0.0,0.0,0.0,-0.014146895422804371,0.0,0.0,-0.07498458167865203,-0.03658614786102167,-0.08470331490756632,-0.16779954625552584,-0.03982097616302436,0.0016811356259401685
1396,8.0,299.04919,732.6279,0.0,0.0,0.0,-0.014157036566476633,0.0,0.0,-0.08172504761038421,-0.04689640332606466,-0.09407913593163782,-0.1280144938615469,-0.04450242163279706,-9.330064574730681e-05
1397,8.0,298.85379,267.20649,0.0,0.0,0.0,-0.014167177710148894,0.0,0.0,-0.04753972392055545,-0.008161146936692492,-0.025523228943446576,-0.13063557935272788,-0.04963481203307455,0.016938773472726786
1398,8.0,298.65517,25.577143,0.0,0.0,0.0,-0.014177318853821154,0.0,0.0,0.0030984240669156473,-0.016483134154508684,0.005609897276853754,-0.11559224015306588,-0.04065760765134346,0.017006866919197085
1399,8.0,299.95059,475.21236,0.0,0.0,0.0,-0.014187459997493415,0.0,0.0,-0.03813483680411536,-0.04590763334848066,-0.06041022123477465,-0.13421946522142986,-0.05582184987943765,-0.00022726374957418582
1400,8.0,300.33566,787.93473,0.0,0.0,0.0,-0.014197601141165677,0.0,0.0,-0.08282200736739573,-0.09435922359053031,-0.06233125121861554,-0.13783876418112687,-0.06206087454868144,0.0036784927265639663
1401,8.0,300.22243,473.94336,0.0,0.0,0.0,-0.014207742284837939,0.0,0.0,0.007122203651256773,-0.08306529074290593,-0.06812386018530153,-0.13389864997476786,-0.037156113201272864,-0.007893765434053993
1402,8.0,300.36168,73.99662099999999,0.0,0.0,0.0,-0.0142178834285102,0.0,0.0,0.006944333574377363,-0.016165938237203883,-0.013271520425547089,-0.13389380663928985,-0.025197124531262577,0.005335045891828035
1403,8.0,300.04308,379.08443,0.0,0.0,0.0,-0.01422802457218246,0.0,0.0,-0.04986469314951205,-0.03476082340212617,-0.03060668443014457,-0.13649034108054786,0.008120672560122983,0.005709315248840545
1404,8.0,299.47545,703.59957,0.0,0.0,0.0,-0.014238165715854722,0.0,0.0,-0.07518406833183983,-0.05327714419404475,-0.08541548888610241,-0.17220974771327885,-0.03246089259639067,-0.01836844504582438
1405,8.0,298.3405,601.25103,0.0,0.0,0.0,-0.014248306859526985,0.0,0.0,-0.06274724307367073,-0.05512120162078905,-0.06489685721382114,-0.13318096492893788,-0.03091970677028747,-0.008089060170253083
1406,8.0,298.16205,211.64942000000002,0.0,0.0,0.0,-0.014258448003199246,0.0,0.0,-0.027571963903640976,-0.024452344164508477,-0.012311831739083188,-0.13053903688319987,-0.04686465617393146,0.0009534648382546532
1407,8.0,299.18153,-28.164022999999997,0.0,0.0,0.0,-0.014268589146871506,0.0,0.0,0.0074538915781168225,0.015680373590532384,-0.014573105027003484,-0.11921093116270287,-0.048098061202659054,0.008018115539326394
1408,8.0,299.74418,228.69532999999998,0.0,0.0,0.0,-0.014278730290543768,0.0,0.0,-0.028453242231116373,-0.02861204283978877,-0.012452382700204488,-0.14114881921030387,-0.07695714961557934,-0.031136202852903968
1409,8.0,299.84255,671.88451,0.0,0.0,0.0,-0.014288871434216028,0.0,0.0,-0.090806644110168,-0.05836634379555965,-0.055063125164807346,-0.13625600672992086,-0.04690198633411566,0.01115769833192909
1410,8.0,299.80532,498.18755,0.0,0.0,0.0,-0.01429901257788829,0.0,0.0,-0.03260891019749887,-0.06148718044806224,-0.057340483798065146,-0.1255306429639099,-0.03506690903208447,-0.008276199864347331
1411,8.0,300.1207,58.707972999999996,0.0,0.0,0.0,-0.01430915372156055,0.0,0.0,0.003997313086429086,-0.03059249082274377,0.00874942018637554,-0.14304332331977684,-0.020166881900066283,0.005668031893391194
1412,8.0,299.58707999999996,253.47177000000002,0.0,0.0,0.0,-0.014319294865232812,0.0,0.0,-0.013151861668237686,-0.03988447046729076,-0.024012755741124478,-0.13541527259194688,-0.038818974152384465,-0.022434669372879478
1413,8.0,299.43602999999996,665.54451,0.0,0.0,0.0,-0.014329436008905072,0.0,0.0,-0.06172439749522374,-0.05369197081148495,-0.08689254408687641,-0.13043795505322386,-0.026424661828661076,0.01195060706518309
1414,8.0,299.72873,581.82619,0.0,0.0,0.0,-0.014339577152577334,0.0,0.0,-0.07985686469875893,-0.04541301733866586,-0.05159075152261075,-0.12560170219342287,-0.025084783466175375,0.017024003004888284
1415,8.0,300.0125,230.76512999999997,0.0,0.0,0.0,-0.014349718296249595,0.0,0.0,-0.03240552253142607,-0.02020579577015678,-0.017535521039621183,-0.15248388595898785,-0.012531161882229387,0.007471617983316283
1416,8.0,299.91847,244.82712999999998,0.0,0.0,0.0,-0.014359859439921857,0.0,0.0,-0.02059056331013038,-0.026812856180472872,-0.027017913682710476,-0.17265802982252082,-0.04683403676915955,-0.021555122689824978
1417,8.0,300.3563,639.3856900000001,0.0,0.0,0.0,-0.014370000583594118,0.0,0.0,-0.06993250046805044,-0.05345770536186474,-0.07096707846940534,-0.17528577236685883,-0.018497541214565184,-0.017769854376998084
1418,8.0,300.87829,813.43371,0.0,0.0,0.0,-0.014380141727266378,0.0,0.0,-0.08109216146542322,-0.08580200124274823,-0.08036937369208963,-0.14343937238636387,-0.022528337251873774,-0.004548516074578586
1419,8.0,301.03976,629.8686,0.0,0.0,0.0,-0.01439028287093864,0.0,0.0,-0.03482833726953927,-0.09096417005021461,-0.06567181926130394,-0.13563459057609187,-0.02062512628429148,-0.03126442154705818
1420,8.0,301.00341000000003,263.70488,0.0,0.0,0.0,-0.014400424014610903,0.0,0.0,-0.045530948504554754,-0.013768494268344589,-0.02086025400974678,-0.12721779557291887,-0.05088853880580775,-0.0014935852615803888
1421,8.0,300.03902,134.62411,0.0,0.0,0.0,-0.014410565158283163,0.0,0.0,0.0073163597983184935,-0.03836866554294246,-0.00987006354989943,-0.13148456134651587,-0.014285235607342985,-0.02237821715680808
1422,8.0,300.00203999999997,564.32822,0.0,0.0,0.0,-0.014420706301955424,0.0,0.0,-0.048082710463644054,-0.054221852991030245,-0.06923712414967213,-0.10372250159161389,-0.03347570512804487,0.028504987900473268
1423,8.0,300.22455,640.6813400000001,0.0,0.0,0.0,-0.014430847445627684,0.0,0.0,-0.08107463325194333,-0.036489252780458864,-0.07718724452778793,-0.14187017222149587,-0.02085575416605268,0.008702163721586692
1424,8.0,300.20123,294.78881,0.0,0.0,0.0,-0.014440988589299946,0.0,0.0,0.00038749248360003065,-0.05097524970961545,-0.039020679823291264,-0.13027811484994886,-0.04345410497333626,0.009461675528894672
1425,8.0,299.9815,274.44023,0.0,0.0,0.0,-0.014451129732972207,0.0,0.0,-0.025580444136843274,-0.02142026822076588,-0.03642226377659757,-0.16785980423897284,-0.03229489689875817,-0.008831203249646901
1426,8.0,300.03762,777.16909,0.0,0.0,0.0,-0.014461270876644469,0.0,0.0,-0.11089714316469589,-0.05676263537203595,-0.06858021485809024,-0.13826985143617185,-0.038058104387292464,0.03425219515667847
1427,8.0,299.68406,902.49826,0.0,0.0,0.0,-0.01447141202031673,0.0,0.0,-0.1010195120550996,-0.06680499561663973,-0.1065124249469579,-0.16062267553222387,-0.028235120895339475,-0.014072309204828787
1428,8.0,300.50855,605.62282,0.0,0.0,0.0,-0.01448155316398899,0.0,0.0,-0.07188910768940253,-0.05531781874969365,-0.05688728945233835,-0.14905106554769487,-0.06157542541252134,-0.02016416233679788
1429,8.0,299.3732,114.93911999999999,0.0,0.0,0.0,-0.014491694307661252,0.0,0.0,-0.012119081172560189,-0.037170102132153465,0.014350560854540088,-0.15030470923391986,-0.035933142622075066,-0.01868375327819288
1430,8.0,299.78283999999996,145.3643,0.0,0.0,0.0,-0.014501835451333513,0.0,0.0,0.03515991525876347,-0.028638740966673674,-0.05070829073226866,-0.12542071546056088,-0.026261438383302176,-0.010615874999955291
1431,8.0,299.86731000000003,451.75692999999995,0.0,0.0,0.0,-0.014511976595005775,0.0,0.0,-0.05949749770369585,-0.04818097241859175,-0.029644356227170172,-0.11751474036280188,-0.006451301477118884,-0.005465152980193605
1432,8.0,300.29379,536.8751,0.0,0.0,0.0,-0.014522117738678036,0.0,0.0,-0.06459445373472623,-0.04460787665020466,-0.05399429323057185,-0.12605431088059188,-0.036449894093574464,0.02018311112691798
1433,8.0,300.81442999999996,219.76237999999998,0.0,0.0,0.0,-0.014532258882350296,0.0,0.0,-0.006593472929125114,-0.03302643408670526,-0.027182369240190973,-0.13989393935895686,-0.019450064196321882,-0.005398979440012785
1434,8.0,301.21226,275.68491,0.0,0.0,0.0,-0.01454240002602256,0.0,0.0,-0.02311972979198968,-0.02956620627345737,-0.031115392722350175,-0.13994819890181187,-0.03964144344405586,0.03807293634225627
1435,8.0,299.90156,877.8154099999999,0.0,0.0,0.0,-0.014552541169694818,0.0,0.0,-0.1002456351984739,-0.08485406017794372,-0.08173426919954432,-0.15309074170887985,-0.034304294450320266,0.006950926691453053
1436,8.0,300.4361,1193.8214,0.0,0.0,0.0,-0.014562682313367081,0.0,0.0,-0.10963379254251289,-0.1045424235725339,-0.14871566963209384,-0.1406333788844339,-0.06437697682601294,0.014717945075798088
1437,8.0,300.1657,506.29439,0.0,0.0,0.0,-0.014572823457039343,0.0,0.0,-0.07620048990465284,-0.035342500900283264,-0.04235786259739556,-0.14062659010876388,-0.02684910317630018,-0.009482544630604292
1438,8.0,299.44627,-99.769209,0.0,0.0,0.0,-0.014582964600711602,0.0,0.0,0.021914650169807582,0.02233775301406458,-0.013925055594295986,-0.13062723017190386,-0.026615670618262175,0.01066002230681229
1439,8.0,299.7171,234.02139,0.0,0.0,0.0,-0.014593105744383864,0.0,0.0,-0.00984457716880912,-0.023838244689651577,-0.03745383647815586,-0.13820831675759887,-0.044891032430399956,-0.006699966831860244
1440,8.0,300.27277000000004,553.95588,0.0,0.0,0.0,-0.014603246888056125,0.0,0.0,-0.060791089788363444,-0.05954929910180824,-0.048048368378004754,-0.13085007426639686,-0.055440339938535546,-0.006187789272637254
1441,8.0,299.18181,415.62072,0.0,0.0,0.0,-0.014613388031728387,0.0,0.0,-0.023531658514143877,-0.06249377856115574,-0.04031288375532186,-0.13353494385137288,-0.023525533417289374,0.0001333506843206879
1442,8.0,300.34758,173.58729,0.0,0.0,0.0,-0.014623529175400649,0.0,0.0,0.0012339210770035288,-0.03104316724197207,-0.022956955216425077,-0.12707534274135987,-0.01143852566339459,0.0006999332992455383
1443,8.0,299.27465,196.81919,0.0,0.0,0.0,-0.014633670319072908,0.0,0.0,-0.028829934167792972,-0.040018137407232666,0.00901995320080007,-0.13316375994223986,-0.02149194958584028,0.01842734932713778
1444,8.0,299.5805,763.8711900000001,0.0,0.0,0.0,-0.01464381146274517,0.0,0.0,-0.07472016393255602,-0.08086814098756413,-0.07660946297626534,-0.1348895275125599,-0.03711252622172117,-0.002938656311022797
1445,8.0,299.70982000000004,1172.7805,0.0,0.0,0.0,-0.014653952606417431,0.0,0.0,-0.1405601411672059,-0.098851191291603,-0.11708464609285489,-0.14118260096863788,-0.030468343367491373,0.021959721560755777
1446,8.0,299.52277999999995,597.15949,0.0,0.0,0.0,-0.014664093750089693,0.0,0.0,-0.08934994206415271,-0.03372366566601667,-0.05844796615736515,-0.15705721055033983,-0.048340812621866756,0.015548692620786486
1447,8.0,300.4049,101.50998,0.0,0.0,0.0,-0.014674234893761956,0.0,0.0,-0.013124776479814589,-0.017945120299795482,0.00021339790831573382,-0.15886667257891984,-0.08441308360192272,-0.012496210833279987
1448,8.0,300.73204,420.29949000000005,0.0,0.0,0.0,-0.014684376037434214,0.0,0.0,-0.05331275081580885,-0.03848041993622176,-0.03596738135620417,-0.1815150718616428,-0.07798081795310752,-0.014862342334298987
1449,8.0,299.59157999999996,623.88558,0.0,0.0,0.0,-0.014694517181106474,0.0,0.0,-0.09023188407044361,-0.039269739737621566,-0.06014401408900204,-0.13138843430952887,-0.014346152203354987,-0.02162710093717868
1450,8.0,300.2785,302.3309,0.0,0.0,0.0,-0.014704658324778736,0.0,0.0,-0.013481348309255486,-0.038356822675773665,-0.04006287341239776,-0.15434124431979485,0.00912481394702402,-0.017901631605503485
1451,8.0,299.37667999999996,-82.97908699999999,0.0,0.0,0.0,-0.014714799468450999,0.0,0.0,0.01992237046543488,-0.010374575568140889,0.015675776474828682,-0.14789490665359084,-0.02034963371460248,-0.02207565662394768
1452,8.0,298.70427,85.429802,0.0,0.0,0.0,-0.01472494061212326,0.0,0.0,-0.017406766336164083,-0.03070570328291697,0.02214394258793698,-0.1379009068097599,-0.025181443472714976,-0.011326748978613091
1453,8.0,299.58657,484.50339,0.0,0.0,0.0,-0.01473508175579552,0.0,0.0,-0.03689031236879036,-0.05541314227935135,-0.05497347786220985,-0.11901721800858489,-0.01177364800146859,-0.0016978528340400281
1454,8.0,299.90376000000003,837.64319,0.0,0.0,0.0,-0.014745222899467782,0.0,0.0,-0.09517393645268622,-0.07628993658373052,-0.08315874279962893,-0.12795112520029286,-0.03101848041653567,0.043997090503174754
1455,8.0,300.03567999999996,797.46362,0.0,0.0,0.0,-0.014755364043140044,0.0,0.0,-0.08723789315820972,-0.06699544205243534,-0.08817569361601342,-0.16401570561208983,-0.05766358696345294,0.03203166668177937
1456,8.0,301.38358999999997,416.99163,0.0,0.0,0.0,-0.014765505186812305,0.0,0.0,-0.016741626414019883,-0.02635504344079027,-0.08365837439743871,-0.15182980262193485,-0.04241838402586856,0.014526374945641586
1457,8.0,300.62599,277.8468,0.0,0.0,0.0,-0.014775646330484567,0.0,0.0,-0.042399366334741666,-0.02049208451966128,-0.02156703952425108,-0.14611986473090785,-0.035552594255517864,0.0021738230155146283
1458,8.0,300.44905,688.6467,0.0,0.0,0.0,-0.014785787474156827,0.0,0.0,-0.07924734714085421,-0.04897028918024125,-0.08111376395755522,-0.14873933915442986,-0.021233303312313878,0.005570550444995525
1459,8.0,300.33686,643.2570599999999,0.0,0.0,0.0,-0.014795928617829088,0.0,0.0,-0.08302948147112182,-0.06236868270380974,-0.05013591993628005,-0.16095565991258687,-0.08353521891403422,-0.01995818986971998
1460,8.0,299.08417000000003,-145.83364,0.0,0.0,0.0,-0.01480606976150135,0.0,0.0,0.013233007802496186,0.0013672301370101084,0.029729546242577773,-0.11986738550498989,-0.036699783859736664,-0.03086413506855297
1461,8.0,298.36638,-121.66586000000001,0.0,0.0,0.0,-0.01481621090517361,0.0,0.0,0.02788338632187597,-0.01110354923333499,0.02020354736818488,-0.09999774356150891,-0.02907572229755037,-0.01990976462094078
1462,8.0,299.6708,507.12302,0.0,0.0,0.0,-0.014826352048845871,0.0,0.0,-0.007655568067420742,-0.06899077873235973,-0.07750638791178492,-0.12920023965857086,-0.037579479490555866,0.005975933267528694
1463,8.0,300.63333,742.18215,0.0,0.0,0.0,-0.01483649319251813,0.0,0.0,-0.07266684705540942,-0.09669640349644201,-0.05624159075986285,-0.16509801883890585,-0.07667527357026033,0.010712398217731388
1464,8.0,300.49696,673.99314,0.0,0.0,0.0,-0.014846634336190392,0.0,0.0,-0.03995112408536896,-0.09110583963944631,-0.07382012122647873,-0.15528353651529184,-0.027939372442901372,0.006391592371251055
1465,8.0,300.34772000000004,382.57531,0.0,0.0,0.0,-0.014856775479862654,0.0,0.0,-0.05679228104346174,-0.04118721625336176,-0.018313845050935782,-0.13373776612388985,-0.014446528811261385,0.014135573501322487
1466,8.0,300.1824,377.48691,0.0,0.0,0.0,-0.014866916623534917,0.0,0.0,-0.057673748848705846,-0.027112758958320975,-0.02996008698483037,-0.17709177921259783,-0.0061849426478063135,0.02102049039381088
1467,8.0,300.5792,824.84033,0.0,0.0,0.0,-0.014877057767207179,0.0,0.0,-0.07737341099516112,-0.054488443145340654,-0.1188690099164579,-0.18882140555022184,-0.06388106892232065,-0.012400194240553887
1468,8.0,299.98475,762.84575,0.0,0.0,0.0,-0.014887198910879439,0.0,0.0,-0.06305333275662944,-0.08078658752676543,-0.08804613945822742,-0.15673658782119684,-0.02081280553406398,-0.02931801674096297
1469,8.0,299.5054,-93.346094,0.0,0.0,0.0,-0.0148973400545517,0.0,0.0,0.015942071773359986,0.019011726123561282,-0.006578915362288395,-0.13871431359253686,-0.016395286384088787,-0.03102504526393357
1470,8.0,300.1223,-263.49987000000004,0.0,0.0,0.0,-0.014907481198223962,0.0,0.0,0.047622670600241654,-0.003072615472293537,0.035547327381498066,-0.13046659963355087,-0.04645034935379255,-0.002228709152231468
1471,8.0,299.73344,397.47418999999996,0.0,0.0,0.0,-0.014917622341896223,0.0,0.0,-0.07588758510152152,-0.027155487715037976,-0.017779156012916082,-0.16024467244991786,-0.08027247962477693,0.001981895309397838
1472,8.0,299.02745,605.80301,0.0,0.0,0.0,-0.014927763485568485,0.0,0.0,-0.08436872756554513,-0.05648810437669185,-0.043292155183353054,-0.13357981056580087,-0.028134000561859676,0.017422362281703286
1473,8.0,299.95354,341.47869,0.0,0.0,0.0,-0.014937904629240745,0.0,0.0,-0.0013313729384962787,-0.054870511387047856,-0.047599111522166546,-0.12301181467282088,-0.015945808639728786,0.007745045549301482
1474,8.0,299.63619,395.15454,0.0,0.0,0.0,-0.014948045772913006,0.0,0.0,-0.01333525892308759,-0.03996450607943966,-0.06681734916185893,-0.14420698026462087,-0.014329787200989886,0.02937879452171127
1475,8.0,299.90774,811.94706,0.0,0.0,0.0,-0.014958186916585266,0.0,0.0,-0.07011384285169753,-0.08764906396928912,-0.08904872611417501,-0.15238297638152887,-0.08082691589399553,0.027249114050778175
1476,8.0,300.33602,884.5844099999999,0.0,0.0,0.0,-0.014968328060257528,0.0,0.0,-0.10051030727034499,-0.09630504679106809,-0.07207621951911904,-0.14372876674742488,-0.02538676036697818,-0.006453219559558183
1477,8.0,300.30275,667.34267,0.0,0.0,0.0,-0.01497846920392979,0.0,0.0,-0.1128050120429879,-0.04334740973780626,-0.04670309141898626,-0.12188437128655089,-0.016824705829469183,0.01726674631809518
1478,8.0,299.57282000000004,98.347575,0.0,0.0,0.0,-0.014988610347602049,0.0,0.0,-0.034344795070067366,0.007056001436098124,-0.002606413325757967,-0.13683304252936987,-0.03307677640467367,-0.005383458981606035
1479,8.0,300.4346,-161.8794,0.0,0.0,0.0,-0.01499875149127431,0.0,0.0,0.05208364703375575,0.002512699951834177,-0.005389051716857995,-0.19164830240171482,-0.07340131861564614,-0.02935584643344647
1480,8.0,299.82376,224.94662000000002,0.0,0.0,0.0,-0.015008892634946574,0.0,0.0,-0.0051827680806743855,-0.04204370744364086,-0.02115167892400818,-0.16833313389068685,-0.0025088491961541377,-0.03906178839309836
1481,8.0,299.60614,613.60749,0.0,0.0,0.0,-0.015019033778618835,0.0,0.0,-0.04644249362576725,-0.08646118325430441,-0.05361767931415295,-0.12990591769071588,-0.0012114344228342688,-0.01938640675878938
1482,8.0,299.23503999999997,396.80617,0.0,0.0,0.0,-0.015029174922291097,0.0,0.0,-0.054309691642199245,-0.054121430786869346,-0.012188046014116488,-0.14305575589850386,-0.007435129529990154,-0.008998106819369002
1483,8.0,300.55284,405.93467000000004,0.0,0.0,0.0,-0.015039316065963357,0.0,0.0,-0.07360322085707233,-0.04585062080510396,-0.0039401632476638365,-0.14432954299671688,-0.07408752502061944,0.005456751009039395
1484,8.0,300.24888,819.91703,0.0,0.0,0.0,-0.015049457209635618,0.0,0.0,-0.07907170327576953,-0.1045168390075089,-0.06564576353498243,-0.13094952476371188,-0.027292842885343876,0.003191489264750467
1485,8.0,300.75614,975.6528199999999,0.0,0.0,0.0,-0.01505959835330788,0.0,0.0,-0.07310466938386914,-0.08700721765369382,-0.13646220312527088,-0.11221511809976988,-0.04030179778597776,0.03164678768429477
1486,8.0,299.95513,585.6556400000001,0.0,0.0,0.0,-0.015069739496980141,0.0,0.0,-0.03581420327233667,-0.06370945475288364,-0.07850103372669882,-0.12924204635769687,-0.06086289983620054,0.028362837017444076
1487,8.0,299.43227,194.96556999999999,0.0,0.0,0.0,-0.015079880640652403,0.0,0.0,-0.036752173956157166,-0.003312578731201067,-0.019199910985133684,-0.16955104024588485,-0.08554421015230623,0.02235740905275448
1488,8.0,299.76594,146.39228,0.0,0.0,0.0,-0.015090021784324663,0.0,0.0,-0.04030096185464526,0.01010202608469235,-0.014300663353365587,-0.16129931381650284,-0.014148928137640486,-0.0019320033810988884
1489,8.0,299.58959,130.62243999999998,0.0,0.0,0.0,-0.015100162927996923,0.0,0.0,-0.06606218703458024,0.01112122132832909,0.015235004575327884,-0.15585111869130786,-0.007183702156801203,-0.01113618601905599
1490,8.0,298.34682000000004,334.64779,0.0,0.0,0.0,-0.015110304071669184,0.0,0.0,-0.028959280609308476,-0.02940379241492837,-0.04336149796719666,-0.16190957408673085,0.012311076867758687,-0.039479847278357565
1491,8.0,299.69801,589.57263,0.0,0.0,0.0,-0.015120445215341446,0.0,0.0,-0.031199577593658573,-0.06880420493844634,-0.07921157637257392,-0.15523367447787084,-0.03349703606915007,-0.012316705472064187
1492,8.0,300.04798,378.75838999999996,0.0,0.0,0.0,-0.015130586359013707,0.0,0.0,-0.01066559315586209,-0.06138304366903474,-0.04308445613810476,-0.15220038871350886,0.007822668916937312,-0.016263484837580985
1493,8.0,301.36708,554.00635,0.0,0.0,0.0,-0.015140727502685967,0.0,0.0,-0.01917714021563638,-0.07821634287260203,-0.07101061478645203,-0.11983951099473888,-0.03433718454856626,0.022591829529639982
1494,8.0,300.91700000000003,803.45775,0.0,0.0,0.0,-0.015150868646358229,0.0,0.0,-0.0984546497854674,-0.07556827047825763,-0.07020817238300713,-0.12257600567230988,-0.05654154217371574,0.04204770572853546
1495,8.0,300.55427000000003,671.5269400000001,0.0,0.0,0.0,-0.015161009790030492,0.0,0.0,-0.08269964019256902,-0.06103182787962245,-0.060395955686616744,-0.13015052639735686,-0.07773664291750933,0.014945837182289286
1496,8.0,300.11442999999997,409.64589,0.0,0.0,0.0,-0.015171150933702754,0.0,0.0,-0.028087851072805075,-0.047440630087275656,-0.04899364054204586,-0.14320241371797787,-0.032331113497082474,-0.008407398831020662
1497,8.0,299.71356000000003,340.47707,0.0,0.0,0.0,-0.015181292077375015,0.0,0.0,-0.01169128799359029,-0.04552471600318966,-0.046280522557531956,-0.15791792598028587,-0.04900025909169905,-0.011140359596217888
1498,8.0,298.49715,236.36344,0.0,0.0,0.0,-0.015191433221047275,0.0,0.0,-0.007722426362019143,-0.03221565871443797,-0.03191049919507107,-0.16499392765613283,-0.05150363025251255,-0.00903494920095506
1499,8.0,299.26542,315.26391,0.0,0.0,0.0,-0.015201574364719537,0.0,0.0,-0.008729258231910711,-0.04076025292622376,-0.04634284554468275,-0.16017527495056885,-0.07274220246534643,-0.02934535524191107
1500,8.0,299.7209,440.74669000000006,0.0,0.0,0.0,-0.015211715508391798,0.0,0.0,-0.07514145711213442,-0.044008059948757366,-0.014826470241008687,-0.14346886809677487,-0.008887390298167132,-0.032765799816482664
1501,8.0,300.07912999999996,216.41234,0.0,0.0,0.0,-0.01522185665206406,0.0,0.0,-0.03187926778723877,-0.01685514892872368,-0.017049528801407483,-0.16535650907191685,-0.023689002069172477,-0.025813979033141376
1502,8.0,299.97021,206.54745,0.0,0.0,0.0,-0.01523199779573632,0.0,0.0,0.0063493239340544835,-0.05326327685317615,-0.015871315505626885,-0.15647539221041884,-0.01223830828532699,-0.019139397662661484
1503,8.0,300.89501,639.35929,0.0,0.0,0.0,-0.01524213893940858,0.0,0.0,-0.05890755715097325,-0.05869821664056294,-0.07674348556699233,-0.15803341622668385,-0.05194752296232135,0.01320873944935109
1504,8.0,299.80521,806.5707,0.0,0.0,0.0,-0.01525228008308084,0.0,0.0,-0.08430365056462252,-0.05971212231337764,-0.1011615778251204,-0.13414725088680288,-0.0077502901318190825,0.02008157637414728
1505,8.0,300.66112999999996,380.53798,0.0,0.0,0.0,-0.015262421226753102,0.0,0.0,-0.01237153851447579,-0.04493476835771636,-0.058367736001197046,-0.14761259491072884,-0.03549847048817627,0.030150080497831272
1506,8.0,301.10042000000004,136.76944,0.0,0.0,0.0,-0.015272562370425364,0.0,0.0,-0.03138866627432017,-0.0008385353143294922,-0.009347294588706152,-0.13925160972306386,-0.061709333505987035,0.03534004782179117
1507,8.0,300.94864,496.47335999999996,0.0,0.0,0.0,-0.015282703514097625,0.0,0.0,-0.05350613669014454,-0.04276512327633906,-0.05464424554696715,-0.15471236743392186,-0.056609669057439346,0.007475871911211112
1508,8.0,299.44689,729.80036,0.0,0.0,0.0,-0.015292844657769885,0.0,0.0,-0.08713120400218032,-0.08972555184972252,-0.04498433047310776,-0.1306182122460139,-0.006803821015434854,-0.05348734090078955
1509,8.0,300.42574,462.4285,0.0,0.0,0.0,-0.015302985801442147,0.0,0.0,-0.05903484466828554,-0.030121760157536266,-0.05141011132128295,-0.13321916445770787,-0.017089597776611985,-0.025522469005871577
1510,8.0,299.65711,159.21219,0.0,0.0,0.0,-0.01531312694511441,0.0,0.0,-0.000935687507105167,-0.036529154569396864,-0.010931688844123688,-0.17171416708936882,-0.06848879740756803,-0.02908969602967947
1511,8.0,299.9331,118.57898,0.0,0.0,0.0,-0.015323268088786672,0.0,0.0,0.002334580919405198,-0.015681722226415486,-0.02269790870910918,-0.14842395492830388,-0.07517917433385683,-0.014571956001390086
1512,8.0,299.57542,336.51559,0.0,0.0,0.0,-0.015333409232458933,0.0,0.0,-0.06795012730990543,-0.014168931721114686,-0.020173278547947582,-0.14015055507928287,-0.017521938422030682,0.008987371333234491
1513,8.0,299.58461,751.4148299999999,0.0,0.0,0.0,-0.015343550376131193,0.0,0.0,-0.05674085049488595,-0.0933774673301385,-0.07829302867992033,-0.14011370317314586,0.004067166548323086,0.00025295080484680075
1514,8.0,299.39395,441.91700999999995,0.0,0.0,0.0,-0.015353691519803455,0.0,0.0,-0.02897839962544537,-0.04595579920523426,-0.059397536528330436,-0.16290257944973285,-0.03524136131505157,0.004703937595492496
1515,8.0,300.33405,265.23113,0.0,0.0,0.0,-0.015363832663475716,0.0,0.0,0.006062469183044124,-0.06927283614944664,-0.017413273428306283,-0.16833160388303584,-0.02675943054245018,-0.0011277097697212888
1516,8.0,300.01275,644.20329,0.0,0.0,0.0,-0.015373973807147976,0.0,0.0,-0.05122059200932885,-0.0880741771017445,-0.05652694630602524,-0.15215341443887287,0.007552044000728712,-0.01974282660071528
1517,8.0,299.89482000000004,762.0879,0.0,0.0,0.0,-0.015384114950820238,0.0,0.0,-0.09840867558868009,-0.059993615350158846,-0.07325340031304774,-0.14482367467298385,-0.016544809674845583,0.02167406406606358
1518,8.0,300.16103,359.81129,0.0,0.0,0.0,-0.015394256094492497,0.0,0.0,-0.04813756073130736,-0.037788872689971366,-0.023447213237559775,-0.1909100990413598,-0.07455820401007184,-0.0037376808192303764
1519,8.0,300.02505,245.24337000000003,0.0,0.0,0.0,-0.015404397238164759,0.0,0.0,0.0067493420026081925,-0.03352333598874567,-0.04777386676691355,-0.17394482705201783,-0.07019571953927814,-0.005186956552612755
1520,8.0,300.26462999999995,335.03361,0.0,0.0,0.0,-0.01541453838183702,0.0,0.0,-0.04786855498875855,-0.02183784074597708,-0.03213545490277247,-0.11446341874665991,-0.02754898643112327,-0.03171862711638477
1521,8.0,300.15725,499.9828,0.0,0.0,0.0,-0.015424679525509282,0.0,0.0,-0.051491933293358154,-0.052035216718726046,-0.048455136617399655,-0.12645962105309286,-0.011325912034030489,-0.015241605899729383
1522,8.0,299.35299,420.66103,0.0,0.0,0.0,-0.015434820669181544,0.0,0.0,-0.03020689647068857,-0.049190956813519454,-0.04847259592987275,-0.13241410685575486,-0.06483586867705203,-0.02048294804350958
1523,8.0,299.1591,366.20231,0.0,0.0,0.0,-0.015444961812853803,0.0,0.0,-0.05720676315586795,-0.036563211931758065,-0.017546383080693184,-0.14782242887393787,-0.04846792180716146,0.029301117755795174
1524,8.0,299.68221,358.65869,0.0,0.0,0.0,-0.015455102956526065,0.0,0.0,-0.035853732185237866,-0.047155266435112454,-0.026014288445410375,-0.1280954525445369,-0.01164027895705609,0.00849160650045631
1525,8.0,299.54984,337.70805,0.0,0.0,0.0,-0.015465244100198328,0.0,0.0,-0.011983397864919289,-0.03277764977640217,-0.05789376800192004,-0.15755229468170084,-0.003450164415904717,0.04380678693564326
1526,8.0,300.03221,567.37397,0.0,0.0,0.0,-0.01547538524387059,0.0,0.0,-0.04522903949150866,-0.06067620850527554,-0.06656227054193464,-0.18302398364556083,-0.06471744507161453,0.022802360608917778
1527,8.0,300.40225,657.15941,0.0,0.0,0.0,-0.015485526387542851,0.0,0.0,-0.04351062001091386,-0.056256674000851443,-0.09999275735776682,-0.1927114955991438,-0.043126179750722554,-0.0055251850088683056
1528,8.0,299.2336,382.95754,0.0,0.0,0.0,-0.015495667531215111,0.0,0.0,-0.040784296337846665,-0.04315772627933596,-0.032467506079793367,-0.15150314092219586,-0.020412025602760082,-0.02350977839148448
1529,8.0,300.51889,469.95425,0.0,0.0,0.0,-0.015505808674887373,0.0,0.0,-0.09444816263130791,-0.02206800455919248,-0.026338191065127074,-0.15390051092379783,-0.011589285119273388,-0.026150809710883974
1530,8.0,299.0854,449.43133,0.0,0.0,0.0,-0.015515949818559633,0.0,0.0,-0.04566641295017405,-0.03770921299360956,-0.05324027708915624,-0.13494152750769187,-0.05532393371404715,0.0064406353986162235
1531,8.0,298.89396,177.98179,0.0,0.0,0.0,-0.015526090962231894,0.0,0.0,0.0058617461620843045,-0.032684251421934464,-0.027279515606778576,-0.13635784849747187,-0.044824002896534654,-0.03327197295693807
1532,8.0,299.79222000000004,317.24466,0.0,0.0,0.0,-0.015536232105904156,0.0,0.0,-0.00968011624110309,-0.04546100992965236,-0.041293327856834164,-0.1075492128467809,-0.047574151119203156,0.0022786434343845976
1533,8.0,299.56734,380.65029,0.0,0.0,0.0,-0.015546373249576416,0.0,0.0,-0.013747664886038886,-0.03989363024819476,-0.06206688717477484,-0.15698082162530083,-0.03265762827555697,-0.014021145141029286
1534,8.0,298.72443,348.06095,0.0,0.0,0.0,-0.015556514393248677,0.0,0.0,-0.04110622818611886,-0.052035362626740446,-0.012660246905219089,-0.17025808616566482,-0.08046908864768072,0.02846136647041817
1535,8.0,301.35589,576.23763,0.0,0.0,0.0,-0.015566655536920939,0.0,0.0,-0.08289322567717441,-0.03362380378916107,-0.05864482140004324,-0.16958612909684784,-0.024072330794004077,0.03230830827708177
1536,8.0,300.0047,765.0663400000001,0.0,0.0,0.0,-0.0155767966805932,0.0,0.0,-0.05804975886806515,-0.08233182736651871,-0.0921794774189061,-0.14854617315536586,-0.007986513788582544,0.014928360644564485
1537,8.0,300.30446,746.23422,0.0,0.0,0.0,-0.015586937824265462,0.0,0.0,-0.06873489660510614,-0.061083828888004545,-0.09701784391841572,-0.14119841780269887,-0.02501520155530818,0.045885374270283864
1538,8.0,300.87517,542.43057,0.0,0.0,0.0,-0.015597078967937722,0.0,0.0,-0.04577308690745196,-0.04527743434278486,-0.07383482652518003,-0.17397376547487384,-0.06966916791281152,0.003804121958762606
1539,8.0,300.4658,445.462,0.0,0.0,0.0,-0.015607220111609985,0.0,0.0,-0.020232117981254582,-0.05641079339406185,-0.058766414451793536,-0.15258423824889186,-0.02061680851422058,0.013550110500791789
1540,8.0,299.91534,414.28986000000003,0.0,0.0,0.0,-0.015617361255282246,0.0,0.0,-0.05460480681332485,-0.040258815716735764,-0.03107015009213507,-0.12587198665759788,-0.007335386203396253,-0.04912829742733545
1541,8.0,300.28712,407.90566,0.0,0.0,0.0,-0.015627502398954506,0.0,0.0,-0.07593007169146464,-0.044391966226145954,-0.0036710971154090763,-0.15518242428781287,-0.010382267149649991,-0.015407931916894485
1542,8.0,299.63244,375.06765,0.0,0.0,0.0,-0.015637643542626766,0.0,0.0,-0.04361094696956536,-0.04163222252503046,-0.02876802965293347,-0.16327886000686884,-0.06295807407497815,-0.020672500792716982
1543,8.0,300.05877000000004,299.79727,0.0,0.0,0.0,-0.01564778468629903,0.0,0.0,-0.01862072101597208,-0.020328738471040282,-0.05218142364190555,-0.15527407275935784,-0.03527232725135767,0.03906657903957116
1544,8.0,299.63801,332.37507999999997,0.0,0.0,0.0,-0.01565792582997129,0.0,0.0,-0.005673854028465795,-0.046586335623213355,-0.04877353424932305,-0.12140125363887087,-0.04168132057187606,0.009015405025076202
1545,8.0,299.67352999999997,605.07236,0.0,0.0,0.0,-0.01566806697364355,0.0,0.0,-0.02278716489716808,-0.06619446784838534,-0.0949452550243671,-0.12946518429471887,-0.05054631662428305,0.015021675912523985
1546,8.0,298.83885,656.37233,0.0,0.0,0.0,-0.01567820811731581,0.0,0.0,-0.09906674505162649,-0.06406932572465014,-0.03638472893989317,-0.15784086831018085,-0.08878629636477522,0.017065644544247985
1547,8.0,299.03785,571.48541,0.0,0.0,0.0,-0.015688349260988076,0.0,0.0,-0.05731366914741875,-0.06615683979267174,-0.050246785709221656,-0.15365970190503186,-0.028580357495911674,-0.025081127659814576
1548,8.0,299.82929,596.72794,0.0,0.0,0.0,-0.015698490404660335,0.0,0.0,-0.06171220809652073,-0.06332585245052504,-0.05635233190304215,-0.15541848116360987,-0.02050042762098468,-0.020619260579462582
1549,8.0,300.6577,447.60315999999995,0.0,0.0,0.0,-0.0157086315483326,0.0,0.0,-0.030527345934064472,-0.06588624831371644,-0.03964658872806367,-0.16134147515316383,-0.0028789140718766975,-0.03011144527151827
1550,8.0,299.36745,253.12175,0.0,0.0,0.0,-0.01571877269200486,0.0,0.0,-0.018780188343210283,-0.016958526783426284,-0.04120397743651596,-0.16953671288947084,-0.048710803935632055,0.002030917362485938
1551,8.0,300.1898,388.0944,0.0,0.0,0.0,-0.01572891383567712,0.0,0.0,-0.02149702900859158,-0.04167601519435246,-0.054797961666637744,-0.16246795595183885,-0.014212885497202588,-0.008145840476706861
1552,8.0,299.89755,468.05672999999996,0.0,0.0,0.0,-0.01573905497934938,0.0,0.0,-0.08605550121901673,-0.03263225446655277,-0.02358980184463218,-0.13940862295855988,-0.005593547169265125,-0.019269648936516285
1553,8.0,299.99001,473.88298,0.0,0.0,0.0,-0.01574919612302164,0.0,0.0,-0.043570101844784256,-0.04561412519201366,-0.05486436399869114,-0.14639327000539085,-0.026924579162999077,-0.004389082995193767
1554,8.0,300.71013,369.93872000000005,0.0,0.0,0.0,-0.0157593372666939,0.0,0.0,-0.024581728096277677,-0.04913235346748575,-0.03873805194639807,-0.14436788438050085,-0.047455833905026154,-0.01050041211130999
1555,8.0,299.94953,536.84466,0.0,0.0,0.0,-0.015769478410366165,0.0,0.0,-0.03993932377470436,-0.042865376267733256,-0.08038267057315192,-0.14963302574262985,-0.05600275251254135,0.053541162719601354
1556,8.0,299.16367,714.9399,0.0,0.0,0.0,-0.015779619554038424,0.0,0.0,-0.05458669192803704,-0.06463930119740234,-0.0980978854385075,-0.15378367305476684,-0.027970034404177474,0.018416150887032582
1557,8.0,298.40461,497.47132999999997,0.0,0.0,0.0,-0.015789760697710684,0.0,0.0,-0.02881068140264287,-0.07011260162032502,-0.052295578424671744,-0.17353565639663585,-0.06819704825327463,0.024247398119781875
1558,8.0,299.61974,395.47733,0.0,0.0,0.0,-0.015799901841382944,0.0,0.0,-0.08410818550108162,-0.014053497203472185,-0.02205355054651598,-0.15189268492314087,-0.06897158777546572,0.004569042393779376
1559,8.0,300.29815,481.13449,0.0,0.0,0.0,-0.015810042985055207,0.0,0.0,-0.04538912591455796,-0.04500161246681336,-0.055862133663663355,-0.16980152580310584,-0.039080605460705464,-0.022170928477850276
1560,8.0,300.05099,386.31937999999997,0.0,0.0,0.0,-0.015820184128727467,0.0,0.0,-0.04513551448077846,-0.047790137537019356,-0.024505794120533577,-0.14797687858668088,-0.016553854958488285,-0.026088661002750372
1561,8.0,299.14446,284.95946000000004,0.0,0.0,0.0,-0.015830325272399727,0.0,0.0,-0.031656505766003866,-0.012037102146719488,-0.04292695350281046,-0.16549705699328784,-0.031294706579297074,-0.029362985793651073
1562,8.0,300.84595,306.07196,0.0,0.0,0.0,-0.015840466416071994,0.0,0.0,-0.006422075797859534,-0.049643579686189855,-0.03697257915765946,-0.15075569672092887,-0.04928181191023615,0.016879224764349783
1563,8.0,301.19309,143.09188999999998,0.0,0.0,0.0,-0.015850607559744254,0.0,0.0,0.01171247809293159,-0.029556999883048773,-0.025651839765389477,-0.12329227216799987,-0.03529791485613296,-0.024811421761446677
1564,8.0,302.413,541.29165,0.0,0.0,0.0,-0.015860748703416517,0.0,0.0,-0.052016450313623945,-0.06299047983967634,-0.04953221539419905,-0.1382384812130759,-0.009348956116220131,0.014831350053490287
1565,8.0,301.66413,793.13714,0.0,0.0,0.0,-0.015870889847088777,0.0,0.0,-0.06172825595160454,-0.1033595554057939,-0.07600607355496543,-0.16018462724899185,-0.03448333371649007,-0.04621514462132966
1566,8.0,301.46425,583.3740700000001,0.0,0.0,0.0,-0.015881030990761037,0.0,0.0,-0.061206192009830844,-0.05301891335305935,-0.06310604405333164,-0.18892936734837681,-0.05167418253584475,0.02465931772268518
1567,8.0,301.28819,421.2904,0.0,0.0,0.0,-0.0158911721344333,0.0,0.0,-0.02001760786883408,-0.05241637506184345,-0.055627779048034356,-0.17101270417763983,-0.023345472795018776,-0.036675091968049765
1568,8.0,301.12882,610.9096599999999,0.0,0.0,0.0,-0.01590131327810556,0.0,0.0,-0.06449088032275434,-0.05093767839590745,-0.07027272350712783,-0.14571064341302087,-0.005766785071987374,0.012315489571944189
1569,8.0,300.79176,601.73083,0.0,0.0,0.0,-0.01591145442177782,0.0,0.0,-0.10459771663049089,-0.023830616942898775,-0.05448281352778504,-0.15248295376889584,-0.061102059283803745,0.0006306436502371824
1570,8.0,300.86626,460.91554,0.0,0.0,0.0,-0.01592159556545008,0.0,0.0,-0.06276992670365944,-0.03336836951845167,-0.04396851685035476,-0.15282752973040284,-0.07284363589310713,0.001893526829751548
1571,8.0,299.96466000000004,328.3776,0.0,0.0,0.0,-0.015931736709122343,0.0,0.0,-0.03458443479821797,-0.03656599127678237,-0.028668163723077473,-0.13313247077915186,-0.06603751439464522,-0.02072858418575198
1572,8.0,299.96131,545.5292599999999,0.0,0.0,0.0,-0.015941877852794602,0.0,0.0,-0.056701295237482144,-0.043139865719823256,-0.06598611424357244,-0.1302639394810499,-0.0038932399395078666,0.011927371213889888
1573,8.0,299.35303,599.31205,0.0,0.0,0.0,-0.015952018996466862,0.0,0.0,-0.05327340530117575,-0.06428391385732835,-0.06461857921960723,-0.16489237973111084,-0.038727676265374066,-0.0016494293077859985
1574,8.0,300.27022,613.2207599999999,0.0,0.0,0.0,-0.01596216014013913,0.0,0.0,-0.05271154900147485,-0.04833773335481286,-0.08535451858783512,-0.18108664945436082,-0.042957321621557555,0.04103813068664817
1575,8.0,300.53451,470.16355999999996,0.0,0.0,0.0,-0.015972301283811385,0.0,0.0,-0.05517572764842035,-0.05838903350504895,-0.029353222115687475,-0.16102268640670184,-0.023162359250196878,0.007938303044849514
1576,8.0,300.63538,360.81239,0.0,0.0,0.0,-0.015982442427483645,0.0,0.0,-0.029407244558019074,-0.04441986505439936,-0.03585084746220317,-0.15769806084108684,-0.01071996618272829,0.004136287126419756
1577,8.0,299.97141,467.67655999999994,0.0,0.0,0.0,-0.015992583571155912,0.0,0.0,-0.033228206632118666,-0.044686435956957864,-0.06424735478047024,-0.15385252339906183,-0.05462515591508315,-0.010639090586246491
1578,8.0,300.81615,673.2234900000001,0.0,0.0,0.0,-0.016002724714828172,0.0,0.0,-0.07053480469849323,-0.07794928358349533,-0.05615904228746594,-0.16445458476040387,-0.053775149525444044,0.011542597594415688
1579,8.0,301.23307,407.70943,0.0,0.0,0.0,-0.016012865858500435,0.0,0.0,0.015208277064190085,-0.08025961236175702,-0.05888214990471574,-0.13275448796184788,-0.030968621418864972,-0.03042359722982527
1580,8.0,302.01477,302.23028,0.0,0.0,0.0,-0.016023007002172695,0.0,0.0,-0.029792294794770573,-0.04628684523815596,-0.015791319410231885,-0.14244753226097687,-0.009887224764193112,0.0013440745351248286
1581,8.0,300.75207,637.64032,0.0,0.0,0.0,-0.016033148145844955,0.0,0.0,-0.08027496006102172,-0.05964981148522804,-0.053901964868209744,-0.14461240189463284,-0.04757985977026655,-0.014175434760256489
1582,8.0,300.02272999999997,681.18441,0.0,0.0,0.0,-0.016043289289517215,0.0,0.0,-0.08921040941938192,-0.04411540062460105,-0.07373724040804903,-0.17107978133425986,-0.05797891647407354,0.008527160737190242
1583,8.0,300.00181000000003,502.47689,0.0,0.0,0.0,-0.016053430433189478,0.0,0.0,-0.01993221419015638,-0.07661611901617221,-0.05619209349247785,-0.14369046589364484,-0.04260656483444056,-0.007018913240037804
1584,8.0,300.02671000000004,456.46452,0.0,0.0,0.0,-0.016063571576861738,0.0,0.0,-0.03285739661227257,-0.06027415187884564,-0.04562226868306736,-0.1293862521119289,0.00010372017111638391,0.008463421327724652
1585,8.0,300.16502,546.2805099999999,0.0,0.0,0.0,-0.016073712720533997,0.0,0.0,-0.022552442471752778,-0.05856796435345804,-0.08493522759045433,-0.14269376216777788,-0.047667986184463954,0.017671336069775084
1586,8.0,299.95619,568.79544,0.0,0.0,0.0,-0.016083853864206257,0.0,0.0,-0.1084763062907779,-0.037558754473010464,-0.026864550174074676,-0.14675879997896588,-0.032502911064787574,0.022340830254618277
1587,8.0,299.27931,634.13197,0.0,0.0,0.0,-0.01609399500787852,0.0,0.0,-0.09808406774689381,-0.04007746522708786,-0.05459875365722745,-0.15034935303332586,-0.03948971937408186,0.03137676666514577
1588,8.0,299.29105,564.74292,0.0,0.0,0.0,-0.01610413615155078,0.0,0.0,-0.06581350810228753,-0.056569994236523743,-0.049284243710476155,-0.15216877531038886,-0.011161805034584388,-0.0030022132341453772
1589,8.0,299.72869,464.84909000000005,0.0,0.0,0.0,-0.016114277295223047,0.0,0.0,-0.04374568592811305,-0.01965752411454658,-0.07789930603556293,-0.18186495725367383,-0.058296636241680036,0.028687689052504472
1590,8.0,300.06442999999996,498.54037,0.0,0.0,0.0,-0.016124418438895304,0.0,0.0,-0.057159788881231945,-0.01898113508979218,-0.07540290096918692,-0.18351030316355682,-0.046211670186736754,0.009741935338979161
1591,8.0,299.63239,527.9141599999999,0.0,0.0,0.0,-0.016134559582567563,0.0,0.0,-0.009360149692724851,-0.04465597360595146,-0.1064565948664479,-0.14717033150708086,-0.026676990487813978,0.003241563274092387
1592,8.0,299.29363,429.82527999999996,0.0,0.0,0.0,-0.01614470072623983,0.0,0.0,-0.06370743331893414,-0.051395610699101854,-0.015553109377972383,-0.14866551375214387,-0.009393756158791552,-0.01090111199585599
1593,8.0,298.61427000000003,319.01308,0.0,0.0,0.0,-0.01615484186991209,0.0,0.0,-0.03594865649435616,-0.03817442651202257,-0.02284892755701358,-0.16239585307472285,-0.03873365038796366,-0.012431058851849988
1594,8.0,299.87973,431.09788,0.0,0.0,0.0,-0.016164983013584353,0.0,0.0,-0.07236276462089883,-0.054787947715899454,-0.003892279175763046,-0.16972351567790683,-0.05032189489938436,-0.024747035797092275
1595,8.0,300.20547,484.57537,0.0,0.0,0.0,-0.016175124157256613,0.0,0.0,-0.025525814757701774,-0.08182490543423943,-0.03994809142781967,-0.14172691892235786,-0.047742387112806754,-0.03466118646679277
1596,8.0,300.17042999999995,360.19732,0.0,0.0,0.0,-0.016185265300928873,0.0,0.0,0.01086128214767509,-0.07041335451500703,-0.04993891777233745,-0.13620413845730187,-0.05213641507246354,-0.014041801257567885
1597,8.0,300.27022999999997,505.80068,0.0,0.0,0.0,-0.016195406444601133,0.0,0.0,0.008927010808877372,-0.08281520035322393,-0.07986258753532371,-0.15048372012908684,-0.0912715080572965,-0.0094867335078427
1598,8.0,300.46142000000003,588.20431,0.0,0.0,0.0,-0.016205547588273393,0.0,0.0,-0.1170022688597249,-0.022782171600675277,-0.03901498333122906,-0.17015114775011084,-0.06489465440810374,0.04493684045417086
1599,8.0,300.29668,625.70057,0.0,0.0,0.0,-0.016215688731945656,0.0,0.0,-0.06500158674415714,-0.06316892432803745,-0.062026837451322245,-0.15600101891110185,-0.015748538977759786,-0.023598565444747078
1600,8.0,300.1003,541.6313700000001,0.0,0.0,0.0,-0.016225829875617916,0.0,0.0,-0.06489550047193723,-0.05940287534310735,-0.04034403511639626,-0.15768921516771386,0.02061639612142988,0.00011708022832241888
1601,8.0,300.41095,564.28933,0.0,0.0,0.0,-0.016235971019290175,0.0,0.0,-0.048556718992925046,-0.050008130860168254,-0.07296501514908633,-0.16748541845952383,-0.029213530390650968,-0.014478568792673485
1602,8.0,299.32479,581.82987,0.0,0.0,0.0,-0.01624611216296244,0.0,0.0,-0.05344729523033735,-0.043731309935694254,-0.07968314904861451,-0.17359737346022683,-0.029800089727789872,0.0024338595695032376
1603,8.0,300.5053,329.96001,0.0,0.0,0.0,-0.0162562533066347,0.0,0.0,-0.02678638603486047,-0.02259888782983658,-0.05091432906060305,-0.12781117509648088,-0.04082041465091126,0.004996171387308725
1604,8.0,299.68342,200.92023,0.0,0.0,0.0,-0.016266394450306965,0.0,0.0,-0.039540638231357166,-0.02184480684041458,0.0003107128087924667,-0.13357983083080288,-0.026331229023689978,0.0035293696695966664
1605,8.0,298.52977999999996,474.30227,0.0,0.0,0.0,-0.01627653559397922,0.0,0.0,-0.056269830040149856,-0.048551223124382654,-0.03935499561428566,-0.15493780544867083,-0.06473974873281574,0.004523901392549305
1606,8.0,299.19004,807.5395,0.0,0.0,0.0,-0.01628667673765148,0.0,0.0,-0.1036973324591299,-0.06305515762005953,-0.07871935771249573,-0.18120982013651682,-0.07537581882051413,0.01108711735646329
1607,8.0,298.53253,651.4956900000001,0.0,0.0,0.0,-0.016296817881323748,0.0,0.0,-0.07552574234506042,-0.05247573935870225,-0.07003693919560773,-0.15005589553936385,-0.02207612170574358,0.003182749678662937
1608,8.0,298.03592000000003,427.43678,0.0,0.0,0.0,-0.016306959024996008,0.0,0.0,0.004929115204965796,-0.05517691213778724,-0.07968231210403193,-0.14335752204328586,-0.006676158696910563,0.0028816033389671074
1609,8.0,299.33685,391.95107,0.0,0.0,0.0,-0.016317100168668268,0.0,0.0,-0.023552126166163877,-0.036983169647704664,-0.058608043461163536,-0.14248176998185585,-0.06531822334740674,0.02657565129231258
1610,8.0,300.10482,691.3090900000001,0.0,0.0,0.0,-0.016327241312340528,0.0,0.0,-0.08645647670758991,-0.06677473287590303,-0.05690949077527945,-0.16908233101462683,-0.057460406000400546,0.009273658765513861
1611,8.0,300.17531,595.6723599999999,0.0,0.0,0.0,-0.01633738245601279,0.0,0.0,-0.06179267535321224,-0.05424490747055555,-0.06503194169065293,-0.14491876819486887,-0.033340298437681264,-0.031535250126536865
1612,8.0,300.31682,302.05571000000003,0.0,0.0,0.0,-0.01634752359968505,0.0,0.0,-0.029551722876527974,-0.05760756436542395,-0.004658106469619316,-0.14742927770263686,0.0018399261021115683,-0.04642428146846986
1613,8.0,299.78059,113.54871000000001,0.0,0.0,0.0,-0.01635766474335731,0.0,0.0,0.049514644624214954,-0.054980259545129154,-0.029050357607797075,-0.18871690906740882,-0.018957699628229283,-0.042185483424133065
1614,8.0,300.30125,271.06523,0.0,0.0,0.0,-0.016367805887029574,0.0,0.0,-0.004379657033488495,-0.05298392481385625,-0.025033479573862077,-0.1875270292099768,-0.04580784442563225,-0.02339153413131468
1615,8.0,300.05745,482.7366,0.0,0.0,0.0,-0.016377947030701834,0.0,0.0,-0.039429930525431166,-0.05417767427342016,-0.053132268681496654,-0.18109954812813384,-0.019909087769873983,-0.012785139099294988
1616,8.0,299.77185,277.77595,0.0,0.0,0.0,-0.016388088174374094,0.0,0.0,-0.03999372415932326,-0.02959286184383807,-0.014850367744617187,-0.15071274504918986,-0.008543505271903321,0.007967104982917042
1617,8.0,299.35717999999997,175.74778,0.0,0.0,0.0,-0.016398229318046357,0.0,0.0,0.017600536232287682,-0.03172489812125367,-0.039298576835467565,-0.14680185297571485,-0.051065931540565046,0.015579707193097385
1618,8.0,298.91483999999997,534.98564,0.0,0.0,0.0,-0.016408370461718617,0.0,0.0,-0.09925504238396,-0.037299155744390064,-0.026068077840218976,-0.15324514075911785,-0.05518394915973174,0.01060693002807249
1619,8.0,298.45592,941.2910699999999,0.0,0.0,0.0,-0.016418511605390883,0.0,0.0,-0.08919580747219082,-0.07389597515546494,-0.12303719658782589,-0.14247884168906685,-0.026201059823093273,0.012466284491576489
1620,8.0,299.15185,784.0126799999999,0.0,0.0,0.0,-0.016428652749063143,0.0,0.0,-0.099529440643541,-0.06368707611117504,-0.07510376015541403,-0.14004211705358086,-0.024897522688694176,-0.0005871869341183385
1621,8.0,300.05707,587.62756,0.0,0.0,0.0,-0.0164387938927354,0.0,0.0,-0.052459777629876955,-0.05348530325483845,-0.07267902429511122,-0.14759109374360685,-0.06654967989619202,0.03972371833892576
1622,8.0,299.89213,432.25824000000006,0.0,0.0,0.0,-0.016448935036407666,0.0,0.0,-0.053889146241194646,-0.04882858919350655,-0.02867797603704587,-0.16952962013877082,-0.07021649724582874,0.005076060990118215
1623,8.0,299.38806,535.81007,0.0,0.0,0.0,-0.016459076180079926,0.0,0.0,-0.04646909042764216,-0.06855517440836893,-0.04784861726654086,-0.14988573031756985,-0.03955006348378736,-0.0005193488672032425
1624,8.0,299.63993999999997,563.35316,0.0,0.0,0.0,-0.016469217323752186,0.0,0.0,-0.06736087374075064,-0.049729107113880754,-0.054155313870213356,-0.16884315332852184,-0.018396006461794484,-0.04090108253112256
1625,8.0,300.39887000000004,324.46777000000003,0.0,0.0,0.0,-0.016479358467424446,0.0,0.0,0.01942338025493838,-0.06373051616946224,-0.05432296420525916,-0.17089139787566784,-0.029121977164615374,0.002272076864461528
1626,8.0,301.06784,141.7181,0.0,0.0,0.0,-0.016489499611096706,0.0,0.0,-0.0015714855504685484,-0.024837554494775777,-0.016669723147173583,-0.16371581397999285,-0.06571956056626564,-0.03299397563300187
1627,8.0,300.79187,363.89241,0.0,0.0,0.0,-0.01649964075476897,0.0,0.0,-0.042842562941731756,-0.03294722123363757,-0.03482442105790277,-0.15769822296110286,-0.02921184332923447,0.01984189915574298
1628,8.0,299.72319,570.1884299999999,0.0,0.0,0.0,-0.01650978189844123,0.0,0.0,-0.056383554191623546,-0.07764838275429872,-0.03929110715573036,-0.16959691007791183,-0.03288579193307497,-0.017182401353270985
1629,8.0,299.61949,604.52937,0.0,0.0,0.0,-0.016519923042113492,0.0,0.0,-0.039423429512789564,-0.051707549874887855,-0.09263085298070341,-0.17951627391937683,-0.05208165802380945,0.030944869823270868
1630,8.0,300.01333999999997,600.99724,0.0,0.0,0.0,-0.016530064185785752,0.0,0.0,-0.052210789656303755,-0.08082843374264533,-0.049648930659967956,-0.18325958455881283,-0.07147446750998072,-0.01039873651677539
1631,8.0,299.35344,682.69815,0.0,0.0,0.0,-0.016540205329458012,0.0,0.0,-0.041545701098991465,-0.06599262437546494,-0.09998486717923809,-0.13679722413833487,-0.02211687462476558,-0.005632989145307745
1632,8.0,299.22742,512.76761,0.0,0.0,0.0,-0.016550346473130275,0.0,0.0,-0.08581098471813482,-0.032068627005677065,-0.037988937908966264,-0.13332895010604287,-0.03499671309165667,-0.007003754815891783
1633,8.0,299.753,384.1134,0.0,0.0,0.0,-0.016560487616802535,0.0,0.0,-0.05565482167995324,-0.026642042478614875,-0.03446401812983377,-0.17314815916089285,-0.03951964064953486,0.005455903627980764
1634,8.0,299.57292,293.61435,0.0,0.0,0.0,-0.0165706287604748,0.0,0.0,-0.035103375903183465,-0.036234581487074764,-0.017913474472672285,-0.15697036488426885,-0.08396428574837983,-0.0037202003298301865
1635,8.0,300.38351,392.70529,0.0,0.0,0.0,-0.01658076990414706,0.0,0.0,-0.034763752708165264,-0.060491140401010744,-0.024117708186482477,-0.15363798795538885,-0.03667133382342887,-0.02025573481458538
1636,8.0,300.51358999999997,465.92001,0.0,0.0,0.0,-0.016590911047819318,0.0,0.0,-0.03874064485340396,-0.041815816350399757,-0.06107158781354644,-0.14322220249243087,-0.029839893231468174,-0.002181957184667408
1637,8.0,299.89176000000003,685.07958,0.0,0.0,0.0,-0.01660105219149158,0.0,0.0,-0.02880914734199147,-0.06325010693929954,-0.1161878285618459,-0.19549186400604482,-0.04432839187512166,0.004263254558025465
1638,8.0,300.5107,816.18494,0.0,0.0,0.0,-0.01661119333516384,0.0,0.0,-0.0936763568578866,-0.07634781545594273,-0.07807567032146873,-0.16560064155101084,-0.03537803355479007,0.03620743753014587
1639,8.0,300.40724,682.77174,0.0,0.0,0.0,-0.016621334478836104,0.0,0.0,-0.08958373533922633,-0.05376941959612854,-0.06419240420104703,-0.16908321254221384,0.004807918739304636,0.004025078976269366
1640,8.0,299.75248999999997,438.60942,0.0,0.0,0.0,-0.016631475622508364,0.0,0.0,-0.07216463774934523,-0.03791203931912696,-0.02324963352106018,-0.1286679489835379,-0.014116207252161185,0.00098715496838211
1641,8.0,300.10573,442.09283,0.0,0.0,0.0,-0.016641616766180624,0.0,0.0,-0.06042699761668035,-0.034079459319380764,-0.039878725339223764,-0.17432297198933783,-0.06541325202128535,0.007366194579311804
1642,8.0,299.50962999999996,498.39095999999995,0.0,0.0,0.0,-0.016651757909852887,0.0,0.0,-0.027451547235256772,-0.06485844692903035,-0.059188413866691644,-0.15068142548859884,-0.09569500335636151,-0.015449105334707985
1643,8.0,298.41557,278.17431,0.0,0.0,0.0,-0.016661899053525147,0.0,0.0,0.005436359249451885,-0.05529793675623145,-0.03469646783527477,-0.14914347395681485,-0.03910184318280146,-0.03561652425732727
1644,8.0,299.32962000000003,169.97734,0.0,0.0,0.0,-0.01667204019719741,0.0,0.0,-0.008090365135056872,-0.03958907158613716,-0.0039894305072761364,-0.12732741910123788,-0.034159105843491265,-0.031211808535615674
1645,8.0,299.12216,191.95851000000002,0.0,0.0,0.0,-0.01668218134086967,0.0,0.0,-0.030223235128551074,-0.022867737531869978,-0.005259621378234215,-0.18449900221363383,-0.042472574667716756,0.0012685697721230888
1646,8.0,299.7708,582.82736,0.0,0.0,0.0,-0.01669232248454193,0.0,0.0,-0.042985287324317556,-0.08521938952799891,-0.04896028840175425,-0.1923330061567898,-0.07408281948715502,-0.02202325943477648
1647,8.0,299.71945,658.14594,0.0,0.0,0.0,-0.016702463628214193,0.0,0.0,-0.07297277157860184,-0.05927287636852745,-0.06781428593524894,-0.18766628017121983,-0.0014300368497586486,0.013191959014444988
1648,8.0,300.13354,403.00302999999997,0.0,0.0,0.0,-0.016712604771886453,0.0,0.0,0.00975824653776395,-0.060107898815687746,-0.07215320626171702,-0.16471426049603186,-0.016596216918669086,-0.027892345479260176
1649,8.0,300.03414,198.46828,0.0,0.0,0.0,-0.016722745915558716,0.0,0.0,-0.01765272874493868,-0.002985129229509317,-0.039691542582000264,-0.16530400245173485,-0.03845943350015057,0.013321856664014886
1650,8.0,300.04609,397.28833,0.0,0.0,0.0,-0.01673288705923098,0.0,0.0,-0.07452205529950423,-0.010398473071749391,-0.03584520467239626,-0.15052784717094186,-0.06418990451305034,0.015396256235992185
1651,8.0,299.65243,536.35295,0.0,0.0,0.0,-0.016743028202903236,0.0,0.0,-0.08504070084636373,-0.04900341637901066,-0.028993785828213874,-0.16286337680336382,-0.01087758736828429,-0.01834342283460488
1652,8.0,299.80967000000004,452.13884,0.0,0.0,0.0,-0.0167531693465755,0.0,0.0,-0.09424275961078622,-0.016927698649133783,-0.026268459193245074,-0.15216613072762786,-0.01873040128629668,-0.009268005437905923
1653,8.0,299.59378,448.82227,0.0,0.0,0.0,-0.01676331049024776,0.0,0.0,-0.04046950587627926,-0.05561664444268545,-0.04034461165570316,-0.18216690578347383,-0.04924995532709216,-0.02172442968878428
1654,8.0,299.23024,430.19782999999995,0.0,0.0,0.0,-0.016773451633920022,0.0,0.0,-0.01184786553154329,-0.040787745441187066,-0.07813378832070453,-0.18725239790287282,-0.08043230766905073,-0.006942166536388494
1655,8.0,299.95656,643.90067,0.0,0.0,0.0,-0.016783592777592282,0.0,0.0,-0.026897975268373477,-0.06495499851780924,-0.10387674865433691,-0.15653689649148883,-0.043430672551523664,-0.007007359655772554
1656,8.0,299.89985,534.5151900000001,0.0,0.0,0.0,-0.016793733921264542,0.0,0.0,-0.06969759464436703,-0.052939664022988046,-0.03984201123510036,-0.16350622319680785,-0.03308465645070136,0.0075290302538574315
1657,8.0,299.26422,147.17009,0.0,0.0,0.0,-0.016803875064936805,0.0,0.0,-0.01870478328401838,-0.007273180854582062,-0.01875806706702708,-0.15925170761691984,-0.04513205119193666,0.025050464685288376
1658,8.0,300.26956,94.710675,0.0,0.0,0.0,-0.016814016208609065,0.0,0.0,-0.04507658486821255,0.0015035712466159286,0.014783333144501386,-0.18513691407909083,-0.056811748617633044,0.01129521156925059
1659,8.0,299.42953,495.03904000000006,0.0,0.0,0.0,-0.01682415735228133,0.0,0.0,-0.026041788053124373,-0.07054998926449184,-0.05388773174405505,-0.15033027353394285,-0.008731451715727192,-0.005044404017243915
1660,8.0,298.27535,511.87023,0.0,0.0,0.0,-0.016834298495953588,0.0,0.0,-0.027698525933881675,-0.05657940834320285,-0.07131783525652234,-0.16533944594023284,-0.037009865748089364,-0.029425062561027573
1661,8.0,298.91051,444.097,0.0,0.0,0.0,-0.016844439639625848,0.0,0.0,-0.029543537842220174,-0.05530088835377275,-0.050149971688666854,-0.15998077146137285,-0.05777773465346845,0.0071373723092288035
1662,8.0,299.71447,515.70639,0.0,0.0,0.0,-0.01685458078329811,0.0,0.0,-0.04829335705343325,-0.07115378803883214,-0.03731471926592606,-0.18457717445884883,-0.07174318244975084,-0.041712135533917255
1663,8.0,298.90608,526.16458,0.0,0.0,0.0,-0.01686472192697037,0.0,0.0,-0.07447159443127413,-0.049018283797727956,-0.036451014748185066,-0.14710937438106486,-0.022205506650762877,-0.0038342219715332467
1664,8.0,299.95333,481.50692999999995,0.0,0.0,0.0,-0.016874863070642634,0.0,0.0,-0.03466230610815327,-0.0894640684759161,-0.022239707894638278,-0.17746940739236683,-0.012399374521222988,-0.04443944611258186
1665,8.0,300.45317,389.62958,0.0,0.0,0.0,-0.016885004214314894,0.0,0.0,-0.006142053696248504,-0.04286435288513226,-0.06943125577608143,-0.20014344190261982,-0.043213292914819956,0.006461058163656794
1666,8.0,300.44155,352.73937,0.0,0.0,0.0,-0.016895145357987154,0.0,0.0,0.004259392960569356,-0.026269084368556773,-0.08521426957524361,-0.17294238833058484,-0.05548737703467774,0.005687302491743055
1667,8.0,300.3798,385.48203,0.0,0.0,0.0,-0.016905286501659417,0.0,0.0,-0.02239560959477458,-0.04812980227529166,-0.046651498750394454,-0.12885339401683987,-0.03175470287294517,0.022182413667733776
1668,8.0,299.72872,422.92499000000004,0.0,0.0,0.0,-0.016915427645331677,0.0,0.0,-0.04829933624227335,-0.03542555498448007,-0.04483374529624616,-0.1309374265575179,-0.04292040790716446,0.03494719251951936
1669,8.0,299.44672,659.75996,0.0,0.0,0.0,-0.01692556878900394,0.0,0.0,-0.08098370418796932,-0.09259740458165232,-0.026969445877427074,-0.18658244706925384,-0.07208643814637752,0.01102635984071699
1670,8.0,299.48753,713.86477,0.0,0.0,0.0,-0.0169357099326762,0.0,0.0,-0.10796569916788491,-0.05967092153781144,-0.04936044721074685,-0.17655186889681282,-0.06154336009985674,0.02008258151824648
1671,8.0,299.35022999999995,690.8102200000001,0.0,0.0,0.0,-0.01694585107634846,0.0,0.0,-0.054049011775722154,-0.07691489505990913,-0.07902515152642522,-0.18114266191988884,-0.014949128218614088,-0.049975691658216755
1672,8.0,299.26268999999996,600.92487,0.0,0.0,0.0,-0.016955992220020723,0.0,0.0,-0.062343355504310145,-0.05939125640421065,-0.06093154347747515,-0.14496144628908086,-0.02085740373721548,0.003126159457927917
1673,8.0,299.56518,402.94534,0.0,0.0,0.0,-0.016966133363692983,0.0,0.0,-0.04478984015616305,-0.012723611513472687,-0.06497187014522433,-0.17289531273093883,-0.05483087202988574,-0.037493663286586466
1674,8.0,299.25497,403.81099,0.0,0.0,0.0,-0.016976274507365247,0.0,0.0,-0.04176619242675226,-0.03146746065509657,-0.04951480573098086,-0.15352240651648186,-0.03979107211282306,0.03525687417408257
1675,8.0,300.8371,435.49960999999996,0.0,0.0,0.0,-0.016986415651037506,0.0,0.0,-0.06839433818024564,-0.03451103597422407,-0.029475632860268476,-0.14179867729443987,-0.03071442837952807,-0.029943589246702172
1676,8.0,299.98291,274.14259,0.0,0.0,0.0,-0.016996556794709766,0.0,0.0,-0.018086148501713882,-0.03058066720732687,-0.034665686310486866,-0.13620394593978286,-0.01861431018258938,0.03130464858927827
1677,8.0,300.46905,174.11303,0.0,0.0,0.0,-0.01700669793838203,0.0,0.0,0.013293995326015186,-0.054660336971805244,-0.011559672885100888,-0.17242108128663586,-0.05228345387397515,-0.020395745713403378
1678,8.0,300.79705,557.70206,0.0,0.0,0.0,-0.01701683908205429,0.0,0.0,-0.02185007270118428,-0.07445903823603493,-0.07321838846909233,-0.15635381233091986,-0.035373779930870264,0.011774952054347289
1679,8.0,299.79967999999997,678.49597,0.0,0.0,0.0,-0.017026980225726553,0.0,0.0,-0.09078565260784631,-0.054441293578437355,-0.06101888664934524,-0.16846342772104583,-0.02030657970460338,-0.000997333957296698
1680,8.0,298.61816,653.4980400000001,0.0,0.0,0.0,-0.017037121369398812,0.0,0.0,-0.05436124682053735,-0.1069850655886039,-0.03730077086504947,-0.17037908849260683,-0.034855350517205265,-0.02697861072458158
1681,8.0,299.79997000000003,388.93969,0.0,0.0,0.0,-0.017047262513071072,0.0,0.0,-0.06469571389671984,-0.028079352944216374,-0.025452886081754274,-0.18822687092154583,-0.06792214336864363,-0.0023637273625067277
1682,8.0,299.67127,351.72332,0.0,0.0,0.0,-0.017057403656743336,0.0,0.0,-0.017445601172746784,-0.022324569617013477,-0.06714493595893922,-0.17858037533201082,-0.052722128345768955,-0.029678416629281678
1683,8.0,298.79731,469.42632000000003,0.0,0.0,0.0,-0.017067544800415595,0.0,0.0,-0.046075573473055055,-0.04770480465334766,-0.048913502591636855,-0.15900899368796584,-0.039101598989527364,-0.024021181928956078
1684,8.0,299.1738,309.40574,0.0,0.0,0.0,-0.01707768594408786,0.0,0.0,-0.05044824110735375,0.004700206707299285,-0.04830358479994265,-0.16545874600700686,-0.05014252227393166,-0.022586418774105978
1685,8.0,299.57786,188.46573999999998,0.0,0.0,0.0,-0.01708782708776012,0.0,0.0,-0.017264341875607884,-0.026794001622612078,-0.013230535472252187,-0.13682806747137885,-0.06799066643315635,0.00999037879194862
1686,8.0,299.83035,371.52903,0.0,0.0,0.0,-0.01709796823143238,0.0,0.0,-0.04885447368056116,-0.01782997861143188,-0.04625109574812776,-0.15627925738856185,-0.034804385050425365,0.039901174908439356
1687,8.0,300.29976,714.3675,0.0,0.0,0.0,-0.01710810937510464,0.0,0.0,-0.07821389283386022,-0.06223911841352273,-0.07669687200939193,-0.14896398683410086,-0.02277295305126548,0.023778734484778376
1688,8.0,300.92445,730.15608,0.0,0.0,0.0,-0.0171182505187769,0.0,0.0,-0.06276909786507764,-0.08248140537278092,-0.07669871207157353,-0.17403380054329884,-0.017600274813761883,0.03366434189916187
1689,8.0,301.29501,618.6270099999999,0.0,0.0,0.0,-0.017128391662449165,0.0,0.0,-0.05109951267537925,-0.06467998116241713,-0.07226766907251363,-0.18588996155341084,-0.05122443121395775,-0.005850883817037275
1690,8.0,301.11624,572.03991,0.0,0.0,0.0,-0.017138532806121425,0.0,0.0,-0.07028178601602222,-0.06887198934363613,-0.03473207547028897,-0.1680260481828798,-0.038666028102789865,-0.0016918923903267785
1691,8.0,301.48989,671.45222,0.0,0.0,0.0,-0.017148673949793684,0.0,0.0,-0.07430752796183203,-0.06638026143972173,-0.06341691830326254,-0.14155361262525387,-0.02621706512167287,-0.02883259192280527
1692,8.0,300.93496,565.89322,0.0,0.0,0.0,-0.017158815093465948,0.0,0.0,-0.09980634365736922,-0.03353686794383117,-0.03867419692509606,-0.17326164317209283,-0.05170883366276455,-0.012742812602867687
1693,8.0,300.0691,199.50268,0.0,0.0,0.0,-0.017168956237138207,0.0,0.0,-0.028248778493437373,-0.014336551658657486,-0.018058503999235583,-0.17107021625331584,-0.07590421456216273,0.0008658517770879173
1694,8.0,299.64097999999996,58.708966000000004,0.0,0.0,0.0,-0.01717909738081047,0.0,0.0,0.009111617580371642,-0.009589443732054411,-0.01736823344811118,-0.18416008018768482,-0.04695033862888766,-0.025627538988241178
1695,8.0,299.86962,318.24471,0.0,0.0,0.0,-0.01718923852448273,0.0,0.0,-0.016375723564408085,-0.04070298403057176,-0.03965973868786146,-0.14075110841355287,-0.022338160340604776,0.00953455161716198
1696,8.0,298.61177000000004,590.64187,0.0,0.0,0.0,-0.01719937966815499,0.0,0.0,-0.051778026485593355,-0.06163422026282395,-0.06612813137758844,-0.17731752120237682,-0.031213068005489973,-0.034739139849986174
1697,8.0,299.67085,714.13698,0.0,0.0,0.0,-0.017209520811827254,0.0,0.0,-0.05067471365045485,-0.09040922107644542,-0.07599587519270892,-0.16443383339835585,-0.05529068593851585,0.014173346451800385
1698,8.0,299.53576,530.35879,0.0,0.0,0.0,-0.017219661955499514,0.0,0.0,-0.05922373880492794,-0.07466135489675202,-0.02733073438608347,-0.16423290590352585,-0.038560741284898864,-0.019275013082545683
1699,8.0,299.4293,630.32431,0.0,0.0,0.0,-0.017229803099171777,0.0,0.0,-0.05370946153471116,-0.08668273748142011,-0.051210652025847854,-0.15361415631303685,-0.02423233413054518,0.015562861910184885
1700,8.0,300.11855,746.21709,0.0,0.0,0.0,-0.017239944242844037,0.0,0.0,-0.06705881172693944,-0.07084699820005434,-0.08892555239226872,-0.1793041804084448,-0.047337563300353755,-0.004578360950974046
1701,8.0,300.86908999999997,585.4036,0.0,0.0,0.0,-0.017250085386516296,0.0,0.0,-0.06280376723049924,-0.04357239179001026,-0.07157191785159835,-0.18600285787955284,-0.06475542269861263,0.02227904530327058
1702,8.0,300.37886000000003,326.40019,0.0,0.0,0.0,-0.01726022653018856,0.0,0.0,-0.015214192418273886,-0.045799343257293255,-0.03820397187168847,-0.1880039052370408,-0.014456056401951684,-0.0033864585450174363
1703,8.0,300.30172000000005,256.28129,0.0,0.0,0.0,-0.01727036767386082,0.0,0.0,-0.024722144295135678,-0.03421005915126996,-0.01897090835653288,-0.16807819003302585,-0.029162038033819074,-0.02097709998477858
1704,8.0,299.0756,485.79095,0.0,0.0,0.0,-0.017280508817533083,0.0,0.0,-0.08026827868986232,-0.02307755730957758,-0.04432248158728836,-0.17577872867300984,-0.03430166405306067,0.022270395187166878
1705,8.0,299.84055,648.2810099999999,0.0,0.0,0.0,-0.017290649961205343,0.0,0.0,-0.07234846766198784,-0.05832171316840495,-0.06639106065928753,-0.1870307697084998,-0.07379042995879843,-0.03025560340299557
1706,8.0,300.16527,542.44352,0.0,0.0,0.0,-0.017300791104877603,0.0,0.0,-0.025670737893004576,-0.07381520595024363,-0.06540334142205724,-0.13834545002613285,-0.03003753880922427,0.02159406189116798
1707,8.0,300.30841000000004,482.43314000000004,0.0,0.0,0.0,-0.017310932248549866,0.0,0.0,-0.03273770543095997,-0.05632029496138036,-0.05758962679890364,-0.16003157582138686,-0.012597937090319589,-0.022630655246971776
1708,8.0,300.5491,622.40597,0.0,0.0,0.0,-0.017321073392222126,0.0,0.0,-0.04375622575565326,-0.08661389524312592,-0.05882575240414974,-0.14979050507317185,-0.028684248055164868,0.012769600909011488
1709,8.0,299.86392,668.91158,0.0,0.0,0.0,-0.01733121453589439,0.0,0.0,-0.06816858200496523,-0.06566555230943544,-0.06949828328344652,-0.16894161084073886,-0.06789029286500024,-0.01083056547089359
1710,8.0,299.4528,499.85978,0.0,0.0,0.0,-0.01734135567956665,0.0,0.0,-0.03195318539528387,-0.06927364472302643,-0.05071806352948316,-0.17727935207110984,-0.03719634936274386,0.025130941061230774
1711,8.0,300.44547,267.86138,0.0,0.0,0.0,-0.01735149682323891,0.0,0.0,-0.017238911324598084,-0.05679302780878545,-0.007391230773382683,-0.17945102061293683,-0.04553929160587816,-0.013293847391500588
1712,8.0,298.89527000000004,202.13289,0.0,0.0,0.0,-0.017361637966911172,0.0,0.0,-0.007745782688749233,-0.0017346052390172083,-0.05196296388059525,-0.18840587168421183,-0.05622018078524985,0.010893577468112389
1713,8.0,298.84828999999996,357.96137999999996,0.0,0.0,0.0,-0.01737177911058343,0.0,0.0,-0.07546647532021122,-0.024750069467891676,-0.008594776841538431,-0.18101235795702883,-0.04208218358968816,-0.014024990425158788
1714,8.0,298.90315,451.4744,0.0,0.0,0.0,-0.017381920254255695,0.0,0.0,-0.025980620171087578,-0.04604617199490336,-0.06521015313149103,-0.17482771239415182,-0.006245874239919794,-0.037693447835303664
1715,8.0,299.90443,268.93493,0.0,0.0,0.0,-0.017392061397927955,0.0,0.0,-0.051900595297189954,-0.04731264849364486,0.017463739362786883,-0.16832284940217185,-0.0018084099710011683,-0.03478424265168747
1716,8.0,300.82822999999996,385.69184,0.0,0.0,0.0,-0.017402202541600215,0.0,0.0,-0.02018534939638888,-0.07053265255528084,-0.026522687696335475,-0.18291027671933882,-0.06664593966894214,-0.031061190934750873
1717,8.0,300.70172,513.9287,0.0,0.0,0.0,-0.017412343685272478,0.0,0.0,-0.07409135814574773,-0.02980661911143427,-0.05232351271667865,-0.16677504907941584,-0.1006115157565835,0.005134476074283335
1718,8.0,298.88842,539.12023,0.0,0.0,0.0,-0.017422484828944738,0.0,0.0,-0.02209117353597908,-0.07629566246004563,-0.06549225006533184,-0.13526661866977588,-0.08678228626399483,0.019313110273055583
1719,8.0,298.7035,571.03332,0.0,0.0,0.0,-0.017432625972617,0.0,0.0,-0.047888656857492454,-0.06544049325022384,-0.06025071945703304,-0.14042625029899186,-0.05474550672221085,0.02218042364453738
1720,8.0,298.20529,619.59476,0.0,0.0,0.0,-0.01744276711628926,0.0,0.0,-0.04615972896011055,-0.05182943879566735,-0.09035216901631482,-0.16482758238721584,-0.04268479078191086,0.028050315222850574
1721,8.0,298.93793999999997,514.6952,0.0,0.0,0.0,-0.01745290825996152,0.0,0.0,-0.07460188522188282,-0.05009162469490845,-0.031760979957314674,-0.17176558953194385,-0.023583873318297078,0.0016872726791458484
1722,8.0,299.40574,307.66231,0.0,0.0,0.0,-0.017463049403633784,0.0,0.0,-0.029153495322225973,-0.017381265870897382,-0.04698689770574575,-0.18074318806796383,-0.004546801452759366,0.015156108869541485
1723,8.0,299.17805,209.49136000000001,0.0,0.0,0.0,-0.017473190547306044,0.0,0.0,-0.01031808890156609,-0.033989082476711265,-0.019372970049213283,-0.19368821803303882,-0.007741023959654583,-0.029627024584209675
1724,8.0,300.11652000000004,356.65842000000004,0.0,0.0,0.0,-0.017483331690978307,0.0,0.0,-0.04424861160199796,-0.05266699031507725,-0.011499650988927189,-0.1935995181192848,-0.059642573839763735,-0.014829325579790486
1725,8.0,301.04537999999997,510.63852,0.0,0.0,0.0,-0.017493472834650567,0.0,0.0,-0.06372389356680865,-0.027232633537901674,-0.06426483131819503,-0.17953008451823982,-0.08050108708583872,-0.01092742407445279
1726,8.0,299.61474,412.3376,0.0,0.0,0.0,-0.017503613978322827,0.0,0.0,-0.04780600807333566,-0.03761265127232967,-0.03992167295796236,-0.18138286298859482,-0.06667677894898574,-0.028304054326142674
1727,8.0,299.94236,555.67883,0.0,0.0,0.0,-0.01751375512199509,0.0,0.0,-0.07094001759898463,-0.061852361863602844,-0.03612010955702727,-0.16299112737597185,-0.015528144922008586,-0.00900837935153282
1728,8.0,299.54812999999996,508.09215,0.0,0.0,0.0,-0.01752389626566735,0.0,0.0,-0.029542147663082968,-0.05537806052113905,-0.06952711835479233,-0.1937075812424498,-0.020013377549666582,-0.008751742048979692
1729,8.0,299.11631,464.79482,0.0,0.0,0.0,-0.017534037409339613,0.0,0.0,-0.06181099998127074,-0.06642666930755184,-0.01304834905127179,-0.15575958167727386,-0.030494947262116972,0.02465594258660208
1730,8.0,299.43509,575.1676,0.0,0.0,0.0,-0.017544178553011873,0.0,0.0,-0.06572531987983404,-0.03172068705383807,-0.07739058051810563,-0.15651439220676786,-0.04122744228233176,0.00037777203088569663
1731,8.0,299.86393,524.1932099999999,0.0,0.0,0.0,-0.017554319696684133,0.0,0.0,-0.030054239197372472,-0.06763125851668553,-0.06165615003473824,-0.13743212665099488,-0.03540178109738377,0.03801608186589517
1732,8.0,299.35014,396.15815,0.0,0.0,0.0,-0.017564460840356396,0.0,0.0,-0.014414384465088987,-0.06569093929069095,-0.04031686278846456,-0.17154557240522983,-0.07041517127243634,-0.03048107080199747
1733,8.0,300.26759,496.78627,0.0,0.0,0.0,-0.017574601984028656,0.0,0.0,-0.07727052456675702,-0.013501858517779687,-0.06023823925555134,-0.18614557415613783,-0.054847135707240854,0.03290122069234767
1734,8.0,300.9946,602.88378,0.0,0.0,0.0,-0.01758474312770092,0.0,0.0,-0.04930822835359325,-0.09098511494303173,-0.04296827282863836,-0.1975855426876748,-0.05310713501276615,-0.04429081752166336
1735,8.0,300.78994,532.56829,0.0,0.0,0.0,-0.01759488427137318,0.0,0.0,-0.07875226402274332,-0.035819334370843066,-0.04731586454946225,-0.18512192811011183,-0.024608599488929676,-0.003270729070270827
1736,8.0,300.21747,426.96795999999995,0.0,0.0,0.0,-0.01760502541504544,0.0,0.0,-0.034725465026636565,-0.04209376807808146,-0.05296836433207054,-0.18253669140746884,-0.04244819789681096,-0.005288687673252835
1737,8.0,299.67156,423.56374000000005,0.0,0.0,0.0,-0.017615166558717702,0.0,0.0,-0.023390567490719275,-0.06352545157447394,-0.04183678049496876,-0.17878011732422383,-0.04347571557146905,-0.002007017325752188
1738,8.0,299.00546,384.51711,0.0,0.0,0.0,-0.017625307702389962,0.0,0.0,-0.04080769430915586,-0.0009082270919050351,-0.07516767799822223,-0.16864283378375183,-0.03854608158245206,0.026493237582178975
1739,8.0,299.79801000000003,630.07178,0.0,0.0,0.0,-0.017635448846062225,0.0,0.0,-0.053522735753282744,-0.08175024410062091,-0.056253107360499446,-0.16311592939078884,-0.03290316917228997,-0.014689745312264985
1740,8.0,299.7197,591.62677,0.0,0.0,0.0,-0.017645589989734485,0.0,0.0,-0.030458001123720675,-0.07230068380052193,-0.07708107922206023,-0.15021911999797286,-0.031607566799423975,0.025046526182149677
1741,8.0,299.5203,346.11659,0.0,0.0,0.0,-0.017655731133406745,0.0,0.0,-0.052380182781521546,-0.03037606566763427,-0.022454552379591777,-0.17146318503959884,-0.06130419254625274,0.000985451056616447
1742,8.0,299.41733,538.48224,0.0,0.0,0.0,-0.017665872277079008,0.0,0.0,-0.029983860871926674,-0.06715434702586803,-0.06654694513417214,-0.17161010630409884,-0.06586676756729384,0.013378799293134687
1743,8.0,300.48891000000003,613.01536,0.0,0.0,0.0,-0.017676013420751268,0.0,0.0,-0.07252763054466983,-0.044434030290797365,-0.06937970161099342,-0.18754067768882382,-0.07965165318250612,-0.03240388917226487
1744,8.0,300.16377,348.55417,0.0,0.0,0.0,-0.01768615456442353,0.0,0.0,0.00048437958988454356,-0.049355563345264857,-0.05708057906791454,-0.16316137365777383,-0.07145211521277472,-0.012897412276625487
1745,8.0,300.48259,264.19856,0.0,0.0,0.0,-0.01769629570809579,0.0,0.0,-0.022514202412978777,-0.06826049898778673,0.01046493417230859,-0.1992460974815588,-0.04726523244196525,-0.04113988126169016
1746,8.0,300.12748,495.34520999999995,0.0,0.0,0.0,-0.01770643685176805,0.0,0.0,-0.03267585157860547,-0.03829196656337286,-0.07960475794137792,-0.1906317491063888,-0.02019586186617638,-0.007474372301063113
1747,8.0,300.55101,611.36461,0.0,0.0,0.0,-0.017716577995440314,0.0,0.0,-0.08795938599791552,-0.06189538750259914,-0.03598480115192337,-0.1829581831840668,-0.002043659489118488,-0.0022463579424732674
1748,8.0,300.03477000000004,645.2565,0.0,0.0,0.0,-0.017726719139112574,0.0,0.0,-0.013661713919806185,-0.09138527780502471,-0.09109487323361401,-0.15934528126365485,-0.0003592388962216187,-0.010348912982858189
1749,8.0,299.31026,415.70972,0.0,0.0,0.0,-0.017736860282784837,0.0,0.0,-0.05149888114929386,-0.015248239648134087,-0.05961825482411365,-0.15913611604551187,-0.04304824865903136,0.023888686306129774
1750,8.0,299.4407,507.223,0.0,0.0,0.0,-0.017747001426457097,0.0,0.0,-0.001072224903520359,-0.08964201545847811,-0.06346888587439134,-0.16073222813303584,-0.07522733005810943,0.00912083227943106
1751,8.0,299.19437,590.94263,0.0,0.0,0.0,-0.017757142570129357,0.0,0.0,-0.08943621017766672,-0.033469062260389267,-0.05672653023122264,-0.18041186541776483,-0.07054007967851385,0.02036321734544308
1752,8.0,299.3588,701.3662,0.0,0.0,0.0,-0.01776728371380162,0.0,0.0,-0.038913275312691266,-0.08804376338674291,-0.08624077399980173,-0.16547933524903885,-0.06305438957648374,-0.008561913695745093
1753,8.0,299.24752,502.78079,0.0,0.0,0.0,-0.01777742485747388,0.0,0.0,-0.0982684823048441,-0.05600139273090715,0.0014370686028026287,-0.16708298591730686,-0.03332658916382827,0.0029962186439037573
1754,8.0,298.90182000000004,204.59266000000002,0.0,0.0,0.0,-0.017787566001146143,0.0,0.0,0.007678715461980213,-0.017855001835901482,-0.052014774397958555,-0.18029340634857383,-0.024106271632603773,-0.01977409245905098
1755,8.0,299.62459,363.52865,0.0,0.0,0.0,-0.017797707144818403,0.0,0.0,-0.04735409954198575,-0.061230351945215235,-0.0019191822209585383,-0.1844763560738988,-0.015753145212714384,-0.027854667774291676
1756,8.0,300.93383,685.91069,0.0,0.0,0.0,-0.017807848288490663,0.0,0.0,-0.047744155234231256,-0.06883206019694543,-0.09192350511239361,-0.2022810247110828,-0.006293739566693734,-0.00903269745525783
1757,8.0,299.68509,534.6403,0.0,0.0,0.0,-0.017817989432162926,0.0,0.0,-0.036182226854407765,-0.06502567068578403,-0.061309402678266935,-0.17655925549004184,-0.03709446503868867,-0.017255512414236486
1758,8.0,300.06911,397.92274,0.0,0.0,0.0,-0.017828130575835186,0.0,0.0,-0.027055643063434075,-0.06013252889911854,-0.033770403853379365,-0.17959949215008983,-0.053473052047879346,0.008391822542533402
1759,8.0,301.49431,537.34634,0.0,0.0,0.0,-0.01783827171950745,0.0,0.0,-0.07142516174686463,-0.036120668871082465,-0.05579403920394295,-0.17346041244420984,-0.04147735940624666,0.016934305039785782
1760,8.0,299.81953,523.84589,0.0,0.0,0.0,-0.01784841286317971,0.0,0.0,-0.04791769457885825,-0.06425853802182394,-0.047059835500944155,-0.17623436697797784,-0.031868335831909865,-0.015801551209741686
1761,8.0,299.78222,643.25842,0.0,0.0,0.0,-0.01785855400685197,0.0,0.0,-0.062098501591144946,-0.06414437614630704,-0.06929162079305053,-0.16204830829042285,-0.03987343313395146,-0.0015355001758170688
1762,8.0,300.03168999999997,481.56665,0.0,0.0,0.0,-0.017868695150524232,0.0,0.0,-0.035507983893365166,-0.05989309790048854,-0.050983154073645544,-0.15450787329873986,-0.027040412901180977,-0.031737067254954676
1763,8.0,299.41733999999997,328.50727,0.0,0.0,0.0,-0.017878836294196492,0.0,0.0,-0.02775940807939027,-0.05628394765379315,-0.015814649493784385,-0.16431597214672383,-0.052772930679282744,-0.008219020236029143
1764,8.0,299.55375,396.94066000000004,0.0,0.0,0.0,-0.017888977437868755,0.0,0.0,-0.06745176936747134,-0.02240165768462148,-0.030806622992876967,-0.20079282375920882,-0.05514304020019436,-0.02037373690798128
1765,8.0,300.05075,619.59705,0.0,0.0,0.0,-0.017899118581541015,0.0,0.0,-0.11408996515730288,-0.028981173904219174,-0.045270892800139254,-0.19387072464105082,-0.03753354785027276,0.03725151069818786
1766,8.0,299.61255,474.10452000000004,0.0,0.0,0.0,-0.017909259725213275,0.0,0.0,-0.04612593200302505,-0.045122152751709756,-0.052867849922150545,-0.18889961832544083,-0.03860505577802236,-0.030904369203523765
1767,8.0,300.99214,480.22842,0.0,0.0,0.0,-0.01791940086888554,0.0,0.0,-0.08306077975346073,-0.028605120315105575,-0.034311547294536074,-0.15894423687407486,-0.015592207659581086,0.03117295546053117
1768,8.0,301.85396000000003,590.78195,0.0,0.0,0.0,-0.017929542012557798,0.0,0.0,-0.03948976801008666,-0.07551000961075773,-0.06458318538036414,-0.17432113800665683,-0.03842599523360046,-0.03575645308288717
1769,8.0,300.1047,657.82664,0.0,0.0,0.0,-0.01793968315623006,0.0,0.0,-0.09481555191881641,-0.03187226622904777,-0.07327505549418493,-0.14754733147178786,-0.06056693860124144,0.04047500579782207
1770,8.0,300.86197999999996,607.97414,0.0,0.0,0.0,-0.01794982429990232,0.0,0.0,-0.04044146114001146,-0.06823424973069614,-0.07613324657501643,-0.15780881920951786,-0.07261110512765813,-0.01845238876360898
1771,8.0,300.30027,318.28976,0.0,0.0,0.0,-0.01795996544357458,0.0,0.0,-0.010467965816607791,-0.053085943900174744,-0.03319822760140997,-0.14338001619550586,-0.052826185078038546,0.027846455382231176
1772,8.0,300.79889,198.97276000000002,0.0,0.0,0.0,-0.017970106587246844,0.0,0.0,0.028968150600683872,-0.036323948119394565,-0.05312695114497186,-0.16947817743119384,-0.04996877116003375,-0.03235937810862197
1773,8.0,299.41742999999997,511.67985999999996,0.0,0.0,0.0,-0.017980247730919104,0.0,0.0,-0.07977871069204572,-0.04810599799069236,-0.027653192111157576,-0.19181300620546982,-0.020483431363807283,0.002728893173995787
1774,8.0,300.6593,620.7871,0.0,0.0,0.0,-0.017990388874591368,0.0,0.0,-0.03111000425831837,-0.07438899023012173,-0.08320478285767272,-0.1975263080868288,-0.021612431102230878,-0.03358654556973397
1775,8.0,299.47282,408.04593,0.0,0.0,0.0,-0.018000530018263627,0.0,0.0,-0.05037220884634995,-0.029889242564338572,-0.04377432341568936,-0.17407332742969983,-0.060425333860016146,-0.014870263923580786
1776,8.0,299.75295,350.79556,0.0,0.0,0.0,-0.018010671161935887,0.0,0.0,-0.02344174979302058,-0.027803773235018776,-0.055387568860077445,-0.14646012424698887,-0.05662813655376195,-0.0006266239857654724
1777,8.0,300.03798,596.34637,0.0,0.0,0.0,-0.01802081230560815,0.0,0.0,-0.09008592944653901,-0.017188442350367185,-0.07400003391423474,-0.16979774638023284,-0.08467520937629253,0.009297902496681531
1778,8.0,301.10758,744.4264099999999,0.0,0.0,0.0,-0.01803095344928041,0.0,0.0,-0.06614626551462814,-0.07442613091253723,-0.08571464489862683,-0.15762978804934885,-0.03119426512338427,0.02770992601075677
1779,8.0,301.54564,636.28742,0.0,0.0,0.0,-0.018041094592952674,0.0,0.0,-0.1115455421686879,-0.05580444426921984,-0.026065503171714875,-0.2007864402835788,-0.017551181833166785,0.002154341154516918
1780,8.0,301.03985,502.52947,0.0,0.0,0.0,-0.018051235736624933,0.0,0.0,-0.021436944290911683,-0.061011975270413146,-0.07030749217105924,-0.16574689407044485,-0.015510464721013684,0.014276488219229685
1781,8.0,300.65204,320.48581,0.0,0.0,0.0,-0.018061376880297193,0.0,0.0,-0.059095419799013844,-0.038275787999026166,-4.847658104251605e-05,-0.1909047085508278,-0.03576906602013197,-0.00014933514034573087
1782,8.0,300.45499,444.54211,0.0,0.0,0.0,-0.018071518023969457,0.0,0.0,-0.006065018114995684,-0.04169829656405146,-0.08736638644314101,-0.16294054593097984,-0.03720511194960867,0.009737561138297459
1783,8.0,300.66483999999997,578.7279,0.0,0.0,0.0,-0.018081659167641716,0.0,0.0,-0.05589793482944665,-0.05932105337103214,-0.06069984155060794,-0.18778767766570081,-0.06738507217963884,-0.012066159119837189
1784,8.0,299.76662999999996,405.82624,0.0,0.0,0.0,-0.01809180031131398,0.0,0.0,-0.012623530774595488,-0.033395753615654264,-0.07734176010178744,-0.16187274244559585,-0.061219855687429346,-0.011684363442406889
1785,8.0,300.06167999999997,306.73791,0.0,0.0,0.0,-0.018101941454986236,0.0,0.0,-0.08333530770905452,0.0017754815719013884,-0.011680839358559089,-0.15563991684046385,-0.04881881842279225,-0.004216362153997546
1786,8.0,299.59403,429.63800999999995,0.0,0.0,0.0,-0.0181120825986585,0.0,0.0,-0.016420740239850885,-0.06539460517969503,-0.048783882572594355,-0.16509560730366785,-0.012282823401970289,-0.02953831656445487
1787,8.0,299.36315,624.7539,0.0,0.0,0.0,-0.018122223742330763,0.0,0.0,-0.08496279001967451,-0.04958649418880595,-0.05536030128663635,-0.17406886912925984,-0.015622476479818384,-0.012062426306468789
1788,8.0,299.35661,738.9199,0.0,0.0,0.0,-0.018132364886003022,0.0,0.0,-0.029434921484500574,-0.08760361463605361,-0.1075746656892929,-0.2026855749460088,-0.04104383832446146,-0.009697044610523791
1789,8.0,299.23704,470.93415,0.0,0.0,0.0,-0.018142506029675286,0.0,0.0,-0.039363032714078865,-0.07100140636954323,-0.03278778227740217,-0.18739182111663283,-0.060847856111965845,0.0032323164550047967
1790,8.0,300.47803999999996,449.58921,0.0,0.0,0.0,-0.018152647173347546,0.0,0.0,-0.023614843307603578,-0.05557472223304804,-0.05747432704352444,-0.17276302279788283,-0.05097958945979375,0.004627708966619315
1791,8.0,301.30971,637.8754,0.0,0.0,0.0,-0.018162788317019805,0.0,0.0,-0.08045601468164042,-0.08233512853534451,-0.03110705164752697,-0.17912622329338182,-0.038352566012103566,0.004398362744909606
1792,8.0,300.19538,728.94298,0.0,0.0,0.0,-0.01817292946069207,0.0,0.0,-0.05059721724305655,-0.1014974854320219,-0.06948576559171113,-0.18031335724304284,-0.04391038263911736,-0.0076688554239321026
1793,8.0,300.18549,625.09318,0.0,0.0,0.0,-0.01818307060436433,0.0,0.0,-0.08186997175893712,-0.050713548487037546,-0.057429197897320546,-0.18152542727766482,-0.041219287645526966,0.016773159770381983
1794,8.0,300.42879,333.38993999999997,0.0,0.0,0.0,-0.018193211748036592,0.0,0.0,-0.028524930688941474,-0.03428420778033787,-0.03853307854391876,-0.15571386383276184,-0.01145302425907549,-0.012394504841242387
1795,8.0,299.91832,384.17008,0.0,0.0,0.0,-0.01820335289170885,0.0,0.0,-0.039666472748026066,-0.02237581474082098,-0.054735824104255246,-0.14997092438597787,-0.03407472946791397,0.007681036919284322
1796,8.0,300.10217,687.11848,0.0,0.0,0.0,-0.01821349403538111,0.0,0.0,-0.07871267431483613,-0.053528600444861546,-0.07662558581185652,-0.18982337817660883,-0.07480873009729683,0.00994073693377435
1797,8.0,300.153,712.73697,0.0,0.0,0.0,-0.018223635179053375,0.0,0.0,-0.098256828915444,-0.06587071012343294,-0.052526703812232046,-0.1867261056684318,-0.07408884629874983,0.017555202409563583
1798,8.0,299.40927,444.52069000000006,0.0,0.0,0.0,-0.018233776322725635,0.0,0.0,-0.04615986574887405,-0.02985367748582857,-0.059109647856918045,-0.20510389895967882,-0.04075452401015836,0.003029763605689387
1799,8.0,299.68041,479.11477,0.0,0.0,0.0,-0.018243917466397898,0.0,0.0,-0.052283747716504146,-0.08609520846393551,-0.007259971214353373,-0.15944750806624383,-0.01769657916951638,-0.005820474357686094
1800,8.0,299.63076,600.91296,0.0,0.0,0.0,-0.018254058610070158,0.0,0.0,-0.03093310497635977,-0.08100728758404682,-0.07072214349623213,-0.2094972196707658,-0.03050334305244557,-0.031229559664117574
1801,8.0,299.93797,703.07752,0.0,0.0,0.0,-0.018264199753742414,0.0,0.0,-0.05926060185681604,-0.07996398245958063,-0.07449342693117883,-0.16240519524064484,-0.03669433054769847,0.012579045042205089
1802,8.0,300.30067,348.02752000000004,0.0,0.0,0.0,-0.01827434089741468,0.0,0.0,-0.037672848460770667,-0.05311888466092575,-0.014999943724379185,-0.17432299225433984,-0.05529130199457665,-0.02996900358571037
1803,8.0,300.26685,109.40451999999999,0.0,0.0,0.0,-0.01828448204108694,0.0,0.0,-0.0006626598709344373,-0.02112096224722668,-0.011472620516009488,-0.15496251861860985,-0.06350671860662514,-0.005232663656673695
1804,8.0,300.91301,240.8887,0.0,0.0,0.0,-0.018294623184759204,0.0,0.0,0.0005252155143547356,-0.05204718826865755,-0.021702178716588277,-0.18503165765870283,-0.08440552779592701,-0.04536362848904155
1805,8.0,301.42487,578.4033599999999,0.0,0.0,0.0,-0.018304764328431464,0.0,0.0,-0.058655612513608235,-0.058566291477542935,-0.058598274716949436,-0.1933466716893308,-0.03207648779995287,-0.008608158531634102
1806,8.0,301.46663,760.05787,0.0,0.0,0.0,-0.018314905472103724,0.0,0.0,-0.06075571114787185,-0.058388185414715243,-0.1118947182856489,-0.17558152993854784,-0.0038790687249342765,-0.022815919921755978
1807,8.0,299.95748,628.61985,0.0,0.0,0.0,-0.018325046615775987,0.0,0.0,-0.06469531062318003,-0.07604584058164013,-0.050343587570775256,-0.16787350338032483,-0.02361977884884068,-0.008741624240106141
1808,8.0,300.11615,539.33681,0.0,0.0,0.0,-0.018335187759448247,0.0,0.0,-0.05841874706423144,-0.047681798809827154,-0.05784437712579554,-0.19289415419467082,-0.04137182738183146,0.008386127975646392
1809,8.0,299.99849,695.85807,0.0,0.0,0.0,-0.01834532890312051,0.0,0.0,-0.08753654963843482,-0.05700710425016314,-0.06697982280214385,-0.20137506766417182,-0.07261782804207163,0.013852590986894286
1810,8.0,300.50705,771.90462,0.0,0.0,0.0,-0.01835547004679277,0.0,0.0,-0.08058276416314963,-0.07531151188966753,-0.07874545498207133,-0.15447065662256684,-0.06544574593874224,0.025929765148568578
1811,8.0,300.36922999999996,591.1756799999999,0.0,0.0,0.0,-0.01836561119046503,0.0,0.0,-0.06154700273396623,-0.050114016508868355,-0.06804162480718554,-0.18272634142868582,-0.03327985198971567,-0.005740653959858434
1812,8.0,299.09655,238.69947000000002,0.0,0.0,0.0,-0.01837575233413729,0.0,0.0,0.02289927899423288,-0.03994400397691626,-0.05551395458480075,-0.15412226070818286,-0.028824783817534675,0.012453414188806288
1813,8.0,299.07521,304.03283,0.0,0.0,0.0,-0.01838589347780955,0.0,0.0,-0.04195773317265586,-0.03733848403377146,-0.013122171413807488,-0.18526580962431183,-0.03545980081135986,-0.010802129620087189
1814,8.0,299.518,628.65502,0.0,0.0,0.0,-0.018396034621481816,0.0,0.0,-0.05756248588172504,-0.03657983125989826,-0.0969531114225271,-0.17239582096164283,-0.03558176369939667,0.015694316925158484
1815,8.0,299.9487,585.62735,0.0,0.0,0.0,-0.018406175765154076,0.0,0.0,-0.06107067791495665,-0.0827205587408835,-0.03422485260272997,-0.18286901717526682,-0.07457065077430022,-0.03024577589027567
1816,8.0,300.5178,379.71455,0.0,0.0,0.0,-0.018416316908826332,0.0,0.0,-0.01869002732281208,-0.04022315539271636,-0.05651055901215794,-0.16994975416023483,-0.07158820483370573,0.0031623999689545774
1817,8.0,300.70899,291.0763,0.0,0.0,0.0,-0.0184264580524986,0.0,0.0,-0.02156460164451048,-0.029329713700117367,-0.03758561066691096,-0.17915110871583784,-0.061523157919362935,-0.028999623162039974
1818,8.0,300.24245,621.57557,0.0,0.0,0.0,-0.01843659919617086,0.0,0.0,-0.028190727368708174,-0.08245946242861532,-0.07829326274069343,-0.14540959667580988,-0.014708973759412686,-0.009607132140375122
1819,8.0,300.93478,527.64116,0.0,0.0,0.0,-0.018446740339843122,0.0,0.0,-0.09669158245246622,-0.027527908802543074,-0.036170245171975264,-0.2034582288097638,-0.010461087874928991,-0.017002159359232483
1820,8.0,301.01557,293.62309,0.0,0.0,0.0,-0.018456881483515382,0.0,0.0,-0.0023801675480292477,-0.06074821917663244,-0.026125700360155872,-0.19109225101183683,-0.04279052039009556,-0.02355982889342408
1821,8.0,301.47449,305.36365,0.0,0.0,0.0,-0.01846702262718764,0.0,0.0,-0.05155135331897245,-0.035191788053909066,-0.006079785120628073,-0.19334479717664582,-0.06826710639168884,-0.01876755412771338
1822,8.0,301.2737,677.7828400000001,0.0,0.0,0.0,-0.018477163770859905,0.0,0.0,-0.05258081339407225,-0.06507197013585343,-0.08837627559255933,-0.16557861349383685,-0.029068428923330572,0.011468496588102488
1823,8.0,300.51218,790.30845,0.0,0.0,0.0,-0.018487304914532165,0.0,0.0,-0.06745622158841073,-0.10189734431898491,-0.07088046483760722,-0.17591548703900683,-0.04940481439287555,-0.012452464773462589
1824,8.0,299.84053,780.4634599999999,0.0,0.0,0.0,-0.018497446058204425,0.0,0.0,-0.04427221222332716,-0.07171998307546122,-0.12124920532886489,-0.1788880892548798,-0.049030639369447356,0.03695493036741766
1825,8.0,300.26862,478.30858,0.0,0.0,0.0,-0.018507587201876688,0.0,0.0,-0.08349342032090902,-0.02237442152193348,-0.03952602412516486,-0.18482406297821483,-0.049508766760384855,0.017090211806172585
1826,8.0,300.32725,476.52353,0.0,0.0,0.0,-0.018517728345548948,0.0,0.0,-0.05415072688701065,-0.04327426827933776,-0.04742626017435745,-0.17290004460890582,-0.03344350910611737,0.026921524213947577
1827,8.0,300.25065,764.54029,0.0,0.0,0.0,-0.018527869489221208,0.0,0.0,-0.13318961808479188,-0.03740757553159026,-0.06180396599907653,-0.1895412082887608,-0.05492310413348835,0.00901279732461884
1828,8.0,300.08875,768.51697,0.0,0.0,0.0,-0.018538010632893467,0.0,0.0,-0.0923642587733926,-0.05752380100615715,-0.08372190821845901,-0.1993740912341908,-0.07559434039008052,0.011398266197171289
1829,8.0,299.87203,569.4794099999999,0.0,0.0,0.0,-0.018548151776565734,0.0,0.0,-0.03426240162493577,-0.058581317976525944,-0.08026380113767043,-0.16583236171637983,-0.05550983369664404,-0.011375702130694387
1830,8.0,299.46764,402.72847,0.0,0.0,0.0,-0.018558292920237994,0.0,0.0,-0.02159981107223538,-0.04323284154899926,-0.05758674714211945,-0.15798821513972283,-0.01053293136001939,0.0003415665175174907
1831,8.0,299.709,620.49144,0.0,0.0,0.0,-0.01856843406391025,0.0,0.0,-0.05774860371309345,-0.096546300626628,-0.03431899873577147,-0.16334592703098785,-0.014900687771083384,-0.0005769804759935394
1832,8.0,300.08016000000003,590.0203700000001,0.0,0.0,0.0,-0.018578575207582517,0.0,0.0,-0.04487552666411966,-0.07844846428501064,-0.05602746770898054,-0.20563815533990581,-0.05281310401924755,-0.02080222011026928
1833,8.0,301.19424,428.98375,0.0,0.0,0.0,-0.018588716351254777,0.0,0.0,-0.037909446412121066,-0.07289452333962934,-0.01959638055051218,-0.1958586402772428,-0.055308136131738045,0.003173966624146117
1834,8.0,301.18412,236.41327,0.0,0.0,0.0,-0.01859885749492704,0.0,0.0,0.012428799304126988,-0.06534431555073184,-0.018948214594043184,-0.16803060780832982,-0.049600783041716154,-0.04382517641170816
1835,8.0,301.19342,403.52338,0.0,0.0,0.0,-0.0186089986385993,0.0,0.0,-0.007982392495125803,-0.04903170226880225,-0.06564693789184835,-0.15978367405192084,-0.053794016242306036,0.019244902329323983
1836,8.0,300.82261,509.80875,0.0,0.0,0.0,-0.01861913978227156,0.0,0.0,-0.019791031974222783,-0.07354540075336592,-0.06163269633467353,-0.18607417042159083,-0.07863084626326033,-0.028752715390922078
1837,8.0,300.25072,570.13785,0.0,0.0,0.0,-0.018629280925943823,0.0,0.0,-0.06548089659796134,-0.03926536249718956,-0.06856141096273444,-0.18403977700331184,-0.04394410360244536,0.03839293186958736
1838,8.0,300.64142000000004,638.23626,0.0,0.0,0.0,-0.018639422069616083,0.0,0.0,-0.061974595289416345,-0.07808583828622223,-0.05394745371819915,-0.17330612485148283,-0.009909433179884911,-0.03364887058338497
1839,8.0,300.265,573.21371,0.0,0.0,0.0,-0.018649563213288343,0.0,0.0,-0.0891567345218346,-0.05160134505240625,-0.03348457511942027,-0.18057331668869883,-0.03471160984476917,0.01907313009287138
1840,8.0,299.91884,608.6671200000001,0.0,0.0,0.0,-0.018659704356960603,0.0,0.0,-0.07660382221295864,-0.042902077199605364,-0.06551370664944943,-0.2024475017025128,-0.06024343824181445,-0.027080542671391473
1841,8.0,300.25273,700.1003099999999,0.0,0.0,0.0,-0.018669845500632862,0.0,0.0,-0.07868834010043452,-0.06105672444782954,-0.07306794818699502,-0.2030645102184068,-0.06591325750838203,0.03960410619112096
1842,8.0,300.65775,416.71854,0.0,0.0,0.0,-0.018679986644305126,0.0,0.0,-0.02925682656742397,-0.047695323672161956,-0.04971987843196995,-0.1933837465104898,-0.03766243630274307,0.007102013933739203
1843,8.0,299.13453,353.35783,0.0,0.0,0.0,-0.018690127787977386,0.0,0.0,-0.03719593393020286,-0.03132145638193707,-0.038894568689345065,-0.2039909653148408,-0.03449306699695067,0.055587927921601346
1844,8.0,299.7614,604.39396,0.0,0.0,0.0,-0.018700268931649652,0.0,0.0,-0.06243473647782873,-0.07055307258454613,-0.05073286407369386,-0.19056431731223383,-0.036111780641205266,0.018530924765609882
1845,8.0,298.9133,763.39949,0.0,0.0,0.0,-0.018710410075321912,0.0,0.0,-0.1048473814551309,-0.056987284064957046,-0.07021971330164614,-0.1949659061441368,-0.03873190557129146,0.024335018922179374
1846,8.0,299.95083999999997,751.82694,0.0,0.0,0.0,-0.01872055121899417,0.0,0.0,-0.05613561999815435,-0.09029371157829551,-0.08210728506485812,-0.14802420749885184,-0.014320270756050687,-0.025436272833114677
1847,8.0,299.87526,632.87546,0.0,0.0,0.0,-0.018730692362666435,0.0,0.0,-0.04796482894701005,-0.07043751242389124,-0.07397599759536252,-0.15160784005502886,-0.059985085810817046,-0.01855495095198108
1848,8.0,300.61516,341.22121,0.0,0.0,0.0,-0.018740833506338695,0.0,0.0,-0.000934660902368849,-0.04521810348317936,-0.05756996366746304,-0.14484038316713285,-0.08081086195941112,-0.016246464262401183
1849,8.0,300.46301,339.08054,0.0,0.0,0.0,-0.01875097465001096,0.0,0.0,-0.012801983368957387,-0.047777702931792156,-0.04249233203141666,-0.1910111606063338,-0.06177225532394694,-0.012561180429691989
1850,8.0,300.48897999999997,434.3369,0.0,0.0,0.0,-0.018761115793683215,0.0,0.0,-0.03378291647886427,-0.05126996667345175,-0.04697468905529086,-0.1964372871443508,-0.01074573313277129,-0.026077211276620372
1851,8.0,300.34009,286.9342,0.0,0.0,0.0,-0.018771256937355478,0.0,0.0,-0.049043207723687754,-0.04404919587631716,0.005871572762879114,-0.2243843055725068,-0.036628214965423365,-0.02080083398413248
1852,8.0,300.34272999999996,292.08499,0.0,0.0,0.0,-0.018781398081027738,0.0,0.0,0.012032186870484388,-0.06924077995603294,-0.031577949499000973,-0.19726498075353782,-0.038585228500065565,-0.04169267302599646
1853,8.0,299.13223999999997,456.1545,0.0,0.0,0.0,-0.0187915392247,0.0,0.0,-0.05725202605108504,-0.04090059515782446,-0.04050695661322536,-0.19859267275707082,-0.05064534864930675,0.0033685803549529966
1854,8.0,299.22302,773.09315,0.0,0.0,0.0,-0.01880168036837226,0.0,0.0,-0.03406304872076117,-0.1084996819705849,-0.092438280746198,-0.16988727715906884,-0.023266467658221577,0.0007401884996859173
1855,8.0,299.66501,681.03832,0.0,0.0,0.0,-0.01881182151204452,0.0,0.0,-0.07903183999033533,-0.06080904660663565,-0.06717775715617844,-0.1979080804595068,-0.044913694782136554,0.025766976387502576
1856,8.0,300.37607,558.5206599999999,0.0,0.0,0.0,-0.01882196265571678,0.0,0.0,-0.04187285523827906,-0.054426555855732854,-0.07347692328510773,-0.1891359690437668,-0.06779729373107193,0.02146463236314428
1857,8.0,301.46644,575.02155,0.0,0.0,0.0,-0.018832103799389044,0.0,0.0,-0.09791720369392559,-0.02837225213737327,-0.048502736067347355,-0.18257661346140883,-0.03624604742520637,0.02793089660581487
1858,8.0,302.49498,895.84282,0.0,0.0,0.0,-0.018842244943061304,0.0,0.0,-0.10080441020462072,-0.05292567205235715,-0.11858376988080689,-0.17154569399524183,-0.009061865379261482,-0.004988459743447646
1859,8.0,300.98257,713.13872,0.0,0.0,0.0,-0.01885238608673357,0.0,0.0,-0.09393772877418201,-0.05217972036848745,-0.07065891263699173,-0.18549164280659983,-0.029925395327906574,-0.014933377245809587
1860,8.0,300.61768,373.89731,0.0,0.0,0.0,-0.01886252723040583,0.0,0.0,-0.021708543953716478,-0.043449527109384455,-0.048497373947818154,-0.2032808391147568,-0.06011318696795965,0.0019528660993328782
1861,8.0,300.29646,287.91389,0.0,0.0,0.0,-0.01887266837407809,0.0,0.0,-0.03693599981579936,-0.023368850501325977,-0.027213785059541477,-0.1935215282590878,-0.05456947883533824,-0.007668249297722284
1862,8.0,299.307,511.79400000000004,0.0,0.0,0.0,-0.018882809517750353,0.0,0.0,-0.04421783716996076,-0.07979663812606501,-0.03155812019454397,-0.19069593850022382,-0.02217166713717318,0.015631899705748385
1863,8.0,299.23562999999996,571.11262,0.0,0.0,0.0,-0.018892950661422613,0.0,0.0,-0.045748983714073155,-0.07560351739623623,-0.05225147570081915,-0.17971028091602384,-0.03677295875545846,-0.01984852682464708
1864,8.0,300.54384,313.28662,0.0,0.0,0.0,-0.018903091805094873,0.0,0.0,-0.0037133443756785563,-0.05812799900103685,-0.03338996593108307,-0.1978032090741568,-0.05099588252140175,-0.009493774380137581
1865,8.0,300.03427999999997,213.87028999999998,0.0,0.0,0.0,-0.018913232948767136,0.0,0.0,-0.012658395697286386,-0.035714227911469866,-0.016638605223352483,-0.16257116560702486,-0.06304280508809043,-0.027607569512154977
1866,8.0,299.70852,477.09902,0.0,0.0,0.0,-0.018923374092439396,0.0,0.0,-0.025187170362280176,-0.04781727642769776,-0.07202174111424244,-0.14606806738579586,-0.05131235700463535,-0.0033510609567489664
1867,8.0,299.94872000000004,607.42619,0.0,0.0,0.0,-0.018933515236111656,0.0,0.0,-0.05619575233858894,-0.06296490946015273,-0.06548173151604374,-0.17233836968097282,-0.07003526935944293,-0.01880821585422638
1868,8.0,300.20023,514.9980400000001,0.0,0.0,0.0,-0.018943656379783916,0.0,0.0,-0.04315148364546986,-0.05832216203819924,-0.05507289796202185,-0.22356966262460776,-0.06983761466243593,-0.005804587508043184
1869,8.0,300.32617,335.54713,0.0,0.0,0.0,-0.01895379752345618,0.0,0.0,-0.028956135480998072,-0.03909567046319226,-0.03394614195072337,-0.19237598822603183,-0.04454656589990376,-0.0008177293279686012
1870,8.0,300.70732000000004,371.53712,0.0,0.0,0.0,-0.01896393866712844,0.0,0.0,-0.04236601115469976,-0.040425124508649164,-0.030146870521514473,-0.16340399639421885,0.004033648336340096,-0.05158601964464375
1871,8.0,299.87138,715.66223,0.0,0.0,0.0,-0.0189740798108007,0.0,0.0,-0.07644451295273602,-0.06928363638226254,-0.07181529951236823,-0.16811325861898685,-0.03839404948444767,0.004147194662421246
1872,8.0,300.078,774.1600599999999,0.0,0.0,0.0,-0.018984220954472962,0.0,0.0,-0.07935629280485633,-0.08480172783677892,-0.07116730580841624,-0.2080267100656378,-0.07766629904256693,-0.011360907665984289
1873,8.0,299.63196,519.29812,0.0,0.0,0.0,-0.018994362098145222,0.0,0.0,-0.055650530565779746,-0.03315749190763967,-0.06904563913252404,-0.21021620167672378,-0.06811371856505065,0.07095028486224793
1874,8.0,300.01922,373.3435,0.0,0.0,0.0,-0.01900450324181749,0.0,0.0,-0.051162002848796545,-0.033791090367420965,-0.028534007383337272,-0.16698716285534984,-0.04366969622361346,0.045943333189253956
1875,8.0,299.16899,681.85353,0.0,0.0,0.0,-0.01901464438548975,0.0,0.0,-0.06341154199823194,-0.07270869023153903,-0.07114621602083483,-0.16725605916688782,-0.04997862299075605,0.06088379305326254
1876,8.0,299.49816,717.4061,0.0,0.0,0.0,-0.01902478552916201,0.0,0.0,-0.08259850567358783,-0.04561918536301305,-0.08985585074633201,-0.18154458783705582,-0.034208472401613364,0.010270712366640391
1877,8.0,300.62698,588.3405799999999,0.0,0.0,0.0,-0.01903492667283427,0.0,0.0,-0.03728203992370086,-0.05955897868001354,-0.08199982685200283,-0.1991935908613768,-0.03867745756391786,-0.002948840690427917
1878,8.0,301.77259,425.13597000000004,0.0,0.0,0.0,-0.01904506781650653,0.0,0.0,-0.04072674677191696,-0.04845551658618716,-0.040048455876724856,-0.17071166757292983,-0.020107790167484377,-0.030256104961795073
1879,8.0,299.92837000000003,367.06978,0.0,0.0,0.0,-0.01905520896017879,0.0,0.0,-0.042311300715550254,-0.03682014682586557,-0.03244859883292737,-0.18377363673204583,-0.05589040435470345,-0.04019465266740336
1880,8.0,300.18362,457.13203,0.0,0.0,0.0,-0.01906535010385105,0.0,0.0,-0.05445044424009045,-0.06370681422312303,-0.020799465083247377,-0.18733325526085282,-0.08502368331093423,-0.016197697548338285
1881,8.0,299.16657000000004,509.07915999999994,0.0,0.0,0.0,-0.01907549124752331,0.0,0.0,-0.052412973581257745,-0.05234170258247386,-0.04999267676964305,-0.1927303927135088,-0.07519837643650193,-0.03447230448915157
1882,8.0,299.40862000000004,344.51771,0.0,0.0,0.0,-0.019085632391195574,0.0,0.0,-0.02214216332076138,-0.05453846021002695,-0.028044156688742772,-0.17916177823939083,-0.010363973932344589,-0.004736727989928655
1883,8.0,299.85255,259.96001,0.0,0.0,0.0,-0.019095773534867834,0.0,0.0,0.005257344301284485,-0.07601991860433183,-0.008258776927552822,-0.18638299891956983,-0.03344168322943717,-0.02937644884772977
1884,8.0,300.87739,502.07505999999995,0.0,0.0,0.0,-0.019105914678540097,0.0,0.0,-0.019182997814464482,-0.05851485079646614,-0.07492043180157093,-0.19610404945146281,-0.02028480495995438,0.024780833767427877
1885,8.0,299.77986,691.41097,0.0,0.0,0.0,-0.019116055822212357,0.0,0.0,-0.07473203111772724,-0.07976494163643683,-0.055674698607164945,-0.18593125149498582,-0.03813997398212236,0.015086541144175685
1886,8.0,299.8843,739.25655,0.0,0.0,0.0,-0.019126196965884617,0.0,0.0,-0.07256964799981663,-0.06269910052166945,-0.08944678344246022,-0.19553648754044883,-0.012905813133204588,0.04423064363797466
1887,8.0,300.41517000000005,670.65883,0.0,0.0,0.0,-0.019136338109556884,0.0,0.0,-0.08024427276849314,-0.04920726811362925,-0.07441199607364223,-0.1813502363353748,-0.062249702824067346,0.015518255601032586
1888,8.0,299.85888,620.2298599999999,0.0,0.0,0.0,-0.01914647925322914,0.0,0.0,-0.058385909654990645,-0.05284268788241724,-0.07730579377623784,-0.17337639374591782,-0.05877285365617904,0.02182949055190298
1889,8.0,299.71124,696.88218,0.0,0.0,0.0,-0.019156620396901407,0.0,0.0,-0.06814570484420744,-0.05785356021145185,-0.08583551651630592,-0.16738878479748684,-0.06602688033484574,-0.007927039351437872
1890,8.0,299.33245,738.60808,0.0,0.0,0.0,-0.019166761540573667,0.0,0.0,-0.07367945171509573,-0.06049378599702184,-0.09034517657737473,-0.18777548826699783,-0.021993696849858878,-0.008563460624672762
1891,8.0,298.93857,367.18386,0.0,0.0,0.0,-0.019176902684245926,0.0,0.0,-0.07378513978002633,-0.024354193667071772,-0.013475392425167687,-0.1911413125816788,-0.04710366262076955,-0.005644487608767556
1892,8.0,298.96092000000004,56.35119399999999,0.0,0.0,0.0,-0.01918704382791819,0.0,0.0,-0.00970573728313169,0.010742106710663389,-0.01816572511156748,-0.19037004687056083,-0.039002558858502866,0.039312231393815164
1893,8.0,300.67998,321.09236,0.0,0.0,0.0,-0.01919718497159045,0.0,0.0,-0.03716924694906906,-0.05228491396736925,-0.008149899252632431,-0.16717256735864786,-0.05093389593328415,0.004769546147417555
1894,8.0,300.04334,835.95439,0.0,0.0,0.0,-0.019207326115262713,0.0,0.0,-0.07983914498101012,-0.08764087792173123,-0.0866292378761401,-0.18360341071524583,-0.01114975343789499,0.035721685432205864
1895,8.0,299.8894,911.5142699999999,0.0,0.0,0.0,-0.019217467258934973,0.0,0.0,-0.06997311558505884,-0.11262549452277089,-0.09447896442109781,-0.1945200761001368,-0.026367968459065874,-0.033699096377591865
1896,8.0,300.74369,471.816,0.0,0.0,0.0,-0.019227608402607232,0.0,0.0,-0.007507187722776743,-0.08151448613360343,-0.05439860839147465,-0.21478635479526278,-0.029948503509687176,-0.008840073342347312
1897,8.0,301.452,137.57811999999998,0.0,0.0,0.0,-0.019237749546279496,0.0,0.0,0.0006133348459339365,-0.03515274246130557,-0.007280904860094363,-0.1924449702928398,-0.03335864738374217,-0.038478685252050567
1898,8.0,301.81118,386.89645,0.0,0.0,0.0,-0.019247890689951756,0.0,0.0,-0.021982074871211878,-0.06780772210110114,-0.027817065049830576,-0.20318065907736982,-0.036120466221062464,-0.014563946259349586
1899,8.0,300.90603,360.07146,0.0,0.0,0.0,-0.019258031833624015,0.0,0.0,-0.03988760951610056,-0.031524504609226366,-0.038040619743566866,-0.17519743722314085,-0.058562087502878044,-0.050897182842410855
1900,8.0,301.21366,231.45449,0.0,0.0,0.0,-0.01926817297729628,0.0,0.0,-0.014158079812543686,-0.03243267864735617,-0.023765627081484775,-0.18462185878825882,-0.07197403020678372,-0.02221638693033668
1901,8.0,300.1536,240.69688,0.0,0.0,0.0,-0.01927831412096854,0.0,0.0,0.02230194272903038,-0.05931901876483135,-0.03614876426985526,-0.16217601833302683,-0.059906475841558844,-0.05727791560439015
1902,8.0,299.90502999999995,554.04685,0.0,0.0,0.0,-0.0192884552646408,0.0,0.0,-0.05255139671716905,-0.060292945641700436,-0.05557206650453595,-0.17386387850152885,-0.026530836253639677,-0.00925700782397054
1903,8.0,300.0707,976.1654199999999,0.0,0.0,0.0,-0.019298596408313058,0.0,0.0,-0.1124768811306039,-0.1032959840945199,-0.08095703949833773,-0.1844900754802528,-0.041872809642024555,0.003938288633653826
1904,8.0,300.03326,955.00689,0.0,0.0,0.0,-0.01930873755198532,0.0,0.0,-0.1323764139520349,-0.07484563671893922,-0.08307619534048212,-0.2132259192437598,-0.04371737268056875,0.048856320835493454
1905,8.0,298.8368,597.3481099999999,0.0,0.0,0.0,-0.01931887869565758,0.0,0.0,-0.06952553667138624,-0.04577641847378076,-0.06627695349927602,-0.19754447566112182,-0.02604147293234327,0.07132330174081183
1906,8.0,300.16843,461.18294000000003,0.0,0.0,0.0,-0.01932901983932984,0.0,0.0,-0.04959656184179955,-0.04711732427186786,-0.043474212921570755,-0.19614606893310982,-0.027951286237577175,0.023541157733831378
1907,8.0,299.46738999999997,784.21298,0.0,0.0,0.0,-0.019339160983002104,0.0,0.0,-0.04627948397617946,-0.07489744926280271,-0.11720422986965688,-0.18372701709494482,-0.06018736599453054,0.015514034401115985
1908,8.0,299.70671,815.8827,0.0,0.0,0.0,-0.019349302126674364,0.0,0.0,-0.08674991494980001,-0.05170913763779455,-0.1095489125816359,-0.1964264149707778,-0.061519852697536744,0.001288753308815049
1909,8.0,300.53713999999997,429.88285,0.0,0.0,0.0,-0.019359443270346628,0.0,0.0,-0.03027724642513157,-0.04995006149693725,-0.05044634531641665,-0.18129657461007884,-0.05267160364278255,-0.006300746495110265
1910,8.0,301.12266,74.31021899999999,0.0,0.0,0.0,-0.019369584414018887,0.0,0.0,-0.014853109599387787,-0.0024099235623909377,-0.005325418192027855,-0.17511313481482083,-0.028677979076796176,-0.02025161696617898
1911,8.0,299.76318,351.99502,0.0,0.0,0.0,-0.019379725557691147,0.0,0.0,-0.04187445819993726,-0.03224177827551577,-0.03288145927564737,-0.16249128096914084,-0.06396212994357074,-0.016174149616014283
1912,8.0,301.18883,831.02126,0.0,0.0,0.0,-0.01938986670136341,0.0,0.0,-0.08925572703010441,-0.08728589892144752,-0.07606808750083573,-0.16307554124180285,-0.05971840041099724,-0.02062362160789298
1913,8.0,300.02935,734.43225,0.0,0.0,0.0,-0.01940000784503567,0.0,0.0,-0.028281606783427272,-0.10721723158401689,-0.08775022483277291,-0.17376922067718684,-0.04139076401295036,-0.008511001221945423
1914,8.0,299.79882000000003,406.67177000000004,0.0,0.0,0.0,-0.019410148988707934,0.0,0.0,-0.01983243438655888,-0.08368340471465902,-0.020102224384685084,-0.1892300898455558,-0.03139066541676747,-0.013707872528111687
1915,8.0,299.52235,275.54582999999997,0.0,0.0,0.0,-0.019420290132380193,0.0,0.0,0.009361049053513612,-0.05801949815382865,-0.03510060263765977,-0.2003302244260538,-0.05394290118549985,-0.007624236550478562
1916,8.0,300.00577999999996,487.42900000000003,0.0,0.0,0.0,-0.019430431276052453,0.0,0.0,-0.035824073341560764,-0.06618843394403984,-0.04615373963876946,-0.17758859600162982,-0.03472036736538346,0.005585508144296735
1917,8.0,299.18502,624.91259,0.0,0.0,0.0,-0.01944057241972472,0.0,0.0,-0.05319000063244435,-0.07789103791474693,-0.05887678575868635,-0.19596240721998381,-0.013977489260470786,-0.013669587886333288
1918,8.0,300.31647000000004,531.05092,0.0,0.0,0.0,-0.01945071356339698,0.0,0.0,-0.05787627626544375,-0.05323613289624725,-0.05031381119008655,-0.18496078081420783,-0.021797713002266777,-0.013452565926914888
1919,8.0,300.36054,180.38692,0.0,0.0,0.0,-0.019460854707069243,0.0,0.0,-0.00048346281132656457,-0.025833988696116177,-0.02851566856977737,-0.2099395641344218,-0.06022638524263144,-0.047487540527155356
1920,8.0,301.23471,436.84337999999997,0.0,0.0,0.0,-0.019470995850741503,0.0,0.0,-0.06652863063861464,-0.024338564284279274,-0.041922285631157456,-0.18537042769713682,-0.07577521363893133,0.005119300120910586
1921,8.0,300.75955,827.03373,0.0,0.0,0.0,-0.019481136994413763,0.0,0.0,-0.07900808636824103,-0.06749121114086394,-0.10489830740515689,-0.17762561002778282,-0.03472003704585087,0.007236235121485804
1922,8.0,299.90859,809.1204700000001,0.0,0.0,0.0,-0.019491278138086026,0.0,0.0,-0.12392028457997989,-0.05112725546311725,-0.07090487504576634,-0.16364704469570585,-0.03696947253285286,0.034962130865743665
1923,8.0,300.43642,578.69328,0.0,0.0,0.0,-0.019501419281758286,0.0,0.0,-0.06319339533120254,-0.05144297406177625,-0.061271936742569345,-0.20249634035733283,-0.045752495638919755,0.03582531862593367
1924,8.0,299.68025,469.37124000000006,0.0,0.0,0.0,-0.01951156042543055,0.0,0.0,-0.04676231183433086,-0.05983048107080874,-0.03608434486824757,-0.1922193600255738,-0.05942679311171785,0.03777977269082326
1925,8.0,298.97822,625.5670200000001,0.0,0.0,0.0,-0.01952170156910281,0.0,0.0,-0.04792148920048275,-0.06391526206019524,-0.07832000342408252,-0.18494299827495284,-0.04486485410081636,0.002850611058158407
1926,8.0,300.49726,767.10724,0.0,0.0,0.0,-0.01953184271277507,0.0,0.0,-0.06619897174507984,-0.09182376077254961,-0.07515871478783763,-0.16775075826321084,-0.04703438367168225,0.007316146813147473
1927,8.0,300.03116,456.10967999999997,0.0,0.0,0.0,-0.01954198385644733,0.0,0.0,-0.013862355678107986,-0.06847003505546634,-0.05631356292771595,-0.2029413699337538,-0.03963620696753906,-0.026804753219423175
1928,8.0,300.32724,208.89879,0.0,0.0,0.0,-0.01955212500011959,0.0,0.0,-0.008081914426572853,-0.05155883313121065,-0.0038592672848550263,-0.1873372677312488,-0.059350271450915745,-0.007762903879663962
1929,8.0,300.01743999999997,202.64326,0.0,0.0,0.0,-0.01956226614379185,0.0,0.0,0.01014811619729109,-0.049982210909360156,-0.02176439531247858,-0.18987150755635882,-0.016408725120165085,-0.054232143559045855
1930,8.0,299.46544,585.38829,0.0,0.0,0.0,-0.01957240728746411,0.0,0.0,-0.04241804357383496,-0.0869590345716885,-0.04856634486887505,-0.17646515495325482,-0.03216926503210927,-0.04379065802055146
1931,8.0,299.07266,569.10842,0.0,0.0,0.0,-0.01958254843113637,0.0,0.0,-0.03731468886842307,-0.06203845335046865,-0.07364160682386073,-0.1924100334293918,-0.05435656661832545,-0.057546319476379545
1932,8.0,300.22031,302.71855,0.0,0.0,0.0,-0.019592689574808635,0.0,0.0,-0.015152453063180686,-0.06754210162713643,-0.00932432420893915,-0.2121824742907798,-0.07096022585897903,-0.02260481534292158
1933,8.0,299.25552999999996,311.06804,0.0,0.0,0.0,-0.019602830718480894,0.0,0.0,-0.0004711894141902746,-0.04378854438084286,-0.050297183755945545,-0.17605408952018584,-0.030018313401826868,-0.005393855231607064
1934,8.0,300.0693,658.6926,0.0,0.0,0.0,-0.019612971862153158,0.0,0.0,-0.09503462570968732,-0.05486253609551074,-0.05032894104057975,-0.16998183365840083,-0.04179664869825806,0.02200248274147598
1935,8.0,300.04265,881.7226699999999,0.0,0.0,0.0,-0.019623113005825418,0.0,0.0,-0.08191044198118122,-0.10110036434682909,-0.08501086772366942,-0.1878131507732148,-0.017967504007754584,0.02667206507907787
1936,8.0,300.79152999999997,788.72614,0.0,0.0,0.0,-0.019633254149497677,0.0,0.0,-0.12107386239905987,-0.04779233223673596,-0.07088686148548853,-0.2116722826004278,-0.048690985776926154,0.03510834893467426
1937,8.0,299.08097000000004,515.34276,0.0,0.0,0.0,-0.01964339529316994,0.0,0.0,-0.029070911386075572,-0.05761774550242874,-0.06996267302952823,-0.19310225550020882,-0.03307273151027447,0.017092753037423383
1938,8.0,299.76628999999997,520.69178,0.0,0.0,0.0,-0.0196535364368422,0.0,0.0,-0.06058601303437394,-0.02886833938633327,-0.06882294702554603,-0.18948017010273682,-0.061030607926502035,0.012278895031332589
1939,8.0,300.56178,762.83563,0.0,0.0,0.0,-0.019663677580514464,0.0,0.0,-0.05762505306214995,-0.050555855360724454,-0.12370207103844388,-0.18669593108045382,-0.06920518650652013,0.02099230886877958
1940,8.0,300.323,564.1651099999999,0.0,0.0,0.0,-0.019673818724186724,0.0,0.0,-0.07911170740296763,-0.05479664038850735,-0.037583758445728165,-0.20007296022566382,-0.07999858900349602,0.023350805530295077
1941,8.0,299.9957,277.95451,0.0,0.0,0.0,-0.019683959867858983,0.0,0.0,0.0035859000072507767,-0.015333802539578487,-0.07274332717295744,-0.19058663921193683,-0.023875426915321178,0.01880685911234248
1942,8.0,300.73366,361.184,0.0,0.0,0.0,-0.019694101011531247,0.0,0.0,-0.06726283166107465,-0.04077550841972936,-0.0017525762427908083,-0.17020380635780782,-0.026791544491119576,-0.019311774809423782
1943,8.0,300.64689,735.36446,0.0,0.0,0.0,-0.019704242155203507,0.0,0.0,-0.04865912919378215,-0.0910605503997266,-0.08381275318267471,-0.2022400286120368,-0.020279184461649682,0.005723387468879364
1944,8.0,300.89195,799.97689,0.0,0.0,0.0,-0.019714383298875773,0.0,0.0,-0.08256311690059522,-0.07916734395270851,-0.08144253929700283,-0.18498749008684384,-0.045342209395177656,-0.004670841199526135
1945,8.0,299.76194,546.90788,0.0,0.0,0.0,-0.01972452444254803,0.0,0.0,0.000946123344787604,-0.09600510652296632,-0.07118735498814492,-0.19438694516949784,-0.02876696574032847,0.005138233205654135
1946,8.0,300.10668,412.44017,0.0,0.0,0.0,-0.01973466558622029,0.0,0.0,-0.03244085760216337,-0.057293829710460736,-0.035636824723080766,-0.18677220854798182,-0.039282784319408966,-0.02067966244442378
1947,8.0,299.35213,434.19784000000004,0.0,0.0,0.0,-0.019744806729892556,0.0,0.0,-0.002019375025296798,-0.06904187997465304,-0.06092404643998524,-0.2137032917633728,-0.06976229572950253,-0.012060199182748988
1948,8.0,300.04676,335.01832,0.0,0.0,0.0,-0.019754947873564816,0.0,0.0,-0.04618653753125636,-0.061305110550843346,0.005654445020150275,-0.2077201613803838,-0.07058715629140994,-0.060736015592428035
1949,8.0,299.60398,324.33151000000004,0.0,0.0,0.0,-0.01976508901723708,0.0,0.0,-0.003936432663445656,-0.05087073498830065,-0.04378151343839896,-0.20467609463495778,0.003138611085756797,-0.023694091624424776
1950,8.0,299.32727,215.79394,0.0,0.0,0.0,-0.019775230160909332,0.0,0.0,-0.02954490269010487,-0.03468931327631867,-0.0013617537228696288,-0.1943405180499158,-0.016858431859047684,-0.04730661661579955
1951,8.0,299.46626000000003,329.5749,0.0,0.0,0.0,-0.0197853713045816,0.0,0.0,-0.03503248487318707,-0.007168305416231663,-0.05798175053460324,-0.1922165634552978,-0.05125970447643895,-0.0008800478162889573
1952,8.0,301.2824,671.8421599999999,0.0,0.0,0.0,-0.019795512448253862,0.0,0.0,-0.11693476613806289,-0.03184655399451017,-0.055441924661691955,-0.18126275232174083,-0.06695883636607264,0.014229808800372787
1953,8.0,299.77816,817.98128,0.0,0.0,0.0,-0.019805653591926122,0.0,0.0,-0.09457954975852481,-0.06700907837228114,-0.08705725498338211,-0.1967405427667798,-0.04884540103916575,0.028056419041452976
1954,8.0,301.26829,817.4585,0.0,0.0,0.0,-0.019815794735598382,0.0,0.0,-0.1356325742083929,-0.058731337759831734,-0.054123059079780045,-0.17376493462926385,-0.05147691996662645,0.04603102998540896
1955,8.0,301.02577,598.3131099999999,0.0,0.0,0.0,-0.019825935879270642,0.0,0.0,-0.044991500230815364,-0.06718085162198384,-0.06969989472209404,-0.2097615360918518,-0.046564840535591956,-0.0002959427735422777
1956,8.0,300.13599999999997,492.60318,0.0,0.0,0.0,-0.0198360770229429,0.0,0.0,-0.05868917540992065,-0.04937147238508496,-0.04167841761033956,-0.17666814947828882,-0.03215847594504447,0.011410981472676189
1957,8.0,300.09685,441.40642,0.0,0.0,0.0,-0.019846218166615165,0.0,0.0,-0.02043777938055178,-0.025300514544966377,-0.08843823684942442,-0.19454399893499782,-0.019010903364480084,0.005491783725946855
1958,8.0,300.57807,276.22008,0.0,0.0,0.0,-0.019856359310287425,0.0,0.0,-0.03563632823053176,-0.03744792213732216,-0.010879756736748389,-0.18217714974198482,-0.03076675970744277,-0.012123149371711689
1959,8.0,300.3513,111.61005,0.0,0.0,0.0,-0.019866500453959688,0.0,0.0,-0.004776857760139155,-0.0025045698356817975,-0.026645241309180577,-0.21006779093457678,-0.057396375686831244,-0.02890548006874877
1960,8.0,300.22915,170.80334,0.0,0.0,0.0,-0.019876641597631948,0.0,0.0,-0.03165885549298577,-0.025082096326910178,0.004821001115320765,-0.19399495923581184,-0.06954045373935842,-0.030068670918546772
1961,8.0,298.92646,461.00673,0.0,0.0,0.0,-0.019886782741304208,0.0,0.0,-0.015526787166874586,-0.07790751032162263,-0.04670023608020445,-0.1980406034400858,-0.041686248007112355,-0.04533260783723005
1962,8.0,299.19971,764.92634,0.0,0.0,0.0,-0.01989692388497647,0.0,0.0,-0.07628467477596122,-0.06956725116475314,-0.08666658222182573,-0.2006551230706188,-0.06795679550881353,-0.013911925899500186
1963,8.0,300.45086000000003,703.3426400000001,0.0,0.0,0.0,-0.01990706502864873,0.0,0.0,-0.05049833315254745,-0.09443107720812172,-0.06886919074685993,-0.19068642408178482,-0.07023768734517002,-0.006985746119214463
1964,8.0,300.5533,342.30137,0.0,0.0,0.0,-0.019917206172320994,0.0,0.0,-0.02052494219390408,-0.06305401670044694,-0.020472110320439982,-0.19091298680414484,-0.055723481533229445,-0.01028657479695589
1965,8.0,299.9163,390.98026,0.0,0.0,0.0,-0.019927347315993254,0.0,0.0,-0.016451670712403485,-0.05236224724150146,-0.05003431729575265,-0.14592168314384887,-0.028871898933934576,0.02205318476322988
1966,8.0,300.6315,759.7198,0.0,0.0,0.0,-0.019937488459665514,0.0,0.0,-0.07914026484378602,-0.1017165095736379,-0.05007906951291936,-0.17742576671055985,-0.04662933795745736,-0.014938480986563286
1967,8.0,301.01432,595.06799,0.0,0.0,0.0,-0.019947629603337777,0.0,0.0,-0.04984437849825715,-0.039158024861096166,-0.09188340675293623,-0.17055951793791385,-0.04102461899656466,0.019707183501947584
1968,8.0,301.6544,205.37309,0.0,0.0,0.0,-0.019957770747010037,0.0,0.0,-0.033021388101207264,-0.018695125997315282,-0.01071177709542009,-0.2100131159591808,-0.04005647372476616,-0.022772824368502777
1969,8.0,300.83072000000004,278.30283,0.0,0.0,0.0,-0.0199679118906823,0.0,0.0,-0.01123337291564759,-0.015018530784213587,-0.05834520841172374,-0.21082343232915282,-0.017055773461773786,0.024864818015216474
1970,8.0,300.06563,574.68982,0.0,0.0,0.0,-0.01997805303435456,0.0,0.0,-0.1029476388426409,-0.02753241675223797,-0.044211298667065455,-0.24248828828923077,-0.043771137757374956,-0.006684487612732563
1971,8.0,299.56588,850.22289,0.0,0.0,0.0,-0.01998819417802682,0.0,0.0,-0.1045538125036579,-0.06400710406250934,-0.08988561395476942,-0.2201162935012868,-0.07038099434656334,0.018699347197231878
1972,8.0,301.14934,926.17065,0.0,0.0,0.0,-0.019998335321699083,0.0,0.0,-0.14973887998057686,-0.07146511217180743,-0.06032876099298514,-0.2021523318158818,-0.06626864586170614,0.013319671083549187
1973,8.0,299.75635,638.63663,0.0,0.0,0.0,-0.020008476465371343,0.0,0.0,-0.031208877203076368,-0.06087472851786794,-0.10204598810865491,-0.15030364532131485,-0.04509536849856636,0.007972743821048553
1974,8.0,300.23197000000005,508.53175999999996,0.0,0.0,0.0,-0.02001861760904361,0.0,0.0,-0.06429941658385835,-0.07183574689938622,-0.018445792505457984,-0.14811647405295786,-0.05455369746503074,0.007074451707169024
1975,8.0,300.15237,670.91903,0.0,0.0,0.0,-0.020028758752715866,0.0,0.0,-0.006967797710918093,-0.07676717636758043,-0.12020765515357187,-0.15027480822346886,-0.04498824871124446,0.01061225769709829
1976,8.0,299.81461,703.5369900000001,0.0,0.0,0.0,-0.020038899896388126,0.0,0.0,-0.07424184909035003,-0.09099679872993481,-0.048619029821074654,-0.1905729907330898,-0.03086013881015857,-0.009175711222072192
1977,8.0,299.04994,306.69746000000004,0.0,0.0,0.0,-0.020049041040060393,0.0,0.0,0.026626005769282177,-0.07120784695816733,-0.04864652841553855,-0.18538001304308283,-0.026527560416066378,-0.008142658263442803
1978,8.0,299.03197,-29.030692,0.0,0.0,0.0,-0.020059182183732652,0.0,0.0,0.026208418045319475,-0.043791573998641864,0.026407761830243175,-0.23695105887774875,-0.05219337087383465,-0.03802650111667347
1979,8.0,299.50905,457.76525,0.0,0.0,0.0,-0.020069323327404912,0.0,0.0,-0.00025354061773001077,-0.08267847643773032,-0.05621718764445445,-0.2183870200856208,-0.08507762266675761,-0.03521054736626047
1980,8.0,300.17442,731.60556,0.0,0.0,0.0,-0.020079464471077176,0.0,0.0,-0.09193130713816361,-0.06736740008464473,-0.06309111583960834,-0.22301137195200876,-0.04438884642908805,-0.043075431119464054
1981,8.0,301.04187,529.2528599999999,0.0,0.0,0.0,-0.020089605614749435,0.0,0.0,-0.027677210191527975,-0.05967832029004165,-0.07352412452776613,-0.20675448337257882,-0.02413316227700768,-0.01138522060213379
1982,8.0,301.12051,426.19613,0.0,0.0,0.0,-0.020099746758421695,0.0,0.0,-0.06548661335502554,-0.039174774898499264,-0.024891592135858877,-0.1941028602389608,-0.03428407909757517,-0.02405091676639068
1983,8.0,300.51235,647.68598,0.0,0.0,0.0,-0.020109887902093955,0.0,0.0,-0.07557356065702973,-0.03320078909766277,-0.08810601645963682,-0.2027014120450718,-0.05347286763636115,0.042736454378009665
1984,8.0,300.1632,873.6767199999999,0.0,0.0,0.0,-0.02012002904576622,0.0,0.0,-0.11813552830156888,-0.06397866517195265,-0.08346171876503032,-0.16673405298036983,-0.04670175190235405,0.02051687064360748
1985,8.0,300.13391,907.60653,0.0,0.0,0.0,-0.020130170189438478,0.0,0.0,-0.0980775910522546,-0.05286840416995525,-0.12494372797598588,-0.17456491584821585,-0.06214021912426214,0.049019893852136856
1986,8.0,299.53359,544.8670400000001,0.0,0.0,0.0,-0.020140311333110738,0.0,0.0,-0.06928912617130434,-0.04044826612768306,-0.05588858354427374,-0.17514939903589982,-0.047862138075875256,0.03467894874104577
1987,8.0,299.80125,247.28812000000002,0.0,0.0,0.0,-0.020150452476783,0.0,0.0,0.007195518071517343,-0.035113448622427566,-0.04725148365135836,-0.20685607182760482,-0.07343541752126144,0.017978415698081483
1988,8.0,300.05076,423.19015999999993,0.0,0.0,0.0,-0.02016059362045526,0.0,0.0,-0.06899930523195123,-0.023395182844924776,-0.036244754518078764,-0.1906462588478208,-0.03949044587440356,0.03149572931963647
1989,8.0,299.24471,660.02614,0.0,0.0,0.0,-0.020170734764127524,0.0,0.0,-0.06867661243285393,-0.059428595683645745,-0.07252625860403443,-0.20765596185404778,-0.04026915897375656,-0.00993978792373069
1990,8.0,299.87108,469.03668,0.0,0.0,0.0,-0.020180875907799784,0.0,0.0,-0.055761127827444856,-0.04745113951731286,-0.03936317051609246,-0.20423660753658382,-0.041295354357034166,-0.0021154108697747976
1991,8.0,300.98531,322.50065,0.0,0.0,0.0,-0.020191017051472044,0.0,0.0,-0.017793963649877485,-0.04153171318136096,-0.038706468940781065,-0.1893618528885598,-0.04935860106906466,-0.047630204114735154
1992,8.0,300.64769,503.05055999999996,0.0,0.0,0.0,-0.020201158195144307,0.0,0.0,-0.04807987336336405,-0.06256451557713694,-0.04227042114026576,-0.19387734116420383,-0.018204706869414684,-0.006970727320932223
1993,8.0,299.14059,618.0197,0.0,0.0,0.0,-0.020211299338816567,0.0,0.0,-0.03916575291960886,-0.06791320244976123,-0.08078360046547062,-0.18131204693910583,-0.040723179118314856,-0.03641793618542047
1994,8.0,299.54329,473.05136,0.0,0.0,0.0,-0.02022144048248883,0.0,0.0,-0.03723227313178926,-0.060111771457569935,-0.04645175675818146,-0.2176619281815598,-0.03755737138662396,0.004705678865789345
1995,8.0,299.29389,151.92478,0.0,0.0,0.0,-0.02023158162616109,0.0,0.0,0.0011465114359268688,-0.03214072380329247,-0.015187125468352587,-0.1955263449069478,-0.07025504634588324,-0.011245935190387388
1996,8.0,299.37363,183.75878,0.0,0.0,0.0,-0.02024172276983335,0.0,0.0,-0.002959667875696477,-0.030788116993050573,-0.022110295591866277,-0.17950997150375483,-0.05381656612328155,0.0004981890032449266
1997,8.0,299.07837,280.22751,0.0,0.0,0.0,-0.020251863913505613,0.0,0.0,-0.0025318126858204573,-0.04095553256499636,-0.04169482111620846,-0.14296161483171285,-0.061436370008547646,-0.008327193904780053
1998,8.0,298.62796000000003,572.25006,0.0,0.0,0.0,-0.020262005057177873,0.0,0.0,-0.03381866191589207,-0.09228717273228482,-0.047843895521074854,-0.17892222565074883,-0.055416327937665745,-0.020301343228086584
1999,8.0,299.00082000000003,667.04958,0.0,0.0,0.0,-0.020272146200850136,0.0,0.0,-0.056506583018765544,-0.06086311565847184,-0.08539671944125,-0.18825874776969181,-0.05043997096003755,-0.015468716790393487
2000,8.0,300.61715,549.65833,0.0,0.0,0.0,-0.020282287344522396,0.0,0.0,-0.08450260830125812,-0.05252336413990245,-0.030056435923589267,-0.2326226165705648,-0.034681807119577863,0.0011155425611954787
2001,8.0,300.46607,332.96707000000004,0.0,0.0,0.0,-0.020292428488194656,0.0,0.0,-0.058250753237401746,-0.012402228846754688,-0.03056069300810557,-0.20576670638009278,-0.03924668829784656,0.009487477334741111
2002,8.0,300.1076,635.39837,0.0,0.0,0.0,-0.02030256963186692,0.0,0.0,-0.10927429140703289,-0.025382432775801076,-0.05848851338661685,-0.22585512928516577,-0.038396364760926165,0.03179437364086037
2003,8.0,299.87966,799.1602,0.0,0.0,0.0,-0.02031271077553918,0.0,0.0,-0.09135414062945171,-0.04980877795599366,-0.10176182211810991,-0.1894142379187298,-0.05602276724176664,0.036680386199822265
2004,8.0,299.02938,701.63528,0.0,0.0,0.0,-0.020322851919211446,0.0,0.0,-0.08021063793142363,-0.06609309521563064,-0.06697587214000393,-0.20483801200093782,-0.049128321745337857,0.018846632218517782
2005,8.0,300.18939,569.63252,0.0,0.0,0.0,-0.020332993062883706,0.0,0.0,-0.053542498183233145,-0.06626224110782404,-0.05334932407816835,-0.16247223186726084,-0.04474247679348866,-0.019936678570096983
2006,8.0,300.42952,524.52445,0.0,0.0,0.0,-0.020343134206555962,0.0,0.0,-0.09134195325724892,-0.032583766396267366,-0.03551661577096706,-0.17606734283149383,-0.04877778584674265,0.0007667405057738962
2007,8.0,300.3504,586.543,0.0,0.0,0.0,-0.020353275350228222,0.0,0.0,-0.035781158146825365,-0.08899217155984351,-0.053521096314620945,-0.15698898842110684,-0.04609394369736805,-0.02740359314777407
2008,8.0,300.75948,515.9784400000001,0.0,0.0,0.0,-0.020363416493900482,0.0,0.0,-0.06043018124849454,-0.06074722213853404,-0.03566715940457457,-0.2081069898710608,-0.03677729546588646,-0.010658317006893991
2009,8.0,301.82604,375.83331,0.0,0.0,0.0,-0.02037355763757275,0.0,0.0,0.012347439374097387,-0.0915611212803791,-0.035030259775967465,-0.17747302469522383,-0.05126409184937195,-0.03311696899639037
2010,8.0,300.88756,23.632706,0.0,0.0,0.0,-0.02038369878124501,0.0,0.0,0.03555118077162837,-0.024468050554308576,-0.018266881922050882,-0.21720475986894078,-0.034517648444376665,-0.03552767640905867
2011,8.0,299.90701,254.61463999999998,0.0,0.0,0.0,-0.020393839924917265,0.0,0.0,0.015591788174039682,-0.05900326470241885,-0.03398501427755977,-0.19612752645627982,-0.06944047533874134,-0.02357441969486408
2012,8.0,299.45225,563.11295,0.0,0.0,0.0,-0.02040398106858953,0.0,0.0,-0.06510945532330294,-0.059645030971256244,-0.046417790588329254,-0.2128846059475748,-0.05314150850915854,-0.018539573868463482
2013,8.0,299.54638,529.55489,0.0,0.0,0.0,-0.02041412221226179,0.0,0.0,-0.03444821852102446,-0.06480850383160133,-0.06171474020852065,-0.18677150940541284,-0.028397723218387072,-0.00988251629230342
2014,8.0,299.76448999999997,432.4806,0.0,0.0,0.0,-0.020424263355934055,0.0,0.0,-0.05212422972676095,-0.027912643918513474,-0.051426429714143455,-0.17511912312291184,-0.024867406869221977,-0.008328830405016563
2015,8.0,300.0888,731.8070799999999,0.0,0.0,0.0,-0.020434404499606314,0.0,0.0,-0.060141266154730845,-0.06386779737251085,-0.09844201556997051,-0.19570460599704081,-0.030252365055675974,0.026414545539662677
2016,8.0,300.50104,884.9530699999999,0.0,0.0,0.0,-0.020444545643278574,0.0,0.0,-0.08330387365120222,-0.09401402346696172,-0.09168573787042782,-0.1969689800018248,-0.01835803288779678,0.0004094371604233016
2017,8.0,300.00081,607.85384,0.0,0.0,0.0,-0.020454686786950838,0.0,0.0,-0.05632002442360365,-0.07089512656655424,-0.057557238259457154,-0.2206711593885478,-0.05225082316775475,0.013258374518749685
2018,8.0,301.54443,417.10193,0.0,0.0,0.0,-0.020464827930623097,0.0,0.0,-0.04812365792668526,-0.048584651258431755,-0.030080261486440673,-0.20964127343748282,-0.05545662793389305,0.007302794000679654
2019,8.0,301.17868,351.43786,0.0,0.0,0.0,-0.02047496907429536,0.0,0.0,-0.053919005708391546,-0.005876618039102045,-0.04703271079576716,-0.20109477228900882,-0.07341413724266123,0.025863120649741275
2020,8.0,301.19991,602.12271,0.0,0.0,0.0,-0.02048511021796762,0.0,0.0,-0.08076650794953373,-0.057145220371294145,-0.04511854051510326,-0.17432415749195485,-0.06184502491962874,0.025182116270781374
2021,8.0,301.94065,764.18161,0.0,0.0,0.0,-0.02049525136163988,0.0,0.0,-0.06560542807500164,-0.07296169371525853,-0.09372500704818801,-0.1826279953739798,-0.030694519028313175,0.007661989539929492
2022,8.0,300.71714,700.88965,0.0,0.0,0.0,-0.020505392505312144,0.0,0.0,-0.06448942630886084,-0.054542796920454946,-0.0940207291561235,-0.17569332182208083,-0.03914742829155036,0.03404437249491797
2023,8.0,300.01606,655.99107,0.0,0.0,0.0,-0.020515533648984403,0.0,0.0,-0.04988083219710485,-0.07735953858804202,-0.07216453439783503,-0.21185454602841583,-0.04154296532372146,-0.008676371541616202
2024,8.0,299.64544,707.69807,0.0,0.0,0.0,-0.020525674792656667,0.0,0.0,-0.08343295968744201,-0.03837685868325107,-0.09331272267524872,-0.20583318571915382,-0.026819966156424572,0.014037115989105486
2025,8.0,299.31549,765.43286,0.0,0.0,0.0,-0.020535815936328927,0.0,0.0,-0.06312691599214154,-0.1031318983733259,-0.06641366424251835,-0.23263542405182877,-0.031673175756649075,-0.03586188884854286
2026,8.0,299.57777999999996,381.14687000000004,0.0,0.0,0.0,-0.020545957080001186,0.0,0.0,-0.02532434922706868,-0.04805034320244966,-0.042484439826387756,-0.2145841911353108,-0.042750344010380456,0.0028071672508458378
2027,8.0,300.38341,68.076234,0.0,0.0,0.0,-0.02055609822367345,0.0,0.0,0.026317210708556478,-0.03672851861932257,-0.010282168172270989,-0.19237167178060582,-0.05597389109669295,-0.047598753844881256
2028,8.0,299.90664,212.91486,0.0,0.0,0.0,-0.02056623936734571,0.0,0.0,-0.0091747993983072,-0.049223950263275654,-0.006322050179787774,-0.16852363504198783,-0.03630375505815167,-0.006096857675538004
2029,8.0,300.63383,369.51108999999997,0.0,0.0,0.0,-0.020576380511017973,0.0,0.0,-0.020411192711177882,-0.06919895197865485,-0.02271199795174968,-0.16900778620476986,-0.044397370902179364,-0.05056746923337065
2030,8.0,299.34494,448.32142999999996,0.0,0.0,0.0,-0.020586521654690233,0.0,0.0,-0.020156278237769783,-0.06851552694520603,-0.047606713937666856,-0.17746522266945383,-0.06407360164007214,0.0024270645116826178
2031,8.0,299.69633999999996,670.2273,0.0,0.0,0.0,-0.020596662798362492,0.0,0.0,-0.08144479783147572,-0.061684938496579446,-0.06060262932276385,-0.18254848563863282,-0.06685464183178944,0.00033716474630056967
2032,8.0,300.04804,869.3852199999999,0.0,0.0,0.0,-0.020606803942034756,0.0,0.0,-0.1011366751774127,-0.06951214353156443,-0.09362257962207922,-0.2086028643374998,-0.05467345552084995,0.040748820425345465
2033,8.0,299.29524,634.8534,0.0,0.0,0.0,-0.020616945085707016,0.0,0.0,-0.05801697921408004,-0.05112266544016425,-0.08383993564310742,-0.2235479790724678,-0.027192764172966875,0.0036860962566393762
2034,8.0,299.79462,790.8973599999999,0.0,0.0,0.0,-0.020627086229379275,0.0,0.0,-0.07791779987638812,-0.06632032972280694,-0.0961749191337255,-0.23989149040294677,-0.05297160470589035,0.040895823763103564
2035,8.0,300.43646,674.64498,0.0,0.0,0.0,-0.020637227373051535,0.0,0.0,-0.09193593262487011,-0.01917370529779738,-0.09396559011218171,-0.2248126570522818,-0.03104435071808887,0.05064626766714745
2036,8.0,300.65708,550.70673,0.0,0.0,0.0,-0.020647368516723795,0.0,0.0,-0.0866972918058565,-0.039127490569332665,-0.041576313411012665,-0.2008714317019668,-0.03634303775127857,0.01715935903274688
2037,8.0,300.8079,463.6592,0.0,0.0,0.0,-0.02065750966039606,0.0,0.0,-0.07895415207866813,-0.02924533529803987,-0.032741331853067865,-0.16637068122950785,-0.01958166815906018,-0.0027489071939460178
2038,8.0,300.80442,522.35215,0.0,0.0,0.0,-0.020667650804068318,0.0,0.0,-0.06112763878257824,-0.05849220972298165,-0.03916216297450457,-0.16533702427249383,-0.06916422485797753,-0.008203872248359154
2039,8.0,300.74602000000004,499.36728,0.0,0.0,0.0,-0.020677791947740585,0.0,0.0,-0.04536365686004436,-0.062132583271508536,-0.04429894378746536,-0.17457555497426583,-0.057902356309767644,-0.027313160576349076
2040,8.0,299.72377,575.56778,0.0,0.0,0.0,-0.020687933091412845,0.0,0.0,-0.06861735554050573,-0.054892245601692854,-0.05144863306358475,-0.2045654173265348,-0.07384429737386473,-0.01041881204100669
2041,8.0,299.48939,623.2292,0.0,0.0,0.0,-0.0206980742350851,0.0,0.0,-0.027166857394410077,-0.1079837046221619,-0.05429554971055355,-0.23399429376093875,-0.06363952833698244,-0.02120919707918478
2042,8.0,299.73001,379.2396,0.0,0.0,0.0,-0.020708215378757368,0.0,0.0,-0.02293811383081558,-0.05267678641704405,-0.039664468539328264,-0.2189734385809958,-0.08439082553697602,-0.014558231528785586
2043,8.0,299.63636,447.71610999999996,0.0,0.0,0.0,-0.020718356522429628,0.0,0.0,-0.013342947464846388,-0.07098150715082933,-0.051770064366307544,-0.2178936990094338,-0.05555926104977215,-0.015457880080573985
2044,8.0,300.31248,524.262,0.0,0.0,0.0,-0.02072849766610189,0.0,0.0,-0.06224624054847565,-0.06406566687853904,-0.03305064975084517,-0.17941550619693183,-0.04977991248714486,-0.013364988694271685
2045,8.0,300.86751,369.77162000000004,0.0,0.0,0.0,-0.02073863880977415,0.0,0.0,-0.028670260137534372,-0.06057897195942904,-0.02315210819893518,-0.1728903376729478,-0.021889627958588082,-0.021755568890857477
2046,8.0,300.12102999999996,95.801361,0.0,0.0,0.0,-0.02074877995344641,0.0,0.0,0.0033301329852085367,-0.029125809276493574,-0.0033255456980308064,-0.19625121389598682,-0.042169772981332565,-0.028281304834897474
2047,8.0,300.04812999999996,476.15315,0.0,0.0,0.0,-0.020758921097118674,0.0,0.0,-0.039480038782626466,-0.05887231529924515,-0.04638631498722286,-0.2092881963076368,-0.03037516488829537,-0.007612460963116403
2048,8.0,300.49273999999997,763.12153,0.0,0.0,0.0,-0.020769062240790934,0.0,0.0,-0.0987317139060615,-0.054584754593845854,-0.07865342350198852,-0.20959634592804882,-0.03394622199748126,-0.005600043318306244
2049,8.0,299.24298,588.1193400000001,0.0,0.0,0.0,-0.020779203384463197,0.0,0.0,-0.06917034184883124,-0.06654243819772734,-0.043060814986771556,-0.2279650402333978,-0.03185926825676497,0.001194963231858689
2050,8.0,298.64544,515.21007,0.0,0.0,0.0,-0.020789344528135457,0.0,0.0,-0.05723582418198604,-0.03549107173594607,-0.06388410157986994,-0.2032664813608398,-0.07261643988943464,0.013757574472016887
2051,8.0,299.18473,635.25961,0.0,0.0,0.0,-0.020799485671807717,0.0,0.0,-0.06783013721981335,-0.043931759176477056,-0.08134116058474752,-0.21846813075612578,-0.05618149489643185,0.034395797013850864
2052,8.0,298.99667999999997,605.5247400000001,0.0,0.0,0.0,-0.02080962681547998,0.0,0.0,-0.05672709866452875,-0.05242763531020475,-0.07490966804575863,-0.16200622801376988,-0.06058346876337284,0.014217572792165185
2053,8.0,299.3472,527.52387,0.0,0.0,0.0,-0.02081976795915224,0.0,0.0,-0.060945770522129246,-0.03515704674773036,-0.06425126592585624,-0.20778268904405478,-0.04071555846431276,0.025055775129062475
2054,8.0,300.66096,483.48625,0.0,0.0,0.0,-0.020829909102824503,0.0,0.0,-0.04805474273438386,-0.03685920457747026,-0.06205380003648324,-0.18207804374970382,-0.06081460934968465,0.009331683039115411
2055,8.0,300.64358,275.35657000000003,0.0,0.0,0.0,-0.020840050246496763,0.0,0.0,-0.026488019344163977,-0.02660056305927118,-0.03061293922301187,-0.2229121950322208,-0.044965570147506254,0.015845290176808382
2056,8.0,299.98124,438.55445,0.0,0.0,0.0,-0.020850191390169023,0.0,0.0,-0.06789383518734984,-0.036980298096921264,-0.02843546982436237,-0.17928019677857782,-0.02921496920579297,-0.002176523631006158
2057,8.0,300.78693,728.56057,0.0,0.0,0.0,-0.020860332533841286,0.0,0.0,-0.07072325604484193,-0.10043384437804871,-0.050307119686426156,-0.22715041755050078,-0.030860776144471472,-0.04377064126482596
2058,8.0,299.78887000000003,514.8,0.0,0.0,0.0,-0.020870473677513546,0.0,0.0,-0.03366742825896647,-0.05578783102058025,-0.06703108616445315,-0.2073625651550918,-0.05129958904012525,-0.016850223519987585
2059,8.0,298.91013,326.73399,0.0,0.0,0.0,-0.020880614821185806,0.0,0.0,0.0013820412190218487,-0.07441038500598322,-0.02629062910543308,-0.2245115292550628,-0.023780436744946377,-0.05097754877409236
2060,8.0,299.71982,486.16740999999996,0.0,0.0,0.0,-0.02089075596485807,0.0,0.0,-0.03203133534899667,-0.04503587855869516,-0.07071553811883023,-0.16808379330607884,-0.04069605846613826,0.00036461733920992964
2061,8.0,300.69591,581.35249,0.0,0.0,0.0,-0.02090089710853033,0.0,0.0,-0.04985568028987255,-0.07144669939099023,-0.05541426293396195,-0.17859098406055784,-0.02123399637538228,-0.02289013643858058
2062,8.0,300.43577999999997,325.08693999999997,0.0,0.0,0.0,-0.02091103825220259,0.0,0.0,-0.01967566838408728,-0.046034485168249956,-0.03310815777352077,-0.18309316836238884,-0.06992153406221813,0.015855993137614686
2063,8.0,300.14699,383.77768,0.0,0.0,0.0,-0.02092117939587485,0.0,0.0,-0.030845881368001468,-0.035640467357190266,-0.050172482052888455,-0.1993700281012898,-0.05681564456426755,-0.014675247729834185
2064,8.0,300.00411,694.84942,0.0,0.0,0.0,-0.02093132053954711,0.0,0.0,-0.05959276753109824,-0.07558375699278602,-0.07604034775284803,-0.2047952021842128,-0.05654663476871835,0.03026651509332247
2065,8.0,300.65803999999997,752.59294,0.0,0.0,0.0,-0.02094146168321937,0.0,0.0,-0.09525808687349122,-0.07202291040485784,-0.06148846524918904,-0.2100121432390848,-0.05707801250541124,-0.01674827130817568
2066,8.0,300.55319,809.74136,0.0,0.0,0.0,-0.02095160282689163,0.0,0.0,-0.08546463658220291,-0.08429540068230831,-0.07638111693372933,-0.23731732852389678,-0.08006033038508943,0.012671122118542388
2067,8.0,300.49863,550.6504,0.0,0.0,0.0,-0.020961743970563895,0.0,0.0,-0.07846586989522843,-0.04811117873845366,-0.040806922212579665,-0.23410693677455574,-0.044975764456762365,0.024295962183824776
2068,8.0,299.62489,418.67132000000004,0.0,0.0,0.0,-0.020971885114236154,0.0,0.0,-0.046499991515941856,-0.025432384992480975,-0.05533325054871665,-0.18796557398575783,-0.03980351685055126,0.02006491448950288
2069,8.0,299.38442000000003,529.61821,0.0,0.0,0.0,-0.02098202625790842,0.0,0.0,-0.06821382260868014,-0.03330502720170027,-0.059471863489415945,-0.1975774468193758,-0.01999012649962188,7.648239229447443e-05
2070,8.0,300.03397,738.00455,0.0,0.0,0.0,-0.02099216740158068,0.0,0.0,-0.06931954191280613,-0.06204720681808254,-0.09296820548224752,-0.1994704310536988,-0.042676673635359756,-0.0008172370404075163
2071,8.0,300.59024,499.85542000000004,0.0,0.0,0.0,-0.02100230854525294,0.0,0.0,-0.03639267484717736,-0.031329399249470966,-0.08422149219351412,-0.21009763115002178,-0.05439153185277625,0.03261343334594527
2072,8.0,299.72335,318.17679,0.0,0.0,0.0,-0.021012449688925204,0.0,0.0,-0.01184468291297919,-0.04208168101763856,-0.042791433328435664,-0.2053306947295618,-0.04763601814380895,-0.016400469158350285
2073,8.0,299.9263,553.37409,0.0,0.0,0.0,-0.021022590832597464,0.0,0.0,-0.06858260106207573,-0.05052915014108885,-0.049100153392557855,-0.19118671631865983,-0.05971288529070294,0.016808899127909182
2074,8.0,299.51878999999997,628.93716,0.0,0.0,0.0,-0.021032731976269727,0.0,0.0,-0.05018210995533865,-0.09072600662745972,-0.050273077522816456,-0.1960797922440688,-0.08292666293047442,-0.026148983834203776
2075,8.0,300.04392,483.25670999999994,0.0,0.0,0.0,-0.021042873119941987,0.0,0.0,-0.04221644024118826,-0.08863817946515722,-0.016043353213605685,-0.1952881602059408,-0.059731001189240844,-0.016058528660353382
2076,8.0,300.70446,457.53122,0.0,0.0,0.0,-0.021053014263614247,0.0,0.0,-0.04548544445581386,-0.05581527895253915,-0.037777343930333565,-0.20260662249821682,-0.062331527835892846,-0.02338059305673488
2077,8.0,301.92517999999995,499.86596,0.0,0.0,0.0,-0.02106315540728651,0.0,0.0,-0.054358724841038444,-0.06635650984412764,-0.03123153347531237,-0.18059596282843382,-0.022149959267030776,-0.02056472036632988
2078,8.0,299.92689,414.27682999999996,0.0,0.0,0.0,-0.02107329655095877,0.0,0.0,-0.02104191556717538,-0.04398561240604196,-0.060902284867587544,-0.2057610017820298,-0.035091922124053064,-0.026396979835929077
2079,8.0,300.48055,606.86989,0.0,0.0,0.0,-0.021083437694631033,0.0,0.0,-0.07387478910912403,-0.04221948100473836,-0.06837902189173403,-0.2045914679866058,-0.017834425766120782,-0.013493867014240988
2080,8.0,299.64156,564.06945,0.0,0.0,0.0,-0.021093578838303293,0.0,0.0,-0.030128944100745268,-0.05576680506775515,-0.08556727881733292,-0.23965066111917877,-0.03564115130100776,0.0060326935116304945
2081,8.0,299.79544,415.62087,0.0,0.0,0.0,-0.021103719981975553,0.0,0.0,-0.025193139418619274,-0.03687240823952336,-0.06427281876873334,-0.23547129829920777,-0.04669156367259855,0.0014383954538085785
2082,8.0,298.89659,474.68197000000004,0.0,0.0,0.0,-0.021113861125647816,0.0,0.0,-0.04196619279774076,-0.04697934291300016,-0.05534593137371815,-0.21395773912848481,-0.06895355597668613,0.0089466732310429
2083,8.0,299.18262999999996,588.14272,0.0,0.0,0.0,-0.021124002269320076,0.0,0.0,-0.06893838559618894,-0.026590154954243973,-0.08325215939259842,-0.2018037028539748,-0.08408454637624863,0.04270634058503766
2084,8.0,299.383,526.39669,0.0,0.0,0.0,-0.02113414341299234,0.0,0.0,-0.07101736911161864,-0.034006519497682165,-0.054987563051849944,-0.2140424063068408,-0.04861749880017355,0.020591147955438083
2085,8.0,300.06588,533.69602,0.0,0.0,0.0,-0.0211442845566646,0.0,0.0,-0.08892342558030882,-0.042151905329069164,-0.03115493278100247,-0.2103007877950718,-0.04575270740819066,0.02613375772495108
2086,8.0,300.2081,697.39676,0.0,0.0,0.0,-0.02115442570033686,0.0,0.0,-0.09763165664349431,-0.03747098573609837,-0.07688855663680973,-0.1905930834825728,-0.03247007770854717,0.0005761726522188135
2087,8.0,300.97496,743.47585,0.0,0.0,0.0,-0.02116456684400912,0.0,0.0,-0.07250985611141564,-0.06966213089086704,-0.08382610883224283,-0.1980231046108588,-0.04607079093258305,0.024759785523100576
2088,8.0,300.11469,647.96431,0.0,0.0,0.0,-0.021174707987681382,0.0,0.0,-0.056530396422615745,-0.05709673128775864,-0.08333784184755462,-0.2060762948156468,-0.04266060855502426,-0.022723060616341478
2089,8.0,300.46259,629.19214,0.0,0.0,0.0,-0.021184849131353642,0.0,0.0,-0.07311842526722673,-0.04801587142079755,-0.07012440294423973,-0.2209162747202388,-0.033319911845669264,0.006607088376018854
2090,8.0,300.79302,372.92753,0.0,0.0,0.0,-0.0211949902750259,0.0,0.0,-0.00941098748999215,-0.05984191559818724,-0.04410775463934646,-0.2396089354800608,-0.023482121730004975,-0.035925728671093365
2091,8.0,300.05421,40.442892,0.0,0.0,0.0,-0.02120513141869816,0.0,0.0,-3.601498283265207e-05,-0.027144640872717472,0.014887026119985087,-0.2012092796828098,-0.02224871163502688,-0.016584516919764383
2092,8.0,299.44826,294.54661,0.0,0.0,0.0,-0.021215272562370425,0.0,0.0,0.029164951127856574,-0.07385801171396823,-0.044841754025036554,-0.22597602015459678,-0.03942933878737276,-0.038685553432216864
2093,8.0,299.20446,454.58207000000004,0.0,0.0,0.0,-0.021225413706042685,0.0,0.0,-0.03864828204053847,-0.06815831372845184,-0.03137500158347157,-0.19351018999046882,-0.05618609505188585,-0.035780633283273564
2094,8.0,299.42544,351.02033,0.0,0.0,0.0,-0.021235554849714948,0.0,0.0,-0.006060042145079594,-0.054981849334536044,-0.04565952386274416,-0.19142740374741382,-0.08308864311796062,-0.03765308805732047
2095,8.0,299.69567,419.71283,0.0,0.0,0.0,-0.021245695993387208,0.0,0.0,-0.02593703116503568,-0.06186488563483884,-0.039780302277510164,-0.16090340660492983,-0.09155508332303322,-0.006197921773637254
2096,8.0,299.50262000000004,523.86025,0.0,0.0,0.0,-0.021255837137059468,0.0,0.0,-0.04614263644417366,-0.046006676519255454,-0.06709112427262844,-0.1821711107713888,-0.06796956347332364,0.0026680556114915877
2097,8.0,299.56861000000004,793.21702,0.0,0.0,0.0,-0.021265978280731734,0.0,0.0,-0.09693598850908722,-0.07360789295328343,-0.07057428700188983,-0.2166393257831368,-0.06076949844198254,-0.005102426669645305
2098,8.0,300.02211,762.20673,0.0,0.0,0.0,-0.02127611942440399,0.0,0.0,-0.05480357203244145,-0.07776569482437652,-0.09912254676113372,-0.22824809164883278,-0.026800655636018772,-0.007499696156837383
2099,8.0,299.82097000000005,547.5828700000001,0.0,0.0,0.0,-0.021286260568076257,0.0,0.0,-0.05828538511256965,-0.041694487756925566,-0.06647164646624074,-0.2189241034336268,-0.03804207882371086,0.023903332836325276
2100,8.0,300.34461,394.24925,0.0,0.0,0.0,-0.021296401711748517,0.0,0.0,-0.007950596808312812,-0.03929423100578867,-0.07259709897152584,-0.2054622449900448,-0.0018909222703694982,-0.000901276409001556
2101,8.0,299.36952,504.33718,0.0,0.0,0.0,-0.021306542855420777,0.0,0.0,-0.07083566195793552,-0.030918640831182266,-0.051551607644747546,-0.20804638738257977,-0.05147756439369005,0.01031860768561729
2102,8.0,299.06394,716.53801,0.0,0.0,0.0,-0.02131668399909304,0.0,0.0,-0.06839338876490193,-0.06073372868695235,-0.08868254563403583,-0.2272074432661288,-0.06924559897350853,-0.0005738982603818484
2103,8.0,300.98274,548.5926,0.0,0.0,0.0,-0.0213268251427653,0.0,0.0,-0.08202780775351433,-0.04497553242248945,-0.03975511288002416,-0.22010609007277976,-0.0887909765669871,0.02271159670471008
2104,8.0,300.71695,437.2281,0.0,0.0,0.0,-0.021336966286437564,0.0,0.0,-0.01043904867200389,-0.06755070412048543,-0.054916672021853546,-0.21648744972564782,-0.07105153995799103,-0.003129379364095697
2105,8.0,300.35652999999996,693.64837,0.0,0.0,0.0,-0.021347107430109823,0.0,0.0,-0.0984549689592489,-0.06652213671872374,-0.04587467941547836,-0.17816871208138282,-0.06939716902946734,0.01999171831552898
2106,8.0,301.11064,875.0006400000001,0.0,0.0,0.0,-0.021357248573782083,0.0,0.0,-0.06534781936957763,-0.0940675017939896,-0.10656302665695191,-0.2057748934409008,-0.06302728614955884,-0.016421246864900884
2107,8.0,300.96582,608.02425,0.0,0.0,0.0,-0.021367389717454346,0.0,0.0,-0.07479021903121992,-0.05515791369841225,-0.054876057918095245,-0.17358306636881482,-0.05485929065544044,0.002235357694087628
2108,8.0,300.48195,454.97879000000006,0.0,0.0,0.0,-0.021377530861126606,0.0,0.0,-0.015065383468837587,-0.047323875304752856,-0.07591293155277302,-0.1925365174393748,-0.04253213046884446,-0.015147851894476585
2109,8.0,299.8513,544.7456400000001,0.0,0.0,0.0,-0.02138767200479887,0.0,0.0,-0.04145072207436776,-0.06824079127334173,-0.05589755891365954,-0.15903642236817284,-0.03196168757687297,-0.013619169574607388
2110,8.0,299.68223,388.63414,0.0,0.0,0.0,-0.02139781314847113,0.0,0.0,0.002118207440050798,-0.06701948850380852,-0.05323379431501645,-0.21175033325563078,-0.024291652831149476,-0.05223715239740554
2111,8.0,300.18326,361.56375,0.0,0.0,0.0,-0.02140795429214339,0.0,0.0,-0.028746140411023177,-0.05046642084064795,-0.03069379050149127,-0.2096344441318088,-0.049829598219048456,-0.012268178898274988
2112,8.0,299.97303999999997,208.6174,0.0,0.0,0.0,-0.021418095435815653,0.0,0.0,0.0034101324243288665,-0.04125243409604826,-0.02557218006902768,-0.23340948633322275,-0.02143439090065968,-0.03337591316544617
2113,8.0,300.21984,157.48258,0.0,0.0,0.0,-0.021428236579487912,0.0,0.0,-0.016961152114435385,-0.04317587865487746,0.01226625980258559,-0.2243719135237838,-0.04924020178162955,-0.005442836248066115
2114,8.0,299.6004,500.64912000000004,0.0,0.0,0.0,-0.021438377723160172,0.0,0.0,-0.046526597437067656,-0.06355108376225364,-0.04210715007215216,-0.2108637292856298,-0.05629446620308125,0.006415706406405925
2115,8.0,300.19978,939.1504800000001,0.0,0.0,0.0,-0.021448518866832432,0.0,0.0,-0.10675041713044589,-0.09312708208467742,-0.08560080118364133,-0.19480127326788882,-0.08587266834447252,0.033290756587291866
2116,8.0,299.52008,805.31772,0.0,0.0,0.0,-0.021458660010504695,0.0,0.0,-0.07552118981236114,-0.07236797272641284,-0.09690731454450731,-0.1882298600093408,-0.048752102996457956,0.023515973402595876
2117,8.0,298.76182,766.41725,0.0,0.0,0.0,-0.021468801154176955,0.0,0.0,-0.1027077721464679,-0.06053746518233264,-0.06972646923246673,-0.17399516531698583,-0.049179930625931255,0.04431303404335596
2118,8.0,298.27441,737.87852,0.0,0.0,0.0,-0.021478942297849215,0.0,0.0,-0.07561476244584603,-0.04759681549743996,-0.1010850673100694,-0.2054372582425788,-0.023264015592979578,0.006598367535058174
2119,8.0,299.17495,534.43629,0.0,0.0,0.0,-0.021489083441521478,0.0,0.0,-0.06927176615734103,-0.016289932691691184,-0.07689358843680634,-0.22195435958018978,-0.048528141287104656,0.04097909468282176
2120,8.0,298.95092999999997,340.01285,0.0,0.0,0.0,-0.021499224585193738,0.0,0.0,-0.015909124933108386,-0.03556179659292607,-0.051884495766351055,-0.24353918063044577,-0.03060087344082107,-0.023879264093449877
2121,8.0,299.6231,280.84456,0.0,0.0,0.0,-0.021509365728865998,0.0,0.0,-0.03434231970007307,-0.025597821376058275,-0.025429591461955274,-0.2375246496268578,-0.04010923568397336,0.008940207580829791
2122,8.0,299.82435,239.02276,0.0,0.0,0.0,-0.02151950687253826,0.0,0.0,-0.009882978131699001,-0.045022448941869755,-0.01775152265618888,-0.2360265694865088,-0.06293792762323984,-0.03331034676472527
2123,8.0,300.17331,362.11272,0.0,0.0,0.0,-0.02152964801621052,0.0,0.0,-0.04285278055574016,-0.058538540583804144,-0.008681904292462241,-0.1923095494169748,-0.07196368593651284,-0.014542648755497685
2124,8.0,300.82849,842.95105,0.0,0.0,0.0,-0.021539789159882784,0.0,0.0,-0.051644587526923955,-0.11127396074438489,-0.09331751838797202,-0.1890343299262358,-0.04177932516129836,-0.04059450648811586
2125,8.0,301.00289,1000.7236,0.0,0.0,0.0,-0.021549930303555044,0.0,0.0,-0.10073511504353182,-0.11880424297006588,-0.08465564250361142,-0.18968707577315683,-0.030357452263297266,0.001773718010102338
2126,8.0,300.38428,574.14254,0.0,0.0,0.0,-0.021560071447227304,0.0,0.0,-0.03671812166004647,-0.08065735862226152,-0.057149514525217944,-0.2098144682770758,-0.03268961556796386,-0.01985239744002908
2127,8.0,300.16607,482.82738,0.0,0.0,0.0,-0.02157021259089957,0.0,0.0,-0.037327968524233666,-0.04324231239768396,-0.06619718639840363,-0.2200438866491408,-0.05946944790117754,0.027923046957290174
2128,8.0,299.44128,505.16520999999995,0.0,0.0,0.0,-0.02158035373457183,0.0,0.0,-0.03742364365167607,-0.04704419091940016,-0.06908977630688003,-0.20252747753290581,-0.057318684735413745,0.016722398980122285
2129,8.0,299.59134,349.96783999999997,0.0,0.0,0.0,-0.021590494878244094,0.0,0.0,-0.038363195005652564,-0.027117473611036273,-0.040900817059596355,-0.2099726264851848,-0.052673405201460355,-0.005271790410610206
2130,8.0,299.97707,370.10658,0.0,0.0,0.0,-0.021600636021916354,0.0,0.0,-0.029897100318864073,-0.02176423217921248,-0.06084182524737065,-0.2129740860639058,-0.05759500411718435,-0.015458205333856084
2131,8.0,298.81524,535.35487,0.0,0.0,0.0,-0.021610777165588613,0.0,0.0,-0.06718712161360264,-0.049947385503423154,-0.045600006565120255,-0.2131797555692038,-0.046747372474856455,-0.013325179111092789
2132,8.0,298.48613,565.72432,0.0,0.0,0.0,-0.021620918309260877,0.0,0.0,-0.03534503098578297,-0.05930214612416614,-0.07731888800728014,-0.1957511243091318,-0.038031652480181866,-0.005984655121739474
2133,8.0,299.43063,820.7166900000001,0.0,0.0,0.0,-0.021631059452933137,0.0,0.0,-0.09567468566535631,-0.07672708712737393,-0.07707560868477033,-0.2148990586038858,-0.04714606207120405,0.009914245813884882
2134,8.0,299.61619,1020.8115,0.0,0.0,0.0,-0.0216412005966054,0.0,0.0,-0.1052795022252779,-0.08310331092640823,-0.12191838609240789,-0.24027352622065076,-0.06274105312880984,0.02691379919518518
2135,8.0,300.17082,651.62135,0.0,0.0,0.0,-0.02165134174027766,0.0,0.0,-0.08760090216553591,-0.03411826274521037,-0.07635745551739413,-0.2288607837193008,-0.08012123786185052,0.028021757782032173
2136,8.0,300.17847,437.33067,0.0,0.0,0.0,-0.02166148288394992,0.0,0.0,-0.02530065943973068,-0.04839975338018375,-0.05923719071325554,-0.21501253248258478,-0.07304656557013472,0.029513568944012473
2137,8.0,299.5536,636.86761,0.0,0.0,0.0,-0.021671624027622183,0.0,0.0,-0.07007331183444743,-0.04082421129903596,-0.08269432873554483,-0.1934826093227468,-0.047076572366095956,0.02472812652372608
2138,8.0,299.90935,703.3298900000001,0.0,0.0,0.0,-0.021681765171294443,0.0,0.0,-0.04198847112768946,-0.08662581714380252,-0.08518043614115452,-0.19945645833481984,-0.053923562294091246,0.0005725439908281924
2139,8.0,300.39,316.64506,0.0,0.0,0.0,-0.021691906314966706,0.0,0.0,-0.044617927077946554,-0.03307847866484167,-0.018555784856813383,-0.2179224449147708,-0.06195329474581414,0.003296397532404107
2140,8.0,300.48222999999996,239.87922999999998,0.0,0.0,0.0,-0.021702047458638966,0.0,0.0,0.009157567155181512,-0.03917985229475036,-0.04289500978015786,-0.17638516899036083,-0.050822070612497855,-0.02199276263326668
2141,8.0,300.12512000000004,446.15770999999995,0.0,0.0,0.0,-0.021712188602311226,0.0,0.0,-0.02854938244035467,-0.06933577215290793,-0.03773564767546846,-0.17638372004271782,-0.05000153561526736,-0.03280836543993357
2142,8.0,299.92352,549.1508,0.0,0.0,0.0,-0.021722329745983485,0.0,0.0,-0.006067326096073464,-0.08931794970549532,-0.07154285479898002,-0.19160415509485781,-0.03614686442591777,-0.06640389752480444
2143,8.0,299.22771,679.83256,0.0,0.0,0.0,-0.021732470889655745,0.0,0.0,-0.07488804123562422,-0.07877411780090013,-0.05298996479770235,-0.2386411600445488,-0.03638358700703047,-0.041576446146775754
2144,8.0,299.1023,584.3031,0.0,0.0,0.0,-0.02174261203332801,0.0,0.0,-0.030835020340179573,-0.06772385235057383,-0.07905468067408952,-0.23580452585959477,-0.031157224752728675,-0.011753976764027188
2145,8.0,299.92431,340.56448,0.0,0.0,0.0,-0.02175275317700027,0.0,0.0,-0.062457039125779844,-0.034979043023162765,-0.006087017193216824,-0.2270997854430038,-0.015172686654427586,0.03120942841113077
2146,8.0,299.11267000000004,478.58052000000004,0.0,0.0,0.0,-0.021762894320672528,0.0,0.0,-0.026891109485695872,-0.04864755585113996,-0.06993786461407984,-0.2042220977951518,-0.05693682522322715,0.042309265096099356
2147,8.0,299.55171,845.61154,0.0,0.0,0.0,-0.02177303546434479,0.0,0.0,-0.1056890173856939,-0.07689174938787484,-0.07446402545302713,-0.2008852220358278,-0.06543739878441844,0.04075087225679796
2148,8.0,299.70899,671.60083,0.0,0.0,0.0,-0.02178317660801705,0.0,0.0,-0.05012450668715365,-0.05985761692173684,-0.09416775985163432,-0.18241678339063483,-0.07623894274594784,0.027792348840141274
2149,8.0,300.28789,524.96417,0.0,0.0,0.0,-0.021793317751689315,0.0,0.0,-0.06406232517970924,-0.05694610760739324,-0.038567567550822565,-0.15419477901783984,-0.04691273083817605,-0.02403839299515468
2150,8.0,300.75785,683.29071,0.0,0.0,0.0,-0.021803458895361574,0.0,0.0,-0.06954254306106462,-0.06634186939343274,-0.07181890060322363,-0.18851755211023383,-0.052112922868895045,-0.017430751992531284
2151,8.0,300.17802,505.10422,0.0,0.0,0.0,-0.021813600039033834,0.0,0.0,-0.09153064474387132,-0.034351938483272365,-0.02765648821373287,-0.22564534598446176,-0.05199570908407695,-0.025328076974186577
2152,8.0,299.51816,361.97907000000004,0.0,0.0,0.0,-0.021823741182706097,0.0,0.0,-0.023535004265974078,-0.036989594666588764,-0.04950800074330925,-0.23292421046282977,-0.061057052740861935,-0.01177223147782879
2153,8.0,300.67042000000004,435.92706,0.0,0.0,0.0,-0.021833882326378357,0.0,0.0,-0.039232562578202464,-0.04729514662466755,-0.04598323295169175,-0.22942225599721378,-0.04330542065366226,-0.00869093235085324
2154,8.0,300.02058999999997,263.09483,0.0,0.0,0.0,-0.021844023470050624,0.0,0.0,0.0011905443468475788,-0.05321966555562205,-0.027945136822720273,-0.19931160410052381,-0.055688667273043536,0.0003084733740839517
2155,8.0,299.95355,315.23722999999995,0.0,0.0,0.0,-0.02185416461372288,0.0,0.0,-0.02042475303726618,-0.057313879903439544,-0.018085613505661086,-0.22689446044273978,-0.05842248190410004,0.012542067493055687
2156,8.0,299.85463,609.08009,0.0,0.0,0.0,-0.02186430575739514,0.0,0.0,-0.04085504652607916,-0.06882470704096974,-0.07546538607635374,-0.21059404263901382,-0.03480019323476167,0.007359108921362502
2157,8.0,299.09508999999997,725.5122,0.0,0.0,0.0,-0.021874446901067407,0.0,0.0,-0.0986273754902641,-0.06370506737995063,-0.05820515090340114,-0.2259797489149648,-0.02795082926178207,0.04060428029858046
2158,8.0,300.47881,675.99517,0.0,0.0,0.0,-0.021884588044739667,0.0,0.0,-0.03480051139529307,-0.07646964155521602,-0.09421549913009582,-0.1858155079360628,-0.04671978674088395,-0.02028183715041148
2159,8.0,300.31655,660.7554299999999,0.0,0.0,0.0,-0.02189472918841193,0.0,0.0,-0.05383433042403475,-0.09633709994473151,-0.050681719261646246,-0.2038132007172968,-0.06969632504199173,-0.015273199037847384
2160,8.0,299.93456000000003,600.53947,0.0,0.0,0.0,-0.02190487033208419,0.0,0.0,-0.01942121088647428,-0.07684847651585412,-0.08627931702035561,-0.1847691042927908,-0.07830900763399733,-0.03446916645359187
2161,8.0,300.52762,475.40529000000004,0.0,0.0,0.0,-0.02191501147575645,0.0,0.0,-0.03674833880452867,-0.05617555826409594,-0.05158744022128395,-0.21586069374379177,-0.060642554416454136,-0.02161869906734948
2162,8.0,300.22784,209.53723,0.0,0.0,0.0,-0.021925152619428713,0.0,0.0,-0.002149191817508718,-0.036822380029085965,-0.02472251413142218,-0.21329459733553782,-0.07285073472330773,-0.031014065685849967
2163,8.0,300.45945,206.12256000000002,0.0,0.0,0.0,-0.021935293763100973,0.0,0.0,-0.06285872895567354,-0.005419977731110155,0.0056225951244569345,-0.21030176051516777,-0.04264021081726116,0.011648603819877689
2164,8.0,300.95063,366.52186,0.0,0.0,0.0,-0.021945434906773236,0.0,0.0,-0.014553463173814986,-0.035295628963907366,-0.06156440226468344,-0.2019336724443018,-0.024036409051458877,0.015168117909726685
2165,8.0,300.0562,716.203,0.0,0.0,0.0,-0.021955576050445496,0.0,0.0,-0.07322878036211794,-0.07135888911082403,-0.07312015893814784,-0.21421965414683378,-0.01988736064797968,0.027201049519034574
2166,8.0,299.81077999999997,1156.2379,0.0,0.0,0.0,-0.021965717194117756,0.0,0.0,-0.09437073309841622,-0.11618777789934089,-0.14090894238162985,-0.2088964332889728,-0.062169494959401446,0.038066653178386166
2167,8.0,299.54497000000003,992.2338599999999,0.0,0.0,0.0,-0.02197585833779002,0.0,0.0,-0.1121189707977809,-0.1041708343633609,-0.08532451321262383,-0.2261584051725968,-0.06563792401895874,0.015748876390043087
2168,8.0,298.85963,663.1364599999999,0.0,0.0,0.0,-0.02198599948146228,0.0,0.0,-0.04497544832273116,-0.08177498057531223,-0.07482649743780033,-0.21910687348666477,-0.06254876156458214,0.014372540275709287
2169,8.0,299.43915,708.27397,0.0,0.0,0.0,-0.02199614062513454,0.0,0.0,-0.1150958894590799,-0.03774970348085567,-0.06245200428603294,-0.22880369720866678,-0.04180696054452576,-0.0003006891916482127
2170,8.0,298.39072000000004,408.79462,0.0,0.0,0.0,-0.0220062817688068,0.0,0.0,-0.01911554778180768,-0.02813594194905127,-0.07701186816072962,-0.2142326034831118,-0.04234040328492246,-0.007281909700218534
2171,8.0,298.06391,-13.945676999999998,0.0,0.0,0.0,-0.02201642291247906,0.0,0.0,-0.0009203239808739052,-0.007426654908803773,0.012586116514652988,-0.2117003496281978,-0.06415718768057144,-0.04457107034032216
2172,8.0,299.43023999999997,107.25113,0.0,0.0,0.0,-0.02202656405615132,0.0,0.0,0.043797494418976166,-0.022824302539833276,-0.05357485632517665,-0.18468178239917282,-0.05346365111345154,-0.04156133554803446
2173,8.0,298.95015,365.58407,0.0,0.0,0.0,-0.02203670519982358,0.0,0.0,-0.03965408475230346,-0.04606184697395036,-0.025412495906268078,-0.2094991651109578,-0.06011046132519064,-0.03225701755701977
2174,8.0,298.96963,560.97432,0.0,0.0,0.0,-0.022046846343495845,0.0,0.0,-0.03158676578812107,-0.053300755961125046,-0.08563466400198333,-0.2123234477771928,-0.06571156602297665,-0.013027091064173789
2175,8.0,299.53226,745.23189,0.0,0.0,0.0,-0.022056987487168105,0.0,0.0,-0.09626622816648701,-0.07448124158547623,-0.05578441738099335,-0.2294469387696498,-0.06485365932230784,0.01221450805372809
2176,8.0,299.78216000000003,795.6334400000001,0.0,0.0,0.0,-0.022067128630840364,0.0,0.0,-0.06244923406025954,-0.08403833507893793,-0.09536512864055541,-0.2181035431051438,-0.04273120574249166,0.034882046617589965
2177,8.0,300.26403999999997,800.6576200000001,0.0,0.0,0.0,-0.022077269774512628,0.0,0.0,-0.1039544345395039,-0.07181082499992664,-0.06761467059929843,-0.22149705954505777,-0.022180797533824275,0.017309326127047484
2178,8.0,300.34677,859.0532699999999,0.0,0.0,0.0,-0.022087410918184888,0.0,0.0,-0.07346054713699153,-0.09332909882336492,-0.09434109755949141,-0.22066138152508277,-0.03330169462212137,0.001064866883944179
2179,8.0,300.05348,781.91991,0.0,0.0,0.0,-0.02209755206185715,0.0,0.0,-0.1046341328390849,-0.060395467300068534,-0.07265452897394373,-0.2152086977019448,-0.05060619970519305,-0.0028206620196526673
2180,8.0,299.347,424.34576,0.0,0.0,0.0,-0.02210769320552941,0.0,0.0,-0.028326139125322274,-0.028810687482143476,-0.07185368750565684,-0.20263130527065282,-0.04734960577779225,-0.0024760486692169776
2181,8.0,298.80098,257.76177,0.0,0.0,0.0,-0.02211783434920167,0.0,0.0,-0.04162534660985186,-0.014500148993303288,-0.022227648191948078,-0.19210835847711882,-0.03165982821308177,-0.025239220006667076
2182,8.0,299.31557999999995,502.98238,0.0,0.0,0.0,-0.022127975492873934,0.0,0.0,-0.04056785902373596,-0.02936376396972787,-0.08296246206975752,-0.2024343497162148,-0.044791230335300254,-0.015121070681083485
2183,8.0,299.36117,572.49275,0.0,0.0,0.0,-0.022138116636546194,0.0,0.0,-0.07439468874868413,-0.04661371668066566,-0.05301509643993266,-0.21589646147232178,-0.05369832287636185,-0.025269454376400977
2184,8.0,299.72422,425.01142999999996,0.0,0.0,0.0,-0.02214825778021846,0.0,0.0,-0.013568913382897486,-0.06185932694479024,-0.05376462084365495,-0.2193358072142588,-0.055823350502835746,-0.018187654883481782
2185,8.0,301.08975,565.42519,0.0,0.0,0.0,-0.02215839892389072,0.0,0.0,-0.054224289857520744,-0.06741184326053093,-0.05023900698820395,-0.22212530500456076,-0.052467656662654544,0.014039681538358686
2186,8.0,300.40992,732.9191099999999,0.0,0.0,0.0,-0.022168540067562977,0.0,0.0,-0.05300480587191705,-0.08167195330514422,-0.08811235028601191,-0.20828249492088183,-0.055785347544585154,0.012757392258556589
2187,8.0,300.41856,711.96098,0.0,0.0,0.0,-0.022178681211235243,0.0,0.0,-0.08058227982960182,-0.06431811408795364,-0.07151796532352363,-0.2132411281277608,-0.09309131739589772,0.036616053937723166
2188,8.0,301.22326,662.1041299999999,0.0,0.0,0.0,-0.022188822354907503,0.0,0.0,-0.05025548851433055,-0.0856213519221695,-0.06538628234337364,-0.2026778539802468,-0.05306752301335675,-0.008517694549456003
2189,8.0,299.09952000000004,494.95897,0.0,0.0,0.0,-0.022198963498579766,0.0,0.0,-0.07503627161925343,-0.03822334420035036,-0.037195551934915166,-0.2034279832942788,-0.043576799427945255,0.01135648989554829
2190,8.0,298.87687,347.86102,0.0,0.0,0.0,-0.022209104642252026,0.0,0.0,-0.037794982588074365,-0.04263949546269056,-0.025306585939565578,-0.2286351734520348,-0.03232657312338437,-0.06197355772131394
2191,8.0,298.83507000000003,396.15029,0.0,0.0,0.0,-0.022219245785924286,0.0,0.0,-0.04000060919375276,-0.043518114008653457,-0.036901071058352164,-0.24276764134180076,-0.06112708960102403,-0.013196791204171887
2192,8.0,299.6206,401.66567000000003,0.0,0.0,0.0,-0.02222938692959655,0.0,0.0,-0.013017761057252988,-0.03195844618980307,-0.07712012684116393,-0.2448787985876558,-0.04654766797289716,-0.02853751525518347
2193,8.0,300.13421,256.90066,0.0,0.0,0.0,-0.02223952807326881,0.0,0.0,-0.005313127468314855,-0.03446913706933897,-0.03830912291406607,-0.21428272896555878,-0.06815534287915864,0.0013316538114239987
2194,8.0,300.98107000000005,309.94169,0.0,0.0,0.0,-0.02224966921694107,0.0,0.0,-0.004595663513656676,-0.05899407655051204,-0.030624795262431972,-0.2253912937868888,-0.060114487981088045,-0.012043410641842089
2195,8.0,299.72606,807.18513,0.0,0.0,0.0,-0.022259810360613332,0.0,0.0,-0.11229926852057488,-0.057239407034339655,-0.07582544753913902,-0.19509979701235083,-0.07838081160233383,0.03294090767226447
2196,8.0,301.28623999999996,1147.6038,0.0,0.0,0.0,-0.022269951504285592,0.0,0.0,-0.10583224028732889,-0.14243742002497886,-0.100573240234056,-0.2027035905327868,-0.03431023108265617,-0.0031429063542557072
2197,8.0,300.48696,901.3422300000001,0.0,0.0,0.0,-0.022280092647957852,0.0,0.0,-0.0990294929117,-0.0942144321777405,-0.08074160631507613,-0.19157674667965283,-0.027737402313718473,0.026386522081646973
2198,8.0,299.55924,660.95035,0.0,0.0,0.0,-0.02229023379163011,0.0,0.0,-0.04764983279567236,-0.07249616912906483,-0.08076639953177302,-0.2163670958787698,-0.05062648801194536,0.000951391606960041
2199,8.0,299.98747000000003,597.3224700000001,0.0,0.0,0.0,-0.022300374935302375,0.0,0.0,-0.07465004499913583,-0.04776210799950305,-0.05915896273928504,-0.22055011653160178,-0.07393641396695592,0.0008419333701298542
2200,8.0,300.59202,323.90431,0.0,0.0,0.0,-0.022310516078974635,0.0,0.0,-0.022557540133005878,-0.02777029038546427,-0.04813099081765895,-0.22224918496178678,-0.07472905013593302,-0.030399397777686972
2201,8.0,299.44666,144.50515,0.0,0.0,0.0,-0.022320657222646895,0.0,0.0,-0.03173392313989437,-0.02241927202435988,0.010227237857849791,-0.2045198210720348,-0.05341491175714136,-0.02848643326464207
2202,8.0,299.84229,206.12203,0.0,0.0,0.0,-0.022330798366319158,0.0,0.0,0.008640693485720052,-0.039379900288493565,-0.031916744868687466,-0.2251665042522038,-0.03653104833383376,-0.04211508483368526
2203,8.0,299.54697000000004,310.31723999999997,0.0,0.0,0.0,-0.022340939509991418,0.0,0.0,-0.01058542480795009,-0.04400403430611006,-0.039739232211206864,-0.2170901714151318,-0.04387216892484596,-0.0022970553032767077
2204,8.0,299.67126,593.79318,0.0,0.0,0.0,-0.02235108065366368,0.0,0.0,-0.015205649706680787,-0.08947146013539561,-0.07582118986221884,-0.22508950737710479,-0.025406994971475177,-0.005550093229451555
2205,8.0,299.65244,855.5215099999999,0.0,0.0,0.0,-0.02236122179733594,0.0,0.0,-0.08183486872247273,-0.06214193759643174,-0.11608037338874089,-0.1995063609022448,-0.04846135088026295,0.03189313715460757
2206,8.0,298.88192999999995,749.55983,0.0,0.0,0.0,-0.0223713629410082,0.0,0.0,-0.05791522559928774,-0.09946022755571021,-0.07047201865604673,-0.22893187334631676,-0.059440285550049446,0.028851588335680075
2207,8.0,298.9938,685.2344099999999,0.0,0.0,0.0,-0.022381504084680464,0.0,0.0,-0.11698276379529989,-0.05469227664145745,-0.03661911091327486,-0.24372472698875774,-0.08801566900122022,0.02704408998579387
2208,8.0,300.44606,798.80291,0.0,0.0,0.0,-0.022391645228352724,0.0,0.0,-0.08050253704673183,-0.08652129330323681,-0.07579230919461852,-0.24282096869456377,-0.06965016136743572,0.0026230703468018875
2209,8.0,299.93436,540.76195,0.0,0.0,0.0,-0.022401786372024987,0.0,0.0,-0.06487572993598603,-0.055986459450933355,-0.043515938560688756,-0.2245657786654168,-0.04885799269815846,-0.02012577333025918
2210,8.0,300.31885,295.73105,0.0,0.0,0.0,-0.022411927515697247,0.0,0.0,0.012804965364001688,-0.02306452995304188,-0.07963528919339112,-0.22847194899342577,-0.02722794320318877,-0.029188959075725975
2211,8.0,300.19693,297.21223,0.0,0.0,0.0,-0.022422068659369507,0.0,0.0,-0.03415203234454317,-0.02027542530377868,-0.03591763888229496,-0.20874866089438882,-0.04698270285033176,-0.03002321753231087
2212,8.0,299.34689,375.87699999999995,0.0,0.0,0.0,-0.02243220980304177,0.0,0.0,-0.02292462139248398,-0.05124908460214086,-0.04008351635668506,-0.2125692723839538,-0.03912800124738307,-0.026997623349457975
2213,8.0,299.75642,565.83123,0.0,0.0,0.0,-0.02244235094671403,0.0,0.0,-0.09643632246077401,-0.03437013645506837,-0.04119210721159446,-0.16620384960054285,-0.060421956697432846,-0.012878319604991188
2214,8.0,301.35465,905.81146,0.0,0.0,0.0,-0.022452492090386297,0.0,0.0,-0.08004628876520362,-0.1172756842667089,-0.07802208864293063,-0.20308630522805782,-0.06759356561296553,0.0023677938391330577
2215,8.0,300.28413,899.99221,0.0,0.0,0.0,-0.022462633234058556,0.0,0.0,-0.10757976233729588,-0.07871404321572123,-0.08728135246824882,-0.2143089417456458,-0.08945577097084723,0.036621827436792966
2216,8.0,300.34484,719.67355,0.0,0.0,0.0,-0.022472774377730813,0.0,0.0,-0.04569711240170386,-0.07470924818922872,-0.09835642836052372,-0.2254474278424288,-0.06322997062006223,0.04183905118844286
2217,8.0,299.95403,651.37937,0.0,0.0,0.0,-0.02248291552140308,0.0,0.0,-0.04033764758776586,-0.07997125252904812,-0.07769416443356703,-0.22752832944029777,-0.043510497407651755,0.04327698176310556
2218,8.0,299.46402,744.95032,0.0,0.0,0.0,-0.02249305666507534,0.0,0.0,-0.05863369084769474,-0.06416119508471695,-0.1036514119645979,-0.23167691985473177,-0.03169915852896337,0.01965623526041938
2219,8.0,300.57166,642.33884,0.0,0.0,0.0,-0.022503197808747603,0.0,0.0,-0.06399485994830094,-0.06328572166706445,-0.06797438553054953,-0.2257059788704458,-0.050940150726151455,-0.016827921885286586
2220,8.0,299.25692000000004,360.21578999999997,0.0,0.0,0.0,-0.022513338952419863,0.0,0.0,-0.030583495188355972,-0.04961334025020545,-0.02929977013316217,-0.2259773677772298,-0.03680849140996526,-0.041317035882673964
2221,8.0,298.70465,297.51481,0.0,0.0,0.0,-0.022523480096092122,0.0,0.0,-0.02884023182855927,-0.032349146309112176,-0.02924769617077287,-0.1972175809138598,-0.044898588236395656,-0.050015925793187546
2222,8.0,298.8802,448.73067000000003,0.0,0.0,0.0,-0.022533621239764382,0.0,0.0,-0.016852110191673784,-0.06300432691554295,-0.05654648075470315,-0.2106477246293118,-0.03575988496097587,-0.04289857439400966
2223,8.0,299.2916,592.4431099999999,0.0,0.0,0.0,-0.022543762383436645,0.0,0.0,-0.050684977873967856,-0.06782216091502613,-0.061580773346549135,-0.2116629606995078,-0.057923396448094154,-0.017720764436153284
2224,8.0,298.99609,652.57858,0.0,0.0,0.0,-0.022553903527108905,0.0,0.0,-0.05646013056793104,-0.07117511087393652,-0.07073235097773953,-0.23552460538696876,-0.06598115945058344,0.01935855251354038
2225,8.0,300.30572,659.24778,0.0,0.0,0.0,-0.022564044670781165,0.0,0.0,-0.06796804359817364,-0.06990429766476704,-0.06252252243999254,-0.22506814806499678,-0.07521780449391934,0.037083001127057265
2226,8.0,299.49383,654.10132,0.0,0.0,0.0,-0.022574185814453425,0.0,0.0,-0.07420339016955443,-0.05695290550231415,-0.06767417472467104,-0.22949560517195278,-0.06840228307427974,0.04275559568564876
2227,8.0,299.66485,997.77824,0.0,0.0,0.0,-0.022584326958125688,0.0,0.0,-0.09893987499335541,-0.10704917392243089,-0.0973106265878111,-0.22502440605817975,-0.07288155981784993,0.05583916733689674
2228,8.0,299.79677999999996,916.64655,0.0,0.0,0.0,-0.022594468101797948,0.0,0.0,-0.08178070341187701,-0.08887700960647792,-0.1079799454642909,-0.21796553844152378,-0.03784118071313376,0.011109929669214688
2229,8.0,299.7518,502.36389,0.0,0.0,0.0,-0.02260460924547021,0.0,0.0,-0.024647639002032578,-0.06150862689967885,-0.06654981364520524,-0.20684389256140281,-0.025653480217301374,0.0019616768155774284
2230,8.0,299.71136,320.0841,0.0,0.0,0.0,-0.02261475038914247,0.0,0.0,-0.013999497052642786,-0.05681247207820445,-0.026485604769175677,-0.2327902790646118,-0.018016316318071983,-0.04831634263195175
2231,8.0,300.20496,384.53828,0.0,0.0,0.0,-0.02262489153281473,0.0,0.0,-0.03646426400649267,-0.035047142549133666,-0.04537862965677205,-0.2174164886098368,-0.04684344580958816,-0.03212870463060627
2232,8.0,299.97829,241.41595,0.0,0.0,0.0,-0.022635032676486994,0.0,0.0,-0.036531632979141464,-0.03873410331075836,0.0018813145315962883,-0.23197811857945777,-0.04119650269052826,-0.05640130126712504
2233,8.0,300.20336000000003,336.44041,0.0,0.0,0.0,-0.022645173820159254,0.0,0.0,-0.04002816858322267,-0.04575979205288986,-0.01648152308684968,-0.2111728921561418,-0.06585697957132784,-0.013940482327068487
2234,8.0,300.74264,600.53403,0.0,0.0,0.0,-0.022655314963831517,0.0,0.0,-0.05210807548041665,-0.06316143640979845,-0.06727783789505565,-0.20058065932076982,-0.07354190706702114,-0.011739449797343489
2235,8.0,299.21586,789.75898,0.0,0.0,0.0,-0.022665456107503777,0.0,0.0,-0.06658935167735734,-0.0954428925459801,-0.07803476440168162,-0.2008985158771398,-0.06503018167522924,0.025241091479601775
2236,8.0,298.50126,1004.8913,0.0,0.0,0.0,-0.022675597251176037,0.0,0.0,-0.1002095016866578,-0.1059390368478689,-0.0993133194634615,-0.2014929187833028,-0.053074674532562545,0.025481013904530274
2237,8.0,299.07887,1042.8965,0.0,0.0,0.0,-0.0226857383948483,0.0,0.0,-0.0992967285063241,-0.10320047514009391,-0.11451729325447689,-0.21680866013984879,-0.04837384153537645,0.024690060743969275
2238,8.0,299.12595,514.04858,0.0,0.0,0.0,-0.02269587953852056,0.0,0.0,-0.028996727293254174,-0.06508387075827794,-0.06217733346217504,-0.2108633138530888,-0.05875657478007244,0.008331755455405243
2239,8.0,299.27397,299.96009,0.0,0.0,0.0,-0.022706020682192823,0.0,0.0,-0.014853177487144487,-0.03607178968625847,-0.040255411196399755,-0.21840008087940982,-0.05068553414827275,-0.017781814781178483
2240,8.0,299.83842999999996,421.36209,0.0,0.0,0.0,-0.022716161825865083,0.0,0.0,-0.022838905500274478,-0.05176569928487675,-0.05347894916346135,-0.21875650173458577,-0.03728216657996336,-0.027719895378490674
2241,8.0,300.05177000000003,252.55255,0.0,0.0,0.0,-0.022726302969537343,0.0,0.0,-0.01911929376742738,-0.03253223350943147,-0.025118140672717476,-0.23364125716109677,-0.04880357204853755,-0.05712690486248654
2242,8.0,299.74442,149.57941,0.0,0.0,0.0,-0.022736444113209606,0.0,0.0,-0.0008116167548853373,-0.030639169228350572,-0.014017619030681288,-0.25326925922072974,-0.02111284307417538,-0.01957132996828988
2243,8.0,301.33487,366.60083,0.0,0.0,0.0,-0.022746585256881866,0.0,0.0,-0.03009847567023827,-0.03945142358655236,-0.04188760005373426,-0.25931214096211574,-0.04214145973378826,-0.03638480392040056
2244,8.0,299.60751,710.21504,0.0,0.0,0.0,-0.022756726400554133,0.0,0.0,-0.07718223096629313,-0.05891805036900885,-0.07978735675514902,-0.2046926106115878,-0.041136405813847164,0.04272616988949467
2245,8.0,299.56493,886.47727,0.0,0.0,0.0,-0.022766867544226393,0.0,0.0,-0.09707271749083131,-0.08221062036305651,-0.09018361790193011,-0.21378757390669081,-0.06707126457066843,0.01946070433562198
2246,8.0,299.39408,1040.3119,0.0,0.0,0.0,-0.022777008687898653,0.0,0.0,-0.08774093940885651,-0.0965333016410951,-0.1319545878029039,-0.2004910474819258,-0.08611273262441502,0.04553914468461366
2247,8.0,298.63287,644.7433599999999,0.0,0.0,0.0,-0.022787149831570916,0.0,0.0,-0.07150063672031343,-0.05008940466393936,-0.07439584182729793,-0.2083460966296588,-0.09027363909381451,0.02525649186787168
2248,8.0,298.98125,519.76841,0.0,0.0,0.0,-0.022797290975243176,0.0,0.0,-0.028554410187350873,-0.07435378992164772,-0.05508841892705365,-0.1995426859183298,-0.05375207376766665,0.0017380861584107483
2249,8.0,300.49461,570.3867,0.0,0.0,0.0,-0.022807432118915436,0.0,0.0,-0.06740231972284104,-0.05789259060530385,-0.04808840290270586,-0.1998376430224398,-0.04424719305185795,-0.036060619617156064
2250,8.0,300.47814,314.64874,0.0,0.0,0.0,-0.022817573262587695,0.0,0.0,-0.02031235117717298,-0.04832482961478936,-0.02700817837574968,-0.1979639308050188,-0.04135315622223876,-0.04082877092448596
2251,8.0,301.03477999999996,61.62721,0.0,0.0,0.0,-0.02282771440625996,0.0,0.0,0.014107233909275587,-0.02960675755570947,-0.003233608348882297,-0.20203066074387382,-0.021252630044721277,-0.03159220592790797
2252,8.0,299.86306,178.01248,0.0,0.0,0.0,-0.02283785554993222,0.0,0.0,0.011404091371996189,-0.02918262524935087,-0.036332814057769565,-0.19894574988691682,-0.04805134024054805,-0.04866407486752025
2253,8.0,300.47845,538.8802,0.0,0.0,0.0,-0.02284799669360448,0.0,0.0,-0.05226894109279285,-0.06509726085834944,-0.04643992402351366,-0.24946264071504579,-0.03104029974418907,-0.006597106646633734
2254,8.0,301.5999,777.97668,0.0,0.0,0.0,-0.02285813783727674,0.0,0.0,-0.08931920816211951,-0.06617642794360494,-0.08098984853657573,-0.2630600112270018,-0.05567488707168354,-0.0016272627393233282
2255,8.0,300.1313,838.21323,0.0,0.0,0.0,-0.022868278980949,0.0,0.0,-0.09453535888191351,-0.08159738519053492,-0.07866314867644833,-0.25628967670882175,-0.04624256215578555,0.025270195062224075
2256,8.0,298.93964,829.73065,0.0,0.0,0.0,-0.02287842012462126,0.0,0.0,-0.0923292702341895,-0.09025167487139682,-0.06963645513333303,-0.24610130509830777,-0.05368439068748686,0.03395948037503976
2257,8.0,299.4162,759.12576,0.0,0.0,0.0,-0.022888561268293525,0.0,0.0,-0.04710539831819086,-0.08105919942642012,-0.1025906809649119,-0.23798961996524676,-0.06407618441457703,0.03172983264924067
2258,8.0,299.42957,655.6248099999999,0.0,0.0,0.0,-0.022898702411965784,0.0,0.0,-0.06480181840744154,-0.07109715445099284,-0.06339459741680964,-0.19387163656614081,-0.08178310278811382,0.02014345555775428
2259,8.0,300.70665,726.9371,0.0,0.0,0.0,-0.022908843555638048,0.0,0.0,-0.06273637090009773,-0.06966526082042593,-0.0885690950600891,-0.18731550311910083,-0.050358155067462954,-0.00013675603552176988
2260,8.0,300.34746,416.64544,0.0,0.0,0.0,-0.022918984699310307,0.0,0.0,-0.06624938904355564,-0.03169368495192317,-0.02870673612788427,-0.1882099597773768,-0.06234883414760085,-0.024273234984081776
2261,8.0,298.82255,59.41264,0.0,0.0,0.0,-0.022929125842982567,0.0,0.0,-0.01113980636166329,-0.008666248463842131,0.0017460956978012283,-0.22524916519536178,-0.04957729489114805,-0.04192525749370076
2262,8.0,299.54447999999996,386.09962,0.0,0.0,0.0,-0.02293926698665483,0.0,0.0,-0.06070156508902804,-0.03255614013229086,-0.02410693733791948,-0.22962130897935878,-0.05859951594832194,-0.01869862778966088
2263,8.0,301.18027,670.1433900000001,0.0,0.0,0.0,-0.02294940813032709,0.0,0.0,-0.05271779872809165,-0.06639461514063834,-0.08459444422407161,-0.24957367266100375,-0.020885177935706583,0.006032526122713974
2264,8.0,300.83429,584.41255,0.0,0.0,0.0,-0.022959549273999354,0.0,0.0,-0.03950597190568587,-0.06518350364061094,-0.07295734585907944,-0.24262039583726877,-0.04631684352061655,0.008701260915747591
2265,8.0,299.5654,633.46321,0.0,0.0,0.0,-0.022969690417671614,0.0,0.0,-0.04936788547973095,-0.07719109487816792,-0.06599801689249714,-0.26355299793065573,-0.06315807545921674,0.027310319423068677
2266,8.0,300.25298,707.10459,0.0,0.0,0.0,-0.022979831561343873,0.0,0.0,-0.0894166078412321,-0.06353986911014683,-0.06198566302025864,-0.2277685102440018,-0.06010401097505404,0.0011643226501596988
2267,8.0,300.13732000000005,860.40389,0.0,0.0,0.0,-0.022989972705016137,0.0,0.0,-0.09144065698924023,-0.0920883811686656,-0.07801226011696062,-0.1975770009893318,-0.02002369142243448,0.023612509792623273
2268,8.0,300.39095,884.92664,0.0,0.0,0.0,-0.023000113848688396,0.0,0.0,-0.05865684057272945,-0.11880166931481188,-0.09153709509400791,-0.1894346751732468,-0.05577924169948254,-0.04152499938619836
2269,8.0,300.05205,649.17657,0.0,0.0,0.0,-0.02301025499236066,0.0,0.0,-0.03264502851056347,-0.08414840747705123,-0.08054003034018213,-0.2077988807806528,-0.06139651077611385,0.005574786944988635
2270,8.0,300.6047,129.43636999999998,0.0,0.0,0.0,-0.02302039613603292,0.0,0.0,-0.005439570846968844,-0.012918545633961187,-0.020987307466285982,-0.18688517580163083,-0.08618752264079622,-0.02099044854159598
2271,8.0,300.5897,56.4735,0.0,0.0,0.0,-0.02303053727970518,0.0,0.0,-0.0011370885139718988,-0.01171060763324699,-0.004318837304186056,-0.22010292873246778,-0.05809641194241944,-0.01145808443007489
2272,8.0,299.78403,531.3351,0.0,0.0,0.0,-0.023040678423377446,0.0,0.0,-0.07122314703467733,-0.046333843830794356,-0.04395561209708116,-0.2056478724083648,-0.07179091362221153,-0.008434977472242462
2273,8.0,299.37003,734.40685,0.0,0.0,0.0,-0.023050819567049703,0.0,0.0,-0.08305176689382121,-0.06792361562103894,-0.07226596275934523,-0.25440160673748374,-0.05895888029503845,-0.014704175006939086
2274,8.0,299.17814,617.2979799999999,0.0,0.0,0.0,-0.02306096071072197,0.0,0.0,-0.035998379716513464,-0.07925203848881722,-0.07239275479735863,-0.22808357023009576,-0.05225954725111575,0.02151583999669808
2275,8.0,298.8553,676.2098,0.0,0.0,0.0,-0.02307110185439423,0.0,0.0,-0.049871468752930755,-0.04992133281685195,-0.10575809064501089,-0.24403127567401176,-0.017357434228545385,0.013146313110690087
2276,8.0,299.19901,1116.2946,0.0,0.0,0.0,-0.02308124299806649,0.0,0.0,-0.1036402864784999,-0.0978796526452196,-0.13780574236036788,-0.2345721908229728,-0.03301568958264487,0.06868733464541213
2277,8.0,299.94473999999997,1033.7394,0.0,0.0,0.0,-0.02309138414173875,0.0,0.0,-0.10417737995900689,-0.1029052140609539,-0.10714837110722089,-0.24789914514824074,-0.04255549196315006,0.0026786853143156574
2278,8.0,299.87036,700.98085,0.0,0.0,0.0,-0.023101525285411005,0.0,0.0,-0.09029180565485742,-0.04376345428186666,-0.07902541598470134,-0.2276856669158258,-0.07537305771399164,0.04310481942536446
2279,8.0,300.66663,359.3948,0.0,0.0,0.0,-0.023111666429083272,0.0,0.0,-0.03416097225017547,-0.05345180115353204,-0.02163427272138648,-0.21684867338629782,-0.07317728597878584,-0.04526721571552636
2280,8.0,300.86262,316.53499,0.0,0.0,0.0,-0.02312180757275553,0.0,0.0,-0.00902115045711823,-0.05666798869344504,-0.03052959433603637,-0.19088149499103682,-0.08294726129175732,-0.045809526420798254
2281,8.0,299.64468,315.52238,0.0,0.0,0.0,-0.02313194871642779,0.0,0.0,-0.012732981037147387,-0.05896588489297975,-0.024212060009294274,-0.2109875687128518,-0.07346418166510023,-0.057363783484114646
2282,8.0,299.9761,369.75252,0.0,0.0,0.0,-0.023142089860100055,0.0,0.0,-0.015659917084263487,-0.05634838833365295,-0.04038722794165906,-0.1903205192056728,-0.06298200805559023,-0.004564908839996426
2283,8.0,300.07835,208.54931000000002,0.0,0.0,0.0,-0.023152231003772315,0.0,0.0,-0.006575713187997364,-0.03715261140892726,-0.01966545887607968,-0.2058574631915498,-0.028617117196289576,-0.012985737287842487
2284,8.0,299.92955,400.94473,0.0,0.0,0.0,-0.023162372147444578,0.0,0.0,-0.032830919373909466,-0.06390342425927693,-0.025142843710155474,-0.2168592821148448,-0.05431038673176785,-0.0074810291515700926
2285,8.0,299.34846,908.4395300000001,0.0,0.0,0.0,-0.023172513291116838,0.0,0.0,-0.08103506380903812,-0.12265654892275889,-0.07245131660013823,-0.24878094631276776,-0.06188179576575774,-0.009711256051126351
2286,8.0,300.14964,1050.1941,0.0,0.0,0.0,-0.023182654434789098,0.0,0.0,-0.10010261190710859,-0.09588336857645172,-0.12324680763601288,-0.24457732628540277,-0.040045558994688965,0.014759592694658387
2287,8.0,300.52502999999996,756.16183,0.0,0.0,0.0,-0.02319279557846136,0.0,0.0,-0.05548101686380004,-0.10824514341296389,-0.06612815670884094,-0.25950938022658177,-0.03522224432541487,0.00016618455731863885
2288,8.0,300.23537000000005,393.80686000000003,0.0,0.0,0.0,-0.02320293672213362,0.0,0.0,-0.05218905138865836,-0.02158527194655048,-0.04593312874749686,-0.23787786861171778,-0.03869397556704807,0.030632173749660176
2289,8.0,300.75331,423.72863,0.0,0.0,0.0,-0.023213077865805884,0.0,0.0,-0.030523503689685268,-0.03973882893766706,-0.058540591402006535,-0.2308520734783258,-0.04232556119745766,-0.002223797827671758
2290,8.0,300.77743,622.52123,0.0,0.0,0.0,-0.023223219009478144,0.0,0.0,-0.07886800150216572,-0.05134399776550805,-0.05901891029721295,-0.18732796609533084,-0.07313474467333733,0.008219432426169822
2291,8.0,299.83114,632.36152,0.0,0.0,0.0,-0.023233360153150404,0.0,0.0,-0.06957272068879293,-0.047743353753402155,-0.07490603858390042,-0.19333996397366882,-0.05491941691637444,-0.03823568558656836
2292,8.0,299.62609,585.86622,0.0,0.0,0.0,-0.023243501296822667,0.0,0.0,-0.07323521450025293,-0.04253941269731316,-0.06231407561617044,-0.2046515841150388,-0.07046338880494503,-0.017768801610144182
2293,8.0,299.70864,409.54167,0.0,0.0,0.0,-0.023253642440494927,0.0,0.0,-0.019026272341996883,-0.044926076698358554,-0.060538093397394646,-0.22412410294682678,-0.04918486718041845,-0.014896842486953886
2294,8.0,298.67964,467.31960999999995,0.0,0.0,0.0,-0.02326378358416719,0.0,0.0,-0.06109689069504364,-0.03041542638101887,-0.05054117539327565,-0.23595508469195378,-0.048597085863658955,0.04789851375446525
2295,8.0,299.34511000000003,878.6823099999999,0.0,0.0,0.0,-0.02327392472783945,0.0,0.0,-0.06100669117114164,-0.09585678393357801,-0.11023401150424988,-0.2531841462123297,-0.03365193667818757,0.036764207314344766
2296,8.0,299.88352000000003,778.07829,0.0,0.0,0.0,-0.02328406587151171,0.0,0.0,-0.08134691483206542,-0.07044948701357302,-0.08471997071271012,-0.2555737344531638,-0.04995444279036965,0.02893518045567997
2297,8.0,299.75919,426.88651,0.0,0.0,0.0,-0.023294207015183973,0.0,0.0,-0.0012920449530899086,-0.08273429030623872,-0.045736502499341365,-0.2537353643992308,-0.06732872128857743,-0.02242298659922648
2298,8.0,300.75473,487.47804,0.0,0.0,0.0,-0.023304348158856233,0.0,0.0,-0.04516118314556175,-0.06320162393526464,-0.03981834475251466,-0.2188168509105418,-0.06219320501174145,-0.036124704646230764
2299,8.0,300.83277000000004,622.23298,0.0,0.0,0.0,-0.023314489302528496,0.0,0.0,-0.04884540509216615,-0.07763918649639114,-0.06265869616068184,-0.2170611823297708,-0.06007526101671664,-0.04520056817694876
2300,8.0,300.1509,490.30100999999996,0.0,0.0,0.0,-0.023324630446200756,0.0,0.0,-0.06196261462023395,-0.05516880208398685,-0.03190784853280947,-0.20891995082379378,-0.05448543581904386,-0.05028754268124405
2301,8.0,300.26386,285.25501,0.0,0.0,0.0,-0.023334771589873016,0.0,0.0,-0.01941826638168368,-0.020948618537717678,-0.04634351631624896,-0.21402414754003882,-0.05024766318380825,-0.028007455756870678
2302,8.0,300.67604,-8.0984342,0.0,0.0,0.0,-0.023344912733545282,0.0,0.0,0.002855074526173917,-0.012924518743300688,0.01253116593522979,-0.2203038866248008,-0.037032319370305364,-0.01996192673608878
2303,8.0,300.43945,218.91273999999999,0.0,0.0,0.0,-0.023355053877217542,0.0,0.0,0.005256876889013355,-0.04187261712450556,-0.029928266878689973,-0.18938081079793084,-0.06301576346942164,-0.036388965338561265
2304,8.0,299.45701,909.59109,0.0,0.0,0.0,-0.0233651950208898,0.0,0.0,-0.1095640809356329,-0.07276949537004003,-0.0941594005383093,-0.2165168137135458,-0.050775443882646154,0.006867267392971523
2305,8.0,299.23573,1033.2326,0.0,0.0,0.0,-0.02337533616456206,0.0,0.0,-0.08664287824898632,-0.11720009580924888,-0.11023393044424189,-0.2097576654764698,-0.06012971003734034,0.021235149453996082
2306,8.0,299.67396,565.06714,0.0,0.0,0.0,-0.02338547730823432,0.0,0.0,-0.06546128311577565,-0.03646685083399797,-0.06983816587049034,-0.23465468964611477,-0.05274314720584335,0.08054625068254602
2307,8.0,300.59937,675.38972,0.0,0.0,0.0,-0.023395618451906585,0.0,0.0,-0.03738868854972626,-0.07576515713168884,-0.09214776573052641,-0.23603184851952977,-0.05152384053900715,0.039922644664808264
2308,8.0,300.06886000000003,999.1438099999999,0.0,0.0,0.0,-0.02340575959557884,0.0,0.0,-0.11229007834216788,-0.07670064433951422,-0.11472404693738189,-0.25910013864369275,-0.039904721283789364,0.05185428470136945
2309,8.0,299.61912,794.58389,0.0,0.0,0.0,-0.023415900739251108,0.0,0.0,-0.08016013248018912,-0.06070369798048854,-0.10066983032633871,-0.25967050725748375,-0.03322574747412597,-0.025886213632770372
2310,8.0,298.73427000000004,413.60359,0.0,0.0,0.0,-0.023426041882923368,0.0,0.0,-0.055399920378796444,-0.049536757794397354,-0.02078848651841388,-0.24480025143990378,-0.04013195680421576,-0.013197785202519989
2311,8.0,299.43422999999996,176.23182,0.0,0.0,0.0,-0.023436183026595628,0.0,0.0,-0.011827807232563688,-0.017835127948440083,-0.02390713657720068,-0.2037179248103938,-0.07947149022197542,-0.05576063336139605
2312,8.0,299.53477999999996,329.15821,0.0,0.0,0.0,-0.02344632417026789,0.0,0.0,-0.056381925898712854,-0.03343558346383517,-0.010238368410198291,-0.2141252901650208,-0.06816755152961353,-0.007307276416472033
2313,8.0,300.11012,569.23365,0.0,0.0,0.0,-0.02345646531394015,0.0,0.0,-0.041807014246781064,-0.07568269275905022,-0.055543107816677956,-0.20011795866260482,-0.08671500139110433,-0.02199385593012458
2314,8.0,299.5104,653.87537,0.0,0.0,0.0,-0.023466606457612414,0.0,0.0,-0.06929963965434194,-0.05970153486308274,-0.06976061069458622,-0.1985645651992968,-0.03092102399541747,0.030443588654298265
2315,8.0,300.58988999999997,479.26836,0.0,0.0,0.0,-0.023476747601284674,0.0,0.0,0.001147775566751629,-0.095517081705052,-0.051316307666775245,-0.20353895444523082,-0.028161788945852174,-0.01754755541105888
2316,8.0,301.04861,562.7033,0.0,0.0,0.0,-0.023486888744956934,0.0,0.0,-0.03060217040094907,-0.07964386635548762,-0.060801716755412245,-0.20442308608498783,-0.027593063823723372,0.0007565410593397893
2317,8.0,300.54482,1014.0257,0.0,0.0,0.0,-0.023497029888629197,0.0,0.0,-0.07218623416197663,-0.1135544726119539,-0.12249778276458986,-0.25349829427333376,-0.051231806661435654,-0.004567298185057236
2318,8.0,299.93975,909.0718699999999,0.0,0.0,0.0,-0.023507171032301457,0.0,0.0,-0.1032569537006679,-0.1029679241096429,-0.07011027013184493,-0.25666652468601375,-0.056385519896817546,-0.0013298984569507588
2319,8.0,299.09382,285.52333,0.0,0.0,0.0,-0.02351731217597372,0.0,0.0,-0.014983414575497884,-0.03528481251908987,-0.03652373570786206,-0.25404477044976675,-0.08772401711893642,-0.0005789784228057215
2320,8.0,298.98648,283.96494,0.0,0.0,0.0,-0.02352745331964598,0.0,0.0,-0.034053172572036466,-0.04457423269388426,-0.007690845990852404,-0.26119609713804776,-0.044424092333816556,-0.025263192490782977
2321,8.0,298.90652,485.18699999999995,0.0,0.0,0.0,-0.02353759446331824,0.0,0.0,-0.05565280632550435,-0.03514977262526247,-0.056682154943093144,-0.2234708606073568,-0.06616859856008224,-0.017033587337584182
2322,8.0,299.48208,667.2794700000001,0.0,0.0,0.0,-0.023547735606990503,0.0,0.0,-0.07900601123203622,-0.060921965224279846,-0.06290832045531784,-0.2230239970482548,-0.030060224465713176,-0.003629054025034747
2323,8.0,300.08041000000003,697.96417,0.0,0.0,0.0,-0.023557876750662763,0.0,0.0,-0.05156185464300885,-0.06939509085351223,-0.09120673503140392,-0.1917065946799678,-0.05459653058650804,0.0013561938169209086
2324,8.0,300.41267,528.5033400000001,0.0,0.0,0.0,-0.023568017894335026,0.0,0.0,-0.05827023094407404,-0.044657844065636054,-0.05772374362188994,-0.16684712155902884,-0.05799334312899734,0.01077956758011049
2325,8.0,300.01565,616.8923599999999,0.0,0.0,0.0,-0.023578159038007286,0.0,0.0,-0.026803027654502872,-0.08080722236505192,-0.07990962260496572,-0.2067668247587968,-0.07285325163655614,0.03354849904172907
2326,8.0,300.05062000000004,1003.7074,0.0,0.0,0.0,-0.023588300181679546,0.0,0.0,-0.11104765133454989,-0.10323875572887191,-0.09081558908205083,-0.24992649647832477,-0.058467902866332744,0.026255336591199975
2327,8.0,300.14905,1074.3636,0.0,0.0,0.0,-0.02359844132535181,0.0,0.0,-0.0948357936160641,-0.10352903161751989,-0.12821489446632486,-0.27089111727487175,-0.07744254910248452,0.01920004270764668
2328,8.0,300.50937999999996,418.32921,0.0,0.0,0.0,-0.02360858246902407,0.0,0.0,-0.028562438167893174,-0.06564350702700973,-0.03295569099122347,-0.3032541836138577,-0.028191136721748576,-0.03016050886786047
2329,8.0,300.09819,96.84042099999999,0.0,0.0,0.0,-0.02361872361269633,0.0,0.0,0.04588079134008156,-0.02062737265976318,-0.054690489268281045,-0.25442478989977174,-0.04054707321118456,-0.0022838065515941577
2330,8.0,299.2925,446.90347,0.0,0.0,0.0,-0.023628864756368592,0.0,0.0,-0.060670127991425446,-0.023152631035986776,-0.052024737686191855,-0.24948265240452075,-0.016792577695298384,-0.01935249834419288
2331,8.0,299.02603999999997,629.99783,0.0,0.0,0.0,-0.023639005900040852,0.0,0.0,-0.041996634883745165,-0.06004358783184074,-0.08946338655859881,-0.2000762127584848,-0.05371657353716305,-0.0019861729473450085
2332,8.0,299.99152000000004,469.99276,0.0,0.0,0.0,-0.023649147043713112,0.0,0.0,-0.07128051826858944,-0.04121144103675256,-0.030374104015440672,-0.21532383331080782,-0.056834168802595744,-0.04934778057124675
2333,8.0,299.76741,456.97574000000003,0.0,0.0,0.0,-0.02365928818738537,0.0,0.0,-0.012215604390336289,-0.06484369502082443,-0.06184991587786144,-0.18366387134871281,-0.08391736821574941,-0.0017169370956984981
2334,8.0,299.70344,555.17628,0.0,0.0,0.0,-0.02366942933105764,0.0,0.0,-0.05686070278296445,-0.07735468005381252,-0.034544344544761366,-0.2349561011533618,-0.06900332884809834,-0.030652322227898675
2335,8.0,299.74682,896.2733900000001,0.0,0.0,0.0,-0.023679570474729895,0.0,0.0,-0.06620073682675404,-0.09004698923194591,-0.1161970086077519,-0.2169328846021088,-0.05440457339481336,0.020413341814639982
2336,8.0,299.64926,984.75772,0.0,0.0,0.0,-0.023689711618402155,0.0,0.0,-0.1089960731945749,-0.11315261762229388,-0.07719307375561323,-0.23727468082718778,-0.039204324311165564,-0.0069380295375552035
2337,8.0,300.18652000000003,582.27372,0.0,0.0,0.0,-0.02369985276207442,0.0,0.0,-0.04462555786444966,-0.055877011214881644,-0.07649410242588013,-0.1928667559119668,-0.06297443198459253,0.03761255704007036
2338,8.0,300.05714,281.17252,0.0,0.0,0.0,-0.02370999390574668,0.0,0.0,-0.03930426319502876,-0.05032017136096425,0.0041550084418924054,-0.24408233334655077,-0.06555996759601503,-0.003101572944251417
2339,8.0,300.536,561.6639700000001,0.0,0.0,0.0,-0.023720135049418944,0.0,0.0,-0.04408825565442205,-0.07125341281516434,-0.055390152647832445,-0.22907924044086078,-0.07424417956558002,-0.0021135694903680682
2340,8.0,300.42875,838.0192,0.0,0.0,0.0,-0.023730276193091204,0.0,0.0,-0.0946445122621861,-0.07531446247395873,-0.08477793571118082,-0.26791489775614175,-0.03330191855039347,-0.03380921437195967
2341,8.0,300.02293,504.4343,0.0,0.0,0.0,-0.023740417336763464,0.0,0.0,-0.04195719007060226,-0.039389878775478365,-0.07198836060294803,-0.24130393064484376,-0.02129551990820418,-0.007060565215873534
2342,8.0,299.83857,170.59877,0.0,0.0,0.0,-0.023750558480435727,0.0,0.0,-0.013201195802356588,-0.02799011296815907,-0.010666457458197389,-0.2427539827304528,-0.02197664081092558,-0.01738769595603198
2343,8.0,301.03752000000003,411.67545,0.0,0.0,0.0,-0.023760699624107987,0.0,0.0,-0.019534808381685483,-0.03549244266333137,-0.07011180723224664,-0.2381355786421518,-0.04707350931104366,-0.003016789951408987
2344,8.0,299.36093,729.04976,0.0,0.0,0.0,-0.02377084076778025,0.0,0.0,-0.07768106918927463,-0.08537167899152873,-0.058560174486689244,-0.2245035549767758,-0.07374355295617202,-0.0032012985389685672
2345,8.0,298.84,893.29975,0.0,0.0,0.0,-0.02378098191145251,0.0,0.0,-0.054719544214898545,-0.11476691754911289,-0.1020543575544809,-0.19364847836411683,-0.097822225682552,0.007902677475308543
2346,8.0,298.73922999999996,707.5421200000001,0.0,0.0,0.0,-0.02379112305512477,0.0,0.0,-0.07549531849755783,-0.08528921968514061,-0.05429059897056495,-0.1941725819783418,-0.08409919493294432,0.008585434270316392
2347,8.0,299.37153,466.30347,0.0,0.0,0.0,-0.023801264198797033,0.0,0.0,-0.018291127983693783,-0.06196716208668274,-0.06148632222522754,-0.19065685744386682,-0.06671258720751974,0.016134636915114683
2348,8.0,299.54623,493.43861,0.0,0.0,0.0,-0.023811405342469293,0.0,0.0,-0.05611705928282255,-0.04828433304804265,-0.04559162496029305,-0.2243524388568618,-0.033534940742140966,0.006177108198033114
2349,8.0,300.23405,653.5939400000001,0.0,0.0,0.0,-0.023821546486141557,0.0,0.0,-0.07018888415410353,-0.038919156216271664,-0.08956819714894282,-0.23741886631641776,-0.027671452904459774,0.01918708425211778
2350,8.0,300.12945,624.56757,0.0,0.0,0.0,-0.023831687629813816,0.0,0.0,-0.09546851865425922,-0.05465497485227604,-0.03972945333449176,-0.24446649698946477,-0.04304313478577666,-0.022650499750180277
2351,8.0,300.40412000000003,326.21927,0.0,0.0,0.0,-0.023841828773486076,0.0,0.0,-0.00931844512920893,-0.037702785948225265,-0.05214128171269386,-0.2710603401740727,-0.06054219402054935,-0.03623932045779246
2352,8.0,300.54627999999997,373.05825,0.0,0.0,0.0,-0.02385196991715834,0.0,0.0,-0.024906374441567774,-0.060756145832164744,-0.027737871448514768,-0.24425448453854076,-0.053037603764403946,-0.06329683803391153
2353,8.0,299.70392000000004,784.4438299999999,0.0,0.0,0.0,-0.0238621110608306,0.0,0.0,-0.052738720316156444,-0.07777599248514283,-0.10793661889001491,-0.23217301723619277,-0.06339899998849415,0.006795499192363553
2354,8.0,300.13035,822.95841,0.0,0.0,0.0,-0.023872252204502863,0.0,0.0,-0.08680751315173452,-0.08731344108566572,-0.07603785211785172,-0.2045766137401398,-0.05987582502603385,-0.015221203095715787
2355,8.0,300.72264,555.13368,0.0,0.0,0.0,-0.023882393348175122,0.0,0.0,-0.016430993317612785,-0.09324185191025432,-0.05907393383064335,-0.2009418019214118,-0.07669968985792003,0.006849465399314604
2356,8.0,300.25105,528.22229,0.0,0.0,0.0,-0.023892534491847382,0.0,0.0,-0.05382621226423354,-0.07030767455607724,-0.036432498615857664,-0.1964502162156268,-0.04419538050799446,-0.01044140143873609
2357,8.0,300.48894,653.69268,0.0,0.0,0.0,-0.023902675635519642,0.0,0.0,-0.026468158628953877,-0.07478112409832233,-0.0974569682732539,-0.22867029270050077,-0.06742070210615524,0.014291055715917387
2358,8.0,300.87613999999996,736.03634,0.0,0.0,0.0,-0.023912816779191905,0.0,0.0,-0.1027476942004079,-0.07871724103303683,-0.042271729246144855,-0.2302577414996698,-0.07042946215184673,-0.003272315211977367
2359,8.0,300.27907000000005,674.1845400000001,0.0,0.0,0.0,-0.023922957922864165,0.0,0.0,-0.059038449812141354,-0.04843307410972225,-0.0974637408369223,-0.25899935065624574,-0.05898602425196735,0.005816178785212155
2360,8.0,299.61455,460.8593,0.0,0.0,0.0,-0.023933099066536425,0.0,0.0,-0.06351585508277685,-0.04954920151887545,-0.027024663954876675,-0.2236513609801708,-0.04377570042257526,-0.036942085395899965
2361,8.0,299.27349,392.38736,0.0,0.0,0.0,-0.023943240210208685,0.0,0.0,-0.013366616987182387,-0.03157610842356927,-0.07433323209036884,-0.23914940629470874,-0.04163451348350656,-0.005482779073633165
2362,8.0,299.2482,555.4286099999999,0.0,0.0,0.0,-0.023953381353880948,0.0,0.0,-0.08074150701656634,-0.03913959384177717,-0.04895532651601455,-0.2476397227251378,-0.061272186002093935,-0.014391558980086289
2363,8.0,299.94954,818.01952,0.0,0.0,0.0,-0.023963522497553208,0.0,0.0,-0.05510869710130495,-0.08562155457218952,-0.1079272564590909,-0.22277956059413082,-0.04570021801326036,-0.018961613813365582
2364,8.0,299.65418,569.36406,0.0,0.0,0.0,-0.023973663641225475,0.0,0.0,-0.06335880841002753,-0.04796342964862195,-0.06175021713427194,-0.24725466742213578,-0.05243350608128415,-0.006420693015448064
2365,8.0,300.43634,476.46871,0.0,0.0,0.0,-0.02398380478489773,0.0,0.0,-0.006573185939597943,-0.060618395494319854,-0.07764300746251823,-0.2164438090438408,-0.027013503005025176,0.01003466987899481
2366,8.0,300.77322000000004,814.91386,0.0,0.0,0.0,-0.02399394592856999,0.0,0.0,-0.08485847794837972,-0.08309280960237182,-0.07976217850341412,-0.25953415419152676,-0.06542303089800044,0.027588297495252975
2367,8.0,300.53947999999997,867.7614599999999,0.0,0.0,0.0,-0.024004087072242258,0.0,0.0,-0.06618797595499464,-0.09463653595739892,-0.1029533029106999,-0.23096965101992978,-0.04220147859021166,0.011309818582692189
2368,8.0,300.83746,625.33694,0.0,0.0,0.0,-0.024014228215914517,0.0,0.0,-0.06114635655167554,-0.09710955622471701,-0.03183090029371527,-0.23386039276022377,-0.06940343598133585,-0.0035762032037937766
2369,8.0,300.81889,467.73905,0.0,0.0,0.0,-0.02402436935958678,0.0,0.0,-0.011183427791718388,-0.06370145615659424,-0.06729610679435864,-0.21699715505595182,-0.03854648586924196,-0.005519493279081574
2370,8.0,300.6086,478.88856,0.0,0.0,0.0,-0.02403451050325904,0.0,0.0,-0.060996368179122844,-0.043541008394662954,-0.04103278781887086,-0.2155144965821248,-0.1031698851195749,-0.01222469830998379
2371,8.0,300.73864,692.45469,0.0,0.0,0.0,-0.0240446516469313,0.0,0.0,-0.03798192824477446,-0.1009459399653386,-0.07156106594302733,-0.22112676729601277,-0.05799383658179604,-0.02960673425095717
2372,8.0,300.78756,705.2556099999999,0.0,0.0,0.0,-0.024054792790603564,0.0,0.0,-0.06923436304314964,-0.051004250953977655,-0.0941414822235409,-0.22264006645286377,-0.06537325903983834,-0.02091037442594328
2373,8.0,299.05906,467.01929,0.0,0.0,0.0,-0.024064933934275824,0.0,0.0,-0.036497565484279265,-0.05248492447085874,-0.05297971273319055,-0.24251999288485976,-0.052792642446728155,-0.01709391827503838
2374,8.0,299.59692,352.11235,0.0,0.0,0.0,-0.024075075077948087,0.0,0.0,-0.034231645431400365,-0.03414381792598247,-0.03865789778398746,-0.24463757413634876,-0.03227396821794267,-0.006178795056799594
2375,8.0,299.7471,541.64276,0.0,0.0,0.0,-0.024085216221620347,0.0,0.0,-0.04084705603579056,-0.048231133364792254,-0.07556768380644972,-0.27230842111724873,-0.021484718019876583,-0.008735593780810982
2376,8.0,299.37334,839.75319,0.0,0.0,0.0,-0.024095357365292606,0.0,0.0,-0.08044055856461502,-0.09052090251571751,-0.08430254004251292,-0.2266696303780508,-0.04987501816803105,0.04153980904965996
2377,8.0,300.11686000000003,647.35112,0.0,0.0,0.0,-0.02410549850896487,0.0,0.0,-0.04269735609640096,-0.07108570573811293,-0.08299551327476942,-0.24245415189336178,-0.03673984776869067,0.02053038030719078
2378,8.0,300.06298,554.7676700000001,0.0,0.0,0.0,-0.02411563965263713,0.0,0.0,-0.06251336367233865,-0.05561922519069015,-0.05050292925500105,-0.19268717759674384,-0.0959478356008141,0.054666852169948245
2379,8.0,300.18267000000003,675.79311,0.0,0.0,0.0,-0.024125780796309393,0.0,0.0,-0.06320162900151514,-0.08606371259782711,-0.05615888928670085,-0.2264153957954598,-0.06253248876797615,-0.030843486044765073
2380,8.0,301.21505,730.37499,0.0,0.0,0.0,-0.024135921939981653,0.0,0.0,-0.08171684332432452,-0.04918907115508336,-0.0911098440038415,-0.21171040106918979,-0.06285812505861393,0.025985613467580375
2381,8.0,301.0361,662.63361,0.0,0.0,0.0,-0.024146063083653913,0.0,0.0,-0.04440973052689916,-0.08845517433809601,-0.06855916661376293,-0.2326288075286758,-0.028843736660655175,-0.05076621013448485
2382,8.0,300.96836,542.09775,0.0,0.0,0.0,-0.024156204227326176,0.0,0.0,-0.06404553157255184,-0.037757125537838165,-0.06298152068229214,-0.23974405238089574,-0.05356716778341785,0.026925234735813774
2383,8.0,299.75006,322.50809,0.0,0.0,0.0,-0.024166345370998436,0.0,0.0,-0.00951164010722579,-0.05472016533720986,-0.033802600888556966,-0.2468329729955178,-0.03978850656356986,-0.06726574475511214
2384,8.0,299.46603,358.63593,0.0,0.0,0.0,-0.024176486514670695,0.0,0.0,-0.04533185397915566,-0.042956801824256256,-0.02072771177741588,-0.2155953640726058,-0.05930296888324735,0.007104053504865492
2385,8.0,299.91991,607.30486,0.0,0.0,0.0,-0.024186627658342955,0.0,0.0,-0.04540150783077996,-0.06519792421603414,-0.07400608200408164,-0.22815453826709978,-0.030058694458062172,-0.02262344394601008
2386,8.0,300.03409,805.48117,0.0,0.0,0.0,-0.02419676880201522,0.0,0.0,-0.07136560391923673,-0.1092414519712919,-0.06423910692465624,-0.21453150213011082,-0.07478033984274493,0.028526283377824976
2387,8.0,299.15826,598.79209,0.0,0.0,0.0,-0.02420690994568748,0.0,0.0,-0.04330269399764316,-0.09114854711791122,-0.04756660341920826,-0.2598188572046248,-0.05104196716244995,-0.02517251876583418
2388,8.0,300.64741000000004,701.0558599999999,0.0,0.0,0.0,-0.024217051089359738,0.0,0.0,-0.06241204372858914,-0.07124502209108623,-0.07944640924225012,-0.2131101452873338,-0.059092533049478944,0.017989715463196682
2389,8.0,299.43757999999997,708.62698,0.0,0.0,0.0,-0.024227192233032,0.0,0.0,-0.03355979171409357,-0.11351413512547288,-0.06833098573099324,-0.23832503614584977,-0.05344584020319375,-0.015758633988506084
2390,8.0,299.24552,567.71267,0.0,0.0,0.0,-0.02423733337670426,0.0,0.0,-0.05996075159641545,-0.04305023057622696,-0.06955949473523763,-0.2105079670430188,-0.08509043014802162,0.008311410203997322
2391,8.0,298.62885,458.3856,0.0,0.0,0.0,-0.02424747452037652,0.0,0.0,-0.026861559059779477,-0.07424515735192654,-0.038231060099861866,-0.23979294169822077,-0.07437648267088734,-0.02365580900914658
2392,8.0,298.61848,357.05879,0.0,0.0,0.0,-0.024257615664048784,0.0,0.0,-0.027256223013479772,-0.01918108783802598,-0.06209964555050785,-0.23827513357842478,-0.07275438578454883,-0.015014087682525087
2393,8.0,299.15827,243.40899,0.0,0.0,0.0,-0.024267756807721044,0.0,0.0,-0.027213162923980076,-0.00025429030121399874,-0.04652280180219305,-0.22742286023738878,-0.04737261668756325,-0.012987325050749187
2394,8.0,300.69042,634.85432,0.0,0.0,0.0,-0.02427789795139331,0.0,0.0,-0.07254154348179294,-0.05174356990269274,-0.06869474859639385,-0.2180804207378618,-0.05236795994556524,0.00948056018028344
2395,8.0,300.63797,887.0364400000001,0.0,0.0,0.0,-0.02428803909506557,0.0,0.0,-0.09064511076597592,-0.06314793181246564,-0.11584389094790189,-0.23467124615274876,-0.03597033396699557,-0.01055993143543409
2396,8.0,300.40144,619.82159,0.0,0.0,0.0,-0.024298180238737827,0.0,0.0,-0.08607314696950823,-0.03890031888366256,-0.06343681853522654,-0.21106544711553782,-0.07083598721121763,0.02947958858865887
2397,8.0,301.28359,735.28884,0.0,0.0,0.0,-0.024308321382410094,0.0,0.0,-0.040256672692774255,-0.1083832291365919,-0.07486954638154893,-0.2153980032181278,-0.05054500649190375,-0.0019699998545488484
2398,8.0,300.45537,985.0803,0.0,0.0,0.0,-0.024318462526082354,0.0,0.0,-0.1066442487849679,-0.07772483044784352,-0.11507073045909688,-0.2662809103798797,-0.06421553670083004,0.044723615142877156
2399,8.0,299.69248999999996,797.1080099999999,0.0,0.0,0.0,-0.024328603669754617,0.0,0.0,-0.05457576605220874,-0.11968872924735788,-0.06803643088717294,-0.26462659720661175,-0.053444694217330654,-0.028058313819139973
2400,8.0,299.71573,193.91081,0.0,0.0,0.0,-0.024338744813426877,0.0,0.0,0.00046115202697716165,-0.03921356312557736,-0.020191632560258983,-0.25158497410950376,-0.05443947682100805,-0.0007040183892762053
2401,8.0,299.78887000000003,58.46103000000001,0.0,0.0,0.0,-0.024348885957099137,0.0,0.0,0.019258394767655583,-0.008981389712594151,-0.02804769799784227,-0.21372083112260382,-0.03542945498411496,-0.043594348919677256
2402,8.0,299.29409,340.09327,0.0,0.0,0.0,-0.0243590271007714,0.0,0.0,-0.04892229253625435,-0.03360687440649027,-0.02085069399505328,-0.2028333980030978,-0.05104072593107745,-0.01263399866137859
2403,8.0,299.68478999999996,490.85874,0.0,0.0,0.0,-0.02436916824444366,0.0,0.0,-0.033351049021242266,-0.04512702749794086,-0.07073072369807894,-0.22181032607847478,-0.04840843085404015,-0.04885167001753445
2404,8.0,299.64599999999996,562.6591400000001,0.0,0.0,0.0,-0.024379309388115923,0.0,0.0,-0.05056110804924285,-0.051945403243112157,-0.06852781969541923,-0.22147008682739577,-0.06880846666836693,-0.007105662444699284
2405,8.0,301.18618,566.78022,0.0,0.0,0.0,-0.024389450531788183,0.0,0.0,-0.03697127611803086,-0.05951954399937165,-0.07579621628700413,-0.24199915193595675,-0.06110012498936285,-0.016221807834467784
2406,8.0,301.00971,664.0003,0.0,0.0,0.0,-0.024399591675460443,0.0,0.0,-0.04477461202041016,-0.06030704906984235,-0.09675784799575611,-0.25530360197650376,-0.038610479705807665,0.019316147996855382
2407,8.0,301.57417000000004,846.63311,0.0,0.0,0.0,-0.024409732819132706,0.0,0.0,-0.06754537645145964,-0.11927798805432088,-0.07053195746571223,-0.25221443546912675,-0.04141485200757766,-0.001931859499584688
2408,8.0,300.97339,800.22815,0.0,0.0,0.0,-0.024419873962804966,0.0,0.0,-0.09068750515015993,-0.06480514896052024,-0.08775672077916402,-0.2695488749999027,-0.04533828406429025,0.028499675430198972
2409,8.0,300.58132,492.00683,0.0,0.0,0.0,-0.02443001510647723,0.0,0.0,-0.04648007811172655,-0.05121877930489995,-0.051858934506078355,-0.24553108847203176,-0.06688600698863494,0.009778920284854291
2410,8.0,298.97900000000004,351.28925,0.0,0.0,0.0,-0.02444015625014949,0.0,0.0,-0.02900772004358907,-0.03978764226123457,-0.03798779800260376,-0.2198557058405688,-0.06813127717603353,-0.002669613483520338
2411,8.0,298.96069,705.79137,0.0,0.0,0.0,-0.02445029739382175,0.0,0.0,-0.07875112310313072,-0.06477946509698543,-0.07101236466937473,-0.22092763325385978,-0.06872031897591743,-0.029005264938596773
2412,8.0,299.41168,757.46092,0.0,0.0,0.0,-0.02446043853749401,0.0,0.0,-0.05705098304574365,-0.08809733695928022,-0.08510088486255342,-0.23353979029608277,-0.05987749384894854,-0.022915703778353877
2413,8.0,300.35308,459.34292999999997,0.0,0.0,0.0,-0.02447057968116627,0.0,0.0,-0.04410166399299536,-0.04150088302056826,-0.05402623290022405,-0.2307894748871478,-0.06824752533350634,-0.017764106209180786
2414,8.0,300.63728,539.85409,0.0,0.0,0.0,-0.024480720824838532,0.0,0.0,-0.05026006840478255,-0.03698179061431856,-0.07686030519752152,-0.23530275427757377,-0.04650502432918855,0.02328526952707718
2415,8.0,299.83082,576.12972,0.0,0.0,0.0,-0.02449086196851079,0.0,0.0,-0.06661183671032643,-0.06632487820250584,-0.04219233502130926,-0.23207068910859377,-0.06079585814333403,-0.017301758162050585
2416,8.0,299.87011,676.54384,0.0,0.0,0.0,-0.02450100311218305,0.0,0.0,-0.06850644619780984,-0.05515468649684375,-0.08199130237891152,-0.2609771337914377,-0.04571596493306446,0.022848720853993178
2417,8.0,300.81094,709.15802,0.0,0.0,0.0,-0.024511144255855315,0.0,0.0,-0.07571837436132171,-0.08514331167074062,-0.05470464538542815,-0.25499090286314274,-0.05266252086888615,-0.02183794612398748
2418,8.0,300.26243999999997,672.09297,0.0,0.0,0.0,-0.024521285399527575,0.0,0.0,-0.05745312681168215,-0.07988914583369483,-0.06695720705991183,-0.24327533030440576,-0.038922042965806564,0.019500184612518384
2419,8.0,299.49473,462.43098,0.0,0.0,0.0,-0.024531426543199838,0.0,0.0,-0.044271186814225955,-0.06161880366255244,-0.03467747851515067,-0.22276660112535177,-0.05735927654766985,-0.04069194973698276
2420,8.0,298.51657,541.83546,0.0,0.0,0.0,-0.024541567686872098,0.0,0.0,-0.02906345791833997,-0.07470829269438443,-0.06093269959583924,-0.24913964698066873,-0.049777189884126154,0.01035179770589289
2421,8.0,299.50549,565.26895,0.0,0.0,0.0,-0.024551708830544357,0.0,0.0,-0.04064121630447576,-0.05641680298040494,-0.07476962776268772,-0.2371949279118168,-0.06074345386141214,-0.025580045929553975
2422,8.0,299.28007,464.70221,0.0,0.0,0.0,-0.02456184997421662,0.0,0.0,-0.03214003175347417,-0.05791917220842724,-0.05119866426391475,-0.23081146241431777,-0.05914877349627945,0.015683054650296985
2423,8.0,299.81776,398.19158999999996,0.0,0.0,0.0,-0.02457199111788888,0.0,0.0,-0.029468459049560473,-0.06974053415710484,-0.021831308322582378,-0.22025553433002878,-0.06324868129640884,-0.04244000070350196
2424,8.0,299.4977,562.34636,0.0,0.0,0.0,-0.024582132261561147,0.0,0.0,-0.06246844832190585,-0.03200894353503677,-0.07646186182094822,-0.23530053525985475,-0.07183814120937253,0.00935926796248783
2425,8.0,300.0669,676.4507,0.0,0.0,0.0,-0.024592273405233407,0.0,0.0,-0.06154972533698494,-0.07364359279405672,-0.07043080470822924,-0.2207701133933138,-0.06834115065599644,-0.005340357450177245
2426,8.0,300.31453999999997,898.1814699999999,0.0,0.0,0.0,-0.024602414548905667,0.0,0.0,-0.08398010055594061,-0.06985019010942703,-0.11919444558357589,-0.23683549770384377,-0.021241457949118678,0.015412611105856287
2427,8.0,300.96468,1061.7402,0.0,0.0,0.0,-0.02461255569257793,0.0,0.0,-0.1101010730911299,-0.09296685076686381,-0.11967458427596188,-0.2141812924980478,-0.051355138450357544,0.02237104739910048
2428,8.0,299.38883,761.05698,0.0,0.0,0.0,-0.02462269683625019,0.0,0.0,-0.08481817795215242,-0.07741179493544934,-0.06911234543960743,-0.24264551430724776,-0.03544232022063467,0.005472652044183704
2429,8.0,299.70705,702.13827,0.0,0.0,0.0,-0.024632837979922453,0.0,0.0,-0.06000778463955724,-0.06194826699881794,-0.09147644903577261,-0.23639562557043178,-0.059930205145650735,0.01004010100085582
2430,8.0,299.25405,619.43818,0.0,0.0,0.0,-0.024642979123594713,0.0,0.0,-0.04152020266022496,-0.08588789749347552,-0.06088563919494473,-0.23803364568209176,-0.04552250914447186,-0.009140980656344553
2431,8.0,299.59292,376.89457999999996,0.0,0.0,0.0,-0.024653120267266973,0.0,0.0,-0.013545329986819989,-0.056454265876352244,-0.04456694539916505,-0.2391953267892408,-0.07308397780357702,-0.00889824200408811
2432,8.0,299.90851000000004,169.59322,0.0,0.0,0.0,-0.024663261410939236,0.0,0.0,-0.0010549190984374091,-0.02113297736691248,-0.029364207773271676,-0.24359149473310876,-0.06508387278477813,-0.023121625582926776
2433,8.0,299.48762,328.18812,0.0,0.0,0.0,-0.024673402554611496,0.0,0.0,-0.028038872589471273,-0.03442955242768227,-0.037292566578989765,-0.22691219231948978,-0.06519563325755803,0.009162378066656311
2434,8.0,298.20465,787.10287,0.0,0.0,0.0,-0.02468354369828376,0.0,0.0,-0.09160786453399232,-0.07180098330170533,-0.07585076967238813,-0.2411599579381348,-0.02335842618429718,-0.002226491553062608
2435,8.0,299.02771,1007.9133,0.0,0.0,0.0,-0.02469368484195602,0.0,0.0,-0.1028037978584449,-0.09278503316891981,-0.1107916536967849,-0.21410864246587777,-0.059245557119331244,-0.008137871062020342
2436,8.0,299.07361000000003,855.2688,0.0,0.0,0.0,-0.02470382598562828,0.0,0.0,-0.10206539184806991,-0.09624875669501272,-0.06166620755523085,-0.23539553758923076,-0.05733514802303854,-0.01860504705017518
2437,8.0,300.37207,772.39987,0.0,0.0,0.0,-0.024713967129300542,0.0,0.0,-0.05319020936196495,-0.07607387518540693,-0.10552618809462389,-0.21920202780355577,-0.07065068200642943,0.016193838078707383
2438,8.0,299.80082000000004,593.76756,0.0,0.0,0.0,-0.024724108272972802,0.0,0.0,-0.04301319729832206,-0.07790821959669263,-0.059569095982262045,-0.23209937421892476,-0.045591875233067757,-0.025388822330931676
2439,8.0,299.7789,494.93345,0.0,0.0,0.0,-0.024734249416645062,0.0,0.0,-0.014535581336050185,-0.06361657923546754,-0.07229524872698553,-0.23584246194333877,-0.04722369830711615,0.013872201429329687
2440,8.0,299.96091,319.39997,0.0,0.0,0.0,-0.024744390560317322,0.0,0.0,-0.025152176756826575,-0.05568832986076025,-0.016249108845162185,-0.26447714281686174,-0.05117767884109366,-0.043441619705604055
2441,8.0,300.53753,97.57694599999999,0.0,0.0,0.0,-0.02475453170398958,0.0,0.0,0.04802399566009936,-0.05246768098065695,-0.025217269969750773,-0.2653553368110328,-0.06443926637591044,-0.020021034680672282
2442,8.0,299.55721,104.6516,0.0,0.0,0.0,-0.024764672847661845,0.0,0.0,0.006260737909611723,-0.042443429541840355,0.004371218484005676,-0.25039457749452076,-0.05715575006633335,-0.045737893691728655
2443,8.0,299.09954,716.1954099999999,0.0,0.0,0.0,-0.024774813991334105,0.0,0.0,-0.04323612346607316,-0.08235087849489893,-0.0921185182663899,-0.2211076067366218,-0.08253556055087563,-0.017638384163272985
2444,8.0,299.04145,873.57567,0.0,0.0,0.0,-0.024784955135006368,0.0,0.0,-0.09440715943951122,-0.07792494734259352,-0.09321308168691492,-0.2209245529735558,-0.07241014723532513,-0.009548528186391361
2445,8.0,299.56321,681.7104,0.0,0.0,0.0,-0.024795096278678628,0.0,0.0,-0.08665377676706192,-0.039101714500038756,-0.08146744701096101,-0.2059366588193658,-0.1015136265061149,0.044831925499066554
2446,8.0,300.54292000000004,641.83722,0.0,0.0,0.0,-0.024805237422350888,0.0,0.0,-0.07134515349246844,-0.05788977377002584,-0.06586755992887203,-0.20908932571050978,-0.047770495683830856,0.02652924139798227
2447,8.0,300.72459,705.1355900000001,0.0,0.0,0.0,-0.02481537856602315,0.0,0.0,-0.08863690580978151,-0.05316752674522636,-0.07253918058255973,-0.2150740874261598,-0.05870318156605295,0.01948073426359878
2448,8.0,301.28917,795.42264,0.0,0.0,0.0,-0.02482551970969541,0.0,0.0,-0.07784905187035322,-0.08932988781817351,-0.07460968015490213,-0.2630027423313498,-0.06909040857494243,-0.002305050555840778
2449,8.0,300.82709,794.8014900000001,0.0,0.0,0.0,-0.024835660853367674,0.0,0.0,-0.07056654171812543,-0.08555351178822422,-0.08547975224719473,-0.26331604939477077,-0.08055009292692522,0.01056084944002469
2450,8.0,300.48152000000005,533.15692,0.0,0.0,0.0,-0.024845801997039934,0.0,0.0,-0.028911563622349173,-0.06656573788377684,-0.06658908823233134,-0.2766537340385978,-0.047998291531562556,-0.0029325463115947867
2451,8.0,299.87442000000004,204.09547,0.0,0.0,0.0,-0.024855943140712194,0.0,0.0,-0.017024966605733383,-0.027952763556222972,-0.017062195440907583,-0.2299732715340948,-0.047767560298291156,0.0014632668934131986
2452,8.0,299.73257,498.77205,0.0,0.0,0.0,-0.02486608428438446,0.0,0.0,-0.040211332790549566,-0.055491466512081346,-0.055911450572530545,-0.28498760465358675,-0.04180181120751756,-0.03598706779239707
2453,8.0,299.79132000000004,797.38728,0.0,0.0,0.0,-0.024876225428056717,0.0,0.0,-0.08156145230223863,-0.06889328279448763,-0.09193108726289191,-0.21526682786018178,-0.06468506159841854,0.0005439280753465216
2454,8.0,299.43249,640.5676900000001,0.0,0.0,0.0,-0.024886366571728984,0.0,0.0,-0.03716513518016326,-0.09206131827174473,-0.06549012831962245,-0.24230503187614477,-0.04892092363536925,-0.034481648681573766
2455,8.0,300.37109,532.3063099999999,0.0,0.0,0.0,-0.024896507715401243,0.0,0.0,-0.049591123728512855,-0.04391075551515416,-0.06830594730777213,-0.2074811559467958,-0.05676659717992695,-0.0027945097305966376
2456,8.0,299.75269,612.03913,0.0,0.0,0.0,-0.024906648859073503,0.0,0.0,-0.05740518386995054,-0.07809883220550463,-0.050540594800968355,-0.23241229624730775,-0.08364279567715122,-0.005206472965438875
2457,8.0,300.54732,773.435,0.0,0.0,0.0,-0.024916790002745767,0.0,0.0,-0.09155897926966772,-0.06241810499068735,-0.08112784205444462,-0.23571893662364776,-0.07325696999315003,0.030997408867456073
2458,8.0,299.79747000000003,852.39345,0.0,0.0,0.0,-0.024926931146418026,0.0,0.0,-0.07352955352180193,-0.09034679777753472,-0.0952299722229665,-0.22998453887520678,-0.03966422941230466,-0.0075750376852480135
2459,8.0,299.81279,606.7062400000001,0.0,0.0,0.0,-0.02493707229009029,0.0,0.0,-0.06337695571931853,-0.06717131592529273,-0.053875276873825845,-0.23310127591780477,-0.039413968796605865,-0.007796885045617642
2460,8.0,299.47909,232.70543999999998,0.0,0.0,0.0,-0.02494721343376255,0.0,0.0,0.004885108739872696,-0.03739218628907146,-0.038229565555964365,-0.2532485585211868,-0.03701132381498326,-0.02906154287565097
2461,8.0,299.57263,341.00502,0.0,0.0,0.0,-0.02495735457743481,0.0,0.0,-0.018009320839381584,-0.04256735914832126,-0.04308033018369755,-0.24197040603061976,-0.07558473883213293,0.0025321215244509376
2462,8.0,298.37507999999997,646.0624799999999,0.0,0.0,0.0,-0.024967495721107073,0.0,0.0,-0.06104120753579815,-0.050319971750694546,-0.08502568447988172,-0.2438928859753538,-0.06207300720537884,0.0012429232975169789
2463,8.0,299.01631000000003,801.89393,0.0,0.0,0.0,-0.024977636864779332,0.0,0.0,-0.08948844119382152,-0.06588366148621114,-0.08838362874853502,-0.26712046914773774,-0.06051004359487634,0.035815848790499066
2464,8.0,299.5556,530.08822,0.0,0.0,0.0,-0.024987778008451592,0.0,0.0,-0.057694010810955536,-0.052712088050528044,-0.05072748270241275,-0.2587613686052588,-0.06967856479423894,-0.006342335446789774
2465,8.0,299.59262,691.63998,0.0,0.0,0.0,-0.024997919152123852,0.0,0.0,-0.07067647935397543,-0.06019006022654644,-0.07937474307592722,-0.27085369794867875,-0.05240625471984465,0.02189558384267588
2466,8.0,298.81198,969.81524,0.0,0.0,0.0,-0.025008060295796115,0.0,0.0,-0.08490845043006162,-0.1020859000300939,-0.10780526114705088,-0.2408518589802278,-0.036499646699984664,-0.03249827544558007
2467,8.0,299.55165,1043.5246,0.0,0.0,0.0,-0.025018201439468375,0.0,0.0,-0.08819613492353082,-0.10782150354615389,-0.12118778210780287,-0.2273306139482848,-0.052997737439219456,0.01329379672899559
2468,8.0,300.13014,660.1020599999999,0.0,0.0,0.0,-0.025028342583140635,0.0,0.0,-0.07731398083704583,-0.07690414244984792,-0.04643641919141775,-0.23472785643583577,-0.06681213902984473,-0.03440692655294927
2469,8.0,300.71691,188.62635,0.0,0.0,0.0,-0.0250384837268129,0.0,0.0,-0.014298807079182385,-0.01803157485132788,-0.025007317456280077,-0.2226657726079008,-0.07265810878654703,0.029353207930186077
2470,8.0,299.68416,1.1578781999999999,0.0,0.0,0.0,-0.025048624870485158,0.0,0.0,0.02958232201629787,-0.03694046216923977,0.007006174254480563,-0.23598533020743878,-0.05230632495523235,-0.035704480445507863
2471,8.0,299.41148,537.61932,0.0,0.0,0.0,-0.025058766014157418,0.0,0.0,-0.02199850674808358,-0.09181095025153532,-0.04961339395246075,-0.2572280982889368,-0.06551606346918204,0.0018721073305876079
2472,8.0,300.39932000000005,993.5033699999999,0.0,0.0,0.0,-0.02506890715782968,0.0,0.0,-0.08753232945176832,-0.1097049530970359,-0.10476293719179688,-0.27411583638062675,-0.058068546551419346,-0.04609457393893025
2473,8.0,300.49647000000004,587.24199,0.0,0.0,0.0,-0.02507904830150194,0.0,0.0,-0.037146858174859465,-0.06487324949974124,-0.07648679283965872,-0.27014384532612173,-0.03469719838859687,0.009632927258770902
2474,8.0,299.62483,304.81175,0.0,0.0,0.0,-0.025089189445174204,0.0,0.0,-0.005052918155184195,-0.05829865362262915,-0.02930358805953897,-0.24385391637650775,-0.05340947972335524,-0.019333993357616583
2475,8.0,299.6084,891.29929,0.0,0.0,0.0,-0.025099330588846464,0.0,0.0,-0.0952858630984825,-0.08109646473859791,-0.09455040057964802,-0.2310750898253358,-0.047698763656251454,0.033766177587212266
2476,8.0,299.22542999999996,1184.6678,0.0,0.0,0.0,-0.025109471732518724,0.0,0.0,-0.13457483229650188,-0.10299148217446791,-0.12254311557406389,-0.22316176866435178,-0.04918126912931336,0.003038912747467337
2477,8.0,299.62514,774.3248,0.0,0.0,0.0,-0.025119612876190987,0.0,0.0,-0.09095282367559482,-0.04690489233540246,-0.09751768728549641,-0.21665443334212778,-0.05713629870416365,0.009019893216394152
2478,8.0,299.60299,327.65988,0.0,0.0,0.0,-0.025129754019863247,0.0,0.0,-0.009590313303290231,-0.02976442535077007,-0.06024568259078595,-0.24842834541046874,-0.06111736543981435,-0.010270367861606391
2479,8.0,298.76024,306.89308,0.0,0.0,0.0,-0.02513989516353551,0.0,0.0,-0.015267728500557484,-0.04499542657495286,-0.03302467812428197,-0.24777973362395575,-0.06318655791952774,-0.0022338665952404677
2480,8.0,300.3154,626.86546,0.0,0.0,0.0,-0.02515003630720777,0.0,0.0,-0.06273482366719503,-0.07449540783512433,-0.05332121652039436,-0.2577965315950368,-0.07301842153535713,-0.003920952431067876
2481,8.0,300.03182999999996,766.56983,0.0,0.0,0.0,-0.02516017745088003,0.0,0.0,-0.0912975495981166,-0.06119737065446024,-0.08052316580551772,-0.2681380964881697,-0.06790176690913263,0.010912013553681888
2482,8.0,299.25714,321.4696,0.0,0.0,0.0,-0.025170318594552297,0.0,0.0,-0.0013178558781872488,-0.06230237967026614,-0.03409849423575936,-0.2304847703170758,-0.08298269059475392,-0.006232446548269584
2483,8.0,300.44191,224.61916000000002,0.0,0.0,0.0,-0.025180459738224553,0.0,0.0,0.01129709621443659,-0.060734515982280045,-0.01884119613173128,-0.25513241337210874,-0.06569944755178064,-0.030007474665507176
2484,8.0,300.58977999999996,657.3006,0.0,0.0,0.0,-0.02519060088189682,0.0,0.0,-0.04189292974926026,-0.08356613216133513,-0.07434390870667253,-0.23255758617914676,-0.05473467001239136,-0.03758945899079076
2485,8.0,299.72112000000004,1073.2915,0.0,0.0,0.0,-0.02520074202556908,0.0,0.0,-0.1276519529757669,-0.09082275681325823,-0.10777911929447091,-0.24244956187040875,-0.04549921249817266,-0.01047249504455479
2486,8.0,299.73656,861.05071,0.0,0.0,0.0,-0.02521088316924134,0.0,0.0,-0.06922762189023433,-0.08755697270745041,-0.1049533167530859,-0.2536283854536727,-0.04835639235540436,0.0018280029855348482
2487,8.0,299.74858,253.78477,0.0,0.0,0.0,-0.025221024312913603,0.0,0.0,-0.037096930276181966,-0.02715796916453287,-0.012889333633578188,-0.2334723483694268,-0.039319349475767665,-0.004427960084305636
2488,8.0,300.30642,456.85871,0.0,0.0,0.0,-0.025231165456585863,0.0,0.0,-0.011857381976482489,-0.055092022044409245,-0.07192423504386933,-0.24103287611059276,-0.06688136934292724,-0.004205021757553336
2489,8.0,299.63293,814.06083,0.0,0.0,0.0,-0.025241306600258126,0.0,0.0,-0.08574703749107374,-0.07242465089725653,-0.08928247784599451,-0.2301470236612428,-0.06649670819421415,-0.008641220882397101
2490,8.0,299.5892,749.25989,0.0,0.0,0.0,-0.025251447743930386,0.0,0.0,-0.03856373949194476,-0.096010899273788,-0.09318165877481371,-0.23796736899305077,-0.08616045163787452,-0.026380293633282273
2491,8.0,300.24297,528.433,0.0,0.0,0.0,-0.025261588887602646,0.0,0.0,-0.06157768192049403,-0.05944203543297215,-0.03961072068777376,-0.24943426971224578,-0.06672540279478453,-0.02187693092158498
2492,8.0,300.10821,276.52837999999997,0.0,0.0,0.0,-0.025271730031274905,0.0,0.0,-0.007309783602519473,-0.03247815939134477,-0.044269779409837055,-0.24922470932656374,-0.048136413732194155,-0.0001026164985774599
2493,8.0,300.25351,472.10366,0.0,0.0,0.0,-0.025281871174947165,0.0,0.0,-0.05646504888391645,-0.05212854718543705,-0.03491412611575597,-0.26232522251948376,-0.03967160283328236,0.007984061115390483
2494,8.0,300.36181,956.51285,0.0,0.0,0.0,-0.02529201231861943,0.0,0.0,-0.09408523873699011,-0.06396719822057094,-0.13270358227682386,-0.25383147117121574,-0.07183064923813313,0.038797823569797066
2495,8.0,298.86156,881.90935,0.0,0.0,0.0,-0.02530215346229169,0.0,0.0,-0.1077401395631239,-0.06038612310764634,-0.09995216149251031,-0.28211536486011873,-0.05917082688470594,-0.005198126115090105
2496,8.0,299.60655,562.3327400000001,0.0,0.0,0.0,-0.025312294605963948,0.0,0.0,-0.05831582517207385,-0.05187509888492365,-0.06074418745448453,-0.23402828830179379,-0.06343169047647045,0.004904670444978285
2497,8.0,299.32782000000003,496.77927,0.0,0.0,0.0,-0.02532243574963621,0.0,0.0,-0.06596366467435684,-0.03308107055859747,-0.051963759281923746,-0.24709853571422677,-0.05956772505487674,-0.013337980512856186
2498,8.0,298.05814,702.6587099999999,0.0,0.0,0.0,-0.02533257689330847,0.0,0.0,-0.0868275815832151,-0.05759833365701294,-0.06916478518528284,-0.1953673558337568,-0.04742570997955316,-0.0035090272552890274
2499,8.0,299.39866,762.7955,0.0,0.0,0.0,-0.025342718036980735,0.0,0.0,-0.05678957870544505,-0.07905681052579971,-0.0960243967783701,-0.2252775361981618,-0.055649200168398444,-0.024096626504901877
2500,8.0,300.25849,449.70898,0.0,0.0,0.0,-0.025352859180652994,0.0,0.0,-0.008213736744707703,-0.07296555521138963,-0.05552100781874685,-0.20398568628181982,-0.05340693950535455,-0.01769379374499148
2501,8.0,299.61953,244.26117000000002,0.0,0.0,0.0,-0.025363000324325254,0.0,0.0,0.016851677533881088,-0.06533922194247914,-0.025761750043486773,-0.2806492020979197,-0.05962402629668324,-0.015466999331473986
2502,8.0,300.96909,446.60222000000005,0.0,0.0,0.0,-0.025373141467997518,0.0,0.0,-0.01078751348739469,-0.06797149675451444,-0.05699691196740724,-0.24580926615448578,-0.0982928550227495,-0.011731819010840389
2503,8.0,300.67932,728.7629599999999,0.0,0.0,0.0,-0.025383282611669777,0.0,0.0,-0.05064229268700515,-0.1084091379416489,-0.062474317066485034,-0.2903613157639307,-0.07586289118333442,-0.027521554711165973
2504,8.0,299.65731,947.45966,0.0,0.0,0.0,-0.02539342375534204,0.0,0.0,-0.07697020027686732,-0.1059892737878269,-0.10504460045459489,-0.25460412503497076,-0.06149592175667494,-0.013788056074775186
2505,8.0,300.08387999999997,668.22118,0.0,0.0,0.0,-0.0254035648990143,0.0,0.0,-0.061761451038130646,-0.07230592635653933,-0.06905517786896544,-0.24820632204855678,-0.04836597466160005,0.007654069875822882
2506,8.0,300.01806,376.04104,0.0,0.0,0.0,-0.02541370604268656,0.0,0.0,-0.03160373367429568,-0.035936583619414667,-0.04676676912152075,-0.2266678166603718,-0.04866087299720425,0.0005566170266138235
2507,8.0,300.21488,828.31211,0.0,0.0,0.0,-0.025423847186358824,0.0,0.0,-0.09620286254498331,-0.06298557672244244,-0.09259775921918731,-0.2185112546803818,-0.05578510537781124,0.028744625602123677
2508,8.0,301.38966,992.2806300000001,0.0,0.0,0.0,-0.025433988330031083,0.0,0.0,-0.09931345827872522,-0.08852529023176592,-0.1137897898151779,-0.2013313357898558,-0.07644453524423822,-0.017029555615436284
2509,8.0,300.40469,656.41811,0.0,0.0,0.0,-0.025444129473703347,0.0,0.0,-0.08430492320674812,-0.07052637445766123,-0.04470341600213366,-0.24618055138862877,-0.05033795795321966,0.0033443789776395065
2510,8.0,301.3349,416.31094,0.0,0.0,0.0,-0.025454270617375607,0.0,0.0,-0.045248361157665555,-0.030053820725081174,-0.051245948593081354,-0.2242256002093438,-0.06704882918695423,-0.004644393750715975
2511,8.0,300.88133999999997,558.31475,0.0,0.0,0.0,-0.025464411761047866,0.0,0.0,-0.06794901780104594,-0.05399120383101695,-0.04777352226187955,-0.25655378034738674,-0.05270551915012974,-0.00961982988665329
2512,8.0,299.61782,683.99369,0.0,0.0,0.0,-0.025474552904720133,0.0,0.0,-0.05593974862132335,-0.05861690028028765,-0.09336035353594951,-0.26184831609491677,-0.04525738212330586,0.014928535936831785
2513,8.0,299.51887999999997,766.78703,0.0,0.0,0.0,-0.025484694048392393,0.0,0.0,-0.06462945747268084,-0.08289997290959032,-0.08555467905233942,-0.28150259172964276,-0.07271823403423093,0.01941590348245048
2514,8.0,299.72869,744.14085,0.0,0.0,0.0,-0.025494835192064656,0.0,0.0,-0.04374679746347276,-0.07855327690185483,-0.10390016486414791,-0.26185943144851376,-0.07347871369803442,0.013678793263491787
2515,8.0,299.1565,494.32394000000005,0.0,0.0,0.0,-0.025504976335736916,0.0,0.0,-0.06303358045918003,-0.039891687847753064,-0.04733686415778475,-0.2593748814083078,-0.06761945212652033,-0.012130036432641387
2516,8.0,299.82265,678.1686599999999,0.0,0.0,0.0,-0.025515117479409176,0.0,0.0,-0.04644613929962705,-0.09108593839423222,-0.06861426107470034,-0.21731917607023277,-0.06409181379736953,-0.007219450532254294
2517,8.0,299.51716,852.7973599999999,0.0,0.0,0.0,-0.02552525862308144,0.0,0.0,-0.10772472802910289,-0.08597410379873341,-0.06553026518258365,-0.25216954848969675,-0.04186638462314046,-0.026345340557832678
2518,8.0,299.57263,521.47122,0.0,0.0,0.0,-0.0255353997667537,0.0,0.0,-0.03220230103836967,-0.06261731097359743,-0.06369461773166935,-0.24918517230766177,-0.041778894530005856,0.005749567014363084
2519,8.0,300.80066,196.71829,0.0,0.0,0.0,-0.02554554091042596,0.0,0.0,-0.02015232656237978,-0.05549484874091514,0.015849727198996286,-0.25013330082373475,-0.016563672338707185,-0.049067935079128155
2520,8.0,300.17222000000004,534.44263,0.0,0.0,0.0,-0.02555568205409822,0.0,0.0,-0.007094579515105484,-0.058179152932335346,-0.0971834819387629,-0.24497493575714374,-0.050002993682161254,-0.014098363917900186
2521,8.0,299.72328,771.01576,0.0,0.0,0.0,-0.02556582319777048,0.0,0.0,-0.0842371813580625,-0.08826953172102452,-0.06186282671063564,-0.23247974830646476,-0.08205748179594292,-0.032297512097266265
2522,8.0,299.97587999999996,602.97106,0.0,0.0,0.0,-0.025575964341442742,0.0,0.0,-0.02070812666623298,-0.08131121499129212,-0.08126880540835663,-0.23878936813667578,-0.08367673752900102,0.005878249371763045
2523,8.0,299.10182000000003,388.78785,0.0,0.0,0.0,-0.025586105485115,0.0,0.0,-0.06347533217152754,-0.022894059742967775,-0.031812406452890074,-0.2301805419745508,-0.05103812795782105,0.004810613579270595
2524,8.0,299.07207,616.2473,0.0,0.0,0.0,-0.025596246628787265,0.0,0.0,-0.05562528037328775,-0.07136261077844135,-0.06033590035318974,-0.25017477315032777,-0.054184323220576355,0.03776621439123516
2525,8.0,299.21482000000003,811.53642,0.0,0.0,0.0,-0.025606387772459525,0.0,0.0,-0.09554122238868451,-0.06301815676615784,-0.08812742846075002,-0.26731736390716976,-0.049791905315328455,0.03944064868498896
2526,8.0,298.7399,973.1451,0.0,0.0,0.0,-0.025616528916131785,0.0,0.0,-0.07658869438896562,-0.095218183058053,-0.12400493149333389,-0.2600000972500118,-0.050039687521282655,0.025645937583556978
2527,8.0,299.11462,825.64923,0.0,0.0,0.0,-0.025626670059804048,0.0,0.0,-0.0995956514713255,-0.06772110644280284,-0.08365999053134822,-0.27046059743988277,-0.03174582882856937,0.0027268775155718573
2528,8.0,299.428,441.88289000000003,0.0,0.0,0.0,-0.025636811203476308,0.0,0.0,-0.05609866474050714,-0.014014290504102788,-0.06420841051287673,-0.2387309542684108,-0.05584150389162735,-0.0015033727509213386
2529,8.0,299.37863,341.80844,0.0,0.0,0.0,-0.02564695234714857,0.0,0.0,-0.06563044724647085,-0.032427458382840973,-0.005843324262016204,-0.24986943023269276,-0.08320109564055882,-0.028632557101313374
2530,8.0,300.61357999999996,700.14028,0.0,0.0,0.0,-0.02565709349082083,0.0,0.0,-0.08386720929604913,-0.05816590570052795,-0.07079204863388124,-0.2272948056897508,-0.05824092167168144,-0.01148581404556159
2531,8.0,299.88697,501.40239,0.0,0.0,0.0,-0.02566723463449309,0.0,0.0,-0.06903029548625973,-0.04510368120238675,-0.03827982985367506,-0.22539298591455575,-0.058130288946262855,-0.03045899714856897
2532,8.0,299.93347,297.24431,0.0,0.0,0.0,-0.025677375778165354,0.0,0.0,0.001233191232956499,-0.05524502584925955,-0.03634301242002607,-0.2589485868262357,-0.05657917124267945,-0.014701563861431384
2533,8.0,300.12297,419.25825,0.0,0.0,0.0,-0.025687516921837614,0.0,0.0,-0.03449737533637586,-0.05630859496247565,-0.03663806780939576,-0.26568945603150773,-0.08419786016143183,-0.0037714044170086363
2534,8.0,300.45152,720.2814599999999,0.0,0.0,0.0,-0.025697658065509877,0.0,0.0,-0.03724079051212986,-0.1017119904781919,-0.07999480248787233,-0.2346567060138138,-0.07029285779986492,0.01122854883192149
2535,8.0,299.71937,922.80074,0.0,0.0,0.0,-0.025707799209182137,0.0,0.0,-0.07446196652882392,-0.11215000664834389,-0.0938964124881044,-0.2613461696103587,-0.03944535725820366,0.0010034215132349931
2536,8.0,299.97762,880.4608800000001,0.0,0.0,0.0,-0.025717940352854397,0.0,0.0,-0.0916819310898021,-0.08800616066228183,-0.08795003268624241,-0.25495832687242775,-0.05359720760913255,0.00017705527181149483
2537,8.0,299.4982,508.44702,0.0,0.0,0.0,-0.02572808149652666,0.0,0.0,-0.042968381246399054,-0.07399523516176112,-0.037591580736500166,-0.2628766636214067,-0.06894612176070243,-0.023439825631080678
2538,8.0,299.80102,252.84152000000003,0.0,0.0,0.0,-0.02573822264019892,0.0,0.0,-0.004045436994628546,-0.03472624016296307,-0.03808583096302886,-0.24784152161505377,-0.052238324727771256,-0.04334075268464926
2539,8.0,300.30811,602.8772299999999,0.0,0.0,0.0,-0.025748363783871187,0.0,0.0,-0.06355293699668654,-0.06110032966588304,-0.05860635639974703,-0.20632439923513282,-0.04420273771697056,-0.027864504406262477
2540,8.0,299.27513,627.2887900000001,0.0,0.0,0.0,-0.025758504927543443,0.0,0.0,-0.047809778376957754,-0.05386166081898205,-0.08900868854972362,-0.23096190978916578,-0.06338814200042255,-0.02259465649741898
2541,8.0,300.0546,320.91647,0.0,0.0,0.0,-0.025768646071215703,0.0,0.0,-0.04853465648524766,-0.01070247241975179,-0.03831346367749447,-0.22726479322178877,-0.07909583787990142,0.02030345889429538
2542,8.0,299.81189,369.21297000000004,0.0,0.0,0.0,-0.02577878721488797,0.0,0.0,-0.026276802294568472,-0.03664991371631486,-0.04930480559475545,-0.24088281377078277,-0.06089626210899314,0.023353293059290577
2543,8.0,299.77592000000004,924.7506599999999,0.0,0.0,0.0,-0.02578892835856023,0.0,0.0,-0.1104426802298439,-0.08037709263135141,-0.09028133675482422,-0.25171949319277975,-0.04642071280161766,0.04029411127071916
2544,8.0,299.18722,1127.5825,0.0,0.0,0.0,-0.02579906950223249,0.0,0.0,-0.1016610239981619,-0.10013216537277532,-0.14096372881453686,-0.26322219203800773,-0.05024636014417965,0.022939758335727877
2545,8.0,299.302,931.44576,0.0,0.0,0.0,-0.025809210645904752,0.0,0.0,-0.0974117094310372,-0.11107050012430489,-0.07465404024428013,-0.26973884926115177,-0.07909838924365321,0.02001337450991628
2546,8.0,299.11961,547.15432,0.0,0.0,0.0,-0.025819351789577012,0.0,0.0,-0.013042569472701385,-0.06186545710789524,-0.09141322628253301,-0.22430545444972477,-0.05246422275806565,-0.0003775389934951976
2547,8.0,300.81888,430.82935,0.0,0.0,0.0,-0.025829492933249272,0.0,0.0,-0.03095609359462857,-0.07392029518436513,-0.026084975812136674,-0.24212163360804478,-0.07143365075620244,-0.01688665796708338
2548,8.0,300.71276,528.01308,0.0,0.0,0.0,-0.025839634076921532,0.0,0.0,-0.03533719450950957,-0.051972107449497644,-0.07319348987438504,-0.24762845538402575,-0.07193992116866743,-0.017066929345374782
2549,8.0,301.47308,564.0944,0.0,0.0,0.0,-0.025849775220593795,0.0,0.0,-0.07573167124238403,-0.04499080210149646,-0.05074813679245115,-0.2762953778757307,-0.098485823438044,-0.04362839817603766
2550,8.0,300.79138,214.60412999999997,0.0,0.0,0.0,-0.02585991636426606,0.0,0.0,-0.0037402943965383164,-0.029862321522431675,-0.03163168012530376,-0.26096564353530377,-0.010224867865865891,-0.026751355952403275
2551,8.0,300.00043999999997,118.76581999999999,0.0,0.0,0.0,-0.025870057507938315,0.0,0.0,0.008471677390864463,-0.03954997330452846,-0.005023548999710685,-0.23065983966935377,-0.026384440865941574,-0.050162463035899656
2552,8.0,300.24905,808.8933099999999,0.0,0.0,0.0,-0.025880198651610578,0.0,0.0,-0.04739035869681425,-0.0981617607248115,-0.10033124773917321,-0.24217382612069574,-0.02952901796828717,-0.003871500759937377
2553,8.0,300.35882000000004,1138.3434,0.0,0.0,0.0,-0.025890339795282838,0.0,0.0,-0.12118299956733088,-0.11172654916655189,-0.1131184305639199,-0.24296404974118477,-0.08780778047820323,-0.006810001942369863
2554,8.0,299.73357000000004,754.5249200000001,0.0,0.0,0.0,-0.0259004809389551,0.0,0.0,-0.06485613367905203,-0.08138098435342783,-0.08311961817351762,-0.24349103098569375,-0.06663389212525314,0.03575608223335057
2555,8.0,299.67058,527.72457,0.0,0.0,0.0,-0.02591062208262736,0.0,0.0,-0.033719877123892766,-0.08876959395012682,-0.03792562193671746,-0.2272619358565068,-0.053189514272396356,-0.015244562563521186
2556,8.0,300.6491,707.61108,0.0,0.0,0.0,-0.02592076322629962,0.0,0.0,-0.06426547169225823,-0.08006880622217592,-0.07076182237014814,-0.27218044762961874,-0.07464660501504633,0.027591267331296077
2557,8.0,300.64636,852.8858,0.0,0.0,0.0,-0.025930904369971884,0.0,0.0,-0.09450243028016372,-0.08899706251807622,-0.07575649181683362,-0.24034284265999178,-0.07820123936661143,-0.01080485323635599
2558,8.0,300.80741,796.10606,0.0,0.0,0.0,-0.025941045513644144,0.0,0.0,-0.06725630329068034,-0.07989527498354972,-0.09484478519745151,-0.26362143284240974,-0.024010899466941276,0.020808358379375082
2559,8.0,299.69218,388.82442000000003,0.0,0.0,0.0,-0.025951186657316407,0.0,0.0,-0.06414316429918744,-0.03502300085225107,-0.01902674856954388,-0.23126359487393977,-0.04183893061168096,-0.015489852174229385
2560,8.0,300.14797999999996,448.79755,0.0,0.0,0.0,-0.025961327800988667,0.0,0.0,-0.02293230892099268,-0.03847425025636286,-0.07501668954782084,-0.2867948780619507,-0.05279185008514995,0.0013478424069466887
2561,8.0,300.84126000000003,926.32235,0.0,0.0,0.0,-0.025971468944660927,0.0,0.0,-0.12123302372476788,-0.07334013350835764,-0.08700570791104481,-0.2541761281927307,-0.09896485566132081,-0.004602496973656086
2562,8.0,300.53832,1116.5257,0.0,0.0,0.0,-0.02598161008833319,0.0,0.0,-0.11460113970025189,-0.11486182868597988,-0.1099329445020369,-0.25047562737001977,-0.04211340182526917,0.016945999972439986
2563,8.0,300.38156000000004,539.69497,0.0,0.0,0.0,-0.02599175123200545,0.0,0.0,-0.03804756557300236,-0.07306340477354663,-0.05294282435004995,-0.22826610723561078,-0.06837232734832334,-0.023167648415718875
2564,8.0,300.87561,312.13136000000003,0.0,0.0,0.0,-0.026001892375677713,0.0,0.0,0.01102830021465849,-0.07286782723924463,-0.033040613508604676,-0.2635244040128337,-0.06489214762735634,-0.005229975909458435
2565,8.0,300.3643,493.34335,0.0,0.0,0.0,-0.026012033519349973,0.0,0.0,-0.05712665154996154,-0.06699616247325643,-0.025841244580082273,-0.27140481481056977,-0.09681625983752092,0.017107076340836982
2566,8.0,299.90911,775.1564099999999,0.0,0.0,0.0,-0.026022174663022233,0.0,0.0,-0.04472428388794316,-0.0913632426551,-0.09954066846789911,-0.28454212924712174,-0.04996576687348725,0.006676143498159063
2567,8.0,299.08234,455.94898,0.0,0.0,0.0,-0.026032315806694496,0.0,0.0,-0.054126961105915146,-0.06914068300515414,-0.015329459749649884,-0.26497563146855874,-0.07141752082786053,-0.02532717619484768
2568,8.0,298.92187,237.65385,0.0,0.0,0.0,-0.026042456950366756,0.0,0.0,0.0024089449654443574,-0.035252172693618564,-0.039397609873741364,-0.2951734431388507,-0.053401703028837746,-0.041717213943418464
2569,8.0,299.37779,500.69898,0.0,0.0,0.0,-0.026052598094039023,0.0,0.0,-0.050579439770052054,-0.058719134175627345,-0.04290141453403996,-0.24071147317887276,-0.06977557437206303,-0.04517064082199516
2570,8.0,299.5707,612.9747,0.0,0.0,0.0,-0.026062739237711283,0.0,0.0,-0.062426753080290845,-0.05082906609118825,-0.07307318365026172,-0.25254175578143073,-0.020987866780341178,-0.016446540627147184
2571,8.0,299.52092000000005,653.64397,0.0,0.0,0.0,-0.02607288038138354,0.0,0.0,-0.08194812981865073,-0.061160628179334035,-0.05558268941858435,-0.2231221404529408,-0.044767005551909454,-0.008287037891391963
2572,8.0,300.30852000000004,517.32858,0.0,0.0,0.0,-0.0260830215250558,0.0,0.0,-0.028149716070910675,-0.03448696621809857,-0.0946182873230979,-0.26896824216259874,-0.06496863787740534,0.022730997404374776
2573,8.0,300.77506,598.0486400000001,0.0,0.0,0.0,-0.026093162668728066,0.0,0.0,-0.06727156283718633,-0.053126463771673745,-0.06139382566334884,-0.2414163203459358,-0.08222753252047561,0.036476110926661864
2574,8.0,300.75007999999997,925.41075,0.0,0.0,0.0,-0.026103303812400325,0.0,0.0,-0.06861637370115885,-0.08778313316952073,-0.12490225564939288,-0.24846187385627777,-0.045217015252571956,0.012079906897193987
2575,8.0,300.241,1121.4799,0.0,0.0,0.0,-0.026113444956072585,0.0,0.0,-0.13435976996277688,-0.10354642912173691,-0.10299569729488389,-0.24271659380176278,-0.08182372195812262,0.03376927205301767
2576,8.0,300.1106,866.36654,0.0,0.0,0.0,-0.02612358609974484,0.0,0.0,-0.09625170018655321,-0.08282268320521242,-0.08427941159573032,-0.25206601459447875,-0.05735038122504194,-0.0011578098838169388
2577,8.0,299.03177999999997,576.08075,0.0,0.0,0.0,-0.02613372724341711,0.0,0.0,-0.07674141347053783,-0.03981403438658926,-0.058558717433045436,-0.27060920069954875,-0.08248132735252323,0.036940479394491466
2578,8.0,299.49832999999995,597.4146,0.0,0.0,0.0,-0.026143868387089368,0.0,0.0,-0.03140933151010967,-0.05801796004017685,-0.09217182839390121,-0.24615387251349577,-0.04127177400070696,-0.024408657886446975
2579,8.0,299.58287,545.11618,0.0,0.0,0.0,-0.02615400953076163,0.0,0.0,-0.03979194148140886,-0.038735575563153664,-0.08717419113767282,-0.2583306765177527,-0.07596965329337103,0.01001499762830331
2580,8.0,299.81878,325.89972,0.0,0.0,0.0,-0.02616415067443389,0.0,0.0,0.0036874351653215167,-0.028186687540559474,-0.07456612661260373,-0.24913244277245777,-0.05295057064706445,-0.05776520885573224
2581,8.0,299.63786,240.3363,0.0,0.0,0.0,-0.02617429181810615,0.0,0.0,-0.02753517076600977,-0.02111509248939738,-0.02440596973393168,-0.25725735081932377,-0.07238606025394793,-0.012733212058170186
2582,8.0,300.566,422.85934000000003,0.0,0.0,0.0,-0.026184432961778414,0.0,0.0,-0.04810591591743425,-0.03976184592693866,-0.04067091973115726,-0.2384902668396568,-0.04583944364325086,-0.04252709056284706
2583,8.0,301.02497999999997,665.11712,0.0,0.0,0.0,-0.026194574105450674,0.0,0.0,-0.08028269622553523,-0.07903592338823832,-0.042860374865239664,-0.23825001510844576,-0.06449966216137104,-0.018107839146604583
2584,8.0,300.08495,692.50792,0.0,0.0,0.0,-0.026204715249122938,0.0,0.0,-0.04677468868430236,-0.07555650765784673,-0.08817391738858811,-0.26914918836545676,-0.03970297508287857,-0.012042019449454789
2585,8.0,299.39175,600.03825,0.0,0.0,0.0,-0.026214856392795197,0.0,0.0,-0.028544916033913872,-0.08649862183224932,-0.06735310616548403,-0.2695574977582538,-0.05056849666897205,-0.00033760757712427363
2586,8.0,299.5054,577.73977,0.0,0.0,0.0,-0.026224997536467457,0.0,0.0,-0.007721853875712643,-0.10268492335671289,-0.06521169124514284,-0.25134050725787677,-0.03418510786755746,-0.01887624445269028
2587,8.0,299.38122000000004,696.0457700000001,0.0,0.0,0.0,-0.02623513868013972,0.0,0.0,-0.07323770405574864,-0.08300076596328783,-0.055342064811336536,-0.23839501119775577,-0.06706619325391794,-0.02164580756052488
2588,8.0,299.39487,638.07722,0.0,0.0,0.0,-0.02624527982381198,0.0,0.0,-0.07109092600262813,-0.06726860009389393,-0.055600015995294357,-0.24706394335581275,-0.07594120832331372,-0.007579703195333463
2589,8.0,299.5965,423.93208,0.0,0.0,0.0,-0.026255420967484244,0.0,0.0,-0.07670160794035932,-0.0045447770803845764,-0.04761838049931825,-0.24487207060699176,-0.08705622450803041,-0.00958561091090114
2590,8.0,298.47693,389.8321,0.0,0.0,0.0,-0.026265562111156503,0.0,0.0,-0.025525848194955077,-0.01265803295375059,-0.08031534517025743,-0.24641594965186076,-0.062143806029616146,-0.0051546411698234745
2591,8.0,300.16506,805.0575299999999,0.0,0.0,0.0,-0.026275703254828763,0.0,0.0,-0.08610100425450752,-0.061136453045198144,-0.09747992750726982,-0.25386159509668876,-0.05035874984527165,0.0014659722711801988
2592,8.0,301.38279,962.3720099999999,0.0,0.0,0.0,-0.026285844398501026,0.0,0.0,-0.0867750749630331,-0.07651351629779614,-0.12924847036333087,-0.24468942214396577,-0.05276352569185455,-0.002255649749865298
2593,8.0,299.97909,747.98294,0.0,0.0,0.0,-0.026295985542173286,0.0,0.0,-0.11506208743574389,-0.05561657858142895,-0.056689467569064844,-0.24650074855272974,-0.047702229984843546,0.014789772348886884
2594,8.0,299.14637999999997,620.3009,0.0,0.0,0.0,-0.02630612668584555,0.0,0.0,-0.05655855869589515,-0.08300080446679162,-0.04899662051058996,-0.23626890851292578,-0.06668491230753844,-0.008890478177846882
2595,8.0,299.83749,686.51374,0.0,0.0,0.0,-0.02631626782951781,0.0,0.0,-0.0955745978337284,-0.06275240355643004,-0.050356032308503454,-0.24656268853134278,-0.05985302081928324,0.04154815721723386
2596,8.0,300.60182000000003,686.3245900000001,0.0,0.0,0.0,-0.02632640897319007,0.0,0.0,-0.012612709263527488,-0.1023220379658989,-0.0936907855393106,-0.25371570734729076,-0.07213843104875883,-0.023202139449122878
2597,8.0,300.39875,591.4980400000001,0.0,0.0,0.0,-0.026336550116862333,0.0,0.0,-0.05738860608506444,-0.058601165519484744,-0.06381086082289164,-0.2643766588044448,-0.06065746743142594,0.03174282758177317
2598,8.0,299.15522000000004,452.88482,0.0,0.0,0.0,-0.026346691260534592,0.0,0.0,0.016260279927514686,-0.0919505761153153,-0.061975379544993735,-0.27114435887236477,-0.07449517985385183,-0.03821019120080226
2599,8.0,298.7,520.57095,0.0,0.0,0.0,-0.026356832404206852,0.0,0.0,-0.06699897424228393,-0.06160101200404654,-0.029640585923548072,-0.25790434140567675,-0.05411630070161304,-0.011696059388311189
2600,8.0,300.01785,779.07162,0.0,0.0,0.0,-0.02636697354787912,0.0,0.0,-0.06716751421091753,-0.09780775444462382,-0.07184305141935712,-0.2542206706671268,-0.07862196309963362,-0.05658318472632554
2601,8.0,299.4821,894.5978,0.0,0.0,0.0,-0.02637711469155138,0.0,0.0,-0.12454606784173988,-0.09255572251228861,-0.05483359868590486,-0.27026911343598475,-0.06415795673739734,0.0035911663746455266
2602,8.0,299.80415,640.8951099999999,0.0,0.0,0.0,-0.026387255835223635,0.0,0.0,-0.015148277459518588,-0.0858531085645421,-0.09381472325179231,-0.2604387940133078,-0.08058352612722483,-0.04524802779838266
2603,8.0,298.94671,366.59439,0.0,0.0,0.0,-0.026397396978895895,0.0,0.0,-0.022902326850533682,-0.054916953705381355,-0.03361625811566637,-0.2618635148464168,-0.051331107197735856,0.005854450254739255
2604,8.0,300.60436,482.96472,0.0,0.0,0.0,-0.02640753812256816,0.0,0.0,-0.017821943538138884,-0.06536906114467403,-0.06361821056812854,-0.25089759537416473,-0.051724582609068856,-0.02124277314774848
2605,8.0,301.68807999999996,688.81064,0.0,0.0,0.0,-0.02641767926624042,0.0,0.0,-0.1083089883017649,-0.03458269403454617,-0.06648955363525803,-0.2708773978685177,-0.03453656278399336,0.05937803349040564
2606,8.0,301.11967000000004,622.79264,0.0,0.0,0.0,-0.026427820409912678,0.0,0.0,-0.07456000860849993,-0.05590370528876615,-0.05884969955701315,-0.25322226468109177,-0.07104225554732473,0.007445226972536692
2607,8.0,300.32771,706.89342,0.0,0.0,0.0,-0.026437961553584945,0.0,0.0,-0.07751994317162272,-0.05956494874960274,-0.07779305460357672,-0.27009911033420675,-0.05798236253766365,0.034872937499190966
2608,8.0,300.08117999999996,801.38961,0.0,0.0,0.0,-0.026448102697257204,0.0,0.0,-0.052055438150971745,-0.08392047078755563,-0.1076265238294109,-0.23054661910317975,-0.07318337763838703,-0.012920724121676186
2609,8.0,299.34129,936.31157,0.0,0.0,0.0,-0.026458243840929468,0.0,0.0,-0.1001596507949879,-0.08619252505653992,-0.0982631627418191,-0.27438039598173675,-0.04543758156084016,0.016842108399936686
2610,8.0,299.42902999999995,930.7314,0.0,0.0,0.0,-0.026468384984601728,0.0,0.0,-0.09220130485256031,-0.1076994474391079,-0.08301834787902303,-0.24097293223467678,-0.06923480178044293,-0.033674271750141864
2611,8.0,300.77867000000003,628.8170200000001,0.0,0.0,0.0,-0.026478526128273987,0.0,0.0,-0.08340310528649562,-0.06429042905547135,-0.04345113919029355,-0.27300322697582075,-0.06094748798104874,0.01332978737254759
2612,8.0,299.05496,223.48975,0.0,0.0,0.0,-0.02648866727194625,0.0,0.0,-0.008265529732844272,-0.04622296083260105,-0.013446813706097188,-0.22477150896572076,-0.05989711442388494,-0.05140883969240745
2613,8.0,299.78489,476.94095999999996,0.0,0.0,0.0,-0.02649880841561851,0.0,0.0,-0.047114066672796356,-0.034696319900760164,-0.06316775503742203,-0.2760420349532277,-0.05118095163891665,0.018612152973126482
2614,8.0,300.2374,808.5602700000001,0.0,0.0,0.0,-0.026508949559290774,0.0,0.0,-0.03973388833017946,-0.08673543357937083,-0.11931281346025788,-0.23693308382097475,-0.09877345778368131,-0.05106030394950965
2615,8.0,300.69986,706.7116,0.0,0.0,0.0,-0.026519090702963034,0.0,0.0,-0.04226950009592486,-0.08847393770344782,-0.08407924099872502,-0.28456575823945374,-0.06100315898129304,0.002110469958312168
2616,8.0,300.27284,545.89188,0.0,0.0,0.0,-0.026529231846635293,0.0,0.0,-0.023920503372519875,-0.09174828174610042,-0.050268715481135956,-0.2537375327544448,-0.05529587884527835,-0.04312755979735876
2617,8.0,300.30638,625.2836900000001,0.0,0.0,0.0,-0.026539372990307557,0.0,0.0,-0.07899296766349893,-0.060674214429078735,-0.05040344532043275,-0.27148043366553276,-0.04525923333123855,0.02796429231586077
2618,8.0,299.54258,708.53305,0.0,0.0,0.0,-0.026549514133979817,0.0,0.0,-0.049806822383300656,-0.07949272085132073,-0.08607681189511991,-0.2569826789822157,-0.05879712707557464,-0.02004191979173348
2619,8.0,301.13971000000004,741.47645,0.0,0.0,0.0,-0.02655965527765208,0.0,0.0,-0.05821230444910715,-0.07969573057510622,-0.08748228908232973,-0.2856660161255407,-0.04269066763249086,0.017850262865183784
2620,8.0,299.96423,561.50507,0.0,0.0,0.0,-0.02656979642132434,0.0,0.0,-0.005116318125866285,-0.07105117316145483,-0.09451602809650572,-0.23226888082815378,-0.061002235910451945,-0.014417808237176885
2621,8.0,299.85926,481.59864000000005,0.0,0.0,0.0,-0.0265799375649966,0.0,0.0,-0.06062857663132465,-0.01747434403833348,-0.06829104037230094,-0.26885316734874176,-0.042299151846851256,2.4000533918418277e-05
2622,8.0,299.5547,707.55749,0.0,0.0,0.0,-0.026590078708668863,0.0,0.0,-0.09424400185540881,-0.054832194321266244,-0.06600361408604953,-0.2412984793593058,-0.08601126069315052,-0.012072643920477188
2623,8.0,300.19547,987.4648900000001,0.0,0.0,0.0,-0.026600219852341123,0.0,0.0,-0.15365312591188285,-0.08278466707471051,-0.06372687860160324,-0.26159751643016477,-0.07509083716363864,0.025024922676767578
2624,8.0,299.99372,836.75923,0.0,0.0,0.0,-0.026610360996013386,0.0,0.0,-0.08310487133156222,-0.07401083313380052,-0.09723820656341382,-0.25289867312915576,-0.08642561817579442,0.0028189030174790674
2625,8.0,299.67891000000003,618.15062,0.0,0.0,0.0,-0.026620502139685646,0.0,0.0,-0.055085241374740045,-0.04367260425140045,-0.08914450661962782,-0.24546738543824478,-0.05264658143156304,0.02986028590298077
2626,8.0,299.17954,537.42188,0.0,0.0,0.0,-0.026630643283357906,0.0,0.0,-0.00960747147783361,-0.05612917066126785,-0.0976261881327046,-0.23651529040724178,-0.06333029555221353,-0.025875518777964873
2627,8.0,300.11417,660.57763,0.0,0.0,0.0,-0.026640784427030165,0.0,0.0,-0.06441671649493494,-0.07104527097962234,-0.06533711539552124,-0.26239821705668775,-0.036929913222448665,0.006108454626907535
2628,8.0,300.29900000000004,533.97975,0.0,0.0,0.0,-0.026650925570702425,0.0,0.0,-0.03670306172381017,-0.06457876963642833,-0.061034679165403845,-0.25933340908171476,-0.05544202092045145,-0.027367780836239676
2629,8.0,300.13711,392.37231,0.0,0.0,0.0,-0.02666106671437469,0.0,0.0,-0.06175148673664724,-0.05556111732395535,-0.0019587811494416484,-0.2737877257332448,-0.034633844926094365,0.014468669339196485
2630,8.0,299.74418,382.19271000000003,0.0,0.0,0.0,-0.02667120785804695,0.0,0.0,-0.017825526390492483,-0.04709928031408705,-0.05125223378345165,-0.2515562484691688,-0.06841649492018234,-0.03790884454156166
2631,8.0,299.87107000000003,605.82985,0.0,0.0,0.0,-0.026681349001719208,0.0,0.0,-0.026333581790422177,-0.08792897734916442,-0.06989458667580864,-0.25907917449912377,-0.06285787681233944,-0.03793444025233776
2632,8.0,299.8427,828.67895,0.0,0.0,0.0,-0.02669149014539147,0.0,0.0,-0.03146753664885407,-0.11577834379893288,-0.1046518343183319,-0.2404078730514098,-0.07918006429446393,-0.03635220766468357
2633,8.0,299.25166,764.34187,0.0,0.0,0.0,-0.02670163128906373,0.0,0.0,-0.07637452776832902,-0.10605787081959692,-0.049908443262329856,-0.25956859456242576,-0.07314293072089523,-0.027887841582565676
2634,8.0,299.58515,507.29694000000006,0.0,0.0,0.0,-0.026711772432735998,0.0,0.0,-0.07440447674465013,-0.06316620476476903,-0.016634921045988883,-0.24628411568134978,-0.08061103688068992,-0.014854425811267684
2635,8.0,299.93185,473.40250999999995,0.0,0.0,0.0,-0.026721913576408258,0.0,0.0,-0.07832052322138383,-0.04105028867459806,-0.02453172927009318,-0.25661214355314677,-0.06771549101074864,0.0004667389056435435
2636,8.0,300.13575,668.15842,0.0,0.0,0.0,-0.026732054720080518,0.0,0.0,-0.06013643801800435,-0.06097720255348134,-0.08198983721926692,-0.2450040869625208,-0.052786572065379046,0.021091455391064582
2637,8.0,300.42978,720.74985,0.0,0.0,0.0,-0.02674219586375278,0.0,0.0,-0.040117667951305565,-0.06612921352869525,-0.1128430697167439,-0.2628234173286518,-0.03992867350290326,0.025901872399815774
2638,8.0,300.67638999999997,787.0665,0.0,0.0,0.0,-0.02675233700742504,0.0,0.0,-0.05630228342760274,-0.08110636621857513,-0.1018399133033169,-0.2448115998410238,-0.03730229175344957,0.0071584654405355335
2639,8.0,300.13613,817.21101,0.0,0.0,0.0,-0.026762478151097304,0.0,0.0,-0.11342620528179488,-0.08386859339568571,-0.051116947669849956,-0.2569986579362928,-0.045195066228905754,-0.015680517472046584
2640,8.0,300.02108,794.95439,0.0,0.0,0.0,-0.026772619294769564,0.0,0.0,-0.1255503202808519,-0.07159509797413603,-0.044500866293893555,-0.2508800458824328,-0.07497169921688064,2.6602319021694472e-05
2641,8.0,299.48625,779.69431,0.0,0.0,0.0,-0.026782760438441824,0.0,0.0,-0.09939191018096781,-0.09507388003181141,-0.04254181308680005,-0.26847894368930875,-0.05035933246407916,0.0037198645387470464
2642,8.0,300.24064,605.9726400000001,0.0,0.0,0.0,-0.026792901582114087,0.0,0.0,-0.05288449964779375,-0.05019109140422505,-0.08112495834466002,-0.2702853254375847,-0.07195050861896234,-0.006834102602623414
2643,8.0,299.13986,405.36366,0.0,0.0,0.0,-0.026803042725786347,0.0,0.0,-0.012927941502138487,-0.05130291452695345,-0.05898957366706765,-0.26117562948602774,-0.06727628154290204,-0.011049961475296289
2644,8.0,299.84533999999996,408.61093999999997,0.0,0.0,0.0,-0.02681318386945861,0.0,0.0,-0.012192028087009489,-0.044724528081217255,-0.06729096758985144,-0.24884764856685077,-0.047508053775429854,-0.014959617383649286
2645,8.0,299.01012000000003,484.24518,0.0,0.0,0.0,-0.02682332501313087,0.0,0.0,-0.04535977915191166,-0.059098546688822445,-0.04274011525062096,-0.2513490388237188,-0.05720978770741645,-0.028145424956737174
2646,8.0,300.11167,614.2801900000001,0.0,0.0,0.0,-0.02683346615680313,0.0,0.0,-0.062364267973124034,-0.06602193364785754,-0.058339636549423854,-0.26678494150962373,-0.07584767621983284,-0.0027538880274625877
2647,8.0,300.70914,482.71165,0.0,0.0,0.0,-0.026843607300475393,0.0,0.0,-0.05486156540191495,-0.05719883346058535,-0.03467188841434897,-0.2752675065767878,-0.09055898349422582,-0.032588723215756565
2648,8.0,300.91314,434.00875,0.0,0.0,0.0,-0.026853748444147653,0.0,0.0,-0.004121469964907416,-0.05168589874675105,-0.07612045530575402,-0.2406307576759068,-0.06524448407137923,0.004695171360927336
2649,8.0,299.48557,709.32953,0.0,0.0,0.0,-0.026863889587819916,0.0,0.0,-0.030368075177345674,-0.09629289082961841,-0.08895750016792173,-0.2566300679474157,-0.06803529706031103,-0.037656111595618866
2650,8.0,300.32514,903.7335,0.0,0.0,0.0,-0.026874030731492173,0.0,0.0,-0.04426048182691946,-0.10108110347567821,-0.12937083044540687,-0.26796933968401476,-0.04691574525722355,-0.007341707060170073
2651,8.0,299.58856000000003,589.74644,0.0,0.0,0.0,-0.026884171875164436,0.0,0.0,-0.07291152972930773,-0.07162931644326313,-0.034727345618822174,-0.2679171471713637,-0.05791789753980144,-0.040890863903864066
2652,8.0,299.95591,620.9758099999999,0.0,0.0,0.0,-0.0268943130188367,0.0,0.0,-0.08721080290353611,-0.04509952890347695,-0.05645080968026115,-0.27303363461132174,-0.03216042037198637,0.02949986878941037
2653,8.0,299.51383,656.67129,0.0,0.0,0.0,-0.02690445416250896,0.0,0.0,-0.1026069942915219,-0.030502342974596874,-0.06650233274551923,-0.25777107875252475,-0.04871098632065005,0.02113905686751248
2654,8.0,298.37686,818.8922299999999,0.0,0.0,0.0,-0.02691459530618122,0.0,0.0,-0.07793136425547682,-0.05414085681778655,-0.1168505650547529,-0.26310839391927676,-0.056315305717887953,0.05341809842870585
2655,8.0,299.60983,916.9996199999999,0.0,0.0,0.0,-0.02692473644985348,0.0,0.0,-0.07009299523089003,-0.07218723626632553,-0.13646475651552287,-0.24544145636818576,-0.054489584064953245,0.019490303397543183
2656,8.0,300.03688999999997,692.27168,0.0,0.0,0.0,-0.02693487759352574,0.0,0.0,-0.06669947473797563,-0.03729199510593337,-0.1064418318124909,-0.25870711919490474,-0.05037182989081255,0.034305353296674765
2657,8.0,299.48115,574.8646,0.0,0.0,0.0,-0.026945018737198,0.0,0.0,-0.07797182637172012,-0.05868852287685625,-0.03808413680886166,-0.23747278135423874,-0.06308626642462974,-0.013708898950462987
2658,8.0,300.60483999999997,876.8791699999999,0.0,0.0,0.0,-0.02695515988087026,0.0,0.0,-0.10718574990340991,-0.08095298852443793,-0.07841063155277683,-0.2594482305830468,-0.06615351937209404,-0.0036785337631930165
2659,8.0,300.95183,988.17792,0.0,0.0,0.0,-0.026965301024542525,0.0,0.0,-0.093791739699774,-0.12141223726995488,-0.08517744097385892,-0.26100092490378574,-0.07494534964803012,-0.025720868441702075
2660,8.0,301.04102,517.0063,0.0,0.0,0.0,-0.026975442168214785,0.0,0.0,-0.022624106611575476,-0.06034444509128304,-0.07418845587633052,-0.2667848199196118,-0.06029854688825324,-0.004118129279327715
2661,8.0,300.86241,204.02508,0.0,0.0,0.0,-0.026985583311887044,0.0,0.0,0.044070974673966555,-0.06175805158404515,-0.04433145189042366,-0.25501424814544676,-0.04960247820913345,-0.03292678701887087
2662,8.0,300.21723,407.42579,0.0,0.0,0.0,-0.02699572445555931,0.0,0.0,-0.007831100576319453,-0.07025329544971043,-0.04576287131994375,-0.27187988725245577,-0.03695507526218197,-0.021169407761007876
2663,8.0,299.75606,711.97232,0.0,0.0,0.0,-0.027005865599231568,0.0,0.0,-0.08174495088209852,-0.08355816497579882,-0.05111868944677186,-0.2599453412146077,-0.06304505349006236,-0.03161057007272037
2664,8.0,299.97632000000004,639.3378299999999,0.0,0.0,0.0,-0.027016006742903834,0.0,0.0,-0.08197398897445282,-0.06517750216026864,-0.04719124593291336,-0.2762678478705137,-0.05305504078537486,-0.0033545825074715167
2665,8.0,299.32339,310.23276,0.0,0.0,0.0,-0.027026147886576094,0.0,0.0,-0.024957983322161176,-0.02791334610083277,-0.04143168411823886,-0.25132820640166276,-0.09336684542934022,-0.007208667119390054
2666,8.0,299.56052999999997,466.70017,0.0,0.0,0.0,-0.027036289030248354,0.0,0.0,-0.029937707329871673,-0.06111212693679735,-0.05081536391008595,-0.23884191528686177,-0.06399120616844034,-0.01041933791780859
2667,8.0,299.03101000000004,875.92536,0.0,0.0,0.0,-0.027046430173920617,0.0,0.0,-0.043311129304725665,-0.11664307169927489,-0.1063052355665099,-0.23338295944560478,-0.07609009833275802,-0.04141877024571436
2668,8.0,299.67127999999997,1053.1462,0.0,0.0,0.0,-0.027056571317592877,0.0,0.0,-0.12249034550885589,-0.1025821899290739,-0.09505762142070681,-0.27579876373671874,-0.05873680728387154,-0.01044741203832929
2669,8.0,299.65918,766.99315,0.0,0.0,0.0,-0.02706671246126514,0.0,0.0,-0.1021037433643549,-0.06847243037870274,-0.06257058899823634,-0.2619152513965228,-0.04818374973711586,-0.009023180605018591
2670,8.0,299.46783,366.70704,0.0,0.0,0.0,-0.0270768536049374,0.0,0.0,-0.06483679884064385,-0.03411982821661487,-0.012513156427952388,-0.2937009272985247,-0.04643527827180516,0.020066555954664878
2671,8.0,299.61649,406.34358,0.0,0.0,0.0,-0.02708699474860966,0.0,0.0,-0.041165709006739166,-0.036509872419993865,-0.04584271948082416,-0.2498119485545198,-0.06744748230629823,0.01077626438478449
2672,8.0,300.21544,825.55783,0.0,0.0,0.0,-0.027097135892281923,0.0,0.0,-0.07172269351947874,-0.07543389527649583,-0.10379237531850992,-0.27839363644781273,-0.07248447824941102,0.04815032970906755
2673,8.0,300.60598,758.27634,0.0,0.0,0.0,-0.027107277035954183,0.0,0.0,-0.07109457167648794,-0.05692387082069865,-0.1024786256363529,-0.23171981073146478,-0.07671934488335984,0.020902360630902377
2674,8.0,300.30341,540.18257,0.0,0.0,0.0,-0.027117418179626446,0.0,0.0,-0.06688853707413464,-0.059175351046402445,-0.03813812378743976,-0.27861047196921274,-0.07360058742006244,0.007114166146163533
2675,8.0,300.1481,624.81762,0.0,0.0,0.0,-0.027127559323298706,0.0,0.0,-0.07158233203612613,-0.07583187053152292,-0.04251475120312926,-0.23306043180627375,-0.08432005913674193,-0.04907683648125666
2676,8.0,299.20812,856.05944,0.0,0.0,0.0,-0.027137700466970966,0.0,0.0,-0.09002567652934251,-0.07739471052551322,-0.09280030690092722,-0.26013236691806574,-0.062243007267406544,-0.02194923138247048
2677,8.0,299.00638,870.81652,0.0,0.0,0.0,-0.02714784161064323,0.0,0.0,-0.05556707624779345,-0.11221505730476389,-0.09692434727868832,-0.24270174968779776,-0.056183165745846746,-0.04087627816867456
2678,8.0,299.3828,533.71462,0.0,0.0,0.0,-0.02715798275431549,0.0,0.0,-0.0002912401785031677,-0.06962218451892464,-0.09232249260427061,-0.27246465415016774,-0.041213487801954565,-0.009874248475462451
2679,8.0,299.20619,187.4205,0.0,0.0,0.0,-0.02716812389798775,0.0,0.0,0.023429882607849378,-0.05713384866542185,-0.023267185039292378,-0.26679133511775477,-0.060012319947004844,-0.04165126352090966
2680,8.0,298.67795,228.63875,0.0,0.0,0.0,-0.027178265041660012,0.0,0.0,-0.02051289262371488,-0.043145922928921054,-0.005841654729826434,-0.27965540639983977,-0.04046855240793516,-0.0006572716298176594
2681,8.0,299.89971,758.29462,0.0,0.0,0.0,-0.027188406185332272,0.0,0.0,-0.1124893745043369,-0.05453818156624945,-0.06347507581925224,-0.2689187043652097,-0.05859140285477124,-0.01026308360663749
2682,8.0,299.39031,945.8466099999999,0.0,0.0,0.0,-0.027198547329004532,0.0,0.0,-0.1082648511274089,-0.08501687528351232,-0.09423202118622641,-0.2924734355973807,-0.04458956924739786,0.024334506217628775
2683,8.0,299.96696000000003,534.0774299999999,0.0,0.0,0.0,-0.027208688472676792,0.0,0.0,-0.029899170388818373,-0.06798582613742864,-0.06446120526707565,-0.26750260629045175,-0.08760088190053392,0.014913966413643885
2684,8.0,300.42131,493.9197,0.0,0.0,0.0,-0.027218829616349055,0.0,0.0,-0.013178775617393888,-0.04244230280772916,-0.09451817618671772,-0.2607420597682378,-0.08327618456571952,0.04122353417669606
2685,8.0,300.72899,916.90846,0.0,0.0,0.0,-0.027228970760021315,0.0,0.0,-0.1065710617302449,-0.08492257412320552,-0.0872236458485536,-0.22660283693145877,-0.08391467297048343,0.01086688846047839
2686,8.0,299.89846,1056.1446,0.0,0.0,0.0,-0.027239111903693575,0.0,0.0,-0.13231248800322587,-0.06177654846462065,-0.12695256722674286,-0.24795352628110776,-0.08135573922718632,-0.0016940153519362981
2687,8.0,300.41821,656.6578599999999,0.0,0.0,0.0,-0.027249253047365838,0.0,0.0,-0.07370344345096352,-0.07257660396175313,-0.05332754629376904,-0.25520175007645174,-0.060454281402123035,-0.02193760636407318
2688,8.0,299.91007,227.20458,0.0,0.0,0.0,-0.027259394191038098,0.0,0.0,-0.012217606572533887,-0.019978270460201782,-0.036868643002151764,-0.27655538798389173,-0.05582438199143755,-0.009999067411556121
2689,8.0,299.0325,278.25821,0.0,0.0,0.0,-0.02726953533471036,0.0,0.0,-0.009111821142316732,-0.016453621218845985,-0.05901810577663354,-0.25871925793110273,-0.04201541851409896,-0.003635344788280596
2690,8.0,299.03262,572.93889,0.0,0.0,0.0,-0.02727967647838262,0.0,0.0,-0.037520640057248866,-0.05506863116585074,-0.08156984302631672,-0.27643651348215975,-0.025753426193915276,-0.0005763252578163745
2691,8.0,299.52634,734.70169,0.0,0.0,0.0,-0.02728981762205488,0.0,0.0,-0.07657128472574742,-0.06916171807723014,-0.07759796646907302,-0.26373218107833973,-0.054631525205211744,9.063296595027732e-06
2692,8.0,299.43695,573.08569,0.0,0.0,0.0,-0.027299958765727148,0.0,0.0,-0.05749437622325315,-0.08085860427762293,-0.035850758296194364,-0.2664898121529968,-0.07332336016620222,0.00011996303631442989
2693,8.0,300.76863,549.47881,0.0,0.0,0.0,-0.027310099909399407,0.0,0.0,-0.03479610375735807,-0.09166120607225672,-0.04057052691124926,-0.2833961839140257,-0.05501474348578245,-0.024796907967014274
2694,8.0,299.5144,855.92296,0.0,0.0,0.0,-0.02732024105307167,0.0,0.0,-0.08344099273423483,-0.08627918935084301,-0.0904590233321105,-0.25957715652577074,-0.06222925543704934,-0.01905316805265128
2695,8.0,299.22154,1078.9419,0.0,0.0,0.0,-0.02733038219674393,0.0,0.0,-0.06424937418791954,-0.13524450955259387,-0.1284775086272429,-0.2583707606917088,-0.07521470800161373,-0.02372755218247708
2696,8.0,299.79227000000003,553.88502,0.0,0.0,0.0,-0.02734052334041619,0.0,0.0,-0.034937186674781864,-0.05102448859822495,-0.08240554131129371,-0.27621615185041176,-0.07358114112414323,0.007992754699923471
2697,8.0,300.8423,114.96893,0.0,0.0,0.0,-0.027350664484088454,0.0,0.0,0.018727670577277183,-0.027375192760721173,-0.026300162775623977,-0.2636779721979898,-0.06334654808381754,0.002193277012134588
2698,8.0,299.82295,329.35097,0.0,0.0,0.0,-0.027360805627760713,0.0,0.0,-0.05933850964375494,-0.031869639884788574,-0.00890632226833557,-0.26406825587150773,-0.05758905735234744,-0.007977176486261024
2699,8.0,300.47956,748.39033,0.0,0.0,0.0,-0.027370946771432977,0.0,0.0,-0.0935994076055423,-0.06347910551489994,-0.07041346191951764,-0.2517824768189958,-0.046732113941600546,-0.008820687233484052
2700,8.0,299.71494,856.55809,0.0,0.0,0.0,-0.027381087915105237,0.0,0.0,-0.07930832351862213,-0.09299728879986782,-0.08806665777275242,-0.2833888885133057,-0.07091988938574814,-0.008346420224102542
2701,8.0,300.52865,758.56007,0.0,0.0,0.0,-0.027391229058777496,0.0,0.0,-0.03698779209466087,-0.09316478410764831,-0.10043074180624251,-0.26612945988743275,-0.04972862379358305,0.028297039595700374
2702,8.0,298.71485,454.18265,0.0,0.0,0.0,-0.02740137020244976,0.0,0.0,-0.04137919877630896,-0.03021228898772077,-0.06646869588194954,-0.2862112662693527,-0.051717309499851045,0.000855009778102895
2703,8.0,298.82336000000004,750.01197,0.0,0.0,0.0,-0.02741151134612202,0.0,0.0,-0.0937597959771214,-0.07331938518605995,-0.06090573093117764,-0.24971333905478774,-0.04992404326086945,0.04480987717689055
2704,8.0,299.0222,1066.275,0.0,0.0,0.0,-0.027421652489794283,0.0,0.0,-0.14010595180988086,-0.06924477621442733,-0.11477025114194188,-0.2936299592615207,-0.07324846375856052,0.01035159201612259
2705,8.0,298.33291,661.89975,0.0,0.0,0.0,-0.027431793633466543,0.0,0.0,-0.06744445066199904,-0.06845053100429144,-0.06530601469695184,-0.28143160342763673,-0.06015878018270935,0.004592119975406956
2706,8.0,299.01533,127.79701000000001,0.0,0.0,0.0,-0.027441934777138802,0.0,0.0,0.02088030318947548,-0.035868978559492566,-0.02385842356539308,-0.2785663145298547,-0.07367036488819892,-0.03638493462966346
2707,8.0,300.55307999999997,187.18677,0.0,0.0,0.0,-0.027452075920811062,0.0,0.0,0.012367644594341488,-0.016324769243379285,-0.05294298039056536,-0.24030926355167778,-0.049170944110794354,-0.00983460202554965
2708,8.0,299.94719,597.8401,0.0,0.0,0.0,-0.027462217064483326,0.0,0.0,-0.03264803786336047,-0.08472053104001541,-0.06435989444257703,-0.2506325696780088,-0.06809318302527392,-0.018668368088674482
2709,8.0,300.66629,821.01909,0.0,0.0,0.0,-0.027472358208155585,0.0,0.0,-0.0948046199634875,-0.08653757319259352,-0.06822711037049153,-0.23690921164861875,-0.07916624356309993,-0.0003356992624159376
2710,8.0,300.36832999999996,653.02663,0.0,0.0,0.0,-0.027482499351827845,0.0,0.0,-0.05804733821357624,-0.0966096540891305,-0.04384679612909186,-0.25373119994131976,-0.07296816331714702,-0.02736207623817668
2711,8.0,300.27974,397.01205,0.0,0.0,0.0,-0.027492640495500105,0.0,0.0,-0.03355718968783677,-0.06522846458729824,-0.021896096547226476,-0.26146379781446777,-0.06211456869798065,-0.046054912290265954
2712,8.0,300.27504,448.04148,0.0,0.0,0.0,-0.027502781639172368,0.0,0.0,-0.028204891591856074,-0.05032282303647595,-0.05766570870916235,-0.2585147131334158,-0.09302274265562992,-0.016472431193702383
2713,8.0,299.74676,704.12655,0.0,0.0,0.0,-0.027512922782844628,0.0,0.0,-0.04185363793688246,-0.06946324813473884,-0.10272000207517491,-0.2866536208655097,-0.05587395221282974,-0.008602111860337342
2714,8.0,299.64767,676.80535,0.0,0.0,0.0,-0.02752306392651689,0.0,0.0,-0.07142601996969933,-0.06789249060446714,-0.06641341599624384,-0.2785058133663837,-0.06210566324285174,-0.0007715863338471422
2715,8.0,299.52686,516.94461,0.0,0.0,0.0,-0.02753320507018915,0.0,0.0,-0.06639640251381473,-0.042880954988020754,-0.04786089583125266,-0.27579085025343775,-0.04353608703892726,0.0009964655614309941
2716,8.0,299.77497,523.12189,0.0,0.0,0.0,-0.02754334621386141,0.0,0.0,-0.053904373363697446,-0.06532825958964723,-0.03978335925306186,-0.2804696947102037,-0.06389503049544853,-0.011605186053092688
2717,8.0,300.71648999999996,797.20127,0.0,0.0,0.0,-0.027553487357533674,0.0,0.0,-0.07489777552933492,-0.06419561215086364,-0.1032358882310889,-0.24814016694952776,-0.04751260022862855,-0.006400386875494004
2718,8.0,300.07926000000003,753.15458,0.0,0.0,0.0,-0.027563628501205934,0.0,0.0,-0.039292654388633066,-0.09995123031566841,-0.0896963003325856,-0.24591705570012376,-0.06475030781210785,-0.030220432478774473
2719,8.0,300.23575,551.04756,0.0,0.0,0.0,-0.0275737696448782,0.0,0.0,-0.04433601556887405,-0.030475904239737568,-0.09269277776056492,-0.2627977922336227,-0.04784907626883616,0.017252775625716383
2720,8.0,300.9224,509.00414000000006,0.0,0.0,0.0,-0.027583910788550457,0.0,0.0,-0.07539399146105763,-0.02284056115093788,-0.056489996114628536,-0.25908490949468976,-0.09243810748043091,0.01854987558223018
2721,8.0,300.28197,496.53668,0.0,0.0,0.0,-0.027594051932222717,0.0,0.0,-0.07925750699960692,-0.033250019880271466,-0.03842722531922186,-0.25563357700406975,-0.07683527893330162,0.028020292622387574
2722,8.0,300.30352999999997,824.1505400000001,0.0,0.0,0.0,-0.027604193075894984,0.0,0.0,-0.09095782609133851,-0.0911121856248226,-0.06845117441810494,-0.2556067765389248,-0.09001681363071781,-0.016983959360936284
2723,8.0,299.74037999999996,1091.7033,0.0,0.0,0.0,-0.027614334219567244,0.0,0.0,-0.1081110194972269,-0.10740024481707891,-0.11633926892179189,-0.26364521382225675,-0.05413696593740255,0.0051213877200916155
2724,8.0,299.53354,693.7276,0.0,0.0,0.0,-0.027624475363239507,0.0,0.0,-0.04792098561518305,-0.0966371668690958,-0.06631771452429884,-0.25952527812065074,-0.06739377093174735,-0.04070652229992096
2725,8.0,299.59013999999996,487.86206,0.0,0.0,0.0,-0.027634616506911767,0.0,0.0,-0.00961824617674699,-0.05129044648447295,-0.08738919064989162,-0.25873480118763675,-0.03572542331182477,0.012961097071910687
2726,8.0,300.74377000000004,625.04161,0.0,0.0,0.0,-0.027644757650584027,0.0,0.0,-0.06515120528042334,-0.08700865241583541,-0.03783718445473937,-0.27369619885171176,-0.06707245716603613,-0.02009441019991388
2727,8.0,299.56459,504.25243,0.0,0.0,0.0,-0.02765489879425629,0.0,0.0,-0.05257919016741205,-0.03370000526293157,-0.06700095311972924,-0.2681237488667538,-0.04480963095711626,0.015641727218468286
2728,8.0,300.91663,465.62525,0.0,0.0,0.0,-0.02766503993792855,0.0,0.0,-0.06199882209930735,-0.051300646873229654,-0.028238979351720272,-0.26892476360080775,-0.07103952382505514,-0.02302955762584038
2729,8.0,300.7746,464.50079000000005,0.0,0.0,0.0,-0.027675181081600813,0.0,0.0,-0.005766913248125025,-0.05693634595592985,-0.07849338166194363,-0.2734184264692977,-0.04686060520003166,-0.014516747043191386
2730,8.0,300.4218,543.1811700000001,0.0,0.0,0.0,-0.027685322225273073,0.0,0.0,-0.006870934547733443,-0.08917449780933771,-0.06906808059573884,-0.24953907017008875,-0.06367876239410454,-0.02670656421848268
2731,8.0,299.29991,754.91898,0.0,0.0,0.0,-0.027695463368945333,0.0,0.0,-0.04132608521931706,-0.09235536345076471,-0.09579507092298742,-0.25086587051353376,-0.03900404023014906,0.004636233338385605
2732,8.0,298.99152000000004,796.99129,0.0,0.0,0.0,-0.027705604512617596,0.0,0.0,-0.12761426007204688,-0.06302324226840975,-0.05162794793378175,-0.2372632513660598,-0.09001110295315422,0.01107482055324969
2733,8.0,298.93342,795.01602,0.0,0.0,0.0,-0.027715745656289856,0.0,0.0,-0.1070075800058259,-0.07239721005804833,-0.062260222386605536,-0.26621597118097073,-0.09142030282123141,0.017107056075834983
2734,8.0,300.86338,575.4952400000001,0.0,0.0,0.0,-0.027725886799962116,0.0,0.0,-0.06439549701134074,-0.07083033023590934,-0.03971035660985706,-0.26164938470278376,-0.0983712978057412,-0.012548678949958187
2735,8.0,300.52911,496.82447,0.0,0.0,0.0,-0.027736027943634375,0.0,0.0,-0.03876105069716786,-0.04356933886745896,-0.06869184259510704,-0.25943190712393577,-0.07321493227300123,0.003843009889650546
2736,8.0,300.29781,639.66282,0.0,0.0,0.0,-0.02774616908730664,0.0,0.0,-0.04341750030022366,-0.06436758399758594,-0.08665643958832472,-0.2642915052660407,-0.06535689302422314,-0.0009777077486897421
2737,8.0,300.29094,700.39366,0.0,0.0,0.0,-0.0277563102309789,0.0,0.0,-0.06570200904803344,-0.04973872792358025,-0.09746144683869591,-0.29818531892859973,-0.049286436383692546,0.04259353038515416
2738,8.0,300.08583,589.10999,0.0,0.0,0.0,-0.02776645137465116,0.0,0.0,-0.06524686216936394,-0.059074860954484845,-0.05475300375970075,-0.26690103970608176,-0.05998583865564134,0.01027942834400059
2739,8.0,301.25356,668.92725,0.0,0.0,0.0,-0.02777659251832342,0.0,0.0,-0.07540234672138223,-0.07838543607579022,-0.049549398089394854,-0.26832791876190376,-0.011009399047293091,0.01766713716136068
2740,8.0,300.34627,711.58604,0.0,0.0,0.0,-0.02778673366199568,0.0,0.0,-0.06058639806941194,-0.08669791090166762,-0.06902007685900123,-0.2359568173496248,-0.05356950028514804,-0.037008626543217064
2741,8.0,298.5767,881.9789800000001,0.0,0.0,0.0,-0.02779687480566794,0.0,0.0,-0.04680278104332486,-0.1196786676738649,-0.10161813312142891,-0.26369424499459576,-0.05835989547192324,-0.026306972829546076
2742,8.0,299.25754,883.3988800000001,0.0,0.0,0.0,-0.027807015949340205,0.0,0.0,-0.051336239309492354,-0.1325153609382479,-0.08467960181547601,-0.2794859403206147,-0.07395165426171003,-0.037999339934492865
2743,8.0,299.5356,440.18394000000006,0.0,0.0,0.0,-0.027817157093012464,0.0,0.0,-0.02192000823633638,-0.048825869630238154,-0.06305905052694374,-0.2563641201936688,-0.06528706793333194,0.007206831718158914
2744,8.0,300.24652000000003,206.4843,0.0,0.0,0.0,-0.027827298236684728,0.0,0.0,-0.042045904169857665,-0.03999853811054836,0.019278372006627183,-0.2866206294422537,-0.08904316438437611,0.006927638252479664
2745,8.0,299.76661,470.42733,0.0,0.0,0.0,-0.027837439380356988,0.0,0.0,-0.06571861317742214,-0.04541445007430725,-0.03186509951109047,-0.30294066376791573,-0.08055738630114502,0.005166879103206265
2746,8.0,299.98393,787.12248,0.0,0.0,0.0,-0.027847580524029247,0.0,0.0,-0.07352915430126253,-0.08187346037903143,-0.08386296377813013,-0.2705255873012967,-0.08366545498913752,-0.01336559765758179
2747,8.0,299.70845,757.5149,0.0,0.0,0.0,-0.02785772166770151,0.0,0.0,-0.027798449618993373,-0.1113236505292889,-0.091143519370915,-0.26566780287687075,-0.03794389995527136,-0.05131769683266235
2748,8.0,300.37672000000003,772.3426099999999,0.0,0.0,0.0,-0.02786786281137377,0.0,0.0,-0.06661796889993163,-0.07344091136330363,-0.0947139887950429,-0.23592019849101076,-0.06512226888406752,-0.010630969386694989
2749,8.0,298.5439,745.2076599999999,0.0,0.0,0.0,-0.027878003955046037,0.0,0.0,-0.07215520641741444,-0.07595371486929801,-0.07841559951801713,-0.25822253233457976,-0.06304436447999434,-0.0015503533077079585
2750,8.0,298.79129,786.5876599999999,0.0,0.0,0.0,-0.027888145098718297,0.0,0.0,-0.11738459851995788,-0.06129742099583444,-0.060420981950836644,-0.2743664333953587,-0.038493776599039964,0.03222293790315637
2751,8.0,297.29017000000005,746.50509,0.0,0.0,0.0,-0.027898286242390553,0.0,0.0,-0.08558000827833923,-0.057532626414528144,-0.08380627446153532,-0.29153733435999474,-0.033419133348461666,0.00982842059198959
2752,8.0,300.09946,551.9114400000001,0.0,0.0,0.0,-0.02790842738606282,0.0,0.0,-0.05479069666342075,-0.05164894247585375,-0.06132765637881844,-0.2860114026871277,-0.06085517380418804,0.015089398509457687
2753,8.0,299.31042,336.50207,0.0,0.0,0.0,-0.02791856852973508,0.0,0.0,0.003938024175377725,-0.04320379369513246,-0.06302245801283234,-0.28644983600539775,-0.08268302897042962,-0.018668179624155883
2754,8.0,299.47904,496.54034,0.0,0.0,0.0,-0.027928709673407343,0.0,0.0,-0.039267061717607264,-0.061280075167372536,-0.05038872887598035,-0.2715905232888977,-0.08041180860627763,-0.014720874381837185
2755,8.0,299.23965,710.8181599999999,0.0,0.0,0.0,-0.027938850817079603,0.0,0.0,-0.07163274629485164,-0.07873064227885943,-0.06570758496333373,-0.24760496824670775,-0.06453896511949994,-0.015411931215039185
2756,8.0,301.19745,633.8896900000001,0.0,0.0,0.0,-0.027948991960751863,0.0,0.0,-0.09756212235538181,-0.04247339134729736,-0.05265112484501146,-0.25135251427156174,-0.06750314722704194,0.011752843950415388
2757,8.0,300.29531000000003,554.87375,0.0,0.0,0.0,-0.027959133104424126,0.0,0.0,-0.03555735754423797,-0.06918609586138602,-0.06392430937033813,-0.26312893249880376,-0.05776805811501345,-0.023749435344886778
2758,8.0,301.15417,747.1433099999999,0.0,0.0,0.0,-0.027969274248096386,0.0,0.0,-0.04742194372893145,-0.08186693504838742,-0.09782403028098009,-0.25902254395103474,-0.05444458866776254,-0.022131006423910277
2759,8.0,298.33303,711.7162099999999,0.0,0.0,0.0,-0.02797941539176865,0.0,0.0,-0.017057716875465586,-0.0993278707481476,-0.0999583686626229,-0.27026119995270376,-0.037506266091330266,-0.06071495113609914
2760,8.0,299.13672,633.12128,0.0,0.0,0.0,-0.02798955653544091,0.0,0.0,-0.039214527739672565,-0.07431928368949223,-0.07891925067897362,-0.2951432077558667,-0.07522466115734602,-0.015548842581801284
2761,8.0,299.41798,382.00771000000003,0.0,0.0,0.0,-0.02799969767911317,0.0,0.0,-0.07270924650584393,-0.02792820845329957,-0.015483351161587786,-0.28365644733471174,-0.09316779346044532,-0.0034696094959237966
2762,8.0,300.10974,218.85377000000003,0.0,0.0,0.0,-0.02800983882278543,0.0,0.0,-0.061315480152366736,-0.017127447734097485,0.011916846585101188,-0.2780891750577647,-0.07121013386364303,0.03425097013730757
2763,8.0,298.8035,357.24532,0.0,0.0,0.0,-0.02801997996645769,0.0,0.0,-0.03992450701849206,-0.052029137218126055,-0.016640011614491284,-0.25935067486341873,-0.04548922590518705,-0.0002503694995545458
2764,8.0,300.05703,973.701,0.0,0.0,0.0,-0.028030121110129952,0.0,0.0,-0.07943567081769033,-0.0951458633454156,-0.1213992575361739,-0.2578992244926717,-0.04448827767465116,0.02174244831531258
2765,8.0,300.8886,1022.9775,0.0,0.0,0.0,-0.02804026225380221,0.0,0.0,-0.06458751499804144,-0.1098372531625929,-0.13653485315744085,-0.28118390430819074,-0.06037526207982444,-0.03578193834940237
2766,8.0,302.19683,699.88565,0.0,0.0,0.0,-0.02805040339747447,0.0,0.0,-0.06585618315674924,-0.06404289306929144,-0.08284868624252872,-0.25973561870890977,-0.056915095061582544,-0.007911810101109864
2767,8.0,301.18071000000003,596.1698,0.0,0.0,0.0,-0.028060544541146735,0.0,0.0,-0.07759910840193572,-0.05277189716418075,-0.05084972727397736,-0.26514895803066474,-0.04945494899457346,-0.026307312268329577
2768,8.0,300.48046,673.3125,0.0,0.0,0.0,-0.028070685684818995,0.0,0.0,-0.1000190157341083,-0.03189182195597777,-0.07275934969678874,-0.26899934894066874,-0.05601214230121804,0.026416934783398478
2769,8.0,300.03626,720.5550400000001,0.0,0.0,0.0,-0.028080826828491258,0.0,0.0,-0.06987139135451943,-0.07390152979251313,-0.07525781875361844,-0.28206592838773975,-0.08404225635682493,0.003184550325415647
2770,8.0,300.18698,479.27199,0.0,0.0,0.0,-0.028090967972163518,0.0,0.0,-0.00032990631907671864,-0.05757338845280104,-0.08778342295904933,-0.26157976428841273,-0.05690299989513885,-0.0004918439804562215
2771,8.0,299.35753,400.42798999999997,0.0,0.0,0.0,-0.028101109115835778,0.0,0.0,0.01947458282224168,-0.06624051297267963,-0.07495418113590173,-0.24767762841137878,-0.053664948444568046,-0.031428874064788365
2772,8.0,299.15119,545.12951,0.0,0.0,0.0,-0.02811125025950804,0.0,0.0,-0.036545966415056065,-0.07762189437018452,-0.05153789837089455,-0.2505509321174517,-0.06529911041077044,0.002577425962922138
2773,8.0,299.68525,858.8756900000001,0.0,0.0,0.0,-0.0281213914031803,0.0,0.0,-0.12348820433983689,-0.08031229528745643,-0.057276267046477446,-0.26581723700161874,-0.08324112611225952,-0.008200999988300681
2774,8.0,299.77592999999996,832.07218,0.0,0.0,0.0,-0.028131532546852564,0.0,0.0,-0.1102202009053869,-0.08034282147321913,-0.062366147552059534,-0.27880620149102975,-0.07637561802543663,0.005122178055169614
2775,8.0,300.7519,479.93602000000004,0.0,0.0,0.0,-0.028141673690524824,0.0,0.0,-0.03252803561426717,-0.07801574468405453,-0.03534478679250887,-0.2835123327729887,-0.07731306181920514,-0.012814454451188187
2776,8.0,301.10294,492.27027999999996,0.0,0.0,0.0,-0.028151814834197084,0.0,0.0,0.003080336742030567,-0.07583173779575984,-0.07688647238135402,-0.28389667880092073,-0.055851876532901044,-0.016242193413229685
2777,8.0,301.31212999999997,766.19516,0.0,0.0,0.0,-0.028161955977869347,0.0,0.0,-0.028751814611583174,-0.08594856077696252,-0.11820382135830888,-0.2814274288372247,-0.06658664224658993,-0.026136064895428777
2778,8.0,300.82402,825.35107,0.0,0.0,0.0,-0.028172097121541607,0.0,0.0,-0.06946265335693014,-0.08364701282406742,-0.09777644906953421,-0.27671723442236473,-0.04912546235355566,-0.008748718308031273
2779,8.0,299.62518,410.49126,0.0,0.0,0.0,-0.028182238265213874,0.0,0.0,-0.05761581830073854,-0.04535696332988375,-0.021806311442615377,-0.2760755836640387,-0.05620951632794736,-0.009257849936128652
2780,8.0,299.55745,362.69459,0.0,0.0,0.0,-0.028192379408886133,0.0,0.0,-0.050569298149801156,-0.032079620769262074,-0.02760117894377427,-0.26425760191769476,-0.07251176811435434,0.03443567043178607
2781,8.0,300.02835,637.89949,0.0,0.0,0.0,-0.02820252055255839,0.0,0.0,-0.06499833725108643,-0.06378767259435314,-0.06511950575104483,-0.24745902983480478,-0.08826973133129422,0.013478046127179589
2782,8.0,299.76117999999997,967.14044,0.0,0.0,0.0,-0.028212661696230656,0.0,0.0,-0.07168230942349314,-0.0979066506941341,-0.12439758617208588,-0.2743978036184547,-0.06637162854886973,0.011028464361174689
2783,8.0,300.01302999999996,977.0917,0.0,0.0,0.0,-0.028222802839902916,0.0,0.0,-0.06719734530711165,-0.0964617915152876,-0.13335233591835088,-0.26234499102893477,-0.06938975710498584,-0.01987458255096858
2784,8.0,299.78935,695.39405,0.0,0.0,0.0,-0.02823294398357518,0.0,0.0,-0.07808889931477433,-0.06283543129612423,-0.07045809659967273,-0.2888607126308327,-0.05790869418914314,0.004807638170351946
2785,8.0,300.18674,500.80067,0.0,0.0,0.0,-0.02824308512724744,0.0,0.0,-0.06233322604306044,-0.07107133379869453,-0.018826338845514982,-0.2709478491479707,-0.06788326597555674,-0.022254312881579683
2786,8.0,300.76145,645.63848,0.0,0.0,0.0,-0.0282532262709197,0.0,0.0,-0.09411485705066322,-0.06877549247036263,-0.03336762579287826,-0.2932188634309487,-0.08260248875973093,-0.0029692910158712073
2787,8.0,301.02943,764.09325,0.0,0.0,0.0,-0.028263367414591963,0.0,0.0,-0.06196185468265894,-0.08441045523116333,-0.08589295969097512,-0.23683735195152678,-0.07930633045567542,-0.024257982530326475
2788,8.0,300.87341000000004,458.28959000000003,0.0,0.0,0.0,-0.028273508558264222,0.0,0.0,-0.006609392912046294,-0.06174477091498445,-0.07095443006840703,-0.2773580340506067,-0.059619129258949945,-0.014750215064982884
2789,8.0,300.54212,337.5447,0.0,0.0,0.0,-0.028283649701936482,0.0,0.0,-0.001202634649690799,-0.05682318618476185,-0.04457933846113816,-0.24750760504459876,-0.05876063791297345,-0.01972228194168768
2790,8.0,299.96533999999997,740.96484,0.0,0.0,0.0,-0.028293790845608742,0.0,0.0,-0.07752615844773614,-0.07271132265529884,-0.07499732735165994,-0.2876916044004507,-0.03486885106153767,-0.0005805677967800804
2791,8.0,300.50113999999996,890.70799,0.0,0.0,0.0,-0.028303931989281002,0.0,0.0,-0.09450793729445722,-0.10215633104454491,-0.07408872166898753,-0.29020841632384076,-0.043991826668905255,0.003910332556769777
2792,8.0,299.21222,771.29786,0.0,0.0,0.0,-0.028314073132953265,0.0,0.0,-0.06802230212777853,-0.08029964789970821,-0.08613334010494882,-0.28295434607541975,-0.05622037836901935,0.00038292777163452865
2793,8.0,299.11104,738.12152,0.0,0.0,0.0,-0.028324214276625525,0.0,0.0,-0.055967688992830854,-0.08384583985144012,-0.08455698132812432,-0.27386880600624675,-0.0880982934673746,0.00939904836406385
2794,8.0,300.61574,608.20308,0.0,0.0,0.0,-0.028334355420297788,0.0,0.0,-0.03670946242469186,-0.07932933933894622,-0.06883974772545413,-0.2775766934221867,-0.08274827214436863,-0.038860406962223565
2795,8.0,300.82948999999996,583.25988,0.0,0.0,0.0,-0.028344496563970048,0.0,0.0,-0.06885428482463885,-0.04283436878817306,-0.06560778590798434,-0.25473877584075977,-0.09630918085147609,-0.018428938103294584
2796,8.0,300.80015,862.1419800000001,0.0,0.0,0.0,-0.028354637707642308,0.0,0.0,-0.11373360509713289,-0.06582312384573653,-0.08251290225213942,-0.28191816612565673,-0.05921198510376795,-0.007892181825472702
2797,8.0,299.17282,718.97107,0.0,0.0,0.0,-0.02836477885131457,0.0,0.0,-0.09334033576697391,-0.06001694543371135,-0.06519197238494674,-0.27956040407046373,-0.06415646928625053,0.012896279463013688
2798,8.0,300.2774,381.65802,0.0,0.0,0.0,-0.02837491999498683,0.0,0.0,-0.028816564332723473,-0.04602217012653455,-0.04117577361998246,-0.27743618603081976,-0.05703583293024845,-0.002169952400132628
2799,8.0,300.74551,632.39117,0.0,0.0,0.0,-0.028385061138659094,0.0,0.0,-0.025186268569691177,-0.083775843521282,-0.08326901075501152,-0.28181018406249975,-0.05484317592585004,0.0064313732794521235
2800,8.0,300.3294,825.24309,0.0,0.0,0.0,-0.028395202282331354,0.0,0.0,-0.06101574253428494,-0.07106528469559753,-0.11877226479690989,-0.2661651060259507,-0.07500652563606772,0.016423605711133684
2801,8.0,299.09443999999996,650.99585,0.0,0.0,0.0,-0.028405343426003614,0.0,0.0,-0.06081455362092915,-0.07977162300759623,-0.05730030640509994,-0.27411907878094677,-0.06156412868715644,-0.017904433242029984
2802,8.0,298.6244,564.05305,0.0,0.0,0.0,-0.028415484569675877,0.0,0.0,-0.061975755460780844,-0.05464841304462845,-0.05483387428993204,-0.27773941125574575,-0.05028301649304735,-0.013433141922497885
2803,8.0,299.05661000000003,581.40587,0.0,0.0,0.0,-0.028425625713348137,0.0,0.0,-0.07357908625294042,-0.06073102229593524,-0.04242275721330016,-0.28562729983921975,-0.05793659605714685,-0.028783087562669573
2804,8.0,300.41587999999996,570.01099,0.0,0.0,0.0,-0.0284357668570204,0.0,0.0,-0.06455885825871324,-0.04620708725653446,-0.06250316328358194,-0.2747370904144398,-0.05608372639428284,-0.0010766348719305889
2805,8.0,299.9333,629.95597,0.0,0.0,0.0,-0.02844590800069266,0.0,0.0,-0.05634682691524885,-0.05245428986733535,-0.08268976809684472,-0.2810907663589987,-0.07850462772480352,-0.012528060323673288
2806,8.0,300.1902,684.73878,0.0,0.0,0.0,-0.02845604914436492,0.0,0.0,-0.05454137431731454,-0.056550282469078346,-0.09705183339302022,-0.2765117371695837,-0.08660598885259561,0.004598144051226485
2807,8.0,300.70644,523.53407,0.0,0.0,0.0,-0.028466190288037183,0.0,0.0,-0.041435150446830965,-0.06379404897723244,-0.05391208622345865,-0.2871852022654727,-0.08555678965229772,-0.02007453023295188
2808,8.0,300.85464,589.85654,0.0,0.0,0.0,-0.028476331431709443,0.0,0.0,-0.040740197666994465,-0.06222127609251184,-0.07634018669593982,-0.28204206634788476,-0.06777089451296653,-0.0001323632011707309
2809,8.0,300.35107,832.28042,0.0,0.0,0.0,-0.02848647257538171,0.0,0.0,-0.07994659508786463,-0.09684780129988381,-0.07619806925016392,-0.2781309513593877,-0.05640836260707194,-0.006549982613632953
2810,8.0,300.54238,865.37367,0.0,0.0,0.0,-0.02849661371905397,0.0,0.0,-0.06122819068275195,-0.1005702035235063,-0.10125359207995151,-0.26457020983854673,-0.04455423822966095,0.01022894822401859
2811,8.0,299.73924,330.09661,0.0,0.0,0.0,-0.02850675486272623,0.0,0.0,-0.005196406832320425,-0.04846921572753916,-0.046675502645263454,-0.27223312650231773,-0.05569674895584115,-0.008646607927878762
2812,8.0,299.21405,398.4989,0.0,0.0,0.0,-0.028516896006398493,0.0,0.0,-0.036492679592297066,-0.03105247698389087,-0.053588558506278944,-0.2858809670017547,-0.07100446638484523,0.0014574273304368787
2813,8.0,299.79213,795.73753,0.0,0.0,0.0,-0.028527037150070753,0.0,0.0,-0.1097210131111209,-0.05538142552472115,-0.07678190091803362,-0.27195633697250077,-0.08630826962871302,-0.007304102511858793
2814,8.0,300.967,602.42367,0.0,0.0,0.0,-0.028537178293743012,0.0,0.0,-0.05664264426869374,-0.08119721016954072,-0.04528189770947536,-0.29695657079733173,-0.08304055832121503,-0.04807943665257095
2815,8.0,299.47002000000003,477.98915999999997,0.0,0.0,0.0,-0.028547319437415276,0.0,0.0,-0.056242713440973646,-0.06477816104410673,-0.024275895778844377,-0.27996696054058773,-0.07922848346374252,-0.03076346056511717
2816,8.0,299.45504,673.88263,0.0,0.0,0.0,-0.028557460581087536,0.0,0.0,-0.05174790559987066,-0.06449481173314235,-0.08860077432446561,-0.30126368418991073,-0.08248576133496083,-0.012532401087101687
2817,8.0,300.33062,652.27039,0.0,0.0,0.0,-0.028567601724759795,0.0,0.0,-0.05789934493047045,-0.07695903020776493,-0.06341553420362595,-0.2706758218936237,-0.049888931105154154,-0.01159010787835459
2818,8.0,301.43725,769.8569200000001,0.0,0.0,0.0,-0.028577742868432055,0.0,0.0,-0.06261169250179294,-0.07404417514159113,-0.0973614127093233,-0.27389804840413273,-0.06883245739098463,-0.0005204141172983745
2819,8.0,301.97057,851.12325,0.0,0.0,0.0,-0.02858788401210432,0.0,0.0,-0.08076191387358032,-0.1022945788881889,-0.07566371965092772,-0.2622577704603268,-0.06963842387827733,-0.01830122096793988
2820,8.0,300.42383,486.98695,0.0,0.0,0.0,-0.02859802515577658,0.0,0.0,-0.016256142827356383,-0.04955951235189305,-0.08221621856985901,-0.29135980280997376,-0.08483151637646882,-0.006801883275943613
2821,8.0,299.303,465.98977,0.0,0.0,0.0,-0.028608166299448838,0.0,0.0,-0.03686482608902507,-0.05768142117846304,-0.047103005021454654,-0.26541148099907375,-0.06674147496787074,-0.017313989104007683
2822,8.0,299.81104,742.2087799999999,0.0,0.0,0.0,-0.0286183074431211,0.0,0.0,-0.06927868766877414,-0.07104212686456203,-0.08529212062017692,-0.2829618137286567,-0.05262183887737115,0.0028103199785319876
2823,8.0,299.80377000000004,627.1750900000001,0.0,0.0,0.0,-0.02862844858679336,0.0,0.0,-0.06944943145637524,-0.04625980767248755,-0.07493632665588963,-0.2953108195874087,-0.05725827273795154,0.004879159948535596
2824,8.0,299.20767,474.42402999999996,0.0,0.0,0.0,-0.028638589730465625,0.0,0.0,-0.05515530153965445,-0.03876540868584796,-0.05029234751321825,-0.2963325708557477,-0.06908524099943243,0.018640022417126985
2825,8.0,299.36991,782.86185,0.0,0.0,0.0,-0.028648730874137884,0.0,0.0,-0.08945291664531552,-0.08429457893647722,-0.06422295774456244,-0.2876648242003077,-0.06310228489546064,0.0006395003376387694
2826,8.0,299.96611,964.6391,0.0,0.0,0.0,-0.028658872017810144,0.0,0.0,-0.1145896798416209,-0.07819834653757593,-0.10043817906197651,-0.2637039519305538,-0.08166569648577672,-0.03147016907261387
2827,8.0,300.24764,796.06836,0.0,0.0,0.0,-0.028669013161482407,0.0,0.0,-0.06946309614722385,-0.0989422348528383,-0.07357957159973834,-0.2666621761275077,-0.08514628150678372,-0.010584307193089792
2828,8.0,300.86242999999996,567.9835,0.0,0.0,0.0,-0.028679154305154667,0.0,0.0,-0.01950431867292638,-0.07687298399602284,-0.07627549776980552,-0.28066048970403373,-0.06854963294357203,0.0016027310424772383
2829,8.0,300.07973,448.18265999999994,0.0,0.0,0.0,-0.02868929544882693,0.0,0.0,-0.026384844139481375,-0.034858679043783765,-0.07499281332246442,-0.2766357184518198,-0.04152916789710976,0.03208059247610797
2830,8.0,299.18962,502.00552000000005,0.0,0.0,0.0,-0.02869943659249919,0.0,0.0,-0.012230904466846288,-0.07473032987080933,-0.06563590967775994,-0.2851118291158467,-0.045468594106650856,-0.002378328397772738
2831,8.0,298.54942,737.77669,0.0,0.0,0.0,-0.02870957773617145,0.0,0.0,-0.050920484554960545,-0.07763754503122913,-0.09570766188986081,-0.27179586855416377,-0.06344279975056684,-0.0026042708084215173
2832,8.0,299.43406,815.40042,0.0,0.0,0.0,-0.028719718879843713,0.0,0.0,-0.08390247850552993,-0.08823500522386701,-0.07572388441536552,-0.26597736091492175,-0.10336742835907091,-0.02237770445225748
2833,8.0,299.15578999999997,490.87429000000003,0.0,0.0,0.0,-0.028729860023515973,0.0,0.0,-0.05623797345700585,-0.07384975879190372,-0.019125794780068983,-0.2791507166575307,-0.07136900337332223,-0.021126638474286877
2834,8.0,299.36826,443.31298,0.0,0.0,0.0,-0.028740001167188237,0.0,0.0,-0.040423870105025364,-0.047294759563129354,-0.04703744773998466,-0.27733762719359273,-0.07415722142874794,-0.02777255094643737
2835,8.0,299.63097999999997,719.45299,0.0,0.0,0.0,-0.028750142310860496,0.0,0.0,-0.07239605596618444,-0.06586996031835894,-0.08042972894754623,-0.2860531992537527,-0.05733834786685435,0.0007695862592097501
2836,8.0,299.92737,769.03119,0.0,0.0,0.0,-0.028760283454532756,0.0,0.0,-0.07723631724338102,-0.06850492125640933,-0.08802503953814501,-0.26778788685610677,-0.05496684512705524,0.022642146516355877
2837,8.0,300.49335,668.68654,0.0,0.0,0.0,-0.028770424598205023,0.0,0.0,-0.045648358859892255,-0.06936261416130703,-0.08825303803589672,-0.2762700263582287,-0.04821618083306655,-0.01074375932157649
2838,8.0,300.68928999999997,649.0427099999999,0.0,0.0,0.0,-0.02878056574187728,0.0,0.0,-0.07160908893151684,-0.06875716277605363,-0.05692652452271055,-0.2610996053310247,-0.07227813189304623,-0.02088506850469578
2839,8.0,300.13505,638.17289,0.0,0.0,0.0,-0.028790706885549546,0.0,0.0,-0.05060294615912195,-0.07282909271442184,-0.07055658349614263,-0.29804954341519974,-0.06828990654543902,-0.014897825339550886
2840,8.0,300.85697000000005,694.69261,0.0,0.0,0.0,-0.028800848029221806,0.0,0.0,-0.057671924998525845,-0.08428737574151633,-0.06920990723873603,-0.2746382174696817,-0.07911446850949012,0.007421877535907284
2841,8.0,300.89558999999997,917.69519,0.0,0.0,0.0,-0.028810989172894066,0.0,0.0,-0.07794013089534202,-0.07297884297320102,-0.1280374439763119,-0.2958255101082047,-0.037787992175634465,0.02032915491683138
2842,8.0,300.98187,671.70233,0.0,0.0,0.0,-0.028821130316566326,0.0,0.0,-0.058406091570482446,-0.057843660757974855,-0.08793098358436241,-0.2887711413219928,-0.04719028131881816,0.02244335799248698
2843,8.0,300.30626,288.48208,0.0,0.0,0.0,-0.02883127146023859,0.0,0.0,-0.005933239163965114,-0.05994107731922374,-0.02181703264192348,-0.2979663454494887,-0.05563646462789155,-0.018894631902254985
2844,8.0,299.64313,667.52675,0.0,0.0,0.0,-0.02884141260391085,0.0,0.0,-0.07524495453034884,-0.05749971706453024,-0.07016679327542333,-0.26633740920545573,-0.093385497337181,-0.010463689901185791
2845,8.0,299.50514,978.5539699999999,0.0,0.0,0.0,-0.02885155374758311,0.0,0.0,-0.12277332599678388,-0.08946629559963593,-0.08521634673794862,-0.27311285050413975,-0.06886703252414694,-0.005334216546621184
2846,8.0,300.04479,690.32137,0.0,0.0,0.0,-0.02886169489125537,0.0,0.0,-0.06989873188196773,-0.07743834411456951,-0.06250338315885363,-0.27108806269680874,-0.0947424763216044,-0.026811909804879477
2847,8.0,299.17453,301.20791,0.0,0.0,0.0,-0.02887183603492763,0.0,0.0,-0.02162663788188298,-0.025728654255470478,-0.044204391341133756,-0.28264943885532773,-0.07336439679525222,0.002891243907043557
2848,8.0,300.11154,410.37651,0.0,0.0,0.0,-0.02888197717859989,0.0,0.0,-0.0032495422133298466,-0.04098984323988256,-0.08050482699195782,-0.3079713086594017,-0.06267612710215215,-0.007826209719411762
2849,8.0,300.02979,594.76023,0.0,0.0,0.0,-0.028892118322272155,0.0,0.0,-0.04610305686876746,-0.05930912032460445,-0.07538008156368482,-0.29016063144912474,-0.04196851719347016,-0.0005059881311196404
2850,8.0,300.44777999999997,663.15422,0.0,0.0,0.0,-0.028902259465944418,0.0,0.0,-0.048967496662965654,-0.08912709695640961,-0.06348773131300123,-0.29601007361391973,-0.06109996894884745,-0.03419570849010367
2851,8.0,300.80978,597.37646,0.0,0.0,0.0,-0.028912400609616674,0.0,0.0,-0.07170808751928723,-0.07791353713321741,-0.031965901684038865,-0.2931256748192517,-0.07751266094315402,-0.015765524089186085
2852,8.0,299.97048,392.30237999999997,0.0,0.0,0.0,-0.028922541753288938,0.0,0.0,-0.033619103321947175,-0.05320767070093825,-0.03242335471993597,-0.27773552037536176,-0.09330877302635891,0.014046242332756186
2853,8.0,298.73365,477.78880999999996,0.0,0.0,0.0,-0.028932682896961198,0.0,0.0,-0.025988651191380177,-0.05684774128768525,-0.06239947537434874,-0.26912693739326077,-0.060328432699952736,-0.0030976810506173173
2854,8.0,299.91682000000003,967.05304,0.0,0.0,0.0,-0.02894282404063346,0.0,0.0,-0.07116146036858934,-0.0982057783356557,-0.12459273814134589,-0.26040864982283274,-0.057428592987010856,0.013796171194826087
2855,8.0,299.80477,916.87548,0.0,0.0,0.0,-0.02895296518430572,0.0,0.0,-0.0979184621505498,-0.07420365260133033,-0.1065851357741339,-0.26649617536362474,-0.06587802274940464,-0.003965490649813457
2856,8.0,298.86922999999996,429.27847,0.0,0.0,0.0,-0.02896310632797798,0.0,0.0,-0.03341171737097977,-0.05576353530968245,-0.04131468311594176,-0.3037799388257457,-0.08831957411696331,-0.006500028775752894
2857,8.0,300.03186,548.3724,0.0,0.0,0.0,-0.028973247471650244,0.0,0.0,-0.06631938740021394,-0.035471810864795165,-0.06490031746291264,-0.2782001563412177,-0.047451632970111554,-0.001052605544484079
2858,8.0,299.8763,801.0339799999999,0.0,0.0,0.0,-0.028983388615322504,0.0,0.0,-0.07867360339098013,-0.07057014078248064,-0.0942505849413085,-0.28295275527276276,-0.07102214759909023,0.007141762316612062
2859,8.0,301.23684,694.34819,0.0,0.0,0.0,-0.028993529758994767,0.0,0.0,-0.05132492029262525,-0.07685962429345433,-0.08287996729961591,-0.27246442110264474,-0.04569735254197756,-0.004046636682746947
2860,8.0,300.93841000000003,429.01332,0.0,0.0,0.0,-0.029003670902667027,0.0,0.0,-0.00990437381948559,-0.047824374244648256,-0.07268058774001553,-0.2940847464364047,-0.08850715305497592,0.004237073897966636
2861,8.0,299.89923,383.13572999999997,0.0,0.0,0.0,-0.029013812046339287,0.0,0.0,-0.027412235157876972,-0.06032410004252515,-0.028727359820419674,-0.3001992345623577,-0.046761791023779455,-0.012930296295370887
2862,8.0,300.33923,663.50235,0.0,0.0,0.0,-0.02902395319001155,0.0,0.0,-0.06555374725365115,-0.0993828274070714,-0.03675157309884786,-0.2988921621983597,-0.043167261976027056,-0.016760859927418083
2863,8.0,300.01114,892.43253,0.0,0.0,0.0,-0.02903409433368381,0.0,0.0,-0.08335244784774612,-0.11329723880906689,-0.07462751436991222,-0.27701282987403775,-0.04806488334138465,-0.02070938410960708
2864,8.0,299.34005,831.46874,0.0,0.0,0.0,-0.029044235477356073,0.0,0.0,-0.08516205781084073,-0.10003094675403582,-0.06755273062068543,-0.26424142031359776,-0.07745651270211262,-0.006758558626842805
2865,8.0,300.83783,527.31241,0.0,0.0,0.0,-0.029054376621028333,0.0,0.0,-0.030590280924275674,-0.06159277225423334,-0.06810675145736303,-0.2866801173556247,-0.09222899697779333,-0.0029283770914083174
2866,8.0,300.16272000000004,242.1089,0.0,0.0,0.0,-0.029064517764700593,0.0,0.0,-0.009717062480824401,-0.04397672518941486,-0.01990127459835288,-0.25749712632298777,-0.09320896181200831,-0.031608871865552765
2867,8.0,300.42794,594.24015,0.0,0.0,0.0,-0.02907465890837286,0.0,0.0,-0.07021620036354943,-0.060008898201417145,-0.05040906885848775,-0.2679482438169327,-0.09988017007290531,-0.017095782655222384
2868,8.0,301.36665,790.26867,0.0,0.0,0.0,-0.02908480005204512,0.0,0.0,-0.09701954820508392,-0.06193010043777504,-0.08127229504170103,-0.24621191147922375,-0.06309376447536974,-0.017682485873875484
2869,8.0,300.22378,442.51170999999994,0.0,0.0,0.0,-0.029094941195717375,0.0,0.0,-0.03889330415322026,-0.04619535989987705,-0.04942384424300365,-0.2778520542693627,-0.05419633428726175,-0.015665997598113587
2870,8.0,300.90746,585.05128,0.0,0.0,0.0,-0.029105082339389635,0.0,0.0,-0.032217559571625566,-0.056949040966432746,-0.08867438086473002,-0.26922655001059176,-0.05871394329536504,0.0004675117216273146
2871,8.0,300.51091,808.06638,0.0,0.0,0.0,-0.029115223483061902,0.0,0.0,-0.06194999256373824,-0.06909383538678064,-0.1145881700989719,-0.2949375078530657,-0.058477850955814537,0.00948329392905324
2872,8.0,299.2476,815.52097,0.0,0.0,0.0,-0.029125364626734162,0.0,0.0,-0.049275062651320055,-0.0983729585226551,-0.1002499911606538,-0.2924290248454977,-0.09107702685960273,0.009520844876434231
2873,8.0,299.84427999999997,863.45118,0.0,0.0,0.0,-0.029135505770406418,0.0,0.0,-0.09978809502306821,-0.08896519377593101,-0.07371431055828603,-0.29126805301341874,-0.06136051709281154,0.012034614617723989
2874,8.0,299.66451,683.16375,0.0,0.0,0.0,-0.029145646914078685,0.0,0.0,-0.07613451313764143,-0.08307890274474931,-0.04845130551877155,-0.2912863219127217,-0.056129986327598344,0.003017698532773657
2875,8.0,299.77101,485.80760999999995,0.0,0.0,0.0,-0.029155788057750945,0.0,0.0,-0.06053523299236234,-0.05989132673931374,-0.027246821065801875,-0.28415948547935777,-0.06824005768026933,-0.015874681522459088
2876,8.0,300.24203,645.6816,0.0,0.0,0.0,-0.029165929201423205,0.0,0.0,-0.04845606272799105,-0.06818772939210493,-0.07962729161035183,-0.2676861869435697,-0.05758622633156805,0.005460758210534875
2877,8.0,299.89841,783.8200400000001,0.0,0.0,0.0,-0.029176070345095468,0.0,0.0,-0.07875503222201653,-0.07023403052555914,-0.08927265641277522,-0.27549482923672275,-0.07450610775618033,-0.013465198115911589
2878,8.0,300.36102,613.5020599999999,0.0,0.0,0.0,-0.029186211488767728,0.0,0.0,-0.037081623106921265,-0.04586865260388356,-0.1035390323960069,-0.2491454529037418,-0.07687962179742792,-0.026899084777232973
2879,8.0,301.28627,493.1567,0.0,0.0,0.0,-0.02919635263243999,0.0,0.0,-0.05132710485984086,-0.057727488594259545,-0.04085272922310046,-0.2911942985386397,-0.08523150191969432,-0.04967112387690825
2880,8.0,300.60131,632.65909,0.0,0.0,0.0,-0.02920649377611225,0.0,0.0,-0.05073110709802045,-0.06132757329231024,-0.08025388648544193,-0.2677937434416848,-0.06625518382087753,-0.015928724229792687
2881,8.0,301.84317000000004,744.08195,0.0,0.0,0.0,-0.02921663491978451,0.0,0.0,-0.05639297336455315,-0.07781483137472593,-0.09197452833442922,-0.2745463967456197,-0.06805438466569484,-0.006925371004055903
2882,8.0,301.50601,633.9782,0.0,0.0,0.0,-0.029226776063456774,0.0,0.0,-0.012707416737124387,-0.0925592638213881,-0.08744686180583332,-0.28851624812683674,-0.027788637305024972,0.02012547948773018
2883,8.0,300.46506,572.54932,0.0,0.0,0.0,-0.029236917207129034,0.0,0.0,-0.04351157347925796,-0.05920481230631004,-0.07132430992466134,-0.3114836489385427,-0.07294458296081983,0.016478827841583683
2884,8.0,300.30215,590.93326,0.0,0.0,0.0,-0.029247058350801297,0.0,0.0,-0.04227261482673226,-0.07061333968724404,-0.06674299990927124,-0.3025302974774157,-0.07098747316741813,0.03137629449059917
2885,8.0,300.44652,561.6073700000001,0.0,0.0,0.0,-0.029257199494473557,0.0,0.0,-0.07634943766935283,-0.07067165527024934,-0.023693524204368776,-0.26397602984740576,-0.04434946747720166,-0.02120259980778368
2886,8.0,299.26383,936.07015,0.0,0.0,0.0,-0.029267340638145817,0.0,0.0,-0.11570755814694689,-0.07902939501784402,-0.08980500382981382,-0.2583017887574018,-0.05317546252000954,-0.01049253915803299
2887,8.0,300.11502,999.54441,0.0,0.0,0.0,-0.02927748178181808,0.0,0.0,-0.12104635265884488,-0.08528405920238133,-0.09750613218135601,-0.25891592977551275,-0.07050386713318993,-0.013098599163481087
2888,8.0,299.23400000000004,403.91527,0.0,0.0,0.0,-0.02928762292549034,0.0,0.0,-0.02021455835702158,-0.02035360261524418,-0.08221199635669232,-0.3008299624846057,-0.08006875454642082,0.005291804531885445
2889,8.0,299.74211,260.55618,0.0,0.0,0.0,-0.029297764069162603,0.0,0.0,-0.02611217448457098,-0.0017916019756923482,-0.051298796678547046,-0.2886880446812917,-0.08812371388588341,-0.005167371948054905
2890,8.0,299.36585,775.1467,0.0,0.0,0.0,-0.029307905212834863,0.0,0.0,-0.058607392954599345,-0.07245439992019254,-0.1045634485121089,-0.30573368766856573,-0.07203608772240834,0.02135583969990728
2891,8.0,300.52353,804.99813,0.0,0.0,0.0,-0.029318046356507123,0.0,0.0,-0.07459222286892922,-0.08336013132325443,-0.0867469775377601,-0.2930396296207597,-0.08971735870941391,0.007916933498915502
2892,8.0,300.88659,512.95177,0.0,0.0,0.0,-0.029328187500179386,0.0,0.0,-0.03298223510409317,-0.08019302156518501,-0.04274927199177466,-0.29026130797906075,-0.06301933416277404,-0.009514726467030391
2893,8.0,301.26529,529.73987,0.0,0.0,0.0,-0.029338328643851646,0.0,0.0,-0.040770341857469465,-0.06881133923240043,-0.051446010772325954,-0.2911156298008757,-0.051154094431766044,0.011703694227814688
2894,8.0,299.67618,622.2475099999999,0.0,0.0,0.0,-0.029348469787523913,0.0,0.0,-0.035705020507811165,-0.08630503229464352,-0.06713765271722043,-0.2890301280475527,-0.02463719340675168,-0.013641408387802189
2895,8.0,299.37028,806.23834,0.0,0.0,0.0,-0.02935861093119617,0.0,0.0,-0.08053785185246712,-0.1015690816840879,-0.06296938599909453,-0.29460641825038975,-0.07415111558364534,-0.0070551638835654636
2896,8.0,299.39833,871.23283,0.0,0.0,0.0,-0.02936875207486843,0.0,0.0,-0.08732540148984612,-0.08615102233244393,-0.09135660181394462,-0.2902261178030877,-0.04894485356298095,-0.02625757283417068
2897,8.0,300.34378,552.4461,0.0,0.0,0.0,-0.02937889321854069,0.0,0.0,-0.05633274679185924,-0.06125326558297665,-0.05034380643279686,-0.2865677783170377,-0.06953006792583344,-0.027981063631515972
2898,8.0,299.57567,331.55528,0.0,0.0,0.0,-0.02938903436221295,0.0,0.0,-0.02367496450228708,-0.05299151101735495,-0.024118050665016277,-0.2854808649347677,-0.06547175809530943,-0.04050615614564636
2899,8.0,299.83806,653.62949,0.0,0.0,0.0,-0.029399175505885212,0.0,0.0,-0.06584220334511953,-0.06140367648082104,-0.07144116501894403,-0.28502936069020773,-0.10702319418986689,-0.020810922915378182
2900,8.0,298.98918,826.90894,0.0,0.0,0.0,-0.02940931664955747,0.0,0.0,-0.05750429087548165,-0.07979918847656672,-0.11405619353146988,-0.3062540929199257,-0.07849738197333843,-0.005062731482402696
2901,8.0,300.42528,573.06033,0.0,0.0,0.0,-0.02941945779322973,0.0,0.0,-0.04335939749973936,-0.06011795430968015,-0.07071868020739035,-0.2854752109992097,-0.07359911618091723,-0.007498279126572534
2902,8.0,300.17589,515.2083700000001,0.0,0.0,0.0,-0.029429598936901998,0.0,0.0,-0.031085272849877568,-0.06629157773796934,-0.05923363015240414,-0.3077558815556407,-0.05478180235404295,-0.0030871494304029272
2903,8.0,300.05777,878.30975,0.0,0.0,0.0,-0.029439740080574258,0.0,0.0,-0.08564123796863211,-0.10789618007852389,-0.07344681354513613,-0.2736308036902577,-0.0965479917410449,0.004211027392221046
2904,8.0,299.75154,822.20477,0.0,0.0,0.0,-0.02944988122424652,0.0,0.0,-0.08043686729450071,-0.0857488451292521,-0.0837440061898899,-0.2652019510108948,-0.06965279176469533,0.012619235607421588
2905,8.0,300.35967999999997,731.7816,0.0,0.0,0.0,-0.02946002236791878,0.0,0.0,-0.06409810405399034,-0.07326276983672243,-0.08508245992273501,-0.2755868222133017,-0.09020577565511692,0.02068656977035548
2906,8.0,300.21241000000003,628.53521,0.0,0.0,0.0,-0.02947016351159104,0.0,0.0,-0.042479929850192666,-0.060180219541575236,-0.08839886093728833,-0.30193646199130875,-0.056707019087297035,-0.0037115445395259268
2907,8.0,301.22626,366.77245,0.0,0.0,0.0,-0.029480304655263304,0.0,0.0,-0.04093857987757326,-0.029524296222821177,-0.04102678937827886,-0.3112404081195367,-0.08991759212792541,0.0018192231734183483
2908,8.0,300.73742999999996,404.3393,0.0,0.0,0.0,-0.029490445798935564,0.0,0.0,-0.027493488696646074,-0.03898450983447156,-0.05643105130331114,-0.2989724420037827,-0.03497240319525747,-0.03258162641205617
2909,8.0,301.29449,842.37035,0.0,0.0,0.0,-0.029500586942607827,0.0,0.0,-0.11322364645430388,-0.05989847217901894,-0.08293743681878772,-0.2794379629283797,-0.06224517156962015,0.002164856258754678
2910,8.0,299.75789,762.04125,0.0,0.0,0.0,-0.029510728086280087,0.0,0.0,-0.07055222044121202,-0.07729564303673603,-0.08379364936528932,-0.27053720927994374,-0.05646374787078804,-0.03519181845141207
2911,8.0,299.60722000000004,517.40351,0.0,0.0,0.0,-0.029520869229952347,0.0,0.0,-0.04332900506298987,-0.058681730048185846,-0.055267013376429544,-0.2816192370811547,-0.1083191512002679,-0.010746300552827291
2912,8.0,299.05466,777.26549,0.0,0.0,0.0,-0.02953101037362461,0.0,0.0,-0.028624235278242073,-0.10801374748762689,-0.099631312808595,-0.28738922017310775,-0.06842574488034524,-0.01077287303669979
2913,8.0,298.92769,926.65892,0.0,0.0,0.0,-0.02954115151729687,0.0,0.0,-0.08238465518698243,-0.09823378760817,-0.10106273122486499,-0.28956066579991274,-0.06308901638540114,0.01953549941825368
2914,8.0,299.13712000000004,770.52408,0.0,0.0,0.0,-0.029551292660969133,0.0,0.0,-0.05365090885118245,-0.09659742314717341,-0.08397174833536633,-0.2947249989095927,-0.04936342413954065,0.0003974721560874476
2915,8.0,300.09322000000003,549.4207,0.0,0.0,0.0,-0.029561433804641393,0.0,0.0,-0.05224024483671074,-0.07032145475743723,-0.04444847417097286,-0.2851695945040477,-0.08387441249101002,-0.008825604840194382
2916,8.0,299.91087999999996,276.60828,0.0,0.0,0.0,-0.029571574948313653,0.0,0.0,-0.020142748309184482,-0.027299019657953474,-0.036640241230860265,-0.2635826760260847,-0.07707644562935292,-0.011016022663196791
2917,8.0,301.10823,354.74174,0.0,0.0,0.0,-0.029581716091985916,0.0,0.0,-0.013070049828663489,-0.04227753820896816,-0.05248504302112045,-0.25005699295870376,-0.08704946207686302,-0.03595745150522417
2918,8.0,300.57639,732.94532,0.0,0.0,0.0,-0.029591857235658176,0.0,0.0,-0.05036560954844865,-0.08929680824215881,-0.08313465885800202,-0.26210369565012076,-0.06908869314252312,-0.023988229009203877
2919,8.0,300.20822999999996,871.97585,0.0,0.0,0.0,-0.02960199837933044,0.0,0.0,-0.09673349554285271,-0.07445834517296653,-0.09386704343395591,-0.3067581848446757,-0.09084623989757581,-0.02392286627175308
2920,8.0,300.53808,579.98564,0.0,0.0,0.0,-0.0296121395230027,0.0,0.0,-0.057827567306636546,-0.05934168618281844,-0.059131898829114043,-0.3024528142422687,-0.047389057683685856,0.003806442200166596
2921,8.0,300.23973,530.14015,0.0,0.0,0.0,-0.02962228066667496,0.0,0.0,-0.05750721004901974,-0.06521286864175904,-0.038429291336175765,-0.3021853567458727,-0.06518587768559524,-0.01178951549803459
2922,8.0,299.4157,942.99734,0.0,0.0,0.0,-0.02963242181034722,0.0,0.0,-0.07630569160953542,-0.08445800908485653,-0.12588394300877787,-0.28724358573623476,-0.053717043685209444,0.010989162416295889
2923,8.0,299.80884,909.45465,0.0,0.0,0.0,-0.029642562954019482,0.0,0.0,-0.08591409507481101,-0.09209871631968561,-0.09843869413614272,-0.29296539891843376,-0.10734029080866189,0.012691165218770487
2924,8.0,299.58182999999997,459.19285999999994,0.0,0.0,0.0,-0.029652704097691742,0.0,0.0,-0.018199756129426085,-0.048240568749723454,-0.07314283851513613,-0.28087104307481375,-0.08725818146496202,0.006484420265912454
2925,8.0,299.60382000000004,364.65181,0.0,0.0,0.0,-0.029662845241364002,0.0,0.0,-0.05414832244452335,-0.04075738036219026,-0.015939344104090786,-0.2987401645508587,-0.08023964120228602,0.013691819606777386
2926,8.0,299.62594,552.4022,0.0,0.0,0.0,-0.02967298638503626,0.0,0.0,-0.059788028931369044,-0.07484592549521774,-0.03328252190372917,-0.2899750141633057,-0.06852473637536494,-0.007890244288631483
2927,8.0,299.70706,775.1947,0.0,0.0,0.0,-0.029683127528708525,0.0,0.0,-0.1073398753761209,-0.05574333819543915,-0.07255662266978113,-0.26481118097732875,-0.06424440622267924,-0.009401279034159
2928,8.0,300.05237,911.0777,0.0,0.0,0.0,-0.029693268672380785,0.0,0.0,-0.06674587044680454,-0.09821526742284221,-0.11198373230693391,-0.2846800528507338,-0.05095994152710465,-0.03136520244175447
2929,8.0,300.42193,648.18194,0.0,0.0,0.0,-0.02970340981605305,0.0,0.0,-0.04979750757513136,-0.06362292927384423,-0.08361068882123252,-0.2694472054848687,-0.07746715689441314,-0.02065457133219748
2930,8.0,300.93347,465.16137000000003,0.0,0.0,0.0,-0.029713550959725308,0.0,0.0,-0.0017448780751560583,-0.07264779491377914,-0.06700476901960584,-0.3111144206021027,-0.0968953612330776,-0.03456698663149597
2931,8.0,301.38126,845.5032699999999,0.0,0.0,0.0,-0.029723692103397568,0.0,0.0,-0.08546383104837342,-0.1041281461366479,-0.06741990569157663,-0.2959544664484317,-0.08273823488887802,-0.014854460261771087
2932,8.0,301.34141,963.1090800000001,0.0,0.0,0.0,-0.029733833247069835,0.0,0.0,-0.0976693454942139,-0.08068034420078002,-0.1144114187515279,-0.2827637030691047,-0.06477967889275653,0.01113594081253179
2933,8.0,300.98786,526.92642,0.0,0.0,0.0,-0.029743974390742094,0.0,0.0,-0.05904110655390354,-0.05455961180586445,-0.04657175495427436,-0.28066383342936374,-0.061705415267850346,-0.003508916203078067
2934,8.0,301.37359,316.28128,0.0,0.0,0.0,-0.029754115534414358,0.0,0.0,0.0053252079426321045,-0.05804120805047125,-0.043425610354024057,-0.2971481358612377,-0.059539835345874245,-0.009169041503288941
2935,8.0,301.2576,537.0432400000001,0.0,0.0,0.0,-0.029764256678086617,0.0,0.0,-0.025565799633147975,-0.05504698510396444,-0.08263494923993452,-0.2927341347156097,-0.08893597569604741,0.007265273146826633
2936,8.0,301.0938,840.63525,0.0,0.0,0.0,-0.029774397821758877,0.0,0.0,-0.07270403738707984,-0.08703392692632982,-0.09579416102439761,-0.27007480246430776,-0.05262521705320455,-0.0006342376179443793
2937,8.0,300.25077000000005,902.24151,0.0,0.0,0.0,-0.02978453896543114,0.0,0.0,-0.1025081517442669,-0.09097672219245341,-0.08077401815927493,-0.29640918269580874,-0.09254686265341422,0.0008881344336145441
2938,8.0,299.76373,682.48639,0.0,0.0,0.0,-0.0297946801091034,0.0,0.0,-0.1022633505201069,-0.05553198739683045,-0.049663479918153855,-0.28302030865692973,-0.08843570271092432,-0.005789132404267885
2939,8.0,300.02083999999996,574.66431,0.0,0.0,0.0,-0.029804821252775664,0.0,0.0,-0.06374002957465114,-0.053535557420048153,-0.057408013877479847,-0.2983657787714097,-0.06515428758722754,0.006334106437427634
2940,8.0,300.56973999999997,779.22114,0.0,0.0,0.0,-0.029814962396447924,0.0,0.0,-0.05630124687275044,-0.06621227470564274,-0.11435024884299089,-0.27955838770276475,-0.049277470133557655,0.0037777080485307565
2941,8.0,300.58832,1103.8276,0.0,0.0,0.0,-0.029825103540120183,0.0,0.0,-0.09066818551050322,-0.09045591468080372,-0.15441192864677086,-0.2887349480284207,-0.07619443066905483,0.0026065952041509177
2942,8.0,300.11806,805.4889400000001,0.0,0.0,0.0,-0.029835244683792447,0.0,0.0,-0.06507229640238564,-0.08430874113312492,-0.09546748513915722,-0.3171697551872177,-0.09629174585700541,0.0006549693128079384
2943,8.0,299.43272,258.81818,0.0,0.0,0.0,-0.029845385827464706,0.0,0.0,-0.02405832869087218,-0.027729480724436675,-0.026886453601486372,-0.2977482940279687,-0.09477018668533921,-0.0012995528323558787
2944,8.0,299.20214,249.16325,0.0,0.0,0.0,-0.02985552697113697,0.0,0.0,-0.04383691491411666,-0.023847610160325876,-0.008054881420529902,-0.29159082383277374,-0.06911948682631222,-0.009431751517666401
2945,8.0,299.09095,639.96909,0.0,0.0,0.0,-0.02986566811480923,0.0,0.0,-0.06446773870372044,-0.06933618961194914,-0.060730694002902846,-0.3066258037191107,-0.04841539086897705,-0.017847161306627682
2946,8.0,299.14848,765.26048,0.0,0.0,0.0,-0.02987580925848149,0.0,0.0,-0.03807132831434756,-0.0968261055887426,-0.0977226444759741,-0.29694578981626774,-0.04483093859346916,-0.039261917446849565
2947,8.0,300.73618999999997,617.47075,0.0,0.0,0.0,-0.029885950402153753,0.0,0.0,-0.017651652673332484,-0.0953074696436149,-0.07473656642517483,-0.2989838309349067,-0.023689020307674273,-0.02302890610602608
2948,8.0,299.73486,524.51531,0.0,0.0,0.0,-0.029896091545826012,0.0,0.0,-0.02364843254841858,-0.061009016580121145,-0.07478210695091933,-0.26102572926623374,-0.03763718712350117,-0.004550036253703615
2949,8.0,300.80691,806.39613,0.0,0.0,0.0,-0.029906232689498272,0.0,0.0,-0.10574577965629589,-0.07115043519425122,-0.06822807194483643,-0.27774080954088376,-0.09211043455709211,-0.004199506941234066
2950,8.0,300.38698999999997,1018.4680000000001,0.0,0.0,0.0,-0.029916373833170532,0.0,0.0,-0.12567747303590088,-0.09111198500130281,-0.09279938990958672,-0.23592724057920578,-0.0992596587514156,-0.022628992503557682
2951,8.0,300.5702,779.73736,0.0,0.0,0.0,-0.029926514976842795,0.0,0.0,-0.08868970323274222,-0.05709819948715354,-0.09123278467822482,-0.2876800026868057,-0.0998395488763963,0.0005773728672272654
2952,8.0,300.63499,288.88572999999997,0.0,0.0,0.0,-0.029936656120515055,0.0,0.0,0.0020049892043520283,-0.046136413062059456,-0.04368262428163936,-0.27705912527110677,-0.07032639131192443,-0.026967625066997375
2953,8.0,299.72643,190.85857,0.0,0.0,0.0,-0.029946797264187315,0.0,0.0,-0.002124664376313048,-0.03828226975991586,-0.017609303885402983,-0.3290752918747027,-0.08086895564064453,-0.008966247601774741
2954,8.0,299.15641,645.94508,0.0,0.0,0.0,-0.02995693840785958,0.0,0.0,-0.053898884587905746,-0.07693100877624943,-0.06552128069394693,-0.3071994957932297,-0.07703214329523063,0.0016257614066501585
2955,8.0,300.11695,753.96073,0.0,0.0,0.0,-0.029967079551531838,0.0,0.0,-0.1013388813938689,-0.06419013958707354,-0.06365621656612944,-0.2989108667952057,-0.048014163081128956,0.0030345283129596273
2956,8.0,299.12543,485.05839000000003,0.0,0.0,0.0,-0.029977220695204098,0.0,0.0,-0.05628918007730954,-0.05742509727416585,-0.033731360287276066,-0.2747027817660537,-0.04966393182769845,0.00977060474393361
2957,8.0,299.63818,569.57777,0.0,0.0,0.0,-0.02998736183887636,0.0,0.0,-0.050325390612229355,-0.05366081641066024,-0.06915121371344343,-0.2979516735880407,-0.04793615802218045,-0.009194476208624151
2958,8.0,300.83193,1001.8572,0.0,0.0,0.0,-0.02999750298254862,0.0,0.0,-0.06837810794014385,-0.10671621993957091,-0.12944523340024988,-0.28987573591850774,-0.06289053183656225,-0.01103136529621099
2959,8.0,300.52013,942.75675,0.0,0.0,0.0,-0.030007644126220888,0.0,0.0,-0.07349543333793453,-0.09520502195250409,-0.11787405911326387,-0.30195823673595773,-0.027466365004719176,-0.01912169517016438
2960,8.0,301.12842,709.812,0.0,0.0,0.0,-0.030017785269893148,0.0,0.0,-0.06348404814888774,-0.06106705047959864,-0.09121402435262332,-0.30364947274286974,-0.048893856685447955,-0.007556724101615602
2961,8.0,300.76808,374.51972,0.0,0.0,0.0,-0.030027926413565404,0.0,0.0,-0.05726703431156624,-0.02972209784109267,-0.02685551299643277,-0.2974076190793467,-0.07407357054024223,0.0019823219890149485
2962,8.0,300.24064,271.03621,0.0,0.0,0.0,-0.03003806755723767,0.0,0.0,-0.030825548478244768,-0.03241907779126387,-0.01914361379632758,-0.2871958616565247,-0.10709445606939991,-0.01867982490755518
2963,8.0,300.99913,795.50829,0.0,0.0,0.0,-0.03004820870090993,0.0,0.0,-0.06768162312615614,-0.1016844402079729,-0.07244858994411914,-0.28900785681035474,-0.1039175725008659,-0.007489532042434263
2964,8.0,299.4532,963.74739,0.0,0.0,0.0,-0.030058349844582194,0.0,0.0,-0.08237274037905652,-0.1010471160275739,-0.10953528436779089,-0.2667932805579467,-0.11578497045458688,-0.013771903854931088
2965,8.0,298.91222999999997,645.43007,0.0,0.0,0.0,-0.030068490988254454,0.0,0.0,-0.03126237275535597,-0.0976217592165175,-0.06731049291927844,-0.2741834910898037,-0.08162337606885002,-0.006079501917225124
2966,8.0,299.7142,529.13414,0.0,0.0,0.0,-0.030078632131926714,0.0,0.0,-0.052787029041174154,-0.060293747122529544,-0.04776279194332055,-0.2679969102192358,-0.05479256205685485,-0.025655351690236076
2967,8.0,300.04621000000003,714.98064,0.0,0.0,0.0,-0.030088773275598977,0.0,0.0,-0.0956569922921101,-0.058864066430181036,-0.06281520277112784,-0.2790288226705007,-0.051133987496781656,0.026940240969794773
2968,8.0,300.21124,736.2129,0.0,0.0,0.0,-0.030098914419271237,0.0,0.0,-0.08611322202421332,-0.06329820490829643,-0.07437891143137702,-0.29642868776023373,-0.05056355099523395,-0.0006176391323587364
2969,8.0,299.52629,492.66414000000003,0.0,0.0,0.0,-0.0301090555629435,0.0,0.0,-0.028284847157247075,-0.023321875213439876,-0.09815087436573709,-0.2972003283738887,-0.048779045316616955,0.006505417949059764
2970,8.0,298.97806,411.3569,0.0,0.0,0.0,-0.03011919670661576,0.0,0.0,-0.006234069065654714,-0.05989338769001714,-0.05891476845193494,-0.30476640872560273,-0.07284277463052213,-0.014281681125992186
2971,8.0,300.19372999999996,571.34881,0.0,0.0,0.0,-0.03012933785028802,0.0,0.0,-0.03682259990435767,-0.05368511110830795,-0.08316806166079863,-0.3039208413846517,-0.052097446486867656,-0.0025156339188237373
2972,8.0,299.99534,719.32302,0.0,0.0,0.0,-0.030139478993960283,0.0,0.0,-0.07366719645513622,-0.07896268263126002,-0.06602635648454404,-0.30684144360539267,-0.08591723817662122,-0.004437214198793946
2973,8.0,300.81019,835.68026,0.0,0.0,0.0,-0.030149620137632543,0.0,0.0,-0.10474637055266191,-0.08029667502391483,-0.06898289058033123,-0.2918385938797267,-0.048997161586143353,0.002041895927319438
2974,8.0,300.3345,665.90979,0.0,0.0,0.0,-0.030159761281304806,0.0,0.0,-0.04824097911601396,-0.08060288832338572,-0.07357608095314383,-0.2912464099912827,-0.07991057303355951,0.008228032082418542
2975,8.0,300.5748,370.39553,0.0,0.0,0.0,-0.030169902424977066,0.0,0.0,-0.005518019101511084,-0.07532890027463363,-0.03174407286614607,-0.2865209458974157,-0.1006480454491887,-0.022086137682982083
2976,8.0,300.79164,677.13257,0.0,0.0,0.0,-0.030180043568649326,0.0,0.0,-0.04539802326368605,-0.07920246928067512,-0.08123089972211563,-0.2894810952695597,-0.1050466776172999,-0.007830671464902102
2977,8.0,300.58378,965.87595,0.0,0.0,0.0,-0.030190184712321586,0.0,0.0,-0.09277387019256811,-0.1002259538285315,-0.10060234888292881,-0.28012472358115775,-0.08168133296131992,-0.012456100314821387
2978,8.0,299.3369,534.61039,0.0,0.0,0.0,-0.030200325855993845,0.0,0.0,-0.05202902981361545,-0.06998612875609314,-0.04049304975560286,-0.27570237325470576,-0.06893665901801853,-0.032502712467767966
2979,8.0,299.42272,408.78621,0.0,0.0,0.0,-0.03021046699966611,0.0,0.0,-0.04952923846540525,-0.04864746060563055,-0.026084100364050275,-0.2995658823223507,-0.03240576064519957,0.0009218485676368701
2980,8.0,298.64117000000005,682.71932,0.0,0.0,0.0,-0.03022060814333837,0.0,0.0,-0.06367591009507304,-0.05936262904913535,-0.08449108663437101,-0.29159505921819173,-0.02915644286676687,-0.008480272183512702
2981,8.0,299.48864,981.48141,0.0,0.0,0.0,-0.03023074928701063,0.0,0.0,-0.06705404235871874,-0.09692222553297891,-0.13436957822374487,-0.2941591797887507,-0.035659423240061064,0.017471887920091085
2982,8.0,300.41994,922.2545,0.0,0.0,0.0,-0.03024089043068289,0.0,0.0,-0.06015813879539604,-0.08060301092664783,-0.13958118958309085,-0.29338482366482777,-0.06976903080291723,0.001818546626326578
2983,8.0,300.02942,724.65137,0.0,0.0,0.0,-0.03025103157435515,0.0,0.0,-0.06149146548273514,-0.08533749395965493,-0.07344696147965073,-0.3061595769505977,-0.0973375668814699,0.014218704592526886
2984,8.0,300.46283999999997,548.52411,0.0,0.0,0.0,-0.030261172718027415,0.0,0.0,-0.07218084772444502,-0.05655083063738245,-0.03800595544439576,-0.28257303979778775,-0.10128612855391259,0.007399627982261423
2985,8.0,300.8541,683.81649,0.0,0.0,0.0,-0.030271313861699675,0.0,0.0,-0.08556925668152811,-0.07185004183179702,-0.05044383954891935,-0.3017565189060497,-0.056871738089803545,-0.0040677763222332665
2986,8.0,300.31879,890.9418599999999,0.0,0.0,0.0,-0.030281455005371934,0.0,0.0,-0.06600398594883623,-0.1111671945813479,-0.09365289403857101,-0.2909623453257477,-0.05033823761024725,-0.004563921427773975
2987,8.0,299.53682000000003,574.29655,0.0,0.0,0.0,-0.030291596149044198,0.0,0.0,-0.038745887409421365,-0.05137299597011995,-0.08445292864885513,-0.29673369630533575,-0.052222729795482155,-0.020529178592572177
2988,8.0,299.50422000000003,345.37549,0.0,0.0,0.0,-0.030301737292716457,0.0,0.0,-0.004889445247650675,-0.04751393771876055,-0.052582143791453546,-0.26878493508700774,-0.04750222252110436,-0.006012660341253375
2989,8.0,299.423,565.4853,0.0,0.0,0.0,-0.030311878436388724,0.0,0.0,-0.08096034370691382,-0.04232909338730626,-0.04860397292458866,-0.2681225734966377,-0.07120197720033802,-0.021876126401005582
2990,8.0,298.89752000000004,1091.2335,0.0,0.0,0.0,-0.030322019580060984,0.0,0.0,-0.1275726762879429,-0.07290629325279092,-0.13122875622626987,-0.2529689014935868,-0.07529036029383003,0.013230102814459488
2991,8.0,298.40746,898.86283,0.0,0.0,0.0,-0.030332160723733244,0.0,0.0,-0.09162360942729622,-0.08932391977508451,-0.09228432448625372,-0.3219763096865877,-0.07931102383013863,-0.013591667940393187
2992,8.0,298.00861000000003,458.06993,0.0,0.0,0.0,-0.030342301867405507,0.0,0.0,0.008475450227611812,-0.05348659616196604,-0.0942306745768435,-0.3165576913318117,-0.07263187472820792,0.026577489327993975
2993,8.0,299.06415,585.1465900000001,0.0,0.0,0.0,-0.030352443011077767,0.0,0.0,-0.009144727047264292,-0.08990426788911042,-0.07882095630002273,-0.3204355210545237,-0.05693306302560586,-0.008098682094527692
2994,8.0,299.36801,777.6705099999999,0.0,0.0,0.0,-0.03036258415475003,0.0,0.0,-0.054860015129261946,-0.08724332620524591,-0.09428907628610732,-0.3077378355713597,-0.06325601013438215,-0.005426145283143845
2995,8.0,299.44425,847.32291,0.0,0.0,0.0,-0.03037272529842229,0.0,0.0,-0.11156456087306489,-0.09253861986385073,-0.05346183131627195,-0.2965333970255677,-0.0969327298967656,-0.01997244021912638
2996,8.0,299.8956,628.13305,0.0,0.0,0.0,-0.03038286644209455,0.0,0.0,-0.09087297956771481,-0.07522511104039042,-0.02483867312288618,-0.2944248944949747,-0.08279547845327752,-0.010970035294158189
2997,8.0,299.83619,317.14887000000004,0.0,0.0,0.0,-0.030393007585766813,0.0,0.0,-0.041181845014581664,-0.03555013712402536,-0.019673356147359083,-0.2670969009504118,-0.07432328602738723,-0.016688530082279683
2998,8.0,300.78488,532.96504,0.0,0.0,0.0,-0.030403148729439073,0.0,0.0,-0.015758208423464086,-0.055772436711810945,-0.0904774199009261,-0.2914825580595887,-0.06783710128775064,-0.03152931552070117
2999,8.0,301.29528,1092.1818,0.0,0.0,0.0,-0.030413289873111336,0.0,0.0,-0.08373741398473933,-0.12135437055674389,-0.12690419466696887,-0.2820222471759287,-0.07500273709394384,0.013019255601150487
3000,8.0,300.60846000000004,880.80494,0.0,0.0,0.0,-0.030423431016783596,0.0,0.0,-0.05900988831832254,-0.07883808326646302,-0.12989474154211286,-0.3110003083758407,-0.07531158889667512,-0.004984538465560645
3001,8.0,300.02612,409.80637,0.0,0.0,0.0,-0.030433572160455856,0.0,0.0,-0.055060131010761855,-0.04983146158598235,-0.01967931000494668,-0.26563748643387874,-0.07113683737790923,0.01015520590824079
3002,8.0,300.82478,586.9640400000001,0.0,0.0,0.0,-0.03044371330412812,0.0,0.0,-0.06449079723624615,-0.07142985613457793,-0.04250176032359716,-0.2979371638466087,-0.0875038348324561,-0.01756984995300918
3003,8.0,299.15712,843.42292,0.0,0.0,0.0,-0.03045385444780038,0.0,0.0,-0.08780325125025622,-0.07411295455837913,-0.0944633026143021,-0.2998606570414427,-0.09304835052540722,0.012699502240593288
3004,8.0,299.72292000000004,822.88187,0.0,0.0,0.0,-0.03046399559147264,0.0,0.0,-0.03663546173013857,-0.11585030482103488,-0.09764977760828271,-0.3365108149510317,-0.07737374638094423,-0.013469493283085486
3005,8.0,298.92311,391.50217999999995,0.0,0.0,0.0,-0.0304741367351449,0.0,0.0,-0.01103494713531449,-0.04512031775577866,-0.06285162100622203,-0.3244634131170457,-0.058781027544735735,-0.01027948001975569
3006,8.0,300.88145,376.89041000000003,0.0,0.0,0.0,-0.03048427787881716,0.0,0.0,-0.025291995138125575,-0.06152893547143314,-0.027744343076903474,-0.31872516501822473,-0.04000699469588296,-0.023977797599424377
3007,8.0,300.35562999999996,560.72808,0.0,0.0,0.0,-0.030494419022489422,0.0,0.0,-0.06038843635762465,-0.06593113833289674,-0.04412776126257095,-0.2919164013549057,-0.06310030095176485,-0.01340199866742429
3008,8.0,301.13577999999995,757.28941,0.0,0.0,0.0,-0.03050456016616168,0.0,0.0,-0.09215007898050472,-0.06541870432007343,-0.07262828883610403,-0.28722907599480274,-0.05444965491826255,-0.013630805738755787
3009,8.0,299.79714,816.19666,0.0,0.0,0.0,-0.030514701309833945,0.0,0.0,-0.04768374323676905,-0.1043130845448999,-0.0961065764277306,-0.26383411403839974,-0.07403481169741703,-0.019326841838410783
3010,8.0,301.36865,546.12775,0.0,0.0,0.0,-0.030524842453506205,0.0,0.0,-0.027638316586439476,-0.037901051635042565,-0.1004698329951005,-0.29179997891841575,-0.07923322952721092,-0.02306167157450978
3011,8.0,300.0862,536.4329700000001,0.0,0.0,0.0,-0.030534983597178465,0.0,0.0,-0.028131249587838175,-0.05602007503625094,-0.07891090352464983,-0.28079194877200775,-0.07550816549557574,0.007472849386162812
3012,8.0,300.61944,871.7845699999999,0.0,0.0,0.0,-0.030545124740850728,0.0,0.0,-0.08440513566813833,-0.08231574810068182,-0.09827985705046673,-0.2990049065369867,-0.07173910209159813,-0.002074603843197458
3013,8.0,299.49705,896.8163599999999,0.0,0.0,0.0,-0.030555265884522988,0.0,0.0,-0.1156797241666999,-0.08948611983784242,-0.06744393694419834,-0.2873889263305787,-0.06152743079503464,0.01386137383876109
3014,8.0,298.84675,516.78013,0.0,0.0,0.0,-0.03056540702819525,0.0,0.0,-0.05858259669815214,-0.06036551157411214,-0.03814014826113957,-0.3274657440908527,-0.061972748134484036,-0.009149254755336142
3015,8.0,299.58404,473.75793,0.0,0.0,0.0,-0.03057554817186751,0.0,0.0,-0.03330646196384186,-0.05978740071630704,-0.05091671931758895,-0.3129317555839597,-0.0982139056147078,0.011867562100237188
3016,8.0,298.99893,550.68194,0.0,0.0,0.0,-0.03058568931553977,0.0,0.0,-0.018002118657670783,-0.07444568663946723,-0.07494575596132022,-0.2996144980621487,-0.09471050929419951,0.004234028980091126
3017,8.0,298.83689,558.65625,0.0,0.0,0.0,-0.030595830459212037,0.0,0.0,-0.03193883372086747,-0.07591638876211422,-0.06196232787045564,-0.28869173291165573,-0.05934874144326475,-0.012703911905028488
3018,8.0,300.56534,748.87666,0.0,0.0,0.0,-0.030605971602884294,0.0,0.0,-0.06676212297840853,-0.07543218693682723,-0.08544549628781392,-0.2667026149389987,-0.03342103319239917,-0.019274825631277182
3019,8.0,300.65767999999997,595.105,0.0,0.0,0.0,-0.03061611274655656,0.0,0.0,-0.09976540936657931,-0.03301669371349397,-0.04811495512157636,-0.30723329781656566,-0.03386709729717227,-0.013910394878599087
3020,8.0,300.52064,590.68056,0.0,0.0,0.0,-0.03062625389022882,0.0,0.0,-0.05005680840822235,-0.06546734539112394,-0.06402798816032045,-0.28308711223602273,-0.02198308508156158,-0.028692431062972475
3021,8.0,300.37097,824.49717,0.0,0.0,0.0,-0.03063639503390108,0.0,0.0,-0.04921173249356986,-0.07974856650157072,-0.1216662489375239,-0.3077874341637547,-0.06863084797883734,-0.025895665229703175
3022,8.0,299.55593999999996,992.8281199999999,0.0,0.0,0.0,-0.030646536177573343,0.0,0.0,-0.07030049263936844,-0.1142265715357849,-0.11726789237343989,-0.3100984651243357,-0.07158888877752323,-0.008628514118193042
3023,8.0,299.73204,665.07983,0.0,0.0,0.0,-0.030656677321245603,0.0,0.0,-0.05472196081638705,-0.07176570699947384,-0.07567999346078383,-0.3144574569220347,-0.11755142001642188,-0.0016233256547347683
3024,8.0,301.00416,444.50912999999997,0.0,0.0,0.0,-0.030666818464917867,0.0,0.0,-0.05397297647496804,-0.05961034032758254,-0.021536359324473182,-0.28123695808342675,-0.09819479166482141,0.03171171979045307
3025,8.0,299.70797000000005,651.09305,0.0,0.0,0.0,-0.030676959608590126,0.0,0.0,-0.06290701741568924,-0.08643031053700752,-0.04857870145384455,-0.3023660901662097,-0.07288307057374903,-0.0025030076066776177
3026,8.0,300.34758999999997,859.9151099999999,0.0,0.0,0.0,-0.030687100752262386,0.0,0.0,-0.08004013225759601,-0.06771818017651404,-0.1136344079123429,-0.28296249260622375,-0.043612058504925055,0.018107155202787082
3027,8.0,300.61821000000003,853.5592300000001,0.0,0.0,0.0,-0.03069724189593465,0.0,0.0,-0.044439555543592656,-0.10036156519541531,-0.11465957383351888,-0.2871997626694097,-0.06289814742431384,-0.02650494366058427
3028,8.0,300.69344,735.19689,0.0,0.0,0.0,-0.03070738303960691,0.0,0.0,-0.06997225128272354,-0.041136855696891565,-0.1123723846477909,-0.29909302889818373,-0.06425922399214164,0.012804270274433089
3029,8.0,300.29306,739.3594099999999,0.0,0.0,0.0,-0.03071752418327917,0.0,0.0,-0.07383418716436693,-0.07590596647158562,-0.07500664621282963,-0.2923343568886547,-0.08696334493761392,-0.013865093479878186
3030,8.0,300.27139,800.57916,0.0,0.0,0.0,-0.030727665326951432,0.0,0.0,-0.1096855392251199,-0.07621796137612713,-0.05745257357712754,-0.2954898710125797,-0.07218078287643863,0.01200521820582279
3031,8.0,299.09832,898.0542800000001,0.0,0.0,0.0,-0.030737806470623692,0.0,0.0,-0.12416069843120688,-0.07409308472391814,-0.07473229050975283,-0.3036124181867127,-0.052976981010920944,-0.0029629874856740967
3032,8.0,299.72233,745.09435,0.0,0.0,0.0,-0.030747947614295952,0.0,0.0,-0.06956937392371264,-0.07074946578517864,-0.08617123565868882,-0.2975645005923297,-0.06612061306184644,0.01081527552688459
3033,8.0,299.57797,289.06453999999997,0.0,0.0,0.0,-0.030758088757968212,0.0,0.0,0.007843275080245982,-0.06323158067447114,-0.03248009571228587,-0.2999938285020857,-0.06584333615873135,-0.027694078779192773
3034,8.0,299.5194,464.94195999999994,0.0,0.0,0.0,-0.030768229901640475,0.0,0.0,-0.02220545902800818,-0.06750616975209023,-0.05161911543266005,-0.2908322642779097,-0.08012080621730792,-0.005637708154998475
3035,8.0,299.73207,782.54298,0.0,0.0,0.0,-0.030778371045312735,0.0,0.0,-0.07751252719414083,-0.08385461966355663,-0.07650637896409172,-0.29900329546932775,-0.0990853462969623,0.0026850155943154074
3036,8.0,300.76953,674.93927,0.0,0.0,0.0,-0.030788512188984995,0.0,0.0,-0.08198944509147822,-0.06079362899311404,-0.06238160974858554,-0.2827661450018457,-0.1092453529841769,-0.0028684261227416175
3037,8.0,301.08988,442.80459,0.0,0.0,0.0,-0.030798653332657258,0.0,0.0,-0.012021010721881388,-0.07453705241423433,-0.048043475393271855,-0.30049578246912473,-0.07568102393613553,-0.02761715283160077
3038,8.0,300.99422000000004,656.64613,0.0,0.0,0.0,-0.030808794476329518,0.0,0.0,-0.026967824677267077,-0.0915661672658771,-0.08107003512298952,-0.3091901978671967,-0.07125923596348903,-0.01612055983147538
3039,8.0,299.97892,909.4799,0.0,0.0,0.0,-0.03081893562000178,0.0,0.0,-0.04526746598830105,-0.08370217010651101,-0.14748954581858487,-0.3031176481628827,-0.059617956928584244,-0.010761953240372091
3040,8.0,300.07052999999996,811.12415,0.0,0.0,0.0,-0.03082907676367404,0.0,0.0,-0.08558475636830783,-0.08087595821208562,-0.08010077324958083,-0.30704030407001875,-0.058710301674505645,-0.00988384152210921
3041,8.0,300.51296,530.86878,0.0,0.0,0.0,-0.0308392179073463,0.0,0.0,-0.0939469351645906,-0.03474427297499277,-0.03267964518697987,-0.2639333618856948,-0.04821722245416936,0.0011920476046959388
3042,8.0,300.57032999999996,380.68447000000003,0.0,0.0,0.0,-0.030849359051018564,0.0,0.0,-0.06984775020318623,-0.032347759169725265,-0.013523064829122588,-0.2853632063331557,-0.07329534380093723,0.02224533953869408
3043,8.0,300.10816,577.42902,0.0,0.0,0.0,-0.030859500194690824,0.0,0.0,-0.05135659550400135,-0.05132438630982255,-0.07284302085029642,-0.28176258157280176,-0.06132243611430324,0.006617180954964914
3044,8.0,299.84932000000003,954.90045,0.0,0.0,0.0,-0.030869641338363087,0.0,0.0,-0.07422011386245493,-0.08424651339148352,-0.13179926669507486,-0.3111229623004457,-0.08877641008354951,0.014497451721537087
3045,8.0,299.6456,863.4566,0.0,0.0,0.0,-0.030879782482035347,0.0,0.0,-0.03553686050796507,-0.1086301480534609,-0.11830223834052189,-0.3196940347638447,-0.06586127676500193,-0.026086045804242276
3046,8.0,300.1547,362.75774,0.0,0.0,0.0,-0.030889923625707607,0.0,0.0,-0.025159675820816678,-0.05499740475007124,-0.03011221331509407,-0.3517394978589857,-0.07466153728177002,-0.03418967863875857
3047,8.0,300.50311,519.76208,0.0,0.0,0.0,-0.030900064769379874,0.0,0.0,-0.06327213195672324,-0.06545967306136673,-0.029262887829522174,-0.3215424055962647,-0.07664975993274233,-0.013058961832819188
3048,8.0,299.09546,811.35139,0.0,0.0,0.0,-0.03091020591305213,0.0,0.0,-0.11637364849768488,-0.08155510125061183,-0.048701810327744455,-0.29534828957610676,-0.08266731548787883,-0.022962336587706182
3049,8.0,299.40238,683.93005,0.0,0.0,0.0,-0.030920347056724397,0.0,0.0,-0.05402142604174966,-0.07361740129222183,-0.08025882911942972,-0.26545185901555873,-0.054113366329323453,-0.02286137533449208
3050,8.0,301.00751,403.40125,0.0,0.0,0.0,-0.030930488200396657,0.0,0.0,0.006921764948275013,-0.06654670600714854,-0.06299896580926384,-0.26243644698296076,-0.06659941223760024,-0.013863505716971486
3051,8.0,300.0013,459.91034,0.0,0.0,0.0,-0.030940629344068916,0.0,0.0,0.007682363770290273,-0.055698225261236856,-0.09178539912376361,-0.2988511660993137,-0.055368452883690855,-0.00841752545517008
3052,8.0,299.98079,733.2880700000001,0.0,0.0,0.0,-0.03095077048774118,0.0,0.0,-0.09889923859809491,-0.05556749674658495,-0.06843452671896194,-0.29446474562140773,-0.06798859636320202,-0.015288097867317784
3053,8.0,300.29299,884.33865,0.0,0.0,0.0,-0.03096091163141344,0.0,0.0,-0.1024369303947379,-0.10017085430134359,-0.06620908398107785,-0.2931494861966017,-0.07029134907046602,-0.021482577022415277
3054,8.0,300.11415,816.20372,0.0,0.0,0.0,-0.030971052775085703,0.0,0.0,-0.10991102790237389,-0.08052177562638052,-0.057672745731106846,-0.3021704315718997,-0.08288388959075302,-0.022274229325545278
3055,8.0,300.46572000000003,600.97847,0.0,0.0,0.0,-0.030981193918757963,0.0,0.0,-0.014557405729954086,-0.07788986761088143,-0.09023517510676841,-0.3160627693204667,-0.08747393078225482,-0.011758351977958988
3056,8.0,299.62861000000004,542.23128,0.0,0.0,0.0,-0.030991335062430223,0.0,0.0,-0.00028395996640216676,-0.07516823325927703,-0.08937257503163641,-0.3012720131057327,-0.0921661065705865,-0.01157997031110409
3057,8.0,298.53775,765.0323099999999,0.0,0.0,0.0,-0.031001476206102482,0.0,0.0,-0.03181590723198557,-0.07338400521118743,-0.12735080491354586,-0.3088322976668747,-0.05288700136229065,-0.002974723454957347
3058,8.0,298.88372999999996,761.82183,0.0,0.0,0.0,-0.031011617349774746,0.0,0.0,-0.1029856661188939,-0.05173465228856265,-0.07685449826119843,-0.2876453394008847,-0.07055673852340792,0.02269525804684758
3059,8.0,299.5231,508.63175,0.0,0.0,0.0,-0.031021758493447005,0.0,0.0,-0.08448853324411902,-0.04050923946570066,-0.02961358078188287,-0.2954739021910037,-0.04771085882269516,0.0101297845778069
3060,8.0,298.9325,580.50035,0.0,0.0,0.0,-0.031031899637119265,0.0,0.0,-0.10176962414387991,-0.03261667068001477,-0.04207131141611516,-0.28905602672010877,-0.06792854102977504,0.011890210266472388
3061,8.0,299.92507,793.2237299999999,0.0,0.0,0.0,-0.031042040780791525,0.0,0.0,-0.06539308327804484,-0.07669410786311913,-0.09903301598229772,-0.2878756106186107,-0.08362315990346332,4.7388206553601853e-05
3062,8.0,299.77943999999997,848.54704,0.0,0.0,0.0,-0.03105218192446379,0.0,0.0,-0.03439658734892887,-0.0978055536654066,-0.12573497497907588,-0.2821594007094647,-0.0889002809215246,-0.015719431342137085
3063,8.0,300.46781,772.57079,0.0,0.0,0.0,-0.031062323068136048,0.0,0.0,-0.04267827051751736,-0.07279142108895394,-0.11937253442115188,-0.3213649956362557,-0.08330226258354322,-0.0022019451640900678
3064,8.0,300.10509,593.02183,0.0,0.0,0.0,-0.03107246421180831,0.0,0.0,-0.06459581148986024,-0.08131666222382972,-0.03435135586446487,-0.29429338476449574,-0.0877239279529276,-0.025102575124681274
3065,8.0,299.64769,351.46792999999997,0.0,0.0,0.0,-0.03108260535548057,0.0,0.0,-0.042099680392414955,-0.045166247369561555,-0.019571546803811284,-0.30633676399558474,-0.07379655201590264,-0.03231141084888797
3066,8.0,300.28387000000004,570.16067,0.0,0.0,0.0,-0.03109274649915283,0.0,0.0,-0.04618140136649945,-0.09023576076532623,-0.03689744463624427,-0.2753712633870277,-0.054178536549255245,-0.02830087981357937
3067,8.0,299.66477000000003,744.7335400000001,0.0,0.0,0.0,-0.031102887642825094,0.0,0.0,-0.0016175973466194284,-0.1059366759751359,-0.1188261190397249,-0.2943659334716557,-0.07329298394145434,-0.014936418009359685
3068,8.0,298.75612,540.23831,0.0,0.0,0.0,-0.031113028786497354,0.0,0.0,-0.0053479341291250045,-0.06182442149209534,-0.0970466019827539,-0.3055642317218417,-0.08205937252062952,-0.008150895480130753
3069,8.0,299.01166,436.81362,0.0,0.0,0.0,-0.031123169930169618,0.0,0.0,0.0062259740079557944,-0.07202528748959243,-0.06698112077552193,-0.3176523966073507,-0.06564890258379223,-0.026845382521932977
3070,8.0,299.77317999999997,888.8911699999999,0.0,0.0,0.0,-0.031133311073841877,0.0,0.0,-0.12867311655904787,-0.06431868860076034,-0.07720891592092673,-0.3015925446423667,-0.08236815744885423,0.036697407788252166
3071,8.0,300.21012,1125.4631,0.0,0.0,0.0,-0.031143452217514137,0.0,0.0,-0.13251958619116488,-0.10265804183155991,-0.1069350616961689,-0.29535541272430965,-0.043714008690236755,0.004787161905706095
3072,8.0,300.3457,1005.5475,0.0,0.0,0.0,-0.0311535933611864,0.0,0.0,-0.14106187221922287,-0.08295039527431662,-0.08164905182638402,-0.29965707483135073,-0.06994105635189483,0.01949438578219608
3073,8.0,300.4049,838.45215,0.0,0.0,0.0,-0.03116373450485866,0.0,0.0,-0.043336739201003165,-0.06965185450835283,-0.14187991968745786,-0.26465828153723875,-0.07150362783460863,-0.016113201609249186
3074,8.0,300.19991,695.61808,0.0,0.0,0.0,-0.031173875648530924,0.0,0.0,-0.05038428374779166,-0.06907966305763193,-0.09198657993111861,-0.3059159308315517,-0.07749794855170201,0.01126435810370559
3075,8.0,300.2611,752.90201,0.0,0.0,0.0,-0.031184016792203183,0.0,0.0,-0.05576165167774655,-0.06856190340228302,-0.10453984991727991,-0.2851783895149157,-0.06697994743190613,-0.0004808688404080595
3076,8.0,299.63176,781.6306400000001,0.0,0.0,0.0,-0.031194157935875443,0.0,0.0,-0.12187417799054488,-0.062176109456054236,-0.053545907769819656,-0.3299475380907867,-0.11538920509802789,0.021288458568257278
3077,8.0,300.14442,657.49648,0.0,0.0,0.0,-0.03120429907954771,0.0,0.0,-0.07488609883518253,-0.07799002333026603,-0.04698639108069576,-0.3077210054871987,-0.07040529309721143,0.0008195512428409101
3078,8.0,299.99958,443.06924000000004,0.0,0.0,0.0,-0.03121444022321997,0.0,0.0,-0.041453465955638556,-0.06415953436780303,-0.02906898621088557,-0.3445891641558027,-0.06388102737906654,0.006762289819011044
3079,8.0,300.44889,792.72853,0.0,0.0,0.0,-0.031224581366892233,0.0,0.0,-0.03915912221095447,-0.0940493980544529,-0.1077611645026989,-0.3021138010238107,-0.034759248811470765,-0.003890692527431457
3080,8.0,299.36601,1075.489,0.0,0.0,0.0,-0.031234722510564493,0.0,0.0,-0.07674035259768314,-0.12743401301175789,-0.12274742732422789,-0.33193318404675465,-0.055137783458675545,-0.01968683338693918
3081,8.0,298.59364,644.56309,0.0,0.0,0.0,-0.031244863654236753,0.0,0.0,-0.036655573731373466,-0.07981696898932152,-0.07945854088569743,-0.28619637149288274,-0.06960840229106444,-0.017244217715371785
3082,8.0,299.22401,503.11758,0.0,0.0,0.0,-0.03125500479790901,0.0,0.0,-0.07681264799231813,-0.06449081648799804,-0.01163171699371109,-0.28632448683552675,-0.07815186064948812,-0.02287199419554008
3083,8.0,300.67163,631.6603700000001,0.0,0.0,0.0,-0.03126514594158127,0.0,0.0,-0.07006257239663753,-0.07327148784058284,-0.04867491968334055,-0.26676543644519873,-0.08209936448882642,-0.007532993784273603
3084,8.0,300.0556,568.20145,0.0,0.0,0.0,-0.03127528708525353,0.0,0.0,-0.058260187609082845,-0.07664948635521533,-0.03780937985874526,-0.2892488178166357,-0.09993767201608031,-0.03234739034668887
3085,8.0,300.46459,570.60319,0.0,0.0,0.0,-0.03128542822892579,0.0,0.0,0.005829055370132974,-0.08272052226387992,-0.0965576551072486,-0.3136663517739587,-0.06914859952818543,-0.04434414791417666
3086,8.0,299.81197000000003,492.86105,0.0,0.0,0.0,-0.03129556937259806,0.0,0.0,-0.034340803877923466,-0.03834218019857857,-0.07713446838307933,-0.33008107432146566,-0.05758475711892304,0.0015494241573662587
3087,8.0,300.65851000000004,405.35893,0.0,0.0,0.0,-0.03130571051627032,0.0,0.0,-0.02001855728417778,-0.08022254463334873,-0.02297788896349108,-0.3257198939035507,-0.06397573586591354,-0.01125686410596599
3088,8.0,301.36191,672.22189,0.0,0.0,0.0,-0.03131585165994258,0.0,0.0,-0.10872462349278489,-0.08383432730380393,-0.011779718382817687,-0.3193422444616257,-0.0884921944437496,0.005731670585796844
3089,8.0,300.99168,1075.1207,0.0,0.0,0.0,-0.03132599280361484,0.0,0.0,-0.1073655713986569,-0.1134285661545279,-0.1060157094829359,-0.3119294587175407,-0.07599959584707613,-0.01025539405162859
3090,8.0,300.73877000000005,1053.4158,0.0,0.0,0.0,-0.0313361339472871,0.0,0.0,-0.1197298874664199,-0.08974251264314642,-0.11073970436415789,-0.27642145658567374,-0.07514096163283553,0.03954408429494726
3091,8.0,300.36901,677.6712,0.0,0.0,0.0,-0.03134627509095936,0.0,0.0,-0.02919565463238677,-0.055874361565870154,-0.12092510715187887,-0.28339075289348975,-0.04811981872205636,-0.0009312675176514481
3092,8.0,300.35774,537.44796,0.0,0.0,0.0,-0.03135641623463162,0.0,0.0,-0.05570023656268536,-0.009275706138665922,-0.09839481635381231,-0.28930617790479674,-0.08322988916865051,0.00959896554721914
3093,8.0,300.99956000000003,735.60607,0.0,0.0,0.0,-0.03136655737830389,0.0,0.0,-0.05882606853818094,-0.06953733495555063,-0.0952424716762001,-0.3046046332146367,-0.08095961011384142,-0.018264932428858485
3094,8.0,300.20709,549.15483,0.0,0.0,0.0,-0.03137669852197615,0.0,0.0,-0.0865739904144376,-0.03135124390837687,-0.04900412058783016,-0.2878466924607567,-0.08590058338472752,0.015126152130334986
3095,8.0,299.75851,566.07015,0.0,0.0,0.0,-0.03138683966564841,0.0,0.0,-0.05828868425489525,-0.06453763877511903,-0.04924486678508996,-0.3123745186914647,-0.08499239212134602,-0.010528393012821491
3096,8.0,300.06146,665.71959,0.0,0.0,0.0,-0.03139698080932067,0.0,0.0,-0.055213502625398446,-0.08057949237857671,-0.06656913632461224,-0.3030662865153137,-0.0976932034810685,-0.011090473240794489
3097,8.0,299.6229,443.26614000000006,0.0,0.0,0.0,-0.031407121952992924,0.0,0.0,0.010246317357232792,-0.07769655975680342,-0.06729159783141364,-0.3205055872989387,-0.095313762939986,-0.03657065324049246
3098,8.0,299.70488,808.1093,0.0,0.0,0.0,-0.0314172630966652,0.0,0.0,-0.06128125459048894,-0.10019915133688631,-0.08416464278340352,-0.31003036458511474,-0.06973668583322502,-0.036993507838474965
3099,8.0,301.00428,992.40134,0.0,0.0,0.0,-0.03142740424033746,0.0,0.0,-0.10696961352457891,-0.09172321292537632,-0.10297240267508491,-0.3091865501668367,-0.07295264944486593,0.011411714052498488
3100,8.0,299.99773,571.9705700000001,0.0,0.0,0.0,-0.03143754538400972,0.0,0.0,-0.07564995971456973,-0.07612511625621401,-0.022089696217333275,-0.3103213092188287,-0.07721614850014052,-0.026108691943977275
3101,8.0,301.82844,343.31543999999997,0.0,0.0,0.0,-0.03144768652768198,0.0,0.0,-0.003880603798835777,-0.06286396441894024,-0.037614753766287166,-0.2915517934389217,-0.07573503117971564,-0.015479709540728385
3102,8.0,301.8786,617.6245,0.0,0.0,0.0,-0.03145782767135424,0.0,0.0,-0.035887709500841164,-0.05888483096448035,-0.09296988545091331,-0.2762459211383497,-0.054527074318653244,-0.007119401812080253
3103,8.0,300.99779,760.2449799999999,0.0,0.0,0.0,-0.031467968815026504,0.0,0.0,-0.02172647341423598,-0.08877362060602423,-0.12059539556933889,-0.28435183074584075,-0.047862111731372656,-0.017965423805299283
3104,8.0,300.09491,616.7522799999999,0.0,0.0,0.0,-0.03147810995869876,0.0,0.0,-0.04879436565812895,-0.04743104980758016,-0.0912518773498591,-0.3244954014227027,-0.06486560351448664,-0.03822314256358046
3105,8.0,300.24679,639.94598,0.0,0.0,0.0,-0.03148825110237102,0.0,0.0,-0.041690367882018964,-0.07465257812438583,-0.07818465246247443,-0.30143817598963174,-0.06016155344823304,-0.016318363476247086
3106,8.0,299.17888999999997,722.42976,0.0,0.0,0.0,-0.03149839224604328,0.0,0.0,-0.09471546307393841,-0.07790970907433964,-0.046975434807364456,-0.3036161773445837,-0.052908957478707545,-0.005789399091694204
3107,8.0,300.49601,958.8581300000001,0.0,0.0,0.0,-0.03150853338971554,0.0,0.0,-0.1018472492340409,-0.07537157431584522,-0.11425009920310689,-0.28224830327323874,-0.060091169043286645,0.024354737782375478
3108,8.0,298.97597,1014.7436,0.0,0.0,0.0,-0.0315186745333878,0.0,0.0,-0.1124208281350719,-0.08488636664413213,-0.11114950323460189,-0.3178978564440757,-0.08802225715337042,0.023695640883827678
3109,8.0,300.05082000000004,860.14678,0.0,0.0,0.0,-0.03152881567706007,0.0,0.0,-0.06445246699821323,-0.06828521519747603,-0.12872546105921387,-0.3076626828114427,-0.08472357889631621,0.025583883107682677
3110,8.0,301.2694,613.09869,0.0,0.0,0.0,-0.03153895682073233,0.0,0.0,-0.07514056038579593,-0.04714829628767455,-0.06407783499898993,-0.3183128431550317,-0.08806990422607282,0.014635605332921787
3111,8.0,301.31793,899.54769,0.0,0.0,0.0,-0.03154909796440459,0.0,0.0,-0.08973354943276182,-0.1015993575970759,-0.08210713105084293,-0.29644030973888075,-0.07443644377205502,0.008274784860582682
3112,8.0,300.46885,1049.7539,0.0,0.0,0.0,-0.03155923910807685,0.0,0.0,-0.14734034474135985,-0.07962213416734283,-0.09213650142916471,-0.3272579670253467,-0.06664577349592574,-0.005216371405665775
3113,8.0,301.17147,577.80747,0.0,0.0,0.0,-0.03156938025174911,0.0,0.0,-0.023171513964850378,-0.09546968186537401,-0.05699784821049965,-0.2897029767764577,-0.07900126922156822,-0.026992975571249272
3114,8.0,300.74464,261.6065,0.0,0.0,0.0,-0.03157952139542137,0.0,0.0,0.024792744522353374,-0.058637366919057535,-0.04567722027574066,-0.29802702899797767,-0.06572030530508914,-0.028113773050113373
3115,8.0,300.69862,608.73435,0.0,0.0,0.0,-0.03158966253909363,0.0,0.0,-0.004458954391614535,-0.07911628830666972,-0.1014647979837959,-0.2958655132221527,-0.1085599906165369,-0.017813445409550183
3116,8.0,300.11567,807.69397,0.0,0.0,0.0,-0.03159980368276589,0.0,0.0,-0.0930374266760791,-0.10546845310392589,-0.047012916955063655,-0.2930054729598887,-0.09126249317115681,-0.04065000219609286
3117,8.0,299.33464,636.8331599999999,0.0,0.0,0.0,-0.03160994482643815,0.0,0.0,-0.07315150281674122,-0.06778863449571734,-0.052641241603536046,-0.31536096190370366,-0.061550415360303035,-0.022797309557169274
3118,8.0,299.11253,621.30017,0.0,0.0,0.0,-0.031620085970110415,0.0,0.0,-0.07976472986716591,-0.08755944605094451,-0.02153556189664448,-0.30615033610968573,-0.02267393825149348,0.0023010172124927177
3119,8.0,300.15322000000003,615.75978,0.0,0.0,0.0,-0.031630227113782675,0.0,0.0,-0.01930117114712728,-0.09207871476271161,-0.07579571270170442,-0.3193310987105257,-0.04184009888904626,0.005494767848816365
3120,8.0,299.38822000000005,756.21348,0.0,0.0,0.0,-0.031640368257454934,0.0,0.0,-0.03997505806598106,-0.08224638809158652,-0.1076485721515869,-0.3199051150246767,-0.051974846264517954,0.014309076368945885
3121,8.0,300.21612000000005,1018.9739,0.0,0.0,0.0,-0.031650509401127194,0.0,0.0,-0.06325153258219024,-0.12427055500704888,-0.12222052713972689,-0.2969845365000917,-0.08000448611907802,-0.011250490762836988
3122,8.0,300.2265,814.4021299999999,0.0,0.0,0.0,-0.031660650544799454,0.0,0.0,-0.1025734354482099,-0.07194551430921943,-0.07303896011488413,-0.28862964094552773,-0.08999393545670992,0.007281865015889123
3123,8.0,300.4202,579.94295,0.0,0.0,0.0,-0.03167079168847173,0.0,0.0,-0.06852178173807333,-0.07934171314916742,-0.028424681750547676,-0.29450859908573573,-0.09467899620283941,-0.035874223142010164
3124,8.0,300.11797,724.77827,0.0,0.0,0.0,-0.03168093283214399,0.0,0.0,-0.10727823937253789,-0.07466756510661493,-0.038368695940445466,-0.29593172911618776,-0.0998509996157764,-0.0008716548022656312
3125,8.0,301.56954,782.04921,0.0,0.0,0.0,-0.03169107397581625,0.0,0.0,-0.08031476660445032,-0.049550341425237954,-0.1078583250547879,-0.28954734156109774,-0.07276188484853893,-0.00981295049211281
3126,8.0,299.92629,553.96099,0.0,0.0,0.0,-0.03170121511948851,0.0,0.0,-0.035856498358010865,-0.05406365222641704,-0.07847015796965162,-0.2852003263795807,-0.04216079457219646,0.02768940262998127
3127,8.0,299.23212,609.92634,0.0,0.0,0.0,-0.03171135626316076,0.0,0.0,-0.02997719267301857,-0.05775923675964285,-0.0976659480666286,-0.3125450486832947,-0.07212986097941303,-0.0036847189457784465
3128,8.0,298.77359,930.0665,0.0,0.0,0.0,-0.031721497406833034,0.0,0.0,-0.1130324258954319,-0.08297187313668633,-0.08671269422062661,-0.3318004482836547,-0.0972083541889676,0.034726648502753366
3129,8.0,300.02971,1002.4775,0.0,0.0,0.0,-0.031731638550505294,0.0,0.0,-0.10018929646641371,-0.12743163187402287,-0.07710719675663782,-0.3346336475507697,-0.07780215764247513,-0.009287914586470802
3130,8.0,299.78357,855.3918800000001,0.0,0.0,0.0,-0.03174177969417755,0.0,0.0,-0.1069409892092539,-0.07478738091768984,-0.07828940529756273,-0.30368422722129973,-0.04709987509189575,0.026112912130643776
3131,8.0,300.28346,750.57754,0.0,0.0,0.0,-0.03175192083784981,0.0,0.0,-0.03213959706918127,-0.09981354786558022,-0.09620368429081441,-0.3005313374151337,-0.05319172822386485,-0.009673857597885412
3132,8.0,299.55077,457.94005999999996,0.0,0.0,0.0,-0.03176206198152207,0.0,0.0,0.013876968771050185,-0.07519967643638022,-0.07787963682462172,-0.2987640772532187,-0.060907479800850234,-0.019779250915310083
3133,8.0,300.5391,457.91187,0.0,0.0,0.0,-0.03177220312519434,0.0,0.0,0.015014249802541086,-0.06304903758945554,-0.0911589866336915,-0.2826213920925597,-0.07798962512297672,-0.03844866974433826
3134,8.0,300.69178999999997,642.6433900000001,0.0,0.0,0.0,-0.0317823442688666,0.0,0.0,-0.06735225402214993,-0.08207670213708983,-0.04591858860856186,-0.27407345212894374,-0.061094270430285036,-0.03799547438536136
3135,8.0,299.30096000000003,396.60876,0.0,0.0,0.0,-0.03179248541253886,0.0,0.0,-0.056007503642260245,-0.041166546964571865,-0.023385110125680682,-0.2864563917335447,-0.0948042815379541,-0.02325381317772268
3136,8.0,299.77684,302.25801,0.0,0.0,0.0,-0.03180262655621112,0.0,0.0,-0.06012357683448504,-0.04469144242570196,0.012936131602696788,-0.3185171042426907,-0.08709528428613532,-0.029225854551617268
3137,8.0,301.04117,796.1695,0.0,0.0,0.0,-0.03181276769988338,0.0,0.0,-0.06472368466573034,-0.08347159390050493,-0.0938203690813495,-0.3163424770105717,-0.06300535637764454,-0.0035031230469563263
3138,8.0,299.60637,1059.78,0.0,0.0,0.0,-0.03182290884355564,0.0,0.0,-0.0978473704970336,-0.06386118794210854,-0.16043811202650884,-0.3060810804653507,-0.03305741724826307,0.04325654957483905
3139,8.0,299.63698,1131.0993,0.0,0.0,0.0,-0.0318330499872279,0.0,0.0,-0.08296665895167173,-0.12106701282838389,-0.13979226984392287,-0.28069124184456873,-0.05982938878720094,0.013596576123877586
3140,8.0,299.03819,966.25645,0.0,0.0,0.0,-0.03184319113090016,0.0,0.0,-0.10865366558828189,-0.07603519841583983,-0.1090289734253219,-0.32058402298917965,-0.06964814702623694,0.023757674081449878
3141,8.0,298.3959,697.91025,0.0,0.0,0.0,-0.03185333227457242,0.0,0.0,-0.07396690468896513,-0.07684907332016302,-0.06133131117192914,-0.3183071385569687,-0.08067462744371583,-0.0026387245542218375
3142,8.0,300.00989,423.67298,0.0,0.0,0.0,-0.031863473418244685,0.0,0.0,-0.06193283722629514,-0.025920610433915078,-0.04093256015872917,-0.3166225190732097,-0.08765685484930802,-0.007026246333661524
3143,8.0,300.10022000000004,416.33709,0.0,0.0,0.0,-0.031873614561916945,0.0,0.0,-0.01067647444868599,-0.03917024263080196,-0.07670936234337462,-0.3243473047880867,-0.10213887274532191,-0.03255589188601637
3144,8.0,299.00315,390.9129,0.0,0.0,0.0,-0.031883755705589205,0.0,0.0,-0.011527171874893289,-0.051212648128544855,-0.05608794151469885,-0.3178406179459267,-0.1031171961143749,-0.035970852751046764
3145,8.0,299.92397,189.32986,0.0,0.0,0.0,-0.031893896849261465,0.0,0.0,0.016032606683045084,-0.04061323236321396,-0.03297092216672667,-0.33527548069411367,-0.07115542646424383,-0.044647152250580864
3146,8.0,300.08468999999997,445.87612,0.0,0.0,0.0,-0.031904037992933724,0.0,0.0,-0.05962835591436054,-0.06229282776157344,-0.013614023277349487,-0.28544114553084776,-0.04136783416318736,-0.015687016458187986
3147,8.0,299.62031,1084.3084,0.0,0.0,0.0,-0.031914179136605984,0.0,0.0,-0.11371597454539288,-0.12883448676997386,-0.08705221203763443,-0.3042535116574837,-0.09306269510707292,-0.016843532016327184
3148,8.0,299.95723,1094.5689,0.0,0.0,0.0,-0.03192432028027826,0.0,0.0,-0.13635375496706786,-0.08933574947000202,-0.1070321209232479,-0.3004326265903917,-0.09431966022712572,-0.001967509995078118
3149,8.0,299.96731,661.5563099999999,0.0,0.0,0.0,-0.03193446142395051,0.0,0.0,-0.013608501064304487,-0.08459482520610923,-0.1028932678422749,-0.3266379592891567,-0.08000291254167272,-0.0012689013075558087
3150,8.0,301.26072,678.73901,0.0,0.0,0.0,-0.03194460256762277,0.0,0.0,-0.03296369262726317,-0.06872790517941613,-0.1046281141334909,-0.2909466399491977,-0.049922377477705046,0.016819522041957587
3151,8.0,300.64887000000004,834.4776400000001,0.0,0.0,0.0,-0.03195474371129503,0.0,0.0,-0.06845085828407373,-0.07782080549731553,-0.10738870389843991,-0.3260856163946447,-0.08305366876425892,0.011937022421092387
3152,8.0,299.93405,730.4432400000001,0.0,0.0,0.0,-0.03196488485496729,0.0,0.0,-0.09055261927034772,-0.08856691150612361,-0.042916974002575554,-0.3194505203673117,-0.07469619651469063,-0.01358216770745559
3153,8.0,299.29086,418.18281,0.0,0.0,0.0,-0.031975025998639564,0.0,0.0,-0.05732767834330135,-0.05029849794132525,-0.01949095593060758,-0.29671620760860973,-0.06139496354321114,-0.015801018240189087
3154,8.0,299.81341000000003,331.77981,0.0,0.0,0.0,-0.031985167142311824,0.0,0.0,-0.04128873074113046,-0.033238582313142674,-0.026325463630620972,-0.3006744285942557,-0.055224958431029036,0.012248930186125289
3155,8.0,298.9131,506.64707999999996,0.0,0.0,0.0,-0.031995308285984084,0.0,0.0,-0.02359413855506018,-0.07289584563100984,-0.05751807918284245,-0.29468575573321976,-0.08941638999246061,-0.02197859131736808
3156,8.0,300.3119,967.62587,0.0,0.0,0.0,-0.032005449429656344,0.0,0.0,-0.09043432333442282,-0.07397993812500142,-0.12971984444235188,-0.3177205275440747,-0.1001859770590861,-0.007288404430709513
3157,8.0,299.48464,966.40808,0.0,0.0,0.0,-0.0320155905733286,0.0,0.0,-0.10167165299171091,-0.08840602562874542,-0.1036862475030359,-0.3006929102760797,-0.05349986163227525,-0.006348463786044594
3158,8.0,300.65366,560.98646,0.0,0.0,0.0,-0.03202573171700087,0.0,0.0,-0.08583200965770982,-0.04350844861594955,-0.04118541773443426,-0.32622777538367465,-0.05115741991859425,0.01153695987085929
3159,8.0,300.55728,552.72217,0.0,0.0,0.0,-0.03203587286067313,0.0,0.0,-0.07699682240999473,-0.048685144390099654,-0.04233177039407046,-0.3368347307429997,-0.07400360663408732,0.0005556068162641235
3160,8.0,300.96981,849.9554800000001,0.0,0.0,0.0,-0.03204601400434539,0.0,0.0,-0.07642324888613743,-0.09623551858245621,-0.08570647404982042,-0.3435692570026457,-0.0949365045965035,0.007521766567865562
3161,8.0,298.94029,808.6254799999999,0.0,0.0,0.0,-0.03205615514801765,0.0,0.0,-0.03123146964055607,-0.09399396618123222,-0.12057651871997588,-0.3147377117671937,-0.07696490604509483,-0.005137082356190555
3162,8.0,300.17097,571.35242,0.0,0.0,0.0,-0.03206629629168991,0.0,0.0,-0.009981618332909031,-0.08862713909206761,-0.07506811097714572,-0.2956403386524297,-0.06956351328513423,-0.014169198205890987
3163,8.0,300.35676,289.10884,0.0,0.0,0.0,-0.03207643743536217,0.0,0.0,-0.006585922594679954,-0.060244587267427846,-0.02105135905810738,-0.3223522862686937,-0.09400942533800791,-0.03472692613328077
3164,8.0,300.48208,521.7157900000001,0.0,0.0,0.0,-0.03208657857903443,0.0,0.0,-0.061342860196568934,-0.08125413253365851,-0.015991580186496084,-0.3143202020634887,-0.09316848348376341,-0.04509434511596536
3165,8.0,300.77283,816.1454,0.0,0.0,0.0,-0.032096719722706696,0.0,0.0,-0.10567510546182089,-0.0972232317401859,-0.04518948727385516,-0.2951394283329937,-0.055233665289138346,-0.04044604407021376
3166,8.0,300.19657,869.7469699999999,0.0,0.0,0.0,-0.032106860866378956,0.0,0.0,-0.06445975429293244,-0.09082566382779511,-0.10909593912443089,-0.2958056909362487,-0.043500991095213555,-0.0024498879701851176
3167,8.0,299.25172000000003,756.95902,0.0,0.0,0.0,-0.032117002010051215,0.0,0.0,-0.04157349860223486,-0.06886143431734444,-0.11966170586719088,-0.3071976314130457,-0.0904350305829926,0.012041118670115886
3168,8.0,299.74307999999996,645.48555,0.0,0.0,0.0,-0.032127143153723475,0.0,0.0,-0.04564714903927286,-0.07438879872585283,-0.07617554166069063,-0.3264100692091657,-0.1096267707193199,-0.002210477844507178
3169,8.0,299.11422000000005,734.64517,0.0,0.0,0.0,-0.032137284297395735,0.0,0.0,-0.07686202366969112,-0.07703082303035033,-0.06942094190331353,-0.29364140898765073,-0.06438072990438334,0.02126040471273858
3170,8.0,299.56495,879.62639,0.0,0.0,0.0,-0.032147425441067995,0.0,0.0,-0.13225974833552087,-0.07765019039247713,-0.05747452057429354,-0.2958177992749437,-0.04326343764901886,0.007402245207269723
3171,8.0,299.20718,734.67833,0.0,0.0,0.0,-0.032157566584740255,0.0,0.0,-0.0895396214696226,-0.08020272546139272,-0.053581518444584156,-0.3027181540459557,-0.05303680532332516,0.01987974506022808
3172,8.0,299.80467000000004,576.35983,0.0,0.0,0.0,-0.032167707728412515,0.0,0.0,-0.04290498421414226,-0.06540799224001623,-0.06688602016088623,-0.3235903968308857,-0.08669600295172933,-0.01139501873060079
3173,8.0,299.79143999999997,679.3645799999999,0.0,0.0,0.0,-0.03217784887208478,0.0,0.0,-0.020787373969804082,-0.07401632900234292,-0.11170616257453989,-0.3206376948469767,-0.08611665694205232,0.020641502432407678
3174,8.0,300.87312000000003,896.3057,0.0,0.0,0.0,-0.03218799001575704,0.0,0.0,-0.06898678956671603,-0.09150862276619792,-0.1119591407270069,-0.2961676542694717,-0.09237530623923292,-0.013312769837118087
3175,8.0,300.57827000000003,919.20726,0.0,0.0,0.0,-0.0321981311594293,0.0,0.0,-0.08762882531179172,-0.08338660146886683,-0.10840062664080889,-0.31197041428658273,-0.0980561425741378,0.0003273804993599397
3176,8.0,301.40092000000004,727.0516700000001,0.0,0.0,0.0,-0.03220827230310156,0.0,0.0,-0.1142542028660119,-0.08192325148894541,-0.024828100871342774,-0.2896864911973307,-0.0977679853914489,-0.018496288837441584
3177,8.0,299.23284,459.39842000000004,0.0,0.0,0.0,-0.03221841344677382,0.0,0.0,-0.03943969420339476,-0.05105621751185636,-0.04914973678620136,-0.3217373954455087,-0.05712575077062265,0.00014987717848672586
3178,8.0,300.7913,622.3231900000001,0.0,0.0,0.0,-0.032228554590446094,0.0,0.0,-0.04116000947492666,-0.06869032474645723,-0.07932037714181173,-0.28070514363594073,-0.04062902791902286,-0.012462762434228886
3179,8.0,299.7316,861.07035,0.0,0.0,0.0,-0.032238695734118354,0.0,0.0,-0.03789455062240096,-0.08298161249664751,-0.14086772336756187,-0.32898890217117666,-0.056179158341701244,0.014137242324237187
3180,8.0,300.94993999999997,748.3102200000001,0.0,0.0,0.0,-0.03224883687779061,0.0,0.0,-0.034382584232546864,-0.1030585795960899,-0.09002645774516961,-0.31321295275171174,-0.10131728295473731,-0.026389615534202274
3181,8.0,299.74967999999996,490.84002000000004,0.0,0.0,0.0,-0.03225897802146287,0.0,0.0,-0.03124500463539187,-0.08307830898019072,-0.034879796189117865,-0.3380312372560857,-0.08836313069901201,-0.02024614845538928
3182,8.0,300.02569,728.85783,0.0,0.0,0.0,-0.03226911916513513,0.0,0.0,-0.09148351848172032,-0.07995490779168501,-0.050116154466579355,-0.31311464722700966,-0.07857079092983332,-0.032880705417572965
3183,8.0,299.70766000000003,1037.3106,0.0,0.0,0.0,-0.0322792603088074,0.0,0.0,-0.09510021338866032,-0.11522041789636989,-0.10499589352228791,-0.3378770712533707,-0.07207186963643973,-0.0030551510935699373
3184,8.0,300.67322,832.86774,0.0,0.0,0.0,-0.03228940145247966,0.0,0.0,-0.06831873452403414,-0.08331620287841901,-0.1015360598633289,-0.3258660450979747,-0.07484196267407663,-0.028362105450871873
3185,8.0,299.96483,483.90097000000003,0.0,0.0,0.0,-0.03229954259615192,0.0,0.0,-0.01841612352927988,-0.033227677715566464,-0.0954500096146825,-0.2928375470208157,-0.06597817542903894,0.017698169972173383
3186,8.0,301.4094,405.6066,0.0,0.0,0.0,-0.03230968373982418,0.0,0.0,-0.027009028492583572,-0.02606923193208287,-0.07021601899178154,-0.2813360640757077,-0.07328923491608433,0.0067627324066547225
3187,8.0,301.00007999999997,737.82161,0.0,0.0,0.0,-0.03231982488349644,0.0,0.0,-0.1036914961385539,-0.055434920063750656,-0.06515292375259295,-0.26502549350597976,-0.07591916000113773,0.01129729481145619
3188,8.0,301.2674,1100.7345,0.0,0.0,0.0,-0.032329966027168706,0.0,0.0,-0.1374272529180139,-0.09161131161083251,-0.1055572442101889,-0.2976868708069067,-0.09622097844352122,-0.006887057687299674
3189,8.0,301.57547,1013.8735,0.0,0.0,0.0,-0.032340107170840966,0.0,0.0,-0.13036674383619587,-0.08057661272179252,-0.09724885987496522,-0.3138274889373617,-0.06228171646097684,-0.004951744018124086
3190,8.0,300.3465,619.79613,0.0,0.0,0.0,-0.032350248314513226,0.0,0.0,-0.028904612726663174,-0.06917798986058603,-0.09031994664988473,-0.33491687121872166,-0.060587683883788844,-0.00044450524989175257
3191,8.0,300.63093,588.01886,0.0,0.0,0.0,-0.032360389458185486,0.0,0.0,-0.037406220816206565,-0.07136117095004924,-0.06997565884280983,-0.3477377375165427,-0.04564428255473996,-0.028111194328608872
3192,8.0,300.72966,1033.3811,0.0,0.0,0.0,-0.032370530601857746,0.0,0.0,-0.06935434300074073,-0.11472249666472889,-0.1300452193144639,-0.3542672731484577,-0.08083056460760563,-0.02165864949229228
3193,8.0,299.57791000000003,715.1394700000001,0.0,0.0,0.0,-0.032380671745530006,0.0,0.0,-0.09488865183403082,-0.07411108815169493,-0.04838480084845805,-0.3102552554448097,-0.07478873765957374,-0.03785085117208817
3194,8.0,299.42947000000004,33.510954999999996,0.0,0.0,0.0,-0.032390812889202265,0.0,0.0,0.013147897833846487,-0.027711141910876768,0.004376750120276606,-0.2869252022898127,-0.07579778479815893,-0.00973174822379877
3195,8.0,300.81999,165.54686999999998,0.0,0.0,0.0,-0.032400954032874525,0.0,0.0,-0.010495252641800791,-0.03060947796067027,-0.0092173852867601,-0.2962414087442507,-0.07208775233175724,-0.03257325291322977
3196,8.0,300.31186,634.55871,0.0,0.0,0.0,-0.032411095176546785,0.0,0.0,-0.03080653484011827,-0.06120113589183184,-0.1008823311638109,-0.3163224855860987,-0.1094783498446719,0.015902115268916585
3197,8.0,299.35235,873.66622,0.0,0.0,0.0,-0.032421236320219045,0.0,0.0,-0.05274169825820035,-0.11482110616446088,-0.0980099110118251,-0.32777129979100866,-0.060469708134895536,-0.05315775293476175
3198,8.0,299.11214,802.28229,0.0,0.0,0.0,-0.03243137746389131,0.0,0.0,-0.06622946550683934,-0.07565942752350413,-0.1019848891276249,-0.3209388733067007,-0.06430386677829752,0.009703436496129621
3199,8.0,299.699,587.22277,0.0,0.0,0.0,-0.03244151860756357,0.0,0.0,-0.07574585167753353,-0.09453528086165582,-0.008219927500168683,-0.3385942192766477,-0.07240901644821353,-0.06578390904036635
3200,8.0,300.3945,672.21111,0.0,0.0,0.0,-0.03245165975123583,0.0,0.0,-0.06340102142244364,-0.09212989402526262,-0.04880447586762675,-0.3250621527336367,-0.098781672202242,-0.005026368266788925
3201,8.0,301.31999,815.40521,0.0,0.0,0.0,-0.03246180089490809,0.0,0.0,-0.07934446007018853,-0.08722681934786683,-0.08129154274060063,-0.3117003324724277,-0.07134234071019084,-0.022212669315719778
3202,8.0,300.80997,786.7712700000001,0.0,0.0,0.0,-0.03247194203858035,0.0,0.0,-0.05232589081466335,-0.08013510418946902,-0.1066978294502559,-0.2688293357063898,-0.07537466067564982,0.015262680488559286
3203,8.0,300.60998,371.82345,0.0,0.0,0.0,-0.03248208318225262,0.0,0.0,-0.006834527053090304,-0.030208299822077074,-0.07598221860786113,-0.29483159282011273,-0.06857402491322934,-0.0066116567154197135
3204,8.0,300.87349,397.75626,0.0,0.0,0.0,-0.03249222432592488,0.0,0.0,-0.026672780433648475,-0.04201775304232936,-0.05221743657695974,-0.3048696487782917,-0.07653135861880703,-0.00963080865413681
3205,8.0,300.75137,903.4269,0.0,0.0,0.0,-0.03250236546959714,0.0,0.0,-0.09356564003270972,-0.11071624762434289,-0.07033732833350383,-0.33766741967517966,-0.07532937548893053,-0.00047609523680194156
3206,8.0,299.59145,974.4392300000001,0.0,0.0,0.0,-0.0325125066132694,0.0,0.0,-0.1058731654588679,-0.08424023630711401,-0.10609179443294489,-0.32907271821944867,-0.07059108972829814,0.013356411532175188
3207,8.0,299.45945,756.95246,0.0,0.0,0.0,-0.03252264775694166,0.0,0.0,-0.062373335548268946,-0.1001912054296021,-0.06753010474595243,-0.32790649775185166,-0.07047773642636103,-0.0018570043312220582
3208,8.0,299.13068,768.9426900000001,0.0,0.0,0.0,-0.03253278890061393,0.0,0.0,-0.060980886730844945,-0.07875853502761222,-0.09399995651582341,-0.3168091901391327,-0.08977505215685781,0.0057152520838264645
3209,8.0,300.12782999999996,805.35048,0.0,0.0,0.0,-0.03254293004428619,0.0,0.0,-0.052999966589439444,-0.09953442786053321,-0.0922720428817916,-0.3038732084974507,-0.06589126086196113,-0.01916335697452608
3210,8.0,299.57032000000004,842.30162,0.0,0.0,0.0,-0.03255307118795844,0.0,0.0,-0.10467127858775091,-0.08828681574123032,-0.06308056283981683,-0.27436878413559074,-0.06408222338517303,-0.01725917936634838
3211,8.0,300.41823,894.60535,0.0,0.0,0.0,-0.0325632123316307,0.0,0.0,-0.09206087041520052,-0.09834466655336291,-0.08153215012259672,-0.2935508750912157,-0.05823855877244824,-0.022018220542029183
3212,8.0,299.19376,586.71182,0.0,0.0,0.0,-0.03257335347530296,0.0,0.0,-0.05524823582557635,-0.08114055732994951,-0.04195695094357866,-0.3191026108129757,-0.08642419861240433,-0.01023489194910519
3213,8.0,299.39216,407.34367000000003,0.0,0.0,0.0,-0.03258349461897524,0.0,0.0,0.0007616343737499602,-0.07382536580899633,-0.05075857225523105,-0.34978955883654167,-0.08413289968427072,-0.028539214475601173
3214,8.0,299.49722,470.92225,0.0,0.0,0.0,-0.032593635762647497,0.0,0.0,-0.011440448812084388,-0.046247708453043455,-0.08546044881953961,-0.3337102018071327,-0.1037042732223149,0.004222067056035577
3215,8.0,300.12609,728.6397,0.0,0.0,0.0,-0.032603776906319756,0.0,0.0,-0.034746712881233564,-0.10497266982999591,-0.08176889398196151,-0.3327268324525817,-0.09106349186476692,-0.02465587165909508
3216,8.0,299.93359,665.95506,0.0,0.0,0.0,-0.032613918049992016,0.0,0.0,-0.08650314092769533,-0.04916849103230225,-0.06676207839540414,-0.3171418604119647,-0.08061967686429262,-0.00937889988582535
3217,8.0,300.64256,708.19132,0.0,0.0,0.0,-0.032624059193664276,0.0,0.0,-0.07526337035091633,-0.07940861602677023,-0.06060049035180275,-0.3103112375128347,-0.04362081703878946,-0.012583404044135289
3218,8.0,300.98042000000004,989.2394800000001,0.0,0.0,0.0,-0.032634200337336536,0.0,0.0,-0.11056113929903488,-0.09758940310107422,-0.0925535531438245,-0.2898045348339807,-0.04095118673531746,0.005572134661526875
3219,8.0,301.61433,1073.6438,0.0,0.0,0.0,-0.032644341481008796,0.0,0.0,-0.10396856937839889,-0.07250035587847803,-0.14989197193818588,-0.2926448369842967,-0.06433547308866684,0.02982578068407537
3220,8.0,301.23071,873.75105,0.0,0.0,0.0,-0.032654482624681055,0.0,0.0,-0.06047683330959874,-0.0907725725623054,-0.1143490937378769,-0.3014014051435027,-0.07907804115514502,-0.006682907347876604
3221,8.0,300.96945,614.88853,0.0,0.0,0.0,-0.03266462376835332,0.0,0.0,-0.07022820332423403,-0.04895714327344385,-0.06772541174247773,-0.33645256320278266,-0.09562935285588232,0.023666244471926477
3222,8.0,300.93931000000003,393.19917000000004,0.0,0.0,0.0,-0.03267476491202558,0.0,0.0,-0.057115773296887946,-0.02055234959585898,-0.04185460660397806,-0.3324767420628997,-0.07910484972629084,-0.006749929383691164
3223,8.0,299.75007,511.85340999999994,0.0,0.0,0.0,-0.03268490605569784,0.0,0.0,-0.05294080696910085,-0.07253682376282714,-0.03011302391517407,-0.3274408789333987,-0.07956258039271533,-0.010909556422189388
3224,8.0,299.92129,835.91963,0.0,0.0,0.0,-0.0326950471993701,0.0,0.0,-0.07028217611731073,-0.05774253738474474,-0.1260739780650329,-0.31967588745455366,-0.09136610508663251,-0.01229280290220519
3225,8.0,299.7619,774.9685,0.0,0.0,0.0,-0.03270518834304236,0.0,0.0,-0.04299833798560555,-0.08731196984652051,-0.1052607672309289,-0.3187282756960317,-0.08994201145533541,-0.006463438693441733
3226,8.0,299.32038,578.39927,0.0,0.0,0.0,-0.03271532948671462,0.0,0.0,-0.003963689091135656,-0.06693576466129564,-0.1049194843322469,-0.3036557143634857,-0.059379749936075046,0.009057853820790572
3227,8.0,299.94759,841.54109,0.0,0.0,0.0,-0.03272547063038688,0.0,0.0,-0.08062791762735592,-0.08524556076483182,-0.0899339976602945,-0.2931430419259657,-0.07159151512178244,0.006010563521496434
3228,8.0,299.84373,1137.1083,0.0,0.0,0.0,-0.03273561177405915,0.0,0.0,-0.13927323248019788,-0.13257988470461587,-0.07379940634143432,-0.3093411113370907,-0.06538590440108634,0.0013828664099032888
3229,8.0,298.91222,938.1271800000001,0.0,0.0,0.0,-0.03274575291773141,0.0,0.0,-0.12449567891426688,-0.07256081144569453,-0.08811074935085392,-0.32610820173937366,-0.05414387630308454,-0.024315058908459475
3230,8.0,299.62183,612.6351400000001,0.0,0.0,0.0,-0.03275589406140367,0.0,0.0,-0.06554052636634634,-0.06311398388111523,-0.05757127379984235,-0.3298416838528397,-0.054748661983022244,0.004205841983509286
3231,8.0,299.48635,329.53884,0.0,0.0,0.0,-0.03276603520507593,0.0,0.0,0.020954385957286877,-0.06129502972559844,-0.05983093500685355,-0.3277837627672387,-0.08038116387025322,-0.04016300076077956
3232,8.0,299.03526,346.71652,0.0,0.0,0.0,-0.03277617634874819,0.0,0.0,0.012011744549716886,-0.04088668323395146,-0.07651822588426092,-0.3030978391234277,-0.08954726137537661,0.009251862438637732
3233,8.0,298.4599,645.05691,0.0,0.0,0.0,-0.032786317492420454,0.0,0.0,-0.04781482537570586,-0.08635832215715282,-0.061908046036098445,-0.3071626742845957,-0.0981993219060185,-0.04343192087564686
3234,8.0,299.09168999999997,679.4288700000001,0.0,0.0,0.0,-0.032796458636092714,0.0,0.0,-0.08728230492334282,-0.06249405213868274,-0.05675305306584024,-0.3124201149459647,-0.07302240563475033,-0.0009080848113259932
3235,8.0,299.38216,544.19214,0.0,0.0,0.0,-0.032806599779764974,0.0,0.0,-0.055605290975314955,-0.06978313929730963,-0.04003239282288956,-0.3209626340215457,-0.08426958914926092,-0.03160486040840687
3236,8.0,300.05779,814.43384,0.0,0.0,0.0,-0.03281674092343723,0.0,0.0,-0.05578898207269386,-0.1057847796526449,-0.08599378314217561,-0.3224169822875787,-0.06904304825201833,-0.0050141302320811255
3237,8.0,299.78369,1045.6482,0.0,0.0,0.0,-0.03282688206710949,0.0,0.0,-0.0982700406834979,-0.06326964645422795,-0.15631125582671984,-0.3185687394677867,-0.07996194278712933,0.018068140007686584
3238,8.0,300.53434,873.43799,0.0,0.0,0.0,-0.03283702321078177,0.0,0.0,-0.052646318999787146,-0.08129513065920473,-0.13156189259414788,-0.3194017931700027,-0.07507767099183923,0.018680506824872482
3239,8.0,300.69266,450.62541,0.0,0.0,0.0,-0.03284716435445403,0.0,0.0,-0.08587454589690782,-0.025497623100169477,-0.025606704539684975,-0.3139110820706117,-0.08150895581455762,0.016817800530037685
3240,8.0,300.64124,517.5246400000001,0.0,0.0,0.0,-0.03285730549812629,0.0,0.0,-0.062196169781534034,-0.04711115864500936,-0.04800724055644576,-0.3106884907900667,-0.056773131629821845,-0.003598360855655567
3241,8.0,299.19338,760.49538,0.0,0.0,0.0,-0.03286744664179854,0.0,0.0,-0.1253265439962669,-0.06594658938367164,-0.03989847054392246,-0.2887673618991198,-0.06447512732344964,-0.01066031614934129
3242,8.0,299.31146,921.2723300000001,0.0,0.0,0.0,-0.0328775877854708,0.0,0.0,-0.07915537341602713,-0.08520599537492701,-0.1156824092794649,-0.3355389358526147,-0.06321700101878223,-0.036896837699434366
3243,8.0,298.69043999999997,735.05668,0.0,0.0,0.0,-0.032887728929143066,0.0,0.0,-0.04399159362138226,-0.09325926258672261,-0.08618802115984542,-0.3238459891686107,-0.09310515129951301,-0.01855929070215938
3244,8.0,300.19788,547.04745,0.0,0.0,0.0,-0.03289787007281533,0.0,0.0,0.0070366681175650725,-0.0946226007287736,-0.07870283261661483,-0.33494311439631164,-0.08147566446927203,-0.032642033343267866
3245,8.0,299.90326,614.5851299999999,0.0,0.0,0.0,-0.03290801121648759,0.0,0.0,-0.06935531369433653,-0.05896993080062904,-0.058493288834338145,-0.30134462260789874,-0.09114441609725352,0.014374922426694386
3246,8.0,300.21746,798.1374,0.0,0.0,0.0,-0.03291815236015985,0.0,0.0,-0.07477471529143984,-0.1045231008931269,-0.06331602392455503,-0.31581045991306567,-0.086344199477259,-0.011829367637717688
3247,8.0,299.88625,914.9136,0.0,0.0,0.0,-0.03292829350383211,0.0,0.0,-0.1066385847169089,-0.09542275116049231,-0.07604955414325662,-0.34512833479901467,-0.0983247653081488,0.0019063389719660084
3248,8.0,302.07597000000004,536.20969,0.0,0.0,0.0,-0.03293843464750437,0.0,0.0,-0.02780612600175097,-0.07022271454844234,-0.06496551504059714,-0.3312045862973477,-0.056407508437237644,-0.03386382551259937
3249,8.0,301.09256,477.30155,0.0,0.0,0.0,-0.03294857579117663,0.0,0.0,-0.003035715943401837,-0.08104607479787483,-0.06100596264431973,-0.3095873311113907,-0.035307381651817266,-0.03817488652756797
3250,8.0,301.02752999999996,729.50424,0.0,0.0,0.0,-0.03295871693484889,0.0,0.0,-0.06564133867179574,-0.05704638491678985,-0.0990633516770416,-0.3001145471189997,-0.03324249751152907,-0.031037063423369673
3251,8.0,300.43743,841.66655,0.0,0.0,0.0,-0.03296885807852115,0.0,0.0,-0.10141773251665091,-0.08707106862199541,-0.06735681162109973,-0.3094104683064357,-0.09500853553286241,-0.0032568063046217567
3252,8.0,300.28967,623.4471,0.0,0.0,0.0,-0.03297899922219341,0.0,0.0,-0.06136385879164134,-0.07410084520643402,-0.05404764692783746,-0.3179729382764857,-0.07319894622617353,-0.024452597477033478
3253,8.0,299.4113,568.45479,0.0,0.0,0.0,-0.03298914036586568,0.0,0.0,-0.056668092044955244,-0.05304967866584565,-0.06307829113309264,-0.32367103127384367,-0.09936343076040709,0.024760025663374274
3254,8.0,300.14632,613.06253,0.0,0.0,0.0,-0.03299928150953794,0.0,0.0,-0.033428066161343264,-0.08160768487780143,-0.07131994990948103,-0.3286676613594727,-0.0855173681439071,0.0015715383407987585
3255,8.0,300.07883,802.97862,0.0,0.0,0.0,-0.0330094226532102,0.0,0.0,-0.04813187335849605,-0.07245054653006222,-0.1235030281887999,-0.3146089580769867,-0.09733788402875122,0.028064504777250972
3256,8.0,300.37908999999996,942.70978,0.0,0.0,0.0,-0.03301956379688246,0.0,0.0,-0.10038656207538231,-0.07658421886327393,-0.10958945271813689,-0.3070063804566707,-0.05799586004224575,-0.006143542667270453
3257,8.0,300.11068,841.6460099999999,0.0,0.0,0.0,-0.03302970494055472,0.0,0.0,-0.12102002842124689,-0.056795657192794946,-0.07802368552508822,-0.2894434327633427,-0.06488159361431474,0.049203062112464155
3258,8.0,300.89828,729.58092,0.0,0.0,0.0,-0.033039846084226984,0.0,0.0,-0.09232469844973831,-0.06511220832382464,-0.06433747628411454,-0.3077751434400417,-0.06206826316841064,-0.016946684929507586
3259,8.0,300.98616,895.3942,0.0,0.0,0.0,-0.033049987227899244,0.0,0.0,-0.09401378028693771,-0.08487972174997632,-0.0932839757566616,-0.3132398646743677,-0.09783135911895341,0.007605344198389033
3260,8.0,300.96302000000003,1023.5035,0.0,0.0,0.0,-0.033060128371571504,0.0,0.0,-0.060824743877184846,-0.1141181740400869,-0.13617660845208487,-0.3227351022889747,-0.07518325165225923,-0.044379696780685055
3261,8.0,301.03287,733.55931,0.0,0.0,0.0,-0.033070269515243764,0.0,0.0,-0.023939348811129774,-0.08868954516572661,-0.11035482131367289,-0.3261291658839427,-0.08645512705845673,-0.032436053783439264
3262,8.0,300.55111,438.33535,0.0,0.0,0.0,-0.033080410658916024,0.0,0.0,-0.008488435534268363,-0.08150549860521643,-0.04324906672285055,-0.3405669868238447,-0.06598710925517064,-0.04680221058351855
3263,8.0,298.17439,480.00092,0.0,0.0,0.0,-0.03309055180258829,0.0,0.0,-0.05484112308114744,-0.04422103093427596,-0.046846140041604055,-0.3376939870928017,-0.08037054602245533,0.003092960318401417
3264,8.0,299.87275,718.66629,0.0,0.0,0.0,-0.03310069294626055,0.0,0.0,-0.05850550559079385,-0.08827803288936352,-0.07167307060908133,-0.3082382899282507,-0.07457669987739722,-0.01054826690028289
3265,8.0,299.58637999999996,640.61582,0.0,0.0,0.0,-0.03311083408993281,0.0,0.0,-0.05706257158713735,-0.06473868785996104,-0.07292995365587603,-0.3148228450405957,-0.09054873649596451,0.017509676069320485
3266,8.0,299.96094,676.37091,0.0,0.0,0.0,-0.03312097523360507,0.0,0.0,0.0003068421123504587,-0.08418662017807252,-0.12172009304783787,-0.3153661092142117,-0.0933304332737466,0.01001364716857003
3267,8.0,300.64554,845.28481,0.0,0.0,0.0,-0.03313111637727733,0.0,0.0,-0.06135473650099103,-0.08810900656068192,-0.10748173039012089,-0.3204478624407417,-0.0914332237865066,-0.005365230105681985
3268,8.0,300.81301,925.5840099999999,0.0,0.0,0.0,-0.0331412575209496,0.0,0.0,-0.10924507940664989,-0.07456751679174092,-0.09754182796912891,-0.3168955190476527,-0.07325356344631384,-0.02026070480632588
3269,8.0,299.82921,994.62148,0.0,0.0,0.0,-0.03315139866462186,0.0,0.0,-0.15572814052667083,-0.08128967836041662,-0.06532227938755704,-0.3152557966758247,-0.06624351421947584,-0.011730729766982887
3270,8.0,300.85046,847.5676300000001,0.0,0.0,0.0,-0.03316153980829412,0.0,0.0,-0.10045516822640321,-0.08129687446262683,-0.07588735306724863,-0.33734061612042665,-0.08166956304815833,-0.012899512744082789
3271,8.0,299.47366,435.62833,0.0,0.0,0.0,-0.03317168095196638,0.0,0.0,-0.02995111060219447,-0.029112819410211575,-0.07335620365494364,-0.3186680379775867,-0.06685990059980844,0.016760107082593782
3272,8.0,298.8336,382.21657999999996,0.0,0.0,0.0,-0.033181822095638636,0.0,0.0,0.06030009614765615,-0.08112752896016372,-0.09535686355948972,-0.3174776312301027,-0.06600222086716204,-0.026165671050100675
3273,8.0,298.89741000000004,693.71413,0.0,0.0,0.0,-0.0331919632393109,0.0,0.0,-0.05687893419201374,-0.045107706845034054,-0.1088851324411259,-0.3006450342088547,-0.08470090235907822,0.01945079677614418
3274,8.0,298.72528,641.7184,0.0,0.0,0.0,-0.03320210438298316,0.0,0.0,-0.06789286044075364,-0.06502865572057864,-0.06214485474346964,-0.3279257596362527,-0.090153300445688,-0.021772610744289378
3275,8.0,300.28971,632.3654,0.0,0.0,0.0,-0.03321224552665542,0.0,0.0,-0.10180981977534691,-0.06165761620763294,-0.028755850386731476,-0.3159701683938277,-0.07885053408369183,0.005657904863941734
3276,8.0,300.26947,879.3576800000001,0.0,0.0,0.0,-0.03322238667032768,0.0,0.0,-0.1064676088950349,-0.07140820196669083,-0.08942696123075392,-0.3273516723945947,-0.06549088724394733,-0.0026849112295551075
3277,8.0,300.36782999999997,827.84049,0.0,0.0,0.0,-0.03323252781399995,0.0,0.0,-0.06408905471734724,-0.09015410800601772,-0.09739967505959951,-0.3447664626583007,-0.07605817791485772,-0.005486709673421085
3278,8.0,299.88577999999995,753.14565,0.0,0.0,0.0,-0.03324266895767221,0.0,0.0,-0.0026073403482744575,-0.06859610768590874,-0.15773402108713586,-0.33215519727616566,-0.07415601667437903,-0.02718054944301137
3279,8.0,299.70492,733.90794,0.0,0.0,0.0,-0.03325281010134447,0.0,0.0,-0.04698638094819475,-0.07339740139075952,-0.10270590776628391,-0.3244000241907897,-0.08550080150477211,-0.008541194859025302
3280,8.0,299.98334,475.89114000000006,0.0,0.0,0.0,-0.03326295124501673,0.0,0.0,-0.053732021548187646,-0.0852353198460711,-0.005691681049400184,-0.2993686025278807,-0.052427783244719355,-0.03236333485026247
3281,8.0,300.25718,506.58684000000005,0.0,0.0,0.0,-0.03327309238868899,0.0,0.0,-0.08581422407870451,-0.05245588472299274,-0.015719642098157884,-0.3149561482237517,-0.06457976667452674,-0.02919658682247877
3282,8.0,300.58007000000003,700.43227,0.0,0.0,0.0,-0.03328323353236125,0.0,0.0,-0.1197063800640999,-0.07761110730961993,-0.015596429872747786,-0.3005485525343327,-0.06739329977045083,-0.023733267926291178
3283,8.0,300.88166,769.77883,0.0,0.0,0.0,-0.033293374676033514,0.0,0.0,-0.04642259440705336,-0.08203986340320413,-0.1055310820926069,-0.33629816415254465,-0.07177830473796713,-0.030390163016275572
3284,8.0,300.54355,607.72678,0.0,0.0,0.0,-0.033303515819705774,0.0,0.0,0.003109044650488817,-0.07479611716005202,-0.11304669245683989,-0.3187873785743647,-0.07585938736448862,0.0012427910683789289
3285,8.0,300.08532,709.36874,0.0,0.0,0.0,-0.033313656963378034,0.0,0.0,-0.03509646655075157,-0.07926906311699743,-0.1012648553680631,-0.3384064741656187,-0.09010090832276732,0.0013117196355816488
3286,8.0,299.53704,986.16214,0.0,0.0,0.0,-0.033323798107050294,0.0,0.0,-0.10563625745298691,-0.07342036163802552,-0.12071205105335188,-0.3198792062196197,-0.0936372079137729,0.014581863560867886
3287,8.0,299.28788,909.7872800000001,0.0,0.0,0.0,-0.033333939250722554,0.0,0.0,-0.12206954274232588,-0.08256074184236083,-0.07192232912043123,-0.33017335100807266,-0.06941015382949883,0.006080274723076394
3288,8.0,299.73351,636.75707,0.0,0.0,0.0,-0.03334408039439482,0.0,0.0,-0.06934116568319024,-0.07818669821442632,-0.04603038555834536,-0.30097834282924973,-0.04916168300488036,-0.02226926743980558
3289,8.0,299.3264,456.85389000000004,0.0,0.0,0.0,-0.03335422153806708,0.0,0.0,-0.0038173889489469567,-0.05317093633181285,-0.08188385024555683,-0.32081685772965873,-0.06123070658275024,-0.015700586916777285
3290,8.0,299.3424,429.31444000000005,0.0,0.0,0.0,-0.03336436268173934,0.0,0.0,-0.00011553398840481689,-0.05884422597997294,-0.07154111099555793,-0.3127552068865357,-0.08615070011891211,-0.03599620021554836
3291,8.0,300.97441000000003,656.48982,0.0,0.0,0.0,-0.0333745038254116,0.0,0.0,-0.06897852144590003,-0.061082998022922545,-0.06949499528687203,-0.33406173879682666,-0.08835821339627672,0.01003276831253214
3292,8.0,300.42124,866.19749,0.0,0.0,0.0,-0.03338464496908386,0.0,0.0,-0.08456250556766952,-0.09766404416969071,-0.08107585827131422,-0.3071413251049887,-0.0933427432492115,-0.0011842974573310588
3293,8.0,301.13619,740.49871,0.0,0.0,0.0,-0.03339478611275613,0.0,0.0,-0.0969396909249526,-0.08931814323626441,-0.03883528241274396,-0.35378678995103763,-0.09563822994000841,-0.017657738253433086
3294,8.0,300.12393,684.85878,0.0,0.0,0.0,-0.033404927256428386,0.0,0.0,-0.07204663970894973,-0.05840870068948995,-0.07772462678457343,-0.31822450801131374,-0.09071533203765622,-0.018580583139760784
3295,8.0,300.44847999999996,933.67126,0.0,0.0,0.0,-0.033415068400100646,0.0,0.0,-0.04622270954657625,-0.1083369033420199,-0.12925314144629188,-0.33229780209523974,-0.06523976536566353,-0.03007464200138607
3296,8.0,300.67127999999997,935.2340300000001,0.0,0.0,0.0,-0.033425209543772906,0.0,0.0,-0.05700708398516115,-0.1133812980373629,-0.1138994032109959,-0.3095627597964657,-0.05562069339008504,-0.006902176999991833
3297,8.0,300.439,675.50801,0.0,0.0,0.0,-0.033435350687445166,0.0,0.0,-0.033388879726975865,-0.07913992844475283,-0.09280875740676121,-0.3280588399043867,-0.0920860506934356,-0.01966192060673048
3298,8.0,299.41459,483.91371,0.0,0.0,0.0,-0.03344549183111743,0.0,0.0,-0.04484505519386236,-0.07876946900944132,-0.023483160311357477,-0.31924589450961666,-0.10178253295015391,-0.0006368046870727295
3299,8.0,299.9539,635.59295,0.0,0.0,0.0,-0.03345563297478969,0.0,0.0,-0.08293525022507192,-0.06586061105968623,-0.04440852577253026,-0.3100799935750127,-0.06336251994514384,-0.03116318468981687
3300,8.0,300.07989,731.7652,0.0,0.0,0.0,-0.03346577411846196,0.0,0.0,-0.06701388928375593,-0.07052278045955652,-0.08490167887964332,-0.3141064873523967,-0.05646394342805735,-0.0035703908972451463
3301,8.0,299.66537,783.28583,0.0,0.0,0.0,-0.03347591526213422,0.0,0.0,-0.013060797842000387,-0.12625643401053988,-0.09878209979378422,-0.3284169123572257,-0.07124744781182563,-0.06000002111729104
3302,8.0,299.0275,684.40124,0.0,0.0,0.0,-0.03348605640580647,0.0,0.0,-0.04117703511635696,-0.05083794722831475,-0.11602590106336488,-0.3444001727471507,-0.08247809508470422,0.00818044418352198
3303,8.0,300.24355,568.0549900000001,0.0,0.0,0.0,-0.03349619754947874,0.0,0.0,-0.04140226034858496,-0.06711219379520784,-0.06416007746985665,-0.32428278102171865,-0.060481663472825443,-0.009224700243207032
3304,8.0,299.93815,860.36054,0.0,0.0,0.0,-0.033506338693151,0.0,0.0,-0.0930628693860901,-0.08513730917714823,-0.08332794340732773,-0.3189585570462587,-0.06320644801899074,0.015958404351721883
3305,8.0,300.30086,1062.6841,0.0,0.0,0.0,-0.03351647983682326,0.0,0.0,-0.15708325107790988,-0.06392365075777315,-0.10202253136883989,-0.3319829852891697,-0.09707266176207581,0.016555904763440585
3306,8.0,300.48744,902.0238800000001,0.0,0.0,0.0,-0.03352662098049552,0.0,0.0,-0.07468418747450543,-0.11180021244882189,-0.08770834011338922,-0.3189446856523897,-0.11155618129473789,-0.01983779447958788
3307,8.0,301.04665,762.2346200000001,0.0,0.0,0.0,-0.03353676212416778,0.0,0.0,-0.038830146247987064,-0.07277348453568373,-0.12009666373761789,-0.3239605776224197,-0.07409957965705913,-0.01842748611590128
3308,8.0,300.88886,877.2696699999999,0.0,0.0,0.0,-0.033546903267840045,0.0,0.0,-0.06148744591958844,-0.0954047234147131,-0.1097759008690379,-0.3101311120425577,-0.051293526764776956,-0.017017355070982183
3309,8.0,301.21612000000005,810.00951,0.0,0.0,0.0,-0.033557044411512305,0.0,0.0,-0.043952119423986455,-0.10800762745702289,-0.0942629151817754,-0.34596333394142265,-0.06244180187077604,0.008415495611244751
3310,8.0,299.45209,504.32347999999996,0.0,0.0,0.0,-0.033567185555184564,0.0,0.0,-0.05201816270629295,-0.03918747598850276,-0.062096105254658446,-0.3216280556272177,-0.06073679579500504,0.002953528795990597
3311,8.0,299.51124,501.88325999999995,0.0,0.0,0.0,-0.033577326698856824,0.0,0.0,-0.05336264122423265,-0.07272534907643313,-0.026471988714331877,-0.3311898637733947,-0.04120704555781876,0.009296175918511132
3312,8.0,299.84861,548.55565,0.0,0.0,0.0,-0.033587467842529084,0.0,0.0,-0.03881138288263526,-0.046104890851448456,-0.08183094744458572,-0.31853286028174566,-0.07069238839379552,-0.007824802720322903
3313,8.0,299.40779,628.31576,0.0,0.0,0.0,-0.03359760898620135,0.0,0.0,-0.00017737194286524782,-0.0857586077939656,-0.1050563237582519,-0.3463452279041127,-0.1000857564916951,-0.02650140944423547
3314,8.0,299.52102,886.8147,0.0,0.0,0.0,-0.03360775012987361,0.0,0.0,-0.08798993548843051,-0.11256817496461388,-0.06901141458389634,-0.3221826276719497,-0.10399034412304789,-0.032550214645706066
3315,8.0,300.3618,916.27449,0.0,0.0,0.0,-0.03361789127354587,0.0,0.0,-0.08711428981826101,-0.07924851845796982,-0.11216176034950388,-0.3246805728784777,-0.08066206922197641,-0.02635252044804127
3316,8.0,300.37067,473.09555,0.0,0.0,0.0,-0.03362803241721813,0.0,0.0,-0.08938335195970001,-0.05293095919137895,-0.0014949213331622484,-0.3065270422318637,-0.07903752533664643,0.012258083887528687
3317,8.0,301.27026,552.7292,0.0,0.0,0.0,-0.03363817356089039,0.0,0.0,-0.08004082937366483,-0.05632809394740004,-0.03164695183081097,-0.3230545597805027,-0.09058271887781831,-0.006680511720665175
3318,8.0,300.45237000000003,903.21474,0.0,0.0,0.0,-0.03364831470456266,0.0,0.0,-0.08232998527783691,-0.06871150775304784,-0.12351323161730689,-0.30769484336961667,-0.08203540206301382,0.017786911429181484
3319,8.0,299.93607000000003,725.08391,0.0,0.0,0.0,-0.03365845584823492,0.0,0.0,-0.02275218851696618,-0.09377435131480792,-0.10388086244974291,-0.3283890581119767,-0.06849968376664244,-0.04047958974127446
3320,8.0,300.607,669.6411099999999,0.0,0.0,0.0,-0.033668596991907176,0.0,0.0,-0.05414639625608325,-0.058566895374602544,-0.09084088588404741,-0.33332255258387467,-0.058185229393185045,-0.02077144871798238
3321,8.0,300.63496000000004,795.81365,0.0,0.0,0.0,-0.033678738135579436,0.0,0.0,-0.05173711448630565,-0.1004820487383061,-0.08968831389529741,-0.3452226075883187,-0.07855027261530834,-0.015905722439272584
3322,8.0,300.50742,865.0123199999999,0.0,0.0,0.0,-0.033688879279251696,0.0,0.0,-0.1083487583681899,-0.0884428086338756,-0.06615057588055354,-0.3209575069760397,-0.07333839071818564,0.01211987049438809
3323,8.0,301.17352999999997,863.4188,0.0,0.0,0.0,-0.03369902042292397,0.0,0.0,-0.08869840806435132,-0.06958531842728623,-0.1041740261011759,-0.3298519075463487,-0.08032140440585543,0.01041888600826399
3324,8.0,300.16585,869.0871,0.0,0.0,0.0,-0.03370916156659622,0.0,0.0,-0.048525680102611754,-0.1067473368501419,-0.10890776844835989,-0.31316356694183767,-0.11119796698688489,-0.003984091591174225
3325,8.0,300.17151,647.4915,0.0,0.0,0.0,-0.03371930271026848,0.0,0.0,-0.02682109086403557,-0.06623944804682454,-0.10376071125288491,-0.3291514882822227,-0.11773708796474588,-0.007323700187342933
3326,8.0,299.99027,562.3529900000001,0.0,0.0,0.0,-0.03372944385394074,0.0,0.0,-0.037925598631965166,-0.07463483915488513,-0.05838083023223935,-0.3099550902351857,-0.08238549517131533,-0.030124059222013173
3327,8.0,300.02099,888.6754800000001,0.0,0.0,0.0,-0.033739584997613,0.0,0.0,-0.1077575674648439,-0.1046867002542729,-0.05769088493439704,-0.3160120865504647,-0.06641512028291204,-0.04235945036030226
3328,8.0,300.47952999999995,909.93481,0.0,0.0,0.0,-0.03374972614128527,0.0,0.0,-0.15291170041620986,-0.05473671272459295,-0.06894905106674153,-0.31174014306885667,-0.06924736304193263,0.01096257068067149
3329,8.0,300.07936,484.15245,0.0,0.0,0.0,-0.03375986728495753,0.0,0.0,-0.03424094706731837,-0.08085331612535102,-0.03207599232065397,-0.3213141304812357,-0.0876300553974131,-0.019389603562854883
3330,8.0,299.46263,481.46335999999997,0.0,0.0,0.0,-0.03377000842862979,0.0,0.0,0.013518130301135588,-0.05995048129340185,-0.0999204883076344,-0.3322496929804917,-0.08900873313272802,-0.005550357991702684
3331,8.0,299.97605,924.27655,0.0,0.0,0.0,-0.03378014957230205,0.0,0.0,-0.05229458037332324,-0.0949112706160131,-0.13375114102520988,-0.3338826265766497,-0.06415501729885724,-0.019191652996818683
3332,8.0,300.17484,953.83654,0.0,0.0,0.0,-0.03379029071597431,0.0,0.0,-0.060601617085913946,-0.1264617488783029,-0.1028791228708789,-0.35028030625747464,-0.06884131826310914,-0.01866912599974928
3333,8.0,300.35996,588.20398,0.0,0.0,0.0,-0.033800431859646575,0.0,0.0,-0.08303683564034763,-0.05662929571187635,-0.03913319010114516,-0.3208390783043517,-0.06877544890060834,-0.018830717099197085
3334,8.0,299.09097,380.32833,0.0,0.0,0.0,-0.033810573003318835,0.0,0.0,-0.06825839446732904,-0.03034088359766207,-0.01701103745660868,-0.35158285952602664,-0.06437403637422273,0.023201793930838776
3335,8.0,299.30454,419.81178,0.0,0.0,0.0,-0.033820714146991095,0.0,0.0,-0.010655033063319889,-0.06326050795157603,-0.05369675943145755,-0.3196381945508337,-0.07609647674213751,-0.015658803522403588
3336,8.0,300.58194,711.97924,0.0,0.0,0.0,-0.033830855290663354,0.0,0.0,-0.03149167023973587,-0.06931010146162443,-0.11562214116351688,-0.3288733511297727,-0.09014039467916432,-0.0009369419512589711
3337,8.0,300.8404,882.9299199999999,0.0,0.0,0.0,-0.033840996434335614,0.0,0.0,-0.06028026380344884,-0.1025624011546209,-0.1055459870015779,-0.31193218436030967,-0.0908914744217901,-0.016601705694460785
3338,8.0,301.08772999999997,645.4012,0.0,0.0,0.0,-0.03385113757800788,0.0,0.0,-0.051382757621583355,-0.07760814355307744,-0.06719494694412494,-0.3279972849608117,-0.07567134537118032,-0.017526961102776382
3339,8.0,301.48002,503.18656,0.0,0.0,0.0,-0.03386127872168014,0.0,0.0,-0.060242595217731246,-0.04260708767149216,-0.05010646678237325,-0.3190397791742747,-0.07765113170182002,-0.0063713258493759035
3340,8.0,301.02551,948.5073199999999,0.0,0.0,0.0,-0.0338714198653524,0.0,0.0,-0.1265331627453509,-0.10823717926717788,-0.05355219194693985,-0.3500138518786777,-0.06452321819969585,-0.013589951494723786
3341,8.0,300.35483,989.38169,0.0,0.0,0.0,-0.03388156100902466,0.0,0.0,-0.06248362376865354,-0.07564952097727644,-0.16261418820627083,-0.32985100575375964,-0.07204511578079933,0.02327355635592118
3342,8.0,299.42364,532.50297,0.0,0.0,0.0,-0.03389170215269692,0.0,0.0,-0.016631007874102682,-0.08171972095460853,-0.06351687846537785,-0.33504383145625166,-0.07770202826759313,-0.014514588820478385
3343,8.0,299.34207000000004,618.63437,0.0,0.0,0.0,-0.03390184329636919,0.0,0.0,-0.012628999285385188,-0.07591506039123314,-0.0995053415031626,-0.3129624975919937,-0.08463651436822361,-0.003554747227626236
3344,8.0,300.306,825.64759,0.0,0.0,0.0,-0.03391198444004145,0.0,0.0,-0.09292819730204901,-0.07997896032255883,-0.07806909128856943,-0.3255097255678087,-0.09121838943405411,-0.008728838341069273
3345,8.0,299.90582,663.7449,0.0,0.0,0.0,-0.03392212558371371,0.0,0.0,-0.08011905937413552,-0.095843571152274,-0.02579924333693708,-0.3124070845496787,-0.0863073080543681,-0.007815167927772024
3346,8.0,300.06039,718.42173,0.0,0.0,0.0,-0.03393226672738597,0.0,0.0,-0.10508197925078391,-0.050009493681552754,-0.06329079399706504,-0.36274908841054765,-0.07535422443438293,0.0055356689050029845
3347,8.0,300.29094,841.3328,0.0,0.0,0.0,-0.033942407871058226,0.0,0.0,-0.04435689156068436,-0.09547099706400382,-0.1159162775350459,-0.3243599501493347,-0.07883554912796292,-0.0051975022570035345
3348,8.0,300.64846,674.9249900000001,0.0,0.0,0.0,-0.03395254901473049,0.0,0.0,-0.03386224585569347,-0.1003481994133462,-0.07094989881395984,-0.3435341580191817,-0.08375663736563652,-0.02119654462518608
3349,8.0,301.1241,733.81031,0.0,0.0,0.0,-0.03396269015840275,0.0,0.0,-0.019570247817183084,-0.07069206415376353,-0.13279770307861288,-0.31932993347291067,-0.08301872784781052,-0.028106340860629873
3350,8.0,300.71227999999996,981.7584300000001,0.0,0.0,0.0,-0.03397283130207501,0.0,0.0,-0.11795637555138788,-0.1106347823163029,-0.06983889135756194,-0.3400231248326697,-0.08659981410648623,-0.022553977545654275
3351,8.0,299.40636,679.85903,0.0,0.0,0.0,-0.03398297244574727,0.0,0.0,-0.0966663515117261,-0.055334533323343246,-0.05465928420495135,-0.3184956030755687,-0.08730669790625023,-0.008494324949149602
3352,8.0,300.24417,395.38616,0.0,0.0,0.0,-0.03399311358941953,0.0,0.0,-0.06372815732322944,-0.050278141746816246,-0.006181219865613904,-0.34405494830557964,-0.044457418129605554,-0.032154837363935374
3353,8.0,300.22561,736.90216,0.0,0.0,0.0,-0.0340032547330918,0.0,0.0,-0.02735558231828577,-0.1006703592428909,-0.09597391463188791,-0.3303458264400947,-0.07229433680189552,0.005960960977426045
3354,8.0,300.39485,802.56101,0.0,0.0,0.0,-0.03401339587676406,0.0,0.0,-0.06427456561190573,-0.07071761832128552,-0.1089663241716389,-0.3412662205853537,-0.07745121948359023,-0.008727052690418041
3355,8.0,299.45652,766.09151,0.0,0.0,0.0,-0.03402353702043632,0.0,0.0,-0.029720460428931072,-0.1068708317723299,-0.09628139348073371,-0.3348179982739637,-0.0964650906576132,-0.01041914641353969
3356,8.0,298.63442000000003,849.48502,0.0,0.0,0.0,-0.03403367816410858,0.0,0.0,-0.1050996402000269,-0.09831832205076291,-0.05480427218826054,-0.3263630037420207,-0.09667486990531682,-0.039636545393072466
3357,8.0,298.85083,892.23468,0.0,0.0,0.0,-0.03404381930778084,0.0,0.0,-0.13540467399590086,-0.07071163305294484,-0.06510075657119443,-0.3282147689622757,-0.1109882951436919,0.015143868808333485
3358,8.0,299.42596000000003,814.9361200000001,0.0,0.0,0.0,-0.034053960451453105,0.0,0.0,-0.08040583043068762,-0.1003241975449774,-0.06699020557591853,-0.3125839980171387,-0.08181024066554213,-0.026850572388945178
3359,8.0,300.1609,899.9523300000001,0.0,0.0,0.0,-0.034064101595125365,0.0,0.0,-0.07134618092806984,-0.07005237200788084,-0.13216448256111887,-0.3159452728388707,-0.07395557047334653,0.008183337215207502
3360,8.0,300.20998,779.39033,0.0,0.0,0.0,-0.034074242738797625,0.0,0.0,-0.04170030685224986,-0.07327702829212963,-0.12193786075932989,-0.3080668176138277,-0.06570970569579303,-0.015976384474746384
3361,8.0,299.64513,309.00864,0.0,0.0,0.0,-0.034084383882469885,0.0,0.0,0.020055684794341982,-0.049111603118687855,-0.06487499330316333,-0.3263237200356437,-0.08489538153027183,-0.01901468177410298
3362,8.0,300.71087,536.45883,0.0,0.0,0.0,-0.034094525026142145,0.0,0.0,-0.06742167482625123,-0.05337157403711424,-0.04227684109289936,-0.3358525266260637,-0.09260913497806,0.0024261655561938975
3363,8.0,301.27173999999997,1061.5262,0.0,0.0,0.0,-0.03410466616981441,0.0,0.0,-0.13203416846575788,-0.1130867057032889,-0.07755658533498902,-0.34583385071114364,-0.09129690821080332,0.00999435883834142
3364,8.0,299.90886,807.58522,0.0,0.0,0.0,-0.03411480731348667,0.0,0.0,-0.09007553856676351,-0.09193665709869162,-0.06347354479835114,-0.33633854216902964,-0.07400117179409703,-0.008939817682191311
3365,8.0,299.56406,453.75202,0.0,0.0,0.0,-0.03412494845715893,0.0,0.0,-0.005252781940059215,-0.05634895170070855,-0.07632755045394272,-0.3393697203731837,-0.08273788126459312,-0.024171182460509977
3366,8.0,299.38676,687.57182,0.0,0.0,0.0,-0.03413508960083119,0.0,0.0,-0.05688363364597754,-0.07965681974476603,-0.07246421122091083,-0.3356335632794537,-0.05926785166128154,-0.012664312064620289
3367,8.0,299.5018,843.69225,0.0,0.0,0.0,-0.03414523074450345,0.0,0.0,-0.05289478514955885,-0.07703868382462613,-0.12652791410983288,-0.31529626588481874,-0.07422449920888773,-0.026378781864133078
3368,8.0,299.98106,751.98724,0.0,0.0,0.0,-0.03415537188817572,0.0,0.0,-0.10961727656588288,-0.07794951663101833,-0.04101855266821596,-0.3122133409980577,-0.06593095392137854,-0.026572993537300273
3369,8.0,298.80502,595.5555400000001,0.0,0.0,0.0,-0.03416551303184798,0.0,0.0,-0.06728202869746923,-0.044551959430186056,-0.06920002399726063,-0.3144639518551757,-0.09680033357244909,-0.005065071178208605
3370,8.0,299.7858,271.26326,0.0,0.0,0.0,-0.03417565417552024,0.0,0.0,-0.02287021898136488,-0.021964829354509878,-0.03762220926052296,-0.3194990854446047,-0.08583716811396891,0.0031937203401456566
3371,8.0,300.70152,415.62298,0.0,0.0,0.0,-0.0341857953191925,0.0,0.0,0.006799436276952113,-0.06827471589993983,-0.06486372798855153,-0.3360041696360297,-0.07048831577065513,-0.014860435397610786
3372,8.0,300.69396,1134.0047,0.0,0.0,0.0,-0.03419593646286476,0.0,0.0,-0.08471105411183012,-0.11955813144196888,-0.14043992917534187,-0.3614362607859816,-0.06396365893797165,-0.008016843606475862
3373,8.0,300.0623,1044.2695,0.0,0.0,0.0,-0.03420607760653702,0.0,0.0,-0.06786268787927584,-0.12254883030462789,-0.1270203435259319,-0.3279720043708167,-0.08131332660450052,-0.01893100656759488
3374,8.0,299.71609,396.28132999999997,0.0,0.0,0.0,-0.03421621875020928,0.0,0.0,-0.03953762482555976,-0.06635828607155293,-0.014563718278077085,-0.33886422003079464,-0.08300319675027772,-0.02017012328713618
3375,8.0,299.90454,540.3082400000001,0.0,0.0,0.0,-0.03422635989388154,0.0,0.0,-0.03992871707265756,-0.049157379731705655,-0.07515411767213392,-0.3128838795167347,-0.07530108250638823,-0.00930410551246872
3376,8.0,300.75572999999997,1067.5918,0.0,0.0,0.0,-0.0342365010375538,0.0,0.0,-0.1079614029874609,-0.1079044583318409,-0.1086553982459529,-0.33375814880186466,-0.08964016729029572,-0.01250102985075559
3377,8.0,299.76552000000004,737.21789,0.0,0.0,0.0,-0.03424664218122606,0.0,0.0,-0.05137610664792695,-0.04535133472557826,-0.12736839493528188,-0.3236846290901857,-0.09488915440608041,0.01012703036138508
3378,8.0,300.27165,493.03362000000004,0.0,0.0,0.0,-0.03425678332489833,0.0,0.0,-0.015067986508344487,-0.06636705980416883,-0.06843486413124523,-0.34716205947222767,-0.0864411735913296,-0.005985169346165224
3379,8.0,300.01642000000004,691.74185,0.0,0.0,0.0,-0.03426692446857059,0.0,0.0,-0.046903455546760654,-0.05972893821203724,-0.1036398507809569,-0.3136713369644507,-0.06280348453372134,0.0006658771831819614
3380,8.0,299.58432999999997,838.36258,0.0,0.0,0.0,-0.03427706561224285,0.0,0.0,-0.10876810205457589,-0.08414681464789402,-0.06192637370390724,-0.3419021768781177,-0.05797112964705504,-0.008715153283893662
3381,8.0,299.62962000000005,1021.8565,0.0,0.0,0.0,-0.03428720675591511,0.0,0.0,-0.06782143846770484,-0.13925294721319587,-0.1035444634165429,-0.32582585959900867,-0.0955799690725085,-0.017314172502275783
3382,8.0,298.85871000000003,1065.0053,0.0,0.0,0.0,-0.03429734789958737,0.0,0.0,-0.1100186350629939,-0.08711829722240652,-0.12659809181175888,-0.34476275416293467,-0.1092174075464189,0.01327633842977259
3383,8.0,297.89835,613.9604400000001,0.0,0.0,0.0,-0.034307489043259635,0.0,0.0,-0.03279661781827417,-0.07863705545987312,-0.07519497090291584,-0.3259429710455667,-0.06646492760482764,0.002479463626029008
3384,8.0,299.21971,331.73848,0.0,0.0,0.0,-0.034317630186931895,0.0,0.0,-0.016086506522114585,-0.06922490232696593,-0.015528806574323884,-0.3302954577776237,-0.05847665228094625,-0.03269264011951237
3385,8.0,299.93091,746.48371,0.0,0.0,0.0,-0.034327771330604155,0.0,0.0,-0.06928715641310994,-0.05334226577797175,-0.1042829808844289,-0.3409853172601307,-0.0934400669345666,-0.01980123236297948
3386,8.0,300.2766,777.6068799999999,0.0,0.0,0.0,-0.034337912474276415,0.0,0.0,-0.1036732981667579,-0.07180614885071512,-0.06089362765873315,-0.3458960237372797,-0.09106653262831702,-0.016496760341853486
3387,8.0,300.37217999999996,420.93555999999995,0.0,0.0,0.0,-0.034348053617948675,0.0,0.0,0.0026010158438002774,-0.07804330913977492,-0.052511606385742045,-0.3246066562836827,-0.08007201518524262,-0.028432508094320075
3388,8.0,299.61843,491.17017000000004,0.0,0.0,0.0,-0.03435819476162094,0.0,0.0,-0.04854771221278616,-0.036737492975458266,-0.06401826197261054,-0.3115783979553937,-0.07277666918074802,0.004949042896007506
3389,8.0,300.41908,892.89492,0.0,0.0,0.0,-0.0343683359052932,0.0,0.0,-0.08474700321212801,-0.09170585493791322,-0.0949648999173059,-0.34930229699595267,-0.10773662358527691,0.0034451726392870667
3390,8.0,300.88871,935.1010000000001,0.0,0.0,0.0,-0.03437847704896546,0.0,0.0,-0.08017428251783562,-0.0901172956166346,-0.11395578044655989,-0.3312005231644467,-0.09367893861914141,0.0006711781733326284
3391,8.0,299.60157000000004,865.66025,0.0,0.0,0.0,-0.03438861819263772,0.0,0.0,-0.07322576594307043,-0.12410213257542688,-0.06581120093180984,-0.3361294174808907,-0.05283679887283604,-0.02198266052976968
3392,8.0,299.29584,915.79159,0.0,0.0,0.0,-0.03439875933630998,0.0,0.0,-0.100634136565066,-0.09482613328961072,-0.08291750618932073,-0.32653094994609566,-0.04092735509296546,-0.012525949723714987
3393,8.0,299.42883,545.21236,0.0,0.0,0.0,-0.03440890047998225,0.0,0.0,-0.03070003009560707,-0.05775093317507335,-0.07727998021669022,-0.35314920232561264,-0.0959840268678859,-0.008466151530119101
3394,8.0,298.89107,489.27117999999996,0.0,0.0,0.0,-0.03441904162365451,0.0,0.0,-0.042360224483378665,-0.06263990037132684,-0.04372609777717986,-0.33832602210767865,-0.10867999995838089,0.01091885197860679
3395,8.0,299.1197,893.89184,0.0,0.0,0.0,-0.03442918276732677,0.0,0.0,-0.052264407811845444,-0.08109698453589922,-0.13835940248000986,-0.35809120809835066,-0.09055736837356641,0.013249416374615589
3396,8.0,299.2288,713.8307599999999,0.0,0.0,0.0,-0.03443932391099903,0.0,0.0,-0.06691141727464274,-0.08192543909591132,-0.06814987132861863,-0.3196326318077847,-0.08181162881817912,-0.012684523364364987
3397,8.0,299.36666,555.16063,0.0,0.0,0.0,-0.03444946505467129,0.0,0.0,-0.048080206722646956,-0.06152090647764074,-0.05915385697203115,-0.35359768708487466,-0.09063107725209092,-0.053320469755070654
3398,8.0,299.61421,1013.4977,0.0,0.0,0.0,-0.034459606198343554,0.0,0.0,-0.12023303706857688,-0.07779205351247792,-0.1100529031813759,-0.32028380711705073,-0.07920198596037742,0.006264314175839674
3399,8.0,300.18433999999996,1066.5168,0.0,0.0,0.0,-0.034469747342015813,0.0,0.0,-0.05984867498960434,-0.1362677806960829,-0.12807800437781489,-0.3263967348378497,-0.06809252643920914,-0.03739469003006857
3400,8.0,299.17942999999997,725.82936,0.0,0.0,0.0,-0.03447988848568807,0.0,0.0,-0.07674197379784313,-0.06415386928649394,-0.07973815940979363,-0.3079700015667727,-0.07579256858664413,0.02637002839651918
3401,8.0,300.03685,640.07423,0.0,0.0,0.0,-0.03449002962936033,0.0,0.0,-0.037797824754604865,-0.07686581423831523,-0.07990294528680672,-0.3506376390377407,-0.1014831884731109,-0.011052264592773592
3402,8.0,300.24427000000003,460.98164,0.0,0.0,0.0,-0.03450017077303259,0.0,0.0,-0.07553511592173552,-0.04125767766531576,-0.023334115274647876,-0.3204288032063607,-0.0947147203616151,0.030349755615537672
3403,8.0,300.17002,342.6763,0.0,0.0,0.0,-0.03451031191670486,0.0,0.0,-0.02751277793879977,-0.049471085002415954,-0.027181175631573174,-0.33636806827694365,-0.06952933230626084,-0.039064954799660864
3404,8.0,299.34144,789.22407,0.0,0.0,0.0,-0.03452045306037712,0.0,0.0,-0.09299079285347672,-0.08482944225351412,-0.06208417524798103,-0.3262613443594877,-0.05435167363359255,-0.03742945160124926
3405,8.0,298.60714,922.51925,0.0,0.0,0.0,-0.03453059420404938,0.0,0.0,-0.06891052121843894,-0.09529823792195381,-0.1162140616069349,-0.35140679718865064,-0.08083502189479552,-0.04168059407155436
3406,8.0,298.99388999999996,429.88050999999996,0.0,0.0,0.0,-0.03454073534772164,0.0,0.0,-0.031782670602205375,-0.037796117428186365,-0.061094151880023345,-0.3309773750949237,-0.07604764720656843,0.01087050880308569
3407,8.0,299.37339,437.8242,0.0,0.0,0.0,-0.0345508764913939,0.0,0.0,0.007020636575807884,-0.07257373139771964,-0.06753453062238923,-0.3352342920775487,-0.07874659387518372,-0.022187479918233777
3408,8.0,299.98692,1001.3106,0.0,0.0,0.0,-0.034561017635066166,0.0,0.0,-0.11976590850747489,-0.07136271412995153,-0.11324481324889289,-0.3201020503141127,-0.09772255936296571,0.01321959135792209
3409,8.0,300.00962000000004,972.03128,0.0,0.0,0.0,-0.034571158778738426,0.0,0.0,-0.094322915799697,-0.11524095647589688,-0.08590936117034383,-0.34695709924199963,-0.0858214293001656,-0.028868282644327677
3410,8.0,300.47031,615.29071,0.0,0.0,0.0,-0.034581299922410685,0.0,0.0,-0.050242140970763245,-0.07596250177416522,-0.06082836827279254,-0.32642832797596766,-0.07878202216493022,-0.0058806467214996445
3411,8.0,299.55753,523.51166,0.0,0.0,0.0,-0.034591441066082945,0.0,0.0,-0.02087816624501458,-0.04229872324205896,-0.0959575830667761,-0.31625788075972266,-0.07368500331239364,-0.0053728731525112955
3412,8.0,299.9211,660.09294,0.0,0.0,0.0,-0.034601582209755205,0.0,0.0,-0.04205710666296326,-0.08465479137352742,-0.07393987218954723,-0.3317705776707067,-0.08077560896193192,-0.0001338561238680709
3413,8.0,299.99781,839.25346,0.0,0.0,0.0,-0.03461172335342747,0.0,0.0,-0.06397002214859963,-0.0920575884981266,-0.09908448402112721,-0.3240820156469047,-0.08193276185438401,0.0023589181735570977
3414,8.0,300.07759,902.9372400000001,0.0,0.0,0.0,-0.03462186449709973,0.0,0.0,-0.12378237110886887,-0.06953906153372102,-0.08114894197452702,-0.35280027952117665,-0.10680290348562589,0.02212717836503248
3415,8.0,299.65696,543.4148700000001,0.0,0.0,0.0,-0.03463200564077199,0.0,0.0,-0.035148141292601465,-0.07481524934844022,-0.055221159756404146,-0.34331608633265964,-0.07367655078005943,-0.011526846621611188
3416,8.0,299.66502,357.39365,0.0,0.0,0.0,-0.03464214678444425,0.0,0.0,-0.005181404853989845,-0.03101239078343467,-0.07244495034975994,-0.3350808353499037,-0.08650257857388982,-0.018755358649509783
3417,8.0,299.13754,1041.5241,0.0,0.0,0.0,-0.03465228792811651,0.0,0.0,-0.06431374394027234,-0.1079463764884779,-0.14433719303497186,-0.35788284334778664,-0.06518379545663974,-0.014508622803889587
3418,8.0,299.68575,1149.8874,0.0,0.0,0.0,-0.03466242907178878,0.0,0.0,-0.10981147608004889,-0.08986312588205,-0.14986246609527384,-0.36224086242538966,-0.08064074233387163,0.024673140480549378
3419,8.0,300.4788,353.90169,0.0,0.0,0.0,-0.03467257021546104,0.0,0.0,-0.0006221367367701153,-0.04088925080970486,-0.06606588945044564,-0.34920944275678867,-0.08960667126848991,0.005831374699611875
3420,8.0,300.58724,389.79393,0.0,0.0,0.0,-0.0346827113591333,0.0,0.0,-0.059172122831583844,-0.06667612236292093,0.007360623426286973,-0.3098668158864737,-0.10748373662531889,-0.013996837271130288
3421,8.0,300.54082999999997,1061.0343,0.0,0.0,0.0,-0.03469285250280556,0.0,0.0,-0.11450060502532991,-0.09353077713651901,-0.11449656215743088,-0.3148386416096547,-0.1123639240094559,-0.02099180629672998
3422,8.0,300.54618999999997,897.25205,0.0,0.0,0.0,-0.03470299364647782,0.0,0.0,-0.1036494259944019,-0.09430823785874841,-0.07478455496316093,-0.2899304716889097,-0.1095261752493919,-0.02239583352304668
3423,8.0,301.10722000000004,559.44744,0.0,0.0,0.0,-0.034713134790150084,0.0,0.0,-0.007877739363847343,-0.06922802415052404,-0.09295229036292682,-0.33899140318334664,-0.06870767158816923,-0.03668882657315527
3424,8.0,300.68771,578.07402,0.0,0.0,0.0,-0.034723275933822344,0.0,0.0,-0.034844717470655866,-0.054306480652632355,-0.08656886944843221,-0.3237059580047907,-0.05064044147907245,-0.00034117891895673767
3425,8.0,300.38165,571.96475,0.0,0.0,0.0,-0.034733417077494604,0.0,0.0,-0.02811766393049737,-0.06665108292644974,-0.07909425416999512,-0.35523300181876766,-0.052392189795206545,0.002744602299571157
3426,8.0,299.46115,943.8839199999999,0.0,0.0,0.0,-0.03474355822116686,0.0,0.0,-0.12298898614806789,-0.06939822078307113,-0.09452994002037872,-0.36849630377275366,-0.055707688003920744,0.017014512904451683
3427,8.0,299.47873,1298.5177,0.0,0.0,0.0,-0.03475369936483912,0.0,0.0,-0.12458337571042188,-0.11200812123684088,-0.15812545986576784,-0.39039242565123267,-0.09538539262930532,0.012900589828939088
3428,8.0,300.28201,865.6420699999999,0.0,0.0,0.0,-0.03476384050851139,0.0,0.0,-0.09299824733446241,-0.10852783005836289,-0.061607492751686144,-0.33662761229005866,-0.08203906192237502,-0.016887738091689985
3429,8.0,300.65,340.82307000000003,0.0,0.0,0.0,-0.03477398165218365,0.0,0.0,0.004483866259898146,-0.03871218671109536,-0.06937338095686964,-0.3513904433320367,-0.07877529925051673,-0.026159859047527073
3430,8.0,299.60152999999997,709.68938,0.0,0.0,0.0,-0.03478412279585591,0.0,0.0,-0.06639151966158284,-0.08166805938500993,-0.06766827254283853,-0.32208587241990067,-0.07371942341829063,0.0008313704303548733
3431,8.0,299.66683,985.48181,0.0,0.0,0.0,-0.03479426393952817,0.0,0.0,-0.1017084846328459,-0.0987738509247201,-0.0990795292281382,-0.35320386716850766,-0.08429206100997871,0.002850840356656037
3432,8.0,298.67566,502.68762999999996,0.0,0.0,0.0,-0.03480440508320043,0.0,0.0,-0.06847284175824334,-0.053509042691431356,-0.03082260498670427,-0.32418414112448374,-0.06966167391507193,-0.005013714292915076
3433,8.0,299.13621,469.33038,0.0,0.0,0.0,-0.034814546226872696,0.0,0.0,-0.005650462643282245,-0.1049938264920839,-0.03202042669842007,-0.3270455188768797,-0.09428098345755861,-0.04311155449877916
3434,8.0,299.82849,762.81069,0.0,0.0,0.0,-0.034824687370544956,0.0,0.0,-0.07542522894839053,-0.06822361465764654,-0.08822655775778332,-0.3192864853086227,-0.1131081663404069,-0.0006703985787056883
3435,8.0,299.19698999999997,839.3479199999999,0.0,0.0,0.0,-0.034834828514217216,0.0,0.0,-0.05435236061716035,-0.0973050942422651,-0.1034833543030119,-0.3500839282555937,-0.09926725204766501,-0.02372145241687508
3436,8.0,299.09589,1037.2898,0.0,0.0,0.0,-0.034844969657889475,0.0,0.0,-0.0935346518049014,-0.09710827750309081,-0.12466728295120288,-0.3362300534808227,-0.06818123344571383,0.0004407969977057766
3437,8.0,299.83619,765.65018,0.0,0.0,0.0,-0.034855110801561735,0.0,0.0,-0.07485509439537263,-0.04133768389321176,-0.1165457591596709,-0.33141286998790365,-0.06305366712916244,0.015760517620441984
3438,8.0,300.45808,53.073384,0.0,0.0,0.0,-0.034865251945234,0.0,0.0,0.008005813872512311,-0.030713469844933474,0.006574672782794683,-0.3277051852219837,-0.06452648795776854,0.002366220565702788
3439,8.0,300.5899,387.11404,0.0,0.0,0.0,-0.03487539308890626,0.0,0.0,-0.011660116367513887,-0.06263861658345014,-0.04337426795820696,-0.32245225352355966,-0.08261390808835792,-0.02319240312891198
3440,8.0,299.81716,1178.2628,0.0,0.0,0.0,-0.03488553423257852,0.0,0.0,-0.12099492008376889,-0.1109431751167389,-0.12622438490987686,-0.33665798952805664,-0.07882572465499332,-0.029586026458663473
3441,8.0,298.80721,879.37946,0.0,0.0,0.0,-0.03489567537625078,0.0,0.0,-0.07040805623023413,-0.11347968462207289,-0.08342166093557692,-0.3308213649770267,-0.08504879367491243,-0.04902222736711716
3442,8.0,300.4029,208.08641,0.0,0.0,0.0,-0.03490581651992304,0.0,0.0,0.005204595615653594,-0.040998654462752165,-0.027459013875243674,-0.3439096178437367,-0.05722287180595774,-0.03257825938197387
3443,8.0,300.64923,491.98575,0.0,0.0,0.0,-0.03491595766359531,0.0,0.0,-0.05308744249707265,-0.053651142911955545,-0.04281279872004426,-0.3455543051410547,-0.07836445571921963,0.004026251813260116
3444,8.0,300.25504,996.01357,0.0,0.0,0.0,-0.03492609880726757,0.0,0.0,-0.09441433831646971,-0.08790965872275783,-0.12043925372892889,-0.36017049862856065,-0.060260542916752535,0.010278729201431589
3445,8.0,298.83934,818.88136,0.0,0.0,0.0,-0.03493623995093983,0.0,0.0,-0.07425017901942213,-0.06475994686030914,-0.1099093560397089,-0.3333455533611447,-0.08297041912279282,0.014048246541453986
3446,8.0,299.05451,688.95175,0.0,0.0,0.0,-0.03494638109461209,0.0,0.0,-0.06240499860064384,-0.08311685605374501,-0.06390227219391324,-0.3285099793789107,-0.09742484621858372,-0.015916102173296986
3447,8.0,298.69509,643.01235,0.0,0.0,0.0,-0.03495652223828435,0.0,0.0,-0.05182885820336004,-0.055771168122685746,-0.08785967205557452,-0.31660557753153773,-0.10895900850591689,-0.005445477588426796
3448,8.0,299.43944,627.88617,0.0,0.0,0.0,-0.034966663381956614,0.0,0.0,-0.045950962962506954,-0.08490268908999302,-0.060008064296584854,-0.3368392599709467,-0.08172931238005512,-0.023941851538876777
3449,8.0,299.22844,1124.1908,0.0,0.0,0.0,-0.034976804525628874,0.0,0.0,-0.10827028214794489,-0.11343033934220288,-0.12002532079807689,-0.3549667500899907,-0.07028211126930434,-0.003238128254928377
3450,8.0,299.45457999999996,1107.156,0.0,0.0,0.0,-0.034986945669301134,0.0,0.0,-0.1069251622426919,-0.07952134415339562,-0.15010125874634087,-0.37069037527429166,-0.059794229008730944,0.026397546242734975
3451,8.0,299.85739,252.6337,0.0,0.0,0.0,-0.034997086812973394,0.0,0.0,0.024926818788835476,-0.06332818292575504,-0.038392973412841466,-0.34997591579493365,-0.07081110178876164,-0.02072188356284068
3452,8.0,300.59413,337.10852,0.0,0.0,0.0,-0.03500722795664565,0.0,0.0,-0.0025300005893416177,-0.049721256452105955,-0.05022131564145795,-0.35329835274033267,-0.07229034662300172,-0.02694760121852118
3453,8.0,300.38494,1198.0715,0.0,0.0,0.0,-0.03501736910031792,0.0,0.0,-0.1129245856872889,-0.09819869267770641,-0.15306054685589984,-0.3113505281404047,-0.07991978651671883,-0.01981118653196188
3454,8.0,300.08737,993.5437800000001,0.0,0.0,0.0,-0.03502751024399018,0.0,0.0,-0.13124438054281187,-0.0988344838107041,-0.07193363699154723,-0.3085901815554797,-0.08524585258086062,-0.015946102482257783
3455,8.0,299.26691,370.04124,0.0,0.0,0.0,-0.03503765138766244,0.0,0.0,-0.026951644086420177,-0.03918787115604176,-0.04634378280102525,-0.3054254367231437,-0.08592545664818231,0.0019958463447246983
3456,8.0,298.33396,461.3938,0.0,0.0,0.0,-0.0350477925313347,0.0,0.0,-0.04536766527743996,-0.06262639172099364,-0.03225813821163037,-0.3204953940029327,-0.07999995283813063,0.004994942922887485
3457,8.0,299.40972999999997,786.51848,0.0,0.0,0.0,-0.03505793367500696,0.0,0.0,-0.05227215005585954,-0.07262396428467723,-0.11418585914676689,-0.3305336222136287,-0.07272819732246423,0.008283000495043503
3458,8.0,300.98457,1029.5502,0.0,0.0,0.0,-0.035068074818679226,0.0,0.0,-0.07404786945145572,-0.12826388510865988,-0.11064580647739089,-0.3539804321776487,-0.07561610804197884,-0.02826293967683497
3459,8.0,301.10592,1033.4336,0.0,0.0,0.0,-0.035078215962351486,0.0,0.0,-0.08228689276433401,-0.12854373465377888,-0.10330739329064591,-0.3425031861749327,-0.08849873801289541,-0.03286046979982587
3460,8.0,300.5742,606.81309,0.0,0.0,0.0,-0.035088357106023746,0.0,0.0,-0.08453987766643632,-0.04109769256727646,-0.05881845801667985,-0.36938517742297866,-0.05908393764888064,-0.022498757441704476
3461,8.0,301.40358,257.06124,0.0,0.0,0.0,-0.035098498249696006,0.0,0.0,-0.008286434703607432,-0.05777444665689394,-0.012079316172385687,-0.34896103436227266,-0.05597502391030475,-0.01850912975595888
3462,8.0,301.30338,809.8495,0.0,0.0,0.0,-0.035108639393368266,0.0,0.0,-0.07357754205978802,-0.0996985733634831,-0.07289790962146352,-0.35699699931536066,-0.05230020999087886,-0.023979255666318276
3463,8.0,300.35122,1168.7263,0.0,0.0,0.0,-0.03511878053704053,0.0,0.0,-0.0994677185136995,-0.10064408465454781,-0.15515181400229186,-0.35612128778393465,-0.09297858825602222,0.01990102736532848
3464,8.0,299.96412999999995,413.54882000000003,0.0,0.0,0.0,-0.03512892168071279,0.0,0.0,0.004927810341487015,-0.09071322650394842,-0.03992309961410317,-0.3577101855307467,-0.07700698429524763,-0.03784999294925346
3465,8.0,299.03267999999997,206.35807,0.0,0.0,0.0,-0.03513906282438505,0.0,0.0,-0.018648511426464783,-0.019384072230558984,-0.024695115848718176,-0.3291237353619837,-0.09097682250421332,-0.005171427076280115
3466,8.0,299.38649,1093.1331,0.0,0.0,0.0,-0.03514920396805731,0.0,0.0,-0.14127164538742587,-0.08965196861421042,-0.1013615579311069,-0.3424122773759607,-0.06958658498991123,0.001086766359680489
3467,8.0,299.65544,1302.2477,0.0,0.0,0.0,-0.03515934511172957,0.0,0.0,-0.11412531745329188,-0.15396373773003785,-0.1277617386241019,-0.3471241639184877,-0.088917854731259,-0.002399686696630638
3468,8.0,299.53654,781.1338900000001,0.0,0.0,0.0,-0.03516948625540184,0.0,0.0,-0.05160792408530555,-0.07162349025518813,-0.11421378431952288,-0.3565238824461676,-0.07587014098779993,-0.005052344959602625
3469,8.0,299.79892,847.21434,0.0,0.0,0.0,-0.0351796273990741,0.0,0.0,-0.04484333672169276,-0.10919788221699189,-0.1034907814262449,-0.3327227085246747,-0.08070737771344802,0.006108872896548813
3470,8.0,299.70416,666.47139,0.0,0.0,0.0,-0.03518976854274636,0.0,0.0,-0.023564096702845278,-0.0901684850116866,-0.08885807905485961,-0.33269754952469166,-0.06740373725973094,-0.024771585833765177
3471,8.0,299.93246,587.5058,0.0,0.0,0.0,-0.03519990968641862,0.0,0.0,-0.05204603417679365,-0.06094091097464965,-0.06560014600223034,-0.3195027736749687,-0.1019064939673879,-0.018861526994987783
3472,8.0,300.20347000000004,929.0441199999999,0.0,0.0,0.0,-0.03521005083009088,0.0,0.0,-0.1025931431626549,-0.11111364431356288,-0.06869942373235524,-0.3364479022523227,-0.08149223414815733,-0.022661663739782078
3473,8.0,299.68127999999996,606.47009,0.0,0.0,0.0,-0.035220191973763144,0.0,0.0,-0.06607529342462375,-0.035975384005493966,-0.08230108637173483,-0.31428535639254973,-0.09936934307474059,0.0011806005130161987
3474,8.0,299.9999,247.7008,0.0,0.0,0.0,-0.035230333117435404,0.0,0.0,-0.0037938404086728965,-0.05150685948058125,-0.01999415923501988,-0.33528304967236067,-0.07818779657753472,-0.03227226291802437
3475,8.0,301.89909,983.2676,0.0,0.0,0.0,-0.035240474261107664,0.0,0.0,-0.08273011166282633,-0.10889755488735191,-0.10726112557834891,-0.3486934248783617,-0.09753320115777751,-0.014255303186138884
3476,8.0,301.16308,1393.7743,0.0,0.0,0.0,-0.035250615404779924,0.0,0.0,-0.13725121084563985,-0.11381059183973088,-0.17261077183785684,-0.3315740882113147,-0.07946512498484723,0.010696576317419888
3477,8.0,301.41898,787.57265,0.0,0.0,0.0,-0.035260756548452184,0.0,0.0,-0.06881622715088284,-0.1191511190092999,-0.05143507881699704,-0.33006463940484365,-0.06654022525950894,-0.004725171771213146
3478,8.0,300.66578,498.17978,0.0,0.0,0.0,-0.03527089769212445,0.0,0.0,-0.03578466905842187,-0.056048494675055745,-0.05960104781091544,-0.34573243450863467,-0.05636145014069204,-0.0037850187493272663
3479,8.0,300.48964,818.99087,0.0,0.0,0.0,-0.03528103883579671,0.0,0.0,-0.06741164162376104,-0.06840203280150503,-0.1131391008659599,-0.3393621513949367,-0.10040213572941932,-5.1960407450592955e-06
3480,8.0,299.88302000000004,712.60949,0.0,0.0,0.0,-0.03529117997946897,0.0,0.0,-0.04157000592914016,-0.10040621304782171,-0.07463927313732273,-0.36174877751432466,-0.053249452068811744,-0.02232871380992248
3481,8.0,300.20351,521.3799700000001,0.0,0.0,0.0,-0.03530132112314123,0.0,0.0,-0.030773079348316475,-0.03467025606843787,-0.09304315660539461,-0.3474977289653557,-0.07118890526079794,-0.01105667223070859
3482,8.0,298.91874,734.8766,0.0,0.0,0.0,-0.03531146226681349,0.0,0.0,-0.08060448013929283,-0.08937746193686873,-0.05340219546838635,-0.36044376204802964,-0.09183862717801682,-0.025713832433007677
3483,8.0,299.63861,640.9964200000001,0.0,0.0,0.0,-0.035321603410485757,0.0,0.0,-0.06877610751317334,-0.06395352238397123,-0.06211727812874804,-0.3353032944093587,-0.12245646242551189,-0.02106091501980048
3484,8.0,299.48157000000003,654.69643,0.0,0.0,0.0,-0.035331744554158016,0.0,0.0,-0.05878528826140624,-0.06938800722206313,-0.07083807247992344,-0.3384775232626307,-0.09302390586674472,-0.015597227300576484
3485,8.0,300.99208,1301.9589,0.0,0.0,0.0,-0.035341885697830276,0.0,0.0,-0.13525762100888786,-0.13019227230147687,-0.13031311250840288,-0.3139571950826627,-0.06202139123203474,0.02206190074059008
3486,8.0,299.54194,1145.5132,0.0,0.0,0.0,-0.035352026841502536,0.0,0.0,-0.11639017460681587,-0.09157130545713422,-0.14024593231119586,-0.34618480001577967,-0.06572452751825585,0.02259314878127018
3487,8.0,300.60253,471.38415,0.0,0.0,0.0,-0.035362167985174796,0.0,0.0,-0.038377513242815665,-0.07745897996610614,-0.027452517928852577,-0.3218531795344357,-0.08402373819799733,-0.0035703113571122964
3488,8.0,300.76012000000003,682.74117,0.0,0.0,0.0,-0.03537230912884706,0.0,0.0,-0.057732270121481445,-0.0895274107926675,-0.06027658570558585,-0.34078534222039464,-0.07731618668251351,-0.024321825392627276
3489,8.0,300.51635,1038.4326,0.0,0.0,0.0,-0.03538245027251932,0.0,0.0,-0.11395933695441089,-0.07262121128415552,-0.12907703857891187,-0.31462971957153574,-0.06624306636293165,0.013905914286656888
3490,8.0,298.58522,640.691,0.0,0.0,0.0,-0.03539259141619158,0.0,0.0,-0.034150101089852565,-0.09890343142700872,-0.06170053545536874,-0.36398164636219166,-0.0894515548371811,-0.05129523105144515
3491,8.0,299.9486,635.38187,0.0,0.0,0.0,-0.03540273255986384,0.0,0.0,-0.02857879810400777,-0.07792599402994684,-0.0866354328872515,-0.34284667795883267,-0.1186816599729679,-0.006140308068976224
3492,8.0,299.08747,715.82672,0.0,0.0,0.0,-0.0354128737035361,0.0,0.0,-0.057431556743553346,-0.07193099342203634,-0.0882308975079616,-0.34975683085831166,-0.08973806548845752,-0.007193072288425962
3493,8.0,299.19091000000003,566.52152,0.0,0.0,0.0,-0.03542301484720837,0.0,0.0,-0.04150380422060656,-0.08441654283776412,-0.04628804897927476,-0.3139214172216317,-0.04911886913515495,-0.012899380008319687
3494,8.0,300.54233999999997,815.2964900000001,0.0,0.0,0.0,-0.03543315599088063,0.0,0.0,-0.08996848058769773,-0.07106426840574724,-0.08679702601319951,-0.36557013880896366,-0.07630273291924343,-0.0038631136835596365
3495,8.0,300.33957999999996,960.2887,0.0,0.0,0.0,-0.03544329713455289,0.0,0.0,-0.1065946501925729,-0.1032828625057249,-0.08202627673261323,-0.3608180465024687,-0.10020551961376481,0.0020934698507843884
3496,8.0,300.09762,401.5952,0.0,0.0,0.0,-0.03545343827822515,0.0,0.0,-0.0037690985637560664,-0.06787384984237743,-0.050431964257747354,-0.3446492600192337,-0.08121140276369142,-0.027068313755934575
3497,8.0,299.87897999999996,494.90890999999993,0.0,0.0,0.0,-0.03546357942189741,0.0,0.0,-0.030257431306175968,-0.045782957989926154,-0.07439956146841502,-0.3166212525105847,-0.08019924697379942,0.0002133997929609198
3498,8.0,300.23843,1069.5472,0.0,0.0,0.0,-0.035473720565569675,0.0,0.0,-0.11339511876872688,-0.1052977001970739,-0.1064228232406149,-0.3444755484220897,-0.08973516151367092,-0.016738660630977186
3499,8.0,300.35568,809.30507,0.0,0.0,0.0,-0.035483861709241935,0.0,0.0,-0.09523506380471901,-0.06364058110383634,-0.08713288802384651,-0.36320842507838064,-0.1018621541430119,0.005333548206855224
3500,8.0,301.49565,294.35856,0.0,0.0,0.0,-0.035494002852914194,0.0,0.0,-0.009154847794563131,-0.04428416046850636,-0.03603864424898726,-0.3303579449112907,-0.08269793793240102,-0.03876490206079796
3501,8.0,301.12599,674.51258,0.0,0.0,0.0,-0.035504143996586454,0.0,0.0,-0.06785898445016034,-0.06403732829974224,-0.07313867000422472,-0.33126473282328367,-0.06350930138113003,-0.002994344029893747
3502,8.0,299.97457,935.7773599999999,0.0,0.0,0.0,-0.035514285140258714,0.0,0.0,-0.05298670517213065,-0.07974327125654812,-0.15172297566389187,-0.3201890175701957,-0.07955780899799442,-0.00956318951003832
3503,8.0,299.6054,694.5541599999999,0.0,0.0,0.0,-0.03552442628393098,0.0,0.0,-0.05677618151262285,-0.1001993246026534,-0.054151616520598446,-0.36568900317819464,-0.08758661128612552,-0.006511762718535943
3504,8.0,299.75211,787.21866,0.0,0.0,0.0,-0.03553456742760324,0.0,0.0,-0.06705445373825933,-0.07960832964798042,-0.09263203341706991,-0.34547927397114964,-0.07204916574144903,0.0024850885826341474
3505,8.0,299.48961,774.73532,0.0,0.0,0.0,-0.0355447085712755,0.0,0.0,-0.11486478737627188,-0.05750675712622504,-0.06312864966306264,-0.34162134448040166,-0.06005579141604514,0.017021362475127682
3506,8.0,298.84015,510.23214,0.0,0.0,0.0,-0.03555484971494776,0.0,0.0,-0.05855526022370425,-0.07954466309119702,-0.016997907761812883,-0.3496059883159247,-0.07902508769166892,-0.042317048883367556
3507,8.0,300.12737000000004,953.15536,0.0,0.0,0.0,-0.03556499085862002,0.0,0.0,-0.09939271470154722,-0.0879979918399756,-0.1023447246356379,-0.3694116029855867,-0.07625419823945342,-0.016917028112330684
3508,8.0,300.04843999999997,1163.413,0.0,0.0,0.0,-0.03557513200229229,0.0,0.0,-0.07421597068279603,-0.13169948182522687,-0.14773305008261686,-0.34985977706847166,-0.08461945224978971,-0.0018264197822535982
3509,8.0,300.55507,518.61601,0.0,0.0,0.0,-0.03558527314596455,0.0,0.0,-0.02001211200029168,-0.07388364187524772,-0.06375056433594084,-0.3151541778232957,-0.08511673006761722,-0.014234173881803588
3510,8.0,300.86936000000003,400.9762,0.0,0.0,0.0,-0.035595414289636806,0.0,0.0,-0.029209915114294174,-0.04322309914928776,-0.04945373714745386,-0.3115821469807637,-0.1059789994318129,-0.008453555311500952
3511,8.0,300.19808,901.0836,0.0,0.0,0.0,-0.035605555433309066,0.0,0.0,-0.10661488479706989,-0.09660612392578209,-0.07068590257990544,-0.3373841757422257,-0.09849289592374201,-0.017331665252002183
3512,8.0,299.68465,765.8479,0.0,0.0,0.0,-0.035615696576981326,0.0,0.0,-0.06346572858707974,-0.07675620590874772,-0.09257670388210931,-0.3527603979972407,-0.05928998408321585,-0.015765495718183285
3513,8.0,299.64982000000003,679.99057,0.0,0.0,0.0,-0.03562583772065359,0.0,0.0,-0.033564470903055366,-0.09344518992707222,-0.07969049409858943,-0.3655357491005697,-0.046663151126544455,-0.03215469550892137
3514,8.0,300.1741,1023.2201,0.0,0.0,0.0,-0.03563597886432585,0.0,0.0,-0.05612035234564754,-0.1115841267324959,-0.14332887746295886,-0.35458277896459567,-0.08036472287413061,0.004311136096801006
3515,8.0,300.69171,747.05969,0.0,0.0,0.0,-0.03564612000799811,0.0,0.0,-0.08668972586735982,-0.050000118078377453,-0.09039764672055312,-0.36999521477818464,-0.07761282679503963,0.026052485947680174
3516,8.0,300.34083,799.35523,0.0,0.0,0.0,-0.03565626115167037,0.0,0.0,-0.06109700620555504,-0.0949325620403644,-0.08695446380048742,-0.34593381796600964,-0.08555325036969841,0.00015638536493903384
3517,8.0,300.55341,1312.9047,0.0,0.0,0.0,-0.03566640229534263,0.0,0.0,-0.17776343230638483,-0.09216784328125792,-0.12915896998199788,-0.3467158038631857,-0.07713882738500952,0.03095684643945287
3518,8.0,301.09157999999996,1054.0386,0.0,0.0,0.0,-0.0356765434390149,0.0,0.0,-0.099755810848382,-0.09026419661613261,-0.13038140556514288,-0.3341105267891417,-0.09359167549402922,-0.006463560992728804
3519,8.0,300.50372999999996,451.01712000000003,0.0,0.0,0.0,-0.03568668458268716,0.0,0.0,-0.008517016583814091,-0.0961682985575721,-0.032412627441127266,-0.3361890979117807,-0.06852608602449814,-0.016176649304010984
3520,8.0,299.5201,610.20115,0.0,0.0,0.0,-0.03569682572635942,0.0,0.0,-0.022548533352866978,-0.06312193586790003,-0.09981544466976741,-0.3143727694786767,-0.06773368391629414,-0.03407118005281367
3521,8.0,299.32434,896.92032,0.0,0.0,0.0,-0.03570696687003168,0.0,0.0,-0.10539290517646989,-0.08811162885194072,-0.07913684715119872,-0.3462379652485267,-0.06733305495925514,0.008723283298721032
3522,8.0,298.16704,522.41246,0.0,0.0,0.0,-0.03571710801370394,0.0,0.0,-0.04485707234004836,-0.06680099226549464,-0.047142278595330656,-0.3278756746838097,-0.13805401903237088,-0.03623149411402007
3523,8.0,299.51177,546.9609,0.0,0.0,0.0,-0.035727249157376205,0.0,0.0,-0.08046792948956633,-0.05385661280698385,-0.03193791470302677,-0.3395626330597227,-0.12423384495592588,-0.008124543682130033
3524,8.0,300.16885,718.53065,0.0,0.0,0.0,-0.035737390301048465,0.0,0.0,-0.042814298330192256,-0.09824288355431772,-0.07735819501840943,-0.3246752127854487,-0.09054653976974772,-0.015045949331919587
3525,8.0,301.14504,703.8277,0.0,0.0,0.0,-0.035747531444720725,0.0,0.0,-0.04301382450013396,-0.07866412443629463,-0.0922680993124024,-0.3353934838007596,-0.052807730753967254,-0.023975643429711774
3526,8.0,299.98815,837.3357599999999,0.0,0.0,0.0,-0.035757672588392984,0.0,0.0,-0.02123386363961918,-0.11208300041923089,-0.1212122926277219,-0.36998239716441966,-0.058239452459036445,-0.04410874154494386
3527,8.0,300.60627,1056.3137,0.0,0.0,0.0,-0.035767813732065244,0.0,0.0,-0.1159716921830149,-0.1063908146699559,-0.098730492939691,-0.36989952343874066,-0.048317699373835656,0.001140609558069399
3528,8.0,300.37699,456.45493,0.0,0.0,0.0,-0.03577795487573751,0.0,0.0,-0.03189308953185287,-0.06012512204088754,-0.046732688454407256,-0.35453994888286866,-0.06199502443793254,0.0028697054523178773
3529,8.0,299.42099,216.54716000000002,0.0,0.0,0.0,-0.03578809601940977,0.0,0.0,-0.038404976373526065,-0.040854363595511756,0.013434411524873189,-0.34666998469366367,-0.07702759785528203,-0.018291985193278383
3530,8.0,300.13471,893.5183199999999,0.0,0.0,0.0,-0.03579823716308203,0.0,0.0,-0.07768876989003463,-0.07902772112867883,-0.11489076710883588,-0.36339578515437165,-0.13274375764328888,0.005777219318867155
3531,8.0,299.65346,857.50592,0.0,0.0,0.0,-0.03580837830675429,0.0,0.0,-0.06726104327464814,-0.09029957728312442,-0.1030997682126549,-0.36572863138960565,-0.1045592739216969,-0.016397071730764986
3532,8.0,299.2483,339.18445,0.0,0.0,0.0,-0.03581851945042655,0.0,0.0,0.006557924974541804,-0.07319681434796313,-0.03646471490278717,-0.33434801234757966,-0.09365390120917041,-0.044116975215256454
3533,8.0,300.02356000000003,638.53642,0.0,0.0,0.0,-0.03582866059409882,0.0,0.0,-0.09561014872673701,-0.036360251857227466,-0.062128726841627936,-0.3268833785958777,-0.06772890542882253,0.03183727059709397
3534,8.0,300.39957000000004,879.85136,0.0,0.0,0.0,-0.03583880173777108,0.0,0.0,-0.12431239210367788,-0.07369585623421472,-0.06944459521364793,-0.32115243603027765,-0.10405378371180891,-0.0027501382928175173
3535,8.0,299.97112000000004,889.34282,0.0,0.0,0.0,-0.03584894288144334,0.0,0.0,-0.1083075494866229,-0.08990590226152172,-0.07212455458863933,-0.3530114408420167,-0.07433752219129222,0.01969895692438568
3536,8.0,300.28025,1050.444,0.0,0.0,0.0,-0.035859084025115597,0.0,0.0,-0.07362397829862094,-0.11653929462403288,-0.12914546335816487,-0.32935393565220267,-0.06166284761789924,-0.03213363713209307
3537,8.0,299.70178,834.8125200000001,0.0,0.0,0.0,-0.035869225168787856,0.0,0.0,-0.04880943471361616,-0.10168275821280691,-0.1032699739644529,-0.36803374496960267,-0.051170653978150356,-0.01079868051674679
3538,8.0,300.015,424.98425,0.0,0.0,0.0,-0.03587936631246012,0.0,0.0,-0.020398292010904682,-0.03326211605996527,-0.07552419004590723,-0.35005902256813565,-0.07595425189185102,-0.04587514044427386
3539,8.0,301.31487999999996,770.1752299999999,0.0,0.0,0.0,-0.03588950745613238,0.0,0.0,-0.08681780979925073,-0.0957481999998616,-0.051548028845394354,-0.3891100968546766,-0.06692684198091503,-0.029304288215358076
3540,8.0,299.8626,875.35497,0.0,0.0,0.0,-0.03589964859980464,0.0,0.0,-0.1125007735679619,-0.08321738667566662,-0.07036789606252064,-0.34696642114291965,-0.06655338940480814,0.01002176796282149
3541,8.0,300.69731,415.01808,0.0,0.0,0.0,-0.0359097897434769,0.0,0.0,-0.04401192651113896,-0.046761143556965555,-0.03538206223718767,-0.3513964620376307,-0.07226448138769903,-0.003998934691889127
3542,8.0,299.71287,379.35992999999996,0.0,0.0,0.0,-0.03591993088714916,0.0,0.0,0.016035691016349485,-0.07678496295983582,-0.054566674159061454,-0.33167404533367967,-0.1081509415511669,-0.013504082601749188
3543,8.0,300.10401,995.58561,0.0,0.0,0.0,-0.03593007203082143,0.0,0.0,-0.08552183151059761,-0.08115062295644293,-0.13596071525327788,-0.34841647322852864,-0.1138785707889399,-0.019760183574928283
3544,8.0,300.71697,1033.7719,0.0,0.0,0.0,-0.03594021317449369,0.0,0.0,-0.06758442508381343,-0.12409543499226587,-0.12256098930582787,-0.35414969560685367,-0.07578375939027472,-0.0076745560703197135
3545,8.0,299.21196000000003,461.37656,0.0,0.0,0.0,-0.03595035431816595,0.0,0.0,-0.04267008446995946,-0.07211217165916724,-0.025464698551420077,-0.3494105729016387,-0.05446531672505825,-0.03730624950834017
3546,8.0,298.92727,867.8190699999999,0.0,0.0,0.0,-0.03596049546183821,0.0,0.0,-0.1180824137313269,-0.058567042295867046,-0.0871458687708776,-0.35678396348183566,-0.0948743406896184,0.03542231157090997
3547,8.0,299.87725,996.59429,0.0,0.0,0.0,-0.03597063660551047,0.0,0.0,-0.12242853725275588,-0.10629108046261289,-0.07422017161771063,-0.3420391074966317,-0.08544567867283191,-0.01189205336840429
3548,8.0,299.47389,502.05817,0.0,0.0,0.0,-0.035980777749182735,0.0,0.0,-0.004957106846928355,-0.06024899794511314,-0.08740704209015342,-0.3331352431703887,-0.08588846795328182,-0.013292110680829188
3549,8.0,298.92816,862.1253,0.0,0.0,0.0,-0.035990918892854995,0.0,0.0,-0.054149343800624146,-0.08063688286424073,-0.12727833726639387,-0.36836345655214264,-0.08314559790608161,0.016637082308452185
3550,8.0,299.61616000000004,927.74415,0.0,0.0,0.0,-0.036001060036527255,0.0,0.0,-0.060393424587866944,-0.09266691353851231,-0.1289507166889449,-0.36273005957366966,-0.1103155680047989,0.005892076891902714
3551,8.0,299.42581,448.95434000000006,0.0,0.0,0.0,-0.036011201180199515,0.0,0.0,-0.059922107250851536,-0.04338667317918126,-0.033162128540097265,-0.3609588072063607,-0.07968302847185262,-0.0006885987999169103
3552,8.0,300.8567,881.1795800000001,0.0,0.0,0.0,-0.036021342323871774,0.0,0.0,-0.08524432662621001,-0.1058649986630619,-0.07674726296336512,-0.30560934161629366,-0.03584216796184657,-0.008288420065853373
3553,8.0,300.0976,1040.8677,0.0,0.0,0.0,-0.03603148346754404,0.0,0.0,-0.11482091364694189,-0.08620841281810791,-0.11536847400098188,-0.3305583860460727,-0.06106286170368524,0.01040302864419899
3554,8.0,300.18071000000003,559.71208,0.0,0.0,0.0,-0.0360416246112163,0.0,0.0,0.010165327263489688,-0.08343101222074982,-0.09687281236535221,-0.3547279979689277,-0.1067318442561129,-0.02051373362129788
3555,8.0,300.28655,716.16993,0.0,0.0,0.0,-0.03605176575488856,0.0,0.0,-0.028088286770348074,-0.11590666179159688,-0.07370282435515244,-0.34310143943147564,-0.12491571161072089,-0.03111361244192447
3556,8.0,299.47533,1037.8271,0.0,0.0,0.0,-0.03606190689856082,0.0,0.0,-0.07085253966485124,-0.08281424688487982,-0.16180674946658286,-0.3161196329160787,-0.09111072249167822,-0.0023696102925873275
3557,8.0,300.04962,796.86578,0.0,0.0,0.0,-0.03607204804223308,0.0,0.0,-0.08981752557454961,-0.1067932472121729,-0.04561652963450096,-0.3101508400220047,-0.08077122868174963,-0.02869863114033437
3558,8.0,299.17659,560.71555,0.0,0.0,0.0,-0.03608218918590535,0.0,0.0,-0.06694148445811014,-0.061775417677509034,-0.04172662298384706,-0.3670529290053037,-0.09106896240205682,0.004062350063972736
3559,8.0,298.14531,912.5795300000001,0.0,0.0,0.0,-0.03609233032957761,0.0,0.0,-0.097167311480417,-0.09522100495958151,-0.08501307458238723,-0.36990302928408664,-0.0949881104373466,-0.016701594929069086
3560,8.0,299.4683,848.54844,0.0,0.0,0.0,-0.03610247147324987,0.0,0.0,-0.05430400933563845,-0.11749743405109389,-0.08613609715847091,-0.36081802623746667,-0.07321092385560563,-0.007905054154743104
3561,8.0,299.95851,429.13209000000006,0.0,0.0,0.0,-0.03611261261692213,0.0,0.0,0.012559338341010189,-0.07129937789270073,-0.07170539936677194,-0.35589441095404367,-0.08182470481071961,-0.04615656052704786
3562,8.0,300.08082,908.0998400000001,0.0,0.0,0.0,-0.03612275376059439,0.0,0.0,-0.07248455221666833,-0.1023939280604939,-0.1011611917768323,-0.3836103576968946,-0.09629159792249081,0.0059333720010532245
3563,8.0,300.91531000000003,1029.3158,0.0,0.0,0.0,-0.03613289490426665,0.0,0.0,-0.08786081601493742,-0.13084251542065087,-0.09418296974888542,-0.3658899610705276,-0.09039566784310782,-0.006976638824665644
3564,8.0,300.48368999999997,533.1141,0.0,0.0,0.0,-0.03614303604793891,0.0,0.0,-0.05989411013733844,-0.06499003771951734,-0.03716922769731717,-0.33784443446764967,-0.04538058320296486,-0.0035541006727374262
3565,8.0,300.2221,842.6510199999999,0.0,0.0,0.0,-0.03615317719161117,0.0,0.0,-0.06924359577806084,-0.0939187252685565,-0.0929825470241629,-0.3294598304201537,-0.06698974454712303,0.004471466713124405
3566,8.0,300.20325,1098.1791,0.0,0.0,0.0,-0.03616331833528343,0.0,0.0,-0.09269610932689372,-0.1034954727742079,-0.13762744074027086,-0.35431307205297763,-0.08022636255972553,0.002011700263739358
3567,8.0,298.76819,609.26899,0.0,0.0,0.0,-0.03617345947895569,0.0,0.0,-0.035297664583358264,-0.06844559748955453,-0.08145929845365682,-0.35996009724529565,-0.09679773559919272,-0.017885953586706183
3568,8.0,299.65043,631.3321599999999,0.0,0.0,0.0,-0.03618360062262796,0.0,0.0,-0.04161261816209566,-0.07696321594392803,-0.07333337715669083,-0.34400330294798265,-0.08975269580665142,-0.027087259506304376
3569,8.0,299.2421,900.11312,0.0,0.0,0.0,-0.03619374176630021,0.0,0.0,-0.12730252354628088,-0.07457404212238493,-0.07173534799997763,-0.32521142473836867,-0.1024702967205309,0.02002858339391728
3570,8.0,299.1814,538.59533,0.0,0.0,0.0,-0.03620388290997247,0.0,0.0,-0.07273431431331794,-0.048742263324736856,-0.04224295395655496,-0.35961122510336463,-0.1037188133612499,-0.012562896875361388
3571,8.0,300.73688,651.09802,0.0,0.0,0.0,-0.03621402405364474,0.0,0.0,-0.06996827123633073,-0.07074038706428264,-0.05720888186182704,-0.35552685448026866,-0.07291410439781183,-0.01244875830459679
3572,8.0,299.8322,978.94566,0.0,0.0,0.0,-0.036224165197317,0.0,0.0,-0.06306156136069153,-0.10474947109796791,-0.1297640018817099,-0.38746576419489365,-0.04592027161697795,-0.021586065321378776
3573,8.0,300.42842,580.05108,0.0,0.0,0.0,-0.036234306340989265,0.0,0.0,-0.02143758162522458,-0.06943421345312334,-0.08544924835293423,-0.35834845203373866,-0.06459558350858774,-0.02071474521588618
3574,8.0,301.33972,612.03207,0.0,0.0,0.0,-0.036244447484661525,0.0,0.0,-0.009470232324664162,-0.08156895541922912,-0.0950032777780935,-0.36967552423913363,-0.08138678825000063,-0.028666768477689772
3575,8.0,300.58558999999997,1048.5005,0.0,0.0,0.0,-0.036254588628333785,0.0,0.0,-0.13483471068214986,-0.09249701378824451,-0.0913862343131191,-0.3255896406031957,-0.09563583664327222,0.0030373046182336273
3576,8.0,299.60334,697.23438,0.0,0.0,0.0,-0.036264729772006045,0.0,0.0,-0.08905699727474133,-0.057833366136958844,-0.06505147715258094,-0.33647754995024864,-0.07492221917474734,0.012369613339285788
3577,8.0,300.78606,297.50587,0.0,0.0,0.0,-0.036274870915678305,0.0,0.0,-0.028536079479791768,-0.04072005121525617,-0.02117822607662818,-0.34976080279870364,-0.09264994565233772,-0.016021320090181184
3578,8.0,299.94882,703.0201400000001,0.0,0.0,0.0,-0.03628501205935057,0.0,0.0,-0.04154504147317636,-0.07524308508391434,-0.09691244260326341,-0.36126576119165466,-0.09465887204260331,-0.004610641579284896
3579,8.0,300.48965,1088.2931,0.0,0.0,0.0,-0.03629515320302283,0.0,0.0,-0.10845753076642489,-0.1071768940975359,-0.11517949272483088,-0.3402915449166607,-0.09043748163498451,-0.04480483625764305
3580,8.0,300.42061,759.30142,0.0,0.0,0.0,-0.03630529434669509,0.0,0.0,-0.049823295803426454,-0.09402893445543331,-0.08695644166468261,-0.3483850928729317,-0.05828181239271704,-0.025217349003258577
3581,8.0,300.15181,690.24077,0.0,0.0,0.0,-0.03631543549036735,0.0,0.0,-0.09347640208315261,-0.08007234347827502,-0.036267212193295165,-0.3366915686363707,-0.11577522298862489,-0.017553375519633284
3582,8.0,299.3722,959.8008800000001,0.0,0.0,0.0,-0.03632557663403961,0.0,0.0,-0.08081626156919401,-0.08252660544649182,-0.12841263022333987,-0.3714965373188537,-0.10093675080018172,0.03649518941279476
3583,8.0,299.3807,574.8871,0.0,0.0,0.0,-0.03633571777771188,0.0,0.0,-0.034542562237835465,-0.07776146146545873,-0.062447298752568534,-0.3277112140600787,-0.07523756287086933,-0.029967754248337072
3584,8.0,299.32055,689.81623,0.0,0.0,0.0,-0.03634585892138414,0.0,0.0,0.0060021906306200945,-0.09252833841508601,-0.12316076243752087,-0.3462749691421787,-0.05554245528361354,-0.008054202745612922
3585,8.0,299.61981000000003,935.92705,0.0,0.0,0.0,-0.0363560000650564,0.0,0.0,-0.08305026221742272,-0.09277012420694841,-0.1086780646506899,-0.35625837038996366,-0.07524599513820152,-0.005443124720369584
3586,8.0,300.31,383.85357999999997,0.0,0.0,0.0,-0.03636614120872866,0.0,0.0,-0.029390877529153772,-0.021621718552647478,-0.06566930741430603,-0.3690889537562437,-0.10602172818852991,-0.001043669691852179
3587,8.0,301.05024,511.22357999999997,0.0,0.0,0.0,-0.03637628235240092,0.0,0.0,-0.0935536168070231,-0.047057000427164354,-0.014788585833019785,-0.3036627260541777,-0.1059754834539659,-0.003415784130736647
3588,8.0,300.65932999999995,1231.1893,0.0,0.0,0.0,-0.036386423496073184,0.0,0.0,-0.14943636403072086,-0.0997536029764141,-0.1250608292900429,-0.31184356550656367,-0.08694704073025482,0.007218055388191603
3589,8.0,300.60204,937.25217,0.0,0.0,0.0,-0.03639656463974544,0.0,0.0,-0.11646927904212288,-0.06222661693378895,-0.10620535950415289,-0.3284310573286217,-0.12060822331560489,0.01150441731739759
3590,8.0,300.09709,592.73448,0.0,0.0,0.0,-0.0364067057834177,0.0,0.0,-0.0047544690872545654,-0.09368378094136931,-0.08173823100743532,-0.3867324750975236,-0.07061062012397563,-0.05145440352290425
3591,8.0,300.06777,956.23295,0.0,0.0,0.0,-0.03641684692708996,0.0,0.0,-0.07717811514438692,-0.08605652966786823,-0.12743629282448288,-0.36519846853978266,-0.052992871812239245,-0.030165745344377267
3592,8.0,298.62223,841.83209,0.0,0.0,0.0,-0.03642698807076222,0.0,0.0,-0.08402255066888012,-0.07760187761445902,-0.09427150652937331,-0.35018704671827067,-0.028707367382696573,-0.022259360893577877
3593,8.0,298.91232,344.37493,0.0,0.0,0.0,-0.03643712921443448,0.0,0.0,-0.01900626369227218,-0.05131473206286975,-0.03436038392285587,-0.36557539757698265,-0.0998771110708534,0.000986822480494296
3594,8.0,298.83352,403.30646,0.0,0.0,0.0,-0.03644727035810675,0.0,0.0,-0.03112064946386897,-0.04413237357702616,-0.047342071250048655,-0.3409980234163847,-0.1054997321345129,0.014534547820948186
3595,8.0,300.54421,832.09928,0.0,0.0,0.0,-0.03645741150177901,0.0,0.0,-0.07843310240024452,-0.07614998040041793,-0.0983543218135658,-0.32922556699703365,-0.0989160342317525,0.0095533131586636
3596,8.0,300.74037000000004,772.49192,0.0,0.0,0.0,-0.03646755264545127,0.0,0.0,-0.027966935885371677,-0.11088484230848189,-0.09596647534965372,-0.3292716698765837,-0.06327106196461764,-0.03170628573016677
3597,8.0,300.41247999999996,1030.0448,0.0,0.0,0.0,-0.03647769378912353,0.0,0.0,-0.09059219175300323,-0.11253042126588789,-0.10998528900220289,-0.3197542623497887,-0.1118123106550159,-0.03182940574981777
3598,8.0,300.5503,1282.1808,0.0,0.0,0.0,-0.036487834932795796,0.0,0.0,-0.16040294211553785,-0.11009467948299889,-0.1192533458118889,-0.3581057381047847,-0.08300235879244501,0.0015099330386937886
3599,8.0,300.19806,729.83384,0.0,0.0,0.0,-0.036497976076468056,0.0,0.0,-0.09433013723315972,-0.06573012876480863,-0.061790998424296736,-0.34809245611155065,-0.060021857670196146,-0.013208558077583187
3600,8.0,300.69881000000004,442.27029000000005,0.0,0.0,0.0,-0.036508117220140315,0.0,0.0,-0.034027460337498865,-0.04226193618392836,-0.05814972916268144,-0.36762586114184764,-0.06494183943876054,-0.01847593568268288
3601,8.0,300.34282,811.83713,0.0,0.0,0.0,-0.03651825836381257,0.0,0.0,-0.07945107019271012,-0.06857997167806623,-0.0987471750893374,-0.3886344265952316,-0.09351593504905423,0.03168680295724397
3602,8.0,299.69535,526.69687,0.0,0.0,0.0,-0.03652839950748483,0.0,0.0,-0.01185955134494659,-0.05160954528546555,-0.09663360124199391,-0.36566311463813966,-0.10585467364454292,-0.028694691623945574
3603,8.0,299.11569,298.78091,0.0,0.0,0.0,-0.0365385406511571,0.0,0.0,-0.014109133753213089,-0.041422797914861864,-0.03529000339935217,-0.3438022842606437,-0.07077491761444053,-0.006199177089186145
3604,8.0,300.13885,785.14883,0.0,0.0,0.0,-0.03654868179482936,0.0,0.0,-0.07543496729510163,-0.08682726544918391,-0.07640340640942912,-0.33841741726669866,-0.05393335231655745,-0.035371275176623064
3605,8.0,299.15452999999997,808.84559,0.0,0.0,0.0,-0.03655882293850162,0.0,0.0,-0.09666671324201181,-0.07729808699597722,-0.07190406427412864,-0.3329038472450517,-0.09644253368388701,0.03483964514065527
3606,8.0,299.39496,593.2554299999999,0.0,0.0,0.0,-0.03656896408217388,0.0,0.0,-0.02753530755477327,-0.09233763360051492,-0.060461894963374445,-0.33970949352921664,-0.08122990977676792,-0.027379026899099577
3607,8.0,300.33532,1048.5011,0.0,0.0,0.0,-0.03657910522584614,0.0,0.0,-0.10242254224331791,-0.08955519613690972,-0.12674042305330588,-0.3260600723596237,-0.08152495706013682,0.02214631967267158
3608,8.0,300.17768,1038.1642,0.0,0.0,0.0,-0.03658924636951841,0.0,0.0,-0.06805112098712272,-0.12303039767965489,-0.12449448327914887,-0.37180481866177867,-0.07180753497685194,-0.026678250970938372
3609,8.0,299.93997,390.50223,0.0,0.0,0.0,-0.03659938751319067,0.0,0.0,-0.047185931436138855,-0.06511254472285785,-0.006404449400444943,-0.3961609800605446,-0.10719643969196489,-0.021243991074368678
3610,8.0,300.49886000000004,731.63558,0.0,0.0,0.0,-0.03660952865686293,0.0,0.0,-0.053319144423939854,-0.1084644006021029,-0.06061540032702425,-0.38319273653567865,-0.11227104950528989,-0.03178617340780107
3611,8.0,300.98822,1045.8094,0.0,0.0,0.0,-0.03661966980053519,0.0,0.0,-0.1380076527077949,-0.07649590803755833,-0.1033963769144279,-0.34832949583994466,-0.05168442041485515,-0.009193635413691172
3612,8.0,300.53425,542.82666,0.0,0.0,0.0,-0.03662981094420745,0.0,0.0,-0.014627324039854485,-0.08827252182206961,-0.06210590338312544,-0.3553714827099347,-0.06849721751589903,-0.02991606836073607
3613,8.0,300.48157000000003,499.45604000000003,0.0,0.0,0.0,-0.036639952087879714,0.0,0.0,-0.015834599375003283,-0.04793876612793786,-0.08804880025299,-0.35779495403411266,-0.09229496158580351,-0.02051297571022308
3614,8.0,299.36003999999997,920.1614599999999,0.0,0.0,0.0,-0.036650093231551974,0.0,0.0,-0.05495864996024644,-0.08381435209133252,-0.14093310839651485,-0.3550440205426167,-0.09647333851342721,0.014825510693163985
3615,8.0,298.69741,794.26613,0.0,0.0,0.0,-0.036660234375224234,0.0,0.0,-0.10300107765291491,-0.08705990260589341,-0.051376088409425154,-0.29492138704397475,-0.05324654910727525,-0.02090706515111668
3616,8.0,300.01099,882.5622400000001,0.0,0.0,0.0,-0.03667037551889649,0.0,0.0,-0.08066729961899262,-0.10808232425439489,-0.07952725849422933,-0.33707497234170963,-0.08240632455362101,-0.015078970139428485
3617,8.0,300.3229,1129.4221,0.0,0.0,0.0,-0.03668051666256875,0.0,0.0,-0.13863406418461688,-0.10520018500744989,-0.0994818746308466,-0.36694635535978565,-0.1026156778448789,0.007975937889338782
3618,8.0,299.43927,808.85416,0.0,0.0,0.0,-0.03669065780624102,0.0,0.0,-0.045205644559949756,-0.1070193033094829,-0.0936465217086921,-0.36930652895021665,-0.12338735555738388,-0.010139888606479089
3619,8.0,300.05357000000004,538.7235099999999,0.0,0.0,0.0,-0.03670079894991328,0.0,0.0,-0.016135428263442785,-0.048153516380632054,-0.0994695504698803,-0.3562948271285617,-0.07670260396520763,-0.01059785941317729
3620,8.0,300.15519,1008.9039,0.0,0.0,0.0,-0.03671094009358554,0.0,0.0,-0.1009277430067927,-0.08457735170813473,-0.12117651476669089,-0.3310015512423097,-0.11403647568452388,-0.0038208965168181263
3621,8.0,299.69773,842.66347,0.0,0.0,0.0,-0.0367210812372578,0.0,0.0,-0.1037756972218639,-0.05759001690019215,-0.09478293438484732,-0.37831752420953263,-0.12177219436797988,0.0022759540659691778
3622,8.0,300.60098,131.16681,0.0,0.0,0.0,-0.03673122238093006,0.0,0.0,0.023527129286196876,-0.045008648475507756,-0.018389917841943583,-0.34878025027943066,-0.1065845278240739,-0.05510001253469785
3623,8.0,300.17501,575.68368,0.0,0.0,0.0,-0.03674136352460232,0.0,0.0,-0.052694179868260645,-0.06554165411370765,-0.05675762991654194,-0.3360206754801587,-0.04783713612965775,0.0016278284368541583
3624,8.0,299.78346,1121.6315,0.0,0.0,0.0,-0.03675150466827458,0.0,0.0,-0.09449236161392001,-0.0975871101160979,-0.14886848801217586,-0.3423271035725547,-0.04808142363601705,-0.010983989774535389
3625,8.0,299.19487000000004,689.3435400000001,0.0,0.0,0.0,-0.03676164581194684,0.0,0.0,-0.037363978419537563,-0.08395102635757122,-0.08822821746144711,-0.38843658951320664,-0.06802546144159034,-0.004718576424987235
3626,8.0,299.33999,579.53749,0.0,0.0,0.0,-0.0367717869556191,0.0,0.0,-0.025991661557427274,-0.09826321745732451,-0.05191004689412275,-0.38007359809034363,-0.08346552250590572,-0.03374800292016857
3627,8.0,299.6072,930.63131,0.0,0.0,0.0,-0.036781928099291365,0.0,0.0,-0.10834412781523291,-0.07216965536384043,-0.1023748992236159,-0.37069457012970564,-0.06251382774088443,0.0023654692407536378
3628,8.0,299.93127000000004,839.88582,0.0,0.0,0.0,-0.03679206924296363,0.0,0.0,-0.08528474314619881,-0.1105643006393469,-0.059455276585278945,-0.32568420723502867,-0.1067414397345599,-0.050449873453264855
3629,8.0,300.15743,681.31259,0.0,0.0,0.0,-0.03680221038663589,0.0,0.0,-0.06776464883935014,-0.06390268154695364,-0.07543468459832373,-0.3594955018094436,-0.11460485832811888,0.008369892871944111
3630,8.0,300.48753999999997,831.72749,0.0,0.0,0.0,-0.03681235153030815,0.0,0.0,-0.04563246704532386,-0.08539497563782791,-0.12179694806792289,-0.3524638399579727,-0.1092944753490249,-0.007874534555106054
3631,8.0,299.47206,378.70923,0.0,0.0,0.0,-0.036822492673980405,0.0,0.0,0.01070617787536749,-0.05313547359156295,-0.07268885383433134,-0.36034794911857365,-0.05399906969154324,-0.004344858580004156
3632,8.0,300.46873,347.33325,0.0,0.0,0.0,-0.036832633817652664,0.0,0.0,-0.027877704015315176,-0.020407622017825477,-0.05729530804235665,-0.3440649288190647,-0.07699418795973473,-0.047584281593702954
3633,8.0,301.01755,1224.1,0.0,0.0,0.0,-0.03684277496132494,0.0,0.0,-0.12719546354071487,-0.13268126037712086,-0.11221911030516389,-0.3688099046787036,-0.09818941434654072,-0.013617124835905589
3634,8.0,299.62515,989.5769300000001,0.0,0.0,0.0,-0.0368529161049972,0.0,0.0,-0.11837228431993489,-0.08591414979031642,-0.0965202469268067,-0.33584675110049367,-0.09173294012633632,-0.03242149439275237
3635,8.0,299.88369,483.02334,0.0,0.0,0.0,-0.03686305724866946,0.0,0.0,-0.033130678270243366,-0.06408318090651753,-0.04961317407718905,-0.3565549284292317,-0.04698799100260366,0.0020746341393754484
3636,8.0,299.33743,845.4743199999999,0.0,0.0,0.0,-0.03687319839234172,0.0,0.0,-0.07781978110146442,-0.07714625856124292,-0.1020370411102719,-0.33769016713992467,-0.08046509745553683,0.0036841667244739465
3637,8.0,298.82115,1195.4498,0.0,0.0,0.0,-0.03688333953601398,0.0,0.0,-0.1314808224536469,-0.06773425842910084,-0.16417182718749784,-0.3707915482967767,-0.08959456799604541,0.03541013433120817
3638,8.0,299.22276,745.55698,0.0,0.0,0.0,-0.036893480679686244,0.0,0.0,-0.06814543531968084,-0.09403859984813721,-0.06444667019439114,-0.34636924193148266,-0.10233082284426591,-0.025082080114908575
3639,8.0,299.88185,564.2497900000001,0.0,0.0,0.0,-0.036903621823358504,0.0,0.0,-0.048653851174011255,-0.08280418429813671,-0.040059812383845664,-0.36688724234895165,-0.06337210225133953,-0.012475694545255187
3640,8.0,299.7194,642.92812,0.0,0.0,0.0,-0.036913762967030764,0.0,0.0,-0.07534090627506852,-0.06496517256206334,-0.055128016740961655,-0.38186426432956866,-0.11236229267679489,-0.01063025504537449
3641,8.0,300.20689,615.4538200000001,0.0,0.0,0.0,-0.036923904110703024,0.0,0.0,-0.06311043750576524,-0.08934274596194251,-0.03462941094365676,-0.36866616501951766,-0.11037572466323589,-0.02116857385617558
3642,8.0,299.43742000000003,774.05455,0.0,0.0,0.0,-0.03693404525437528,0.0,0.0,-0.02889153470762247,-0.0983326311686751,-0.1080690912080889,-0.34957357444522563,-0.09566843087248901,-0.02174543436335728
3643,8.0,300.96162000000004,1042.1586,0.0,0.0,0.0,-0.03694418639804755,0.0,0.0,-0.0896541288634236,-0.1033175359241469,-0.12381851373993588,-0.33741364105513366,-0.04298014406680996,-0.012104451867616387
3644,8.0,301.03418999999997,630.2823099999999,0.0,0.0,0.0,-0.03695432754171981,0.0,0.0,-0.024093444899587875,-0.10075805502579581,-0.06673858315208533,-0.3626668530324316,-0.08655420366648482,-0.02793876347959127
3645,8.0,299.95741,596.4842,0.0,0.0,0.0,-0.03696446868539207,0.0,0.0,-0.06679887862578604,-0.07168108541737234,-0.042836339559617555,-0.3716473291987356,-0.0975188646821126,-0.04097823747323716
3646,8.0,299.37776,1132.6839,0.0,0.0,0.0,-0.03697460982906433,0.0,0.0,-0.12082890918738488,-0.13081154036509388,-0.09266717394378801,-0.3506414995206216,-0.09000342353064632,-0.006795391686527943
3647,8.0,300.1175,813.0375,0.0,0.0,0.0,-0.03698475097273659,0.0,0.0,-0.07854095375413862,-0.08188829638699563,-0.08671384831249052,-0.35017699527727864,-0.05108718648791275,-0.0017501281292241983
3648,8.0,301.17869,418.20901000000003,0.0,0.0,0.0,-0.03699489211640885,0.0,0.0,0.0013239177482355087,-0.055987120089998545,-0.07246189391793213,-0.37504316598137866,-0.0969397709717105,0.013035809068034187
3649,8.0,300.08488,795.94259,0.0,0.0,0.0,-0.03700503326008111,0.0,0.0,-0.07353345250818673,-0.08112575982548913,-0.08728746135310173,-0.38466143242312767,-0.10427426693356891,-0.0029963607015677774
3650,8.0,299.06622999999996,1100.0564,0.0,0.0,0.0,-0.03701517440375337,0.0,0.0,-0.0993253355963974,-0.1094191659063309,-0.12564516049021188,-0.34731940708025666,-0.09451907595280651,0.013872802286638989
3651,8.0,297.89608,906.9975599999999,0.0,0.0,0.0,-0.037025315547425636,0.0,0.0,-0.07147981645725864,-0.10715525107539989,-0.09706954095176781,-0.3288377961837637,-0.06237909384858724,-0.03423293225902736
3652,8.0,299.03791,1012.2341,0.0,0.0,0.0,-0.037035456691097896,0.0,0.0,-0.08694275974858233,-0.11364298000818888,-0.1071081349457499,-0.34307274418864364,-0.1026837175890939,0.022830175337412877
3653,8.0,300.00953,772.72923,0.0,0.0,0.0,-0.037045597834770155,0.0,0.0,-0.07744488667046522,-0.06748674270792293,-0.08995876047948842,-0.36122061076719864,-0.09883335707659291,-0.0034611399409879167
3654,8.0,300.17883,329.52845,0.0,0.0,0.0,-0.037055738978442415,0.0,0.0,0.0009892123423126571,-0.051044628970462656,-0.05011300224551825,-0.3430095883099107,-0.09394231879713501,-0.005086175151291405
3655,8.0,300.39772999999997,728.85555,0.0,0.0,0.0,-0.037065880122114675,0.0,0.0,-0.051245729731059744,-0.06502193179291503,-0.1052862302059419,-0.3482056969427267,-0.054474358968950656,-0.011522947635226388
3656,8.0,300.69049,1158.7758,0.0,0.0,0.0,-0.037076021265786935,0.0,0.0,-0.1194467448584759,-0.09489273928493422,-0.13789942746461387,-0.36186147119044665,-0.1052293159478249,0.02594331838190618
3657,8.0,300.19613,567.6716,0.0,0.0,0.0,-0.037086162409459195,0.0,0.0,-0.05898263189063254,-0.05782907096978495,-0.05574628877973035,-0.4056451631165606,-0.09409650405160191,-0.019067622065327784
3658,8.0,299.82826,402.63649,0.0,0.0,0.0,-0.03709630355313147,0.0,0.0,-0.02899287896937437,-0.04817443087594616,-0.04522413130802426,-0.3611495616701867,-0.1031402374216489,0.01014492243297589
3659,8.0,300.14887000000004,1005.5851,0.0,0.0,0.0,-0.03710644469680373,0.0,0.0,-0.07908819594764722,-0.11646457756165889,-0.11011999047049689,-0.33727840256428665,-0.07442103021153383,-0.014624123182788587
3660,8.0,299.2091,988.1437400000001,0.0,0.0,0.0,-0.03711658584047599,0.0,0.0,-0.05483093079839154,-0.1051337867283969,-0.14040629940452287,-0.33599099738472965,-0.08676321081761222,0.01170308729100479
3661,8.0,300.26251,761.13634,0.0,0.0,0.0,-0.03712672698414825,0.0,0.0,-0.033465438878031675,-0.12738882205729787,-0.07051218490326083,-0.36266941655518464,-0.08870053892931161,-0.04428876872996116
3662,8.0,301.69812,679.39862,0.0,0.0,0.0,-0.0371368681278205,0.0,0.0,-0.05535503745236685,-0.08016482484140222,-0.07100035461593943,-0.35189039106387765,-0.07663187505522723,-0.03382803549256717
3663,8.0,301.10089,398.84721,0.0,0.0,0.0,-0.037147009271492774,0.0,0.0,-0.022187968304781976,-0.05679525695900544,-0.04225636837462886,-0.3686665500545556,-0.04556111701303216,-0.032537540913455267
3664,8.0,300.51731,394.57984,0.0,0.0,0.0,-0.037157150415165034,0.0,0.0,-0.024957640843627376,-0.08338493365920223,-0.011599843185315388,-0.35337281649018165,-0.07701715226000114,-0.05024547760334255
3665,8.0,299.63757999999996,1011.1266,0.0,0.0,0.0,-0.037167291558837294,0.0,0.0,-0.09061747436949841,-0.06485164194135874,-0.15188811516518985,-0.40600355980943165,-0.08140576946412392,0.006925543357897915
3666,8.0,299.24152999999995,905.6606,0.0,0.0,0.0,-0.037177432702509554,0.0,0.0,-0.07877357672534673,-0.07719632527518412,-0.11932830605428688,-0.35700122456827765,-0.09413175400933081,-0.012909129500781887
3667,8.0,299.36832000000004,400.66409,0.0,0.0,0.0,-0.037187573846181814,0.0,0.0,-0.0023825506109394377,-0.053506955396225346,-0.06590237418905794,-0.35006292358102065,-0.07439656427461923,0.0057952802992496345
3668,8.0,300.50392999999997,921.2149199999999,0.0,0.0,0.0,-0.03719771498985408,0.0,0.0,-0.09906470537917521,-0.07770238594487842,-0.1032592436458939,-0.3233687990340157,-0.08373616262086582,-0.01837090927006758
3669,8.0,299.07929,1462.2184,0.0,0.0,0.0,-0.03720785613352634,0.0,0.0,-0.17482888776426783,-0.13321917459020888,-0.13642981965207487,-0.33887978355233067,-0.1081053250316649,0.013021233465345687
3670,8.0,300.47398,935.77044,0.0,0.0,0.0,-0.0372179972771986,0.0,0.0,-0.1034313239103769,-0.09014847433546172,-0.09087104831302421,-0.34351574726486467,-0.1035616785357419,-0.015986626406757184
3671,8.0,300.65196000000003,728.39382,0.0,0.0,0.0,-0.03722813842087086,0.0,0.0,-0.04318864661938755,-0.0977737224135151,-0.08045116526666184,-0.36566709671103265,-0.07114565873327984,0.006046150587533604
3672,8.0,300.61452,801.90675,0.0,0.0,0.0,-0.03723827956454312,0.0,0.0,-0.07707932629938723,-0.07913357840637612,-0.08754672469593902,-0.3512542118560917,-0.08244101317079452,0.0009328020342653931
3673,8.0,300.43928,587.0241,0.0,0.0,0.0,-0.037248420708215386,0.0,0.0,-0.027699197718697974,-0.08297823128106382,-0.06776323839521094,-0.4050342746312706,-0.07260282282134073,-0.015288259987333788
3674,8.0,300.3651,468.58457999999996,0.0,0.0,0.0,-0.037258561851887646,0.0,0.0,-0.05112366551801295,-0.06282379614522594,-0.028490550099798374,-0.3816037475963576,-0.08267249116938963,-0.04617602202171855
3675,8.0,299.85908,756.87028,0.0,0.0,0.0,-0.037268702995559906,0.0,0.0,-0.07703814781532323,-0.07553439144791403,-0.07749712781912102,-0.37235538836861565,-0.05690755749408865,-0.021872072387355477
3676,8.0,299.78282,674.64683,0.0,0.0,0.0,-0.037278844139232166,0.0,0.0,-0.051263998630362746,-0.07895111334161822,-0.07486067841667372,-0.3546839215895777,-0.05614377159520885,-0.005621830525931475
3677,8.0,299.3444,625.54398,0.0,0.0,0.0,-0.037288985282904426,0.0,0.0,-0.0037348143346974763,-0.1023418976678589,-0.08407303686836272,-0.3372025101317967,-0.09992050451963601,-0.04430571432463355
3678,8.0,300.2714,1041.3723,0.0,0.0,0.0,-0.037299126426576686,0.0,0.0,-0.1024658384200909,-0.08602316942157583,-0.12806217741125286,-0.3338472641481597,-0.12171564487989889,0.015062281910281486
3679,8.0,299.96915,893.31791,0.0,0.0,0.0,-0.037309267570248945,0.0,0.0,-0.04001053499173236,-0.10423209546440691,-0.12730370904889787,-0.3285806839708887,-0.09216545606402232,-0.01963432170050668
3680,8.0,299.97073,415.63174,0.0,0.0,0.0,-0.037319408713921205,0.0,0.0,-0.03221585528495737,-0.08081854442166932,-0.013307271942075488,-0.3473212106654347,-0.09433573138696182,-0.013352327121022087
3681,8.0,300.00031,723.72865,0.0,0.0,0.0,-0.037329549857593465,0.0,0.0,-0.06517168002519404,-0.07568241310202263,-0.07914134395514252,-0.37847236908981463,-0.1262894760963009,-0.022438000939208277
3682,8.0,299.22982,935.4997099999999,0.0,0.0,0.0,-0.037339691001265725,0.0,0.0,-0.08912644037034483,-0.1098891315677129,-0.08535297642118292,-0.40068394612192665,-0.1054018825723559,-0.002437838602645938
3683,8.0,300.19091000000003,463.15854,0.0,0.0,0.0,-0.03734983214493799,0.0,0.0,-0.03353660753855547,-0.05560118427265966,-0.05165083928004095,-0.36063192259159965,-0.07700083184064042,-0.015823156741623982
3684,8.0,300.3865,765.50899,0.0,0.0,0.0,-0.03735997328861025,0.0,0.0,-0.07314394194449503,-0.06899011302704404,-0.09056156322898042,-0.36177278140919367,-0.04635110859924825,0.018619856713636782
3685,8.0,300.31735,1103.2109,0.0,0.0,0.0,-0.03737011443228251,0.0,0.0,-0.0992682338870119,-0.11160346967690489,-0.12447687299241088,-0.3509434176529187,-0.06928229078612973,-0.007899351583180303
3686,8.0,301.46886,927.1328199999999,0.0,0.0,0.0,-0.03738025557595477,0.0,0.0,-0.10308509635120691,-0.07057419378288063,-0.1081659376526469,-0.36495434619318967,-0.06079919882891374,0.00973390117761125
3687,8.0,301.14825,932.8303400000001,0.0,0.0,0.0,-0.03739039671962703,0.0,0.0,-0.07246283117427463,-0.11768030542914189,-0.0934139949962435,-0.34649469242636366,-0.06669105057664423,-0.01986233134400948
3688,8.0,300.39211,1172.0278,0.0,0.0,0.0,-0.037400537863299305,0.0,0.0,-0.1033114260260439,-0.1039639692229449,-0.14899179041684488,-0.37300997833071864,-0.08906369992415282,0.025679052623325177
3689,8.0,300.35749,789.5866599999999,0.0,0.0,0.0,-0.037410679006971564,0.0,0.0,-0.05201827923005445,-0.08115992965861142,-0.10683642179893389,-0.3673575626478687,-0.12479207483351887,-0.015540991920026484
3690,8.0,299.31851,467.15979000000004,0.0,0.0,0.0,-0.037420820150643824,0.0,0.0,-0.021935763262141278,-0.08711402333348472,-0.03295512357116747,-0.38694559199105666,-0.1053867040858579,-0.025474993172436077
3691,8.0,299.50146,696.45294,0.0,0.0,0.0,-0.037430961294316084,0.0,0.0,-0.05026555718057425,-0.07534484477820723,-0.08609390035805642,-0.3258037504818267,-0.07562811708216402,-0.038625423118282466
3692,8.0,300.05476,680.27571,0.0,0.0,0.0,-0.03744110243798834,0.0,0.0,-0.052371773818941654,-0.09632864234614681,-0.058086412177182536,-0.37541589003066367,-0.05322016812767165,-0.026172204486745475
3693,8.0,299.09308,502.67633,0.0,0.0,0.0,-0.03745124358166061,0.0,0.0,-0.003784988655799296,-0.10599014518291291,-0.043025922706327956,-0.34559080240965667,-0.1023415025003199,-0.06291374843610353
3694,8.0,299.64668,840.4077599999999,0.0,0.0,0.0,-0.03746138472533287,0.0,0.0,-0.08349574066363802,-0.07026011664938363,-0.10170711674521091,-0.3685732398528467,-0.08553667765106282,-5.7274373282040546e-05
3695,8.0,300.30773,770.57559,0.0,0.0,0.0,-0.03747152586900513,0.0,0.0,-0.049343615100085655,-0.0953345700307895,-0.08955755396989241,-0.32887012899445467,-0.08105895118014562,-0.008866706621225812
3696,8.0,299.72483,488.79686,0.0,0.0,0.0,-0.03748166701267739,0.0,0.0,-0.049236377775752155,-0.04100304386218536,-0.058342619557718245,-0.3644987990807307,-0.07072322058108843,-0.008791322434985972
3697,8.0,300.21301,985.34142,0.0,0.0,0.0,-0.03749180815634965,0.0,0.0,-0.08600840839411902,-0.07742802213580084,-0.13608276122782287,-0.36793403102726163,-0.11135099814948789,0.005689253403485594
3698,8.0,299.28516,1067.3274,0.0,0.0,0.0,-0.03750194930002192,0.0,0.0,-0.11833128822088888,-0.11796061093680588,-0.08814897623737661,-0.3931104386469796,-0.07968741280503533,-0.00975294997551622
3699,8.0,298.23004,581.6125900000001,0.0,0.0,0.0,-0.03751209044369418,0.0,0.0,-0.03085272485917687,-0.05947348367632584,-0.08646949494487473,-0.36350160899481565,-0.0950953224304276,-0.004739926415194316
3700,8.0,299.31115,822.34458,0.0,0.0,0.0,-0.03752223158736643,0.0,0.0,-0.08213594484393663,-0.08967254975024161,-0.07816372378165892,-0.35626948574356065,-0.08472105590356721,-0.012425460645047489
3701,8.0,299.00903999999997,1171.2149,0.0,0.0,0.0,-0.037532372731038696,0.0,0.0,-0.11580565088912789,-0.12078072914512988,-0.11943372459469088,-0.36451709837753665,-0.12741207614709288,0.016358481087456384
3702,8.0,300.07167999999996,700.4558099999999,0.0,0.0,0.0,-0.037542513874710956,0.0,0.0,-0.07774783122511351,-0.05392476198220965,-0.08124848163785083,-0.3434976607505797,-0.06726927795821085,-0.00856134809953927
3703,8.0,300.31727,364.64794,0.0,0.0,0.0,-0.037552655018383216,0.0,0.0,0.013508002866386088,-0.08512011026995082,-0.03923176211062346,-0.34498612514747967,-0.08031358718133393,-0.008625244258795331
3704,8.0,300.62362,558.4669299999999,0.0,0.0,0.0,-0.037562796162055476,0.0,0.0,-0.07263531876529784,-0.03744009376704956,-0.05968459028166045,-0.3584156811778737,-0.06917016149031344,-0.013547645263298486
3705,8.0,300.41136,723.51517,0.0,0.0,0.0,-0.037572937305727735,0.0,0.0,-0.025738717855463677,-0.07612250207095601,-0.1180693225400349,-0.38742431213330264,-0.1133095295327799,-0.010683206482350388
3706,8.0,300.31179,728.22033,0.0,0.0,0.0,-0.0375830784494,0.0,0.0,-0.07440685686913502,-0.08447501344803472,-0.06247892735444004,-0.3805608194009287,-0.07658123788147972,-0.02770436833395827
3707,8.0,299.59611,984.46372,0.0,0.0,0.0,-0.03759321959307226,0.0,0.0,-0.06315011131343073,-0.09002016140904821,-0.14608212116468286,-0.3599358197728997,-0.0912384923160381,0.004120338975145796
3708,8.0,300.06543999999997,764.8514,0.0,0.0,0.0,-0.03760336073674452,0.0,0.0,-0.06960514975824343,-0.10591719117571291,-0.05697338024708485,-0.35205428426755264,-0.07212231530591834,-0.011841236849389088
3709,8.0,299.67857000000004,682.34685,0.0,0.0,0.0,-0.03761350188041678,0.0,0.0,-0.01071044973778909,-0.1140426565101339,-0.08266329997773252,-0.3416661807973267,-0.11360938063487289,-0.030616164398080174
3710,8.0,300.02046,1222.1947,0.0,0.0,0.0,-0.03762364302408904,0.0,0.0,-0.14324751347992887,-0.1215384071724069,-0.10673076007850589,-0.3804260470051276,-0.08574684193380441,-0.005700953098415265
3711,8.0,301.23033,1004.4252,0.0,0.0,0.0,-0.0376337841677613,0.0,0.0,-0.06810693384238103,-0.12060280242756989,-0.11661042478105288,-0.3563041186319787,-0.08378125731656633,-0.03143814023695287
3712,8.0,301.22986000000003,203.24022,0.0,0.0,0.0,-0.03764392531143356,0.0,0.0,-0.01011360814128541,-0.02158741598376208,-0.030078929062559174,-0.3967655053352066,-0.06661490989787973,-0.0014921439133131387
3713,8.0,301.12271,223.95847999999998,0.0,0.0,0.0,-0.037654066455105835,0.0,0.0,0.025627797367016678,-0.04158673772804146,-0.05211884632897965,-0.35543143671835165,-0.10283931227444991,-0.02611928547377277
3714,8.0,300.8699,931.87144,0.0,0.0,0.0,-0.03766420759877809,0.0,0.0,-0.1096061916097889,-0.08427165617946492,-0.08938780215413922,-0.36131130678364964,-0.08903205308377951,0.004975799386098165
3715,8.0,300.12296000000003,1006.4908,0.0,0.0,0.0,-0.03767434874245035,0.0,0.0,-0.08225454374164141,-0.12177339000309788,-0.1019201525787359,-0.3186493435132417,-0.1018130115131619,-0.04089552890732446
3716,8.0,299.94894,1005.7152,0.0,0.0,0.0,-0.03768448988612261,0.0,0.0,-0.1150936299113569,-0.11995599422623487,-0.07066269307311483,-0.3504168822384537,-0.0902369553871941,-0.009926383739482802
3717,8.0,300.67521,1135.2075,0.0,0.0,0.0,-0.03769463102979487,0.0,0.0,-0.1134601288951429,-0.0931257719522981,-0.13848884518028487,-0.3334067334021827,-0.1181604339890269,-0.0014472288668553686
3718,8.0,300.56049,825.6320599999999,0.0,0.0,0.0,-0.03770477217346714,0.0,0.0,-0.0962682283221844,-0.06427670356961673,-0.09042659831566041,-0.3674288447924037,-0.07351350769321834,0.024801733063990476
3719,8.0,299.7427,767.6895900000001,0.0,0.0,0.0,-0.0377149133171394,0.0,0.0,-0.05412561145678194,-0.07752917489328383,-0.10170368182737191,-0.3418099001915107,-0.06890622098501452,-0.020615767906367877
3720,8.0,299.72242,920.1207099999999,0.0,0.0,0.0,-0.03772505446081166,0.0,0.0,-0.1047733838003279,-0.05723398108005414,-0.11768635453223888,-0.40024076066068764,-0.06333189952712184,0.012863534259531987
3721,8.0,299.6025,495.46639000000005,0.0,0.0,0.0,-0.03773519560448392,0.0,0.0,-0.028207165325080476,-0.06742487365681693,-0.05497736975584394,-0.39519665980787366,-0.10792894858675789,-0.03525529046417627
3722,8.0,299.82835,330.90966000000003,0.0,0.0,0.0,-0.03774533674815618,0.0,0.0,-0.03473031950786567,-0.04129964648445776,-0.024558307833466273,-0.3886727274490116,-0.07330739742412684,-0.01148500851173209
3723,8.0,299.43632,711.86009,0.0,0.0,0.0,-0.03775547789182845,0.0,0.0,-0.07165113070466603,-0.07109602366388124,-0.07364053784500522,-0.35252273005378465,-0.07858534120126932,-0.03643744023659536
3724,8.0,299.81633999999997,864.9947800000001,0.0,0.0,0.0,-0.03776561903550071,0.0,0.0,-0.0918896210157995,-0.08525864385012301,-0.08578854832117051,-0.35706150281672666,-0.05968109862181585,-0.0013551363891165485
3725,8.0,300.13817,598.5026,0.0,0.0,0.0,-0.03777576017917297,0.0,0.0,-0.020459779066722982,-0.07582596936294053,-0.08564409634716422,-0.35387232852447964,-0.0998893126285576,-0.045954452595851354
3726,8.0,300.48227,910.06164,0.0,0.0,0.0,-0.037785901322845226,0.0,0.0,-0.07750137232378991,-0.11825207232807089,-0.08088256865573802,-0.35910959537635767,-0.08931947971314631,-0.014296425941447387
3727,8.0,300.30289,1116.5125,0.0,0.0,0.0,-0.037796042466517486,0.0,0.0,-0.0964322846591255,-0.1269624970777229,-0.11599712476052489,-0.3545926885505737,-0.08716231685975091,-0.02895810321269227
3728,8.0,300.05307,781.2832099999999,0.0,0.0,0.0,-0.037806183610189746,0.0,0.0,-0.06859375289267634,-0.09239600187252542,-0.07650083243304433,-0.37708604030299464,-0.09157472213647141,-0.01270113661300459
3729,8.0,300.14261,597.94076,0.0,0.0,0.0,-0.03781632475386201,0.0,0.0,-0.052393374284573455,-0.07056185340991272,-0.05880383377798654,-0.40686006011896164,-0.12889928411386886,-0.0057835974242716245
3730,8.0,300.28652,743.3621400000001,0.0,0.0,0.0,-0.03782646589753427,0.0,0.0,-0.07975948933764872,-0.04550144975439346,-0.10070258870207172,-0.38389460474744763,-0.07733074202020002,0.017731442065707082
3731,8.0,299.60376,458.402,0.0,0.0,0.0,-0.03783660704120653,0.0,0.0,0.005933031447694614,-0.06630245801754314,-0.07897333492956134,-0.33224842641786667,-0.053416797415577456,-0.01867766060534158
3732,8.0,298.41564,484.78753,0.0,0.0,0.0,-0.03784674818487879,0.0,0.0,-0.022273697369242777,-0.06128325474618635,-0.06380635084669653,-0.32408174206937773,-0.05475078271548155,-0.04730786696642295
3733,8.0,298.51202,1089.0446,0.0,0.0,0.0,-0.03785688932855105,0.0,0.0,-0.08591707808310542,-0.1079426983906149,-0.13718258341636688,-0.3664829555590517,-0.09600939155763921,-0.008104136419815992
3734,8.0,298.68305,775.31719,0.0,0.0,0.0,-0.03786703047222331,0.0,0.0,-0.09770160028464722,-0.08939888103073261,-0.04857658477438565,-0.36634252922769267,-0.08688475928635811,-0.040483495820409963
3735,8.0,299.6586,584.3064,0.0,0.0,0.0,-0.03787717161589557,0.0,0.0,-0.04202569287011296,-0.06101464214467634,-0.07457421944115242,-0.39033598762066263,-0.08934103559577372,-0.0017472245597376385
3736,8.0,301.31658999999996,989.72926,0.0,0.0,0.0,-0.03788731275956783,0.0,0.0,-0.10988249477955789,-0.08041464266680733,-0.1105558400010119,-0.3594148065714796,-0.08163403849965233,0.021985302072780377
3737,8.0,300.37556,960.2728099999999,0.0,0.0,0.0,-0.03789745390324009,0.0,0.0,-0.052886606194751655,-0.08593051681918173,-0.15308183524050084,-0.37554408643331566,-0.11496546390620788,0.025197574414306975
3738,8.0,299.86931,814.9250099999999,0.0,0.0,0.0,-0.03790759504691236,0.0,0.0,-0.08098108493646082,-0.07674552726594383,-0.08999024114684531,-0.35308043304132564,-0.089612437674809,-0.005059518770310625
3739,8.0,299.25855,1005.0077,0.0,0.0,0.0,-0.03791773619058462,0.0,0.0,-0.07141036424240424,-0.10515786155077289,-0.12892903313680487,-0.37387717856130465,-0.07278903083196803,-0.004806481950662835
3740,8.0,300.08746,794.7040400000001,0.0,0.0,0.0,-0.03792787733425688,0.0,0.0,-0.1003992803906375,-0.07369121250900644,-0.06747969048722693,-0.34086161968792267,-0.08955595100823423,-0.01992715705890728
3741,8.0,299.17782,518.3282,0.0,0.0,0.0,-0.03793801847792914,0.0,0.0,-0.006477116455216624,-0.07998975852887452,-0.07109195445147963,-0.3734249853066766,-0.09077667014570981,-0.021327048198315778
3742,8.0,299.34907999999996,898.5681199999999,0.0,0.0,0.0,-0.0379481596216014,0.0,0.0,-0.07099190411010543,-0.1135082481423919,-0.08864212303454641,-0.3747811395055186,-0.08685623528279302,-0.03300603026944157
3743,8.0,300.50526,1070.2907,0.0,0.0,0.0,-0.03795830076527367,0.0,0.0,-0.057387239210679536,-0.10809771552341389,-0.15985669898662785,-0.36548329314289263,-0.04535554579299386,-0.005644771217470545
3744,8.0,301.69417999999996,456.69002,0.0,0.0,0.0,-0.037968441908945924,0.0,0.0,0.002253123616040988,-0.09797422636980331,-0.043101259877763164,-0.38047155206711863,-0.08689382280850261,-0.03104408828631297
3745,8.0,301.14063,462.10007,0.0,0.0,0.0,-0.037978583052618184,0.0,0.0,-0.017405313335520683,-0.06921161861815493,-0.05384995068757636,-0.37569899210860364,-0.09162684372161542,-0.018097272974561783
3746,8.0,300.79404,1183.6532,0.0,0.0,0.0,-0.037988724196290444,0.0,0.0,-0.14759717324420685,-0.10226240819751391,-0.1099414456703759,-0.37129580234154264,-0.11365567603194188,-0.006436633972646314
3747,8.0,300.28307,946.84142,0.0,0.0,0.0,-0.037998865339962704,0.0,0.0,-0.08242475455968991,-0.1027659428347089,-0.1026254557083439,-0.36389886382902165,-0.06479150250817345,0.001085176570273589
3748,8.0,298.98332,544.70422,0.0,0.0,0.0,-0.03800900648363498,0.0,0.0,-0.03436877768668427,-0.07382863759356922,-0.057379066335372944,-0.3462038896476637,-0.09916438892401322,-0.01186145118888409
3749,8.0,300.329,972.0292699999999,0.0,0.0,0.0,-0.03801914762730724,0.0,0.0,-0.06228202347575715,-0.09235341497082242,-0.14083718400954787,-0.35805286671456665,-0.09261894425227811,0.015094911603251784
3750,8.0,299.88105,990.10055,0.0,0.0,0.0,-0.0380292887709795,0.0,0.0,-0.1120908531075059,-0.1067683921872199,-0.08210659402828992,-0.3391030836093687,-0.08989886219982691,-0.015661419734161786
3751,8.0,299.56091000000004,724.65068,0.0,0.0,0.0,-0.03803942991465176,0.0,0.0,-0.09020775858556261,-0.060631878813400535,-0.06943607378030693,-0.3929438096680346,-0.07828563094094022,-0.023381063204781276
3752,8.0,299.90546,830.27805,0.0,0.0,0.0,-0.03804957105832402,0.0,0.0,-0.10817355729339889,-0.07668697356916503,-0.06752326328127724,-0.38023774460654364,-0.1089178300218529,0.00863977325197923
3753,8.0,300.14915,737.4789900000001,0.0,0.0,0.0,-0.03805971220199628,0.0,0.0,-0.06163554863370503,-0.08181197332321312,-0.08072767615270132,-0.3996506944649526,-0.1135578771322899,-0.009219518076895592
3754,8.0,299.17307,569.1093,0.0,0.0,0.0,-0.03806985334566854,0.0,0.0,-0.023591599350309578,-0.06801877500418044,-0.08138464319953892,-0.34254571228162967,-0.10684940153271491,-0.015063775440928885
3755,8.0,300.22074,1043.3793,0.0,0.0,0.0,-0.0380799944893408,0.0,0.0,-0.08649986812987233,-0.12860593807741788,-0.1020554417320879,-0.3519188025966817,-0.05645386462931265,-0.013691187338714987
3756,8.0,300.77236,1051.1465,0.0,0.0,0.0,-0.03809013563301306,0.0,0.0,-0.09475485621132622,-0.0993508279556633,-0.12541661179765587,-0.35151077691391264,-0.08584772516676083,0.016110129434945983
3757,8.0,300.41545,458.53902,0.0,0.0,0.0,-0.03810027677668532,0.0,0.0,-0.02910583609052237,-0.07654146173555414,-0.03373711352134386,-0.3890200898482936,-0.07347472453239073,-0.026185024127010677
3758,8.0,300.86028999999996,712.65248,0.0,0.0,0.0,-0.03811041792035758,0.0,0.0,-0.05520113489467786,-0.09597748025898982,-0.06544994484715665,-0.3767603513233516,-0.10698437657853589,-0.02019510294185148
3759,8.0,301.36987,1118.1388,0.0,0.0,0.0,-0.03812055906402984,0.0,0.0,-0.10596718493564689,-0.1060599074522979,-0.1278591930187199,-0.35957178940947265,-0.04757499920953686,-0.006898266462555894
3760,8.0,300.85663999999997,753.33249,0.0,0.0,0.0,-0.0381307002077021,0.0,0.0,-0.04757642890542795,-0.11286021390843588,-0.06855762140736044,-0.37321933606638064,-0.10705091671260289,-0.04779863566560805
3761,8.0,301.14371,603.63181,0.0,0.0,0.0,-0.03814084135137436,0.0,0.0,-0.02430325555804458,-0.08093853653826164,-0.07824720647064802,-0.3751591324553237,-0.09769163598316381,-0.008047531608279533
3762,8.0,299.3005,697.4240900000001,0.0,0.0,0.0,-0.03815098249504662,0.0,0.0,-0.06329643273387153,-0.0871862011911081,-0.061516875768742936,-0.36444654577307367,-0.11057545652294788,-0.03072994833130977
3763,8.0,299.34639,612.1401599999999,0.0,0.0,0.0,-0.03816112363871889,0.0,0.0,-0.051388515921901655,-0.06829931558586763,-0.06638749097918524,-0.3610140799993156,-0.05185189343113345,-0.006053401607899224
3764,8.0,299.50057999999996,772.27235,0.0,0.0,0.0,-0.03817126478239115,0.0,0.0,-0.08094665672456303,-0.08152901512678733,-0.07227584093457012,-0.3540461819766376,-0.0985234798647604,-0.03139088326553897
3765,8.0,299.25172000000003,1094.2997,0.0,0.0,0.0,-0.03818140592606341,0.0,0.0,-0.08524826006309823,-0.10569631278641389,-0.14169521432672888,-0.38222577170024663,-0.09104808438374631,-0.0018666968790286382
3766,8.0,299.29404,957.27309,0.0,0.0,0.0,-0.03819154706973567,0.0,0.0,-0.08957283479465052,-0.09225768208812432,-0.1091566024079179,-0.35364705262974666,-0.12328723631500288,-0.01746994045339888
3767,8.0,300.62692999999996,662.49305,0.0,0.0,0.0,-0.03820168821340793,0.0,0.0,-0.04915522454874295,-0.05331441558572315,-0.0989117036008251,-0.38021082255138666,-0.08323844910549533,-0.0018474723835563282
3768,8.0,299.82742,947.18855,0.0,0.0,0.0,-0.038211829357080195,0.0,0.0,-0.1075888309256909,-0.09037448483651722,-0.0899583470734476,-0.3730820204128287,-0.11034022037973189,0.02281743574390558
3769,8.0,301.3393,1118.8515,0.0,0.0,0.0,-0.038221970500752454,0.0,0.0,-0.11021944096781189,-0.09173570021960872,-0.13814776493162287,-0.39836386683795266,-0.09006785306475501,0.015075343717320586
3770,8.0,300.9948,680.23902,0.0,0.0,0.0,-0.038232111644424714,0.0,0.0,-0.06286197844874424,-0.06569492035033384,-0.07821877669934221,-0.37071997230971265,-0.09731117880911559,-0.013198573511097787
3771,8.0,300.28751,820.50672,0.0,0.0,0.0,-0.038242252788096974,0.0,0.0,-0.03099819210978337,-0.1109316848606049,-0.1074836758303129,-0.3579342353928586,-0.055466413903358845,-0.03264773287508037
3772,8.0,300.28981,902.08816,0.0,0.0,0.0,-0.038252393931769234,0.0,0.0,-0.10852590488317289,-0.05413451387216054,-0.1115518648493119,-0.3300059519590517,-0.09811152074510321,-0.007685123458262633
3773,8.0,300.06735,679.27671,0.0,0.0,0.0,-0.03826253507544151,0.0,0.0,-0.04091605127484986,-0.08528716988018832,-0.08027993815876301,-0.35514326838991167,-0.07485064622743363,-0.04260866327539766
3774,8.0,299.43217000000004,704.56187,0.0,0.0,0.0,-0.03827267621911377,0.0,0.0,-0.08118327291441522,-0.08746738518660882,-0.045518556455831756,-0.3645690578426647,-0.1143428622497619,-0.04385314718071866
3775,8.0,300.28612999999996,871.3507699999999,0.0,0.0,0.0,-0.03828281736278602,0.0,0.0,-0.07202055257187513,-0.0885532579610261,-0.1042950689581219,-0.3888852363924846,-0.06143975021088124,-0.009746724060276771
3776,8.0,299.9314,496.69842,0.0,0.0,0.0,-0.03829295850645828,0.0,0.0,-0.027441359005501275,-0.07220613743369093,-0.051336422707760454,-0.40216256172785464,-0.09940036068680182,-0.04189652476061506
3777,8.0,299.26342,617.83049,0.0,0.0,0.0,-0.03830309965013054,0.0,0.0,-0.027741432009366178,-0.06205359130696265,-0.0980100194295858,-0.38351788849276863,-0.07717188365627192,0.012310268294178887
3778,8.0,299.60652999999996,1175.3942,0.0,0.0,0.0,-0.038313240793802814,0.0,0.0,-0.1128559278605129,-0.11992162478284289,-0.12451294469597088,-0.3791914726857846,-0.09135328443311723,-0.01988010273751338
3779,8.0,300.07063999999997,891.57791,0.0,0.0,0.0,-0.03832338193747507,0.0,0.0,-0.07608903644665323,-0.08532373402329692,-0.1096046514696369,-0.36018744017023263,-0.09421271978507151,0.012455987844060289
3780,8.0,299.79418,470.65867000000003,0.0,0.0,0.0,-0.03833352308114733,0.0,0.0,-0.03328728721894947,-0.06644849370145574,-0.043332703425854865,-0.35293682510465263,-0.14191808881872486,-0.0090407616088287
3781,8.0,300.15237,802.5300900000001,0.0,0.0,0.0,-0.03834366422481959,0.0,0.0,-0.07165088347164164,-0.07677877301497492,-0.09551945068378581,-0.37260205397295965,-0.09347072889584272,0.01200129186168529
3782,8.0,299.47825,999.6287599999999,0.0,0.0,0.0,-0.03835380536849185,0.0,0.0,-0.08853657682462981,-0.09100106653935601,-0.12432454097237687,-0.3585623187323456,-0.08068418340540892,-0.024302354778705678
3783,8.0,300.45021,724.08023,0.0,0.0,0.0,-0.03836394651216412,0.0,0.0,-0.05946786317802114,-0.08445719949802663,-0.07617724594735883,-0.37517708724709564,-0.04627049036829186,-0.028239670388288472
3784,8.0,300.64166,653.67768,0.0,0.0,0.0,-0.03837408765583638,0.0,0.0,-0.07726185925190183,-0.06717887781078903,-0.054260955325639355,-0.3825603367507656,-0.07816862385914253,-0.012296937975863289
3785,8.0,301.02939,577.86427,0.0,0.0,0.0,-0.03838422879950864,0.0,0.0,-0.06499670591842543,-0.04844261487266386,-0.06221698903133874,-0.3805192660143276,-0.07676108876097963,-0.018676614931238383
3786,8.0,300.72172,617.93507,0.0,0.0,0.0,-0.0383943699431809,0.0,0.0,-0.06341664168598524,-0.05444910674995845,-0.06997108097885803,-0.37571935843561366,-0.1057199012487419,0.003966229613111386
3787,8.0,300.34776,1206.5024,0.0,0.0,0.0,-0.03840451108685316,0.0,0.0,-0.08611374891426533,-0.13745430669568387,-0.14317855167812288,-0.3806400352937466,-0.08515846685248632,-0.008277287892304712
3788,8.0,300.51533,1247.4727,0.0,0.0,0.0,-0.038414652230525426,0.0,0.0,-0.1124952614874179,-0.1020887371303739,-0.16461657305389085,-0.3794715451459256,-0.12424928688744986,0.03554406471617607
3789,8.0,299.54545,599.31854,0.0,0.0,0.0,-0.038424793374197685,0.0,0.0,-0.025120898739489677,-0.08613548515541052,-0.07092148829440593,-0.36926816730143064,-0.08011297075428463,-0.026670299997403675
3790,8.0,298.96515,543.3121,0.0,0.0,0.0,-0.038434934517869945,0.0,0.0,-0.034330233652880265,-0.07325755058545734,-0.057565526645275145,-0.35893188144131866,-0.08444212537628892,-0.0058178840851304545
3791,8.0,300.59757,1118.0633,0.0,0.0,0.0,-0.038445075661542205,0.0,0.0,-0.12277029637898489,-0.11711602644845188,-0.09997701550421322,-0.3523151556382987,-0.0993272931955906,-0.031157909709796268
3792,8.0,300.77258,996.45456,0.0,0.0,0.0,-0.038455216805214465,0.0,0.0,-0.10462372676055791,-0.11091397324885689,-0.0873596088132221,-0.3690094237558946,-0.1086445767348849,-0.011033229676394989
3793,8.0,299.48431,464.28399,0.0,0.0,0.0,-0.03846535794888673,0.0,0.0,-0.016061361707632983,-0.07248821612902993,-0.05258116195210666,-0.3563903563479897,-0.10946178320553689,-0.04914333608531966
3794,8.0,298.87647000000004,675.60675,0.0,0.0,0.0,-0.03847549909255899,0.0,0.0,-0.03611578905860086,-0.09905472486569021,-0.07019706918841134,-0.36297786001812565,-0.06266475438302974,-0.008343757504164752
3795,8.0,299.45025,758.92647,0.0,0.0,0.0,-0.03848564023623125,0.0,0.0,-0.06476592706239935,-0.07515496778896784,-0.0907738006214266,-0.36229797933352664,-0.04870335148114655,-0.018221702113341984
3796,8.0,299.01239,832.93709,0.0,0.0,0.0,-0.03849578137990351,0.0,0.0,-0.05938247355234384,-0.10708986604644691,-0.08671973833532182,-0.39398831853361965,-0.05438833302221054,-0.005420193046756405
3797,8.0,299.34398,982.2865300000001,0.0,0.0,0.0,-0.03850592252357577,0.0,0.0,-0.08191751244037902,-0.0987367457060581,-0.1179363233319089,-0.3987417888602506,-0.07385864702178092,0.009945793355748382
3798,8.0,299.04593,750.48054,0.0,0.0,0.0,-0.03851606366724803,0.0,0.0,-0.07535676971863413,-0.07058988902692963,-0.08218068591535221,-0.39794461434407563,-0.09089519406290722,0.012248282719311387
3799,8.0,300.24177000000003,582.6333,0.0,0.0,0.0,-0.03852620481092029,0.0,0.0,-0.006018384697693324,-0.08358079895653263,-0.08750679250949801,-0.3603376848950607,-0.1252335377695879,-0.023154434621164774
3800,8.0,300.66024,1137.1672,0.0,0.0,0.0,-0.03853634595459256,0.0,0.0,-0.1010805806386266,-0.1019422920934209,-0.14264754783071687,-0.3769451681415916,-0.1146394101565289,0.018745850310571383
3801,8.0,299.94834,1320.6466,0.0,0.0,0.0,-0.03854648709826481,0.0,0.0,-0.12942404634065888,-0.1205632350111649,-0.15145629837007285,-0.3282933870375347,-0.10443757245218589,-0.014141000468858087
3802,8.0,300.27285,585.51235,0.0,0.0,0.0,-0.03855662824193708,0.0,0.0,-0.09239175027510581,-0.054337344250678356,-0.03125204064408627,-0.36441427375738866,-0.06538212497821334,-0.01105317043836299
3803,8.0,300.85688,443.3339,0.0,0.0,0.0,-0.03856676938560934,0.0,0.0,-0.04530081306234216,-0.055105955246534354,-0.03435566623039027,-0.35392561534723865,-0.07342275290826152,-0.02856489833913597
3804,8.0,299.96247999999997,910.8558400000001,0.0,0.0,0.0,-0.0385769105292816,0.0,0.0,-0.13226770234880586,-0.07427399141002224,-0.07033573449109652,-0.3799444289675956,-0.06617168998613734,0.006028941750485224
3805,8.0,299.13032000000004,887.83979,0.0,0.0,0.0,-0.038587051672953857,0.0,0.0,-0.03767418696415276,-0.1088894083565479,-0.12331753249299288,-0.3734615839002886,-0.08724704685961311,-0.023946782013863376
3806,8.0,298.91195,600.30133,0.0,0.0,0.0,-0.038597192816626116,0.0,0.0,-0.042460103585485964,-0.07188176162617753,-0.06813475059737634,-0.38294411535864165,-0.06315641575555293,-0.012476540609088689
3807,8.0,299.54400000000004,640.73288,0.0,0.0,0.0,-0.038607333960298376,0.0,0.0,-0.008370360790840293,-0.08789453799151552,-0.09850189763763041,-0.40188064515253163,-0.1133931530635329,-0.015929892507157983
3808,8.0,300.35065,570.57298,0.0,0.0,0.0,-0.03861747510397064,0.0,0.0,-0.037770735513181365,-0.06809964857416202,-0.06756955361209573,-0.3935010769580326,-0.08869803417506442,0.0018973530647791682
3809,8.0,299.7304,806.8844799999999,0.0,0.0,0.0,-0.0386276162476429,0.0,0.0,-0.03146504304035797,-0.12231427303897888,-0.09149341590869711,-0.3665977973253856,-0.11290544539289989,-0.038545626633157165
3810,8.0,299.90232000000003,1178.5377,0.0,0.0,0.0,-0.03863775739131516,0.0,0.0,-0.13648710881272885,-0.09450084251725702,-0.12725808239689487,-0.35762423152476364,-0.07183857488041533,-0.023962577569672273
3811,8.0,300.21711,891.0442300000001,0.0,0.0,0.0,-0.03864789853498742,0.0,0.0,-0.055208703872924855,-0.08911912267812261,-0.1265273669547789,-0.35711465791697267,-0.098320846056762,-0.01932955836192888
3812,8.0,300.09321,344.23564,0.0,0.0,0.0,-0.03865803967865968,0.0,0.0,-0.024185257517649078,-0.05630891109650685,-0.024144870381913177,-0.37278524959103965,-0.08072833881826671,-0.04847567215717636
3813,8.0,300.38509,716.3191099999999,0.0,0.0,0.0,-0.03866818082233195,0.0,0.0,-0.046127719376201456,-0.06644924350652973,-0.10516616006909191,-0.3267919834368577,-0.09847954635367451,-0.012727034272310488
3814,8.0,300.18329,1077.9163,0.0,0.0,0.0,-0.03867832196600421,0.0,0.0,-0.13967691132003787,-0.09138360796885991,-0.09659911628809051,-0.37844558888967167,-0.060674084733065944,-0.014100303278591589
3815,8.0,299.79845,728.95352,0.0,0.0,0.0,-0.03868846310967647,0.0,0.0,-0.06804237765200985,-0.08187477355116102,-0.07166651792068464,-0.3938085983633826,-0.09697326699351631,-0.004285904649435856
3816,8.0,300.33025,615.98045,0.0,0.0,0.0,-0.03869860425334873,0.0,0.0,-0.056551600707458446,-0.057989471500365236,-0.07270160254708953,-0.4345896553406596,-0.0926244765978241,0.0017195913043354485
3817,8.0,300.73357999999996,973.94168,0.0,0.0,0.0,-0.03870874539702099,0.0,0.0,-0.058523666072336146,-0.11263160442087389,-0.12489867887653988,-0.35256806286325865,-0.08310515504159022,-0.005603733777820465
3818,8.0,300.81498,1017.5383,0.0,0.0,0.0,-0.038718886540693255,0.0,0.0,-0.07679573482164892,-0.0980437586314156,-0.13446674890833488,-0.35991782445112364,-0.06851247706240503,0.004546887275042836
3819,8.0,300.39288,985.2941099999999,0.0,0.0,0.0,-0.038729027684365515,0.0,0.0,-0.06270461158896334,-0.1010433862539558,-0.13575680880315386,-0.3478846689135437,-0.11682420028715088,-0.0007957457727389933
3820,8.0,300.59434,1050.1236,0.0,0.0,0.0,-0.038739168828037775,0.0,0.0,-0.11957895373152388,-0.0877778480569991,-0.11185455305168489,-0.39735164012055363,-0.1060940134506639,0.02864273925156827
3821,8.0,300.27802,596.7284599999999,0.0,0.0,0.0,-0.038749309971710034,0.0,0.0,-0.04426611651072555,-0.060874587676104035,-0.07624984531702383,-0.38344055724513665,-0.100787106932663,-0.014928714268849385
3822,8.0,301.67132000000004,554.04088,0.0,0.0,0.0,-0.038759451115382294,0.0,0.0,-0.05399266493766115,-0.07144020445784924,-0.04298172372371586,-0.38210044279537764,-0.05608760815541595,-0.030524789504062174
3823,8.0,300.90094,1128.5728,0.0,0.0,0.0,-0.03876959225905456,0.0,0.0,-0.1098127122451709,-0.11372907586918589,-0.11951617275532789,-0.3623387727825526,-0.10168904036342691,-0.04883170189781375
3824,8.0,299.47015,972.76776,0.0,0.0,0.0,-0.03877973340272682,0.0,0.0,-0.08348830847415452,-0.1045259278609059,-0.1076828706674719,-0.4036304774127266,-0.05622434017691035,-0.008355062436855461
3825,8.0,299.58247,347.20422,0.0,0.0,0.0,-0.03878987454639908,0.0,0.0,0.03118912794537727,-0.1060297227318189,-0.030700822457185268,-0.3763734215076647,-0.0987315923160495,-0.06825808643929865
3826,8.0,300.78076,741.73946,0.0,0.0,0.0,-0.03880001569007134,0.0,0.0,-0.06026688890212885,-0.07690620542705152,-0.08829718027650321,-0.3768528711899827,-0.07577732423888962,0.00908392150346325
3827,8.0,300.55026000000004,1078.0859,0.0,0.0,0.0,-0.0388101568337436,0.0,0.0,-0.08870008398001672,-0.1143198513399909,-0.12469126658106988,-0.35345898327868563,-0.1091242594647259,-0.016472103913920084
3828,8.0,300.42869,705.88072,0.0,0.0,0.0,-0.03882029797741587,0.0,0.0,-0.05537402778574105,-0.07981571762544802,-0.07938036762723233,-0.3941267994247866,-0.06671979749523134,0.010783796886027888
3829,8.0,300.08493,658.41113,0.0,0.0,0.0,-0.03883043912108813,0.0,0.0,-0.02151305862517358,-0.07889703111753071,-0.09973045325137941,-0.37206830421778264,-0.08193265951612393,-0.025413457480612973
3830,8.0,299.32812,926.05209,0.0,0.0,0.0,-0.03884058026476039,0.0,0.0,-0.07954229309921312,-0.10498343054605791,-0.0969709932602919,-0.39871999385059964,-0.06881776222478433,-0.005099629896719285
3831,8.0,299.96123,766.53152,0.0,0.0,0.0,-0.03885072140843265,0.0,0.0,-0.08506442001795461,-0.07249292774199492,-0.07544909504124593,-0.3673718089442746,-0.12240088565752688,-0.04155227202588996
3832,8.0,299.97778,947.957,0.0,0.0,0.0,-0.038860862552104906,0.0,0.0,-0.12762308548041787,-0.0889117498994065,-0.07162042416038553,-0.3937275484878836,-0.11553437343985488,0.014029828694386286
3833,8.0,300.05765,841.53588,0.0,0.0,0.0,-0.03887100369577718,0.0,0.0,-0.0883891823723331,-0.07192085990778622,-0.09549585107570673,-0.3800075645813267,-0.1103158415823259,-0.01964067579188378
3834,8.0,300.45473,479.63939000000005,0.0,0.0,0.0,-0.03888114483944944,0.0,0.0,-0.022675688134416182,-0.050201746742276655,-0.07292096207448863,-0.37888753818578863,-0.06305068006786765,0.013315121590600188
3835,8.0,301.23622,712.2751099999999,0.0,0.0,0.0,-0.0388912859831217,0.0,0.0,-0.012572664606325388,-0.0881966597870826,-0.1157445215105949,-0.3509075789968817,-0.06671554995081214,-0.03831484575063086
3836,8.0,300.25461,1273.5557,0.0,0.0,0.0,-0.03890142712679396,0.0,0.0,-0.13399804980957786,-0.10108041953186071,-0.15205066074623186,-0.35422684446946767,-0.03969481639307336,0.02466367368486508
3837,8.0,300.47137000000004,1085.0352,0.0,0.0,0.0,-0.03891156827046621,0.0,0.0,-0.08975545488667372,-0.12637788216752588,-0.11369027852285689,-0.37259766660002663,-0.08615619801395473,-0.006260255298589094
3838,8.0,300.23287999999997,618.0181200000001,0.0,0.0,0.0,-0.038921709414138486,0.0,0.0,-0.059033443343397246,-0.1026253949133379,-0.026203235271057973,-0.40061067800719563,-0.08124913923716572,0.0030376809393207675
3839,8.0,299.84727000000004,762.94048,0.0,0.0,0.0,-0.038931850557810746,0.0,0.0,-0.05795663915737494,-0.08787559629414611,-0.0860826198446931,-0.39514874321064464,-0.12438165788051389,0.00955785363368671
3840,8.0,300.16463999999996,887.73245,0.0,0.0,0.0,-0.038941991701483006,0.0,0.0,-0.07994029773849314,-0.10007160949379891,-0.08983659088843123,-0.37817752344321565,-0.08909860335034751,0.0017229236812643283
3841,8.0,300.08924,734.90459,0.0,0.0,0.0,-0.038952132845155266,0.0,0.0,-0.03754044808345376,-0.07587398221892902,-0.1099782165165049,-0.36520725341814964,-0.10092954760522081,-0.02715180252442427
3842,8.0,299.66902999999996,833.80089,0.0,0.0,0.0,-0.038962273988827525,0.0,0.0,-0.0940167025002261,-0.07975109354732013,-0.07968685349098013,-0.36721887910668166,-0.06822608901439073,-0.05190874284124405
3843,8.0,299.78,950.30069,0.0,0.0,0.0,-0.03897241513249979,0.0,0.0,-0.1014388283837329,-0.10821560717254888,-0.07921324114248822,-0.36868314709119365,-0.08699416901890601,-0.027505704439851675
3844,8.0,299.82786,640.85738,0.0,0.0,0.0,-0.03898255627617205,0.0,0.0,-0.07915418791341013,-0.06900517498978054,-0.046645280434530756,-0.35673478032198164,-0.10470274000335592,-0.037161362850040965
3845,8.0,299.83693999999997,890.81753,0.0,0.0,0.0,-0.03899269741984431,0.0,0.0,-0.05764358641972903,-0.1084565073838239,-0.10468619362922289,-0.3578146516160567,-0.10545479449257791,0.0037260209450296366
3846,8.0,300.26007999999996,1036.2666,0.0,0.0,0.0,-0.03900283856351657,0.0,0.0,-0.046754583775818155,-0.11861784548166988,-0.14962673345950886,-0.35532000960485466,-0.08475224475489533,-0.013691646341010288
3847,8.0,300.75916,542.46824,0.0,0.0,0.0,-0.03901297970718883,0.0,0.0,0.01103192258376599,-0.08609976606288533,-0.08982895706217782,-0.38029030188923063,-0.1084930147849269,0.004183905422819316
3848,8.0,300.68002,502.6815,0.0,0.0,0.0,-0.0390231208508611,0.0,0.0,-0.04746563507324345,-0.07648330827256483,-0.028853681710386672,-0.37961303538988966,-0.07575546539448233,-0.025990666545829072
3849,8.0,300.68212,1116.0526,0.0,0.0,0.0,-0.03903326199453336,0.0,0.0,-0.1207229333594259,-0.0957345109910106,-0.1227946751763909,-0.4034705865469466,-0.07644285527557242,0.012752311822555188
3850,8.0,300.25178,993.9648199999999,0.0,0.0,0.0,-0.03904340313820562,0.0,0.0,-0.12429603824706388,-0.09302694561704472,-0.08481749806133533,-0.3791309715223137,-0.05922369118217325,-0.025691640229317476
3851,8.0,299.99011,654.4899,0.0,0.0,0.0,-0.03905354428187788,0.0,0.0,-0.025388934801692777,-0.07858795234677703,-0.094971699838727,-0.40126853063462065,-0.08833686522991982,-0.013936904540965385
3852,8.0,299.71352,881.31381,0.0,0.0,0.0,-0.03906368542555014,0.0,0.0,-0.07519199802712244,-0.07531655382216512,-0.1173888440378769,-0.37160186466674866,-0.10731131185580191,-0.0025646611394873477
3853,8.0,299.53398,995.52993,0.0,0.0,0.0,-0.0390738265692224,0.0,0.0,-0.08458212107635542,-0.08065368964364943,-0.1373804306308929,-0.3699576029344726,-0.0930369504485321,0.002885009075203227
3854,8.0,298.8562,898.42669,0.0,0.0,0.0,-0.03908396771289466,0.0,0.0,-0.11601828142261288,-0.07206654602041433,-0.08501445057602301,-0.36800050023382164,-0.09908652572007871,-0.005300565801525115
3855,8.0,299.90934,992.8352800000001,0.0,0.0,0.0,-0.03909410885656692,0.0,0.0,-0.1106440434222169,-0.09155880803040081,-0.0995942866234408,-0.36879870826509864,-0.1029843792912669,-0.0036309061448925365
3856,8.0,299.31377000000003,648.69808,0.0,0.0,0.0,-0.03910425000023918,0.0,0.0,-0.07187023590629002,-0.05894428138759765,-0.06637350002180444,-0.3903049315050976,-0.097569308325091,0.009789355544984172
3857,8.0,299.56699,537.0738299999999,0.0,0.0,0.0,-0.03911439114391144,0.0,0.0,-0.003585096702571497,-0.07354340465066893,-0.08612853324647442,-0.36579176700333665,-0.07684834378009102,-0.01089395338389949
3858,8.0,300.53218,1152.4116,0.0,0.0,0.0,-0.0391245322875837,0.0,0.0,-0.07427858345947543,-0.13670885859711387,-0.13931691369200888,-0.35471910163304965,-0.08987270312199522,0.005998122532793604
3859,8.0,300.15912000000003,1163.4135,0.0,0.0,0.0,-0.03913467343125596,0.0,0.0,-0.09084491861944542,-0.11991212049690488,-0.14289160938230386,-0.35951163275103565,-0.05803553384991124,-0.0001682772531476718
3860,8.0,299.6771,600.63385,0.0,0.0,0.0,-0.03914481457492822,0.0,0.0,-0.031988060450475767,-0.09310753142399791,-0.05748210069829165,-0.3916958199173676,-0.08201343581409591,-0.02764552484765087
3861,8.0,300.19678999999996,550.13238,0.0,0.0,0.0,-0.03915495571860048,0.0,0.0,-0.06417628947145664,-0.05437717713860954,-0.04867303909115495,-0.4005312898618606,-0.07300260875429652,-0.04146526626630316
3862,8.0,299.3591,906.6971900000001,0.0,0.0,0.0,-0.03916509686227274,0.0,0.0,-0.08388975917702461,-0.08037324532072172,-0.1113502990069189,-0.4155787935194336,-0.09121249130522201,-0.05167190474961995
3863,8.0,300.35396000000003,758.5836099999999,0.0,0.0,0.0,-0.03917523800594501,0.0,0.0,-0.04083935229528026,-0.08675484339828642,-0.10299627484744091,-0.40817990956672057,-0.0978190754879911,-0.025740350201374773
3864,8.0,300.8046,557.9680400000001,0.0,0.0,0.0,-0.03918537914961727,0.0,0.0,-0.0033108673517821667,-0.08831075478809292,-0.07798672925419092,-0.37190373213654065,-0.1023285227665389,-0.03823437241443876
3865,8.0,300.29065,678.82763,0.0,0.0,0.0,-0.03919552029328953,0.0,0.0,-0.07612906691835393,-0.05636337531588204,-0.07385420594659263,-0.3683195625578107,-0.07207408358790823,-0.002262917995482618
3866,8.0,299.59652,759.02144,0.0,0.0,0.0,-0.03920566143696179,0.0,0.0,-0.08655432829624711,-0.09082277099875961,-0.05334646569963624,-0.34024345606691464,-0.10738371870794788,-0.01008524727098641
3867,8.0,300.14157,954.59205,0.0,0.0,0.0,-0.03921580258063405,0.0,0.0,-0.1082481527657609,-0.09693326894581882,-0.08499072228518122,-0.38598655077140664,-0.08668543880618673,-0.008293965887625702
3868,8.0,299.98875,1315.4104,0.0,0.0,0.0,-0.039225943724306316,0.0,0.0,-0.1109004666250239,-0.14068302813933387,-0.14826842103795385,-0.3766610832110546,-0.10393142362973291,-0.006775581735147854
3869,8.0,300.13491,1042.7024,0.0,0.0,0.0,-0.039236084867978575,0.0,0.0,-0.056775418535297544,-0.11635195481304389,-0.14382813618473186,-0.37601053611685065,-0.04469949573749676,0.007438393613862293
3870,8.0,299.20807,603.37743,0.0,0.0,0.0,-0.039246226011650835,0.0,0.0,-0.015849564065730185,-0.07426439491832514,-0.09329771340151741,-0.3762650746744716,-0.08325558924418691,-0.02056743891634818
3871,8.0,298.97898,861.45015,0.0,0.0,0.0,-0.039256367155323095,0.0,0.0,-0.08491972993017483,-0.08124680065593491,-0.0956928035903944,-0.3979391630585376,-0.09540946643843122,0.001185899912364209
3872,8.0,298.51869,867.5505699999999,0.0,0.0,0.0,-0.039266508298995355,0.0,0.0,-0.09595770769653841,-0.07821628613059643,-0.08953971570188192,-0.39560488814066264,-0.13499848229581288,-0.014079779897816088
3873,8.0,299.66067999999996,464.86585999999994,0.0,0.0,0.0,-0.03927664944266762,0.0,0.0,-0.04718451491249905,-0.06501206780319153,-0.029111030010534972,-0.3994859703961956,-0.08399055729697262,-0.04073198122193356
3874,8.0,299.37835,351.34071,0.0,0.0,0.0,-0.03928679058633988,0.0,0.0,-0.01796423222318168,-0.050577136652574746,-0.03825743499996486,-0.37874192401391765,-0.12531308803493887,-0.06419201815275893
3875,8.0,299.27371,795.86725,0.0,0.0,0.0,-0.03929693173001214,0.0,0.0,-0.04483127701900255,-0.08332228947176971,-0.11377020369074489,-0.4111198952618746,-0.09805447983072371,-0.010852212546029989
3876,8.0,299.47045,772.6082,0.0,0.0,0.0,-0.0393070728736844,0.0,0.0,-0.047007206277500053,-0.09941457557245471,-0.0884318199365411,-0.34874165558312165,-0.1090379812187109,-0.036479106093957464
3877,8.0,300.60257,847.51811,0.0,0.0,0.0,-0.03931721401735666,0.0,0.0,-0.07313116080773363,-0.09630126331519472,-0.08819191777661461,-0.3781928539172287,-0.04889155154147045,0.016478466111297982
3878,8.0,300.56654,936.6192699999999,0.0,0.0,0.0,-0.03932735516102893,0.0,0.0,-0.11242253039523988,-0.09705600494368191,-0.07523033839765633,-0.3346742586147777,-0.09190874813793722,-0.008353472242148522
3879,8.0,300.39099,731.1683400000001,0.0,0.0,0.0,-0.03933749630470119,0.0,0.0,-0.05209225054035485,-0.09100947043568541,-0.07915519711050972,-0.4050982512425846,-0.10915017840228389,0.021345950378931278
3880,8.0,299.63599999999997,700.6464900000001,0.0,0.0,0.0,-0.03934763744837345,0.0,0.0,-0.01893441007468078,-0.1116423176857389,-0.08240231309647512,-0.36484606015500265,-0.1263373217660229,-0.03207530331058597
3881,8.0,299.5337,1022.1423,0.0,0.0,0.0,-0.03935777859204571,0.0,0.0,-0.03857931111948156,-0.12349057534507088,-0.14863585592171688,-0.36257021937039463,-0.07538466854688752,0.012895342206671186
3882,8.0,298.99593,707.46972,0.0,0.0,0.0,-0.03936791973571797,0.0,0.0,-0.04642005925530316,-0.08255262773556002,-0.08608044338347833,-0.3409082798550277,-0.10014032203608031,-0.041281986548464863
3883,8.0,299.50771000000003,418.38581,0.0,0.0,0.0,-0.039378060879390234,0.0,0.0,-0.04570666228389636,-0.04558442784483275,-0.03588774901759507,-0.4204401141867086,-0.08344872687224812,-0.00978957400170573
3884,8.0,299.49645,774.24731,0.0,0.0,0.0,-0.039388202023062494,0.0,0.0,-0.09669933888198172,-0.07920726296689823,-0.059445245409288944,-0.41009876207609663,-0.1315027491858109,-0.02905643609514697
3885,8.0,299.05665,1132.3321,0.0,0.0,0.0,-0.03939834316673475,0.0,0.0,-0.12486621434333588,-0.1033786653026799,-0.1159558044214469,-0.41232179226549265,-0.05766448267654135,0.006762826334938993
3886,8.0,299.33842000000004,1052.6002,0.0,0.0,0.0,-0.03940848431040701,0.0,0.0,-0.07242213195750793,-0.1052472099445909,-0.14229483547090685,-0.3706796246907307,-0.08429905851516932,-0.027562966242752975
3887,8.0,300.78431,990.27359,0.0,0.0,0.0,-0.03941862545407927,0.0,0.0,-0.07469624819044572,-0.0907340893235074,-0.13558811279400487,-0.37280604148309165,-0.07036781398926252,0.014411436920548087
3888,8.0,300.38872000000003,954.46595,0.0,0.0,0.0,-0.03942876659775155,0.0,0.0,-0.07059406159084143,-0.1080931356329619,-0.11144661856142489,-0.36134003242398466,-0.1038390354856149,0.022305296586861378
3889,8.0,300.81146,880.2493800000001,0.0,0.0,0.0,-0.0394389077414238,0.0,0.0,-0.08434235570519243,-0.10016124058439481,-0.08307023540339392,-0.34064189640373765,-0.050338925607065155,0.027455747156921274
3890,8.0,299.73562000000004,983.1665300000001,0.0,0.0,0.0,-0.03944904888509606,0.0,0.0,-0.09367183877569071,-0.1168515884373539,-0.08833465229170141,-0.3415323304591167,-0.11559159167300188,0.006609506092082463
3891,8.0,299.48579,1010.0587,0.0,0.0,0.0,-0.03945919002876832,0.0,0.0,-0.1154303734495909,-0.09423216000149011,-0.09737008309042901,-0.37657587901014566,-0.1019783536644799,0.0018514711750759784
3892,8.0,299.57288,595.4388299999999,0.0,0.0,0.0,-0.03946933117244058,0.0,0.0,-0.002319445293386428,-0.09073400319724892,-0.08794508903900451,-0.3914963920326856,-0.12785828109362987,-0.043646931533616755
3893,8.0,299.99462,401.38001,0.0,0.0,0.0,-0.03947947231611285,0.0,0.0,-0.0038221443343162765,-0.062471499217956944,-0.05571585682622695,-0.39439542215879764,-0.06622822731521713,-0.062437140920316034
3894,8.0,298.79819,857.81565,0.0,0.0,0.0,-0.03948961345978511,0.0,0.0,-0.07415161308944443,-0.097226495418758,-0.08937643044826692,-0.3888896845604236,-0.07969766993579762,-0.03570374482593526
3895,8.0,299.42575,912.11654,0.0,0.0,0.0,-0.03949975460345737,0.0,0.0,-0.13081460038039588,-0.07497352914656122,-0.07147252308303884,-0.4173133358356196,-0.08246393592780682,-0.034961843102715266
3896,8.0,299.79094,502.33781,0.0,0.0,0.0,-0.03950989574712963,0.0,0.0,-0.06459313752284634,-0.05908460031444604,-0.02902041404084187,-0.4043271476514826,-0.1062803096140499,-0.011836080419630189
3897,8.0,301.04402999999996,723.85658,0.0,0.0,0.0,-0.03952003689080189,0.0,0.0,-0.07585404550996142,-0.07266771541074514,-0.07151256571374073,-0.37748090386696465,-0.06308173010393203,-0.0016130835200739485
3898,8.0,301.10418,1145.8944,0.0,0.0,0.0,-0.03953017803447416,0.0,0.0,-0.056522822378118245,-0.12914208923533188,-0.16265837604313185,-0.35058234597978366,-0.1076029049695799,0.0016623420657353883
3899,8.0,300.23072,986.10856,0.0,0.0,0.0,-0.03954031917814642,0.0,0.0,-0.06933231089056634,-0.1098857878423829,-0.12053427632330688,-0.34268608795048366,-0.11153569337771589,-0.0035789467810895467
3900,8.0,300.80633,891.1674,0.0,0.0,0.0,-0.039550460321818665,0.0,0.0,-0.06559661583888193,-0.1043275740213299,-0.10096844830306,-0.36992036599329764,-0.09560389089411941,0.0036765181047690868
3901,8.0,299.69279,691.4299599999999,0.0,0.0,0.0,-0.03956060146549094,0.0,0.0,-0.08743103179952103,-0.05557916432148644,-0.06716724569964103,-0.38561958198268964,-0.05441736162432545,0.005598903310618734
3902,8.0,299.01796,375.8506,0.0,0.0,0.0,-0.0395707426091632,0.0,0.0,-0.03319153913749987,-0.04226402651888466,-0.03879363074088326,-0.4030028297707826,-0.09237518971547141,-0.019084148174458783
3903,8.0,299.53002999999995,782.6473900000001,0.0,0.0,0.0,-0.03958088375283546,0.0,0.0,-0.08343583833097612,-0.07846910114979733,-0.07600032336064792,-0.4163031457509216,-0.1021201174859709,-0.023048882331747577
3904,8.0,299.03918999999996,1045.9741,0.0,0.0,0.0,-0.039591024896507725,0.0,0.0,-0.07089903467218993,-0.0934744951464644,-0.15357647354181786,-0.38271590103861863,-0.12483901871065188,-0.03277927097656217
3905,8.0,299.39302000000004,713.4401,0.0,0.0,0.0,-0.039601166040179984,0.0,0.0,-0.06234893141961044,-0.06801140867595344,-0.08650763570513892,-0.37267272816743463,-0.08873063752353211,-0.015788082076162384
3906,8.0,300.40732,680.77296,0.0,0.0,0.0,-0.039611307183852244,0.0,0.0,-0.03928008907414297,-0.08751838206414182,-0.08013951081415392,-0.37556541534792065,-0.09156424006418691,-0.03276095850750487
3907,8.0,299.26417999999995,1165.7598,0.0,0.0,0.0,-0.039621448327524504,0.0,0.0,-0.14336430068645487,-0.1030946715646519,-0.1079028877941859,-0.3839095096564186,-0.1125772840830129,0.02029726388318398
3908,8.0,299.80847,1171.0273,0.0,0.0,0.0,-0.039631589471196764,0.0,0.0,-0.1129700198217729,-0.11960355544395188,-0.12338948338259387,-0.3837003748357787,-0.08869923487643291,0.002286338156969008
3909,8.0,300.62053,764.8003,0.0,0.0,0.0,-0.039641730614869024,0.0,0.0,-0.04270405671931226,-0.08962484492228351,-0.10015129148166291,-0.3635572668228087,-0.06622950907659364,0.0003386202395392157
3910,8.0,300.32673,598.37508,0.0,0.0,0.0,-0.039651871758541284,0.0,0.0,0.03301429940350767,-0.09054284545988311,-0.12436253785112687,-0.36413902436772366,-0.07169365883786323,-0.02088304707074628
3911,8.0,300.06825,590.23572,0.0,0.0,0.0,-0.03966201290221354,0.0,0.0,-0.007838490209298752,-0.10793596027744988,-0.06364247182852294,-0.38406350340661666,-0.1099337551021169,-0.03802665614393876
3912,8.0,300.10494,560.04884,0.0,0.0,0.0,-0.0396721540458858,0.0,0.0,-0.03209162069019637,-0.06958328888733593,-0.06856595437618283,-0.3804494328174356,-0.1060653790028379,-0.03834256624686667
3913,8.0,300.09302,840.61507,0.0,0.0,0.0,-0.03968229518955807,0.0,0.0,-0.10748919804335791,-0.08381284741493401,-0.06422394465015985,-0.3702100440643867,-0.0919131800938746,-0.04582309079988696
3914,8.0,300.10688999999996,932.18204,0.0,0.0,0.0,-0.03969243633323033,0.0,0.0,-0.08341256397617912,-0.10111785608330541,-0.09882964452822651,-0.4003400591704876,-0.07928183006825743,-0.02308041568810968
3915,8.0,298.98112000000003,636.3173099999999,0.0,0.0,0.0,-0.03970257747690259,0.0,0.0,-0.029048937031156873,-0.07660143195597272,-0.08777420339638942,-0.4170366982933176,-0.10937904120237091,-0.04629315677302886
3916,8.0,299.38821,936.3929400000001,0.0,0.0,0.0,-0.03971271862057485,0.0,0.0,-0.03130325537039077,-0.0994236542933507,-0.15391316641754685,-0.4130625996786046,-0.08252518284335142,-0.013142083804772687
3917,8.0,300.25387,1179.1214,0.0,0.0,0.0,-0.03972285976424711,0.0,0.0,-0.1068884319265669,-0.09665690599429391,-0.15487811488527983,-0.36505496192811965,-0.06755595376925352,0.005441524190511624
3918,8.0,300.35679,741.47158,0.0,0.0,0.0,-0.039733000907919376,0.0,0.0,-0.052104371038051045,-0.07517654798959764,-0.0981079277602486,-0.39442731927194563,-0.07196694961508493,0.012269261049381789
3919,8.0,302.05587,623.3698,0.0,0.0,0.0,-0.039743142051591636,0.0,0.0,-0.09171631674519573,-0.07463422411207443,-0.023138312798823682,-0.38684486479861563,-0.11939553519842189,0.017867924827676882
3920,8.0,301.06937999999997,805.81889,0.0,0.0,0.0,-0.039753283195263896,0.0,0.0,-0.06972704475852352,-0.07817446423271893,-0.09704731024457382,-0.39651454355043864,-0.07979263882792033,0.013339967496302289
3921,8.0,299.64992,741.60475,0.0,0.0,0.0,-0.039763424338936156,0.0,0.0,-0.05366037564686675,-0.09552580984141341,-0.07624314064111214,-0.35471833156297367,-0.06479457265597645,-0.016006953217013287
3922,8.0,300.55847,809.0672400000001,0.0,0.0,0.0,-0.039773565482608415,0.0,0.0,-0.0015026440214494187,-0.10033155779370381,-0.14410203795176388,-0.38780265972064265,-0.05737653321012294,-0.03888285247843876
3923,8.0,300.40356,965.81855,0.0,0.0,0.0,-0.03978370662628068,0.0,0.0,-0.08395461123642502,-0.1125741531402039,-0.09705595833417731,-0.4004842750572206,-0.1273805438039809,-0.043608673236340954
3924,8.0,299.51889,754.46194,0.0,0.0,0.0,-0.03979384776995294,0.0,0.0,-0.05665485595889895,-0.08736446025470092,-0.08531827260525791,-0.41629250662487155,-0.1086848432938589,-0.034163842787708766
3925,8.0,300.11625,605.68446,0.0,0.0,0.0,-0.0398039889136252,0.0,0.0,-0.09745040545235621,-0.06383966448348434,-0.02282288297644318,-0.36199336595596365,-0.1030574954184829,-0.025872756658192275
3926,8.0,299.12939,908.18516,0.0,0.0,0.0,-0.03981413005729746,0.0,0.0,-0.08241837817681062,-0.09210301351335971,-0.10154421652663391,-0.4050263408829876,-0.07287979372292563,-0.002841709352054877
3927,8.0,299.88129,927.6337300000001,0.0,0.0,0.0,-0.03982427120096972,0.0,0.0,-0.07747093530403602,-0.096863792412962,-0.1076427662285139,-0.37633099672597764,-0.1118062514194179,-0.028265886208125774
3928,8.0,300.44221,584.9038099999999,0.0,0.0,0.0,-0.03983441234464199,0.0,0.0,0.019529072372869383,-0.09968093369249222,-0.09764429187224132,-0.4001331231025646,-0.06433911876252664,-0.005225153446932495
3929,8.0,300.72237,767.0792299999999,0.0,0.0,0.0,-0.03984455348831425,0.0,0.0,-0.05712146168294935,-0.1183457472998159,-0.05770572600861174,-0.3656657794859026,-0.04122984064531846,-0.04144776946357636
3930,8.0,300.29401,1034.7830000000001,0.0,0.0,0.0,-0.03985469463198651,0.0,0.0,-0.09219686580387221,-0.10827024161794091,-0.11408107895392589,-0.39154068119455665,-0.045111612924169556,-0.01020519257542409
3931,8.0,301.08695,943.04735,0.0,0.0,0.0,-0.03986483577565877,0.0,0.0,-0.12837327558945588,-0.1102294822763029,-0.04806008965516155,-0.37513438888788164,-0.13800646720517787,-0.025858381679023577
3932,8.0,300.35314,756.6718400000001,0.0,0.0,0.0,-0.03987497691933103,0.0,0.0,-0.03860070589534306,-0.0941876509643474,-0.0972209873912144,-0.4016048384753116,-0.1061207936508069,-0.031507663379314266
3933,8.0,300.38488,708.57133,0.0,0.0,0.0,-0.039885118063003294,0.0,0.0,-0.05644846907253015,-0.06033343004944595,-0.09860609419841382,-0.3390108879827697,-0.09728498730728072,-0.015668674604877784
3934,8.0,298.96362999999997,562.81007,0.0,0.0,0.0,-0.039895259206675554,0.0,0.0,-0.00092965353183216,-0.06874986636208352,-0.1014006896499689,-0.38254360799161463,-0.06315824163223313,-0.029853076628519267
3935,8.0,299.77153,880.64301,0.0,0.0,0.0,-0.039905400350347814,0.0,0.0,-0.1107236848800769,-0.07827207770760262,-0.07869771773011003,-0.38964397833236664,-0.1188819085902309,0.006352387394406823
3936,8.0,300.27518,1187.2335,0.0,0.0,0.0,-0.039915541494020074,0.0,0.0,-0.13592285009704086,-0.09956280899583422,-0.12540367259387888,-0.40163298656308966,-0.09445783916976291,0.0033894289890105964
3937,8.0,299.74706000000003,902.11965,0.0,0.0,0.0,-0.039925682637692333,0.0,0.0,-0.13783356620811388,-0.08364770183413542,-0.05274058064334005,-0.39049119727098064,-0.1118510472063389,0.029875380289720473
3938,8.0,299.04311,894.6437099999999,0.0,0.0,0.0,-0.0399358237813646,0.0,0.0,-0.050050785649627956,-0.1027841002765009,-0.11911445962068189,-0.38904453957320667,-0.08679313006656501,-0.017327679126108785
3939,8.0,299.59687,1336.1686,0.0,0.0,0.0,-0.03994596492503686,0.0,0.0,-0.11322050537899389,-0.14887763766057885,-0.14406375736298588,-0.3936517573804036,-0.13646674248571886,-0.004631651522758415
3940,8.0,300.36736,1250.4793,0.0,0.0,0.0,-0.03995610606870912,0.0,0.0,-0.08497496725937632,-0.13477761403901486,-0.16036189535398684,-0.38887607661158063,-0.06591145189670385,-0.02205051788896668
3941,8.0,300.60034,664.05521,0.0,0.0,0.0,-0.03996624721238138,0.0,0.0,-0.05665602322301415,-0.09000853436415072,-0.055191645807491356,-0.37093160985809964,-0.07381825684629473,-0.02032841220450808
3942,8.0,300.23084,429.70589,0.0,0.0,0.0,-0.03997638835605364,0.0,0.0,-0.037840388351555565,-0.06342722407002964,-0.02935224736909127,-0.3675662009759596,-0.05907574957482254,-0.027752942530502173
3943,8.0,299.92557999999997,462.53377,0.0,0.0,0.0,-0.039986529499725906,0.0,0.0,-0.07972763782075522,-0.04004979640660716,-0.02082128137115048,-0.3957857634160136,-0.13002898704786187,-0.0019424340816033183
3944,8.0,299.92092,599.00815,0.0,0.0,0.0,-0.039996670643398166,0.0,0.0,-0.01213848389872509,-0.08238243414276322,-0.08756260232500601,-0.38068362531304867,-0.09141548583025601,-0.015174872234893286
3945,8.0,300.17625,923.79487,0.0,0.0,0.0,-0.040006811787070426,0.0,0.0,-0.042138537520499855,-0.1027334783015049,-0.13593855547359085,-0.35759637727951465,-0.1029474767226249,-0.019408056873676083
3946,8.0,300.67016,961.4404800000001,0.0,0.0,0.0,-0.040016952930742686,0.0,0.0,-0.04808710796907805,-0.0962896190450455,-0.14787717477684084,-0.3883883385434446,-0.07702285381831382,-0.01109953372318869
3947,8.0,300.43079,940.3643400000001,0.0,0.0,0.0,-0.040027094074414946,0.0,0.0,-0.09053857765046192,-0.10667322773782789,-0.08863547307414012,-0.4084003826559796,-0.11415147957087388,-0.030355273775582267
3948,8.0,300.57807,1129.5484,0.0,0.0,0.0,-0.04003723521808722,0.0,0.0,-0.12253054114032289,-0.1034353566457749,-0.11738861099035389,-0.4248831145501986,-0.08268585087195812,0.0036416067752236066
3949,8.0,300.47777,1351.9447,0.0,0.0,0.0,-0.04004737636175948,0.0,0.0,-0.17673772936265583,-0.1170859734504859,-0.11713373806019989,-0.37046909158495267,-0.08079662579550613,0.01920910926954148
3950,8.0,300.11084,930.09874,0.0,0.0,0.0,-0.04005751750543173,0.0,0.0,-0.029677013277893172,-0.12386547788207089,-0.1291843012344979,-0.35742282780238666,-0.07890020461684392,-0.01983629790919018
3951,8.0,299.98719,532.0296599999999,0.0,0.0,0.0,-0.04006765864910399,0.0,0.0,-0.046567936014647454,-0.05375006246621815,-0.06140573135202385,-0.3645859385893307,-0.12682203021635988,0.005371374454288385
3952,8.0,299.39077000000003,654.62938,0.0,0.0,0.0,-0.04007779979277625,0.0,0.0,-0.01138057991667579,-0.07944517105062793,-0.10816523851007791,-0.38814202757663563,-0.08578136437796151,-0.04376897345516136
3953,8.0,299.20742,659.8706099999999,0.0,0.0,0.0,-0.040087940936448525,0.0,0.0,-0.08932540215998082,-0.06390755224018434,-0.04735123508395305,-0.35934891491747667,-0.08489389813212542,0.011653299220841089
3954,8.0,300.72845,773.47829,0.0,0.0,0.0,-0.040098082080120785,0.0,0.0,-0.05544709629020235,-0.07980966244285043,-0.0998613266607956,-0.3890492410536706,-0.061678321973426445,-0.037213061909893264
3955,8.0,301.11866000000003,985.1564300000001,0.0,0.0,0.0,-0.040108223223793045,0.0,0.0,-0.13778153581547886,-0.07360992451973393,-0.08807149502872981,-0.39040648956262064,-0.11397424186338188,0.03336561955768027
3956,8.0,300.7234,1003.7134,0.0,0.0,0.0,-0.040118364367465305,0.0,0.0,-0.03946930947731756,-0.1029110706465319,-0.16272342669955187,-0.3952413441372836,-0.10885945668359191,-0.025826205922098076
3957,8.0,300.4051,1015.475,0.0,0.0,0.0,-0.040128505511137565,0.0,0.0,-0.09041124858989551,-0.09339448689206822,-0.12487330709403589,-0.37366315987518267,-0.1073000242496879,-0.0005147085465152785
3958,8.0,300.53412000000003,1241.333,0.0,0.0,0.0,-0.040138646654809824,0.0,0.0,-0.06100014861524594,-0.15230426711376086,-0.16402983031848387,-0.3461323845881067,-0.0943366818155556,-0.04304580672629036
3959,8.0,300.61871,1105.4294,0.0,0.0,0.0,-0.04014878779848208,0.0,0.0,-0.14112153238511085,-0.1014224745271189,-0.09347894128790322,-0.3891841350394836,-0.1209524953020819,0.016017550799809183
3960,8.0,300.41625,475.03824000000003,0.0,0.0,0.0,-0.04015892894215435,0.0,0.0,-0.04900222986314355,-0.08302431693536212,-0.012373216456641387,-0.4000665323059926,-0.07911920849345792,-0.02779879919027787
3961,8.0,298.87841000000003,294.32167999999996,0.0,0.0,0.0,-0.04016907008582661,0.0,0.0,-0.03553473876225567,-0.04608443434517955,-0.007847269514790202,-0.4006719593732436,-0.057289146468498545,-0.004204287961830915
3962,8.0,299.42245,664.4907,0.0,0.0,0.0,-0.04017921122949887,0.0,0.0,-0.004807335512547075,-0.08280780464074403,-0.11437344213777989,-0.38721968627560766,-0.06107429015156315,-0.016297848201472384
3963,8.0,299.08786000000003,870.0424,0.0,0.0,0.0,-0.04018935237317113,0.0,0.0,-0.06609593535566094,-0.09791096308655972,-0.10046426721230121,-0.3921394208111476,-0.1050149426241679,-0.03556553953879547
3964,8.0,299.47919,789.87584,0.0,0.0,0.0,-0.04019949351684339,0.0,0.0,-0.034392368175512465,-0.09794725871839181,-0.1077629072928709,-0.3818191848326197,-0.12137279144356188,-0.04273609467422416
3965,8.0,300.14538,845.0247699999999,0.0,0.0,0.0,-0.04020963466051565,0.0,0.0,-0.1091548697502469,-0.08966106861335851,-0.05805049246113753,-0.3974733010600606,-0.09262309553793781,-0.02887169324416427
3966,8.0,300.68813,932.9432800000001,0.0,0.0,0.0,-0.04021977580418791,0.0,0.0,-0.09511286482940892,-0.1079669555980089,-0.08051163907238013,-0.3783853005087216,-0.09085681924186992,-0.02727670079800077
3967,8.0,300.46862000000004,1114.7706,0.0,0.0,0.0,-0.04022991694786017,0.0,0.0,-0.1180384792069909,-0.09450324391999401,-0.12632071459688388,-0.39743731041650865,-0.09902722221822591,0.001109350995134419
3968,8.0,300.44698,1156.9265,0.0,0.0,0.0,-0.04024005809153244,0.0,0.0,-0.09065914934611141,-0.13194086839654987,-0.1290767447363829,-0.38194480758001764,-0.096425308432187,-0.008022813777390073
3969,8.0,299.06546000000003,723.37143,0.0,0.0,0.0,-0.040250199235204696,0.0,0.0,-0.07623914235621752,-0.05266208922434354,-0.0909856205548316,-0.3904223975891906,-0.07192513379670802,0.02929736467742477
3970,8.0,298.8726,503.76715,0.0,0.0,0.0,-0.040260340378876956,0.0,0.0,0.006102088781829274,-0.09801332667791221,-0.06122139582758135,-0.38930989964189566,-0.09805143197442291,-0.04162853024166606
3971,8.0,298.40949,852.99369,0.0,0.0,0.0,-0.040270481522549216,0.0,0.0,-0.1099009967263839,-0.08459387781726573,-0.06479390796391084,-0.4088334558812206,-0.10781168515268488,0.03045268054744557
3972,8.0,298.85475,989.64939,0.0,0.0,0.0,-0.040280622666221476,0.0,0.0,-0.092902095979473,-0.1020581572423559,-0.1058684538459029,-0.39547288191763463,-0.1027156856297489,-0.03838205868276426
3973,8.0,300.02299,511.62635,0.0,0.0,0.0,-0.04029076380989374,0.0,0.0,-0.04350584557644266,-0.06460496316476344,-0.04741082634883425,-0.3797633105122206,-0.058993480759453244,0.01006950217503249
3974,8.0,301.5199,411.14609,0.0,0.0,0.0,-0.040300904953566,0.0,0.0,-0.0015089199912438084,-0.05752092540237335,-0.06594829974984044,-0.36979629351855264,-0.08577768121384802,-0.051084031227101354
3975,8.0,301.43424,994.74588,0.0,0.0,0.0,-0.04031104609723826,0.0,0.0,-0.11222670968091389,-0.08469334452658232,-0.1054578545078799,-0.38575500285855463,-0.0888008902059655,0.002149386158877898
3976,8.0,299.92462,1283.5654,0.0,0.0,0.0,-0.04032118724091052,0.0,0.0,-0.1030364704789079,-0.14307599050300085,-0.14405935985755186,-0.3695534782645887,-0.10819768277827989,-0.06836020989037743
3977,8.0,300.56372999999996,1162.2160000000001,0.0,0.0,0.0,-0.04033132838458278,0.0,0.0,-0.17080244464938885,-0.08692047027288252,-0.095561725504458,-0.3876800767235446,-0.09055419588750331,0.00928907496048532
3978,8.0,300.27482000000003,815.13395,0.0,0.0,0.0,-0.04034146952825505,0.0,0.0,-0.05101278150656955,-0.1003574635590105,-0.0964101238661884,-0.40880229844064564,-0.10810643960677489,-0.027203693088545478
3979,8.0,300.26153999999997,648.52889,0.0,0.0,0.0,-0.04035161067192731,0.0,0.0,-0.03877501531004607,-0.08402189306956523,-0.07433967940075513,-0.4302236518522686,-0.09116309130984661,0.016407770638570882
3980,8.0,299.4756,762.68877,0.0,0.0,0.0,-0.04036175181559957,0.0,0.0,-0.042751054298700554,-0.0897270018106156,-0.0993602876585969,-0.3903103523931326,-0.07970242613176702,0.00024078733521385977
3981,8.0,299.77572000000004,1054.923,0.0,0.0,0.0,-0.04037189295927183,0.0,0.0,-0.10147628823992991,-0.11204098093758388,-0.1071529915276769,-0.39811808276119565,-0.036515201102269766,0.005604208789467345
3982,8.0,300.16216000000003,692.07465,0.0,0.0,0.0,-0.04038203410294409,0.0,0.0,-0.032362188864399365,-0.0866241513606381,-0.09138707227095182,-0.37557174816104566,-0.08997926460851201,-0.019408072072427583
3983,8.0,300.75221,375.29814,0.0,0.0,0.0,-0.040392175246616355,0.0,0.0,-0.03905783469120816,-0.05197348242988335,-0.023049946244352578,-0.4145358349265016,-0.0992407839285528,-0.023562083374896577
3984,8.0,298.89915,867.9562300000001,0.0,0.0,0.0,-0.040402316390288615,0.0,0.0,-0.04384938396984726,-0.1183166366244429,-0.1016710045116469,-0.3649866182088746,-0.12804759674231386,-0.03269029039253046
3985,8.0,299.44831,1370.9918,0.0,0.0,0.0,-0.040412457533960874,0.0,0.0,-0.12110241578687787,-0.1086470895951329,-0.18699775802024182,-0.38062056062682464,-0.07532700448369652,0.0015063963905447486
3986,8.0,298.91821,974.42705,0.0,0.0,0.0,-0.040422598677633134,0.0,0.0,-0.07777409568095563,-0.09579911379088642,-0.1226282792449689,-0.3755636421602457,-0.1071729424221459,-0.030169629132010573
3987,8.0,300.11929,699.03982,0.0,0.0,0.0,-0.040432739821305394,0.0,0.0,-0.07436819631156953,-0.042269719971196565,-0.0958527339729283,-0.4126507945729626,-0.09386804959130522,-0.0018782992006236986
3988,8.0,300.29714,729.40716,0.0,0.0,0.0,-0.04044288096497766,0.0,0.0,-0.07407016399340602,-0.07828767770614223,-0.06936372063041624,-0.38336855569303063,-0.12542243798573088,-0.03657428979510136
3989,8.0,300.44872000000004,797.01103,0.0,0.0,0.0,-0.04045302210864992,0.0,0.0,-0.11370620681442889,-0.06373213230337174,-0.06483311668978044,-0.38383332338139964,-0.08774163348517501,0.006675621269057523
3990,8.0,300.39786000000004,1026.9237,0.0,0.0,0.0,-0.04046316325232218,0.0,0.0,-0.06420329562637193,-0.0934618801827194,-0.15449400190487086,-0.3571105339890656,-0.13830446405958788,-0.017878638934234282
3991,8.0,300.24579,843.9037699999999,0.0,0.0,0.0,-0.04047330439599444,0.0,0.0,-0.03419997629952487,-0.1028561423586109,-0.11946956325072788,-0.38564947286063966,-0.08087243412823783,0.025418136669574775
3992,8.0,300.00313,572.93601,0.0,0.0,0.0,-0.0404834455396667,0.0,0.0,0.011626735856219489,-0.0960103733969861,-0.08977460227381341,-0.37294398535170564,-0.08804347461046443,-0.02420480919157868
3993,8.0,300.8587,960.74531,0.0,0.0,0.0,-0.04049358668333897,0.0,0.0,-0.08242757747446852,-0.1000629867354479,-0.10955202325944291,-0.3913227513630486,-0.036534051607130164,-0.005116134423623154
3994,8.0,299.33692,1335.9285,0.0,0.0,0.0,-0.04050372782701123,0.0,0.0,-0.14793135325968787,-0.12567053227271588,-0.1324870102004499,-0.38926670479013264,-0.07999898518428514,-0.029654083428130175
3995,8.0,299.24037999999996,1022.3009,0.0,0.0,0.0,-0.040513868970683486,0.0,0.0,-0.1102733357406309,-0.09306030383683692,-0.1074202970365579,-0.4083457988730926,-0.08352123403615401,-0.012697376441883488
3996,8.0,299.13742,476.46117999999996,0.0,0.0,0.0,-0.040524010114355746,0.0,0.0,-0.003058757149350827,-0.06093649219096354,-0.08083705143474583,-0.3792041991070406,-0.12671319702311887,-0.01933849320131068
3997,8.0,299.42488,592.57622,0.0,0.0,0.0,-0.040534151258028006,0.0,0.0,-0.02137425450722468,-0.06460678093544285,-0.09414733779586881,-0.38845661133518267,-0.09217161155837982,-0.017025546184790585
3998,8.0,299.55287999999996,947.2877300000001,0.0,0.0,0.0,-0.04054429240170027,0.0,0.0,-0.0941468342105691,-0.05884134632318874,-0.13496363662487387,-0.38785328169563865,-0.11673099141045189,0.005590278120467495
3999,8.0,299.43127000000004,952.33715,0.0,0.0,0.0,-0.04055443354537253,0.0,0.0,-0.08282113293255942,-0.1208411593810939,-0.08582441636146042,-0.40663813808205956,-0.09427974526593641,-0.02273788446530448
4000,8.0,298.94717,733.17332,0.0,0.0,0.0,-0.04056457468904479,0.0,0.0,-0.1023957215131709,-0.07367161625207243,-0.04679903911070555,-0.3872986792534036,-0.1020040800845189,-0.016805692191342685
4001,8.0,300.80165,649.12483,0.0,0.0,0.0,-0.04057471583271705,0.0,0.0,-0.05445764236880085,-0.08307449105381393,-0.05978560523712985,-0.40074969592091564,-0.07889052909163902,-0.03300414461100547
4002,8.0,300.83207000000004,713.77882,0.0,0.0,0.0,-0.04058485697638931,0.0,0.0,-0.015289646113470586,-0.1148176408491189,-0.08686364923377472,-0.3619132786680596,-0.12007636833811489,-0.023311669758432678
4003,8.0,300.6941,1022.8580000000001,0.0,0.0,0.0,-0.04059499812006158,0.0,0.0,-0.07653883336479472,-0.1017959281164759,-0.13258854799297087,-0.3949757712860736,-0.09502484277997182,0.019052641162599283
4004,8.0,299.7889,1109.8432,0.0,0.0,0.0,-0.04060513926373384,0.0,0.0,-0.07482036930119552,-0.11104729669701488,-0.15149694996408486,-0.37731019149011663,-0.09473820445918281,0.002352512203774878
4005,8.0,300.50473999999997,633.07658,0.0,0.0,0.0,-0.0406152804074061,0.0,0.0,-0.08795405326263922,-0.049176606152353156,-0.055308810956304647,-0.39097201484093363,-0.05223464460340805,0.006340847894317964
4006,8.0,299.99302,549.1440299999999,0.0,0.0,0.0,-0.04062542155107836,0.0,0.0,-0.07580422400254443,-0.04290657805654956,-0.04821527194772686,-0.4066912526523016,-0.08067855986735392,-0.03604243684411157
4007,8.0,299.37837,974.01875,0.0,0.0,0.0,-0.04063556269475062,0.0,0.0,-0.10548165575272889,-0.10341523349878891,-0.08718048950029442,-0.4070693773246196,-0.08362545694144001,-0.018110430027110283
4008,8.0,299.40261,1009.8057,0.0,0.0,0.0,-0.04064570383842289,0.0,0.0,-0.05606705336388735,-0.10265384697614591,-0.14823481153213686,-0.3956471913323376,-0.13749219211692287,-0.022051006275514876
4009,8.0,299.8426,780.62536,0.0,0.0,0.0,-0.04065584498209515,0.0,0.0,-0.049016336331035755,-0.10316035043613389,-0.08511392741784062,-0.3940333169705606,-0.11246895751482189,-0.005617827478761405
4010,8.0,299.62892,657.01967,0.0,0.0,0.0,-0.04066598612576741,0.0,0.0,-0.019824573592283082,-0.09058828466061761,-0.08930471665918932,-0.36980200824911663,-0.14203817922057688,0.00023634127483506778
4011,8.0,300.33743,804.53413,0.0,0.0,0.0,-0.040676127269439664,0.0,0.0,-0.08042472957155283,-0.10537603456230489,-0.058757519129165645,-0.4101320372093806,-0.1023922663303299,-0.013323663288943187
4012,8.0,299.7167,1051.4652,0.0,0.0,0.0,-0.040686268413111924,0.0,0.0,-0.1035467026992639,-0.14417982516194086,-0.07189262772024993,-0.39695681708658764,-0.09088828369722522,-0.017448530478785883
4013,8.0,300.31843,1266.2297,0.0,0.0,0.0,-0.040696409556784184,0.0,0.0,-0.1029963356424469,-0.15197227571849586,-0.12993357941844585,-0.39754507969714464,-0.07090105610613943,-0.05165478588918045
4014,8.0,301.55357000000004,816.0649099999999,0.0,0.0,0.0,-0.040706550700456444,0.0,0.0,-0.045554036421333356,-0.1026047651413019,-0.0999045610293125,-0.37731686880827564,-0.05882033050286465,0.004670959445812806
4015,8.0,301.44632,400.83502000000004,0.0,0.0,0.0,-0.040716691844128704,0.0,0.0,-0.003896764124680676,-0.06487993695040123,-0.05306713493856845,-0.3920723841845316,-0.08748041456964473,-0.03237028270619817
4016,8.0,300.14288999999997,781.8677,0.0,0.0,0.0,-0.040726832987800964,0.0,0.0,-0.04652723578463066,-0.07189352444658843,-0.11924749935881189,-0.3946517744340976,-0.11711464842831588,0.018800753267239883
4017,8.0,300.8197,1144.5402,0.0,0.0,0.0,-0.04073697413147324,0.0,0.0,-0.15031210595964986,-0.1044771702660939,-0.09312236236571161,-0.4154681972710186,-0.10503548120369491,-0.017510727822924285
4018,8.0,299.84623,896.1803699999999,0.0,0.0,0.0,-0.0407471152751455,0.0,0.0,-0.0961744692506811,-0.07909298963387032,-0.0971489969848595,-0.40469109695490163,-0.0984117903194875,0.008889349721210513
4019,8.0,299.3809,746.40133,0.0,0.0,0.0,-0.04075725641881776,0.0,0.0,-0.051666914492877455,-0.0940440724119273,-0.08117637876073483,-0.3992883460966916,-0.1029904587918669,-0.041446876790238264
4020,8.0,299.62716,1036.4492,0.0,0.0,0.0,-0.04076739756249002,0.0,0.0,-0.06332283701822744,-0.11402800491368789,-0.13770382966530986,-0.3984605410299936,-0.10279583371265891,-0.006573339143013063
4021,8.0,300.40877,1172.4353,0.0,0.0,0.0,-0.04077753870616227,0.0,0.0,-0.11367621461146889,-0.11623988935198389,-0.1264749515271059,-0.36133786406877066,-0.08989435222363182,0.006234066127229424
4022,8.0,300.95829,1025.0784,0.0,0.0,0.0,-0.04078767984983453,0.0,0.0,-0.07700828530837603,-0.1269216833636949,-0.1076682798660319,-0.3663488620408176,-0.09868954446339971,-0.0018712290454009283
4023,8.0,300.28558,662.4730599999999,0.0,0.0,0.0,-0.0407978209935068,0.0,0.0,-0.1001767504036755,-0.05884280540333275,-0.042355711467433256,-0.3582000007615877,-0.1060784600616289,0.026023773479596477
4024,8.0,299.26769,532.66245,0.0,0.0,0.0,-0.04080796213717906,0.0,0.0,-0.04118399310479366,-0.05980866680940585,-0.06092342430442385,-0.38691066526010964,-0.1027372577243779,-0.026477628464388475
4025,8.0,298.76623,851.92261,0.0,0.0,0.0,-0.04081810328085132,0.0,0.0,-0.04259925727471937,-0.1165953172220619,-0.09976862440914659,-0.3805466035020256,-0.09510546607717872,-0.03957324867257556
4026,8.0,298.70502,1100.4969,0.0,0.0,0.0,-0.04082824442452358,0.0,0.0,-0.08789036542760371,-0.07822835089953713,-0.16840487199776683,-0.4085531909035606,-0.06395504327237134,-0.02414864169878538
4027,8.0,298.24408999999997,815.61549,0.0,0.0,0.0,-0.04083838556819584,0.0,0.0,-0.045373278682993956,-0.09445312249054741,-0.10810033984117288,-0.4010985883278486,-0.08438848391599492,-0.03905592572801976
4028,8.0,300.24957,505.37115,0.0,0.0,0.0,-0.04084852671186811,0.0,0.0,-0.04243374692388476,-0.05393840134180574,-0.05724806424319405,-0.4136641966604776,-0.100242880171452,-0.013768398009585087
4029,8.0,299.89347999999995,763.35798,0.0,0.0,0.0,-0.04085866785554037,0.0,0.0,-0.08401292884593052,-0.08606273379823053,-0.06196610222707814,-0.38971490583936663,-0.1069319307533599,-0.02814574007751827
4030,8.0,300.02155,1041.3693,0.0,0.0,0.0,-0.04086880899921263,0.0,0.0,-0.08083911238544922,-0.11806489463709789,-0.11764627035828287,-0.3985186306582266,-0.08232593937018763,0.0076949916023115435
4031,8.0,300.34022999999996,862.25391,0.0,0.0,0.0,-0.04087895014288489,0.0,0.0,-0.048336184095409955,-0.11325192626459489,-0.10051554577336201,-0.38521667321292563,-0.0971794258986126,-0.06280844236646065
4032,8.0,300.17683999999997,656.0936,0.0,0.0,0.0,-0.04088909128655715,0.0,0.0,-0.025187129832276178,-0.08192285834790662,-0.092326083562625,-0.40357954133019963,-0.06624216254384244,0.015537545856436385
4033,8.0,299.728,799.61376,0.0,0.0,0.0,-0.040899232430229415,0.0,0.0,-0.05544341717908925,-0.09857129108397901,-0.08904790740809422,-0.37947722947898666,-0.10384067695077691,-0.04095801908074176
4034,8.0,299.72389,1016.6010000000001,0.0,0.0,0.0,-0.040909373573901675,0.0,0.0,-0.10427007207815489,-0.07415395572367563,-0.13059729876394988,-0.39597176573687065,-0.08592883279751552,0.04271353263424746
4035,8.0,298.50397999999996,1110.9774,0.0,0.0,0.0,-0.040919514717573935,0.0,0.0,-0.12314036571300788,-0.1065092737391469,-0.1080597389096659,-0.38366158762195063,-0.12534156036274888,-0.026138314310650775
4036,8.0,299.71494,1165.3808,0.0,0.0,0.0,-0.040929655861246195,0.0,0.0,-0.07137529768294343,-0.09746250163205,-0.18540888053843183,-0.39710211715092764,-0.1133195201787659,0.008596196404928532
4037,8.0,301.10236000000003,898.9277300000001,0.0,0.0,0.0,-0.040939797004918455,0.0,0.0,-0.07971971724472351,-0.09189192109352651,-0.10163994839608191,-0.39306863194785363,-0.12327641480393488,-0.027695630065095872
4038,8.0,301.39339,731.77442,0.0,0.0,0.0,-0.04094993814859072,0.0,0.0,-0.03968130470298986,-0.08206883222356312,-0.1006910143461794,-0.42754213612512354,-0.06605981298959594,-0.01039682248733649
4039,8.0,300.70191,917.4975800000001,0.0,0.0,0.0,-0.04096007929226298,0.0,0.0,-0.12142255215597288,-0.08029630113462792,-0.07717749604857582,-0.38673043846482263,-0.08052191849464463,0.0026021678078389674
4040,8.0,301.08904,893.91,0.0,0.0,0.0,-0.04097022043593524,0.0,0.0,-0.0977787633327626,-0.1041631437951019,-0.06978441295268534,-0.41459377256721963,-0.04263084332008666,-0.013924549982496088
4041,8.0,299.36072,564.7819099999999,0.0,0.0,0.0,-0.0409803615796075,0.0,0.0,-0.05598022998931854,-0.08870604493035501,-0.02699332514253377,-0.3769811993151476,-0.1046582177939619,-0.018832429491866084
4042,8.0,300.72729,784.4526599999999,0.0,0.0,0.0,-0.04099050272327976,0.0,0.0,-0.03224384125271937,-0.09580098019757059,-0.1104092024465399,-0.38425337634285567,-0.1223340314159289,-0.035596689886619765
4043,8.0,298.87473,1040.8149,0.0,0.0,0.0,-0.04100064386695203,0.0,0.0,-0.08079184426828423,-0.14382845029226288,-0.09176143981189902,-0.3580647521382397,-0.11889514163653689,-0.03541563526600106
4044,8.0,299.93082000000004,971.5970599999999,0.0,0.0,0.0,-0.04101078501062429,0.0,0.0,-0.05391417554516485,-0.09661768612267321,-0.14480938784657388,-0.38610591163318664,-0.07816221809201034,-0.015950008561393284
4045,8.0,299.51989,750.48364,0.0,0.0,0.0,-0.04102092615429655,0.0,0.0,-0.06299076557620453,-0.0922973893330431,-0.07284013308751143,-0.37259356293712165,-0.09924926280538961,-0.04364202942963296
4046,8.0,300.26327000000003,571.9717400000001,0.0,0.0,0.0,-0.04103106729796881,0.0,0.0,-0.05439115998998954,-0.06220062200247344,-0.057273344833189035,-0.4217748280134346,-0.06615814181905023,0.02117595740965428
4047,8.0,299.72632999999996,548.68755,0.0,0.0,0.0,-0.04104120844164107,0.0,0.0,-0.037436799690974465,-0.06409762174694274,-0.06525289404720923,-0.3825855565457546,-0.12042514928753688,-0.06870306433996452
4048,8.0,300.81037000000003,849.2756300000001,0.0,0.0,0.0,-0.04105134958531333,0.0,0.0,-0.05802647742051744,-0.10835208182851788,-0.09178002484523322,-0.4007692313828436,-0.08257244386776572,-0.01136700236533579
4049,8.0,300.25311,936.3580300000001,0.0,0.0,0.0,-0.04106149072898559,0.0,0.0,-0.08678967691022423,-0.0953875538917686,-0.10245223047124791,-0.41054778385791163,-0.13554558668730787,-0.06295657851783053
4050,8.0,300.25119,947.3774099999999,0.0,0.0,0.0,-0.04107163187265785,0.0,0.0,-0.06857201259853073,-0.10838960247972089,-0.11101745648156988,-0.4363541189322986,-0.1041131196376649,0.02024359911813768
4051,8.0,299.64027000000004,780.76439,0.0,0.0,0.0,-0.04108177301633011,0.0,0.0,-0.08204046122076313,-0.100251918362344,-0.055040499290074346,-0.41153851954068965,-0.09929107457076611,-0.03277837627672387
4052,8.0,300.16458,1172.7266,0.0,0.0,0.0,-0.04109191416000237,0.0,0.0,-0.14218946759300785,-0.08222948201366802,-0.13206064469087087,-0.39701867600519264,-0.04649680687087755,0.05368565826336195
4053,8.0,299.60852,1320.1122,0.0,0.0,0.0,-0.04110205530367464,0.0,0.0,-0.11248552415395689,-0.15258613302657884,-0.13620948841782987,-0.3662198347730836,-0.1049217742774729,0.0024933418086736775
4054,8.0,300.01614,1032.5242,0.0,0.0,0.0,-0.0411121964473469,0.0,0.0,-0.09348876576087281,-0.07972921241141062,-0.14064360257794287,-0.3855157339799406,-0.0997969315771903,0.019377618840672083
4055,8.0,299.16131,853.24969,0.0,0.0,0.0,-0.04112233759101916,0.0,0.0,-0.07115802646400043,-0.08691535538637774,-0.10129321725161221,-0.3633685185941806,-0.12020935741373989,0.009454664952777782
4056,8.0,300.53743,806.08782,0.0,0.0,0.0,-0.04113247873469142,0.0,0.0,-0.05842166117151904,-0.08374499714848772,-0.1028639139868779,-0.38392972399591363,-0.07647894116463383,-0.015251217590177986
4057,8.0,300.84063,771.82805,0.0,0.0,0.0,-0.04114261987836368,0.0,0.0,-0.07691783652494943,-0.06504477652966964,-0.09265384058572211,-0.38937898303371365,-0.1022662686803949,0.0008538822637891182
4058,8.0,300.91053,911.73958,0.0,0.0,0.0,-0.041152761022035945,0.0,0.0,-0.06736579712298653,-0.11592924713632588,-0.0938510158438741,-0.4370057096741056,-0.0954329059529945,-0.026099018445272577
4059,8.0,300.06056,842.2995400000001,0.0,0.0,0.0,-0.041162902165708205,0.0,0.0,-0.059535757014221743,-0.1138248786661409,-0.08267739428662352,-0.4000873545955476,-0.0997263799859774,-0.05194573457589485
4060,8.0,299.91872,636.2872,0.0,0.0,0.0,-0.041173043309380465,0.0,0.0,-0.028273328530110272,-0.08373161008816651,-0.08141048411683922,-0.40998832794769763,-0.06217253065670104,-0.050082026176711154
4061,8.0,299.09807,735.18597,0.0,0.0,0.0,-0.041183184453052725,0.0,0.0,-0.05535865475522385,-0.12609351352696088,-0.04202601204389446,-0.38474560310893463,-0.0988675076579633,-0.05819113258826765
4062,8.0,300.50684,1001.7575,0.0,0.0,0.0,-0.041193325596724985,0.0,0.0,-0.05656504754953554,-0.11451990743973489,-0.13342429694045288,-0.3986641435050876,-0.11405151231600788,-0.02153107826495198
4063,8.0,300.60987,701.60178,0.0,0.0,0.0,-0.04120346674039726,0.0,0.0,-0.06425688541091085,-0.0910375546887071,-0.05797498101068515,-0.38062168533443563,-0.1065029510585229,-0.020186952358047083
4064,8.0,300.3869,575.1820299999999,0.0,0.0,0.0,-0.04121360788406951,0.0,0.0,-0.007226547741254734,-0.08347077519442413,-0.08414365229433192,-0.3861032265204216,-0.04209709457815976,0.001931810458279848
4065,8.0,299.96096,946.43055,0.0,0.0,0.0,-0.04122374902774177,0.0,0.0,-0.07277703395078403,-0.08519969498580522,-0.1297145248793269,-0.39140807715396964,-0.07623130486669402,0.01083561652264209
4066,8.0,299.72725,1199.728,0.0,0.0,0.0,-0.04123389017141403,0.0,0.0,-0.1016349936030929,-0.11679659935442689,-0.14625577196682085,-0.4125497938029946,-0.09126718451911982,0.006813877624002364
4067,8.0,299.44498,1124.9375,0.0,0.0,0.0,-0.04124403131508629,0.0,0.0,-0.08675356670316042,-0.11544216768075488,-0.13975718099295986,-0.39024546385672865,-0.12496467185555288,-0.02336707427390068
4068,8.0,299.3978,868.37635,0.0,0.0,0.0,-0.04125417245875855,0.0,0.0,-0.07848410231752782,-0.07773337619918692,-0.10774725257882589,-0.3803595980635696,-0.0980164039184659,-0.011379986152117189
4069,8.0,300.23902000000004,715.0761,0.0,0.0,0.0,-0.04126431360243081,0.0,0.0,-0.09189795702437221,-0.06814402183579134,-0.05732330211611944,-0.4016414775989276,-0.13006740949165388,0.002523863333485918
4070,8.0,299.85156,746.80558,0.0,0.0,0.0,-0.04127445474610307,0.0,0.0,-0.08449145951040783,-0.055266328419361944,-0.08725246065489742,-0.4169799157577136,-0.1027866536667529,0.005845658384946564
4071,8.0,298.91024,1019.0468,0.0,0.0,0.0,-0.04128459588977533,0.0,0.0,-0.07374478506829364,-0.10559649751906292,-0.13042350610679787,-0.4138797554867516,-0.09665321573742972,0.008313402253693923
4072,8.0,300.05987999999996,950.56919,0.0,0.0,0.0,-0.04129473703344759,0.0,0.0,-0.07995886655982572,-0.08889309089881502,-0.12009734261518487,-0.4007435758903116,-0.043237333286692554,-0.01038401601932259
4073,8.0,300.38196,845.77259,0.0,0.0,0.0,-0.04130487817711986,0.0,0.0,-0.05070052518350225,-0.08398704537212602,-0.12240617482304889,-0.40763791195572957,-0.07516525430398303,-0.005916840116396654
4074,8.0,300.70821,1051.1167,0.0,0.0,0.0,-0.04131501932079212,0.0,0.0,-0.0903138864010366,-0.1271942375080939,-0.1020051034671199,-0.3941370028532936,-0.1120584797668109,-0.03282303831463167
4075,8.0,301.05815,1278.6796,0.0,0.0,0.0,-0.041325160464464376,0.0,0.0,-0.1259045525158119,-0.13097446084867287,-0.13180766653840387,-0.3837883756069636,-0.13187071095962588,-0.003496495175402207
4076,8.0,300.11922999999996,862.8421599999999,0.0,0.0,0.0,-0.041335301608136636,0.0,0.0,-0.045999450019542254,-0.1180485509129849,-0.0982344705387374,-0.3631058740357596,-0.1005994580803935,-0.03897328504986376
4077,8.0,300.46022999999997,559.36045,0.0,0.0,0.0,-0.041345442751808896,0.0,0.0,-0.018133791521415882,-0.08473244483469121,-0.06716537220020614,-0.3888524982817536,-0.08804080773620122,-0.041128183289285664
4078,8.0,301.37967000000003,673.59953,0.0,0.0,0.0,-0.04135558389548117,0.0,0.0,-0.06095514409880435,-0.07963128989524641,-0.06417100233243483,-0.39880173273616665,-0.06733031715748494,-0.051980664346592154
4079,8.0,300.86377999999996,531.0570799999999,0.0,0.0,0.0,-0.04136572503915343,0.0,0.0,-0.03215415240686777,-0.07644338723187492,-0.05283055218596954,-0.42270286378002453,-0.07742340982134563,-0.04183274978607096
4080,8.0,301.2745,787.67412,0.0,0.0,0.0,-0.04137586618282569,0.0,0.0,-0.07306722877942402,-0.10050913392672921,-0.06585690155107014,-0.4034095382284216,-0.1044333066692649,-0.05061011895657985
4081,8.0,300.29195,990.71777,0.0,0.0,0.0,-0.04138600732649795,0.0,0.0,-0.1088071729784319,-0.07458136082785723,-0.11776493207749388,-0.4346286350720066,-0.10020120519483901,6.204450245356564e-05
4082,8.0,300.62348,954.98345,0.0,0.0,0.0,-0.0413961484701702,0.0,0.0,-0.0856457570640781,-0.11179675726598089,-0.0928486125861946,-0.41304435104430365,-0.13461463276042987,-0.009309447670970951
4083,8.0,300.0732,1080.2568,0.0,0.0,0.0,-0.041406289613842476,0.0,0.0,-0.100845571463433,-0.09466910992161372,-0.13285641078940688,-0.42210407350092854,-0.10931981673402588,0.01910732829699648
4084,8.0,299.04963,1237.5754,0.0,0.0,0.0,-0.041416430757514736,0.0,0.0,-0.12177599405585487,-0.11613665943179588,-0.13827934558960886,-0.38919597993315264,-0.07986311138562542,0.014192526262943287
4085,8.0,299.46614,918.0564699999999,0.0,0.0,0.0,-0.041426571901186995,0.0,0.0,-0.07018681813714964,-0.07890863992392642,-0.1299707859621179,-0.37683741912595764,-0.06937836209436124,0.005533103659724815
4086,8.0,300.64862,563.59178,0.0,0.0,0.0,-0.041436713044859255,0.0,0.0,-0.06517395983791904,-0.04852246911304486,-0.057621398269039246,-0.35743517932110563,-0.09066009166870441,-4.1631265003685955e-05
4087,8.0,299.76583999999997,600.24274,0.0,0.0,0.0,-0.041446854188531515,0.0,0.0,-0.05246081013172885,-0.06213069963957264,-0.06786729512748053,-0.3886600618227616,-0.11087501378251188,-0.004692187035407806
4088,8.0,300.94402,906.26316,0.0,0.0,0.0,-0.04145699533220378,0.0,0.0,-0.06979823469729944,-0.1042379216524819,-0.1014452118593629,-0.38425207938272765,-0.13761982109951887,-0.022498493996678477
4089,8.0,300.97137999999995,902.96374,0.0,0.0,0.0,-0.04146713647587604,0.0,0.0,-0.0947470025098011,-0.09220839861651042,-0.08752302882910042,-0.4296891725570196,-0.1059752909364469,-0.01004156889627569
4090,8.0,300.48145,787.13753,0.0,0.0,0.0,-0.0414772776195483,0.0,0.0,-0.060976388913651036,-0.101319509065207,-0.07697425631701763,-0.4177081082070806,-0.10763621050036691,-0.04731207296758805
4091,8.0,299.66098999999997,871.3418300000001,0.0,0.0,0.0,-0.04148741876322056,0.0,0.0,-0.07218230173833852,-0.09878415567823709,-0.09389970352442921,-0.4215400782302666,-0.06719075310196103,-0.03197286271222587
4092,8.0,299.21643,859.7314,0.0,0.0,0.0,-0.04149755990689282,0.0,0.0,-0.060496718342811236,-0.1271752593337209,-0.07366489840390943,-0.40328081493571766,-0.06395492978836013,-0.04045567805216456
4093,8.0,298.88272,874.9054699999999,0.0,0.0,0.0,-0.04150770105056509,0.0,0.0,-0.06722267858611183,-0.11031746278248589,-0.08840927613506622,-0.4001628923905026,-0.08249427871530142,-0.02149428208757048
4094,8.0,299.88924,889.71021,0.0,0.0,0.0,-0.04151784219423735,0.0,0.0,-0.03962371156730586,-0.1102917870249519,-0.12053418513079789,-0.34863115052721566,-0.13459930228641687,-0.02747023663335127
4095,8.0,300.36554,540.7167599999999,0.0,0.0,0.0,-0.04152798333790961,0.0,0.0,-0.04815520546854875,-0.05518133497447374,-0.06102785492598034,-0.37360077406652564,-0.08309317741215812,-0.0013302890648643087
4096,8.0,300.35699,556.12032,0.0,0.0,0.0,-0.04153812448158187,0.0,0.0,-0.007938641977007962,-0.08591910660980562,-0.07518894206482082,-0.35651933295321864,-0.12788494983626186,-0.05773109677786564
4097,8.0,300.71486,1034.1307,0.0,0.0,0.0,-0.04154826562525413,0.0,0.0,-0.08868793207156742,-0.09613604478038891,-0.12952594890321587,-0.4203551430333226,-0.07728735870391842,0.007807465605811862
4098,8.0,300.5341,1184.6965,0.0,0.0,0.0,-0.041558406768926394,0.0,0.0,-0.12225054974018988,-0.11074864123003988,-0.12711897329066588,-0.40503340323618464,-0.1078057981696039,-0.03007741324040957
4099,8.0,300.45743999999996,962.0505800000001,0.0,0.0,0.0,-0.041568547912598654,0.0,0.0,-0.06735661201083004,-0.07999319851296402,-0.14508954136672286,-0.4075508433746366,-0.06409135884807464,0.014773283730009586
4100,8.0,300.74953999999997,928.11084,0.0,0.0,0.0,-0.041578689056270914,0.0,0.0,-0.08787219177381012,-0.08052930711437382,-0.11372102053089088,-0.3915380568767976,-0.0923997985206501,-0.02162486672070818
4101,8.0,300.88768,1081.5772,0.0,0.0,0.0,-0.04158883019994317,0.0,0.0,-0.1043125475223469,-0.1005568711786905,-0.12390302893077688,-0.4274695874179636,-0.09225108481672321,0.03399124576567476
4102,8.0,299.66799,1014.3976,0.0,0.0,0.0,-0.04159897134361543,0.0,0.0,-0.1108785702903629,-0.09177711377769592,-0.1056958568238689,-0.39047912946228963,-0.13352194385258986,-0.02111029677667408
4103,8.0,299.84921,1042.708,0.0,0.0,0.0,-0.0416091124872877,0.0,0.0,-0.11288232302561789,-0.0892764246898971,-0.1147984397597239,-0.4124911063572026,-0.06278902545479434,0.014830438128400288
4104,8.0,300.00228,855.55526,0.0,0.0,0.0,-0.04161925363095996,0.0,0.0,-0.09694379762760791,-0.08658843125486282,-0.07653520795593693,-0.36478990583446064,-0.07490688566098402,-0.016830886655079185
4105,8.0,300.86125,742.59614,0.0,0.0,0.0,-0.04162939477463222,0.0,0.0,-0.0098863492147817,-0.08282592965853283,-0.13301839908289387,-0.4280061033459136,-0.06807367390784853,0.002926209952094437
4106,8.0,300.3606,942.14459,0.0,0.0,0.0,-0.04163953591830448,0.0,0.0,-0.07105988913881503,-0.10477229962272089,-0.1105562351685509,-0.36839205046996465,-0.13330078175326288,-0.02226369355100548
4107,8.0,299.71971,982.61454,0.0,0.0,0.0,-0.04164967706197674,0.0,0.0,-0.06619587423952414,-0.08691886528472412,-0.14557554677718787,-0.39749420440962363,-0.1072141817012159,-0.013481799205549988
4108,8.0,299.62387,573.43699,0.0,0.0,0.0,-0.041659818205649006,0.0,0.0,-0.03489144349901737,-0.08131414733708152,-0.05810493540226065,-0.36154527636424066,-0.11850384471291889,-0.05899318793017434
4109,8.0,299.69595,516.16902,0.0,0.0,0.0,-0.041669959349321266,0.0,0.0,-0.017800513298523883,-0.08601972943748633,-0.05308224959031015,-0.4083079742468596,-0.08903091925691761,-0.037087643839015465
4110,8.0,299.64527999999996,873.91886,0.0,0.0,0.0,-0.041680100492993526,0.0,0.0,-0.07203563074661323,-0.1084063515038739,-0.08520752943557842,-0.4156495791714196,-0.10336478377630991,-0.045958247217475864
4111,8.0,299.92049,1016.5787,0.0,0.0,0.0,-0.041690241636665785,0.0,0.0,-0.047996988491933956,-0.13001596678407687,-0.1310015855538499,-0.43968770162879756,-0.05045801694431855,-0.018785343759719086
4112,8.0,299.78204,693.61495,0.0,0.0,0.0,-0.041700382780338045,0.0,0.0,-0.06926515571368864,-0.08359490745092502,-0.05798156207008465,-0.4060965863011126,-0.1032537011678469,-0.036489430099226366
4113,8.0,300.38085,804.40888,0.0,0.0,0.0,-0.04171052392401031,0.0,0.0,-0.05775946676741554,-0.07771427542155182,-0.10904647225454889,-0.4131772185299166,-0.07642909229946412,-0.003968148404825757
4114,8.0,300.6609,1139.1787,0.0,0.0,0.0,-0.04172066506768257,0.0,0.0,-0.10939570916651589,-0.12959082730711888,-0.1072953531667269,-0.3929615111472816,-0.1277694697223649,-0.026527596893069976
4115,8.0,300.38675,1235.5833,0.0,0.0,0.0,-0.04173080621135483,0.0,0.0,-0.14976578177073185,-0.10034520019305021,-0.1254754917609669,-0.41020426167650864,-0.09208983315605891,0.02134917454074948
4116,8.0,300.2322,1077.8379,0.0,0.0,0.0,-0.04174094735502709,0.0,0.0,-0.0988237757836473,-0.1034491672446379,-0.1253628791448529,-0.3930605056820516,-0.08613208975432542,-0.0044876955346760655
4117,8.0,300.30574,685.51745,0.0,0.0,0.0,-0.04175108849869935,0.0,0.0,-0.055767301560304156,-0.045876563047414255,-0.1067363228215549,-0.4073213422269866,-0.09345563754885332,0.02486485043921968
4118,8.0,300.18216,512.1435799999999,0.0,0.0,0.0,-0.04176122964237161,0.0,0.0,-0.02090165540883278,-0.042153330971959856,-0.09262387472726473,-0.3908561395594976,-0.10562787787465991,0.005271468906353475
4119,8.0,300.57649,937.43076,0.0,0.0,0.0,-0.04177137078604388,0.0,0.0,-0.093433788836947,-0.07322488948173393,-0.11829686811499189,-0.42074729108702463,-0.11405781473162989,0.006913074707467354
4120,8.0,299.5665,1239.9749,0.0,0.0,0.0,-0.04178151192971614,0.0,0.0,-0.13206310688861386,-0.1088737435100019,-0.13598455702813086,-0.38593641515645866,-0.14475613142131788,-0.004483723290309036
4121,8.0,300.21926,920.51821,0.0,0.0,0.0,-0.0417916530733884,0.0,0.0,-0.1090942469967639,-0.09945860230254981,-0.07126169816123203,-0.4077156687684036,-0.11611324322198488,-0.010611577806281188
4122,8.0,300.2455,860.00172,0.0,0.0,0.0,-0.04180179421706066,0.0,0.0,-0.03093179585723057,-0.12229251855933188,-0.10819473422048889,-0.40029502020354263,-0.1156399135702709,-0.017399922844988685
4123,8.0,299.90137000000004,1026.2913,0.0,0.0,0.0,-0.04181193536073292,0.0,0.0,-0.0924446682748284,-0.09257132352407832,-0.1269509257615809,-0.43003792310893857,-0.07143836540891774,-0.012125898319232989
4124,8.0,299.5854,933.2331800000001,0.0,0.0,0.0,-0.04182207650440518,0.0,0.0,-0.05706112061299414,-0.1141135232221279,-0.11250493802587289,-0.42900414456191266,-0.04431959179800316,-0.007230420484461943
4125,8.0,300.1115,622.41088,0.0,0.0,0.0,-0.04183221764807744,0.0,0.0,-0.034722503296594265,-0.08986488387097351,-0.06460997875275844,-0.4060214538061976,-0.041202068473327566,-0.046988905967443956
4126,8.0,299.76281,478.72742,0.0,0.0,0.0,-0.0418423587917497,0.0,0.0,-0.037907974159725764,-0.07568554505808173,-0.031927663651765074,-0.41157030519632665,-0.08338201549891422,-0.04113956107465856
4127,8.0,299.50841,492.82802999999996,0.0,0.0,0.0,-0.041852499935421957,0.0,0.0,-0.027056351325253972,-0.0910805012941956,-0.03167056258464117,-0.4024328867220336,-0.1057345123151839,-0.047866225526778654
4128,8.0,300.39329,771.84995,0.0,0.0,0.0,-0.04186264107909422,0.0,0.0,-0.024335587355485477,-0.0990957381899879,-0.1111917861612749,-0.3944773434293826,-0.14555002300716885,-0.023134460421943476
4129,8.0,300.69257000000005,1034.6775,0.0,0.0,0.0,-0.04187278222276648,0.0,0.0,-0.07194993815915603,-0.1137801740717289,-0.12878601288518987,-0.38914353410797664,-0.11895107304205689,-0.012015555383342988
4130,8.0,299.37512999999996,856.1597199999999,0.0,0.0,0.0,-0.04188292336643874,0.0,0.0,-0.05484829385210515,-0.0962863827242261,-0.10911649796895989,-0.39448609791024664,-0.12423817153385287,0.007657876757773592
4131,8.0,300.22083,889.31798,0.0,0.0,0.0,-0.041893064510111,0.0,0.0,-0.08850135219815342,-0.09460542816607881,-0.08722368029905701,-0.39133393764415264,-0.11892795067477488,-0.014843890036727883
4132,8.0,298.99692999999996,1179.4605,0.0,0.0,0.0,-0.04190320565378326,0.0,0.0,-0.14527208850473886,-0.1055624016531979,-0.1076920507133779,-0.3995864037461076,-0.08308558918215922,0.01179130793746149
4133,8.0,299.48143999999996,1215.289,0.0,0.0,0.0,-0.041913346797455536,0.0,0.0,-0.14355658515793188,-0.09298021958868322,-0.13288070852680486,-0.3994116282363586,-0.09345619483640832,-0.0030118480266962573
4134,8.0,299.16952000000003,878.41614,0.0,0.0,0.0,-0.04192348794112779,0.0,0.0,-0.06257353856927743,-0.0964658435024375,-0.1079771894240189,-0.41184722644865657,-0.10372387961174989,0.0026039368411885574
4135,8.0,299.63691,642.93431,0.0,0.0,0.0,-0.04193362908480005,0.0,0.0,-0.030581271104386472,-0.06887232168966893,-0.09598238337622372,-0.4217728724407416,-0.1035939100214229,0.00921659008808162
4136,8.0,299.64251,959.72344,0.0,0.0,0.0,-0.04194377022847231,0.0,0.0,-0.07845311307646942,-0.08342076319598832,-0.12985808215349487,-0.4154166836359346,-0.07766911081159443,-0.004218925170125495
4137,8.0,301.37627000000003,1121.5631,0.0,0.0,0.0,-0.04195391137214457,0.0,0.0,-0.1063510648685329,-0.11989850241556088,-0.11467760968529889,-0.3910869781972796,-0.07264465586496933,-0.0012729585636062288
4138,8.0,300.72662,963.78303,0.0,0.0,0.0,-0.04196405251581684,0.0,0.0,-0.11708090719998587,-0.08078926352027951,-0.09509580676397542,-0.41243999802215864,-0.06973764436781964,-0.026331034479670775
4139,8.0,301.90362999999996,909.39936,0.0,0.0,0.0,-0.0419741936594891,0.0,0.0,-0.05695778835454604,-0.1146385792914469,-0.1048383331317379,-0.37133642353805163,-0.11966722808023589,-0.02277732117244658
4140,8.0,299.79039,699.59932,0.0,0.0,0.0,-0.04198433480316136,0.0,0.0,-0.038635501917027165,-0.0923471804429571,-0.08167804293824522,-0.4086511215257256,-0.11373552013982188,-0.015926980426370585
4141,8.0,300.5794,692.87668,0.0,0.0,0.0,-0.04199447594683362,0.0,0.0,-0.023949810618412275,-0.098687672990465,-0.08797972496717282,-0.3917970436023576,-0.1277519202306329,-0.03302958630776637
4142,8.0,299.86273,821.65698,0.0,0.0,0.0,-0.04200461709050588,0.0,0.0,-0.05512773809718415,-0.1194714478959139,-0.07516401712561092,-0.43647656007438257,-0.09868476698917822,-0.016338996288033383
4143,8.0,299.86737999999997,707.14549,0.0,0.0,0.0,-0.04201475823417815,0.0,0.0,-0.05516353419671695,-0.12272424416193987,-0.037066796218207965,-0.41759868732878164,-0.08987733367495222,-0.06357191213130924
4144,8.0,299.73184,662.86689,0.0,0.0,0.0,-0.04202489937785041,0.0,0.0,-0.07358529848930354,-0.08379753619267291,-0.04411214910503016,-0.42671589146357963,-0.05298648529685895,-0.03617611796955486
4145,8.0,300.08657,946.43741,0.0,0.0,0.0,-0.04203504052152267,0.0,0.0,-0.056035642610787355,-0.13167317785263086,-0.0999845176079536,-0.4007196631879516,-0.08970544592798822,-0.05961230197977615
4146,8.0,300.34691000000004,992.0384,0.0,0.0,0.0,-0.04204518166519493,0.0,0.0,-0.06204915023177435,-0.08322253297292452,-0.15628321919645285,-0.3957686293568226,-0.09075430771600282,0.0012922080863560087
4147,8.0,301.5426,865.6601099999999,0.0,0.0,0.0,-0.04205532280886719,0.0,0.0,-0.055734568515823646,-0.0952275242107249,-0.1121769692335049,-0.40394687488895265,-0.13580897091830188,-0.01076273445619919
4148,8.0,300.64493,789.80453,0.0,0.0,0.0,-0.042065463952539454,0.0,0.0,-0.07669577465953363,-0.05808076533437525,-0.1053043167202269,-0.3988532159737476,-0.09503106008258541,0.03162741434238277
4149,8.0,300.87032,940.32563,0.0,0.0,0.0,-0.042075605096211714,0.0,0.0,-0.12384434148498487,-0.07444902631179683,-0.08754214277898682,-0.40274592020792765,-0.10598850371775091,0.01021893933953079
4150,8.0,300.00927,1001.4436,0.0,0.0,0.0,-0.042085746239883974,0.0,0.0,-0.1129991102321439,-0.09257335914352922,-0.0988413870836354,-0.4362450020290296,-0.06432209920059694,0.0005066929884192045
4151,8.0,300.04166000000004,1068.7553,0.0,0.0,0.0,-0.042095887383556234,0.0,0.0,-0.1006243830196034,-0.1053189987141759,-0.11893155784513088,-0.4237947319552836,-0.08979116992619851,0.004022081275848517
4152,8.0,300.22325,1008.9342,0.0,0.0,0.0,-0.042106028527228494,0.0,0.0,-0.06839864246667043,-0.0963618880951779,-0.14193026808492687,-0.4313223493332016,-0.08709386370949511,-0.004915357599083026
4153,8.0,299.69457,874.5117,0.0,0.0,0.0,-0.04211616967090076,0.0,0.0,-0.08352938563320852,-0.0977842247508016,-0.08451610985884062,-0.39101516916269263,-0.13410141145227888,0.008696180783721221
4154,8.0,300.40317999999996,1046.723,0.0,0.0,0.0,-0.04212631081457302,0.0,0.0,-0.08962537079908542,-0.10189321025857691,-0.1266590692027769,-0.38959833141536165,-0.11183114697437489,-0.012432756045767488
4155,8.0,300.9612,1122.7152,0.0,0.0,0.0,-0.04213645195824528,0.0,0.0,-0.14522389832998286,-0.10871552450688689,-0.08733795160558473,-0.3641939222581416,-0.11230082892572889,-0.01011879395529721
4156,8.0,299.71107,773.79433,0.0,0.0,0.0,-0.04214659310191754,0.0,0.0,-0.05427802960307445,-0.08669365119824722,-0.0942424748875081,-0.41848189691094756,-0.05553627040500315,-0.019031169379730182
4157,8.0,300.11857000000003,618.23401,0.0,0.0,0.0,-0.0421567342455898,0.0,0.0,-0.0072981295038443035,-0.09352547581199581,-0.08710409550900491,-0.4081905284277686,-0.09696158827286372,-0.04987679540870645
4158,8.0,299.13462000000004,776.72194,0.0,0.0,0.0,-0.042166875389262067,0.0,0.0,-0.0064992760322536034,-0.08936507900739661,-0.14023972108808286,-0.4507236366829595,-0.07409889976624204,-0.005389866977888454
4159,8.0,299.28104,864.94894,0.0,0.0,0.0,-0.042177016532934326,0.0,0.0,-0.046162696769653455,-0.12161895042285588,-0.09514123481895881,-0.4354090706965296,-0.1026315352089439,-0.05781060144696215
4160,8.0,299.38678,895.22505,0.0,0.0,0.0,-0.042187157676606586,0.0,0.0,-0.04476369729033296,-0.1266817457400149,-0.1006806163736532,-0.44471508385496156,-0.08030200674594101,-0.005537828039641074
4161,8.0,300.0326,916.78035,0.0,0.0,0.0,-0.042197298820278846,0.0,0.0,-0.08564644202114573,-0.1286848297302039,-0.06434706365656073,-0.4138031233816886,-0.12057055067688688,-0.06178005532321674
4162,8.0,300.72912,878.20747,0.0,0.0,0.0,-0.042207439963951106,0.0,0.0,-0.06485445371038624,-0.11355802911980488,-0.08854065920928272,-0.4028271626009456,-0.08723153501383223,0.0006460749325026314
4163,8.0,300.79767999999996,865.6706800000001,0.0,0.0,0.0,-0.04221758110762337,0.0,0.0,-0.046918825537527555,-0.1098646514452969,-0.10635879596679589,-0.3606421868151127,-0.1039643441254819,-0.05958723518555225
4164,8.0,301.68469,1087.8753,0.0,0.0,0.0,-0.04222772225129563,0.0,0.0,-0.0888218199000311,-0.1039958764685939,-0.13786922247913286,-0.3984418465656486,-0.06289480572548403,0.023574165369088976
4165,8.0,301.81818,1037.4411,0.0,0.0,0.0,-0.04223786339496789,0.0,0.0,-0.097194365258087,-0.08826136391196843,-0.12990046640517788,-0.39122304755320864,-0.1006543336793093,-0.003135870345561307
4166,8.0,300.08704,865.29124,0.0,0.0,0.0,-0.04224800453864015,0.0,0.0,-0.10762782078953889,-0.07727617039631422,-0.07812294451813433,-0.41783702401730366,-0.10653798924698091,0.013035160587970187
4167,8.0,300.30978999999996,1051.4953,0.0,0.0,0.0,-0.04225814568231241,0.0,0.0,-0.15047895785361684,-0.09427415212538441,-0.07487521348935823,-0.38292222915648166,-0.10073468846523971,0.001359664603813449
4168,8.0,299.41086,1275.1275,0.0,0.0,0.0,-0.04226828682598468,0.0,0.0,-0.11537402661152989,-0.1108147760640669,-0.16141812752322884,-0.42466657287132764,-0.1071113570810679,-0.0025577676950820174
4169,8.0,298.68482,1043.3566,0.0,0.0,0.0,-0.04227842796965694,0.0,0.0,-0.052723516498405947,-0.12601195702641188,-0.13841889039338087,-0.42219887318028465,-0.1175243966362549,-0.02012894784282248
4170,8.0,300.41502,805.86673,0.0,0.0,0.0,-0.0422885691133292,0.0,0.0,-0.013900901738412186,-0.09726086992840051,-0.13380159074768888,-0.44386202859577156,-0.07866504548063552,-0.021756787830727778
4171,8.0,300.31237000000004,627.74686,0.0,0.0,0.0,-0.04229871025700146,0.0,0.0,-0.05921039024811054,-0.06549552286315484,-0.06611345748964023,-0.35505692934889066,-0.08579133982519602,-0.015258720707168485
4172,8.0,299.76094,640.21745,0.0,0.0,0.0,-0.04230885140067372,0.0,0.0,-0.04951794579304075,-0.09291883284462482,-0.05217333790610755,-0.39527660524076363,-0.08333819243208922,-0.02025226341974278
4173,8.0,300.73262,770.795,0.0,0.0,0.0,-0.04231899254434598,0.0,0.0,-0.08163497170299441,-0.10629488015048791,-0.04637258139536746,-0.3971791849535336,-0.10989325549561989,-0.014729023952391486
4174,8.0,300.94886,941.442,0.0,0.0,0.0,-0.04232913368801824,0.0,0.0,-0.04299824983284686,-0.13072670093422087,-0.1124499084129419,-0.4358780028428096,-0.11175950005980388,-0.04794758849655855
4175,8.0,299.87602999999996,861.56654,0.0,0.0,0.0,-0.042339274831690504,0.0,0.0,-0.04576044661245446,-0.11773427112946788,-0.09839999507507341,-0.41429211787994863,-0.10282803480083691,-0.036038559135978865
4176,8.0,300.0584,779.85196,0.0,0.0,0.0,-0.042349415975362764,0.0,0.0,-0.048580618523033754,-0.08257264753103583,-0.1059022558692389,-0.40559424729903565,-0.07844213248513572,-0.024805046391817475
4177,8.0,299.73567,1006.2556,0.0,0.0,0.0,-0.042359557119035024,0.0,0.0,-0.08807548926062402,-0.1251870397224989,-0.0926140553205456,-0.4269809374247376,-0.09649943071675232,-0.031643332501453764
4178,8.0,300.36976,1055.2196,0.0,0.0,0.0,-0.042369698262707284,0.0,0.0,-0.11473196042066289,-0.099285146044431,-0.1067433041147439,-0.4525791914585886,-0.06169003717108264,-0.01161349065091229
4179,8.0,299.63952,946.6859,0.0,0.0,0.0,-0.042379839406379544,0.0,0.0,-0.06948845982372703,-0.12614246363929188,-0.09213795544305822,-0.4138431974231436,-0.1142782675558869,-0.020298552737311182
4180,8.0,300.44932,857.3508,0.0,0.0,0.0,-0.0423899805500518,0.0,0.0,-0.056235509232762645,-0.08854925764963131,-0.11582846928137988,-0.4061818918270316,-0.11779971695342688,0.009530791648690902
4181,8.0,299.97643,952.3562099999999,0.0,0.0,0.0,-0.04240012169372406,0.0,0.0,-0.05536103082670835,-0.1001521365322463,-0.13397933508023088,-0.3933988298904416,-0.15268055780339784,0.02071279470944368
4182,8.0,300.83322000000004,941.9228400000001,0.0,0.0,0.0,-0.04241026283739632,0.0,0.0,-0.06682668119527994,-0.1084459493177819,-0.11104839100712288,-0.39074870465139466,-0.12417212789233488,0.006422472181298654
4183,8.0,299.69587,989.7746300000001,0.0,0.0,0.0,-0.04242040398106859,0.0,0.0,-0.11225842440904388,-0.08713637360419052,-0.1014719717945039,-0.37691224764584264,-0.09687650059571622,0.01999881309272918
4184,8.0,299.28811,997.4898300000001,0.0,0.0,0.0,-0.04243054512474085,0.0,0.0,-0.12289670946146088,-0.07800240929948843,-0.1023128781849949,-0.3805986946896666,-0.08475224475489533,-0.01161073663714049
4185,8.0,299.44277999999997,854.03865,0.0,0.0,0.0,-0.04244068626841311,0.0,0.0,-0.09195990510898601,-0.1089901659464919,-0.05865635522593154,-0.4059164709633366,-0.0983537503405094,-0.003435634916095767
4186,8.0,299.21457999999996,815.76822,0.0,0.0,0.0,-0.04245082741208537,0.0,0.0,-0.024050999852898877,-0.09068981536038792,-0.13323235697400987,-0.4028508726532856,-0.10852938033101589,-0.05047801546154225
4187,8.0,299.03303999999997,1022.2414,0.0,0.0,0.0,-0.04246096855575763,0.0,0.0,-0.08793819387207401,-0.0978247729933034,-0.12497289944636489,-0.4142254156258656,-0.1090474652396469,-0.008908638659389182
4188,8.0,299.90369,948.8086400000001,0.0,0.0,0.0,-0.042471109699429896,0.0,0.0,-0.05696048056006174,-0.11239993491800991,-0.1190537254096879,-0.4067398278620956,-0.1026301571888079,-0.04120615997723136
4189,8.0,300.0469,596.059,0.0,0.0,0.0,-0.042481250843102156,0.0,0.0,-0.07941912343030721,-0.05653835854190154,-0.04522957043456106,-0.4201887977644056,-0.10629229636273291,-0.015844613325741587
4190,8.0,300.10874,684.87969,0.0,0.0,0.0,-0.042491391986774416,0.0,0.0,-0.03533153145470067,-0.12279878897179687,-0.05005600287439285,-0.4067621396292976,-0.07003533826044973,-0.04645562940006366
4191,8.0,300.73542000000003,802.88463,0.0,0.0,0.0,-0.042501533130446675,0.0,0.0,-0.05143972862170595,-0.10424918899359391,-0.08836796288873892,-0.4414062852559086,-0.08343874939851342,-0.02869074906780647
4192,8.0,299.79449,775.68651,0.0,0.0,0.0,-0.042511674274118935,0.0,0.0,-0.014167406779714186,-0.12929549530047188,-0.09232643110740932,-0.4142730079830626,-0.1052131546087299,-0.04195289085042796
4193,8.0,300.33165,760.29705,0.0,0.0,0.0,-0.04252181541779121,0.0,0.0,-0.025643434855809975,-0.1025247994434099,-0.10294307921719091,-0.43928272582882955,-0.12085967146042087,-0.017641453297825883
4194,8.0,299.86958,746.4175700000001,0.0,0.0,0.0,-0.04253195656146347,0.0,0.0,-0.03872657486251536,-0.0993113233607645,-0.08885440602324711,-0.3830158939957256,-0.12267988407256189,-0.00986374745540108
4195,8.0,298.61498,781.44262,0.0,0.0,0.0,-0.04254209770513573,0.0,0.0,-0.08836495657569222,-0.08416264769395662,-0.06501144060137964,-0.39620007124940265,-0.11928480722749388,-0.04191530332471836
4196,8.0,299.36003999999997,1193.308,0.0,0.0,0.0,-0.04255223884880798,0.0,0.0,-0.14828451144954186,-0.1014879203510779,-0.1129634032986199,-0.3872839972594546,-0.1003696813287163,0.016671589553857787
4197,8.0,299.34427999999997,1138.8375,0.0,0.0,0.0,-0.04256237999248024,0.0,0.0,-0.1221872722714449,-0.08935052974921072,-0.13464035918046888,-0.4029952101300306,-0.09347920675942942,-0.014542426853725787
4198,8.0,298.45891,605.34826,0.0,0.0,0.0,-0.042572521136152515,0.0,0.0,-0.02089961776288168,-0.05596766366157835,-0.1071434771092379,-0.4059337063475376,-0.1044390619298329,0.006345538330355874
4199,8.0,298.71567000000005,758.75539,0.0,0.0,0.0,-0.042582662279824775,0.0,0.0,-0.07226011225326784,-0.039298493748959364,-0.11908408238268388,-0.42363013960903967,-0.08836077691902972,0.004893553976806175
4200,8.0,298.41552,1173.9796,0.0,0.0,0.0,-0.042592803423497035,0.0,0.0,-0.09769959202294899,-0.1086760077529869,-0.15048489549920285,-0.42107379066674755,-0.11166865205583791,0.019316025393593284
4201,8.0,298.26692,1052.6263,0.0,0.0,0.0,-0.042602944567169294,0.0,0.0,-0.14108182311369188,-0.09870601687027541,-0.08018427620357192,-0.4193841859924966,-0.08091563708600163,0.0005681801050325104
4202,8.0,299.78276,799.86177,0.0,0.0,0.0,-0.042613085710841554,0.0,0.0,-0.04551124889611055,-0.1059630407427379,-0.09166371994575481,-0.4120532201939866,-0.07272807674570234,-0.01682810224380438
4203,8.0,299.4427,728.48181,0.0,0.0,0.0,-0.04262322685451382,0.0,0.0,-0.05134533120263965,-0.1143854592839659,-0.05570949158909875,-0.4064187694354096,-0.04944908227649445,-0.03827880241807367
4204,8.0,299.22008999999997,830.97158,0.0,0.0,0.0,-0.04263336799818608,0.0,0.0,-0.016387630266333185,-0.10866791188468791,-0.1275390667821259,-0.41215417030144963,-0.08158784138784302,-0.03736887140427046
4205,8.0,300.36093999999997,989.1280199999999,0.0,0.0,0.0,-0.04264350914185834,0.0,0.0,-0.08164301386903812,-0.1125247065353239,-0.1065025052284789,-0.4243535596504356,-0.08053498536793423,-0.021703300384448978
4206,8.0,299.97716,938.7951400000001,0.0,0.0,0.0,-0.0426536502855306,0.0,0.0,-0.04567621209189116,-0.11969385629286389,-0.12000021246059889,-0.3953978406152286,-0.13988306718538385,-0.025925513551148974
4207,8.0,300.42427999999995,594.37801,0.0,0.0,0.0,-0.04266379142920286,0.0,0.0,-0.059742964633171546,-0.07149944007194534,-0.04943366871597325,-0.38604299893447763,-0.1199945585250409,-0.021723644419956778
4208,8.0,301.54049,728.1644200000001,0.0,0.0,0.0,-0.04267393257287513,0.0,0.0,-0.02763996311785197,-0.1118454439332859,-0.08185839740304482,-0.38151538205513663,-0.13522303878297487,-0.06051617578448154
4209,8.0,300.68852999999996,1178.1848,0.0,0.0,0.0,-0.04268407371654739,0.0,0.0,-0.1012251086063904,-0.12046077516105289,-0.13645288122435087,-0.43237694003728155,-0.1052546674653269,-0.029653403537313074
4210,8.0,300.4447,1205.8848,0.0,0.0,0.0,-0.04269421486021965,0.0,0.0,-0.08289034196738981,-0.12825793733057286,-0.15541059807783186,-0.44725895968852253,-0.0988660668163211,-0.028561699508570272
4211,8.0,300.24464,727.06123,0.0,0.0,0.0,-0.042704356003891907,0.0,0.0,-0.043152041946274956,-0.09373047555897772,-0.08412594270908412,-0.43733939319703763,-0.07297972956703852,-0.016162055462820686
4212,8.0,298.79629,668.8705,0.0,0.0,0.0,-0.042714497147564166,0.0,0.0,-0.06263817987265703,-0.06144021934567754,-0.07924153108528023,-0.4057072550826886,-0.0956129503632635,-0.002285166130578338
4213,8.0,299.83187999999996,1016.5276,0.0,0.0,0.0,-0.04272463829123643,0.0,0.0,-0.12027992015070389,-0.1059418131531429,-0.08277726629598013,-0.4354265188632516,-0.06956970930949573,0.017284699083366984
4214,8.0,300.15414,988.74503,0.0,0.0,0.0,-0.04273477943490869,0.0,0.0,-0.11305523415518288,-0.07845559655246452,-0.1090429664092029,-0.4151514451572576,-0.1051427742567839,0.010258736763708491
4215,8.0,299.90342000000004,1097.1478,0.0,0.0,0.0,-0.04274492057858095,0.0,0.0,-0.0908711182272811,-0.1039572513747819,-0.13867716784387085,-0.4339335252384046,-0.07514883661261273,0.017746684386961382
4216,8.0,300.12683,920.9525800000001,0.0,0.0,0.0,-0.04275506172225321,0.0,0.0,-0.07103504221986283,-0.08401705074733733,-0.12489449415362687,-0.4014316740332216,-0.11409530498532991,-0.002950334829025377
4217,8.0,299.25628,816.13613,0.0,0.0,0.0,-0.04276520286592547,0.0,0.0,-0.04208013581123606,-0.09628755404134172,-0.10971731474825588,-0.42586859146495754,-0.12431423621885988,0.004008548206187906
4218,8.0,300.97472999999997,1078.5772,0.0,0.0,0.0,-0.04277534400959774,0.0,0.0,-0.1128513378375599,-0.11496339687600389,-0.10004581518600321,-0.37961073531216266,-0.1320678286340799,-0.03374191430031767
4219,8.0,301.42103,1173.2616,0.0,0.0,0.0,-0.04278548515327,0.0,0.0,-0.12308738286527889,-0.12487415822411989,-0.10868069910094989,-0.4127852933912366,-0.11510589023756689,-0.025297992565467477
4220,8.0,300.62644,640.51751,0.0,0.0,0.0,-0.04279562629694226,0.0,0.0,-0.041443409448396064,-0.09651603788589132,-0.056741881983487744,-0.3687966108373916,-0.12798675107380889,-0.06614904587290253
4221,8.0,300.263,336.24975,0.0,0.0,0.0,-0.04280576744061452,0.0,0.0,0.003038009232353167,-0.07530135912366553,-0.029948178256405073,-0.42734285009545564,-0.1041203137133749,-0.04644744031275546
4222,8.0,299.62107000000003,769.18732,0.0,0.0,0.0,-0.04281590858428678,0.0,0.0,-0.02067324350504028,-0.10995150724386889,-0.1031889848839599,-0.40204938169168464,-0.0959669100339466,-0.04703973464546036
4223,8.0,300.20532000000003,1092.3181,0.0,0.0,0.0,-0.042826049727959045,0.0,0.0,-0.054491302537122845,-0.13971518177631487,-0.13783094189035486,-0.45435095045094753,-0.06110525811436945,-0.02380813596293008
4224,8.0,300.46801,1006.0914,0.0,0.0,0.0,-0.042836190871631305,0.0,0.0,-0.05868765553477065,-0.14109876465536386,-0.10604024026785688,-0.4249450139988076,-0.07040015389270424,-0.02883634702767587
4225,8.0,299.39916,815.27319,0.0,0.0,0.0,-0.042846332015303565,0.0,0.0,-0.05900533781212344,-0.11100634112797289,-0.07781101750134951,-0.4420729430267026,-0.07902967264837142,0.003612596816910546
4226,8.0,298.9705,985.4439699999999,0.0,0.0,0.0,-0.042856473158975825,0.0,0.0,-0.08814242354897991,-0.1138991093684669,-0.09750883046637232,-0.4138127289926366,-0.09050087056124051,-0.002890279292948357
4227,8.0,299.83487,1280.9358,0.0,0.0,0.0,-0.042866614302648084,0.0,0.0,-0.13021179763090387,-0.11285733627815189,-0.14630337445651886,-0.43990990737572755,-0.08521734681579733,0.004998192618608206
4228,8.0,301.01645,1287.9463,0.0,0.0,0.0,-0.042876755446320344,0.0,0.0,-0.09793445022387771,-0.12467333205429988,-0.16889574100871185,-0.41534744825660164,-0.12975054592038188,-0.005305935115130026
4229,8.0,301.19635,838.2176400000001,0.0,0.0,0.0,-0.042886896589992604,0.0,0.0,-0.09280720510760801,-0.07023301524895893,-0.09175701089571191,-0.4196161696028916,-0.11685949178813389,0.0042529863828370765
4230,8.0,299.98597,434.66303,0.0,0.0,0.0,-0.042897037733664864,0.0,0.0,-0.06561154303935514,-0.01786779715816428,-0.04864736839987145,-0.3803814336032247,-0.12643638722829986,-0.005382080454844985
4231,8.0,299.79924,798.26933,0.0,0.0,0.0,-0.04290717887733713,0.0,0.0,-0.12208224889857988,-0.06353204884587503,-0.05703964680362485,-0.39153674978416864,-0.10726092292832891,-0.019895239680757282
4232,8.0,299.17489,1026.7005,0.0,0.0,0.0,-0.04291732002100939,0.0,0.0,-0.1120735062657939,-0.07428656787026343,-0.12573124621870788,-0.41211895986047464,-0.14046113649993486,-0.0015607189575559685
4233,8.0,300.24964,812.5468900000001,0.0,0.0,0.0,-0.04292746116468165,0.0,0.0,-0.06854183193105214,-0.07331628058775352,-0.1051358537586009,-0.43693606899473253,-0.1221736136600969,-0.0048964865252455955
4234,8.0,300.25408,628.1748,0.0,0.0,0.0,-0.04293760230835391,0.0,0.0,0.011573803670995489,-0.0911351661370906,-0.1113880932356489,-0.40962641527697957,-0.0985730298211506,-0.020585600411140582
4235,8.0,299.12492000000003,858.88584,0.0,0.0,0.0,-0.04294774345202617,0.0,0.0,-0.06482005082974095,-0.08917416039705442,-0.1070856407935299,-0.4091950443119066,-0.06270008945376704,-0.009697471087490882
4236,8.0,298.70029,1163.3422,0.0,0.0,0.0,-0.04295788459569843,0.0,0.0,-0.0866122203407106,-0.13673529429222286,-0.13027945234008087,-0.40714289875187565,-0.06623897688552803,-0.014920535314042187
4237,8.0,299.4699,1056.027,0.0,0.0,0.0,-0.04296802573937069,0.0,0.0,-0.10449300736515689,-0.12473546455043188,-0.09177737215647142,-0.4206446488518946,-0.07704718397971502,-0.004561163462326785
4238,8.0,299.25511,833.76015,0.0,0.0,0.0,-0.042978166883042956,0.0,0.0,-0.04042161765005307,-0.1073107849657499,-0.1057098700727519,-0.4199698850803006,-0.1045770463284509,-0.017988362774313184
4239,8.0,301.33199,593.36477,0.0,0.0,0.0,-0.042988308026715216,0.0,0.0,-0.030034846603708573,-0.07558994389789662,-0.07474328326008772,-0.4075870974632146,-0.1078862603600449,-0.02704990908111818
4240,8.0,299.7413,650.00523,0.0,0.0,0.0,-0.042998449170387476,0.0,0.0,0.014577037450641586,-0.11750030154887689,-0.09466209519117141,-0.4199617385494966,-0.13532593433062987,-0.06799322691615903
4241,8.0,299.67744,1015.7603,0.0,0.0,0.0,-0.043008590314059736,0.0,0.0,-0.1033458157344379,-0.09949943121532931,-0.1059205146360409,-0.3958236285722506,-0.11388742659481388,-0.03202173885729957
4242,8.0,301.62022,1094.5411,0.0,0.0,0.0,-0.043018731457731996,0.0,0.0,-0.11264141268184188,-0.12355648726407588,-0.09651526882906541,-0.4172973062190376,-0.1033670838540369,-0.046602432114301956
4243,8.0,300.2322,662.09482,0.0,0.0,0.0,-0.04302887260140426,0.0,0.0,-0.08013423887388363,-0.08190462288585693,-0.039221432025853965,-0.3813461794209376,-0.08583786016378724,-0.010803019253674991
4244,8.0,298.66335,723.03967,0.0,0.0,0.0,-0.04303901374507652,0.0,0.0,-0.06587791635814415,-0.07291130174803523,-0.08099678727326051,-0.4108830176534966,-0.09884647866538791,-0.014067043344059088
4245,8.0,299.33844,1271.4458,0.0,0.0,0.0,-0.04304915488874878,0.0,0.0,-0.10543052715268289,-0.1088159882543019,-0.17224126992388983,-0.4157603476723516,-0.0875665448811451,0.034844753947659464
4246,8.0,299.32018,1337.6537,0.0,0.0,0.0,-0.04305929603242104,0.0,0.0,-0.09424998003099881,-0.12613588764614286,-0.18622745489671882,-0.44073685117984057,-0.08969170321688193,0.01002201266272064
4247,8.0,299.34132,880.38099,0.0,0.0,0.0,-0.0430694371760933,0.0,0.0,-0.07454569138458693,-0.07490275768007662,-0.11816538878201589,-0.4200204259952886,-0.09017273255610582,0.03070358862995827
4248,8.0,299.85611,608.58763,0.0,0.0,0.0,-0.04307957831976557,0.0,0.0,-0.07255813241243013,-0.06476159339172165,-0.04767571829597705,-0.4351261712686096,-0.1085612977091659,0.003122658577507407
4249,8.0,299.60627999999997,674.3969900000001,0.0,0.0,0.0,-0.04308971946343783,0.0,0.0,-0.08751879040393211,-0.05846749857954285,-0.05901355527043445,-0.4141066221841416,-0.13535673713366989,0.011796924382765788
4250,8.0,300.7386,995.29978,0.0,0.0,0.0,-0.04309986060711009,0.0,0.0,-0.09719182200033599,-0.10243163109671491,-0.1029228243476919,-0.4225805543604536,-0.10442246489319491,-0.04167657653490786
4251,8.0,301.17536,1069.9121,0.0,0.0,0.0,-0.04311000175078235,0.0,0.0,-0.06937906022368014,-0.1175215595359749,-0.13832592469670585,-0.3983293150095426,-0.1064318918290099,-0.025729882314591678
4252,8.0,300.59494,613.26787,0.0,0.0,0.0,-0.04312014289445461,0.0,0.0,-0.025914881517849677,-0.08717256183151201,-0.07333067583192424,-0.3973084756662936,-0.12075649220273788,-0.060920948934429536
4253,8.0,301.28907000000004,670.17901,0.0,0.0,0.0,-0.04313028403812688,0.0,0.0,-0.049627730428125655,-0.11054919308035589,-0.043540761161638554,-0.3927915384430066,-0.0944892560023635,-0.030276999192107173
4254,8.0,301.77926,1113.2094,0.0,0.0,0.0,-0.04314042518179914,0.0,0.0,-0.10604354346318288,-0.12573049641363387,-0.1066138208844649,-0.41469854262755956,-0.06645561178340824,-0.050340873073757356
4255,8.0,300.71791,1153.3939,0.0,0.0,0.0,-0.0431505663254714,0.0,0.0,-0.11359758640370889,-0.13160992064888788,-0.1053954281692189,-0.4134543626972686,-0.08700749933722161,-0.01021324386071869
4256,8.0,299.79348999999996,681.3548,0.0,0.0,0.0,-0.04316070746914366,0.0,0.0,-0.01898960079437768,-0.1034312631153709,-0.08469398084764512,-0.4453772225303096,-0.0891378982024756,-0.04245770826224956
4257,8.0,300.17103,503.73409000000004,0.0,0.0,0.0,-0.043170848612815914,0.0,0.0,0.007504596943596054,-0.06972480142280213,-0.09090238003261641,-0.4279686130922136,-0.11681657051389788,-0.002740822370073107
4258,8.0,300.30355,776.73673,0.0,0.0,0.0,-0.04318098975648819,0.0,0.0,-0.025398721784408676,-0.1027115718343429,-0.10799827515859989,-0.4262238268175166,-0.08878995521088631,-0.02805597321140897
4259,8.0,300.08541,1066.6514,0.0,0.0,0.0,-0.04319113090016045,0.0,0.0,-0.11121424991599191,-0.1085279617808759,-0.1044931694851729,-0.44662807977875957,-0.1144190383922799,0.009498824418635981
4260,8.0,298.86204,991.19199,0.0,0.0,0.0,-0.04320127204383271,0.0,0.0,-0.08892953041216133,-0.1009566449526451,-0.11141143851795289,-0.4124398966971486,-0.11157159282875889,-0.014540204796256487
4261,8.0,299.97737,1042.6985,0.0,0.0,0.0,-0.04321141318750497,0.0,0.0,-0.1276995858629679,-0.09028006613919883,-0.0989746517632876,-0.4252058651045516,-0.11755556420933089,0.0035080123839888663
4262,8.0,300.95392000000004,1026.9589,0.0,0.0,0.0,-0.04322155433117723,0.0,0.0,-0.07195905234380554,-0.0984872663061864,-0.14172354479952487,-0.3950715842155296,-0.07379221226572434,-0.008040915490426572
4263,8.0,299.80207,1135.1649,0.0,0.0,0.0,-0.043231695474849494,0.0,0.0,-0.08883523533135511,-0.11354386388340688,-0.14268268734418485,-0.43705948285691265,-0.1014403583913839,-0.006570150951573414
4264,8.0,301.31757000000005,1325.1319,0.0,0.0,0.0,-0.04324183661852175,0.0,0.0,-0.11247398323531789,-0.11639960796524688,-0.17393341785589184,-0.45017205372602254,-0.08509624519034552,0.030740273349828772
4265,8.0,300.68222000000003,828.68886,0.0,0.0,0.0,-0.04325197776219401,0.0,0.0,-0.12107447034911989,-0.05829126094989954,-0.07253498674039584,-0.43613140656031857,-0.1032184197993649,0.0034664448118864664
4266,8.0,300.36362,529.8019099999999,0.0,0.0,0.0,-0.04326211890586627,0.0,0.0,-0.03523093902452296,-0.06635685941541214,-0.05945875405962214,-0.42347249815848165,-0.06172652532043373,0.0027681482053949573
4267,8.0,299.16204,753.87424,0.0,0.0,0.0,-0.04327226004953853,0.0,0.0,-0.06495450101201014,-0.08955937680682231,-0.07464506791464463,-0.38528534117220264,-0.10219942457129791,-0.015538646246044986
4268,8.0,298.45224,1069.2892,0.0,0.0,0.0,-0.0432824011932108,0.0,0.0,-0.05371848250035145,-0.1288236044638999,-0.14249513475067488,-0.42676233884816356,-0.13297695715380387,-0.016161746421540186
4269,8.0,299.27052000000003,987.98511,0.0,0.0,0.0,-0.04329254233688306,0.0,0.0,-0.059201106850694345,-0.12211630423444088,-0.11900539337991789,-0.4082995237410256,-0.12471953625885988,-0.06816962565256823
4270,8.0,300.50121,789.6587099999999,0.0,0.0,0.0,-0.04330268348055532,0.0,0.0,-0.057122430350044946,-0.10265633957139189,-0.08025775811407403,-0.4300175466494276,-0.09856558952566631,-0.015560711793472685
4271,8.0,299.39152,655.48369,0.0,0.0,0.0,-0.04331282462422758,0.0,0.0,-0.05133480961360125,-0.0882156835577101,-0.05970018116094915,-0.3978631693010376,-0.09517987409827222,-0.05348371853168205
4272,8.0,299.82555,797.95144,0.0,0.0,0.0,-0.04332296576789984,0.0,0.0,-0.05900453937104465,-0.08324090319723751,-0.10031187034426081,-0.43996315366848254,-0.09175093342161211,-0.01085555728461009
4273,8.0,300.10721,1001.7742,0.0,0.0,0.0,-0.043333106911572106,0.0,0.0,-0.09305725699378621,-0.08909789103552722,-0.12235920054841289,-0.3794352505273436,-0.09594420005945531,-0.01829581831840668
4274,8.0,300.31577999999996,937.44666,0.0,0.0,0.0,-0.043343248055244366,0.0,0.0,-0.07140105754023574,-0.09541443237717132,-0.11814489073249289,-0.4296271413858976,-0.06721040407440045,-0.009414418861455802
4275,8.0,300.85395,496.74289000000005,0.0,0.0,0.0,-0.043353389198916625,0.0,0.0,0.0011705611297003888,-0.056127491705852156,-0.09604050340195971,-0.38629546032939366,-0.0941420060738426,-0.027265568219152075
4276,8.0,299.1817,560.3833,0.0,0.0,0.0,-0.043363530342588885,0.0,0.0,-0.046995652186609754,-0.07651469572091253,-0.046832181508226454,-0.4414281613255676,-0.08381438248883552,-0.010687501649524289
4277,8.0,298.99354,1318.3635,0.0,0.0,0.0,-0.043373671486261145,0.0,0.0,-0.15354791002149884,-0.12819030288639788,-0.11901138168800889,-0.4090554589781306,-0.1063009191210839,-0.015637166579768186
4278,8.0,300.08047,1419.6854,0.0,0.0,0.0,-0.04338381262993341,0.0,0.0,-0.16049665761728685,-0.14163953623373385,-0.12941270807203986,-0.43080613893725556,-0.10884620337228389,-0.01137607905973159
4279,8.0,300.80528,904.89577,0.0,0.0,0.0,-0.04339395377360567,0.0,0.0,-0.07953609707485162,-0.10617075701323789,-0.08935886069153291,-0.40922996091035263,-0.13910602594869587,-0.0016415580770341685
4280,8.0,299.93429,826.02613,0.0,0.0,0.0,-0.04340409491727793,0.0,0.0,-0.043637859905471456,-0.07459347524605284,-0.13285997742975886,-0.4277507643207136,-0.13472220952354688,0.004058452800113106
4281,8.0,298.93772,936.24453,0.0,0.0,0.0,-0.04341423606095019,0.0,0.0,-0.08428813061284082,-0.08786040159564651,-0.1124464228325979,-0.40186080571557364,-0.1258658564944929,0.0051233161376819355
4282,8.0,299.51484,827.94884,0.0,0.0,0.0,-0.04342437720462245,0.0,0.0,-0.08745858004323982,-0.07081867785975934,-0.09339851557446582,-0.42811318361648154,-0.07829851745571202,-0.013457212691873489
4283,8.0,298.63568,691.03158,0.0,0.0,0.0,-0.04343451834829471,0.0,0.0,-0.08103719771374872,-0.05054620314027186,-0.07847294440742662,-0.4001462446913596,-0.07322066220231672,-0.0048439997647655554
4284,8.0,299.14101,627.41934,0.0,0.0,0.0,-0.04344465949196697,0.0,0.0,-0.038830293169251566,-0.07819034794128651,-0.07369917057529184,-0.41083797868655164,-0.08110804010774032,-0.02150345808047608
4285,8.0,299.91848999999996,765.1283900000001,0.0,0.0,0.0,-0.04345480063563923,0.0,0.0,-0.06073949306677124,-0.08953459068287611,-0.08230583952795392,-0.3865787650573536,-0.08832388245638852,-0.029613186627593973
4286,8.0,299.56619,1094.4864,0.0,0.0,0.0,-0.04346494177931149,0.0,0.0,-0.08346862609096202,-0.1201653722268989,-0.12906253896998088,-0.4045980603307196,-0.09679072390850071,-0.044913320892849655
4287,8.0,300.22336,1102.7595,0.0,0.0,0.0,-0.04347508292298376,0.0,0.0,-0.06609043239436783,-0.1361723021391599,-0.13294861654850687,-0.4416420381566756,-0.12270699864523787,-0.038341276379489364
4288,8.0,301.98073999999997,514.49146,0.0,0.0,0.0,-0.04348522406665602,0.0,0.0,-0.028629798021291078,-0.06027477908065754,-0.06748798089954514,-0.42708189766470156,-0.12002611113315488,-0.026025210268238272
4289,8.0,300.77035,628.37487,0.0,0.0,0.0,-0.04349536521032828,0.0,0.0,-0.016851091875323285,-0.12379240228485887,-0.050366780865564245,-0.41691734756403864,-0.09336808868721291,-0.04443272623791866
4290,8.0,299.97641,942.87821,0.0,0.0,0.0,-0.04350550635400054,0.0,0.0,-0.1158788278113499,-0.08262460902266403,-0.08810800141658272,-0.3943525819445697,-0.07495720264769992,-0.005831916484440344
4291,8.0,298.84555,961.2520900000001,0.0,0.0,0.0,-0.043515647497672796,0.0,0.0,-0.06857927658849763,-0.11045924686897889,-0.11315810943783589,-0.4325377630931536,-0.1048588919762669,-0.019255051042325583
4292,8.0,298.74721,720.50055,0.0,0.0,0.0,-0.043525788641345056,0.0,0.0,-0.04375794118807255,-0.08095967394859772,-0.094296561164596,-0.4278362117016466,-0.1091020388900329,-0.009412038939620922
4293,8.0,299.57012000000003,1000.704,0.0,0.0,0.0,-0.04353592978501732,0.0,0.0,-0.09115423145097222,-0.08105185234994501,-0.13198294867320287,-0.4137276970442446,-0.1137095201422559,-0.008574350935422553
4294,8.0,299.8492,1040.0908,0.0,0.0,0.0,-0.04354607092868958,0.0,0.0,-0.09661562314546959,-0.11117485475210388,-0.1083711410628989,-0.4017403404111846,-0.07215598459349123,0.006930356397197924
4295,8.0,299.80048999999997,939.7389699999999,0.0,0.0,0.0,-0.04355621207236184,0.0,0.0,-0.09740694816881731,-0.07889852160842784,-0.10935171384717389,-0.4258611947392276,-0.12359259949763987,-0.0005522890605341866
4296,8.0,299.62254,1221.8779,0.0,0.0,0.0,-0.0435663532160341,0.0,0.0,-0.11128923042339188,-0.1197365749170799,-0.14039457610086586,-0.4234480180360656,-0.11518038438491889,0.017739082984711184
4297,8.0,299.73401,907.2244400000001,0.0,0.0,0.0,-0.04357649435970636,0.0,0.0,-0.07531872420387933,-0.1078208145360859,-0.09263403965226791,-0.42036345168414263,-0.1018493871917519,-0.014913607723108485
4298,8.0,300.80587,622.79588,0.0,0.0,0.0,-0.04358663550337863,0.0,0.0,-0.029872512791937474,-0.07832470085154614,-0.08111718165014252,-0.38399813864266563,-0.1073933749814009,-0.02090171113758828
4299,8.0,300.92006000000003,759.68109,0.0,0.0,0.0,-0.04359677664705089,0.0,0.0,-0.07084563031241933,-0.07326354092004853,-0.08681491291721483,-0.4187613208910246,-0.11469516930953189,-0.02215442668672168
4300,8.0,300.23707,932.76825,0.0,0.0,0.0,-0.04360691779072315,0.0,0.0,-0.07478311918776923,-0.1043651048050339,-0.1043900307574939,-0.4567702370522126,-0.12051586556898987,-0.027413991120300272
4301,8.0,300.43183999999997,748.20146,0.0,0.0,0.0,-0.04361705893439541,0.0,0.0,-0.04694247479486155,-0.08552272317068561,-0.09496936227074632,-0.4333285743987006,-0.09443820238282491,-0.023687814540055273
4302,8.0,300.65858,861.6112400000001,0.0,0.0,0.0,-0.04362720007806767,0.0,0.0,-0.06301012371936504,-0.1051707906220489,-0.0937273942654236,-0.44180683315293956,-0.07473031872505823,-0.014905836094841486
4303,8.0,300.30936,889.55705,0.0,0.0,0.0,-0.043637341221739935,0.0,0.0,-0.04660594505239866,-0.08488265713551602,-0.13891453181229688,-0.4111744081172546,-0.1107591385010759,-0.01112868492856569
4304,8.0,300.54469,852.39447,0.0,0.0,0.0,-0.043647482365412195,0.0,0.0,-0.06053197539329084,-0.08968085434806122,-0.1088938058619819,-0.4130669769190366,-0.10472238692279491,-0.0030758853316912474
4305,8.0,299.52299999999997,1041.6195,0.0,0.0,0.0,-0.043657623509084455,0.0,0.0,-0.07629974889769893,-0.12343058080664988,-0.1168959789242349,-0.4010155626146546,-0.07477186400565843,-0.04421803880673066
4306,8.0,298.95398,1181.8843,0.0,0.0,0.0,-0.043667764652756715,0.0,0.0,-0.12615423760545388,-0.11273021392060589,-0.1203788437579669,-0.3858667744770856,-0.08969281069924122,0.014293914094449488
4307,8.0,299.96507,948.85505,0.0,0.0,0.0,-0.043677905796428974,0.0,0.0,-0.09854339022922541,-0.1004679878666684,-0.08941686622000761,-0.4099198727709416,-0.09505864885630821,-0.024496601915626377
4308,8.0,300.46162000000004,880.81702,0.0,0.0,0.0,-0.04368804694010125,0.0,0.0,-0.08638321669885973,-0.0977781118129483,-0.08358505055395221,-0.4302970314245106,-0.11855982678094389,0.024442323121019474
4309,8.0,299.69635,1044.1422,0.0,0.0,0.0,-0.0436981880837735,0.0,0.0,-0.08351580808186852,-0.10290272146570789,-0.13097461283618786,-0.4455080736482236,-0.09744109976343782,-0.027547617530238176
4310,8.0,299.58369,994.9535599999999,0.0,0.0,0.0,-0.04370832922744576,0.0,0.0,-0.06976475691399543,-0.11209954679336388,-0.12057674163499789,-0.45745417073721156,-0.1001157892246591,0.002003153600470868
4311,8.0,300.08892000000003,653.64118,0.0,0.0,0.0,-0.04371847037111802,0.0,0.0,-0.05211854843345024,-0.06586569048243752,-0.08070635939709751,-0.4303443502041806,-0.10992389617864388,-0.036405960582488565
4312,8.0,300.94875,834.53581,0.0,0.0,0.0,-0.04372861151479028,0.0,0.0,-0.06281148515651094,-0.09742894886823861,-0.0934376148693246,-0.4278934299347936,-0.12583856966929988,-0.023349202568636877
4313,8.0,301.98722999999995,962.26315,0.0,0.0,0.0,-0.043738752658462554,0.0,0.0,-0.1069686306719819,-0.07837258198502163,-0.1071627491261399,-0.4084054387739786,-0.08125656838689892,-0.01145621802339069
4314,8.0,301.37743,814.38337,0.0,0.0,0.0,-0.043748893802134814,0.0,0.0,-0.07008480614358184,-0.08573766188789841,-0.09172974028252051,-0.41750809263734057,-0.11346596521571889,-0.021322569632873777
4315,8.0,300.59553,806.20343,0.0,0.0,0.0,-0.043759034945807074,0.0,0.0,-0.05880713494681235,-0.09476660281973551,-0.09149197506705492,-0.4155060218972516,-0.09177970364495151,0.011947424446618988
4316,8.0,301.20592999999997,865.5622800000001,0.0,0.0,0.0,-0.043769176089479334,0.0,0.0,-0.07748139711131852,-0.07912035650582122,-0.1065075714789789,-0.4057726806416456,-0.12047148521460989,-0.03291973479817487
4317,8.0,300.8638,908.6220699999999,0.0,0.0,0.0,-0.04377931723315159,0.0,0.0,-0.06723783782085793,-0.1132915443435049,-0.09566903578279871,-0.4280518718529306,-0.08837879757205823,-0.023224826118861876
4318,8.0,300.20837,1010.7687,0.0,0.0,0.0,-0.04378945837682386,0.0,0.0,-0.10933405289793091,-0.11783275903918788,-0.08008162383594093,-0.4493534996327376,-0.0859102295256795,-0.07141038146765592
4319,8.0,299.42398,1033.0999,0.0,0.0,0.0,-0.04379959952049612,0.0,0.0,-0.1221273587930319,-0.08711776627935411,-0.10479145004961089,-0.47882923888426654,-0.10861061259153289,0.003521526505872607
4320,8.0,299.05613999999997,509.21171,0.0,0.0,0.0,-0.04380974066416838,0.0,0.0,-0.03521340169179217,-0.06438849545314973,-0.05518574767865925,-0.42507110284125166,-0.12199303222727488,-0.02263466062461708
4321,8.0,299.82229,566.87359,0.0,0.0,0.0,-0.04381988180784064,0.0,0.0,0.007366881664204613,-0.08411587606934062,-0.09556642191867151,-0.41942054140608465,-0.10005242664290571,-0.014332636460271086
4322,8.0,300.12311,975.9866699999999,0.0,0.0,0.0,-0.0438300229515129,0.0,0.0,-0.08198435249647562,-0.08596793513212461,-0.12872329270399988,-0.3613266777876667,-0.1049885981215679,-0.003732653376209207
4323,8.0,300.93393,897.4006699999999,0.0,0.0,0.0,-0.043840164095185166,0.0,0.0,-0.04468139098470996,-0.10523301431068989,-0.12287298927661988,-0.4492603515510446,-0.0978514822659394,-0.007035897844839054
4324,8.0,300.84553999999997,620.35609,0.0,0.0,0.0,-0.043850305238857426,0.0,0.0,-0.07135621717031033,-0.07079490701241334,-0.046421635872458754,-0.4141121342646856,-0.1019986389314819,-0.015075744964360186
4325,8.0,300.78751,985.449,0.0,0.0,0.0,-0.043860446382529686,0.0,0.0,-0.1098886046776609,-0.09542791265650172,-0.09423536997780692,-0.4501612018174516,-0.06626018421012103,-0.04162984848004616
4326,8.0,300.26184,1218.2051,0.0,0.0,0.0,-0.043870587526201946,0.0,0.0,-0.13897159805792886,-0.1081378402273739,-0.12319448340084889,-0.4007692719128476,-0.07804309230425352,-0.00027589518461623475
4327,8.0,300.33344,1097.6474,0.0,0.0,0.0,-0.043880728669874206,0.0,0.0,-0.08041517968936034,-0.11054297172474191,-0.14269924385081886,-0.4430505368556836,-0.09520851259909861,-0.02670307661163848
4328,8.0,298.98539,1034.6591,0.0,0.0,0.0,-0.04389086981354647,0.0,0.0,-0.09543060891501781,-0.11673881370122388,-0.10234109720027991,-0.42055412508796053,-0.13384656891962787,-0.004241994240452236
4329,8.0,298.98104,1052.1307,0.0,0.0,0.0,-0.04390101095721873,0.0,0.0,-0.06870694610109764,-0.12567898277854989,-0.12543551904452188,-0.40603505162253967,-0.09838947247278491,-0.017621810431387285
4330,8.0,299.37226,886.2475900000001,0.0,0.0,0.0,-0.04391115210089099,0.0,0.0,-0.09653397646566172,-0.12016326466669089,-0.05269990169157536,-0.3936110652563876,-0.10917036234427589,-0.02527383870958368
4331,8.0,299.92539,767.12626,0.0,0.0,0.0,-0.04392129324456325,0.0,0.0,-0.05933322655773354,-0.06898766400155233,-0.1048663393645019,-0.44770426284247056,-0.1036994906818429,0.005333311308981845
4332,8.0,300.20132,797.94227,0.0,0.0,0.0,-0.04393143438823551,0.0,0.0,-0.048127603522574655,-0.09056674600324191,-0.1038601718827009,-0.44935118942250957,-0.11524874836916589,-0.013341525874956088
4333,8.0,300.44674,535.96217,0.0,0.0,0.0,-0.04394157553190778,0.0,0.0,-0.010194926325410891,-0.06005801043376414,-0.09266617893218981,-0.4342236491395376,-0.08001668767678222,-0.0017489748479603783
4334,8.0,300.17184,732.68562,0.0,0.0,0.0,-0.04395171667558004,0.0,0.0,-0.05034226527939475,-0.08852971610820273,-0.08384615294572101,-0.4041139496979416,-0.09021379654290851,-0.013115049278854589
4335,8.0,300.29262,1230.8203,0.0,0.0,0.0,-0.0439618578192523,0.0,0.0,-0.11765224853387289,-0.11877727025240388,-0.13770910869833086,-0.4267858057204796,-0.1111706294991869,-0.005330782439382265
4336,8.0,301.19862,1176.3468,0.0,0.0,0.0,-0.04397199896292456,0.0,0.0,-0.14451183682220786,-0.11598768126959288,-0.0970805326888526,-0.4265726077669386,-0.12746475501979188,-0.034883068986940866
4337,8.0,300.58472,810.35252,0.0,0.0,0.0,-0.04398214010659682,0.0,0.0,-0.07479363976355753,-0.1034325094129939,-0.06810078138777384,-0.4236054163065996,-0.08103316700485093,-0.05290305732337525
4338,8.0,300.95952,916.61949,0.0,0.0,0.0,-0.04399228125026908,0.0,0.0,-0.05782035195267445,-0.0967332402038275,-0.12407584886783289,-0.3922648003785216,-0.09708356230665159,-0.019059330639759484
4339,8.0,300.07026,960.7471800000001,0.0,0.0,0.0,-0.04400242239394134,0.0,0.0,-0.07463950821134592,-0.0984095510367665,-0.1189940956413029,-0.4316155737796406,-0.1053046916227639,-0.019368288833751284
4340,8.0,299.47531000000004,811.33646,0.0,0.0,0.0,-0.0440125635376136,0.0,0.0,-0.035949849089723866,-0.1165202353896519,-0.09415593724946751,-0.43408543169339664,-0.12910330202150389,0.0036165621711768963
4341,8.0,299.47812999999996,778.3582200000001,0.0,0.0,0.0,-0.04402270468128586,0.0,0.0,-0.05196972023226205,-0.10378016565480488,-0.08085157738817943,-0.4327722494312956,-0.08141125317366513,-0.027667427261812472
4342,8.0,299.62512999999996,806.14279,0.0,0.0,0.0,-0.04403284582495812,0.0,0.0,-0.09846267573950951,-0.08617506675731693,-0.06040953627770704,-0.4376470260598985,-0.0946486746935969,0.019946209200537583
4343,8.0,298.40601000000004,767.0206400000001,0.0,0.0,0.0,-0.044042986968630383,0.0,0.0,-0.04467047929438305,-0.09950172014730521,-0.08898292261293073,-0.4289901515780316,-0.12131325286768589,-0.03748711262468996
4344,8.0,299.77096,1159.8453,0.0,0.0,0.0,-0.04405312811230264,0.0,0.0,-0.08227312168222492,-0.12174590052788489,-0.14854498765274884,-0.41742479334661964,-0.14059118715026986,-0.0036521037422845765
4345,8.0,299.11646,1206.3937,0.0,0.0,0.0,-0.0440632692559749,0.0,0.0,-0.09129929036178841,-0.14054851918855887,-0.1348657566652139,-0.3946019427941796,-0.07942111750650402,-0.02614812966436948
4346,8.0,299.90109,811.49382,0.0,0.0,0.0,-0.04407341039964716,0.0,0.0,-0.056341454663218646,-0.0855865781919876,-0.1047458233976079,-0.39206947615674465,-0.08836128151757952,-0.00917915242206181
4347,8.0,300.42534,809.5144,0.0,0.0,0.0,-0.04408355154331942,0.0,0.0,-0.08323570522422452,-0.09011116444027951,-0.07272529436092773,-0.4407251380086845,-0.11832217910248989,-0.005549784998771135
4348,8.0,300.40124,1032.5327,0.0,0.0,0.0,-0.04409369268699169,0.0,0.0,-0.1096234776564949,-0.10886503969164289,-0.09537564516334332,-0.44228171307730657,-0.12376564234971789,-0.006880266277179414
4349,8.0,300.37807999999995,741.94691,0.0,0.0,0.0,-0.04410383383066395,0.0,0.0,-0.04928271066307485,-0.08612661719053533,-0.09012400637204691,-0.4523351096419996,-0.093900471568005,-0.03247203226799007
4350,8.0,301.96629,578.57637,0.0,0.0,0.0,-0.044113974974336216,0.0,0.0,-0.012035032076765187,-0.07605765507780612,-0.08778008429996982,-0.4319345246461186,-0.08093836023274423,-0.032323880917868676
4351,8.0,300.20231,845.00871,0.0,0.0,0.0,-0.04412411611800847,0.0,0.0,-0.08728187834505073,-0.07413587326239102,-0.09544379737831941,-0.4614280667019045,-0.1120804774264819,-0.009052195528257142
4352,8.0,299.34736000000004,1054.4823,0.0,0.0,0.0,-0.04413425726168073,0.0,0.0,-0.07891238388304593,-0.1050006456652569,-0.13662326936116687,-0.4323943780715026,-0.10985826796966688,-0.017451786051357183
4353,8.0,299.92086,953.3866800000001,0.0,0.0,0.0,-0.044144398405352996,0.0,0.0,-0.09896948013477722,-0.11854362491184489,-0.07229264264772833,-0.4078998067090766,-0.06834487131036364,-0.013234208503864687
4354,8.0,300.21038,931.2827300000001,0.0,0.0,0.0,-0.044154539549025255,0.0,0.0,-0.08908216032772472,-0.09185523232065561,-0.1021492990888509,-0.40035086041655366,-0.07790356269923303,0.005225660173307505
4355,8.0,299.90351,971.59506,0.0,0.0,0.0,-0.044164680692697515,0.0,0.0,-0.06112761142482554,-0.11665886826833388,-0.11755416592419289,-0.4239490904755176,-0.12618533425102288,-0.01857119335108408
4356,8.0,300.26422,878.7661199999999,0.0,0.0,0.0,-0.044174821836369775,0.0,0.0,-0.05758579164727515,-0.09719496611539631,-0.11234219992731188,-0.42895203310926955,-0.11458345848600689,-0.006914770077534674
4357,8.0,300.54899,933.70153,0.0,0.0,0.0,-0.044184962980042035,0.0,0.0,-0.06160787373372374,-0.09479511871729981,-0.12741895611527188,-0.4147316961708316,-0.08748953990004532,-0.01850727044202538
4358,8.0,301.00957999999997,987.2511199999999,0.0,0.0,0.0,-0.0441951041237143,0.0,0.0,-0.09688439482724531,-0.10191720402094491,-0.1012980899713431,-0.4318493305777106,-0.08372528132804193,-0.007352672554077283
4359,8.0,300.22165,569.27316,0.0,0.0,0.0,-0.04420524526738656,0.0,0.0,-0.050216501690232854,-0.06604114790950384,-0.056787176289457945,-0.47266587157348955,-0.1099358626623249,-0.03483487171943417
4360,8.0,300.10271,637.67286,0.0,0.0,0.0,-0.04421538641105882,0.0,0.0,-0.06189118454118434,-0.07176761596266222,-0.06017782624483904,-0.4480345418450666,-0.12025274478302189,-0.01926095727715848
4361,8.0,300.07595,1109.4737,0.0,0.0,0.0,-0.04422552755473108,0.0,0.0,-0.05800771810816604,-0.13030062926717087,-0.14894394474712286,-0.42200629486627866,-0.1056208661839679,-0.04125731796153026
4362,8.0,300.79533,1014.289,0.0,0.0,0.0,-0.04423566869840334,0.0,0.0,-0.10120558327696341,-0.08885234709904391,-0.1182605836289109,-0.4052391234039876,-0.09012561541320571,-0.009089570575420772
4363,8.0,299.25326,815.42839,0.0,0.0,0.0,-0.04424580984207561,0.0,0.0,-0.05267767199763145,-0.09776469739487441,-0.0974274999205956,-0.4138120703800716,-0.13772566520496488,-0.019210169129146085
4364,8.0,299.16311,1002.2810000000001,0.0,0.0,0.0,-0.04425595098574787,0.0,0.0,-0.11214801054564688,-0.09350766186198771,-0.09901273172854581,-0.40964397490121257,-0.09215599737433881,-0.003008973537487567
4365,8.0,299.18795,1046.5056,0.0,0.0,0.0,-0.04426609212942013,0.0,0.0,-0.11114784150443789,-0.08752417177521322,-0.1194395710477679,-0.4126554960534266,-0.07812741193782521,-0.012332676320140387
4366,8.0,299.39392000000004,966.77624,0.0,0.0,0.0,-0.04427623327309239,0.0,0.0,-0.059190244809622344,-0.11441467128434889,-0.1202709224898159,-0.4254137840250716,-0.08843892687274252,-0.026242726693705472
4367,8.0,299.98024,966.6664400000001,0.0,0.0,0.0,-0.04428637441676465,0.0,0.0,-0.052859003235527446,-0.1092866226607499,-0.13169683724246586,-0.43595736059064155,-0.14632378131353285,-0.006393130687552874
4368,8.0,299.90046,816.81749,0.0,0.0,0.0,-0.04429651556043692,0.0,0.0,-0.05690197043303724,-0.08409648550217692,-0.10729366103905989,-0.45303158736323657,-0.12287354656417489,-0.014200392123469588
4369,8.0,300.30691,589.37154,0.0,0.0,0.0,-0.04430665670410918,0.0,0.0,-0.036781932098344065,-0.07942464260360192,-0.06294765786395015,-0.4061864514524816,-0.0970900136700383,-0.02222471989915908
4370,8.0,300.32392999999996,904.76125,0.0,0.0,0.0,-0.04431679784778144,0.0,0.0,-0.09940899560415399,-0.08668186304658382,-0.0889339714873496,-0.4491112112688256,-0.09127185864183111,-0.01739907678115518
4371,8.0,299.92781,1187.6299,0.0,0.0,0.0,-0.04432693899145369,0.0,0.0,-0.15157514247430184,-0.10666605392711989,-0.10276862794747389,-0.43284285269826356,-0.11809837242040187,-0.02027314042480318
4372,8.0,299.97575,952.75181,0.0,0.0,0.0,-0.04433708013512595,0.0,0.0,-0.05622396730087354,-0.09668323124514201,-0.1367055655342889,-0.4487109774793256,-0.0997544774112504,-0.02817507164141307
4373,8.0,301.20715,861.49851,0.0,0.0,0.0,-0.04434722127879823,0.0,0.0,-0.034720609532157366,-0.10372456862181789,-0.1234288582814799,-0.41820930223654457,-0.09064211154567992,-0.014756002749554088
4374,8.0,300.60412,1037.7915,0.0,0.0,0.0,-0.04435736242247049,0.0,0.0,-0.06040980985523404,-0.1104558828786469,-0.14459700049311286,-0.4234689821806346,-0.1033524221250899,0.02169987863886128
4375,8.0,299.96154,1057.9142,0.0,0.0,0.0,-0.044367503566142746,0.0,0.0,-0.08722470064190772,-0.1162997825653949,-0.1180550053161219,-0.3947423792580396,-0.12160923335439687,0.008398461661163632
4376,8.0,299.96725,860.45243,0.0,0.0,0.0,-0.044377644709815006,0.0,0.0,-0.1037614103954539,-0.08457098545775642,-0.07322365736961234,-0.4239718075427596,-0.08928421050366551,0.016511924642850086
4377,8.0,299.3177,782.27215,0.0,0.0,0.0,-0.044387785853487266,0.0,0.0,-0.08526409310916082,-0.08001538058415322,-0.07251172657110024,-0.40454617179309865,-0.0919858757222991,-0.03958658405714167
4378,8.0,299.69843,700.32429,0.0,0.0,0.0,-0.04439792699715953,0.0,0.0,-0.019156199375819683,-0.09390254569095971,-0.0998223519956991,-0.45445268076098755,-0.11052006213998089,-0.036452808200862066
4379,8.0,299.61982,745.60653,0.0,0.0,0.0,-0.04440806814083179,0.0,0.0,-0.027643458830696976,-0.1032236481698809,-0.09577865728461751,-0.4261593841111566,-0.1416494863497159,-0.059957490957593645
4380,8.0,299.63777999999996,1037.2449,0.0,0.0,0.0,-0.04441820928450405,0.0,0.0,-0.07569635238364833,-0.10838695789695992,-0.13121323323473788,-0.43492472701622864,-0.1060264600664969,-0.017115652489683383
4381,8.0,299.07557,771.27858,0.0,0.0,0.0,-0.04442835042817631,0.0,0.0,-0.08018299545544552,-0.07874229161525913,-0.07552414444965273,-0.4024366256149026,-0.09181801665773272,-0.029080646693036373
4382,8.0,300.2714,478.60950999999994,0.0,0.0,0.0,-0.04443849157184857,0.0,0.0,-0.07157796796794542,-0.046652454245238756,-0.027254919973851172,-0.4494417131864436,-0.08679339452484111,0.009275170129363021
4383,8.0,299.68602999999996,839.59209,0.0,0.0,0.0,-0.04444863271552084,0.0,0.0,-0.08919711456481982,-0.10448860985972289,-0.06152930530771965,-0.43314005921759563,-0.11560792526461389,-0.011318575090056389
4384,8.0,300.78929,1282.3416,0.0,0.0,0.0,-0.0444587738591931,0.0,0.0,-0.09513349156169461,-0.12148821076245289,-0.17317813109885083,-0.4403863173077456,-0.08490151169337681,-0.002907940748816407
4385,8.0,300.32847000000004,987.0247400000001,0.0,0.0,0.0,-0.04446891500286536,0.0,0.0,-0.049354374802897547,-0.1087606242688379,-0.14191586980100587,-0.39268563354255465,-0.09260524612417623,-0.024227313476299677
4386,8.0,300.58906,852.48135,0.0,0.0,0.0,-0.04447905614653762,0.0,0.0,-0.04863137323379285,-0.10025218079411989,-0.11024949396577789,-0.4361978858993796,-0.0988466914479089,0.015255621175112586
4387,8.0,300.30567,905.14545,0.0,0.0,0.0,-0.04448919729020988,0.0,0.0,-0.07989917295668443,-0.0863162601190016,-0.1089261792026769,-0.4425257543638915,-0.15241063810925884,-5.126239668195464e-05
4388,8.0,300.08946000000003,948.38101,0.0,0.0,0.0,-0.04449933843388214,0.0,0.0,-0.11930693660967788,-0.0973316869911396,-0.07164551831236213,-0.4649790726048616,-0.0945585886537061,0.02105002562097578
4389,8.0,299.21912000000003,893.00131,0.0,0.0,0.0,-0.044509479577554405,0.0,0.0,-0.07410474419281883,-0.10030530954986332,-0.09704004625460691,-0.42633908401639153,-0.12027161149988388,-0.055705588549713546
4390,8.0,299.16775,931.29185,0.0,0.0,0.0,-0.044519620721226665,0.0,0.0,-0.06422523147778685,-0.09293114484658992,-0.12593309577112888,-0.44869164466741757,-0.0999376841750815,-0.030124718847828268
4391,8.0,298.83057,679.70345,0.0,0.0,0.0,-0.044529761864898924,0.0,0.0,-0.01902916213128208,-0.1100621136247849,-0.07752160287528653,-0.45333960526113554,-0.13077887318186987,-0.06016369647219454
4392,8.0,299.76637999999997,787.94065,0.0,0.0,0.0,-0.044539903008571184,0.0,0.0,-0.06016434191250824,-0.09741433881504671,-0.08193560199441433,-0.4299389387066696,-0.1117347463598609,-0.01043285062114219
4393,8.0,300.48544,1211.2923,0.0,0.0,0.0,-0.044550044152243444,0.0,0.0,-0.15489073998152583,-0.1041247922788169,-0.10918708097092589,-0.3956898288965456,-0.1085845112689569,0.0024278082372560174
4394,8.0,298.7475,998.3135599999999,0.0,0.0,0.0,-0.044560185295915704,0.0,0.0,-0.13791390680854287,-0.09482927537817082,-0.07071921317694294,-0.4103872546445686,-0.08761046015372922,0.03541130970132417
4395,8.0,299.44309,757.67102,0.0,0.0,0.0,-0.044570326439587964,0.0,0.0,-0.02982313812781457,-0.09645980757159181,-0.10403012432197391,-0.4387286300116446,-0.13659383444576187,-0.015031836784526785
4396,8.0,300.66244,1073.0483,0.0,0.0,0.0,-0.04458046758326022,0.0,0.0,-0.04667620888058316,-0.12902657872393186,-0.15047711373843486,-0.4554909581384576,-0.08341310505173252,-0.025736496811244475
4397,8.0,300.15148999999997,1156.6121,0.0,0.0,0.0,-0.04459060872693248,0.0,0.0,-0.06882284164753563,-0.15016644112527386,-0.1325919119833029,-0.43705160990363556,-0.09825170288318809,-0.04717883159268816
4398,8.0,300.33734,792.8634099999999,0.0,0.0,0.0,-0.04460074987060475,0.0,0.0,-0.05543181647869434,-0.08889722698572322,-0.0966816363894846,-0.4149915846889806,-0.10468761217936291,-0.03516204612372377
4399,8.0,300.80505,551.54378,0.0,0.0,0.0,-0.04461089101427701,0.0,0.0,-0.056556022530894846,-0.08405304645713982,-0.027046468083778575,-0.4374270393306876,-0.13630690228244388,-0.019821675696997082
4400,8.0,300.25861000000003,552.8432799999999,0.0,0.0,0.0,-0.04462103215794927,0.0,0.0,-0.07130964819571434,-0.05612083870569554,-0.04062006673513846,-0.4143339549765776,-0.12477274202161089,-0.004214737711437226
4401,8.0,299.22135,843.15765,0.0,0.0,0.0,-0.04463117330162153,0.0,0.0,-0.04881816791622805,-0.07923989468636873,-0.12824081340388288,-0.4143617788243236,-0.1076359673203429,-0.02185619881128888
4402,8.0,299.68979,1202.5212,0.0,0.0,0.0,-0.04464131444529379,0.0,0.0,-0.10899125012409891,-0.1073917335162389,-0.14915345447029985,-0.44118091816866656,-0.08018746895463702,-0.01216224360031999
4403,8.0,298.48981000000003,1212.2072,0.0,0.0,0.0,-0.044651455588966056,0.0,0.0,-0.10471199097676889,-0.10082965127786181,-0.16293907671833485,-0.4481481677112806,-0.1058925286682789,0.023558210733014378
4404,8.0,299.1922,940.30169,0.0,0.0,0.0,-0.044661596732638316,0.0,0.0,-0.07729308863323392,-0.09614604657212601,-0.11238910327444089,-0.44744372584425757,-0.06596237075397914,-0.012444328375159588
4405,8.0,300.07493,1101.9168,0.0,0.0,0.0,-0.044671737876310576,0.0,0.0,-0.13087175781853685,-0.1087594286337199,-0.09532401905749821,-0.4142008341784396,-0.07482639509954023,0.00983660927399775
4406,8.0,299.70788999999996,1199.7036,0.0,0.0,0.0,-0.044681879019982836,0.0,0.0,-0.11882691950730388,-0.09878554079112381,-0.14706748662193087,-0.4310683477981336,-0.0968360648239755,0.014949258927876985
4407,8.0,299.19287,717.58955,0.0,0.0,0.0,-0.044692020163655095,0.0,0.0,-0.007679255929583554,-0.09926060411375891,-0.11118944555354389,-0.4319907397616666,-0.12362060573040388,-0.026216929346159476
4408,8.0,300.27055,237.49364,0.0,0.0,0.0,-0.04470216130732736,0.0,0.0,0.04003585307198106,-0.052861576890781456,-0.05936641353825885,-0.44406012912282256,-0.11676738735404388,-0.05316544755602115
4409,8.0,300.23511,564.55592,0.0,0.0,0.0,-0.04471230245099962,0.0,0.0,0.0014671991144012786,-0.08007675618246053,-0.09300134484001811,-0.4305191358464306,-0.08709078140269091,-0.03230190453644977
4410,8.0,300.80226,995.92988,0.0,0.0,0.0,-0.04472244359467188,0.0,0.0,-0.11886216034578188,-0.0941996792562845,-0.0896759694693291,-0.4321386337462626,-0.1050030977304989,-0.036171129739312566
4411,8.0,301.12064,968.43787,0.0,0.0,0.0,-0.04473258473834414,0.0,0.0,-0.13342575602059686,-0.06287711437873804,-0.09807806322680121,-0.4275367355020906,-0.13090029094135286,0.0050397183434814745
4412,8.0,299.72906,998.0261,0.0,0.0,0.0,-0.0447427258820164,0.0,0.0,-0.09163984878664891,-0.10712680914509289,-0.1046083557565409,-0.4306618217255126,-0.12367008273278689,-0.012866437221068488
4413,8.0,300.0702,1143.0379,0.0,0.0,0.0,-0.04475286702568867,0.0,0.0,-0.07124795950312614,-0.11486220358851688,-0.16134482901099484,-0.4089207169798326,-0.09858925296850171,-0.012405948487871788
4414,8.0,298.65247,1087.6386,0.0,0.0,0.0,-0.04476300816936093,0.0,0.0,-0.08584610092685052,-0.0956326580777085,-0.14913620895359786,-0.4402461138914086,-0.1111581867879589,-0.016712847071429584
4415,8.0,299.64832,1041.7582,0.0,0.0,0.0,-0.04477314931303319,0.0,0.0,-0.08124990018799083,-0.0970873852992789,-0.13833120372972688,-0.4305414070836286,-0.09701720050460222,-0.03756776631939986
4416,8.0,300.91556,818.58907,0.0,0.0,0.0,-0.04478329045670545,0.0,0.0,-0.1101677044177059,-0.07702006231428833,-0.06164287341867794,-0.4240178293623016,-0.08252601674818372,-0.007517435734288144
4417,8.0,299.97641,260.32642000000004,0.0,0.0,0.0,-0.04479343160037771,0.0,0.0,-0.027941004788812476,-0.032573272164981674,-0.01861845437549838,-0.4031810807283746,-0.056857968020944546,-0.019010694634959482
4418,8.0,299.4445,493.13460999999995,0.0,0.0,0.0,-0.044803572744049974,0.0,0.0,-0.012849000200097589,-0.0893483492349955,-0.04770325843369505,-0.42122864567953056,-0.10999881589103791,-0.012641143087833689
4419,8.0,300.89641,1034.692,0.0,0.0,0.0,-0.044813713887722234,0.0,0.0,-0.062357736562979445,-0.08429727012874282,-0.16786552910203784,-0.43410488609531656,-0.13134607032284787,0.006682765594187613
4420,8.0,300.73703,1016.2579,0.0,0.0,0.0,-0.044823855031394494,0.0,0.0,-0.04409270382236105,-0.12783275732361088,-0.13699157564001588,-0.4458086745553906,-0.11822553530795189,-0.04010453420350936
4421,8.0,301.18837,837.97788,0.0,0.0,0.0,-0.044833996175066754,0.0,0.0,-0.04384197508511606,-0.1006720949403122,-0.1102102811869079,-0.43377507318776665,-0.08871100782934482,-0.02359197526609668
4422,8.0,300.73142,1071.4012,0.0,0.0,0.0,-0.044844137318739014,0.0,0.0,-0.14607711570918885,-0.0982175766198201,-0.08138452160952693,-0.4622957836900416,-0.11144651723641488,-0.02036038125841318
4423,8.0,299.48634,1254.6252,0.0,0.0,0.0,-0.04485427846241128,0.0,0.0,-0.15911706694363184,-0.11044043081462189,-0.1118172451830029,-0.4299217438524726,-0.1037887580156529,0.016584499694512683
4424,8.0,300.13711,1190.9958,0.0,0.0,0.0,-0.04486441960608354,0.0,0.0,-0.08476155956306462,-0.12153263164683689,-0.15573877965272084,-0.4067203835926766,-0.09941556551780241,-0.027598648858274573
4425,8.0,299.86064,970.08829,0.0,0.0,0.0,-0.0448745607497558,0.0,0.0,-0.061399568764915646,-0.1015070099829619,-0.13197603830752086,-0.4086546273710716,-0.09184648189279201,0.005282814166398165
4426,8.0,299.17251,695.17699,0.0,0.0,0.0,-0.04488470189342806,0.0,0.0,-0.013849565422095688,-0.1071377826436759,-0.0903290952850376,-0.41019863813845364,-0.13110073207613487,-0.047956240639162456
4427,8.0,299.07745,548.04465,0.0,0.0,0.0,-0.04489484303710032,0.0,0.0,-0.02970819706297077,-0.07340465626147552,-0.06347903661389315,-0.45937249635653554,-0.12965344616329888,-0.017689428663560682
4428,8.0,299.67305,829.4146400000001,0.0,0.0,0.0,-0.04490498418077259,0.0,0.0,-0.1065969401377989,-0.0994734828935184,-0.04605092008487195,-0.43603713377101455,-0.0982713295376251,-0.050794685502045155
4429,8.0,300.24532,1105.0422,0.0,0.0,0.0,-0.04491512532444485,0.0,0.0,-0.1170434878737929,-0.094457374087967,-0.12440438508025688,-0.44374667007188656,-0.06075640421094024,0.004387138466926855
4430,8.0,300.81322,760.19691,0.0,0.0,0.0,-0.04492526646811711,0.0,0.0,-0.04827649555851916,-0.09933247799635231,-0.08347190395503551,-0.4217050860090516,-0.09091136756100342,-0.045379067380815256
4431,8.0,300.63108,835.42658,0.0,0.0,0.0,-0.04493540761178937,0.0,0.0,-0.03723157196272007,-0.0979456952734875,-0.11877155552183988,-0.45265955232401955,-0.12417087146221088,0.008026699186223533
4432,8.0,300.85258999999996,1235.6561,0.0,0.0,0.0,-0.044945548755461626,0.0,0.0,-0.097798464967707,-0.11117785397239989,-0.16663228214032585,-0.41095228343033263,-0.1091811027953359,-0.04040593253850506
4433,8.0,300.55211,1289.44,0.0,0.0,0.0,-0.0449556898991339,0.0,0.0,-0.12331093623484189,-0.12345572967413188,-0.14519090690672687,-0.4189333910230066,-0.10161138487576289,-0.0025789070305933075
4434,8.0,300.04879,842.86054,0.0,0.0,0.0,-0.04496583104280616,0.0,0.0,-0.1223929620417449,-0.08064565254385622,-0.05316994334671485,-0.4008750856207906,-0.11357791921926788,-0.02011694285563768
4435,8.0,299.87464,701.1841599999999,0.0,0.0,0.0,-0.04497597218647842,0.0,0.0,-0.06313181201662474,-0.06467228552790763,-0.08533838055349242,-0.4483127904550276,-0.08375938833965801,0.019609911492347584
4436,8.0,299.78429,652.01236,0.0,0.0,0.0,-0.04498611333015068,0.0,0.0,-0.031139209165950674,-0.08109425281362963,-0.08596201369854023,-0.42226679133448763,-0.07205681172670364,-0.03967666908378236
4437,8.0,299.84619,867.49187,0.0,0.0,0.0,-0.04499625447382294,0.0,0.0,-0.03331062135550236,-0.0946236717341293,-0.13576157107862385,-0.44384089219868555,-0.06690294549055663,-0.0029123266018742573
4438,8.0,299.87075,1171.4695,0.0,0.0,0.0,-0.045006395617495205,0.0,0.0,-0.060719904915838036,-0.16521209053516384,-0.13016549210133388,-0.4338051160532316,-0.14856227369945485,-0.04823501715242555
4439,8.0,300.45677,988.96473,0.0,0.0,0.0,-0.045016536761167465,0.0,0.0,-0.08204643433010263,-0.1067761536829859,-0.1117979934311029,-0.4524275281836206,-0.13310450507639188,-0.007171650256136773
4440,8.0,300.05088,682.67944,0.0,0.0,0.0,-0.045026677904839725,0.0,0.0,-0.08522300176460541,-0.08964658015017861,-0.03264792032634887,-0.4209912513136016,-0.12233507506353189,-0.03568928169400787
4441,8.0,300.71283,1039.6609,0.0,0.0,0.0,-0.045036819048511985,0.0,0.0,-0.08037214898411353,-0.1032537113003479,-0.13240509906236586,-0.4189913185312236,-0.07374937914424702,0.02297990127818968
4442,8.0,300.40109,1268.8727,0.0,0.0,0.0,-0.045046960192184245,0.0,0.0,-0.1083467116029879,-0.1244736103270889,-0.15288528498610285,-0.4320255651676036,-0.0991611394309425,-0.010202249083883591
4443,8.0,300.33027000000004,896.8275800000001,0.0,0.0,0.0,-0.045057101335856505,0.0,0.0,-0.04999856780572445,-0.07713404788428782,-0.14548057484531488,-0.44985196801943256,-0.09514772164609901,0.014962432192427086
4444,8.0,300.91379,719.5146599999999,0.0,0.0,0.0,-0.045067242479528764,0.0,0.0,-0.02243988457114418,-0.08786046239065251,-0.1084141433971429,-0.4323704552366416,-0.11643808107154388,-0.05291966753226454
4445,8.0,302.0256,964.03027,0.0,0.0,0.0,-0.04507738362320103,0.0,0.0,-0.11392395426091888,-0.06504378151807144,-0.1140733883856669,-0.44649993403861254,-0.08001653670251734,-0.0007075663351638603
4446,8.0,301.20966,1038.7722,0.0,0.0,0.0,-0.04508752476687329,0.0,0.0,-0.13348684486912588,-0.1062371755572929,-0.07603680239074813,-0.4199681321576276,-0.15040439277875786,-0.03262929374976057
4447,8.0,301.01793,1044.3525,0.0,0.0,0.0,-0.04509766591054555,0.0,0.0,-0.08581410856819312,-0.12053049690043388,-0.11111246894344691,-0.4200713012828096,-0.12486114809283588,-0.014392355394664885
4448,8.0,299.94535,909.05303,0.0,0.0,0.0,-0.04510780705421781,0.0,0.0,-0.044640759655699955,-0.11276719754925589,-0.1189214658741349,-0.4189649740286236,-0.1020674183482699,-0.023639437927280876
4449,8.0,300.55158,782.0504099999999,0.0,0.0,0.0,-0.04511794819789007,0.0,0.0,-0.03364893847114167,-0.12342636568623387,-0.08064848863088613,-0.4276155562273696,-0.06469353540900484,-0.03550413759598557
4450,8.0,299.86041,912.5592800000001,0.0,0.0,0.0,-0.04512808934156233,0.0,0.0,-0.03573297709132026,-0.12774832319277787,-0.11391393321742989,-0.45972960622177955,-0.12565202019338886,-0.024447557571036078
4451,8.0,300.46873,1006.4213,0.0,0.0,0.0,-0.04513823048523459,0.0,0.0,-0.1232939541631659,-0.09532931328927072,-0.08730366626195102,-0.45536911481393255,-0.12135682262198588,-0.016984782120017482
4452,8.0,299.78274,825.9403,0.0,0.0,0.0,-0.04514837162890685,0.0,0.0,-0.08236392510318652,-0.08590032399270192,-0.08280097938807042,-0.4193020215418876,-0.1177575150867619,0.007607608913687542
4453,8.0,299.69073,821.68239,0.0,0.0,0.0,-0.04515851277257912,0.0,0.0,-0.06213013424601684,-0.07814264007357813,-0.1094981487516259,-0.42864879775184256,-0.085665453632772,0.011835021573275687
4454,8.0,299.81097,1151.3419999999999,0.0,0.0,0.0,-0.045168653916251376,0.0,0.0,-0.08310501723957663,-0.11886059994062788,-0.14801360890280588,-0.4242699259871816,-0.11430941486396089,-0.0026020314243755077
4455,8.0,300.41867,1321.7071,0.0,0.0,0.0,-0.045178795059923636,0.0,0.0,-0.08831616149062652,-0.13287442637618488,-0.18057535332139985,-0.4399264537498606,-0.08033560105300652,-0.032027344156852766
4456,8.0,300.26603,972.22551,0.0,0.0,0.0,-0.045188936203595896,0.0,0.0,-0.06865458640218014,-0.1133687337361229,-0.11350895741746189,-0.4114219552491856,-0.07673048759470952,-0.057454482540315946
4457,8.0,300.85429,658.14459,0.0,0.0,0.0,-0.045199077347268156,0.0,0.0,-0.07008195789755073,-0.10097241112420109,-0.02900515145458557,-0.4382955061238986,-0.06195760612498964,-0.035743341626593164
4458,8.0,300.27887000000004,718.83189,0.0,0.0,0.0,-0.04520921849094042,0.0,0.0,-0.08027668157294163,-0.07932658025892392,-0.05890368248259085,-0.45877275362234554,-0.13991340389337786,-0.011587717621368688
4459,8.0,300.29573999999997,986.0785800000001,0.0,0.0,0.0,-0.04521935963461268,0.0,0.0,-0.07213488062040843,-0.13477412845867087,-0.09283425381902752,-0.4565133781518626,-0.14688370331879286,0.008078710529756653
4460,8.0,299.9503,1057.1531,0.0,0.0,0.0,-0.04522950077828494,0.0,0.0,-0.07395136751193172,-0.13066129564026588,-0.11673549024089588,-0.4012353669588476,-0.11987687965842687,0.003120021898097187
4461,8.0,300.01692,1008.882,0.0,0.0,0.0,-0.0452396419219572,0.0,0.0,-0.04021713263412196,-0.11394905246589589,-0.15250875111644185,-0.4176878938675856,-0.10612854501407191,0.008529208718292363
4462,8.0,299.88439,961.1582199999999,0.0,0.0,0.0,-0.04524978306562946,0.0,0.0,-0.08985884895337791,-0.10678823162417789,-0.09552102122144081,-0.43657446029904456,-0.13045112730452388,-0.018501454386451382
4463,8.0,300.29392,1045.8704,0.0,0.0,0.0,-0.04525992420930173,0.0,0.0,-0.11583424480694988,-0.09406278308827391,-0.1080214583208879,-0.45195513072199855,-0.1047492279179439,-0.021431679443392082
4464,8.0,300.09586,1115.1463,0.0,0.0,0.0,-0.04527006535297399,0.0,0.0,-0.13074663156368788,-0.10202042380863191,-0.10620958475706989,-0.40835292202129564,-0.08023433582476243,-0.01965449550999768
4465,8.0,300.32996,909.55472,0.0,0.0,0.0,-0.04528020649664625,0.0,0.0,-0.07420441659190573,-0.0995746214655,-0.10270288828098591,-0.41876368176375756,-0.08710106285145561,-0.012315842182978988
4466,8.0,300.31175,574.05303,0.0,0.0,0.0,-0.04529034764031851,0.0,0.0,-0.04759571510783136,-0.04463120774700726,-0.08227086517425222,-0.4420812516775226,-0.13993156133516987,-0.002554043291689448
4467,8.0,299.70862,674.84996,0.0,0.0,0.0,-0.04530048878399077,0.0,0.0,0.01876136722260278,-0.11782045818297388,-0.1060784499291279,-0.46010301928113256,-0.13739648051247685,-0.04718408732095686
4468,8.0,299.08125,909.706,0.0,0.0,0.0,-0.045310629927663035,0.0,0.0,-0.08603269701226611,-0.08491569618152672,-0.1055795154473869,-0.4502687684480676,-0.05933306038471715,-0.012278201968264188
4469,8.0,298.47187,899.28621,0.0,0.0,0.0,-0.045320771071335295,0.0,0.0,-0.07081743460188664,-0.0971962651020245,-0.1053468529594249,-0.45116002323602755,-0.06894871365445823,-0.02768969748576037
4470,8.0,298.85587000000004,894.29306,0.0,0.0,0.0,-0.045330912215007554,0.0,0.0,-0.09270195881972101,-0.10450633160397191,-0.07463447438484913,-0.43588542996604257,-0.1117149170554039,0.004491849657436046
4471,8.0,299.60612000000003,1016.3041,0.0,0.0,0.0,-0.045341053358679814,0.0,0.0,-0.06743302322737123,-0.0897503318941681,-0.15174770909883284,-0.4399033516475806,-0.12958247812629486,0.025108338491250076
4472,8.0,299.97781000000003,1053.2351,0.0,0.0,0.0,-0.045351194502352074,0.0,0.0,-0.06029275717718184,-0.13743400116367988,-0.12243040163293988,-0.3890316510319346,-0.0980428163088226,-0.0030607777727002473
4473,8.0,299.5602,1149.0879,0.0,0.0,0.0,-0.04536133564602434,0.0,0.0,-0.06715641101632173,-0.1120739824933409,-0.17006363333897384,-0.4192835297275626,-0.12593119086094087,-0.011562370156867091
4474,8.0,300.04376,1202.8617,0.0,0.0,0.0,-0.0453714767896966,0.0,0.0,-0.15091707706435586,-0.08880916643278232,-0.12591368189921287,-0.45136280497854053,-0.12418197668330688,-0.014682579607557785
4475,8.0,300.40036000000003,921.9652699999999,0.0,0.0,0.0,-0.04538161793336886,0.0,0.0,-0.07895732861773164,-0.12404158074945087,-0.07725551326652552,-0.4519926716382035,-0.12137586159136489,-0.054473522024368046
4476,8.0,300.15985,779.97023,0.0,0.0,0.0,-0.04539175907704112,0.0,0.0,-0.0962763920782401,-0.053601487577554945,-0.08721359542081172,-0.4389215629631855,-0.05284131695503195,-0.024509373933136878
4477,8.0,300.02567999999997,878.5514099999999,0.0,0.0,0.0,-0.04540190022071338,0.0,0.0,-0.06806406728365043,-0.1015012445898929,-0.09749238136424891,-0.4178778782613356,-0.095858962421293,-0.026344475242247273
4478,8.0,300.15477999999996,819.40215,0.0,0.0,0.0,-0.04541204136438565,0.0,0.0,-0.04102721393007076,-0.07990103835011851,-0.12814953983487487,-0.44553626226600557,-0.14629919986610684,0.009336531542168921
4479,8.0,299.95542,743.36952,0.0,0.0,0.0,-0.04542218250805791,0.0,0.0,-0.01044133051122909,-0.09798634382774922,-0.11753809577760689,-0.4173482220365626,-0.13642155153125887,-0.041539009595331064
4480,8.0,299.72941000000003,799.76589,0.0,0.0,0.0,-0.045432323651730167,0.0,0.0,-0.06846569530528804,-0.09001994862652722,-0.08462321647391122,-0.4518042476496075,-0.06151187335299924,0.012075471901506289
4481,8.0,300.0256,1009.7302,0.0,0.0,0.0,-0.045442464795402426,0.0,0.0,-0.09665404153626121,-0.1002737609947497,-0.1100049764516459,-0.4424329406547316,-0.08108121228484264,-0.03792615490627006
4482,8.0,300.43383,1215.8992,0.0,0.0,0.0,-0.045452605939074686,0.0,0.0,-0.14325760545092486,-0.1050791826805079,-0.1212661975330419,-0.49307817987302754,-0.11723351279754689,0.007877921647540332
4483,8.0,301.14226,1213.4246,0.0,0.0,0.0,-0.04546274708274696,0.0,0.0,-0.1337347466385919,-0.13373650969376588,-0.1013795127228789,-0.44035160335931955,-0.13549848069015888,-0.043646149304539555
4484,8.0,301.41094,974.14475,0.0,0.0,0.0,-0.04547288822641921,0.0,0.0,-0.06461394765340014,-0.07168805049855974,-0.15981367638738184,-0.4282796504754106,-0.09514619569144842,0.006528540012366734
4485,8.0,299.97007,699.36814,0.0,0.0,0.0,-0.04548302937009147,0.0,0.0,-0.04819355191858325,-0.09545553182772751,-0.06894136860448334,-0.41538807958561164,-0.13451121032272287,-0.05465789503906424
4486,8.0,301.37888,937.59599,0.0,0.0,0.0,-0.04549317051376373,0.0,0.0,-0.08716931841794193,-0.09106135086730562,-0.10677509990288189,-0.4543285373587356,-0.12115892474495489,-0.005274801485932375
4487,8.0,300.53042999999997,1103.2349,0.0,0.0,0.0,-0.04550331165743599,0.0,0.0,-0.1060953712057979,-0.11682711844743889,-0.11243336203880891,-0.4260105275389656,-0.11994100825725588,-0.05888530415227704
4488,8.0,300.23609,819.29021,0.0,0.0,0.0,-0.045513452801108266,0.0,0.0,-0.053748426067306655,-0.12165294496371089,-0.07364239614568863,-0.42745283839381054,-0.03541055381674957,-0.018076960349807082
4489,8.0,299.03585,598.5779,0.0,0.0,0.0,-0.045523593944780526,0.0,0.0,-0.035037790250710674,-0.07819764942150713,-0.06871729442436894,-0.4183051252985016,-0.08985422245342131,-0.024709559728893677
4490,8.0,299.49996,1117.746,0.0,0.0,0.0,-0.045533735088452786,0.0,0.0,-0.06803758599228693,-0.1274676630475789,-0.14426163497501487,-0.4491970234197946,-0.12726220632480187,0.01042908538377059
4491,8.0,299.55138999999997,1236.3214,0.0,0.0,0.0,-0.045543876232125045,0.0,0.0,-0.09326580919561872,-0.13966998068935388,-0.14287504274316887,-0.4465551359040606,-0.15438209856382687,-0.016673761962072185
4492,8.0,300.19716,1091.9233,0.0,0.0,0.0,-0.045554017375797305,0.0,0.0,-0.08704742544416201,-0.1060636868751709,-0.13880629643661485,-0.4457797158675326,-0.09524730690567731,0.024598952334727576
4493,8.0,299.79427999999996,1043.9984,0.0,0.0,0.0,-0.04556415851946957,0.0,0.0,-0.08059898528400053,-0.12359994556086487,-0.11315051006208589,-0.4319851263561125,-0.1122584852040499,-0.034419797868969565
4494,8.0,300.63538,1050.1503,0.0,0.0,0.0,-0.04557429966314183,0.0,0.0,-0.11811379408692388,-0.07184777012507283,-0.12925791385426288,-0.4771795765289576,-0.1022577269820519,0.0025187974882859574
4495,8.0,301.25535,1001.6542,0.0,0.0,0.0,-0.04558444080681409,0.0,0.0,-0.093087145845236,-0.1008241462900685,-0.1105665703195709,-0.4132932559313686,-0.10030151391498872,-0.05718238233196175
4496,8.0,301.83355,914.40136,0.0,0.0,0.0,-0.04559458195048635,0.0,0.0,-0.07956122365083143,-0.08275982522200882,-0.11563412791219989,-0.4229924506586046,-0.06382926043145754,0.0004818832760106766
4497,8.0,301.27619,814.9476900000001,0.0,0.0,0.0,-0.04560472309415861,0.0,0.0,-0.055229898025266545,-0.07479263157970803,-0.11770121891120588,-0.3989641668596976,-0.12371016690674287,-0.012141458801018688
4498,8.0,299.71512,821.08501,0.0,0.0,0.0,-0.04561486423783087,0.0,0.0,-0.07486902557099753,-0.1109726302971459,-0.06374768569240674,-0.46030844560640655,-0.14243674114741187,0.012775849622378188
4499,8.0,298.96948,1101.8035,0.0,0.0,0.0,-0.04562500538150313,0.0,0.0,-0.09254914854563981,-0.12743882594973288,-0.11493277645798189,-0.4193898196630526,-0.13868338919948486,-0.025302376898650177
4500,8.0,299.84325,1125.5219,0.0,0.0,0.0,-0.04563514652517539,0.0,0.0,-0.12464959160445688,-0.11294427313673189,-0.1045366987094689,-0.4383746814867126,-0.06207238101681703,0.021216763017681477
4501,8.0,299.14454,778.3416900000001,0.0,0.0,0.0,-0.04564528766884765,0.0,0.0,-0.027078147348155078,-0.1049096558062769,-0.10460862933406789,-0.4354459530001696,-0.1137851085997159,-0.03309478084570057
4502,8.0,299.60506000000004,730.3660000000001,0.0,0.0,0.0,-0.04565542881251992,0.0,0.0,-0.06507626834277765,-0.06216675918413144,-0.0947699982208206,-0.46712151901380455,-0.11088861159885388,-0.01055499488094689
4503,8.0,300.014,886.96872,0.0,0.0,0.0,-0.04566556995619218,0.0,0.0,-0.07061257468341853,-0.09015540192639541,-0.1088483717274979,-0.45126316196370664,-0.11430932367145188,-0.02941846832937677
4504,8.0,301.16067999999996,934.2682599999999,0.0,0.0,0.0,-0.04567571109986444,0.0,0.0,-0.08650767927489322,-0.1015501541722199,-0.09593638688793421,-0.4342679889639136,-0.07433085601888433,-0.02745348760919827
4505,8.0,299.39656,918.72955,0.0,0.0,0.0,-0.0456858522435367,0.0,0.0,-0.07156272767319133,-0.08226225558815252,-0.12544585419554188,-0.46271775169418655,-0.14471614857237186,-0.01241136228315609
4506,8.0,300.46592000000004,1053.655,0.0,0.0,0.0,-0.04569599338720896,0.0,0.0,-0.09456402676699281,-0.11985963414172487,-0.1058611584451829,-0.44866628301741457,-0.12044588038458288,-0.020282080330435482
4507,8.0,300.14609,968.74699,0.0,0.0,0.0,-0.045706134530881216,0.0,0.0,-0.04779819794156486,-0.10980401855931289,-0.13687268087328186,-0.4230139112957226,-0.10881144889385388,-0.01177197107255309
4508,8.0,299.03422,915.9567599999999,0.0,0.0,0.0,-0.04571627567455348,0.0,0.0,-0.06612894096441833,-0.0986090711272076,-0.1136899745478269,-0.40667034930273865,-0.06149113414995245,-0.03196502623595247
4509,8.0,298.42581,1174.9856,0.0,0.0,0.0,-0.04572641681822574,0.0,0.0,-0.09269663621694572,-0.13347279109023885,-0.13099686380838388,-0.4324420717537096,-0.11572761036642588,0.005354163996039845
4510,8.0,299.41131,1064.798,0.0,0.0,0.0,-0.045736557961898,0.0,0.0,-0.08635423673274961,-0.1032203753720579,-0.13409738884938188,-0.4473174444842946,-0.14421529904794186,-0.012060292401758188
4511,8.0,299.28705,690.50427,0.0,0.0,0.0,-0.04574669910557026,0.0,0.0,-0.055824582614957347,-0.09229170499998211,-0.061779769586688536,-0.4410859665017956,-0.1188783419498789,-0.00825559400501369
4512,8.0,299.78042999999997,762.42939,0.0,0.0,0.0,-0.04575684024924252,0.0,0.0,-0.07397185948195413,-0.07763347987182793,-0.08015415734434941,-0.43348784718191957,-0.09539098475660722,0.0004383813993348756
4513,8.0,300.67332999999996,1039.1765,0.0,0.0,0.0,-0.04576698139291479,0.0,0.0,-0.06513514222658803,-0.0988259907483659,-0.15192257580109084,-0.45263156635625756,-0.12312693001668189,0.007553489503321373
4514,8.0,299.2949,1045.4863,0.0,0.0,0.0,-0.04577712253658705,0.0,0.0,-0.1097011838066639,-0.1026708797103269,-0.10542965575759691,-0.4784111313630025,-0.1115118516028629,-0.023747231525919274
4515,8.0,300.33781,1150.5922,0.0,0.0,0.0,-0.04578726368025931,0.0,0.0,-0.1068103306088589,-0.1047640011044019,-0.13817697693200587,-0.4393216650301726,-0.08214982231730622,-0.018426645118318284
4516,8.0,300.64891,943.64366,0.0,0.0,0.0,-0.04579740482393157,0.0,0.0,-0.09198872194183,-0.0932955470728036,-0.1015598408431759,-0.42868233633015257,-0.07463177103358233,-0.030541656065226765
4517,8.0,299.92267000000004,857.73085,0.0,0.0,0.0,-0.04580754596760383,0.0,0.0,-0.08107232000196501,-0.08256283217731712,-0.09709360868139309,-0.44944025410629956,-0.11558918013776388,-0.01687441081312468
4518,8.0,299.59994,1020.2051,0.0,0.0,0.0,-0.045817687111276095,0.0,0.0,-0.0863419966715416,-0.1039221625238189,-0.11985271364354189,-0.4431926755797116,-0.14705031203273586,-0.009336446834460561
4519,8.0,300.47213999999997,911.8562699999999,0.0,0.0,0.0,-0.045827828254948355,0.0,0.0,-0.055811981836713744,-0.1082641013223349,-0.11310546096263988,-0.43814394417394065,-0.0974158171469426,-0.015746268284285686
4520,8.0,300.33844,529.72645,0.0,0.0,0.0,-0.045837969398620615,0.0,0.0,-0.04223095403562066,-0.07097858392429084,-0.04781407557063186,-0.4410529649460386,-0.07913739126650243,0.00037131903616633566
4521,8.0,300.99695,775.6492599999999,0.0,0.0,0.0,-0.045848110542292875,0.0,0.0,-0.05355194674041565,-0.09915888798922032,-0.08306717336159172,-0.4672988985763105,-0.1081090943220369,-0.013210931109317385
4522,8.0,301.39223,1396.3792,0.0,0.0,0.0,-0.045858251685965135,0.0,0.0,-0.1286441882686929,-0.16234207989191585,-0.1334781511832679,-0.46749694844085654,-0.1149537710000539,-0.033088769232857265
4523,8.0,301.59897,1188.6067,0.0,0.0,0.0,-0.0458683928296374,0.0,0.0,-0.13072902127694988,-0.11710585341744788,-0.11347188259630289,-0.4268286358022066,-0.08773372810789482,-0.027307882556578178
4524,8.0,300.79902999999996,757.5681400000001,0.0,0.0,0.0,-0.04587853397330966,0.0,0.0,-0.04098550450295436,-0.11071623749184188,-0.07858005912849803,-0.4212605731901816,-0.12093817807816888,-0.05590983038562065
4525,8.0,300.23231,878.89895,0.0,0.0,0.0,-0.04588867511698192,0.0,0.0,-0.06492730031307563,-0.08041112466246013,-0.12182491377068287,-0.4244093289359396,-0.12200431983338889,-0.006545360875951822
4526,8.0,300.28981,1114.4877,0.0,0.0,0.0,-0.04589881626065418,0.0,0.0,-0.1054300813226389,-0.1090592088083059,-0.12428716217618788,-0.45478788415906957,-0.13703665513696486,-0.029411747441463472
4527,8.0,300.7978,1049.6728,0.0,0.0,0.0,-0.04590895740432644,0.0,0.0,-0.08097293941890693,-0.1018432874261499,-0.13625808389262586,-0.4341535930276236,-0.06286883511217094,-0.03259555758768107
4528,8.0,299.13068,729.0912900000001,0.0,0.0,0.0,-0.04591909854799871,0.0,0.0,-0.06418373888619185,-0.06049222255211754,-0.09694958429892901,-0.45257084227776456,-0.06220274577468304,-0.031660823224679974
4529,8.0,299.85036,556.11975,0.0,0.0,0.0,-0.04592923969167097,0.0,0.0,-0.028292634997515678,-0.06576235417098904,-0.07499152750808752,-0.44857382394578965,-0.0868423395709216,0.007324131021285453
4530,8.0,299.46952000000005,778.98328,0.0,0.0,0.0,-0.04593938083534323,0.0,0.0,-0.036580274050191965,-0.10623932364750491,-0.09397186314355081,-0.45897861564516257,-0.15824625954268984,-0.022689554462034682
4531,8.0,299.73978,1262.6539,0.0,0.0,0.0,-0.04594952197901549,0.0,0.0,-0.1141269285209509,-0.12742447832831688,-0.14226385028284888,-0.4249165822010016,-0.1203984096173979,0.02301650392480208
4532,8.0,300.03621,1271.2562,0.0,0.0,0.0,-0.04595966312268775,0.0,0.0,-0.1269874027651809,-0.1309490384036639,-0.12849368009883888,-0.42408250511618456,-0.12374359402754188,0.013199608039449886
4533,8.0,300.54963,830.78902,0.0,0.0,0.0,-0.04596980426636001,0.0,0.0,-0.06821234326353413,-0.06580804769749864,-0.11851872935688788,-0.4481258052815736,-0.11052568567803589,0.0013812682105205586
4534,8.0,300.34918,923.4880400000001,0.0,0.0,0.0,-0.04597994541003227,0.0,0.0,-0.09715948614989471,-0.0949320321105621,-0.08862578741643422,-0.46845846199075053,-0.12187324580045289,-0.027730136297251372
4535,8.0,301.70125,1338.0893,0.0,0.0,0.0,-0.04599008655370453,0.0,0.0,-0.13216530329369985,-0.10595662686960489,-0.16862380494687385,-0.4668617014231626,-0.07868890144098992,-0.022273028624176777
4536,8.0,301.19158,885.74092,0.0,0.0,0.0,-0.04600022769737679,0.0,0.0,-0.06173597286436614,-0.07579494465812862,-0.1317122082464829,-0.4291330198421316,-0.1047038241809629,-0.02780391610328287
4537,8.0,300.6634,581.83142,0.0,0.0,0.0,-0.04601036884104905,0.0,0.0,-0.01868037915535988,-0.0941421175313536,-0.06403972564947885,-0.4544476449079906,-0.13975153718990285,-0.01055535458473239
4538,8.0,300.27419,959.27804,0.0,0.0,0.0,-0.04602050998472132,0.0,0.0,-0.07924656997802752,-0.09304140266947152,-0.11930859833984189,-0.42714250015318256,-0.15121401000616086,-0.01813626486490998
4539,8.0,299.61205,1241.849,0.0,0.0,0.0,-0.04603065112839358,0.0,0.0,-0.1145553306632309,-0.14813551302233685,-0.11480022307989989,-0.4259029811733516,-0.08938443917705732,-0.015933708407034588
4540,8.0,299.0886,1141.7424,0.0,0.0,0.0,-0.04604079227206584,0.0,0.0,-0.1163063180285399,-0.13248594628784488,-0.09826889976388531,-0.4105188960975606,-0.07199807159190644,-0.03643542792189677
4541,8.0,299.71639,1150.5655,0.0,0.0,0.0,-0.0460509334157381,0.0,0.0,-0.06358024003388114,-0.1222657586241909,-0.16389718574789283,-0.4760257379775826,-0.0996442479593716,0.011639423773971688
4542,8.0,300.04598,887.92465,0.0,0.0,0.0,-0.04606107455941036,0.0,0.0,-0.048819282491338045,-0.11921706132580788,-0.10187057425134291,-0.4588527801152436,-0.13133553252180788,-0.04082799578815946
4543,8.0,301.13551,900.28909,0.0,0.0,0.0,-0.04607121570308263,0.0,0.0,-0.07466123837299053,-0.08138182332451062,-0.1176223373909209,-0.47084957010673456,-0.09296765123444282,0.016784176838719283
4544,8.0,300.22027,1037.3461,0.0,0.0,0.0,-0.04608135684675489,0.0,0.0,-0.1136430205381929,-0.08952958421413201,-0.1121547182613089,-0.40531988956945864,-0.12102963403219488,-0.017558700148908785
4545,8.0,300.60404,1002.2219,0.0,0.0,0.0,-0.04609149799042715,0.0,0.0,-0.09563927865386192,-0.08806693135027942,-0.12094421704876489,-0.4690362577277746,-0.12544341226280087,0.02205091609625598
4546,8.0,299.92921,727.38961,0.0,0.0,0.0,-0.046101639134099405,0.0,0.0,-0.08377211172116372,-0.07713211966934752,-0.060204045104426646,-0.4395209814573436,-0.11418723716690289,-0.04066480274030356
4547,8.0,300.04798999999997,896.1080599999999,0.0,0.0,0.0,-0.046111780277771665,0.0,0.0,-0.043679753744106056,-0.1047892918268979,-0.12392543189048788,-0.43040877264553856,-0.055684966883678355,-0.03286213862274057
4548,8.0,298.51946,1195.9987,0.0,0.0,0.0,-0.04612192142144394,0.0,0.0,-0.11482668917251189,-0.12949731445538987,-0.11922971681955688,-0.39864366572056664,-0.08050351685957852,-0.024790853797666774
4549,8.0,300.08831000000004,1063.7343,0.0,0.0,0.0,-0.0461320625651162,0.0,0.0,-0.07706065817954483,-0.1051617828286599,-0.14112623386557485,-0.47227955984036357,-0.12759658899030288,0.008920975992606783
4550,8.0,299.43712,885.6777199999999,0.0,0.0,0.0,-0.04614220370878846,0.0,0.0,-0.07614373675330173,-0.13704891546317488,-0.05603125523785435,-0.46778508637179356,-0.16080481737019983,-0.016981214466415383
4551,8.0,300.31857,881.14276,0.0,0.0,0.0,-0.04615234485246072,0.0,0.0,-0.05843709398379215,-0.100778605764324,-0.1086296920909159,-0.4582258417483696,-0.0890028015666426,0.0027204288879604274
4552,8.0,300.09015,813.64041,0.0,0.0,0.0,-0.04616248599613298,0.0,0.0,-0.08782341695374642,-0.0939345228508656,-0.06556842823435004,-0.42696761318592263,-0.10509400652947092,-0.009174442024996931
4553,8.0,300.40211,961.26413,0.0,0.0,0.0,-0.04617262713980524,0.0,0.0,-0.015072276609267885,-0.1329476742259139,-0.14418034191949186,-0.4504356102095336,-0.1104082601239469,-0.02455757728014418
4554,8.0,299.74897000000004,1098.5831,0.0,0.0,0.0,-0.0461827682834775,0.0,0.0,-0.1105105071915379,-0.0931548775614206,-0.13027644298728389,-0.4334625159294196,-0.1161788106359559,-0.016670812391031083
4555,8.0,300.88031,1008.2312,0.0,0.0,0.0,-0.04619290942714975,0.0,0.0,-0.07569756321751783,-0.11271731524683289,-0.11806221965683387,-0.4180611245419206,-0.06213846214858874,-0.03054467048427427
4556,8.0,299.80548,740.65768,0.0,0.0,0.0,-0.04620305057082201,0.0,0.0,-0.07263790356630294,-0.07375522154432364,-0.07874831640035372,-0.41144151097611564,-0.1049039816057169,-0.026228606040311873
4557,8.0,301.67666,1098.9699,0.0,0.0,0.0,-0.04621319171449427,0.0,0.0,-0.09086484722241223,-0.11469679050969189,-0.1284977837617439,-0.45131639812396057,-0.1285347876553959,-0.013546625933697886
4558,8.0,302.33569,1236.6708,0.0,0.0,0.0,-0.046223332858166544,0.0,0.0,-0.1061019674639489,-0.14400309407949888,-0.12581199211917687,-0.48148456209632656,-0.13891118808696687,-0.02868921095415467
4559,8.0,301.31428999999997,946.30382,0.0,0.0,0.0,-0.046233474001838804,0.0,0.0,-0.03478956424121267,-0.1053040026126959,-0.14755916623295584,-0.45871180662883054,-0.058974093232039844,-0.021687994228438378
4560,8.0,300.65051,916.2068,0.0,0.0,0.0,-0.04624361514551106,0.0,0.0,-0.07695963511807463,-0.1062255738436479,-0.09531878562073172,-0.4685369686084986,-0.07880392964534233,-0.0036014305981585267
4561,8.0,301.21639,938.51229,0.0,0.0,0.0,-0.04625375628918332,0.0,0.0,-0.07886927617079152,-0.0961299470412871,-0.11028507930928988,-0.4536977283764796,-0.11852311672982088,0.02825621676242147
4562,8.0,299.67825,1056.0572,0.0,0.0,0.0,-0.04626389743285558,0.0,0.0,-0.08091354877754552,-0.11823144255603488,-0.12187002366513489,-0.45731606474858155,-0.15291448685398484,0.003179239172366477
4563,8.0,300.88714,1200.4942,0.0,0.0,0.0,-0.04627403857652785,0.0,0.0,-0.12027564423528188,-0.11299493564173188,-0.13164968058281187,-0.40383071589748865,-0.1038783597219959,0.0014597358181397085
4564,8.0,299.81621,980.28845,0.0,0.0,0.0,-0.04628417972020011,0.0,0.0,-0.08613886130474373,-0.08630620259850902,-0.12553815114715086,-0.4128614087387486,-0.12039905809746189,-0.016002206140294788
4565,8.0,300.87788,825.88649,0.0,0.0,0.0,-0.04629432086387237,0.0,0.0,-0.04135601054777046,-0.08484006212781223,-0.12485279891201188,-0.4458417470386546,-0.1083215830005079,-0.04518630364204095
4566,8.0,300.5006,906.7824699999999,0.0,0.0,0.0,-0.04630446200754463,0.0,0.0,-0.07134396900310153,-0.0982916978911353,-0.10600356061423691,-0.4707358631805126,-0.11593546849193989,-0.03483340250678917
4567,8.0,299.31039,1093.8426,0.0,0.0,0.0,-0.04631460315121689,0.0,0.0,-0.09978723882673371,-0.1015100092032579,-0.13120359722628688,-0.4598664760452876,-0.060584388794463644,-0.03515342336537276
4568,8.0,299.07108,923.0962900000001,0.0,0.0,0.0,-0.046324744294889156,0.0,0.0,-0.08889188715769622,-0.1035447876565749,-0.08816155067111761,-0.4542632232572896,-0.07446177907755543,-0.02224385512729758
4569,8.0,299.11454,665.3197200000001,0.0,0.0,0.0,-0.046334885438561416,0.0,0.0,-0.03034558913112647,-0.1054452496766359,-0.06644973898582864,-0.46906136606525256,-0.14019745842641188,-0.03450707517958317
4570,8.0,300.74767,887.4578,0.0,0.0,0.0,-0.046345026582233675,0.0,0.0,-0.06800936900350214,-0.09147852721172772,-0.1102771151635039,-0.41929958974164755,-0.14536139636855286,-0.0025133339424217474
4571,8.0,301.16954,1108.9814,0.0,0.0,0.0,-0.046355167725905935,0.0,0.0,-0.07254309274119583,-0.13303700235472987,-0.13152254809276487,-0.4136069074998236,-0.08204141468910722,-0.024650059656521478
4572,8.0,300.71841,909.72236,0.0,0.0,0.0,-0.046365308869578195,0.0,0.0,-0.1002536854705184,-0.07297746393981493,-0.1033017292225869,-0.41038463032680955,-0.06078726071623554,-0.001876542528925328
4573,8.0,299.44437,941.2484400000001,0.0,0.0,0.0,-0.04637545001325046,0.0,0.0,-0.06778303122266434,-0.09845283606778842,-0.11988015245624989,-0.4648995324720116,-0.1004323062643969,-0.025729217622526078
4574,8.0,300.84055,942.6685,0.0,0.0,0.0,-0.04638559115692272,0.0,0.0,-0.10390067148919789,-0.07908122478695923,-0.1035657821986469,-0.43377266165252865,-0.1174343794973709,-0.015814816680050883
4575,8.0,300.42835,845.4685099999999,0.0,0.0,0.0,-0.04639573230059498,0.0,0.0,-0.07262287402756963,-0.07984234583807602,-0.1045361008919099,-0.4464715934333156,-0.08894698263188372,-0.05034141921556125
4576,8.0,300.12032,1128.483,0.0,0.0,0.0,-0.04640587344426724,0.0,0.0,-0.1047457018075959,-0.11595115360348789,-0.12233379836840588,-0.41805147840096857,-0.1008284232187406,-0.03589235018629917
4577,8.0,299.27429,1064.8993,0.0,0.0,0.0,-0.0464160145879395,0.0,0.0,-0.08565734459222173,-0.1068839736261269,-0.13116148655213086,-0.47408066255561854,-0.15001679421800487,-0.026364763548999578
4578,8.0,299.53125,795.02442,0.0,0.0,0.0,-0.04642615573161177,0.0,0.0,-0.09145183516434341,-0.07076367256483072,-0.07945206317780812,-0.4624909660568046,-0.12365809598410388,-0.02131476963360398
4579,8.0,299.88492,827.4341099999999,0.0,0.0,0.0,-0.04643629687528403,0.0,0.0,-0.058940152393440144,-0.0958558537699862,-0.09672330326009682,-0.42030171435554964,-0.07137709113562044,-0.02065769518225578
4580,8.0,299.03052,987.4435900000001,0.0,0.0,0.0,-0.04644643801895629,0.0,0.0,-0.12045130127261788,-0.08465253486555471,-0.0950543557156345,-0.43314194386278154,-0.038887394878637065,0.006650495199702774
4581,8.0,300.78604,938.0058,0.0,0.0,0.0,-0.04645657916262855,0.0,0.0,-0.05143549323628795,-0.11251125057399589,-0.12118359738488989,-0.4772442522828405,-0.12915597076170188,-0.016093368251791786
4582,8.0,300.82871,822.0454900000001,0.0,0.0,0.0,-0.04646672030630081,0.0,0.0,-0.04841099640329336,-0.09995904754018989,-0.10151125550088091,-0.4493560428904885,-0.14930977869572784,-0.023778506503505877
4583,8.0,300.23524,887.03897,0.0,0.0,0.0,-0.046476861449973074,0.0,0.0,-0.05232953142227265,-0.08916063046846912,-0.12814753359967687,-0.44861286447214255,-0.11340188727939489,-0.027259590043562074
4584,8.0,300.1034,943.63215,0.0,0.0,0.0,-0.046487002593645334,0.0,0.0,-0.08854419139913132,-0.09039803276884123,-0.10789838896374189,-0.4388362675697676,-0.10101555328695891,-0.02286578195917698
4585,8.0,300.36089,844.05165,0.0,0.0,0.0,-0.046497143737317594,0.0,0.0,-0.052735285398317455,-0.11674480200931488,-0.08709053923591702,-0.45727990185251255,-0.13651600670558087,-0.05372490853248565
4586,8.0,300.25635,898.38631,0.0,0.0,0.0,-0.04650728488098985,0.0,0.0,-0.11165699967968791,-0.07179100278822034,-0.08963900306593081,-0.45602409994357457,-0.09091586031194682,-0.002230530367961208
4587,8.0,300.72647,1015.0719,0.0,0.0,0.0,-0.04651742602466211,0.0,0.0,-0.06981524716647843,-0.12794903790508688,-0.1107922211168409,-0.40506518889182164,-0.07216621740625113,-0.044445666454945756
4588,8.0,299.36494,957.0803099999999,0.0,0.0,0.0,-0.04652756716833438,0.0,0.0,-0.06696087502527384,-0.1008058378740116,-0.12316180608512389,-0.4334603374417046,-0.09330948635442932,0.019914050668863783
4589,8.0,298.55445,1077.4951,0.0,0.0,0.0,-0.04653770831200664,0.0,0.0,-0.08759079600903852,-0.10906805448167889,-0.13087275080363486,-0.4375669691694976,-0.15102807861281084,-0.017792676822250483
4590,8.0,300.07813,1094.1625,0.0,0.0,0.0,-0.0465478494556789,0.0,0.0,-0.09960090922609441,-0.1148666720214579,-0.1181305127135739,-0.4574403094758435,-0.13482146750334287,0.031191822177393174
4591,8.0,299.94632,764.49022,0.0,0.0,0.0,-0.04655799059935116,0.0,0.0,-0.07250785696896833,-0.08609241088040942,-0.07378566768332843,-0.4288172100509636,-0.07264919319891713,-0.014285302481849586
4592,8.0,298.98978,904.8083,0.0,0.0,0.0,-0.04656813174302342,0.0,0.0,-0.07893557616458483,-0.0958484195540025,-0.1002551364446616,-0.47362840850598453,-0.06729686875843384,-0.0030222618059240172
4593,8.0,298.99843,1150.9867,0.0,0.0,0.0,-0.046578272886695686,0.0,0.0,-0.07127661016295374,-0.12617203027720988,-0.15242258432793784,-0.45382119290116457,-0.11215681568901588,-0.036243889202493364
4594,8.0,300.40516,870.89796,0.0,0.0,0.0,-0.046588414030367946,0.0,0.0,-0.04392896767245155,-0.08216051311911134,-0.13864175475287588,-0.4663150124642086,-0.0940111093596741,-0.01301951397992599
4595,8.0,300.40947,875.0938,0.0,0.0,0.0,-0.046598555174040206,0.0,0.0,-0.06813658559330743,-0.09425357301585341,-0.10361650549865291,-0.4046381242396736,-0.1180067138163559,-0.03489594840896197
4596,8.0,300.60889,1084.2986,0.0,0.0,0.0,-0.046608696317712466,0.0,0.0,-0.1070023516353099,-0.1066865215791399,-0.1159108363820089,-0.4384744967540636,-0.14612569091898286,-0.006104007269568614
4597,8.0,300.42512,906.49224,0.0,0.0,0.0,-0.046618837461384725,0.0,0.0,-0.09633381904090772,-0.09344834214813331,-0.08576884465972592,-0.4174523436168386,-0.17878157640436781,-0.004818535776502456
4598,8.0,300.28663,933.8045300000001,0.0,0.0,0.0,-0.04662897860505699,0.0,0.0,-0.07712449698884523,-0.1025317604715969,-0.1041969964809429,-0.44450546267427354,-0.1001297680230387,-0.012103436591016188
4599,8.0,299.95197,1061.5999,0.0,0.0,0.0,-0.04663911974872925,0.0,0.0,-0.07994491613244893,-0.0963241009591986,-0.14643085145159987,-0.41718452135040657,-0.07226820812156684,0.0026357704235552876
4600,8.0,299.76982999999996,873.16249,0.0,0.0,0.0,-0.04664926089240151,0.0,0.0,-0.05530817463524185,-0.1009123203270206,-0.1091990981171119,-0.4642698583298675,-0.058765782183731144,-0.005516462445382455
4601,8.0,300.27312,752.8600299999999,0.0,0.0,0.0,-0.04665940203607377,0.0,0.0,-0.04737039057709355,-0.09417394675674491,-0.08730631388446232,-0.48700832541397954,-0.12344986295605288,-0.03015056787112937
4602,8.0,300.04119,1097.5842,0.0,0.0,0.0,-0.04666954317974603,0.0,0.0,-0.10825403974884189,-0.1167222369295879,-0.10866192357659689,-0.46406083496673856,-0.10797946923674391,-0.008725418318006741
4603,8.0,299.56581,1253.371,0.0,0.0,0.0,-0.04667968432341829,0.0,0.0,-0.12086139398559088,-0.13690274400374888,-0.1232293594692909,-0.4219930415549706,-0.09281056099193923,-0.035751785039676465
4604,8.0,298.86485,951.99495,0.0,0.0,0.0,-0.046689825467090565,0.0,0.0,-0.09123668062485932,-0.099067317537933,-0.099078696336556,-0.45860450344324055,-0.1029977237950839,-0.01166348643734649
4605,8.0,298.74091,948.75088,0.0,0.0,0.0,-0.046699966610762825,0.0,0.0,-0.04137417001606266,-0.1094904987133709,-0.13753191152084288,-0.4483145332451996,-0.13563000055313887,-0.03593016062703076
4606,8.0,299.97157999999996,1059.4807,0.0,0.0,0.0,-0.046710107754435085,0.0,0.0,-0.08856456481889202,-0.1019017316919179,-0.13158938206936086,-0.46916690619566853,-0.08044881047342942,0.008158639547995032
4607,8.0,299.90549,806.8860099999999,0.0,0.0,0.0,-0.04672024889810734,0.0,0.0,-0.06296329535274345,-0.07475764608025523,-0.1075522627295819,-0.4053336089758126,-0.08592084433372711,-0.036400487005448366
4608,8.0,299.87356,912.3388199999999,0.0,0.0,0.0,-0.0467303900417796,0.0,0.0,-0.1168267840749059,-0.08976809518167121,-0.07073334294958743,-0.4341310988754036,-0.1106329483336219,0.004886339534769165
4609,8.0,299.80489,1140.5293,0.0,0.0,0.0,-0.04674053118545186,0.0,0.0,-0.1033051236104219,-0.13214326510402485,-0.1112440394689319,-0.44117020811510954,-0.17247767130472083,-0.01251836149371609
4610,8.0,300.10667,915.32158,0.0,0.0,0.0,-0.04675067232912412,0.0,0.0,-0.07424125532579143,-0.1127142653640319,-0.09127937999732341,-0.42540223297393165,-0.11651224084636287,-0.0005783063441468924
4611,8.0,300.81358,956.35949,0.0,0.0,0.0,-0.04676081347279638,0.0,0.0,-0.04197033293764936,-0.1222636206664799,-0.12647545815215588,-0.4069191832622966,-0.0878515062730186,-0.03521213107616677
4612,8.0,299.75005,1223.9576,0.0,0.0,0.0,-0.04677095461646864,0.0,0.0,-0.1100821151817589,-0.11601825102510989,-0.14595218197185886,-0.44985711532994055,-0.06609830636089495,-0.016411350451174186
4613,8.0,300.20776,1064.4039,0.0,0.0,0.0,-0.04678109576014091,0.0,0.0,-0.07740535471781372,-0.1294413019898619,-0.1167055588329419,-0.4867766356461135,-0.12198905015438188,-0.04413334427062196
4614,8.0,299.99887,713.10213,0.0,0.0,0.0,-0.04679123690381317,0.0,0.0,-0.06422432765869765,-0.09582751417793932,-0.05671339850992665,-0.47581208406149655,-0.08929854495283022,-0.037479037021392964
4615,8.0,299.05807999999996,848.4531800000001,0.0,0.0,0.0,-0.04680137804748543,0.0,0.0,-0.07910443024074942,-0.0906698360949161,-0.08813431450842961,-0.45572730885678353,-0.11844301930941589,-0.016391408675956086
4616,8.0,298.62506,927.56067,0.0,0.0,0.0,-0.04681151919115768,0.0,0.0,-0.07102784307790234,-0.09241739563513682,-0.11851004580353089,-0.44069620971832957,-0.1253523109463099,-0.013153446391394088
4617,8.0,300.22404,816.7621,0.0,0.0,0.0,-0.04682166033482994,0.0,0.0,-0.04261849889411836,-0.08236480359102323,-0.12329197832547088,-0.4435060535706396,-0.15205333572649585,-0.005729142830772374
4618,8.0,299.82878999999997,1035.9389,0.0,0.0,0.0,-0.046831801478502216,0.0,0.0,-0.07496812447052782,-0.1007137486386731,-0.13921768610971588,-0.4403227358639706,-0.09179575048678522,0.00015343143692250383
4619,8.0,300.27906,1135.2226,0.0,0.0,0.0,-0.046841942622174476,0.0,0.0,-0.11328668074302489,-0.0958742665508034,-0.1359183816640999,-0.4345191128686976,-0.06883751249573353,-0.00932342545610045
4620,8.0,300.64651000000003,1036.6854,0.0,0.0,0.0,-0.046852083765846736,0.0,0.0,-0.12235940319843289,-0.09173538813857791,-0.1010316811888006,-0.4488371473817776,-0.1040326270497209,-0.007817507420927914
4621,8.0,301.41627,1171.1838,0.0,0.0,0.0,-0.046862224909518996,0.0,0.0,-0.1077042603770829,-0.13362851749810786,-0.1146778427328219,-0.43604141981893757,-0.13786255529347488,-0.010770199069685888
4622,8.0,299.84156,1154.3511,0.0,0.0,0.0,-0.046872366053191256,0.0,0.0,-0.10281165054671991,-0.1126649606141659,-0.13541729909214686,-0.45302716959280054,-0.1270160980080129,0.01072017389899879
4623,8.0,299.2295,717.7112400000001,0.0,0.0,0.0,-0.04688250719686352,0.0,0.0,-0.02359123458027358,-0.09232044583906861,-0.1022546163042449,-0.4347907550880066,-0.11297282652454989,-0.021912585166103775
4624,8.0,299.55295,688.05803,0.0,0.0,0.0,-0.04689264834053578,0.0,0.0,-0.04734325269966525,-0.07528588780788863,-0.08652331980343683,-0.4781532389475506,-0.1105184814698249,-0.00975191483921406
4625,8.0,299.69898,859.55516,0.0,0.0,0.0,-0.04690278948420804,0.0,0.0,-0.07404861824327964,-0.08308166891752233,-0.1041530214266029,-0.4562942020227315,-0.11544362676089888,-0.03924607832128636
4626,8.0,299.97559,610.33283,0.0,0.0,0.0,-0.0469129306278803,0.0,0.0,-0.05172321269493365,-0.06982615075080453,-0.06397657585024644,-0.4504530989062596,-0.06458649769494103,-0.02275321493931748
4627,8.0,301.38392999999996,692.5140700000001,0.0,0.0,0.0,-0.04692307177155256,0.0,0.0,-0.05502011371131245,-0.07900226119341613,-0.07648461029894332,-0.4216742426760076,-0.06332581800002164,-0.04331893335699586
4628,8.0,300.04722000000004,1109.2294,0.0,0.0,0.0,-0.04693321291522483,0.0,0.0,-0.092735517663033,-0.10033601001464322,-0.14410650638470485,-0.4317106166390206,-0.1211108764252129,-0.01077413250657409
4629,8.0,299.79585,1234.3966,0.0,0.0,0.0,-0.04694335405889709,0.0,0.0,-0.1056539893297369,-0.1316669463645159,-0.13790481795514586,-0.4224856938860916,-0.15551721225335385,-0.016344425282069183
4630,8.0,300.0581,1134.8834,0.0,0.0,0.0,-0.04695349520256935,0.0,0.0,-0.07533862747559363,-0.12736818215276088,-0.14226941302589785,-0.4240486220328406,-0.1160171161849979,-0.013210698061794385
4631,8.0,299.46114,1169.9537,0.0,0.0,0.0,-0.04696363634624161,0.0,0.0,-0.08664510537270612,-0.15376089519251884,-0.11523070238488488,-0.43910541719383056,-0.0995309128959363,-0.017113811414251685
4632,8.0,298.80946,1075.2841,0.0,0.0,0.0,-0.04697377748991387,0.0,0.0,-0.1008496862720891,-0.12213958872173888,-0.1038702435886949,-0.4903339034346885,-0.11931203325768089,-0.01606725780996488
4633,8.0,299.87169,797.6798,0.0,0.0,0.0,-0.046983918633586134,0.0,0.0,-0.05818010944042975,-0.094307869035712,-0.08998676265925201,-0.4645240219849516,-0.1177437652829049,-0.015428817027955684
4634,8.0,299.87363,797.89906,0.0,0.0,0.0,-0.046994059777258394,0.0,0.0,-0.04709877267578696,-0.10399970655397191,-0.09144290741771233,-0.44134745595510255,-0.08987975939569161,-0.03638413112233417
4635,8.0,299.93675,877.30399,0.0,0.0,0.0,-0.047004200920930654,0.0,0.0,-0.05965709472694685,-0.06699860035299703,-0.14002281463917587,-0.43334750191056853,-0.07374703853651603,-0.01905428870726188
4636,8.0,300.67907,862.8019800000001,0.0,0.0,0.0,-0.047014342064602914,0.0,0.0,-0.049507880166547356,-0.1145934086019889,-0.098168969999273,-0.4706413472111845,-0.14333525080608786,-0.038426714641171464
4637,8.0,299.84841,1052.2495,0.0,0.0,0.0,-0.047024483208275174,0.0,0.0,-0.09439406520846891,-0.1072427857515389,-0.11822071223747588,-0.47319179903789454,-0.13244472727377687,-0.016150971519976784
4638,8.0,300.75878,1365.0558,0.0,0.0,0.0,-0.04703462435194744,0.0,0.0,-0.16496700560097585,-0.1083107310919369,-0.14166512079875887,-0.44732639148267755,-0.07273410558379734,-0.007894452316296784
4639,8.0,299.92723,1240.3374,0.0,0.0,0.0,-0.0470447654956197,0.0,0.0,-0.08643487522870802,-0.15389135114289385,-0.13670536288426885,-0.44153050971816854,-0.03163971013234627,-0.004470124156741906
4640,8.0,299.63327999999996,1048.1259,0.0,0.0,0.0,-0.04705490663929196,0.0,0.0,-0.06847454604491153,-0.11573006243166789,-0.13439948936669685,-0.4577261169315506,-0.09980305870054501,-0.0026923588204401275
4641,8.0,300.26283,1184.656,0.0,0.0,0.0,-0.04706504778296422,0.0,0.0,-0.09528551758019842,-0.11933016030196987,-0.14549018045626286,-0.4637354803596286,-0.11618757524932088,0.010454910089069291
4642,8.0,300.18447000000003,911.7456800000001,0.0,0.0,0.0,-0.04707518892663648,0.0,0.0,-0.06048368389352485,-0.09790799426376671,-0.11875624531282888,-0.4134421935635676,-0.0963975392999464,-0.022326463381450376
4643,8.0,298.99332000000004,600.68708,0.0,0.0,0.0,-0.04708533007030875,0.0,0.0,-0.043248531726797754,-0.07163997279456484,-0.06770536965549974,-0.4343240926219506,-0.10132364920511559,-0.013710635661134386
4644,8.0,300.12746,887.10962,0.0,0.0,0.0,-0.047095471213981006,0.0,0.0,-0.07439318812528602,-0.11688293839544787,-0.07838304379230412,-0.4538516106691665,-0.13506287433966788,-0.03268277207678847
4645,8.0,300.36327,910.8789400000001,0.0,0.0,0.0,-0.047105612357653266,0.0,0.0,-0.06045061242351094,-0.09557098559712192,-0.12086285306573488,-0.49119494310466655,-0.14493410880138288,-0.00965055598666072
4646,8.0,300.59897,726.62494,0.0,0.0,0.0,-0.047115753501325526,0.0,0.0,-0.026564885510000073,-0.097959267758577,-0.0963516846666709,-0.43550409329090756,-0.07743014894776072,-0.050307873544500545
4647,8.0,301.68674,1115.6359,0.0,0.0,0.0,-0.047125894644997786,0.0,0.0,-0.06575827887908683,-0.12550179573356288,-0.14786537041317588,-0.4568739533324485,-0.08027808492433013,-0.012410828300353387
4648,8.0,300.71213,1250.9167,0.0,0.0,0.0,-0.04713603578867005,0.0,0.0,-0.0900245305434794,-0.15170251814437286,-0.13852040792089987,-0.45249229513001255,-0.15967632020382583,-0.033470787825309566
4649,8.0,299.345,998.9408,0.0,0.0,0.0,-0.04714617693234231,0.0,0.0,-0.09191383566668931,-0.11785716823409688,-0.09388205878718782,-0.45939275122603457,-0.14895031809025186,-0.02058358910969208
4650,8.0,300.31998,967.2107,0.0,0.0,0.0,-0.047156318076014565,0.0,0.0,-0.1026252125283199,-0.09156091964360921,-0.09982176532389121,-0.4295241749107356,-0.11279852724234789,-0.007963732278634181
4651,8.0,299.44029,1005.6079,0.0,0.0,0.0,-0.04716645921968683,0.0,0.0,-0.09002046031782772,-0.0914885675069686,-0.12417065867968989,-0.4369040401590715,-0.06314940001186053,0.031404380770121074
4652,8.0,299.22012,840.7878800000001,0.0,0.0,0.0,-0.04717660036335909,0.0,0.0,-0.06699767525565573,-0.09053324390193551,-0.0980476018890449,-0.45779298130564955,-0.12453062591021588,0.006945800355222123
4653,8.0,299.73591,904.0318599999999,0.0,0.0,0.0,-0.04718674150703136,0.0,0.0,-0.06968175247905353,-0.07767559155923402,-0.12744576671291788,-0.48372932650036754,-0.09644831224920732,-0.009502405345814391
4654,8.0,299.29857000000004,1085.4032,0.0,0.0,0.0,-0.04719688265070362,0.0,0.0,-0.07225485044549852,-0.12985565035325486,-0.12782496543034189,-0.43588150868815556,-0.10051067001388081,-0.01969539332378398
4655,8.0,299.95107,982.32945,0.0,0.0,0.0,-0.04720702379437588,0.0,0.0,-0.09175604222861632,-0.1126541897656029,-0.0941933971056645,-0.46256197462381254,-0.08304292426019852,-0.04562775644560896
4656,8.0,301.43888,885.23581,0.0,0.0,0.0,-0.04721716493804814,0.0,0.0,-0.061427323711654845,-0.1076083765201199,-0.10005388167004932,-0.4459359894304556,-0.14621806893059985,-0.03342440224898167
4657,8.0,301.16751,1101.6760000000002,0.0,0.0,0.0,-0.0472273060817204,0.0,0.0,-0.1020571541247569,-0.1194127705826229,-0.1134120603103989,-0.4684339210733286,-0.10905963437334791,-0.014862296738044485
4658,8.0,301.76378,1173.5619,0.0,0.0,0.0,-0.04723744722539266,0.0,0.0,-0.09592294105910722,-0.09882896362415931,-0.16198161616884085,-0.4163144637545386,-0.06368447813791864,0.0038630704177803664
4659,8.0,300.14243999999997,899.7845800000001,0.0,0.0,0.0,-0.04724758836906492,0.0,0.0,-0.05030151945312345,-0.11600633520393389,-0.10720419105522991,-0.44954903663703555,-0.06610383262694033,-0.03021318571405927
4660,8.0,300.45785,979.845,0.0,0.0,0.0,-0.047257729512737184,0.0,0.0,-0.07265147301164214,-0.1173322134897879,-0.10786471866291888,-0.4396356408386596,-0.13804550773153088,-0.04724487726070636
4661,8.0,299.223,1086.0551,0.0,0.0,0.0,-0.047267870656409444,0.0,0.0,-0.11048826635184289,-0.12357016614042589,-0.0960752051913845,-0.47682633727909557,-0.14243567723480688,-0.008734685604746351
4662,8.0,298.61347,958.47815,0.0,0.0,0.0,-0.047278011800081704,0.0,0.0,-0.09289850806086891,-0.12138547733481388,-0.07706944001816152,-0.4175807730670136,-0.13475922354969988,-0.04165090077737386
4663,8.0,298.88576,971.37179,0.0,0.0,0.0,-0.047288152943753964,0.0,0.0,-0.09160904395710871,-0.07574658324410573,-0.1279171407919389,-0.4663245268826475,-0.09005502227873873,0.031711059151387874
4664,8.0,300.46035,960.09454,0.0,0.0,0.0,-0.047298294087426224,0.0,0.0,-0.052374136718174855,-0.11819923133535588,-0.12127140563855589,-0.4622415342796875,-0.13813472440283586,-0.017510490722400882
4665,8.0,300.08173,688.07104,0.0,0.0,0.0,-0.047308435231098483,0.0,0.0,-0.021924029825983276,-0.08138347897517402,-0.1058489082514739,-0.4728719565113285,-0.08890538466227832,-0.02280963878438608
4666,8.0,300.27558999999997,917.9577099999999,0.0,0.0,0.0,-0.04731857637477074,0.0,0.0,-0.06491397202126024,-0.1037787471046649,-0.1103435033100559,-0.4417812485879146,-0.08611963285759601,-0.05093015197416465
4667,8.0,300.37358,1289.0077,0.0,0.0,0.0,-0.047328717518443,0.0,0.0,-0.13520478001617287,-0.12874407446355088,-0.1278773099305079,-0.4370409201150806,-0.06662078877495994,-0.02865758133903307
4668,8.0,299.76081,1000.5914,0.0,0.0,0.0,-0.04733885866211528,0.0,0.0,-0.1020331704948899,-0.1010933252983844,-0.10102830807921771,-0.4631052489299295,-0.14668001978369086,-0.017241330965836882
4669,8.0,298.77196000000004,769.09154,0.0,0.0,0.0,-0.04734899980578753,0.0,0.0,-0.07922902757904622,-0.08463336214716252,-0.06992223421803723,-0.47619237708902856,-0.12119847189635789,0.004614041742645465
4670,8.0,299.98896,1016.0126,0.0,0.0,0.0,-0.04735914094945979,0.0,0.0,-0.08356958835742621,-0.08595745002008982,-0.13931542421436188,-0.44082564228610355,-0.11401339384724589,0.02068802783724938
4671,8.0,299.9554,955.0147300000001,0.0,0.0,0.0,-0.04736928209313205,0.0,0.0,-0.06267967145100194,-0.08282286761673063,-0.14479809010795888,-0.4484972323707305,-0.09368327836931971,0.013273459786238487
4672,8.0,300.48766,876.86591,0.0,0.0,0.0,-0.04737942323680431,0.0,0.0,-0.04284610627733146,-0.11939893971875788,-0.10430029732863791,-0.4767967503761755,-0.1356117417863369,-0.025233736297125876
4673,8.0,300.79735,997.9489800000001,0.0,0.0,0.0,-0.04738956438047658,0.0,0.0,-0.07234448254934453,-0.11424755594535588,-0.1167595346657689,-0.4811213322004785,-0.1204174789842799,-0.02257530544700918
4674,8.0,300.09862000000004,925.1966199999999,0.0,0.0,0.0,-0.04739970552414884,0.0,0.0,-0.09288069107111051,-0.09750111861986122,-0.0908548606294266,-0.4199826925615646,-0.09648879564370272,-0.031330893793368474
4675,8.0,300.08836,981.9097199999999,0.0,0.0,0.0,-0.0474098466678211,0.0,0.0,-0.09375548257144573,-0.1027420909273549,-0.10197846512199091,-0.4326558269948056,-0.10415307208910791,-0.011175345095670688
4676,8.0,300.78571,967.04676,0.0,0.0,0.0,-0.04741998781149336,0.0,0.0,-0.07396432495421053,-0.09031623207501811,-0.12967751085317386,-0.44508218436619157,-0.14007057924888985,-0.025722322455595577
4677,8.0,299.45108999999997,961.44022,0.0,0.0,0.0,-0.04743012895516562,0.0,0.0,-0.045343762707580955,-0.12082871666986587,-0.12608134439325988,-0.47923558257186955,-0.1035724797818079,-0.01095775064994579
4678,8.0,298.76322000000005,742.93786,0.0,0.0,0.0,-0.04744027009883789,0.0,0.0,-0.04560319931618536,-0.0946930317432246,-0.08553832924872581,-0.4678518088908786,-0.07427672414554193,-0.044039781769638055
4679,8.0,298.75777999999997,912.11239,0.0,0.0,0.0,-0.04745041124251015,0.0,0.0,-0.11223951716217788,-0.09195350339485421,-0.07306636954333923,-0.46790453842608254,-0.07943192584532072,-0.01924315852590188
4680,8.0,299.82807,1281.5731,0.0,0.0,0.0,-0.04746055238618241,0.0,0.0,-0.14311652050700086,-0.13915490513351988,-0.10729479587917191,-0.4679904822995646,-0.1138082309669979,-0.03128186566077977
4681,8.0,299.92467999999997,1034.6551,0.0,0.0,0.0,-0.04747069352985467,0.0,0.0,-0.11758171619441189,-0.08843178852578801,-0.10849580122270189,-0.47287860343198457,-0.11616609434720089,0.00913997774139557
4682,8.0,299.57769,866.70663,0.0,0.0,0.0,-0.04748083467352693,0.0,0.0,-0.025809749727223975,-0.13109422701049286,-0.1065531981309819,-0.4392503322231326,-0.12428766880123789,-0.029947919877629573
4683,8.0,300.39465,995.88049,0.0,0.0,0.0,-0.047490975817199195,0.0,0.0,-0.05870517564224974,-0.1042009278913309,-0.13981669930383386,-0.4275874993321006,-0.13071432915049988,0.007726986899394233
4684,8.0,300.15986000000004,1006.9218,0.0,0.0,0.0,-0.047501116960871455,0.0,0.0,-0.04465365326322246,-0.12329198845797187,-0.13813343757520888,-0.4331737801809236,-0.1383153868956659,-0.02123089785657648
4685,8.0,300.18344,1046.1954,0.0,0.0,0.0,-0.047511258104543715,0.0,0.0,-0.0989000917546791,-0.12073483904810088,-0.09838236249683321,-0.45962787591173954,-0.12253910310366789,-0.014979485191610088
4686,8.0,300.43237999999997,1092.8824,0.0,0.0,0.0,-0.047521399248215974,0.0,0.0,-0.10468931443953089,-0.1084606211792299,-0.11905901457520988,-0.4581956772928926,-0.07485961247756852,-0.008598242764830493
4687,8.0,300.30400000000003,843.8892099999999,0.0,0.0,0.0,-0.047531540391888234,0.0,0.0,-0.09800940337352501,-0.06701883698399425,-0.0914930085821569,-0.46378171496169157,-0.08335150957815352,0.0013296432192505688
4688,8.0,300.07836000000003,912.2905099999999,0.0,0.0,0.0,-0.0475416815355605,0.0,0.0,-0.05630291062941465,-0.09363086294164671,-0.12737976360140388,-0.44516768240962956,-0.11905837622764688,-0.0066695973958880135
4689,8.0,299.66546,1214.2298,0.0,0.0,0.0,-0.04755182267923276,0.0,0.0,-0.0937355661274801,-0.12266148345074587,-0.15269849233016786,-0.4717092621540795,-0.1052346659083529,-0.007898714046217382
4690,8.0,299.14062,1204.7121,0.0,0.0,0.0,-0.04756196382290502,0.0,0.0,-0.0916647413018556,-0.13045811873021387,-0.14407954379954388,-0.4617517595788506,-0.06494778620359744,-0.00979054996420205
4691,8.0,299.78132,999.38729,0.0,0.0,0.0,-0.04757210496657728,0.0,0.0,-0.09103166669237601,-0.12283821453318788,-0.08991890226030473,-0.48186954647182156,-0.08759798501849801,-0.022803440733524378
4692,8.0,299.95198,924.5364900000001,0.0,0.0,0.0,-0.04758224611024954,0.0,0.0,-0.09207063510641422,-0.09601871852480971,-0.09294665263937041,-0.46091477446624657,-0.09739758979089372,-0.025045383236036875
4693,8.0,299.99104,1016.3325,0.0,0.0,0.0,-0.04759238725392181,0.0,0.0,-0.1044266496161079,-0.1069039346530969,-0.0976091108155192,-0.4370802240864596,-0.1329810810817109,-0.03330643156633887
4694,8.0,300.14859,848.87334,0.0,0.0,0.0,-0.04760252839759407,0.0,0.0,-0.03061865395357587,-0.09361254945933932,-0.13380509659303488,-0.4271856443424406,-0.1149915550962829,-0.016242629110772684
4695,8.0,300.00009,692.04602,0.0,0.0,0.0,-0.04761266954126633,0.0,0.0,-0.018514634743752183,-0.11099761704461189,-0.08085245688926622,-0.4488907685770696,-0.14146962432446486,-0.03183311323193368
4696,8.0,300.94716,773.2643,0.0,0.0,0.0,-0.04762281068493859,0.0,0.0,-0.02922571269660327,-0.09856016357138081,-0.10726716454894492,-0.45994390861792955,-0.13611560066356385,-0.022314093624229578
4697,8.0,300.92071,813.42081,0.0,0.0,0.0,-0.047632951828610846,0.0,0.0,-0.0978504538170879,-0.07800972597846052,-0.07139943532682563,-0.4384714671362646,-0.11412585447584489,-0.02037305499066398
4698,8.0,299.93964,991.9823,0.0,0.0,0.0,-0.04764309297228311,0.0,0.0,-0.092869469326253,-0.11080458276806089,-0.09786379122815421,-0.45692158621964957,-0.06252042399903544,-0.027371489331605676
4699,8.0,300.38051,1106.2321,0.0,0.0,0.0,-0.04765323411595537,0.0,0.0,-0.13107168219576787,-0.08449731710923591,-0.12069792634695788,-0.4480186135534946,-0.08349188018075701,-0.01673853600121488
4700,8.0,300.90136,1031.3789,0.0,0.0,0.0,-0.04766337525962763,0.0,0.0,-0.054844316845462655,-0.11853023987802389,-0.14013888243813089,-0.5020462639906086,-0.11053490625394591,-0.03287249910501307
4701,8.0,299.77341,924.5581400000001,0.0,0.0,0.0,-0.04767351640329989,0.0,0.0,-0.08580975564576351,-0.09104133208507992,-0.10419150466540089,-0.4459884251231306,-0.12347377565841289,-0.028901120053568475
4702,8.0,299.82133999999996,1105.6854,0.0,0.0,0.0,-0.04768365754697215,0.0,0.0,-0.08813757109425101,-0.11600000239080888,-0.13196318016375186,-0.4818462721170246,-0.0924302213549026,-0.02067878294333698
4703,8.0,300.01043,1032.4139,0.0,0.0,0.0,-0.04769379869064442,0.0,0.0,-0.09966005060793122,-0.11208557407448488,-0.1020824245822509,-0.4443488142088136,-0.10454599021288591,-0.0007480606018328333
4704,8.0,299.64961,760.22767,0.0,0.0,0.0,-0.04770393983431668,0.0,0.0,-0.03862796232303307,-0.0960027679417355,-0.0964594985303113,-0.5001334200543255,-0.11233677903927689,0.0007466741413235002
4705,8.0,299.3023,822.62793,0.0,0.0,0.0,-0.04771408097798894,0.0,0.0,-0.06110115850446485,-0.08418205953937241,-0.10477513672300089,-0.42130576414464166,-0.10818515900704391,0.005397724833738965
4706,8.0,300.08031,1068.3919,0.0,0.0,0.0,-0.0477242221216612,0.0,0.0,-0.05288221882181865,-0.12272092070161189,-0.14916131729107587,-0.43538411434656654,-0.09906060374277041,-0.016915327878662883
4707,8.0,300.7379,1212.0608,0.0,0.0,0.0,-0.04773436326533346,0.0,0.0,-0.1048626410016369,-0.13125490821135088,-0.13231865869633486,-0.41217850856885163,-0.14496034184647189,-0.0076633588461146335
4708,8.0,300.10357999999997,1222.2881,0.0,0.0,0.0,-0.047744504409005725,0.0,0.0,-0.1264186046890449,-0.13510996007181486,-0.11001649710528288,-0.4692080340172275,-0.13194101025156388,-0.03223870103496207
4709,8.0,299.99271,1195.0548,0.0,0.0,0.0,-0.047754645552677985,0.0,0.0,-0.15116818070413787,-0.09249422836371961,-0.1196044065740359,-0.4427938198103476,-0.12824313374661186,-0.01038335031400689
4710,8.0,300.03559,1002.3146,0.0,0.0,0.0,-0.047764786696350245,0.0,0.0,-0.09580186476490792,-0.08618002560330633,-0.12269671415672288,-0.45578026130700955,-0.07091113186513383,0.002365243083331318
4711,8.0,300.58923,863.51991,0.0,0.0,0.0,-0.047774927840022505,0.0,0.0,-0.05037267190164565,-0.10878121351086989,-0.1033346091883319,-0.4581158027875096,-0.1053879098534769,-0.01832857162788918
4712,8.0,300.1728,937.5781800000001,0.0,0.0,0.0,-0.047785068983694765,0.0,0.0,-0.04370601718669805,-0.1018268829070309,-0.13946745225936585,-0.4673615376974926,-0.09132277749910642,-0.03787460479418246
4713,8.0,300.26602,947.13587,0.0,0.0,0.0,-0.047795210127367024,0.0,0.0,-0.06973330765739164,-0.1187616965983669,-0.09941065024156731,-0.46493023395004157,-0.1070671388467039,-0.05079199025677915
4714,8.0,299.01535,710.85108,0.0,0.0,0.0,-0.047805351271039284,0.0,0.0,-0.043868509065484756,-0.09132268124034691,-0.08088978806270053,-0.45658911859683754,-0.08010689125368463,-0.04838158884564105
4715,8.0,300.00315,871.4290199999999,0.0,0.0,0.0,-0.047815492414711544,0.0,0.0,-0.0882586899449545,-0.09807990734198321,-0.07855406419718251,-0.4629299161326256,-0.13214690267188386,-0.012215483813574388
4716,8.0,298.95512,985.26755,0.0,0.0,0.0,-0.04782563355838381,0.0,0.0,-0.08169462072313133,-0.09738777849017541,-0.12041433790896988,-0.4729088590799705,-0.10045089839048181,-0.005376463097615595
4717,8.0,298.48489,996.00115,0.0,0.0,0.0,-0.04783577470205607,0.0,0.0,-0.06856285991037743,-0.08269459927332153,-0.15150201621458484,-0.4592706444564836,-0.09652894061266472,0.0028904341175636375
4718,8.0,298.40184,1037.1643,0.0,0.0,0.0,-0.04784591584572833,0.0,0.0,-0.06303204538527854,-0.09343667659973201,-0.15880333431516885,-0.47007738233802554,-0.07974569697728752,-0.00854916690816208
4719,8.0,300.7469,1091.5505,0.0,0.0,0.0,-0.04785605698940059,0.0,0.0,-0.10602895266174289,-0.1015729725644719,-0.12420217075779988,-0.4608981976946106,-0.12277240393919288,0.003908583687097176
4720,8.0,300.49343,1013.8415,0.0,0.0,0.0,-0.04786619813307285,0.0,0.0,-0.0967888372368145,-0.10308257335845791,-0.1083110958619729,-0.4631605318553855,-0.1188418953437819,-0.02725769222612477
4721,8.0,300.19658,1012.1624,0.0,0.0,0.0,-0.04787633927674511,0.0,0.0,-0.13794068700868586,-0.09265329951016872,-0.07707810431976662,-0.44027550827680956,-0.12421430949399788,-0.015045014102077287
4722,8.0,300.1424,1047.7765,0.0,0.0,0.0,-0.04788648042041737,0.0,0.0,-0.08248738760137134,-0.09944234875769571,-0.13656815868822786,-0.45318617893099356,-0.09871793573120172,-0.012220627071081989
4723,8.0,300.89002999999997,956.98924,0.0,0.0,0.0,-0.047896621564089636,0.0,0.0,-0.04297572123012346,-0.11469973906748289,-0.13322537568082088,-0.4534338577854376,-0.13480491099670888,-0.03422821760631207
4724,8.0,300.11739,910.7560900000001,0.0,0.0,0.0,-0.047906762707761896,0.0,0.0,-0.018279556667551784,-0.12350092062859189,-0.13506663349753886,-0.45642164862030954,-0.0981745297025717,-0.026091387658769477
4725,8.0,299.63412999999997,946.05479,0.0,0.0,0.0,-0.047916903851434156,0.0,0.0,-0.07822463733792062,-0.1052124149361569,-0.1041399808978159,-0.4386679464631556,-0.10049164117700281,-0.037359232356069166
4726,8.0,299.02995,917.4740400000001,0.0,0.0,0.0,-0.047927044995106416,0.0,0.0,-0.0943519109645586,-0.09868449037190091,-0.08585279648351132,-0.45449806423296657,-0.08492567365526142,-0.015577880303167086
4727,8.0,299.36036,757.92957,0.0,0.0,0.0,-0.047937186138778676,0.0,0.0,-0.07778602264788272,-0.07427423661654642,-0.07833140451420773,-0.45946855246601553,-0.14230194848660888,-0.007561524171314333
4728,8.0,300.45326,969.1986400000001,0.0,0.0,0.0,-0.04794732728245095,0.0,0.0,-0.05533256964464945,-0.0928901082175399,-0.1463895108475199,-0.45924767407671657,-0.1203417689368079,0.001171740248841759
4729,8.0,300.86622,1167.4868,0.0,0.0,0.0,-0.04795746842612321,0.0,0.0,-0.06149391146847654,-0.13110573753162888,-0.16228718200149783,-0.4325279548321856,-0.11844814635492187,0.007643070640687343
4730,8.0,299.93914,1102.3606,0.0,0.0,0.0,-0.04796760956979546,0.0,0.0,-0.07685145749764832,-0.1075636617932069,-0.15067498121796286,-0.4494358262033626,-0.09162839703401872,-0.01001035795609541
4731,8.0,301.27132,1309.6381,0.0,0.0,0.0,-0.04797775071346772,0.0,0.0,-0.14580440957727486,-0.13454013861307787,-0.11775274267879089,-0.45083732334417953,-0.11916238635041188,-0.029006840542502268
4732,8.0,301.00298,1200.629,0.0,0.0,0.0,-0.04798789185713998,0.0,0.0,-0.15216821802283387,-0.11339737831644989,-0.09939565008708691,-0.4863284548618815,-0.11901448223331489,-0.026644811691138175
4733,8.0,299.89403,886.4091599999999,0.0,0.0,0.0,-0.047998033000812255,0.0,0.0,-0.0984700927302415,-0.1121654080498639,-0.05881075224966935,-0.4437949109091475,-0.11429638446767489,-0.024595825444918975
4734,8.0,299.1964,743.93563,0.0,0.0,0.0,-0.048008174144484515,0.0,0.0,-0.02839059500393357,-0.08872984921495432,-0.1090174122416809,-0.47440846922797053,-0.12354518952546088,-0.028999012172229673
4735,8.0,298.89064,726.69984,0.0,0.0,0.0,-0.048018315288156775,0.0,0.0,-0.025564702283289678,-0.07770849786948163,-0.11762540753872389,-0.4499553093971316,-0.11495087310476788,-0.00016532526043883285
4736,8.0,298.07831,749.66582,0.0,0.0,0.0,-0.048028456431829035,0.0,0.0,-0.018560803484558682,-0.10630554967404089,-0.1030133379791249,-0.48461397489767555,-0.11621206550423789,-0.008493727030265592
4737,8.0,299.94206,875.62851,0.0,0.0,0.0,-0.048038597575501295,0.0,0.0,-0.08744197591385111,-0.08152041668643872,-0.09720681100906531,-0.4399586548380386,-0.0885867813405846,-0.0006796499371537263
4738,8.0,300.41067000000004,1176.3019,0.0,0.0,0.0,-0.04804873871917356,0.0,0.0,-0.13665634184443087,-0.12808160141566988,-0.09282844992245472,-0.4758860513187966,-0.07545127758196134,-0.003846630840207906
4739,8.0,300.83112,1234.9305,0.0,0.0,0.0,-0.04805887986284582,0.0,0.0,-0.14526006122605187,-0.1072464435843999,-0.12288153097496289,-0.4599393388599786,-0.09112888601297083,-0.016161320856498185
4740,8.0,301.3521,1319.5527,0.0,0.0,0.0,-0.04806902100651808,0.0,0.0,-0.08170594379299882,-0.14696869473718085,-0.17243641176064883,-0.4708961086838276,-0.11579917622098888,-0.020975959065165983
4741,8.0,300.07193,1143.0528,0.0,0.0,0.0,-0.04807916215019034,0.0,0.0,-0.06422830770509044,-0.14451333643235587,-0.13871787010038789,-0.4601452819428035,-0.10945729450759388,-0.03184627535073267
4742,8.0,299.03076,942.5387900000001,0.0,0.0,0.0,-0.0480893032938626,0.0,0.0,-0.07576088425601712,-0.09156006750027511,-0.11918730217037089,-0.42478886202589666,-0.1216758038859669,-0.032661183770157864
4743,8.0,299.24345,751.1682599999999,0.0,0.0,0.0,-0.04809944443753487,0.0,0.0,-0.07217107188748023,-0.0953322355025591,-0.060833086978508234,-0.44400771369514963,-0.12572933117601887,-0.023899098464157376
4744,8.0,299.41322,642.53336,0.0,0.0,0.0,-0.04810958558120713,0.0,0.0,-0.0895015769681179,-0.06463606892958335,-0.04117645148429936,-0.4618301648715886,-0.1223524827002499,-0.01988762611950588
4745,8.0,300.95578,830.6633400000001,0.0,0.0,0.0,-0.04811972672487939,0.0,0.0,-0.06634865006310194,-0.08950680432538381,-0.09664546032116432,-0.45213391870214353,-0.0950939069200379,-0.013119804461573886
4746,8.0,299.97695,951.2044900000001,0.0,0.0,0.0,-0.04812986786855165,0.0,0.0,-0.02340670552506198,-0.12424901330992287,-0.14148668745614887,-0.47265839378775154,-0.09630728810028931,-0.0099378598101154
4747,8.0,300.96732000000003,1186.047,0.0,0.0,0.0,-0.04814000901222391,0.0,0.0,-0.04541684235779336,-0.14363796940596385,-0.17147386469565284,-0.46753546207715757,-0.11114455857411389,-0.01019746856991179
4748,8.0,301.55362,1360.5786,0.0,0.0,0.0,-0.048150150155896174,0.0,0.0,-0.10432614533868889,-0.13405436625013586,-0.17520140916353283,-0.45607584662618156,-0.1281899786463659,0.02317233976368188
4749,8.0,300.33381,1221.3765,0.0,0.0,0.0,-0.04816029129956843,0.0,0.0,-0.14328054543318886,-0.12861808694611687,-0.09936933395548972,-0.4694334213694715,-0.08135252519786912,-0.008215371421094032
4750,8.0,300.08536000000004,1008.2471,0.0,0.0,0.0,-0.04817043244324069,0.0,0.0,-0.14220225480926987,-0.07331913187353493,-0.09096056895935922,-0.4627847173932956,-0.09236965027717473,0.011286042669095688
4751,8.0,300.6201,1039.829,0.0,0.0,0.0,-0.04818057358691295,0.0,0.0,-0.09475260780935431,-0.11641023695879589,-0.1049192107547199,-0.4773362756569225,-0.09060105363837782,-0.019040730407673782
4752,8.0,298.98771,841.77901,0.0,0.0,0.0,-0.04819071473058521,0.0,0.0,-0.04311763805237955,-0.08338553856951192,-0.12937662623597887,-0.45961990163345257,-0.1102943809452079,-0.012814993500241387
4753,8.0,300.1141,749.3231099999999,0.0,0.0,0.0,-0.04820085587425748,0.0,0.0,-0.03576304630128786,-0.07996205728439063,-0.1120504142960149,-0.46127345486914556,-0.1004309404032621,-0.014974459471114088
4754,8.0,299.54735,867.35181,0.0,0.0,0.0,-0.04821099701792974,0.0,0.0,-0.047490388773186454,-0.1011669987131554,-0.11499590193921189,-0.4626208545871236,-0.13611370588587687,-0.02465617056787458
4755,8.0,300.18917000000005,862.22111,0.0,0.0,0.0,-0.048221138161602,0.0,0.0,-0.08484760172180633,-0.0910780674674554,-0.08616801960287142,-0.5005465930476025,-0.14175378018250887,-0.008480825519392311
4756,8.0,301.38837,979.9726300000001,0.0,0.0,0.0,-0.04823127930527426,0.0,0.0,-0.11589437106788388,-0.09022085281660491,-0.0917719826791895,-0.44621499797799163,-0.13032450143952687,-0.03203234454609626
4757,8.0,301.22167,1141.9444,0.0,0.0,0.0,-0.04824142044894652,0.0,0.0,-0.08038742271612093,-0.12111549684566889,-0.14561965355404086,-0.4551146573163196,-0.08475423883109212,-0.028450028201799173
4758,8.0,300.62766,1085.1207,0.0,0.0,0.0,-0.048251561592618786,0.0,0.0,-0.04162395744396476,-0.11839726093489988,-0.16982836679825483,-0.4355922156521046,-0.09611966457927232,-0.04219209994728606
4759,8.0,302.32059,980.6357300000001,0.0,0.0,0.0,-0.048261702736291046,0.0,0.0,-0.052542129531754446,-0.12480723305501489,-0.12073940880605188,-0.4718515528656225,-0.10597553411647088,-0.014867201881778588
4760,8.0,302.35625,835.20367,0.0,0.0,0.0,-0.048271843879963305,0.0,0.0,-0.08834169640639661,-0.06495384543919544,-0.10058551981201791,-0.4462988241587646,-0.11741360787032087,-0.013538956643690987
4761,8.0,302.5026,947.7977400000001,0.0,0.0,0.0,-0.048281985023635565,0.0,0.0,-0.12432502733242488,-0.07720586097187523,-0.08657595307988132,-0.46217151869777756,-0.08452808951477292,0.0033540116423651767
4762,8.0,299.98906,1048.1628,0.0,0.0,0.0,-0.048292126167307825,0.0,0.0,-0.11190323971898988,-0.1047647205119729,-0.1019473786089229,-0.46537951917688253,-0.12841002617058286,-0.011323828791824888
4763,8.0,299.6364,1097.3809,0.0,0.0,0.0,-0.04830226731098009,0.0,0.0,-0.058137468836471445,-0.10725321209506791,-0.16818570600113686,-0.4871864446490585,-0.12738491091191187,-0.038715648986687064
4764,8.0,300.532,1171.7303,0.0,0.0,0.0,-0.04831240845465235,0.0,0.0,-0.05683919452309174,-0.13916119741664087,-0.16017634899567487,-0.46061069811123656,-0.13963055512796285,-0.016586568751216883
4765,8.0,301.12172000000004,1054.0276,0.0,0.0,0.0,-0.04832254959832461,0.0,0.0,-0.08108333099080173,-0.0970715755579686,-0.14224315971580687,-0.4596339554123396,-0.0883386515898461,-0.03105449132508967
4766,8.0,299.98192,985.6415699999999,0.0,0.0,0.0,-0.04833269074199687,0.0,0.0,-0.0904894856831169,-0.08554469144610373,-0.12357624564102587,-0.4637748856560176,-0.13205096815241588,-0.00972555615111266
4767,8.0,300.68129,979.5138300000001,0.0,0.0,0.0,-0.04834283188566913,0.0,0.0,-0.11991095525928987,-0.09915876639920831,-0.07867802116141613,-0.48665519762162857,-0.0961673501554785,-0.003114732428600157
4768,8.0,300.25502,966.3588199999999,0.0,0.0,0.0,-0.04835297302934139,0.0,0.0,-0.0998252843414885,-0.09424413661767211,-0.09967952932785361,-0.4497826718450936,-0.1030339981486639,0.0006698787003443803
4769,8.0,299.23035,916.98005,0.0,0.0,0.0,-0.04836311417301365,0.0,0.0,-0.06395023337414664,-0.09913931909003901,-0.11564948878371588,-0.4599359647371456,-0.06533979645528584,-0.015287494983508286
4770,8.0,299.70853999999997,982.64138,0.0,0.0,0.0,-0.04837325531668591,0.0,0.0,-0.05450481929345685,-0.10885596097074689,-0.13533765763428687,-0.44622003383098857,-0.11071918604963288,-0.028000075243142273
4771,8.0,299.96356000000003,1067.2035,0.0,0.0,0.0,-0.04838339646035817,0.0,0.0,-0.07989028877980762,-0.10905261255015489,-0.13546031155889188,-0.4903271957190265,-0.1009059500236419,-0.04415674122868105
4772,8.0,300.09799,1069.486,0.0,0.0,0.0,-0.04839353760403044,0.0,0.0,-0.09498155065619922,-0.1141144452797189,-0.1160010561709129,-0.47558983778456254,-0.13180925734106086,-0.04075224926368386
4773,8.0,299.76883,921.8726300000001,0.0,0.0,0.0,-0.0484036787477027,0.0,0.0,-0.11883463034056488,-0.08904335994164542,-0.07234827109146842,-0.4751668058678125,-0.09757451339085471,-0.017421298369098285
4774,8.0,300.53702000000004,864.66354,0.0,0.0,0.0,-0.04841381989137496,0.0,0.0,-0.06717984850438484,-0.09627201382455801,-0.09938426419571321,-0.4542894259048756,-0.12309225659825988,-0.015408291620679984
4775,8.0,299.84716000000003,799.47249,0.0,0.0,0.0,-0.04842396103504722,0.0,0.0,-0.005701552131874385,-0.11841543864169389,-0.11890269034978189,-0.4713319075518375,-0.11537376316650388,-0.03559088902979726
4776,8.0,300.47061,826.04111,0.0,0.0,0.0,-0.048434102178719476,0.0,0.0,-0.02358837113549098,-0.1178004768910019,-0.10970702012723989,-0.4717099511641475,-0.1273392741274079,-0.014207299449401288
4777,8.0,300.32069,1015.429,0.0,0.0,0.0,-0.048444243322391736,0.0,0.0,-0.06306733182001104,-0.12014971751285389,-0.12544801241825487,-0.44941673657147857,-0.08077131278150793,-0.017372238825756482
4778,8.0,299.77065,1001.5823,0.0,0.0,0.0,-0.048454384466064,0.0,0.0,-0.14251601783523588,-0.09134071202587642,-0.07059927172285564,-0.46553701877242654,-0.10698848024144089,-0.018800227390437983
4779,8.0,299.45673,1019.1789,0.0,0.0,0.0,-0.04846452560973626,0.0,0.0,-0.1289629263526499,-0.11082056172213789,-0.07002145977383004,-0.4667967824892555,-0.08969292924950291,-0.008198421874746243
4780,8.0,300.53074,1211.6584,0.0,0.0,0.0,-0.04847466675340852,0.0,0.0,-0.10127918779072759,-0.13774254595163088,-0.12929216170764288,-0.47549782454298156,-0.11764153848031589,-0.003779256092033536
4781,8.0,300.04276,1233.4405,0.0,0.0,0.0,-0.04848480789708078,0.0,0.0,-0.07849192055529942,-0.13108070012165787,-0.16536250751250883,-0.4533610557657526,-0.08333072781860253,-0.004940327729247385
4782,8.0,298.84226,1038.0616,0.0,0.0,0.0,-0.04849494904075304,0.0,0.0,-0.06446474961592544,-0.1106907441193259,-0.14038932746534785,-0.4747879212579196,-0.14381676751860986,-0.009307895473142761
4783,8.0,300.17565,984.25421,0.0,0.0,0.0,-0.04850509018442531,0.0,0.0,-0.07537172022385963,-0.09389441942515772,-0.12992256538985886,-0.4787343074823976,-0.12216456533670388,-0.02599363030237158
4784,8.0,299.14992,827.63905,0.0,0.0,0.0,-0.04851523132809757,0.0,0.0,-0.09146653235704391,-0.0904740457780931,-0.06964102691778423,-0.4740619174287686,-0.12363314976664187,-0.0029440426472293873
4785,8.0,299.89972,929.4490400000001,0.0,0.0,0.0,-0.04852537247176983,0.0,0.0,-0.09340732983708572,-0.10192027416874791,-0.08720169783813751,-0.5096206732581445,-0.1019922250583489,-0.012389940149541886
4786,8.0,300.00816000000003,1160.9291,0.0,0.0,0.0,-0.04853551361544209,0.0,0.0,-0.08352270122229882,-0.13636820391349389,-0.13300256198383087,-0.4609792982326145,-0.11936790386819489,-0.009283669980476892
4787,8.0,300.82989,1029.7474,0.0,0.0,0.0,-0.04854565475911435,0.0,0.0,-0.04660955120950455,-0.11985263258353389,-0.14655530896138286,-0.4740695269370196,-0.11962929199649189,0.007029394299072202
4788,8.0,300.0062,931.74185,0.0,0.0,0.0,-0.04855579590278662,0.0,0.0,-0.020631105473131583,-0.13109792537335788,-0.13149722697276586,-0.4295876246319976,-0.12136917414070489,-0.021400107583526184
4789,8.0,300.14527000000004,1212.2941,0.0,0.0,0.0,-0.04856593704645888,0.0,0.0,-0.09484005129298431,-0.1285850651253579,-0.14508202305098086,-0.4550735598922635,-0.09431358072652571,0.005134301288641086
4790,8.0,299.46709,1363.3157,0.0,0.0,0.0,-0.04857607819013114,0.0,0.0,-0.15953560002993786,-0.15029207400517286,-0.10458625677185991,-0.44188178326283656,-0.097414291192292,-0.03986246267511876
4791,8.0,300.04781,1122.5041,0.0,0.0,0.0,-0.048586219333803395,0.0,0.0,-0.1136114476650769,-0.1284728172792799,-0.0991289565812663,-0.46606976541000456,-0.0912703185016791,-0.01829004684583708
4792,8.0,298.92056,776.50008,0.0,0.0,0.0,-0.048596360477475654,0.0,0.0,-0.04288999419216286,-0.10802384959112389,-0.08512278727671502,-0.45254732474294357,-0.1191766326468179,-0.057562213317448145
4793,8.0,298.85825,818.49679,0.0,0.0,0.0,-0.04860650162114793,0.0,0.0,-0.02387194133497718,-0.1091800692802339,-0.11575058074619289,-0.4712679917355295,-0.12103739552796089,-0.006713446503240583
4794,8.0,299.36309,1013.0658,0.0,0.0,0.0,-0.04861664276482019,0.0,0.0,-0.05371999832250105,-0.10083743303862981,-0.15338927558584287,-0.46956245876970654,-0.16361110471465884,-0.010634114515005389
4795,8.0,299.19237000000004,1056.5876,0.0,0.0,0.0,-0.04862678390849245,0.0,0.0,-0.08579435120449323,-0.1095219297314729,-0.1258599593789109,-0.48751762544424354,-0.12630498895533188,-0.008526407588390912
4796,8.0,300.15161,956.2052199999999,0.0,0.0,0.0,-0.04863692505216471,0.0,0.0,-0.1042249115211979,-0.09633259807453722,-0.09010500185317132,-0.44956558301116856,-0.1088889625265039,-0.0029252868812533377
4797,8.0,300.30199,1004.2339,0.0,0.0,0.0,-0.04864706619583697,0.0,0.0,-0.08789433838124583,-0.0963687447586046,-0.12099896295166788,-0.4582633826645746,-0.07700418265872112,-0.017145984131426883
4798,8.0,300.72492,1098.59,0.0,0.0,0.0,-0.048657207339509234,0.0,0.0,-0.09537566137534491,-0.1150827070752789,-0.12348554962457488,-0.4489655565669506,-0.0945316463335471,-0.01092175494014329
4799,8.0,300.14857,1122.722,0.0,0.0,0.0,-0.048667348483181494,0.0,0.0,-0.08283709972763523,-0.1123638834794519,-0.14607846333182187,-0.4744614824732026,-0.1006477201959066,-0.015257713536569087
4800,8.0,300.19022,900.8241800000001,0.0,0.0,0.0,-0.048677489626853754,0.0,0.0,-0.04905990405883555,-0.0925872133121465,-0.13218093774274287,-0.4507614511766916,-0.08704599878802123,-0.0004943165538802454
4801,8.0,300.52034,705.2146799999999,0.0,0.0,0.0,-0.048687630770526014,0.0,0.0,-0.05796490727819095,-0.07417033997779263,-0.08223240625345662,-0.47204435409465056,-0.12189505094260489,-0.012294224492095487
4802,8.0,299.07244,925.27275,0.0,0.0,0.0,-0.04869777191419827,0.0,0.0,-0.1087925720444909,-0.07653026228219882,-0.09593697963924272,-0.47373091901860154,-0.12582523529798387,-0.01202183044121229
4803,8.0,299.40483,1124.035,0.0,0.0,0.0,-0.04870791305787054,0.0,0.0,-0.11913032711724789,-0.10382719059194591,-0.11872104500435489,-0.47756499660199553,-0.1122746262781429,-0.03096203934621537
4804,8.0,300.46424,1013.0467,0.0,0.0,0.0,-0.0487180542015428,0.0,0.0,-0.06696948258487334,-0.1061926330828969,-0.13477879954163186,-0.46980935742157354,-0.10546889893396989,-0.027699449004722772
4805,8.0,299.86005,866.77853,0.0,0.0,0.0,-0.04872819534521506,0.0,0.0,-0.04564003298382056,-0.0951469019267681,-0.12269209373626688,-0.4638741537683146,-0.10842138813535791,-0.009847570410929532
4806,8.0,300.68031,1047.3458,0.0,0.0,0.0,-0.04873833648888732,0.0,0.0,-0.04942379763349905,-0.1190050894048879,-0.14993808495023686,-0.48867840475880353,-0.13346149335162386,-0.027340465640043873
4807,8.0,302.10983,1094.9544,0.0,0.0,0.0,-0.04874847763255958,0.0,0.0,-0.1086793210808139,-0.0982138640714537,-0.12594561954236488,-0.45370720226491457,-0.1188102515431589,0.011281480003895387
4808,8.0,300.77301,1056.2048,0.0,0.0,0.0,-0.048758618776231846,0.0,0.0,-0.10505856304097289,-0.1020366763402359,-0.1139646362524339,-0.48404055640108357,-0.12015839093370989,-0.021912337933079378
4809,8.0,300.85999,1124.0708,0.0,0.0,0.0,-0.048768759919904106,0.0,0.0,-0.0999391847984796,-0.12178839623707889,-0.11996188120931588,-0.44450502697673056,-0.1030932428820109,-0.017464383789850484
4810,8.0,300.27187000000004,1003.8398,0.0,0.0,0.0,-0.048778901063576366,0.0,0.0,-0.07243848784062214,-0.1093430708238209,-0.12336066654974988,-0.4873182887520705,-0.11945056481135288,-0.03990443453401107
4811,8.0,299.64639,972.17895,0.0,0.0,0.0,-0.048789042207248626,0.0,0.0,-0.07923474636261063,-0.1055164710261649,-0.11076691012934288,-0.4399955270091776,-0.10083506203339582,-0.04075376913883386
4812,8.0,300.43226,1086.6129,0.0,0.0,0.0,-0.048799183350920886,0.0,0.0,-0.07671579344175933,-0.1101503575759939,-0.14343704191113385,-0.4749390576428355,-0.1011902801607031,-0.015679595414455585
4813,8.0,299.58722,786.3111,0.0,0.0,0.0,-0.04880932449459315,0.0,0.0,-0.06749528440626594,-0.07493175081843802,-0.09659190498712882,-0.46712197497634955,-0.1105584035237649,-0.02358202413686458
4814,8.0,299.88112,810.19483,0.0,0.0,0.0,-0.04881946563826541,0.0,0.0,-0.05707406083002124,-0.09817394201751371,-0.09103099490755973,-0.49232654081634647,-0.1125647299142739,-0.02305260703911518
4815,8.0,300.84029,988.61902,0.0,0.0,0.0,-0.04882960678193767,0.0,0.0,-0.08018392257928703,-0.0972234546552079,-0.12310812409482588,-0.4665943857817806,-0.12419037652663589,-0.04598271619414075
4816,8.0,299.8904,964.38045,0.0,0.0,0.0,-0.04883974792560993,0.0,0.0,-0.08337141183661773,-0.09924110816858481,-0.11053505824146088,-0.47471127902035554,-0.08210563954669572,-0.007104625079246904
4817,8.0,301.0424,970.4822300000001,0.0,0.0,0.0,-0.04884988906928219,0.0,0.0,-0.05667345213798425,-0.12690726481477188,-0.11142165207896089,-0.4625995763350236,-0.12164928713084988,-0.015481857630940385
4818,8.0,300.44693,975.95465,0.0,0.0,0.0,-0.04886003021295446,0.0,0.0,-0.0959729155672893,-0.08798139075033723,-0.11271153972126288,-0.4883751896663785,-0.1144942316822009,-0.0018571662485880383
4819,8.0,299.74273999999997,1032.6126,0.0,0.0,0.0,-0.04887017135662672,0.0,0.0,-0.1019516443918439,-0.1295027758734289,-0.08243404302335663,-0.4681026288206325,-0.12945854750656388,-0.01897312230800138
4820,8.0,300.54323999999997,1074.3588,0.0,0.0,0.0,-0.04888031250029898,0.0,0.0,-0.1055816534050979,-0.1019494557716279,-0.11904714941653889,-0.4797270494003736,-0.11747580116145889,-0.008176417831599612
4821,8.0,301.03674,975.44786,0.0,0.0,0.0,-0.04889045364397124,0.0,0.0,-0.08013724620018042,-0.11920963420257488,-0.09716491007768001,-0.45687049814960756,-0.11881071763820489,-0.024648829570900078
4822,8.0,298.88537,838.5142900000001,0.0,0.0,0.0,-0.0489005947876435,0.0,0.0,-0.052838105965465045,-0.1016332609454219,-0.10041603650754122,-0.49131190256370955,-0.11447095732740388,-0.05463872434717224
4823,8.0,300.31212,1015.9161,0.0,0.0,0.0,-0.04891073593131576,0.0,0.0,-0.07539759559166333,-0.10257447909581291,-0.13084104620800588,-0.44877498448814257,-0.11962709324377489,-0.024172320340372273
4824,8.0,299.32235,948.37756,0.0,0.0,0.0,-0.04892087707498802,0.0,0.0,-0.05191260636387535,-0.1295414313647439,-0.1068290656032079,-0.49663092856615654,-0.08833808416979011,-0.045085201547062956
4825,8.0,299.59177999999997,1005.0342,0.0,0.0,0.0,-0.04893101821866028,0.0,0.0,-0.08832175361792842,-0.1007834977358068,-0.11640005379529089,-0.44771442574097353,-0.11436724104716789,-0.00015412542204849486
4826,8.0,299.79879,1071.0072,0.0,0.0,0.0,-0.04894115936233254,0.0,0.0,-0.06876461624378923,-0.12069659898932689,-0.13609823355684986,-0.48077013971581856,-0.1144596291912859,-0.03323465900875547
4827,8.0,300.78182999999996,996.02441,0.0,0.0,0.0,-0.0489513005060048,0.0,0.0,-0.06653183352218073,-0.12933925757229087,-0.10689546388226091,-0.46398926911217553,-0.12004823038283788,-0.014747584667723287
4828,8.0,301.13243,1088.2878,0.0,0.0,0.0,-0.048961441649677064,0.0,0.0,-0.05386003151282125,-0.12325134699646087,-0.15370094118410185,-0.4524080839142015,-0.0900525742664971,-0.003863614127784027
4829,8.0,301.9804,1129.9324,0.0,0.0,0.0,-0.04897158279334932,0.0,0.0,-0.1091941534566239,-0.0984635988103506,-0.1358134697487459,-0.4623783433081896,-0.1147565418680889,0.0038706184217502963
4830,8.0,300.60898,962.4354400000001,0.0,0.0,0.0,-0.04898172393702158,0.0,0.0,-0.1076314380923959,-0.09410681184486923,-0.090818093836298,-0.4677106327544455,-0.07919841425377493,-0.012776616652703887
4831,8.0,300.98748,927.84136,0.0,0.0,0.0,-0.04899186508069384,0.0,0.0,-0.09519508399552332,-0.09987325869397322,-0.0869722635649941,-0.4785684080435245,-0.11685281446997488,-0.011994528417267789
4832,8.0,300.25333,1050.2492,0.0,0.0,0.0,-0.0490020062243661,0.0,0.0,-0.06851752406115313,-0.12199957782292087,-0.12873243221990188,-0.4624562926383826,-0.08130659355758602,-0.023765216715194274
4833,8.0,298.80747,1068.3599,0.0,0.0,0.0,-0.04901214736803837,0.0,0.0,-0.054542636826939155,-0.12646301544092786,-0.14374908241192985,-0.45352266915670253,-0.13259785976138985,-0.022132461451053877
4834,8.0,299.47994,1010.0352,0.0,0.0,0.0,-0.04902228851171063,0.0,0.0,-0.056988384454565645,-0.09729605199837271,-0.15274105896686885,-0.45620557303648457,-0.1095737068115829,-0.028873546478597172
4835,8.0,300.07442000000003,858.6124199999999,0.0,0.0,0.0,-0.04903242965538289,0.0,0.0,-0.03175089406581927,-0.12217299557753589,-0.10707284344476689,-0.45321915008924757,-0.1329406828002239,-0.027539192355656678
4836,8.0,299.25025,769.82663,0.0,0.0,0.0,-0.04904257079905515,0.0,0.0,-0.08264689545861352,-0.06358491618309264,-0.0877762623205926,-0.4883370205351115,-0.11005171767875889,0.001027250075306689
4837,8.0,300.20195,1144.9679,0.0,0.0,0.0,-0.04905271194272741,0.0,0.0,-0.10999164208032991,-0.1070719112546749,-0.13097810854903286,-0.47073075640000855,-0.11886405512346888,0.0013922347176778687
4838,8.0,299.85565,1147.5105,0.0,0.0,0.0,-0.049062853086399676,0.0,0.0,-0.0948880215924686,-0.11984351333263389,-0.13408299056546089,-0.4938276809719976,-0.1039156777231789,-0.01963192739052038
4839,8.0,299.84144,1024.5217,0.0,0.0,0.0,-0.049072994230071935,0.0,0.0,-0.06820207802677103,-0.11244060677702389,-0.13078633070260587,-0.4707861406504745,-0.11076412369156789,-0.00989434365674569
4840,8.0,300.37282999999996,990.42673,0.0,0.0,0.0,-0.049083135373744195,0.0,0.0,-0.05743954926034215,-0.12540689472919686,-0.11821855401476289,-0.4937229818391646,-0.1080814021968039,-0.034462912673974666
4841,8.0,300.72587000000004,1052.0869,0.0,0.0,0.0,-0.049093276517416455,0.0,0.0,-0.09685750722259172,-0.099642266042176,-0.12330837271208889,-0.45999047759252554,-0.12315310226676489,-0.01043166917152559
4842,8.0,300.20236,1171.8410000000001,0.0,0.0,0.0,-0.049103417661088715,0.0,0.0,-0.1303529535023349,-0.10601254814262391,-0.11984491161777189,-0.4843566802997825,-0.09401926298322882,-0.03743367888066646
4843,8.0,300.36508,1030.099,0.0,0.0,0.0,-0.04911355880476098,0.0,0.0,-0.08755688658119191,-0.13255984261763787,-0.09300764117613951,-0.4553089176254916,-0.1088922555893289,-0.03109330690992047
4844,8.0,299.40924,749.19481,0.0,0.0,0.0,-0.04912369994843324,0.0,0.0,-0.032728446351546175,-0.09126652691980491,-0.1037415405609929,-0.4692180550607166,-0.08142739627425832,-0.03705446597774106
4845,8.0,299.37101,845.5782,0.0,0.0,0.0,-0.0491338410921055,0.0,0.0,-0.053176046152067155,-0.09308121833215101,-0.1107773972678779,-0.4529673371743955,-0.1257436686649339,-0.01194188196857199
4846,8.0,299.07327000000004,1115.9886,0.0,0.0,0.0,-0.04914398223577776,0.0,0.0,-0.08653634614672241,-0.1116841142523639,-0.14101220269932085,-0.4419858643131086,-0.11541744437831489,-0.004832817840636985
4847,8.0,300.29139,1164.1336,0.0,0.0,0.0,-0.04915412337945002,0.0,0.0,-0.1130465506018259,-0.1122638858270829,-0.12855711968759986,-0.45654545765002863,-0.13335428135854288,0.004637248108360755
4848,8.0,299.67882000000003,1093.4083,0.0,0.0,0.0,-0.049164264523122295,0.0,0.0,-0.12313166189464887,-0.1055815520800879,-0.1036556068200119,-0.4716917633248526,-0.11554092916800188,-0.0024207510516345274
4849,8.0,299.45994,1045.7682,0.0,0.0,0.0,-0.049174405666794554,0.0,0.0,-0.0876352776884285,-0.1121334704067119,-0.11811865768740387,-0.4654221466085896,-0.12045092637008088,-0.031275883432189365
4850,8.0,299.7336,1152.819,0.0,0.0,0.0,-0.049184546810466814,0.0,0.0,-0.09312776704174501,-0.13190881929588688,-0.12539161491768888,-0.4906589135367645,-0.1061228100185059,-0.017718869658466283
4851,8.0,300.30428,1211.5122,0.0,0.0,0.0,-0.049194687954139074,0.0,0.0,-0.1022161634629499,-0.12729699120073487,-0.13875629254417984,-0.4592369437581576,-0.08976584070019872,-0.037457208574488664
4852,8.0,299.89936,764.98501,0.0,0.0,0.0,-0.049204829097811334,0.0,0.0,-0.04309852714224346,-0.08870746246724492,-0.10073035175481171,-0.48842583190637656,-0.10067825550092022,-0.011577112945822091
4853,8.0,300.69524,521.39478,0.0,0.0,0.0,-0.0492149702414836,0.0,0.0,-0.042083798710347564,-0.06324045877184735,-0.05316673539689825,-0.45392992476939553,-0.1018924401885009,-0.014044143891799088
4854,8.0,299.67900000000003,694.1548,0.0,0.0,0.0,-0.04922511138515586,0.0,0.0,-0.04695475335957336,-0.06314248761967835,-0.1009084851753921,-0.4880597041152425,-0.12809279782927488,-0.007017895227662333
4855,8.0,299.15788,1005.0110000000001,0.0,0.0,0.0,-0.04923525252882812,0.0,0.0,-0.09431645531705941,-0.11216934959275289,-0.09901243281976631,-0.46960747747164955,-0.13267020581852987,-0.03969524499786566
4856,8.0,297.97319,1029.7213,0.0,0.0,0.0,-0.04924539367250038,0.0,0.0,-0.06207749387682165,-0.1142067624963299,-0.1367253036462369,-0.4809149432876095,-0.1222872293938099,-0.019893311465816983
4857,8.0,299.35554,962.1900400000001,0.0,0.0,0.0,-0.04925553481617264,0.0,0.0,-0.06354429802633395,-0.1079333562246929,-0.12100408999717388,-0.46340181710169853,-0.12953063011867788,-0.030781569370904368
4858,8.0,299.3208,998.3861099999999,0.0,0.0,0.0,-0.04926567595984491,0.0,0.0,-0.06486631582930694,-0.12185914135906088,-0.1167589875107149,-0.4539750549288496,-0.13454171928323388,-0.021441798772140776
4859,8.0,300.21058,1182.344,0.0,0.0,0.0,-0.04927581710351717,0.0,0.0,-0.14730784981065287,-0.1150232090294069,-0.097071984911009,-0.46380178744617256,-0.12499112781566388,-0.012270916700045188
4860,8.0,299.76637999999997,1173.4748,0.0,0.0,0.0,-0.049285958247189426,0.0,0.0,-0.10914122127139991,-0.12381949659253288,-0.12374632980281187,-0.4629682676489105,-0.1126841617035609,-0.019243552680190783
4861,8.0,300.59806000000003,933.12092,0.0,0.0,0.0,-0.049296099390861686,0.0,0.0,-0.06733318668176815,-0.10685049584282291,-0.10946178320553689,-0.4846628844800025,-0.09552045278813472,-0.016886322581300284
4862,8.0,299.9361,906.8794300000001,0.0,0.0,0.0,-0.049306240534533946,0.0,0.0,-0.05077974816907095,-0.1025709631179659,-0.12231799166684588,-0.4752449477155245,-0.09182224191064972,-0.02173474052180188
4863,8.0,300.25936,1073.9022,0.0,0.0,0.0,-0.04931638167820621,0.0,0.0,-0.07299403564520043,-0.12433064073797888,-0.12911479227763786,-0.48602817819474653,-0.08793917672467101,-0.01838673218362918
4864,8.0,299.50311,1180.845,0.0,0.0,0.0,-0.04932652282187847,0.0,0.0,-0.1103173614574759,-0.1018484448691589,-0.14678159810621585,-0.45515932138072757,-0.09345088641913442,3.9242605913193664e-05
4865,8.0,299.98337999999995,1117.358,0.0,0.0,0.0,-0.04933666396555073,0.0,0.0,-0.10782091586109589,-0.11159080405065488,-0.12023720152648788,-0.4725467032292285,-0.08959023939161823,-0.0028445987360400373
4866,8.0,300.3373,1048.9099,0.0,0.0,0.0,-0.04934680510922299,0.0,0.0,-0.09005664145239851,-0.10640572971142791,-0.12238006336797189,-0.44396933178136155,-0.14785301889445684,-0.014127024710228786
4867,8.0,301.15812999999997,1204.1023,0.0,0.0,0.0,-0.04935694625289525,0.0,0.0,-0.1058927009207959,-0.1302980860094199,-0.12982624583535288,-0.45982190317338856,-0.1188844214504789,-0.03320642884771937
4868,8.0,300.37007,1181.2708,0.0,0.0,0.0,-0.04936708739656752,0.0,0.0,-0.09001350435589121,-0.14690168850806787,-0.12216162691141388,-0.4439228337342726,-0.13191774602926787,-0.02914404068554287
4869,8.0,300.23395,1007.4256,0.0,0.0,0.0,-0.04937722854023978,0.0,0.0,-0.06260147894078494,-0.1100846787045119,-0.13354607946997188,-0.47780669728084957,-0.1061528224864679,-0.013597383684207287
4870,8.0,299.97497000000004,923.30382,0.0,0.0,0.0,-0.04938736968391204,0.0,0.0,-0.07783770346923322,-0.11042243549284589,-0.09240116539503501,-0.4599855937270435,-0.12498740918779688,-0.008097882538873783
4871,8.0,298.84717,906.05201,0.0,0.0,0.0,-0.0493975108275843,0.0,0.0,-0.08296935521018782,-0.1079130202951859,-0.08453481040268622,-0.5039952201604555,-0.11023766933711089,-0.027676037861162274
4872,8.0,298.80982,861.9001900000001,0.0,0.0,0.0,-0.04940765197125656,0.0,0.0,-0.06096256412928665,-0.087877348203569,-0.1131562247926499,-0.4742203897444085,-0.13275477167187588,-0.03963915856508036
4873,8.0,299.74018,936.2383,0.0,0.0,0.0,-0.04941779311492882,0.0,0.0,-0.050590186300612655,-0.12376149815680888,-0.11024137783247688,-0.5067176813241415,-0.1029532421156939,-0.02156612658591098
4874,8.0,299.93804,987.6143,0.0,0.0,0.0,-0.049427934258601085,0.0,0.0,-0.05757175914664025,-0.1031165881643149,-0.13952174219972388,-0.4617254049437496,-0.11976086252197687,-0.05188588797198845
4875,8.0,299.96937,1068.5196,0.0,0.0,0.0,-0.049438075402273345,0.0,0.0,-0.08627239956192292,-0.1070818005756509,-0.13144908746051487,-0.4769950332882445,-0.07746478690242922,-0.012699180027061488
4876,8.0,300.91865,1065.2217,0.0,0.0,0.0,-0.049448216545945604,0.0,0.0,-0.11639800703008889,-0.0989694588565251,-0.10843331408903488,-0.4638229947707656,-0.08457127423403492,-0.013616542217098088
4877,8.0,300.94056,1105.7241,0.0,0.0,0.0,-0.049458357689617864,0.0,0.0,-0.10568288722258891,-0.11158501839258389,-0.11884461085404989,-0.47953180623860453,-0.07134827227627623,0.02310964592699448
4878,8.0,300.85739,1073.9896,0.0,0.0,0.0,-0.049468498833290124,0.0,0.0,-0.08337677395614691,-0.12676955399368087,-0.1163196929298599,-0.4773458407378665,-0.1192457565686399,-0.03884521023722376
4879,8.0,299.64603,1006.4812,0.0,0.0,0.0,-0.049478639976962384,0.0,0.0,-0.08487326228058882,-0.1101470442481669,-0.11092484542242989,-0.46739236076553453,-0.12041681023921388,-0.02167988620113818
4880,8.0,300.09019,1073.6374,0.0,0.0,0.0,-0.049488781120634644,0.0,0.0,-0.07073886110963203,-0.1214705700782119,-0.13414953069952787,-0.4549312995782236,-0.16527100089597785,-0.04215423580429916
4881,8.0,299.76186,996.33255,0.0,0.0,0.0,-0.049498922264306904,0.0,0.0,-0.08297960828794972,-0.1006957502771468,-0.11918486023762988,-0.4573942369937966,-0.1015535282950529,-0.008223551895776383
4882,8.0,299.82765,937.9879900000001,0.0,0.0,0.0,-0.04950906340797916,0.0,0.0,-0.07391995067933113,-0.08907667965793382,-0.12212830111562488,-0.4692516949640365,-0.1128510946575359,-0.00993683298246406
4883,8.0,299.42918,830.72712,0.0,0.0,0.0,-0.04951920455165143,0.0,0.0,-0.08090635368858543,-0.07279614891392053,-0.0988177986213074,-0.4675148221726205,-0.07102477090359913,-0.024854291359927578
4884,8.0,298.92094,896.7460599999999,0.0,0.0,0.0,-0.04952934569532369,0.0,0.0,-0.045906423527861256,-0.1102040395662919,-0.11647795246297889,-0.48142792141573654,-0.09592969031802331,-0.01925233857180788
4885,8.0,299.57765,1091.7148,0.0,0.0,0.0,-0.04953948683899595,0.0,0.0,-0.09376075856471641,-0.10786106083005789,-0.13023222475291987,-0.48143836802426754,-0.07283046566830734,-0.01746380522404338
4886,8.0,301.18267000000003,1210.4739,0.0,0.0,0.0,-0.04954962798266821,0.0,0.0,-0.05958444064177644,-0.13725465589597988,-0.17111473846270983,-0.48460754075954054,-0.12892810094671286,-0.030323239873670766
4887,8.0,300.5167,1095.8455,0.0,0.0,0.0,-0.04955976912634047,0.0,0.0,-0.1029953629223509,-0.12232261208730189,-0.10779168359571088,-0.49382567473679956,-0.1346635727402599,-0.034687434710633264
4888,8.0,300.55518,1074.885,0.0,0.0,0.0,-0.049569910270012736,0.0,0.0,-0.09582153701559941,-0.10448148671151991,-0.12643518146068086,-0.48465250879897853,-0.16867589613451484,-0.003799538521935256
4889,8.0,300.47087999999997,1039.6326,0.0,0.0,0.0,-0.049580051413684996,0.0,0.0,-0.07996454582663623,-0.1265550185500079,-0.10950279956958489,-0.4884248186562765,-0.10123046464641901,0.006137254538474864
4890,8.0,300.56813,1045.1583,0.0,0.0,0.0,-0.049590192557357256,0.0,0.0,-0.07493981223623364,-0.1130483136569999,-0.12971390679676587,-0.4748283904669135,-0.13775843371319887,-0.025167174884806773
4891,8.0,300.67103,1181.2586,0.0,0.0,0.0,-0.049600333701029516,0.0,0.0,-0.12398605464397087,-0.1015096444332219,-0.13357741929556485,-0.4790931601378135,-0.1024352281345699,-0.009793261218819632
4892,8.0,299.35294,954.76951,0.0,0.0,0.0,-0.049610474844701775,0.0,0.0,-0.07647940928618002,-0.0997117901977875,-0.11403489501436789,-0.44540249298780354,-0.12895095986896887,-0.03616073784628696
4893,8.0,299.33921000000004,770.3231099999999,0.0,0.0,0.0,-0.04962061598837404,0.0,0.0,-0.08967546487077932,-0.04819372822410066,-0.096289796363813,-0.4620594025742126,-0.09810013181397921,0.01109566412105679
4894,8.0,300.19265,989.3547900000001,0.0,0.0,0.0,-0.0496307571320463,0.0,0.0,-0.07953873152511162,-0.11057582129298388,-0.1106245991527979,-0.48486692265263953,-0.12659171846862988,-0.015101964837197883
4895,8.0,299.22836,1183.4348,0.0,0.0,0.0,-0.04964089827571856,0.0,0.0,-0.1101352297520009,-0.0999936348323534,-0.14960577944744086,-0.49200209813432655,-0.10528335257565791,0.0027439094391527776
4896,8.0,300.4045,1212.7060000000001,0.0,0.0,0.0,-0.04965103941939082,0.0,0.0,-0.08118351001493862,-0.13738284216613086,-0.15006598751035985,-0.4881740291240256,-0.09523017892598691,-0.027041704795058474
4897,8.0,299.89784,964.2678300000001,0.0,0.0,0.0,-0.04966118056306308,0.0,0.0,-0.07809737109886042,-0.0946345155366995,-0.12038145794322488,-0.4884182527956285,-0.07311148551729184,-0.016161992641314484
4898,8.0,299.90456,1096.6594,0.0,0.0,0.0,-0.04967132170673535,0.0,0.0,-0.07955991757145252,-0.12421382313394988,-0.12958333938887986,-0.43773336510091965,-0.1102183061276999,-0.03219501273040037
4899,8.0,300.0373,1283.0809,0.0,0.0,0.0,-0.04968146285040761,0.0,0.0,-0.13764954985745287,-0.12123169636713689,-0.13114330884533687,-0.4661388994643275,-0.12664801464418587,-0.012486326578554488
4900,8.0,300.68109,1057.2824,0.0,0.0,0.0,-0.04969160399407987,0.0,0.0,-0.10547897063996389,-0.12450230556992088,-0.09140616899558651,-0.43875820678206356,-0.13963976557137187,-0.03208760011379957
4901,8.0,298.70052999999996,625.41978,0.0,0.0,0.0,-0.04970174513775213,0.0,0.0,-0.04189817129202756,-0.058241483012236854,-0.08997234005732861,-0.46301129024815657,-0.1098673973530679,-0.006354806225045544
4902,8.0,299.57738,715.83651,0.0,0.0,0.0,-0.04971188628142439,0.0,0.0,-0.023141217786860378,-0.1095314846799159,-0.08492371909581851,-0.4514538252350236,-0.11362663628407589,-0.045068208329635866
4903,8.0,298.15251,988.0093,0.0,0.0,0.0,-0.04972202742509666,0.0,0.0,-0.05017131884177366,-0.13355434759078788,-0.1166044972679679,-0.49307557582027056,-0.12390619027108887,-0.03322853796490137
4904,8.0,298.7568,1286.4031,0.0,0.0,0.0,-0.04973216856876892,0.0,0.0,-0.1116579420022809,-0.14384033571593585,-0.13553614319637589,-0.4687120784907805,-0.13336996647009086,-0.049773020359964656
4905,8.0,299.12354,1285.2107,0.0,0.0,0.0,-0.049742309712441174,0.0,0.0,-0.1259949445572329,-0.12419722609731187,-0.14047978030177485,-0.4967297508484095,-0.12241754348917087,-0.01102553404188549
4906,8.0,300.62262999999996,828.0797299999999,0.0,0.0,0.0,-0.049752450856113434,0.0,0.0,-0.06003920653840834,-0.08829546991033442,-0.1033808843203989,-0.4747173382559536,-0.14886545839437684,-0.017552892199335583
4907,8.0,299.25225,923.85819,0.0,0.0,0.0,-0.049762591999785694,0.0,0.0,-0.056570747081348044,-0.11074459836214089,-0.1135144796305069,-0.5014073895375565,-0.12498100544716488,-0.0019086894082229783
4908,8.0,299.74039,1313.3677,0.0,0.0,0.0,-0.04977273314345797,0.0,0.0,-0.11262718665043789,-0.14044582629092386,-0.14615796293466785,-0.4972816175153746,-0.08859392171403932,-0.014209079729826986
4909,8.0,300.62597,1160.377,0.0,0.0,0.0,-0.04978287428713023,0.0,0.0,-0.1114720612714359,-0.1006705770916624,-0.14058298995696086,-0.4902660866054956,-0.06022764977875624,0.002419992431284658
4910,8.0,300.23439,771.40989,0.0,0.0,0.0,-0.04979301543080249,0.0,0.0,-0.046513252933250655,-0.1087512111754089,-0.07922487831988673,-0.4756810809560675,-0.07799792161479552,-0.03570925184022876
4911,8.0,298.78129,847.6474699999999,0.0,0.0,0.0,-0.04980315657447475,0.0,0.0,-0.07910765338931752,-0.08475737787990191,-0.09379863284020432,-0.4798629667687876,-0.1117609591399479,-0.006926371993829693
4912,8.0,299.37158,1115.2071,0.0,0.0,0.0,-0.04981329771814701,0.0,0.0,-0.08411088581259812,-0.1318633851614029,-0.12302084273121189,-0.47667480572664056,-0.13897935955369486,-0.04640268100283805
4913,8.0,300.10797,1215.1985,0.0,0.0,0.0,-0.04982343886181927,0.0,0.0,-0.11559780289611489,-0.11841133497878888,-0.13538087275105187,-0.4617104696372756,-0.11992739017591189,-0.01226511989622309
4914,8.0,300.8488,1118.0632,0.0,0.0,0.0,-0.04983358000549153,0.0,0.0,-0.08052888965533263,-0.11749627894597989,-0.14183811298833188,-0.4764505836120116,-0.12636313937857088,-0.027226695892315675
4915,8.0,301.55134,970.4707099999999,0.0,0.0,0.0,-0.04984372114916379,0.0,0.0,-0.06866158289412064,-0.12437491976734888,-0.1019623645779019,-0.4620237361706926,-0.13290450977165388,-0.016011806684992285
4916,8.0,300.95421,885.51811,0.0,0.0,0.0,-0.04985386229283605,0.0,0.0,-0.06243750366385184,-0.1033723831520599,-0.1033655133163819,-0.4765926412760315,-0.1071153695514639,-0.017002965906312086
4917,8.0,300.13696,1085.6502,0.0,0.0,0.0,-0.04986400343650831,0.0,0.0,-0.08641151474765252,-0.11371597454539288,-0.12988305876845987,-0.47363819650195055,-0.10973803571280089,0.013699658109550986
4918,8.0,300.47115,1243.9123,0.0,0.0,0.0,-0.04987414458018058,0.0,0.0,-0.07200913628299843,-0.15941194298773384,-0.14669721463788787,-0.49451336757966957,-0.101097617425808,-0.016381399791468285
4919,8.0,299.77719,889.50632,0.0,0.0,0.0,-0.04988428572385284,0.0,0.0,-0.05598423739346404,-0.1080201917582629,-0.10638328622171289,-0.48835588725197354,-0.12484859392409688,-0.015495898237576087
4920,8.0,298.87171,740.94968,0.0,0.0,0.0,-0.0498944268675251,0.0,0.0,-0.057377576857725945,-0.08702492014619091,-0.08082770420257333,-0.49102195091509354,-0.10716920352927689,-0.04254624909573786
4921,8.0,300.04927999999995,1191.6267,0.0,0.0,0.0,-0.04990456801119736,0.0,0.0,-0.12027490456270888,-0.11944970354876788,-0.12250013350482188,-0.47501326808015953,-0.09548229480261881,-0.03802162029094176
4922,8.0,300.20476,1271.7302,0.0,0.0,0.0,-0.04991470915486962,0.0,0.0,-0.14456005739446687,-0.11297647422490989,-0.12903770421002986,-0.4939943302159445,-0.0986870285634014,-0.019765281236181383
4923,8.0,300.23843,1097.9802,0.0,0.0,0.0,-0.049924850298541885,0.0,0.0,-0.08235836033363733,-0.12105586707728389,-0.13034433074398388,-0.4707114539856036,-0.13428170917507287,-0.025598221609847774
4924,8.0,300.34182000000004,928.2048300000001,0.0,0.0,0.0,-0.049934991442214145,0.0,0.0,-0.052433622605045645,-0.0941728342081351,-0.13554463423221386,-0.4785835257350165,-0.13543057266845687,0.0015261605430203185
4925,8.0,300.38487000000003,834.28394,0.0,0.0,0.0,-0.049945132585886405,0.0,0.0,-0.04887659495674436,-0.09020740192152742,-0.11451748577199589,-0.4432287371507706,-0.1418374442432659,0.0016299725753907684
4926,8.0,301.92084,1098.1238,0.0,0.0,0.0,-0.049955273729558665,0.0,0.0,-0.08555299097767283,-0.13175012406522488,-0.11649908886006488,-0.49206531480806553,-0.11292563946739288,-0.003037081196586577
4927,8.0,301.29126,1418.8276,0.0,0.0,0.0,-0.049965414873230925,0.0,0.0,-0.13890236267859588,-0.12705999200234488,-0.16532579746138584,-0.4906358215669855,-0.1391491194754489,-0.009922188681418781
4928,8.0,299.88447,1229.2847,0.0,0.0,0.0,-0.049975556016903185,0.0,0.0,-0.1268531876569349,-0.13166046156387587,-0.11515819420772888,-0.5013449834638976,-0.09882136323515922,-0.015732879197464286
4929,8.0,301.08534,869.25989,0.0,0.0,0.0,-0.049985697160575444,0.0,0.0,-0.061251018194254846,-0.08354000550750662,-0.11944227642553489,-0.47422619566748153,-0.08850645999190751,-0.022939140253166877
4930,8.0,300.53589,1093.6977,0.0,0.0,0.0,-0.049995838304247704,0.0,0.0,-0.06280998453311284,-0.12344093622267188,-0.14620587953189684,-0.46989752031277454,-0.07303647967863933,-0.02934870200699137
4931,8.0,300.16351000000003,1309.2222,0.0,0.0,0.0,-0.05000597944791997,0.0,0.0,-0.1071282378277339,-0.12489983398165388,-0.16594278571227783,-0.47356604296232957,-0.1179691627676499,-0.013551375036916587
4932,8.0,300.39052999999996,1076.7514,0.0,0.0,0.0,-0.05001612059159223,0.0,0.0,-0.0955893325166826,-0.1019458688662739,-0.1297703245623339,-0.4759756732901415,-0.11038264516141891,-0.02306038373363268
4933,8.0,299.80956000000003,697.60453,0.0,0.0,0.0,-0.05002626173526449,0.0,0.0,-0.060946609493212046,-0.07541384001726653,-0.07569390842440712,-0.4656257997461886,-0.14762867518981587,-0.034900299304891365
4934,8.0,300.02482000000003,769.80123,0.0,0.0,0.0,-0.05003640287893675,0.0,0.0,-0.055521685683063746,-0.08145036665402533,-0.0970282996461976,-0.4576910078155856,-0.0984612207123659,-0.02406468582199958
4935,8.0,300.86031,1124.6935,0.0,0.0,0.0,-0.05004654402260901,0.0,0.0,-0.046764224850519655,-0.14954413331135685,-0.14557037920167787,-0.46862616501480153,-0.11327550459442189,-0.03325820187482897
4936,8.0,298.88745,1268.4069,0.0,0.0,0.0,-0.05005668516628127,0.0,0.0,-0.08180071408810193,-0.13060325667453787,-0.17316003445206485,-0.48567064276446054,-0.08983027327405772,-0.0006184043185692544
4937,8.0,299.78496,1248.1652,0.0,0.0,0.0,-0.05006682630995353,0.0,0.0,-0.1204569552081759,-0.12273043512005088,-0.13622367391922985,-0.4864397705178675,-0.1050308101207339,-0.0038590606831596366
4938,8.0,300.23263,897.64189,0.0,0.0,0.0,-0.0500769674536258,0.0,0.0,-0.09299875598601261,-0.08558567741264872,-0.0942762870433451,-0.4832706687101015,-0.09770963637119032,0.0014161231020354687
4939,8.0,300.72252000000003,1037.4833,0.0,0.0,0.0,-0.050087108597298056,0.0,0.0,-0.11483929400375589,-0.10904562112446489,-0.0914841011005278,-0.49590785302979457,-0.15534191998605384,-0.02837031378993197
4940,8.0,300.60564,1374.2381,0.0,0.0,0.0,-0.050097249740970316,0.0,0.0,-0.15398174318431485,-0.11154203632334189,-0.15221028816698584,-0.5114647580426415,-0.12705842146468987,-0.005612747144085015
4941,8.0,300.4537,934.55199,0.0,0.0,0.0,-0.050107390884642576,0.0,0.0,-0.05383493330784425,-0.11303459425064588,-0.11721093758531888,-0.49490690378600855,-0.13676552967520686,-0.030535037515573574
4942,8.0,300.66638,476.52763,0.0,0.0,0.0,-0.050117532028314836,0.0,0.0,-0.012873919059806886,-0.049469595524768956,-0.08250898604050293,-0.47528273181175357,-0.09237205370641191,-0.027100379068599176
4943,8.0,299.90071,743.56304,0.0,0.0,0.0,-0.0501276731719871,0.0,0.0,-0.036273007983867164,-0.1003480281740793,-0.08940356021969442,-0.4534933659638105,-0.11226448364464188,-0.024766106177224377
4944,8.0,299.78199,1146.1498,0.0,0.0,0.0,-0.05013781431565936,0.0,0.0,-0.1048803728783869,-0.1094080606852349,-0.13411249640837286,-0.46867677685729653,-0.1015212765443699,-0.009190434050000222
4945,8.0,299.82099,1167.2498,0.0,0.0,0.0,-0.05014795545933162,0.0,0.0,-0.11520407417225689,-0.12028253433596188,-0.11932818446427489,-0.4604281408407196,-0.14288397960905086,-0.035417961688230665
4946,8.0,299.50809,1104.2134,0.0,0.0,0.0,-0.05015809660300388,0.0,0.0,-0.07921676826608633,-0.15086312149653086,-0.1055734055492839,-0.4873600954511966,-0.10895636392315589,-0.026915273474080677
4947,8.0,299.74595,1020.0889,0.0,0.0,0.0,-0.05016823774667614,0.0,0.0,-0.05603277207325404,-0.10700797517336488,-0.14704081787929887,-0.46624517926731657,-0.13477025784328886,-0.024509089209858774
4948,8.0,300.28972999999996,1192.4161,0.0,0.0,0.0,-0.05017837889034841,0.0,0.0,-0.0984360262486294,-0.11857834899277189,-0.14545035972733286,-0.5167517045469224,-0.091658179494208,0.004733135005074056
4949,8.0,299.93484,1267.1087,0.0,0.0,0.0,-0.05018852003402067,0.0,0.0,-0.1360911914686549,-0.12776644010456586,-0.1213117937875419,-0.49006487540063753,-0.08326981426234083,-0.017953230353595882
4950,8.0,300.32801,1012.1460000000001,0.0,0.0,0.0,-0.050198661177692935,0.0,0.0,-0.11570813569950389,-0.08489870397734971,-0.1070602588785249,-0.5072005963218015,-0.08053041662323333,-0.00024491871050909476
4951,8.0,300.53864,661.55841,0.0,0.0,0.0,-0.05020880232136519,0.0,0.0,-0.056928005894356745,-0.10629087781259289,-0.03787835280630236,-0.4624927797744836,-0.0997651601070547,-0.05943346739012654
4952,8.0,300.14085,913.03489,0.0,0.0,0.0,-0.05021894346503745,0.0,0.0,-0.05891634810884085,-0.10236338870247991,-0.11626007329397589,-0.49533945012119757,-0.13893459416427686,-0.025964821575528374
4953,8.0,299.8753,1497.4852,0.0,0.0,0.0,-0.050229084608709715,0.0,0.0,-0.09954914633148582,-0.17018629739607982,-0.18546267398624083,-0.45340857719544253,-0.15490904941083286,-0.04487803952436766
4954,8.0,298.68291,1224.0098,0.0,0.0,0.0,-0.050239225752381975,0.0,0.0,-0.1028617962941689,-0.1207647096610489,-0.14844189958757487,-0.4813330001463686,-0.12375690813385588,0.008923744191879981
4955,8.0,299.57964,649.58479,0.0,0.0,0.0,-0.050249366896054234,0.0,0.0,-0.03215148654585467,-0.08632156043027472,-0.07898451107816433,-0.45303557956863055,-0.12793826705652386,-0.014132590493028088
4956,8.0,300.21435,831.00126,0.0,0.0,0.0,-0.050259508039726494,0.0,0.0,-0.08934587183850101,-0.08215729706329392,-0.08110046302349251,-0.48588610026572454,-0.11732025713860789,0.023618338007198477
4957,8.0,300.49391,1299.0435,0.0,0.0,0.0,-0.050269649183398754,0.0,0.0,-0.1186764214699509,-0.1350697847053499,-0.14113057057600287,-0.5052960711688396,-0.14225834833480588,-0.007846830676171892
4958,8.0,300.34817999999996,1448.5208,0.0,0.0,0.0,-0.05027979032707102,0.0,0.0,-0.12206570252444689,-0.15461844928215285,-0.16363001196152482,-0.4980067600819405,-0.10939073410852489,-0.003197993317142367
4959,8.0,300.25437999999997,1061.5664,0.0,0.0,0.0,-0.05028993147074328,0.0,0.0,-0.06529183730155264,-0.13121311164472588,-0.12618473643346387,-0.4951381375913295,-0.11684372561657788,-0.033864757702691366
4960,8.0,300.21742,683.1521,0.0,0.0,0.0,-0.05030007261441554,0.0,0.0,-0.06364355701938003,-0.06269270792678854,-0.08132491413264412,-0.47637499515455156,-0.0953187390112271,0.011571392135757488
4961,8.0,300.52423999999996,787.4576,0.0,0.0,0.0,-0.0503102137580878,0.0,0.0,-0.04316708769700986,-0.1002985542114466,-0.09590180567527132,-0.4698096715291045,-0.09128965536658751,-0.04706568904677186
4962,8.0,299.21556,1164.8616,0.0,0.0,0.0,-0.05032035490176006,0.0,0.0,-0.10967049246113489,-0.11368425981726289,-0.13073408752744986,-0.47498280978215357,-0.07444929988932383,-0.023354529224412578
4963,8.0,298.67385,1071.2881,0.0,0.0,0.0,-0.050330496045432334,0.0,0.0,-0.058142743816492044,-0.11632825489320489,-0.15117383463969586,-0.47384672337253053,-0.1219796674584559,-0.04862532210419566
4964,8.0,298.54735,625.54203,0.0,0.0,0.0,-0.050340637189104594,0.0,0.0,0.007960043035020082,-0.09659011862720251,-0.10151907779165291,-0.4938171735684605,-0.13037913588491887,-0.020925271228913477
4965,8.0,299.23496,646.71299,0.0,0.0,0.0,-0.050350778332776853,0.0,0.0,-0.006918085330536863,-0.08453715202366732,-0.1051293689579609,-0.4827962954107845,-0.13394538106937987,-0.025762274907038574
4966,8.0,299.72431,1276.6857,0.0,0.0,0.0,-0.050360919476449106,0.0,0.0,-0.12241079524350489,-0.1128235342548159,-0.15284624445974984,-0.5004960318676125,-0.12950511648115987,0.017992171581439086
4967,8.0,300.48312999999996,1437.9334,0.0,0.0,0.0,-0.050371060620121366,0.0,0.0,-0.14175755960538186,-0.15236391714714786,-0.14297437165047186,-0.4853103816914055,-0.11751299757262988,0.014633712581734985
4968,8.0,300.03959,1165.2395,0.0,0.0,0.0,-0.05038120176379364,0.0,0.0,-0.14110388156836887,-0.0957609142621164,-0.1173389110729489,-0.4728559066297446,-0.13621893190876186,0.018067280771601784
4969,8.0,300.4639,1025.039,0.0,0.0,0.0,-0.0503913429074659,0.0,0.0,-0.07318330367112973,-0.1163121746141179,-0.12209077033192088,-0.4819121536385266,-0.1022223138910569,-0.0007241994941679252
4970,8.0,300.3647,1111.1277,0.0,0.0,0.0,-0.05040148405113816,0.0,0.0,-0.08155906204525272,-0.11314271816881688,-0.14305330383326187,-0.4652452230086286,-0.1101143871974439,-0.03960054968326996
4971,8.0,300.48655,1310.4991,0.0,0.0,0.0,-0.05041162519481042,0.0,0.0,-0.09259254098117232,-0.14240049719133485,-0.16336595898546483,-0.47160732919401954,-0.11021212530208988,-0.015600526442902087
4972,8.0,300.15849,1153.2156,0.0,0.0,0.0,-0.05042176633848268,0.0,0.0,-0.11905202314951989,-0.10561365184325588,-0.1258830918786939,-0.48482711205621054,-0.0953022058093454,-0.027715708629077476
4973,8.0,299.62011,653.7836900000001,0.0,0.0,0.0,-0.050431907482154946,0.0,0.0,-0.03670425330592776,-0.049331356800375856,-0.11269830667495688,-0.5024424447797086,-0.1078786204542909,-0.02282464805811738
4974,8.0,298.72499,503.96727000000004,0.0,0.0,0.0,-0.050442048625827206,0.0,0.0,-0.03818425706449276,-0.055696800631596245,-0.05931240730792884,-0.49744416309641654,-0.10933438727046389,-0.053958772735066246
4975,8.0,299.59861,1095.0294,0.0,0.0,0.0,-0.050452189769499466,0.0,0.0,-0.05222741303744435,-0.11317735105723489,-0.16745683467420283,-0.5152391349301435,-0.11152296695645988,-0.015562711949170086
4976,8.0,299.01993999999996,1414.8709,0.0,0.0,0.0,-0.050462330913171725,0.0,0.0,-0.12482434684920388,-0.14420033334396487,-0.16106074408045787,-0.4705484119120125,-0.12183799482947388,-0.01017190224338859
4977,8.0,299.22562,1011.8125,0.0,0.0,0.0,-0.050472472056843985,0.0,0.0,-0.07685163886941623,-0.1128274150026989,-0.1178866740770089,-0.48392138805682255,-0.12061231684600887,-0.00026708516751425374
4978,8.0,299.88256,816.17928,0.0,0.0,0.0,-0.05048261320051625,0.0,0.0,-0.08581034434407162,-0.0956239907363531,-0.06666378604295344,-0.45035459073153755,-0.1266199172189129,-0.007634288498095612
4979,8.0,299.24343999999996,1022.2567,0.0,0.0,0.0,-0.05049275434418851,0.0,0.0,-0.08626780244621923,-0.11869265373655288,-0.10578005790717891,-0.45313737067367654,-0.1299643619564839,0.004721603914961026
4980,8.0,300.03347,1201.8421,0.0,0.0,0.0,-0.05050289548786077,0.0,0.0,-0.1219960213150699,-0.13884167913010687,-0.10449230822258791,-0.4676984129582396,-0.11971809323525588,-0.006053802449638785
4981,8.0,300.31692999999996,1228.9748,0.0,0.0,0.0,-0.05051303663153303,0.0,0.0,-0.07692664673456893,-0.14188637409059487,-0.15476463087407985,-0.4861823948599665,-0.08820813687096532,-0.04047790673285836
4982,8.0,300.48516,922.9716300000001,0.0,0.0,0.0,-0.05052317777520529,0.0,0.0,-0.08710616659220932,-0.08788506511633061,-0.1055690992363589,-0.5158073757187246,-0.11444856450019388,-0.03212314695380777
4983,8.0,300.09931,700.98244,0.0,0.0,0.0,-0.05053331891887755,0.0,0.0,-0.025717326119352475,-0.09140708092067651,-0.09595674916194381,-0.5187473310163755,-0.07748378838155452,-0.036223844075765066
4984,8.0,300.57712999999995,859.61355,0.0,0.0,0.0,-0.05054346006254981,0.0,0.0,-0.08987524232674582,-0.06497114769790303,-0.10645465955875691,-0.4890547157134425,-0.0964103873112144,-0.03428923755383426
4985,8.0,299.37355,1271.5791,0.0,0.0,0.0,-0.05055360120622207,0.0,0.0,-0.12954643682023786,-0.12043022567053788,-0.13655163257909686,-0.4824105004352095,-0.10795616448444391,-0.028313997349373975
4986,8.0,300.51534,1315.2412,0.0,0.0,0.0,-0.05056374234989433,0.0,0.0,-0.11837380419508488,-0.15917850029719485,-0.12224816860245488,-0.4748749087790045,-0.13164061199441687,-0.02301044975545458
4987,8.0,300.1321,836.36985,0.0,0.0,0.0,-0.0505738834935666,0.0,0.0,-0.03589821082487756,-0.1193950691033759,-0.098942272343092,-0.4874575194483115,-0.12121539317302787,-0.006888967663738174
4988,8.0,301.36748,969.0907599999999,0.0,0.0,0.0,-0.05058402463723886,0.0,0.0,-0.08286856924924102,-0.11594797199817387,-0.09576285260955772,-0.4555912496333556,-0.1250277770717809,0.01027921556147959
4989,8.0,301.3108,1344.4382,0.0,0.0,0.0,-0.05059416578091112,0.0,0.0,-0.12928929420985988,-0.13226685121872186,-0.14711950688206485,-0.47189399791231157,-0.1103650450071819,0.02624445428512598
4990,8.0,301.56782000000004,1239.5623,0.0,0.0,0.0,-0.05060430692458338,0.0,0.0,-0.12458414578049788,-0.1276815094811839,-0.12453034220018788,-0.4690612951377455,-0.12800881966098687,0.011864889146473387
4991,8.0,299.95009,914.5753699999999,0.0,0.0,0.0,-0.05061444806825564,0.0,0.0,-0.0900805045055036,-0.08045644835268322,-0.10747112166157391,-0.5079607669443245,-0.11986493343974788,-0.009985842369925911
4992,8.0,300.01614,921.10833,0.0,0.0,0.0,-0.050624589211927896,0.0,0.0,-0.055801152219644955,-0.11048191327371588,-0.1137108677648889,-0.5024936949697666,-0.11496203912086989,-0.02128190587986058
4993,8.0,300.14476,910.9720699999999,0.0,0.0,0.0,-0.05063473035560016,0.0,0.0,-0.06007782960572014,-0.1007848828486935,-0.1160500468132479,-0.5041409761873404,-0.0979947771083315,-0.06085879617329554
4994,8.0,300.64064,1156.8283,0.0,0.0,0.0,-0.05064487149927242,0.0,0.0,-0.08795191631817832,-0.13128198225402288,-0.13241301254564686,-0.4969625045288805,-0.1140840579092199,-0.035864732028323465
4995,8.0,300.53782,1060.9013,0.0,0.0,0.0,-0.05065501264294468,0.0,0.0,-0.08609353660127052,-0.1011807789145154,-0.13521317985950188,-0.5032861882704796,-0.09719383532828471,-0.03602314354895747
4996,8.0,299.96556,735.89301,0.0,0.0,0.0,-0.05066515378661694,0.0,0.0,-0.05087889975760645,-0.09403456913923941,-0.07877962988144413,-0.4603881883892766,-0.1311897156999169,-0.0075797604439641125
4997,8.0,299.35736,919.32653,0.0,0.0,0.0,-0.0506752949302892,0.0,0.0,-0.057796385548059145,-0.11698200385772489,-0.10467392317051191,-0.4682098205487115,-0.1035857837556209,-0.02060672059622498
4998,8.0,300.83874,1429.8699,0.0,0.0,0.0,-0.05068543607396147,0.0,0.0,-0.11404587864545189,-0.15959314250311685,-0.16100571446752684,-0.4756645345819346,-0.15362435974154384,0.007690657121033764
4999,8.0,299.78699,1424.7622,0.0,0.0,0.0,-0.05069557721763373,0.0,0.0,-0.0940825738892271,-0.17448322762515384,-0.16452634313248582,-0.48985726045514755,-0.13847853029426688,-0.0006288391733990944
5000,8.0,300.28722,979.5283699999999,0.0,0.0,0.0,-0.05070571836130599,0.0,0.0,-0.08960805638137662,-0.0940989682758451,-0.11404513897287889,-0.4772973060580766,-0.10528013044033989,0.010616864945302989
5001,8.0,300.34,946.95755,0.0,0.0,0.0,-0.05071585950497825,0.0,0.0,-0.06571577607714213,-0.0932635739658981,-0.12887209861368587,-0.47642031783152455,-0.06435764806710535,-0.006686171229098724
5002,8.0,300.99643,1128.4062,0.0,0.0,0.0,-0.05072600064865051,0.0,0.0,-0.1138376152198979,-0.0976338989659656,-0.1315357912715719,-0.4606380558639365,-0.10764096264333589,-0.013225782316033087
5003,8.0,300.63757999999996,1207.3396,0.0,0.0,0.0,-0.050736141792322775,0.0,0.0,-0.07533211126420053,-0.12318110849952889,-0.16848785718095685,-0.5135086658793595,-0.12890901131482888,-0.027869679074523174
5004,8.0,301.2492,1094.1491,0.0,0.0,0.0,-0.050746282935995035,0.0,0.0,-0.09483055106004672,-0.1020101393201169,-0.13575331309030886,-0.4580862361495916,-0.14058899853005385,-0.045362102534390956
5005,8.0,299.20191,772.64458,0.0,0.0,0.0,-0.050756424079667295,0.0,0.0,-0.06781145187471924,-0.06502704870592003,-0.10202615880419791,-0.4947670144772025,-0.11249015470691388,-0.04193587230174836
5006,8.0,301.00908,860.55129,0.0,0.0,0.0,-0.050766565223339555,0.0,0.0,-0.0969040478261849,-0.0955242261315071,-0.06915783124984652,-0.4762397363987025,-0.12197224033522289,-0.050474826763477545
5007,8.0,299.62759,1203.8441,0.0,0.0,0.0,-0.050776706367011815,0.0,0.0,-0.1033973192370209,-0.12642244490692386,-0.13611876200387588,-0.5194723519929295,-0.11141413376321889,-0.0032756950090109265
5008,8.0,299.9073,1342.0198,0.0,0.0,0.0,-0.05078684751068408,0.0,0.0,-0.11990010335071888,-0.13384056034653485,-0.15419983513583888,-0.49537187412439754,-0.08696793597381701,-0.003086497302638567
5009,8.0,299.60776,913.63595,0.0,0.0,0.0,-0.05079698865435634,0.0,0.0,-0.04739108013088546,-0.10320409244295091,-0.12712734273649187,-0.4943426653353225,-0.08009229842574442,0.0029387123437533275
5010,8.0,299.82821,750.32804,0.0,0.0,0.0,-0.0508071297980286,0.0,0.0,-0.02064318240107348,-0.12005915321891587,-0.08737864879585122,-0.47383531417640457,-0.11379289036048389,-0.028081183887147077
5011,8.0,300.13054,1077.7214,0.0,0.0,0.0,-0.05081727094170086,0.0,0.0,-0.07608438360219402,-0.11735972323000288,-0.13415629921019587,-0.4706771048072136,-0.14855677175141185,-0.0029503616801530275
5012,8.0,300.82234,1167.3777,0.0,0.0,0.0,-0.05082741208537312,0.0,0.0,-0.1259787122906309,-0.1093062493151869,-0.11956868950801088,-0.4626672817067056,-0.14054634070084387,-0.02149984280411928
5013,8.0,300.30662,946.9998,0.0,0.0,0.0,-0.05083755322904539,0.0,0.0,-0.08506451830321432,-0.08211911273327542,-0.12068066056525388,-0.4914288822877545,-0.0927094518042105,-0.015100250418028687
5014,8.0,301.61253,876.0925900000001,0.0,0.0,0.0,-0.05084769437271765,0.0,0.0,-0.07432122710318402,-0.0933734943764964,-0.098615549848347,-0.48449341840077753,-0.12937289747561087,-0.03368768414171557
5015,8.0,300.2502,884.58203,0.0,0.0,0.0,-0.05085783551638991,0.0,0.0,-0.04039033557971576,-0.11563935628271589,-0.1128611663635299,-0.5397668193058375,-0.1198954424002589,-0.03971673299273636
5016,8.0,300.43375,1077.243,0.0,0.0,0.0,-0.05086797666006217,0.0,0.0,-0.08536942147030592,-0.11679529226179788,-0.12529025951018588,-0.5101223333826546,-0.1181118182492289,-0.04072883913337346
5017,8.0,299.88049,1327.4445,0.0,0.0,0.0,-0.05087811780373443,0.0,0.0,-0.11698885342840087,-0.13973606486087586,-0.14678508368655985,-0.4794248070280446,-0.12401856983967989,-0.02235646673016148
5018,8.0,298.93669,975.15066,0.0,0.0,0.0,-0.050888258947406693,0.0,0.0,-0.09319291193042431,-0.1058117929003109,-0.0974167473105344,-0.45917396013194156,-0.1031593169210319,-0.01073154965787149
5019,8.0,299.2994,747.05217,0.0,0.0,0.0,-0.05089840009107895,0.0,0.0,-0.04895534475451636,-0.09885062691129731,-0.07927923513475132,-0.4813580983513456,-0.12329679126344588,0.0012938170261897989
5020,8.0,300.20566,1133.2851,0.0,0.0,0.0,-0.05090854123475121,0.0,0.0,-0.1024808953165769,-0.1105929350871729,-0.13141654186730287,-0.4700874439115185,-0.1160812650488289,0.02121457034446508
5021,8.0,299.90783999999996,1469.9835,0.0,0.0,0.0,-0.05091868237842347,0.0,0.0,-0.11490345300008789,-0.14082616998096087,-0.19110864539845482,-0.5175519796084035,-0.09089605025924172,0.01054012644897949
5022,8.0,300.79794,1232.3838,0.0,0.0,0.0,-0.05092882352209573,0.0,0.0,-0.09248049578511432,-0.13759831993239688,-0.14453507064700086,-0.4936202180140225,-0.1085065923362669,-0.014126295170156787
5023,8.0,299.39377,778.98983,0.0,0.0,0.0,-0.050938964665768006,0.0,0.0,-0.03936668244093906,-0.08672383997172661,-0.11070293351802889,-0.5031756021545656,-0.14597867846197388,-0.02290407166720588
5024,8.0,299.96235,1119.3717,0.0,0.0,0.0,-0.050949105809440266,0.0,0.0,-0.1085544785359929,-0.13242415829674686,-0.09928242242816222,-0.5021031782487255,-0.1257405377221249,-0.04464036651466116
5025,8.0,299.76288,1230.6784,0.0,0.0,0.0,-0.050959246953112526,0.0,0.0,-0.1150978348992719,-0.13050210391705488,-0.12849557487652585,-0.4796061787959446,-0.12745970903429388,-0.03831883592952467
5026,8.0,300.77612999999997,1097.4308,0.0,0.0,0.0,-0.050969388096784786,0.0,0.0,-0.08699789271302351,-0.14326660311181286,-0.1033270604750869,-0.49553393334539153,-0.10046013923139381,-0.048571681657151755
5027,8.0,300.37823,809.1835,0.0,0.0,0.0,-0.050979529240457046,0.0,0.0,-0.03473108045869076,-0.1014062017305129,-0.10983429447230089,-0.4898379175107386,-0.12754766927547487,-0.016819199828425783
5028,8.0,299.98599,643.04387,0.0,0.0,0.0,-0.05098967038412931,0.0,0.0,-0.00981517336018219,-0.10052908279469801,-0.08512502453293583,-0.4989585464308745,-0.10931428438847988,-0.022804828886161376
5029,8.0,301.30145,1025.4201,0.0,0.0,0.0,-0.05099981152780157,0.0,0.0,-0.06382453665949134,-0.12807999034801087,-0.11979759283810187,-0.4786530853543815,-0.12275096356707688,-0.0010597004230092888
5030,8.0,301.43581,1474.9008,0.0,0.0,0.0,-0.05100995267147383,0.0,0.0,-0.15022027510308686,-0.14861746543240184,-0.14949529465653685,-0.4678158891748336,-0.1113489007217809,-0.007002132399831665
5031,8.0,299.3165,1135.2523,0.0,0.0,0.0,-0.05102009381514609,0.0,0.0,-0.1079261216189789,-0.1135900984854699,-0.12357213184561987,-0.48746724664927155,-0.15192345732867785,-0.013784588732932986
5032,8.0,299.39549,844.19045,0.0,0.0,0.0,-0.05103023495881835,0.0,0.0,-0.06084497848168185,-0.10118485623291781,-0.09458298366311371,-0.4926941276876245,-0.1196413294076799,-0.022942651164763378
5033,8.0,299.92087000000004,1030.8501,0.0,0.0,0.0,-0.05104037610249062,0.0,0.0,-0.07769614939051292,-0.11602947783621788,-0.11962706284627188,-0.48133007185357957,-0.1037039793797859,-0.033032422394796264
5034,8.0,299.394,1290.3048,0.0,0.0,0.0,-0.05105051724616288,0.0,0.0,-0.1115621797353299,-0.12933257012163088,-0.15132568029968185,-0.48869121224006756,-0.07043084827798353,-0.003059651241239067
5035,8.0,299.85091,1156.9094,0.0,0.0,0.0,-0.05106065838983514,0.0,0.0,-0.0913332352533885,-0.1141939752800679,-0.14614435498582487,-0.5015781931069135,-0.1029026809357039,-0.014540793494564587
5036,8.0,299.13402,961.2836199999999,0.0,0.0,0.0,-0.0510707995335074,0.0,0.0,-0.09795307984021631,-0.07246012782300784,-0.12179300652503389,-0.5084327692384075,-0.09715524671147631,0.0024482810568515275
5037,8.0,300.59303,987.1120199999999,0.0,0.0,0.0,-0.05108094067717966,0.0,0.0,-0.06454395537624244,-0.1116458437960869,-0.12386760570728089,-0.4889927959998315,-0.12748444246923488,-0.025534723252580976
5038,8.0,301.40053,1134.8471,0.0,0.0,0.0,-0.05109108182085192,0.0,0.0,-0.11552999619942288,-0.11430409530093588,-0.11513108976755389,-0.4920201846486116,-0.11846923208950288,-0.00859742709849999
5039,8.0,300.71216,1308.8947,0.0,0.0,0.0,-0.05110122296452418,0.0,0.0,-0.08657738074927222,-0.15436150932179485,-0.15693239840302187,-0.4962149387376015,-0.15598483730700485,-0.018184072031128182
5040,8.0,300.04166000000004,1310.731,0.0,0.0,0.0,-0.05111136410819644,0.0,0.0,-0.1186111681635109,-0.14870391593093385,-0.13111442108498586,-0.46666654945390257,-0.12963509620398786,-0.007241877911292702
5041,8.0,299.61672000000004,928.4283199999999,0.0,0.0,0.0,-0.0511215052518687,0.0,0.0,-0.03359583302015057,-0.11742175440112489,-0.1312014390035739,-0.4521502117637516,-0.11696997657903789,-0.01858556529050248
5042,8.0,299.16466,938.63714,0.0,0.0,0.0,-0.05113164639554096,0.0,0.0,-0.05897558878918745,-0.13456952286597787,-0.09177714214869871,-0.4484180772729186,-0.096916096383124,-0.025043250344576374
5043,8.0,299.61918,1191.5638,0.0,0.0,0.0,-0.051141787539213224,0.0,0.0,-0.09106943660310361,-0.12467534842199889,-0.14646085378706086,-0.4837180186292515,-0.14661218268949586,-0.03231506766849887
5044,8.0,298.28121,1070.7617,0.0,0.0,0.0,-0.051151928682885484,0.0,0.0,-0.090382710400829,-0.10762178181894289,-0.1274803388063299,-0.4909615713416345,-0.11988280717151188,-0.035394827161947466
5045,8.0,298.48474,791.30609,0.0,0.0,0.0,-0.05116206982655774,0.0,0.0,-0.021797187125464877,-0.1203584672984559,-0.098381641062762,-0.48574440737174057,-0.15631257305184984,-0.05215997111078836
5046,8.0,299.03815,806.26624,0.0,0.0,0.0,-0.05117221097023,0.0,0.0,-0.06736108551002153,-0.06653453383369723,-0.11118918210851789,-0.5134989893409045,-0.0950171197877096,-0.007737903554646623
5047,8.0,300.97211,1210.1287,0.0,0.0,0.0,-0.05118235211390226,0.0,0.0,-0.0999656731825938,-0.13404833741204086,-0.13383490641097687,-0.5139708092499695,-0.13300281529635588,-0.0007254585891396883
5048,8.0,300.93911,1267.6243,0.0,0.0,0.0,-0.05119249325757453,0.0,0.0,-0.12378727523935289,-0.12123949839290689,-0.14029936098896886,-0.4890664998121056,-0.08522252553705842,-0.0056746814484974544
5049,8.0,300.93048,1236.4942,0.0,0.0,0.0,-0.05120263440124679,0.0,0.0,-0.1067917172045219,-0.13400995549825287,-0.13506168883705086,-0.47856768863595356,-0.11661447778145288,-0.014975233594190486
5050,8.0,299.19395,1181.9991,0.0,0.0,0.0,-0.05121277554491905,0.0,0.0,-0.1022835344620989,-0.14723112651308085,-0.10978356103979389,-0.4714171016202455,-0.13110751071930388,-0.02049129621108348
5051,8.0,299.8897,1099.5156,0.0,0.0,0.0,-0.05122291668859131,0.0,0.0,-0.08270399919449922,-0.1277455570200049,-0.12377571405571189,-0.47726002858689753,-0.15296060999853683,-0.03643395465625136
5052,8.0,301.09947,1250.6091,0.0,0.0,0.0,-0.05123305783226357,0.0,0.0,-0.1194934455555849,-0.13993584738309287,-0.1207246660170969,-0.48039527770882257,-0.12002552344809689,-0.026495887231190476
5053,8.0,300.29453,1112.1708,0.0,0.0,0.0,-0.051243198975935836,0.0,0.0,-0.06977617826912264,-0.12043865591136987,-0.14785732520738187,-0.4686437651690386,-0.11965745021677089,-0.030811156273824365
5054,8.0,299.50001000000003,747.38697,0.0,0.0,0.0,-0.051253340119608096,0.0,0.0,-0.047924089200239356,-0.07431478283254803,-0.1049481086475719,-0.5184816568401555,-0.09676955711391172,-4.667558674502176e-05
5055,8.0,299.78527,750.04494,0.0,0.0,0.0,-0.051263481263280355,0.0,0.0,-0.04168490849048016,-0.08409182657821712,-0.1022182000956509,-0.5149073867149025,-0.11744641690855889,-0.022654740201848777
5056,8.0,300.33672,1120.5816,0.0,0.0,0.0,-0.051273622406952615,0.0,0.0,-0.12108525133018387,-0.08433650418586491,-0.1352070800938999,-0.5207753612240265,-0.10115283347675741,0.0030657758314685175
5057,8.0,300.11489,1240.8368,0.0,0.0,0.0,-0.051283763550624875,0.0,0.0,-0.11920973552758488,-0.11531697049839888,-0.14265670761162086,-0.4860374291681595,-0.12442187377698288,-0.031629229073311865
5058,8.0,298.93731,1080.2506,0.0,0.0,0.0,-0.05129390469429714,0.0,0.0,-0.09497245167030122,-0.11591902344281689,-0.1174777263366489,-0.4786296083495646,-0.1075618176780249,-0.01792537610834688
5059,8.0,298.41688999999997,1059.4339,0.0,0.0,0.0,-0.0513040458379694,0.0,0.0,-0.08884867508068152,-0.11557418403628389,-0.11761858836555089,-0.48427318849154255,-0.11370359262917087,-0.03145213828708437
5060,8.0,300.21168,1139.3806,0.0,0.0,0.0,-0.05131418698164166,0.0,0.0,-0.09034700549380523,-0.12840759437034288,-0.12758865524201987,-0.4898129611607755,-0.0926147645956156,-0.022394026898118376
5061,8.0,300.1383,849.7230699999999,0.0,0.0,0.0,-0.05132432812531392,0.0,0.0,-0.06228178840173394,-0.1002755888979301,-0.09573721839527781,-0.4953334415481045,-0.1211495217840269,-0.03967641475800726
5062,8.0,300.13448999999997,734.45745,0.0,0.0,0.0,-0.05133446926898618,0.0,0.0,-0.02441372413694698,-0.0955216220787501,-0.1033213761420259,-0.5337877317907476,-0.11824903257777089,-0.01948276684329938
5063,8.0,300.28738,729.51477,0.0,0.0,0.0,-0.05134461041265845,0.0,0.0,-0.06325515596454784,-0.0941661437177248,-0.06433297238742004,-0.48698012666369656,-0.15192663893399186,-0.02582259976499218
5064,8.0,299.80829,919.6410000000001,0.0,0.0,0.0,-0.05135475155633071,0.0,0.0,-0.07098656225557823,-0.09173232103052521,-0.11682901322512589,-0.5146672160436995,-0.1086213327775909,-0.02222207025014758
5065,8.0,300.06528,1166.1057,0.0,0.0,0.0,-0.05136489270000297,0.0,0.0,-0.0982375123155376,-0.12073064419268689,-0.13549886572519687,-0.44924610525463854,-0.12863234337502388,-0.015808979346224786
5066,8.0,299.6779,1233.6472,0.0,0.0,0.0,-0.05137503384367523,0.0,0.0,-0.0884422969425751,-0.1039796138044889,-0.18257603590885182,-0.4804856697502436,-0.11523933527573688,0.006270142086439843
5067,8.0,299.52055,1025.8196,0.0,0.0,0.0,-0.05138517498734749,0.0,0.0,-0.06409206001714385,-0.1017051003775119,-0.14602636201167984,-0.47344124094751255,-0.11314351863639589,0.0005226844763999416
5068,8.0,299.25774,1169.9151,0.0,0.0,0.0,-0.051395316131019754,0.0,0.0,-0.08079638261548212,-0.13892233383806687,-0.1359062631929039,-0.5114103769097745,-0.1111189334790849,-0.002387256955003918
5069,8.0,298.49235,1427.8242,0.0,0.0,0.0,-0.051405457274692014,0.0,0.0,-0.15789226035525286,-0.1088790326755239,-0.16725161099894884,-0.5038596168995725,-0.11472871802034289,-0.03525041470469507
5070,8.0,298.08085,1248.2136,0.0,0.0,0.0,-0.051415598418364274,0.0,0.0,-0.13073582018512087,-0.1262454402469549,-0.12244449594183088,-0.5145867741182605,-0.1015998439571239,-0.01088724870798779
5071,8.0,298.87566,800.47285,0.0,0.0,0.0,-0.05142573956203653,0.0,0.0,-0.05921418284323485,-0.09531301516141222,-0.08879656058828823,-0.48738224509838257,-0.12375073744074687,-0.03441709755745307
5072,8.0,299.61753,835.7979799999999,0.0,0.0,0.0,-0.05143588070570879,0.0,0.0,-0.055577627221084745,-0.08078899500900302,-0.11769508874810088,-0.49945208028958255,-0.09054766143760841,0.003537993542522777
5073,8.0,299.42997,1010.6658,0.0,0.0,0.0,-0.05144602184938106,0.0,0.0,-0.07593507714695863,-0.1186554066628769,-0.1126266901578889,-0.4850712344028035,-0.10445155530356591,-0.03451278180414637
5074,8.0,298.9577,1018.2427,0.0,0.0,0.0,-0.05145616299305332,0.0,0.0,-0.07654391684054643,-0.1049371047514859,-0.12803931848899688,-0.45040012619103154,-0.09626704585931772,-0.0032054058495739265
5075,8.0,299.66815,1091.572,0.0,0.0,0.0,-0.05146630413672558,0.0,0.0,-0.09914769664186582,-0.1176153358327299,-0.11504759795931388,-0.4774369015243536,-0.12725522503161288,-0.03084447092386227
5076,8.0,301.04738,1053.4389999999999,0.0,0.0,0.0,-0.05147644528039784,0.0,0.0,-0.1014593365657569,-0.11565118091138289,-0.1031086240185289,-0.47063012040007657,-0.13847532842395086,-0.03277171821031677
5077,8.0,301.27982000000003,1010.1869,0.0,0.0,0.0,-0.0514865864240701,0.0,0.0,-0.07496806468877193,-0.11897173321159588,-0.11313178520023788,-0.5166698846013474,-0.14359764205198386,-0.03121441461487287
5078,8.0,301.02185,1212.3455,0.0,0.0,0.0,-0.05149672756774237,0.0,0.0,-0.07693204127810134,-0.14958325489771784,-0.14200746761004587,-0.5156643149371055,-0.11758844417507588,-0.03167996757206937
5079,8.0,299.56321,1246.5299,0.0,0.0,0.0,-0.05150686871141463,0.0,0.0,-0.08506164776568102,-0.13806205410566386,-0.15579026289030184,-0.5244650810656735,-0.12496689087327188,0.013404680740438988
5080,8.0,299.55502,1039.2844,0.0,0.0,0.0,-0.051517009855086886,0.0,0.0,-0.058431521108242145,-0.14468861856715487,-0.11279635888713391,-0.5210084290120285,-0.09487343991027951,-0.04180688961701876
5081,8.0,299.82057000000003,1005.4383,0.0,0.0,0.0,-0.051527150998759146,0.0,0.0,-0.1062118848347969,-0.1038462092963229,-0.09557005340702991,-0.4762278813725326,-0.09397613399272231,-0.016633668668865283
5082,8.0,299.20387,1117.1192,0.0,0.0,0.0,-0.051537292142431405,0.0,0.0,-0.1026594299841969,-0.1113251602719379,-0.12559175207744086,-0.45774201482561955,-0.1139630150522739,-0.03494252852930907
5083,8.0,299.08246,1003.4037,0.0,0.0,0.0,-0.05154743328610368,0.0,0.0,-0.07705707836694152,-0.1067948177498279,-0.12115776963984087,-0.4551426939465866,-0.12892978294187887,0.00014364309645146985
5084,8.0,299.44194,848.0623699999999,0.0,0.0,0.0,-0.05155757442977594,0.0,0.0,-0.04138390937602386,-0.08206451983113751,-0.13434135920845988,-0.47349898607071156,-0.15932308095396386,-0.027004046341841875
5085,8.0,300.59752000000003,1052.9518,0.0,0.0,0.0,-0.0515677155734482,0.0,0.0,-0.07775785733485302,-0.11361675709560089,-0.12869644157634988,-0.5046753744225816,-0.12413693771636188,0.009636894335562422
5086,8.0,300.40238999999997,1082.6948,0.0,0.0,0.0,-0.05157785671712046,0.0,0.0,-0.06920650373165015,-0.1268108743327589,-0.13309479814043387,-0.5074493593538525,-0.1151748520393729,-0.012751612679986188
5087,8.0,300.06949,1132.6525,0.0,0.0,0.0,-0.05158799786079272,0.0,0.0,-0.11841436459658788,-0.09700941469083381,-0.12887429736640288,-0.5196157876770855,-0.0982931448122781,0.008416545237023343
5088,8.0,299.41257,1360.1309,0.0,0.0,0.0,-0.05159813900446498,0.0,0.0,-0.12193144688619688,-0.15586884043555685,-0.13564554380967286,-0.49082220892288053,-0.11525896193017389,-0.01955653651682988
5089,8.0,299.42891000000003,1373.1354,0.0,0.0,0.0,-0.051608280148137245,0.0,0.0,-0.13771807596171587,-0.13139486844766388,-0.14828591986718087,-0.49265281748104756,-0.12278470479540689,-0.01202937206170659
5090,8.0,299.75208,1084.6229,0.0,0.0,0.0,-0.051618421291809505,0.0,0.0,-0.08421709367483002,-0.11487721995499889,-0.1306039456846059,-0.4693451672857616,-0.13419147925366787,-0.017540246838087584
5091,8.0,300.32608999999997,846.2605,0.0,0.0,0.0,-0.051628562435481765,0.0,0.0,-0.05165505136070665,-0.12631728981154589,-0.07926971970306222,-0.4953377275960275,-0.12445803667305189,-0.021630738505037682
5092,8.0,300.86916,816.89602,0.0,0.0,0.0,-0.051638703579154024,0.0,0.0,-0.06484353391405853,-0.07843406093483912,-0.1050383993639829,-0.4823523297469685,-0.1291324025643759,-0.00944710651233182
5093,8.0,300.64044,820.4903400000001,0.0,0.0,0.0,-0.051648844722826284,0.0,0.0,-0.06617137385210613,-0.100709826347536,-0.08252737754306802,-0.5178967075574255,-0.08737878254486442,-0.033851195350102864
5094,8.0,300.56374,874.48996,0.0,0.0,0.0,-0.051658985866498544,0.0,0.0,-0.04839468915618395,-0.11418585914676689,-0.1032425554167469,-0.4995029961071075,-0.11098846739620888,-0.041615648793144756
5095,8.0,300.56917999999996,1120.8023,0.0,0.0,0.0,-0.051669127010170804,0.0,0.0,-0.07268988126993273,-0.1117253231339309,-0.15628070633620486,-0.5094562936944216,-0.1147347671234399,-0.022795758271266182
5096,8.0,300.70183,1124.2923,0.0,0.0,0.0,-0.051679268153843064,0.0,0.0,-0.059876870700137044,-0.15711644515118586,-0.12476347078319588,-0.48846618965785954,-0.14697222084752887,-0.04917338097728485
5097,8.0,300.3696,1151.963,0.0,0.0,0.0,-0.051689409297515324,0.0,0.0,-0.08882890555798041,-0.1292010097286469,-0.1321380569985109,-0.4689254284318365,-0.11816637163461288,-0.012472898988229288
5098,8.0,300.65136,1278.5047,0.0,0.0,0.0,-0.05169955044118759,0.0,0.0,-0.1044273284936749,-0.1257576211188109,-0.15844854479265386,-0.4937839288326795,-0.13510758906658088,-0.02124237798020948
5099,8.0,300.42939,979.44014,0.0,0.0,0.0,-0.05170969158485985,0.0,0.0,-0.1105580691512319,-0.09207792240113341,-0.09508935337408851,-0.49668697142918755,-0.1044921663675739,0.003201797260667787
5100,8.0,299.75374,805.8906900000001,0.0,0.0,0.0,-0.05171983272853212,0.0,0.0,-0.050130971222791657,-0.07733512128713221,-0.11750455719929688,-0.5205299925798105,-0.1135396791604939,-0.036191456549568665
5101,8.0,299.87652,1049.7883,0.0,0.0,0.0,-0.05172997387220437,0.0,0.0,-0.08001873444198422,-0.11268272288841888,-0.12640796556299488,-0.5038819894617805,-0.08924776896381902,-0.013894785760808588
5102,8.0,299.5402,1145.2796,0.0,0.0,0.0,-0.05174011501587663,0.0,0.0,-0.06503408876761484,-0.12459908108697189,-0.15850324003305186,-0.4982450359754565,-0.1103524705734409,-0.03358165461150126
5103,8.0,300.27381,1099.4505,0.0,0.0,0.0,-0.051750256159548896,0.0,0.0,-0.09319496578837701,-0.11123737228327388,-0.12977315153011287,-0.5125489356496415,-0.1218899036320969,-0.011024821727065188
5104,8.0,300.08411,1292.2119,0.0,0.0,0.0,-0.051760397303221156,0.0,0.0,-0.1075817077774879,-0.15811137568937783,-0.12710705746948986,-0.4840077473628455,-0.14404302626593987,-0.01637468802280588
5105,8.0,300.50628,1272.0762,0.0,0.0,0.0,-0.051770538446893416,0.0,0.0,-0.11450424259318889,-0.11968474717446488,-0.15249041128963184,-0.4886543400689285,-0.1128202411919909,-0.008184525250949752
5106,8.0,301.032,1055.6401,0.0,0.0,0.0,-0.051780679590565676,0.0,0.0,-0.07302288794179793,-0.13314575448796287,-0.11471957850444088,-0.44740548578548356,-0.1088308728982709,-0.017875710641445285
5107,8.0,301.48089,977.24696,0.0,0.0,0.0,-0.051790820734237936,0.0,0.0,-0.05807194701875494,-0.1071765394600009,-0.13181018953115287,-0.49938163914263056,-0.1188149226261199,-0.03222903260250787
5108,8.0,301.3114,1010.0595,0.0,0.0,0.0,-0.0518009618779102,0.0,0.0,-0.07276780121587283,-0.09820338807866981,-0.13606166536074088,-0.49885551916070653,-0.1370012420459699,-0.019617072130804283
5109,8.0,300.96439,959.4912300000001,0.0,0.0,0.0,-0.05181110302158246,0.0,0.0,-0.061253742823773744,-0.11735046212408888,-0.11305716946287389,-0.5182873762659815,-0.11876404733859888,-0.05538266270309325
5110,8.0,299.8424,906.31714,0.0,0.0,0.0,-0.05182124416525472,0.0,0.0,-0.07196379739402384,-0.08278042763629212,-0.12075355377744788,-0.5006390217217245,-0.13373111920323388,-0.03418769165531247
5111,8.0,299.38582,1030.9861,0.0,0.0,0.0,-0.05183138530892698,0.0,0.0,-0.09026106162032323,-0.1032039607204379,-0.11992901137607188,-0.5218672395317866,-0.0982591401389221,-0.028651528182935673
5112,8.0,299.53567000000004,1035.4612,0.0,0.0,0.0,-0.05184152645259924,0.0,0.0,-0.07396211708224264,-0.14320694294592487,-0.0975852984249191,-0.4794777290807675,-0.10891249019382589,-0.03785766933201106
5113,8.0,299.99433,1176.4609,0.0,0.0,0.0,-0.05185166759627151,0.0,0.0,-0.1077295814970819,-0.12322974450432889,-0.1266554012374149,-0.5070660975035275,-0.07880347773579773,-0.013065469938211486
5114,8.0,300.78839,1260.4566,0.0,0.0,0.0,-0.05186180873994377,0.0,0.0,-0.08739297412576501,-0.15264414159480386,-0.14311021809137886,-0.4655705066882315,-0.12176085609936087,-0.010122741476361802
5115,8.0,299.79672,1007.1052,0.0,0.0,0.0,-0.05187194988361603,0.0,0.0,-0.07763710021443522,-0.11608487221918488,-0.11241286398928589,-0.5201238211447244,-0.13825847263754887,0.019705501506781582
5116,8.0,300.48141,923.6818900000001,0.0,0.0,0.0,-0.05188209102728829,0.0,0.0,-0.06812043033371303,-0.095096278938522,-0.11755951588472088,-0.4877657399962305,-0.17802396930459785,-0.019029539060319282
5117,8.0,301.44268,1204.0699,0.0,0.0,0.0,-0.05189223217096055,0.0,0.0,-0.1029932756271449,-0.12371582084230089,-0.13929807737264988,-0.5204071157401835,-0.14261161798217087,-0.0036639064847494166
5118,8.0,301.04685,1213.9024,0.0,0.0,0.0,-0.051902373314632815,0.0,0.0,-0.0999174992198394,-0.11517846934222989,-0.15390004482875186,-0.49525183438505055,-0.12435714736059489,-0.03420188931571367
5119,8.0,300.83299999999997,1020.4538,0.0,0.0,0.0,-0.051912514458305074,0.0,0.0,-0.07126898038970074,-0.10470404709598491,-0.13421946522142986,-0.5123394056614625,-0.1082776991386769,-0.01128274960627069
5120,8.0,300.61422000000005,979.50588,0.0,0.0,0.0,-0.051922655601977334,0.0,0.0,-0.06463950992692294,-0.11452354500759389,-0.11858228040315989,-0.4696741189307265,-0.0913238586369631,-0.03630300930607806
5121,8.0,299.77205,1068.7306,0.0,0.0,0.0,-0.051932796745649594,0.0,0.0,-0.1068364724614389,-0.0954710274615068,-0.1225599152607219,-0.4871712965600636,-0.056964638938472145,-0.012665115571949588
5122,8.0,299.48837000000003,1139.0228,0.0,0.0,0.0,-0.051942937889321854,0.0,0.0,-0.1098868618874889,-0.12401830639465389,-0.1123293215185409,-0.47456772174618755,-0.1129548616002769,-0.017094000348296483
5123,8.0,299.7094,1178.1004,0.0,0.0,0.0,-0.05195307903299412,0.0,0.0,-0.08122081383062023,-0.15329081807362585,-0.12360147556851588,-0.5321340367000406,-0.13189016536154588,-0.03413784988289347
5124,8.0,298.88957999999997,1046.7484,0.0,0.0,0.0,-0.05196322017666638,0.0,0.0,-0.07733173601854813,-0.11889121022614889,-0.1219624118092529,-0.5195885312493955,-0.15340498096239286,0.012792330135254687
5125,8.0,299.43432,997.20924,0.0,0.0,0.0,-0.05197336132033864,0.0,0.0,-0.04782426684013766,-0.13557008707472587,-0.1197323496641629,-0.4985643009494655,-0.12328455120223789,-0.03999083639653826
5126,8.0,300.07619,1012.436,0.0,0.0,0.0,-0.0519835024640109,0.0,0.0,-0.06003364480860944,-0.12603815967399787,-0.12168345392422188,-0.5172473560983395,-0.12162537442848988,-0.004766455025337486
5127,8.0,300.24183,936.9820599999999,0.0,0.0,0.0,-0.05199364360768316,0.0,0.0,-0.07663192673098233,-0.10714501724938988,-0.101042202777839,-0.4932828969232315,-0.1351156950673809,-0.02995748293207337
5128,8.0,300.59131,935.8005400000001,0.0,0.0,0.0,-0.05200378475135543,0.0,0.0,-0.08664693428913661,-0.1046942185700149,-0.0931188494276149,-0.4730900991253575,-0.13904129953230787,-0.03347934573565417
5129,8.0,300.81106,1015.9256,0.0,0.0,0.0,-0.052013925895027686,0.0,0.0,-0.08546302754104411,-0.10877050345731289,-0.11458249589841189,-0.4565932019947406,-0.09799439815279411,-0.06436488469931953
5130,8.0,300.50802999999996,1164.7518,0.0,0.0,0.0,-0.052024067038699946,0.0,0.0,-0.1051722091721889,-0.12524047853277287,-0.12364278577509287,-0.47129644379833757,-0.12634584319936387,-0.030043113711274473
5131,8.0,300.34125,1143.4201,0.0,0.0,0.0,-0.052034208182372206,0.0,0.0,-0.08423812064090522,-0.13440511290475188,-0.12892790842919388,-0.5179240349126225,-0.12093002141486389,-0.028358155801982077
5132,8.0,300.11227,1003.51,0.0,0.0,0.0,-0.052044349326044466,0.0,0.0,-0.06484890413958853,-0.09375082668723622,-0.14644227078022687,-0.5468244304923694,-0.11325420607731988,-0.0016376632449747784
5133,8.0,300.06047,1043.4915,0.0,0.0,0.0,-0.05205449046971673,0.0,0.0,-0.10260345804867291,-0.1164559142733039,-0.0981359836422675,-0.5262921027184865,-0.07228435223541013,0.014585038073431185
5134,8.0,299.71679,1112.7484,0.0,0.0,0.0,-0.05206463161338899,0.0,0.0,-0.09223322324396041,-0.12712367477112987,-0.1188908251911109,-0.5328248706182205,-0.1062576837393169,-0.004440421338010466
5135,8.0,299.21038,1069.1823,0.0,0.0,0.0,-0.05207477275706125,0.0,0.0,-0.07817696189421543,-0.11764114331277689,-0.12918662157722688,-0.5190063886694425,-0.13835570411714487,-0.0006948562576319734
5136,8.0,299.36395,1103.9558,0.0,0.0,0.0,-0.05208491390073351,0.0,0.0,-0.07053891849389923,-0.14498699032410187,-0.1200490815129219,-0.5129596261801734,-0.14562060600913487,-0.046095949932566056
5137,8.0,299.21732000000003,1044.6876,0.0,0.0,0.0,-0.05209505504440577,0.0,0.0,-0.059910127594919246,-0.1021207254360309,-0.15552807429442586,-0.46714570529369154,-0.10999863350601988,-0.029589654907271577
5138,8.0,300.33259,994.8240099999999,0.0,0.0,0.0,-0.052105196188078046,0.0,0.0,-0.06557561015105885,-0.11967449308345288,-0.11715155099695788,-0.4865673184404556,-0.11904157654098889,-0.052621788214866155
5139,8.0,300.26945,1004.7384,0.0,0.0,0.0,-0.052115337331750305,0.0,0.0,-0.1033760004549169,-0.1060067624845529,-0.09603263551493323,-0.4797464632722896,-0.11761522437521889,-0.03306331943009557
5140,8.0,300.6325,1106.6599,0.0,0.0,0.0,-0.052125478475422565,0.0,0.0,-0.09276184798013161,-0.12184459108762488,-0.12179053419478988,-0.5072380460454975,-0.13210239059499088,-0.02126112412030958
5141,8.0,300.61117,1055.4707,0.0,0.0,0.0,-0.05213561961909482,0.0,0.0,-0.08732720507502412,-0.12464926736442489,-0.10886026728367189,-0.4729141381129916,-0.1065373002369129,-0.039688031670403766
5142,8.0,300.47333,1144.8174,0.0,0.0,0.0,-0.05214576076276708,0.0,0.0,-0.062224777884857446,-0.12791998802471988,-0.15785113253369384,-0.48155148726543157,-0.12448816059852488,0.01098218821585759
5143,8.0,298.31442000000004,1248.0658,0.0,0.0,0.0,-0.05215590190643934,0.0,0.0,-0.05415828877250695,-0.16236725915690084,-0.16285529106756583,-0.49251086114203757,-0.14913901565637486,-0.01054643089110169
5144,8.0,299.22637000000003,1159.2759,0.0,0.0,0.0,-0.0521660430501116,0.0,0.0,-0.08790789668083392,-0.11924093349816388,-0.14524208616927786,-0.5063464568850046,-0.1064098941693389,0.012036996768709089
5145,8.0,299.41389,979.8782,0.0,0.0,0.0,-0.05217618419378387,0.0,0.0,-0.08706937446782823,-0.08859711547835451,-0.12219201428191288,-0.5304993501812095,-0.07690253138218893,-0.017826106982799784
5146,8.0,300.09562999999997,1036.2485,0.0,0.0,0.0,-0.05218632533745613,0.0,0.0,-0.08724725153613332,-0.1141418840924269,-0.11360452716689388,-0.5282801399446905,-0.07730010133717602,-0.002017136147875838
5147,8.0,299.58007000000003,1135.2734,0.0,0.0,0.0,-0.05219646648112839,0.0,0.0,-0.09437900831198291,-0.12241121067604588,-0.12830454683517287,-0.5383636604348565,-0.12743463109431888,-0.03414407529150787
5148,8.0,300.04528999999997,1095.2418,0.0,0.0,0.0,-0.05220660762480065,0.0,0.0,-0.06693187378091164,-0.1267281829920979,-0.13926609919949387,-0.5046018732603275,-0.13107864322395488,-0.024835719498844677
5149,8.0,300.28322000000003,1030.6572,0.0,0.0,0.0,-0.05221674876847291,0.0,0.0,-0.06623739013587143,-0.10876729145449589,-0.13828937676559885,-0.4865561220268505,-0.15249057340964786,-0.02252947513173608
5150,8.0,300.98025,928.5250599999999,0.0,0.0,0.0,-0.05222688991214517,0.0,0.0,-0.1090994956322819,-0.06363274260106273,-0.10951619473590689,-0.49962770692941555,-0.15156460467326185,-0.017699963424850383
5151,8.0,299.93622999999997,871.77295,0.0,0.0,0.0,-0.05223703105581742,0.0,0.0,-0.0956644366405948,-0.08160783585206632,-0.08772493512352701,-0.4668690474863875,-0.14382749783716886,-0.004387418731904516
5152,8.0,298.86321,1088.1947,0.0,0.0,0.0,-0.05224717219948968,0.0,0.0,-0.1080979891009409,-0.10869305061966889,-0.1139929667252299,-0.49304560388231256,-0.1022143700102729,-0.017705216113368786
5153,8.0,299.05382000000003,1179.0145,0.0,0.0,0.0,-0.05225731334316196,0.0,0.0,-0.12621519473146986,-0.11498829243096088,-0.1171874808455039,-0.4853475071750696,-0.07756902703296692,-0.015125021343223384
5154,8.0,299.57513,1022.836,0.0,0.0,0.0,-0.05226745448683422,0.0,0.0,-0.038931504695240364,-0.12076852961392588,-0.15121656339641285,-0.5274571478159675,-0.1100990364584289,-0.018554390624675784
5155,8.0,299.1532,871.5057400000001,0.0,0.0,0.0,-0.052277595630506477,0.0,0.0,-0.024009440386797275,-0.12012941198084989,-0.12077712197477389,-0.5272420550847395,-0.12757288907046388,-0.009998263397601771
5156,8.0,298.55983,941.8221300000001,0.0,0.0,0.0,-0.052287736774178736,0.0,0.0,-0.05288779676361915,-0.1215709831631219,-0.11183163333442289,-0.5329835759813835,-0.12798966923409688,-0.02119558203759108
5157,8.0,299.19603,1111.667,0.0,0.0,0.0,-0.052297877917850996,0.0,0.0,-0.10403283983224192,-0.12736049158450188,-0.1065256579932639,-0.5017291471068115,-0.12941186707445687,-0.04321725168296066
5158,8.0,298.85128,1051.6335,0.0,0.0,0.0,-0.05230801906152326,0.0,0.0,-0.097126639621403,-0.1033473761395919,-0.11919629983125889,-0.5287500144135635,-0.0968477253061263,-0.043157213574785365
5159,8.0,299.71931,945.9771,0.0,0.0,0.0,-0.05231816020519552,0.0,0.0,-0.08389039448483733,-0.1029685117947009,-0.1006945110722745,-0.4888961319402915,-0.13120756916667886,-0.043659909240897556
5160,8.0,299.47328999999996,853.08554,0.0,0.0,0.0,-0.05232830134886778,0.0,0.0,-0.03522570457450637,-0.09819383819647731,-0.12589715579008187,-0.45158680417814756,-0.0992811487727865,-0.031625223695666574
5161,8.0,299.89162999999996,938.5197699999999,0.0,0.0,0.0,-0.05233844249254004,0.0,0.0,-0.05050277118798545,-0.11367736971658289,-0.12110643838977488,-0.43519971296086757,-0.1091519414574579,-0.029587266676785868
5162,8.0,300.54443,1311.2235,0.0,0.0,0.0,-0.0523485836362123,0.0,0.0,-0.14393786103806086,-0.09798990236210041,-0.15665145454779486,-0.4872759754278945,-0.12068748987092788,0.018085849592934383
5163,8.0,300.77524,1318.5778,0.0,0.0,0.0,-0.05235872477988457,0.0,0.0,-0.13990393000494286,-0.1269652429854939,-0.13394554318939586,-0.5025680776596075,-0.14378902473087185,-0.016192953511370085
5164,8.0,300.13023,1032.5986,0.0,0.0,0.0,-0.05236886592355683,0.0,0.0,-0.0948562004730781,-0.12497569601664088,-0.09405230101598941,-0.5322280764418215,-0.10864464766239189,-0.004441576139149436
5165,8.0,301.04573,1247.6546,0.0,0.0,0.0,-0.05237900706722909,0.0,0.0,-0.1105524557456779,-0.1281378671937229,-0.14056553165773786,-0.4954959263341405,-0.0996142557564116,-0.024401304730471276
5166,8.0,300.82524,1368.4169,0.0,0.0,0.0,-0.05238914821090135,0.0,0.0,-0.08098884541897672,-0.14905838121341686,-0.18591732943861183,-0.5498587700368355,-0.1040140744403899,-0.007599307963568304
5167,8.0,299.95346,961.01447,0.0,0.0,0.0,-0.05239928935457361,0.0,0.0,-0.06161827677250044,-0.09573860249491441,-0.13476752206801887,-0.4999630015200065,-0.12750418058118287,-0.02000731122131788
5168,8.0,299.87649,750.76013,0.0,0.0,0.0,-0.052409430498245875,0.0,0.0,-0.04343540341624055,-0.06938352966987123,-0.11539339995344189,-0.5295831998382925,-0.11967773548377289,-0.019613428483444682
5169,8.0,300.19214,746.21108,0.0,0.0,0.0,-0.052419571641918135,0.0,0.0,-0.06767231642398763,-0.09059454249323522,-0.06856267651210933,-0.4570323648530825,-0.09338733435961231,-0.02242458652113438
5170,8.0,299.78595,824.44993,0.0,0.0,0.0,-0.052429712785590395,0.0,0.0,-0.08508784737351673,-0.06539215007470274,-0.1001321957702783,-0.5036713854284954,-0.12797774328041986,-0.01963647992321968
5171,8.0,299.20946000000004,1197.2751,0.0,0.0,0.0,-0.052439853929262654,0.0,0.0,-0.09385083953835673,-0.1362878025180589,-0.13380310049033786,-0.49808789101744755,-0.13896841645261487,-0.03170616008715437
5172,8.0,299.60552,1240.3052,0.0,0.0,0.0,-0.052449995072934914,0.0,0.0,-0.057091180703710845,-0.15232294131310387,-0.16760768734909084,-0.5208630174901775,-0.1339157536364559,-0.036988255149956566
5173,8.0,299.97891,1012.6995,0.0,0.0,0.0,-0.05246013621660718,0.0,0.0,-0.04216585372994575,-0.12914137996026187,-0.13652813530927788,-0.4839452196991745,-0.14433435593469185,-0.02914753741163797
5174,8.0,300.49601,1043.3784,0.0,0.0,0.0,-0.05247027736027944,0.0,0.0,-0.05771131712266354,-0.12779264275215188,-0.13165703677853788,-0.4869606823942776,-0.1333377147194079,-0.023333645126601476
5175,8.0,299.89079,1162.1899,0.0,0.0,0.0,-0.0524804185039517,0.0,0.0,-0.11567261115099789,-0.12407824013806888,-0.11352585842912989,-0.49702872042291546,-0.15252372695291988,-0.02033350682601088
5176,8.0,299.69376,943.9685800000001,0.0,0.0,0.0,-0.05249055964762396,0.0,0.0,-0.08162810592031683,-0.10826076772950588,-0.0970540047879845,-0.5043835279962786,-0.1075457576639399,-0.017342318563553585
5177,8.0,300.38317,599.25812,0.0,0.0,0.0,-0.05250070079129622,0.0,0.0,-0.01155593297898179,-0.08469637110463102,-0.08590720193438073,-0.5099766786807794,-0.0994270152439324,-0.037369154101048366
5178,8.0,301.44307000000003,911.7154099999999,0.0,0.0,0.0,-0.05251084193496849,0.0,0.0,-0.037322456443689665,-0.08953232910865291,-0.15028393760686987,-0.5115808359740975,-0.09690589498111721,0.0002020434276951338
5179,8.0,301.82605,1352.36,0.0,0.0,0.0,-0.05252098307864075,0.0,0.0,-0.09582471254141281,-0.14774597915389287,-0.16751297886224384,-0.5318794981424194,-0.11994347045499888,-0.012995930583848488
5180,8.0,301.09997999999996,1345.9588,0.0,0.0,0.0,-0.05253112422231301,0.0,0.0,-0.10828661573955689,-0.14344220948664385,-0.15740905151506385,-0.5198155195367975,-0.10871832107716291,0.005027174307243475
5181,8.0,300.0437,1267.5739,0.0,0.0,0.0,-0.05254126536598527,0.0,0.0,-0.13940895733109288,-0.12858619996546988,-0.11731566711565489,-0.5008134223289364,-0.12712368490363088,-0.014527646574517087
5182,8.0,300.58153,1302.2002,0.0,0.0,0.0,-0.052551406509657526,0.0,0.0,-0.12465943026292788,-0.1375338873585379,-0.13364301710703888,-0.4964836121341175,-0.15312376352963886,-0.0002274688820569308
5183,8.0,300.20583999999997,1203.7073,0.0,0.0,0.0,-0.05256154765332979,0.0,0.0,-0.12126748436066889,-0.11778124540410388,-0.1268482429964469,-0.46751191414483356,-0.13554972074771587,-0.046564358228544364
5184,8.0,299.36931,1202.1666,0.0,0.0,0.0,-0.05257168879700205,0.0,0.0,-0.07799836339183912,-0.13241737965357786,-0.15501287714857984,-0.48183094164301155,-0.11943310651212988,-0.02118635436893038
5185,8.0,299.63912999999997,1040.1002,0.0,0.0,0.0,-0.05258182994067431,0.0,0.0,-0.06267123310416914,-0.13373957984156887,-0.11975366844626689,-0.49001458779817453,-0.12638275590050688,-0.016677965936737087
5186,8.0,299.75371,724.43286,0.0,0.0,0.0,-0.05259197108434657,0.0,0.0,-0.025119776058378878,-0.08223727289368692,-0.1128524524126699,-0.5271672468298565,-0.1344949577911189,-0.009125459792637762
5187,8.0,300.11687,852.52717,0.0,0.0,0.0,-0.05260211222801883,0.0,0.0,-0.07771586926395914,-0.12938516793432187,-0.052045938931284244,-0.5508752220071514,-0.13235761816267988,-0.032030965512710174
5188,8.0,300.7406,1159.3147,0.0,0.0,0.0,-0.0526122533716911,0.0,0.0,-0.09241927420082222,-0.13189380292940486,-0.12808962635646187,-0.5465141226492445,-0.12027883597309688,-0.04623067267911216
5189,8.0,300.86859,1183.2487,0.0,0.0,0.0,-0.05262239451536336,0.0,0.0,-0.0926628483791111,-0.13843810161527687,-0.12857711111207287,-0.5496107061473534,-0.11876300369099589,-0.037049943842544765
5190,8.0,301.30917,1170.6293,0.0,0.0,0.0,-0.05263253565903562,0.0,0.0,-0.06039315202359004,-0.14955501561743084,-0.14589390995860785,-0.5055810072294605,-0.11481693157404889,-0.05104146256390015
5191,8.0,300.61206,1133.4628,0.0,0.0,0.0,-0.05264267680270788,0.0,0.0,-0.08526654618765292,-0.11180519763931389,-0.14747263467441588,-0.4752677559752756,-0.10996925938562091,-0.03296198226109437
5192,8.0,300.15648,1112.8029,0.0,0.0,0.0,-0.05265281794638014,0.0,0.0,-0.09011007924942241,-0.1113543520073189,-0.13679986872109587,-0.46148091782712053,-0.10397081879362091,-0.03419046492083617
5193,8.0,300.26,975.3376,0.0,0.0,0.0,-0.052662959090052405,0.0,0.0,-0.07886030789415643,-0.11537540463166589,-0.10224255862805491,-0.47371479820951057,-0.12754451806766387,-0.02038008998610828
5194,8.0,299.42719,905.31195,0.0,0.0,0.0,-0.052673100233724665,0.0,0.0,-0.08933420527684961,-0.08084266788005012,-0.1050153580567089,-0.5149574817998465,-0.15873013712794484,-0.007078488596892432
5195,8.0,299.15332,936.7014,0.0,0.0,0.0,-0.052683241377396925,0.0,0.0,-0.07441556879349483,-0.1087144808592839,-0.10160378550001291,-0.5068940577690486,-0.12346124175467588,-0.022835194978408278
5196,8.0,299.45063,949.24325,0.0,0.0,0.0,-0.052693382521069185,0.0,0.0,-0.060466253965304646,-0.096650614724423,-0.13142937974606989,-0.5267362203698175,-0.1155804256568999,-0.00993935820436328
5197,8.0,299.60753,1053.0311,0.0,0.0,0.0,-0.052703523664741445,0.0,0.0,-0.07747278043246812,-0.10012207745477972,-0.14250030232618488,-0.5065812674631786,-0.08810215597675582,-0.0038127423866383767
5198,8.0,299.71887000000004,1316.1634,0.0,0.0,0.0,-0.052713664808413704,0.0,0.0,-0.12925925134439487,-0.11867416192222789,-0.15214739573327885,-0.5407976695600745,-0.10937254626922989,0.009546616487427691
5199,8.0,299.24112,1264.4099,0.0,0.0,0.0,-0.052723805952085964,0.0,0.0,-0.14102944821602287,-0.1100793186114829,-0.13324028058979187,-0.4942128679975125,-0.08850001977427191,-0.005839267715240855
5200,8.0,299.31144,1167.5686,0.0,0.0,0.0,-0.05273394709575824,0.0,0.0,-0.12269090823364988,-0.1155588535622709,-0.1166619485486379,-0.4995149625907886,-0.11882709175982088,-0.029973518628155973
5201,8.0,299.93061,1230.0664,0.0,0.0,0.0,-0.0527440882394305,0.0,0.0,-0.0996776163116648,-0.12485252533448488,-0.14937932818259186,-0.4797555419931855,-0.12866825295856787,-0.019147309119442284
5202,8.0,300.69276,927.9075300000001,0.0,0.0,0.0,-0.05275422938310276,0.0,0.0,-0.04589601947583446,-0.10612072272329989,-0.13004397301684087,-0.5166541082972904,-0.15152180498903786,-0.03303448435874977
5203,8.0,300.79299,911.91315,0.0,0.0,0.0,-0.05276437052677501,0.0,0.0,-0.038379569127268566,-0.13805017881449186,-0.1007690802001339,-0.5129583494850475,-0.12112161687627289,-0.02320273726668188
5204,8.0,300.07235,945.7788099999999,0.0,0.0,0.0,-0.05277451167044727,0.0,0.0,-0.06681866841348914,-0.09880646947193931,-0.12186800729743588,-0.5108413153886124,-0.10965113938422488,-0.04097820808898426
5205,8.0,300.17942,826.41136,0.0,0.0,0.0,-0.05278465281411953,0.0,0.0,-0.06133396690044124,-0.1057459215113099,-0.08412852548358903,-0.5181232905447875,-0.12149788730090788,-0.010292084850999689
5206,8.0,299.9558,817.91706,0.0,0.0,0.0,-0.05279479395779179,0.0,0.0,-0.06016000317558003,-0.10368711889812189,-0.08477923875080942,-0.48930827141846656,-0.15038404671674985,-0.04756137403544216
5207,8.0,299.04532,1108.872,0.0,0.0,0.0,-0.05280493510146405,0.0,0.0,-0.05609063574671474,-0.12147284989093687,-0.15950592193450885,-0.4794905669595345,-0.12226294178891288,-0.024370958903226377
5208,8.0,299.8878,1239.7174,0.0,0.0,0.0,-0.05281507624513632,0.0,0.0,-0.07517135913583553,-0.14538726464360585,-0.15628451615658087,-0.4663934988169545,-0.13934553800733387,-0.050335165435944046
5209,8.0,299.82855,1126.1536,0.0,0.0,0.0,-0.05282521738880858,0.0,0.0,-0.08450001336775202,-0.0995572908357896,-0.15826526811456584,-0.5111630830903685,-0.11172269881617189,-0.023131115683363377
5210,8.0,299.45831,1172.6002,0.0,0.0,0.0,-0.05283535853248084,0.0,0.0,-0.12042249457227489,-0.1075454739539119,-0.12847322257931987,-0.5465880291115385,-0.14359862490458086,-0.007201854025717653
5211,8.0,299.4366,1101.1589999999999,0.0,0.0,0.0,-0.0528454996761531,0.0,0.0,-0.1107173824644549,-0.099138467959955,-0.12486900078111089,-0.5427932960295275,-0.1030758251127919,0.007051618420140554
5212,8.0,300.05085,1052.3749,0.0,0.0,0.0,-0.052855640819825356,0.0,0.0,-0.09068800366920911,-0.09999704543219,-0.1292106457370979,-0.5277696341468076,-0.1110152273313499,-0.010185468648977491
5213,8.0,299.44147999999996,1207.5868,0.0,0.0,0.0,-0.05286578196349763,0.0,0.0,-0.07101291993042953,-0.12241742189915888,-0.17364588787501484,-0.5223729222591935,-0.1073008145847659,-0.011610297899847188
5214,8.0,299.14297,1216.6723,0.0,0.0,0.0,-0.05287592310716989,0.0,0.0,-0.10623142029672489,-0.11252668237301888,-0.15107988609042386,-0.49224889546118356,-0.15631468061205786,0.006405859033984064
5215,8.0,299.4596,1011.8755,0.0,0.0,0.0,-0.05288606425084215,0.0,0.0,-0.08117871328896521,-0.12384597281764588,-0.10256021253440491,-0.47737264120301154,-0.10963275902741089,-0.039158165702860064
5216,8.0,300.57658,1044.7887,0.0,0.0,0.0,-0.05289620539451441,0.0,0.0,-0.1172862423327509,-0.1041289770017299,-0.09617445810493,-0.44678510314675657,-0.11554826509872589,-0.024849049817160275
5217,8.0,300.66117,1322.5020000000002,0.0,0.0,0.0,-0.05290634653818667,0.0,0.0,-0.12225142113527587,-0.13341641385467487,-0.14633975013510886,-0.5225830601974325,-0.12218822472653888,-0.012136098707989687
5218,8.0,300.15226,1153.9162,0.0,0.0,0.0,-0.052916487681858936,0.0,0.0,-0.08595575181292223,-0.12619497025947388,-0.13861098234733887,-0.5126162255887825,-0.14318673873893087,-0.040282097164283465
5219,8.0,299.95255,942.4861099999999,0.0,0.0,0.0,-0.052926628825531195,0.0,0.0,-0.001129026792201269,-0.14078680521457587,-0.14457641125108087,-0.5313634802639925,-0.13309246766520388,-0.04510361838088055
5220,8.0,300.3144,1071.3582,0.0,0.0,0.0,-0.052936769969203455,0.0,0.0,-0.05925501783551495,-0.14574024044844186,-0.12067089283428988,-0.5067933103116056,-0.14297845504837486,-0.048173082240063045
5221,8.0,299.8462,1024.9477,0.0,0.0,0.0,-0.052946911112875715,0.0,0.0,-0.052783340810810146,-0.12548412465181888,-0.13329103428730088,-0.5481078333340315,-0.14987508105901887,-0.02648475161259147
5222,8.0,299.97697999999997,895.1850800000001,0.0,0.0,0.0,-0.052957052256547975,0.0,0.0,-0.08571944770410082,-0.12269734237178488,-0.06369712248591654,-0.5353184183193145,-0.16064599041702485,-0.02058716081629458
5223,8.0,299.47352,966.9462800000001,0.0,0.0,0.0,-0.05296719340022024,0.0,0.0,-0.09614579528610122,-0.1023953770081369,-0.0953863562301504,-0.5148158699658705,-0.1036121079932189,-0.008636170945223712
5224,8.0,299.47247000000004,1150.4914,0.0,0.0,0.0,-0.0529773345438925,0.0,0.0,-0.07252755657741253,-0.15904032338105786,-0.1181527636857699,-0.48284693765078257,-0.1029931135071289,-0.027282363852809674
5225,8.0,300.07136,1105.45,0.0,0.0,0.0,-0.05298747568756476,0.0,0.0,-0.059161113869247356,-0.12770476357097887,-0.14916331339377287,-0.48416991804135057,-0.1056066198875619,-0.020147162026620084
5226,8.0,300.52583,1290.2721,0.0,0.0,0.0,-0.05299761683123702,0.0,0.0,-0.08055099167976393,-0.14372448069950186,-0.16793503805889784,-0.5134614585572005,-0.16414425665227683,-0.01900185301458688
5227,8.0,299.1485,1302.3717,0.0,0.0,0.0,-0.05300775797490928,0.0,0.0,-0.1106868228414389,-0.13414174893875988,-0.15105991493095286,-0.4871774773856735,-0.1198892311771459,-0.012694049941805188
5228,8.0,299.09591,1058.2565,0.0,0.0,0.0,-0.05301789911858155,0.0,0.0,-0.11889354070137888,-0.11111939957413089,-0.0916706171391855,-0.4932833630182775,-0.11531716301591788,-0.017311328309245085
5229,8.0,299.97524,1001.5855,0.0,0.0,0.0,-0.05302804026225381,0.0,0.0,-0.09337987075937572,-0.092895003228773,-0.1181820972761649,-0.5257417660591726,-0.1019024916294929,0.0008033221274467213
5230,8.0,300.28187,1132.2619,0.0,0.0,0.0,-0.05303818140592607,0.0,0.0,-0.08320731496967262,-0.09688499771105481,-0.16408703841912983,-0.5438023006116085,-0.12345363224642487,0.001081861317271399
5231,8.0,300.20974,1129.8284,0.0,0.0,0.0,-0.05304832254959833,0.0,0.0,-0.06874237337759403,-0.11757493755124289,-0.15712231186926484,-0.5399966750910224,-0.08801051459796151,-0.007104584954542943
5232,8.0,300.00433,926.4840199999999,0.0,0.0,0.0,-0.05305846369327059,0.0,0.0,-0.05489921473588065,-0.08771178313722901,-0.13901701192741087,-0.5029274065425705,-0.11032808164353389,-0.024138204209505278
5233,8.0,300.22941000000003,1009.2315,0.0,0.0,0.0,-0.053068604836942854,0.0,0.0,-0.07642190531650483,-0.1088371246513879,-0.1215221445083019,-0.5228096330522936,-0.14330648463574888,0.0017223941567620683
5234,8.0,300.55096000000003,1104.2526,0.0,0.0,0.0,-0.053078745980615114,0.0,0.0,-0.14504022648435586,-0.1089741869924149,-0.08165079259005582,-0.5222177632713805,-0.15176706217574285,-0.013910160817825987
5235,8.0,300.15776,1190.6365,0.0,0.0,0.0,-0.05308888712428737,0.0,0.0,-0.1024519771587229,-0.14250505446915387,-0.11696672404621689,-0.5052200774113396,-0.1163551364183579,-0.042130099173667064
5236,8.0,299.67287999999996,1300.503,0.0,0.0,0.0,-0.05309902826795963,0.0,0.0,-0.1072418535614469,-0.15776503667269687,-0.13031356847094788,-0.48589997165959353,-0.11339792547150389,-0.05971044741096235
5237,8.0,299.34367000000003,1140.9643,0.0,0.0,0.0,-0.05310916941163189,0.0,0.0,-0.049211825712579045,-0.15741170623032585,-0.14020111625927287,-0.4850982983129745,-0.1069473524198819,-0.04603702538625066
5238,8.0,299.04536,848.34883,0.0,0.0,0.0,-0.05311931055530416,0.0,0.0,-0.031815385408184065,-0.0964141636943371,-0.12964730586769288,-0.49909110994145756,-0.12763109015620788,-0.028857630346026373
5239,8.0,300.20947,920.16571,0.0,0.0,0.0,-0.05312945169897642,0.0,0.0,-0.056111936290316945,-0.1071814131929819,-0.1164140467791719,-0.4799274804026546,-0.09946297042373091,-0.007299907149819744
5240,8.0,300.23325,959.7012599999999,0.0,0.0,0.0,-0.05313959284264868,0.0,0.0,-0.11405431901878489,-0.08759037449699691,-0.09008053186325632,-0.5171255229063155,-0.14050431108669587,-0.02071023219994078
5241,8.0,299.51386,860.2746800000001,0.0,0.0,0.0,-0.05314973398632094,0.0,0.0,-0.07020985336492302,-0.08968351514282381,-0.1016086491004929,-0.5229780960139195,-0.12559327195259087,-0.021161793186506378
5242,8.0,299.98924,979.61975,0.0,0.0,0.0,-0.0531598751299932,0.0,0.0,-0.06477743454378504,-0.1033681984291469,-0.1296343058689099,-0.5511206210488705,-0.15248921565451384,-0.03138010937722568
5243,8.0,299.62663,1264.5668,0.0,0.0,0.0,-0.053170016273665466,0.0,0.0,-0.07590914199739902,-0.13236800397620488,-0.17611959613915082,-0.5211128140373306,-0.10865137564305588,-0.023779414375595477
5244,8.0,299.47968,1333.7679,0.0,0.0,0.0,-0.053180157417337726,0.0,0.0,-0.08547434351816093,-0.15528003066994586,-0.16467776322742983,-0.5254584917287155,-0.12016400433926389,-0.02107463949240498
5245,8.0,300.77096,1209.5439999999999,0.0,0.0,0.0,-0.053190298561009985,0.0,0.0,-0.09377504539112641,-0.12574501628756687,-0.14815110694137587,-0.49809921915356553,-0.11451992770473689,0.002112021244215268
5246,8.0,300.61401,1027.0742,0.0,0.0,0.0,-0.053200439704682245,0.0,0.0,-0.1081155385926729,-0.08325843141071741,-0.12083093568758488,-0.47604454389943857,-0.11917174878133588,0.014942484337708384
5247,8.0,300.26241,1023.9863,0.0,0.0,0.0,-0.053210580848354505,0.0,0.0,-0.08384379713923852,-0.1128664352640499,-0.1145560500708019,-0.48705678916626255,-0.1151298130724279,-0.021740509967871274
5248,8.0,300.86392,1224.3391,0.0,0.0,0.0,-0.05322072199202677,0.0,0.0,-0.11904961161428189,-0.1086118690216569,-0.14450703401673384,-0.4961797181641255,-0.1096649195855849,-0.03071587530067087
5249,8.0,300.6742,1133.1421,0.0,0.0,0.0,-0.05323086313569903,0.0,0.0,-0.08074417591732973,-0.11838656101384387,-0.14531616488408886,-0.5254126320291895,-0.13772500659239986,-0.04477142230909536
5250,8.0,299.79712,893.5671699999999,0.0,0.0,0.0,-0.05324100427937129,0.0,0.0,-0.05496328253970365,-0.094253720950368,-0.12240510077794288,-0.5064463836098666,-0.13311710990763587,-0.019107118554225783
5251,8.0,299.7981,925.26605,0.0,0.0,0.0,-0.05325114542304355,0.0,0.0,-0.07953017057501671,-0.09045380205434522,-0.11127379862436888,-0.5250509726709964,-0.13596932787912788,-0.03283015538333407
5252,8.0,299.26855,1203.376,0.0,0.0,0.0,-0.05326128656671581,0.0,0.0,-0.12081412586842588,-0.12263402437303587,-0.12234809532731689,-0.5319866898704985,-0.12192418188297989,-0.007554686759639532
5253,8.0,299.69104,1353.3252,0.0,0.0,0.0,-0.05327142771038807,0.0,0.0,-0.12854826388172588,-0.14511993886972285,-0.13770887565080786,-0.5427455618173165,-0.11608278492397889,-0.03222203611056737
5254,8.0,299.45195,1152.1721,0.0,0.0,0.0,-0.05328156885406033,0.0,0.0,-0.09340901892500242,-0.11725904670006689,-0.13956348810384386,-0.5166867045530075,-0.1110662343413839,-0.015129856572700587
5255,8.0,299.57882,974.10229,0.0,0.0,0.0,-0.05329170999773259,0.0,0.0,-0.05421173974178215,-0.12294871958909388,-0.1189423084286919,-0.4907238426031725,-0.0955308173234076,-0.04342507434472116
5256,8.0,299.26417999999995,1041.1787,0.0,0.0,0.0,-0.05330185114140485,0.0,0.0,-0.06796230353635714,-0.11134709713660289,-0.13718291778889988,-0.5191859669846655,-0.1023438127105479,-0.025953420485403177
5257,8.0,299.60895,1032.5922,0.0,0.0,0.0,-0.05331199228507712,0.0,0.0,-0.08164141394713022,-0.11841051424620788,-0.11383032995167888,-0.5060084569166465,-0.1269835118847969,-0.006451342007122884
5258,8.0,299.5882,962.2562800000001,0.0,0.0,0.0,-0.05332213342874938,0.0,0.0,-0.06474970796804864,-0.1105076498262559,-0.11724452682613389,-0.5206353908552125,-0.13737531371788786,0.008248923171655332
5259,8.0,300.37288,995.4596300000001,0.0,0.0,0.0,-0.05333227457242164,0.0,0.0,-0.08255498860829301,-0.10777058772862891,-0.11226929658261689,-0.49109508730731155,-0.13914996047303188,-0.010429772367338391
5260,8.0,300.23922999999996,1094.6864,0.0,0.0,0.0,-0.0533424157160939,0.0,0.0,-0.07407078815546764,-0.14147674747266786,-0.1172097926127059,-0.5100628049392795,-0.14770113270446686,-0.04566371263865755
5261,8.0,301.35326000000003,1347.358,0.0,0.0,0.0,-0.053352556859766156,0.0,0.0,-0.1055744897268909,-0.14702992544072385,-0.15695876317062385,-0.5176447527875594,-0.13679916957852686,-0.04594752905791805
5262,8.0,301.72634,1410.1997,0.0,0.0,0.0,-0.053362698003438416,0.0,0.0,-0.11461614593423289,-0.14416008704999286,-0.16988926312926483,-0.5313200624972075,-0.1154694443734469,-0.03885352800729466
5263,8.0,300.55035,1092.9668,0.0,0.0,0.0,-0.05337283914711069,0.0,0.0,-0.1075241855693109,-0.10117045693574671,-0.12353997128744588,-0.5137829020189245,-0.10402217030868889,-0.008110869770705522
5264,8.0,299.7502,1073.5676,0.0,0.0,0.0,-0.05338298029078294,0.0,0.0,-0.09546264990968001,-0.1047379403118299,-0.1261371440762669,-0.5303888755228066,-0.11816312923429288,-0.002293961445421368
5265,8.0,300.4057,1171.313,0.0,0.0,0.0,-0.0533931214344552,0.0,0.0,-0.11246032462396989,-0.12212078279988288,-0.12146879689053688,-0.5368805459984844,-0.11776002794700989,0.0025223452821860975
5266,8.0,299.96531,1032.2602,0.0,0.0,0.0,-0.05340326257812746,0.0,0.0,-0.06342716023527334,-0.11109977291969389,-0.13925440629333985,-0.5411769493375065,-0.09394613267051141,0.013579758198717788
5267,8.0,299.6818,1069.731,0.0,0.0,0.0,-0.05341340372179972,0.0,0.0,-0.06097332079234824,-0.13750487800817487,-0.1266933271886579,-0.4945059100589335,-0.12631257819858088,-0.02288137283846568
5268,8.0,299.84812999999997,1169.8177,0.0,0.0,0.0,-0.053423544865471996,0.0,0.0,-0.09260067737947532,-0.13883620757956686,-0.12415847941348788,-0.5076728924584135,-0.13475869665964788,-0.027266658476259677
5269,8.0,299.50017,1102.253,0.0,0.0,0.0,-0.053433686009144256,0.0,0.0,-0.08439594143673092,-0.1270885352576619,-0.12357291204819688,-0.48457863273418755,-0.14285872941655886,-0.040888583077888965
5270,8.0,299.97573,1048.5375,0.0,0.0,0.0,-0.053443827152816516,0.0,0.0,-0.07534261360148703,-0.12740724294411587,-0.11597936248627189,-0.49254260626767055,-0.12408438043367488,-0.029239728985236572
5271,8.0,299.49572,1080.8801,0.0,0.0,0.0,-0.053453968296488776,0.0,0.0,-0.05930915781485815,-0.12957220377028086,-0.13967921139776487,-0.48828275085975553,-0.1201091267138479,-0.04880560564148825
5272,8.0,298.69696,982.8688800000001,0.0,0.0,0.0,-0.053464109440161035,0.0,0.0,-0.059677392152950044,-0.11453824726654491,-0.12455196495732188,-0.5188386552478884,-0.14946203978825484,-0.04326844918401346
5273,8.0,298.8159,823.67865,0.0,0.0,0.0,-0.0534742505838333,0.0,0.0,-0.04542075248992925,-0.1020655033055809,-0.1028914845220989,-0.5280872171256504,-0.14115817150872687,-0.05980054054360384
5274,8.0,299.38615,849.4992,0.0,0.0,0.0,-0.05348439172750556,0.0,0.0,-0.06796742450236254,-0.09146967444560401,-0.098789443830509,-0.5486944139494224,-0.12179809304053588,-0.019210980742476184
5275,8.0,300.4906,1222.2499,0.0,0.0,0.0,-0.05349453287117782,0.0,0.0,-0.1112714681491389,-0.12143655527235489,-0.13882541646600188,-0.5269751751409005,-0.12208417407376988,0.0002108181735611338
5276,8.0,300.23507,1368.8114,0.0,0.0,0.0,-0.05350467401485008,0.0,0.0,-0.11825965143881889,-0.14370684001526088,-0.15411798479276087,-0.5272478508753116,-0.12157501589851986,0.006282698585654074
5277,8.0,299.563,1167.4785,0.0,0.0,0.0,-0.05351481515852234,0.0,0.0,-0.07434285391331844,-0.11880940041307488,-0.16173207293421285,-0.48632306437134953,-0.1034829186054689,-0.008273524681433312
5278,8.0,299.67163999999997,1217.2698,0.0,0.0,0.0,-0.05352495630219461,0.0,0.0,-0.05691930004949754,-0.13424222281867587,-0.17885809705191982,-0.5008819484331994,-0.093194702343351,-0.01270129366677009
5279,8.0,299.96045,1334.6634,0.0,0.0,0.0,-0.05353509744586687,0.0,0.0,-0.1053952761817039,-0.13764388578939388,-0.16266519521630485,-0.4980032137065905,-0.11312371972944188,-0.0077875740877987225
5280,8.0,300.22292000000004,1311.3368,0.0,0.0,0.0,-0.05354523858953913,0.0,0.0,-0.11846719545680189,-0.1268721050363019,-0.15327435275950085,-0.5063405395044205,-0.15056837717494187,-0.02133449558655078
5281,8.0,300.22691000000003,1017.8401,0.0,0.0,0.0,-0.05355537973321139,0.0,0.0,-0.1177053124416099,-0.1050220252423669,-0.08667065346072751,-0.4909559680685815,-0.15694319964908784,-0.02268474355055988
5282,8.0,300.5155,757.14022,0.0,0.0,0.0,-0.05356552087688365,0.0,0.0,-0.04987292985957495,-0.07314219003507214,-0.1071365971410589,-0.4955285327223585,-0.1314905699196089,-0.006152696267348844
5283,8.0,299.94684,868.7412400000001,0.0,0.0,0.0,-0.053575662020555914,0.0,0.0,-0.05668674800579645,-0.11795985099923088,-0.08942904852595991,-0.5024662662895595,-0.15080731168102285,-0.023769777353894378
5284,8.0,299.93137,1274.7781,0.0,0.0,0.0,-0.053585803164228174,0.0,0.0,-0.07674005267565352,-0.1294621344119179,-0.18129850991776983,-0.5275161696342925,-0.14826338518495685,-0.026278443759730475
5285,8.0,300.28384,1494.1332,0.0,0.0,0.0,-0.053595944307900434,0.0,0.0,-0.15783571086717185,-0.15725412557477386,-0.13908934785204985,-0.5082597770488345,-0.13078382797485885,-0.04250870817953286
5286,8.0,299.82811,1189.6447,0.0,0.0,0.0,-0.053606085451572694,0.0,0.0,-0.1004441106280619,-0.13948649122874485,-0.12169169164753489,-0.5053947110660745,-0.08788023900610432,-0.03142914257606487
5287,8.0,298.79152,1009.9866,0.0,0.0,0.0,-0.053616226595244953,0.0,0.0,-0.08888822223208452,-0.11424647176774888,-0.10387599884926291,-0.5159144154592885,-0.10166462103601691,-0.03469949745307377
5288,8.0,300.20229,1246.6506,0.0,0.0,0.0,-0.05362636773891722,0.0,0.0,-0.09528832225647521,-0.13349942943536788,-0.15016291501492587,-0.5293535872331314,-0.1099545368616679,-0.0057450111379384544
5289,8.0,299.40968,1160.4121,0.0,0.0,0.0,-0.05363650888258948,0.0,0.0,-0.08195919957599322,-0.13820206500448187,-0.13257504136913786,-0.5355447783916545,-0.10274271914241691,-0.03956032264104986
5290,8.0,300.87572,944.40695,0.0,0.0,0.0,-0.05364665002626174,0.0,0.0,-0.03923839079277766,-0.10897516984501189,-0.13886257234716887,-0.5185885445932045,-0.0990871052991359,-0.027628625862483075
5291,8.0,300.16035,799.98649,0.0,0.0,0.0,-0.053656791169934,0.0,0.0,-0.05623509886647214,-0.1068814506333779,-0.08005937083724472,-0.5327122681346075,-0.1237075223239819,-0.04671184286009995
5292,8.0,299.51602,1081.6097,0.0,0.0,0.0,-0.05366693231360626,0.0,0.0,-0.08919068751943551,-0.11944530604333388,-0.12014634339002088,-0.5153088668020255,-0.14682889662088386,-0.02827683944170677
5293,8.0,299.76919,1305.2431,0.0,0.0,0.0,-0.053677073457278526,0.0,0.0,-0.14555426852508788,-0.1122427899600009,-0.13896425199470386,-0.4890513314581086,-0.1327552985619279,-0.01742968706667618
5294,8.0,300.43298,1288.286,0.0,0.0,0.0,-0.053687214600950786,0.0,0.0,-0.11071588285430688,-0.13021216240093988,-0.15067873024333286,-0.4872853074613155,-0.13535166075066887,0.009980581068781661
5295,8.0,299.99574,1010.6989,0.0,0.0,0.0,-0.053697355744623046,0.0,0.0,-0.07332152415702103,-0.09585813560921141,-0.13804756462923387,-0.5065713680097015,-0.12362826590115988,-0.0032496340137889066
5296,8.0,300.15229,1082.4709,0.0,0.0,0.0,-0.053707496888295306,0.0,0.0,-0.06051457687582375,-0.11981088667941388,-0.14871866885238985,-0.5338791472147695,-0.14634224273035484,-0.012423722921125988
5297,8.0,298.79603,1373.6858,0.0,0.0,0.0,-0.053717638031967566,0.0,0.0,-0.14968491428025085,-0.1320691255942079,-0.13581214239111486,-0.5262685243886595,-0.1018104682554109,-0.004749885143802165
5298,8.0,299.53665,1443.0164,0.0,0.0,0.0,-0.05372777917563983,0.0,0.0,-0.12848077129256488,-0.12855295522968888,-0.18160721682573683,-0.5357934603636976,-0.09882257913527921,-0.018264313333047382
5299,8.0,299.36702,1035.7722,0.0,0.0,0.0,-0.05373792031931209,0.0,0.0,-0.08580606741539952,-0.12174650847794488,-0.1072963157543219,-0.5228200188658185,-0.1066839681888879,-0.007480382799331303
5300,8.0,299.4621,815.01682,0.0,0.0,0.0,-0.053748061462984345,0.0,0.0,-0.02923687364645477,-0.1050921928117919,-0.1134156877457569,-0.5186294494997414,-0.12096252647807187,-0.046519243267841855
5301,8.0,299.29212,1032.636,0.0,0.0,0.0,-0.05375820260665661,0.0,0.0,-0.06863932482917394,-0.1016714098116869,-0.14358481430571784,-0.5056250633438085,-0.10725255348250289,-0.002095109998721258
5302,8.0,299.82743,1093.1687,0.0,0.0,0.0,-0.05376834375032887,0.0,0.0,-0.08413834894330852,-0.12961164959667387,-0.11854598578457788,-0.5027546068705165,-0.1149564155828149,-0.05595370107520035
5303,8.0,300.55092,1050.6281,0.0,0.0,0.0,-0.05377848489400114,0.0,0.0,-0.0928091059647956,-0.11858534041846189,-0.10797026892583589,-0.5125978452319685,-0.13002802446026687,-0.01902508278637948
5304,8.0,299.98121000000003,979.4983900000001,0.0,0.0,0.0,-0.0537886260376734,0.0,0.0,-0.07211795022448753,-0.12102571275430789,-0.10459938849315589,-0.5193772483385435,-0.15256727644221785,-0.058321667572150446
5305,8.0,300.60642,1152.3522,0.0,0.0,0.0,-0.05379876718134566,0.0,0.0,-0.097974912340121,-0.1253384800824449,-0.12697290315624987,-0.5182332281806376,-0.13449671071379188,-0.02931391713105837
5306,8.0,300.1701,1318.3827,0.0,0.0,0.0,-0.05380890832501792,0.0,0.0,-0.09557993056900473,-0.14420566303949087,-0.16096983528148584,-0.5102064736709585,-0.12226570796168588,-0.01880900416280418
5307,8.0,300.22572,1392.4466,0.0,0.0,0.0,-0.05381904946869018,0.0,0.0,-0.0975721008423666,-0.15180247526673785,-0.17389440772704182,-0.5087192859691845,-0.12090565274995888,-0.014929066879884184
5308,8.0,299.78017,1121.2078,0.0,0.0,0.0,-0.05382919061236244,0.0,0.0,-0.06591158463246694,-0.14315486189078488,-0.13175270785297988,-0.5281463301364845,-0.12492354403399389,-0.01810648747097118
5309,8.0,300.50091000000003,803.18039,0.0,0.0,0.0,-0.0538393317560347,0.0,0.0,-0.07909091145791522,-0.08462834149291701,-0.08042753019482922,-0.5189611977149825,-0.0901716108882451,-0.02932336163524047
5310,8.0,299.86043,1076.0006,0.0,0.0,0.0,-0.05384947289970696,0.0,0.0,-0.08051895575135222,-0.12499996335653589,-0.1215584087293809,-0.5124889411112205,-0.1130384142035229,-0.033529609020114766
5311,8.0,300.77776,1330.289,0.0,0.0,0.0,-0.05385961404337922,0.0,0.0,-0.1345935470258489,-0.13327508573072686,-0.13650599579459285,-0.5118776777233935,-0.1059653205554629,-0.02128208522512828
5312,8.0,299.84364,955.64895,0.0,0.0,0.0,-0.05386975518705148,0.0,0.0,-0.03736520647865876,-0.11242937996591588,-0.14069883484089388,-0.5246344356873875,-0.14708704234886086,-0.025655517863252476
5313,8.0,300.29951,1097.0884,0.0,0.0,0.0,-0.053879896330723744,0.0,0.0,-0.09731253960399991,-0.1117780830666379,-0.12439685663201387,-0.5179189281321185,-0.14196449567330488,-0.002010830793828548
5314,8.0,300.80506,1360.0155,0.0,0.0,0.0,-0.053890037474396,0.0,0.0,-0.12817037225693087,-0.1135570563997089,-0.17168332375632483,-0.5055510758215065,-0.14309892035276386,-0.016743808954735286
5315,8.0,300.37755,1413.3949,0.0,0.0,0.0,-0.05390017861806826,0.0,0.0,-0.14144974435750285,-0.14590810559250886,-0.14227892744433687,-0.49861313960428555,-0.1087152205318569,0.007447213044057703
5316,8.0,300.83778,1418.5975,0.0,0.0,0.0,-0.05391031976174052,0.0,0.0,-0.1171210217714449,-0.14182266092430684,-0.17227452479217184,-0.5072702775311785,-0.1313405987723079,-0.04200741282505886
5317,8.0,299.71522000000004,1244.3017,0.0,0.0,0.0,-0.05392046090541278,0.0,0.0,-0.10533328554058591,-0.13099704619340188,-0.14190632498506386,-0.5205847486152145,-0.1143914171945539,0.008251060014791223
5318,8.0,298.81961,872.3684599999999,0.0,0.0,0.0,-0.05393060204908505,0.0,0.0,-0.019037057376061282,-0.1317366174413919,-0.1144045590483509,-0.4995815128573565,-0.12700160853158288,-0.046856160071842956
5319,8.0,299.63358999999997,879.21639,0.0,0.0,0.0,-0.05394074319275731,0.0,0.0,-0.045254798335550864,-0.11602869763364089,-0.1059763345840499,-0.5416249680017226,-0.13124474531284785,-0.00949345753683131
5320,8.0,299.32497,1114.376,0.0,0.0,0.0,-0.05395088433642957,0.0,0.0,-0.08072380249756902,-0.14544604328190688,-0.11257264339755489,-0.5256600474386075,-0.13612198413919388,-0.03914084013940017
5321,8.0,300.2021,1057.1515,0.0,0.0,0.0,-0.05396102548010183,0.0,0.0,-0.10577553881173289,-0.12989846016997988,-0.08567365893208181,-0.5370467595448886,-0.12246617949397087,-0.038027079682480563
5322,8.0,300.36599,743.18578,0.0,0.0,0.0,-0.05397116662377409,0.0,0.0,-0.04568496859925536,-0.09137429518719081,-0.08885065497137691,-0.5139739401927785,-0.09986821980122591,-0.030643578892785767
5323,8.0,300.79781,916.77947,0.0,0.0,0.0,-0.05398130776744636,0.0,0.0,-0.07253059835421273,-0.1034914501713109,-0.10265601533135991,-0.5189042226618594,-0.09184928555581871,-0.048841228475253955
5324,8.0,300.72917,1349.8575,0.0,0.0,0.0,-0.05399144891111862,0.0,0.0,-0.09308462791873752,-0.14917228065715785,-0.16806607156182984,-0.5013852702878735,-0.13614967626442687,-0.015513072826771087
5325,8.0,302.1548,1379.9532,0.0,0.0,0.0,-0.05400159005479088,0.0,0.0,-0.12993833156141488,-0.14437295063100086,-0.14516004330868085,-0.5124318343355845,-0.12983458488367589,-0.04526992919929416
5326,8.0,300.51049,1259.7771,0.0,0.0,0.0,-0.054011731198463135,0.0,0.0,-0.1060754405763309,-0.13954982949249586,-0.13731550156448485,-0.4895641170687165,-0.13663518518234288,-0.01879382567630618
5327,8.0,300.80091,1014.2969,0.0,0.0,0.0,-0.054021872342135395,0.0,0.0,-0.10827203507061789,-0.09726383165844281,-0.10278507299659691,-0.5203586114578965,-0.12463398755291688,-0.026565365790547475
5328,8.0,299.47316,849.93928,0.0,0.0,0.0,-0.05403201348580767,0.0,0.0,-0.06140575060377573,-0.0967964467450655,-0.1001581228138371,-0.5254501729453945,-0.13319212081253887,-0.022765374953767577
5329,8.0,300.41926,1169.9681,0.0,0.0,0.0,-0.05404215462947993,0.0,0.0,-0.07032208297249923,-0.1242944575769079,-0.16102454065438485,-0.5356101228906035,-0.11120764352533988,-0.005531865569427625
5330,8.0,300.45817,1221.6517,0.0,0.0,0.0,-0.05405229577315219,0.0,0.0,-0.08545342091684602,-0.11933102156455488,-0.16656717068889984,-0.5329548807385515,-0.10209003409050191,-0.008120765272507132
5331,8.0,300.2744,860.6520199999999,0.0,0.0,0.0,-0.05406243691682445,0.0,0.0,-0.05718952777166694,-0.1008809723954268,-0.1035462264717169,-0.5306641350449725,-0.1036204369090409,0.004044449683731106
5332,8.0,299.36347,976.8415699999999,0.0,0.0,0.0,-0.05407257806049671,0.0,0.0,-0.08984939026369441,-0.09852696240535411,-0.1085590888239479,-0.5287894501074555,-0.13761489670403287,-0.018167163926709484
5333,8.0,299.19117,1583.7786,0.0,0.0,0.0,-0.054082719204168975,0.0,0.0,-0.15271536294433286,-0.15583585914480186,-0.17287792535922283,-0.5346577691216134,-0.14746536967119886,0.0024068276780353976
5334,8.0,299.32402,1568.5548,0.0,0.0,0.0,-0.054092860347841235,0.0,0.0,-0.14251691962782487,-0.1769375828123798,-0.15734697981393786,-0.5189489272562715,-0.12969675247257287,-0.04130829254756106
5335,8.0,300.5319,1097.2725,0.0,0.0,0.0,-0.054103001491513494,0.0,0.0,-0.061414488872638145,-0.1140091483293269,-0.15811979579770885,-0.5130568475272684,-0.12081696296870588,-0.02406691091921918
5336,8.0,300.75214,983.5912800000001,0.0,0.0,0.0,-0.054113142635185754,0.0,0.0,-0.045281751801460955,-0.12527306465598886,-0.12843236833528787,-0.5087307052978115,-0.1247170943261189,-0.03912985042881556
5337,8.0,301.05001,994.87006,0.0,0.0,0.0,-0.054123283778858014,0.0,0.0,-0.08076402751328893,-0.08371469995724763,-0.13793692785081488,-0.5270573699890125,-0.10665059173059391,-0.004407010631863086
5338,8.0,300.90348,1054.6388,0.0,0.0,0.0,-0.05413342492253028,0.0,0.0,-0.07531851142135834,-0.11797032800526489,-0.12729501536303986,-0.5112617432526054,-0.11530430487214889,-0.042401648173966855
5339,8.0,301.60742,1090.5666,0.0,0.0,0.0,-0.05414356606620254,0.0,0.0,-0.08874263947096661,-0.13136032675175488,-0.1114020659545279,-0.5111593543300005,-0.1079261824139849,-0.026209735270449473
5340,8.0,301.94612,977.17705,0.0,0.0,0.0,-0.0541537072098748,0.0,0.0,-0.06237155020159273,-0.0992394636636725,-0.13542640821054586,-0.5036938694482145,-0.12422902188544989,-0.03050906588901037
5341,8.0,301.75889,978.06662,0.0,0.0,0.0,-0.05416384835354706,0.0,0.0,-0.03208523214831587,-0.15048852293456086,-0.1147340679808709,-0.5120062591610836,-0.1135223627162849,-0.038563601689931164
5342,8.0,300.05126,1379.9123,0.0,0.0,0.0,-0.05417398949721932,0.0,0.0,-0.10783462513494889,-0.14473966610719285,-0.16688458141522583,-0.5328846523741204,-0.11755106537888689,-0.014242274816353089
5343,8.0,299.97475,1581.8334,0.0,0.0,0.0,-0.05418413064089159,0.0,0.0,-0.15416941736783685,-0.15124988919220186,-0.17541855879246382,-0.5322957007534954,-0.10930355406992089,0.005623993612244954
5344,8.0,300.14513,1083.2109,0.0,0.0,0.0,-0.05419427178456385,0.0,0.0,-0.1027491026180469,-0.11692008414411388,-0.10959987906166589,-0.5430351486958965,-0.12682754229690388,-0.017582524698510085
5345,8.0,300.79586,1010.0486,0.0,0.0,0.0,-0.054204412928236106,0.0,0.0,-0.08551925684209352,-0.1028616544391549,-0.11864864828470989,-0.5364352023145325,-0.11971027094448389,-0.008135731787084212
5346,8.0,299.68241,1259.9064,0.0,0.0,0.0,-0.054214554071908366,0.0,0.0,-0.12099924666169588,-0.1269437823483759,-0.13503704659461888,-0.5181408197715175,-0.14809613812345085,-0.024501156474825876
5347,8.0,299.09713,1176.7727,0.0,0.0,0.0,-0.054224695215580626,0.0,0.0,-0.08306249011962952,-0.12231587397413689,-0.15233115877141484,-0.5122480105024425,-0.13788721780090887,-0.03857126388718737
5348,8.0,298.39047,872.1001699999999,0.0,0.0,0.0,-0.05423483635925289,0.0,0.0,-0.06849587495951653,-0.08416215829415832,-0.1124386410718299,-0.48927816775799554,-0.13698464500933186,-0.03231820874380887
5349,8.0,300.785,1099.755,0.0,0.0,0.0,-0.05424497750292515,0.0,0.0,-0.09041028701555061,-0.12421370154393789,-0.1196740573859099,-0.5075919135104215,-0.1145151350317639,-0.03256554005346857
5350,8.0,301.40411,1126.3875,0.0,0.0,0.0,-0.05425511864659741,0.0,0.0,-0.08274694276023742,-0.11343154510982188,-0.14621519130031585,-0.5143956244868955,-0.11730719634481888,-0.012020276115558889
5351,8.0,300.5799,1117.3316,0.0,0.0,0.0,-0.05426525979026967,0.0,0.0,-0.07742690654744074,-0.14849067744738886,-0.1137233307411189,-0.5309611794442884,-0.13047561755944087,-0.03480081131732267
5352,8.0,300.22918,1464.3020000000001,0.0,0.0,0.0,-0.05427540093394193,0.0,0.0,-0.09595688595070731,-0.16137412207138585,-0.1877802505424678,-0.5264272601493255,-0.12287672816948889,-0.009233622112987552
5353,8.0,300.64336000000003,1195.3405,0.0,0.0,0.0,-0.0542855420776142,0.0,0.0,-0.10328825299625691,-0.11413013039126689,-0.14593529109269185,-0.5443745336055835,-0.13237264466166287,0.004090815096382016
5354,8.0,299.47673,802.4667099999999,0.0,0.0,0.0,-0.05429568322128646,0.0,0.0,-0.024544467850350377,-0.12351849038532588,-0.09586688401057482,-0.5399749408763775,-0.1280381836488849,-0.0036345229411244863
5355,8.0,299.59586,960.72341,0.0,0.0,0.0,-0.05430582436495872,0.0,0.0,-0.08261549483801452,-0.1059421779231789,-0.1034782576550089,-0.5396298684223215,-0.14936970230664184,-0.015611800876764786
5356,8.0,298.87113,1262.5318,0.0,0.0,0.0,-0.05431596550863098,0.0,0.0,-0.11292061374689688,-0.12206452715433089,-0.14879300087972586,-0.49492863800065356,-0.14301564132704486,-0.02365684860374918
5357,8.0,299.73105,1059.9425,0.0,0.0,0.0,-0.05432610665230324,0.0,0.0,-0.08877569270247873,-0.12977460047775588,-0.1036457580290399,-0.4878518459897285,-0.13069550296364188,-0.05492623912929775
5358,8.0,300.03807,930.36148,0.0,0.0,0.0,-0.0543362477959755,0.0,0.0,-0.04940200566359836,-0.1006936092796855,-0.1327110499300609,-0.48838965887780655,-0.12490603507226587,-0.038200873352882664
5359,8.0,299.54452000000003,1054.504,0.0,0.0,0.0,-0.054346388939647765,0.0,0.0,-0.06849095867003134,-0.13950100097017687,-0.11255092944791188,-0.5017252562264275,-0.12212722707051887,-0.05865196278674804
5360,8.0,299.69923,1153.3937,0.0,0.0,0.0,-0.054356530083320025,0.0,0.0,-0.094124612622626,-0.11893163890513887,-0.13754663404479586,-0.5205274290570575,-0.1052518506300489,-0.013820697926746686
5361,8.0,300.85449,1362.1659,0.0,0.0,0.0,-0.054366671226992284,0.0,0.0,-0.12614185568923186,-0.1319311107980869,-0.15599145383015783,-0.5213654578172645,-0.098747485143868,-0.04194178360283176
5362,8.0,299.77571,1211.4711,0.0,0.0,0.0,-0.054376812370664544,0.0,0.0,-0.1039123745278529,-0.12301892768852288,-0.14132566175025685,-0.5510507473219745,-0.11377751935646689,0.004518203076636925
5363,8.0,300.43896,959.03715,0.0,0.0,0.0,-0.054386953514336804,0.0,0.0,-0.07386451576636013,-0.10143155324801491,-0.1162272743882389,-0.5530986676290885,-0.12721089533973787,-0.006878828171312484
5364,8.0,299.96019,1092.0409,0.0,0.0,0.0,-0.054397094658009064,0.0,0.0,-0.05735520429551794,-0.12051145793105487,-0.15408649297965285,-0.5375581164728555,-0.14201319247311087,0.02291006605479748
5365,8.0,300.54616,1387.4349,0.0,0.0,0.0,-0.054407235801681324,0.0,0.0,-0.13995027606451688,-0.14307176525008386,-0.13872353416844688,-0.5179979413749165,-0.14246661176035988,-0.0046524513181611955
5366,8.0,300.74875,1418.6163,0.0,0.0,0.0,-0.054417376945353584,0.0,0.0,-0.12839836366193186,-0.12146166360983289,-0.1813638949467228,-0.5085302540305284,-0.13712871904105087,0.011188252888694591
5367,8.0,301.18093999999996,1016.0482,0.0,0.0,0.0,-0.05442751808902584,0.0,0.0,-0.08020554128342063,-0.13163468448133187,-0.097013064417694,-0.5279871586782755,-0.13645610335966887,-0.059897015125375146
5368,8.0,299.59927000000005,936.84726,0.0,0.0,0.0,-0.05443765923269811,0.0,0.0,-0.06455610931119193,-0.1028907549820269,-0.11733131169719889,-0.5242302198249945,-0.11393055051906989,-0.02005609617388258
5369,8.0,300.0506,1139.1383,0.0,0.0,0.0,-0.05444780037637037,0.0,0.0,-0.10975082292906291,-0.1014458400744249,-0.13507292578065988,-0.5209104679923605,-0.13520961321914987,-0.03521651236959917
5370,8.0,300.36151,1080.4251,0.0,0.0,0.0,-0.05445794152004263,0.0,0.0,-0.06786830939083063,-0.1125078359211589,-0.14804609370101188,-0.5074060935745826,-0.11472426985240389,-0.05277659661814455
5371,8.0,299.64952,932.75525,0.0,0.0,0.0,-0.05446808266371489,0.0,0.0,-0.06389225216367435,-0.09807400516015072,-0.12156804473783189,-0.5123080557033686,-0.13874970641852985,-0.007082611511549333
5372,8.0,300.22193,1111.8027,0.0,0.0,0.0,-0.05447822380738715,0.0,0.0,-0.08935524744167632,-0.1314312846562579,-0.1171737310416469,-0.5208963838159705,-0.11943118133693988,-0.026020922193815077
5373,8.0,299.39338,1181.2986,0.0,0.0,0.0,-0.054488364951059416,0.0,0.0,-0.0890385470036704,-0.14239561332585285,-0.12765111197818388,-0.5160964458397536,-0.13583203249057788,-0.003754214426412116
5374,8.0,299.5972,1281.0804,0.0,0.0,0.0,-0.054498506094731676,0.0,0.0,-0.11288425833330888,-0.14145142635266889,-0.13508077846893485,-0.5203163183987225,-0.1066146517495469,-0.023519387042182774
5375,8.0,301.01327000000003,1443.8473,0.0,0.0,0.0,-0.054508647238403936,0.0,0.0,-0.1081348916695829,-0.17652307232897083,-0.15423557246686587,-0.5213067197089676,-0.1063983937807039,-0.017237081394917482
5376,8.0,301.23145,934.85651,0.0,0.0,0.0,-0.054518788382076196,0.0,0.0,-0.04398700055867896,-0.0933640782433171,-0.14682195585769886,-0.5549673642585145,-0.11076403249905889,-0.025334584066328773
5377,8.0,301.00186,748.2543,0.0,0.0,0.0,-0.054528929525748455,0.0,0.0,-0.01950801602254128,-0.10166792423134291,-0.1062746860759949,-0.5276364930836674,-0.13700237688608186,-0.03243874598895497
5378,8.0,300.60544,1147.6924,0.0,0.0,0.0,-0.05453907066942072,0.0,0.0,-0.1019100606077399,-0.09685952460354082,-0.15010025562874185,-0.5371722708347755,-0.11443029560089088,-0.04684387644088066
5379,8.0,299.89845,1390.4699,0.0,0.0,0.0,-0.05454921181309298,0.0,0.0,-0.13223209674029188,-0.12838265828538187,-0.16205336440842186,-0.49632967917892556,-0.12787992411576588,-0.03490969517306867
5380,8.0,301.06277,1017.5958,0.0,0.0,0.0,-0.05455935295676524,0.0,0.0,-0.08721196510140082,-0.1034220932019659,-0.1186896646487579,-0.5041847485916605,-0.12468683867813288,-0.03485132183480767
5381,8.0,300.84584,1020.5032,0.0,0.0,0.0,-0.0545694941004375,0.0,0.0,-0.09188336926268251,-0.07903388675553732,-0.13929025508187787,-0.4865204657558315,-0.14352750488006186,-0.008220641537514152
5382,8.0,298.96651,1231.6868,0.0,0.0,0.0,-0.05457963524410976,0.0,0.0,-0.0990215632164174,-0.11309535885914289,-0.16228509470629185,-0.5131281296718035,-0.11669363287926489,-0.022247610232168178
5383,8.0,299.49966,1353.2596,0.0,0.0,0.0,-0.054589776387782035,0.0,0.0,-0.11327505876437788,-0.14961557757590785,-0.14846649116750185,-0.5340668213982915,-0.12702301850619588,0.010071601426589671
5384,8.0,299.79687,1409.7722,0.0,0.0,0.0,-0.054599917531454295,0.0,0.0,-0.0982018134880144,-0.15936513083311385,-0.17096860753328783,-0.5515797145366795,-0.1102098353568639,-0.010487536742289291
5385,8.0,300.27747999999997,1150.9697,0.0,0.0,0.0,-0.054610058675126555,0.0,0.0,-0.10386907835107989,-0.1296866908990799,-0.11631028996893189,-0.5654562151861835,-0.1257174457523459,0.01853737511574648
5386,8.0,300.17187,840.9536400000001,0.0,0.0,0.0,-0.054620199818798815,0.0,0.0,-0.03701719154631236,-0.11032239731047289,-0.10828932111732391,-0.5494364879251594,-0.09576184746545852,-0.05154029876038145
5387,8.0,299.78533999999996,1051.8467,0.0,0.0,0.0,-0.05463034096247107,0.0,0.0,-0.06419600326540223,-0.11788075669642488,-0.13765837526582386,-0.5493107334552485,-0.13367943331563287,-0.03310984280843707
5388,8.0,301.08496,1313.8676,0.0,0.0,0.0,-0.05464048210614334,0.0,0.0,-0.08862174252203502,-0.1194647199152499,-0.1912964715694918,-0.5220842473057035,-0.12406044746631288,-0.04891531732256595
5389,8.0,301.56887,1052.7663,0.0,0.0,0.0,-0.0546506232498156,0.0,0.0,-0.07863486987940742,-0.0956531216767281,-0.14572668316210385,-0.5091037434546275,-0.15840167184302784,-0.03799500727706526
5390,8.0,301.10339,775.02611,0.0,0.0,0.0,-0.05466076439348786,0.0,0.0,-0.04867017564637236,-0.08794360361435791,-0.0989748057773028,-0.48635719063471755,-0.1143087157213919,-0.05226912043806055
5391,8.0,300.25967,1036.2438,0.0,0.0,0.0,-0.05467090553716012,0.0,0.0,-0.1063457149080049,-0.0989830921366206,-0.10966345037293988,-0.5038261695137715,-0.13192189022217687,-0.03541098140829176
5392,8.0,299.86865,1367.6326,0.0,0.0,0.0,-0.05468104668083238,0.0,0.0,-0.1057708271987679,-0.14558451404057285,-0.16437081937463685,-0.5186972156664295,-0.10599656918854691,0.0036985022882137565
5393,8.0,299.68686,1254.7366,0.0,0.0,0.0,-0.05469118782450465,0.0,0.0,-0.08713269753282772,-0.14867026589511284,-0.14560565043765888,-0.5350858672888635,-0.13656387264030487,-0.02677534464852077
5394,8.0,298.86622,1184.8964,0.0,0.0,0.0,-0.05470132896817691,0.0,0.0,-0.06271324144006504,-0.13904491683516487,-0.15842076147491185,-0.5394248473970875,-0.10920203654240189,0.02194788375983748
5395,8.0,299.16759,1151.3848,0.0,0.0,0.0,-0.05471147011184917,0.0,0.0,-0.0959974341932091,-0.14288086893124385,-0.11111391789108989,-0.5423217902279934,-0.13107627221872087,-0.03451778421989007
5396,8.0,299.96736,1071.3209,0.0,0.0,0.0,-0.05472161125552143,0.0,0.0,-0.09084458728666273,-0.1067278013882139,-0.12808241201574988,-0.5429582126158035,-0.13055812651508386,-0.005488989486146085
5397,8.0,300.45254,1170.7463,0.0,0.0,0.0,-0.05473175239919369,0.0,0.0,-0.11773051197159688,-0.12289657773894788,-0.11525053168934188,-0.5234867475641195,-0.14962750352958484,-0.03351060450123917
5398,8.0,301.04075,1112.1971,0.0,0.0,0.0,-0.05474189354286595,0.0,0.0,-0.07210462395917233,-0.12938939318723888,-0.13658613374500186,-0.5134293081315275,-0.1021908930054559,-0.026912447519551772
5399,8.0,301.08153,755.82732,0.0,0.0,0.0,-0.05475203468653821,0.0,0.0,-0.045218419617210556,-0.06751327060879103,-0.11702094305906789,-0.5118574127213935,-0.12097649919695087,-0.027294513734758774
5400,8.0,300.19499,983.12006,0.0,0.0,0.0,-0.05476217583021047,0.0,0.0,-0.05636474523001724,-0.1094507185144449,-0.13302848092138886,-0.5161848519109785,-0.11147117974384889,-0.04617994937910616
5401,8.0,299.80978,1539.5976,0.0,0.0,0.0,-0.05477231697388273,0.0,0.0,-0.15314463648169888,-0.13881590204756286,-0.17603869825116683,-0.5213288693561535,-0.14974098754078485,0.005826003663481795
5402,8.0,298.84715,1384.7803,0.0,0.0,0.0,-0.05478245811755499,0.0,0.0,-0.12380506791110887,-0.15954316900818485,-0.13759040644911585,-0.5002502376583545,-0.12817680639506587,-0.04212587696050036
5403,8.0,298.76612,1092.6425,0.0,0.0,0.0,-0.05479259926122726,0.0,0.0,-0.08275069887835812,-0.13942876637054785,-0.10995658362686989,-0.5282806364372395,-0.12624035373145287,0.0043288801325522056
5404,8.0,300.74197999999996,1042.1885,0.0,0.0,0.0,-0.05480274040489952,0.0,0.0,-0.05339872204704354,-0.12528059310423187,-0.13811995121637788,-0.5254336974987686,-0.12106871508855188,-0.015886284249354184
5405,8.0,299.53078999999997,939.7790699999999,0.0,0.0,0.0,-0.05481288154857178,0.0,0.0,-0.028751990917100574,-0.12562631403835187,-0.13129106097491888,-0.5422244979533916,-0.13903133928382486,0.01979353774172008
5406,8.0,300.43269,1053.3523,0.0,0.0,0.0,-0.05482302269224404,0.0,0.0,-0.06280218960009354,-0.12817866064274885,-0.1292119528297269,-0.5375122770383315,-0.11458991288914389,-0.03713369504281037
5407,8.0,298.86713,1141.7271,0.0,0.0,0.0,-0.0548331638359163,0.0,0.0,-0.11614490728760989,-0.11045450485851091,-0.1204571274606929,-0.5180293723930185,-0.1202823114209399,-0.009578236780648371
5408,8.0,298.98052,907.53489,0.0,0.0,0.0,-0.054843304979588565,0.0,0.0,-0.09670912282494731,-0.1118923574129159,-0.06726646314943303,-0.5369175296271345,-0.12230506259556989,-0.060179090780963854
5409,8.0,300.78831,973.06831,0.0,0.0,0.0,-0.054853446123260825,0.0,0.0,-0.09035202918780101,-0.1067617655315659,-0.098674672991682,-0.5084230724349506,-0.15051523220719687,-0.04405233897812737
5410,8.0,300.1307,1409.6937,0.0,0.0,0.0,-0.054863587266933085,0.0,0.0,-0.1091187473841819,-0.15777909045158386,-0.16161384691254485,-0.5296779995176485,-0.13593486724322687,-0.048314958532315155
5411,8.0,299.392,1557.8517,0.0,0.0,0.0,-0.054873728410605345,0.0,0.0,-0.12210445934077188,-0.16335293872167983,-0.18809060904809782,-0.4873729333299635,-0.11838743240892989,-0.01023629023424319
5412,8.0,300.37512999999996,1087.0329,0.0,0.0,0.0,-0.054883869554277605,0.0,0.0,-0.1037391999532619,-0.10058638918060371,-0.12610527736062188,-0.5257802695629725,-0.12297086923627988,-0.010851187136928791
5413,8.0,301.29337000000004,887.2057,0.0,0.0,0.0,-0.054894010697949865,0.0,0.0,-0.07577884006103923,-0.10740815830035991,-0.0865013839520219,-0.5120533651582325,-0.13692826777376788,0.008253683116650102
5414,8.0,300.54697999999996,987.89503,0.0,0.0,0.0,-0.054904151841622124,0.0,0.0,-0.1044472591231419,-0.10900257826021689,-0.08684558501099192,-0.5299947516314094,-0.13415365462743487,-0.03537012615100967
5415,8.0,300.98398,1135.8569,0.0,0.0,0.0,-0.054914292985294384,0.0,0.0,-0.08989996461593572,-0.12205190205808489,-0.13332028681768787,-0.5205138109757135,-0.12336490193516789,-0.004708521538944896
5416,8.0,299.36928,1102.9678,0.0,0.0,0.0,-0.05492443412896665,0.0,0.0,-0.046949034576008956,-0.15810926812916987,-0.13021635725635386,-0.5515643840626665,-0.12357486762088987,-0.06325174232496093
5417,8.0,299.60412,1078.2488,0.0,0.0,0.0,-0.05493457527263891,0.0,0.0,-0.04274815539016446,-0.11114838865949189,-0.17386417234405782,-0.5483635168642654,-0.14644809696830188,-0.0012221328240151186
5418,8.0,298.7422,931.1791199999999,0.0,0.0,0.0,-0.05494471641631117,0.0,0.0,-0.06446297946800074,-0.11247786398320088,-0.1061143595126719,-0.5372592076933556,-0.11230218668086289,-0.07107474642503134
5419,8.0,299.75527,1153.8903,0.0,0.0,0.0,-0.05495485755998343,0.0,0.0,-0.1034155780038229,-0.12136370259016488,-0.1259745680977219,-0.5114332662295336,-0.1136813416569749,-0.009514096529443222
5420,8.0,299.36798999999996,1445.5148,0.0,0.0,0.0,-0.05496499870365569,0.0,0.0,-0.14794524491855887,-0.13917950684594788,-0.15227564279843583,-0.5076978184108736,-0.09655503484249,-0.06203369816774935
5421,8.0,300.46932999999996,1262.9538,0.0,0.0,0.0,-0.05497513984732795,0.0,0.0,-0.1204708975295519,-0.11777515577100289,-0.14566037607555987,-0.5320577187025085,-0.12052889596527587,-0.01089729609597939
5422,8.0,300.39056,900.50065,0.0,0.0,0.0,-0.05498528099100021,0.0,0.0,-0.022718169658108776,-0.1018816896049399,-0.14912985587547087,-0.5075790249691495,-0.12594413006471789,-0.03297001632113727
5423,8.0,299.95676000000003,1135.9601,0.0,0.0,0.0,-0.05499542213467248,0.0,0.0,-0.06242921021178335,-0.1144661241244269,-0.16840815492809083,-0.5339511892968795,-0.14571058261801487,0.01161028270109569
5424,8.0,299.63639,1288.5392,0.0,0.0,0.0,-0.055005563278344737,0.0,0.0,-0.11453564321378788,-0.1232721186235109,-0.15387600040387886,-0.5243177848986365,-0.14966725333100786,0.025848433589541774
5425,8.0,298.6267,1116.5726,0.0,0.0,0.0,-0.055015704422016996,0.0,0.0,-0.12979040717931586,-0.10357842755989491,-0.10604134471046589,-0.5449251742399275,-0.13857229645852087,-0.02131082302446448
5426,8.0,298.86273,1199.787,0.0,0.0,0.0,-0.055025845565689256,0.0,0.0,-0.11661924005692288,-0.12298042418472287,-0.1251056149444629,-0.5367889583219455,-0.11850880963840887,-0.026653026109698875
5427,8.0,298.62049,1168.2371,0.0,0.0,0.0,-0.055035986709361516,0.0,0.0,-0.09785570042610572,-0.12203063393848589,-0.13522858126102189,-0.5342434815532264,-0.11646958301715289,-0.06260423396780684
5428,8.0,299.59761000000003,1089.7595,0.0,0.0,0.0,-0.05504612785303378,0.0,0.0,-0.02318455348038728,-0.11435052242051788,-0.1937245937116288,-0.5321589322549974,-0.13496317052982787,-0.021739072165979378
5429,8.0,300.9131,1284.0715,0.0,0.0,0.0,-0.05505626899670604,0.0,0.0,-0.09101311712279532,-0.12225499790812887,-0.17705756175672083,-0.5364061119041614,-0.12074291465139787,-0.031045022502905174
5430,8.0,300.45707000000004,1230.2241,0.0,0.0,0.0,-0.0550664101403783,0.0,0.0,-0.1181175937747989,-0.1004802684578804,-0.15535954040529285,-0.5142419752417315,-0.1042620572698639,0.01728460181135738
5431,8.0,300.12863,890.35911,0.0,0.0,0.0,-0.05507655128405056,0.0,0.0,-0.1037874610555249,-0.09618447610866872,-0.07067500304857972,-0.5302781880818824,-0.1168064177478959,-0.023100136574805977
5432,8.0,300.81537000000003,968.36502,0.0,0.0,0.0,-0.05508669242772282,0.0,0.0,-0.09317761590691472,-0.1059372433951919,-0.09524392670334372,-0.5151339291722605,-0.13833452719005487,-0.015674533216955985
5433,8.0,299.9316,1327.8832,0.0,0.0,0.0,-0.05509683357139509,0.0,0.0,-0.11332396834670488,-0.12720834194948588,-0.16311103539280586,-0.5500387739171005,-0.14488192642123285,-0.05195916013971986
5434,8.0,299.18166,1329.6736,0.0,0.0,0.0,-0.05510697471506735,0.0,0.0,-0.032461444817695174,-0.17241111090565184,-0.1993150187533608,-0.5205716878214255,-0.13114240705274788,-0.046991927479242156
5435,8.0,300.24118,994.8943800000001,0.0,0.0,0.0,-0.05511711585873961,0.0,0.0,-0.06016954495177174,-0.11289940642230388,-0.12935410168625588,-0.5333785206053614,-0.09970945668280722,-0.03793408156180236
5436,8.0,301.24849,989.68206,0.0,0.0,0.0,-0.05512725700241187,0.0,0.0,-0.07104771797861384,-0.11228476891164388,-0.1175061480019539,-0.5356926014487434,-0.11900152276453589,-0.017253887161076085
5437,8.0,300.72827,1069.6539,0.0,0.0,0.0,-0.05513739814608413,0.0,0.0,-0.12441142716845188,-0.12241135253105988,-0.07832530778835602,-0.5393146057862075,-0.1057544125471479,-0.029489302617367572
5438,8.0,299.99748999999997,1215.4181,0.0,0.0,0.0,-0.0551475392897564,0.0,0.0,-0.1090205634494919,-0.12936980706280587,-0.1310663828977449,-0.5400032612166725,-0.09993020740259359,-0.024162638735666774
5439,8.0,298.69161,1343.7239,0.0,0.0,0.0,-0.055157680433428655,0.0,0.0,-0.10067862432395659,-0.14316837864711887,-0.16461150680339084,-0.5277819350030215,-0.1062133033849369,-0.051425695107820954
5440,8.0,299.34377,1201.8759,0.0,0.0,0.0,-0.055167821577100914,0.0,0.0,-0.04257542461911726,-0.11680433045268988,-0.2059605208592208,-0.5531830916274205,-0.14241057902982987,-0.005917477349384545
5441,8.0,299.30143,949.6556699999999,0.0,0.0,0.0,-0.055177962720773174,0.0,0.0,-0.05586749983619294,-0.1134002660792349,-0.11940384384924188,-0.5409062595732915,-0.14215705372230886,-0.02991323328695627
5442,8.0,299.55702,1199.5869,0.0,0.0,0.0,-0.055188103864445434,0.0,0.0,-0.12263769233839789,-0.12140002760624989,-0.1206067439704589,-0.5117228632406144,-0.15626780766243184,0.01036894291083499
5443,8.0,298.28842000000003,1418.1062,0.0,0.0,0.0,-0.05519824500811771,0.0,0.0,-0.15959269667307285,-0.12816948059684286,-0.14330669741826987,-0.5095667278228205,-0.11623396183889888,0.002342538681715568
5444,8.0,300.81461,1114.644,0.0,0.0,0.0,-0.05520838615178997,0.0,0.0,-0.1094105532804809,-0.12349274370028487,-0.1059206564910549,-0.5165637973158775,-0.14184472951148486,-0.008394175207940592
5445,8.0,301.51751,1096.2824,0.0,0.0,0.0,-0.05521852729546223,0.0,0.0,-0.02908871723008287,-0.14204506932125688,-0.16210867773138082,-0.4965910571747215,-0.13194023004898686,-0.04855427402043375
5446,8.0,301.18343,1305.5182,0.0,0.0,0.0,-0.05522866843913449,0.0,0.0,-0.07245028815128673,-0.13170925968869188,-0.1926853942765678,-0.5170690342132405,-0.1154428364258209,-0.027962839315217373
5447,8.0,300.0348,1257.1528,0.0,0.0,0.0,-0.05523880958280675,0.0,0.0,-0.0989377897246496,-0.13629244320351686,-0.14691283425916785,-0.5233387623870145,-0.11129942371939791,-0.025860464921229176
5448,8.0,300.08542,983.5495,0.0,0.0,0.0,-0.055248950726479014,0.0,0.0,-0.08892684023314582,-0.092629683690088,-0.11741796484575089,-0.5692545351735485,-0.15534510159136786,-0.04269583419475076
5449,8.0,299.91859,923.1024699999999,0.0,0.0,0.0,-0.055259091870151274,0.0,0.0,-0.093478898731399,-0.11916080568025587,-0.06796039254666854,-0.5561486112250945,-0.1178815166339999,-0.014419282516072385
5450,8.0,299.89135,1024.3843,0.0,0.0,0.0,-0.055269233013823534,0.0,0.0,-0.0943567776047889,-0.11234781333286588,-0.1046826573863739,-0.5366717658153796,-0.12828822337606188,-0.04183063817286256
5451,8.0,299.89765,1154.8773,0.0,0.0,0.0,-0.05527937415749579,0.0,0.0,-0.06753058198674954,-0.12323493234484087,-0.16028835366172886,-0.5124039294278305,-0.0985774962275914,-0.03212809060104568
5452,8.0,299.90117999999995,1282.3139,0.0,0.0,0.0,-0.05528951530116805,0.0,0.0,-0.08447386644892152,-0.14916322220126388,-0.15615431351873085,-0.5217145427417165,-0.14388847522818687,-0.03272132219009307
5453,8.0,299.72427999999996,1233.2841,0.0,0.0,0.0,-0.05529965644484032,0.0,0.0,-0.10800071709134089,-0.1045943830376619,-0.16229247116701986,-0.4909926983847065,-0.13800014452455386,-0.010813949182503689
5454,8.0,299.68332999999996,1091.8615,0.0,0.0,0.0,-0.05530979758851258,0.0,0.0,-0.0916431084122206,-0.12839623583672188,-0.1118592950621529,-0.4830584941391615,-0.13168383724368288,-0.038789773297752565
5455,8.0,300.96635,1160.9693,0.0,0.0,0.0,-0.05531993873218484,0.0,0.0,-0.14364692653684785,-0.10626675232771189,-0.1029919887995179,-0.49916030479078655,-0.12753418291664387,-0.016249403700941287
5456,8.0,300.94386000000003,1317.4345,0.0,0.0,0.0,-0.0553300798758571,0.0,0.0,-0.1073237241695269,-0.12090972601536089,-0.17223374147564682,-0.5178103482514025,-0.15131812145393586,-0.018374845746706083
5457,8.0,300.19885,1102.2374,0.0,0.0,0.0,-0.05534022101952936,0.0,0.0,-0.04949142397167325,-0.14404164824580387,-0.14151956742189387,-0.5615178235049945,-0.14160159001748887,-0.04883908241154215
5458,8.0,300.31125,972.7116300000001,0.0,0.0,0.0,-0.055350362163201626,0.0,0.0,-0.04605373185389946,-0.09657925050662991,-0.15304706049706884,-0.5460026745287685,-0.11803798271444188,-0.022726104419641877
5459,8.0,300.127,1286.9996,0.0,0.0,0.0,-0.055360503306873886,0.0,0.0,-0.11084445415949588,-0.14134026268419786,-0.13903103530879488,-0.5660420561290015,-0.12595163824795888,-0.01755533818507698
5460,8.0,300.43537000000003,1341.8224,0.0,0.0,0.0,-0.055370644450546146,0.0,0.0,-0.15094315812192985,-0.12456308031091887,-0.13237424559682087,-0.5386630555744044,-0.12403162050096789,-0.003627909559046796
5461,8.0,299.79252,1293.6557,0.0,0.0,0.0,-0.055380785594218405,0.0,0.0,-0.13383750033123287,-0.12859755849909088,-0.13080397138684688,-0.5532174002758066,-0.12918195049426587,-0.013325434450117987
5462,8.0,299.4317,1378.3826,0.0,0.0,0.0,-0.055390926737890665,0.0,0.0,-0.09080078549808981,-0.14807114124348386,-0.18012195429915281,-0.49406046504997153,-0.10708025030299789,-0.01905805090488318
5463,8.0,299.12186,1271.1606,0.0,0.0,0.0,-0.05540106788156293,0.0,0.0,-0.07882490189591213,-0.12500203038673988,-0.18257416139616683,-0.5225460765687825,-0.12365035475333987,-0.03861149700890806
5464,8.0,300.21262,1044.6567,0.0,0.0,0.0,-0.05541120902523519,0.0,0.0,-0.05042935919174025,-0.1065432480149999,-0.16057695768771182,-0.5057003782237416,-0.14957070072897885,-0.02781780674890377
5465,8.0,300.56363999999996,910.6959800000001,0.0,0.0,0.0,-0.05542135016890745,0.0,0.0,-0.08078565128367302,-0.1075106992104799,-0.08853249241347672,-0.5269269039061365,-0.13941607034679487,-0.049076478803971355
5466,8.0,299.27227999999997,846.97499,0.0,0.0,0.0,-0.05543149131257971,0.0,0.0,-0.08921640076722322,-0.08512681494586252,-0.08311603228141372,-0.5084647068815595,-0.12023415164368688,-0.029546817732793867
5467,8.0,299.37594,829.21735,0.0,0.0,0.0,-0.05544163245625197,0.0,0.0,-0.08939252085985491,-0.10901713866415391,-0.05365170729226125,-0.5383226238058065,-0.11866785950660588,-0.05214069200113565
5468,8.0,299.73909,1115.0673,0.0,0.0,0.0,-0.05545177359992423,0.0,0.0,-0.05935850005497785,-0.12505110208908288,-0.15454301281220786,-0.5400364147599445,-0.13872767836135588,-0.02946757042922277
5469,8.0,299.29823,1325.1528,0.0,0.0,0.0,-0.05546191474359649,0.0,0.0,-0.08104570293508813,-0.13099647877334586,-0.19077118245264982,-0.5300280064996914,-0.11605854798158688,-0.02247983195633668
5470,8.0,300.55312999999995,1319.5912,0.0,0.0,0.0,-0.05547205588726875,0.0,0.0,-0.05115229591283855,-0.16584423700755185,-0.18412623763434482,-0.5281592896052635,-0.0985797466560635,-0.022858343690192878
5471,8.0,300.88149,1193.6593,0.0,0.0,0.0,-0.05548219703094101,0.0,0.0,-0.1032835515157929,-0.10921901861407789,-0.15034007166240987,-0.5443681501299534,-0.12206309847168988,-0.02274137004564848
5472,8.0,300.6967,1220.5224,0.0,0.0,0.0,-0.05549233817461328,0.0,0.0,-0.13241145214049285,-0.12261465103112389,-0.1159822299840549,-0.5564512892949665,-0.14573759586568086,-0.02275759420624968
5473,8.0,300.5978,1056.0176,0.0,0.0,0.0,-0.05550247931828554,0.0,0.0,-0.1081461792756969,-0.1051860906985589,-0.1076707015337709,-0.5369510580729434,-0.1304545419573609,-0.03421244434200536
5474,8.0,300.56254,1003.5035,0.0,0.0,0.0,-0.0555126204619578,0.0,0.0,-0.045887379492231754,-0.1023507332087309,-0.15680191205514385,-0.49894885975991854,-0.12390235005320989,-0.026894351886015872
5475,8.0,300.0397,1146.5517,0.0,0.0,0.0,-0.05552276160563006,0.0,0.0,-0.06118307369554924,-0.1276541719934859,-0.15968585488726683,-0.5165628651257855,-0.12489234606341489,-0.027923105725795976
5476,8.0,299.59791,1296.8929,0.0,0.0,0.0,-0.05553290274930232,0.0,0.0,-0.0934451625693195,-0.12738456640687787,-0.17339332515508885,-0.5272076451113434,-0.14017747713443987,-0.02028266497574318
5477,8.0,298.47187,1243.3919,0.0,0.0,0.0,-0.055543043892974577,0.0,0.0,-0.12257729249993689,-0.12076805338637887,-0.13461474421794087,-0.5192480893482966,-0.14502703396805386,-0.01022717402309349
5478,8.0,300.21282,1324.6798,0.0,0.0,0.0,-0.05555318503664684,0.0,0.0,-0.14573816328573685,-0.13864500728569687,-0.11828641137395988,-0.5279805117576195,-0.12461678256621889,-0.02339678074033248
5479,8.0,299.62498999999997,1363.5105,0.0,0.0,0.0,-0.0555633261803191,0.0,0.0,-0.12796036604120486,-0.13861173215241285,-0.14790104694919684,-0.5315090640383605,-0.11955894204204888,0.0008389493992478591
5480,8.0,300.37006,1206.058,0.0,0.0,0.0,-0.05557346732399136,0.0,0.0,-0.04574055347324116,-0.14573143530507285,-0.17513951984742485,-0.5849270317578034,-0.14461729589261588,-0.02745305191165527
5481,8.0,301.11272,1145.9586,0.0,0.0,0.0,-0.05558360846766362,0.0,0.0,-0.04083151075275636,-0.13213067040528187,-0.17538061257621884,-0.5645200430212904,-0.1201161688020429,-0.005055510555565045
5482,8.0,301.16818,1035.6914,0.0,0.0,0.0,-0.05559374961133588,0.0,0.0,-0.04890473493852155,-0.1069812760332299,-0.15893832962599186,-0.5451632778809264,-0.10850231642084489,-0.036902100520453764
5483,8.0,301.74996,929.95109,0.0,0.0,0.0,-0.05560389075500815,0.0,0.0,-0.07779132397240593,-0.12039101289166788,-0.08449957463045872,-0.49357713461977054,-0.09666793927463281,-0.040118829135920166
5484,8.0,300.91012,981.0163,0.0,0.0,0.0,-0.05561403189868041,0.0,0.0,-0.10786868047080991,-0.1082865954745549,-0.08204917922462351,-0.5284335358773296,-0.13654370896331486,-0.06711403588388963
5485,8.0,299.51943,1134.9718,0.0,0.0,0.0,-0.05562417304235267,0.0,0.0,-0.1179723747704669,-0.12022507292279089,-0.1068056189958939,-0.5068487046945725,-0.1347251479488369,-0.024141538815584375
5486,8.0,299.19459,1096.9037,0.0,0.0,0.0,-0.05563431418602493,0.0,0.0,-0.04023111143250156,-0.14560965277555385,-0.14759057698605588,-0.5200361243485695,-0.13087821222167387,-0.05910075050778994
5487,8.0,300.67356,1224.5864,0.0,0.0,0.0,-0.05564445532969719,0.0,0.0,-0.08090268470997333,-0.11948681889993087,-0.17185418812068784,-0.5093649491979064,-0.13113220362424088,0.002775108929606927
5488,8.0,300.01104,1180.4383,0.0,0.0,0.0,-0.055654596473369455,0.0,0.0,-0.05014028907071125,-0.15703012637516683,-0.15165335524952087,-0.5434104362679345,-0.14208683549037887,-0.024144583632134876
5489,8.0,299.35098999999997,1121.7965,0.0,0.0,0.0,-0.055664737617041715,0.0,0.0,-0.11009388914792088,-0.1192515320942099,-0.1116527034992639,-0.5513780980317815,-0.12968885925429388,0.019055212791353082
5490,8.0,300.00908,1340.7377,0.0,0.0,0.0,-0.055674878760713975,0.0,0.0,-0.14488578690411386,-0.11988964660968687,-0.14277534906582984,-0.5444968227601524,-0.1029859498289219,-0.006109064400817713
5491,8.0,301.10267000000005,1486.6222,0.0,0.0,0.0,-0.055685019904386235,0.0,0.0,-0.14434780176351886,-0.16624970930006885,-0.14129851678007788,-0.5304966042734385,-0.1148879502735579,-0.006051363556648084
5492,8.0,299.63982000000004,1175.8715,0.0,0.0,0.0,-0.055695161048058495,0.0,0.0,-0.05189746536763105,-0.12636090009584988,-0.17917722017091484,-0.5317102549782166,-0.13614111430108186,-0.04162778854259286
5493,8.0,299.38174,926.68259,0.0,0.0,0.0,-0.05570530219173076,0.0,0.0,-0.04997504216490266,-0.09810413313862411,-0.13360919481870087,-0.5379165334307285,-0.15606589731500486,-0.019861855116462483
5494,8.0,298.96207000000004,977.75814,0.0,0.0,0.0,-0.05571544333540302,0.0,0.0,-0.04812329923614986,-0.11961699114027789,-0.12947376652306586,-0.5065499580350885,-0.11826027965388088,-0.052180068926521855
5495,8.0,299.7632,1132.3335,0.0,0.0,0.0,-0.05572558447907528,0.0,0.0,-0.1253295533490639,-0.09858244595432991,-0.12028912046161189,-0.5302345068700715,-0.13599437542159987,-0.024569044231525877
5496,8.0,300.44523,1129.3461,0.0,0.0,0.0,-0.05573572562274754,0.0,0.0,-0.11631288388918788,-0.13746007208875285,-0.089520069795693,-0.5368794719533785,-0.14415852664483886,-0.040655709833906165
5497,8.0,300.624,1151.1017,0.0,0.0,0.0,-0.0557458667664198,0.0,0.0,-0.09248822688337731,-0.12730331388135888,-0.13011463707881488,-0.5469877360109864,-0.13749936592763085,-0.026182544704015973
5498,8.0,301.02504,1221.5014,0.0,0.0,0.0,-0.055756007910092074,0.0,0.0,-0.05373784165676204,-0.1336056180458479,-0.1839624761531828,-0.5219437095168334,-0.11440457931335289,-0.0012175759343403887
5499,8.0,300.91483999999997,1325.3915,0.0,0.0,0.0,-0.055766149053764334,0.0,0.0,-0.07498898323708643,-0.17021926855433384,-0.15767768438157584,-0.5264207449511825,-0.14031100323261786,-0.01142270072333279
5500,8.0,299.98894,1442.8517,0.0,0.0,0.0,-0.055776290197436594,0.0,0.0,-0.09928229374539951,-0.14459081966750287,-0.1947177814596488,-0.5370693854196215,-0.15553565340517383,-0.00883775928176893
5501,8.0,300.47876,1317.0724,0.0,0.0,0.0,-0.05578643134110885,0.0,0.0,-0.14629149916534687,-0.13516143317689486,-0.11890418995992988,-0.5372305529805276,-0.14517353980001285,-0.005090610653604155
5502,8.0,299.44177,982.0247800000001,0.0,0.0,0.0,-0.05579657248478111,0.0,0.0,-0.08817271668721961,-0.12567584170323987,-0.08466245863703413,-0.5351108033738244,-0.09752498268621641,-0.02080580093612268
5503,8.0,300.07142000000005,973.64176,0.0,0.0,0.0,-0.05580671362845338,0.0,0.0,-0.08630314562295732,-0.08077247092637223,-0.12888716564267289,-0.5479828590666974,-0.12672629834691188,-0.043695827943692464
5504,8.0,300.25018,1109.778,0.0,0.0,0.0,-0.05581685477212564,0.0,0.0,-0.06164376507876595,-0.11950920159463987,-0.15619182403743287,-0.5524726411873044,-0.15159795073405286,-0.05675788018931664
5505,8.0,299.95772,892.57618,0.0,0.0,0.0,-0.0558269959157979,0.0,0.0,-0.06401397288493724,-0.08786311913241472,-0.11944377603568287,-0.5375868218481885,-0.15007854167909887,-0.05421827925792755
5506,8.0,300.02381,1012.4416,0.0,0.0,0.0,-0.05583713705947016,0.0,0.0,-0.08597583037690382,-0.09027064190001872,-0.13151049041657487,-0.5120655950869396,-0.09741436921254971,-0.034506977907573566
5507,8.0,300.92973,1345.6469,0.0,0.0,0.0,-0.05584727820314242,0.0,0.0,-0.15688704532854583,-0.13914619118265986,-0.11300982028570088,-0.5150317732971784,-0.12920536670407687,-0.014711759183937585
5508,8.0,299.83704,1318.0618,0.0,0.0,0.0,-0.055857419346814687,0.0,0.0,-0.12892256860116688,-0.12659585252903788,-0.14513945406664885,-0.5369063129485274,-0.14623586160235585,-0.006953456067677682
5509,8.0,299.24781,1287.4646,0.0,0.0,0.0,-0.055867560490486946,0.0,0.0,-0.09422725485775602,-0.14248636000480885,-0.15464348669212385,-0.5203335335179214,-0.16927153520579982,-0.009033537844890771
5510,8.0,298.75181000000003,1275.5188,0.0,0.0,0.0,-0.055877701634159206,0.0,0.0,-0.06543595186327564,-0.13698572918693888,-0.1853041712730978,-0.5332066328583974,-0.1113289903573159,-0.0037165944766993165
5511,8.0,298.82635,1125.1443,0.0,0.0,0.0,-0.055887842777831466,0.0,0.0,-0.06006755524970614,-0.11603332818659788,-0.16591488080452382,-0.5188223419212785,-0.1352790309835009,-0.006160012844995934
5512,8.0,299.19664,1033.9865,0.0,0.0,0.0,-0.055897983921503726,0.0,0.0,-0.07440942951113892,-0.12544503346296088,-0.1144516245154959,-0.5690511252159735,-0.15198098966935586,-0.03236562175573817
5513,8.0,299.5414,1003.7398,0.0,0.0,0.0,-0.05590812506517599,0.0,0.0,-0.1077498971615869,-0.09729978075874071,-0.1000621406716144,-0.5382727415033834,-0.14636514218261487,-0.007449369848220562
5514,8.0,301.17677000000003,940.67985,0.0,0.0,0.0,-0.05591826620884825,0.0,0.0,-0.08684918711509743,-0.09259568408298251,-0.10649831037306488,-0.5279373878333635,-0.09231825924535282,-0.046303807044829955
5515,8.0,299.95901000000003,972.6262800000001,0.0,0.0,0.0,-0.05592840735252051,0.0,0.0,-0.05830971324747065,-0.1143691256923539,-0.12297526674171388,-0.5113779326415725,-0.0956036588598465,-0.03981656751183926
5516,8.0,300.34432000000004,1254.004,0.0,0.0,0.0,-0.05593854849619277,0.0,0.0,-0.07297854001142114,-0.14251219788235886,-0.16569516765283984,-0.5399519502316085,-0.13199999153988487,-0.06252159024990053
5517,8.0,301.05622999999997,1503.4525,0.0,0.0,0.0,-0.05594868963986503,0.0,0.0,-0.1094130458757269,-0.17994039001373383,-0.16765857276911283,-0.5170221106011095,-0.14613524586742588,-0.016162450630359683
5518,8.0,300.3521,1300.0602,0.0,0.0,0.0,-0.0559588307835373,0.0,0.0,-0.1268687815759739,-0.12907996687170087,-0.13923709998163186,-0.5360246637715155,-0.12030389364806988,-0.02897477219008737
5519,8.0,301.08117999999996,1127.7068,0.0,0.0,0.0,-0.05596897192720956,0.0,0.0,-0.11836468494418488,-0.11067154302993089,-0.1137584803870879,-0.5054656689705774,-0.13993158160017186,0.01024090660169879
5520,8.0,301.71385,1055.3081,0.0,0.0,0.0,-0.05597911307088182,0.0,0.0,-0.08157724785804751,-0.11270415312803389,-0.12650592658266288,-0.5502467738976284,-0.16873334741518484,-0.013287542949378386
5521,8.0,301.54273,1126.1763,0.0,0.0,0.0,-0.05598925421455408,0.0,0.0,-0.06622941585758445,-0.1093848369929429,-0.16671521666101086,-0.5448964080695884,-0.14025460573205187,0.002734956766569217
5522,8.0,301.37217000000004,1250.7837,0.0,0.0,0.0,-0.05599939535822634,0.0,0.0,-0.08240389477988122,-0.13512026482533188,-0.16268284603304684,-0.5386049051511655,-0.1084838550040229,-0.026531912325245873
5523,8.0,300.76986,1339.7402,0.0,0.0,0.0,-0.0560095365018986,0.0,0.0,-0.09861216761951322,-0.14594432928358386,-0.16269106349135784,-0.5312369658565065,-0.09085701175938891,-0.034030527445551566
5524,8.0,299.37847,1085.6459,0.0,0.0,0.0,-0.05601967764557086,0.0,0.0,-0.12398357218122587,-0.13281512084783187,-0.07321055401931913,-0.5680073053604564,-0.1132829722476589,-0.05320752884592425
5525,8.0,299.88698999999997,1142.9073,0.0,0.0,0.0,-0.05602981878924312,0.0,0.0,-0.13357676068299987,-0.12146463243262588,-0.09237387350359151,-0.5462908935197135,-0.12092100348897389,-0.03012802508290457
5526,8.0,300.32482000000005,1414.9314,0.0,0.0,0.0,-0.05603995993291538,0.0,0.0,-0.13472831942164987,-0.1327651878829039,-0.16261031759088884,-0.5386577157463776,-0.1134656207106849,-0.02854269093669427
5527,8.0,299.81372999999996,1246.7195,0.0,0.0,0.0,-0.05605010107658764,0.0,0.0,-0.07650036532474823,-0.1353996989379099,-0.16707152605867584,-0.5405007670157724,-0.13717529814814788,-0.016061407303887484
5528,8.0,299.70139,923.9870599999999,0.0,0.0,0.0,-0.056060242220259904,0.0,0.0,-0.020451235341879783,-0.10633046549399991,-0.15408729344723185,-0.5305578957719875,-0.15057251123534987,-0.026930479318331375
5529,8.0,300.0737,921.9747199999999,0.0,0.0,0.0,-0.056070383363932164,0.0,0.0,-0.04633644383055095,-0.11417338603803588,-0.11974746735565488,-0.5407406134469435,-0.14618029496687188,-0.023585263497434276
5530,8.0,299.57084,1119.3383,0.0,0.0,0.0,-0.05608052450760442,0.0,0.0,-0.12222312105998288,-0.10131800945505899,-0.1167097536883559,-0.5185709951014724,-0.11522995257981089,-0.015887953072268885
5531,8.0,299.27567999999997,1303.0796,0.0,0.0,0.0,-0.05609066565127668,0.0,0.0,-0.14096216840938286,-0.1303726916142829,-0.12476879034622089,-0.5466077165609815,-0.14548800196854786,-0.02400696704330318
5532,8.0,299.39603999999997,1190.7908,0.0,0.0,0.0,-0.05610080679494894,0.0,0.0,-0.07121446449457043,-0.15690446309776485,-0.13385175676013986,-0.5353264128626035,-0.13320881917418687,-0.023212221287617876
5533,8.0,299.18149,990.57349,0.0,0.0,0.0,-0.05611094793862121,0.0,0.0,-0.04116048266272336,-0.11724757670893488,-0.14270154392854587,-0.5474273852293765,-0.13141131349678686,-0.03239444264158257
5534,8.0,300.2114,1165.5307,0.0,0.0,0.0,-0.05612108908229347,0.0,0.0,-0.05926675937767374,-0.14353684704598388,-0.15148863118076386,-0.5434868758554784,-0.1026355882093439,-0.03534749521002617
5535,8.0,299.60393,1307.7285,0.0,0.0,0.0,-0.05613123022596573,0.0,0.0,-0.12091633240601289,-0.13762144229967888,-0.13897904544616388,-0.5706984064335474,-0.11970126315109489,-0.04251556990921006
5536,8.0,299.84249,1343.6943,0.0,0.0,0.0,-0.05614137136963799,0.0,0.0,-0.16645809431563485,-0.12465860953034688,-0.11733282143984788,-0.5444949178499645,-0.13575477217045287,0.01112094775080209
5537,8.0,300.77391,1161.1633,0.0,0.0,0.0,-0.05615151251331025,0.0,0.0,-0.12704774180863587,-0.1026620441694549,-0.12325486297430789,-0.5313510071552615,-0.11769169436026589,-0.02278039739975018
5538,8.0,299.9405,1099.7266,0.0,0.0,0.0,-0.056161653656982516,0.0,0.0,-0.06824714435146874,-0.1056903548758259,-0.16035191484050185,-0.4991543266151965,-0.12659113078357187,0.009700488546288681
5539,8.0,300.22885,1245.7378,0.0,0.0,0.0,-0.056171794800654776,0.0,0.0,-0.06875081071117672,-0.13111383339992788,-0.17880852885702783,-0.5368659247995415,-0.14608002373697584,-0.03470613525447887
5540,8.0,300.12807000000004,1345.9426,0.0,0.0,0.0,-0.056181935944327036,0.0,0.0,-0.07266566053954233,-0.16608506629131986,-0.17038220930291484,-0.5420701191681555,-0.14518896146653484,-0.026531843424239074
5541,8.0,299.76153999999997,1069.4839,0.0,0.0,0.0,-0.056192077087999295,0.0,0.0,-0.07103076427794064,-0.13473935371523887,-0.11932626942158589,-0.5345409413850835,-0.1240322385835289,-0.053681607289462155
5542,8.0,300.5143,1040.9703,0.0,0.0,0.0,-0.056202218231671555,0.0,0.0,-0.09483174770841482,-0.13704149847244287,-0.08455572287150012,-0.5369453940048845,-0.11967163571817088,-0.03501052571701987
5543,8.0,300.40254,1087.0518,0.0,0.0,0.0,-0.05621235937534382,0.0,0.0,-0.09053262987237491,-0.12656336773083188,-0.11334059578084588,-0.5639015044977455,-0.14754932757448486,-0.03305151303993037
5544,8.0,298.37076,1095.2029,0.0,0.0,0.0,-0.05622250051901608,0.0,0.0,-0.06030902592078744,-0.1288552077345189,-0.14375010579453085,-0.5473664281033606,-0.15265903637127387,-0.029390781270394267
5545,8.0,299.13791000000003,1159.0451,0.0,0.0,0.0,-0.05623264166268834,0.0,0.0,-0.05893905605683195,-0.14351164751599685,-0.14987005533852285,-0.5381336323971545,-0.11172910255680389,-0.025900380895668575
5546,8.0,299.69448,1103.4471,0.0,0.0,0.0,-0.0562427828063606,0.0,0.0,-0.07666346110059453,-0.10393160601475092,-0.15482529415756685,-0.5303823704571645,-0.09139079089881881,-0.034001779513714366
5547,8.0,299.34645,1028.6552,0.0,0.0,0.0,-0.05625292395003286,0.0,0.0,-0.0939352007151825,-0.12092422562429189,-0.09782606792693122,-0.5332171199969324,-0.11604293379754589,-0.026454343977090473
5548,8.0,299.15862000000004,1207.4818,0.0,0.0,0.0,-0.05626306509370513,0.0,0.0,-0.13162127918250888,-0.11690006232213788,-0.1185229748748069,-0.5331004847779215,-0.13451663121075788,-0.03535144080591557
5549,8.0,299.66769,1348.2596,0.0,0.0,0.0,-0.05627320623737739,0.0,0.0,-0.11487935791270988,-0.1202443854696969,-0.17471349884287982,-0.5244117739779125,-0.12553956969729088,-0.008004658463423284
5550,8.0,299.77969,1246.5125,0.0,0.0,0.0,-0.05628334738104964,0.0,0.0,-0.07216007711064513,-0.15140876680788184,-0.15533982255834686,-0.5363025577439414,-0.15580825821207783,-0.01933483536844968
5551,8.0,300.15116,1020.4171,0.0,0.0,0.0,-0.05629348852472191,0.0,0.0,-0.002350296428456198,-0.12728489299454088,-0.18054612105601484,-0.5295231141073624,-0.17814631925417285,-0.013639656478379288
5552,8.0,299.98492000000005,975.55491,0.0,0.0,0.0,-0.05630362966839417,0.0,0.0,-0.050982306996561956,-0.11130820859776488,-0.1342538143998199,-0.5657722377598724,-0.16582953474860085,-0.018348507323606683
5553,8.0,299.78881,1175.5581,0.0,0.0,0.0,-0.056313770812066434,0.0,0.0,-0.0996583625332646,-0.12874639480627986,-0.12893553820244688,-0.5247150903953476,-0.11535798686244689,-0.017602182763700184
5554,8.0,299.88253,1188.2935,0.0,0.0,0.0,-0.056323911955738694,0.0,0.0,-0.14751634628372984,-0.1016687145664209,-0.11202649146115388,-0.5490273172697775,-0.11808183617876988,-0.012912731604887387
5555,8.0,301.28403,1191.1301,0.0,0.0,0.0,-0.056334053099410954,0.0,0.0,-0.1002318924873676,-0.11860490627789287,-0.14323701620889287,-0.5211146682850135,-0.1109641797913119,-0.015740695408735683
5556,8.0,300.14047,1030.7677,0.0,0.0,0.0,-0.056344194243083214,0.0,0.0,-0.08887066463435173,-0.11071164746888888,-0.11374531826828889,-0.5399701380709034,-0.11555019027391589,-0.01983363508792738
5557,8.0,299.4882,1256.3122,0.0,0.0,0.0,-0.05635433538675547,0.0,0.0,-0.06937739950676623,-0.12082511963201088,-0.1916850327178398,-0.5110939895660495,-0.1094959196014059,-0.013603780332088587
5558,8.0,299.37234,1437.3941,0.0,0.0,0.0,-0.05636447653042775,0.0,0.0,-0.12823132938294687,-0.14873596503159686,-0.15996461012227783,-0.5377879823905415,-0.12937935187874788,-0.029770645693133972
5559,8.0,299.64488,1275.3312,0.0,0.0,0.0,-0.05637461767410001,0.0,0.0,-0.12311901653340088,-0.14727326758473985,-0.11727656579429588,-0.5260547590150625,-0.15189175273304886,-0.030721243499700675
5560,8.0,300.02882,1072.07,0.0,0.0,0.0,-0.05638475881777227,0.0,0.0,-0.1098221658686039,-0.1086283343357819,-0.10743201020771391,-0.5478775621163056,-0.15158749399302088,-0.040742634533484964
5561,8.0,300.03636,1048.1647,0.0,0.0,0.0,-0.056394899961444526,0.0,0.0,-0.04863673434007196,-0.1243634700412189,-0.14561569174614986,-0.5519662998473325,-0.13615996075294187,-0.03376365155471297
5562,8.0,300.45982000000004,1037.8861,0.0,0.0,0.0,-0.05640504110511678,0.0,0.0,-0.03890487648261236,-0.1117283426192289,-0.16485824333524185,-0.5430676233616015,-0.12761937698505188,-0.022241916779856277
5563,8.0,300.29629,1029.3521,0.0,0.0,0.0,-0.05641518224878905,0.0,0.0,-0.01070006696401439,-0.13502650879357886,-0.16717075364096884,-0.5351001541152735,-0.14350054229490086,-0.04407722845358376
5564,8.0,300.58765,1104.0041,0.0,0.0,0.0,-0.05642532339246131,0.0,0.0,-0.1017575867326919,-0.12166787013768388,-0.11216421241474589,-0.5292947680648264,-0.12086020848297388,-0.027452851288135478
5565,8.0,300.13518,1184.9578,0.0,0.0,0.0,-0.05643546453613357,0.0,0.0,-0.13597236762942788,-0.10506967839456989,-0.11915554691223688,-0.5460745848883655,-0.11585571557656889,-0.01112934962063129
5566,8.0,300.15754,1318.83,0.0,0.0,0.0,-0.05644560567980583,0.0,0.0,-0.14161723459903286,-0.15724887693925585,-0.10202527727661091,-0.5284183877883345,-0.1104282718134219,-0.008053933119761313
5567,8.0,299.44045,1384.3861,0.0,0.0,0.0,-0.05645574682347809,0.0,0.0,-0.12323219656957089,-0.13866360042503187,-0.15892299915197883,-0.5474403953606605,-0.12132181483103088,-0.03118415086088607
5568,8.0,300.09466000000003,1503.8324,0.0,0.0,0.0,-0.05646588796715036,0.0,0.0,-0.11127158973915088,-0.15783117150672385,-0.1880247477915978,-0.5497472719958315,-0.13207815365259887,0.010722791124007092
5569,8.0,300.44562,1221.2176,0.0,0.0,0.0,-0.05647602911082262,0.0,0.0,-0.07483326392196814,-0.12603652834133688,-0.17034987649222386,-0.5521533660807945,-0.11593423232681789,-0.04452836083535705
5570,8.0,300.06732,1071.2908,0.0,0.0,0.0,-0.05648617025449488,0.0,0.0,-0.08652092144045011,-0.10025755912565071,-0.13886716237012187,-0.5406760795480745,-0.13456316978785088,0.02126276659872168
5571,8.0,299.68142,1194.3998,0.0,0.0,0.0,-0.05649631139816714,0.0,0.0,-0.12440659396547488,-0.12241210233613388,-0.1162490187353849,-0.5488298449577885,-0.15529111562603987,-0.04447433332677496
5572,8.0,299.74503,1271.9346,0.0,0.0,0.0,-0.0565064525418394,0.0,0.0,-0.1078812245070479,-0.13834164020575687,-0.14041349348023288,-0.5392636089086745,-0.14688425047384687,0.002156115152791998
5573,8.0,300.03905,1124.343,0.0,0.0,0.0,-0.05651659368551166,0.0,0.0,-0.08199709614298333,-0.12633896323118488,-0.13343613170162089,-0.5390121911613615,-0.12796000127116888,-0.04826586352521986
5574,8.0,299.7174,1253.2939999999999,0.0,0.0,0.0,-0.056526734829183925,0.0,0.0,-0.060177164592523744,-0.14803350913476987,-0.17275940549502583,-0.5261092009429355,-0.12730419540894589,-0.013274090027800686
5575,8.0,299.86014,1223.5116,0.0,0.0,0.0,-0.056536875972856185,0.0,0.0,-0.06497196133773334,-0.16291225598818784,-0.14403276204242688,-0.5403456992204685,-0.13349562974749288,-0.053641394432743454
5576,8.0,299.87574,1066.8321,0.0,0.0,0.0,-0.056547017116528445,0.0,0.0,-0.0985383016872232,-0.13830274153441788,-0.08744928651332261,-0.5407801504658455,-0.13152691520069587,-0.027960644615500768
5577,8.0,301.05768,1143.2768,0.0,0.0,0.0,-0.056557158260200704,0.0,0.0,-0.11429923170045589,-0.1225346650682299,-0.1106936926771169,-0.5373143994263024,-0.13102479911364087,-0.03500009228074017
5578,8.0,301.05343,1060.7637,0.0,0.0,0.0,-0.056567299403872964,0.0,0.0,-0.1022654884778179,-0.09364495522403751,-0.12653522977555487,-0.5260287995475005,-0.1050479948424299,-0.026565738666584272
5579,8.0,300.54787000000005,870.33113,0.0,0.0,0.0,-0.056577440547545224,0.0,0.0,-0.033409307862241965,-0.0994069295872001,-0.13174269694199187,-0.5409650179465905,-0.11248681098158389,-0.033479980030216766
5580,8.0,301.18426,1077.1495,0.0,0.0,0.0,-0.056587581691217484,0.0,0.0,-0.05380314055945654,-0.12498022524458789,-0.14864319185244085,-0.5521317737211635,-0.11689238188637988,-0.04025985531133836
5581,8.0,300.47737,1133.7055,0.0,0.0,0.0,-0.056597722834889744,0.0,0.0,-0.05699378609084874,-0.11866352279617788,-0.16896086259263884,-0.5612067253267914,-0.1068302308408229,-0.03013663872200467
5582,8.0,299.9146,1145.4646,0.0,0.0,0.0,-0.056607863978562004,0.0,0.0,-0.10371792170116191,-0.12890820071474887,-0.1155665036005259,-0.5694642982092505,-0.1323756742794619,-0.016829063818149286
5583,8.0,300.62441,1299.7834,0.0,0.0,0.0,-0.05661800512223427,0.0,0.0,-0.1040725491036609,-0.14233817217768385,-0.14869098685965784,-0.5437162858106195,-0.16414843124268885,-0.025409343685206975
5584,8.0,299.81684,1372.4404,0.0,0.0,0.0,-0.05662814626590653,0.0,0.0,-0.1254361168620809,-0.13959077492903688,-0.15216073010459485,-0.5561665862818684,-0.17132446096840784,-0.008081561916863062
5585,8.0,299.95639,1304.4323,0.0,0.0,0.0,-0.05663828740957879,0.0,0.0,-0.07692579053823442,-0.1260394667666269,-0.19354957502185582,-0.5096215547857315,-0.1138098724321599,-0.0009200851274278322
5586,8.0,299.55024,1202.1016,0.0,0.0,0.0,-0.05664842855325105,0.0,0.0,-0.09331064247279341,-0.10547289113936391,-0.16662532111213885,-0.5152669993078934,-0.1101619998196429,-0.004970005622026365
5587,8.0,299.39526,1315.7659,0.0,0.0,0.0,-0.05665856969692331,0.0,0.0,-0.09000611573616202,-0.12879451405352887,-0.1811593400165348,-0.5121534337381085,-0.1079705931658679,-0.003795100283847236
5588,8.0,300.38867,1327.8356,0.0,0.0,0.0,-0.056668710840595576,0.0,0.0,-0.15794899222835185,-0.1198780955585469,-0.12580178869066988,-0.5515829366719975,-0.15168272936991986,-0.03825863266158306
5589,8.0,300.30204,1199.1893,0.0,0.0,0.0,-0.056678851984267836,0.0,0.0,-0.09774974486314872,-0.13655510802693988,-0.13021874852658985,-0.5307464210855936,-0.12222416470758588,-0.019973882074018682
5590,8.0,299.99183999999997,1093.6274,0.0,0.0,0.0,-0.056688993127940096,0.0,0.0,-0.1055061966701509,-0.1074105495705959,-0.11951865521807288,-0.5690919591950034,-0.12849726700419287,-0.05862005250134874
5591,8.0,300.77342000000004,1144.4274,0.0,0.0,0.0,-0.056699134271612356,0.0,0.0,-0.04016390660636896,-0.14297357118289286,-0.16473986532605883,-0.5628038405319145,-0.1310972059657869,-0.019713997608870083
5592,8.0,300.4418,877.15945,0.0,0.0,0.0,-0.056709275415284616,0.0,0.0,-0.03525210480586186,-0.1181848533164369,-0.11319760592673388,-0.5803482153509094,-0.15082939040070187,-0.06779915709800584
5593,8.0,300.28932000000003,1113.1371,0.0,0.0,0.0,-0.05671941655895688,0.0,0.0,-0.04793834765564655,-0.15129440126909485,-0.13913315065387288,-0.5349339203038675,-0.1162357451590749,-0.008188125429880063
5594,8.0,300.39061,1291.2769,0.0,0.0,0.0,-0.05672955770262914,0.0,0.0,-0.13975150679239987,-0.12196446870695589,-0.13079994878394988,-0.5248802704266495,-0.1004978909036196,-0.03408200764338227
5595,8.0,299.51406000000003,1176.4486,0.0,0.0,0.0,-0.0567396988463014,0.0,0.0,-0.09880141842019081,-0.12425763606827388,-0.13455194297674286,-0.5090877341030475,-0.11842565220270188,-0.024976086048447775
5596,8.0,299.69263,1142.0951,0.0,0.0,0.0,-0.05674983998997366,0.0,0.0,-0.09262945672206561,-0.12276157229562389,-0.1317773602279129,-0.5294472622048765,-0.14788143042726087,-0.027681859996236874
5597,8.0,299.68141,1172.711,0.0,0.0,0.0,-0.05675998113364592,0.0,0.0,-0.06111320098190334,-0.11790706066902089,-0.17745460380840583,-0.5123113386336925,-0.13637726236938785,-0.012492830630946387
5598,8.0,299.72873,1079.7167,0.0,0.0,0.0,-0.05677012227731819,0.0,0.0,-0.07677041066189963,-0.1058469222812779,-0.14558958029107286,-0.5474687764959615,-0.11140071833189488,-0.02151827483668838
5599,8.0,300.4382,1066.8592,0.0,0.0,0.0,-0.05678026342099045,0.0,0.0,-0.1001983822800604,-0.10730860647803489,-0.11679158376643188,-0.5757840201429585,-0.13155688713865388,-0.034730257699609565
5600,8.0,301.15004,1233.2948,0.0,0.0,0.0,-0.05679040456466271,0.0,0.0,-0.13277776231664487,-0.13958360111832888,-0.1025294603938699,-0.5700992412519145,-0.15019026263512486,-0.026435789341259272
5601,8.0,300.23311,1004.7939,0.0,0.0,0.0,-0.05680054570833497,0.0,0.0,-0.08035451944562362,-0.0944802694872266,-0.13059747101646688,-0.5656648028517695,-0.13768825601127288,-0.05095254176162436
5602,8.0,301.40569,1077.2808,0.0,0.0,0.0,-0.05681068685200723,0.0,0.0,-0.0879697272284361,-0.11752816592662689,-0.12196857236986089,-0.5226273898893075,-0.12023127401340289,0.004016067028554957
5603,8.0,299.87548,1199.5825,0.0,0.0,0.0,-0.056820827995679495,0.0,0.0,-0.07595543435471772,-0.12087689671212089,-0.16781079333163584,-0.5438346942173055,-0.15319192486386585,-0.016595911930388986
5604,8.0,299.77969,1255.8951,0.0,0.0,0.0,-0.056830969139351754,0.0,0.0,-0.08504963264599523,-0.12540982302198586,-0.17130128793862084,-0.5388968225049755,-0.1356135757690179,0.01838600973630788
5605,8.0,299.08167000000003,1156.6591,0.0,0.0,0.0,-0.056841110283024014,0.0,0.0,-0.08916308152046101,-0.13433167253750386,-0.1281007417100589,-0.5316900609037235,-0.13108719505479888,-0.013340939203148187
5606,8.0,299.83599,1218.2678,0.0,0.0,0.0,-0.056851251426696274,0.0,0.0,-0.11720543563727588,-0.12466061576554488,-0.12845692951771187,-0.5333751262175265,-0.0922859446731636,-0.00908179094247798
5607,8.0,299.19369,1238.2838,0.0,0.0,0.0,-0.056861392570368534,0.0,0.0,-0.1073804357776239,-0.13569357186441286,-0.13333335774397786,-0.5483247093854354,-0.12461595170113689,-0.05342439577807735
5608,8.0,299.83404,1141.8948,0.0,0.0,0.0,-0.0568715337140408,0.0,0.0,-0.07628695661518642,-0.12800978224858187,-0.14281076215682487,-0.5356140239034884,-0.14476827015751587,-0.03190582912536017
5609,8.0,299.29115,1075.4119,0.0,0.0,0.0,-0.05688167485771306,0.0,0.0,-0.04474543041753016,-0.12744253444509887,-0.15471040172872785,-0.5246358137075235,-0.14501398330676588,-0.06348993817171904
5610,8.0,299.53031,1122.3332,0.0,0.0,0.0,-0.05689181600138532,0.0,0.0,-0.06669286226782303,-0.1332758456683019,-0.14119256121712087,-0.5227755169214265,-0.12607806146293588,-0.03541686231187217
5611,8.0,300.58376,1005.7077,0.0,0.0,0.0,-0.05690195714505758,0.0,0.0,-0.0995895851429768,-0.10380231530199091,-0.1023181369530139,-0.5351981759299476,-0.14168631799085088,-0.056530760179401646
5612,8.0,300.70816,1141.7088,0.0,0.0,0.0,-0.05691209828872984,0.0,0.0,-0.08982620710140642,-0.13290979893717586,-0.12431494549392988,-0.5619410580717644,-0.15741431028308284,-0.020649902275736678
5613,8.0,300.68407,1287.9144,0.0,0.0,0.0,-0.056922239432402114,0.0,0.0,-0.0997372136560466,-0.14375741132775186,-0.14799919035388287,-0.5365899357373035,-0.1117942748032359,-0.041233458961425565
5614,8.0,300.42087000000004,1392.3277,0.0,0.0,0.0,-0.056932380576074366,0.0,0.0,-0.11986621013487389,-0.12178373528661889,-0.18158290895583784,-0.5375421071212755,-0.09058567858136041,0.012845201525472687
5615,8.0,300.03986000000003,1281.6946,0.0,0.0,0.0,-0.056942521719746626,0.0,0.0,-0.07141008255887643,-0.14737993242276684,-0.17081312430544285,-0.5370439832396146,-0.14565680943520787,-0.025081772086878177
5616,8.0,300.30452,1353.5997,0.0,0.0,0.0,-0.056952662863418886,0.0,0.0,-0.13826400498309488,-0.12435005460989487,-0.14884644982250086,-0.5610876583075405,-0.15617519660329185,0.02385530579483538
5617,8.0,299.97627,1362.5354,0.0,0.0,0.0,-0.056962804007091146,0.0,0.0,-0.1380163767911559,-0.12437390651724888,-0.15178646591515785,-0.5264961712886265,-0.12409361114208588,-0.017614157353381982
5618,8.0,298.92251,1074.0853,0.0,0.0,0.0,-0.05697294515076342,0.0,0.0,-0.12232614833015089,-0.11680192904995289,-0.08736702681720422,-0.5274085219436685,-0.10489381870721388,-0.02869595008056977
5619,8.0,299.23251,966.9187400000001,0.0,0.0,0.0,-0.05698308629443568,0.0,0.0,-0.04960955778758216,-0.091245766438506,-0.15306382978622385,-0.5409965604222035,-0.12386184031421188,-0.04251847489724676
5620,8.0,299.8724,1091.3325,0.0,0.0,0.0,-0.05699322743810794,0.0,0.0,-0.07708591343828733,-0.11689375990651588,-0.13775816013567185,-0.5756837489130625,-0.15089271853195188,-0.03571181738948197
5621,8.0,300.3989,1189.7892,0.0,0.0,0.0,-0.0570033685817802,0.0,0.0,-0.013487713546383687,-0.14650545705646287,-0.2016730543860808,-0.5397020422269444,-0.1311595917744439,-0.03408468768989677
5622,8.0,301.26185,1111.6722,0.0,0.0,0.0,-0.05701350972545246,0.0,0.0,-0.11903843546567888,-0.09471651584079231,-0.12416563295919388,-0.5596062967938416,-0.11146644786588189,-0.02745652837274837
5623,8.0,301.74632,1193.9861,0.0,0.0,0.0,-0.057023650869124726,0.0,0.0,-0.09078034520382251,-0.15199119309786285,-0.12017043847739889,-0.5289254181383745,-0.15127034671172085,-0.006965211390037842
5624,8.0,300.17278999999996,1161.8869,0.0,0.0,0.0,-0.057033792012796986,0.0,0.0,-0.11525050129183889,-0.1256539048385749,-0.1122801890211919,-0.5770214518275835,-0.16220435893832386,-0.026000565999306075
5625,8.0,300.40365,1264.9421,0.0,0.0,0.0,-0.057043933156469245,0.0,0.0,-0.057803417503753146,-0.15647487545286787,-0.17023251173314086,-0.5041863596593195,-0.11726232963039089,-0.02068726789967438
5626,8.0,299.64951,1249.4712,0.0,0.0,0.0,-0.057054074300141505,0.0,0.0,-0.08892740562670161,-0.14773454969276487,-0.1431460972774199,-0.5172832656818835,-0.08552212433987652,-0.04961302512942436
5627,8.0,299.98942999999997,1153.628,0.0,0.0,0.0,-0.057064215443813765,0.0,0.0,-0.05783091609821705,-0.11511331736079988,-0.17772985319807083,-0.5272174635048126,-0.1028033418958999,-0.017643783773055883
5628,8.0,299.00602000000003,956.4059599999999,0.0,0.0,0.0,-0.057074356587486025,0.0,0.0,-0.12145433781160989,-0.09245581706567872,-0.07681337347938973,-0.5833751176396414,-0.14836672656265584,-0.03389575707625077
5629,8.0,299.49922999999995,1037.5841,0.0,0.0,0.0,-0.057084497731158285,0.0,0.0,-0.1000039791026243,-0.1007305584578321,-0.1146651163115659,-0.5539092170465835,-0.12219545933225288,-0.013595658119286987
5630,8.0,299.23182,1141.0784,0.0,0.0,0.0,-0.05709463887483055,0.0,0.0,-0.11073330062352589,-0.11413208596395989,-0.12199395428486588,-0.5534633363400784,-0.1176306865717449,-0.04489371450341466
5631,8.0,300.7099,1258.0211,0.0,0.0,0.0,-0.05710478001850281,0.0,0.0,-0.06152476797377185,-0.14690386699578284,-0.17397836563032784,-0.5490192416664805,-0.14589767924897984,-0.038724309235291764
5632,8.0,301.03031,1192.32,0.0,0.0,0.0,-0.05711492116217507,0.0,0.0,-0.06955841055763064,-0.11615484727109088,-0.17672223676862683,-0.5836953857312495,-0.15941564135059885,-0.031561201488098066
5633,8.0,300.39967,1163.0391,0.0,0.0,0.0,-0.05712506230584733,0.0,0.0,-0.043549688908269664,-0.13403760709348186,-0.17594756653717283,-0.5373209652869505,-0.10478451941892691,-0.016781615342466482
5634,8.0,300.06014,1154.2582,0.0,0.0,0.0,-0.05713520344951959,0.0,0.0,-0.12028820853652189,-0.12241708752662589,-0.10816036477709691,-0.5235573609635885,-0.08084416749019813,-0.007279692303699692
5635,8.0,300.29677999999996,1197.6804,0.0,0.0,0.0,-0.05714534459319185,0.0,0.0,-0.1209294337298059,-0.12338174215182988,-0.11975374950627489,-0.5491196851488935,-0.12987563164522686,-0.005613871750371004
5636,8.0,299.66222,1217.2788,0.0,0.0,0.0,-0.05715548573686411,0.0,0.0,-0.12489362275854088,-0.1254945611278489,-0.11963416572947289,-0.5486272354677925,-0.18514555710244382,-0.008751040778585482
5637,8.0,299.06336,1129.0257,0.0,0.0,0.0,-0.05716562688053637,0.0,0.0,-0.054315241212996954,-0.12480338270463488,-0.16407699711063886,-0.5492172611335234,-0.15333692095317586,-0.03534625093890336
5638,8.0,298.20705,1031.8155,0.0,0.0,0.0,-0.05717576802420864,0.0,0.0,-0.018385736158780884,-0.13459752909874187,-0.16066288129619186,-0.5153734817609025,-0.12157775167378987,-0.02933039257768437
5639,8.0,299.3492,1253.7383,0.0,0.0,0.0,-0.0571859091678809,0.0,0.0,-0.08155563016716402,-0.14330019235262786,-0.15624930571560586,-0.5582612680810974,-0.13403395939312188,-0.05083918643318705
5640,8.0,300.43863,1239.2061,0.0,0.0,0.0,-0.05719605031155316,0.0,0.0,-0.13873452793203186,-0.1138677898078759,-0.12408539368377489,-0.5575435830352674,-0.14228770219020284,-0.038523591483232464
5641,8.0,300.14841,797.24551,0.0,0.0,0.0,-0.057206191455225416,0.0,0.0,-0.07882312161548642,-0.08966919690566072,-0.07385040828521784,-0.5472855099503745,-0.12456331335844188,-0.05940490184330735
5642,8.0,300.27227,839.93714,0.0,0.0,0.0,-0.057216332598897676,0.0,0.0,-0.03727560983856626,-0.12753992804471087,-0.0905043774198366,-0.5119827922887675,-0.10504387091452289,-0.03848928080834626
5643,8.0,299.88311,1056.4819,0.0,0.0,0.0,-0.05722647374256994,0.0,0.0,-0.05510506561294654,-0.13479660234588886,-0.13124245536762186,-0.5534600230122515,-0.14846395804225188,-0.044001216457581954
5644,8.0,299.55073,1264.7284,0.0,0.0,0.0,-0.0572366148862422,0.0,0.0,-0.05617142521693804,-0.15533507041537786,-0.17293935871278585,-0.5525636310462845,-0.16465280687746683,-0.015679510301447184
5645,8.0,300.85985,1277.9412,0.0,0.0,0.0,-0.05724675602991446,0.0,0.0,-0.12059373383917489,-0.1264990060844799,-0.14136948481708186,-0.5632342489093924,-0.1052602606058789,-0.014672713591334086
5646,8.0,301.46819,1221.803,0.0,0.0,0.0,-0.05725689717358672,0.0,0.0,-0.11957326939846288,-0.12219164951187687,-0.1296326846687499,-0.5464199005224455,-0.09394689058158621,0.004670865821503565
5647,8.0,301.43166,1250.2693,0.0,0.0,0.0,-0.05726703831725898,0.0,0.0,-0.13256760411340388,-0.14169233669644488,-0.1057907172982309,-0.5554579596919325,-0.11283249138569988,-0.013948068530567187
5648,8.0,302.62641,1530.1253,0.0,0.0,0.0,-0.05727717946093125,0.0,0.0,-0.14420422422434886,-0.15640215449319084,-0.16451351538621986,-0.5603804300027425,-0.15707224718182383,-0.011443339614619689
5649,8.0,301.2418,1427.2520000000002,0.0,0.0,0.0,-0.05728732060460351,0.0,0.0,-0.10888661178627189,-0.13260520582461485,-0.19235714177417182,-0.5058371669872415,-0.1320265488250059,-0.03750888027658827
5650,8.0,300.04492,1120.0604,0.0,0.0,0.0,-0.05729746174827577,0.0,0.0,-0.05451313098402716,-0.12908064574926786,-0.15687662911751785,-0.5078153148924696,-0.13101582171775486,-0.04079241145789756
5651,8.0,300.30531,1066.4457,0.0,0.0,0.0,-0.05730760289194803,0.0,0.0,-0.07761378330313402,-0.1123853643815719,-0.13417369671441287,-0.5244559719472744,-0.13752345088250786,-0.033579496388788266
5652,8.0,299.86724,1227.7203,0.0,0.0,0.0,-0.05731774403562029,0.0,0.0,-0.13242699539702688,-0.1148386657886939,-0.12593066397088887,-0.5656619556189885,-0.15607472272337586,-0.02156965370950908
5653,8.0,299.3414,1156.8715,0.0,0.0,0.0,-0.057327885179292555,0.0,0.0,-0.1025828080116349,-0.12333317707453688,-0.12574405369997188,-0.5626089114776764,-0.1039377260453549,-0.020912847769437377
5654,8.0,299.51519,1088.9753,0.0,0.0,0.0,-0.057338026322964815,0.0,0.0,-0.09075652572047173,-0.10790971709985991,-0.1323550546399269,-0.5516888719699524,-0.1039461562861869,-0.01235495465008909
5655,8.0,299.73377,1192.583,0.0,0.0,0.0,-0.057348167466637075,0.0,0.0,-0.035775133361730764,-0.15873889160880886,-0.16800140594044782,-0.5514030949117484,-0.12984780779748087,-0.017932237838024084
5656,8.0,300.60126,1407.224,0.0,0.0,0.0,-0.057358308610309335,0.0,0.0,-0.08861251586662441,-0.16434238757683084,-0.17480604910701383,-0.5654997849404835,-0.14358837081356887,-0.01936456615288388
5657,8.0,300.35671,1316.5443,0.0,0.0,0.0,-0.057368449753981594,0.0,0.0,-0.12023947120671188,-0.1387600618345519,-0.14119707018006586,-0.5366569419664166,-0.1205045880953769,-0.0044565541034526455
5658,8.0,299.67671,1111.6680000000001,0.0,0.0,0.0,-0.05737859089765386,0.0,0.0,-0.1257340225239819,-0.1138932426503879,-0.09829203834316891,-0.5297776931949876,-0.0918821108060583,-0.05601185960444015
5659,8.0,300.29652999999996,1043.8956,0.0,0.0,0.0,-0.05738873204132612,0.0,0.0,-0.07802366424683613,-0.12100382655214788,-0.11829069742188289,-0.5283398001105785,-0.1120374548272359,-0.013792923728255588
5660,8.0,299.47181,898.20015,0.0,0.0,0.0,-0.05739887318499838,0.0,0.0,-0.05915665455555724,-0.1126523557829219,-0.10122140821702522,-0.5465406292718604,-0.15837162897756285,-0.07899941396063513
5661,8.0,299.1299,1176.2025,0.0,0.0,0.0,-0.05740901432867064,0.0,0.0,-0.03257231768338747,-0.13344025562952788,-0.19152361184440883,-0.5341413256781445,-0.14048478575726886,-0.003714288522121736
5662,8.0,299.32087,1116.8377,0.0,0.0,0.0,-0.0574191554723429,0.0,0.0,-0.07142185855153864,-0.10547241491181691,-0.16259650699202585,-0.5451897845035425,-0.15729472650628085,-0.06018738220653215
5663,8.0,299.75374,991.7935,0.0,0.0,0.0,-0.05742929661601517,0.0,0.0,-0.05971958490036415,-0.10746930794389489,-0.13429156809854587,-0.5461289052262265,-0.15263591400399187,0.02418758090012838
5664,8.0,299.82966,1160.8072,0.0,0.0,0.0,-0.05743943775968743,0.0,0.0,-0.1246230241868349,-0.12837728805985188,-0.09985610639628041,-0.5667966640084755,-0.16681249880311186,-0.03779485390531166
5665,8.0,300.9935,1512.6783,0.0,0.0,0.0,-0.05744957890335969,0.0,0.0,-0.15032908803132586,-0.14526160136620386,-0.16422574222531883,-0.5388614195464815,-0.09797658825578641,0.038426681203918164
5666,8.0,301.09335,1339.9632,0.0,0.0,0.0,-0.05745972004703195,0.0,0.0,-0.12629080345393187,-0.13747899960062088,-0.14354556099684387,-0.5439696996606295,-0.0959556072290811,-0.03328786578475657
5667,8.0,300.31905,1182.2435,0.0,0.0,0.0,-0.057469861190704206,0.0,0.0,-0.027544722674702475,-0.14722863391783486,-0.18459915185351783,-0.5395794592298465,-0.11010182289620389,-0.0002560368201463668
5668,8.0,300.73733,1035.2865,0.0,0.0,0.0,-0.05748000233437647,0.0,0.0,-0.06168064130290534,-0.13060741099994788,-0.12241320677874287,-0.5507869881884435,-0.15994992812832887,-0.047154761836562656
5669,8.0,300.18956000000003,1148.2336,0.0,0.0,0.0,-0.05749014347804873,0.0,0.0,-0.09346241112577182,-0.1306229339914799,-0.12494899687650587,-0.5663223413716635,-0.14703687633640986,-0.03106811751243447
5670,8.0,299.10805,1252.2846,0.0,0.0,0.0,-0.05750028462172099,0.0,0.0,-0.15080240755053886,-0.1143747390979079,-0.11548609207258989,-0.5442604213793215,-0.15222094755803783,-0.06287717416049395
5671,8.0,299.25116,1199.7371,0.0,0.0,0.0,-0.05751042576539325,0.0,0.0,-0.11293158724547989,-0.1167649251563009,-0.13499358829782987,-0.5683030933296485,-0.15998083225637885,-0.045542053725650754
5672,8.0,299.56127000000004,913.74783,0.0,0.0,0.0,-0.05752056690906551,0.0,0.0,-0.04518613037627386,-0.1037508219319089,-0.1288195717285019,-0.5310137671244785,-0.1226814140802129,-0.03892472605207136
5673,8.0,300.20808,1002.2501,0.0,0.0,0.0,-0.057530708052737786,0.0,0.0,-0.008643416696688812,-0.13058841256057288,-0.16542719339889284,-0.5299903439934744,-0.1000451879841913,-0.027664858672808972
5674,8.0,299.9823,1308.6885,0.0,0.0,0.0,-0.057540849196410046,0.0,0.0,-0.10564018886337491,-0.14517675180282985,-0.14699168538194984,-0.5338768876670466,-0.09518654736343081,-0.015042383704817686
5675,8.0,300.59132,1298.8275,0.0,0.0,0.0,-0.0575509903400823,0.0,0.0,-0.11673229850308088,-0.13828034870720787,-0.13979847093453487,-0.5740090086177785,-0.15925201159194985,-0.008437894619280363
5676,8.0,300.6076,1121.0656,0.0,0.0,0.0,-0.05756113148375456,0.0,0.0,-0.1101640465848449,-0.14790995341757585,-0.08270195850879782,-0.5690620176545484,-0.16814416274703683,-0.009508096265001043
5677,8.0,299.78121,1023.0243,0.0,0.0,0.0,-0.05757127262742682,0.0,0.0,-0.09056975332953873,-0.11871783300153789,-0.1016862437931509,-0.5693422623672064,-0.14116326815672983,-0.023453058677386677
5678,8.0,300.79278,1302.0122,0.0,0.0,0.0,-0.05758141377109909,0.0,0.0,-0.08948802474803041,-0.14949384570889385,-0.15679733216469185,-0.5476684982231724,-0.12261922078907489,-0.025224136765678477
5679,8.0,300.49519,1301.0274,0.0,0.0,0.0,-0.05759155491477135,0.0,0.0,-0.07510177114546773,-0.13458617056512087,-0.18579190934123382,-0.5794886651585784,-0.11915251729443789,-0.047154907744577056
5680,8.0,298.31279,1075.6652,0.0,0.0,0.0,-0.05760169605844361,0.0,0.0,-0.07654843998899283,-0.1079230514711759,-0.14250387909903786,-0.5445590464487935,-0.11883935208603089,-0.039702179681550064
5681,8.0,299.87354,951.9536800000001,0.0,0.0,0.0,-0.05761183720211587,0.0,0.0,-0.08247152719755602,-0.08342638673404333,-0.12347223551826088,-0.5321010858067885,-0.11905962252526989,-0.03987939003128936
5682,8.0,301.01625,1122.5618,0.0,0.0,0.0,-0.05762197834578813,0.0,0.0,-0.1302396012136479,-0.11566362362261089,-0.0953275542870971,-0.5187102460627155,-0.12752701923843687,-0.01824368457426148
5683,8.0,299.62904,1204.6916,0.0,0.0,0.0,-0.05763211948946039,0.0,0.0,-0.12921055454458888,-0.1043439481429459,-0.1326416726957139,-0.5494516461466555,-0.15885484795025284,-0.01962926558250768
5684,8.0,300.42147,1353.8557,0.0,0.0,0.0,-0.05764226063313265,0.0,0.0,-0.07097332920927223,-0.13983002354264887,-0.2007349773109998,-0.5424423163273885,-0.14588894503311786,-0.0015535355209720183
5685,8.0,300.19998,1096.8447,0.0,0.0,0.0,-0.057652401776804904,0.0,0.0,-0.01886596807017608,-0.14884824327517787,-0.16569918012323584,-0.5691292265336815,-0.10665245611077791,-0.011853006762550689
5686,8.0,300.72065,1120.0926,0.0,0.0,0.0,-0.05766254292047718,0.0,0.0,-0.061446763928073446,-0.12693148149216188,-0.15210193120129187,-0.5362488149586375,-0.09192930292946581,-0.005079599968742485
5687,8.0,301.50493,1454.6551,0.0,0.0,0.0,-0.05767268406414944,0.0,0.0,-0.1194334104871599,-0.16230209704296986,-0.16044334039702485,-0.5773314455631774,-0.13846560122299087,-0.04718761039155455
5688,8.0,301.74987000000004,1254.1117,0.0,0.0,0.0,-0.0576828252078217,0.0,0.0,-0.13004516865195886,-0.1273558610315449,-0.12381761194734688,-0.5443068687639054,-0.14374156409618785,-0.022436648250324775
5689,8.0,300.14522,1009.68,0.0,0.0,0.0,-0.05769296635149396,0.0,0.0,-0.06116467003398294,-0.12250688175048789,-0.12324596663842989,-0.5283384828854485,-0.14064973274104786,-0.04819614989183966
5690,8.0,299.77828,1126.6913,0.0,0.0,0.0,-0.05770310749516622,0.0,0.0,-0.06291787945676125,-0.12950890603653387,-0.15005922913219286,-0.5177855337564535,-0.1157972003832939,-0.055655496504519855
5691,8.0,298.9895,1435.2173,0.0,0.0,0.0,-0.05771324863883848,0.0,0.0,-0.11017959997387988,-0.12389589565007288,-0.2021947363325668,-0.5447878079238705,-0.15040436238125487,-0.029423001610324174
5692,8.0,299.68754,1482.3668,0.0,0.0,0.0,-0.05772338978251074,0.0,0.0,-0.1354452445299049,-0.15422907753372483,-0.16092818056987485,-0.5748544442362165,-0.12421870699943187,-0.03703247439757067
5693,8.0,298.97902,1252.5256,0.0,0.0,0.0,-0.057733530926183003,0.0,0.0,-0.1017217784741579,-0.12976989899729188,-0.14924482936431788,-0.5551521810767545,-0.1044764913885269,-0.006510207886257493
5694,8.0,298.58032000000003,941.9164,0.0,0.0,0.0,-0.05774367206985526,0.0,0.0,-0.08944487954552231,-0.10674473279738489,-0.09012945867083501,-0.5841720084457885,-0.12174516085531187,-0.014837276553325184
5695,8.0,298.73668,1040.2394,0.0,0.0,0.0,-0.05775381321352752,0.0,0.0,-0.08371222357400322,-0.11435028937299489,-0.11814429291493389,-0.5522101891464025,-0.15059324233239588,-0.007332029812440004
5696,8.0,298.83142000000004,1282.9318,0.0,0.0,0.0,-0.05776395435719978,0.0,0.0,-0.08420528627141471,-0.14017279591897785,-0.16560115830856184,-0.5634041709511625,-0.14724713586466087,-0.02853291003347897
5697,8.0,299.87757,1251.9345,0.0,0.0,0.0,-0.05777409550087204,0.0,0.0,-0.07291267470192073,-0.14232092666098187,-0.16532321367363084,-0.5278929061539734,-0.12125060361400289,-0.011028677143695688
5698,8.0,299.98902999999996,1000.7979,0.0,0.0,0.0,-0.05778423664454431,0.0,0.0,-0.04455642684987696,-0.13310748403168587,-0.12655365066237287,-0.5550434086785194,-0.12941754127501687,-0.04279670628195605
5699,8.0,300.16262,1105.2543,0.0,0.0,0.0,-0.05779437778821657,0.0,0.0,-0.08773588633060782,-0.1114698625187189,-0.13676396927005288,-0.5421472072357635,-0.15840097270045886,-0.03587446226903376
5700,8.0,299.85387000000003,1336.0093,0.0,0.0,0.0,-0.057804518931888836,0.0,0.0,-0.14824205627035186,-0.12418544199864888,-0.13368594851377588,-0.5786024766211184,-0.15042131405542786,-0.03887004702367496
5701,8.0,300.46032,1327.619,0.0,0.0,0.0,-0.05781466007556109,0.0,0.0,-0.09221323688573792,-0.13703282505158687,-0.17431697354874584,-0.5379027836268715,-0.1375059925832849,-0.03280807362390477
5702,8.0,300.51488,1077.5059,0.0,0.0,0.0,-0.05782480121923335,0.0,0.0,-0.07788664040931292,-0.11782292038071689,-0.13182531735514588,-0.5522937214846465,-0.13735220148310687,-0.04323713468967296
5703,8.0,300.2492,1119.1062,0.0,0.0,0.0,-0.057834942362905616,0.0,0.0,-0.07911684356772453,-0.12269071571613088,-0.13837278751383086,-0.5711199286076485,-0.16470575932769282,-0.02069381450857048
5704,8.0,298.71299999999997,1121.6577,0.0,0.0,0.0,-0.057845083506577875,0.0,0.0,-0.1133384172931309,-0.1030965663423389,-0.1245209595042619,-0.5403165176175885,-0.13466545738544586,-0.012546024234696189
5705,8.0,299.01036,1268.9015,0.0,0.0,0.0,-0.057855224650250135,0.0,0.0,-0.08707072209046123,-0.15874157672157385,-0.13990207575725988,-0.5436460169161844,-0.11849406684945389,-0.01851214924125688
5706,8.0,299.36244,1327.7124,0.0,0.0,0.0,-0.057865365793922395,0.0,0.0,-0.1157605713921789,-0.15436217806686084,-0.13346865702983088,-0.5317682027514355,-0.11832706296797188,-0.025443266285304876
5707,8.0,298.949,1183.0769,0.0,0.0,0.0,-0.057875506937594655,0.0,0.0,-0.05030139684986135,-0.15243227099889387,-0.15689215210904986,-0.5753910108266714,-0.14020966809011687,-0.05058490220134115
5708,8.0,299.54246,1069.766,0.0,0.0,0.0,-0.05788564808126692,0.0,0.0,-0.06001013436653914,-0.12215459495571987,-0.1430174145147199,-0.5566187491389935,-0.13500207933366787,-0.005508480567719704
5709,8.0,299.3725,1285.0419,0.0,0.0,0.0,-0.05789578922493918,0.0,0.0,-0.07926051736565402,-0.14677651159071387,-0.16458362216063885,-0.5395701170639244,-0.13867359107101787,-0.04784174743086286
5710,8.0,299.05397999999997,1319.0715,0.0,0.0,0.0,-0.05790593036861144,0.0,0.0,-0.11148430133264389,-0.14162798518259387,-0.14785251226940688,-0.5542550899682185,-0.13992409368193287,-0.025096048780787177
5711,8.0,300.54918,1044.3316,0.0,0.0,0.0,-0.0579160715122837,0.0,0.0,-0.1092652430836399,-0.1090845299283049,-0.09910093413650072,-0.5629676628080824,-0.14619082263541086,-0.07518932811310892
5712,8.0,300.0511,1010.0087,0.0,0.0,0.0,-0.05792621265595596,0.0,0.0,-0.09340446132605261,-0.08826470257104792,-0.12534824781340886,-0.5385740212881175,-0.10283707299172891,-0.018722434100760382
5713,8.0,299.95566,1138.2369,0.0,0.0,0.0,-0.05793635379962823,0.0,0.0,-0.0944784182792939,-0.11919856951148289,-0.1323186080338299,-0.5394295894075555,-0.1016150731061269,-0.04243971192722346
5714,8.0,300.16662,1374.601,0.0,0.0,0.0,-0.05794649494330049,0.0,0.0,-0.1049017524554969,-0.14461945411532887,-0.16832316350970283,-0.5186146763132835,-0.14120848950869289,-0.0017228069548528083
5715,8.0,300.08871,1316.4884,0.0,0.0,0.0,-0.05795663608697275,0.0,0.0,-0.09166064878470173,-0.16018192187122485,-0.14833701806972388,-0.5671755587508694,-0.14576598713348288,-0.042817439405502256
5716,8.0,298.817,1150.8857,0.0,0.0,0.0,-0.05796677723064501,0.0,0.0,-0.09584614379427792,-0.11489962291470988,-0.13909474847508285,-0.5488164497914665,-0.14234105994046886,0.01088412587117959
5717,8.0,299.3332,1200.1135,0.0,0.0,0.0,-0.05797691837431727,0.0,0.0,-0.09863128866215032,-0.13068620132772388,-0.13548704109652984,-0.5793998943173174,-0.15229871450321286,-0.013427004666642187
5718,8.0,299.8202,1344.1687,0.0,0.0,0.0,-0.057987059517989534,0.0,0.0,-0.08508049523079111,-0.14188737720819386,-0.18162585049507582,-0.5701816184850445,-0.11137090851395288,0.004496520943047065
5719,8.0,299.8865,1254.6528,0.0,0.0,0.0,-0.057997200661661794,0.0,0.0,-0.09167878089524123,-0.13691598718255588,-0.15278835748153685,-0.5625728499066175,-0.12312300873879488,-0.04021423169908566
5720,8.0,299.78743,1079.4687,0.0,0.0,0.0,-0.05800734180533405,0.0,0.0,-0.06511561588391095,-0.1052382730787089,-0.15777764150394086,-0.5314749377749926,-0.1053620415784239,0.0034762159879008067
5721,8.0,300.16579,818.97533,0.0,0.0,0.0,-0.05801748294900631,0.0,0.0,-0.05466643268440685,-0.0935803210134086,-0.10070129579494409,-0.5548792317648165,-0.13960285287022886,-0.05891086338604954
5722,8.0,300.12765,1062.6201,0.0,0.0,0.0,-0.05802762409267857,0.0,0.0,-0.0968801756538289,-0.1103997285581049,-0.11573008269666989,-0.5264381627204016,-0.14705976565616885,-0.03326320834357307
5723,8.0,300.55613999999997,1428.5316,0.0,0.0,0.0,-0.05803776523635084,0.0,0.0,-0.13147155121523188,-0.16345669553191985,-0.13930968921879586,-0.5543081640084565,-0.14958063057995885,-0.06920356327985995
5724,8.0,300.89196,1306.5829,0.0,0.0,0.0,-0.0580479063800231,0.0,0.0,-0.09090274784240272,-0.14128141311838985,-0.16498442337019487,-0.5584004785123364,-0.12084493880396689,-0.02102957418095738
5725,8.0,300.23618999999997,1095.2923,0.0,0.0,0.0,-0.05805804752369536,0.0,0.0,-0.07385614936028444,-0.12814327794925687,-0.13094206724297588,-0.5719619597057505,-0.14667458876315484,-0.022464173189291278
5726,8.0,299.95894,1167.7895,0.0,0.0,0.0,-0.05806818866736762,0.0,0.0,-0.05436165617357775,-0.13418085026011886,-0.16643634996848883,-0.5813718309994325,-0.13386113945606587,-0.006449356847526963
5727,8.0,300.04501,1354.779,0.0,0.0,0.0,-0.05807832981103988,0.0,0.0,-0.08177434425424941,-0.16155277832901785,-0.16849186965135282,-0.5145957312491445,-0.14349296318415286,-0.015231079244440487
5728,8.0,299.91764,1312.8009,0.0,0.0,0.0,-0.058088470954712146,0.0,0.0,-0.09573457077276651,-0.14367333183445388,-0.15965079643380684,-0.5260522461548145,-0.12454151834879089,-0.012398369377123788
5729,8.0,298.96267,1065.5891,0.0,0.0,0.0,-0.058098612098384406,0.0,0.0,-0.0928657760296385,-0.1123268390557959,-0.1187198493692369,-0.5188225547037996,-0.14302772940073785,-0.027322858393056173
5730,8.0,298.8704,1062.0557,0.0,0.0,0.0,-0.058108753242056665,0.0,0.0,-0.07118731141839063,-0.12435627596550888,-0.12729482284552088,-0.5731945987174025,-0.13419904823191486,-0.044695866275638554
5731,8.0,298.30415,1259.9574,0.0,0.0,0.0,-0.058118894385728925,0.0,0.0,-0.10198321726495992,-0.13352420340031287,-0.14748817793094987,-0.5649745464861464,-0.12111847580096288,-0.018600051727182182
5732,8.0,298.35669,1363.0214,0.0,0.0,0.0,-0.058129035529401185,0.0,0.0,-0.11746682376557288,-0.1258369991316449,-0.17102065819092482,-0.5860256177812254,-0.1190069335200699,-0.02686292289441408
5733,8.0,299.6328,1176.1107,0.0,0.0,0.0,-0.05813917667307346,0.0,0.0,-0.09276827705201611,-0.1085074434663509,-0.15623255669145283,-0.5624615038531284,-0.14386231311060488,-0.005852831081079454
5734,8.0,300.47006,963.7494300000001,0.0,0.0,0.0,-0.05814931781674572,0.0,0.0,-0.09551481607782841,-0.09626470727808692,-0.10117623854081731,-0.5858201813234504,-0.14786453954809387,-0.05540526527307395
5735,8.0,299.99899,1225.025,0.0,0.0,0.0,-0.05815945896041798,0.0,0.0,-0.08791711219049342,-0.12809541201453287,-0.15636448185447285,-0.5231422425301194,-0.15537754585956987,-0.01085138370744819
5736,8.0,300.27855,1370.941,0.0,0.0,0.0,-0.05816960010409024,0.0,0.0,-0.11982568013087387,-0.16115917119517184,-0.13574697014468287,-0.5439338306070894,-0.14716902441445187,-0.03067973064310367
5737,8.0,299.86606,1221.4236,0.0,0.0,0.0,-0.05817974124776249,0.0,0.0,-0.07089988985527433,-0.13639892565652587,-0.16398345386140684,-0.5437887635902725,-0.15138483384051987,0.007524230589458743
5738,8.0,300.24912,998.8127400000001,0.0,0.0,0.0,-0.05818988239143475,0.0,0.0,-0.06533915101497213,-0.11390904935194789,-0.12436593223896188,-0.5744371777125354,-0.13858975475774388,-0.029336299825767374
5739,8.0,299.94592,843.3354699999999,0.0,0.0,0.0,-0.05820002353510701,0.0,0.0,-0.024295816275810376,-0.12353066965152788,-0.1085264419057259,-0.5742806812345904,-0.12363417314924287,-0.020388458418684183
5740,8.0,299.34958,1063.5092,0.0,0.0,0.0,-0.05821016467877927,0.0,0.0,-0.08353411852442563,-0.12515965157229586,-0.11458646783880388,-0.5842617722721474,-0.11596853084270288,-0.044130703740861366
5741,8.0,298.78242,1431.5526,0.0,0.0,0.0,-0.05822030582245153,0.0,0.0,-0.1168153951437819,-0.14274881204571085,-0.17559203734208484,-0.5861388890099044,-0.13993456055546585,-0.02739935877560617
5742,8.0,298.75902,1205.46,0.0,0.0,0.0,-0.058230446966123804,0.0,0.0,-0.1068351045738039,-0.12306309526038188,-0.13653153982961386,-0.5576260210634034,-0.1107651065441649,-0.04862045951696575
5743,8.0,299.08238,932.6074699999999,0.0,0.0,0.0,-0.058240588109796064,0.0,0.0,-0.06336652532278914,-0.08411818323981833,-0.13600468017511688,-0.5458675474954325,-0.11478549042344588,-0.034443205972779764
5744,8.0,300.32464,1154.7692,0.0,0.0,0.0,-0.058250729253468324,0.0,0.0,-0.07954631164910972,-0.13521067713175489,-0.13626402153821188,-0.5194876115394355,-0.09521583130457091,-0.03986651668876886
5745,8.0,300.11927000000003,1491.9516,0.0,0.0,0.0,-0.058260870397140584,0.0,0.0,-0.14741550763377786,-0.13673388587458388,-0.16936663886018585,-0.5451689419489856,-0.12234209688672487,-0.0017668043006950085
5746,8.0,300.03021,1505.8653,0.0,0.0,0.0,-0.058271011540812837,0.0,0.0,-0.13093090122687387,-0.15249840583292085,-0.17431614268366386,-0.5463590751189424,-0.12754647364035687,-0.02254860326712388
5747,8.0,299.89555,1144.1505,0.0,0.0,0.0,-0.058281152684485096,0.0,0.0,-0.08132285115544052,-0.13404204512891987,-0.1324282822246539,-0.5634608724267585,-0.13657502852390588,-0.011846228119381689
5748,8.0,299.89362,966.89806,0.0,0.0,0.0,-0.05829129382815737,0.0,0.0,-0.05880018202462615,-0.11095157496006791,-0.12416110373124689,-0.5639144639665244,-0.15629753642036584,-0.015329942056697484
5749,8.0,299.85762,1187.5611,0.0,0.0,0.0,-0.05830143497182963,0.0,0.0,-0.07904418846930403,-0.1255557816988909,-0.15638894171188683,-0.5769203396001045,-0.16032005825735784,-0.006541931733638394
5750,8.0,300.39479,1373.6271,0.0,0.0,0.0,-0.05831157611550189,0.0,0.0,-0.09622222676764441,-0.14326463740661888,-0.1780614798232998,-0.5478449658605885,-0.12711167788994587,-0.03694904439758676
5751,8.0,299.12609,1193.3637,0.0,0.0,0.0,-0.05832171725917415,0.0,0.0,-0.11886865527892289,-0.098574918519337,-0.14530919372340084,-0.5373018351250625,-0.1037265748570159,-0.029457665909495268
5752,8.0,299.67405,997.97235,0.0,0.0,0.0,-0.05833185840284641,0.0,0.0,-0.060251757025135445,-0.13747121783985286,-0.1056357001654319,-0.5250858082094345,-0.11525043036433189,-0.05447564377007744
5753,8.0,300.61503,1056.3741,0.0,0.0,0.0,-0.058341999546518676,0.0,0.0,-0.1013017721222065,-0.10510399717545689,-0.1147055753880589,-0.5447610783862326,-0.1328443125832129,-0.04154463110688586
5754,8.0,300.98887,1400.0029,0.0,0.0,0.0,-0.058352140690190936,0.0,0.0,-0.14065893305195587,-0.12342640621623789,-0.16148059439189386,-0.5664177186035764,-0.13652671675913788,-0.03315926205556437
5755,8.0,300.70263,1455.9397,0.0,0.0,0.0,-0.058362281833863196,0.0,0.0,-0.1203344228735829,-0.15724494552886786,-0.16498993545073884,-0.5834802727350193,-0.14180516209507985,-0.028791882573537576
5756,8.0,300.6831,981.75049,0.0,0.0,0.0,-0.058372422977535456,0.0,0.0,-0.06360196816902554,-0.1041120658575609,-0.13071360974292887,-0.5701274096046944,-0.15033131718154585,-0.014848420277924984
5757,8.0,299.34443999999996,825.28629,0.0,0.0,0.0,-0.058382564121207715,0.0,0.0,-0.04412754544029966,-0.11753179336198488,-0.08920708595905391,-0.5828893452766994,-0.15936021657012883,-0.027050694349945677
5758,8.0,299.84889,1331.6779,0.0,0.0,0.0,-0.05839270526487998,0.0,0.0,-0.08515036389143661,-0.17616775591640382,-0.14347870675524585,-0.5379257540066384,-0.1283697494791079,-0.03192019599852807
5759,8.0,298.12746,1443.2308,0.0,0.0,0.0,-0.05840284640855224,0.0,0.0,-0.1095785501470609,-0.16140088200652686,-0.16772670370583684,-0.5422825977141255,-0.12084492867146589,-0.01888328350113498
5760,8.0,299.59049,1392.0458,0.0,0.0,0.0,-0.0584129875522245,0.0,0.0,-0.1021868096075529,-0.17002986171314086,-0.15093049249567986,-0.5155626048920675,-0.1279268477278969,-0.01599369787920509
5761,8.0,300.52499,1049.6094,0.0,0.0,0.0,-0.05842312869589676,0.0,0.0,-0.03473520236009756,-0.1129937805366179,-0.17132605177106486,-0.5265273692592055,-0.14680291688831987,-0.022116751008253378
5762,8.0,300.15067,1055.1628,0.0,0.0,0.0,-0.05843326983956902,0.0,0.0,-0.09006569686854222,-0.1128494126623699,-0.11782802716122089,-0.5422573272566314,-0.15705068521969584,-0.024651631207426576
5763,8.0,300.01037,1616.8367,0.0,0.0,0.0,-0.05844341098324129,0.0,0.0,-0.14514541197723685,-0.16894679868125084,-0.17738577372911282,-0.5556272737836425,-0.15624279051746284,-0.022225238683210278
5764,8.0,300.02907999999996,1631.9872,0.0,0.0,0.0,-0.05845355212691355,0.0,0.0,-0.17490878253465283,-0.16350175476386686,-0.15767281064859484,-0.5912845073902374,-0.15718023937748185,-0.027842557409096472
5765,8.0,298.33726,1004.4434,0.0,0.0,0.0,-0.05846369327058581,0.0,0.0,-0.08704203292712982,-0.11978222183408489,-0.0985014690328381,-0.5469020758475325,-0.13360994462377487,-0.03867424353460066
5766,8.0,300.28099,837.49054,0.0,0.0,0.0,-0.05847383441425807,0.0,0.0,-0.05517748158434345,-0.11554697827109889,-0.08385175723202412,-0.5756708603717905,-0.12703405279978489,-0.03292918740835776
5767,8.0,300.33727000000005,1140.4202,0.0,0.0,0.0,-0.05848397555793033,0.0,0.0,-0.04852300613559785,-0.12960987640899888,-0.16852640121476084,-0.5553784094265815,-0.11064766072507388,-0.028700827866551176
5768,8.0,300.20074,1359.1828,0.0,0.0,0.0,-0.058494116701602594,0.0,0.0,-0.11163017894954089,-0.15886908411415784,-0.14265838960678687,-0.5585896320410044,-0.14907670077522486,-0.030315912048947576
5769,8.0,300.69723,1343.7498,0.0,0.0,0.0,-0.058504257845274854,0.0,0.0,-0.06863158663816023,-0.16277832458996985,-0.17705646744661283,-0.5184645430459666,-0.12216041101129389,-0.025517520292383175
5770,8.0,300.07935,1009.2241,0.0,0.0,0.0,-0.058514398988947114,0.0,0.0,-0.07067359361769063,-0.14382838949725685,-0.09227695309177622,-0.5613117993621615,-0.14399228270093187,-0.03715222232088886
5771,8.0,300.67093,1047.0575,0.0,0.0,0.0,-0.058524540132619374,0.0,0.0,-0.07020981790116954,-0.13938004930573986,-0.10868947384681589,-0.5584176733665335,-0.1313613197368529,-0.019865712559593178
5772,8.0,300.1551,1348.9432,0.0,0.0,0.0,-0.058534681276291634,0.0,0.0,-0.12276308203827288,-0.13214455193165187,-0.15513741571837084,-0.6062411123813394,-0.13087215298607588,-0.01377504493024109
5773,8.0,299.11182,1582.3435,0.0,0.0,0.0,-0.0585448224199639,0.0,0.0,-0.1128814313655299,-0.16663642633323483,-0.2014750551840398,-0.5608151345606445,-0.14406642221074886,-0.014457931927886787
5774,8.0,298.95282000000003,1295.3994,0.0,0.0,0.0,-0.05855496356363616,0.0,0.0,-0.10335626234296891,-0.11872426713967289,-0.17168854199433983,-0.5491999345568135,-0.14232353071373888,-0.019252523996576183
5775,8.0,299.56507,971.88138,0.0,0.0,0.0,-0.05856510470730842,0.0,0.0,-0.06263694877378553,-0.09844308657532622,-0.13434764135907987,-0.5529783239147115,-0.1294982770429849,-0.040347522723240464
5776,8.0,300.34187000000003,1202.8687,0.0,0.0,0.0,-0.05857524585098068,0.0,0.0,-0.12379178420229789,-0.1091710006918389,-0.13267926427442386,-0.5395045699149555,-0.1342953475214189,-0.024367260540361375
5777,8.0,301.06405,1403.9359,0.0,0.0,0.0,-0.05858538699465294,0.0,0.0,-0.14264463980292985,-0.14095298836347686,-0.1431638291541699,-0.5679480606271093,-0.1093485930368659,-0.04023445718433176
5778,8.0,300.61542000000003,1393.6363,0.0,0.0,0.0,-0.058595528138325206,0.0,0.0,-0.1013790060978289,-0.15393939946263585,-0.16831223054112385,-0.5637711498723804,-0.1032135460663839,-0.009437634447747001
5779,8.0,299.89022,1224.0131,0.0,0.0,0.0,-0.058605669281997466,0.0,0.0,-0.07070700959273853,-0.13337704908828987,-0.16798535605886386,-0.5705047540744355,-0.12965564491601586,-0.029767218881295767
5780,8.0,300.06985,1221.6653,0.0,0.0,0.0,-0.058615810425669726,0.0,0.0,-0.06698583542823723,-0.12300776167242088,-0.18136214202404982,-0.5728670960200805,-0.15606076013699785,0.015023362973940486
5781,8.0,301.52696000000003,1412.3886,0.0,0.0,0.0,-0.058625951569341986,0.0,0.0,-0.09001500396603922,-0.16683694852802483,-0.17247890746984285,-0.5520041751360705,-0.16387807585100683,-0.04469322169287755
5782,8.0,300.99638999999996,1325.3776,0.0,0.0,0.0,-0.058636092713014246,0.0,0.0,-0.1256583226090109,-0.11836716740692989,-0.15885620570538686,-0.5371235841674704,-0.15249230606731887,-0.008799748014867511
5783,8.0,299.6748,1169.1791,0.0,0.0,0.0,-0.05864623385668651,0.0,0.0,-0.1085013538332499,-0.12434346848424489,-0.1225564195478769,-0.5223828217126705,-0.12218204390092889,-0.05229974186933265
5784,8.0,299.59961,1033.9639,0.0,0.0,0.0,-0.05865637500035877,0.0,0.0,-0.09826302797955581,-0.07825096866826933,-0.13778521391334186,-0.5319944108362605,-0.1143795723008849,-0.014205894071512588
5785,8.0,300.13608999999997,1112.2976,0.0,0.0,0.0,-0.05866651614403103,0.0,0.0,-0.06586979515859265,-0.12352265484323688,-0.14871824328734784,-0.5599518353429435,-0.09977625620889981,-0.060380122640554146
5786,8.0,299.16356,1424.5623,0.0,0.0,0.0,-0.05867665728770329,0.0,0.0,-0.09911611768924922,-0.15909825088927484,-0.17481700234059483,-0.5481395784596645,-0.13493063506911687,-0.02104459662693998
5787,8.0,299.72114,1318.2621,0.0,0.0,0.0,-0.05868679843137555,0.0,0.0,-0.07463436596708843,-0.15956941218577486,-0.16651498830874983,-0.5780956083910944,-0.14846097908695785,-0.06751715743617465
5788,8.0,298.60827,1021.8299,0.0,0.0,0.0,-0.058696939575047825,0.0,0.0,-0.08243742221244012,-0.14108415358892187,-0.08708920579878542,-0.5806009705883545,-0.16893994911057483,-0.017369772575013084
5789,8.0,300.65574,1042.39,0.0,0.0,0.0,-0.05870708071872008,0.0,0.0,-0.07925214184032742,-0.14286852754502588,-0.09473987125559732,-0.5843348377368585,-0.16119658038886386,-0.05284204345535365
5790,8.0,301.41921,1319.0747,0.0,0.0,0.0,-0.05871722186239234,0.0,0.0,-0.10943402015279691,-0.13603425694553586,-0.15549750453890887,-0.5713215856425505,-0.1163565954985019,-0.006625764095237003
5791,8.0,301.0196,1297.2617,0.0,0.0,0.0,-0.0587273630060646,0.0,0.0,-0.08424084223067382,-0.1250286991293719,-0.18506562180205482,-0.5590578853097175,-0.1063979884806639,-0.027276164788697876
5792,8.0,300.51355,1237.3461,0.0,0.0,0.0,-0.05873750414973686,0.0,0.0,-0.09102963411267542,-0.1132124905707029,-0.17188018811825384,-0.5359439482685494,-0.1070746672949469,-0.0009597909537964922
5793,8.0,301.17477,1224.6992,0.0,0.0,0.0,-0.05874764529340912,0.0,0.0,-0.09021558898233542,-0.12297786066196988,-0.15908452135041987,-0.5804773642086555,-0.13441288453301886,-0.04156566617896186
5794,8.0,300.30611,1427.7717,0.0,0.0,0.0,-0.05875778643708138,0.0,0.0,-0.16951387423221684,-0.12452625880228488,-0.13996679204114687,-0.5553589043621564,-0.14483988667458386,-0.018306477709458684
5795,8.0,299.73432,1522.3579,0.0,0.0,0.0,-0.05876792758075364,0.0,0.0,-0.14177419717202386,-0.16130086408915584,-0.15968373719455783,-0.5804161639026154,-0.15334481417145487,-0.027882028566741972
5796,8.0,299.45402,1369.8245,0.0,0.0,0.0,-0.0587780687244259,0.0,0.0,-0.12316637584307487,-0.15945598896958085,-0.13377008880207986,-0.5767443887202395,-0.16816008090610784,-0.016571975923276683
5797,8.0,300.07121,976.0337800000001,0.0,0.0,0.0,-0.05878820986809816,0.0,0.0,-0.050322731843966954,-0.10549710781675391,-0.14087006397529286,-0.5640359121235105,-0.1944243138331858,-0.02643649861632927
5798,8.0,300.0577,945.6695900000001,0.0,0.0,0.0,-0.058798351011770424,0.0,0.0,-0.053526455394399854,-0.11082912368548288,-0.12310435480445389,-0.5697574213306795,-0.14121658537699186,-0.03019299771906687
5799,8.0,299.30726,1159.2417,0.0,0.0,0.0,-0.05880849215544268,0.0,0.0,-0.06710348491059834,-0.12811729821669288,-0.15715975146045985,-0.5279236785595105,-0.10937578866954989,-0.039287710741395164
5800,8.0,299.09976,1248.2299,0.0,0.0,0.0,-0.05881863329911494,0.0,0.0,-0.14344814713222986,-0.11569537888074488,-0.1202871851539209,-0.5480520843135295,-0.1142268755108149,-0.008703357127554472
5801,8.0,298.99329,1214.2714,0.0,0.0,0.0,-0.0588287744427872,0.0,0.0,-0.07392429853551022,-0.16513492140754785,-0.13004897847233488,-0.5556441038678034,-0.1136563549095089,-0.050252926004827655
5802,8.0,298.16396000000003,1130.9269,0.0,0.0,0.0,-0.05883891558645946,0.0,0.0,-0.08906647014992622,-0.1168235011445819,-0.13788354983554685,-0.5736422728765844,-0.13320650896395886,-0.02940782312382617
5803,8.0,297.76827000000003,1251.0271,0.0,0.0,0.0,-0.05884905673013174,0.0,0.0,-0.07200132311147733,-0.15013222366939685,-0.15814745752543885,-0.5641670165539495,-0.11089319148930589,-0.04425618564649546
5804,8.0,298.89108999999996,1358.2571,0.0,0.0,0.0,-0.058859197873803996,0.0,0.0,-0.0938169341635105,-0.17157778362590884,-0.14748151074529187,-0.5728688388102525,-0.14254186584528686,-0.050610078426575854
5805,8.0,299.02111,1218.4342,0.0,0.0,0.0,-0.058869339017476256,0.0,0.0,-0.09676007917247632,-0.1295547556035589,-0.14405874177499087,-0.5566465324567355,-0.15481140249869585,-0.03288333480158247
5806,8.0,299.9302,872.7687800000001,0.0,0.0,0.0,-0.058879480161148516,0.0,0.0,-0.07197186286481984,-0.10851446528954391,-0.08481358488944912,-0.5576116734419875,-0.14407819617691087,-0.028972793312642072
5807,8.0,299.74637,892.51667,0.0,0.0,0.0,-0.058889621304820776,0.0,0.0,-0.05408847786711715,-0.1051095396535039,-0.1121047650313789,-0.5437728049011975,-0.1235811396390089,-0.014147562276505685
5808,8.0,299.65627,1196.8073,0.0,0.0,0.0,-0.05889976244849304,0.0,0.0,-0.0941128650009666,-0.11679550504431889,-0.15289116183668286,-0.5629487758262185,-0.12930993411439687,-0.029749612647558172
5809,8.0,299.43133,1453.4344,0.0,0.0,0.0,-0.0589099035921653,0.0,0.0,-0.1062074974618639,-0.15967166938586685,-0.17592860862780182,-0.5814873820408365,-0.14781048265525887,-0.0033794605332017865
5810,8.0,299.95907,1284.627,0.0,0.0,0.0,-0.05892004473583756,0.0,0.0,-0.08124658483366362,-0.12295474842718888,-0.18629318443070583,-0.5677666077992014,-0.13114777727827787,-0.030995592110026768
5811,8.0,300.23552,1193.2941,0.0,0.0,0.0,-0.05893018587950982,0.0,0.0,-0.1033329575906689,-0.14059705386834886,-0.1188016085198059,-0.5597272585907795,-0.11356609459060088,-0.01907303586061208
5812,8.0,300.23327,1313.2668,0.0,0.0,0.0,-0.05894032702318208,0.0,0.0,-0.11545856206737289,-0.15506177659840586,-0.12867997626222488,-0.5664518853969485,-0.12257538758974888,-0.025213309175109874
5813,8.0,300.94662999999997,1426.8891,0.0,0.0,0.0,-0.05895046816685435,0.0,0.0,-0.1077286594394909,-0.14686119903407188,-0.17914881877061184,-0.5790154469643755,-0.16390625433628783,-0.01782237416943138
5814,8.0,300.67171,1307.6791,0.0,0.0,0.0,-0.05896060931052661,0.0,0.0,-0.10912762345505789,-0.15970493438664984,-0.12866923581116488,-0.5651216704006665,-0.14074555580300488,-0.010779999224653091
5815,8.0,300.29519,1066.0237,0.0,0.0,0.0,-0.05897075045419887,0.0,0.0,-0.062009550391366144,-0.10715400477777691,-0.15488101278056585,-0.5343829047669865,-0.13808185301261786,-0.03189378056842107
5816,8.0,300.54607000000004,1217.9651,0.0,0.0,0.0,-0.05898089159787113,0.0,0.0,-0.08542973214275812,-0.14628763868246586,-0.13851359888022785,-0.5505658970166235,-0.13915497606102686,-0.02110668960631808
5817,8.0,300.19652,1368.7127,0.0,0.0,0.0,-0.05899103274154339,0.0,0.0,-0.11724818465899489,-0.16146800982565185,-0.13733828955923386,-0.5589738767439265,-0.14643847109235186,-0.05615650206946525
5818,8.0,297.9283,1301.3099,0.0,0.0,0.0,-0.059001173885215655,0.0,0.0,-0.11098580254844588,-0.1149627281309379,-0.16961719534491385,-0.5711475396728735,-0.11172376272877689,-0.0025368688038194575
5819,8.0,299.26737,1247.4685,0.0,0.0,0.0,-0.059011315028887915,0.0,0.0,-0.07023162203007144,-0.13318168433650887,-0.17578595314622283,-0.5745932891554424,-0.1292222271857409,-0.04227648848186456
5820,8.0,300.68338,1119.0227,0.0,0.0,0.0,-0.059021456172560174,0.0,0.0,-0.06327635923614044,-0.12310666501468188,-0.15377191935360685,-0.5589811620121455,-0.14503468400630887,-0.006628974578178854
5821,8.0,299.7601,1198.0321,0.0,0.0,0.0,-0.059031597316232434,0.0,0.0,-0.05089480575767625,-0.14961061265041786,-0.16366643830261987,-0.5795190930590814,-0.18161467434647283,-0.05997873374594014
5822,8.0,300.27727999999996,1530.4715,0.0,0.0,0.0,-0.059041738459904694,0.0,0.0,-0.12680044798922988,-0.17917814222850584,-0.15924651977640783,-0.5293135942516844,-0.14034675069614588,-0.04671299593871375
5823,8.0,300.08939,1523.2695,0.0,0.0,0.0,-0.05905187960357696,0.0,0.0,-0.15711985980402285,-0.14477815947849187,-0.16113787267806984,-0.5496515502588845,-0.10924440052908291,-0.022644208480309378
5824,8.0,300.75383999999997,1295.4195,0.0,0.0,0.0,-0.05906202074724922,0.0,0.0,-0.08626038140248682,-0.16125547048467584,-0.14625931834217087,-0.5181390769813455,-0.09161427232762472,-0.024576399414001776
5825,8.0,300.38993999999997,1055.2308,0.0,0.0,0.0,-0.05907216189092148,0.0,0.0,-0.06066640328405785,-0.1135966947436209,-0.14650069478099287,-0.5730084950715354,-0.14669882570554685,-0.0066948483989800935
5826,8.0,300.46134,1164.3071,0.0,0.0,0.0,-0.05908230303459374,0.0,0.0,-0.07777325063037223,-0.09512032437664511,-0.1810267157109458,-0.5609138757828895,-0.13328726499692886,-0.01326037163469679
5827,8.0,299.81523,1325.1784,0.0,0.0,0.0,-0.059092444178266,0.0,0.0,-0.09815166875381551,-0.12694301227829988,-0.17772647907523784,-0.5892858107729815,-0.16055110967766084,-0.01129656425813409
5828,8.0,299.79771,1260.2176,0.0,0.0,0.0,-0.05910258532193827,0.0,0.0,-0.1330327365718089,-0.10302348061262591,-0.14701848584709484,-0.5661082416255334,-0.16924568719574884,-0.02863313566712047
5829,8.0,299.13305,1094.6952,0.0,0.0,0.0,-0.05911272646561053,0.0,0.0,-0.12462456432698688,-0.09088464916911651,-0.11725077857925088,-0.5901192697752374,-0.18085310543881183,-0.024964774124331377
5830,8.0,299.96204,1249.7198,0.0,0.0,0.0,-0.059122867609282787,0.0,0.0,-0.09100228547922631,-0.14166401635614986,-0.14721730578171688,-0.5667963397684435,-0.12085722952767988,-0.04340875899161096
5831,8.0,299.53267999999997,1383.1670000000001,0.0,0.0,0.0,-0.059133008752955046,0.0,0.0,-0.11357755444923189,-0.1145625754014459,-0.1923080903368308,-0.5649205301233156,-0.10866924937481989,-0.005842231370458344
5832,8.0,300.2655,1430.5171,0.0,0.0,0.0,-0.059143149896627306,0.0,0.0,-0.08873930385163742,-0.16254276420672184,-0.18355941539590384,-0.5746791013064114,-0.11717624390189488,-0.036599305926820265
5833,8.0,300.31343,1191.7327,0.0,0.0,0.0,-0.05915329104029957,0.0,0.0,-0.056640328992215244,-0.15830403506339183,-0.14731261208612287,-0.5523743660601055,-0.13795641265023786,-0.04537129980554866
5834,8.0,300.10254,970.8276099999999,0.0,0.0,0.0,-0.05916343218397183,0.0,0.0,-0.1043310494691729,-0.11878871997853388,-0.07198758546662153,-0.5691582662815475,-0.13100297370648686,-0.05265955407259335
5835,8.0,300.75307999999995,1148.9439,0.0,0.0,0.0,-0.05917357332764409,0.0,0.0,-0.1124392692868919,-0.15170654074726986,-0.08510445555590583,-0.5500467481953875,-0.14676753419482785,-0.05052080298676505
5836,8.0,300.32086,1225.6667,0.0,0.0,0.0,-0.05918371447131635,0.0,0.0,-0.10477945316842689,-0.12456692052879788,-0.14322568807277486,-0.5959003884857895,-0.13591834113409587,-0.03962444212062796
5837,8.0,299.69383999999997,1108.8414,0.0,0.0,0.0,-0.05919385561498861,0.0,0.0,-0.06480817351206873,-0.12040465123801389,-0.15184728118615987,-0.5608083255199725,-0.1381145809908479,-0.027480433982357676
5838,8.0,300.30062999999996,884.64399,0.0,0.0,0.0,-0.05920399675866088,0.0,0.0,-0.006637870103456773,-0.09597869717235992,-0.16629311693435286,-0.5593612929196614,-0.1250038441044189,-0.04762939351465515
5839,8.0,299.60276,1068.1698,0.0,0.0,0.0,-0.05921413790233314,0.0,0.0,-0.04643635029041095,-0.11987601839584189,-0.15838458844634185,-0.5489509182122374,-0.12496291893287988,-0.03577063047828637
5840,8.0,300.37246,1457.0127,0.0,0.0,0.0,-0.0592242790460054,0.0,0.0,-0.15090214175788186,-0.14565342517987387,-0.14633991225512485,-0.5721874483830045,-0.14748784355841685,-0.03087475595610117
5841,8.0,300.39518,1645.3411,0.0,0.0,0.0,-0.05923442018967766,0.0,0.0,-0.15848346139109984,-0.16193191625143585,-0.17972723259019682,-0.5453007860519975,-0.14150889789834087,-0.024800850523153374
5842,8.0,299.01356,1193.9872,0.0,0.0,0.0,-0.05924456133334992,0.0,0.0,-0.09950066130095071,-0.14689277190718786,-0.11654885970497687,-0.5664511963868805,-0.11955210260387389,-0.03717787578692067
5843,8.0,299.84486,993.2675199999999,0.0,0.0,0.0,-0.05925470247702218,0.0,0.0,-0.06403451146446423,-0.11108874875860589,-0.12680526092720487,-0.5584719430418895,-0.11614106706973089,0.014431272304505685
5844,8.0,300.26559,1282.506,0.0,0.0,0.0,-0.05926484362069444,0.0,0.0,-0.07355789919334943,-0.13743799336907386,-0.17885391232900683,-0.5818731364864075,-0.12727586493614987,-0.02180306194954468
5845,8.0,299.98717,1409.5694,0.0,0.0,0.0,-0.059274984764366705,0.0,0.0,-0.09818442915604872,-0.14585036046930985,-0.18443912926522482,-0.5756281214825725,-0.1277300542934749,0.0064268034201761136
5846,8.0,301.00577000000004,1335.9704,0.0,0.0,0.0,-0.059285125908038964,0.0,0.0,-0.13489823133091886,-0.14542067149940285,-0.1257827497212909,-0.5654029992909315,-0.13208744515601586,-0.038905363855910466
5847,8.0,301.5079,1117.1974,0.0,0.0,0.0,-0.059295267051711224,0.0,0.0,-0.09037197298951932,-0.10961682060333791,-0.13961131350856384,-0.5527010581573475,-0.15973004272412786,-0.01991415402037398
5848,8.0,300.54376,1086.1265,0.0,0.0,0.0,-0.059305408195383484,0.0,0.0,-0.08465858295540162,-0.13516254775200487,-0.1103341915416369,-0.5572141551627554,-0.15338310489273385,-0.04847324846293716
5849,8.0,300.43059,1305.3892,0.0,0.0,0.0,-0.059315549339055744,0.0,0.0,-0.08643924031013882,-0.13413061332016088,-0.17623586658812582,-0.5598910302044425,-0.15081663358194286,-0.03254658214409757
5850,8.0,299.79121000000004,1523.4737,0.0,0.0,0.0,-0.05932569048272801,0.0,0.0,-0.08515770387516101,-0.17475885191735582,-0.2031814190149448,-0.5768566061688145,-0.10691911313959489,-0.04757935010546625
5851,8.0,299.45565,1249.2376,0.0,0.0,0.0,-0.059335831626400264,0.0,0.0,-0.07279449731625753,-0.16103741906315583,-0.14590512663721486,-0.5862593847117964,-0.13954785365480088,-0.05137638225195416
5852,8.0,299.41451,880.68559,0.0,0.0,0.0,-0.05934597277007252,0.0,0.0,-0.07516111720382472,-0.10572670015691289,-0.08681861229332992,-0.5922963288075964,-0.13002757863022288,-0.02702463761037408
5853,8.0,300.04997000000003,1106.3054,0.0,0.0,0.0,-0.05935611391374479,0.0,0.0,-0.07129241179826323,-0.16376704390504884,-0.10122976246409972,-0.5715302948981484,-0.15277215561243784,-0.05132670057305095
5854,8.0,299.59911,1469.7756,0.0,0.0,0.0,-0.05936625505741705,0.0,0.0,-0.12914678058329487,-0.16174603552059083,-0.15588226599938185,-0.5348055617811995,-0.13744323187209087,-0.011527522459427888
5855,8.0,299.52533,1488.9577,0.0,0.0,0.0,-0.05937639620108931,0.0,0.0,-0.0976397737900454,-0.17614619395427583,-0.17881999884815983,-0.5469392215961985,-0.16009059763971184,-0.03138351997706227
5856,8.0,299.94047,1206.6586,0.0,0.0,0.0,-0.05938653734476157,0.0,0.0,-0.05206337595225515,-0.14187210752918686,-0.17285862294481782,-0.5445107752140295,-0.14087695407597287,-0.00903006584209811
5857,8.0,300.09946,1171.1345,0.0,0.0,0.0,-0.05939667848843383,0.0,0.0,-0.0982205454426131,-0.11669382539678388,-0.14108126582613686,-0.5651961240180144,-0.14420522734194785,-0.017787215404211486
5858,8.0,300.21041,1354.404,0.0,0.0,0.0,-0.0594068196321061,0.0,0.0,-0.0994619085376261,-0.15280204649038787,-0.15944105366310685,-0.5683415563034445,-0.12361950128779489,-0.014666253108696486
5859,8.0,301.56526,1492.7603,0.0,0.0,0.0,-0.05941696077577836,0.0,0.0,-0.13296429152755387,-0.14476510881720386,-0.17603247689555282,-0.5875513393843025,-0.15458573143642385,-0.025509910784132176
5860,8.0,300.90702999999996,1333.8523,0.0,0.0,0.0,-0.059427101919450616,0.0,0.0,-0.1120502015134939,-0.1279865281587869,-0.16542106323578784,-0.5686548532343645,-0.15046721428495785,-0.03019598883336207
5861,8.0,300.58295,1035.5659,0.0,0.0,0.0,-0.059437243063122876,0.0,0.0,-0.07181711120354702,-0.1172649539481499,-0.12570410124852888,-0.5665010989543054,-0.15082800224806484,-0.02175037091784448
5862,8.0,300.48458999999997,1183.0636,0.0,0.0,0.0,-0.059447384206795136,0.0,0.0,-0.07195037790969944,-0.13238322299270688,-0.15528818733325087,-0.5496600919572274,-0.11778069824904988,-0.04077196103112926
5863,8.0,299.60896,1485.2189,0.0,0.0,0.0,-0.05945752535046741,0.0,0.0,-0.15511774853392984,-0.14441330838248387,-0.15193841290015386,-0.5827962681225135,-0.13116749512522388,0.007807424366532792
5864,8.0,299.3609,1500.1186,0.0,0.0,0.0,-0.05946766649413967,0.0,0.0,-0.1224844585257749,-0.15999639577791486,-0.17351773200236684,-0.5732231825027234,-0.12961532769453687,-0.02684409772080618
5865,8.0,299.69422000000003,1218.2028,0.0,0.0,0.0,-0.05947780763781193,0.0,0.0,-0.1006032496622677,-0.12990847108096787,-0.13979149977384686,-0.5850300083654665,-0.13838473373250987,-0.006574611177188603
5866,8.0,299.62592,1098.1536,0.0,0.0,0.0,-0.05948794878148419,0.0,0.0,-0.06498919368218405,-0.12613218928327788,-0.14268989155239586,-0.5427259351628795,-0.12391913960736688,-0.03340880832994267
5867,8.0,300.17149,1398.6961,0.0,0.0,0.0,-0.05949808992515645,0.0,0.0,-0.08389975691576132,-0.14127104756986686,-0.1999978986582558,-0.5587142719358055,-0.16898925386044084,-0.03180770801217637
5868,8.0,300.68871,1330.4509,0.0,0.0,0.0,-0.059508231068828715,0.0,0.0,-0.11281705958667688,-0.13828877894803984,-0.15331802383881085,-0.5881971343355374,-0.15957216822604686,-0.03286193191972017
5869,8.0,299.81225,1011.9177,0.0,0.0,0.0,-0.059518372212500975,0.0,0.0,-0.08635691171301361,-0.11206145872210488,-0.1091793397401619,-0.5568985480216074,-0.15646761044965085,-0.047029586945708864
5870,8.0,300.57661,950.10435,0.0,0.0,0.0,-0.059528513356173235,0.0,0.0,-0.07659674668751033,-0.09159412790238661,-0.12061711965148289,-0.5663156741860055,-0.09444835109582651,-0.047240794876053455
5871,8.0,299.99478999999997,1197.434,0.0,0.0,0.0,-0.059538654499845495,0.0,0.0,-0.07387111405101134,-0.14127998443574888,-0.14883893150675886,-0.5532441196809434,-0.10512549834257891,-0.037315146857468263
5872,8.0,300.43408,1553.9169,0.0,0.0,0.0,-0.059548795643517755,0.0,0.0,-0.13114662217316386,-0.16451894640675585,-0.17668638798008884,-0.5879173354529235,-0.12275417556989388,-0.032075486708854066
5873,8.0,299.58947,1437.578,0.0,0.0,0.0,-0.05955893678719002,0.0,0.0,-0.07791402754626582,-0.16161808229796285,-0.19745570481986083,-0.5549309075199165,-0.11403048737643288,-0.04272251813613426
5874,8.0,299.51038,927.06005,0.0,0.0,0.0,-0.05956907793086228,0.0,0.0,-0.08862445499255273,-0.11068474567873389,-0.08249391090551512,-0.5871526153374514,-0.12132240251608888,-0.02027757542049088
5875,8.0,298.73832000000004,1004.0189,0.0,0.0,0.0,-0.05957921907453454,0.0,0.0,-0.08797368802307702,-0.10126934203950591,-0.11595365633123488,-0.5635552161435695,-0.13660290303415687,-0.00870879280904093
5876,8.0,299.29605,1560.6383,0.0,0.0,0.0,-0.0595893602182068,0.0,0.0,-0.13932327690263688,-0.15059158060223185,-0.18448020642427881,-0.6094815368636444,-0.15624366191254885,0.004072258434050616
5877,8.0,299.83485,1617.6261,0.0,0.0,0.0,-0.05959950136187906,0.0,0.0,-0.14395588675733986,-0.13725137296565587,-0.21051067242078578,-0.5508636405585086,-0.14323420950611587,0.013469846907370386
5878,8.0,299.92242000000005,1186.6664,0.0,0.0,0.0,-0.05960964250555133,0.0,0.0,-0.054115600545793945,-0.13008662071354987,-0.17651473328064785,-0.5375709340866205,-0.12405548254082288,-0.036565997356282964
5879,8.0,299.46146,953.64765,0.0,0.0,0.0,-0.05961978364922359,0.0,0.0,-0.04394143368843186,-0.10479700266015891,-0.14114663059008786,-0.5356488594419264,-0.13368022365071086,-0.03439067098159496
5880,8.0,300.27815,1265.7239,0.0,0.0,0.0,-0.05962992479289585,0.0,0.0,-0.13969413657173788,-0.11882590625720388,-0.12622841764527487,-0.5809200227798424,-0.16118224289994884,-0.05400028761816345
5881,8.0,300.82659,1441.2364,0.0,0.0,0.0,-0.05964006593656811,0.0,0.0,-0.15213305824436385,-0.15122294687204288,-0.13474389307568688,-0.5886139955591785,-0.14645566594654885,-0.04621812762962405
5882,8.0,300.23798,1282.6469,0.0,0.0,0.0,-0.05965020708024037,0.0,0.0,-0.10549719900926291,-0.15543525045276485,-0.1289601905773799,-0.5913345214151734,-0.10748596577553891,-0.06996853569460684
5883,8.0,300.22291,982.28578,0.0,0.0,0.0,-0.05966034822391263,0.0,0.0,-0.06858723161503273,-0.10766474362318289,-0.12233836812635689,-0.5960202559726194,-0.12209599870243688,-0.012772384307036188
5884,8.0,298.81762000000003,956.9414800000001,0.0,0.0,0.0,-0.05967048936758489,0.0,0.0,-0.007695738570285262,-0.13819473920625888,-0.14499584612997585,-0.5728450882279085,-0.13860224813147687,-0.031090593426152675
5885,8.0,299.31802999999996,1346.6937,0.0,0.0,0.0,-0.05968063051125715,0.0,0.0,-0.07995192275689042,-0.16751639351508085,-0.16189292638758784,-0.5673260466557214,-0.14448372926443387,-0.024755792304456476
5886,8.0,299.84233,1517.7254,0.0,0.0,0.0,-0.05969077165492941,0.0,0.0,-0.15699765170946187,-0.14774114595091586,-0.15661182633638385,-0.5382860454771965,-0.13646232471528286,-0.018828091768187984
5887,8.0,299.8129,1219.819,0.0,0.0,0.0,-0.05970091279860167,0.0,0.0,-0.11404079212994989,-0.13111731898027187,-0.1256364060093479,-0.5556637507872425,-0.13218709830335088,-0.04131096144832446
5888,8.0,299.29537,922.6557300000001,0.0,0.0,0.0,-0.05971105394227394,0.0,0.0,-0.07702249006152792,-0.09580528347074531,-0.1076365246078979,-0.5536648515199665,-0.16268028251029384,-0.026515044750831177
5889,8.0,298.87728,1318.3041,0.0,0.0,0.0,-0.0597211950859462,0.0,0.0,-0.08864199637828392,-0.15211214476229987,-0.15997737707353785,-0.5754399001439965,-0.16125898646252285,-0.06632442831946143
5890,8.0,297.90625,1653.3628,0.0,0.0,0.0,-0.05973133622961846,0.0,0.0,-0.07014363949738824,-0.18310725253877883,-0.24933011773446676,-0.5729164007699464,-0.12478074669740088,-0.03499477373096527
5891,8.0,299.6324,1407.9455,0.0,0.0,0.0,-0.05974147737329072,0.0,0.0,-0.08687241688689001,-0.15353175881490486,-0.18757609077981882,-0.5934311689195965,-0.14967921981468887,-0.04913194006144495
5892,8.0,299.91645,1002.0717,0.0,0.0,0.0,-0.05975161851696298,0.0,0.0,-0.09876692232053631,-0.11201861850787691,-0.09381923728098782,-0.5861530542463024,-0.15132076603669684,-0.01034305538403009
5893,8.0,299.52202,946.46665,0.0,0.0,0.0,-0.059761759660635246,0.0,0.0,-0.08733242229978902,-0.1070249065825359,-0.0933448974189241,-0.5921000521307255,-0.13886467990737686,-0.041730479413727664
5894,8.0,300.36067,1299.374,0.0,0.0,0.0,-0.059771900804307505,0.0,0.0,-0.1352961346451889,-0.12570594536371088,-0.13397518075482087,-0.5287098795771025,-0.12482692050445787,-0.01132693642988159
5895,8.0,300.73824,1510.2107,0.0,0.0,0.0,-0.059782041947979765,0.0,0.0,-0.1109251493974599,-0.14984900000144488,-0.19829218330741483,-0.5552946845708184,-0.1070800679179799,-0.014960144273701285
5896,8.0,300.69807000000003,1445.3648,0.0,0.0,0.0,-0.059792183091652025,0.0,0.0,-0.053444857350596744,-0.15728196968752184,-0.22862798950882576,-0.5477396486451945,-0.13178961042162188,0.007493347030385774
5897,8.0,300.50399,1267.7875,0.0,0.0,0.0,-0.059802324235324285,0.0,0.0,-0.06284688608850474,-0.15635351848839085,-0.16617533674272883,-0.5880513276461474,-0.13532038172008187,-0.015330215634224485
5898,8.0,300.0034,1362.2559,0.0,0.0,0.0,-0.059812465378996545,0.0,0.0,-0.11928927566043489,-0.15738070077726585,-0.13742182189747787,-0.5765931712753155,-0.13058537281027288,-0.03502116990932037
5899,8.0,300.42152000000004,1748.0604,0.0,0.0,0.0,-0.059822606522668804,0.0,0.0,-0.16733391730457184,-0.18275770151928084,-0.18127509370795883,-0.5965907664414244,-0.15937611446419783,-0.024335324923709576
5900,8.0,300.75844,1485.6866,0.0,0.0,0.0,-0.059832747666341064,0.0,0.0,-0.15751205852022984,-0.15364448288852983,-0.14045508739683787,-0.5941804673685465,-0.18459097492521082,-0.034181495630950964
5901,8.0,299.57743999999997,906.8245199999999,0.0,0.0,0.0,-0.05984288881001333,0.0,0.0,-0.03567496041709447,-0.1028675414222359,-0.13710950781915487,-0.5635165809172564,-0.14908713725125486,-0.03998376593734047
5902,8.0,299.2677,893.14905,0.0,0.0,0.0,-0.05985302995368559,0.0,0.0,-0.014529223191672686,-0.10250554769150991,-0.15446024041153886,-0.5248766936537965,-0.13412284169189387,-0.03997200210367946
5903,8.0,299.14644,1183.4599,0.0,0.0,0.0,-0.05986317109735785,0.0,0.0,-0.07332428931654393,-0.12668666000299988,-0.15973130928675286,-0.5369380276766574,-0.1036375405707289,-0.03537180510642537
5904,8.0,299.99026000000003,1411.9466,0.0,0.0,0.0,-0.05987331224103011,0.0,0.0,-0.12068285931797089,-0.13417813474985088,-0.17433552615807685,-0.5711463035077514,-0.14786162138780587,-0.01140603478568799
5905,8.0,299.71143,1403.8995,0.0,0.0,0.0,-0.05988345338470237,0.0,0.0,-0.12461160485820788,-0.17097181953610482,-0.13116694797016987,-0.5722519012218654,-0.12678883614308387,-0.042569353224518054
5906,8.0,299.85877,1157.7678,0.0,0.0,0.0,-0.05989359452837463,0.0,0.0,-0.1223912192515729,-0.12462384491941589,-0.1049174375670449,-0.5834482844293625,-0.12423015672556188,-0.014159713171704886
5907,8.0,300.49921,1206.4971,0.0,0.0,0.0,-0.05990373567204689,0.0,0.0,-0.04862105125502415,-0.15320514777767086,-0.16491878502871685,-0.5531478406564414,-0.1347232126411459,-0.07113783036300723
5908,8.0,300.16258999999997,1551.0141,0.0,0.0,0.0,-0.05991387681571916,0.0,0.0,-0.0956296548044121,-0.16078234348298184,-0.2150575511845278,-0.5990773125843274,-0.16190003940328984,-0.003849902219480767
5909,8.0,299.92855,1425.4256,0.0,0.0,0.0,-0.05992401795939142,0.0,0.0,-0.10882538108272889,-0.15017272327589387,-0.17429568516414484,-0.5785342950218895,-0.13403170997789987,-0.03353084417198667
5910,8.0,299.70905,861.28482,0.0,0.0,0.0,-0.059934159103063676,0.0,0.0,-0.05628293744344344,-0.1025985437856879,-0.1029275967556629,-0.5782801111018034,-0.13929646630499087,-0.022899175642722678
5911,8.0,298.47547000000003,754.78473,0.0,0.0,0.0,-0.059944300246735936,0.0,0.0,-0.06747552197631554,-0.098717219363381,-0.06324297163209534,-0.5759871565230065,-0.12533679808727888,-0.04517843372851425
5912,8.0,298.72292000000004,1350.1583,0.0,0.0,0.0,-0.059954441390408196,0.0,0.0,-0.14723408520337286,-0.12028889754658988,-0.14289141686478485,-0.5700125070433545,-0.16581869297253082,-0.03330131667983407
5913,8.0,299.38908,1664.9108,0.0,0.0,0.0,-0.05996458253408046,0.0,0.0,-0.1207838803529409,-0.18334639982738082,-0.2019610403295028,-0.5664339103401744,-0.14391969346376787,-0.06704670338824444
5914,8.0,300.00485,1314.2839999999999,0.0,0.0,0.0,-0.05997472367775272,0.0,0.0,-0.07495492080847473,-0.15086745820695885,-0.17368714741908683,-0.5676120060989435,-0.14022066185370188,-0.04226933493615856
5915,8.0,300.26124,1026.5693,0.0,0.0,0.0,-0.05998486482142498,0.0,0.0,-0.06779859677070053,-0.0992805286637253,-0.14497231846265385,-0.5635216775652594,-0.13314565316295288,-0.0029804203523195873
5916,8.0,300.3462,1115.4198,0.0,0.0,0.0,-0.05999500596509724,0.0,0.0,-0.06861395507317013,-0.1080193102306759,-0.16242651402274882,-0.5762816475320705,-0.16734303655547184,-0.004111963044519156
5917,8.0,300.31298,1342.8396,0.0,0.0,0.0,-0.0600051471087695,0.0,0.0,-0.14628996915769588,-0.11288635576101588,-0.14901337264397485,-0.5640632800087114,-0.1316254943029249,-0.004612349108353416
5918,8.0,300.90287,1477.0293,0.0,0.0,0.0,-0.060015288252441776,0.0,0.0,-0.13094996046125487,-0.15913967255336284,-0.15889038263125985,-0.5747043717639054,-0.13996175618814988,-0.019649371504241984
5919,8.0,300.04079,979.8952300000001,0.0,0.0,0.0,-0.060025429396114036,0.0,0.0,-0.03489618652273547,-0.13004218969666487,-0.13292531179620687,-0.5507834620780955,-0.12387040227755687,-0.06669136671067544
5920,8.0,300.35943,757.80878,0.0,0.0,0.0,-0.060035570539786295,0.0,0.0,-0.03617958125839667,-0.08300554546400953,-0.11116981889910689,-0.5456818896796094,-0.14773725507053187,-0.03901718208394606
5921,8.0,300.47233,1467.8461,0.0,0.0,0.0,-0.06004571168345855,0.0,0.0,-0.1257148011695849,-0.15443764493430887,-0.16603611617898884,-0.5648821076795235,-0.12166255057465887,-0.05396610157303954
5922,8.0,300.25142999999997,1780.8774,0.0,0.0,0.0,-0.06005585282713081,0.0,0.0,-0.16832167403205583,-0.16238295440094985,-0.21063764279081681,-0.5835347349278944,-0.12555068505088787,-0.01027926723723469
5923,8.0,301.06143,1229.3346,0.0,0.0,0.0,-0.06006599397080308,0.0,0.0,-0.1057406120807859,-0.1314854530066039,-0.13646094669514686,-0.6203531936790934,-0.1112031750923989,-0.030343421789162574
5924,8.0,300.65336,1016.0849,0.0,0.0,0.0,-0.06007613511447534,0.0,0.0,-0.07551507788775792,-0.0996738642465445,-0.13367549177274388,-0.5697964922545354,-0.14041987695586286,0.009150138309423341
5925,8.0,299.21817999999996,1357.4926,0.0,0.0,0.0,-0.0600862762581476,0.0,0.0,-0.07381795084476453,-0.12370621523135288,-0.2151196836806598,-0.5609578407047284,-0.13376054398613788,-0.05152317280719125
5926,8.0,299.74937,1600.285,0.0,0.0,0.0,-0.06009641740181986,0.0,0.0,-0.14305030461296586,-0.15913521425292285,-0.18426117215016183,-0.5288860128419854,-0.13661138393749386,-0.018356138110109783
5927,8.0,299.8558,1499.8063,0.0,0.0,0.0,-0.06010655854549212,0.0,0.0,-0.088801209379747,-0.17861486636541482,-0.18848759030477683,-0.5827378643867495,-0.14617482341633187,-0.04578525908090325
5928,8.0,299.07769,1189.6884,0.0,0.0,0.0,-0.06011669968916439,0.0,0.0,-0.08561011801831082,-0.13711039947924286,-0.13891504856984788,-0.5800596822524334,-0.15524352326884286,-0.004781872436209066
5929,8.0,299.85598999999996,1149.8047,0.0,0.0,0.0,-0.06012684083283665,0.0,0.0,-0.09164474278463192,-0.13214865559455688,-0.12571849953244987,-0.5710255848908375,-0.1274534370161749,-0.03279696738955867
5930,8.0,300.32847000000004,1439.7457,0.0,0.0,0.0,-0.06013698197650891,0.0,0.0,-0.1135256051166049,-0.15138880578091185,-0.17273235171735582,-0.5693216325951704,-0.12463520345303687,-0.04567815246583266
5931,8.0,301.71963,1554.4942,0.0,0.0,0.0,-0.06014712312018117,0.0,0.0,-0.08746217505459461,-0.1900310336521028,-0.19503421946587882,-0.5735694201943945,-0.12301179440781888,-0.05542841297160844
5932,8.0,301.305,1148.8141,0.0,0.0,0.0,-0.06015726426385343,0.0,0.0,-0.09486003055845611,-0.1036647969984189,-0.15068597498154787,-0.5760276966595074,-0.2016832274170848,-0.04137195201159376
5933,8.0,301.55438,976.06379,0.0,0.0,0.0,-0.060167405407525694,0.0,0.0,-0.07433957604924493,-0.1001936504020934,-0.12216579136932487,-0.5508335166330355,-0.14701731047697886,-0.04034325491381926
5934,8.0,300.94426,1321.3138,0.0,0.0,0.0,-0.060177546551197954,0.0,0.0,-0.12559707164046588,-0.12328608120988889,-0.15276324914405884,-0.5592364199773374,-0.13211057765579887,-0.023265192989595777
5935,8.0,299.32844,1441.8615,0.0,0.0,0.0,-0.060187687694870214,0.0,0.0,-0.13859442584070486,-0.12391752853970789,-0.17577792820543084,-0.5627259519967275,-0.1162664567696059,0.00017348057612119985
5936,8.0,299.62792,1245.9886,0.0,0.0,0.0,-0.06019782883854247,0.0,0.0,-0.056589524632201245,-0.13640135745676588,-0.18575854301544084,-0.5943041852057565,-0.1039248476365839,-0.00952996129023395
5937,8.0,300.10999,1237.1351,0.0,0.0,0.0,-0.06020796998221473,0.0,0.0,-0.08154527981739253,-0.15097669670023983,-0.14353620869842088,-0.5630556433142654,-0.1135256557791099,-0.03051377344897497
5938,8.0,298.83752999999996,1357.8829,0.0,0.0,0.0,-0.060218111125887,0.0,0.0,-0.13047066276645186,-0.15079378479218786,-0.13149803757284587,-0.5571407451930105,-0.11920042375916588,-0.03991582447838517
5939,8.0,299.26022,1368.1339,0.0,0.0,0.0,-0.06022825226955926,0.0,0.0,-0.12464635933663788,-0.16684553075637182,-0.12438667346850887,-0.5781210409686044,-0.15793610368707983,-0.04962511421636746
5940,8.0,300.72142,1261.1276,0.0,0.0,0.0,-0.06023839341323152,0.0,0.0,-0.12687935990701787,-0.13160407419581088,-0.12486785580849788,-0.5921537847835284,-0.1783014883744868,-0.014054643189335286
5941,8.0,300.27673,1111.5369,0.0,0.0,0.0,-0.06024853455690378,0.0,0.0,-0.07363832288028664,-0.11976690149257288,-0.14447424524349786,-0.5791653674491715,-0.14150185581014585,-0.01991597381755358
5942,8.0,301.2704,1001.3834,0.0,0.0,0.0,-0.06025867570057604,0.0,0.0,-0.021119837539615677,-0.1030324073460069,-0.1802433112636298,-0.5508686561465035,-0.11834383225712689,-0.036815794916686066
5943,8.0,300.79161,1106.8981,0.0,0.0,0.0,-0.060268816844248306,0.0,0.0,-0.03621420502756376,-0.13808422401785186,-0.16217094195002585,-0.5437331462922835,-0.12992595977769386,-0.05058146931000236
5944,8.0,300.51804,1482.1083,0.0,0.0,0.0,-0.060278957987920566,0.0,0.0,-0.11846438875402487,-0.15290677602072386,-0.17915277044600184,-0.5733072518635205,-0.15924633739138983,-0.025677151766137576
5945,8.0,300.53627,1640.5845,0.0,0.0,0.0,-0.060289099131592826,0.0,0.0,-0.16026394446681985,-0.18190746309536884,-0.15652531504284584,-0.5590897824228656,-0.1299494874450159,-0.05191728453958704
5946,8.0,300.06872000000004,1297.6392,0.0,0.0,0.0,-0.060299240275265086,0.0,0.0,-0.14230351902426386,-0.14063898215748688,-0.1115074135674249,-0.5843076522366755,-0.13597495141718288,-0.014521448523655386
5947,8.0,299.81072,1273.5012,0.0,0.0,0.0,-0.060309381418937345,0.0,0.0,-0.1030127908240709,-0.14414849546884886,-0.13995128931461687,-0.5796832395752815,-0.12959566051009588,-0.01885597539768988
5948,8.0,299.52285,1378.6779999999999,0.0,0.0,0.0,-0.06031952256260961,0.0,0.0,-0.07449648188023034,-0.14725612339304786,-0.1973310750575608,-0.6186467690531824,-0.14591125680031988,0.007034811742056862
5949,8.0,299.7027,1237.1691,0.0,0.0,0.0,-0.06032966370628187,0.0,0.0,-0.07880126277107913,-0.13383745980122888,-0.16342978360926386,-0.5731092121314755,-0.1034061041153879,-0.01073565940027709
5950,8.0,300.09679,1219.4251,0.0,0.0,0.0,-0.06033980484995413,0.0,0.0,-0.09994992727603981,-0.11945736371952388,-0.15126749947893986,-0.5820834669421654,-0.14057800476646887,-0.04548960688722466
5951,8.0,300.4535,1103.6429,0.0,0.0,0.0,-0.06034994599362639,0.0,0.0,-0.1092001012347109,-0.1108101860411139,-0.1154695760959599,-0.5415565229574675,-0.16578359398906684,-0.05115908468850855
5952,8.0,298.85989,990.82529,0.0,0.0,0.0,-0.06036008713729865,0.0,0.0,-0.1060703135308249,-0.09962540758701222,-0.0954904291744216,-0.5641245309772565,-0.16572238355052585,-0.05056986354335695
5953,8.0,300.37573,1384.4482,0.0,0.0,0.0,-0.06037022828097091,0.0,0.0,-0.0948371007086931,-0.14531505030897884,-0.18068554426977482,-0.5531137650555784,-0.14156131332601388,-0.03582935642758217
5954,8.0,300.82986,1550.7111,0.0,0.0,0.0,-0.06038036942464317,0.0,0.0,-0.10982953219683089,-0.14936503122368086,-0.2121829099883228,-0.5634203424227584,-0.11789943089576789,-0.047409658071468956
5955,8.0,300.6775,1260.2109,0.0,0.0,0.0,-0.06039051056831543,0.0,0.0,-0.08950368452832591,-0.12309345223337788,-0.17047549923962182,-0.5811884023338295,-0.14599089825817985,-0.005327365861370075
5956,8.0,300.72893,1159.5781,0.0,0.0,0.0,-0.06040065171198769,0.0,0.0,-0.09579885034586041,-0.14815866578712186,-0.10852527666811089,-0.5681580263128314,-0.13311616758504288,-0.04271186381133276
5957,8.0,301.10423,1401.4623,0.0,0.0,0.0,-0.06041079285565996,0.0,0.0,-0.14537457875235388,-0.14204264765351785,-0.13859229801549489,-0.5827086219888635,-0.1041132310951759,-0.017954161530437784
5958,8.0,298.88232,1605.5349,0.0,0.0,0.0,-0.06042093399933222,0.0,0.0,-0.19425382437135982,-0.17168405329639683,-0.12210463159328888,-0.5786346473117935,-0.12252591058736588,-0.03899750780675436
5959,8.0,299.8931,1340.0318,0.0,0.0,0.0,-0.06043107514300448,0.0,0.0,-0.07519962881362553,-0.14830533373909685,-0.18383125013273183,-0.5789268483756314,-0.17390177405526885,-0.02098660832371698
5960,8.0,299.93644,1083.2654,0.0,0.0,0.0,-0.06044121628667674,0.0,0.0,-0.04355664993645666,-0.13153733141172386,-0.15419165820753186,-0.5679460239944084,-0.15410391074887184,-0.018267649965626683
5961,8.0,299.62575,1168.8588,0.0,0.0,0.0,-0.060451357430349,0.0,0.0,-0.05802790407665825,-0.11719853540409489,-0.18007744222225985,-0.5551560820896395,-0.12389184264967289,-0.025544571030302877
5962,8.0,300.00739,1405.7472,0.0,0.0,0.0,-0.06046149857402126,0.0,0.0,-0.1199816395862659,-0.15689203051903786,-0.15043838731961284,-0.5770357690514964,-0.12646443399106788,-0.06581457606789294
5963,8.0,299.60634,1406.116,0.0,0.0,0.0,-0.06047163971769352,0.0,0.0,-0.13603671914327886,-0.14832947948897984,-0.14305793438621886,-0.5784106177146834,-0.13373444266356185,-0.03334042813369407
5964,8.0,298.69627,1097.388,0.0,0.0,0.0,-0.06048178086136578,0.0,0.0,-0.11022724299358189,-0.1173739087314029,-0.10597738836415391,-0.5811188427144645,-0.14011089647036887,-0.03525256482140727
5965,8.0,300.51677,1234.3652,0.0,0.0,0.0,-0.06049192200503804,0.0,0.0,-0.06646930383200954,-0.14428136295446187,-0.16446553799398483,-0.5418808440494756,-0.1186076825831669,-0.01133176659310829
5966,8.0,300.46061000000003,1347.1587,0.0,0.0,0.0,-0.0605020631487103,0.0,0.0,-0.10008894518975982,-0.14921615438648786,-0.16019749552526186,-0.5742141714980264,-0.14402199119386389,-0.03427111456254567
5967,8.0,299.58502999999996,1455.1833,0.0,0.0,0.0,-0.06051220429238256,0.0,0.0,-0.12391724482967989,-0.14148443804092686,-0.17693771453489282,-0.5756026078450545,-0.1797356425660268,0.008917105073249752
5968,8.0,299.93101,1264.9033,0.0,0.0,0.0,-0.06052234543605483,0.0,0.0,-0.1075669244585289,-0.14036517158296385,-0.13656692252310587,-0.5762411681905755,-0.14766392616079488,-0.03031679053678427
5969,8.0,300.85806,1119.6837,0.0,0.0,0.0,-0.06053248657972709,0.0,0.0,-0.09271889022889201,-0.12389522690500689,-0.12374178030986288,-0.5827120062441974,-0.1071331419582179,0.016991294278410184
5970,8.0,301.20018999999996,1398.8926,0.0,0.0,0.0,-0.06054262772339935,0.0,0.0,-0.12328705392998487,-0.15578193397447984,-0.14615944227981384,-0.5797541265522774,-0.1179967940978769,-0.06483359798357793
5971,8.0,301.60388,1472.8491,0.0,0.0,0.0,-0.06055276886707161,0.0,0.0,-0.08259171385816752,-0.13294970072611387,-0.2321679307206908,-0.6082336484379873,-0.16590647082869384,0.0016499482944872185
5972,8.0,300.31323,1004.4895,0.0,0.0,0.0,-0.06056291001074387,0.0,0.0,-0.07257423194326902,-0.10857531095804891,-0.12419019414161789,-0.5899461863931554,-0.13412575985218186,-0.06784853378862893
5973,8.0,300.83507000000003,1027.5018,0.0,0.0,0.0,-0.060573051154416135,0.0,0.0,-0.07574831488852662,-0.1039290120944949,-0.13265757058978286,-0.5775948095291694,-0.12815740265565087,-0.004965077072214955
5974,8.0,300.24188,1356.4252,0.0,0.0,0.0,-0.060583192298088395,0.0,0.0,-0.13623360377020988,-0.14767848656473184,-0.12840731066031488,-0.5555734296733285,-0.11155040576916789,-0.07152080850330422
5975,8.0,299.74505,1476.5944,0.0,0.0,0.0,-0.060593333441760655,0.0,0.0,-0.17838984378320683,-0.13306719720770988,-0.13739079617941588,-0.5874716776614405,-0.15314480873421585,-0.007321019938178413
5976,8.0,299.47301,1505.0773,0.0,0.0,0.0,-0.060603474585432915,0.0,0.0,-0.13688096925909987,-0.14773960581076384,-0.17288535248245585,-0.5748436531226514,-0.12428153863813289,-0.02535289653538608
5977,8.0,299.18082999999996,1480.0126,0.0,0.0,0.0,-0.060613615729105175,0.0,0.0,-0.07943977448059533,-0.16132689448422483,-0.2091202197060588,-0.5628847080223954,-0.11626988155494389,-0.004531495195423756
5978,8.0,298.99102999999997,1331.4279,0.0,0.0,0.0,-0.06062375687277745,0.0,0.0,-0.08603649366039082,-0.16223593181143986,-0.15644841949275684,-0.5689498812659814,-0.14591874471855887,-0.037632720717060364
5979,8.0,298.91277,1377.3698,0.0,0.0,0.0,-0.06063389801644971,0.0,0.0,-0.09347041073531132,-0.16014017596710484,-0.16507542336167585,-0.5874109434504465,-0.17614978085962982,-0.02904811427207567
5980,8.0,299.43762000000004,1375.0266,0.0,0.0,0.0,-0.06064403916012197,0.0,0.0,-0.12483383087013987,-0.16093859678090286,-0.13220131420225387,-0.5969525575221304,-0.15151783304864586,-0.026565660646326573
5981,8.0,300.058,1167.2160000000001,0.0,0.0,0.0,-0.06065418030379423,0.0,0.0,-0.08653304092489623,-0.14449243308279286,-0.12377905778104188,-0.5717142605863045,-0.10072146656468481,-0.025850976847292775
5982,8.0,300.77288,965.3633199999999,0.0,0.0,0.0,-0.06066432144746649,0.0,0.0,-0.02923001191677757,-0.13112408749093987,-0.13309224475018186,-0.5887416042767725,-0.11621349418687887,-0.046418580923407254
5983,8.0,300.02992,1227.5812,0.0,0.0,0.0,-0.060674462591138754,0.0,0.0,-0.04253778035140206,-0.14944506784907985,-0.18117119504270485,-0.5787483238405124,-0.13725242674575988,-0.035575872663315265
5984,8.0,300.64549,1496.1881,0.0,0.0,0.0,-0.060684603734811014,0.0,0.0,-0.12166273295967688,-0.15884027741381485,-0.17430080207714982,-0.5847785804856525,-0.14663919593716188,-0.026736358837673176
5985,8.0,300.79514,1498.1789999999999,0.0,0.0,0.0,-0.060694744878483274,0.0,0.0,-0.13813874700573286,-0.16048708240384185,-0.15678316692829386,-0.5804524483886965,-0.1279202109397419,-0.02333777513400908
5986,8.0,300.70735,1669.8227,0.0,0.0,0.0,-0.060704886022155534,0.0,0.0,-0.18919351151694583,-0.18275535077904884,-0.13563555316368686,-0.5903269151182304,-0.15156472626327386,-0.04197262693587576
5987,8.0,299.82957000000005,1415.3219,0.0,0.0,0.0,-0.060715027165827794,0.0,0.0,-0.17162579141564682,-0.1158322892342569,-0.14276442622975188,-0.5903623079442235,-0.15605881469680585,0.008774224244848512
5988,8.0,299.67533,1111.1112,0.0,0.0,0.0,-0.06072516830950006,0.0,0.0,-0.05040410190649755,-0.12697841523679387,-0.16036754928954486,-0.5712379925093004,-0.14386194834056887,-0.010241757731782791
5989,8.0,299.92974,1095.4444,0.0,0.0,0.0,-0.06073530945317232,0.0,0.0,-0.04399457257667626,-0.0988612336133441,-0.19013195336206282,-0.5669838416994485,-0.12793277524098187,0.0038125637506457462
5990,8.0,300.69996000000003,1358.2856,0.0,0.0,0.0,-0.06074545059684458,0.0,0.0,-0.0909369288212761,-0.1357963052920519,-0.1861516739217398,-0.5771183185371435,-0.13991327217086486,-0.017063797389315682
5991,8.0,299.63693,1116.8095,0.0,0.0,0.0,-0.06075559174051684,0.0,0.0,-0.07836197832272512,-0.15232255627806585,-0.10879766869249388,-0.5942374829516734,-0.16717759307914382,-0.052833200821730944
5992,8.0,299.38139,1173.5879,0.0,0.0,0.0,-0.0607657328841891,0.0,0.0,-0.13100355125904387,-0.13360160557545186,-0.09213624609013951,-0.5875089753976215,-0.16276312583846986,-0.03452587907493897
5993,8.0,299.86337000000003,1520.628,0.0,0.0,0.0,-0.06077587402786137,0.0,0.0,-0.15278178148838786,-0.16912855548418884,-0.14032260494626286,-0.5779782334995105,-0.13047386463676788,-0.06714406051085284
5994,8.0,299.53227999999996,1484.0861,0.0,0.0,0.0,-0.060786015171533626,0.0,0.0,-0.08234841528390582,-0.17526904360770784,-0.1935076568652188,-0.5991458488210915,-0.14895188862790687,-0.021944498491253378
5995,8.0,300.77167000000003,1277.9981,0.0,0.0,0.0,-0.060796156315205886,0.0,0.0,-0.06407242323020584,-0.15179217051322086,-0.17261491603076584,-0.5909421605789504,-0.14064967194604186,-0.04740070803333566
5996,8.0,301.29941,1179.614,0.0,0.0,0.0,-0.060806297458878146,0.0,0.0,-0.08368364890793312,-0.11581575299262489,-0.15907382142936385,-0.5663012961670865,-0.15289728186728685,-0.001969374476587128
5997,8.0,300.59685,1196.3385,0.0,0.0,0.0,-0.060816438602550406,0.0,0.0,-0.08729353781395141,-0.15488707201616386,-0.12147642666378987,-0.5479207265705655,-0.13658391472728287,-0.043410040752987454
5998,8.0,300.56127999999995,1395.5609,0.0,0.0,0.0,-0.06082657974622267,0.0,0.0,-0.16943078772401682,-0.13653617038257088,-0.1182487286027409,-0.5596641128445475,-0.15716625652610186,-0.025864492590376677
5999,8.0,300.17387,1473.6685,0.0,0.0,0.0,-0.06083672088989493,0.0,0.0,-0.1068780663780439,-0.17179459888230683,-0.16928575110470284,-0.5881760283359545,-0.14459873315078386,-0.027633716430985472
6000,8.0,299.67726,1198.4907,0.0,0.0,0.0,-0.06084686203356719,0.0,0.0,-0.04070359299388186,-0.13992565408708685,-0.1836819882605008,-0.5681334144679024,-0.14456472847742785,-0.018587780255221082
6001,8.0,300.18592,1064.7165,0.0,0.0,0.0,-0.06085700317723945,0.0,0.0,-0.028331089865310872,-0.11643017772076387,-0.17888595129716883,-0.5798753112642374,-0.12164374465280288,-0.018879363236498085
6002,8.0,299.40744,1270.0221,0.0,0.0,0.0,-0.06086714432091171,0.0,0.0,-0.07329460108861394,-0.16145503009187084,-0.15130537476767786,-0.5695608406787785,-0.14436345647756385,-0.036525224172258966
6003,8.0,299.62968,1483.4335,0.0,0.0,0.0,-0.06087728546458398,0.0,0.0,-0.15161883381861385,-0.16175570192654484,-0.13755220692034587,-0.6222834249870924,-0.14988509197000685,-0.022823250786229477
6004,8.0,300.17393,1444.7451,0.0,0.0,0.0,-0.06088742660825624,0.0,0.0,-0.17176316786420484,-0.13561169112383187,-0.1317915862593169,-0.6020245126201934,-0.16581954410261485,-0.01674574020942588
6005,8.0,300.42041,1335.9542,0.0,0.0,0.0,-0.0608975677519285,0.0,0.0,-0.12128690836508588,-0.15312265908702985,-0.1316871404390089,-0.5704918857981655,-0.14596007519013784,-0.022497864768366377
6006,8.0,300.43658,1347.7079999999999,0.0,0.0,0.0,-0.06090770889560076,0.0,0.0,-0.08790283144358402,-0.11971879237782489,-0.2020479569230808,-0.5577323819264004,-0.12439821438714788,-0.011087581425009091
6007,8.0,300.07004,1280.3702,0.0,0.0,0.0,-0.06091785003927302,0.0,0.0,-0.07409664731126973,-0.11937162249606188,-0.1957323082547748,-0.5975748349385445,-0.12096257714057689,-0.014036912325835385
6008,8.0,300.28521,1333.8191,0.0,0.0,0.0,-0.06092799118294528,0.0,0.0,-0.08810921427695241,-0.11656170771624488,-0.2007767840101258,-0.5934609888700394,-0.13399433118171086,-0.028576698649800572
6009,8.0,300.52011,1415.0074,0.0,0.0,0.0,-0.06093813232661754,0.0,0.0,-0.1096199718111489,-0.15403957950002287,-0.16646737568655084,-0.5966165840539724,-0.1230376221528679,-0.05984194599569024
6010,8.0,300.26444,1039.8693,0.0,0.0,0.0,-0.0609482734702898,0.0,0.0,-0.11533870471304389,-0.12565057124574588,-0.07510503786379012,-0.5741151870957574,-0.13812101512898287,-0.05133404967602625
6011,8.0,300.02889,890.1993699999999,0.0,0.0,0.0,-0.06095841461396206,0.0,0.0,-0.03120917509860577,-0.13294086518524187,-0.1064483470106339,-0.5740255347269094,-0.13882046167301287,-0.09731938714817572
6012,8.0,299.21447,1144.8165,0.0,0.0,0.0,-0.06096855575763432,0.0,0.0,-0.06972340009791383,-0.12083622485310688,-0.15743601410022484,-0.6051698537131144,-0.15584479601068385,-0.007935513871299243
6013,8.0,298.70072999999996,1200.1071,0.0,0.0,0.0,-0.060978696901306584,0.0,0.0,-0.05019415952552786,-0.14963305614013286,-0.16497537504680185,-0.5814444911641035,-0.12553519245685887,-0.03757972773683036
6014,8.0,298.84168999999997,1266.6936,0.0,0.0,0.0,-0.060988838044978844,0.0,0.0,-0.06997448144619364,-0.16067079477947285,-0.15439793566288984,-0.5787135389645796,-0.11907452743424088,-0.017995987481315683
6015,8.0,299.66328,1451.8725,0.0,0.0,0.0,-0.0609989791886511,0.0,0.0,-0.13245922688270786,-0.14359659840438088,-0.16527715132408485,-0.5708769816311714,-0.13048918497827988,-0.036050103094368166
6016,8.0,300.2387,1621.6242,0.0,0.0,0.0,-0.06100912033232336,0.0,0.0,-0.18649225767785282,-0.12568348160899387,-0.18075752555687882,-0.5940905110246685,-0.16485174840210085,0.001174628720901829
6017,8.0,300.81764,1538.2981,0.0,0.0,0.0,-0.06101926147599562,0.0,0.0,-0.12999805252230887,-0.14453723900221488,-0.19306891957191882,-0.5822719618582685,-0.14237114333593787,-0.03544418054781827
6018,8.0,300.58241,1470.9372,0.0,0.0,0.0,-0.06102940261966789,0.0,0.0,-0.10439894735837389,-0.13744955455271488,-0.20527965732202483,-0.5563267304601734,-0.15324949773454785,-0.0031181994664673273
6019,8.0,300.35429,1345.8272,0.0,0.0,0.0,-0.06103954376334015,0.0,0.0,-0.1039953090485379,-0.12755931151912386,-0.17754323279465284,-0.5524315032332444,-0.14116510213941086,-0.012109726847636988
6020,8.0,300.60842,1170.8921,0.0,0.0,0.0,-0.06104968490701241,0.0,0.0,-0.05552845318048165,-0.12823990147879288,-0.17215362379023982,-0.5899520328462324,-0.16344111174538184,-0.016186700745002985
6021,8.0,299.20369,1170.6152,0.0,0.0,0.0,-0.06105982605068467,0.0,0.0,-0.12270405008744688,-0.14545930672571586,-0.0876744205530416,-0.5932978556039394,-0.12680654775483186,-0.053607441435142546
6022,8.0,298.70219,1339.9358,0.0,0.0,0.0,-0.06106996719435693,0.0,0.0,-0.1065511412332789,-0.14614795202367986,-0.15460794187861585,-0.5876840650149014,-0.11943926707273787,-0.04175555127420206
6023,8.0,299.32265,1294.5465,0.0,0.0,0.0,-0.061080108338029196,0.0,0.0,-0.1000839164295135,-0.14461440812983087,-0.14881148256154986,-0.5821927763629534,-0.12801112987121488,-0.057323548335893745
6024,8.0,300.14337,1176.7378,0.0,0.0,0.0,-0.061090249481701456,0.0,0.0,-0.06864649661338174,-0.12604880893254888,-0.16300361061720384,-0.5998639999619674,-0.15715012558450986,-0.013671606280532485
6025,8.0,299.20676000000003,1292.3754,0.0,0.0,0.0,-0.061100390625373716,0.0,0.0,-0.06630503065954703,-0.1402260624767349,-0.18631875886322982,-0.6181997636390664,-0.14268602093701385,-0.014846878111272787
6026,8.0,300.11661000000004,1550.0598,0.0,0.0,0.0,-0.061110531769045975,0.0,0.0,-0.0995532966038954,-0.17137127312302783,-0.20025489941361982,-0.5981897764242344,-0.14203355880012086,-0.017235565572767883
6027,8.0,299.25707,1414.8351,0.0,0.0,0.0,-0.061120672912718235,0.0,0.0,-0.15328940965598686,-0.14980059704416784,-0.1269845453998989,-0.5877321538646474,-0.14385612215249385,-0.051999457096196855
6028,8.0,300.12512000000004,1269.036,0.0,0.0,0.0,-0.0611308140563905,0.0,0.0,-0.09834486920338291,-0.12985932845111786,-0.15755106864907983,-0.5622928078439795,-0.16079850482207683,-0.02428937504492468
6029,8.0,300.1749,1133.1435,0.0,0.0,0.0,-0.06114095520006276,0.0,0.0,-0.06994535861181944,-0.12946775794997287,-0.14503420777876186,-0.5456856893674844,-0.14036865716330788,-0.08089661635512442
6030,8.0,300.36831,1021.3632,0.0,0.0,0.0,-0.06115109634373502,0.0,0.0,-0.051190815628640154,-0.12199878748784289,-0.1372792981384119,-0.5610885904976324,-0.15048470298168387,-0.03836609188768846
6031,8.0,299.98179,1202.9249,0.0,0.0,0.0,-0.06116123748740728,0.0,0.0,-0.05838865556276165,-0.14846525500237984,-0.15880522909285585,-0.5726563602642825,-0.17186759341951083,-0.07505567941166882
6032,8.0,301.41402,1456.0935,0.0,0.0,0.0,-0.06117137863107954,0.0,0.0,-0.11102645414245789,-0.15412954597640185,-0.17746004496144283,-0.6094953879925114,-0.16434203293929583,-0.004428196374228956
6033,8.0,300.01786,1197.7932,0.0,0.0,0.0,-0.061181519774751815,0.0,0.0,-0.14058246306690886,-0.11718909191316289,-0.1063276587912229,-0.6035629809095284,-0.12718716502239588,-0.026152764270326874
6034,8.0,299.63456,1289.4197,0.0,0.0,0.0,-0.061191660918424075,0.0,0.0,-0.08781275654944432,-0.14631252410492185,-0.15782610525622384,-0.6165957279357605,-0.1254373935572069,-0.03010977948835387
6035,8.0,299.2054,1661.1682,0.0,0.0,0.0,-0.06120180206209633,0.0,0.0,-0.15783238740684385,-0.15088630465881886,-0.1962349512318818,-0.6168111955695254,-0.13317616212346386,-0.008380625622303352
6036,8.0,299.99708,1695.521,0.0,0.0,0.0,-0.06121194320576859,0.0,0.0,-0.12215824265607989,-0.15537996752730884,-0.23785783665724075,-0.5931798018347885,-0.15248659133675485,-0.010167040669408791
6037,8.0,299.6443,1317.491,0.0,0.0,0.0,-0.06122208434944085,0.0,0.0,-0.06705241406580803,-0.15718700788814985,-0.17624493517652084,-0.5634288334585965,-0.14028028148958585,-0.028322413404704573
6038,8.0,300.17202000000003,1239.5296,0.0,0.0,0.0,-0.06123222549311312,0.0,0.0,-0.10566028161285791,-0.1216845077043259,-0.14944124789620286,-0.5500832049339855,-0.13877703377372685,-0.046177171047331954
6039,8.0,299.5812,1146.2119,0.0,0.0,0.0,-0.06124236663678538,0.0,0.0,-0.1204061001856569,-0.13548990859431287,-0.0925237950016376,-0.5727529027338104,-0.17974854123979983,-0.028528885404081772
6040,8.0,299.90193,1036.0001,0.0,0.0,0.0,-0.06125250778045764,0.0,0.0,-0.06610987058428623,-0.13053606806040688,-0.1182722157400589,-0.5931603879628724,-0.15657612953536085,-0.050171269192518755
6041,8.0,300.23297,1137.5994,0.0,0.0,0.0,-0.0612626489241299,0.0,0.0,-0.05912867568054595,-0.14947316527435286,-0.13719997078808285,-0.5899130125848814,-0.1372973745201959,-0.025826660871392973
6042,8.0,300.23491,1174.8194,0.0,0.0,0.0,-0.06127279006780216,0.0,0.0,-0.03055966759900437,-0.15528595818303087,-0.17127014063054682,-0.5871968234393145,-0.13119103292504686,-0.045784864926614356
6043,8.0,298.36097,1127.1558,0.0,0.0,0.0,-0.06128293121147443,0.0,0.0,-0.023702906900294776,-0.16306222713548885,-0.15586209218989086,-0.6055613938167564,-0.15439676029277385,-0.04882897422854455
6044,8.0,298.37667999999996,1389.7861,0.0,0.0,0.0,-0.06129307235514669,0.0,0.0,-0.14358822895855486,-0.13713744312441187,-0.14173459935811586,-0.6092607192693514,-0.14527062942459484,-0.018600728578248984
6045,8.0,298.76025,1661.4946,0.0,0.0,0.0,-0.06130321349881895,0.0,0.0,-0.17716250406957781,-0.16807244490495882,-0.15981792190530084,-0.5803725840158145,-0.1074704833140109,-0.023634249073518774
6046,8.0,299.11795,1323.5410000000002,0.0,0.0,0.0,-0.06131335464249121,0.0,0.0,-0.0982537425556394,-0.13682030597561287,-0.16724937171622786,-0.5673849975465395,-0.1166454224395069,-0.02052707001911408
6047,8.0,300.05897999999996,1209.7402,0.0,0.0,0.0,-0.061323495786163466,0.0,0.0,-0.07932961088997302,-0.11078414551354389,-0.17761705819693882,-0.5696413433992235,-0.15590461829658783,-0.04177713654108236
6048,8.0,299.34052,1446.6824,0.0,0.0,0.0,-0.06133363692983573,0.0,0.0,-0.05924394807817244,-0.15031872248280284,-0.23019265031324576,-0.6037990479178263,-0.16185083597843383,-0.015828593841660583
6049,8.0,299.28275,1329.0316,0.0,0.0,0.0,-0.06134377807350799,0.0,0.0,-0.10139437710184591,-0.13546217593907586,-0.16713586744002584,-0.5716590891183594,-0.14683576645656185,-0.03947430784006086
6050,8.0,300.41643999999997,1122.4091,0.0,0.0,0.0,-0.061353919217180246,0.0,0.0,-0.12390998995896389,-0.11769963824104988,-0.0995747207640098,-0.5803697063855304,-0.16963419768159185,-0.017280239769676884
6051,8.0,300.2551,1107.4695,0.0,0.0,0.0,-0.06136406036085251,0.0,0.0,-0.12684786809390988,-0.11987951410868689,-0.0899156943104881,-0.5642697297165865,-0.18552963968534983,-0.0016353538453468582
6052,8.0,299.80593999999996,1133.3266,0.0,0.0,0.0,-0.06137420150452477,0.0,0.0,-0.06538503199275024,-0.1219770228756949,-0.15714093540610286,-0.5983660211466284,-0.16098038321502683,-0.01150724833817699
6053,8.0,299.62953,1445.5454,0.0,0.0,0.0,-0.06138434264819704,0.0,0.0,-0.09167027668715191,-0.15086461097417786,-0.1968748085375308,-0.5923873693290814,-0.10754128923099888,-0.02011248658169788
6054,8.0,300.28542000000004,1883.2915,0.0,0.0,0.0,-0.0613944837918693,0.0,0.0,-0.08754884137539792,-0.1975142706756408,-0.28741046802770476,-0.5966360181908904,-0.08750675096624393,-0.03511146265223157
6055,8.0,300.37987999999996,1751.5263,0.0,0.0,0.0,-0.06140462493554156,0.0,0.0,-0.16464867281705883,-0.17314276867036082,-0.19462880796836782,-0.5867655740642534,-0.11833413545366989,-0.017443335545523183
6056,8.0,301.19764,1200.3099,0.0,0.0,0.0,-0.06141476607921382,0.0,0.0,-0.11327329570920389,-0.12410147396286188,-0.12748946818973086,-0.5825357311243003,-0.15309667935446586,-0.03344950957320957
6057,8.0,301.01862,1055.5454,0.0,0.0,0.0,-0.06142490722288608,0.0,0.0,-0.1103908322222269,-0.13087336888619588,-0.07959524352293892,-0.5709970112380175,-0.15901933897148685,-0.04622426995173025
6058,8.0,300.91631,1226.2149,0.0,0.0,0.0,-0.06143504836655834,0.0,0.0,-0.05970529908720424,-0.15177748851927186,-0.16125592644722084,-0.5962487033401654,-0.16206735739230285,-0.05354017986700435
6059,8.0,300.70328,1051.6912,0.0,0.0,0.0,-0.061445189510230605,0.0,0.0,-0.05647846026224004,-0.12057987257780689,-0.14262952211143787,-0.5950140378283134,-0.18914157231681983,-0.06304191849425293
6060,8.0,299.55207,862.63717,0.0,0.0,0.0,-0.061455330653902865,0.0,0.0,0.042408594003402356,-0.15604574377051586,-0.14858300479650086,-0.5794638000011245,-0.16162840731648184,-0.07761970372346834
6061,8.0,299.06678999999997,890.07466,0.0,0.0,0.0,-0.061465471797575125,0.0,0.0,-0.1010673040225663,-0.09262668244329182,-0.07686648500988143,-0.5818089977550774,-0.11674102258644188,-0.04594829102199326
6062,8.0,300.29389,1312.707,0.0,0.0,0.0,-0.061475612941247385,0.0,0.0,-0.13067825744693987,-0.13968246393058587,-0.1286694283286839,-0.5726405535627224,-0.12409119960684788,-0.022396321909594875
6063,8.0,300.88797,1584.3046,0.0,0.0,0.0,-0.061485754084919644,0.0,0.0,-0.16863675428315184,-0.15640708902117784,-0.15654521527480986,-0.5986669868238315,-0.16096945024644785,-0.014088183794145486
6064,8.0,299.6038,1742.9549,0.0,0.0,0.0,-0.061495895228591904,0.0,0.0,-0.13482738488392687,-0.16775940128656386,-0.22722798184565576,-0.5788901788545124,-0.15733203437496285,0.007414857739214483
6065,8.0,299.65125,1557.7169,0.0,0.0,0.0,-0.061506036372264164,0.0,0.0,-0.09611745468080421,-0.16215008926296787,-0.2152394903724838,-0.5757969593467355,-0.12632616588242188,-0.024900701254257876
6066,8.0,299.46179,1228.3682,0.0,0.0,0.0,-0.061516177515936424,0.0,0.0,-0.04138304507368856,-0.13485434746908787,-0.19715586385026881,-0.6116707852947064,-0.1153203243562299,-0.032424788468827466
6067,8.0,300.07155,1341.0134,0.0,0.0,0.0,-0.061526318659608684,0.0,0.0,-0.17159112812972585,-0.1090973070120659,-0.12694613308860786,-0.6208520673658284,-0.15187908710679887,-0.007985356656968343
6068,8.0,300.81363,1287.3224,0.0,0.0,0.0,-0.06153645980328095,0.0,0.0,-0.16553776938230585,-0.12427118322211088,-0.1015049125552549,-0.6163750015339765,-0.13431372787823287,-0.04363437331187737
6069,8.0,300.87042,877.9847,0.0,0.0,0.0,-0.06154660094695321,0.0,0.0,-0.0863599615958146,-0.08917248448138901,-0.09135297944483711,-0.5693774525431795,-0.12621242855869688,-0.03156524030299667
6070,8.0,300.47583,919.4916400000001,0.0,0.0,0.0,-0.06155674209062547,0.0,0.0,-0.04791643004273345,-0.13986091753819788,-0.09172514519331701,-0.5510779226896565,-0.14192013558392688,-0.08739107833482791
6071,8.0,300.53929,1453.1063,0.0,0.0,0.0,-0.06156688323429773,0.0,0.0,-0.06439026762757465,-0.16073218760303185,-0.2165855829978328,-0.5934242686864154,-0.17772843464793084,-0.03374112396523967
6072,8.0,300.26161,1659.8425,0.0,0.0,0.0,-0.06157702437796999,0.0,0.0,-0.0988082305006131,-0.1951663067489148,-0.2105761486422478,-0.5960580096713455,-0.15890595628529686,-0.06053357227544844
6073,8.0,300.16162,1470.719,0.0,0.0,0.0,-0.061587165521642256,0.0,0.0,-0.14552357717955886,-0.14853611158187285,-0.15300216338513786,-0.5760546896421714,-0.13379076923662087,0.01958479403561868
6074,8.0,299.85573999999997,1288.3463,0.0,0.0,0.0,-0.061597306665314516,0.0,0.0,-0.11935848064226488,-0.14103295406136887,-0.13123366035675388,-0.5658639368939226,-0.11335433545220189,-0.03230491186274657
6075,8.0,299.46923,1321.06,0.0,0.0,0.0,-0.061607447808986776,0.0,0.0,-0.11946598647787487,-0.12959572130510186,-0.15250753521632185,-0.5833305447677425,-0.14374942691696388,0.029195045669076675
6076,8.0,299.61641000000003,1500.7008,0.0,0.0,0.0,-0.061617588952659036,0.0,0.0,-0.09890680554984171,-0.16743665073221084,-0.1898321225249718,-0.6107179755631714,-0.14337473716248486,-0.05935305687544065
6077,8.0,300.33601,1486.2859,0.0,0.0,0.0,-0.061627730096331296,0.0,0.0,-0.06509812009443423,-0.16579153786985085,-0.2209041258515398,-0.5784395561375394,-0.12113699801279088,-0.034182713557571166
6078,8.0,300.66274,987.4609,0.0,0.0,0.0,-0.06163787124000356,0.0,0.0,-0.06980744716720863,-0.1250323569622329,-0.1053236596646359,-0.5848606233462494,-0.12570727272134188,-0.0956317856693724
6079,8.0,300.28985,915.25953,0.0,0.0,0.0,-0.06164801238367582,0.0,0.0,-0.13336817301741388,-0.09000535073233651,-0.05484252035303535,-0.5906969641872514,-0.14775492615227584,-0.03826862736056946
6080,8.0,299.73483999999996,1201.9582,0.0,0.0,0.0,-0.06165815352734808,0.0,0.0,-0.12001345563940588,-0.12950370806352088,-0.11584811620081888,-0.6160160272885484,-0.15256970824245786,-0.050360972915991044
6081,8.0,300.78055,1493.2455,0.0,0.0,0.0,-0.06166829467102034,0.0,0.0,-0.1089660505941119,-0.16816021262862085,-0.17678309256963282,-0.5690722210830554,-0.1184453295196439,-0.026253391151007974
6082,8.0,299.85641,1331.5363,0.0,0.0,0.0,-0.0616784358146926,0.0,0.0,-0.040835591110909064,-0.15454878833777785,-0.2093694083031518,-0.5685009304116735,-0.14449820860836285,-0.03433319740942276
6083,8.0,299.90742,1367.274,0.0,0.0,0.0,-0.06168857695836487,0.0,0.0,-0.037142712968700364,-0.14363237626541187,-0.23484206998710777,-0.5798443362086804,-0.18340790410845081,0.015126515887120884
6084,8.0,299.79422,1463.9317,0.0,0.0,0.0,-0.06169871810203713,0.0,0.0,-0.11938550402243188,-0.13860583503683085,-0.18700734336618782,-0.6040145358165934,-0.16450298771768085,0.005649657616077795
6085,8.0,300.56075,1721.3171,0.0,0.0,0.0,-0.06170885924570939,0.0,0.0,-0.2003799446084608,-0.1361035835173779,-0.1867538788536728,-0.5660687755341384,-0.12228645932373387,0.03075924240495087
6086,8.0,299.99761,1604.5066,0.0,0.0,0.0,-0.06171900038938165,0.0,0.0,-0.14342793279273486,-0.18421279959038783,-0.16008920948707484,-0.5692394174820565,-0.11300418661514489,-0.031179638858190768
6087,8.0,300.11033,1356.2263,0.0,0.0,0.0,-0.06172914153305391,0.0,0.0,-0.14631609074527385,-0.1061150890527439,-0.15982774029876987,-0.5840131612276115,-0.14442622732125887,0.0021198768709155577
6088,8.0,299.54823,1278.5569,0.0,0.0,0.0,-0.061739282676726175,0.0,0.0,-0.05612380550198835,-0.15641006797647186,-0.17611548234374483,-0.5958546098462715,-0.14064003593759086,-0.08164039664402983
6089,8.0,300.00247,1208.9654,0.0,0.0,0.0,-0.061749423820398434,0.0,0.0,-0.07342328182481374,-0.14557481723711588,-0.14849719264553188,-0.6177473170719133,-0.14309985254285584,-0.05363959388731575
6090,8.0,299.9412,1198.6343,0.0,0.0,0.0,-0.061759564964070694,0.0,0.0,-0.06900425597193983,-0.16488703990308384,-0.13046361054575586,-0.6068264568316084,-0.15107312771225684,-0.07963657703426823
6091,8.0,300.70441,1062.1164,0.0,0.0,0.0,-0.061769706107742954,0.0,0.0,-0.11710823455518288,-0.1201826278761019,-0.08556599705595641,-0.6103664993684834,-0.17196671967679383,-0.005889602636483525
6092,8.0,300.82835,1113.6202,0.0,0.0,0.0,-0.061779847251415214,0.0,0.0,-0.04890672394846786,-0.14349010581887087,-0.14611589279051587,-0.5919651885424154,-0.14996055883745485,-0.05066213719021365
6093,8.0,301.29251,1478.2225,0.0,0.0,0.0,-0.06178998839508749,0.0,0.0,-0.11396942892540689,-0.15654212486200483,-0.17883118512926383,-0.5788268405907615,-0.12581513319448687,0.012287693081950888
6094,8.0,300.52881,1657.4517,0.0,0.0,0.0,-0.06180012953875975,0.0,0.0,-0.02690894268745587,-0.21716090640461277,-0.25975408012573176,-0.5699942077465485,-0.11495323397750089,-0.04061109947175346
6095,8.0,300.55851,1467.6088,0.0,0.0,0.0,-0.06181027068243201,0.0,0.0,-0.08961467391777972,-0.16527616847148785,-0.1912255744599948,-0.5825249602757374,-0.14995592828449786,-0.011547448022644388
6096,8.0,300.12001000000004,1277.7404,0.0,0.0,0.0,-0.06182041182610426,0.0,0.0,-0.12012245095266288,-0.15412096374805484,-0.1141577515889929,-0.5689989225708214,-0.15327462633702785,-0.033113971802594566
6097,8.0,300.55331,1224.131,0.0,0.0,0.0,-0.06183055296977652,0.0,0.0,-0.14482611660572486,-0.12872023268869787,-0.09855889700875581,-0.5806805613837095,-0.12804161856672386,-0.04254852890846286
6098,8.0,299.31209,1174.9074,0.0,0.0,0.0,-0.061840694113448794,0.0,0.0,-0.09119176426117642,-0.14577944309481086,-0.12017130987248488,-0.5896471053611385,-0.12775781734621489,-0.05343815875418566
6099,8.0,300.3073,1255.8717,0.0,0.0,0.0,-0.06185083525712105,0.0,0.0,-0.0915773180832276,-0.12895487101435488,-0.16122145567881885,-0.6293806035900295,-0.15385375956418385,-0.04345887028855656
6100,8.0,300.27481,1296.6277,0.0,0.0,0.0,-0.06186097640079331,0.0,0.0,-0.07423989959715763,-0.13994833062432485,-0.17995422087759883,-0.6094936148048364,-0.15268175343851584,-0.05132903611453145
6101,8.0,301.2311,1243.8891,0.0,0.0,0.0,-0.06187111754446557,0.0,0.0,-0.09285664461973732,-0.13308991427495187,-0.15216467164748385,-0.6031275873415584,-0.11876516191370888,-0.02819504989363477
6102,8.0,300.17678,1309.2,0.0,0.0,0.0,-0.06188125868813783,0.0,0.0,-0.13230436173742388,-0.1440919662457699,-0.12156778129280589,-0.5678775282876485,-0.1223667695266599,-0.04709973627663205
6103,8.0,300.62814,1745.1922,0.0,0.0,0.0,-0.0618913998318101,0.0,0.0,-0.16669792048180385,-0.16734323920549182,-0.19645368153096882,-0.5732378543641714,-0.15992049321292384,0.026610385505740575
6104,8.0,299.88293999999996,1779.8974,0.0,0.0,0.0,-0.06190154097548236,0.0,0.0,-0.15569624341352287,-0.17625653689016582,-0.2090915751257318,-0.5564125628761445,-0.13960620672805987,-0.012676932094615788
6105,8.0,299.35312999999996,1446.1660000000002,0.0,0.0,0.0,-0.06191168211915462,0.0,0.0,-0.11195393262149289,-0.16016892187244186,-0.16747548860854383,-0.5775902296387174,-0.11657149571221088,0.02721619456827927
6106,8.0,299.04995,1091.3993,0.0,0.0,0.0,-0.06192182326282688,0.0,0.0,-0.017153475089416184,-0.14175451985508186,-0.17285014204148086,-0.5828972486274795,-0.1193532218742459,-0.055435914062098746
6107,8.0,298.82745,995.51125,0.0,0.0,0.0,-0.06193196440649914,0.0,0.0,-0.06891158310454373,-0.12411179898138087,-0.10958717290541188,-0.6431936038557663,-0.15038787680212787,-0.030485395353424267
6108,8.0,299.20504,1231.5208,0.0,0.0,0.0,-0.061942105550171406,0.0,0.0,-0.1121571399290479,-0.14315332175063286,-0.11904112057844388,-0.6120927836963544,-0.1807839511194868,-0.11717968895223489
6109,8.0,299.91006,1401.2835,0.0,0.0,0.0,-0.061952246693843666,0.0,0.0,-0.13684361072791287,-0.15619153019490384,-0.13292005302818788,-0.6009058743772924,-0.1300205365420279,-0.06611215343676154
6110,8.0,300.17035,1072.9961,0.0,0.0,0.0,-0.061962387837515925,0.0,0.0,-0.058078851304936355,-0.14854657845540586,-0.1195385959800409,-0.5763713302984215,-0.14371173401324386,-0.10060842027752799
6111,8.0,300.54777,1086.4198,0.0,0.0,0.0,-0.061972528981188185,0.0,0.0,-0.04310399869278346,-0.13195638125558087,-0.15518411641547983,-0.5945348718560234,-0.17592188064713782,-0.01934067168902568
6112,8.0,300.81215,1500.9781,0.0,0.0,0.0,-0.061982670124860445,0.0,0.0,-0.07579658308354033,-0.16891700912831084,-0.2115462748179918,-0.5931618977055214,-0.17564306461712084,-0.05166960872489335
6113,8.0,299.96943,1837.7416,0.0,0.0,0.0,-0.061992811268532705,0.0,0.0,-0.1745878051679748,-0.1793229964628018,-0.2047167563614708,-0.5658736032998765,-0.11836352983907088,0.013177955898062987
6114,8.0,299.67253999999997,1471.6792,0.0,0.0,0.0,-0.062002952412204965,0.0,0.0,-0.13743338308111888,-0.14928555188583684,-0.16063480413592085,-0.5704027501868685,-0.12122303307878189,-0.011265815157349389
6115,8.0,299.8343,1386.9913,0.0,0.0,0.0,-0.06201309355587723,0.0,0.0,-0.10965965068506489,-0.14601457791301686,-0.16593648329665583,-0.5826732392953714,-0.14303768964922087,0.03354433053081767
6116,8.0,300.18581,1424.8376,0.0,0.0,0.0,-0.06202323469954949,0.0,0.0,-0.12594452523225688,-0.11635352535069889,-0.19081699148967082,-0.5775229396995765,-0.14470468871374087,0.0007179130068374972
6117,8.0,300.19636,1540.1841,0.0,0.0,0.0,-0.06203337584322175,0.0,0.0,-0.11543416300496488,-0.13365112310783886,-0.2190922320227198,-0.5836613506603905,-0.11263835266653989,0.0007761526264828002
6118,8.0,298.95174,1237.4578,0.0,0.0,0.0,-0.06204351698689401,0.0,0.0,-0.06721497484560153,-0.11345383661202188,-0.19548745636810982,-0.5702530222195915,-0.13584649156950487,-0.048527331700274755
6119,8.0,298.71338,1213.8038,0.0,0.0,0.0,-0.06205365813056627,0.0,0.0,-0.13798780313833586,-0.1060134094052089,-0.12496484410806988,-0.5778705554113834,-0.14856414821213984,-0.04162742883880736
6120,8.0,298.62796000000003,1438.9362,0.0,0.0,0.0,-0.06206379927423853,0.0,0.0,-0.1151297928074259,-0.17437377634935183,-0.14789709527380684,-0.5779509264093154,-0.16303561918786283,-0.06944881945331484
6121,8.0,298.21562,1512.1129,0.0,0.0,0.0,-0.06207394041791079,0.0,0.0,-0.16166735665032583,-0.15553791295289685,-0.14243929453766385,-0.5901381466246005,-0.14489915167293288,-0.04784646714982865
6122,8.0,299.24314,1402.7516,0.0,0.0,0.0,-0.06208408156158305,0.0,0.0,-0.08291320696914643,-0.15214048536759686,-0.1913477825545558,-0.6021519794827734,-0.14385465293984886,-0.009135216276525651
6123,8.0,299.39468999999997,998.4321,0.0,0.0,0.0,-0.06209422270525532,0.0,0.0,-0.020745020115624083,-0.12934741423559587,-0.15340598407999184,-0.6101833544129084,-0.16703785575785285,-0.02017922835253478
6124,8.0,300.13183,1097.7046,0.0,0.0,0.0,-0.06210436384892758,0.0,0.0,-0.009068590725475221,-0.15022634447118585,-0.17437985584995183,-0.5938927955326554,-0.14658047809386687,-0.009066410717885071
6125,8.0,300.41131,1546.0254,0.0,0.0,0.0,-0.06211450499259984,0.0,0.0,-0.15188731469761085,-0.16879679713644685,-0.14926900551170386,-0.6039032505581104,-0.1077938114209209,-0.03850676038582136
6126,8.0,301.50968,1722.5865,0.0,0.0,0.0,-0.062124646136272096,0.0,0.0,-0.12373717002190789,-0.2163663460736958,-0.18351977705199182,-0.5779737144040644,-0.12198548351402988,-0.03656228784766686
6127,8.0,300.66309,1186.8547,0.0,0.0,0.0,-0.062134787279944356,0.0,0.0,-0.1208224243867449,-0.13434372008119289,-0.10560805870270391,-0.6041455997170284,-0.14578654597801188,-0.06620983378615183
6128,8.0,300.31101,1109.8841,0.0,0.0,0.0,-0.06214492842361662,0.0,0.0,-0.03880835731783666,-0.15314562946679686,-0.14542307290213985,-0.5968478381242954,-0.15315740343295886,-0.05974504888862724
6129,8.0,299.16881,1361.3868,0.0,0.0,0.0,-0.06215506956728888,0.0,0.0,-0.09751191378642661,-0.14637676416126186,-0.16993891238416484,-0.5960515350032064,-0.13742186242748186,-0.07887647429950193
6130,8.0,300.28634,1495.0101,0.0,0.0,0.0,-0.06216521071096114,0.0,0.0,-0.10795507017433591,-0.13766276263875687,-0.20882791731721081,-0.6181730341014284,-0.13301374826493487,-0.01965393416944228
6131,8.0,300.35001,1312.8392,0.0,0.0,0.0,-0.0621753518546334,0.0,0.0,-0.13688602537709887,-0.1330459392206119,-0.12913836047496388,-0.6226541529336804,-0.15317155853685585,-0.036872667631548964
6132,8.0,300.83807,1224.6529,0.0,0.0,0.0,-0.06218549299830566,0.0,0.0,-0.07719880368492872,-0.13171541011679888,-0.16334967605635783,-0.5875883635429564,-0.13791698708884687,0.003300827056541267
6133,8.0,300.06115,1326.2619,0.0,0.0,0.0,-0.06219563414197793,0.0,0.0,-0.15526355522331986,-0.1251614956874779,-0.1227254600620599,-0.5605411922636084,-0.10456818039007588,-0.02006576055333638
6134,8.0,300.0999,1771.7938,0.0,0.0,0.0,-0.06220577528565019,0.0,0.0,-0.13777894189522288,-0.15493980155136786,-0.24586233006222274,-0.5501766164607045,-0.13523816660696786,0.03490215152607417
6135,8.0,300.14803,1702.7004,0.0,0.0,0.0,-0.06221591642932245,0.0,0.0,-0.13098016544673588,-0.18464013782006283,-0.2019580917717118,-0.5941127214668604,-0.16909262563564284,-0.008270111649796472
6136,8.0,300.41811,1258.667,0.0,0.0,0.0,-0.06222605757299471,0.0,0.0,-0.052388588704351154,-0.14970963758269085,-0.18050511482446782,-0.5844475212804795,-0.15725394318975586,0.012026961539718687
6137,8.0,299.94907,1118.8247,0.0,0.0,0.0,-0.06223619871666697,0.0,0.0,-0.09301853665446481,-0.15141739969873386,-0.09565883336754182,-0.5845166350698004,-0.13321112938441487,-0.06665201005029124
6138,8.0,299.42895,1310.8855,0.0,0.0,0.0,-0.062246339860339235,0.0,0.0,-0.09986468963787751,-0.1374321874460009,-0.16117959831718787,-0.6178037551024834,-0.10733268130041089,-0.06911695167456204
6139,8.0,300.79979,1303.309,0.0,0.0,0.0,-0.062256481004011495,0.0,0.0,-0.13530274103584086,-0.14487290849534287,-0.11599776310808789,-0.6304275442558545,-0.15135292659487087,-0.07440435616788822
6140,8.0,301.28006,1050.4142,0.0,0.0,0.0,-0.062266622147683755,0.0,0.0,-0.02448757588373558,-0.14180098750466785,-0.15301113064852287,-0.6216067056428054,-0.14841311315223388,-0.07190024634775183
6141,8.0,300.14465,1029.0472,0.0,0.0,0.0,-0.062276763291356015,0.0,0.0,-0.04508630294992166,-0.13096771260300688,-0.13675062476623587,-0.5848685266970295,-0.1282031205001629,-0.05889156603789505
6142,8.0,301.12338,1310.3891,0.0,0.0,0.0,-0.062286904435028274,0.0,0.0,-0.07740969345474193,-0.15383939167776584,-0.16707647071916384,-0.5764876210123984,-0.15514464019158386,-0.03984991154613006
6143,8.0,300.05761,1586.2072,0.0,0.0,0.0,-0.06229704557870054,0.0,0.0,-0.1158710764480849,-0.18780606815501583,-0.17849024673561584,-0.5947834119730524,-0.18993511939763683,-0.01900826182146938
6144,8.0,299.07451000000003,1593.4514,0.0,0.0,0.0,-0.0623071867223728,0.0,0.0,-0.1006264855135609,-0.18457903883903282,-0.19916390263344683,-0.5991096859250225,-0.17208318264328784,-0.03461503697773817
6145,8.0,299.28837000000004,1324.4628,0.0,0.0,0.0,-0.06231732786604506,0.0,0.0,-0.10556896751384591,-0.15296732784669986,-0.14406732400333788,-0.5501892820869545,-0.11713721350804289,-0.01892649051189918
6146,8.0,299.39311000000004,1161.8293,0.0,0.0,0.0,-0.06232746900971732,0.0,0.0,-0.05148191630286955,-0.13458589698759385,-0.16709927897891483,-0.5775630137410314,-0.11601465398725488,-0.022878041272136877
6147,8.0,298.62896,1426.826,0.0,0.0,0.0,-0.06233761015338958,0.0,0.0,-0.11098469810583689,-0.14825812641693786,-0.17447667189700686,-0.5969922262635454,-0.14936603434127985,-0.015625599316626586
6148,8.0,299.4261,1548.0293,0.0,0.0,0.0,-0.06234775129706185,0.0,0.0,-0.12232875238290788,-0.14484485160007385,-0.20338864892539682,-0.5948331524204614,-0.15445166831569287,-0.01248653226832479
6149,8.0,300.41035,1358.3305,0.0,0.0,0.0,-0.06235789244073411,0.0,0.0,-0.10902649096257691,-0.14945433908749484,-0.15441772443734286,-0.5887924390342895,-0.13656530132294586,-0.04064211809706476
6150,8.0,300.36309,1311.3784,0.0,0.0,0.0,-0.06236803358440637,0.0,0.0,-0.12940237292101986,-0.12578308409382388,-0.14344084159900888,-0.5521934198572475,-0.13328370848907786,-0.05071647272682615
6151,8.0,300.8163,1466.7849,0.0,0.0,0.0,-0.06237817472807863,0.0,0.0,-0.13877322395335087,-0.14809111240295486,-0.15900163749223983,-0.5967553891851715,-0.17502637020875783,-0.03436147316671336
6152,8.0,300.11829,1426.9818,0.0,0.0,0.0,-0.062388315871750886,0.0,0.0,-0.1013414651816239,-0.12495287762438889,-0.2074724926584408,-0.5717356908259195,-0.13477831318158387,-0.01152129198456299
6153,8.0,299.76506,1568.1269,0.0,0.0,0.0,-0.06239845701542316,0.0,0.0,-0.1132102918179859,-0.17454365786111783,-0.18891749205720482,-0.5972673337981964,-0.1211002069016599,-0.02117387923369918
6154,8.0,299.29011,1559.4819,0.0,0.0,0.0,-0.06240859815909542,0.0,0.0,-0.12067716485240888,-0.16230231995799183,-0.19106407252655583,-0.5857619093101994,-0.12000850084641687,-0.002138883517616368
6155,8.0,299.66391,1150.7617,0.0,0.0,0.0,-0.06241873930276768,0.0,0.0,-0.07437416739440883,-0.14252986896410286,-0.13289877477608786,-0.5927783724101704,-0.15247401690301385,-0.04586950373396755
6156,8.0,299.96351,1073.9883,0.0,0.0,0.0,-0.06242888044643994,0.0,0.0,-0.05136329308716235,-0.14496174013160987,-0.13014060667887786,-0.5728639650772714,-0.1291566800367719,-0.05238625721587105
6157,8.0,300.49499,1328.1832,0.0,0.0,0.0,-0.0624390215901122,0.0,0.0,-0.08429256966152893,-0.17037243143944983,-0.14906952696451686,-0.5652634848846625,-0.1106203435023779,-0.08095510723039702
6158,8.0,299.71707999999995,1254.6982,0.0,0.0,0.0,-0.062449162733784466,0.0,0.0,-0.04976922573834015,-0.15084002952675185,-0.18078766974735383,-0.6030096754274213,-0.15043114258139784,-0.05920433202576265
6159,8.0,299.30978,929.7339300000001,0.0,0.0,0.0,-0.062459303877456726,0.0,0.0,-0.06829037568023534,-0.1032738040498309,-0.1110517245999519,-0.6060717780246274,-0.17227592307730982,-0.06079618137011595
6160,8.0,298.83285,1049.2112,0.0,0.0,0.0,-0.062469445021128986,0.0,0.0,-0.06260753007038214,-0.100518788173682,-0.15580769079202184,-0.6191566466360034,-0.15229312136266085,-0.03039387151164157
6161,8.0,299.58266000000003,1453.6719,0.0,0.0,0.0,-0.062479586164801246,0.0,0.0,-0.15586725976540083,-0.1351558704338459,-0.15085683934591088,-0.5561200274397734,-0.12167736429112089,-0.04867991703283375
6162,8.0,299.15945,1736.2752,0.0,0.0,0.0,-0.062489727308473506,0.0,0.0,-0.15703803985844786,-0.16676203894813185,-0.2039842272016758,-0.5909968760843504,-0.14439320550049986,-0.009623064586272531
6163,8.0,299.7227,1601.5004,0.0,0.0,0.0,-0.06249986845214577,0.0,0.0,-0.15923053068982984,-0.16356585296519283,-0.16401975861248985,-0.5788624664642775,-0.17413731417351483,-0.021107561001404082
6164,8.0,300.0117,1420.7561,0.0,0.0,0.0,-0.06251000959581803,0.0,0.0,-0.08365426566828323,-0.13895762533904987,-0.2092624800200988,-0.5879603985821735,-0.15515211797732184,0.008376839309329673
6165,8.0,300.22546,1431.8703,0.0,0.0,0.0,-0.06252015073949029,0.0,0.0,-0.14920329624271886,-0.13355608024845889,-0.15249343077492986,-0.5554648092626084,-0.10901996563193289,-0.0044719901581260655
6166,8.0,299.87633999999997,1628.7927,0.0,0.0,0.0,-0.06253029188316254,0.0,0.0,-0.11628962979939289,-0.16677730862713883,-0.2120453916847508,-0.6009899032080854,-0.12024175101943689,0.0033611460376442867
6167,8.0,300.60546,1424.0469,0.0,0.0,0.0,-0.0625404330268348,0.0,0.0,-0.13999172812610786,-0.14732041411189287,-0.14556257717590784,-0.6125677852107334,-0.14281771305251087,-0.035421770495356567
6168,8.0,299.60147,1099.461,0.0,0.0,0.0,-0.06255057417050706,0.0,0.0,-0.06532979365029863,-0.13465526408943987,-0.13422362967934087,-0.6015722889680625,-0.13396425791874286,-0.03257404324830777
6169,8.0,299.49407,1111.9394,0.0,0.0,0.0,-0.06256071531417932,0.0,0.0,-0.05779707658462734,-0.14875563221603788,-0.13144910772551688,-0.5804664413725775,-0.14333945579400287,-0.1054317835828069
6170,8.0,299.69791000000004,1484.1522,0.0,0.0,0.0,-0.06257085645785158,0.0,0.0,-0.09050234585338611,-0.17867952185429584,-0.18196332357338182,-0.6059084218435054,-0.16671142710563683,-0.045937180734646754
6171,8.0,299.50359,1475.4101,0.0,0.0,0.0,-0.06258099760152386,0.0,0.0,-0.13191929630192087,-0.16816551192664383,-0.14840301104873688,-0.5977643127072445,-0.18499860544044083,-0.06692607799033963
6172,8.0,301.25205,1254.9894,0.0,0.0,0.0,-0.06259113874519612,0.0,0.0,-0.07404069260099742,-0.15398461068209787,-0.15346014229783686,-0.5969740586892525,-0.14597124120623986,-0.02346294799836268
6173,8.0,300.92885,1262.2341,0.0,0.0,0.0,-0.06260127988886838,0.0,0.0,-0.11060113228048189,-0.15331576429108784,-0.11977075184295288,-0.5699796777401144,-0.10937037791401588,-0.05664566476724185
6174,8.0,300.56388,1351.104,0.0,0.0,0.0,-0.06261142103254064,0.0,0.0,-0.08782559138846101,-0.14764515063644185,-0.17523112778896582,-0.5920510209583865,-0.13750532383821887,-0.023306959158717777
6175,8.0,299.69951000000003,1484.2044,0.0,0.0,0.0,-0.0626215621762129,0.0,0.0,-0.07819496126899182,-0.1958242607013498,-0.17714185403253982,-0.6097208462722624,-0.18504917675293184,-0.06294512169894985
6176,8.0,299.69749,1289.2824,0.0,0.0,0.0,-0.06263170331988516,0.0,0.0,-0.058215164854139446,-0.15842472328280283,-0.1752697731477798,-0.6059126876264265,-0.16827338253228985,-0.02030044751499818
6177,8.0,299.24383,1101.7539,0.0,0.0,0.0,-0.06264184446355742,0.0,0.0,-0.08577047092613642,-0.13710479620618987,-0.1120304127390409,-0.5801834203546454,-0.13502928509885287,-0.035917072475489066
6178,8.0,300.04823,1362.4835,0.0,0.0,0.0,-0.06265198560722968,0.0,0.0,-0.0956927275966369,-0.14825595806172384,-0.17021227712864384,-0.6045475053691934,-0.1290844454371429,-0.030504021930012573
6179,8.0,298.64617999999996,1388.9005,0.0,0.0,0.0,-0.06266212675090194,0.0,0.0,-0.15527661601710885,-0.12447191819942188,-0.14244254707048487,-0.6151647654820354,-0.14819871956357486,-0.017415260411752384
6180,8.0,299.72449,1520.4642,0.0,0.0,0.0,-0.0626722678945742,0.0,0.0,-0.11725948239760989,-0.16746989546799182,-0.17745376281082284,-0.6064300733924883,-0.12089916794931889,-0.04286947790413806
6181,8.0,299.63743999999997,1538.586,0.0,0.0,0.0,-0.06268240903824646,0.0,0.0,-0.1099187286031339,-0.14984084333813985,-0.20793216369880682,-0.5968445146639675,-0.1209959738638729,-0.022715745963869577
6182,8.0,300.27945,1446.6673,0.0,0.0,0.0,-0.06269255018191872,0.0,0.0,-0.13752034020470086,-0.13511794448260286,-0.16711244109771384,-0.6049234920838005,-0.14813762058254487,-0.016993922649169584
6183,8.0,300.60654,1421.5615,0.0,0.0,0.0,-0.06270269132559099,0.0,0.0,-0.1194315055769719,-0.12178811252705088,-0.19089958150532182,-0.5944999248600744,-0.19037703829625083,0.018066851153559382
6184,8.0,300.25632,1469.2759,0.0,0.0,0.0,-0.06271283246926324,0.0,0.0,-0.12622843791027688,-0.13934464634724586,-0.18105011165575483,-0.5830336320909395,-0.13922677496311286,-0.0022742983139807677
6185,8.0,298.89402,1404.4444,0.0,0.0,0.0,-0.06272297361293551,0.0,0.0,-0.1082816609465679,-0.15670276553285886,-0.16193160214390484,-0.5871695264816204,-0.11698910674092589,-0.014785543042969487
6186,8.0,299.25881,1342.8972,0.0,0.0,0.0,-0.06273311475660778,0.0,0.0,-0.07340471502998133,-0.15758114191204783,-0.17722134350288485,-0.5922585041813635,-0.13265269685680187,-0.033041061365148866
6187,8.0,299.04934,1286.3087,0.0,0.0,0.0,-0.06274325590028003,0.0,0.0,-0.04130845365432696,-0.17870559277936882,-0.17099166910556382,-0.6006818650451844,-0.14559222487383386,-0.07525197432704163
6188,8.0,299.35195,1241.5118,0.0,0.0,0.0,-0.0627533970439523,0.0,0.0,-0.07516316599552693,-0.14782695810188487,-0.15439846255294185,-0.5920974176804654,-0.14012058314132486,-0.046560411619404864
6189,8.0,298.6096,1226.589,0.0,0.0,0.0,-0.06276353818762455,0.0,0.0,-0.07537551281898393,-0.14814110616288886,-0.14933581922329786,-0.5818469237063204,-0.13895309611110288,-0.06848822694776173
6190,8.0,299.39076,1118.0239,0.0,0.0,0.0,-0.06277367933129682,0.0,0.0,-0.09230138052518701,-0.12004296148231788,-0.12750700754896188,-0.6068090694598924,-0.13750958962113988,-0.028875780695067677
6191,8.0,300.27519,1172.3926,0.0,0.0,0.0,-0.06278382047496908,0.0,0.0,-0.10732122144177991,-0.13637951178460986,-0.1126773323978869,-0.6431009218691193,-0.16419615532239884,-0.05246200272709654
6192,8.0,300.9622,1227.2683,0.0,0.0,0.0,-0.06279396161864134,0.0,0.0,-0.05672989624805485,-0.14141033906111386,-0.17491869212063085,-0.6055924296673194,-0.13033880853093888,-0.04256317949165876
6193,8.0,300.7668,1428.1491,0.0,0.0,0.0,-0.0628041027623136,0.0,0.0,-0.1032783332777779,-0.15695885436313287,-0.17388448800856282,-0.6056791233458754,-0.11865003643734688,-0.04377976963497686
6194,8.0,300.25541,1713.5483,0.0,0.0,0.0,-0.06281424390598585,0.0,0.0,-0.16018084782611886,-0.15059295862236785,-0.2101020793179608,-0.6095025922007224,-0.15952570057646084,-0.012422498915005187
6195,8.0,299.68534,1533.9161,0.0,0.0,0.0,-0.06282438504965812,0.0,0.0,-0.14345737784064086,-0.13481658363786087,-0.1879982209039798,-0.6253979835419754,-0.20024986356062283,0.016689767260651786
6196,8.0,300.60589,1424.1434,0.0,0.0,0.0,-0.0628345261933304,0.0,0.0,-0.0985799938890879,-0.15508966124115786,-0.17923437760905583,-0.5993834863670444,-0.15577591526888585,-0.003926863833476286
6197,8.0,300.4976,1360.4070000000002,0.0,0.0,0.0,-0.06284466733700264,0.0,0.0,-0.11801378630205389,-0.13251740770344989,-0.16299855449920483,-0.5718118568359365,-0.13268328687732087,-0.011231921941504389
6198,8.0,299.52277000000004,1410.0256,0.0,0.0,0.0,-0.06285480848067491,0.0,0.0,-0.07188669716741464,-0.16855009100209883,-0.18817579298400483,-0.6045573541601654,-0.12853930675084188,-0.04878039395250005
6199,8.0,299.45159,1291.5361,0.0,0.0,0.0,-0.06286494962434716,0.0,0.0,-0.1299874843237659,-0.12606290324143987,-0.13654433717837688,-0.6096471221949864,-0.13659024754040786,-0.031026160852293674
6200,8.0,298.92246,1150.6189,0.0,0.0,0.0,-0.06287509076801943,0.0,0.0,-0.07576357544828272,-0.13953076012561388,-0.13446506691316887,-0.6030866013750135,-0.12494229929334487,-0.04432422843046076
6201,8.0,299.5507,1065.3183,0.0,0.0,0.0,-0.0628852319116917,0.0,0.0,-0.1008056524492433,-0.11524465483876188,-0.10777985896704391,-0.5849928423517985,-0.1065239861305989,-0.04207677688715456
6202,8.0,298.80765,1304.3713,0.0,0.0,0.0,-0.06289537305536395,0.0,0.0,-0.12549864452575188,-0.13035195038473588,-0.14064572027065186,-0.5951935756135324,-0.15980879252189986,-0.011808304194638889
6203,8.0,299.75908,1585.8486,0.0,0.0,0.0,-0.06290551419903621,0.0,0.0,-0.13958612411107787,-0.16436167985873484,-0.17811057179064482,-0.6195218017070414,-0.16744491885302684,-0.058831556300722544
6204,8.0,300.05727,1471.6036,0.0,0.0,0.0,-0.06291565534270847,0.0,0.0,-0.08143455488621483,-0.17017409786487583,-0.19572208456126583,-0.6025316746927464,-0.17203173993571083,-0.052105786548440745
6205,8.0,300.16147,1306.1771,0.0,0.0,0.0,-0.06292579648638073,0.0,0.0,-0.07064215246708763,-0.17370078576543285,-0.15270229201804286,-0.5781735678537884,-0.12149771504839088,-0.08123438023620912
6206,8.0,300.75989,1332.7355,0.0,0.0,0.0,-0.06293593763005301,0.0,0.0,-0.0911859249008501,-0.14109671789016187,-0.17283565256505085,-0.5945280324178484,-0.12498242399730487,-0.03600761143817457
6207,8.0,300.18056,1391.8572,0.0,0.0,0.0,-0.06294607877372525,0.0,0.0,-0.0889527824754561,-0.15629999861810884,-0.17783704492614982,-0.5911947131663754,-0.15468194966591986,-0.022793760142068978
6208,8.0,299.20242,1118.2231,0.0,0.0,0.0,-0.06295621991739753,0.0,0.0,-0.0987952690053339,-0.1217310665464209,-0.11938558508243988,-0.6000057536509574,-0.14550307913003585,-0.02283057861095268
6209,8.0,300.50982,1152.0621,0.0,0.0,0.0,-0.06296636106106977,0.0,0.0,-0.04186355765536146,-0.15037762271111585,-0.15795692597663485,-0.5773294190629775,-0.13368314181099886,-0.030442254203916573
6210,8.0,300.06397999999996,1336.4087,0.0,0.0,0.0,-0.06297650220474205,0.0,0.0,-0.1101370536021809,-0.14997158299854285,-0.14612623807403688,-0.5905215097999355,-0.16052256642234386,-0.04891490695627545
6211,8.0,299.42728,1699.195,0.0,0.0,0.0,-0.0629866433484143,0.0,0.0,-0.17451401016319182,-0.16089781346437784,-0.1811010477382818,-0.6278935374782674,-0.16688350737011987,0.009210205903176552
6212,8.0,299.30473,1762.6041,0.0,0.0,0.0,-0.06299678449208657,0.0,0.0,-0.16719899292125584,-0.16477986844000686,-0.20380877281435983,-0.6342856358666183,-0.15376667071808886,-0.029190011842579872
6213,8.0,298.57641,1462.8039999999999,0.0,0.0,0.0,-0.06300692563575883,0.0,0.0,-0.13246084808286787,-0.12273771025576889,-0.18945733144548282,-0.6005915743287734,-0.08880362395473532,0.02119379770416498
6214,8.0,299.29455,1435.1124,0.0,0.0,0.0,-0.06301706677943109,0.0,0.0,-0.1299701476145549,-0.13253937496561788,-0.17372879199819682,-0.5958998717282384,-0.12912421550356787,-0.008724356431901942
6215,8.0,300.69569,1578.8847,0.0,0.0,0.0,-0.06302720792310335,0.0,0.0,-0.11795048856830688,-0.14269054003245987,-0.2193004853157728,-0.5891930882563304,-0.17941124041401083,0.0033439393284211165
6216,8.0,300.34976,1361.8806,0.0,0.0,0.0,-0.0630373490667756,0.0,0.0,-0.08954457119636111,-0.15922931478970984,-0.16520380214934585,-0.6076518604955694,-0.18025027229181684,-0.06016039429011865
6217,8.0,299.61627999999996,1054.6502,0.0,0.0,0.0,-0.06304749021044787,0.0,0.0,-0.06464718023017994,-0.12181123489433288,-0.13412890092749186,-0.5871411453463194,-0.13621830369369986,-0.034352260696804165
6218,8.0,300.47823999999997,1059.0191,0.0,0.0,0.0,-0.06305763135412014,0.0,0.0,-0.051107422105659855,-0.14011139296291786,-0.13069653647874388,-0.5768794752235715,-0.1300343674058929,-0.07820772214075122
6219,8.0,300.54112000000003,1251.2067,0.0,0.0,0.0,-0.06306777249779238,0.0,0.0,-0.08877743954565111,-0.14756462765099487,-0.14399353913105586,-0.6164200810309254,-0.12487078410128688,-0.01649185519811938
6220,8.0,299.34757,1285.7017,0.0,0.0,0.0,-0.06307791364146466,0.0,0.0,-0.086139168319524,-0.15921444027824186,-0.14546759511153384,-0.5742312954247164,-0.13677077831072487,-0.03437820395236457
6221,8.0,298.41553,1374.4177,0.0,0.0,0.0,-0.06308805478513692,0.0,0.0,-0.04813945550899436,-0.1997199945533288,-0.16992919531570583,-0.6137086440283275,-0.12019113917694188,-0.05218215216872745
6222,8.0,299.29854,1410.5709,0.0,0.0,0.0,-0.06309819592880918,0.0,0.0,-0.09659388690432441,-0.17017958968041783,-0.16200486012613483,-0.5926594776434365,-0.15443948904949087,-0.06322061021563843
6223,8.0,298.96905,1573.5973,0.0,0.0,0.0,-0.06310833707248144,0.0,0.0,-0.12037302770239289,-0.17817960451995782,-0.17978164412056682,-0.6289420588142484,-0.1920313109395148,-0.04962332582994095
6224,8.0,299.88215,1516.4835,0.0,0.0,0.0,-0.0631184782161537,0.0,0.0,-0.1115086092025429,-0.17598259459312982,-0.17348190347883083,-0.6004984667770844,-0.15458410010376283,-0.04397311497930855
6225,8.0,299.59929,1296.5663,0.0,0.0,0.0,-0.06312861935982596,0.0,0.0,-0.1078333788373259,-0.11231524747465191,-0.17397515362751084,-0.5954769107389954,-0.1284206348991299,-0.019288054624582784
6226,8.0,300.08431,1193.7636,0.0,0.0,0.0,-0.06313876050349822,0.0,0.0,-0.06891128723551453,-0.1208373090307139,-0.17312571567117782,-0.5888481475247874,-0.13384659931713086,-0.0037479762508464565
6227,8.0,299.29062000000005,1422.567,0.0,0.0,0.0,-0.06314890164717048,0.0,0.0,-0.1021388828778229,-0.14655338378619287,-0.18373258997049483,-0.6042369442135435,-0.17067122876143884,-0.013606800830636687
6228,8.0,300.38883,1521.4325,0.0,0.0,0.0,-0.06315904279084274,0.0,0.0,-0.14784750681391287,-0.14272477775333886,-0.17190521539572384,-0.5898780149264274,-0.17030793807058484,-0.017583168112323584
6229,8.0,299.5481,1401.6417,0.0,0.0,0.0,-0.063169183934515,0.0,0.0,-0.12660223600466788,-0.14583422952771785,-0.15362762240686587,-0.5836433249411115,-0.13537168257264487,-0.014838970707492386
6230,8.0,298.88873,1433.4352,0.0,0.0,0.0,-0.06317932507818726,0.0,0.0,-0.1128666683115729,-0.15727824092715387,-0.16558359868432884,-0.5934199117109855,-0.13974763617701788,-0.024709616470899275
6231,8.0,298.54421,1542.2065,0.0,0.0,0.0,-0.06318946622185953,0.0,0.0,-0.1350858548519359,-0.15047490485321685,-0.18323149726604082,-0.6414686266205244,-0.13493240825679187,0.0009461380267815532
6232,8.0,298.90082,1583.556,0.0,0.0,0.0,-0.06319960736553178,0.0,0.0,-0.10241217669479491,-0.19277960627086582,-0.1861696895085178,-0.6166319820243384,-0.1251547981043169,-0.03559654499185547
6233,8.0,299.07212999999996,1309.2086,0.0,0.0,0.0,-0.06320974850920405,0.0,0.0,-0.07690063863100213,-0.14419182204312486,-0.17687425468112983,-0.5979377101968575,-0.1158564856466449,-0.03216262013795347
6234,8.0,300.6771,1186.147,0.0,0.0,0.0,-0.0632198896528763,0.0,0.0,-0.07652418480809903,-0.15875915661080883,-0.12527571937125087,-0.6056982940377674,-0.16117079317381885,-0.06516066498335693
6235,8.0,300.83911,1259.4613,0.0,0.0,0.0,-0.06323003079654857,0.0,0.0,-0.07516748750720344,-0.15413584839202385,-0.15354145561836186,-0.6182714308186394,-0.19251141923439782,-0.048411681360360954
6236,8.0,300.26346,1366.3791,0.0,0.0,0.0,-0.06324017194022083,0.0,0.0,-0.11787799052365189,-0.15079589235239588,-0.14667125517032586,-0.5947393254612015,-0.18330150271544984,-0.06990359142944734
6237,8.0,301.0066,1147.7436,0.0,0.0,0.0,-0.06325031308389309,0.0,0.0,-0.05517381868523195,-0.13768619911356988,-0.15602536731100486,-0.5741262619193505,-0.12298765879043688,-0.06658873460804644
6238,8.0,300.4084,901.1488400000001,0.0,0.0,0.0,-0.06326045422756535,0.0,0.0,-0.01679447753923588,-0.12756858275753888,-0.12956368233693988,-0.5673718455602415,-0.10487167919252889,-0.05080852751166125
6239,8.0,299.41365,1167.4408,0.0,0.0,0.0,-0.06327059537123761,0.0,0.0,-0.056640726186254445,-0.13852613278396486,-0.15970600843175586,-0.5911044528474674,-0.12591157433900488,-0.04267345960604255
6240,8.0,299.16967999999997,1667.1362,0.0,0.0,0.0,-0.06328073651490987,0.0,0.0,-0.17147821153858184,-0.18349953231499383,-0.15179002242300885,-0.5923895883468004,-0.15442348983041185,-0.029507409396654572
6241,8.0,299.25065,1603.0079,0.0,0.0,0.0,-0.06329087765858214,0.0,0.0,-0.13479857818358387,-0.16345416240666985,-0.1890216339024828,-0.5786209177729384,-0.13516171688692286,-0.043213891745629056
6242,8.0,299.64078,1353.5288,0.0,0.0,0.0,-0.06330101880225439,0.0,0.0,-0.13842385531887086,-0.13249839913157388,-0.14051670313541886,-0.5934723068736565,-0.18030379216209882,-0.0027296509837455778
6243,8.0,299.85296,1513.2515,0.0,0.0,0.0,-0.06331115994592666,0.0,0.0,-0.1070743633199169,-0.14882130095501886,-0.2040949957026078,-0.6199321781300424,-0.17051725527624284,-0.019583626771503482
6244,8.0,300.06143,1593.08,0.0,0.0,0.0,-0.06332130108959891,0.0,0.0,-0.14370484391256386,-0.12903294193455989,-0.2115187650777768,-0.6613233839200364,-0.16781123916167984,0.015207078389321785
6245,8.0,300.16117,1602.8987,0.0,0.0,0.0,-0.06333144223327118,0.0,0.0,-0.15368313837984485,-0.12408962906919288,-0.2094684231029238,-0.6166795439840324,-0.12483369914762688,0.0026624080594092174
6246,8.0,301.29641000000004,1394.3925,0.0,0.0,0.0,-0.06334158337694346,0.0,0.0,-0.13557658200786687,-0.1149146392811919,-0.17336926046521384,-0.6151581996213874,-0.13637703945436588,-0.015088897963908285
6247,8.0,299.77881,1161.7592,0.0,0.0,0.0,-0.0633517245206157,0.0,0.0,-0.07265769740700644,-0.12884170111068588,-0.15164638408883285,-0.5794381039785884,-0.16376054897190787,-0.03367862973882197
6248,8.0,300.1998,1450.6804,0.0,0.0,0.0,-0.06336186566428798,0.0,0.0,-0.13562347522249485,-0.14792049121861586,-0.15742666180180184,-0.5674572321461685,-0.17553166790112681,-0.062024743063365535
6249,8.0,300.00313,1636.2527,0.0,0.0,0.0,-0.06337200680796022,0.0,0.0,-0.09376280836966872,-0.18155002899009282,-0.2220671343163198,-0.5631301678591204,-0.12179074697731088,-0.028720141426707268
6250,8.0,299.7499,1366.8537,0.0,0.0,0.0,-0.0633821479516325,0.0,0.0,-0.07209359371858373,-0.16949090385244983,-0.17390489486557684,-0.5653931910299634,-0.15530104547701987,-0.05138312543136966
6251,8.0,298.84691000000004,1192.7859,0.0,0.0,0.0,-0.06339228909530475,0.0,0.0,-0.07648119057985583,-0.15268708313404186,-0.1334088347439269,-0.6165973288709184,-0.13642031536613689,-0.028046779993251676
6252,8.0,299.89476,1297.4674,0.0,0.0,0.0,-0.06340243023897701,0.0,0.0,-0.10013061104712191,-0.15444206270474486,-0.13982500795465388,-0.6182477106337984,-0.12406518947678088,-0.055733852148002944
6253,8.0,299.96626000000003,1435.4126,0.0,0.0,0.0,-0.06341257138264927,0.0,0.0,-0.09888500142093981,-0.16802472082524883,-0.16941987502043981,-0.6166823101568054,-0.12741899664527587,-0.04654616329649866
6254,8.0,301.06039,1358.9023,0.0,0.0,0.0,-0.06342271252632152,0.0,0.0,-0.1049397695992489,-0.13365608803332887,-0.17447650977699083,-0.5934592258148654,-0.15793087531656386,-0.05073675394082775
6255,8.0,300.79042000000004,1247.3763,0.0,0.0,0.0,-0.0634328536699938,0.0,0.0,-0.055621243584889346,-0.15817287997044785,-0.16537713884395283,-0.5976726845007014,-0.18362159855454083,-0.06884237710946364
6256,8.0,300.5252,1108.2875,0.0,0.0,0.0,-0.06344299481366607,0.0,0.0,-0.06518147308741054,-0.12488836399052189,-0.14682190519519386,-0.5569746633691194,-0.19175511922725683,-0.06177848883856214
6257,8.0,301.39403,1151.7341,0.0,0.0,0.0,-0.06345313595733831,0.0,0.0,-0.09460107423039911,-0.11834699359743889,-0.13715033166568388,-0.5837151339756985,-0.14658835104714388,-0.062366904449884235
6258,8.0,300.58907,1336.172,0.0,0.0,0.0,-0.06346327710101059,0.0,0.0,-0.1085412758871899,-0.1408759104283699,-0.15674572733709885,-0.5768150629147144,-0.13314023227491786,-0.03055368841016427
6259,8.0,299.93606,1478.757,0.0,0.0,0.0,-0.06347341824468283,0.0,0.0,-0.11572713413887889,-0.17878121163433183,-0.15499685766449886,-0.6208624430468525,-0.1373813425559829,-0.04813222292978055
6260,8.0,299.72115,1369.5491,0.0,0.0,0.0,-0.0634835593883551,0.0,0.0,-0.1118808671567819,-0.14254283856538286,-0.16188502303680785,-0.5977364685944965,-0.13306942635792987,0.006530575935792664
6261,8.0,299.15365,1399.6556,0.0,0.0,0.0,-0.06349370053202737,0.0,0.0,-0.08380131561554592,-0.15483001590303286,-0.1868290417460908,-0.6146877475999574,-0.14666338221704886,-0.019840961899400482
6262,8.0,299.79587999999995,1688.3417,0.0,0.0,0.0,-0.06350384167569963,0.0,0.0,-0.15431273146198085,-0.13317898909124287,-0.22572200848702778,-0.6136709815221104,-0.15092017760966187,0.05050537828049275
6263,8.0,299.80831,1551.9589,0.0,0.0,0.0,-0.06351398281937189,0.0,0.0,-0.14658012345633187,-0.13522290706046186,-0.18995371253697182,-0.6445599006881093,-0.18654947591099982,-0.014175532032266087
6264,8.0,298.99804,1496.3197,0.0,0.0,0.0,-0.06352412396304415,0.0,0.0,-0.14835121370362486,-0.13673981338766888,-0.16975281887079882,-0.6089752259211754,-0.14367550018966785,-0.011656319719389187
6265,8.0,299.64441,1361.0970000000002,0.0,0.0,0.0,-0.0635342651067164,0.0,0.0,-0.1150346080930319,-0.13293570774223287,-0.16576919570514584,-0.6163863398025955,-0.12530745436438287,-0.05046503572776125
6266,8.0,299.7943,1243.1716,0.0,0.0,0.0,-0.06354440625038868,0.0,0.0,-0.08509066522204482,-0.12947034173772787,-0.16333211643212486,-0.6001110202038464,-0.13519012841972688,-0.05021606599268985
6267,8.0,299.46405,1237.2728,0.0,0.0,0.0,-0.06355454739406093,0.0,0.0,-0.03269829101532007,-0.16656577240376183,-0.17683596395985085,-0.6300951171630463,-0.16348985920769285,-0.0995167902160425
6268,8.0,299.61582000000004,1408.8666,0.0,0.0,0.0,-0.0635646885377332,0.0,0.0,-0.12657283148676587,-0.17745527255347182,-0.12423216296075988,-0.6044162894812434,-0.16807062105477885,-0.06650884895691234
6269,8.0,299.50879,1109.6785,0.0,0.0,0.0,-0.06357482968140545,0.0,0.0,-0.07145390967870184,-0.15037720727857487,-0.11548343735732788,-0.5715397383890805,-0.15152067014892584,-0.07664017965304683
6270,8.0,300.29436,995.5109699999999,0.0,0.0,0.0,-0.06358497082507772,0.0,0.0,-0.07080795564720113,-0.12372792918099589,-0.1080745931561319,-0.5872979863292984,-0.13517428118816285,-0.04432869483690155
6271,8.0,300.47071,1280.6279,0.0,0.0,0.0,-0.06359511196874998,0.0,0.0,-0.07005350988774313,-0.16708830548033185,-0.15213708084726085,-0.5661055767777705,-0.15590909686202986,-0.06194081251783224
6272,8.0,300.16568,1494.0613,0.0,0.0,0.0,-0.06360525311242224,0.0,0.0,-0.08011672484590512,-0.15684214821661485,-0.21719846758581982,-0.6023834666006194,-0.14064663219574186,-0.021530744905669082
6273,8.0,299.50976,1481.1526,0.0,0.0,0.0,-0.0636153942560945,0.0,0.0,-0.05235603297863815,-0.1808879409772498,-0.21698943409018978,-0.5725138466377175,-0.12171562461489689,-0.04586559765483205
6274,8.0,298.27013,1343.5863,0.0,0.0,0.0,-0.06362553539976676,0.0,0.0,-0.12829118206635387,-0.1274362624269799,-0.15268926162175686,-0.6240526913842055,-0.14849319030763686,-0.006314228091665795
6275,8.0,298.46886,1401.4458,0.0,0.0,0.0,-0.06363567654343902,0.0,0.0,-0.12634590399436987,-0.14135120578527788,-0.15830740918622485,-0.6152376789592314,-0.16477514669454082,-0.035947264288718764
6276,8.0,299.29065,1592.539,0.0,0.0,0.0,-0.06364581768711128,0.0,0.0,-0.17004807994993884,-0.15916166008053284,-0.15488237053569984,-0.6500699344669074,-0.17122183899827983,-0.02086489368195468
6277,8.0,299.47461,1510.2201,0.0,0.0,0.0,-0.06365595883078354,0.0,0.0,-0.1365176076407389,-0.13373173728579488,-0.18881984514506783,-0.5834099227805765,-0.13243858697817087,-0.03014783209585937
6278,8.0,299.3591,1260.4402,0.0,0.0,0.0,-0.0636660999744558,0.0,0.0,-0.07131155715890272,-0.13199189567158587,-0.17983887248621483,-0.6225911895724664,-0.11359042272550188,-0.011960497399409189
6279,8.0,298.872,1157.2364,0.0,0.0,0.0,-0.06367624111812806,0.0,0.0,-0.048465930770714954,-0.12033973230410687,-0.18296531646477082,-0.5733484607450874,-0.14971819954603585,-0.013685799887933288
6280,8.0,299.77517,1413.8395,0.0,0.0,0.0,-0.06368638226180032,0.0,0.0,-0.14909178806921386,-0.12174875789316689,-0.15893133820030184,-0.6235655004711234,-0.13497915961640586,0.004506830864139576
6281,8.0,300.16502,1605.3519,0.0,0.0,0.0,-0.06369652340547259,0.0,0.0,-0.14627047422577186,-0.16849198110886385,-0.17322444676092183,-0.5839669772880535,-0.14873904531190085,-0.013363913635915587
6282,8.0,300.01739,1375.3534,0.0,0.0,0.0,-0.06370666454914484,0.0,0.0,-0.13929814830015685,-0.13422728751220186,-0.14454765521324286,-0.6205612240571243,-0.19428108079904982,-0.02097579491864978
6283,8.0,300.34281,1333.2533,0.0,0.0,0.0,-0.06371680569281711,0.0,0.0,-0.06331077427578695,-0.17709547757546282,-0.16486947014634984,-0.6208056909087515,-0.18865572902637082,-0.037808693888427565
6284,8.0,299.61683,1373.7583,0.0,0.0,0.0,-0.06372694683648937,0.0,0.0,-0.03849108236702406,-0.17839260995597983,-0.2007045392779958,-0.6214223954496154,-0.15910157434960284,-0.05643670625211925
6285,8.0,299.61614,1304.0846,0.0,0.0,0.0,-0.06373708798016163,0.0,0.0,-0.05496707310832774,-0.14740281161002486,-0.19403927879518582,-0.6107306107919184,-0.13835039468662086,-0.03201076637196667
6286,8.0,299.98191,1201.2663,0.0,0.0,0.0,-0.06374722912383389,0.0,0.0,-0.08851143099689811,-0.16077309250956884,-0.1158704381005219,-0.6270731595348025,-0.12991303070641788,-0.05573517241288324
6287,8.0,299.49813,983.03291,0.0,0.0,0.0,-0.06375737026750615,0.0,0.0,-0.058426208637967846,-0.14219544576859786,-0.0981958018751711,-0.5984666976765645,-0.13338900543946988,-0.08297170493716972
6288,8.0,298.92695,1002.9589,0.0,0.0,0.0,-0.06376751141117841,0.0,0.0,-0.11453700096892189,-0.1213354734423789,-0.06900197615921483,-0.5963629270239384,-0.11683084720780688,-0.06670200178372504
6289,8.0,300.2788,1345.5273,0.0,0.0,0.0,-0.06377765255485067,0.0,0.0,-0.07428909795576313,-0.17509520028805084,-0.15962239503350384,-0.5780231508764435,-0.12127987640939189,-0.08665413444434722
6290,8.0,300.32794,1626.3167,0.0,0.0,0.0,-0.06378779369852293,0.0,0.0,-0.10175036225947891,-0.17652588916424883,-0.21608340611577181,-0.6032236941135435,-0.16402052868256584,-0.036750604431752265
6291,8.0,300.23212,1639.007,0.0,0.0,0.0,-0.0637979348421952,0.0,0.0,-0.1006440755352969,-0.18435532334945384,-0.2132177929779578,-0.5969151787259414,-0.17976579688900282,-0.03617367401031366
6292,8.0,301.00912,1625.9595,0.0,0.0,0.0,-0.06380807598586745,0.0,0.0,-0.17441422529334383,-0.14039108038802087,-0.17944579224242083,-0.5989236937366664,-0.14565162159469586,0.01909855659088078
6293,8.0,301.09823,1594.3398,0.0,0.0,0.0,-0.06381821712953972,0.0,0.0,-0.14409585712615386,-0.13804871973434787,-0.2024949116746918,-0.6059622456888174,-0.14263026178401086,-0.024305344879750775
6294,8.0,300.18645,1508.807,0.0,0.0,0.0,-0.06382835827321197,0.0,0.0,-0.19640300889346782,-0.13141764630991187,-0.13081899788582987,-0.6013952741755925,-0.14142471708003287,0.038803570724364266
6295,8.0,300.06195,1354.4373,0.0,0.0,0.0,-0.06383849941688424,0.0,0.0,-0.06648453906051315,-0.1336537068955939,-0.2115768749710118,-0.6199550978473044,-0.16993470739624983,-0.052767965753792744
6296,8.0,300.59205,1299.3197,0.0,0.0,0.0,-0.06384864056055652,0.0,0.0,-0.08318382681910452,-0.1332169555724899,-0.17855996847499683,-0.6025845156854615,-0.13009607433698286,0.005210237392210396
6297,8.0,300.69862,1204.0778,0.0,0.0,0.0,-0.06385878170422876,0.0,0.0,-0.08018394588403933,-0.14310372315823786,-0.14272193052055787,-0.6212868124537344,-0.13409557513170287,-0.040937735840239964
6298,8.0,299.79044,1407.8778,0.0,0.0,0.0,-0.06386892284790102,0.0,0.0,-0.13411734987635188,-0.13435556497486187,-0.15948677150761884,-0.6484647639234894,-0.14597350075396287,-0.0009869953105638531
6299,8.0,299.50084,1472.0351,0.0,0.0,0.0,-0.06387906399157328,0.0,0.0,-0.11317284209428988,-0.19616729652270481,-0.13812177506655787,-0.6604210745734854,-0.15928422281262886,-0.08882091506769182
6300,8.0,299.81472,1619.546,0.0,0.0,0.0,-0.06388920513524554,0.0,0.0,-0.14496832625725986,-0.17162618658318585,-0.17570703109593383,-0.6091446008078915,-0.1250130140178239,-0.025292043774130375
6301,8.0,300.24891,1533.5902,0.0,0.0,0.0,-0.06389934627891782,0.0,0.0,-0.07159232065561193,-0.17205410236541782,-0.22252670403167582,-0.5867993152925834,-0.1216649519773959,-0.06596813108079763
6302,8.0,299.27952,1305.8067,0.0,0.0,0.0,-0.06390948742259006,0.0,0.0,-0.06005699211741364,-0.1788856777196418,-0.15798996806239585,-0.5692354759391675,-0.17275185678178084,-0.044697304077530454
6303,8.0,299.36283,1074.5103,0.0,0.0,0.0,-0.06391962856626233,0.0,0.0,-0.043031564482884754,-0.13136287000950586,-0.15222986415891787,-0.5945905904790224,-0.18524431858969082,-0.018025205561199284
6304,8.0,299.91292000000004,1099.7327,0.0,0.0,0.0,-0.06392976970993458,0.0,0.0,-0.07770509030939533,-0.14805193002158784,-0.10853426419649789,-0.6026343169278764,-0.18148805861397682,-0.02925339468933527
6305,8.0,301.08517,1066.8727,0.0,0.0,0.0,-0.06393991085360685,0.0,0.0,-0.08486067568784662,-0.13178559795122588,-0.10765638430985788,-0.5910564349252284,-0.14484785082036986,-0.04313197655454466
6306,8.0,300.84674,1224.3013,0.0,0.0,0.0,-0.06395005199727913,0.0,0.0,-0.1146483976849159,-0.13726004638651187,-0.12024857019260989,-0.6329497264047744,-0.15324881885698086,-0.06029409973356435
6307,8.0,299.7342,1577.4943,0.0,0.0,0.0,-0.06396019314095137,0.0,0.0,-0.050807186981778954,-0.21876511436043578,-0.20994657582511378,-0.6111218671855324,-0.13134235169498087,-0.08311043407461122
6308,8.0,300.10339,1723.0492,0.0,0.0,0.0,-0.06397033428462365,0.0,0.0,-0.14330257349036285,-0.18455299831146282,-0.19590835032714882,-0.6318855300897464,-0.11704039746098789,-0.038973274917362764
6309,8.0,300.44543,1645.0633,0.0,0.0,0.0,-0.0639804754282959,0.0,0.0,-0.14379808318676587,-0.15512628009977186,-0.20113378241785881,-0.5734003290177064,-0.11686337253601688,-0.014211139667280286
6310,8.0,299.97076,1361.9021,0.0,0.0,0.0,-0.06399061657196817,0.0,0.0,-0.15665352157799886,-0.11352841181938189,-0.14380228817468088,-0.6204660292102294,-0.16045716112838884,0.02093358697248418
6311,8.0,298.70821,1315.1262,0.0,0.0,0.0,-0.06400075771564043,0.0,0.0,-0.11152024131369088,-0.12492416211655488,-0.16332112266853985,-0.5976356198120434,-0.15403046024912284,0.006527611571300104
6312,8.0,298.95287,1384.6757,0.0,0.0,0.0,-0.06401089885931269,0.0,0.0,-0.11529438515366988,-0.14489954684047185,-0.16071290545362885,-0.6264235648956924,-0.15221844483029084,0.018294160641243083
6313,8.0,298.7895,1564.6526,0.0,0.0,0.0,-0.06402104000298495,0.0,0.0,-0.09230602931664582,-0.16253810325626183,-0.22077119757092079,-0.6011767870565294,-0.12556631949993088,-0.029425299661550972
6314,8.0,299.65903,1579.376,0.0,0.0,0.0,-0.0640311811466572,0.0,0.0,-0.14601425367298487,-0.14658087326140584,-0.18749574004688882,-0.6350887986908844,-0.16743699523724484,-0.01846296912115318
6315,8.0,299.9494,1332.9334,0.0,0.0,0.0,-0.06404132229032947,0.0,0.0,-0.07971903228765592,-0.1794158000394608,-0.14604364805838588,-0.6247202408150874,-0.17078648596031384,-0.03910080865444936
6316,8.0,300.50396,1271.2221,0.0,0.0,0.0,-0.06405146343400174,0.0,0.0,-0.12243737279362789,-0.14657724582604786,-0.11740514723198588,-0.6281720900632584,-0.16308362697760084,-0.043059445072636364
6317,8.0,300.17657,1518.7104,0.0,0.0,0.0,-0.06406160457767399,0.0,0.0,-0.13673539561723289,-0.16732012697071083,-0.15759450668086686,-0.5992504060989104,-0.14253292897940487,-0.03410778371267617
6318,8.0,300.04357000000005,1404.5647,0.0,0.0,0.0,-0.06407174572134626,0.0,0.0,-0.10325040810502191,-0.1796437610469588,-0.14405842766745988,-0.6092326421090803,-0.14115366254578185,-0.09619143511035551
6319,8.0,299.65376000000003,1061.2204,0.0,0.0,0.0,-0.0640818868650185,0.0,0.0,0.02217933440067988,-0.14639935963849188,-0.1983644787020498,-0.6006720770492184,-0.12183998079966987,-0.051818477456085546
6320,8.0,299.90133,1023.855,0.0,0.0,0.0,-0.06409202800869078,0.0,0.0,-0.05064654833742516,-0.15299702620713085,-0.10758279195509489,-0.6070613079397864,-0.13385835301829085,-0.07709988413066612
6321,8.0,299.97143,1206.8367,0.0,0.0,0.0,-0.06410216915236304,0.0,0.0,-0.058839241802731035,-0.13120255357868388,-0.17680642771943583,-0.6223879721324104,-0.13184361665195188,-0.008689984759359722
6322,8.0,299.68637,1332.5231,0.0,0.0,0.0,-0.0641123102960353,0.0,0.0,-0.15371981803346488,-0.14511624050685787,-0.10621771102287189,-0.6288915077667594,-0.1944316902939138,-0.017887205963829783
6323,8.0,299.16682000000003,1551.8734,0.0,0.0,0.0,-0.06412245143970756,0.0,0.0,-0.12190228554831888,-0.17328474527437285,-0.17654372236600882,-0.6182801650345014,-0.17674632172350382,-0.012984864879506387
6324,8.0,299.19942000000003,1664.7075,0.0,0.0,0.0,-0.06413259258337982,0.0,0.0,-0.13328395166910187,-0.17605936855320684,-0.19668618189891482,-0.6011487808237654,-0.13370008335267086,-0.03151653539718987
6325,8.0,298.88563999999997,1518.5948,0.0,0.0,0.0,-0.06414273372705208,0.0,0.0,-0.09542693588340531,-0.15543104546484984,-0.21075692259258877,-0.5938706357529685,-0.09813757748467482,-0.04992774770323505
6326,8.0,299.52333,1667.9116,0.0,0.0,0.0,-0.06415287487072434,0.0,0.0,-0.17786080564099482,-0.15314624754935785,-0.17599643558949582,-0.5903847615664395,-0.14119524632988587,-0.018353264532826184
6327,8.0,298.60289,1455.7046,0.0,0.0,0.0,-0.0641630160143966,0.0,0.0,-0.12588530076391188,-0.12817827560771086,-0.18843428321701583,-0.6268830130210363,-0.15728587070040684,-0.03863835218955846
6328,8.0,299.37876,1026.0475,0.0,0.0,0.0,-0.06417315715806886,0.0,0.0,-0.12693077221709187,-0.08257827005584072,-0.1023837854269929,-0.5892559502925344,-0.14854731812797886,-0.0050908285023756545
6329,8.0,298.91082,1026.8345,0.0,0.0,0.0,-0.06418329830174112,0.0,0.0,-0.06560474210468394,-0.10595339460178589,-0.14057390110356385,-0.6463732637295744,-0.14166226343347688,-0.03605282164438647
6330,8.0,299.25059,1243.4269,0.0,0.0,0.0,-0.06419343944541339,0.0,0.0,-0.07975538162174334,-0.13131746627252489,-0.16689788538903885,-0.6139949074465795,-0.16814573328469185,-0.012268259958282988
6331,8.0,300.22376,1335.2408,0.0,0.0,0.0,-0.06420358058908565,0.0,0.0,-0.05673015158708005,-0.16203685856429284,-0.1871128632316018,-0.6479344896161554,-0.17106946644824184,-0.05677481767798824
6332,8.0,301.02556,1403.8001,0.0,0.0,0.0,-0.06421372173275791,0.0,0.0,-0.11615209123081888,-0.13164274995212788,-0.17892535659355782,-0.5968035185649214,-0.1216100844844809,-0.03549979277955677
6333,8.0,299.48425,1459.2444,0.0,0.0,0.0,-0.06422386287643017,0.0,0.0,-0.0910221482209366,-0.17988089196786183,-0.17267081703878284,-0.6137054826880154,-0.12631404741122587,-0.04033262085401976
6334,8.0,300.8127,1525.6858,0.0,0.0,0.0,-0.06423400402010243,0.0,0.0,-0.14939565164170285,-0.16907413382131786,-0.14530060136255288,-0.6069104046023934,-0.15933331477997384,-0.03083032291271597
6335,8.0,300.26489,1507.5726,0.0,0.0,0.0,-0.06424414516377469,0.0,0.0,-0.1183304269583039,-0.17136898317780183,-0.16856501617607184,-0.6244404621974754,-0.16479447950644885,-0.03462716254168487
6336,8.0,299.83404,1363.2504,0.0,0.0,0.0,-0.06425428630744695,0.0,0.0,-0.06648055090811954,-0.18647668402381581,-0.16143686251757786,-0.6084014426545474,-0.16293179145011585,-0.07554654335636334
6337,8.0,299.67494,1080.1660000000002,0.0,0.0,0.0,-0.06426442745111921,0.0,0.0,-0.05813835239055865,-0.11215754522908788,-0.15804758146308184,-0.6304799900810304,-0.13350657284857287,-0.03654745386620287
6338,8.0,298.84058,947.94827,0.0,0.0,0.0,-0.06427456859479147,0.0,0.0,-0.03993212361949376,-0.12899453975576988,-0.11922593739668388,-0.6379696409777014,-0.16893734505781785,-0.06662424801080134
6339,8.0,299.53552,1148.7947,0.0,0.0,0.0,-0.06428470973846373,0.0,0.0,-0.09089857933149131,-0.12434342795424087,-0.13396291029610988,-0.6105974798612794,-0.15416747192764485,-0.03889406105104496
6340,8.0,299.71188,1448.4692,0.0,0.0,0.0,-0.06429485088213599,0.0,0.0,-0.13718961537206087,-0.13297275216588886,-0.17013609085362483,-0.5860672522278344,-0.1195384338600249,-0.021528852154482275
6341,8.0,299.26071,1534.6758,0.0,0.0,0.0,-0.06430499202580826,0.0,0.0,-0.11337259421900389,-0.16758904354725085,-0.18554148457901884,-0.5618210183324175,-0.10843239203144389,-0.015882562581736884
6342,8.0,299.31101,1596.8648,0.0,0.0,0.0,-0.06431513316948051,0.0,0.0,-0.12998228635075287,-0.16235629579081884,-0.19306843321187084,-0.5829461582098064,-0.15669897597748483,-0.026385423718538577
6343,8.0,300.31045,1588.5815,0.0,0.0,0.0,-0.06432527431315278,0.0,0.0,-0.1261549367480229,-0.16955651179642484,-0.18717765044299584,-0.6207314703389264,-0.16345815461206384,-0.016293803307073185
6344,8.0,300.10129,1462.1922,0.0,0.0,0.0,-0.06433541545682503,0.0,0.0,-0.12225943594356689,-0.16302044070136484,-0.15919005134833483,-0.6054650438647474,-0.14688014681094186,-0.03269855547359617
6345,8.0,300.31936,1665.9574,0.0,0.0,0.0,-0.0643455566004973,0.0,0.0,-0.12821687030401988,-0.16870171374706283,-0.2094908767251398,-0.6275484042292054,-0.12171978907280788,-0.008453143121360272
6346,8.0,300.25841,1400.7977,0.0,0.0,0.0,-0.06435569774416956,0.0,0.0,-0.16982490148291285,-0.13459105443060287,-0.12139155683541389,-0.6460002965002654,-0.16610491586077883,-0.02112684619055738
6347,8.0,300.09848,1189.8388,0.0,0.0,0.0,-0.06436583888784182,0.0,0.0,-0.03571443258799007,-0.14945422762998387,-0.17651263585294083,-0.6299142114901924,-0.16443578897104885,-0.03700405678526607
6348,8.0,300.1807,1144.5982,0.0,0.0,0.0,-0.06437598003151408,0.0,0.0,-0.0995778142165651,-0.13083657777506488,-0.11751488221781589,-0.5902345877691184,-0.14994523849594285,-0.053825467525410044
6349,8.0,299.82522,1376.8435,0.0,0.0,0.0,-0.06438612117518634,0.0,0.0,-0.05423941464176344,-0.14892517935527086,-0.2153614654195218,-0.5724262309015705,-0.13454332021839185,-0.028713847117086078
6350,8.0,298.90353,1377.3501,0.0,0.0,0.0,-0.0643962623188586,0.0,0.0,-0.11850766466579589,-0.15095658368575485,-0.14921576935144987,-0.6048222987963134,-0.17236031667813884,-0.06071854817395414
6351,8.0,298.7573,1344.8665,0.0,0.0,0.0,-0.06440640346253088,0.0,0.0,-0.07207827033732143,-0.16424164011938783,-0.17248592929303583,-0.6210269745980904,-0.16211572995207685,-0.02972701514382797
6352,8.0,299.73154,1368.0645,0.0,0.0,0.0,-0.06441654460620312,0.0,0.0,-0.12287463074178188,-0.16942376590082384,-0.12355906091932989,-0.6285458577601464,-0.15703246698289786,-0.039980230707741565
6353,8.0,299.58647,1410.9315,0.0,0.0,0.0,-0.0644266857498754,0.0,0.0,-0.05920166616474954,-0.15418808143467885,-0.2154982035205168,-0.6176269733575365,-0.13306926423791388,0.0037858798092622464
6354,8.0,299.87037999999995,1570.8284,0.0,0.0,0.0,-0.06443682689354764,0.0,0.0,-0.1296842388338379,-0.1847229710157378,-0.16308540016527584,-0.6111468032704934,-0.17422810138247483,-0.047723553833198054
6355,8.0,300.40336,1547.828,0.0,0.0,0.0,-0.06444696803721991,0.0,0.0,-0.11553614662752988,-0.15083578400883285,-0.2041291422309778,-0.6059412511467455,-0.17364829941025284,-0.017532355646308784
6356,8.0,300.16912,1187.2614,0.0,0.0,0.0,-0.06445710918089219,0.0,0.0,-0.09807143251814682,-0.1276189311550079,-0.13520745499643688,-0.5908689228617224,-0.15731671403345085,-0.05189823442445695
6357,8.0,300.93552999999997,1166.2775,0.0,0.0,0.0,-0.06446725032456443,0.0,0.0,-0.08897003103190841,-0.12842067542913388,-0.13712852652353186,-0.5659474388346635,-0.13105166037379187,-0.01194230044086329
6358,8.0,300.46473,1570.8016,0.0,0.0,0.0,-0.06447739146823671,0.0,0.0,-0.14900194318284685,-0.14670498626615489,-0.18177753403504582,-0.5935958220608465,-0.12364727447303588,-0.030582898384047073
6359,8.0,299.88824,1634.2239,0.0,0.0,0.0,-0.06448753261190895,0.0,0.0,-0.1287379037704419,-0.15782719956633184,-0.21019814555994182,-0.6164799945093384,-0.12986573219174988,-0.016281334251342587
6360,8.0,299.1807,1325.8364,0.0,0.0,0.0,-0.06449767375558121,0.0,0.0,-0.12308318800986488,-0.1225375021685099,-0.15740046928671686,-0.6045334819878094,-0.1306482956414829,-0.02876314072120097
6361,8.0,299.24747,1328.5438,0.0,0.0,0.0,-0.06450781489925349,0.0,0.0,-0.05740549189798094,-0.14284274032998087,-0.2035959193658528,-0.6460332271285154,-0.13211781226151287,-0.015992949087381185
6362,8.0,299.13362,1558.2148,0.0,0.0,0.0,-0.06451795604292573,0.0,0.0,-0.13508286576414086,-0.17760066381032083,-0.16097487113448286,-0.6082296359675915,-0.15502654589242884,-0.01077526633343599
6363,8.0,300.31607,1657.6289,0.0,0.0,0.0,-0.06452809718659801,0.0,0.0,-0.13584707925456288,-0.15751068050009384,-0.2105200449842108,-0.6413565712919654,-0.18233542954010584,-0.026284951865122776
6364,8.0,299.84992,1219.9748,0.0,0.0,0.0,-0.06453823833027025,0.0,0.0,-0.09480931739095111,-0.14568496765548686,-0.13034758327680487,-0.5810877663338975,-0.14590016171172485,-0.030504363395296268
6365,8.0,300.27538,914.1306699999999,0.0,0.0,0.0,-0.06454837947394253,0.0,0.0,-0.019822045533283584,-0.12992996211558888,-0.12812089525454787,-0.5986338434130604,-0.15076586975193285,-0.04769094744498005
6366,8.0,299.7312,951.13542,0.0,0.0,0.0,-0.0645585206176148,0.0,0.0,-0.07132264211499673,-0.0969849102504154,-0.12081386242339988,-0.5830334801034244,-0.14078400864429988,-0.03891107554672416
6367,8.0,299.97226,1462.6664,0.0,0.0,0.0,-0.06456866176128705,0.0,0.0,-0.08652767373911652,-0.1959472489984878,-0.16213915629438885,-0.6301738669608185,-0.16796491880434683,-0.08816563710877091
6368,8.0,299.5086,1457.1773,0.0,0.0,0.0,-0.06457880290495932,0.0,0.0,-0.12444153082892288,-0.14471035278179986,-0.17379361973959484,-0.6019976412275415,-0.16335555290693785,-0.03142932090808247
6369,8.0,299.56376,1066.3097,0.0,0.0,0.0,-0.06458894404863157,0.0,0.0,-0.07065210764932013,-0.13449574812619686,-0.11898365916527288,-0.6451713160634513,-0.16503435633512284,-0.05218817290082165
6370,8.0,298.83141,1201.6398,0.0,0.0,0.0,-0.06459908519230384,0.0,0.0,-0.039224903420696566,-0.18135706564104884,-0.14468654140444986,-0.6227788536234874,-0.15042287446058186,-0.04131424539189856
6371,8.0,298.99195,1485.7965,0.0,0.0,0.0,-0.0646092263359761,0.0,0.0,-0.1155581544197019,-0.1309541249191659,-0.2051327563225268,-0.6374914375930064,-0.15721311934322685,-0.015968949245512586
6372,8.0,298.22476,1660.3325,0.0,0.0,0.0,-0.06461936747964836,0.0,0.0,-0.1241738504175049,-0.18326278642912883,-0.1972629947833418,-0.5821766352888604,-0.1179244075107329,-0.033933279753953965
6373,8.0,299.34546,1273.3402,0.0,0.0,0.0,-0.06462950862332062,0.0,0.0,-0.08534751095014352,-0.12003019453105788,-0.18168591596100384,-0.5865654673020044,-0.1175386530651619,-0.028278732192893574
6374,8.0,299.75423,1192.8006,0.0,0.0,0.0,-0.06463964976699288,0.0,0.0,-0.1045542785987039,-0.12034284298191388,-0.13768448672090086,-0.6005873997383614,-0.15221950874289586,-0.033037499791047364
6375,8.0,300.25978,1546.0915,0.0,0.0,0.0,-0.06464979091066514,0.0,0.0,-0.11598190574402288,-0.1860712015987978,-0.16792012301742584,-0.6176544729652504,-0.17585498587553583,-0.018904799867008482
6376,8.0,299.81243,1543.2273,0.0,0.0,0.0,-0.06465993205433741,0.0,0.0,-0.12966440952938088,-0.14645403461388787,-0.1929841206710498,-0.6310081162981525,-0.16694502178369083,-0.032552158059397866
6377,8.0,299.6056,1368.0273,0.0,0.0,0.0,-0.06467007319800966,0.0,0.0,-0.0999248118458111,-0.14889270468956586,-0.16702862504944183,-0.5949115273156964,-0.15439268702737186,-0.028987581697851577
6378,8.0,299.96646,1333.9091,0.0,0.0,0.0,-0.06468021434168193,0.0,0.0,-0.12515802023963488,-0.1274402242348709,-0.15287681421526683,-0.6169982415379854,-0.15361064033518984,-0.04146295605607517
6379,8.0,300.13207,1315.4934,0.0,0.0,0.0,-0.06469035548535418,0.0,0.0,-0.07608418095217402,-0.14372125856418386,-0.18007170722669383,-0.6030089357548485,-0.16790175279311284,-0.06093665633747974
6380,8.0,299.7846,1403.7012,0.0,0.0,0.0,-0.06470049662902645,0.0,0.0,-0.13526691251230485,-0.17085533630460883,-0.12056787569662288,-0.6096100980363325,-0.14897591278777786,-0.046723061565207155
6381,8.0,299.83583,1437.9279999999999,0.0,0.0,0.0,-0.06471063777269871,0.0,0.0,-0.0976075838476185,-0.12777081734499787,-0.21171581182472382,-0.5852898158236075,-0.12975716244353486,-0.02981966166672147
6382,8.0,299.75731,1075.8042,0.0,0.0,0.0,-0.06472077891637097,0.0,0.0,-0.08447459193599313,-0.11621315981434589,-0.1263298743777879,-0.6074201909927054,-0.15006725407298488,-0.019551229112806084
6383,8.0,300.02201,1011.9224,0.0,0.0,0.0,-0.06473092006004323,0.0,0.0,-0.03674779468922497,-0.13877490594851685,-0.13207644125992987,-0.6197990877294074,-0.16436642186920283,-0.04725301872525986
6384,8.0,299.90715,1481.344,0.0,0.0,0.0,-0.06474106120371549,0.0,0.0,-0.09671322547460222,-0.15389855535110486,-0.1996798090543628,-0.6614498071350133,-0.13239254489362687,-0.024930782623226677
6385,8.0,300.15439,1650.2855,0.0,0.0,0.0,-0.06475120234738775,0.0,0.0,-0.1085048495460949,-0.1991590187679648,-0.19398173632200683,-0.6213821390231424,-0.15343837768568885,-0.05127838982153305
6386,8.0,300.26085,1445.325,0.0,0.0,0.0,-0.06476134349106001,0.0,0.0,-0.12368138047140188,-0.16130589994215286,-0.15435543995369586,-0.6413276835316144,-0.15017305764842684,-0.05548563120475545
6387,8.0,300.62382,1331.2927,0.0,0.0,0.0,-0.06477148463473227,0.0,0.0,-0.09680816194272171,-0.14128997508173488,-0.16658160950282486,-0.6096030660806384,-0.15677751299273585,-0.01196349560645509
6388,8.0,300.64701,1235.1638,0.0,0.0,0.0,-0.06478162577840453,0.0,0.0,-0.08752516577356131,-0.16038022504829585,-0.12755355625855588,-0.5933041073570565,-0.14904336484693487,-0.029778770945685873
6389,8.0,301.0725,1372.1860000000001,0.0,0.0,0.0,-0.06479176692207679,0.0,0.0,-0.1099465119208759,-0.11662418471741089,-0.19053960414229482,-0.5888064421506715,-0.12664779172916388,0.018308543726412583
6390,8.0,299.50506,1450.0016,0.0,0.0,0.0,-0.06480190806574905,0.0,0.0,-0.09151621910219761,-0.15080903420619288,-0.19843903364440782,-0.5960604921340904,-0.15051106774928585,-0.03905262658569416
6391,8.0,299.72021,1540.0257,0.0,0.0,0.0,-0.06481204920942132,0.0,0.0,-0.1208927236786829,-0.15998548307433785,-0.18725116173775083,-0.6007233880342824,-0.15345542055237085,-0.015016151672978786
6392,8.0,299.81036,1365.182,0.0,0.0,0.0,-0.06482219035309357,0.0,0.0,-0.1048779613431489,-0.14457866066630287,-0.16552462752850883,-0.6426785688299363,-0.13816022790785287,-0.05517062897391715
6393,8.0,299.36649,1346.2357,0.0,0.0,0.0,-0.06483233149676584,0.0,0.0,-0.0990781370225008,-0.17149477817771683,-0.13864912108110286,-0.6276206388288343,-0.14119132505199888,-0.027463438738430376
6394,8.0,299.65186,1622.6728,0.0,0.0,0.0,-0.06484247264043809,0.0,0.0,-0.14447413378598686,-0.14981730553831685,-0.1989605838683808,-0.6320071808967523,-0.13452668265174986,-0.017027022490186283
6395,8.0,300.60612000000003,1527.8013,0.0,0.0,0.0,-0.06485261378411036,0.0,0.0,-0.12854287339119388,-0.16688734758799884,-0.16898323515484684,-0.6245901192372454,-0.15381087881995187,-0.03645208676679086
6396,8.0,299.74987000000004,1155.8802,0.0,0.0,0.0,-0.06486275492778262,0.0,0.0,-0.05165627840657775,-0.14393482128776086,-0.15576762688306786,-0.5907544661304265,-0.13970064163737986,-0.03455171289948857
6397,8.0,301.04089,1235.7037,0.0,0.0,0.0,-0.06487289607145488,0.0,0.0,-0.0962751407143666,-0.13059524186624688,-0.14875268365824684,-0.6122005935069944,-0.14914117387908785,-0.05587156600884424
6398,8.0,300.60058,1469.2568,0.0,0.0,0.0,-0.06488303721512714,0.0,0.0,-0.12255213349995389,-0.16498908432065484,-0.15907615190459384,-0.5926616865286545,-0.12995694496575189,-0.038870770484246364
6399,8.0,299.98035,1428.2881,0.0,0.0,0.0,-0.0648931783587994,0.0,0.0,-0.12300862293500589,-0.15865249177278185,-0.15250280333835484,-0.6418176000874655,-0.15725002191186885,-0.06319200312556514
6400,8.0,299.97137000000004,1310.6726,0.0,0.0,0.0,-0.06490331950247166,0.0,0.0,-0.10759858852415391,-0.12837984145010387,-0.16243332306342084,-0.6055102044217044,-0.13493916663495886,-0.005819583710848194
6401,8.0,300.95149,1098.5511,0.0,0.0,0.0,-0.06491346064614394,0.0,0.0,-0.04339804893805396,-0.13983140156278487,-0.15070264294569286,-0.6410603982877354,-0.17139074778994984,-0.047319587230329654
6402,8.0,300.03252000000003,1179.7242,0.0,0.0,0.0,-0.06492360178981618,0.0,0.0,-0.05614091220342665,-0.13274903667630988,-0.16971675729973984,-0.6199006660519324,-0.16980244786069684,-0.01069501996526629
6403,8.0,300.4553,1694.9143,0.0,0.0,0.0,-0.06493374293348846,0.0,0.0,-0.15091891104703686,-0.19644652798526283,-0.16784618615762883,-0.6169535470760744,-0.1835409337140798,-0.04001815665898456
6404,8.0,298.54331,1736.8886,0.0,0.0,0.0,-0.0649438840771607,0.0,0.0,-0.16021691952967887,-0.18332180824745384,-0.1844320263820238,-0.6033747089084474,-0.13420074035958188,-0.04051458233347796
6405,8.0,298.99369,1230.1745,0.0,0.0,0.0,-0.06495402522083298,0.0,0.0,-0.09887961700990841,-0.13106241095735288,-0.14400030764172386,-0.5957453713529904,-0.1215072801293349,-0.024614667843778578
6406,8.0,299.47578,1284.7045,0.0,0.0,0.0,-0.06496416636450524,0.0,0.0,-0.1066552121510499,-0.15716338902831883,-0.1266994776167649,-0.6169716031928565,-0.13333124005126887,-0.014710346713298187
6407,8.0,299.37512999999996,1705.649,0.0,0.0,0.0,-0.0649743075081775,0.0,0.0,-0.13801458333847888,-0.15589581315321885,-0.22456430945277178,-0.6175269554401654,-0.15279370744206486,-0.004827843795896085
6408,8.0,300.62573,1677.6882,0.0,0.0,0.0,-0.06498444865184975,0.0,0.0,-0.13957772426774886,-0.17907602688342783,-0.19132156977446882,-0.6265849148416164,-0.14045278731911087,-0.016711881444084285
6409,8.0,301.35587999999996,1152.2999,0.0,0.0,0.0,-0.06499458979552201,0.0,0.0,-0.07078442088712843,-0.14057704217887387,-0.13890894880424587,-0.5938743341158335,-0.17032266059453785,-0.017160762384135383
6410,8.0,300.87728,1090.7194,0.0,0.0,0.0,-0.06500473093919427,0.0,0.0,-0.06216696183415144,-0.12706221102006388,-0.14232227428361485,-0.6266234183454163,-0.17133880858982384,-0.04435045336954896
6411,8.0,301.51762,1526.3866,0.0,0.0,0.0,-0.06501487208286655,0.0,0.0,-0.10697702038280989,-0.17990793561303084,-0.17709846666325785,-0.6040636277839384,-0.16949275810013284,-0.05037663066978636
6412,8.0,300.05027,1723.9002,0.0,0.0,0.0,-0.0650250132265388,0.0,0.0,-0.14991013951247886,-0.17322512563848882,-0.20088734986103782,-0.6165743686236524,-0.1311291233439369,-0.04579754473836576
6413,8.0,299.09865,1539.7616,0.0,0.0,0.0,-0.06503515437021107,0.0,0.0,-0.08854274042498811,-0.1806487430261428,-0.1988576072607178,-0.6055030407434974,-0.12236620210660389,-0.058699656468955044
6414,8.0,300.05451,1186.1486,0.0,0.0,0.0,-0.06504529551388331,0.0,0.0,-0.07999404964304802,-0.15132616665972984,-0.12923934097992987,-0.6376373658724084,-0.15918389078772685,-0.047860575644221054
6415,8.0,299.85671,1074.729,0.0,0.0,0.0,-0.06505543665755559,0.0,0.0,-0.07432844043064593,-0.11762899444407789,-0.13473335527464686,-0.6229297670933814,-0.17913136047138883,-0.046432487781029756
6416,8.0,299.66049,1427.721,0.0,0.0,0.0,-0.06506557780122786,0.0,0.0,-0.10985091177394089,-0.16157230365844483,-0.16256831837424385,-0.6411795970294993,-0.16953035981134382,-0.03939031042002096
6417,8.0,299.67301000000003,1450.8757,0.0,0.0,0.0,-0.06507571894490011,0.0,0.0,-0.1049805123857699,-0.14876502504446487,-0.1872844571360368,-0.5931653123583585,-0.15917786194963185,-0.017787863884275484
6418,8.0,300.65536000000003,1234.5792,0.0,0.0,0.0,-0.06508586008857238,0.0,0.0,-0.07512675080018302,-0.14212474117661986,-0.15802974826132185,-0.6381878950492414,-0.16950090463093684,-0.025045281911026875
6419,8.0,301.62108,1384.2623,0.0,0.0,0.0,-0.06509600123224463,0.0,0.0,-0.08671941612179002,-0.16727000148826382,-0.16679176770606585,-0.6103327682726545,-0.14283045973876887,-0.021943602778164976
6420,8.0,301.63247,1660.1429,0.0,0.0,0.0,-0.06510614237591689,0.0,0.0,-0.14965063602936785,-0.16117356947909284,-0.1938177823233258,-0.6216878467108135,-0.14732288644213687,-0.026904678931035073
6421,8.0,300.47057,1699.5058,0.0,0.0,0.0,-0.06511628351958916,0.0,0.0,-0.14466786720510685,-0.17232621067977283,-0.1996132486552938,-0.5931206584264515,-0.11866030066085989,-0.008480814576291231
6422,8.0,300.58763999999996,1541.1697,0.0,0.0,0.0,-0.0651264246632614,0.0,0.0,-0.11030515179377089,-0.17112409076113283,-0.18704787337018783,-0.6206775350361033,-0.14331058829865384,-0.03506027427042967
6423,8.0,299.9986,1410.0868,0.0,0.0,0.0,-0.06513656580693368,0.0,0.0,-0.10460058412827389,-0.15241567396225586,-0.17161489897707186,-0.6269923528393274,-0.13909854816295789,-0.004176463404809846
6424,8.0,300.0043,1290.9483,0.0,0.0,0.0,-0.06514670695060593,0.0,0.0,-0.08686412444807161,-0.13838261603980087,-0.16716931482582684,-0.6414693662930974,-0.11636260407159489,-0.023690846184354478
6425,8.0,300.04742000000005,1375.9788,0.0,0.0,0.0,-0.0651568480942782,0.0,0.0,-0.10514796209729589,-0.14916592757903085,-0.16394931746553784,-0.6468436752210004,-0.12217726136045687,-0.036256942903531666
6426,8.0,299.44766,1309.5122,0.0,0.0,0.0,-0.06516698923795047,0.0,0.0,-0.09343885812719732,-0.15286399660150185,-0.15175615960466685,-0.6198267595896384,-0.14473444786917786,-0.034532946494386464
6427,8.0,299.66292000000004,1231.0623,0.0,0.0,0.0,-0.06517713038162272,0.0,0.0,-0.07887212745657292,-0.16043887196408385,-0.13490121028621288,-0.6305742223403303,-0.16694435303862484,-0.06283035592637334
6428,8.0,300.68886000000003,1347.5613,0.0,0.0,0.0,-0.06518727152529499,0.0,0.0,-0.08210427875181142,-0.17256835718867083,-0.15495234558760587,-0.5930488291268625,-0.15783661265976087,-0.031466480842249865
6429,8.0,300.76518,1502.7542,0.0,0.0,0.0,-0.06519741266896724,0.0,0.0,-0.09221509721292151,-0.20257620473021481,-0.16200845716398984,-0.6128266402137804,-0.14105730246127185,-0.07193537978171922
6430,8.0,300.3366,1558.6919,0.0,0.0,0.0,-0.06520755381263951,0.0,0.0,-0.08628248849316861,-0.1968742411174748,-0.19064667428036183,-0.6164977871810944,-0.14745117403729788,-0.024850484579301876
6431,8.0,299.33258,1307.6128,0.0,0.0,0.0,-0.06521769495631177,0.0,0.0,-0.08767205258755792,-0.14894101645433386,-0.16086858119899286,-0.6342526241783605,-0.15351262865301685,-0.05858269397016174
6432,8.0,299.34995,1198.8094,0.0,0.0,0.0,-0.06522783609998403,0.0,0.0,-0.11997261152787488,-0.13666807528058886,-0.10776742638831689,-0.6238259057468234,-0.12916913288050086,-0.021438313191796777
6433,8.0,299.36144,1181.1247,0.0,0.0,0.0,-0.06523797724365629,0.0,0.0,-0.09306878372692381,-0.11944029045533888,-0.14652336118572984,-0.6321576080065984,-0.14393632089790886,-0.05753288378005354
6434,8.0,299.28393,1237.9389999999999,0.0,0.0,0.0,-0.06524811838732855,0.0,0.0,-0.09813773453844031,-0.12833704176587987,-0.14982777241184986,-0.6253112493334154,-0.17016246575372784,-0.030770944430355766
6435,8.0,299.27034,1404.8886,0.0,0.0,0.0,-0.06525825953100081,0.0,0.0,-0.1032356146535619,-0.15189671765853885,-0.17191871188705585,-0.6516276443756414,-0.16061626165909085,-0.04182148852445956
6436,8.0,300.07112,1464.7833,0.0,0.0,0.0,-0.06526840067467307,0.0,0.0,-0.12049396923432888,-0.11998822571191589,-0.20477534248225282,-0.6069325339845775,-0.14841105625453085,0.002910949493663347
6437,8.0,300.36057,1228.7463,0.0,0.0,0.0,-0.06527854181834533,0.0,0.0,-0.08981871513016701,-0.1227352176605229,-0.16095426162744883,-0.6129270634311914,-0.13582666226504786,-0.04383407882708676
6438,8.0,300.92312999999996,1475.6062,0.0,0.0,0.0,-0.06528868296201759,0.0,0.0,-0.1046690089075269,-0.15663012563318984,-0.1872482841074668,-0.6329813803378984,-0.13683210020677686,-0.016632662511515985
6439,8.0,299.94872000000004,1649.2849,0.0,0.0,0.0,-0.06529882410568985,0.0,0.0,-0.13137300251050588,-0.16172116023063585,-0.2082472743474058,-0.6391026977695253,-0.16057126322214985,-0.03678060372746297
6440,8.0,299.44605,1607.0122,0.0,0.0,0.0,-0.06530896524936211,0.0,0.0,-0.12841723037879388,-0.16418143279844583,-0.19589291852812582,-0.6024682148389834,-0.15756742250569386,-0.013084343747824188
6441,8.0,299.75048,1255.0788,0.0,0.0,0.0,-0.06531910639303438,0.0,0.0,-0.08948589489632022,-0.1290338842571529,-0.16299284990114185,-0.6098687301243575,-0.16592876233089385,-0.035185917282829667
6442,8.0,300.28117000000003,1214.4726,0.0,0.0,0.0,-0.06532924753670664,0.0,0.0,-0.06133218358026524,-0.13977326127204687,-0.16806391333911685,-0.5999908690069885,-0.18317187763015683,-0.013363803191654687
6443,8.0,298.79956,1344.7263,0.0,0.0,0.0,-0.0653393886803789,0.0,0.0,-0.1318278606128969,-0.13656116726253786,-0.14037416924385185,-0.6293988420918295,-0.15681528695646385,-0.03344872734413237
6444,8.0,299.85756000000003,1555.249,0.0,0.0,0.0,-0.06534952982405116,0.0,0.0,-0.14237645276646185,-0.15132730149984186,-0.17905311729866683,-0.6376133822425414,-0.14352118219943785,-0.03187659483347497
6445,8.0,300.11604,1444.5869,0.0,0.0,0.0,-0.06535967096772342,0.0,0.0,-0.11691945592905188,-0.17774094828666584,-0.14445795218188984,-0.6251487746798804,-0.13130848887663887,-0.08247353545925422
6446,8.0,300.35606,1131.772,0.0,0.0,0.0,-0.06536981211139568,0.0,0.0,-0.04701944127245755,-0.14619193721052087,-0.15081903498467983,-0.6418155634547643,-0.14667767917595986,-0.05536633012473135
6447,8.0,300.16951,1254.6252,0.0,0.0,0.0,-0.06537995325506794,0.0,0.0,-0.03974162246819276,-0.18370345903011984,-0.15792964928394285,-0.6383081881011133,-0.13949372583445885,-0.07291744407014143
6448,8.0,300.66389,1529.1376,0.0,0.0,0.0,-0.0653900943987402,0.0,0.0,-0.07901957054487442,-0.17379886837511282,-0.2120011937153888,-0.6134527578480734,-0.17409400786424084,-0.015922375204666085
6449,8.0,299.87563,1492.2289,0.0,0.0,0.0,-0.06540023554241246,0.0,0.0,-0.12194650378268287,-0.15794831335078485,-0.17370552777590081,-0.6039911196067824,-0.18141812409207483,-0.022201940010410877
6450,8.0,300.70582,1309.1627,0.0,0.0,0.0,-0.06541037668608474,0.0,0.0,-0.08861242771386572,-0.17361522692698883,-0.13572512447252688,-0.5955272490039634,-0.2001133382421488,-0.019209490251579083
6451,8.0,300.60799,1447.3135,0.0,0.0,0.0,-0.065420517829757,0.0,0.0,-0.13620054141944687,-0.14859664314284685,-0.15514999015211184,-0.6039574898359634,-0.14199599761891385,-0.016900981270496985
6452,8.0,301.19182,1789.8296,0.0,0.0,0.0,-0.06543065897342924,0.0,0.0,-0.17004275025441284,-0.14695053729538887,-0.2270702188050858,-0.6107079849171855,-0.11820581746100589,-0.0016543889643754785
6453,8.0,299.9157,1809.7185,0.0,0.0,0.0,-0.06544080011710152,0.0,0.0,-0.15098570449362886,-0.1862358648725488,-0.21288766596287678,-0.6290334641057693,-0.12485732813995887,-0.026932989138829074
6454,8.0,299.00847000000005,1335.2064,0.0,0.0,0.0,-0.06545094126077376,0.0,0.0,-0.07222970664426702,-0.13081579601551388,-0.2028238937171598,-0.6501185603392063,-0.15109785101469686,-0.02993509922411427
6455,8.0,299.26344,1137.8112,0.0,0.0,0.0,-0.06546108240444604,0.0,0.0,-0.08869758226551983,-0.14004960497181987,-0.1171190155362469,-0.6256685618486795,-0.16132309479634985,-0.028541990780875173
6456,8.0,299.96254,1286.3364,0.0,0.0,0.0,-0.0654712235481183,0.0,0.0,-0.11387933072651489,-0.1317386642065939,-0.14539616097948385,-0.6426409063237193,-0.13463945738787986,-0.04428223428006626
6457,8.0,299.39463,1507.8453,0.0,0.0,0.0,-0.06548136469179056,0.0,0.0,-0.17307923788909085,-0.13642017351112287,-0.14884790890264485,-0.6262765828361864,-0.14894714661743885,-0.02984601934157277
6458,8.0,300.33387,1371.4454,0.0,0.0,0.0,-0.06549150583546282,0.0,0.0,-0.10435624899915992,-0.15803972877480685,-0.15448918896689584,-0.6084925034410344,-0.16471582090118583,-0.04843457574637045
6459,8.0,300.03758999999997,1184.3714,0.0,0.0,0.0,-0.06550164697913508,0.0,0.0,-0.046906383839549655,-0.13101634860780687,-0.18209659635903483,-0.6035355826268244,-0.1201699622498519,-0.0013405897653809087
6460,8.0,300.54122,1476.6552,0.0,0.0,0.0,-0.06551178812280734,0.0,0.0,-0.08270749490734422,-0.16841170130344085,-0.19774712568112182,-0.6063997873469994,-0.14846734229758585,-0.027641243865978375
6461,8.0,300.69023,1937.4869,0.0,0.0,0.0,-0.06552192926647961,0.0,0.0,-0.14338202243070386,-0.2059517866433588,-0.23961382947804377,-0.6186275274337834,-0.15348024517982084,-0.019554655924644282
6462,8.0,300.77314,1741.8074,0.0,0.0,0.0,-0.06553207041015185,0.0,0.0,-0.13966860266921788,-0.19751749281095882,-0.19227987132154584,-0.6253536133200963,-0.17353544361411483,-0.05249853444620194
6463,8.0,300.6148,1037.2825,0.0,0.0,0.0,-0.06554221155382413,0.0,0.0,-0.07188257222625753,-0.14016648337085486,-0.1032589194058619,-0.5996079313966954,-0.14492517193550086,-0.057621618144310945
6464,8.0,301.22722000000005,1086.7784,0.0,0.0,0.0,-0.06555235269749637,0.0,0.0,-0.07294585965594584,-0.12151758488285189,-0.13589004105880287,-0.6284886496595004,-0.1060250617813589,-0.049812669849627754
6465,8.0,300.30786,1363.6403,0.0,0.0,0.0,-0.06556249384116865,0.0,0.0,-0.08794835981032732,-0.14356804501656287,-0.18299620032781883,-0.6425241292496944,-0.15219315410779485,-0.060208712134387235
6466,8.0,300.53047000000004,1377.8573,0.0,0.0,0.0,-0.06557263498484091,0.0,0.0,-0.05960534601783964,-0.17475292440427084,-0.18447594064135783,-0.6147878769748395,-0.15952427189381985,-0.05783046621517264
6467,8.0,299.95805,1305.6778,0.0,0.0,0.0,-0.06558277612851317,0.0,0.0,-0.0876968133802516,-0.12975901669121787,-0.1794376153141138,-0.6256981690166015,-0.15190699201455285,-0.046161626777547864
6468,8.0,300.31833,1396.7168,0.0,0.0,0.0,-0.06559291727218543,0.0,0.0,-0.1145504771952519,-0.14682995040098787,-0.16318662385026583,-0.5932876319104304,-0.14836198455218788,-0.02302720891210858
6469,8.0,299.05881,1590.8405,0.0,0.0,0.0,-0.06560305841585769,0.0,0.0,-0.1931666779415668,-0.14314996789280185,-0.14725913274584485,-0.6481727148471664,-0.18468240048173382,-0.023813224504932277
6470,8.0,299.82445,1747.8077,0.0,0.0,0.0,-0.06561319955952995,0.0,0.0,-0.14255167410625488,-0.16156267778249483,-0.22717553602047977,-0.6382965965199693,-0.14497682742559886,-0.005635147874645795
6471,8.0,299.61614,1571.5123,0.0,0.0,0.0,-0.06562334070320222,0.0,0.0,-0.12965819830626787,-0.16645362588269383,-0.18158868448140783,-0.6220478544713434,-0.15848419093117183,0.0060750209199828846
6472,8.0,300.41262,1332.511,0.0,0.0,0.0,-0.06563348184687447,0.0,0.0,-0.04645569931432055,-0.14030255272678388,-0.2182918353712268,-0.6243739625934124,-0.11433085523607689,-0.012525333667654188
6473,8.0,300.29863,1227.3891,0.0,0.0,0.0,-0.06564362299054674,0.0,0.0,-0.09054138435323891,-0.13761735890177587,-0.14493688510665687,-0.6467316806874475,-0.16773290479644884,-0.01109535811952659
6474,8.0,300.43845,1349.5267,0.0,0.0,0.0,-0.06565376413421899,0.0,0.0,-0.08025119731967652,-0.16048708240384185,-0.16948413534178183,-0.6177302944702334,-0.16094679397421185,-0.06286135226018244
6475,8.0,300.68227,1384.1171,0.0,0.0,0.0,-0.06566390527789126,0.0,0.0,-0.14114734999765888,-0.1302165497738729,-0.14937313722448087,-0.6122190042613114,-0.14389586182141587,-0.028957976556429774
6476,8.0,300.9856,1258.4495,0.0,0.0,0.0,-0.06567404642156353,0.0,0.0,-0.04920724075587655,-0.16573290108656386,-0.16759708875304483,-0.5878219075585054,-0.14953594625054886,-0.08580761363505211
6477,8.0,299.46587,1268.7545,0.0,0.0,0.0,-0.06568418756523578,0.0,0.0,-0.09300174000755711,-0.14167404753213986,-0.15099389155443685,-0.6193674127893044,-0.1782897650708298,-0.05654029790259295
6478,8.0,300.42388,1315.1096,0.0,0.0,0.0,-0.06569432870890805,0.0,0.0,-0.029105342637723675,-0.17621238958330881,-0.19444274485250482,-0.6424641347112734,-0.14398958745566587,-0.08708678007804602
6479,8.0,300.79479,1400.0541,0.0,0.0,0.0,-0.0657044698525803,0.0,0.0,-0.10393603391768791,-0.15780804913944185,-0.16383739385949184,-0.6328418254016254,-0.14424864510873286,-0.033019508522271764
6480,8.0,299.32041,1632.307,0.0,0.0,0.0,-0.06571461099625257,0.0,0.0,-0.1195552031491799,-0.17238054115013485,-0.2042448148623938,-0.6334764543367584,-0.1165581714733959,-0.015598567830458787
6481,8.0,298.85656,1605.6101,0.0,0.0,0.0,-0.06572475213992483,0.0,0.0,-0.18984447404369081,-0.15814630242032485,-0.14007461198428786,-0.6239343336400244,-0.17745715719865784,-0.013560292651046687
6482,8.0,299.52445,1306.6075,0.0,0.0,0.0,-0.06573489328359708,0.0,0.0,-0.057254351460064544,-0.16771999599017484,-0.17220171263998582,-0.6228277936033174,-0.17685198344393183,-0.03819364989291976
6483,8.0,299.65385,1368.3776,0.0,0.0,0.0,-0.06574503442726935,0.0,0.0,-0.09163491223216172,-0.14602138695368885,-0.17829633093147781,-0.6001065213734024,-0.16459265021902983,-0.016368552793450383
6484,8.0,299.97285,1573.0438,0.0,0.0,0.0,-0.0657551755709416,0.0,0.0,-0.08762938057284651,-0.18554798964466082,-0.20498866202580582,-0.6315464763412844,-0.14373292107283486,-0.04020381852780796
6485,8.0,300.10345,1430.1886,0.0,0.0,0.0,-0.06576531671461387,0.0,0.0,-0.13484465066563087,-0.12230528551059187,-0.17759167628193384,-0.6359872374220534,-0.16190092093087685,-0.036619008575014766
6486,8.0,300.16816,1075.0072,0.0,0.0,0.0,-0.06577545785828613,0.0,0.0,-0.10541047493320391,-0.1020785235693659,-0.11928634736764589,-0.6513030193086033,-0.14201255412554786,-0.06382784086806743
6487,8.0,301.20723,1099.3284,0.0,0.0,0.0,-0.06578559900195839,0.0,0.0,-0.0992724409014271,-0.1039092537175449,-0.13098669077737987,-0.6003692773893344,-0.14728014755291885,-0.00927886950547812
6488,8.0,301.74757999999997,1485.5355,0.0,0.0,0.0,-0.06579574014563067,0.0,0.0,-0.09864199466270691,-0.16473237740781985,-0.18819132610803782,-0.6080610514159535,-0.13572206445722487,-0.04551626347085546
6489,8.0,300.73416000000003,2077.709,0.0,0.0,0.0,-0.06580588128930291,0.0,0.0,-0.16294118427854284,-0.20903867333801082,-0.2595917979897157,-0.6027991017916395,-0.1876743253770138,0.0041782517912363456
6490,8.0,300.04512,1890.3553,0.0,0.0,0.0,-0.06581602243297519,0.0,0.0,-0.13897150686541987,-0.2049695622614208,-0.23067972976881676,-0.6472324592843703,-0.15477315230742084,-0.05406941153998545
6491,8.0,299.12715,1196.8304,0.0,0.0,0.0,-0.06582616357664745,0.0,0.0,-0.07880504726020263,-0.13793048358017887,-0.14707101273227888,-0.6235593500430164,-0.12656754232124387,0.00853670423590711
6492,8.0,299.46443999999997,1031.9228,0.0,0.0,0.0,-0.0658363047203197,0.0,0.0,-0.07248753218521244,-0.11354657939367489,-0.1276446474425459,-0.6354707230510773,-0.1009927804909614,-0.053877864714581246
6493,8.0,298.89793,1496.4063,0.0,0.0,0.0,-0.06584644586399196,0.0,0.0,-0.12845844939286188,-0.14597056232867284,-0.18044113821315383,-0.6304905886770764,-0.15821817224991785,-0.017313002198410282
6494,8.0,300.42287999999996,1401.2278,0.0,0.0,0.0,-0.06585658700766422,0.0,0.0,-0.055345612199936646,-0.17115060751624983,-0.1994420499183978,-0.6279157985829644,-0.15697973744769383,-0.08194996988083234
6495,8.0,300.76282000000003,926.56125,0.0,0.0,0.0,-0.06586672815133648,0.0,0.0,-0.03088018191038667,-0.12764868017794387,-0.12312262370375689,-0.5982745347950994,-0.16344990675624985,-0.04339177995968525
6496,8.0,300.04227000000003,1055.3142,0.0,0.0,0.0,-0.06587686929500874,0.0,0.0,-0.016367081554305184,-0.14251210668984984,-0.16190997938677085,-0.6080738791622194,-0.13892638683846686,-0.07603505960057613
6497,8.0,299.42997,1722.5535,0.0,0.0,0.0,-0.065887010438681,0.0,0.0,-0.18961420282596483,-0.17193032373320186,-0.16206873541243885,-0.6348388197587134,-0.19372936611959982,-0.03871169832454717
6498,8.0,300.40362999999996,1946.8876,0.0,0.0,0.0,-0.06589715158235326,0.0,0.0,-0.1880457625986718,-0.2041690744174188,-0.1995903796005368,-0.6451763417839473,-0.17034052419380086,-0.036609159784042763
6499,8.0,300.19077000000004,1618.2909,0.0,0.0,0.0,-0.06590729272602552,0.0,0.0,-0.16536543580529783,-0.15011600153529586,-0.17643859766813383,-0.6179132367757885,-0.14777759255701287,-0.004508550045584246
6500,8.0,300.68431,1283.6697,0.0,0.0,0.0,-0.06591743386969778,0.0,0.0,-0.03931531775361976,-0.14472935122117486,-0.2061588544337948,-0.6011435828507524,-0.14100880831148588,-0.015467445161517986
6501,8.0,299.86255,1358.9987,0.0,0.0,0.0,-0.06592757501337006,0.0,0.0,-0.1195083301995539,-0.13412538494964488,-0.15946795545326184,-0.6336707855734374,-0.17483906079527184,-0.0003623373846299156
6502,8.0,299.79909,1641.5377,0.0,0.0,0.0,-0.0659377161570423,0.0,0.0,-0.1130691359465549,-0.15505158330239985,-0.23086575235467577,-0.6382886121091814,-0.13677299732844386,-0.039046990888637965
6503,8.0,300.46401000000003,1521.0176,0.0,0.0,0.0,-0.06594785730071458,0.0,0.0,-0.17758530293880484,-0.14610890136482588,-0.13865716628689687,-0.6444240137171984,-0.14571589204853888,-0.0052801840731135944
6504,8.0,299.39451,961.44439,0.0,0.0,0.0,-0.06595799844438682,0.0,0.0,-0.05694063200385285,-0.09704495545134141,-0.13826949679863687,-0.6357457900557244,-0.10991023756729588,-0.03258508260814726
6505,8.0,299.29927999999995,1288.6576,0.0,0.0,0.0,-0.0659681395880591,0.0,0.0,-0.1012506262969088,-0.14459481187289686,-0.14587428330417085,-0.6551035380486854,-0.16889227569336987,-0.040705631653083066
6506,8.0,299.97545,1956.3229999999999,0.0,0.0,0.0,-0.06597828073173136,0.0,0.0,-0.10544138919375491,-0.2156180507423448,-0.27361390267858976,-0.6166191036155675,-0.17773761469383684,-0.044257223214597866
6507,8.0,299.24649,1759.5161,0.0,0.0,0.0,-0.06598842187540362,0.0,0.0,-0.15436926068505985,-0.17071880085363383,-0.20976088761178782,-0.6270675157317455,-0.17521932342530083,-0.020427454362032783
6508,8.0,300.09024,1275.5143,0.0,0.0,0.0,-0.06599856301907588,0.0,0.0,-0.04640663673122846,-0.15548712885788488,-0.1858307370850658,-0.5999994816328384,-0.13618644711055586,-0.03349436311538627
6509,8.0,300.70335,1159.0277,0.0,0.0,0.0,-0.06600870416274814,0.0,0.0,-0.14051061350231786,-0.13363823456656687,-0.07816662876969563,-0.6245142369372564,-0.18226934536858383,-0.041522014351403756
6510,8.0,299.75397000000004,1237.8197,0.0,0.0,0.0,-0.0660188453064204,0.0,0.0,-0.06750376632285303,-0.16315566905971085,-0.14560682580777484,-0.6439232148552734,-0.14561613757619388,-0.04679936436398766
6511,8.0,299.60007,1407.8631,0.0,0.0,0.0,-0.06602898645009267,0.0,0.0,-0.11244851012780391,-0.16547272885838685,-0.15003397893970086,-0.6379799254662164,-0.14122887610070486,-0.05479551162789594
6512,8.0,299.80951,1446.0084,0.0,0.0,0.0,-0.06603912759376492,0.0,0.0,-0.03360946123399557,-0.17515490098394282,-0.23078609063181377,-0.6159927731987535,-0.1144933704196159,-0.029841489100375675
6513,8.0,299.28144,1174.4161,0.0,0.0,0.0,-0.06604926873743719,0.0,0.0,-0.06824267389202752,-0.15266167082153384,-0.13608882046342088,-0.6337446312407254,-0.15438626302173786,-0.05380179192357345
6514,8.0,300.01559,1287.8382,0.0,0.0,0.0,-0.06605940988110943,0.0,0.0,-0.07241297015010373,-0.17013342600586184,-0.14892424716517885,-0.6319845955520235,-0.16924860535603684,-0.05311847936088575
6515,8.0,299.27877,1729.463,0.0,0.0,0.0,-0.06606955102478171,0.0,0.0,-0.2052808225596398,-0.16517788321178783,-0.15525484127245986,-0.6420656133144425,-0.13968528076586387,-0.033724639399362766
6516,8.0,299.48289,1827.8951,0.0,0.0,0.0,-0.06607969216845397,0.0,0.0,-0.14557324669946084,-0.19152943803248382,-0.21853177299490678,-0.6511206140256014,-0.12054335504420288,-0.028196131031491475
6517,8.0,298.63279,1431.1306,0.0,0.0,0.0,-0.06608983331212623,0.0,0.0,-0.0995952218532831,-0.14224074818056887,-0.1931919990615658,-0.6339706265430295,-0.15726228223807887,-0.021562153632268877
6518,8.0,299.05183999999997,1413.4861,0.0,0.0,0.0,-0.06609997445579849,0.0,0.0,-0.06452990058410533,-0.15990682446907484,-0.2052277586519028,-0.6381173019147743,-0.16277659193229885,-0.03750402376885896
6519,8.0,299.86093,1531.7779999999998,0.0,0.0,0.0,-0.06611011559947075,0.0,0.0,-0.13479514326574488,-0.13189937580495487,-0.1989277545651408,-0.6190000893630524,-0.15004565158085284,0.004636716658683306
6520,8.0,300.37113999999997,1488.9836,0.0,0.0,0.0,-0.06612025674314301,0.0,0.0,-0.13979006095870486,-0.14243644730488286,-0.17038732621591984,-0.6111827939140454,-0.14105652225869486,-0.033867370874699265
6521,8.0,300.56865,1527.8561,0.0,0.0,0.0,-0.06613039788681528,0.0,0.0,-0.18606260923794982,-0.15245909172904085,-0.1259084028661919,-0.6277186201135043,-0.14470640110640987,-0.008323458152986362
6522,8.0,300.26089,1380.7044,0.0,0.0,0.0,-0.06614053903048753,0.0,0.0,-0.08991455947037612,-0.16550023859860186,-0.16428485523615283,-0.6363660612369404,-0.17284125583810384,-0.08077154684228102
6523,8.0,299.95364,1200.6017,0.0,0.0,0.0,-0.0661506801741598,0.0,0.0,-0.08264408166308583,-0.13429531712391587,-0.14801354810779985,-0.6146826712169564,-0.13484973718113286,-0.02679365002482737
6524,8.0,299.5242,1281.5053,0.0,0.0,0.0,-0.06616082131783205,0.0,0.0,-0.02220133408685108,-0.16039545419729886,-0.2069488146092578,-0.6413719726934854,-0.1161081465739819,-0.07822095316055702
6525,8.0,299.97577,1659.6889,0.0,0.0,0.0,-0.06617096246150432,0.0,0.0,-0.13298073657667686,-0.18366452996127783,-0.18785872676271284,-0.6343638790393404,-0.15876267258865587,-0.01874467190070508
6526,8.0,299.32174,1410.3228,0.0,0.0,0.0,-0.06618110360517658,0.0,0.0,-0.08030463410345033,-0.17699807384334984,-0.17140021154588383,-0.6771128500958353,-0.17975576571301283,-0.06377046152815453
6527,8.0,299.29103,1006.1982,0.0,0.0,0.0,-0.06619124474884884,0.0,0.0,-0.1081382961899189,-0.1127181562444159,-0.08500267458336082,-0.6392156143606693,-0.15557923329197484,-0.022794606205902478
6528,8.0,299.42565,1229.0458,0.0,0.0,0.0,-0.0662013858925211,0.0,0.0,-0.05592659663502535,-0.12779737463011887,-0.18987525658172882,-0.6281363324672294,-0.13654008152795685,-0.050579318180040043
6529,8.0,300.15087,1698.3212,0.0,0.0,0.0,-0.06621152703619336,0.0,0.0,-0.15306827795416286,-0.15944606925110186,-0.20373288038186982,-0.6315260188217654,-0.14040929862481888,-0.006412760685715203
6530,8.0,300.08072999999996,1662.237,0.0,0.0,0.0,-0.06622166817986562,0.0,0.0,-0.08629325934173161,-0.19186532030813283,-0.22711995925249479,-0.6221790095642874,-0.18553346977072782,-0.05813208746519035
6531,8.0,300.17805,1469.4213,0.0,0.0,0.0,-0.0662318093235379,0.0,0.0,-0.13480194217391586,-0.15572621535148087,-0.15613921609224085,-0.6068406727305115,-0.15569875627377083,-0.01916109540030288
6532,8.0,300.57083,1199.6222,0.0,0.0,0.0,-0.06624195046721014,0.0,0.0,-0.0940396222174881,-0.14394881427164186,-0.12666675977103586,-0.5897575597545395,-0.14372714554726487,-0.04095886514457526
6533,8.0,300.23535,1368.3534,0.0,0.0,0.0,-0.06625209161088241,0.0,0.0,-0.14023310456492985,-0.14022081384121685,-0.13549134740945487,-0.6469399035829974,-0.16734051356272284,-0.03055111272841007
6534,8.0,301.06178,1666.8044,0.0,0.0,0.0,-0.06626223275455466,0.0,0.0,-0.09272059755531051,-0.19592427861872083,-0.21802204739960077,-0.6562570624925295,-0.18765305725741482,-0.05043483378203055
6535,8.0,299.48937,1419.0511,0.0,0.0,0.0,-0.06627237389822693,0.0,0.0,-0.12096617417843189,-0.13855692545450385,-0.17183299092859583,-0.6592433030547484,-0.15128621420828686,-0.017316492845004784
6536,8.0,299.25427,1155.7926,0.0,0.0,0.0,-0.0662825150418992,0.0,0.0,-0.01123047603361169,-0.1221188981546969,-0.21798273329572077,-0.6118319021931075,-0.12968077351849588,-0.017148732065698082
6537,8.0,299.09207000000004,1384.4483,0.0,0.0,0.0,-0.06629265618557145,0.0,0.0,-0.13029352638396988,-0.14864552232767086,-0.14189865468180685,-0.6625656589401394,-0.14353881275117786,-0.025657025579401273
6538,8.0,299.49564,1966.0621,0.0,0.0,0.0,-0.06630279732924373,0.0,0.0,-0.17140786158413884,-0.19162795633970683,-0.2345979780380178,-0.6274953403214684,-0.19104532739970584,0.0027532496798995877
6539,8.0,299.68746,1951.7969,0.0,0.0,0.0,-0.06631293847291597,0.0,0.0,-0.2072866828551028,-0.20855076301735778,-0.17746007535894584,-0.6330429960764794,-0.13695935428683587,-0.02265522554864668
6540,8.0,300.71531,1365.5607,0.0,0.0,0.0,-0.06632307961658825,0.0,0.0,-0.05147404132309236,-0.16617168904236884,-0.19745062843685982,-0.5879162006128115,-0.13113306488682588,-0.029417311197762572
6541,8.0,300.35617,1207.7691,0.0,0.0,0.0,-0.0663332207602605,0.0,0.0,-0.1019749795416469,-0.12895446571431488,-0.13620220314961087,-0.6201402389055765,-0.15746558073814285,-0.04036069598779057
6542,8.0,301.47331,1520.1978,0.0,0.0,0.0,-0.06634336190393277,0.0,0.0,-0.07121946995006442,-0.18428234907725183,-0.2066003578998678,-0.6167892181748564,-0.18048505247248783,-0.06642985395261614
6543,8.0,301.04697999999996,1412.2575,0.0,0.0,0.0,-0.06635350304760501,0.0,0.0,-0.12680219077940189,-0.16373280618416985,-0.13875602909915388,-0.6195034821452334,-0.13024828476700487,-0.06339354971620624
6544,8.0,300.27466,1290.002,0.0,0.0,0.0,-0.06636364419127727,0.0,0.0,-0.08490566804528701,-0.15891414334610485,-0.14830857613941686,-0.5963918654467945,-0.13763476653849388,-0.047028211965323155
6545,8.0,299.79316,1215.2501,0.0,0.0,0.0,-0.06637378533494954,0.0,0.0,-0.08842000240062482,-0.13887581552597586,-0.14210985653265087,-0.6596459686444884,-0.14149622213958984,-0.04135260805393466
6546,8.0,299.45277000000004,1413.2387,0.0,0.0,0.0,-0.0663839264786218,0.0,0.0,-0.05533214610610765,-0.17047987648005383,-0.2037772607362498,-0.6401034443632914,-0.1978871872424448,-0.046144676116624955
6547,8.0,300.05792,1751.2295,0.0,0.0,0.0,-0.06639406762229406,0.0,0.0,-0.1271723209084309,-0.17009205500427882,-0.2350656740191758,-0.6598370574808473,-0.14104223543228486,-0.023596338321027276
6548,8.0,300.11111,1859.3625,0.0,0.0,0.0,-0.06640420876596632,0.0,0.0,-0.11254784916760789,-0.19409477450316281,-0.25855714804760377,-0.6217791101473205,-0.13312569213598288,0.005301850501326905
6549,8.0,299.77427,1376.7386,0.0,0.0,0.0,-0.06641434990963858,0.0,0.0,-0.14701299403155285,-0.1150886953833699,-0.15639246782223487,-0.6438538984159324,-0.14478635667180087,-0.01141686744250709
6550,8.0,299.35468,1374.9784,0.0,0.0,0.0,-0.06642449105331084,0.0,0.0,-0.13243162594998387,-0.14416244792272587,-0.14136503664914285,-0.6479810991207554,-0.17041537297868783,0.0073400816043596535
6551,8.0,298.9582,1599.4475,0.0,0.0,0.0,-0.06643463219698312,0.0,0.0,-0.16627156510472585,-0.15624959955813486,-0.16367095739806584,-0.6215377945035043,-0.14090909436914487,-0.012076319991839989
6552,8.0,298.19866,1356.2893,0.0,0.0,0.0,-0.06644477334065536,0.0,0.0,-0.07925386031249702,-0.14392794131958186,-0.18909629016985083,-0.6098806459455334,-0.14790301265439088,-0.013206957142425188
6553,8.0,299.40398,1167.4066,0.0,0.0,0.0,-0.06645491448432764,0.0,0.0,-0.09449934290710901,-0.13770433629035989,-0.12265878820547989,-0.6367614415584614,-0.13546143626650287,-0.05349270606006905
6554,8.0,300.18635,1355.6021,0.0,0.0,0.0,-0.0664650556279999,0.0,0.0,-0.07655924022180872,-0.15046888614762285,-0.18504106061963083,-0.6337405681078244,-0.2101308454882998,-0.058887821065525446
6555,8.0,300.42672000000005,1519.53,0.0,0.0,0.0,-0.06647519677167216,0.0,0.0,-0.17705318451628882,-0.16370477968640385,-0.12114123339820888,-0.6172629733916124,-0.14444281422539587,-0.04091247146224656
6556,8.0,299.98798999999997,1417.4435,0.0,0.0,0.0,-0.06648533791534442,0.0,0.0,-0.09816212042859701,-0.15803310211915284,-0.17467219876880383,-0.6295478810490385,-0.13748454207866787,-0.05606292234322964
6557,8.0,299.09637999999995,1505.1683,0.0,0.0,0.0,-0.06649547905901668,0.0,0.0,-0.1134860073026969,-0.15363266839236386,-0.19041491358498883,-0.6365645467990294,-0.14109254329974985,-0.016724258294055782
6558,8.0,300.10759,1468.5752,0.0,0.0,0.0,-0.06650562020268894,0.0,0.0,-0.05196724080926735,-0.18266311462244583,-0.21177982896604183,-0.6572747911579714,-0.18524254540201585,-0.07504330458819752
6559,8.0,300.71693999999997,1307.1945,0.0,0.0,0.0,-0.0665157613463612,0.0,0.0,-0.05601899896464474,-0.17048351404791284,-0.17085198244677782,-0.6313830593651564,-0.11926301221784288,-0.029420771446854073
6560,8.0,300.14639,1230.2149,0.0,0.0,0.0,-0.06652590249003346,0.0,0.0,-0.05242052330775286,-0.14741300490603088,-0.17412107177441183,-0.6011240575213255,-0.13701280322961087,-0.06589599375317823
6561,8.0,300.12237999999996,1437.4901,0.0,0.0,0.0,-0.06653604363370573,0.0,0.0,-0.18196997049403782,-0.14788465256257888,-0.10710646308308491,-0.6336262633640435,-0.1201436278797529,-0.016988842213168185
6562,8.0,299.39596,1215.8622,0.0,0.0,0.0,-0.06654618477737798,0.0,0.0,-0.09172176296448321,-0.14194423067130485,-0.13592573785982587,-0.6432158041654574,-0.16893986805056685,-0.06983586984576373
6563,8.0,298.43682,1306.8281,0.0,0.0,0.0,-0.06655632592105025,0.0,0.0,-0.11660297739281789,-0.14344842070975686,-0.13719172293226886,-0.6401843321187743,-0.14370140899472486,-0.024562879617917477
6564,8.0,298.79056,1721.6079,0.0,0.0,0.0,-0.0665664670647225,0.0,0.0,-0.10514513512951691,-0.1890374304715418,-0.2291432575821788,-0.6255178206313023,-0.15175508555956085,-0.03125657797803407
6565,8.0,298.78356,1504.0318,0.0,0.0,0.0,-0.06657660820839477,0.0,0.0,-0.09199992139518531,-0.17056670188112283,-0.19462148217014483,-0.6364210300548654,-0.15591914830302187,-0.027354769691705576
6566,8.0,299.03274,1470.6772,0.0,0.0,0.0,-0.06658674935206703,0.0,0.0,-0.1042679341204439,-0.15995004971834084,-0.1828311520190298,-0.6367802272153155,-0.1963125256595378,-0.03109738017532247
6567,8.0,300.0752,1622.2416,0.0,0.0,0.0,-0.06659689049573929,0.0,0.0,-0.1985681318396488,-0.14373438015297887,-0.15081842703461987,-0.6373579013623274,-0.14368278545788687,-0.02161871527935108
6568,8.0,299.1437,1155.6545,0.0,0.0,0.0,-0.06660703163941155,0.0,0.0,-0.07605945562323384,-0.10720374522518591,-0.16802691957796584,-0.6369088795805125,-0.14724276875672984,0.005504351472237194
6569,8.0,300.73776000000004,1241.4507,0.0,0.0,0.0,-0.06661717278308381,0.0,0.0,-0.08119929645149662,-0.1366035211167179,-0.15956719316805584,-0.6517725594049434,-0.14063879977246888,-0.03414565089541337
6570,8.0,300.40299,1774.7233,0.0,0.0,0.0,-0.06662731392675607,0.0,0.0,-0.1052536440827259,-0.18446976994824882,-0.24974815432822375,-0.6639627991055264,-0.15759719179363185,-0.0036090895530144066
6571,8.0,299.81923,1650.2649,0.0,0.0,0.0,-0.06663745507042834,0.0,0.0,-0.1088694777270809,-0.19403778931753882,-0.1987320655733278,-0.6331923592737203,-0.13019659887940388,-0.06039687065145704
6572,8.0,299.64271,1226.7453,0.0,0.0,0.0,-0.06664759621410059,0.0,0.0,-0.0901054101929616,-0.13874603845316788,-0.14404849781647985,-0.5868095997810985,-0.1213718288559669,-0.030384792790745574
6573,8.0,300.14519,1299.4562,0.0,0.0,0.0,-0.06665773735777286,0.0,0.0,-0.13896493087227088,-0.13633852581806485,-0.1196987806883499,-0.6188460044203454,-0.13970582947789187,-0.055892733816683346
6574,8.0,299.53115,1522.1675,0.0,0.0,0.0,-0.06666787850144511,0.0,0.0,-0.1202576286485039,-0.17154576492274884,-0.17089750777377083,-0.6228372573592513,-0.17877863797907784,-0.037368374911721465
6575,8.0,300.08256,1173.2348,0.0,0.0,0.0,-0.06667801964511738,0.0,0.0,-0.07437183590592873,-0.1334629929617719,-0.14879924250034188,-0.6325966188774254,-0.15873140369056984,-0.056838658513788845
6576,8.0,298.33342999999996,1198.2717,0.0,0.0,0.0,-0.06668816078878964,0.0,0.0,-0.01959804329392628,-0.15150712299508887,-0.19313949244138381,-0.6094137808294574,-0.15714604218660685,-0.038736527004997565
6577,8.0,299.42927000000003,1378.2079,0.0,0.0,0.0,-0.0666983019324619,0.0,0.0,-0.07355182171924964,-0.15646732673962285,-0.18892162611761282,-0.6151944739749674,-0.17073445556767886,-0.039625810008262964
6578,8.0,299.59129,1356.7327,0.0,0.0,0.0,-0.06670844307613416,0.0,0.0,-0.1039370674327899,-0.14104882155793486,-0.16742697419375585,-0.6250484426549784,-0.18533957423159184,-0.01947983551076008
6579,8.0,298.26041000000004,1590.6438,0.0,0.0,0.0,-0.06671858421980642,0.0,0.0,-0.17443601017049384,-0.15999205906748687,-0.14908791745383185,-0.6436381470721394,-0.13651557100803785,-0.05540175638797765
6580,8.0,298.25852000000003,1836.0654,0.0,0.0,0.0,-0.06672872536347868,0.0,0.0,-0.14422399273379988,-0.17695814165690885,-0.23693589052375177,-0.6211723861199414,-0.12467005925647688,-0.01242632494738279
6581,8.0,300.04359,1403.0965,0.0,0.0,0.0,-0.06673886650715095,0.0,0.0,-0.1042393604676239,-0.16378792698960984,-0.15847902335566186,-0.6435293949389064,-0.12494723382133188,-0.05464903214043954
6582,8.0,300.49868,1415.5681,0.0,0.0,0.0,-0.0667490076508232,0.0,0.0,-0.07376262840255463,-0.15788376931941484,-0.1986509650353238,-0.6474965325254324,-0.14998352921722186,-0.01955536519971428
6583,8.0,300.41848,1740.2478,0.0,0.0,0.0,-0.06675914879449547,0.0,0.0,-0.16228086945337486,-0.17723393820162783,-0.18947705942492982,-0.6500429414842434,-0.13926568376695286,-0.040418932537288066
6584,8.0,299.53253,1486.9413,0.0,0.0,0.0,-0.06676928993816772,0.0,0.0,-0.14802967904939185,-0.13564429751204987,-0.16831904971429684,-0.6240666235730804,-0.15657219812497286,-0.004497246531443676
6585,8.0,299.74136,1142.6867,0.0,0.0,0.0,-0.06677943108184,0.0,0.0,-0.0952336766653321,-0.1140699838653309,-0.13804457554143887,-0.6298184390907404,-0.17047668474223884,-0.03570902385895626
6586,8.0,300.32183,1449.5938,0.0,0.0,0.0,-0.06678957222551225,0.0,0.0,-0.1108347776210409,-0.14834363459287686,-0.18146189649639483,-0.6257419211559194,-0.17095249685669783,-0.024475702619063774
6587,8.0,299.52734,1673.5736,0.0,0.0,0.0,-0.06679971336918451,0.0,0.0,-0.0999644248584706,-0.17751664511202883,-0.23124351225695777,-0.6345836732510324,-0.15231010343433685,-0.03357869592120927
6588,8.0,299.54812999999996,1416.4211,0.0,0.0,0.0,-0.06680985451285677,0.0,0.0,-0.05232046283387766,-0.16119518210372583,-0.2170409983877788,-0.6319936236104144,-0.13209712169447088,-0.05163739446446405
6589,8.0,299.189,1480.2975,0.0,0.0,0.0,-0.06681999565652903,0.0,0.0,-0.08378647656783142,-0.1982830235265108,-0.16790397181083183,-0.6187329561066883,-0.17706643782759685,-0.04406802712942566
6590,8.0,299.57955,1350.9335,0.0,0.0,0.0,-0.06683013680020129,0.0,0.0,-0.13576241207620687,-0.14613049372445686,-0.12875713525733987,-0.6335512119291364,-0.18375493213519983,-0.03456619325666767
6591,8.0,299.55217999999996,1257.3438,0.0,0.0,0.0,-0.06684027794387357,0.0,0.0,-0.13187207884726088,-0.16177310956326285,-0.08855592078228891,-0.6202593261898294,-0.14863754804938387,-0.03425296624000457
6592,8.0,299.63735,1375.7811,0.0,0.0,0.0,-0.06685041908754581,0.0,0.0,-0.0973132630645713,-0.16499351222359185,-0.15589634004327085,-0.6561537008498284,-0.14094091042228485,-0.05896044576644295
6593,8.0,299.04422,1477.0966,0.0,0.0,0.0,-0.06686056023121809,0.0,0.0,-0.08973639565229273,-0.17241795034382684,-0.18684612514277682,-0.6675335127229284,-0.13758176342576287,-0.028039499791283173
6594,8.0,299.56494,1188.2561,0.0,0.0,0.0,-0.06687070137489033,0.0,0.0,-0.02144974873242538,-0.14659706499800387,-0.1931533739677538,-0.6614041500855073,-0.14402079555874586,-0.07097727075216123
6595,8.0,299.55162,1329.8615,0.0,0.0,0.0,-0.0668808425185626,0.0,0.0,-0.09676909811161641,-0.1256598323516599,-0.1818157436963168,-0.6107388079852274,-0.14532598327755786,-0.03514746849453507
6596,8.0,300.12985,1750.5786,0.0,0.0,0.0,-0.06689098366223487,0.0,0.0,-0.16133270040729786,-0.16331665423559885,-0.20748282780946078,-0.6215562863178294,-0.15446563090207086,-0.03384434983242726
6597,8.0,300.03763,1668.2613,0.0,0.0,0.0,-0.06690112480590713,0.0,0.0,-0.14469651178543386,-0.18814340951080882,-0.17426986755159682,-0.5989239571816923,-0.18699124282209884,-0.004458080463403285
6598,8.0,300.56439,1502.1726,0.0,0.0,0.0,-0.06691126594957938,0.0,0.0,-0.09790683611890241,-0.17349141789726985,-0.18522470206775482,-0.6228865519766164,-0.18311268355931481,-0.025446359737860177
6599,8.0,299.69281,1655.151,0.0,0.0,0.0,-0.06692140709325164,0.0,0.0,-0.11563957919773789,-0.17097299490622084,-0.21651201090807182,-0.6392607647851254,-0.14164536242180886,-0.004599152944351056
6600,8.0,300.7449,1579.608,0.0,0.0,0.0,-0.06693154823692392,0.0,0.0,-0.10458231522897089,-0.16226921707722486,-0.2133098467495428,-0.6439633091617304,-0.14728198153559985,-0.020308099579753377
6601,8.0,299.9637,1272.3701,0.0,0.0,0.0,-0.06694168938059618,0.0,0.0,-0.10031205779552932,-0.13972096743438586,-0.14673571814168784,-0.6632253252852434,-0.17334024098234982,-0.017131964803043284
6602,8.0,299.63647000000003,1372.6806,0.0,0.0,0.0,-0.06695183052426844,0.0,0.0,-0.14914907722986784,-0.14488137926617886,-0.1232301700693709,-0.6610820581437193,-0.14927170075696988,-0.03130700135601047
6603,8.0,298.86115,1541.3622,0.0,0.0,0.0,-0.0669619716679407,0.0,0.0,-0.15684211781911186,-0.13389415114432388,-0.17779936215493083,-0.6159954887090214,-0.16119149387336185,-0.025602827844802376
6604,8.0,299.64848,1442.685,0.0,0.0,0.0,-0.06697211281161294,0.0,0.0,-0.07913368885063703,-0.18125143431812382,-0.17815509400003882,-0.6191414276195014,-0.13343028524854386,-0.06353290098920915
6605,8.0,299.5638,1538.6879,0.0,0.0,0.0,-0.0669822539552852,0.0,0.0,-0.05797781000496435,-0.20969013235730483,-0.2000547622538678,-0.6331910015185864,-0.16154757022350386,-0.06879131538392423
6606,8.0,299.56865,1604.0221,0.0,0.0,0.0,-0.06699239509895748,0.0,0.0,-0.06863648367589353,-0.1877069722952358,-0.2312392160765338,-0.6474897842797664,-0.18511422740935182,-0.04754433522176055
6607,8.0,299.83315,1317.0058,0.0,0.0,0.0,-0.06700253624262972,0.0,0.0,-0.1105469234001319,-0.16033262255859784,-0.12945734173894488,-0.6396621030172344,-0.15528571500300686,-0.06837724262455844
6608,8.0,300.82601,1279.2722,0.0,0.0,0.0,-0.067012677386302,0.0,0.0,-0.1049972107474179,-0.15024244501527484,-0.13362713947797186,-0.6425131152211074,-0.15889231793895084,-0.03348988657644447
6609,8.0,301.69222,1434.6443,0.0,0.0,0.0,-0.06702281852997424,0.0,0.0,-0.14449056870260887,-0.14760292850477486,-0.14400254692444486,-0.6173139196066404,-0.17070992478275782,-0.020719688863124083
6610,8.0,300.75346,1454.4412,0.0,0.0,0.0,-0.06703295967364652,0.0,0.0,-0.05925074293334304,-0.18104315062756784,-0.20181992498807583,-0.6505728915515454,-0.16143121871452085,-0.03417387193719857
6611,8.0,300.4007,1266.2292,0.0,0.0,0.0,-0.06704310081731879,0.0,0.0,-0.07021833832126043,-0.13228935550344287,-0.18239435003342083,-0.6389856471179735,-0.15431860831256086,-0.04778800869855925
6612,8.0,299.60114,1539.0275,0.0,0.0,0.0,-0.06705324196099104,0.0,0.0,-0.07862142303733033,-0.17014576739207982,-0.2190587339744138,-0.6275262140520155,-0.13478165690691388,-0.047148845469228755
6613,8.0,299.58509,1608.3952,0.0,0.0,0.0,-0.06706338310466331,0.0,0.0,-0.16466836026650183,-0.14990637022210687,-0.17433725881574785,-0.6374051897444943,-0.14810518644684387,-0.03302234359605157
6614,8.0,299.71094,1501.6497,0.0,0.0,0.0,-0.06707352424833556,0.0,0.0,-0.11526406871067789,-0.18322805221570082,-0.15797188154811084,-0.6201487907364204,-0.16740252446884282,-0.03461021086751186
6615,8.0,299.98312999999996,1659.8703,0.0,0.0,0.0,-0.06708366539200783,0.0,0.0,-0.15541844063360585,-0.16836401775373483,-0.18077667598376881,-0.6300730384433674,-0.17503625952973384,0.012407914193065788
6616,8.0,299.83531,1570.7765,0.0,0.0,0.0,-0.06709380653568009,0.0,0.0,-0.08442380378798071,-0.14324214325439888,-0.24981088464191475,-0.6275900386758144,-0.15387341661612386,-0.005334106305010305
6617,8.0,300.79411,1399.9443,0.0,0.0,0.0,-0.06710394767935235,0.0,0.0,-0.05756321035554654,-0.16418854581414785,-0.2037963605006348,-0.6487381185354674,-0.17304068372278583,-0.01272888446699309
6618,8.0,301.01905,1516.9749,0.0,0.0,0.0,-0.06711408882302461,0.0,0.0,-0.08846344549866232,-0.15807230476552186,-0.2145867546580638,-0.6362913543070674,-0.13649187108819888,-0.03562028442844836
6619,8.0,300.45794,1675.8102,0.0,0.0,0.0,-0.06712422996669687,0.0,0.0,-0.18788305489761384,-0.14797383883638085,-0.17354755195280983,-0.6438293574985103,-0.1163517420305229,-0.002081814637534108
6620,8.0,300.52603,1298.2881,0.0,0.0,0.0,-0.06713437111036913,0.0,0.0,-0.12377520743066188,-0.16653135229786484,-0.10434058415261391,-0.6323602478940974,-0.12904917420116188,-0.07397826626233643
6621,8.0,299.46996,1278.1668,0.0,0.0,0.0,-0.0671445122540414,0.0,0.0,-0.1085257022331529,-0.14184934993194087,-0.13815574934241087,-0.6436674907950354,-0.16395646087874283,-0.03576237654297176
6622,8.0,298.47059,1560.7611,0.0,0.0,0.0,-0.06715465339771365,0.0,0.0,-0.07091835127209634,-0.19406448845767382,-0.2094495766510638,-0.6602971135562514,-0.19185129692674882,-0.059413151725621546
6623,8.0,298.91062999999997,1401.5365,0.0,0.0,0.0,-0.06716479454138592,0.0,0.0,-0.05016502858515286,-0.17707435131087784,-0.1987927187243138,-0.6427826904102124,-0.17299627297090284,-0.034467723585449465
6624,8.0,299.54817,1098.0667,0.0,0.0,0.0,-0.06717493568505817,0.0,0.0,-0.037902889670723965,-0.14579467224381387,-0.15008728602746185,-0.6688360355939773,-0.14908496889604086,-0.07152620304683663
6625,8.0,300.1198,1375.8503,0.0,0.0,0.0,-0.06718507682873044,0.0,0.0,-0.11163404956492289,-0.14598473769757186,-0.16060532869051186,-0.6430947714410125,-0.16286867610138683,-0.018334869990510785
6626,8.0,300.03411,1439.0625,0.0,0.0,0.0,-0.0671952179724027,0.0,0.0,-0.12561149018938889,-0.16357213511581284,-0.14825544130417287,-0.6395625511949093,-0.15468477663369884,-0.05115288866414705
6627,8.0,300.70488,1508.0342,0.0,0.0,0.0,-0.06720535911607496,0.0,0.0,-0.11674935150226388,-0.15649813967516385,-0.1851572398760968,-0.5992746835713064,-0.13369267649443986,-0.017726335285203083
6628,8.0,300.39324,1623.586,0.0,0.0,0.0,-0.06721550025974722,0.0,0.0,-0.11126562169606188,-0.18621204336269784,-0.19605195826382182,-0.6224108715846703,-0.13829390599354585,-0.04593117418805396
6629,8.0,299.44248999999996,1398.5294,0.0,0.0,0.0,-0.06722564140341948,0.0,0.0,-0.06287630580515824,-0.15527405249435586,-0.2069676509286168,-0.6595906553215294,-0.18910593631080283,-0.02154334973691308
6630,8.0,299.92531,1210.5837,0.0,0.0,0.0,-0.06723578254709174,0.0,0.0,-0.09488643382956191,-0.15935816980492684,-0.1137426128905219,-0.6554895863367854,-0.17069819134659986,-0.07643664202595922
6631,8.0,299.89259,1656.8382,0.0,0.0,0.0,-0.06724592369076401,0.0,0.0,-0.15262984463589285,-0.17979680234206283,-0.17121078443968885,-0.6398724638704955,-0.14265110433856787,-0.014766431119583286
6632,8.0,299.48912,1832.6268,0.0,0.0,0.0,-0.06725606483443626,0.0,0.0,-0.1990073858904998,-0.18461545504762683,-0.17344993543817586,-0.6373675272382774,-0.12923498400449987,-0.05023795523460015
6633,8.0,300.11386,1401.5076,0.0,0.0,0.0,-0.06726620597810853,0.0,0.0,-0.0988626653357354,-0.15613337977166486,-0.17102728484657884,-0.6660828425547584,-0.15995782134660785,-0.007971382722189222
6634,8.0,298.83846,1177.6827,0.0,0.0,0.0,-0.06727634712178078,0.0,0.0,-0.054245317836846045,-0.11702911998737488,-0.18671170738451082,-0.6618061367976804,-0.15653212408351785,-0.03487609276000237
6635,8.0,299.22962,1720.3913,0.0,0.0,0.0,-0.06728648826545305,0.0,0.0,-0.10513915695392691,-0.1829913468598398,-0.23482549321547178,-0.6031695156306964,-0.14120627049097387,-0.0010224567943836291
6636,8.0,300.23158,1690.1454,0.0,0.0,0.0,-0.06729662940912531,0.0,0.0,-0.13128754499707188,-0.17476122292258983,-0.2077132206171988,-0.6346101190786424,-0.13455495232953987,-0.03477305535733337
6637,8.0,300.15536000000003,1275.5898,0.0,0.0,0.0,-0.06730677055279757,0.0,0.0,-0.10848268976640789,-0.13754342204197886,-0.14172133591430686,-0.6322005596783374,-0.15921349795564885,-0.028561407692541473
6638,8.0,299.69593,1299.2466,0.0,0.0,0.0,-0.06731691169646983,0.0,0.0,-0.0956003009490151,-0.16461476946871284,-0.13472344568866887,-0.6515191455549334,-0.1873316948556988,-0.046019515411272555
6639,8.0,300.02616,1312.9838,0.0,0.0,0.0,-0.0673270528401421,0.0,0.0,-0.09066961014014382,-0.16072566227238785,-0.14771903683373386,-0.6394534849541454,-0.14645624349910585,-0.043722351791560164
6640,8.0,299.70685,1409.1057,0.0,0.0,0.0,-0.06733719398381435,0.0,0.0,-0.04808046814117275,-0.18636813454060283,-0.1938843427223948,-0.6381799309034554,-0.18363283549814982,-0.05743862720275115
6641,8.0,301.28791,1715.6458,0.0,0.0,0.0,-0.06734733512748663,0.0,0.0,-0.10748962360839989,-0.21192816878068182,-0.2020957012677928,-0.6476864966541803,-0.19499513840952182,-0.06705142918671084
6642,8.0,300.0767,1520.6344,0.0,0.0,0.0,-0.06735747627115887,0.0,0.0,-0.11616600315469189,-0.17107830198911383,-0.17499059234772682,-0.6624555389192713,-0.16012247448785785,-0.048527177686259554
6643,8.0,299.94446,1200.5414,0.0,0.0,0.0,-0.06736761741483115,0.0,0.0,-0.1111013941198539,-0.13965408279528485,-0.1141791210336019,-0.6298325131346295,-0.13061329798302887,-0.06933330083591403
6644,8.0,299.13032999999996,1653.8587,0.0,0.0,0.0,-0.06737775855850339,0.0,0.0,-0.14808823477267086,-0.16633520734350685,-0.1883083260970848,-0.6331839594303914,-0.11893315878028889,-0.026468131271201175
6645,8.0,299.23798999999997,1841.065,0.0,0.0,0.0,-0.06738789970217567,0.0,0.0,-0.15131444335607286,-0.17612706379238785,-0.23219629159098978,-0.6653641645238304,-0.14472482199322786,-0.033852023175434565
6646,8.0,298.95439,1399.9773,0.0,0.0,0.0,-0.06739804084584794,0.0,0.0,-0.05417707848236135,-0.15449892630035683,-0.21688214103710077,-0.6316759697040644,-0.15611915374026086,-0.005394511108396795
6647,8.0,300.23944,1380.1833,0.0,0.0,0.0,-0.06740818198952019,0.0,0.0,-0.07975760671896293,-0.14549920851465387,-0.19428443465688083,-0.6525415149058335,-0.13813300187766586,-0.014239833896862186
6648,8.0,299.43514,1589.9465,0.0,0.0,0.0,-0.06741832313319245,0.0,0.0,-0.1336861916937999,-0.16601581064698484,-0.18360201243010782,-0.6234331092130574,-0.17001575727174884,-0.0014997282929616587
6649,8.0,300.69237000000004,1688.8364,0.0,0.0,0.0,-0.0674284642768647,0.0,0.0,-0.16769645819035184,-0.16985068869795786,-0.17581692820177983,-0.6199956987788114,-0.20778190884147782,-0.03627385607420087
6650,8.0,300.70353,1782.2627,0.0,0.0,0.0,-0.06743860542053697,0.0,0.0,-0.15185310737423485,-0.17589493832697883,-0.21401531199916682,-0.6415622813272674,-0.15863112232817284,-0.015117357119466985
6651,8.0,301.55124,1591.8378,0.0,0.0,0.0,-0.06744874656420922,0.0,0.0,-0.13125512099387188,-0.15045197500345384,-0.2021718470128078,-0.6240444131308884,-0.13352201478009687,-0.044078273114436864
6652,8.0,301.12817,1218.8524,0.0,0.0,0.0,-0.06745888770788148,0.0,0.0,-0.029200783704392972,-0.13685231454627186,-0.2044476168699088,-0.6274611633955953,-0.13460632410960988,-0.04173646062906796
6653,8.0,300.76813,1242.093,0.0,0.0,0.0,-0.06746902885155374,0.0,0.0,-0.06862311384082403,-0.15081738338701686,-0.15812476072319884,-0.6412686009182834,-0.15407490139850885,-0.06468518622818084
6654,8.0,299.91789,1617.8248,0.0,0.0,0.0,-0.067479169995226,0.0,0.0,-0.14072922221139286,-0.16887895145455484,-0.18217015831629482,-0.6463073214130663,-0.18263732740740082,-0.03845009133422857
6655,8.0,300.44497,1475.2443,0.0,0.0,0.0,-0.06748931113889826,0.0,0.0,-0.1285829575651499,-0.15647224100260784,-0.16338224191457185,-0.6576091738234724,-0.15830655805614086,-0.03744537178682047
6656,8.0,299.51509,1041.5,0.0,0.0,0.0,-0.06749945228257054,0.0,0.0,-0.06051128077324844,-0.14923734144607886,-0.1068413664594219,-0.6608973730479923,-0.15093444417106988,-0.046636064924871254
6657,8.0,300.69271000000003,1406.9036,0.0,0.0,0.0,-0.0675095934262428,0.0,0.0,-0.058711554051629235,-0.16952279083309685,-0.1994292323046328,-0.6586409765328033,-0.15981922899792983,-0.04683585048683855
6658,8.0,300.13455,1740.9386,0.0,0.0,0.0,-0.06751973456991506,0.0,0.0,-0.1299242372525239,-0.17121300345740784,-0.22806462245322578,-0.6382579207636524,-0.14051609518535887,-0.03610632023641636
6659,8.0,300.43116000000003,1576.1498,0.0,0.0,0.0,-0.06752987571358732,0.0,0.0,-0.09264202710280622,-0.18162986296547182,-0.20483829571096582,-0.6485489143442944,-0.13835534947960987,-0.05389274327904966
6660,8.0,299.76379,1455.3027,0.0,0.0,0.0,-0.06754001685725958,0.0,0.0,-0.15052870843352684,-0.15679149584411584,-0.13505548774643888,-0.6470406814379434,-0.16636764147920785,-0.038674827166658265
6661,8.0,300.29511,1448.3227,0.0,0.0,0.0,-0.06755015800093185,0.0,0.0,-0.11798316588403189,-0.16960764039647083,-0.15266311976917685,-0.6348822071279955,-0.18772526145954083,-0.04997258300690995
6662,8.0,299.01009,1307.0124,0.0,0.0,0.0,-0.0675602991446041,0.0,0.0,-0.12182589662327988,-0.13126089651944187,-0.14421233022514884,-0.6364717330898693,-0.1822746446666068,-0.03061142745386267
6663,8.0,301.68127000000004,1680.067,0.0,0.0,0.0,-0.06757044028827637,0.0,0.0,-0.1030669591744169,-0.16314957942660985,-0.24448187812598277,-0.6180655485308204,-0.15043819480209386,-0.030785097507752573
6664,8.0,300.33257000000003,1714.7446,0.0,0.0,0.0,-0.06758058143194862,0.0,0.0,-0.12206912730978488,-0.17242171963419883,-0.22674867401835178,-0.6483841396130323,-0.14382622114204288,-0.02828897412490437
6665,8.0,299.82356,1283.7044,0.0,0.0,0.0,-0.06759072257562089,0.0,0.0,-0.06905728441592335,-0.14828794636738085,-0.17286883650582582,-0.6617821633003144,-0.11931368485534388,-0.04407658503977026
6666,8.0,300.45115,1373.3761,0.0,0.0,0.0,-0.06760086371929315,0.0,0.0,-0.12306263929783688,-0.15609710541808486,-0.1383122863503599,-0.6543320291575434,-0.15562302596129685,-0.02975787164912327
6667,8.0,301.28924,1839.8786,0.0,0.0,0.0,-0.0676110048629654,0.0,0.0,-0.17573465229365984,-0.19267061095760882,-0.1908718893800888,-0.6395105511997774,-0.12965509776096187,-0.030229873943206267
6668,8.0,300.27862000000005,1638.2547,0.0,0.0,0.0,-0.06762114600663767,0.0,0.0,-0.14417046273101686,-0.16854692966178683,-0.18527111905483581,-0.6346772874277714,-0.16006333107952084,-0.028483839344386072
6669,8.0,300.47276,1227.2561,0.0,0.0,0.0,-0.06763128715030992,0.0,0.0,-0.023657314698795177,-0.17969283274930184,-0.16970505426108484,-0.6278725530686964,-0.1832425518246318,-0.05313035262555754
6670,8.0,299.51451000000003,1236.0308,0.0,0.0,0.0,-0.06764142829398219,0.0,0.0,-0.046668474742569854,-0.15440761220134483,-0.17464642168625982,-0.6507806888820533,-0.19068130716877982,-0.04310190937107726
6671,8.0,299.23759,1499.6433,0.0,0.0,0.0,-0.06765156943765446,0.0,0.0,-0.1089664761591539,-0.16779744882781883,-0.17909020225232683,-0.6387877796384455,-0.14844138283002387,-0.06276820417848944
6672,8.0,299.75149,1644.8963,0.0,0.0,0.0,-0.06766171058132671,0.0,0.0,-0.15074841145270984,-0.18836595976277282,-0.16089303092390583,-0.6386356300034295,-0.15739210997339184,-0.06918169531620173
6673,8.0,299.75125,1514.3368,0.0,0.0,0.0,-0.06767185172499898,0.0,0.0,-0.12241894177430888,-0.17724881271309584,-0.16065282985519985,-0.6469261943091443,-0.17099103075800082,-0.07537880588180892
6674,8.0,299.54258,1131.3617,0.0,0.0,0.0,-0.06768199286867123,0.0,0.0,-0.06727297530782574,-0.12208220836857589,-0.15455054126045087,-0.6438630277993334,-0.15914097964599186,-0.00981667469285536
6675,8.0,300.12509,1171.0617,0.0,0.0,0.0,-0.0676921340123435,0.0,0.0,-0.02784799653563327,-0.15244087349224286,-0.17568462813622282,-0.6064300429949854,-0.15519237440379485,-0.05172732243733925
6676,8.0,299.0908,1669.3126,0.0,0.0,0.0,-0.06770227515601576,0.0,0.0,-0.1013487605823439,-0.16631347312886183,-0.23976711395317177,-0.6517640785016064,-0.16869480338138082,-0.0010347412359460089
6677,8.0,300.575,1875.2306,0.0,0.0,0.0,-0.06771241629968802,0.0,0.0,-0.14395179322693588,-0.21887177919846282,-0.2071997155990198,-0.6626043245639553,-0.16923373084456883,-0.04400816735326796
6678,8.0,301.04672,1505.2203,0.0,0.0,0.0,-0.06772255744336028,0.0,0.0,-0.12185926294907289,-0.17451089948538484,-0.16117922341465082,-0.6721714421406564,-0.17251910310130986,0.005825535643260604
6679,8.0,301.16528,1376.4213,0.0,0.0,0.0,-0.06773269858703254,0.0,0.0,-0.11685356427504888,-0.15686003208087984,-0.14468409947170888,-0.6466566900475464,-0.12997591300762387,-0.05781291571019054
6680,8.0,300.45021,1816.844,0.0,0.0,0.0,-0.0677428397307048,0.0,0.0,-0.15463428638121585,-0.18076177107479782,-0.21687916208180677,-0.6581620233430344,-0.14981349571794086,0.011932345258630789
6681,8.0,300.72531000000004,1859.1629999999998,0.0,0.0,0.0,-0.06775298087437708,0.0,0.0,-0.1094075135301809,-0.19035261896884081,-0.26537899620086774,-0.6277581267349034,-0.1804667531756818,-0.05283335787549645
6682,8.0,300.00325,1406.6053,0.0,0.0,0.0,-0.06776312201804932,0.0,0.0,-0.07975920664087083,-0.12816814310671087,-0.2196455375048268,-0.6355955250658945,-0.15599507113301486,-0.004773881135320386
6683,8.0,300.03202000000005,1209.7944,0.0,0.0,0.0,-0.0677732631617216,0.0,0.0,-0.09004598611434692,-0.12047092792705488,-0.15723038512493084,-0.6308116977662674,-0.13293347859201288,-0.04881171857934155
6684,8.0,300.19659,1535.2008,0.0,0.0,0.0,-0.06778340430539384,0.0,0.0,-0.15077511059284485,-0.15056791107989587,-0.16531970782828484,-0.6248809929434525,-0.14800908980735986,-0.02468108233483318
6685,8.0,299.30357999999995,1604.3373,0.0,0.0,0.0,-0.06779354544906611,0.0,0.0,-0.13737972135582288,-0.18791563088832883,-0.16238312665346685,-0.6708155817843434,-0.16022143862512486,-0.062236704851784536
6686,8.0,300.27841,1773.7315,0.0,0.0,0.0,-0.06780368659273837,0.0,0.0,-0.13782569325483687,-0.19754857932402684,-0.2037958133455808,-0.6277801446595764,-0.18539936611999283,-0.023849053028468275
6687,8.0,300.23458999999997,1580.408,0.0,0.0,0.0,-0.06781382773641063,0.0,0.0,-0.05459696831055124,-0.20325411970961982,-0.22255348423181878,-0.6333393514657274,-0.18076170014729082,-0.04092147520263516
6688,8.0,300.59422,1260.6271,0.0,0.0,0.0,-0.0678239688800829,0.0,0.0,-0.06619760993694544,-0.16277176886182285,-0.15422978680879484,-0.6401072744486693,-0.15904506539152583,-0.05669928494928374
6689,8.0,300.66534,1432.3339999999998,0.0,0.0,0.0,-0.06783411002375515,0.0,0.0,-0.08694212748051992,-0.16717015582340986,-0.18128147718358884,-0.6182241525689733,-0.17888232386181083,-0.058099539845478144
6690,8.0,301.10735,1632.9709,0.0,0.0,0.0,-0.06784425116742741,0.0,0.0,-0.14811854108316186,-0.16912871760420484,-0.17913511962925985,-0.6178973287492184,-0.13219399853653188,-0.050582558553859854
6691,8.0,299.66276,1296.3272,0.0,0.0,0.0,-0.06785439231109969,0.0,0.0,-0.09000887988243482,-0.15133247920785287,-0.15270974953877886,-0.6198636722907814,-0.12614056886160488,-0.04922819578119465
6692,8.0,300.04025,1070.8721,0.0,0.0,0.0,-0.06786453345477193,0.0,0.0,-0.07312603376222764,-0.10515677737316591,-0.14723556454851885,-0.6460328218284754,-0.17094037838550183,-0.04773481914780986
6693,8.0,299.85897,1413.2395,0.0,0.0,0.0,-0.0678746745984442,0.0,0.0,-0.07231034514022544,-0.14871447399697585,-0.2085646850737318,-0.6687085991289003,-0.17052812744981585,-0.02388285809155458
6694,8.0,298.70547999999997,1584.7708,0.0,0.0,0.0,-0.06788481574211645,0.0,0.0,-0.13652025222349987,-0.14399853445404887,-0.2012119647955748,-0.6542022723497374,-0.15350172608194085,-0.024533224827240775
6695,8.0,299.02522,1867.7995,0.0,0.0,0.0,-0.06789495688578873,0.0,0.0,-0.14901743577687585,-0.20905993132510883,-0.2096870318119988,-0.6368841562780725,-0.15625317633098784,-0.03280384026498697
6696,8.0,299.38408,1874.7726,0.0,0.0,0.0,-0.06790509802946099,0.0,0.0,-0.20551240086999478,-0.19492461620256182,-0.16944703012311985,-0.6630294741734144,-0.15516151080574886,-0.03453339435093067
6697,8.0,300.08752999999996,1587.3125,0.0,0.0,0.0,-0.06791523917313325,0.0,0.0,-0.13357788539061086,-0.16694171858836482,-0.18198375069539782,-0.6510520068613304,-0.17889342908290684,-0.025225280725041377
6698,8.0,300.6838,1404.1423,0.0,0.0,0.0,-0.0679253803168055,0.0,0.0,-0.07121481507910503,-0.17051927164394184,-0.18509010192447084,-0.6251741363298834,-0.15087769203296886,-0.030780876307835967
6699,8.0,300.28057,1619.5696,0.0,0.0,0.0,-0.06793552146047777,0.0,0.0,-0.06476582573738934,-0.17066182580051084,-0.25688108039468877,-0.6055001124507083,-0.14294577773264988,-0.02227719206883768
6700,8.0,299.74885,1569.9468,0.0,0.0,0.0,-0.06794566260415003,0.0,0.0,-0.10946739661109088,-0.15850635071085886,-0.2092508681739528,-0.6107903925478184,-0.16523626668254984,-0.04545901686670566
6701,8.0,300.25262000000004,1150.9866,0.0,0.0,0.0,-0.06795580374782229,0.0,0.0,-0.07527255546307283,-0.12846250239326187,-0.14613611726251186,-0.6358789007213614,-0.16031323908418485,-0.04587905564266025
6702,8.0,300.3107,1072.6535,0.0,0.0,0.0,-0.06796594489149455,0.0,0.0,-0.0992850659976731,-0.13030432763003588,-0.09647049229389631,-0.6574242556802223,-0.14328856024147985,-0.061605112627201246
6703,8.0,300.08778,1549.9105,0.0,0.0,0.0,-0.06797608603516682,0.0,0.0,-0.1166445003819159,-0.17896574474254384,-0.17552383547785383,-0.6409005175544564,-0.15162365688908985,-0.04516189546038205
6704,8.0,300.41512,1812.7867,0.0,0.0,0.0,-0.06798622717883906,0.0,0.0,-0.11862421882479889,-0.22550042082265878,-0.2069172518686428,-0.6730525036326104,-0.16501629008583982,-0.07456033183528184
6705,8.0,299.36593,1596.2879,0.0,0.0,0.0,-0.06799636832251134,0.0,0.0,-0.10534343830658789,-0.17687847993404684,-0.2030097440505018,-0.6475143859921944,-0.16396040242163185,-0.02367673363696168
6706,8.0,300.20732000000004,1454.4917,0.0,0.0,0.0,-0.0680065094661836,0.0,0.0,-0.08889685005668602,-0.17054044857103184,-0.1826918706602838,-0.6334193576936233,-0.14771964478379387,-0.046232363793529054
6707,8.0,299.13794,1519.174,0.0,0.0,0.0,-0.06801665060985586,0.0,0.0,-0.13235869220778587,-0.16379748193805285,-0.16563477794687984,-0.6081585463405754,-0.13514294136256988,-0.02227519799264088
6708,8.0,299.70083,1832.5751,0.0,0.0,0.0,-0.06802679175352812,0.0,0.0,-0.17681364206014782,-0.18653996149256083,-0.1937034775795448,-0.6560836447379144,-0.15595480457404085,-0.02046340346233068
6709,8.0,299.49414,1759.7078,0.0,0.0,0.0,-0.06803693289720038,0.0,0.0,-0.15320475261013186,-0.16175160839614083,-0.2199508804224618,-0.6385978459072004,-0.16460591366283883,-0.0083349964371751
6710,8.0,299.88435,1170.1041,0.0,0.0,0.0,-0.06804707404087264,0.0,0.0,-0.03818364810118267,-0.12861705343101487,-0.18888173446117582,-0.6428802359973395,-0.14769737354659584,-0.018486752127500384
6711,8.0,300.74033,1157.1872,0.0,0.0,0.0,-0.0680572151845449,0.0,0.0,-0.02988682494959997,-0.13728961302442988,-0.18457955559658382,-0.6448756598167724,-0.14580674005250488,-0.03306547056005787
6712,8.0,301.07907,1738.6762,0.0,0.0,0.0,-0.06806735632821716,0.0,0.0,-0.13966495496885786,-0.1948830020209548,-0.19396618293297183,-0.6565590414198323,-0.17337515758079583,-0.03913258316433526
6713,8.0,300.83797000000004,1782.4122,0.0,0.0,0.0,-0.06807749747188942,0.0,0.0,-0.17066094427292383,-0.18997293389136882,-0.18117493393557382,-0.6662226710685584,-0.1819650663635538,-0.04737219416227155
6714,8.0,301.12369,1492.8444,0.0,0.0,0.0,-0.06808763861556168,0.0,0.0,-0.14912668440265786,-0.16348041571676084,-0.14118032115591286,-0.6469280080268234,-0.13944514049216386,-0.04862444969585955
6715,8.0,300.44226000000003,1445.1369,0.0,0.0,0.0,-0.06809777975923394,0.0,0.0,-0.0924834220514031,-0.14342195461714488,-0.2033801477570578,-0.6336503888489244,-0.14289325084746585,-0.04578710522258546
6716,8.0,300.19244,1656.9891,0.0,0.0,0.0,-0.06810792090290621,0.0,0.0,-0.1046369091443589,-0.18106717478743883,-0.2179792173178738,-0.6452772108314024,-0.13650712050220387,-0.027645439734642473
6717,8.0,300.72001,1728.0651,0.0,0.0,0.0,-0.06811806204657846,0.0,0.0,-0.10957383853409589,-0.17802435433963584,-0.23769044774072076,-0.6488165643582093,-0.15877320025719485,-0.030642906094719372
6718,8.0,299.96693,1502.8546,0.0,0.0,0.0,-0.06812820319025073,0.0,0.0,-0.1141514289083689,-0.16933411353197583,-0.17334473981279383,-0.6265944799225603,-0.13651615869309588,-0.024016394322233577
6719,8.0,299.73192,1023.0668,0.0,0.0,0.0,-0.06813834433392298,0.0,0.0,-0.08123575622984493,-0.12140003773875088,-0.10835097738590889,-0.6431049242070144,-0.15027901321138387,-0.024074240770442578
6720,8.0,299.86609,972.04519,0.0,0.0,0.0,-0.06814848547759525,0.0,0.0,-0.057905603776338146,-0.14242167411842485,-0.09515019194984281,-0.6317390343902884,-0.15605944291186785,-0.060503571966487646
6721,8.0,298.3585,1447.1102,0.0,0.0,0.0,-0.06815862662126752,0.0,0.0,-0.07488997958306552,-0.17630595309754285,-0.18868942972469682,-0.6398867304319035,-0.18667252500314382,-0.04651872347054055
6722,8.0,299.77785,1887.4961,0.0,0.0,0.0,-0.06816876776493977,0.0,0.0,-0.12045688428066889,-0.19938300783507082,-0.2539117915066427,-0.6182423606732704,-0.14879384187730885,-0.05370543994506425
6723,8.0,300.76211,1451.0059,0.0,0.0,0.0,-0.06817890890861204,0.0,0.0,-0.06891225792911033,-0.16583502656414284,-0.2063222714099228,-0.6352740106766634,-0.14862186293783586,-0.03617175390137417
6724,8.0,300.5778,1336.2052,0.0,0.0,0.0,-0.06818905005228429,0.0,0.0,-0.1013645064888979,-0.15203413463710086,-0.15277436449765586,-0.6413740701211924,-0.15878033353789886,-0.04471646159717116
6725,8.0,300.62948,1925.4973,0.0,0.0,0.0,-0.06819919119595656,0.0,0.0,-0.1874922139365408,-0.20074198900169182,-0.1970689067266868,-0.6995551948382223,-0.16949685163053682,-0.017228614677081883
6726,8.0,300.74564,1865.5097,0.0,0.0,0.0,-0.06820933233962882,0.0,0.0,-0.17719913306069285,-0.17769769263989685,-0.21217155145470182,-0.6567171996279414,-0.16581968595762883,-0.01918941979359828
6727,8.0,301.55295,1536.16,0.0,0.0,0.0,-0.06821947348330107,0.0,0.0,-0.07944623800298321,-0.1881426901032378,-0.19936535701832883,-0.6674606904382414,-0.16191980791274085,-0.013110561594161687
6728,8.0,301.10704,1314.7497,0.0,0.0,0.0,-0.06822961462697334,0.0,0.0,-0.07382910064886493,-0.16319652330374285,-0.16262545554738284,-0.6304612854841843,-0.15686029552590586,-0.03461044188853467
6729,8.0,299.70804,1301.6633,0.0,0.0,0.0,-0.06823975577064559,0.0,0.0,-0.07142417078826684,-0.16317506266662485,-0.16107389606675585,-0.6292885700834464,-0.16893236999982683,-0.036711605448653366
6730,8.0,298.74745,1463.4094,0.0,0.0,0.0,-0.06824989691431786,0.0,0.0,-0.1115523917393639,-0.17064396220124783,-0.16264355219416884,-0.6206679598226584,-0.16481521060349485,-0.053948651379817344
6731,8.0,299.34443,1686.6601,0.0,0.0,0.0,-0.06826003805799014,0.0,0.0,-0.12973509385635687,-0.19212291888105582,-0.19084455189239083,-0.6320151045125344,-0.14714891139996686,-0.047568859927180955
6732,8.0,299.91772000000003,1515.2806,0.0,0.0,0.0,-0.06827017920166238,0.0,0.0,-0.11936374954278488,-0.15872147383958984,-0.18252223232854184,-0.6379338833816725,-0.15688930487626884,-0.044286893204026054
6733,8.0,300.65664,1288.2293,0.0,0.0,0.0,-0.06828032034533466,0.0,0.0,-0.06047547352796454,-0.15074397341727186,-0.18037007898364082,-0.6638651116633854,-0.15622721686342583,-0.03861182124894006
6734,8.0,300.23012,1526.9354,0.0,0.0,0.0,-0.0682904614890069,0.0,0.0,-0.10842088151030789,-0.16691046995528083,-0.1888188825574728,-0.6871407026255073,-0.15254649468266684,-0.033470738176054664
6735,8.0,300.60194,1931.7393,0.0,0.0,0.0,-0.06830060263267917,0.0,0.0,-0.14028815444286286,-0.2008144465163428,-0.24609792084297377,-0.6509210240209033,-0.16594863216535483,-0.01635281499289718
6736,8.0,300.35767999999996,1630.8015,0.0,0.0,0.0,-0.06831074377635143,0.0,0.0,-0.13453195155226988,-0.17598132803050484,-0.18520965530376984,-0.6637578996703044,-0.15446744461974984,-0.04382103931154986
6737,8.0,300.19959,1356.2616,0.0,0.0,0.0,-0.0683208849200237,0.0,0.0,-0.1109171751191729,-0.15448257244374286,-0.14686990285243084,-0.6265462289527984,-0.17648612923032483,-0.047145961759444154
6738,8.0,300.77135,1389.8286,0.0,0.0,0.0,-0.06833102606369595,0.0,0.0,-0.1019729226439439,-0.15212110189318387,-0.16837916584272983,-0.6246347427716494,-0.17004602305223585,-0.048824241337327455
6739,8.0,299.77709,1396.6615,0.0,0.0,0.0,-0.06834116720736821,0.0,0.0,-0.06776964314909303,-0.17555072713550784,-0.18122984195849284,-0.6176517878524854,-0.14987310522132385,-0.055099485644645854
6740,8.0,299.56611000000004,1626.5644,0.0,0.0,0.0,-0.06835130835104047,0.0,0.0,-0.11523199934501288,-0.18839637753077484,-0.19080658541114381,-0.6469655894730323,-0.16157662010387083,-0.03992374708091706
6741,8.0,299.38105,1642.0653,0.0,0.0,0.0,-0.06836144949471275,0.0,0.0,-0.1092512906297629,-0.18130365722827782,-0.20859190097141778,-0.6563875285754054,-0.15719046307099085,-0.03882856355133086
6742,8.0,298.87261,1353.7443,0.0,0.0,0.0,-0.068371590638385,0.0,0.0,-0.1183974027899139,-0.15052053150521988,-0.14258654004219584,-0.6772755881943964,-0.14011399701567487,-0.0053086419114471645
6743,8.0,300.00125,1426.5067,0.0,0.0,0.0,-0.06838173178205727,0.0,0.0,-0.1064569596364839,-0.15760922920481987,-0.16955623821889784,-0.6529895335700494,-0.15457119129748886,-0.03657113960054047
6744,8.0,300.72362999999996,1948.8043,0.0,0.0,0.0,-0.06839187292572951,0.0,0.0,-0.16519222070070286,-0.19959513174350582,-0.22760048297991878,-0.6564479081488643,-0.15724161193603886,-0.0031490643817384573
6745,8.0,300.34924,1923.7944,0.0,0.0,0.0,-0.06840201406940179,0.0,0.0,-0.15288485942106086,-0.19002046545355983,-0.24188013557921076,-0.6488820608446735,-0.15253551105158286,-0.051739554392546454
6746,8.0,300.32505,1416.2436,0.0,0.0,0.0,-0.06841215521307405,0.0,0.0,-0.11337414449165689,-0.13973830414359686,-0.17739023202955284,-0.6344095259563455,-0.15417175797556787,-0.016750722360167586
6747,8.0,301.31859,1271.9735,0.0,0.0,0.0,-0.0684222963567463,0.0,0.0,-0.056827411437678846,-0.15820849571146287,-0.17161227465931284,-0.6535217026550704,-0.16036505669429885,-0.06256175041761403
6748,8.0,299.64264,1472.1661,0.0,0.0,0.0,-0.06843243750041857,0.0,0.0,-0.11629031880946088,-0.14760725508270187,-0.18360416052031983,-0.6412354676400134,-0.17293294483965285,-0.02275935219517318
6749,8.0,299.78904,1569.5717,0.0,0.0,0.0,-0.06844257864409083,0.0,0.0,-0.1043462178231699,-0.19125785660818082,-0.18150654029580082,-0.6598726326918584,-0.18055478434436983,-0.07625744874577423
6750,8.0,299.01957999999996,1455.3575,0.0,0.0,0.0,-0.06845271978776309,0.0,0.0,-0.07592681510564323,-0.18132620204300284,-0.18513932561432883,-0.6319380468424295,-0.15373319293478485,-0.03915723148626787
6751,8.0,299.34796,1170.9523,0.0,0.0,0.0,-0.06846286093143536,0.0,0.0,-0.051400896824873546,-0.14559235659634687,-0.15894701317934884,-0.6439173278721924,-0.17453028295979783,-0.033919265491820866
6752,8.0,299.33567999999997,1437.1121,0.0,0.0,0.0,-0.0684730020751076,0.0,0.0,-0.10402666913913289,-0.17947369715017483,-0.15334584768655685,-0.6196545577351434,-0.16322230038628685,-0.03190435585971477
6753,8.0,300.36964,1810.0029,0.0,0.0,0.0,-0.06848314321877988,0.0,0.0,-0.16570354723116684,-0.1928410497569298,-0.19165107870698883,-0.6459239582377313,-0.16678660013055582,-0.03392340360522927
6754,8.0,300.31028,1904.3809,0.0,0.0,0.0,-0.06849328436245213,0.0,0.0,-0.2059819308338338,-0.16627778646033983,-0.2066245340472538,-0.6070359361572824,-0.11293767687858089,-0.021341171891459683
6755,8.0,299.51987,1443.525,0.0,0.0,0.0,-0.0685034255061244,0.0,0.0,-0.10071248916879881,-0.15252982671852186,-0.18555322814767783,-0.6546270166591563,-0.14148794388627287,-0.035872957592635264
6756,8.0,300.29963,1264.472,0.0,0.0,0.0,-0.06851356664979666,0.0,0.0,-0.07677595617969693,-0.14062859634396185,-0.16696336161050082,-0.6524780449195693,-0.15810218551097086,-0.051719826413099454
6757,8.0,300.19622999999996,1634.1663,0.0,0.0,0.0,-0.06852370779346892,0.0,0.0,-0.1076530507170289,-0.17140212658857282,-0.2176905727618868,-0.6951559466140503,-0.17113834719003984,-0.04406234482286486
6758,8.0,300.67706,1722.3044,0.0,0.0,0.0,-0.06853384893714118,0.0,0.0,-0.14073731807969186,-0.17965324506789485,-0.20314695837904378,-0.6657853624578993,-0.15353667307788985,-0.04163928183847716
6759,8.0,300.48421,1286.9206,0.0,0.0,0.0,-0.06854399008081344,0.0,0.0,-0.07179981502434003,-0.15335496693745684,-0.16603695717657185,-0.6542859870729993,-0.16111157883797483,-0.04011006654905536
6760,8.0,299.86797,1114.8469,0.0,0.0,0.0,-0.0685541312244857,0.0,0.0,-0.08337506865622862,-0.13363371547112088,-0.12187685297080887,-0.6469091413099614,-0.16225250858307586,-0.03221435567480937
6761,8.0,298.61421,1559.8762,0.0,0.0,0.0,-0.06856427236815796,0.0,0.0,-0.092260303366133,-0.16459457539421984,-0.21730851667918077,-0.6335878713177544,-0.17434664151167384,-0.020768894314480278
6762,8.0,299.24822,1858.9225,0.0,0.0,0.0,-0.06857441351183022,0.0,0.0,-0.14457043307549086,-0.19198427586987282,-0.22851130362730981,-0.6155725783822834,-0.15541364796063287,-0.018206556050847183
6763,8.0,299.02964,1719.3784,0.0,0.0,0.0,-0.06858455465550248,0.0,0.0,-0.1137954032207319,-0.17917401830059881,-0.2296786792000208,-0.6128895934424934,-0.14310342931570885,-0.014533658187360386
6764,8.0,299.32048,1528.0753,0.0,0.0,0.0,-0.06859469579917474,0.0,0.0,-0.12357551610095388,-0.16284585770913484,-0.17807536134966984,-0.6413945884357174,-0.15189930144629385,-0.026612170852416777
6765,8.0,299.65582,1576.9456,0.0,0.0,0.0,-0.068604836942847,0.0,0.0,-0.1310300072191549,-0.18018908211827783,-0.16813297646593284,-0.6598312819552774,-0.15057220726031986,-0.05307690368278255
6766,8.0,299.02481,1482.6808,0.0,0.0,0.0,-0.06861497808651927,0.0,0.0,-0.14803507967242485,-0.14790750135233385,-0.15475536976816587,-0.6778076762194093,-0.14513654603886186,-0.04610510160746926
6767,8.0,300.91061,1464.8761,0.0,0.0,0.0,-0.06862511923019152,0.0,0.0,-0.08440502319737722,-0.16451062762343485,-0.1963701086627208,-0.6772801883498504,-0.14752738057731887,-0.03682946366053507
6768,8.0,300.28967,1235.8779,0.0,0.0,0.0,-0.06863526037386379,0.0,0.0,-0.05052435746811585,-0.15771200316246284,-0.16743963982000584,-0.6840238237278954,-0.15302972378785787,-0.06026623231606404
6769,8.0,299.86413,1126.282,0.0,0.0,0.0,-0.06864540151753605,0.0,0.0,-0.017597838960521483,-0.14678579296162983,-0.17797798801505985,-0.6563527842294763,-0.16970435511851584,-0.042061370419384056
6770,8.0,300.18522,1480.9125,0.0,0.0,0.0,-0.06865554266120831,0.0,0.0,-0.11872759060000089,-0.17898123733657284,-0.15245160381080186,-0.6496587778413294,-0.15490201745513885,-0.06902420382665853
6771,8.0,299.5681,1668.3364,0.0,0.0,0.0,-0.06866568380488057,0.0,0.0,-0.13786283900350288,-0.16143835199522485,-0.2078314263738648,-0.6284735826305134,-0.16013836224942585,-0.03285769552105207
6772,8.0,299.03654,1541.8096,0.0,0.0,0.0,-0.06867582494855283,0.0,0.0,-0.13756139709875287,-0.16988372065121782,-0.16122648139931484,-0.6482340874057234,-0.15650449275329084,-0.04202223059452126
6773,8.0,300.58317999999997,1603.3352,0.0,0.0,0.0,-0.06868596609222509,0.0,0.0,-0.1082176944677549,-0.1793759691780298,-0.1997802018742708,-0.6441198664346814,-0.14715561911562886,-0.02096198634628698
6774,8.0,299.90223,1584.4553,0.0,0.0,0.0,-0.06869610723589735,0.0,0.0,-0.13567466461754688,-0.14243391417963286,-0.2035262584214778,-0.6614861118860964,-0.12742674800854087,-0.01908260803430678
6775,8.0,299.48165,1569.5479,0.0,0.0,0.0,-0.06870624837956961,0.0,0.0,-0.1048084219887859,-0.18228621598274883,-0.19000874214990282,-0.6368692108390974,-0.16914634815594484,-0.021647807716222277
6776,8.0,300.18271,1559.0075,0.0,0.0,0.0,-0.06871638952324188,0.0,0.0,-0.12513236474710288,-0.16376016393686985,-0.18500683303125282,-0.6718339386648474,-0.17191142661883685,-0.019045793618423484
6777,8.0,300.02418,1398.4433,0.0,0.0,0.0,-0.06872653066691413,0.0,0.0,-0.12367158234293488,-0.15705787929540585,-0.14436237229995685,-0.6514573879613383,-0.15051301318947785,-0.06721162200102064
6778,8.0,299.45979,1283.1773,0.0,0.0,0.0,-0.0687366718105864,0.0,0.0,-0.09625443190882281,-0.15064158449466686,-0.14315783071357788,-0.6617704906591624,-0.16217369799029785,-0.045929124383101656
6779,8.0,299.11772,1447.6967,0.0,0.0,0.0,-0.06874681295425865,0.0,0.0,-0.09049354780276782,-0.17227368379458885,-0.17729640507029282,-0.6614935896718344,-0.14350532483537287,-0.07247235369871442
6780,8.0,298.51001,1678.2947,0.0,0.0,0.0,-0.06875695409793092,0.0,0.0,-0.1043893620124279,-0.1898144717082298,-0.2159558277956808,-0.6670877029439304,-0.16682499217684485,-0.022651021573981776
6781,8.0,299.52862999999996,1666.2735,0.0,0.0,0.0,-0.0687670952416032,0.0,0.0,-0.1024865188546319,-0.1944647830421798,-0.2095542251213918,-0.6455397844623164,-0.15669042414664083,-0.05534124103900524
6782,8.0,300.32384,1505.3536,0.0,0.0,0.0,-0.06877723638527544,0.0,0.0,-0.11362837907424789,-0.17285562372452182,-0.17110590292183783,-0.6383928552794693,-0.16195265748098286,-0.02135439885826508
6783,8.0,300.92728,1489.5768,0.0,0.0,0.0,-0.06878737752894772,0.0,0.0,-0.1079771286290129,-0.17269501345117083,-0.17212199012211785,-0.6472601716746054,-0.18151036024867784,-0.034164969521819966
6784,8.0,300.05978,1575.6264,0.0,0.0,0.0,-0.06879751867261996,0.0,0.0,-0.10447538694591789,-0.18056013430489784,-0.1939155508254748,-0.6185383107624784,-0.18924689966471483,-0.012021952031224288
6785,8.0,300.17895,1633.6296,0.0,0.0,0.0,-0.06880765981629224,0.0,0.0,-0.11486521294131388,-0.18371756347151183,-0.1979998403885628,-0.6422623763513614,-0.15025174665119287,-0.029373432402182074
6786,8.0,300.74023,1567.4234,0.0,0.0,0.0,-0.0688178009599645,0.0,0.0,-0.1151190320913639,-0.16523400713482683,-0.19610452567900982,-0.6246476617104244,-0.14296444179949186,-0.040900144261529964
6787,8.0,300.6577,1313.4132,0.0,0.0,0.0,-0.06882794210363676,0.0,0.0,-0.08688935741531192,-0.14484498332258688,-0.16751047613449682,-0.6536626457439804,-0.16075302002508784,-0.05935674814555495
6788,8.0,299.80437,1446.6222,0.0,0.0,0.0,-0.06883808324730901,0.0,0.0,-0.1005224672847951,-0.15349858500663086,-0.18571598651124083,-0.6590657715047273,-0.15956724383056084,-0.05801502364138705
6789,8.0,300.05498,1841.0689,0.0,0.0,0.0,-0.06884822439098126,0.0,0.0,-0.16468376166802184,-0.18553041988792682,-0.20942479255361782,-0.6661919290605244,-0.17506009117208582,-0.05363247884511354
6790,8.0,299.30935,1866.5334,0.0,0.0,0.0,-0.06885836553465353,0.0,0.0,-0.15014880044103285,-0.20124336541617383,-0.21598738040379478,-0.6474439752427453,-0.15077417840275287,-0.027798248995473576
6791,8.0,298.33142000000004,1310.3375,0.0,0.0,0.0,-0.06886850667832581,0.0,0.0,-0.0917732299900626,-0.13483544022222185,-0.17170122788559183,-0.6594835750509613,-0.16629321825936286,-0.027256973831803873
6792,8.0,298.76166,1310.5497,0.0,0.0,0.0,-0.06887864782199805,0.0,0.0,-0.08767695975779223,-0.13601075967571688,-0.17468666798023183,-0.6345900871241653,-0.15094042234665989,-0.0053355094537487855
6793,8.0,299.29966,1731.8678,0.0,0.0,0.0,-0.06888878896567033,0.0,0.0,-0.13526884781999587,-0.19128328918569082,-0.1998924193228458,-0.6368155187162984,-0.11866002708333288,-0.017101155920502684
6794,8.0,300.16545,1754.5348,0.0,0.0,0.0,-0.06889893010934257,0.0,0.0,-0.16634315122429086,-0.17906296608963881,-0.1879286612846148,-0.6487465487762994,-0.13828469555013687,-0.013966079051094685
6795,8.0,300.13687000000004,1568.3670000000002,0.0,0.0,0.0,-0.06890907125301485,0.0,0.0,-0.1024902172174969,-0.18738795050125082,-0.18686623815726183,-0.6606194486780634,-0.17079301129095784,-0.05245689695984266
6796,8.0,300.82292,1362.3912,0.0,0.0,0.0,-0.06891921239668711,0.0,0.0,-0.08608245265842661,-0.16742817996137485,-0.16062227023218384,-0.6590909710347144,-0.18237765167177283,-0.04785786722670375
6797,8.0,300.16868,1427.3135,0.0,0.0,0.0,-0.06892935354035937,0.0,0.0,-0.06353532670994853,-0.16873451265279985,-0.2015978306986568,-0.6402001286878334,-0.16796559768191383,-0.08721272503897583
6798,8.0,300.49293,1664.5787,0.0,0.0,0.0,-0.06893949468403163,0.0,0.0,-0.12896847896319788,-0.18629406595829284,-0.19072780521586882,-0.6614270596702684,-0.15532400572428584,-0.06368692513691014
6799,8.0,300.75561,1560.7397,0.0,0.0,0.0,-0.06894963582770389,0.0,0.0,-0.09601594323278581,-0.17209797609474783,-0.20631199705390882,-0.6528033691291764,-0.16799726174753885,-0.07007872562973173
6800,8.0,298.61497,1111.9583,0.0,0.0,0.0,-0.06895977697137615,0.0,0.0,-0.08543456331923492,-0.12645633812276888,-0.1261166662917459,-0.6580717123616213,-0.16399279602732883,-0.034716793632280765
6801,8.0,298.78489,1257.2316,0.0,0.0,0.0,-0.06896991811504842,0.0,0.0,-0.058261483555960746,-0.16140937304236486,-0.16249615470212184,-0.6338828081568624,-0.14454584149556385,-0.03328539953401317
6802,8.0,299.8759,1810.6738,0.0,0.0,0.0,-0.06898005925872067,0.0,0.0,-0.14857537502324786,-0.18250359865920282,-0.2193206489927628,-0.6406773897499354,-0.16643571162092582,-0.012812098644705687
6803,8.0,299.10794,1861.0337,0.0,0.0,0.0,-0.06899020040239294,0.0,0.0,-0.12653184552022087,-0.2006552142631278,-0.23852069474015977,-0.6562079502601823,-0.16326077349258383,-0.00976404222701094
6804,8.0,299.315,1508.388,0.0,0.0,0.0,-0.06900034154606519,0.0,0.0,-0.098996521753446,-0.16291545785850384,-0.1966002988204388,-0.6645930913302314,-0.15593171260426186,-0.015087728673292887
6805,8.0,299.64371,1532.6524,0.0,0.0,0.0,-0.06901048268973746,0.0,0.0,-0.12455035388966289,-0.15372969722193985,-0.18760799802546782,-0.6494171987524874,-0.14417299585626686,-0.013098622468233387
6806,8.0,299.15792999999996,1736.8818,0.0,0.0,0.0,-0.06902062383340972,0.0,0.0,-0.16429117791677683,-0.17631622745355685,-0.18736129189111983,-0.6735261068618513,-0.1301490977147159,-0.03610727066501017
6807,8.0,300.54942,1698.6243,0.0,0.0,0.0,-0.06903076497708198,0.0,0.0,-0.13985220358733785,-0.17964966829504184,-0.1968375108013498,-0.6416340599643514,-0.16930449623155283,-0.033237329936019064
6808,8.0,300.94737000000003,1568.4029,0.0,0.0,0.0,-0.06904090612075424,0.0,0.0,-0.11311454981603689,-0.17767900830805283,-0.18596175032299583,-0.6539117735460673,-0.16728217062196485,-0.05960586277539065
6809,8.0,299.73337000000004,1316.3157,0.0,0.0,0.0,-0.0690510472644265,0.0,0.0,-0.07066317132716203,-0.14322888994309085,-0.18623503400746683,-0.6223413828928124,-0.15911303420823386,-0.05013409912585036
6810,8.0,299.58928,1262.0875,0.0,0.0,0.0,-0.06906118840809876,0.0,0.0,-0.09273375764760931,-0.13874870330093086,-0.15216063891208584,-0.6495026765309234,-0.17770811898342584,-0.056066782826110655
6811,8.0,300.01167000000004,1569.4823,0.0,0.0,0.0,-0.06907132955177102,0.0,0.0,-0.11222994194873288,-0.17172692390812783,-0.1931265633701078,-0.6526918508231704,-0.15960062028885486,-0.03776532273114716
6812,8.0,300.09873,1719.8257,0.0,0.0,0.0,-0.06908147069544328,0.0,0.0,-0.13000026140752688,-0.17928940722198683,-0.2134943899902558,-0.6740936181103604,-0.16294415310133584,-0.01059145668579539
6813,8.0,299.50277,1495.0784,0.0,0.0,0.0,-0.06909161183911554,0.0,0.0,-0.07904756968488773,-0.17205040400255284,-0.20336851564590983,-0.6601877534729583,-0.14392423282421585,-0.03857592889064776
6814,8.0,298.98033,1316.2649,0.0,0.0,0.0,-0.0691017529827878,0.0,0.0,-0.06542359933130654,-0.17860498717693982,-0.15608309216920185,-0.6769180122341064,-0.13292971943414186,-0.028743584994270974
6815,8.0,299.01732000000004,1552.5184,0.0,0.0,0.0,-0.06911189412646007,0.0,0.0,-0.09400785986660341,-0.18699340104481182,-0.19092558150288783,-0.6436004643009203,-0.16445029871248085,-0.07851203559628463
6816,8.0,299.48208,1652.7962,0.0,0.0,0.0,-0.06912203527013233,0.0,0.0,-0.13534007930202588,-0.1911580920033348,-0.17591059304102383,-0.6498970233373423,-0.17636588684095783,-0.05224967008914095
6817,8.0,299.53604,1442.3452,0.0,0.0,0.0,-0.06913217641380459,0.0,0.0,-0.11464045380413189,-0.17073689750041984,-0.15305956400330287,-0.6564725199937933,-0.14745796281296786,-0.08085340833111011
6818,8.0,299.86114,1410.3429,0.0,0.0,0.0,-0.06914231755747685,0.0,0.0,-0.12789198179195588,-0.14707107352728485,-0.15374595988604484,-0.6351064292426244,-0.16085151806730885,-0.05522103917964225
6819,8.0,300.55834,1428.4942,0.0,0.0,0.0,-0.06915245870114911,0.0,0.0,-0.11032920635114489,-0.14845706794157187,-0.17544029300710884,-0.6636832940654414,-0.16650851364061084,-0.04690926146983366
6820,8.0,300.35503,1425.8572,0.0,0.0,0.0,-0.06916259984482137,0.0,0.0,-0.09408475035044192,-0.14618697228503086,-0.19315327264274382,-0.6522172444763303,-0.16755814955170184,-0.037419329232750265
6821,8.0,299.84387999999996,1542.6584,0.0,0.0,0.0,-0.06917274098849363,0.0,0.0,-0.09542361647607771,-0.14712955832305685,-0.22637644646161578,-0.6647635605270554,-0.1865719497982178,-0.011961953439802888
6822,8.0,300.39883,1789.0029,0.0,0.0,0.0,-0.06918288213216589,0.0,0.0,-0.14957253471165988,-0.17477717147916383,-0.2194625040067628,-0.6500094231709354,-0.15502269554204884,0.0032979282493301766
6823,8.0,299.84933,1635.8936,0.0,0.0,0.0,-0.06919302327583815,0.0,0.0,-0.13421482453597186,-0.18284298678019784,-0.18021299482063782,-0.6642163852080534,-0.17313853328494283,-0.015355537767473585
6824,8.0,301.3735,1608.6735,0.0,0.0,0.0,-0.06920316441951041,0.0,0.0,-0.1155665643955319,-0.18176520278132882,-0.19166482851084582,-0.6398705082978025,-0.15893741770090186,-0.009398258738260922
6825,8.0,301.06841000000003,1752.9512,0.0,0.0,0.0,-0.06921330556318267,0.0,0.0,-0.13176493778168688,-0.1925765306858238,-0.2085119251410248,-0.6675038751575033,-0.13130318957861586,-0.017619431320152486
6826,8.0,300.46637000000004,1634.7187,0.0,0.0,0.0,-0.06922344670685494,0.0,0.0,-0.1111573863203799,-0.17975718426315282,-0.2059990851580268,-0.6506537185120224,-0.12364816613312389,-0.03353168212981937
6827,8.0,300.57475,1356.7971,0.0,0.0,0.0,-0.06923358785052719,0.0,0.0,-0.0903400839823721,-0.16440273675278685,-0.15768963060025484,-0.6764590302038084,-0.16242234956483784,-0.07886265559463812
6828,8.0,300.26191,1286.7135,0.0,0.0,0.0,-0.06924372899419946,0.0,0.0,-0.1012631946511492,-0.15362249536135986,-0.1362430979236469,-0.6679171393432894,-0.16646480203129685,-0.05703724236113754
6829,8.0,298.50073,1339.4359,0.0,0.0,0.0,-0.06925387013787171,0.0,0.0,-0.0967536683390936,-0.15184463660339884,-0.15855677003583485,-0.6499044504605754,-0.18245897512479883,-0.08093657184631772
6830,8.0,298.87408,1484.8658,0.0,0.0,0.0,-0.06926401128154398,0.0,0.0,-0.1043855724570539,-0.16890248925437784,-0.17807406438954182,-0.6410552003147224,-0.16828535914847184,-0.046400523793375156
6831,8.0,299.20293,1591.7104,0.0,0.0,0.0,-0.06927415242521624,0.0,0.0,-0.1129817735229329,-0.18446640595791683,-0.18639204724296282,-0.6387230025595524,-0.16756273957465484,-0.046429364944221556
6832,8.0,299.23851,1460.6058,0.0,0.0,0.0,-0.0692842935688885,0.0,0.0,-0.07362784384775244,-0.16894852120642084,-0.2014113217527498,-0.6485504544844464,-0.15546110859531687,-0.026636284178296575
6833,8.0,299.72697,1502.7839,0.0,0.0,0.0,-0.06929443471256076,0.0,0.0,-0.059557929966160036,-0.19707170329696283,-0.2001791285711418,-0.6350362616731994,-0.14000050287197388,-0.04385074375148146
6834,8.0,300.91974,1784.2603,0.0,0.0,0.0,-0.06930457585623302,0.0,0.0,-0.14014681618641386,-0.19890786446567782,-0.2033158874357158,-0.6483716867693035,-0.14049610376088587,-0.024834986919022375
6835,8.0,301.25421,1771.5148,0.0,0.0,0.0,-0.06931471699990528,0.0,0.0,-0.14618954594028485,-0.19483010023323383,-0.1974766183019248,-0.6751457364841964,-0.17221635410393082,-0.03039230502698697
6836,8.0,300.54465,1366.3954,0.0,0.0,0.0,-0.06932485814357756,0.0,0.0,-0.09873611445124582,-0.16390897997905685,-0.15270499739580987,-0.7042289426469853,-0.17109141344540785,-0.03615205834593037
6837,8.0,300.07602,1184.7818,0.0,0.0,0.0,-0.0693349992872498,0.0,0.0,-0.07040415319084893,-0.12690065842411988,-0.16283926145098385,-0.6819268925134444,-0.16934057806761385,-0.01991937631138938
6838,8.0,299.82524,1654.8309,0.0,0.0,0.0,-0.06934514043092208,0.0,0.0,-0.1184352172836459,-0.17259741720153884,-0.2119946379872418,-0.6409987622841523,-0.13621062325794187,-0.04074853772856756
6839,8.0,299.92837000000003,1859.5693,0.0,0.0,0.0,-0.06935528157459432,0.0,0.0,-0.14341979639443186,-0.18546452823392381,-0.23637829899372176,-0.6533660674397104,-0.15806057132936385,-0.03281836216542017
6840,8.0,299.59311,1566.516,0.0,0.0,0.0,-0.0693654227182666,0.0,0.0,-0.1281173184816949,-0.16483444209039283,-0.1832299875233918,-0.6443311797430364,-0.17128834873484383,-0.039259754157886066
6841,8.0,298.39714,1575.9411,0.0,0.0,0.0,-0.06937556386193887,0.0,0.0,-0.12940878679415285,-0.16492495572182586,-0.18471299050225284,-0.6243788667238964,-0.17181705250452284,-0.003235451957439247
6842,8.0,298.07822000000004,1608.4811,0.0,0.0,0.0,-0.06938570500561111,0.0,0.0,-0.15319285705395785,-0.15962667094892583,-0.17611856262404882,-0.6434672523102734,-0.14533483908343187,-0.03190626482290317
6843,8.0,299.84907000000004,1808.2845,0.0,0.0,0.0,-0.06939584614928339,0.0,0.0,-0.14585196140446785,-0.2010497029245608,-0.20277167080700578,-0.6435902304749104,-0.17650666780985183,-0.03740054864214676
6844,8.0,300.43382,1678.4016,0.0,0.0,0.0,-0.06940598729295563,0.0,0.0,-0.0984107223538821,-0.1993920054959588,-0.21238946102120781,-0.6919020864354193,-0.17896203624717782,-0.04700639365091986
6845,8.0,300.10817000000003,1228.5954,0.0,0.0,0.0,-0.06941612843662791,0.0,0.0,-0.04129780540902606,-0.15825206546576284,-0.17391246384382383,-0.6525032951120613,-0.11744879804629389,-0.05291827431337705
6846,8.0,299.87733,1104.9308,0.0,0.0,0.0,-0.06942626958030017,0.0,0.0,-0.03606713278879886,-0.16497552703431687,-0.13482871224155787,-0.6620747899291943,-0.12378913961953689,-0.052361457919673546
6847,8.0,300.77544,1589.6002,0.0,0.0,0.0,-0.06943641072397243,0.0,0.0,-0.12372287306299688,-0.17036416331863383,-0.18911173210137483,-0.6313425090961544,-0.14936219412340085,-0.03698932615531226
6848,8.0,300.47741,1723.5391,0.0,0.0,0.0,-0.06944655186764469,0.0,0.0,-0.14875003907548587,-0.17163683584173683,-0.20352597471144981,-0.6717424827108214,-0.17339321369757785,-0.03749469072218786
6849,8.0,300.39748,1392.8036,0.0,0.0,0.0,-0.06945669301131695,0.0,0.0,-0.09012355446250231,-0.14947453316198786,-0.18377944265511884,-0.6223540991815674,-0.15994273405261886,-0.04314106946094206
6850,8.0,299.92777,1475.0589,0.0,0.0,0.0,-0.06946683415498921,0.0,0.0,-0.1039816909671939,-0.15878560243841883,-0.1856137799736538,-0.6411932252433444,-0.15422481175080385,-0.04154361380378546
6851,8.0,300.4556,1877.7554,0.0,0.0,0.0,-0.06947697529866148,0.0,0.0,-0.16017770675080883,-0.18649059594768883,-0.22412245134916378,-0.6696999326292373,-0.17510524159654184,-0.032926919754633965
6852,8.0,299.45514,1744.192,0.0,0.0,0.0,-0.06948711644233373,0.0,0.0,-0.13731886555481687,-0.18758708454340384,-0.2052848552950378,-0.6749277458576823,-0.18067673912640583,-0.04312987912683766
6853,8.0,298.74978,1458.7156,0.0,0.0,0.0,-0.069497257586006,0.0,0.0,-0.12886845091332588,-0.14625925754716487,-0.16828541994347784,-0.6874848428894713,-0.17361353479932184,-0.022149173998203278
6854,8.0,299.66416,1473.9273,0.0,0.0,0.0,-0.06950739872967825,0.0,0.0,-0.14667864176355486,-0.15107453612989588,-0.15028390720936685,-0.6366135982363704,-0.14016071797778587,-0.02740718714587877
6855,8.0,300.31175,1446.6812,0.0,0.0,0.0,-0.06951753987335052,0.0,0.0,-0.11745608331451288,-0.16951150322698283,-0.15278735436393787,-0.6647371653619504,-0.1901716423684798,-0.023045269081890977
6856,8.0,298.83786000000003,1545.4882,0.0,0.0,0.0,-0.06952768101702278,0.0,0.0,-0.1047945201974139,-0.16932652428872683,-0.19566876734100383,-0.6404316056731784,-0.1807294382641068,-0.050133033186745155
6857,8.0,299.73387,1866.5445,0.0,0.0,0.0,-0.06953782216069504,0.0,0.0,-0.13258426194504785,-0.2034354002850108,-0.23136323788877378,-0.6530587081543764,-0.13805904475286687,-0.021598361111342276
6858,8.0,299.75491,1571.4163,0.0,0.0,0.0,-0.0695479633043673,0.0,0.0,-0.09192940830747622,-0.17573470295616483,-0.21000720871109782,-0.6341813217688235,-0.11550504998196087,-0.04279510838654836
6859,8.0,300.17215,1414.9134,0.0,0.0,0.0,-0.06955810444803956,0.0,0.0,-0.09822826336862481,-0.16415593942592982,-0.16771414953709785,-0.6896006914832894,-0.15575900412471685,-0.019005054884902884
6860,8.0,300.35322,1623.656,0.0,0.0,0.0,-0.06956824559171182,0.0,0.0,-0.12429902733485887,-0.16858703410074483,-0.20066484013907782,-0.6879223946801544,-0.15572621535148087,-0.03455826457463517
6861,8.0,299.76369,1585.3751,0.0,0.0,0.0,-0.06957838673538409,0.0,0.0,-0.1047814391386229,-0.18264562592571984,-0.1944873785194098,-0.6609479646254853,-0.15475624116325185,-0.04595772539367436
6862,8.0,299.89761,1396.2563,0.0,0.0,0.0,-0.06958852787905634,0.0,0.0,-0.06759524659488143,-0.17961404242152582,-0.17721777686253284,-0.6315762354967214,-0.14746936187659287,-0.06989254092385673
6863,8.0,300.32761,1429.2204,0.0,0.0,0.0,-0.06959866902272861,0.0,0.0,-0.0956544399151082,-0.17571525868674584,-0.16307762853700886,-0.6412936991232604,-0.17474543648603183,-0.06306282994981674
6864,8.0,298.89477,1525.6898,0.0,0.0,0.0,-0.06960881016640086,0.0,0.0,-0.0923775009389495,-0.1893540508627898,-0.18204003673845282,-0.6416729890331935,-0.17585670840070583,-0.05357496778268765
6865,8.0,298.50228,1503.7302,0.0,0.0,0.0,-0.06961895131007313,0.0,0.0,-0.12383880913943889,-0.16059335207432984,-0.17266426131063584,-0.6511247379535084,-0.13852993247183987,-0.03763469148850486
6866,8.0,298.09288,1680.9606,0.0,0.0,0.0,-0.06962909245374539,0.0,0.0,-0.1274826287515559,-0.18521624142941984,-0.19827116850034082,-0.6705560175062264,-0.13990689882773585,-0.025574866195042772
6867,8.0,299.42436000000004,1731.2002,0.0,0.0,0.0,-0.06963923359741765,0.0,0.0,-0.14633688263732586,-0.17900268784118983,-0.2009020622524898,-0.6786710970271224,-0.2018864043271368,-0.005780264946017734
6868,8.0,299.2397,1413.8804,0.0,0.0,0.0,-0.06964937474108991,0.0,0.0,-0.07494029150353093,-0.17068254676505584,-0.1841615088703258,-0.6922932719015263,-0.17059930826934083,-0.035392074161425764
6869,8.0,299.04888,1434.3393,0.0,0.0,0.0,-0.06965951588476217,0.0,0.0,-0.08879819090769911,-0.17486420966275384,-0.17234092307122484,-0.6567085667370893,-0.15464150072192787,-0.022529613946999778
6870,8.0,299.3321,1726.2314,0.0,0.0,0.0,-0.06966965702843443,0.0,0.0,-0.12092626225699288,-0.1830356562867128,-0.2207693433232378,-0.6363924766670475,-0.14179093606367588,-0.03899872573337457
6871,8.0,299.69531,1690.0068,0.0,0.0,0.0,-0.06967979817210669,0.0,0.0,-0.16249633708713984,-0.17637198660655984,-0.17485153390400285,-0.6767478774098153,-0.15831729850720086,-0.0033715572837467963
6872,8.0,299.08265,1462.7468,0.0,0.0,0.0,-0.06968993931577895,0.0,0.0,-0.10363628414060491,-0.16759372476271286,-0.17340849350908583,-0.6632268350278924,-0.16840306841258884,-0.05815143952885025
6873,8.0,299.93974,1559.7457,0.0,0.0,0.0,-0.06970008045945121,0.0,0.0,-0.1093250147070389,-0.16694133355332683,-0.1978573875570038,-0.6375374898100513,-0.13303896805992388,-0.03652672276915686
6874,8.0,299.85436,1502.942,0.0,0.0,0.0,-0.06971022160312347,0.0,0.0,-0.06582495782841753,-0.18218231731749482,-0.2088495502068458,-0.6563365620953754,-0.15612456449579484,-0.06904435230489704
6875,8.0,300.18157,1471.6370000000002,0.0,0.0,0.0,-0.06972036274679573,0.0,0.0,-0.08203572225004542,-0.16911265759011987,-0.1961925061851928,-0.6497035027007434,-0.21703984328266482,-0.05085236881698804
6876,8.0,300.65934,1603.1202,0.0,0.0,0.0,-0.069730503890468,0.0,0.0,-0.09895207351130932,-0.19891738901661782,-0.18943903214867683,-0.6591889016568794,-0.19686251781381783,-0.06390240087667594
6877,8.0,301.39829,1421.8589,0.0,0.0,0.0,-0.06974064503414025,0.0,0.0,-0.1058611077826779,-0.16815530849813684,-0.15819317536995087,-0.6435219171531684,-0.12523187603942387,-0.01987504256651398
6878,8.0,301.66536,1255.4957,0.0,0.0,0.0,-0.06975078617781252,0.0,0.0,-0.09054091217869231,-0.14488349695888786,-0.14621492785528986,-0.6589100450968585,-0.1332183943876319,-0.05258790411827205
6879,8.0,300.85326000000003,1661.9609,0.0,0.0,0.0,-0.06976092732148477,0.0,0.0,-0.12613098351565888,-0.1978434655006298,-0.18122015528753682,-0.6741049563789794,-0.15342282429665385,-0.024947326970859475
6880,8.0,299.91943,1883.0681,0.0,0.0,0.0,-0.06977106846515704,0.0,0.0,-0.13529584080265988,-0.2069161271610318,-0.23019372435835178,-0.6690841298809623,-0.15830997270897784,-0.04959076706447765
6881,8.0,300.88015,1717.1897,0.0,0.0,0.0,-0.0697812096088293,0.0,0.0,-0.1118541578841459,-0.17807528028966182,-0.23205336253188377,-0.6384698825520714,-0.14022274914890787,-0.03728494896473796
6882,8.0,300.414,1651.0774,0.0,0.0,0.0,-0.06979135075250156,0.0,0.0,-0.11282385849484788,-0.19506911579932282,-0.19399332790315083,-0.6643380968100654,-0.17141050616689985,-0.062195791839246735
6883,8.0,300.21757,1783.5924,0.0,0.0,0.0,-0.06980149189617382,0.0,0.0,-0.16641168746105484,-0.16957155856040987,-0.2061842971438058,-0.6785266886228704,-0.2117193885975768,-0.011931605586057789
6884,8.0,299.85107,1659.9055,0.0,0.0,0.0,-0.06981163303984608,0.0,0.0,-0.14469671443545387,-0.17586972866449083,-0.1840033911922208,-0.6491936656479264,-0.16820247529029184,-0.06219555169897304
6885,8.0,300.03202000000005,1484.1457,0.0,0.0,0.0,-0.06982177418351834,0.0,0.0,-0.10205376986942291,-0.15576569157537687,-0.1933237519720688,-0.6319425254078713,-0.12457397274949387,-0.024255204198552274
6886,8.0,299.95904,1473.6155,0.0,0.0,0.0,-0.06983191532719062,0.0,0.0,-0.07584426156699582,-0.16564373507776384,-0.2064543282954558,-0.6514406693346884,-0.14351727105405185,-0.037824362787973964
6887,8.0,301.43923,1545.9276,0.0,0.0,0.0,-0.06984205647086286,0.0,0.0,-0.09822708799850881,-0.18548173322062184,-0.1862145562229458,-0.6704520276484633,-0.1903910616776348,-0.030369680165504072
6888,8.0,300.71515,1561.6765,0.0,0.0,0.0,-0.06985219761453514,0.0,0.0,-0.1087108736889279,-0.19114113019666082,-0.17485864691970482,-0.6523602647279454,-0.17123802060237683,-0.05417006679166935
6889,8.0,301.22747999999996,1720.5768,0.0,0.0,0.0,-0.06986233875820738,0.0,0.0,-0.18519540900736384,-0.16732750343143885,-0.17048946182599983,-0.6577409875289814,-0.13141271178192487,-0.024042347710294978
6890,8.0,300.91269,1674.7724,0.0,0.0,0.0,-0.06987247990187966,0.0,0.0,-0.12927050855300587,-0.18874523954020483,-0.1910732221749588,-0.6806422028441553,-0.14705108210281184,-0.04939005235216865
6891,8.0,300.35232,1557.4628,0.0,0.0,0.0,-0.06988262104555193,0.0,0.0,-0.11763657355482589,-0.18059928628876182,-0.17519393137779485,-0.7009105283044833,-0.1797753619699468,-0.04299952247497246
6892,8.0,299.27974,1697.6425,0.0,0.0,0.0,-0.06989276218922418,0.0,0.0,-0.08653512011410142,-0.2073119229150938,-0.22219389190382977,-0.6550520852086074,-0.13638615870526585,-0.07394489689679312
6893,8.0,299.91581,1507.7952,0.0,0.0,0.0,-0.06990290333289643,0.0,0.0,-0.090835592665525,-0.16928787892991282,-0.1982086205716678,-0.6135136440465824,-0.14071159165965288,-0.038543560616203267
6894,8.0,299.802,1297.4498,0.0,0.0,0.0,-0.0699130444765687,0.0,0.0,-0.08655741060305132,-0.13315551208642587,-0.17467943337451783,-0.6295499278142405,-0.17705782520174684,-0.04913100077860225
6895,8.0,300.2551,1409.9842,0.0,0.0,0.0,-0.06992318562024095,0.0,0.0,-0.13575259368273787,-0.14243472477971286,-0.15041267103207487,-0.6686995609380084,-0.21422441642230378,-0.03765182960069626
6896,8.0,299.86966,1486.3091,0.0,0.0,0.0,-0.06993332676391323,0.0,0.0,-0.11083563888362588,-0.15299833329975987,-0.18796689121088783,-0.6296079059849624,-0.17242316858184184,-0.04219720774104016
6897,8.0,300.12395,1647.9608,0.0,0.0,0.0,-0.06994346790758547,0.0,0.0,-0.1281964127845009,-0.17523125951147883,-0.1975112714553448,-0.6569109330470614,-0.11459720828986389,-0.04494258355573766
6898,8.0,299.71693,1936.0334,0.0,0.0,0.0,-0.06995360905125775,0.0,0.0,-0.12578052057107086,-0.2122213121671128,-0.25050397810781777,-0.6660717474661634,-0.13923315843874287,-0.03683647636447717
6899,8.0,300.30557000000005,1919.7979999999998,0.0,0.0,0.0,-0.06996375019493,0.0,0.0,-0.15469346018705585,-0.18917265882988782,-0.23970453562699576,-0.7083487466260783,-0.17899980007840482,-0.02156157607971188
6900,8.0,301.05951,1670.9843,0.0,0.0,0.0,-0.06997389133860227,0.0,0.0,-0.1180219530978599,-0.1954577276101758,-0.1944578220139928,-0.6620724594539643,-0.16487985595987484,-0.032318127683800865
6901,8.0,301.40308,1519.2733,0.0,0.0,0.0,-0.06998403248227454,0.0,0.0,-0.13721518980458486,-0.15104852599982885,-0.17355742100878385,-0.6251641760814004,-0.14977306703895085,-0.02422075673490258
6902,8.0,300.07257000000004,1582.8484,0.0,0.0,0.0,-0.06999417362594679,0.0,0.0,-0.1049303463733189,-0.16035272544058185,-0.2158633180615508,-0.6318957740482574,-0.16562001489292286,-0.014878803595423587
6903,8.0,300.46882,1612.7659,0.0,0.0,0.0,-0.07000431476961906,0.0,0.0,-0.1132475591566639,-0.17730501769614282,-0.1996880062476718,-0.6576843975108965,-0.17043480711560585,-0.04603877729567355
6904,8.0,299.78,1408.7211,0.0,0.0,0.0,-0.0700144559132913,0.0,0.0,-0.06903839439430903,-0.16532657766396286,-0.19385106758911083,-0.6529207642857624,-0.17282121375112583,-0.05523232678575625
6905,8.0,300.79683,1455.3167,0.0,0.0,0.0,-0.07002459705696358,0.0,0.0,-0.1025223372456669,-0.16645089010742384,-0.17340671018890985,-0.6508194558308794,-0.12697428117638587,-0.05293999535577075
6906,8.0,300.22677000000004,1557.4497,0.0,0.0,0.0,-0.07003473820063584,0.0,0.0,-0.14064168753525386,-0.15647832050320784,-0.17630580111002783,-0.6647209634928514,-0.15693685670346186,-0.03962916285284387
6907,8.0,299.84382999999997,1611.0829,0.0,0.0,0.0,-0.0700448793443081,0.0,0.0,-0.16487008822891086,-0.16212397780789084,-0.16273490682318487,-0.6808539923800574,-0.1965964383375578,-0.04520600527698536
6908,8.0,300.20219,1657.281,0.0,0.0,0.0,-0.07005502048798036,0.0,0.0,-0.1252650802452009,-0.1984358520390938,-0.18007110940913484,-0.6654935869591033,-0.18652006126059684,-0.06033234688508904
6909,8.0,299.50382,1595.4417,0.0,0.0,0.0,-0.07006516163165262,0.0,0.0,-0.09913123943374161,-0.1756459321149038,-0.21019726403235478,-0.6444079435706124,-0.13601285710342387,-0.026310585066152574
6910,8.0,299.0524,1506.1601,0.0,0.0,0.0,-0.07007530277532488,0.0,0.0,-0.05556580664541815,-0.1975934359059538,-0.2046758210574308,-0.6391529448419845,-0.14143480905102887,-0.05825184450775944
6911,8.0,298.90493,1667.4232,0.0,0.0,0.0,-0.07008544391899715,0.0,0.0,-0.10653698612938191,-0.18186495725367383,-0.21845307385963977,-0.6763089678639984,-0.16597131883509383,-0.01171963873138829
6912,8.0,298.50397000000004,1579.5553,0.0,0.0,0.0,-0.0700955850626694,0.0,0.0,-0.1093920715986569,-0.17275151227674684,-0.1980017756962538,-0.6742106079669064,-0.15892249252692886,-0.03386183447615287
6913,8.0,297.73019,1175.8544,0.0,0.0,0.0,-0.07010572620634167,0.0,0.0,-0.07378591187660252,-0.14463269729413586,-0.13901175315939188,-0.6741678082826823,-0.15293500516850986,-0.025230792805585375
6914,8.0,299.8918,1295.0181,0.0,0.0,0.0,-0.07011586735001392,0.0,0.0,-0.047042196843203356,-0.16148524520985286,-0.18512573793048784,-0.6608334065691794,-0.18213917312823683,-0.04160296492839296
6915,8.0,299.46857,1746.4761,0.0,0.0,0.0,-0.07012600849368619,0.0,0.0,-0.12860868398518888,-0.20031780197982782,-0.20195862879426482,-0.6673359390859295,-0.2004257637779828,-0.03981176166661496
6916,8.0,300.86631,1704.5547,0.0,0.0,0.0,-0.07013614963735845,0.0,0.0,-0.12288111554242187,-0.1951850316107628,-0.2000759290484568,-0.6651451505147153,-0.17722117125036785,-0.06756452181209914
6917,8.0,301.43037000000004,1651.6492,0.0,0.0,0.0,-0.07014629078103071,0.0,0.0,-0.14333515961357887,-0.19401985479076883,-0.16470509058262683,-0.6441211127323043,-0.1179164838949509,-0.06042902715663064
6918,8.0,300.19645,1681.4093,0.0,0.0,0.0,-0.07015643192470297,0.0,0.0,-0.15052975208112984,-0.17732062174768282,-0.18325607871346683,-0.6716412995558354,-0.14588229811246187,-0.020911663280070478
6919,8.0,299.6855,1752.3874,0.0,0.0,0.0,-0.07016657306837523,0.0,0.0,-0.17670028977146082,-0.1753773904409008,-0.1806043221417588,-0.6558590578532494,-0.16929281345789984,-0.03166002681010137
6920,8.0,300.75931,1710.7508,0.0,0.0,0.0,-0.07017671421204749,0.0,0.0,-0.08064798099258602,-0.19644313359742782,-0.2429344223082608,-0.6742486555081614,-0.16378890984220684,-0.028315807014052573
6921,8.0,299.42689,1544.3664,0.0,0.0,0.0,-0.07018685535571975,0.0,0.0,-0.07457971125669442,-0.17921525757966883,-0.2156538590008788,-0.6417028495136403,-0.15739067115824987,-0.027101357868195775
6922,8.0,299.8648,1429.3034,0.0,0.0,0.0,-0.07019699649939201,0.0,0.0,-0.05120418445045955,-0.15617530806080285,-0.22709304732983882,-0.6637872028631964,-0.16659288697643784,-0.013036467680599188
6923,8.0,299.94302999999996,1350.3196,0.0,0.0,0.0,-0.07020713764306427,0.0,0.0,-0.08889424701717911,-0.17412366569466783,-0.14744554036674185,-0.6803293922732834,-0.1975692394935658,-0.049547692789476544
6924,8.0,300.22602,1444.6359,0.0,0.0,0.0,-0.07021727878673653,0.0,0.0,-0.12153885300245089,-0.15753862593785184,-0.16005576210127387,-0.6618717447416554,-0.15269272693709887,-0.04098942780734156
6925,8.0,300.1991,1750.6032,0.0,0.0,0.0,-0.07022741993040879,0.0,0.0,-0.15417214301060586,-0.2059452410477128,-0.1720222863122778,-0.6530229302933453,-0.13088744293008486,-0.07438794252951833
6926,8.0,301.15193,1648.8723,0.0,0.0,0.0,-0.07023756107408106,0.0,0.0,-0.0876544696585726,-0.20406696920484182,-0.2094945649555038,-0.6619376667931614,-0.15215513696404284,-0.05097960567179535
6927,8.0,300.89369,1650.6294,0.0,0.0,0.0,-0.07024770221775332,0.0,0.0,-0.1192590504099519,-0.18909647255486883,-0.19339459841906081,-0.6698584860048853,-0.2047682497315528,-0.07229847795505423
6928,8.0,301.12519,1978.3110000000001,0.0,0.0,0.0,-0.07025784336142558,0.0,0.0,-0.13659643849851885,-0.23066479446234278,-0.2340959024809668,-0.6568187171554604,-0.17331935789778885,-0.047200107818287956
6929,8.0,299.81183,1672.3045,0.0,0.0,0.0,-0.07026798450509784,0.0,0.0,-0.15521918500144086,-0.16922174409588583,-0.18389788145930783,-0.6548751920061494,-0.16270489435522287,-0.056556267737419036
6930,8.0,299.94599,1483.0531,0.0,0.0,0.0,-0.0702781256487701,0.0,0.0,-0.09778333815696409,-0.17431831103887782,-0.17870946339475083,-0.6887883486131173,-0.15304412207177884,-0.004835014465528776
6931,8.0,299.16006,1514.8271,0.0,0.0,0.0,-0.07028826679244236,0.0,0.0,-0.11404578745294289,-0.17879950079863685,-0.16762431478323184,-0.6944649100458503,-0.17213564873346585,-0.03672364083334117
6932,8.0,299.40238,1651.2422,0.0,0.0,0.0,-0.07029840793611462,0.0,0.0,-0.06390673657385385,-0.19282138257248882,-0.2452082872551738,-0.6823033554555984,-0.16633421435840884,-0.014403819306296285
6933,8.0,299.98172999999997,1582.2114,0.0,0.0,0.0,-0.07030854907978688,0.0,0.0,-0.09458730517479022,-0.17967925519796182,-0.2066862004483398,-0.6414104863297864,-0.13564408472952888,-0.04721788630454255
6934,8.0,299.94395,1581.8314,0.0,0.0,0.0,-0.07031869022345914,0.0,0.0,-0.08913825182676051,-0.16547887928649385,-0.22622011210368678,-0.6649077054862814,-0.16901995533847083,-0.02324690281204068
6935,8.0,299.85186,1666.8527,0.0,0.0,0.0,-0.0703288313671314,0.0,0.0,-0.17220226992754084,-0.16304233703602583,-0.17143700265701484,-0.6731772955149263,-0.18378035458020883,-0.04966145544445404
6936,8.0,300.36076,1684.7076,0.0,0.0,0.0,-0.07033897251080368,0.0,0.0,-0.15221865761281184,-0.18731083203613982,-0.17257955360227584,-0.6589715189804254,-0.16666368276092483,-0.04433647963741986
6937,8.0,300.23312999999996,1716.4411,0.0,0.0,0.0,-0.07034911365447592,0.0,0.0,-0.15934649716377486,-0.17215468770284484,-0.19025404999911283,-0.6452051180867874,-0.14084856280817087,-0.046690261646220046
6938,8.0,300.40795,1816.9858,0.0,0.0,0.0,-0.0703592547981482,0.0,0.0,-0.1164112907388999,-0.20061376220153682,-0.2352932601241368,-0.6430613037902093,-0.15550955208259787,-0.022696831624252876
6939,8.0,299.97481,1491.1323,0.0,0.0,0.0,-0.07036939594182044,0.0,0.0,-0.11348862148795488,-0.14079785977316686,-0.1989805144978478,-0.6777548048291914,-0.2102049242031108,-0.035988993980837165
6940,8.0,298.49232,1368.7406,0.0,0.0,0.0,-0.07037953708549272,0.0,0.0,-0.06610648328920193,-0.14679903614043685,-0.20315745565007978,-0.6604096856423614,-0.18170834931821783,-0.04460588054750766
6941,8.0,299.06532999999996,1573.9562,0.0,0.0,0.0,-0.07038967822916498,0.0,0.0,-0.14745667598534087,-0.16383397920665485,-0.16715272792168984,-0.6461636425488865,-0.14075060178850288,-0.03607089093341976
6942,8.0,299.97057,1430.1993,0.0,0.0,0.0,-0.07039981937283724,0.0,0.0,-0.09870512723668759,-0.13561252198891388,-0.2004272127256258,-0.6505338814226953,-0.1292985046532689,-0.03487858028899787
6943,8.0,300.27586,1553.1002,0.0,0.0,0.0,-0.0704099605165095,0.0,0.0,-0.0927219897609479,-0.18328186592851184,-0.1960998241985458,-0.6910339438822404,-0.14124978958276888,-0.03805053236929516
6944,8.0,300.92866000000004,1609.128,0.0,0.0,0.0,-0.07042010166018176,0.0,0.0,-0.07878866300608563,-0.1877060907676488,-0.2226399651278538,-0.7041860821677554,-0.12708030766684988,-0.058362929142722654
6945,8.0,300.22891,1453.0294,0.0,0.0,0.0,-0.07043024280385402,0.0,0.0,-0.09724670165225222,-0.16344909615616987,-0.18098886068720982,-0.6624383947275795,-0.14104155655471787,-0.040719045057906855
6946,8.0,301.08141,1383.483,0.0,0.0,0.0,-0.07044038394752629,0.0,0.0,-0.0874965029547325,-0.15902751589979383,-0.17402026352196284,-0.6815114295749414,-0.18308497116907982,-0.053582170977648544
6947,8.0,300.89865,1589.9782,0.0,0.0,0.0,-0.07045052509119853,0.0,0.0,-0.16442861516034085,-0.16300806891764386,-0.15587697683385984,-0.6627907017873493,-0.2107861751229758,-0.03109564751765147
6948,8.0,299.82086,1661.7111,0.0,0.0,0.0,-0.07046066623487081,0.0,0.0,-0.14647817023126988,-0.16885852433253884,-0.18978199704252482,-0.6696436060561783,-0.18144938285765982,-0.05033380362780965
6949,8.0,299.53202999999996,1502.0970000000002,0.0,0.0,0.0,-0.07047080737854305,0.0,0.0,-0.0958828487791504,-0.17133771427971584,-0.1893794226452938,-0.6563979751839364,-0.12204155677456388,-0.03171745985226957
6950,8.0,298.64567,1298.4441,0.0,0.0,0.0,-0.07048094852221534,0.0,0.0,-0.06650430655671404,-0.13626346425065688,-0.19192681445670182,-0.6787343035683604,-0.16259175484905686,-0.04220191428775466
6951,8.0,299.23278999999997,1510.6055,0.0,0.0,0.0,-0.0704910896658876,0.0,0.0,-0.1027163645073159,-0.14382826790724487,-0.2126417096336028,-0.6860991828477174,-0.17780491476547883,-0.026494021837756374
6952,8.0,299.22937,1692.8798,0.0,0.0,0.0,-0.07050123080955985,0.0,0.0,-0.11762686661886788,-0.17744600131505683,-0.2195203099249678,-0.6783428951872313,-0.14984840218388587,-0.05406909641920435
6953,8.0,299.34519,1748.6671,0.0,0.0,0.0,-0.07051137195323212,0.0,0.0,-0.16773101001876184,-0.18785640641998383,-0.17596371774376685,-0.6506813903722534,-0.16551727133278285,-0.02466213861096358
6954,8.0,299.94471,1683.7807,0.0,0.0,0.0,-0.07052151309690437,0.0,0.0,-0.11943857806266989,-0.1889674148896318,-0.2034212755786168,-0.6809744880819493,-0.17795821950560883,-0.04305850680304375
6955,8.0,300.69422000000003,1622.8439,0.0,0.0,0.0,-0.07053165424057663,0.0,0.0,-0.12143070881927788,-0.17885652651426484,-0.1930167777217728,-0.6815978598084713,-0.19442376667813183,-0.042477281214431256
6956,8.0,300.04497000000003,1798.0727,0.0,0.0,0.0,-0.0705417953842489,0.0,0.0,-0.1168200864917449,-0.21235700662050477,-0.2173921199449318,-0.6619184555712653,-0.1371184852150409,-0.06684375243296473
6957,8.0,300.59929,1837.5015,0.0,0.0,0.0,-0.07055193652792115,0.0,0.0,-0.15129949791709787,-0.19719524888165582,-0.21005982678879082,-0.6538013090201654,-0.10481416711685292,-0.04940270176641705
6958,8.0,300.44721,1451.5049,0.0,0.0,0.0,-0.07056207767159342,0.0,0.0,-0.1061189394031239,-0.15714646775164884,-0.17795584850037482,-0.6613484415950094,-0.15133791022838886,-0.028259258539221673
6959,8.0,300.61372,1312.8569,0.0,0.0,0.0,-0.07057221881526567,0.0,0.0,-0.12121708530069489,-0.13787741967244188,-0.13998121059006988,-0.6566966306509113,-0.18350797268832683,-0.025512650612402578
6960,8.0,300.51777000000004,1584.506,0.0,0.0,0.0,-0.07058235995893794,0.0,0.0,-0.09488044653472101,-0.18775538538501382,-0.1990144178461938,-0.6637421132337464,-0.17460184881436083,-0.037774913143343664
6961,8.0,299.02914,1680.0281,0.0,0.0,0.0,-0.07059250110261021,0.0,0.0,-0.1239101520789799,-0.16322136819619484,-0.2235550718231678,-0.6345740980375874,-0.16218335426375086,-0.04328780327417356
6962,8.0,299.47339,1609.1262,0.0,0.0,0.0,-0.07060264224628246,0.0,0.0,-0.05967080400079984,-0.1934126646683438,-0.2360507152363918,-0.6989049821165514,-0.17196026527365685,-0.04023615437824926
6963,8.0,299.35819,1579.2621,0.0,0.0,0.0,-0.07061278338995473,0.0,0.0,-0.0997422170850404,-0.19463484693896382,-0.18567918526760882,-0.6906655666758843,-0.17921299803194582,-0.061955887652820035
6964,8.0,299.73955,1530.1067,0.0,0.0,0.0,-0.07062292453362698,0.0,0.0,-0.100827566009156,-0.17875628568187182,-0.18553037935792283,-0.6657589774252953,-0.16536814118306484,-0.032440685349646364
6965,8.0,299.23566,1624.1064,0.0,0.0,0.0,-0.07063306567729925,0.0,0.0,-0.15807017694031184,-0.1979073914494388,-0.13771021314093987,-0.6484226937793374,-0.12978264568354989,-0.04889405832221786
6966,8.0,299.45977999999997,1725.7032,0.0,0.0,0.0,-0.07064320682097151,0.0,0.0,-0.11341416787060689,-0.1987886758564148,-0.2123678382640738,-0.6566387031426945,-0.1810972987129118,-0.008884827687339222
6967,8.0,299.89082,1529.8586,0.0,0.0,0.0,-0.07065334796464377,0.0,0.0,-0.10492982961576791,-0.17515426263637981,-0.18495472157860984,-0.7042111601077303,-0.20105826488790582,-0.04501373499100975
6968,8.0,300.34599,1392.3254,0.0,0.0,0.0,-0.07066348910831603,0.0,0.0,-0.04993900795159635,-0.17969630819714483,-0.1935968431390208,-0.6779274119837263,-0.15378877983527087,-0.04388633821424436
6969,8.0,300.43145,1457.5215,0.0,0.0,0.0,-0.07067363025198829,0.0,0.0,-0.11500777723038388,-0.14119941078779688,-0.18684296380246482,-0.6701376972024413,-0.13110786535683888,-0.05365316130615475
6970,8.0,299.96909,1751.8216,0.0,0.0,0.0,-0.07068377139566055,0.0,0.0,-0.14275223683104887,-0.16724094147539584,-0.2225168349757018,-0.6924890318208464,-0.14830559718412287,-0.038934560657541965
6971,8.0,300.41452000000004,1690.6148,0.0,0.0,0.0,-0.07069391253933281,0.0,0.0,-0.14165708572546584,-0.1814871770863898,-0.19076041160408683,-0.7075752416322394,-0.1869977377552398,-0.02307852597667318
6972,8.0,300.28272000000004,1577.9024,0.0,0.0,0.0,-0.07070405368300507,0.0,0.0,-0.0914495269806156,-0.17259499553379984,-0.21559840382290577,-0.6472730399508754,-0.19369137937335082,-0.03314302776246217
6973,8.0,299.67294,1623.1977,0.0,0.0,0.0,-0.07071419482667735,0.0,0.0,-0.1134459028637389,-0.16149353359567084,-0.21847213309402078,-0.6377293081864823,-0.16215387881834184,-0.002526850496105728
6974,8.0,299.42778,1585.0304,0.0,0.0,0.0,-0.07072433597034959,0.0,0.0,-0.06560236603319944,-0.19326073794834983,-0.22294656447561279,-0.6328376305462113,-0.1922779056163518,-0.03149578808814227
6975,8.0,299.73049,1742.8546,0.0,0.0,0.0,-0.07073447711402187,0.0,0.0,-0.15413683124462085,-0.19242503966337282,-0.18322242867764582,-0.6668121597117364,-0.16927307534595185,-0.03889847983473107
6976,8.0,298.92848,1880.3020000000001,0.0,0.0,0.0,-0.07074461825769413,0.0,0.0,-0.15671673825173785,-0.2188233053136788,-0.19602480316114182,-0.6856516708085514,-0.13222220741931587,-0.05985707179318304
6977,8.0,299.74234,1506.9164,0.0,0.0,0.0,-0.07075475940136638,0.0,0.0,-0.13793974468609288,-0.17304856680856381,-0.14707664640283485,-0.6758635633850404,-0.10611345772008289,-0.04809377312823586
6978,8.0,301.06102000000004,1323.0608,0.0,0.0,0.0,-0.07076490054503864,0.0,0.0,-0.07158369181776034,-0.17518590643700283,-0.15540786230256184,-0.6988605916296703,-0.1742875285008398,-0.057406970229876855
6979,8.0,300.81872000000004,1514.5281,0.0,0.0,0.0,-0.0707750416887109,0.0,0.0,-0.0883210088791049,-0.17725533804373983,-0.19480236757799682,-0.6883438357942473,-0.19210349487663883,-0.04695472093557016
6980,8.0,300.17400000000004,1427.0123,0.0,0.0,0.0,-0.07078518283238316,0.0,0.0,-0.06417243304157604,-0.15687849349770183,-0.2127251811768408,-0.6756972991761313,-0.15925766552750786,-0.06382185357322653
6981,8.0,300.25937999999996,1486.9958,0.0,0.0,0.0,-0.07079532397605542,0.0,0.0,-0.0977168355131508,-0.16748050419653884,-0.18681225219193384,-0.6511834557968034,-0.12172459187828187,-0.057179512807678544
6982,8.0,300.33813,1578.8678,0.0,0.0,0.0,-0.07080546511972768,0.0,0.0,-0.13348436240638087,-0.16576631807486183,-0.18068571652229182,-0.6551795824686903,-0.16052210032729786,-0.04277362545792816
6983,8.0,299.69822999999997,1670.1531,0.0,0.0,0.0,-0.07081560626339994,0.0,0.0,-0.0995052969201582,-0.2027584681582028,-0.2054210563734798,-0.6817019813887473,-0.16565495175637082,-0.037953664646485065
6984,8.0,299.69461,1699.6216,0.0,0.0,0.0,-0.0708257474070722,0.0,0.0,-0.12827462555971988,-0.18683538469171684,-0.2015325064647098,-0.6651088660286344,-0.15426502764727285,-0.03162887038277647
6985,8.0,299.95709,1787.6532,0.0,0.0,0.0,-0.07083588855074446,0.0,0.0,-0.11370604469441288,-0.1891096752036718,-0.24058620506900977,-0.6733149252760093,-0.15402755222133585,-0.00842008502624769
6986,8.0,299.6006,1716.5078,0.0,0.0,0.0,-0.07084602969441674,0.0,0.0,-0.12236509766399488,-0.18415324074950984,-0.2152571513217268,-0.6831062649673394,-0.2040508686607528,-0.007367803417820582
6987,8.0,300.39653,1581.8037,0.0,0.0,0.0,-0.07085617083808898,0.0,0.0,-0.13430495313236687,-0.17083940801303682,-0.17568446601620683,-0.6803893462817003,-0.19436109715944683,-0.022964731910942577
6988,8.0,300.32257999999996,1539.424,0.0,0.0,0.0,-0.07086631198176126,0.0,0.0,-0.14463872613223086,-0.15482874934040786,-0.16847899124258184,-0.6661952423883514,-0.15738289952998286,-0.05034369193553555
6989,8.0,300.61982,1583.0706,0.0,0.0,0.0,-0.0708764531254335,0.0,0.0,-0.15083397029115383,-0.16554465948298586,-0.16483530335297786,-0.6702048351540674,-0.10676658860204188,-0.03750810615351186
6990,8.0,300.68285,1559.9019,0.0,0.0,0.0,-0.07088659426910578,0.0,0.0,-0.08929036599802301,-0.15909998354694585,-0.2257808783178378,-0.6747888292689723,-0.15875808256570287,-0.05108510020595686
6991,8.0,302.04145,1563.1733,0.0,0.0,0.0,-0.07089673541277804,0.0,0.0,-0.08020404268652272,-0.1911401270790618,-0.2038214688381128,-0.6766183941795364,-0.15731190109547585,-0.04532661344963845
6992,8.0,300.76136,1612.5467,0.0,0.0,0.0,-0.0709068765564503,0.0,0.0,-0.095555321763826,-0.16652634684237086,-0.22809225378345277,-0.6422267808753483,-0.16125110337674486,-0.04723600726933096
6993,8.0,300.01091,1672.4012,0.0,0.0,0.0,-0.07091701770012256,0.0,0.0,-0.15360778296990785,-0.17779607922460683,-0.17696436301252283,-0.6734849587752904,-0.15684767042965986,-0.026851913932077576
6994,8.0,300.06635,1659.1415,0.0,0.0,0.0,-0.07092715884379482,0.0,0.0,-0.13836562383562387,-0.19539477438146283,-0.17057717888715684,-0.6815443703356924,-0.19533144625021281,-0.036280717803878065
6995,8.0,300.23897,1709.7209,0.0,0.0,0.0,-0.07093729998746708,0.0,0.0,-0.15882321428213084,-0.18733170498819982,-0.17355753246629482,-0.6860365031965313,-0.16949900985324984,-0.039645151939421856
6996,8.0,300.2718,1678.535,0.0,0.0,0.0,-0.07094744113113935,0.0,0.0,-0.1029379217741819,-0.18364778093712483,-0.2236470344022438,-0.6541902450710504,-0.12876115786023687,-0.02150484116686258
6997,8.0,300.27758,1323.1632,0.0,0.0,0.0,-0.0709575822748116,0.0,0.0,-0.06148726657432074,-0.15171654152575687,-0.18900475315581683,-0.6478651123818084,-0.14143941933898388,-0.03915736726178126
6998,8.0,299.58124,1345.2856,0.0,0.0,0.0,-0.07096772341848387,0.0,0.0,-0.058099791131502945,-0.13619766378916287,-0.2146357858304028,-0.6687362304591273,-0.18114765724288182,-0.002125882404258258
6999,8.0,298.74296,1551.3734,0.0,0.0,0.0,-0.07097786456215611,0.0,0.0,-0.1006066106128494,-0.18550803719321782,-0.18546413306638482,-0.6715739690866903,-0.19589974783379982,-0.06524074720501044
7000,8.0,299.71803,1622.9726,0.0,0.0,0.0,-0.07098800570582839,0.0,0.0,-0.1258530692782309,-0.16825658284563186,-0.19923349265031481,-0.6392105177126665,-0.16334406265080384,-0.03381452684223397
7001,8.0,299.80995,1662.9344,0.0,0.0,0.0,-0.07099814684950065,0.0,0.0,-0.14883814117168087,-0.1993461255314308,-0.15730628768992183,-0.6595648174439794,-0.16053243547831783,-0.0878838694812126
7002,8.0,300.42281,1697.1701,0.0,0.0,0.0,-0.07100828799317291,0.0,0.0,-0.11496941558159789,-0.18263218009689283,-0.21829574651661282,-0.6933395539547863,-0.18902543359035784,-0.013597023980421789
7003,8.0,300.1925,1396.5233,0.0,0.0,0.0,-0.07101842913684517,0.0,0.0,-0.07281419996445203,-0.14880195801060989,-0.20289203478638482,-0.7148206992548103,-0.17384817312497886,-0.07080636788429442
7004,8.0,301.24144,1653.8045,0.0,0.0,0.0,-0.07102857028051743,0.0,0.0,-0.1015838244730429,-0.18064111325288984,-0.22049032464320079,-0.6757674262155523,-0.14828043818413986,-0.003139733361567557
7005,8.0,300.78295,1705.037,0.0,0.0,0.0,-0.07103871142418969,0.0,0.0,-0.17038048677774484,-0.14928608890838985,-0.1986220874074738,-0.6411153671056604,-0.14814529088580186,-0.023454538022532678
7006,8.0,299.75629,1499.5266,0.0,0.0,0.0,-0.07104885256786196,0.0,0.0,-0.1277574221786759,-0.16884418684362384,-0.15921703419849784,-0.6546057688045593,-0.18954538287917283,-0.015820243647586482
7007,8.0,300.15927,1437.2476,0.0,0.0,0.0,-0.07105899371153421,0.0,0.0,-0.1079433671356809,-0.17538318623147284,-0.15356081882777284,-0.6602900917330584,-0.18481401153722282,-0.059154947229138735
7008,8.0,299.68427,1729.0223,0.0,0.0,0.0,-0.07106913485520648,0.0,0.0,-0.1208537236823339,-0.16475822541787086,-0.23996766654546475,-0.6690235071274794,-0.17522245436810985,-0.043974582165453364
7009,8.0,298.69887,1771.2398,0.0,0.0,0.0,-0.07107927599887873,0.0,0.0,-0.1103550340961939,-0.1960238304410458,-0.23203379667245277,-0.6627667586874864,-0.15211340119242386,-0.057314517237752445
7010,8.0,299.48028999999997,1571.2011,0.0,0.0,0.0,-0.071089417142551,0.0,0.0,-0.1088458689997509,-0.17467856197943182,-0.19408147052934982,-0.6900852580786123,-0.19357287977415583,-0.038216947552469065
7011,8.0,299.7521,1491.3247,0.0,0.0,0.0,-0.07109955828622327,0.0,0.0,-0.11503490193556089,-0.1907361239991898,-0.14755445461999087,-0.6979041645952784,-0.15484762618977085,-0.05215373252992265
7012,8.0,300.31945,1628.605,0.0,0.0,0.0,-0.07110969942989552,0.0,0.0,-0.15434758726542083,-0.17268597526027885,-0.16802170133995084,-0.6560802908800833,-0.1370117494495069,-0.04274024798638406
7013,8.0,301.26762,1679.7053,0.0,0.0,0.0,-0.0711198405735678,0.0,0.0,-0.1276883590518599,-0.1829637965896208,-0.1999363031846768,-0.6387204998318053,-0.13597021953921587,-0.044676123097440054
7014,8.0,300.28359,1658.4094,0.0,0.0,0.0,-0.07112998171724004,0.0,0.0,-0.1208320603951959,-0.16973813687684983,-0.2135448599777368,-0.6818566134865083,-0.17404963764236184,-0.037564326335310365
7015,8.0,300.69261,1634.736,0.0,0.0,0.0,-0.07114012286091231,0.0,0.0,-0.08471220415069362,-0.18133878660924482,-0.2308679207098898,-0.6736181606334364,-0.17037394118209884,-0.03249150794816217
7016,8.0,301.00498,1413.4553,0.0,0.0,0.0,-0.07115026400458457,0.0,0.0,-0.0956937155154844,-0.16471902277150186,-0.16924239413292386,-0.6752033093548784,-0.1424094644547199,-0.05310339409339695
7017,8.0,300.24441,1584.4366,0.0,0.0,0.0,-0.07116040514825682,0.0,0.0,-0.1078860678425259,-0.18705680010356882,-0.18668629507200282,-0.6672946491443543,-0.1378517236499059,-0.05213114718519365
7018,8.0,300.46411,1752.6923,0.0,0.0,0.0,-0.0711705462919291,0.0,0.0,-0.15682439607486284,-0.18616062092012284,-0.1897896572132808,-0.6653550047429264,-0.19531495053858483,-0.03961838693803036
7019,8.0,299.46927,1452.6403,0.0,0.0,0.0,-0.07118068743560134,0.0,0.0,-0.08147668075912233,-0.1884570306817608,-0.17163267138382582,-0.6654383952261564,-0.16845976988818484,-0.05825626227819545
7020,8.0,299.42049,1227.1241,0.0,0.0,0.0,-0.07119082857927361,0.0,0.0,-0.04158156407303086,-0.16319233858082982,-0.16824119157661283,-0.6484529190298204,-0.15613295420662285,-0.05782606364348815
7021,8.0,300.7246,1630.3173,0.0,0.0,0.0,-0.07120096972294589,0.0,0.0,-0.10012763817132851,-0.17659910661647485,-0.2188490114687158,-0.6683021541162874,-0.15386883672567184,-0.023956255902298374
7022,8.0,299.4788,1678.7024,0.0,0.0,0.0,-0.07121111086661813,0.0,0.0,-0.14186511610349686,-0.17702159137817083,-0.1913969049194038,-0.6904689049639754,-0.15565761831971084,-0.05360835741323295
7023,8.0,297.99786,1560.3607,0.0,0.0,0.0,-0.0712212520102904,0.0,0.0,-0.13992354652687886,-0.15908475439794284,-0.17530237953599784,-0.6850352601102164,-0.13760052881761486,-0.020061967958212083
7024,8.0,299.83927,1767.8448,0.0,0.0,0.0,-0.07123139315396265,0.0,0.0,-0.14382769035468787,-0.1978317928594778,-0.19572119290117782,-0.6748652384590134,-0.13589486412927887,-0.04144463750751726
7025,8.0,300.37625,1702.1702,0.0,0.0,0.0,-0.07124153429763493,0.0,0.0,-0.1073949049890519,-0.18835272671646683,-0.22166960590458681,-0.7017590746007284,-0.18689938156803282,-0.010902514333994388
7026,8.0,300.95785,1652.3815,0.0,0.0,0.0,-0.07125167544130719,0.0,0.0,-0.08918991643610942,-0.1942881735497498,-0.2188046412468368,-0.7097949382288063,-0.23925154190478878,-0.04242508566202996
7027,8.0,300.74074,1680.3292,0.0,0.0,0.0,-0.07126181658497945,0.0,0.0,-0.1020422289507839,-0.20328756709542078,-0.2054483330661718,-0.6634096253459324,-0.20033060946109182,-0.036669075288955966
7028,8.0,300.59744,1445.2975,0.0,0.0,0.0,-0.0712719577286517,0.0,0.0,-0.12242078588949089,-0.14526560370409888,-0.17164796132783483,-0.6277745008565193,-0.12804543851960087,-0.05194352873042716
7029,8.0,299.52449,1370.0675,0.0,0.0,0.0,-0.07128209887232397,0.0,0.0,-0.11698250035027388,-0.17057643921458385,-0.12890737998216786,-0.6533936987699374,-0.1140561327364639,-0.05094346202747825
7030,8.0,299.37407,1555.0887,0.0,0.0,0.0,-0.07129224001599622,0.0,0.0,-0.1217785879761109,-0.18345401712050183,-0.16747551900604685,-0.6825390779588624,-0.14169889242459185,-0.04151330850654456
7031,8.0,299.63505,1743.4806,0.0,0.0,0.0,-0.07130238115966848,0.0,0.0,-0.1088439742220639,-0.17147245627801383,-0.24965812705683876,-0.6568535628263994,-0.14332043708962586,-0.05739677997362115
7032,8.0,299.83384,1660.6354,0.0,0.0,0.0,-0.07131252230334074,0.0,0.0,-0.07085320942316733,-0.19312894450784282,-0.2408095355235508,-0.6486364084904295,-0.13605562639014487,-0.031074458431560266
7033,8.0,299.56921,1544.6404,0.0,0.0,0.0,-0.071322663447013,0.0,0.0,-0.08269074183019083,-0.17059770733418284,-0.21624366175158782,-0.6757217185035413,-0.18593439257029584,-0.04819872456034375
7034,8.0,299.83367999999996,1807.8242,0.0,0.0,0.0,-0.07133280459068526,0.0,0.0,-0.1272312515342469,-0.21019072856920984,-0.2121114251937678,-0.7114388047935434,-0.21327544690864778,-0.02822115628246127
7035,8.0,299.16691000000003,1685.8207,0.0,0.0,0.0,-0.07134294573435752,0.0,0.0,-0.16115105506187086,-0.18152525502514782,-0.16977110803510384,-0.6758031027515734,-0.18616323510538083,-0.051655052373956754
7036,8.0,300.41579,1354.4775,0.0,0.0,0.0,-0.0713530868780298,0.0,0.0,-0.09973986735805851,-0.15046016206426185,-0.16152729508900285,-0.6572027288108593,-0.15087242313244884,-0.05832162906864665
7037,8.0,300.84279,1372.0726,0.0,0.0,0.0,-0.07136322802170204,0.0,0.0,-0.08537691952104592,-0.15392148520086785,-0.17777740502526382,-0.6588436670828074,-0.15012830239150987,-0.04415356468961756
7038,8.0,300.27027000000004,1360.974,0.0,0.0,0.0,-0.07137336916537432,0.0,0.0,-0.06920616023986623,-0.15246711666983287,-0.19202882847676983,-0.6798998451583904,-0.18312077942761384,-0.04791200416629665
7039,8.0,299.32183,1404.9141,0.0,0.0,0.0,-0.07138351030904658,0.0,0.0,-0.08909896812038351,-0.13688990612498186,-0.2010699476615588,-0.6562629089456063,-0.18140243898052683,-0.04614606224276176
7040,8.0,299.81151,1736.4835,0.0,0.0,0.0,-0.07139365145271884,0.0,0.0,-0.13964812488469688,-0.19223639275975482,-0.19596309623005181,-0.6830209797064224,-0.13556734116695487,-0.051186296533194155
7041,8.0,299.47675,1694.7098,0.0,0.0,0.0,-0.0714037925963911,0.0,0.0,-0.17866342131020682,-0.13978057693776888,-0.19670546404831782,-0.6846285111225734,-0.15317863102255386,-0.015140694295770186
7042,8.0,298.59834,1625.8969,0.0,0.0,0.0,-0.07141393374006336,0.0,0.0,-0.1099258112213329,-0.1956957907211708,-0.18861045701190282,-0.7098943988586223,-0.16725936236221384,-0.046154125687057554
7043,8.0,298.43326,1690.5512,0.0,0.0,0.0,-0.07142407488373562,0.0,0.0,-0.1247483125616999,-0.15452210946264486,-0.23461491957968977,-0.6711002543999384,-0.15956978708831185,-0.011559576626341389
7044,8.0,299.91353,1811.1208,0.0,0.0,0.0,-0.07143421602740788,0.0,0.0,-0.13128407968172986,-0.18925432678794782,-0.22999708291144477,-0.6668352212840124,-0.14915935158588184,-0.02328571941012158
7045,8.0,300.39556,1553.0494,0.0,0.0,0.0,-0.07144435717108014,0.0,0.0,-0.12622446596988487,-0.15521059264059284,-0.19065317934600381,-0.6441173941044374,-0.17176728165961083,-0.013153104926110387
7046,8.0,300.24656,1405.011,0.0,0.0,0.0,-0.07145449831475241,0.0,0.0,-0.11287690213758289,-0.16773061485122284,-0.14648073375402285,-0.6671759266301374,-0.2022313653236818,-0.06679971354386843
7047,8.0,299.11912,1521.0065,0.0,0.0,0.0,-0.07146463945842466,0.0,0.0,-0.14161274590108985,-0.16959252270497885,-0.15114272786162586,-0.6499720950372514,-0.16940066379854382,-0.040740956591319356
7048,8.0,299.85323,1592.3608,0.0,0.0,0.0,-0.07147478060209693,0.0,0.0,-0.10508434012351689,-0.1945292257485398,-0.18442436621126782,-0.6817838722618295,-0.1304448350214029,-0.0968496494680662
7049,8.0,299.16528,1747.6842,0.0,0.0,0.0,-0.07148492174576918,0.0,0.0,-0.10129266097730731,-0.21047444872971083,-0.2194852616040088,-0.6641418100006934,-0.12756995064517387,-0.055827367026232144
7050,8.0,301.09696,1677.4083,0.0,0.0,0.0,-0.07149506288944145,0.0,0.0,-0.11240404871341589,-0.18221921988613685,-0.2152669697151958,-0.6690574307408274,-0.16889396782103683,-0.061109181418756646
7051,8.0,300.77824,1566.1191,0.0,0.0,0.0,-0.07150520403311371,0.0,0.0,-0.08892324420854092,-0.18365503580784084,-0.20348282038969082,-0.6434251011061134,-0.16414490513234084,-0.01938318867647178
7052,8.0,300.34972999999997,1415.6537,0.0,0.0,0.0,-0.07151534517678597,0.0,0.0,-0.11406766352260189,-0.16741394379746985,-0.14884176860703885,-0.6545791608569334,-0.17680641758693483,-0.041884421488170565
7053,8.0,299.41832,1685.8098,0.0,0.0,0.0,-0.07152548632045823,0.0,0.0,-0.13644539330611188,-0.17860729738716782,-0.1973913938360138,-0.6851132905004174,-0.19800394405146782,0.0024832452780522278
7054,8.0,299.65258,1738.3464,0.0,0.0,0.0,-0.07153562746413049,0.0,0.0,-0.12239577887702288,-0.19656612189456582,-0.2094520084513038,-0.6878989480728404,-0.16722687756400784,-0.05843170551976035
7055,8.0,299.16972999999996,1449.9041,0.0,0.0,0.0,-0.07154576860780275,0.0,0.0,-0.08299920251838351,-0.17116648514531685,-0.1865689404454208,-0.6841325150661223,-0.16313228324740284,-0.03264507917306847
7056,8.0,300.18426,1475.6071,0.0,0.0,0.0,-0.07155590975147502,0.0,0.0,-0.1075276812821559,-0.17757994284577583,-0.16344009849528185,-0.6823216851499073,-0.13541715723713285,-0.06957279262955003
7057,8.0,299.54245,1710.7746,0.0,0.0,0.0,-0.07156605089514727,0.0,0.0,-0.12591637714447887,-0.18010670488514782,-0.21400966819610978,-0.7217085910495924,-0.16456730883402884,-0.002988972385813607
7058,8.0,299.39207000000005,1800.2835,0.0,0.0,0.0,-0.07157619203881954,0.0,0.0,-0.16982054450748282,-0.1909059751134528,-0.1865147315650708,-0.6941304868503453,-0.1792044259360998,-0.049663974384202655
7059,8.0,300.42422999999997,1794.9209,0.0,0.0,0.0,-0.07158633318249179,0.0,0.0,-0.15672388166494286,-0.17909208689751283,-0.2097951658626708,-0.6681936451630783,-0.18323128448351983,-0.010140397258029291
7060,8.0,300.7573,1532.2521,0.0,0.0,0.0,-0.07159647432616406,0.0,0.0,-0.09723731186357551,-0.17710035130844382,-0.19142870070754184,-0.6340036179662853,-0.16544058856521485,-0.05612468297657495
7061,8.0,300.63626,1433.759,0.0,0.0,0.0,-0.07160661546983632,0.0,0.0,-0.08392494428674711,-0.16247267769730483,-0.18942930494771681,-0.6331247146970443,-0.16923536217722984,-0.02423866086416958
7062,8.0,300.22576000000004,1738.3107,0.0,0.0,0.0,-0.07161675661350858,0.0,0.0,-0.1169933623913459,-0.1915509898621108,-0.21985870506086477,-0.6640354288726944,-0.17387220741735085,-0.06365566839782535
7063,8.0,299.84176,1856.3423,0.0,0.0,0.0,-0.07162689775718084,0.0,0.0,-0.1276148072271009,-0.2042420790871238,-0.2324247997535418,-0.6581876889680675,-0.16709599604859082,-0.029457221092701373
7064,8.0,299.73451,1410.4488,0.0,0.0,0.0,-0.0716370389008531,0.0,0.0,-0.1118472779159669,-0.17479245129067184,-0.14210148708682485,-0.6785231017175163,-0.15634913111545787,-0.036948053438988965
7065,8.0,299.04287999999997,1356.8908,0.0,0.0,0.0,-0.07164718004452536,0.0,0.0,-0.08672162298050783,-0.16865462801491585,-0.15708465949554887,-0.6891407063353924,-0.16730766399448085,-0.05990170647333814
7066,8.0,299.40563,1749.9286,0.0,0.0,0.0,-0.07165732118819763,0.0,0.0,-0.11874697407441388,-0.2050337719202578,-0.2081538628206868,-0.6824016812453024,-0.17731615331474185,-0.05931440341062585
7067,8.0,299.76954,1809.6638,0.0,0.0,0.0,-0.07166746233186988,0.0,0.0,-0.14338805126879886,-0.1939172936156468,-0.2127872528779668,-0.6727672230669554,-0.14799879518634385,-0.06963180836837443
7068,8.0,299.2551,1534.3023,0.0,0.0,0.0,-0.07167760347554215,0.0,0.0,-0.08560897507219802,-0.17955127157783085,-0.2012293319022888,-0.6561686564213044,-0.14638464724703987,-0.05541391640242775
7069,8.0,300.03353,1315.0635,0.0,0.0,0.0,-0.0716877446192144,0.0,0.0,-0.07586879032541663,-0.15195467556425885,-0.17192300806747982,-0.6715040852272933,-0.16839359452415384,-0.05799526019818654
7070,8.0,300.83945,1427.3023,0.0,0.0,0.0,-0.07169788576288667,0.0,0.0,-0.11781150105208987,-0.15355444548464386,-0.16249832305733586,-0.6857920059474014,-0.16628198131575384,-0.027643155868917073
7071,8.0,300.78567999999996,1570.7555,0.0,0.0,0.0,-0.07170802690655895,0.0,0.0,-0.1099474137134649,-0.16920962562468986,-0.1983134210295108,-0.6907952120261793,-0.18194660494673182,-0.04058528996520626
7072,8.0,300.27964,1830.7367,0.0,0.0,0.0,-0.07171816805023119,0.0,0.0,-0.12398997592185788,-0.2011510380670618,-0.23135722931568078,-0.6727188910371854,-0.16930715094681484,-0.008108002070272503
7073,8.0,299.12632,1707.5309,0.0,0.0,0.0,-0.07172830919390347,0.0,0.0,-0.12894507288588788,-0.17115744695442484,-0.21894424684561478,-0.6732098816381423,-0.16382917640118083,-0.039837613729666356
7074,8.0,298.35609,1554.6114,0.0,0.0,0.0,-0.07173845033757571,0.0,0.0,-0.10191473169070091,-0.17400556126301184,-0.19664274386712782,-0.7044671678779962,-0.16507232281636985,-0.04179801354614276
7075,8.0,298.9979,1675.1416,0.0,0.0,0.0,-0.07174859148124799,0.0,0.0,-0.13036013744554387,-0.18359648008456184,-0.1952446107166428,-0.7003946522810703,-0.14554362939903787,-0.05419754917413165
7076,8.0,298.85729,1847.8193,0.0,0.0,0.0,-0.07175873262492025,0.0,0.0,-0.18138334934864284,-0.18212859479719282,-0.1981789728737418,-0.6976027429555304,-0.14921491822136587,-0.03522936544711767
7077,8.0,298.83221000000003,1565.1337,0.0,0.0,0.0,-0.07176887376859249,0.0,0.0,-0.10877491109524788,-0.18139362370465684,-0.18559302861160581,-0.6750053101528374,-0.15081228673901384,-0.055665125420220146
7078,8.0,298.85112000000004,1368.5493,0.0,0.0,0.0,-0.07177901491226477,0.0,0.0,-0.09707830657838291,-0.15522892233490185,-0.16369757547819286,-0.6841898143592774,-0.18766608765370082,-0.04360742491221776
7079,8.0,299.79594,1579.6462,0.0,0.0,0.0,-0.07178915605593701,0.0,0.0,-0.11275466364551888,-0.17036950314666083,-0.19704884437470682,-0.6600758298669124,-0.17524363129519982,-0.04219289737511476
7080,8.0,299.52887999999996,1668.6601,0.0,0.0,0.0,-0.07179929719960929,0.0,0.0,-0.10709131499408989,-0.17148504084425584,-0.22865464811895678,-0.6931076615369003,-0.16374244219262082,-0.05468255248024774
7081,8.0,300.04623,1673.1178,0.0,0.0,0.0,-0.07180943834328155,0.0,0.0,-0.1101930154052039,-0.19057734770851983,-0.2078156602023088,-0.6653513874400693,-0.14034667976863888,-0.06377497454409993
7082,8.0,299.22262,1733.4377,0.0,0.0,0.0,-0.0718195794869538,0.0,0.0,-0.14587999803473486,-0.1844745119587168,-0.19656725673467781,-0.7017535017251784,-0.14984064068811986,-0.035137968261597465
7083,8.0,300.39946000000003,1674.8012,0.0,0.0,0.0,-0.07182972063062606,0.0,0.0,-0.10821432034492189,-0.1996069361071708,-0.20127648856194283,-0.6845780006050883,-0.14796070711508486,-0.04296853424716416
7084,8.0,300.36352,1474.3233,0.0,0.0,0.0,-0.07183986177429832,0.0,0.0,-0.12876440026055685,-0.15105923605338586,-0.16833384316575684,-0.6811758107443183,-0.17486995479082085,-0.025408255454599578
7085,8.0,299.89377,1619.5453,0.0,0.0,0.0,-0.0718500029179706,0.0,0.0,-0.07776163777097612,-0.19885645215560382,-0.2156832432537788,-0.6774572132748214,-0.18127721140066783,-0.04602117612818646
7086,8.0,300.55239,1649.4049,0.0,0.0,0.0,-0.07186014406164286,0.0,0.0,-0.11984723196050087,-0.18528147447085783,-0.1962491873957868,-0.6687724541502024,-0.19892789642015482,-0.04535471695441205
7087,8.0,300.60587000000004,1406.5553,0.0,0.0,0.0,-0.07187028520531512,0.0,0.0,-0.09478807358935451,-0.17048407133546783,-0.16228553040383484,-0.7005282391742543,-0.17205854040085586,-0.04563585940665866
7088,8.0,298.52734,1497.06,0.0,0.0,0.0,-0.07188042634898738,0.0,0.0,-0.16531149036997383,-0.14888840850914184,-0.14086896966518486,-0.7037772762824094,-0.14571547661599785,-0.045338040884266254
7089,8.0,300.26939,1865.7709,0.0,0.0,0.0,-0.07189056749265964,0.0,0.0,-0.14638888263245786,-0.1914253164522078,-0.22933357634846177,-0.7147951856172923,-0.12937084057790788,-0.021313146406943775
7090,8.0,299.14777000000004,1634.7921,0.0,0.0,0.0,-0.0719007086363319,0.0,0.0,-0.15086705290691885,-0.15994833732567185,-0.18612057727617082,-0.6787124578962044,-0.15230660772149185,-0.022995673529246276
7091,8.0,299.15819,1539.6972,0.0,0.0,0.0,-0.07191084978000416,0.0,0.0,-0.07821175284964903,-0.16230722408847584,-0.22751054690104278,-0.6736453461336193,-0.14786911943854586,-0.03829971387363746
7092,8.0,300.4003,1905.6925,0.0,0.0,0.0,-0.07192099092367642,0.0,0.0,-0.14913436483841586,-0.18520765920107282,-0.24494092095128678,-0.6559815293928364,-0.16610183558047484,-0.03011427629229767
7093,8.0,299.62778,1696.3906,0.0,0.0,0.0,-0.07193113206734868,0.0,0.0,-0.13152004536501788,-0.1861883941053638,-0.19795196432133783,-0.6783886332967454,-0.16688715507047983,-0.04789591983420925
7094,8.0,299.70467,1482.9902,0.0,0.0,0.0,-0.07194127321102094,0.0,0.0,-0.12237096438207389,-0.16323669867020785,-0.16518433761492485,-0.7022472888964113,-0.18521466075926382,-0.03157690787789817
7095,8.0,301.29846000000003,1736.9369,0.0,0.0,0.0,-0.0719514143546932,0.0,0.0,-0.12479937023423888,-0.2049768779271428,-0.19820920825672583,-0.7101086201947643,-0.18085366272636683,-0.04474220017621136
7096,8.0,300.0764,1525.0338,0.0,0.0,0.0,-0.07196155549836547,0.0,0.0,-0.13873563237464087,-0.13188941555647188,-0.1929471573074018,-0.6831584574799904,-0.1911249789900668,-0.02018518626312278
7097,8.0,300.16444,1385.5412,0.0,0.0,0.0,-0.07197169664203772,0.0,0.0,-0.03924099180578436,-0.19149787529186882,-0.19043105465908183,-0.6832014395492324,-0.17610849091805483,-0.07744544598452043
7098,8.0,300.21007000000003,1559.3186,0.0,0.0,0.0,-0.07198183778570999,0.0,0.0,-0.0940822942321995,-0.1845548120291418,-0.1953567977677148,-0.6579578129178804,-0.18445573643436383,-0.049924815357445654
7099,8.0,298.99875,1555.0383,0.0,0.0,0.0,-0.07199197892938224,0.0,0.0,-0.10127602543716549,-0.17617873954748783,-0.19523804485599483,-0.6682683622254524,-0.15439037681714385,-0.08508466374170251
7100,8.0,299.92706,1617.4739,0.0,0.0,0.0,-0.07200212007305451,0.0,0.0,-0.1349144230675169,-0.17689024376770784,-0.17986701044149184,-0.6608820121764765,-0.14524250160181887,-0.05250832244216795
7101,8.0,299.05676,1793.7011,0.0,0.0,0.0,-0.07201226121672677,0.0,0.0,-0.14024448336355286,-0.1965954858824638,-0.20840038657001678,-0.6665371433695944,-0.15413688190712585,-0.06733625885607133
7102,8.0,298.43994,1831.7859,0.0,0.0,0.0,-0.07202240236039903,0.0,0.0,-0.15133617757071785,-0.18077370716097582,-0.2247072993068838,-0.6647069097139644,-0.14670419593107686,-0.007863174197634873
7103,8.0,300.05735,1591.4284,0.0,0.0,0.0,-0.07203254350407129,0.0,0.0,-0.07363158679362183,-0.1991259260196988,-0.2109969818062808,-0.6974900391469073,-0.17099823496621183,-0.04355887908667666
7104,8.0,299.80458,1616.4159,0.0,0.0,0.0,-0.07204268464774355,0.0,0.0,-0.10067293087164472,-0.16637522058995582,-0.22430190807437478,-0.6866864220756733,-0.1919099742400398,0.0032545379416228874
7105,8.0,300.16913999999997,1686.0387,0.0,0.0,0.0,-0.07205282579141581,0.0,0.0,-0.13500533186648886,-0.1833723187649388,-0.19413601378223283,-0.7040463651114663,-0.19920400707240482,-0.035944399830686063
7106,8.0,300.8113,1651.7384,0.0,0.0,0.0,-0.07206296693508808,0.0,0.0,-0.1181419219096999,-0.2017605485322158,-0.1821847693827368,-0.6926457309488113,-0.2124013768423838,-0.016979110959207785
7107,8.0,299.96907999999996,1471.1213,0.0,0.0,0.0,-0.07207310807876033,0.0,0.0,-0.1089240412449659,-0.16752411448084284,-0.17073598557532982,-0.6782066941087893,-0.16813123367576083,-0.046865862954800545
7108,8.0,299.76951,1666.611,0.0,0.0,0.0,-0.0720832492224326,0.0,0.0,-0.1029270496006089,-0.18185838126052484,-0.2218227079946968,-0.6712785762850374,-0.15129910274955885,-0.028982612719361176
7109,8.0,300.20104,1607.3864,0.0,0.0,0.0,-0.07209339036610485,0.0,0.0,-0.06412407568055355,-0.2019109047145548,-0.22257035484598378,-0.6522239217944894,-0.13107572506366688,-0.06684761392909584
7110,8.0,299.04298,1601.0254,0.0,0.0,0.0,-0.07210353150977712,0.0,0.0,-0.099160577077137,-0.19274414251736582,-0.19476701528200782,-0.6819654264147473,-0.16200738311888385,-0.05241356430606605
7111,8.0,299.0277,1792.5578,0.0,0.0,0.0,-0.07211367265344938,0.0,0.0,-0.15659453015717684,-0.1849969335777758,-0.20330135742928182,-0.6817643064023983,-0.16055423048796885,-0.052671054461228356
7112,8.0,299.47376,1593.0121,0.0,0.0,0.0,-0.07212381379712164,0.0,0.0,-0.15538863081566384,-0.14379769815172788,-0.18504956178796983,-0.6887596229727824,-0.2043605888188198,-0.031637777864405574
7113,8.0,299.40999,1473.0812,0.0,0.0,0.0,-0.0721339549407939,0.0,0.0,-0.12287404305672388,-0.15770214423898984,-0.16720370453422084,-0.6816361505297504,-0.1968728630973388,-0.03047752847964787
7114,8.0,299.50646,1746.8131,0.0,0.0,0.0,-0.07214409608446616,0.0,0.0,-0.12491020966267789,-0.19742304776913783,-0.20865430704507681,-0.6754567029398864,-0.19073586055416383,-0.015447602684809686
7115,8.0,300.0477,1849.1193,0.0,0.0,0.0,-0.07215423722813842,0.0,0.0,-0.0974449673390695,-0.20859553853927681,-0.25604557462723077,-0.6646187265577614,-0.15928699911790284,-0.040426289746264166
7116,8.0,300.32807,1592.0445,0.0,0.0,0.0,-0.0721643783718107,0.0,0.0,-0.1199282007759919,-0.1903334381444478,-0.17368011546339285,-0.6718312130220784,-0.14494335977479586,-0.04353528353159796
7117,8.0,299.95436,1488.1882,0.0,0.0,0.0,-0.07217451951548294,0.0,0.0,-0.1006772837940743,-0.18115654344625884,-0.17053822955331285,-0.6789853464131363,-0.16785091803559585,-0.07333042049289902
7118,8.0,300.70063,1677.1618,0.0,0.0,0.0,-0.07218466065915521,0.0,0.0,-0.15646163227406085,-0.18526035833877383,-0.16809332798951987,-0.6799084476517393,-0.17704928350340385,-0.05215794562383846
7119,8.0,300.81666,1464.1518,0.0,0.0,0.0,-0.07219480180282746,0.0,0.0,-0.1034863839208109,-0.16501836724854482,-0.17656083616019783,-0.6754474317014714,-0.17393906165894885,-0.042693304109251054
7120,8.0,299.89571,1445.5402,0.0,0.0,0.0,-0.07220494294649973,0.0,0.0,-0.0996624864611716,-0.14770615842496287,-0.19203948786782182,-0.6722548224913854,-0.15008653622238788,-0.048588583682069864
7121,8.0,299.89601,1648.6974,0.0,0.0,0.0,-0.072215084090172,0.0,0.0,-0.07205041913182272,-0.17990834091307084,-0.24920406942202675,-0.6963551585049033,-0.17260571571985783,-0.027138892704900178
7122,8.0,299.00171,1488.8843,0.0,0.0,0.0,-0.07222522523384425,0.0,0.0,-0.11798546596175888,-0.15289407999697086,-0.18170409366779783,-0.6865992420370692,-0.16792061950997483,-0.028385764840706873
7123,8.0,299.92647999999997,1593.8646,0.0,0.0,0.0,-0.07223536637751651,0.0,0.0,-0.09888713329915022,-0.1871244852102488,-0.1984834241312888,-0.6979647772162604,-0.14856440152466485,-0.015878707165106382
7124,8.0,299.26425,1769.6187,0.0,0.0,0.0,-0.07224550752118877,0.0,0.0,-0.1884639714449458,-0.14978940063056284,-0.1996665354780528,-0.6594270863578864,-0.14238402174470888,-0.01929232243400398
7125,8.0,299.58893,1769.4705,0.0,0.0,0.0,-0.07225564866486103,0.0,0.0,-0.14009126981593187,-0.1802610431403798,-0.21752253536530278,-0.7059091443603083,-0.16044198264189086,-0.013012719124755386
7126,8.0,299.89295,1512.526,0.0,0.0,0.0,-0.0722657898085333,0.0,0.0,-0.09333560490225701,-0.18232869142694083,-0.18410585104233285,-0.6862900386365534,-0.17561221115157583,-0.07354807066737942
7127,8.0,300.13732999999996,1548.5856,0.0,0.0,0.0,-0.07227593095220555,0.0,0.0,-0.07944654400451343,-0.17172767371320186,-0.2195571314336018,-0.6937839249186424,-0.17270953332510383,-0.029912907020424075
7128,8.0,299.59305,1551.6939,0.0,0.0,0.0,-0.07228607209587783,0.0,0.0,-0.11667632656755689,-0.16806991177970884,-0.1869299614560508,-0.6861005304703504,-0.14492355073534088,-0.05877886526902235
7129,8.0,300.10654,1427.8505,0.0,0.0,0.0,-0.07229621323955007,0.0,0.0,-0.07893093851887713,-0.16566960335281683,-0.18943033846281881,-0.6967311654845123,-0.17772409793750282,-0.04822583508001936
7130,8.0,301.22112999999996,1407.0844,0.0,0.0,0.0,-0.07230635438322235,0.0,0.0,-0.13260895484998486,-0.14179428992150686,-0.15331527793103986,-0.6680082609247824,-0.17299407421818583,-0.06585968596234494
7131,8.0,300.86092,1507.7117,0.0,0.0,0.0,-0.07231649552689462,0.0,0.0,-0.08195143909347734,-0.17007638002523184,-0.20627888404064082,-0.6806722761071234,-0.17421655033133482,-0.027931115467836477
7132,8.0,301.06178,1479.5677,0.0,0.0,0.0,-0.07232663667056687,0.0,0.0,-0.07143960157403974,-0.16715638575455083,-0.21115564663943978,-0.6272167066764694,-0.17507670847372583,-0.04061434997807426
7133,8.0,299.22488,1673.1072,0.0,0.0,0.0,-0.07233677781423914,0.0,0.0,-0.09778270183590132,-0.2034630417477388,-0.2073370515175738,-0.6726768411580354,-0.17653022587467682,-0.031256245632001266
7134,8.0,300.17246,2037.5893,0.0,0.0,0.0,-0.07234691895791139,0.0,0.0,-0.18160956756596883,-0.20518918422059582,-0.2325775066761128,-0.6871924391756133,-0.15200837781955884,-0.018559674723947282
7135,8.0,299.9434,1864.8392,0.0,0.0,0.0,-0.07235706010158366,0.0,0.0,-0.15746397980298485,-0.19359120946846484,-0.21580935236122478,-0.7008378174773073,-0.17270994875764484,-0.037702085792406165
7136,8.0,299.8331,1510.2654,0.0,0.0,0.0,-0.07236720124525592,0.0,0.0,-0.12247296826964088,-0.17043807991342885,-0.16617192208989184,-0.7068782167559483,-0.16528331188469284,-0.02973021296114357
7137,8.0,299.81082000000004,1596.4995,0.0,0.0,0.0,-0.07237734238892818,0.0,0.0,-0.11084178931173289,-0.16220060991295385,-0.21225358418279777,-0.7006067863220063,-0.18470376992634283,-0.04672021737217646
7138,8.0,299.86801,1737.6896,0.0,0.0,0.0,-0.07238748353260042,0.0,0.0,-0.10279420237999791,-0.18551299198620683,-0.23990705392448278,-0.7130926721367673,-0.1912499633899018,-0.029283739503330075
7139,8.0,298.89054,1413.4302,0.0,0.0,0.0,-0.07239762467627268,0.0,0.0,-0.09606328633045821,-0.15091923528706885,-0.18266495873762784,-0.6641095582500104,-0.16062138870459686,-0.06121590806503974
7140,8.0,300.33691,1488.6077,0.0,0.0,0.0,-0.07240776581994494,0.0,0.0,-0.1117392350578039,-0.15597048968558885,-0.18478984552233782,-0.6569768145685634,-0.14590981798517788,-0.02646599736649058
7141,8.0,299.2765,1561.0429,0.0,0.0,0.0,-0.07241790696361722,0.0,0.0,-0.12347328929836487,-0.16992152501244884,-0.18112324804797283,-0.6575000569202034,-0.14388864748070387,-0.05637402964068354
7142,8.0,299.25948999999997,1644.8238,0.0,0.0,0.0,-0.07242804810728948,0.0,0.0,-0.13259556981616388,-0.16899096625310986,-0.1983988177479388,-0.7011787457384544,-0.18082180614322282,-0.03401621123488867
7143,8.0,300.47427000000005,1934.9904,0.0,0.0,0.0,-0.07243818925096174,0.0,0.0,-0.1318212542222449,-0.21470274139701082,-0.2416647591379548,-0.6776114603375444,-0.17648897646310582,-0.05041403479722786
7144,8.0,300.41149,1862.3864,0.0,0.0,0.0,-0.072448330394634,0.0,0.0,-0.1183704300722519,-0.2010198424441138,-0.24672869942772677,-0.6811651614857673,-0.18081666896521584,-0.037673244641559765
7145,8.0,300.22775,1439.8984,0.0,0.0,0.0,-0.07245847153830626,0.0,0.0,-0.09991048752914741,-0.15611658008500687,-0.18166607652404584,-0.6823957739972193,-0.18107486535569783,-0.05695555211157535
7146,8.0,302.1657,1582.8882,0.0,0.0,0.0,-0.07246861268197853,0.0,0.0,-0.12627441919981489,-0.18247799382917582,-0.17240609531765683,-0.7009713537079864,-0.16810000530767885,-0.027841943379535876
7147,8.0,299.80836,1798.2429,0.0,0.0,0.0,-0.07247875382565078,0.0,0.0,-0.16505009210917584,-0.17149314684505584,-0.21007769038805382,-0.6868684423236373,-0.14715660196822586,-0.055444866126732245
7148,8.0,300.54946,1785.6236,0.0,0.0,0.0,-0.07248889496932305,0.0,0.0,-0.13388810204122686,-0.18559213695151783,-0.22330474838596281,-0.6939636450888794,-0.13184728461731388,-0.024042260570786376
7149,8.0,300.47411,1463.649,0.0,0.0,0.0,-0.0724990361129953,0.0,0.0,-0.059460570817051445,-0.1936794230221708,-0.19177273964649583,-0.6673631448511144,-0.13665978689477087,-0.07339645197541583
7150,8.0,299.91006,1494.4113,0.0,0.0,0.0,-0.07250917725666757,0.0,0.0,-0.1081054364891759,-0.14960137180950583,-0.19655690131865583,-0.6843914815266804,-0.17586264604629184,-0.02412890966633798
7151,8.0,299.75671,1754.4806,0.0,0.0,0.0,-0.07251931840033983,0.0,0.0,-0.15979215495525784,-0.17615541453018585,-0.19737071340147283,-0.6824909789766154,-0.17510013481603784,-0.05146117507332255
7152,8.0,299.63432,1783.3181,0.0,0.0,0.0,-0.07252945954401209,0.0,0.0,-0.15252147753769785,-0.1955618086604478,-0.1940008766163958,-0.6898148418919243,-0.15875885263577885,-0.024195233978133678
7153,8.0,299.35363,1756.7374,0.0,0.0,0.0,-0.07253960068768435,0.0,0.0,-0.13353719326659488,-0.17853154680969183,-0.2219355739233358,-0.6746938370720973,-0.15948060081450985,-0.021291285536036278
7154,8.0,301.19045,1744.744,0.0,0.0,0.0,-0.07254974183135661,0.0,0.0,-0.13575163109514288,-0.19373861709301282,-0.20086836155416382,-0.6934566654013443,-0.18536957656705283,-0.02179098299510258
7155,8.0,299.92362,1540.8049,0.0,0.0,0.0,-0.07255988297502887,0.0,0.0,-0.07326924551811152,-0.16580552072123084,-0.2292914454093038,-0.6804039573481424,-0.1876506254571748,-0.009738639540378891
7156,8.0,299.5078,1664.149,0.0,0.0,0.0,-0.07257002411870114,0.0,0.0,-0.1255476149030849,-0.17814955152199183,-0.20216258590689382,-0.6878700400474874,-0.16648780280856684,-0.04391947959851516
7157,8.0,300.30599,1819.7372,0.0,0.0,0.0,-0.07258016526237339,0.0,0.0,-0.14485429509100586,-0.2100938314621468,-0.19820655354146383,-0.6789971001142964,-0.16116909091365084,-0.021544386291765378
7158,8.0,299.89707000000004,1438.5347,0.0,0.0,0.0,-0.07259030640604566,0.0,0.0,-0.1097365361026529,-0.16585233287585086,-0.16168974947753584,-0.6866672412512803,-0.17556120414154183,-0.07227993142522383
7159,8.0,300.95115,1481.3661,0.0,0.0,0.0,-0.07260044754971791,0.0,0.0,-0.1096186748510209,-0.17903061301394585,-0.16164902695601685,-0.7060020999244824,-0.16585219102083684,-0.016078212056795983
7160,8.0,301.16209,1740.5909,0.0,0.0,0.0,-0.07261058869339018,0.0,0.0,-0.1029790901257449,-0.20829828135743983,-0.21781878942954078,-0.6750701986892413,-0.14521253979636187,-0.08349760403057192
7161,8.0,300.87471,1647.8441,0.0,0.0,0.0,-0.07262072983706244,0.0,0.0,-0.061254041732553235,-0.19342277690434181,-0.24622665426817877,-0.6853757324088183,-0.17178463863382384,-0.02985425706488577
7162,8.0,301.03862999999996,1544.1964,0.0,0.0,0.0,-0.0726308709807347,0.0,0.0,-0.0980085583229416,-0.18799183742834982,-0.18339676848985184,-0.6737290811218833,-0.16967405894052584,-0.06573202252924554
7163,8.0,301.23199,1692.1751,0.0,0.0,0.0,-0.07264101212440696,0.0,0.0,-0.14477262713294586,-0.16159003553519485,-0.20801631411961183,-0.6891467149084853,-0.18517192187004583,-0.01957337977324218
7164,8.0,299.99595,1622.7739,0.0,0.0,0.0,-0.07265115326807922,0.0,0.0,-0.14756625898365586,-0.17783986176142783,-0.16787663432313385,-0.6630773299756374,-0.15721119416803683,-0.05039786028588155
7165,8.0,299.87657,1878.5427,0.0,0.0,0.0,-0.07266129441175148,0.0,0.0,-0.14072467271844386,-0.20712091513874278,-0.22318447559909277,-0.6941308820178843,-0.18622104102358583,-0.018345446295054583
7166,8.0,299.41900000000004,1965.0232,0.0,0.0,0.0,-0.07267143555542376,0.0,0.0,-0.15124802481201785,-0.19886179198363083,-0.24720816937504675,-0.7023248633240673,-0.18212569690190683,-0.016288176729267884
7167,8.0,298.87964,1607.1842,0.0,0.0,0.0,-0.072681576699096,0.0,0.0,-0.08217463579900512,-0.19420981891951683,-0.2121594228510048,-0.6944977292165894,-0.17960350462048583,-0.02398868091874848
7168,8.0,299.79287999999997,1359.5547,0.0,0.0,0.0,-0.07269171784276827,0.0,0.0,-0.1083842829166959,-0.14908072337812187,-0.15580567442432283,-0.6814136408077903,-0.15200510502173586,-0.02754219258920277
7169,8.0,300.24768,1627.0913,0.0,0.0,0.0,-0.07270185898644052,0.0,0.0,-0.1205017408625959,-0.16944712131562883,-0.2046462746845148,-0.6829883530532024,-0.17438236871019983,-0.05261352414705055
7170,8.0,299.93321000000003,1621.0695,0.0,0.0,0.0,-0.0727120001301128,0.0,0.0,-0.15540434632471486,-0.16449662450705285,-0.17286368919531783,-0.7040959839688634,-0.18348670456872784,-0.030065761877509672
7171,8.0,300.40395,1518.4051,0.0,0.0,0.0,-0.07272214127378505,0.0,0.0,-0.09628582543667111,-0.16832266701715384,-0.1969487352648268,-0.6940297393929024,-0.15175630145968086,-0.04331371613223096
7172,8.0,300.88928,1559.5035,0.0,0.0,0.0,-0.07273228241745731,0.0,0.0,-0.08038949683907562,-0.17536290096447085,-0.21829771222180677,-0.6779203293655274,-0.13058106649734788,-0.056109892564865246
7173,8.0,300.32729,1733.8425,0.0,0.0,0.0,-0.07274242356112957,0.0,0.0,-0.08498521121788732,-0.19120824788328483,-0.2508513709046028,-0.6612904330267844,-0.14571010639046786,-0.038998706481622666
7174,8.0,300.25883,1823.7907,0.0,0.0,0.0,-0.07275256470480183,0.0,0.0,-0.13279702420104586,-0.1980094358670098,-0.2235803828106658,-0.7152602370156894,-0.15868392279088386,-0.023702467149751376
7175,8.0,299.89803,1774.046,0.0,0.0,0.0,-0.0727627058484741,0.0,0.0,-0.15566846009578084,-0.1941434915679708,-0.1894537445401288,-0.6924753428119953,-0.16967734187084985,-0.04069034474882436
7176,8.0,299.83926,1687.0694,0.0,0.0,0.0,-0.07277284699214637,0.0,0.0,-0.15600175858367485,-0.16915537621433585,-0.18766981641406882,-0.6853758236013274,-0.17549296174730683,-0.04088325743536336
7177,8.0,300.0868,1341.8556,0.0,0.0,0.0,-0.07278298813581861,0.0,0.0,-0.1042301398917139,-0.14377785871476986,-0.15988258752668286,-0.6791030556772534,-0.17433211150523983,-0.061970133949226035
7178,8.0,299.67001,1395.9734,0.0,0.0,0.0,-0.07279312927949089,0.0,0.0,-0.052439468044872546,-0.18034982411414183,-0.19155177006468782,-0.6975162721919963,-0.18032260821645582,-0.04958916207631925
7179,8.0,299.50494,1639.8798,0.0,0.0,0.0,-0.07280327042316313,0.0,0.0,-0.1056048365673859,-0.17750571214344985,-0.21537197282305878,-0.6982834950352154,-0.15636243508927086,-0.029171705453023174
7180,8.0,299.15036000000003,1692.6062,0.0,0.0,0.0,-0.0728134115668354,0.0,0.0,-0.1031122109238829,-0.1856388173836248,-0.22575899211567776,-0.7065917709526783,-0.13985349041496486,-0.032787022339827165
7181,8.0,299.28249,1505.1786,0.0,0.0,0.0,-0.07282355271050767,0.0,0.0,-0.1064525519985489,-0.17052438855694685,-0.18055977966736284,-0.6952799481612884,-0.16095937854045383,-0.04859137822584565
7182,8.0,299.38142,1635.6725,0.0,0.0,0.0,-0.07283369385417993,0.0,0.0,-0.12214419900969388,-0.17879739323842883,-0.19626201514205283,-0.7138438856284063,-0.17507384097594283,-0.020725738979471182
7183,8.0,300.35183,1873.2352,0.0,0.0,0.0,-0.07284383499785219,0.0,0.0,-0.15133184086028986,-0.1958076636647118,-0.2222772317245548,-0.6766825633083693,-0.16908673865256185,-0.06329266445674965
7184,8.0,299.67316,1918.5976,0.0,0.0,0.0,-0.07285397614152445,0.0,0.0,-0.1267713170488549,-0.2173096413867918,-0.23912479444977977,-0.6697165296658754,-0.15948188764213686,-0.049226290871006655
7185,8.0,299.51599999999996,1659.4052,0.0,0.0,0.0,-0.0728641172851967,0.0,0.0,-0.12474862666923088,-0.17211960898438283,-0.20754950979854184,-0.6625807563666294,-0.14869713728776485,-0.05618903753017625
7186,8.0,300.64702,1515.8477,0.0,0.0,0.0,-0.07287425842886897,0.0,0.0,-0.11552612558404089,-0.15469043056925685,-0.19056330406213381,-0.7032291789058163,-0.16453249356059282,-0.00957023666448382
7187,8.0,299.48087000000004,1467.3231,0.0,0.0,0.0,-0.07288439957254123,0.0,0.0,-0.1031104073387049,-0.18952271647443583,-0.15339646966155285,-0.6923884870134234,-0.15776011227721085,-0.03738069197993707
7188,8.0,300.6055,1684.0542,0.0,0.0,0.0,-0.0728945407162135,0.0,0.0,-0.14407273475887186,-0.17609082996881184,-0.19174685110644082,-0.7138269744842373,-0.15762178337355884,-0.03330429968812847
7189,8.0,300.54711000000003,1822.5794,0.0,0.0,0.0,-0.07290468185988574,0.0,0.0,-0.1295132528794629,-0.2061274031506908,-0.21837797176222778,-0.7200228164607192,-0.17651015339019585,-0.05107120550733555
7190,8.0,298.98418,1387.4181,0.0,0.0,0.0,-0.07291482300355802,0.0,0.0,-0.06139511046447565,-0.15622115762782784,-0.2041241874379888,-0.7063496143112794,-0.2120895592566098,-0.02661482050142827
7191,8.0,299.8412,1480.2141,0.0,0.0,0.0,-0.07292496414723028,0.0,0.0,-0.07544515045860663,-0.18457963665659183,-0.18992335556397583,-0.6881890922389754,-0.18127302667775483,-0.02997722509702177
7192,8.0,299.08277999999996,1899.7749,0.0,0.0,0.0,-0.07293510529090254,0.0,0.0,-0.14855776473650986,-0.20101327658346582,-0.22791309090077078,-0.6657872268380833,-0.14877630251807786,-0.03600834199149667
7193,8.0,298.19822,1771.8381,0.0,0.0,0.0,-0.0729452464345748,0.0,0.0,-0.16387690048089085,-0.17426690886130483,-0.2004507403929478,-0.6825161379765983,-0.15387216018599983,-0.023762586317934677
7194,8.0,298.54607000000004,1368.8225,0.0,0.0,0.0,-0.07295538757824706,0.0,0.0,-0.1202995569376419,-0.15502387091216485,-0.14076442251986687,-0.6715380392381444,-0.17511530317003485,-0.05306417726152654
7195,8.0,299.85552,1379.9559,0.0,0.0,0.0,-0.07296552872191932,0.0,0.0,-0.07746491659844201,-0.15677310535480085,-0.18523410502868284,-0.6821333219563174,-0.17482656742153885,-0.03384166978591276
7196,8.0,298.95582,1573.4628,0.0,0.0,0.0,-0.07297566986559159,0.0,0.0,-0.1060182020781819,-0.19195716129719684,-0.18031801819350282,-0.6875091507593704,-0.17396428145393783,-0.07833426390598992
7197,8.0,300.62674,1759.4789,0.0,0.0,0.0,-0.07298581100926384,0.0,0.0,-0.1066577756738029,-0.2002976788328418,-0.22788219690522177,-0.7197130456401473,-0.18871409223213081,-0.03196761205020767
7198,8.0,300.02335,1691.5765,0.0,0.0,0.0,-0.07299595215293611,0.0,0.0,-0.15238410108913986,-0.17046924748650483,-0.19134365862664882,-0.6990366539670464,-0.1939649872978538,-0.04290049348969906
7199,8.0,299.76358,1635.5908,0.0,0.0,0.0,-0.07300609329660837,0.0,0.0,-0.10075250748149832,-0.2086716234892858,-0.18775463557993982,-0.7157765690016473,-0.15869047851903084,-0.013342335461785986
7200,8.0,300.15662000000003,1589.6428,0.0,0.0,0.0,-0.07301623444028063,0.0,0.0,-0.1157685659354679,-0.17719185792497483,-0.1902513142238428,-0.6775935359432753,-0.15365012669158684,-0.06362909084770234
7201,8.0,299.79654,1754.3134,0.0,0.0,0.0,-0.07302637558395289,0.0,0.0,-0.07366059614398483,-0.2184098688753758,-0.24119699222928978,-0.7041906012632013,-0.14794094873813485,-0.03892210882706306
7202,8.0,298.98397,1904.6346,0.0,0.0,0.0,-0.07303651672762514,0.0,0.0,-0.12548814725471588,-0.20847064533195078,-0.24500255695486978,-0.6775599365699594,-0.17556220725914082,-0.033914015843052765
7203,8.0,300.16585,1747.6823,0.0,0.0,0.0,-0.07304665787129741,0.0,0.0,-0.10455703463897591,-0.18843059498665182,-0.23826416007984175,-0.6630157952970644,-0.17567659306292982,-0.03475540758034167
7204,8.0,300.74361,1394.1542,0.0,0.0,0.0,-0.07305679901496966,0.0,0.0,-0.14217908177948288,-0.13494142618268187,-0.14666755680746088,-0.6726894054592754,-0.14598255920985687,-0.043115065410375665
7205,8.0,300.90348,1554.4263,0.0,0.0,0.0,-0.07306694015864193,0.0,0.0,-0.14760735640771186,-0.15308429743824384,-0.17181511719683182,-0.6937404058268474,-0.15350209085197686,-0.03175479305220407
7206,8.0,300.80716,1768.0878,0.0,0.0,0.0,-0.0730770813023142,0.0,0.0,-0.16595750823623084,-0.16157083444579984,-0.2099261892331018,-0.7029367042644513,-0.18383971077106684,-0.029205107242569677
7207,8.0,299.99825,1744.4145,0.0,0.0,0.0,-0.07308722244598645,0.0,0.0,-0.1055838521578149,-0.1882652832328368,-0.23640932471178375,-0.6912560584366613,-0.16663644659823684,-0.05704785108968455
7208,8.0,299.46315,1689.9154,0.0,0.0,0.0,-0.07309736358965872,0.0,0.0,-0.11253036047088188,-0.19183982693561683,-0.2093219172709648,-0.6609688983725514,-0.17765363652554883,-0.03474406728522247
7209,8.0,300.29786,1596.8570000000002,0.0,0.0,0.0,-0.07310750473333097,0.0,0.0,-0.10034777891455471,-0.16996257177399984,-0.2150943017656548,-0.6897146111920324,-0.17540887212150783,-0.05017651580153655
7210,8.0,299.21005,1630.5051,0.0,0.0,0.0,-0.07311764587700324,0.0,0.0,-0.14277519707831487,-0.19403389843715482,-0.15882374117218284,-0.7018295968076883,-0.1996179298707558,-0.017318218409925087
7211,8.0,299.71346,1754.8533,0.0,0.0,0.0,-0.0731277870206755,0.0,0.0,-0.14197200385654588,-0.1855974970445468,-0.2058620734795048,-0.7071604069087983,-0.15854829926499886,-0.045409674626585954
7212,8.0,299.53337999999997,1675.8162,0.0,0.0,0.0,-0.07313792816434776,0.0,0.0,-0.0972774122495331,-0.2192953481377658,-0.1928335314411878,-0.7263713754922733,-0.13165268993560886,-0.04769526591690625
7213,8.0,299.58938,1405.4196,0.0,0.0,0.0,-0.07314806930802002,0.0,0.0,-0.059295708946280855,-0.16902268098123985,-0.19889408426431782,-0.7309399884706603,-0.14252126647075386,-0.053823962849011545
7214,8.0,299.89546,1640.4191,0.0,0.0,0.0,-0.07315821045169228,0.0,0.0,-0.09623532707818731,-0.18749351089666882,-0.21491761121321679,-0.7361918055939743,-0.15992765689113084,-0.032120791147325266
7215,8.0,300.06908,1889.5358,0.0,0.0,0.0,-0.07316835159536454,0.0,0.0,-0.15528930190836085,-0.19363206371249683,-0.22545032573771476,-0.6739967007382953,-0.15215026323106184,-0.055852673960729744
7216,8.0,300.65889,1722.9757,0.0,0.0,0.0,-0.07317849273903682,0.0,0.0,-0.16956782980004184,-0.18662294667575083,-0.16755083388597983,-0.6476393906570314,-0.18454198428287583,-0.04513068026455136
7217,8.0,300.55891,1446.1824,0.0,0.0,0.0,-0.07318863388270906,0.0,0.0,-0.1250869002151159,-0.17713084000395282,-0.13738559820640286,-0.6716657898107524,-0.2023301572084318,-0.07077453460590273
7218,8.0,300.82408,1505.766,0.0,0.0,0.0,-0.07319877502638134,0.0,0.0,-0.0941974308543126,-0.16105118913201483,-0.2024666419969018,-0.7056287476601354,-0.2165043912673198,-0.03499065588255887
7219,8.0,300.13884,1708.0527,0.0,0.0,0.0,-0.07320891617005358,0.0,0.0,-0.09566993250913722,-0.19355312139720582,-0.2299823097249868,-0.7075275783475353,-0.16873791717313583,-0.06211414313293864
7220,8.0,301.59763,1804.7052,0.0,0.0,0.0,-0.07321905731372585,0.0,0.0,-0.1024739342883899,-0.2048823112953098,-0.2412290919924578,-0.7142196696929933,-0.13448728748786187,-0.04589067154180666
7221,8.0,300.25872999999996,1723.8222,0.0,0.0,0.0,-0.07322919845739811,0.0,0.0,-0.14963966253078487,-0.15965696712691585,-0.21470228543446582,-0.7068428239299553,-0.1358995554772419,-0.04671948783210445
7222,8.0,300.90914,1622.8909,0.0,0.0,0.0,-0.07323933960107037,0.0,0.0,-0.15898632728322884,-0.15706356362846685,-0.17726841910253083,-0.7258882679770943,-0.15036214024958786,-0.015719476938391586
7223,8.0,299.8101,1588.3732,0.0,0.0,0.0,-0.07324948074474263,0.0,0.0,-0.14991121355758485,-0.14386305278317787,-0.18905151464793182,-0.6797691764254944,-0.14453071367157086,-0.027476059781675975
7224,8.0,300.14877,1931.6631,0.0,0.0,0.0,-0.0732596218884149,0.0,0.0,-0.14519981337510587,-0.1955212786564478,-0.24645625674083876,-0.6730877444710883,-0.17549042862205683,-0.02202100596655408
7225,8.0,299.74123,1740.6214,0.0,0.0,0.0,-0.07326976303208715,0.0,0.0,-0.0981885753754579,-0.18197604999463782,-0.24894081691354578,-0.6730194311493464,-0.17529022053479784,-0.03541695755738156
7226,8.0,300.37228999999996,1326.7457,0.0,0.0,0.0,-0.07327990417575943,0.0,0.0,-0.05577404980597015,-0.15721616922602785,-0.19030734695437282,-0.6742991558931454,-0.1950865538335438,-0.03629438553447697
7227,8.0,299.10625,1370.3649,0.0,0.0,0.0,-0.07329004531943167,0.0,0.0,-0.08201071321107722,-0.14961794858114186,-0.18492805283597782,-0.6694251189371153,-0.15028260011673786,-0.05437474229861925
7228,8.0,299.72628,1684.3898,0.0,0.0,0.0,-0.07330018646310395,0.0,0.0,-0.16194536208026283,-0.1926015376982918,-0.15746556047314086,-0.6996776258478054,-0.16864913619937386,-0.07779469404223853
7229,8.0,298.88448,1687.3785,0.0,0.0,0.0,-0.0733103276067762,0.0,0.0,-0.1189734354717639,-0.19128321825818384,-0.2026642662964058,-0.7210115459082993,-0.1971200049292298,-0.04820683866714455
7230,8.0,300.50585,1479.5107,0.0,0.0,0.0,-0.07332046875044847,0.0,0.0,-0.08163721909171623,-0.18406820880111782,-0.18402888456473682,-0.7267741322745223,-0.1934829031652758,-0.07285360931384142
7231,8.0,300.37672000000003,1343.4084,0.0,0.0,0.0,-0.07333060989412073,0.0,0.0,-0.035092320331342367,-0.15469829339003285,-0.21857197875887477,-0.7058976338391724,-0.14552408380460888,-0.04688674705261166
7232,8.0,301.20434,1501.7144,0.0,0.0,0.0,-0.07334075103779299,0.0,0.0,-0.09287386480518682,-0.16659957442709786,-0.19701022941339583,-0.6788954305992624,-0.14765744136015485,-0.04512025696077266
7233,8.0,300.09455,1759.1326,0.0,0.0,0.0,-0.07335089218146525,0.0,0.0,-0.14420542999196787,-0.18247687925406583,-0.20805007561294384,-0.6976351973562334,-0.14560060445216086,-0.02869025358850757
7234,8.0,300.36859,1779.6803,0.0,0.0,0.0,-0.0733610333251375,0.0,0.0,-0.18248286756215681,-0.17923012195863583,-0.17926538306211584,-0.6896641412045513,-0.16442424805240985,-0.023684820386009775
7235,8.0,299.94945,1597.3686,0.0,0.0,0.0,-0.07337117446880977,0.0,0.0,-0.10257471214333591,-0.18782165194155384,-0.19516381415366882,-0.6826396126337844,-0.17456807718852782,-0.02699743589818947
7236,8.0,299.78429,1660.5965,0.0,0.0,0.0,-0.07338131561248204,0.0,0.0,-0.09204853713498332,-0.20022499840316882,-0.2125063394202428,-0.6772783543671693,-0.17796796697157083,-0.05185018813121515
7237,8.0,299.7214,1926.4545,0.0,0.0,0.0,-0.07339145675615429,0.0,0.0,-0.11281624898659688,-0.20093740441597782,-0.27184040089605876,-0.7104089171269014,-0.1993560553824108,-0.017619948077703482
7238,8.0,300.24501000000004,1772.2979999999998,0.0,0.0,0.0,-0.07340159789982656,0.0,0.0,-0.13517852670608185,-0.18104015140727184,-0.22251565960558578,-0.7090770404004554,-0.18941772349907382,-0.04509760575478716
7239,8.0,299.25167000000005,1352.0308,0.0,0.0,0.0,-0.0734117390434988,0.0,0.0,-0.1071135355687829,-0.13943054969072388,-0.16443950759891585,-0.6884807562802604,-0.15170275119189586,-0.04775835188138236
7240,8.0,301.32671,1329.1069,0.0,0.0,0.0,-0.07342188018717108,0.0,0.0,-0.14788120751223885,-0.14513922101912588,-0.11099490153434391,-0.6836832602367844,-0.14629281639047687,-0.08153749501687421
7241,8.0,300.98188,1573.8593,0.0,0.0,0.0,-0.07343202133084334,0.0,0.0,-0.1009669770639148,-0.18955797757791581,-0.1878889722781978,-0.6993141021094283,-0.17374984733527482,-0.04768972141235905
7242,8.0,300.22206,1732.2435,0.0,0.0,0.0,-0.0734421624745156,0.0,0.0,-0.1057862488652899,-0.1956835810574658,-0.2250889602220508,-0.7015926381393023,-0.19460154140817681,-0.03830524824568367
7243,8.0,300.51529,1909.3374,0.0,0.0,0.0,-0.07345230361818786,0.0,0.0,-0.0898781513677829,-0.2343184223354278,-0.2561943096094098,-0.6938395118191284,-0.18288062902141283,-0.04432185235897625
7244,8.0,299.66285,1772.7793,0.0,0.0,0.0,-0.07346244476186012,0.0,0.0,-0.1181102375790729,-0.22386279587853777,-0.19690760744326782,-0.6692463410894713,-0.17588195859319783,-0.03588373958694936
7245,8.0,299.68876,1699.5977,0.0,0.0,0.0,-0.07347258590553238,0.0,0.0,-0.13752759507541687,-0.20398416640666983,-0.17512349023084284,-0.6965337539675294,-0.18285691896907283,-0.044429532473603456
7246,8.0,300.53575,1925.8938,0.0,0.0,0.0,-0.07348272704920464,0.0,0.0,-0.1745143951982298,-0.2113961820806788,-0.1995130382204038,-0.6971718887480084,-0.18074652166079283,-0.03706743152602066
7247,8.0,300.08023,1881.3819,0.0,0.0,0.0,-0.0734928681928769,0.0,0.0,-0.13935749435851386,-0.2090316920448218,-0.2235039330906208,-0.6922678798540204,-0.15316258114096987,-0.061034940583929644
7248,8.0,299.12203,1499.2344,0.0,0.0,0.0,-0.07350300933654916,0.0,0.0,-0.07381286128951223,-0.17477112237606685,-0.20714583095870182,-0.6770561283552373,-0.15846828290460185,-0.06329073421530915
7249,8.0,300.39659,1349.8797,0.0,0.0,0.0,-0.07351315048022142,0.0,0.0,-0.07117986909640614,-0.14178331642292388,-0.1973665388110608,-0.6953713939828133,-0.17904026928739883,-0.05561665052218604
7250,8.0,298.75657,1447.1351,0.0,0.0,0.0,-0.07352329162389368,0.0,0.0,-0.11567564076879688,-0.13767784993274587,-0.1865394650000118,-0.6965760571592043,-0.1948414283693518,-0.022944471975193077
7251,8.0,299.10961000000003,1696.6791,0.0,0.0,0.0,-0.07353343276756595,0.0,0.0,-0.17056132152309184,-0.17493489398972983,-0.17025185467754986,-0.6923664589562494,-0.16106571913844886,-0.040171172622836065
7252,8.0,299.26552999999996,1899.115,0.0,0.0,0.0,-0.0735435739112382,0.0,0.0,-0.17366524095192484,-0.21427382249717977,-0.18934448578184582,-0.7117159286958933,-0.15812815511103384,-0.04383388225656736
7253,8.0,299.85971,1876.4297,0.0,0.0,0.0,-0.07355371505491047,0.0,0.0,-0.15568658714006986,-0.1980954506679988,-0.21660572640982081,-0.6859563044511164,-0.16784170759218683,-0.03634603697157457
7254,8.0,299.35961000000003,1757.5209,0.0,0.0,0.0,-0.07356385619858273,0.0,0.0,-0.09762360839795,-0.1877291118099208,-0.24888973897600478,-0.6932446630829213,-0.2087569695452088,-0.006452824392019183
7255,8.0,301.02572000000004,1874.0764,0.0,0.0,0.0,-0.07357399734225499,0.0,0.0,-0.1084685245300099,-0.2111034541267888,-0.2501004512554928,-0.6424457340894574,-0.16753106537652884,-0.028770938693970575
7256,8.0,300.5309,1854.6079,0.0,0.0,0.0,-0.07358413848592726,0.0,0.0,-0.14067383796092686,-0.18806350460792282,-0.23501715960438777,-0.6809054857501393,-0.17534307166001384,-0.02442921369122568
7257,8.0,300.70292,1609.3294,0.0,0.0,0.0,-0.07359427962959951,0.0,0.0,-0.14852879591615087,-0.15870648787061084,-0.18196066885811985,-0.6474370547445624,-0.1873011554976848,-0.04146334413086346
7258,8.0,299.97767000000005,1351.4339,0.0,0.0,0.0,-0.07360442077327178,0.0,0.0,-0.10086729250582671,-0.15668530723363583,-0.15324954839705285,-0.7006580061145613,-0.17321684738517185,-0.049241539271761545
7259,8.0,299.21108,1393.88,0.0,0.0,0.0,-0.07361456191694403,0.0,0.0,-0.09204740128162121,-0.15069647225258384,-0.18096085445444582,-0.6991726726604703,-0.14781126285783586,-0.08464086627740312
7260,8.0,298.89338,1572.8981,0.0,0.0,0.0,-0.0736247030606163,0.0,0.0,-0.08124673682117863,-0.1940879958599938,-0.20278702154602082,-0.7174038081322434,-0.16643035152789684,-0.07425826779497043
7261,8.0,299.34722,1604.578,0.0,0.0,0.0,-0.07363484420428856,0.0,0.0,-0.08728507717561641,-0.18576156250073883,-0.2147049908122328,-0.7417140490364773,-0.19366362645311183,-0.06386306448129374
7262,8.0,299.42109,1698.3951,0.0,0.0,0.0,-0.07364498534796081,0.0,0.0,-0.15222347055078686,-0.18151201184634083,-0.18253421907722484,-0.7049426861499263,-0.1940261774713928,-0.028243601798676476
7263,8.0,299.4562,1711.2377,0.0,0.0,0.0,-0.07365512649163308,0.0,0.0,-0.15042744421853285,-0.18801900266353083,-0.18172708431256682,-0.6680520839916073,-0.14765343902225986,-0.04488391941469796
7264,8.0,299.41601,1886.5033,0.0,0.0,0.0,-0.07366526763530533,0.0,0.0,-0.15420100037345386,-0.2093438541356298,-0.20990504270351482,-0.6801234694554603,-0.11956609558775488,-0.04259926943372056
7265,8.0,299.58128999999997,1983.7839999999999,0.0,0.0,0.0,-0.0736754087789776,0.0,0.0,-0.12845110332963688,-0.2228966213781838,-0.25167307620569873,-0.6863027954553124,-0.17630607468755483,-0.04573976516466336
7266,8.0,299.43067,1800.3031,0.0,0.0,0.0,-0.07368554992264988,0.0,0.0,-0.12393538200646988,-0.17760918524366182,-0.24570262158146075,-0.7042683682083763,-0.16689988149173585,-0.024075911619857476
7267,8.0,299.53949,1450.5987,0.0,0.0,0.0,-0.07369569106632212,0.0,0.0,-0.0906843762338511,-0.14026574135065087,-0.2099956576599578,-0.6901017740552423,-0.16893413305500082,-0.045749185350843054
7268,8.0,300.01854,1345.5732,0.0,0.0,0.0,-0.0737058322099944,0.0,0.0,-0.10864373573730189,-0.13991251223328985,-0.16046440586660385,-0.6924086810879163,-0.17420821128301184,-0.043097144055856955
7269,8.0,300.55856,1655.5114,0.0,0.0,0.0,-0.07371597335366664,0.0,0.0,-0.13198808585120989,-0.16646288698860784,-0.20478314450802282,-0.7180216779107222,-0.2275655258514688,-0.03121914649283987
7270,8.0,300.09514,1778.8301,0.0,0.0,0.0,-0.07372611449733892,0.0,0.0,-0.13902465183316487,-0.17868877282770884,-0.22300651848402978,-0.6914103460293883,-0.2039005428759168,-0.043399738025970656
7271,8.0,300.39812,1627.0703,0.0,0.0,0.0,-0.07373625564101118,0.0,0.0,-0.11062691949552689,-0.17222971887274985,-0.21173210488633182,-0.6885031997699753,-0.14210377703205085,-0.047890720847946155
7272,8.0,300.10458,1801.6168,0.0,0.0,0.0,-0.07374639678468344,0.0,0.0,-0.1133086074751889,-0.18804678598127283,-0.24629111723954075,-0.6850350979902003,-0.11003630614473789,-0.06106496723739304
7273,8.0,300.66157999999996,2018.8642,0.0,0.0,0.0,-0.0737565379283557,0.0,0.0,-0.15349311345609085,-0.2190876419997668,-0.24110356043756875,-0.7319698052097953,-0.15582162298089686,-0.03608516762732877
7274,8.0,299.26351,1720.3631,0.0,0.0,0.0,-0.07376667907202795,0.0,0.0,-0.13101262997993987,-0.1992773258496408,-0.19265746910381182,-0.7213753634892054,-0.14958744975313187,-0.04480241661640425
7275,8.0,299.55258,1633.9369,0.0,0.0,0.0,-0.07377682021570021,0.0,0.0,-0.13196194399862987,-0.1802899207682298,-0.18442416356124783,-0.6985530904893223,-0.16121654141583386,-0.024557808301166977
7276,8.0,299.3731,1580.6569,0.0,0.0,0.0,-0.07378696135937249,0.0,0.0,-0.1198421251799969,-0.16567931028877486,-0.1949588133934368,-0.6739823835143823,-0.17060288504219384,-0.05240351387832415
7277,8.0,299.83375,1242.4966,0.0,0.0,0.0,-0.07379710250304473,0.0,0.0,-0.039092610447890266,-0.16729810904603784,-0.17129723493822085,-0.7244215175298373,-0.2247052728066838,-0.050895108719456156
7278,8.0,300.24343999999996,1343.6378,0.0,0.0,0.0,-0.07380724364671701,0.0,0.0,-0.04822983235166386,-0.15931253302042286,-0.20088998431129781,-0.7003321448824014,-0.20537868225429778,-0.07205712684748472
7279,8.0,299.87372,1652.7719,0.0,0.0,0.0,-0.07381738479038925,0.0,0.0,-0.12469210757865287,-0.16624293065689985,-0.21146635978260478,-0.6738523024665444,-0.15119656183943886,-0.05692819841187575
7280,8.0,298.98978,1516.0784,0.0,0.0,0.0,-0.07382752593406153,0.0,0.0,-0.14090814191405085,-0.16123392878754986,-0.15870790642075086,-0.6595254425450934,-0.15068463749141586,-0.07389601163246852
7281,8.0,300.19615,1573.2296,0.0,0.0,0.0,-0.07383766707773379,0.0,0.0,-0.12346056287710888,-0.18225579821474683,-0.17250615376503184,-0.6800311725038514,-0.2015341884598758,-0.06631011109554844
7282,8.0,299.06903,1795.4507,0.0,0.0,0.0,-0.07384780822140605,0.0,0.0,-0.13403538807576287,-0.19078828611433782,-0.22094849607341877,-0.7279402818146123,-0.19209446681824782,-0.04392165200672955
7283,8.0,299.14258,1876.0510000000002,0.0,0.0,0.0,-0.07385794936507831,0.0,0.0,-0.12237784435025288,-0.21176103317668682,-0.23613379161209078,-0.7017738173896833,-0.17775010806756983,-0.04904610055272325
7284,8.0,299.83132,1744.1325,0.0,0.0,0.0,-0.07386809050875057,0.0,0.0,-0.1107244752151549,-0.1956577938424208,-0.22379047008639977,-0.7414711121925013,-0.16111807377111584,-0.04736645106070476
7285,8.0,299.80908,1563.4825,0.0,0.0,0.0,-0.07387823165242283,0.0,0.0,-0.1147697445168919,-0.17172733934066883,-0.18876254585191282,-0.7161995502558923,-0.16303918582821483,-0.035897455953553065
7286,8.0,300.39817,1581.6004,0.0,0.0,0.0,-0.0738883727960951,0.0,0.0,-0.13944922389006686,-0.16809408792709482,-0.17322371722084984,-0.7058539931573653,-0.17112103074583085,-0.02174694613250648
7287,8.0,301.28232,1619.497,0.0,0.0,0.0,-0.07389851393976735,0.0,0.0,-0.12099256934353687,-0.17561847303719383,-0.1956756067791788,-0.6606805881890974,-0.1230447858310749,-0.04169847590931916
7288,8.0,299.1965,1710.405,0.0,0.0,0.0,-0.07390865508343962,0.0,0.0,-0.13120841016426188,-0.16692040993876184,-0.2217915910841258,-0.6551874959519713,-0.16765278711104184,-0.052248579832033355
7289,8.0,299.78385,1753.7288,0.0,0.0,0.0,-0.07391879622711187,0.0,0.0,-0.11106481579124389,-0.18030033697925782,-0.24172460168886079,-0.6604120363825934,-0.2196258601878848,-0.054846119417390544
7290,8.0,299.71166,1487.7187,0.0,0.0,0.0,-0.07392893737078414,0.0,0.0,-0.10009047215766051,-0.16116580798332683,-0.1909730624025738,-0.7256683927053943,-0.20936850651056282,-0.04260953973673416
7291,8.0,299.50455,1514.6329,0.0,0.0,0.0,-0.0739390785144564,0.0,0.0,-0.1119809965316639,-0.15589757620839287,-0.19253202874143183,-0.7195144486205473,-0.16249246647175786,-0.054437506049563544
7292,8.0,299.08936,1977.8949,0.0,0.0,0.0,-0.07394921965812866,0.0,0.0,-0.17859536130098982,-0.20912501237903183,-0.21351028788432477,-0.7352813091866154,-0.13221423314102887,-0.036219133476050165
7293,8.0,299.92737999999997,1809.4913,0.0,0.0,0.0,-0.07395936080180092,0.0,0.0,-0.12726662409523787,-0.2082799516631308,-0.2144936065763708,-0.7347753630141823,-0.17325986998441784,-0.03525305827420597
7294,8.0,299.30169,1499.6622,0.0,0.0,0.0,-0.07396950194547318,0.0,0.0,-0.07432322928538164,-0.1906435028075488,-0.1908931169696838,-0.7007663022852493,-0.17377236175249683,-0.015607503683090683
7295,8.0,300.11312999999996,1766.1314,0.0,0.0,0.0,-0.07397964308914544,0.0,0.0,-0.09537574446185311,-0.21924980254577078,-0.22223428005281576,-0.6774533122619363,-0.13839563630358587,-0.05086335447457225
7296,8.0,300.51048,1767.4738,0.0,0.0,0.0,-0.0739897842328177,0.0,0.0,-0.11982537615584388,-0.19250044573581482,-0.22494205922255275,-0.6681019662940304,-0.14776424805319585,-0.047595626955072655
7297,8.0,300.74507,1497.8617,0.0,0.0,0.0,-0.07399992537648996,0.0,0.0,-0.1180680965074139,-0.18572349469448182,-0.15152096399145487,-0.6854300527466795,-0.18042771264932883,-0.06642138824803065
7298,8.0,300.74003999999996,1702.5899,0.0,0.0,0.0,-0.07401006652016222,0.0,0.0,-0.1341265603197609,-0.18466071692959382,-0.1987575386808418,-0.7023845234899554,-0.15935349872196586,-0.04255883467522996
7299,8.0,300.18835,1695.8144,0.0,0.0,0.0,-0.07402020766383448,0.0,0.0,-0.13030388179999186,-0.17375830797360983,-0.2114230433408298,-0.6954447431575523,-0.15527000962645685,-0.04692783231766646
7300,8.0,299.42217,1544.8694,0.0,0.0,0.0,-0.07403034880750674,0.0,0.0,-0.08794964663795432,-0.16378491763681283,-0.21786717212181578,-0.7064808605967323,-0.16819361948441786,-0.05747358939745165
7301,8.0,299.29732,1820.0149,0.0,0.0,0.0,-0.07404048995117901,0.0,0.0,-0.11729333508345088,-0.18536268646637283,-0.25058306227812277,-0.7224541202081703,-0.2031810846424118,-0.03615009162748626
7302,8.0,299.40966000000003,1959.8184,0.0,0.0,0.0,-0.07405063109485127,0.0,0.0,-0.15558489736003386,-0.2086299079826688,-0.23152106172434977,-0.7047293666063733,-0.2069883820256628,-0.02096635750721838
7303,8.0,298.79715,1717.6452,0.0,0.0,0.0,-0.07406077223852353,0.0,0.0,-0.14647939626389087,-0.19129425255177282,-0.18434761251619283,-0.6762877200094014,-0.15935697416980885,-0.02956043581413787
7304,8.0,299.35452999999995,1731.5691,0.0,0.0,0.0,-0.07407091338219579,0.0,0.0,-0.14896847553204387,-0.18883199401376682,-0.1885533097062628,-0.6699359996375354,-0.14365192185984085,-0.03695856894852676
7305,8.0,299.98400000000004,1900.2768,0.0,0.0,0.0,-0.07408105452586805,0.0,0.0,-0.15332806514730185,-0.19712946868516382,-0.22717916345583777,-0.7291237680639133,-0.16316626765575684,-0.016365927462441286
7306,8.0,300.5792,1612.9618,0.0,0.0,0.0,-0.07409119566954031,0.0,0.0,-0.09895416485951572,-0.17709810189322184,-0.21424783263211478,-0.7134164562062223,-0.16008332250399385,-0.030017124859459576
7307,8.0,300.26007999999996,1436.7106,0.0,0.0,0.0,-0.07410133681321257,0.0,0.0,-0.05393106541108174,-0.19164589086647682,-0.19114719956475984,-0.7309109791202973,-0.16300794732763185,-0.05551430719583555
7308,8.0,300.64685,1703.2479999999998,0.0,0.0,0.0,-0.07411147795688483,0.0,0.0,-0.1184302827556589,-0.18470512768147682,-0.2146094514603038,-0.7062499307664413,-0.16890107070423785,-0.07374951491976042
7309,8.0,300.44397999999995,1735.2905,0.0,0.0,0.0,-0.07412161910055709,0.0,0.0,-0.13442682685439486,-0.18859663628053883,-0.20446152879378182,-0.7218968731831743,-0.20130934826268582,-0.07164071854663843
7310,8.0,300.23771,1680.2532,0.0,0.0,0.0,-0.07413176024422935,0.0,0.0,-0.14676567994714487,-0.18445667875695682,-0.17953265817349384,-0.6926588221401033,-0.19433601921947183,-0.05568273165395775
7311,8.0,299.60809,1793.7511,0.0,0.0,0.0,-0.07414190138790162,0.0,0.0,-0.13656973935838387,-0.17941512116189381,-0.2292706940472558,-0.6762319912539013,-0.16602179895507582,-0.06685947807451674
7312,8.0,299.28637000000003,1674.7352,0.0,0.0,0.0,-0.07415204253157387,0.0,0.0,-0.10687515835025689,-0.17289533299594084,-0.22930719131585778,-0.6654666142414414,-0.15329125377116884,-0.049779505160604656
7313,8.0,299.81365,1555.8287,0.0,0.0,0.0,-0.07416218367524614,0.0,0.0,-0.07538826963774294,-0.1859417892960258,-0.21160301682359178,-0.7143762370984453,-0.17957177975985483,-0.057309765094783444
7314,8.0,300.39412000000004,1742.9877,0.0,0.0,0.0,-0.07417232481891839,0.0,0.0,-0.14149227046419988,-0.2004796180207978,-0.18785283977963183,-0.7412815533637933,-0.18843753574983682,-0.04020518236244256
7315,8.0,299.47749,1869.5273,0.0,0.0,0.0,-0.07418246596259066,0.0,0.0,-0.15498585376841287,-0.19881144358616182,-0.21449232988124478,-0.7222287531209283,-0.1858852499404458,-0.036428497291212766
7316,8.0,300.44703,1656.6579,0.0,0.0,0.0,-0.07419260710626294,0.0,0.0,-0.13361578094435086,-0.2069749868593408,-0.16299185691604384,-0.7168390123940024,-0.17412025104183082,-0.04085705073477696
7317,8.0,300.49338,1543.1093,0.0,0.0,0.0,-0.07420274824993518,0.0,0.0,-0.09551110555596222,-0.17749900442778785,-0.1960565786842778,-0.6935109756067044,-0.16366010548949483,-0.04133654905309976
7318,8.0,301.40621,1756.237,0.0,0.0,0.0,-0.07421288939360746,0.0,0.0,-0.1026206529028699,-0.16986207762908184,-0.2613694642301578,-0.6873551266116693,-0.16165034418114685,-0.026673797736748873
7319,8.0,300.42438,1656.6897,0.0,0.0,0.0,-0.0742230305372797,0.0,0.0,-0.1087625595765289,-0.16982542837296483,-0.2250043031761958,-0.6752116484032014,-0.12400582315342189,-0.03571003913555647
7320,8.0,300.3449,1642.3298,0.0,0.0,0.0,-0.07423317168095198,0.0,0.0,-0.12143884521758089,-0.18558127491044582,-0.1922071402293678,-0.6970533891488133,-0.14568391387538285,-0.06335000529315873
7321,8.0,299.66399,1732.557,0.0,0.0,0.0,-0.07424331282462424,0.0,0.0,-0.17083393646249684,-0.16689492669874684,-0.18892519275796482,-0.7106261782133433,-0.18610861079248983,-0.020525253261684778
7322,8.0,300.38955,1633.9727,0.0,0.0,0.0,-0.0742534539682965,0.0,0.0,-0.15960444024173184,-0.16933993972005085,-0.16774251040739685,-0.7453854594488173,-0.2065951497943538,-0.033942377726601865
7323,8.0,299.24978,1675.4885,0.0,0.0,0.0,-0.07426359511196876,0.0,0.0,-0.12910295751646986,-0.16362386153341785,-0.21657984800226682,-0.7200457260454803,-0.18253659008245882,-0.04543683074251605
7324,8.0,299.61533,2057.7323,0.0,0.0,0.0,-0.074273736255641,0.0,0.0,-0.12382796736336889,-0.2308880641218778,-0.27078321627172275,-0.7265403248139473,-0.16392488800562685,-0.04488936462073536
7325,8.0,300.26542,1960.3616,0.0,0.0,0.0,-0.07428387739931328,0.0,0.0,-0.11955744243190089,-0.2296722957243908,-0.24667124814705677,-0.7074177015066914,-0.17195239232037982,-0.03643766112511716
7326,8.0,300.3085,1592.5421,0.0,0.0,0.0,-0.07429401854298555,0.0,0.0,-0.09260135625704231,-0.2028695608991668,-0.18862209925555182,-0.6922836460255763,-0.17591399756135984,-0.04704662069313996
7327,8.0,300.46797999999995,1668.0504,0.0,0.0,0.0,-0.0743041596866578,0.0,0.0,-0.12101854907610089,-0.2055425551929708,-0.18048458637744183,-0.6783643456918483,-0.14436869498058086,-0.04788998117537316
7328,8.0,300.41796,1682.2507,0.0,0.0,0.0,-0.07431430083033007,0.0,0.0,-0.12106016325770788,-0.18804143602074483,-0.2022605975890668,-0.6721214281157204,-0.16471317631842483,-0.03455888873669677
7329,8.0,301.06293,1529.2165,0.0,0.0,0.0,-0.07432444197400231,0.0,0.0,-0.08141666494244922,-0.19055030406335083,-0.19287666549794483,-0.7058784124847753,-0.18742013132442684,-0.044571155453330555
7330,8.0,301.57493,1534.01,0.0,0.0,0.0,-0.07433458311767459,0.0,0.0,-0.08460408124577272,-0.16280564181266582,-0.21889101068536077,-0.7052336105186383,-0.17959243992939383,-0.04823326625625275
7331,8.0,300.38844,1649.3528,0.0,0.0,0.0,-0.07434472426134685,0.0,0.0,-0.1114392522331979,-0.19091848875218784,-0.19900433600769882,-0.7114970058792873,-0.15018277471688585,-0.05471286183048904
7332,8.0,299.75233,1653.3365,0.0,0.0,0.0,-0.07435486540501911,0.0,0.0,-0.11769730776581988,-0.19292940516564983,-0.1919463093886258,-0.7088949796224874,-0.16477206641423686,-0.08613525514763783
7333,8.0,299.5311,1886.7237,0.0,0.0,0.0,-0.07436500654869137,0.0,0.0,-0.17173529335395385,-0.20033351748887882,-0.2014480925988788,-0.7246745463448093,-0.18852664096363084,-0.06425445057092054
7334,8.0,300.22024,1922.368,0.0,0.0,0.0,-0.07437514769236363,0.0,0.0,-0.16967555855067382,-0.18902871652068182,-0.2256475852671828,-0.6790355225580883,-0.1965089948539278,-0.028000655835449573
7335,8.0,300.33545,1610.5205,0.0,0.0,0.0,-0.07438528883603589,0.0,0.0,-0.1195536630090279,-0.17526964142526683,-0.19473471286881983,-0.6725624452217454,-0.16998851097655984,-0.03317090328596327
7336,8.0,300.74146,1648.8643,0.0,0.0,0.0,-0.07439542997970816,0.0,0.0,-0.09715800680474872,-0.18725265121539783,-0.21680291501178178,-0.6667331869989424,-0.18502199125274882,-0.03634113284109056
7337,8.0,299.6505,1931.1347,0.0,0.0,0.0,-0.0744055711233804,0.0,0.0,-0.1323230258042659,-0.21750412461098578,-0.23718957795128878,-0.7227845309332793,-0.19522581492728783,0.0033153521993747864
7338,8.0,299.93941,1979.865,0.0,0.0,0.0,-0.07441571226705268,0.0,0.0,-0.14950391741488786,-0.21997712360005178,-0.23234849188851076,-0.7214729698713382,-0.17086170964773784,-0.03631440127695237
7339,8.0,299.96027000000004,1649.6858,0.0,0.0,0.0,-0.07442585341072493,0.0,0.0,-0.13339247075481186,-0.17047182114175882,-0.19759899864900282,-0.7278078297615402,-0.14610474703941587,-0.04157171528205886
7340,8.0,300.94437,1586.1191,0.0,0.0,0.0,-0.0744359945543972,0.0,0.0,-0.11742126804107689,-0.17885707366931883,-0.18586226942817782,-0.7021086560177293,-0.17809114778622784,-0.05082022345756555
7341,8.0,300.56731,1666.8448,0.0,0.0,0.0,-0.07444613569806946,0.0,0.0,-0.11922795376438289,-0.16540492216169483,-0.2220463322917668,-0.7106826669064182,-0.20880158294711182,-0.04195261018015026
7342,8.0,301.6144,1756.0891,0.0,0.0,0.0,-0.07445627684174172,0.0,0.0,-0.12267770558484688,-0.19401650093293782,-0.2171130202048868,-0.6965560859997333,-0.18836069086225282,-0.06324138488243873
7343,8.0,300.65673,1794.9254,0.0,0.0,0.0,-0.07446641798541398,0.0,0.0,-0.13374944889754287,-0.18296726190496282,-0.2288957712452538,-0.6850116615153874,-0.15760653395955385,-0.06724388287095454
7344,8.0,300.7134,1679.1374,0.0,0.0,0.0,-0.07447655912908624,0.0,0.0,-0.12348082787910888,-0.19845475928595982,-0.18848024424155183,-0.6966484032163444,-0.15350001368927185,-0.07097597784503364
7345,8.0,300.11138,1436.5452,0.0,0.0,0.0,-0.0744867002727585,0.0,0.0,-0.09491252096663651,-0.17318328854185985,-0.16857807696986085,-0.7258564113939503,-0.17787224523462383,-0.06792450525462673
7346,8.0,300.13414,1764.7154,0.0,0.0,0.0,-0.07449684141643077,0.0,0.0,-0.13274729388613787,-0.1914003499697438,-0.2122817728005798,-0.6922887325410784,-0.18888345698634582,-0.02448479045921068
7347,8.0,299.76526,2090.4244,0.0,0.0,0.0,-0.07450698256010302,0.0,0.0,-0.15205399433906086,-0.2240805737225308,-0.25930226177364074,-0.7028407190824784,-0.16663397426799284,-0.03517332359733676
7348,8.0,299.61837,1659.2318,0.0,0.0,0.0,-0.07451712370377529,0.0,0.0,-0.1085723725327589,-0.17941189902657584,-0.2163807747551198,-0.6938020722279333,-0.1959163144729348,-0.026426465413839077
7349,8.0,299.22252000000003,1470.6828,0.0,0.0,0.0,-0.07452726484744754,0.0,0.0,-0.07739567615285851,-0.17335926981922783,-0.19629591849039882,-0.7050081826363903,-0.1934398603010278,-0.05613559669340204
7350,8.0,299.83262,1737.1062,0.0,0.0,0.0,-0.07453740599111981,0.0,0.0,-0.14950240767223885,-0.16491901807623985,-0.2136154733772058,-0.7110283777080373,-0.14344709335212588,-0.04120152638452406
7351,8.0,299.27389,1875.6434,0.0,0.0,0.0,-0.07454754713479207,0.0,0.0,-0.17263991291073283,-0.17890149455370283,-0.2186073411873648,-0.6841396990093314,-0.1279150230992299,-0.059776444442975744
7352,8.0,300.46292,1744.9334,0.0,0.0,0.0,-0.07455768827846433,0.0,0.0,-0.14871941865746385,-0.17103704244504184,-0.2106597113779948,-0.6918192127097403,-0.15909326569878285,-0.03698127284351746
7353,8.0,300.21635,1607.0357,0.0,0.0,0.0,-0.07456782942213659,0.0,0.0,-0.12822406437972989,-0.15526156925312384,-0.2050130914857168,-0.6857463083678914,-0.21008555320882977,-0.014188461103542088
7354,8.0,300.34187000000003,1628.5835,0.0,0.0,0.0,-0.07457797056580885,0.0,0.0,-0.07778197268723301,-0.17848305265990583,-0.23878370406861676,-0.7107956240275664,-0.21493155353459278,-0.039246850417862564
7355,8.0,300.51642000000004,1824.2076,0.0,0.0,0.0,-0.07458811170948111,0.0,0.0,-0.12962889511337589,-0.19148875604096882,-0.23339591891438377,-0.7053340134710473,-0.18586629203107483,-0.037616089229918964
7356,8.0,301.95296,2158.9141,0.0,0.0,0.0,-0.07459825285315337,0.0,0.0,-0.17776236839377982,-0.22335314121073876,-0.2551404585779028,-0.7245544964729613,-0.17852222490877181,-0.05563976377021714
7357,8.0,300.5941,1739.8068,0.0,0.0,0.0,-0.07460839399682563,0.0,0.0,-0.15869504827698186,-0.18127631974057984,-0.18888645620664182,-0.7182272764885133,-0.16483933608837584,-0.03484925480460367
7358,8.0,300.66335,1382.0107,0.0,0.0,0.0,-0.07461853514049789,0.0,0.0,-0.05639027305303665,-0.18160845299085884,-0.18209801490917482,-0.7101311548769883,-0.12951869403249988,-0.03993650187317586
7359,8.0,300.01759,1700.0335,0.0,0.0,0.0,-0.07462867628417015,0.0,0.0,-0.1260161012193209,-0.17394551606208583,-0.21680612701459878,-0.6580262275646324,-0.14046109596993087,-0.029206119479419573
7360,8.0,299.65178,2031.4588,0.0,0.0,0.0,-0.07463881742784241,0.0,0.0,-0.1268054129147199,-0.2214998459828328,-0.26920747051120875,-0.6899838013460993,-0.17876069331980685,-0.045187630999671956
7361,8.0,299.68593,1696.8415,0.0,0.0,0.0,-0.07464895857151468,0.0,0.0,-0.14160934138075387,-0.1885035692588538,-0.1856845453606378,-0.7044980618735452,-0.22630079720914978,-0.06332919212285465
7362,8.0,300.22701,1403.0812,0.0,0.0,0.0,-0.07465909971518693,0.0,0.0,-0.09971929432802809,-0.15194896083369486,-0.17483338659471184,-0.7128875700515254,-0.18286987843785182,-0.06570830943715524
7363,8.0,300.62102999999996,1714.8975,0.0,0.0,0.0,-0.0746692408588592,0.0,0.0,-0.14317491411026387,-0.2123852864307958,-0.16572581846836484,-0.7241805362585543,-0.15349929428170087,-0.08314785036105392
7364,8.0,300.30652000000003,1955.8754,0.0,0.0,0.0,-0.07467938200253145,0.0,0.0,-0.15474029260667785,-0.1973673899411448,-0.24242961097593976,-0.7190187058766213,-0.16542805466147784,-0.04395979985974446
7365,8.0,299.48277,1819.1027,0.0,0.0,0.0,-0.07468952314620372,0.0,0.0,-0.12617202014470888,-0.18424526412359182,-0.24254449327227778,-0.7272095765049973,-0.17432065164660884,-0.04304121872983756
7366,8.0,299.78656,1574.4975,0.0,0.0,0.0,-0.07469966428987598,0.0,0.0,-0.07262349717638113,-0.1827148207750488,-0.2232695987399938,-0.6872409839879043,-0.16431346941897684,-0.024436856636729978
7367,8.0,300.22209,1378.7641,0.0,0.0,0.0,-0.07470980543354824,0.0,0.0,-0.08073468277714282,-0.16280257166486284,-0.17557260320516682,-0.6700514898839334,-0.17910292867358285,-0.048649519529833755
7368,8.0,298.5525,1584.7163,0.0,0.0,0.0,-0.0747199465772205,0.0,0.0,-0.12198014368600289,-0.1891721724698398,-0.17056185854564485,-0.7036055101254574,-0.17869305887563183,-0.029936597821012174
7369,8.0,299.77291,2099.9895,0.0,0.0,0.0,-0.07473008772089276,0.0,0.0,-0.1980228512983338,-0.21124343462810377,-0.22907809546824776,-0.7108488804528224,-0.1952454922442298,-0.025063545744079374
7370,8.0,299.80136,1803.7008,0.0,0.0,0.0,-0.07474022886456502,0.0,0.0,-0.14008486607529985,-0.18502568961561383,-0.2231694389676088,-0.7308959120913102,-0.15731555892833685,-0.006425768790499004
7371,8.0,299.49599,1394.1617,0.0,0.0,0.0,-0.0747503700082373,0.0,0.0,-0.05229727359208905,-0.1939788384267208,-0.17751422344428983,-0.7194156871333003,-0.14912883249286987,-0.06034220580856204
7372,8.0,299.53489,1795.2961,0.0,0.0,0.0,-0.07476051115190954,0.0,0.0,-0.1109650917164019,-0.1968121795488498,-0.23794791459113077,-0.7282656161567203,-0.17120007438613183,-0.06094505516755864
7373,8.0,300.98297,2112.5535,0.0,0.0,0.0,-0.07477065229558182,0.0,0.0,-0.1986114178839208,-0.2155552900311508,-0.2279967954915318,-0.7321850296635363,-0.18419649639627883,-0.05900459712630035
7374,8.0,300.13546,1719.5504,0.0,0.0,0.0,-0.07478079343925406,0.0,0.0,-0.14590938228763486,-0.20804248636969483,-0.16874852590168285,-0.6870705958510883,-0.18993544363766882,-0.07258001962784023
7375,8.0,300.55433999999997,1420.9832,0.0,0.0,0.0,-0.07479093458292634,0.0,0.0,-0.1047965872276179,-0.16486976398887884,-0.16227704950049784,-0.6607495297259013,-0.17749031074192984,-0.06201856021125535
7376,8.0,300.514,1527.4017,0.0,0.0,0.0,-0.07480107572659861,0.0,0.0,-0.09326429539996932,-0.18382607242472082,-0.18720161380786082,-0.6733171544262294,-0.16766584790483083,-0.059337330220638536
7377,8.0,300.01895,1621.4074,0.0,0.0,0.0,-0.07481121687027086,0.0,0.0,-0.05779182389610894,-0.18951966659163483,-0.24555586243697677,-0.6854114190773403,-0.1961205046330868,-0.03233254724597397
7378,8.0,300.11618,1696.9944,0.0,0.0,0.0,-0.07482135801394313,0.0,0.0,-0.07780481742398764,-0.18140683648596082,-0.25663227683263373,-0.7040625568480643,-0.16166255384485184,-0.03143625761826707
7379,8.0,300.5437,1727.2114,0.0,0.0,0.0,-0.07483149915761537,0.0,0.0,-0.10501965423713289,-0.22221458247087178,-0.1977949004233368,-0.7327657334283473,-0.15642743508318585,-0.053923682870853154
7380,8.0,299.07774,1516.1121,0.0,0.0,0.0,-0.07484164030128765,0.0,0.0,-0.1165651122365809,-0.16785159691316284,-0.17644352206361985,-0.7313295527366073,-0.1791317151089238,-0.04896286509675855
7381,8.0,298.92323999999996,1837.0667,0.0,0.0,0.0,-0.07485178144495991,0.0,0.0,-0.15215945340946885,-0.21382612807299578,-0.19243681362953483,-0.7354011564084433,-0.18598001922229881,-0.039327387588810964
7382,8.0,300.12063,2216.6459,0.0,0.0,0.0,-0.07486192258863217,0.0,0.0,-0.17912393334815582,-0.2183876280356808,-0.2762934425680397,-0.7035410978166003,-0.16405412805588185,-0.03165197451155667
7383,8.0,299.60671,1849.4121,0.0,0.0,0.0,-0.07487206373230443,0.0,0.0,-0.12156690989771987,-0.17590822203578982,-0.26469996664635276,-0.6905631068257724,-0.14196166870552587,-0.02869398640187597
7384,8.0,299.9214,1460.271,0.0,0.0,0.0,-0.07488220487597667,0.0,0.0,-0.07686496716123163,-0.17448746301057183,-0.19253350808657782,-0.7098820777374063,-0.15511152717831586,-0.04960908358653535
7385,8.0,300.39839,1750.8884,0.0,0.0,0.0,-0.07489234601964895,0.0,0.0,-0.17585622204065784,-0.16681666326102285,-0.18955347874747183,-0.6941371033734983,-0.1924890669371918,-0.03954541266582836
7386,8.0,300.1445,1890.0696,0.0,0.0,0.0,-0.07490248716332122,0.0,0.0,-0.18521183379148481,-0.18609629980377482,-0.20322582976682782,-0.7213992761915653,-0.20787380049304682,-0.03842805314455356
7387,8.0,299.78054,1713.5092,0.0,0.0,0.0,-0.07491262830699347,0.0,0.0,-0.15146051349048886,-0.1959928655179898,-0.17341063146679683,-0.6710800805904473,-0.20793093766618578,-0.03936042866132186
7388,8.0,300.78202000000005,1613.1616,0.0,0.0,0.0,-0.07492276945066574,0.0,0.0,-0.06845446545442974,-0.18547327258228682,-0.23643309555912978,-0.6919221994499043,-0.2066108957009078,-0.04129886729513086
7389,8.0,300.45842999999996,1543.8303,0.0,0.0,0.0,-0.07493291059433799,0.0,0.0,-0.08690926879302702,-0.17771219224882784,-0.20466440172880382,-0.6828452314765774,-0.17725101146581285,-0.003681221814383306
7390,8.0,300.36899,1645.1794,0.0,0.0,0.0,-0.07494305173801026,0.0,0.0,-0.07117774431094644,-0.2073157530004718,-0.22159995509271277,-0.6979464272569493,-0.14426931541077284,-0.04076935596512216
7391,8.0,299.77027999999996,1952.739,0.0,0.0,0.0,-0.07495319288168252,0.0,0.0,-0.16806161326138983,-0.2007331230633168,-0.22478916991496378,-0.7243287747481844,-0.13112685366371288,-0.038342122443322864
7392,8.0,299.42688,1996.2113,0.0,0.0,0.0,-0.07496333402535478,0.0,0.0,-0.15747247083882285,-0.24323898502331878,-0.20608694407419778,-0.7233383227754343,-0.16261181720103685,-0.08375877127034712
7393,8.0,299.15362000000005,1463.4442,0.0,0.0,0.0,-0.07497347516902704,0.0,0.0,-0.11831880497965688,-0.15095010901761585,-0.1755815907335538,-0.7158359555900083,-0.2130472528536268,-0.05060897297071675
7394,8.0,299.27025,1446.2088,0.0,0.0,0.0,-0.0749836163126993,0.0,0.0,-0.05331256741754075,-0.1818529198424858,-0.2044458740797368,-0.7120141383328243,-0.1979289027490618,-0.07248775307373423
7395,8.0,300.27292,1776.9229,0.0,0.0,0.0,-0.07499375745637156,0.0,0.0,-0.1131045490375499,-0.20910201160176178,-0.21793364132837578,-0.6946243246840834,-0.1943772483660408,-0.05249290077564595
7396,8.0,300.23193,1673.0904,0.0,0.0,0.0,-0.07500389860004383,0.0,0.0,-0.11591132274205689,-0.18258976544770683,-0.2100766062104468,-0.7022467113438544,-0.16830710349561784,-0.04195833301671506
7397,8.0,300.24422000000004,1557.3827,0.0,0.0,0.0,-0.07501403974371608,0.0,0.0,-0.14275834672915186,-0.18361106075350084,-0.14703603533882686,-0.7014951330821794,-0.15612996511882787,-0.06267348251939114
7398,8.0,300.01194,1735.61,0.0,0.0,0.0,-0.07502418088738835,0.0,0.0,-0.15821886125998583,-0.16903488051244384,-0.20032834991336881,-0.6832939290183604,-0.15560644918966085,-0.033351674196553965
7399,8.0,299.95519,1819.5933,0.0,0.0,0.0,-0.0750343220310606,0.0,0.0,-0.13902670873086787,-0.18217645059941584,-0.23190776862501478,-0.7051966876849943,-0.15108040284797486,-0.04142774764160036
7400,8.0,300.64831000000004,2088.5022,0.0,0.0,0.0,-0.07504446317473286,0.0,0.0,-0.12404046617434088,-0.24381852355051478,-0.26699351904270874,-0.7038964851566742,-0.17408964075630984,-0.03313193064736697
7401,8.0,301.24845,2204.5374,0.0,0.0,0.0,-0.07505460431840513,0.0,0.0,-0.17575274894044582,-0.19366326168307582,-0.3007083218101007,-0.7172513849197003,-0.1877271866347308,-0.011388257312683489
7402,8.0,300.87506,1776.055,0.0,0.0,0.0,-0.07506474546207739,0.0,0.0,-0.14807881154674085,-0.18549378076431083,-0.2063037897280988,-0.7475262846576003,-0.16637343726977982,-0.026370228006788878
7403,8.0,300.94332,1503.2989,0.0,0.0,0.0,-0.07507488660574965,0.0,0.0,-0.1293675373825819,-0.15804970928829185,-0.16954810182059485,-0.7193514268119583,-0.14301093984658086,-0.05461183268951824
7404,8.0,300.25065,1761.556,0.0,0.0,0.0,-0.07508502774942191,0.0,0.0,-0.14988684489267984,-0.17323351534931686,-0.21234868783718383,-0.7440874759382163,-0.13904209999988687,-0.05697301953004925
7405,8.0,300.17724,1894.7611,0.0,0.0,0.0,-0.07509516889309417,0.0,0.0,-0.14056325184501287,-0.18817266204119582,-0.2472241483291238,-0.6997266164901403,-0.16603547783142583,-0.034391427879419664
7406,8.0,300.32074,1556.0219,0.0,0.0,0.0,-0.07510531003676643,0.0,0.0,-0.0903224635631331,-0.16561189875962185,-0.21705745356940281,-0.6825317825581424,-0.2030953738164528,-0.07830551800065293
7407,8.0,299.00517,1493.9289999999999,0.0,0.0,0.0,-0.07511545118043869,0.0,0.0,-0.08469381366137863,-0.17208942426390383,-0.1973338716278368,-0.6665545510063123,-0.19640704162886582,-0.06535145896393685
7408,8.0,299.24337,1854.5263,0.0,0.0,0.0,-0.07512559232411095,0.0,0.0,-0.15245150248579184,-0.21490557380202882,-0.1963726215229688,-0.6716531241845024,-0.18149204068686983,-0.07699062841213343
7409,8.0,299.32466,1876.1448,0.0,0.0,0.0,-0.07513573346778321,0.0,0.0,-0.17097041111846584,-0.1886469948105088,-0.21068375580286777,-0.7206413144542603,-0.17620695856277283,-0.041528650126308665
7410,8.0,299.78833,1761.6779999999999,0.0,0.0,0.0,-0.07514587461145547,0.0,0.0,-0.11034324999753088,-0.2224151046656618,-0.20274775810464582,-0.7184827067062223,-0.14915278572523386,-0.08414481854519702
7411,8.0,301.03266,1805.1504,0.0,0.0,0.0,-0.07515601575512774,0.0,0.0,-0.08636712932702202,-0.20540978903236778,-0.25694371951587075,-0.7326035728823433,-0.18034352169851983,-0.03402771466327397
7412,8.0,301.07383,1515.0832,0.0,0.0,0.0,-0.0751661568988,0.0,0.0,-0.05383048412665515,-0.18326041542389482,-0.2234565535159448,-0.7212421514985583,-0.17617315653943683,-0.03921239079521166
7413,8.0,300.28026,1450.2378,0.0,0.0,0.0,-0.07517629804247226,0.0,0.0,-0.07284474844171693,-0.17248287941023482,-0.1955084610426828,-0.7224701295597503,-0.19330083225480682,-0.023213557764499775
7414,8.0,300.36877999999996,1856.6514,0.0,0.0,0.0,-0.07518643918614452,0.0,0.0,-0.1859984299766158,-0.16374850142821884,-0.2146287234772058,-0.7175438392960632,-0.17019828414476285,-0.027526184250872873
7415,8.0,299.95086000000003,1947.1382,0.0,0.0,0.0,-0.07519658032981678,0.0,0.0,-0.2080833102162238,-0.19674633855735182,-0.18705175411807082,-0.7163972758804062,-0.16645702027052883,-0.04109738251274586
7416,8.0,299.62247,1469.5061,0.0,0.0,0.0,-0.07520672147348904,0.0,0.0,-0.11913837232304189,-0.15137676836972386,-0.17617803027241782,-0.7209617649308864,-0.13930425819825987,-0.07545208514229103
7417,8.0,300.3737,1901.6723,0.0,0.0,0.0,-0.0752168626171613,0.0,0.0,-0.1167742065272169,-0.2057856946869668,-0.25550098309598374,-0.7368544711593743,-0.13140462604612688,-0.03249506850901357
7418,8.0,299.7331,2161.8391,0.0,0.0,0.0,-0.07522700376083356,0.0,0.0,-0.13763820145633288,-0.23573132867237076,-0.2837755650164677,-0.7216412707129483,-0.16663964846855284,-0.026864959527115075
7419,8.0,299.01714,1810.5686,0.0,0.0,0.0,-0.07523714490450582,0.0,0.0,-0.12199347805731889,-0.1964561842587158,-0.2319179923185238,-0.7155228410441064,-0.19782350447365982,-0.036398246709477264
7420,8.0,300.18474,1724.7304,0.0,0.0,0.0,-0.07524728604817808,0.0,0.0,-0.13858067603684787,-0.2064104039036208,-0.17928389514144283,-0.6923264963723054,-0.2077235861657218,-0.029142365783127577
7421,8.0,300.05303,1719.2655,0.0,0.0,0.0,-0.07525742719185036,0.0,0.0,-0.17856223815522082,-0.16775181204331485,-0.17629974187442984,-0.6825942392943063,-0.2060087616964818,-0.006205546480639755
7422,8.0,299.57072,1613.1253,0.0,0.0,0.0,-0.0752675683355226,0.0,0.0,-0.08133481865237162,-0.21035248381517382,-0.1986624958214618,-0.7147619307490103,-0.17661809492334885,-0.06363409225019594
7423,8.0,299.50625,1657.723,0.0,0.0,0.0,-0.07527770947919488,0.0,0.0,-0.060954047762196144,-0.2261314527199368,-0.2168209002010568,-0.7213688685560643,-0.16086436607857685,-0.056522159712552845
7424,8.0,299.45264,1737.549,0.0,0.0,0.0,-0.07528785062286712,0.0,0.0,-0.07212720727740114,-0.20475282806503078,-0.2512914558205358,-0.7021756419818403,-0.14606785460327487,-0.06723976400929803
7425,8.0,300.40013999999996,1611.2029,0.0,0.0,0.0,-0.0752979917665394,0.0,0.0,-0.1017511931245609,-0.19066530794970082,-0.19734895892182583,-0.7155014817319982,-0.15722660570205785,-0.06036562303162315
7426,8.0,301.44202,1615.9432,0.0,0.0,0.0,-0.07530813291021167,0.0,0.0,-0.12880151561171987,-0.21018846902148683,-0.15221639806508885,-0.6896251006781984,-0.19143837724599683,-0.08446191719049222
7427,8.0,299.88315,1737.8762,0.0,0.0,0.0,-0.07531827405388392,0.0,0.0,-0.16774240908238686,-0.19500994199348282,-0.16551860882291486,-0.7282983036049463,-0.20188802552729682,-0.06272622624009654
7428,8.0,300.22519,1735.4931,0.0,0.0,0.0,-0.07532841519755618,0.0,0.0,-0.11958622886724189,-0.2041090798789978,-0.2038512381260508,-0.7182820325239173,-0.18394580818903783,-0.06393886977427514
7429,8.0,300.55655,1499.3508,0.0,0.0,0.0,-0.07533855634122844,0.0,0.0,-0.07586455291349842,-0.16213090843857486,-0.21776973799219979,-0.6855829521867693,-0.17791033330588282,-0.033596681110484264
7430,8.0,299.50986,1837.9334,0.0,0.0,0.0,-0.0753486974849007,0.0,0.0,-0.10078204372191331,-0.20322590069433483,-0.25467792003975376,-0.6937425133870554,-0.17202463705250984,-0.007553456268718092
7431,8.0,300.01866,2058.6153,0.0,0.0,0.0,-0.07535883862857297,0.0,0.0,-0.17208910002387182,-0.2028127074360558,-0.25086584011603075,-0.6808111319008273,-0.19200345669426583,-0.009322796835738412
7432,8.0,299.05435,1790.2649,0.0,0.0,0.0,-0.07536897977224521,0.0,0.0,-0.15700413651010184,-0.1950182506443028,-0.19217342939854082,-0.7000657310336083,-0.18971594326850583,-0.0036348202287038267
7433,8.0,298.40529,1920.8656,0.0,0.0,0.0,-0.07537912091591749,0.0,0.0,-0.17276196901777885,-0.21113456090485883,-0.19999863833082882,-0.7171593716781193,-0.18961578349612082,-0.030955166470787072
7434,8.0,299.59803,2230.0866,0.0,0.0,0.0,-0.07538926205958973,0.0,0.0,-0.18812188807868482,-0.22964424896162278,-0.26012451422979077,-0.7336478790979083,-0.18863630502195383,-0.02795077555952677
7435,8.0,299.32828,1684.5872,0.0,0.0,0.0,-0.07539940320326201,0.0,0.0,-0.07992732813721312,-0.2169672844430038,-0.21517783410389882,-0.7471416143896363,-0.15660373046808487,-0.08139874764093093
7436,8.0,299.80323,1379.4054,0.0,0.0,0.0,-0.07540954434693428,0.0,0.0,-0.05608662023656844,-0.15416775563767285,-0.20905041690666978,-0.7238126758097494,-0.14319753998499687,-0.03270498555873077
7437,8.0,301.59163,1684.8094,0.0,0.0,0.0,-0.07541968549060653,0.0,0.0,-0.14060660881679188,-0.15040689550650485,-0.2211264835859848,-0.7201403433398182,-0.14295624460618286,-0.025905373178911274
7438,8.0,301.03996,1690.5829999999999,0.0,0.0,0.0,-0.0754298266342788,0.0,0.0,-0.15098553224111186,-0.17548455177147684,-0.1874249442624018,-0.7038271788498344,-0.16959294827002083,-0.03056508747378927
7439,8.0,300.03974,1575.4145,0.0,0.0,0.0,-0.07543996777795105,0.0,0.0,-0.12530980510461487,-0.18240572883204384,-0.17117113596327585,-0.6783578102287033,-0.2144348988655768,-0.06672317364456454
7440,8.0,300.2231,1942.0581,0.0,0.0,0.0,-0.07545010892162332,0.0,0.0,-0.13132347484561788,-0.2063164958843528,-0.25269719847927175,-0.6839731308253924,-0.20855226262750579,-0.04472067671758716
7441,8.0,299.59364,1915.6036,0.0,0.0,0.0,-0.07546025006529558,0.0,0.0,-0.10272710495837589,-0.23837794806607177,-0.24119060875365977,-0.6906455651189103,-0.1961781382987748,-0.07177265181565923
7442,8.0,299.61587000000003,1665.5781,0.0,0.0,0.0,-0.07547039120896784,0.0,0.0,-0.08157641293996513,-0.19419901767345082,-0.23051872432792678,-0.6914417669149894,-0.17492915899416384,-0.053083389496672656
7443,8.0,299.18055,1689.2131,0.0,0.0,0.0,-0.0754805323526401,0.0,0.0,-0.12306258863533188,-0.21611391507628278,-0.17430209903727784,-0.7121361741748683,-0.15892651512982586,-0.045259223198737555
7444,8.0,299.80586,1505.3613,0.0,0.0,0.0,-0.07549067349631236,0.0,0.0,-0.1200368718492169,-0.17059489049890483,-0.16696047384771584,-0.7076692205790143,-0.1737975207524798,-0.038871718886339966
7445,8.0,300.35706,1457.1076,0.0,0.0,0.0,-0.07550081463998462,0.0,0.0,-0.0987669040820345,-0.17979407669929381,-0.16436336185390085,-0.7283909146640863,-0.16318067607217884,-0.06640649955106123
7446,8.0,300.5585,1865.6132,0.0,0.0,0.0,-0.0755109557836569,0.0,0.0,-0.13548229908606185,-0.2029690924564898,-0.2286484368958438,-0.7358635936215823,-0.16193068008631384,-0.051432066424449745
7447,8.0,300.61057999999997,2000.6164,0.0,0.0,0.0,-0.07552109692732914,0.0,0.0,-0.1360317238202859,-0.21056062565071582,-0.2615450807374897,-0.7257518439836302,-0.1744243476618428,-0.07141068341618573
7448,8.0,300.40086,1590.4774,0.0,0.0,0.0,-0.07553123807100141,0.0,0.0,-0.10403724747017691,-0.14813634388741886,-0.23129182402172577,-0.7218463930631923,-0.15133171927027786,-0.012684783769640688
7449,8.0,300.01275,1727.4533,0.0,0.0,0.0,-0.07554137921467366,0.0,0.0,-0.15666831502945885,-0.17164027075957583,-0.19679407276956282,-0.7088211035576963,-0.16259120769400284,-0.02701987736140427
7450,8.0,299.91205,2145.7302,0.0,0.0,0.0,-0.07555152035834593,0.0,0.0,-0.2097101035167758,-0.16303329884513384,-0.27950499955499575,-0.7210017477798323,-0.16317053343867785,-0.005167720202114276
7451,8.0,299.26462000000004,1904.1856,0.0,0.0,0.0,-0.0755616615020182,0.0,0.0,-0.14903643421625085,-0.2066962620218328,-0.2230921786474838,-0.7132320142905193,-0.19182736395938682,-0.05055827804171355
7452,8.0,299.57892000000004,1674.1063,0.0,0.0,0.0,-0.07557180264569045,0.0,0.0,-0.08854438492990041,-0.18525778468351983,-0.23508434821851878,-0.6679894347379243,-0.2084853577234028,-0.033663594120588065
7453,8.0,298.97899,1848.0243,0.0,0.0,0.0,-0.07558194378936271,0.0,0.0,-0.12060309627009888,-0.2005927777919658,-0.24055734770616177,-0.6965401273106583,-0.1993959977013528,-0.050227012133520155
7454,8.0,298.48883,1794.0526,0.0,0.0,0.0,-0.07559208493303497,0.0,0.0,-0.12301734701836689,-0.20625353252313883,-0.2160763133650718,-0.6888661054257914,-0.19121668825661783,-0.029149966172127673
7455,8.0,299.45603,1617.818,0.0,0.0,0.0,-0.07560222607670723,0.0,0.0,-0.14231813009070587,-0.17619175981127283,-0.17326638518256085,-0.7409500077985722,-0.16982226703265285,-0.048915468296830855
7456,8.0,300.07816,1709.9807,0.0,0.0,0.0,-0.07561236722037949,0.0,0.0,-0.1311497835134759,-0.17648724380543482,-0.2121544072630098,-0.7423073677650333,-0.13570062408510886,-0.03186323411765637
7457,8.0,300.55995,1457.7175,0.0,0.0,0.0,-0.07562250836405175,0.0,0.0,-0.1003265503117096,-0.15907621269959984,-0.1837069648754658,-0.7290793877095333,-0.14906146149372088,-0.08112938320784673
7458,8.0,300.77395,1542.8824,0.0,0.0,0.0,-0.07563264950772403,0.0,0.0,-0.07963948404880514,-0.17220939307574384,-0.2171488385959218,-0.7269102624254573,-0.16598069139851884,-0.07007598782796153
7459,8.0,300.19087,1984.0257,0.0,0.0,0.0,-0.07564279065139627,0.0,0.0,-0.14370080104466487,-0.22324601027766577,-0.23614747048844076,-0.7173953778914113,-0.1944643676096388,-0.0927820005113705
7460,8.0,299.92602999999997,2043.2705,0.0,0.0,0.0,-0.07565293179506855,0.0,0.0,-0.16122666378433284,-0.21451863385384082,-0.24535792402994178,-0.6916488043079223,-0.2089731464540438,-0.021791180578872082
7461,8.0,300.9795,1724.5876,0.0,0.0,0.0,-0.0756630729387408,0.0,0.0,-0.14343822741375087,-0.19544528489894783,-0.1853480652674298,-0.6663115432348293,-0.16981254996419384,-0.04578810530043415
7462,8.0,299.73306,1815.8123,0.0,0.0,0.0,-0.07567321408241307,0.0,0.0,-0.12918588190465388,-0.19549708224405982,-0.22727862408565377,-0.6906340140677704,-0.17277823168188383,-0.01642222262474718
7463,8.0,300.3585,2024.0626,0.0,0.0,0.0,-0.07568335522608532,0.0,0.0,-0.12932471743335588,-0.22440188546174178,-0.26153788666177974,-0.7102856653847373,-0.17244932056692283,-0.049882491900768655
7464,8.0,299.46346,1650.8766,0.0,0.0,0.0,-0.07569349636975758,0.0,0.0,-0.07426596950898053,-0.17946821546713385,-0.24809108511468378,-0.7409867381146973,-0.16595585663856785,-0.025653549118308177
7465,8.0,298.79432,1577.4142,0.0,0.0,0.0,-0.07570363751342984,0.0,0.0,-0.10860207089318989,-0.1849817449587768,-0.18591069265045682,-0.7139849908373324,-0.16783568888659284,-0.08301686549412672
7466,8.0,297.90084,1750.6262,0.0,0.0,0.0,-0.0757137786571021,0.0,0.0,-0.16521126980258283,-0.16530854181218285,-0.20162685018152082,-0.7073711223995943,-0.1937768571517868,-0.01785207860936298
7467,8.0,298.61438,1537.6707,0.0,0.0,0.0,-0.07572391980077436,0.0,0.0,-0.15521740168126485,-0.17174610473252083,-0.14045000088133586,-0.7095943349740083,-0.19192228522875482,-0.06696226419116093
7468,8.0,298.70655,1738.8247,0.0,0.0,0.0,-0.07573406094444662,0.0,0.0,-0.12379782317289387,-0.18292855575114284,-0.22183290129070277,-0.7281576746235673,-0.14831209211726387,-0.026509773823810975
7469,8.0,300.57344,2120.2674,0.0,0.0,0.0,-0.07574420208811888,0.0,0.0,-0.14184676614418587,-0.23193393074259677,-0.27072763950373774,-0.7224989058625904,-0.14437753052145286,-0.03676714371313457
7470,8.0,300.05441,1825.1578,0.0,0.0,0.0,-0.07575434323179114,0.0,0.0,-0.08389610820215122,-0.19293787593648581,-0.27796840577834575,-0.7095769881322963,-0.16715297110171384,-0.04729108957126715
7471,8.0,300.01223999999996,1617.609,0.0,0.0,0.0,-0.07576448437546342,0.0,0.0,-0.1148019658700719,-0.17985484130779084,-0.1970559269929058,-0.7232653687682343,-0.2119096364363528,-0.04006896608524906
7472,8.0,300.36697999999996,1872.9267,0.0,0.0,0.0,-0.07577462551913566,0.0,0.0,-0.16588998524956683,-0.19693778203124582,-0.20649519267198882,-0.6967996510587713,-0.22252707893421278,-0.03461333370432007
7473,8.0,299.53909,1742.7914,0.0,0.0,0.0,-0.07578476666280794,0.0,0.0,-0.17575817996098184,-0.17931841657234981,-0.17468849183041182,-0.7149580047758612,-0.2090923654608098,-0.027346099310599874
7474,8.0,299.14054,1479.5704,0.0,0.0,0.0,-0.07579490780648018,0.0,0.0,-0.07579679586606133,-0.2086783312049478,-0.16527734384160384,-0.7090682757870903,-0.1941332172119568,-0.06929349935873594
7475,8.0,299.39662000000004,1573.1033,0.0,0.0,0.0,-0.07580504895015246,0.0,0.0,-0.07077844372478853,-0.2029385936284798,-0.2044670712718288,-0.7063097023898403,-0.16938047985655183,-0.04812340461416025
7476,8.0,299.84202999999997,1597.0784,0.0,0.0,0.0,-0.07581519009382472,0.0,0.0,-0.05433037106349015,-0.18861042661439983,-0.24253115890096177,-0.7149477506848493,-0.13191604376909988,-0.08729049198415081
7477,8.0,300.55689,1680.1686,0.0,0.0,0.0,-0.07582533123749698,0.0,0.0,-0.0987982378281269,-0.2137976354801838,-0.1981334374142478,-0.7057004655022133,-0.14035689332964688,-0.07274006754738573
7478,8.0,300.86163,1944.1842,0.0,0.0,0.0,-0.07583547238116924,0.0,0.0,-0.16316172829530884,-0.2113217892583368,-0.2164999329668798,-0.7178604495548103,-0.16720230624908283,-0.07620125186872802
7479,8.0,301.04892,2027.5618,0.0,0.0,0.0,-0.0758456135248415,0.0,0.0,-0.20576902672282182,-0.19844868991786083,-0.2121104423411708,-0.7302007921252073,-0.2060735387753748,-0.03398740048154527
7480,8.0,300.70329,1642.6991,0.0,0.0,0.0,-0.07585575466851376,0.0,0.0,-0.11635361654320789,-0.17957217492739383,-0.20341371673287081,-0.7202900409095924,-0.19172085110887482,-0.05632663993350655
7481,8.0,299.8956,1885.2679,0.0,0.0,0.0,-0.07586589581218603,0.0,0.0,-0.1083583437141359,-0.19336546747868583,-0.2713505451352137,-0.7346276716796063,-0.16109176979851986,-0.03574113679437557
7482,8.0,300.25088,2165.314,0.0,0.0,0.0,-0.07587603695585828,0.0,0.0,-0.13832483038659785,-0.2121983823173498,-0.3076781652729707,-0.7328395588306333,-0.16752117605555283,-0.03226334935689467
7483,8.0,300.15761000000003,1759.2296,0.0,0.0,0.0,-0.07588617809953055,0.0,0.0,-0.14053214506694287,-0.17955242668294483,-0.21467730881950078,-0.6881322691733673,-0.18512324533524183,-0.013810332378223687
7484,8.0,299.39873,1441.4659,0.0,0.0,0.0,-0.0758963192432028,0.0,0.0,-0.12415065712271589,-0.16171889055041183,-0.15230008239084786,-0.6824771886427543,-0.19329927184965282,-0.04855800075430155
7485,8.0,299.6691,1789.3388,0.0,0.0,0.0,-0.07590646038687507,0.0,0.0,-0.17486490880532285,-0.19985102805626082,-0.16919837854857983,-0.6501020747600794,-0.1845891308100288,-0.03306389495615237
7486,8.0,299.26545,1893.6126,0.0,0.0,0.0,-0.07591660153054734,0.0,0.0,-0.12866884064362588,-0.21532643736356477,-0.2316156790186878,-0.6981423695612874,-0.19758199631232481,-0.06161606079453174
7487,8.0,299.93613999999997,1765.5212,0.0,0.0,0.0,-0.07592674267421959,0.0,0.0,-0.08729119112671982,-0.2049442310089208,-0.2444389365867448,-0.7128762216504053,-0.17423800083595184,-0.05899071154692994
7488,8.0,300.43923,1762.0095,0.0,0.0,0.0,-0.07593688381789185,0.0,0.0,-0.06773296248222294,-0.20337085625364082,-0.26450306175441973,-0.7546066129113742,-0.17179567292741282,-0.060613425502579345
7489,8.0,299.56831,1509.5015,0.0,0.0,0.0,-0.07594702496156411,0.0,0.0,-0.09744782166460121,-0.14684377113235186,-0.21455916385784077,-0.7618517564264142,-0.13036693635371488,-0.025823341464065376
7490,8.0,299.95387999999997,1548.44,0.0,0.0,0.0,-0.07595716610523637,0.0,0.0,-0.1059161981906149,-0.1963248873107578,-0.16844600995182685,-0.7349261244965614,-0.15600368375886486,-0.08280087704981033
7491,8.0,299.99212,1927.8514,0.0,0.0,0.0,-0.07596730724890864,0.0,0.0,-0.2046221491996338,-0.17291699628307883,-0.2084795518003298,-0.7404535557795763,-0.19001255197027883,-0.04263522461351906
7492,8.0,300.61436000000003,1890.3184,0.0,0.0,0.0,-0.07597744839258089,0.0,0.0,-0.13501083381453186,-0.20884319712871882,-0.23075557153880177,-0.6976139798991394,-0.2138211732800068,-0.056759126486939655
7493,8.0,301.23762,1435.6539,0.0,0.0,0.0,-0.07598758953625316,0.0,0.0,-0.06689559841408153,-0.16997338315256683,-0.19953396183496883,-0.6831795938770764,-0.19747025509129681,-0.05348450278725945
7494,8.0,301.5152,1611.5517,0.0,0.0,0.0,-0.07599773067992541,0.0,0.0,-0.04571935526789905,-0.1943393021497958,-0.24981280981710477,-0.6884209137293543,-0.17516259155220182,-0.06255794870323884
7495,8.0,300.59846,1976.6712,0.0,0.0,0.0,-0.07600787182359768,0.0,0.0,-0.16985796383367585,-0.2030325219127498,-0.2279681813087078,-0.7143736735756924,-0.17284271491824785,-0.03579225728842077
7496,8.0,300.80484,1945.509,0.0,0.0,0.0,-0.07601801296726995,0.0,0.0,-0.15471742355192086,-0.2033356458126658,-0.23333308727568278,-0.7066192097653863,-0.16805884708861682,-0.04238428106725286
7497,8.0,299.474,1686.4746,0.0,0.0,0.0,-0.0760281541109422,0.0,0.0,-0.14303772004672385,-0.19544291389371382,-0.17416552305629882,-0.7182753653382593,-0.16260047893241786,-0.04992201473416925
7498,8.0,298.79597,1739.2935,0.0,0.0,0.0,-0.07603829525461447,0.0,0.0,-0.10963601156023191,-0.1970209698644558,-0.22204482254911778,-0.7025540604966873,-0.19983134060681781,-0.04598082952245455
7499,8.0,300.45849,1858.4905,0.0,0.0,0.0,-0.07604843639828672,0.0,0.0,-0.13115328935882187,-0.18383137172274383,-0.24995004441064875,-0.7218902363950193,-0.18857067681297682,-0.02339973031137358
7500,8.0,298.91174,1775.9881,0.0,0.0,0.0,-0.076058577541959,0.0,0.0,-0.1060679019955869,-0.19165707714758082,-0.24213104670147376,-0.7211155965610683,-0.16493082243990487,-0.047518234912434655
7501,8.0,299.93023,1989.129,0.0,0.0,0.0,-0.07606871868563125,0.0,0.0,-0.1960188655155558,-0.16706056269259384,-0.24156610910821877,-0.7280839910762953,-0.14312994607082585,-0.012943852568458787
7502,8.0,300.82117999999997,1910.5212,0.0,0.0,0.0,-0.07607885982930351,0.0,0.0,-0.15783605537220585,-0.20360164422891783,-0.21931303948451178,-0.7544633393472343,-0.15472787016045186,-0.04611787463822986
7503,8.0,300.59375,1656.0061,0.0,0.0,0.0,-0.07608900097297577,0.0,0.0,-0.12317119891355088,-0.21103219224725583,-0.16918109250187385,-0.7385302044397563,-0.16956822496758084,-0.06291783588700693
7504,8.0,300.39902,2006.3928,0.0,0.0,0.0,-0.07609914211664803,0.0,0.0,-0.12415950279608888,-0.22716085402653077,-0.25857296488166476,-0.7249048175625353,-0.1876418304463068,-0.06893413298551923
7505,8.0,301.00768999999997,2047.7060000000001,0.0,0.0,0.0,-0.07610928326032029,0.0,0.0,-0.1269125742452959,-0.23980713733212178,-0.2557317812037618,-0.7040614017429504,-0.19677347339502982,-0.04917321987051895
7506,8.0,299.25439,1372.3441,0.0,0.0,0.0,-0.07611942440399257,0.0,0.0,-0.03578800467775107,-0.20780268046852782,-0.17356765483479383,-0.6699336894273074,-0.22073790217263478,-0.07588359086962733
7507,8.0,299.00956,1328.0009,0.0,0.0,0.0,-0.07612956554766481,0.0,0.0,-0.08041523845786612,-0.15951334905774187,-0.16375053806091985,-0.7052615964864003,-0.20064487911210782,-0.005544737594722994
7508,8.0,299.03292999999996,1779.9782,0.0,0.0,0.0,-0.07613970669133709,0.0,0.0,-0.14596034876766487,-0.20999220247711678,-0.1851163856320648,-0.6908154263656744,-0.16329814215627184,-0.03722704577452336
7509,8.0,299.04255,1820.1065,0.0,0.0,0.0,-0.07614984783500933,0.0,0.0,-0.14604512740353187,-0.18903344839864883,-0.21818836227101482,-0.7136597476877333,-0.15238668487689486,-0.007349338049323193
7510,8.0,299.11400000000003,1893.4660000000001,0.0,0.0,0.0,-0.0761599889786816,0.0,0.0,-0.13188454182349085,-0.20808377631126979,-0.23559806601921876,-0.7425651993854794,-0.17588849405634283,-0.06152001177780245
7511,8.0,299.75965,2047.1765,0.0,0.0,0.0,-0.07617013012235387,0.0,0.0,-0.13652400124886988,-0.2120935210645008,-0.27367300555692275,-0.7713761452463983,-0.20196466776486083,-0.03775484673836327
7512,8.0,300.21342000000004,1836.9646,0.0,0.0,0.0,-0.07618027126602613,0.0,0.0,-0.13980635402031288,-0.19036270080733583,-0.22822233483129079,-0.7651273508196903,-0.1802305240473678,-0.06649774778881673
7513,8.0,300.7686,1852.4208,0.0,0.0,0.0,-0.07619041240969839,0.0,0.0,-0.15304210570407983,-0.2107631338157018,-0.19928441860034082,-0.7229676657563533,-0.14535421242534385,-0.040271058817694064
7514,8.0,300.52477000000005,1985.825,0.0,0.0,0.0,-0.07620055355337065,0.0,0.0,-0.19467584303800983,-0.2015206210410368,-0.2074447701357048,-0.7368714025685452,-0.17592356264230383,-0.03899155901541727
7515,8.0,300.56333,1855.0018,0.0,0.0,0.0,-0.0762106946970429,0.0,0.0,-0.13098183730940088,-0.2103659803065058,-0.2225264203216478,-0.7005240544513414,-0.17060941037283783,-0.035565729016564164
7516,8.0,299.43992000000003,1307.1099,0.0,0.0,0.0,-0.07622083584071516,0.0,0.0,-0.033658206669806366,-0.20801945519492182,-0.15565111325406886,-0.7031794891209123,-0.16141003165492984,-0.05710193838002254
7517,8.0,299.99997,1581.6245,0.0,0.0,0.0,-0.07623097698438742,0.0,0.0,-0.07736540530612103,-0.17564017685433583,-0.22776877368902776,-0.6600125220006644,-0.16217394117032186,-0.04583579594289086
7518,8.0,300.51891,2023.8605,0.0,0.0,0.0,-0.07624111812805968,0.0,0.0,-0.13500158284111888,-0.2308297718436248,-0.24937171165107175,-0.7156537022945213,-0.2137214390726638,-0.03444904533310607
7519,8.0,301.0198,1783.4691,0.0,0.0,0.0,-0.07625125927173194,0.0,0.0,-0.13832338143895487,-0.2048149402961608,-0.19899173117645483,-0.7361969022419773,-0.19516020698331282,-0.03483810297400307
7520,8.0,299.27707999999996,1717.7973,0.0,0.0,0.0,-0.0762614004154042,0.0,0.0,-0.11818222899867789,-0.18837627464879084,-0.2156089922864508,-0.7526426403750454,-0.18044156377819584,-0.04171242431019576
7521,8.0,299.63152,1934.8695,0.0,0.0,0.0,-0.07627154155907648,0.0,0.0,-0.14485148838822884,-0.22635927187242078,-0.2169412743129368,-0.7389304179642543,-0.15753166490966486,-0.05178941035046686
7522,8.0,299.51976,1658.2873,0.0,0.0,0.0,-0.07628168270274872,0.0,0.0,-0.09628875068970981,-0.18885817639635083,-0.21893099353430678,-0.7276459833230673,-0.16063154147059885,-0.10466135886927191
7523,8.0,298.73883,1671.8989,0.0,0.0,0.0,-0.076291823846421,0.0,0.0,-0.10608990978775891,-0.1949357214236578,-0.2071898668080478,-0.7397465301247983,-0.18078047567164382,-0.07018427183964833
7524,8.0,297.91262,1803.3403,0.0,0.0,0.0,-0.07630196499009324,0.0,0.0,-0.13065173055932186,-0.2082978659248988,-0.2092208354409888,-0.7069662276596343,-0.16801546985183585,-0.07593938852613413
7525,8.0,297.89997999999997,1413.1186,0.0,0.0,0.0,-0.07631210613376552,0.0,0.0,-0.11538488865260188,-0.15338005500993288,-0.16078781503352185,-0.7145190243025373,-0.16351100573727984,-0.03306129900939617
7526,8.0,297.75324,1446.8319,0.0,0.0,0.0,-0.07632224727743778,0.0,0.0,-0.07392277460735984,-0.18385485886006184,-0.1820231559917868,-0.7085403015574834,-0.16595577557855984,-0.017455878568511086
7527,8.0,298.62801,1814.1332,0.0,0.0,0.0,-0.07633238842111004,0.0,0.0,-0.13601533956616887,-0.18311877319241585,-0.2323170710029098,-0.7446942303630983,-0.19674882102009683,-0.01143237320878739
7528,8.0,299.52055,1776.8605,0.0,0.0,0.0,-0.0763425295647823,0.0,0.0,-0.08679225056547822,-0.19010471719937483,-0.26322426920071273,-0.7314685098553213,-0.17561301161915485,-0.02347001136480978
7529,8.0,300.01167999999996,1645.9173,0.0,0.0,0.0,-0.07635267070845456,0.0,0.0,-0.10583464169006589,-0.18429251197575483,-0.2101906069791978,-0.7047341896768494,-0.15792799768627985,-0.06344366810590255
7530,8.0,299.79157000000004,2049.9115,0.0,0.0,0.0,-0.07636281185212682,0.0,0.0,-0.16782206067274782,-0.19305854389089483,-0.26224129501370075,-0.7114138180460773,-0.20657100404447082,-0.024994215119236975
7531,8.0,299.60882999999995,2054.8873,0.0,0.0,0.0,-0.07637295299579909,0.0,0.0,-0.20207988443373182,-0.2062101451538568,-0.21634439907652978,-0.7201442747502064,-0.22192981866276779,-0.04635839184096705
7532,8.0,300.32709,1757.6534,0.0,0.0,0.0,-0.07638309413947134,0.0,0.0,-0.1310974390133099,-0.18370103736238083,-0.21948426861891077,-0.6876258163758844,-0.2027431174191878,-0.02264801931393548
7533,8.0,300.64657,1672.3488,0.0,0.0,0.0,-0.07639323528314361,0.0,0.0,-0.13181053403618687,-0.16641873968175083,-0.21012300293252578,-0.7074034957402894,-0.14821566110524687,-0.06045731304642225
7534,8.0,300.73713,1599.9335,0.0,0.0,0.0,-0.07640337642681586,0.0,0.0,-0.08501098120768061,-0.17345943972411382,-0.2278694096889598,-0.7156446742361303,-0.15178218999973586,-0.053971715991843645
7535,8.0,301.41877999999997,1613.4458,0.0,0.0,0.0,-0.07641351757048813,0.0,0.0,-0.09511012196138821,-0.19353311984023183,-0.2018039966965038,-0.7642350017216223,-0.16586418790202084,-0.06957411492093053
7536,8.0,300.31822,1888.6218,0.0,0.0,0.0,-0.07642365871416039,0.0,0.0,-0.13405921971811488,-0.22472059314819576,-0.2153140554473428,-0.7411266476885052,-0.15593243201183285,-0.05639215567172244
7537,8.0,299.26442000000003,1936.7251,0.0,0.0,0.0,-0.07643379985783265,0.0,0.0,-0.17268066582975483,-0.2247758659411508,-0.19125953860334682,-0.7263045313831763,-0.16664195867878084,-0.052754565521220244
7538,8.0,299.36977,1689.8563,0.0,0.0,0.0,-0.07644394100150491,0.0,0.0,-0.10600612413698988,-0.20790980126909978,-0.1997582143471008,-0.7010792040486303,-0.18931399708633684,-0.039272621420905963
7539,8.0,299.03999,1704.2331,0.0,0.0,0.0,-0.07645408214517717,0.0,0.0,-0.09708234336678132,-0.21809597412689677,-0.20286597399381281,-0.7180272305212703,-0.2103530613677308,-0.03103439148285597
7540,8.0,299.33849,1956.4472,0.0,0.0,0.0,-0.07646422328884943,0.0,0.0,-0.11629762434268189,-0.2081809773933628,-0.27023250470987176,-0.7136951709112294,-0.1859525196145848,-0.05180229889173885
7541,8.0,299.86554,1860.4129,0.0,0.0,0.0,-0.0764743644325217,0.0,0.0,-0.12685596396220888,-0.2009170684864708,-0.23774603464120678,-0.7136960423063153,-0.16603090807347484,-0.05756101970883035
7542,8.0,299.44277999999997,1645.1037,0.0,0.0,0.0,-0.07648450557619395,0.0,0.0,-0.13397980117527689,-0.17863415864731882,-0.18745648673801482,-0.7374375357969183,-0.17381043969125484,-0.07819652066089572
7543,8.0,299.36089,1788.1337,0.0,0.0,0.0,-0.07649464671986622,0.0,0.0,-0.18392432728691782,-0.17272823792194983,-0.18689542989264282,-0.7156807459396903,-0.2030124696932708,-0.053052692071643044
7544,8.0,300.52599,1732.6695,0.0,0.0,0.0,-0.07650478786353847,0.0,0.0,-0.13448857431548888,-0.18959436338900681,-0.2026053255380888,-0.7438722717494772,-0.19543591233552282,-0.04093112944958796
7545,8.0,301.99962999999997,1687.3788,0.0,0.0,0.0,-0.07651492900721074,0.0,0.0,-0.13026387868604386,-0.18132701264308282,-0.20133013002223682,-0.7070748886003583,-0.15266461937932485,-0.03201002669939367
7546,8.0,300.13666,1864.2114,0.0,0.0,0.0,-0.07652507015088302,0.0,0.0,-0.1199038827735919,-0.1893441716743148,-0.2574256516609338,-0.7359286645430043,-0.17680740043953183,-0.02027298337103768
7547,8.0,299.84488,1792.2894,0.0,0.0,0.0,-0.07653521129455526,0.0,0.0,-0.11802340204550289,-0.2030627370307318,-0.2237250951899478,-0.7166286718057434,-0.16625040844263783,-0.015309832081962786
7548,8.0,300.44377000000003,1901.2913,0.0,0.0,0.0,-0.07654535243822753,0.0,0.0,-0.15512341260198886,-0.20477827077504182,-0.21804337631420578,-0.7346851128277754,-0.16037871530564685,-0.03933842390890016
7549,8.0,299.57683,2194.9687,0.0,0.0,0.0,-0.07655549358189978,0.0,0.0,-0.1974030462121638,-0.22130388341349277,-0.24850874680590376,-0.7198761890387483,-0.16157267856098184,-0.03681698345905337
7550,8.0,300.13031,2006.4958,0.0,0.0,0.0,-0.07656563472557204,0.0,0.0,-0.15984362806033783,-0.2183078548553078,-0.23177314821672879,-0.7306765941071652,-0.2027916622314788,-0.043143148650147255
7551,8.0,300.16635,1556.3898,0.0,0.0,0.0,-0.07657577586924431,0.0,0.0,-0.1000568018568375,-0.17475535620451083,-0.19829147403234482,-0.7166897606542724,-0.1986534069680648,-0.04760109141286196
7552,8.0,299.85111,1598.3614,0.0,0.0,0.0,-0.07658591701291656,0.0,0.0,-0.08412483522672483,-0.17050565356259784,-0.2312314748457698,-0.7132357430508873,-0.17961307983393082,-0.07539704033060853
7553,8.0,300.54854,1914.0625,0.0,0.0,0.0,-0.07659605815658883,0.0,0.0,-0.12998539702855988,-0.2055186931531158,-0.24632311567769874,-0.7186545640556833,-0.13941525974671487,-0.06610506169931163
7554,8.0,300.74942000000004,1592.2074,0.0,0.0,0.0,-0.07660619930026108,0.0,0.0,-0.1075156134734649,-0.17457365006407782,-0.2019020489086808,-0.7245260038801493,-0.16343162772444586,-0.07301866471538114
7555,8.0,299.7967,1487.7564,0.0,0.0,0.0,-0.07661634044393335,0.0,0.0,-0.09146804716594341,-0.2047815739703678,-0.15599119038513187,-0.7354768664559153,-0.19407245260345982,-0.07397799775105994
7556,8.0,298.82161,1723.6272,0.0,0.0,0.0,-0.07662648158760563,0.0,0.0,-0.12165268151868489,-0.1956097151251758,-0.2066772230524538,-0.7180301993440633,-0.19051543812740981,-0.03171971230724187
7557,8.0,298.5363,1704.876,0.0,0.0,0.0,-0.07663662273127787,0.0,0.0,-0.10678803910665889,-0.1976686190633738,-0.2137830852087478,-0.7115445577064804,-0.16212002613250084,-0.03518872398560667
7558,8.0,298.76283,1664.184,0.0,0.0,0.0,-0.07664676387495015,0.0,0.0,-0.06116547556781244,-0.20948245661680878,-0.2352224440746478,-0.7233031832619663,-0.18579377372141784,-0.03046311094397497
7559,8.0,299.73731000000004,1806.065,0.0,0.0,0.0,-0.07665690501862239,0.0,0.0,-0.12499321511086987,-0.17812306516437781,-0.2458823924142028,-0.7430300278688543,-0.17542271311787383,-0.027102398476048475
7560,8.0,299.94678,1765.1429999999998,0.0,0.0,0.0,-0.07666704616229467,0.0,0.0,-0.12416951370707688,-0.18124115996210982,-0.23114874297510477,-0.7330262704265603,-0.14867609208318786,-0.029021753557474075
7561,8.0,300.95198,1790.4471,0.0,0.0,0.0,-0.07667718730596693,0.0,0.0,-0.1796400930815968,-0.16918960380271383,-0.19542150391910082,-0.7155496212442494,-0.14736993164427986,-0.05426442773373204
7562,8.0,299.77564,2031.7455,0.0,0.0,0.0,-0.07668732844963919,0.0,0.0,-0.18447103651087382,-0.18431029451500983,-0.24881855815647974,-0.7160658316401953,-0.19181803192596583,-0.03174780567951447
7563,8.0,298.844,1863.3715,0.0,0.0,0.0,-0.07669746959331145,0.0,0.0,-0.16041227414895884,-0.19642867451850082,-0.2095774488136838,-0.7252175876034033,-0.2196432272945988,-0.03089360646096157
7564,8.0,299.98559,1659.9838,0.0,0.0,0.0,-0.0767076107369837,0.0,0.0,-0.08172330785996251,-0.17049192402374283,-0.2523783894678078,-0.7138727429912544,-0.2028536630050978,-0.05027295593280445
7565,8.0,300.71663,1792.7409,0.0,0.0,0.0,-0.07671775188065597,0.0,0.0,-0.1139495793559479,-0.1983341014640518,-0.23266478803972676,-0.7426034799742572,-0.19112810993287582,-0.042753994750490756
7566,8.0,300.19928,1995.0242,0.0,0.0,0.0,-0.07672789302432824,0.0,0.0,-0.1274778360785829,-0.22247325508890078,-0.25648646001074277,-0.7321977459522913,-0.2003100202190598,-0.03402733570773657
7567,8.0,300.08805,1771.2227,0.0,0.0,0.0,-0.07673803416800049,0.0,0.0,-0.13884708988564087,-0.19409903015358282,-0.2054613533299568,-0.7451575592363253,-0.1873092311009818,-0.04692865305024745
7568,8.0,300.28832,1730.3265,0.0,0.0,0.0,-0.07674817531167276,0.0,0.0,-0.09787621468763032,-0.2153651333848838,-0.21273469559527977,-0.7007569398543253,-0.15559826212885283,-0.05802326845745075
7569,8.0,299.95878,1824.2467,0.0,0.0,0.0,-0.076758316455345,0.0,0.0,-0.13293853471001188,-0.19666964565728282,-0.22491726499260578,-0.6729408130740874,-0.15988896086981183,-0.047031432074140955
7570,8.0,299.76926000000003,1585.7843,0.0,0.0,0.0,-0.07676845759901728,0.0,0.0,-0.07068646088071052,-0.1883025303065128,-0.22304984505830577,-0.7031898040069303,-0.19025748491695182,-0.04417157926314546
7571,8.0,299.18008,1672.4395,0.0,0.0,0.0,-0.07677859874268954,0.0,0.0,-0.1040711406860219,-0.2292727408124578,-0.17503594542220283,-0.7159398441227613,-0.2060797398659868,-0.07403615121404923
7572,8.0,299.4856,1921.0497,0.0,0.0,0.0,-0.0767887398863618,0.0,0.0,-0.14829494792557185,-0.19869666261483382,-0.23695952964858474,-0.7411895299897113,-0.1954214735215978,-0.04133497952869486
7573,8.0,299.94622000000004,1741.8467,0.0,0.0,0.0,-0.07679888103003406,0.0,0.0,-0.16019700916521384,-0.1990213383443768,-0.17025954524580883,-0.7514213497645132,-0.17351445920454384,-0.07811383843948563
7574,8.0,300.68057000000005,1464.7465,0.0,0.0,0.0,-0.07680902217370632,0.0,0.0,-0.0961214154754451,-0.15339530442393787,-0.1957296231420098,-0.7370680440154522,-0.1901786439266708,-0.06786618055237054
7575,8.0,300.69337,1777.5709,0.0,0.0,0.0,-0.07681916331737858,0.0,0.0,-0.12371786760750288,-0.18283945053734882,-0.23377984950977476,-0.7325841590104273,-0.18340696178585783,-0.04765661042559125
7576,8.0,300.9749,2077.5164,0.0,0.0,0.0,-0.07682930446105085,0.0,0.0,-0.14159993841982588,-0.22726449937925977,-0.26264866208390475,-0.7321527373828493,-0.16792678007058284,-0.05109762904344335
7577,8.0,301.17374,1995.8747,0.0,0.0,0.0,-0.0768394456047231,0.0,0.0,-0.14854234306998787,-0.2083010070002088,-0.24985273187104476,-0.7120640105027464,-0.16721337094017483,-0.018851281009976583
7578,8.0,300.4631,1858.0976,0.0,0.0,0.0,-0.07684958674839537,0.0,0.0,-0.12589263669463588,-0.2095490778108838,-0.22937353893240578,-0.7305124475909653,-0.17419379273408883,-0.02411520241898518
7579,8.0,298.89113,1773.9831,0.0,0.0,0.0,-0.07685972789206762,0.0,0.0,-0.14750639616774786,-0.2007607543935438,-0.19097940534819982,-0.7098648524857063,-0.19181749490341282,-0.0015039750267807786
7580,8.0,300.22193,1750.4991,0.0,0.0,0.0,-0.07686986903573989,0.0,0.0,-0.12077701051726289,-0.19077182080021282,-0.22055919525249779,-0.7117424353185093,-0.17062764887463783,-0.04300757376026705
7581,8.0,299.8535,1738.8898,0.0,0.0,0.0,-0.07688001017941215,0.0,0.0,-0.11512131190408888,-0.2069971567715288,-0.2064606104460758,-0.7220585372366294,-0.17830155930199382,-0.030231118214329073
7582,8.0,299.49482,1715.2858,0.0,0.0,0.0,-0.07689015132308441,0.0,0.0,-0.11930474798946189,-0.18257894393663882,-0.21952038085247477,-0.7449609684519233,-0.2006815587657278,-0.06539751523398224
7583,8.0,300.35691,1535.3168,0.0,0.0,0.0,-0.07690029246675667,0.0,0.0,-0.1044857828919439,-0.17932930901092484,-0.18288285817163283,-0.7318060234636313,-0.2121824742907798,-0.056626321822832844
7584,8.0,300.35028,1586.9158,0.0,0.0,0.0,-0.07691043361042893,0.0,0.0,-0.0953187217859754,-0.2067890352009888,-0.18027502599175985,-0.7207322333857333,-0.21209192012934278,-0.09207673487201623
7585,8.0,301.46094,1931.3373,0.0,0.0,0.0,-0.07692057475410119,0.0,0.0,-0.15707738435983085,-0.16973804568434084,-0.26026287353094574,-0.7105967736954414,-0.17856662552815383,-0.05948807042476544
7586,8.0,300.87733,1849.6663,0.0,0.0,0.0,-0.07693071589777346,0.0,0.0,-0.1031074182509099,-0.2136119168693548,-0.24553302377972275,-0.7339279110280453,-0.15397503546865285,-0.06807139916137403
7587,8.0,299.76647,1574.3857,0.0,0.0,0.0,-0.07694085704144571,0.0,0.0,-0.07444286676443893,-0.1908209026350568,-0.21331016085707377,-0.7077953904814663,-0.15377620540152984,-0.06273784112599284
7588,8.0,299.24904,1794.2864,0.0,0.0,0.0,-0.07695099818511798,0.0,0.0,-0.1161622135993179,-0.18413799133550482,-0.24511806746626977,-0.7310946509659243,-0.13003709304866187,-0.03628282739058626
7589,8.0,300.10245,2022.7929,0.0,0.0,0.0,-0.07696113932879023,0.0,0.0,-0.15372735661420886,-0.23416858291063977,-0.2269825828039368,-0.7097458361289604,-0.16051940508203183,-0.02946438071790797
7590,8.0,299.53018,1678.6655,0.0,0.0,0.0,-0.0769712804724625,0.0,0.0,-0.10857289942281088,-0.18661370583483883,-0.21508578033231382,-0.7352047986715643,-0.1910824022208648,-0.025150779484938678
7591,8.0,300.14086000000003,1667.5976,0.0,0.0,0.0,-0.07698142161613475,0.0,0.0,-0.1178880520971449,-0.18078719351980682,-0.2082327747384748,-0.7305981381519223,-0.2123337322657078,-0.013323160716893588
7592,8.0,299.19287,1728.4274,0.0,0.0,0.0,-0.07699156275980702,0.0,0.0,-0.1031755795851369,-0.17728460070662783,-0.24493859047605676,-0.6962134757434203,-0.19740908518275982,-0.03203061188842527
7593,8.0,300.09225,1764.1184,0.0,0.0,0.0,-0.07700170390347928,0.0,0.0,-0.15010730784943785,-0.15770711929698086,-0.22843352654963378,-0.7116577884051553,-0.17808569650068984,-0.035834558453595566
7594,8.0,300.06917000000004,1902.531,0.0,0.0,0.0,-0.07701184504715154,0.0,0.0,-0.15385845091214687,-0.20044717375259583,-0.22401628300368576,-0.7226614615761333,-0.17390523937061084,-0.06361580612564123
7595,8.0,300.50271000000004,1925.9783,0.0,0.0,0.0,-0.0770219861908238,0.0,0.0,-0.17192966512063682,-0.18314010210702084,-0.23037955442669175,-0.7388268840690363,-0.2036636956650418,-0.03877692427323446
7596,8.0,301.1107,1809.4347,0.0,0.0,0.0,-0.07703212733449606,0.0,0.0,-0.12251915220919889,-0.19396921255077082,-0.2335346125880718,-0.7294564180717433,-0.16622765084539184,-0.06371719193064725
7597,8.0,299.11087000000003,1713.155,0.0,0.0,0.0,-0.07704226847816832,0.0,0.0,-0.12319120047052488,-0.19401105977990082,-0.2035540721367228,-0.7201129247921123,-0.16775491258862085,-0.02117707198476428
7598,8.0,298.84946,1877.9384,0.0,0.0,0.0,-0.07705240962184058,0.0,0.0,-0.1169063951352629,-0.18210961662281985,-0.27183036972006874,-0.7172154348061524,-0.16269433628918084,-0.017613197805537283
7599,8.0,300.11066,1813.5354,0.0,0.0,0.0,-0.07706255076551284,0.0,0.0,-0.12470158146708789,-0.2172603265044248,-0.20930756964954883,-0.7446771773639153,-0.14044543112338487,-0.012395168520057887
7600,8.0,300.33213,1618.5837,0.0,0.0,0.0,-0.07707269190918511,0.0,0.0,-0.11435435250589589,-0.19771057775001483,-0.17994409850909984,-0.7178768540739293,-0.15724051762593086,-0.048758092317799054
7601,8.0,300.67394,1827.0832,0.0,0.0,0.0,-0.07708283305285736,0.0,0.0,-0.15490437832787185,-0.1980187982979338,-0.2024645040391908,-0.7283052241031294,-0.17049573384411884,-0.05857995718164165
7602,8.0,300.62916,1824.5895,0.0,0.0,0.0,-0.07709297419652962,0.0,0.0,-0.14417135439110487,-0.21376831202228977,-0.19668997145428882,-0.7158725845811234,-0.21316526609277378,-0.05803759784036495
7603,8.0,300.21657999999996,1567.0646,0.0,0.0,0.0,-0.07710311534020188,0.0,0.0,-0.06852546692868702,-0.18577821019988183,-0.22204484281411982,-0.7333209843506463,-0.22388347631307876,-0.07229513828272463
7604,8.0,300.49262999999996,1805.305,0.0,0.0,0.0,-0.07711325648387415,0.0,0.0,-0.08494825596024011,-0.2072630842602738,-0.25655628307513373,-0.7361999115947743,-0.2016937449531228,-0.042349479979318254
7605,8.0,299.74826,1871.8447,0.0,0.0,0.0,-0.0771233976275464,0.0,0.0,-0.13899329174256989,-0.19081333365680983,-0.2391874234384608,-0.7196208094835443,-0.15145567015501085,-0.07021163161884852
7606,8.0,298.79392,1722.4633,0.0,0.0,0.0,-0.07713353877121867,0.0,0.0,-0.16089875578697085,-0.17406751137412585,-0.1886195559978008,-0.7139801576343553,-0.15632998068856785,-0.04434334440684736
7607,8.0,299.44462999999996,1848.0834,0.0,0.0,0.0,-0.07714367991489092,0.0,0.0,-0.15068094926105186,-0.21643316991779082,-0.19465709791115982,-0.7374733744529554,-0.15702236487940086,-0.07065259704911843
7608,8.0,299.59402,1841.1081,0.0,0.0,0.0,-0.0771538210585632,0.0,0.0,-0.15021763052032586,-0.1988262877001268,-0.21060696157778877,-0.7117595389801973,-0.17273426676004483,-0.03521243505119677
7609,8.0,300.63159,1652.8935,0.0,0.0,0.0,-0.07716396220223544,0.0,0.0,-0.08927844612384661,-0.1957750066139888,-0.2173849056042198,-0.7185974978100512,-0.18377482223466282,-0.017253394721527482
7610,8.0,300.53483,1778.9279999999999,0.0,0.0,0.0,-0.07717410334590771,0.0,0.0,-0.11791673720747588,-0.2066880445635218,-0.2161449103968418,-0.7104790745638253,-0.18894389735481082,-0.028810603382385173
7611,8.0,300.63849,2027.4182,0.0,0.0,0.0,-0.07718424448957997,0.0,0.0,-0.16575534457627883,-0.2006734426324268,-0.2498557310913408,-0.7571805214778993,-0.17533877547958981,0.008139441903650372
7612,8.0,301.88644,1857.5489,0.0,0.0,0.0,-0.07719438563325223,0.0,0.0,-0.14837060731053886,-0.21362205950285582,-0.2026558157905718,-0.7482996477964253,-0.15246069266419887,-0.06281057221817085
7613,8.0,301.65215,1707.5588,0.0,0.0,0.0,-0.07720452677692449,0.0,0.0,-0.12241408830632988,-0.18174167511400682,-0.21489947403642679,-0.7578064972571782,-0.15168489772513385,-0.04451210425075266
7614,8.0,300.46717,1927.351,0.0,0.0,0.0,-0.07721466792059675,0.0,0.0,-0.15554617094121187,-0.19618635575708582,-0.23413406147973279,-0.7597635188978212,-0.19097129934739981,-0.06701088499720943
7615,8.0,300.1932,1857.7805,0.0,0.0,0.0,-0.07722480906426901,0.0,0.0,-0.11899537233642889,-0.19619427937286782,-0.24952922137911676,-0.6973937297249023,-0.20112783463977182,-0.04502140630751686
7616,8.0,300.41907000000003,1628.4858,0.0,0.0,0.0,-0.07723495020794129,0.0,0.0,-0.1066535808183889,-0.16681634915349186,-0.2215490798051918,-0.7141234919935013,-0.2075060008392478,-0.05373769878849795
7617,8.0,300.0645,1717.3142,0.0,0.0,0.0,-0.07724509135161353,0.0,0.0,-0.12351348492983187,-0.18774677275916382,-0.21076037777542977,-0.6841005976879724,-0.18241922532337584,-0.03306692457395137
7618,8.0,300.16817000000003,1742.6246,0.0,0.0,0.0,-0.0772552324952858,0.0,0.0,-0.14231797810319086,-0.1953936395413508,-0.1920027676841978,-0.7290504087566734,-0.18407004278379882,-0.03582838472073626
7619,8.0,300.01493999999997,1778.5634,0.0,0.0,0.0,-0.07726537363895805,0.0,0.0,-0.12249041643636287,-0.2147663329732868,-0.20338211346225182,-0.7359340246360333,-0.14995028448144085,-0.06333486632341463
7620,8.0,299.99404,1836.2986,0.0,0.0,0.0,-0.07727551478263033,0.0,0.0,-0.11775580269409289,-0.2244566820271498,-0.2159764373027148,-0.7494715728620853,-0.16225870967368783,-0.051008920010438455
7621,8.0,300.41634,1937.0181,0.0,0.0,0.0,-0.0772856559263026,0.0,0.0,-0.10046689254331032,-0.23403027427198977,-0.25430795203074075,-0.7269443582913223,-0.15459174000951686,-0.06541732933968773
7622,8.0,301.0474,1704.7317,0.0,0.0,0.0,-0.07729579706997484,0.0,0.0,-0.0983840070017455,-0.20135039502423682,-0.2184614635704678,-0.7371800182840034,-0.18929209061917482,-0.02009784714425308
7623,8.0,300.6813,1773.7001,0.0,0.0,0.0,-0.07730593821364712,0.0,0.0,-0.11885812761038388,-0.21069509407148682,-0.2096073194266318,-0.7225805636881493,-0.2061921295670788,-0.042560900692183865
7624,8.0,301.24322,2007.3564,0.0,0.0,0.0,-0.07731607935731936,0.0,0.0,-0.17342439140315483,-0.2091542041144128,-0.22760761626062279,-0.7192115679006553,-0.18524081274434484,-0.046609463056745855
7625,8.0,301.01662000000005,1835.8436,0.0,0.0,0.0,-0.07732622050099164,0.0,0.0,-0.13567154380723886,-0.1996257724265298,-0.2227532870190378,-0.7405974778237803,-0.16914263966057885,-0.07409828776318163
7626,8.0,300.1519,1742.4166,0.0,0.0,0.0,-0.0773363616446639,0.0,0.0,-0.1130952980641369,-0.20199587586794082,-0.21455995419291882,-0.7166777131105833,-0.17051491466851185,-0.08447087432137622
7627,8.0,300.28651,1976.8665,0.0,0.0,0.0,-0.07734650278833616,0.0,0.0,-0.11979135121748588,-0.1983335543089978,-0.28279315824951173,-0.7422626429056193,-0.17752551105040384,-0.032230116780114865
7628,8.0,300.21622,1862.7089,0.0,0.0,0.0,-0.07735664393200842,0.0,0.0,-0.13677531767117285,-0.20198737469960182,-0.22745430138799178,-0.7115056894326444,-0.18640695215193384,-0.04372958437077396
7629,8.0,299.6419,1723.249,0.0,0.0,0.0,-0.07736678507568068,0.0,0.0,-0.13429686739656888,-0.18063408129719583,-0.20889372791120583,-0.7095442094915614,-0.2002492758755648,-0.005406132985718785
7630,8.0,299.62545,1942.3243,0.0,0.0,0.0,-0.07737692621935294,0.0,0.0,-0.14753661128572984,-0.22430850433252578,-0.2185729717439728,-0.7161876243022153,-0.2039309201139148,-0.03273361798005657
7631,8.0,299.80237,1816.5761,0.0,0.0,0.0,-0.07738706736302521,0.0,0.0,-0.13428044261244787,-0.1987680258193768,-0.2191452959304568,-0.7327406656208734,-0.18563024528777883,-0.017381881926958182
7632,8.0,300.27585,1747.2268,0.0,0.0,0.0,-0.07739720850669746,0.0,0.0,-0.09330331566132032,-0.21823549866566677,-0.21957449854031577,-0.7456264407201003,-0.17035277438750984,-0.06186778454337494
7633,8.0,300.40386,1848.1008,0.0,0.0,0.0,-0.07740734965036973,0.0,0.0,-0.11313465269802091,-0.21470634856736678,-0.23393547459263375,-0.7346055220324204,-0.15506140169586885,-0.07290537322170014
7634,8.0,299.98106,1813.9913,0.0,0.0,0.0,-0.07741749079404198,0.0,0.0,-0.14078771713966587,-0.1880506869941578,-0.22256965570341478,-0.7568796672582073,-0.17073573226280483,-0.045861815192208756
7635,8.0,300.86081,1546.7137,0.0,0.0,0.0,-0.07742763193771425,0.0,0.0,-0.1292058834616279,-0.17331503131986184,-0.16764143870992182,-0.7522518196789743,-0.2050710493914368,-0.07288032669247824
7636,8.0,300.59141,1704.2143,0.0,0.0,0.0,-0.07743777308138651,0.0,0.0,-0.12720014475617689,-0.19718818652845882,-0.19365024141929083,-0.7232548917622003,-0.1932281214276308,-0.04992840023629945
7637,8.0,299.81109,1901.1223,0.0,0.0,0.0,-0.07744791422505877,0.0,0.0,-0.12663564286046486,-0.1971763720322928,-0.25408168315090973,-0.7383313845051342,-0.17278099785465684,-0.07704887509413193
7638,8.0,299.74571000000003,1690.8755,0.0,0.0,0.0,-0.07745805536873103,0.0,0.0,-0.09875904936725931,-0.1985919634820008,-0.21663291191000378,-0.6956806683108363,-0.17189352248956985,-0.050810214573077744
7639,8.0,299.39875,1611.4085,0.0,0.0,0.0,-0.07746819651240329,0.0,0.0,-0.06995348285112123,-0.2056694242379918,-0.21420502281538978,-0.7499501815468202,-0.17119501826813283,-0.06533551952661373
7640,8.0,299.5442,1663.9983,0.0,0.0,0.0,-0.07747833765607555,0.0,0.0,-0.13362153620491887,-0.18910310934302382,-0.18308926734950381,-0.7007532009614563,-0.13625803323012087,-0.005767887386771165
7641,8.0,300.47986000000003,1749.1741,0.0,0.0,0.0,-0.07748847879974782,0.0,0.0,-0.10981337085773589,-0.21356283503451082,-0.20832903349797482,-0.7421527863297772,-0.15445248904827386,-0.03501663561512287
7642,8.0,298.60548,1776.6746,0.0,0.0,0.0,-0.07749861994342007,0.0,0.0,-0.12935734408657587,-0.2046905334488828,-0.20601683729977882,-0.7312552409742733,-0.17475783866725583,-0.042024158809461566
7643,8.0,299.85174,1954.7468,0.0,0.0,0.0,-0.07750876108709234,0.0,0.0,-0.14005096272695386,-0.22425920971516078,-0.22988404473028876,-0.7656788831141222,-0.22017452498453377,-0.03890150033327917
7644,8.0,300.97167,1976.5761,0.0,0.0,0.0,-0.07751890223076459,0.0,0.0,-0.13029546169166087,-0.21326152485227381,-0.25727278261834674,-0.7167282134955674,-0.1828911364249498,-0.05733306478083294
7645,8.0,300.26935,1701.359,0.0,0.0,0.0,-0.07752904337443686,0.0,0.0,-0.1085489056604429,-0.17039779308945285,-0.2382239644483748,-0.7332430856829583,-0.15010374120908584,-0.04108774650429486
7646,8.0,299.77517,1801.9276,0.0,0.0,0.0,-0.07753918451810912,0.0,0.0,-0.14558891154600687,-0.18545328115781384,-0.2166988238290088,-0.7175682180934693,-0.17522153231051882,-0.04954392248585445
7647,8.0,300.12813,1879.9066,0.0,0.0,0.0,-0.07754932566178138,0.0,0.0,-0.17464108185823282,-0.16286934484645282,-0.2339342384275118,-0.7379236931948983,-0.17604633815692083,-0.02059149853997268
7648,8.0,299.2407,1643.4741,0.0,0.0,0.0,-0.07755946680545364,0.0,0.0,-0.11046558981460489,-0.17382873898806084,-0.21528076004905677,-0.7408798199641453,-0.17934282576725882,-0.05537578070841404
7649,8.0,300.98305,1707.0984,0.0,0.0,0.0,-0.0775696079491259,0.0,0.0,-0.12959233704976786,-0.18377812542998884,-0.20554484513819682,-0.7261120949241843,-0.16585243420086085,-0.04022298921969997
7650,8.0,300.65967,2025.5972,0.0,0.0,0.0,-0.07757974909279816,0.0,0.0,-0.10762602733686191,-0.22432171711382975,-0.2837832353197247,-0.7480080952126513,-0.1891362020912898,-0.04980909003702445
7651,8.0,300.41568,2008.3391,0.0,0.0,0.0,-0.07758989023647044,0.0,0.0,-0.13893056142887886,-0.25485247263448074,-0.2167018939768118,-0.7240387116420572,-0.18075430342156082,-0.03677296990120957
7652,8.0,301.08012,1942.4657,0.0,0.0,0.0,-0.07760003138014268,0.0,0.0,-0.16002830302356383,-0.2072219159087108,-0.2232108606316968,-0.7307029588747673,-0.16313012502468985,-0.04241168948245786
7653,8.0,301.14203,1980.2242,0.0,0.0,0.0,-0.07761017252381495,0.0,0.0,-0.15866610985412585,-0.2100659569518958,-0.23320665392820475,-0.7009769772460414,-0.14382619074453987,-0.03547710307006747
7654,8.0,300.05737999999997,1673.8698,0.0,0.0,0.0,-0.0776203136674872,0.0,0.0,-0.1171677832635599,-0.20545525356435482,-0.18619157571067782,-0.7312354116698163,-0.19003480294247482,-0.05072518870418635
7655,8.0,300.03116,1704.7456,0.0,0.0,0.0,-0.07763045481115947,0.0,0.0,-0.08235671684197511,-0.2040755818306918,-0.23176778812369978,-0.7229906462686213,-0.2082000467602448,-0.05888487960048514
7656,8.0,299.2595,1783.6623,0.0,0.0,0.0,-0.07764059595483173,0.0,0.0,-0.1024176077153309,-0.19130730321306083,-0.24846386995897476,-0.7251403272832784,-0.1909798106482398,-0.05383070197542666
7657,8.0,299.6156,1772.0272,0.0,0.0,0.0,-0.077650737098504,0.0,0.0,-0.1079243686963059,-0.1976049970895948,-0.23312266562741576,-0.7326633141082394,-0.17077957559463183,-0.06089258502438024
7658,8.0,300.56576,1587.9568,0.0,0.0,0.0,-0.07766087824217625,0.0,0.0,-0.1132424625086609,-0.15868875599386084,-0.21076801768118378,-0.7681581642538082,-0.16500286452201482,-0.05566882682283544
7659,8.0,300.27216,1960.9029,0.0,0.0,0.0,-0.07767101938584851,0.0,0.0,-0.15622372115058084,-0.2291780829881158,-0.21066370358338882,-0.7636010921940602,-0.17779964586495883,-0.06393137982953595
7660,8.0,300.5105,2307.6212,0.0,0.0,0.0,-0.07768116052952077,0.0,0.0,-0.18836030582721483,-0.25434734719462876,-0.2587515806092927,-0.7398934007267933,-0.16423954269168084,-0.030018185732314268
7661,8.0,301.22829,1970.5968,0.0,0.0,0.0,-0.07769130167319305,0.0,0.0,-0.14538534960091687,-0.22456552535289181,-0.22906134644409482,-0.6892253025862414,-0.17771222264633083,-0.04504470700681645
7662,8.0,301.11413999999996,1806.0686,0.0,0.0,0.0,-0.0777014428168653,0.0,0.0,-0.09081353826384841,-0.22480677006920077,-0.23337944346775777,-0.7029245655282533,-0.2103356435985118,-0.03453958733554187
7663,8.0,300.97246,1837.7926,0.0,0.0,0.0,-0.07771158396053757,0.0,0.0,-0.17089824744634383,-0.17399148721912283,-0.2137533361858118,-0.7008356085920893,-0.2209591250669678,-0.01016908034186009
7664,8.0,300.51637999999997,1727.2758,0.0,0.0,0.0,-0.07772172510420981,0.0,0.0,-0.12198595974157689,-0.1991724038017858,-0.2038903597124118,-0.7143146821548704,-0.20115658054510882,-0.04392010173407655
7665,8.0,299.23887,1535.1865,0.0,0.0,0.0,-0.07773186624788209,0.0,0.0,-0.1298159410818359,-0.16029268023965584,-0.17654973093910184,-0.7358040955757104,-0.15892599837227483,-0.049912976543277254
7666,8.0,300.56096,1698.1885,0.0,0.0,0.0,-0.07774200739155436,0.0,0.0,-0.1064712059328899,-0.17539318700995984,-0.23434250729030476,-0.7752386140975943,-0.17583076919814583,-0.05993864957198414
7667,8.0,299.93643,1693.9346,0.0,0.0,0.0,-0.0777521485352266,0.0,0.0,-0.08535058109794652,-0.1973837336652578,-0.23217949190433176,-0.7871495716731143,-0.17545795395635183,-0.05649772619964145
7668,8.0,299.95727,1765.4106,0.0,0.0,0.0,-0.07776228967889888,0.0,0.0,-0.1082086968068669,-0.18718560445628082,-0.24124643883416977,-0.7690597339277863,-0.16619886441005086,-0.06536164415394204
7669,8.0,299.9916,1986.5409,0.0,0.0,0.0,-0.07777243082257113,0.0,0.0,-0.18154449664454683,-0.2005433311870858,-0.22177099170959277,-0.7221641077645483,-0.17033697781845084,-0.04362049786500796
7670,8.0,299.94062,1995.7819,0.0,0.0,0.0,-0.0777825719662434,0.0,0.0,-0.15847041072981186,-0.22947369870479079,-0.21872374335885278,-0.7070212268750623,-0.18849696286820183,-0.03813457741208976
7671,8.0,300.35418,1634.2092,0.0,0.0,0.0,-0.07779271310991566,0.0,0.0,-0.12354674993061489,-0.19222966477909081,-0.18098239615157183,-0.7185763411479633,-0.2070888255080758,-0.04461699387460446
7672,8.0,300.28282,1704.0929,0.0,0.0,0.0,-0.07780285425358792,0.0,0.0,-0.0993128716069173,-0.2149652339679168,-0.20372357874595182,-0.7065793181089494,-0.17877465590618483,-0.03011454986982467
7673,8.0,299.94029,1877.9286,0.0,0.0,0.0,-0.07781299539726018,0.0,0.0,-0.0993144988865779,-0.2225144842354698,-0.2490144194008098,-0.7193366941555044,-0.16873452278530082,-0.06848132468808052
7674,8.0,299.62262999999996,1636.1129,0.0,0.0,0.0,-0.07782313654093242,0.0,0.0,-0.1001556636558444,-0.17902427006831984,-0.21815753920297282,-0.7285541391226953,-0.18699775802024182,-0.016135257024175884
7675,8.0,300.46774,1637.6797,0.0,0.0,0.0,-0.0778332776846047,0.0,0.0,-0.11761814253550688,-0.18932618648503982,-0.19086940691734383,-0.7562785667688833,-0.1992755526619658,-0.08192301945467252
7676,8.0,300.2876,1850.4175,0.0,0.0,0.0,-0.07784341882827697,0.0,0.0,-0.13906546554719287,-0.16605151758050885,-0.25736374207982377,-0.7485957904031523,-0.17053097468259684,-0.031882343001292265
7677,8.0,300.41666000000004,1843.2384,0.0,0.0,0.0,-0.07785355997194922,0.0,0.0,-0.14780665256988088,-0.20342876349685582,-0.2090630420029158,-0.7379106830636143,-0.16619220735689383,-0.08015743723492312
7678,8.0,300.48606,1939.8311,0.0,0.0,0.0,-0.07786370111562149,0.0,0.0,-0.1097301019645179,-0.21314603460587578,-0.2667840701145377,-0.7287970759666713,-0.17885571591418484,-0.04907765822708775
7679,8.0,301.24327999999997,2099.7942,0.0,0.0,0.0,-0.07787384225929374,0.0,0.0,-0.14554709471437985,-0.2165537162821878,-0.27618419394225774,-0.7273100402524123,-0.19049674366306482,-0.031880434038103866
7680,8.0,300.69817,1803.2535,0.0,0.0,0.0,-0.07788398340296601,0.0,0.0,-0.12343059093915087,-0.20920389389931682,-0.21550954178913578,-0.7218002293886363,-0.18123083494359082,-0.03929895477775486
7681,8.0,301.28918,1723.2766,0.0,0.0,0.0,-0.07789412454663827,0.0,0.0,-0.14917805618272786,-0.1812372386842228,-0.19341775118384583,-0.7184786030433173,-0.1815282137154398,-0.005723013376942444
7682,8.0,300.74102,1902.8878,0.0,0.0,0.0,-0.07790426569031053,0.0,0.0,-0.14418628969757888,-0.2290831211887438,-0.2051609753378118,-0.7291916355556113,-0.19622688576108582,-0.046241395904920456
7683,8.0,300.12987999999996,1802.3926,0.0,0.0,0.0,-0.07791440683398279,0.0,0.0,-0.13804559892403986,-0.2005103194988278,-0.2093264363664108,-0.7394631848668343,-0.1932882172910618,-0.026364686541991977
7684,8.0,298.86064,1631.1457,0.0,0.0,0.0,-0.07792454797765505,0.0,0.0,-0.07893973859599562,-0.2003443288674458,-0.21654350272117978,-0.7318221746702254,-0.17720943781420984,-0.08111839653701242
7685,8.0,299.70082,1730.0296,0.0,0.0,0.0,-0.07793468912132731,0.0,0.0,-0.11537872809199388,-0.19366531858077882,-0.21684176302061578,-0.7345326592177294,-0.13540643705107488,-0.04542293705714486
7686,8.0,299.95901000000003,1809.1227,0.0,0.0,0.0,-0.07794483026499958,0.0,0.0,-0.13560400055557287,-0.18383143251774983,-0.2304926939328578,-0.7622740588030923,-0.15121577306133485,-0.05881806386239095
7687,8.0,299.75061,1729.2945,0.0,0.0,0.0,-0.07795497140867183,0.0,0.0,-0.12992822945791788,-0.17694019699763783,-0.2187939109282778,-0.7264438735369283,-0.18041713431828485,-0.04729529050618175
7688,8.0,300.22445,1819.1729,0.0,0.0,0.0,-0.0779651125523441,0.0,0.0,-0.14062174677328587,-0.19884130406660883,-0.21352007588029082,-0.7206900315190683,-0.1779768734399498,-0.060638398064543936
7689,8.0,300.97004,1820.8421,0.0,0.0,0.0,-0.07797525369601635,0.0,0.0,-0.10960199675437489,-0.1923292166014158,-0.2515593084844707,-0.7035898756764143,-0.19337012842914583,-0.040019757594142565
7690,8.0,300.88455,1707.7268,0.0,0.0,0.0,-0.07798539483968862,0.0,0.0,-0.08841156709354232,-0.1961942084453608,-0.23450054390840178,-0.7474122028288414,-0.2131611320323658,-0.04909622704842036
7691,8.0,301.49194,2019.3111,0.0,0.0,0.0,-0.07799553598336088,0.0,0.0,-0.1296607516965199,-0.23509599046216778,-0.24906343030814676,-0.7429646428399013,-0.2107115087231068,-0.03293748795317697
7692,8.0,301.45426000000003,1922.0135,0.0,0.0,0.0,-0.07800567712703314,0.0,0.0,-0.16925184775635685,-0.17423854799100583,-0.2407537155755418,-0.7277505608658883,-0.18196102349565482,-0.013791086705824285
7693,8.0,300.51936,1706.9501,0.0,0.0,0.0,-0.0780158182707054,0.0,0.0,-0.11119962871704889,-0.21353805093706477,-0.19413252820188884,-0.7094286584501573,-0.17399736406970284,-0.044074531181817554
7694,8.0,300.54909,1675.2447,0.0,0.0,0.0,-0.07802595941437766,0.0,0.0,-0.1360422818863279,-0.18436800924070582,-0.18882227694530782,-0.7348617831152113,-0.16962558505574185,-0.033556675970036066
7695,8.0,300.51807,2147.0843,0.0,0.0,0.0,-0.07803610055804992,0.0,0.0,-0.15312158504192386,-0.24295285332757974,-0.25658557613552474,-0.6996908487616104,-0.2109025164994578,-0.05549467344864785
7696,8.0,300.71175,2104.991,0.0,0.0,0.0,-0.0780462417017222,0.0,0.0,-0.14436311197252985,-0.23970146547919277,-0.25580012492300674,-0.7327182322636593,-0.1789535756088428,-0.05624406612985715
7697,8.0,300.2215,1698.0539,0.0,0.0,0.0,-0.07805638284539444,0.0,0.0,-0.1107896879915909,-0.17005582118070284,-0.23532047602182277,-0.7174148930883374,-0.18201147321813382,-0.03715697243735767
7698,8.0,301.06832,1803.2317,0.0,0.0,0.0,-0.07806652398906672,0.0,0.0,-0.12411987458467787,-0.2099572149511638,-0.2140603205686088,-0.7581897185774993,-0.1880042700070768,-0.04797485708324975
7699,8.0,300.71291,1783.4266,0.0,0.0,0.0,-0.07807666513273896,0.0,0.0,-0.14129167734190287,-0.16828559219599484,-0.23253989483240078,-0.7661300935161532,-0.1942910815775368,-0.041233541034683664
7700,8.0,299.19597999999996,1932.2358,0.0,0.0,0.0,-0.07808680627641124,0.0,0.0,-0.13576770124172888,-0.2213115435842488,-0.2302722005785968,-0.7581118401748133,-0.17443442950033783,-0.06628213830003774
7701,8.0,299.1313,1953.8726,0.0,0.0,0.0,-0.07809694742008348,0.0,0.0,-0.14791565801563886,-0.22023809629580782,-0.2257747278897308,-0.7191425757013463,-0.16341243676755185,-0.06825880483361953
7702,8.0,299.78199,1497.3648,0.0,0.0,0.0,-0.07810708856375576,0.0,0.0,-0.06767004573051354,-0.17306251926244082,-0.2144289409549888,-0.7270200886037963,-0.17943282264114083,-0.04906522058211025
7703,8.0,300.50735,1282.7664,0.0,0.0,0.0,-0.078117229707428,0.0,0.0,-0.07066145792124293,-0.16309769088898884,-0.15616982637776186,-0.7198714267632783,-0.2053439379083688,-0.05537227587631814
7704,8.0,301.40744,1946.9920000000002,0.0,0.0,0.0,-0.07812737085110028,0.0,0.0,-0.14324004582669186,-0.21373792465179078,-0.2348589811312768,-0.7256615330022174,-0.17395556750307783,-0.007125958452152343
7705,8.0,301.0501,2187.6644,0.0,0.0,0.0,-0.07813751199477252,0.0,0.0,-0.18760226302990182,-0.22403922298594978,-0.25335386560407974,-0.7329674917882593,-0.16628573034112384,-0.04093309211503166
7706,8.0,300.77209,1799.719,0.0,0.0,0.0,-0.0781476531384448,0.0,0.0,-0.13009472671434988,-0.19883113103560482,-0.21814378939911577,-0.7366808710197412,-0.16875519308734083,-0.026516657844990372
7707,8.0,300.65732,1741.2399,0.0,0.0,0.0,-0.07815779428211705,0.0,0.0,-0.11874375193909588,-0.18812967997195382,-0.22242000879614576,-0.7600358399946973,-0.2008554527478898,-0.07997468542038692
7708,8.0,299.94576,1935.3884,0.0,0.0,0.0,-0.07816793542578931,0.0,0.0,-0.14125900002617786,-0.18916595111422582,-0.25788479581124774,-0.7467493954084273,-0.17688260386195384,-0.02416669072281668
7709,8.0,300.06401,2003.2293,0.0,0.0,0.0,-0.07817807656946157,0.0,0.0,-0.15710860259541184,-0.20716019884511983,-0.24466288512384676,-0.7260145493370573,-0.18151101886124282,-0.052910437837103655
7710,8.0,299.77139,1822.5115,0.0,0.0,0.0,-0.07818821771313383,0.0,0.0,-0.13355949490129587,-0.17006139405625284,-0.25037710906279675,-0.7177492453563353,-0.16712169207112684,-0.014964920734672687
7711,8.0,299.25802000000004,1764.1074,0.0,0.0,0.0,-0.0781983588568061,0.0,0.0,-0.12305042963413187,-0.1989987327346458,-0.2141954273369428,-0.7307576845126683,-0.1865380768473748,-0.06104403146382685
7712,8.0,300.00387,1734.3245,0.0,0.0,0.0,-0.07820850000047835,0.0,0.0,-0.12357724875862487,-0.20146441605798981,-0.20214968723312082,-0.7347824557648823,-0.16681666326102285,-0.04743967965868186
7713,8.0,300.1108,1958.1146,0.0,0.0,0.0,-0.07821864114415061,0.0,0.0,-0.12759975033061488,-0.23665456163348678,-0.23096362218183478,-0.7445411080079863,-0.18346524393160984,-0.06787364921885763
7714,8.0,299.985,2133.7791,0.0,0.0,0.0,-0.07822878228782287,0.0,0.0,-0.15240787193648586,-0.24578229343682378,-0.2504254106950638,-0.7297211904553743,-0.18453904585758582,-0.041437632909575965
7715,8.0,301.40412000000003,1767.5562,0.0,0.0,0.0,-0.07823892343149513,0.0,0.0,-0.12795052738273388,-0.17216374615873883,-0.2371786855127138,-0.7273616349475043,-0.2051928217884548,-0.025102926722465977
7716,8.0,300.81209,1541.8255,0.0,0.0,0.0,-0.0782490645751674,0.0,0.0,-0.07710924352183983,-0.2026340917084278,-0.18893311637374682,-0.7199347447620273,-0.18431635375060781,-0.06544321990624294
7717,8.0,301.57111000000003,1835.6374,0.0,0.0,0.0,-0.07825920571883965,0.0,0.0,-0.12517759623156688,-0.1908641278843228,-0.24194620961823174,-0.7385188661711373,-0.16793636541652884,-0.03675277683996667
7718,8.0,301.01354,2250.5304,0.0,0.0,0.0,-0.07826934686251193,0.0,0.0,-0.1854224986197758,-0.23417250418852678,-0.2645100329151078,-0.7362640705911063,-0.15900879103794585,-0.07185855313263703
7719,8.0,300.45729,1992.5334,0.0,0.0,0.0,-0.07827948800618417,0.0,0.0,-0.1269810294220519,-0.2243361457952538,-0.2543632248236958,-0.7325275487273403,-0.1810840555341048,-0.055755585349397854
7720,8.0,299.66042000000004,1573.7357,0.0,0.0,0.0,-0.07828962914985645,0.0,0.0,-0.12642003337168586,-0.15574187006552584,-0.1962144633148598,-0.7432193435175383,-0.1867173815850708,-0.07490484700178283
7721,8.0,300.20062,1688.4884,0.0,0.0,0.0,-0.0782997702935287,0.0,0.0,-0.10409133476051491,-0.1933391331085868,-0.2158278543080508,-0.7280005803280634,-0.19024943971115782,-0.04045699629054466
7722,8.0,300.22874,1847.6055,0.0,0.0,0.0,-0.07830991143720097,0.0,0.0,-0.16739260475036383,-0.19026315911751182,-0.2039701835552898,-0.7482847530199553,-0.1874810884504428,-0.04670978596239696
7723,8.0,300.50594,1986.1444,0.0,0.0,0.0,-0.07832005258087323,0.0,0.0,-0.14294570680514287,-0.21722584560352176,-0.24356675116566676,-0.7406466305861312,-0.19047087538801183,-0.029045979354114973
7724,8.0,298.6433,1768.62,0.0,0.0,0.0,-0.07833019372454549,0.0,0.0,-0.15559546555857687,-0.20007629381849282,-0.18194454804902882,-0.7371287072989393,-0.16744181830772084,-0.04269999561291146
7725,8.0,299.95707000000004,1776.9412,0.0,0.0,0.0,-0.07834033486821775,0.0,0.0,-0.08375932653140193,-0.2156145043669948,-0.2407719236798388,-0.7285701282092732,-0.16560435004637683,-0.04341571090054706
7726,8.0,299.48671,1789.0686,0.0,0.0,0.0,-0.07835047601189002,0.0,0.0,-0.14856155429188386,-0.1961966199805988,-0.19907400708457482,-0.7396570094784634,-0.1866526247711798,-0.05125643978461675
7727,8.0,300.42717999999996,2241.8871,0.0,0.0,0.0,-0.07836061715556226,0.0,0.0,-0.13865525124420788,-0.23833106498394477,-0.3044913822509597,-0.7357953106973433,-0.2115436403677318,-0.026812106375398874
7728,8.0,300.44055,2180.8768,0.0,0.0,0.0,-0.07837075829923454,0.0,0.0,-0.1937540792895388,-0.19675213434792382,-0.27242588720134175,-0.7457666238714353,-0.21355296597853682,-0.04113561243901886
7729,8.0,300.60853,1642.2364,0.0,0.0,0.0,-0.07838089944290678,0.0,0.0,-0.0948409530855733,-0.19692322162730883,-0.2074346984297108,-0.7260383607144073,-0.1862897393803658,-0.04548691062870855
7730,8.0,300.46522999999996,1456.8906,0.0,0.0,0.0,-0.07839104058657906,0.0,0.0,-0.10079170810136709,-0.14445599660919686,-0.1976106611576538,-0.7660668363124102,-0.17689549240322583,-0.05456078616273036
7731,8.0,301.52733,1892.6108,0.0,0.0,0.0,-0.07840118173025133,0.0,0.0,-0.12838860606346889,-0.19183206543985082,-0.25508576333750477,-0.7559273742842233,-0.16005444487614384,-0.05040539177387486
7732,8.0,298.96986,1868.2114,0.0,0.0,0.0,-0.07841132287392358,0.0,0.0,-0.14956733673864686,-0.2080071543387078,-0.2103151151514858,-0.7619381765274432,-0.16030912528877883,-0.08315645386765301
7733,8.0,299.66209,1729.1691,0.0,0.0,0.0,-0.07842146401759585,0.0,0.0,-0.1074089385029369,-0.19505465672039582,-0.22316062369173875,-0.7355569030813144,-0.14716843672939386,-0.05097933108101825
7734,8.0,300.00837,1728.8899,0.0,0.0,0.0,-0.0784316051612681,0.0,0.0,-0.12485326500705787,-0.2229354997845208,-0.17775059442761784,-0.7224540796781663,-0.18110665101133483,-0.06912265019312444
7735,8.0,299.33407,1808.2259,0.0,0.0,0.0,-0.07844174630494036,0.0,0.0,-0.13123983104986287,-0.20890443796476277,-0.2095112633171518,-0.7404768402668743,-0.2015199522959708,-0.03944677276859336
7736,8.0,300.16036,2030.2185,0.0,0.0,0.0,-0.07845188744861263,0.0,0.0,-0.14026429240300786,-0.2276398984088088,-0.2492315386322378,-0.7268826108302283,-0.1851059390235338,-0.04235197966731496
7737,8.0,300.27797999999996,2033.7064,0.0,0.0,0.0,-0.07846202859228488,0.0,0.0,-0.13685241587128189,-0.20262814393034081,-0.27871539401706774,-0.7408882907349813,-0.17071627786088484,-0.04115494525092686
7738,8.0,300.70592999999997,1625.9149,0.0,0.0,0.0,-0.07847216973595715,0.0,0.0,-0.1122576138089639,-0.14185841852033587,-0.24012150830814777,-0.7268356365555922,-0.17890232541878484,-0.04230333251676386
7739,8.0,301.22982,1523.8119,0.0,0.0,0.0,-0.0784823108796294,0.0,0.0,-0.08176749367032332,-0.17565780740607584,-0.20577545072845582,-0.7491212213750083,-0.19026735397292582,-0.06521107620233213
7740,8.0,300.02706,2059.6016,0.0,0.0,0.0,-0.07849245202330167,0.0,0.0,-0.17282490198148984,-0.1973611280555268,-0.25588142811103076,-0.7356731330002853,-0.1968448872620778,-0.020748923155009282
7741,8.0,299.3789,2231.7693,0.0,0.0,0.0,-0.07850259316697394,0.0,0.0,-0.18405061877938184,-0.24671086622596677,-0.24764065491522974,-0.7369439614082063,-0.19172566404684982,-0.06698907478880695
7742,8.0,300.69145,1771.8141,0.0,0.0,0.0,-0.07851273431064619,0.0,0.0,-0.1193564237445619,-0.19466978380241182,-0.2245610467874498,-0.7231685020586743,-0.2045778904352658,-0.033687078218155767
7743,8.0,300.07871,1588.5455,0.0,0.0,0.0,-0.07852287545431846,0.0,0.0,-0.1030282023580919,-0.17634328123122683,-0.2035067026945478,-0.7754888767397933,-0.18019920448677682,-0.07996272704270672
7744,8.0,298.88013,1858.9054,0.0,0.0,0.0,-0.07853301659799071,0.0,0.0,-0.11958470899209189,-0.20991568182956477,-0.23556043391050477,-0.7644263641355082,-0.15664643895979985,-0.027810463725429075
7745,8.0,299.76569,2023.5896,0.0,0.0,0.0,-0.07854315774166298,0.0,0.0,-0.14059944513858488,-0.23860503767848376,-0.23591622655061878,-0.7651803741974232,-0.13722874709092286,-0.06859683317298033
7746,8.0,299.74291,2102.6785,0.0,0.0,0.0,-0.07855329888533524,0.0,0.0,-0.16309118582334686,-0.2214777773956548,-0.2545927867663518,-0.7327591777002003,-0.18270027050361282,-0.008272982592629811
7747,8.0,299.8217,1870.2662,0.0,0.0,0.0,-0.0785634400290075,0.0,0.0,-0.13270610526957288,-0.2155278917484468,-0.2202802373674668,-0.7293146846477553,-0.19392136688104883,-0.04622453947625686
7748,8.0,300.0326,1643.4506,0.0,0.0,0.0,-0.07857358117267976,0.0,0.0,-0.0916352861214486,-0.17684756567349583,-0.23108510073632377,-0.6903878753534783,-0.1978779666665348,-0.02035386707352028
7749,8.0,299.92404,1869.0429,0.0,0.0,0.0,-0.07858372231635202,0.0,0.0,-0.11772562810611488,-0.2133630018497888,-0.23705375177538376,-0.7415223319850562,-0.16421632913188983,-0.06520773146375204
7750,8.0,300.01087,2166.9663,0.0,0.0,0.0,-0.07859386346002428,0.0,0.0,-0.17538408802406183,-0.20485821620793182,-0.27846135195199573,-0.7337056140886064,-0.18654799656585383,-0.04366054758846056
7751,8.0,300.37277,1811.6195,0.0,0.0,0.0,-0.07860400460369656,0.0,0.0,-0.12851088508553687,-0.20244754223251682,-0.2197286848080328,-0.7709079223751882,-0.1822985776339688,-0.09132354351618201
7752,8.0,300.51636,1470.0639999999999,0.0,0.0,0.0,-0.0786141457473688,0.0,0.0,-0.1088497396151329,-0.18538329597340683,-0.15262971291337984,-0.7253089219674173,-0.17835504877477285,-0.05518381338421835
7753,8.0,300.54637,1752.0358,0.0,0.0,0.0,-0.07862428689104108,0.0,0.0,-0.1117317066095609,-0.22023095288260278,-0.2006124855064108,-0.7504258518062652,-0.18375065621977782,-0.06480548434630334
7754,8.0,300.49,2027.3383,0.0,0.0,0.0,-0.07863442803471332,0.0,0.0,-0.16774279411742485,-0.22422110137889978,-0.22429631493382282,-0.7512454292821512,-0.2015365392001078,-0.03020061735981887
7755,8.0,299.60516,1896.2725,0.0,0.0,0.0,-0.0786445691783856,0.0,0.0,-0.10780482544950791,-0.2209224048833438,-0.24769226987532378,-0.7627457165921413,-0.2036213418108618,-0.038798065736570964
7756,8.0,298.89489,1902.7897,0.0,0.0,0.0,-0.07865471032205786,0.0,0.0,-0.14427976201930387,-0.20099254548641982,-0.23312825876796778,-0.7172757637171063,-0.17864368319825882,-0.03271591548755947
7757,8.0,299.4417,1888.4723,0.0,0.0,0.0,-0.07866485146573012,0.0,0.0,-0.12101083824283987,-0.2160997802373878,-0.2369378156989418,-0.7377891133166162,-0.14319661792740587,-0.04024335858646026
7758,8.0,299.55202,1812.2934,0.0,0.0,0.0,-0.07867499260940237,0.0,0.0,-0.16025275818571585,-0.17548481521650283,-0.21515437736408377,-0.7319187779347592,-0.18601147050540282,-0.023310607872327877
7759,8.0,299.35417,2113.5146,0.0,0.0,0.0,-0.07868513375307463,0.0,0.0,-0.16031198265406085,-0.2235603609886898,-0.25858331016518576,-0.7486926368477103,-0.17917796997598884,-0.038330572405432965
7760,8.0,298.59885,1973.5199,0.0,0.0,0.0,-0.0786952748967469,0.0,0.0,-0.18071924496810082,-0.18157292844235284,-0.23760858726514178,-0.7306935153838353,-0.19876879588945282,-0.05853276100523374
7761,8.0,299.51495,1682.6505,0.0,0.0,0.0,-0.07870541604041917,0.0,0.0,-0.08556791615164581,-0.1986707031472718,-0.22724510577234577,-0.7214478716663613,-0.1757890638240298,-0.05203622186282524
7762,8.0,301.14095,1843.1725,0.0,0.0,0.0,-0.07871555718409141,0.0,0.0,-0.1023870278273129,-0.23316866718195578,-0.22472271084090475,-0.7676976522158592,-0.21804576758444177,-0.08399861263526762
7763,8.0,300.77217,2283.8953,0.0,0.0,0.0,-0.07872569832776369,0.0,0.0,-0.17130991069697185,-0.25393914925934274,-0.2689980621130417,-0.7500919858983154,-0.18641606127033283,-0.03639461319461867
7764,8.0,299.67363,1958.609,0.0,0.0,0.0,-0.07873583947143593,0.0,0.0,-0.16718952916532184,-0.22480716523673977,-0.2033715351312078,-0.7456839021332713,-0.17469220032577784,-0.05743803951769315
7765,8.0,301.10138,1678.6991,0.0,0.0,0.0,-0.07874598061510821,0.0,0.0,-0.0970605615293816,-0.1970458654194128,-0.21617616916242677,-0.7046247991960534,-0.15892722440489587,-0.03533820471985926
7766,8.0,300.59951,1672.8619,0.0,0.0,0.0,-0.07875612175878047,0.0,0.0,-0.1057322021049559,-0.18121288015181883,-0.22156316398158177,-0.7531722662023153,-0.19595777666702682,-0.049301087980138554
7767,8.0,299.72718,1936.1061,0.0,0.0,0.0,-0.07876626290245273,0.0,0.0,-0.1013710824820469,-0.22846485624272575,-0.25869196097340874,-0.7530659560018232,-0.17417935392016384,-0.027271990198285873
7768,8.0,299.0277,2036.2694,0.0,0.0,0.0,-0.07877640404612499,0.0,0.0,-0.1305970961139299,-0.2231496603256568,-0.26522828538099374,-0.7396449112722693,-0.16753577698949385,-0.062307913029062245
7769,8.0,298.59645,1915.7497,0.0,0.0,0.0,-0.07878654518979725,0.0,0.0,-0.12489152533083388,-0.21912104885556377,-0.23832748821109176,-0.7495000857198992,-0.15082992742325485,-0.06402572253309685
7770,8.0,298.91033,1578.7805,0.0,0.0,0.0,-0.0787966863334695,0.0,0.0,-0.11704988148192388,-0.1855346552733448,-0.17732531309564584,-0.7459933284488093,-0.19347409802190682,-0.059586195590949645
7771,8.0,299.49029,1646.0948,0.0,0.0,0.0,-0.07880682747714178,0.0,0.0,-0.1151585893752679,-0.18748015626035083,-0.1977329807097258,-0.7517910644610013,-0.18555664280051481,-0.05867662732068224
7772,8.0,299.42187,2005.0761,0.0,0.0,0.0,-0.07881696862081403,0.0,0.0,-0.17319825424583682,-0.21756661174465278,-0.2187281915267918,-0.7364969053315853,-0.1898497936067158,-0.03515285695856687
7773,8.0,299.84847,1981.2527,0.0,0.0,0.0,-0.0788271097644863,0.0,0.0,-0.14221754475327886,-0.1983088310065578,-0.26172496302774273,-0.7283735880873763,-0.1987398675990978,-0.049091620813465756
7774,8.0,300.51338,1719.6304,0.0,0.0,0.0,-0.07883725090815855,0.0,0.0,-0.08823464248033122,-0.22129793563540576,-0.2131921273529248,-0.7259761471582673,-0.2273223863574728,-0.039420015873202666
7775,8.0,299.90684,1765.4693,0.0,0.0,0.0,-0.07884739205183082,0.0,0.0,-0.11889245652377188,-0.2149829557121658,-0.2027831509306388,-0.7433697098323783,-0.1924125564221408,-0.05125726254369795
7776,8.0,299.42987,2190.7423,0.0,0.0,0.0,-0.0788575331955031,0.0,0.0,-0.19632067219034183,-0.21411860271436078,-0.2554916611950638,-0.7312739557036203,-0.17767730604788484,-0.016593073816858882
7777,8.0,299.93188,2112.6596,0.0,0.0,0.0,-0.07886767433917534,0.0,0.0,-0.1812114717341798,-0.2189875430223878,-0.24199674040071875,-0.7500287489595743,-0.1312004561509769,-0.03582677871932776
7778,8.0,300.37375,1736.7254,0.0,0.0,0.0,-0.0788778154828476,0.0,0.0,-0.12326091207740489,-0.18730883593344283,-0.2173514176884148,-0.7595464503288983,-0.17293694717754782,-0.02112226123385488
7779,8.0,300.65435,1635.4259,0.0,0.0,0.0,-0.07888795662651986,0.0,0.0,-0.08007364043840302,-0.18753402063566682,-0.2295209769544568,-0.7643825815986873,-0.17762746427546583,-0.04515139413634566
7780,8.0,300.55102,1789.7102,0.0,0.0,0.0,-0.07889809777019212,0.0,0.0,-0.10905893523077889,-0.2083251324850898,-0.22664313388793578,-0.7399678746091433,-0.17929881018291483,-0.05208284251317635
7781,8.0,301.0222,2000.1455,0.0,0.0,0.0,-0.07890823891386439,0.0,0.0,-0.15924510122626784,-0.2032409170608168,-0.24550828021228074,-0.7490015261406953,-0.18938783262112382,-0.05665022033969145
7782,8.0,301.71616,1968.6898,0.0,0.0,0.0,-0.07891838005753664,0.0,0.0,-0.16733090795177485,-0.2254328471734898,-0.20566879602292978,-0.7112600877409053,-0.20473723414599182,-0.07844826872774133
7783,8.0,300.11354,1525.2215,0.0,0.0,0.0,-0.07892852120120891,0.0,0.0,-0.11871411437367088,-0.17187444299018684,-0.17304068372278583,-0.7682507347829443,-0.18796462153066382,-0.06926904051457203
7784,8.0,300.03291,1803.2976,0.0,0.0,0.0,-0.07893866234488116,0.0,0.0,-0.12242010701192388,-0.21917806443869078,-0.2065592807408138,-0.7264864097761263,-0.17897241192820185,-0.07177068509721513
7785,8.0,299.83117000000004,2226.4856,0.0,0.0,0.0,-0.07894880348855343,0.0,0.0,-0.14809841793617587,-0.24453758661648076,-0.2841600123694097,-0.7698135514721823,-0.17470605145464485,-0.05906709641896855
7786,8.0,299.31014,2052.0495,0.0,0.0,0.0,-0.0789589446322257,0.0,0.0,-0.12225770328589589,-0.22178012109299378,-0.27973398394509474,-0.7210905084885924,-0.1927845509313538,-0.04420174270537236
7787,8.0,299.14939,1458.3883,0.0,0.0,0.0,-0.07896908577589795,0.0,0.0,-0.06763445734725124,-0.18013211719765582,-0.1955470557389918,-0.7555821599751533,-0.20194400759532183,-0.05099822312913275
7788,8.0,300.19898,1558.5291,0.0,0.0,0.0,-0.07897922691957023,0.0,0.0,-0.1173208245586639,-0.17254738291160085,-0.1838857325906088,-0.7199984579283154,-0.18239499851348484,-0.026563837809396675
7789,8.0,299.60629,1934.1435,0.0,0.0,0.0,-0.07898936806324247,0.0,0.0,-0.1910217997323838,-0.16027188834760384,-0.23663765048931776,-0.7405250203091294,-0.14670570567372584,-0.03059666541315577
7790,8.0,299.49667,2106.8089999999997,0.0,0.0,0.0,-0.07899950920691474,0.0,0.0,-0.18839393559803383,-0.2051405786132988,-0.24688280463543577,-0.7536664992035923,-0.16091834191140383,-0.061372216078466144
7791,8.0,299.70695,1946.4616,0.0,0.0,0.0,-0.079009650350587,0.0,0.0,-0.1277096778339639,-0.1943585437691948,-0.26960749151818775,-0.7323623990935413,-0.16580054566323982,-0.04457933846113816
7792,8.0,300.18567,1744.5721,0.0,0.0,0.0,-0.07901979149425926,0.0,0.0,-0.12571482143458687,-0.19598635031984682,-0.2086051745477278,-0.7377812403633393,-0.1912246524024038,-0.05649265386964084
7793,8.0,300.20419,1929.838,0.0,0.0,0.0,-0.07902993263793152,0.0,0.0,-0.13760651712570587,-0.19379435598101383,-0.2552216908384198,-0.7105948991827563,-0.18017613278199984,-0.026752378321754176
7794,8.0,300.27812,2110.6428,0.0,0.0,0.0,-0.07904007378160378,0.0,0.0,-0.17271789263842885,-0.2140268326528038,-0.25483800342305274,-0.7494028846378064,-0.2240481193218278,-0.05740068402625644
7795,8.0,299.98803,1974.2672,0.0,0.0,0.0,-0.07905021492527604,0.0,0.0,-0.14344823832473885,-0.2160732837472728,-0.24060639914350276,-0.7282432435945123,-0.19644924349553083,-0.0058816169084703945
7796,8.0,299.65923,1529.7351,0.0,0.0,0.0,-0.07906035606894832,0.0,0.0,-0.07559775909591793,-0.19065467895615182,-0.1987488449949838,-0.7518191922837774,-0.17801362402107684,-0.07402427288312692
7797,8.0,299.92914,1676.1912,0.0,0.0,0.0,-0.07907049721262056,0.0,0.0,-0.08001834130094543,-0.1979576283893968,-0.23154429554914277,-0.7245216367722183,-0.14924308657414587,-0.040258191554674166
7798,8.0,300.45017,1964.2367,0.0,0.0,0.0,-0.07908063835629284,0.0,0.0,-0.13660442290930686,-0.2321877498926468,-0.22828672687514578,-0.7696363542946942,-0.15918872399070386,-0.06796315162669084
7799,8.0,300.52657999999997,2027.6093,0.0,0.0,0.0,-0.07909077949996508,0.0,0.0,-0.12387585356309488,-0.2208325802619788,-0.2716341538382038,-0.7231289549072714,-0.18097372273071582,-0.014009124955092987
7800,8.0,299.91458,1690.8086,0.0,0.0,0.0,-0.07910092064363733,0.0,0.0,-0.11085693740072788,-0.22402455112450181,-0.17908208611902582,-0.7319808800333882,-0.17544320103489586,-0.09028635943556991
7801,8.0,300.80377000000004,1728.7814,0.0,0.0,0.0,-0.07911106178730962,0.0,0.0,-0.1157856391996529,-0.1871245156077518,-0.2225962231210368,-0.7171707707417443,-0.17469661809621384,-0.05210531336064404
7802,8.0,299.84529,1989.4439,0.0,0.0,0.0,-0.07912120293098188,0.0,0.0,-0.14493141355611686,-0.23377085184888677,-0.22603898351581078,-0.7611445179891153,-0.18766515546360882,-0.1017661892260409
7803,8.0,299.70175,2019.6093,0.0,0.0,0.0,-0.07913134407465414,0.0,0.0,-0.1172348300226769,-0.24249653614504477,-0.25417943138805676,-0.7742108035936572,-0.1910130047215158,-0.06262455672506254
7804,8.0,299.28989,1812.0871,0.0,0.0,0.0,-0.0791414852183264,0.0,0.0,-0.14828034699163087,-0.19109407486201682,-0.2114548188639658,-0.7694644766802312,-0.18116719270480983,-0.060843194148255744
7805,8.0,299.09117000000003,1578.2212,0.0,0.0,0.0,-0.07915162636199866,0.0,0.0,-0.09343797355986,-0.16974035589456882,-0.21656148791045482,-0.7224444031397113,-0.1964507431056788,-0.01858185983488678
7806,8.0,298.71826,1494.5656,0.0,0.0,0.0,-0.07916176750567092,0.0,0.0,-0.1123166558922909,-0.16612868670812483,-0.1758652804965518,-0.7266320340804983,-0.19410345805651982,-0.023792034405590978
7807,8.0,299.51204,1863.8703,0.0,0.0,0.0,-0.07917190864934318,0.0,0.0,-0.14641939159296888,-0.18423169670475284,-0.23591895219338777,-0.7240611146017684,-0.22094316637789277,-0.01110795889777019
7808,8.0,299.82549,2194.6562,0.0,0.0,0.0,-0.07918204979301545,0.0,0.0,-0.19615692084168082,-0.2337067840450638,-0.23725695908293878,-0.7216334990846813,-0.17611073020077583,-0.04762152968062905
7809,8.0,299.59647,2003.935,0.0,0.0,0.0,-0.0791921909366877,0.0,0.0,-0.15116652910647485,-0.22996332141811276,-0.22801635121846178,-0.7465445567682113,-0.16769580971028786,-0.060646319653825734
7810,8.0,300.7412,1743.1106,0.0,0.0,0.0,-0.07920233208035997,0.0,0.0,-0.13554241521449487,-0.19865719652343883,-0.1956624750578828,-0.7529354899189473,-0.16902480880644985,-0.07226519674226964
7811,8.0,301.11098,2005.1503,0.0,0.0,0.0,-0.07921247322403221,0.0,0.0,-0.13838141027218187,-0.22716239416668277,-0.24397180802564278,-0.7678079242242423,-0.19031898919802182,-0.06457911819446274
7812,8.0,300.7799,2141.7476,0.0,0.0,0.0,-0.07922261436770449,0.0,0.0,-0.14974391583357385,-0.22902112041512476,-0.27227274458122774,-0.7385782628919992,-0.17382126120232283,-0.05224204943513885
7813,8.0,300.04057,1856.0824,0.0,0.0,0.0,-0.07923275551137673,0.0,0.0,-0.12917643841372187,-0.19874349503445582,-0.2362827799067948,-0.7556709713464183,-0.2003530529508068,-0.06668628627467403
7814,8.0,299.84331000000003,1559.494,0.0,0.0,0.0,-0.07924289665504901,0.0,0.0,-0.07331315471119502,-0.17854095990312083,-0.2221931319662548,-0.7447351555346373,-0.19009296349821483,-0.054610455682632356
7815,8.0,300.50791,1374.9323,0.0,0.0,0.0,-0.07925303779872125,0.0,0.0,-0.08478004023163851,-0.16661531020115083,-0.16654973265467884,-0.7423334994851123,-0.19674637908735582,-0.08000722088109792
7816,8.0,299.65391,1767.3625,0.0,0.0,0.0,-0.07926317894239353,0.0,0.0,-0.1118569848519249,-0.2070216875564498,-0.21835538641749877,-0.7341622555111733,-0.13738172759102088,-0.04821515947696575
7817,8.0,299.58688,2221.176,0.0,0.0,0.0,-0.07927332008606577,0.0,0.0,-0.17879769721345884,-0.23422413941362275,-0.2621602046081978,-0.7430188415877502,-0.16291086783555084,-0.06028738391190154
7818,8.0,300.50591000000003,2203.5395,0.0,0.0,0.0,-0.07928346122973805,0.0,0.0,-0.14106245990428087,-0.26227110483164273,-0.26648742088276073,-0.7477382160485163,-0.17660510505706684,-0.02046802489603678
7819,8.0,300.57333,1695.8862,0.0,0.0,0.0,-0.07929360237341031,0.0,0.0,-0.0952070525057045,-0.19771096278505282,-0.22258902904532682,-0.7508375049243923,-0.2096689655627158,-0.05762277324942495
7820,8.0,300.51422,1901.1928,0.0,0.0,0.0,-0.07930374351708257,0.0,0.0,-0.1198338570591809,-0.2086822524828348,-0.24939901874126674,-0.7279107658391993,-0.16661872485398785,-0.03199700238260827
7821,8.0,299.81038,2174.2213,0.0,0.0,0.0,-0.07931388466075483,0.0,0.0,-0.2070380920755688,-0.2032403496407608,-0.25063053304530775,-0.7423472290239673,-0.18264143107030584,-0.07200547034413664
7822,8.0,300.29654,1985.0654,0.0,0.0,0.0,-0.07932402580442709,0.0,0.0,-0.17714223906757784,-0.19056796501259382,-0.23570012056929077,-0.7404868410453612,-0.19206703813804082,-0.04651277265270325
7823,8.0,299.77538,1529.2784,0.0,0.0,0.0,-0.07933416694809935,0.0,0.0,-0.0965014906542056,-0.15424650543544485,-0.21411445852145178,-0.7490426134322502,-0.21211529580914978,-0.06038369434715665
7824,8.0,299.99273,1512.4501,0.0,0.0,0.0,-0.0793443080917716,0.0,0.0,-0.08759526748172983,-0.13859217642548285,-0.23355962973304076,-0.7383211506791243,-0.18236584730810781,-0.018736063327855483
7825,8.0,298.34463999999997,1874.9739,0.0,0.0,0.0,-0.07935444923544387,0.0,0.0,-0.08484330148838193,-0.21364297298491983,-0.27145898316091577,-0.7357149396994114,-0.2000830420641588,-0.040242940114168964
7826,8.0,299.04857999999996,2162.035,0.0,0.0,0.0,-0.07936459037911614,0.0,0.0,-0.16136461778544783,-0.2150995200036698,-0.28074051619693174,-0.7781001033075013,-0.2175758221880618,-0.022913909312426775
7827,8.0,300.20943,2183.3197,0.0,0.0,0.0,-0.07937473152278839,0.0,0.0,-0.16891639104574985,-0.25606183729133575,-0.23869643283750377,-0.7393164358548513,-0.1961364734546628,-0.04828810031191445
7828,8.0,303.01706,1780.7385,0.0,0.0,0.0,-0.07938487266646066,0.0,0.0,-0.13606579942114888,-0.1998991675685118,-0.2053350821024948,-0.7390765691586784,-0.14512271517499686,-0.050418301593398954
7829,8.0,300.9876,1664.6264,0.0,0.0,0.0,-0.0793950138101329,0.0,0.0,-0.09205518608213951,-0.20391216485456382,-0.2100375150215888,-0.7249227318243033,-0.14426607301045286,-0.04928346958739975
7830,8.0,300.95414,2066.1594,0.0,0.0,0.0,-0.07940515495380518,0.0,0.0,-0.13575191480517088,-0.2514013630588828,-0.24090757760322679,-0.7580591815671163,-0.18340255414792284,-0.06702003565886253
7831,8.0,300.77432999999996,2086.1556,0.0,0.0,0.0,-0.07941529609747744,0.0,0.0,-0.09868293807274771,-0.23534025466377478,-0.3001160163316447,-0.7408639119375753,-0.18232180132626083,-0.06000402345518604
7832,8.0,300.64605,1588.4777,0.0,0.0,0.0,-0.0794254372411497,0.0,0.0,-0.1072622300209579,-0.18631958972831184,-0.18927573676256082,-0.7467402356275233,-0.16751959538539685,-0.08848100410964523
7833,8.0,299.16071,1431.349,0.0,0.0,0.0,-0.07943557838482196,0.0,0.0,-0.09160995182919832,-0.17564759384506784,-0.16783680346170285,-0.7370155576602723,-0.18944465568673183,-0.07008396615924893
7834,8.0,300.30616000000003,1700.365,0.0,0.0,0.0,-0.07944571952849422,0.0,0.0,-0.12858748679309687,-0.18653650630971985,-0.2017445189156338,-0.7794418794874243,-0.2236665192016668,-0.07929676740123162
7835,8.0,299.53587999999996,1967.1395,0.0,0.0,0.0,-0.07945586067216648,0.0,0.0,-0.13938118414585188,-0.2016682617131078,-0.25691183253522376,-0.7692465063187192,-0.21213074787317482,-0.03554722301673777
7836,8.0,299.91804,2053.1155,0.0,0.0,0.0,-0.07946600181583875,0.0,0.0,-0.14813346625713486,-0.2111264954340628,-0.2648359042797688,-0.7441272662696433,-0.16812186111233585,-0.038768161686369665
7837,8.0,300.33349,1855.4007,0.0,0.0,0.0,-0.079476142959511,0.0,0.0,-0.09178481751820622,-0.2102784658953688,-0.26193220307069576,-0.7294368116823082,-0.17342058158277884,-0.018915712570585483
7838,8.0,301.30942999999996,1777.6089,0.0,0.0,0.0,-0.07948628410318327,0.0,0.0,-0.13202975069532188,-0.21982337302987778,-0.1884955848480658,-0.7583453537928593,-0.17455528997226583,-0.03393259175713607
7839,8.0,300.78193999999996,2171.0813,0.0,0.0,0.0,-0.07949642524685552,0.0,0.0,-0.17182642506794782,-0.24061781847212974,-0.24751024962735976,-0.7500484972040233,-0.17432033753907783,-0.032058039555382174
7840,8.0,300.52508,2285.2178,0.0,0.0,0.0,-0.07950656639052779,0.0,0.0,-0.2256500981274308,-0.2283442997458278,-0.24065475143827475,-0.7343273544824673,-0.14783908670558185,-0.029268645116590372
7841,8.0,300.4762,1836.9842,0.0,0.0,0.0,-0.07951670753420005,0.0,0.0,-0.14988259937476087,-0.1948562319533128,-0.21365850610895282,-0.7367884173853553,-0.17763457729116783,-0.04678534807535436
7842,8.0,300.33575,1432.3655,0.0,0.0,0.0,-0.07952684867787231,0.0,0.0,-0.06468178981384563,-0.16856253371332683,-0.2021590192665418,-0.7537860829803943,-0.2269941845175818,-0.06440275796155735
7843,8.0,299.83124,1643.4297,0.0,0.0,0.0,-0.07953698982154457,0.0,0.0,-0.06765506280128483,-0.21498129398200183,-0.21692524469635477,-0.7787383495454913,-0.2062995644751818,-0.07680625641068733
7844,8.0,299.33721,1867.7566,0.0,0.0,0.0,-0.07954713096521683,0.0,0.0,-0.14128773579901385,-0.17589003419649482,-0.25057360865468975,-0.7621123744846353,-0.17010703084075685,-0.05612660105901424
7845,8.0,298.76083,1655.6433,0.0,0.0,0.0,-0.07955727210888909,0.0,0.0,-0.11202911577891289,-0.1967185856371128,-0.19452653050327381,-0.7610565678804353,-0.18128036260847882,-0.07091438845095524
7846,8.0,298.6947,1519.3786,0.0,0.0,0.0,-0.07956741325256136,0.0,0.0,-0.10182055009390589,-0.19955546300209082,-0.16047712215535886,-0.7632388451508093,-0.19860581461086782,-0.06574606516238143
7847,8.0,299.59777,1706.1147,0.0,0.0,0.0,-0.07957755439623361,0.0,0.0,-0.1172655821632119,-0.1856411073288508,-0.2157095877563788,-0.7626343300086482,-0.16897656796918883,-0.048002095272437956
7848,8.0,299.93551,2163.7465,0.0,0.0,0.0,-0.07958769553990588,0.0,0.0,-0.1162095627764909,-0.26878025387154575,-0.27273508046935674,-0.7306110266931942,-0.14920566724795287,-0.04090700599120716
7849,8.0,299.77988,2308.3333,0.0,0.0,0.0,-0.07959783668357813,0.0,0.0,-0.16845998267070583,-0.25701423159032977,-0.27620147998896377,-0.7514640075937233,-0.15953227656960986,-0.05168193491235986
7850,8.0,299.54135,2106.3834,0.0,0.0,0.0,-0.0796079778272504,0.0,0.0,-0.13760552414060787,-0.25693277641479073,-0.24574965665110274,-0.7498634777357632,-0.2002161425972948,-0.03252368167858747
7851,8.0,300.76412,1771.3978,0.0,0.0,0.0,-0.07961811897092268,0.0,0.0,-0.13512549319584788,-0.19880525262805082,-0.2045299637055358,-0.7531569053307993,-0.17746749234967782,-0.05629555646018884
7852,8.0,299.9968,1966.6356,0.0,0.0,0.0,-0.07962826011459492,0.0,0.0,-0.15877292667966783,-0.19622932769382684,-0.24280586113557276,-0.7439628968384213,-0.16863096862508084,-0.03461835841156597
7853,8.0,300.15235,2036.3598,0.0,0.0,0.0,-0.0796384012582672,0.0,0.0,-0.19466475808191583,-0.1942582624067978,-0.23007952093958076,-0.7426507379589213,-0.19570318744690082,-0.07572294513252284
7854,8.0,300.99177000000003,1791.4716,0.0,0.0,0.0,-0.07964854240193944,0.0,0.0,-0.10076246874323141,-0.1869030191358918,-0.25689715054127477,-0.7550662940842413,-0.22825847746235778,-0.05010950653267325
7855,8.0,300.33103,1502.8992,0.0,0.0,0.0,-0.07965868354561172,0.0,0.0,-0.08373005677576321,-0.16804325316957783,-0.20507051236888382,-0.7417893132539053,-0.18961658396369982,-0.07467710992255694
7856,8.0,299.12282999999996,1733.1875,0.0,0.0,0.0,-0.07966882468928398,0.0,0.0,-0.11235938464900788,-0.18359711843212484,-0.23088920909449076,-0.7302368942262703,-0.16288084523508786,-0.024301757974396775
7857,8.0,299.4301,2146.4076,0.0,0.0,0.0,-0.07967896583295622,0.0,0.0,-0.18008213357022285,-0.2110387581079038,-0.2613334330566017,-0.7549501046952743,-0.15874314725922886,-0.03648255722379807
7858,8.0,299.66998,2322.2577,0.0,0.0,0.0,-0.0796891069766285,0.0,0.0,-0.19385627569462482,-0.25168772780214477,-0.26036436066096175,-0.7737254770607592,-0.1968389800139948,-0.030960008793014967
7859,8.0,299.44284,2147.8277,0.0,0.0,0.0,-0.07969924812030074,0.0,0.0,-0.16373931124981184,-0.23113480065372877,-0.25801188777129075,-0.7427385766100904,-0.17354486684004483,-0.037365668520704366
7860,8.0,300.00604,1934.6566,0.0,0.0,0.0,-0.07970938926397302,0.0,0.0,-0.1275672250024049,-0.2090549360021158,-0.25146512688767575,-0.7380220088521013,-0.16317914606452785,-0.04311050679817576
7861,8.0,299.65124,1879.158,0.0,0.0,0.0,-0.07971953040764529,0.0,0.0,-0.14024558780616186,-0.21597703512027377,-0.2149944966308048,-0.7433860434239903,-0.18751762624904883,-0.04400521575572666
7862,8.0,299.84497999999996,1876.5131,0.0,0.0,0.0,-0.07972967155131754,0.0,0.0,-0.12875517968464686,-0.2055393533226548,-0.23611859286059078,-0.7528470838477223,-0.2262298494371478,-0.06956659153893803
7863,8.0,299.97249,1693.5079,0.0,0.0,0.0,-0.07973981269498981,0.0,0.0,-0.12173205953151889,-0.18075032134866784,-0.21230174396005078,-0.7451378515218803,-0.17206327227882284,-0.05616433753248855
7864,8.0,300.68072,1487.1943,0.0,0.0,0.0,-0.07974995383866205,0.0,0.0,-0.08854893442284942,-0.17033568085832285,-0.19318531161090582,-0.7201016878485034,-0.17021943067434983,-0.07613309357425133
7865,8.0,300.44636,1636.66,0.0,0.0,0.0,-0.07976009498233433,0.0,0.0,-0.1061553961417219,-0.17088525758006184,-0.22046311887801576,-0.7465604951922843,-0.18455930072708482,-0.07636220056761243
7866,8.0,300.67732,2111.8954,0.0,0.0,0.0,-0.07977023612600659,0.0,0.0,-0.14613186161209185,-0.24221537950729677,-0.2536162264524728,-0.7727789089498402,-0.21835876054033176,-0.1010927325470759
7867,8.0,300.7259,2262.8055,0.0,0.0,0.0,-0.07978037726967885,0.0,0.0,-0.17270386925704484,-0.2543267174225928,-0.26080578306702673,-0.7768359927477433,-0.18405244262956183,-0.05171511783988475
7868,8.0,300.39645,1975.1069,0.0,0.0,0.0,-0.07979051841335111,0.0,0.0,-0.14148268511825385,-0.22680038017095477,-0.2321001138914978,-0.7532807650230232,-0.17964758099983583,-0.05796069722402545
7869,8.0,300.27065,1899.1585,0.0,0.0,0.0,-0.07980065955702337,0.0,0.0,-0.14910220428024187,-0.2061800110958828,-0.2220145365036288,-0.7517953099789203,-0.17770426863304584,0.004131862567208086
7870,8.0,300.13793,1819.1367,0.0,0.0,0.0,-0.07981080070069563,0.0,0.0,-0.14226346524781086,-0.1853614503012508,-0.22534722754003977,-0.7476721116119923,-0.21162613919087378,-0.014723655753361686
7871,8.0,299.62897000000004,1627.0057,0.0,0.0,0.0,-0.0798209418443679,0.0,0.0,-0.08302221140165432,-0.17673725313510882,-0.23480963585140677,-0.7460866386505183,-0.16491685985352683,-0.027057601675877372
7872,8.0,299.78128,1718.5315,0.0,0.0,0.0,-0.07983108298804015,0.0,0.0,-0.1065941233025209,-0.1971303704777528,-0.21866615022316876,-0.7359455959521753,-0.16566823546518183,-0.05884795068734054
7873,8.0,299.9611,1964.4579999999999,0.0,0.0,0.0,-0.07984122413171242,0.0,0.0,-0.14656776180511186,-0.2063890344590118,-0.24418938321961578,-0.7538309395623213,-0.18234456905600782,-0.06217194499814324
7874,8.0,300.10853,1877.0987,0.0,0.0,0.0,-0.07985136527538467,0.0,0.0,-0.13603329435794087,-0.2225390352853928,-0.21201881413462778,-0.7554528895273953,-0.21068151652014683,-0.09140222035994681
7875,8.0,299.96218,1870.0862,0.0,0.0,0.0,-0.07986150641905694,0.0,0.0,-0.16352907198656286,-0.1933690442515388,-0.2115613823769828,-0.7720589339587842,-0.17303800874252181,-0.06459165615120013
7876,8.0,299.94109,2009.3561,0.0,0.0,0.0,-0.0798716475627292,0.0,0.0,-0.13545002707037687,-0.2179076615958118,-0.25743641237699577,-0.7600234479459742,-0.16909943467631483,-0.036346397688610164
7877,8.0,300.82253,1960.7787,0.0,0.0,0.0,-0.07988178870640146,0.0,0.0,-0.11785448312133188,-0.2321405729679908,-0.24603270806653776,-0.7794910727797792,-0.19418817589738083,-0.049949591348890855
7878,8.0,301.97752,1966.3919,0.0,0.0,0.0,-0.07989192985007372,0.0,0.0,-0.12999322945183286,-0.2159247007526088,-0.25181611672231574,-0.7590595735233472,-0.2083592384834558,-0.04780699497893305
7879,8.0,300.79233,1947.4865,0.0,0.0,0.0,-0.07990207099374598,0.0,0.0,-0.15022019404307885,-0.2180316124805448,-0.22373546073847078,-0.7257289749288732,-0.16117096542633583,-0.04876775163100236
7880,8.0,299.69234,1824.7937,0.0,0.0,0.0,-0.07991221213741824,0.0,0.0,-0.12228526368861588,-0.19978516679976083,-0.2326212892129338,-0.7170295946053113,-0.16335835960971484,-0.042959936820065665
7881,8.0,299.95501,1872.861,0.0,0.0,0.0,-0.07992235328109051,0.0,0.0,-0.15774056668278186,-0.19998838423981682,-0.2115740277382308,-0.7683924378094293,-0.16900926554991585,-0.04428492547233186
7882,8.0,300.35496,2079.7741,0.0,0.0,0.0,-0.07993249442476276,0.0,0.0,-0.14238348472215587,-0.2431178408413628,-0.24669807900970475,-0.7678508860284823,-0.2087225291743098,-0.03895252963481536
7883,8.0,300.06939,1902.5866,0.0,0.0,0.0,-0.07994263556843503,0.0,0.0,-0.1147307242555409,-0.21946203791171678,-0.24414605664533978,-0.7393835636739763,-0.16897530140656386,-0.06484228356343515
7884,8.0,299.04954,1691.9622,0.0,0.0,0.0,-0.07995277671210728,0.0,0.0,-0.07809633049100773,-0.2180927215940758,-0.2181252165247828,-0.7580650989477002,-0.16455886846069584,-0.055816516130911244
7885,8.0,298.77799,1891.0846,0.0,0.0,0.0,-0.07996291785577955,0.0,0.0,-0.13907937747106588,-0.20768554875696782,-0.2280775717895038,-0.7696058250691813,-0.18934795109718783,-0.06654795939752224
7886,8.0,299.71484,2098.4914,0.0,0.0,0.0,-0.07997305899945181,0.0,0.0,-0.14914055579652688,-0.2289978967228328,-0.25975053375038176,-0.7569879836938973,-0.2016370232125248,-0.07132492699397223
7887,8.0,300.31524,1686.6457,0.0,0.0,0.0,-0.07998320014312407,0.0,0.0,-0.15507057160927384,-0.16559470390542486,-0.1920329118746728,-0.7244307786357513,-0.17202980462801984,-0.05800579293297604
7888,8.0,299.46725,1657.2103,0.0,0.0,0.0,-0.07999334128679633,0.0,0.0,-0.08388669713522241,-0.18820377895176682,-0.2316600897705708,-0.7099800894195794,-0.19446611039981082,-0.02099341533788878
7889,8.0,299.6472,1940.7649,0.0,0.0,0.0,-0.08000348243046859,0.0,0.0,-0.1259190622572439,-0.21365805014640782,-0.2503669765617968,-0.7649012440598754,-0.2152583064268408,-0.035073658291000565
7890,8.0,299.99665,2019.2857,0.0,0.0,0.0,-0.08001362357414085,0.0,0.0,-0.12801784771937788,-0.2187655500579788,-0.26702903345871376,-0.7849629171623083,-0.2038974423306108,-0.03151363446215357
7891,8.0,300.4552,2002.9592,0.0,0.0,0.0,-0.08002376471781313,0.0,0.0,-0.13519346201255586,-0.21857068179874678,-0.2550854289649717,-0.7429768423711053,-0.15565482174943487,-0.06398414381524334
7892,8.0,300.99469,1872.6431,0.0,0.0,0.0,-0.08003390586148537,0.0,0.0,-0.10017802405905121,-0.2120322396984528,-0.25702649191653976,-0.7397900593490943,-0.1183188455096609,-0.050512394024185156
7893,8.0,300.09443999999996,1581.861,0.0,0.0,0.0,-0.08004404700515765,0.0,0.0,-0.11698623924314289,-0.18712004717481082,-0.17673995851287586,-0.7697519458661023,-0.18585769967022683,-0.06454633043447684
7894,8.0,300.19633,1823.9574,0.0,0.0,0.0,-0.08005418814882989,0.0,0.0,-0.11092165368461489,-0.2169173717430778,-0.22659847995602878,-0.7798302582507542,-0.21996556241641077,-0.040466127700445866
7895,8.0,299.1822,2152.8508,0.0,0.0,0.0,-0.08006432929250216,0.0,0.0,-0.15996721417503484,-0.24139046220338378,-0.25305522026960575,-0.7347911393182394,-0.1944094899842228,-0.05393400484962185
7896,8.0,298.29944,1802.8165,0.0,0.0,0.0,-0.08007447043617444,0.0,0.0,-0.12508172250710486,-0.19010595336449682,-0.23282352380039276,-0.7151528223725883,-0.19211291810256884,-0.04599312125941766
7897,8.0,298.87177,1748.6833,0.0,0.0,0.0,-0.08008461157984668,0.0,0.0,-0.1040909091954729,-0.21235841503814382,-0.21510674447688277,-0.7398295963679963,-0.2066430157290778,-0.07302010961002373
7898,8.0,300.04453,2096.9046,0.0,0.0,0.0,-0.08009475272351896,0.0,0.0,-0.17129872441586785,-0.2189277004714818,-0.24718021380478775,-0.7660699469902174,-0.18040708287729282,-0.05868567564407524
7899,8.0,299.44069,2164.3413,0.0,0.0,0.0,-0.0801048938671912,0.0,0.0,-0.1856649896337078,-0.2238865363283808,-0.24835417550314876,-0.7565447374376523,-0.15508693559838885,-0.04462622559626555
7900,8.0,300.44333,1887.2228,0.0,0.0,0.0,-0.08011503501086346,0.0,0.0,-0.11557008037337889,-0.21165987028670283,-0.24643865658660175,-0.7266764346998803,-0.16401934317994885,-0.05095285485590525
7901,8.0,299.99278,1778.174,0.0,0.0,0.0,-0.08012517615453574,0.0,0.0,-0.10596299008023291,-0.20543834242018583,-0.2291191624948008,-0.7293532996090663,-0.2123391531537428,-0.038095299785213366
7902,8.0,299.62251000000003,1667.7119,0.0,0.0,0.0,-0.08013531729820798,0.0,0.0,-0.08783859847999471,-0.2099659491670258,-0.2091382150278348,-0.7353636560222423,-0.2099385812818248,-0.07582058596515923
7903,8.0,300.51174,1747.5703,0.0,0.0,0.0,-0.08014545844188026,0.0,0.0,-0.09311982113446082,-0.2136833408689038,-0.22441457135299378,-0.7332344831896093,-0.17739942220795984,-0.06668473701527114
7904,8.0,300.20898,1981.9732,0.0,0.0,0.0,-0.0801555995855525,0.0,0.0,-0.14415240661423487,-0.2114938391253168,-0.24682411718964375,-0.7418318596256043,-0.16723269361958185,-0.07232534934770622
7905,8.0,298.68397999999996,1843.1184,0.0,0.0,0.0,-0.08016574072922478,0.0,0.0,-0.13767106115707586,-0.1937090301900928,-0.22888188971888376,-0.7675854448997853,-0.2062953898847698,-0.03431010746614396
7906,8.0,300.24733,1675.3776,0.0,0.0,0.0,-0.08017588187289705,0.0,0.0,-0.0979639033777845,-0.20167822196159083,-0.2096308268289518,-0.7869335974142992,-0.19588673770251583,-0.053603031770707354
7907,8.0,300.05676,1754.5634,0.0,0.0,0.0,-0.0801860230165693,0.0,0.0,-0.13634416962112186,-0.18183430643814882,-0.2151649860926308,-0.7672824121923782,-0.1903310671392138,-0.028043295426157775
7908,8.0,299.5088,2180.1029,0.0,0.0,0.0,-0.08019616416024157,0.0,0.0,-0.17048746572330284,-0.22570389157523976,-0.26650549726454476,-0.7536120978057232,-0.16764540051781285,-0.029665917176048072
7909,8.0,299.59087,2268.5049,0.0,0.0,0.0,-0.08020630530391382,0.0,0.0,-0.17538360166401382,-0.24671326762870374,-0.26747198587242976,-0.7244789384130044,-0.1958108756675288,-0.05098743606856815
7910,8.0,299.52975,1947.2056,0.0,0.0,0.0,-0.08021644644758609,0.0,0.0,-0.15321120701326885,-0.2159005144727218,-0.22279015919017678,-0.7222341030814563,-0.18969549588148782,-0.06463449129917764
7911,8.0,299.59067999999996,1779.9034,0.0,0.0,0.0,-0.08022658759125835,0.0,0.0,-0.1027697121250809,-0.2260182422862638,-0.21225822486825582,-0.7262765048854104,-0.18321809196721783,-0.09039226940227242
7912,8.0,301.45653,1702.6236,0.0,0.0,0.0,-0.08023672873493061,0.0,0.0,-0.09459658350595591,-0.18877039854018782,-0.2341880778425638,-0.7481267873293653,-0.15968716197989585,-0.03259583015195797
7913,8.0,300.72314,1634.8122,0.0,0.0,0.0,-0.08024686987860287,0.0,0.0,-0.1021852998649039,-0.2049107430931158,-0.18984605471384683,-0.7636963883659652,-0.21656745595354382,-0.06543920439609664
7914,8.0,300.14079,1749.9032,0.0,0.0,0.0,-0.08025701102227513,0.0,0.0,-0.1055836292427929,-0.2009672750289258,-0.22537597344537677,-0.7488205292753323,-0.1873649294589788,-0.04764872430006296
7915,8.0,299.24147999999997,1741.7098,0.0,0.0,0.0,-0.08026715216594739,0.0,0.0,-0.11157393343648989,-0.2030170698487248,-0.21484527528857783,-0.7632804593324163,-0.17483169446704483,-0.07058385106958373
7916,8.0,299.53244,1682.9619,0.0,0.0,0.0,-0.08027729330961965,0.0,0.0,-0.1055441327538949,-0.19182580355423282,-0.2142084476007278,-0.7406854481974623,-0.15366507213056185,-0.04649913937260775
7917,8.0,299.26897,1980.7608,0.0,0.0,0.0,-0.08028743445329191,0.0,0.0,-0.13830813202494985,-0.2097349788067308,-0.2540587127711428,-0.7754456514905274,-0.18758765196345983,-0.059379842141834144
7918,8.0,299.32335,2283.3838,0.0,0.0,0.0,-0.08029757559696415,0.0,0.0,-0.16461936962416684,-0.24057239447014678,-0.2888998747471977,-0.7399003820199823,-0.18397738106215383,-0.030956155402884676
7919,8.0,298.83808,2044.922,0.0,0.0,0.0,-0.08030771674063643,0.0,0.0,-0.16028313542371384,-0.2172987286832148,-0.24402337232323174,-0.7483606657174473,-0.18662401058835584,-0.05035050705570815
7920,8.0,299.40775,1878.8084,0.0,0.0,0.0,-0.0803178578843087,0.0,0.0,-0.098479217047392,-0.20969237164002577,-0.2629392520800838,-0.7432036381409883,-0.17439770931671383,-0.019242987286634983
7921,8.0,300.38599,1850.7763,0.0,0.0,0.0,-0.08032799902798095,0.0,0.0,-0.15298690383863187,-0.2060769534282118,-0.20352591391644378,-0.7512883809538903,-0.2062599058662678,-0.06279101851774105
7922,8.0,300.9734,1947.4936,0.0,0.0,0.0,-0.08033814017165322,0.0,0.0,-0.11802382761054489,-0.22724547054238176,-0.24672011719937978,-0.7601873614146513,-0.21098754844784978,-0.04959981741437086
7923,8.0,299.91186,1786.621,0.0,0.0,0.0,-0.08034828131532547,0.0,0.0,-0.12430203668765588,-0.19328651503089384,-0.22549962035507976,-0.7396541014506762,-0.18522955553573384,-0.07362734127570283
7924,8.0,299.43844,1683.9219,0.0,0.0,0.0,-0.08035842245899774,0.0,0.0,-0.1019432749460179,-0.19827329632555082,-0.21165363879858778,-0.7541194219982923,-0.16223510094635785,-0.034881278574014164
7925,8.0,299.3046,1715.5625,0.0,0.0,0.0,-0.08036856360266999,0.0,0.0,-0.13131109292939586,-0.17491948245570882,-0.2152575870192698,-0.7621980853105943,-0.16719125169049184,-0.02699766691921227
7926,8.0,300.16379,2157.2968,0.0,0.0,0.0,-0.08037870474634226,0.0,0.0,-0.15007124627837887,-0.23951696276848375,-0.26617615045204074,-0.7713870782149773,-0.17650883616506582,-0.03524990807964507
7927,8.0,299.47836,2279.1398,0.0,0.0,0.0,-0.08038884589001451,0.0,0.0,-0.18104445772019684,-0.2328096625390248,-0.2789474485549698,-0.7515281463250533,-0.17223301193557483,-0.037633492813636565
7928,8.0,299.6994,1991.2514,0.0,0.0,0.0,-0.08039898703368678,0.0,0.0,-0.12862779388207488,-0.19153163678520083,-0.2851312531202638,-0.7378185583645223,-0.17180550145338283,-0.03938138571314016
7929,8.0,300.06904,1914.4807,0.0,0.0,0.0,-0.08040912817735903,0.0,0.0,-0.1027743629430399,-0.24541513213058774,-0.2337648230107918,-0.7532292007254343,-0.2115791345187348,-0.06418361324317944
7930,8.0,300.68401,1971.5166,0.0,0.0,0.0,-0.0804192693210313,0.0,0.0,-0.17130575637156184,-0.19267028671757683,-0.23531576440885776,-0.7677098112170593,-0.2037972825582258,-0.04224284756529446
7931,8.0,300.11412,1927.3815,0.0,0.0,0.0,-0.08042941046470356,0.0,0.0,-0.15461056619637487,-0.2178102983937028,-0.21345499482636782,-0.7396925542919712,-0.1999969056731578,-0.048059452320848656
7932,8.0,301.30593,1638.759,0.0,0.0,0.0,-0.08043955160837582,0.0,0.0,-0.1095266312119369,-0.1965684321047938,-0.1920467528710388,-0.7344697059890163,-0.15823163834374684,-0.060334918513842845
7933,8.0,300.38915,1543.6249,0.0,0.0,0.0,-0.08044969275204808,0.0,0.0,-0.08614558523240731,-0.19071541316714583,-0.19236242080719282,-0.7266557036028343,-0.17933919833190085,-0.061834761709365846
7934,8.0,298.97381,1753.5802,0.0,0.0,0.0,-0.08045983389572034,0.0,0.0,-0.0970584022934185,-0.22591335063591178,-0.2100728267875738,-0.7543307150416453,-0.18544918762740983,-0.08582081729710522
7935,8.0,299.5248,1957.2211,0.0,0.0,0.0,-0.0804699750393926,0.0,0.0,-0.13194611703206788,-0.21455688404511578,-0.24844334151194877,-0.7550427461519172,-0.18248682937004782,-0.05440525227238035
7936,8.0,299.54166000000004,1896.6078,0.0,0.0,0.0,-0.08048011618306487,0.0,0.0,-0.14576957403883686,-0.20718951217051282,-0.22356231656138278,-0.7803173377063253,-0.18945782793803181,-0.04232914101006096
7937,8.0,299.78009,1849.1616,0.0,0.0,0.0,-0.08049025732673712,0.0,0.0,-0.13805360359982985,-0.2061005520230408,-0.21794480734447777,-0.7636077289822153,-0.18202867820483182,-0.019850008196293283
7938,8.0,300.098,1948.1491,0.0,0.0,0.0,-0.08050039847040939,0.0,0.0,-0.14960467500483185,-0.22462177086594282,-0.21796221498119578,-0.7984875667145873,-0.19260352366848782,-0.04214115069250776
7939,8.0,300.14447,1999.4094,0.0,0.0,0.0,-0.08051053961408164,0.0,0.0,-0.14613138538454487,-0.22382087772190076,-0.2378182793733368,-0.7611098851006973,-0.17529592513286082,-0.049537970654767054
7940,8.0,299.276,2042.4438,0.0,0.0,0.0,-0.08052068075775391,0.0,0.0,-0.11686824626899787,-0.22208306260789182,-0.28190059636892273,-0.7529803262358723,-0.17303645846986884,-0.054669224188432355
7941,8.0,300.6588,1889.6345,0.0,0.0,0.0,-0.08053082190142617,0.0,0.0,-0.11478346392324588,-0.20922059226096482,-0.25039765777482476,-0.7424395665055803,-0.17466014109261385,-0.03745848425636457
7942,8.0,300.75465,1640.2179999999998,0.0,0.0,0.0,-0.08054096304509843,0.0,0.0,-0.09929596451574872,-0.20054851902759782,-0.1987408301866928,-0.7418076429482143,-0.1948485413850538,-0.050856225246868655
7943,8.0,301.27001,1838.3673,0.0,0.0,0.0,-0.08055110418877069,0.0,0.0,-0.13983286064292885,-0.1948182452070638,-0.22416663918602478,-0.7508842765490082,-0.18075168923630283,-0.031478359173172175
7944,8.0,300.13286,1914.6509,0.0,0.0,0.0,-0.08056124533244295,0.0,0.0,-0.16544610064575885,-0.20219790780537977,-0.21436205631588778,-0.7309265021118294,-0.17144947576574582,-0.057595191568452844
7945,8.0,300.17618999999996,1838.0114,0.0,0.0,0.0,-0.08057138647611521,0.0,0.0,-0.1062482605133869,-0.21445784898034181,-0.23800344069661075,-0.7458171141239183,-0.1992116165806558,-0.06113874096392394
7946,8.0,300.08763999999996,2018.4029999999998,0.0,0.0,0.0,-0.08058152761978749,0.0,0.0,-0.13010111018997988,-0.22549922518754079,-0.2579437770995688,-0.7397526096253982,-0.2069783103196688,-0.056931734654724744
7947,8.0,300.52244,2033.4968,0.0,0.0,0.0,-0.08059166876345973,0.0,0.0,-0.13684174634772886,-0.21802450959734376,-0.26326599483983076,-0.7573559150702093,-0.19710731903797782,-0.03693319817927287
7948,8.0,300.09305,1885.4061,0.0,0.0,0.0,-0.080601809907132,0.0,0.0,-0.13325456741620187,-0.1988239977549008,-0.24103782077108077,-0.7656365495249442,-0.18502603412064783,-0.024312043476161876
7949,8.0,300.41011000000003,2032.2012,0.0,0.0,0.0,-0.08061195105080425,0.0,0.0,-0.15210342067893887,-0.2191140371648718,-0.24652094262722277,-0.7700266481007132,-0.2014467247112438,-0.03682282788563017
7950,8.0,298.82826,2170.9395,0.0,0.0,0.0,-0.08062209219447652,0.0,0.0,-0.17899643608807284,-0.24299071848381676,-0.23792424506879478,-0.7303202644444983,-0.2039034205062008,-0.05552714811435285
7951,8.0,300.29441,1989.6589,0.0,0.0,0.0,-0.08063223333814878,0.0,0.0,-0.13666494433777984,-0.2208223464359688,-0.24731931277851577,-0.7392513548009283,-0.1830265876983178,-0.08466895964967572
7952,8.0,300.3405,1668.6984,0.0,0.0,0.0,-0.08064237448182104,0.0,0.0,-0.07188308087780773,-0.2224886463579198,-0.21287091693872381,-0.7485272339013863,-0.17564376375968985,-0.07641462714103653
7953,8.0,300.29458,1632.5735,0.0,0.0,0.0,-0.0806525156254933,0.0,0.0,-0.07790382107800853,-0.1962775381335848,-0.22208022550761178,-0.7672931323784363,-0.18465259066379183,-0.035687823627113965
7954,8.0,300.00306,1841.6356,0.0,0.0,0.0,-0.08066265676916556,0.0,0.0,-0.10506372048398191,-0.22033887415075382,-0.23440866238933378,-0.7570641497039142,-0.2048651164411128,-0.04052972332972226
7955,8.0,299.44216,1782.7388,0.0,0.0,0.0,-0.08067279791283782,0.0,0.0,-0.12785959831875987,-0.17537114882028482,-0.23867734320561976,-0.7389666720528323,-0.17044201132381684,-0.020633626439380378
7956,8.0,299.55527,1920.348,0.0,0.0,0.0,-0.0806829390565101,0.0,0.0,-0.15908239352520984,-0.1963202972878048,-0.2283351399649238,-0.7412484707480282,-0.16511888165846486,-0.062315782942588945
7957,8.0,301.12298,2096.7946,0.0,0.0,0.0,-0.08069308020018234,0.0,0.0,-0.15072638339553585,-0.2311958895022578,-0.2554509184085427,-0.7604579701188583,-0.17781083214606283,-0.04683620512437355
7958,8.0,300.5899,2122.8129,0.0,0.0,0.0,-0.08070322134385462,0.0,0.0,-0.15539823642661185,-0.2359258422940678,-0.25395802610870577,-0.7807842940149102,-0.2119739676852018,-0.07010275992210373
7959,8.0,299.95703,2166.551,0.0,0.0,0.0,-0.08071336248752686,0.0,0.0,-0.17879559978575182,-0.22631239892279478,-0.25346942677798473,-0.7563557764265033,-0.18754930044717483,-0.007513375742462453
7960,8.0,299.57698999999997,1880.0321,0.0,0.0,0.0,-0.08072350363119914,0.0,0.0,-0.13445160081933988,-0.2155453905776738,-0.22148583273394978,-0.7671505072943603,-0.17889047039261483,-0.04736825667238295
7961,8.0,300.09671000000003,1581.4846,0.0,0.0,0.0,-0.0807336447748714,0.0,0.0,-0.07910574442612912,-0.19658737988166383,-0.2050387064482448,-0.7890343384491262,-0.16959143852737185,-0.02390416268815718
7962,8.0,299.85256,1708.7326,0.0,0.0,0.0,-0.08074378591854366,0.0,0.0,-0.12354335554277988,-0.2129283378218908,-0.18294036011480783,-0.7751836047496652,-0.18854406886535083,-0.08533502568241132
7963,8.0,299.98877000000005,2003.5643,0.0,0.0,0.0,-0.08075392706221592,0.0,0.0,-0.11619211460976887,-0.2364345546392738,-0.25640686921538774,-0.7387554904669903,-0.16338199873454784,-0.06913412018425644
7964,8.0,300.86597,1781.1943,0.0,0.0,0.0,-0.08076406820588818,0.0,0.0,-0.13824159189088286,-0.19326025158830182,-0.20993672703414182,-0.7638994740835083,-0.16624235310434282,-0.07882891436630812
7965,8.0,301.8982,1713.3742,0.0,0.0,0.0,-0.08077420934956044,0.0,0.0,-0.0977112595978505,-0.18996774605085684,-0.23314396414451777,-0.7437878173536423,-0.18054718496861982,-0.04011337379738176
7966,8.0,300.05987999999996,1852.4402,0.0,0.0,0.0,-0.08078435049323271,0.0,0.0,-0.13272827518176086,-0.2007673709166968,-0.22959991926974777,-0.7635509565791122,-0.1888560688361428,-0.029546321240244873
7967,8.0,300.24209,2102.0701,0.0,0.0,0.0,-0.08079449163690496,0.0,0.0,-0.16304188107348083,-0.2105689343015358,-0.2653659962020848,-0.7424687987709653,-0.17018489911094184,-0.03142343899125197
7968,8.0,300.23391000000004,2217.8522,0.0,0.0,0.0,-0.08080463278057723,0.0,0.0,-0.19176241462797683,-0.24328947527580175,-0.2391197889942858,-0.7713725279435413,-0.18792008918876882,-0.07254886320051535
7969,8.0,299.38647000000003,1998.0369,0.0,0.0,0.0,-0.08081477392424948,0.0,0.0,-0.11423168844878988,-0.23077594799831277,-0.2623457003040048,-0.7905866578673283,-0.19195345280183082,-0.07507661113223463
7970,8.0,299.56506,1714.4029,0.0,0.0,0.0,-0.08082491506792175,0.0,0.0,-0.12683304424494687,-0.22310949509169278,-0.17119311335794482,-0.7978733243714663,-0.1997915401428898,-0.08927606701261181
7971,8.0,299.89806,1847.075,0.0,0.0,0.0,-0.08083505621159402,0.0,0.0,-0.11952964898165788,-0.2255535961879068,-0.2163814333676848,-0.7773935336152682,-0.17527286356058483,-0.02151728387809058
7972,8.0,299.97605,1901.9422,0.0,0.0,0.0,-0.08084519735526627,0.0,0.0,-0.13139890118306188,-0.2029945047689978,-0.24374953135120578,-0.7450790627510783,-0.1950444735568908,-0.045611453251499956
7973,8.0,300.91488,1802.8995,0.0,0.0,0.0,-0.08085533849893854,0.0,0.0,-0.1123686052249179,-0.2160514684726198,-0.2196163761669488,-0.7422453973889174,-0.1994035160170948,-0.0006730092783833444
7974,8.0,300.91204,1684.7542,0.0,0.0,0.0,-0.08086547964261079,0.0,0.0,-0.08401144646103421,-0.2105439374215688,-0.21756781751227178,-0.7525651064773933,-0.2136203471101868,-0.05994680623528914
7975,8.0,299.91382999999996,1956.2781,0.0,0.0,0.0,-0.08087562078628306,0.0,0.0,-0.12256980458169787,-0.2265041869017228,-0.24558570265242177,-0.7485007779412752,-0.17735158667073883,-0.035932674500528866
7976,8.0,300.34458,2218.9964,0.0,0.0,0.0,-0.08088576192995532,0.0,0.0,-0.19292023525224483,-0.2348522632831138,-0.24674698859203176,-0.7330658682404684,-0.17641810975111183,-0.07656800382192362
7977,8.0,300.55977,2005.6368,0.0,0.0,0.0,-0.08089590307362758,0.0,0.0,-0.16417123950243984,-0.19733327381027782,-0.24815899313638579,-0.7671045564023253,-0.17520585733147184,-0.029409576046499176
7978,8.0,300.61249,1862.3365,0.0,0.0,0.0,-0.08090604421729984,0.0,0.0,-0.14669807590047285,-0.1967549714482038,-0.22265074610891777,-0.7773676146777102,-0.1913344076532358,-0.05075979018185125
7979,8.0,300.30652000000003,1956.7535,0.0,0.0,0.0,-0.0809161853609721,0.0,0.0,-0.14380866151780985,-0.18517129365498383,-0.26582424869231075,-0.7971439869494862,-0.17299916073368782,-0.013380675832319886
7980,8.0,299.85121000000004,1941.2123,0.0,0.0,0.0,-0.08092632650464436,0.0,0.0,-0.11984468870274989,-0.2234677499295498,-0.24676762849656875,-0.7654324505573012,-0.17687913854661183,-0.04589099071558816
7981,8.0,300.21421000000004,2077.3717,0.0,0.0,0.0,-0.08093646764831663,0.0,0.0,-0.12937819677363388,-0.22671377768490777,-0.27537715037010874,-0.7603067729389362,-0.1933315134678348,-0.05872709021541254
7982,8.0,298.90738,2156.9655,0.0,0.0,0.0,-0.08094660879198888,0.0,0.0,-0.17175707823110384,-0.23699703003478576,-0.2469095341730738,-0.7225829042958803,-0.19474273780961182,-0.04779195328119855
7983,8.0,299.96917,2017.1068,0.0,0.0,0.0,-0.08095674993566115,0.0,0.0,-0.13733411496882186,-0.2305722340657078,-0.24524374087617276,-0.7386799020095303,-0.18979311239612182,-0.056072416496666645
7984,8.0,301.07066000000003,1971.3925,0.0,0.0,0.0,-0.0809668910793334,0.0,0.0,-0.13569148456920685,-0.2252731386927278,-0.2382894609348388,-0.7099035079770213,-0.19219709892087683,-0.011901713694857688
7985,8.0,300.71497999999997,1868.8812,0.0,0.0,0.0,-0.08097703222300567,0.0,0.0,-0.12478884256569987,-0.19690793168329981,-0.24639644458743573,-0.7612261048871672,-0.2096195594878398,-0.03914342392715516
7986,8.0,300.13001,1935.2734,0.0,0.0,0.0,-0.08098717336667793,0.0,0.0,-0.11552083641851887,-0.2073136150427608,-0.2654403586269237,-0.7395672557846054,-0.19452796931841582,-0.025515912264474475
7987,8.0,300.67892,1911.8220000000001,0.0,0.0,0.0,-0.0809973145103502,0.0,0.0,-0.13155012876048688,-0.19441376589964482,-0.25518226527702875,-0.7904844310647393,-0.18156492376656283,-0.06232848403259244
7988,8.0,301.1151,1995.5352,0.0,0.0,0.0,-0.08100745565402245,0.0,0.0,-0.16178321166675985,-0.20866768194639682,-0.23614198880539977,-0.7687413403488633,-0.16361290829983685,-0.06418157559722834
7989,8.0,300.25838,1941.1349,0.0,0.0,0.0,-0.08101759679769471,0.0,0.0,-0.15212429363099886,-0.18420010356663483,-0.2537321523964138,-0.7853981283452602,-0.17198726838882183,-0.06872585841421414
7990,8.0,299.73588,1821.7942,0.0,0.0,0.0,-0.08102773794136697,0.0,0.0,-0.14386773399863986,-0.2001522673109908,-0.20975995542169582,-0.7613762280219833,-0.1986960647972748,-0.05400801365017595
7991,8.0,299.16682000000003,1786.5188,0.0,0.0,0.0,-0.08103787908503925,0.0,0.0,-0.11345577191971289,-0.20908526257760882,-0.2205160510632398,-0.7602458259454212,-0.16879322036359384,-0.04885997056235365
7992,8.0,300.72934,1818.9002,0.0,0.0,0.0,-0.08104802022871149,0.0,0.0,-0.1065285761535519,-0.2132005271962538,-0.2331711496447008,-0.7754944901453473,-0.18465751505927783,-0.06355597877348675
7993,8.0,300.25706,1762.6925,0.0,0.0,0.0,-0.08105816137238377,0.0,0.0,-0.09657570413127992,-0.2303626432825228,-0.20887613788946982,-0.7634528233069272,-0.18869135489988684,-0.04007933771327266
7994,8.0,299.67343999999997,1750.2098,0.0,0.0,0.0,-0.08106830251605601,0.0,0.0,-0.1167330179106519,-0.20451288030884981,-0.21077417824179182,-0.7764738267645003,-0.2095361791371108,-0.05713948942872855
7995,8.0,298.55742999999995,1833.5337,0.0,0.0,0.0,-0.08107844365972829,0.0,0.0,-0.13480782915699685,-0.17879352262304682,-0.24374709955096574,-0.7563276992662323,-0.16158123039182584,-0.040884232181959565
7996,8.0,299.43047,1915.4732,0.0,0.0,0.0,-0.08108858480340055,0.0,0.0,-0.15969578473824683,-0.2154382191145968,-0.2071220297138528,-0.7529645296668134,-0.20268935436888183,-0.04578193866032555
7997,8.0,299.57745,1923.9802,0.0,0.0,0.0,-0.0810987259470728,0.0,0.0,-0.1074656298460319,-0.21606844041179482,-0.26130786875657874,-0.7464686339382183,-0.18125649043612282,-0.047049041347628856
7998,8.0,300.40058,2081.1968,0.0,0.0,0.0,-0.08110886709074507,0.0,0.0,-0.15446363479937386,-0.22936387252645177,-0.24880437265507974,-0.7527629739569214,-0.20553912027513183,-0.06995373920339652
7999,8.0,300.13999,2156.1919,0.0,0.0,0.0,-0.08111900823441733,0.0,0.0,-0.16922057885827083,-0.23371961179132975,-0.25248830683865575,-0.7493591730284923,-0.18529417049461083,-0.06513333560165974
8000,8.0,300.43012000000004,1956.1229,0.0,0.0,0.0,-0.08112914937808959,0.0,0.0,-0.16197779621596384,-0.22377940539530777,-0.20885532573241578,-0.7623097353391133,-0.17949935264270683,-0.05818770172342903
8001,8.0,300.84954,1710.7472,0.0,0.0,0.0,-0.08113929052176186,0.0,0.0,-0.1066724475352509,-0.1978321373645118,-0.21551985667515383,-0.7877965419944652,-0.1988554895680088,-0.061370117637509033
8002,8.0,299.98017000000004,1703.3355,0.0,0.0,0.0,-0.0811494316654341,0.0,0.0,-0.11326715541359789,-0.18953349745549983,-0.21497079671096578,-0.7830224824258022,-0.17893817420732283,-0.04395780071729716
8003,8.0,299.2579,1844.3570000000002,0.0,0.0,0.0,-0.08115957280910638,0.0,0.0,-0.08892249237696673,-0.21051547522625982,-0.2612005047759828,-0.7789495311313333,-0.17736596468965782,-0.043650390769458154
8004,8.0,299.81798,2034.6805,0.0,0.0,0.0,-0.08116971395277862,0.0,0.0,-0.13395195706252888,-0.23622689916377976,-0.2483132098016058,-0.7382860111656563,-0.15498527621585587,-0.05342528642491525
8005,8.0,299.15794,2046.5418,0.0,0.0,0.0,-0.0811798550964509,0.0,0.0,-0.14207309581902286,-0.2236084903684398,-0.2564160087312897,-0.7583879609595643,-0.19030438826408083,-0.03810674039209246
8006,8.0,299.90342999999996,1966.2807,0.0,0.0,0.0,-0.08118999624012316,0.0,0.0,-0.14211982691363487,-0.2152609510096018,-0.24031943658268176,-0.7242437630647943,-0.19788496822472582,-0.03886605887128136
8007,8.0,301.34184,2052.0175,0.0,0.0,0.0,-0.08120013738379542,0.0,0.0,-0.15734580444382185,-0.2084992189847708,-0.25791704756193073,-0.7407940584756812,-0.18589558509146584,-0.03375535607614427
8008,8.0,300.95488,2017.5774,0.0,0.0,0.0,-0.08121027852746768,0.0,0.0,-0.15841328368917384,-0.2038405382049948,-0.25103932879815277,-0.7627657586791192,-0.18640302074154583,-0.057600987359024844
8009,8.0,300.81475,1895.0421,0.0,0.0,0.0,-0.08122041967113994,0.0,0.0,-0.1089237271374349,-0.2322437623581748,-0.2348779897031528,-0.7768033863595252,-0.2005681862120388,-0.07574386368083734
8010,8.0,301.11412,1696.7224,0.0,0.0,0.0,-0.0812305608148122,0.0,0.0,-0.11225163563337388,-0.19664885376523084,-0.2068607530430668,-0.8028782428429132,-0.2071272682168698,-0.07306348583355463
8011,8.0,299.93202,1767.1557,0.0,0.0,0.0,-0.08124070195848447,0.0,0.0,-0.13472202713852888,-0.18927177495466982,-0.21317742509397378,-0.7844188322561113,-0.1968169620893218,-0.04767244853790436
8012,8.0,299.84898,1915.5608,0.0,0.0,0.0,-0.08125084310215672,0.0,0.0,-0.13931459334927987,-0.21578106241843278,-0.22718699587911076,-0.7755277652786312,-0.2006128300114448,-0.04965891421320325
8013,8.0,299.77622,1831.6428,0.0,0.0,0.0,-0.08126098424582899,0.0,0.0,-0.1191474510439379,-0.1913589688356598,-0.2462672551996858,-0.7683621922939443,-0.1910595331661078,-0.039319649397797266
8014,8.0,299.81896,1899.112,0.0,0.0,0.0,-0.08127112538950124,0.0,0.0,-0.1074541395898979,-0.22005203317994476,-0.24977644427101575,-0.7586356094165053,-0.16998398174861284,-0.03462859933032667
8015,8.0,300.52258,2000.4678,0.0,0.0,0.0,-0.08128126653317351,0.0,0.0,-0.11771114876218589,-0.22287458318850878,-0.26750652756833876,-0.7595920364508972,-0.16997923973814483,-0.047892857792407054
8016,8.0,300.83763999999996,2147.0509,0.0,0.0,0.0,-0.08129140767684578,0.0,0.0,-0.17035936051315984,-0.23057721925619976,-0.2517132718371658,-0.7473511545103162,-0.16484408823134483,-0.028967556836125268
8017,8.0,300.10305,2086.4816,0.0,0.0,0.0,-0.08130154882051803,0.0,0.0,-0.16085876280552386,-0.24223336469657178,-0.23114618958485275,-0.7649411965113183,-0.21597441080251478,-0.07003233904015374
8018,8.0,301.03027000000003,1912.3770000000002,0.0,0.0,0.0,-0.0813116899641903,0.0,0.0,-0.16017536614307784,-0.1857781595373768,-0.23536132013335376,-0.7343196436492063,-0.2099837114412788,-0.006357071953594155
8019,8.0,301.20808,1738.5731,0.0,0.0,0.0,-0.08132183110786255,0.0,0.0,-0.1085784925633629,-0.19606568780267683,-0.2238386399961538,-0.7338463342624942,-0.22801874248869777,-0.06932017620736873
8020,8.0,299.86922999999996,1893.3922,0.0,0.0,0.0,-0.08133197225153482,0.0,0.0,-0.13425249717468987,-0.18704935271533382,-0.25424209077424076,-0.7502895088728093,-0.17403332431575183,-0.02087598471754928
8021,8.0,299.43634,1997.2372,0.0,0.0,0.0,-0.08134211339520707,0.0,0.0,-0.12370816067154489,-0.21268004088488582,-0.27072204636318575,-0.7776507674181552,-0.20379807289330382,-0.09280483004937361
8022,8.0,300.33968,1973.9926,0.0,0.0,0.0,-0.08135225453887933,0.0,0.0,-0.14982537100911286,-0.22316746312991378,-0.22705160540074878,-0.7831281745437333,-0.17888725838979783,-0.03774525125991626
8023,8.0,299.53258,1810.0786,0.0,0.0,0.0,-0.0813623956825516,0.0,0.0,-0.13866389426756087,-0.2007621121486778,-0.2107927004536198,-0.7639476034632583,-0.16998595758630783,-0.06571733850879634
8024,8.0,300.15598,2011.7174,0.0,0.0,0.0,-0.08137253682622385,0.0,0.0,-0.14787481390410787,-0.2124956091016838,-0.2511414238782288,-0.7766259763995162,-0.16545801646693484,-0.005046657384141305
8025,8.0,300.00591000000003,2029.4723,0.0,0.0,0.0,-0.08138267796989612,0.0,0.0,-0.1244000888998329,-0.24083573817113677,-0.25167307620569873,-0.7665999578525252,-0.21774324150208482,-0.03937310644657306
8026,8.0,299.61088,1784.0816,0.0,0.0,0.0,-0.08139281911356837,0.0,0.0,-0.08178244113579852,-0.18927826988781082,-0.27125554280583775,-0.7883014343867942,-0.2003678565347678,-0.01101794175888619
8027,8.0,300.72106,1848.1286,0.0,0.0,0.0,-0.08140296025724064,0.0,0.0,-0.0997833692246018,-0.2273464915773518,-0.23465507468115276,-0.7429533754987893,-0.17953272910100085,-0.057606556181574446
8028,8.0,301.70288,1918.8346,0.0,0.0,0.0,-0.08141310140091289,0.0,0.0,-0.17671402944281683,-0.18380606073524583,-0.2227577047894738,-0.7585160864347092,-0.17648453842766784,-0.04316890749418946
8029,8.0,300.30296,1833.8659,0.0,0.0,0.0,-0.08142324254458516,0.0,0.0,-0.17224512027426986,-0.18760936591310284,-0.19759496591360481,-0.7398962580920753,-0.2035120931850798,-0.08517494128586223
8030,8.0,300.91932,2057.4613,0.0,0.0,0.0,-0.08143338368825741,0.0,0.0,-0.17045386634998685,-0.23032322785363277,-0.22463975605521777,-0.7531189793795563,-0.2076675635676928,-0.062412705380904446
8031,8.0,300.60401,2041.6908,0.0,0.0,0.0,-0.08144352483192968,0.0,0.0,-0.1295255334706749,-0.2152824825742268,-0.2758150061358217,-0.7358988243275593,-0.21290728248481278,-0.07239208706554272
8032,8.0,299.93385,1885.3588,0.0,0.0,0.0,-0.08145366597560193,0.0,0.0,-0.1029113746215619,-0.2149123727101998,-0.25527825045900177,-0.7732332502946803,-0.18216294397558283,-0.04798353658360636
8033,8.0,299.85663999999997,1844.8704,0.0,0.0,0.0,-0.0814638071192742,0.0,0.0,-0.0945522203768276,-0.2184592546852498,-0.24778305708428375,-0.7972071225632172,-0.20241666850196982,-0.07721907273992913
8034,8.0,299.79819,1815.214,0.0,0.0,0.0,-0.08147394826294647,0.0,0.0,-0.16171134183716684,-0.18166420201136083,-0.2084041963903928,-0.7830081955993923,-0.17122948903653482,-0.024571795205547375
8035,8.0,299.38894,1752.0066,0.0,0.0,0.0,-0.08148408940661872,0.0,0.0,-0.1200981937452689,-0.2253177115646268,-0.18715037375030383,-0.7395125200142033,-0.17207262457724584,-0.08065889977566362
8036,8.0,299.89572999999996,1859.8578,0.0,0.0,0.0,-0.081494230550291,0.0,0.0,-0.16952790774610185,-0.15626386611954285,-0.2395585465525878,-0.7344267847147803,-0.1710303347293798,-0.01057225964940079
8037,8.0,299.26987,1963.0603,0.0,0.0,0.0,-0.08150437169396324,0.0,0.0,-0.1182758127779139,-0.22588940753604878,-0.2525561034028468,-0.7324482720395162,-0.18937802436015583,-0.06121115693532085
8038,8.0,299.5869,1890.6347,0.0,0.0,0.0,-0.08151451283763551,0.0,0.0,-0.0983823239933294,-0.19888369845079282,-0.2774397121411677,-0.7581473444583172,-0.17445416761228583,-0.02074211208783708
8039,8.0,300.21639,2063.5588,0.0,0.0,0.0,-0.08152465398130776,0.0,0.0,-0.12926436825739987,-0.23624504647307076,-0.26176092327379175,-0.7580269095514314,-0.18200537345253184,-0.07105102421369013
8040,8.0,299.88977,2158.2109,0.0,0.0,0.0,-0.08153479512498003,0.0,0.0,-0.1994105074427848,-0.21078720863807782,-0.24584450699296378,-0.7917282867549982,-0.17169106498708883,-0.05270266887759845
8041,8.0,299.86547,2083.3533,0.0,0.0,0.0,-0.0815449362686523,0.0,0.0,-0.1771915944799488,-0.22589027893113478,-0.23020549832451379,-0.7886058856443412,-0.20935837400956278,-0.08078301885991322
8042,8.0,300.32653,1867.1283,0.0,0.0,0.0,-0.08155507741232454,0.0,0.0,-0.14480493967863486,-0.2179479990822928,-0.20480743211291982,-0.7928714456503192,-0.19437500908331984,-0.035818596724770266
8043,8.0,300.44417000000004,1806.0506,0.0,0.0,0.0,-0.08156521855599681,0.0,0.0,-0.09262019257640132,-0.22878028099885578,-0.2275937955292588,-0.7530404018343012,-0.19557502144175182,-0.03465894414432146
8044,8.0,300.40963999999997,1882.3914,0.0,0.0,0.0,-0.08157535969966906,0.0,0.0,-0.09071205316033261,-0.19284232645205582,-0.28864559963460273,-0.7662167973272103,-0.19046014506945283,0.01035587603754539
8045,8.0,300.27646,1785.1714,0.0,0.0,0.0,-0.08158550084334133,0.0,0.0,-0.11884525933411388,-0.21182052109005778,-0.2119817595784708,-0.7680982609078963,-0.2103470629271388,-0.044046217934273255
8046,8.0,299.35784,1874.8439,0.0,0.0,0.0,-0.0815956419870136,0.0,0.0,-0.14611145475507786,-0.1994849711926338,-0.22430930480010478,-0.7804299300574373,-0.18654264660532582,-0.02104232694671598
8047,8.0,299.59617000000003,2055.2656,0.0,0.0,0.0,-0.08160578313068585,0.0,0.0,-0.15702288163695186,-0.23502565064022576,-0.23270090027329077,-0.7387805481419633,-0.16526755584563782,-0.10161253998087691
8048,8.0,299.68135,2111.5089,0.0,0.0,0.0,-0.08161592427435813,0.0,0.0,-0.16802455870523283,-0.23249246459521977,-0.24132894778981276,-0.7538096106477163,-0.16582906865355482,-0.05866791640957254
8049,8.0,300.13625,2167.251,0.0,0.0,0.0,-0.08162606541803037,0.0,0.0,-0.15399532073565483,-0.2277955944191748,-0.27699925232269773,-0.7564183547526793,-0.21946141982915576,-0.0941209254055121
8050,8.0,300.84367000000003,1991.0359,0.0,0.0,0.0,-0.08163620656170265,0.0,0.0,-0.12498332578989388,-0.20731495253289278,-0.2729269292432907,-0.7672710333937554,-0.2225187500183908,-0.03165819688042077
8051,8.0,300.44895,1570.2523,0.0,0.0,0.0,-0.0816463477053749,0.0,0.0,-0.1106615827814479,-0.17033832544108385,-0.1963175817775368,-0.7581105634796872,-0.1823155698381458,-0.07424189671310473
8052,8.0,300.96369,1702.8374,0.0,0.0,0.0,-0.08165648884904717,0.0,0.0,-0.13246486055326387,-0.16851383691352084,-0.2166413522833368,-0.7537371531330652,-0.15967204428840384,-0.02612230597232088
8053,8.0,300.60872,1937.4672,0.0,0.0,0.0,-0.08166662999271943,0.0,0.0,-0.15473623960627786,-0.2068017616222448,-0.22740363888299178,-0.7609752646924113,-0.17843037378720683,-0.08335826390332012
8054,8.0,300.00981,1926.2788,0.0,0.0,0.0,-0.08167677113639168,0.0,0.0,-0.14423343622473186,-0.20693922926331182,-0.23436798039781878,-0.7552996455822714,-0.16752671853359982,-0.02072101318100478
8055,8.0,299.48449,1930.2074,0.0,0.0,0.0,-0.08168691228006394,0.0,0.0,-0.07395637398067584,-0.25761615281223477,-0.25516231438255976,-0.7635657398980713,-0.17242952165996883,-0.06104861034102874
8056,8.0,299.81262999999996,2099.6008,0.0,0.0,0.0,-0.08169705342373622,0.0,0.0,-0.1133086074751889,-0.24275519863057277,-0.28216243032726374,-0.7599152632327973,-0.17678035679436285,-0.014830157458122589
8057,8.0,299.80893,2110.3097,0.0,0.0,0.0,-0.08170719456740846,0.0,0.0,-0.16488495260787786,-0.2390555286729438,-0.23754097308596878,-0.8052245855694793,-0.2250693943626198,-0.03784426504643817
8058,8.0,300.46366,1949.3432,0.0,0.0,0.0,-0.08171733571108074,0.0,0.0,-0.11772895156644288,-0.24043538279162477,-0.23438731320972675,-0.7758371510641652,-0.2024632678740688,-0.07319268231405533
8059,8.0,300.01119,1840.2337,0.0,0.0,0.0,-0.08172747685475298,0.0,0.0,-0.12964143914961387,-0.20158459765235082,-0.2281590573625458,-0.7640567608965313,-0.17643513235279182,-0.07967062426412842
8060,8.0,300.75372999999996,1828.0796,0.0,0.0,0.0,-0.08173761799842526,0.0,0.0,-0.13515317518857986,-0.1995653827205698,-0.22097200347573878,-0.7506778977686402,-0.17054303235878684,-0.09132755699982811
8061,8.0,299.3482,1739.8496,0.0,0.0,0.0,-0.08174775914209752,0.0,0.0,-0.1085703359000579,-0.18529379559207382,-0.23500670286335576,-0.7665711308871803,-0.2158841200861038,-0.06385460282970865
8062,8.0,299.91324,1798.4871,0.0,0.0,0.0,-0.08175790028576978,0.0,0.0,-0.14388942768328086,-0.16348709303491987,-0.23931864945891176,-0.7602910472973843,-0.2093896023776448,-0.03708732669173417
8063,8.0,300.30400000000003,1919.7215,0.0,0.0,0.0,-0.08176804142944204,0.0,0.0,-0.14040186136908486,-0.19808751691971582,-0.24505802226534376,-0.7733009860638652,-0.18250459164430083,-0.0024685234633742975
8064,8.0,300.02606000000003,1941.8731,0.0,0.0,0.0,-0.0817781825731143,0.0,0.0,-0.12203100884102289,-0.2178282430529738,-0.2504216920671968,-0.7921870256052722,-0.18131814670470783,-0.042376836718768164
8065,8.0,301.18034,2287.2329,0.0,0.0,0.0,-0.08178832371678656,0.0,0.0,-0.18566640818384783,-0.23414931089373775,-0.2754459703169007,-0.7957416082810822,-0.18932631820755283,-0.021980619844068277
8066,8.0,301.35536,2330.5324,0.0,0.0,0.0,-0.08179846486045883,0.0,0.0,-0.18400602564248084,-0.2609827573294928,-0.2634348732339978,-0.7870704368403042,-0.17465366642447483,-0.07207920962016413
8067,8.0,300.33845,2073.7178,0.0,0.0,0.0,-0.08180860600413108,0.0,0.0,-0.12156046562708388,-0.21987041823202078,-0.28892754660742875,-0.7580956484382153,-0.12828585237082787,-0.03240311403593837
8068,8.0,300.82194,1938.1798,0.0,0.0,0.0,-0.08181874714780335,0.0,0.0,-0.14573067536749787,-0.22613777540056076,-0.2172898019498338,-0.7545090673242473,-0.16171596225762286,-0.062305965562370044
8069,8.0,300.1759,1875.0875,0.0,0.0,0.0,-0.0818288882914756,0.0,0.0,-0.14340102087007886,-0.1921886788125458,-0.23439007938249978,-0.7629045739428192,-0.18584416264889084,-0.025486385143310374
8070,8.0,299.14353,1675.4605,0.0,0.0,0.0,-0.08183902943514787,0.0,0.0,-0.13116936963790887,-0.17225102752235283,-0.2058777687235538,-0.7517523583071813,-0.21137668714875482,-0.07594770325645472
8071,8.0,299.74917999999997,1734.7106,0.0,0.0,0.0,-0.08184917057882013,0.0,0.0,-0.1176759281887099,-0.19502572843004082,-0.2146070601900678,-0.7507408307323513,-0.1934278735523448,-0.045446792004249156
8072,8.0,299.08727000000005,1962.5786,0.0,0.0,0.0,-0.08185931172249239,0.0,0.0,-0.12132113595346387,-0.2039334228416618,-0.2713203300172317,-0.7606051750933863,-0.17650474263466184,-0.0892071427010595
8073,8.0,300.45776,2200.3272,0.0,0.0,0.0,-0.08186945286616465,0.0,0.0,-0.15542299012655486,-0.23509205905177977,-0.27832948758398174,-0.7835698603948242,-0.18834721463592283,-0.030746984105241074
8074,8.0,300.88326,2010.5627,0.0,0.0,0.0,-0.08187959400983691,0.0,0.0,-0.16763784167206683,-0.2246372330624688,-0.21888577218234379,-0.7834876655467122,-0.18666047745945483,-0.07462672707458454
8075,8.0,300.75152,2065.7670000000003,0.0,0.0,0.0,-0.08188973515350917,0.0,0.0,-0.15148159922506987,-0.2120237993251198,-0.26443619738032076,-0.7688057729227222,-0.14746972664662886,-0.006568632596298563
8076,8.0,300.86307999999997,2168.2707,0.0,0.0,0.0,-0.08189987629718144,0.0,0.0,-0.12426141549114689,-0.26664846685365473,-0.26819026873581875,-0.7575494458393093,-0.17192605795028085,-0.07900218925265902
8077,8.0,300.65255,2144.158,0.0,0.0,0.0,-0.08191001744085369,0.0,0.0,-0.13126515216986187,-0.24405222968607973,-0.27645311051879773,-0.7793808615664023,-0.19583614612502281,-0.017370131265548483
8078,8.0,301.16322,1940.35,0.0,0.0,0.0,-0.08192015858452596,0.0,0.0,-0.08703019613946161,-0.24490833482807076,-0.25787942558571775,-0.7679007278009012,-0.2000582883642158,-0.09770728157795791
8079,8.0,301.48615,1736.3751,0.0,0.0,0.0,-0.08193029972819821,0.0,0.0,-0.12359498063537487,-0.18166635010157284,-0.22255334237680477,-0.7517370582306713,-0.17890206197375882,-0.02805579386614127
8080,8.0,301.41299,1619.195,0.0,0.0,0.0,-0.08194044087187048,0.0,0.0,-0.11475994638842489,-0.18473032721146385,-0.1927045751009608,-0.7653669338058353,-0.2057551046664478,-0.07940864743752334
8081,8.0,300.09054,1752.1356,0.0,0.0,0.0,-0.08195058201554276,0.0,0.0,-0.14527042677457486,-0.16278905490852885,-0.22454598989096378,-0.7838611596660733,-0.2236860850610978,-0.025729397981043872
8082,8.0,299.82717,2113.7081,0.0,0.0,0.0,-0.081960723159215,0.0,0.0,-0.15877539900991183,-0.24108661889589678,-0.24265246520293376,-0.7793804258688593,-0.2206801165194318,-0.07989274388479993
8083,8.0,300.33919,2123.5601,0.0,0.0,0.0,-0.08197086430288728,0.0,0.0,-0.17100407128678782,-0.1998102650047378,-0.2746949189452777,-0.7609192116968793,-0.18601062950781982,-0.024091528843648773
8084,8.0,299.2818,2117.5688,0.0,0.0,0.0,-0.08198100544655952,0.0,0.0,-0.09895161552226409,-0.27548015737527476,-0.2692562889010267,-0.7283101282336133,-0.19552246415906482,-0.0971796001776298
8085,8.0,299.29105,2409.3458,0.0,0.0,0.0,-0.08199114659023178,0.0,0.0,-0.2033729638138488,-0.24323853919327476,-0.2857694588282497,-0.7756727715004422,-0.19421879631540281,-0.013731209704414887
8086,8.0,300.16236000000004,2281.6535,0.0,0.0,0.0,-0.08200128773390405,0.0,0.0,-0.19881817156682582,-0.2351223957597738,-0.2596251136530038,-0.7579453125208784,-0.17674390005576482,-0.05883996830305275
8087,8.0,300.50052,1926.7587,0.0,0.0,0.0,-0.0820114288775763,0.0,0.0,-0.15028601476957484,-0.21717964139896181,-0.2182208875992248,-0.7830819298091692,-0.15888418154064787,-0.03564506345964386
8088,8.0,300.5351,1749.7472,0.0,0.0,0.0,-0.08202157002124857,0.0,0.0,-0.09525458609439572,-0.19452756401837581,-0.24209729534064278,-0.7422312524175213,-0.16321295822036483,-0.05869518094326334
8089,8.0,300.45349,1748.2945,0.0,0.0,0.0,-0.08203171116492082,0.0,0.0,-0.09106131135055172,-0.20898411995262683,-0.2313924600216578,-0.7985540055236442,-0.2015419803531448,-0.046725337324931754
8090,8.0,298.76826,1653.8317,0.0,0.0,0.0,-0.0820418523085931,0.0,0.0,-0.055389057324474356,-0.21207975099564177,-0.23525473635533478,-0.7602306677239253,-0.2049822076226688,-0.08281065592652542
8091,8.0,300.43535,1921.1847,0.0,0.0,0.0,-0.08205199345226537,0.0,0.0,-0.16794466393484783,-0.18768745709830983,-0.22836005578488278,-0.7650533835623903,-0.17718722737201784,-0.033266190338617364
8092,8.0,300.39123,2105.672,0.0,0.0,0.0,-0.08206213459593761,0.0,0.0,-0.16732587209877783,-0.24030820977157377,-0.23243761736730678,-0.7412030974085503,-0.17975862307829482,-0.08162498916300923
8093,8.0,298.46704,2040.9129999999998,0.0,0.0,0.0,-0.08207227573960989,0.0,0.0,-0.18073922626007283,-0.2027166006640708,-0.23693076347824576,-0.7822731029168443,-0.2103329280882438,-0.038401719787704666
8094,8.0,299.68311,2239.987,0.0,0.0,0.0,-0.08208241688328213,0.0,0.0,-0.16813918768904584,-0.25108940361809473,-0.26167154448247076,-0.7732168255105593,-0.19533192247775982,-0.09715911327385791
8095,8.0,299.50654,2440.4985,0.0,0.0,0.0,-0.08209255802695441,0.0,0.0,-0.1859635437756728,-0.24427887346844776,-0.3116081773758327,-0.7631118342507743,-0.16222958886581385,-0.02900105589768137
8096,8.0,299.84999,2144.5901,0.0,0.0,0.0,-0.08210269917062667,0.0,0.0,-0.1022805859043079,-0.2614028710859547,-0.28821839312744074,-0.7518917511234383,-0.2055060072618638,-0.07368686363957723
8097,8.0,299.73036,1755.4917,0.0,0.0,0.0,-0.08211284031429893,0.0,0.0,-0.11945118289391389,-0.19493613685619882,-0.21923831228963678,-0.7714406892777682,-0.2114234993033748,0.01080190467856499
8098,8.0,300.01932999999997,1687.7008,0.0,0.0,0.0,-0.08212298145797119,0.0,0.0,-0.1036021680097379,-0.19832873123852182,-0.21108799193026279,-0.7656082798471543,-0.21423147877550078,-0.05527615086583135
8099,8.0,299.81819,1670.6995,0.0,0.0,0.0,-0.08213312260164345,0.0,0.0,-0.13564599977221786,-0.16539317859303584,-0.2068117725332328,-0.7624322575412052,-0.15616312879460084,-0.009918225961602689
8100,8.0,300.34536,1754.2464,0.0,0.0,0.0,-0.0821432637453157,0.0,0.0,-0.10710845918578189,-0.21249744308436477,-0.2136412099297458,-0.7812814147789722,-0.15346476271829287,-0.08616065124814423
8101,8.0,299.35469,1974.4188,0.0,0.0,0.0,-0.08215340488898798,0.0,0.0,-0.11779863277581988,-0.2070812869273318,-0.27529408412691075,-0.7823718340065883,-0.18095135016850783,-0.043915475234119955
8102,8.0,301.00763,2173.2051,0.0,0.0,0.0,-0.08216354603266023,0.0,0.0,-0.14135550196570187,-0.24202200072571176,-0.2772225827772387,-0.7647716493720853,-0.16955599503887384,-0.08813387070488582
8103,8.0,300.51179,2193.1296,0.0,0.0,0.0,-0.0821736871763325,0.0,0.0,-0.17342774526098584,-0.2167291706695038,-0.27649972002339773,-0.7576930335109803,-0.14983820888787983,-0.03629382723367186
8104,8.0,300.41372,2169.7934,0.0,0.0,0.0,-0.08218382832000475,0.0,0.0,-0.18699854835531984,-0.21723562346698677,-0.25532884203649475,-0.7878685334140703,-0.19590124744394782,-0.04964335271816745
8105,8.0,299.40787,2293.1531,0.0,0.0,0.0,-0.08219396946367702,0.0,0.0,-0.17417190653192882,-0.24998582227167973,-0.27290356369598473,-0.8034159645384822,-0.2063305091332358,-0.02091698284309548
8106,8.0,298.97941000000003,1892.5348,0.0,0.0,0.0,-0.08220411060734928,0.0,0.0,-0.11942889139171388,-0.2073782502666398,-0.24847617081518877,-0.7871466636453273,-0.19714990593968082,-0.057859749143062654
8107,8.0,299.21679,1760.7114,0.0,0.0,0.0,-0.08221425175102154,0.0,0.0,-0.07977179323361303,-0.2259219733942628,-0.2295185350217158,-0.7347520379968804,-0.16364544376054782,-0.058241275295966344
8108,8.0,299.45381000000003,1882.8565,0.0,0.0,0.0,-0.0822243928946938,0.0,0.0,-0.10996079874728588,-0.22460846689212977,-0.23777210556627976,-0.7633652886307883,-0.1921318658794388,-0.044585266987473254
8109,8.0,298.80507,1901.2088,0.0,0.0,0.0,-0.08223453403836606,0.0,0.0,-0.10697628071023689,-0.23487547684290477,-0.23606824446312177,-0.7748296967547372,-0.2319864170977768,-0.03545862240149357
8110,8.0,299.39943999999997,1828.2211,0.0,0.0,0.0,-0.08224467518203832,0.0,0.0,-0.0982629144955446,-0.23295586439595378,-0.22451480205288576,-0.7798073182684903,-0.2061300882634558,-0.06751564262727514
8111,8.0,300.37742000000003,1990.0095,0.0,0.0,0.0,-0.08225481632571059,0.0,0.0,-0.15458867999421486,-0.2002572501538518,-0.2500672470497157,-0.7443271298518682,-0.14516143146131788,-0.06863368406586723
8112,8.0,300.3575,2077.9304,0.0,0.0,0.0,-0.08226495746938284,0.0,0.0,-0.14147097194709787,-0.23622497398858977,-0.2539430097422238,-0.8002922259376932,-0.16165506592661286,-0.10211471686293791
8113,8.0,300.16138,2137.4266,0.0,0.0,0.0,-0.08227509861305511,0.0,0.0,-0.15364295288087884,-0.23776305724288677,-0.2583183047340318,-0.8250662618102002,-0.1963745872281628,-0.07534613869858493
8114,8.0,300.04822,2178.1377,0.0,0.0,0.0,-0.08228523975672736,0.0,0.0,-0.15780991351962587,-0.2259321362927658,-0.2783574228892387,-0.7938091782203662,-0.1944452982427568,-0.06192039451506714
8115,8.0,300.53832,1911.3344,0.0,0.0,0.0,-0.08229538090039963,0.0,0.0,-0.14730437436280985,-0.2008783825976528,-0.23281516448706777,-0.7439239373720763,-0.17133447187939582,-0.033264921749492166
8116,8.0,300.30877000000004,1657.0947,0.0,0.0,0.0,-0.08230552204407189,0.0,0.0,-0.07256669234927493,-0.19051429315479682,-0.24063444590627078,-0.7366064984624013,-0.21280873378008677,-0.02619156465640618
8117,8.0,299.63576,1806.4124,0.0,0.0,0.0,-0.08231566318774415,0.0,0.0,-0.1374359263388699,-0.1954385163882798,-0.2162298308877228,-0.7765365368131893,-0.2541358515012557,-0.013879160431016488
8118,8.0,299.63645,2192.1635,0.0,0.0,0.0,-0.08232580433141641,0.0,0.0,-0.15013220340439484,-0.24473728807868977,-0.27149346406181873,-0.7588909079117012,-0.20811789244213677,-0.05254573062260985
8119,8.0,299.46153,2151.249,0.0,0.0,0.0,-0.08233594547508867,0.0,0.0,-0.16875235598706084,-0.22086621003279777,-0.26430742342511176,-0.7744958004492842,-0.16755973022185783,-0.05968476760042795
8120,8.0,299.17618,1983.6106,0.0,0.0,0.0,-0.08234608661876093,0.0,0.0,-0.14078026975143088,-0.22837866918921979,-0.23380914257016577,-0.7558482394514133,-0.17067573772438382,-0.05452594454479175
8121,8.0,299.16247000000004,1936.1284,0.0,0.0,0.0,-0.0823562277624332,0.0,0.0,-0.12980606189336089,-0.2147219323539048,-0.24400668409408477,-0.8017909646906073,-0.19853395491377582,-0.061916200672903245
8122,8.0,299.33591,1969.0020000000002,0.0,0.0,0.0,-0.08236636890610545,0.0,0.0,-0.13125537430639686,-0.2076738051883088,-0.25959827265785473,-0.7808695083483203,-0.17135229494865484,-0.029645859890318572
8123,8.0,299.8471,1984.369,0.0,0.0,0.0,-0.08237651004977772,0.0,0.0,-0.15774904758611885,-0.23026564485044979,-0.2151839338695008,-0.7846590738548213,-0.16033843861417185,-0.10402368005133791
8124,8.0,300.36882,1840.1065,0.0,0.0,0.0,-0.08238665119344997,0.0,0.0,-0.12500805922483488,-0.1966326721611338,-0.23770569715472578,-0.7827194193208922,-0.17306761591044384,-0.050298481729323656
8125,8.0,300.30241,1640.1389,0.0,0.0,0.0,-0.08239679233712224,0.0,0.0,-0.1084210942928289,-0.1987756657251308,-0.19136450118120582,-0.7741600397636473,-0.2136185232600068,-0.1136151460279419
8126,8.0,300.16598,1842.5193,0.0,0.0,0.0,-0.08240693348079452,0.0,0.0,-0.13378759776380786,-0.18914220053188183,-0.2371500510648878,-0.7630869893583223,-0.18147350834254083,-0.04818272331476455
8127,8.0,300.18782999999996,2185.1335,0.0,0.0,0.0,-0.08241707462446676,0.0,0.0,-0.1385805443143349,-0.2271318649411698,-0.29851362209350074,-0.7603037939836423,-0.17511010519702183,-0.06887162862660054
8128,8.0,300.37802,2125.7752,0.0,0.0,0.0,-0.08242721576813902,0.0,0.0,-0.12819071831893888,-0.23812739158134377,-0.2798644500279707,-0.7788884017528003,-0.2037900479525118,-0.016103355858027486
8129,8.0,300.04727,1834.6177,0.0,0.0,0.0,-0.08243735691181128,0.0,0.0,-0.11785605365898688,-0.20236546897441682,-0.23745645789512776,-0.7780742755624522,-0.2318313493024728,-0.04066580991090296
8130,8.0,300.00293,2041.2428,0.0,0.0,0.0,-0.08244749805548354,0.0,0.0,-0.14888336252364384,-0.2110002748691058,-0.26060322423953575,-0.7719999729354652,-0.18670481728383082,-0.03176445439190757
8131,8.0,299.86235,2037.2765,0.0,0.0,0.0,-0.0824576391991558,0.0,0.0,-0.18295184023844083,-0.2106238524569558,-0.22570550264289882,-0.7517533816897822,-0.16942620783356485,-0.057644521649571345
8132,8.0,300.1871,1925.2813,0.0,0.0,0.0,-0.08246778034282806,0.0,0.0,-0.15243425696908985,-0.18162717785270682,-0.25117599597164075,-0.7945042475239642,-0.1761141853836168,-0.04741047779079986
8133,8.0,299.90352,1882.3765,0.0,0.0,0.0,-0.08247792148650032,0.0,0.0,-0.12345652000920988,-0.18401855954621782,-0.26472037350336675,-0.7578126172877823,-0.20473688964095782,-0.04648844553105236
8134,8.0,299.76439,2016.8452,0.0,0.0,0.0,-0.08248806263017258,0.0,0.0,-0.16231664731440584,-0.17989849212209882,-0.27085542047384875,-0.7757485220779182,-0.18316938503491081,-0.03389182769236297
8135,8.0,298.84032,2026.2769,0.0,0.0,0.0,-0.08249820377384486,0.0,0.0,-0.16511388633547183,-0.18814032923050483,-0.2626833760323307,-0.7573799088325773,-0.17490631020440883,-0.02236408839741368
8136,8.0,298.57673,2124.0164,0.0,0.0,0.0,-0.0825083449175171,0.0,0.0,-0.14878052777099487,-0.24978259469912276,-0.24708483657287475,-0.8094458260160833,-0.2057554390389808,-0.042592500923052556
8137,8.0,299.56057000000004,2148.5234,0.0,0.0,0.0,-0.08251848606118938,0.0,0.0,-0.1806599394397478,-0.2121215880922708,-0.26031593743868275,-0.7736188324877343,-0.2238718543344318,-0.055746401250491455
8138,8.0,300.68892999999997,2105.8843,0.0,0.0,0.0,-0.08252862720486162,0.0,0.0,-0.14260654159916988,-0.2263993965763808,-0.27113030509347774,-0.7551011904176853,-0.18494445735509682,-0.04797071593009105
8139,8.0,300.53782,1992.0912,0.0,0.0,0.0,-0.0825387683485339,0.0,0.0,-0.09562915324561261,-0.24448237461853176,-0.26543446151134176,-0.7167404940867794,-0.16229126539940084,-0.06994448113723284
8140,8.0,300.36077,1843.1148,0.0,0.0,0.0,-0.08254890949220614,0.0,0.0,-0.1054254406371809,-0.1943875227220548,-0.26044790313170674,-0.7727035434074023,-0.18428629062014085,-0.017833348681264485
8141,8.0,300.00601,1841.7676,0.0,0.0,0.0,-0.08255905063587841,0.0,0.0,-0.1182776771580979,-0.2223994296866148,-0.21917426475081578,-0.7630492356595963,-0.2203532926996768,-0.04899914856958946
8142,8.0,301.28781000000004,1978.9065,0.0,0.0,0.0,-0.08256919177955066,0.0,0.0,-0.16096000675551586,-0.18582973396746683,-0.25474841184921077,-0.7705295747878482,-0.2004995283852628,-0.03705206153525376
8143,8.0,300.04943,2167.896,0.0,0.0,0.0,-0.08257933292322293,0.0,0.0,-0.17865083674396484,-0.23889392541449478,-0.24144148947841979,-0.7316870172393862,-0.16885701458988983,-0.09460098202464001
8144,8.0,299.13672,2130.281,0.0,0.0,0.0,-0.08258947406689518,0.0,0.0,-0.15239526710524187,-0.2278241478069928,-0.26733281597119474,-0.7747646460983173,-0.1945868290167248,-0.06777288250966274
8145,8.0,299.14816,2106.9431,0.0,0.0,0.0,-0.08259961521056745,0.0,0.0,-0.1259153233643749,-0.23553748379573977,-0.27900527473817677,-0.7989017630904652,-0.2092493179012998,-0.08350496731904862
8146,8.0,298.79502,2064.1811,0.0,0.0,0.0,-0.08260975635423971,0.0,0.0,-0.16628327827588182,-0.21570827053124877,-0.24546795285830078,-0.7976519292246163,-0.16133923587044285,-0.032629680811298765
8147,8.0,300.50181000000003,2015.5176,0.0,0.0,0.0,-0.08261989749791197,0.0,0.0,-0.17111790993552284,-0.20457015933700282,-0.23697896378550276,-0.7778147416818383,-0.16213639012161585,-0.03705748748953926
8148,8.0,300.98895,1772.8697,0.0,0.0,0.0,-0.08263003864158423,0.0,0.0,-0.13592948688519588,-0.19441698803496282,-0.2085616250584298,-0.7766403037559303,-0.19329218923145383,-0.00968220475220921
8149,8.0,300.20725,1694.3154,0.0,0.0,0.0,-0.08264017978525649,0.0,0.0,-0.1164614364863489,-0.20541870563324782,-0.19314943242486482,-0.7808583321997172,-0.2328760608180778,-0.049999493916315856
8150,8.0,300.08853999999997,2266.1967,0.0,0.0,0.0,-0.08265032092892875,0.0,0.0,-0.14024416925602187,-0.24211015348441178,-0.3065128972604677,-0.7628558568780113,-0.21148913764485278,-0.04418871332233646
8151,8.0,300.53743,2392.4818,0.0,0.0,0.0,-0.08266046207260103,0.0,0.0,-0.16968162791877284,-0.25330002149376574,-0.3042730775169147,-0.7526661984398703,-0.1952091165656398,-0.06739192175031483
8152,8.0,299.99465,2015.715,0.0,0.0,0.0,-0.08267060321627327,0.0,0.0,-0.12102900581713287,-0.2348470754426018,-0.25685094633671474,-0.7731991240313123,-0.17278179832223584,-0.05417195447660565
8153,8.0,300.34722,1780.3524,0.0,0.0,0.0,-0.08268074435994555,0.0,0.0,-0.12331703600044389,-0.20082191416957978,-0.2170437037655458,-0.7962972543709202,-0.1928451027573298,-0.05162321504256465
8154,8.0,298.47789,1773.4938,0.0,0.0,0.0,-0.08269088550361779,0.0,0.0,-0.12221224888640989,-0.1991078496379148,-0.21777773253548877,-0.8012972079168772,-0.14973094623229385,-0.03654123859008947
8155,8.0,300.28292999999996,1871.7276,0.0,0.0,0.0,-0.08270102664729007,0.0,0.0,-0.13496408245491787,-0.2130016565991268,-0.2209927041752818,-0.7846513934190632,-0.17610554236026382,-0.07987690273273652
8156,8.0,300.18538,1886.6263,0.0,0.0,0.0,-0.08271116779096234,0.0,0.0,-0.10309318208700491,-0.22013655850328678,-0.25025753541849577,-0.7732535558266842,-0.21650531332491083,-0.07259274300934594
8157,8.0,299.07447,1667.0344,0.0,0.0,0.0,-0.08272130893463459,0.0,0.0,-0.08140682425747801,-0.22269082015037278,-0.2026391782239298,-0.7826059555746943,-0.24215213243605477,-0.09942612662359471
8158,8.0,299.59995,1916.9367,0.0,0.0,0.0,-0.08273145007830686,0.0,0.0,-0.13370063050772488,-0.2151540227265488,-0.23384623765632678,-0.7775881890919792,-0.18948488171570183,-0.04502395260501816
8159,8.0,300.30636,2300.4037,0.0,0.0,0.0,-0.0827415912219791,0.0,0.0,-0.2059719908503528,-0.23131691209420177,-0.26197639090755676,-0.7782578055530652,-0.17337193544547785,-0.07512024978754142
8160,8.0,299.79397,2201.6814,0.0,0.0,0.0,-0.08275173236565138,0.0,0.0,-0.18865109847341383,-0.2245884856001578,-0.25601658554186973,-0.7723604265260393,-0.18008188025769784,-0.019786012333227382
8161,8.0,301.59504,1945.1919,0.0,0.0,0.0,-0.08276187350932364,0.0,0.0,-0.1055323587877329,-0.2356990465241848,-0.25005837097883976,-0.7482114747727233,-0.18805216633930383,-0.06480694038669703
8162,8.0,300.27223,1898.9160000000002,0.0,0.0,0.0,-0.0827720146529959,0.0,0.0,-0.0953313489087216,-0.21621398365615876,-0.2656777327278508,-0.7216774336090173,-0.16877655239944883,-0.05399386259927936
8163,8.0,299.68099,2132.2275,0.0,0.0,0.0,-0.08278215579666816,0.0,0.0,-0.15545672122238385,-0.2163860031256358,-0.27630118379880375,-0.7466114515398132,-0.18886635332465782,-0.046816969584475156
8164,8.0,300.50916,2190.6227,0.0,0.0,0.0,-0.0827922969403404,0.0,0.0,-0.17466056665765584,-0.22660894682956179,-0.2646250773314618,-0.7739809984709772,-0.21788972706904178,-0.04278543995409416
8165,8.0,300.74362,1810.0165,0.0,0.0,0.0,-0.08280243808401268,0.0,0.0,-0.14216267726036386,-0.19693618109608782,-0.2111009615315428,-0.8094390068429103,-0.2065627156586528,-0.029158721666241772
8166,8.0,299.82878,1756.6045,0.0,0.0,0.0,-0.08281257922768495,0.0,0.0,-0.14035784578474086,-0.16753452055936985,-0.2260715392415238,-0.8034917353809602,-0.15104469591445085,-0.036757882607220564
8167,8.0,300.06555,2102.8807,0.0,0.0,0.0,-0.0828227203713572,0.0,0.0,-0.13797797461236586,-0.22826642134314176,-0.2729788177809117,-0.8206950400837942,-0.15938708796278084,-0.03352472718113297
8168,8.0,299.69346,2213.2496,0.0,0.0,0.0,-0.08283286151502947,0.0,0.0,-0.12574932260049188,-0.24981789633260673,-0.2972053946243887,-0.8269194354480942,-0.2049521546247028,-0.05512129787954855
8169,8.0,299.31776,2113.9321,0.0,0.0,0.0,-0.08284300265870172,0.0,0.0,-0.13617319379924786,-0.24795910928915876,-0.25845025016205375,-0.7703228717674482,-0.22464653469838677,-0.035963847139855364
8170,8.0,299.90207999999996,1933.4674,0.0,0.0,0.0,-0.08285314380237399,0.0,0.0,-0.13782554126732185,-0.2142193299068018,-0.23568096000989974,-0.7488292026961884,-0.1985691045597448,-0.04368658406303016
8171,8.0,299.66752,1720.2423,0.0,0.0,0.0,-0.08286328494604625,0.0,0.0,-0.14778430027267486,-0.18794294811102483,-0.1871834563660688,-0.7391346385219093,-0.1830755986056548,-0.05040903136823405
8172,8.0,299.32445,2022.4366,0.0,0.0,0.0,-0.08287342608971851,0.0,0.0,-0.15213855005990587,-0.21692228600606278,-0.24570939009212878,-0.8045557391784692,-0.2159061278782758,-0.04992116157758505
8173,8.0,299.74209,2214.6022,0.0,0.0,0.0,-0.08288356723339077,0.0,0.0,-0.12986946095211788,-0.26804824146930173,-0.27526605762914474,-0.7722884553714362,-0.18663429507687082,-0.06240806469544644
8174,8.0,299.50064,1677.2017,0.0,0.0,0.0,-0.08289370837706303,0.0,0.0,-0.05674680333922345,-0.1991231193169218,-0.2539574992186538,-0.7707977618243163,-0.16394674381028385,-0.06730317218730593
8175,8.0,301.11304,1618.3938,0.0,0.0,0.0,-0.08290384952073529,0.0,0.0,-0.09521582015881981,-0.19734502751143781,-0.19939046535580682,-0.7535927548613143,-0.16941522420248084,-0.06433239280836284
8176,8.0,300.56757000000005,2070.1697,0.0,0.0,0.0,-0.08291399066440756,0.0,0.0,-0.18596515484333181,-0.21823467793308576,-0.2250800740186738,-0.8096080878870971,-0.2257863194708748,-0.054004949581873546
8177,8.0,299.77464,2035.4141,0.0,0.0,0.0,-0.08292413180807981,0.0,0.0,-0.18089707036065084,-0.23227213336097477,-0.20554586852079781,-0.8101949724775183,-0.2187008743040958,-0.07061486969489503
8178,8.0,299.1891,1894.9593,0.0,0.0,0.0,-0.08293427295175208,0.0,0.0,-0.14853221056898785,-0.20864640369429682,-0.2188417059354948,-0.7842499741269463,-0.14901368675150586,-0.046334580463617055
8179,8.0,299.79119,2139.8098,0.0,0.0,0.0,-0.08294441409542433,0.0,0.0,-0.1330836929193379,-0.22579552991428375,-0.2915695253156717,-0.7525093675893922,-0.15331457878847085,-0.06666695852901654
8180,8.0,298.72224,2179.8319,0.0,0.0,0.0,-0.0829545552390966,0.0,0.0,-0.14801719580815986,-0.23186025732782578,-0.2827370039289697,-0.7591066491229933,-0.18635970429977083,-0.04271040169143846
8181,8.0,299.59775,2185.239,0.0,0.0,0.0,-0.08296469638276886,0.0,0.0,-0.14689532529743984,-0.23765008998923778,-0.27971268542799277,-0.7743892065387643,-0.2045002957426078,-0.06250992267499904
8182,8.0,299.45591,2219.5708,0.0,0.0,0.0,-0.08297483752644112,0.0,0.0,-0.1982620593819418,-0.20983454076155678,-0.26659751050612573,-0.7414200950499663,-0.1922353288471498,-0.008539830112465611
8183,8.0,300.41745,1962.1859,0.0,0.0,0.0,-0.08298497867011338,0.0,0.0,-0.16749194379016785,-0.1912441777318308,-0.23771940642857878,-0.7768653364706393,-0.2002810007361958,-0.04547802949158205
8184,8.0,301.09619,1737.5396,0.0,0.0,0.0,-0.08299511981378564,0.0,0.0,-0.13726583204458287,-0.19582991463690783,-0.19507290535469682,-0.7780982794573214,-0.2184144183683248,-0.021150412361383177
8185,8.0,301.34656,1934.6178,0.0,0.0,0.0,-0.0830052609574579,0.0,0.0,-0.0993364631089956,-0.21567793382325479,-0.2730611240865347,-0.8070126274909453,-0.17691080261223682,-0.06258331136649194
8186,8.0,299.23602999999997,2130.0232,0.0,0.0,0.0,-0.08301540210113018,0.0,0.0,-0.12859520775885888,-0.24476813141173379,-0.27411051681760173,-0.7693639622703113,-0.1372155444421199,-0.05407252931054315
8187,8.0,300.15153,2007.1199,0.0,0.0,0.0,-0.08302554324480242,0.0,0.0,-0.15747421362899486,-0.2031254774769238,-0.24951465084267874,-0.7893478785600703,-0.15217692184119286,-0.07713555560043663
8188,8.0,299.97992999999997,2032.5512,0.0,0.0,0.0,-0.0830356843884747,0.0,0.0,-0.16490506562236285,-0.23202178965876777,-0.22091794658290378,-0.8017316895597573,-0.22717146275507777,-0.05068251466297475
8189,8.0,299.65468,1974.6953,0.0,0.0,0.0,-0.08304582553214694,0.0,0.0,-0.16181099498450185,-0.22316930724509576,-0.21527775069625982,-0.8091660170009681,-0.2267863365245688,-0.051719155641533246
8190,8.0,299.75931,1865.9823,0.0,0.0,0.0,-0.08305596667581921,0.0,0.0,-0.10707992606296589,-0.2166027474545268,-0.2435293622369768,-0.7730399424406023,-0.19119658537463383,-0.049088161577624356
8191,8.0,300.16539,1936.5134,0.0,0.0,0.0,-0.08306610781949147,0.0,0.0,-0.09086375189905412,-0.23785508061696878,-0.25993288837087875,-0.7862420846185523,-0.18255444354922082,-0.06638845761978064
8192,8.0,300.03844,1843.3648,0.0,0.0,0.0,-0.08307624896316373,0.0,0.0,-0.10835151440846189,-0.1947135663392328,-0.25727177950074775,-0.7596327184424122,-0.1927324698762138,-0.06546387298303123
8193,8.0,299.9377,1528.6941,0.0,0.0,0.0,-0.083086390106836,0.0,0.0,-0.05969152597859494,-0.20867404515702478,-0.1963192637727028,-0.7773021485887492,-0.1864641703850808,-0.07211042177624452
8194,8.0,300.36147,1726.3741,0.0,0.0,0.0,-0.08309653125050825,0.0,0.0,-0.11785767485914689,-0.1983646408220658,-0.2085522930250088,-0.7462745458815633,-0.16375396284625784,-0.06002925034292574
8195,8.0,299.99525,2253.9423,0.0,0.0,0.0,-0.08310667239418051,0.0,0.0,-0.19626917882025982,-0.22658499359719778,-0.26228800584331075,-0.7910288807409723,-0.18487492813323483,-0.036091700050723464
8196,8.0,300.39493999999996,2321.4611,0.0,0.0,0.0,-0.08311681353785279,0.0,0.0,-0.1802386807106728,-0.25538235177427576,-0.27004515476638175,-0.7774598407018123,-0.2257690232916678,-0.056550662437865856
8197,8.0,300.59211,2004.6851,0.0,0.0,0.0,-0.08312695468152503,0.0,0.0,-0.13509452827279186,-0.2127157174209068,-0.26156396771935375,-0.7869904610099113,-0.21226245012117279,-0.06158244216946384
8198,8.0,301.66058,1983.0574,0.0,0.0,0.0,-0.08313709582519731,0.0,0.0,-0.13243342953516188,-0.21188265358618982,-0.2584838394028688,-0.7533431609641813,-0.17505821665940083,-0.04351208618380855
8199,8.0,301.5875,2214.1463,0.0,0.0,0.0,-0.08314723696886955,0.0,0.0,-0.16866370673581185,-0.23030189893902778,-0.2740795924245497,-0.8146148808712292,-0.15863488148604385,-0.038370515737625066
8200,8.0,301.10236000000003,2179.3085,0.0,0.0,0.0,-0.08315737811254183,0.0,0.0,-0.19426120083208784,-0.2224166245408118,-0.24577753116135378,-0.8010830575082423,-0.20075678245315182,-0.027628674498487875
8201,8.0,300.42115,2020.5582,0.0,0.0,0.0,-0.0831675192562141,0.0,0.0,-0.15549470796863285,-0.22121267063949077,-0.23749186085362178,-0.8006236701779043,-0.17050628177765983,-0.038088567751548966
8202,8.0,300.42618,1860.4301,0.0,0.0,0.0,-0.08317766039988635,0.0,0.0,-0.11002732874885189,-0.2304353338446968,-0.22506163286685377,-0.7548311795310373,-0.19414838556595382,-0.05104532912628175
8203,8.0,300.07517,1954.4568,0.0,0.0,0.0,-0.08318780154355862,0.0,0.0,-0.09535963277201301,-0.22442848327686682,-0.27431795951057475,-0.7667152150514003,-0.2003646445319508,-0.058947245144140153
8204,8.0,299.72776,2331.0016,0.0,0.0,0.0,-0.08319794268723087,0.0,0.0,-0.17545908879646385,-0.2758026140870987,-0.25730457840648474,-0.7788037649719473,-0.24615339628594876,-0.07842583334402713
8205,8.0,299.08928,2162.3339,0.0,0.0,0.0,-0.08320808383090314,0.0,0.0,-0.17230865105553983,-0.21699841148607577,-0.2679884394483998,-0.7555086588128993,-0.2043470011349788,-0.06863780900702435
8206,8.0,299.17066,1603.7777,0.0,0.0,0.0,-0.0832182249745754,0.0,0.0,-0.0998316820026199,-0.19164356039124683,-0.19603313207696382,-0.7589641456289293,-0.18344817066742483,-0.07072474248273863
8207,8.0,300.10055,1816.1412,0.0,0.0,0.0,-0.08322836611824765,0.0,0.0,-0.10349177441134291,-0.21466875698865678,-0.23390104435423578,-0.7643851451214403,-0.15231431855475286,-0.04190675656012486
8208,8.0,300.60863,2068.1723,0.0,0.0,0.0,-0.08323850726191992,0.0,0.0,-0.1350301260964359,-0.2128116114103708,-0.28083099943086176,-0.8022148882674452,-0.2069806711924018,-0.06027530901045984
8209,8.0,299.88917999999995,2003.9071,0.0,0.0,0.0,-0.08324864840559217,0.0,0.0,-0.12683568882770788,-0.23927576871467976,-0.24302626329732477,-0.7923082305822342,-0.18385882066795284,-0.058838057313364146
8210,8.0,300.99122,1929.5073,0.0,0.0,0.0,-0.08325878954926444,0.0,0.0,-0.13147571567314287,-0.2074702128457158,-0.24757611088385975,-0.7884517804366322,-0.1814511864428378,-0.08012214877369042
8211,8.0,300.87759,2048.5093,0.0,0.0,0.0,-0.08326893069293671,0.0,0.0,-0.15497469788481186,-0.23861139075661075,-0.22910959741385675,-0.7849502718010603,-0.16283538070310083,-0.04264506529849026
8212,8.0,300.69517,2193.2413,0.0,0.0,0.0,-0.08327907183660896,0.0,0.0,-0.17590368267534184,-0.25472757942715474,-0.2360593278622418,-0.8127800571926462,-0.1882903510403108,-0.07462789231219953
8213,8.0,300.07223,2198.3912,0.0,0.0,0.0,-0.08328921298028123,0.0,0.0,-0.16692400697661686,-0.21516084189972182,-0.2861711820953967,-0.8018729163586953,-0.17189137439935784,-0.03555189207319857
8214,8.0,299.73741,2109.4545,0.0,0.0,0.0,-0.08329935412395348,0.0,0.0,-0.13547373712271688,-0.24357992341696677,-0.26216782424894974,-0.7580746133661393,-0.2049651951534898,-0.048706917108248454
8215,8.0,299.42925,1765.6752,0.0,0.0,0.0,-0.08330949526762575,0.0,0.0,-0.1067003017804999,-0.17821352813330582,-0.2518073318439487,-0.7384345637628172,-0.2012569936300188,-0.03223431670177936
8216,8.0,300.7561,1840.3132,0.0,0.0,0.0,-0.08331963641129801,0.0,0.0,-0.14314547919485884,-0.1959942739356288,-0.2202695070489078,-0.7650760398346262,-0.23544818606442677,-0.06347856950559704
8217,8.0,299.98785,2121.7771,0.0,0.0,0.0,-0.08332977755497027,0.0,0.0,-0.1895377024434148,-0.2114251812985408,-0.2440043941488588,-0.7900884427931582,-0.1977928435256338,-0.07073449096195072
8218,8.0,299.85896,2138.189,0.0,0.0,0.0,-0.08333991869864253,0.0,0.0,-0.18535345575796183,-0.20225093118311283,-0.2623516683470938,-0.7946397190623343,-0.17874606198836282,-0.033673497627065466
8219,8.0,299.19936,1892.1259,0.0,0.0,0.0,-0.08335005984231479,0.0,0.0,-0.1027450293526449,-0.22723800288914478,-0.24517599497448675,-0.8163065019131792,-0.14739105790886486,-0.058114291753684044
8220,8.0,298.47959,2044.4442,0.0,0.0,0.0,-0.08336020098598705,0.0,0.0,-0.11884368879645889,-0.24264102560930476,-0.25997527262256176,-0.8016211338413461,-0.19606377275998782,-0.04291346106447886
8221,8.0,298.86805,2343.8087,0.0,0.0,0.0,-0.08337034212965933,0.0,0.0,-0.15672060886711986,-0.26198557095346275,-0.2937531603411797,-0.8179325555411582,-0.20251679787685178,-0.05611916988278085
8222,8.0,299.5874,2058.2475,0.0,0.0,0.0,-0.08338048327333157,0.0,0.0,-0.14578857247821186,-0.25615871413339675,-0.2237085589483158,-0.7519454939087423,-0.2199287105102738,-0.06650642830242344
8223,8.0,299.96836,1787.3141,0.0,0.0,0.0,-0.08339062441700384,0.0,0.0,-0.1113996645517909,-0.2185735188990268,-0.21332568384860578,-0.7420096444881503,-0.2038271430386728,-0.07908264029734893
8224,8.0,300.06577999999996,1784.4454,0.0,0.0,0.0,-0.08340076556067609,0.0,0.0,-0.11649249260191388,-0.2206174875307508,-0.2053168739981978,-0.7562204366106463,-0.2008444589843048,-0.07254681744856344
8225,8.0,299.16756000000004,1769.8605,0.0,0.0,0.0,-0.08341090670434836,0.0,0.0,-0.08446504712005112,-0.2160899415789168,-0.2374384017783458,-0.7795456261651633,-0.17395776625579484,-0.06514008486057585
8226,8.0,301.07085,1886.2017,0.0,0.0,0.0,-0.08342104784802062,0.0,0.0,-0.10474295589982491,-0.19033966963256282,-0.27827557254616075,-0.7828165900054823,-0.14832426125096487,-0.044524297702456056
8227,8.0,300.64381000000003,2108.1894,0.0,0.0,0.0,-0.08343118899169288,0.0,0.0,-0.13934453488973486,-0.21728895081974978,-0.2842034605336977,-0.8010850536109393,-0.18463547686960283,-0.04282247323199905
8228,8.0,299.4863,2094.3362,0.0,0.0,0.0,-0.08344133013536514,0.0,0.0,-0.16027435054534683,-0.22048278606245678,-0.25586877261728175,-0.7746222236642613,-0.24247875360578974,-0.07108738165377834
8229,8.0,300.27099999999996,2111.0247,0.0,0.0,0.0,-0.0834514712790374,0.0,0.0,-0.17081632617575884,-0.2163570039077738,-0.25452547656220875,-0.7642607686716653,-0.22540444577318677,-0.057631109257997644
8230,8.0,299.80789,2281.2316,0.0,0.0,0.0,-0.08346161242270966,0.0,0.0,-0.2044916628517558,-0.25256787736900876,-0.23637791395868377,-0.7489327669889092,-0.2088029913647508,-0.04223581864935076
8231,8.0,298.94645,2052.8423,0.0,0.0,0.0,-0.08347175356638194,0.0,0.0,-0.14897806087798984,-0.18584853988932282,-0.2891861989604557,-0.7981865807723822,-0.19217676299136982,-0.0021268524899039983
8232,8.0,299.98875,1916.1481,0.0,0.0,0.0,-0.08348189471005418,0.0,0.0,-0.1231626166852039,-0.22644594528597478,-0.23285262434326479,-0.8112023659919402,-0.1886746362732368,-0.025141757506048273
8233,8.0,298.68947000000003,1837.6989,0.0,0.0,0.0,-0.08349203585372646,0.0,0.0,-0.1122052389112949,-0.1788789598714788,-0.26753038960819375,-0.8119016301509522,-0.16920021253126083,-0.024976012081190473
8234,8.0,299.38677,2050.0013,0.0,0.0,0.0,-0.0835021769973987,0.0,0.0,-0.17736080724664882,-0.2013294106146658,-0.24445896854122173,-0.7914726741522713,-0.17180084050292285,-0.029172951750646173
8235,8.0,299.83423999999997,2268.9148,0.0,0.0,0.0,-0.08351231814107098,0.0,0.0,-0.17480128683154383,-0.25341965593307275,-0.26147249150032575,-0.7807839900398802,-0.18648342213698083,-0.05523381828990345
8236,8.0,299.30239,2301.323,0.0,0.0,0.0,-0.08352245928474322,0.0,0.0,-0.1861011026092488,-0.25144207544790076,-0.26200154990753977,-0.7835880279691172,-0.2343826623917678,-0.06594736654649834
8237,8.0,300.11452,2091.7252,0.0,0.0,0.0,-0.0835326004284155,0.0,0.0,-0.12400993694882789,-0.2497202798179728,-0.2621020136549547,-0.7558622932303003,-0.2088087770228218,-0.05736667124689965
8238,8.0,301.62056,1683.4469,0.0,0.0,0.0,-0.08354274157208776,0.0,0.0,-0.09991246336684241,-0.1869159380746668,-0.22489741542314678,-0.7610072631305692,-0.1834406726166848,-0.059394755156805944
8239,8.0,300.51887,1903.3461,0.0,0.0,0.0,-0.08355288271576002,0.0,0.0,-0.1096521019718199,-0.19772593862153082,-0.27119165738703277,-0.7583770279909853,-0.15416243607464786,-0.04960959122483545
8240,8.0,300.25267,2091.7754,0.0,0.0,0.0,-0.08356302385943228,0.0,0.0,-0.15184789926872086,-0.26048617358798376,-0.22351341711155676,-0.7906319197492953,-0.19224728519832981,-0.08618595615614162
8241,8.0,299.90317999999996,1793.0211,0.0,0.0,0.0,-0.08357316500310454,0.0,0.0,-0.1082484567407909,-0.2360032039392028,-0.2007819921156398,-0.7738870904517092,-0.19215324545654883,-0.08980626735268851
8242,8.0,300.67367,1615.5649,0.0,0.0,0.0,-0.0835833061467768,0.0,0.0,-0.11391459182999489,-0.19940791352252882,-0.17776888359192283,-0.7992192447442983,-0.19376689690330381,-0.08838815696323192
8243,8.0,300.01052000000004,1957.7443,0.0,0.0,0.0,-0.08359344729044905,0.0,0.0,-0.1201941789272419,-0.23010804392989576,-0.24480315946769077,-0.7857238173249033,-0.19549715317156682,-0.038332290877602565
8244,8.0,299.57889,2207.8003,0.0,0.0,0.0,-0.08360358843412131,0.0,0.0,-0.16390479525614385,-0.24556029033991375,-0.26165105656544874,-0.8215526954984382,-0.2084577770556808,-0.058267208419025746
8245,8.0,299.88501,2125.4957,0.0,0.0,0.0,-0.08361372957779357,0.0,0.0,-0.12312518722650989,-0.23589975110399278,-0.2870726909743687,-0.7724154764039722,-0.17440221827965882,-0.050881133974076946
8246,8.0,299.56567,1989.5086,0.0,0.0,0.0,-0.08362387072146583,0.0,0.0,-0.14816280998003084,-0.2045685280043418,-0.25202960851838574,-0.7717108825494343,-0.17349764938538484,-0.05139493384803505
8247,8.0,300.34348,1976.8083,0.0,0.0,0.0,-0.08363401186513811,0.0,0.0,-0.14315336228063685,-0.19296475746163883,-0.26478223242197174,-0.7637521373864673,-0.1968770782177548,-0.036209042518304264
8248,8.0,299.92348,2113.0669,0.0,0.0,0.0,-0.08364415300881035,0.0,0.0,-0.15901953148900586,-0.23799120063540277,-0.24530886246009978,-0.7738742120429383,-0.21872613462908877,-0.06146832589020144
8249,8.0,300.16228,2223.3793,0.0,0.0,0.0,-0.08365429415248263,0.0,0.0,-0.16799779877009183,-0.21355258094349883,-0.29430140970528773,-0.7740718363424423,-0.21122167001595582,-0.036714941067982565
8250,8.0,300.32669,2060.6846,0.0,0.0,0.0,-0.08366443529615487,0.0,0.0,-0.16614941780517084,-0.2058437539176968,-0.25440348125016876,-0.8047487835875212,-0.17250981159789283,-0.01686320629351888
8251,8.0,301.40365,1678.0238,0.0,0.0,0.0,-0.08367457643982715,0.0,0.0,-0.11660877318338989,-0.17359654259514484,-0.21987202929967978,-0.7962107329448812,-0.16706348085288183,-0.053261262511977346
8252,8.0,300.9075,1982.5482,0.0,0.0,0.0,-0.0836847175834994,0.0,0.0,-0.15023807790734386,-0.2185579351124888,-0.23384911528661076,-0.8195632701195972,-0.17650195619688683,-0.04777795827081736
8253,8.0,301.91019,2388.6674,0.0,0.0,0.0,-0.08369485872717167,0.0,0.0,-0.17208604000856986,-0.2886790875504077,-0.26533010688354275,-0.7698232482756393,-0.17812823273988784,-0.10050205029528009
8254,8.0,301.03836,2127.3624,0.0,0.0,0.0,-0.08370499987084391,0.0,0.0,-0.13832189196130787,-0.25574507504507377,-0.2525980823544898,-0.7794465505703853,-0.2059745847706088,-0.05839673217930874
8255,8.0,300.10497999999995,1820.1779,0.0,0.0,0.0,-0.08371514101451619,0.0,0.0,-0.09102467526668602,-0.24214514101036477,-0.22011880636153477,-0.7546965591227512,-0.23382002487623976,-0.06605860418222664
8256,8.0,299.52077,1853.0013,0.0,0.0,0.0,-0.08372528215818845,0.0,0.0,-0.11638878645417888,-0.1982374576695138,-0.24863987150134478,-0.7807391841204583,-0.2382111670996118,-0.038303415276252764
8257,8.0,300.16976,2030.9455,0.0,0.0,0.0,-0.0837354233018607,0.0,0.0,-0.12596116279889888,-0.22330225579071677,-0.26809332096625077,-0.7643107725641003,-0.1906259634483178,-0.05566910647986304
8258,8.0,300.35451,1924.1794,0.0,0.0,0.0,-0.08374556444553297,0.0,0.0,-0.11576389485250689,-0.2120578343959788,-0.25708076159189575,-0.7957350626854363,-0.16335730582961083,-0.07458712622092623
8259,8.0,299.4625,1913.1334,0.0,0.0,0.0,-0.08375570558920523,0.0,0.0,-0.11165767855725489,-0.2051474383164758,-0.26473966578527075,-0.7990935105393893,-0.17149254902749683,-0.045758580205770255
8260,8.0,299.78525,1863.8433,0.0,0.0,0.0,-0.08376584673287749,0.0,0.0,-0.1146129643289189,-0.2113578204318928,-0.2405910281394858,-0.7838426982492512,-0.19836189491429482,-0.06326260841903333
8261,8.0,300.83847000000003,2038.7359,0.0,0.0,0.0,-0.08377598787654976,0.0,0.0,-0.13756030278864487,-0.23403396250235378,-0.24813053094107676,-0.7560184857332153,-0.18551280960118882,-0.045796781761040455
8262,8.0,300.29034,2419.7972,0.0,0.0,0.0,-0.083786129020222,0.0,0.0,-0.1996328145147248,-0.25391926929238073,-0.2820058325243087,-0.7657451598031633,-0.17764880332257182,-0.04079832478548116
8263,8.0,299.90614,2230.9970000000003,0.0,0.0,0.0,-0.08379627016389428,0.0,0.0,-0.1984523274857198,-0.23282381764292176,-0.24689124500876877,-0.7923005906764803,-0.2250919695748478,-0.029178116286405868
8264,8.0,300.18617,1879.9520000000002,0.0,0.0,0.0,-0.08380641130756653,0.0,0.0,-0.13906740085488387,-0.2072468519936718,-0.22514421275000376,-0.7905596750171652,-0.1897893633707518,-0.05308835442216265
8265,8.0,300.61081,1966.9765,0.0,0.0,0.0,-0.0838165524512388,0.0,0.0,-0.15961690321796185,-0.18631096696996083,-0.25198386027637076,-0.7764614651132802,-0.15572281083114484,-0.04888315068489135
8266,8.0,300.62094,2190.9343,0.0,0.0,0.0,-0.08382669359491107,0.0,0.0,-0.14904607022470184,-0.22664104659272974,-0.2903022128855977,-0.7904081231997083,-0.14683454042394087,-0.030066709266353173
8267,8.0,300.93185,2019.9732,0.0,0.0,0.0,-0.08383683473858332,0.0,0.0,-0.1141357133993179,-0.1987453188846358,-0.3011403919177427,-0.8014360231805772,-0.2041561554786438,-0.024452985551821776
8268,8.0,299.87314,1905.9503,0.0,0.0,0.0,-0.08384697588225558,0.0,0.0,-0.14716316782887387,-0.17242855907237384,-0.25976958285226176,-0.8057531576166452,-0.24055898917132376,-0.017016522179399984
8269,8.0,300.54278999999997,1880.8061,0.0,0.0,0.0,-0.08385711702592784,0.0,0.0,-0.13385989315844288,-0.19832167901782582,-0.23953651849541377,-0.7491915206669463,-0.22354675303984678,-0.06704260783134024
8270,8.0,299.34924,1801.7394,0.0,0.0,0.0,-0.0838672581696001,0.0,0.0,-0.1276556209411289,-0.2066212004544248,-0.2134069566391268,-0.7569464100422943,-0.1944699404851888,-0.08033707431865192
8271,8.0,300.24958,2031.1927,0.0,0.0,0.0,-0.08387739931327237,0.0,0.0,-0.12532726340383787,-0.27174832685947176,-0.22035626152246982,-0.7700872505891942,-0.19874028303163882,-0.11395451388393488
8272,8.0,299.56605,2062.5724,0.0,0.0,0.0,-0.08388754045694462,0.0,0.0,-0.15406564029259484,-0.23741342516338076,-0.2354914518436968,-0.8017050714796302,-0.17292792925165784,-0.09133112161367991
8273,8.0,299.78724,1593.0823,0.0,0.0,0.0,-0.08389768160061689,0.0,0.0,-0.06954480159553753,-0.20960833267673182,-0.2051041016096988,-0.7751917310154672,-0.14721450921144086,-0.09550885614074021
8274,8.0,299.91447,1345.7754,0.0,0.0,0.0,-0.08390782274428914,0.0,0.0,-0.07150374030536973,-0.16237302454996985,-0.17520537097142383,-0.7842998564293693,-0.16938597167209382,-0.06551461148178873
8275,8.0,300.23656,1901.9443,0.0,0.0,0.0,-0.08391796388796141,0.0,0.0,-0.1160255362933289,-0.2201568944327938,-0.24196116518970778,-0.8092625493379952,-0.2263093490399938,-0.044388045961509054
8276,8.0,300.405,2285.9822,0.0,0.0,0.0,-0.08392810503163368,0.0,0.0,-0.15766459319028384,-0.2713754406901707,-0.2658414840765117,-0.8229520445490432,-0.21889099042035878,-0.054316767167647544
8277,8.0,301.50947,2195.4082,0.0,0.0,0.0,-0.08393824617530593,0.0,0.0,-0.16460610618035784,-0.2276570527330018,-0.27508611454388576,-0.7749620170852962,-0.16347676801640085,-0.061988026932741934
8278,8.0,300.51099,2192.3469,0.0,0.0,0.0,-0.0839483873189782,0.0,0.0,-0.15749236093828586,-0.23525962022081678,-0.2736667335388037,-0.7809158645403953,-0.15538924889822486,-0.05001146749274755
8279,8.0,299.21959,2152.2149,0.0,0.0,0.0,-0.08395852846265045,0.0,0.0,-0.14362293277447985,-0.2328719875526758,-0.2777246583342897,-0.7732555924593854,-0.20068195393326682,-0.012849456162642589
8280,8.0,299.58509,2146.7706,0.0,0.0,0.0,-0.08396866960632272,0.0,0.0,-0.16698885498301683,-0.2149830671696768,-0.27059272525292277,-0.8000704964183103,-0.2126260751845598,-0.01155991201212449
8281,8.0,299.98541,2255.5961,0.0,0.0,0.0,-0.08397881074999498,0.0,0.0,-0.17466864226095283,-0.23988058783187077,-0.27109566207255875,-0.7500436336035433,-0.1895267289448318,-0.02152709416555878
8282,8.0,300.04666000000003,2206.5946,0.0,0.0,0.0,-0.08398895189366724,0.0,0.0,-0.18863157314398682,-0.2348737948477388,-0.24724428160861078,-0.7782497096847663,-0.1988131863763338,-0.03909765947313856
8283,8.0,299.08903,1825.5348,0.0,0.0,0.0,-0.0839990930373395,0.0,0.0,-0.12076640178871588,-0.2113811251841928,-0.2227694584906338,-0.7719521272657434,-0.19179821275400982,-0.06241840085971654
8284,8.0,300.21244,2043.8243,0.0,0.0,0.0,-0.08400923418101176,0.0,0.0,-0.13625953284026887,-0.24749128158548778,-0.23752075874647377,-0.8137943205427463,-0.18459759144836382,-0.07043930182356785
8285,8.0,301.45654,2471.1831,0.0,0.0,0.0,-0.08401937532468402,0.0,0.0,-0.2056852005420488,-0.22661647527780476,-0.3188762811381387,-0.7759187278297163,-0.17640937553524985,-0.036549871480941465
8286,8.0,300.93694,2021.5676,0.0,0.0,0.0,-0.0840295164683563,0.0,0.0,-0.13552389300266687,-0.21590053473772378,-0.26308164411663676,-0.8079179563227942,-0.20920079335401082,-0.035070521268690966
8287,8.0,301.21545,1667.0186,0.0,0.0,0.0,-0.08403965761202854,0.0,0.0,-0.06669653631268563,-0.2242021839995328,-0.2158333157260898,-0.7810518933663202,-0.23270579427127377,-0.06727690570496363
8288,8.0,300.14457000000004,1934.078,0.0,0.0,0.0,-0.08404979875570082,0.0,0.0,-0.1127230198448959,-0.23469201777979876,-0.2404963703151438,-0.7782064033754922,-0.21041945964678377,-0.06591857605815693
8289,8.0,299.65031,2084.1209,0.0,0.0,0.0,-0.08405993989937306,0.0,0.0,-0.12422497901755089,-0.26137434809563975,-0.2479213961204368,-0.7717132028921633,-0.17457661888687084,-0.09961696822692931
8290,8.0,299.82306,1968.8782,0.0,0.0,0.0,-0.08407008104304534,0.0,0.0,-0.12685594369720687,-0.22229356531616679,-0.24934031103047277,-0.7856894174840082,-0.17029353978666384,-0.06553147905620343
8291,8.0,299.69959,1771.682,0.0,0.0,0.0,-0.0840802221867176,0.0,0.0,-0.1112273816372879,-0.2030638820033448,-0.2242558355923278,-0.8070552245251492,-0.19922054331403682,-0.05415982181990824
8292,8.0,299.67643,1758.3264,0.0,0.0,0.0,-0.08409036333038986,0.0,0.0,-0.09841364760692081,-0.20787184492035382,-0.22820181651676577,-0.7827171699056703,-0.1943306388614408,-0.038273882075588066
8293,8.0,300.97513,2161.4048,0.0,0.0,0.0,-0.08410050447406212,0.0,0.0,-0.15829371004487286,-0.23068642735197778,-0.2680329413927917,-0.7754965977055552,-0.19750062219679382,-0.04779174151192766
8294,8.0,299.52768,2494.7975,0.0,0.0,0.0,-0.08411064561773438,0.0,0.0,-0.2240349065405238,-0.2570255090639427,-0.2772957191694568,-0.7827487934412913,-0.23364366869633477,-0.05158937350247475
8295,8.0,300.26126,2322.4572,0.0,0.0,0.0,-0.08412078676140664,0.0,0.0,-0.17441464072588483,-0.2413443390588318,-0.2902100172589987,-0.7871903549896393,-0.25496115384020673,-0.03622219855760267
8296,8.0,301.09573,1890.4388,0.0,0.0,0.0,-0.08413092790507891,0.0,0.0,-0.12907832540653888,-0.20110830931034482,-0.24445954609377876,-0.7845676989608033,-0.1989527109151038,-0.059602031676762535
8297,8.0,300.24887,1945.5661,0.0,0.0,0.0,-0.08414106904875115,0.0,0.0,-0.13783612973086687,-0.17772925538051185,-0.27583812850310374,-0.7711496635840462,-0.15572597217145687,-0.021388710546401377
8298,8.0,299.22587999999996,2311.8567,0.0,0.0,0.0,-0.08415121019242343,0.0,0.0,-0.18308790959436985,-0.21793163509317778,-0.3017271549181517,-0.8123614227813303,-0.17675610971946984,-0.023857311016783275
8299,8.0,298.5589,2137.6557,0.0,0.0,0.0,-0.08416135133609567,0.0,0.0,-0.13961799082672285,-0.22151159968399278,-0.28866434476145275,-0.8148914170885212,-0.18971810149121882,-0.025536737593779776
8300,8.0,299.33502999999996,1888.4567,0.0,0.0,0.0,-0.08417149247976795,0.0,0.0,-0.1316259502654699,-0.22855240105136576,-0.21386533071936478,-0.7886513096463242,-0.19506647121656182,-0.05442357892693904
8301,8.0,300.22947,1935.1863,0.0,0.0,0.0,-0.08418163362344021,0.0,0.0,-0.11551366260781089,-0.2079718831027268,-0.2647627678875507,-0.7572416204589293,-0.18086359257734683,-0.04988140063041095
8302,8.0,299.12247,1951.9449,0.0,0.0,0.0,-0.08419177476711247,0.0,0.0,-0.13136397445211487,-0.24306470600611876,-0.2189138392101138,-0.7577560779322022,-0.2096852079618188,-0.05996879173595895
8303,8.0,299.62847,2210.2103,0.0,0.0,0.0,-0.08420191591078473,0.0,0.0,-0.14136322293146386,-0.24883638122573876,-0.28164914822410675,-0.7897962113318173,-0.23954848497909478,-0.05184888306508636
8304,8.0,300.06019,2303.5964,0.0,0.0,0.0,-0.08421205705445699,0.0,0.0,-0.14913891433136486,-0.28066409687438976,-0.27043278372463775,-0.7607509412527722,-0.2066134490911598,-0.06887593189977523
8305,8.0,299.39499,1796.0929,0.0,0.0,0.0,-0.08422219819812925,0.0,0.0,-0.094959520572525,-0.22887646883084878,-0.22213140477016277,-0.7845722687187543,-0.16479869462686483,-0.08144040640554231
8306,8.0,300.46416,1659.6626,0.0,0.0,0.0,-0.08423233934180152,0.0,0.0,-0.1048030314982539,-0.18818055525947483,-0.21151241199964982,-0.7691639973630763,-0.18905600334587483,-0.07974103906657783
8307,8.0,300.52296,1988.47,0.0,0.0,0.0,-0.08424248048547377,0.0,0.0,-0.12172909070872588,-0.22559701395469178,-0.25711911310818075,-0.8247324262997533,-0.21219495753201179,-0.059022938979610536
8308,8.0,299.88786,2082.2594,0.0,0.0,0.0,-0.08425262162914604,0.0,0.0,-0.15233037856883785,-0.2131680930605528,-0.26745638182088977,-0.8056864958925662,-0.19454627874772282,-0.07134237009444373
8309,8.0,301.01985,2066.8386,0.0,0.0,0.0,-0.08426276277281829,0.0,0.0,-0.14415043077653986,-0.20756670465273883,-0.2765501798783777,-0.7929455547626332,-0.14293496635408287,-0.04917547637849166
8310,8.0,299.93928999999997,2064.8787,0.0,0.0,0.0,-0.08427290391649056,0.0,0.0,-0.14707271499244687,-0.22741092415121078,-0.25318793576770376,-0.7858090620558162,-0.18662844862379382,-0.05692214018952784
8311,8.0,300.30112,2105.9656,0.0,0.0,0.0,-0.08428304506016282,0.0,0.0,-0.16422547878029284,-0.2124508437122658,-0.26348464407890976,-0.8022635445372472,-0.1936359849903838,-0.0005731631069042945
8312,8.0,300.51346,2281.5805,0.0,0.0,0.0,-0.08429318620383508,0.0,0.0,-0.17485329695917684,-0.25899715190352873,-0.2596930622047098,-0.8002143374025062,-0.2036061835893658,-0.03193750129698597
8313,8.0,299.32537,2376.8031,0.0,0.0,0.0,-0.08430332734750734,0.0,0.0,-0.1967113003688938,-0.2374899559434338,-0.2882875373142647,-0.7711231062989253,-0.17365192684561082,0.007057807149101332
8314,8.0,299.01557,2006.7279,0.0,0.0,0.0,-0.0843134684911796,0.0,0.0,-0.16321854122841584,-0.18547282675224283,-0.2613037954911767,-0.7712102154100223,-0.22268263308956476,-0.02880872684319997
8315,8.0,300.47393,1746.7349,0.0,0.0,0.0,-0.08432360963485186,0.0,0.0,-0.1123061788862569,-0.19463414779639482,-0.2240234568143938,-0.7738933320723252,-0.21619615045439877,-0.046886190778306754
8316,8.0,300.73193,1928.6872,0.0,0.0,0.0,-0.08433375077852413,0.0,0.0,-0.12649591567167487,-0.2160728987122348,-0.24370394522920677,-0.7841126483408932,-0.2005874075664358,-0.0958533307772372
8317,8.0,299.91837999999996,2105.0624,0.0,0.0,0.0,-0.08434389192219638,0.0,0.0,-0.17790092021245382,-0.2046204672044678,-0.2573650187749497,-0.7954334991906743,-0.16216086011153086,-0.059726512491297845
8318,8.0,299.71088,1846.9424,0.0,0.0,0.0,-0.08435403306586865,0.0,0.0,-0.11951972926317889,-0.21662758221447778,-0.22527704983811378,-0.8084529929055982,-0.1756019671930648,-0.08161427910945222
8319,8.0,300.17393,1684.7529,0.0,0.0,0.0,-0.0843641742095409,0.0,0.0,-0.09176596194709531,-0.2045537345528818,-0.2158031107406088,-0.8005215143028223,-0.2122914189415318,-0.06447900199183204
8320,8.0,300.8062,2098.3360000000002,0.0,0.0,0.0,-0.08437431535321317,0.0,0.0,-0.12844788119431888,-0.24998159701876274,-0.25941226020449676,-0.7707187485815182,-0.19127335933471082,-0.05676875844239024
8321,8.0,300.87587,2368.768,0.0,0.0,0.0,-0.08438445649688545,0.0,0.0,-0.13478848621258788,-0.2892378341855517,-0.2960200034648997,-0.7875148280691623,-0.17782127875459383,-0.049730114284480154
8322,8.0,300.16296,2107.2201,0.0,0.0,0.0,-0.08439459764055769,0.0,0.0,-0.1285399552309059,-0.25403691776149173,-0.2579653998567028,-0.7822204443091472,-0.2114047643090258,-0.041767175279349256
8323,8.0,298.98202000000003,1894.559,0.0,0.0,0.0,-0.08440473878422997,0.0,0.0,-0.11460977259110389,-0.23041651779033978,-0.2308723384803258,-0.8184629413060033,-0.2038708242504838,-0.04274591306769316
8324,8.0,299.21308999999997,1913.4557,0.0,0.0,0.0,-0.08441487992790221,0.0,0.0,-0.13729696922015586,-0.20421164105411982,-0.24013416380189676,-0.7704992380798542,-0.18214767429657583,-0.047174114913472655
8325,8.0,299.24501000000004,2047.6146,0.0,0.0,0.0,-0.08442502107157449,0.0,0.0,-0.13112393550342488,-0.2096676382050848,-0.28163212562242673,-0.7937720324717003,-0.14511062710130387,-0.03791240104941267
8326,8.0,299.70567,2228.0974,0.0,0.0,0.0,-0.08443516221524675,0.0,0.0,-0.2032916403608228,-0.2055241241736518,-0.26847022973844875,-0.7812520710560762,-0.19549584607893783,-0.06325086181062403
8327,8.0,299.93925,2153.9961,0.0,0.0,0.0,-0.084445303358919,0.0,0.0,-0.15995188370102184,-0.2201214306792938,-0.27468770460456576,-0.7999306679045103,-0.22542276533499478,-0.06585023031241173
8328,8.0,300.07401,1835.3814,0.0,0.0,0.0,-0.08445544450259126,0.0,0.0,-0.15464772207754185,-0.1978747850612208,-0.20538758872267682,-0.7682325266786473,-0.22010988976065482,-0.08405499797683243
8329,8.0,300.41239,2210.7153,0.0,0.0,0.0,-0.08446558564626352,0.0,0.0,-0.18032722863691183,-0.21645356664230378,-0.2752214644922437,-0.7756710287102703,-0.18347654167022484,-0.04004745579887616
8330,8.0,301.41173,2576.7375,0.0,0.0,0.0,-0.08447572678993578,0.0,0.0,-0.2137816970561108,-0.23592191088367978,-0.33356024079233265,-0.7990073234858832,-0.19955225099927382,-0.0033437695077043568
8331,8.0,300.20232000000004,2174.2154,0.0,0.0,0.0,-0.08448586793360806,0.0,0.0,-0.14979608808122286,-0.22690507930378778,-0.28420603418895174,-0.8140573501362053,-0.19382443937648283,-0.018093626287451883
8332,8.0,300.15418999999997,1825.8702,0.0,0.0,0.0,-0.0844960090772803,0.0,0.0,-0.1028306591185959,-0.18962885442241081,-0.26255943528009873,-0.7639854179569903,-0.1876679925638888,-0.017090366833437884
8333,8.0,299.05445,1863.1012,0.0,0.0,0.0,-0.08450615022095258,0.0,0.0,-0.09486941528088232,-0.21091339880553178,-0.26055342299712075,-0.7876442201069322,-0.17234565494919185,-0.04696342475392916
8334,8.0,299.56798,1989.2645,0.0,0.0,0.0,-0.08451629136462482,0.0,0.0,-0.13092130574842686,-0.23735121160724076,-0.23641422884226776,-0.7683412078843732,-0.21807506064483279,-0.057201477030096246
8335,8.0,300.00243,1941.1298,0.0,0.0,0.0,-0.0845264325082971,0.0,0.0,-0.13187826980537187,-0.2345257839683928,-0.2236509556801308,-0.8206543479597782,-0.21993760684615182,-0.1056566643100009
8336,8.0,298.73402000000004,1798.8327,0.0,0.0,0.0,-0.08453657365196936,0.0,0.0,-0.1114480168465629,-0.2244449688559938,-0.2109072281124228,-0.7748984153765192,-0.18330950739123983,-0.07395635168917364
8337,8.0,298.3006,1663.4608,0.0,0.0,0.0,-0.08454671479564162,0.0,0.0,-0.08032356668156883,-0.19738438214532184,-0.22794260687618376,-0.7819246056774503,-0.16642988543285084,-0.0995678114115779
8338,8.0,300.22071,1940.3474,0.0,0.0,0.0,-0.08455685593931388,0.0,0.0,-0.10975896945986689,-0.22449767812619578,-0.2555605216718598,-0.7763507168773502,-0.2027265913100568,-0.08866123597118272
8339,8.0,300.5598,2469.1227,0.0,0.0,0.0,-0.08456699708298614,0.0,0.0,-0.17624318225384783,-0.27911332772884073,-0.2951951266909907,-0.8147327015928572,-0.2243280600594558,-0.07630768163273183
8340,8.0,300.71209,2249.0789,0.0,0.0,0.0,-0.0845771382266584,0.0,0.0,-0.17095774549221585,-0.2370276301878058,-0.27567845041984473,-0.7790648693902162,-0.21040168724002978,-0.04598681073779486
8341,8.0,300.03781000000004,1767.7943,0.0,0.0,0.0,-0.08458727937033067,0.0,0.0,-0.12139951084869888,-0.1977325551446838,-0.2182332593829458,-0.7710975116013993,-0.17754658665248382,-0.03590641815068757
8342,8.0,300.30123,1995.8324,0.0,0.0,0.0,-0.08459742051400292,0.0,0.0,-0.12475331801719387,-0.2216978755823768,-0.26023203019790175,-0.7776361968817173,-0.21387343672016482,-0.004241540507057456
8343,8.0,300.83595,2400.5607,0.0,0.0,0.0,-0.08460756165767519,0.0,0.0,-0.19088103902849182,-0.23914212102648977,-0.2996873406118377,-0.7924367613574191,-0.1984543438534188,-0.006420433218122424
8344,8.0,299.32811,2189.3774,0.0,0.0,0.0,-0.08461770280134744,0.0,0.0,-0.13402132416437487,-0.22931242981887476,-0.30218229673057073,-0.8117736667958233,-0.18555826400067482,-0.03331572610950617
8345,8.0,299.50206000000003,1905.4316,0.0,0.0,0.0,-0.08462784394501971,0.0,0.0,-0.13548071841590587,-0.1973191693688858,-0.24640375012065677,-0.7744485424646202,-0.16581459944212684,-0.038802660825774465
8346,8.0,301.291,2128.0694,0.0,0.0,0.0,-0.08463798508869196,0.0,0.0,-0.17027599029493182,-0.2288910191022848,-0.24771294017736376,-0.8022702725179112,-0.21174357487746379,-0.053319478796472856
8347,8.0,301.12987000000004,2235.8454,0.0,0.0,0.0,-0.08464812623236423,0.0,0.0,-0.2023465718600518,-0.22453783322765877,-0.25275677758515175,-0.8011233544647192,-0.1994636017480248,-0.07181823185815764
8348,8.0,301.25806,2251.3428,0.0,0.0,0.0,-0.08465826737603648,0.0,0.0,-0.17493617068485584,-0.23258014112637276,-0.27683568335905473,-0.8097527394713732,-0.1959104781523588,-0.04648181887539836
8349,8.0,300.76795,2146.5548,0.0,0.0,0.0,-0.08466840851970875,0.0,0.0,-0.15808432191170785,-0.2294178280942768,-0.26499691985315976,-0.8090132087533872,-0.17966493797404884,-0.06928500426989753
8350,8.0,299.50174,1861.5748,0.0,0.0,0.0,-0.08467854966338101,0.0,0.0,-0.09005474870121172,-0.23165726280279178,-0.24416023201423875,-0.8048247874775223,-0.2202461516341028,-0.05301466986164055
8351,8.0,300.53561,1841.0765,0.0,0.0,0.0,-0.08468869080705327,0.0,0.0,-0.11377386152360588,-0.2423027115334158,-0.2035647011302718,-0.8093367496428182,-0.21288184990730283,-0.1043225685658359
8352,8.0,300.64088,2199.5495,0.0,0.0,0.0,-0.08469883195072553,0.0,0.0,-0.14757695890471184,-0.2586290381421988,-0.26240210793707175,-0.7803367515782412,-0.19711317562355582,-0.06661924863480793
8353,8.0,299.02777000000003,2057.5845,0.0,0.0,0.0,-0.08470897309439779,0.0,0.0,-0.12939717494800687,-0.24354940432395478,-0.25250773084307276,-0.7825880311804252,-0.18051939151837684,-0.08142906408392292
8354,8.0,299.94297,1693.1466,0.0,0.0,0.0,-0.08471911423807005,0.0,0.0,-0.07783785646999833,-0.22297053797297878,-0.2138658880069198,-0.7901047561197682,-0.2084513530500468,-0.051735306848127244
8355,8.0,300.60367,1750.4788,0.0,0.0,0.0,-0.08472925538174231,0.0,0.0,-0.08278699248369002,-0.2076834918592648,-0.2416313624146588,-0.8031636855285843,-0.22006148680337778,-0.061959269881653845
8356,8.0,300.51153999999997,2152.6594,0.0,0.0,0.0,-0.08473939652541457,0.0,0.0,-0.1255499149808119,-0.25398797778166177,-0.2748168129323077,-0.7784299871425583,-0.18244742407365883,-0.054715894488038354
8357,8.0,300.21824,2096.8319,0.0,0.0,0.0,-0.08474953766908683,0.0,0.0,-0.17026981960182283,-0.2142054686454338,-0.25290924132769876,-0.7935470504194962,-0.16848567869324185,-0.04755519928933275
8358,8.0,299.24556,2057.6259,0.0,0.0,0.0,-0.08475967881275909,0.0,0.0,-0.15215958513198186,-0.2224512979592338,-0.25085600145755976,-0.8094269289017183,-0.18573636297075183,-0.062298669148399946
8359,8.0,298.23064,2192.7674,0.0,0.0,0.0,-0.08476981995643136,0.0,0.0,-0.17547789471831984,-0.24318565767055578,-0.24788298380914578,-0.8085953545446483,-0.2186140489030268,-0.04016285383951506
8360,8.0,298.6659,2245.0144,0.0,0.0,0.0,-0.0847799611001036,0.0,0.0,-0.17598072008044482,-0.2099340520538778,-0.29651354745610875,-0.7877492130822943,-0.2049951772239488,-0.028592865055146074
8361,8.0,299.64387,2372.9924,0.0,0.0,0.0,-0.08479010224377588,0.0,0.0,-0.16003964129218284,-0.24980480514131476,-0.3114859996787747,-0.7801756448123413,-0.19825888790912882,-0.025025797111603874
8362,8.0,299.63016,2187.4428,0.0,0.0,0.0,-0.08480024338744813,0.0,0.0,-0.13923222624865086,-0.23942716854462176,-0.2862685858275097,-0.7949378881692613,-0.2228548248115588,-0.04638457827655146
8363,8.0,299.46495,1788.329,0.0,0.0,0.0,-0.0848103845311204,0.0,0.0,-0.1148110141934649,-0.2081397786442968,-0.22065656858710778,-0.7809171513680223,-0.2100794838407308,-0.053137942882056644
8364,8.0,300.53752000000003,1768.5693,0.0,0.0,0.0,-0.08482052567479265,0.0,0.0,-0.09516754588430551,-0.22466724553043077,-0.21776612068934278,-0.7749489056290023,-0.15235927646168984,-0.08781797478745933
8365,8.0,300.83512,2074.71,0.0,0.0,0.0,-0.08483066681846492,0.0,0.0,-0.16388724576441185,-0.2094795283240198,-0.25729326040286776,-0.7681781252807783,-0.15813144817385885,-0.052841387882538955
8366,8.0,301.4213,2217.9149,0.0,0.0,0.0,-0.08484080796213718,0.0,0.0,-0.14303913859686387,-0.23820028479353775,-0.2929513248745447,-0.8085128962515102,-0.20212254226294182,-0.057056899413077546
8367,8.0,300.19153,1996.1524,0.0,0.0,0.0,-0.08485094910580944,0.0,0.0,-0.09912370895899841,-0.24924038430561074,-0.25841638734371175,-0.8055077889724293,-0.2209469559332668,-0.07189671010490283
8368,8.0,299.94992,1983.2094,0.0,0.0,0.0,-0.0848610902494817,0.0,0.0,-0.1253728089958329,-0.2211325732190858,-0.25634074451386174,-0.7921944425960042,-0.2042725779151338,-0.05779272568869795
8369,8.0,299.83425,2316.7521,0.0,0.0,0.0,-0.08487123139315396,0.0,0.0,-0.16957046425030184,-0.2608335663847688,-0.2738307483324907,-0.7848816342392863,-0.1921662961178368,-0.05776169591763554
8370,8.0,300.23602999999997,2273.1615,0.0,0.0,0.0,-0.08488137253682622,0.0,0.0,-0.17285561359202084,-0.23867913665829674,-0.27944957477452576,-0.8051572753653362,-0.18209510688138783,-0.05753850225185805
8371,8.0,298.9072,1982.8635,0.0,0.0,0.0,-0.08489151368049849,0.0,0.0,-0.14325302556047287,-0.2163188753065108,-0.2431690808989198,-0.7962690049581322,-0.19507228727213582,-0.06884394258086814
8372,8.0,299.37456000000003,1775.4011,0.0,0.0,0.0,-0.08490165482417074,0.0,0.0,-0.09072425066503641,-0.21564300709230777,-0.23331034994343877,-0.8047298155456492,-0.14448439800949986,-0.06939387191364194
8373,8.0,298.68942000000004,1686.4229,0.0,0.0,0.0,-0.08491179596784301,0.0,0.0,-0.08887607640313581,-0.18163567902104583,-0.24211869518275478,-0.7833768058532712,-0.18700596534605182,-0.03190199903998217
8374,8.0,299.75304,1947.8754,0.0,0.0,0.0,-0.08492193711151526,0.0,0.0,-0.11651146064378588,-0.23336166092850277,-0.24223236157897277,-0.7899920016486403,-0.2222601888578728,-0.05787030822235475
8375,8.0,300.84767999999997,2325.2952,0.0,0.0,0.0,-0.08493207825518753,0.0,0.0,-0.18115755669635883,-0.2593040653588187,-0.26637007638867977,-0.7883141101455453,-0.23834471346279176,-0.036635111145603964
8376,8.0,300.18582999999995,2268.2864,0.0,0.0,0.0,-0.08494221939885979,0.0,0.0,-0.16765776216903283,-0.24652240170736675,-0.2753222626121917,-0.7967216947053093,-0.17349243114736984,-0.04236863445920866
8377,8.0,299.97105,2238.3784,0.0,0.0,0.0,-0.08495236054253205,0.0,0.0,-0.18715076891784282,-0.2366407611671248,-0.2566196213388848,-0.7842752952469453,-0.17680722818701483,-0.035461442276521864
8378,8.0,300.5864,2363.3162,0.0,0.0,0.0,-0.08496250168620431,0.0,0.0,-0.16909773241614684,-0.23199039917066977,-0.3173009812076687,-0.8026559256384723,-0.19468941045684882,-0.04506339843141116
8379,8.0,300.45104,2287.0115,0.0,0.0,0.0,-0.08497264282987657,0.0,0.0,-0.18202633759710082,-0.22701710423484375,-0.2861509576234007,-0.7796501733104813,-0.22129007281462976,-0.04348393809603056
8380,8.0,299.84434,2032.8643,0.0,0.0,0.0,-0.08498278397354883,0.0,0.0,-0.13581853599924587,-0.24826332749918276,-0.23385812307999979,-0.7870490775281963,-0.17338195648896684,-0.07662116500167022
8381,8.0,300.4911,1875.7665,0.0,0.0,0.0,-0.0849929251172211,0.0,0.0,-0.15956615965295384,-0.17840540730474283,-0.23221462128529877,-0.7725930687489992,-0.1944929919249638,-0.04174276608444026
8382,8.0,299.42401,2007.884,0.0,0.0,0.0,-0.08500306626089335,0.0,0.0,-0.15667929866054287,-0.22793399425033375,-0.22573329609314177,-0.8127103253207643,-0.18888266665126782,-0.06935715679626843
8383,8.0,299.65563,1954.0222,0.0,0.0,0.0,-0.08501320740456562,0.0,0.0,-0.13247663451942587,-0.2305894897149108,-0.23090783263132877,-0.7974216681393912,-0.21789731631229078,-0.0884122996733646
8384,8.0,299.99584,1944.1302,0.0,0.0,0.0,-0.08502334854823787,0.0,0.0,-0.07094384363136222,-0.25500902990743174,-0.2650141653698617,-0.7840286701726052,-0.16879825621659084,-0.07996476468865782
8385,8.0,299.92956000000004,2014.9361,0.0,0.0,0.0,-0.08503348969191014,0.0,0.0,-0.1130440073440749,-0.2529651626007178,-0.24648108136828875,-0.7906506851411472,-0.20599460659258478,-0.06960893830036734
8386,8.0,299.37192999999996,2026.8318,0.0,0.0,0.0,-0.08504363083558242,0.0,0.0,-0.12799274951440087,-0.2315687756715588,-0.25654474215649475,-0.7949002256630443,-0.21475352549202278,-0.04575260203018026
8387,8.0,298.71684,2154.647,0.0,0.0,0.0,-0.08505377197925466,0.0,0.0,-0.15668866109146684,-0.2471381335281348,-0.2511321019773088,-0.7831926577800973,-0.2274657308491198,-0.05617800323658724
8388,8.0,299.33146,2260.9486,0.0,0.0,0.0,-0.08506391312292694,0.0,0.0,-0.16981499189693486,-0.24963046532910874,-0.2678264714199148,-0.7767268150494683,-0.16346856069059085,-0.04900426142959405
8389,8.0,300.66566,2103.5475,0.0,0.0,0.0,-0.08507405426659918,0.0,0.0,-0.15342146654151986,-0.2042179738672448,-0.2817864638776587,-0.7982508005637202,-0.18852110861808483,-0.03516371190688817
8390,8.0,300.57616,2032.1949,0.0,0.0,0.0,-0.08508419541027146,0.0,0.0,-0.1250524699767179,-0.22867096144556678,-0.26401307427106174,-0.8278653449464483,-0.18557375659470382,-0.07084936616553802
8391,8.0,300.23548999999997,2194.955,0.0,0.0,0.0,-0.08509433655394372,0.0,0.0,-0.16916062484985384,-0.2201698235040698,-0.2778810737522267,-0.8112006738642732,-0.25115305598937676,-0.047439565161420554
8392,8.0,300.07304,2141.6496,0.0,0.0,0.0,-0.08510447769761596,0.0,0.0,-0.14760373910485486,-0.24046886057492878,-0.26293539159720275,-0.7917150435761913,-0.19479236679950981,-0.05299798264574366
8393,8.0,300.25414,1974.7304,0.0,0.0,0.0,-0.08511461884128824,0.0,0.0,-0.14135460017311288,-0.21634677008176378,-0.24256735219453376,-0.7658062587841933,-0.22359884422748777,-0.02226921677730058
8394,8.0,301.48512,2143.1875,0.0,0.0,0.0,-0.08512475998496048,0.0,0.0,-0.17415282703254584,-0.2270570060237818,-0.25026564141929575,-0.7950387977467203,-0.2145706541139748,-0.03212218740596307
8395,8.0,300.45651000000004,2253.1449,0.0,0.0,0.0,-0.08513490112863276,0.0,0.0,-0.14909911386743685,-0.25197347446284574,-0.2838272103740647,-0.7750194683659662,-0.2091323989722608,-0.02837191067208957
8396,8.0,299.48764,2041.4487,0.0,0.0,0.0,-0.08514504227230503,0.0,0.0,-0.1052090408133239,-0.2348279655457158,-0.2805124032019187,-0.7859042670352123,-0.14101099693170185,-0.06589672633300053
8397,8.0,299.88597000000004,1976.5313,0.0,0.0,0.0,-0.08515518341597728,0.0,0.0,-0.1117256575064639,-0.2126005818120438,-0.2764899320274317,-0.7710703767637213,-0.17290212177161085,-0.04939393411330175
8398,8.0,300.53058,2103.099,0.0,0.0,0.0,-0.08516532455964955,0.0,0.0,-0.14720204623521085,-0.24498680091581473,-0.24710072433444277,-0.8365585748419031,-0.17437629934210083,-0.08957215287733322
8399,8.0,300.49457,2002.9679999999998,0.0,0.0,0.0,-0.0851754657033218,0.0,0.0,-0.14953950275839986,-0.2079289618284908,-0.25138378316964777,-0.7875374843413983,-0.1967287485356158,-0.06346307995131835
8400,8.0,299.86762999999996,1744.7220000000002,0.0,0.0,0.0,-0.08518560684699407,0.0,0.0,-0.11467146938969289,-0.1968000914751568,-0.21888037155931078,-0.8053878201605893,-0.17404668908457085,-0.08683027074898052
8401,8.0,299.69982000000005,1872.8245,0.0,0.0,0.0,-0.08519574799066633,0.0,0.0,-0.0916472982013841,-0.2145869877055868,-0.26305760982426474,-0.7678208431630172,-0.20732632119901478,-0.07392502503583193
8402,8.0,300.2005,2143.0396,0.0,0.0,0.0,-0.08520588913433859,0.0,0.0,-0.13097483575120988,-0.25039691810225173,-0.2700587728477257,-0.8176931144100272,-0.2138030158382148,-0.08495375689503303
8403,8.0,301.36331,2291.7378,0.0,0.0,0.0,-0.08521603027801085,0.0,0.0,-0.14619644617346586,-0.2666552961593287,-0.28377930390933676,-0.8122580104761242,-0.22051993181112275,-0.06343170871497224
8404,8.0,302.43287999999995,2150.0289,0.0,0.0,0.0,-0.08522617142168311,0.0,0.0,-0.15888268193049984,-0.2350169873518708,-0.25965543009599573,-0.8221762090799742,-0.18033387555756783,-0.04814254896154965
8405,8.0,301.79421,2016.7612,0.0,0.0,0.0,-0.08523631256535537,0.0,0.0,-0.14813400327968787,-0.22443298210731077,-0.24047807101833776,-0.7920496998192192,-0.1962537368887358,-0.01903944560654698
8406,8.0,300.35126,2103.3653,0.0,0.0,0.0,-0.08524645370902764,0.0,0.0,-0.15816321356449384,-0.22580528751274678,-0.2554020088262158,-0.7931632819441212,-0.18156337349390983,-0.03924991955241546
8407,8.0,300.84168999999997,2384.3826,0.0,0.0,0.0,-0.08525659485269989,0.0,0.0,-0.17841125375781985,-0.22592521579458277,-0.32045632307907673,-0.7973007772699603,-0.2118207946675848,-0.028079465414977474
8408,8.0,300.88456,2277.8446,0.0,0.0,0.0,-0.08526673599637216,0.0,0.0,-0.16335950458232784,-0.24823965797684674,-0.28080873832616476,-0.8259343840983773,-0.17129792394828883,-0.05412883967160055
8409,8.0,300.31313,1924.283,0.0,0.0,0.0,-0.08527687714004441,0.0,0.0,-0.12122861608683287,-0.20945201858380483,-0.25425334798285176,-0.8095447800208493,-0.21070445650241082,-0.052076700191070156
8410,8.0,299.96378,2051.0554,0.0,0.0,0.0,-0.08528701828371668,0.0,0.0,-0.1797127937762718,-0.2070699283937108,-0.23668691470917974,-0.7926690894728482,-0.1914239890945768,-0.06924647036859453
8411,8.0,299.92175,2292.0346,0.0,0.0,0.0,-0.08529715942738894,0.0,0.0,-0.1962480829531778,-0.2289338897140158,-0.27153931362884376,-0.7788227330138192,-0.19206968272080183,-0.04993685074213345
8412,8.0,300.59091,2043.9667,0.0,0.0,0.0,-0.0853073005710612,0.0,0.0,-0.13299040298263087,-0.2074412440253568,-0.28088320207601375,-0.7668349406832163,-0.17924652647775483,-0.05529778983496695
8413,8.0,300.60482,1876.2188,0.0,0.0,0.0,-0.08531744171473346,0.0,0.0,-0.057771068481060533,-0.24187010440322076,-0.2706824890792817,-0.8022451945779363,-0.23058179914665178,-0.07425839850423332
8414,8.0,300.4655,2056.1441,0.0,0.0,0.0,-0.08532758285840572,0.0,0.0,-0.09126598381775132,-0.26977380638960174,-0.26397666819496873,-0.8048746900449473,-0.22188761679610278,-0.06340188268502865
8415,8.0,299.67042000000004,2094.2877,0.0,0.0,0.0,-0.08533772400207798,0.0,0.0,-0.12616548468156388,-0.24055652697358076,-0.26988913451598373,-0.8030089825033162,-0.2043243752602458,-0.07246681932666824
8416,8.0,299.74261,2077.464,0.0,0.0,0.0,-0.08534786514575025,0.0,0.0,-0.15122551039479584,-0.23989788401107778,-0.24037378731804576,-0.8022598056443783,-0.16462621919484285,-0.04519341361799266
8417,8.0,300.22569,2123.1789,0.0,0.0,0.0,-0.0853580062894225,0.0,0.0,-0.17380368131308785,-0.23238222298433975,-0.23920745539293775,-0.8126913674113933,-0.1956141227631108,-0.05958609933219015
8418,8.0,299.79831,2146.321,0.0,0.0,0.0,-0.08536814743309477,0.0,0.0,-0.1366546091867599,-0.23990181542146577,-0.27587155562390275,-0.7898004872472393,-0.21223858808131782,-0.05826700779550595
8419,8.0,300.40269,2005.5179999999998,0.0,0.0,0.0,-0.08537828857676702,0.0,0.0,-0.12461388467093289,-0.2336926086761648,-0.2513209008684418,-0.8016581782650022,-0.21312999485679276,-0.08910455822118522
8420,8.0,300.59537,2123.7801,0.0,0.0,0.0,-0.0853884297204393,0.0,0.0,-0.15237237778548285,-0.2131714874483878,-0.2800322543770317,-0.7850825718666172,-0.1997444240132398,-0.05072075472174875
8421,8.0,300.05874,2030.2416,0.0,0.0,0.0,-0.08539857086411155,0.0,0.0,-0.15290413143796286,-0.2270628119468548,-0.23717580788242976,-0.8105581922408652,-0.2043370712839988,-0.07302626409113112
8422,8.0,300.31951000000004,1962.5371,0.0,0.0,0.0,-0.08540871200778381,0.0,0.0,-0.15102138102964985,-0.2228281256714238,-0.22271277728003977,-0.8197472054102503,-0.2065454701419508,-0.037913920924562666
8423,8.0,299.06068999999997,2123.0578,0.0,0.0,0.0,-0.08541885315145607,0.0,0.0,-0.17498099686927981,-0.2088157177860068,-0.26155983365894575,-0.8020618368398402,-0.16847429989461885,-0.04083129087748466
8424,8.0,298.64322000000004,2205.3064,0.0,0.0,0.0,-0.08542899429512833,0.0,0.0,-0.13993121683013587,-0.2285343955970888,-0.30189246667196673,-0.7742702712420263,-0.17341389413211883,-0.04199750830533136
8425,8.0,299.77612,2205.619,0.0,0.0,0.0,-0.08543913543880059,0.0,0.0,-0.12525564688676988,-0.2279219872366488,-0.3172754574376497,-0.7795942621699633,-0.2072846259573998,-0.040087047533283564
8426,8.0,299.4588,2277.9554,0.0,0.0,0.0,-0.08544927658247287,0.0,0.0,-0.13465334904675086,-0.26456761591829075,-0.2932205960886197,-0.7842494675018963,-0.22583184479786778,-0.05022083333441035
8427,8.0,299.89362,2176.1974,0.0,0.0,0.0,-0.08545941772614511,0.0,0.0,-0.15592322156842386,-0.2395529230145328,-0.26603352536796476,-0.7798330244235272,-0.2130171086631518,-0.04042666464880116
8428,8.0,300.34945,2080.4332,0.0,0.0,0.0,-0.08546955886981739,0.0,0.0,-0.2013153872332818,-0.19067226897788783,-0.24041209830432675,-0.7654764357441423,-0.1966079184611908,-0.02307300376362818
8429,8.0,300.02454,2091.9398,0.0,0.0,0.0,-0.08547970001348963,0.0,0.0,-0.17685655320188284,-0.24317236382924376,-0.21586854643206682,-0.8044193050525043,-0.18291487687479283,-0.05118817003262905
8430,8.0,299.84612000000004,2047.8972,0.0,0.0,0.0,-0.0854898411571619,0.0,0.0,-0.14117293456268387,-0.22631624927317479,-0.25502042897105676,-0.8206476605091182,-0.17900638620405485,-0.07266936498190793
8431,8.0,300.59695,1987.1817,0.0,0.0,0.0,-0.08549998230083418,0.0,0.0,-0.09314819923001151,-0.25189210034731474,-0.2590133132426238,-0.8233526735060822,-0.16155233249897386,-0.07892152846519843
8432,8.0,300.03585,1926.9341,0.0,0.0,0.0,-0.08551012344450643,0.0,0.0,-0.11617531492311088,-0.23029297220564676,-0.23927155359426375,-0.7841132157609493,-0.17007244861484383,-0.08355643029162763
8433,8.0,299.99291,1943.759,0.0,0.0,0.0,-0.0855202645881787,0.0,0.0,-0.12859059747090387,-0.20749421674058482,-0.25476938612628075,-0.7871995249030442,-0.18935276403516282,-0.062461969600766436
8434,8.0,299.77579,1823.9423,0.0,0.0,0.0,-0.08553040573185094,0.0,0.0,-0.14181336942088985,-0.22152546094536077,-0.19109408499451783,-0.7818153165216642,-0.2108322476050228,-0.06171903132269414
8435,8.0,300.30522,1910.8339,0.0,0.0,0.0,-0.0855405468755232,0.0,0.0,-0.11232493414560789,-0.22961625286135978,-0.23890461520304976,-0.7995379726957542,-0.18907808206555382,-0.03131344765314667
8436,8.0,299.70234,2116.9962,0.0,0.0,0.0,-0.08555068801919548,0.0,0.0,-0.13572124372464386,-0.23175712873264778,-0.2760356210800948,-0.7894107405962743,-0.2193825687063738,-0.06151758605706304
8437,8.0,300.1066,2244.7863,0.0,0.0,0.0,-0.08556082916286772,0.0,0.0,-0.12859972685430487,-0.26696967726785575,-0.28678956863142674,-0.8142926673394293,-0.20184344252289682,-0.06304251732506204
8438,8.0,299.05548,2151.7197,0.0,0.0,0.0,-0.08557097030654,0.0,0.0,-0.15504652718440085,-0.2301010221067028,-0.26892152120048773,-0.8015188563762522,-0.22664512999063277,-0.06250621620613324
8439,8.0,299.26839,2144.3648,0.0,0.0,0.0,-0.08558111145021224,0.0,0.0,-0.16683972483329884,-0.23446835295272478,-0.2505252766249198,-0.8089274067349191,-0.17879654210834484,-0.03249447575770507
8440,8.0,299.73883,2132.9741,0.0,0.0,0.0,-0.08559125259388452,0.0,0.0,-0.1977792963717968,-0.21642693842967578,-0.23416464136775075,-0.7931060941084772,-0.19339937082703182,-0.03270676786565667
8441,8.0,300.46508,2115.3955,0.0,0.0,0.0,-0.08560139373755679,0.0,0.0,-0.18634504257082382,-0.18307567966566282,-0.27360668833787777,-0.8009424386593642,-0.1896271217647398,-0.015817331566799087
8442,8.0,299.98863,1979.6864,0.0,0.0,0.0,-0.08561153488122904,0.0,0.0,-0.12964988965544785,-0.2285835787569428,-0.24354177455070178,-0.7770941080782172,-0.20283546503330183,-0.07983167732777313
8443,8.0,299.98274,1852.4694,0.0,0.0,0.0,-0.08562167602490131,0.0,0.0,-0.09829817762552481,-0.21454193860614076,-0.2502643140616647,-0.7912581083110952,-0.18108008359371283,-0.06271929560941254
8444,8.0,300.08907999999997,2132.2619,0.0,0.0,0.0,-0.08563181716857356,0.0,0.0,-0.13760010325257288,-0.2527298859274978,-0.2578243858402858,-0.7810264810538122,-0.21085519771978778,-0.08272923317498962
8445,8.0,300.74496,2402.7779,0.0,0.0,0.0,-0.08564195831224583,0.0,0.0,-0.1769051588091798,-0.2878492053210047,-0.26563010997315073,-0.8108232989970293,-0.2222045006323768,-0.05246479828412245
8446,8.0,300.02296,2137.636,0.0,0.0,0.0,-0.08565209945591809,0.0,0.0,-0.16537655115889485,-0.2220248817871498,-0.26238653428303477,-0.7766364230080472,-0.23405736857966375,-0.039521687414736856
8447,8.0,299.77398999999997,1989.4491,0.0,0.0,0.0,-0.08566224059959035,0.0,0.0,-0.1211162973132479,-0.25846631017613875,-0.22516025249908678,-0.7872413214696692,-0.1879351156877518,-0.04369956379681116
8448,8.0,298.94761,2145.4534,0.0,0.0,0.0,-0.08567238174326261,0.0,0.0,-0.11825925627127988,-0.24831748571702777,-0.2855875297727947,-0.8037677447082002,-0.20091472787873982,-0.060124428977819146
8449,8.0,298.87408999999997,2262.1169,0.0,0.0,0.0,-0.08568252288693487,0.0,0.0,-0.15449458958992884,-0.24043219105380975,-0.2927002718972677,-0.8295160306843582,-0.17832774168457782,-0.08407885191068662
8450,8.0,299.50968,2128.3786,0.0,0.0,0.0,-0.08569266403060713,0.0,0.0,-0.13565528114313388,-0.26564591667471077,-0.24567275096851274,-0.7916029173201252,-0.16688069053484186,-0.1000334950780373
8451,8.0,300.63749,1917.273,0.0,0.0,0.0,-0.0857028051742794,0.0,0.0,-0.15022007245306687,-0.1941554276541488,-0.23842761758597378,-0.7890259791358013,-0.15507485765719686,-0.07731189151533963
8452,8.0,300.19288,1820.1753,0.0,0.0,0.0,-0.08571294631795165,0.0,0.0,-0.11352129880367988,-0.2136232754029758,-0.22614326721610276,-0.7741669501293293,-0.20752599226372082,-0.05275551493656395
8453,8.0,300.9153,1944.1814,0.0,0.0,0.0,-0.08572308746162392,0.0,0.0,-0.1021037332318539,-0.2256168432591488,-0.2632620127669377,-0.8213252613809922,-0.22325751066630078,-0.05006095260113136
8454,8.0,301.19065,2250.9882,0.0,0.0,0.0,-0.08573322860529617,0.0,0.0,-0.13916489577950586,-0.24744348657827075,-0.2976358333993697,-0.7922766273116153,-0.24841991516963674,-0.04335171605073126
8455,8.0,300.84037,2190.4261,0.0,0.0,0.0,-0.08574336974896844,0.0,0.0,-0.15908794613575786,-0.2393463821141488,-0.2674005010778747,-0.8045707352799493,-0.1986645121891608,-0.06685616272018953
8456,8.0,300.7692,1994.3214,0.0,0.0,0.0,-0.08575351089264069,0.0,0.0,-0.14041291592767585,-0.19708241335051982,-0.26872857811644574,-0.7815361053241082,-0.2039172615025668,-0.04412373258017336
8457,8.0,299.39142999999996,2055.1098,0.0,0.0,0.0,-0.08576365203631296,0.0,0.0,-0.16671030239802584,-0.2057217484731558,-0.2522699919721098,-0.8408724060826452,-0.17102982810432985,-0.03835059118765867
8458,8.0,299.71442,2359.0399,0.0,0.0,0.0,-0.08577379317998521,0.0,0.0,-0.17815339173987083,-0.24866739137406077,-0.29026843112726375,-0.7976081568202963,-0.18688102147622082,-0.025092123449899775
8459,8.0,299.59187000000003,2194.5595,0.0,0.0,0.0,-0.08578393432365748,0.0,0.0,-0.14743051386775888,-0.2164399485609598,-0.3032208071555637,-0.7809343462222192,-0.19160324316976782,-0.035418524042036166
8460,8.0,299.8079,2060.2185,0.0,0.0,0.0,-0.08579407546732973,0.0,0.0,-0.13429944105182287,-0.24616803774989376,-0.24578750154233775,-0.7856086107885333,-0.20686466418845278,-0.05684045095321575
8461,8.0,299.59458,2188.678,0.0,0.0,0.0,-0.085804216611002,0.0,0.0,-0.15243632399929385,-0.26416032990809474,-0.24870680680295074,-0.8179428298971723,-0.21561198137424578,-0.07155004988794014
8462,8.0,299.85233,2209.9298,0.0,0.0,0.0,-0.08581435775467426,0.0,0.0,-0.17235880693548983,-0.23833584752441675,-0.2610688227929867,-0.7947048811762653,-0.1911391644914668,-0.08275187830147451
8463,8.0,301.22396000000003,2242.0409,0.0,0.0,0.0,-0.08582449889834652,0.0,0.0,-0.15383447741478085,-0.25830184955240776,-0.26938813300403874,-0.8183071338381263,-0.14758189343269887,-0.06527672163656084
8464,8.0,301.37539,2073.9604,0.0,0.0,0.0,-0.08583464004201878,0.0,0.0,-0.12971987483985487,-0.20689205233865582,-0.29382023749779973,-0.7807677273757753,-0.1952849887331278,-0.036703551123608465
8465,8.0,300.13192000000004,1816.7383,0.0,0.0,0.0,-0.08584478118569104,0.0,0.0,-0.05814500336421504,-0.23369914413930978,-0.26039894288687476,-0.8294764531354522,-0.20860077704229382,-0.04323351130731536
8466,8.0,300.3032,1977.0589,0.0,0.0,0.0,-0.0858549223293633,0.0,0.0,-0.1092718697392939,-0.2485299845279998,-0.24317470443697478,-0.8029725764272232,-0.21336867605034882,-0.06296904858681124
8467,8.0,300.92651,2251.7322,0.0,0.0,0.0,-0.08586506347303556,0.0,0.0,-0.15408452727445884,-0.24857201414214777,-0.2818138013653567,-0.8104658344942502,-0.18055316314420983,-0.06445196037316324
8468,8.0,299.76276,2154.1877,0.0,0.0,0.0,-0.08587520461670782,0.0,0.0,-0.16992271051506583,-0.25496430504801776,-0.2299322653025478,-0.7922781269217632,-0.18055279837417385,-0.0897867531690126
8469,8.0,300.54789,2073.4378,0.0,0.0,0.0,-0.08588534576038008,0.0,0.0,-0.15407847817136183,-0.23398913631792975,-0.24220571310134278,-0.8070607771356972,-0.17989491534924584,-0.06044706300841064
8470,8.0,300.06356,2090.2415,0.0,0.0,0.0,-0.08589548690405234,0.0,0.0,-0.13953799473132789,-0.2367872872640858,-0.25905595080683175,-0.7865127237202623,-0.17493976772271083,-0.060421591927396844
8471,8.0,299.65582,2221.87,0.0,0.0,0.0,-0.08590562804772461,0.0,0.0,-0.14475304100851286,-0.24540969097755075,-0.28523026792003575,-0.7977812908648833,-0.18306374357948482,-0.026344876489286875
8472,8.0,300.11088,2309.6217,0.0,0.0,0.0,-0.08591576919139686,0.0,0.0,-0.19021523238778182,-0.22350667899839177,-0.2883454141599767,-0.7971192636470462,-0.2366043854885348,-0.033751566520770264
8473,8.0,300.9652,2205.806,0.0,0.0,0.0,-0.08592591033506913,0.0,0.0,-0.16837856802517084,-0.2538726699202818,-0.24825871721122778,-0.8093137286005462,-0.23760846567512978,-0.04306261147919886
8474,8.0,301.62145,1952.4184,0.0,0.0,0.0,-0.08593605147874138,0.0,0.0,-0.17607078788183383,-0.18642407607862382,-0.23099158788459478,-0.8090700115539933,-0.22254910699138677,-0.04430072305464095
8475,8.0,301.44649,2129.9047,0.0,0.0,0.0,-0.08594619262241365,0.0,0.0,-0.15410995985196885,-0.22884312277005778,-0.26448477259011477,-0.7892726447401452,-0.19027291671597482,-0.04609191821041816
8476,8.0,300.84732,2223.2204,0.0,0.0,0.0,-0.08595633376608591,0.0,0.0,-0.14381780103371186,-0.25034406697703576,-0.2816416299083647,-0.8130186167961903,-0.18705511810840283,-0.055911900455574946
8477,8.0,299.84435,2230.8821,0.0,0.0,0.0,-0.08596647490975817,0.0,0.0,-0.1418731410442889,-0.24378052667176478,-0.2924787956904097,-0.7907259797560783,-0.2017462617058058,-0.05384396136623524
8478,8.0,300.01968,2057.478,0.0,0.0,0.0,-0.08597661605343043,0.0,0.0,-0.12584706070513788,-0.25145403179908077,-0.2481208341376198,-0.8161952470521993,-0.18893045152598384,-0.07797487726777123
8479,8.0,299.2715,2058.1249,0.0,0.0,0.0,-0.08598675719710269,0.0,0.0,-0.15063269829128983,-0.24442105272247977,-0.2305648170749758,-0.7743936344417012,-0.2072402861330238,-0.09756471120938731
8480,8.0,299.64589,2170.3643,0.0,0.0,0.0,-0.08599689834077495,0.0,0.0,-0.17366358935426185,-0.24487229352201376,-0.2412006804596538,-0.7902642720830112,-0.22837931766928377,-0.07905557030767733
8481,8.0,299.93202,2169.7801,0.0,0.0,0.0,-0.08600703948444723,0.0,0.0,-0.14523346341092686,-0.2502280599730868,-0.26409745773938975,-0.7965625131145992,-0.20295803789789882,-0.08320594201578713
8482,8.0,300.39378,1943.779,0.0,0.0,0.0,-0.08601718062811947,0.0,0.0,-0.0973771910398805,-0.21380788957119579,-0.27967519517429273,-0.8025331501238552,-0.16683720184054984,-0.05463110470642024
8483,8.0,300.71779,1697.251,0.0,0.0,0.0,-0.08602732177179175,0.0,0.0,-0.0957455047545956,-0.2030181844238348,-0.2171582415568498,-0.8129609527329993,-0.16407218417266384,-0.06481866065060374
8484,8.0,300.43151,1801.2857,0.0,0.0,0.0,-0.08603746291546399,0.0,0.0,-0.12192248975531289,-0.19979106391534282,-0.22583232102541476,-0.8351248867454091,-0.1906247576806988,-0.03630085513636547
8485,8.0,300.5244,2145.98,0.0,0.0,0.0,-0.08604760405913627,0.0,0.0,-0.16228853975663185,-0.2400341458845258,-0.25000163910574075,-0.8124918179366992,-0.2297087018004838,-0.07256371947348153
8486,8.0,300.88072999999997,2552.8337,0.0,0.0,0.0,-0.08605774520280852,0.0,0.0,-0.1998000919737338,-0.2795207758590527,-0.2966768225772227,-0.7962639792376363,-0.19846709053967682,-0.05681011120547144
8487,8.0,300.22527,2271.5326,0.0,0.0,0.0,-0.08606788634648078,0.0,0.0,-0.14671198782434586,-0.24687342193950976,-0.29690378046712174,-0.7609599950134043,-0.2160816937231028,-0.08676298486283991
8488,8.0,299.45492,1988.0532,0.0,0.0,0.0,-0.08607802749015304,0.0,0.0,-0.1145660913792929,-0.22744523279959677,-0.2623072271977077,-0.7895902175864873,-0.19701634944399982,-0.04367056356569905
8489,8.0,299.25729,2122.8471,0.0,0.0,0.0,-0.0860881686338253,0.0,0.0,-0.15816102494427783,-0.20536118342507081,-0.2817703025385637,-0.8063605807865932,-0.20859455568667976,-0.04674032937341136
8490,8.0,300.10696,2383.0218,0.0,0.0,0.0,-0.08609830977749756,0.0,0.0,-0.21081066537789278,-0.2052346284875808,-0.3083338292801797,-0.8014839093803032,-0.18120716542125484,-0.006653222767646963
8491,8.0,298.99914,2131.8992,0.0,0.0,0.0,-0.08610845092116984,0.0,0.0,-0.16635037569750383,-0.23995363303157977,-0.24174010441539076,-0.8115264540364252,-0.19836524877212583,-0.056422568373473946
8492,8.0,300.03584,1945.0597,0.0,0.0,0.0,-0.08611859206484208,0.0,0.0,-0.15484359345437285,-0.1970588046231898,-0.23934718258172774,-0.7994428690413683,-0.20408039476866682,-0.029118529074525074
8493,8.0,300.37889,2018.6836,0.0,0.0,0.0,-0.08612873320851436,0.0,0.0,-0.0996687382142886,-0.24652194574482175,-0.2674387310041477,-0.8021695959879752,-0.2342210388683168,-0.05634826269064055
8494,8.0,300.84047000000004,2212.5834,0.0,0.0,0.0,-0.0861388743521866,0.0,0.0,-0.12199483581245289,-0.2683351736326198,-0.28224009594742877,-0.7963367913898222,-0.18465750492677682,-0.05659366679861004
8495,8.0,300.63999,2375.5525,0.0,0.0,0.0,-0.08614901549585888,0.0,0.0,-0.15398955534258585,-0.26121700048761076,-0.30690207649137674,-0.8098650379799562,-0.2042291804133508,-0.07032914633894634
8496,8.0,300.79862,2125.388,0.0,0.0,0.0,-0.08615915663953114,0.0,0.0,-0.14190516987994986,-0.2523149296140448,-0.25184479170014573,-0.8256426693945873,-0.18842257004585983,-0.06172867341064574
8497,8.0,299.46107,1616.4644,0.0,0.0,0.0,-0.0861692977832034,0.0,0.0,-0.08360512303843322,-0.2024193840122378,-0.2053403104730108,-0.8130167625485072,-0.1981913547899638,-0.08106908874739611
8498,8.0,300.52204,1950.6673,0.0,0.0,0.0,-0.08617943892687566,0.0,0.0,-0.12376367664452387,-0.2196728749925248,-0.24951759940046978,-0.7915116133536142,-0.14113830167426586,-0.08401250125438833
8499,8.0,300.04292000000004,2235.6863,0.0,0.0,0.0,-0.08618958007054792,0.0,0.0,-0.13153161668115987,-0.23594498258845675,-0.3121162007109707,-0.7839928821790733,-0.18059152479299584,-0.08619777977155851
8500,8.0,299.69968,2106.6339,0.0,0.0,0.0,-0.08619972121422018,0.0,0.0,-0.13850452015933187,-0.22316290350446377,-0.27869667928772074,-0.8112176559359493,-0.20339449537847382,-0.07029641633421613
8501,8.0,299.92569,1888.2869,0.0,0.0,0.0,-0.08620986235789245,0.0,0.0,-0.12098661143294889,-0.2131792590766548,-0.23982618643400178,-0.8127218054443972,-0.2261913256683458,-0.03955895272691466
8502,8.0,299.45396,2087.3229,0.0,0.0,0.0,-0.0862200035015647,0.0,0.0,-0.17293892301524283,-0.23712291622720977,-0.2244321917722328,-0.8096489319986282,-0.16758880036722684,-0.05157592463389745
8503,8.0,299.64484,2515.9263,0.0,0.0,0.0,-0.08623014464523697,0.0,0.0,-0.2053580930122658,-0.25748362983165574,-0.3019370496763667,-0.8035227914965253,-0.1953500596545498,-0.03914719828377766
8504,8.0,300.55881,2481.437,0.0,0.0,0.0,-0.08624028578890922,0.0,0.0,-0.2007560225155768,-0.2620978694620458,-0.2914409945404867,-0.8366837112292532,-0.19174545282130281,-0.06332826601226324
8505,8.0,300.49807000000004,2211.4362,0.0,0.0,0.0,-0.08625042693258149,0.0,0.0,-0.11137191163155188,-0.2559939394021347,-0.3048555342043987,-0.7949881555067223,-0.22949976962986376,-0.03907118628777586
8506,8.0,301.38749,2054.119,0.0,0.0,0.0,-0.08626056807625376,0.0,0.0,-0.13204721912704587,-0.2085063927954788,-0.28384728285854577,-0.8246135112680172,-0.19662036117241882,-0.030083350885995574
8507,8.0,300.85713,2154.5757,0.0,0.0,0.0,-0.08627070921992601,0.0,0.0,-0.14926546926885487,-0.23892370483493375,-0.26674804907348276,-0.8012157831388412,-0.20616835871973282,-0.03563122145002777
8508,8.0,299.90296,2258.2366,0.0,0.0,0.0,-0.08628085036359828,0.0,0.0,-0.19011158703505282,-0.2174486289030088,-0.27888733242653674,-0.8487461294297212,-0.2077944731427178,-0.03322968293751437
8509,8.0,301.32686,2272.4915,0.0,0.0,0.0,-0.08629099150727053,0.0,0.0,-0.18418556342769982,-0.2313845262733748,-0.27521059231867073,-0.7937378960758312,-0.17936660674710583,-0.04220545154385376
8510,8.0,299.36043,1874.68,0.0,0.0,0.0,-0.0863011326509428,0.0,0.0,-0.11189024985270789,-0.24121649729371478,-0.2167491620939768,-0.8156273305036502,-0.16472833453992083,-0.09405573897357872
8511,8.0,299.65096,1906.4507,0.0,0.0,0.0,-0.08631127379461506,0.0,0.0,-0.09093165282800542,-0.22838566061490978,-0.26019611048185676,-0.7406550912244664,-0.1982455940678168,-0.08452419660788871
8512,8.0,300.51786,2389.6902,0.0,0.0,0.0,-0.08632141493828732,0.0,0.0,-0.16163904644253185,-0.2921980848827057,-0.27256901891046775,-0.8271078594366902,-0.2332067653857158,-0.07288506262344563
8513,8.0,300.50883,2205.3346,0.0,0.0,0.0,-0.08633155608195958,0.0,0.0,-0.14728801037369485,-0.2587137357180578,-0.26436490510328475,-0.7778429910946263,-0.2436440824132988,-0.06541305342426575
8514,8.0,299.5975,1879.9409,0.0,0.0,0.0,-0.08634169722563183,0.0,0.0,-0.14306477382439386,-0.21953982512189382,-0.20885049252943882,-0.8339018128147012,-0.18091291759221484,-0.059909790182635946
8515,8.0,300.6785,1950.9348,0.0,0.0,0.0,-0.0863518383693041,0.0,0.0,-0.1098452882358859,-0.24603141110640978,-0.23715876501574776,-0.7947857587992472,-0.16151919922070385,-0.07246683249891953
8516,8.0,298.66944,2112.4872,0.0,0.0,0.0,-0.08636197951297638,0.0,0.0,-0.13235626040754586,-0.24125334919985178,-0.26853374025471677,-0.8536520027038932,-0.17923482343909983,-0.058441398270216945
8517,8.0,300.19432,2171.1023,0.0,0.0,0.0,-0.08637212065664862,0.0,0.0,-0.0979440943383295,-0.2500145073820108,-0.3120022911347287,-0.8336860817359102,-0.2010524386998308,-0.07405900912305513
8518,8.0,300.11756,2184.201,0.0,0.0,0.0,-0.0863822618003209,0.0,0.0,-0.14305812690373787,-0.24409503950280476,-0.2767893980944867,-0.7959369021053563,-0.1898614459828658,-0.049325077689506155
8519,8.0,300.3943,1872.9541,0.0,0.0,0.0,-0.08639240294399314,0.0,0.0,-0.1272665025052259,-0.1984068122912278,-0.2436579538071678,-0.7730641996479962,-0.2360416061179928,-0.059024185277233535
8520,8.0,299.86318,1911.8062,0.0,0.0,0.0,-0.08640254408766541,0.0,0.0,-0.16156453203017784,-0.2074886134675318,-0.2120881913689748,-0.7943342444221863,-0.24002181463080877,-0.030654934386656472
8521,8.0,301.34424,2420.3771,0.0,0.0,0.0,-0.08641268523133767,0.0,0.0,-0.1985415137595218,-0.26532667196570375,-0.2718660361235888,-0.8087418907741103,-0.23856221772925776,-0.06221588864173014
8522,8.0,299.36054,2505.1171,0.0,0.0,0.0,-0.08642282637500993,0.0,0.0,-0.19977122447838483,-0.23085938914404777,-0.3308624421360807,-0.8002486663158942,-0.16321546094811185,-0.02106598025705038
8523,8.0,300.08168,2187.8727,0.0,0.0,0.0,-0.0864329675186822,0.0,0.0,-0.12018039872588188,-0.2725934078403747,-0.2722848630524238,-0.8028089973310792,-0.17780788358827182,-0.0922637088997191
8524,8.0,299.93976000000004,1991.1367,0.0,0.0,0.0,-0.08644310866235445,0.0,0.0,-0.13429692819157488,-0.1929380988515078,-0.27802082120601873,-0.8034603246278602,-0.2162314419553818,-0.006290507704174774
8525,8.0,300.16487,2303.2882,0.0,0.0,0.0,-0.08645324980602671,0.0,0.0,-0.16128269651486285,-0.25669552390387573,-0.2821638792749067,-0.8247452540460192,-0.2299307758249008,-0.044715942813119955
8526,8.0,299.85052,2381.7591,0.0,0.0,0.0,-0.08646339094969899,0.0,0.0,-0.2090293311720888,-0.2584910436110797,-0.2564749292246048,-0.7984247249433852,-0.2014282531619208,-0.03021733598646887
8527,8.0,300.39819,2179.0085,0.0,0.0,0.0,-0.08647353209337123,0.0,0.0,-0.16128606050519487,-0.20917427659889382,-0.29190384718616674,-0.8027846185336732,-0.1762161690061818,-0.07725595808331942
8528,8.0,300.19354,2027.476,0.0,0.0,0.0,-0.0864836732370435,0.0,0.0,-0.1202461485248709,-0.2545829075778767,-0.2414730218215318,-0.8053630664606463,-0.2024895819791658,-0.07010080434941074
8529,8.0,302.15317999999996,1926.2706,0.0,0.0,0.0,-0.08649381438071575,0.0,0.0,-0.09404488199875721,-0.2196818321234088,-0.27181143207569974,-0.8250084356269932,-0.1927622391641518,-0.09222968598786133
8530,8.0,301.13761,2161.4973,0.0,0.0,0.0,-0.08650395552438803,0.0,0.0,-0.13499362882783386,-0.24419208859738276,-0.27785547905470076,-0.8016762343817843,-0.15089220177440085,-0.06182322585697734
8531,8.0,301.09346,2243.2864,0.0,0.0,0.0,-0.08651409666806029,0.0,0.0,-0.16763227892901786,-0.2502005097028677,-0.26407025197420475,-0.7853311727786523,-0.17962998084559884,-0.06930751362086902
8532,8.0,300.07139,1983.4521,0.0,0.0,0.0,-0.08652423781173255,0.0,0.0,-0.16508140153726583,-0.20487031441412581,-0.23296820578217178,-0.7932886209814912,-0.22127144927779177,-0.013654265518321088
8533,8.0,300.71764,1800.8296,0.0,0.0,0.0,-0.0865343789554048,0.0,0.0,-0.09936292920160761,-0.23835293092110277,-0.2096913786549278,-0.8109539474649232,-0.22353941710912278,-0.06971888505546824
8534,8.0,300.3306,2366.8571,0.0,0.0,0.0,-0.08654452009907707,0.0,0.0,-0.14950367423486385,-0.26270512037947674,-0.3072566532313707,-0.7691423847384432,-0.17991512968874082,-0.059923735543762235
8535,8.0,301.25813,2578.6841,0.0,0.0,0.0,-0.08655466124274933,0.0,0.0,-0.18595581267740982,-0.2696915102164797,-0.3282082436316317,-0.8105172062743202,-0.18745104558497783,-0.07104942226528203
8536,8.0,299.46691,2137.8334,0.0,0.0,0.0,-0.0865648023864216,0.0,0.0,-0.16284074079612984,-0.23792577507644577,-0.24908146615992674,-0.7981032105541542,-0.22123351319404777,-0.04087707154350286
8537,8.0,299.90053,1914.5327,0.0,0.0,0.0,-0.08657494353009385,0.0,0.0,-0.13108369934195388,-0.20360220151647282,-0.2472842441925548,-0.8105657916166152,-0.23114337274957478,-0.04142447281727716
8538,8.0,300.06571,1927.9171,0.0,0.0,0.0,-0.08658508467376612,0.0,0.0,-0.15562635955412588,-0.19375151576678581,-0.23666079312160176,-0.8110798133923453,-0.20398304169905881,-0.026131687654996773
8539,8.0,299.37295,2205.911,0.0,0.0,0.0,-0.08659522581743836,0.0,0.0,-0.13712939791861786,-0.26866928272059376,-0.2647431918956188,-0.8072183679237502,-0.1939080629072358,-0.06771340168904244
8540,8.0,298.26828,2294.1887,0.0,0.0,0.0,-0.08660536696111064,0.0,0.0,-0.1795472287099318,-0.21896142143480982,-0.2988674287634187,-0.8286174298331732,-0.2327974326103178,-0.056594249417417544
8541,8.0,299.98118,2158.2186,0.0,0.0,0.0,-0.0866155081047829,0.0,0.0,-0.12942506972325987,-0.2519778111732738,-0.2746416827850237,-0.8172407894328862,-0.17816631067864583,-0.06070742066135594
8542,8.0,300.57141,1885.2353,0.0,0.0,0.0,-0.08662564924845516,0.0,0.0,-0.12772726785569988,-0.19310645035562282,-0.2522307183982338,-0.8056057803896003,-0.17964669947224882,-0.05310494031304955
8543,8.0,301.15917,2116.8302,0.0,0.0,0.0,-0.08663579039212742,0.0,0.0,-0.14319841138008285,-0.21138903866747383,-0.2888760633698477,-0.8183642710112652,-0.16591989639251883,-0.04615702256909346
8544,8.0,300.52722,2446.365,0.0,0.0,0.0,-0.08664593153579968,0.0,0.0,-0.2009903973962078,-0.2577811504585188,-0.2848623365437237,-0.8169121721604542,-0.2468364383108598,-0.015525944142791384
8545,8.0,299.9308,2168.4628,0.0,0.0,0.0,-0.08665607267947194,0.0,0.0,-0.12699845732377188,-0.25111091491771775,-0.28104918257489475,-0.7977271731770422,-0.2326342588142138,-0.05909809680577804
8546,8.0,299.26836000000003,1871.2632,0.0,0.0,0.0,-0.08666621382314421,0.0,0.0,-0.1014029795951949,-0.23694989364013375,-0.23046441412256677,-0.7904409221054453,-0.2184059982599938,-0.06916698292474972
8547,8.0,300.22202000000004,1964.9559,0.0,0.0,0.0,-0.08667635496681646,0.0,0.0,-0.11456140003132989,-0.25076384636096477,-0.23197228225888178,-0.7994899953035193,-0.1929160403968308,-0.09350522499549721
8548,8.0,300.29596000000004,2094.0592,0.0,0.0,0.0,-0.08668649611048873,0.0,0.0,-0.13298588388718488,-0.2265165282879408,-0.27703930609915073,-0.8284943402110252,-0.2174167925848668,-0.05014419211009646
8549,8.0,299.09617000000003,1922.2026,0.0,0.0,0.0,-0.08669663725416098,0.0,0.0,-0.12465322917231589,-0.2374855787030018,-0.2221627851257598,-0.8234101957142591,-0.17739048534207782,-0.07792394219849433
8550,8.0,298.94747,1972.475,0.0,0.0,0.0,-0.08670677839783324,0.0,0.0,-0.12197417564291389,-0.2190335749744308,-0.25857538654940376,-0.8040587906669242,-0.17865985466985482,-0.04455812911004496
8551,8.0,300.31182,2129.1339,0.0,0.0,0.0,-0.08671691954150552,0.0,0.0,-0.13971398614119687,-0.23314735853235277,-0.27434218632046575,-0.8026989482377183,-0.16605986676133283,-0.08175032110762852
8552,8.0,300.01419,2217.9325,0.0,0.0,0.0,-0.08672706068517777,0.0,0.0,-0.16208815941685584,-0.25153288292186277,-0.26057506601925673,-0.8257891346965422,-0.2230981466905728,-0.04950867556787585
8553,8.0,300.37921,2477.8694,0.0,0.0,0.0,-0.08673720182885004,0.0,0.0,-0.2019829163991618,-0.25603796511897975,-0.29518954368293976,-0.8006406623820812,-0.2023918540070208,-0.06756692118833595
8554,8.0,300.86593999999997,2521.7639,0.0,0.0,0.0,-0.08674734297252229,0.0,0.0,-0.19640915932157482,-0.25591467284681174,-0.3142294249870297,-0.8017844798899673,-0.20657209835457882,-0.04081339586746856
8555,8.0,300.5558,2141.2202,0.0,0.0,0.0,-0.08675748411619456,0.0,0.0,-0.15415611339402385,-0.2305065450617248,-0.2662147958108548,-0.8169487099590602,-0.17701617049013582,-0.038159512483800666
8556,8.0,300.34983,2042.6229999999998,0.0,0.0,0.0,-0.08676762525986682,0.0,0.0,-0.1164903343792009,-0.22818403397751078,-0.2762320294794787,-0.8010333879883402,-0.2284756169587878,-0.03016285454184197
8557,8.0,300.74277,2190.3175,0.0,0.0,0.0,-0.08677776640353907,0.0,0.0,-0.13637120313378986,-0.25658524176299174,-0.27284537274274173,-0.8160616804240172,-0.2053392465604058,-0.055318612124521944
8558,8.0,299.66647,2140.3559,0.0,0.0,0.0,-0.08678790754721134,0.0,0.0,-0.15044991810575087,-0.2342510412037778,-0.26591377947114675,-0.7926335142618373,-0.2205979014063178,-0.045280703087607455
8559,8.0,300.31293,2039.6724,0.0,0.0,0.0,-0.08679804869088359,0.0,0.0,-0.13935196201296787,-0.2398487920437328,-0.24080872492347077,-0.8456362622228011,-0.19454523510011984,-0.08064448527974102
8560,8.0,300.41289,2105.1932,0.0,0.0,0.0,-0.08680818983455586,0.0,0.0,-0.16216167071161086,-0.2247555502766458,-0.25300893500503774,-0.8022499467209053,-0.2147988785664988,-0.03870831305596307
8561,8.0,299.3756,2111.0092,0.0,0.0,0.0,-0.08681833097822811,0.0,0.0,-0.15489826842976884,-0.23262538274333777,-0.25417044385966975,-0.8580390412643603,-0.18156740622930784,-0.06873404040877164
8562,8.0,299.60344,2331.7309,0.0,0.0,0.0,-0.08682847212190038,0.0,0.0,-0.16076484465375485,-0.26296148278727777,-0.28506163270589274,-0.7931856038438242,-0.16559196813015484,-0.04001667427408826
8563,8.0,299.63919,2511.8706,0.0,0.0,0.0,-0.08683861326557263,0.0,0.0,-0.18046132215514582,-0.2701905358907297,-0.31289407281274073,-0.8507383716438401,-0.15506278984850586,-0.057236301422783145
8564,8.0,299.11505,2168.3204,0.0,0.0,0.0,-0.0868487544092449,0.0,0.0,-0.16698219792985985,-0.22884093414984177,-0.26329212655990974,-0.8084294855032782,-0.2276323800930668,-0.03831388721603626
8565,8.0,298.54912,1713.4293,0.0,0.0,0.0,-0.08685889555291718,0.0,0.0,-0.1134777391818809,-0.2059055621737968,-0.2014564316472018,-0.8203969824343782,-0.21523498140953878,-0.09174087083486901
8566,8.0,298.47249,1892.1981,0.0,0.0,0.0,-0.08686903669658942,0.0,0.0,-0.13587448766976787,-0.2180586257282108,-0.2212478506829628,-0.7825319984498953,-0.2186510426641778,-0.07036782310851343
8567,8.0,298.77909,2137.1248,0.0,0.0,0.0,-0.0868791778402617,0.0,0.0,-0.16178985858741585,-0.24976651442003575,-0.2380761920537908,-0.8112154166532283,-0.18791136510540782,-0.07027750706084994
8568,8.0,299.18941,1988.2639,0.0,0.0,0.0,-0.08688931898393394,0.0,0.0,-0.11390045699109988,-0.22878998793481378,-0.2616921235920018,-0.7952529076253513,-0.1909379330216068,-0.07626523557279272
8569,8.0,299.2432,1977.5925,0.0,0.0,0.0,-0.08689946012760622,0.0,0.0,-0.10222191872351791,-0.24207799292623775,-0.25683883799801976,-0.8231032619939672,-0.15473099097075985,-0.05891760453896484
8570,8.0,299.79524,2169.722,0.0,0.0,0.0,-0.08690960127127846,0.0,0.0,-0.16470855589796884,-0.22902508222301576,-0.2658076617881737,-0.7930368992591482,-0.18660880170435482,-0.07225660235492143
8571,8.0,299.61779,2413.0524,0.0,0.0,0.0,-0.08691974241495073,0.0,0.0,-0.1880341102225218,-0.24808768059434777,-0.29738587473220074,-0.8299571187178902,-0.21384551154740877,-0.045565036264418955
8572,8.0,299.63273,2380.4593,0.0,0.0,0.0,-0.08692988355862298,0.0,0.0,-0.2067068808828808,-0.25331083287233275,-0.26358246324356377,-0.8043485295330192,-0.2378301951945128,-0.06379930673200135
8573,8.0,300.659,2229.1244,0.0,0.0,0.0,-0.08694002470229525,0.0,0.0,-0.16299356930871284,-0.2284830744795238,-0.28612152270799573,-0.8127047119152102,-0.20104972318956282,-0.02857407129229127
8574,8.0,301.1816,1991.3162,0.0,0.0,0.0,-0.08695016584596751,0.0,0.0,-0.11764699989835488,-0.2149346743449008,-0.2727287273912297,-0.7906836562994013,-0.18568612603079382,-0.05347581112790165
8575,8.0,301.32576,2136.6414,0.0,0.0,0.0,-0.08696030698963976,0.0,0.0,-0.11924640504870389,-0.24472618285759376,-0.2855130356254427,-0.8227802581270892,-0.17714530921538083,-0.051045192337518246
8576,8.0,300.55818999999997,2358.5295,0.0,0.0,0.0,-0.08697044813331203,0.0,0.0,-0.17979177662156684,-0.24070375221311077,-0.29643855681620773,-0.8447415421194993,-0.22124875247555176,-0.03834814621516736
8577,8.0,299.7421,2219.4657,0.0,0.0,0.0,-0.08698058927698428,0.0,0.0,-0.15731144513293085,-0.24911332274307077,-0.2682373848654687,-0.8021924245127282,-0.2116988398855488,-0.08038707618458672
8578,8.0,300.45314,2058.2035,0.0,0.0,0.0,-0.08699073042065655,0.0,0.0,-0.15255401299840884,-0.2366756676330698,-0.23641277989462478,-0.8095071276471332,-0.2131629660150468,-0.05730374233618905
8579,8.0,299.04976,2124.7452,0.0,0.0,0.0,-0.0870008715643288,0.0,0.0,-0.14626961296318686,-0.2157489727877658,-0.28385089002890174,-0.7992260740499723,-0.18811655838315883,-0.06883550930028584
8580,8.0,299.54534,2172.4157,0.0,0.0,0.0,-0.08701101270800107,0.0,0.0,-0.15022572638862486,-0.2363052639265138,-0.2738291473973327,-0.8462742956782703,-0.2322031006316618,-0.05024037183608865
8581,8.0,299.719,2087.0262,0.0,0.0,0.0,-0.08702115385167335,0.0,0.0,-0.12625366783776687,-0.2275544510278758,-0.2805957328901427,-0.8170732181313483,-0.18611567314568683,-0.044403151493999864
8582,8.0,299.73779,2100.9753,0.0,0.0,0.0,-0.08703129499534559,0.0,0.0,-0.1343476818890839,-0.2319933477284608,-0.2723029900967127,-0.8187601883553393,-0.2027949451618028,-0.05973973945810324
8583,8.0,300.30064,2250.063,0.0,0.0,0.0,-0.08704143613901787,0.0,0.0,-0.16839769818705883,-0.24301765067147477,-0.27254761906835573,-0.7934601743559223,-0.18793816557055282,-0.03907196345060256
8584,8.0,300.95105,2126.6749,0.0,0.0,0.0,-0.08705157728269011,0.0,0.0,-0.15701974056164184,-0.2327068784488808,-0.25672942725222175,-0.8034007556544812,-0.22980906422288877,-0.08050352901857973
8585,8.0,299.59878,2144.8499,0.0,0.0,0.0,-0.08706171842636239,0.0,0.0,-0.1297030548881949,-0.25614485287202876,-0.26613289480527175,-0.7818834778558913,-0.2209856316895838,-0.07579542088567563
8586,8.0,300.76653999999996,2342.5201,0.0,0.0,0.0,-0.08707185957003465,0.0,0.0,-0.13355702257105187,-0.26571049110358375,-0.3128000938659657,-0.7917064816128463,-0.1990558496427828,-0.08607693247188182
8587,8.0,300.49838,2101.0519,0.0,0.0,0.0,-0.0870820007137069,0.0,0.0,-0.13993533062554186,-0.22672538953105378,-0.2720065840449597,-0.8089792243450332,-0.18360442396534582,-0.06182841471073944
8588,8.0,298.6653,1801.3234,0.0,0.0,0.0,-0.08709214185737917,0.0,0.0,-0.1033839949982059,-0.2046737742922288,-0.23949957539676778,-0.8132705209035512,-0.1984933641147698,-0.06914238323882194
8589,8.0,299.74875,2082.9062,0.0,0.0,0.0,-0.08710228300105143,0.0,0.0,-0.14344860309477486,-0.20922451353885183,-0.2804783681310597,-0.8225256486419612,-0.1921537318165968,-0.021944266456980478
8590,8.0,299.86893,2196.5812,0.0,0.0,0.0,-0.08711242414472369,0.0,0.0,-0.14730769782313785,-0.25600458866068576,-0.26439354968361173,-0.7862621064405282,-0.1887668724298398,-0.03196043722624957
8591,8.0,299.5766,2217.8613,0.0,0.0,0.0,-0.08712256528839596,0.0,0.0,-0.16166619141271085,-0.2268349725293688,-0.28567328112875773,-0.7925028353964403,-0.1987004623027088,-0.034079422842377166
8592,8.0,299.26936,2441.9667,0.0,0.0,0.0,-0.0871327064320682,0.0,0.0,-0.19544044156346985,-0.24398865837480577,-0.30286780095322474,-0.8164313748555032,-0.19781770868308782,-0.03358878282595477
8593,8.0,299.42683,2289.2634,0.0,0.0,0.0,-0.08714284757574048,0.0,0.0,-0.17102498476885183,-0.24399390701032378,-0.28086000878122475,-0.8340352071903663,-0.19587390995624981,-0.04492630569288116
8594,8.0,300.22536,2167.6529,0.0,0.0,0.0,-0.08715298871941272,0.0,0.0,-0.15768387533968684,-0.23805818659951378,-0.26317031363288773,-0.8323582478773632,-0.17244229874372982,-0.06901919026516373
8595,8.0,300.42253,2267.052,0.0,0.0,0.0,-0.087163129863085,0.0,0.0,-0.17121033860964485,-0.24420782437143576,-0.27370901646547674,-0.8345199967007112,-0.17449194157601383,-0.08141041318933222
8596,8.0,300.82498,2115.6033,0.0,0.0,0.0,-0.08717327100675726,0.0,0.0,-0.14933223231794385,-0.2582118830760287,-0.23554647132412676,-0.8311586712164741,-0.1980868481746498,-0.07444744361514062
8597,8.0,300.44324,1813.8766,0.0,0.0,0.0,-0.08718341215042952,0.0,0.0,-0.08066346649386433,-0.22805137927441876,-0.24265836231851576,-0.8294662801044482,-0.2150353407423358,-0.08514803037645632
8598,8.0,300.06138,1807.6528,0.0,0.0,0.0,-0.08719355329410178,0.0,0.0,-0.0970406906816705,-0.24387132401322575,-0.20856930549418778,-0.8093820216572862,-0.2092568564820438,-0.07162818261640123
8599,8.0,299.60641,2085.6799,0.0,0.0,0.0,-0.08720369443777404,0.0,0.0,-0.13642613142171087,-0.24546904716840878,-0.25209944171527776,-0.8038234025361932,-0.2201602280256228,-0.04743169018164336
8600,8.0,300.06633,2271.6772,0.0,0.0,0.0,-0.0872138355814463,0.0,0.0,-0.17226593243132382,-0.25159024301002375,-0.26667695944646674,-0.8088689523366502,-0.2034948476683778,-0.047028964810147456
8601,8.0,299.39333,2195.4621,0.0,0.0,0.0,-0.08722397672511857,0.0,0.0,-0.15412244309320083,-0.23209297047829278,-0.2811502238748667,-0.8390383119441343,-0.1931503342174538,-0.03695761851993296
8602,8.0,299.76024,2322.2821,0.0,0.0,0.0,-0.08723411786879082,0.0,0.0,-0.16086476124611584,-0.2626863955176288,-0.28236460411971676,-0.7888925037001282,-0.15952870992925786,-0.07197233605261653
8603,8.0,299.66093,2368.3616,0.0,0.0,0.0,-0.08724425901246309,0.0,0.0,-0.17079827005897683,-0.24957093688573379,-0.2995535814661367,-0.8176489772356713,-0.17024483285435685,-0.04572418137812536
8604,8.0,299.3622,2338.2484,0.0,0.0,0.0,-0.08725440015613534,0.0,0.0,-0.18441709107554982,-0.25865271779703575,-0.26769931866486574,-0.7975465714792183,-0.1842503506390938,-0.09117908647592522
8605,8.0,299.96782,2259.7785,0.0,0.0,0.0,-0.08726454129980761,0.0,0.0,-0.1793370502416888,-0.2289659084171758,-0.27861327867198976,-0.8142752698352123,-0.2203866792904718,-0.04965978560828925
8606,8.0,299.52992,2005.3987,0.0,0.0,0.0,-0.08727468244347987,0.0,0.0,-0.13639984771411687,-0.24586704167518775,-0.22732425073765677,-0.8112807510196762,-0.1978066135944928,-0.09426915477589122
8607,8.0,300.1739,1816.0794,0.0,0.0,0.0,-0.08728482358715213,0.0,0.0,-0.0982438542479135,-0.20878476299545182,-0.24501415866851478,-0.8228839541423232,-0.2096400778023648,-0.04733685301203366
8608,8.0,299.91058,2128.7119,0.0,0.0,0.0,-0.08729496473082439,0.0,0.0,-0.11892529595951289,-0.24264200846190176,-0.2855079491099407,-0.8140515442131322,-0.19276963588988183,-0.06275648695433303
8609,8.0,300.26732000000004,2281.6949,0.0,0.0,0.0,-0.08730510587449665,0.0,0.0,-0.13672687418389187,-0.25096344649816377,-0.3058879651287917,-0.8142085067861232,-0.20071746834927182,-0.03048866713799717
8610,8.0,299.73159,2067.6601,0.0,0.0,0.0,-0.08731524701816891,0.0,0.0,-0.12367740853100989,-0.24836512873672975,-0.25647449352706175,-0.8276050409957582,-0.2124976153368818,-0.04930915446418466
8611,8.0,299.5064,2328.7763,0.0,0.0,0.0,-0.08732538816184118,0.0,0.0,-0.15474078909922687,-0.27371798372886175,-0.2794310626951987,-0.8100300558912422,-0.2277721072818568,-0.030974854933480175
8612,8.0,299.75177,2395.6844,0.0,0.0,0.0,-0.08733552930551343,0.0,0.0,-0.19918120894515481,-0.24650069789022477,-0.2825463305251517,-0.8315394303390522,-0.2233379323267378,-0.06446226917968065
8613,8.0,299.86512999999997,2241.0085,0.0,0.0,0.0,-0.0873456704491857,0.0,0.0,-0.15550998778014086,-0.24112798989747977,-0.28457263820763273,-0.7920993288091173,-0.21091886022357081,-0.04659459361152836
8614,8.0,300.23062999999996,2148.8232,0.0,0.0,0.0,-0.08735581159285795,0.0,0.0,-0.1203191227970729,-0.2457103324147218,-0.2871591414729007,-0.8227559907871942,-0.18622366534134482,-0.08155656742350652
8615,8.0,300.13317,2117.7313,0.0,0.0,0.0,-0.08736595273653022,0.0,0.0,-0.1264730668819199,-0.22275571881927778,-0.29450863961573975,-0.8055436782909713,-0.2023735141802108,-0.04284894135111126
8616,8.0,300.80871,1907.4804,0.0,0.0,0.0,-0.0873760938802025,0.0,0.0,-0.13116350291982987,-0.20838400231589982,-0.24027892684368377,-0.8288469816433283,-0.19579521082098283,-0.07559449541734584
8617,8.0,301.54326000000003,2077.4065,0.0,0.0,0.0,-0.08738623502387474,0.0,0.0,-0.15198753526500186,-0.2141182886068298,-0.2653738894203637,-0.8049025442901963,-0.22697002863519777,-0.04242014505454236
8618,8.0,300.15741,2161.4445,0.0,0.0,0.0,-0.087396376167547,0.0,0.0,-0.16402984045098484,-0.23675263411066577,-0.2562426720366827,-0.8209990353787963,-0.20905854317247177,-0.08305426050231732
8619,8.0,299.65013,2104.2702,0.0,0.0,0.0,-0.08740651731121926,0.0,0.0,-0.13689517502550186,-0.23560447989235178,-0.26714595238775274,-0.8029799630204522,-0.2217458833721148,-0.05066036906878915
8620,8.0,299.87582000000003,2129.3262,0.0,0.0,0.0,-0.08741665845489152,0.0,0.0,-0.11373642193241089,-0.2562604748409398,-0.27726509875143474,-0.8231502464011042,-0.2051503260792608,-0.07560780952365984
8621,8.0,299.6222,2239.6367,0.0,0.0,0.0,-0.0874267995985638,0.0,0.0,-0.16125799347742487,-0.22773616730080978,-0.29179948242586673,-0.7859013590074252,-0.18317669056813182,-0.02701214626314127
8622,8.0,299.01493,2332.8624,0.0,0.0,0.0,-0.08743694074223604,0.0,0.0,-0.15980121341115183,-0.2509104636504348,-0.2984202206992827,-0.8087436031667793,-0.16785012770051783,-0.04330886266425196
8623,8.0,300.18461,2203.665,0.0,0.0,0.0,-0.08744708188590831,0.0,0.0,-0.17431086365064283,-0.2231444623526438,-0.27240381861416374,-0.7724288513052923,-0.2045416059491848,-0.043064513349636555
8624,8.0,298.83983,2158.3392,0.0,0.0,0.0,-0.08745722302958056,0.0,0.0,-0.16579666491535683,-0.23408822204520877,-0.25619634624211074,-0.8133905403778963,-0.2065637795712578,-0.06879977298250893
8625,8.0,299.55735,2189.0488,0.0,0.0,0.0,-0.08746736417325283,0.0,0.0,-0.16821367170389684,-0.21747833739594077,-0.27972416555162577,-0.7979891895204013,-0.2194621189717248,-0.06704236667781643
8626,8.0,298.69899,1975.5425,0.0,0.0,0.0,-0.08747750531692511,0.0,0.0,-0.12119814765632587,-0.22209309378388178,-0.25722432899856473,-0.8250686328154342,-0.18167829632025184,-0.08144235387223452
8627,8.0,298.55938,2012.0325,0.0,0.0,0.0,-0.08748764646059735,0.0,0.0,-0.12318387467230188,-0.22892348363548876,-0.25950027110818275,-0.8220779744827792,-0.17476737335069684,-0.07211767563371042
8628,8.0,298.16875,2104.123,0.0,0.0,0.0,-0.08749778760426963,0.0,0.0,-0.1231220664162019,-0.24612876417601776,-0.27035002145646975,-0.8276135928266022,-0.1966675684945778,-0.045009306074822654
8629,8.0,299.07687000000004,2124.6457,0.0,0.0,0.0,-0.08750792874794187,0.0,0.0,-0.15106597416655085,-0.24908527598030275,-0.24568798011751578,-0.8229357413549342,-0.2064384506663888,-0.06061840360032064
8630,8.0,298.85392,2294.1452,0.0,0.0,0.0,-0.08751806989161415,0.0,0.0,-0.16455385287270083,-0.25806755573178475,-0.27474146765487173,-0.8154297669991522,-0.2032486582915808,-0.06307230181175154
8631,8.0,300.42287999999996,2482.4033,0.0,0.0,0.0,-0.08752821103528641,0.0,0.0,-0.18360340058274482,-0.2745571979916857,-0.2964280190151677,-0.8010397410664672,-0.23294618785749877,-0.05144431053865815
8632,8.0,300.97278,2226.4878,0.0,0.0,0.0,-0.08753835217895867,0.0,0.0,-0.16246936436947784,-0.24905711776002376,-0.26527022380263277,-0.8171901269278862,-0.2039551469238058,-0.041371015768501364
8633,8.0,301.10422,1935.5303,0.0,0.0,0.0,-0.08754849332263093,0.0,0.0,-0.13251788393099687,-0.2048816020202398,-0.2509533747921698,-0.8156102268419622,-0.19066704060737183,-0.03751616554480726
8634,8.0,300.17899,2074.5027,0.0,0.0,0.0,-0.08755863446630319,0.0,0.0,-0.13260913723500287,-0.22711700056220277,-0.27087089280287574,-0.8143436642169621,-0.1827373149272688,-0.054654814758760245
8635,8.0,299.7476,2163.1098,0.0,0.0,0.0,-0.08756877560997545,0.0,0.0,-0.16401276718679986,-0.2203700113263268,-0.2731485777026657,-0.8174527005588003,-0.18829073607534882,-0.05245010818417266
8636,8.0,299.82901,2118.8224,0.0,0.0,0.0,-0.08757891675364772,0.0,0.0,-0.15538269317007786,-0.23849120916224975,-0.25019519013984276,-0.7963088358195632,-0.2045629956587958,-0.0991537021752085
8637,8.0,299.33524,2077.6691,0.0,0.0,0.0,-0.08758905789731997,0.0,0.0,-0.14570614458257689,-0.24507072842159774,-0.2407826539983978,-0.7945570885166793,-0.22420947940025276,-0.09361737759606581
8638,8.0,298.62195,2035.5582,0.0,0.0,0.0,-0.08759919904099224,0.0,0.0,-0.14461756947014287,-0.2245523328365898,-0.24958897273751376,-0.7949210378200983,-0.2246183055506008,-0.08407516469357272
8639,8.0,300.21682000000004,2069.1337,0.0,0.0,0.0,-0.08760934018466449,0.0,0.0,-0.13728342206631888,-0.23897452945994976,-0.25270700674023977,-0.8245906624782622,-0.2354745508320288,-0.06739572549119023
8640,8.0,301.09002999999996,2088.3251,0.0,0.0,0.0,-0.08761948132833676,0.0,0.0,-0.1267026896195819,-0.2312051100781678,-0.27689089535700373,-0.8355182506992311,-0.1970535863851748,-0.04372237104331205
8641,8.0,300.70586000000003,2069.3492,0.0,0.0,0.0,-0.08762962247200902,0.0,0.0,-0.12877994351709088,-0.2189735905685108,-0.2812769510648737,-0.8377881741032552,-0.18341349724900283,-0.027707333103750873
8642,8.0,300.44667999999996,2066.587,0.0,0.0,0.0,-0.08763976361568128,0.0,0.0,-0.12752386803062588,-0.24217298512311275,-0.25849399216887076,-0.8230328917745222,-0.17545748786130583,-0.05433638875583404
8643,8.0,300.70604,2247.8674,0.0,0.0,0.0,-0.08764990475935354,0.0,0.0,-0.13885966431938188,-0.25484019204326874,-0.2895956938558697,-0.8065203399298603,-0.19572997777954482,-0.047467527824430256
8644,8.0,300.6147,2456.7538,0.0,0.0,0.0,-0.0876600459030258,0.0,0.0,-0.18496270598939785,-0.2644831919199587,-0.29734591214825673,-0.7925201923706533,-0.2012436085961978,-0.05623101040231864
8645,8.0,300.82829,2394.9584,0.0,0.0,0.0,-0.08767018704669806,0.0,0.0,-0.16931317978490984,-0.26979932002711976,-0.28889506180922275,-0.7925828821543403,-0.1931719772395898,-0.05697393652138975
8646,8.0,300.60517000000004,2109.7870000000003,0.0,0.0,0.0,-0.08768032819037033,0.0,0.0,-0.12799698489981887,-0.22822966062951378,-0.28509593122177773,-0.7999658580804831,-0.2157585581337118,-0.07229483430769462
8647,8.0,300.861,2200.9078,0.0,0.0,0.0,-0.08769046933404258,0.0,0.0,-0.13969367047669187,-0.2351048766655448,-0.2942224673899967,-0.8216685505148722,-0.2180317036730538,-0.04731204459658525
8648,8.0,300.17817,2196.6448,0.0,0.0,0.0,-0.08770061047771485,0.0,0.0,-0.13925171104807385,-0.2359937199182668,-0.29247972788050175,-0.8080880607495823,-0.22290205239871982,-0.07705488164072473
8649,8.0,299.41711000000004,2011.3626,0.0,0.0,0.0,-0.0877107516213871,0.0,0.0,-0.14518558734370188,-0.2059364865668488,-0.2602819327653268,-0.8204675249063402,-0.21022002162960077,-0.04489253102729786
8650,8.0,299.19486,1995.6864,0.0,0.0,0.0,-0.08772089276505937,0.0,0.0,-0.14030850050487087,-0.20806057288397978,-0.2582697497892398,-0.8278836746407572,-0.23587726708427378,-0.053521205745631746
8651,8.0,299.88366,2102.1176,0.0,0.0,0.0,-0.08773103390873163,0.0,0.0,-0.15459007827935287,-0.20891199681050882,-0.27548919556616674,-0.8354330464983222,-0.21776205755644182,-0.028475691800331975
8652,8.0,300.08941,2298.2152,0.0,0.0,0.0,-0.08774117505240389,0.0,0.0,-0.15380552885942383,-0.24819953327288677,-0.2965949621016437,-0.8233025176261323,-0.2016725173635278,-0.04105978586778536
8653,8.0,299.05478,2408.3418,0.0,0.0,0.0,-0.08775131619607615,0.0,0.0,-0.19011303598269583,-0.25008317534128777,-0.2918795697137707,-0.7986680569549003,-0.15374663876361186,-0.04480208731012175
8654,8.0,299.49312000000003,2415.5772,0.0,0.0,0.0,-0.08776145733974841,0.0,0.0,-0.16531275693259884,-0.24892185900417477,-0.32004054603304266,-0.7987561489185941,-0.17925312273590582,-0.05113469069235105
8655,8.0,300.85926,2178.8366,0.0,0.0,0.0,-0.08777159848342067,0.0,0.0,-0.15686701337406886,-0.24861648568903674,-0.25682840152198977,-0.8015092507653042,-0.18124980298546284,-0.0891622314036271
8656,8.0,301.14027000000004,2052.5896,0.0,0.0,0.0,-0.08778173962709294,0.0,0.0,-0.1366266434839999,-0.22458548637986178,-0.26272385537382575,-0.8181695243420453,-0.19825115681086583,-0.07635959144860492
8657,8.0,300.66327,2123.2014,0.0,0.0,0.0,-0.08779188077076519,0.0,0.0,-0.15115085412742785,-0.22434962202158376,-0.26989973311202975,-0.8047362902137882,-0.2031184759187328,-0.1080853944021979
8658,8.0,299.7804,1945.2503,0.0,0.0,0.0,-0.08780202191443746,0.0,0.0,-0.0990751144974525,-0.23094532288502878,-0.26128708699702774,-0.8073710241838162,-0.2323230390459988,-0.07401462775542503
8659,8.0,299.70881,1798.7522,0.0,0.0,0.0,-0.08781216305810971,0.0,0.0,-0.1068016166579989,-0.2146497281517788,-0.2253244294127898,-0.8215004827207852,-0.2155008785007808,-0.0896726206777486
8660,8.0,300.24516,2285.0783,0.0,0.0,0.0,-0.08782230420178198,0.0,0.0,-0.15174041369811286,-0.25373374319907077,-0.2891325777651637,-0.8038178701906472,-0.2136406627746918,-0.04995619064679215
8661,8.0,299.49858,2456.0692,0.0,0.0,0.0,-0.08783244534545424,0.0,0.0,-0.2084874754161118,-0.2604227339992228,-0.27767349933674074,-0.8276254073227682,-0.16920535984176882,-0.06978180586017803
8662,8.0,299.30147999999997,2385.5722,0.0,0.0,0.0,-0.0878425864891265,0.0,0.0,-0.16865438483489184,-0.2679194269840887,-0.2885805793756857,-0.8246254574866962,-0.1970632730561308,-0.028611562559241376
8663,8.0,300.84341,2448.1132,0.0,0.0,0.0,-0.08785272763279876,0.0,0.0,-0.1825706150208168,-0.26844254774571674,-0.2931521105143607,-0.8391389074140623,-0.2052407890481888,-0.04911086445936495
8664,8.0,299.8034,2300.3195,0.0,0.0,0.0,-0.08786286877647102,0.0,0.0,-0.15232267786807785,-0.2430114191833598,-0.3039056021031477,-0.8161648799467022,-0.21709816595842077,-0.03168158674572917
8665,8.0,298.88915,1973.4614,0.0,0.0,0.0,-0.08787300992014328,0.0,0.0,-0.14481196150182787,-0.20974831317804682,-0.24532272372146777,-0.8054514016043642,-0.15955903650475087,-0.06950172934703663
8666,8.0,299.70277999999996,2054.5656,0.0,0.0,0.0,-0.08788315106381556,0.0,0.0,-0.1321832276879689,-0.22630299596186682,-0.2660504263796327,-0.8016624845779272,-0.1966852699738248,-0.06807610165508814
8667,8.0,300.33494,2034.0531,0.0,0.0,0.0,-0.0878932922074878,0.0,0.0,-0.16958823665705583,-0.21457584195448678,-0.2341372937475518,-0.8300169714012972,-0.16595456981094084,-0.07254326398046274
8668,8.0,301.79022000000003,1864.4655,0.0,0.0,0.0,-0.08790343335116008,0.0,0.0,-0.10410250077661691,-0.1976210064411748,-0.26502744907867276,-0.8099844900342452,-0.21793375278588678,-0.06068067491171635
8669,8.0,300.98748,1900.275,0.0,0.0,0.0,-0.08791357449483232,0.0,0.0,-0.1163557848984219,-0.2115427183101408,-0.24973765705718778,-0.8345421868779012,-0.2199442335018058,-0.06068117241751544
8670,8.0,300.03234,2231.8382,0.0,0.0,0.0,-0.0879237156385046,0.0,0.0,-0.14152191816212586,-0.24107310213956276,-0.2958280634984567,-0.8110411173710262,-0.25389131372212176,-0.04394678972846046
8671,8.0,300.23098999999996,2216.4297,0.0,0.0,0.0,-0.08793385678217684,0.0,0.0,-0.15717557842702184,-0.27154618346452175,-0.24501752265884677,-0.8368999691980962,-0.26798297803036075,-0.05885371709365964
8672,8.0,300.38805,2251.7521,0.0,0.0,0.0,-0.08794399792584912,0.0,0.0,-0.15992268183313985,-0.25860821585264376,-0.26594553472928073,-0.8207588545750922,-0.2200268032524548,-0.057308286762887545
8673,8.0,299.29783,2372.8531,0.0,0.0,0.0,-0.08795413906952136,0.0,0.0,-0.19540985154295082,-0.2726250820385008,-0.2532531586766408,-0.8381762590240561,-0.16384692854293284,-0.05517973099956545
8674,8.0,299.30171,2112.5177,0.0,0.0,0.0,-0.08796428021319364,0.0,0.0,-0.12620376527034188,-0.23865861834377175,-0.27729024761891674,-0.7997639578655572,-0.16666090645565085,-0.06398374763445423
8675,8.0,298.72555,1866.1604,0.0,0.0,0.0,-0.08797442135686588,0.0,0.0,-0.09319195035607941,-0.22178276567575478,-0.25229144247672675,-0.8281370783582662,-0.15985582759154185,-0.07603902748796773
8676,8.0,300.33882,2091.7534,0.0,0.0,0.0,-0.08798456250053815,0.0,0.0,-0.11384709924083389,-0.22576861799162778,-0.2962250751526387,-0.7966034889486433,-0.17774441360200785,-0.06909928160606814
8677,8.0,300.63572999999997,2088.1679999999997,0.0,0.0,0.0,-0.08799470364421043,0.0,0.0,-0.13656553437046887,-0.24462602308520875,-0.2535593932543638,-0.8076041426343232,-0.2120201212272568,-0.06932441463253702
8678,8.0,299.55316,1919.7398,0.0,0.0,0.0,-0.08800484478788267,0.0,0.0,-0.12535577626165187,-0.22130573766117578,-0.23689143924186476,-0.7991352767085113,-0.26822655322189976,-0.07977175776985952
8679,8.0,299.71513,2203.7623,0.0,0.0,0.0,-0.08801498593155495,0.0,0.0,-0.17541806229991483,-0.24396372228984478,-0.25050692666560875,-0.8252746772232692,-0.24238635532917077,-0.06620007517443874
8680,8.0,299.97617,2407.9454,0.0,0.0,0.0,-0.0880251270752272,0.0,0.0,-0.17267176949387683,-0.2388162901918328,-0.3204672256501527,-0.8154639236600233,-0.24472776352774978,-0.03606486513507507
8681,8.0,299.8126,2361.5627,0.0,0.0,0.0,-0.08803526821889945,0.0,0.0,-0.17331411939477184,-0.24201556658757678,-0.30252641672953273,-0.8384214858132581,-0.18852141259311483,-0.026234715938414876
8682,8.0,300.76673,2459.8372,0.0,0.0,0.0,-0.08804540936257171,0.0,0.0,-0.16336533077040283,-0.2537891983770438,-0.3305745575176687,-0.8371762521028633,-0.2221979145067268,-0.02517453006728268
8683,8.0,300.98648,2507.3379999999997,0.0,0.0,0.0,-0.08805555050624397,0.0,0.0,-0.2086377708034448,-0.24952855263405077,-0.3040018000676417,-0.8229611941974463,-0.2130000657964698,-0.02876422895180837
8684,8.0,300.15337999999997,2241.7274,0.0,0.0,0.0,-0.08806569164991623,0.0,0.0,-0.17962414452502284,-0.22884843220058176,-0.2729565769412168,-0.7969169783970823,-0.1955837151276098,-0.038634966920974366
8685,8.0,300.09631,2305.5951,0.0,0.0,0.0,-0.0880758327935885,0.0,0.0,-0.2049469870491928,-0.22529438654732478,-0.27060196609383474,-0.8104413037093293,-0.17579417060453384,-0.05440319030842685
8686,8.0,299.39156,2209.4905,0.0,0.0,0.0,-0.08808597393726077,0.0,0.0,-0.14872996659100485,-0.2205422942408298,-0.3023576599253777,-0.8082772041457492,-0.18704248287965583,-0.04420892766183146
8687,8.0,299.26464,1851.2094,0.0,0.0,0.0,-0.08809611508093301,0.0,0.0,-0.1024371634422609,-0.23374387913122477,-0.22654041059279775,-0.8405215682355203,-0.18604913301161982,-0.08467009550303782
8688,8.0,299.69079,1922.2918,0.0,0.0,0.0,-0.08810625622460529,0.0,0.0,-0.07176773349967384,-0.21980377677294383,-0.2927572165528877,-0.8239414326091882,-0.2107026529172328,-0.07489065136788184
8689,8.0,299.80247,2136.2853,0.0,0.0,0.0,-0.08811639736827753,0.0,0.0,-0.1265308626676239,-0.26135353593858573,-0.26149298954984873,-0.8358577806752403,-0.22595744728026382,-0.0982152339855889
8690,8.0,300.23811,2131.538,0.0,0.0,0.0,-0.0881265385119498,0.0,0.0,-0.14712299246240887,-0.24582964261399676,-0.25498169241973373,-0.8317686072466702,-0.23556397015335376,-0.051566208578688544
8691,8.0,300.99655,1940.2435,0.0,0.0,0.0,-0.08813667965562208,0.0,0.0,-0.14881722768961686,-0.22815065751921676,-0.2128177010434718,-0.8366732747532231,-0.21434635093933777,-0.08520799451737432
8692,8.0,300.79342,2132.4325,0.0,0.0,0.0,-0.08814682079929433,0.0,0.0,-0.13432913941225388,-0.2405566992260978,-0.2733204046546237,-0.8293679948447482,-0.18975042416940882,-0.03213822107554547
8693,8.0,300.81225,2362.3134,0.0,0.0,0.0,-0.0881569619429666,0.0,0.0,-0.18226484653813982,-0.26400007427227873,-0.27181936582398275,-0.8257131308065412,-0.17120695435431083,-0.06735412650833474
8694,8.0,300.07037,2362.363,0.0,0.0,0.0,-0.08816710308663885,0.0,0.0,-0.14383401303531185,-0.26476863460562977,-0.30949672628744873,-0.8330407832772242,-0.17885605028671783,-0.050153326559747954
8695,8.0,299.80334,2216.644,0.0,0.0,0.0,-0.08817724423031112,0.0,0.0,-0.16696771858593085,-0.2662302985373847,-0.24060640927600374,-0.8150495854291312,-0.18994387387850084,-0.100536864555466
8696,8.0,299.60748,2040.4945,0.0,0.0,0.0,-0.08818738537398338,0.0,0.0,-0.14708100337826485,-0.2109724712863618,-0.26220590218770773,-0.8010502079400003,-0.2148903041230218,-0.03817111622394586
8697,8.0,299.47463999999997,1881.1455,0.0,0.0,0.0,-0.08819752651765564,0.0,0.0,-0.15938628749520184,-0.2182304932101728,-0.1942044790914898,-0.7974992729645503,-0.2142500820473368,-0.08400581684347862
8698,8.0,299.52549,2133.4511,0.0,0.0,0.0,-0.0882076676613279,0.0,0.0,-0.1146662714166799,-0.22496039904936277,-0.3088892017924907,-0.8128870766682081,-0.22117424819569878,-0.04502881924524846
8699,8.0,299.51725,2212.8272,0.0,0.0,0.0,-0.08821780880500014,0.0,0.0,-0.17305518333171685,-0.2163837942404178,-0.28320522680017973,-0.8432306038353813,-0.18254692523347882,-0.05016569530371866
8700,8.0,299.79552,2056.8543,0.0,0.0,0.0,-0.08822794994867243,0.0,0.0,-0.08914228050915811,-0.24535299963445575,-0.29073705929851373,-0.8498873732823532,-0.18445114641141083,-0.03666848963039817
8701,8.0,300.68289,2168.4362,0.0,0.0,0.0,-0.08823809109234469,0.0,0.0,-0.15815173344086084,-0.25188561554667477,-0.24911308969554774,-0.8561571014561272,-0.1885328420542428,-0.04825551418869845
8702,8.0,300.65378,2605.605,0.0,0.0,0.0,-0.08824823223601694,0.0,0.0,-0.1993598956002898,-0.26744358447212674,-0.3252353881032337,-0.8393205628919902,-0.2052977843663138,-0.018400719088009585
8703,8.0,298.91525,2635.0529,0.0,0.0,0.0,-0.08825837337968921,0.0,0.0,-0.23004665110633676,-0.2815368193180207,-0.2894068240372297,-0.8200350494986582,-0.22082030980326778,-0.04793145552846636
8704,8.0,300.03938,2298.2719,0.0,0.0,0.0,-0.08826851452336146,0.0,0.0,-0.14536477049138585,-0.26930117588045677,-0.28395133351131474,-0.7922203615335622,-0.21473429400512478,-0.05227634389802346
8705,8.0,299.38701000000003,2015.7488,0.0,0.0,0.0,-0.08827865566703373,0.0,0.0,-0.13715365512601188,-0.2313703610369768,-0.24421329592197577,-0.8039395615276572,-0.2145971303390878,-0.07374214251203284
8706,8.0,300.66107999999997,2113.5787,0.0,0.0,0.0,-0.08828879681070599,0.0,0.0,-0.11589180754513088,-0.25108705287786276,-0.27549628831686673,-0.7940823099173222,-0.2079763211381648,-0.09631923431896831
8707,8.0,301.40182000000004,1999.4584,0.0,0.0,0.0,-0.08829893795437825,0.0,0.0,-0.14094302811499385,-0.22122020922023478,-0.24562217965602176,-0.8236760320104952,-0.17525042007086986,-0.09000455735750822
8708,8.0,300.95876,1870.6921,0.0,0.0,0.0,-0.08830907909805051,0.0,0.0,-0.10710079901502591,-0.2242082128376278,-0.23733466523310778,-0.8205435591938443,-0.1840152158208878,-0.07947713807803282
8709,8.0,300.66381,1902.1927,0.0,0.0,0.0,-0.08831922024172277,0.0,0.0,-0.11624767111275189,-0.2134982403406358,-0.2484731715948928,-0.8459972021734231,-0.22283751849985078,-0.03803786167679466
8710,8.0,300.85521,2069.8105,0.0,0.0,0.0,-0.08832936138539503,0.0,0.0,-0.1040804321894389,-0.24992749959592375,-0.27516276691395075,-0.8356313294103911,-0.23609859130361677,-0.06675356810781423
8711,8.0,299.58057,2521.3503,0.0,0.0,0.0,-0.0883395025290673,0.0,0.0,-0.17653653842279982,-0.28180121679911474,-0.3080897677285927,-0.8077366352173992,-0.22356091827624477,-0.03409707872536967
8712,8.0,299.40092999999996,2664.3711,0.0,0.0,0.0,-0.08834964367273955,0.0,0.0,-0.18687196302032683,-0.27516360791153377,-0.3478667343867737,-0.8135687609379852,-0.19824986998323882,-0.061013221568036145
8713,8.0,299.26242,2355.9410000000003,0.0,0.0,0.0,-0.08835978481641182,0.0,0.0,-0.18820558253694483,-0.26475741792702273,-0.26318423568926175,-0.8244177918787012,-0.16574115907487885,-0.03445605297079767
8714,8.0,299.34295,2036.6914,0.0,0.0,0.0,-0.08836992596008407,0.0,0.0,-0.14151420732886488,-0.20890179338200182,-0.2686873287048748,-0.8236026017757482,-0.19604192708783183,-0.06699036465618423
8715,8.0,300.63257999999996,2373.417,0.0,0.0,0.0,-0.08838006710375634,0.0,0.0,-0.19040405154391682,-0.23784769402373976,-0.2932077582098527,-0.8184983746620003,-0.18220822612255183,-0.024413835594457974
8716,8.0,300.18226,2233.4311,0.0,0.0,0.0,-0.0883902082474286,0.0,0.0,-0.13780697852548987,-0.24370434039674574,-0.29739597683569774,-0.8384052434141552,-0.20837243099975783,-0.06725066860687423
8717,8.0,299.83686,1905.8077,0.0,0.0,0.0,-0.08840034939110086,0.0,0.0,-0.10600773520464889,-0.22637033656351277,-0.24693988101356878,-0.8137737313007142,-0.2288299606512588,-0.05082100366014255
8718,8.0,300.24447999999995,2002.1628,0.0,0.0,0.0,-0.08841049053477312,0.0,0.0,-0.11395543594152588,-0.26095076902383574,-0.2337012922295218,-0.8443081953167311,-0.24607317727553174,-0.09856124673573771
8719,8.0,300.41503,2125.2869,0.0,0.0,0.0,-0.08842063167844538,0.0,0.0,-0.16975150164566885,-0.2198643893939258,-0.25641825814651176,-0.8139010664407812,-0.21874829440877577,-0.05012463233016605
8720,8.0,300.11689,2276.7026,0.0,0.0,0.0,-0.08843077282211764,0.0,0.0,-0.14564697077673686,-0.26968366766070573,-0.27673010269863474,-0.8243866648356293,-0.2008164527515408,-0.07291904095229902
8721,8.0,299.98361,2407.4732,0.0,0.0,0.0,-0.08844091396578992,0.0,0.0,-0.16176059592452785,-0.24583433396195975,-0.32421680830770766,-0.8185547924275682,-0.1979115559073498,-0.02572903118450768
8722,8.0,298.76491,2243.3376,0.0,0.0,0.0,-0.08845105510946216,0.0,0.0,-0.1188732047718719,-0.2668465369832027,-0.2961988623725517,-0.8440891813076161,-0.19800217086379282,-0.05494881738127604
8723,8.0,298.4437,1856.6267,0.0,0.0,0.0,-0.08846119625313444,0.0,0.0,-0.08547678950390232,-0.23505759841587878,-0.2438337729645198,-0.8220970235846592,-0.20244651884991582,-0.07330287427568043
8724,8.0,299.17811,1951.0552,0.0,0.0,0.0,-0.08847133739680668,0.0,0.0,-0.12061465745373989,-0.2168463834410718,-0.2556110321893447,-0.8197428686998222,-0.18867044141782283,-0.05989894232706535
8725,8.0,298.92697999999996,2188.732,0.0,0.0,0.0,-0.08848147854047896,0.0,0.0,-0.2007380981213078,-0.23575616343232178,-0.2288256138083298,-0.8168085268077252,-0.1941561065317158,-0.061520253944576345
8726,8.0,299.23798,1953.6766,0.0,0.0,0.0,-0.08849161968415122,0.0,0.0,-0.1135805435370269,-0.23866582255198276,-0.2416225268737868,-0.8354372514862372,-0.17795094436989084,-0.07375070143562752
8727,8.0,300.41377,1897.6372,0.0,0.0,0.0,-0.08850176082782348,0.0,0.0,-0.11780062887851687,-0.21513859092752577,-0.2438950948605718,-0.8388052846861362,-0.2057207757530598,-0.07475549596354303
8728,8.0,300.41442,2096.7546,0.0,0.0,0.0,-0.08851190197149574,0.0,0.0,-0.11512780683722988,-0.2273961813622558,-0.2948370643706527,-0.8162820724532682,-0.1802250828943308,-0.050776559471006254
8729,8.0,300.80397,2304.7289,0.0,0.0,0.0,-0.088522043115168,0.0,0.0,-0.15906445899843985,-0.2526987588844257,-0.2888168389015027,-0.7993803413776972,-0.2174507871257218,-0.06961395287511223
8730,8.0,300.40422,2340.619,0.0,0.0,0.0,-0.08853218425884025,0.0,0.0,-0.16764750807802084,-0.2614388110670018,-0.28240342173104777,-0.8084303467658632,-0.23191107182034076,-0.06091611471820244
8731,8.0,300.46905,2404.4716,0.0,0.0,0.0,-0.08854232540251253,0.0,0.0,-0.2306774195585888,-0.24396133101960876,-0.25626056603344877,-0.8224325106927691,-0.23676722491210575,-0.054310467791775854
8732,8.0,300.68009,2101.0155,0.0,0.0,0.0,-0.08855246654618477,0.0,0.0,-0.13150417786845187,-0.21003969350930382,-0.2971123883977097,-0.8243169734937512,-0.19392005978841984,-0.04505048455888666
8733,8.0,301.38961,2023.0069,0.0,0.0,0.0,-0.08856260768985705,0.0,0.0,-0.12585442703336486,-0.21965441357570278,-0.26943475264113975,-0.8322565682298283,-0.19686822241188082,-0.047097374390648955
8734,8.0,300.70432,2347.4311,0.0,0.0,0.0,-0.0885727488335293,0.0,0.0,-0.1144878684715729,-0.2754859329008447,-0.3235866376730147,-0.8488425199117343,-0.18599070901085382,-0.07564068746290463
8735,8.0,299.77178,2086.7939,0.0,0.0,0.0,-0.08858288997720157,0.0,0.0,-0.15115318460265784,-0.22675414556889179,-0.2564259081847668,-0.8393960196269371,-0.2086136757160668,-0.06098356171110894
8736,8.0,299.78569,1762.4245,0.0,0.0,0.0,-0.08859303112087384,0.0,0.0,-0.11081590077167788,-0.22469194856786878,-0.2002251909206878,-0.8250751378810761,-0.17879461693315482,-0.08754708338647442
8737,8.0,300.62793999999997,2053.33,0.0,0.0,0.0,-0.08860317226454609,0.0,0.0,-0.1908501956954478,-0.2079326095288508,-0.22537823299309978,-0.8032152396936723,-0.2114512218261108,-0.04603457940050925
8738,8.0,300.31057000000004,2579.1707,0.0,0.0,0.0,-0.08861331340821836,0.0,0.0,-0.16986299968667284,-0.2983790928777237,-0.3157614084757247,-0.8065083734461793,-0.1981181576027398,-0.07778875133040203
8739,8.0,298.96439,2363.8466,0.0,0.0,0.0,-0.08862345455189061,0.0,0.0,-0.16030391718326484,-0.2533007105038338,-0.30494570333079773,-0.8060635059897743,-0.2103696786693708,-0.07173772407146213
8740,8.0,299.40882999999997,2190.0528,0.0,0.0,0.0,-0.08863359569556288,0.0,0.0,-0.1137167750129719,-0.22292584351106778,-0.32907874705754364,-0.8234678699099512,-0.17749141518453884,-0.045566402125553754
8741,8.0,299.2456,2281.2231,0.0,0.0,0.0,-0.08864373683923514,0.0,0.0,-0.14908057139060685,-0.25984796787999775,-0.28450631085608674,-0.8260804035702882,-0.21385416470326282,-0.03377283160061897
8742,8.0,301.09314,2270.4745,0.0,0.0,0.0,-0.08865387798290739,0.0,0.0,-0.16938882903737584,-0.24861988007687175,-0.2721588451374867,-0.8492772244696362,-0.2093694083031518,-0.04570603305558425
8743,8.0,299.96966000000003,2368.4724,0.0,0.0,0.0,-0.08866401912657966,0.0,0.0,-0.20258814081639281,-0.2528504221593938,-0.26451790586838475,-0.8348897113971991,-0.2281914509682428,-0.06421730988850503
8744,8.0,299.58603,2302.5793,0.0,0.0,0.0,-0.0886741602702519,0.0,0.0,-0.15749260411830987,-0.24887180444923476,-0.2935622133598347,-0.8315575776483431,-0.1982395753622228,-0.06703036878338234
8745,8.0,299.24518,1930.2815,0.0,0.0,0.0,-0.08868430141392418,0.0,0.0,-0.1083534801136559,-0.22626730929334476,-0.25213659759644474,-0.7958059293974302,-0.19129367499921582,-0.07578941535233293
8746,8.0,300.6126,1881.5621,0.0,0.0,0.0,-0.08869444255759645,0.0,0.0,-0.08340977551190391,-0.22086245087492676,-0.26767567954003274,-0.8317136282962442,-0.18284182154258283,-0.0909128539989001
8747,8.0,300.92942999999997,2358.2061,0.0,0.0,0.0,-0.0887045837012687,0.0,0.0,-0.17468241232981183,-0.26909845493294976,-0.27305491286342176,-0.8114108422000151,-0.19589326303315982,-0.05441272499186785
8748,8.0,300.67446,2194.0792,0.0,0.0,0.0,-0.08871472484494097,0.0,0.0,-0.18545679713566082,-0.22664788603090477,-0.2548406176083107,-0.8351995531452782,-0.1929002539602728,-0.04509852882562826
8749,8.0,299.44741,1996.8228,0.0,0.0,0.0,-0.08872486598861322,0.0,0.0,-0.1465688561152199,-0.20807856820575582,-0.2523368462137078,-0.8125486815323112,-0.22741607146171877,-0.03886617539504286
8750,8.0,299.76392000000004,2445.9939,0.0,0.0,0.0,-0.08873500713228549,0.0,0.0,-0.14770859022520286,-0.28694131296640274,-0.3088711760732117,-0.8297905606664522,-0.23270398055359479,-0.058244595716544036
8751,8.0,299.37012000000004,2543.9898,0.0,0.0,0.0,-0.08874514827595775,0.0,0.0,-0.16775912770903684,-0.26348804859924574,-0.3420622095989117,-0.8133905302453952,-0.22482285034828775,-0.024419844167550976
8752,8.0,298.85746,2289.4059,0.0,0.0,0.0,-0.08875528941963001,0.0,0.0,-0.13008469553835988,-0.2892282893696097,-0.27660923209420574,-0.8157410171648702,-0.21167350863304882,-0.08020064120593702
8753,8.0,299.01425,2219.4163,0.0,0.0,0.0,-0.08876543056330227,0.0,0.0,-0.17308689805984684,-0.23244190341522974,-0.26911831463490976,-0.8162467201572793,-0.19785564476683182,-0.038773044538601566
8754,8.0,297.83837,2160.1125,0.0,0.0,0.0,-0.08877557170697453,0.0,0.0,-0.17390358777294782,-0.2616788094856877,-0.22103785459973782,-0.8254562719061912,-0.17784664040459683,-0.09220185302086441
8755,8.0,298.50673,1953.7238,0.0,0.0,0.0,-0.08878571285064679,0.0,0.0,-0.13835969632253886,-0.2192058882864368,-0.2363176559752368,-0.8187038617822803,-0.2058007515834528,-0.06754243802616965
8756,8.0,300.63426,2009.1613,0.0,0.0,0.0,-0.08879585399431907,0.0,0.0,-0.11074651340482988,-0.24686869006154277,-0.2531196629759657,-0.8417487660941352,-0.18919386615448083,-0.09208002286859071
8757,8.0,300.58288999999996,2006.9756,0.0,0.0,0.0,-0.08880599513799131,0.0,0.0,-0.1065711427902529,-0.25476872751371576,-0.24873058778279775,-0.8333896452866542,-0.2184282694971918,-0.06364150113492714
8758,8.0,300.50626,1942.6227,0.0,0.0,0.0,-0.08881613628166359,0.0,0.0,-0.0937150478129551,-0.2274601377085678,-0.26933361001615774,-0.8224186899614052,-0.2048163183162968,-0.07000841012579213
8759,8.0,300.73663999999997,2266.7026,0.0,0.0,0.0,-0.08882627742533583,0.0,0.0,-0.16187898406621185,-0.26988390614546776,-0.25725810062439775,-0.8341157909708192,-0.2077114170320208,-0.058668934725923036
8760,8.0,299.83227999999997,2515.4675,0.0,0.0,0.0,-0.0888364185690081,0.0,0.0,-0.2049517898546668,-0.25917392351597474,-0.3005135954058827,-0.8246103904577092,-0.19231910436541783,-0.03061959222316847
8761,8.0,299.06102999999996,2337.4734,0.0,0.0,0.0,-0.08884655971268036,0.0,0.0,-0.17876215239995083,-0.2378052287120488,-0.2939661759097027,-0.8209727922012062,-0.19721124810073482,-0.059431411505673645
8762,8.0,298.87106,2095.876,0.0,0.0,0.0,-0.08885670085635262,0.0,0.0,-0.13585590466293387,-0.2231423750574378,-0.27809568012340674,-0.8066251403877033,-0.2025214486948108,-0.05804646681849024
8763,8.0,299.28219,2223.667,0.0,0.0,0.0,-0.08886684200002488,0.0,0.0,-0.14207572013678188,-0.25397459274784073,-0.27988893015038674,-0.8199745888651911,-0.2218395178138558,-0.07442062592474392
8764,8.0,299.60934,2195.6714,0.0,0.0,0.0,-0.08887698314369714,0.0,0.0,-0.16189432467272585,-0.2198525445002568,-0.28568241051215876,-0.8142765870603422,-0.2232692137049558,-0.03615944291265917
8765,8.0,299.93631,2090.781,0.0,0.0,0.0,-0.0888871242873694,0.0,0.0,-0.16692044033626485,-0.24259314954207978,-0.22603160705508277,-0.8341904573706882,-0.2050408342734548,-0.07997651231031723
8766,8.0,300.10868,2046.685,0.0,0.0,0.0,-0.08889726543104168,0.0,0.0,-0.15653125268843185,-0.22615691569494978,-0.23945296589216777,-0.8332754823978872,-0.1980008941686668,-0.05560104039114545
8767,8.0,300.59344,2004.5095,0.0,0.0,0.0,-0.08890740657471392,0.0,0.0,-0.13040779059774688,-0.22668857815492077,-0.2522244666451168,-0.8306393197452182,-0.1965644905619048,-0.08986119766710972
8768,8.0,301.41007,2147.4761,0.0,0.0,0.0,-0.0889175477183862,0.0,0.0,-0.10687982943321789,-0.2540242724002437,-0.2918749999558198,-0.8234508675732732,-0.2328753110130038,-0.047690054771641954
8769,8.0,300.50838999999996,2327.2994,0.0,0.0,0.0,-0.08892768886205844,0.0,0.0,-0.14164654792442588,-0.24414523591275877,-0.3216491109642957,-0.8077373039624652,-0.22819810802139978,-0.07257606592595002
8770,8.0,299.35733,2371.2945,0.0,0.0,0.0,-0.08893783000573072,0.0,0.0,-0.16060922970339683,-0.26643099298469175,-0.29377409408824573,-0.8040030720439253,-0.2261170949660198,-0.05618099637738264
8771,8.0,299.28185,2118.5705,0.0,0.0,0.0,-0.08894797114940298,0.0,0.0,-0.18082062064060583,-0.22455721670207177,-0.23861469395193674,-0.8051005434922373,-0.19363736301051984,-0.07432957223100763
8772,8.0,299.68969,2192.1214,0.0,0.0,0.0,-0.08895811229307524,0.0,0.0,-0.14843417862181285,-0.2464338639136288,-0.27148212579319975,-0.8165454060217572,-0.2028001127373128,-0.06610076957188803
8773,8.0,299.93177000000003,2174.0857,0.0,0.0,0.0,-0.0889682534367475,0.0,0.0,-0.13751806039197587,-0.23628723820723477,-0.2870624571483587,-0.8436816014548912,-0.18336832655954483,-0.058976455118022936
8774,8.0,299.98187,2047.6489,0.0,0.0,0.0,-0.08897839458041976,0.0,0.0,-0.10395053352661891,-0.23798009541430676,-0.28050351699854176,-0.8475291957946192,-0.1985433680072048,-0.056810229755733146
8775,8.0,299.434,2064.6661,0.0,0.0,0.0,-0.08898853572409202,0.0,0.0,-0.11103669810096889,-0.2371219840371178,-0.27944825754939573,-0.8239223328448032,-0.2038986886282338,-0.05696591563359815
8776,8.0,300.51602,2112.8806,0.0,0.0,0.0,-0.08899867686776428,0.0,0.0,-0.16947269574815282,-0.2150030889916528,-0.25778714889911075,-0.8361095631925892,-0.2222542714772888,-0.04989630249963165
8777,8.0,301.10183,2273.9683,0.0,0.0,0.0,-0.08900881801143654,0.0,0.0,-0.17025114540247982,-0.2555093322768078,-0.26546910453226075,-0.8312352323940302,-0.19809377880533383,-0.05095671837853655
8778,8.0,300.982,2449.5516,0.0,0.0,0.0,-0.08901895915510881,0.0,0.0,-0.2046091694658528,-0.2538227572203558,-0.2861705944103387,-0.8079399539824653,-0.1936261058019088,-0.07835843397387532
8779,8.0,300.85579,2442.8424,0.0,0.0,0.0,-0.08902910029878106,0.0,0.0,-0.17130257476624783,-0.23756019444036577,-0.3337003226186577,-0.8219061880608252,-0.18733929423144882,-0.04103549319663786
8780,8.0,300.44389,2156.3002,0.0,0.0,0.0,-0.08903924144245333,0.0,0.0,-0.12144410398559988,-0.23890600335568676,-0.29511132077521973,-0.8335481581322982,-0.2196922179369338,-0.050908632568540856
8781,8.0,299.94036,2118.1287,0.0,0.0,0.0,-0.08904938258612558,0.0,0.0,-0.1007679190155193,-0.23756065040291077,-0.3055296798934317,-0.8288374469598873,-0.20615812489372282,-0.06219070532374473
8782,8.0,300.14507000000003,2284.8308,0.0,0.0,0.0,-0.08905952372979785,0.0,0.0,-0.1873539356953938,-0.23827741339114974,-0.26890016188837973,-0.8169170762909382,-0.2275570652131338,-0.05882555178062994
8783,8.0,300.63554,2283.8928,0.0,0.0,0.0,-0.0890696648734701,0.0,0.0,-0.18242829391177084,-0.2533486574985658,-0.25846943098644676,-0.8122428725196302,-0.20615323089573978,-0.06939104494586294
8784,8.0,298.96763,1975.4655,0.0,0.0,0.0,-0.08907980601714237,0.0,0.0,-0.14619242357056886,-0.2196580308785598,-0.23464172004483475,-0.8331486842803731,-0.24179027042784176,-0.06405803406553574
8785,8.0,298.93908999999996,2080.6218,0.0,0.0,0.0,-0.08908994716081461,0.0,0.0,-0.10235136142379289,-0.25722250514838474,-0.27288319736897476,-0.8560230282028952,-0.18793979690321383,-0.07315960273804063
8786,8.0,299.25236,2308.7917,0.0,0.0,0.0,-0.08910008830448689,0.0,0.0,-0.13101657152282886,-0.2709812864012708,-0.2998171683471507,-0.8259465025695732,-0.2061454592674728,-0.07278003013132972
8787,8.0,298.46976,2282.5621,0.0,0.0,0.0,-0.08911022944815913,0.0,0.0,-0.13261969530104487,-0.25066554083626275,-0.3105566669520567,-0.8348957706327972,-0.16537346074608983,-0.06654459135418984
8788,8.0,299.99512999999996,2135.1185,0.0,0.0,0.0,-0.08912037059183141,0.0,0.0,-0.16352199950086482,-0.24201733977525178,-0.24348336068243676,-0.8289200369755382,-0.19724083500365483,-0.07286067673328893
8789,8.0,300.58383,2023.6293,0.0,0.0,0.0,-0.08913051173550367,0.0,0.0,-0.14927592600988687,-0.22507737877340778,-0.24077945212808177,-0.8426857691241101,-0.16678523224292083,-0.05986529735749485
8790,8.0,300.19895,2122.4838,0.0,0.0,0.0,-0.08914065287917593,0.0,0.0,-0.15985832018678783,-0.23744678135667277,-0.2478769752360528,-0.8224718146641482,-0.19904032665125082,-0.08103608111213852
8791,8.0,300.81032999999996,2393.3614,0.0,0.0,0.0,-0.08915079402284819,0.0,0.0,-0.14605962701246286,-0.29436640969920275,-0.28709606665417575,-0.8362951095509013,-0.18554014708888683,-0.049049307489289755
8792,8.0,300.79438,2386.6644,0.0,0.0,0.0,-0.08916093516652045,0.0,0.0,-0.15652759485557086,-0.2510685104010328,-0.3178902874658287,-0.8108291251851043,-0.23430082218119078,-0.04303373283809876
8793,8.0,299.96612000000005,2188.3514,0.0,0.0,0.0,-0.0891710763101927,0.0,0.0,-0.12116243059030088,-0.27871860601988474,-0.2653231559878567,-0.8465296752334742,-0.2264145649303778,-0.06595843630384084
8794,8.0,300.00695,2149.1497,0.0,0.0,0.0,-0.08918121745386497,0.0,0.0,-0.16688386200765484,-0.23620306752142778,-0.2502009150029078,-0.8112074525074423,-0.2305091592469828,-0.06470575621846093
8795,8.0,299.90932999999995,2418.2172,0.0,0.0,0.0,-0.08919135859753723,0.0,0.0,-0.1999913226651068,-0.25951314951695376,-0.2755731737344547,-0.8598409748446972,-0.21577030170237077,-0.04548321226584355
8796,8.0,299.95968999999997,2423.369,0.0,0.0,0.0,-0.0892014997412095,0.0,0.0,-0.2000333117492508,-0.25800869603347576,-0.27860165669334275,-0.8236202424599892,-0.2192592865667068,-0.03649077974835957
8797,8.0,299.67938,2008.8120000000001,0.0,0.0,0.0,-0.08921164088488175,0.0,0.0,-0.11497579905722789,-0.22577858837261178,-0.2698743005345198,-0.8558957741228361,-0.17903952961482583,-0.06625060190392533
8798,8.0,299.20748,1966.7744,0.0,0.0,0.0,-0.08922178202855402,0.0,0.0,-0.08779636824232692,-0.24438489995891177,-0.2656690390419928,-0.8433680208139431,-0.18066539072528584,-0.04658564559989525
8799,8.0,300.54165,2239.4568,0.0,0.0,0.0,-0.08923192317222627,0.0,0.0,-0.13785024430475987,-0.24858140697057476,-0.2943072966883687,-0.8681942086690971,-0.18865047025835183,-0.06047715653638064
8800,8.0,299.61944,2337.2791,0.0,0.0,0.0,-0.08924206431589854,0.0,0.0,-0.17584675828472385,-0.24532892481207977,-0.2892988115765697,-0.8373371055562383,-0.2072535090468288,-0.04648217351293336
8801,8.0,300.08399,2270.0062,0.0,0.0,0.0,-0.08925220545957081,0.0,0.0,-0.16524334930074885,-0.2805517679683037,-0.24423008547613276,-0.8244369828355952,-0.2103475999496918,-0.07918797372474452
8802,8.0,300.21502000000004,2239.1385,0.0,0.0,0.0,-0.08926234660324306,0.0,0.0,-0.16285570650010686,-0.25806752533428173,-0.25971896087726576,-0.8045574819686412,-0.24129634140159478,-0.07316674615124563
8803,8.0,300.20807,2143.7809,0.0,0.0,0.0,-0.08927248774691532,0.0,0.0,-0.1144599939613219,-0.26246057246784177,-0.27473529696176274,-0.8287195451782512,-0.23735041113966177,-0.08286595303748283
8804,8.0,300.59893,2156.7476,0.0,0.0,0.0,-0.08928262889058758,0.0,0.0,-0.1159806797114019,-0.25929684088560573,-0.2803198958154197,-0.8107944517666823,-0.24139134373097076,-0.06026011937821075
8805,8.0,300.13397000000003,2309.4824,0.0,0.0,0.0,-0.08929277003425984,0.0,0.0,-0.14411069110761787,-0.23286946455992677,-0.3250448058919247,-0.8238541512455742,-0.2108891415981378,-0.05316017460250075
8806,8.0,299.19111000000004,2004.0852,0.0,0.0,0.0,-0.08930291117793211,0.0,0.0,-0.12084907286437488,-0.2337339594127458,-0.25460884678043677,-0.8105943551369342,-0.20727616531906481,-0.05534570744544605
8807,8.0,299.54196,1902.1509,0.0,0.0,0.0,-0.08931305232160436,0.0,0.0,-0.10908402330325488,-0.22461613719538678,-0.24450620626088376,-0.8216188303324653,-0.2030780776372458,-0.03901816696304326
8808,8.0,299.40899,2396.1406,0.0,0.0,0.0,-0.08932319346527663,0.0,0.0,-0.18942075311687281,-0.24430974719899476,-0.2946364003208487,-0.8161133257816142,-0.2163653530885978,-0.04973253595221916
8809,8.0,299.28956,2540.3866,0.0,0.0,0.0,-0.08933333460894888,0.0,0.0,-0.18534911904753382,-0.2798934492458327,-0.3069715246532307,-0.8142062675034022,-0.18721935581711183,-0.06857082912241394
8810,8.0,299.40112,2309.5741,0.0,0.0,0.0,-0.08934347575262115,0.0,0.0,-0.17402645448007384,-0.2396202332186758,-0.2884061889009747,-0.8391882830914351,-0.17991456226868482,-0.05303633922827915
8811,8.0,299.35816,2273.9314,0.0,0.0,0.0,-0.08935361689629343,0.0,0.0,-0.16231155066640285,-0.24453821483154278,-0.28436860003499576,-0.8606348562980471,-0.17920758727641184,-0.05291227992578545
8812,8.0,299.78386,2284.14,0.0,0.0,0.0,-0.08936375803996567,0.0,0.0,-0.17028312357563583,-0.24752538758385378,-0.2765130239972108,-0.8808033664910242,-0.19610836589688882,-0.047041070109092156
8813,8.0,299.7226,2271.6665,0.0,0.0,0.0,-0.08937389918363794,0.0,0.0,-0.14982001091608385,-0.24879177795633675,-0.2919181036150737,-0.8421126039400432,-0.18919859803244782,-0.06052508225286054
8814,8.0,300.33255,2240.3732,0.0,0.0,0.0,-0.08938404032731019,0.0,0.0,-0.15199893432862685,-0.2661104513155567,-0.26290811490451077,-0.8206478428941362,-0.21837820480975081,-0.06496403062920064
8815,8.0,300.68753,2113.6269,0.0,0.0,0.0,-0.08939418147098246,0.0,0.0,-0.12558305839158287,-0.22904538775501979,-0.2878613440572027,-0.8106129989387741,-0.24492519530973478,-0.058435365379121536
8816,8.0,300.69321,1919.7635,0.0,0.0,0.0,-0.08940432261465472,0.0,0.0,-0.14203843253310186,-0.2213634017243668,-0.22015832311543482,-0.8184400215887413,-0.25025385732063277,-0.08352734393425701
8817,8.0,301.10979,2052.4915,0.0,0.0,0.0,-0.08941446375832698,0.0,0.0,-0.12650352517992589,-0.25153092734916976,-0.24587172289064976,-0.8110453020939392,-0.2273757137102358,-0.07296973588130223
8818,8.0,299.57032999999996,2342.4038,0.0,0.0,0.0,-0.08942460490199924,0.0,0.0,-0.18730899805345883,-0.24840434151559976,-0.2763189055430527,-0.8269824292068112,-0.2144355372131398,-0.06194347128609464
8819,8.0,299.54485,2296.1988,0.0,0.0,0.0,-0.0894347460456715,0.0,0.0,-0.15035942473931985,-0.2670087481917118,-0.2806189059199297,-0.8504827691736143,-0.18374900462211483,-0.055806505219923246
8820,8.0,299.18325,2154.7322,0.0,0.0,0.0,-0.08944488718934376,0.0,0.0,-0.16318852876045384,-0.23880118263284178,-0.25299508387617076,-0.8531160339309972,-0.1954788032122558,-0.06656390288784574
8821,8.0,299.70461,2396.7634,0.0,0.0,0.0,-0.08945502833301604,0.0,0.0,-0.16725819712459886,-0.24589092398004478,-0.3154071053132577,-0.8334027364779463,-0.18034051234572282,-0.06698822669847324
8822,8.0,300.36636,2419.7453,0.0,0.0,0.0,-0.08946516947668828,0.0,0.0,-0.18333193061595282,-0.26450543275965377,-0.2877048070492537,-0.8498456577757363,-0.18535029441764983,-0.06673313287979743
8823,8.0,299.82115,2208.4213,0.0,0.0,0.0,-0.08947531062036056,0.0,0.0,-0.14840422694885685,-0.23176612639353578,-0.2911345877102467,-0.8402527327189883,-0.19896014817083782,-0.03251574793030446
8824,8.0,298.84033999999997,2219.1692,0.0,0.0,0.0,-0.0894854517640328,0.0,0.0,-0.16580483171116284,-0.24149250662095476,-0.26727467568045676,-0.8425253615007793,-0.2003248845980268,-0.04882694975484475
8825,8.0,300.24091,2221.9721,0.0,0.0,0.0,-0.08949559290770508,0.0,0.0,-0.13974401887416085,-0.2651434054201168,-0.2705366013298838,-0.8254161978647362,-0.2169766671389298,-0.05868000650976574
8826,8.0,299.55952,1993.6246,0.0,0.0,0.0,-0.08950573405137734,0.0,0.0,-0.12880163720173188,-0.22321774059987579,-0.2539927096596288,-0.8219813712182452,-0.2018492687109718,-0.07095337426180284
8827,8.0,300.2364,2311.0405,0.0,0.0,0.0,-0.0895158751950496,0.0,0.0,-0.13674397784557987,-0.2829543663404217,-0.28280027126521373,-0.8424774854335542,-0.22544474272966378,-0.06435747784108854
8828,8.0,299.64192,2396.3713,0.0,0.0,0.0,-0.08952601633872186,0.0,0.0,-0.1829985206705478,-0.25058378168569373,-0.2948547455848977,-0.8366160970500801,-0.2334486991120928,-0.06353742717740585
8829,8.0,300.49428,2171.9563,0.0,0.0,0.0,-0.08953615748239412,0.0,0.0,-0.13999531503146187,-0.24482022259937478,-0.27540494382035174,-0.8433870192533182,-0.2294844796858548,-0.06937919194619314
8830,8.0,301.59211,2177.3638,0.0,0.0,0.0,-0.08954629862606638,0.0,0.0,-0.14386613306348187,-0.26220009626463475,-0.2557980072302977,-0.8243804029500111,-0.18129119425204782,-0.06390647515532803
8831,8.0,301.43646,2375.8957,0.0,0.0,0.0,-0.08955643976973865,0.0,0.0,-0.15526073838804186,-0.2417820327045288,-0.32517019559179966,-0.8406239267606221,-0.18802072518870083,-0.042847438701212964
8832,8.0,300.47766,2387.1187,0.0,0.0,0.0,-0.0895665809134109,0.0,0.0,-0.16403581862657485,-0.27559236469134873,-0.28599629512813673,-0.8331018417282502,-0.17922994970611883,-0.05712367766091804
8833,8.0,299.81093,2276.9915,0.0,0.0,0.0,-0.08957672205708317,0.0,0.0,-0.13383740913872386,-0.2506845494081388,-0.3076266009753817,-0.8379169784559671,-0.21310535261436078,-0.07229205394942023
8834,8.0,298.89625,2107.7583,0.0,0.0,0.0,-0.08958686320075541,0.0,0.0,-0.15333890692337185,-0.2315530095000028,-0.2558139760518737,-0.8447041734558113,-0.2198546317954628,-0.06137082488607885
8835,8.0,299.94073,1935.2485,0.0,0.0,0.0,-0.08959700434442769,0.0,0.0,-0.1103576280164499,-0.2289532225259238,-0.24895637030258078,-0.8381201452335182,-0.2265193147257158,-0.06514022570233974
8836,8.0,300.27094,2047.5465,0.0,0.0,0.0,-0.08960714548809995,0.0,0.0,-0.16400750841878084,-0.21256325367835982,-0.24583224666675377,-0.8442243590034572,-0.2171930973602898,-0.05199869614537175
8837,8.0,299.45891,2275.7308,0.0,0.0,0.0,-0.08961728663177221,0.0,0.0,-0.15428750153449086,-0.24103778024107678,-0.29644005642635574,-0.8344479242210981,-0.2209775054237818,-0.07257179001052803
8838,8.0,299.97764,2232.4145,0.0,0.0,0.0,-0.08962742777544447,0.0,0.0,-0.14206429067565385,-0.2555655676573578,-0.2809683961444217,-0.8224549339174823,-0.18779361531128683,-0.061360950763854345
8839,8.0,298.56878,2132.4610000000002,0.0,0.0,0.0,-0.08963756891911673,0.0,0.0,-0.11117881655999488,-0.23078379055408677,-0.30625227920224674,-0.7973008177999643,-0.18946707891144482,-0.05810903399891515
8840,8.0,299.94412,2608.6845,0.0,0.0,0.0,-0.08964771006278899,0.0,0.0,-0.2079716804527068,-0.28383841692017076,-0.3011648416426557,-0.8274054509910602,-0.18733032696806382,-0.05192415234876485
8841,8.0,300.73299,2613.8588,0.0,0.0,0.0,-0.08965785120646126,0.0,0.0,-0.1936924939484608,-0.27135003851016376,-0.3295052645546377,-0.8044450618700463,-0.22219708364164478,-0.05336744605620685
8842,8.0,301.00551,2107.1775,0.0,0.0,0.0,-0.08966799235013351,0.0,0.0,-0.14941064774318286,-0.24880167740981377,-0.2423170186248278,-0.8384555816791232,-0.2066109666284148,-0.05980645184468725
8843,8.0,300.31593,2111.4,0.0,0.0,0.0,-0.08967813349380578,0.0,0.0,-0.1208702295264629,-0.24507833792984876,-0.27586430075318674,-0.8296844429834793,-0.19638241965143582,-0.03485794747721157
8844,8.0,299.27401000000003,2153.9393,0.0,0.0,0.0,-0.08968827463747803,0.0,0.0,-0.13949026051911687,-0.2311815621458438,-0.2840719406707177,-0.8563020063529282,-0.1975524195419058,-0.05432974183517805
8845,8.0,299.10483,2135.3941,0.0,0.0,0.0,-0.0896984157811503,0.0,0.0,-0.10703218171825389,-0.25185375896353074,-0.29022054492753774,-0.8361193410560541,-0.19527000276414883,-0.054926985894621444
8846,8.0,301.22655,2316.0406,0.0,0.0,0.0,-0.08970855692482256,0.0,0.0,-0.15603356450431385,-0.27405978338509474,-0.27392516297680874,-0.8402380304600372,-0.18379542160919582,-0.09411237560116832
8847,8.0,299.59426,2244.4741,0.0,0.0,0.0,-0.08971869806849482,0.0,0.0,-0.14302469978293886,-0.2498814271138768,-0.28935796511740774,-0.8142491786451372,-0.2097461853528368,-0.05027783675853615
8848,8.0,299.07362,2258.4244,0.0,0.0,0.0,-0.08972883921216708,0.0,0.0,-0.16214185153965485,-0.2764463217431278,-0.24791645145994878,-0.8423977223856823,-0.23216217546012277,-0.08135264577463103
8849,8.0,299.16393,2496.9248,0.0,0.0,0.0,-0.08973898035583934,0.0,0.0,-0.1843204776785148,-0.26684773261832073,-0.30783459082340875,-0.8318633562635211,-0.2578522907480398,-0.06030921235880585
8850,8.0,299.58679,2421.4265,0.0,0.0,0.0,-0.0897491214995116,0.0,0.0,-0.16536162598492182,-0.27758619770812476,-0.29310537941974873,-0.8216282839558983,-0.2072074466972828,-0.08108065297078743
8851,8.0,299.52222,2220.6722,0.0,0.0,0.0,-0.08975926264318387,0.0,0.0,-0.12536814804537288,-0.23678653745901176,-0.3128742029782797,-0.7942269513690973,-0.18118473206404082,-0.04874818070532086
8852,8.0,299.7189,2187.3318,0.0,0.0,0.0,-0.08976940378685612,0.0,0.0,-0.15017637097625386,-0.23545519775511878,-0.27926268079358074,-0.8309035855037992,-0.18108845303953883,-0.06809667772486884
8853,8.0,298.71632999999997,2221.6253,0.0,0.0,0.0,-0.0897795449305284,0.0,0.0,-0.15715171638716685,-0.24528830361557077,-0.27287859721352076,-0.8164908830338763,-0.22504587682779878,-0.047510269753398546
8854,8.0,300.70376,2234.8426,0.0,0.0,0.0,-0.08978968607420064,0.0,0.0,-0.18289471319780282,-0.22524376457232878,-0.2711978686101457,-0.8532114314279122,-0.19977884411913682,-0.055967463038058544
8855,8.0,300.34577,2046.2999,0.0,0.0,0.0,-0.08979982721787291,0.0,0.0,-0.12316394404283489,-0.2302472442286338,-0.26861289535252875,-0.8119067673289592,-0.2124880198584348,-0.04897949557064985
8856,8.0,299.76999,2091.174,0.0,0.0,0.0,-0.08980996836154519,0.0,0.0,-0.13132059721533387,-0.2508056429275898,-0.25353843924229574,-0.8641481591647832,-0.21663344893255682,-0.07914531184253412
8857,8.0,301.19334,2389.3636,0.0,0.0,0.0,-0.08982010950521743,0.0,0.0,-0.16006106139929685,-0.26128691474451077,-0.30495889584709973,-0.8477424646756673,-0.2179768868426438,-0.054554882967647746
8858,8.0,300.61551000000003,2366.6843,0.0,0.0,0.0,-0.0898302506488897,0.0,0.0,-0.16706919558344582,-0.26807697724213775,-0.28426676839994575,-0.8597056654263433,-0.19656139001659884,-0.08649038309568623
8859,8.0,298.68914,2309.1807,0.0,0.0,0.0,-0.08984039179256195,0.0,0.0,-0.16074077996387984,-0.25505392701936275,-0.28613855544217676,-0.8171903295779062,-0.19110413643550983,-0.06627108374144673
8860,8.0,299.92356,2322.3109,0.0,0.0,0.0,-0.08985053293623423,0.0,0.0,-0.19894373351921782,-0.24043109674370175,-0.26654969523390676,-0.8399566306422652,-0.2219737835846068,-0.06730253687949324
8861,8.0,299.28974,2244.0418,0.0,0.0,0.0,-0.08986067407990649,0.0,0.0,-0.14981444817303485,-0.2655787888555857,-0.26673943644763276,-0.8340499094493172,-0.23877042035980575,-0.06124926020533135
8862,8.0,299.05528,2234.0277,0.0,0.0,0.0,-0.08987081522357875,0.0,0.0,-0.16112498413679782,-0.23837945780872077,-0.27958420531531275,-0.8198291064158333,-0.19607094657069582,-0.0846938734431345
8863,8.0,299.18196,2200.2491,0.0,0.0,0.0,-0.089880956367251,0.0,0.0,-0.12313275620475687,-0.2535325319942128,-0.2921554979810027,-0.8241320452180002,-0.1933130925810168,-0.03648038582883376
8864,8.0,298.26876,2022.4298,0.0,0.0,0.0,-0.08989109751092325,0.0,0.0,-0.12019304408712989,-0.23827361370327477,-0.25630150133748875,-0.8178854596765103,-0.1978837016621008,-0.06505642586606934
8865,8.0,298.77945,2152.4673,0.0,0.0,0.0,-0.08990123865459552,0.0,0.0,-0.1268324565598889,-0.24280796869578078,-0.28465589696834975,-0.8567337015580333,-0.22994585298638878,-0.060985555787305745
8866,8.0,300.07693,2382.6314,0.0,0.0,0.0,-0.0899113797982678,0.0,0.0,-0.18350346372538182,-0.28001047963238274,-0.26074649780367576,-0.8459354547123292,-0.2121094290910708,-0.07318273929082403
8867,8.0,300.50745,2292.8661,0.0,0.0,0.0,-0.08992152094194004,0.0,0.0,-0.1308071631246619,-0.2581256960225228,-0.3080411722537967,-0.8347298002664172,-0.2310321482860978,-0.061518145371118244
8868,8.0,299.45842999999996,2274.6369,0.0,0.0,0.0,-0.08993166208561232,0.0,0.0,-0.17520987993436882,-0.25748458228674975,-0.25873833743048574,-0.8373740790523871,-0.2178745181850408,-0.07626486269675593
8869,8.0,300.25367,2399.8687,0.0,0.0,0.0,-0.08994180322928456,0.0,0.0,-0.16201281413941984,-0.2718023229573008,-0.29568502298183974,-0.8408057443585663,-0.23870090127044477,-0.057548277075572744
8870,8.0,299.72807,2228.2897,0.0,0.0,0.0,-0.08995194437295684,0.0,0.0,-0.18175013575234183,-0.2042603986489318,-0.2913338940049167,-0.8470387320837142,-0.19433256403663082,-0.037737225305874166
8871,8.0,300.14381000000003,2212.041,0.0,0.0,0.0,-0.0899620855166291,0.0,0.0,-0.14229468348339186,-0.23692738935541277,-0.2931831564974247,-0.8230006906863442,-0.16359587556565583,-0.05822095659171104
8872,8.0,299.87852999999996,2304.1864,0.0,0.0,0.0,-0.08997222666030136,0.0,0.0,-0.18137914436072783,-0.21795562885554579,-0.3010803669818187,-0.8484101863590662,-0.1960574906093678,-0.03284326785287817
8873,8.0,301.24341,2247.1913,0.0,0.0,0.0,-0.08998236780397362,0.0,0.0,-0.16289045084603584,-0.23944463697634577,-0.28075495501085673,-0.8405883920796152,-0.2293953846045618,-0.057518139977848444
8874,8.0,300.27693,2162.8587,0.0,0.0,0.0,-0.08999250894764588,0.0,0.0,-0.16063187584313185,-0.2612039498263228,-0.23561922268130678,-0.8562998076002111,-0.2147733041339748,-0.06506026203094793
8875,8.0,300.18563,2168.0631,0.0,0.0,0.0,-0.09000265009131814,0.0,0.0,-0.14601838773339287,-0.2278821361102158,-0.2851365017557817,-0.8409311340584411,-0.20524566278116982,-0.05333578503033216
8876,8.0,298.93665,2241.925,0.0,0.0,0.0,-0.09001279123499041,0.0,0.0,-0.16004551814276285,-0.25874581521622375,-0.26269789590626375,-0.8271710355804252,-0.21077341830421678,-0.07725512924473762
8877,8.0,299.85733,2276.0855,0.0,0.0,0.0,-0.09002293237866266,0.0,0.0,-0.14162692126998888,-0.2606070847224168,-0.2896391622851597,-0.8499510661836391,-0.2023821977335678,-0.07289443822662094
8878,8.0,299.94892000000004,2246.2702,0.0,0.0,0.0,-0.09003307352233493,0.0,0.0,-0.14298345037136787,-0.25877838107443774,-0.2810482098547987,-0.8322069899024351,-0.19192930705194783,-0.08749790225312061
8879,8.0,298.58808,2226.353,0.0,0.0,0.0,-0.09004321466600718,0.0,0.0,-0.14046853322566485,-0.24765008827366078,-0.28863709846626373,-0.8278893387088162,-0.18787399644171981,-0.05104020005427555
8880,8.0,298.91395,2246.9328,0.0,0.0,0.0,-0.09005335580967945,0.0,0.0,-0.16854737549183083,-0.22333692920913878,-0.2911271808520157,-0.8337697153991641,-0.2085314707354538,-0.06458982115526904
8881,8.0,301.0311,2320.3057,0.0,0.0,0.0,-0.09006349695335171,0.0,0.0,-0.16319412190100585,-0.25856438265331777,-0.28355650034484775,-0.8367264095884671,-0.2318833594301058,-0.05145567515177975
8882,8.0,300.42272,2301.2119,0.0,0.0,0.0,-0.09007363809702397,0.0,0.0,-0.16884617281381983,-0.23990756054953277,-0.2907572229755037,-0.8186246762869652,-0.2178470287098278,-0.055722478415630446
8883,8.0,301.15581000000003,2160.7848,0.0,0.0,0.0,-0.09008377924069623,0.0,0.0,-0.12047368396732688,-0.23665785469631176,-0.2996930756074037,-0.8417075572125682,-0.17879928801611583,-0.08081799524011513
8884,8.0,300.35796,2000.6276,0.0,0.0,0.0,-0.09009392038436849,0.0,0.0,-0.1069569276333269,-0.2333898698112868,-0.26779403728421375,-0.8202706098819063,-0.2030831844177498,-0.07539621858477744
8885,8.0,300.25299,2326.9543,0.0,0.0,0.0,-0.09010406152804075,0.0,0.0,-0.15883980118626784,-0.25339545952068476,-0.29510075257667673,-0.8456595163125963,-0.20929337401564782,-0.08152907085554283
8886,8.0,300.83331,2372.6275,0.0,0.0,0.0,-0.09011420267171301,0.0,0.0,-0.1917334458076178,-0.25512139934352174,-0.27436467034018475,-0.8397341715828102,-0.1974710555588758,-0.04443399685354406
8887,8.0,299.40695,2040.989,0.0,0.0,0.0,-0.09012434381538527,0.0,0.0,-0.13630174483943489,-0.25213511825129875,-0.2319728395464368,-0.8313870476565133,-0.2070988060215608,-0.06189800878060785
8888,8.0,298.86832999999996,2229.8095,0.0,0.0,0.0,-0.09013448495905753,0.0,0.0,-0.16674355726630782,-0.22557648550766576,-0.2854863567503097,-0.8535719660784942,-0.2189826895544088,-0.009459101468340631
8889,8.0,299.87872000000004,2648.8111,0.0,0.0,0.0,-0.09014462610272979,0.0,0.0,-0.19545645091504982,-0.2897247515211067,-0.3199912311506757,-0.8538323308241901,-0.21082786023208977,-0.051580891585887655
8890,8.0,299.82366,2487.9919,0.0,0.0,0.0,-0.09015476724640206,0.0,0.0,-0.17895275487626183,-0.2429636444411448,-0.3343710232573507,-0.8366612170770332,-0.1965855458989828,-0.029693376253758074
8891,8.0,300.16195,2334.2422,0.0,0.0,0.0,-0.09016490839007431,0.0,0.0,-0.16618919800409684,-0.24600014220832375,-0.29736198229484273,-0.8277980752723092,-0.17489993686127983,-0.06911174559554824
8892,8.0,300.72805,2231.6563,0.0,0.0,0.0,-0.09017504953374658,0.0,0.0,-0.15570573756695988,-0.2536958679103328,-0.26896617513239474,-0.8271119225695912,-0.2109468157938298,-0.04587532485579205
8893,8.0,300.23755,2044.2844,0.0,0.0,0.0,-0.09018519067741883,0.0,0.0,-0.13627158038395787,-0.2315756556397378,-0.25356416566233475,-0.8191460339934192,-0.23807356773603178,-0.095525410620874
8894,8.0,300.71159,2193.7119,0.0,0.0,0.0,-0.0901953318210911,0.0,0.0,-0.1279307386082809,-0.27009751953154976,-0.26880536220902373,-0.8083576562036893,-0.22765403324770378,-0.07363313301327443
8895,8.0,299.46792,2149.8322,0.0,0.0,0.0,-0.09020547296476335,0.0,0.0,-0.13270599381206188,-0.25226190623631173,-0.26852739730909075,-0.8221967577920023,-0.18153952158655584,-0.11275353893790789
8896,8.0,299.99043,1897.006,0.0,0.0,0.0,-0.09021561410843562,0.0,0.0,-0.07721386767416542,-0.23813376492447275,-0.26129482822779176,-0.8361384610854412,-0.1928953903597928,-0.08004276569460593
8897,8.0,300.25456,1891.3359,0.0,0.0,0.0,-0.09022575525210787,0.0,0.0,-0.10245654691667391,-0.24796185519692973,-0.2245004848289728,-0.8703572544525732,-0.19469928964532382,-0.07187636201639463
8898,8.0,299.08993,2340.5665,0.0,0.0,0.0,-0.09023589639578014,0.0,0.0,-0.18708107757596484,-0.23709608536456178,-0.28729661924646877,-0.8555270726764481,-0.20864713323436881,-0.019796200562982882
8899,8.0,299.10865,2507.6333,0.0,0.0,0.0,-0.09024603753945239,0.0,0.0,-0.2012138697057628,-0.2618202186696437,-0.2992238192210917,-0.8311879744093662,-0.2019519413436048,-0.045180909098508554
8900,8.0,299.92059,2380.6482,0.0,0.0,0.0,-0.09025617868312466,0.0,0.0,-0.18587849156227884,-0.24830187153298675,-0.2894772550516807,-0.8284147291506682,-0.23130923165844378,-0.01819965277791588
8901,8.0,300.66123,2361.2242,0.0,0.0,0.0,-0.09026631982679692,0.0,0.0,-0.18971571022098282,-0.24650068775772374,-0.28153678892051776,-0.8234795526836042,-0.23907911713527177,-0.07119214563461773
8902,8.0,300.25937000000005,2499.2229,0.0,0.0,0.0,-0.09027646097046918,0.0,0.0,-0.18258196342193683,-0.27407706943180077,-0.3030423332829497,-0.8267336560422591,-0.2113055367267328,-0.057087960594893045
8903,8.0,300.98066,2269.0455,0.0,0.0,0.0,-0.09028660211414144,0.0,0.0,-0.15673870551390584,-0.23558390078282077,-0.29741057776963875,-0.8349425827874172,-0.16197941741612384,-0.09764039491235672
8904,8.0,301.23834,2219.9274,0.0,0.0,0.0,-0.0902967432578137,0.0,0.0,-0.16079902157962786,-0.22544090251178478,-0.2885625536564067,-0.8415086663504392,-0.20353879232521482,-0.04665995026947855
8905,8.0,300.60612000000003,2003.0446,0.0,0.0,0.0,-0.09030688440148596,0.0,0.0,-0.1119841984019799,-0.24301813703152278,-0.2538732170753358,-0.8518915211851473,-0.2083582252333558,-0.08641905839464702
8906,8.0,301.14394,1874.3423,0.0,0.0,0.0,-0.09031702554515823,0.0,0.0,-0.10722527678981089,-0.21435762841295078,-0.24817037193500877,-0.8363980861585641,-0.2133684734003288,-0.038444230695650165
8907,8.0,300.37906,2224.1675,0.0,0.0,0.0,-0.09032716668883048,0.0,0.0,-0.14249104122027087,-0.26601568203370374,-0.26758465928354974,-0.8380457321461743,-0.19632600188586782,-0.07915390521663222
8908,8.0,299.47348999999997,2665.0271,0.0,0.0,0.0,-0.09033730783250275,0.0,0.0,-0.1862856762474648,-0.2828393523215707,-0.3409766539717757,-0.8504246795453813,-0.2006645665615508,-0.035965499750768466
8909,8.0,301.17467999999997,2521.2732,0.0,0.0,0.0,-0.090347448976175,0.0,0.0,-0.1766852328749748,-0.28143977022344274,-0.3082790833772767,-0.8701620822183113,-0.1952389162510808,-0.07636748669338414
8910,8.0,301.05077,2216.173,0.0,0.0,0.0,-0.09035759011984727,0.0,0.0,-0.16110704961002784,-0.24329077223592976,-0.2692634323142318,-0.8336032181427323,-0.18028977891321582,-0.04715711764304516
8911,8.0,299.98295,2369.9607,0.0,0.0,0.0,-0.09036773126351953,0.0,0.0,-0.18040979838756083,-0.25573596592667475,-0.28426310043458375,-0.8484451029575122,-0.17227040086426484,-0.07518074487151184
8912,8.0,300.94163,2405.3451,0.0,0.0,0.0,-0.09037787240719179,0.0,0.0,-0.19086484729189382,-0.2526076271704318,-0.28769237447052676,-0.8157999173931832,-0.23203322925239678,-0.06566084373622073
8913,8.0,299.77646,2154.0298,0.0,0.0,0.0,-0.09038801355086405,0.0,0.0,-0.14541886791422484,-0.25029466090215974,-0.25905775439200973,-0.8223877655683532,-0.25213477374626475,-0.10192317206403391
8914,8.0,299.21643,2070.2068,0.0,0.0,0.0,-0.09039815469453631,0.0,0.0,-0.12680678080235488,-0.22895428643852878,-0.27353010689531976,-0.8040721757007452,-0.23521199746611676,-0.09219001015369561
8915,8.0,300.47,1929.9096,0.0,0.0,0.0,-0.09040829583820857,0.0,0.0,-0.10807518084118989,-0.2236578153833078,-0.2549113222002887,-0.8282177229337252,-0.1909468394899858,-0.0886134652819681
8916,8.0,300.3477,2017.7873,0.0,0.0,0.0,-0.09041843698188085,0.0,0.0,-0.12153022011159889,-0.22106021702944478,-0.2707665077775737,-0.8529084696480121,-0.20959730851564382,-0.050691449502356545
8917,8.0,300.62584,2661.9924,0.0,0.0,0.0,-0.09042857812555309,0.0,0.0,-0.1880451141186078,-0.30087858835690473,-0.3202555171742587,-0.8545195879695172,-0.1916809391874358,-0.03150704529675327
8918,8.0,300.71237,2625.5063,0.0,0.0,0.0,-0.09043871926922536,0.0,0.0,-0.1910269065128878,-0.28587228344839777,-0.3211891663464027,-0.8317553843328651,-0.19352920869484583,-0.009829114465658071
8919,8.0,300.16066,2134.896,0.0,0.0,0.0,-0.09044886041289761,0.0,0.0,-0.12466270306075089,-0.26448907890303974,-0.25980330381558975,-0.8403485659134462,-0.18965224023471883,-0.05684535204394944
8920,8.0,300.48456,2208.2425,0.0,0.0,0.0,-0.09045900155656988,0.0,0.0,-0.15844891969519084,-0.23690249380045578,-0.27589916668912773,-0.8414301192026872,-0.22298064007647578,-0.03694343808478346
8921,8.0,299.85882000000004,2569.1166,0.0,0.0,0.0,-0.09046914270024216,0.0,0.0,-0.20967879408868578,-0.28001096599243075,-0.2912575456098817,-0.8808786915034582,-0.2046374999386488,-0.07047686807102534
8922,8.0,298.75998,2351.6799,0.0,0.0,0.0,-0.0904792838439144,0.0,0.0,-0.18416717293838483,-0.23212618481657077,-0.29855860026543973,-0.8423039967514322,-0.18426327971036982,-0.03857878220292936
8923,8.0,299.25262000000004,1981.3478,0.0,0.0,0.0,-0.09048942498758668,0.0,0.0,-0.1264788120099869,-0.2281659981257308,-0.24763543667721477,-0.8472013891222673,-0.17286470244541782,-0.1027555570211839
8924,8.0,300.14217,1923.9596,0.0,0.0,0.0,-0.09049956613125892,0.0,0.0,-0.09990429150478591,-0.2086759196697098,-0.27625547608679274,-0.8272668586423823,-0.21248346023298478,-0.06280511181338194
8925,8.0,300.1192,2124.1138,0.0,0.0,0.0,-0.09050970727493118,0.0,0.0,-0.11986939174018789,-0.24407796623861977,-0.28173018796710475,-0.8374601546483822,-0.24694983112955077,-0.11274966832252589
8926,8.0,300.78977000000003,2506.3314,0.0,0.0,0.0,-0.09051984841860346,0.0,0.0,-0.16868779169068884,-0.2871292911249547,-0.3060450695567967,-0.8106014782851372,-0.2068712300491008,-0.052049617029147247
8927,8.0,300.48348,2425.6574,0.0,0.0,0.0,-0.0905299895622757,0.0,0.0,-0.17135345005376884,-0.2805223938479047,-0.2854634167680457,-0.8233446283002882,-0.2122097003209668,-0.07955595373706133
8928,8.0,300.22825,2050.0848,0.0,0.0,0.0,-0.09054013070594798,0.0,0.0,-0.1137313151519069,-0.23943122154502175,-0.2700120518856147,-0.8307045325216541,-0.2188728836410718,-0.026841475429547373
8929,8.0,300.70556,1967.536,0.0,0.0,0.0,-0.09055027184962022,0.0,0.0,-0.1150968317816729,-0.24982127045543975,-0.2331637022564658,-0.882409996114586,-0.19741843748118282,-0.05281588640402215
8930,8.0,299.37057000000004,2515.1396,0.0,0.0,0.0,-0.0905604129932925,0.0,0.0,-0.16224214303455287,-0.27548060320531875,-0.3268168789918147,-0.8571729758738862,-0.2015909000679728,-0.03466895505530947
8931,8.0,298.98132000000004,2565.0907,0.0,0.0,0.0,-0.09057055413696477,0.0,0.0,-0.18352127666213983,-0.27686981975492375,-0.31933243620065765,-0.8365720510682332,-0.18362462817233982,-0.07554965504742042
8932,8.0,299.40796,2063.5983,0.0,0.0,0.0,-0.09058069528063702,0.0,0.0,-0.14702101897234487,-0.21858528273268776,-0.2616760534454158,-0.8502682235974401,-0.2154387865346528,-0.07211789956198253
8933,8.0,298.52808999999996,1912.5863,0.0,0.0,0.0,-0.09059083642430929,0.0,0.0,-0.14578586710044486,-0.2098883139443638,-0.22570429687527976,-0.8299316962728812,-0.2426191191421428,-0.09964500283069609
8934,8.0,298.2612,2303.888,0.0,0.0,0.0,-0.09060097756798154,0.0,0.0,-0.16921298961502182,-0.22822343927389976,-0.3028879950277177,-0.8440716926108901,-0.21932815717600376,-0.056070918913018845
8935,8.0,298.89446,2367.3466,0.0,0.0,0.0,-0.09061111871165381,0.0,0.0,-0.17725848925155083,-0.23776257088283875,-0.3045931834885067,-0.8201821227506733,-0.1811317998788168,-0.08961288553135321
8936,8.0,298.98761,2188.4427,0.0,0.0,0.0,-0.09062125985532607,0.0,0.0,-0.1142966073826969,-0.24479158815154878,-0.3061437601165367,-0.8256050170208712,-0.19296610508427184,-0.05534257650263705
8937,8.0,300.24734,2056.0514,0.0,0.0,0.0,-0.09063140099899833,0.0,0.0,-0.12055487569783988,-0.23301066096136178,-0.27142275946984074,-0.8368031024885362,-0.20999824144771279,-0.05989385479831324
8938,8.0,299.49371,2035.9749,0.0,0.0,0.0,-0.09064154214267059,0.0,0.0,-0.1293972661405159,-0.2362327760143598,-0.2532554891518708,-0.8378211553940101,-0.22001980169426377,-0.03628096098390207
8939,8.0,299.38313,2454.8118,0.0,0.0,0.0,-0.09065168328634285,0.0,0.0,-0.2073721910310418,-0.2912659555857117,-0.24756335406510077,-0.8439015172565952,-0.22191750767405277,-0.06075195502975114
8940,8.0,300.48817,2628.1265,0.0,0.0,0.0,-0.09066182443001511,0.0,0.0,-0.21316669477541478,-0.26504487698039275,-0.3206732801904887,-0.8603865188310382,-0.2102641892014598,-0.027968933001318773
8941,8.0,300.4236,2088.2192,0.0,0.0,0.0,-0.09067196557368738,0.0,0.0,-0.13974218489147985,-0.23451609729743678,-0.26050822191015977,-0.8709072668718553,-0.22500124316089376,-0.06233680180266335
8942,8.0,300.12339,1788.2431,0.0,0.0,0.0,-0.09068210671735963,0.0,0.0,-0.07209237275221322,-0.2124952038016438,-0.25899365619068376,-0.8565787654852421,-0.19070644590376082,-0.07756467208403713
8943,8.0,299.6979,2151.0096,0.0,0.0,0.0,-0.0906922478610319,0.0,0.0,-0.13487079251821085,-0.23990905002717974,-0.27907337527739773,-0.8374586043757293,-0.1817491731647468,-0.09191507892456201
8944,8.0,299.96447,2474.5842,0.0,0.0,0.0,-0.09070238900470415,0.0,0.0,-0.17554040211698885,-0.2630577820767817,-0.3136136121062537,-0.8316840920558293,-0.19238233117165782,-0.1030682763995469
8945,8.0,299.40623999999997,2347.3663,0.0,0.0,0.0,-0.09071253014837642,0.0,0.0,-0.17577210201735582,-0.25941174344694573,-0.27835690613168773,-0.8427181627298072,-0.2261402477308048,-0.07206265210028003
8946,8.0,299.75414,1914.8322,0.0,0.0,0.0,-0.09072267129204868,0.0,0.0,-0.13561947288459988,-0.2200224361445238,-0.22641926641084176,-0.8208679309483572,-0.23126248029882976,-0.07273101922399272
8947,8.0,298.59295,1991.3732,0.0,0.0,0.0,-0.09073281243572094,0.0,0.0,-0.12036870112446589,-0.23442024383797677,-0.2505387832487528,-0.8208606558126392,-0.2240213492541858,-0.02828695269095487
8948,8.0,298.07974,2517.8829,0.0,0.0,0.0,-0.0907429535793932,0.0,0.0,-0.15689188866402384,-0.28531963657885573,-0.3231619946886057,-0.8323016578592782,-0.21624665083938277,-0.050621776398980356
8949,8.0,299.18236,2863.2929,0.0,0.0,0.0,-0.09075309472306546,0.0,0.0,-0.20839876536985683,-0.30378341427358874,-0.35818736553284064,-0.8352508134678371,-0.2140272886153488,0.0024964654560819576
8950,8.0,300.0822,2453.3678,0.0,0.0,0.0,-0.09076323586673772,0.0,0.0,-0.17557816594821582,-0.2590880607025008,-0.3110963340878177,-0.8435163302310802,-0.19068522844666683,-0.04042605061924056
8951,8.0,300.13205,1951.5357,0.0,0.0,0.0,-0.09077337701041,0.0,0.0,-0.13555963033369386,-0.2117539505584878,-0.24590453192888778,-0.8269399740276212,-0.19073553631413181,-0.044690397764848865
8952,8.0,300.53281,2148.3113,0.0,0.0,0.0,-0.09078351815408224,0.0,0.0,-0.13110220128877986,-0.25161086264955873,-0.27031991779599873,-0.8587891705783921,-0.18951338444101481,-0.08432906794338102
8953,8.0,300.54981000000004,2720.3074,0.0,0.0,0.0,-0.09079365929775451,0.0,0.0,-0.22204835879196677,-0.25634788792706675,-0.3485092768051877,-0.8542703081799151,-0.23290915356634376,-0.056976291314622146
8954,8.0,299.81859,2420.9833,0.0,0.0,0.0,-0.09080380044142676,0.0,0.0,-0.16011701306981885,-0.24416332242704378,-0.33163812561763467,-0.8491505378096332,-0.2214807968809528,-0.08208457914336721
8955,8.0,300.45268,1854.4812,0.0,0.0,0.0,-0.09081394158509903,0.0,0.0,-0.09056878567569322,-0.21559011543708778,-0.2575570701989038,-0.8287203963083352,-0.1991183469089508,-0.07409014832512834
8956,8.0,299.66087999999996,1988.9981,0.0,0.0,0.0,-0.0908240827287713,0.0,0.0,-0.1117557611669349,-0.2228663353326948,-0.26998365048531175,-0.8216552566735602,-0.1932405844038608,-0.06159178534863594
8957,8.0,298.97526,2589.6665,0.0,0.0,0.0,-0.09083422387244355,0.0,0.0,-0.19625256151861983,-0.28598549388207073,-0.3049558966268037,-0.8177284869710182,-0.2213612738991568,-0.03340127278894897
8958,8.0,298.76391,2672.4877,0.0,0.0,0.0,-0.09084436501611581,0.0,0.0,-0.2097208338353348,-0.28263548640145075,-0.3200132085453447,-0.8301894063033152,-0.20755686599426781,-0.04799079652057286
8959,8.0,298.99579,2382.5198,0.0,0.0,0.0,-0.09085450615978807,0.0,0.0,-0.17763002779821882,-0.2665623507276558,-0.2800341390222177,-0.8007445610473352,-0.21368758638682278,-0.02976838614541097
8960,8.0,300.11643,2059.3857,0.0,0.0,0.0,-0.09086464730346033,0.0,0.0,-0.1028147510920259,-0.25763659006675177,-0.26555049891279375,-0.8325743335936893,-0.19117590494009282,-0.07794447773827103
8961,8.0,300.20385,2146.7579,0.0,0.0,0.0,-0.0908747884471326,0.0,0.0,-0.14118036168591686,-0.24497768166491476,-0.26640276383690575,-0.8443032506562432,-0.2161562486654608,-0.05927976444270724
8962,8.0,300.38771,2557.5928,0.0,0.0,0.0,-0.09088492959080485,0.0,0.0,-0.17183830035911984,-0.28306970459930475,-0.3225363634143607,-0.8805990040783552,-0.19747474378923982,-0.09359142826100482
8963,8.0,300.91107,2452.4694,0.0,0.0,0.0,-0.09089507073447713,0.0,0.0,-0.2037265982312498,-0.2409233437747828,-0.3008395174330487,-0.8595193692629571,-0.17667437083390283,-0.07909618947768612
8964,8.0,299.96922,1842.777,0.0,0.0,0.0,-0.09090521187814937,0.0,0.0,-0.08812672425193052,-0.2428142103163968,-0.22921726536948278,-0.8594164838478031,-0.1903065667517958,-0.1032986388097819
8965,8.0,300.65044,1888.7285,0.0,0.0,0.0,-0.09091535302182165,0.0,0.0,-0.12610801313589187,-0.2211343362742598,-0.22688396317170378,-0.8358576286877252,-0.24160874667242674,-0.07440627627682772
8966,8.0,300.90682000000004,2606.6486,0.0,0.0,0.0,-0.09092549416549392,0.0,0.0,-0.16139248216319785,-0.28136529634109275,-0.34959830788016666,-0.8582594636911143,-0.23360061569958576,-0.06926854402202304
8967,8.0,300.10084,2648.1493,0.0,0.0,0.0,-0.09093563530916617,0.0,0.0,-0.21728781597963778,-0.2723905247728517,-0.31529290189448667,-0.8194388227423153,-0.20654471020437581,-0.04225548076754126
8968,8.0,299.59376000000003,2153.0479,0.0,0.0,0.0,-0.09094577645283843,0.0,0.0,-0.1031293449830739,-0.25377744467588376,-0.2975660103349787,-0.8208589535524712,-0.20342286638127383,-0.05681976241267394
8969,8.0,298.42784,2009.8543,0.0,0.0,0.0,-0.09095591759651069,0.0,0.0,-0.14038917547783286,-0.22243125587225582,-0.24812508978803977,-0.8457614594051571,-0.19998579031956082,-0.037235254113583464
8970,8.0,299.68599,2484.8053,0.0,0.0,0.0,-0.09096605874018295,0.0,0.0,-0.16463188326290185,-0.27660126794841977,-0.3140856144003367,-0.8544593907810762,-0.2031082724902258,-0.04215497243712186
8971,8.0,299.67683999999997,2555.8979999999997,0.0,0.0,0.0,-0.09097619988385522,0.0,0.0,-0.21242103389432382,-0.2813964233841647,-0.28311171394845075,-0.8425025431085272,-0.20862066714175678,-0.04192779467195116
8972,8.0,299.94496000000004,2232.1441,0.0,0.0,0.0,-0.09098634102752746,0.0,0.0,-0.14806127218750986,-0.24597766832110576,-0.28447713938570773,-0.8490787085100441,-0.20576498385492278,-0.08564106267636482
8973,8.0,300.29952000000003,2048.007,0.0,0.0,0.0,-0.09099648217119974,0.0,0.0,-0.15876309815369785,-0.2234333095586508,-0.24034656128785875,-0.8445355787716721,-0.23745836280531576,-0.07842880621982053
8974,8.0,299.77542,1977.4245,0.0,0.0,0.0,-0.09100662331487198,0.0,0.0,-0.1109655476789469,-0.22077412586370979,-0.2693479981675777,-0.8480782152288032,-0.2006757832401578,-0.11137149619901089
8975,8.0,300.30568999999997,2433.5612,0.0,0.0,0.0,-0.09101676445854426,0.0,0.0,-0.21408975548401382,-0.2281408289932468,-0.2975112542995747,-0.8593821751994173,-0.16561960959288283,-0.07432004261381712
8976,8.0,301.03204,2548.4112,0.0,0.0,0.0,-0.09102690560221653,0.0,0.0,-0.1871973986874448,-0.2677457761819507,-0.3197101859704387,-0.8442217954807042,-0.16336588805795785,-0.08241045760077892
8977,8.0,298.78971,1839.6588,0.0,0.0,0.0,-0.09103704674588878,0.0,0.0,-0.12776034033896388,-0.1962973167755368,-0.23515268180526278,-0.8273398430470852,-0.21000753295112978,-0.046468509835334855
8978,8.0,299.96653,1792.0044,0.0,0.0,0.0,-0.09104718788956105,0.0,0.0,-0.05394382121659066,-0.23446853533774278,-0.2563122417885487,-0.8458041577643712,-0.23450272239611678,-0.08235831879038322
8979,8.0,299.58512,2450.8816,0.0,0.0,0.0,-0.0910573290332333,0.0,0.0,-0.17425598602522682,-0.25720182471384373,-0.3135489870148757,-0.8144511497875702,-0.25555840397915075,-0.038673388351516264
8980,8.0,299.2927,2674.6284,0.0,0.0,0.0,-0.09106747017690557,0.0,0.0,-0.15160698892494487,-0.32832835429848567,-0.3330848947729197,-0.8276203917347732,-0.2202769544371428,-0.08032251492796502
8981,8.0,299.87536,2240.0075,0.0,0.0,0.0,-0.09107761132057783,0.0,0.0,-0.16492714434204184,-0.2580273195703137,-0.25795186283536675,-0.8430331315233922,-0.2110958243535358,-0.04097171720884366
8982,8.0,300.10645,1921.566,0.0,0.0,0.0,-0.09108775246425009,0.0,0.0,-0.0997914721856515,-0.23614773393346677,-0.24816888245736174,-0.8554021389391181,-0.1932492679572178,-0.07448762911410663
8983,8.0,300.23019,2134.9533,0.0,0.0,0.0,-0.09109789360792235,0.0,0.0,-0.14825545143667387,-0.2172507310259778,-0.2834663210859477,-0.8563267803178731,-0.17635455870483982,-0.03820340951788296
8984,8.0,300.75366,2508.4959,0.0,0.0,0.0,-0.09110803475159461,0.0,0.0,-0.17283407189489483,-0.2439454837880448,-0.34574057090693766,-0.8649838675822611,-0.17712476050335282,-0.07670114488506362
8985,8.0,299.51942,2588.7282,0.0,0.0,0.0,-0.09111817589526687,0.0,0.0,-0.1987848255060348,-0.23882822627801079,-0.3492956804727997,-0.8448663137368131,-0.20633093469827782,-0.04215441312306666
8986,8.0,300.29294,2198.3319,0.0,0.0,0.0,-0.09112831703893914,0.0,0.0,-0.14042913806177687,-0.2307286292186428,-0.29708021770703474,-0.8403910818876422,-0.1993734123566238,-0.08310633142495633
8987,8.0,299.75445,1996.5745,0.0,0.0,0.0,-0.09113845818261139,0.0,0.0,-0.14556601209374687,-0.1975798076921088,-0.26376299401388076,-0.8346320317642683,-0.2099856062189658,-0.04105304370161996
8988,8.0,300.36316,2432.701,0.0,0.0,0.0,-0.09114859932628366,0.0,0.0,-0.17780068951256184,-0.2822708379554627,-0.2794088319880047,-0.8452586847055371,-0.2068303048775618,-0.05720800742699074
8989,8.0,300.13656000000003,2817.3524,0.0,0.0,0.0,-0.09115874046995591,0.0,0.0,-0.22636519938550578,-0.2957128468295857,-0.33432673409547964,-0.8394143189237433,-0.21649685268657579,-0.027526749644428673
8990,8.0,299.8832,2299.756,0.0,0.0,0.0,-0.09116888161362818,0.0,0.0,-0.14870533448107387,-0.27132991536317774,-0.27903313911592675,-0.8360803005297012,-0.20321588978334681,-0.057160086776761355
8991,8.0,299.5223,1988.1888,0.0,0.0,0.0,-0.09117902275730043,0.0,0.0,-0.11844524845963589,-0.2468554063527318,-0.23905908518079474,-0.8196238827405793,-0.2243958160936428,-0.06154033656155835
8992,8.0,300.14198,2266.1259,0.0,0.0,0.0,-0.0911891639009727,0.0,0.0,-0.12118826846785088,-0.27543248395806974,-0.2922249461428567,-0.8465245279229663,-0.22910796608119577,-0.07528147510370313
8993,8.0,299.23857000000004,2554.1041,0.0,0.0,0.0,-0.09119930504464496,0.0,0.0,-0.1966582060636538,-0.27030449612947677,-0.3094211580949907,-0.8531027907521902,-0.2230589339117028,-0.07130390712064773
8994,8.0,299.00784,2482.1081,0.0,0.0,0.0,-0.09120944618831722,0.0,0.0,-0.16291639004859584,-0.2751456024572567,-0.3164368916548897,-0.8636308949887332,-0.2026903980164848,-0.08776059038129591
8995,8.0,299.39167000000003,2024.6634,0.0,0.0,0.0,-0.09121958733198948,0.0,0.0,-0.15058290718137585,-0.2073394022578058,-0.2575248083157198,-0.8569017592196191,-0.18679782351050983,-0.06335994730313993
8996,8.0,299.887,1756.8638,0.0,0.0,0.0,-0.09122972847566174,0.0,0.0,-0.08202802256253551,-0.2102658407991228,-0.24174885889625478,-0.8591090840324652,-0.19231662190267282,-0.08956000299538411
8997,8.0,301.16582,2283.7569,0.0,0.0,0.0,-0.091239869619334,0.0,0.0,-0.16947827875620383,-0.26054553991134277,-0.26418125352265975,-0.8580075798487551,-0.2293187524994988,-0.06456859863192453
8998,8.0,300.27588,2751.3142,0.0,0.0,0.0,-0.09125001076300626,0.0,0.0,-0.1883808545392428,-0.3049288935116387,-0.3430210583010427,-0.8346529047163282,-0.2350494721500768,-0.07591197707117883
8999,8.0,300.13407,2385.4066,0.0,0.0,0.0,-0.09126015190667852,0.0,0.0,-0.20345130831158081,-0.26669016209526974,-0.25496257239034675,-0.8427328548562572,-0.23011093169268076,-0.039453551411762364
9000,8.0,299.36812000000003,1958.0559,0.0,0.0,0.0,-0.09127029305035078,0.0,0.0,-0.095075912611512,-0.23876448271421977,-0.2613597066316947,-0.8357526661098662,-0.2286624805422298,-0.05626589964301194
9001,8.0,299.7931,2256.9732,0.0,0.0,0.0,-0.09128043419402304,0.0,0.0,-0.1938631961928078,-0.2552228560760348,-0.2369774540428538,-0.8693264953908452,-0.2161021715076238,-0.04149798309878206
9002,8.0,300.25817,2753.0576,0.0,0.0,0.0,-0.0912905753376953,0.0,0.0,-0.21973143071580378,-0.2853699039163167,-0.33175944205210767,-0.8641673906516811,-0.17908468003928182,-0.05453826667925785
9003,8.0,300.05456000000004,2583.8946,0.0,0.0,0.0,-0.09130071648136756,0.0,0.0,-0.2039794142637008,-0.2693776357330027,-0.3120823986876347,-0.8685505585967662,-0.17946720221703383,-0.05759900544182925
9004,8.0,299.8268,2041.2409,0.0,0.0,0.0,-0.09131085762503983,0.0,0.0,-0.10852275367536189,-0.2212264407083498,-0.29073705929851373,-0.8619806246833641,-0.20359595989585683,-0.06976464545648443
9005,8.0,299.13617,1960.1683,0.0,0.0,0.0,-0.09132099876871208,0.0,0.0,-0.13503039967396288,-0.2043478421325618,-0.25646395572602176,-0.8543369293739902,-0.23352412544953677,-0.06225311545040415
9006,8.0,299.18652000000003,2287.165,0.0,0.0,0.0,-0.09133113991238435,0.0,0.0,-0.14331812687939788,-0.23742698244971877,-0.3144959300283317,-0.8290976394530662,-0.2197450589296488,-0.046725813552478755
9007,8.0,298.65595,2629.137,0.0,0.0,0.0,-0.0913412810560566,0.0,0.0,-0.22474573188317679,-0.28086035328625875,-0.2935859031471727,-0.8416062524675703,-0.19473648605649482,-0.05512095844076504
9008,8.0,299.077,2457.8798,0.0,0.0,0.0,-0.09135142219972887,0.0,0.0,-0.16236002455118684,-0.27311115837647276,-0.31166291314623473,-0.8500321565891422,-0.2090482384189548,-0.06035242848882095
9009,8.0,299.1475,2030.9425,0.0,0.0,0.0,-0.09136156334340112,0.0,0.0,-0.13039191296867986,-0.24508604876310977,-0.24187784563398476,-0.8663227965294031,-0.2018896163299538,-0.09082178915941272
9010,8.0,298.99526000000003,2140.6649,0.0,0.0,0.0,-0.0913717044870734,0.0,0.0,-0.10182555554939991,-0.2772972998396127,-0.27158581167593276,-0.8474247094443073,-0.21235376422018482,-0.07651770608695962
9011,8.0,300.66287,2601.091,0.0,0.0,0.0,-0.09138184563074565,0.0,0.0,-0.18524921258767382,-0.2897610360071877,-0.3156564661628677,-0.8629746027664622,-0.19616363868984382,-0.05648035706642725
9012,8.0,300.08403,2366.5608,0.0,0.0,0.0,-0.09139198677441791,0.0,0.0,-0.13468060547444086,-0.2826015019930967,-0.3020932725767847,-0.8623139738337631,-0.2280574081125138,-0.058036637279270144
9013,8.0,299.90859,1841.4583,0.0,0.0,0.0,-0.09140212791809017,0.0,0.0,-0.13697729894610686,-0.2070562089873568,-0.21572383405278478,-0.8586784831374682,-0.22416222141558878,-0.07024319030646313
9014,8.0,299.32828,2039.9188,0.0,0.0,0.0,-0.09141226906176243,0.0,0.0,-0.1140767827735019,-0.23926495733611278,-0.26674263831794875,-0.8223589690005112,-0.2210769356560948,-0.07585585213488973
9015,8.0,300.31787,2425.7395,0.0,0.0,0.0,-0.09142241020543469,0.0,0.0,-0.18648290537942983,-0.24618581015664776,-0.3046955217486067,-0.8306307476493722,-0.17755800598111085,-0.07428261518162334
9016,8.0,300.35801000000004,2648.7667,0.0,0.0,0.0,-0.09143255134910697,0.0,0.0,-0.18422771463185983,-0.2800943666081617,-0.34083686598797963,-0.8444437479151092,-0.18775399723237682,-0.07814629284018863
9017,8.0,300.92958,2347.6148,0.0,0.0,0.0,-0.09144269249277921,0.0,0.0,-0.17758400597867682,-0.2393531911548208,-0.2966790821249457,-0.8721285372173853,-0.1874162911065478,-0.05805142161147924
9018,8.0,299.4419,1950.2454,0.0,0.0,0.0,-0.09145283363645149,0.0,0.0,-0.11872375038212188,-0.2116309622613498,-0.26247119132888974,-0.8664478619892462,-0.19338563115567584,-0.048297910599382654
9019,8.0,300.36235,2299.8901,0.0,0.0,0.0,-0.09146297478012373,0.0,0.0,-0.19748598073284881,-0.23447991413636576,-0.2671432875399898,-0.8600429257221283,-0.18817986624940683,-0.031149752033241173
9020,8.0,299.99897999999996,2679.9846,0.0,0.0,0.0,-0.091473115923796,0.0,0.0,-0.17349126590975483,-0.2922484028826717,-0.3489087303921107,-0.8535362287474673,-0.20795417149097883,-0.05401780975214275
9021,8.0,299.78688999999997,2509.2827,0.0,0.0,0.0,-0.09148325706746827,0.0,0.0,-0.18342917222804983,-0.28630888278398675,-0.29302123913144473,-0.8714525980756752,-0.1990385737285778,-0.06340286655087574
9022,8.0,299.93007,2005.3493,0.0,0.0,0.0,-0.09149339821114053,0.0,0.0,-0.07514384635587022,-0.24340706294990674,-0.2910251972294507,-0.8465599410139611,-0.22430060098174576,-0.06587787988114054
9023,8.0,298.85724,1917.1364,0.0,0.0,0.0,-0.09150353935481279,0.0,0.0,-0.10963561639269288,-0.24071856592957278,-0.23240740224932477,-0.8315154568416863,-0.2055882730374828,-0.05703238382690805
9024,8.0,299.09379,2429.3361,0.0,0.0,0.0,-0.09151368049848504,0.0,0.0,-0.16377522083335586,-0.24061705853455478,-0.3340652547746737,-0.8293544274259091,-0.24158191580977875,-0.04688572772301105
9025,8.0,299.83661,2728.0997,0.0,0.0,0.0,-0.0915238216421573,0.0,0.0,-0.24773476558451774,-0.28905849905035275,-0.2924809437806217,-0.8544486098000121,-0.22489304831521578,-0.04675834799993966
9026,8.0,299.12932,2189.0266,0.0,0.0,0.0,-0.09153396278582958,0.0,0.0,-0.13713487960165888,-0.25351710019518975,-0.27475745674144975,-0.8362686333257883,-0.23675469100836874,-0.09458705692851573
9027,8.0,299.73647,1950.3499,0.0,0.0,0.0,-0.09154410392950182,0.0,0.0,-0.14441729045537688,-0.2291509380179368,-0.21928946115468478,-0.8583248385875661,-0.17945549917837883,-0.09697890066407232
9028,8.0,300.23921,2235.1459,0.0,0.0,0.0,-0.0915542450731741,0.0,0.0,-0.1204749403974509,-0.2795846916753607,-0.2793689200665657,-0.8499178113153572,-0.2122159824715868,-0.1059435559433149
9029,8.0,300.48137,2420.9467,0.0,0.0,0.0,-0.09156438621684634,0.0,0.0,-0.17803015013020784,-0.2689948399777237,-0.2888823455204677,-0.8674558938512311,-0.1899715761362348,-0.08322470031488842
9030,8.0,301.09438,2338.8046,0.0,0.0,0.0,-0.09157452736051862,0.0,0.0,-0.13913321144887886,-0.27271125895950576,-0.29909372804075274,-0.8444562210238401,-0.22246872586095381,-0.055599213501215154
9031,8.0,300.95071,1978.4371,0.0,0.0,0.0,-0.09158466850419088,0.0,0.0,-0.14622390525117587,-0.22297393236081378,-0.23219763921362277,-0.8491832860528651,-0.2168562018345408,-0.046533972884545555
9032,8.0,299.14425,1979.8489,0.0,0.0,0.0,-0.09159480964786314,0.0,0.0,-0.08150113757678602,-0.24202255801326678,-0.27830092406366275,-0.8368379886894792,-0.23880133462035677,-0.060498448973982044
9033,8.0,300.53706,2458.6306,0.0,0.0,0.0,-0.0916049507915354,0.0,0.0,-0.19306825082685283,-0.2699552186875057,-0.28433884087955874,-0.8508567192555203,-0.2163658901111508,-0.07755255057309082
9034,8.0,300.42151,2704.7093,0.0,0.0,0.0,-0.09161509193520766,0.0,0.0,-0.1880526526993518,-0.27728633647353074,-0.3568250811708936,-0.8505606273112982,-0.2013840045300538,-0.057621719469320945
9035,8.0,299.75671,2403.0133,0.0,0.0,0.0,-0.09162523307887992,0.0,0.0,-0.2040835865064818,-0.25210034350786675,-0.2742720998110487,-0.8855161345611382,-0.16705031873408285,-0.06739019922514485
9036,8.0,298.83975,2013.2079999999999,0.0,0.0,0.0,-0.09163537422255219,0.0,0.0,-0.14004336335120388,-0.21745555953369278,-0.25446604944384377,-0.8611366076150662,-0.1923805883814858,-0.04443415897356005
9037,8.0,298.76006,2230.1093,0.0,0.0,0.0,-0.09164551536622444,0.0,0.0,-0.1848241947007278,-0.22114656620296677,-0.27192678046708374,-0.8683086046053872,-0.20456602527659482,-0.04592621939506496
9038,8.0,299.21963999999997,2730.4281,0.0,0.0,0.0,-0.09165565650989671,0.0,0.0,-0.2010543638750208,-0.2724412683378597,-0.35648633139746166,-0.8352338313961613,-0.2353896202086468,-0.06087212446511095
9039,8.0,299.51364,2704.4249,0.0,0.0,0.0,-0.09166579765356896,0.0,0.0,-0.22606729372360476,-0.2773651369338077,-0.3186452195853347,-0.8414374956634152,-0.2201127775234398,-0.061463541323229245
9040,8.0,299.44629,2266.3845,0.0,0.0,0.0,-0.09167593879724123,0.0,0.0,-0.13858114213189388,-0.23575783529498678,-0.3145853189521537,-0.8487516313777642,-0.21904737544079278,-0.05412092314856925
9041,8.0,299.24545,2142.5801,0.0,0.0,0.0,-0.0916860799409135,0.0,0.0,-0.13432188454153787,-0.24971347077730077,-0.26725549485606376,-0.8490848893356543,-0.1970513977649588,-0.061363515299857445
9042,8.0,300.66683,2282.8512,0.0,0.0,0.0,-0.09169622108458575,0.0,0.0,-0.14881337733923686,-0.24320979328793776,-0.3019065812458597,-0.8555086517896303,-0.21435024181972182,-0.05244264154418575
9043,8.0,300.52796,2393.805,0.0,0.0,0.0,-0.09170636222825802,0.0,0.0,-0.16779897883546985,-0.27251961283559173,-0.2873383550180877,-0.8621026098629032,-0.19095311150810482,-0.031274662465818864
9044,8.0,300.4487,2148.1342,0.0,0.0,0.0,-0.09171650337193027,0.0,0.0,-0.10529426527923491,-0.26307739859871776,-0.2846074940110727,-0.8439630823326713,-0.2218944866317808,-0.07141864452222144
9045,8.0,301.02217,1919.6665,0.0,0.0,0.0,-0.09172664451560254,0.0,0.0,-0.12367397361317088,-0.22991358097070377,-0.22994311721111876,-0.8320345651329182,-0.19380358668942482,-0.08540257906657832
9046,8.0,299.99522,2325.2341,0.0,0.0,0.0,-0.0917367856592748,0.0,0.0,-0.1240891427091449,-0.28128421606809073,-0.30143975665978767,-0.8335633670162991,-0.21133109089425478,-0.10278249934134291
9047,8.0,300.07293,2853.2142,0.0,0.0,0.0,-0.09174692680294706,0.0,0.0,-0.25740422142131875,-0.27269678974807776,-0.3372048608720287,-0.8466768092804953,-0.16965107842825786,-0.07921043545296133
9048,8.0,299.41163,2592.7712,0.0,0.0,0.0,-0.09175706794661932,0.0,0.0,-0.20451948669950182,-0.26426407658583373,-0.3193541602828017,-0.868174065257109,-0.1901560991119458,-0.06823656906017503
9049,8.0,298.63363,2000.771,0.0,0.0,0.0,-0.09176720909029157,0.0,0.0,-0.14283713705692785,-0.21797209416967078,-0.24737518338902975,-0.8680145188963632,-0.19317196710708884,-0.07254684379306603
9050,8.0,299.52571,2044.5295,0.0,0.0,0.0,-0.09177735023396384,0.0,0.0,-0.11114259286891989,-0.22434939910656176,-0.28599392412290275,-0.863416957362619,-0.2157765838529908,-0.06449684025984254
9051,8.0,299.38981,2317.403,0.0,0.0,0.0,-0.09178749137763612,0.0,0.0,-0.17838776662050182,-0.25851324392077074,-0.26753164603831775,-0.8337371394084492,-0.20606858398238578,-0.05480079268741715
9052,8.0,300.02921000000003,2494.5354,0.0,0.0,0.0,-0.09179763252130836,0.0,0.0,-0.14829677177575185,-0.27175311953244474,-0.3382265918753657,-0.8224478209017803,-0.2188685570631448,-0.04419389103034745
9053,8.0,299.94813999999997,2215.2869,0.0,0.0,0.0,-0.09180777366498064,0.0,0.0,-0.16059659447464983,-0.24379810656099976,-0.26899722111545876,-0.8438292826569662,-0.1937921876257998,-0.042502390565159365
9054,8.0,300.5104,2023.0262,0.0,0.0,0.0,-0.09181791480865288,0.0,0.0,-0.11557420430128588,-0.23185590035239576,-0.26751935531460475,-0.8619288577357552,-0.20766004525195078,-0.05220832543206055
9055,8.0,300.69203,2532.1896,0.0,0.0,0.0,-0.09182805595232515,0.0,0.0,-0.18988730412541782,-0.28607330213573673,-0.29376181349703373,-0.8657184131097552,-0.19778946940280082,-0.047802803163269354
9056,8.0,300.3683,2898.7491,0.0,0.0,0.0,-0.09183819709599741,0.0,0.0,-0.22270835950960377,-0.2875509652865707,-0.37088802997129866,-0.8740375004057852,-0.2085870475034388,-0.05666999695514324
9057,8.0,298.33331,2550.3034,0.0,0.0,0.0,-0.09184833823966967,0.0,0.0,-0.18767166052925083,-0.27623377226965073,-0.3113231197251997,-0.8513135329306042,-0.2147848349201128,-0.07811517491636752
9058,8.0,299.00571,1946.1692,0.0,0.0,0.0,-0.09185847938334193,0.0,0.0,-0.09528165203106691,-0.2113485998559828,-0.28495658906802573,-0.8621049606031351,-0.2245662244954608,-0.07584530825434914
9059,8.0,299.20923,1773.3225,0.0,0.0,0.0,-0.0918686205270142,0.0,0.0,-0.13590491557027087,-0.18795522870223683,-0.21518561586466678,-0.8490552112402252,-0.22162863007054276,-0.08404247015259601
9060,8.0,299.94567,2136.3193,0.0,0.0,0.0,-0.09187876167068645,0.0,0.0,-0.14837187387316386,-0.2277292366701258,-0.27328661276378874,-0.8475874475428681,-0.22377886837275482,-0.05864056372312304
9061,8.0,299.71705,2351.4088,0.0,0.0,0.0,-0.09188890281435873,0.0,0.0,-0.17705672075913784,-0.25988836616148475,-0.27782446346913975,-0.8533660635256731,-0.2141575723132068,-0.07612426917913043
9062,8.0,298.86818999999997,2149.3538,0.0,0.0,0.0,-0.09189904395803097,0.0,0.0,-0.1032934813667729,-0.2789814836258287,-0.27107491071051076,-0.8480395293399853,-0.2145601264454358,-0.07296553089338724
9063,8.0,300.28808,2146.5815,0.0,0.0,0.0,-0.09190918510170325,0.0,0.0,-0.12498529149508789,-0.25982520015025073,-0.26769669434710675,-0.8429409764267972,-0.2199484384897208,-0.06681866740023903
9064,8.0,300.72796,2596.9886,0.0,0.0,0.0,-0.0919193262453755,0.0,0.0,-0.14345908010080885,-0.31507885281086173,-0.33088175468298664,-0.8238867373687903,-0.22396851839397178,-0.06936738656927803
9065,8.0,300.50167000000005,2699.6968,0.0,0.0,0.0,-0.09192946738904777,0.0,0.0,-0.22656593436281677,-0.2847552056106507,-0.3093192757974357,-0.8392595753684712,-0.22251900333091582,-0.044573069482769456
9066,8.0,301.04648,2576.0954,0.0,0.0,0.0,-0.09193960853272003,0.0,0.0,-0.17122523338611484,-0.2927047403302087,-0.3191386825165357,-0.8597941525575762,-0.2129734781138458,-0.05527167837988995
9067,8.0,300.15934,2127.3201,0.0,0.0,0.0,-0.09194974967639229,0.0,0.0,-0.15926368423310183,-0.22603281282270177,-0.2613556941612987,-0.8545177641193372,-0.2202585031528218,-0.04909856866940145
9068,8.0,299.16683,1953.845,0.0,0.0,0.0,-0.09195989082006455,0.0,0.0,-0.1243440156392989,-0.1941111080947748,-0.27546497888877675,-0.8656137241094232,-0.20342451797893682,-0.06426156257337244
9069,8.0,299.71046,2335.6298,0.0,0.0,0.0,-0.0919700319637368,0.0,0.0,-0.15846392592917186,-0.24572173147834675,-0.3057874811163747,-0.8180802164782311,-0.19646855604243682,-0.07399382066462153
9070,8.0,299.56349,2383.4729,0.0,0.0,0.0,-0.09198017310740907,0.0,0.0,-0.14419722266615786,-0.22985430583985378,-0.3504647177756747,-0.8402753687262223,-0.2083238355249618,-0.06679782484568203
9071,8.0,299.15407999999996,2220.1519,0.0,0.0,0.0,-0.09199031425108134,0.0,0.0,-0.15550417172456685,-0.23922136731681076,-0.2801451912331777,-0.8600622078715312,-0.2274328103533708,-0.060822444812707946
9072,8.0,300.54781,2205.3059,0.0,0.0,0.0,-0.09200045539475359,0.0,0.0,-0.16375343595620584,-0.24847271563234777,-0.2581317856556237,-0.8824285993864222,-0.22451224866263378,-0.041347980540727955
9073,8.0,299.57981,2400.9399,0.0,0.0,0.0,-0.09201059653842586,0.0,0.0,-0.18760908220307482,-0.27267425506585374,-0.26954244086176776,-0.8365826699292812,-0.23434129139018478,-0.05936406178477674
9074,8.0,299.46078,2526.3217,0.0,0.0,0.0,-0.0920207376820981,0.0,0.0,-0.16293795201072384,-0.2964401881488687,-0.30856058452005874,-0.8468101631261562,-0.2081876344465198,-0.053403425554007754
9075,8.0,300.58666,2506.6516,0.0,0.0,0.0,-0.09203087882577038,0.0,0.0,-0.13947787860289487,-0.30580508127061173,-0.31667652530353974,-0.8349542047660642,-0.22535078404789077,-0.07694283644466672
9076,8.0,300.03215,2172.6908,0.0,0.0,0.0,-0.09204101996944264,0.0,0.0,-0.10643148652896989,-0.2527622592681928,-0.3012500154460617,-0.8305675917706392,-0.2038871375770938,-0.043031644529642664
9077,8.0,298.86501,1958.385,0.0,0.0,0.0,-0.0920511611131149,0.0,0.0,-0.12631884008419889,-0.22423659397292878,-0.24474469493692078,-0.8330272563883891,-0.21200783050354383,-0.07056028692525813
9078,8.0,299.21532,2193.5949,0.0,0.0,0.0,-0.09206130225678716,0.0,0.0,-0.14013220511997188,-0.24141407093071376,-0.28525179948466073,-0.8371134812591682,-0.2136896838145298,-0.06471720391809073
9079,8.0,299.30911000000003,2373.1836,0.0,0.0,0.0,-0.09207144340045942,0.0,0.0,-0.19751033926525283,-0.24555066446396379,-0.2783275624087917,-0.8529968554542352,-0.2322023508265878,-0.07993159999963473
9080,8.0,299.68961,2272.506,0.0,0.0,0.0,-0.09208158454413168,0.0,0.0,-0.13462616354656787,-0.2602132344085467,-0.29594568157006473,-0.8747769804612663,-0.2065412448890338,-0.08974784943142311
9081,8.0,301.16637000000003,2099.6371,0.0,0.0,0.0,-0.09209172568780395,0.0,0.0,-0.15396825682548385,-0.22215855987284278,-0.26211043376328574,-0.8393037429403303,-0.22209057079113279,-0.08312740398728602
9082,8.0,300.87257,2327.334,0.0,0.0,0.0,-0.0921018668314762,0.0,0.0,-0.12029294041448889,-0.27550036158226876,-0.3116581306057627,-0.8593436210331121,-0.19736333694074482,-0.09702864009823121
9083,8.0,299.97478,2562.967,0.0,0.0,0.0,-0.09211200797514847,0.0,0.0,-0.19714174927637582,-0.28584651649835474,-0.2960897150717797,-0.8381335809298442,-0.1930939164518858,-0.02761660263679647
9084,8.0,300.28479,2567.4335,0.0,0.0,0.0,-0.09212214911882072,0.0,0.0,-0.17052294974180482,-0.2792349582708447,-0.3306777570403537,-0.8769211392628781,-0.18521387042418583,-0.05467030532628905
9085,8.0,299.43413,2318.4612,0.0,0.0,0.0,-0.09213229026249299,0.0,0.0,-0.17378815832155584,-0.25546087865702577,-0.27550527584525375,-0.8372234492925212,-0.2025690207870058,-0.025636719034147177
9086,8.0,299.86976,2152.577,0.0,0.0,0.0,-0.09214243140616526,0.0,0.0,-0.12078979773352488,-0.23336693996152377,-0.3001729204572607,-0.8557596845019052,-0.2147072503599558,-0.07021663808759264
9087,8.0,299.32499,2397.1476,0.0,0.0,0.0,-0.09215257254983751,0.0,0.0,-0.17439417307386484,-0.26088158430700775,-0.29339726637605573,-0.8224610843455893,-0.23028736893259377,-0.05837044847171474
9088,8.0,299.04656,2547.3244,0.0,0.0,0.0,-0.09216271369350978,0.0,0.0,-0.17569391963963982,-0.25515732919206774,-0.3434717418130217,-0.8491804996150901,-0.2135569480514298,-0.07462783050394343
9089,8.0,298.74482,2353.216,0.0,0.0,0.0,-0.09217285483718203,0.0,0.0,-0.17301101575985783,-0.24224007241223375,-0.30006780589188675,-0.8551984250065132,-0.2452004750969028,-0.06710766152751053
9090,8.0,299.98922999999996,2082.1826,0.0,0.0,0.0,-0.0921829959808543,0.0,0.0,-0.12508634292756088,-0.23531179246846576,-0.27253339303695173,-0.8726663197079602,-0.21785887360349682,-0.07726587577529823
9091,8.0,300.56288,2309.7399,0.0,0.0,0.0,-0.09219313712452656,0.0,0.0,-0.14964471864878387,-0.27408315906490177,-0.2783753776810107,-0.8664442142888861,-0.22483434060442178,-0.06886777523647022
9092,8.0,300.7997,2633.1965,0.0,0.0,0.0,-0.09220327826819881,0.0,0.0,-0.16922716498392085,-0.29731792618049474,-0.3338808939189787,-0.8512991143816812,-0.1986940686945778,-0.08059670040502502
9093,8.0,300.36676,2611.9441,0.0,0.0,0.0,-0.09221341941187108,0.0,0.0,-0.18659309632780482,-0.2859324502393357,-0.3214402294561807,-0.8409677731820572,-0.2222100329779228,-0.07933267698477563
9094,8.0,299.92725,2315.68,0.0,0.0,0.0,-0.09222356055554333,0.0,0.0,-0.11857676832261589,-0.28667856708297174,-0.29865356206481175,-0.8513008571718532,-0.1967992707425758,-0.06802894702193434
9095,8.0,300.30752,2056.5071,0.0,0.0,0.0,-0.0922337016992156,0.0,0.0,-0.1224448201818629,-0.2524910122164228,-0.2501909851519277,-0.8426475189328353,-0.22532973884331378,-0.06344728034250903
9096,8.0,301.75104,2371.0843,0.0,0.0,0.0,-0.09224384284288788,0.0,0.0,-0.15249482906006787,-0.26084076046047877,-0.3074148114394797,-0.8616196847327421,-0.19846870160733582,-0.04805067453523236
9097,8.0,301.98609,2495.6157,0.0,0.0,0.0,-0.09225398398656012,0.0,0.0,-0.1875294103477118,-0.24980389321622476,-0.3212715435795327,-0.8448957587847191,-0.2205225459963808,-0.039491903941297465
9098,8.0,301.25181000000003,2252.0835,0.0,0.0,0.0,-0.0922641251302324,0.0,0.0,-0.1187194643341989,-0.26262952178951576,-0.3032281532187887,-0.8664615307330952,-0.21651317614568677,-0.07751580100521392
9099,8.0,301.43102000000005,2257.4514,0.0,0.0,0.0,-0.09227426627390464,0.0,0.0,-0.16072929984024684,-0.2316432799514118,-0.2938362975118847,-0.8495613803276801,-0.22760316809268377,-0.06704802973262533
9100,8.0,299.87399,2517.6978,0.0,0.0,0.0,-0.09228440741757692,0.0,0.0,-0.16727848239160084,-0.2958191367650757,-0.3022196451292567,-0.8587589149304061,-0.22667296397087977,-0.0971381552087895
9101,8.0,299.66438,2628.5999,0.0,0.0,0.0,-0.09229454856124916,0.0,0.0,-0.2132807664716728,-0.2657443032594208,-0.3200036535969017,-0.8376622473808272,-0.21454526206646882,-0.056000446355313746
9102,8.0,300.67172999999997,2464.6964,0.0,0.0,0.0,-0.09230468970492144,0.0,0.0,-0.17368190891606985,-0.25980312143057177,-0.3157211317842497,-0.880290195845378,-0.19142872097254382,-0.058396520410037844
9103,8.0,300.06022,2060.9898,0.0,0.0,0.0,-0.09231483084859368,0.0,0.0,-0.13651709088318786,-0.23338139904045077,-0.2565909463610548,-0.8694190760524821,-0.18889131980712182,-0.02712244461602687
9104,8.0,299.52746,1922.8227,0.0,0.0,0.0,-0.09232497199226596,0.0,0.0,-0.0901559592139504,-0.2005083841911368,-0.29382574957834373,-0.8680874627710621,-0.18423564838014284,-0.05272759584330855
9105,8.0,300.6992,2413.7186,0.0,0.0,0.0,-0.09233511313593822,0.0,0.0,-0.17499005532517384,-0.26573602500610377,-0.2929840933827787,-0.8397333711152312,-0.22144251629217482,-0.05816156189734924
9106,8.0,299.87093,2489.637,0.0,0.0,0.0,-0.09234525427961048,0.0,0.0,-0.16837698735501486,-0.26529510922508875,-0.3231153750515047,-0.8231582713418962,-0.20840567573553878,-0.08300266074097483
9107,8.0,300.15839,2268.739,0.0,0.0,0.0,-0.09235539542328274,0.0,0.0,-0.16480626360511183,-0.26180488819563075,-0.26302884365392576,-0.8506658432016821,-0.22996128478541178,-0.07067001177858713
9108,8.0,299.73693,2145.9375,0.0,0.0,0.0,-0.092365536566955,0.0,0.0,-0.12374448568762987,-0.2502013709654528,-0.27836554915504075,-0.8742703959412701,-0.20070956499849182,-0.05450143402487275
9109,8.0,299.50781,2264.9404,0.0,0.0,0.0,-0.09237567771062725,0.0,0.0,-0.15597114829815384,-0.23461996556518777,-0.2978942020423687,-0.8873719021192882,-0.2027173200716418,-0.06264483692581403
9110,8.0,300.04147,2566.9185,0.0,0.0,0.0,-0.0923858188542995,0.0,0.0,-0.16968886252448684,-0.27146972361197574,-0.3391205520410927,-0.8588235805517883,-0.1891570142483438,-0.06269131876090143
9111,8.0,301.53458,2467.9922,0.0,0.0,0.0,-0.09239595999797177,0.0,0.0,-0.1754460381351758,-0.2701577268524918,-0.30460423804709774,-0.8615161711025261,-0.2168834278647278,-0.09283825514367242
9112,8.0,300.31816000000003,2036.9318,0.0,0.0,0.0,-0.09240610114164402,0.0,0.0,-0.12184340558500789,-0.23848708523434275,-0.25884592432610376,-0.8468114803512862,-0.2122476668022138,-0.08267865375649781
9113,8.0,300.33621,1992.3787,0.0,0.0,0.0,-0.0924162422853163,0.0,0.0,-0.12588561487144287,-0.2418937435280538,-0.23785402683686474,-0.8317732175346253,-0.21976121013624278,-0.07154993032442834
9114,8.0,300.18092,2236.3642,0.0,0.0,0.0,-0.09242638342898854,0.0,0.0,-0.14993744660267386,-0.24695348896241176,-0.28290793922083973,-0.8505783287905452,-0.2146093298702918,-0.048317081291274655
9115,8.0,299.84188,2428.8622,0.0,0.0,0.0,-0.09243652457266081,0.0,0.0,-0.17124128326769883,-0.2453701134286448,-0.3217020735470227,-0.8588588923177732,-0.2040381625044988,-0.029530010953385175
9116,8.0,299.8669,2346.7684,0.0,0.0,0.0,-0.09244666571633309,0.0,0.0,-0.14338618688861487,-0.25618443042093475,-0.3137883774835017,-0.8686998103364961,-0.20778213175649982,-0.07255853061971942
9117,8.0,299.0889,2250.5517,0.0,0.0,0.0,-0.09245680686000533,0.0,0.0,-0.15149565300395687,-0.24423265913138675,-0.2883831881237047,-0.884001305396636,-0.1917815447898648,-0.05009156795290286
9118,8.0,298.69079,2426.8489,0.0,0.0,0.0,-0.09246694800367761,0.0,0.0,-0.16649747934702183,-0.27865116409322876,-0.29255282374271574,-0.8734714583699212,-0.2129945131859218,-0.1078813764945629
9119,8.0,300.08171,2801.4215,0.0,0.0,0.0,-0.09247708914734985,0.0,0.0,-0.24070365088810078,-0.2937632624446767,-0.3170952813048677,-0.8714811311984912,-0.2270378049343868,-0.04826006976114805
9120,8.0,300.71431,2476.3757,0.0,0.0,0.0,-0.09248723029102213,0.0,0.0,-0.1890487383426578,-0.24909532742129475,-0.3146123119348177,-0.8616039084286852,-0.22057793024684677,-0.04596910621879755
9121,8.0,300.47681,2001.8766,0.0,0.0,0.0,-0.09249737143469439,0.0,0.0,-0.14774898850668985,-0.2209145420625678,-0.23985697910454076,-0.8608289038246982,-0.18759229264891783,-0.028380177779655475
9122,8.0,300.7268,2120.3356,0.0,0.0,0.0,-0.09250751257836665,0.0,0.0,-0.11615625568872989,-0.23088119428619977,-0.2974916377776387,-0.8495280443993901,-0.19867490813518682,-0.06771990270168403
9123,8.0,300.634,2305.0298,0.0,0.0,0.0,-0.0925176537220389,0.0,0.0,-0.16154567544581686,-0.27069846803335873,-0.26842736925921873,-0.8636769776032812,-0.2065258130900108,-0.09613638320592231
9124,8.0,300.50546,2409.8203,0.0,0.0,0.0,-0.09252779486571117,0.0,0.0,-0.16005091876579586,-0.28486870988685276,-0.28760555920195874,-0.8524904431867562,-0.23116040548375577,-0.09240440475560471
9125,8.0,300.28938,2359.3632,0.0,0.0,0.0,-0.09253793600938343,0.0,0.0,-0.16472319736191385,-0.27040285231668376,-0.28206143968979674,-0.8552155388007021,-0.21840584627247878,-0.08903878917044432
9126,8.0,298.99377000000004,2101.9662,0.0,0.0,0.0,-0.0925480771530557,0.0,0.0,-0.1272744767835129,-0.2705376348449857,-0.24113313720798776,-0.8754353903762462,-0.21746304745193182,-0.05837677115233874
9127,8.0,298.97579,2242.064,0.0,0.0,0.0,-0.09255821829672795,0.0,0.0,-0.14269897027329184,-0.26552040538482374,-0.27331207573880173,-0.8737140101788592,-0.19701010782338382,-0.06280187549256254
9128,8.0,299.46282,2606.2713,0.0,0.0,0.0,-0.09256835944040022,0.0,0.0,-0.18718661770638081,-0.28232859321116277,-0.3227261755555937,-0.8716944507420441,-0.1852531845280658,-0.041803696865953664
9129,8.0,299.53366,2532.946,0.0,0.0,0.0,-0.09257850058407247,0.0,0.0,-0.15311970039673786,-0.2755421277513907,-0.34129052845525265,-0.8657594902688092,-0.17641591099839485,-0.06490850249722044
9130,8.0,300.09961,2313.7887,0.0,0.0,0.0,-0.09258864172774474,0.0,0.0,-0.16150246032905183,-0.25798045675318876,-0.2838510926789217,-0.8586605790082011,-0.24019871796576775,-0.06785992373300302
9131,8.0,300.57727,2236.6806,0.0,0.0,0.0,-0.092598782871417,0.0,0.0,-0.16133090695462085,-0.25693498530000874,-0.26162916023078775,-0.8589548167047402,-0.2368532295805938,-0.07323865245784222
9132,8.0,300.79596000000004,2502.0781,0.0,0.0,0.0,-0.09260892401508926,0.0,0.0,-0.1979233906685178,-0.26020598967033176,-0.30243989530349374,-0.8602988119023822,-0.25379108302222975,-0.032616707157018365
9133,8.0,300.40894,2610.8758,0.0,0.0,0.0,-0.09261906515876152,0.0,0.0,-0.2015142476979078,-0.27135609774576175,-0.32077069405510267,-0.8685797908621512,-0.20891349642065682,-0.05389720867224035
9134,8.0,300.23689,2407.6958,0.0,0.0,0.0,-0.09262920630243378,0.0,0.0,-0.14952287532425884,-0.26612714967720474,-0.3162293780344097,-0.8736509961551402,-0.2025301626456708,-0.06941005453098903
9135,8.0,300.34674,2257.2407,0.0,0.0,0.0,-0.09263934744610604,0.0,0.0,-0.13301231958229387,-0.27200767835506773,-0.28112481156235875,-0.8820547911595302,-0.18308934840951183,-0.0890380008618665
9136,8.0,299.68255,2311.4253,0.0,0.0,0.0,-0.09264948858977831,0.0,0.0,-0.15334633404660486,-0.25105647298984474,-0.29821276787380874,-0.8498671285453551,-0.19040198451371282,-0.09245308027715861
9137,8.0,299.94405,2427.1673,0.0,0.0,0.0,-0.09265962973345056,0.0,0.0,-0.2041816387186588,-0.26630308029206773,-0.26731353382179174,-0.8603971984870922,-0.17102223886108084,-0.06415703366655623
9138,8.0,299.92318,2432.2595,0.0,0.0,0.0,-0.09266977087712283,0.0,0.0,-0.16013031704363184,-0.2673097138689148,-0.3119061134352367,-0.8491730420943542,-0.23551303407082677,-0.036171784298877165
9139,8.0,299.39086000000003,2276.2946,0.0,0.0,0.0,-0.09267991202079508,0.0,0.0,-0.14756323949835787,-0.27892257326501474,-0.2654509065604647,-0.8994703008308071,-0.2179495797524488,-0.027208794802798975
9140,8.0,299.08199,2156.7179,0.0,0.0,0.0,-0.09269005316446735,0.0,0.0,-0.12258946163363789,-0.24166179031516177,-0.2913371161402347,-0.8840730840337202,-0.2128780400869268,-0.04347042741919716
9141,8.0,298.83103,2507.9169,0.0,0.0,0.0,-0.09270019430813961,0.0,0.0,-0.16446644991907486,-0.2780382389752377,-0.3198394158881927,-0.8836838541403061,-0.18921180068125082,-0.07717238724157162
9142,8.0,298.82506,2664.5328,0.0,0.0,0.0,-0.09271033545181187,0.0,0.0,-0.1949645382565018,-0.29067704449509074,-0.3243098550643907,-0.8555986081335081,-0.2074263897788908,-0.1016034916574839
9143,8.0,298.16871000000003,2352.422,0.0,0.0,0.0,-0.09272047659548413,0.0,0.0,-0.15163976756567984,-0.26787794452499475,-0.2955598359319847,-0.865376583056019,-0.2013690793560808,-0.09140907398362322
9144,8.0,299.21306,1962.4479999999999,0.0,0.0,0.0,-0.09273061773915639,0.0,0.0,-0.1060473634160599,-0.2280370924480088,-0.2624507236768697,-0.8365563254266812,-0.2037513721961948,-0.07317495550355584
9145,8.0,299.93729,2103.6805,0.0,0.0,0.0,-0.09274075888282865,0.0,0.0,-0.14058363843702487,-0.22590280270237076,-0.2729799120910198,-0.8635826136214682,-0.17431873660391983,-0.05991721021311824
9146,8.0,300.18843,2396.7884,0.0,0.0,0.0,-0.09275090002650092,0.0,0.0,-0.15881130859345585,-0.2606244214316278,-0.3091281059010687,-0.8494383312355362,-0.2224837827574398,-0.03883264998898416
9147,8.0,300.42571,2397.1203,0.0,0.0,0.0,-0.09276104117017317,0.0,0.0,-0.13813246485511285,-0.2879682318102517,-0.3025640184407437,-0.8925218977400532,-0.20390292401365182,-0.08093439639835302
9148,8.0,299.40171000000004,2283.9177,0.0,0.0,0.0,-0.09277118231384544,0.0,0.0,-0.15457398786776486,-0.24277226176225677,-0.2969077017450087,-0.8675319382712362,-0.2218065162580988,-0.05137587765340436
9149,8.0,299.37361,2301.2781,0.0,0.0,0.0,-0.09278132345751769,0.0,0.0,-0.14198956348077887,-0.2799904780754087,-0.27755105819465675,-0.8808141373395872,-0.1979382753124868,-0.07646167842268013
9150,8.0,300.33236,2614.325,0.0,0.0,0.0,-0.09279146460118996,0.0,0.0,-0.17954873845258082,-0.29257553067745673,-0.32256524104221074,-0.8347605220094492,-0.24717071965135076,-0.05997002891433104
9151,8.0,300.40781,2597.9325,0.0,0.0,0.0,-0.09280160574486224,0.0,0.0,-0.19559486087870984,-0.26739471541980375,-0.32671702319445967,-0.8758431120839852,-0.23858182411869275,-0.052021187257841446
9152,8.0,300.04061,2243.2718,0.0,0.0,0.0,-0.09281174688853448,0.0,0.0,-0.14702906417813888,-0.24963441700449876,-0.2852351213880147,-0.8433166389013722,-0.24471766142425275,-0.06207383604396064
9153,8.0,299.9864,2036.2508,0.0,0.0,0.0,-0.09282188803220674,0.0,0.0,-0.12925021315350288,-0.2117241711380488,-0.27799501372597174,-0.8647412448458163,-0.1954242903568758,-0.07947918281673462
9154,8.0,299.29237,2174.5939,0.0,0.0,0.0,-0.092832029175879,0.0,0.0,-0.17758023668830483,-0.2310917172594768,-0.25235029204253473,-0.8429377441589782,-0.2226960687858908,-0.10548117952518189
9155,8.0,299.49587,2483.4328,0.0,0.0,0.0,-0.09284217031955126,0.0,0.0,-0.17106340721264385,-0.2949504673218447,-0.2888876853484947,-0.8731676657249392,-0.1993031839921928,-0.07824106516179193
9156,8.0,299.23618,2374.0671,0.0,0.0,0.0,-0.09285231146322354,0.0,0.0,-0.15479852408992487,-0.27044481100332474,-0.29641379298376375,-0.8554388591227421,-0.22211691529373281,-0.06254775236748253
9157,8.0,299.18949,2221.3709,0.0,0.0,0.0,-0.09286245260689578,0.0,0.0,-0.12386471794449587,-0.2735506657398487,-0.2778259022842817,-0.8738576687780372,-0.20205606292388079,-0.03530272475435767
9158,8.0,299.8692,2309.2097,0.0,0.0,0.0,-0.09287259375056806,0.0,0.0,-0.1322574887877979,-0.2842251744833407,-0.2854594346951527,-0.8748054831865792,-0.26048899042326173,-0.05911368363206635
9159,8.0,300.12785,2554.1466,0.0,0.0,0.0,-0.0928827348942403,0.0,0.0,-0.17955138303534182,-0.27782677367936776,-0.3190186225121867,-0.8525726582998702,-0.2411720054818238,-0.06680998992638264
9160,8.0,300.01,2647.3091,0.0,0.0,0.0,-0.09289287603791258,0.0,0.0,-0.2035423994955708,-0.28407772632878875,-0.3170957271349117,-0.8449452864496073,-0.21013869817657477,-0.0926818670834881
9161,8.0,301.01984,2480.5899,0.0,0.0,0.0,-0.09290301718158485,0.0,0.0,-0.17322119422810084,-0.2494440475757108,-0.33137214746638466,-0.8512696490687731,-0.15759908657131885,-0.08071930974662563
9162,8.0,300.43984,1988.9739,0.0,0.0,0.0,-0.0929131583252571,0.0,0.0,-0.1122253113957759,-0.22647973717680978,-0.26589336248163176,-0.8719750906222412,-0.2269957955852408,-0.07739286641033123
9163,8.0,300.51446,1955.4508,0.0,0.0,0.0,-0.09292329946892937,0.0,0.0,-0.12507250193119487,-0.2215039901757418,-0.24783173361908778,-0.8869903526616322,-0.2151206361357538,-0.07629729277945652
9164,8.0,299.75644,2478.0251,0.0,0.0,0.0,-0.09293344061260161,0.0,0.0,-0.17943650073900383,-0.25168402943927976,-0.3221372239349687,-0.8544110080888011,-0.23090076014563077,-0.036648522523927564
9165,8.0,299.89766000000003,2545.113,0.0,0.0,0.0,-0.09294358175627389,0.0,0.0,-0.2098457574401638,-0.27540263361012374,-0.28840239934560075,-0.8486912720693072,-0.21046440742121983,-0.07782632467061022
9166,8.0,299.61568,2384.0229999999997,0.0,0.0,0.0,-0.09295372289994615,0.0,0.0,-0.18335778875850484,-0.2531950893134097,-0.28813056460877273,-0.8633076783393341,-0.23391504747061778,-0.06203310946944124
9167,8.0,299.9794,2329.0938,0.0,0.0,0.0,-0.09296386404361841,0.0,0.0,-0.13465698661460987,-0.26017691952496275,-0.31315243132323867,-0.8452531118299871,-0.2130115560526038,-0.06852497347588835
9168,8.0,299.47741,2421.3644,0.0,0.0,0.0,-0.09297400518729067,0.0,0.0,-0.15635395418593384,-0.2747372018719507,-0.3049431600730467,-0.8232876532471652,-0.18625291787173182,-0.03771919452034467
9169,8.0,299.09811,2572.0267,0.0,0.0,0.0,-0.09298414633096293,0.0,0.0,-0.14152030709446686,-0.2727491646457468,-0.3675624316855876,-0.8588295789923802,-0.19200189628911182,-0.024698605482062576
9170,8.0,300.5843,2436.8917,0.0,0.0,0.0,-0.09299428747463519,0.0,0.0,-0.17761330917156884,-0.27163424503071276,-0.29150667341196873,-0.8831803499006141,-0.24612929106606976,-0.047606103961106656
9171,8.0,301.52964,2051.4405,0.0,0.0,0.0,-0.09300442861830746,0.0,0.0,-0.12687526637661387,-0.24126366408586977,-0.25544776720073176,-0.8923472843503202,-0.2310368396340608,-0.05547962161841235
9172,8.0,301.16825,1957.1670000000001,0.0,0.0,0.0,-0.0930145697619797,0.0,0.0,-0.14103544665661485,-0.22720440351582877,-0.22669005750006677,-0.8611499115888792,-0.20751118867975982,-0.10628574063458589
9173,8.0,300.38462999999996,2567.136,0.0,0.0,0.0,-0.09302471090565198,0.0,0.0,-0.17590125087510183,-0.2943642008139847,-0.3100798010574937,-0.8643385387260721,-0.18886723485224483,-0.0994297935757066
9174,8.0,300.61895,2733.3669,0.0,0.0,0.0,-0.09303485204932423,0.0,0.0,-0.2033249560241108,-0.27948941576845776,-0.34806091363593766,-0.8595309000490953,-0.2057552161239588,-0.088047969387908
9175,8.0,299.5728,2250.1209,0.0,0.0,0.0,-0.0930449931929965,0.0,0.0,-0.11062755784308989,-0.2744182307404707,-0.2989347693650647,-0.8621883916163691,-0.2142381358286578,-0.07904897607602653
9176,8.0,299.95248,2082.8573,0.0,0.0,0.0,-0.09305513433666876,0.0,0.0,-0.12309842729136888,-0.23002522086672178,-0.2800129722276288,-0.8586643989610783,-0.2128732778114568,-0.06150653048522194
9177,8.0,299.52011,2348.8071,0.0,0.0,0.0,-0.09306527548034102,0.0,0.0,-0.16819014403657484,-0.24193149722677976,-0.3038570572908567,-0.8502554161161763,-0.2168493725288668,-0.043190719729092164
9178,8.0,299.82714,2653.7383,0.0,0.0,0.0,-0.09307541662401328,0.0,0.0,-0.1918808331671638,-0.3077726204472927,-0.3070167358726927,-0.8525386029640092,-0.22823068401211477,-0.049591692161818954
9179,8.0,299.95601,2393.403,0.0,0.0,0.0,-0.09308555776768554,0.0,0.0,-0.17585961642849285,-0.2506831815205038,-0.3009919609105937,-0.8552007858792462,-0.22340033840039678,-0.05094401323553265
9180,8.0,300.54326000000003,2269.3917,0.0,0.0,0.0,-0.0930956989113578,0.0,0.0,-0.14256881829794685,-0.26859175895544274,-0.27867783283586073,-0.8547897103136762,-0.19012325967620483,-0.04675546631665525
9181,8.0,300.54429,2407.2795,0.0,0.0,0.0,-0.09310584005503007,0.0,0.0,-0.13593667082840488,-0.27793628575017576,-0.31787991178480474,-0.8663776842873201,-0.1920566827220188,-0.06461426176093114
9182,8.0,300.31239,2702.1213,0.0,0.0,0.0,-0.09311598119870232,0.0,0.0,-0.22147623725550278,-0.29030516144338875,-0.30959598426724466,-0.8745559399519511,-0.21787628124021477,-0.06397830648141724
9183,8.0,299.96871,2824.8514,0.0,0.0,0.0,-0.09312612234237459,0.0,0.0,-0.2069478824191658,-0.3144281233316397,-0.33730827317723466,-0.8489317061855363,-0.24310172003227176,-0.092025026692913
9184,8.0,300.73405,2257.4867,0.0,0.0,0.0,-0.09313626348604684,0.0,0.0,-0.17528065545385382,-0.23261715515252576,-0.27832177675072073,-0.8448108990888442,-0.22996093014787677,-0.08352292211082063
9185,8.0,299.61213,1729.9961,0.0,0.0,0.0,-0.09314640462971911,0.0,0.0,-0.08026520246255872,-0.2102618992562338,-0.23534852278459079,-0.8535733542311311,-0.2316867483807018,-0.09016163645426072
9186,8.0,300.59483,2162.3361,0.0,0.0,0.0,-0.09315654577339137,0.0,0.0,-0.14030277564180585,-0.23462668341335075,-0.2823667116799247,-0.8763564853796513,-0.2096641627572418,-0.05671253319434124
9187,8.0,299.85616,2631.1142,0.0,0.0,0.0,-0.09316668691706363,0.0,0.0,-0.18131483337688084,-0.26480909368212274,-0.35366907055441965,-0.8654048324688073,-0.2186460980036898,-0.051015396705077654
9188,8.0,299.46801,2334.9487,0.0,0.0,0.0,-0.09317682806073589,0.0,0.0,-0.15504707433945486,-0.2573197974229867,-0.2973992293685187,-0.876420299870949,-0.19188167416474683,-0.042956955838271464
9189,8.0,299.86766,2136.5389,0.0,0.0,0.0,-0.09318696920440815,0.0,0.0,-0.1064888364846299,-0.25690713105475976,-0.28605852894927875,-0.8760536147922602,-0.23066619274748076,-0.057121677505220646
9190,8.0,300.06684,2470.4537,0.0,0.0,0.0,-0.09319711034808041,0.0,0.0,-0.16094224448126285,-0.2911628877855397,-0.2988511154368087,-0.8631483954236143,-0.23350081056473576,-0.06664126351973064
9191,8.0,298.88007999999996,2642.6551,0.0,0.0,0.0,-0.09320725149175269,0.0,0.0,-0.1944478718980108,-0.30052838885734273,-0.30832490254679873,-0.8206503050918792,-0.24552406664883875,-0.08669930513380524
9192,8.0,300.05891,2603.8833,0.0,0.0,0.0,-0.09321739263542493,0.0,0.0,-0.18639057803031783,-0.2729504771756147,-0.3321744591605667,-0.8319845916379861,-0.2056389456749838,-0.07133947017265753
9193,8.0,300.30696,2168.9579,0.0,0.0,0.0,-0.0932275337790972,0.0,0.0,-0.13166459562428387,-0.23877802986805677,-0.2888664070963948,-0.8438191298909642,-0.22402469297951577,-0.07134305707801153
9194,8.0,300.28441000000004,1799.2912,0.0,0.0,0.0,-0.09323767492276945,0.0,0.0,-0.1093048712950509,-0.2001119602220128,-0.23752277511417277,-0.9196442116468172,-0.2150903399577638,-0.08178953185999832
9195,8.0,299.96538,2219.9979,0.0,0.0,0.0,-0.09324781606644172,0.0,0.0,-0.15372355692633385,-0.22335468135089082,-0.2977456798427107,-0.8696433082996122,-0.2162180974515648,-0.07002489266516884
9196,8.0,300.02705,2796.9223,0.0,0.0,0.0,-0.09325795721011398,0.0,0.0,-0.21596673036675676,-0.2899812659164227,-0.34424655389948966,-0.8866897314894632,-0.18462179799325282,-0.05730070055938885
9197,8.0,299.71231,2643.4183,0.0,0.0,0.0,-0.09326809835378624,0.0,0.0,-0.17062384918676285,-0.2838922407654827,-0.34901705696030166,-0.8427614994365842,-0.2156881473842628,-0.04585198058673816
9198,8.0,300.68374,2412.0626,0.0,0.0,0.0,-0.0932782394974585,0.0,0.0,-0.14341861089181485,-0.2853661650234477,-0.3044220354141157,-0.8918975330284331,-0.2283725390261148,-0.05448371329387385
9199,8.0,299.39602,2501.3045,0.0,0.0,0.0,-0.09328838064113076,0.0,0.0,-0.16393294334392183,-0.2876273035491047,-0.30877385340110675,-0.8316840515258251,-0.22842470114126276,-0.05232946049476565
9200,8.0,300.25581,2734.2437,0.0,0.0,0.0,-0.09329852178480302,0.0,0.0,-0.2214615349965518,-0.26764896013489575,-0.3420313054708617,-0.8455901694757523,-0.19848500480144482,-0.032443876074211266
9201,8.0,299.86053,2491.2996,0.0,0.0,0.0,-0.0933086629284753,0.0,0.0,-0.16972034420509383,-0.2863819482486977,-0.3011905680626947,-0.8411492766724703,-0.22820960841003476,-0.08867869528365582
9202,8.0,298.43538,2008.2949,0.0,0.0,0.0,-0.09331880407214754,0.0,0.0,-0.13532952123598388,-0.21180320464584879,-0.26333877659451377,-0.8781396333031342,-0.21068923748590881,-0.06855659194525884
9203,8.0,299.29422,1839.3285,0.0,0.0,0.0,-0.09332894521581982,0.0,0.0,-0.08996121862423101,-0.2091837099573248,-0.25996500839904874,-0.8584798455878642,-0.22785937851296978,-0.0999285507386801
9204,8.0,299.42645,2077.819,0.0,0.0,0.0,-0.09333908635949206,0.0,0.0,-0.13533496238902087,-0.23114295731703377,-0.26512716302101375,-0.8619140845492972,-0.17177858953072683,-0.06848949756338714
9205,8.0,299.04831,2523.6365,0.0,0.0,0.0,-0.09334922750316434,0.0,0.0,-0.1805488163012808,-0.24377450796617076,-0.34279915652914267,-0.8584916398190281,-0.24769517790311074,-0.06739045659067024
9206,8.0,300.51026,2586.3702,0.0,0.0,0.0,-0.09335936864683658,0.0,0.0,-0.2119148648068688,-0.27826053591467675,-0.2960165584145597,-0.9022806006456622,-0.21000425002080578,-0.06145566533020195
9207,8.0,299.88265,2164.6947,0.0,0.0,0.0,-0.09336950979050886,0.0,0.0,-0.12280990432539388,-0.25559084824735273,-0.2796123939330947,-0.8722595909853191,-0.2190594635144858,-0.07999528986117042
9208,8.0,299.90664,2177.6069,0.0,0.0,0.0,-0.09337965093418113,0.0,0.0,-0.13933646941893887,-0.2353737020495758,-0.28722795128719175,-0.8713270361232832,-0.1881059496546118,-0.06817698488804454
9209,8.0,301.04351,2754.8062,0.0,0.0,0.0,-0.09338979207785338,0.0,0.0,-0.16929061470518283,-0.3210786207604927,-0.3470230820885117,-0.8491808542526252,-0.23470633500371177,-0.06133488895803224
9210,8.0,300.64967,2616.1871,0.0,0.0,0.0,-0.09339993322152565,0.0,0.0,-0.18889803765528482,-0.25958904194944377,-0.34676846247088267,-0.8793253385701542,-0.22847643769136877,-0.05855011899269685
9211,8.0,299.56329,2000.0557,0.0,0.0,0.0,-0.0934100743651979,0.0,0.0,-0.0995732079816105,-0.23944748420912676,-0.2689462951654327,-0.8380228833564192,-0.24438509247643075,-0.05815436680838915
9212,8.0,299.64131000000003,1927.2644,0.0,0.0,0.0,-0.09342021550887017,0.0,0.0,-0.12586231011914287,-0.2244293040094478,-0.23554865994434276,-0.8817283726398151,-0.21045556174784683,-0.07386095419225863
9213,8.0,298.99435,2306.6919,0.0,0.0,0.0,-0.09343035665254242,0.0,0.0,-0.18169856132225184,-0.23012788336685377,-0.2893502846816497,-0.8530722209966732,-0.25116841686089275,-0.06924419460886992
9214,8.0,299.17332000000005,2645.2533,0.0,0.0,0.0,-0.09344049779621467,0.0,0.0,-0.20784565240526878,-0.29351285794746373,-0.3027324307398647,-0.8761160715284242,-0.1994360109478018,-0.08530181134413332
9215,8.0,298.62591000000003,2559.3265,0.0,0.0,0.0,-0.09345063893988693,0.0,0.0,-0.17403074052799683,-0.2772295742029287,-0.3267110348863687,-0.8583423880792981,-0.1948831438759688,-0.0864022242574856
9216,8.0,299.07277999999997,2219.8535,0.0,0.0,0.0,-0.0934607800835592,0.0,0.0,-0.14178220184781387,-0.26164074167943074,-0.27135709073085973,-0.8816411824687101,-0.17759943777769982,-0.05761981151938265
9217,8.0,300.25344,2219.9366,0.0,0.0,0.0,-0.09347092122723147,0.0,0.0,-0.12918666210723087,-0.26771112302853073,-0.2779075094473357,-0.8871721094645701,-0.23651635431984677,-0.08069639914861451
9218,8.0,299.81423,2606.0633,0.0,0.0,0.0,-0.09348106237090371,0.0,0.0,-0.2012675314310588,-0.2766978914779557,-0.3142127468903837,-0.8715413689169361,-0.23487499048285676,-0.04159329041643816
9219,8.0,299.64339,2580.6959,0.0,0.0,0.0,-0.09349120351457599,0.0,0.0,-0.16869416503381784,-0.2972453268108297,-0.3185276116462277,-0.8535433417631691,-0.2455207127910078,-0.06817395324374534
9220,8.0,300.69142999999997,2143.3228,0.0,0.0,0.0,-0.09350134465824823,0.0,0.0,-0.11948351570460487,-0.24171373964778875,-0.29031935707728973,-0.8598774011857921,-0.2127719528014568,-0.061949726078961945
9221,8.0,300.67256000000003,2105.0615,0.0,0.0,0.0,-0.09351148580192051,0.0,0.0,-0.08986372268635891,-0.25954067952217075,-0.2904817405383157,-0.8681437893441213,-0.2514394815276448,-0.07607896474065923
9222,8.0,300.29457,2430.1926,0.0,0.0,0.0,-0.09352162694559275,0.0,0.0,-0.16887587117425082,-0.26703757515705673,-0.30280441202696873,-0.8769833426865171,-0.2077012136035138,-0.06577669773940464
9223,8.0,299.14723,2494.652,0.0,0.0,0.0,-0.09353176808926503,0.0,0.0,-0.17104800581112384,-0.27426941469828375,-0.31299450616265273,-0.8669652781528111,-0.19741206413805382,-0.07050486518453843
9224,8.0,298.54571,2370.7517,0.0,0.0,0.0,-0.09354190923293727,0.0,0.0,-0.17736190155675682,-0.2761572718871007,-0.26713013555369175,-0.8813469447721711,-0.18634020936784682,-0.09111003145511001
9225,8.0,298.80393,2273.1419,0.0,0.0,0.0,-0.09355205037660955,0.0,0.0,-0.13875675863922587,-0.2836156538856857,-0.2686059545893438,-0.8782417587807132,-0.2311012114129138,-0.07348936093008522
9226,8.0,299.95035,2377.8514,0.0,0.0,0.0,-0.09356219152028182,0.0,0.0,-0.16239643062727982,-0.26903988907716975,-0.29137114107859274,-0.889544340731191,-0.2221698474789568,-0.07391898403873573
9227,8.0,299.56502,2499.2806,0.0,0.0,0.0,-0.09357233266395407,0.0,0.0,-0.15489880545232185,-0.27435277478401077,-0.33046729486208265,-0.8420285447117473,-0.2233790702807978,-0.04178392025050186
9228,8.0,298.92256000000003,2476.0361,0.0,0.0,0.0,-0.09358247380762634,0.0,0.0,-0.18310169992823083,-0.24996752297487376,-0.31958392487547765,-0.8690241922235101,-0.20873332028787478,-0.05016414401781555
9229,8.0,300.08205,2317.1019,0.0,0.0,0.0,-0.09359261495129859,0.0,0.0,-0.15437056777768884,-0.23166769927882178,-0.3183028727740477,-0.8610203472985922,-0.24510480402246074,-0.03286508616728147
9230,8.0,299.78692,2279.7109,0.0,0.0,0.0,-0.09360275609497086,0.0,0.0,-0.14754709842426486,-0.26504152312256174,-0.28038655753949876,-0.9000063101337072,-0.2255697777920038,-0.05711364648492804
9231,8.0,299.21513999999996,2513.4817,0.0,0.0,0.0,-0.09361289723864312,0.0,0.0,-0.16281275482836785,-0.27359161117638975,-0.3276312990246917,-0.8582348113161813,-0.1871464119424128,-0.05553809830818354
9232,8.0,299.95583999999997,2680.1286,0.0,0.0,0.0,-0.09362303838231537,0.0,0.0,-0.1808256260960998,-0.3190422008420137,-0.3148243345182427,-0.8809493150354282,-0.2175047730910498,-0.06931325165618533
9233,8.0,299.18906,2157.5244,0.0,0.0,0.0,-0.09363317952598764,0.0,0.0,-0.10249088596256291,-0.2647106766999097,-0.28863197142075775,-0.8589396179532401,-0.22039337687363278,-0.08153670772154652
9234,8.0,299.69513,2033.7811,0.0,0.0,0.0,-0.09364332066965989,0.0,0.0,-0.12548963673236288,-0.2540133596966668,-0.23871567445690278,-0.8801965411386352,-0.2093302461867868,-0.08794211616321111
9235,8.0,300.88394,2328.9091,0.0,0.0,0.0,-0.09365346181333216,0.0,0.0,-0.14776916231618084,-0.2702299107896158,-0.28993116069897773,-0.8634279511262043,-0.19103423231111083,-0.06793037703895623
9236,8.0,299.80535,2257.5412,0.0,0.0,0.0,-0.09366360295700443,0.0,0.0,-0.18074036110018482,-0.2503100217736758,-0.25518578125487573,-0.8650608137948552,-0.2116523621034618,-0.07349905368054183
9237,8.0,298.78445,2362.413,0.0,0.0,0.0,-0.09367374410067668,0.0,0.0,-0.13966226985609287,-0.28262111851503274,-0.2958311944412657,-0.8616088632216742,-0.2186860301901308,-0.06929567278020043
9238,8.0,297.81318,2433.4704,0.0,0.0,0.0,-0.09368388524434895,0.0,0.0,-0.17041551483370185,-0.26341678671971275,-0.3058819261581957,-0.8572964707960742,-0.20841772327922778,-0.06993401122394953
9239,8.0,297.31022,2468.541,0.0,0.0,0.0,-0.0936940263880212,0.0,0.0,-0.14452348919835786,-0.27414163372817274,-0.33170969147219764,-0.8744738768263521,-0.1986926805419408,-0.05047339504108625
9240,8.0,298.80284,2584.0378,0.0,0.0,0.0,-0.09370416753169347,0.0,0.0,-0.18097980223131582,-0.29094125959116673,-0.3135618958211497,-0.8950006621221881,-0.2021097550466798,-0.057578343245790045
9241,8.0,299.16947999999996,2696.2073,0.0,0.0,0.0,-0.09371430867536573,0.0,0.0,-0.2043181336396298,-0.25426265975127077,-0.36099891164531867,-0.8932435547262751,-0.2096190022002848,-0.028406710746774075
9242,8.0,298.98843999999997,2334.9275,0.0,0.0,0.0,-0.09372444981903799,0.0,0.0,-0.17310663617179484,-0.24762074455076477,-0.2890322761377647,-0.8580693982373561,-0.2074657748102778,-0.05470450454366425
9243,8.0,299.69926,2091.7128,0.0,0.0,0.0,-0.09373459096271025,0.0,0.0,-0.13469261248812586,-0.24243016826349476,-0.2587056905122638,-0.8803418716004782,-0.20635968060361481,-0.07143608154319234
9244,8.0,300.68953999999997,2380.6434,0.0,0.0,0.0,-0.09374473210638251,0.0,0.0,-0.16847586029977285,-0.26458197367220776,-0.29059831496232075,-0.8698207790546271,-0.23662370816794176,-0.08328529267086843
9245,8.0,300.03652,2523.8268,0.0,0.0,0.0,-0.09375487325005477,0.0,0.0,-0.16662703350480784,-0.2964355373309097,-0.3041177564090857,-0.8807034397661622,-0.23276630556724578,-0.05708171796102695
9246,8.0,300.78893999999997,2417.2182,0.0,0.0,0.0,-0.09376501439372704,0.0,0.0,-0.16020367635087185,-0.27900119134027374,-0.29556911730290075,-0.8415618214506853,-0.22145388495829677,-0.0873969369469061
9247,8.0,299.74643,2539.7835,0.0,0.0,0.0,-0.09377515553739929,0.0,0.0,-0.18745895906825882,-0.26217194817685674,-0.3223998583608887,-0.8851096084885172,-0.18812085456358282,-0.055390116170828854
9248,8.0,299.65233,2616.2583,0.0,0.0,0.0,-0.09378529668107156,0.0,0.0,-0.17993644847084483,-0.3003705244917627,-0.3149702121351397,-0.8886617087015821,-0.2199747120648138,-0.05863401508772675
9249,8.0,300.39105,2449.8858,0.0,0.0,0.0,-0.09379543782474381,0.0,0.0,-0.13294946767859087,-0.2852854089904777,-0.3264692227500037,-0.9273934369541061,-0.23282513486805176,-0.06155407217991394
9250,8.0,301.1051,2337.5972,0.0,0.0,0.0,-0.09380557896841608,0.0,0.0,-0.14662350069311286,-0.2769678517020987,-0.2869798266027037,-0.8593180871305922,-0.2212436254300458,-0.09002202072298172
9251,8.0,299.57825,2277.9766,0.0,0.0,0.0,-0.09381572011208834,0.0,0.0,-0.13247597590686086,-0.26730587365103575,-0.2926661557664007,-0.8649280071042482,-0.19751463544567682,-0.08051536884599822
9252,8.0,300.44355,2063.0487,0.0,0.0,0.0,-0.0938258612557606,0.0,0.0,-0.12745685166901188,-0.2376346075277098,-0.26202382114473777,-0.8601051696757711,-0.2202220565467248,-0.07754716210905903
9253,8.0,300.48149,2112.5025,0.0,0.0,0.0,-0.09383600239943286,0.0,0.0,-0.11507825890733989,-0.24507274478929678,-0.2819970071159377,-0.895718651143048,-0.21890800288953777,-0.07725146431912593
9254,8.0,299.65082,2426.045,0.0,0.0,0.0,-0.09384614354310512,0.0,0.0,-0.18678104408885382,-0.26214561380675777,-0.2885304437607377,-0.8413616944234343,-0.20821153701637882,-0.05813856618632974
9255,8.0,299.81945,2547.0166,0.0,0.0,0.0,-0.09385628468677738,0.0,0.0,-0.16810014716269284,-0.2741388168928947,-0.33199047320740865,-0.8764119912201292,-0.1913033920676748,-0.09240797747545731
9256,8.0,300.81094,2265.7521,0.0,0.0,0.0,-0.09386642583044966,0.0,0.0,-0.15605194486112786,-0.25173334432164673,-0.28094677338728774,-0.8783545537818452,-0.24683998468620977,-0.07806525512369084
9257,8.0,300.30046,2322.9354,0.0,0.0,0.0,-0.0938765669741219,0.0,0.0,-0.13972205161199286,-0.24683462459318076,-0.3195576918303887,-0.9212129963791442,-0.2284855569422688,-0.060437699564236544
9258,8.0,300.02601,2561.3799,0.0,0.0,0.0,-0.09388670811779418,0.0,0.0,-0.19003726514021782,-0.26160000902541075,-0.3269582375132657,-0.8610819022421672,-0.23561069111546476,-0.02601753591198087
9259,8.0,301.19391,2398.1417,0.0,0.0,0.0,-0.09389684926146642,0.0,0.0,-0.18409696483895582,-0.2376491780641478,-0.30722907256364873,-0.8651945121455501,-0.2004825868435908,-0.04266656950536256
9260,8.0,300.60096,2342.3551,0.0,0.0,0.0,-0.0939069904051387,0.0,0.0,-0.17083173770977983,-0.2337405658033978,-0.3074451684124757,-0.8594015992038342,-0.2258698720741208,-0.03359310535088137
9261,8.0,300.65557,2389.7574,0.0,0.0,0.0,-0.09391713154881096,0.0,0.0,-0.14633977040011084,-0.26498197441418475,-0.3151048426759267,-0.8927161276517221,-0.19679372826452882,-0.062078716869692345
9262,8.0,300.73416000000003,2452.5252,0.0,0.0,0.0,-0.09392727269248322,0.0,0.0,-0.16975632471614482,-0.2902927491296637,-0.2854573372674457,-0.8729028426788031,-0.2045759449950738,-0.08784962365433281
9263,8.0,300.18138,2600.2704,0.0,0.0,0.0,-0.09393741383615548,0.0,0.0,-0.18566444247865382,-0.27553100226529276,-0.32922181797166367,-0.8632943642330203,-0.1865580581393468,-0.08587207964616442
9264,8.0,299.75532999999996,2508.045,0.0,0.0,0.0,-0.09394755497982774,0.0,0.0,-0.17065738776507283,-0.2896581505920337,-0.3020675258917437,-0.8709460540856832,-0.24123158458770375,-0.08205076496103002
9265,8.0,300.4475,2135.5925,0.0,0.0,0.0,-0.0939576961235,0.0,0.0,-0.12162011566047089,-0.26543648801154174,-0.26211020071576274,-0.8904498924780622,-0.23225533367431678,-0.0881707357832741
9266,8.0,299.99577,2207.3718,0.0,0.0,0.0,-0.09396783726717227,0.0,0.0,-0.1004146017453996,-0.26522511390818077,-0.30534618030032173,-0.8926937854870173,-0.21444878039194679,-0.07484066875369894
9267,8.0,299.02973,2494.6072,0.0,0.0,0.0,-0.09397797841084451,0.0,0.0,-0.15009864456108288,-0.27924043995388576,-0.3289591936782447,-0.8642745114522531,-0.19004677955865681,-0.07503021441015563
9268,8.0,298.73092,2383.5311,0.0,0.0,0.0,-0.09398811955451679,0.0,0.0,-0.16594060722456286,-0.2542907977065477,-0.3043025326973217,-0.8575027381189312,-0.2052783907593998,-0.05924495626202194
9269,8.0,298.96667,2266.6325,0.0,0.0,0.0,-0.09399826069818903,0.0,0.0,-0.1338070015032229,-0.2586142041607348,-0.2965784663900157,-0.8623603198933372,-0.1978731334635578,-0.08166810396801433
9270,8.0,298.98798999999997,2439.3234,0.0,0.0,0.0,-0.09400840184186131,0.0,0.0,-0.18180869147562084,-0.25647082556169976,-0.3032139069223827,-0.8558778091985633,-0.21788072940815378,-0.05618700089747524
9271,8.0,300.03415,2535.7962,0.0,0.0,0.0,-0.09401854298553358,0.0,0.0,-0.18772263714178183,-0.26424800643924773,-0.3188480925203567,-0.8826805237587851,-0.2073419455155568,-0.055482483036694744
9272,8.0,301.51642999999996,2390.5851,0.0,0.0,0.0,-0.09402868412920583,0.0,0.0,-0.16254571276451285,-0.2648743571210638,-0.29925811773697675,-0.8883486752156882,-0.2432430886862238,-0.05752349095162654
9273,8.0,301.25642,2401.1422,0.0,0.0,0.0,-0.0940388252728781,0.0,0.0,-0.15211185091977086,-0.2852190309764267,-0.29255640051556875,-0.8863550955114371,-0.2280332623626308,-0.07925006062462202
9274,8.0,300.40497999999997,2309.6275,0.0,0.0,0.0,-0.09404896641655035,0.0,0.0,-0.15887855800259285,-0.24752067597088878,-0.29566986476034374,-0.8659195533871061,-0.20993128588110477,-0.05444923441947104
9275,8.0,300.9066,2404.6482,0.0,0.0,0.0,-0.09405910756022261,0.0,0.0,-0.14510613840336087,-0.28650374091071773,-0.2993431294203667,-0.8848771486505752,-0.19783879441766883,-0.0894399936535401
9276,8.0,300.07021000000003,2713.6909,0.0,0.0,0.0,-0.09406924870389488,0.0,0.0,-0.21369564172511782,-0.2840858931245947,-0.3271127480210147,-0.8546782933326801,-0.2400642191474938,-0.03344637052439976
9277,8.0,299.8307,2801.0687,0.0,0.0,0.0,-0.09407938984756713,0.0,0.0,-0.2131056869868938,-0.2989285682744527,-0.3394206767207127,-0.8912122010582961,-0.22233963779821378,-0.04183046389384536
9278,8.0,298.66643999999997,2250.8345,0.0,0.0,0.0,-0.0940895309912394,0.0,0.0,-0.14501537145940285,-0.2416016336567248,-0.29758046941390576,-0.8469303852505212,-0.2076718496156158,-0.02614181508974627
9279,8.0,299.0973,2146.2279,0.0,0.0,0.0,-0.09409967213491165,0.0,0.0,-0.13268107799210288,-0.21846726949354078,-0.3012513428036927,-0.8989954817014462,-0.20671434853611778,-0.05413147209536035
9280,8.0,299.17837000000003,2685.0712,0.0,0.0,0.0,-0.09410981327858392,0.0,0.0,-0.2019441291853338,-0.2986363773431157,-0.3156141021761867,-0.8820606072151042,-0.2223213385014078,-0.05951568250324054
9281,8.0,298.95942,2547.6286,0.0,0.0,0.0,-0.0941199544222562,0.0,0.0,-0.16887774568693584,-0.28517321180690475,-0.3203645226200167,-0.8865090689966331,-0.25249836841214873,-0.1057995731041049
9282,8.0,299.67797,2274.6948,0.0,0.0,0.0,-0.09413009556592844,0.0,0.0,-0.15242712368838585,-0.27068486008451575,-0.26833842616544074,-0.8346478182008263,-0.2081292712407598,-0.08809384631268571
9283,8.0,300.28647,2207.6049,0.0,0.0,0.0,-0.09414023670960071,0.0,0.0,-0.14474044630976987,-0.27258294096684177,-0.25373337842903476,-0.8724150640806632,-0.22187074618193778,-0.09332904512110961
9284,8.0,299.87113,2240.7986,0.0,0.0,0.0,-0.09415037785327296,0.0,0.0,-0.13978915916611587,-0.26350032919045774,-0.2778573434348847,-0.8581830241035701,-0.2281142413106228,-0.07278072420764822
9285,8.0,300.6133,2403.9144,0.0,0.0,0.0,-0.09416051899694523,0.0,0.0,-0.13214186681888687,-0.3093144729919617,-0.2892736019140817,-0.8802145465929122,-0.21909787582577678,-0.0919712089271016
9286,8.0,300.21482000000003,2411.4834,0.0,0.0,0.0,-0.0941706601406175,0.0,0.0,-0.14575759742265487,-0.26411562531368277,-0.3231575363881657,-0.8444693122151322,-0.19193680510268782,-0.06107259397089573
9287,8.0,299.95878,2206.2332,0.0,0.0,0.0,-0.09418080128428975,0.0,0.0,-0.1363696528611369,-0.2311628575489978,-0.3031072927468607,-0.8771974525651481,-0.1955936652435918,-0.07174165548185013
9288,8.0,301.42689,2203.9755,0.0,0.0,0.0,-0.09419094242796201,0.0,0.0,-0.14793127219967983,-0.23100677650359377,-0.29101545989598976,-0.8883860438793761,-0.22942362388484877,-0.035220232010716265
9289,8.0,299.96377,2414.2602,0.0,0.0,0.0,-0.09420108357163427,0.0,0.0,-0.19379928037649982,-0.2340254917315178,-0.30605003448228674,-0.9070453991084112,-0.24717935254220275,-0.05099893240420275
9290,8.0,300.0186,2715.1667,0.0,0.0,0.0,-0.09421122471530653,0.0,0.0,-0.2179252516175478,-0.27689004422691976,-0.33052758324303266,-0.879737650300846,-0.20852061882688278,-0.022967182962934478
9291,8.0,299.6217,2412.3605,0.0,0.0,0.0,-0.0942213658589788,0.0,0.0,-0.18641040733477482,-0.2464714554923388,-0.3004155026637017,-0.8579884192893642,-0.2162968269843348,-0.06083698292514274
9292,8.0,300.09049,2295.0863,0.0,0.0,0.0,-0.09423150700265105,0.0,0.0,-0.14470155777093185,-0.2546999987594327,-0.2982473703647237,-0.8475191139561241,-0.2251752992630718,-0.06753854309278524
9293,8.0,299.91279,2422.2764,0.0,0.0,0.0,-0.09424164814632333,0.0,0.0,-0.17172251627019283,-0.2756171183912917,-0.28897191682930773,-0.8652493897709662,-0.2322779798140518,-0.09014986350134882
9294,8.0,300.28812999999997,2425.321,0.0,0.0,0.0,-0.09425178928999557,0.0,0.0,-0.17147103772787384,-0.2722167625132027,-0.2935492234935527,-0.8603789802502942,-0.2060005442381708,-0.07249794130348973
9295,8.0,299.91413,2142.1312,0.0,0.0,0.0,-0.09426193043366785,0.0,0.0,-0.12503764612775486,-0.24976121512201277,-0.2763555244016668,-0.8657984801326571,-0.21112322263623978,-0.05878832395870585
9296,8.0,300.66058,2089.3774,0.0,0.0,0.0,-0.0942720715773401,0.0,0.0,-0.10178421494531989,-0.24906827364362477,-0.28426605912487574,-0.8970238185968582,-0.23246338431734978,-0.06502553896327104
9297,8.0,300.28373999999997,2107.3219,0.0,0.0,0.0,-0.09428221272101237,0.0,0.0,-0.12795419534809588,-0.2270570668187878,-0.28556196547277174,-0.8697126247389532,-0.2471571319675098,-0.056871797871559444
9298,8.0,300.83151000000004,2331.351,0.0,0.0,0.0,-0.09429235386468462,0.0,0.0,-0.1138894530950139,-0.2804866159868737,-0.3142964109511407,-0.8867950284398551,-0.2021949693800898,-0.0915463825444245
9299,8.0,301.75278,2751.4563,0.0,0.0,0.0,-0.09430249500835688,0.0,0.0,-0.1993967576389278,-0.28542513617926774,-0.35155212765049365,-0.8412116827461293,-0.1993398332483098,-0.06945803090997393
9300,8.0,301.21686,2658.6205,0.0,0.0,0.0,-0.09431263615202913,0.0,0.0,-0.18048397842738184,-0.29025693073862874,-0.33741331681510167,-0.8684839374026913,-0.2022516303256818,-0.07972068489856901
9301,8.0,301.65367000000003,2386.232,0.0,0.0,0.0,-0.09432277729570142,0.0,0.0,-0.14973531334022486,-0.2908123843109477,-0.2848072562682877,-0.8389233992502931,-0.2073730421611258,-0.1005620630722029
9302,8.0,301.00408,2384.4287,0.0,0.0,0.0,-0.09433291843937366,0.0,0.0,-0.15805922370673084,-0.26429170791606077,-0.3024558641250697,-0.8529527689423841,-0.18977882556971182,-0.08339158361960852
9303,8.0,301.02381,2533.1583,0.0,0.0,0.0,-0.09434305958304594,0.0,0.0,-0.18999639063118381,-0.2893090251375777,-0.29071146460098773,-0.8685910582032632,-0.21288075559719483,-0.07761455641296032
9304,8.0,301.02941,2329.9315,0.0,0.0,0.0,-0.09435320072671818,0.0,0.0,-0.1277285040208219,-0.27737265524954974,-0.3031398484725737,-0.8861245811136872,-0.23011338375792278,-0.07488364474344032
9305,8.0,300.32158,2029.1185,0.0,0.0,0.0,-0.09436334187039046,0.0,0.0,-0.12191484984955887,-0.22797507140938778,-0.2669114255196068,-0.8728600531270801,-0.25406039476630876,-0.06636189830815944
9306,8.0,300.06346,2195.4781,0.0,0.0,0.0,-0.09437348301406272,0.0,0.0,-0.13925272429817387,-0.24605580003631675,-0.2820620071098527,-0.8596808407988932,-0.1813541474807608,-0.03748777529025536
9307,8.0,300.97697,2509.6038,0.0,0.0,0.0,-0.09438362415773498,0.0,0.0,-0.17819234107371482,-0.24814952938045176,-0.3365150402039487,-0.8597894916071162,-0.23420024697626476,-0.006046338545427154
9308,8.0,299.85177999999996,2798.2921,0.0,0.0,0.0,-0.09439376530140724,0.0,0.0,-0.2117678118198558,-0.2956857119919077,-0.34315740123449867,-0.8623204282369001,-0.20780079582334177,-0.02742182557007347
9309,8.0,300.21376000000004,2844.9974,0.0,0.0,0.0,-0.0944039064450795,0.0,0.0,-0.21203840025906082,-0.29323198501974373,-0.3595377746036157,-0.8627057773824313,-0.23364933276439379,-0.04446141540125006
9310,8.0,300.61081,2548.9016,0.0,0.0,0.0,-0.09441404758875176,0.0,0.0,-0.18359369364678682,-0.2609102086223327,-0.3302985380579277,-0.8492019805172103,-0.19239866476326983,-0.08795970922469741
9311,8.0,299.68726000000004,2233.1322,0.0,0.0,0.0,-0.09442418873242403,0.0,0.0,-0.13975907577064686,-0.27140682104576774,-0.26765053067255073,-0.8839527099218402,-0.2145476128067008,-0.08606121594958073
9312,8.0,300.35938,2342.2392,0.0,0.0,0.0,-0.09443432987609628,0.0,0.0,-0.15530692232759985,-0.2551199807933818,-0.3015553279661937,-0.9238987474917071,-0.2110378461828138,-0.07613110760405532
9313,8.0,301.19184,2209.7987,0.0,0.0,0.0,-0.09444447101976855,0.0,0.0,-0.13891175550702287,-0.26116821249529576,-0.27164364799164076,-0.8878675334057032,-0.24579803934337774,-0.08075696212034163
9314,8.0,300.56654,1704.5684,0.0,0.0,0.0,-0.0944546121634408,0.0,0.0,-0.06010265423317014,-0.2218835232656988,-0.23616005505468277,-0.8908805339030631,-0.18515583145845782,-0.08460174367779202
9315,8.0,301.39443,1969.9446,0.0,0.0,0.0,-0.09446475330711307,0.0,0.0,-0.11008260154180688,-0.23436033035956377,-0.2543710369819668,-0.8556573259768031,-0.21720869127932876,-0.06550662909750093
9316,8.0,300.52855,2547.2129,0.0,0.0,0.0,-0.09447489445078532,0.0,0.0,-0.15532272902915986,-0.3058728980998047,-0.3130934905649217,-0.8886995434603161,-0.2127105397128958,-0.08650223305560573
9317,8.0,300.25372999999996,2785.7917,0.0,0.0,0.0,-0.09448503559445759,0.0,0.0,-0.18843256069184583,-0.33016865966010966,-0.3282099053617957,-0.8444057206388562,-0.2279375912881888,-0.07819640312388412
9318,8.0,300.36905,2774.0781,0.0,0.0,0.0,-0.09449517673812984,0.0,0.0,-0.17023416333080385,-0.3253676577712877,-0.3476486627002517,-0.8432322959630482,-0.2027399763438778,-0.060202429983767236
9319,8.0,300.89311000000004,2560.7993,0.0,0.0,0.0,-0.09450531788180211,0.0,0.0,-0.16322224972378185,-0.2985200562316357,-0.31667673808606067,-0.8547091265332231,-0.2514720777833618,-0.03545901351603217
9320,8.0,298.94542,2319.06,0.0,0.0,0.0,-0.09451545902547437,0.0,0.0,-0.14988198129219987,-0.24711175862803175,-0.30794259315156775,-0.9010334113625741,-0.23165088945966278,-0.043111930414566256
9321,8.0,299.77572999999995,2567.7405,0.0,0.0,0.0,-0.09452560016914663,0.0,0.0,-0.20769842716573877,-0.26738440053378576,-0.3054461779526907,-0.896246149145108,-0.2550547984144488,-0.06249127583340874
9322,8.0,298.97744,2522.0367,0.0,0.0,0.0,-0.09453574131281889,0.0,0.0,-0.20034713557022282,-0.25371271825949576,-0.3125763378463827,-0.8644305215701502,-0.18527613464283083,-0.07570586274908692
9323,8.0,300.62379,2034.4291,0.0,0.0,0.0,-0.09454588245649115,0.0,0.0,-0.15325843460042984,-0.20046029534139082,-0.26469693702855374,-0.8558369752195332,-0.2027769802375298,-0.08330464777427862
9324,8.0,300.30417,1946.3917,0.0,0.0,0.0,-0.09455602360016341,0.0,0.0,-0.0890153152053776,-0.23738082890766377,-0.26525834851146074,-0.8613063270068161,-0.18285763837664382,-0.07603863738667922
9325,8.0,300.61400000000003,2480.5682,0.0,0.0,0.0,-0.09456616474383567,0.0,0.0,-0.18065742657949982,-0.26462740780669175,-0.30874594849335274,-0.8620397579592001,-0.22338560574394278,-0.06337421082479765
9326,8.0,300.02656,2698.3173,0.0,0.0,0.0,-0.09457630588750793,0.0,0.0,-0.17323462992442684,-0.3012484753059097,-0.3457379668541807,-0.8968715777693331,-0.1862244860739258,-0.027531665933913874
9327,8.0,301.0969,2445.9985,0.0,0.0,0.0,-0.09458644703118019,0.0,0.0,-0.16833033732041083,-0.2924238167399837,-0.2827683133570597,-0.8735548387206501,-0.23406433974035176,-0.06358391002574335
9328,8.0,300.52391,2464.1687,0.0,0.0,0.0,-0.09459658817485245,0.0,0.0,-0.15245493740363086,-0.27542584716991475,-0.3211649598015137,-0.8927990824374091,-0.24719838137908076,-0.05707795069715514
9329,8.0,300.35464,2489.4448,0.0,0.0,0.0,-0.09460672931852471,0.0,0.0,-0.1881923596231398,-0.2846224394500477,-0.28391424855765474,-0.873886212033354,-0.24250272710315576,-0.1022129311951309
9330,8.0,300.4501,2488.5738,0.0,0.0,0.0,-0.09461687046219697,0.0,0.0,-0.14779012646074988,-0.28881873367918975,-0.31985543537227373,-0.8843122617198251,-0.2148621965652478,-0.09068071333473961
9331,8.0,300.34558,2366.2756,0.0,0.0,0.0,-0.09462701160586924,0.0,0.0,-0.17565679415597585,-0.23813365346696175,-0.3054982387428287,-0.8530731025242603,-0.1954897159158328,-0.06790533962898523
9332,8.0,300.01673,2022.9322,0.0,0.0,0.0,-0.09463715274954149,0.0,0.0,-0.11419157387733088,-0.23601150245752175,-0.2647178099806137,-0.8981445947974702,-0.1952458671467668,-0.07597946864708972
9333,8.0,300.35167,1898.9014,0.0,0.0,0.0,-0.09464729389321376,0.0,0.0,-0.1227066642727049,-0.2154059167014088,-0.23910603919042878,-0.8515792375043273,-0.20907549484664478,-0.09613595764088032
9334,8.0,299.52439,2254.2575,0.0,0.0,0.0,-0.094657435036886,0.0,0.0,-0.13974399860915887,-0.2599625664663077,-0.28553142611475774,-0.8922295953512052,-0.20041204437162882,-0.11515288477720488
9335,8.0,299.46187000000003,2705.0472,0.0,0.0,0.0,-0.09466757618055828,0.0,0.0,-0.2060812293436338,-0.3078380561387507,-0.30834752842153174,-0.8709837571219042,-0.22588663123077476,-0.08277274517403392
9336,8.0,300.41873,2471.1326,0.0,0.0,0.0,-0.09467771732423055,0.0,0.0,-0.16185444314878983,-0.2625710167287418,-0.3267371362089447,-0.8845119023870281,-0.24438186020861175,-0.05770095562714095
9337,8.0,299.9467,2236.2874,0.0,0.0,0.0,-0.0946878584679028,0.0,0.0,-0.12756821798750287,-0.26464958785138076,-0.28755774392973976,-0.8733747233828743,-0.23244364620540178,-0.04623235163452786
9338,8.0,300.13259,2585.1858,0.0,0.0,0.0,-0.09469799961157506,0.0,0.0,-0.2047341538656878,-0.24875203828741477,-0.3323457288249697,-0.8776123278185931,-0.2006360233062338,-0.02126707696464708
9339,8.0,301.5461,2814.5361,0.0,0.0,0.0,-0.09470814075524732,0.0,0.0,-0.2158384225065938,-0.26080723201466977,-0.37890305104481964,-0.8864252732133632,-0.2121099661136238,-0.01794151718243988
9340,8.0,300.8316,2589.5747,0.0,0.0,0.0,-0.09471828189891958,0.0,0.0,-0.19033501881460382,-0.29038698138896374,-0.3064440469161727,-0.8675077013288441,-0.20768445444685982,-0.05380038147943425
9341,8.0,300.9293,2442.6227,0.0,0.0,0.0,-0.09472842304259185,0.0,0.0,-0.16806782448450283,-0.24644964021768576,-0.3279788336764907,-0.8608550051472743,-0.22208594023817577,-0.06866837977579143
9342,8.0,300.2001,2371.1314,0.0,0.0,0.0,-0.0947385641862641,0.0,0.0,-0.16103930370834185,-0.2646339939323417,-0.2950914205432557,-0.8432969311869273,-0.2141135972588668,-0.09013131190526791
9343,8.0,298.99499,2319.3858,0.0,0.0,0.0,-0.09474870532993637,0.0,0.0,-0.15593967675004786,-0.2649330141693528,-0.28416266708467175,-0.8841559374943971,-0.22047745636693078,-0.07589101495311003
9344,8.0,299.3105,2422.9128,0.0,0.0,0.0,-0.09475884647360862,0.0,0.0,-0.17291401732778483,-0.25945035840825675,-0.30414060519884073,-0.9079553686257182,-0.23691862474204778,-0.06783221032951794
9345,8.0,300.35533,2341.6809,0.0,0.0,0.0,-0.09476898761728089,0.0,0.0,-0.13878511950952488,-0.2800507360588557,-0.2929766763920467,-0.9000308611836302,-0.24370155395897078,-0.08051332005429603
9346,8.0,299.61795,2014.0117,0.0,0.0,0.0,-0.09477912876095317,0.0,0.0,-0.08880062980068981,-0.25756044432173675,-0.2658482019246748,-0.8737726672271483,-0.2016229187711328,-0.101277874618598
9347,8.0,301.17771,2360.8627,0.0,0.0,0.0,-0.09478926990462541,0.0,0.0,-0.13674627792330687,-0.2818413212380727,-0.2990557108970007,-0.8673980474030221,-0.2011523451596908,-0.08933927963335042
9348,8.0,301.64036,2726.4129,0.0,0.0,0.0,-0.09479941104829769,0.0,0.0,-0.15970080032624184,-0.3332624263229407,-0.33579820628820267,-0.8759526545522962,-0.22407166725415179,-0.0874129513647366
9349,8.0,300.95765,2601.0085,0.0,0.0,0.0,-0.09480955219196993,0.0,0.0,-0.20109929138445481,-0.2890237344394217,-0.3005186211263787,-0.8716341319635913,-0.2041270448032708,-0.04119262498239556
9350,8.0,299.6878,2236.0217,0.0,0.0,0.0,-0.0948196933356422,0.0,0.0,-0.13955481468298786,-0.2509156312259448,-0.28922432756171873,-0.8706046394644881,-0.21000135212551982,-0.05917395884076504
9351,8.0,299.03094,2176.3365,0.0,0.0,0.0,-0.09482983447931446,0.0,0.0,-0.14657396289572386,-0.23710066525501378,-0.2778773145943557,-0.8840311253470792,-0.24210558372646077,-0.02188354237848748
9352,8.0,298.48837000000003,2241.4767,0.0,0.0,0.0,-0.09483997562298672,0.0,0.0,-0.12105451945465087,-0.23742055844408477,-0.3228778692280647,-0.8812394186715591,-0.2596345166139318,-0.07493710179221613
9353,8.0,299.78007,2711.2442,0.0,0.0,0.0,-0.09485011676665898,0.0,0.0,-0.2028521937924528,-0.2948652935184387,-0.3264330598539347,-0.8683607768530363,-0.22394628768677777,-0.08142338076411201
9354,8.0,299.65219,2536.4921,0.0,0.0,0.0,-0.09486025791033124,0.0,0.0,-0.19744517715132182,-0.23279751367032578,-0.34078757137061466,-0.8427175851772502,-0.1973463244715658,-0.08658386656316232
9355,8.0,300.18266,2088.9803,0.0,0.0,0.0,-0.0948703990540035,0.0,0.0,-0.16651592049884184,-0.21064997404453378,-0.25783195481853277,-0.8778392654434901,-0.1959452934257948,-0.05060711872303375
9356,8.0,300.23701,2228.1541,0.0,0.0,0.0,-0.09488054019767578,0.0,0.0,-0.12614038647658687,-0.27658720403703174,-0.27457561887850374,-0.8842631798849812,-0.2148077039748698,-0.05909664583163485
9357,8.0,300.34705,2724.6007,0.0,0.0,0.0,-0.09489068134134802,0.0,0.0,-0.21350461368376478,-0.27585084479185873,-0.3388551109123957,-0.8997158822575441,-0.21544495722776177,-0.028993311627167073
9358,8.0,299.4936,2809.2134,0.0,0.0,0.0,-0.0949008224850203,0.0,0.0,-0.15832516132797686,-0.33821947885966364,-0.35738608735376065,-0.888539297957001,-0.19296366315153082,-0.05856732397939485
9359,8.0,300.47484,2334.9687,0.0,0.0,0.0,-0.09491096362869254,0.0,0.0,-0.12034204251433489,-0.28503361634062774,-0.3043965116440967,-0.9025565694428981,-0.2240692151889098,-0.07448476060307353
9360,8.0,300.41922999999997,2133.2642,0.0,0.0,0.0,-0.09492110477236482,0.0,0.0,-0.09263434261404782,-0.27561994535907075,-0.28020475007405576,-0.880566367292634,-0.24835785360101176,-0.06610445881550214
9361,8.0,301.17249,2397.2451,0.0,0.0,0.0,-0.09493124591603708,0.0,0.0,-0.17919869094053384,-0.27424422530079773,-0.27525974508102174,-0.8774730363273463,-0.2150590305296738,-0.06824422416468054
9362,8.0,301.76175,2499.6459,0.0,0.0,0.0,-0.09494138705970934,0.0,0.0,-0.17152694886839182,-0.2718753276270058,-0.3164276609464787,-0.8613353262246781,-0.2267385921798568,-0.07950524462255672
9363,8.0,301.71531,2383.2392,0.0,0.0,0.0,-0.0949515282033816,0.0,0.0,-0.17690220011888783,-0.26920793660625475,-0.27833509085703473,-0.8661229228146772,-0.21814926094965578,-0.07777856918014713
9364,8.0,300.84876,2372.5215,0.0,0.0,0.0,-0.09496166934705386,0.0,0.0,-0.11358395818986389,-0.30672287307869067,-0.30088046286958975,-0.8682222554318653,-0.24659493014952474,-0.09980750686848401
9365,8.0,300.38081,2335.0034,0.0,0.0,0.0,-0.09497181049072612,0.0,0.0,-0.15401353897245285,-0.25210565293839077,-0.3036635366542577,-0.8516814136444111,-0.18817455681888282,-0.08262947160989392
9366,8.0,299.15655,2535.0441,0.0,0.0,0.0,-0.09498195163439839,0.0,0.0,-0.15274480799223886,-0.30949562184483975,-0.3083496765117437,-0.8794843073783432,-0.18766176107577381,-0.0982910808218244
9367,8.0,299.74217999999996,2715.0712,0.0,0.0,0.0,-0.09499209277807064,0.0,0.0,-0.2100262172829738,-0.26941312988400573,-0.34587451243765666,-0.9268799319359271,-0.18041378046045384,-0.024238214020875476
9368,8.0,300.37666,2155.3496,0.0,0.0,0.0,-0.09500223392174291,0.0,0.0,-0.13404283546399787,-0.24546512589052177,-0.27566450809846876,-0.9252603327110851,-0.24529556861878776,-0.048112327764067056
9369,8.0,299.81605,2002.9260000000002,0.0,0.0,0.0,-0.09501237506541516,0.0,0.0,-0.11534449037111488,-0.23980841402724776,-0.2536865764069158,-0.9079326819559791,-0.19135842168060582,-0.024740100100157775
9370,8.0,299.84797000000003,2563.2918,0.0,0.0,0.0,-0.09502251620908743,0.0,0.0,-0.17766443777161484,-0.25449539316673975,-0.34701686073289767,-0.8588149780584393,-0.2056234429484538,-0.05547509846996594
9371,8.0,300.48722999999995,2843.8547,0.0,0.0,0.0,-0.09503265735275969,0.0,0.0,-0.2193466489903288,-0.30780933049841575,-0.3373048585243977,-0.8543407797243701,-0.2032368032654108,-0.05528256372571424
9372,8.0,299.96335,2620.7110000000002,0.0,0.0,0.0,-0.09504279849643195,0.0,0.0,-0.19261966474258083,-0.28978149352670673,-0.3142295465770417,-0.8539527150685712,-0.23635847982176575,-0.08109156162136401
9373,8.0,299.61098,2336.4473,0.0,0.0,0.0,-0.09505293964010421,0.0,0.0,-0.19139708730442181,-0.23453294764659977,-0.2842915930273957,-0.8740589103803982,-0.22160856771856277,-0.05611057752193285
9374,8.0,299.21547000000004,2323.428,0.0,0.0,0.0,-0.09506308078377647,0.0,0.0,-0.16159818206599885,-0.28524204188619773,-0.25942387205064277,-0.8883370431045402,-0.22904151713963777,-0.08575998277435133
9375,8.0,299.7266,2631.9691,0.0,0.0,0.0,-0.09507322192744873,0.0,0.0,-0.1967991592850648,-0.27990053186403174,-0.32335318484997466,-0.9272844821708531,-0.22098738461225678,-0.06278515787916264
9376,8.0,300.00751,2539.6267,0.0,0.0,0.0,-0.095083363071121,0.0,0.0,-0.13211533993126887,-0.30612108357929874,-0.33374667881073267,-0.8974438006308071,-0.24099967190481578,-0.08875026924421961
9377,8.0,300.26972,2151.3887,0.0,0.0,0.0,-0.09509350421479325,0.0,0.0,-0.10646077958936088,-0.24567069407080977,-0.30183696083148875,-0.8719439433141672,-0.1930477629098308,-0.06918135385091803
9378,8.0,300.81221,1990.7806,0.0,0.0,0.0,-0.09510364535846552,0.0,0.0,-0.07195845148649622,-0.24015532046398474,-0.2930338135651857,-0.8523467339250732,-0.2165912369333908,-0.08549665832511322
9379,8.0,300.56834,2382.1311,0.0,0.0,0.0,-0.09511378650213777,0.0,0.0,-0.15019394073298786,-0.29824146311664074,-0.27567296873680375,-0.8814897421087642,-0.21957529900789477,-0.052158562693149356
9380,8.0,301.32469,2602.8645,0.0,0.0,0.0,-0.09512392764581004,0.0,0.0,-0.1767219631910998,-0.2835160108708517,-0.33096786067648465,-0.8736860140785963,-0.2739805674922767,-0.05590323412746965
9381,8.0,300.66874,2399.2827,0.0,0.0,0.0,-0.0951340687894823,0.0,0.0,-0.17207590750756985,-0.2963877929861977,-0.26085832008471177,-0.8901890515048192,-0.21998955617877877,-0.056254732613659854
9382,8.0,299.73215,2152.3477,0.0,0.0,0.0,-0.09514420993315456,0.0,0.0,-0.1061372994949359,-0.27469821200810274,-0.27342445530739273,-0.8526081220533702,-0.24001561354019676,-0.10005346117125781
9383,8.0,299.51645,2546.2954,0.0,0.0,0.0,-0.09515435107682682,0.0,0.0,-0.19007763302420183,-0.2811381864636788,-0.3027944011159807,-0.9038569543562361,-0.23077292851301479,-0.06621230003689524
9384,8.0,299.74347,2757.0466,0.0,0.0,0.0,-0.09516449222049908,0.0,0.0,-0.17718102628140583,-0.31121616104464367,-0.34967613562034766,-0.8908502579900752,-0.23902789734271676,-0.08284666278207901
9385,8.0,299.49416,2489.5428,0.0,0.0,0.0,-0.09517463336417134,0.0,0.0,-0.2100412336494558,-0.22847224283595477,-0.31824537083087273,-0.8923043428110822,-0.2043220751825188,-0.04661644840293526
9386,8.0,300.2424,2257.5148,0.0,0.0,0.0,-0.09518477450784361,0.0,0.0,-0.14563811497086285,-0.22092229342583278,-0.31966773079124866,-0.8370515919430602,-0.2009638603760888,-0.05093739975212996
9387,8.0,300.05861,2124.0375,0.0,0.0,0.0,-0.09519491565151586,0.0,0.0,-0.14686787635223086,-0.23616834344050078,-0.26261814299089276,-0.8892299494901632,-0.2202759918495478,-0.06627229761506653
9388,8.0,300.73472999999996,2338.9970000000003,0.0,0.0,0.0,-0.09520505679518813,0.0,0.0,-0.13465156572657488,-0.23212023703848375,-0.3442248906123517,-0.8528506535973062,-0.2313032534828538,-0.06242613398447974
9389,8.0,300.7951,2743.4065,0.0,0.0,0.0,-0.09521519793886038,0.0,0.0,-0.2136103260666978,-0.3041993838371417,-0.3161173733683557,-0.8802470820536231,-0.20103750339335683,-0.07235888893926634
9390,8.0,299.59584,2573.9967,0.0,0.0,0.0,-0.09522533908253265,0.0,0.0,-0.16551079666464386,-0.2954554103766787,-0.3214645069285767,-0.8866958819175702,-0.21170976272162678,-0.05361998547138054
9391,8.0,299.38936,2091.5654,0.0,0.0,0.0,-0.09523548022620493,0.0,0.0,-0.14255614253919585,-0.23891997607456578,-0.2543075467307008,-0.9232471466173992,-0.22999843053407779,-0.06592113147490913
9392,8.0,299.15899,2254.4610000000002,0.0,0.0,0.0,-0.09524562136987717,0.0,0.0,-0.12476796961363988,-0.2941456326349137,-0.26638623772777476,-0.916590660880455,-0.2273174518294858,-0.07834721425551802
9393,8.0,298.98819,2539.8529,0.0,0.0,0.0,-0.09525576251354945,0.0,0.0,-0.21558471481405478,-0.24711858793370578,-0.3093485587253257,-0.883730372452397,-0.19556494973575783,-0.08278038406653782
9394,8.0,299.04606,2444.7471,0.0,0.0,0.0,-0.09526590365722169,0.0,0.0,-0.15790206861622086,-0.2760003093141097,-0.3092396951345817,-0.8525246809076352,-0.20845243722765383,-0.0932899589985021
9395,8.0,299.40202,2105.0789999999997,0.0,0.0,0.0,-0.09527604480089397,0.0,0.0,-0.15384446806076685,-0.2229864459995488,-0.2630605381170537,-0.8608886450505941,-0.23177785982969376,-0.08636303377011782
9396,8.0,299.86309,2146.2591,0.0,0.0,0.0,-0.09528618594456623,0.0,0.0,-0.12333033997425688,-0.2196782452180548,-0.3094005789854597,-0.8585234964021722,-0.2526271423673577,-0.05099891720545125
9397,8.0,300.38746000000003,2305.6503,0.0,0.0,0.0,-0.09529632708823849,0.0,0.0,-0.16167717504379484,-0.25298449541262574,-0.28619843852308674,-0.8762762866342361,-0.18238814894280883,-0.07222931958272884
9398,8.0,300.20954,2637.2377,0.0,0.0,0.0,-0.09530646823191075,0.0,0.0,-0.16511916536849286,-0.2664605292251067,-0.3700747042485297,-0.9005344768808331,-0.18322138503004284,-0.03462270018824447
9399,8.0,299.20376,2645.383,0.0,0.0,0.0,-0.09531660937558299,0.0,0.0,-0.1974575084050388,-0.2868803254428837,-0.3197925429385667,-0.9316717537788431,-0.2026619054236728,-0.06864810565454053
9400,8.0,300.00584,2305.1946,0.0,0.0,0.0,-0.09532675051925527,0.0,0.0,-0.13341742710477486,-0.2839095470771907,-0.28339462350887173,-0.9056263727408641,-0.2055483205860398,-0.06418118650918994
9401,8.0,300.31716,2379.5786,0.0,0.0,0.0,-0.09533689166292754,0.0,0.0,-0.18680247432846883,-0.25738509125943076,-0.27914493099945975,-0.8855492678394081,-0.18106323324454981,-0.07135332130152452
9402,8.0,300.5598,2821.2459999999996,0.0,0.0,0.0,-0.09534703280659979,0.0,0.0,-0.2015280380317688,-0.31680691032640773,-0.33925336886420066,-0.8760404020109561,-0.1995285409469338,-0.04857953738517705
9403,8.0,301.1222,2743.2443,0.0,0.0,0.0,-0.09535717395027206,0.0,0.0,-0.2343460334006528,-0.2711092497563997,-0.3284224953652767,-0.8678221027023731,-0.2361772397763788,-0.03906379462829636
9404,8.0,301.53987,2291.5709,0.0,0.0,0.0,-0.0953673150939443,0.0,0.0,-0.12094470340881289,-0.22870941428686178,-0.3469262153789517,-0.8700172989115221,-0.22954196136402777,-0.050941565223291047
9405,8.0,299.99964,2309.0102,0.0,0.0,0.0,-0.09537745623761658,0.0,0.0,-0.18402971542981883,-0.2322517569014638,-0.2855999826165237,-0.8533572685148053,-0.21257585850960378,-0.06214515567874935
9406,8.0,301.69605,2746.4298,0.0,0.0,0.0,-0.09538759738128884,0.0,0.0,-0.1880794328994948,-0.27475491348369874,-0.37201172433219865,-0.8741007373445262,-0.2189784237714878,-0.08356135164736334
9407,8.0,300.20117,2755.9558,0.0,0.0,0.0,-0.0953977385249611,0.0,0.0,-0.23069617481793978,-0.2934673326204707,-0.3135782294127617,-0.8876713681863433,-0.22474355339546181,-0.06693841431030714
9408,8.0,299.90038,2419.633,0.0,0.0,0.0,-0.09540787966863336,0.0,0.0,-0.13924782016768986,-0.28698261304047873,-0.3092775805558207,-0.8845824144614872,-0.22380780679561077,-0.08403674934253141
9409,8.0,299.64551,2278.6932,0.0,0.0,0.0,-0.09541802081230562,0.0,0.0,-0.16379620524292685,-0.24551206976765477,-0.28335755882021374,-0.8844240434708572,-0.2081299095883228,-0.044310837317139154
9410,8.0,300.99097,2305.7661,0.0,0.0,0.0,-0.09542816195597788,0.0,0.0,-0.0936061183609546,-0.2920910147446387,-0.3151981934076397,-0.8953482271714902,-0.19972863757668183,-0.09021661033843623
9411,8.0,300.3681,2472.2408,0.0,0.0,0.0,-0.09543830309965015,0.0,0.0,-0.18894452556987282,-0.27804171442308073,-0.28451323135426976,-0.898344316524681,-0.23114533845476878,-0.06309288598753304
9412,8.0,299.74617,2446.4754,0.0,0.0,0.0,-0.0954484442433224,0.0,0.0,-0.13394793445963185,-0.29581923809008576,-0.3139002706920447,-0.8881090010370342,-0.21132943929659181,-0.09889525044570131
9413,8.0,299.51713,2290.7284,0.0,0.0,0.0,-0.09545858538699467,0.0,0.0,-0.17495060949878083,-0.2849643606962927,-0.23640924365177576,-0.8937573434544821,-0.23060362455380579,-0.07022724580288953
9414,8.0,299.64855,2301.6692,0.0,0.0,0.0,-0.09546872653066692,0.0,0.0,-0.1283092989781419,-0.25463327624034776,-0.3167073990340867,-0.8730066805490511,-0.22940862778336876,-0.08999442789625851
9415,8.0,298.81784,2610.0643,0.0,0.0,0.0,-0.09547886767433919,0.0,0.0,-0.1994402564657208,-0.2839490739635917,-0.3100050535976167,-0.8994152509528742,-0.25131926953578076,-0.06261818439518364
9416,8.0,300.67315,2597.6071,0.0,0.0,0.0,-0.09548900881801145,0.0,0.0,-0.13815718815755287,-0.29012079045519273,-0.36132972767046767,-0.8658873826964312,-0.24965139907617476,-0.06792614874628894
9417,8.0,300.44973,2394.6844,0.0,0.0,0.0,-0.09549914996168371,0.0,0.0,-0.17270411243706882,-0.2561864467886338,-0.2990337031048287,-0.8554768560014921,-0.23720963017076777,-0.05683835149900854
9418,8.0,300.78879,2640.7511,0.0,0.0,0.0,-0.09550929110535597,0.0,0.0,-0.17155786312894283,-0.2981427117618947,-0.3330218098216937,-0.8551102722478132,-0.2103575095356698,-0.06796118592149683
9419,8.0,300.99506,2788.7621,0.0,0.0,0.0,-0.09551943224902823,0.0,0.0,-0.22384054490634178,-0.2908959977091997,-0.33297751052732166,-0.8529159373012491,-0.2444903792943218,-0.04709026238819705
9420,8.0,300.62937999999997,2502.0746,0.0,0.0,0.0,-0.09552957339270049,0.0,0.0,-0.14220572012461186,-0.2963846823083907,-0.3219777991642347,-0.8804796938790802,-0.2001884606045628,-0.06206574422866204
9421,8.0,300.2502,2490.8629,0.0,0.0,0.0,-0.09553971453637276,0.0,0.0,-0.14833231658925988,-0.30527454351825173,-0.3035532747783757,-0.8778369552332622,-0.2025110831462878,-0.049656507744215754
9422,8.0,300.37724,2302.1902,0.0,0.0,0.0,-0.09554985568004501,0.0,0.0,-0.14087217153550086,-0.24999770769535276,-0.3089384660123527,-0.8948663254239301,-0.19186593839069382,-0.05889971864819965
9423,8.0,299.8627,2184.0555,0.0,0.0,0.0,-0.09555999682371728,0.0,0.0,-0.13860196442144887,-0.27375311310982875,-0.25154326873538774,-0.8988973180317582,-0.22450122450154578,-0.08136026541538302
9424,8.0,300.0275,2400.6405,0.0,0.0,0.0,-0.09557013796738953,0.0,0.0,-0.15545288100450486,-0.27991100887006576,-0.29437086799964274,-0.8841233919011852,-0.2096092040718178,-0.09041494188651002
9425,8.0,298.98828,2383.3917,0.0,0.0,0.0,-0.0955802791110618,0.0,0.0,-0.18507114401509983,-0.25834373731154175,-0.28107669231510973,-0.8718990968647412,-0.23133255667574576,-0.07626406020267673
9426,8.0,299.64606000000003,2388.6762,0.0,0.0,0.0,-0.09559042025473405,0.0,0.0,-0.13553858512911687,-0.28530081039199773,-0.3052585139016697,-0.8653687202352432,-0.2170729157659288,-0.09326825923436051
9427,8.0,300.67345,2408.2914,0.0,0.0,0.0,-0.09560056139840632,0.0,0.0,-0.17395128145515484,-0.25638897521862175,-0.30172019388996474,-0.8820115355127612,-0.24337764829950378,-0.05874207719764165
9428,8.0,299.81101,2471.9341,0.0,0.0,0.0,-0.09561070254207857,0.0,0.0,-0.12881955146349988,-0.2721398770956147,-0.3504468237789087,-0.8820408285731521,-0.2226598653598178,-0.06606039763490364
9429,8.0,301.26401,2462.9751,0.0,0.0,0.0,-0.09562084368575084,0.0,0.0,-0.17729726633287785,-0.26835704970227875,-0.30302862400909675,-0.8680074565431661,-0.2192217253854998,-0.04618983363383166
9430,8.0,300.7524,2392.3624,0.0,0.0,0.0,-0.09563098482942309,0.0,0.0,-0.13626556167836387,-0.2712910876193457,-0.3196617830131617,-0.9048589371151242,-0.2156768901756518,-0.07218954141030302
9431,8.0,299.4809,2535.0553,0.0,0.0,0.0,-0.09564112597309536,0.0,0.0,-0.2068529307522948,-0.3084031153220177,-0.25533747492734676,-0.8786704648980233,-0.2408153617116258,-0.07809267772439722
9432,8.0,300.757,2458.0714,0.0,0.0,0.0,-0.09565126711676762,0.0,0.0,-0.13307803898377987,-0.2862188251150987,-0.3278954634582627,-0.8992890405204181,-0.21576314815666478,-0.06854690831405313
9433,8.0,300.62347,2210.9794,0.0,0.0,0.0,-0.09566140826043988,0.0,0.0,-0.16308271505251085,-0.26299612580819676,-0.24600367845117274,-0.8576313904841281,-0.2009484995045728,-0.06784511204304124
9434,8.0,299.75436,2438.87,0.0,0.0,0.0,-0.09567154940411214,0.0,0.0,-0.1379998000195199,-0.2823968761354017,-0.32095889512867665,-0.907872879935077,-0.2071881544153788,-0.05646878879003554
9435,8.0,299.93384,2696.7383,0.0,0.0,0.0,-0.0956816905477844,0.0,0.0,-0.22807441044919177,-0.27068266133179875,-0.3209840338636577,-0.8849369912014812,-0.20704155739091082,-0.05939161306824584
9436,8.0,299.40291,2431.1027,0.0,0.0,0.0,-0.09569183169145666,0.0,0.0,-0.15321938394157586,-0.27208348972754975,-0.3136916222314527,-0.9076412813597202,-0.20675326747245878,-0.06503630373233343
9437,8.0,299.7463,2472.4774,0.0,0.0,0.0,-0.09570197283512892,0.0,0.0,-0.1924768876709898,-0.25538156143919777,-0.30371293259663273,-0.8487418940443031,-0.2260956545939038,-0.07506830754766514
9438,8.0,300.30066,2691.6034,0.0,0.0,0.0,-0.09571211397880118,0.0,0.0,-0.16843598890833786,-0.2829698791994527,-0.3667743662878116,-0.9009610450404321,-0.2329695534048048,-0.04945152015623505
9439,8.0,299.63786,2595.21,0.0,0.0,0.0,-0.09572225512247344,0.0,0.0,-0.1941682250029118,-0.30269273160094673,-0.29201807086993975,-0.8642588567382082,-0.25069105447378076,-0.06111922678024804
9440,8.0,299.68207,2560.1986,0.0,0.0,0.0,-0.0957323962661457,0.0,0.0,-0.13158918955184187,-0.28801477038734474,-0.35863249643427164,-0.878010383120378,-0.2001720864829468,-0.05288309426990504
9441,8.0,299.87464,2484.5333,0.0,0.0,0.0,-0.09574253740981797,0.0,0.0,-0.19129120266897182,-0.27067999648403573,-0.2932648852504907,-0.8577040709138012,-0.2053074203747648,-0.05773570503932045
9442,8.0,300.09237,2375.1042,0.0,0.0,0.0,-0.09575267855349022,0.0,0.0,-0.12568035066618488,-0.29346269193501273,-0.3028293075819257,-0.8809612713866083,-0.22159138299686681,-0.08010511198650902
9443,8.0,300.57752,2325.0879999999997,0.0,0.0,0.0,-0.0957628196971625,0.0,0.0,-0.16969504335009686,-0.26758182218326976,-0.26949183915177377,-0.8916627123177582,-0.2455449294683978,-0.08284783004619421
9444,8.0,299.66699,2367.044,0.0,0.0,0.0,-0.09577296084083474,0.0,0.0,-0.13877990127150988,-0.27315026983033275,-0.3075921099419777,-0.8968119176034451,-0.2221344141229598,-0.09723293259664331
9445,8.0,300.57209,2265.374,0.0,0.0,0.0,-0.09578310198450701,0.0,0.0,-0.17919697854786482,-0.2255758066300988,-0.28384434443325574,-0.8882063743716442,-0.2271312164611058,-0.05103754939201395
9446,8.0,300.86956000000004,2220.2768,0.0,0.0,0.0,-0.09579324312817927,0.0,0.0,-0.11897725542464088,-0.25662437348185374,-0.2993070678493077,-0.9106244213766331,-0.22214760663926178,-0.08178722266302042
9447,8.0,299.56063,2624.2514,0.0,0.0,0.0,-0.09580338427185153,0.0,0.0,-0.2107997628068168,-0.26648174668220076,-0.3204253885535237,-0.8986428098716401,-0.2315176065415088,-0.047466123459791655
9448,8.0,298.43277,2673.7862,0.0,0.0,0.0,-0.09581352541552379,0.0,0.0,-0.1997060522319528,-0.25339408150054876,-0.35966409649358266,-0.9021871485889391,-0.2028018960574888,-0.06523576404101863
9449,8.0,298.33983,2475.4647,0.0,0.0,0.0,-0.09582366655919605,0.0,0.0,-0.16241574317418583,-0.28436058522670477,-0.3057031179130487,-0.8661864941259512,-0.21010518999576777,-0.054765129323647445
9450,8.0,298.79573999999997,2567.0429,0.0,0.0,0.0,-0.09583380770286834,0.0,0.0,-0.18333428135618482,-0.25978964520424175,-0.33719301597835966,-0.8795964336344091,-0.24633758488912674,-0.05889833252206284
9451,8.0,300.27512,2542.2995,0.0,0.0,0.0,-0.09584394884654059,0.0,0.0,-0.18158357770090383,-0.26735716437109774,-0.3238548145769817,-0.8658275908080301,-0.2519339678414467,-0.059423603400403036
9452,8.0,299.84147,2115.9374,0.0,0.0,0.0,-0.09585408999021283,0.0,0.0,-0.1295000603631609,-0.24526484687575578,-0.2684272375367057,-0.8600233395976952,-0.22065479539943278,-0.06143447117786024
9453,8.0,299.70709,2201.367,0.0,0.0,0.0,-0.0958642311338851,0.0,0.0,-0.14297765458079587,-0.23495306140306177,-0.2912298737496507,-0.8839773926942762,-0.21326374386999278,-0.07243011130204544
9454,8.0,299.83128,2476.1365,0.0,0.0,0.0,-0.09587437227755735,0.0,0.0,-0.17691665919781482,-0.28035018186090876,-0.2954168359453717,-0.8901698909454282,-0.23733345946548876,-0.06693257494998085
9455,8.0,299.77437000000003,2376.1222,0.0,0.0,0.0,-0.09588451342122963,0.0,0.0,-0.15406991620801685,-0.28012651703383473,-0.2880853837868137,-0.8984232284424691,-0.2519609304266078,-0.09988509446839132
9456,8.0,299.3295,2527.5113,0.0,0.0,0.0,-0.0958946545649019,0.0,0.0,-0.16394972276557784,-0.26641330163794574,-0.3379373089718157,-0.8731341879416351,-0.2074005620338418,-0.062004624982630034
9457,8.0,299.39607,2663.7523,0.0,0.0,0.0,-0.09590479570857414,0.0,0.0,-0.17666612297808884,-0.30098040985945373,-0.33206764233502467,-0.8740464474041681,-0.2198149833190498,-0.07682600060213593
9458,8.0,299.20133,2389.3662,0.0,0.0,0.0,-0.09591493685224642,0.0,0.0,-0.14451791632280786,-0.24943152380447478,-0.33235823233120365,-0.8897292791394432,-0.1910192058121278,-0.05244754162166935
9459,8.0,300.69608,2322.8576,0.0,0.0,0.0,-0.09592507799591866,0.0,0.0,-0.17398133445312083,-0.25160060855854677,-0.28050876563405974,-0.904011454731484,-0.2028160004988808,-0.06789116324683614
9460,8.0,300.21929,2557.5345,0.0,0.0,0.0,-0.09593521913959092,0.0,0.0,-0.16457901187268384,-0.27853086090885576,-0.3343167434494937,-0.8845540130611842,-0.19184664610878982,-0.06753622781630673
9461,8.0,301.2247,2416.4693,0.0,0.0,0.0,-0.0959453602832632,0.0,0.0,-0.16986707295207484,-0.24537638544676374,-0.3193028796952407,-0.8948053682979141,-0.19771482326793383,-0.06898152573244652
9462,8.0,300.32874,2172.1551,0.0,0.0,0.0,-0.09595550142693544,0.0,0.0,-0.08613826146068451,-0.28484872859488075,-0.28929391757858675,-0.8899172876954982,-0.2564697211190907,-0.0976035713772225
9463,8.0,299.62377999999995,2338.8947,0.0,0.0,0.0,-0.09596564257060772,0.0,0.0,-0.16012450098805786,-0.2735093150032677,-0.27733178074051573,-0.8670146436976832,-0.2613314876164098,-0.07262077862636283
9464,8.0,299.61787000000004,2433.6772,0.0,0.0,0.0,-0.09597578371427996,0.0,0.0,-0.17666779484075382,-0.2529854883977237,-0.3101238267743387,-0.8827877965468721,-0.23549009408856278,-0.07299256947230573
9465,8.0,300.17255,2397.2709,0.0,0.0,0.0,-0.09598592485795224,0.0,0.0,-0.19114299457684483,-0.28531059838796374,-0.25225690078081775,-0.8828516313031722,-0.2122034789653528,-0.055169852824340546
9466,8.0,298.51611,2412.1245,0.0,0.0,0.0,-0.09599606600162451,0.0,0.0,-0.15000280123412385,-0.25011543722447177,-0.3331073787926387,-0.946422750059653,-0.2394548302723518,-0.04981422214878095
9467,8.0,299.43165,2599.945,0.0,0.0,0.0,-0.09600620714529676,0.0,0.0,-0.1964086425640238,-0.2934688220981177,-0.3004409048437087,-0.9080658230191192,-0.2061206751700268,-0.06364285585031083
9468,8.0,299.25605,2487.3273,0.0,0.0,0.0,-0.09601634828896903,0.0,0.0,-0.14758565259056985,-0.26104161702780176,-0.3474581311514477,-0.8947303573930111,-0.1969900860014078,-0.061079316885309244
9469,8.0,299.90605,2620.4948,0.0,0.0,0.0,-0.09602648943264128,0.0,0.0,-0.18728185308327983,-0.2762017434339898,-0.3330813990600747,-0.8606071337753112,-0.1840715018639428,-0.06995249290577353
9470,8.0,299.93191,2611.9594,0.0,0.0,0.0,-0.09603663057631355,0.0,0.0,-0.17389612011971084,-0.2974746658384637,-0.32259965101560667,-0.8768797175987901,-0.24483723506855376,-0.054897669529478145
9471,8.0,299.72495,2315.2718,0.0,0.0,0.0,-0.09604677171998581,0.0,0.0,-0.16456266814857085,-0.2579061044608507,-0.28131605238623275,-0.8902284162712042,-0.24399826398575378,-0.08328057497840283
9472,8.0,299.29307,2207.093,0.0,0.0,0.0,-0.09605691286365807,0.0,0.0,-0.12393078185101587,-0.28460445426077274,-0.26236591464349973,-0.8837407481334211,-0.2253921651819748,-0.08083665322745652
9473,8.0,300.34951,2362.6679,0.0,0.0,0.0,-0.09606705400733033,0.0,0.0,-0.16370737360665985,-0.26930915015874374,-0.28517550175213074,-0.8777511329497922,-0.19358563659291483,-0.08971788357296571
9474,8.0,299.89615,2330.5815,0.0,0.0,0.0,-0.09607719515100259,0.0,0.0,-0.09376326939846422,-0.2848868774611457,-0.3297884274275837,-0.8860344423847911,-0.2196703519997758,-0.08525430713969502
9475,8.0,300.14725,2228.8896,0.0,0.0,0.0,-0.09608733629467485,0.0,0.0,-0.10277404883550889,-0.28513384704051975,-0.2896188972831597,-0.8908759033501062,-0.2141757905500048,-0.1020457955911359
9476,8.0,299.55197999999996,2564.7365,0.0,0.0,0.0,-0.09609747743834712,0.0,0.0,-0.1863948235482368,-0.2651835909190828,-0.3280374400622747,-0.8999568432638252,-0.2105622164533728,-0.06850434573035252
9477,8.0,300.5027,2804.3486,0.0,0.0,0.0,-0.09610761858201937,0.0,0.0,-0.22290182948369777,-0.3068625394724747,-0.32268759099178573,-0.8893244451944892,-0.2165942665511898,-0.03241906157926227
9478,8.0,300.45406,2714.759,0.0,0.0,0.0,-0.09611775972569164,0.0,0.0,-0.19468098021601682,-0.32111582730416466,-0.3094221409475877,-0.8927893045739442,-0.2692096084689198,-0.07791311663442592
9479,8.0,299.55162,2734.5014,0.0,0.0,0.0,-0.09612790086936389,0.0,0.0,-0.2035969934109588,-0.28273968904173474,-0.3448834626473477,-0.8935196856435272,-0.23809600109324577,-0.05045260010928395
9480,8.0,299.69086,2651.2104,0.0,0.0,0.0,-0.09613804201303616,0.0,0.0,-0.15150789306516485,-0.3136494710272927,-0.34074441704885566,-0.8530605888855253,-0.2225674974807018,-0.09029884166355182
9481,8.0,300.87916,2308.9412,0.0,0.0,0.0,-0.09614818315670842,0.0,0.0,-0.14425568719692786,-0.25609239691435176,-0.3015123864269557,-0.8677646007591983,-0.19121241234119582,-0.06499199430546045
9482,8.0,300.54942,2138.8313,0.0,0.0,0.0,-0.09615832430038068,0.0,0.0,-0.13824394263111486,-0.2372704657067718,-0.2746368799795497,-0.8973001217666271,-0.2309469744826918,-0.06728574732533624
9483,8.0,299.16454,2182.472,0.0,0.0,0.0,-0.09616846544405294,0.0,0.0,-0.14347077300696287,-0.26923433177135975,-0.25071189702833774,-0.9225662729477021,-0.2130192060908588,-0.061123157177385944
9484,8.0,299.18361,2198.3502,0.0,0.0,0.0,-0.0961786065877252,0.0,0.0,-0.15365437220950584,-0.2328755643255288,-0.28171365172547275,-0.905090414100469,-0.21636559626862178,-0.06282483776632873
9485,8.0,299.42942999999997,2462.4265,0.0,0.0,0.0,-0.09618874773139746,0.0,0.0,-0.16423162920839984,-0.28128996119615773,-0.3029945889382377,-0.9208553900213512,-0.2023476459051578,-0.08007785353231883
9486,8.0,299.63865,2810.6021,0.0,0.0,0.0,-0.09619888887506974,0.0,0.0,-0.15668593544869786,-0.3245581317363937,-0.37310880061297164,-0.8806490079707903,-0.24116287609842274,-0.07392333290816493
9487,8.0,299.71276,2816.8453,0.0,0.0,0.0,-0.09620903001874198,0.0,0.0,-0.2009087193056468,-0.2868670214690707,-0.36847489379814063,-0.9102686388690201,-0.2200241586696938,-0.057204158089860846
9488,8.0,300.51675,2521.1499,0.0,0.0,0.0,-0.09621917116241425,0.0,0.0,-0.16619010992918684,-0.2961073557560207,-0.3040691710667907,-0.8723563259723661,-0.22586168501331277,-0.07395220040351393
9489,8.0,299.53843,2498.313,0.0,0.0,0.0,-0.0962293123060865,0.0,0.0,-0.19601935187560382,-0.25755885351907976,-0.30584654346470375,-0.9037721757203692,-0.22649638487595278,-0.05076117732123816
9490,8.0,301.06189,2414.2979,0.0,0.0,0.0,-0.09623945344975877,0.0,0.0,-0.17386810375444584,-0.26710739822144774,-0.2929107746055427,-0.8549973252591662,-0.2592434223403337,-0.06277099162951454
9491,8.0,301.08054,2185.1164,0.0,0.0,0.0,-0.09624959459343103,0.0,0.0,-0.12254235563648888,-0.2789773900954247,-0.26270107751157773,-0.8872880050110081,-0.2249684341226558,-0.08011091081683133
9492,8.0,299.40976,2271.5369,0.0,0.0,0.0,-0.0962597357371033,0.0,0.0,-0.09611356380042022,-0.2638067765507018,-0.3305701397472327,-0.8548604554356581,-0.2188450800583278,-0.08870950923244691
9493,8.0,298.32338,2343.217,0.0,0.0,0.0,-0.09626987688077555,0.0,0.0,-0.12973348278869787,-0.26913244947380477,-0.3134135256090067,-0.8955948826433331,-0.18198047789757482,-0.061992977672730536
9494,8.0,298.47913,2319.7282,0.0,0.0,0.0,-0.09628001802444781,0.0,0.0,-0.12260617012778689,-0.27790274717186575,-0.30463053188719275,-0.9093254144834311,-0.2342567761993438,-0.08225827351525952
9495,8.0,299.2743,2696.9324,0.0,0.0,0.0,-0.09629015916812007,0.0,0.0,-0.21642516524200078,-0.27246900099309673,-0.3309059308303727,-0.9038491928604702,-0.20206791795005083,-0.028200974366969476
9496,8.0,300.56751,2964.8357,0.0,0.0,0.0,-0.09630030031179235,0.0,0.0,-0.2258674098763778,-0.32523639122083264,-0.35013222988786064,-0.8814657584788973,-0.2093715969233678,-0.07102854019397113
9497,8.0,300.15542999999997,2649.1289,0.0,0.0,0.0,-0.0963104414554646,0.0,0.0,-0.1925552726987258,-0.2737197771815387,-0.33899397683860066,-0.8893156197861182,-0.1967313627208738,-0.04655679634304805
9498,8.0,299.18352999999996,2508.0325,0.0,0.0,0.0,-0.09632058259913687,0.0,0.0,-0.14400422891961087,-0.28651982118980474,-0.3318551941865577,-0.8972247967541932,-0.24528968163570677,-0.08452685132315071
9499,8.0,300.15167,2824.4143,0.0,0.0,0.0,-0.09633072374280911,0.0,0.0,-0.23989969772875677,-0.28416380192478374,-0.3344879421863897,-0.8901591910243721,-0.2108673060584828,-0.048776522323867956
9500,8.0,300.01277999999996,2516.8046,0.0,0.0,0.0,-0.09634086488648139,0.0,0.0,-0.16769038882225284,-0.2621870658683487,-0.3351682990985357,-0.8844724666931362,-0.2286538780488808,-0.07879921093962662
9501,8.0,300.21213,2099.1339,0.0,0.0,0.0,-0.09635100603015366,0.0,0.0,-0.13018764174851985,-0.26887926867131773,-0.23901737980667875,-0.8806737819357351,-0.1970241413372688,-0.06275884073431535
9502,8.0,299.24008,2230.9676,0.0,0.0,0.0,-0.0963611471738259,0.0,0.0,-0.13270214346168188,-0.2563865028883777,-0.2890697866564667,-0.8920938502353081,-0.2652670219323167,-0.07359672288418102
9503,8.0,299.90797000000003,2481.2202,0.0,0.0,0.0,-0.09637128831749817,0.0,0.0,-0.15941577307311186,-0.2926386358936847,-0.30217458589730967,-0.8790253354805462,-0.22647209727105577,-0.08192798235366232
9504,8.0,300.70313,2481.9483,0.0,0.0,0.0,-0.09638142946117043,0.0,0.0,-0.13819894419417386,-0.3179524503594637,-0.2982989042648097,-0.8651265635938442,-0.22521070222156578,-0.1060786019166429
9505,8.0,300.56264,2557.7897,0.0,0.0,0.0,-0.09639157060484269,0.0,0.0,-0.16095501143252286,-0.26320632454144177,-0.35334287494972666,-0.8960367812769452,-0.1934575313827718,-0.05558772729808155
9506,8.0,298.97137000000004,2500.9506,0.0,0.0,0.0,-0.09640171174851496,0.0,0.0,-0.16185334883868183,-0.2924513264801987,-0.3059218380796347,-0.9009041814448201,-0.22878063563639076,-0.06152257226080514
9507,8.0,299.37781,2547.5581,0.0,0.0,0.0,-0.0964118528921872,0.0,0.0,-0.17827334028670883,-0.27039331763324276,-0.3257274020867917,-0.9319711894483951,-0.18717980866570882,-0.04358850651960066
9508,8.0,299.0228,2752.4965,0.0,0.0,0.0,-0.09642199403585948,0.0,0.0,-0.19739411947878283,-0.29967543492316273,-0.3396206618929497,-0.8837931128985892,-0.22157275946002877,-0.07304703369168093
9509,8.0,299.68552,2614.3695,0.0,0.0,0.0,-0.09643213517953172,0.0,0.0,-0.18366479340630382,-0.2923523623429317,-0.3186858914443487,-0.9000865494091262,-0.21194747119508678,-0.07733890172325533
9510,8.0,300.0068,2198.0373,0.0,0.0,0.0,-0.096442276323204,0.0,0.0,-0.13731181333412087,-0.2541837073034788,-0.2766529437035198,-0.8864065382190142,-0.2539524431006548,-0.10399842985884591
9511,8.0,300.30585,2167.8113,0.0,0.0,0.0,-0.09645241746687627,0.0,0.0,-0.13225878574792588,-0.26503652779956877,-0.26166518127184274,-0.9077383405867991,-0.2325658745649648,-0.08837783498446322
9512,8.0,299.99375,2615.5321,0.0,0.0,0.0,-0.09646255861054852,0.0,0.0,-0.16402328472283784,-0.3047638553353507,-0.3262693085052737,-0.9011080169674371,-0.21674382226594976,-0.08877010868117761
9513,8.0,300.9868,2493.8081,0.0,0.0,0.0,-0.09647269975422079,0.0,0.0,-0.17034641117688185,-0.25146653530531476,-0.3362424353970447,-0.8962838623138301,-0.2072765604866038,-0.029537158419590575
9514,8.0,300.40357,2298.9547,0.0,0.0,0.0,-0.09648284089789304,0.0,0.0,-0.1273412195675999,-0.2736287569250557,-0.2978548372759837,-0.8554849923997953,-0.25176883847264975,-0.06454923440926344
9515,8.0,300.03064,2619.6239,0.0,0.0,0.0,-0.09649298204156531,0.0,0.0,-0.1994970086038218,-0.25968270678868777,-0.3371205179337047,-0.8839456779661462,-0.23056330733232677,-0.03033371890620497
9516,8.0,299.79508,2807.9753,0.0,0.0,0.0,-0.09650312318523757,0.0,0.0,-0.21877462877887477,-0.2996115393718567,-0.3351682180385277,-0.8619767236704793,-0.2282354969500898,-0.07776990893154243
9517,8.0,299.86385,2797.5988,0.0,0.0,0.0,-0.09651326432890983,0.0,0.0,-0.22552828520040877,-0.29889194941583874,-0.3259799546742167,-0.8955209153860332,-0.2146948481787318,-0.04195732888586596
9518,8.0,299.46842999999996,2738.1164,0.0,0.0,0.0,-0.09652340547258209,0.0,0.0,-0.1998306617292508,-0.26075383373439975,-0.37173452950234165,-0.9068918005257521,-0.2318387156306998,-0.06020336217385924
9519,8.0,300.21173,2320.3068,0.0,0.0,0.0,-0.09653354661625435,0.0,0.0,-0.15926775749850386,-0.26098280799199775,-0.2850647636487017,-0.8949914111487751,-0.2024246427802568,-0.05931089756527985
9520,8.0,299.22798,2048.5244,0.0,0.0,0.0,-0.09654368775992661,0.0,0.0,-0.1016345072430449,-0.23434305444535877,-0.28672270425732777,-0.906995202698457,-0.1929978198124018,-0.10418105805686989
9521,8.0,299.00796,2358.3177,0.0,0.0,0.0,-0.09655382890359888,0.0,0.0,-0.16372639231103683,-0.25993395228348376,-0.29320934901250967,-0.8817919135535862,-0.1980314740566848,-0.09004726888897352
9522,8.0,299.5722,2434.0669,0.0,0.0,0.0,-0.09656397004727113,0.0,0.0,-0.15337627558705988,-0.2892226658315547,-0.2972966377958937,-0.8719398295187613,-0.23826060357199075,-0.11015903099684989
9523,8.0,299.87262000000004,2207.4193,0.0,0.0,0.0,-0.0965741111909434,0.0,0.0,-0.13702139559045887,-0.25925581438905676,-0.27472314809306375,-0.8848613926115201,-0.2269844269191188,-0.090406987873225
9524,8.0,299.73032,2277.0268,0.0,0.0,0.0,-0.09658425233461565,0.0,0.0,-0.11579035081261789,-0.2928015259797607,-0.28356740291592375,-0.8848954682123832,-0.2319024693269918,-0.08926876654564131
9525,8.0,299.93541,2490.9217,0.0,0.0,0.0,-0.09659439347828792,0.0,0.0,-0.16235305339049885,-0.2772147402214647,-0.3176101947406857,-0.9039909972119651,-0.23137565020249876,-0.035206060694817666
9526,8.0,299.84834,2599.1081,0.0,0.0,0.0,-0.09660453462196018,0.0,0.0,-0.15548236658241485,-0.26353303690368574,-0.3710485490521407,-0.8855097510855082,-0.23744019523102278,-0.032311670240913574
9527,8.0,300.88214,2677.6429,0.0,0.0,0.0,-0.09661467576563244,0.0,0.0,-0.18453854936503683,-0.29362377843591075,-0.3357742631883397,-0.8646195129788022,-0.22280403058404577,-0.06217137960458744
9528,8.0,299.62957,2638.8746,0.0,0.0,0.0,-0.0966248169093047,0.0,0.0,-0.18987581386928382,-0.27393282314756473,-0.3383433486843887,-0.8815703765517222,-0.2072777054592168,-0.07396726337950052
9529,8.0,299.64086000000003,2505.3073,0.0,0.0,0.0,-0.09663495805297696,0.0,0.0,-0.18046370329288083,-0.28218430639692277,-0.29890283172191273,-0.8916878307877373,-0.24308717989333678,-0.07609823675756122
9530,8.0,299.66848999999996,2509.0871,0.0,0.0,0.0,-0.09664509919664922,0.0,0.0,-0.18265688313433082,-0.2830643445062757,-0.29697860898700673,-0.924697107510499,-0.24567386554362275,-0.08285944594534063
9531,8.0,300.4764,2645.405,0.0,0.0,0.0,-0.09665524034032148,0.0,0.0,-0.18484906999068282,-0.27137890600551273,-0.3479090983734547,-0.895809316761996,-0.2229133400048338,-0.04938214089538786
9532,8.0,299.48203,2466.8853,0.0,0.0,0.0,-0.09666538148399374,0.0,0.0,-0.14895362128557788,-0.27639319704038473,-0.3245247248805967,-0.8744405611630642,-0.18660591394156983,-0.07151109143484523
9533,8.0,300.58939,2289.9967,0.0,0.0,0.0,-0.096675522627666,0.0,0.0,-0.13878882800489087,-0.25545075628852676,-0.3018622414214837,-0.8945997494551211,-0.20316092096542182,-0.04350816997217206
9534,8.0,298.91727000000003,2498.1458,0.0,0.0,0.0,-0.09668566377133826,0.0,0.0,-0.18233936095049383,-0.2627578904446847,-0.3142766829716937,-0.8908858635985892,-0.23588002312454578,-0.052897676965344254
9535,8.0,299.94279,2779.6318,0.0,0.0,0.0,-0.09669580491501054,0.0,0.0,-0.1844226335535968,-0.32015961305229373,-0.3403564030555617,-0.8801675419207732,-0.24063165946849577,-0.07420091581281023
9536,8.0,299.25469,2656.8583,0.0,0.0,0.0,-0.09670594605868278,0.0,0.0,-0.19366953370119483,-0.28153954496078976,-0.3324095027862637,-0.8770773317657932,-0.2100119608540668,-0.06712480977220293
9537,8.0,299.67042999999995,2496.026,0.0,0.0,0.0,-0.09671608720235506,0.0,0.0,-0.14572064419150785,-0.2868839731432437,-0.32612497102852867,-0.8718251397399422,-0.24271827579692876,-0.07846785586542443
9538,8.0,298.79667,2437.2054,0.0,0.0,0.0,-0.0967262283460273,0.0,0.0,-0.15645853172875487,-0.26355409224076376,-0.32083695047914174,-0.9146183796933062,-0.2185185095510978,-0.038137818799159666
9539,8.0,300.13825,2303.2521,0.0,0.0,0.0,-0.09673636948969958,0.0,0.0,-0.14333280887334687,-0.24098894158625678,-0.3158093656029577,-0.8862492716709931,-0.21659101401836878,-0.09088906896605273
9540,8.0,299.709,2456.908,0.0,0.0,0.0,-0.09674651063337182,0.0,0.0,-0.15096811447189284,-0.30341863410508774,-0.29245193443025874,-0.8941360659443591,-0.17964257554434182,-0.10425098244627089
9541,8.0,300.9079,2293.5243,0.0,0.0,0.0,-0.0967566517770441,0.0,0.0,-0.14896727989692587,-0.25407951479569574,-0.2941273130731057,-0.8898779026641112,-0.2242065612399648,-0.1048205404599819
9542,8.0,301.34848999999997,2192.7861,0.0,0.0,0.0,-0.09676679292071634,0.0,0.0,-0.13776501983884887,-0.2655047405382778,-0.26328247028645674,-0.9170230045656241,-0.25962840671582876,-0.05397107561778045
9543,8.0,300.67716,2493.1971,0.0,0.0,0.0,-0.09677693406438861,0.0,0.0,-0.16076634426390285,-0.2947439264214607,-0.3023593824505477,-0.8868985420700711,-0.2395843135026308,-0.08662070124404761
9544,8.0,299.12045,2778.3001,0.0,0.0,0.0,-0.09678707520806087,0.0,0.0,-0.20728167739960882,-0.26360743985852875,-0.37364473898836464,-0.8860388601552273,-0.19337160777429183,-0.042690834818757364
9545,8.0,299.80733,2648.5819,0.0,0.0,0.0,-0.09679721635173313,0.0,0.0,-0.17636314093318683,-0.3232501575798067,-0.3054894639969627,-0.8516148127153382,-0.2087502719620478,-0.07256405992551514
9546,8.0,299.98787000000004,2561.7117,0.0,0.0,0.0,-0.0968073574954054,0.0,0.0,-0.16792442933035084,-0.27159946015477976,-0.3391724912412187,-0.9225291373315371,-0.2191319919566438,-0.07287115069957263
9547,8.0,299.18338,2587.1584,0.0,0.0,0.0,-0.09681749863907765,0.0,0.0,-0.19217399681859682,-0.27963654981547875,-0.31462099548817474,-0.8760503521269382,-0.2204439785836268,-0.08480131240423792
9548,8.0,298.95957999999996,2536.6261,0.0,0.0,0.0,-0.09682763978274991,0.0,0.0,-0.17755583762589683,-0.2852415149961457,-0.30827364222423975,-0.8769916513373371,-0.18357026730447482,-0.07788391172679363
9549,8.0,299.60797,2414.7132,0.0,0.0,0.0,-0.09683778092642217,0.0,0.0,-0.16447898382281184,-0.2445769919128698,-0.3249565416757137,-0.8728465059732431,-0.23239663140076178,-0.06111884174521004
9550,8.0,298.2925,2238.4873,0.0,0.0,0.0,-0.09684792207009443,0.0,0.0,-0.15288966222653486,-0.23075885446912578,-0.2967957376089587,-0.882290635252806,-0.24392853211387178,-0.05119442786524665
9551,8.0,299.4756,2416.0072,0.0,0.0,0.0,-0.0968580632137667,0.0,0.0,-0.16273154283285285,-0.24976926032780675,-0.3219050376745537,-0.8789957891076302,-0.24530973385518576,-0.07521013925691283
9552,8.0,298.77095,2641.8524,0.0,0.0,0.0,-0.09686820435743895,0.0,0.0,-0.17104230121306083,-0.27360617158032674,-0.35840867961968265,-0.8627954905462851,-0.2042111546940718,-0.07320606126837573
9553,8.0,299.27657999999997,2721.4809,0.0,0.0,0.0,-0.09687834550111123,0.0,0.0,-0.17275108671170483,-0.34348301928663466,-0.3110281119585847,-0.884030598457027,-0.23897607973260276,-0.08541875560442483
9554,8.0,300.1247,2607.2134,0.0,0.0,0.0,-0.09688848664478347,0.0,0.0,-0.16448969387636883,-0.27343010924295075,-0.35460797849458264,-0.9060502659201992,-0.23621105193221575,-0.026617820734974373
9555,8.0,300.15841,2249.2773,0.0,0.0,0.0,-0.09689862778845575,0.0,0.0,-0.13588383996819087,-0.26696691109508275,-0.2808733735500437,-0.8739607467107101,-0.21867988989452478,-0.07223219214676234
9556,8.0,299.11884,2251.5962,0.0,0.0,0.0,-0.096908768932128,0.0,0.0,-0.13992691051721087,-0.27831248524730373,-0.26618961654586976,-0.8878401959180052,-0.18324320030469582,-0.061854683219581943
9557,8.0,299.99075,2621.2036,0.0,0.0,0.0,-0.09691891007580027,0.0,0.0,-0.1921491417936438,-0.26346693246716174,-0.34116437881780265,-0.8798801639274112,-0.21980186173025482,-0.06658164489709674
9558,8.0,299.49665,2588.2142,0.0,0.0,0.0,-0.09692905121947253,0.0,0.0,-0.17352737814331884,-0.29154077941033474,-0.32168435180277366,-0.9169044441714231,-0.21670318080443882,-0.08203897174311611
9559,8.0,299.68507999999997,2438.761,0.0,0.0,0.0,-0.09693919236314479,0.0,0.0,-0.16429880769002983,-0.27389601177143175,-0.3031276185438667,-0.874020974296654,-0.19880864701588583,-0.09702199317757522
9560,8.0,300.83837,2639.4123,0.0,0.0,0.0,-0.09694933350681705,0.0,0.0,-0.17636651505601983,-0.2612342662693148,-0.36471465174953366,-0.8791681733471433,-0.19387627725159884,-0.07706098951232752
9561,8.0,300.1085,2631.4043,0.0,0.0,0.0,-0.09695947465048932,0.0,0.0,-0.15600529482652384,-0.3129746869906967,-0.33090121921740767,-0.8856177331486651,-0.24562397310869877,-0.05637628310890594
9562,8.0,300.81188,2522.0695,0.0,0.0,0.0,-0.09696961579416156,0.0,0.0,-0.16394363313247684,-0.25675374525462175,-0.34594877353748565,-0.907140675015314,-0.2740232658514907,-0.030411563871637674
9563,8.0,300.56026,2579.811,0.0,0.0,0.0,-0.09697975693783384,0.0,0.0,-0.15510641026531086,-0.3083901457207377,-0.3207015701332807,-0.8890588014157722,-0.25540484592649576,-0.06499225977698664
9564,8.0,298.87669,2390.8404,0.0,0.0,0.0,-0.09698989808150608,0.0,0.0,-0.15888993680121585,-0.27327513264015574,-0.29459069260883775,-0.88775543754714,-0.18723850624400182,-0.05853937752838674
9565,8.0,300.14027999999996,2228.8795,0.0,0.0,0.0,-0.09700003922517836,0.0,0.0,-0.14136922137205588,-0.25163053996650075,-0.2845239414078268,-0.9051732574286452,-0.2262154511532268,-0.07711317695872802
9566,8.0,299.58416,2512.9120000000003,0.0,0.0,0.0,-0.09701018036885062,0.0,0.0,-0.15629018022463984,-0.2941009584380047,-0.3134713619247147,-0.9088853396999992,-0.19370456175715184,-0.051464442804895046
9567,8.0,299.19685,2685.2159,0.0,0.0,0.0,-0.09702032151252288,0.0,0.0,-0.21223201208816878,-0.26942743697541777,-0.3345791245628887,-0.8901618254746321,-0.22335977799889378,-0.07816459315024472
9568,8.0,299.40676,2450.6831,0.0,0.0,0.0,-0.09703046265619514,0.0,0.0,-0.17812351099442184,-0.2634587555388547,-0.30336421244221673,-0.8625500307095602,-0.2168920202255758,-0.046590884102912254
9569,8.0,299.67284,2298.3744,0.0,0.0,0.0,-0.0970406037998674,0.0,0.0,-0.15617264321303984,-0.2583678526639217,-0.2841079211817687,-0.8896112253702921,-0.26347567681552475,-0.08545824094757172
9570,8.0,300.07322999999997,2760.9990000000003,0.0,0.0,0.0,-0.09705074494353966,0.0,0.0,-0.2072004755365948,-0.27612315575623375,-0.3559511326946416,-0.9085649702833811,-0.2425132446391938,-0.040777238037650064
9571,8.0,300.47175,2799.5640000000003,0.0,0.0,0.0,-0.09706088608721193,0.0,0.0,-0.18248916997777884,-0.34241606693133464,-0.3260923139778057,-0.9041769387378161,-0.21370465965100782,-0.1144553735408659
9572,8.0,299.83996,2335.1157,0.0,0.0,0.0,-0.09707102723088418,0.0,0.0,-0.13287245053848987,-0.27151344535379074,-0.3054309690686897,-0.9126021133193161,-0.18409340833110482,-0.08419648416779602
9573,8.0,300.96047000000004,2268.9749,0.0,0.0,0.0,-0.09708116837455645,0.0,0.0,-0.14757705009722086,-0.26746658524939676,-0.27466807795012876,-0.8805366790647041,-0.2128071733749328,-0.08126208756019362
9574,8.0,300.89955,2322.7118,0.0,0.0,0.0,-0.0970913095182287,0.0,0.0,-0.1131778982122889,-0.2955733830858217,-0.2972950976557417,-0.9047373471031241,-0.2314620905685298,-0.04707084446328066
9575,8.0,300.65182999999996,2493.083,0.0,0.0,0.0,-0.09710145066190097,0.0,0.0,-0.17170421697338684,-0.2949345187652707,-0.29119624397883176,-0.8637130189093382,-0.23470878706895376,-0.07273757089913933
9576,8.0,301.0619,2781.3147,0.0,0.0,0.0,-0.09711159180557324,0.0,0.0,-0.1893367141535788,-0.3101400083784357,-0.34597348670742467,-0.8789294921535872,-0.22170748119332478,-0.08304379768178473
9577,8.0,300.55084,2501.8075,0.0,0.0,0.0,-0.09712173294924549,0.0,0.0,-0.17130435808642383,-0.26745449717570374,-0.3217281444720957,-0.8729869627021052,-0.22798819299818276,-0.08721546486724623
9578,8.0,301.09893,2290.5948,0.0,0.0,0.0,-0.09713187409291776,0.0,0.0,-0.14073600085456187,-0.24372611514139478,-0.3118214969193857,-0.8945926567044211,-0.2094790419639718,-0.08654428800100623
9579,8.0,300.0784,2703.2493,0.0,0.0,0.0,-0.09714201523659001,0.0,0.0,-0.1975032971770578,-0.3071517919785217,-0.3170651877768977,-0.8824575479417791,-0.2030021446747518,-0.06171440482273754
9580,8.0,300.1849,2904.9092,0.0,0.0,0.0,-0.09715215638026228,0.0,0.0,-0.21255364806741178,-0.28878945075129975,-0.38167677253106463,-0.9083893740410511,-0.2149349985849328,-0.05547182668539304
9581,8.0,300.07617,2486.1831,0.0,0.0,0.0,-0.09716229752393454,0.0,0.0,-0.18055905012729084,-0.2718483245118407,-0.3033302280338627,-0.9096055173410751,-0.24946148560993175,-0.04071343570535326
9582,8.0,300.11916,2183.8143,0.0,0.0,0.0,-0.09717243866760679,0.0,0.0,-0.12607138414477687,-0.24491109086834276,-0.2928425524763097,-0.9161400888259871,-0.24703068848753076,-0.06316195418059954
9583,8.0,300.12736,2320.1721,0.0,0.0,0.0,-0.09718257981127906,0.0,0.0,-0.14368325155293288,-0.25391278449174076,-0.3076783273929867,-0.8724472854338432,-0.21897885946903078,-0.09128827734645151
9584,8.0,300.48044,2573.8289999999997,0.0,0.0,0.0,-0.09719272095495131,0.0,0.0,-0.16979988433794385,-0.3062158021986467,-0.30636407108577973,-0.8940320456890932,-0.20825767029343178,-0.08254803061985633
9585,8.0,299.42984,2615.1476,0.0,0.0,0.0,-0.09720286209862358,0.0,0.0,-0.18589045804595983,-0.28370857905235675,-0.3253405330661107,-0.9045717313742792,-0.22639512066095877,-0.07533372739811002
9586,8.0,298.79275,2450.1265,0.0,0.0,0.0,-0.09721300324229586,0.0,0.0,-0.16136100048259083,-0.27035313213427675,-0.31306313359192567,-0.9032928374955621,-0.24495170193235075,-0.046330364329950954
9587,8.0,298.35847,2124.9457,0.0,0.0,0.0,-0.0972231443859681,0.0,0.0,-0.10756948798128191,-0.26920485632595076,-0.2691560784661367,-0.8779352202279601,-0.2037812124116398,-0.08084626086490472
9588,8.0,299.30849,2299.822,0.0,0.0,0.0,-0.09723328552964038,0.0,0.0,-0.14113334688127688,-0.24360423128686576,-0.31435088327651667,-0.8849273247955272,-0.22462640141889978,-0.07057331934804434
9589,8.0,299.93391,2755.9857,0.0,0.0,0.0,-0.09724342667331262,0.0,0.0,-0.17369970158782583,-0.3198801080122087,-0.34417102623703566,-0.9082288549602092,-0.23040013353622277,-0.1032854564259809
9590,8.0,299.93802,2660.7151,0.0,0.0,0.0,-0.0972535678169849,0.0,0.0,-0.2068242152444608,-0.25913701081483176,-0.3428297262846597,-0.8990298308798362,-0.2019059093915618,-0.05922093311540104
9591,8.0,299.11924,2270.4689,0.0,0.0,0.0,-0.09726370896065716,0.0,0.0,-0.13700626776646588,-0.24947590415885476,-0.30368368006624574,-0.8806215894230841,-0.1972437227664398,-0.08725436049883492
9592,8.0,300.55057,2392.9279,0.0,0.0,0.0,-0.09727385010432942,0.0,0.0,-0.17279177883572083,-0.25970524147091173,-0.2948933098837037,-0.8838443326911442,-0.19257019787269883,-0.08405892533422002
9593,8.0,300.42864,2778.5972,0.0,0.0,0.0,-0.09728399124800167,0.0,0.0,-0.1984993726878628,-0.2820811170067387,-0.3640436674008126,-0.931032372700741,-0.24388426321700277,-0.04187530426377076
9594,8.0,300.04786,2668.8366,0.0,0.0,0.0,-0.09729413239167393,0.0,0.0,-0.19777357150873182,-0.28500651190045273,-0.32847959200841165,-0.8914345790577431,-0.25290530991731075,-0.07077910740360403
9595,8.0,299.46457999999996,2471.8478,0.0,0.0,0.0,-0.0973042735353462,0.0,0.0,-0.14511033325877487,-0.2726727047932007,-0.33359696097595665,-0.8981954295549871,-0.21889551964830578,-0.08054637328580813
9596,8.0,299.85436,2404.9485,0.0,0.0,0.0,-0.09731441467901847,0.0,0.0,-0.14663893249213586,-0.27663164518641775,-0.30777371475740073,-0.8789606597266632,-0.23792078988595378,-0.07593330699903393
9597,8.0,299.57182,2365.999,0.0,0.0,0.0,-0.09732455582269071,0.0,0.0,-0.13292430867860786,-0.2975281350462407,-0.2887521834126217,-0.9135594725438002,-0.22267268297358278,-0.07002554317173303
9598,8.0,299.63495,2577.6741,0.0,0.0,0.0,-0.09733469696636299,0.0,0.0,-0.20462886704779681,-0.27424771088114175,-0.3046719738162827,-0.9074299680513651,-0.2134673159475838,-0.06485848948553453
9599,8.0,299.12557000000004,2616.7788,0.0,0.0,0.0,-0.09734483811003523,0.0,0.0,-0.20920819007974079,-0.27990865812983373,-0.30631857615628977,-0.8768644884497873,-0.18575914083299983,-0.06646486478332143
9600,8.0,299.15259,2247.8633,0.0,0.0,0.0,-0.09735497925370751,0.0,0.0,-0.13740361379318086,-0.2665182946133078,-0.27937240564690974,-0.8893761209495892,-0.23147022696683278,-0.07475314218356073
9601,8.0,299.30429,2168.198,0.0,0.0,0.0,-0.09736512039737977,0.0,0.0,-0.12613259458331788,-0.23656555774470278,-0.2963798896354177,-0.9135207157274752,-0.23162421058452978,-0.07703668366892873
9602,8.0,299.98291,2613.3884,0.0,0.0,0.0,-0.09737526154105203,0.0,0.0,-0.17181661680697982,-0.2896222511409907,-0.3329659493436807,-0.9021099794613232,-0.24936396028780675,-0.07401556095876713
9603,8.0,300.05489,2679.798,0.0,0.0,0.0,-0.09738540268472429,0.0,0.0,-0.18403157981000282,-0.27303969384691973,-0.35752039365451566,-0.9154864411864772,-0.18363027197539683,-0.0898363922914116
9604,8.0,300.27179,2324.1357,0.0,0.0,0.0,-0.09739554382839655,0.0,0.0,-0.16600216216813785,-0.2572195869880967,-0.28325748010783675,-0.8917234262637501,-0.2109944182835278,-0.07844349935952064
9605,8.0,300.27886,2152.7827,0.0,0.0,0.0,-0.0974056849720688,0.0,0.0,-0.1217534289761279,-0.2806568724011767,-0.25198188443867575,-0.9349436903392582,-0.22036145949548278,-0.09385499487701682
9606,8.0,300.32353,2461.6878,0.0,0.0,0.0,-0.09741582611574108,0.0,0.0,-0.17422999616016183,-0.25547758715117475,-0.3185840598092987,-0.892070454290499,-0.23988561355236676,-0.056507549659360945
9607,8.0,299.91548,2739.2059999999997,0.0,0.0,0.0,-0.09742596725941333,0.0,0.0,-0.18650437614904883,-0.3118003301247967,-0.33434550961983267,-0.8884168770799191,-0.21284801748646381,-0.08834697442616751
9608,8.0,300.26329,2574.4959,0.0,0.0,0.0,-0.0974361084030856,0.0,0.0,-0.16317966282207885,-0.28774376651559874,-0.3316590593647007,-0.8677045251607691,-0.22046294662549878,-0.07141343033720683
9609,8.0,299.50799,2266.0069,0.0,0.0,0.0,-0.09744624954675785,0.0,0.0,-0.13876516861505586,-0.24321439344339177,-0.3068299533492587,-0.9055064241940262,-0.22001027714332377,-0.06271475422246435
9610,8.0,299.26815,2291.6329,0.0,0.0,0.0,-0.09745639069043012,0.0,0.0,-0.16871271764314885,-0.25246704885155774,-0.27541941303177975,-0.8762584939624802,-0.2277314962178488,-0.05049376846084695
9611,8.0,299.51232000000005,2755.6546,0.0,0.0,0.0,-0.09746653183410238,0.0,0.0,-0.2094446015930728,-0.28396694769535574,-0.34423864041620866,-0.9039151250444771,-0.17480873421977886,-0.06576043102229923
9612,8.0,300.06262000000004,3006.4711,0.0,0.0,0.0,-0.09747667297777464,0.0,0.0,-0.23922303917947577,-0.3125228281086017,-0.36214628566105567,-0.878089224110659,-0.22500674510893678,-0.06583566382897414
9613,8.0,299.8311,2564.2448,0.0,0.0,0.0,-0.0974868141214469,0.0,0.0,-0.16350645624433083,-0.2883124733992257,-0.3276474806287887,-0.8946264283302541,-0.2312353353286508,-0.07437694977918344
9614,8.0,298.56948,2284.4629999999997,0.0,0.0,0.0,-0.09749695526511916,0.0,0.0,-0.09245080755718431,-0.28028117952909876,-0.3216877360581077,-0.8953450759636792,-0.27152091300702774,-0.07028298266439034
9615,8.0,299.94154,2407.5136,0.0,0.0,0.0,-0.09750709640879142,0.0,0.0,-0.14622363167364885,-0.26232499960446176,-0.3232754077722987,-0.8869898359040811,-0.2126756839094558,-0.06715157578684454
9616,8.0,300.42748,2642.2855,0.0,0.0,0.0,-0.09751723755246369,0.0,0.0,-0.1973744016318368,-0.30229927645461574,-0.3035151360446117,-0.9321820974567101,-0.2394754904418908,-0.05988962853214614
9617,8.0,300.56827000000004,2390.2778,0.0,0.0,0.0,-0.09752737869613594,0.0,0.0,-0.16235987256367185,-0.25626883415426477,-0.3079560693778977,-0.9180513723571161,-0.2179105493585968,-0.040388342516769066
9618,8.0,300.2131,2219.3714,0.0,0.0,0.0,-0.09753751983980821,0.0,0.0,-0.15210485949408087,-0.25695958701243676,-0.2655690211246217,-0.8967410711564531,-0.22692621570087376,-0.07820557607703942
9619,8.0,300.22556000000003,2492.522,0.0,0.0,0.0,-0.09754766098348046,0.0,0.0,-0.14184320963633484,-0.26847997720441075,-0.3473412730174147,-0.8755187403294722,-0.18816414060785483,-0.052614770444673546
9620,8.0,300.62157,2806.8927,0.0,0.0,0.0,-0.09755780212715273,0.0,0.0,-0.19159583631153682,-0.3163755798913387,-0.3452538866189057,-0.8775180752942913,-0.2240957319440268,-0.0930190331470138
9621,8.0,300.50097999999997,2979.9564,0.0,0.0,0.0,-0.097567943270825,0.0,0.0,-0.18349516520706283,-0.33592250167796966,-0.38641466920365863,-0.9239358527103692,-0.2330978308674648,-0.04685544471727236
9622,8.0,299.0901,2574.6786,0.0,0.0,0.0,-0.09757808441449725,0.0,0.0,-0.2090794161245318,-0.28307084957191775,-0.2904877288464067,-0.9083889586085101,-0.2599660013841467,-0.07805289752547123
9623,8.0,299.61027,2329.5151,0.0,0.0,0.0,-0.09758822555816953,0.0,0.0,-0.1312544015863009,-0.27674443005504873,-0.3001155806341017,-0.9195712677721182,-0.22950970961334477,-0.07357347082088622
9624,8.0,299.86876,2378.4315,0.0,0.0,0.0,-0.09759836670184177,0.0,0.0,-0.19389215488066583,-0.2652487732980157,-0.26384284825426174,-0.8872051718153332,-0.21170071439823382,-0.07619172529128783
9625,8.0,299.21561,2545.3864,0.0,0.0,0.0,-0.09760850784551403,0.0,0.0,-0.14706825669200688,-0.2814241965694057,-0.3452414641726797,-0.9172830349387872,-0.2164490678118598,-0.05852631369484744
9626,8.0,299.93306,2507.7039,0.0,0.0,0.0,-0.0976186489891863,0.0,0.0,-0.14279975826073887,-0.2917319797042047,-0.32774763026867265,-0.9093071658491301,-0.2290171282097308,-0.07296793128287413
9627,8.0,299.59364,2289.0023,0.0,0.0,0.0,-0.09762879013285855,0.0,0.0,-0.1179880700145159,-0.2546127579258228,-0.32319872500473074,-0.8885161553247171,-0.2156882791067758,-0.057094411958279745
9628,8.0,300.20805,2502.7467,0.0,0.0,0.0,-0.09763893127653082,0.0,0.0,-0.1893874577185868,-0.28088189498338473,-0.2905031505129287,-0.8876486713841032,-0.21278084913733478,-0.06997303857805123
9629,8.0,300.44929,2933.8225,0.0,0.0,0.0,-0.09764907242020307,0.0,0.0,-0.2252516577906078,-0.31281981171291173,-0.3537373129486546,-0.9144390952206121,-0.2072117834077108,-0.048156411236167755
9630,8.0,298.42331,2829.9529,0.0,0.0,0.0,-0.09765921356387534,0.0,0.0,-0.21878713228510882,-0.3230361996886907,-0.31841168570228673,-0.9131118997096281,-0.2194995889604228,-0.08147281115699043
9631,8.0,299.20273,2661.1999,0.0,0.0,0.0,-0.09766935470754762,0.0,0.0,-0.16093367238541684,-0.31306363008447474,-0.33494100683610367,-0.8905193203749142,-0.19902742797747783,-0.07816809899559073
9632,8.0,299.74974,2458.1411,0.0,0.0,0.0,-0.09767949585121986,0.0,0.0,-0.13164766421511287,-0.3001865892011097,-0.31537925106800874,-0.8826798550137192,-0.2373376644534038,-0.11924201767577089
9633,8.0,298.92212,2283.177,0.0,0.0,0.0,-0.09768963699489214,0.0,0.0,-0.12250103529741088,-0.26429554813393974,-0.3072321933739567,-0.9031270799117033,-0.2660580764178877,-0.06167175915252874
9634,8.0,298.93376,2358.1299,0.0,0.0,0.0,-0.09769977813856438,0.0,0.0,-0.13848897690279788,-0.28188085825697473,-0.2964427719366237,-0.9260903973255061,-0.2555422730375588,-0.08330198900601622
9635,8.0,299.32031,2340.437,0.0,0.0,0.0,-0.09770991928223666,0.0,0.0,-0.16054133181419583,-0.24799774451547177,-0.30289533095844173,-0.8922199289452512,-0.23071495034229278,-0.04739194848622116
9636,8.0,299.66697999999997,2273.3846,0.0,0.0,0.0,-0.09772006042590892,0.0,0.0,-0.17431138040819386,-0.23351133823327477,-0.28322945361007074,-0.8830426593445252,-0.20638918644652682,-0.07550966105272333
9637,8.0,300.83494,2503.7866,0.0,0.0,0.0,-0.09773020156958118,0.0,0.0,-0.15020930160450385,-0.2853716771039917,-0.3255076281401017,-0.8861694680931171,-0.2186944097684578,-0.05517684222353035
9638,8.0,300.22512,2724.4625,0.0,0.0,0.0,-0.09774034271325344,0.0,0.0,-0.16727429766868784,-0.3073266890782827,-0.3535675732919027,-0.9042636121513701,-0.2226856120448588,-0.07104541688763673
9639,8.0,300.55122,2960.2027,0.0,0.0,0.0,-0.0977504838569257,0.0,0.0,-0.18481816586263283,-0.34563370341889066,-0.36937583525705664,-0.9043853642833861,-0.2094726686208428,-0.07677274620338013
9640,8.0,300.10409,2659.5747,0.0,0.0,0.0,-0.09776062500059796,0.0,0.0,-0.19006838205078883,-0.28449607703007673,-0.33387983000637367,-0.904183717380985,-0.19987927746904882,-0.055091838646141145
9641,8.0,300.16765,2365.7306,0.0,0.0,0.0,-0.09777076614427022,0.0,0.0,-0.17367716690560184,-0.25055309034016476,-0.2948927931261527,-0.8738747420422222,-0.22132099720768178,-0.06522779584223225
9642,8.0,300.83956,2384.8162,0.0,0.0,0.0,-0.09778090728794248,0.0,0.0,-0.18982032829380782,-0.2564161201888007,-0.2786881274568767,-0.9273500698498262,-0.2264886740426918,-0.054953109508699645
9643,8.0,299.46907000000004,2241.6735,0.0,0.0,0.0,-0.09779104843161474,0.0,0.0,-0.13128365411668785,-0.24474658971460775,-0.3053825255814087,-0.8973647975205102,-0.2027440597417808,-0.10904026103143591
9644,8.0,298.89727,2427.2703,0.0,0.0,0.0,-0.097801189575287,0.0,0.0,-0.14523073776815787,-0.2703227548962787,-0.32227605946367066,-0.9153419111922132,-0.2169861714248678,-0.07350064448319883
9645,8.0,298.78375,2364.525,0.0,0.0,0.0,-0.09781133071895924,0.0,0.0,-0.14529318437182087,-0.23405691261711875,-0.33940647095431065,-0.8973918918281841,-0.2566646400408278,-0.08554782542866302
9646,8.0,298.46063,2293.308,0.0,0.0,0.0,-0.09782147186263151,0.0,0.0,-0.15115481593531885,-0.26605424633250974,-0.2798992956989097,-0.897957366443992,-0.2603371143657727,-0.06103785773096754
9647,8.0,299.91148,2558.0222,0.0,0.0,0.0,-0.09783161300630379,0.0,0.0,-0.17693688366981083,-0.28163147714236275,-0.3190065344384937,-0.8830798861531991,-0.2298657960959878,-0.07049130587170023
9648,8.0,300.67362,2910.3676,0.0,0.0,0.0,-0.09784175414997603,0.0,0.0,-0.22632490242902878,-0.3166797677038597,-0.34167441852063973,-0.8933221728015341,-0.21974721715236178,-0.07714564554493243
9649,8.0,299.59625,2752.1818,0.0,0.0,0.0,-0.09785189529364831,0.0,0.0,-0.16819263663182085,-0.3283469677028227,-0.3400549408858096,-0.8954974383812161,-0.2385931623873118,-0.07299995809203493
9650,8.0,301.30837,2529.7927,0.0,0.0,0.0,-0.09786203643732055,0.0,0.0,-0.15356544938072983,-0.2962645513765347,-0.3191638212515167,-0.9047557173274372,-0.2229272417962058,-0.093317791965499
9651,8.0,300.29849,2389.3373,0.0,0.0,0.0,-0.09787217758099283,0.0,0.0,-0.13895676407646487,-0.2794807322151007,-0.3078613811560527,-0.8862918180426922,-0.2083683374693538,-0.07501666826956872
9652,8.0,300.40775,2388.2157,0.0,0.0,0.0,-0.09788231872466507,0.0,0.0,-0.16173896303489285,-0.25297957101713975,-0.31123942526693976,-0.9106448890286531,-0.1967591460386158,-0.07074439345517804
9653,8.0,301.01187000000004,2400.5579,0.0,0.0,0.0,-0.09789245986833735,0.0,0.0,-0.17524784641561583,-0.24413103014635676,-0.3103307729747627,-0.8940779459186231,-0.24751757542558278,-0.04266197441615905
9654,8.0,299.79017999999996,2430.709,0.0,0.0,0.0,-0.0979026010120096,0.0,0.0,-0.17361872263983386,-0.25887989860195676,-0.3063762300869797,-0.9126484087163852,-0.2542047322430538,-0.09609970253905221
9655,8.0,299.50786,2475.7473,0.0,0.0,0.0,-0.09791274215568187,0.0,0.0,-0.13921664246211285,-0.2668660724451308,-0.3464826347501737,-0.9009057823799782,-0.24177870924420075,-0.09307297047633702
9656,8.0,298.83582,2558.6845,0.0,0.0,0.0,-0.09792288329935413,0.0,0.0,-0.17154545081521783,-0.28718705651315574,-0.3190437004521617,-0.9222779627642481,-0.22483861651984377,-0.09627628163397922
9657,8.0,298.02969,2767.1012,0.0,0.0,0.0,-0.09793302444302639,0.0,0.0,-0.18106713425743484,-0.3107444728580917,-0.3493180530350076,-0.908940024807896,-0.23553907459839676,-0.07612592584304392
9658,8.0,300.0388,2771.6905,0.0,0.0,0.0,-0.09794316558669865,0.0,0.0,-0.2377341796150368,-0.27748437620557576,-0.3273061572001027,-0.9195973184321892,-0.2238417608064618,-0.03019581455434487
9659,8.0,300.77837,2407.888,0.0,0.0,0.0,-0.0979533067303709,0.0,0.0,-0.15494148354653384,-0.26930106442294577,-0.3076952689346587,-0.8665609001704022,-0.2162671792864088,-0.05451496699320835
9660,8.0,299.94244,2327.0911,0.0,0.0,0.0,-0.09796344787404317,0.0,0.0,-0.15724724560659484,-0.25391129501409376,-0.2962190463145437,-0.8967552262603501,-0.19747619273688283,-0.06081308035528374
9661,8.0,300.36202000000003,2760.4176,0.0,0.0,0.0,-0.09797358901771544,0.0,0.0,-0.16194889832311185,-0.31100460455626466,-0.36614449962814866,-0.8988502930946171,-0.24023728226457375,-0.08461626963122562
9662,8.0,299.81865,2656.1876,0.0,0.0,0.0,-0.09798373016138769,0.0,0.0,-0.19500524051301882,-0.3010479835086227,-0.3113614813739857,-0.8949893035885671,-0.21660186592693978,-0.1046124796844479
9663,8.0,299.96333,2347.4667,0.0,0.0,0.0,-0.09799387130505996,0.0,0.0,-0.14297063275760286,-0.2573574700617048,-0.31324315773719275,-0.8925086342962442,-0.2078991722755508,-0.08290347064893551
9664,8.0,299.97783,2265.1168,0.0,0.0,0.0,-0.0980040124487322,0.0,0.0,-0.15244844247048986,-0.2646295457644028,-0.27146096913111173,-0.8763534962918562,-0.2147427546434598,-0.08345147176676902
9665,8.0,299.53345,2338.4802,0.0,0.0,0.0,-0.09801415359240448,0.0,0.0,-0.13468279409465686,-0.2729471638477877,-0.3032096411394617,-0.93205341469401,-0.25073721814833677,-0.04043156371303466
9666,8.0,299.94899,2570.4523,0.0,0.0,0.0,-0.09802429473607674,0.0,0.0,-0.15907868502984385,-0.2795023955022387,-0.34277222434148463,-0.9255651892686722,-0.23984124333048779,-0.08593754978812582
9667,8.0,299.55525,2768.4201,0.0,0.0,0.0,-0.098034435879749,0.0,0.0,-0.17408104839546185,-0.33920128780906067,-0.32824823661307867,-0.9162256375319302,-0.24037629004579275,-0.0861228397941625
9668,8.0,298.98056,2547.3337,0.0,0.0,0.0,-0.09804457702342126,0.0,0.0,-0.17785723900064282,-0.2831203671043047,-0.3133482317725627,-0.9097692180272312,-0.20118877150078582,-0.09551967765180822
9669,8.0,299.12138,2439.7609,0.0,0.0,0.0,-0.09805471816709352,0.0,0.0,-0.17117698241635282,-0.28715642596263274,-0.28329298439134076,-0.8765004378213581,-0.24159845205141076,-0.07092098977535673
9670,8.0,298.80772,2602.6921,0.0,0.0,0.0,-0.09806485931076578,0.0,0.0,-0.1988174116292508,-0.28487084784456373,-0.3074651395719467,-0.8973019962793122,-0.22200217485240878,-0.06020749319451694
9671,8.0,298.72125,2716.7162,0.0,0.0,0.0,-0.09807500045443805,0.0,0.0,-0.18965824880781182,-0.26526271561939174,-0.37089291383678064,-0.8720479230394292,-0.2218490119672928,-0.026970810725311774
9672,8.0,299.39302000000004,2457.4229,0.0,0.0,0.0,-0.0980851415981103,0.0,0.0,-0.13309174825763287,-0.2969473704864237,-0.3169560810061297,-0.8858517939217653,-0.2262252695466958,-0.05699481960595075
9673,8.0,299.35297,2203.6622,0.0,0.0,0.0,-0.09809528274178257,0.0,0.0,-0.0987296022928531,-0.25954964678555575,-0.3115790363029567,-0.8695684392497233,-0.24016356831979876,-0.0959322173637727
9674,8.0,299.64097999999996,2533.6894,0.0,0.0,0.0,-0.09810542388545482,0.0,0.0,-0.18474438099035084,-0.27487591581064075,-0.31055801457468973,-0.9131209986955261,-0.24380795535197178,-0.07414172984796903
9675,8.0,300.36712,2785.2059,0.0,0.0,0.0,-0.09811556502912709,0.0,0.0,-0.20787017305768882,-0.31563349578310074,-0.32312937816788667,-0.8934708368562061,-0.23889223328682777,-0.11910508705725688
9676,8.0,299.93516,2706.7526,0.0,0.0,0.0,-0.09812570617279935,0.0,0.0,-0.2132456978857118,-0.27907202765476474,-0.3304674873796017,-0.9229719580227401,-0.23062679758359278,-0.03340174496349557
9677,8.0,300.2038,2521.7662,0.0,0.0,0.0,-0.09813584731647161,0.0,0.0,-0.15379041116793185,-0.2781385608676387,-0.33462499439491566,-0.9154396087668552,-0.26222854832744275,-0.09077898643543841
9678,8.0,300.69004,2328.7722,0.0,0.0,0.0,-0.09814598846014387,0.0,0.0,-0.12535154087623387,-0.2730864756040367,-0.3094505828778947,-0.9236142167311261,-0.2350318415983368,-0.032092851789067865
9679,8.0,300.70741,2425.4876,0.0,0.0,0.0,-0.09815612960381613,0.0,0.0,-0.13247807333456788,-0.2737675012612487,-0.3310421015113117,-0.8899713648533352,-0.2111072031521588,-0.12023975491673988
9680,8.0,299.51697,2765.4039,0.0,0.0,0.0,-0.09816627074748839,0.0,0.0,-0.20686724797620779,-0.29945449573885774,-0.33429199988205166,-0.8951950541538731,-0.17675100293896584,-0.06359595452968203
9681,8.0,299.51921,2452.4976,0.0,0.0,0.0,-0.09817641189116066,0.0,0.0,-0.16071440506377685,-0.28636152112668173,-0.29842211547696973,-0.8841848353872492,-0.22324495649756176,-0.08794303923405222
9682,8.0,300.05406,2165.0199,0.0,0.0,0.0,-0.09818655303483291,0.0,0.0,-0.12561748862998087,-0.26221099883571075,-0.27028349145490377,-0.8840603880099672,-0.23774570026867378,-0.06972523002759444
9683,8.0,299.16119,2478.6771,0.0,0.0,0.0,-0.09819669417850518,0.0,0.0,-0.13555091638283387,-0.3000427988794187,-0.3178622204380587,-0.8850164401418222,-0.24232637092325077,-0.06896626314619023
9684,8.0,299.35084,2985.3422,0.0,0.0,0.0,-0.09820683532217743,0.0,0.0,-0.19073738042931382,-0.3266190621747917,-0.3901130422011596,-0.9157510919800962,-0.2511219897413108,-0.050930602870459155
9685,8.0,299.66507,2743.4481,0.0,0.0,0.0,-0.0982169764658497,0.0,0.0,-0.1826221995834078,-0.3074874209416457,-0.3438300979758887,-0.9258021074070542,-0.26452716697429873,-0.058017071419839146
9686,8.0,300.17154,2457.1912,0.0,0.0,0.0,-0.09822711760952196,0.0,0.0,-0.17120441109655984,-0.28319805298947176,-0.29252230464970375,-0.9458209200302571,-0.24370471529928278,-0.08894155667759822
9687,8.0,301.09639,2581.7475,0.0,0.0,0.0,-0.09823725875319422,0.0,0.0,-0.2059789822760428,-0.2605002273668708,-0.31830754385700866,-0.8989499361094512,-0.2048066823078458,-0.07138239955289434
9688,8.0,301.31337,2650.3409,0.0,0.0,0.0,-0.09824739989686648,0.0,0.0,-0.2079008948007208,-0.28431681282238475,-0.3134197672296227,-0.9170919055724241,-0.2074829088694688,-0.06341265150709144
9689,8.0,299.67615,2509.377,0.0,0.0,0.0,-0.09825754104053874,0.0,0.0,-0.15491370022879186,-0.2696673644665968,-0.33820688416092065,-0.9137750212375731,-0.2249241652257868,-0.04616089217122536
9690,8.0,300.53145,2632.2728,0.0,0.0,0.0,-0.098267682184211,0.0,0.0,-0.15568976874538384,-0.3064485356141157,-0.3380069091211847,-0.8913775229446123,-0.2298925155011248,-0.05222267913297716
9691,8.0,299.89383,2439.5359,0.0,0.0,0.0,-0.09827782332788328,0.0,0.0,-0.13002779141274387,-0.3120904134959257,-0.2994397934799067,-0.8720907125911521,-0.19801805862536082,-0.08791114617390461
9692,8.0,300.49391,2459.6659,0.0,0.0,0.0,-0.09828796447155552,0.0,0.0,-0.15458399877875284,-0.2959073908487857,-0.29718562611493776,-0.8836843506328551,-0.2046633276836978,-0.06700850284622434
9693,8.0,300.90601000000004,2866.4203,0.0,0.0,0.0,-0.0982981056152278,0.0,0.0,-0.18198265638528982,-0.3266262055879967,-0.36271134484432266,-0.915686193311191,-0.23470623367870175,-0.07901740928241113
9694,8.0,300.62776,2724.0226,0.0,0.0,0.0,-0.09830824675890004,0.0,0.0,-0.19013533761739682,-0.29304326718861873,-0.34485626701466365,-0.899189235385568,-0.23026304079769278,-0.054963591580984156
9695,8.0,300.67579,2412.6056,0.0,0.0,0.0,-0.09831838790257232,0.0,0.0,-0.12346630800517587,-0.2932257130016247,-0.31667982849886567,-0.8738331481256171,-0.21544687227045078,-0.1003962538125888
9696,8.0,301.26087,2504.5928,0.0,0.0,0.0,-0.09832852904624459,0.0,0.0,-0.18657154449817784,-0.2373360533857448,-0.3374260736338607,-0.8795822987955141,-0.23490304737812578,-0.06307723127348804
9697,8.0,300.55249,2569.3594,0.0,0.0,0.0,-0.09833867018991684,0.0,0.0,-0.18342231252487282,-0.2838095494248217,-0.3137892286135857,-0.9358171423229612,-0.2635276160156507,-0.09055779596510861
9698,8.0,300.79314,2478.9667,0.0,0.0,0.0,-0.09834881133358911,0.0,0.0,-0.2016104659274038,-0.27676995382506775,-0.27516355724902875,-0.9194534267854881,-0.2589339048322868,-0.08269757113586483
9699,8.0,299.97636,2526.4389,0.0,0.0,0.0,-0.09835895247726135,0.0,0.0,-0.16586563684966385,-0.29752544993347574,-0.3045832739025287,-0.9317694918834891,-0.19532072606415482,-0.0903032168774836
9700,8.0,299.08671,2585.6416,0.0,0.0,0.0,-0.09836909362093363,0.0,0.0,-0.22234207973095477,-0.25730146772867774,-0.3063269253371137,-0.8993177864257551,-0.19358379247773283,-0.060475566746973734
9701,8.0,299.89938,2589.385,0.0,0.0,0.0,-0.09837923476460589,0.0,0.0,-0.14746611947627286,-0.28658742523647673,-0.3530548383437997,-0.9301005372462761,-0.2126292162598698,-0.06908561083571893
9702,8.0,300.32302000000004,2695.7309,0.0,0.0,0.0,-0.09838937590827815,0.0,0.0,-0.17186691454194383,-0.3056852340487837,-0.3418827123436967,-0.9077330007587722,-0.23497435992016377,-0.07536868148680972
9703,8.0,300.29067000000003,2681.4871,0.0,0.0,0.0,-0.09839951705195041,0.0,0.0,-0.16614660096989284,-0.31461562526264475,-0.3343428853020737,-0.8942373808218582,-0.2159633461114228,-0.07900323897976262
9704,8.0,300.43286,2544.0037,0.0,0.0,0.0,-0.09840965819562267,0.0,0.0,-0.17778726394873684,-0.2832320070003227,-0.3122943402110517,-0.8780826683825121,-0.24314557349659977,-0.06124344212325715
9705,8.0,300.68883999999997,2513.7145,0.0,0.0,0.0,-0.09841979933929493,0.0,0.0,-0.1833305728608188,-0.26059725619644675,-0.3201786114916687,-0.9090493240961831,-0.24928289014730576,-0.06782927899697863
9706,8.0,299.50673,2713.1172,0.0,0.0,0.0,-0.0984299404829672,0.0,0.0,-0.2065446291443678,-0.26934659988243975,-0.3488286431042067,-0.900977986582104,-0.2385567157812148,-0.02939520613358097
9707,8.0,298.91564,2560.2604,0.0,0.0,0.0,-0.09844008162663945,0.0,0.0,-0.15488452875841285,-0.2749306211835398,-0.3484400819558587,-0.9170689149276552,-0.21276237758801178,-0.08383400914327252
9708,8.0,298.69305,2253.6272,0.0,0.0,0.0,-0.09845022277031172,0.0,0.0,-0.14040138514153788,-0.23927633613473576,-0.3053686947175437,-0.8989629766382381,-0.23620356401397677,-0.06290630510086895
9709,8.0,298.82327999999995,2493.4781,0.0,0.0,0.0,-0.09846036391398397,0.0,0.0,-0.16344612733337685,-0.2738916750610037,-0.3206172677249607,-0.9173922025045612,-0.23999744596590378,-0.11640694389597088
9710,8.0,299.28677999999996,2705.1099,0.0,0.0,0.0,-0.09847050505765624,0.0,0.0,-0.1994795705696008,-0.3031556551741337,-0.31965062712956066,-0.8986480585071581,-0.25352352420082375,-0.08245034824396583
9711,8.0,298.98236,2510.7816,0.0,0.0,0.0,-0.0984806462013285,0.0,0.0,-0.16989321480465483,-0.3086991667362357,-0.2846225205100557,-0.8987989821095532,-0.18980097521689784,-0.11595600707146689
9712,8.0,299.70274,2518.3722,0.0,0.0,0.0,-0.09849078734500076,0.0,0.0,-0.15921985103377584,-0.2760656639455597,-0.3302367703318317,-0.8888406182717392,-0.2045304298005818,-0.03724077126037797
9713,8.0,300.64029,2445.2471,0.0,0.0,0.0,-0.09850092848867302,0.0,0.0,-0.1270401525653869,-0.29988836943167774,-0.3163655284503467,-0.8973737647838952,-0.2197974135623158,-0.06846472157194193
9714,8.0,301.12602999999996,2253.7111,0.0,0.0,0.0,-0.09851106963234528,0.0,0.0,-0.13284531570081187,-0.24378707226741078,-0.3084395213981107,-0.9239998597191862,-0.24933836559028077,-0.04021297222921136
9715,8.0,299.79777,2719.5267,0.0,0.0,0.0,-0.09852121077601754,0.0,0.0,-0.15699845217704084,-0.32305693078573666,-0.3466128475205246,-0.9147567085969582,-0.2194204135976088,-0.09351305539227002
9716,8.0,299.84778,2892.2129999999997,0.0,0.0,0.0,-0.09853135191968981,0.0,0.0,-0.2372363901059088,-0.2954390970500687,-0.34648505641791266,-0.9185177004506392,-0.26198804328370673,-0.061375847566824536
9717,8.0,300.33321,2508.8596,0.0,0.0,0.0,-0.09854149306336206,0.0,0.0,-0.19590003154382782,-0.2702270331593317,-0.2965036176051287,-0.926259984994743,-0.24856729239668177,-0.08514390543529923
9718,8.0,300.50692000000004,2563.4977,0.0,0.0,0.0,-0.09855163420703433,0.0,0.0,-0.16866082910552782,-0.2829059431181427,-0.3276725079062587,-0.8951597322553871,-0.2609942374531258,-0.061439376321594345
9719,8.0,299.34662000000003,2611.57,0.0,0.0,0.0,-0.09856177535070658,0.0,0.0,-0.17685661399688885,-0.25225485401561576,-0.36474060108459466,-0.9090309133418661,-0.2043010097129398,-0.07147097888988643
9720,8.0,299.96756,2528.1182,0.0,0.0,0.0,-0.09857191649437885,0.0,0.0,-0.16430349903799282,-0.27543626338094274,-0.3287450331371087,-0.9106542818570801,-0.21903083919916078,-0.06656005963021644
9721,8.0,300.79136,2367.9139,0.0,0.0,0.0,-0.09858205763805111,0.0,0.0,-0.14805117008401286,-0.27562774738484075,-0.29610779145356375,-0.9229593531914961,-0.2253673506870258,-0.1048864625114879
9722,8.0,300.20346,2577.8407,0.0,0.0,0.0,-0.09859219878172337,0.0,0.0,-0.18910340318555283,-0.2932780980317947,-0.30121769276787175,-0.9109295413792461,-0.2092815291219788,-0.08205151679260422
9723,8.0,300.17115,2661.4973,0.0,0.0,0.0,-0.09860233992539563,0.0,0.0,-0.18988966499815083,-0.3046813666447097,-0.3144576899695577,-0.9169999328608471,-0.1899865722377148,-0.08204566020702622
9724,8.0,299.62092,2587.1528,0.0,0.0,0.0,-0.09861248106906789,0.0,0.0,-0.15055830546894786,-0.2937222055506247,-0.3421493491075117,-0.9104597479703812,-0.23609670665843077,-0.06398656041673184
9725,8.0,299.82127,2737.3568,0.0,0.0,0.0,-0.09862262221274015,0.0,0.0,-0.15021436785500383,-0.3135822621481597,-0.3682914752650387,-0.9255645407886081,-0.23303317537858378,-0.04103071977541676
9726,8.0,301.36843999999996,2636.449,0.0,0.0,0.0,-0.09863276335641243,0.0,0.0,-0.17444790572666782,-0.2896512706238547,-0.33731548751794665,-0.8821150491429772,-0.2398658754404188,-0.07120806480693884
9727,8.0,299.32772,2382.1511,0.0,0.0,0.0,-0.09864290450008467,0.0,0.0,-0.13578095455303688,-0.2729124904293657,-0.3154210172371307,-0.8643085769206152,-0.2004298978383908,-0.09759295454267472
9728,8.0,300.07704,2797.0616,0.0,0.0,0.0,-0.09865304564375695,0.0,0.0,-0.25163672079211075,-0.2830410701514787,-0.3155591130932597,-0.8816576072528312,-0.23166416303597276,-0.08331268588732192
9729,8.0,300.2166,3027.3135,0.0,0.0,0.0,-0.09866318678742919,0.0,0.0,-0.2270319990113138,-0.32226655517773267,-0.3709291679253586,-0.9168447637405331,-0.25193061398361577,-0.07315639580147414
9730,8.0,299.67884,2421.0518,0.0,0.0,0.0,-0.09867332793110146,0.0,0.0,-0.15802101404545985,-0.2663339540226147,-0.3115843153359777,-0.9135887048091852,-0.24082968906803978,-0.08103198454198422
9731,8.0,298.97567000000004,2385.7657,0.0,0.0,0.0,-0.09868346907477372,0.0,0.0,-0.13172321214256888,-0.28095439302803976,-0.3125355849273607,-0.9084459437941342,-0.19939867268161682,-0.07271919459532573
9732,8.0,299.41791,2745.2903,0.0,0.0,0.0,-0.09869361021844598,0.0,0.0,-0.2072447039034598,-0.28792499642848474,-0.3393299908367627,-0.9240552135721491,-0.2076961372205128,-0.07369562217344162
9733,8.0,299.28216000000003,2800.6946,0.0,0.0,0.0,-0.09870375136211824,0.0,0.0,-0.16810955012362083,-0.35351471203418566,-0.32971697303053166,-0.959223787053017,-0.2115112264970328,-0.06898661832744914
9734,8.0,301.17731000000003,2593.101,0.0,0.0,0.0,-0.0987138925057905,0.0,0.0,-0.17715981895681282,-0.3169726780427677,-0.2941054471359477,-0.9273059732054741,-0.2150963890608608,-0.08517192078731411
9735,8.0,300.33261,2526.0088,0.0,0.0,0.0,-0.09872403364946276,0.0,0.0,-0.14143695714124085,-0.27625410819915774,-0.3501525354198647,-0.9219565699650292,-0.2045347361135068,-0.05321750631965895
9736,8.0,300.36512,2471.7022,0.0,0.0,0.0,-0.09873417479313504,0.0,0.0,-0.15172658283424786,-0.2694199591896797,-0.33018919823963666,-0.8874419683637031,-0.24946319800260075,-0.06977899713090084
9737,8.0,301.0967,2624.3092,0.0,0.0,0.0,-0.09874431593680728,0.0,0.0,-0.16882982908970684,-0.2626195412760307,-0.36627508730103664,-0.9094023505635243,-0.25851117689056674,-0.04419066281552886
9738,8.0,300.62707,2906.0274,0.0,0.0,0.0,-0.09875445708047956,0.0,0.0,-0.2001948440801928,-0.32150515852258865,-0.3616597634930397,-0.8932858883154532,-0.24806243040185574,-0.08497690054056713
9739,8.0,300.61016,2780.5986,0.0,0.0,0.0,-0.0987645982241518,0.0,0.0,-0.2316956751140828,-0.2747043624362097,-0.3388324951701637,-0.8975121848800561,-0.2222600875328628,-0.059742317166357646
9740,8.0,301.17543,2533.7937,0.0,0.0,0.0,-0.09877473936782408,0.0,0.0,-0.2024039826107178,-0.2906509026425107,-0.27715513071808173,-0.9101193871292901,-0.21850262178952978,-0.09644254584288821
9741,8.0,300.24356,2684.4183,0.0,0.0,0.0,-0.09878488051149635,0.0,0.0,-0.17835318439458883,-0.30067908954471567,-0.3369638694682447,-0.9073086212193892,-0.24054401333484574,-0.05841038268465595
9742,8.0,300.61304,2763.1707,0.0,0.0,0.0,-0.0987950216551686,0.0,0.0,-0.18641323430255383,-0.2992511972387937,-0.3542704851512747,-0.904623052491844,-0.22118184757144876,-0.07554860329381663
9743,8.0,299.8547,2402.2106,0.0,0.0,0.0,-0.09880516279884087,0.0,0.0,-0.1185806186729959,-0.2955161344551717,-0.3161152860731497,-0.9203038374619171,-0.2020395874772548,-0.056478947635538145
9744,8.0,299.12917999999996,2361.3314,0.0,0.0,0.0,-0.09881530394251312,0.0,0.0,-0.13823516788524887,-0.26295219128386077,-0.3165984239858317,-0.9228194030876842,-0.24195764921186075,-0.08214091686217732
9745,8.0,299.02385,2780.301,0.0,0.0,0.0,-0.09882544508618539,0.0,0.0,-0.21112353674377082,-0.31175064033989275,-0.32226790280036566,-0.920376436831582,-0.24293113937793678,-0.04963340766843595
9746,8.0,300.0278,2525.9726,0.0,0.0,0.0,-0.09883558622985764,0.0,0.0,-0.1724988077018068,-0.2826760164054507,-0.3126577626244187,-0.9094303770612902,-0.2236683329193458,-0.09194643192240631
9747,8.0,300.03333,2391.9265,0.0,0.0,0.0,-0.09884572737352991,0.0,0.0,-0.1161037490685479,-0.28287450196753977,-0.3281076785592067,-0.8787270346511061,-0.2192816591289148,-0.07824949033637342
9748,8.0,300.88113,2680.7003,0.0,0.0,0.0,-0.09885586851720217,0.0,0.0,-0.16644199377154584,-0.29690396285213977,-0.35152000762232366,-0.9140953095941832,-0.2468423354264418,-0.04977649175480725
9749,8.0,300.58182,2533.4135,0.0,0.0,0.0,-0.09886600966087442,0.0,0.0,-0.15360768164489785,-0.27501892592975474,-0.34146782695775063,-0.8873149675961691,-0.26228326383284273,-0.07029446684102374
9750,8.0,300.69908,2622.6532,0.0,0.0,0.0,-0.09887615080454669,0.0,0.0,-0.18067446944618182,-0.3027802662770857,-0.3137663494263277,-0.8863499380684281,-0.2184271143920778,-0.07202607681142033
9751,8.0,300.72817000000003,2850.9328,0.0,0.0,0.0,-0.09888629194821894,0.0,0.0,-0.25306385316045776,-0.3068939704905767,-0.3066545698894497,-0.9117354906412872,-0.18643194903190083,-0.090540463308898
9752,8.0,300.14251,2610.6896,0.0,0.0,0.0,-0.09889643309189121,0.0,0.0,-0.20084131790899482,-0.3026111143053917,-0.2901320172663007,-0.9371122583357793,-0.2141361724710948,-0.06859912818445683
9753,8.0,301.06822999999997,2446.5134,0.0,0.0,0.0,-0.09890657423556345,0.0,0.0,-0.13461585879305088,-0.2957571359914567,-0.3133059893758937,-0.9310890843088382,-0.22638023601698978,-0.07769517464391672
9754,8.0,299.89451,2645.8413,0.0,0.0,0.0,-0.09891671537923573,0.0,0.0,-0.16566902580025986,-0.30302551333128974,-0.33557514941118866,-0.9162891480481982,-0.2239618512083138,-0.05342757231714085
9755,8.0,299.51692,2658.5675,0.0,0.0,0.0,-0.09892685652290797,0.0,0.0,-0.16414487473483785,-0.2734658567064787,-0.3705274142607087,-0.9014642959675991,-0.23134971099993878,-0.04791630541297116
9756,8.0,300.77833,2473.8589,0.0,0.0,0.0,-0.09893699766658025,0.0,0.0,-0.16741014410959484,-0.2940851314714427,-0.2904960678947297,-0.9203791118118461,-0.2289170292323518,-0.06333204746163644
9757,8.0,301.13127000000003,2423.3838,0.0,0.0,0.0,-0.0989471388102525,0.0,0.0,-0.1928740513126868,-0.25158324145183275,-0.2921908806744947,-0.9240433990759832,-0.2403218582504208,-0.04466249893659546
9758,8.0,299.96951,2718.1006,0.0,0.0,0.0,-0.09895727995392477,0.0,0.0,-0.1974393003007418,-0.29636923024436573,-0.3324261707504087,-0.8888631124239592,-0.2110131431453758,-0.08919828182893501
9759,8.0,300.15968,2665.0501,0.0,0.0,0.0,-0.09896742109759704,0.0,0.0,-0.15225044326844886,-0.3085976188112137,-0.34926063215184067,-0.8681181642490922,-0.2017260980288158,-0.0856384616633581
9760,8.0,298.13907,2604.2734,0.0,0.0,0.0,-0.09897756224126929,0.0,0.0,-0.15697221913195186,-0.27913019834300573,-0.35553168768324567,-0.8976018980439102,-0.22766708390899176,-0.08094211635086493
9761,8.0,298.24313,2840.466,0.0,0.0,0.0,-0.09898770338494156,0.0,0.0,-0.16799530617484584,-0.3315741895363247,-0.36386123172030765,-0.8929125360511061,-0.2530928118483158,-0.06634539753028093
9762,8.0,298.47742999999997,2439.5718,0.0,0.0,0.0,-0.09899784452861381,0.0,0.0,-0.17625900922040985,-0.27077081409049875,-0.2945390776487437,-0.9036439185227111,-0.22022771048228282,-0.07621486792357182
9763,8.0,298.03387999999995,2313.3199,0.0,0.0,0.0,-0.09900798567228608,0.0,0.0,-0.16541455817014583,-0.2754691737441907,-0.26230775408775975,-0.9073066656466962,-0.23800420063418576,-0.08612184376931423
9764,8.0,299.19003,2690.0383,0.0,0.0,0.0,-0.09901812681595833,0.0,0.0,-0.1913365253459448,-0.3057977656048897,-0.3205701718603127,-0.9196112202235611,-0.2670129937096307,-0.07846284230392962
9765,8.0,299.38338999999996,2553.6824,0.0,0.0,0.0,-0.0990282679596306,0.0,0.0,-0.14838598844705686,-0.28916773754363373,-0.33870196829228166,-0.938137789026991,-0.24938484337236777,-0.060593172659580544
9766,8.0,300.02497,2299.4448,0.0,0.0,0.0,-0.09903840910330286,0.0,0.0,-0.1092501963196549,-0.2850565461903907,-0.3046670696857987,-0.920862290254532,-0.2049464500266398,-0.07376673206545964
9767,8.0,300.45686,2722.025,0.0,0.0,0.0,-0.0990485502469751,0.0,0.0,-0.14532401757236385,-0.29913769296259174,-0.3829659306332946,-0.8924135306418582,-0.21106363339785877,-0.058370487988468646
9768,8.0,299.71923,2807.3751,0.0,0.0,0.0,-0.09905869139064738,0.0,0.0,-0.2269855718917318,-0.3027791010394707,-0.3236072573125497,-0.9245346125919621,-0.22268566270736376,-0.06682790013515023
9769,8.0,300.20198,2641.1822,0.0,0.0,0.0,-0.09906883253431963,0.0,0.0,-0.2012440240287388,-0.2821627849647987,-0.3194466193544267,-0.8989201972190162,-0.22327672188819678,-0.06898901567718572
9770,8.0,300.35142,2806.4802,0.0,0.0,0.0,-0.0990789736779919,0.0,0.0,-0.2208983705909718,-0.2970578147473237,-0.33514370751860867,-0.9088936686158212,-0.2111178118807058,-0.09156472439773472
9771,8.0,299.50742,2727.5005,0.0,0.0,0.0,-0.09908911482166417,0.0,0.0,-0.17076473148066684,-0.2952442794533417,-0.3630830455110067,-0.8935752826765141,-0.21715251669378477,-0.056892780254630244
9772,8.0,300.52689,2509.7471,0.0,0.0,0.0,-0.09909925596533642,0.0,0.0,-0.1299737041224059,-0.30141221652206973,-0.3315145395029377,-0.9251045353757091,-0.24436928577487074,-0.06591339936339603
9773,8.0,299.68067,2664.4634,0.0,0.0,0.0,-0.09910939710900869,0.0,0.0,-0.16020640199364083,-0.2991613928824307,-0.35056254707282963,-0.908663133953069,-0.23648917895216479,-0.04263720146446416
9774,8.0,299.18877000000003,2697.4339,0.0,0.0,0.0,-0.09911953825268094,0.0,0.0,-0.2337401301058548,-0.27912371354236576,-0.30708870702729574,-0.9265502102208861,-0.2051190977111788,-0.055547513428112746
9775,8.0,300.06368,2454.7364,0.0,0.0,0.0,-0.09912967939635321,0.0,0.0,-0.16639969057987083,-0.29579224510742175,-0.2839866351447987,-0.9055796619112542,-0.2190813699816478,-0.07404185378561202
9776,8.0,300.07523,2500.3353,0.0,0.0,0.0,-0.09913982054002547,0.0,0.0,-0.14530947743342887,-0.29602476574036973,-0.3187052445212587,-0.9352160722311402,-0.23570359601713378,-0.08828873179716941
9777,8.0,299.70077000000003,2928.8188,0.0,0.0,0.0,-0.09914996168369773,0.0,0.0,-0.18033494960267382,-0.31774699363668674,-0.39220583935520265,-0.9009394830783042,-0.22802180250399978,-0.05912584567301664
9778,8.0,299.95429,2802.0992,0.0,0.0,0.0,-0.09916010282736999,0.0,0.0,-0.17000549304823584,-0.3012261432737057,-0.38053655206103365,-0.8943464977251272,-0.2005644878491738,-0.07987828581912303
9779,8.0,300.21036000000004,2449.9076,0.0,0.0,0.0,-0.09917024397104225,0.0,0.0,-0.13625886409520285,-0.28209492760560173,-0.32635694450642266,-0.8890415153690661,-0.22176909693190577,-0.07504591168070483
9780,8.0,300.3486,2540.1733,0.0,0.0,0.0,-0.09918038511471451,0.0,0.0,-0.2086336874055418,-0.26372126837476273,-0.2997943094248947,-0.9344719616227021,-0.2431390988284608,-0.057002454445454244
9781,8.0,300.42661,2736.9012,0.0,0.0,0.0,-0.09919052625838679,0.0,0.0,-0.2145405504535038,-0.3035366068142307,-0.3138724671093007,-0.899150539364249,-0.24889543344156675,-0.06366352919210114
9782,8.0,300.02191,2539.1961,0.0,0.0,0.0,-0.09920066740205903,0.0,0.0,-0.18745351791522183,-0.27127668933542476,-0.3131220135552367,-0.918602935049051,-0.2040590759865628,-0.07999198463934422
9783,8.0,299.9062,2570.8391,0.0,0.0,0.0,-0.0992108085457313,0.0,0.0,-0.15744475844858785,-0.29146297193515575,-0.33256316216392867,-0.9202631757354041,-0.2378355856850448,-0.07641992643905952
9784,8.0,300.58211,2559.6692,0.0,0.0,0.0,-0.09922094968940355,0.0,0.0,-0.13803429105292386,-0.28873914288383473,-0.35130209805581764,-0.9393001388792062,-0.23927518102962175,-0.052615945814789546
9785,8.0,300.32656000000003,2362.4294,0.0,0.0,0.0,-0.09923109083307582,0.0,0.0,-0.15874898357980483,-0.25607550603518475,-0.3032950581228917,-0.93397879253403,-0.22585544339269678,-0.06510837013244584
9786,8.0,298.84961,2917.8093,0.0,0.0,0.0,-0.09924123197674808,0.0,0.0,-0.23959262215345078,-0.31356348662380673,-0.3337850708570217,-0.9209558031062612,-0.19144926968457182,-0.06849364074304604
9787,8.0,299.39694,3069.2414,0.0,0.0,0.0,-0.09925137312042034,0.0,0.0,-0.24545088972661677,-0.31747796560263575,-0.3700439014454897,-0.9222968700111143,-0.23294357367224078,-0.06042955708643294
9788,8.0,299.2337,2572.3585,0.0,0.0,0.0,-0.0992615142640926,0.0,0.0,-0.15213638170469185,-0.3145698567556277,-0.3152265036154337,-0.9273165515365182,-0.23796380235269876,-0.07578400257029873
9789,8.0,299.63916,2473.7847,0.0,0.0,0.0,-0.09927165540776486,0.0,0.0,-0.13826291067298688,-0.2757797652973437,-0.3379261125582107,-0.9120371655935602,-0.25499140948819277,-0.07441738859067443
9790,8.0,300.00121,2754.1558,0.0,0.0,0.0,-0.09928179655143712,0.0,0.0,-0.16906073865499585,-0.28960838987962273,-0.37852546339505466,-0.8908003452901491,-0.21846663114597778,-0.05615541079910754
9791,8.0,300.49019,2700.2077,0.0,0.0,0.0,-0.0992919376951094,0.0,0.0,-0.2116550168187238,-0.2895751856738457,-0.3195655242536617,-0.8754856171837031,-0.23296995870484477,-0.07313040289665883
9792,8.0,300.61955,2426.9013,0.0,0.0,0.0,-0.09930207883878164,0.0,0.0,-0.18934231742663182,-0.2500836515688348,-0.2982914366115727,-0.9134189448874313,-0.2229454397680018,-0.07079431831410522
9793,8.0,300.15154,2431.4215,0.0,0.0,0.0,-0.09931221998245392,0.0,0.0,-0.18117277571286083,-0.27969569322381577,-0.27822296460096874,-0.9037707977002332,-0.21832346903934882,-0.07773173473402493
9794,8.0,299.11323,2433.7547,0.0,0.0,0.0,-0.09932236112612616,0.0,0.0,-0.15134824537940886,-0.28300114809753874,-0.3054512644681927,-0.9179951876390711,-0.2148242402165018,-0.08473812815450212
9795,8.0,299.28373999999997,2566.7282,0.0,0.0,0.0,-0.09933250226979844,0.0,0.0,-0.12698967244540488,-0.3022252281373077,-0.3510064012791347,-0.9147931146730512,-0.22820860529243575,-0.1153320881898909
9796,8.0,298.80188,2854.5606,0.0,0.0,0.0,-0.0993426434134707,0.0,0.0,-0.16780685178874685,-0.3385019831200447,-0.3614063192455267,-0.94089949336705,-0.25623520438344577,-0.07432413918397143
9797,8.0,299.15423,2571.1175,0.0,0.0,0.0,-0.09935278455714296,0.0,0.0,-0.17973754747621482,-0.27587781750952073,-0.32594015421028866,-0.925613673285957,-0.23236909126304378,-0.06694471773917923
9798,8.0,299.05105,2256.0978,0.0,0.0,0.0,-0.09936292570081522,0.0,0.0,-0.15201062723478087,-0.27306738597215274,-0.26071937309849874,-0.9302528084713041,-0.22797901295227677,-0.0861887881901711
9799,8.0,299.7332,2653.5544,0.0,0.0,0.0,-0.09937306684448748,0.0,0.0,-0.18632573002391783,-0.28140187466970273,-0.33888666352050967,-0.8990234778017092,-0.2321926236256278,-0.07481038878771053
9800,8.0,300.00271000000004,2859.5551,0.0,0.0,0.0,-0.09938320798815974,0.0,0.0,-0.21893014240422282,-0.2585991776617518,-0.39170401711067665,-0.9113130464095951,-0.2231893189345708,-0.04682001136127536
9801,8.0,300.54013,2536.9398,0.0,0.0,0.0,-0.09939334913183201,0.0,0.0,-0.12789875030262388,-0.27754230371379274,-0.36572528766427564,-0.889133072648102,-0.2196496918302368,-0.07204176090971823
9802,8.0,299.71404,2561.0697,0.0,0.0,0.0,-0.09940349027550426,0.0,0.0,-0.15839642320750985,-0.27317783023305275,-0.3469269955815287,-0.8976736564159922,-0.23407299289620578,-0.05693015601106895
9803,8.0,300.54167,2815.9558,0.0,0.0,0.0,-0.09941363141917653,0.0,0.0,-0.23559845105425675,-0.29575066132331773,-0.3246311262735977,-0.9040854523862872,-0.23951019425781575,-0.056863676672007944
9804,8.0,300.29381,2752.8776,0.0,0.0,0.0,-0.09942377256284878,0.0,0.0,-0.21954055466196581,-0.2998892509592647,-0.3173762454250967,-0.9138522308951931,-0.23633397943434778,-0.07720975590525964
9805,8.0,300.67737999999997,2671.5926,0.0,0.0,0.0,-0.09943391370652105,0.0,0.0,-0.18753665508592682,-0.28857493557262875,-0.33598585007422166,-0.932465017149632,-0.23834037675236375,-0.07104104977970574
9806,8.0,300.38599,2756.6734,0.0,0.0,0.0,-0.09944405485019332,0.0,0.0,-0.1912729337696688,-0.3052183993302107,-0.3414685463653217,-0.9263757893486722,-0.2215193915772618,-0.07912662447093982
9807,8.0,301.21508,2509.1793,0.0,0.0,0.0,-0.09945419599386557,0.0,0.0,-0.12037913760049589,-0.28872972979040573,-0.3536189754694757,-0.9287402489870261,-0.24552091544102778,-0.06210172980596353
9808,8.0,300.70215,2319.4817,0.0,0.0,0.0,-0.09946433713753784,0.0,0.0,-0.14847722148606085,-0.24648392860106977,-0.3101033895198217,-0.9094018946009791,-0.2143485091620508,-0.07580633662900294
9809,8.0,300.47622,2783.8659,0.0,0.0,0.0,-0.09947447828121009,0.0,0.0,-0.2129881803727968,-0.28214991668852873,-0.35108763353965167,-0.9047358880229801,-0.19537334414184782,-0.03870172693031307
9810,8.0,299.62958,2717.5723,0.0,0.0,0.0,-0.09948461942488235,0.0,0.0,-0.2049438865038868,-0.2817059003622077,-0.3394243446860747,-0.900364271129035,-0.2080605222214748,-0.07357026185781952
9811,8.0,300.11991,2482.1479,0.0,0.0,0.0,-0.09949476056855462,0.0,0.0,-0.1224672839365799,-0.3138371857408187,-0.3182065228220387,-0.920478359659141,-0.2228212862332488,-0.07910101052166192
9812,8.0,300.67058,2714.9481,0.0,0.0,0.0,-0.09950490171222687,0.0,0.0,-0.17236480537608181,-0.2818184015208107,-0.37109321311654864,-0.8882896837948661,-0.23887498777012578,-0.06440586154661364
9813,8.0,300.83242,2811.5558,0.0,0.0,0.0,-0.09951504285589914,0.0,0.0,-0.17777442606996985,-0.31573498291311675,-0.3611333395360857,-0.8895238629466702,-0.23334759701711477,-0.07925411869127252
9814,8.0,300.39871,2510.038,0.0,0.0,0.0,-0.09952518399957139,0.0,0.0,-0.17527496098829182,-0.3001816952031267,-0.28753223029222175,-0.8796858022932292,-0.24300899751562077,-0.0964557819289445
9815,8.0,300.12565,2456.5632,0.0,0.0,0.0,-0.09953532514324366,0.0,0.0,-0.1789047369540228,-0.2853132936332297,-0.28251584182964273,-0.9200318608700752,-0.2531363106751088,-0.08394424872765233
9816,8.0,300.60882000000004,2557.4379,0.0,0.0,0.0,-0.09954546628691593,0.0,0.0,-0.18449015654026082,-0.2918484122731957,-0.3010587138271817,-0.9229076673038952,-0.24744337512075976,-0.07073895736839153
9817,8.0,300.68916,2375.1736,0.0,0.0,0.0,-0.09955560743058818,0.0,0.0,-0.16461324959356283,-0.2704150417153868,-0.28696517500625773,-0.9397064217718031,-0.1989460538619468,-0.08096882055725042
9818,8.0,301.22684,2436.5613,0.0,0.0,0.0,-0.09956574857426045,0.0,0.0,-0.1259556709833569,-0.2622222053818168,-0.35247592803166566,-0.9235365916409652,-0.19281426955678682,-0.07298799262160402
9819,8.0,299.89155,2783.0127,0.0,0.0,0.0,-0.0995758897179327,0.0,0.0,-0.17284361671083684,-0.3122343862026347,-0.36088834579440665,-0.9407703445093042,-0.2164310724900838,-0.05474623018278225
9820,8.0,300.46463,2783.1531,0.0,0.0,0.0,-0.09958603086160497,0.0,0.0,-0.19416008860460882,-0.27868317266388776,-0.3731657857985956,-0.944004284190969,-0.23905170872006676,-0.03772605523677176
9821,8.0,300.33837,2853.6948,0.0,0.0,0.0,-0.09959617200527723,0.0,0.0,-0.20826632344928583,-0.3139627983557157,-0.3452228507683427,-0.939227083546996,-0.2237311848230488,-0.07326329368702413
9822,8.0,300.68498999999997,3094.869,0.0,0.0,0.0,-0.0996063131489495,0.0,0.0,-0.2365965733302638,-0.3276286139119267,-0.37653770987887863,-0.8906359353289233,-0.22937934485547878,-0.07020587635828053
9823,8.0,299.98044,2627.0398,0.0,0.0,0.0,-0.09961645429262175,0.0,0.0,-0.18514601306498882,-0.2976613470368877,-0.3157471419143167,-0.8998716187979141,-0.24646056305376376,-0.0973282926033046
9824,8.0,299.86232,2345.3532,0.0,0.0,0.0,-0.09962659543629401,0.0,0.0,-0.1149776229074079,-0.3006738003791937,-0.29727740630899574,-0.895387024517819,-0.23915259803252376,-0.08664066429751782
9825,8.0,299.65716000000003,2496.3855,0.0,0.0,0.0,-0.09963673657996627,0.0,0.0,-0.16381872979264986,-0.26885077607850577,-0.3261693513829087,-0.893618477528277,-0.21884060149288578,-0.08386496596032772
9826,8.0,300.14979,2602.4533,0.0,0.0,0.0,-0.09964687772363855,0.0,0.0,-0.16498696662794585,-0.30352511655809666,-0.3225687266225547,-0.8991936430235031,-0.2158814349733388,-0.07871943269300312
9827,8.0,299.73292000000004,2292.0433,0.0,0.0,0.0,-0.09965701886731079,0.0,0.0,-0.13212315208953987,-0.2958705896051537,-0.26873018918410474,-0.9163361932503411,-0.24765764711940677,-0.1185426116617449
9828,8.0,299.81629,2621.1886,0.0,0.0,0.0,-0.09966716001098307,0.0,0.0,-0.17311307030992984,-0.28532278778666675,-0.33834003535656165,-0.9393344981900971,-0.25787140064492575,-0.07867577782569472
9829,8.0,299.68991,2949.4109,0.0,0.0,0.0,-0.09967730115465531,0.0,0.0,-0.22082969249919382,-0.3267040839906827,-0.34901348018744865,-0.942762120628377,-0.2248199321879998,-0.09235597849357541
9830,8.0,300.88425,2764.6084,0.0,0.0,0.0,-0.09968744229832759,0.0,0.0,-0.16259828017970085,-0.2942083021535987,-0.3835653389949516,-0.9021581493710771,-0.22961997148922678,-0.06327425268918253
9831,8.0,301.31599,2710.5062,0.0,0.0,0.0,-0.09969758344199985,0.0,0.0,-0.15677371330486087,-0.3080262977423287,-0.35912619241299565,-0.939145618238956,-0.23227430171618876,-0.06635941077916394
9832,8.0,301.45848,2717.7802,0.0,0.0,0.0,-0.0997077245856721,0.0,0.0,-0.17014143068165183,-0.2950825546048807,-0.36091335280687464,-0.9049484374964571,-0.2164894964908498,-0.04492271270802655
9833,8.0,299.68017000000003,2465.0537,0.0,0.0,0.0,-0.09971786572934437,0.0,0.0,-0.15827159079518985,-0.26502188633562374,-0.3260212851457957,-0.9102675648239141,-0.19854688398505183,-0.07843008190169642
9834,8.0,299.71594,2511.074,0.0,0.0,0.0,-0.09972800687301663,0.0,0.0,-0.16115048764181483,-0.2973066183093787,-0.3048466885310257,-0.8788597501492041,-0.2159836313784248,-0.08935890223478701
9835,8.0,299.2068,2551.2395,0.0,0.0,0.0,-0.09973814801668889,0.0,0.0,-0.17991128947086182,-0.2820798200466107,-0.3135220041647127,-0.9128865934173921,-0.26515024485829175,-0.06517154323643053
9836,8.0,300.66534,2332.8951,0.0,0.0,0.0,-0.09974828916036116,0.0,0.0,-0.11490854964809089,-0.2755877341383917,-0.3186455843553707,-0.8973262230892033,-0.2737384716458838,-0.07303621420711313
9837,8.0,299.55147999999997,2486.8587,0.0,0.0,0.0,-0.0997584303040334,0.0,0.0,-0.13332683241333387,-0.2938357807543337,-0.3287803246380917,-0.9318748597613881,-0.2399100632772798,-0.05237486423174665
9838,8.0,299.22436,2961.4232,0.0,0.0,0.0,-0.09976857144770568,0.0,0.0,-0.2176917278670008,-0.30282626783162575,-0.37968073062907065,-0.9154909602819231,-0.22925072288778478,-0.05094034425692055
9839,8.0,299.41722000000004,2940.5312,0.0,0.0,0.0,-0.09977871259137792,0.0,0.0,-0.2026350036335178,-0.3241510078462137,-0.36706203812370264,-0.9439827526263441,-0.23369344967374778,-0.07155356789228734
9840,8.0,300.9565,2646.3491,0.0,0.0,0.0,-0.0997888537350502,0.0,0.0,-0.16913210185953884,-0.2977129012019757,-0.33757905413395867,-0.9057915730371681,-0.23164149663123576,-0.08269857425346383
9841,8.0,300.99951,2642.4895,0.0,0.0,0.0,-0.09979899487872246,0.0,0.0,-0.16996714153195083,-0.26988507138308276,-0.36339862225465164,-0.9171189796150961,-0.20338698719523282,-0.06415712283256504
9842,8.0,300.15103,2771.4867,0.0,0.0,0.0,-0.09980913602239472,0.0,0.0,-0.16918298727956085,-0.3164997638235947,-0.35678002193894665,-0.8873021702474062,-0.2210480276307418,-0.07323082915382013
9843,8.0,300.1173,2455.0332,0.0,0.0,0.0,-0.09981927716606698,0.0,0.0,-0.15840164144552485,-0.26462292924124975,-0.3232441996692187,-0.9276629918782091,-0.2213099933115958,-0.07563507405735062
9844,8.0,299.79323999999997,2382.8043,0.0,0.0,0.0,-0.09982941830973924,0.0,0.0,-0.13257913489954187,-0.2918470241205587,-0.29988685968902873,-0.9113438694776372,-0.2161728558345998,-0.07917709547167093
9845,8.0,300.27925,2440.3428,0.0,0.0,0.0,-0.0998395594534115,0.0,0.0,-0.14817819111654887,-0.3012674433477817,-0.2923576211109507,-0.9156648745290871,-0.2088630061681738,-0.0871372460125266
9846,8.0,299.49393,2405.036,0.0,0.0,0.0,-0.09984970059708377,0.0,0.0,-0.16507125890376484,-0.26288880235760476,-0.30311082898970965,-0.9171283825760242,-0.2247545066290428,-0.10234769345843091
9847,8.0,299.00146,2885.2376,0.0,0.0,0.0,-0.09985984174075602,0.0,0.0,-0.2047895178511518,-0.34714816781335667,-0.3251025003526187,-0.9118765451877081,-0.27689678234008475,-0.1024194011680079
9848,8.0,299.21001,3018.8578,0.0,0.0,0.0,-0.09986998288442829,0.0,0.0,-0.22380278107511478,-0.3030955694432037,-0.3907590499349156,-0.8902581146316352,-0.2729015473282857,-0.061767155636193644
9849,8.0,299.35511,2674.18,0.0,0.0,0.0,-0.09988012402810054,0.0,0.0,-0.18345015663762082,-0.2867022771353117,-0.34273152208496765,-0.8931904401560331,-0.22500372562363877,-0.05950475662741224
9850,8.0,299.65547999999995,2585.0657,0.0,0.0,0.0,-0.0998902651717728,0.0,0.0,-0.17449682544149583,-0.28120560812533274,-0.3300929901426417,-0.9045999807870672,-0.22463346377209678,-0.07247318861679683
9851,8.0,300.10634,2865.7208,0.0,0.0,0.0,-0.09990040631544508,0.0,0.0,-0.2140131335114518,-0.27735091090240377,-0.3797435318702686,-0.9457532754535811,-0.22064551402851681,-0.06004895501762045
9852,8.0,299.49975,2433.2143,0.0,0.0,0.0,-0.09991054745911733,0.0,0.0,-0.14520396770051586,-0.28230107333844673,-0.3121313690649677,-0.9439166177923171,-0.1925245104256898,-0.06746781114305453
9853,8.0,299.32018,2155.5763,0.0,0.0,0.0,-0.09992068860278959,0.0,0.0,-0.11364384127077388,-0.2564203555742187,-0.28517715334979377,-0.9162409477409411,-0.2043902669142488,-0.09799322886217872
9854,8.0,299.31692999999996,2621.7183,0.0,0.0,0.0,-0.09993082974646185,0.0,0.0,-0.16473340079042084,-0.2986809299500127,-0.3335225782861157,-0.9113779146809972,-0.22465437725416076,-0.07795661039496843
9855,8.0,299.90851000000004,2737.5559999999996,0.0,0.0,0.0,-0.09994097089013411,0.0,0.0,-0.1986460507723388,-0.3284552334760077,-0.30504738297833267,-0.9266156256473421,-0.25583867908931174,-0.1027216334078359
9856,8.0,300.28707,2459.1776,0.0,0.0,0.0,-0.09995111203380637,0.0,0.0,-0.14875750672872287,-0.2976750867082437,-0.30109600143086174,-0.8977334280393913,-0.24750050216139777,-0.08827614115142682
9857,8.0,299.80807999999996,2626.607,0.0,0.0,0.0,-0.09996125317747863,0.0,0.0,-0.17010673699822784,-0.3160271434469507,-0.3122890510455297,-0.9043640556337831,-0.2110116131377248,-0.09103000394896192
9858,8.0,300.12712999999997,2776.9033,0.0,0.0,0.0,-0.09997139432115089,0.0,0.0,-0.2014979242387968,-0.28975121761371875,-0.35286011193958167,-0.9064667522413031,-0.21672073029617078,-0.05997743171956165
9859,8.0,300.95358999999996,2589.6622,0.0,0.0,0.0,-0.09998153546482315,0.0,0.0,-0.15901921738147484,-0.27401363997554073,-0.35415978757784966,-0.9466778155073261,-0.2335477544418688,-0.05854149319459554
9860,8.0,300.58361,2637.1687,0.0,0.0,0.0,-0.09999167660849541,0.0,0.0,-0.15481654980920384,-0.2948891859557967,-0.35192770906506066,-0.9235972954544561,-0.23624041592011377,-0.04990721925620904
9861,8.0,299.99998,2784.6984,0.0,0.0,0.0,-0.10000181775216767,0.0,0.0,-0.2016456257058738,-0.27018177127736476,-0.37465140296271465,-0.895848012783315,-0.23711450625137975,-0.04665956624769066
9862,8.0,299.57055,2657.3896,0.0,0.0,0.0,-0.10001195889583994,0.0,0.0,-0.17831083054040883,-0.3032913597600267,-0.3261778829487507,-0.9077303663085121,-0.2469299005000838,-0.0912883036909541
9863,8.0,298.81026,2612.9505,0.0,0.0,0.0,-0.10002210003951219,0.0,0.0,-0.1905189237077538,-0.2870966138092297,-0.3166561691090307,-0.9238481052517091,-0.24992942477111374,-0.07998793366544442
9864,8.0,299.49554,2724.0344,0.0,0.0,0.0,-0.10003224118318446,0.0,0.0,-0.19791555824524482,-0.30212480491989674,-0.3279980854283907,-0.9253893802438211,-0.2250693437001148,-0.06972500508607223
9865,8.0,299.1309,2508.6778,0.0,0.0,0.0,-0.10004238232685671,0.0,0.0,-0.15593510699209687,-0.2941192779998127,-0.31252102452342373,-0.912246492931719,-0.1966418522070398,-0.07029913995048494
9866,8.0,299.41856,2498.7997,0.0,0.0,0.0,-0.10005252347052898,0.0,0.0,-0.15708103206019086,-0.2744301566941477,-0.3280615148846507,-0.9041078148159941,-0.2056354600946398,-0.08162869968487543
9867,8.0,300.56802999999996,2896.1859999999997,0.0,0.0,0.0,-0.10006266461420123,0.0,0.0,-0.23537385403709077,-0.2979676728071197,-0.3470266892588677,-0.9218384452683711,-0.25707723548154776,-0.044677168771543256
9868,8.0,300.87564,2730.7549,0.0,0.0,0.0,-0.1000728057578735,0.0,0.0,-0.18085028860353383,-0.30463325752996173,-0.3445977463841497,-0.9232651926016802,-0.2550896846153918,-0.05401366758573395
9869,8.0,300.52154,2473.1612,0.0,0.0,0.0,-0.10008294690154575,0.0,0.0,-0.15986080264953284,-0.28099556137960274,-0.31092289606820067,-0.9111958843005321,-0.23189482942123776,-0.06688300878158904
9870,8.0,300.57785,2989.8357,0.0,0.0,0.0,-0.10009308804521802,0.0,0.0,-0.2066582651430828,-0.3190671267944737,-0.3831100147975146,-0.9147003212288931,-0.22928332927600278,-0.07331719453934372
9871,8.0,299.93885,3030.8503,0.0,0.0,0.0,-0.10010322918889028,0.0,0.0,-0.2005154465443338,-0.3180001237766687,-0.40278724054700565,-0.9155054497583531,-0.21520216223879982,-0.07398016711952403
9872,8.0,299.59271,2518.7236,0.0,0.0,0.0,-0.10011337033256254,0.0,0.0,-0.12755539024123688,-0.29169997113354573,-0.34637373062942567,-0.9147859408623431,-0.19290013237026082,-0.0990001420960533
9873,8.0,299.22356,2475.417,0.0,0.0,0.0,-0.1001235114762348,0.0,0.0,-0.14863305935144086,-0.2953137478801977,-0.3085181496058707,-0.9053908934176242,-0.2177270092354828,-0.09146824170996261
9874,8.0,300.12445,2545.97,0.0,0.0,0.0,-0.10013365261990706,0.0,0.0,-0.15883692355598386,-0.31251472210780173,-0.3025596513328127,-0.9067626516680061,-0.2323136563500728,-0.08499668627526982
9875,8.0,300.14937000000003,2426.4166,0.0,0.0,0.0,-0.10014379376357932,0.0,0.0,-0.15884900149717585,-0.29778808435939574,-0.2809329526559237,-0.92875771741875,-0.2647825161319997,-0.07558689604159582
9876,8.0,299.47421,2544.1931,0.0,0.0,0.0,-0.1001539349072516,0.0,0.0,-0.16586923388751884,-0.2858835609220107,-0.3216183689562617,-0.918244386368665,-0.23595870199481078,-0.06771565211751453
9877,8.0,300.5491,2897.071,0.0,0.0,0.0,-0.10016407605092384,0.0,0.0,-0.18570788051044082,-0.30847703191681275,-0.38645233170987564,-0.9237732969968261,-0.1995195230210438,-0.048240942639010354
9878,8.0,301.87021,2770.8491,0.0,0.0,0.0,-0.10017421719459611,0.0,0.0,-0.16450946238581984,-0.32321499780133667,-0.3545444882433167,-0.932542855022314,-0.2113755624411438,-0.06736849844775314
9879,8.0,301.2524,2873.8259999999996,0.0,0.0,0.0,-0.10018435833826836,0.0,0.0,-0.2056997102834808,-0.3023717846317717,-0.36549983951702564,-0.918327756586893,-0.25008372249634175,-0.05117290643312265
9880,8.0,300.63658,3129.8395,0.0,0.0,0.0,-0.10019449948194063,0.0,0.0,-0.24600657634645876,-0.3342844613013077,-0.3711020385249197,-0.9166206226859122,-0.2605806490273077,-0.06020759046652654
9881,8.0,299.86978999999997,2655.8459999999995,0.0,0.0,0.0,-0.1002046406256129,0.0,0.0,-0.1936515282469178,-0.2904095059386867,-0.3232498434722757,-0.8837523397145651,-0.2519576272312818,-0.06746885073765714
9882,8.0,300.25286,2410.8244,0.0,0.0,0.0,-0.10021478176928515,0.0,0.0,-0.12559429533519187,-0.3062880469307767,-0.3009480567837607,-0.9335493366116461,-0.22576398743867077,-0.1024351470745619
9883,8.0,300.55003999999997,2634.2497,0.0,0.0,0.0,-0.10022492291295743,0.0,0.0,-0.15383248131208385,-0.30150174730090573,-0.3454119029720007,-0.9467362395080922,-0.23185240463955079,-0.06979104974084033
9884,8.0,300.2435,2369.8278,0.0,0.0,0.0,-0.10023506405662967,0.0,0.0,-0.14823359563201688,-0.27527212699724374,-0.2968627742355747,-0.958011899403413,-0.2003569033011868,-0.0981692425635499
9885,8.0,300.00262000000004,2225.9496,0.0,0.0,0.0,-0.10024520520030195,0.0,0.0,-0.1137539106291369,-0.2821212923732037,-0.2807578833036457,-0.9186481867985171,-0.2049234391168688,-0.08936277690316942
9886,8.0,300.65053,2751.3842,0.0,0.0,0.0,-0.1002553463439742,0.0,0.0,-0.18401655331101982,-0.32839297938986367,-0.32394256203564165,-0.9217916229812501,-0.23836691377248279,-0.08495703881210692
9887,8.0,299.86555,3062.4624,0.0,0.0,0.0,-0.10026548748764647,0.0,0.0,-0.23457441997319278,-0.3366224447145487,-0.35971524535863064,-0.9267614120717301,-0.2854066646299447,-0.06703729536106594
9888,8.0,298.7777,2739.1089,0.0,0.0,0.0,-0.10027562863131873,0.0,0.0,-0.18230947007254383,-0.2984445488341837,-0.3518667114090407,-0.9062224779071951,-0.26874260149782975,-0.08060409510425483
9889,8.0,298.66679,2870.9513,0.0,0.0,0.0,-0.10028576977499098,0.0,0.0,-0.18912014207720482,-0.30958038021570466,-0.37399698525312863,-0.8750361698368462,-0.2356264167570168,-0.08460880197798862
9890,8.0,298.63097,2913.572,0.0,0.0,0.0,-0.10029591091866324,0.0,0.0,-0.2133532037213218,-0.2923035540856147,-0.3799963884327236,-0.8989711636990461,-0.21318678752489778,-0.07300512870729522
9891,8.0,297.76017,2453.1217,0.0,0.0,0.0,-0.10030605206233552,0.0,0.0,-0.13061916470110788,-0.27299426984493674,-0.34207430780510567,-0.9225242332010531,-0.2417082478322468,-0.0945602443043695
9892,8.0,298.82995,2358.0634,0.0,0.0,0.0,-0.10031619320600776,0.0,0.0,-0.14640655371420186,-0.27141307279888477,-0.2989727662438147,-0.9469040742546562,-0.2340157847955598,-0.06855348532045225
9893,8.0,299.63145,2592.4103,0.0,0.0,0.0,-0.10032633434968004,0.0,0.0,-0.18559688909448682,-0.27356911702416975,-0.32886198246365067,-0.9141641396734762,-0.2104451961993238,-0.07243165144219743
9894,8.0,299.87335,2491.1359,0.0,0.0,0.0,-0.10033647549335228,0.0,0.0,-0.16589833443039084,-0.27365477718762377,-0.3176899983185617,-0.918516281900499,-0.23106044836139078,-0.07306486284044053
9895,8.0,300.33353,2641.032,0.0,0.0,0.0,-0.10034661663702456,0.0,0.0,-0.16969229744232583,-0.30789873968723974,-0.3252167544338947,-0.9434189194756981,-0.25530405793904876,-0.07328940615535122
9896,8.0,299.58155,2971.0577,0.0,0.0,0.0,-0.10035675778069682,0.0,0.0,-0.23394944731151276,-0.3021096061683967,-0.3670683101418217,-0.930411564496972,-0.2279550090574078,-0.05787390829996004
9897,8.0,299.12702,2831.0274,0.0,0.0,0.0,-0.10036689892436908,0.0,0.0,-0.19466617663205582,-0.3143859417299767,-0.35150951035128764,-0.897083174787716,-0.1881957236134718,-0.09581813046876321
9898,8.0,301.08141,2761.6884,0.0,0.0,0.0,-0.10037704006804134,0.0,0.0,-0.1978690399331538,-0.3108545320839537,-0.3307607320910427,-0.896374578595283,-0.18481530849735084,-0.06852458844085034
9899,8.0,298.96648,2842.8217,0.0,0.0,0.0,-0.1003871812117136,0.0,0.0,-0.18445408483670084,-0.3131988381778187,-0.36649389866013166,-0.9351428649114152,-0.2564507936072227,-0.06785038094356123
9900,8.0,300.12491,2774.6311,0.0,0.0,0.0,-0.10039732235538587,0.0,0.0,-0.17238861675343184,-0.29712221692367974,-0.37390772805181965,-0.9233692128569462,-0.25820250038010273,-0.048269263992555454
9901,8.0,300.78067000000004,2385.4237,0.0,0.0,0.0,-0.10040746349905813,0.0,0.0,-0.11928361159237588,-0.27141475479405075,-0.3344108642512827,-0.9204927782080642,-0.26831402710303276,-0.09157192252644511
9902,8.0,300.76276,2546.613,0.0,0.0,0.0,-0.10041760464273038,0.0,0.0,-0.16289445318393084,-0.28683607681101675,-0.3243762330784417,-0.9138955676019701,-0.25398557637892477,-0.08501363085669211
9903,8.0,300.16155,2871.6895,0.0,0.0,0.0,-0.10042774578640265,0.0,0.0,-0.20211482129717978,-0.3147648871348757,-0.35604219348112864,-0.9141272472373351,-0.2562413142815488,-0.08473253602720021
9904,8.0,300.25937999999996,2588.5245,0.0,0.0,0.0,-0.1004378869300749,0.0,0.0,-0.18516573091193483,-0.2904220499749247,-0.3112590215238737,-0.9172517153781962,-0.1975537367670358,-0.08285178070833413
9905,8.0,298.58926,2620.0862,0.0,0.0,0.0,-0.10044802807374717,0.0,0.0,-0.15969390009306084,-0.30019322598926473,-0.33655365516525965,-0.9103453722990932,-0.19828865719706681,-0.08560878356792911
9906,8.0,300.97366,3145.4387,0.0,0.0,0.0,-0.10045816921741943,0.0,0.0,-0.21913623747456276,-0.3278536972891407,-0.4091448782994556,-0.9348970200396521,-0.2045111881811828,-0.06458042934009214
9907,8.0,299.89385,2789.2891,0.0,0.0,0.0,-0.10046831036109169,0.0,0.0,-0.18568016812020582,-0.3090243085608247,-0.35316976117014165,-0.9251176063019992,-0.2379917477904568,-0.06845153918814094
9908,8.0,298.99556,2602.7156,0.0,0.0,0.0,-0.10047845150476395,0.0,0.0,-0.17422666256733285,-0.2772214378046257,-0.33971246235200964,-0.9450049395922261,-0.23704609160462775,-0.05648996470387545
9909,8.0,300.36625,2912.7976,0.0,0.0,0.0,-0.10048859264843621,0.0,0.0,-0.2396223103813808,-0.2735710421993597,-0.37222439539568764,-0.8985597233634401,-0.2216503136226828,-0.05480031645987015
9910,8.0,299.77842999999996,2734.9635,0.0,0.0,0.0,-0.10049873379210847,0.0,0.0,-0.19525959668562182,-0.3021324144281477,-0.3339686008476347,-0.940680286840416,-0.23624538084560376,-0.06354684432383523
9911,8.0,299.71173999999996,2524.9048,0.0,0.0,0.0,-0.10050887493578074,0.0,0.0,-0.13382271701227388,-0.29728794411003573,-0.33639734107233266,-0.9066272611896441,-0.24308855791347275,-0.06198540768123344
9912,8.0,300.07477,2596.7514,0.0,0.0,0.0,-0.10051901607945299,0.0,0.0,-0.16742341768590485,-0.27674512919761773,-0.34517903783401865,-0.9336574199998132,-0.2297149434210998,-0.07549213587899373
9913,8.0,300.67577,2507.7554,0.0,0.0,0.0,-0.10052915722312526,0.0,0.0,-0.14318171301843485,-0.28892501348217875,-0.3301882761820457,-0.8977563984191581,-0.2219648061887208,-0.09226651458924601
9914,8.0,300.88366,2329.2247,0.0,0.0,0.0,-0.10053929836679751,0.0,0.0,-0.14729630889201384,-0.2862448048476627,-0.2744850343195637,-0.933369879886435,-0.23376899760120376,-0.10799085816786791
9915,8.0,300.79413999999997,2763.3728,0.0,0.0,0.0,-0.10054943951046978,0.0,0.0,-0.2061685005747468,-0.3216444398813347,-0.3121833893251017,-0.9454921609028111,-0.22095124198118982,-0.09012793271618443
9916,8.0,300.37234,2868.8826,0.0,0.0,0.0,-0.10055958065414204,0.0,0.0,-0.24077469998511278,-0.29430845179348275,-0.3369855124903807,-0.928563690157101,-0.2115757603959018,-0.06249818214609034
9917,8.0,300.32445,2689.4503,0.0,0.0,0.0,-0.1005697217978143,0.0,0.0,-0.16199368397753186,-0.30723911387213976,-0.3482929479088377,-0.942801181419732,-0.2101812040182698,-0.06879570579660753
9918,8.0,299.37234,2757.8348,0.0,0.0,0.0,-0.10057986294148656,0.0,0.0,-0.1868608476667298,-0.2990207639010517,-0.3524313044972617,-0.9506879250305931,-0.24336963349121274,-0.06421005501778904
9919,8.0,299.16909,2879.4368,0.0,0.0,0.0,-0.10059000408515882,0.0,0.0,-0.18225960803512284,-0.29104088234099873,-0.40197638715448064,-0.9244503709786481,-0.2842640731546797,-0.045727091432412555
9920,8.0,299.37523999999996,2645.6226,0.0,0.0,0.0,-0.10060014522883108,0.0,0.0,-0.17737660381570783,-0.2991648278002697,-0.3276617573226977,-0.909899045762544,-0.24195227898633076,-0.06546436339607964
9921,8.0,299.12563,2604.0064,0.0,0.0,0.0,-0.10061028637250335,0.0,0.0,-0.1900451583584968,-0.27967440483921474,-0.3218333603624797,-0.8912662072886262,-0.2380783097464998,-0.06358093411019963
9922,8.0,299.69575,2804.8366,0.0,0.0,0.0,-0.1006204275161756,0.0,0.0,-0.2078963655727738,-0.3086970085135227,-0.3360069256763017,-0.9260643567979361,-0.25168276287665475,-0.09727975893676472
9923,8.0,300.37297,2666.2792,0.0,0.0,0.0,-0.10063056865984787,0.0,0.0,-0.15185453605687585,-0.3028466645561387,-0.35578109919536066,-0.9561669026938261,-0.2373311796527638,-0.08319297038800692
9924,8.0,300.48014,2463.785,0.0,0.0,0.0,-0.10064070980352012,0.0,0.0,-0.15005629070690285,-0.2931144986706487,-0.3057583096459957,-0.9350300800427841,-0.23076315064954978,-0.1161445019875699
9925,8.0,300.29265,2708.9069,0.0,0.0,0.0,-0.1006508509471924,0.0,0.0,-0.16476387935342884,-0.30546798309484274,-0.3532081937464347,-0.9248752774080831,-0.21192794586565983,-0.07982890507549953
9926,8.0,298.96303,2667.5789,0.0,0.0,0.0,-0.10066099209086467,0.0,0.0,-0.2081055814534218,-0.29853047244266373,-0.3042413222587807,-0.9280600541948961,-0.23448432177430079,-0.1061496712786569
9927,8.0,299.29595,2568.0455,0.0,0.0,0.0,-0.10067113323453691,0.0,0.0,-0.1973015793471498,-0.28200176939140775,-0.30131834903280574,-0.9257713552665191,-0.24997006623262474,-0.07033577806085084
9928,8.0,298.84647,2816.6602,0.0,0.0,0.0,-0.10068127437820919,0.0,0.0,-0.1985319790760808,-0.3053715419503247,-0.35229083763589863,-0.9158598035833251,-0.20698421756775182,-0.08070906578811463
9929,8.0,299.17631,2801.6064,0.0,0.0,0.0,-0.10069141552188143,0.0,0.0,-0.18878578980920682,-0.28735348284208073,-0.37547910670440265,-0.9330228417271851,-0.19707622239240882,-0.05319038364098215
9930,8.0,299.06897000000004,2575.2448,0.0,0.0,0.0,-0.10070155666555371,0.0,0.0,-0.15358831843548687,-0.27198564016539273,-0.35723617700146565,-0.9316200780237431,-0.2147096821601958,-0.08529726489093462
9931,8.0,298.83985,2682.4397,0.0,0.0,0.0,-0.10071169780922597,0.0,0.0,-0.15114928358977286,-0.2995643827122027,-0.36468103211121566,-0.9509235664738491,-0.23917458555969376,-0.07178783739490793
9932,8.0,300.31458,2642.1298,0.0,0.0,0.0,-0.10072183895289821,0.0,0.0,-0.18769736668428783,-0.2797157961057997,-0.3357283224288057,-0.9033736036610331,-0.23310060717273878,-0.05712954235249685
9933,8.0,301.22289,2471.7516,0.0,0.0,0.0,-0.10073198009657049,0.0,0.0,-0.16380757390904885,-0.29188400774920875,-0.29565918510428973,-0.9298537500519202,-0.23462640983582375,-0.08617549536210922
9934,8.0,299.32417000000004,2681.112,0.0,0.0,0.0,-0.10074212124024273,0.0,0.0,-0.1883673681804118,-0.2994199540429487,-0.3272037682774977,-0.9093416771475361,-0.25941889699265175,-0.099553393875905
9935,8.0,299.95984,2951.085,0.0,0.0,0.0,-0.100752262383915,0.0,0.0,-0.20903936234807877,-0.31383597997319973,-0.3741808192187716,-0.9300857539273171,-0.25519685607846876,-0.06627101484043993
9936,8.0,301.33471000000003,2617.5232,0.0,0.0,0.0,-0.10076240352758728,0.0,0.0,-0.15713699386321386,-0.30325389990382967,-0.3352707994786517,-0.9189761555908851,-0.21822091799672777,-0.07559256112290492
9937,8.0,300.16339,2638.7159,0.0,0.0,0.0,-0.10077254467125953,0.0,0.0,-0.14902388004751185,-0.2881187095826027,-0.36496115523386163,-0.936278414298485,-0.2000336663867858,-0.05970569628124345
9938,8.0,300.0104,3033.4052,0.0,0.0,0.0,-0.1007826858149318,0.0,0.0,-0.23560585791248775,-0.3258023521966887,-0.3606712265629787,-0.9433087082623212,-0.22327789725831276,-0.06713231491569364
9939,8.0,299.69982000000005,2763.9196,0.0,0.0,0.0,-0.10079282695860405,0.0,0.0,-0.20331254371038582,-0.29551179774474373,-0.3413382120049587,-0.9201971624913893,-0.22058616797015979,-0.05599290270831925
9940,8.0,299.02572000000004,2447.8255,0.0,0.0,0.0,-0.10080296810227632,0.0,0.0,-0.13823104395734187,-0.2906252167524757,-0.3152215589549457,-0.9148949868381052,-0.23363799449577477,-0.08989505744570142
9941,8.0,300.06255,2618.6398,0.0,0.0,0.0,-0.10081310924594858,0.0,0.0,-0.16019876208788686,-0.2819555145243427,-0.3538468250194627,-0.9311774295850572,-0.21788450883102678,-0.07525701423303902
9942,8.0,299.40186,2633.4429999999998,0.0,0.0,0.0,-0.10082325038962084,0.0,0.0,-0.15346557331837285,-0.2940425344372387,-0.3529928173051786,-0.9343950052776071,-0.25576101346914676,-0.0990491033541354
9943,8.0,299.48085,2604.428,0.0,0.0,0.0,-0.1008333915332931,0.0,0.0,-0.15095331088793187,-0.3015108868168077,-0.33921689186060067,-0.933819722400831,-0.23993598221483778,-0.06517934120920015
9944,8.0,301.12926,2764.0767,0.0,0.0,0.0,-0.10084353267696536,0.0,0.0,-0.20749969842362578,-0.29885554333974573,-0.3338550560414287,-0.9114213527127841,-0.2061030750157898,-0.07121245623287223
9945,8.0,301.34436,2788.3247,0.0,0.0,0.0,-0.10085367382063762,0.0,0.0,-0.1980676166877518,-0.2872011204245437,-0.36231233708744365,-0.9121680268439751,-0.22079431993820278,-0.038015989660136064
9946,8.0,299.92815,2717.835,0.0,0.0,0.0,-0.10086381496430989,0.0,0.0,-0.17271795343343482,-0.33482506062716066,-0.3186109717319547,-0.9308094070162362,-0.24718547257280674,-0.08255761089955183
9947,8.0,300.26333999999997,2765.0681,0.0,0.0,0.0,-0.10087395610798214,0.0,0.0,-0.18531992731215283,-0.3051225256057487,-0.3500692057316407,-0.9434191018607161,-0.24425956092154177,-0.06097408680942385
9948,8.0,299.92646,2682.4767,0.0,0.0,0.0,-0.10088409725165441,0.0,0.0,-0.17931383668189785,-0.2986593983853877,-0.33743271042201567,-0.9173382672017381,-0.24542347117891075,-0.08867504049054512
9949,8.0,300.57023,2530.6479,0.0,0.0,0.0,-0.10089423839532666,0.0,0.0,-0.16103844244575685,-0.2879007594860927,-0.3203145693900867,-0.9227289603837581,-0.2180681502791508,-0.07636076985847122
9950,8.0,299.74292,2712.3524,0.0,0.0,0.0,-0.10090437953899893,0.0,0.0,-0.21160223662101482,-0.30071468502072873,-0.3121704703863267,-0.9281364532524362,-0.23958562059525976,-0.0879407280105741
9951,8.0,300.37028,2834.5814,0.0,0.0,0.0,-0.10091452068267119,0.0,0.0,-0.2014322656323168,-0.3057006455828047,-0.35450903462231764,-0.9098491837251231,-0.23358688616073078,-0.04941930994880616
9952,8.0,301.14803,2621.3269,0.0,0.0,0.0,-0.10092466182634345,0.0,0.0,-0.17286132832258483,-0.2821671014102247,-0.34178950346699766,-0.9267699740350752,-0.2197699139546018,-0.08757088868432382
9953,8.0,301.00345,2649.3340000000003,0.0,0.0,0.0,-0.10093480297001571,0.0,0.0,-0.1291555451966599,-0.3095308728158187,-0.36664496411754066,-0.9138885052487731,-0.21554074989221578,-0.08046607321538313
9954,8.0,299.72758,2801.7599,0.0,0.0,0.0,-0.10094494411368797,0.0,0.0,-0.17940819053120985,-0.3176581214704157,-0.35459873765367067,-0.9223417265930411,-0.2503459516222218,-0.10213580259751891
9955,8.0,299.29374,2766.0253,0.0,0.0,0.0,-0.10095508525736023,0.0,0.0,-0.17788438397082185,-0.3044178709562047,-0.35850035848873063,-0.9417807879065271,-0.2144616284032148,-0.05445377884616955
9956,8.0,299.21312,2589.4398,0.0,0.0,0.0,-0.1009652264010325,0.0,0.0,-0.1888507391406168,-0.3070695869979087,-0.29120471474966775,-0.9206128179474111,-0.2202401835910138,-0.06716461327588123
9957,8.0,298.85165,2658.6114,0.0,0.0,0.0,-0.10097536754470475,0.0,0.0,-0.17266553800576184,-0.2992788792315257,-0.3362070729685547,-0.9309202160471721,-0.23592653130413577,-0.04593681900436105
9958,8.0,298.88156000000004,2775.9579,0.0,0.0,0.0,-0.10098550868837702,0.0,0.0,-0.18231417155300783,-0.32398479429980964,-0.3375229099459177,-0.9152037545410782,-0.24869227679651676,-0.08625748756020123
9959,8.0,300.25606,2806.0963,0.0,0.0,0.0,-0.10099564983204927,0.0,0.0,-0.15961615341288785,-0.3266058392609867,-0.36676122443401465,-0.9305350695516611,-0.25008796801426075,-0.08170243085490213
9960,8.0,299.52765,2832.7729,0.0,0.0,0.0,-0.10100579097572154,0.0,0.0,-0.2036497128136618,-0.2959589450138737,-0.36148356943315063,-0.9172783841208281,-0.22810676352488476,-0.07322333110308013
9961,8.0,300.28109,2803.4989,0.0,0.0,0.0,-0.10101593211939379,0.0,0.0,-0.18656655930768584,-0.3106487612536457,-0.3549783416711347,-0.9228843118890901,-0.23268496184921778,-0.07346788306771553
9962,8.0,300.47117000000003,2594.2256,0.0,0.0,0.0,-0.10102607326306606,0.0,0.0,-0.20985633577120782,-0.28048782175449277,-0.29823566732606877,-0.8959199839379182,-0.23355263830735076,-0.07717016518410233
9963,8.0,300.14302000000004,2637.5845,0.0,0.0,0.0,-0.10103621440673832,0.0,0.0,-0.17050633244016483,-0.2690706918802097,-0.3621828031946596,-0.9259970769912961,-0.23192048491376976,-0.06580988370667984
9964,8.0,300.32198999999997,2663.0081,0.0,0.0,0.0,-0.10104635555041058,0.0,0.0,-0.15625543587871085,-0.28536648926347974,-0.3678660419455516,-0.930322965908228,-0.2230811848838988,-0.05325859867746445
9965,8.0,299.93829,2437.9697,0.0,0.0,0.0,-0.10105649669408284,0.0,0.0,-0.08943162218121392,-0.29283599674816274,-0.3588142836347127,-0.9467056494875732,-0.2148742846389408,-0.0931986600982416
9966,8.0,299.27745,2554.7238,0.0,0.0,0.0,-0.1010666378377551,0.0,0.0,-0.14596786708340687,-0.3225781194509817,-0.3080262673448257,-0.9163965018962931,-0.2366737019278758,-0.07362272997449773
9967,8.0,300.54392,2928.9076,0.0,0.0,0.0,-0.10107677898142736,0.0,0.0,-0.21346413434226982,-0.3269249927774847,-0.34992563832497164,-0.9210818210211981,-0.2193233847680328,-0.06540557158552734
9968,8.0,300.12063,2738.244,0.0,0.0,0.0,-0.10108692012509962,0.0,0.0,-0.22284095341768975,-0.28474711987485274,-0.32476972875477667,-0.9115403488045282,-0.2137776845857148,-0.048446876602584454
9969,8.0,300.62708,2707.1524,0.0,0.0,0.0,-0.10109706126877188,0.0,0.0,-0.16871987118885484,-0.3326376157812767,-0.3215492247694377,-0.928087614597616,-0.23750963326037577,-0.06912268869662823
9970,8.0,300.33853999999997,2818.8958,0.0,0.0,0.0,-0.10110720241244414,0.0,0.0,-0.16085626007777687,-0.30432035576658073,-0.3916973093950146,-0.930847464689992,-0.23879522472225376,-0.09153355378490842
9971,8.0,300.77577,2793.5082,0.0,0.0,0.0,-0.1011173435561164,0.0,0.0,-0.14909793849732086,-0.32884566913704066,-0.37121315153088563,-0.9346894658891681,-0.2331114996113138,-0.0952255098695261
9972,8.0,301.48773,2681.3418,0.0,0.0,0.0,-0.10112748469978866,0.0,0.0,-0.17775930837847784,-0.2773400083313277,-0.35996161712044566,-0.9120905436088281,-0.2186100769626348,-0.07903396376254493
9973,8.0,300.60193,2721.9586,0.0,0.0,0.0,-0.10113762584346092,0.0,0.0,-0.2063573703933868,-0.2785749778182097,-0.3424750988821607,-0.9392893781631442,-0.25223833803898577,-0.06717427562883484
9974,8.0,298.94035,2632.1473,0.0,0.0,0.0,-0.1011477669871332,0.0,0.0,-0.1957224189337988,-0.29611901826467174,-0.3082656071509467,-0.9104430698737352,-0.23134689416466078,-0.05266226856961125
9975,8.0,300.64355,2607.9415,0.0,0.0,0.0,-0.10115790813080544,0.0,0.0,-0.17082927551203683,-0.2889770540073147,-0.3329427763138937,-0.914366212140919,-0.25259643075682675,-0.05460220377381795
9976,8.0,300.09204,2795.5826,0.0,0.0,0.0,-0.10116804927447771,0.0,0.0,-0.17392676080273484,-0.2996013562083517,-0.37625917755888966,-0.9195769217076761,-0.2014988260313858,-0.04155406547856696
9977,8.0,299.95495,2782.2934,0.0,0.0,0.0,-0.10117819041814996,0.0,0.0,-0.15257511899799184,-0.3319796516963407,-0.36119295917196964,-0.9152362393392841,-0.22289196042772377,-0.0937355630877298
9978,8.0,299.37001000000004,2676.8501,0.0,0.0,0.0,-0.10118833156182223,0.0,0.0,-0.1800239223519778,-0.3143889105527697,-0.3192827768132567,-0.9342199764553332,-0.2232714428551758,-0.08449827564383051
9979,8.0,299.48672999999997,2801.2522,0.0,0.0,0.0,-0.10119847270549448,0.0,0.0,-0.2237905207489048,-0.3180403194081357,-0.3096799016405267,-0.9280168390781312,-0.2225299565644968,-0.0970726891198285
9980,8.0,300.09761000000003,2908.1779,0.0,0.0,0.0,-0.10120861384916675,0.0,0.0,-0.2638845536283777,-0.3077096976160827,-0.3124192232858767,-0.9558839019408961,-0.23318298440586877,-0.05229112519048225
9981,8.0,300.08997999999997,2557.0596,0.0,0.0,0.0,-0.10121875499283901,0.0,0.0,-0.15928621891532585,-0.2898738715383237,-0.3281221680356367,-0.9327550295932542,-0.24219200382748976,-0.1043296714490369
9982,8.0,299.63801,2344.4635,0.0,0.0,0.0,-0.10122889613651127,0.0,0.0,-0.1110908563188139,-0.27658688992950076,-0.3249806063655887,-0.9722202495931681,-0.24841956053210176,-0.0972079063324234
9983,8.0,300.63202,2630.4594,0.0,0.0,0.0,-0.10123903728018353,0.0,0.0,-0.11884947445452988,-0.31367875395518274,-0.36706573648656765,-0.8990051886374041,-0.23690159200786678,-0.12403901722669787
9984,8.0,300.12487999999996,2725.1661,0.0,0.0,0.0,-0.10124917842385579,0.0,0.0,-0.19936445522573978,-0.29189581211287374,-0.33712217966386865,-0.9300296604017811,-0.2268649951298318,-0.08284680261059282
9985,8.0,300.55701,2573.2105,0.0,0.0,0.0,-0.10125931956752805,0.0,0.0,-0.1849054168287438,-0.30243589296559875,-0.29485042913947174,-0.8741606710879412,-0.24324319001123376,-0.07975011272122333
9986,8.0,300.35627999999997,2676.5768,0.0,0.0,0.0,-0.10126946071120033,0.0,0.0,-0.22244685992379581,-0.2990718722360957,-0.2920937707849107,-0.9286167439323371,-0.23772653970928279,-0.05369479777926394
9987,8.0,299.38433,2786.945,0.0,0.0,0.0,-0.10127960185487257,0.0,0.0,-0.15856246450139685,-0.3331279477696687,-0.35547127771228365,-0.9365431461521122,-0.23146035791085878,-0.07443599794201103
9988,8.0,299.36917,2902.438,0.0,0.0,0.0,-0.10128974299854485,0.0,0.0,-0.18541828349935985,-0.32988434168204966,-0.36696606307423063,-0.9370536823474982,-0.2095548634689548,-0.05363020409863905
9989,8.0,299.24464,3109.103,0.0,0.0,0.0,-0.10129988414221709,0.0,0.0,-0.19512007214685181,-0.34846479512579764,-0.4015048205579406,-0.939428011041826,-0.2242502525842768,-0.07750989679688122
9990,8.0,298.66995,2786.8905,0.0,0.0,0.0,-0.10131002528588937,0.0,0.0,-0.2247939828529388,-0.30267437150913473,-0.3196767689821407,-0.9276146902459422,-0.18191477876109083,-0.07682921767120343
9991,8.0,300.18231000000003,2570.2916,0.0,0.0,0.0,-0.10132016642956164,0.0,0.0,-0.17780566457055283,-0.2896595691421737,-0.3138392527710227,-0.9351057090302481,-0.23978593000752876,-0.06161137856581964
9992,8.0,300.74507,2823.2024,0.0,0.0,0.0,-0.10133030757323389,0.0,0.0,-0.23499253762695776,-0.27898676265884975,-0.34420374408276466,-0.9274708897917502,-0.2242402923357938,-0.05852419600213844
9993,8.0,300.01772,2791.65,0.0,0.0,0.0,-0.10134044871690616,0.0,0.0,-0.17378918170415683,-0.28767136979595376,-0.3871313409993886,-0.9172866421091431,-0.25645134076227677,-0.08930774019748773
9994,8.0,300.75507999999996,2501.8895,0.0,0.0,0.0,-0.1013505898605784,0.0,0.0,-0.12732013383301888,-0.29246455952650474,-0.3407272627246627,-0.9171052298112391,-0.24044146229222477,-0.10777607954417089
9995,8.0,300.50036,2416.5267,0.0,0.0,0.0,-0.10136073100425066,0.0,0.0,-0.1156737459911099,-0.2926932602065757,-0.3261967597981137,-0.9280033628518012,-0.24558015004187375,-0.09583756967193172
9996,8.0,299.71864,2606.8696,0.0,0.0,0.0,-0.10137087214792294,0.0,0.0,-0.20221240741431082,-0.29203765699437273,-0.2981732105899047,-0.9509061284396282,-0.24228603343676977,-0.07514123521036252
9997,8.0,300.04656,2721.4337,0.0,0.0,0.0,-0.10138101329159518,0.0,0.0,-0.2139304827007948,-0.3071675378850757,-0.3061498902796417,-0.9061532323953612,-0.24653154122326876,-0.06997557676955174
9998,8.0,299.28645,2698.8263,0.0,0.0,0.0,-0.10139115443526746,0.0,0.0,-0.18829050302782582,-0.3007265704444017,-0.33135874216756167,-0.9345477324651801,-0.2294092154684268,-0.06438262062906994
9999,8.0,299.0978,2718.2509999999997,0.0,0.0,0.0,-0.1014012955789397,0.0,0.0,-0.13606789684885587,-0.3189743840128207,-0.37123813827835167,-0.9060064327208732,-0.22227503297183776,-0.06872152271703623
10000,8.0,299.38592,2704.2793,0.0,0.0,0.0,-0.10141143672261198,0.0,0.0,-0.13803953968844188,-0.3149896766695607,-0.36900417512037664,-0.9419658377722901,-0.19491509165162182,-0.04666083888981625
10001,8.0,299.62276,2850.8336,0.0,0.0,0.0,-0.10142157786628425,0.0,0.0,-0.18570472930262982,-0.3135823432081677,-0.36729514644170863,-0.9354359272378382,-0.2155173843449098,-0.09505762952670761
10002,8.0,299.40456,3111.5325,0.0,0.0,0.0,-0.1014317190099565,0.0,0.0,-0.26398785447607276,-0.3268768228677307,-0.35496351782217167,-0.9252711643546542,-0.2147245870691668,-0.06492198277655084
10003,8.0,301.03087,2719.0128,0.0,0.0,0.0,-0.10144186015362877,0.0,0.0,-0.2075503203986218,-0.2895400765578807,-0.3294216004938807,-0.9382962208126272,-0.25464362152386877,-0.07528428281973022
10004,8.0,299.47051,2355.7437,0.0,0.0,0.0,-0.10145200129730102,0.0,0.0,-0.16299109697846884,-0.24575914067203877,-0.3073370343618037,-0.9407686726466392,-0.23358243799279177,-0.06998894255162084
10005,8.0,299.92991,2706.1153,0.0,0.0,0.0,-0.10146214244097329,0.0,0.0,-0.1149965098892719,-0.3210236519425677,-0.3865713278016197,-0.9610869513368971,-0.2726691280203477,-0.08932851283778781
10006,8.0,300.5782,2924.7817,0.0,0.0,0.0,-0.10147228358464555,0.0,0.0,-0.21037911202780182,-0.3164112969573637,-0.36227018588328364,-0.9069646633404432,-0.21739241378746077,-0.08769130535270801
10007,8.0,300.80908,2805.245,0.0,0.0,0.0,-0.10148242472831781,0.0,0.0,-0.18269776777586583,-0.3338311940015737,-0.33619546112240867,-0.8998128198946111,-0.2342960092432158,-0.08128164328712362
10008,8.0,301.09463,2798.0315,0.0,0.0,0.0,-0.10149256587199007,0.0,0.0,-0.24860023315743277,-0.30763540611875073,-0.2942960597447597,-0.8894549011448643,-0.2044862723612238,-0.04274743699584355
10009,8.0,301.19795,2968.333,0.0,0.0,0.0,-0.10150270701566233,0.0,0.0,-0.2132701678756268,-0.3385713907518947,-0.3504575439649667,-0.924578709236314,-0.25416731291686073,-0.040526252948129754
10010,8.0,299.83625,2967.22,0.0,0.0,0.0,-0.10151284815933459,0.0,0.0,-0.18886954506247283,-0.33405634830629466,-0.3790348951478316,-0.9428339093979621,-0.23787266050620376,-0.05304207523709525
10011,8.0,300.90022,2965.849,0.0,0.0,0.0,-0.10152298930300686,0.0,0.0,-0.13771638383404886,-0.33315853779018767,-0.43066910699373157,-0.9271259997227121,-0.2035191048757718,-0.08739573827203782
10012,8.0,301.7566,2730.8031,0.0,0.0,0.0,-0.10153313044667911,0.0,0.0,-0.17214624732951184,-0.2882919956147047,-0.3696577214348767,-0.9676367114408082,-0.2137398700919828,-0.07523175796104643
10013,8.0,299.39425,2281.2992,0.0,0.0,0.0,-0.10154327159035138,0.0,0.0,-0.14112714579066485,-0.2593425283326148,-0.2929883186356957,-0.946582397745409,-0.24044276938485376,-0.1123156527746919
10014,8.0,299.16258999999997,2403.3614,0.0,0.0,0.0,-0.10155341273402363,0.0,0.0,-0.1984486493878568,-0.27289314748495674,-0.2592200466605268,-0.9786042115832161,-0.25498573528763274,-0.10906700070157489
10015,8.0,299.79269,2654.0018,0.0,0.0,0.0,-0.1015635538776959,0.0,0.0,-0.21090136139434382,-0.26441768530099374,-0.3314312199472147,-0.8864944883276942,-0.24518776894064875,-0.07971489113449723
10016,8.0,299.73565,2652.6614,0.0,0.0,0.0,-0.10157369502136816,0.0,0.0,-0.15709075926115085,-0.2963839932983227,-0.3528680862178687,-0.9161856952129881,-0.24926382078042375,-0.09141649300085541
10017,8.0,300.26687000000004,2638.4241,0.0,0.0,0.0,-0.10158383616504042,0.0,0.0,-0.11533835007550888,-0.3243030764212217,-0.36237362858599265,-0.8969071529803441,-0.26714903266805673,-0.07387499277239414
10018,8.0,299.87878,2897.458,0.0,0.0,0.0,-0.10159397730871268,0.0,0.0,-0.19433779240714683,-0.33184653089820265,-0.3545705591683897,-0.9436928313752311,-0.2309561241310948,-0.08961008693457702
10019,8.0,299.01428,3121.2599,0.0,0.0,0.0,-0.10160411845238494,0.0,0.0,-0.24182998983176177,-0.34313288058207864,-0.36382221145895666,-0.9314099198205021,-0.2072363243251328,-0.045343377672542956
10020,8.0,299.82412999999997,2762.5331,0.0,0.0,0.0,-0.1016142595960572,0.0,0.0,-0.2326808885838158,-0.3039181056093817,-0.30314209788779567,-0.9571483266081852,-0.20512288726655278,-0.037227317325550166
10021,8.0,301.91528,2606.3681,0.0,0.0,0.0,-0.10162440073972948,0.0,0.0,-0.15591558166266986,-0.3055768264205847,-0.33077839304028567,-0.9444585546083021,-0.25091601626098275,-0.03930862726320946
10022,8.0,301.79803,2529.8445,0.0,0.0,0.0,-0.10163454188340172,0.0,0.0,-0.12262537121718188,-0.2874837158774337,-0.3589004808207197,-0.9455268647187361,-0.22461501248777577,-0.060169515567518844
10023,8.0,300.63629,2494.5796,0.0,0.0,0.0,-0.101644683027074,0.0,0.0,-0.1168370685634209,-0.2689520200284977,-0.37250083028796965,-0.9176512702901292,-0.23093429872394078,-0.08490979501294432
10024,8.0,299.89799999999997,2866.3637,0.0,0.0,0.0,-0.10165482417074624,0.0,0.0,-0.2014779530793258,-0.2996773600983527,-0.3701476785207316,-0.9297810189597421,-0.2180448759243538,-0.08314424420394802
10025,8.0,300.12207,2980.9468,0.0,0.0,0.0,-0.10166496531441852,0.0,0.0,-0.24808589727417174,-0.3051988132057777,-0.3528486824784537,-0.9226132370898371,-0.2083988666948668,-0.11713760867558189
10026,8.0,299.79793,2638.5074,0.0,0.0,0.0,-0.10167510645809077,0.0,0.0,-0.2084597427608748,-0.2972968708434167,-0.2962837625984307,-0.9346989296451022,-0.22458010602183082,-0.08530135436833823
10027,8.0,300.58827,2611.2819,0.0,0.0,0.0,-0.10168524760176303,0.0,0.0,-0.15943876371788085,-0.3001263818801677,-0.33419936855790966,-0.9268120745767301,-0.21894026477272177,-0.09789596090557909
10028,8.0,299.80911000000003,2886.8175,0.0,0.0,0.0,-0.1016953887454353,0.0,0.0,-0.15979420172045986,-0.3169863670516187,-0.40073987752744666,-0.946029203720813,-0.27038728879514773,-0.024586596763008176
10029,8.0,300.01995,2837.075,0.0,0.0,0.0,-0.10170552988910755,0.0,0.0,-0.14942657603475487,-0.33572296233577664,-0.37725041986671765,-0.9263243263760931,-0.26578977792390873,-0.07396300671583042
10030,8.0,300.74414,2715.8059999999996,0.0,0.0,0.0,-0.10171567103277981,0.0,0.0,-0.17205489270049584,-0.3250428604517327,-0.3284394470394497,-0.92703529357376,-0.2545980657993728,-0.04485803695414355
10031,8.0,301.01042,2658.0949,0.0,0.0,0.0,-0.10172581217645209,0.0,0.0,-0.2002261737732848,-0.3045874890229447,-0.30318079390911473,-0.9184963208735292,-0.24523212903002678,-0.051687596953918655
10032,8.0,300.4702,2769.1441,0.0,0.0,0.0,-0.10173595332012433,0.0,0.0,-0.22338641634402281,-0.3026279545220537,-0.3157362798732447,-0.9143232199391761,-0.2341583389521288,-0.059897849030207444
10033,8.0,301.12969,2983.4726,0.0,0.0,0.0,-0.10174609446379661,0.0,0.0,-0.16359762848832884,-0.33927130339097067,-0.4040322310773766,-0.9453960946608301,-0.22269804462358578,-0.08581519071929991
10034,8.0,300.87989,2915.5792,0.0,0.0,0.0,-0.10175623560746885,0.0,0.0,-0.17271574454821684,-0.3324389377016687,-0.38110860266999064,-0.9089332157672241,-0.24055110608554575,-0.09728256259979141
10035,8.0,300.51802000000004,2648.3206,0.0,0.0,0.0,-0.10176637675114113,0.0,0.0,-0.14211792200344686,-0.2992509033962647,-0.36365450843490565,-0.983575267236321,-0.2271215804526548,-0.08668126421577473
10036,8.0,300.54982,2612.8302,0.0,0.0,0.0,-0.10177651789481339,0.0,0.0,-0.21602313799982378,-0.27219904076895374,-0.3060129596611277,-0.9572819945613771,-0.23681702615452077,-0.08057740609662083
10037,8.0,300.11677000000003,2881.6816,0.0,0.0,0.0,-0.10178665903848565,0.0,0.0,-0.24635929883876975,-0.3144583283171207,-0.3151416236545567,-0.9717735177565792,-0.23850867759397376,-0.09172865711816361
10038,8.0,299.57246000000004,2914.1607,0.0,0.0,0.0,-0.1017968001821579,0.0,0.0,-0.24979158222750977,-0.3078888807637667,-0.3281516333485447,-0.9246720701005282,-0.21391021769879479,-0.07678957324779083
10039,8.0,299.36818,2552.5211,0.0,0.0,0.0,-0.10180694132583017,0.0,0.0,-0.09690478040600721,-0.3138966027266827,-0.3651012877226917,-0.9116629419341271,-0.2178407870892118,-0.05949055694051085
10040,8.0,299.59078999999997,2650.2052,0.0,0.0,0.0,-0.10181708246950243,0.0,0.0,-0.13870107041372984,-0.3073518278132637,-0.35954330694916165,-0.9024604120084081,-0.24609372598755974,-0.049352154771928454
10041,8.0,299.6241,3058.8889,0.0,0.0,0.0,-0.1018272236131747,0.0,0.0,-0.18663245096168882,-0.3452140962874787,-0.39797930802749965,-0.908675323351772,-0.21900193117380778,-0.08317939688966731
10042,8.0,299.5212,2986.292,0.0,0.0,0.0,-0.10183736475684695,0.0,0.0,-0.22558072089308379,-0.34339484626293265,-0.3387826331327427,-0.8940714307204801,-0.24352569427161477,-0.07884577484797213
10043,8.0,300.99048999999997,2505.7558,0.0,0.0,0.0,-0.10184750590051922,0.0,0.0,-0.18059230499557283,-0.2899851973268107,-0.29110970228779076,-0.9298404562106082,-0.2153750531033628,-0.1003053379208661
10044,8.0,301.69439,2532.3002,0.0,0.0,0.0,-0.10185764704419147,0.0,0.0,-0.1898082199551128,-0.26720829766640575,-0.3127395015099857,-0.9424777823853151,-0.24645175791039475,-0.05972184343483704
10045,8.0,301.55861,2781.7658,0.0,0.0,0.0,-0.10186778818786374,0.0,0.0,-0.11531466028817089,-0.3242321995767267,-0.4060404623780736,-0.9503962812543101,-0.2291349691963608,-0.1013981058622139
10046,8.0,300.71424,2778.3359,0.0,0.0,0.0,-0.10187792933153601,0.0,0.0,-0.16962569651325282,-0.28964799782603173,-0.3852710543457926,-0.9365898772467242,-0.2401670741651448,-0.07957432902762482
10047,8.0,300.97668,2979.5669,0.0,0.0,0.0,-0.10188807047520826,0.0,0.0,-0.19059381302264483,-0.3368468897441997,-0.37827322491516063,-0.9377527438564902,-0.2307140688147058,-0.06354034432444373
10048,8.0,299.86001,2835.4079,0.0,0.0,0.0,-0.10189821161888053,0.0,0.0,-0.23326698283915878,-0.3010440217007317,-0.3275821969248457,-0.9309720843197911,-0.2422764075608198,-0.06375400330678024
10049,8.0,300.46601,2699.5372,0.0,0.0,0.0,-0.10190835276255278,0.0,0.0,-0.2073142027278188,-0.3169340934789597,-0.2963435950168357,-0.939641269790373,-0.22144840327525578,-0.07409957965705913
10050,8.0,300.09027000000003,2740.2007,0.0,0.0,0.0,-0.10191849390622502,0.0,0.0,-0.2024559927383508,-0.29765703059146176,-0.3328395666587077,-0.9347515882527991,-0.22593677697822379,-0.07884519932191533
10051,8.0,300.21077,2729.5409999999997,0.0,0.0,0.0,-0.10192863504989731,0.0,0.0,-0.12752621877085787,-0.3181443903259067,-0.38404169826446466,-0.9335094956177142,-0.2113767479437608,-0.05281248492343645
10052,8.0,300.04176,2501.3201,0.0,0.0,0.0,-0.10193877619356957,0.0,0.0,-0.12720199900385987,-0.27766969964886573,-0.3554671436518757,-0.9155391707216811,-0.2289036644635328,-0.04702518538727445
10053,8.0,300.33426000000003,2515.7376,0.0,0.0,0.0,-0.10194891733724183,0.0,0.0,-0.12443589715836689,-0.3074647241394057,-0.33282080126685565,-0.9271992273074392,-0.1967264788553918,-0.08055104538201921
10054,8.0,298.87655,2748.77,0.0,0.0,0.0,-0.10195905848091409,0.0,0.0,-0.20615556137096983,-0.2897794264965027,-0.3396224553456267,-0.9179542422025301,-0.24278538335105176,-0.07318518730306563
10055,8.0,298.98037,2679.4120000000003,0.0,0.0,0.0,-0.10196919962458635,0.0,0.0,-0.2202495966844428,-0.2746932166851097,-0.3195315297128067,-0.9216273548750381,-0.22253603606509678,-0.10458270026400891
10056,8.0,299.01044,2668.5417,0.0,0.0,0.0,-0.10197934076825863,0.0,0.0,-0.19259752522789583,-0.2903550741433147,-0.3282174439425397,-0.9406370717236511,-0.2644429050959828,-0.06822623998865564
10057,8.0,300.42978,2833.8311,0.0,0.0,0.0,-0.10198948191193087,0.0,0.0,-0.16987688121304284,-0.2983351279558847,-0.39320189460100563,-0.9312128426760521,-0.2165258012419328,-0.1093988502418259
10058,8.0,300.63268,2754.2526,0.0,0.0,0.0,-0.10199962305560314,0.0,0.0,-0.18187259715942783,-0.28105861593332576,-0.37429280361982364,-0.9691589069335371,-0.23258986832733278,-0.04029653901795876
10059,8.0,300.3921,2628.2185,0.0,0.0,0.0,-0.10200976419927539,0.0,0.0,-0.16209721787274986,-0.2984679042489887,-0.3383476752623157,-0.9612643815619081,-0.21425787394060578,-0.09075880654644682
10060,8.0,300.52287,2900.652,0.0,0.0,0.0,-0.10201990534294766,0.0,0.0,-0.23602992334433975,-0.31286172986954874,-0.33283413563817166,-0.944130606080936,-0.23814651161073078,-0.035749781844228765
10061,8.0,300.31104,2761.6609999999996,0.0,0.0,0.0,-0.10203004648661992,0.0,0.0,-0.21264797151922077,-0.3058448817345397,-0.3209831219385677,-0.9178469390169401,-0.23119607188727578,-0.1131999667994669
10062,8.0,299.79418,2679.3796,0.0,0.0,0.0,-0.10204018763029218,0.0,0.0,-0.17738485167152182,-0.3130830743538937,-0.32399656826597173,-0.905256992416909,-0.25100011601928274,-0.06627745201832523
10063,8.0,299.58275,2687.0129,0.0,0.0,0.0,-0.10205032877396444,0.0,0.0,-0.15095802250089685,-0.2905796306304767,-0.3752471737565126,-0.9224606213597751,-0.23680357019319279,-0.07649020951899592
10064,8.0,299.96839,2674.9267,0.0,0.0,0.0,-0.1020604699176367,0.0,0.0,-0.19211063828984382,-0.2729311747612097,-0.3480691108292467,-0.9148607795147291,-0.23254327908773476,-0.03907141629554856
10065,8.0,299.8473,2609.3985,0.0,0.0,0.0,-0.10207061106130896,0.0,0.0,-0.15172612687170287,-0.2897095932996107,-0.3517562671481407,-0.949282334359372,-0.21490473280444577,-0.08554489916237423
10066,8.0,300.17105,2789.4794,0.0,0.0,0.0,-0.10208075220498124,0.0,0.0,-0.22607466005183177,-0.2843174005074427,-0.33754002374010666,-0.9467214156591292,-0.23026452014283877,-0.07554599721455943
10067,8.0,299.69637,2869.6053,0.0,0.0,0.0,-0.10209089334865348,0.0,0.0,-0.19855880993872882,-0.3066074436272987,-0.36712211372213166,-0.9702107922598501,-0.2509339609202538,-0.07192915133335452
10068,8.0,299.99984,2747.6371,0.0,0.0,0.0,-0.10210103449232576,0.0,0.0,-0.16878960306073684,-0.3068827234144667,-0.3595407231614067,-0.942788465130977,-0.25720831964698476,-0.06922675049514833
10069,8.0,300.16432000000003,2787.8487,0.0,0.0,0.0,-0.102111175635998,0.0,0.0,-0.18657449305596882,-0.30534021225723273,-0.3555216970372596,-0.9237672985562341,-0.2513531830166278,-0.08497791075091682
10070,8.0,300.58846,2856.7724,0.0,0.0,0.0,-0.10212131677967028,0.0,0.0,-0.21991675415909379,-0.3082917895335307,-0.3401789120355447,-0.884188341232595,-0.24230033039568077,-0.07177812235294914
10071,8.0,300.00164,2566.9001,0.0,0.0,0.0,-0.10213145792334252,0.0,0.0,-0.16223305418115586,-0.28817779219593376,-0.3298626885274127,-0.9052739238260801,-0.20490331596988282,-0.07712068311546882
10072,8.0,301.12081,2641.9986,0.0,0.0,0.0,-0.1021415990670148,0.0,0.0,-0.1949241703725178,-0.2932750886789977,-0.3149023547759427,-0.9019572117437462,-0.23560640506754177,-0.08570877210104723
10073,8.0,300.68587,2817.8021,0.0,0.0,0.0,-0.10215174021068704,0.0,0.0,-0.16467933376508484,-0.3121176192611107,-0.37974453498786764,-0.9390948848064492,-0.2170964029032468,-0.10641354186969891
10074,8.0,300.16216000000003,2784.0431,0.0,0.0,0.0,-0.10216188135435932,0.0,0.0,-0.15984434746790885,-0.3148277491710797,-0.37160749833730466,-0.9393896899230442,-0.2312202885646658,-0.0852484616998681
10075,8.0,299.70212999999995,2785.2643,0.0,0.0,0.0,-0.10217202249803158,0.0,0.0,-0.16731023764973485,-0.2999532883655847,-0.37938726300260767,-0.9649006524607802,-0.23789064569547877,-0.08130162964534612
10076,8.0,299.85107,2797.2279,0.0,0.0,0.0,-0.10218216364170384,0.0,0.0,-0.22149275323213277,-0.2871174158337827,-0.34167727588592167,-0.9510935087806212,-0.2272722304775228,-0.05624953768039715
10077,8.0,299.39191,2796.0048,0.0,0.0,0.0,-0.1021923047853761,0.0,0.0,-0.1945604845141248,-0.3070906018049827,-0.34826455664103567,-0.939150643959452,-0.23046454584507975,-0.07706298966802493
10078,8.0,299.45452,2633.1894,0.0,0.0,0.0,-0.10220244592904836,0.0,0.0,-0.2242906609982648,-0.26155921557638473,-0.3145739502860317,-0.9147513485039291,-0.25152264909585276,-0.07458493658746014
10079,8.0,298.29194,2700.5388,0.0,0.0,0.0,-0.10221258707272061,0.0,0.0,-0.15307279704960886,-0.3075784411981287,-0.36024512449842566,-0.918583885947171,-0.25852965857239074,-0.05655291286633794
10080,8.0,299.35868,2862.8842,0.0,0.0,0.0,-0.10222272821639287,0.0,0.0,-0.1891443080920898,-0.3070545807639277,-0.3740464115930066,-0.9073846251093901,-0.27424506629838075,-0.061276298784249845
10081,8.0,299.87519,2901.2613,0.0,0.0,0.0,-0.10223286936006513,0.0,0.0,-0.19371266775795182,-0.3141353345827437,-0.37406297823214163,-0.9237509345671191,-0.2635413759520087,-0.06681438135231603
10082,8.0,300.14563,2798.5001,0.0,0.0,0.0,-0.1022430105037374,0.0,0.0,-0.2048939738039608,-0.3240781348990217,-0.3217020431495197,-0.9468318396550272,-0.2357191088761648,-0.09094115204769292
10083,8.0,300.36354,2824.7017,0.0,0.0,0.0,-0.10225315164740965,0.0,0.0,-0.2119804423533408,-0.29167128602321474,-0.35498703535699266,-0.9484767296023651,-0.22659444722063077,-0.06340243794608344
10084,8.0,299.79107,2735.8312,0.0,0.0,0.0,-0.10226329279108191,0.0,0.0,-0.18006315539584983,-0.3115261750452397,-0.34003505078634666,-0.9621097158553361,-0.21352950923872177,-0.08813840905208373
10085,8.0,299.60989,2612.3763,0.0,0.0,0.0,-0.10227343393475417,0.0,0.0,-0.1151354670079859,-0.3142166783007717,-0.36474501885503063,-0.922260666585041,-0.2193479155529538,-0.07960742177589082
10086,8.0,301.2434,2755.1131,0.0,0.0,0.0,-0.10228357507842645,0.0,0.0,-0.14316371769665887,-0.3069339330745207,-0.38738793645471264,-0.9249483732702971,-0.23256619880499677,-0.07531358297287193
10087,8.0,299.56878,2553.5448,0.0,0.0,0.0,-0.1022937162220987,0.0,0.0,-0.13701606589493287,-0.2901832066613527,-0.3490145947625587,-0.9174224784175491,-0.22378866650122176,-0.062429493921811345
10088,8.0,298.61924,2599.6137,0.0,0.0,0.0,-0.10230385736577097,0.0,0.0,-0.18006836350136385,-0.2986475028292137,-0.3115018063803347,-0.9417395992899622,-0.25080362655989075,-0.07619414391927654
10089,8.0,299.26852,2960.8021,0.0,0.0,0.0,-0.10231399850944321,0.0,0.0,-0.21890834739457177,-0.32650006608304766,-0.3546015139589446,-0.9282806387416661,-0.2384603556967048,-0.08235892978019352
10090,8.0,298.98812999999996,2928.4209,0.0,0.0,0.0,-0.10232413965311549,0.0,0.0,-0.24333080574738078,-0.32741866849120665,-0.3194173566915387,-0.95792847852268,-0.2190245367835388,-0.08737800234228742
10091,8.0,298.78469,2645.3916,0.0,0.0,0.0,-0.10233428079678775,0.0,0.0,-0.11916573007574188,-0.3133940205445817,-0.37157322008642163,-0.9395479393236621,-0.23129214826175779,-0.1105740886353129
10092,8.0,299.56637,2765.202,0.0,0.0,0.0,-0.10234442194046,0.0,0.0,-0.16730862658207585,-0.3174504659949217,-0.35579326832906166,-0.942991084753474,-0.2409002416725028,-0.05853989023293735
10093,8.0,299.27902,2767.0135,0.0,0.0,0.0,-0.10235456308413227,0.0,0.0,-0.18381859463898284,-0.2982612316260917,-0.3590231854078296,-0.9165556530895002,-0.23543054538018576,-0.08140583329888021
10094,8.0,299.60419,2623.9484,0.0,0.0,0.0,-0.10236470422780453,0.0,0.0,-0.2059381280320108,-0.28258645522911174,-0.3090902204798297,-0.9325564325736541,-0.23362554165204577,-0.05608831641723584
10095,8.0,300.34505,2555.998,0.0,0.0,0.0,-0.10237484537147679,0.0,0.0,-0.1860957121187168,-0.30415757713801567,-0.28670626934070575,-0.9201193246187072,-0.22871518981243177,-0.093572664895653
10096,8.0,300.01439,2673.1552,0.0,0.0,0.0,-0.10238498651514906,0.0,0.0,-0.17863352029975582,-0.2942110480613697,-0.33972787388603065,-0.951846961554981,-0.22246304152789279,-0.06812209611687745
10097,8.0,299.81227,2871.8855,0.0,0.0,0.0,-0.1023951276588213,0.0,0.0,-0.13350628913854487,-0.35503991687971165,-0.38443527500080765,-0.9180673817086961,-0.2346892718720278,-0.1034923215663969
10098,8.0,299.72347,2878.6740000000004,0.0,0.0,0.0,-0.10240526880249358,0.0,0.0,-0.18263532117220282,-0.3185587893518047,-0.37385090498621165,-0.9440547541784502,-0.23099623870255379,-0.05352349062460725
10099,8.0,299.77572000000004,2803.0661,0.0,0.0,0.0,-0.10241540994616583,0.0,0.0,-0.1932328634380988,-0.28352606231184374,-0.3753031558245376,-0.9467924546236401,-0.2512899055478828,-0.048200438979512955
10100,8.0,300.30256,2768.1534,0.0,0.0,0.0,-0.1024255510898381,0.0,0.0,-0.2089142259607288,-0.3120751843469227,-0.32046010250194973,-0.9663676562205621,-0.2263080520798658,-0.07256752625410723
10101,8.0,300.0756,2747.1604,0.0,0.0,0.0,-0.10243569223351036,0.0,0.0,-0.21584436015217978,-0.28757571898651374,-0.3316480656011157,-0.944102042560617,-0.22229382876119277,-0.08485293344383252
10102,8.0,300.74793999999997,3046.7623,0.0,0.0,0.0,-0.10244583337718262,0.0,0.0,-0.2023025258782048,-0.3382291047356137,-0.38560803093154966,-0.9181901977533171,-0.2002129305944778,-0.09457520696859623
10103,8.0,299.76044,2859.4311,0.0,0.0,0.0,-0.10245597452085488,0.0,0.0,-0.15214310968535585,-0.3291072801803597,-0.3879452746722176,-0.9106537650995292,-0.24342435912911375,-0.07241793406234363
10104,8.0,298.70304,2444.3033,0.0,0.0,0.0,-0.10246611566452714,0.0,0.0,-0.12366785358256688,-0.27505567651088175,-0.34428362872064866,-0.9098855391387111,-0.2377369964503148,-0.06370303074724964
10105,8.0,299.4961,2680.7048,0.0,0.0,0.0,-0.1024762568081994,0.0,0.0,-0.16758632803698284,-0.3002658861539357,-0.34701511794272566,-0.9125999246991,-0.27087587799336776,-0.045809024861998754
10106,8.0,299.9819,2931.8317,0.0,0.0,0.0,-0.10248639795187167,0.0,0.0,-0.24507367697938878,-0.2996780085784167,-0.34645195353714564,-0.9203118725352101,-0.23429533036564876,-0.06287646589867404
10107,8.0,299.59016,2818.7082,0.0,0.0,0.0,-0.10249653909554392,0.0,0.0,-0.2274441080919858,-0.2987601154453277,-0.3306126759864307,-0.9445923137540031,-0.24369597095091977,-0.07075576212130003
10108,8.0,301.00487999999996,2839.4543,0.0,0.0,0.0,-0.10250668023921619,0.0,0.0,-0.17368682317905484,-0.32840774244382065,-0.36102863027075166,-0.9569008706687631,-0.2188538649366948,-0.09895030437663471
10109,8.0,300.58044,2932.1254,0.0,0.0,0.0,-0.10251682138288844,0.0,0.0,-0.17446753238110482,-0.31915240192288974,-0.39767297212476665,-0.954722514676276,-0.21643026189000378,-0.07218345785670263
10110,8.0,300.29983,2709.7495,0.0,0.0,0.0,-0.10252696252656071,0.0,0.0,-0.18090048501348782,-0.3000105268637337,-0.3427851838102637,-0.9369944072166481,-0.2101567340283548,-0.07364919201410933
10111,8.0,300.24428,2742.5858,0.0,0.0,0.0,-0.10253710367023298,0.0,0.0,-0.17925731759131983,-0.29308453686519176,-0.36133575650856264,-0.931115945568989,-0.23224627521842275,-0.05280795873523975
10112,8.0,301.24181,2682.3758,0.0,0.0,0.0,-0.10254724481390523,0.0,0.0,-0.2149723064536148,-0.26993154916516976,-0.3304713883924867,-0.9471887164727482,-0.2408007405126828,-0.07176143919005264
10113,8.0,300.74858,2660.2378,0.0,0.0,0.0,-0.1025573859575775,0.0,0.0,-0.17752253209510982,-0.3118171703414587,-0.3193061524930637,-0.933934493239658,-0.24446653751946876,-0.08770650207770782
10114,8.0,300.69866,2594.3426,0.0,0.0,0.0,-0.10256752710124975,0.0,0.0,-0.15378439246233785,-0.2957221180680007,-0.33910887939994067,-0.9288430736071742,-0.22153657629895776,-0.1059951303734049
10115,8.0,299.5589,2794.8959,0.0,0.0,0.0,-0.10257766824492202,0.0,0.0,-0.1990563967978368,-0.2860485990982988,-0.36447357928574164,-0.9203665475106061,-0.2335117131358118,-0.07889268326135163
10116,8.0,299.58456,2889.8383,0.0,0.0,0.0,-0.10258780938859428,0.0,0.0,-0.2014430972758858,-0.3195645211360627,-0.35743107565820065,-0.9422450692348481,-0.23311889633704377,-0.06611973964026023
10117,8.0,300.35046,2683.8964,0.0,0.0,0.0,-0.10259795053226653,0.0,0.0,-0.17043620540074383,-0.3070613087445917,-0.3383399948265577,-0.9267240535405432,-0.24455065754277075,-0.05300231226342095
10118,8.0,300.40371,2778.4548,0.0,0.0,0.0,-0.1026080916759388,0.0,0.0,-0.2042497696553828,-0.3146433984478857,-0.3256877232128757,-0.9385201693497291,-0.23105801656115077,-0.08281433301113833
10119,8.0,299.47907000000004,2986.0019,0.0,0.0,0.0,-0.10261823281961105,0.0,0.0,-0.2167352704351058,-0.31447247328851674,-0.3764622632764327,-0.9263373973023832,-0.2346976615828558,-0.06920700731694983
10120,8.0,298.83031,2792.9638,0.0,0.0,0.0,-0.10262837396328332,0.0,0.0,-0.16798640983896784,-0.3289149957088827,-0.35208984934606263,-0.9511999507036261,-0.2334942244390858,-0.09582522017971291
10121,8.0,300.00641,2593.7658,0.0,0.0,0.0,-0.1026385151069556,0.0,0.0,-0.14180032889210287,-0.3011153139777677,-0.34552438386560164,-0.9470413899082082,-0.23446696480008777,-0.08307841739795142
10122,8.0,300.30302,2595.1307,0.0,0.0,0.0,-0.10264865625062784,0.0,0.0,-0.15414701440812584,-0.2806823759061937,-0.35402555220460163,-0.958965550132531,-0.20756905539297077,-0.06830736991091253
10123,8.0,301.09181,2541.6198,0.0,0.0,0.0,-0.10265879739430012,0.0,0.0,-0.17211700493162585,-0.2762110248049057,-0.3242609252170617,-0.9203285810293591,-0.2318848387752518,-0.06834656141153043
10124,8.0,300.76533,2738.1287,0.0,0.0,0.0,-0.10266893853797236,0.0,0.0,-0.18396447225587984,-0.3170025891857197,-0.33135571254976265,-0.9499537341406341,-0.2157339564212838,-0.07944683176754183
10125,8.0,301.01626,2901.4112,0.0,0.0,0.0,-0.10267907968164464,0.0,0.0,-0.2120661633118008,-0.32207664171148975,-0.34781374140654364,-0.9252450528995771,-0.23047667444877679,-0.09069256430790923
10126,8.0,300.53075,2762.1033,0.0,0.0,0.0,-0.1026892208253169,0.0,0.0,-0.17642618535440885,-0.3056150563468577,-0.35756919177933166,-0.9353655570183932,-0.2589385860477487,-0.09170889468821322
10127,8.0,301.00583,2807.5645,0.0,0.0,0.0,-0.10269936196898916,0.0,0.0,-0.2157274412231408,-0.29600817883623276,-0.34169389318756166,-0.9350039381902041,-0.24498414620055275,-0.06754948315411494
10128,8.0,299.77272,2805.0713,0.0,0.0,0.0,-0.10270950311266142,0.0,0.0,-0.17803666532835083,-0.30301148994990573,-0.3716234874238826,-0.9343286981910631,-0.24527012590877675,-0.07011552180711322
10129,8.0,300.07456,2791.1889,0.0,0.0,0.0,-0.10271964425633368,0.0,0.0,-0.2076749096309178,-0.3134392520290457,-0.3273375780857037,-0.9170647099397401,-0.2292511687178288,-0.05961499215879165
10130,8.0,299.7394,2782.4339,0.0,0.0,0.0,-0.10272978540000594,0.0,0.0,-0.16275603308776984,-0.31412433068665774,-0.3689100441860867,-0.958841264875265,-0.21487429477144182,-0.06755438120509834
10131,8.0,299.98974,2858.5156,0.0,0.0,0.0,-0.10273992654367821,0.0,0.0,-0.18454842855351183,-0.3335091425897897,-0.3508598042546667,-0.956936486409778,-0.24145887685013578,-0.07761813115931313
10132,8.0,299.63421,2802.634,0.0,0.0,0.0,-0.10275006768735045,0.0,0.0,-0.15566047568499283,-0.3156560709953287,-0.3806141974161967,-0.9631567983761751,-0.2306407905674738,-0.08893404444135682
10133,8.0,300.51439,2695.8562,0.0,0.0,0.0,-0.10276020883102273,0.0,0.0,-0.2043184680121628,-0.2848144402114967,-0.3303400407820237,-0.946334293325923,-0.24252455251030977,-0.07792604367920172
10134,8.0,299.76797,2731.9214,0.0,0.0,0.0,-0.10277034997469497,0.0,0.0,-0.17184113745939983,-0.2943189287995167,-0.36427581313122365,-0.921625642482369,-0.23086668454476778,-0.09516020691383122
10135,8.0,300.96029,2933.0938,0.0,0.0,0.0,-0.10278049111836725,0.0,0.0,-0.22789839877432078,-0.3034256660607817,-0.36026319074770863,-0.9313897865410151,-0.23518155943311275,-0.05131721047261435
10136,8.0,301.1245,2767.5741,0.0,0.0,0.0,-0.10279063226203951,0.0,0.0,-0.18306591193469884,-0.3137963314967867,-0.34441116651073567,-0.9174395516817342,-0.2015824596946398,-0.10113269614426999
10137,8.0,300.72916000000004,2738.9055,0.0,0.0,0.0,-0.10280077340571177,0.0,0.0,-0.15910548549498885,-0.3322850756739837,-0.3411683102281907,-0.932346365562922,-0.23606354298265778,-0.08867966800375182
10138,8.0,300.38051,2926.0240000000003,0.0,0.0,0.0,-0.10281091454938403,0.0,0.0,-0.18299877398307282,-0.3312832854326147,-0.37515618389753264,-0.9279728538912901,-0.2244024427492968,-0.09494764426810291
10139,8.0,300.90271,2966.1213,0.0,0.0,0.0,-0.10282105569305629,0.0,0.0,-0.1981246120058768,-0.34354718841546766,-0.3599549904647917,-0.9672603194261611,-0.24429254221229676,-0.06603079350673194
10140,8.0,299.75837,2740.0081,0.0,0.0,0.0,-0.10283119683672855,0.0,0.0,-0.14729696750457888,-0.3186806326763297,-0.3669164442168336,-0.9557093594786701,-0.23264235468251276,-0.08872106737633761
10141,8.0,299.40471,2783.0963,0.0,0.0,0.0,-0.10284133798040082,0.0,0.0,-0.1920019874816208,-0.3044937532561937,-0.34949605068007467,-0.9493357833021471,-0.22147975323334979,-0.03833528705814827
10142,8.0,299.22581,2822.2793,0.0,0.0,0.0,-0.10285147912407307,0.0,0.0,-0.17349805468542484,-0.31794488138121674,-0.3664594988192366,-0.9632181304047281,-0.2022997293079288,-0.07137263080868023
10143,8.0,299.18799,2861.1093,0.0,0.0,0.0,-0.10286162026774534,0.0,0.0,-0.18413512383772185,-0.3157186189240017,-0.3698520324065537,-0.9474980414632761,-0.23559992026690177,-0.06497495650502894
10144,8.0,300.13001,2970.1404,0.0,0.0,0.0,-0.10287176141141759,0.0,0.0,-0.20439047969676982,-0.3319808270664567,-0.36647722056348564,-0.9474805325015481,-0.24191698748534776,-0.09135328645961742
10145,8.0,300.83626,2838.6203,0.0,0.0,0.0,-0.10288190255508986,0.0,0.0,-0.2123181890091738,-0.2927690209165527,-0.3577824910578827,-0.9184844861123611,-0.24372627726141075,-0.07587141464317564
10146,8.0,299.8675,2513.9394,0.0,0.0,0.0,-0.10289204369876212,0.0,0.0,-0.17327530178344083,-0.2875093207074607,-0.30339018204227974,-0.918746005963171,-0.2543220260746297,-0.0917269497917451
10147,8.0,298.88043,2656.3644,0.0,0.0,0.0,-0.10290218484243438,0.0,0.0,-0.2051071717575018,-0.2974279752738557,-0.3049333112820747,-0.925310397398526,-0.2315454202567538,-0.06522619693357444
10148,8.0,299.1059,3001.5898,0.0,0.0,0.0,-0.10291232598610664,0.0,0.0,-0.17880912667458682,-0.3539859138606897,-0.37961330896741663,-0.953369481287742,-0.2314215706970308,-0.09336847270900081
10149,8.0,300.2835,2916.6479999999997,0.0,0.0,0.0,-0.1029224671297789,0.0,0.0,-0.16490107341696883,-0.34346122427698367,-0.37822587573798766,-0.9586903615378721,-0.2355378789632788,-0.08284167455183672
10150,8.0,300.879,2657.9116,0.0,0.0,0.0,-0.10293260827345116,0.0,0.0,-0.13261694939327387,-0.3177732266817757,-0.3575485721397966,-0.952717748690921,-0.22077037683833978,-0.08545279168853391
10151,8.0,299.76513,2686.7085,0.0,0.0,0.0,-0.10294274941712343,0.0,0.0,-0.16337256537611683,-0.30476534481299766,-0.3485544069646417,-0.9385887967790021,-0.23689324282704277,-0.06474154522524303
10152,8.0,299.89218999999997,2927.1142,0.0,0.0,0.0,-0.10295289056079568,0.0,0.0,-0.1854024767977998,-0.3459886043989167,-0.3583785455617087,-0.9197151087563141,-0.22733637934135378,-0.08795844570182272
10153,8.0,300.62271,3039.6295,0.0,0.0,0.0,-0.10296303170446795,0.0,0.0,-0.24417831852852379,-0.3244520444509237,-0.35534109533943564,-0.9498163576920762,-0.23653861542454377,-0.06131301187512315
10154,8.0,300.2387,2861.0886,0.0,0.0,0.0,-0.1029731728481402,0.0,0.0,-0.17226755363148383,-0.33740526147680666,-0.36002668804186766,-0.9231241380552591,-0.2405274973582158,-0.07665179656544334
10155,8.0,299.66278,2551.3077,0.0,0.0,0.0,-0.10298331399181247,0.0,0.0,-0.17721486883474583,-0.2946660176212717,-0.3036529481907127,-0.962548432883634,-0.24099083636394378,-0.0930000316678885
10156,8.0,299.53337,2544.4789,0.0,0.0,0.0,-0.10299345513548475,0.0,0.0,-0.13799929339446987,-0.30415176108244174,-0.3313070056174557,-0.952989927932783,-0.24233046445365475,-0.10329935821735291
10157,8.0,299.68912,2928.5985,0.0,0.0,0.0,-0.10300359627915699,0.0,0.0,-0.2109066708248678,-0.3378170463174467,-0.3414970997531397,-0.924233768504771,-0.23655330755099377,-0.08641969775546011
10158,8.0,299.68712,3030.5057,0.0,0.0,0.0,-0.10301373742282927,0.0,0.0,-0.2038572669641458,-0.3204648647774197,-0.3968759090661026,-0.9433484479312432,-0.26549769845008275,-0.05813564802604174
10159,8.0,299.72848999999997,2704.7453,0.0,0.0,0.0,-0.10302387856650151,0.0,0.0,-0.21329765735083978,-0.29226211215652476,-0.3166152540699927,-0.8997644473348372,-0.25850567494252374,-0.0852095224985251
10160,8.0,299.94678,2571.4561,0.0,0.0,0.0,-0.10303401971017377,0.0,0.0,-0.13257501097163488,-0.31552123780452174,-0.3335622166300277,-0.924368348383053,-0.26303011021655076,-0.07584207801303033
10161,8.0,300.17394,2755.9428,0.0,0.0,0.0,-0.10304416085384605,0.0,0.0,-0.2118387798568598,-0.28549011590818074,-0.34040890967574366,-0.9264755438210172,-0.2228329487418998,-0.06534539162233804
10162,8.0,300.78253,2944.6148,0.0,0.0,0.0,-0.10305430199751829,0.0,0.0,-0.17452391974916984,-0.3213352770108227,-0.3992301754084506,-0.9684833629593661,-0.24034467664267276,-0.04755328728639405
10163,8.0,300.55451,2785.5047,0.0,0.0,0.0,-0.10306444314119056,0.0,0.0,-0.19153233592776983,-0.30439933861187574,-0.3507922103404956,-0.9694891758036321,-0.2232293727110238,-0.06065015277895403
10164,8.0,300.18483,2690.8526,0.0,0.0,0.0,-0.10307458428486281,0.0,0.0,-0.16513977487552683,-0.29572360754564775,-0.35708860725690167,-0.9644609829773881,-0.23358705841324776,-0.06216660111711585
10165,8.0,300.76502999999997,2908.6241,0.0,0.0,0.0,-0.10308472542853508,0.0,0.0,-0.1986406298843038,-0.3422461955520697,-0.34326227261984865,-0.9525335803527452,-0.23359142552117879,-0.09491180054581541
10166,8.0,300.64353,3085.4712,0.0,0.0,0.0,-0.10309486657220736,0.0,0.0,-0.2222139745208118,-0.3209414469619547,-0.39475078923386964,-0.941705006931548,-0.24601179458447378,-0.06819676150349634
10167,8.0,299.59305,3039.4588,0.0,0.0,0.0,-0.1031050077158796,0.0,0.0,-0.24014563379302878,-0.3342173436146837,-0.34955661263855164,-0.94356292257991,-0.25910699834686973,-0.1055097227804989
10168,8.0,300.13262000000003,2630.4145,0.0,0.0,0.0,-0.10311514885955188,0.0,0.0,-0.15055694771381387,-0.2931551198671577,-0.3558682589689626,-0.9085800677098711,-0.22154507746729676,-0.08546040221003501
10169,8.0,299.35236000000003,2370.0145,0.0,0.0,0.0,-0.10312529000322412,0.0,0.0,-0.13622630836948985,-0.26697346682322975,-0.3172254434127137,-0.9069372042627332,-0.2111730542761578,-0.08877708693461632
10170,8.0,299.3618,2848.1274,0.0,0.0,0.0,-0.1031354311468964,0.0,0.0,-0.18895932915383382,-0.3130652918146387,-0.36373499089034866,-0.8961043751911161,-0.2054945372707318,-0.06630606012164864
10171,8.0,299.51207,3087.7145,0.0,0.0,0.0,-0.10314557229056866,0.0,0.0,-0.21302939938686477,-0.3222871646847667,-0.4032715335648016,-0.9379807251289901,-0.23066578744744076,-0.05346298338163566
10172,8.0,300.00951000000003,2808.3681,0.0,0.0,0.0,-0.10315571343424092,0.0,0.0,-0.16985562322594483,-0.3254792774023037,-0.3583388666877927,-0.9164327965148752,-0.26434863230667877,-0.08925514238479673
10173,8.0,300.27167000000003,2621.6527,0.0,0.0,0.0,-0.10316585457791318,0.0,0.0,-0.15263072616347986,-0.3223004382610767,-0.32198579370752367,-0.972854503625764,-0.23321573264910078,-0.06848884503032274
10174,8.0,300.88748,2753.1638,0.0,0.0,0.0,-0.10317599572158544,0.0,0.0,-0.17585247301528784,-0.28760061454147073,-0.37343996114315464,-0.9699686457509522,-0.25622128232707175,-0.07298399838970984
10175,8.0,300.67265,3078.1682,0.0,0.0,0.0,-0.1031861368652577,0.0,0.0,-0.2205779910418528,-0.34461764661611366,-0.37049063328207865,-0.947535754631998,-0.23480839968628475,-0.07401466220592844
10176,8.0,301.04793,2984.0815,0.0,0.0,0.0,-0.10319627800892996,0.0,0.0,-0.21558159400374677,-0.3108202031705657,-0.38068447644313264,-0.9520164580317091,-0.22754509872945278,-0.0862996924666165
10177,8.0,299.85351,2652.5134,0.0,0.0,0.0,-0.10320641915260222,0.0,0.0,-0.16523843503776384,-0.29067852384023674,-0.35038087132989965,-0.9284098179969151,-0.2075483749584298,-0.08903109758893522
10178,8.0,299.38468,2397.1068,0.0,0.0,0.0,-0.10321656029627449,0.0,0.0,-0.14820035089623584,-0.2832315510377777,-0.2972287095091897,-0.9279725397837592,-0.24045497904855878,-0.09138632246587783
10179,8.0,299.52756,2737.915,0.0,0.0,0.0,-0.10322670143994674,0.0,0.0,-0.20557354038102882,-0.2754657388263518,-0.3512185049225677,-0.9433981478486482,-0.2206999255588868,-0.08060282955487993
10180,8.0,299.91899,3065.5465,0.0,0.0,0.0,-0.10323684258361901,0.0,0.0,-0.2226078856296878,-0.35043195939994165,-0.35880972400926264,-0.9132424063225081,-0.26306633390762574,-0.1082562182365569
10181,8.0,300.40269,2865.3144,0.0,0.0,0.0,-0.10324698372729126,0.0,0.0,-0.18988736492042382,-0.3139899331933937,-0.36710673258561366,-0.946882775737554,-0.23096618570458777,-0.06916676507597824
10182,8.0,300.79131,2652.1168,0.0,0.0,0.0,-0.10325712487096353,0.0,0.0,-0.14023687385530187,-0.3055315341411147,-0.36040886571458564,-0.9459602419190071,-0.2352510379924698,-0.06402434755271114
10183,8.0,300.58831000000004,2967.5616,0.0,0.0,0.0,-0.10326726601463578,0.0,0.0,-0.18651321168992083,-0.3446247494993147,-0.37092666519761164,-0.9419483389430631,-0.24530678529739477,-0.057345953322104945
10184,8.0,301.10202000000004,3197.3319,0.0,0.0,0.0,-0.10327740715830805,0.0,0.0,-0.22151234948906678,-0.33693190142758966,-0.41346479917329865,-0.9606754502062851,-0.23022997844692975,-0.06957103768037684
10185,8.0,300.72104,2995.5755,0.0,0.0,0.0,-0.1032875483019803,0.0,0.0,-0.21518549427465478,-0.3298629317074367,-0.3655317264976726,-0.965812182383241,-0.23112720127797878,-0.07384544741272822
10186,8.0,299.45621,2609.1865,0.0,0.0,0.0,-0.10329768944565257,0.0,0.0,-0.13635613610480288,-0.31393753803072266,-0.3428338603450677,-0.9622806106172022,-0.24278345817586178,-0.09102795617050981
10187,8.0,299.32195,2726.0809999999997,0.0,0.0,0.0,-0.10330783058932483,0.0,0.0,-0.2030991127093218,-0.30242965134498273,-0.32313177957062367,-0.9493850779195122,-0.20452270883481982,-0.08201189972694432
10188,8.0,300.09797000000003,2942.7581,0.0,0.0,0.0,-0.10331797173299709,0.0,0.0,-0.19101019801873884,-0.34628178831535167,-0.35723300552865267,-0.9250687169846742,-0.2186982398538358,-0.10581135720276791
10189,8.0,299.90473,2745.5747,0.0,0.0,0.0,-0.10332811287666935,0.0,0.0,-0.18852264875823682,-0.28539036143583574,-0.36067312134066565,-0.9213768186553122,-0.2043614399489038,-0.08247293966819542
10190,8.0,299.29675,2516.9118,0.0,0.0,0.0,-0.10333825402034161,0.0,0.0,-0.13614538008400287,-0.2813330851204137,-0.3475998645754357,-0.9245927832802031,-0.2548393814431888,-0.07453143596893003
10191,8.0,298.55944,2545.6689,0.0,0.0,0.0,-0.10334839516401387,0.0,0.0,-0.16953289293659385,-0.2926385244361737,-0.3116483628747987,-0.9325509204931102,-0.25610636963323075,-0.08833017777925982
10192,8.0,299.29711000000003,2859.4796,0.0,0.0,0.0,-0.10335853630768613,0.0,0.0,-0.17779335358183784,-0.3145549315816547,-0.37686210189839364,-0.9295878833581811,-0.27060533008416676,-0.08885669191547273
10193,8.0,299.72512,3128.2165,0.0,0.0,0.0,-0.10336867745135839,0.0,0.0,-0.22550329845294279,-0.34878187147959067,-0.3766145243689596,-0.9440697908099341,-0.24666387168632878,-0.07670872399581163
10194,8.0,299.48856,2973.2270000000003,0.0,0.0,0.0,-0.10337881859503065,0.0,0.0,-0.1792712295151928,-0.33321947465120166,-0.3912960623554146,-0.9602605850853411,-0.24655407590549278,-0.051807702554522155
10195,8.0,299.49576,2674.4366,0.0,0.0,0.0,-0.1033889597387029,0.0,0.0,-0.16934694127824185,-0.3030119256474487,-0.34060307879240664,-0.9577858129086001,-0.24444004102935374,-0.08703184165762402
10196,8.0,301.01628999999997,2765.8736,0.0,0.0,0.0,-0.10339910088237518,0.0,0.0,-0.17530801320655384,-0.3007607068402707,-0.36468779048938266,-0.9453164126729662,-0.2119145101693338,-0.06940882647186783
10197,8.0,300.59009,3024.8505,0.0,0.0,0.0,-0.10340924202604743,0.0,0.0,-0.2163960343016258,-0.3101617527255817,-0.3929212344558066,-0.958056127770278,-0.22522239512771977,-0.08329567037839261
10198,8.0,300.60137000000003,2986.6097,0.0,0.0,0.0,-0.1034193831697197,0.0,0.0,-0.21438691134084079,-0.3169974925377167,-0.3764703794097336,-0.9237149844535711,-0.2400707140806348,-0.07639342488269402
10199,8.0,299.87519,2712.2933,0.0,0.0,0.0,-0.10342952431339195,0.0,0.0,-0.19541169565813282,-0.2872009481720267,-0.3418568035386397,-0.9372223783566471,-0.22127034483518282,-0.08241251551173202
10200,8.0,299.7286,2607.6099,0.0,0.0,0.0,-0.10343966545706423,0.0,0.0,-0.15554731591382484,-0.28936316309042076,-0.34773779831154866,-0.921035930924169,-0.2255480131798558,-0.08092561962598684
10201,8.0,300.62531,2744.1529,0.0,0.0,0.0,-0.10344980660073648,0.0,0.0,-0.18430656575464183,-0.29268778865603573,-0.35715960569140864,-0.935995281823042,-0.2282705858010528,-0.04476925395388136
10202,8.0,300.05400000000003,3040.8028,0.0,0.0,0.0,-0.10345994774440874,0.0,0.0,-0.1901113438550288,-0.34250706692281563,-0.39170971157623863,-0.9650038317184632,-0.23169838049184976,-0.05973453945859004
10203,8.0,299.11248,3068.1313,0.0,0.0,0.0,-0.103470088888081,0.0,0.0,-0.2036231960585448,-0.34334156957267464,-0.38567053833021864,-0.934842922616813,-0.2635236238102568,-0.06418178939299944
10204,8.0,299.33592999999996,2752.1499,0.0,0.0,0.0,-0.10348023003175326,0.0,0.0,-0.15870889940584887,-0.33420819396628065,-0.3436677550448667,-0.95312911809902,-0.26014215491403175,-0.10631306798978289
10205,8.0,300.0736,2732.6327,0.0,0.0,0.0,-0.10349037117542552,0.0,0.0,-0.17162901355096485,-0.3086517567640567,-0.35037132651395764,-0.961702966867693,-0.24776771647776977,-0.07017207636144474
10206,8.0,300.03292000000005,2887.7842,0.0,0.0,0.0,-0.10350051231909779,0.0,0.0,-0.2020325757865628,-0.3306506526001787,-0.34513104017678164,-0.9263338509270331,-0.25818806156617774,-0.1056877913530729
10207,8.0,300.90468,2857.9308,0.0,0.0,0.0,-0.10351065346277004,0.0,0.0,-0.20975239657594977,-0.28810063320081875,-0.37088656075865367,-0.9372819068000221,-0.2110479381538098,-0.07642524194908412
10208,8.0,299.86054,2578.7278,0.0,0.0,0.0,-0.10352079460644231,0.0,0.0,-0.17490325018910682,-0.2860090012843907,-0.3229566190258367,-0.9432755851165522,-0.20768844665225378,-0.12488420966511188
10209,8.0,300.27284,2691.3452,0.0,0.0,0.0,-0.10353093575011456,0.0,0.0,-0.15521338921086886,-0.3010923638630027,-0.3617959848364837,-0.955651117862922,-0.2180694675042808,-0.06797482933409335
10210,8.0,301.01568,3003.4371,0.0,0.0,0.0,-0.10354107689378683,0.0,0.0,-0.19957601171411882,-0.34738394097912567,-0.36600991974986663,-0.970163605202693,-0.21876736377565778,-0.08911676788489022
10211,8.0,300.96224,2981.225,0.0,0.0,0.0,-0.10355121803745909,0.0,0.0,-0.18839390520053084,-0.34585341657057467,-0.37197064717314465,-0.952400550747116,-0.24730646476724777,-0.05340220661413746
10212,8.0,300.06571,2773.2517,0.0,0.0,0.0,-0.10356135918113135,0.0,0.0,-0.1797043635354398,-0.3260557863117007,-0.3372391289904107,-0.9392669954684352,-0.2739558239248347,-0.07321850600610394
10213,8.0,300.65992,2730.9403,0.0,0.0,0.0,-0.10357150032480361,0.0,0.0,-0.17291598303297884,-0.3095462640848377,-0.3476754023703907,-0.934272087907976,-0.27207761287696974,-0.027553340366802972
10214,8.0,300.30967000000004,2640.2934,0.0,0.0,0.0,-0.10358164146847587,0.0,0.0,-0.18123625583162584,-0.2869751757847447,-0.3343718237249297,-0.9304394896697282,-0.2694221782073987,-0.09543671476012042
10215,8.0,299.3769,2963.9296,0.0,0.0,0.0,-0.10359178261214813,0.0,0.0,-0.1988618426461358,-0.3130429699149357,-0.3890557765168156,-0.9168485127659031,-0.23746572913354277,-0.06042379675961444
10216,8.0,299.06619,2971.5224,0.0,0.0,0.0,-0.1036019237558204,0.0,0.0,-0.22811492018818977,-0.3148719876704457,-0.36028170282703564,-0.931659685970152,-0.23404363904080877,-0.11770135063371889
10217,8.0,299.44018,2811.1718,0.0,0.0,0.0,-0.10361206489949265,0.0,0.0,-0.2071505425716668,-0.28522927493493777,-0.36214622486604964,-0.9598884081911101,-0.23298465083129477,-0.061434108434324446
10218,8.0,299.41823,2790.2833,0.0,0.0,0.0,-0.10362220604316492,0.0,0.0,-0.19484354606206084,-0.2971879363251657,-0.35614496743877166,-0.9629657095398161,-0.22321789258739078,-0.08870458078396051
10219,8.0,300.57095,2989.8136,0.0,0.0,0.0,-0.10363234718683717,0.0,0.0,-0.2172546725688668,-0.3188983497253167,-0.37267566659272466,-0.942830585937634,-0.22802916883222676,-0.051301036974518155
10220,8.0,299.82198999999997,2960.5805,0.0,0.0,0.0,-0.10364248833050944,0.0,0.0,-0.1816131544713228,-0.3354581392896407,-0.38287124241144965,-0.953204017546412,-0.22663082289922076,-0.09511930403379441
10221,8.0,301.14395,2774.0394,0.0,0.0,0.0,-0.1036526294741817,0.0,0.0,-0.16338996288033386,-0.33402292118549565,-0.3458258156378507,-0.9495545642637391,-0.2624062926599848,-0.06129070618742174
10222,8.0,301.02578,2683.1589,0.0,0.0,0.0,-0.10366277061785396,0.0,0.0,-0.15698697205340784,-0.3217221966940087,-0.33690413837484967,-0.9428542655924711,-0.23960726361739576,-0.09931684861355981
10223,8.0,300.94158999999996,2738.6834,0.0,0.0,0.0,-0.10367291176152622,0.0,0.0,-0.17815734341526082,-0.3026087939626627,-0.35172522116507665,-0.940579022625422,-0.2555387469272108,-0.05444142732745054
10224,8.0,300.23327,2777.4946,0.0,0.0,0.0,-0.10368305290519848,0.0,0.0,-0.16798787905161283,-0.3265720068401477,-0.34972911846807664,-0.9104373146131672,-0.2637792262804827,-0.1024958103580489
10225,8.0,300.49439,2952.9763,0.0,0.0,0.0,-0.10369319404887074,0.0,0.0,-0.20647923398291382,-0.3135972177196357,-0.3775546076792386,-0.9404631068139822,-0.26601429388106673,-0.06793790548719923
10226,8.0,299.2309,2875.2044,0.0,0.0,0.0,-0.10370333519254302,0.0,0.0,-0.17438920814837483,-0.3105759592339607,-0.38902517636379563,-0.9401420686522981,-0.2356124136406348,-0.10418152415191591
10227,8.0,299.69405,2739.7448,0.0,0.0,0.0,-0.10371347633621526,0.0,0.0,-0.19265440908850984,-0.3081985097293247,-0.33196106868950664,-0.9324338698415581,-0.22918119366592277,-0.10591709998320391
10228,8.0,299.55556,2973.8563,0.0,0.0,0.0,-0.10372361747988754,0.0,0.0,-0.20568929407245282,-0.32710540195778975,-0.37118335184544465,-0.977519304436144,-0.21251704947379982,-0.08890474023521472
10229,8.0,299.90566,3035.5908,0.0,0.0,0.0,-0.10373375862355978,0.0,0.0,-0.2299400774608188,-0.3145247265961737,-0.37827899030822965,-0.9562043422850212,-0.2502512532678758,-0.05723519900667434
10230,8.0,299.7361,2777.914,0.0,0.0,0.0,-0.10374389976723206,0.0,0.0,-0.16880627102488183,-0.32047947584386166,-0.35513074461867566,-0.9545926464109591,-0.23289962901540376,-0.05902617226067964
10231,8.0,301.11638,2641.8499,0.0,0.0,0.0,-0.10375404091090433,0.0,0.0,-0.18181326123357183,-0.2807889191542087,-0.34045421208771465,-0.933974080921065,-0.23580733256237177,-0.06659126975979664
10232,8.0,301.42784,2822.1987,0.0,0.0,0.0,-0.10376418205457658,0.0,0.0,-0.13699696613054785,-0.34661302990554266,-0.37426793846236966,-0.9463889784338202,-0.24158461105504478,-0.08050375699985222
10233,8.0,301.08387999999997,2989.43,0.0,0.0,0.0,-0.10377432319824885,0.0,0.0,-0.2082823328008658,-0.34243287675049366,-0.35799687451404066,-0.9678459881164622,-0.24508538001804375,-0.08210289971842533
10234,8.0,299.94332,2870.4225,0.0,0.0,0.0,-0.1037844643419211,0.0,0.0,-0.16716748084314584,-0.3353021899667497,-0.37006708460777765,-0.9431641478705541,-0.23900049906001275,-0.08117146449774983
10235,8.0,300.14128,2804.0206,0.0,0.0,0.0,-0.10379460548559337,0.0,0.0,-0.18789163712596083,-0.3244802229362047,-0.3399803859434517,-0.9442635242290541,-0.25020169520548474,-0.09601643972533482
10236,8.0,300.08497,2841.179,0.0,0.0,0.0,-0.10380474662926563,0.0,0.0,-0.17736211433927782,-0.2962812902681867,-0.3900040772854056,-0.958710271902337,-0.22642201231861278,-0.06792273713320224
10237,8.0,300.39834,3018.5743,0.0,0.0,0.0,-0.10381488777293789,0.0,0.0,-0.21242509702722479,-0.3368240510869457,-0.36832205515305666,-0.9408117965708951,-0.24249724542011478,-0.07410063951666372
10238,8.0,300.52072000000004,3162.2088,0.0,0.0,0.0,-0.10382502891661015,0.0,0.0,-0.20786923073509578,-0.34170859544651266,-0.4116546886646546,-0.957329911158606,-0.2201196169616148,-0.08371624921665052
10239,8.0,300.50845,2925.2187,0.0,0.0,0.0,-0.1038351700602824,0.0,0.0,-0.20748236171441478,-0.3259843623121517,-0.3557267180624937,-0.9443789334154441,-0.2251465736227368,-0.08359507869019192
10240,8.0,299.51748,2545.4277,0.0,0.0,0.0,-0.10384531120395467,0.0,0.0,-0.13972921529019985,-0.3128058389940327,-0.3212114071860977,-0.9517376622666941,-0.2145150976109918,-0.08662080966180832
10241,8.0,299.32307000000003,2658.3012,0.0,0.0,0.0,-0.10385545234762694,0.0,0.0,-0.19540365045233882,-0.2773291158927527,-0.3353244308064447,-0.943134743352652,-0.24649469944963276,-0.06999605556732284
10242,8.0,298.64285,2862.275,0.0,0.0,0.0,-0.10386559349129919,0.0,0.0,-0.18919028938162782,-0.3102345142152627,-0.37063533552885963,-0.9426340660807392,-0.24827979281330778,-0.07163582961490593
10243,8.0,299.11304,2875.1935,0.0,0.0,0.0,-0.10387573463497146,0.0,0.0,-0.17720761396402981,-0.3400607468088827,-0.35671865951289067,-0.9387715769645412,-0.23804447732566078,-0.09857628032747141
10244,8.0,299.48503999999997,2603.5893,0.0,0.0,0.0,-0.10388587577864371,0.0,0.0,-0.14964659316146886,-0.27434252069299875,-0.36743703185321164,-0.9654785292578122,-0.22847264813599477,-0.09171582937189761
10245,8.0,299.3046,2706.0627,0.0,0.0,0.0,-0.10389601692231598,0.0,0.0,-0.16471562838366685,-0.3257078767573647,-0.3321519751408477,-0.9463261771926221,-0.2339478362438538,-0.07790911834953132
10246,8.0,299.35361,2971.9748,0.0,0.0,0.0,-0.10390615806598824,0.0,0.0,-0.19247301705560782,-0.3206054734937967,-0.39032764857233965,-0.9656579555855201,-0.2312417897317878,-0.07209668615788893
10247,8.0,300.12707,3031.1313,0.0,0.0,0.0,-0.1039162992096605,0.0,0.0,-0.2335479165618848,-0.30532449674818174,-0.38251582467387263,-0.92498508332142,-0.23555756641272177,-0.07221593252240763
10248,8.0,300.03673,2954.7808,0.0,0.0,0.0,-0.10392644035333276,0.0,0.0,-0.2150311762844248,-0.3203608039921497,-0.36278761217934963,-0.942631816665517,-0.2062457000998658,-0.07323476360395843
10249,8.0,299.80138,2768.6716,0.0,0.0,0.0,-0.10393658149700502,0.0,0.0,-0.20102900222501782,-0.27161251081606774,-0.36896551962906166,-0.9396849611346851,-0.2615227284402838,-0.06733577958877404
10250,8.0,299.90917,2789.8968,0.0,0.0,0.0,-0.10394672264067728,0.0,0.0,-0.1934316124452138,-0.3152122066565227,-0.3394151443751667,-0.9512386163274421,-0.24503431221300379,-0.1099746498761529
10251,8.0,299.88847999999996,3044.7692,0.0,0.0,0.0,-0.10395686378434955,0.0,0.0,-0.1889660267369948,-0.36198488505262666,-0.3745829072559546,-0.9926489928093281,-0.22854117424025777,-0.1130826121728849
10252,8.0,300.65635,3000.3289,0.0,0.0,0.0,-0.1039670049280218,0.0,0.0,-0.19250762967902382,-0.33471418066871766,-0.38480324690712364,-0.948359050735751,-0.2319835495999938,-0.08866171625173011
10253,8.0,300.94554,2682.7881,0.0,0.0,0.0,-0.10397714607169407,0.0,0.0,-0.1251353335698959,-0.35157040668229766,-0.3387948529289487,-0.974971254012171,-0.24327652593952379,-0.07302633603188824
10254,8.0,300.77943999999997,2593.0702,0.0,0.0,0.0,-0.10398728721536632,0.0,0.0,-0.15046440758218085,-0.2719814959724837,-0.36578269841494165,-0.9580716608943112,-0.23846186543935377,-0.06407218308993214
10255,8.0,300.81217000000004,2997.5625,0.0,0.0,0.0,-0.1039974283590386,0.0,0.0,-0.17925669950875883,-0.3430710216634737,-0.38885643982464263,-0.9459670610921801,-0.2600672554666397,-0.08382892972052122
10256,8.0,300.40247999999997,3025.6466,0.0,0.0,0.0,-0.10400756950271085,0.0,0.0,-0.2062524483455318,-0.3324219252324897,-0.38104663229387464,-0.941591411462837,-0.23145994247831778,-0.09333151035860292
10257,8.0,299.90913,2877.6177,0.0,0.0,0.0,-0.10401771064638311,0.0,0.0,-0.1915044512850178,-0.29630117023514874,-0.3869183152983646,-0.930512585531942,-0.24100696730553578,-0.0981538431885301
10258,8.0,299.50076,2883.9359,0.0,0.0,0.0,-0.10402785179005537,0.0,0.0,-0.1940070777070078,-0.3107676357553777,-0.37186977812568967,-0.9346954035347541,-0.24066614036939876,-0.06686772187733034
10259,8.0,300.09727000000004,2971.6746,0.0,0.0,0.0,-0.10403799293372763,0.0,0.0,-0.2166853577351798,-0.32193467523997865,-0.3646948325775776,-0.939452562091749,-0.2183448283514568,-0.07987287101058863
10260,8.0,300.24974,2908.8935,0.0,0.0,0.0,-0.10404813407739989,0.0,0.0,-0.2070633827980648,-0.30970049088255874,-0.36746711524868064,-0.9413232041613672,-0.24223752915448277,-0.05696191025595285
10261,8.0,300.05457,3014.6639,0.0,0.0,0.0,-0.10405827522107217,0.0,0.0,-0.2209803121265588,-0.3493124598944557,-0.3460897672889007,-0.9506564433499861,-0.23201195100029678,-0.0907103306351626
10262,8.0,299.47334,2878.6919,0.0,0.0,0.0,-0.10406841636474441,0.0,0.0,-0.16958564273679985,-0.3326530881103037,-0.37281173594865363,-0.960210601457908,-0.23846460121462376,-0.05641430937190885
10263,8.0,300.48326000000003,2659.1890000000003,0.0,0.0,0.0,-0.10407855750841669,0.0,0.0,-0.16013121883622086,-0.33513164984241867,-0.3130641873720297,-0.9544806721424082,-0.24471970818945474,-0.12198285919627087
10264,8.0,300.08901000000003,3000.0279,0.0,0.0,0.0,-0.10408869865208893,0.0,0.0,-0.18104725429047283,-0.34654279140861066,-0.38434353533675364,-0.970569138290216,-0.23700574398564578,-0.06168523132585834
10265,8.0,299.13215,2897.7394,0.0,0.0,0.0,-0.1040988397957612,0.0,0.0,-0.2053458732160598,-0.28107153487210074,-0.39442303322402267,-0.9550660875201841,-0.25378996844711976,-0.05494328098272965
10266,8.0,298.26264,2729.5936,0.0,0.0,0.0,-0.10410898093943347,0.0,0.0,-0.1710953043257918,-0.3146478060858207,-0.34398518603619466,-0.9418471051255721,-0.22746304573635476,-0.060316995132823945
10267,8.0,298.79485,2844.1504,0.0,0.0,0.0,-0.10411912208310573,0.0,0.0,-0.1945581844363978,-0.2995030506836497,-0.37048947817696465,-0.9402544380883882,-0.21631134685826778,-0.07005560427569983
10268,8.0,300.07047,3107.9474,0.0,0.0,0.0,-0.10412926322677798,0.0,0.0,-0.2048902957060978,-0.3530866138669357,-0.3867614945803876,-0.9341800037388881,-0.23062082954050378,-0.0898867700731335
10269,8.0,300.34598,2962.0759,0.0,0.0,0.0,-0.10413940437045024,0.0,0.0,-0.17961585613920483,-0.3664832696665827,-0.3542979948914897,-0.9714879230833932,-0.2456685561130988,-0.1085984941203369
10270,8.0,300.41784,2893.3652,0.0,0.0,0.0,-0.1041495455141225,0.0,0.0,-0.2096781456086218,-0.3190245196277687,-0.35080810823456465,-0.9503115026184431,-0.24983445283924077,-0.07392524997735413
10271,8.0,299.64362,2772.9053,0.0,0.0,0.0,-0.10415968665779478,0.0,0.0,-0.18850940557942983,-0.3466674211709107,-0.3077171450043177,-0.9491194037432921,-0.23736824434142176,-0.09964941350838141
10272,8.0,300.51665,2560.1083,0.0,0.0,0.0,-0.10416982780146702,0.0,0.0,-0.17730791559142883,-0.2856806069269807,-0.3152204646448377,-0.9632771623555542,-0.25250438711774276,-0.06789815061952574
10273,8.0,300.65594,2687.7809,0.0,0.0,0.0,-0.1041799689451393,0.0,0.0,-0.15807249728304085,-0.3272059467652127,-0.3317398457951737,-0.9666329757592471,-0.24001350597998877,-0.1011320122004525
10274,8.0,300.11332000000004,2834.8005,0.0,0.0,0.0,-0.10419011008881154,0.0,0.0,-0.15596373130742183,-0.3365246052848927,-0.36922023043919966,-0.985837570999593,-0.24258919786668975,-0.07242088262013463
10275,8.0,299.28638,2812.1596,0.0,0.0,0.0,-0.10420025123248382,0.0,0.0,-0.17616885022651183,-0.3051747586484037,-0.37348267976737065,-0.9373246659542421,-0.21003844721168077,-0.09675874877509501
10276,8.0,299.45396,2907.8268,0.0,0.0,0.0,-0.10421039237615609,0.0,0.0,-0.18087539694101185,-0.3305453151197827,-0.37248604696901066,-0.958570666303559,-0.23810558643919175,-0.06231715893622474
10277,8.0,299.37968,3140.6575,0.0,0.0,0.0,-0.10422053351982834,0.0,0.0,-0.2242976929539588,-0.33893378978266064,-0.39144996491310363,-0.9610848843066931,-0.2405847155913628,-0.05617455210674665
10278,8.0,299.70396,3136.2889,0.0,0.0,0.0,-0.10423067466350061,0.0,0.0,-0.23366116752556176,-0.3425538284149307,-0.37713851652567365,-0.957664405281618,-0.25586175079408874,-0.04914291963952855
10279,8.0,300.06956,2906.2689,0.0,0.0,0.0,-0.10424081580717286,0.0,0.0,-0.20508622787793482,-0.3369329045451887,-0.34141406390744466,-0.9395772425165542,-0.2046413908190328,-0.08929309062754191
10280,8.0,299.96276,2837.9502,0.0,0.0,0.0,-0.10425095695084513,0.0,0.0,-0.2051068069874658,-0.3079101387508647,-0.34964905144517466,-0.932468796572505,-0.23441167174213076,-0.11519546154640688
10281,8.0,299.88499,2796.3776,0.0,0.0,0.0,-0.10426109809451739,0.0,0.0,-0.17179902678524384,-0.3262920762350207,-0.3519378719635637,-0.949995469912253,-0.26435112490192475,-0.07224929074219982
10282,8.0,300.09597,2668.6290000000004,0.0,0.0,0.0,-0.10427123923818964,0.0,0.0,-0.15558011481956185,-0.3187070582389377,-0.33690941740787067,-0.944313396398976,-0.25042184405471174,-0.12059040024634589
10283,8.0,300.21693,2753.9849,0.0,0.0,0.0,-0.10428138038186191,0.0,0.0,-0.17989991067223882,-0.2911364723554327,-0.36610624943687364,-0.951810383226371,-0.23741413443845077,-0.06774966185712103
10284,8.0,299.49077,2890.83,0.0,0.0,0.0,-0.10429152152553416,0.0,0.0,-0.1994029688620408,-0.3152623422714707,-0.36407481470888664,-0.937246291059007,-0.23461771614996577,-0.1044682030027089
10285,8.0,300.8218,2737.0231,0.0,0.0,0.0,-0.10430166266920643,0.0,0.0,-0.13314750741063586,-0.3257153950731067,-0.37312376631694866,-0.987882441423906,-0.25147798503144475,-0.07467591834043934
10286,8.0,301.03901,2947.408,0.0,0.0,0.0,-0.10431180381287868,0.0,0.0,-0.16139073937302584,-0.35098226566175267,-0.38356543018746064,-0.9602049373898491,-0.2355148477885058,-0.09742213678781632
10287,8.0,301.25265,3186.607,0.0,0.0,0.0,-0.10432194495655095,0.0,0.0,-0.2024658212643208,-0.3471615123171737,-0.4190216349742156,-0.9606707487258211,-0.2111558188919568,-0.07824492361817272
10288,8.0,300.72148,2861.9456,0.0,0.0,0.0,-0.1043320861002232,0.0,0.0,-0.1991462720817068,-0.29832869381774973,-0.3724850337189106,-0.9444042646679441,-0.2408537740229168,-0.06660457778661004
10289,8.0,300.89106,2665.2527,0.0,0.0,0.0,-0.10434222724389547,0.0,0.0,-0.16786449558693584,-0.31845221570628673,-0.3238535480143567,-0.9381043619061922,-0.2717919776737797,-0.08520842210891652
10290,8.0,299.32535,2812.0443,0.0,0.0,0.0,-0.10435236838756774,0.0,0.0,-0.2042625467391438,-0.2993004107961507,-0.3512282827860327,-0.9475963875179821,-0.28811728089996175,-0.061956085236589534
10291,8.0,299.31164,3011.3299,0.0,0.0,0.0,-0.10436250953123999,0.0,0.0,-0.22219396283133677,-0.33539128504804266,-0.35778383868051566,-0.931496674294064,-0.2163989625944148,-0.10512262071229489
10292,8.0,299.07669,2836.321,0.0,0.0,0.0,-0.10437265067491226,0.0,0.0,-0.20900434442462282,-0.3050561577241987,-0.3481102589158077,-0.9513729530257001,-0.2198762950826008,-0.09175221416973851
10293,8.0,299.57839,2831.1236,0.0,0.0,0.0,-0.10438279181858451,0.0,0.0,-0.17565919555871284,-0.3029162849705097,-0.38201540071448464,-0.993018281940774,-0.2203356824129388,-0.09171746273105882
10294,8.0,300.11565,2770.1814,0.0,0.0,0.0,-0.10439293296225678,0.0,0.0,-0.16108414002526683,-0.30982878861022073,-0.37115304553495365,-0.9903682478942359,-0.23429936310104676,-0.06594160520642973
10295,8.0,300.64106,2793.0817,0.0,0.0,0.0,-0.10440307410592903,0.0,0.0,-0.16409636032004984,-0.3014340419292237,-0.38349669130067665,-0.965915189388407,-0.21854899824660678,-0.06238344373126654
10296,8.0,300.23431,2981.0463,0.0,0.0,0.0,-0.1044132152496013,0.0,0.0,-0.21179782428781782,-0.3119296005725547,-0.38243622374601666,-0.9369627634160251,-0.23783696370518076,-0.08197717159301691
10297,8.0,301.09468,3012.1503,0.0,0.0,0.0,-0.10442335639327355,0.0,0.0,-0.22428143028985378,-0.3296256184015157,-0.36171142911563864,-0.9584441012335682,-0.24492580325979477,-0.053270034218093044
10298,8.0,300.454,2803.0034,0.0,0.0,0.0,-0.10443349753694582,0.0,0.0,-0.17272154033878884,-0.33026425980704466,-0.34905723232676666,-0.9396755075112521,-0.24067933288570076,-0.1130737158370069
10299,8.0,299.988,2762.8034,0.0,0.0,0.0,-0.10444363868061807,0.0,0.0,-0.17798244631549984,-0.33075635485061067,-0.3310844553654917,-0.9287363581066421,-0.20289576354675282,-0.09146285121943061
10300,8.0,299.45813,3071.6335,0.0,0.0,0.0,-0.10445377982429034,0.0,0.0,-0.22551655176425078,-0.33649021557649866,-0.37169312810325567,-0.9414911503654421,-0.21452735793720182,-0.1063211233280779
10301,8.0,299.53753,2939.5268,0.0,0.0,0.0,-0.1044639209679626,0.0,0.0,-0.22544043641673878,-0.3102817620674257,-0.35782053859913765,-0.956890890155278,-0.2514638501925498,-0.07681288914584193
10302,8.0,298.48322,2634.3893,0.0,0.0,0.0,-0.10447406211163485,0.0,0.0,-0.15138216899275686,-0.3286676309619697,-0.3207387868094537,-0.9610028009160921,-0.25447257477448776,-0.1010169971683514
10303,8.0,299.73114,2765.612,0.0,0.0,0.0,-0.10448420325530712,0.0,0.0,-0.1890129098191218,-0.2955162965751877,-0.35614777414154863,-0.944324005127523,-0.23891398776647477,-0.07791031601114952
10304,8.0,300.0099,2979.1598,0.0,0.0,0.0,-0.10449434439897937,0.0,0.0,-0.1910923118068428,-0.3617639762658246,-0.3527338812421236,-0.955320038392747,-0.2622966893966677,-0.08050659815313263
10305,8.0,300.19633,2808.7848,0.0,0.0,0.0,-0.10450448554265164,0.0,0.0,-0.17165380778091185,-0.3054192255000307,-0.37672740043009967,-0.9772706325966021,-0.24758532132726876,-0.07754793116588492
10306,8.0,301.36222999999995,2925.0931,0.0,0.0,0.0,-0.10451462668632391,0.0,0.0,-0.17900980085689183,-0.32779781654612566,-0.3823476454222746,-0.97198377728483,-0.25302742681936274,-0.04662707840973436
10307,8.0,300.64466,2963.8106,0.0,0.0,0.0,-0.10452476782999616,0.0,0.0,-0.1952049419752278,-0.3350871681630287,-0.3706322957785596,-0.9334104504204391,-0.2118612841415808,-0.06383003455453394
10308,8.0,299.92006000000003,2892.1812,0.0,0.0,0.0,-0.10453490897366843,0.0,0.0,-0.2038787377337648,-0.3077786796828907,-0.36749343948627866,-0.965190989144434,-0.2379460299459448,-0.05499246414258365
10309,8.0,301.01257000000004,3102.1044,0.0,0.0,0.0,-0.10454505011734068,0.0,0.0,-0.22105022638345878,-0.34988149101811467,-0.37203056065155765,-0.9614842467011071,-0.2452817985499288,-0.08122444835872891
10310,8.0,300.83252000000005,2951.3911,0.0,0.0,0.0,-0.10455519126101295,0.0,0.0,-0.19843759482926582,-0.3190438119096727,-0.37966778129279266,-0.9712348334734151,-0.24610264258843978,-0.07775913706972933
10311,8.0,298.84664,2641.5187,0.0,0.0,0.0,-0.10456533240468521,0.0,0.0,-0.15027843565882687,-0.3062191864539807,-0.3464581039652527,-0.939336696942814,-0.2147013836418768,-0.09474910196400832
10312,8.0,299.79900000000004,2769.9674,0.0,0.0,0.0,-0.10457547354835747,0.0,0.0,-0.17870234024654783,-0.3139091568954217,-0.34938942637205167,-0.9338992524011801,-0.2732809486957297,-0.07789801920793592
10313,8.0,299.20202,3005.2155,0.0,0.0,0.0,-0.10458561469202973,0.0,0.0,-0.2290479918077768,-0.3241721239782977,-0.36029035598288967,-0.950958290554776,-0.26870394600651476,-0.04437746357746466
10314,8.0,299.4347,2861.1311,0.0,0.0,0.0,-0.10459575583570199,0.0,0.0,-0.18955103681473082,-0.33855144998992664,-0.3416099150192737,-0.9217588544730161,-0.26284950851872674,-0.08377385045833532
10315,8.0,300.15812,2900.7814,0.0,0.0,0.0,-0.10460589697937425,0.0,0.0,-0.18679297004253081,-0.33339934680895367,-0.36157280636945766,-0.9183100044451411,-0.22470995402214577,-0.07304420571065184
10316,8.0,300.50144,3201.2765,0.0,0.0,0.0,-0.10461603812304653,0.0,0.0,-0.20940363589152977,-0.36452355278067367,-0.39918094158609163,-0.9414506406264441,-0.2209461858631908,-0.09564044287822682
10317,8.0,299.59001,2954.8343,0.0,0.0,0.0,-0.10462617926671877,0.0,0.0,-0.16960413455112483,-0.33492998267501567,-0.39366172776138764,-0.9638676237188282,-0.23005148430931377,-0.07549961974423233
10318,8.0,300.06667000000004,2766.329,0.0,0.0,0.0,-0.10463632041039105,0.0,0.0,-0.16146948917079784,-0.30290428808932574,-0.3765211533722446,-0.9635963057395511,-0.2156084147338938,-0.09199899021834342
10319,8.0,299.34085,2855.719,0.0,0.0,0.0,-0.10464646155406329,0.0,0.0,-0.1968241460325308,-0.2886865450711437,-0.3825565674603936,-0.968874913195509,-0.2117163488472768,-0.06510291175415714
10320,8.0,298.72665,2780.6028,0.0,0.0,0.0,-0.10465660269773557,0.0,0.0,-0.18979055900586983,-0.3147622425521147,-0.34068100785759764,-0.9646701988580361,-0.23208778263778077,-0.08508968642244823
10321,8.0,299.49454,2643.9514,0.0,0.0,0.0,-0.10466674384140782,0.0,0.0,-0.17323533919949682,-0.2893995489015117,-0.34106030790003167,-0.968901956840678,-0.2566824327125838,-0.08277768578152152
10322,8.0,299.98495,2834.7659,0.0,0.0,0.0,-0.10467688498508008,0.0,0.0,-0.18780828717273482,-0.3316765277964247,-0.3422132243938157,-0.9478168403422391,-0.2518031167235328,-0.08555568926268911
10323,8.0,299.85447999999997,2898.0887,0.0,0.0,0.0,-0.10468702612875234,0.0,0.0,-0.17617719940733584,-0.3132370174415867,-0.39153239280873864,-0.9399465215154991,-0.24391961551299177,-0.07031910908345573
10324,8.0,301.73577,2795.7937,0.0,0.0,0.0,-0.1046971672724246,0.0,0.0,-0.18189225421136782,-0.3168222610654227,-0.35113694842201865,-0.9588730100008982,-0.24583328018185574,-0.05861111867521704
10325,8.0,301.75446,2876.4984,0.0,0.0,0.0,-0.10470730841609686,0.0,0.0,-0.18272610838116282,-0.3203949403880187,-0.37126264879827064,-0.9473193649406421,-0.24783305084421778,-0.04830032517437095
10326,8.0,299.84332,3017.8320000000003,0.0,0.0,0.0,-0.10471744955976914,0.0,0.0,-0.24435838320379477,-0.3062842573754027,-0.36670294228826267,-0.9536702443149251,-0.2280258960344038,-0.03591488689502337
10327,8.0,300.08399,3051.5856,0.0,0.0,0.0,-0.10472759070344138,0.0,0.0,-0.19748243435749882,-0.34512623737130765,-0.3849971525787606,-0.9415197240182621,-0.21694273339308082,-0.07222940773548753
10328,8.0,299.93158999999997,3020.2452,0.0,0.0,0.0,-0.10473773184711366,0.0,0.0,-0.2143269471999228,-0.3166295814264067,-0.38712259665102566,-0.9607238430310611,-0.23930478819754375,-0.08781179092209901
10329,8.0,300.19167000000004,3135.3347,0.0,0.0,0.0,-0.1047478729907859,0.0,0.0,-0.20645271722779682,-0.3385280135151137,-0.4080827287496296,-0.964712481784709,-0.24904198993603074,-0.07857932553542563
10330,8.0,300.93036,2587.466,0.0,0.0,0.0,-0.10475801413445818,0.0,0.0,-0.16886212137039383,-0.27870805808634375,-0.3389548856497427,-0.977493111921059,-0.23474382525741178,-0.09520297012105161
10331,8.0,298.57043999999996,2452.4506,0.0,0.0,0.0,-0.10476815527813044,0.0,0.0,-0.14355397097267386,-0.27767387423927775,-0.3242558893640647,-0.9378044804065961,-0.21579273505958482,-0.07640682106226614
10332,8.0,298.60322,2883.2947,0.0,0.0,0.0,-0.1047782964218027,0.0,0.0,-0.2178057691657558,-0.3158672525811707,-0.3427765813169147,-0.9650892588343941,-0.23129463072450276,-0.0980826968195085
10333,8.0,300.2185,2910.0457,0.0,0.0,0.0,-0.10478843756547496,0.0,0.0,-0.2034701750284428,-0.3268041728355607,-0.3543068912273677,-0.9475901965598711,-0.23890506103309378,-0.08613612755597391
10334,8.0,299.83738,2646.9561,0.0,0.0,0.0,-0.10479857870914722,0.0,0.0,-0.15567813663423585,-0.3213135934586827,-0.3276168298132637,-0.9643908255404641,-0.23028905092775975,-0.1254378495197519
10335,8.0,300.2676,2959.7867,0.0,0.0,0.0,-0.10480871985281948,0.0,0.0,-0.1913115689959818,-0.33472151659944166,-0.37366816533067665,-0.9462380750964271,-0.2366403761320868,-0.08796167594314151
10336,8.0,300.0112,3040.6652,0.0,0.0,0.0,-0.10481886099649175,0.0,0.0,-0.1980395901899858,-0.3373501204063647,-0.3888965847936046,-0.9564390110081811,-0.27346709287160076,-0.07581966998706884
10337,8.0,300.42107000000004,2788.9383,0.0,0.0,0.0,-0.104829002140164,0.0,0.0,-0.18175414822273783,-0.32244205009505267,-0.34357140509285766,-0.9524402093560301,-0.2595447629200737,-0.07465239269961753
10338,8.0,301.76867000000004,2907.765,0.0,0.0,0.0,-0.10483914328383627,0.0,0.0,-0.21719096953507977,-0.29270914796814373,-0.3739878457372266,-0.9491576235370641,-0.22928783823894777,-0.05413286734074804
10339,8.0,301.02895,2776.7399,0.0,0.0,0.0,-0.10484928442750852,0.0,0.0,-0.19317869508775282,-0.31699883002784873,-0.3338820794215957,-0.948406197262904,-0.22592024073659178,-0.1125384158091769
10340,8.0,299.88433,2588.0423,0.0,0.0,0.0,-0.10485942557118079,0.0,0.0,-0.15546682332588085,-0.3021524463826247,-0.3290809458102607,-0.9640148894883621,-0.23866949051734476,-0.0924615297697425
10341,8.0,300.47451,2973.5973,0.0,0.0,0.0,-0.10486956671485306,0.0,0.0,-0.19862160104742582,-0.3329432221439377,-0.37233451541655566,-0.9716129986757371,-0.25526114679731376,-0.12449680362187787
10342,8.0,299.04919,3133.6024,0.0,0.0,0.0,-0.10487970785852531,0.0,0.0,-0.1991191676415318,-0.3569977085904307,-0.39642000731610866,-0.9628880439196511,-0.21635652768022678,-0.05712047984360244
10343,8.0,299.43786,2656.0072,0.0,0.0,0.0,-0.10488984900219757,0.0,0.0,-0.17065496609733385,-0.29884179353588874,-0.3378631086669927,-0.9636105419034561,-0.2383645630322508,-0.07574571995502052
10344,8.0,301.25991,2906.2582,0.0,0.0,0.0,-0.10489999014586983,0.0,0.0,-0.1999851823695008,-0.3195776731223607,-0.36386707817338465,-0.953143475852937,-0.2538973324277158,-0.03204106862945727
10345,8.0,300.42998,3321.2729,0.0,0.0,0.0,-0.10491013128954209,0.0,0.0,-0.23838915461217777,-0.36612818630153865,-0.40506666823696763,-0.9465073057804981,-0.2531467876811428,-0.08596096194493642
10346,8.0,299.6473,3212.4231,0.0,0.0,0.0,-0.10492027243321436,0.0,0.0,-0.23502725157538376,-0.3134693151595127,-0.4279998515927966,-0.9470742090789471,-0.23912327457462976,-0.050619059875462245
10347,8.0,300.78504,2986.9274,0.0,0.0,0.0,-0.10493041357688661,0.0,0.0,-0.18689072841217882,-0.34660236038198966,-0.3744582572286526,-0.93102770161778,-0.25030011218769777,-0.1012865551322047
10348,8.0,300.14426000000003,2851.3102,0.0,0.0,0.0,-0.10494055472055888,0.0,0.0,-0.17837733014447182,-0.2962094913661007,-0.39214028207373264,-0.945548609065882,-0.25563976796218074,-0.05029735702171265
10349,8.0,300.22342000000003,2816.2264,0.0,0.0,0.0,-0.10495069586423113,0.0,0.0,-0.19824335478509583,-0.2943588711184587,-0.36346029878823866,-0.9249644839468871,-0.2395997149041508,-0.08953748452516172
10350,8.0,300.47612000000004,2825.1341,0.0,0.0,0.0,-0.10496083700790339,0.0,0.0,-0.17709608552552283,-0.3213487127071487,-0.36032542456885064,-0.9541949964092141,-0.19501183677116984,-0.07415906858368022
10351,8.0,299.94957,2900.1432,0.0,0.0,0.0,-0.10497097815157568,0.0,0.0,-0.2030390269783918,-0.3212484414772527,-0.3572836477686507,-0.9784145210319951,-0.24228964060712574,-0.1029796676783019
10352,8.0,299.15966000000003,2865.9825,0.0,0.0,0.0,-0.10498111929524792,0.0,0.0,-0.16217919993834085,-0.35085448469164165,-0.35815344191949267,-0.975223431697059,-0.26432449668929675,-0.07705892552187382
10353,8.0,299.69676,2687.1697,0.0,0.0,0.0,-0.1049912604389202,0.0,0.0,-0.14597774627188187,-0.3322942759848917,-0.3385604780483177,-0.952965741652896,-0.25709467351576876,-0.11928916420292389
10354,8.0,299.01777000000004,3056.447,0.0,0.0,0.0,-0.10500140158259244,0.0,0.0,-0.20019522911523083,-0.34747208360532467,-0.38141626593035466,-0.9205437446880941,-0.22790451880492477,-0.06835934862779244
10355,8.0,298.73848,3214.0282,0.0,0.0,0.0,-0.10501154272626471,0.0,0.0,-0.23271257291444278,-0.3646699268901197,-0.3796018085787817,-0.9311456033994161,-0.26717787989840375,-0.05558520329208245
10356,8.0,299.45874,2966.4159999999997,0.0,0.0,0.0,-0.10502168386993697,0.0,0.0,-0.20382586634354682,-0.3241515752662697,-0.37373895098266263,-0.9533031944662002,-0.24969834295330778,-0.044462316180588955
10357,8.0,299.63288,2902.4967,0.0,0.0,0.0,-0.10503182501360923,0.0,0.0,-0.17281702902821283,-0.33215506555365265,-0.3773144268755346,-0.9551818918741132,-0.2348172048296538,-0.06827445346816394
10358,8.0,299.58342999999996,2884.5546,0.0,0.0,0.0,-0.1050419661572815,0.0,0.0,-0.1863798477117588,-0.31064501222827573,-0.37980772126410367,-0.9575344255587901,-0.1953022849123348,-0.09799410532351521
10359,8.0,300.032,2739.0882,0.0,0.0,0.0,-0.10505210730095375,0.0,0.0,-0.14637771661635587,-0.3023251548621697,-0.3839115564216206,-0.99185614487108,-0.23751819522372078,-0.08853005048073573
10360,8.0,300.66294,2734.8862,0.0,0.0,0.0,-0.10506224844462601,0.0,0.0,-0.16254583435452485,-0.3332901285806747,-0.33550114162388467,-1.00000196640001,-0.2627368959026128,-0.10193330456503391
10361,8.0,299.8857,2947.6848,0.0,0.0,0.0,-0.10507238958829829,0.0,0.0,-0.2197753145776348,-0.3207679684123337,-0.35547930265307565,-0.9346073824985671,-0.23471511988207877,-0.06718679838682073
10362,8.0,300.39224,2930.8318,0.0,0.0,0.0,-0.10508253073197053,0.0,0.0,-0.23652047824775377,-0.3180664916582187,-0.3363127245564817,-0.9412685494509732,-0.21442334781443678,-0.07279209996652093
10363,8.0,299.91972999999996,2875.8293,0.0,0.0,0.0,-0.1050926718756428,0.0,0.0,-0.19653993951198181,-0.3287457018821747,-0.3488946563482217,-0.9227162643600051,-0.2421278954936628,-0.06284886091294965
10364,8.0,299.26579,3053.0487,0.0,0.0,0.0,-0.10510281301931505,0.0,0.0,-0.1965490486303808,-0.3274558446373757,-0.40404568703870464,-0.9957031211282471,-0.26939801219251375,-0.05010889148986255
10365,8.0,299.19635,3111.1054,0.0,0.0,0.0,-0.10511295416298733,0.0,0.0,-0.18062993710428682,-0.35324838937790165,-0.41182004094847363,-0.948401505914941,-0.23819154044517477,-0.07140482987035802
10366,8.0,298.35999,2798.6956,0.0,0.0,0.0,-0.10512309530665959,0.0,0.0,-0.17805001996466882,-0.3218053743947177,-0.3508781744789796,-0.9561037569475941,-0.23167384970692878,-0.08385090914169041
10367,8.0,299.54065,2941.2446,0.0,0.0,0.0,-0.10513323645033185,0.0,0.0,-0.20784222761993082,-0.3234173337138057,-0.36280536432110166,-0.9483006267349852,-0.23799681404095677,-0.05951186964311424
10368,8.0,299.28257,2776.7568,0.0,0.0,0.0,-0.1051433775940041,0.0,0.0,-0.20122447843430982,-0.3135094195984707,-0.3293308234174217,-0.9712485832772721,-0.25422395359745076,-0.09340337816169572
10369,8.0,298.78325,2630.7709999999997,0.0,0.0,0.0,-0.10515351873767637,0.0,0.0,-0.17090893723489883,-0.3165206165106527,-0.3122591399025777,-0.969605355060098,-0.2220378007259248,-0.1070453742345559
10370,8.0,299.87656,2858.0901,0.0,0.0,0.0,-0.10516365988134863,0.0,0.0,-0.16512281306885285,-0.3489823430118757,-0.3546828880744757,-0.960397019211306,-0.2050276721546558,-0.1282993691271619
10371,8.0,300.9069,2964.5752,0.0,0.0,0.0,-0.1051738010250209,0.0,0.0,-0.18171344596622083,-0.33312487762186566,-0.38631850163666764,-0.968875642735581,-0.24030125887588777,-0.09252493186824981
10372,8.0,299.97878,2896.1111,0.0,0.0,0.0,-0.10518394216869315,0.0,0.0,-0.17525444267376683,-0.3399572737086707,-0.36513373199089366,-0.9532467665681311,-0.24513235429267977,-0.1150986657643539
10373,8.0,300.45421,3036.9421,0.0,0.0,0.0,-0.10519408331236542,0.0,0.0,-0.21806956882929077,-0.34197545512534966,-0.3631095521336226,-0.9603810909197341,-0.24233142704124977,-0.06967307095219674
10374,8.0,299.40224,3126.7824,0.0,0.0,0.0,-0.10520422445603766,0.0,0.0,-0.23411371541772477,-0.3329826375728277,-0.38336741072041763,-0.959685869628621,-0.22091942592804978,-0.06481184857018144
10375,8.0,299.27814,2926.8238,0.0,0.0,0.0,-0.10521436559970994,0.0,0.0,-0.20204231312002383,-0.31619165473318667,-0.3714473642915006,-0.991068819145877,-0.25356258499217876,-0.06121265046596824
10376,8.0,300.47022999999996,2763.9990000000003,0.0,0.0,0.0,-0.1052245067433822,0.0,0.0,-0.13953502590853487,-0.3203492428085087,-0.3803024203604266,-0.972183215302013,-0.26130846657413775,-0.07475035473253563
10377,8.0,299.97602,2903.2671,0.0,0.0,0.0,-0.10523464788705446,0.0,0.0,-0.16803779175153885,-0.3081728542367927,-0.4063100476996796,-0.9681385235528331,-0.2303209379084068,-0.07490960117125203
10378,8.0,298.98593999999997,2882.5934,0.0,0.0,0.0,-0.10524478903072672,0.0,0.0,-0.15972244334837785,-0.3400755605253447,-0.3764384113690787,-0.9368001063774722,-0.2385901732995168,-0.08795450719868401
10379,8.0,299.14931,2726.8278,0.0,0.0,0.0,-0.10525493017439898,0.0,0.0,-0.2059793369135778,-0.2864822296110947,-0.33642599578516064,-0.9500925798018371,-0.25636027997578975,-0.07754026288912813
10380,8.0,299.41241,2976.5609999999997,0.0,0.0,0.0,-0.10526507131807124,0.0,0.0,-0.24135031723442177,-0.3121909380383467,-0.3512589639990607,-0.9525868773080052,-0.25405141737042275,-0.07008313529416693
10381,8.0,300.01773,2942.4568,0.0,0.0,0.0,-0.10527521246174351,0.0,0.0,-0.2216574165058838,-0.32022315396606466,-0.35255281344925365,-0.9498837084262232,-0.23285826814632177,-0.10052250477504882
10382,8.0,300.50875,2987.2151,0.0,0.0,0.0,-0.10528535360541576,0.0,0.0,-0.17528547852432982,-0.3456986628828017,-0.38705464809931966,-0.9605792522417911,-0.2328450553650178,-0.10468440017654591
10383,8.0,300.11764,3031.8948,0.0,0.0,0.0,-0.10529549474908803,0.0,0.0,-0.17353505857907683,-0.3382782169679607,-0.4098070271073046,-0.9876977664606801,-0.25763380362897675,-0.06937133520491773
10384,8.0,299.84741,2908.9301,0.0,0.0,0.0,-0.10530563589276028,0.0,0.0,-0.19024273199549582,-0.3148194506527607,-0.37917992163464465,-0.9595703793822231,-0.26192092559708274,-0.059971227589199344
10385,8.0,300.07231,2625.4994,0.0,0.0,0.0,-0.10531577703643255,0.0,0.0,-0.13897626914088987,-0.3005026827023057,-0.35860730703678567,-0.942920511884009,-0.2327246508556348,-0.05904789735607374
10386,8.0,300.64907999999997,2688.508,0.0,0.0,0.0,-0.10532591818010481,0.0,0.0,-0.16979544630250584,-0.3158505947495267,-0.3315932487707057,-0.9277710651338751,-0.23206967585849378,-0.07604476653653412
10387,8.0,299.52964,2971.1364,0.0,0.0,0.0,-0.10533605932377707,0.0,0.0,-0.18028343596758983,-0.3367665694087727,-0.3861012912127306,-0.9650349790265371,-0.2675941534369867,-0.07467636923673383
10388,8.0,299.54517000000004,2828.8842,0.0,0.0,0.0,-0.10534620046744933,0.0,0.0,-0.15685724564310485,-0.3517429530418266,-0.35130997100909467,-0.9793521624095332,-0.24453808310902975,-0.12486678176339187
10389,8.0,300.13793,2757.8672,0.0,0.0,0.0,-0.10535634161112159,0.0,0.0,-0.13004029491897787,-0.3391761186765767,-0.36910636139296166,-0.953706153898469,-0.2326063741714618,-0.09572067607414522
10390,8.0,299.91832,2978.5364,0.0,0.0,0.0,-0.10536648275479385,0.0,0.0,-0.2070007335443818,-0.3306172761418847,-0.36778268185982466,-0.9536139481393691,-0.2293378016013788,-0.09497749765579921
10391,8.0,299.20127,2903.8402,0.0,0.0,0.0,-0.10537662389846611,0.0,0.0,-0.2154024919160708,-0.3040490580523057,-0.36324334167682665,-0.9554444351075242,-0.2258188549315858,-0.06326337038310854
10392,8.0,299.33159,2859.9287,0.0,0.0,0.0,-0.10538676504213837,0.0,0.0,-0.2111899552878258,-0.29839261976655873,-0.35976434745847663,-0.9718311210247641,-0.24191211375236676,-0.06218655403808503
10393,8.0,299.5206,3133.3262,0.0,0.0,0.0,-0.10539690618581064,0.0,0.0,-0.22445877945485682,-0.32749548298128767,-0.40049867334114164,-0.9546223650363922,-0.21342416162582478,-0.061512899775350544
10394,8.0,300.45337,3067.8872,0.0,0.0,0.0,-0.10540704732948289,0.0,0.0,-0.1962576277691198,-0.3523919295983757,-0.38391153615661866,-0.969420973939401,-0.22923150153338778,-0.09993591808015721
10395,8.0,300.22477000000003,2998.4854,0.0,0.0,0.0,-0.10541718847315516,0.0,0.0,-0.18151954029458384,-0.3446102194928807,-0.38533492963209665,-0.948735706195424,-0.24980187684852578,-0.06675998603394764
10396,8.0,301.1208,3107.728,0.0,0.0,0.0,-0.10542732961682741,0.0,0.0,-0.23850843441394978,-0.33934187626043566,-0.3668214114899547,-0.9727065184486591,-0.25308274014232174,-0.05793337493507894
10397,8.0,300.59479,2943.1815,0.0,0.0,0.0,-0.10543747076049968,0.0,0.0,-0.20154587123352882,-0.3274663317759107,-0.36564148174850464,-0.9480857366537772,-0.23608657415743078,-0.02893539931770157
10398,8.0,300.68801,2592.28,0.0,0.0,0.0,-0.10544761190417193,0.0,0.0,-0.15921848314614084,-0.3171632703865777,-0.3116066473681817,-0.9548155006379532,-0.23694023736668077,-0.08067124825463233
10399,8.0,300.44226000000003,2774.5972,0.0,0.0,0.0,-0.1054577530478442,0.0,0.0,-0.12882430360646888,-0.3438304120834197,-0.3707535514180267,-0.9634511475302251,-0.23720301364761479,-0.1013847410933949
10400,8.0,300.08721,2878.5187,0.0,0.0,0.0,-0.10546789419151648,0.0,0.0,-0.19866775458948083,-0.3222723712333067,-0.3540576722327717,-0.967796409789069,-0.24218468816176777,-0.1416939072340999
10401,8.0,298.81739,2650.4147,0.0,0.0,0.0,-0.10547803533518872,0.0,0.0,-0.13449153300578087,-0.3260398782851307,-0.34512845638902667,-0.970528902128745,-0.2139743665626258,-0.10486627856949589
10402,8.0,300.20246000000003,2606.8362,0.0,0.0,0.0,-0.105488176478861,0.0,0.0,-0.20482159734931782,-0.28848262848851874,-0.2991088963947497,-0.9644070679395671,-0.2280810472373468,-0.1048400151269039
10403,8.0,299.61446,2996.2835,0.0,0.0,0.0,-0.10549831762253324,0.0,0.0,-0.21163301915905278,-0.3143335161698027,-0.38482882133964763,-0.9547936144357931,-0.2521922250269347,-0.05143817632255275
10404,8.0,300.63935,2889.2269,0.0,0.0,0.0,-0.10550845876620552,0.0,0.0,-0.2038258562110458,-0.32379474911105366,-0.35063224854720865,-0.949087273582621,-0.23335312936266076,-0.08700827447354811
10405,8.0,301.33031,3080.046,0.0,0.0,0.0,-0.10551859990987776,0.0,0.0,-0.16498142414989886,-0.35182270595719767,-0.41945295527678356,-0.9459292465984481,-0.21537319885567976,-0.08580506733755082
10406,8.0,300.41941,3452.8015,0.0,0.0,0.0,-0.10552874105355002,0.0,0.0,-0.23445556573646276,-0.38313980435045464,-0.43197006945962657,-0.9521693777368012,-0.23729064964876379,-0.07766502336069102
10407,8.0,300.37411000000003,3146.304,0.0,0.0,0.0,-0.10553888219722228,0.0,0.0,-0.2069727577091208,-0.36704528909954964,-0.38237980598044863,-0.9679131159355872,-0.25809614964960675,-0.07988294474308283
10408,8.0,301.38644,2864.0758,0.0,0.0,0.0,-0.10554902334089454,0.0,0.0,-0.2254397170091678,-0.3252108167883087,-0.3199570035622977,-0.9317519626567591,-0.27086102374690174,-0.04429224924405466
10409,8.0,300.83162999999996,2973.8235,0.0,0.0,0.0,-0.1055591644845668,0.0,0.0,-0.21650481683236178,-0.3123233394289137,-0.37513992123342765,-0.954678570019439,-0.2560607632462298,-0.04197968219632206
10410,8.0,299.94311,3110.5709,0.0,0.0,0.0,-0.10556930562823906,0.0,0.0,-0.2010294379225608,-0.34416299116374266,-0.4003434332933206,-0.9360603730094661,-0.23747286241424678,-0.053813974229525746
10411,8.0,299.72616,2946.3740000000003,0.0,0.0,0.0,-0.10557944677191133,0.0,0.0,-0.14389145418348084,-0.3259074971595657,-0.4258251736981726,-0.976120330288076,-0.24701387866837177,-0.09157021317352641
10412,8.0,300.02954,3038.8392,0.0,0.0,0.0,-0.10558958791558358,0.0,0.0,-0.2032157175308298,-0.3378467446778777,-0.38266878490896866,-0.956436437352927,-0.2232396774645408,-0.11006807153537289
10413,8.0,299.91519,2969.0236,0.0,0.0,0.0,-0.10559972905925585,0.0,0.0,-0.22467073111077476,-0.3135069168707237,-0.36433136963420665,-0.9617883838511231,-0.22144939626035381,-0.11441385055176789
10414,8.0,300.40395,2766.9997,0.0,0.0,0.0,-0.1056098702029281,0.0,0.0,-0.2359871439251178,-0.2771857207386007,-0.3279259724187737,-0.9417999889959221,-0.22881883516516077,-0.07002594644527284
10415,8.0,299.98535,2877.64,0.0,0.0,0.0,-0.10562001134660037,0.0,0.0,-0.18265707565184983,-0.3318217366682557,-0.36025189300909366,-0.961489627059138,-0.27213791139042076,-0.06842066444434385
10416,8.0,299.99913,3050.3191,0.0,0.0,0.0,-0.10563015249027265,0.0,0.0,-0.17915031838075984,-0.32730114161210766,-0.4207693698067036,-0.9506158221534771,-0.2866329708284717,-0.036712949018285965
10417,8.0,299.70425,2654.5184,0.0,0.0,0.0,-0.10564029363394489,0.0,0.0,-0.09189812117088841,-0.3285940284747057,-0.38641515556370665,-0.9597619748436321,-0.24320201152716978,-0.09417709391155552
10418,8.0,300.45049,2626.6501,0.0,0.0,0.0,-0.10565043477761717,0.0,0.0,-0.14421424526783785,-0.3176460536617247,-0.33657573388493867,-0.9518882818940589,-0.2302573260671288,-0.08321151691783732
10419,8.0,300.26833,2932.1409,0.0,0.0,0.0,-0.10566057592128941,0.0,0.0,-0.20784399067510478,-0.32049038854743866,-0.36296323881918263,-0.966176851094231,-0.24266376294154876,-0.1054002816371979
10420,8.0,301.59258,2911.5541,0.0,0.0,0.0,-0.10567071706496169,0.0,0.0,-0.24399304574773878,-0.3245874045317827,-0.3164592844820997,-0.959720168144506,-0.23501364362654079,-0.07000098604230943
10421,8.0,301.44964,2828.7222,0.0,0.0,0.0,-0.10568085820863395,0.0,0.0,-0.1888155996271488,-0.3088545587715717,-0.3621907470754437,-0.9455791788213991,-0.2238575675080218,-0.09101854003733051
10422,8.0,300.76218,2916.5478,0.0,0.0,0.0,-0.1056909993523062,0.0,0.0,-0.18262098368328783,-0.3010694036157367,-0.4028673177024086,-0.963521021257121,-0.24290065068242778,-0.07829980023033863
10423,8.0,299.72896000000003,2951.4721,0.0,0.0,0.0,-0.10570114049597847,0.0,0.0,-0.15974141139024986,-0.35353029582072365,-0.38390213319569066,-0.9897119151419611,-0.25066886429659074,-0.093955663300952
10424,8.0,300.49446,3085.1678,0.0,0.0,0.0,-0.10571128163965071,0.0,0.0,-0.2253389391542218,-0.3320360998594117,-0.38043894567890063,-0.980391878602145,-0.2534499115810588,-0.09348978407722332
10425,8.0,300.23117,3223.8667,0.0,0.0,0.0,-0.10572142278332299,0.0,0.0,-0.24841555819420677,-0.35419959817427865,-0.37735982048001465,-0.9671353147613241,-0.2106239233844628,-0.09433774775466082
10426,8.0,298.74523,2863.9692,0.0,0.0,0.0,-0.10573156392699526,0.0,0.0,-0.24732845229441777,-0.29971851831741475,-0.3235281630097437,-0.941018773168822,-0.21923379319419078,-0.08475462589263033
10427,8.0,299.02047000000005,2525.4716,0.0,0.0,0.0,-0.1057417050706675,0.0,0.0,-0.13811590834847887,-0.2878855506020917,-0.3416788565560777,-0.9521835328406981,-0.2528472912165848,-0.04828308877691986
10428,8.0,299.9983,2766.1003,0.0,0.0,0.0,-0.10575184621433978,0.0,0.0,-0.13780823495561387,-0.35316369180204266,-0.3498535050503527,-0.95269656163133,-0.27119793953765275,-0.08300830859703222
10429,8.0,299.35859,2826.3438,0.0,0.0,0.0,-0.10576198735801202,0.0,0.0,-0.13368870455404788,-0.3148580048190657,-0.4105912117571976,-0.9472273010365561,-0.24806113344172775,-0.07205768413503973
10430,8.0,300.71334,2744.4790000000003,0.0,0.0,0.0,-0.1057721285016843,0.0,0.0,-0.16252946023290885,-0.3205460058454277,-0.35117761014853166,-0.968583472069246,-0.2310328676936688,-0.10423277434197391
10431,8.0,300.77913,2856.4365,0.0,0.0,0.0,-0.10578226964535656,0.0,0.0,-0.1927987566977558,-0.34161157674943765,-0.3338750575984027,-0.9557069986059371,-0.24000284658893678,-0.09031775904291882
10432,8.0,300.83608,3029.1756,0.0,0.0,0.0,-0.10579241078902882,0.0,0.0,-0.26357969707079076,-0.3053618755443707,-0.35185217127010565,-0.9888567725875651,-0.24923658461773576,-0.07725286767051442
10433,8.0,300.98646,3114.2761,0.0,0.0,0.0,-0.10580255193270108,0.0,0.0,-0.20866944500157078,-0.35355397547556067,-0.3844387605811517,-0.945148547528899,-0.2049807890725288,-0.08422336265319871
10434,8.0,300.44477,2909.3088,0.0,0.0,0.0,-0.10581269307637334,0.0,0.0,-0.18663220778166484,-0.30580968142606574,-0.3919153405515326,-0.981001105357271,-0.2122733526922488,-0.09357737144236751
10435,8.0,300.42056,2876.4754,0.0,0.0,0.0,-0.1058228342200456,0.0,0.0,-0.16560025651597282,-0.3230000367926217,-0.38577638243566464,-0.97169530498136,-0.2355882881557538,-0.06925413053935053
10436,8.0,300.45657,2830.0987,0.0,0.0,0.0,-0.10583297536371787,0.0,0.0,-0.19769267362074783,-0.3431339140971807,-0.31945275965003267,-0.9630209620677691,-0.25789622527237577,-0.07080648339480584
10437,8.0,299.79062000000005,2847.2069,0.0,0.0,0.0,-0.10584311650739012,0.0,0.0,-0.2015441183108558,-0.3110796458586707,-0.35285602854167863,-0.9429159927885632,-0.2195966887175058,-0.07812132433122441
10438,8.0,299.70852,2972.1327,0.0,0.0,0.0,-0.10585325765106239,0.0,0.0,-0.2170212400108288,-0.3420828191059457,-0.34435005739720465,-0.955694008739655,-0.24068673974393176,-0.07255827426744413
10439,8.0,299.87265,2914.0247,0.0,0.0,0.0,-0.10586339879473464,0.0,0.0,-0.15945772162725186,-0.32523977547616667,-0.40109325863232265,-0.9571636368171961,-0.27081814300266976,-0.07670869258505852
10440,8.0,299.38863,2693.2109,0.0,0.0,0.0,-0.10587353993840691,0.0,0.0,-0.14690469786086485,-0.2988728699164557,-0.3728912862140047,-0.966032878387522,-0.26587353317717477,-0.0900353996773021
10441,8.0,300.0154,3007.4468,0.0,0.0,0.0,-0.10588368108207917,0.0,0.0,-0.16767356887059284,-0.34397022033221764,-0.4025449420505926,-0.96342910934055,-0.24153766717791178,-0.09536811570185022
10442,8.0,299.92327,3074.3018,0.0,0.0,0.0,-0.10589382222575143,0.0,0.0,-0.2263267060142068,-0.3262553256538937,-0.38192895021595263,-0.9545068646574931,-0.2203114252055448,-0.05300421312060855
10443,8.0,299.69579,2855.855,0.0,0.0,0.0,-0.10590396336942369,0.0,0.0,-0.2207395740352998,-0.3091037980311697,-0.3382652372341796,-0.963927131897201,-0.25390747506121675,-0.05836915353808695
10444,8.0,300.78841,2963.0903,0.0,0.0,0.0,-0.10591410451309595,0.0,0.0,-0.23598103402701479,-0.3187921408498347,-0.34593227782585767,-0.9241314606421742,-0.24718685059294276,-0.07937812530476103
10445,8.0,299.61814,2963.9572,0.0,0.0,0.0,-0.10592424565676821,0.0,0.0,-0.1938651315004988,-0.3058003595251457,-0.4013034978955716,-0.957254231508637,-0.22217899712735978,-0.07074255643274673
10446,8.0,299.69988,2953.5669,0.0,0.0,0.0,-0.10593438680044048,0.0,0.0,-0.16229527786979686,-0.36595202263915266,-0.36956329665805765,-0.9583854644502812,-0.2380628070199698,-0.1091415556439329
10447,8.0,300.50527,2922.7103,0.0,0.0,0.0,-0.10594452794411273,0.0,0.0,-0.17421857683153483,-0.3318553461740727,-0.3823570281182006,-1.00099758594827,-0.26207030905932577,-0.0922733753056731
10448,8.0,300.0939,2825.1938,0.0,0.0,0.0,-0.105954669087785,0.0,0.0,-0.19941510759823883,-0.3113267775580607,-0.3480464849545137,-0.994557074470141,-0.2576058683237198,-0.08141612285364573
10449,8.0,299.15257,2718.2099,0.0,0.0,0.0,-0.10596481023145725,0.0,0.0,-0.16673064846003385,-0.3392383221002157,-0.32029895520604573,-0.9401338815914901,-0.23536447134116478,-0.1076505682542839
10450,8.0,299.43144,2806.4838,0.0,0.0,0.0,-0.10597495137512952,0.0,0.0,-0.16347439701116684,-0.31178191937047967,-0.37784468091786666,-0.9556632971291241,-0.2314045075653468,-0.05471855325630075
10451,8.0,299.32034,2943.197,0.0,0.0,0.0,-0.10598509251880178,0.0,0.0,-0.16749020099999584,-0.3214292964876017,-0.4057388887508106,-0.9654817919231341,-0.2510796257546297,-0.08509244144947012
10452,8.0,300.37925,3068.8715,0.0,0.0,0.0,-0.10599523366247404,0.0,0.0,-0.1986555854557798,-0.34501388820021966,-0.38919083262264464,-0.9545779340195072,-0.2533913659902808,-0.058623279702917246
10453,8.0,300.37466,2876.0148,0.0,0.0,0.0,-0.1060053748061463,0.0,0.0,-0.19956603120063382,-0.3188246053830387,-0.35584604852677065,-0.9639870251106121,-0.23087443590803278,-0.1129260447674329
10454,8.0,299.23308,2988.5197,0.0,0.0,0.0,-0.10601551594981856,0.0,0.0,-0.2354959101441368,-0.35099345194285664,-0.3219459932435957,-0.9676943451064961,-0.25829999530472475,-0.04441432561610266
10455,8.0,300.27538,3109.0673,0.0,0.0,0.0,-0.10602565709349082,0.0,0.0,-0.23425089934876378,-0.3366120690335247,-0.3742158472747287,-0.998713841812882,-0.27159620762195874,-0.08407646874645142
10456,8.0,301.22,3022.8454,0.0,0.0,0.0,-0.1060357982371631,0.0,0.0,-0.1960243674635988,-0.3235715706440277,-0.39927357291023363,-0.9802368209393422,-0.24762108905579877,-0.06127114134124085
10457,8.0,301.57552999999996,2888.3246,0.0,0.0,0.0,-0.10604593938083534,0.0,0.0,-0.15866366792138484,-0.3517512211626426,-0.36756367798321066,-0.948084804463685,-0.2142234031722038,-0.1300826386406569
10458,8.0,301.81741,2729.6856,0.0,0.0,0.0,-0.10605608052450761,0.0,0.0,-0.16179706279562683,-0.2873270572794727,-0.38063215220796864,-0.9673219250322411,-0.1994094030001758,-0.08199001555128452
10459,8.0,300.90871,2633.062,0.0,0.0,0.0,-0.10606622166817986,0.0,0.0,-0.15861371469145485,-0.3298535287465087,-0.31191786713639674,-0.9752643163385941,-0.24023953167979578,-0.12023311812858489
10460,8.0,300.98427999999996,2835.5677,0.0,0.0,0.0,-0.10607636281185213,0.0,0.0,-0.2206011336741368,-0.3029079864521907,-0.3384326464157017,-0.9715803922875191,-0.2395077523250748,-0.08290414243375183
10461,8.0,300.28376000000003,3079.4873,0.0,0.0,0.0,-0.10608650395552441,0.0,0.0,-0.23142146937202077,-0.3409657412681987,-0.36370003376189863,-0.943642381652752,-0.23169999155950877,-0.06030306902344954
10462,8.0,298.98248,2890.9353,0.0,0.0,0.0,-0.10609664509919665,0.0,0.0,-0.15742672259680787,-0.34968620732634165,-0.37165922475490965,-0.961756496870476,-0.26483240856692375,-0.08307750040661092
10463,8.0,299.46057,2854.0909,0.0,0.0,0.0,-0.10610678624286893,0.0,0.0,-0.16126303946292286,-0.29277467485211073,-0.41353466276769363,-0.9741794193240232,-0.26860097953135276,-0.04828614575247155
10464,8.0,299.65659,3256.1805,0.0,0.0,0.0,-0.10611692738654117,0.0,0.0,-0.22027074321402976,-0.3671670310990647,-0.40235978072731865,-0.975584179130162,-0.2524634619462037,-0.11293124274044589
10465,8.0,298.99501000000004,3211.6502,0.0,0.0,0.0,-0.10612706853021345,0.0,0.0,-0.2592190638079297,-0.3376829122692087,-0.3793594999498677,-0.9295567867126121,-0.22816877443100478,-0.0990174788052643
10466,8.0,300.2109,2813.4405,0.0,0.0,0.0,-0.10613720967388571,0.0,0.0,-0.2219857196707848,-0.2972584889296287,-0.3359714315252987,-0.9866271765375212,-0.24058701566908977,-0.11274354829192189
10467,8.0,300.95583,2642.0001,0.0,0.0,0.0,-0.10614735081755795,0.0,0.0,-0.15291339254387684,-0.3042725404943617,-0.34591612661926363,-0.9521756700199221,-0.2462698997824468,-0.06804860508712443
10468,8.0,301.05309,2852.5341,0.0,0.0,0.0,-0.10615749196123023,0.0,0.0,-0.15470042121524286,-0.3286880682164867,-0.3837106491917926,-0.978711393178794,-0.22160409928562178,-0.09904634528736321
10469,8.0,300.88205,3082.5217,0.0,0.0,0.0,-0.10616763310490247,0.0,0.0,-0.1866136045098288,-0.32635798815402567,-0.42403802343679464,-0.9499022407705521,-0.21531596035753078,-0.0876342745708295
10470,8.0,299.05147,2961.5584,0.0,0.0,0.0,-0.10617777424857475,0.0,0.0,-0.18842457628105783,-0.35211504887604966,-0.3597001884621447,-0.973544020318814,-0.2531378305502588,-0.1071099689284309
10471,8.0,299.70596,2838.9624,0.0,0.0,0.0,-0.10618791539224702,0.0,0.0,-0.2097469351579108,-0.30316751020030375,-0.3500592353506567,-0.9939901813041931,-0.27099061843469174,-0.058208869531268144
10472,8.0,299.37582000000003,2899.0622,0.0,0.0,0.0,-0.10619805653591927,0.0,0.0,-0.23175029942697378,-0.3387072371928017,-0.31078498259708975,-0.9484025900925481,-0.26357124656495673,-0.07771146567902452
10473,8.0,299.15917,3239.0588,0.0,0.0,0.0,-0.10620819767959154,0.0,0.0,-0.23850833308893976,-0.35375606820800565,-0.3923285946048176,-0.9109472833884972,-0.2579668386718447,-0.05605455796365415
10474,8.0,298.42692,3168.7863,0.0,0.0,0.0,-0.10621833882326379,0.0,0.0,-0.21097244088885883,-0.3105480340612047,-0.44171143565602455,-0.911744883469714,-0.23780514765204078,-0.048171252310382454
10475,8.0,298.76921,2719.6538,0.0,0.0,0.0,-0.10622847996693606,0.0,0.0,-0.1142521257033069,-0.3229589393685657,-0.3894957702402397,-0.952889798557901,-0.24452614702285175,-0.08021259350411662
10476,8.0,299.57636,2622.3258,0.0,0.0,0.0,-0.10623862111060832,0.0,0.0,-0.14714502051958286,-0.26122790305868676,-0.3887486401465036,-0.9845107199936431,-0.20101057120569882,-0.09442988866575441
10477,8.0,300.82689,2949.8018,0.0,0.0,0.0,-0.10624876225428058,0.0,0.0,-0.21990581105801377,-0.3274933551560777,-0.34926693456746266,-0.999995795706901,-0.22625127967676278,-0.1110620090884669
10478,8.0,300.67082999999997,2976.4796,0.0,0.0,0.0,-0.10625890339795284,0.0,0.0,-0.2364030932236688,-0.3173011027976807,-0.3510712594180357,-0.9936615538992601,-0.26034409565896177,-0.12186144143678787
10479,8.0,300.59499,2911.2299,0.0,0.0,0.0,-0.1062690445416251,0.0,0.0,-0.17444299146368283,-0.33088408515821666,-0.37961411956749663,-0.993980038670692,-0.27820575961427074,-0.07265083061107873
10480,8.0,299.79434,2756.0137,0.0,0.0,0.0,-0.10627918568529736,0.0,0.0,-0.13146980842505987,-0.3577324263704416,-0.34855710220990765,-0.9305172059523982,-0.24687995740265475,-0.10643361435417992
10481,8.0,300.03781000000004,2928.2131,0.0,0.0,0.0,-0.10628932682896963,0.0,0.0,-0.16716476533287786,-0.3349604105755187,-0.3879784890104956,-0.9397152471801741,-0.25051738340664076,-0.06299443658131684
10482,8.0,299.66891,3191.5973,0.0,0.0,0.0,-0.10629946797264188,0.0,0.0,-0.2288606519967878,-0.3559250719020697,-0.38538018138156266,-0.9445875413460322,-0.23730601052027975,-0.07712420922581682
10483,8.0,298.99145,3196.5904,0.0,0.0,0.0,-0.10630960911631415,0.0,0.0,-0.28067456374792277,-0.3307657071490337,-0.36024338170825365,-0.9585018362242661,-0.24846023239111578,-0.05925597231710914
10484,8.0,299.8899,3116.2409,0.0,0.0,0.0,-0.1063197502599864,0.0,0.0,-0.23857791297330677,-0.32624135293501466,-0.3824401754214066,-0.9378353440046421,-0.1997323156745448,-0.08158373671168792
10485,8.0,299.88833999999997,2686.0504,0.0,0.0,0.0,-0.10632989140365867,0.0,0.0,-0.18065709220696682,-0.2908898168835898,-0.3449453316984537,-0.9760039483815901,-0.24133237257515078,-0.07453784578906263
10486,8.0,300.52563,2901.097,0.0,0.0,0.0,-0.10634003254733093,0.0,0.0,-0.14574270264618486,-0.3202779302664707,-0.4158404045627526,-0.99348899740723,-0.2552378927075188,-0.05755142524363344
10487,8.0,301.4008,3058.1364,0.0,0.0,0.0,-0.10635017369100319,0.0,0.0,-0.17953539394876383,-0.3211686480318777,-0.42889307208595057,-1.024844416919269,-0.27162723334002076,-0.05555092504119945
10488,8.0,299.98887,2814.0483,0.0,0.0,0.0,-0.10636031483467545,0.0,0.0,-0.17318868916489283,-0.33181475537506666,-0.35039699213899067,-0.9884780298326861,-0.22974486469655278,-0.08785752193886233
10489,8.0,300.23932,2894.6621,0.0,0.0,0.0,-0.10637045597834771,0.0,0.0,-0.2254227957324978,-0.32339322849392665,-0.3310889744609377,-0.9788288288653841,-0.2369972732148098,-0.08583292259604992
10490,8.0,301.91508999999996,3065.051,0.0,0.0,0.0,-0.10638059712201997,0.0,0.0,-0.24396994364545876,-0.3313079783375517,-0.3564210375610177,-0.9588783903589291,-0.23284741623775077,-0.08828055182911211
10491,8.0,301.31979,3072.3579999999997,0.0,0.0,0.0,-0.10639073826569224,0.0,0.0,-0.20123192582254482,-0.34975878643100466,-0.38292939283468863,-0.9272286824878462,-0.2481744350679098,-0.07225926922918463
10492,8.0,300.71471,3139.8645,0.0,0.0,0.0,-0.10640087940936449,0.0,0.0,-0.19293709573390883,-0.3465209153389517,-0.4149823843780726,-0.9208818763789651,-0.22798892253825478,-0.07234003944765603
10493,8.0,299.53145,3107.1596,0.0,0.0,0.0,-0.10641102055303676,0.0,0.0,-0.17752319070767483,-0.37247040238746665,-0.3945053496621466,-0.9337667395531021,-0.2628257275388797,-0.06781579365139773
10494,8.0,299.39398,2777.7312,0.0,0.0,0.0,-0.10642116169670901,0.0,0.0,-0.1919878729077278,-0.31650498206160965,-0.33586806988259765,-1.0021782249647901,-0.26952853907039576,-0.06755155018431894
10495,8.0,300.33567999999997,3034.2522,0.0,0.0,0.0,-0.10643130284038128,0.0,0.0,-0.22429313332850878,-0.3323296282808807,-0.36571414191317564,-0.9708784328832409,-0.2599687776894208,-0.08004955345702583
10496,8.0,299.61073999999996,3099.3937,0.0,0.0,0.0,-0.10644144398405354,0.0,0.0,-0.2122263277551078,-0.35746825180436964,-0.3724437133798326,-0.967924575794218,-0.2026986458722988,-0.12432038664696687
10497,8.0,299.36359,2890.4103,0.0,0.0,0.0,-0.1064515851277258,0.0,0.0,-0.18635482043428883,-0.3193609186609687,-0.37289679829454864,-0.9655032424277511,-0.23984073670543776,-0.10384203470591091
10498,8.0,299.57691,2739.6624,0.0,0.0,0.0,-0.10646172627139806,0.0,0.0,-0.12567408878056688,-0.32637666235336865,-0.38073818883093363,-0.9684536240689311,-0.24898620038552474,-0.11277165584969588
10499,8.0,300.65576,2846.6739,0.0,0.0,0.0,-0.10647186741507032,0.0,0.0,-0.16945266379367585,-0.32694140742910466,-0.36892370279743464,-0.9835826842270531,-0.2559086642737188,-0.06954003121406674
10500,8.0,300.72593,3013.8618,0.0,0.0,0.0,-0.10648200855874258,0.0,0.0,-0.2148275231468258,-0.3381630509615947,-0.36314816709493364,-0.9848340784980562,-0.24097389482227174,-0.07715419230952593
10501,8.0,301.22528,3047.3928,0.0,0.0,0.0,-0.10649214970241484,0.0,0.0,-0.23541111124326775,-0.3386616206732997,-0.35225859601771664,-0.978015898310154,-0.25268196933026876,-0.06922936670690653
10502,8.0,300.31638,2950.7153,0.0,0.0,0.0,-0.1065022908460871,0.0,0.0,-0.1996410218405348,-0.3256402423131897,-0.37166251781773463,-0.9895868192846151,-0.2584014013747328,-0.07788849567024603
10503,8.0,300.5203,2824.5826,0.0,0.0,0.0,-0.10651243198975936,0.0,0.0,-0.19077664387068882,-0.2853695492787817,-0.38245638742300664,-0.9554799799210322,-0.26623115979996975,-0.04499265533592936
10504,8.0,300.30814,3042.5925,0.0,0.0,0.0,-0.10652257313343162,0.0,0.0,-0.17283512567499884,-0.34531715395514967,-0.4067198465701236,-0.953399291105684,-0.2419261776637548,-0.07926872367821393
10505,8.0,300.38973,3153.7726,0.0,0.0,0.0,-0.1065327142771039,0.0,0.0,-0.22701337547447578,-0.3197018570546167,-0.4119528881690846,-0.9262740894361352,-0.24822356756525876,-0.05773112210911815
10506,8.0,299.42445,3014.1938,0.0,0.0,0.0,-0.10654285542077614,0.0,0.0,-0.2449774992798968,-0.3276763683891397,-0.3435857831117767,-0.9604832467948161,-0.24691510704862377,-0.1017485181442969
10507,8.0,299.70673,2878.5311,0.0,0.0,0.0,-0.10655299656444842,0.0,0.0,-0.20051292355158482,-0.3254838674252567,-0.3490047966340917,-0.9376967921859681,-0.2319604069677098,-0.08882463065580852
10508,8.0,299.7735,2819.2734,0.0,0.0,0.0,-0.10656313770812066,0.0,0.0,-0.18139031037682982,-0.3162048776469917,-0.35939351818687865,-0.9757648922854971,-0.22176471969147377,-0.11528698842793987
10509,8.0,300.54832000000005,2938.8546,0.0,0.0,0.0,-0.10657327885179294,0.0,0.0,-0.15231285947460885,-0.3710564625354216,-0.36996909319060667,-0.9808694639042791,-0.2453624836553918,-0.10624571725563589
10510,8.0,300.60912,2711.3902,0.0,0.0,0.0,-0.10658341999546518,0.0,0.0,-0.13771023340594188,-0.29569285540511275,-0.3907918285756506,-0.9963331701729281,-0.26915620005614876,-0.09085051074674733
10511,8.0,300.33914,2722.6633,0.0,0.0,0.0,-0.10659356113913745,0.0,0.0,-0.15956789231062485,-0.32657871455580967,-0.3414750615634647,-0.9775845780075861,-0.26517677174590976,-0.07464902161653483
10512,8.0,299.08982000000003,2844.8102,0.0,0.0,0.0,-0.1066037022828097,0.0,0.0,-0.1901403633378928,-0.32106456698160574,-0.35354634570230764,-0.9458026207334511,-0.2144444132840158,-0.07967034562035093
10513,8.0,300.50181000000003,3052.1747,0.0,0.0,0.0,-0.10661384342648197,0.0,0.0,-0.22219905947933977,-0.3258358907749987,-0.3797499558759026,-0.9658494598544201,-0.23701566370412477,-0.07250607364879233
10514,8.0,301.0941,3125.8027,0.0,0.0,0.0,-0.10662398457015423,0.0,0.0,-0.19135301092507181,-0.3515127020891027,-0.4073002463599046,-0.9243309999843671,-0.2181322079504728,-0.07619214781657953
10515,8.0,301.48632000000003,3046.1973,0.0,0.0,0.0,-0.1066341257138265,0.0,0.0,-0.19174875601662883,-0.3214753791021497,-0.4127437704021386,-0.9463809838905312,-0.24952534063123374,-0.06552868856542804
10516,8.0,300.27099,3040.8931,0.0,0.0,0.0,-0.10664426685749875,0.0,0.0,-0.18920157698774182,-0.3183299670817217,-0.4168240272298286,-0.9384315099659791,-0.23409525400090275,-0.06290291780578465
10517,8.0,299.95986,3062.1936,0.0,0.0,0.0,-0.10665440800117101,0.0,0.0,-0.23254405929031177,-0.3418508354955507,-0.3564354966399446,-1.0004662274633291,-0.26672820963652477,-0.08509058618853702
10518,8.0,300.17366,2995.2602,0.0,0.0,0.0,-0.10666454914484327,0.0,0.0,-0.22949073143897178,-0.30939904897780873,-0.37159451860352366,-1.024291385014689,-0.2779350394525527,-0.06404914786215873
10519,8.0,299.93639,2714.4439,0.0,0.0,0.0,-0.10667469028851553,0.0,0.0,-0.2087306149101078,-0.30263810728805574,-0.3137544538701537,-1.021808111669609,-0.27298289104631374,-0.07990227654174072
10520,8.0,300.03974,2701.9245,0.0,0.0,0.0,-0.1066848314321878,0.0,0.0,-0.15921356888315583,-0.3099346935106727,-0.35216932868390666,-0.9771209755568321,-0.22382290422210077,-0.08662921457138782
10521,8.0,299.00356,2867.3713,0.0,0.0,0.0,-0.10669497257586007,0.0,0.0,-0.16348285764950185,-0.3054853400690557,-0.40264108935258164,-0.9671061939534501,-0.22275218257642876,-0.08870503978625582
10522,8.0,299.93208,3156.6875,0.0,0.0,0.0,-0.10670511371953231,0.0,0.0,-0.19339168025877282,-0.36066322188718863,-0.4054992652346616,-0.9692819357606792,-0.22694259995499078,-0.06465528015147934
10523,8.0,299.55056,3236.9973,0.0,0.0,0.0,-0.10671525486320459,0.0,0.0,-0.25409897933011677,-0.3393642285576417,-0.39050313335715864,-0.9562084662129281,-0.23036331202758875,-0.055604412487478244
10524,8.0,300.65862000000004,3092.5439,0.0,0.0,0.0,-0.10672539600687683,0.0,0.0,-0.22822376351393178,-0.3420800326681707,-0.36975231846421264,-0.9469551724571991,-0.2431701448115248,-0.08465731233977622
10525,8.0,300.03972999999996,2869.5040000000004,0.0,0.0,0.0,-0.1067355371505491,0.0,0.0,-0.1990797319476398,-0.33993532671150467,-0.3332425159584757,-0.9626859106572022,-0.2759219344188747,-0.10021605741480481
10526,8.0,300.34378,2848.6687,0.0,0.0,0.0,-0.10674567829422138,0.0,0.0,-0.15478783430136986,-0.3244002876358157,-0.38673602147287367,-0.9645078457945131,-0.2846814916658757,-0.09116608141089172
10527,8.0,300.48398,2916.1793,0.0,0.0,0.0,-0.10675581943789363,0.0,0.0,-0.16136471911045785,-0.3496325962635507,-0.3754483849613706,-0.968128654496859,-0.2775159693436937,-0.10138156962058191
10528,8.0,300.13743,2857.7419,0.0,0.0,0.0,-0.10676596058156589,0.0,0.0,-0.18495262415090283,-0.3018512476578987,-0.3818782978434537,-0.949368936845419,-0.22390098527480679,-0.09489142408630441
10529,8.0,300.28652999999997,2728.9677,0.0,0.0,0.0,-0.10677610172523815,0.0,0.0,-0.2099354604715168,-0.3045280517720787,-0.3150745464979367,-0.9663592563772332,-0.24052736563570276,-0.09886690072115341
10530,8.0,300.83466,2806.4537,0.0,0.0,0.0,-0.1067862428689104,0.0,0.0,-0.1949932233668328,-0.33392407863824064,-0.3241745456460367,-0.992986405092628,-0.2340652617979428,-0.1019758408042319
10531,8.0,299.82152,3190.039,0.0,0.0,0.0,-0.10679638401258268,0.0,0.0,-0.23563614395797677,-0.3400586797786787,-0.3939973769895136,-0.9874951164406801,-0.2475015863390048,-0.08083935759197343
10532,8.0,299.2364,3438.2797,0.0,0.0,0.0,-0.10680652515625493,0.0,0.0,-0.21850749552251078,-0.38039801037486065,-0.44624567919101954,-0.9754583638652451,-0.24702340321931177,-0.06877113954793303
10533,8.0,299.48528999999996,3093.5584,0.0,0.0,0.0,-0.1068166662999272,0.0,0.0,-0.16622917072054186,-0.3530309357739407,-0.4211044110847696,-0.971933398489858,-0.23992186764094478,-0.07036367688910423
10534,8.0,299.8775,2835.6269,0.0,0.0,0.0,-0.10682680744359944,0.0,0.0,-0.1888884827068418,-0.29279180891130174,-0.38027947024566167,-1.0019003613898672,-0.26382066820957273,-0.028233546304684075
10535,8.0,300.30225,2963.8586,0.0,0.0,0.0,-0.10683694858727172,0.0,0.0,-0.2277455905267398,-0.3190547550107527,-0.35413868157826667,-0.976092861077865,-0.25135141996145377,-0.06961076721679785
10536,8.0,299.65179,3142.7127,0.0,0.0,0.0,-0.10684708973094399,0.0,0.0,-0.2727815379864418,-0.3154855714010017,-0.36703908800893764,-0.9796893213803081,-0.23989385127567975,-0.06109499186435625
10537,8.0,298.77199,3088.7452,0.0,0.0,0.0,-0.10685723087461624,0.0,0.0,-0.2182373529133498,-0.3432100902396987,-0.3774539716793066,-0.9303080609992572,-0.23880538762075676,-0.095998983452612
10538,8.0,299.59144,2850.27,0.0,0.0,0.0,-0.10686737201828851,0.0,0.0,-0.14444850869095788,-0.35755517853044866,-0.36440722153669264,-0.9403354069038792,-0.2639113642260238,-0.07654199571835683
10539,8.0,300.45035,2948.3121,0.0,0.0,0.0,-0.10687751316196076,0.0,0.0,-0.16982692798311286,-0.32540938341040565,-0.40097694765334363,-0.9598950044492611,-0.24655510942059475,-0.09385808934282222
10540,8.0,301.8369,3104.2324,0.0,0.0,0.0,-0.10688765430563303,0.0,0.0,-0.20078354238829282,-0.3511842266716847,-0.3916413678569936,-0.9946276372071051,-0.23589556638107975,-0.06370825506476524
10541,8.0,301.65986000000004,3147.5492,0.0,0.0,0.0,-0.10689779544930529,0.0,0.0,-0.23569228814601775,-0.3466999059691167,-0.37438417851384165,-1.003092095494982,-0.22296287780222276,-0.08632128583949761
10542,8.0,300.16977,2984.5876,0.0,0.0,0.0,-0.10690793659297755,0.0,0.0,-0.1974460485464078,-0.3279747401460867,-0.3818193064226316,-0.994082316135786,-0.22897262626533876,-0.07798867469438293
10543,8.0,300.22024,2811.0549,0.0,0.0,0.0,-0.10691807773664981,0.0,0.0,-0.15775767034446986,-0.3451913893527377,-0.35154141759693663,-0.984687795581119,-0.23465584475122875,-0.10411233943508791
10544,8.0,299.21162000000004,3050.7614,0.0,0.0,0.0,-0.10692821888032207,0.0,0.0,-0.14967160017393685,-0.3446583083426267,-0.43302536943877656,-0.9459061343636671,-0.25109771226891475,-0.07675173848905682
10545,8.0,300.07671,3201.0944,0.0,0.0,0.0,-0.10693836002399433,0.0,0.0,-0.20230980101392282,-0.36990939249471466,-0.4008335626316926,-0.9224426159054981,-0.25621251771370673,-0.08468677461293392
10546,8.0,299.33113,2949.6868,0.0,0.0,0.0,-0.1069485011676666,0.0,0.0,-0.18544524608452082,-0.3433317714442077,-0.3678541159918747,-0.9171705844426892,-0.24892156516164576,-0.07231426236511203
10547,8.0,298.98066,2734.9382,0.0,0.0,0.0,-0.10695864231133885,0.0,0.0,-0.19898880288366583,-0.3039969972621677,-0.3283671111148107,-0.964263348545383,-0.25393481254891476,-0.07661633078544312
10548,8.0,299.98708999999997,2936.2882,0.0,0.0,0.0,-0.10696878345501112,0.0,0.0,-0.22423779974054778,-0.3401377436839817,-0.3281827502591157,-0.9789457376619222,-0.23577231463891576,-0.092336692291172
10549,8.0,301.65098,2946.9837,0.0,0.0,0.0,-0.10697892459868337,0.0,0.0,-0.1895688497514888,-0.32358136877249466,-0.38265924009302665,-1.0093492593675162,-0.2267136459623948,-0.0991474301570895
10550,8.0,300.99755,2728.7252,0.0,0.0,0.0,-0.10698906574235564,0.0,0.0,-0.13245516374980687,-0.3148905504122777,-0.3821186103696706,-0.979789217707667,-0.24536620228325876,-0.07595978018439663
10551,8.0,301.27464,2835.7371,0.0,0.0,0.0,-0.1069992068860279,0.0,0.0,-0.14908503982354787,-0.3272117526882857,-0.38569647753277864,-0.995526805478346,-0.25594462451976774,-0.06993722018701623
10552,8.0,299.85752,2941.9944,0.0,0.0,0.0,-0.10700934802970016,0.0,0.0,-0.2023664619595148,-0.2981818232157547,-0.3937445406920606,-0.9782455109153151,-0.23574221097844478,-0.04447715218855316
10553,8.0,299.86258,3116.3394,0.0,0.0,0.0,-0.10701948917337242,0.0,0.0,-0.24858107259804177,-0.3370410892583657,-0.36166718048377167,-0.9880522013456601,-0.2366035444909518,-0.07868719715432172
10554,8.0,299.5748,3415.9991,0.0,0.0,0.0,-0.10702963031704468,0.0,0.0,-0.2785335257566187,-0.3543833206824107,-0.4054615925959436,-0.969646999639208,-0.23529502317931075,-0.052917703853570745
10555,8.0,299.23787000000004,3155.6614,0.0,0.0,0.0,-0.10703977146071694,0.0,0.0,-0.2097673014849208,-0.36253475561689463,-0.38694019136802366,-0.9690312880834422,-0.24638139782345075,-0.09215682722617072
10556,8.0,299.84413,2734.0468,0.0,0.0,0.0,-0.10704991260438922,0.0,0.0,-0.12914334566545588,-0.3325210109597687,-0.36941761155867964,-0.9366536208105152,-0.25022591188287474,-0.1058991451914319
10557,8.0,300.85152,2851.788,0.0,0.0,0.0,-0.10706005374806146,0.0,0.0,-0.18886392152441783,-0.32385502735950267,-0.3541533939697187,-0.9749616787987261,-0.2534506208561288,-0.09423622414764123
10558,8.0,300.75447,2845.7147,0.0,0.0,0.0,-0.10707019489173374,0.0,0.0,-0.2009324293579868,-0.3184953294980417,-0.34559846258041266,-0.9558725636722771,-0.26497963380645373,-0.07228789151800942
10559,8.0,300.02515,2732.2591,0.0,0.0,0.0,-0.10708033603540598,0.0,0.0,-0.20448706269630182,-0.3077875658862677,-0.3182639031752017,-0.9690171431120461,-0.2679927761588277,-0.09285141219622092
10560,8.0,300.07517,2823.684,0.0,0.0,0.0,-0.10709047717907826,0.0,0.0,-0.1976917414306558,-0.3155375308661297,-0.3451001461812327,-0.9596047082956111,-0.2339785478543848,-0.1040215623586289
10561,8.0,300.70319,3025.0553,0.0,0.0,0.0,-0.10710061832275052,0.0,0.0,-0.16172235586575384,-0.34205490406569067,-0.4157640156377136,-0.9736743952091811,-0.2278664611311688,-0.09972625636946521
10562,8.0,300.17409,3260.6525,0.0,0.0,0.0,-0.10711075946642278,0.0,0.0,-0.17090169249668383,-0.36184521865884267,-0.4584100404840486,-0.9747080926961992,-0.2302178599757338,-0.10440930277439589
10563,8.0,299.884,3259.9069,0.0,0.0,0.0,-0.10712090061009504,0.0,0.0,-0.19814581933046982,-0.35102798350626463,-0.4417565050204726,-0.9918527504832451,-0.2251043312260678,-0.061696010280422146
10564,8.0,300.37461,3088.4183,0.0,0.0,0.0,-0.1071310417537673,0.0,0.0,-0.22216400102587977,-0.3538850549457357,-0.36275297929093164,-0.9828186328566471,-0.26201232075610276,-0.0914292001703595
10565,8.0,300.78637000000003,2821.633,0.0,0.0,0.0,-0.10714118289743955,0.0,0.0,-0.24443500517635675,-0.2891969292790147,-0.3240740413686177,-0.987193309765894,-0.25787715590549376,-0.052742909092069856
10566,8.0,300.52268,2810.0388,0.0,0.0,0.0,-0.10715132404111183,0.0,0.0,-0.2087750763244958,-0.3171779321155247,-0.3282286403561447,-0.9810503493121311,-0.25629609058195474,-0.08171966725235322
10567,8.0,299.37504,2940.1458,0.0,0.0,0.0,-0.10716146518478407,0.0,0.0,-0.1958872544600668,-0.3208188133023517,-0.3770248298644536,-0.946095632397369,-0.2406118504290408,-0.0894186394076826
10568,8.0,299.2028,2951.0547,0.0,0.0,0.0,-0.10717160632845635,0.0,0.0,-0.15763641470500284,-0.3323879408241357,-0.40702259556750264,-0.9458128342944591,-0.25084085336856476,-0.08695067221861322
10569,8.0,300.04762999999997,2896.8195,0.0,0.0,0.0,-0.1071817474721286,0.0,0.0,-0.17605694688546783,-0.3254455868364787,-0.37905827082763865,-0.9572849532516691,-0.23627438006346577,-0.07906657825676372
10570,8.0,299.90488,3068.6054,0.0,0.0,0.0,-0.10719188861580087,0.0,0.0,-0.2077050132913888,-0.3228785886356357,-0.4021957963311346,-0.9786971266173861,-0.25512635413651075,-0.05943212584699415
10571,8.0,301.07092,3266.8575,0.0,0.0,0.0,-0.10720202975947313,0.0,0.0,-0.2563661973563738,-0.35605826362771464,-0.3806186455841356,-0.992191682641695,-0.24427377682044477,-0.06956991803901634
10572,8.0,301.18339,3253.5494,0.0,0.0,0.0,-0.10721217090314539,0.0,0.0,-0.2223388373306348,-0.3596152375737606,-0.4070437218320876,-1.001116389522495,-0.2528479802266528,-0.08118268421610712
10573,8.0,301.28389,3100.6841,0.0,0.0,0.0,-0.10722231204681765,0.0,0.0,-0.17607255093700783,-0.3349379772183047,-0.4315200141627096,-1.0005082874749802,-0.23860766199624278,-0.08209988225962751
10574,8.0,300.98076000000003,2908.2804,0.0,0.0,0.0,-0.10723245319048991,0.0,0.0,-0.14971784490850087,-0.32768576121756665,-0.40664102584484463,-0.9828313896754061,-0.2179884581587858,-0.06572027085458573
10575,8.0,300.2616,2855.7282,0.0,0.0,0.0,-0.10724259433416217,0.0,0.0,-0.16142287966619784,-0.32281300095666265,-0.38383417451148366,-0.9535707026251011,-0.2013032586295848,-0.08131926019708613
10576,8.0,299.41309,2815.3668,0.0,0.0,0.0,-0.10725273547783444,0.0,0.0,-0.2028304089153028,-0.3319147023649307,-0.3210561063432707,-0.961003824298693,-0.22963169479288378,-0.08737637708912702
10577,8.0,299.59294,2824.2275,0.0,0.0,0.0,-0.10726287662150669,0.0,0.0,-0.2182834355278978,-0.3172998970300617,-0.3229112963488637,-0.956591231570704,-0.23790660438455374,-0.09594269133005641
10578,8.0,299.89082,3004.6483,0.0,0.0,0.0,-0.10727301776517896,0.0,0.0,-0.2182495220470508,-0.3221704990682527,-0.37291804614914564,-0.970419055685404,-0.24962512550108176,-0.09394800515669621
10579,8.0,300.07586000000003,3126.0445,0.0,0.0,0.0,-0.1072831589088512,0.0,0.0,-0.18713093961338584,-0.3577604630007087,-0.4053480680547396,-0.9624140049928671,-0.25317871519179375,-0.08279851516382722
10580,8.0,299.86967999999996,3206.8673,0.0,0.0,0.0,-0.10729330005252348,0.0,0.0,-0.18002860356743983,-0.3540799232049677,-0.4406990569511106,-0.9973306743663741,-0.26333555445919576,-0.07243110428714343
10581,8.0,300.90918,3190.2529,0.0,0.0,0.0,-0.10730344119619575,0.0,0.0,-0.2020972616729468,-0.3429432406933627,-0.42471673888377864,-0.9962446627766931,-0.2618672942692898,-0.04094022438248556
10582,8.0,299.70819,2999.2827,0.0,0.0,0.0,-0.107313582339868,0.0,0.0,-0.22763872303869276,-0.3275386069055437,-0.35652972889924467,-0.970295631690723,-0.22373750750367277,-0.06796648623276993
10583,8.0,300.25779,2920.1804,0.0,0.0,0.0,-0.10732372348354027,0.0,0.0,-0.2129128046978578,-0.33715192868680466,-0.33759719131074867,-0.9896960983079001,-0.23792074935594976,-0.05538488881356295
10584,8.0,299.91188999999997,2831.3657,0.0,0.0,0.0,-0.10733386462721252,0.0,0.0,-0.19492267076236983,-0.3277628796826777,-0.3379789130209217,-0.9824369212789751,-0.24545605730212677,-0.09497762431206172
10585,8.0,299.17645,2922.3589,0.0,0.0,0.0,-0.10734400577088479,0.0,0.0,-0.17133502916695081,-0.3488306898694087,-0.36815842539440763,-0.9952313924116911,-0.24493608774830977,-0.08449105421036783
10586,8.0,298.97943,2901.1765,0.0,0.0,0.0,-0.10735414691455705,0.0,0.0,-0.17683053293931483,-0.3192691485994117,-0.38578554221656863,-0.9561811996527372,-0.22144889976780477,-0.08045744437753152
10587,8.0,299.62942999999996,2950.678,0.0,0.0,0.0,-0.10736428805822931,0.0,0.0,-0.18330862586365282,-0.3367082264680147,-0.37691558123867164,-0.972551278400838,-0.24395438012392276,-0.09216080119306291
10588,8.0,299.7906,3076.4141,0.0,0.0,0.0,-0.10737442920190157,0.0,0.0,-0.2299665435534308,-0.34471992408120766,-0.36046661083778464,-1.000329296844815,-0.26350792856620775,-0.08285932030232822
10589,8.0,301.3472,3195.2678,0.0,0.0,0.0,-0.10738457034557382,0.0,0.0,-0.23081465415213276,-0.3620513846566897,-0.37841560681921266,-0.9992795697412151,-0.26215385153007076,-0.09097414245769882
10590,8.0,300.45932,2950.929,0.0,0.0,0.0,-0.10739471148924609,0.0,0.0,-0.17620673564775083,-0.3486254459291527,-0.37217654972596564,-0.968080261672083,-0.25457381872447976,-0.09077269719206772
10591,8.0,300.07023,2809.869,0.0,0.0,0.0,-0.10740485263291837,0.0,0.0,-0.13072699477674987,-0.32319577644693975,-0.40020723221487864,-0.9375112458276561,-0.26139065128974875,-0.08657636344617181
10592,8.0,300.70214,2970.7113,0.0,0.0,0.0,-0.10741499377659061,0.0,0.0,-0.15478978987406286,-0.34744991369313666,-0.4007823631041396,-0.9368839528232471,-0.28023889660242574,-0.06748447100119873
10593,8.0,299.45384,2982.4702,0.0,0.0,0.0,-0.10742513492026289,0.0,0.0,-0.2119936450021438,-0.33174898531107566,-0.3628538382058857,-0.947496430395617,-0.25589526910739674,-0.08621794344854852
10594,8.0,300.01626,3079.8884,0.0,0.0,0.0,-0.10743527606393513,0.0,0.0,-0.25406459975422374,-0.3200897393253977,-0.3620548297070297,-0.9855350955797412,-0.21557940538353076,-0.08555450477332223
10595,8.0,300.02457000000004,3156.5194,0.0,0.0,0.0,-0.1074454172076074,0.0,0.0,-0.24038152854880976,-0.36709545511200065,-0.35202610578227167,-0.987691940272605,-0.2301617056551918,-0.10800956276471389
10596,8.0,299.06631,2954.5822,0.0,0.0,0.0,-0.10745555835127966,0.0,0.0,-0.18618516183754483,-0.32212846945410467,-0.38980558159081563,-1.011060284148881,-0.23092861439087975,-0.10500652251583689
10597,8.0,299.04569,3053.1398,0.0,0.0,0.0,-0.10746569949495192,0.0,0.0,-0.1998146625101718,-0.3407904388683977,-0.3874731406556216,-0.9759040216567281,-0.24263017370073378,-0.0954731279289641
10598,8.0,299.54787999999996,3143.5594,0.0,0.0,0.0,-0.10747584063862418,0.0,0.0,-0.2001046242912888,-0.3468586315972817,-0.4086002969007096,-0.9600913115236351,-0.2323966212682608,-0.06927627816003634
10599,8.0,299.28333,2804.8488,0.0,0.0,0.0,-0.10748598178229644,0.0,0.0,-0.2039990307856368,-0.28467050803479177,-0.36393446943753566,-0.95532037276528,-0.2660378215483888,-0.04092504589598756
10600,8.0,299.63976,2829.8238,0.0,0.0,0.0,-0.10749612292596869,0.0,0.0,-0.18331121978390882,-0.3247376188591077,-0.35214693585669665,-0.9647373368096621,-0.26597676309736273,-0.05779095047452274
10601,8.0,299.4211,3032.0479,0.0,0.0,0.0,-0.10750626406964098,0.0,0.0,-0.2193224931079448,-0.3051566012066117,-0.39718774691687864,-0.9739755736689051,-0.25061059228333976,-0.053031586072060044
10602,8.0,300.2594,3162.7886,0.0,0.0,0.0,-0.10751640521331322,0.0,0.0,-0.18279213175767883,-0.3525290324694067,-0.42608758520907064,-0.972225022001139,-0.2487240219221498,-0.06710672731091835
10603,8.0,300.7415,3147.8757,0.0,0.0,0.0,-0.1075265463569855,0.0,0.0,-0.19085080364550783,-0.35286905893796466,-0.4131557578927986,-0.9637513532698531,-0.2734647218663667,-0.08981526704007672
10604,8.0,301.67562999999996,3008.2505,0.0,0.0,0.0,-0.10753668750065774,0.0,0.0,-0.1779472156095228,-0.3207653947570797,-0.4157204256184116,-0.9838862438245122,-0.2571137631476528,-0.08406630280819813
10605,8.0,300.4691,2866.8901,0.0,0.0,0.0,-0.10754682864433002,0.0,0.0,-0.2131658537778318,-0.3287048071081387,-0.32959234326823167,-0.9470985777438521,-0.2713533417054898,-0.1035450713666029
10606,8.0,301.12063,2966.8821,0.0,0.0,0.0,-0.10755696978800228,0.0,0.0,-0.21811886344665576,-0.3229469323548807,-0.36079228968492666,-1.000263496383321,-0.22573477543828777,-0.11642848559309689
10607,8.0,300.65692,2935.3522,0.0,0.0,0.0,-0.10756711093167454,0.0,0.0,-0.20509822475911882,-0.33184616612816664,-0.35532938216827964,-0.988247160797401,-0.2236862167836108,-0.11024797409062789
10608,8.0,300.16577,2706.5084,0.0,0.0,0.0,-0.1075772520753468,0.0,0.0,-0.11540691670977589,-0.34876407880783467,-0.35853998670014164,-0.980407543448691,-0.2187499054764348,-0.10247705509869791
10609,8.0,300.21827,2651.423,0.0,0.0,0.0,-0.10758739321901906,0.0,0.0,-0.13965658552303187,-0.28816252251692676,-0.3781472880602316,-0.961226313755651,-0.22750223825022278,-0.07212748693442873
10610,8.0,299.85137000000003,2997.8169,0.0,0.0,0.0,-0.10759753436269132,0.0,0.0,-0.14634518115564485,-0.3390604663101627,-0.42585582451369763,-0.9646693781254551,-0.26139603164777975,-0.06836846078594173
10611,8.0,299.69909,3262.5388,0.0,0.0,0.0,-0.10760767550636358,0.0,0.0,-0.22905750622621576,-0.36365919978286865,-0.3990136235970786,-0.976014810422662,-0.28821148276175873,-0.06674958907467153
10612,8.0,300.2869,3181.2945,0.0,0.0,0.0,-0.10761781665003584,0.0,0.0,-0.2295136612887348,-0.33762117494061566,-0.39989926497948464,-0.9946278905196302,-0.26422392148437074,-0.06412857653749773
10613,8.0,300.02132,3115.763,0.0,0.0,0.0,-0.1076279577937081,0.0,0.0,-0.2205503090491208,-0.3634709277817877,-0.36309289430197866,-0.983236375607875,-0.23559197638611779,-0.0994217878866665
10614,8.0,299.80043,3230.7490000000003,0.0,0.0,0.0,-0.10763809893738036,0.0,0.0,-0.21358024267122877,-0.3425620661382437,-0.4259247356529986,-0.9797021085965701,-0.21974448137709177,-0.093952157455606
10615,8.0,301.02669,3273.0908,0.0,0.0,0.0,-0.10764824008105262,0.0,0.0,-0.26237273381667275,-0.32454657055275266,-0.4080185697532976,-0.99264151502359,-0.2377025155494118,-0.06755688697259563
10616,8.0,300.9358,2986.469,0.0,0.0,0.0,-0.10765838122472488,0.0,0.0,-0.1982544498736908,-0.34069941861191466,-0.3688581353834636,-0.9708629808192162,-0.2312391451490268,-0.08260083918856811
10617,8.0,300.86379,2762.7427,0.0,0.0,0.0,-0.10766852236839715,0.0,0.0,-0.2087343538029768,-0.2705566940793668,-0.3605137573649377,-0.9935476139255152,-0.26466664085056374,-0.047472900076460454
10618,8.0,301.22,2805.4155,0.0,0.0,0.0,-0.1076786635120694,0.0,0.0,-0.19599365585306783,-0.3133958950572667,-0.34338671999713066,-0.9640557639973961,-0.25731743655025374,-0.07678176716902042
10619,8.0,300.8465,2996.6279999999997,0.0,0.0,0.0,-0.10768880465574167,0.0,0.0,-0.19849088165202483,-0.3369043207598677,-0.3755048939194477,-0.998035774845962,-0.25894703655358275,-0.07678064752765994
10620,8.0,300.05098,3177.6889,0.0,0.0,0.0,-0.10769894579941391,0.0,0.0,-0.1870954657273848,-0.3448506130791057,-0.4339919999016756,-0.984701514987473,-0.22754601065454277,-0.07655023141516963
10621,8.0,299.39439,3150.637,0.0,0.0,0.0,-0.10770908694308619,0.0,0.0,-0.20738204995451479,-0.36098565833401064,-0.38934725817308263,-0.986575176542389,-0.23063977731737378,-0.06709570517633053
10622,8.0,299.12826,3002.4426,0.0,0.0,0.0,-0.10771922808675843,0.0,0.0,-0.16623413564603184,-0.3471441654754617,-0.3992892681542826,-0.9689495593303762,-0.22765259443256175,-0.09088893623028961
10623,8.0,299.88781,2883.2928,0.0,0.0,0.0,-0.10772936923043071,0.0,0.0,-0.2029540254275028,-0.3207974641227447,-0.35269752582853564,-0.968341102645326,-0.27553613944329974,-0.08385272893887002
10624,8.0,300.29019,2797.4333,0.0,0.0,0.0,-0.10773951037410295,0.0,0.0,-0.16764912927818085,-0.3388933712361717,-0.34380737077614565,-0.985836902254527,-0.2568308231897288,-0.1025211720080519
10625,8.0,300.92041,2942.8521,0.0,0.0,0.0,-0.10774965151777523,0.0,0.0,-0.18367184562699984,-0.3337670755352457,-0.37711463422081665,-0.9842976436301141,-0.2515091627370218,-0.08976600484671492
10626,8.0,300.46472,2934.8463,0.0,0.0,0.0,-0.10775979266144749,0.0,0.0,-0.16201030127917185,-0.36364692932415765,-0.3664627513520577,-0.9853542912318971,-0.23564433101878476,-0.13365610829833088
10627,8.0,300.23876,2929.8452,0.0,0.0,0.0,-0.10776993380511975,0.0,0.0,-0.20613431351637282,-0.3186905118648047,-0.36577496731667863,-1.0212197173365392,-0.24233731402433079,-0.07793071172241244
10628,8.0,300.6102,2996.775,0.0,0.0,0.0,-0.107780074948792,0.0,0.0,-0.18353550269354382,-0.34520065045865167,-0.3822086173760536,-0.98083705003358,-0.22792135902158678,-0.08598303458511482
10629,8.0,299.56552,3017.8897,0.0,0.0,0.0,-0.10779021609246427,0.0,0.0,-0.2189635087300158,-0.34981932812447963,-0.3485802752396947,-0.9767421416094441,-0.2188884471626078,-0.07122902388525734
10630,8.0,299.88105,3243.7558,0.0,0.0,0.0,-0.10780035723613653,0.0,0.0,-0.2116229778505618,-0.3385289153077027,-0.4358688633269076,-0.965694270469104,-0.21733489157928376,-0.07105424634900813
10631,8.0,299.55631,3345.258,0.0,0.0,0.0,-0.1078104983798088,0.0,0.0,-0.2233442347423598,-0.36214478605090766,-0.43138588011447154,-0.9637038521051652,-0.24841898297954473,-0.04920833303948436
10632,8.0,299.19432,2977.8055,0.0,0.0,0.0,-0.10782063952348105,0.0,0.0,-0.16710827663980282,-0.32913009857261166,-0.40894013085174863,-0.9612070620037512,-0.24265237401042478,-0.084283988446432
10633,8.0,299.2534,2997.9171,0.0,0.0,0.0,-0.10783078066715332,0.0,0.0,-0.2124972303018438,-0.3066503952990377,-0.39214430467662964,-0.9668015096483802,-0.24172457129135777,-0.04402573711000196
10634,8.0,300.17773,3042.0771,0.0,0.0,0.0,-0.10784092181082557,0.0,0.0,-0.20788746923689583,-0.33733268237214364,-0.37949532612577264,-0.980567839614511,-0.2648312027993047,-0.08205447750939643
10635,8.0,299.96277000000003,2941.993,0.0,0.0,0.0,-0.10785106295449784,0.0,0.0,-0.23095896123137477,-0.3131962442575627,-0.35013720494585165,-1.015188852741339,-0.28313132033788574,-0.07553514226623813
10636,8.0,300.32715,2814.8509999999997,0.0,0.0,0.0,-0.1078612040981701,0.0,0.0,-0.16321791301335384,-0.3326136828139147,-0.35981283147576165,-0.9989950592456361,-0.2759925782158467,-0.1001220034875224
10637,8.0,300.36212,2967.48,0.0,0.0,0.0,-0.10787134524184236,0.0,0.0,-0.1987791715704768,-0.32932375093172367,-0.37393689952219866,-0.9780853262070061,-0.24885063765464574,-0.08710492941383723
10638,8.0,300.46407999999997,3165.6608,0.0,0.0,0.0,-0.10788148638551462,0.0,0.0,-0.1911976999497438,-0.36073916498218367,-0.4103449818503966,-0.949731102828662,-0.23090831899137682,-0.11249050934444889
10639,8.0,300.41342000000003,3036.9424,0.0,0.0,0.0,-0.10789162752918688,0.0,0.0,-0.20970127810840478,-0.3376181047928127,-0.37583528437955466,-0.9550309581392171,-0.24102286519960478,-0.1074967062265989
10640,8.0,300.49376,2984.6667,0.0,0.0,0.0,-0.10790176867285914,0.0,0.0,-0.17306934856811484,-0.35098732177975167,-0.3832074894571346,-0.9609683909426961,-0.2373252318746768,-0.08538939060327673
10641,8.0,300.0298,2916.0562,0.0,0.0,0.0,-0.10791190981653141,0.0,0.0,-0.2026230067523338,-0.3295888070253827,-0.3541964570989687,-0.9416517809037951,-0.2254689898045568,-0.06956332279411544
10642,8.0,299.71017,3048.2261,0.0,0.0,0.0,-0.10792205096020366,0.0,0.0,-0.16498983412572882,-0.37584055328007465,-0.38575422265597764,-0.983528394286695,-0.25660545610248675,-0.08381141670579283
10643,8.0,299.53709,3199.173,0.0,0.0,0.0,-0.10793219210387593,0.0,0.0,-0.22024074087856882,-0.3364484899373807,-0.41577948796674064,-0.992430992050313,-0.2765481736431797,-0.05918016398437745
10644,8.0,299.87847999999997,3017.6895,0.0,0.0,0.0,-0.10794233324754818,0.0,0.0,-0.16785750416124584,-0.34216910748446167,-0.4072756446474766,-1.0179487433637189,-0.26967141746699674,-0.08714371865416543
10645,8.0,299.76519,2714.4629999999997,0.0,0.0,0.0,-0.10795247439122045,0.0,0.0,-0.15720465870489184,-0.3182975633435237,-0.34962674981047365,-0.9735909439309451,-0.24210384093628878,-0.0957409137183925
10646,8.0,300.25654,3015.4933,0.0,0.0,0.0,-0.10796261553489273,0.0,0.0,-0.1946684463122798,-0.3267806553007397,-0.39518557485177963,-0.9551531054387721,-0.25433167221558173,-0.09367335155809
10647,8.0,299.40689,3255.695,0.0,0.0,0.0,-0.10797275667856497,0.0,0.0,-0.24537154211128576,-0.35961808480654167,-0.38466035837802165,-0.9682852826973171,-0.23616638786780778,-0.1006229411647111
10648,8.0,300.14717,3043.4866,0.0,0.0,0.0,-0.10798289782223724,0.0,0.0,-0.19879130017417382,-0.34327238485584666,-0.38308022524457463,-0.9637581116480202,-0.24537843221196579,-0.08796296175751842
10649,8.0,300.47552,2867.4225,0.0,0.0,0.0,-0.10799303896590949,0.0,0.0,-0.20607455202547478,-0.30907431245325967,-0.35647598611394066,-0.973965633685424,-0.23734276110140676,-0.07459100392905893
10650,8.0,302.06809,2984.8219,0.0,0.0,0.0,-0.10800318010958178,0.0,0.0,-0.1982845434016608,-0.3156929026364637,-0.39333389069153263,-0.9653454388571772,-0.23813345081694176,-0.05420432984380085
10651,8.0,301.24384,3114.8893,0.0,0.0,0.0,-0.10801332125325402,0.0,0.0,-0.21438127767028478,-0.33422016044996167,-0.3982471201614306,-1.007279878423284,-0.24724618651879876,-0.05875625661954104
10652,8.0,299.76615,3084.9496,0.0,0.0,0.0,-0.10802346239692627,0.0,0.0,-0.2200162857164168,-0.3194247939472727,-0.3983065776772986,-0.9881718864474721,-0.2534527486813387,-0.05266157550654285
10653,8.0,299.4981,3180.8481,0.0,0.0,0.0,-0.10803360354059854,0.0,0.0,-0.22771048141077477,-0.35750698835569267,-0.38168092685647464,-1.022375430400599,-0.25228559602364975,-0.07821799345701493
10654,8.0,299.65221,2938.64,0.0,0.0,0.0,-0.10804374468427079,0.0,0.0,-0.1908298091034358,-0.34418973083388166,-0.3582536523543826,-0.972296212953165,-0.26913690777424476,-0.0954808032984716
10655,8.0,299.5301,2970.7222,0.0,0.0,0.0,-0.10805388582794306,0.0,0.0,-0.2069017491421128,-0.3337152883226347,-0.3624083425344186,-0.9951881975599279,-0.24377601770881976,-0.11787496090585288
10656,8.0,300.29445,3180.4132,0.0,0.0,0.0,-0.10806402697161534,0.0,0.0,-0.2092262664615248,-0.34206944420462565,-0.4154704770837436,-0.979946251208165,-0.24481218752608178,-0.0928586427489345
10657,8.0,300.16641,2922.1053,0.0,0.0,0.0,-0.10807416811528758,0.0,0.0,-0.17268019973470883,-0.35461767529803967,-0.36094916106540864,-0.987756990929025,-0.2323505285212118,-0.11663277707825889
10658,8.0,300.21555,2733.5278,0.0,0.0,0.0,-0.10808430925895986,0.0,0.0,-0.1414752478625199,-0.3502464637041347,-0.3392024733116777,-0.982703061550241,-0.23976686064064676,-0.11245583592602688
10659,8.0,300.82378,3023.6392,0.0,0.0,0.0,-0.1080944504026321,0.0,0.0,-0.2154933804500408,-0.32909500972164873,-0.3745224364899867,-0.98987291045035,-0.23457409573316076,-0.1056712247139379
10660,8.0,300.80649,3088.926,0.0,0.0,0.0,-0.10810459154630438,0.0,0.0,-0.21661671004090477,-0.3361497939404017,-0.3861898594039716,-0.9629225450855562,-0.2282912459705918,-0.06446987463493123
10661,8.0,299.80045,2983.4636,0.0,0.0,0.0,-0.10811473268997664,0.0,0.0,-0.20271762404667182,-0.32368603750782465,-0.38049477575941065,-0.969126432267832,-0.23215077639649778,-0.06816077592619485
10662,8.0,300.35851,3184.677,0.0,0.0,0.0,-0.1081248738336489,0.0,0.0,-0.17718691326448682,-0.3651015106377137,-0.4257738728456096,-0.9559708894619812,-0.2718476557667747,-0.04653710889360505
10663,8.0,299.79184,3162.135,0.0,0.0,0.0,-0.10813501497732116,0.0,0.0,-0.20270022654245481,-0.36446087312948766,-0.3940489716846056,-0.957458674981314,-0.25679893620908173,-0.07195924080832412
10664,8.0,299.50917000000004,3152.3882,0.0,0.0,0.0,-0.10814515612099342,0.0,0.0,-0.1914308285327518,-0.3344574838883837,-0.43235899537801054,-0.957468756819809,-0.25172673793099476,-0.06817214763206714
10665,8.0,299.66256,3383.8324,0.0,0.0,0.0,-0.10815529726466568,0.0,0.0,-0.24444250322709676,-0.3829906742007366,-0.40116738800963864,-1.015868743558439,-0.22636236228522577,-0.08772446294898041
10666,8.0,300.33956,3341.0866,0.0,0.0,0.0,-0.10816543840833795,0.0,0.0,-0.24850311313534776,-0.3537653698439237,-0.4133384266208266,-1.027974751778209,-0.23002205952640978,-0.08538452700279672
10667,8.0,299.56703999999996,2880.2697,0.0,0.0,0.0,-0.1081755795520102,0.0,0.0,-0.2138345887113308,-0.3121034438922117,-0.3495920358620477,-1.029843995562689,-0.2260444145363468,-0.08227862667001823
10668,8.0,300.87854,2756.6296,0.0,0.0,0.0,-0.10818572069568247,0.0,0.0,-0.17158149212127485,-0.2928189944114847,-0.3735460889586287,-0.99377787501074,-0.23439932022341176,-0.07857892226188583
10669,8.0,300.96764,3064.2412,0.0,0.0,0.0,-0.10819586183935472,0.0,0.0,-0.2153793391512858,-0.32101413752412866,-0.39505932388931964,-0.9783853596941171,-0.25863672871045773,-0.06731944093091154
10670,8.0,301.0725,3072.1246,0.0,0.0,0.0,-0.10820600298302699,0.0,0.0,-0.16225649065596884,-0.37202092464310665,-0.3995717521496616,-0.9733895503410691,-0.27871803859982874,-0.06544562232223004
10671,8.0,300.58405,3098.1368,0.0,0.0,0.0,-0.10821614412669925,0.0,0.0,-0.2006741215099938,-0.3689159716991716,-0.37216615377993967,-0.9536483986427691,-0.24104284649157678,-0.10685716302848089
10672,8.0,299.65698,3368.6868,0.0,0.0,0.0,-0.10822628527037151,0.0,0.0,-0.24416867238757176,-0.34886881847067164,-0.4309591802323596,-0.9706342598741431,-0.24988307871153975,-0.053063154892175654
10673,8.0,300.5157,3238.1804,0.0,0.0,0.0,-0.10823642641404377,0.0,0.0,-0.21908376125188378,-0.3733530344170757,-0.3918891683014496,-0.9643877249951581,-0.23320346219038976,-0.1023259187137819
10674,8.0,300.15668999999997,2970.7242,0.0,0.0,0.0,-0.10824656755771603,0.0,0.0,-0.13976328075856187,-0.35853568038721667,-0.4047270166709466,-1.014722859020349,-0.2655221988375008,-0.0828220256058975
10675,8.0,300.48769,3077.1103,0.0,0.0,0.0,-0.10825670870138829,0.0,0.0,-0.19328213779046183,-0.35431666909083265,-0.38776588887451363,-0.9863384509215262,-0.23408383467227578,-0.1135805435370269
10676,8.0,300.18744,2957.7013,0.0,0.0,0.0,-0.10826684984506056,0.0,0.0,-0.15586708751288383,-0.35845025327128566,-0.38474999048186764,-0.998614269725555,-0.24822714433811177,-0.09182261782643682
10677,8.0,299.47357999999997,2626.2804,0.0,0.0,0.0,-0.10827699098873281,0.0,0.0,-0.2001422766650048,-0.2680198805990027,-0.3301615061144037,-0.9804382651917231,-0.2335229500794208,-0.0914281757745084
10678,8.0,299.00588,2875.1766,0.0,0.0,0.0,-0.10828713213240508,0.0,0.0,-0.2016621619475058,-0.3312109191104727,-0.34110882231481965,-0.9775775359193911,-0.23831087090945177,-0.08663124512458822
10679,8.0,298.91664,3077.2439,0.0,0.0,0.0,-0.10829727327607733,0.0,0.0,-0.22473358301447777,-0.3462736620495497,-0.36439805162328764,-0.9848001346197061,-0.22453979893285278,-0.07214012621617613
10680,8.0,298.77006,3095.2554,0.0,0.0,0.0,-0.1083074144197496,0.0,0.0,-0.20758880363741983,-0.3249682548468697,-0.40832329458837163,-0.9746594465588981,-0.24296109105089278,-0.07679867527343913
10681,8.0,300.05118,3393.3026,0.0,0.0,0.0,-0.10831755556342186,0.0,0.0,-0.24199684172572877,-0.3693404525635646,-0.4201419552122826,-0.976960375415982,-0.2544116885759788,-0.06893361825446843
10682,8.0,299.07385,3387.7481,0.0,0.0,0.0,-0.10832769670709412,0.0,0.0,-0.22260973987737076,-0.36017240353874863,-0.44700867678132156,-0.9842212547050752,-0.2681403864333957,-0.06517691346196053
10683,8.0,298.85884,2978.1155,0.0,0.0,0.0,-0.10833783785076638,0.0,0.0,-0.21045234974502977,-0.3219847804574237,-0.37283561825351064,-0.9898832557338709,-0.25001847932240273,-0.08041426168476973
10684,8.0,299.88537,3067.6182,0.0,0.0,0.0,-0.10834797899443864,0.0,0.0,-0.2325149384824378,-0.33799731364273766,-0.36196708224836965,-0.9885957998918091,-0.24891439135093776,-0.08570804154772511
10685,8.0,298.74032,2958.4489,0.0,0.0,0.0,-0.1083581201381109,0.0,0.0,-0.2028003964473408,-0.3145461872332917,-0.38194800945033364,-0.996674412541606,-0.25503325671732274,-0.07923940832632072
10686,8.0,299.317,2624.3852,0.0,0.0,0.0,-0.10836826128178317,0.0,0.0,-0.15988974107238885,-0.3243183359677277,-0.31353948272893767,-0.9806956509821252,-0.2761100746974427,-0.09810603906206222
10687,8.0,300.36521,2645.1188,0.0,0.0,0.0,-0.10837840242545542,0.0,0.0,-0.14112018476247787,-0.3280340963369447,-0.3348957753516397,-0.9573547763160601,-0.25786608108190073,-0.10893379884342891
10688,8.0,299.22624,2896.4112,0.0,0.0,0.0,-0.1083885435691277,0.0,0.0,-0.17588564682356184,-0.3306287056030127,-0.37392232898576067,-0.9784609278865751,-0.24948353393210776,-0.0938403108565676
10689,8.0,300.01084,3203.1062,0.0,0.0,0.0,-0.10839868471279994,0.0,0.0,-0.2153023017461828,-0.38566595843976664,-0.37269603291973463,-0.9856432194979121,-0.24405115564097377,-0.09332842805179872
10690,8.0,300.04789,3074.522,0.0,0.0,0.0,-0.10840882585647221,0.0,0.0,-0.2129709348560948,-0.32946790602345066,-0.3921390661736126,-0.9991996648383291,-0.2286310292591258,-0.1031123730438989
10691,8.0,299.56945,3069.6965,0.0,0.0,0.0,-0.10841896700014449,0.0,0.0,-0.18215525340732383,-0.37549872322633865,-0.37545709891223067,-0.9941098360085021,-0.21567068908503978,-0.1040632677327449
10692,8.0,300.18377000000004,3130.8037,0.0,0.0,0.0,-0.10842910814381673,0.0,0.0,-0.2209165482977658,-0.3359506193682447,-0.39481898096559964,-0.9737723562288491,-0.2184573599075628,-0.08168966187714193
10693,8.0,299.98724,3040.9308,0.0,0.0,0.0,-0.10843924928748899,0.0,0.0,-0.18597705039950582,-0.3343308276258837,-0.4040591632650346,-0.9844392959940941,-0.2570923025105348,-0.08221865543634951
10694,8.0,299.41083,3127.7584,0.0,0.0,0.0,-0.10844939043116125,0.0,0.0,-0.2114003465385898,-0.36950416338222164,-0.3698559435519397,-0.9461239426051632,-0.2578265744605018,-0.0949763800409389
10695,8.0,300.30485,3040.1229,0.0,0.0,0.0,-0.10845953157483351,0.0,0.0,-0.22231392151067578,-0.31062800989159767,-0.3911795081964116,-0.972305241011556,-0.2662168729735597,-0.06469068007022304
10696,8.0,300.23657000000003,2827.796,0.0,0.0,0.0,-0.10846967271850579,0.0,0.0,-0.18082621378115782,-0.3269053762555487,-0.35184778389717264,-0.9723467640006541,-0.25777335856524974,-0.08396915340186022
10697,8.0,299.9755,3145.2689,0.0,0.0,0.0,-0.10847981386217803,0.0,0.0,-0.20511952327622082,-0.37367757842410565,-0.3772861065352397,-1.016509725571699,-0.27793986252302877,-0.06109410223076844
10698,8.0,299.75704,3419.2274,0.0,0.0,0.0,-0.1084899550058503,0.0,0.0,-0.23958380687758077,-0.35189863891969164,-0.44787730569454853,-1.005502232447844,-0.25170983691932675,-0.07929743715954772
10699,8.0,300.16916000000003,3233.3997,0.0,0.0,0.0,-0.10850009614952255,0.0,0.0,-0.1859759256918948,-0.37282015605698465,-0.4240766789281096,-0.9713373541185331,-0.23091341563937978,-0.06596650684088734
10700,8.0,300.63223,3137.5216,0.0,0.0,0.0,-0.10851023729319483,0.0,0.0,-0.18672290379811582,-0.33847040011442764,-0.42853492870560456,-0.9680805859121151,-0.24442751725811776,-0.07636542878243102
10701,8.0,299.78666,3210.8543,0.0,0.0,0.0,-0.1085203784368671,0.0,0.0,-0.22309848106310576,-0.3351477807840107,-0.41777327032101164,-0.96221695824592,-0.25930547377645774,-0.054633143365621445
10702,8.0,298.6038,3012.1982,0.0,0.0,0.0,-0.10853051958053934,0.0,0.0,-0.18293927593720083,-0.35031638809353566,-0.3823773741802086,-0.9931005781138961,-0.27231129874753274,-0.08922865805368291
10703,8.0,299.15943,3011.3811,0.0,0.0,0.0,-0.10854066072421162,0.0,0.0,-0.20884625714402077,-0.3288274610327437,-0.37771093190466665,-0.9637746884196562,-0.22288111865165378,-0.09438127799220691
10704,8.0,298.77889,3047.4103,0.0,0.0,0.0,-0.10855080186788386,0.0,0.0,-0.2049158296086178,-0.35704143033224567,-0.36437937742394466,-0.986053433800897,-0.23671230675668578,-0.09423079312710521
10705,8.0,299.7998,2991.1927,0.0,0.0,0.0,-0.10856094301155614,0.0,0.0,-0.17618596402070083,-0.36329351782177866,-0.36976839874329964,-0.966986589911646,-0.25451827235399777,-0.1082133070948219
10706,8.0,300.69677,2989.7473,0.0,0.0,0.0,-0.1085710841552284,0.0,0.0,-0.2072531442767928,-0.35116967640024865,-0.35038571466537766,-1.009262748073978,-0.25958040905859175,-0.1016124082583639
10707,8.0,300.64277000000004,3057.5786,0.0,0.0,0.0,-0.10858122529890066,0.0,0.0,-0.2081694060772208,-0.34261285023325566,-0.37864530048438166,-0.978046083030633,-0.24602631445840678,-0.10786511383045791
10708,8.0,300.434,3085.6314,0.0,0.0,0.0,-0.10859136644257292,0.0,0.0,-0.2046270938601218,-0.3445271836471857,-0.38880060974413266,-1.001968573386599,-0.2438766131787478,-0.07316869260468774
10709,8.0,300.45414,2929.7792,0.0,0.0,0.0,-0.10860150758624518,0.0,0.0,-0.16201621865975585,-0.3378653378172127,-0.39069816373640665,-0.969690356610987,-0.2527086380729008,-0.08993451948409602
10710,8.0,299.63627,3105.9808,0.0,0.0,0.0,-0.10861164872991744,0.0,0.0,-0.18714068707934783,-0.36061113069954764,-0.3963887890805276,-0.992887977977914,-0.24529531530626275,-0.0912467989403579
10711,8.0,299.58519,3182.1936,0.0,0.0,0.0,-0.10862178987358971,0.0,0.0,-0.2040348897066758,-0.3393254109463107,-0.4239471045053216,-0.9881526346955721,-0.2287918523149978,-0.06443105803685034
10712,8.0,300.12807999999995,3061.4351,0.0,0.0,0.0,-0.10863193101726196,0.0,0.0,-0.22993824347813777,-0.33392813163864066,-0.36673345124877366,-0.9951530985764642,-0.23713632152603278,-0.06329205448018944
10713,8.0,299.08967,2919.1202,0.0,0.0,0.0,-0.10864207216093423,0.0,0.0,-0.2025707433121758,-0.3216518062095617,-0.36311711097936866,-1.002821192948246,-0.2575639400345818,-0.07651816002300442
10714,8.0,298.906,3139.2799,0.0,0.0,0.0,-0.10865221330460648,0.0,0.0,-0.23920891447308176,-0.32446923930512067,-0.3905845378701926,-0.9959187711470301,-0.2554303696965147,-0.07408786952565342
10715,8.0,299.14713,3145.3654,0.0,0.0,0.0,-0.10866235444827875,0.0,0.0,-0.24039148879729277,-0.33740423809420567,-0.3783168048019616,-0.973360237015676,-0.23107063152489576,-0.06016992694705944
10716,8.0,299.69012000000004,2952.0921,0.0,0.0,0.0,-0.108672495591951,0.0,0.0,-0.19571110093018182,-0.32451985114761567,-0.3771313325824647,-1.007209629793851,-0.25041370765640875,-0.08046526869480372
10717,8.0,299.30905,3063.6089,0.0,0.0,0.0,-0.10868263673562327,0.0,0.0,-0.21150994980190682,-0.3280259599386417,-0.3917246975452176,-0.9784691048148821,-0.26551137732643276,-0.07919596928128363
10718,8.0,299.04687,3058.7609,0.0,0.0,0.0,-0.10869277787929553,0.0,0.0,-0.2093720022234078,-0.34687757937415165,-0.3735373648752677,-0.982530130155674,-0.26542575769298277,-0.11439477105238488
10719,8.0,299.34799,2998.1632,0.0,0.0,0.0,-0.10870291902296779,0.0,0.0,-0.1950164166616218,-0.3321220538653947,-0.38422827813787863,-0.966095720158724,-0.23533589768834476,-0.11650790413593488
10720,8.0,300.83612,3195.0126,0.0,0.0,0.0,-0.10871306016664005,0.0,0.0,-0.2036289715841148,-0.36672646995558467,-0.40084861952817863,-1.0045749971488331,-0.2618140277115327,-0.09254350676908302
10721,8.0,300.67267000000004,3039.7162,0.0,0.0,0.0,-0.10872320131031231,0.0,0.0,-0.18332811066307583,-0.3411194715733707,-0.39955024085003865,-1.008283978874881,-0.26467628699151574,-0.07668759874447673
10722,8.0,300.02361,2751.6405,0.0,0.0,0.0,-0.10873334245398457,0.0,0.0,-0.1358728664696079,-0.35208242222282965,-0.34847472497677767,-0.9824729625850321,-0.2322076095946068,-0.10810700702683089
10723,8.0,301.49809,2928.5434,0.0,0.0,0.0,-0.10874348359765683,0.0,0.0,-0.19718220835286882,-0.3166889984122707,-0.37633287123866266,-0.9473686899555102,-0.2095911276900338,-0.09390857452905473
10724,8.0,300.34758999999997,3204.8099,0.0,0.0,0.0,-0.10875362474132909,0.0,0.0,-0.24501090613569376,-0.3378671312698897,-0.3913041480912126,-0.9701193160408221,-0.23144301106914675,-0.08803650243652632
10725,8.0,300.24655,3132.3787,0.0,0.0,0.0,-0.10876376588500135,0.0,0.0,-0.19461447047945282,-0.3605979280507447,-0.3969525006411616,-0.9852933847683861,-0.2689747269632387,-0.10729264778895989
10726,8.0,299.88705,3115.5868,0.0,0.0,0.0,-0.10877390702867361,0.0,0.0,-0.2003069906012608,-0.36251756076269764,-0.3842360295011436,-0.977452662977067,-0.2318360305179348,-0.11450444524320888
10727,8.0,298.48983,3195.1132,0.0,0.0,0.0,-0.10878404817234587,0.0,0.0,-0.2209622458772758,-0.32910230512236865,-0.4211700798237506,-0.9891865247001091,-0.24774739068076376,-0.06875905856699073
10728,8.0,298.6776,3162.7251,0.0,0.0,0.0,-0.10879418931601813,0.0,0.0,-0.22711192417920179,-0.3295134414829447,-0.4047640914921056,-0.9896142074348181,-0.2637794289305027,-0.07779259053503093
10729,8.0,300.309,3184.7521,0.0,0.0,0.0,-0.1088043304596904,0.0,0.0,-0.21004256100708682,-0.35114961404826867,-0.4068929400847066,-1.026539179036529,-0.2960464391600087,-0.06104061579773974
10730,8.0,300.2194,2946.4906,0.0,0.0,0.0,-0.10881447160336265,0.0,0.0,-0.2072987607962948,-0.3021615048385187,-0.3861993028949037,-0.97836461846457,-0.27765660845757373,-0.07665248050926084
10731,8.0,299.88891,2790.0805,0.0,0.0,0.0,-0.10882461274703492,0.0,0.0,-0.15850948165366785,-0.3191482273324777,-0.37045707443876663,-0.966176982816744,-0.24489943849219278,-0.08149938465411301
10732,8.0,301.46869,2997.2395,0.0,0.0,0.0,-0.10883475389070717,0.0,0.0,-0.22927304478748778,-0.3076261652778387,-0.37418675686435765,-0.970628869383611,-0.24183661648741575,-0.08034618850330143
10733,8.0,300.51564,3361.2159,0.0,0.0,0.0,-0.10884489503437944,0.0,0.0,-0.2298592302353398,-0.35144402399732466,-0.44042245993881257,-0.999505392791002,-0.24935382778680676,-0.05210470338408385
10734,8.0,299.5826,3213.6511,0.0,0.0,0.0,-0.10885503617805169,0.0,0.0,-0.21913894285232977,-0.35713872260684765,-0.4005920038078526,-0.982759256400787,-0.2333436250767228,-0.0988526007224921
10735,8.0,300.04275,2974.1449,0.0,0.0,0.0,-0.10886517732172396,0.0,0.0,-0.18100166816847385,-0.3231875184586247,-0.3998766087072486,-0.9666549531539161,-0.23261734767004477,-0.07139205582634733
10736,8.0,300.40814,3060.5425,0.0,0.0,0.0,-0.10887531846539622,0.0,0.0,-0.1981409253324868,-0.35655441167168067,-0.37563316124960666,-0.9821089119566031,-0.26570143264768975,-0.11236413679197689
10737,8.0,298.94625,3154.9782,0.0,0.0,0.0,-0.10888545960906848,0.0,0.0,-0.18735948830594182,-0.37159461992853365,-0.4000804948923706,-0.9956399551170131,-0.28958973594528176,-0.1049629932915409
10738,8.0,299.79838,2944.5107,0.0,0.0,0.0,-0.10889560075274074,0.0,0.0,-0.18891761364721682,-0.35627959797955866,-0.3498605268735457,-0.9978791061155001,-0.26315233857611375,-0.11911052821029387
10739,8.0,300.53171000000003,2715.0812,0.0,0.0,0.0,-0.108905741896413,0.0,0.0,-0.14361601227629686,-0.3082585042677457,-0.37344238281089365,-0.994481293495162,-0.23696600431672377,-0.08013921494512471
10740,8.0,300.05773,2723.1699,0.0,0.0,0.0,-0.10891588304008526,0.0,0.0,-0.16865423284737682,-0.2925334807983067,-0.3665879485344137,-0.996880821719477,-0.23917062375180276,-0.07419631160435584
10741,8.0,301.52117000000004,2923.135,0.0,0.0,0.0,-0.10892602418375753,0.0,0.0,-0.16251589281406986,-0.3211371663512707,-0.4049069901537086,-0.993028941331826,-0.24650859110850373,-0.094813602425624
10742,8.0,301.07809,3264.5619,0.0,0.0,0.0,-0.10893616532742978,0.0,0.0,-0.2163144068735698,-0.36896976514698065,-0.4070611294688056,-0.9814172573058421,-0.24388782985735474,-0.1052719433795319
10743,8.0,300.77632,3359.7508,0.0,0.0,0.0,-0.10894630647110205,0.0,0.0,-0.2243018675443708,-0.35685387773873567,-0.44012460493941663,-0.9591101713193041,-0.24668451159086577,-0.08507237403123961
10744,8.0,300.43109,2978.2395,0.0,0.0,0.0,-0.1089564476147743,0.0,0.0,-0.2153334895842608,-0.3370955311862387,-0.3528814205891847,-0.9823701176998821,-0.2636798061806708,-0.08205149652760221
10745,8.0,300.03801,2894.9590000000003,0.0,0.0,0.0,-0.10896658875844657,0.0,0.0,-0.19267117837766481,-0.3414062821466767,-0.34591779848192866,-0.9812297756398392,-0.2751169578769297,-0.07619253690461793
10746,8.0,299.50379,3199.2157,0.0,0.0,0.0,-0.10897672990211883,0.0,0.0,-0.2554302683715048,-0.3415140615598137,-0.37553736858515263,-1.005619870784454,-0.25431189357362977,-0.07560520952390322
10747,8.0,299.66715,3217.462,0.0,0.0,0.0,-0.10898687104579109,0.0,0.0,-0.2156033282183918,-0.3529426614252287,-0.4094821284627396,-0.9852073497023951,-0.2313530952552728,-0.06950966309531964
10748,8.0,299.68077,2868.6508,0.0,0.0,0.0,-0.10899701218946335,0.0,0.0,-0.17476181060764784,-0.3188092242465207,-0.37842718826785565,-0.9916040685112021,-0.26229699337169776,-0.07507703669727663
10749,8.0,300.11713,2944.6274,0.0,0.0,0.0,-0.10900715333313561,0.0,0.0,-0.17230231824241485,-0.3326794731429077,-0.39011140073599765,-0.9794306791597821,-0.25971454310682973,-0.10876868973963391
10750,8.0,299.53042999999997,3193.8635,0.0,0.0,0.0,-0.10901729447680787,0.0,0.0,-0.22433049185969578,-0.36631278020475666,-0.38021149129645265,-0.9885542059752042,-0.2541103783937418,-0.10045072005846421
10751,8.0,298.53445,3171.1358,0.0,0.0,0.0,-0.10902743562048015,0.0,0.0,-0.2315520266474058,-0.34669076645321467,-0.38570331697095367,-0.971751965926952,-0.22338812873669178,-0.09939636240190722
10752,8.0,298.94734,3186.1426,0.0,0.0,0.0,-0.10903757676415239,0.0,0.0,-0.23631607530508078,-0.3392255652814567,-0.39296614170023864,-1.023511081112679,-0.24388910655248075,-0.09497956671250342
10753,8.0,298.74509,2941.8311,0.0,0.0,0.0,-0.10904771790782467,0.0,0.0,-0.15934776372639986,-0.35144297021722065,-0.38345247306631264,-0.9852007939742481,-0.2381484975809268,-0.10372956394481089
10754,8.0,299.53809,2730.4616,0.0,0.0,0.0,-0.10905785905149691,0.0,0.0,-0.12343091517918289,-0.34681781788325367,-0.35974341371141066,-0.9838600107794231,-0.2307681763700458,-0.1030120308864959
10755,8.0,299.79202999999995,3146.4964,0.0,0.0,0.0,-0.10906800019516918,0.0,0.0,-0.17700627103665884,-0.36641161261951066,-0.4130384437962206,-0.9648131887121482,-0.2110342288799568,-0.1103768797683499
10756,8.0,299.38935,3447.6887,0.0,0.0,0.0,-0.10907814133884144,0.0,0.0,-0.26304390055041177,-0.3634372676134656,-0.4215301078492826,-0.989179057046872,-0.26656468120288573,-0.06221202613234895
10757,8.0,299.79119,3095.2657,0.0,0.0,0.0,-0.1090882824825137,0.0,0.0,-0.21765817915618982,-0.3627290564560707,-0.36049624840320965,-0.9999970217395221,-0.2643950492937598,-0.0897978482576076
10758,8.0,300.3642,2798.2226,0.0,0.0,0.0,-0.10909842362618596,0.0,0.0,-0.1972484343794048,-0.3069882230148787,-0.3463531515198947,-0.9745045104861071,-0.26077908392689175,-0.07111411321791652
10759,8.0,300.88119,3174.1505,0.0,0.0,0.0,-0.10910856476985822,0.0,0.0,-0.19075245759080184,-0.36318688338125465,-0.41092315248995764,-0.9681389389853741,-0.23330258844767277,-0.07162131379397334
10760,8.0,300.51766000000003,3474.0344,0.0,0.0,0.0,-0.10911870591353048,0.0,0.0,-0.2410340717457108,-0.34760120206556766,-0.4673844371497526,-0.992629528274907,-0.25070825946047876,-0.058043945852241444
10761,8.0,300.37937,3240.7087,0.0,0.0,0.0,-0.10912884705720276,0.0,0.0,-0.17784991320241986,-0.37343283799495164,-0.4338117832388896,-1.011167111106924,-0.26385645620310477,-0.08399488691464993
10762,8.0,300.05976,2998.2813,0.0,0.0,0.0,-0.109138988200875,0.0,0.0,-0.20102422981704682,-0.34537264966312664,-0.36500576863576467,-0.976307578906556,-0.24346779716090075,-0.08028936442444333
10763,8.0,299.95647,3023.1854,0.0,0.0,0.0,-0.10914912934454728,0.0,0.0,-0.19217974194666382,-0.3289546239202937,-0.3978385169261046,-0.988440053218938,-0.23618422106956777,-0.06455989177381524
10764,8.0,298.76493999999997,3187.3393,0.0,0.0,0.0,-0.10915927048821952,0.0,0.0,-0.2527675484337148,-0.3368510238046077,-0.3792530073643577,-0.981401055436743,-0.2663712112287917,-0.059524286009839646
10765,8.0,299.40487,3313.6394,0.0,0.0,0.0,-0.1091694116318918,0.0,0.0,-0.21192057953743282,-0.3672392251686897,-0.4281038211855576,-1.024389974249419,-0.2566669401185548,-0.08481334069617502
10766,8.0,299.48546,3043.0988,0.0,0.0,0.0,-0.10917955277556407,0.0,0.0,-0.18631981264333383,-0.34774886300264063,-0.3909573835094896,-0.971168141351833,-0.24164949959144874,-0.08570336235876333
10767,8.0,299.24998,2654.8938,0.0,0.0,0.0,-0.10918969391923632,0.0,0.0,-0.11368729956756289,-0.3237657194956887,-0.3695684135710626,-0.9941736504998001,-0.2144242090770218,-0.09361708983303742
10768,8.0,299.92699,2992.5686,0.0,0.0,0.0,-0.10919983506290859,0.0,0.0,-0.2069120133656258,-0.33689032777598665,-0.3658637786879437,-0.9862317860834992,-0.25257436216964874,-0.07644274685781172
10769,8.0,300.03907999999996,3250.3891,0.0,0.0,0.0,-0.10920997620658084,0.0,0.0,-0.2465763775401938,-0.35302813920366466,-0.38843259730781265,-1.011207681640928,-0.26167531377284275,-0.09943182716865731
10770,8.0,299.40856,3011.0427,0.0,0.0,0.0,-0.10922011735025311,0.0,0.0,-0.22044353275358278,-0.34358631000182865,-0.35125196244086965,-1.0059959182940672,-0.27043276345963574,-0.08947369131211581
10771,8.0,300.1677,2908.3471,0.0,0.0,0.0,-0.10923025849392537,0.0,0.0,-0.16052355940744187,-0.3452455374380817,-0.37829578999488767,-1.001794831391952,-0.25189306293490976,-0.11402139852303589
10772,8.0,300.06586,3213.7582,0.0,0.0,0.0,-0.10924039963759763,0.0,0.0,-0.2106032125524188,-0.36046490857761665,-0.40583411399520863,-0.999725825350257,-0.26103824290496874,-0.07790760455388192
10773,8.0,299.37286,3251.3241,0.0,0.0,0.0,-0.10925054078126989,0.0,0.0,-0.1858881174382288,-0.38488036537223463,-0.41755286815925957,-0.9858903309323002,-0.23302933516070476,-0.11656379501145088
10774,8.0,299.67293,3004.1125,0.0,0.0,0.0,-0.10926068192494214,0.0,0.0,-0.2131752162087558,-0.3263196670352437,-0.37368031419937564,-0.9758292437993481,-0.23804749681095874,-0.0949659030349049
10775,8.0,299.89182,2872.6794,0.0,0.0,0.0,-0.10927082306861441,0.0,0.0,-0.19057417623570683,-0.32573588299012873,-0.35691274756954566,-0.986161689441581,-0.22715647678609877,-0.09290176768644061
10776,8.0,299.13826,2734.1803,0.0,0.0,0.0,-0.10928096421228668,0.0,0.0,-0.1941386077024888,-0.2950187502460837,-0.3419651807693357,-0.9790911390512721,-0.27908030590808175,-0.06477697858124003
10777,8.0,299.83435,3016.7595,0.0,0.0,0.0,-0.10929110535595893,0.0,0.0,-0.18584552040402483,-0.34457504958190965,-0.3865989793968487,-0.9842127940667401,-0.26482200248839677,-0.1026723083929679
10778,8.0,299.80464,3346.6604,0.0,0.0,0.0,-0.1093012464996312,0.0,0.0,-0.2375623020005738,-0.34813078736283365,-0.4316080959939026,-0.9910737131438601,-0.25306935510850076,-0.09102842834505641
10779,8.0,300.53412000000003,3237.6683,0.0,0.0,0.0,-0.10931138764330345,0.0,0.0,-0.21296377117788778,-0.35194293821406364,-0.4192636092305966,-1.003914175698615,-0.2424959079299828,-0.07460047275124343
10780,8.0,300.82865,2993.8716,0.0,0.0,0.0,-0.10932152878697572,0.0,0.0,-0.2024295063807368,-0.3363175273619557,-0.3713151756834546,-1.030797058606749,-0.24253172632101777,-0.09394259034816181
10781,8.0,300.83268,3113.4055,0.0,0.0,0.0,-0.10933166993064798,0.0,0.0,-0.23294733283011176,-0.34108034998700965,-0.37236983731504164,-1.004557792162135,-0.2227164553779028,-0.07593261900221603
10782,8.0,300.3386,3246.9878,0.0,0.0,0.0,-0.10934181107432024,0.0,0.0,-0.25161961713042275,-0.33927335015617266,-0.3961102567605386,-0.9818349189970621,-0.25088600379302073,-0.07905935277030063
10783,8.0,300.72922,2981.9746,0.0,0.0,0.0,-0.1093519522179925,0.0,0.0,-0.1890783455105798,-0.32516275833606567,-0.39220472478009266,-0.98346065851751,-0.26350513199593173,-0.08312186353573922
10784,8.0,299.30933,2766.6286,0.0,0.0,0.0,-0.10936209336166476,0.0,0.0,-0.14467764506857186,-0.3211210354096787,-0.37518733120560666,-0.9868910775260661,-0.28738781175546874,-0.08539945622977012
10785,8.0,299.09932000000003,2917.6741,0.0,0.0,0.0,-0.10937223450533702,0.0,0.0,-0.16405556687102385,-0.3275008633393187,-0.39534363173487863,-0.9469082184475651,-0.25384764264281173,-0.0999596271192471
10786,8.0,300.35185,3065.0414,0.0,0.0,0.0,-0.1093823756490093,0.0,0.0,-0.2007637029513348,-0.3498667076991556,-0.38106566113075263,-0.981089815403526,-0.2644860492852408,-0.0895355380717196
10787,8.0,300.57219,3157.47,0.0,0.0,0.0,-0.10939251679268154,0.0,0.0,-0.21200795209355577,-0.34881328223269065,-0.3989707935153516,-0.9797200836533442,-0.23381454319319878,-0.09039586137387691
10788,8.0,299.70131000000003,3378.3435,0.0,0.0,0.0,-0.10940265793635381,0.0,0.0,-0.23500166701035877,-0.3614555632003867,-0.4304748365520586,-1.024235250959149,-0.25754448563266175,-0.06980728606044273
10789,8.0,300.66557,3191.9942,0.0,0.0,0.0,-0.10941279908002606,0.0,0.0,-0.2022689872998948,-0.3523226030265337,-0.41569495251089755,-0.9872221468637401,-0.22717193898262478,-0.1117090402048239
10790,8.0,300.13367999999997,2911.1891,0.0,0.0,0.0,-0.10942294022369833,0.0,0.0,-0.1924575649915828,-0.32364981381674973,-0.3688213949348376,-0.983163593853192,-0.25053916828379075,-0.10253048377647091
10791,8.0,300.67158,3118.8693,0.0,0.0,0.0,-0.1094330813673706,0.0,0.0,-0.2046788101452258,-0.34288005441712666,-0.4004995143387246,-0.978819415771955,-0.2526164728438048,-0.1083395276597789
10792,8.0,299.24694,3153.6378,0.0,0.0,0.0,-0.10944322251104285,0.0,0.0,-0.23069414831773977,-0.3352005508492187,-0.39273244569717464,-0.9874535630540792,-0.26398983031376777,-0.07699906574571613
10793,8.0,299.18458,2869.4549,0.0,0.0,0.0,-0.10945336365471511,0.0,0.0,-0.17044415941402885,-0.3355022663314957,-0.36629621356562164,-1.0024383667954642,-0.2287467322880448,-0.10050336954691032
10794,8.0,298.84353,2892.5732,0.0,0.0,0.0,-0.10946350479838737,0.0,0.0,-0.18304043882718482,-0.3210475241149237,-0.37518204204008465,-0.9637953384566941,-0.2393588856203828,-0.08003540848562983
10795,8.0,300.1222,3215.4513,0.0,0.0,0.0,-0.10947364594205963,0.0,0.0,-0.19083830013927383,-0.35348749613649966,-0.4330911192377656,-0.9857713652380591,-0.25720275690393574,-0.061945770350571534
10796,8.0,299.20962000000003,3254.6809,0.0,0.0,0.0,-0.1094837870857319,0.0,0.0,-0.2079048160786078,-0.3606996887582876,-0.42073722951353154,-0.9731076641632491,-0.27912159584965673,-0.08734963843223811
10797,8.0,300.55709,3295.5313,0.0,0.0,0.0,-0.10949392822940415,0.0,0.0,-0.2107960036489458,-0.3684850769616457,-0.4224781350403456,-0.975506564172502,-0.27539659463952776,-0.08640727632248422
10798,8.0,300.64801,3065.6593,0.0,0.0,0.0,-0.10950406937307643,0.0,0.0,-0.2112720285459258,-0.3337032103814427,-0.3869086286274086,-0.9914111355596611,-0.24739176016066577,-0.08894528543796622
10799,8.0,300.4653,2783.41,0.0,0.0,0.0,-0.10951421051674867,0.0,0.0,-0.17375650438843185,-0.3180194667210777,-0.3543111671427897,-1.021617620650809,-0.23949108436092975,-0.07499127216906233
10800,8.0,299.75162,2997.4195,0.0,0.0,0.0,-0.10952435166042095,0.0,0.0,-0.19354692030659382,-0.33776989979029365,-0.37982386233819665,-1.0307978692068291,-0.22951931522429275,-0.07038206535191903
10801,8.0,300.23604,3372.6508,0.0,0.0,0.0,-0.1095344928040932,0.0,0.0,-0.2242702034787458,-0.3752908549683236,-0.42564055952995256,-1.035961087741399,-0.2091480030238008,-0.07481775815568784
10802,8.0,300.80944,3311.9172,0.0,0.0,0.0,-0.10954463394776547,0.0,0.0,-0.2208630182949828,-0.3923136491658426,-0.39356347289919064,-1.004748982323504,-0.24205410048887976,-0.09170149796248322
10803,8.0,300.53925,3072.3065,0.0,0.0,0.0,-0.10955477509143773,0.0,0.0,-0.18983806017055782,-0.36196365746303166,-0.38210274287310464,-1.010185099507507,-0.28248456279905576,-0.1005734134998231
10804,8.0,298.98382999999995,3207.2262,0.0,0.0,0.0,-0.10956491623510999,0.0,0.0,-0.2236035051779478,-0.3801288506182966,-0.3711843043005386,-0.9761217792357191,-0.2817786821168907,-0.08077876320949322
10805,8.0,299.07619,3135.8485,0.0,0.0,0.0,-0.10957505737878225,0.0,0.0,-0.19549971669431981,-0.3576653086838177,-0.4000545962198146,-0.976995606121959,-0.2577719400151097,-0.0973706961067395
10806,8.0,299.34655,2896.5679,0.0,0.0,0.0,-0.10958519852245452,0.0,0.0,-0.16237512197767687,-0.34261882840884567,-0.3754903639130136,-0.977363152463233,-0.2189347222946748,-0.08365100908246181
10807,8.0,299.51313999999996,2884.1362,0.0,0.0,0.0,-0.10959533966612676,0.0,0.0,-0.16253692788614585,-0.3273580356052227,-0.3868104142952156,-0.998852109921528,-0.2341089835397578,-0.06737394162729034
10808,8.0,299.82602,2922.052,0.0,0.0,0.0,-0.10960548080979904,0.0,0.0,-0.18599002000078582,-0.32745185243198166,-0.3747889719287916,-0.9823388386692951,-0.23039158170537877,-0.08544273315479123
10809,8.0,299.65227999999996,3022.6489,0.0,0.0,0.0,-0.10961562195347128,0.0,0.0,-0.19171479187327684,-0.36734963903208667,-0.35974535915160266,-0.9822365612042011,-0.23707557718253777,-0.10178082055748491
10810,8.0,299.87971,3369.9273,0.0,0.0,0.0,-0.10962576309714356,0.0,0.0,-0.24463633797122675,-0.37488282928555466,-0.4048545747260356,-0.9812487436817111,-0.25526241335993877,-0.11019228586513191
10811,8.0,300.19353,3471.6974,0.0,0.0,0.0,-0.10963590424081583,0.0,0.0,-0.22818416570002376,-0.4023014884490656,-0.4248236570343306,-0.9931833707795671,-0.28252197199274776,-0.06876870572119284
10812,8.0,299.77411,3112.7021,0.0,0.0,0.0,-0.10964604538448808,0.0,0.0,-0.19000008899404883,-0.35963415495312767,-0.3965494804138866,-1.006750759221064,-0.25991026249614574,-0.07570455869620822
10813,8.0,300.4718,3083.1562,0.0,0.0,0.0,-0.10965618652816035,0.0,0.0,-0.21119322808564878,-0.3243385503072227,-0.40167070986431264,-0.98993745448172,-0.2229353883270098,-0.053537965915535855
10814,8.0,300.26622000000003,3075.3195,0.0,0.0,0.0,-0.1096663276718326,0.0,0.0,-0.20708322223502282,-0.3356414261002296,-0.3920956889368316,-1.0141353766123689,-0.2339905447355688,-0.08383961342957563
10815,8.0,299.57354,2881.1023,0.0,0.0,0.0,-0.10967646881550487,0.0,0.0,-0.19206009737485583,-0.3199799840745657,-0.3637430766261467,-1.010586903834662,-0.2576349891315938,-0.07523476934034362
10816,8.0,300.56362,2948.8109,0.0,0.0,0.0,-0.10968660995917713,0.0,0.0,-0.18925785289829583,-0.34022789254537866,-0.36687913634815167,-1.028442265374349,-0.2692792795457957,-0.093791942349794
10817,8.0,299.15039,3083.3822,0.0,0.0,0.0,-0.10969675110284938,0.0,0.0,-0.17906383748472485,-0.36008006605713566,-0.3981273134696066,-0.967540594536322,-0.25646027762815876,-0.08869390619415701
10818,8.0,299.22341,3044.5494,0.0,0.0,0.0,-0.10970689224652165,0.0,0.0,-0.1886863697093948,-0.3464664024835717,-0.39031422300851465,-0.9947169552034201,-0.25143796165249477,-0.06968768100538864
10819,8.0,298.53406,3235.7414,0.0,0.0,0.0,-0.1097170333901939,0.0,0.0,-0.20094204510143582,-0.36189199028345864,-0.4207505436198456,-0.981674106073691,-0.25534686775577375,-0.05546470961669065
10820,8.0,298.38313999999997,3530.593,0.0,0.0,0.0,-0.10972717453386617,0.0,0.0,-0.2680762173045627,-0.37316391128591064,-0.4319719946348166,-0.9884278030252291,-0.24324990785939676,-0.05653653773147185
10821,8.0,298.82816,3149.2754,0.0,0.0,0.0,-0.10973731567753844,0.0,0.0,-0.21191148055153478,-0.34351573713236366,-0.40187387664186364,-0.9750681511192342,-0.2578485113251668,-0.10396380710292889
10822,8.0,300.09418,2728.8857,0.0,0.0,0.0,-0.10974745682121069,0.0,0.0,-0.16072846897516485,-0.32586762576813066,-0.34291702791327566,-0.9725158045148371,-0.25499612110115777,-0.10619406176553789
10823,8.0,299.6447,2946.2528,0.0,0.0,0.0,-0.10975759796488296,0.0,0.0,-0.15704641943677486,-0.33497884159483765,-0.40356203236847166,-0.992185035721039,-0.2799945716058127,-0.095624496348153
10824,8.0,300.45414,3175.4126,0.0,0.0,0.0,-0.10976773910855521,0.0,0.0,-0.21282592863428376,-0.3395249097584997,-0.4128953120870946,-1.01090332157589,-0.24848945452399976,-0.06478003555679174
10825,8.0,300.29494,2907.3907,0.0,0.0,0.0,-0.10977788025222748,0.0,0.0,-0.16948811741467484,-0.3252358845957827,-0.3890501833762636,-1.007222173830089,-0.25766619723467377,-0.10733079665522491
10826,8.0,300.40477999999996,2848.085,0.0,0.0,0.0,-0.10978802139589973,0.0,0.0,-0.14994750817616687,-0.3342544488333457,-0.38154476630803663,-0.994170397966979,-0.23882615924780676,-0.1021442429708519
10827,8.0,300.09945,3063.1,0.0,0.0,0.0,-0.109798162539572,0.0,0.0,-0.19147922135752782,-0.34925026660331765,-0.3903764365646546,-0.9744916624748391,-0.24733722704028377,-0.11261103544384389
10828,8.0,299.78683,3271.2548,0.0,0.0,0.0,-0.10980830368324425,0.0,0.0,-0.21885240585655077,-0.3845716888617706,-0.39095570151432363,-0.967307060653274,-0.2558523377006598,-0.10161286422090891
10829,8.0,300.16195,3452.1441,0.0,0.0,0.0,-0.10981844482691652,0.0,0.0,-0.23925144057977876,-0.37925867143241665,-0.4308555044821276,-0.9697889661107191,-0.26512692997349074,-0.08003897715248201
10830,8.0,299.59379,3226.8174,0.0,0.0,0.0,-0.10982858597058877,0.0,0.0,-0.22739034504167974,-0.36114719066495266,-0.39233437013038763,-0.9759195851782639,-0.2730351747514737,-0.03846534378798386
10831,8.0,299.91898,2694.4557,0.0,0.0,0.0,-0.10983872711426104,0.0,0.0,-0.16179993029340986,-0.2900704927202287,-0.36717682922753164,-0.973161710923583,-0.27464450975280275,-0.031865521023132067
10832,8.0,299.7078,2906.5601,0.0,0.0,0.0,-0.1098488682579333,0.0,0.0,-0.2085524551450248,-0.3127841351768907,-0.3621851134048877,-0.9934783481486791,-0.22881225917201178,-0.06451504431113914
10833,8.0,299.54019,3604.0467,0.0,0.0,0.0,-0.10985900940160556,0.0,0.0,-0.2784259692585037,-0.36628085269410565,-0.45083338180129057,-0.9989719166133522,-0.22522339824531878,-0.10448163869903489
10834,8.0,299.75054,3379.1046,0.0,0.0,0.0,-0.10986915054527782,0.0,0.0,-0.21099045647563683,-0.37483148790298765,-0.44134148791201355,-0.998651070969187,-0.23676649537203376,-0.11576982236559188
10835,8.0,300.23809,2725.2979,0.0,0.0,0.0,-0.10987929168895007,0.0,0.0,-0.13895968223675287,-0.3277490994813177,-0.36171371906086464,-1.000422282806492,-0.26966532783389574,-0.11405726757657589
10836,8.0,299.77386,2786.7777,0.0,0.0,0.0,-0.10988943283262234,0.0,0.0,-0.17087011962356785,-0.3121550993823097,-0.36408560582245164,-0.9764577628363781,-0.25833658376583574,-0.08133337274447892
10837,8.0,299.90211,3214.7532,0.0,0.0,0.0,-0.10989957397629459,0.0,0.0,-0.21684487369842279,-0.37623375511388063,-0.3841260716002916,-1.0156132018832191,-0.27435696963942474,-0.07649679868439622
10838,8.0,299.43535,3141.635,0.0,0.0,0.0,-0.10990971511996686,0.0,0.0,-0.21821155556580377,-0.3519857277657867,-0.38478131004245864,-1.005741795168987,-0.2322031512941668,-0.07403325737176364
10839,8.0,300.50601,2927.2171,0.0,0.0,0.0,-0.1099198562636391,0.0,0.0,-0.17367123939251683,-0.33199487071284267,-0.38413480581615367,-1.0366402692834291,-0.2324903367700098,-0.07993775144099183
10840,8.0,300.68722,2934.2949,0.0,0.0,0.0,-0.10992999740731138,0.0,0.0,-0.17363231032367485,-0.33950620516165364,-0.37881384450601563,-0.983931130803942,-0.2125666581986958,-0.10218304031718091
10841,8.0,300.27013,3197.9117,0.0,0.0,0.0,-0.10994013855098365,0.0,0.0,-0.21159524519532477,-0.35394327629648165,-0.40654679358554463,-0.9741292026490671,-0.25306975027603973,-0.0895051081447164
10842,8.0,299.29385,3619.6443,0.0,0.0,0.0,-0.1099502796946559,0.0,0.0,-0.2771616459162247,-0.38616125535364865,-0.4369585935444556,-0.970680545138711,-0.28067829250829074,-0.08540274219984442
10843,8.0,299.02237,3488.0155,0.0,0.0,0.0,-0.10996042083832817,0.0,0.0,-0.25209440586228077,-0.3599718610789567,-0.44820334931172656,-0.9660884044930022,-0.3012148354025897,-0.026529191748727376
10844,8.0,299.60708,2882.1288,0.0,0.0,0.0,-0.10997056198200042,0.0,0.0,-0.2048266332023148,-0.3164131005425417,-0.35485546483150765,-0.9817049696717371,-0.26741057278386876,-0.09712280649627472
10845,8.0,299.66556,2884.5731,0.0,0.0,0.0,-0.1099807031256727,0.0,0.0,-0.15400311262892385,-0.34366886961997667,-0.3791662123607917,-0.9762839499142242,-0.22034038389340277,-0.1104218275427859
10846,8.0,299.25805,3281.5296,0.0,0.0,0.0,-0.10999084426934495,0.0,0.0,-0.22242796280943078,-0.3794481289361146,-0.3956269567278406,-1.018263661494799,-0.2110905351880138,-0.1165787201854239
10847,8.0,300.21545,3267.0831,0.0,0.0,0.0,-0.11000098541301721,0.0,0.0,-0.2012238502192478,-0.3668748908302326,-0.42501294228551156,-1.012637570049547,-0.2257939999066328,-0.08537036683264922
10848,8.0,300.42256000000003,2846.8644,0.0,0.0,0.0,-0.11001112655668947,0.0,0.0,-0.17818872377085784,-0.3298158358427887,-0.3573711317822847,-1.010359023887172,-0.25816784722668273,-0.07052117344489793
10849,8.0,300.65811,2864.8816,0.0,0.0,0.0,-0.11002126770036173,0.0,0.0,-0.1824401388054398,-0.3165730116733237,-0.37183931982768365,-0.983227337416983,-0.26568158307823075,-0.06088367450300084
10850,8.0,300.57451000000003,3243.3807,0.0,0.0,0.0,-0.11003140884403399,0.0,0.0,-0.23827078673549576,-0.36465606562875164,-0.3829798830871716,-0.9890672145008341,-0.2734059533605667,-0.05799957157736204
10851,8.0,299.78731,3585.6315,0.0,0.0,0.0,-0.11004154998770627,0.0,0.0,-0.23217946150682875,-0.40023499526761863,-0.45752796574199456,-0.98709113362581,-0.2598062422408797,-0.0989339778777734
10852,8.0,299.90917,3547.8940000000002,0.0,0.0,0.0,-0.11005169113137851,0.0,0.0,-0.24106559395632177,-0.37511730549119565,-0.4622882755068005,-0.996838528660303,-0.22615910431516578,-0.0967295104302094
10853,8.0,299.94087,3015.8675,0.0,0.0,0.0,-0.11006183227505079,0.0,0.0,-0.17432071244161482,-0.35594594485412967,-0.38648174636027866,-0.9695359879582521,-0.24190109972377974,-0.1109632779987229
10854,8.0,299.69261,2580.5855,0.0,0.0,0.0,-0.11007197341872303,0.0,0.0,-0.14212033353868486,-0.2968131553781777,-0.34550007599570265,-0.992961651392685,-0.2533867557023257,-0.10356112124818691
10855,8.0,299.66711000000004,2776.6071,0.0,0.0,0.0,-0.1100821145623953,0.0,0.0,-0.16818880654644283,-0.3145429448329717,-0.36128745487629566,-1.0010696381628812,-0.28291735231426873,-0.07498740358018052
10856,8.0,300.02599,3212.1354,0.0,0.0,0.0,-0.11009225570606757,0.0,0.0,-0.2174130232944948,-0.37001805343543864,-0.38897788798162863,-1.018627418280699,-0.2841003927335257,-0.07408529891014973
10857,8.0,300.19146,3097.6434,0.0,0.0,0.0,-0.11010239684973983,0.0,0.0,-0.17745722812616485,-0.35646254028511365,-0.4076864770330226,-0.9969139651302481,-0.26264443683098776,-0.1094303319224329
10858,8.0,301.01776,2946.5557,0.0,0.0,0.0,-0.11011253799341209,0.0,0.0,-0.16282655529472984,-0.36308838533903365,-0.36976440653790565,-0.9920581261460141,-0.25317260529369073,-0.1278990644101549
10859,8.0,300.76775,3267.8298,0.0,0.0,0.0,-0.11012267913708434,0.0,0.0,-0.2024271759055068,-0.3606529779286777,-0.43025850765570856,-0.9813415776558732,-0.23982755432163677,-0.07372294142263783
10860,8.0,300.65901,3641.3946,0.0,0.0,0.0,-0.1101328202807566,0.0,0.0,-0.26107187267578774,-0.38333162272688565,-0.4624895576391655,-0.994933831254824,-0.22636013313500578,-0.05016120255277525
10861,8.0,300.11884,3455.636,0.0,0.0,0.0,-0.11014296142442888,0.0,0.0,-0.26249546880128577,-0.3630393237691916,-0.4248922641986016,-0.970131576367032,-0.25131697959055477,-0.06720932597629403
10862,8.0,299.37987999999996,3122.9868,0.0,0.0,0.0,-0.11015310256810112,0.0,0.0,-0.22280105162875177,-0.33091943745420566,-0.39558949687164363,-0.983947089493017,-0.2688259007885508,-0.04826352291748886
10863,8.0,299.79523,2793.8872,0.0,0.0,0.0,-0.1101632437117734,0.0,0.0,-0.17874368085062783,-0.3219789340043467,-0.34854933058164067,-0.9917432384124371,-0.27963123025245373,-0.1053621125059309
10864,8.0,299.92498,2995.6499,0.0,0.0,0.0,-0.11017338485544564,0.0,0.0,-0.1769887722074318,-0.3373520759790577,-0.39626193016800765,-0.994509563172952,-0.25969751037264877,-0.08918306078593283
10865,8.0,299.85882999999995,3442.3781,0.0,0.0,0.0,-0.11018352599911792,0.0,0.0,-0.24098831337119475,-0.36204891232644565,-0.4433597706537025,-1.0147407935471189,-0.24321421105837376,-0.12459441000401089
10866,8.0,299.48186,3258.1264,0.0,0.0,0.0,-0.11019366714279018,0.0,0.0,-0.2282788336568668,-0.34711193398978063,-0.4149982924046426,-0.9986674248258011,-0.25010274120071874,-0.07331796359616964
10867,8.0,299.81101,2695.04,0.0,0.0,0.0,-0.11020380828646244,0.0,0.0,-0.15344510566635283,-0.3174941674717347,-0.3482855714481096,-0.9909870194653041,-0.25977241995254174,-0.1004842292525213
10868,8.0,300.55997,2902.6940000000004,0.0,0.0,0.0,-0.1102139494301347,0.0,0.0,-0.17704302161778585,-0.34138267341934664,-0.36392079056118565,-0.978162910767163,-0.2528011680720328,-0.07544353229819693
10869,8.0,300.21864,3525.1316,0.0,0.0,0.0,-0.11022409057380696,0.0,0.0,-0.22234041800079077,-0.4084859820244276,-0.4407255939712295,-0.9814783157568682,-0.2531797993694007,-0.09559964030994991
10870,8.0,300.16929,3337.6813,0.0,0.0,0.0,-0.11023423171747922,0.0,0.0,-0.2290903861919608,-0.3684163178098596,-0.4170650794286186,-1.000152150329832,-0.26347617330807377,-0.08945331687910502
10871,8.0,300.12827000000004,2928.1615,0.0,0.0,0.0,-0.11024437286115149,0.0,0.0,-0.16962880719105983,-0.3377068249715687,-0.3827523476447156,-0.978574280175262,-0.25962502246049474,-0.07743470148046003
10872,8.0,300.14871,2880.2212,0.0,0.0,0.0,-0.11025451400482374,0.0,0.0,-0.1972578069428298,-0.3197265702245557,-0.35853093837674865,-0.986232424431062,-0.24452070586981475,-0.08870512287276401
10873,8.0,300.7112,3209.9026,0.0,0.0,0.0,-0.11026465514849601,0.0,0.0,-0.23792098240347276,-0.3444229202118957,-0.3933863365167086,-0.996416915293693,-0.24446884772969676,-0.0889461102235476
10874,8.0,300.90106000000003,3497.5124,0.0,0.0,0.0,-0.11027479629216826,0.0,0.0,-0.27009528024882873,-0.3723660274946657,-0.4206951188393756,-1.007784862008122,-0.2479440219951698,-0.12002197707274688
10875,8.0,300.27128999999996,3208.6939,0.0,0.0,0.0,-0.11028493743584053,0.0,0.0,-0.22119640797538578,-0.3631305669406967,-0.39103583946473264,-1.002166653648648,-0.26952322963987174,-0.09394689058158621
10876,8.0,300.2078,2737.8613,0.0,0.0,0.0,-0.1102950785795128,0.0,0.0,-0.15419355298521886,-0.3379889745944147,-0.34005894322370467,-0.9991056656265521,-0.24100617697045776,-0.11045284312834691
10877,8.0,300.64932999999996,2740.3373,0.0,0.0,0.0,-0.11030521972318505,0.0,0.0,-0.14739493865674785,-0.30747632585305074,-0.37812284846781963,-0.9942020822976061,-0.23362874352236176,-0.10368703783811391
10878,8.0,300.45687000000004,3421.1362,0.0,0.0,0.0,-0.11031536086685731,0.0,0.0,-0.24775788795179976,-0.37217188877550567,-0.4200102124342806,-1.0012243614531509,-0.2261378159305648,-0.04917563039250686
10879,8.0,300.6121,3425.6309,0.0,0.0,0.0,-0.11032550201052957,0.0,0.0,-0.24570671511186473,-0.3636865778005707,-0.4319129424189886,-0.996032903638294,-0.2603085305804518,-0.05308380796896395
10880,8.0,299.80901,2925.8520000000003,0.0,0.0,0.0,-0.11033564315420183,0.0,0.0,-0.18656911269793783,-0.3401330320710167,-0.36268380470660466,-0.960270991163868,-0.25629488481433577,-0.06495143694370774
10881,8.0,299.81692999999996,3072.1961,0.0,0.0,0.0,-0.1103457842978741,0.0,0.0,-0.19088046147593482,-0.34889559867081466,-0.39409482125163064,-0.9515724011753841,-0.26394525744186875,-0.08112983106439092
10882,8.0,300.12674,3383.9913,0.0,0.0,0.0,-0.11035592544154635,0.0,0.0,-0.24306358129850777,-0.3473322550915247,-0.43825303067970656,-0.961302378440658,-0.2540052131658628,-0.08089507418847222
10883,8.0,300.32061,3232.4246,0.0,0.0,0.0,-0.11036606658521862,0.0,0.0,-0.19659282103470083,-0.35859454008552566,-0.42738900363751064,-0.994013911621535,-0.2578370109365318,-0.088840401893615
10884,8.0,300.08993,2852.0432,0.0,0.0,0.0,-0.11037620772889087,0.0,0.0,-0.2029827915978418,-0.29795374061824476,-0.36601340533021065,-1.018658930358809,-0.2568352004301607,-0.1036308733850709
10885,8.0,299.59441,2849.1655,0.0,0.0,0.0,-0.11038634887256314,0.0,0.0,-0.17409675377201184,-0.32871042051369265,-0.3632679839192587,-1.0166855244640491,-0.21167985157867478,-0.1168063062903849
10886,8.0,299.39229,2772.2737,0.0,0.0,0.0,-0.11039649001623542,0.0,0.0,-0.17627402558689184,-0.31140224442550873,-0.35502572124581067,-1.003608245095922,-0.24625755839622876,-0.13256355111300389
10887,8.0,300.65852,3186.9304,0.0,0.0,0.0,-0.11040663115990766,0.0,0.0,-0.1926685844574088,-0.36419539147078667,-0.4118832778872146,-1.012240973827906,-0.27225071652405375,-0.07573600187331142
10888,8.0,301.59942,3320.5844,0.0,0.0,0.0,-0.11041677230357994,0.0,0.0,-0.19745510700230182,-0.3716594172724287,-0.44026020820029954,-1.011885728342846,-0.28770805958207474,-0.07582390942548722
10889,8.0,300.24882,3076.6512,0.0,0.0,0.0,-0.11042691344725218,0.0,0.0,-0.17805972690062682,-0.35131178472677366,-0.4058536291921346,-0.9738579961273011,-0.2744216757908107,-0.05754546226679494
10890,8.0,300.07259,3016.4603,0.0,0.0,0.0,-0.11043705459092445,0.0,0.0,-0.1910045643481828,-0.33067081627716866,-0.3952532295609566,-0.9757612344526361,-0.24140384723720476,-0.07167861004737802
10891,8.0,299.55775,3432.6033,0.0,0.0,0.0,-0.11044719573459671,0.0,0.0,-0.2529259194243447,-0.35090992973711366,-0.4395898318016385,-0.9751346608557981,-0.24859673744458774,-0.05746488456584254
10892,8.0,300.01608,3550.1028,0.0,0.0,0.0,-0.11045733687826897,0.0,0.0,-0.24277025552705875,-0.38602273393247766,-0.45034961567354653,-0.9895571107916831,-0.24578321549441476,-0.06325405760143944
10893,8.0,299.86255,3062.6221,0.0,0.0,0.0,-0.11046747802194123,0.0,0.0,-0.19946348015801282,-0.3454818881564077,-0.38601528654424266,-1.008360347534918,-0.2549225591438978,-0.1090239477048259
10894,8.0,299.18604,3026.5145,0.0,0.0,0.0,-0.1104776191656135,0.0,0.0,-0.17479800390121983,-0.3521601993005057,-0.39302663273120864,-1.012102087636699,-0.2776671563911147,-0.08388752293405392
10895,8.0,299.46815,2992.7202,0.0,0.0,0.0,-0.11048776030928575,0.0,0.0,-0.2013872165328708,-0.32154235493375966,-0.3867826411099746,-1.018367114330009,-0.28751750776826873,-0.09400912136297791
10896,8.0,300.04391,3180.8637,0.0,0.0,0.0,-0.11049790145295803,0.0,0.0,-0.2174901924221108,-0.3575689080693037,-0.39184404827449665,-1.014691144292219,-0.25970091489298475,-0.08415715081216411
10897,8.0,299.66987,3361.2825,0.0,0.0,0.0,-0.11050804259663027,0.0,0.0,-0.23419930465367178,-0.3608001221081997,-0.4267465118816016,-1.008971286682713,-0.2383676838425588,-0.1047500587830259
10898,8.0,299.574,3284.1178,0.0,0.0,0.0,-0.11051818374030255,0.0,0.0,-0.21682072794853977,-0.37674812139464464,-0.40472095743534864,-1.006045790463989,-0.2161764528724548,-0.06937383286641423
10899,8.0,299.54975,3065.4139,0.0,0.0,0.0,-0.1105283248839748,0.0,0.0,-0.19253448080667382,-0.3462379652485267,-0.3930368158947136,-0.989756052316317,-0.24782046627797574,-0.08638935294146532
10900,8.0,299.88017,3368.637,0.0,0.0,0.0,-0.11053846602764707,0.0,0.0,-0.19570386632446782,-0.3907616438551716,-0.43751601282196856,-0.9707812824636531,-0.2591880076923648,-0.05312765738029155
10901,8.0,300.50777999999997,3570.5037,0.0,0.0,0.0,-0.11054860717131933,0.0,0.0,-0.23640880795423277,-0.4029886138718796,-0.4459465576289986,-0.9942946629592431,-0.26522632980830074,-0.08297798404803942
10902,8.0,300.04072,3059.0176,0.0,0.0,0.0,-0.11055874831499159,0.0,0.0,-0.17777283526731283,-0.3633585583456977,-0.3887335731175166,-1.008687566522212,-0.26224694894925876,-0.06549191974579924
10903,8.0,299.74888,2759.0905,0.0,0.0,0.0,-0.11056888945866385,0.0,0.0,-0.16676733824615486,-0.3428045774171777,-0.3291226917143807,-1.019717979363329,-0.25269159520621876,-0.1288094696250049
10904,8.0,299.89236,2986.2601,0.0,0.0,0.0,-0.1105790306023361,0.0,0.0,-0.2150261606964298,-0.32184175007330773,-0.37088058258306367,-0.9971190064204841,-0.2560224117299447,-0.09985743172741121
10905,8.0,300.82077999999996,3188.8699,0.0,0.0,0.0,-0.11058917174600837,0.0,0.0,-0.2206306395170488,-0.37528606229535066,-0.37342013183869766,-0.994767678503426,-0.2878849933145367,-0.14223305761230987
10906,8.0,300.33676,3167.547,0.0,0.0,0.0,-0.11059931288968064,0.0,0.0,-0.18667239328063082,-0.35888401550659466,-0.41729878556418354,-1.004730875544217,-0.2708621079245087,-0.10095547870178
10907,8.0,299.7193,3111.8613,0.0,0.0,0.0,-0.11060945403335289,0.0,0.0,-0.19017035554085282,-0.34248291104043166,-0.4132748755745546,-1.00628614352021,-0.2908989867969947,-0.08203629270985172
10908,8.0,299.03722999999997,3030.7177,0.0,0.0,0.0,-0.11061959517702516,0.0,0.0,-0.19158292750526282,-0.32919770261928366,-0.4004818736544836,-0.9721903688477189,-0.2437194378232358,-0.06330523281099004
10909,8.0,299.19471,3253.2588,0.0,0.0,0.0,-0.1106297363206974,0.0,0.0,-0.22255280535425181,-0.3430090107573537,-0.4233476049511556,-1.003933042415477,-0.23114360579709778,-0.06641337242648954
10910,8.0,300.05029,3369.1620000000003,0.0,0.0,0.0,-0.11063987746436968,0.0,0.0,-0.2678475875519988,-0.3706229130826336,-0.3856706193902266,-1.016457239216519,-0.2217806378505448,-0.06976434958745524
10911,8.0,299.69945,2991.7711,0.0,0.0,0.0,-0.11065001860804194,0.0,0.0,-0.1970485505321778,-0.3317897280975967,-0.38058542111335664,-1.065558629787449,-0.2378995622963588,-0.04703768585375816
10912,8.0,300.08642000000003,2868.8325,0.0,0.0,0.0,-0.1106601597517142,0.0,0.0,-0.18445365927165883,-0.3237473492713757,-0.36385242657693867,-1.005372272990018,-0.22996139624292278,-0.096628100307201
10913,8.0,300.91938,3193.982,0.0,0.0,0.0,-0.11067030089538646,0.0,0.0,-0.2029370433558268,-0.35512236504034866,-0.4128313658732836,-0.994890362825534,-0.27222455440647175,-0.07109311462284414
10914,8.0,300.384,3409.433,0.0,0.0,0.0,-0.11068044203905872,0.0,0.0,-0.23919888329709174,-0.36964327248845064,-0.4275403426724466,-0.984036974909388,-0.26299322791291074,-0.11323900732581987
10915,8.0,299.74121,3144.7289,0.0,0.0,0.0,-0.11069058318273098,0.0,0.0,-0.2125025802623718,-0.3373340299947767,-0.4060824413297166,-1.015912414637749,-0.2949094408252957,-0.08469423213366992
10916,8.0,301.09754,2925.5396,0.0,0.0,0.0,-0.11070072432640325,0.0,0.0,-0.2123884984336128,-0.3201100245923997,-0.35679245451767366,-1.004527465586642,-0.27690629675852374,-0.13042720446966288
10917,8.0,299.68225,3047.1615,0.0,0.0,0.0,-0.1107108654700755,0.0,0.0,-0.2052830111798558,-0.3359498492981687,-0.38502814789931966,-0.9966094125476911,-0.26557748176295676,-0.09320464941958272
10918,8.0,299.49607000000003,3107.8535,0.0,0.0,0.0,-0.11072100661374777,0.0,0.0,-0.2042854259264018,-0.3328960553517827,-0.4075283897524206,-0.97673176592842,-0.23966403602049877,-0.11062921957325389
10919,8.0,301.16897,3267.4719,0.0,0.0,0.0,-0.11073114775742002,0.0,0.0,-0.2009453584292628,-0.36232816405400564,-0.4299563666083896,-0.9928523723694,-0.24080022375513177,-0.053658021866884446
10920,8.0,299.14207999999996,3129.0741,0.0,0.0,0.0,-0.11074128890109229,0.0,0.0,-0.18217860882212883,-0.3452054026016207,-0.4237763819959726,-1.016779351423309,-0.25045139042762776,-0.07114120752559053
10921,8.0,299.62323,3149.643,0.0,0.0,0.0,-0.11075143004476455,0.0,0.0,-0.2016532352141248,-0.36688453697118467,-0.38887507349398165,-0.9993292088636141,-0.2633250166581557,-0.07291130276128534
10922,8.0,299.03615,3159.8559,0.0,0.0,0.0,-0.11076157118843681,0.0,0.0,-0.20698548413037682,-0.35923422513865766,-0.3942975827291416,-0.9905867552783011,-0.23999796272345475,-0.1121058086789819
10923,8.0,299.94137,3378.886,0.0,0.0,0.0,-0.11077171233210907,0.0,0.0,-0.2260182017562598,-0.37720386102462267,-0.4238749104356966,-0.9908168441110091,-0.24840694556835677,-0.0942356091048305
10924,8.0,300.18748,3211.8884,0.0,0.0,0.0,-0.11078185347578133,0.0,0.0,-0.2198411555691328,-0.35974420404648866,-0.3967485029985286,-1.022170145930339,-0.2715870579735557,-0.1069968395547659
10925,8.0,301.39831000000004,2986.4201,0.0,0.0,0.0,-0.11079199461945359,0.0,0.0,-0.17305737195193283,-0.3285051360434327,-0.4062346314947366,-1.01062153672308,-0.28366970064601976,-0.09195552178905342
10926,8.0,300.00574,2993.7822,0.0,0.0,0.0,-0.11080213576312586,0.0,0.0,-0.18326419484676781,-0.33206784498504466,-0.3947029840941516,-0.9885096938983111,-0.25526188646988673,-0.07184308080361003
10927,8.0,300.59896000000003,3217.2274,0.0,0.0,0.0,-0.11081227690679811,0.0,0.0,-0.2339700973485508,-0.31919886957247573,-0.42478781837829355,-0.978855112572978,-0.2590697715381957,-0.06644779050588634
10928,8.0,299.9953,3293.9689,0.0,0.0,0.0,-0.11082241805047038,0.0,0.0,-0.24974301715021674,-0.34293742463778865,-0.40860386354106165,-1.0087887496771981,-0.25218255862098077,-0.04540003963138505
10929,8.0,300.29026,3203.1906,0.0,0.0,0.0,-0.11083255919414263,0.0,0.0,-0.23035947180970978,-0.3522315929025517,-0.3910989041509566,-1.0159629758177389,-0.2489352136404928,-0.09751824558630151
10930,8.0,299.81212,3284.3897,0.0,0.0,0.0,-0.1108427003378149,0.0,0.0,-0.22896729656981277,-0.3511897387522287,-0.4182154323996496,-1.000236270353134,-0.19541140181560382,-0.07519206388837893
10931,8.0,299.88599,3214.135,0.0,0.0,0.0,-0.11085284148148715,0.0,0.0,-0.2002138323870668,-0.36770219940438165,-0.40910074112509964,-1.002066959971309,-0.2253391215392398,-0.1024133014024059
10932,8.0,299.49215,3137.3788,0.0,0.0,0.0,-0.11086298262515942,0.0,0.0,-0.16701879652347185,-0.37505156582470767,-0.4116144525031836,-1.023624058498829,-0.25679837892152674,-0.07109059973609594
10933,8.0,299.49624,2941.1269,0.0,0.0,0.0,-0.1108731237688317,0.0,0.0,-0.19079716218521384,-0.34433982357119464,-0.35889214177239664,-1.028971688551599,-0.29422771602551473,-0.1005317131919576
10934,8.0,299.05957,2840.9481,0.0,0.0,0.0,-0.11088326491250394,0.0,0.0,-0.16613365163361485,-0.3225448240526957,-0.3748988082396317,-1.004745071178118,-0.26248379616013373,-0.1049481289125739
10935,8.0,299.17863,2905.8924,0.0,0.0,0.0,-0.11089340605617622,0.0,0.0,-0.18522578624536182,-0.34817828852752164,-0.34991466482638867,-0.9851766380918641,-0.27293307967139774,-0.11873199823793588
10936,8.0,300.57842999999997,3211.0259,0.0,0.0,0.0,-0.11090354719984846,0.0,0.0,-0.21649344816623978,-0.34839285436869766,-0.41118540188083963,-0.997709437386255,-0.26075749156726075,-0.08917116928275923
10937,8.0,300.15747999999996,3289.7716,0.0,0.0,0.0,-0.11091368834352074,0.0,0.0,-0.2023175017146828,-0.38211524637933864,-0.4155756828416266,-1.000239614078464,-0.2586733374365707,-0.1055181732863329
10938,8.0,299.82398,3168.9533,0.0,0.0,0.0,-0.11092382948719298,0.0,0.0,-0.19502780559274582,-0.36838231313650366,-0.39987255570684865,-1.012267845220558,-0.2295765537224418,-0.08170687294334052
10939,8.0,300.89555,3192.1166,0.0,0.0,0.0,-0.11093397063086524,0.0,0.0,-0.2103187324543428,-0.35530394959076966,-0.4047010470708836,-1.0097121852883342,-0.24904052072338576,-0.06574202837398303
10940,8.0,299.84426,3352.0761,0.0,0.0,0.0,-0.1109441117745375,0.0,0.0,-0.2198694860419288,-0.38421956418701864,-0.4148583726983336,-1.001748414404871,-0.26081419304285675,-0.08188395663681733
10941,8.0,300.0236,3386.2076,0.0,0.0,0.0,-0.11095425291820976,0.0,0.0,-0.23937917088738475,-0.37950282417651265,-0.4104405515998286,-1.024272741212849,-0.25980518846077577,-0.08756805361054401
10942,8.0,300.06746,3338.728,0.0,0.0,0.0,-0.11096439406188202,0.0,0.0,-0.2252400358119608,-0.4082787521139756,-0.3813711560359026,-0.9984389267957501,-0.24535416487207076,-0.09347420637018591
10943,8.0,300.11447999999996,3166.2633,0.0,0.0,0.0,-0.11097453520555428,0.0,0.0,-0.2041088366989738,-0.36144148915649765,-0.3969146557499266,-1.016222570493359,-0.2561687655743888,-0.08143233992149622
10944,8.0,300.01394,2980.5233,0.0,0.0,0.0,-0.11098467634922655,0.0,0.0,-0.19116243884626383,-0.3382357415237687,-0.37660647916316564,-1.0063356306550941,-0.2805197290001417,-0.07524803886365322
10945,8.0,301.33845,3037.4723,0.0,0.0,0.0,-0.1109948174928988,0.0,0.0,-0.21078444246530478,-0.32367034226377567,-0.38886094878758765,-1.003134206169138,-0.2703410035305797,-0.06845908182188534
10946,8.0,300.06597999999997,3264.2153,0.0,0.0,0.0,-0.11100495863657107,0.0,0.0,-0.22640420951435578,-0.3380995404453267,-0.42773617351927357,-0.98872418881198,-0.2143470906119108,-0.0918283183714994
10947,8.0,299.7552,3272.7411,0.0,0.0,0.0,-0.11101509978024332,0.0,0.0,-0.23544050562866878,-0.3449385631877857,-0.4144525052382776,-1.0092601237562189,-0.2263017192667408,-0.07939790192021283
10948,8.0,298.75092,3038.1718,0.0,0.0,0.0,-0.1110252409239156,0.0,0.0,-0.2017857885922068,-0.33657585547495067,-0.38516674024799763,-1.018316249174989,-0.24095009357742275,-0.12258201424540287
10949,8.0,299.92296,3232.4779,0.0,0.0,0.0,-0.11103538206758784,0.0,0.0,-0.2044695638670748,-0.36616433906510665,-0.4119586738271556,-1.011088563959172,-0.25116992660354176,-0.08396814319151052
10950,8.0,300.09726,3223.2936,0.0,0.0,0.0,-0.11104552321126013,0.0,0.0,-0.22431803901596678,-0.3639683626533807,-0.39151435695695863,-0.988063742264299,-0.25802121980471177,-0.10412848050918092
10951,8.0,300.14988,3004.7915,0.0,0.0,0.0,-0.11105566435493239,0.0,0.0,-0.16187981493129386,-0.3689755406725506,-0.3825262510174017,-1.009936640450486,-0.25352437533090777,-0.05342595213023095
10952,8.0,300.26286,2898.4739,0.0,0.0,0.0,-0.11106580549860463,0.0,0.0,-0.17227922627263584,-0.3240381824475787,-0.38474630225150364,-1.0144448231929089,-0.27814744707101574,-0.08925516670279911
10953,8.0,299.12699,3195.1525,0.0,0.0,0.0,-0.11107594664227691,0.0,0.0,-0.19166806077866483,-0.3750507552246276,-0.4045277509062806,-0.9969015528165232,-0.25515079372892274,-0.08067211660996802
10954,8.0,299.8406,3224.9559999999997,0.0,0.0,0.0,-0.11108608778594915,0.0,0.0,-0.24228055175372876,-0.3472411740400357,-0.39078436092241364,-0.9625281982791372,-0.2515291136314908,-0.11915102781679089
10955,8.0,301.63568,3325.5052,0.0,0.0,0.0,-0.11109622892962143,0.0,0.0,-0.2151317312243488,-0.35143920092684866,-0.44429960065145657,-0.974427645333521,-0.25995183614774875,-0.09089316452295691
10956,8.0,300.32198,3093.7154,0.0,0.0,0.0,-0.11110637007329369,0.0,0.0,-0.21530674991412183,-0.33328064455973866,-0.3918248167875986,-1.007084321153984,-0.2866804922581617,-0.0979081584102829
10957,8.0,299.3732,2963.368,0.0,0.0,0.0,-0.11111651121696595,0.0,0.0,-0.18450172785640281,-0.3026817175723597,-0.4136064110072746,-1.012202693239128,-0.2792511297424407,-0.10461019987172289
10958,8.0,300.13459,3221.8629,0.0,0.0,0.0,-0.1111266523606382,0.0,0.0,-0.21097992880709782,-0.35961124536836664,-0.4087746873754206,-0.985988443939483,-0.2719629028331487,-0.08467228311000372
10959,8.0,299.87696,3351.1139,0.0,0.0,0.0,-0.11113679350431045,0.0,0.0,-0.23485305361819175,-0.34617946018775264,-0.43762244461247257,-0.9915744613432801,-0.2683312827522357,-0.06593371097490064
10960,8.0,299.95245,3341.2217,0.0,0.0,0.0,-0.11114693464798273,0.0,0.0,-0.2155354100641888,-0.3780976996003377,-0.42201484669712264,-1.008783105874141,-0.26358125747594474,-0.05768023871559634
10961,8.0,299.45626,3138.3343,0.0,0.0,0.0,-0.111157075791655,0.0,0.0,-0.1990444303141558,-0.3469080883346627,-0.4080227544762106,-1.0014082359487981,-0.24495546109022176,-0.09207011226936261
10962,8.0,298.65864,3371.6844,0.0,0.0,0.0,-0.11116721693532725,0.0,0.0,-0.24000671720431876,-0.3530458812129157,-0.4318552783557976,-0.98045708124608,-0.24047270079280778,-0.044747859178019864
10963,8.0,298.78879,3416.6607,0.0,0.0,0.0,-0.11117735807899952,0.0,0.0,-0.2297255622821478,-0.3851008181964916,-0.42375315830368054,-0.988452972157713,-0.2408838878158888,-0.08300603486380784
10964,8.0,299.4378,3071.6736,0.0,0.0,0.0,-0.11118749922267177,0.0,0.0,-0.18232626975920183,-0.3447304213522437,-0.40665538359876163,-1.0151831785407792,-0.28282393065504874,-0.06279032444142253
10965,8.0,299.77019,2864.7733,0.0,0.0,0.0,-0.11119764036634404,0.0,0.0,-0.15656331192159584,-0.3450070386295437,-0.36924920939205963,-1.013216328374166,-0.2732162729418467,-0.11904172852850389
10966,8.0,300.21007000000003,3033.7909999999997,0.0,0.0,0.0,-0.1112077815100163,0.0,0.0,-0.18595869030769382,-0.35265324679916565,-0.38358476299936867,-1.011054457960806,-0.25756514580220075,-0.10998922041259089
10967,8.0,300.4765,2983.8340000000003,0.0,0.0,0.0,-0.11121792265368856,0.0,0.0,-0.2176320170386078,-0.33123627062797467,-0.35814275213093766,-0.9704656651900041,-0.25508190285462373,-0.13054891607167488
10968,8.0,300.40175,3010.8084,0.0,0.0,0.0,-0.11122806379736082,0.0,0.0,-0.1942654159525038,-0.34849577018135464,-0.37244937744789164,-1.002568518770809,-0.26614809355677177,-0.09911503553814241
10969,8.0,300.42368,3117.7139,0.0,0.0,0.0,-0.11123820494103308,0.0,0.0,-0.1944344058041818,-0.3714118296104936,-0.38186096113424267,-1.026352842343139,-0.24785875699925475,-0.14114791741771487
10970,8.0,299.3127,3061.1638,0.0,0.0,0.0,-0.11124834608470534,0.0,0.0,-0.1906656828522378,-0.3365384564137597,-0.4033132288064166,-1.0222783610410189,-0.24989778097049078,-0.07569288706830633
10971,8.0,300.48785,3170.3572,0.0,0.0,0.0,-0.11125848722837761,0.0,0.0,-0.18653022415909984,-0.38999999388750267,-0.3871792069341127,-1.022480808410999,-0.23572429671667677,-0.1062488178009419
10972,8.0,299.52491000000003,3242.0725,0.0,0.0,0.0,-0.11126862837204986,0.0,0.0,-0.18545465917794984,-0.35726375766918766,-0.44279065847003557,-1.004000565402141,-0.25793141544834874,-0.04843776444443516
10973,8.0,298.92441,3048.4191,0.0,0.0,0.0,-0.11127876951572213,0.0,0.0,-0.2068638637208738,-0.3423675322515447,-0.3774118812701526,-1.0177988836739291,-0.24000281619143377,-0.07717951342952492
10974,8.0,299.31934,3059.6599,0.0,0.0,0.0,-0.11128891065939438,0.0,0.0,-0.18753862079112082,-0.33553471059969764,-0.40698686836897663,-1.017426514262179,-0.2370149442965538,-0.03770197940114567
10975,8.0,300.24023,3294.4111,0.0,0.0,0.0,-0.11129905180306665,0.0,0.0,-0.2513419359405178,-0.3299103214146137,-0.42016646573220157,-1.014113997035259,-0.25622152550709576,-0.07233784170818913
10976,8.0,299.08373,3460.0199,0.0,0.0,0.0,-0.11130919294673891,0.0,0.0,-0.24774010541254476,-0.3849393162630526,-0.4190802312274986,-0.972963559734027,-0.27467650819096073,-0.05323438807957504
10977,8.0,300.91879,3270.0122,0.0,0.0,0.0,-0.11131933409041117,0.0,0.0,-0.23005564876722476,-0.3607802725387407,-0.4031661352893996,-0.9727642433068561,-0.26345041649053175,-0.09692504338150701
10978,8.0,300.86036,3239.1121,0.0,0.0,0.0,-0.11132947523408343,0.0,0.0,-0.21585032819526878,-0.3626240229507046,-0.4061348466248886,-0.9703925287977861,-0.24394983063097378,-0.1011037354299118
10979,8.0,300.78078999999997,3179.4263,0.0,0.0,0.0,-0.11133961637775569,0.0,0.0,-0.22873487726187477,-0.3401072752534747,-0.3976240524099386,-1.025396435573749,-0.2388392099090948,-0.08625720081042292
10980,8.0,301.02712,3082.5745,0.0,0.0,0.0,-0.11134975752142795,0.0,0.0,-0.19481465830170983,-0.32811279547221167,-0.4140982020758106,-1.015096343007209,-0.2585918214660258,-0.09770093153958122
10981,8.0,300.09979,3084.8744,0.0,0.0,0.0,-0.11135989866510022,0.0,0.0,-0.17053530126052385,-0.36505067588019663,-0.4021388212780116,-1.027792670735239,-0.23449653143800578,-0.09282933854279242
10982,8.0,299.80112,3047.1107,0.0,0.0,0.0,-0.11137003980877247,0.0,0.0,-0.1927763537380448,-0.3389498092667417,-0.39451938317603163,-1.004380909092178,-0.2209508062836468,-0.08845865383893942
10983,8.0,299.37655,3023.1064,0.0,0.0,0.0,-0.11138018095244474,0.0,0.0,-0.15757470777391286,-0.36339614992440766,-0.3979779908023696,-1.0249007536248291,-0.24744771183118777,-0.08199715389823901
10984,8.0,299.28142,2969.0863,0.0,0.0,0.0,-0.11139032209611699,0.0,0.0,-0.17796018521080284,-0.3497488363150227,-0.37481908572176365,-1.0099167908810271,-0.2586549874772598,-0.09502366538335559
10985,8.0,299.99293,3214.2152,0.0,0.0,0.0,-0.11140046323978926,0.0,0.0,-0.1973874826906278,-0.36442264320321466,-0.41523104608511363,-0.987343301178197,-0.2735612339383917,-0.07836406055168062
10986,8.0,300.26818,3128.6108,0.0,0.0,0.0,-0.11141060438346152,0.0,0.0,-0.1875689574991148,-0.3397578154264857,-0.42369278886272255,-0.9801148154948011,-0.24257382686267276,-0.09434180075506081
10987,8.0,300.44063,2999.5571,0.0,0.0,0.0,-0.11142074552713378,0.0,0.0,-0.17632211443663784,-0.3263616459868867,-0.4091066889031866,-1.027700161001109,-0.2429529647850908,-0.06631358755664153
10988,8.0,300.56635,3207.8946,0.0,0.0,0.0,-0.11143088667080604,0.0,0.0,-0.23309672642485577,-0.3402931559843197,-0.4017299748626616,-1.019688392460409,-0.2786987057879207,-0.07308657273708313
10989,8.0,299.93602999999996,3296.2458,0.0,0.0,0.0,-0.1114410278144783,0.0,0.0,-0.2319050531147468,-0.36982085470097664,-0.40025051825915064,-1.003886888873422,-0.28907442734192473,-0.07684724440373251
10990,8.0,300.15257,3248.1751,0.0,0.0,0.0,-0.11145116895815056,0.0,0.0,-0.2558314039535937,-0.34778629246133463,-0.38374642705282364,-0.950971969431126,-0.27361010299071475,-0.08999573802863782
10991,8.0,300.87292,3319.6426,0.0,0.0,0.0,-0.11146131010182284,0.0,0.0,-0.2339239640714978,-0.36000805437252864,-0.4151564404802506,-0.9822442821699631,-0.2713895552640637,-0.05917576141269295
10992,8.0,300.69672,3248.8358,0.0,0.0,0.0,-0.11147145124549508,0.0,0.0,-0.1959817298993908,-0.3652754147523767,-0.4263078151183056,-1.015661837888019,-0.27856546339977073,-0.08961429597549242
10993,8.0,300.98192,3186.9179999999997,0.0,0.0,0.0,-0.11148159238916736,0.0,0.0,-0.19669133934192382,-0.34171030783918166,-0.4303418576089346,-0.9940690932219811,-0.23816359500741677,-0.06708286121806294
10994,8.0,301.47671,3241.5492,0.0,0.0,0.0,-0.1114917335328396,0.0,0.0,-0.18722501988517082,-0.3730383797310216,-0.4250866157002826,-1.0093054261681902,-0.22770858663308777,-0.1095293061922009
10995,8.0,300.70531,3224.7534,0.0,0.0,0.0,-0.11150187467651188,0.0,0.0,-0.2307045239987638,-0.34418080410050067,-0.4053591732758356,-1.0148941996122591,-0.2170497224711398,-0.07656077732221042
10996,8.0,299.42801000000003,3001.2529,0.0,0.0,0.0,-0.11151201582018415,0.0,0.0,-0.18738565042352381,-0.34884805697612264,-0.37607225318044163,-1.038601516176989,-0.2741862471300757,-0.09766610309389391
10997,8.0,299.98821,2926.0183,0.0,0.0,0.0,-0.1115221569638564,0.0,0.0,-0.17348595647923085,-0.35587666894479264,-0.36007386496652366,-1.000536040395219,-0.27637623523371074,-0.10606329170763192
10998,8.0,299.98257,3258.886,0.0,0.0,0.0,-0.11153229810752867,0.0,0.0,-0.1968044180530838,-0.34732636810844364,-0.4464891834550515,-0.988281124940753,-0.26309630584558374,-0.0950472437131826
10999,8.0,299.78381,3361.4143,0.0,0.0,0.0,-0.11154243925120091,0.0,0.0,-0.24397905276385776,-0.3502614496731137,-0.42754551024795656,-0.985446871893534,-0.24962814498637975,-0.08654813024538542
11000,8.0,299.54408,3002.0158,0.0,0.0,0.0,-0.11155258039487319,0.0,0.0,-0.16926585087273882,-0.3400637966916837,-0.4032081953010506,-1.00858885569747,-0.25308208152975675,-0.0972900505180304
11001,8.0,299.60438,3023.7873,0.0,0.0,0.0,-0.11156272153854545,0.0,0.0,-0.2167183491584358,-0.3356647207200287,-0.3667727552201527,-0.976540656827059,-0.27541630235397274,-0.099611068071597
11002,8.0,300.49483,3284.9781,0.0,0.0,0.0,-0.1115728626822177,0.0,0.0,-0.21175982740906782,-0.3720183611203537,-0.4147731279674206,-0.9826223663122772,-0.2567479595965507,-0.08223951014990771
11003,8.0,300.5087,3287.1673,0.0,0.0,0.0,-0.11158300382588997,0.0,0.0,-0.23926399474851776,-0.35693990267222564,-0.4030128812117746,-1.006507163764523,-0.27770360299721175,-0.08755061962932342
11004,8.0,300.12646,3226.1428,0.0,0.0,0.0,-0.11159314496956221,0.0,0.0,-0.17477529696647884,-0.36304116788437363,-0.4428503895634306,-1.029520363480749,-0.27014448367368477,-0.07528578749612873
11005,8.0,300.41918,3036.6699,0.0,0.0,0.0,-0.11160328611323449,0.0,0.0,-0.20841143099610682,-0.33539851965375667,-0.37926186317023164,-1.0347793341497689,-0.24045280056084378,-0.09256330263628672
11006,8.0,301.46325,2898.9177,0.0,0.0,0.0,-0.11161342725690676,0.0,0.0,-0.15790781374428783,-0.3180464901012447,-0.4052443011119986,-1.025359958570149,-0.20935649949687782,-0.08556725348608042
11007,8.0,301.08055,3125.7457,0.0,0.0,0.0,-0.111623568400579,0.0,0.0,-0.23750935968284878,-0.3332934317760007,-0.3793458413385197,-1.009800469769547,-0.21999089366891078,-0.08412885580312163
11008,8.0,300.63031,3388.3163,0.0,0.0,0.0,-0.11163370954425128,0.0,0.0,-0.24958516291713775,-0.35279374405803166,-0.42758465209931956,-1.004219599676258,-0.26144548838516074,-0.06911452392732244
11009,8.0,299.3988,3083.7181,0.0,0.0,0.0,-0.11164385068792353,0.0,0.0,-0.20001764690270482,-0.3422001737325277,-0.3951554813238096,-0.9789609870759272,-0.27138960592656874,-0.09192007728730532
11010,8.0,300.12412,2990.7243,0.0,0.0,0.0,-0.1116539918315958,0.0,0.0,-0.17376483330425385,-0.3396022612711337,-0.39573841423884065,-0.9674150021864271,-0.26723084248113077,-0.07369306473018922
11011,8.0,300.11015,3253.4117,0.0,0.0,0.0,-0.11166413297526806,0.0,0.0,-0.22853695911984176,-0.3370597938552117,-0.4233591762672976,-0.998684771667513,-0.2642129479857877,-0.05046284001479455
11012,8.0,299.99012999999997,3323.9793,0.0,0.0,0.0,-0.11167427411894032,0.0,0.0,-0.21695176145147177,-0.3666862236616127,-0.4267687324562946,-1.0035275903879621,-0.26086072148744877,-0.07140525036914953
11013,8.0,299.30627000000004,3182.8981,0.0,0.0,0.0,-0.11168441526261258,0.0,0.0,-0.2067891162609968,-0.37601879410516564,-0.38471361480327765,-0.997216389887595,-0.2616110534515007,-0.0957386947006735
11014,8.0,300.1055,3056.3039,0.0,0.0,0.0,-0.11169455640628484,0.0,0.0,-0.2004439212197748,-0.3437656046070237,-0.38483054386481763,-0.974480070893695,-0.2211538413386848,-0.10089789873834731
11015,8.0,300.22811,2958.9624,0.0,0.0,0.0,-0.1117046975499571,0.0,0.0,-0.16858786496582684,-0.3458726581899737,-0.38499015102056966,-1.006238176260476,-0.25548865184226677,-0.1095493077491749
11016,8.0,301.3619,2994.6674,0.0,0.0,0.0,-0.11171483869362937,0.0,0.0,-0.1917317131499468,-0.33260069294763267,-0.3859717066574416,-1.004454450784436,-0.2669709336979797,-0.09462218934923301
11017,8.0,301.2163,2985.6916,0.0,0.0,0.0,-0.11172497983730162,0.0,0.0,-0.17197311328492484,-0.33986100481666964,-0.3957415755791526,-1.051437773743829,-0.24996353076947975,-0.09586296678568822
11018,8.0,300.39176000000003,3029.5193,0.0,0.0,0.0,-0.11173512098097389,0.0,0.0,-0.17176960200233982,-0.3464071881477277,-0.40272141982050963,-1.016727776993219,-0.2300466409738358,-0.08440833044570363
11019,8.0,299.78952000000004,3178.0274,0.0,0.0,0.0,-0.11174526212464614,0.0,0.0,-0.1991260678747128,-0.3468700813234116,-0.4200448250576966,-1.040169622031749,-0.24494457878414777,-0.060514605246826544
11020,8.0,299.16033,3393.7089,0.0,0.0,0.0,-0.11175540326831841,0.0,0.0,-0.22670901540943778,-0.38394110279453664,-0.4209526464847916,-1.0272587892575489,-0.25887505526647875,-0.0944988555338109
11021,8.0,300.17195,3743.2670000000003,0.0,0.0,0.0,-0.11176554441199067,0.0,0.0,-0.2599156225891748,-0.39855425653174265,-0.4793898195020916,-0.9729124716639851,-0.2880251359358677,-0.07355676131348712
11022,8.0,300.47558,3461.844,0.0,0.0,0.0,-0.11177568555566293,0.0,0.0,-0.24993380201154575,-0.37652188291231664,-0.42585843869895557,-0.9651795090208011,-0.2558983493877008,-0.09028523270145873
11023,8.0,299.53975,3145.8141,0.0,0.0,0.0,-0.11178582669933519,0.0,0.0,-0.2026216489971998,-0.3543823783598177,-0.3992449080649046,-0.982373836327749,-0.27296452082200073,-0.058428642464708046
11024,8.0,299.85834,3089.4122,0.0,0.0,0.0,-0.11179596784300745,0.0,0.0,-0.20012874977616982,-0.3348683669364347,-0.4041070494647606,-1.005422844302509,-0.27884374240723475,-0.0881921558903881
11025,8.0,300.07629,3016.1289,0.0,0.0,0.0,-0.11180610898667971,0.0,0.0,-0.18220523703475683,-0.3589205735702027,-0.3757020723889077,-1.012565710352455,-0.23546408395849577,-0.07758040076533942
11026,8.0,300.89973,3012.0043,0.0,0.0,0.0,-0.11181625013035199,0.0,0.0,-0.17175116085051986,-0.34019169925180665,-0.40363123735030165,-1.009279821338163,-0.23626839175537476,-0.11779658601061788
11027,8.0,300.34646000000004,3202.9045,0.0,0.0,0.0,-0.11182639127402423,0.0,0.0,-0.1991619673257558,-0.3515078688861257,-0.4229331451302516,-1.017650543859289,-0.24983847544213775,-0.07636534265617252
11028,8.0,300.14473,3083.9909,0.0,0.0,0.0,-0.1118365324176965,0.0,0.0,-0.19076715984975282,-0.35969493982662665,-0.38699413680334765,-1.049410665593769,-0.27339118017410874,-0.09561021661449372
11029,8.0,299.15985,3168.8943,0.0,0.0,0.0,-0.11184667356136875,0.0,0.0,-0.2005409095193468,-0.3683466568654846,-0.39437717352449664,-1.028210737726499,-0.2849332539182227,-0.08227786065294262
11030,8.0,299.98996,3434.0839,0.0,0.0,0.0,-0.11185681470504102,0.0,0.0,-0.23097457541541577,-0.39458816259281965,-0.4183130185167806,-1.005148010345385,-0.23649933171816676,-0.08425646452071561
11031,8.0,298.44851,3444.8537,0.0,0.0,0.0,-0.11186695584871328,0.0,0.0,-0.26291623103781175,-0.37173696130258166,-0.4124963245952176,-0.9910841293548881,-0.2305924484052028,-0.06911070296119534
11032,8.0,299.28965,3158.5132,0.0,0.0,0.0,-0.11187709699238554,0.0,0.0,-0.19391116345254183,-0.35278383447205364,-0.4134141468007996,-1.0238400834201489,-0.2574722814305358,-0.08747497139010751
11033,8.0,299.6117,3037.8636,0.0,0.0,0.0,-0.1118872381360578,0.0,0.0,-0.19123617305604082,-0.36982032781092467,-0.3623781780789417,-1.004315179558191,-0.23998422305209877,-0.09561390484485771
11034,8.0,299.47062999999997,3038.1938,0.0,0.0,0.0,-0.11189737927973006,0.0,0.0,-0.15428296217404283,-0.37074249685943567,-0.39850958233483363,-1.015120964984639,-0.2566877928056127,-0.09450647010831241
11035,8.0,300.39729,3103.9511,0.0,0.0,0.0,-0.11190752042340232,0.0,0.0,-0.19070196733831882,-0.35174419933944967,-0.4010774721957646,-1.005800006387232,-0.25739382547529277,-0.09846664058715081
11036,8.0,300.41522000000003,3166.9624,0.0,0.0,0.0,-0.1119176615670746,0.0,0.0,-0.1977423026106458,-0.3848400886807596,-0.38009508912496465,-1.0211582130554688,-0.2838388931477177,-0.1019692749435839
11037,8.0,300.61416,3106.3818,0.0,0.0,0.0,-0.11192780271074684,0.0,0.0,-0.2216617937463158,-0.3293869372079597,-0.39321375975967665,-1.0095196475043322,-0.26492656989871677,-0.0996868926163303
11038,8.0,300.43952,3089.1151,0.0,0.0,0.0,-0.11193794385441912,0.0,0.0,-0.17101762857312583,-0.35575561595534566,-0.4122406207999816,-1.0112116029188152,-0.24227714723339278,-0.0969974552999035
11039,8.0,299.79211000000004,3122.0139,0.0,0.0,0.0,-0.11194808499809136,0.0,0.0,-0.2193868040917918,-0.3373722700535507,-0.39225520490007465,-0.997447238657878,-0.23292935777333776,-0.10429039787516091
11040,8.0,298.8453,3366.0347,0.0,0.0,0.0,-0.11195822614176364,0.0,0.0,-0.2088928565161198,-0.3639824974922757,-0.45031512464014256,-1.034653691137369,-0.24771321375489075,-0.07815562993986012
11041,8.0,299.73886,3294.7803,0.0,0.0,0.0,-0.11196836728543588,0.0,0.0,-0.2193673091598678,-0.37892817964729963,-0.40323544159623964,-1.025442437128289,-0.24450857726611777,-0.1034118289784529
11042,8.0,298.98507,2956.8036,0.0,0.0,0.0,-0.11197850842910816,0.0,0.0,-0.18306868823997283,-0.3275538563195487,-0.38817192858708666,-1.0269058742477188,-0.24348536691763478,-0.06332735307392315
11043,8.0,299.77075,2998.6485,0.0,0.0,0.0,-0.1119886495727804,0.0,0.0,-0.22923161299089878,-0.3057299183781937,-0.37655273637786163,-1.0150001855727189,-0.26378581240613275,-0.08796461842143191
11044,8.0,300.54233,3343.1533,0.0,0.0,0.0,-0.11199879071645268,0.0,0.0,-0.2451211072165698,-0.34971234917892163,-0.4214016783991076,-0.9909037201745831,-0.27173346248050473,-0.06952581430191364
11045,8.0,300.39474,3267.6543,0.0,0.0,0.0,-0.11200893186012494,0.0,0.0,-0.2586417544309538,-0.33074416545190766,-0.4038993838567656,-0.998139491126198,-0.24482532937987878,-0.1018915383959119
11046,8.0,300.42621,3225.506,0.0,0.0,0.0,-0.1120190730037972,0.0,0.0,-0.18114506332262584,-0.36862563501551765,-0.43070258477703555,-0.98335953615753,-0.2415095393551358,-0.0928217563922941
11047,8.0,300.40476,3172.9184,0.0,0.0,0.0,-0.11202921414746946,0.0,0.0,-0.19377533727663682,-0.3592854449312126,-0.41142718361970165,-1.0088480754705529,-0.24530657251487376,-0.08508447122418351
11048,8.0,300.59463999999997,3203.7567,0.0,0.0,0.0,-0.11203935529114172,0.0,0.0,-0.2017766186788018,-0.3517320606032517,-0.4203533495806456,-1.028348742390119,-0.27414748018124974,-0.07914148074390602
11049,8.0,299.67056,3333.8144,0.0,0.0,0.0,-0.11204949643481397,0.0,0.0,-0.2176138697293168,-0.3811438131109656,-0.41463866967915064,-1.023912024177249,-0.25654945376945976,-0.094221611054699
11050,8.0,300.17053,3121.4592,0.0,0.0,0.0,-0.11205963757848623,0.0,0.0,-0.20285638864786681,-0.34397281425247367,-0.40201644093093364,-1.032754252499909,-0.24872702114244577,-0.07354004673983752
11051,8.0,299.23263,2840.7891,0.0,0.0,0.0,-0.1120697787221585,0.0,0.0,-0.17421530403371183,-0.3351704674537497,-0.3541431702762096,-1.064467866054799,-0.23980187856410276,-0.10375927243774291
11052,8.0,299.30714,3154.7794,0.0,0.0,0.0,-0.11207991986583075,0.0,0.0,-0.19362324843662682,-0.3681851549320457,-0.3971657593897086,-1.020889499128949,-0.23734070420370376,-0.10300011506531989
11053,8.0,298.78233,3454.5199,0.0,0.0,0.0,-0.11209006100950301,0.0,0.0,-0.2524239147948008,-0.3481550547027287,-0.4495088207405666,-1.002863323887404,-0.2268506475084158,-0.08941694120051501
11054,8.0,299.49561,3382.6351,0.0,0.0,0.0,-0.11210020215317527,0.0,0.0,-0.2182382243084358,-0.3810026876370376,-0.42899569405607857,-0.973518354693781,-0.23935955436544876,-0.08832887271313102
11055,8.0,299.11826,3004.8667,0.0,0.0,0.0,-0.11211034329684753,0.0,0.0,-0.19076544745708382,-0.32622897101879267,-0.3964100166701226,-0.984340412916835,-0.27889702922999376,-0.06967725364860952
11056,8.0,299.92068,3116.1154,0.0,0.0,0.0,-0.11212048444051981,0.0,0.0,-0.2005372516864858,-0.3474792472835317,-0.3992047833609446,-0.9871213487437921,-0.28059477030254776,-0.11304543602671588
11057,8.0,300.97697,3407.3777,0.0,0.0,0.0,-0.11213062558419205,0.0,0.0,-0.25189724765782273,-0.3667931823421686,-0.41706729844633755,-0.9958884141740341,-0.26713871778203874,-0.08111275678695583
11058,8.0,300.19927,3284.8306,0.0,0.0,0.0,-0.11214076672786433,0.0,0.0,-0.20524542973364682,-0.36772941530206765,-0.4255316452767036,-1.0195832171000292,-0.2560034842180767,-0.11753017216182488
11059,8.0,300.4263,3139.2054,0.0,0.0,0.0,-0.11215090787153657,0.0,0.0,-0.18250405462174782,-0.3666682587373397,-0.4050677524145746,-1.042145054426709,-0.24477714933762376,-0.054714988642448954
11060,8.0,300.21799,3048.7955,0.0,0.0,0.0,-0.11216104901520885,0.0,0.0,-0.18335771783099783,-0.3378373315844487,-0.40556264402841663,-1.052542722977879,-0.2500854956840167,-0.09729742089925782
11061,8.0,300.03981,3177.5609999999997,0.0,0.0,0.0,-0.11217119015888112,0.0,0.0,-0.2109880145428958,-0.34272333502415964,-0.4121878406022726,-1.009898197741692,-0.24552499883893075,-0.07078141862708213
11062,8.0,299.96067,3343.1785,0.0,0.0,0.0,-0.11218133130255337,0.0,0.0,-0.2421231332181928,-0.36440623868409566,-0.4097134129305656,-0.996958781182171,-0.2586939773411078,-0.10792733751909891
11063,8.0,299.95489,3469.0258,0.0,0.0,0.0,-0.11219147244622563,0.0,0.0,-0.26252277589148076,-0.36947133407898164,-0.42250312178781163,-0.993761774466651,-0.2266814550067178,-0.08742101784878273
11064,8.0,299.93998,3194.0673,0.0,0.0,0.0,-0.11220161358989789,0.0,0.0,-0.19784235092551983,-0.3861213434322096,-0.38695298871678663,-1.016898509635069,-0.26584583091944075,-0.1241807405181849
11065,8.0,300.37008,3025.0785,0.0,0.0,0.0,-0.11221175473357015,0.0,0.0,-0.18075180069381383,-0.34772344055763166,-0.3910730764059076,-1.017177558712609,-0.24926309124035173,-0.08816283952524483
11066,8.0,299.2966,3121.9594,0.0,0.0,0.0,-0.11222189587724242,0.0,0.0,-0.1906456508977608,-0.33173520510971566,-0.42661684626630464,-1.036014384696659,-0.2714842029559047,-0.0928558552979094
11067,8.0,299.99719,3141.8472,0.0,0.0,0.0,-0.11223203702091467,0.0,0.0,-0.18136393547672683,-0.3595005984574467,-0.4141785629412416,-1.013719336121309,-0.2669477910656957,-0.07555909245885183
11068,8.0,299.86739,2974.3682,0.0,0.0,0.0,-0.11224217816458694,0.0,0.0,-0.17672001775090782,-0.3501275284073967,-0.3772861065352397,-1.0205641445218392,-0.27427556512639073,-0.100462958093172
11069,8.0,299.76546,3137.4124,0.0,0.0,0.0,-0.11225231930825919,0.0,0.0,-0.2122061640781178,-0.3707778390229236,-0.3707110253113296,-1.012479452371442,-0.25049992510741775,-0.1121526208336019
11070,8.0,300.33386,3321.2692,0.0,0.0,0.0,-0.11226246045193146,0.0,0.0,-0.2118872030791388,-0.37574320021046664,-0.42195249128596857,-1.009566145551421,-0.24798558551427177,-0.0994137082303691
11071,8.0,300.81467999999995,3306.4357,0.0,0.0,0.0,-0.11227260159560373,0.0,0.0,-0.20443591383125378,-0.38333311220453264,-0.4173048751972846,-1.00783763207333,-0.21559202034727581,-0.09387951451618673
11072,8.0,299.90533999999997,3301.3232,0.0,0.0,0.0,-0.11228274273927598,0.0,0.0,-0.1994050662897478,-0.36671401711185564,-0.4374007556230936,-1.044765319185309,-0.24621810243733475,-0.05682271097046495
11073,8.0,300.02713,3191.7126,0.0,0.0,0.0,-0.11229288388294825,0.0,0.0,-0.20745310918402782,-0.33886171730304765,-0.4238861169818026,-1.0216217749762189,-0.23930759490032077,-0.06668112579191474
11074,8.0,299.5632,3094.315,0.0,0.0,0.0,-0.1123030250266205,0.0,0.0,-0.19876076081615981,-0.33135489181718164,-0.4104788524536086,-1.025281836987439,-0.2835788222445507,-0.05603877659334665
11075,8.0,299.71102,3214.3451,0.0,0.0,0.0,-0.11231316617029277,0.0,0.0,-0.22952149371200778,-0.35365992090601667,-0.39389923358482765,-0.984914885193531,-0.25973822276166675,-0.09902346610010522
11076,8.0,299.60476,3305.9054,0.0,0.0,0.0,-0.11232330731396503,0.0,0.0,-0.2065500196348998,-0.37802858581101667,-0.4203340775637436,-1.0042830493975201,-0.2690504674082137,-0.08525637619639923
11077,8.0,299.81487999999996,3044.4775,0.0,0.0,0.0,-0.11233344845763729,0.0,0.0,-0.22346309911159076,-0.33355106074642665,-0.36843097953880666,-1.014907473188569,-0.2374779489297488,-0.0963368091419528
11078,8.0,299.03538,3061.9640000000004,0.0,0.0,0.0,-0.11234358960130955,0.0,0.0,-0.19437684306600084,-0.33565770902933667,-0.4007260567960826,-1.0291189137911292,-0.2546176924538097,-0.06373560471146443
11079,8.0,299.94505,3297.4214,0.0,0.0,0.0,-0.11235373074498181,0.0,0.0,-0.2293299590456048,-0.35754532973947667,-0.4154584700700586,-1.013404721965259,-0.24345640822977677,-0.08579229025378983
11080,8.0,301.24404,3409.1932,0.0,0.0,0.0,-0.11236387188865407,0.0,0.0,-0.2043839543661258,-0.38782710944555565,-0.44409853130161253,-0.983773509618386,-0.26823907699313576,-0.06625224235583724
11081,8.0,300.9478,3206.203,0.0,0.0,0.0,-0.11237401303232634,0.0,0.0,-0.2023070652386528,-0.38752210090045364,-0.38477648697198263,-1.015185002390959,-0.2661028823373097,-0.1017075119127499
11082,8.0,299.63432,3151.4452,0.0,0.0,0.0,-0.11238415417599859,0.0,0.0,-0.16918913770766786,-0.38000583192365567,-0.40876566944953063,-1.002018962314072,-0.26376099791118374,-0.093831033538652
11083,8.0,300.50225,3110.5776,0.0,0.0,0.0,-0.11239429531967086,0.0,0.0,-0.20225799353630983,-0.36937540969201466,-0.3739045160490026,-1.0384087960079689,-0.2512806039119648,-0.1045273058810419
11084,8.0,300.19092,3037.4208,0.0,0.0,0.0,-0.11240443646334311,0.0,0.0,-0.17416100396085282,-0.3407044443324107,-0.4084346406418606,-0.9978892386165001,-0.2347661167596118,-0.09504264659747891
11085,8.0,299.85191000000003,3142.3568,0.0,0.0,0.0,-0.11241457760701538,0.0,0.0,-0.1957108374851558,-0.35882212619048665,-0.4006650490075616,-1.043407057426259,-0.23354416753651477,-0.10097708828666271
11086,8.0,300.492,3023.1351,0.0,0.0,0.0,-0.11242471875068764,0.0,0.0,-0.18102931976370285,-0.32322485672480966,-0.4147034264930416,-1.020382063478869,-0.26197335115725673,-0.07869155818275213
11087,8.0,299.60405,2978.5143,0.0,0.0,0.0,-0.1124348598943599,0.0,0.0,-0.16978375339635182,-0.3598714175965436,-0.3757388027050326,-1.018603809553369,-0.2687610223846478,-0.12441172101098087
11088,8.0,299.86722000000003,3311.2058,0.0,0.0,0.0,-0.11244500103803216,0.0,0.0,-0.2214895918918208,-0.34765126675300867,-0.4373830136138426,-1.000103311675012,-0.29132165394370874,-0.08875659901759432
11089,8.0,299.59497000000005,3421.7751,0.0,0.0,0.0,-0.11245514218170442,0.0,0.0,-0.27033191467718276,-0.3627401920746697,-0.40706207179139864,-1.0150723289798391,-0.27048739790502774,-0.09366187852720773
11090,8.0,299.52623,2998.1116,0.0,0.0,0.0,-0.11246528332537668,0.0,0.0,-0.2056448934530708,-0.3220833494271517,-0.38362282067312464,-1.015154402237939,-0.2571886220650408,-0.051699570530350354
11091,8.0,299.67336,2927.4816,0.0,0.0,0.0,-0.11247542446904896,0.0,0.0,-0.18419415578854784,-0.3316766797839397,-0.37401048174446067,-1.0096353100032471,-0.24258947144421675,-0.08055045263071073
11092,8.0,300.42474,3228.994,0.0,0.0,0.0,-0.1124855656127212,0.0,0.0,-0.1957790190843848,-0.36578832195299665,-0.41996621711493864,-0.994423609166969,-0.24936120424753475,-0.06662120015450053
11093,8.0,299.16347,3307.2871,0.0,0.0,0.0,-0.11249570675639348,0.0,0.0,-0.21606635311658878,-0.36145699188302766,-0.42780934030899465,-0.9970372067399111,-0.24900099383698476,-0.07893143501142612
11094,8.0,300.26392999999996,3302.2727,0.0,0.0,0.0,-0.11250584790006572,0.0,0.0,-0.23229441473067378,-0.3545184274507447,-0.41699558060425956,-1.012826713445714,-0.2693100316863307,-0.1011723810976866
11095,8.0,300.43613,3197.7751,0.0,0.0,0.0,-0.112515989043738,0.0,0.0,-0.23096550682702077,-0.36208070811458365,-0.37899757714664867,-1.0238596391470791,-0.2617037151731458,-0.08914802563722511
11096,8.0,300.8663,2990.8079,0.0,0.0,0.0,-0.11252613018741026,0.0,0.0,-0.17483739906510784,-0.3437950395224287,-0.39049846227419766,-1.0318527638859392,-0.25331873622311274,-0.10568572432286891
11097,8.0,300.52574,3110.6571,0.0,0.0,0.0,-0.11253627133108252,0.0,0.0,-0.19102054330225984,-0.34885151215896365,-0.4056900196984876,-1.012538291804749,-0.24726393866055077,-0.0965844586121439
11098,8.0,299.29989,3281.5903,0.0,0.0,0.0,-0.11254641247475478,0.0,0.0,-0.18318928526687484,-0.3685807075060837,-0.4457515171172496,-1.002176228862093,-0.26048716657308174,-0.1016553194000989
11099,8.0,299.88746000000003,3038.9073,0.0,0.0,0.0,-0.11255655361842704,0.0,0.0,-0.15700051920724487,-0.3563458544035977,-0.41040556407387563,-0.9818497833760291,-0.27878656470409174,-0.10175768805770191
11100,8.0,300.36529,2833.2816,0.0,0.0,0.0,-0.11256669476209928,0.0,0.0,-0.14628223805943286,-0.3582921355931806,-0.35667247557333265,-0.9872991944013441,-0.29063446772588875,-0.1115468087313129
11101,8.0,298.55489,3106.2556,0.0,0.0,0.0,-0.11257683590577157,0.0,0.0,-0.2220858186481638,-0.35252093660110767,-0.36961737381589466,-0.9910794380069251,-0.25197145809514676,-0.0985858910046699
11102,8.0,298.37864,3446.1127,0.0,0.0,0.0,-0.11258697704944381,0.0,0.0,-0.2566136634282967,-0.34734415064769864,-0.4435744074223855,-1.023593762320839,-0.27045927008225173,-0.06663380802549485
11103,8.0,299.5225,3262.8281,0.0,0.0,0.0,-0.11259711819311609,0.0,0.0,-0.21208046027071178,-0.3683671042525027,-0.4113707151916286,-1.005021627660412,-0.2305821335191848,-0.0995898060314986
11104,8.0,298.95377,3100.88,0.0,0.0,0.0,-0.11260725933678833,0.0,0.0,-0.17751784074714683,-0.3473045427012897,-0.4177676974454616,-1.026415359874309,-0.24415764822648378,-0.06255202422990414
11105,8.0,299.68246,3325.2194,0.0,0.0,0.0,-0.11261740048046061,0.0,0.0,-0.2106477651593158,-0.3706577182235687,-0.4294781733561956,-1.001774758907471,-0.23469046750714576,-0.11278831368133989
11106,8.0,298.89167000000003,3231.8059,0.0,0.0,0.0,-0.11262754162413287,0.0,0.0,-0.22611944570625178,-0.3335064270795217,-0.4227624327534036,-1.0258497636684891,-0.26968161076300273,-0.038390037014051664
11107,8.0,300.27139,3216.2901,0.0,0.0,0.0,-0.11263768276780513,0.0,0.0,-0.22562678324262977,-0.3509859032296117,-0.4010592032964616,-0.9912447092307362,-0.27622997258177573,-0.11526133293540788
11108,8.0,300.34082,3295.2096,0.0,0.0,0.0,-0.11264782391147739,0.0,0.0,-0.2245464255885068,-0.3551251920081277,-0.4219898092871516,-1.011587184333382,-0.28389810748356176,-0.03865822607701987
11109,8.0,300.05003999999997,2983.8037,0.0,0.0,0.0,-0.11265796505514965,0.0,0.0,-0.1975032971770578,-0.3274911868008637,-0.38200734537618963,-1.002916418192644,-0.2674080801886227,-0.0892411473744155
11110,8.0,299.77167000000003,3142.3024,0.0,0.0,0.0,-0.11266810619882191,0.0,0.0,-0.15423494425180384,-0.37921428094553566,-0.42173223097923057,-1.0161429290354989,-0.25657813887979075,-0.05715116105663044
11111,8.0,300.61092,3502.551,0.0,0.0,0.0,-0.11267824734249418,0.0,0.0,-0.22715505823595877,-0.3927906974454236,-0.4447422794876456,-1.0190220791946492,-0.23914038836881876,-0.1033294922753269
11112,8.0,299.44909,3318.8905,0.0,0.0,0.0,-0.11268838848616643,0.0,0.0,-0.1957152755205938,-0.3786967026619546,-0.4344478509891646,-1.0071307178760631,-0.24067062906734177,-0.09563349198254081
11113,8.0,299.695,2900.3914,0.0,0.0,0.0,-0.1126985296298387,0.0,0.0,-0.18348541774110083,-0.35582193317439065,-0.34233922204375067,-1.0263631774941588,-0.25949810275296875,-0.11840972391112989
11114,8.0,299.29618,2956.9865,0.0,0.0,0.0,-0.11270867077351095,0.0,0.0,-0.18114050369717583,-0.3325027116629627,-0.38520685481945666,-1.028205772801009,-0.27120205333305875,-0.0903440589625144
11115,8.0,299.1647,3057.2931,0.0,0.0,0.0,-0.11271881191718322,0.0,0.0,-0.2157628036516308,-0.36724190014895364,-0.3463360478582067,-1.00839552757839,-0.2822757826159507,-0.09989021644764681
11116,8.0,299.38086,2939.6135,0.0,0.0,0.0,-0.1127289530608555,0.0,0.0,-0.14220377468441986,-0.35685639059898366,-0.3945089163024986,-1.017316171326289,-0.24114923775207675,-0.10792007251588188
11117,8.0,299.1405,3109.4978,0.0,0.0,0.0,-0.11273909420452774,0.0,0.0,-0.1963743947106438,-0.3536717657996857,-0.39516353666210463,-1.017608899280179,-0.22708311747885881,-0.08628727204689073
11118,8.0,299.05997,3234.9972,0.0,0.0,0.0,-0.11274923534820001,0.0,0.0,-0.2113142608100938,-0.34573128953602167,-0.4263128307063006,-1.0450060674090689,-0.25833914728858876,-0.07175790092070343
11119,8.0,299.6314,3188.8267,0.0,0.0,0.0,-0.11275937649187226,0.0,0.0,-0.2247258721812168,-0.3509103654346567,-0.39368744404892564,-1.0304257024450991,-0.2724709261682867,-0.08051062480903001
11120,8.0,300.71393,3368.8268,0.0,0.0,0.0,-0.11276951763554453,0.0,0.0,-0.22491513716739578,-0.3759619305095536,-0.42316215991785355,-1.0102630691027021,-0.28547726789691275,-0.07171218915569202
11121,8.0,299.39376,3577.1447,0.0,0.0,0.0,-0.1127796587792168,0.0,0.0,-0.26188888662892074,-0.3881166051316266,-0.43735717573629257,-0.986695712774285,-0.27503307090115076,-0.07904636189076852
11122,8.0,300.06388,3339.6729,0.0,0.0,0.0,-0.11278979992288905,0.0,0.0,-0.21629998832464678,-0.3645372823195287,-0.4343398891910096,-0.9911669321530601,-0.2500842493863938,-0.06784534813031454
11123,8.0,300.2035,3059.8468,0.0,0.0,0.0,-0.11279994106656131,0.0,0.0,-0.17060705963260583,-0.37231557777218666,-0.38719438542061063,-0.994752033921882,-0.2504804909704998,-0.12066306041101688
11124,8.0,300.20435,3034.7982,0.0,0.0,0.0,-0.11281008221023356,0.0,0.0,-0.18763335967547082,-0.3277927705606277,-0.4070767335203456,-0.9973908107598091,-0.22020119372716582,-0.08217948318748353
11125,8.0,300.12784,3187.9309999999996,0.0,0.0,0.0,-0.11282022335390583,0.0,0.0,-0.19489240498188282,-0.3705281134032776,-0.4036309029777686,-1.024705399005549,-0.23379955722421977,-0.08917197582983882
11126,8.0,299.60541,3136.9874,0.0,0.0,0.0,-0.1128303644975781,0.0,0.0,-0.23179691906407476,-0.3441390277988777,-0.37762988202916764,-1.0100434167460242,-0.24758451072718876,-0.08452745116720992
11127,8.0,298.58486,3297.9654,0.0,0.0,0.0,-0.11284050564125035,0.0,0.0,-0.22823369336491178,-0.35207831855992466,-0.4221871296116256,-1.036600144579469,-0.27176850066896274,-0.06994282953956985
11128,8.0,299.54143,3360.6093,0.0,0.0,0.0,-0.11285064678492263,0.0,0.0,-0.2106781018673098,-0.3958176402641596,-0.4150455807868096,-0.9917462376327331,-0.24572128564830278,-0.1084329999815039
11129,8.0,299.47049,3177.6401,0.0,0.0,0.0,-0.11286078792859487,0.0,0.0,-0.16260458259532284,-0.36338075865538866,-0.4399379034759906,-1.009115897736985,-0.2616017822130857,-0.07867250604112182
11130,8.0,300.14198999999996,3333.0409,0.0,0.0,0.0,-0.11287092907226715,0.0,0.0,-0.2030457549590558,-0.3763961385749066,-0.4337193039022626,-1.00473891061751,-0.23918323871554775,-0.1160043391012369
11131,8.0,300.31751,3207.6757,0.0,0.0,0.0,-0.1128810702159394,0.0,0.0,-0.20371582738268681,-0.35971748464135167,-0.41162001524623265,-1.009196765227466,-0.2651740562356417,-0.06911477420009714
11132,8.0,300.27378999999996,2827.0492,0.0,0.0,0.0,-0.11289121135961167,0.0,0.0,-0.16007521650319387,-0.3436053287062057,-0.35567182017207566,-1.0151478161122889,-0.2725584101819208,-0.13672641822134687
11133,8.0,300.44782000000004,2920.1551,0.0,0.0,0.0,-0.11290135250328392,0.0,0.0,-0.18718829970154682,-0.35845043565630363,-0.34201550890180266,-0.994360341830725,-0.27101635498723176,-0.08383313369518612
11134,8.0,300.67259,3208.9515,0.0,0.0,0.0,-0.11291149364695618,0.0,0.0,-0.2026786747128278,-0.37218124107392864,-0.4005812025617866,-1.010351637293943,-0.2779031322069037,-0.12806503477653486
11135,8.0,301.0101,3085.6953,0.0,0.0,0.0,-0.11292163479062844,0.0,0.0,-0.2093372477449778,-0.3159241668392877,-0.41271290680409256,-0.9995021301256801,-0.2524191525193308,-0.08521185297375511
11136,8.0,300.41508999999996,2888.3191,0.0,0.0,0.0,-0.11293177593430072,0.0,0.0,-0.14495601526854485,-0.3471742792684337,-0.3858465905350936,-1.035380596759109,-0.2468784881900098,-0.11785467563885088
11137,8.0,299.55872999999997,3125.8572,0.0,0.0,0.0,-0.11294191707797296,0.0,0.0,-0.21970240110043882,-0.3056488178401897,-0.42483133747008855,-1.020419351082549,-0.24171071002998976,-0.04179879070896946
11138,8.0,298.82305,3475.1525,0.0,0.0,0.0,-0.11295205822164524,0.0,0.0,-0.2532982584385918,-0.36187835193711265,-0.44118298519887056,-1.016203825366509,-0.2439755773160148,-0.07335614184668753
11139,8.0,299.79204,3533.9767,0.0,0.0,0.0,-0.11296219936531748,0.0,0.0,-0.2808699487647057,-0.3621547057693867,-0.4312160188677076,-0.9776961672410991,-0.27156938689181176,-0.05566685199839055
11140,8.0,300.07242,3392.137,0.0,0.0,0.0,-0.11297234050898976,0.0,0.0,-0.2337805385198428,-0.3509427286428507,-0.4464016893089166,-1.016639826884539,-0.29272121577683474,-0.08021926068977463
11141,8.0,300.16765,3095.9217,0.0,0.0,0.0,-0.11298248165266202,0.0,0.0,-0.20380874241685681,-0.35264901141374766,-0.3846251479370466,-0.993929112720666,-0.28528428428286673,-0.07569755713801722
11142,8.0,299.75636000000003,3108.196,0.0,0.0,0.0,-0.11299262279633428,0.0,0.0,-0.18783597929796783,-0.3518548867803737,-0.4051231062675376,-1.011078623975691,-0.24525039792932976,-0.08999843530040401
11143,8.0,299.75314,3646.7373,0.0,0.0,0.0,-0.11300276394000654,0.0,0.0,-0.27716145339870574,-0.3896551848784726,-0.4417004317599386,-1.0126625263995102,-0.24375539806928476,-0.07337102851715673
11144,8.0,300.04579,3338.2948,0.0,0.0,0.0,-0.1130129050836788,0.0,0.0,-0.20358356784713383,-0.39337957813854163,-0.41779510586066665,-1.0160778783790791,-0.24779178116764478,-0.1020188938009809
11145,8.0,301.2987,2916.8897,0.0,0.0,0.0,-0.11302304622735106,0.0,0.0,-0.16875137313446384,-0.35337153979505564,-0.3645387312671717,-1.014414020389869,-0.2507089991330517,-0.07214190548335173
11146,8.0,300.59949,3139.3979,0.0,0.0,0.0,-0.11303318737102332,0.0,0.0,-0.17216551934641383,-0.38684569566369764,-0.3952873558243246,-0.9841783131658371,-0.2641462862617088,-0.12355321446625288
11147,8.0,299.39769,3413.9839,0.0,0.0,0.0,-0.11304332851469558,0.0,0.0,-0.24630419829833178,-0.36876604108187466,-0.4226956291743106,-0.9866870798834331,-0.26167682351549176,-0.07971479791548802
11148,8.0,300.78287,3270.2495,0.0,0.0,0.0,-0.11305346965836785,0.0,0.0,-0.18642459283617482,-0.39374334505694264,-0.4139062418443656,-1.0162406063451392,-0.2604290566798467,-0.13359099684690487
11149,8.0,299.60982,2935.5664,0.0,0.0,0.0,-0.1130636108020401,0.0,0.0,-0.17390313181040282,-0.3355124596275017,-0.3829232930690866,-1.030354673613089,-0.2474589386422958,-0.05514506771364445
11150,8.0,299.90945,3018.196,0.0,0.0,0.0,-0.11307375194571237,0.0,0.0,-0.16113414391770184,-0.36359479760651264,-0.39272728825416564,-1.051303822080609,-0.24175265858412978,-0.11217810407361689
11151,8.0,299.88189,3203.3987,0.0,0.0,0.0,-0.11308389308938462,0.0,0.0,-0.2280238796667048,-0.3480041412328347,-0.3977251950349206,-1.026895235121669,-0.2600643170413498,-0.05573381060474885
11152,8.0,299.13901,3428.4429999999998,0.0,0.0,0.0,-0.11309403423305689,0.0,0.0,-0.21657867263215078,-0.39264372551841864,-0.4329386656277196,-1.018378361406119,-0.27868032543110677,-0.12546955411538088
11153,8.0,299.01509,3511.6635,0.0,0.0,0.0,-0.11310417537672914,0.0,0.0,-0.27892381956263773,-0.3587650498123537,-0.42976912812241064,-0.9957762777854671,-0.27515087135777677,-0.039561747270690464
11154,8.0,299.78455,3239.2442,0.0,0.0,0.0,-0.11311431652040141,0.0,0.0,-0.2136723065753148,-0.37800835120651965,-0.3929687052229916,-0.990307787260769,-0.25923074658158274,-0.10720418092272889
11155,8.0,298.4536,3082.6981,0.0,0.0,0.0,-0.11312445766407365,0.0,0.0,-0.21281919052111878,-0.34455309245224264,-0.3796909847200826,-1.0161435369855591,-0.25242314472472477,-0.052549198977702154
11156,8.0,300.27371,3170.3583,0.0,0.0,0.0,-0.11313459880774593,0.0,0.0,-0.21137056711815078,-0.3534243098602637,-0.39891488237483363,-1.001509976391339,-0.24356354929535076,-0.07210821998377723
11157,8.0,300.48436,3167.4566,0.0,0.0,0.0,-0.11314473995141817,0.0,0.0,-0.18239377248086383,-0.35325263489582065,-0.42718130763201256,-1.0284373004488592,-0.23862461367041576,-0.04376375319064616
11158,8.0,299.62501000000003,2967.1123,0.0,0.0,0.0,-0.11315488109509045,0.0,0.0,-0.16988038705838884,-0.3337786164538847,-0.3982690468935946,-1.022544845817319,-0.23769598008626674,-0.0989213770995298
11159,8.0,300.08709,3360.0269,0.0,0.0,0.0,-0.11316502223876271,0.0,0.0,-0.2192948415127158,-0.37299990662472465,-0.4290695397233666,-1.046297353336509,-0.2775827729227867,-0.09272515211451
11160,8.0,300.32543,3586.28,0.0,0.0,0.0,-0.11317516338243497,0.0,0.0,-0.25404560131484877,-0.40317895290316463,-0.4329150163703856,-1.005211196621621,-0.2702104057251907,-0.13082426678634987
11161,8.0,299.66254,3361.5418,0.0,0.0,0.0,-0.11318530452610723,0.0,0.0,-0.2203400596533708,-0.3747052876030326,-0.42677943237735055,-1.0097945929189671,-0.27157684441254776,-0.09984137677957672
11162,8.0,300.12662,3277.7014,0.0,0.0,0.0,-0.11319544566977949,0.0,0.0,-0.20499604861903478,-0.3954636714742256,-0.39587968156778264,-1.020196030760509,-0.24906457528075976,-0.1150967405891639
11163,8.0,299.3394,3169.7809,0.0,0.0,0.0,-0.11320558681345175,0.0,0.0,-0.17798785707103382,-0.36899649468461865,-0.41654988228277257,-1.019032819645709,-0.25679101259329973,-0.06638084608502945
11164,8.0,299.00981,2775.3485,0.0,0.0,0.0,-0.11321572795712401,0.0,0.0,-0.12581538650701188,-0.3305746284451757,-0.38724662859576664,-0.9987823476521431,-0.24886805542386478,-0.1090765860475209
11165,8.0,299.33992,3038.3138,0.0,0.0,0.0,-0.11322586910079627,0.0,0.0,-0.17329419889780584,-0.3554397656341736,-0.3948375437074316,-1.004620937908367,-0.23998097051927778,-0.07548665520920284
11166,8.0,300.05147,3350.6692,0.0,0.0,0.0,-0.11323601024446854,0.0,0.0,-0.1969169901391938,-0.3942236256043426,-0.42737916497903966,-1.022083411721779,-0.2625542677045888,-0.11870676831044588
11167,8.0,300.00864,3175.1074,0.0,0.0,0.0,-0.11324615138814079,0.0,0.0,-0.23278116994621276,-0.36426096901725863,-0.3681112383372507,-1.031539770930049,-0.28092417791005775,-0.07682631065666652
11168,8.0,300.70577000000003,3312.1255,0.0,0.0,0.0,-0.11325629253181306,0.0,0.0,-0.2047043136502428,-0.3879964741997706,-0.4141026806412526,-1.033153878339349,-0.28041784670258674,-0.11866632949895489
11169,8.0,299.97362999999996,3544.7638,0.0,0.0,0.0,-0.1132664336754853,0.0,0.0,-0.25847075834407773,-0.35924151040687663,-0.45980741369695854,-1.0020635554509731,-0.2754051363378707,-0.044906245367401364
11170,8.0,301.31441,3363.0968,0.0,0.0,0.0,-0.11327657481915758,0.0,0.0,-0.21005746591605778,-0.35536927382471667,-0.4568707109321286,-1.023844744370609,-0.26344252327225276,-0.08164808315928843
11171,8.0,301.34174,3102.086,0.0,0.0,0.0,-0.11328671596282984,0.0,0.0,-0.2010613958307148,-0.33047548192289067,-0.41141979702647263,-1.036097775179889,-0.2608997822788037,-0.06273857978531573
11172,8.0,299.84132,3222.1844,0.0,0.0,0.0,-0.1132968571065021,0.0,0.0,-0.2260051308299698,-0.3579754341419247,-0.39548302455113565,-1.029257729054829,-0.26444636027882373,-0.08449019902728341
11173,8.0,300.15725,3300.265,0.0,0.0,0.0,-0.11330699825017436,0.0,0.0,-0.24612575482322074,-0.36878311434605965,-0.38828929334616963,-1.017771525921229,-0.22791424600588478,-0.07661842821315012
11174,8.0,299.68815,3096.8915,0.0,0.0,0.0,-0.11331713939384662,0.0,0.0,-0.18533516659365684,-0.35514154586474167,-0.40090096402834463,-1.026335414441419,-0.2592247380084898,-0.07996437661386953
11175,8.0,299.78702999999996,3210.6956,0.0,0.0,0.0,-0.11332728053751888,0.0,0.0,-0.17898780319722082,-0.3869787961968336,-0.4100046818043116,-1.022699569107589,-0.24856106090856675,-0.08271692319952473
11176,8.0,299.93764,3186.8989,0.0,0.0,0.0,-0.11333742168119115,0.0,0.0,-0.16486778815118386,-0.3601943606684157,-0.44367553991486663,-1.0295301920067188,-0.25718316064700175,-0.07583431246426392
11177,8.0,299.58404,3071.8758,0.0,0.0,0.0,-0.1133475628248634,0.0,0.0,-0.15409586554307786,-0.3779824525339637,-0.4016952305167326,-0.982780210412855,-0.23602758273660876,-0.1193860815749889
11178,8.0,300.00043999999997,3248.9622,0.0,0.0,0.0,-0.11335770396853567,0.0,0.0,-0.1973884655432248,-0.36921605584878764,-0.4209988608218526,-1.029980480351159,-0.26059902938412177,-0.10176296709072291
11179,8.0,301.37692999999996,3277.5698,0.0,0.0,0.0,-0.11336784511220792,0.0,0.0,-0.23623417429949775,-0.37455470850567163,-0.3855104954769236,-1.0201984625607492,-0.27157582102994676,-0.11935758898217688
11180,8.0,301.02749,2919.0337,0.0,0.0,0.0,-0.11337798625588019,0.0,0.0,-0.17930794969881683,-0.3352142094605667,-0.37279119736912664,-1.047168545772489,-0.2860459747805397,-0.10800207484647491
11181,8.0,300.96117999999996,3008.3943,0.0,0.0,0.0,-0.11338812739955247,0.0,0.0,-0.2113033582390178,-0.3351616521778797,-0.3680117371774307,-1.023285025015369,-0.2505530396776598,-0.09794234952165731
11182,8.0,300.99244,3395.6146,0.0,0.0,0.0,-0.11339826854322471,0.0,0.0,-0.21353139388390782,-0.36909370589921264,-0.4495569399878156,-1.040041952519149,-0.2655317436534428,-0.06655014497798795
11183,8.0,300.50322,3466.9912,0.0,0.0,0.0,-0.11340840968689699,0.0,0.0,-0.23352706387482677,-0.3875117353519306,-0.43283996493547855,-1.036872607531359,-0.25021884952967777,-0.09254060988704711
11184,8.0,300.62773,3409.4905,0.0,0.0,0.0,-0.11341855083056923,0.0,0.0,-0.22506384175207178,-0.36880351107057263,-0.4425326140670686,-1.014708977493979,-0.24055402424583378,-0.08563178738494942
11185,8.0,299.95648,3309.4179,0.0,0.0,0.0,-0.11342869197424149,0.0,0.0,-0.22518496566902577,-0.37089445397693266,-0.4099009756565766,-1.006660083469615,-0.23111049278382975,-0.08122766644104651
11186,8.0,299.24367,3166.2744,0.0,0.0,0.0,-0.11343883311791376,0.0,0.0,-0.2011733802317668,-0.34407449390000866,-0.4172204917289566,-0.9972116580096281,-0.2711145997169277,-0.07325277817748634
11187,8.0,299.61391000000003,3067.4888,0.0,0.0,0.0,-0.11344897426158601,0.0,0.0,-0.19440523433380283,-0.3358814143864147,-0.40215337154944764,-1.036206395590609,-0.28250896186146374,-0.06981204934916284
11188,8.0,300.28664,3301.2093,0.0,0.0,0.0,-0.11345911540525828,0.0,0.0,-0.19919373271639082,-0.3747291699078897,-0.42956230351199853,-1.011530401797778,-0.27594084166574073,-0.05738526843923504
11189,8.0,299.79663,3162.5698,0.0,0.0,0.0,-0.11346925654893053,0.0,0.0,-0.1962442832653028,-0.32534521428157265,-0.43975275228521765,-1.038547408621649,-0.24571154831484177,-0.08219838739459921
11190,8.0,299.38161,3174.7233,0.0,0.0,0.0,-0.1134793976926028,0.0,0.0,-0.1993605440803538,-0.3676385166355966,-0.3980375597757486,-1.039535023494119,-0.2674058713034047,-0.07811712238305972
11191,8.0,300.62408,3530.5437,0.0,0.0,0.0,-0.11348953883627508,0.0,0.0,-0.2744453858431507,-0.38204401489730866,-0.4167077162508496,-1.051924336441849,-0.28496145266850575,-0.12071321629096689
11192,8.0,300.46247,3494.8335,0.0,0.0,0.0,-0.11349967997994732,0.0,0.0,-0.26511672654498375,-0.3649972978649287,-0.4322280935975916,-1.013587714933319,-0.27133780858145673,-0.09257606553454632
11193,8.0,300.70209,3113.4479,0.0,0.0,0.0,-0.1135098211236196,0.0,0.0,-0.2008446413693228,-0.39185425170300364,-0.35371153586611065,-1.010727664538554,-0.24399374489030776,-0.13053495348529687
11194,8.0,300.85617,2957.5736,0.0,0.0,0.0,-0.11351996226729184,0.0,0.0,-0.16035639340594385,-0.3274941961536607,-0.4111779240951016,-1.016425423163379,-0.25663648182054877,-0.07016709015770263
11195,8.0,300.26801,3157.0465,0.0,0.0,0.0,-0.11353010341096412,0.0,0.0,-0.18442059692089582,-0.37245821298876364,-0.40278448450673365,-1.021678111681779,-0.26143975338959474,-0.1110013559374809
11196,8.0,300.39752000000004,3155.0181,0.0,0.0,0.0,-0.11354024455463638,0.0,0.0,-0.17381337811654485,-0.37623708870670963,-0.40899625477478757,-1.010313772137706,-0.25034235458436677,-0.09092094784069892
11197,8.0,300.04766,3147.119,0.0,0.0,0.0,-0.11355038569830864,0.0,0.0,-0.1810757266182828,-0.3754219796637646,-0.40014789628902264,-1.0213525544246491,-0.2362330495918868,-0.1044414228025659
11198,8.0,299.71831000000003,3164.4974,0.0,0.0,0.0,-0.1135605268419809,0.0,0.0,-0.19717751700490582,-0.3525648711254437,-0.4121858141020726,-1.019522016793989,-0.26911862874244075,-0.06723675566975114
11199,8.0,299.38993999999997,3245.8384,0.0,0.0,0.0,-0.11357066798565316,0.0,0.0,-0.22947155061457877,-0.3585841340069987,-0.3985981505260746,-1.0435068625611088,-0.27491976927496875,-0.07556516689320134
11200,8.0,300.04637,3458.8756,0.0,0.0,0.0,-0.11358080912932542,0.0,0.0,-0.2276959615368418,-0.38027534631775467,-0.4434405266866726,-1.017414456585989,-0.26014132404894974,-0.06985210008586552
11201,8.0,299.10747000000003,3560.4141,0.0,0.0,0.0,-0.11359095027299769,0.0,0.0,-0.24978234138659774,-0.3938813598530636,-0.4386132816202606,-1.026423972500159,-0.24829681541498774,-0.06998662018239163
11202,8.0,299.93317,3478.8631,0.0,0.0,0.0,-0.11360109141666994,0.0,0.0,-0.24193058530168976,-0.37047124980766566,-0.44508568007903654,-1.0268056638128291,-0.2581203460619948,-0.07094438369366553
11203,8.0,299.30161,3144.0545,0.0,0.0,0.0,-0.11361123256034221,0.0,0.0,-0.23557159992660676,-0.34567534799800065,-0.3744671029020257,-1.056009355545009,-0.27359378966410475,-0.09175744659325491
11204,8.0,299.8062,3191.8186,0.0,0.0,0.0,-0.11362137370401446,0.0,0.0,-0.22356283331893378,-0.35490554978395067,-0.3917647918516746,-1.019894994155799,-0.2680399632159848,-0.08401192268858121
11205,8.0,300.49215,3205.8028,0.0,0.0,0.0,-0.11363151484768673,0.0,0.0,-0.2449038056001238,-0.33061477341413764,-0.39896543342232266,-0.998480348459838,-0.24091585585654376,-0.08590768829442873
11206,8.0,300.8247,3152.722,0.0,0.0,0.0,-0.11364165599135899,0.0,0.0,-0.16832306218469284,-0.3595583233156437,-0.4304673688988216,-0.9843815306058932,-0.26822806296454876,-0.07837700786145843
11207,8.0,301.1566,3108.6465,0.0,0.0,0.0,-0.11365179713503125,0.0,0.0,-0.18316545362452283,-0.35614205941098465,-0.4056433797963846,-0.994514720615961,-0.26453761358282973,-0.09671751253577532
11208,8.0,301.52053,3205.3577,0.0,0.0,0.0,-0.11366193827870351,0.0,0.0,-0.16977004412249885,-0.37700704732519863,-0.42757161157053253,-1.036295865574439,-0.25170619935146776,-0.0855587695429931
11209,8.0,300.97684,3219.4306,0.0,0.0,0.0,-0.11367207942237577,0.0,0.0,-0.18747599180243982,-0.4082039033290886,-0.38294660795388763,-1.0078117739307781,-0.22843859280013376,-0.1136457867109659
11210,8.0,300.50322,3301.1439,0.0,0.0,0.0,-0.11368222056604803,0.0,0.0,-0.21175338313843178,-0.37394281690278264,-0.41776912612810263,-1.0619020128265688,-0.2431153786436198,-0.06780438242877153
11211,8.0,299.6664,3440.1697,0.0,0.0,0.0,-0.1136923617097203,0.0,0.0,-0.2284690004356348,-0.4114323917252156,-0.4058243057342406,-1.044186550728189,-0.2418513491438698,-0.11505042492709289
11212,8.0,299.97058,3154.7804,0.0,0.0,0.0,-0.11370250285339255,0.0,0.0,-0.18953233221788482,-0.36082765211341666,-0.4086144621371076,-1.0420287333152292,-0.27306617007203277,-0.09053609822746722
11213,8.0,299.29042000000004,3013.8093,0.0,0.0,0.0,-0.11371264399706482,0.0,0.0,-0.16695404984208184,-0.35876110826946467,-0.39040761427023163,-1.009510457325925,-0.2633714032477337,-0.11627166487511989
11214,8.0,299.76956,3283.3882,0.0,0.0,0.0,-0.11372278514073707,0.0,0.0,-0.24980380202371574,-0.35332402849786665,-0.39494017581006063,-1.0090091619714512,-0.2651409938848788,-0.08365081859144302
11215,8.0,299.57582,3357.4941,0.0,0.0,0.0,-0.11373292628440934,0.0,0.0,-0.2543815849155078,-0.36282039082008466,-0.4033923940367296,-1.00862908172644,-0.2693363255264258,-0.08598668735172532
11216,8.0,300.70641,3167.1803,0.0,0.0,0.0,-0.1137430674280816,0.0,0.0,-0.22929892319504178,-0.35819899764398866,-0.3752458160013787,-1.000938665454955,-0.2262320785873678,-0.08851694409069222
11217,8.0,301.1059,3181.2317,0.0,0.0,0.0,-0.11375320857175386,0.0,0.0,-0.1876331164954468,-0.3555108349961877,-0.4238710499528156,-1.0064770094415472,-0.24636087950892577,-0.08526098141810373
11218,8.0,300.69676,3417.5081,0.0,0.0,0.0,-0.11376334971542612,0.0,0.0,-0.2152733734558278,-0.36470018253810566,-0.45886356109630755,-1.012492563827736,-0.26390350140524776,-0.06142198591012804
11219,8.0,298.74602999999996,3409.1346,0.0,0.0,0.0,-0.11377349085909838,0.0,0.0,-0.22375178419758182,-0.37591839115275666,-0.43662162709119956,-1.033675398165819,-0.28951416775282374,-0.07401356789582043
11220,8.0,299.14794,3387.5749,0.0,0.0,0.0,-0.11378363200277064,0.0,0.0,-0.2205716379637258,-0.37967519828352464,-0.4294913456074956,-1.046366456993329,-0.2806873104341807,-0.05693955795874685
11221,8.0,299.53907000000004,3133.7554,0.0,0.0,0.0,-0.11379377314644291,0.0,0.0,-0.2267442866454188,-0.3341467302152147,-0.3916923748670276,-1.025670114425759,-0.2453440121060688,-0.08727804420667232
11222,8.0,300.13135,3052.7249,0.0,0.0,0.0,-0.11380391429011516,0.0,0.0,-0.18219792136903482,-0.36276126767674965,-0.38299294388096067,-1.047846004789349,-0.24526414773318675,-0.08083412010220652
11223,8.0,299.05169,3218.1636,0.0,0.0,0.0,-0.11381405543378743,0.0,0.0,-0.2135316167989298,-0.33734306818566867,-0.42736669187030857,-1.0040281663348651,-0.2523110184686587,-0.09549683696805401
11224,8.0,299.60081,3437.6211,0.0,0.0,0.0,-0.11382419657745968,0.0,0.0,-0.2042347431563998,-0.3878808319658576,-0.45283541201137556,-1.0048790532388412,-0.25852634524456375,-0.10879243018947689
11225,8.0,299.64767,2998.3029,0.0,0.0,0.0,-0.11383433772113195,0.0,0.0,-0.18150035947019083,-0.3550451249852256,-0.37486372952116964,-0.973496630611637,-0.25853790642820473,-0.1263087987757079
11226,8.0,300.29626,2786.3415,0.0,0.0,0.0,-0.11384447886480423,0.0,0.0,-0.16592217620524385,-0.33306521745597767,-0.34799082712652063,-1.011273694884943,-0.29694946791413074,-0.1163562307284659
11227,8.0,299.87751000000003,3277.3258,0.0,0.0,0.0,-0.11385462000847647,0.0,0.0,-0.24402691869858179,-0.38658264580523666,-0.36561564387095463,-1.023964307882409,-0.28764525834087673,-0.11603538508430089
11228,8.0,300.3955,3423.38,0.0,0.0,0.0,-0.11386476115214873,0.0,0.0,-0.2177965181923428,-0.36622449572354365,-0.4566010242855126,-1.0045930633981162,-0.26220902299801574,-0.08644539985749673
11229,8.0,299.65294,3122.8774,0.0,0.0,0.0,-0.11387490229582099,0.0,0.0,-0.15278515561122086,-0.37559102017794765,-0.4209005856946536,-1.0078542291099681,-0.25542640788862375,-0.09539151772615981
11230,8.0,300.96171,3061.2742,0.0,0.0,0.0,-0.11388504343949325,0.0,0.0,-0.14115466566338086,-0.3364951501044857,-0.4529011111478596,-0.9992162720074681,-0.25755988703418176,-0.06436442873677453
11231,8.0,300.47589,3275.3873,0.0,0.0,0.0,-0.11389518458316553,0.0,0.0,-0.21630184257232976,-0.3555635442663897,-0.4237705760728996,-1.034018585974689,-0.2955443534704567,-0.05767933287000695
11232,8.0,301.2899,3394.1748,0.0,0.0,0.0,-0.11390532572683777,0.0,0.0,-0.25348487884200976,-0.36667388227539466,-0.41158564580284057,-0.9992504286683391,-0.25104206457342276,-0.07979345348100073
11233,8.0,300.67409,3407.0934,0.0,0.0,0.0,-0.11391546687051005,0.0,0.0,-0.2816829097174387,-0.36348758561343164,-0.3905008028819286,-1.028389069744099,-0.24458729666638676,-0.08382532964291592
11234,8.0,300.15585,3248.7648,0.0,0.0,0.0,-0.11392560801418229,0.0,0.0,-0.22836763489563078,-0.35085667331185766,-0.4083190794679556,-1.031236910475159,-0.2234187187572108,-0.09212199979373352
11235,8.0,298.75725,3161.236,0.0,0.0,0.0,-0.11393574915785457,0.0,0.0,-0.1927866280940588,-0.35837943722179666,-0.4097707527537246,-1.055505770245309,-0.24768561282216675,-0.11460035949767489
11236,8.0,298.99304,3335.3285,0.0,0.0,0.0,-0.11394589030152684,0.0,0.0,-0.21237955143522977,-0.36306288183401664,-0.4384141475781076,-1.0229173165540792,-0.25471622089353374,-0.11410390747867889
11237,8.0,299.56234,3393.1007,0.0,0.0,0.0,-0.11395603144519909,0.0,0.0,-0.2408586882859018,-0.3677542500620187,-0.4228049385950986,-0.9865032560502911,-0.27581518852083975,-0.0952280581935276
11238,8.0,300.00513,3141.1088,0.0,0.0,0.0,-0.11396617258887136,0.0,0.0,-0.1987176571569058,-0.36431186456978165,-0.3917891199865756,-1.014978907320619,-0.3155111762310287,-0.08045393042618472
11239,8.0,299.73621,2927.1618,0.0,0.0,0.0,-0.1139763137325436,0.0,0.0,-0.18588712445313083,-0.3228209853674507,-0.3810759760167706,-0.9885894772111851,-0.2995073671290757,-0.05706580892120685
11240,8.0,299.97567999999995,3239.1035,0.0,0.0,0.0,-0.11398645487621588,0.0,0.0,-0.18495899749403183,-0.36482228930765664,-0.43482529678391557,-1.0204682910623792,-0.24789208279504374,-0.08352479155725512
11241,8.0,300.50383999999997,3415.7859999999996,0.0,0.0,0.0,-0.11399659601988814,0.0,0.0,-0.2087750763244958,-0.35963412455562466,-0.4699044610759595,-1.007794964111619,-0.2322564482494268,-0.07650633843408772
11242,8.0,300.41252000000003,3417.9116,0.0,0.0,0.0,-0.1140067371635604,0.0,0.0,-0.1913996609596758,-0.4059957071211566,-0.4415644231990156,-1.058147211930999,-0.24506273387830876,-0.1043368047297409
11243,8.0,300.30663,3319.3244,0.0,0.0,0.0,-0.11401687830723266,0.0,0.0,-0.2107446217363748,-0.38975679359850063,-0.40849032886735664,-1.059008373190989,-0.25038724156379677,-0.09609855047368851
11244,8.0,299.92483,3072.5978,0.0,0.0,0.0,-0.11402701945090492,0.0,0.0,-0.21964637850240978,-0.34955562978595467,-0.36479101027706967,-1.043759972436089,-0.25332349849858277,-0.13383969908394988
11245,8.0,299.48106,3029.5993,0.0,0.0,0.0,-0.11403716059457718,0.0,0.0,-0.2075387896124838,-0.35717411543284067,-0.3562096229276527,-1.0222892028170891,-0.24551287023523377,-0.1077030343444619
11246,8.0,299.14055,3152.4743,0.0,0.0,0.0,-0.11404730173824945,0.0,0.0,-0.1952932771189458,-0.3422799063828967,-0.42070028641488555,-1.015208205818249,-0.2620765202824387,-0.11724637094131588
11247,8.0,299.81737000000004,3257.5628,0.0,0.0,0.0,-0.1140574428819217,0.0,0.0,-0.19374979324161581,-0.3654287701550117,-0.43103920672525764,-1.0014541159133261,-0.28159379437114374,-0.07293951164406934
11248,8.0,300.57816,3085.2479,0.0,0.0,0.0,-0.11406758402559397,0.0,0.0,-0.18669295212515982,-0.3484396766558187,-0.4027056840464566,-1.012834971434029,-0.2322674724105148,-0.10711111390104389
11249,8.0,299.6825,3238.115,0.0,0.0,0.0,-0.11407772516926622,0.0,0.0,-0.2134569200015578,-0.35131357817945064,-0.41953559595493967,-0.9877551062838391,-0.25120907858740577,-0.044213725401054955
11250,8.0,299.78776,3496.991,0.0,0.0,0.0,-0.11408786631293849,0.0,0.0,-0.24162445204897676,-0.39053264933257165,-0.4308408528856816,-1.019540863245849,-0.2754980716370427,-0.07263164269393503
11251,8.0,298.8937,3641.703,0.0,0.0,0.0,-0.11409800745661075,0.0,0.0,-0.2575768083108518,-0.37821356474927265,-0.47119640561596454,-1.0294320080720292,-0.28694613603687874,-0.022329214355471878
11252,8.0,298.77304,3576.0094,0.0,0.0,0.0,-0.11410814860028301,0.0,0.0,-0.2234606875763528,-0.4030575858061866,-0.4604992811302405,-1.031623262738289,-0.2792529535926207,-0.093944649272365
11253,8.0,299.28779,3273.5807,0.0,0.0,0.0,-0.11411828974395527,0.0,0.0,-0.21824360466646678,-0.35230288517958763,-0.4245403016438656,-1.020467683112319,-0.25019388304721374,-0.06954192193875333
11254,8.0,300.24272,2941.2769,0.0,0.0,0.0,-0.11412843088762753,0.0,0.0,-0.14883941786680685,-0.36488773513161565,-0.3803475707848826,-1.049543502681879,-0.24179514416082276,-0.11812232565276588
11255,8.0,300.68008,3043.4834,0.0,0.0,0.0,-0.11413857203129979,0.0,0.0,-0.2024021182305338,-0.34350713463901467,-0.3792337150824536,-1.019830855424469,-0.2681405181559088,-0.11170159281658888
11256,8.0,300.05992000000003,3234.0473,0.0,0.0,0.0,-0.11414871317497205,0.0,0.0,-0.22329691596268977,-0.3541126410506967,-0.4056600781580326,-1.0448660362452489,-0.2180069803706138,-0.11725380819704988
11257,8.0,300.04986,2990.5623,0.0,0.0,0.0,-0.11415885431864431,0.0,0.0,-0.2071877997778438,-0.3240348589872507,-0.37783361622677464,-1.0113386948788579,-0.22987095353899678,-0.0976177578918726
11258,8.0,300.78806000000003,2936.7061,0.0,0.0,0.0,-0.11416899546231657,0.0,0.0,-0.12053877515375089,-0.36735958914806865,-0.40478695041436163,-1.023324643094279,-0.27022381102401377,-0.09609166847900931
11259,8.0,300.50173,3440.9704,0.0,0.0,0.0,-0.11417913660598883,0.0,0.0,-0.2044106028437558,-0.3868887891904506,-0.4546696885349046,-1.045933596550609,-0.2842979055755187,-0.06618041305624824
11260,8.0,299.75209,3726.3874,0.0,0.0,0.0,-0.1141892777496611,0.0,0.0,-0.25033649799878877,-0.43788876726875653,-0.4445034564390755,-0.9959620065287971,-0.27558382299300577,-0.0883831920377419
11261,8.0,298.76621,3339.7723,0.0,0.0,0.0,-0.11419941889333335,0.0,0.0,-0.24228423998409274,-0.3895368473992936,-0.38338630783478267,-1.014102344659109,-0.2584167115837438,-0.09015733014133571
11262,8.0,298.71487,3108.0598,0.0,0.0,0.0,-0.11420956003700562,0.0,0.0,-0.20581188720205182,-0.3578044481875497,-0.38115623555719164,-0.992528669359953,-0.24813878892939176,-0.08631586191171232
11263,8.0,299.27743,3120.1458,0.0,0.0,0.0,-0.11421970118067787,0.0,0.0,-0.19829451378264482,-0.35205591560021365,-0.39809597364401367,-1.020979678387849,-0.2748769797232457,-0.0972422899613168
11264,8.0,299.95511,3160.4358,0.0,0.0,0.0,-0.11422984232435014,0.0,0.0,-0.1900394841579368,-0.3400296298983117,-0.43062444292932356,-1.030951376596979,-0.26001452593143576,-0.1053659628563109
11265,8.0,298.68371,3159.5919,0.0,0.0,0.0,-0.11423998346802239,0.0,0.0,-0.20204734897302082,-0.34851592372584367,-0.4098737496263896,-1.0331864036675589,-0.27772668483448976,-0.1102692827402309
11266,8.0,299.64333999999997,3108.5886,0.0,0.0,0.0,-0.11425012461169466,0.0,0.0,-0.2000783709811978,-0.3281210737255287,-0.4167338783684316,-1.039200245661079,-0.26446787157844676,-0.09428208486041731
11267,8.0,299.6455,3148.3345,0.0,0.0,0.0,-0.11426026575536691,0.0,0.0,-0.21808073484539278,-0.3514411868970446,-0.3874931523450966,-1.030621766339449,-0.24532309862400478,-0.0969426344164931
11268,8.0,300.24812000000003,3483.8647,0.0,0.0,0.0,-0.11427040689903918,0.0,0.0,-0.24238702407423676,-0.3910337319045246,-0.42558711058717763,-1.01221710165555,-0.2077114372970228,-0.09765673357021921
11269,8.0,300.21488999999997,3751.974,0.0,0.0,0.0,-0.11428054804271143,0.0,0.0,-0.26998096537254673,-0.38568751026939363,-0.48483794369977956,-1.022746989212269,-0.23689566449478178,-0.061382330340964346
11270,8.0,300.69313,3507.3843,0.0,0.0,0.0,-0.1142906891863837,0.0,0.0,-0.2117829396438488,-0.3826085674555256,-0.47176575084715455,-0.977501977859434,-0.27418833442528173,-0.07836301690407763
11271,8.0,300.29453,3016.7237,0.0,0.0,0.0,-0.11430083033005596,0.0,0.0,-0.16888474724512684,-0.3432523731663717,-0.4048715365327096,-1.005240844319547,-0.3041386496261477,-0.07289229824240973
11272,8.0,299.21934,3048.4244,0.0,0.0,0.0,-0.11431097147372822,0.0,0.0,-0.19359024688086984,-0.3521937378788157,-0.38086090355054464,-0.9961362855459971,-0.2860163372151147,-0.08950068024177942
11273,8.0,298.80305,3131.7739,0.0,0.0,0.0,-0.11432111261740048,0.0,0.0,-0.21571416764683082,-0.3560545247348456,-0.38021238295654064,-1.042583994370029,-0.2903427530220987,-0.08263164300485822
11274,8.0,299.83898999999997,3065.7003,0.0,0.0,0.0,-0.11433125376107274,0.0,0.0,-0.20217321490044282,-0.3517378969238277,-0.3779852187067366,-1.0450194423103891,-0.2526226840669178,-0.10797531491133389
11275,8.0,299.37037999999995,3048.1012,0.0,0.0,0.0,-0.114341394904745,0.0,0.0,-0.16741044808462485,-0.34815055587228466,-0.4109856598886266,-1.041760931313799,-0.25106299832048873,-0.1080522104614229
11276,8.0,299.60942,3035.1248,0.0,0.0,0.0,-0.11435153604841727,0.0,0.0,-0.16330815306725985,-0.3642818318368176,-0.39501216722966564,-1.0325095526007588,-0.24663079920306477,-0.12980932455868288
11277,8.0,299.61222000000004,3081.6468,0.0,0.0,0.0,-0.11436167719208952,0.0,0.0,-0.16277377509702085,-0.36463808043947665,-0.4093318432079076,-1.051981483747489,-0.25860386900971477,-0.1021666459305629
11278,8.0,300.55178,3359.4863,0.0,0.0,0.0,-0.1143718183357618,0.0,0.0,-0.24165976381496176,-0.3683385407321837,-0.4112016442799426,-1.015333646180629,-0.27566457902597574,-0.12250794566309288
11279,8.0,301.48485,3612.1290000000004,0.0,0.0,0.0,-0.11438195947943404,0.0,0.0,-0.28073028237092174,-0.38192911233596866,-0.4353376365644796,-0.9954486636306341,-0.22312905081862278,-0.09440126131067911
11280,8.0,300.92431,3178.1179,0.0,0.0,0.0,-0.11439210062310631,0.0,0.0,-0.2083566749607028,-0.35282405036852266,-0.4048877687993116,-1.017631798732439,-0.2206602669499728,-0.09599487269695632
11281,8.0,300.49931000000004,3048.7475,0.0,0.0,0.0,-0.11440224176677857,0.0,0.0,-0.17885471279658582,-0.3307648154889457,-0.41712358448939263,-1.025443247728369,-0.24018374212928978,-0.07345107628830684
11282,8.0,300.18526,3191.0401,0.0,0.0,0.0,-0.11441238291045083,0.0,0.0,-0.17810287108988482,-0.3417553873361307,-0.4501382415701856,-1.061026058115119,-0.2755527364799378,-0.07352885336598283
11283,8.0,299.30099,3264.4818,0.0,0.0,0.0,-0.11442252405412309,0.0,0.0,-0.20438873690659778,-0.37400139289106366,-0.4139308334242926,-1.016055282901849,-0.27185436348243674,-0.07574417778836832
11284,8.0,299.86017999999996,3372.6381,0.0,0.0,0.0,-0.11443266519779535,0.0,0.0,-0.21812852985260978,-0.3846053287650907,-0.4224639191414426,-1.026102772218459,-0.2963151632190297,-0.08911613257707751
11285,8.0,299.73615,3449.1996,0.0,0.0,0.0,-0.11444280634146761,0.0,0.0,-0.26216553430372375,-0.38427065225706064,-0.4020343754577036,-1.023734604084739,-0.3014106561169157,-0.07627492528349902
11286,8.0,299.42336,3209.173,0.0,0.0,0.0,-0.11445294748513989,0.0,0.0,-0.2107862055204788,-0.35638785362024267,-0.4083343998094676,-1.025454900104519,-0.2857586373171817,-0.0942199250065326
11287,8.0,300.50699,3289.333,0.0,0.0,0.0,-0.11446308862881213,0.0,0.0,-0.2013993755340708,-0.3690607144759566,-0.4294150174774626,-1.042031671740519,-0.24983150428144976,-0.09465420298614251
11288,8.0,299.11912,3417.1782,0.0,0.0,0.0,-0.1144732297724844,0.0,0.0,-0.22281638210276478,-0.36540082471725366,-0.45051964917282755,-1.020257940341619,-0.22643410039230577,-0.09483674911090842
11289,8.0,298.94689,3141.5838,0.0,0.0,0.0,-0.11448337091615665,0.0,0.0,-0.2019387589598038,-0.36800330693659866,-0.38502097408861163,-1.0764583637631688,-0.26981893654905575,-0.0968350829846286
11290,8.0,299.47229,2962.6929999999998,0.0,0.0,0.0,-0.11449351205982893,0.0,0.0,-0.20986027731409682,-0.34947881529587366,-0.3412456009458187,-1.043869302121879,-0.26730169906062373,-0.09170037325487222
11291,8.0,299.28059,3163.5890000000004,0.0,0.0,0.0,-0.11450365320350119,0.0,0.0,-0.2134007454160138,-0.3773473777687867,-0.37090393799786864,-1.032517658601559,-0.26814162259851776,-0.11703480432043589
11292,8.0,298.52305,3416.0861,0.0,0.0,0.0,-0.11451379434717344,0.0,0.0,-0.21641318862581882,-0.3999167840737136,-0.4220748918980486,-1.0048972106806329,-0.26331464097713175,-0.07710509122293002
11293,8.0,299.74843,3063.14,0.0,0.0,0.0,-0.1145239354908457,0.0,0.0,-0.14107917853093088,-0.36422668063387464,-0.42581222436189464,-1.043649122875149,-0.2715989332647277,-0.1172211612788279
11294,8.0,299.82537,2955.9866,0.0,0.0,0.0,-0.11453407663451796,0.0,0.0,-0.1114840074901149,-0.3653466766319096,-0.4217154211600716,-1.054032605924919,-0.2603550184950397,-0.08876527851795092
11295,8.0,300.61891,3184.5548,0.0,0.0,0.0,-0.11454421777819022,0.0,0.0,-0.18840693559681684,-0.3830173024133646,-0.39660090285646166,-1.0499784909498089,-0.24891273975327474,-0.13228437031295087
11296,8.0,300.3997,3320.065,0.0,0.0,0.0,-0.1145543589218625,0.0,0.0,-0.25306620390068973,-0.35386343218860167,-0.4022872117551566,-1.030576474059979,-0.26030196471980377,-0.07385328692875193
11297,8.0,300.0806,3544.2773,0.0,0.0,0.0,-0.11456450006553474,0.0,0.0,-0.2983216010670497,-0.38575293582835063,-0.3932972718329186,-1.045940182676259,-0.26628135620992377,-0.10315031926014391
11298,8.0,299.64203,3605.4719,0.0,0.0,0.0,-0.11457464120920702,0.0,0.0,-0.26900537777876377,-0.36462525269321067,-0.4623427984946816,-1.024895890024349,-0.2881181421625467,-0.05410882088937485
11299,8.0,299.51473,3185.0271,0.0,0.0,0.0,-0.11458478235287926,0.0,0.0,-0.19005742881720783,-0.3509457785256517,-0.4271655110629536,-1.034899505611629,-0.26380626992565176,-0.1052840213207239
11300,8.0,300.36527,3339.1617,0.0,0.0,0.0,-0.11459492349655154,0.0,0.0,-0.17583002952557283,-0.38009715615516865,-0.4590946023841096,-1.011773622351782,-0.24200008412604876,-0.07843387449682072
11301,8.0,300.18646,3587.655,0.0,0.0,0.0,-0.11460506464022381,0.0,0.0,-0.26412937511753976,-0.37918025600717764,-0.44724789499743056,-1.044518592785959,-0.2657675877467187,-0.08589938572310932
11302,8.0,298.56785,3269.3597,0.0,0.0,0.0,-0.11461520578389606,0.0,0.0,-0.2335474808643418,-0.35779528840664565,-0.40246092335230066,-1.002104642742528,-0.2262304573872078,-0.07295374274172382
11303,8.0,299.62028,2929.6386,0.0,0.0,0.0,-0.11462534692756833,0.0,0.0,-0.1829118573894948,-0.3586354449920626,-0.3489896789425997,-1.029148703344069,-0.25034531327465875,-0.1078151099380229
11304,8.0,299.84898,3148.2213,0.0,0.0,0.0,-0.11463548807124058,0.0,0.0,-0.18034310626597883,-0.34339758203820264,-0.4332399656774556,-1.006231194967287,-0.2596120325942127,-0.07866555717193602
11305,8.0,299.20763999999997,3444.6866,0.0,0.0,0.0,-0.11464562921491285,0.0,0.0,-0.16480690195267483,-0.3962923682010116,-0.4859994322894095,-1.0825450584388792,-0.29059373507186875,-0.1027366295093159
11306,8.0,299.73708,3412.5679,0.0,0.0,0.0,-0.11465577035858511,0.0,0.0,-0.19045094475854482,-0.38814517878444665,-0.4587393163690455,-1.032709669495509,-0.2723172465256197,-0.1047329652538389
11307,8.0,299.83284,3255.1742,0.0,0.0,0.0,-0.11466591150225737,0.0,0.0,-0.19577551323903883,-0.39480997317221067,-0.39890617855647464,-1.0483591146399889,-0.25298646111781975,-0.11644199221692988
11308,8.0,300.36303,3154.5243,0.0,0.0,0.0,-0.11467605264592963,0.0,0.0,-0.25570968221908075,-0.34992599296250665,-0.3532609638116427,-1.036323425977159,-0.24246826646725478,-0.08225304109174313
11309,8.0,301.05151,3134.4157,0.0,0.0,0.0,-0.11468619378960188,0.0,0.0,-0.24702300805177274,-0.32465632580358467,-0.3811047725846126,-1.034409092563229,-0.26444344211853577,-0.09214154944116291
11310,8.0,300.72978,3270.0995,0.0,0.0,0.0,-0.11469633493327415,0.0,0.0,-0.20556160429485082,-0.3671795346052987,-0.4212874445828336,-1.032519989076789,-0.2785270713534817,-0.08930998150670891
11311,8.0,300.54452000000003,3233.4538,0.0,0.0,0.0,-0.11470647607694642,0.0,0.0,-0.16317828480194285,-0.38340111141874367,-0.4363098196379266,-0.9953100206194511,-0.28475931940605675,-0.10770421984707891
11312,8.0,300.34317000000004,2920.1191,0.0,0.0,0.0,-0.11471661722061867,0.0,0.0,-0.12934863013571588,-0.3478372386763627,-0.4104574323464946,-1.027737347279779,-0.2883683338772387,-0.09456623261246051
11313,8.0,300.40896000000004,3226.8373,0.0,0.0,0.0,-0.11472675836429094,0.0,0.0,-0.2193447440801408,-0.3766067223431897,-0.38492650878178863,-1.0285051882055591,-0.25559872120062976,-0.07525796972788333
11314,8.0,300.13165,3576.5463,0.0,0.0,0.0,-0.11473689950796319,0.0,0.0,-0.2909244193745047,-0.36027275582865265,-0.4359836037682316,-1.0416831137061189,-0.24337367635911178,-0.06110015538686585
11315,8.0,299.21977000000004,3401.6536,0.0,0.0,0.0,-0.11474704065163546,0.0,0.0,-0.2533873332548828,-0.36315038611265266,-0.4174800560070736,-1.024037160564599,-0.2246521987664458,-0.06795643276527773
11316,8.0,299.29174,3137.8636,0.0,0.0,0.0,-0.11475718179530772,0.0,0.0,-0.17175836505873085,-0.3363993979700357,-0.4456744290496416,-1.0494158331692789,-0.2651740562356417,-0.0965335894041235
11317,8.0,300.46501,3330.4889,0.0,0.0,0.0,-0.11476732293897998,0.0,0.0,-0.2004722212950678,-0.3524942273284717,-0.4594190045361256,-1.0414941425624689,-0.2818053001970177,-0.05740934934111165
11318,8.0,299.11557,3310.5074,0.0,0.0,0.0,-0.11477746408265224,0.0,0.0,-0.2098488579854698,-0.36845744563141863,-0.4280052724808316,-1.032098882335229,-0.26808176991511073,-0.0982498334367536
11319,8.0,299.54143999999997,3307.0083,0.0,0.0,0.0,-0.1147876052263245,0.0,0.0,-0.25314913842137476,-0.36063596545949866,-0.39146285345437565,-1.031690339894909,-0.2641621233607718,-0.09763130200595932
11320,8.0,300.17777,3411.7244,0.0,0.0,0.0,-0.11479774636999676,0.0,0.0,-0.27768943776081373,-0.37200395270393166,-0.38738563637698564,-1.038399170132019,-0.26992062632909175,-0.09553791716685832
11321,8.0,300.30994,3205.3156,0.0,0.0,0.0,-0.11480788751366904,0.0,0.0,-0.20989135369466377,-0.3500846780606677,-0.4143598840466366,-1.025323582891559,-0.2777122054905607,-0.08774477861348542
11322,8.0,300.06953,3057.969,0.0,0.0,0.0,-0.11481802865734128,0.0,0.0,-0.14757561128207888,-0.3593372017463206,-0.42263341561817064,-1.017244027919169,-0.26333895897953175,-0.096696231243925
11323,8.0,300.9292,3305.7306,0.0,0.0,0.0,-0.11482816980101355,0.0,0.0,-0.14759094175609186,-0.4120656426402126,-0.44520298404311354,-1.016320957078069,-0.2754449469342997,-0.12687305749139588
11324,8.0,300.03541,3277.2744,0.0,0.0,0.0,-0.1148383109446858,0.0,0.0,-0.18909163935189183,-0.3836079360291556,-0.42350999854468263,-1.0204952435150392,-0.2986546462424187,-0.08523751657228791
11325,8.0,299.8958,3017.8612,0.0,0.0,0.0,-0.11484845208835807,0.0,0.0,-0.2150944537531698,-0.37078368547600066,-0.3314763197091657,-1.035288188349989,-0.28702330516449476,-0.11254244854457489
11326,8.0,299.33489,3038.9893,0.0,0.0,0.0,-0.11485859323203033,0.0,0.0,-0.22400824793039278,-0.3450739941961517,-0.35469461137813263,-1.0398688894020691,-0.2446216154472738,-0.09153811746335881
11327,8.0,299.17075,3247.2804,0.0,0.0,0.0,-0.1148687343757026,0.0,0.0,-0.22814407139356677,-0.3595300941678577,-0.39941800157948765,-1.060058910894669,-0.24658279141332676,-0.13685893106942487
11328,8.0,299.18028,3498.7286,0.0,0.0,0.0,-0.11487887551937485,0.0,0.0,-0.2010223654368628,-0.39864662441085863,-0.4638571311666345,-1.050879067638689,-0.25273644165564474,-0.10692938749560889
11329,8.0,298.88167999999996,3402.5281,0.0,0.0,0.0,-0.11488901666304711,0.0,0.0,-0.18209163143354481,-0.38980426436568566,-0.46238767534161057,-1.0494034715180591,-0.2658308652154638,-0.1318923742467639
11330,8.0,299.94729,3412.3392,0.0,0.0,0.0,-0.11489915780671937,0.0,0.0,-0.24116117383825475,-0.37211259337965363,-0.4239921333397656,-0.994516493803636,-0.26363835411907977,-0.09990584583043931
11331,8.0,300.47277,3299.1605,0.0,0.0,0.0,-0.11490929895039165,0.0,0.0,-0.2580094154410467,-0.36403205555466667,-0.38082095109910163,-1.0461886316007791,-0.2752881059513207,-0.0965002595553341
11332,8.0,300.16425,3111.1212,0.0,0.0,0.0,-0.1149194400940639,0.0,0.0,-0.23545450874505075,-0.35362004951458165,-0.35662860184400264,-1.012299711936203,-0.2722770407616517,-0.07079377115905122
11333,8.0,300.2756,3264.603,0.0,0.0,0.0,-0.11492958123773617,0.0,0.0,-0.21169636755530477,-0.34495008384142267,-0.43571133333386053,-1.039238951814899,-0.2703117408676918,-0.049055331261134254
11334,8.0,300.1784,3472.9527,0.0,0.0,0.0,-0.11493972238140841,0.0,0.0,-0.19027595646627482,-0.38405391806067063,-0.48136103677663555,-0.9946622903605251,-0.2123983776220878,-0.07158968924510223
11335,8.0,299.76537,3229.0894,0.0,0.0,0.0,-0.11494986352508069,0.0,0.0,-0.15850049412528086,-0.3711163557488326,-0.45194569736356754,-1.0245990077450489,-0.24565130046389577,-0.0999367033489847
11336,8.0,300.49696,3492.3161,0.0,0.0,0.0,-0.11496000466875295,0.0,0.0,-0.2240361832356498,-0.4068211107851176,-0.4307195871137136,-1.039667961907239,-0.26899442454518274,-0.08160962018549242
11337,8.0,300.54996,3721.0692,0.0,0.0,0.0,-0.1149701458124252,0.0,0.0,-0.3179953108386937,-0.3966132138451766,-0.4165035970182046,-1.053073666030279,-0.2912990989964827,-0.06297147430755065
11338,8.0,299.79084,3481.3527,0.0,0.0,0.0,-0.11498028695609747,0.0,0.0,-0.2823252900158367,-0.37560843794716664,-0.4003105735925776,-1.0229452822568392,-0.2626128031628657,-0.08754270107979191
11339,8.0,300.04115,3333.1276,0.0,0.0,0.0,-0.11499042809976973,0.0,0.0,-0.2200047954602828,-0.37539911060900766,-0.4177836763995387,-1.028776840557369,-0.2567750437717237,-0.09614672544969301
11340,8.0,299.6217,3146.2239,0.0,0.0,0.0,-0.11500056924344199,0.0,0.0,-0.1269008205441359,-0.3790703386363296,-0.4504023452087506,-1.061364888948559,-0.25984508011721275,-0.11426792227236589
11341,8.0,299.27246,3050.8081,0.0,0.0,0.0,-0.11501071038711426,0.0,0.0,-0.1154233718913999,-0.3810957242612197,-0.4308503977016236,-1.0513369553588792,-0.25765504135107276,-0.11268132460328088
11342,8.0,299.55418,3267.2546,0.0,0.0,0.0,-0.1150208515307865,0.0,0.0,-0.19328406296565181,-0.3923972524315936,-0.4074825097878926,-1.039800089720279,-0.22600957899790877,-0.11996357333698289
11343,8.0,299.56649,3303.5615,0.0,0.0,0.0,-0.11503099267445878,0.0,0.0,-0.24935925880734278,-0.36242345009340965,-0.3924174971685916,-1.006897558895552,-0.23720380398269278,-0.07650367054657443
11344,8.0,299.6447,2982.0367,0.0,0.0,0.0,-0.11504113381813103,0.0,0.0,-0.1877538148473588,-0.34610397305530266,-0.3726069074409386,-1.022690855156729,-0.27952565972453475,-0.08982939681272122
11345,8.0,299.27973,3101.0084,0.0,0.0,0.0,-0.1150512749618033,0.0,0.0,-0.14769484042134587,-0.35999945187917964,-0.4349348291197256,-1.019911408807419,-0.2841792235913057,-0.047469317224106855
11346,8.0,300.96367000000004,3666.7143,0.0,0.0,0.0,-0.11506141610547557,0.0,0.0,-0.2250472751129368,-0.4029796567409956,-0.48656265748999555,-1.020464339386989,-0.2591272937463727,-0.10226169892244391
11347,8.0,301.11315,3890.1842,0.0,0.0,0.0,-0.11507155724914782,0.0,0.0,-0.25136151193244977,-0.42169853028090465,-0.5094588166871705,-1.012914065736835,-0.26874650251071475,-0.07392489128681873
11348,8.0,300.7668,3308.5629,0.0,0.0,0.0,-0.11508169839282009,0.0,0.0,-0.2707448242254337,-0.36373103921495864,-0.37124462307899164,-1.0585320443189792,-0.2908716594417977,-0.11462890275299188
11349,8.0,300.90906,3242.7192,0.0,0.0,0.0,-0.11509183953649234,0.0,0.0,-0.26432736418707975,-0.33686312201080165,-0.3845151697711926,-1.053420197564479,-0.3099825189153927,-0.04501959664283826
11350,8.0,300.69203,3472.6303,0.0,0.0,0.0,-0.11510198068016458,0.0,0.0,-0.28021375786744473,-0.37485524861783265,-0.4005239032686316,-1.052193658318429,-0.2873317688924377,-0.09657418830913031
11351,8.0,299.31252,3360.0452,0.0,0.0,0.0,-0.11511212182383687,0.0,0.0,-0.2056635271224098,-0.35434507049113567,-0.46136125299031056,-1.021870426550759,-0.2708358546144177,-0.08267542250192893
11352,8.0,299.33599,3326.9154,0.0,0.0,0.0,-0.11512226296750912,0.0,0.0,-0.16957667547341485,-0.3927489515413036,-0.4489735916402436,-1.0484554747244992,-0.26796206454829674,-0.13637829588448985
11353,8.0,299.02065,3234.1799,0.0,0.0,0.0,-0.11513240411118139,0.0,0.0,-0.16351066123224584,-0.3779886434920746,-0.44161063753607654,-1.020002499991409,-0.24626783275224276,-0.0951113469807591
11354,8.0,299.23655,3208.7876,0.0,0.0,0.0,-0.11514254525485364,0.0,0.0,-0.20403809157699182,-0.3952679824824126,-0.37608522278172163,-1.044876776696309,-0.2083499165825358,-0.13394788379712688
11355,8.0,299.94557000000003,3524.4759999999997,0.0,0.0,0.0,-0.11515268639852591,0.0,0.0,-0.2763338307170257,-0.37413443262919366,-0.4208844243555586,-1.008300028756465,-0.24133408496781977,-0.06840857434415064
11356,8.0,300.29863,3539.6085,0.0,0.0,0.0,-0.11516282754219818,0.0,0.0,-0.2583427443264438,-0.37923270183235364,-0.4383771436844556,-1.046051741512269,-0.27974846328902375,-0.06885172434163614
11357,8.0,300.10982,3075.9297,0.0,0.0,0.0,-0.11517296868587043,0.0,0.0,-0.14956135856305686,-0.3612387580764897,-0.4242057163283446,-1.025704463604149,-0.3071376672721277,-0.05846115867366714
11358,8.0,300.09324,2960.8945,0.0,0.0,0.0,-0.1151831098295427,0.0,0.0,-0.13080022236147687,-0.3655045409974897,-0.40373324123786863,-1.020242538940099,-0.28043672355194976,-0.0990167512916925
11359,8.0,298.80159,3539.3027,0.0,0.0,0.0,-0.11519325097321495,0.0,0.0,-0.23825687481162278,-0.4062199089707836,-0.43138286062917364,-1.046961133477019,-0.28145826203776775,-0.1181520037481949
11360,8.0,298.83391,3665.7174,0.0,0.0,0.0,-0.11520339211688722,0.0,0.0,-0.3119598967505447,-0.3825663959863636,-0.41976027403211363,-1.0408969329535291,-0.24574640411828175,-0.11555586447447588
11361,8.0,299.79303,3136.5221,0.0,0.0,0.0,-0.11521353326055947,0.0,0.0,-0.2282665024031498,-0.34880215674659265,-0.37635574029341967,-1.0445427081383392,-0.2875298896844907,-0.1110374985685479
11362,8.0,300.82495,2930.1992,0.0,0.0,0.0,-0.11522367440423174,0.0,0.0,-0.16860268881478985,-0.3307168380967107,-0.39138787294697563,-1.007147385840208,-0.25026761725699076,-0.1104837168588939
11363,8.0,301.07793,3160.6026,0.0,0.0,0.0,-0.115233815547904,0.0,0.0,-0.14432105196087885,-0.35151882211970664,-0.46490440620499257,-1.039626216003119,-0.28303973266134674,-0.08529290386250422
11364,8.0,300.89063,3303.6667,0.0,0.0,0.0,-0.11524395669157626,0.0,0.0,-0.18161427917893383,-0.37007203940076666,-0.45254585553029864,-1.002687910030092,-0.27743984386368076,-0.07489932478873783
11365,8.0,299.91454,3359.5396,0.0,0.0,0.0,-0.11525409783524852,0.0,0.0,-0.23797607281140978,-0.3437105445965897,-0.43952953328818756,-1.0511947963698491,-0.25286200360803673,-0.08407180576949122
11366,8.0,300.66407999999996,3357.3948,0.0,0.0,0.0,-0.11526423897892078,0.0,0.0,-0.27825383833151573,-0.3430200855809467,-0.3992902611393806,-1.022608275273579,-0.2113387510650108,-0.06795448225883523
11367,8.0,299.80492999999996,3046.1917,0.0,0.0,0.0,-0.11527438012259304,0.0,0.0,-0.22102259505323177,-0.3361755608904447,-0.36876806758207464,-1.051708615495559,-0.2275645227338698,-0.07663665759569922
11368,8.0,299.1379,3407.8483,0.0,0.0,0.0,-0.1152845212662653,0.0,0.0,-0.2178976000223188,-0.3526850121898007,-0.4653181770158286,-1.053722855369349,-0.25825721588550277,-0.06363194213348373
11369,8.0,299.39415,3924.5793,0.0,0.0,0.0,-0.11529466240993756,0.0,0.0,-0.24549466213093676,-0.4285652046185926,-0.5189142335728475,-1.030600184112319,-0.2872918164409947,-0.07058911490385322
11370,8.0,299.82681,3458.2502,0.0,0.0,0.0,-0.11530480355360981,0.0,0.0,-0.1947404579968868,-0.3993451792948006,-0.45713608113331855,-1.000419739548741,-0.2855907113781087,-0.1025866684945159
11371,8.0,300.46952000000005,2834.4244,0.0,0.0,0.0,-0.11531494469728208,0.0,0.0,-0.18220776002750583,-0.3270845695357337,-0.35230190232699066,-1.0166554309360791,-0.29530325060916174,-0.13147667826073786
11372,8.0,300.98443,2967.0959999999995,0.0,0.0,0.0,-0.11532508584095436,0.0,0.0,-0.2146208201264258,-0.35174300370433165,-0.3355592819146227,-1.019959335537149,-0.2891887928807117,-0.12781080019394386
11373,8.0,299.92316,3070.8792,0.0,0.0,0.0,-0.1153352269846266,0.0,0.0,-0.19111977088455281,-0.3573624887589317,-0.3849883474353917,-1.020713902886619,-0.27827528883613273,-0.11381299324246788
11374,8.0,300.25867,3188.2948,0.0,0.0,0.0,-0.11534536812829888,0.0,0.0,-0.16237486866515186,-0.3632365225036537,-0.44355063657503957,-1.029296536533659,-0.22438192443477176,-0.1048004274454969
11375,8.0,299.00032000000004,3140.2051,0.0,0.0,0.0,-0.11535550927197112,0.0,0.0,-0.13127670322100188,-0.3722286105161037,-0.45103861560904557,-1.0165799438036291,-0.24086106942363675,-0.09588240193585632
11376,8.0,298.24132000000003,3011.1593,0.0,0.0,0.0,-0.1153656504156434,0.0,0.0,-0.16608133753095183,-0.33411284713187067,-0.41512306402195664,-1.0341553747381889,-0.25655975852297674,-0.07450227868405243
11377,8.0,298.84371,3482.7037,0.0,0.0,0.0,-0.11537579155931564,0.0,0.0,-0.2358234229739598,-0.41781429681756055,-0.40501723176458865,-1.025286497937899,-0.2612155312749658,-0.0975818077783246
11378,8.0,298.76341,3978.0504,0.0,0.0,0.0,-0.11538593270298791,0.0,0.0,-0.34982318860736067,-0.4143581919189696,-0.4450466091551806,-1.044148959149479,-0.24156544036315278,-0.08230504210012522
11379,8.0,299.22344,3782.2886,0.0,0.0,0.0,-0.11539607384666016,0.0,0.0,-0.28406924542545176,-0.39490632312421964,-0.4707457221039856,-1.0275227409085992,-0.2663245409291857,-0.08281814789776482
11380,8.0,301.01405,3013.3894,0.0,0.0,0.0,-0.11540621499033243,0.0,0.0,-0.15470476805817185,-0.35262671991154765,-0.4086636554294626,-1.060017468965579,-0.28632710102078474,-0.08337553171152431
11381,8.0,299.95217,2878.7897,0.0,0.0,0.0,-0.1154163561340047,0.0,0.0,-0.09530324844369831,-0.3339026990611307,-0.4458742419693616,-1.036300425199889,-0.2994415261375777,-0.07413339485264643
11382,8.0,300.09106,3564.3171,0.0,0.0,0.0,-0.11542649727767695,0.0,0.0,-0.2313822059306458,-0.3885878069581306,-0.4634933743807346,-1.028276092357949,-0.2774786209450077,-0.07964251467985421
11383,8.0,299.7699,3537.3859,0.0,0.0,0.0,-0.11543663842134921,0.0,0.0,-0.27211457624061774,-0.3837568939263566,-0.4194055250396026,-1.015947473091209,-0.2568988933314467,-0.1037424930160869
11384,8.0,300.12642999999997,3096.9417,0.0,0.0,0.0,-0.11544677956502147,0.0,0.0,-0.26927920861828875,-0.34293138566719267,-0.3291823620127697,-1.0389783438891789,-0.2948567112900917,-0.09445546107177821
11385,8.0,300.24985,3201.2509,0.0,0.0,0.0,-0.11545692070869373,0.0,0.0,-0.18128862059679382,-0.3904917140285316,-0.4013200240047026,-1.002659792339817,-0.2819412074329307,-0.10513625905864091
11386,8.0,301.23131,3446.3988,0.0,0.0,0.0,-0.11546706185236601,0.0,0.0,-0.1948563839408278,-0.3983279673869096,-0.4544348070292236,-1.023528711664419,-0.25636554887630975,-0.0925549504157124
11387,8.0,300.12978,3652.8189,0.0,0.0,0.0,-0.11547720299603825,0.0,0.0,-0.1971721467793758,-0.4062871989099246,-0.5069063991552666,-1.015019133349589,-0.24973020966895276,-0.08840975033611301
11388,8.0,301.74208,3595.2177,0.0,0.0,0.0,-0.11548734413971053,0.0,0.0,-0.2387517968229678,-0.4175531012067826,-0.43655151018427957,-1.0508143209572989,-0.2660988597344127,-0.10735317934993391
11389,8.0,300.98609,2915.6476,0.0,0.0,0.0,-0.11549748528338277,0.0,0.0,-0.1938957316535188,-0.34407145414970863,-0.34831687074369866,-1.059531412892609,-0.27776789371605676,-0.09546865645627281
11390,8.0,300.37699,2868.5113,0.0,0.0,0.0,-0.11550762642705505,0.0,0.0,-0.19214738887097083,-0.3561578154500397,-0.3236506142843287,-1.052543432252949,-0.26153296226629374,-0.12692349708137388
11391,8.0,299.82739,3462.8412,0.0,0.0,0.0,-0.1155177675707273,0.0,0.0,-0.2134694640377958,-0.40655988477683663,-0.4325878987081016,-1.051633331013129,-0.2606471283663688,-0.12039063798913088
11392,8.0,300.32085,3535.6995,0.0,0.0,0.0,-0.11552790871439957,0.0,0.0,-0.1958427221181718,-0.39418696621572463,-0.4847346833820885,-1.049388070116539,-0.27406818322842375,-0.08719397687237551
11393,8.0,300.45454,3127.4388,0.0,0.0,0.0,-0.11553804985807183,0.0,0.0,-0.1268120699678769,-0.39236076529549263,-0.4314904677897936,-1.018428922586109,-0.2698638235284857,-0.12252268845204788
11394,8.0,299.53654,3124.5482,0.0,0.0,0.0,-0.11554819100174409,0.0,0.0,-0.19545915629281682,-0.3397194740427017,-0.4146060227609286,-0.986859423592942,-0.2223142964132128,-0.08631147757852961
11395,8.0,299.33294,3599.3862,0.0,0.0,0.0,-0.11555833214541635,0.0,0.0,-0.2968297220173127,-0.37287654342504967,-0.42441727281672365,-0.989585167686952,-0.24131756899118978,-0.09712519877976081
11396,8.0,299.07922,3690.5811,0.0,0.0,0.0,-0.11556847328908862,0.0,0.0,-0.3053434343925507,-0.3946126629802376,-0.42188839308464254,-1.023517363263299,-0.2781827689695018,-0.05884338802214024
11397,8.0,299.65984,3376.172,0.0,0.0,0.0,-0.11557861443276086,0.0,0.0,-0.22053469486507976,-0.37641834901709864,-0.4293189309704796,-1.0393228489231792,-0.2932787870418627,-0.0900032796491321
11398,8.0,300.46429,3239.5566,0.0,0.0,0.0,-0.11558875557643314,0.0,0.0,-0.19154691659670883,-0.3412747724161977,-0.4519226256587906,-1.0216694990559292,-0.25803143336571976,-0.043486471221280555
11399,8.0,301.0999,3285.395,0.0,0.0,0.0,-0.11559889672010538,0.0,0.0,-0.19475254607057982,-0.37283597289104564,-0.4310895348577246,-1.055783603422729,-0.2333308885229658,-0.1037770549769979
11400,8.0,300.65217,3515.2846,0.0,0.0,0.0,-0.11560903786377767,0.0,0.0,-0.25628820749617676,-0.3826712268417096,-0.4295993175381516,-1.037802264498109,-0.24974378722029278,-0.07160644434875583
11401,8.0,301.26462000000004,3593.2106,0.0,0.0,0.0,-0.11561917900744992,0.0,0.0,-0.26547378574772273,-0.40355843533061664,-0.4232140889854786,-1.066382604768769,-0.2661344552104258,-0.12928252569919188
11402,8.0,299.58056,3158.0267,0.0,0.0,0.0,-0.11562932015112218,0.0,0.0,-0.2013742064015868,-0.34325433887156565,-0.41533270546764656,-1.024861844820989,-0.23829947184582675,-0.0941113197945641
11403,8.0,299.25254,2983.8616,0.0,0.0,0.0,-0.11563946129479444,0.0,0.0,-0.12214446245471988,-0.3686449779599266,-0.41622995869619855,-1.035135390234909,-0.26532364234790473,-0.13278983012533588
11404,8.0,300.09767,3447.8733,0.0,0.0,0.0,-0.1156496024384667,0.0,0.0,-0.18720683204587582,-0.3877185903598456,-0.47314195726547553,-1.022049670493449,-0.26143965206458475,-0.07754813888215542
11405,8.0,299.60292999999996,3348.888,0.0,0.0,0.0,-0.11565974358213896,0.0,0.0,-0.18190571017269583,-0.39024318404400365,-0.44582943604993963,-1.043913378501229,-0.2745022494387627,-0.0962817015087641
11406,8.0,298.55568,3042.3815,0.0,0.0,0.0,-0.11566988472581123,0.0,0.0,-0.2010583256829118,-0.3612825710108137,-0.36246711104021867,-1.011646793836765,-0.25134518847333875,-0.09338950778107682
11407,8.0,300.3071,3063.9313,0.0,0.0,0.0,-0.11568002586948348,0.0,0.0,-0.2229373742972058,-0.34587494813519964,-0.3625462965355336,-1.039379388278759,-0.2515587511969158,-0.08652313843166892
11408,8.0,299.60579,3293.1346,0.0,0.0,0.0,-0.11569016701315575,0.0,0.0,-0.2138362099114908,-0.3695096551977637,-0.4176848338522836,-1.033564649929889,-0.28635398254593775,-0.07378614492412552
11409,8.0,300.34471,3386.9833,0.0,0.0,0.0,-0.115700308156828,0.0,0.0,-0.17358378577638583,-0.3950450471954106,-0.4609295273877026,-1.049557485533259,-0.2751260771278297,-0.0996882159209609
11410,8.0,300.23242999999997,3538.2811,0.0,0.0,0.0,-0.11571044930050027,0.0,0.0,-0.21567794395575582,-0.38074760192436263,-0.4791235779058156,-1.033894766812469,-0.2685877059550428,-0.08468306409106771
11411,8.0,301.0366,3584.7054,0.0,0.0,0.0,-0.11572059044417254,0.0,0.0,-0.24366588755545074,-0.37784371833027164,-0.4681513154879376,-1.041908764503389,-0.2559872823489778,-0.08523000940229701
11412,8.0,301.22145,3292.4551,0.0,0.0,0.0,-0.11573073158784479,0.0,0.0,-0.2729704686000877,-0.35560545229052565,-0.37224820677303766,-1.069370577988659,-0.2938093754567277,-0.09077172447197172
11413,8.0,300.3679,3390.8392,0.0,0.0,0.0,-0.11574087273151705,0.0,0.0,-0.26058074021981675,-0.38001736270979364,-0.39013232435056266,-1.037111835879969,-0.28375090250903373,-0.10400364809686088
11414,8.0,298.78532,3503.3886,0.0,0.0,0.0,-0.11575101387518931,0.0,0.0,-0.24394619306311474,-0.3639723953887786,-0.4570240663347635,-1.042808327942169,-0.2672362735016668,-0.06407156298087094
11415,8.0,299.67132000000004,3332.2275,0.0,0.0,0.0,-0.11576115501886157,0.0,0.0,-0.17323945299490282,-0.3806820446428926,-0.45899244650902754,-1.0045290057267942,-0.25044894849488675,-0.06321028317061923
11416,8.0,300.21027999999995,3040.2816,0.0,0.0,0.0,-0.11577129616253384,0.0,0.0,-0.16514209521825582,-0.34562404714543765,-0.4134035482047536,-1.036767229520959,-0.28629373469499175,-0.07541279535641343
11417,8.0,300.01967,3371.4022,0.0,0.0,0.0,-0.11578143730620609,0.0,0.0,-0.22309982868573877,-0.39064867660152264,-0.4110735897323046,-1.031856208936279,-0.26667539904131277,-0.07760309756757944
11418,8.0,299.98812999999996,3615.0765,0.0,0.0,0.0,-0.11579157844987836,0.0,0.0,-0.2823882939070547,-0.4171561199501036,-0.3993485838151366,-1.032582810582989,-0.24839249662193075,-0.09653690273195051
11419,8.0,299.91325,3443.5168,0.0,0.0,0.0,-0.11580171959355061,0.0,0.0,-0.24316396398591478,-0.4027958734378576,-0.4007832851617306,-1.042330783170039,-0.24855827447079176,-0.1190204401439029
11420,8.0,300.59046,3373.8977,0.0,0.0,0.0,-0.11581186073722288,0.0,0.0,-0.1991933578138538,-0.3831541114418667,-0.4432331853187096,-1.0662427762549689,-0.2839178658605117,-0.10026775850115731
11421,8.0,300.31787,3145.6689,0.0,0.0,0.0,-0.11582200188089516,0.0,0.0,-0.14754668299172385,-0.38059483420678564,-0.4280632911815576,-1.057866541653299,-0.29193068818131573,-0.1197123582396899
11422,8.0,298.7799,2846.2114,0.0,0.0,0.0,-0.1158321430245674,0.0,0.0,-0.10974831006881489,-0.34456403555332266,-0.4108648500792036,-1.039730276788389,-0.27851727322501474,-0.1110770457199509
11423,8.0,298.69633999999996,3218.4367,0.0,0.0,0.0,-0.11584228416823968,0.0,0.0,-0.22737183296235278,-0.35315141121083066,-0.39780114826241664,-1.011839220163256,-0.26742100925989876,-0.10305843774107591
11424,8.0,298.81638,3486.4439,0.0,0.0,0.0,-0.11585242531191192,0.0,0.0,-0.2888267788849837,-0.38274082699107864,-0.38822427308725266,-1.029501719678909,-0.28135377568745573,-0.10223145340695891
11425,8.0,299.56757000000005,3201.5816,0.0,0.0,0.0,-0.1158625664555842,0.0,0.0,-0.2161839509231948,-0.3701517213886307,-0.38686518046312063,-1.024123388148109,-0.26924041127195975,-0.12222209767738189
11426,8.0,299.04911,3206.5871,0.0,0.0,0.0,-0.11587270759925646,0.0,0.0,-0.14804891053628985,-0.4012135820816976,-0.4254599071696236,-1.022199226208209,-0.2411076539679728,-0.10296767079711791
11427,8.0,299.20692,3782.2334,0.0,0.0,0.0,-0.11588284874292872,0.0,0.0,-0.2296851741331618,-0.40411720223076264,-0.5159021450005775,-1.027076910864599,-0.2288677143499848,-0.06250696702445735
11428,8.0,300.26131000000004,3805.5419,0.0,0.0,0.0,-0.11589298988660098,0.0,0.0,-0.2542096971685438,-0.39585569793791564,-0.5067243282447975,-1.048850135638449,-0.26447807500695375,-0.057511798045472545
11429,8.0,299.49459,3242.8390000000004,0.0,0.0,0.0,-0.11590313103027323,0.0,0.0,-0.24543093883214778,-0.37665298734275565,-0.36365814600276464,-1.050351366986609,-0.2540508094203628,-0.09113907018972592
11430,8.0,299.7718,3129.1806,0.0,0.0,0.0,-0.1159132721739455,0.0,0.0,-0.2424946312348568,-0.3169046788285567,-0.3917934668295046,-1.039167416357839,-0.25041293758633276,-0.06976765278278123
11431,8.0,300.92686000000003,3242.0088,0.0,0.0,0.0,-0.11592341331761777,0.0,0.0,-0.21580648486344178,-0.36504191126683166,-0.4046413362424906,-1.045986792180859,-0.2676556678505578,-0.1108965250821349
11432,8.0,300.16347,3276.5328,0.0,0.0,0.0,-0.11593355446129001,0.0,0.0,-0.1939156217529818,-0.35130348620845464,-0.4507650380820456,-1.058239417690099,-0.2789123901015097,-0.07232221941814734
11433,8.0,300.47468,3452.3041,0.0,0.0,0.0,-0.11594369560496229,0.0,0.0,-0.19079809437530582,-0.36882010810721066,-0.4897960500166066,-1.064175138100909,-0.2965992076195627,-0.098868943433355
11434,8.0,299.93008,3273.7797,0.0,0.0,0.0,-0.11595383674863453,0.0,0.0,-0.18174822070965282,-0.3757311020042726,-0.4376679598069646,-1.0048499932259731,-0.24302514872221478,-0.07355210137627723
11435,8.0,299.62276,2982.1201,0.0,0.0,0.0,-0.11596397789230681,0.0,0.0,-0.2167557684846288,-0.3214307758327477,-0.3683034924112246,-1.045206285628829,-0.25934522357788076,-0.1059268170516629
11436,8.0,299.66744,3691.2862,0.0,0.0,0.0,-0.11597411903597907,0.0,0.0,-0.28507125858184273,-0.42011383752200754,-0.41687374741223565,-1.0047071350943741,-0.2642912620860168,-0.08602925804142672
11437,8.0,299.40013,3885.7405,0.0,0.0,0.0,-0.11598426017965133,0.0,0.0,-0.27545947694073375,-0.43339529691778556,-0.4723133010686935,-1.053319075204499,-0.2664752213515567,-0.11469358863937588
11438,8.0,299.11886,3116.4763,0.0,0.0,0.0,-0.11599440132332359,0.0,0.0,-0.13432681906952487,-0.36565692368002867,-0.4473472441697356,-1.001312281164328,-0.2174792999835358,-0.08882428513752441
11439,8.0,300.65991,2886.4440000000004,0.0,0.0,0.0,-0.11600454246699585,0.0,0.0,-0.1084052369287639,-0.3590698861049387,-0.4099317885921176,-1.039256177066599,-0.24232452680806876,-0.0971694342393765
11440,8.0,300.10226,3370.4999,0.0,0.0,0.0,-0.1160146836106681,0.0,0.0,-0.21352686465596082,-0.36113091786834667,-0.4498900256931886,-1.052987945071819,-0.27282247329048176,-0.06616885187260724
11441,8.0,300.04672999999997,3395.7099,0.0,0.0,0.0,-0.11602482475434038,0.0,0.0,-0.26139008386969276,-0.35775933829309764,-0.4130615965610056,-1.065347569791619,-0.27324495805217774,-0.07678927332576123
11442,8.0,300.13101,3175.2121,0.0,0.0,0.0,-0.11603496589801263,0.0,0.0,-0.2064574491057638,-0.3702754797558446,-0.3884522543597526,-1.044347454844069,-0.2374266278121838,-0.12923343373184687
11443,8.0,300.15463,3315.0579,0.0,0.0,0.0,-0.1160451070416849,0.0,0.0,-0.19783636261742882,-0.36075920706916165,-0.44909925491764563,-1.037871266829919,-0.2749364777691177,-0.09202725077688251
11444,8.0,299.98539,3379.2539,0.0,0.0,0.0,-0.11605524818535715,0.0,0.0,-0.17641484708578983,-0.4028971275203506,-0.44789681075897353,-1.049897734916839,-0.2982170741867337,-0.11900941598281489
11445,8.0,299.78032,3581.4996,0.0,0.0,0.0,-0.11606538932902942,0.0,0.0,-0.2144984195143458,-0.40264257883022864,-0.47154546014291354,-1.040635818402759,-0.27492248478523673,-0.06821903274069434
11446,8.0,300.17774,3673.0834,0.0,0.0,0.0,-0.11607553047270168,0.0,0.0,-0.2968478490616017,-0.36687714024545465,-0.45280063726794356,-1.018724082340239,-0.23691800665948676,-0.08027565109758991
11447,8.0,300.53989,3363.7968,0.0,0.0,0.0,-0.11608567161637394,0.0,0.0,-0.2638096339159837,-0.37307929477005963,-0.38562129437535864,-1.018518899194989,-0.24820212719314277,-0.04169689726566336
11448,8.0,300.94504,2976.6747,0.0,0.0,0.0,-0.1160958127600462,0.0,0.0,-0.18688532778914582,-0.3485901037656647,-0.3693593496779296,-1.0425309000647889,-0.3076942050220537,-0.08010274604752553
11449,8.0,300.97067000000004,3435.1972,0.0,0.0,0.0,-0.11610595390371846,0.0,0.0,-0.2065183657017758,-0.4044650509900926,-0.4332307451015456,-1.032514112226209,-0.29298912923577575,-0.08657651948668722
11450,8.0,301.23335,3734.0994,0.0,0.0,0.0,-0.11611609504739072,0.0,0.0,-0.23283564227158876,-0.41607492129839757,-0.48616242370049556,-1.0435973457950392,-0.24827605392043878,-0.08910802454977733
11451,8.0,301.56511,3334.1703,0.0,0.0,0.0,-0.11612623619106299,0.0,0.0,-0.17463218552235482,-0.3862396809113886,-0.45263267079886654,-1.0342339016209392,-0.25477719828455175,-0.08082701215275502
11452,8.0,300.55477,3059.1579,0.0,0.0,0.0,-0.11613637733473524,0.0,0.0,-0.2061803556009168,-0.36817323911086963,-0.35555401971544964,-1.067190469073499,-0.2808036011481577,-0.12354631423307189
11453,8.0,299.27303,3296.7032,0.0,0.0,0.0,-0.11614651847840751,0.0,0.0,-0.24878722846338777,-0.34971482150916566,-0.40361341428104264,-1.048321117761239,-0.25522970564671077,-0.09989729906584581
11454,8.0,300.2882,3336.7813,0.0,0.0,0.0,-0.11615665962207976,0.0,0.0,-0.23133757226374077,-0.3866880542131397,-0.39627258955905964,-1.040547159019009,-0.24138050195490077,-0.14593732772539286
11455,8.0,299.94825,3410.2247,0.0,0.0,0.0,-0.11616680076575203,0.0,0.0,-0.17332940933878083,-0.41987222803566265,-0.44342150798229557,-1.030804354007469,-0.23628042916656278,-0.12112423106153089
11456,8.0,299.05804,3459.0434,0.0,0.0,0.0,-0.11617694190942429,0.0,0.0,-0.18870555053378782,-0.4115161571109826,-0.45124111364153063,-1.0570194645696989,-0.2978477546577847,-0.1126730564824649
11457,8.0,299.52943,3174.2733,0.0,0.0,0.0,-0.11618708305309655,0.0,0.0,-0.18148182712586183,-0.36630326578631767,-0.4171147185510176,-1.006995347662703,-0.2754322002480417,-0.07191493847420184
11458,8.0,300.65751,3050.3011,0.0,0.0,0.0,-0.11619722419676881,0.0,0.0,-0.19573406117744782,-0.3456207642151137,-0.38586053285646965,-1.028642584919119,-0.23771130042777877,-0.09187544260715022
11459,8.0,300.55516,3579.0341,0.0,0.0,0.0,-0.11620736534044107,0.0,0.0,-0.27018861071553973,-0.38097376947918365,-0.43677461772379855,-1.008065876790856,-0.27604992817150675,-0.03625283214787597
11460,8.0,298.9424,3545.2679,0.0,0.0,0.0,-0.11621750648411333,0.0,0.0,-0.2221571210577008,-0.4094090933955316,-0.44610671193980456,-1.0613769466247491,-0.3122880377954297,-0.10586885914594289
11461,8.0,298.29554,3253.6686,0.0,0.0,0.0,-0.1162276476277856,0.0,0.0,-0.16313976103314085,-0.4050031171906956,-0.42089112193871964,-1.0484228480712792,-0.30071835298609073,-0.10146731084404391
11462,8.0,299.48967999999996,3327.5912,0.0,0.0,0.0,-0.11623778877145785,0.0,0.0,-0.1871977938549838,-0.3819012580907197,-0.4424055829020316,-1.0266732320247591,-0.25596853722212776,-0.13117590510105387
11463,8.0,298.86541,3424.9961,0.0,0.0,0.0,-0.11624792991513012,0.0,0.0,-0.2497192564353718,-0.36016655708567163,-0.43122745846133664,-1.052226284971649,-0.24658024815557578,-0.09141656291511233
11464,8.0,299.77566,3408.4983,0.0,0.0,0.0,-0.11625807105880237,0.0,0.0,-0.2625732762764647,-0.3648480765227016,-0.4086770100657806,-1.053201132892859,-0.2620871999384927,-0.08487884934164022
11465,8.0,299.89519,3273.3041,0.0,0.0,0.0,-0.11626821220247464,0.0,0.0,-0.2527295515549648,-0.3345597613534777,-0.4077133788231776,-1.051462091746229,-0.25494423256353677,-0.08212423167278061
11466,8.0,300.32728,3231.7189,0.0,0.0,0.0,-0.11627835334614692,0.0,0.0,-0.17792977757530182,-0.3713670642210756,-0.4330650179151896,-1.013879024337069,-0.20877752838973782,-0.06253846491706594
11467,8.0,300.88268,3193.1498,0.0,0.0,0.0,-0.11628849448981916,0.0,0.0,-0.16039348849210483,-0.36432953565152565,-0.44591477197336155,-1.030569178659259,-0.2589449796558797,-0.07329411878156634
11468,8.0,300.66106,3578.342,0.0,0.0,0.0,-0.11629863563349144,0.0,0.0,-0.18242925649936584,-0.4212020883944096,-0.48409528203898455,-1.032744626623959,-0.2953991243336237,-0.05754182672543615
11469,8.0,298.97173,3689.8304,0.0,0.0,0.0,-0.11630877677716368,0.0,0.0,-0.2622654711610868,-0.4006230903209206,-0.4587277551854046,-1.029156302719819,-0.2834934255261227,-0.0911321659035445
11470,8.0,300.10602,3270.8181,0.0,0.0,0.0,-0.11631891792083596,0.0,0.0,-0.23657293420543077,-0.35665356832646666,-0.4010205376726456,-0.995032835922095,-0.24615579768868576,-0.08523265499830811
11471,8.0,299.36559,2932.0423,0.0,0.0,0.0,-0.1163290590645082,0.0,0.0,-0.17852511267155682,-0.34701879604058866,-0.36572373739162267,-1.018349483778269,-0.26006040589596374,-0.13961510306393787
11472,8.0,299.88455,3415.0725,0.0,0.0,0.0,-0.11633920020818048,0.0,0.0,-0.18456471148261883,-0.4032623028563906,-0.45026974116816354,-1.042270494789089,-0.29424745413746267,-0.095080614091976
11473,8.0,299.65477999999996,3511.8496,0.0,0.0,0.0,-0.11634934135185272,0.0,0.0,-0.2089455860513238,-0.4094921697712306,-0.4490768316929326,-1.063276891887259,-0.2947943761439397,-0.12206858015473088
11474,8.0,300.26195,3172.4852,0.0,0.0,0.0,-0.11635948249552498,0.0,0.0,-0.15485675557317186,-0.39278072706443967,-0.4167187910744426,-1.036384322308169,-0.22274378273309978,-0.11725418309958688
11475,8.0,301.00199,3059.3131,0.0,0.0,0.0,-0.11636962363919726,0.0,0.0,-0.20844590176450878,-0.33703176735744567,-0.38447714249493964,-1.0598457230736291,-0.25117273330631873,-0.07891143750745253
11476,8.0,300.73118,3327.4693,0.0,0.0,0.0,-0.1163797647828695,0.0,0.0,-0.2586965003338567,-0.37316714355372965,-0.37960394653649265,-1.079047319093679,-0.2661751979969467,-0.07595619023929233
11477,8.0,300.07467,3597.0135,0.0,0.0,0.0,-0.11638990592654178,0.0,0.0,-0.25437219208708073,-0.4236298964290156,-0.4154002081893086,-1.079160296479829,-0.25600608827083376,-0.07482871037601874
11478,8.0,300.4496,3718.2025,0.0,0.0,0.0,-0.11640004707021402,0.0,0.0,-0.24537488583661576,-0.4081988066810856,-0.47666702396587257,-1.0340437145771688,-0.24344996395914076,-0.09255286008075611
11479,8.0,300.65557,3665.4204,0.0,0.0,0.0,-0.1164101882138863,0.0,0.0,-0.2108174034910578,-0.4125285358158966,-0.4908503164806545,-1.027593871065619,-0.26793532487815774,-0.04159626734523196
11480,8.0,300.42824,3182.6746,0.0,0.0,0.0,-0.11642032935755854,0.0,0.0,-0.14664881168061086,-0.38988790816144064,-0.43091688717318555,-1.024911392750879,-0.3234220554592717,-0.1017425095712039
11481,8.0,301.58741000000003,3341.0331,0.0,0.0,0.0,-0.11643047050123081,0.0,0.0,-0.2195729178701598,-0.37650029055268563,-0.4195174182481456,-1.0156070210576091,-0.3051938178827847,-0.060723724868715044
11482,8.0,300.26204,3674.4185,0.0,0.0,0.0,-0.11644061164490306,0.0,0.0,-0.2688778399886767,-0.41829499279750165,-0.4297586511163766,-1.0325250553272889,-0.26635359080955273,-0.1096078736049549
11483,8.0,299.97892,3372.53,0.0,0.0,0.0,-0.11645075278857533,0.0,0.0,-0.22821291160536075,-0.3751382595032636,-0.42181375708227664,-1.025146669424099,-0.2819886174051097,-0.09006358018908331
11484,8.0,299.65266,3094.5165,0.0,0.0,0.0,-0.11646089393224761,0.0,0.0,-0.15908200849017184,-0.40462997770886966,-0.3769437799889547,-1.0676332593671989,-0.3081097186230617,-0.13942450058762687
11485,8.0,300.22541,3346.6726,0.0,0.0,0.0,-0.11647103507591985,0.0,0.0,-0.1982170609450008,-0.3806948419916556,-0.4383929909160196,-1.032338819958909,-0.26321432921723176,-0.08545728139972701
11486,8.0,299.51072,3486.2243,0.0,0.0,0.0,-0.11648117621959213,0.0,0.0,-0.2104887456886218,-0.40745115982979857,-0.44178523066080755,-1.0425280629645088,-0.24153216522986876,-0.11268299646594589
11487,8.0,299.95396,3489.1042,0.0,0.0,0.0,-0.11649131736326437,0.0,0.0,-0.24998690644928676,-0.37280559565304766,-0.43780807203079264,-1.028903699469889,-0.23948937196826078,-0.07168654480891114
11488,8.0,300.0108,3494.968,0.0,0.0,0.0,-0.11650145850693665,0.0,0.0,-0.25546060507949875,-0.3975655473491646,-0.4093568502203756,-1.052496417448309,-0.2794550260600638,-0.10778257447731189
11489,8.0,300.26887999999997,3469.5488,0.0,0.0,0.0,-0.1165115996506089,0.0,0.0,-0.2112964681383378,-0.4070620109963926,-0.4362977112992316,-1.013718728171249,-0.26502765172869275,-0.09902309727706882
11490,8.0,300.8366,3192.2654,0.0,0.0,0.0,-0.11652174079428117,0.0,0.0,-0.17437124322410183,-0.37665135601009464,-0.41934636136626363,-1.035223137693569,-0.25217233492747176,-0.13037382645439488
11491,8.0,300.87332000000004,3337.1953,0.0,0.0,0.0,-0.11653188193795343,0.0,0.0,-0.17186056146381684,-0.36142094044446965,-0.4811425293925705,-1.029520262155739,-0.26277632146400376,-0.06622787065118194
11492,8.0,300.96526,3242.2529,0.0,0.0,0.0,-0.11654202308162567,0.0,0.0,-0.2065000258749658,-0.32429013721744465,-0.45477375945267556,-1.053281990250839,-0.29509643613125075,-0.07818289447355092
11493,8.0,299.78267,2889.2554,0.0,0.0,0.0,-0.11655216422529795,0.0,0.0,-0.1858275149497478,-0.3211219675997707,-0.37131202447564365,-1.010573022308292,-0.28143278893025375,-0.051962735899322744
11494,8.0,299.71412000000004,3131.2279,0.0,0.0,0.0,-0.11656230536897019,0.0,0.0,-0.2147441934586018,-0.3560123026031787,-0.38105859877755566,-1.026304510313369,-0.25956804740737177,-0.09595561634833201
11495,8.0,298.80421,3813.7039,0.0,0.0,0.0,-0.11657244651264247,0.0,0.0,-0.2754301230853367,-0.4002738635414546,-0.48356677078682453,-1.022780223815549,-0.26959410648436677,-0.07121466815784053
11496,8.0,298.5816,3830.1852,0.0,0.0,0.0,-0.11658258765631474,0.0,0.0,-0.27262580144607174,-0.4199236910082416,-0.4717311686212416,-1.062360001871769,-0.2934932110280247,-0.0937305951224895
11497,8.0,299.59216000000004,3653.2136,0.0,0.0,0.0,-0.11659272879998699,0.0,0.0,-0.23990861432963675,-0.39443172690988065,-0.4761453724168896,-1.037874103930199,-0.25834358532402674,-0.09095830535863582
11498,8.0,300.06592,3542.9272,0.0,0.0,0.0,-0.11660286994365926,0.0,0.0,-0.2189248937687048,-0.3866883784531716,-0.47134812968593853,-1.046102910642319,-0.21593395172602178,-0.09047244078993472
11499,8.0,300.04776,3305.6666,0.0,0.0,0.0,-0.1166130110873315,0.0,0.0,-0.24052298839527075,-0.3399814295910547,-0.42433568591867155,-1.034615086308559,-0.23105027533038677,-0.06555901818067134
11500,8.0,300.34159,3309.0312,0.0,0.0,0.0,-0.11662315223100378,0.0,0.0,-0.18658240653924982,-0.38100313346708164,-0.4382773284171046,-1.067991139302519,-0.2676169920942408,-0.08696444330072232
11501,8.0,300.31604,3335.8274,0.0,0.0,0.0,-0.11663329337467604,0.0,0.0,-0.23894337201937477,-0.3598776288196567,-0.41518722301828864,-1.022200138133299,-0.26300889275945677,-0.1016015259522899
11502,8.0,299.63923,3110.2408,0.0,0.0,0.0,-0.1166434345183483,0.0,0.0,-0.14837551144102287,-0.37370961739226766,-0.42335041165393256,-1.0143439034829491,-0.24652405330502974,-0.12676253217048788
11503,8.0,300.96877,2875.4927,0.0,0.0,0.0,-0.11665357566202056,0.0,0.0,-0.14498756787665887,-0.3443289108676177,-0.3847614908705026,-1.0249011589248689,-0.26848731313513474,-0.11413087006383989
11504,8.0,299.81727,3425.1072,0.0,0.0,0.0,-0.11666371680569282,0.0,0.0,-0.2233534958482738,-0.3856884120619826,-0.4321051660954595,-1.034616200883669,-0.2814702589189517,-0.10444394579531491
11505,8.0,299.50401,3885.1327,0.0,0.0,0.0,-0.11667385794936508,0.0,0.0,-0.30064366632121975,-0.4214112536125526,-0.4589284091027076,-1.036365779831339,-0.2764842780918737,-0.092978221459486
11506,8.0,299.8268,3391.6732,0.0,0.0,0.0,-0.11668399909303735,0.0,0.0,-0.2169541223242048,-0.3789143791809377,-0.4351154713475536,-1.0205635365717791,-0.24854142412162875,-0.09586750817263641
11507,8.0,299.91188999999997,3112.7264,0.0,0.0,0.0,-0.1166941402367096,0.0,0.0,-0.18066593788033983,-0.36202943765952367,-0.4034957050169256,-1.059520571116539,-0.28889696671941073,-0.10228709096994991
11508,8.0,299.94335,3474.2895,0.0,0.0,0.0,-0.11670428138038187,0.0,0.0,-0.20984759142284481,-0.37338544828777465,-0.47286422541306555,-1.047797571434569,-0.2973011264938367,-0.06302386744372145
11509,8.0,299.54239,3492.5179,0.0,0.0,0.0,-0.11671442252405412,0.0,0.0,-0.21201221787647678,-0.3949837759618636,-0.4546422497221965,-1.0347592717977891,-0.2736946080490547,-0.1090139367938379
11510,8.0,299.02722,3387.7797,0.0,0.0,0.0,-0.11672456366772639,0.0,0.0,-0.24629358956978478,-0.36260496371632367,-0.42090188265478157,-1.010460440089681,-0.22749208548422076,-0.07890899861446182
11511,8.0,299.69804,3257.6718,0.0,0.0,0.0,-0.11673470481139865,0.0,0.0,-0.21989941744988278,-0.35652730723150566,-0.4138241584537646,-1.0385977671516191,-0.24986828526007973,-0.08452773386398782
11512,8.0,300.80748,3101.7914,0.0,0.0,0.0,-0.11674484595507091,0.0,0.0,-0.18127581311552982,-0.36891606289168066,-0.3926752578615306,-1.0780736870725889,-0.2857965531359237,-0.06193876879238054
11513,8.0,300.38343,3304.0526,0.0,0.0,0.0,-0.11675498709874317,0.0,0.0,-0.2156285480133808,-0.36356162379823864,-0.4251593265274586,-1.067340430088299,-0.27154834168723474,-0.11673634137097988
11514,8.0,299.96655,3810.3279,0.0,0.0,0.0,-0.11676512824241543,0.0,0.0,-0.24068369999363176,-0.4251342992499886,-0.49242652833621453,-1.046413674447989,-0.25903996172025373,-0.09912658962903272
11515,8.0,300.08494,3528.426,0.0,0.0,0.0,-0.11677526938608769,0.0,0.0,-0.2267770551536528,-0.38828040714279266,-0.45749593690633356,-1.027113590518219,-0.2749475728577127,-0.09948112178602231
11516,8.0,300.44622000000004,3051.1363,0.0,0.0,0.0,-0.11678541052975996,0.0,0.0,-0.2018967698756598,-0.3302236588755377,-0.3953488398403926,-1.066164958647289,-0.2903501902778327,-0.1044698444678709
11517,8.0,299.7081,3377.2698,0.0,0.0,0.0,-0.11679555167343221,0.0,0.0,-0.22850721009690578,-0.39128719641703963,-0.40681126199414563,-1.0347121556681391,-0.25120379955438477,-0.0991780333498598
11518,8.0,299.78212,3562.1482,0.0,0.0,0.0,-0.11680569281710448,0.0,0.0,-0.25205464592835675,-0.37332116770143065,-0.45742828219715653,-1.071792651027699,-0.24876631498132376,-0.09238418028360872
11519,8.0,299.47863,3342.0299,0.0,0.0,0.0,-0.11681583396077673,0.0,0.0,-0.17736958199251485,-0.39092007564080766,-0.44760398148007363,-1.0472803072585188,-0.27727084387950174,-0.08411906983365583
11520,8.0,300.00109,3285.0906,0.0,0.0,0.0,-0.116825975104449,0.0,0.0,-0.16401500646952083,-0.38720774005692865,-0.4473627772937686,-1.0589805088132391,-0.2939425671823727,-0.1098253677389199
11521,8.0,299.49347,3453.1779,0.0,0.0,0.0,-0.11683611624812126,0.0,0.0,-0.1991557662351438,-0.3738235168360086,-0.4767005726766835,-0.997261388324536,-0.27113339550628274,-0.09365245023502722
11522,8.0,298.76197,3445.7576,0.0,0.0,0.0,-0.11684625739179352,0.0,0.0,-0.2553750969035598,-0.39567508610759067,-0.39637407668907565,-1.0260963887428292,-0.23983601495997176,-0.12687644174672988
11523,8.0,299.87861000000004,3434.1929999999998,0.0,0.0,0.0,-0.11685639853546578,0.0,0.0,-0.22377206946458378,-0.4044055529442206,-0.41573129779198464,-1.048408054619819,-0.2753049866979867,-0.09234828285906592
11524,8.0,300.45562,3370.6952,0.0,0.0,0.0,-0.11686653967913804,0.0,0.0,-0.25420215858779976,-0.38112455122656463,-0.38928044446148863,-1.080933788129859,-0.29430100440524776,-0.08511145306109642
11525,8.0,299.70193,3146.5237,0.0,0.0,0.0,-0.1168766808228103,0.0,0.0,-0.17229113196131085,-0.3695297276822446,-0.4146437764596546,-1.060423478280649,-0.25968840125424975,-0.1030579919110319
11526,8.0,300.01921,3312.0622,0.0,0.0,0.0,-0.11688682196648258,0.0,0.0,-0.2025363941337858,-0.36588861344789464,-0.4383591990251846,-1.0326977131443291,-0.24197095318567377,-0.1054869550507519
11527,8.0,299.86812000000003,3746.1241,0.0,0.0,0.0,-0.11689696311015482,0.0,0.0,-0.23662852110591676,-0.4208718904518216,-0.48122777412348355,-1.046109800742999,-0.25393716328914673,-0.08944492210202651
11528,8.0,300.63674,3782.8756,0.0,0.0,0.0,-0.1169071042538271,0.0,0.0,-0.2768113450916527,-0.4116517806368676,-0.4614365881352455,-1.066912737221089,-0.27516196644637175,-0.06816241739135684
11529,8.0,300.36009,3545.1625,0.0,0.0,0.0,-0.11691724539749934,0.0,0.0,-0.2591367372373048,-0.3971278942334716,-0.42137625595409856,-1.0621460034506491,-0.25698546541999073,-0.09721419861554441
11530,8.0,299.34535,3330.3937,0.0,0.0,0.0,-0.11692738654117162,0.0,0.0,-0.2178206436772238,-0.3780334088814926,-0.4165024925755956,-1.048080876162529,-0.25533483034458576,-0.06373940541258953
11531,8.0,299.41395,3412.3185,0.0,0.0,0.0,-0.11693752768484389,0.0,0.0,-0.18094114674000084,-0.39472464738128965,-0.46159383441826457,-1.055763135770709,-0.27645817676929774,-0.08021630807898322
11532,8.0,299.39474,3472.7147,0.0,0.0,0.0,-0.11694766882851614,0.0,0.0,-0.16593106240862085,-0.40809954870128967,-0.48158793387152854,-1.041615428599439,-0.29124085738073474,-0.0913148255123216
11533,8.0,299.12396,3504.6388,0.0,0.0,0.0,-0.11695780997218841,0.0,0.0,-0.23826547730497175,-0.3955749060702036,-0.4314823009939876,-0.996048173317301,-0.25612259176733176,-0.09682118423300691
11534,8.0,299.04438999999996,3262.3036,0.0,0.0,0.0,-0.11696795111586065,0.0,0.0,-0.22975482494503577,-0.36593523308499565,-0.39596877664907565,-1.018422640435489,-0.25836313091845575,-0.0999728135560485
11535,8.0,299.60828,3109.0361,0.0,0.0,0.0,-0.11697809225953291,0.0,0.0,-0.22145645861355082,-0.37781340188727963,-0.3457994812677517,-1.053118654334719,-0.2784154213249627,-0.09052226432385192
11536,8.0,301.07117,3606.4367,0.0,0.0,0.0,-0.11698823340320519,0.0,0.0,-0.24797349744057876,-0.4080934793331906,-0.44019974756683256,-1.078759252090249,-0.2951453659785797,-0.08457935591683252
11537,8.0,300.7165,3948.6689,0.0,0.0,0.0,-0.11699837454687743,0.0,0.0,-0.2769944799147267,-0.42920957088718664,-0.4940926762706505,-1.065817616513009,-0.25555550608386474,-0.097913945081604
11538,8.0,299.62976000000003,3551.0831,0.0,0.0,0.0,-0.11700851569054971,0.0,0.0,-0.2059344600666488,-0.38877964559956363,-0.48472647605627855,-1.033461602394719,-0.23584708236379479,-0.10497117021984789
11539,8.0,300.86732,3197.0601,0.0,0.0,0.0,-0.11701865683422195,0.0,0.0,-0.1883012738763888,-0.35672424252094165,-0.4268009031469696,-1.0463780080444691,-0.24865847477318076,-0.1029726357226079
11540,8.0,301.26461,3432.5509,0.0,0.0,0.0,-0.11702879797789423,0.0,0.0,-0.21339002522995582,-0.3880600556435456,-0.44195968193052454,-1.0267762795599291,-0.24510111579209676,-0.08807820781064232
11541,8.0,300.30383,3578.8881,0.0,0.0,0.0,-0.1170389391215665,0.0,0.0,-0.2766652141622308,-0.38071971728161064,-0.4305076962528016,-1.039002864541599,-0.23839480854773576,-0.1075420694335759
11542,8.0,299.87968,3531.6631,0.0,0.0,0.0,-0.11704908026523875,0.0,0.0,-0.2357960854862618,-0.4112122023459846,-0.4265291089401456,-1.0088605080492798,-0.2690194112926488,-0.08640237725825073
11543,8.0,299.68032999999997,3153.0494,0.0,0.0,0.0,-0.11705922140891102,0.0,0.0,-0.16759100925244486,-0.37067826693559663,-0.42017898950343757,-1.039610915926609,-0.2946414969688517,-0.0963249672880341
11544,8.0,300.56852000000003,3149.7975,0.0,0.0,0.0,-0.11706936255258327,0.0,0.0,-0.16774469902761283,-0.36192323891654266,-0.4277918313472666,-0.99970244967045,-0.2976387211621547,-0.07902040343645662
11545,8.0,300.08871,3356.7940000000003,0.0,0.0,0.0,-0.11707950369625554,0.0,0.0,-0.2030067144327028,-0.39503016255144163,-0.4223446900021756,-1.0311779393193392,-0.25407748829549576,-0.1107609116887509
11546,8.0,298.8454,3729.5931,0.0,0.0,0.0,-0.1170896448399278,0.0,0.0,-0.2945186403942267,-0.3887844686700397,-0.45040006539602556,-1.0257822812118291,-0.2695739934698817,-0.07266884619785673
11547,8.0,298.86891,3511.0132,0.0,0.0,0.0,-0.11709978598360006,0.0,0.0,-0.26434664633648275,-0.3722909861922596,-0.43062272040415356,-1.084663055122909,-0.2837286110068337,-0.09884901280388801
11548,8.0,299.67959,3173.1647,0.0,0.0,0.0,-0.11710992712727232,0.0,0.0,-0.21108294594476482,-0.3624376558598117,-0.39104222294036267,-1.066570866637349,-0.2838090731972747,-0.09217594725555772
11549,8.0,299.96272999999997,3513.0462,0.0,0.0,0.0,-0.11712006827094458,0.0,0.0,-0.2064599720985128,-0.38244594081447564,-0.4789724111233966,-1.0484799953769188,-0.23588457261749476,-0.1079200218533769
11550,8.0,299.49316,3781.5787,0.0,0.0,0.0,-0.11713020941461684,0.0,0.0,-0.2788174890971437,-0.38964799080276263,-0.4810400290124545,-1.051728576522529,-0.2437131050101108,-0.08463859254417871
11551,8.0,299.60887,3476.9258,0.0,0.0,0.0,-0.11714035055828911,0.0,0.0,-0.1991774599197848,-0.38547080647050663,-0.47225034783998054,-1.0501573295924589,-0.24853344984334175,-0.09877348311493381
11552,8.0,300.42007,3136.1189,0.0,0.0,0.0,-0.11715049170196136,0.0,0.0,-0.19456687812225582,-0.35870335301376466,-0.40003161570754664,-1.0614295343049391,-0.27424108422548776,-0.08758262212048182
11553,8.0,300.50449,3219.7155,0.0,0.0,0.0,-0.11716063284563363,0.0,0.0,-0.19349595382656382,-0.3856797487736276,-0.3995374131037726,-1.0479677974513688,-0.2347072469288018,-0.09741571886168292
11554,8.0,299.6971,3339.0312,0.0,0.0,0.0,-0.11717077398930588,0.0,0.0,-0.2270043879460888,-0.37170181165661265,-0.4162758994557326,-1.062889526374029,-0.27746646194380775,-0.09157699485644573
11555,8.0,299.17814,3511.593,0.0,0.0,0.0,-0.11718091513297815,0.0,0.0,-0.2147706595512138,-0.39794094637871363,-0.4547249714603606,-1.0456745085000392,-0.28947485364894376,-0.06499497528725463
11556,8.0,298.66691000000003,3482.716,0.0,0.0,0.0,-0.11719105627665041,0.0,0.0,-0.21589263138694378,-0.40110952129642763,-0.4416565377656066,-1.0096938657265262,-0.2990033461318327,-0.07899198886390232
11557,8.0,299.46477999999996,3384.935,0.0,0.0,0.0,-0.11720119742032267,0.0,0.0,-0.2004743491202778,-0.3809957367413517,-0.44746564244392056,-1.012358804682035,-0.26086439958531177,-0.09356829778772201
11558,8.0,299.22056000000003,3492.3548,0.0,0.0,0.0,-0.11721133856399493,0.0,0.0,-0.24283750493619577,-0.40108649012165465,-0.41766463977779056,-1.036820526476219,-0.2641815271001868,-0.12018949771177989
11559,8.0,299.86643,3828.2537,0.0,0.0,0.0,-0.11722147970766719,0.0,0.0,-0.2978320898112387,-0.3957963113495546,-0.47006513214431656,-1.0748692836313387,-0.2615101945365468,-0.09595798634031591
11560,8.0,300.46191,3698.5612,0.0,0.0,0.0,-0.11723162085133945,0.0,0.0,-0.25687660182924676,-0.3911892556623736,-0.47620439423521455,-1.059817352070829,-0.25679288710598475,-0.12092295906166689
11561,8.0,299.66767000000004,3044.5806,0.0,0.0,0.0,-0.11724176199501173,0.0,0.0,-0.14687669162810085,-0.37473956585391566,-0.4038602116078996,-1.063518653361119,-0.2369697229445908,-0.12307615605417087
11562,8.0,300.50611000000004,2973.637,0.0,0.0,0.0,-0.11725190313868397,0.0,0.0,-0.17222253492954082,-0.3499240373898137,-0.38176482396475464,-1.038637283905519,-0.26714010593467574,-0.12330585985184088
11563,8.0,299.87234,3292.1393,0.0,0.0,0.0,-0.11726204428235625,0.0,0.0,-0.1881157781805818,-0.4119942389056656,-0.40061811526292956,-1.067884342741979,-0.2783547175114717,-0.10454405490519492
11564,8.0,300.02917,3304.5777,0.0,0.0,0.0,-0.11727218542602849,0.0,0.0,-0.22996653342092976,-0.3988484435657766,-0.3756941285081236,-1.034485288970749,-0.27476171239186975,-0.09161370490756872
11565,8.0,300.05869,3337.4358,0.0,0.0,0.0,-0.11728232656970076,0.0,0.0,-0.20159855010622782,-0.4084878261396096,-0.4044107610497346,-1.059908341929809,-0.24241375361187478,-0.07996866975454323
11566,8.0,299.88255,3356.5245,0.0,0.0,0.0,-0.11729246771337302,0.0,0.0,-0.21671232032034077,-0.3917250420502516,-0.41186226308014057,-1.043794422939489,-0.27264392849036073,-0.07366881664204614
11567,8.0,299.72251,3605.8333,0.0,0.0,0.0,-0.11730260885704528,0.0,0.0,-0.2336245689319498,-0.3906290195495826,-0.47182970719346656,-1.0709647243709888,-0.2876248109538587,-0.07614698523312233
11568,8.0,300.01833,3973.014,0.0,0.0,0.0,-0.11731275000071754,0.0,0.0,-0.2933066615521137,-0.40959052595843765,-0.5047998521973666,-1.047039559034759,-0.2882340883714898,-0.04482678629455936
11569,8.0,298.82448999999997,3902.1129,0.0,0.0,0.0,-0.1173228911443898,0.0,0.0,-0.2851143825060987,-0.43977340232225554,-0.4612571111450326,-1.0437275484328892,-0.2702677860783537,-0.11415863311657991
11570,8.0,298.32796,3206.1654,0.0,0.0,0.0,-0.11733303228806206,0.0,0.0,-0.2134700213253508,-0.36167865047490366,-0.3994455619822076,-1.054422909863439,-0.27350176629002276,-0.0975172222037005
11571,8.0,299.58635,2848.8565,0.0,0.0,0.0,-0.11734317343173434,0.0,0.0,-0.15704323783146085,-0.35425322950207166,-0.35468477271966165,-1.099353357722729,-0.2703421181056898,-0.13277271633114687
11572,8.0,299.86484,3141.0702,0.0,0.0,0.0,-0.11735331457540658,0.0,0.0,-0.17189029022175084,-0.35316803864497165,-0.42974859967538453,-1.061011568638689,-0.24700148661964877,-0.07679778867960163
11573,8.0,300.15403,3237.6705,0.0,0.0,0.0,-0.11736345571907886,0.0,0.0,-0.19089343107721482,-0.37614710196532863,-0.41713045432507057,-1.0547260742933589,-0.23225117934890677,-0.11996278300190488
11574,8.0,300.15373,3226.2864,0.0,0.0,0.0,-0.1173735968627511,0.0,0.0,-0.18612071913118483,-0.40758913409591563,-0.3870006621339916,-1.0155758129545291,-0.2523886232938178,-0.0987725843620951
11575,8.0,300.43182,3425.7634,0.0,0.0,0.0,-0.11738373800642338,0.0,0.0,-0.22518277704880976,-0.4119697689157506,-0.4041939964558416,-1.0472153579271088,-0.27359774133949477,-0.1016979670968079
11576,8.0,300.10688,3931.92,0.0,0.0,0.0,-0.11739387915009565,0.0,0.0,-0.26991905579143677,-0.4478008661070046,-0.4774855679266565,-1.038136535706099,-0.24738653179014974,-0.06852384471527694
11577,8.0,300.27257000000003,4086.4434,0.0,0.0,0.0,-0.1174040202937679,0.0,0.0,-0.27466388309471473,-0.4621888554069886,-0.5053240064740966,-1.048416160620619,-0.24423039958366374,-0.0962158280932629
11578,8.0,299.97512,3826.4207,0.0,0.0,0.0,-0.11741416143744016,0.0,0.0,-0.24919591275872174,-0.3993725167824986,-0.5145679276664005,-1.037217213890369,-0.26507112015798273,-0.05111291594770205
11579,8.0,299.77737,3188.5077,0.0,0.0,0.0,-0.11742430258111242,0.0,0.0,-0.18559034349884082,-0.3456163363121767,-0.43802005408421363,-1.0492769165805689,-0.26474054731285773,-0.1001731695778221
11580,8.0,299.92529,2822.7402,0.0,0.0,0.0,-0.11743444372478468,0.0,0.0,-0.17407971090532984,-0.2943262849952427,-0.38963653094413164,-1.027649903796149,-0.27041445403032877,-0.07260543903309893
11581,8.0,300.53005,3219.8822,0.0,0.0,0.0,-0.11744458486845694,0.0,0.0,-0.2097466717128848,-0.3578410366486607,-0.4111760799799196,-1.027195055826259,-0.2635263393205247,-0.1426374862572239
11582,8.0,300.56616,3591.0466,0.0,0.0,0.0,-0.1174547260121292,0.0,0.0,-0.24937720346661377,-0.3994781582379246,-0.44273314639435957,-1.052057781480019,-0.3024062250026707,-0.09509030785568272
11583,8.0,299.01637999999997,3216.4581,0.0,0.0,0.0,-0.11746486715580146,0.0,0.0,-0.17356688476471785,-0.3847769226695256,-0.4193791602720006,-1.067775215706209,-0.27447907640897573,-0.13743606819388388
11584,8.0,299.58682000000005,3117.6469,0.0,0.0,0.0,-0.11747500829947372,0.0,0.0,-0.15364076426066284,-0.3586895424149017,-0.43535651341384257,-1.0794630556097091,-0.25450634640032077,-0.06517061104633853
11585,8.0,300.41115,3623.6247,0.0,0.0,0.0,-0.11748514944314598,0.0,0.0,-0.23024061757297976,-0.4066244490732086,-0.4646263602450515,-1.036788406448049,-0.2551685357381738,-0.09556416135769841
11586,8.0,300.15618,3854.558,0.0,0.0,0.0,-0.11749529058681824,0.0,0.0,-0.26616304912824773,-0.4324408355885876,-0.47308550910240454,-1.061341280221229,-0.25963653298163075,-0.05129033401371186
11587,8.0,301.01422,3486.2226,0.0,0.0,0.0,-0.11750543173049051,0.0,0.0,-0.23756316326315877,-0.4039290416871926,-0.4182324144713256,-1.0519457160189591,-0.26961078458101273,-0.08337556413552752
11588,8.0,300.37699,3123.2066,0.0,0.0,0.0,-0.11751557287416275,0.0,0.0,-0.21652620654197277,-0.32037249689830366,-0.4124781266234216,-1.056235715617349,-0.2579036422631078,-0.05931878267755804
11589,8.0,299.61926,3244.6240000000003,0.0,0.0,0.0,-0.11752571401783503,0.0,0.0,-0.19676064564876383,-0.34702546322624667,-0.4424985587312075,-1.038744587091109,-0.2610416474253047,-0.08587862625506051
11590,8.0,299.59185,3532.9137,0.0,0.0,0.0,-0.11753585516150727,0.0,0.0,-0.22184249676914977,-0.3848152336558066,-0.4672598073874525,-1.0188241914501188,-0.2858256334137937,-0.1103396326946739
11591,8.0,298.86114,3730.8465,0.0,0.0,0.0,-0.11754599630517955,0.0,0.0,-0.23605780798709175,-0.4115742264742136,-0.48645214230158856,-1.045063518689739,-0.26965279393015873,-0.09788376745387571
11592,8.0,298.50042,3386.4951,0.0,0.0,0.0,-0.1175561374488518,0.0,0.0,-0.22387746773998576,-0.37746759989315165,-0.42806489211671556,-1.030896965066609,-0.2537591251140758,-0.15245379243101784
11593,8.0,299.6533,3031.3623,0.0,0.0,0.0,-0.11756627859252407,0.0,0.0,-0.16540816456201482,-0.3832493974812706,-0.37280087390758165,-1.0337291004211189,-0.2637786487279258,-0.11690751984287388
11594,8.0,299.16631,3090.1774,0.0,0.0,0.0,-0.11757641973619631,0.0,0.0,-0.19178599295780382,-0.38531183766231764,-0.3622389271176986,-1.0475555059856791,-0.26433232911256976,-0.14850164081347086
11595,8.0,300.12689,3576.4725,0.0,0.0,0.0,-0.11758656087986859,0.0,0.0,-0.21146346188731882,-0.42429372723203057,-0.4514011564948256,-1.0649225113746688,-0.29356844484794975,-0.05029915554064015
11596,8.0,300.77378999999996,3368.0727,0.0,0.0,0.0,-0.11759670202354085,0.0,0.0,-0.21754588064760677,-0.37446717382953265,-0.4317969455475406,-1.038656029032369,-0.25097544337934774,-0.06631746019852373
11597,8.0,300.62315,3226.7084,0.0,0.0,0.0,-0.11760684316721311,0.0,0.0,-0.17575735922840083,-0.37450394467566167,-0.4305774889196896,-1.021107246575439,-0.2255287715604568,-0.04169113896534506
11598,8.0,300.56832,3562.7379,0.0,0.0,0.0,-0.11761698431088537,0.0,0.0,-0.2558644561718557,-0.38676805030853467,-0.44035085355424564,-1.005704406240297,-0.25184853059301476,-0.08339049336250091
11599,8.0,300.12091000000004,3905.1799,0.0,0.0,0.0,-0.11762712545455763,0.0,0.0,-0.2761358315149848,-0.43083651617525365,-0.48010480930265553,-1.035185546114859,-0.28598471367949374,-0.07914228121148502
11600,8.0,299.64842999999996,3830.3173,0.0,0.0,0.0,-0.11763726659822989,0.0,0.0,-0.2853799756223107,-0.4001294855347056,-0.4788113651525025,-1.057268622769289,-0.2662527825571037,-0.1019952040136429
11601,8.0,300.79213,3593.1867,0.0,0.0,0.0,-0.11764740774190216,0.0,0.0,-0.2206379754477728,-0.3962747173842696,-0.47532633196355656,-1.040780814492069,-0.3005962056865357,-0.12166337130723988
11602,8.0,299.73977,3134.551,0.0,0.0,0.0,-0.1176575488855744,0.0,0.0,-0.1906996469955898,-0.3620549310320397,-0.4000706562338996,-1.051153455765769,-0.2962469005597927,-0.1126463978723339
11603,8.0,299.82383,3036.1495,0.0,0.0,0.0,-0.11766769002924668,0.0,0.0,-0.14763098540004385,-0.3864635382559816,-0.3888191015584576,-1.055762933120689,-0.3191441338020737,-0.11875286105749487
11604,8.0,298.37434,3279.8823,0.0,0.0,0.0,-0.11767783117291893,0.0,0.0,-0.2085977170269918,-0.38350938732442963,-0.40489519592254464,-1.044439863253189,-0.2423053763811788,-0.09050152309430493
11605,8.0,298.89023,3443.9314,0.0,0.0,0.0,-0.1176879723165912,0.0,0.0,-0.2219237594271698,-0.39585306348765564,-0.4290923277181156,-1.055263502146399,-0.25084186661866475,-0.0898421657904814
11606,8.0,299.52983,3330.2325,0.0,0.0,0.0,-0.11769811346026347,0.0,0.0,-0.2093299624767588,-0.40220743857478364,-0.40077012304293164,-1.051040782354649,-0.24629071193950078,-0.08102670145596283
11607,8.0,301.069,3323.1948,0.0,0.0,0.0,-0.11770825460393572,0.0,0.0,-0.1870977658051118,-0.3878914406944046,-0.4351790426588276,-1.043719239782069,-0.2992402744027157,-0.06386764538499584
11608,8.0,299.4508,3788.7917,0.0,0.0,0.0,-0.11771839574760799,0.0,0.0,-0.25205917515630377,-0.4067988496804206,-0.4928400458345255,-1.0322715401522689,-0.2371329271381978,-0.05766999171733504
11609,8.0,300.47056000000003,3970.5793,0.0,0.0,0.0,-0.11772853689128024,0.0,0.0,-0.26811093125298874,-0.4173572196974506,-0.5214888108844385,-1.012730951178763,-0.26555547397078477,-0.07455541250604633
11610,8.0,299.87393,3543.909,0.0,0.0,0.0,-0.11773867803495251,0.0,0.0,-0.2291645966292848,-0.3998467279617996,-0.44824853013368554,-1.042831835344489,-0.25954322277992176,-0.12403174209097988
11611,8.0,300.72085,3159.9126,0.0,0.0,0.0,-0.11774881917862477,0.0,0.0,-0.1960045178941398,-0.34906508501504163,-0.4154649346056966,-1.032071119282489,-0.29171343722737475,-0.11451310853156389
11612,8.0,300.63444,3111.2540000000004,0.0,0.0,0.0,-0.11775896032229703,0.0,0.0,-0.17941497930687983,-0.34828808430835767,-0.41804045423988057,-1.053270236549679,-0.24270725163584078,-0.1276753590530769
11613,8.0,300.73642,3234.7326,0.0,0.0,0.0,-0.11776910146596929,0.0,0.0,-0.1966070268011028,-0.36811041760466967,-0.41856051498620667,-1.016438392764659,-0.24932835467929274,-0.13248150825240687
11614,8.0,299.83981,3393.6688,0.0,0.0,0.0,-0.11777924260964155,0.0,0.0,-0.20934679256091981,-0.39488564268967863,-0.4273581299069636,-1.0712063845198387,-0.2837089843523967,-0.09425659047465121
11615,8.0,302.08577,3403.3424,0.0,0.0,0.0,-0.11778938375331381,0.0,0.0,-0.21584292133703778,-0.39558721705891864,-0.42310096974431455,-1.031447261195919,-0.3235968512340227,-0.07801541436452192
11616,8.0,301.06241,3382.4347,0.0,0.0,0.0,-0.11779952489698609,0.0,0.0,-0.21579772025007682,-0.4006995704384686,-0.41167841898199664,-1.053207820343519,-0.25739067426748174,-0.051296401355310654
11617,8.0,300.83189,3852.4988,0.0,0.0,0.0,-0.11780966604065833,0.0,0.0,-0.2569528488992718,-0.42116390913064156,-0.49294670054005146,-1.0131143346191,-0.24376786104551476,-0.05770474112951454
11618,8.0,300.65119,4015.1876,0.0,0.0,0.0,-0.1178198071843306,0.0,0.0,-0.27873896221439376,-0.4427172687652926,-0.4990605503184415,-1.084621106568769,-0.25443458802823876,-0.07319424373245943
11619,8.0,300.27581000000004,3483.7707,0.0,0.0,0.0,-0.11782994832800285,0.0,0.0,-0.2078584092240278,-0.38852749831217864,-0.46259339550941353,-1.054596783580599,-0.2931002422417417,-0.07483801505168702
11620,8.0,299.46589,3070.3886,0.0,0.0,0.0,-0.11784008947167512,0.0,0.0,-0.16311534170573086,-0.3739798613264386,-0.3962262637644876,-1.0376337610064792,-0.24821976787738378,-0.10768889950556691
11621,8.0,300.85881,3125.8131,0.0,0.0,0.0,-0.11785023061534738,0.0,0.0,-0.18692461149552284,-0.3497517342103087,-0.4134927851410606,-1.012596401697984,-0.2687457729706427,-0.1056602512153549
11622,8.0,298.73562000000004,3114.2503,0.0,0.0,0.0,-0.11786037175901964,0.0,0.0,-0.2043759294253338,-0.36500559638324764,-0.37727281269392765,-1.050325022484009,-0.28866523642154074,-0.15656132595139985
11623,8.0,299.69277,3314.118,0.0,0.0,0.0,-0.1178705129026919,0.0,0.0,-0.1932672835439958,-0.3901344015132676,-0.42400743341627556,-1.067817265585359,-0.32460566329858465,-0.11326798627867989
11624,8.0,299.59564,3262.9568,0.0,0.0,0.0,-0.11788065404636416,0.0,0.0,-0.21125865364460578,-0.35882422361819366,-0.4217745037734026,-1.0455966908923588,-0.23774855763395575,-0.12118745786777088
11625,8.0,299.92089,3254.0992,0.0,0.0,0.0,-0.11789079519003642,0.0,0.0,-0.19141791972647781,-0.38374727818290766,-0.4139997242985916,-1.045799746212399,-0.22478198597175478,-0.06754265688819124
11626,8.0,300.95451,3556.1625,0.0,0.0,0.0,-0.1179009363337087,0.0,0.0,-0.23667223271523077,-0.4078988339889806,-0.4364135257856616,-1.0607301890859189,-0.23746242593821676,-0.0974498106745475
11627,8.0,302.27164,4028.5892,0.0,0.0,0.0,-0.11791107747738094,0.0,0.0,-0.3017991868677607,-0.4400214459467356,-0.4827698799806775,-1.046306371262399,-0.2814245816044437,-0.023733567848320775
11628,8.0,300.6736,3756.0046,0.0,0.0,0.0,-0.11792121862105322,0.0,0.0,-0.2737056626076457,-0.4326012229469166,-0.4354247456755766,-1.0302239643501891,-0.24802117085778377,-0.07928153521247833
11629,8.0,300.28693,3395.2342,0.0,0.0,0.0,-0.11793135976472546,0.0,0.0,-0.18472527109346484,-0.38945147094586763,-0.4578896858951936,-1.001385022389007,-0.2734291973178607,-0.07836236639751343
11630,8.0,300.05704,3435.1849,0.0,0.0,0.0,-0.11794150090839774,0.0,0.0,-0.21303102058702478,-0.37109417570414366,-0.4600852367418775,-1.044199621654479,-0.28223049033648073,-0.12374794087047088
11631,8.0,299.15058999999997,3541.5524,0.0,0.0,0.0,-0.11795164205207,0.0,0.0,-0.19066502423967283,-0.39502216800815265,-0.4908562845237435,-1.0589635875365688,-0.2865869490089297,-0.11631753470714688
11632,8.0,299.57012000000003,3108.3637,0.0,0.0,0.0,-0.11796178319574226,0.0,0.0,-0.1867569793989788,-0.3503503117068837,-0.40775765785254764,-1.052432481366999,-0.25867291187152874,-0.13142772814840686
11633,8.0,299.70852,2911.2912,0.0,0.0,0.0,-0.11797192433941452,0.0,0.0,-0.17618867953096884,-0.3483655067484987,-0.3604056334467667,-1.0339575883186691,-0.2694996006475398,-0.1108642935964539
11634,8.0,298.87908,3146.6373,0.0,0.0,0.0,-0.11798206548308678,0.0,0.0,-0.2091344052074588,-0.37086076341110763,-0.3765039990480516,-1.058485232164359,-0.28225845603924077,-0.1028487051028769
11635,8.0,299.92663999999996,3532.6746,0.0,0.0,0.0,-0.11799220662675904,0.0,0.0,-0.23516894446936776,-0.38886539695552663,-0.44981054635534456,-1.059066635071739,-0.29545956470208873,-0.06804443758946314
11636,8.0,300.21327,3875.1699,0.0,0.0,0.0,-0.11800234777043131,0.0,0.0,-0.25644280919643475,-0.4395046174682286,-0.4820074802079345,-1.032905429414829,-0.24677711251750478,-0.06826367147384985
11637,8.0,300.20284,3933.491,0.0,0.0,0.0,-0.11801248891410356,0.0,0.0,-0.24843988632910777,-0.4304096541731256,-0.5168335042274955,-1.061787414240259,-0.23943651071054378,-0.05005354270315005
11638,8.0,299.82577000000003,3604.0687,0.0,0.0,0.0,-0.11802263005777583,0.0,0.0,-0.23309343336203078,-0.4038864953154936,-0.45856696252703555,-1.0752467192935888,-0.27688517049393874,-0.08366269894886552
11639,8.0,301.1003,3527.5221,0.0,0.0,0.0,-0.11803277120144808,0.0,0.0,-0.2466609129960368,-0.38344537018311164,-0.44217235299401353,-1.0723512558078292,-0.28212724015129076,-0.06383765622178614
11640,8.0,300.35136,3669.1712,0.0,0.0,0.0,-0.11804291234512035,0.0,0.0,-0.24564394426816977,-0.38367376688815263,-0.48601871443881256,-1.022818929969369,-0.2621642576085978,-0.10167193670173891
11641,8.0,301.1967,3329.1376,0.0,0.0,0.0,-0.11805305348879261,0.0,0.0,-0.1944922522523908,-0.3696092779475956,-0.44787316150163964,-1.001842180569125,-0.3008330022349057,-0.1124713690500599
11642,8.0,300.99672999999996,2927.632,0.0,0.0,0.0,-0.11806319463246487,0.0,0.0,-0.12091112430049888,-0.36958295370999766,-0.3994329571509636,-1.021056381420419,-0.3298848077770957,-0.14432517588878585
11643,8.0,300.43694,3084.388,0.0,0.0,0.0,-0.11807333577613713,0.0,0.0,-0.16434222545681484,-0.35690722535650066,-0.4163275042833256,-1.043035802589619,-0.29576478602971173,-0.11072507303271391
11644,8.0,299.91095,3496.5142,0.0,0.0,0.0,-0.11808347691980939,0.0,0.0,-0.23649432626267278,-0.38406230777149863,-0.4422963849387546,-1.0352690379230989,-0.25189101616970777,-0.0975906797962002
11645,8.0,300.02516,3688.9964,0.0,0.0,0.0,-0.11809361806348165,0.0,0.0,-0.27337076318459375,-0.4054698404517576,-0.4425221978560405,-1.058759518966429,-0.2366718578126938,-0.0935185897643162
11646,8.0,300.25937000000005,3752.1591,0.0,0.0,0.0,-0.11810375920715392,0.0,0.0,-0.24875130874734278,-0.4140693447129626,-0.4777420316594675,-1.089076772558509,-0.27861093806425874,-0.06466372153806244
11647,8.0,300.31346,3624.7485,0.0,0.0,0.0,-0.11811390035082617,0.0,0.0,-0.24223082143882074,-0.39612526299451967,-0.46347695972911457,-1.060656019178599,-0.2728276915284968,-0.08519198516579432
11648,8.0,299.35429,3506.0776,0.0,0.0,0.0,-0.11812404149449844,0.0,0.0,-0.18516283301664882,-0.3763759748979167,-0.5042212255952605,-1.0426708299035992,-0.25618630493361977,-0.07041675700884284
11649,8.0,299.74802999999997,3707.3412,0.0,0.0,0.0,-0.11813418263817069,0.0,0.0,-0.24059395643227477,-0.41468849118656764,-0.47165670487139255,-1.0308863259405592,-0.2500318238262198,-0.1018239748792439
11650,8.0,299.67924,3532.5809999999997,0.0,0.0,0.0,-0.11814432378184296,0.0,0.0,-0.22632788138432278,-0.40806457130783763,-0.43942396276026857,-1.056778108395879,-0.3079370709385227,-0.08891416143464452
11651,8.0,299.95945,2928.9304,0.0,0.0,0.0,-0.11815446492551523,0.0,0.0,-0.19216146291485983,-0.3402649065715317,-0.35789534685402064,-1.054898529460379,-0.26445187235936773,-0.10687415523265789
11652,8.0,301.02985,2835.5128,0.0,0.0,0.0,-0.11816460606918748,0.0,0.0,-0.12967139082256987,-0.34617246876206265,-0.38608122886075064,-1.044094344969089,-0.27350517081035874,-0.1133401803483049
11653,8.0,300.77641,3418.8708,0.0,0.0,0.0,-0.11817474721285975,0.0,0.0,-0.22885093492832878,-0.3659245128989376,-0.4444759163013576,-1.022933224580649,-0.2724184600781087,-0.11754753926853889
11654,8.0,300.08328,3767.6217,0.0,0.0,0.0,-0.118184888356532,0.0,0.0,-0.21627614654979382,-0.4185164284743556,-0.5104703543945015,-1.062926408677669,-0.3251598097782747,-0.1033202210369119
11655,8.0,301.00321,3509.4865,0.0,0.0,0.0,-0.11819502950020427,0.0,0.0,-0.22896251402934079,-0.4098832640448286,-0.42795048604792457,-1.060775177390359,-0.27248977262014673,-0.08951508460520101
11656,8.0,300.40758,3378.0713,0.0,0.0,0.0,-0.11820517064387653,0.0,0.0,-0.2312110173262508,-0.37286973438437765,-0.42276856291650855,-1.029544681483149,-0.24550661848211675,-0.07690181906736862
11657,8.0,299.10421,3774.6951,0.0,0.0,0.0,-0.1182153117875488,0.0,0.0,-0.27324075306426276,-0.42076117261339463,-0.45341114071819555,-1.060405341103859,-0.24055142019307676,-0.06439931595096764
11658,8.0,299.46283999999997,4081.0799,0.0,0.0,0.0,-0.11822545293122105,0.0,0.0,-0.27256580690765075,-0.4741579836707495,-0.4938226045889965,-1.0498205252592188,-0.2811135036912427,-0.09643895995078432
11659,8.0,299.45769,3734.8436,0.0,0.0,0.0,-0.1182355940748933,0.0,0.0,-0.22793794592572378,-0.4043983588685106,-0.5029628905610725,-1.0755216140457189,-0.24493301760050673,-0.09889553415572931
11660,8.0,298.94548,3225.8112,0.0,0.0,0.0,-0.11824573521856557,0.0,0.0,-0.15704526433166086,-0.38612732160779967,-0.4373934602223736,-1.041528694390879,-0.23225466492925076,-0.12327435790623188
11661,8.0,300.28328999999997,2946.0762,0.0,0.0,0.0,-0.11825587636223785,0.0,0.0,-0.14669409382757984,-0.36421463309018565,-0.38462486422701864,-1.061933018279629,-0.27946915076645773,-0.12261445851360489
11662,8.0,300.64813,3309.0088,0.0,0.0,0.0,-0.11826601750591009,0.0,0.0,-0.2280840869876468,-0.38327460714375866,-0.3944973753838596,-1.057420204984249,-0.3149628255419107,-0.11125320938233689
11663,8.0,300.60318,3716.9013,0.0,0.0,0.0,-0.11827615864958237,0.0,0.0,-0.2659107498533478,-0.41748271072233556,-0.4464517134663536,-1.075383305407069,-0.25761958773007376,-0.0998575938474272
11664,8.0,300.58367000000004,3416.8396,0.0,0.0,0.0,-0.11828629979325461,0.0,0.0,-0.2292280666155488,-0.3579427466936987,-0.4514631066059396,-1.031457798996959,-0.25029814648250376,-0.07784712669516322
11665,8.0,299.53252000000003,3359.1902,0.0,0.0,0.0,-0.11829644093692689,0.0,0.0,-0.18020736115008182,-0.40996043317244457,-0.43094213736567755,-1.0567027225884391,-0.23818924036744776,-0.11773888141742288
11666,8.0,299.0042,3835.9423,0.0,0.0,0.0,-0.11830658208059915,0.0,0.0,-0.22920630200340078,-0.4305136136333856,-0.5063107600839815,-1.049602169862669,-0.3089907902475167,-0.08519006201710451
11667,8.0,299.19711,4033.857,0.0,0.0,0.0,-0.1183167232242714,0.0,0.0,-0.2898285387288497,-0.4495622088883356,-0.4868010549735235,-1.054038381450489,-0.27924285148912376,-0.07522009038614492
11668,8.0,299.33032000000003,3703.8492,0.0,0.0,0.0,-0.11832686436794367,0.0,0.0,-0.25321375338025176,-0.42369428847287055,-0.4489696298323526,-1.062370742322829,-0.2917101745620527,-0.06342903170820804
11669,8.0,299.74131,3406.7784,0.0,0.0,0.0,-0.11833700551161593,0.0,0.0,-0.2329262065655268,-0.37112511022969663,-0.43152424954812757,-1.072320351679779,-0.27038148287207475,-0.06322672619324203
11670,8.0,300.16292000000004,3119.2142,0.0,0.0,0.0,-0.11834714665528819,0.0,0.0,-0.16424711166992784,-0.37135184520457365,-0.4125642528819216,-1.081898604875079,-0.3189660044344937,-0.08866230596328832
11671,8.0,300.35146000000003,3267.6575,0.0,0.0,0.0,-0.11835728779896046,0.0,0.0,-0.17184497767727885,-0.38000510238358365,-0.44143618626635955,-1.047741032078989,-0.24014822771328478,-0.11514379592380788
11672,8.0,300.74669,3688.7259999999997,0.0,0.0,0.0,-0.1183674289426327,0.0,0.0,-0.21424604931193883,-0.3908788262292366,-0.5161557209706036,-1.038042303446799,-0.2293182965369538,-0.10952410821918789
11673,8.0,299.58744,3601.3932,0.0,0.0,0.0,-0.11837757008630498,0.0,0.0,-0.2389538388929078,-0.41899716498430056,-0.4367826021345866,-1.055275559822589,-0.24717941333720875,-0.10100123606304591
11674,8.0,299.24991,3173.8320000000003,0.0,0.0,0.0,-0.11838771122997722,0.0,0.0,-0.19464418910488582,-0.3785088156959116,-0.39161267261416166,-1.0595108439155791,-0.32154983271949766,-0.1122994610380939
11675,8.0,300.33487,3443.9735,0.0,0.0,0.0,-0.1183978523736495,0.0,0.0,-0.24289141997401675,-0.3878009473279736,-0.4161895705472126,-1.062817889591959,-0.2732551209506807,-0.09302702262405231
11676,8.0,300.52477000000005,3988.2515,0.0,0.0,0.0,-0.11840799351732176,0.0,0.0,-0.2565805402825278,-0.4327612961977146,-0.5229870430123025,-1.0296297944915491,-0.2728587679090637,-0.06021295765230624
11677,8.0,300.01828,3771.0901,0.0,0.0,0.0,-0.11841813466099402,0.0,0.0,-0.22687810658612578,-0.42190273057355765,-0.4975363992530195,-1.0882776222046389,-0.24570886320207677,-0.09439910004821582
11678,8.0,299.3935,3205.1878,0.0,0.0,0.0,-0.11842827580466628,0.0,0.0,-0.14533506199845386,-0.3912479329756646,-0.4377140525540136,-1.065335410790419,-0.2848695610169367,-0.07429805508664714
11679,8.0,299.2216,3013.0107,0.0,0.0,0.0,-0.11843841694833854,0.0,0.0,-0.21576161814901382,-0.3217557150073167,-0.37836268476648965,-1.062352706471049,-0.23740628175017578,-0.10848671236930489
11680,8.0,299.13433,3331.2313,0.0,0.0,0.0,-0.1184485580920108,0.0,0.0,-0.23499704658990278,-0.35202434272709765,-0.42558974503743763,-1.056599573728259,-0.23994882009360474,-0.07662451278000064
11681,8.0,298.41407999999996,3420.5084,0.0,0.0,0.0,-0.11845869923568307,0.0,0.0,-0.26436812723860276,-0.3737651941602526,-0.40161583223889663,-1.076378215680259,-0.26683808647736873,-0.12707720712154386
11682,8.0,299.17798999999997,3411.9337,0.0,0.0,0.0,-0.11846884037935532,0.0,0.0,-0.1982394841697138,-0.37240597994610863,-0.46649718469968754,-1.0535020681725589,-0.3205374033520787,-0.1001446394947564
11683,8.0,298.89097000000004,3188.2458,0.0,0.0,0.0,-0.11847898152302759,0.0,0.0,-0.16590209358826183,-0.37909118119088664,-0.42415384805572565,-1.062320586442879,-0.24279861639735775,-0.14661262851953985
11684,8.0,299.56495,3270.6378,0.0,0.0,0.0,-0.11848912266669984,0.0,0.0,-0.17922694035332185,-0.37551423608536966,-0.4394510469354416,-1.0536297376851589,-0.2618147167216008,-0.10725904841564389
11685,8.0,300.01155,3996.0914,0.0,0.0,0.0,-0.11849926381037211,0.0,0.0,-0.32150300029987566,-0.43361758372472353,-0.4595914090406405,-1.086037528883559,-0.24067867427313577,-0.08517468290708673
11686,8.0,300.19943,4000.4773,0.0,0.0,0.0,-0.11850940495404436,0.0,0.0,-0.3056321498760447,-0.4393112589516456,-0.4711017984541276,-1.100355867371669,-0.29860602037011974,-0.06524114642554985
11687,8.0,299.40497,3208.0934,0.0,0.0,0.0,-0.11851954609771663,0.0,0.0,-0.2112173839680328,-0.3679540629817386,-0.39600885069053066,-1.032016707752119,-0.2558236525903288,-0.06587660622576484
11688,8.0,301.42359,3254.4402,0.0,0.0,0.0,-0.11852968724138888,0.0,0.0,-0.13993770163077587,-0.38383091184616164,-0.46549994395126754,-1.0271384151456688,-0.27327347090999177,-0.07925615127097313
11689,8.0,299.93408999999997,3551.0316,0.0,0.0,0.0,-0.11853982838506115,0.0,0.0,-0.2056325318018508,-0.38766983276503364,-0.4861225725740625,-1.023671377278499,-0.24353244251728076,-0.1020109499201969
11690,8.0,299.94721,3650.5649,0.0,0.0,0.0,-0.11854996952873341,0.0,0.0,-0.2127621850704928,-0.4171599703004836,-0.47975842975597055,-1.060837593596519,-0.2753059188880787,-0.1264990060844799
11691,8.0,300.63452,3486.5641,0.0,0.0,0.0,-0.11856011067240567,0.0,0.0,-0.24407777372110076,-0.3996539064677696,-0.4160967568380526,-1.061813860067869,-0.22927543605772377,-0.13553410656367487
11692,8.0,300.61516,3144.2918,0.0,0.0,0.0,-0.11857025181607793,0.0,0.0,-0.21306484287536281,-0.35359350236196163,-0.3891278692614306,-1.088351184161899,-0.26077096779359077,-0.0960265661468342
11693,8.0,299.74994,3206.0809,0.0,0.0,0.0,-0.11858039295975019,0.0,0.0,-0.20534053338803282,-0.3783060136883966,-0.39092200081599765,-1.084395455771499,-0.28519756020680775,-0.11574658854079889
11694,8.0,300.01882,3777.5998,0.0,0.0,0.0,-0.11859053410342245,0.0,0.0,-0.22387514739725678,-0.43311005688213455,-0.4913107879885995,-1.0745910451538792,-0.3073696002200177,-0.09993692423750651
11695,8.0,299.28136,4043.3427,0.0,0.0,0.0,-0.11860067524709471,0.0,0.0,-0.27713534194362877,-0.44759800330448357,-0.5043418834171686,-1.0312920312805989,-0.25744544043538675,-0.08262447730015102
11696,8.0,300.02952,3546.6113,0.0,0.0,0.0,-0.11861081639076697,0.0,0.0,-0.2250837926465408,-0.4093871160008626,-0.44361035753593353,-1.036221290367079,-0.25813515977845675,-0.06399942869300185
11697,8.0,299.2785,3123.6988,0.0,0.0,0.0,-0.11862095753443923,0.0,0.0,-0.2108259755869038,-0.35075175126400265,-0.3879487298550586,-1.0660279672337691,-0.24656335727640874,-0.06859983543302664
11698,8.0,299.50855,3633.071,0.0,0.0,0.0,-0.11863109867811149,0.0,0.0,-0.26027940977257774,-0.39527408224801464,-0.44880938432903755,-1.072941575316089,-0.25879778481385274,-0.07200574696141393
11699,8.0,299.43801,3884.4524,0.0,0.0,0.0,-0.11864123982178376,0.0,0.0,-0.27914546802201273,-0.40699845995012063,-0.4946325967189365,-1.044907478174339,-0.24515921555283077,-0.08059268084187832
11700,8.0,299.60945,3326.7882,0.0,0.0,0.0,-0.11865138096545602,0.0,0.0,-0.17113209543692284,-0.37891114691311867,-0.4612173005486035,-1.061733408009929,-0.2829648332139547,-0.11848181665574488
11701,8.0,300.27349,3085.4790000000003,0.0,0.0,0.0,-0.11866152210912828,0.0,0.0,-0.14364330923399088,-0.37728019928715667,-0.4169850630682216,-1.078726118811979,-0.3211527298728067,-0.1271523396164589
11702,8.0,301.09262,3273.1964,0.0,0.0,0.0,-0.11867166325280053,0.0,0.0,-0.2016329398146218,-0.3842359383086346,-0.40910110589513565,-1.0604740394606391,-0.3362964112298717,-0.13766842670681587
11703,8.0,299.91684,3542.8959,0.0,0.0,0.0,-0.1186818043964728,0.0,0.0,-0.25836166170581076,-0.3959308506978326,-0.4226593649532316,-1.059483992787929,-0.23968567904263477,-0.1158522907912309
11704,8.0,300.77927,3699.9661,0.0,0.0,0.0,-0.11869194554014505,0.0,0.0,-0.26071742765830674,-0.40877649096059865,-0.4552034078925785,-1.0338764269856588,-0.24259247066451278,-0.10936502795348789
11705,8.0,300.51063999999997,3548.2228,0.0,0.0,0.0,-0.11870208668381732,0.0,0.0,-0.21780779566595582,-0.3976810375955626,-0.4630822886826636,-1.058638638229499,-0.26172030207728275,-0.07941452023510293
11706,8.0,299.55573,3283.0316,0.0,0.0,0.0,-0.11871222782748958,0.0,0.0,-0.14685493714845385,-0.39265811366983866,-0.4584465681501536,-1.061783057264829,-0.27879968629288676,-0.09951936589779671
11707,8.0,299.87041,3617.259,0.0,0.0,0.0,-0.11872236897116184,0.0,0.0,-0.22971695978879877,-0.41181065825254765,-0.45802878486892157,-1.0395752495230892,-0.27768767470563976,-0.08170374098728142
11708,8.0,299.94507999999996,3935.2679,0.0,0.0,0.0,-0.1187325101148341,0.0,0.0,-0.2741421200882207,-0.4086502703956416,-0.5134307874766736,-1.051363806486529,-0.27657216740554774,-0.07773253317510373
11709,8.0,299.164,3389.1705,0.0,0.0,0.0,-0.11874265125850636,0.0,0.0,-0.2242845105701578,-0.3989480764481096,-0.4069906275268476,-1.088510771052649,-0.30671796894820674,-0.09835173397281041
11710,8.0,300.44343,2962.7013,0.0,0.0,0.0,-0.11875279240217862,0.0,0.0,-0.15790047781356384,-0.35035791108263364,-0.3923288377848416,-1.076874606904249,-0.28374852137129875,-0.11240893257889789
11711,8.0,300.5069,3441.3076,0.0,0.0,0.0,-0.1187629335458509,0.0,0.0,-0.21032131624209782,-0.3734255729917346,-0.46232469171539453,-1.046373043118979,-0.23994759406098376,-0.1027792569410229
11712,8.0,299.18457,3753.2174,0.0,0.0,0.0,-0.11877307468952314,0.0,0.0,-0.24500745095285276,-0.3989683009201056,-0.49690860975606155,-1.028012748656959,-0.23147126048193475,-0.1019598517176539
11713,8.0,299.92928,3618.3071,0.0,0.0,0.0,-0.11878321583319541,0.0,0.0,-0.24163456428497476,-0.4024087612371526,-0.4558316736170836,-1.031386060889879,-0.3027981501413507,-0.1059619869626339
11714,8.0,300.03972000000005,3397.1146,0.0,0.0,0.0,-0.11879335697686766,0.0,0.0,-0.22496420886973878,-0.3969610220745026,-0.4107127916366966,-1.067678754296689,-0.2897600126245867,-0.07508567161462884
11715,8.0,300.4085,3299.4054,0.0,0.0,0.0,-0.11880349812053993,0.0,0.0,-0.23385884248757074,-0.37108025364776964,-0.39799776944432164,-1.041688382606639,-0.2859159747927097,-0.0953396372945396
11716,8.0,300.53604,3646.9839,0.0,0.0,0.0,-0.1188136392642122,0.0,0.0,-0.24851383332140578,-0.3982554592097536,-0.46182274788085653,-1.066036782509639,-0.25956710508477876,-0.06518061486457584
11717,8.0,300.30857000000003,3872.5791,0.0,0.0,0.0,-0.11882378040788445,0.0,0.0,-0.2530308617372018,-0.41849881818761764,-0.5056376681750525,-1.060746705062549,-0.2805976276678297,-0.1052114016860569
11718,8.0,300.31751,3641.4829999999997,0.0,0.0,0.0,-0.11883392155155673,0.0,0.0,-0.20995284784323281,-0.4169409664238696,-0.4800260797698855,-1.073503726471569,-0.25343879622746174,-0.09128789433791372
11719,8.0,301.31674,3097.4138,0.0,0.0,0.0,-0.11884406269522897,0.0,0.0,-0.18026737595350484,-0.36297567139790965,-0.3982934155584996,-1.019947987136029,-0.25045195784768376,-0.12019111891193988
11720,8.0,300.56826,3262.6704,0.0,0.0,0.0,-0.11885420383890123,0.0,0.0,-0.18932437276736083,-0.3921354286057536,-0.41031053134699663,-1.039036403119909,-0.24236327349189277,-0.1007860703778107
11721,8.0,298.99192,3671.2557,0.0,0.0,0.0,-0.1188643449825735,0.0,0.0,-0.29282730306230476,-0.39161055492145264,-0.4315321934289116,-1.0415981020227292,-0.2846877434189927,-0.1106083668861959
11722,8.0,299.3544,3424.8653,0.0,0.0,0.0,-0.11887448612624575,0.0,0.0,-0.2043839442336248,-0.3847516319470296,-0.4519379662653046,-1.081325510618519,-0.2798719683437127,-0.09835902532053
11723,8.0,299.70605,2967.5541,0.0,0.0,0.0,-0.11888462726991803,0.0,0.0,-0.15721468988088183,-0.3591405906969166,-0.38570707612882466,-1.048373300141389,-0.26778630618595073,-0.1126403285042349
11724,8.0,299.87172999999996,3177.9142,0.0,0.0,0.0,-0.11889476841359027,0.0,0.0,-0.15741585042323486,-0.3611967081973397,-0.4473939955293496,-1.0934159147867488,-0.24725476874714575,-0.08930717480393191
11725,8.0,300.42351,3652.6743,0.0,0.0,0.0,-0.11890490955726254,0.0,0.0,-0.24419610106777878,-0.4096117839455356,-0.4565139151744156,-1.036402763459989,-0.2836363140552247,-0.0944280962263275
11726,8.0,300.25826,3950.4975,0.0,0.0,0.0,-0.11891505070093482,0.0,0.0,-0.26365184047791074,-0.42924143760283157,-0.5079593179966815,-1.0742095564912288,-0.26711634521983074,-0.08348935921450822
11727,8.0,300.63304,3681.723,0.0,0.0,0.0,-0.11892519184460706,0.0,0.0,-0.2695982101472717,-0.3871240861286726,-0.4624295631007445,-1.0128717828101619,-0.28338901010331774,-0.059035508347101036
11728,8.0,301.42894,3267.15,0.0,0.0,0.0,-0.11893533298827934,0.0,0.0,-0.1922509328986898,-0.36130151878768363,-0.4395795777106266,-1.035769583472499,-0.2796573619725327,-0.08692496707682631
11729,8.0,301.24897999999996,3366.6994,0.0,0.0,0.0,-0.11894547413195158,0.0,0.0,-0.21560234536579478,-0.3631880891488737,-0.4446021166013126,-1.022880738225469,-0.2816869120553337,-0.08354324486807632
11730,8.0,299.59517,3708.4169,0.0,0.0,0.0,-0.11895561527562386,0.0,0.0,-0.2645822472497348,-0.3815248559435716,-0.4811590555017015,-1.055111717281419,-0.26036664047368674,-0.0984074444898086
11731,8.0,298.97871000000004,3528.2721,0.0,0.0,0.0,-0.11896575641929612,0.0,0.0,-0.2255295922930378,-0.38917118570320564,-0.45780584958191956,-1.051190743369449,-0.23451869121769278,-0.1056384866032069
11732,8.0,298.93053,3042.1419,0.0,0.0,0.0,-0.11897589756296838,0.0,0.0,-0.17795864507065084,-0.3365859981084517,-0.4101905220051526,-1.0970906689244189,-0.2150320375470098,-0.08974371131801472
11733,8.0,299.6883,3259.47,0.0,0.0,0.0,-0.11898603870664064,0.0,0.0,-0.2105494596346138,-0.37496840838900064,-0.4052796331429856,-1.0681202273652592,-0.2949093698977887,-0.09027377588257801
11734,8.0,300.05735,3678.8371,0.0,0.0,0.0,-0.1189961798503129,0.0,0.0,-0.24208481209941077,-0.4003353779550256,-0.4758544277831756,-1.065256377282619,-0.2841122274946937,-0.08516484120886543
11735,8.0,300.32455,3782.4474,0.0,0.0,0.0,-0.11900632099398516,0.0,0.0,-0.2529714852813418,-0.4213584632823426,-0.4754396133247365,-1.008610154214572,-0.27937161531183174,-0.09131339885618081
11736,8.0,299.64405,3601.5477,0.0,0.0,0.0,-0.11901646213765743,0.0,0.0,-0.21256320301585482,-0.4234996025986566,-0.45871775440691753,-1.025718345130519,-0.25120662652216375,-0.10569047646583792
11737,8.0,301.03008,3507.8004,0.0,0.0,0.0,-0.11902660328132968,0.0,0.0,-0.2052220743188418,-0.4019373567606286,-0.45912429061203963,-1.035390729260109,-0.2897509339036907,-0.0984832781537928
11738,8.0,300.99179,3419.0235,0.0,0.0,0.0,-0.11903674442500195,0.0,0.0,-0.20033228132375683,-0.4094161253512256,-0.42954936430822155,-1.036630947382509,-0.27298214124123976,-0.12253002438277188
11739,8.0,300.88006,3570.0282,0.0,0.0,0.0,-0.1190468855686742,0.0,0.0,-0.22244167208328378,-0.4155050795746586,-0.44725268767040355,-1.063202012704869,-0.2925833225707257,-0.08904545939585261
11740,8.0,300.74807000000004,3476.6316,0.0,0.0,0.0,-0.11905702671234647,0.0,0.0,-0.2135093658267338,-0.3781545125334447,-0.46514531654876856,-1.071604287834109,-0.28095090744769574,-0.1024153785651109
11741,8.0,299.69221,3098.83,0.0,0.0,0.0,-0.11906716785601873,0.0,0.0,-0.1912781418751828,-0.3661834489619927,-0.3845053513777236,-1.078015931816889,-0.3278470908984887,-0.07492901706966822
11742,8.0,299.43076,3154.7324,0.0,0.0,0.0,-0.11907730899969099,0.0,0.0,-0.18421077309018782,-0.37244528391748766,-0.4023038189242956,-1.065921575973269,-0.27206327538805475,-0.1346094651849199
11743,8.0,300.40213,3796.5797,0.0,0.0,0.0,-0.11908745014336325,0.0,0.0,-0.2802300205315498,-0.3966425069055676,-0.47719291090027355,-1.049240540901979,-0.2429861284608638,-0.07406419493706692
11744,8.0,299.74695,3896.5118,0.0,0.0,0.0,-0.11909759128703551,0.0,0.0,-0.27999910083375973,-0.41857683844531757,-0.48586635202127554,-1.0515652406064089,-0.21342370566327978,-0.09550335824569761
11745,8.0,300.16126,3622.0805,0.0,0.0,0.0,-0.11910773243070777,0.0,0.0,-0.23413321034964876,-0.3792553986345937,-0.4876333994006695,-1.0844692203787791,-0.2748362470692257,-0.04221555364735075
11746,8.0,300.55099,3599.7865,0.0,0.0,0.0,-0.11911787357438004,0.0,0.0,-0.23010292701689078,-0.39461373702534364,-0.4695285452888595,-1.070270242752449,-0.2805979316428597,-0.06724129300369894
11747,8.0,299.56495,3512.6492,0.0,0.0,0.0,-0.11912801471805229,0.0,0.0,-0.24256876061217275,-0.38965798144874864,-0.4355308937560526,-1.047377680593129,-0.2949732147865897,-0.06420777723156423
11748,8.0,299.50133,3646.0551,0.0,0.0,0.0,-0.11913815586172456,0.0,0.0,-0.23636435667234576,-0.39375607147819863,-0.4781892903861085,-1.046074944939559,-0.26410993084812073,-0.09328661122017172
11749,8.0,299.47614,3743.9240000000004,0.0,0.0,0.0,-0.11914829700539681,0.0,0.0,-0.26116738163021375,-0.4323844988830276,-0.44450752970447754,-1.039859263526119,-0.2895280999416987,-0.11045933806148789
11750,8.0,298.86034,3346.0713,0.0,0.0,0.0,-0.11915843814906908,0.0,0.0,-0.2058431257026348,-0.36904732944213564,-0.4422316483898656,-1.033632740336609,-0.28398461877709974,-0.1020420465657659
11751,8.0,300.46449,3120.8873,0.0,0.0,0.0,-0.11916857929274134,0.0,0.0,-0.16675443957238184,-0.3782436076147377,-0.4036737533244976,-1.021717932410709,-0.2607218758262458,-0.14379282441874688
11752,8.0,300.12521,3442.9901,0.0,0.0,0.0,-0.1191787204364136,0.0,0.0,-0.2049470073141948,-0.4079524146542686,-0.43368358683623764,-1.035676465788309,-0.2582892751186668,-0.11211000353439589
11753,8.0,299.76047,3735.0636,0.0,0.0,0.0,-0.11918886158008586,0.0,0.0,-0.25958381357892774,-0.41752358523136957,-0.4582586811841106,-1.059450454209619,-0.30228812057101473,-0.12182238064543288
11754,8.0,300.19496000000004,3569.3051,0.0,0.0,0.0,-0.11919900272375812,0.0,0.0,-0.18960959253800982,-0.4434012733777986,-0.45196876906834454,-1.081805689840909,-0.27852989832126074,-0.1102445391727889
11755,8.0,300.02549,3233.3933,0.0,0.0,0.0,-0.11920914386743038,0.0,0.0,-0.18212705465704082,-0.40029720882375863,-0.40044655175599764,-1.068464935049279,-0.2531900433279118,-0.12078091153014787
11756,8.0,299.96954,3439.1687,0.0,0.0,0.0,-0.11921928501110265,0.0,0.0,-0.17732982205859082,-0.4006992563309376,-0.46739231010302956,-1.0672888556582092,-0.24557843764920478,-0.06559088388306623
11757,8.0,300.50036,3630.6722,0.0,0.0,0.0,-0.1192294261547749,0.0,0.0,-0.23044101817775778,-0.41621851910256963,-0.45697417389983963,-1.0745051215453991,-0.24576059975218276,-0.07743617575935552
11758,8.0,299.68755,3585.1214,0.0,0.0,0.0,-0.11923956729844717,0.0,0.0,-0.22998345469759982,-0.3908075744822046,-0.4689963458063356,-1.0664960887799688,-0.2773918867364477,-0.08540702419476702
11759,8.0,299.72311,3444.7566,0.0,0.0,0.0,-0.11924970844211942,0.0,0.0,-0.24581765586531376,-0.36862031545249263,-0.43268201950989055,-1.010600511783505,-0.27041981412335775,-0.06970533486188094
11760,8.0,298.99776,3433.9595,0.0,0.0,0.0,-0.1192598495857917,0.0,0.0,-0.19843939841444383,-0.39707975472122065,-0.44831878889561955,-1.024442663254619,-0.29752784120371173,-0.12277257619170989
11761,8.0,298.86451,3690.0593,0.0,0.0,0.0,-0.11926999072946397,0.0,0.0,-0.28156910146620673,-0.3815098497095906,-0.45860693524348056,-1.037587151501879,-0.3027261992517497,-0.07767496841042253
11762,8.0,299.02965,3889.1716,0.0,0.0,0.0,-0.11928013187313621,0.0,0.0,-0.27330018018262775,-0.4172285470672516,-0.49168231640276655,-1.069520640328469,-0.31496208586933766,-0.08637330812613182
11763,8.0,299.47699,3488.2812,0.0,0.0,0.0,-0.11929027301680847,0.0,0.0,-0.22768405584816676,-0.37150940559512363,-0.4611569209751446,-1.0784901328636889,-0.2531037549493958,-0.060100294373687246
11764,8.0,300.13506,3094.6857,0.0,0.0,0.0,-0.11930041416048073,0.0,0.0,-0.16322538066659084,-0.36595106005155764,-0.4115307377799216,-1.0887599292522387,-0.27517042708470674,-0.09565365261978051
11765,8.0,300.21785,3532.2532,0.0,0.0,0.0,-0.119310555304153,0.0,0.0,-0.21934376122754376,-0.3904824427901166,-0.46389056841993453,-1.0722010921430092,-0.25391317965927973,-0.07360362514386222
11766,8.0,300.49014,3973.3679,0.0,0.0,0.0,-0.11932069644782527,0.0,0.0,-0.28400484324909575,-0.4170864590057286,-0.5067133344812125,-1.051533627203289,-0.27534999526742876,-0.09245883351122641
11767,8.0,300.31223,3603.9497,0.0,0.0,0.0,-0.11933083759149751,0.0,0.0,-0.24037877250853776,-0.4097058338198176,-0.4454261219801356,-1.032572374106959,-0.2534282077639168,-0.10038585381356241
11768,8.0,299.79571,3173.0176,0.0,0.0,0.0,-0.11934097873516979,0.0,0.0,-0.17848664969776085,-0.37462840218544463,-0.4114030783998226,-1.0419333864808191,-0.2851079078379597,-0.1027117643518619
11769,8.0,299.84205,3499.9666,0.0,0.0,0.0,-0.11935111987884203,0.0,0.0,-0.2027432795392038,-0.40576698617608364,-0.45539218651870955,-1.088799547331149,-0.25567694410834974,-0.0943970867202671
11770,8.0,299.8045,3641.2792,0.0,0.0,0.0,-0.1193612610225143,0.0,0.0,-0.2324205846331258,-0.4160912852875126,-0.4583460740052356,-1.046113651093379,-0.26218762315590377,-0.12436341937871388
11771,8.0,300.57257000000004,3549.0901,0.0,0.0,0.0,-0.11937140216618658,0.0,0.0,-0.19067959477611082,-0.41750848780487965,-0.47064666677420947,-1.0562202128908191,-0.23234269609793878,-0.14299937866293985
11772,8.0,300.58325,3223.935,0.0,0.0,0.0,-0.11938154330985883,0.0,0.0,-0.1881670790331448,-0.3873545903939216,-0.40447406891598264,-1.030945297096379,-0.28370992667498973,-0.11558704218005289
11773,8.0,299.93953999999997,3008.6574,0.0,0.0,0.0,-0.1193916844535311,0.0,0.0,-0.16993364348364484,-0.3544221078962387,-0.3902009821773387,-1.073081403829889,-0.3085908705655477,-0.1023798236191019
11774,8.0,300.25756,3555.0308,0.0,0.0,0.0,-0.11940182559720335,0.0,0.0,-0.23380260710702078,-0.38887930887939964,-0.4579586780945026,-1.033457549394319,-0.29666990207903976,-0.08619263144780041
11775,8.0,299.37678999999997,3989.0338,0.0,0.0,0.0,-0.11941196674087562,0.0,0.0,-0.27772830603464976,-0.4260297083633586,-0.5088086647605055,-1.061186252955929,-0.25120350571185573,-0.05573747147736014
11776,8.0,299.44507999999996,3580.9389,0.0,0.0,0.0,-0.11942210788454788,0.0,0.0,-0.23255389794878276,-0.3828533788121866,-0.47310872266219556,-1.041882521325799,-0.27381427288586474,-0.07497789726774233
11777,8.0,299.45754,3280.5815,0.0,0.0,0.0,-0.11943224902822014,0.0,0.0,-0.18278798756476983,-0.3868474688513726,-0.4275794034638016,-1.081524107638119,-0.25049104903654174,-0.08086692610069422
11778,8.0,299.16076,3740.6135,0.0,0.0,0.0,-0.1194423901718924,0.0,0.0,-0.2655812713183307,-0.4010563054011756,-0.47041553429389854,-1.0625589028663989,-0.2821967997706557,-0.08699361578435141
11779,8.0,299.83277000000004,4014.1989,0.0,0.0,0.0,-0.11945253131556466,0.0,0.0,-0.3248640927365897,-0.4016965477418626,-0.4936555905750135,-1.0482618426303891,-0.2549563307697308,-0.07827445681883742
11780,8.0,300.43391,3488.8744,0.0,0.0,0.0,-0.11946267245923692,0.0,0.0,-0.21946926238492978,-0.3977020017401316,-0.44335944641367064,-1.059369596851639,-0.2990740000613057,-0.0917035082506816
11781,8.0,300.33416,2985.5151,0.0,0.0,0.0,-0.11947281360290919,0.0,0.0,-0.17921829732996883,-0.34333639186466364,-0.3849673427608186,-1.0847014573016989,-0.2688748610333827,-0.08434395664035041
11782,8.0,300.95906,3203.8742,0.0,0.0,0.0,-0.11948295474658144,0.0,0.0,-0.16707644032166083,-0.3645119915970327,-0.44230934440753356,-1.065073181664539,-0.27579557199890375,-0.10163847918343691
11783,8.0,299.7242,3640.3379999999997,0.0,0.0,0.0,-0.11949309589025371,0.0,0.0,-0.24515437221735276,-0.4208526893624266,-0.44056480131286063,-1.068566868009339,-0.21722299837074077,-0.12922587488610088
11784,8.0,299.35606,3720.1229,0.0,0.0,0.0,-0.11950323703392596,0.0,0.0,-0.26000564986055974,-0.41541110062788367,-0.45540771964274257,-1.049360307063799,-0.2947032038999417,-0.09023938516093391
11785,8.0,299.66546,3383.4372,0.0,0.0,0.0,-0.11951337817759823,0.0,0.0,-0.2236478956648288,-0.4105043559586256,-0.39432817274966064,-1.080345089821759,-0.28058072665616174,-0.1256295767036739
11786,8.0,298.7683,3166.1545,0.0,0.0,0.0,-0.11952351932127049,0.0,0.0,-0.16067124060951685,-0.40307843849324465,-0.3986822198868716,-1.0530268538756589,-0.2931830551724147,-0.08899860569797852
11787,8.0,299.24291,3540.761,0.0,0.0,0.0,-0.11953366046494275,0.0,0.0,-0.2155415807572978,-0.41320091844975565,-0.44756043199077555,-1.057411389708379,-0.26308505876947375,-0.1026860379318229
11788,8.0,300.26119,3957.4835,0.0,0.0,0.0,-0.11954380160861501,0.0,0.0,-0.2278130020558928,-0.4524729927156076,-0.5226901607330025,-1.0529492389179989,-0.2883284827508057,-0.07383402909735133
11789,8.0,300.08282,3435.9474,0.0,0.0,0.0,-0.11955394275228727,0.0,0.0,-0.1942965227305738,-0.3910982354058906,-0.4590474558569566,-1.081743374959759,-0.2559946588097058,-0.1021016256716459
11790,8.0,300.93908999999996,3042.8975,0.0,0.0,0.0,-0.11956408389595953,0.0,0.0,-0.16138800359775585,-0.3632624718387147,-0.40031437328045266,-1.055320142826989,-0.27166876646161975,-0.11391198777723789
11791,8.0,300.98927000000003,3481.4303,0.0,0.0,0.0,-0.1195742250396318,0.0,0.0,-0.24454441592215476,-0.3849829366798576,-0.4287405374158966,-1.0556642425609488,-0.23598481344988778,-0.11948641359989089
11792,8.0,299.58768,3862.0684,0.0,0.0,0.0,-0.11958436618330405,0.0,0.0,-0.27371177250574874,-0.4070030601055746,-0.4932575251407275,-1.057175606410109,-0.2955017868337557,-0.09160812291276782
11793,8.0,299.41638,3503.4565,0.0,0.0,0.0,-0.11959450732697632,0.0,0.0,-0.23467860234847476,-0.38951347171948664,-0.44077121049073154,-1.042210814358199,-0.2852325882627647,-0.0984867242173829
11794,8.0,299.50793,3359.3184,0.0,0.0,0.0,-0.11960464847064857,0.0,0.0,-0.17854944080645782,-0.39037815908982465,-0.4522213216557696,-1.0637675075856792,-0.3026620706529207,-0.07776951883025393
11795,8.0,299.67645,3529.8306,0.0,0.0,0.0,-0.11961478961432084,0.0,0.0,-0.23863910314684578,-0.3992496500753726,-0.43509160930769863,-1.062266174912509,-0.2608826786171158,-0.06895570305364804
11796,8.0,299.90215,3707.1341,0.0,0.0,0.0,-0.11962493075799309,0.0,0.0,-0.25197947290343775,-0.4178054106141836,-0.45709131574390055,-1.066323734937959,-0.2936838236368367,-0.08996596468769942
11797,8.0,299.45317,3917.1357,0.0,0.0,0.0,-0.11963507190166536,0.0,0.0,-0.27346848102423776,-0.42606339892918355,-0.49117954170314654,-1.0852022055011188,-0.23801647109289675,-0.07170449554768273
11798,8.0,299.09073,3629.9588,0.0,0.0,0.0,-0.11964521304533761,0.0,0.0,-0.22197297298452678,-0.4197472537683286,-0.46169659824340653,-1.062242363535159,-0.26185368632044675,-0.0947598849715725
11799,8.0,300.39308,3161.6904,0.0,0.0,0.0,-0.11965535418900988,0.0,0.0,-0.16830541136795085,-0.3849819740922626,-0.4077875385979966,-1.078024139142699,-0.24357092575607878,-0.0979663858405295
11800,8.0,300.94075,3295.4094,0.0,0.0,0.0,-0.11966549533268213,0.0,0.0,-0.16478567436307984,-0.3893927328375706,-0.44754376402663054,-1.0913310513809888,-0.2961314508433987,-0.1035329326304049
11801,8.0,300.6799,3666.8802,0.0,0.0,0.0,-0.1196756364763544,0.0,0.0,-0.24877999385767377,-0.42832941118782153,-0.4375306036234086,-1.066488590729229,-0.30404909858230966,-0.10785536636449589
11802,8.0,300.64682999999997,3449.3158,0.0,0.0,0.0,-0.11968577762002666,0.0,0.0,-0.2222291935373138,-0.3956280713029506,-0.4306485988117076,-1.057835434875229,-0.27502521821287573,-0.13443225787493085
11803,8.0,299.86309,3122.8545,0.0,0.0,0.0,-0.11969591876369892,0.0,0.0,-0.18057877810673784,-0.37418385896907164,-0.3945071633798256,-1.050578537659029,-0.24731961675354577,-0.1285151306034559
11804,8.0,300.48036,3432.3709999999996,0.0,0.0,0.0,-0.11970605990737118,0.0,0.0,-0.2118042685584538,-0.40196732869858665,-0.4295834905715896,-1.0789096184050888,-0.2857268212640417,-0.11169543225598089
11805,8.0,301.33475,3777.3758,0.0,0.0,0.0,-0.11971620105104344,0.0,0.0,-0.2357620098853988,-0.4070397498916956,-0.5054261522166775,-1.086451036249369,-0.2695120636237697,-0.08100502499657353
11806,8.0,299.34684,3761.79,0.0,0.0,0.0,-0.1197263421947157,0.0,0.0,-0.2242904482157438,-0.4259092430589696,-0.49329052669648454,-1.0741610218114388,-0.24412005664777375,-0.07945700581179593
11807,8.0,299.17721,3809.093,0.0,0.0,0.0,-0.11973648333838796,0.0,0.0,-0.27452808731631273,-0.4064152230600596,-0.47692585870391757,-1.072854638457509,-0.2204716200463548,-0.06748297443080103
11808,8.0,299.49102999999997,3585.7589,0.0,0.0,0.0,-0.11974662448206022,0.0,0.0,-0.23464336150999676,-0.38045529953551466,-0.4748824980222536,-1.084083374740699,-0.25658362056283174,-0.08270715952156112
11809,8.0,298.6102,3313.7928,0.0,0.0,0.0,-0.11975676562573248,0.0,0.0,-0.21899664200828578,-0.3902701770266676,-0.39804343662632863,-1.078993718163389,-0.28304902416476374,-0.0997811512201329
11810,8.0,299.21366,3569.3087,0.0,0.0,0.0,-0.11976690676940474,0.0,0.0,-0.22582735609992477,-0.39065567815971364,-0.4684976950346226,-1.063862145145019,-0.27475404208861276,-0.10755599148994989
11811,8.0,299.81548,3804.135,0.0,0.0,0.0,-0.11977704791307701,0.0,0.0,-0.25916418618251374,-0.4258318814138346,-0.47136599328520157,-1.069578192934149,-0.2809175208569007,-0.1087213506949619
11812,8.0,298.82728,3320.5732,0.0,0.0,0.0,-0.11978718905674926,0.0,0.0,-0.1990067576754378,-0.38286215355805264,-0.4275024369862056,-1.0747497201195388,-0.2925817013705657,-0.1142103696666859
11813,8.0,300.49802,3307.5697,0.0,0.0,0.0,-0.11979733020042153,0.0,0.0,-0.2336226336242588,-0.3584320856969927,-0.41336387946333863,-1.0929986583955689,-0.30423429030308674,-0.09019618118992001
11814,8.0,300.66426,3590.98,0.0,0.0,0.0,-0.11980747134409378,0.0,0.0,-0.22151375790670577,-0.4056536946824026,-0.46440080064029055,-1.055202099190339,-0.25653059718509874,-0.12796817819947587
11815,8.0,300.22522000000004,3711.6445,0.0,0.0,0.0,-0.11981761248776605,0.0,0.0,-0.2659327677780207,-0.3961712949465626,-0.46614319564475154,-1.050376900889129,-0.23667822102332176,-0.10482775480069391
11816,8.0,300.09495,3748.429,0.0,0.0,0.0,-0.11982775363143831,0.0,0.0,-0.2247199649331338,-0.4124171188349006,-0.5022917238273336,-1.061702199906849,-0.2530367892502867,-0.11128822730579291
11817,8.0,299.34246,3594.62,0.0,0.0,0.0,-0.11983789477511057,0.0,0.0,-0.22540592511833277,-0.4166412875742936,-0.4506275096459726,-1.087299937183149,-0.27470446376121976,-0.07805797897472272
11818,8.0,299.47059,3334.2532,0.0,0.0,0.0,-0.11984803591878283,0.0,0.0,-0.18611198491532283,-0.3706745787052326,-0.45674316300954054,-1.079481294111509,-0.2556996510430907,-0.08435168875186352
11819,8.0,300.58072999999996,3498.4885,0.0,0.0,0.0,-0.11985817706245509,0.0,0.0,-0.2255833958733478,-0.4026481111757746,-0.4352216599580336,-1.0654642962031389,-0.2554119994722018,-0.10244434738546991
11820,8.0,298.92927000000003,3700.5183,0.0,0.0,0.0,-0.11986831820612735,0.0,0.0,-0.22653317598708378,-0.3979865932957186,-0.5003454122402475,-1.0874193993699388,-0.26363773603651874,-0.1079948098432579
11821,8.0,298.54446,3437.265,0.0,0.0,0.0,-0.11987845934979963,0.0,0.0,-0.2240438231414038,-0.36882221566741863,-0.45197670281662755,-1.0678341868620291,-0.28902360271690875,-0.13017328399460287
11822,8.0,299.83601,3256.0538,0.0,0.0,0.0,-0.11988860049347187,0.0,0.0,-0.16982966375838282,-0.3839125494067186,-0.4360168383715116,-1.061225871034839,-0.26813803569316375,-0.1180227839629419
11823,8.0,300.30066,3423.8298,0.0,0.0,0.0,-0.11989874163714415,0.0,0.0,-0.22907555221049677,-0.37571919631559764,-0.4359640277762996,-1.0387515785167991,-0.28477203569481174,-0.10773843730295589
11824,8.0,300.35393,3794.0628,0.0,0.0,0.0,-0.11990888278081639,0.0,0.0,-0.28350759076252074,-0.4051669090693606,-0.46462586375250253,-1.072829003229979,-0.2957035350611667,-0.07326142120083934
11825,8.0,300.97298,3839.8476,0.0,0.0,0.0,-0.11991902392448867,0.0,0.0,-0.27986230193775874,-0.4362188399114476,-0.4511366475562205,-1.054804094551059,-0.29633274310826474,-0.09176955391869981
11826,8.0,300.60537,3595.7858,0.0,0.0,0.0,-0.11992916506816093,0.0,0.0,-0.2138122161491228,-0.39896563607234264,-0.4802512340746065,-1.046332614439989,-0.24560064809139678,-0.08408024411632402
11827,8.0,300.96324,3568.1147,0.0,0.0,0.0,-0.11993930621183319,0.0,0.0,-0.2071701793586048,-0.4192551485922616,-0.4581924348925726,-1.0472257944031391,-0.26737564605292174,-0.09989341122521209
11828,8.0,300.39614,3706.1768,0.0,0.0,0.0,-0.11994944735550545,0.0,0.0,-0.20282071211184582,-0.4172846304602866,-0.5064798613931706,-1.0896228130373988,-0.25764293301237773,-0.08220627453337762
11829,8.0,299.1539,3704.7285,0.0,0.0,0.0,-0.1199595884991777,0.0,0.0,-0.24295450492524276,-0.4221656487095056,-0.46102481342710655,-1.075923773010409,-0.28797790834870673,-0.08159407895545863
11830,8.0,299.09432999999996,3397.4826,0.0,0.0,0.0,-0.11996972964284996,0.0,0.0,-0.2042119450291498,-0.38953951224705663,-0.43899842811577156,-1.075421200960809,-0.24948658381490874,-0.11333618814291088
11831,8.0,299.986,3145.8554,0.0,0.0,0.0,-0.11997987078652224,0.0,0.0,-0.18966469307844783,-0.35774245754643164,-0.4088543490982826,-1.062766315161869,-0.28589527409316673,-0.11318655136814289
11832,8.0,299.52414,3336.6833,0.0,0.0,0.0,-0.11999001193019448,0.0,0.0,-0.18390146836466184,-0.40686086058654064,-0.4235060671342946,-1.0992432174368592,-0.28482333654737474,-0.13830666281230486
11833,8.0,298.48027,3679.7654,0.0,0.0,0.0,-0.12000015307386676,0.0,0.0,-0.2750775323155387,-0.3942034416623506,-0.4492758238800716,-1.0391462394307491,-0.30461878831853373,-0.1022423559780349
11834,8.0,299.36284,3730.9827,0.0,0.0,0.0,-0.120010294217539,0.0,0.0,-0.2271319054711738,-0.43099599160849256,-0.4759976810823135,-1.0398936127045089,-0.24181136629492378,-0.1259026172081209
11835,8.0,300.47337999999996,3490.3857,0.0,0.0,0.0,-0.12002043536121128,0.0,0.0,-0.24408448143676278,-0.3977422277691016,-0.41916337853070457,-1.020223489838219,-0.2647403041328337,-0.07980917000330183
11836,8.0,301.23745,3697.2503,0.0,0.0,0.0,-0.12003057650488355,0.0,0.0,-0.24122492753454675,-0.4084728908331356,-0.4741739423598246,-1.0989282993057792,-0.2864206240050147,-0.06924390887234173
11837,8.0,301.13835,3861.2929999999997,0.0,0.0,0.0,-0.1200407176485558,0.0,0.0,-0.27395824559257376,-0.43013659340367655,-0.46964182665003956,-1.069016143103679,-0.2943640488264697,-0.04928828455187495
11838,8.0,300.08356000000003,3719.8273,0.0,0.0,0.0,-0.12005085879222807,0.0,0.0,-0.2286096192845128,-0.42381374052715953,-0.47831126543314656,-1.0704697516971389,-0.2503825400833327,-0.0966203854209396
11839,8.0,299.7884,3479.7766,0.0,0.0,0.0,-0.12006099993590032,0.0,0.0,-0.2184230309941748,-0.38672485545677165,-0.45261729979484955,-1.050817563357619,-0.26509548882288775,-0.07824812650173883
11840,8.0,300.05487999999997,3261.7790000000005,0.0,0.0,0.0,-0.12007114107957259,0.0,0.0,-0.18171962679183082,-0.3944811937797626,-0.41529855893927664,-1.096952157635749,-0.24675263239508874,-0.09870154235783381
11841,8.0,299.59817999999996,3271.7442,0.0,0.0,0.0,-0.12008128222324485,0.0,0.0,-0.22401872493642677,-0.3761881588593806,-0.3943216676840186,-1.078284544418399,-0.27429440144574974,-0.09333617434881321
11842,8.0,298.87622000000005,3479.35,0.0,0.0,0.0,-0.1200914233669171,0.0,0.0,-0.2191473933581638,-0.41193551092986963,-0.4265525960774636,-1.0785826425978189,-0.22474280359038776,-0.12030853433352788
11843,8.0,299.88569,3639.1420000000003,0.0,0.0,0.0,-0.12010156451058937,0.0,0.0,-0.24412258977302378,-0.43537641364580665,-0.4267092850729276,-1.0485150538303791,-0.27294467125254174,-0.0931591220660895
11844,8.0,299.33175,3538.0634,0.0,0.0,0.0,-0.12011170565426162,0.0,0.0,-0.21956816572719076,-0.4070816173858276,-0.44883314504388255,-1.072412354788859,-0.26546403828176074,-0.11127057648905089
11845,8.0,299.55005,3791.272,0.0,0.0,0.0,-0.12012184679793389,0.0,0.0,-0.24825279983064377,-0.43489162413546156,-0.4693076061045546,-1.053263245123989,-0.3025891875732277,-0.07197823519469873
11846,8.0,300.36482,3932.4315,0.0,0.0,0.0,-0.12013198794160616,0.0,0.0,-0.26441090665782474,-0.4323344037980836,-0.4986156625970345,-1.045475100880359,-0.2514027816090228,-0.09338386499126991
11847,8.0,300.15567000000004,3807.6936,0.0,0.0,0.0,-0.12014212908527841,0.0,0.0,-0.25691400089043775,-0.42209168145220555,-0.47843810408066456,-1.040999575188659,-0.27061264574988875,-0.05045948717021365
11848,8.0,299.93695,3629.6312,0.0,0.0,0.0,-0.12015227022895068,0.0,0.0,-0.20355486247180082,-0.4262529780228936,-0.47350939214923854,-1.0738436718801188,-0.27532447149740974,-0.08910874193084811
11849,8.0,300.77094,3523.0398,0.0,0.0,0.0,-0.12016241137262293,0.0,0.0,-0.2208564017718298,-0.39844969925392365,-0.4516100177379385,-1.0615844602452291,-0.3151680289521627,-0.05581204769797024
11850,8.0,300.07261,3408.3795,0.0,0.0,0.0,-0.1201725525162952,0.0,0.0,-0.19131054561338082,-0.41511936565909163,-0.4296323494914116,-1.049042450507429,-0.2591782906239058,-0.11800096868828888
11851,8.0,300.33592000000004,3574.1576,0.0,0.0,0.0,-0.12018269365996746,0.0,0.0,-0.22854358577549577,-0.3882135225036916,-0.46969755540553954,-1.036506722920249,-0.2888858614983147,-0.1029919280045119
11852,8.0,299.83284,3744.2147,0.0,0.0,0.0,-0.12019283480363972,0.0,0.0,-0.26493432126198174,-0.4024170800204736,-0.4707963744764846,-1.0644556057285888,-0.24327343552671876,-0.11282956309291088
11853,8.0,299.18298,3486.603,0.0,0.0,0.0,-0.12020297594731198,0.0,0.0,-0.2294121336287148,-0.38833344065302666,-0.4420946873738486,-1.099575360819639,-0.2623050689749947,-0.09905453336142131
11854,8.0,299.75392,3373.4018,0.0,0.0,0.0,-0.12021311709098424,0.0,0.0,-0.1930268291627648,-0.3870849442773096,-0.4453181399169786,-1.1096090699348888,-0.22356749426939382,-0.09973856533168
11855,8.0,299.42032,3648.9851,0.0,0.0,0.0,-0.1202232582346565,0.0,0.0,-0.24083494783605877,-0.39002245764221966,-0.47834294976377356,-1.065217164503749,-0.25945223292094177,-0.07939933465585422
11856,8.0,299.48221,3849.1848,0.0,0.0,0.0,-0.12023339937832878,0.0,0.0,-0.2540898499467158,-0.4004247972763506,-0.5155414279649775,-1.058667515857349,-0.26055020086180275,-0.06980663859362883
11857,8.0,300.27482000000003,3566.5691,0.0,0.0,0.0,-0.12024354052200102,0.0,0.0,-0.2316347889155738,-0.39079416918338167,-0.4617189809381156,-1.043221632657959,-0.3113822428685347,-0.09649606571317021
11858,8.0,299.91814,3307.1071,0.0,0.0,0.0,-0.1202536816656733,0.0,0.0,-0.19951818553091183,-0.38502878624688264,-0.4207309980254166,-1.031298414756229,-0.27731310654117275,-0.09294981904593291
11859,8.0,299.38074,3493.3382,0.0,0.0,0.0,-0.12026382280934554,0.0,0.0,-0.2342968907708028,-0.3952198632351636,-0.4323708098741766,-1.027157464247549,-0.29070975220831874,-0.1165160506667389
11860,8.0,300.11357000000004,3596.1336,0.0,0.0,0.0,-0.12027396395301782,0.0,0.0,-0.2197520402228378,-0.4110868430436126,-0.4622959255450556,-1.055459160740709,-0.28203127523431976,-0.10651830179753789
11861,8.0,300.57613,3387.4672,0.0,0.0,0.0,-0.12028410509669007,0.0,0.0,-0.2015859351424828,-0.38633948604623863,-0.44178002255529364,-1.060974281035009,-0.28396362423502775,-0.1094895361257759
11862,8.0,300.13797999999997,3247.8358,0.0,0.0,0.0,-0.12029424624036233,0.0,0.0,-0.17430529077509282,-0.3682513708260806,-0.44470431300639857,-1.074142580659619,-0.27808360218221473,-0.11272135811473188
11863,8.0,299.815,3321.4806,0.0,0.0,0.0,-0.1203043873840346,0.0,0.0,-0.2081735806676328,-0.37488207948048063,-0.4265915150138046,-1.063262199760809,-0.26632295012652873,-0.11630847625125289
11864,8.0,299.31964,3636.3353,0.0,0.0,0.0,-0.12031452852770685,0.0,0.0,-0.2549490758990148,-0.38550606757398664,-0.4648999884345566,-1.080126835750219,-0.27081285383714776,-0.10806005301719691
11865,8.0,298.81166,3848.3329,0.0,0.0,0.0,-0.12032466967137911,0.0,0.0,-0.27092356154307373,-0.4149928208541026,-0.48388071619780854,-1.0653675308185888,-0.2743068745544808,-0.08978991146957432
11866,8.0,299.20412000000005,3692.0407,0.0,0.0,0.0,-0.12033481081505139,0.0,0.0,-0.2212499785081728,-0.4126686885697286,-0.4883695154658185,-1.0737607880219389,-0.24355614243711976,-0.0902090241349375
11867,8.0,299.54537999999997,3531.6601,0.0,0.0,0.0,-0.12034495195872363,0.0,0.0,-0.2295140057937688,-0.3872254516686766,-0.45679701725235555,-1.054454928566599,-0.25246803170415477,-0.07797154975444283
11868,8.0,299.54332999999997,3781.3725,0.0,0.0,0.0,-0.12035509310239591,0.0,0.0,-0.23888671107378276,-0.4318857163888015,-0.4786703916660896,-1.058813018571709,-0.2718053019125948,-0.08451985483121022
11869,8.0,300.07262000000003,3774.5875,0.0,0.0,0.0,-0.12036523424606815,0.0,0.0,-0.27015463643968674,-0.4211294890247446,-0.4560962230856926,-1.078489626238639,-0.2812603844257387,-0.07158482057837173
11870,8.0,300.28962,3326.1395,0.0,0.0,0.0,-0.12037537538974043,0.0,0.0,-0.20212465995565082,-0.3913001254883156,-0.41763856885271766,-1.058180243884259,-0.28218098293659477,-0.11478610850600689
11871,8.0,300.03963,3138.9256,0.0,0.0,0.0,-0.12038551653341269,0.0,0.0,-0.18759372133155883,-0.37801065128424666,-0.3885506409444626,-1.068429065995739,-0.26639469836610974,-0.1042895771425799
11872,8.0,299.64722,3329.5776,0.0,0.0,0.0,-0.12039565767708495,0.0,0.0,-0.19632642745090984,-0.36480797208374366,-0.45097406144517455,-1.0597920208183291,-0.26832379483399676,-0.09850614923505
11873,8.0,299.66802,3511.406,0.0,0.0,0.0,-0.1204057988207572,0.0,0.0,-0.2233886657592448,-0.38671556395335466,-0.45727552461208054,-1.053730758720129,-0.2837456032110107,-0.0985144913231233
11874,8.0,300.00224,3582.5759,0.0,0.0,0.0,-0.12041593996442947,0.0,0.0,-0.22182686232010676,-0.39893028377635364,-0.46825648071581655,-1.056493283792769,-0.27044285543063173,-0.1015244581496839
11875,8.0,299.61924,3657.8526,0.0,0.0,0.0,-0.12042608110810173,0.0,0.0,-0.27499048399944775,-0.38942381935063863,-0.4474815403379896,-1.063218731331519,-0.24880786836792476,-0.09152314264013091
11876,8.0,299.7221,3598.6103,0.0,0.0,0.0,-0.120436222251774,0.0,0.0,-0.24638331286613976,-0.4095367426431296,-0.43796762852403964,-1.062033634014559,-0.2962379028989047,-0.1025872663120749
11877,8.0,300.67716,3780.0429,0.0,0.0,0.0,-0.12044636339544625,0.0,0.0,-0.24329858439420074,-0.42258874142126157,-0.48315131798082256,-1.090077053057229,-0.2564932690514148,-0.09669295337985151
11878,8.0,300.4035,3746.0327,0.0,0.0,0.0,-0.12045650453911852,0.0,0.0,-0.24358741133520576,-0.4376141156966506,-0.4574988753316236,-1.061804943466989,-0.2789008390503698,-0.10820707560670689
11879,8.0,300.60167,3426.4026,0.0,0.0,0.0,-0.12046664568279077,0.0,0.0,-0.17660016039657883,-0.3967892863150536,-0.4681513965479456,-1.085096928815729,-0.24518357408523475,-0.08016303341522543
11880,8.0,301.53078,3263.2123,0.0,0.0,0.0,-0.12047678682646304,0.0,0.0,-0.1962754913683828,-0.36417433613370864,-0.4314852495517786,-1.0551403922592488,-0.27054536594324874,-0.08063748068179973
11881,8.0,300.63409,3470.6477,0.0,0.0,0.0,-0.12048692797013531,0.0,0.0,-0.22963440017065076,-0.4049520291206536,-0.4204037891706236,-1.054683821764189,-0.2812299463927347,-0.09411472127514982
11882,8.0,300.28829,3638.2859999999996,0.0,0.0,0.0,-0.12049706911380756,0.0,0.0,-0.24488451331821978,-0.40058163825932963,-0.4604819545535306,-1.015790419325709,-0.2813337336004777,-0.09914094332994931
11883,8.0,300.2895,3615.4891,0.0,0.0,0.0,-0.12050721025747983,0.0,0.0,-0.21918381969925882,-0.41717516905198365,-0.46265941888592954,-1.0543910938102992,-0.2802314593466917,-0.09423732859025022
11884,8.0,300.04826,3700.0702,0.0,0.0,0.0,-0.12051735140115208,0.0,0.0,-0.24172374042627576,-0.40923007236786363,-0.47377515751796756,-1.029095406388809,-0.3124963721484907,-0.08980560671362332
11885,8.0,298.86406,3639.3524,0.0,0.0,0.0,-0.12052749254482434,0.0,0.0,-0.22467902962909378,-0.4050446199147916,-0.47654859529418453,-1.086045634884359,-0.26727549641303777,-0.07383073198152593
11886,8.0,298.93598,3623.4085,0.0,0.0,0.0,-0.12053763368849661,0.0,0.0,-0.25510248196415475,-0.4078027474819976,-0.43852046791110055,-1.050474578198769,-0.26871354148496174,-0.08884093587641773
11887,8.0,300.02497,3732.7128,0.0,0.0,0.0,-0.12054777483216886,0.0,0.0,-0.2584123039458087,-0.4104260925209016,-0.4658130990271736,-1.0834677239799388,-0.23913203918799478,-0.05838239975664425
11888,8.0,300.31299,3673.9961,0.0,0.0,0.0,-0.12055791597584113,0.0,0.0,-0.24200238420377576,-0.4096821642974816,-0.4651185262161246,-1.053626697934859,-0.2768212040151257,-0.07607359958137973
11889,8.0,299.33861,3433.1958,0.0,0.0,0.0,-0.12056805711951338,0.0,0.0,-0.1918507599041958,-0.39557011339723064,-0.4561849229994466,-1.055842574578549,-0.2558121218041908,-0.1021555305769659
11890,8.0,299.50782999999996,3378.0947,0.0,0.0,0.0,-0.12057819826318565,0.0,0.0,-0.19145490335512783,-0.3734487764190247,-0.4619527681336886,-1.051458444045869,-0.2972989480061217,-0.09348024534078192
11891,8.0,300.24385,3476.7451,0.0,0.0,0.0,-0.12058833940685793,0.0,0.0,-0.18164397753936484,-0.4023141540753156,-0.4728855745926726,-1.065403298547119,-0.2723057157394817,-0.0999139244734866
11892,8.0,301.2869,3592.7975,0.0,0.0,0.0,-0.12059848055053017,0.0,0.0,-0.2533251500962458,-0.4013003466877606,-0.43749523106241756,-1.065836969589919,-0.30125926641947476,-0.092422332189624
11893,8.0,302.56031,3691.5418,0.0,0.0,0.0,-0.12060862169420244,0.0,0.0,-0.2656111520637797,-0.4099529553867066,-0.4465724219507665,-1.060157905429439,-0.25834177160634775,-0.13019143130389388
11894,8.0,301.43357000000003,3677.1645,0.0,0.0,0.0,-0.12061876283787469,0.0,0.0,-0.2534898539000008,-0.44823194322954857,-0.4160443819403836,-1.049394250942149,-0.30238293038287173,-0.1113155242634869
11895,8.0,299.95437999999996,3562.8999,0.0,0.0,0.0,-0.12062890398154696,0.0,0.0,-0.23046419120754477,-0.4032648765116446,-0.4493035362703066,-1.0732176859683389,-0.27307184427259273,-0.09851589467451181
11896,8.0,300.58561000000003,3679.7639,0.0,0.0,0.0,-0.12063904512521922,0.0,0.0,-0.21647287918920982,-0.4190232865718786,-0.48306016600182655,-1.029142725168479,-0.29863104764758974,-0.08742330171450811
11897,8.0,300.24777,3774.4025,0.0,0.0,0.0,-0.12064918626889148,0.0,0.0,-0.24163828291284178,-0.4270847550299836,-0.47860108535924956,-1.056827352350739,-0.2526682296589127,-0.09347966880147501
11898,8.0,299.37741,3555.9741,0.0,0.0,0.0,-0.12065932741256374,0.0,0.0,-0.25533318887942374,-0.38106407032809564,-0.4445300643867015,-1.045346823417699,-0.28629600437521574,-0.07550420064793442
11899,8.0,299.6122,3330.9285,0.0,0.0,0.0,-0.120669468556236,0.0,0.0,-0.19808910772237281,-0.3924584223401306,-0.42197155052034957,-1.1092270746471888,-0.2601031853151857,-0.0944459608388406
11900,8.0,299.52859,3446.3452,0.0,0.0,0.0,-0.12067960969990826,0.0,0.0,-0.21154877754573878,-0.3933724043278336,-0.44268171381928356,-1.1007616740367188,-0.2915494021686857,-0.09817399977276942
11901,8.0,299.21276,3724.9493,0.0,0.0,0.0,-0.12068975084358052,0.0,0.0,-0.23522149161955375,-0.4143603197441796,-0.48270975371974356,-1.100266093412809,-0.26311378440980876,-0.100404240249877
11902,8.0,299.80867,3681.9234,0.0,0.0,0.0,-0.12069989198725278,0.0,0.0,-0.2201610082281998,-0.42506975521861856,-0.47398201252588257,-1.087908900493249,-0.27609215030317374,-0.10386783205345691
11903,8.0,299.68646,3425.1982,0.0,0.0,0.0,-0.12071003313092506,0.0,0.0,-0.2024055328833708,-0.3793180276232746,-0.4594511650942996,-1.079491223962489,-0.24856199309865873,-0.1029705078973979
11904,8.0,299.93204,3503.9328,0.0,0.0,0.0,-0.1207201742745973,0.0,0.0,-0.26235115158954275,-0.4050261281004666,-0.3977307983079736,-1.043340081594649,-0.2801824889693587,-0.09535795381659731
11905,8.0,299.90876000000003,3685.8786,0.0,0.0,0.0,-0.12073031541826958,0.0,0.0,-0.2688767355460677,-0.3932334472091197,-0.4583048853886706,-1.043771422162219,-0.2263262703166638,-0.0978144500012846
11906,8.0,299.50809,3778.1751,0.0,0.0,0.0,-0.12074045656194182,0.0,0.0,-0.3055085434963457,-0.4071780686628466,-0.4357842569435576,-1.042255903987649,-0.2967670930286317,-0.0961591438429186
11907,8.0,301.04733999999996,3689.7509999999997,0.0,0.0,0.0,-0.1207505977056141,0.0,0.0,-0.2107901774608708,-0.4264701681818286,-0.48433181514232854,-1.0774925881402388,-0.27186975475145575,-0.08063201318426012
11908,8.0,301.48152999999996,3454.2929999999997,0.0,0.0,0.0,-0.12076073884928634,0.0,0.0,-0.19032331577594883,-0.3799544297460826,-0.47974106264925653,-1.087095969938019,-0.3148097031867987,-0.08620103433087972
11909,8.0,300.67176,3515.3936,0.0,0.0,0.0,-0.12077087999295862,0.0,0.0,-0.17841836677352182,-0.4143260110957936,-0.4758474870199905,-1.076703164987329,-0.26477584894634176,-0.08012509125198082
11910,8.0,301.05566,3933.8308,0.0,0.0,0.0,-0.12078102113663086,0.0,0.0,-0.28021482178004975,-0.4392825535763126,-0.4762889499560595,-1.056769495770029,-0.2924243132325327,-0.09136936673870441
11911,8.0,299.92897999999997,3809.7723,0.0,0.0,0.0,-0.12079116228030314,0.0,0.0,-0.2543461718245128,-0.41561197746020867,-0.4881174999009465,-1.065797959461069,-0.2702892568479728,-0.09469927539034081
11912,8.0,299.49399,3378.3502,0.0,0.0,0.0,-0.12080130342397538,0.0,0.0,-0.2195699085173628,-0.3944474322864306,-0.4129167524592106,-1.0209806916379491,-0.2748913577421647,-0.11284209699664789
11913,8.0,300.14653,3376.1482,0.0,0.0,0.0,-0.12081144456764766,0.0,0.0,-0.16167271674335484,-0.3928608650148486,-0.4717311686212416,-1.0682818407562091,-0.2560576728334248,-0.11584982859348789
11914,8.0,299.26687000000004,3711.5062,0.0,0.0,0.0,-0.12082158571131991,0.0,0.0,-0.24955734920189276,-0.4098964464286296,-0.46875141285966254,-1.036186637213659,-0.27016730206593675,-0.11978118831898289
11915,8.0,299.70038,3836.9935,0.0,0.0,0.0,-0.12083172685499217,0.0,0.0,-0.2294674874816778,-0.43044693164430464,-0.5064357850138205,-1.084543795586139,-0.26958042760801676,-0.1099375041274869
11916,8.0,300.81676,3519.5967,0.0,0.0,0.0,-0.12084186799866443,0.0,0.0,-0.27099485382010974,-0.36914435827171166,-0.4297303105110796,-1.071063617580749,-0.28827001822003573,-0.09583382773931241
11917,8.0,300.53694,3447.7221,0.0,0.0,0.0,-0.1208520091423367,0.0,0.0,-0.18772295124931282,-0.40500508289588966,-0.4552933845014586,-1.0877696799295091,-0.26240177356453875,-0.09169997302108272
11918,8.0,301.56177,3712.8951,0.0,0.0,0.0,-0.12086215028600895,0.0,0.0,-0.26279170260052176,-0.38705345246420164,-0.4787822544771295,-1.084448043451689,-0.2860196606754427,-0.08961558482961961
11919,8.0,302.15799,3915.1982,0.0,0.0,0.0,-0.12087229142968121,0.0,0.0,-0.21399429719209279,-0.4403009611193216,-0.5358272218570296,-1.074982970292559,-0.2852692375188817,-0.09705801624513041
11920,8.0,300.9682,3699.9065,0.0,0.0,0.0,-0.12088243257335347,0.0,0.0,-0.2361216123458888,-0.4099583256122366,-0.47859925137656856,-1.087743943376969,-0.2898007047486027,-0.07518242585342771
11921,8.0,299.52079,3367.9508,0.0,0.0,0.0,-0.12089257371702575,0.0,0.0,-0.18795771116498183,-0.38043929018393463,-0.45537595425210753,-1.067383189242519,-0.2907221746545447,-0.09887578489803021
11922,8.0,300.28319,3406.7382,0.0,0.0,0.0,-0.120902714860698,0.0,0.0,-0.2244362245076308,-0.4153552502823716,-0.3957718514921406,-1.0728766259846791,-0.2922370848790547,-0.09688392873219931
11923,8.0,300.49883,3690.4546,0.0,0.0,0.0,-0.12091285600437027,0.0,0.0,-0.28239925727313675,-0.40133175744086064,-0.43807502290213857,-1.070284326928839,-0.2820355612822427,-0.11787781827113489
11924,8.0,300.47352,3787.5982,0.0,0.0,0.0,-0.12092299714804251,0.0,0.0,-0.2646410157555347,-0.4245333507481796,-0.46216089983672953,-1.086792906833109,-0.28272296028258376,-0.0962394520193444
11925,8.0,300.03188,3432.5197,0.0,0.0,0.0,-0.12093313829171479,0.0,0.0,-0.18060515300684082,-0.41919058429588957,-0.4436045414803596,-1.0793008342686992,-0.24976740608012377,-0.13171836880709087
11926,8.0,300.01326,3551.0076,0.0,0.0,0.0,-0.12094327943538705,0.0,0.0,-0.20688240619770382,-0.3925460988712836,-0.47998913667123955,-1.0862427120288092,-0.25584571104500575,-0.09814348371950772
11927,8.0,299.68995,3881.6993,0.0,0.0,0.0,-0.1209534205790593,0.0,0.0,-0.25389359353484675,-0.4412477014827576,-0.48479836615087357,-1.067474381751519,-0.28680577050052575,-0.09599231525370391
11928,8.0,298.89852,3873.8592,0.0,0.0,0.0,-0.12096356172273157,0.0,0.0,-0.27658686966449875,-0.4207146644338046,-0.4802549223049705,-1.075020055246219,-0.26097397245112575,-0.08425425968849802
11929,8.0,298.0689,3566.3909,0.0,0.0,0.0,-0.12097370286640383,0.0,0.0,-0.24034896269059577,-0.38798690911882666,-0.4557579191423045,-1.076924560134179,-0.27758579240808473,-0.0881957326632411
11930,8.0,298.77538,3326.4835,0.0,0.0,0.0,-0.12098384401007609,0.0,0.0,-0.21611742092162878,-0.39156453310191064,-0.4034859676834646,-1.091228814445899,-0.2890284663173887,-0.08396902978534801
11931,8.0,299.98495,3382.5013,0.0,0.0,0.0,-0.12099398515374836,0.0,0.0,-0.16817046671963282,-0.39113044662656965,-0.4688950309288366,-1.088656983042079,-0.2947672615712637,-0.10819065082258589
11932,8.0,301.03018,3636.2119,0.0,0.0,0.0,-0.1210041262974206,0.0,0.0,-0.23338149023295982,-0.40580027144186864,-0.46613587997902955,-1.099438673381149,-0.2679186265165097,-0.08278836341107532
11933,8.0,301.3586,3788.9254,0.0,0.0,0.0,-0.12101426744109288,0.0,0.0,-0.23282089948263376,-0.44484120309490854,-0.4740766196877195,-1.073168442013479,-0.25593619427893577,-0.1131172247963009
11934,8.0,300.00638,3597.9351,0.0,0.0,0.0,-0.12102440858476513,0.0,0.0,-0.2710452832775867,-0.37944210009801965,-0.4431950567174466,-1.084125120644819,-0.2554245232434378,-0.07954572903030221
11935,8.0,299.94256,3570.2733,0.0,0.0,0.0,-0.1210345497284374,0.0,0.0,-0.2513261799014628,-0.4219259441333486,-0.4120217993083856,-1.030298640882559,-0.2934135493051627,-0.12830900513561289
11936,8.0,300.04586,3790.2175,0.0,0.0,0.0,-0.12104469087210966,0.0,0.0,-0.2827724676824698,-0.39997756894721265,-0.46938144163934153,-1.0595730574717188,-0.2675723989573398,-0.06938625632589034
11937,8.0,298.83242,3797.5587,0.0,0.0,0.0,-0.12105483201578192,0.0,0.0,-0.23793674857502878,-0.42533113321441457,-0.4910951379698166,-1.0530956535574492,-0.29798080452841574,-0.11902220319907689
11938,8.0,298.55874,3587.6709,0.0,0.0,0.0,-0.12106497315945418,0.0,0.0,-0.2059198591327078,-0.41763150649952063,-0.46701099369289656,-1.100746779260249,-0.2721919784157567,-0.09298449550410522
11939,8.0,299.86789,3223.975,0.0,0.0,0.0,-0.12107511430312644,0.0,0.0,-0.16413084122095284,-0.36318377270344765,-0.4526932834198486,-1.114236481816579,-0.28878143594300876,-0.1019808969222309
11940,8.0,299.59631,3261.8763,0.0,0.0,0.0,-0.1210852554467987,0.0,0.0,-0.18813110865459481,-0.3918989360324136,-0.4114989014617796,-1.125087478462489,-0.2517609857843748,-0.094518756779025
11941,8.0,300.77501,3462.6275,0.0,0.0,0.0,-0.12109539659047097,0.0,0.0,-0.2156973476951708,-0.39509433168027464,-0.44176061881587864,-1.103822803913829,-0.28762047424343073,-0.10928532570062191
11942,8.0,300.57455,3703.9548,0.0,0.0,0.0,-0.12110553773414322,0.0,0.0,-0.2551057547619777,-0.4126016316781106,-0.45820240527355655,-1.0936386271587288,-0.25333685313490073,-0.10573493788022591
11943,8.0,300.55371,3717.0668,0.0,0.0,0.0,-0.12111567887781549,0.0,0.0,-0.2172269297811288,-0.44260960080966655,-0.4700589614512075,-1.047142505244919,-0.2993137350349657,-0.12026590690182089
11944,8.0,299.75905,3557.224,0.0,0.0,0.0,-0.12112582002148774,0.0,0.0,-0.23110853721113678,-0.4057840189102646,-0.44441472612781857,-1.041106371749199,-0.26096942295817677,-0.09081126149087372
11945,8.0,299.5746,3604.2978,0.0,0.0,0.0,-0.12113596116516001,0.0,0.0,-0.2206381679652918,-0.4021200558861596,-0.4728583080324815,-1.047097719590499,-0.29418459210125875,-0.08845765072134042
11946,8.0,300.18335,3753.0024,0.0,0.0,0.0,-0.12114610230883227,0.0,0.0,-0.28060665572622073,-0.4015896093263086,-0.4586227622100425,-1.085628783793219,-0.2711428693947177,-0.08266130995453612
11947,8.0,300.18003,3761.5914,0.0,0.0,0.0,-0.12115624345250453,0.0,0.0,-0.24969962978093477,-0.4197787354489356,-0.47395148330036957,-1.0838709975197387,-0.28914249748364274,-0.08886138934293632
11948,8.0,299.39076,3622.7596,0.0,0.0,0.0,-0.12116638459617679,0.0,0.0,-0.23906967364433976,-0.4088086211212696,-0.45335017345967854,-1.103448205351859,-0.2674889780766067,-0.08268237846386543
11949,8.0,300.44175,3662.1309,0.0,0.0,0.0,-0.12117652573984905,0.0,0.0,-0.2086492205295748,-0.42777436291554255,-0.4767727768788095,-1.0816577553263091,-0.31255999412226976,-0.09971402846725841
11950,8.0,300.02306,3655.3413,0.0,0.0,0.0,-0.12118666688352131,0.0,0.0,-0.2252133164068238,-0.4098845508724556,-0.4760345937834565,-1.098105540224579,-0.26086769264813675,-0.08252973638930082
11951,8.0,301.22477000000003,3738.6183,0.0,0.0,0.0,-0.12119680802719358,0.0,0.0,-0.23188251843252278,-0.4400694638689746,-0.4644946377320516,-1.073410102162329,-0.26765457354044975,-0.11573324403698189
11952,8.0,300.31086,3605.9631,0.0,0.0,0.0,-0.12120694917086583,0.0,0.0,-0.2399772924214148,-0.3940534198525446,-0.4620920292274326,-1.079871496725019,-0.2359439288083528,-0.07624022957357483
11953,8.0,299.12419,3360.5508,0.0,0.0,0.0,-0.1212170903145381,0.0,0.0,-0.19223481208959883,-0.40624643585840164,-0.4230422924310236,-1.072052448353339,-0.2921676569822027,-0.1239458894100069
11954,8.0,299.24793,3540.1999,0.0,0.0,0.0,-0.12122723145821035,0.0,0.0,-0.22380712791804377,-0.3859637222466536,-0.46636153077629955,-1.078197911534849,-0.26554430795468276,-0.1017423778486909
11955,8.0,299.53372,3754.687,0.0,0.0,0.0,-0.12123737260188262,0.0,0.0,-0.22839115243045177,-0.4235153991677156,-0.48942453173494055,-1.060765956814449,-0.3005870256406297,-0.094478662472568
11956,8.0,298.83117999999996,3442.6379,0.0,0.0,0.0,-0.1212475137455549,0.0,0.0,-0.2007253413025488,-0.3935967176349716,-0.4521538999941156,-1.0795854562217888,-0.2617951913921738,-0.0966975140185516
11957,8.0,299.17883,3330.1109,0.0,0.0,0.0,-0.12125765488922714,0.0,0.0,-0.17425424323505484,-0.3940362553958506,-0.44398007223242153,-1.077510725317029,-0.32599309652801367,-0.08566501489547873
11958,8.0,299.80221,3583.5669,0.0,0.0,0.0,-0.12126779603289942,0.0,0.0,-0.23900982096093276,-0.4002689391459686,-0.4500361059601055,-1.0666077489409889,-0.2517962164903517,-0.1058949503360179
11959,8.0,300.06501000000003,3868.2155,0.0,0.0,0.0,-0.12127793717657166,0.0,0.0,-0.2690394837771297,-0.4140473571857926,-0.4927540918285425,-1.048876986766099,-0.2798803985845447,-0.08811446696547082
11960,8.0,299.81153,3770.3164,0.0,0.0,0.0,-0.12128807832024394,0.0,0.0,-0.25764029856211773,-0.4177690957305996,-0.47067265663927454,-1.077527747918709,-0.2509596772077918,-0.11692275912437788
11961,8.0,298.95485,3506.2535,0.0,0.0,0.0,-0.1212982194639162,0.0,0.0,-0.20356328258013182,-0.4118552919194526,-0.4503949383505195,-1.076861029352909,-0.3051956012029607,-0.11237854520839889
11962,8.0,299.44376,3473.8827,0.0,0.0,0.0,-0.12130836060758846,0.0,0.0,-0.2101725103324118,-0.40622919034169963,-0.43957188714236756,-1.1237675175572188,-0.27451198677222377,-0.1100078540819299
11963,8.0,300.16817000000003,3555.5323,0.0,0.0,0.0,-0.12131850175126072,0.0,0.0,-0.23025758951215475,-0.39818473435277363,-0.4523507238260405,-1.0902668348009592,-0.2555992075606777,-0.1084159165848179
11964,8.0,300.41449,3605.3773,0.0,0.0,0.0,-0.12132864289493298,0.0,0.0,-0.25339822569345777,-0.3733587998101447,-0.4691876372927145,-1.122865015693149,-0.23192097127381778,-0.06994166632845503
11965,8.0,300.37942000000004,3472.5889,0.0,0.0,0.0,-0.12133878403860524,0.0,0.0,-0.23573581737031377,-0.37625305752828564,-0.4435914300240656,-1.088670256618389,-0.26323441183421376,-0.09205615576248521
11966,8.0,301.07464,3534.5728,0.0,0.0,0.0,-0.12134892518227751,0.0,0.0,-0.22100930121191978,-0.3986628972074646,-0.45474967449779863,-1.0860574899105289,-0.23933585444560979,-0.06196492584371204
11967,8.0,300.07086,3730.633,0.0,0.0,0.0,-0.12135906632594975,0.0,0.0,-0.23870773057611877,-0.4013259515177876,-0.4939856061325835,-1.022659241753609,-0.2740546867370917,-0.11203576269956889
11968,8.0,299.71986,4012.3564,0.0,0.0,0.0,-0.12136920746962203,0.0,0.0,-0.27660780341156477,-0.43480453528936663,-0.5082438183597595,-1.039936067883699,-0.2603796404724698,-0.08166921145037362
11969,8.0,299.80761,3753.486,0.0,0.0,0.0,-0.12137934861329427,0.0,0.0,-0.23590289217930277,-0.44021117702796053,-0.4648519603798166,-1.060180399581659,-0.3231836985057477,-0.12975230897555587
11970,8.0,299.2705,3376.7609,0.0,0.0,0.0,-0.12138948975696655,0.0,0.0,-0.2178092547460998,-0.40703544357877064,-0.40160630768795663,-1.0866044423145091,-0.2959626129792357,-0.10018155320914951
11971,8.0,299.72027,3531.9645,0.0,0.0,0.0,-0.12139963090063881,0.0,0.0,-0.20990030069304683,-0.4155177350684076,-0.4482109689524786,-1.114555452948059,-0.2919344372066857,-0.11779412381287488
11972,8.0,300.76863,3534.8412,0.0,0.0,0.0,-0.12140977204431107,0.0,0.0,-0.24048463687898577,-0.38140761277450064,-0.45261118989674654,-1.0802207640344887,-0.2562835364132158,-0.1076633352055439
11973,8.0,298.47202000000004,3326.9234,0.0,0.0,0.0,-0.12141991318798333,0.0,0.0,-0.17454726503147383,-0.37867097624191565,-0.45808338891681055,-1.101776038711829,-0.29298958519832075,-0.09684299241490921
11974,8.0,300.10987,3499.4745,0.0,0.0,0.0,-0.12143005433165559,0.0,0.0,-0.2106541182374428,-0.3967096347246926,-0.4563891232920996,-1.082658846425109,-0.2274126162788778,-0.1055446697764479
11975,8.0,300.27207999999996,3675.0458,0.0,0.0,0.0,-0.12144019547532785,0.0,0.0,-0.22655426172166476,-0.40293010881110564,-0.4876377867736026,-1.050924866543209,-0.26113031694155575,-0.06793122006303944
11976,8.0,300.17487,3697.9301,0.0,0.0,0.0,-0.12145033661900012,0.0,0.0,-0.26318810630464373,-0.4080880280476526,-0.4528022686006045,-1.044994415032919,-0.2349232313201178,-0.09485489439369921
11977,8.0,300.69169,3859.7707,0.0,0.0,0.0,-0.12146047776267237,0.0,0.0,-0.2558124865742268,-0.4281673215693246,-0.48929410618206853,-1.057184117710949,-0.2822239346083337,-0.07379788443978413
11978,8.0,301.05471,3846.3892,0.0,0.0,0.0,-0.12147061890634464,0.0,0.0,-0.2507713950742098,-0.45241182280707054,-0.46602306471289556,-1.090839625082489,-0.3009251370664987,-0.09980777943276091
11979,8.0,300.3528,3629.719,0.0,0.0,0.0,-0.12148076005001689,0.0,0.0,-0.20838698127119382,-0.4289202677186346,-0.46603667266173854,-1.101231112808049,-0.2966610868031697,-0.1151471295166369
11980,8.0,301.36848,3806.1198,0.0,0.0,0.0,-0.12149090119368916,0.0,0.0,-0.23681708694952674,-0.4289210377887106,-0.4912272455178545,-1.0921847145902388,-0.2943307230306807,-0.09596475789073422
11981,8.0,299.94692000000003,3584.4644,0.0,0.0,0.0,-0.12150104233736142,0.0,0.0,-0.2301779176567918,-0.41380982096484964,-0.44559994503479056,-1.061115629423959,-0.2993807919265837,-0.1078244622364459
11982,8.0,299.98098,3445.5001,0.0,0.0,0.0,-0.12151118348103368,0.0,0.0,-0.2068486751018748,-0.4064795137789046,-0.43401780738172263,-1.068359557038879,-0.2794648849835367,-0.07407930958880862
11983,8.0,300.0551,3545.5978,0.0,0.0,0.0,-0.12152132462470594,0.0,0.0,-0.2301979901412728,-0.3927373295626566,-0.4548378677865026,-1.069801614581199,-0.2761639492052597,-0.08673196319777832
11984,8.0,299.74036,3609.4188,0.0,0.0,0.0,-0.1215314657683782,0.0,0.0,-0.24288619160350078,-0.40451573376009464,-0.44977127278146856,-1.059314780021229,-0.2704769208989937,-0.07169162321841234
11985,8.0,300.05321000000004,3589.1582,0.0,0.0,0.0,-0.12154160691205046,0.0,0.0,-0.1969456144545188,-0.4212159192582746,-0.47285293780695153,-1.0880156970537889,-0.27450421514395673,-0.0984130264846095
11986,8.0,300.42072,3593.2643,0.0,0.0,0.0,-0.12155174805572273,0.0,0.0,-0.22233602049535678,-0.4235971684507856,-0.44632944457678664,-1.068496447127389,-0.25828427979567375,-0.11583347473687389
11987,8.0,299.49876,3818.0234,0.0,0.0,0.0,-0.12156188919939498,0.0,0.0,-0.23459224304245177,-0.45247074330038556,-0.47352078108036255,-1.097104145150749,-0.27143014606306975,-0.1049264250954319
11988,8.0,300.17183,3936.9249,0.0,0.0,0.0,-0.12157203034306725,0.0,0.0,-0.3072171871399757,-0.42461468433370664,-0.4648950133765656,-1.080756570687369,-0.27242952476920074,-0.09317341091899972
11989,8.0,299.95414,3779.2654,0.0,0.0,0.0,-0.1215821714867395,0.0,0.0,-0.2314639346837118,-0.4362605351530626,-0.48107785363868755,-1.0819244427526291,-0.28425017136330777,-0.1005059036854104
11990,8.0,299.21176,3458.5757,0.0,0.0,0.0,-0.12159231263041177,0.0,0.0,-0.2052921101657538,-0.38672059980635165,-0.4593079320601636,-1.046490377480559,-0.28706124124823873,-0.10677117862499488
11991,8.0,300.0691,3490.4931,0.0,0.0,0.0,-0.12160245377408403,0.0,0.0,-0.1897944498862538,-0.39905858150401563,-0.4721697032645215,-1.056351226128749,-0.2691740231254078,-0.11030556722631189
11992,8.0,300.47643999999997,3618.1321,0.0,0.0,0.0,-0.12161259491775629,0.0,0.0,-0.2312151311216568,-0.4047608186942826,-0.46384586382552256,-1.058757087166189,-0.29695254819443473,-0.12352913964387688
11993,8.0,300.07719,3529.8525,0.0,0.0,0.0,-0.12162273606142855,0.0,0.0,-0.2332100888460438,-0.4043813869293356,-0.43539554380769463,-1.073072385903999,-0.29309861090908074,-0.10633046549399991
11994,8.0,299.77589,3330.2656,0.0,0.0,0.0,-0.12163287720510081,0.0,0.0,-0.2128664181082798,-0.39548381488621365,-0.4039673526734736,-1.088070817859229,-0.3013293731938937,-0.08925739686626923
11995,8.0,300.15114,3459.1040000000003,0.0,0.0,0.0,-0.12164301834877307,0.0,0.0,-0.22264866894621277,-0.3914953990475876,-0.43733717417931856,-1.1106182670344888,-0.2815335059901937,-0.08323675393807801
11996,8.0,298.98932,3950.1165,0.0,0.0,0.0,-0.12165315949244535,0.0,0.0,-0.26188209785325073,-0.44668879372475156,-0.4921659001454925,-1.102214674680119,-0.2914866313249907,-0.07416583101484764
11997,8.0,300.0399,4005.4136,0.0,0.0,0.0,-0.12166330063611759,0.0,0.0,-0.27036930360587275,-0.43063709842307263,-0.5165393070609605,-1.095271783669909,-0.24155529772965179,-0.09518128555566151
11998,8.0,300.12307999999996,3797.9294,0.0,0.0,0.0,-0.12167344177978986,0.0,0.0,-0.23468865378946677,-0.42836353745118966,-0.4914235120622245,-1.041897314777259,-0.24570109157380976,-0.09849716474641332
11999,8.0,299.27185,3622.1143,0.0,0.0,0.0,-0.12168358292346211,0.0,0.0,-0.22698792263196377,-0.4011584410112556,-0.47288592923020756,-1.045944742301709,-0.2559337928761988,-0.1002254958394863
12000,8.0,298.82737000000003,3776.1929999999998,0.0,0.0,0.0,-0.12169372406713438,0.0,0.0,-0.26287883197662076,-0.4278574291587406,-0.4571321294579286,-1.045767322209199,-0.30682756207902273,-0.08845177285751032
12001,8.0,299.73796,3539.2391,0.0,0.0,0.0,-0.12170386521080666,0.0,0.0,-0.2093355049548058,-0.39128276851410265,-0.4752220583957656,-1.0889125247172988,-0.3135907937140017,-0.0963352294850469
12002,8.0,300.64802000000003,3292.7137,0.0,0.0,0.0,-0.1217140063544789,0.0,0.0,-0.18909284511951083,-0.3921993545545626,-0.41961054606483655,-1.0627550680857591,-0.30426342124346173,-0.11785933658931089
12003,8.0,300.4002,3371.9845,0.0,0.0,0.0,-0.12172414749815118,0.0,0.0,-0.15529327384875286,-0.4139854374721816,-0.4557203680935986,-1.1031962100519888,-0.26878848146235773,-0.1029024985506859
12004,8.0,300.73774,3521.9564,0.0,0.0,0.0,-0.12173428864182342,0.0,0.0,-0.21068639025312783,-0.3942620784456376,-0.4656383437824265,-1.073513960297579,-0.2953057128069047,-0.12971563945443687
12005,8.0,300.7119,3910.9266,0.0,0.0,0.0,-0.1217444297854957,0.0,0.0,-0.25696791592825874,-0.46046161862402357,-0.47139449601051453,-1.089899025014659,-0.2533889544550428,-0.11870156020493187
12006,8.0,300.02621,4005.2268,0.0,0.0,0.0,-0.12175457092916796,0.0,0.0,-0.29621854982199475,-0.43189739916245456,-0.4893729978348545,-1.030264393029179,-0.27881469252686775,-0.1122835226140209
12007,8.0,299.65791,3753.7213,0.0,0.0,0.0,-0.1217647120728402,0.0,0.0,-0.24870455738772876,-0.4328947918983896,-0.4594381853605186,-1.024880285972809,-0.2670620147494687,-0.08862486738534342
12008,8.0,299.82174,3512.2014,0.0,0.0,0.0,-0.12177485321651248,0.0,0.0,-0.2001673039424748,-0.40438979690516563,-0.4630644250834006,-1.050265646028149,-0.3036368881766277,-0.08239255752451233
12009,8.0,299.48489,3609.7353,0.0,0.0,0.0,-0.12178499436018472,0.0,0.0,-0.2025988610024508,-0.4091202664545266,-0.48555027878508156,-1.1047171997770988,-0.27787151880378375,-0.07696833488343323
12010,8.0,298.87773,3703.7875,0.0,0.0,0.0,-0.121795135503857,0.0,0.0,-0.2184106389454518,-0.42390787146144965,-0.48354040601922255,-1.087822368934709,-0.3161605175576137,-0.0961715044808885
12011,8.0,298.79202000000004,3442.4277,0.0,0.0,0.0,-0.12180527664752924,0.0,0.0,-0.21618312005811277,-0.3872363542397526,-0.44299260934746654,-1.124876722441689,-0.28027195895318874,-0.096555207095007
12012,8.0,298.79669,3383.073,0.0,0.0,0.0,-0.12181541779120152,0.0,0.0,-0.2182369476133098,-0.38800305019291964,-0.4221297087284586,-1.1010979717449092,-0.3194227269170687,-0.11352019436107089
12013,8.0,299.68482,3486.3338,0.0,0.0,0.0,-0.12182555893487376,0.0,0.0,-0.22140117568809478,-0.3835396531049166,-0.4548176027845026,-1.088370131938769,-0.2762898353976837,-0.09319608745623773
12014,8.0,299.67613,3640.5197,0.0,0.0,0.0,-0.12183570007854604,0.0,0.0,-0.24313390085544778,-0.3947893839301786,-0.46870381036996456,-1.0490039470036292,-0.2668534574813858,-0.11258282656105989
12015,8.0,300.3723,3913.2690000000002,0.0,0.0,0.0,-0.12184584122221831,0.0,0.0,-0.23399101083061474,-0.42472988073757556,-0.5308151701048786,-1.0513875165388689,-0.2378684149882848,-0.08494171847059491
12016,8.0,300.34565,3874.6257,0.0,0.0,0.0,-0.12185598236589056,0.0,0.0,-0.2764236654708917,-0.4198157596075896,-0.4815500383177886,-1.052416978640469,-0.27235620599196475,-0.0949942730244548
12017,8.0,300.30688,3577.8271,0.0,0.0,0.0,-0.12186612350956283,0.0,0.0,-0.2162315635453938,-0.4122193324153806,-0.45911921422903856,-1.0784405849337988,-0.2475770532064528,-0.0994735761125276
12018,8.0,301.37501000000003,3575.3907,0.0,0.0,0.0,-0.12187626465323508,0.0,0.0,-0.2422879282144568,-0.41434011553718564,-0.4302014312775756,-1.071468309670689,-0.29137861886433075,-0.10507465345256091
12019,8.0,301.05896,3752.4421,0.0,0.0,0.0,-0.12188640579690735,0.0,0.0,-0.2304878201998768,-0.4174125836829146,-0.49274827577296854,-1.099670099703989,-0.27651100762951175,-0.08697186535770482
12020,8.0,299.93041,3549.938,0.0,0.0,0.0,-0.1218965469405796,0.0,0.0,-0.2139180298570658,-0.39820437113971163,-0.46697009891886054,-1.0755493770984592,-0.31729047380413167,-0.08511187862613842
12021,8.0,299.9582,3351.2197,0.0,0.0,0.0,-0.12190668808425187,0.0,0.0,-0.14146502416901088,-0.4136087617475066,-0.46361332292757257,-1.081078176269109,-0.2858654744077257,-0.11785099754098789
12022,8.0,299.13703,3456.5434,0.0,0.0,0.0,-0.12191682922792411,0.0,0.0,-0.2201872210082868,-0.3814184950805746,-0.44909717775494057,-1.045789613711399,-0.2783687003628517,-0.08721467453216822
12023,8.0,298.63154,3831.1809999999996,0.0,0.0,0.0,-0.12192697037159639,0.0,0.0,-0.22511927666504278,-0.4435175843567776,-0.4959465085211095,-1.063270711061649,-0.25115506222457473,-0.12923219756672485
12024,8.0,299.55987999999996,3819.3551,0.0,0.0,0.0,-0.12193711151526863,0.0,0.0,-0.29214121115459274,-0.41541347163311765,-0.4534339084479425,-1.0550459573499291,-0.2699737003693297,-0.1082060015616009
12025,8.0,299.57447,3645.8105,0.0,0.0,0.0,-0.12194725265894091,0.0,0.0,-0.2134130057422238,-0.4365389458830396,-0.4582834146190516,-1.099950466006659,-0.2690716139378007,-0.1203746489025529
12026,8.0,299.50505,3604.6688,0.0,0.0,0.0,-0.12195739380261317,0.0,0.0,-0.24037148724031876,-0.4218177188901676,-0.4335401106220776,-1.0835751284905388,-0.28250251759082773,-0.06257015836694385
12027,8.0,299.72129,3698.2209999999995,0.0,0.0,0.0,-0.12196753494628541,0.0,0.0,-0.2165608900928958,-0.42900575562957155,-0.4786001936991615,-1.1244843920029688,-0.28338200854512674,-0.07108177939397543
12028,8.0,300.65732,3895.4531,0.0,0.0,0.0,-0.12197767608995769,0.0,0.0,-0.27681222661923977,-0.4490182861021546,-0.4582899804796996,-1.085792930309419,-0.29112676541947474,-0.07718454624277163
12029,8.0,300.82275,3746.2552,0.0,0.0,0.0,-0.12198781723362993,0.0,0.0,-0.2316879136183168,-0.40838699762215863,-0.49869313569968055,-1.0829387061027291,-0.26816739968106174,-0.08302401093383192
12030,8.0,299.44662999999997,3509.5464,0.0,0.0,0.0,-0.1219979583773022,0.0,0.0,-0.23228792993003378,-0.4040272864168886,-0.4304992457469676,-1.0347066841175991,-0.2808409799443467,-0.1117957845458849
12031,8.0,298.81745,3527.0221,0.0,0.0,0.0,-0.12200809952097448,0.0,0.0,-0.20133479097269683,-0.38493546591267264,-0.48585640190529356,-1.036404992610209,-0.2724207601558357,-0.1043792801739329
12032,8.0,299.48739,3797.7577,0.0,0.0,0.0,-0.12201824066464673,0.0,0.0,-0.24325728432012475,-0.4024772164139086,-0.5086890201886975,-1.065006813782989,-0.29164414105303577,-0.0942662183771014
12033,8.0,299.72875,3639.3381,0.0,0.0,0.0,-0.122028381808319,0.0,0.0,-0.1990189470741408,-0.4293729878633146,-0.47787598332268755,-1.085115065992519,-0.29776797134491073,-0.1009629828320206
12034,8.0,299.78177999999997,3417.6165,0.0,0.0,0.0,-0.12203852295199125,0.0,0.0,-0.1962599785093518,-0.3978455792793016,-0.44476452032734054,-1.108720652247209,-0.2966563447927017,-0.11449321843210089
12035,8.0,300.06852000000003,3657.6916,0.0,0.0,0.0,-0.12204866409566352,0.0,0.0,-0.24457295917747174,-0.4179446210454226,-0.44932934375035355,-1.091458923543609,-0.28589610495824874,-0.1029434439872269
12036,8.0,300.02755,3860.0096,0.0,0.0,0.0,-0.12205880523933578,0.0,0.0,-0.27718003640553973,-0.4398136182187246,-0.45635288946852354,-1.0927110980171888,-0.2525502265522668,-0.1092980014593729
12037,8.0,300.20982000000004,3836.1611,0.0,0.0,0.0,-0.12206894638300804,0.0,0.0,-0.25793098988330676,-0.43955046703525363,-0.46861573867127254,-1.077383258454449,-0.26196189129862574,-0.13430430465230286
12038,8.0,299.8888,3689.4990000000003,0.0,0.0,0.0,-0.1220790875266803,0.0,0.0,-0.2230129323571628,-0.4347668930481516,-0.46373572353965253,-1.0679436178728292,-0.25966382993932474,-0.0963980449117463
12039,8.0,300.0015,3621.6912,0.0,0.0,0.0,-0.12208922867035256,0.0,0.0,-0.21784190166432182,-0.40000866559278164,-0.48305314417863354,-1.045664477324049,-0.28011769162546374,-0.098160012868389
12040,8.0,299.89615,3590.0214,0.0,0.0,0.0,-0.12209936981402482,0.0,0.0,-0.23369305450620875,-0.37934565895350164,-0.47823815943843156,-1.0587701580924789,-0.29016933526748373,-0.08604241509397523
12041,8.0,300.87987000000004,3676.2729,0.0,0.0,0.0,-0.12210951095769709,0.0,0.0,-0.2120645117141378,-0.41925954609769556,-0.48617111738635355,-1.091582033430759,-0.3153756337651517,-0.09154311278635181
12042,8.0,300.83524,3757.1506,0.0,0.0,0.0,-0.12211965210136934,0.0,0.0,-0.24827013653985475,-0.41605240688117556,-0.4777574330609875,-1.1217754678606189,-0.3011820972918587,-0.06714189620863924
12043,8.0,300.03896000000003,3600.4319,0.0,0.0,0.0,-0.12212979324504161,0.0,0.0,-0.2171404995475988,-0.41081684228946563,-0.4664840529783916,-1.088834605784609,-0.2922570763035277,-0.1078124045602559
12044,8.0,299.50261,3701.3651,0.0,0.0,0.0,-0.12213993438871386,0.0,0.0,-0.25342173309577776,-0.4086431776449416,-0.4630576363077306,-1.082876289896569,-0.26637199143136875,-0.08543050930558482
12045,8.0,300.13371,4052.6052,0.0,0.0,0.0,-0.12215007553238613,0.0,0.0,-0.2857213294484997,-0.4274342655194776,-0.5187352024126785,-1.057233665640839,-0.2813710718666627,-0.09828279040950622
12046,8.0,299.63351,3981.9587,0.0,0.0,0.0,-0.12216021667605839,0.0,0.0,-0.2860099132094807,-0.44439321482819555,-0.48001289738608455,-1.0765732663245091,-0.2749574824436907,-0.1055237664268849
12047,8.0,299.07996,3537.2042,0.0,0.0,0.0,-0.12217035781973065,0.0,0.0,-0.2340538323368148,-0.3897250991353726,-0.4514428010739356,-1.049419784844669,-0.26590908812318376,-0.09796331974572692
12048,8.0,300.30978999999996,3636.9752,0.0,0.0,0.0,-0.12218049896340291,0.0,0.0,-0.24994220185487478,-0.41242507284818564,-0.44318236069369354,-1.073035604925369,-0.25367515707828875,-0.12684620636374588
12049,8.0,299.9128,3596.7870000000003,0.0,0.0,0.0,-0.12219064010707517,0.0,0.0,-0.1966452972573798,-0.4079183897159106,-0.4887697593878195,-1.080080327570629,-0.25590259490561973,-0.11208146027907889
12050,8.0,300.11757,3427.7153,0.0,0.0,0.0,-0.12220078125074743,0.0,0.0,-0.17379785512501283,-0.41100887344841763,-0.4571331325755276,-1.1287394344729091,-0.25490174698684376,-0.13134216930996287
12051,8.0,300.73685,3529.8689,0.0,0.0,0.0,-0.1222109223944197,0.0,0.0,-0.17452618942939382,-0.4278297674310106,-0.4706360580456626,-1.115005741292499,-0.28251434221949473,-0.07902503196291343
12052,8.0,300.84641,3499.6652,0.0,0.0,0.0,-0.12222106353809195,0.0,0.0,-0.22363930330398077,-0.3963341647676366,-0.44383734582333556,-1.0866183238408789,-0.2900909705047497,-0.09037188585001073
12053,8.0,299.54391,3529.3816,0.0,0.0,0.0,-0.12223120468176422,0.0,0.0,-0.2041518086357148,-0.4165404894543456,-0.4521515695188856,-1.048736448977229,-0.3335121114125827,-0.1036649996484389
12054,8.0,301.45099,3921.6564,0.0,0.0,0.0,-0.12224134582543647,0.0,0.0,-0.27845441118881076,-0.43584577135712865,-0.47778542916125055,-1.047800104559819,-0.30116078864225576,-0.09832600046002071
12055,8.0,299.97907999999995,3980.7243,0.0,0.0,0.0,-0.12225148696910874,0.0,0.0,-0.24207822597376077,-0.43764353034705356,-0.5303190220609125,-1.049896316366699,-0.2944463652645937,-0.09230768598055931
12056,8.0,300.52391,3885.3376,0.0,0.0,0.0,-0.122261628112781,0.0,0.0,-0.2816833352824807,-0.4249273935795686,-0.4744348846580775,-1.0781756200326489,-0.25668747869808173,-0.0941527860416565
12057,8.0,299.49418,3602.0085,0.0,0.0,0.0,-0.12227176925645326,0.0,0.0,-0.23202114117870376,-0.39084993846888566,-0.4720495520676636,-1.0816829852537988,-0.27635308246892576,-0.09768202631921541
12058,8.0,299.06054,3486.1961,0.0,0.0,0.0,-0.12228191040012552,0.0,0.0,-0.23526329831867976,-0.38812179297213867,-0.43633145252756156,-1.124808834684989,-0.26087998337184976,-0.08791593175412692
12059,8.0,299.52027999999996,3583.7487,0.0,0.0,0.0,-0.12229205154379778,0.0,0.0,-0.2265322539294928,-0.39992289397181663,-0.46291496056114956,-1.130213916018429,-0.2956349177643947,-0.1072648340737149
12060,8.0,300.00507000000005,3599.9303,0.0,0.0,0.0,-0.12230219268747004,0.0,0.0,-0.21913625773956477,-0.4016809436903226,-0.47347172964302153,-1.1326174465806387,-0.26928557182891677,-0.07344565641352194
12061,8.0,299.54926,3608.6114,0.0,0.0,0.0,-0.12231233383114232,0.0,0.0,-0.2050479168916538,-0.4233112292725656,-0.4685686022766205,-1.082307957915479,-0.2862357159942657,-0.1208528928172519
12062,8.0,300.70521,3622.7297,0.0,0.0,0.0,-0.12232247497481456,0.0,0.0,-0.21329253030533377,-0.4027622234020366,-0.48516460539951856,-1.0712538046245188,-0.25800146142776176,-0.06747541254530473
12063,8.0,300.51003,3809.6055,0.0,0.0,0.0,-0.12233261611848684,0.0,0.0,-0.2374084197078868,-0.4437447550291975,-0.47687175114857755,-1.087915385293889,-0.27973525050771975,-0.10559659884407291
12064,8.0,299.87203999999997,4034.5257,0.0,0.0,0.0,-0.12234275726215908,0.0,0.0,-0.2737018629197707,-0.43317073029812253,-0.5195224673428754,-1.1014569662553388,-0.28009726450344774,-0.08651947654580752
12065,8.0,300.63177,3884.3995,0.0,0.0,0.0,-0.12235289840583136,0.0,0.0,-0.2744402385326427,-0.4189436755115217,-0.4873765506328206,-1.074193040514599,-0.3150000219530817,-0.10631004850448489
12066,8.0,299.7452,3460.4271,0.0,0.0,0.0,-0.12236303954950363,0.0,0.0,-0.1771536077336998,-0.42131725440077555,-0.45341255926833557,-1.087121199865509,-0.2822002144234927,-0.1087502080578099
12067,8.0,299.58976,3417.4564,0.0,0.0,0.0,-0.12237318069317588,0.0,0.0,-0.19785690119695581,-0.39413263574536267,-0.44683188490387354,-1.071200507669259,-0.3055187570573537,-0.11550637733959189
12068,8.0,300.63208,3728.6238,0.0,0.0,0.0,-0.12238332183684815,0.0,0.0,-0.24347866933447376,-0.4254239570560756,-0.4645059050731635,-1.0931688844123688,-0.25567444138060275,-0.092006808456115
12069,8.0,300.561,3517.2164,0.0,0.0,0.0,-0.1223934629805204,0.0,0.0,-0.23754818742668077,-0.4133230049543046,-0.4182747683255056,-1.0686556287180988,-0.26800934279796274,-0.12746534270484988
12070,8.0,300.40501,3465.8303,0.0,0.0,0.0,-0.12240360412419266,0.0,0.0,-0.21222529424000577,-0.4174308525822176,-0.42386972259518463,-1.079143780503199,-0.27268081079400075,-0.1116561992121089
12071,8.0,300.7373,3633.5908,0.0,0.0,0.0,-0.12241374526786493,0.0,0.0,-0.2164376991457378,-0.4259714870126126,-0.46211169641187355,-1.0750008034943188,-0.2896540671941307,-0.11646099065630489
12072,8.0,300.32216,4021.2567,0.0,0.0,0.0,-0.12242388641153717,0.0,0.0,-0.24142189322148577,-0.46797132174017353,-0.5129684009260396,-1.106882616565809,-0.2656068761483577,-0.09273468375820072
12073,8.0,299.70625,4183.8047,0.0,0.0,0.0,-0.12243402755520945,0.0,0.0,-0.2763820411567837,-0.4718037679909065,-0.5235863601814504,-1.103023957534989,-0.2860822997966247,-0.1028118430642389
12074,8.0,299.71285,3976.2216,0.0,0.0,0.0,-0.1224441686988817,0.0,0.0,-0.25968978940688675,-0.4509616997939545,-0.4980206010783066,-1.131604399130659,-0.26463029556947676,-0.04426790996340255
12075,8.0,299.19752,3522.0681,0.0,0.0,0.0,-0.12245430984255397,0.0,0.0,-0.2056633953998968,-0.40797047077105064,-0.45698690032109557,-1.0962554468669887,-0.3050245037910747,-0.07902346851800914
12076,8.0,299.49744,3630.9159,0.0,0.0,0.0,-0.12246445098622624,0.0,0.0,-0.2595441651025147,-0.3833026539065266,-0.4608609303559326,-1.093800949824749,-0.27472131411038275,-0.07469165715424263
12077,8.0,299.92602999999997,3962.4502,0.0,0.0,0.0,-0.12247459212989849,0.0,0.0,-0.27833549615707476,-0.4300828506183726,-0.49606758177555854,-1.031777986028559,-0.2954398975176477,-0.11291320688866589
12078,8.0,300.45181,3726.08,0.0,0.0,0.0,-0.12248473327357076,0.0,0.0,-0.2643823634025077,-0.3915488175928596,-0.4767041190520336,-1.049043463757529,-0.27790926237000874,-0.10379326697859789
12079,8.0,300.81815,3491.4117,0.0,0.0,0.0,-0.12249487441724301,0.0,0.0,-0.1979301186491818,-0.42161251547991563,-0.44175932185575056,-1.032906949289979,-0.27625494919674076,-0.11063290780361788
12080,8.0,299.87396,3568.2669,0.0,0.0,0.0,-0.12250501556091528,0.0,0.0,-0.22534472481229278,-0.40737465944724865,-0.45194465371596454,-1.096900481880649,-0.25480704863249776,-0.09823536523857572
12081,8.0,299.76907,3894.1589,0.0,0.0,0.0,-0.12251515670458754,0.0,0.0,-0.2324665760551648,-0.4458447665239526,-0.5054157360056495,-1.0931840831638688,-0.2736215121868407,-0.1084185713000799
12082,8.0,299.82802999999996,3855.9971,0.0,0.0,0.0,-0.1225252978482598,0.0,0.0,-0.24553642830005878,-0.4606493029400466,-0.46594109277980555,-1.122319988464359,-0.25754380675509475,-0.1123308008636869
12083,8.0,299.63402,3545.3534,0.0,0.0,0.0,-0.12253543899193206,0.0,0.0,-0.1872452544896678,-0.4114244883744356,-0.4790291632614976,-1.088507123352289,-0.30531199324194774,-0.1035546668450499
12084,8.0,299.43761,3503.8739,0.0,0.0,0.0,-0.12254558013560432,0.0,0.0,-0.2092552555468858,-0.4291694867132306,-0.42666543160859954,-1.080160678303559,-0.2919092376766987,-0.1033841469857209
12085,8.0,299.89227999999997,3752.4951,0.0,0.0,0.0,-0.12255572127927658,0.0,0.0,-0.2373567135552838,-0.4192744712716686,-0.48403362577039954,-1.040320900271679,-0.2972687227556387,-0.08938742522510201
12086,8.0,300.71598,3858.4478,0.0,0.0,0.0,-0.12256586242294885,0.0,0.0,-0.27783100906478575,-0.4216422037078456,-0.4733985831183025,-1.0583354737995792,-0.26863941210764575,-0.0936708072870889
12087,8.0,301.61484,3646.7542,0.0,0.0,0.0,-0.1225760035666211,0.0,0.0,-0.2175652033270138,-0.42359706712577555,-0.4673599468948355,-1.062367803897539,-0.27173599560575473,-0.08161729454174982
12088,8.0,301.26015,3515.5719,0.0,0.0,0.0,-0.12258614471029337,0.0,0.0,-0.2359742249863428,-0.3918390225540006,-0.4408328262293126,-1.085215681727449,-0.26256764260590876,-0.12216461599920889
12089,8.0,299.60087999999996,3847.0391,0.0,0.0,0.0,-0.12259628585396562,0.0,0.0,-0.23896754816676077,-0.45924311445126653,-0.4711931530831436,-1.090970131695369,-0.27511983550721375,-0.12697315646877488
12090,8.0,298.93469,3991.8481,0.0,0.0,0.0,-0.1226064269976379,0.0,0.0,-0.27507186824747976,-0.45195659993464354,-0.48639367777081854,-1.095442414986749,-0.27543108567293173,-0.1100174495603769
12091,8.0,299.24291,3767.7282,0.0,0.0,0.0,-0.12261656814131015,0.0,0.0,-0.23611848140307978,-0.4340911261589586,-0.4750856749323055,-1.094464223340209,-0.3094116740740547,-0.0953655106358431
12092,8.0,300.04564,3361.1777,0.0,0.0,0.0,-0.12262670928498241,0.0,0.0,-0.18118039535361283,-0.4063455013206786,-0.4341881955185386,-1.096597520100749,-0.29287010274652875,-0.08544500283501523
12093,8.0,299.7307,3408.8926,0.0,0.0,0.0,-0.12263685042865467,0.0,0.0,-0.17171482570193386,-0.4093947660391176,-0.45510865887572755,-1.076025300670429,-0.28393380428458476,-0.08566686812991162
12094,8.0,300.06422000000003,3832.8186,0.0,0.0,0.0,-0.12264699157232693,0.0,0.0,-0.2516885991972308,-0.42350749581693553,-0.48988505390539056,-1.075685659236909,-0.2809031124404787,-0.07748480061840443
12095,8.0,301.27603,4126.9004,0.0,0.0,0.0,-0.12265713271599919,0.0,0.0,-0.2848665820616427,-0.44450917116963956,-0.5250989196657285,-1.0920011136721188,-0.27225126367910774,-0.10106758671934421
12096,8.0,300.71681,3835.4962,0.0,0.0,0.0,-0.12266727385967147,0.0,0.0,-0.25264048687117474,-0.42145051705392755,-0.49180406853478253,-1.0871846293217688,-0.2767782320783847,-0.10044753034714941
12097,8.0,300.7894,3653.2968,0.0,0.0,0.0,-0.12267741500334371,0.0,0.0,-0.23464638099529478,-0.4244883827087416,-0.4513762406748666,-1.0832000233035188,-0.2726325699567398,-0.14108734532673686
12098,8.0,300.59798,3724.5557,0.0,0.0,0.0,-0.12268755614701599,0.0,0.0,-0.2440353286744118,-0.4028667097523486,-0.4852698922174095,-1.085795362109659,-0.26664863910617176,-0.09472002269938841
12099,8.0,300.21599,3657.256,0.0,0.0,0.0,-0.12269769729068823,0.0,0.0,-0.24370049004636574,-0.3957825514131966,-0.47223146085811657,-1.0709669535212092,-0.28011968772816076,-0.12923719288971788
12100,8.0,299.94845,3690.6205,0.0,0.0,0.0,-0.12270783843436049,0.0,0.0,-0.23159163459381477,-0.4178731261183666,-0.4723917164939325,-1.080516734388699,-0.2804474234730057,-0.09282936691379522
12101,8.0,300.41013,3478.5215,0.0,0.0,0.0,-0.12271797957803277,0.0,0.0,-0.20923394689728284,-0.4053762060100166,-0.44277351427834355,-1.084144169746699,-0.26655310988674374,-0.12899326306064388
12102,8.0,299.5253,3510.2944,0.0,0.0,0.0,-0.12272812072170503,0.0,0.0,-0.21423475157332378,-0.4158296033166866,-0.4369775007913216,-1.0661756990983489,-0.2754502462323227,-0.0970218330840594
12103,8.0,300.05813,3818.1571,0.0,0.0,0.0,-0.12273826186537728,0.0,0.0,-0.26458720204272373,-0.4241031652857236,-0.4719340719537665,-1.083013787935139,-0.2899934654476267,-0.11847533185510489
12104,8.0,298.8034,3925.6218,0.0,0.0,0.0,-0.12274840300904954,0.0,0.0,-0.2500941184423678,-0.4473311132281436,-0.49586578288564254,-1.093689796288779,-0.30083084401219273,-0.08286578078496583
12105,8.0,299.42726,3666.3529,0.0,0.0,0.0,-0.1227585441527218,0.0,0.0,-0.19623226611911682,-0.4564466657652786,-0.4618008110161916,-1.101442983403959,-0.30012842864536976,-0.13286086908984687
12106,8.0,300.96002999999996,3674.196,0.0,0.0,0.0,-0.12276868529639408,0.0,0.0,-0.2282675257857508,-0.4080851605498696,-0.48051116312275954,-1.099954721657079,-0.2945692927667257,-0.06339607473545544
12107,8.0,300.59749,3652.4640000000004,0.0,0.0,0.0,-0.12277882644006632,0.0,0.0,-0.21262674392962577,-0.4213572777797256,-0.47627383226456754,-1.079850421122939,-0.2598149865892428,-0.11881749628137389
12108,8.0,300.68382,3690.64,0.0,0.0,0.0,-0.1227889675837386,0.0,0.0,-0.25390641114861173,-0.38093140549250265,-0.4870245880780845,-1.0639824179318889,-0.25788601171136777,-0.08651682081729542
12109,8.0,300.22676,3695.4785,0.0,0.0,0.0,-0.12279910872741084,0.0,0.0,-0.23610490385173977,-0.40410385772694557,-0.4831244161906675,-1.0756055111539988,-0.24277124851215678,-0.13334237566986787
12110,8.0,299.96695,3645.9526,0.0,0.0,0.0,-0.12280924987108312,0.0,0.0,-0.25318393342980877,-0.3939002164374246,-0.4611944112288446,-1.066999471429649,-0.27992935882937675,-0.09737655573206781
12111,8.0,301.11744,3669.9327,0.0,0.0,0.0,-0.12281939101475539,0.0,0.0,-0.22431236481540678,-0.40678910221445863,-0.48446644568311553,-1.090228331297159,-0.28642515323296175,-0.11517828695721188
12112,8.0,299.97755,3794.4412,0.0,0.0,0.0,-0.12282953215842764,0.0,0.0,-0.24759834159105376,-0.4264223427771086,-0.47939468310257155,-1.0824502182295188,-0.28413936233237175,-0.08755827169407861
12113,8.0,299.73391000000004,3827.3606,0.0,0.0,0.0,-0.1228396733020999,0.0,0.0,-0.22587132102176377,-0.4202738195802966,-0.5172769328687585,-1.1185631610685889,-0.25695300088678674,-0.094055691350824
12114,8.0,300.62325,3617.4662,0.0,0.0,0.0,-0.12284981444577216,0.0,0.0,-0.22871049846446878,-0.3961849434254096,-0.4747239649116075,-1.101232227383159,-0.2706404999951378,-0.06609264533258624
12115,8.0,300.26392999999996,3386.6376,0.0,0.0,0.0,-0.12285995558944442,0.0,0.0,-0.1984359128340998,-0.39187261179481564,-0.43914476169521355,-1.094436966912519,-0.26778409730073277,-0.0943889908519681
12116,8.0,299.45705,3697.6661,0.0,0.0,0.0,-0.12287009673311668,0.0,0.0,-0.23964058941318475,-0.4083998253684246,-0.47595773876337155,-1.049888210365899,-0.29503498251268573,-0.1007303203440586
12117,8.0,299.29339,3847.3961,0.0,0.0,0.0,-0.12288023787678894,0.0,0.0,-0.25760697276632877,-0.42657181743186057,-0.48533354458869155,-1.0584095423818891,-0.26361192855647175,-0.11005588213666989
12118,8.0,299.73478,3629.9894,0.0,0.0,0.0,-0.12289037902046121,0.0,0.0,-0.24224284871750776,-0.4162630514444646,-0.4449202467352095,-1.072358449883539,-0.3030196770107137,-0.1164829781834749
12119,8.0,300.13791000000003,3569.2455,0.0,0.0,0.0,-0.12290052016413346,0.0,0.0,-0.2311828996359758,-0.38285050118190267,-0.47092809698948457,-1.074302572850409,-0.27429698523350476,-0.1013764223100739
12120,8.0,299.52882,3602.5216,0.0,0.0,0.0,-0.12291066130780573,0.0,0.0,-0.23176170862309978,-0.42183284671416066,-0.4414820560983866,-1.055642052383759,-0.28058659337424074,-0.13106670713777688
12121,8.0,299.51215,3731.8239,0.0,0.0,0.0,-0.12292080245147798,0.0,0.0,-0.2166908495507218,-0.43002026215969563,-0.4876701905118005,-1.046776417983789,-0.23650919064163975,-0.1108947924244639
12122,8.0,300.33754,3809.7411,0.0,0.0,0.0,-0.12293094359515025,0.0,0.0,-0.2573402346775037,-0.4125419917772246,-0.48818394884250454,-1.097012547341709,-0.2853277425796557,-0.11592498135340489
12123,8.0,300.6419,3778.2414,0.0,0.0,0.0,-0.1229410847388225,0.0,0.0,-0.2354066833403308,-0.44953792128343856,-0.4635464484209726,-1.1140105270442788,-0.2778568976048407,-0.07994237186144783
12124,8.0,300.10701,3474.5817,0.0,0.0,0.0,-0.12295122588249477,0.0,0.0,-0.2190985952333478,-0.3967233845285496,-0.4403641068655536,-1.0951025709032092,-0.3112647261219367,-0.08996708331580983
12125,8.0,299.9888,3708.3517,0.0,0.0,0.0,-0.12296136702616701,0.0,0.0,-0.2143160446288468,-0.4412373561992366,-0.4716929184299665,-1.0872822053063989,-0.2662374926130947,-0.07940078056374691
12126,8.0,300.73796,3974.8219,0.0,0.0,0.0,-0.12297150816983929,0.0,0.0,-0.2738864669554898,-0.4232474046487666,-0.5111127448254005,-1.075286438697509,-0.2709478795454737,-0.06837102734844504
12127,8.0,300.04922,3886.1678,0.0,0.0,0.0,-0.12298164931351153,0.0,0.0,-0.2149331342047488,-0.45057095002539055,-0.5157938893598936,-1.105382297142739,-0.25908515267471377,-0.08043592902490812
12128,8.0,299.53479,3795.219,0.0,0.0,0.0,-0.12299179045718381,0.0,0.0,-0.24467005893455476,-0.4600618509295696,-0.44891989951744454,-1.066930874397879,-0.2715169613316377,-0.11023854073219691
12129,8.0,298.59052,3729.3801,0.0,0.0,0.0,-0.12300193160085608,0.0,0.0,-0.24962535854860474,-0.4116104906952926,-0.47240256840250355,-1.079078223221729,-0.2674933553170387,-0.11851409880393089
12130,8.0,299.10997000000003,3802.1648,0.0,0.0,0.0,-0.12301207274452833,0.0,0.0,-0.2707447836954297,-0.4221703805874726,-0.46284799486204053,-1.047135209844199,-0.31275965505447473,-0.08475305434172523
12131,8.0,300.1268,3612.2033,0.0,0.0,0.0,-0.12302221388820059,0.0,0.0,-0.2353379140560438,-0.3919245611274426,-0.47075714143261255,-1.095576974600029,-0.29057050124707573,-0.09357246427213321
12132,8.0,299.30304,3556.9932,0.0,0.0,0.0,-0.12303235503187285,0.0,0.0,-0.2166542205596068,-0.3965468054336226,-0.46803607855406454,-1.061480804759999,-0.3045210502138877,-0.062314092841422135
12133,8.0,299.5025,3672.5928,0.0,0.0,0.0,-0.12304249617554511,0.0,0.0,-0.2046220681396258,-0.4300344577935966,-0.48171998062456056,-1.0762726350198388,-0.2607985281963108,-0.09504719609042792
12134,8.0,301.86009,3861.9214,0.0,0.0,0.0,-0.12305263731921737,0.0,0.0,-0.2527886341682958,-0.4291256839114076,-0.4920133756079395,-1.076264225044009,-0.2918093109518367,-0.08465795372708952
12135,8.0,301.38797,4027.6974,0.0,0.0,0.0,-0.12306277846288963,0.0,0.0,-0.26684486512053773,-0.4662242759177536,-0.4912502969576295,-1.1008062570411188,-0.26386153258610573,-0.1117194057533469
12136,8.0,300.74303,3962.1482,0.0,0.0,0.0,-0.1230729196065619,0.0,0.0,-0.26481522384522777,-0.4795378958717056,-0.46004099824251155,-1.0913621581590591,-0.2932042320995047,-0.1116067120772249
12137,8.0,299.84553,3578.134,0.0,0.0,0.0,-0.12308306075023415,0.0,0.0,-0.22637736851920678,-0.4162012938508696,-0.4450847174914416,-1.0931809420885592,-0.29391435829958873,-0.1124942381048169
12138,8.0,298.78722999999997,3652.7755,0.0,0.0,0.0,-0.12309320189390642,0.0,0.0,-0.2351385368338668,-0.43138232360662054,-0.4438316716227756,-1.067594249238349,-0.29203869050947473,-0.10330427248033791
12139,8.0,299.13925,3720.4781,0.0,0.0,0.0,-0.12310334303757867,0.0,0.0,-0.23768407439759176,-0.4114463847090966,-0.48180200322015554,-1.0624726752828888,-0.26973294201306874,-0.09326140155768371
12140,8.0,298.84099,3367.9465,0.0,0.0,0.0,-0.12311348418125094,0.0,0.0,-0.2076517467336318,-0.3799372044943826,-0.43618269728038056,-1.061819230293399,-0.26952877211791876,-0.12897861146419787
12141,8.0,299.04899,3335.5633,0.0,0.0,0.0,-0.12312362532492321,0.0,0.0,-0.17711287507967982,-0.3926753591865407,-0.4441397401831796,-1.0879460867719188,-0.26186125529869375,-0.12035897392350589
12142,8.0,299.47528,3776.5637,0.0,0.0,0.0,-0.12313376646859546,0.0,0.0,-0.24892949890992877,-0.39619998005689366,-0.5028515749050866,-1.0555052636202589,-0.27674764205786573,-0.07610650893137763
12143,8.0,299.9302,3950.2592,0.0,0.0,0.0,-0.12314390761226773,0.0,0.0,-0.26425003293944777,-0.43702254989076755,-0.49950757599755946,-1.056971943140009,-0.28870489503045477,-0.07681417394696873
12144,8.0,300.81819,3997.8758,0.0,0.0,0.0,-0.12315404875593998,0.0,0.0,-0.24710567912743175,-0.4562574311766025,-0.5118913160697395,-1.0566041333537088,-0.3054592083489767,-0.08785718351332891
12145,8.0,300.83083,3943.5598,0.0,0.0,0.0,-0.12316418989961225,0.0,0.0,-0.2384660298972648,-0.45398128641696456,-0.5062963921975635,-1.113988134217069,-0.3112126146692937,-0.06772622031605753
12146,8.0,299.32673,3850.5897,0.0,0.0,0.0,-0.12317433104328451,0.0,0.0,-0.2419824941043128,-0.4630846900854006,-0.4654159455179776,-1.113022202896739,-0.28890250919745775,-0.0977169631826634
12147,8.0,299.3675,3873.8571,0.0,0.0,0.0,-0.12318447218695677,0.0,0.0,-0.26657261495116874,-0.4233429136031926,-0.48764030976635153,-1.1010557192157389,-0.24246739507216875,-0.090725178802128
12148,8.0,298.93259,3619.3579999999997,0.0,0.0,0.0,-0.12319461333062903,0.0,0.0,-0.22844043691531576,-0.42936064647709665,-0.4423933833708276,-1.088461628422799,-0.24542405886396879,-0.11646393921409588
12149,8.0,299.1942,3224.0414,0.0,0.0,0.0,-0.12320475447430128,0.0,0.0,-0.19164153389104682,-0.3564212807410417,-0.4319652666541526,-1.0898107709309488,-0.25556749283254776,-0.09056317632313961
12150,8.0,299.79819,3336.1289,0.0,0.0,0.0,-0.12321489561797357,0.0,0.0,-0.19125313486271484,-0.3615739918720747,-0.46127275572657656,-1.0958776059046988,-0.28724423421629874,-0.11364070019546389
12151,8.0,299.54847,3741.5313,0.0,0.0,0.0,-0.12322503676164583,0.0,0.0,-0.24521210720805078,-0.4251555572370866,-0.4669644348508016,-1.061526299689489,-0.28194297048810474,-0.10070582096989071
12152,8.0,300.57797999999997,3859.865,0.0,0.0,0.0,-0.12323517790531807,0.0,0.0,-0.26173063722830275,-0.4198675772177036,-0.4917043748574435,-1.0707445451242592,-0.29045836485850873,-0.13647052190859188
12153,8.0,301.18113,3811.0484,0.0,0.0,0.0,-0.12324531904899035,0.0,0.0,-0.22573701472100877,-0.43326742475516555,-0.4994591223777775,-1.065733516754709,-0.28735949141517375,-0.0933535708397801
12154,8.0,301.03055,3625.4678,0.0,0.0,0.0,-0.12325546019266259,0.0,0.0,-0.2226339565547608,-0.4323253352096886,-0.44709239150458363,-1.1038869426451592,-0.2791843666933517,-0.12151727077532087
12155,8.0,300.79446,3891.005,0.0,0.0,0.0,-0.12326560133633487,0.0,0.0,-0.24324627029153778,-0.42271552940627455,-0.5168065720398375,-1.086527030006869,-0.28714843141934376,-0.06041917633915844
12156,8.0,300.39572999999996,3857.3439,0.0,0.0,0.0,-0.12327574248000712,0.0,0.0,-0.25522726371396975,-0.4467316947339856,-0.47057725914235954,-1.092318159628409,-0.2991385744901787,-0.12076591542866788
12157,8.0,300.10822,3642.9125,0.0,0.0,0.0,-0.12328588362367938,0.0,0.0,-0.22351544361175676,-0.41682911374533055,-0.4670098892502876,-1.069126080739529,-0.27801188434013674,-0.08384513564262062
12158,8.0,299.79441,3598.684,0.0,0.0,0.0,-0.12329602476735164,0.0,0.0,-0.23717365979221774,-0.4018143178009856,-0.4549220992673156,-1.093327356728009,-0.26894040818235176,-0.10903005760292889
12159,8.0,299.25167999999996,3559.6135,0.0,0.0,0.0,-0.1233061659110239,0.0,0.0,-0.22286182636974977,-0.4146454787198226,-0.4445263153613316,-1.091282618026209,-0.2716866097958807,-0.1021260146015529
12160,8.0,300.26311,3561.0161,0.0,0.0,0.0,-0.12331630705469616,0.0,0.0,-0.22197292232202182,-0.39078382389986066,-0.4697032194735986,-1.1155606983722688,-0.2291162848645168,-0.13164346935969887
12161,8.0,300.03715,3752.1738,0.0,0.0,0.0,-0.12332644819836844,0.0,0.0,-0.2225071077747418,-0.4028239708631306,-0.5152360647823405,-1.071812308079639,-0.25887011060599074,-0.0958380945354835
12162,8.0,300.42872,3776.5801,0.0,0.0,0.0,-0.12333658934204068,0.0,0.0,-0.23361698982120177,-0.4248467794016126,-0.4895222698395865,-1.066608964841109,-0.2788067283810817,-0.1046786347834769
12163,8.0,300.05907,3719.0331,0.0,0.0,0.0,-0.12334673048571296,0.0,0.0,-0.24987219640546576,-0.4018813848251046,-0.47873961691292155,-1.0663802742935389,-0.3000369929563457,-0.09993519360633571
12164,8.0,299.73742999999996,3830.9853,0.0,0.0,0.0,-0.1233568716293852,0.0,0.0,-0.24919240691337574,-0.43684576814582055,-0.4784856964378615,-1.070616470311619,-0.3110230659730867,-0.11029076364235091
12165,8.0,300.59305,3914.7357,0.0,0.0,0.0,-0.12336701277305748,0.0,0.0,-0.25516400651022675,-0.4239206586777116,-0.5108972366616316,-1.086489438428159,-0.29861179589568976,-0.07902672814358082
12166,8.0,300.9721,3794.5767,0.0,0.0,0.0,-0.12337715391672974,0.0,0.0,-0.2215431928221108,-0.4223755434677206,-0.5095378400624695,-1.093067356752349,-0.2631040876063518,-0.07259066584664092
12167,8.0,300.49379,3737.8156,0.0,0.0,0.0,-0.123387295060402,0.0,0.0,-0.22347045530731677,-0.4289772326392566,-0.4837549110653926,-1.087923693944709,-0.2827463055648877,-0.07582629664272283
12168,8.0,300.7838,3741.3774,0.0,0.0,0.0,-0.12339743620407426,0.0,0.0,-0.24692470252707077,-0.4178378751473876,-0.4725227297318626,-1.124392287568879,-0.2593948424352777,-0.0977365239758439
12169,8.0,300.38905,3671.2641,0.0,0.0,0.0,-0.12340757734774652,0.0,0.0,-0.24100108032245476,-0.43772082106468163,-0.43725071354828554,-1.1008072702912188,-0.27854367852262074,-0.11083032945310188
12170,8.0,299.24332000000004,3698.0466,0.0,0.0,0.0,-0.12341771849141878,0.0,0.0,-0.2326338028516688,-0.4350189896730316,-0.4564610336516966,-1.074375020232559,-0.26466722853562175,-0.14058444903710485
12171,8.0,299.59452000000005,3768.2602,0.0,0.0,0.0,-0.12342785963509105,0.0,0.0,-0.25643660810582275,-0.4008176850026256,-0.4882027142343565,-1.049073455960489,-0.2770288493581188,-0.1107879148039159
12172,8.0,298.80485,3677.4991,0.0,0.0,0.0,-0.1234380007787633,0.0,0.0,-0.2132242068510908,-0.42047545635019656,-0.4841682360461845,-1.057929565809519,-0.25914449873307077,-0.1271939031355609
12173,8.0,299.52497,3610.3564,0.0,0.0,0.0,-0.12344814192243557,0.0,0.0,-0.2322618083424558,-0.3884121803182976,-0.47678419620743656,-1.081651270525669,-0.27586243637300273,-0.08252744441757462
12174,8.0,300.43566,3889.2337,0.0,0.0,0.0,-0.12345828306610782,0.0,0.0,-0.25696016456499376,-0.41878317669568155,-0.5064865995063356,-1.088964301797409,-0.24731453023804376,-0.07416346608911423
12175,8.0,300.10406,4053.3877,0.0,0.0,0.0,-0.12346842420978009,0.0,0.0,-0.29726062688733973,-0.4498665790858745,-0.48500146200091754,-1.0887324701745291,-0.2912703024286407,-0.07947794867811282
12176,8.0,300.36598,3829.7126,0.0,0.0,0.0,-0.12347856535345235,0.0,0.0,-0.23733730981586876,-0.4402708878563536,-0.4865287946716535,-1.110201922568399,-0.2872779855771297,-0.0975878720801731
12177,8.0,301.03193,3674.9008,0.0,0.0,0.0,-0.12348870649712461,0.0,0.0,-0.22687830923614577,-0.44991925795857357,-0.4402805035998026,-1.1115337384998387,-0.3061067055603797,-0.08238733422024683
12178,8.0,300.12278,3672.16,0.0,0.0,0.0,-0.12349884764079687,0.0,0.0,-0.2114364283746508,-0.42683396549773256,-0.4779745624249165,-1.101146101124659,-0.25437900112775275,-0.08677030356831222
12179,8.0,300.07402,3831.1703,0.0,0.0,0.0,-0.12350898878446913,0.0,0.0,-0.25380513680111677,-0.4301669098466686,-0.4806080703623235,-1.0648647561189688,-0.27601809185336473,-0.1045107088444039
12180,8.0,300.24674,3879.8601,0.0,0.0,0.0,-0.12351912992814139,0.0,0.0,-0.25992318143492077,-0.44319649553258855,-0.4762609234582935,-1.0752887691727389,-0.27072041503052474,-0.13834049523314387
12181,8.0,299.69391,3642.3424,0.0,0.0,0.0,-0.12352927107181366,0.0,0.0,-0.2526088734680548,-0.4085192976877156,-0.44605295902199954,-1.069310188282699,-0.29248486505850874,-0.10077472704294121
12182,8.0,299.92807,3530.3375,0.0,0.0,0.0,-0.12353941221548591,0.0,0.0,-0.2112736193485828,-0.4073082105056906,-0.4545526277508516,-1.090528253326759,-0.2900991879630607,-0.11785707704158788
12183,8.0,300.34135,3892.5247,0.0,0.0,0.0,-0.12354955335915818,0.0,0.0,-0.25430306816525877,-0.4305638404408426,-0.4983634139846395,-1.062992472584189,-0.31470364629883174,-0.08578806500087281
12184,8.0,299.01162,3940.8193,0.0,0.0,0.0,-0.12355969450283043,0.0,0.0,-0.2537014306533818,-0.42257721063512355,-0.5216320135210716,-1.091003467623659,-0.2839952680356507,-0.0959343188444801
12185,8.0,300.09924,3694.9103,0.0,0.0,0.0,-0.1235698356465027,0.0,0.0,-0.2502857240362778,-0.4079285019519086,-0.46494625343412255,-1.083033242337059,-0.27299187857470075,-0.06438249498605754
12186,8.0,299.75282000000004,3543.2709999999997,0.0,0.0,0.0,-0.12357997679017498,0.0,0.0,-0.22215799245278678,-0.4115428866486206,-0.4433650395542226,-1.135124936603109,-0.25396265666166273,-0.07597248938040094
12187,8.0,299.31368,3875.3276,0.0,0.0,0.0,-0.12359011793384722,0.0,0.0,-0.2735020094700467,-0.4399149026987205,-0.46458592143356053,-1.098414581505079,-0.25707869456169175,-0.08351374105166452
12188,8.0,299.90578,4097.6384,0.0,0.0,0.0,-0.1236002590775195,0.0,0.0,-0.26804095620108276,-0.48677254211570953,-0.4907662572523585,-1.087950747722379,-0.26719250109734677,-0.12623977617889587
12189,8.0,299.59774,3878.4055,0.0,0.0,0.0,-0.12361040022119174,0.0,0.0,-0.26711808801000275,-0.4187634993787396,-0.4930568205609196,-1.0370736363511992,-0.28383756579008673,-0.1089195424145219
12190,8.0,298.25987000000003,3638.2498,0.0,0.0,0.0,-0.12362054136486401,0.0,0.0,-0.2095834472542758,-0.4089260568078596,-0.48742757790785657,-1.087655993268289,-0.2962013651002987,-0.11884095302118888
12191,8.0,299.85617,3711.3722,0.0,0.0,0.0,-0.12363068250853627,0.0,0.0,-0.23948457929528777,-0.4161664785774336,-0.47251340783094253,-1.096614137402389,-0.3112180862198337,-0.09807116400687031
12192,8.0,300.37703999999997,3658.4771,0.0,0.0,0.0,-0.12364082365220852,0.0,0.0,-0.2280080425676418,-0.4060897772604406,-0.4779878562662286,-1.101535594463099,-0.27606215810021373,-0.12128982652537387
12193,8.0,300.43093,3580.9567,0.0,0.0,0.0,-0.1236509647958808,0.0,0.0,-0.24477128261954476,-0.39651728945820963,-0.4472328482334456,-1.069667662917979,-0.2693963605948507,-0.08640659035216652
12194,8.0,300.95414,3560.435,0.0,0.0,0.0,-0.12366110593955304,0.0,0.0,-0.23405776374720277,-0.3833392626326396,-0.4648863095582066,-1.091132859661429,-0.26103500050464873,-0.1079263850640049
12195,8.0,299.50666,3633.3293,0.0,0.0,0.0,-0.12367124708322531,0.0,0.0,-0.1950622054336408,-0.4361083652530446,-0.47327082241319357,-1.090304325054659,-0.27947341654937874,-0.08172745509262183
12196,8.0,299.56906000000004,4009.6759,0.0,0.0,0.0,-0.12368138822689759,0.0,0.0,-0.2244283110243498,-0.4985376423393345,-0.4958753986290915,-1.0932213707675489,-0.27749932164455077,-0.12150903305200789
12197,8.0,301.21009,4174.708,0.0,0.0,0.0,-0.12369152937056983,0.0,0.0,-0.2721406978281957,-0.4690424284208835,-0.5278238632921595,-1.087522345580099,-0.29555524590903176,-0.07116897665783113
12198,8.0,301.33867999999995,3811.0922,0.0,0.0,0.0,-0.1237016705142421,0.0,0.0,-0.24145202727945977,-0.43080885444752365,-0.48621599423328254,-1.1034277376998387,-0.2739953508112357,-0.0953833671423554
12199,8.0,300.54646,3573.2907,0.0,0.0,0.0,-0.12371181165791435,0.0,0.0,-0.23458605208434077,-0.4236833859017946,-0.4279217097450846,-1.1228720071188387,-0.2813884288408757,-0.1032312070156269
12200,8.0,301.50512000000003,3662.0207,0.0,0.0,0.0,-0.12372195280158663,0.0,0.0,-0.2113037736715588,-0.4308927616883046,-0.47096631678325657,-1.1096561860645389,-0.2567960788437998,-0.1101268704386759
12201,8.0,300.45653,3642.9771,0.0,0.0,0.0,-0.12373209394525889,0.0,0.0,-0.22544463127215278,-0.4048698038750386,-0.47705963811462054,-1.0894390094692592,-0.2660944014339728,-0.1165836445809099
12202,8.0,299.51164,3592.0402,0.0,0.0,0.0,-0.12374223508893115,0.0,0.0,-0.20798791271930878,-0.37926772988831065,-0.5046348748160846,-1.052673938865829,-0.2715954375518827,-0.08002481394258422
12203,8.0,299.36391000000003,3617.7952,0.0,0.0,0.0,-0.1237523762326034,0.0,0.0,-0.25332928415665373,-0.3945176910483646,-0.45187243938133753,-1.087577669035559,-0.29250471462796773,-0.1021471509986389
12204,8.0,298.79064,3636.6679,0.0,0.0,0.0,-0.12376251737627567,0.0,0.0,-0.20749613178327378,-0.4208340658255886,-0.4771260465261746,-1.099615586848609,-0.3042150284186857,-0.08966007968126091
12205,8.0,300.15454,3930.8629,0.0,0.0,0.0,-0.12377265851994793,0.0,0.0,-0.2817033368394547,-0.4340519133800886,-0.4791288974688406,-1.1222804717104589,-0.28923371025764477,-0.08305356135974833
12206,8.0,300.94292,4198.173,0.0,0.0,0.0,-0.1237827996636202,0.0,0.0,-0.26395085058242074,-0.47355865636910055,-0.5386302566686675,-1.092287863450419,-0.26029711125182475,-0.07845026280393813
12207,8.0,300.28123,3868.6452,0.0,0.0,0.0,-0.12379294080729245,0.0,0.0,-0.23437405989841878,-0.4426507995587326,-0.49894667113970254,-1.0987728667404388,-0.2837639633028227,-0.1019898337881129
12208,8.0,300.16896,3561.3046,0.0,0.0,0.0,-0.12380308195096472,0.0,0.0,-0.17221022394082583,-0.43865931357230364,-0.4716781452435086,-1.097407309580669,-0.2935121182748907,-0.1186782757176339
12209,8.0,299.42877000000004,3596.6602,0.0,0.0,0.0,-0.12381322309463696,0.0,0.0,-0.23822233311571375,-0.4192825671399676,-0.4357899919391236,-1.1281616792658888,-0.28018005716911876,-0.08984895355290132
12210,8.0,298.90567999999996,3703.9719,0.0,0.0,0.0,-0.12382336423830924,0.0,0.0,-0.24219579338286376,-0.40324382117456664,-0.4804753345992236,-1.084002112082679,-0.2818099003524717,-0.08477195145609022
12211,8.0,298.85931,3528.9341,0.0,0.0,0.0,-0.1238335053819815,0.0,0.0,-0.25559401972016577,-0.4035409365013896,-0.4135728926939666,-1.0780789559731092,-0.2617453698847568,-0.12017780480562588
12212,8.0,299.03536,3522.3105,0.0,0.0,0.0,-0.12384364652565376,0.0,0.0,-0.1963673526224488,-0.40566605633362257,-0.46866102081824157,-1.068345472862489,-0.25721048800219876,-0.13520057502825789
12213,8.0,300.21263,3731.0938,0.0,0.0,0.0,-0.12385378766932602,0.0,0.0,-0.2155107779542578,-0.42909964338383755,-0.4895489385822185,-1.0983204505707889,-0.2522087511360658,-0.13106355592996588
12214,8.0,300.52706,4026.8131,0.0,0.0,0.0,-0.12386392881299828,0.0,0.0,-0.24111744196393878,-0.46322600807684755,-0.5197071727036044,-1.107464120798199,-0.2711911102319787,-0.08786581437768072
12215,8.0,300.19091000000003,4315.2269,0.0,0.0,0.0,-0.12387406995667054,0.0,0.0,-0.32893028565289173,-0.4629280314874396,-0.5198629193764756,-1.1066408550919489,-0.3182363731699847,-0.08436603941302982
12216,8.0,299.85036,3961.1844,0.0,0.0,0.0,-0.12388421110034281,0.0,0.0,-0.26747414409514275,-0.4404817046721595,-0.49614530819072955,-1.076706002087609,-0.33260282077284264,-0.06305015216456553
12217,8.0,300.02775,3495.2976,0.0,0.0,0.0,-0.12389435224401506,0.0,0.0,-0.20940117369378683,-0.4103895445897946,-0.4426924846678466,-1.097645220704149,-0.28052690281084974,-0.09218825520452242
12218,8.0,300.92964,3838.0224,0.0,0.0,0.0,-0.12390449338768733,0.0,0.0,-0.2232705005325828,-0.43249972568439954,-0.5108927479636886,-1.100986514233909,-0.26666023068731576,-0.07375475139627723
12219,8.0,299.24112,4141.4633,0.0,0.0,0.0,-0.12391463453135958,0.0,0.0,-0.26781857820163574,-0.4679723147252716,-0.5231105480669915,-1.108255975751349,-0.23939196823614775,-0.10821871785035589
12220,8.0,299.83822999999995,3754.514,0.0,0.0,0.0,-0.12392477567503185,0.0,0.0,-0.22943307750828176,-0.4171882906407786,-0.49465712750385754,-1.0898289081077388,-0.2630303736615768,-0.1021598672873939
12221,8.0,301.60233999999997,3381.7176,0.0,0.0,0.0,-0.12393491681870411,0.0,0.0,-0.21779801780249078,-0.4026668461701236,-0.40749283480641163,-1.0955926799765792,-0.25230223359029175,-0.11741387131534688
12222,8.0,299.91177000000005,3595.2451,0.0,0.0,0.0,-0.12394505796237637,0.0,0.0,-0.2253830054010708,-0.4084375588021486,-0.4590441830591336,-1.113662779609959,-0.2812033789751127,-0.1122586473240659
12223,8.0,300.30922000000004,4182.8279,0.0,0.0,0.0,-0.12395519910604863,0.0,0.0,-0.3101456825789957,-0.4466763814110266,-0.5146531723973135,-1.1031466621220989,-0.2968060423624757,-0.1012172234941122
12224,8.0,300.64817,4142.1792,0.0,0.0,0.0,-0.12396534024972089,0.0,0.0,-0.25628834935119077,-0.4867524898962305,-0.5160782174704546,-1.063978364931489,-0.3182407098804127,-0.13728472915894788
12225,8.0,299.18854,3519.7021,0.0,0.0,0.0,-0.12397548139339315,0.0,0.0,-0.2163607225356408,-0.3956894337290066,-0.45785139517391454,-1.0724064779382791,-0.2537585475615187,-0.08899566119318791
12226,8.0,300.1058,3414.8784,0.0,0.0,0.0,-0.12398562253706541,0.0,0.0,-0.17852026933607884,-0.3912490678157766,-0.46826842693449555,-1.070656291040549,-0.2956844859592867,-0.09487937654261541
12227,8.0,300.38377,3690.4505,0.0,0.0,0.0,-0.12399576368073767,0.0,0.0,-0.24662221697471776,-0.42376357451470864,-0.45141899982908656,-1.131940899488869,-0.27360145996736174,-0.06852591073223084
12228,8.0,298.86201,3962.6447,0.0,0.0,0.0,-0.12400590482440993,0.0,0.0,-0.25901038494983475,-0.4356273855630756,-0.5099072811814306,-1.093580669253009,-0.3031726473783107,-0.09661501620865973
12229,8.0,300.78982,3998.8574,0.0,0.0,0.0,-0.12401604596808219,0.0,0.0,-0.26935426005319574,-0.45093288296111056,-0.4952656551164145,-1.0869720494507888,-0.2605939935311248,-0.09590631666471651
12230,8.0,299.58702999999997,3452.6392,0.0,0.0,0.0,-0.12402618711175446,0.0,0.0,-0.17430868516292783,-0.38920258632380467,-0.48600483291244256,-1.0731688473135188,-0.2836169913758177,-0.1114935827035599
12231,8.0,299.92766,3588.0809999999997,0.0,0.0,0.0,-0.12403632825542671,0.0,0.0,-0.2221936791213088,-0.4227532831050006,-0.4457400775236206,-1.1206190455214888,-0.2790078179959277,-0.14064985433105986
12232,8.0,300.02595,4107.0283,0.0,0.0,0.0,-0.12404646939909898,0.0,0.0,-0.28051321380199873,-0.45138900762612655,-0.5165318394077235,-1.0946590713344388,-0.2940192094199367,-0.10606376793517891
12233,8.0,298.93822,3851.0293,0.0,0.0,0.0,-0.12405661054277123,0.0,0.0,-0.2887927336816237,-0.41621222681944864,-0.46561178649730556,-1.100910216501379,-0.23944339067872278,-0.1052479293521619
12234,8.0,300.04648,3428.0615,0.0,0.0,0.0,-0.1240667516864435,0.0,0.0,-0.2022687846498748,-0.38637432158467666,-0.4534019708047905,-1.0617389808854791,-0.2915739126886047,-0.08414236040045442
12235,8.0,300.84367000000003,3578.9926,0.0,0.0,0.0,-0.12407689283011575,0.0,0.0,-0.21841462101834477,-0.4044226464734076,-0.46508711546302456,-1.112300971475559,-0.2837320357921717,-0.09505849686879321
12236,8.0,300.22878,3964.7094,0.0,0.0,0.0,-0.12408703397378802,0.0,0.0,-0.25076770684384575,-0.4273084907845646,-0.5270964611778705,-1.0870485498333389,-0.3107566419917927,-0.08457670728107113
12237,8.0,301.87073,4309.2038,0.0,0.0,0.0,-0.12409717511746027,0.0,0.0,-0.3045942271361097,-0.48406971773896157,-0.5212264095060415,-1.1115745724788688,-0.27745461705013874,-0.093086689882691
12238,8.0,300.0926,3987.3471,0.0,0.0,0.0,-0.12410731626113254,0.0,0.0,-0.26063305432247974,-0.4278442062449356,-0.5235766836429955,-1.0940496013992889,-0.28037835021368873,-0.07411835822116243
12239,8.0,298.87269,3566.8546,0.0,0.0,0.0,-0.12411745740480479,0.0,0.0,-0.2406983414575768,-0.4198424891452276,-0.42369391357033365,-1.109502476024369,-0.2709162762748547,-0.12076997856156887
12240,8.0,300.5713,3576.8465,0.0,0.0,0.0,-0.12412759854847706,0.0,0.0,-0.1901104217974378,-0.42156755757297854,-0.4755940529049786,-1.077540008244919,-0.27780481654970074,-0.0942912355220704
12241,8.0,300.02904,3719.1009,0.0,0.0,0.0,-0.12413773969214932,0.0,0.0,-0.23025519824191876,-0.4209620190482166,-0.4792965802278896,-1.101957917104779,-0.2586552205247828,-0.11653985191158789
12242,8.0,299.32417000000004,3674.2159,0.0,0.0,0.0,-0.12414788083582158,0.0,0.0,-0.18722110873978481,-0.42390746616140956,-0.5057413135277815,-1.056165598710429,-0.30097239505116274,-0.1000112066155876
12243,8.0,300.4911,3452.3248,0.0,0.0,0.0,-0.12415802197949384,0.0,0.0,-0.2262984768664208,-0.40935438802263263,-0.4137676697606896,-1.112251828845709,-0.2797196971186847,-0.14067357451590085
12244,8.0,299.20049,3385.136,0.0,0.0,0.0,-0.1241681631231661,0.0,0.0,-0.19473630367147682,-0.39634906967660766,-0.43791145393849557,-1.086244738529009,-0.29800911473620967,-0.10874782692007488
12245,8.0,299.18731,3868.6991,0.0,0.0,0.0,-0.12417830426683836,0.0,0.0,-0.28561639726814375,-0.42426505225420064,-0.46610646532862654,-1.137470509259599,-0.2500802267834968,-0.09979690928568809
12246,8.0,300.16022999999996,4365.9989,0.0,0.0,0.0,-0.12418844541051063,0.0,0.0,-0.28939735014879475,-0.47664122661832653,-0.5611160597078434,-1.087416359619639,-0.2767144682495917,-0.056032406289967945
12247,8.0,300.3797,3931.7875,0.0,0.0,0.0,-0.12419858655418288,0.0,0.0,-0.24186070144229277,-0.44828101493189154,-0.5050235068919395,-1.088325548934369,-0.29208351669389876,-0.08313231926352112
12248,8.0,301.0614,3642.0603,0.0,0.0,0.0,-0.12420872769785515,0.0,0.0,-0.18114842731295783,-0.4267101767330156,-0.49923677477583356,-1.058756580541139,-0.3043047213175377,-0.08117354064720471
12249,8.0,301.86447000000004,3667.2242,0.0,0.0,0.0,-0.1242188688415274,0.0,0.0,-0.2506957154242408,-0.3971734398254666,-0.4668754208295165,-1.101798634189059,-0.26844006528297176,-0.0921682658065496
12250,8.0,300.59995,3764.5114,0.0,0.0,0.0,-0.12422900998519967,0.0,0.0,-0.26855596082940975,-0.4113058367877256,-0.4644556782657066,-1.094571121225759,-0.29098902420088074,-0.0961379415845761
12251,8.0,299.97978,3910.2892,0.0,0.0,0.0,-0.12423915112887195,0.0,0.0,-0.27207831201953875,-0.4550414398640935,-0.46151053512754353,-1.100413014677309,-0.25489633623130975,-0.13382277780727986
12252,8.0,299.92186,3679.1995,0.0,0.0,0.0,-0.12424929227254419,0.0,0.0,-0.20948793829984982,-0.4249889586556446,-0.4839078713004885,-1.093976546067079,-0.2587941979084988,-0.11830088058538789
12253,8.0,299.61467999999996,3420.7401,0.0,0.0,0.0,-0.12425943341621645,0.0,0.0,-0.17412706008250284,-0.4143964117127416,-0.45129610272445764,-1.0855195554324388,-0.24893208269768374,-0.11355066279157788
12254,8.0,298.8854,3602.9159,0.0,0.0,0.0,-0.12426957455988871,0.0,0.0,-0.16052657889273983,-0.42165986465708855,-0.5130100252401475,-1.0870556425840388,-0.2779418991557297,-0.08273774346257952
12255,8.0,299.2112,3995.5126,0.0,0.0,0.0,-0.12427971570356097,0.0,0.0,-0.2622129138783998,-0.4586856039812445,-0.49363755472323356,-1.077957163311089,-0.28894818651196574,-0.09878040057336651
12256,8.0,300.20906,3956.1547,0.0,0.0,0.0,-0.12428985684723325,0.0,0.0,-0.26022337704204773,-0.4565687522698275,-0.48578009404026257,-1.070136797714279,-0.3016942040248997,-0.11163883210539491
12257,8.0,301.36769,3631.9126,0.0,0.0,0.0,-0.12429999799090549,0.0,0.0,-0.2725735481384147,-0.39040371325734663,-0.44103348014661564,-1.080610763997979,-0.27424527908090174,-0.0966105974249736
12258,8.0,300.24247,3619.5221,0.0,0.0,0.0,-0.12431013913457777,0.0,0.0,-0.18660197239868082,-0.4415656492316366,-0.4720767071703435,-1.1052824920078888,-0.2933338470522967,-0.09898221668853421
12259,8.0,300.4771,3910.5649,0.0,0.0,0.0,-0.12432028027825001,0.0,0.0,-0.2283781321666668,-0.4514054830727526,-0.5089304776875275,-1.122655272922449,-0.28387626181140574,-0.0949136862042515
12260,8.0,300.46631,3994.0987,0.0,0.0,0.0,-0.12433042142192229,0.0,0.0,-0.2177371316039818,-0.4580486040408776,-0.5383205567756025,-1.125517197829899,-0.28033352402926476,-0.12183637362931388
12261,8.0,300.08191,3765.1552,0.0,0.0,0.0,-0.12434056256559456,0.0,0.0,-0.26746918930215374,-0.4194572109272036,-0.45758674438029556,-1.0914285260406091,-0.28066600178457773,-0.08641441162968841
12262,8.0,300.79214,3604.6244,0.0,0.0,0.0,-0.1243507037092668,0.0,0.0,-0.24225309267601877,-0.4122723355281116,-0.4411903717920996,-1.0895264529528887,-0.29685683658998874,-0.12210517874834288
12263,8.0,300.61368999999996,3721.9391,0.0,0.0,0.0,-0.12436084485293908,0.0,0.0,-0.27885414848576173,-0.40318894354915064,-0.4493334575457596,-1.0818452065948092,-0.2889489869795447,-0.08573929626030972
12264,8.0,299.42584,3955.9501,0.0,0.0,0.0,-0.12437098599661132,0.0,0.0,-0.2566182534512498,-0.4522824307693005,-0.4936093762379525,-1.055692512238739,-0.27061681020779976,-0.11357251859623488
12265,8.0,299.72989,3985.6549,0.0,0.0,0.0,-0.1243811271402836,0.0,0.0,-0.25877578715418176,-0.4113997245419916,-0.5413640459684715,-1.054959121816359,-0.26112940501646575,-0.048512677064078455
12266,8.0,300.17011,3654.0772,0.0,0.0,0.0,-0.12439126828395586,0.0,0.0,-0.1987319946458208,-0.4153536797447166,-0.49666255210177757,-1.0733427210306792,-0.2786595538040567,-0.08216168646272713
12267,8.0,300.91677999999996,3684.4652,0.0,0.0,0.0,-0.12440140942762812,0.0,0.0,-0.21490819811978779,-0.43382870451555955,-0.4712485069361066,-1.099165501154189,-0.30898663592210673,-0.08495264130667292
12268,8.0,300.33584,4104.2379,0.0,0.0,0.0,-0.12441155057130038,0.0,0.0,-0.2594352305842637,-0.47488472717247354,-0.5132658911553996,-1.1089480255696489,-0.29148820186264573,-0.12258604698080088
12269,8.0,299.27348,4204.8637,0.0,0.0,0.0,-0.12442169171497264,0.0,0.0,-0.3310274093848617,-0.46605258068830857,-0.4810935894127405,-1.0873068272838289,-0.3054307360211667,-0.10825968355189891
12270,8.0,298.32628,3709.4936,0.0,0.0,0.0,-0.1244318328586449,0.0,0.0,-0.2276106965409268,-0.41847184546995564,-0.4815108863339245,-1.0751650513355289,-0.28655287340806673,-0.11698084875261089
12271,8.0,298.71283,3326.7433,0.0,0.0,0.0,-0.12444197400231717,0.0,0.0,-0.18288361810920784,-0.40160760464808465,-0.4267556615300046,-1.066955800350339,-0.2967603751804687,-0.1297438078072169
12272,8.0,299.27301,3329.8723,0.0,0.0,0.0,-0.12445211514598942,0.0,0.0,-0.15586279133245987,-0.40758343963035365,-0.4487518215908565,-1.083657708373689,-0.26333964798959975,-0.1171376593380869
12273,8.0,300.06107000000003,3641.0953,0.0,0.0,0.0,-0.12446225628966169,0.0,0.0,-0.23236088393723375,-0.40814229772300864,-0.46629888152261656,-1.080560101492979,-0.25145917910958876,-0.10581599788822589
12274,8.0,298.31293,3838.0153,0.0,0.0,0.0,-0.12447239743333394,0.0,0.0,-0.23869312964217776,-0.43569753286749857,-0.4922701331832795,-1.0952046051882791,-0.2645942947934237,-0.09586195961508881
12275,8.0,300.26816,3725.7636,0.0,0.0,0.0,-0.12448253857700621,0.0,0.0,-0.27534162582160276,-0.4103513754585276,-0.44684610080277654,-1.091903740337509,-0.29316127029526473,-0.10283747829176891
12276,8.0,300.67644,3668.9073,0.0,0.0,0.0,-0.12449267972067847,0.0,0.0,-0.1998677466829108,-0.4438975835417806,-0.4714908662275255,-1.099721370159049,-0.28320332188999175,-0.09046387274708911
12277,8.0,300.94526,3878.6579,0.0,0.0,0.0,-0.12450282086435073,0.0,0.0,-0.25891629454554876,-0.42009508226265657,-0.5000037747040306,-1.089103319711129,-0.29345385639414073,-0.0961013277922126
12278,8.0,300.39198999999996,4098.1389,0.0,0.0,0.0,-0.12451296200802299,0.0,0.0,-0.26676325795748373,-0.4462220704636896,-0.5327465565179915,-1.1109176824390388,-0.27949436042894577,-0.0973929865956894
12279,8.0,300.6277,3900.7297,0.0,0.0,0.0,-0.12452310315169525,0.0,0.0,-0.26869404655303775,-0.43908659100697256,-0.4779438001518806,-1.0666094714661591,-0.3146619611897177,-0.11595619958898588
12280,8.0,299.46778,3645.1209,0.0,0.0,0.0,-0.12453324429536751,0.0,0.0,-0.24082958774302976,-0.42177508132595953,-0.4454210759946376,-1.083682330351119,-0.27516857283702373,-0.11763237869941189
12281,8.0,299.39471000000003,3636.4021,0.0,0.0,0.0,-0.12454338543903978,0.0,0.0,-0.25614528856957175,-0.40699972651274563,-0.44223040209224257,-1.065487296980409,-0.27332277565985774,-0.0981260831755404
12282,8.0,300.76578,3918.5217,0.0,0.0,0.0,-0.12455352658271203,0.0,0.0,-0.23691955693213976,-0.42418632272143064,-0.5300268615270786,-1.0845298127347591,-0.2876403035478877,-0.0878887057239399
12283,8.0,299.76579,3856.5474,0.0,0.0,0.0,-0.1245636677263843,0.0,0.0,-0.2493334107972918,-0.4090795540655086,-0.5138811264836185,-1.0918537871075789,-0.29667192857923974,-0.06582242774291784
12284,8.0,298.71101,3698.4658,0.0,0.0,0.0,-0.12457380887005655,0.0,0.0,-0.2070542027521588,-0.4207387696536836,-0.4964482902356315,-1.087769983904539,-0.2736272471824067,-0.09483263430225232
12285,8.0,299.07287,3837.4772,0.0,0.0,0.0,-0.12458395001372882,0.0,0.0,-0.25084969904193777,-0.4213139512054496,-0.4943335967469275,-1.085674785347759,-0.28141477334347575,-0.07820412611614633
12286,8.0,300.05498,4060.5325,0.0,0.0,0.0,-0.12459409115740108,0.0,0.0,-0.24927888780941077,-0.4771126310948505,-0.5079089594667114,-1.118166777629469,-0.25631540312886075,-0.11510808899028388
12287,8.0,299.77058,4076.6144,0.0,0.0,0.0,-0.12460423230107334,0.0,0.0,-0.28485124145512875,-0.4772553473714356,-0.47708240584436756,-1.066105379541409,-0.2901893570894597,-0.11535558545970989
12288,8.0,300.27554,3668.2756,0.0,0.0,0.0,-0.1246143734447456,0.0,0.0,-0.2209894212449578,-0.4281434595294696,-0.4659313149163406,-1.071437810842679,-0.27184384594639877,-0.13584153677651586
12289,8.0,299.97943,3327.2654,0.0,0.0,0.0,-0.12462451458841786,0.0,0.0,-0.2040798577461138,-0.3964967610111836,-0.4108289810256636,-1.0577072587375789,-0.2796520525420087,-0.09039852824814011
12290,8.0,300.67481000000004,3484.6923,0.0,0.0,0.0,-0.12463465573209012,0.0,0.0,-0.19367742691947382,-0.4115295624098056,-0.45405243683898655,-1.1327197848407389,-0.2960313316010177,-0.1226038599175589
12291,8.0,300.87227,3867.9503,0.0,0.0,0.0,-0.1246447968757624,0.0,0.0,-0.24815555821854676,-0.4277121493594026,-0.49989260090305854,-1.112536957423849,-0.2941233310002127,-0.09403536758031822
12292,8.0,300.66697999999997,3966.3655,0.0,0.0,0.0,-0.12465493801943464,0.0,0.0,-0.2554201764005088,-0.4498732260065306,-0.5003826795789256,-1.117269645990929,-0.28208517000713873,-0.13229746150424287
12293,8.0,299.40484,3904.6809999999996,0.0,0.0,0.0,-0.12466507916310691,0.0,0.0,-0.24899829859171874,-0.4076205347165146,-0.5303066806746946,-1.076555027822709,-0.3036176161597257,-0.07615746021265613
12294,8.0,298.75147999999996,3770.1577,0.0,0.0,0.0,-0.12467522030677916,0.0,0.0,-0.2217095380910278,-0.4257295532862356,-0.49859469845246557,-1.1068038870330388,-0.29167074900066176,-0.09156031979955001
12295,8.0,300.2312,3848.7753,0.0,0.0,0.0,-0.12468536145045143,0.0,0.0,-0.23702139869969074,-0.42234448735215563,-0.5105657012289115,-1.076378620980299,-0.30473761215776074,-0.05721911264808674
12296,8.0,300.47162000000003,4003.5861,0.0,0.0,0.0,-0.1246955025941237,0.0,0.0,-0.2689437721726837,-0.44338265997346155,-0.5046637727089365,-1.080230997860499,-0.27524138498920975,-0.09324090350816071
12297,8.0,299.48246,4024.0243,0.0,0.0,0.0,-0.12470564373779595,0.0,0.0,-0.28571863420323373,-0.4481820406621236,-0.4893022223153696,-1.059322784697019,-0.27407151682125275,-0.07169763483125564
12298,8.0,300.45889,3706.1065,0.0,0.0,0.0,-0.12471578488146821,0.0,0.0,-0.2551911920104098,-0.4245767786474656,-0.44679586386281855,-1.116614883776309,-0.2700154969359547,-0.1110245694972719
12299,8.0,300.87358,3684.8239,0.0,0.0,0.0,-0.12472592602514047,0.0,0.0,-0.22744920473998878,-0.4413633538491716,-0.4512819172230576,-1.114716458388949,-0.3044602653403887,-0.1069402596691819
12300,8.0,299.6887,3887.3303,0.0,0.0,0.0,-0.12473606716881273,0.0,0.0,-0.24462800905540477,-0.4214196838533846,-0.5156036415211175,-1.103148485972279,-0.27165827932308473,-0.13431383933574387
12301,8.0,299.42488,3966.4493,0.0,0.0,0.0,-0.12474620831248501,0.0,0.0,-0.2680587792703418,-0.4191160496185336,-0.5185267262046035,-1.087125151540899,-0.3059914382290037,-0.08417100092778101
12302,8.0,299.37494,3707.5006,0.0,0.0,0.0,-0.12475634945615725,0.0,0.0,-0.1949857151835918,-0.44730080691765256,-0.48470107387627154,-1.088057442957909,-0.28734549843129276,-0.11906913694370888
12303,8.0,298.43975,3581.1349,0.0,0.0,0.0,-0.12476649059982953,0.0,0.0,-0.21275349138463479,-0.4161484224606516,-0.4596736646837586,-1.103670816398829,-0.2966814024676747,-0.09629326877190571
12304,8.0,299.57965,3807.0732,0.0,0.0,0.0,-0.12477663174350177,0.0,0.0,-0.23403864371781577,-0.45100609028083555,-0.4722104359185415,-1.091213413044379,-0.24639589743238174,-0.14145565160558587
12305,8.0,300.0216,3896.1723,0.0,0.0,0.0,-0.12478677288717405,0.0,0.0,-0.24506490223352276,-0.4443648438253956,-0.4949093457187495,-1.085793842234509,-0.2625844422925667,-0.0910071723844586
12306,8.0,299.97164,3794.3372,0.0,0.0,0.0,-0.12479691403084632,0.0,0.0,-0.2159873196087888,-0.44817760262668555,-0.48921884196464055,-1.108150192440909,-0.26573027987803677,-0.11076084076124389
12307,8.0,299.43896,3786.2254,0.0,0.0,0.0,-0.12480705517451857,0.0,0.0,-0.23229905541613174,-0.4440947721437416,-0.4745241418593865,-1.1266801049696689,-0.30736682391474374,-0.07483291739043393
12308,8.0,299.71807,3828.5436,0.0,0.0,0.0,-0.12481719631819084,0.0,0.0,-0.2367919988770508,-0.4575062619248526,-0.4694833948644036,-1.1110172849238689,-0.29154930084367575,-0.1186381611461749
12309,8.0,300.44022,3790.7946,0.0,0.0,0.0,-0.12482733746186309,0.0,0.0,-0.2663946679686068,-0.41783747997984866,-0.4680747644428826,-1.099842554871009,-0.2972400275128067,-0.0999523985930337
12310,8.0,300.75034,3861.7509999999997,0.0,0.0,0.0,-0.12483747860553536,0.0,0.0,-0.27084071821489775,-0.4346938073184386,-0.4683413505441925,-1.084335370040569,-0.27033231997722273,-0.11420378354103589
12311,8.0,299.71735,3612.0954,0.0,0.0,0.0,-0.12484761974920762,0.0,0.0,-0.2465093409135778,-0.39170985343125264,-0.45976762336553156,-1.095352235727849,-0.3012373700848137,-0.13364417221215288
12312,8.0,299.42203,3576.315,0.0,0.0,0.0,-0.12485776089287988,0.0,0.0,-0.2084821153230828,-0.3926657231780896,-0.4859626411782786,-1.0943803262319292,-0.2658750226548217,-0.1040095249474409
12313,8.0,300.17375,3889.4413,0.0,0.0,0.0,-0.12486790203655214,0.0,0.0,-0.25201215021916273,-0.41706260709837456,-0.5132182582681986,-1.1050515723100989,-0.27878550079148673,-0.08215469706353733
12314,8.0,300.00331,4034.8604,0.0,0.0,0.0,-0.1248780431802244,0.0,0.0,-0.25176961867522674,-0.42715919851483064,-0.5475680142107555,-1.0954063432831889,-0.28120852628562076,-0.06432364845999984
12315,8.0,300.33259,3932.3889,0.0,0.0,0.0,-0.12488818432389666,0.0,0.0,-0.25907640832635076,-0.45468772438668453,-0.4815838808711285,-1.1000125782377888,-0.2960712941849617,-0.10985992969983088
12316,8.0,300.13732999999996,3705.2957,0.0,0.0,0.0,-0.12489832546756893,0.0,0.0,-0.2263315797471878,-0.4060940227783596,-0.49389176904082255,-1.0916183077843389,-0.2758823973999727,-0.1039711329011519
12317,8.0,299.11047,3764.6945,0.0,0.0,0.0,-0.12490846661124118,0.0,0.0,-0.2367677821996608,-0.4273453426907016,-0.48026000882047254,-1.0853893527945888,-0.2703871672051358,-0.1147323758532039
12318,8.0,299.76914,3781.1173,0.0,0.0,0.0,-0.12491860775491345,0.0,0.0,-0.2124449668616858,-0.4397508879050335,-0.49716938993429854,-1.089959516045629,-0.27442070307071476,-0.1002485158685082
12319,8.0,300.32301,3748.8785,0.0,0.0,0.0,-0.1249287488985857,0.0,0.0,-0.2246218519259508,-0.4372062521338976,-0.4777373403115045,-1.076754739417419,-0.3094856311988537,-0.1004440771908086
12320,8.0,298.95026,3686.1068,0.0,0.0,0.0,-0.12493889004225797,0.0,0.0,-0.21063532244808778,-0.4501772314340336,-0.45967187123108155,-1.088881215289209,-0.2900974553053898,-0.12498270770733289
12321,8.0,301.32227,3723.5924,0.0,0.0,0.0,-0.12494903118593023,0.0,0.0,-0.25829571938930274,-0.42173863471986256,-0.4518447573886056,-1.0851350270194888,-0.26083949389785377,-0.10806122838731289
12322,8.0,301.30087000000003,3889.2068,0.0,0.0,0.0,-0.12495917232960249,0.0,0.0,-0.23509531158460076,-0.4505401472223506,-0.49658628476675054,-1.0802967577919889,-0.2925175423742337,-0.12244375626925788
12323,8.0,300.25685,3938.4961,0.0,0.0,0.0,-0.12496931347327475,0.0,0.0,-0.2278824400852458,-0.4527111470191115,-0.5166108931805256,-1.1067105666988288,-0.2883760548430007,-0.11234624279521088
12324,8.0,300.26615,3954.9127,0.0,0.0,0.0,-0.12497945461694701,0.0,0.0,-0.2222500158268688,-0.4653128270553005,-0.5146318738802115,-1.1029703566046989,-0.28162181073640874,-0.1031651937716119
12325,8.0,299.70088,3848.1626,0.0,0.0,0.0,-0.12498959576061927,0.0,0.0,-0.23622297788589278,-0.4186774339152456,-0.5148449401112395,-1.107979155824029,-0.25654874449438975,-0.07651676376436664
12326,8.0,299.73989,3954.8441,0.0,0.0,0.0,-0.12499973690429154,0.0,0.0,-0.2679974877717927,-0.4395456236997756,-0.4946307424712535,-1.1075289688045988,-0.2687280917563977,-0.08057566127994863
12327,8.0,300.00404,3991.2601,0.0,0.0,0.0,-0.1250098780479638,0.0,0.0,-0.29975096258561673,-0.4437947589216326,-0.46969768712805254,-1.1197924360899092,-0.29128687920027674,-0.0917908048130471
12328,8.0,299.18869,3824.4896,0.0,0.0,0.0,-0.12502001919163605,0.0,0.0,-0.2540651266442758,-0.4294718304105696,-0.4790123939723426,-1.0877933899818488,-0.3052317235690257,-0.1024009498836869
12329,8.0,299.4824,3825.6740000000004,0.0,0.0,0.0,-0.1250301603353083,0.0,0.0,-0.2324773469037278,-0.43781186158616653,-0.4926201604303246,-1.0888310594092592,-0.2591319952268368,-0.1062445621505219
12330,8.0,298.97162000000003,3768.8923,0.0,0.0,0.0,-0.12504030147898057,0.0,0.0,-0.2441099748092788,-0.3976411155416226,-0.5038980697408675,-1.073713469242269,-0.29089296809140075,-0.08240434871592602
12331,8.0,299.13973,3849.9614,0.0,0.0,0.0,-0.12505044262265283,0.0,0.0,-0.22213436346045481,-0.47449837490934355,-0.4736593936940426,-1.111507697972269,-0.3031470628132857,-0.1106584315736369
12332,8.0,300.28404,3907.8014,0.0,0.0,0.0,-0.1250605837663251,0.0,0.0,-0.27646545190501576,-0.4141247897584346,-0.4972837858705885,-1.083390919622359,-0.2991666617829507,-0.08587910146935741
12333,8.0,298.9136,3817.9264,0.0,0.0,0.0,-0.12507072490999738,0.0,0.0,-0.2452125226405918,-0.4293353152245966,-0.4860064541126025,-1.087739687726549,-0.28158544519031975,-0.1120099146895179
12334,8.0,299.78904,3637.7355,0.0,0.0,0.0,-0.1250808660536696,0.0,0.0,-0.20908467489255078,-0.4151358613707196,-0.4815602113487925,-1.0852825562340491,-0.2832458175991857,-0.1124532217407689
12335,8.0,300.99589,3811.2821,0.0,0.0,0.0,-0.1250910071973419,0.0,0.0,-0.2207428974956278,-0.44878837965446455,-0.48900330340336856,-1.1198183752924689,-0.2957839364566017,-0.12711646043041788
12336,8.0,300.88015,3960.9344,0.0,0.0,0.0,-0.12510114834101413,0.0,0.0,-0.24901338588570776,-0.47021238778134955,-0.4847993895334745,-1.107084050685689,-0.27707021022720074,-0.12082568705206688
12337,8.0,301.71036000000004,3759.9274,0.0,0.0,0.0,-0.12511128948468642,0.0,0.0,-0.2409715136845368,-0.4258512446232456,-0.47610128590503853,-1.115530908819329,-0.24426779864485473,-0.12044100665160189
12338,8.0,301.32473999999996,3642.9947,0.0,0.0,0.0,-0.12512143062835865,0.0,0.0,-0.25003345515888076,-0.41460157459298963,-0.4427443833379686,-1.099455695982829,-0.2589011565890547,-0.1056884904956419
12339,8.0,299.77767,3729.7504,0.0,0.0,0.0,-0.12513157177203094,0.0,0.0,-0.2325726126781298,-0.4396993337399456,-0.4614790331819346,-1.129077049406229,-0.29618099877328874,-0.11592453552336089
12340,8.0,299.9832,3961.2638,0.0,0.0,0.0,-0.12514171291570317,0.0,0.0,-0.23616018677719577,-0.45467164410759753,-0.5132934414256185,-1.076728800214859,-0.3094768159229837,-0.1068093781537649
12341,8.0,300.13257000000004,3858.7451,0.0,0.0,0.0,-0.12515185405937546,0.0,0.0,-0.21682733433919177,-0.44926520501902356,-0.5068696283091375,-1.0999411441057387,-0.29101609824355273,-0.11909359680112289
12342,8.0,300.17947999999996,3775.1691,0.0,0.0,0.0,-0.12516199520304772,0.0,0.0,-0.22099231914024378,-0.4245432198041536,-0.5020215913506735,-1.062503680735949,-0.2939284120784757,-0.08300515029647051
12343,8.0,299.67028,3682.8053,0.0,0.0,0.0,-0.12517213634671998,0.0,0.0,-0.23083171728381677,-0.4136386120954526,-0.4750105323048896,-1.1032444407567488,-0.2967840649678067,-0.11023640277448589
12344,8.0,298.58564,3672.5856,0.0,0.0,0.0,-0.12518227749039224,0.0,0.0,-0.25255892023812476,-0.4099230645087566,-0.4538923230581846,-1.0835135228844592,-0.28052499790066177,-0.06942049404676934
12345,8.0,299.20071,3936.1477,0.0,0.0,0.0,-0.1251924186340645,0.0,0.0,-0.26044256330367976,-0.43998598219323554,-0.4960620798275155,-1.097032407043669,-0.26405461752516174,-0.13478562884730588
12346,8.0,300.05622,4015.7358,0.0,0.0,0.0,-0.12520255977773675,0.0,0.0,-0.25691743580827675,-0.4319531177854536,-0.5318128465508415,-1.113805039923999,-0.27848225530155873,-0.07955501749396893
12347,8.0,300.13667999999996,3906.8121,0.0,0.0,0.0,-0.12521270092140901,0.0,0.0,-0.2353598306557068,-0.4714800447164576,-0.4807334397971965,-1.1258882500165188,-0.2802834998718277,-0.15226770905015286
12348,8.0,299.7601,3985.0623,0.0,0.0,0.0,-0.12522284206508127,0.0,0.0,-0.26936469652922573,-0.4323479104219166,-0.5096468353757265,-1.114122693830349,-0.2873511726318527,-0.06835058401442744
12349,8.0,300.45309,3925.224,0.0,0.0,0.0,-0.12523298320875353,0.0,0.0,-0.28264924633780875,-0.4433676841369836,-0.4671531425494256,-1.135969683211479,-0.24518246964262577,-0.10868738655160991
12350,8.0,300.31152000000003,3669.953,0.0,0.0,0.0,-0.1252431243524258,0.0,0.0,-0.2517018727735408,-0.4018206404816096,-0.46205157015093956,-1.125470689650309,-0.28577131307593273,-0.05870661749714204
12351,8.0,300.58282,3591.1755,0.0,0.0,0.0,-0.12525326549609805,0.0,0.0,-0.2008294324853218,-0.4150633227960606,-0.4757349351988825,-1.1196347743743489,-0.2863994977404297,-0.09984237989717572
12352,8.0,300.41192,3768.4281,0.0,0.0,0.0,-0.1252634066397703,0.0,0.0,-0.18618113923464782,-0.44175895708571455,-0.5175679382974785,-1.079823671320299,-0.2973420617978767,-0.1148771895574959
12353,8.0,300.06195,3929.6798,0.0,0.0,0.0,-0.12527354778344257,0.0,0.0,-0.23576040895024078,-0.44261509262520865,-0.5161490335199435,-1.0765034533926188,-0.29039570547232474,-0.11423357309397589
12354,8.0,299.49772,4067.4489,0.0,0.0,0.0,-0.12528368892711483,0.0,0.0,-0.2369325062684178,-0.4699857845289856,-0.5294846308685645,-1.099704854182419,-0.3023202507316857,-0.1070877686187399
12355,8.0,299.37874,3964.5241,0.0,0.0,0.0,-0.1252938300707871,0.0,0.0,-0.2928592407054567,-0.4526378181093746,-0.45961926328588953,-1.1033147603136888,-0.28797688496610574,-0.1095498549042289
12356,8.0,299.96567999999996,3790.5932,0.0,0.0,0.0,-0.12530397121445935,0.0,0.0,-0.25702726198661574,-0.4065098707519006,-0.4887085489492785,-1.090679227591659,-0.2849207605444897,-0.1025612055195029
12357,8.0,300.60662,3655.3959,0.0,0.0,0.0,-0.1253141123581316,0.0,0.0,-0.22166671814180178,-0.4293299247340646,-0.4601524253560086,-1.100500255510919,-0.25805252923280175,-0.1171849071902499
12358,8.0,300.22745,3771.4597,0.0,0.0,0.0,-0.12532425350180387,0.0,0.0,-0.22293924880989077,-0.4231266758993516,-0.5003636406095465,-1.111811166377219,-0.2993534037763807,-0.0982668175349298
12359,8.0,300.89022,3797.5314,0.0,0.0,0.0,-0.12533439464547613,0.0,0.0,-0.22065669017711978,-0.4324878199957246,-0.5012102212005975,-1.1508066031007689,-0.2930706249413187,-0.1024286217439179
12360,8.0,299.47592000000003,3670.4,0.0,0.0,0.0,-0.1253445357891484,0.0,0.0,-0.2213317072612388,-0.4433983045550056,-0.45097994842825556,-1.0965492893959887,-0.2825501808755317,-0.1119221874958599
12361,8.0,299.87931000000003,3685.7929999999997,0.0,0.0,0.0,-0.12535467693282068,0.0,0.0,-0.2654543414783037,-0.39611234405574464,-0.4588223420822396,-1.109941922592739,-0.22971496368610178,-0.1030796248006669
12362,8.0,300.4987,3872.7313,0.0,0.0,0.0,-0.1253648180764929,0.0,0.0,-0.27454830165580774,-0.4310515379789746,-0.4716137835971565,-1.1138599580794188,-0.25791538583176676,-0.0905379767931526
12363,8.0,300.3726,3997.2547,0.0,0.0,0.0,-0.1253749592201652,0.0,0.0,-0.2289198967301348,-0.47660682677743155,-0.5095389141075755,-1.1113462872313387,-0.27560569906266474,-0.12290367048964788
12364,8.0,300.50401,3876.7847,0.0,0.0,0.0,-0.12538510036383743,0.0,0.0,-0.23120564710072078,-0.4327591177099996,-0.5144809705428185,-1.093020544597729,-0.30279029745307573,-0.09915350155168871
12365,8.0,301.01301,3808.2059999999997,0.0,0.0,0.0,-0.12539524150750972,0.0,0.0,-0.1906607381917498,-0.46441794483198257,-0.5025208399399456,-1.052756214773949,-0.2933546490768497,-0.12290685209496188
12366,8.0,299.84567999999996,3676.9448,0.0,0.0,0.0,-0.12540538265118198,0.0,0.0,-0.24348953137554577,-0.4059510227917466,-0.46825886185355153,-1.088706530971969,-0.3416333413615857,-0.08615044781963722
12367,8.0,299.77097000000003,3841.5967,0.0,0.0,0.0,-0.12541552379485424,0.0,0.0,-0.28318780903096075,-0.4390163829075436,-0.4455453004568976,-1.116720464436729,-0.3049078989695667,-0.1009111317846533
12368,8.0,300.09854,3863.165,0.0,0.0,0.0,-0.12542566493852647,0.0,0.0,-0.2833530498572687,-0.4386345092098556,-0.4523181377028246,-1.0914898276716591,-0.27957479222188375,-0.09991208643780522
12369,8.0,298.67721,3659.5481,0.0,0.0,0.0,-0.12543580608219876,0.0,0.0,-0.24469728496474177,-0.39516338467458967,-0.4725505738446106,-1.1038831936197888,-0.2350166935093418,-0.1021142507678919
12370,8.0,298.48114,3783.6209,0.0,0.0,0.0,-0.12544594722587102,0.0,0.0,-0.2189229381960118,-0.43958414746857755,-0.49161920105403756,-1.102128447096609,-0.2792805342603427,-0.13083838136024287
12371,8.0,299.50994,4074.6688,0.0,0.0,0.0,-0.12545608836954328,0.0,0.0,-0.22871904016281178,-0.48075389731671553,-0.5291246433730366,-1.1292515310734488,-0.3016627122117917,-0.1077660078381769
12372,8.0,299.90508,4149.7934,0.0,0.0,0.0,-0.12546622951321557,0.0,0.0,-0.2802207188956317,-0.46813184082101555,-0.5130810236746546,-1.106397675067949,-0.2824351161941758,-0.11187121088332891
12373,8.0,300.66333,3802.5611,0.0,0.0,0.0,-0.1254763706568878,0.0,0.0,-0.2544292482002118,-0.4339945026294226,-0.46745988375219855,-1.109407027864949,-0.26353408055128874,-0.08717493891624661
12374,8.0,300.09716000000003,3557.7828,0.0,0.0,0.0,-0.12548651180056006,0.0,0.0,-0.22652727887150179,-0.3969096908244366,-0.45804015353504357,-1.071071520931529,-0.27928541812582475,-0.12187492779561887
12375,8.0,300.47651,3763.4347,0.0,0.0,0.0,-0.12549665294423232,0.0,0.0,-0.23782300111880275,-0.4232400889830446,-0.4829270756011915,-1.1072709953291389,-0.28132565799718073,-0.09703941297329441
12376,8.0,300.83213,4104.7332,0.0,0.0,0.0,-0.1255067940879046,0.0,0.0,-0.2737236680619228,-0.4600670083725785,-0.5139457414424955,-1.060963743233969,-0.2952376831951907,-0.1259859874263489
12377,8.0,299.84817999999996,3951.0124,0.0,0.0,0.0,-0.12551693523157686,0.0,0.0,-0.22765715405801176,-0.4423187169709586,-0.5310332417914004,-1.0899670140963689,-0.2916028207139577,-0.08593940099605851
12378,8.0,299.37742000000003,3722.7132,0.0,0.0,0.0,-0.1255270763752491,0.0,0.0,-0.2654952159873377,-0.4250935868609706,-0.44102305380308654,-1.0928340052543188,-0.32448495481417167,-0.08164476476521093
12379,8.0,299.62875,3862.9566,0.0,0.0,0.0,-0.12553721751892136,0.0,0.0,-0.26524951297058874,-0.43149058937980556,-0.47750225615580355,-1.108154752066359,-0.30088860940039375,-0.09669928923272682
12380,8.0,298.70114,4076.7606,0.0,0.0,0.0,-0.12554735866259364,0.0,0.0,-0.29477457723698575,-0.44988211220990754,-0.4945767463734245,-1.125034688132279,-0.2867451882770467,-0.08284848663225902
12381,8.0,298.79525,4160.2062,0.0,0.0,0.0,-0.1255574998062659,0.0,0.0,-0.27976981246863075,-0.47592021811216856,-0.5089087840028865,-1.096148852956469,-0.2551758818013988,-0.08940951914353251
12382,8.0,299.44693,3766.1403,0.0,0.0,0.0,-0.12556764094993816,0.0,0.0,-0.2160061255306448,-0.42294874918179154,-0.5058577562292734,-1.130224048519429,-0.28078858478167573,-0.07840627457734684
12383,8.0,299.63498,3579.2945,0.0,0.0,0.0,-0.1255777820936104,0.0,0.0,-0.19323901386620582,-0.4286540362548596,-0.46612311302776954,-1.0838533669679988,-0.27849890300070174,-0.1152113087779709
12384,8.0,299.77005,3784.8675,0.0,0.0,0.0,-0.12558792323728268,0.0,0.0,-0.24584195360271177,-0.4238123625070236,-0.48085090588128954,-1.0806997273567591,-0.2781603761422918,-0.08514634838129033
12385,8.0,300.32498,3977.0151,0.0,0.0,0.0,-0.12559806438095494,0.0,0.0,-0.27408909671048776,-0.4210160151460456,-0.5138081724764185,-1.0727834069754791,-0.27944758880432974,-0.08064190453173632
12386,8.0,299.57437999999996,3909.8604,0.0,0.0,0.0,-0.1256082055246272,0.0,0.0,-0.26720908800148374,-0.4350788727539416,-0.4862119513653836,-1.111213450143229,-0.29336685874055474,-0.1072675698489849
12387,8.0,300.22049,3768.3515,0.0,0.0,0.0,-0.12561834666829946,0.0,0.0,-0.24945445365423777,-0.3991558940436196,-0.49687439230018454,-1.1257597699038386,-0.28145432049487873,-0.06516249592628764
12388,8.0,300.83412999999996,3864.4766,0.0,0.0,0.0,-0.1256284878119717,0.0,0.0,-0.22684457814031678,-0.4683822351857275,-0.47947757709325256,-1.124724126976629,-0.2781592413021797,-0.14301400999438385
12389,8.0,300.20367999999996,3902.9179,0.0,0.0,0.0,-0.12563862895564398,0.0,0.0,-0.2573027241588018,-0.4173476140865026,-0.5117392373622305,-1.103986747780009,-0.2778659256632317,-0.08449684594793942
12390,8.0,299.83716,3937.2669,0.0,0.0,0.0,-0.12564877009931624,0.0,0.0,-0.2633182278824857,-0.45682743502035755,-0.4766851611426626,-1.122957221452249,-0.2900082285015837,-0.11720120025185789
12391,8.0,299.81131,3666.1726,0.0,0.0,0.0,-0.1256589112429885,0.0,0.0,-0.2388708233122148,-0.4281352522036596,-0.4474188404218016,-1.069674046393609,-0.3124826324771347,-0.09099463645422141
12392,8.0,298.92577,3412.0572,0.0,0.0,0.0,-0.1256690523866608,0.0,0.0,-0.21021472233157779,-0.3965522364541586,-0.43041324107847956,-1.088557684532279,-0.2879956706229597,-0.11447259879256588
12393,8.0,299.15946,3608.2268,0.0,0.0,0.0,-0.12567919353033302,0.0,0.0,-0.2033960355186258,-0.4166872992613346,-0.47672749473184056,-1.086737178077609,-0.24494902695208678,-0.10261677215498691
12394,8.0,299.32875,3922.3454,0.0,0.0,0.0,-0.12568933467400528,0.0,0.0,-0.23021495194794678,-0.44371018293578557,-0.5183699156191275,-1.1400232915615387,-0.2586388160056638,-0.11740585650705589
12395,8.0,299.46169,3898.2313,0.0,0.0,0.0,-0.12569947581767754,0.0,0.0,-0.23730882735555778,-0.4387879659375006,-0.5088681830713795,-1.139314928416629,-0.2730117281441597,-0.1116919872056409
12396,8.0,300.1092,3672.9818,0.0,0.0,0.0,-0.12570961696134983,0.0,0.0,-0.2373368741183258,-0.4269800457646496,-0.4521778228289766,-1.142792301434819,-0.27521453386155975,-0.09961178545266781
12397,8.0,299.20926000000003,3865.7984,0.0,0.0,0.0,-0.1257197581050221,0.0,0.0,-0.24971539595249076,-0.41933102075974965,-0.5060597780342115,-1.088471254298749,-0.3029615468524767,-0.08965313587832562
12398,8.0,299.43294,4137.7576,0.0,0.0,0.0,-0.12572989924869432,0.0,0.0,-0.30217254926460874,-0.4595921689782156,-0.4960102622174015,-1.112966170166209,-0.30868498123483573,-0.07474721973672623
12399,8.0,300.29117,4281.1607,0.0,0.0,0.0,-0.12574004039236658,0.0,0.0,-0.2936043139014898,-0.49288107233107453,-0.5148805761172565,-1.084802377011659,-0.31821931003830073,-0.10107764930608731
12400,8.0,299.7625,3924.8606,0.0,0.0,0.0,-0.12575018153603887,0.0,0.0,-0.2602064861628808,-0.42882992633971856,-0.5040231959957165,-1.093628798632759,-0.2738100071029438,-0.10119588444700621
12401,8.0,299.63707,3504.8745,0.0,0.0,0.0,-0.12576032267971113,0.0,0.0,-0.1977538637942868,-0.4130006799649936,-0.4546397773919526,-1.076411348958529,-0.2789330502710487,-0.12428054565303488
12402,8.0,300.57182,3455.4698,0.0,0.0,0.0,-0.1257704638233834,0.0,0.0,-0.2017230481460148,-0.4006867224272006,-0.4479667554133766,-1.102298369138379,-0.26956701217669277,-0.11689676925931289
12403,8.0,299.74336,3769.9642,0.0,0.0,0.0,-0.12578060496705562,0.0,0.0,-0.2053798069619088,-0.4193880262103756,-0.5212071577541415,-1.1092412601485888,-0.3205174625901107,-0.09174158517618951
12404,8.0,299.80382000000003,3821.5086,0.0,0.0,0.0,-0.1257907461107279,0.0,0.0,-0.23311722447437877,-0.44921233362880564,-0.47931363322707254,-1.098433225306919,-0.27167104627434474,-0.12245374691524388
12405,8.0,299.92323,3552.6131,0.0,0.0,0.0,-0.12580088725440017,0.0,0.0,-0.2043352980963238,-0.38010635646607666,-0.49546402922099253,-1.108035999154639,-0.2956206309379847,-0.06648264124307585
12406,8.0,299.26024,3779.4442,0.0,0.0,0.0,-0.12581102839807243,0.0,0.0,-0.21538489176183379,-0.4759240481975466,-0.4575477342514455,-1.119868125872379,-0.2795739208267977,-0.14595178680431986
12407,8.0,299.81684,4243.5142,0.0,0.0,0.0,-0.12582116954174472,0.0,0.0,-0.2943624985538167,-0.4922421269505155,-0.5033177307460925,-1.1092733801767591,-0.3143604686224627,-0.09728213703474942
12408,8.0,300.41231,4378.2943,0.0,0.0,0.0,-0.12583131068541695,0.0,0.0,-0.32663898267175767,-0.4801123580159006,-0.5241408106361706,-1.1111050323825291,-0.2754896008662067,-0.13709693338541387
12409,8.0,300.2447,3954.7071,0.0,0.0,0.0,-0.1258414518290892,0.0,0.0,-0.2608189857158298,-0.45787232892098056,-0.48344088459440054,-1.0873529301633789,-0.30329159280754975,-0.06794341554124303
12410,8.0,299.42125,3650.1327,0.0,0.0,0.0,-0.12585159297276147,0.0,0.0,-0.22352372186507377,-0.4064696649879326,-0.4795558101334735,-1.1268419210106388,-0.3003823795179327,-0.0867436490111816
12411,8.0,300.14876,3730.5893,0.0,0.0,0.0,-0.12586173411643373,0.0,0.0,-0.2023355882289678,-0.4458725093116906,-0.4857978765795175,-1.107493201076069,-0.3280654260300367,-0.09368787041877291
12412,8.0,300.44108,3715.1683,0.0,0.0,0.0,-0.12587187526010601,0.0,0.0,-0.22539379651463579,-0.4057151077709636,-0.49820949116194857,-1.1084827411237288,-0.25813903039383873,-0.1032807650780179
12413,8.0,300.65844,3749.131,0.0,0.0,0.0,-0.12588201640377825,0.0,0.0,-0.2227802800017018,-0.4070605823137516,-0.5098013560159765,-1.111635874109919,-0.2604788579222618,-0.10702019496957091
12414,8.0,300.88718,3618.985,0.0,0.0,0.0,-0.1258921575474505,0.0,0.0,-0.2224673478408178,-0.42209405245743964,-0.4555196635137906,-1.101967644305739,-0.26354008912438176,-0.1121518912935299
12415,8.0,300.42947000000004,3821.1496,0.0,0.0,0.0,-0.12590229869112277,0.0,0.0,-0.2107293621898688,-0.45264791008037053,-0.4981568021567485,-1.0804230087544489,-0.2951087673849677,-0.1267116974129709
12416,8.0,300.06584,4238.4244,0.0,0.0,0.0,-0.12591243983479505,0.0,0.0,-0.2974104764446287,-0.4718169807722105,-0.5191477370583925,-1.089723631422349,-0.26829623443127676,-0.07553883252310234
12417,8.0,299.81415,4260.56,0.0,0.0,0.0,-0.1259225809784673,0.0,0.0,-0.27394261114353075,-0.4880501289017975,-0.5331111239039715,-1.079601566898379,-0.32673330612356666,-0.07540131320628023
12418,8.0,299.52974,3765.0636,0.0,0.0,0.0,-0.12593272212213955,0.0,0.0,-0.24314613078415478,-0.4270464136461996,-0.4742927661990516,-1.1450208437047589,-0.3262965548004627,-0.06653450343619423
12419,8.0,299.84334,3649.188,0.0,0.0,0.0,-0.1259428632658118,0.0,0.0,-0.2042183589022828,-0.4364659513458356,-0.46857773166002153,-1.124873784016399,-0.3158236422968667,-0.1056178669636719
12420,8.0,299.86082000000005,3749.1322,0.0,0.0,0.0,-0.1259530044094841,0.0,0.0,-0.25396944543733274,-0.42099542590401356,-0.46467768136261656,-1.1059963267033388,-0.24352798421684077,-0.13346517144948686
12421,8.0,299.95817999999997,3706.5586,0.0,0.0,0.0,-0.12596314555315635,0.0,0.0,-0.24476210257363876,-0.38289258145855565,-0.49904655733456055,-1.1001987122811592,-0.22330698766868376,-0.0982735029590896
12422,8.0,299.15499,3656.9045,0.0,0.0,0.0,-0.1259732866968286,0.0,0.0,-0.2164841667953238,-0.44717743358547657,-0.4479460648463346,-1.1118071133768188,-0.24653810708391677,-0.14892258543501485
12423,8.0,299.74647000000004,3698.1388,0.0,0.0,0.0,-0.12598342784050084,0.0,0.0,-0.2070387506881338,-0.4189460667817576,-0.4981570250717705,-1.090233904172709,-0.29504962397663076,-0.1031178851244429
12424,8.0,300.98562999999996,3972.3419,0.0,0.0,0.0,-0.12599356898417313,0.0,0.0,-0.2479434951051178,-0.4730508762139865,-0.48649836677115055,-1.069008341077909,-0.27136502447914274,-0.12992025517963088
12425,8.0,300.96365,4067.7137,0.0,0.0,0.0,-0.1260037101278454,0.0,0.0,-0.28862771577033774,-0.4548630673164896,-0.4929926007695815,-1.080323000969579,-0.2948899154958687,-0.08441446972805952
12426,8.0,300.31818,4158.1435,0.0,0.0,0.0,-0.12601385127151765,0.0,0.0,-0.2843319102488747,-0.47607924771536353,-0.5035606270600645,-1.136658895929499,-0.3046684578384357,-0.1172934870709659
12427,8.0,300.84064,4014.8662,0.0,0.0,0.0,-0.12602399241518994,0.0,0.0,-0.24572154909332874,-0.47436699690137757,-0.5003305478612805,-1.139553143515139,-0.3028668991606357,-0.08022200862404583
12428,8.0,300.29375,3787.2983,0.0,0.0,0.0,-0.12603413355886217,0.0,0.0,-0.23512515180004578,-0.4304038178525496,-0.4857151447088525,-1.1352922241946188,-0.2663533476295288,-0.07658025705538293
12429,8.0,299.73551000000003,3877.7512,0.0,0.0,0.0,-0.12604427470253443,0.0,0.0,-0.24667369007979778,-0.41579565943833663,-0.5162701979669015,-1.1035192341838689,-0.2885454499947187,-0.06640357733777284
12430,8.0,299.88681,3805.5319,0.0,0.0,0.0,-0.1260544158462067,0.0,0.0,-0.23560868488026676,-0.4102164713402136,-0.5109615172479754,-1.112738898168779,-0.3165683608553647,-0.07767943583011343
12431,8.0,298.58387999999997,3627.0476,0.0,0.0,0.0,-0.12606455698987898,0.0,0.0,-0.2033257868891928,-0.4123870050419286,-0.48681911109030557,-1.0711733525665792,-0.3019414167842977,-0.11550970079991989
12432,8.0,298.70549,3722.6078,0.0,0.0,0.0,-0.1260746981335512,0.0,0.0,-0.25157969507648276,-0.4122833596891996,-0.46771675278504954,-1.0675805703619992,-0.2705474937684587,-0.12168948276231689
12433,8.0,299.34301,4058.6827,0.0,0.0,0.0,-0.12608483927722347,0.0,0.0,-0.26886366461977773,-0.4358392257614826,-0.5290353253767215,-1.0766345679555591,-0.2530278523844048,-0.12347584268861687
12434,8.0,299.7375,3927.2323,0.0,0.0,0.0,-0.12609498042089573,0.0,0.0,-0.27892960522070875,-0.42947766673114557,-0.4853732943901145,-1.130599255031459,-0.29358316737190276,-0.09310658504840451
12435,8.0,299.7595,3840.2111,0.0,0.0,0.0,-0.12610512156456802,0.0,0.0,-0.21611074360346982,-0.4552674655639005,-0.4959500650289605,-1.129070260630559,-0.2992441450180977,-0.1058477430138589
12436,8.0,298.71179,3910.1334,0.0,0.0,0.0,-0.12611526270824028,0.0,0.0,-0.2520192733673658,-0.4473310524331376,-0.48923260190099854,-1.095756117217709,-0.2760648533454797,-0.06856294401013574
12437,8.0,299.34057,3934.7156,0.0,0.0,0.0,-0.12612540385191254,0.0,0.0,-0.24484505735932577,-0.45546024652792655,-0.49574998866421455,-1.1193772061989289,-0.29686017018281774,-0.06666721893429223
12438,8.0,300.10339,3897.5409,0.0,0.0,0.0,-0.12613554499558477,0.0,0.0,-0.27341687619664473,-0.44103635777689953,-0.4703018780301816,-1.0963073252721092,-0.31734028517904767,-0.10532819902508389
12439,8.0,300.22551,3822.5021,0.0,0.0,0.0,-0.12614568613925706,0.0,0.0,-0.2255805790380698,-0.42775053127319057,-0.5086140903438024,-1.1418555517173687,-0.2882872333392347,-0.0991774527575525
12440,8.0,299.94759,3763.7395,0.0,0.0,0.0,-0.12615582728292932,0.0,0.0,-0.23043252714191978,-0.4173297403547386,-0.4963205497955245,-1.1029074337734888,-0.25032270766492776,-0.13285197275396887
12441,8.0,300.29587000000004,3812.659,0.0,0.0,0.0,-0.12616596842660158,0.0,0.0,-0.23364013245348575,-0.4113860963281466,-0.5139269051231364,-1.1147585082680989,-0.2888457063968517,-0.09901030904755671
12442,8.0,299.65494,3803.8259999999996,0.0,0.0,0.0,-0.12617610957027384,0.0,0.0,-0.24109293144401978,-0.43108490430476765,-0.4840902765834906,-1.095402492932809,-0.30164455476999974,-0.15196690549296585
12443,8.0,300.29475,3808.0035,0.0,0.0,0.0,-0.1261862507139461,0.0,0.0,-0.2346872757693308,-0.4390262823610206,-0.48382442002225257,-1.095496421217079,-0.3061376400859327,-0.12085997543545089
12444,8.0,300.17512999999997,3832.1117,0.0,0.0,0.0,-0.12619639185761836,0.0,0.0,-0.2384881896769518,-0.4491883196014356,-0.4771897596924625,-1.081232595584349,-0.2763972601732857,-0.13909822392292587
12445,8.0,299.1548,3807.6204,0.0,0.0,0.0,-0.12620653300129062,0.0,0.0,-0.2217296004430078,-0.4489565487735616,-0.48673537610204154,-1.1077362797750592,-0.26907969967359874,-0.1020121860853189
12446,8.0,300.08344,3905.0926,0.0,0.0,0.0,-0.12621667414496288,0.0,0.0,-0.25122757040173077,-0.4390436899977386,-0.49677936970580655,-1.146657850566319,-0.2883702894499317,-0.08325260116964202
12447,8.0,299.98778,3637.1411,0.0,0.0,0.0,-0.12622681528863514,0.0,0.0,-0.2063798645456068,-0.40689069066948463,-0.4923295197716405,-1.1189389755306791,-0.25975845736616376,-0.08200255857427242
12448,8.0,301.88027999999997,3718.0797,0.0,0.0,0.0,-0.1262369564323074,0.0,0.0,-0.23118721608140178,-0.42713184076213057,-0.47188433150635756,-1.112540402474189,-0.26819405829119275,-0.08031206730618391
12449,8.0,301.41847,4203.9772,0.0,0.0,0.0,-0.12624709757597966,0.0,0.0,-0.2816975106513797,-0.45907817759998854,-0.5371284072379465,-1.0944381828126388,-0.30406968782434174,-0.1039941336784219
12450,8.0,300.36236,4234.6877,0.0,0.0,0.0,-0.12625723871965192,0.0,0.0,-0.3147475909556687,-0.4792081336266606,-0.4932835859332995,-1.111147588886729,-0.35325692094374367,-0.10284397322490992
12451,8.0,299.46724,3968.5624,0.0,0.0,0.0,-0.12626737986332418,0.0,0.0,-0.24264403496210177,-0.45069901470552953,-0.5130008249292395,-1.100052196316699,-0.3235859283979447,-0.16390511949617584
12452,8.0,300.34618,3730.8543,0.0,0.0,0.0,-0.12627752100699643,0.0,0.0,-0.24749949904379875,-0.4149135036362746,-0.4716735450880546,-1.072857982182839,-0.26731554005698976,-0.1036730245892309
12453,8.0,299.26153,3530.7526,0.0,0.0,0.0,-0.1262876621506687,0.0,0.0,-0.18430193520168484,-0.4063354904096906,-0.4826232120287025,-1.110965203868729,-0.24119417539401175,-0.13311030086696388
12454,8.0,299.9795,3628.614,0.0,0.0,0.0,-0.12629780329434095,0.0,0.0,-0.2450903348110328,-0.40491165110416866,-0.4530060433282156,-1.088954675921459,-0.25977384863518277,-0.11452590588032689
12455,8.0,299.36235,3676.7915,0.0,0.0,0.0,-0.12630794443801321,0.0,0.0,-0.2131369761499818,-0.42769157024987153,-0.47682424998388956,-1.129762006473829,-0.2562474951071588,-0.1021951283908739
12456,8.0,299.60952000000003,3783.4909,0.0,0.0,0.0,-0.12631808558168547,0.0,0.0,-0.23974246157823875,-0.45295467154814556,-0.45738961657334054,-1.091214122319449,-0.25185688990633975,-0.0970857509268676
12457,8.0,299.95031,4028.1521,0.0,0.0,0.0,-0.12632822672535776,0.0,0.0,-0.22989858486922377,-0.47547220958045355,-0.5190868609923845,-1.1349461992854688,-0.3040712482294957,-0.07235310733419573
12458,8.0,299.68104,4187.2482,0.0,0.0,0.0,-0.12633836786903,0.0,0.0,-0.25819967341232375,-0.5097489101908005,-0.5048703237418215,-1.1258352570362888,-0.31548312946826074,-0.09927524557770391
12459,8.0,299.3121,4177.5356,0.0,0.0,0.0,-0.12634850901270225,0.0,0.0,-0.2508570856351668,-0.46893023123731054,-0.5500792025960904,-1.119430503154189,-0.2960682443021607,-0.08838833833499982
12460,8.0,300.89862,4072.2932,0.0,0.0,0.0,-0.1263586501563745,0.0,0.0,-0.27442784648391977,-0.4495072400704106,-0.5139403509519634,-1.103398252121929,-0.28773349215958477,-0.12084029811850888
12461,8.0,300.82797,3745.6259999999997,0.0,0.0,0.0,-0.1263687913000468,0.0,0.0,-0.22751567394654879,-0.4258306655137146,-0.48523043625851553,-1.1081793740437889,-0.27838980636243477,-0.11220693103896189
12462,8.0,301.33917,3647.6253,0.0,0.0,0.0,-0.12637893244371906,0.0,0.0,-0.24608988576968077,-0.41127988745266464,-0.4514172367739126,-1.118606832147899,-0.32825213762596367,-0.11963080173914088
12463,8.0,301.59416,3777.3579999999997,0.0,0.0,0.0,-0.1263890735873913,0.0,0.0,-0.2437903754627368,-0.42931819129790655,-0.4751139547425965,-1.096291113270509,-0.2910365861605747,-0.12944612506033787
12464,8.0,300.02807,3815.5779,0.0,0.0,0.0,-0.12639921473106355,0.0,0.0,-0.2644903859956687,-0.4107810948259376,-0.4845689257982296,-1.092381487759659,-0.2923748666276527,-0.1012368197510462
12465,8.0,299.19631,3834.9297,0.0,0.0,0.0,-0.12640935587473584,0.0,0.0,-0.21606651523660478,-0.4393667647921236,-0.5102895905766615,-1.094446390138449,-0.26737056966992073,-0.10463427469409892
12466,8.0,300.00144,3926.5981,0.0,0.0,0.0,-0.1264194970184081,0.0,0.0,-0.24850278889531574,-0.46682741303977854,-0.4782575834428485,-1.109954284243959,-0.3067067522695997,-0.06514711478976964
12467,8.0,299.48406,4008.0061,0.0,0.0,0.0,-0.12642963816208036,0.0,0.0,-0.23833952562227978,-0.4650016376845885,-0.5149926010483125,-1.104263365057309,-0.24862449036482676,-0.09890571630598421
12468,8.0,300.04204,4042.3657,0.0,0.0,0.0,-0.1264397793057526,0.0,0.0,-0.2830327817656607,-0.44965767731275763,-0.4960877758500515,-1.1085182048772289,-0.27355806246557873,-0.04542395537349536
12469,8.0,300.91204,4068.3766,0.0,0.0,0.0,-0.12644992044942488,0.0,0.0,-0.24869376627416376,-0.46301789663880855,-0.5249732259908235,-1.141921615623889,-0.30016704360668073,-0.1085320958412839
12470,8.0,299.70222,3896.6034,0.0,0.0,0.0,-0.12646006159309714,0.0,0.0,-0.2610620948123228,-0.42430136713778466,-0.4991066633304925,-1.130642115510689,-0.30984599359691867,-0.1005100985408244
12471,8.0,299.88331,3896.8767,0.0,0.0,0.0,-0.1264702027367694,0.0,0.0,-0.22621445816812877,-0.47260548186752954,-0.4857332717531415,-1.119812701091909,-0.2810498107899567,-0.14355555164282985
12472,8.0,300.50251000000003,3956.2642,0.0,0.0,0.0,-0.12648034388044166,0.0,0.0,-0.2970646744505007,-0.41511438046859955,-0.4904264638313236,-1.0808859627251388,-0.2683157496282027,-0.12014432702232188
12473,8.0,300.10185,3823.718,0.0,0.0,0.0,-0.12649048502411392,0.0,0.0,-0.25772629309810474,-0.4268164869335076,-0.4777720137299265,-1.0973338489484188,-0.2689387160546847,-0.13747963794818388
12474,8.0,300.95071,3763.8732,0.0,0.0,0.0,-0.12650062616778618,0.0,0.0,-0.2415992626514908,-0.4538329567348256,-0.4486912596323796,-1.0668127294362189,-0.29041419728664974,-0.14395906836265387
12475,8.0,301.3426,3814.4735,0.0,0.0,0.0,-0.12651076731145844,0.0,0.0,-0.21171312671195883,-0.4246456492567626,-0.5231459206279825,-1.072879767059989,-0.26248420146017376,-0.0977530794692278
12476,8.0,300.43339,3863.7594,0.0,0.0,0.0,-0.1265209084551307,0.0,0.0,-0.22414134846352876,-0.4521563925893616,-0.4981886283423896,-1.090145244788959,-0.29614565660980074,-0.09810787507124341
12477,8.0,299.86944,4007.2475,0.0,0.0,0.0,-0.12653104959880299,0.0,0.0,-0.24138578098792177,-0.45633362758412255,-0.5203837704578794,-1.109065765231269,-0.3097891603988097,-0.06090261012086964
12478,8.0,299.2235,4126.405,0.0,0.0,0.0,-0.12654119074247522,0.0,0.0,-0.2807296541558597,-0.4685289538002076,-0.5050654757110815,-1.118809988792949,-0.2975598193768677,-0.09866168312540001
12479,8.0,299.60215,4007.2372,0.0,0.0,0.0,-0.12655133188614748,0.0,0.0,-0.26349680308010975,-0.45902279334952256,-0.49558046178998355,-1.126907984917159,-0.23181047635041277,-0.12069527163169588
12480,8.0,300.1264,3827.7282,0.0,0.0,0.0,-0.12656147302981974,0.0,0.0,-0.26084178384307977,-0.40946354545590563,-0.49322847526036057,-1.127756075250859,-0.25367944312621177,-0.11661833826433388
12481,8.0,300.33601,3839.3612,0.0,0.0,0.0,-0.12657161417349203,0.0,0.0,-0.2240712416891098,-0.4253471830959986,-0.5176515111657265,-1.1400957389436888,-0.27414063061057375,-0.13559530686971488
12482,8.0,300.17787999999996,3852.0416,0.0,0.0,0.0,-0.12658175531716429,0.0,0.0,-0.24857084890453277,-0.4340992017622556,-0.4882544102544585,-1.1014251502021988,-0.31753024930779566,-0.1121902428098149
12483,8.0,300.0012,3700.1091,0.0,0.0,0.0,-0.12659189646083652,0.0,0.0,-0.22673855164985277,-0.3936416958069106,-0.5043605272190085,-1.088165759393599,-0.2887475123296607,-0.12503527512252088
12484,8.0,300.72517,3725.8009,0.0,0.0,0.0,-0.12660203760450878,0.0,0.0,-0.2489438262663428,-0.41916067315293765,-0.4644459307997446,-1.069554685531829,-0.28204812558348274,-0.07742891886213933
12485,8.0,301.02825,3794.9273,0.0,0.0,0.0,-0.12661217874818106,0.0,0.0,-0.24974011925493078,-0.4158453998857456,-0.48797761059214056,-1.110012951424749,-0.2941472133050697,-0.10973489463749089
12486,8.0,301.24066,3935.929,0.0,0.0,0.0,-0.12662231989185332,0.0,0.0,-0.27381520507595675,-0.44344751811236255,-0.47916140253204853,-1.0882957593814289,-0.28041589112989374,-0.07423488603566283
12487,8.0,299.5848,4073.4269,0.0,0.0,0.0,-0.12663246103552558,0.0,0.0,-0.2199380020136908,-0.49783903679288755,-0.5204430253237275,-1.121029614462009,-0.26269814921878876,-0.09387846782883341
12488,8.0,300.30298,3975.5531,0.0,0.0,0.0,-0.12664260217919782,0.0,0.0,-0.2799349317049267,-0.4126657501444386,-0.5158682011222274,-1.092603085556529,-0.2806702067724927,-0.061273265113450444
12489,8.0,299.08205,3812.5820000000003,0.0,0.0,0.0,-0.1266527433228701,0.0,0.0,-0.21646248324318382,-0.4614455553986305,-0.4810216891856446,-1.1283299801074989,-0.3047324547147517,-0.0971788108558019
12490,8.0,299.1322,3792.98,0.0,0.0,0.0,-0.12666288446654236,0.0,0.0,-0.26850727416210474,-0.4300748256775806,-0.4543891094497136,-1.101346724644459,-0.29927578881872074,-0.1297110392989829
12491,8.0,299.94309,3882.0978,0.0,0.0,0.0,-0.12667302561021462,0.0,0.0,-0.22759368407174776,-0.44026980367874663,-0.5121972973349376,-1.121906075798509,-0.2503725798348498,-0.14244532337575888
12492,8.0,300.44257999999996,3727.9063,0.0,0.0,0.0,-0.1266831667538869,0.0,0.0,-0.2227678676879768,-0.42988556069140155,-0.48053701113281055,-1.1215887258671888,-0.24045374288343677,-0.15151870444373186
12493,8.0,300.08327,3560.6344,0.0,0.0,0.0,-0.12669330789755914,0.0,0.0,-0.17969984443999382,-0.41517926900500357,-0.48746483511403355,-1.131995614994269,-0.2704131874677037,-0.1088983148249269
12494,8.0,300.31049,3689.8697,0.0,0.0,0.0,-0.1267034490412314,0.0,0.0,-0.21727298199817377,-0.4203207431924276,-0.4840345174304875,-1.107814705332799,-0.2924878237488007,-0.1202419131394529
12495,8.0,300.4108,3791.0326,0.0,0.0,0.0,-0.12671359018490366,0.0,0.0,-0.20015533745879382,-0.4445981649259226,-0.5076257357987596,-1.071889517737259,-0.2903602518513257,-0.099796918404939
12496,8.0,300.33178,3976.0844,0.0,0.0,0.0,-0.12672373132857595,0.0,0.0,-0.2561778341627838,-0.44435548139447156,-0.5080970389502735,-1.080985463884959,-0.2963072294707467,-0.07571867428335133
12497,8.0,300.98557999999997,4124.2237,0.0,0.0,0.0,-0.1267338724722482,0.0,0.0,-0.2653009860756687,-0.4892242527201745,-0.4991357942708675,-1.0993782836751889,-0.3093296616109607,-0.0870822366645976
12498,8.0,299.12163,4024.1602,0.0,0.0,0.0,-0.12674401361592044,0.0,0.0,-0.26545984342634676,-0.4702641547289586,-0.4875202294970005,-1.1200240650627689,-0.2983827912405887,-0.07879022543773984
12499,8.0,300.65636,3936.5521,0.0,0.0,0.0,-0.1267541547595927,0.0,0.0,-0.2394186167137778,-0.4587770802002725,-0.49841784578001147,-1.108699779295149,-0.25911967410562076,-0.1147003267525409
12500,8.0,299.38604,4097.7765,0.0,0.0,0.0,-0.126764295903265,0.0,0.0,-0.2809196182846077,-0.4520484713212106,-0.5126536449149754,-1.118339942071559,-0.2623168632061587,-0.06729459907820984
12501,8.0,299.76681,4082.8104,0.0,0.0,0.0,-0.12677443704693725,0.0,0.0,-0.26158700902662774,-0.4472367897763346,-0.5322486150213485,-1.106109912039549,-0.3016210473676797,-0.0969347553837155
12502,8.0,299.17618999999996,3793.5015,0.0,0.0,0.0,-0.1267845781906095,0.0,0.0,-0.25915418540402674,-0.45135958284322253,-0.4426159741527956,-1.1452524726776188,-0.3200169879682177,-0.0918518987278266
12503,8.0,300.08997,3789.2777,0.0,0.0,0.0,-0.12679471933428174,0.0,0.0,-0.2186647316730288,-0.44476218985211063,-0.48841889114319154,-1.1020497175638388,-0.3015014939883807,-0.14507165750245785
12504,8.0,298.20992,3855.4575,0.0,0.0,0.0,-0.12680486047795403,0.0,0.0,-0.24985400856617077,-0.43526922191772754,-0.4868395888748265,-1.1228355301152388,-0.26571614503914176,-0.09350706404442871
12505,8.0,299.72289,3908.0413,0.0,0.0,0.0,-0.1268150016216263,0.0,0.0,-0.2045061117981818,-0.4534246473420286,-0.5300162122685275,-1.100270551713249,-0.26311868854029274,-0.12876799729841187
12506,8.0,298.69531,3741.7516,0.0,0.0,0.0,-0.12682514276529855,0.0,0.0,-0.23293443415633877,-0.41765952286478564,-0.48680509784142256,-1.1127385941937489,-0.27369031186863074,-0.1057673416184239
12507,8.0,300.01592,3729.066,0.0,0.0,0.0,-0.1268352839089708,0.0,0.0,-0.2115568734140378,-0.45884823062229463,-0.46313784518564655,-1.082390031173579,-0.26649859703136375,-0.1172030848970439
12508,8.0,301.12107000000003,3779.6144,0.0,0.0,0.0,-0.12684542505264304,0.0,0.0,-0.2577178932547758,-0.4364630433180486,-0.4547274741881076,-1.086638386192859,-0.2842326218715757,-0.1143008326356139
12509,8.0,300.77862999999996,3897.1537,0.0,0.0,0.0,-0.12685556619631533,0.0,0.0,-0.21245384293256178,-0.47230950138081856,-0.49987405842622856,-1.0989082369537988,-0.3251625455535447,-0.11867093978690989
12510,8.0,299.9833,4009.2533,0.0,0.0,0.0,-0.1268657073399876,0.0,0.0,-0.23574757107147376,-0.4918175852911166,-0.49114774591500854,-1.107994557225549,-0.3007985922615097,-0.14015676630239587
12511,8.0,301.07063999999997,3898.7221,0.0,0.0,0.0,-0.12687584848365985,0.0,0.0,-0.2168400404954458,-0.4477372745307286,-0.5205368725479895,-1.112363286356709,-0.28683342209575474,-0.1181285166108769
12512,8.0,300.66713,3797.9906,0.0,0.0,0.0,-0.12688598962733214,0.0,0.0,-0.2327761948882218,-0.4471374507365306,-0.47458065081746353,-1.119447019130819,-0.2527304533475538,-0.11606620815234289
12513,8.0,299.68138999999996,3877.103,0.0,0.0,0.0,-0.12689613077100437,0.0,0.0,-0.24413081736383577,-0.44542034645456563,-0.4889913470521885,-1.1282106192457189,-0.29773881000703273,-0.09879238022929882
12514,8.0,299.63099,3967.3568,0.0,0.0,0.0,-0.12690627191467663,0.0,0.0,-0.27409385898595773,-0.4282010526651536,-0.5036825007820925,-1.1078740817886592,-0.30044312386142774,-0.10571920210617289
12515,8.0,300.10497999999995,3845.933,0.0,0.0,0.0,-0.1269164130583489,0.0,0.0,-0.23284047547456577,-0.43308942711009857,-0.5031376863358236,-1.101836327092779,-0.2968307453999137,-0.11787007704037089
12516,8.0,299.93844,3934.0489,0.0,0.0,0.0,-0.12692655420202117,0.0,0.0,-0.25117325006386976,-0.42021465590695767,-0.5244647466931405,-1.083647778522709,-0.25865751047000873,-0.07231243750168193
12517,8.0,299.99037000000004,4071.9146,0.0,0.0,0.0,-0.12693669534569343,0.0,0.0,-0.24290632488298777,-0.4440768578819736,-0.5507771799274754,-1.0983219704459388,-0.2685236685487227,-0.052433609432794355
12518,8.0,299.24074,4062.3254,0.0,0.0,0.0,-0.12694683648936567,0.0,0.0,-0.26654165002811275,-0.4653113882401586,-0.5029924571989904,-1.1144035667580687,-0.26360063081785673,-0.05853320987502803
12519,8.0,299.75347,4041.0856,0.0,0.0,0.0,-0.12695697763303793,0.0,0.0,-0.2521930558920168,-0.4349351938897616,-0.5412608667107885,-1.116962124585579,-0.2794298366625777,-0.07999457248009963
12520,8.0,299.8161,3920.5247,0.0,0.0,0.0,-0.1269671187767102,0.0,0.0,-0.25350716021170877,-0.45943097101980657,-0.47880347193422357,-1.105834713312389,-0.25459243212881677,-0.09692763932826322
12521,8.0,300.26812,3755.6534,0.0,0.0,0.0,-0.12697725992038247,0.0,0.0,-0.19934088702841382,-0.4494566586254186,-0.4928272991482675,-1.1135592254497388,-0.3261787138138327,-0.12995089586265487
12522,8.0,300.3676,3858.1155,0.0,0.0,0.0,-0.12698740106405473,0.0,0.0,-0.2348490816777998,-0.46203688815699057,-0.4758847948886725,-1.112056474226429,-0.3035617962117167,-0.13085075314396388
12523,8.0,301.67995,3892.7904,0.0,0.0,0.0,-0.12699754220772697,0.0,0.0,-0.2128605311251988,-0.45356850859122655,-0.5168820490397865,-1.083595697467569,-0.3085092836674957,-0.13634546658124988
12524,8.0,300.79967999999997,3680.2344,0.0,0.0,0.0,-0.12700768335139925,0.0,0.0,-0.24467753672029277,-0.4070979307124376,-0.4669239048468015,-1.0886352994899389,-0.26027435365457874,-0.13145748730384388
12525,8.0,300.26032999999995,3714.8214,0.0,0.0,0.0,-0.1270178244950715,0.0,0.0,-0.2238826251829948,-0.42513034757459855,-0.4801999737520476,-1.119966411132079,-0.28237008580275774,-0.1162261902106319
12526,8.0,299.49235,3968.7161,0.0,0.0,0.0,-0.12702796563874377,0.0,0.0,-0.25609205240931776,-0.4734589525592605,-0.47683960072290454,-1.111578929454299,-0.26170527557829976,-0.14285969200415388
12527,8.0,299.65479,4037.7156,0.0,0.0,0.0,-0.12703810678241606,0.0,0.0,-0.24917019647118374,-0.4509892601966745,-0.5272052639736085,-1.1038388132654091,-0.27676400604698076,-0.10502020139218689
12528,8.0,299.97996,3899.9135,0.0,0.0,0.0,-0.1270482479260883,0.0,0.0,-0.23922525819719478,-0.4500226601312786,-0.4962284250964325,-1.0940716902514689,-0.2604012733621048,-0.11775425242143989
12529,8.0,299.34132,3723.5052,0.0,0.0,0.0,-0.12705838906976055,0.0,0.0,-0.21573724948410877,-0.4215246768287466,-0.4945906886948005,-1.0889403890950489,-0.3021639163737567,-0.05763263521264824
12530,8.0,299.38428,3854.3634,0.0,0.0,0.0,-0.1270685302134328,0.0,0.0,-0.25890179493661775,-0.4401014420421306,-0.4726269931671525,-1.1245628175607092,-0.2947915289111587,-0.08093896412980382
12531,8.0,300.40859,4002.5011,0.0,0.0,0.0,-0.1270786713571051,0.0,0.0,-0.25331506825775074,-0.4504459352280526,-0.5128993681967265,-1.1069864747010592,-0.2963726448972027,-0.07255581612270152
12532,8.0,300.814,3957.7470000000003,0.0,0.0,0.0,-0.12708881250077736,0.0,0.0,-0.26459949276643674,-0.4383561896723876,-0.5001005907510855,-1.120462802356069,-0.2914710171409497,-0.10838871081963289
12533,8.0,301.39252999999997,3991.9933,0.0,0.0,0.0,-0.1270989536444496,0.0,0.0,-0.24928533208004675,-0.4318714802248966,-0.5323094606898534,-1.100055033416979,-0.2960577267661227,-0.08876638397381002
12534,8.0,301.74784,4075.4537,0.0,0.0,0.0,-0.12710909478812185,0.0,0.0,-0.28379539432092477,-0.45470796912368255,-0.5003328175415045,-1.1182135897840888,-0.29991258610906774,-0.1140726892430979
12535,8.0,300.08733,4032.1648,0.0,0.0,0.0,-0.1271192359317941,0.0,0.0,-0.24894787926674278,-0.4230747873617306,-0.5536547696814715,-1.088518066453369,-0.3138076292354017,-0.08180969148398792
12536,8.0,299.56007,3960.9747,0.0,0.0,0.0,-0.1271293770754664,0.0,0.0,-0.2964373409160877,-0.4250629360454456,-0.48253712630020656,-1.097515018066299,-0.2803764757010037,-0.08388044132910502
12537,8.0,298.11191,3868.4005,0.0,0.0,0.0,-0.12713951821913866,0.0,0.0,-0.24024070704991177,-0.4243496789025526,-0.5113067923520516,-1.092802695826229,-0.2914615229875127,-0.08908528417778301
12538,8.0,299.07072999999997,3786.428,0.0,0.0,0.0,-0.1271496593628109,0.0,0.0,-0.23554398886138175,-0.45037927350397355,-0.4650563025274836,-1.104777994783099,-0.26408239071040274,-0.12697871921182388
12539,8.0,300.01247,3941.2176,0.0,0.0,0.0,-0.12715980050648315,0.0,0.0,-0.2312756626826308,-0.46472004534929756,-0.5020360200320975,-1.0891447616402188,-0.26092982514426877,-0.14236733351556186
12540,8.0,300.58633,3726.5292,0.0,0.0,0.0,-0.12716994165015544,0.0,0.0,-0.20906710513581683,-0.4532616457984415,-0.47044307443161654,-1.0940561875249388,-0.2634042122859718,-0.1156550616592659
12541,8.0,300.67237,3533.1607,0.0,0.0,0.0,-0.1271800827938277,0.0,0.0,-0.17197906106301183,-0.4334070810164486,-0.4686064674328575,-1.1026660775996688,-0.30499734868839473,-0.1031745764675379
12542,8.0,300.72739,3699.072,0.0,0.0,0.0,-0.12719022393749996,0.0,0.0,-0.2096134293247348,-0.4453233378899916,-0.4694887549574326,-1.135215926462089,-0.28333841852582475,-0.1119804595091109
12543,8.0,300.06655,3860.2765,0.0,0.0,0.0,-0.1272003650811722,0.0,0.0,-0.23116804538950977,-0.4517079382276026,-0.4905516711461805,-1.129260245024309,-0.3037813472433847,-0.1145998427401239
12544,8.0,299.56035,3949.2301,0.0,0.0,0.0,-0.12721050622484448,0.0,0.0,-0.23659496226260476,-0.4697792436286016,-0.4940931221006945,-1.125860790938809,-0.2870994205120067,-0.14242084325334287
12545,8.0,299.45972,4012.8507,0.0,0.0,0.0,-0.12722064736851674,0.0,0.0,-0.27426977946831976,-0.43372943640326256,-0.5118071859139365,-1.112460153066269,-0.2830702922843627,-0.1132897610233289
12546,8.0,299.81439,4099.5608,0.0,0.0,0.0,-0.127230788512189,0.0,0.0,-0.2784484836757257,-0.4534975405542226,-0.5142181132018766,-1.0891416205649092,-0.26819459531374573,-0.13222748645233687
12547,8.0,300.27869,4009.0288,0.0,0.0,0.0,-0.12724092965586126,0.0,0.0,-0.2880397166048067,-0.4127822739059386,-0.5178226491076166,-1.080361808448409,-0.27971238145296273,-0.06269785118429615
12548,8.0,299.56891,3967.3525,0.0,0.0,0.0,-0.12725107079953352,0.0,0.0,-0.27660453061374174,-0.43521037235191956,-0.4941611922424125,-1.1110604493781289,-0.28874124031154175,-0.06455423581175704
12549,8.0,299.68376,3916.8067,0.0,0.0,0.0,-0.12726121194320578,0.0,0.0,-0.25533054429666274,-0.4293233588734166,-0.5059575309666204,-1.119668718252699,-0.3153321248058577,-0.055045479414315854
12550,8.0,300.25334,4022.062,0.0,0.0,0.0,-0.12727135308687804,0.0,0.0,-0.2581976570446248,-0.4436588010232146,-0.5207499691765205,-1.1216831607765092,-0.2903532806906377,-0.10491196601650489
12551,8.0,300.36324,4009.9642,0.0,0.0,0.0,-0.1272814942305503,0.0,0.0,-0.24696774539131874,-0.4461538989969616,-0.5258073638706465,-1.102544284937649,-0.27679898344043274,-0.09793867649004481
12552,8.0,299.81878,3930.0490000000004,0.0,0.0,0.0,-0.12729163537422256,0.0,0.0,-0.24658376413342276,-0.43979331268672056,-0.5082596757238245,-1.1207617111355688,-0.27261886068288677,-0.10235053055871089
12553,8.0,300.6485,3940.8079,0.0,0.0,0.0,-0.12730177651789482,0.0,0.0,-0.22679224377265175,-0.4350002546786826,-0.5361147214404035,-1.1419122937229689,-0.28765214844155673,-0.09171509881857551
12554,8.0,299.71285,3721.3738,0.0,0.0,0.0,-0.12731191766156708,0.0,0.0,-0.2129842388299078,-0.43008165498325457,-0.4881388085505496,-1.1301603150881387,-0.27486639125970075,-0.11835043864777889
12555,8.0,299.43561,3897.8069,0.0,0.0,0.0,-0.12732205880523934,0.0,0.0,-0.23252622608855178,-0.45290596461583854,-0.49940377865731556,-1.107059935333309,-0.2655661232293357,-0.14723840164879884
12556,8.0,300.40088,4074.5206,0.0,0.0,0.0,-0.1273321999489116,0.0,0.0,-0.2849256849399757,-0.47275174451946456,-0.4808751022936775,-1.102928104075529,-0.2752922805417327,-0.13503568883948486
12557,8.0,299.96159,3900.1942,0.0,0.0,0.0,-0.12734234109258388,0.0,0.0,-0.24217068504538575,-0.4672330575848126,-0.47615789618812554,-1.114725273664819,-0.28619743540548775,-0.13582042064443187
12558,8.0,300.37092,3803.3301,0.0,0.0,0.0,-0.12735248223625611,0.0,0.0,-0.22187668382752376,-0.4650422791460995,-0.4691984182737786,-1.092521214948449,-0.2820912799052417,-0.12067001130670288
12559,8.0,300.50016,3792.7398,0.0,0.0,0.0,-0.1273626233799284,0.0,0.0,-0.22056372448044478,-0.4422008455868256,-0.4901336142874215,-1.097044059419819,-0.29093545366809376,-0.09470951428260131
12560,8.0,300.42328,3790.1595,0.0,0.0,0.0,-0.12737276452360063,0.0,0.0,-0.2075278161139008,-0.4534542443774496,-0.4911317872259335,-1.0976236384770188,-0.31638357443462767,-0.08373311780431533
12561,8.0,300.89941,3808.6941,0.0,0.0,0.0,-0.12738290566727292,0.0,0.0,-0.2117246777630988,-0.4388877305423466,-0.5071354848703755,-1.119435772054709,-0.3033728149355657,-0.08404056828215832
12562,8.0,300.26844,3817.3354,0.0,0.0,0.0,-0.12739304681094518,0.0,0.0,-0.23197030642118677,-0.4643264787454556,-0.4640778575684186,-1.109537230502799,-0.2940811088685457,-0.12420855423342989
12563,8.0,298.96235,3866.9434,0.0,0.0,0.0,-0.12740318795461744,0.0,0.0,-0.2556330703790198,-0.4211367742929636,-0.49868438121881653,-1.1260898867864189,-0.26408704152836177,-0.1025181221252509
12564,8.0,299.23386,4144.2889,0.0,0.0,0.0,-0.12741332909828967,0.0,0.0,-0.2829522283827107,-0.44806821214588954,-0.5287398920450646,-1.1209102536002291,-0.2681669943810217,-0.12034106979423889
12565,8.0,300.47047000000003,4269.7455,0.0,0.0,0.0,-0.12742347024196196,0.0,0.0,-0.29649272516655373,-0.4544356682918086,-0.5469676229965015,-1.143480095602699,-0.26968751801108576,-0.05586080022653175
12566,8.0,300.16925,3967.6044,0.0,0.0,0.0,-0.12743361138563422,0.0,0.0,-0.24057992291838975,-0.44133127435100555,-0.5241414793812366,-1.1203276347927291,-0.28613394515422175,-0.1113854283878859
12567,8.0,299.84737,3998.091,0.0,0.0,0.0,-0.12744375252930648,0.0,0.0,-0.25515441103177977,-0.45143252671792156,-0.5087328939180276,-1.136483198362159,-0.27767534345192274,-0.07653913936632493
12568,8.0,299.08063,3955.2351,0.0,0.0,0.0,-0.12745389367297874,0.0,0.0,-0.29011911859252776,-0.4278271735107546,-0.4843464160762696,-1.0955372551961091,-0.2968125879581217,-0.1000310551717965
12569,8.0,299.86449,3881.1005,0.0,0.0,0.0,-0.127464034816651,0.0,0.0,-0.26134587576782975,-0.4384958358011696,-0.47991592935151456,-1.102313871864909,-0.2932351463600557,-0.09566522596242272
12570,8.0,300.96082,3797.0370000000003,0.0,0.0,0.0,-0.12747417596032326,0.0,0.0,-0.2307584187715828,-0.43968387154341965,-0.4837621659361085,-1.078343110274179,-0.30219232790656075,-0.12722381427851287
12571,8.0,301.55289,3789.6109,0.0,0.0,0.0,-0.12748431710399552,0.0,0.0,-0.2017511861012918,-0.4395330188685315,-0.5106628719135015,-1.0924573801921489,-0.3035585132813927,-0.09620337626278401
12572,8.0,300.11674,3747.8585,0.0,0.0,0.0,-0.12749445824766778,0.0,0.0,-0.18262606006628881,-0.4586602929937466,-0.4979690469132185,-1.099754908737359,-0.3258205096384807,-0.11194376972298989
12573,8.0,301.11325,3953.3574,0.0,0.0,0.0,-0.12750459939134,0.0,0.0,-0.2146420071860168,-0.48261743650313255,-0.5044624905765714,-1.116655920405359,-0.3063637975082527,-0.1192786770643889
12574,8.0,300.67062000000004,4105.4551,0.0,0.0,0.0,-0.1275147405350123,0.0,0.0,-0.28242661502583677,-0.4649833079902796,-0.5005459243025365,-1.130724492743819,-0.2938310083463627,-0.13154707887768588
12575,8.0,299.67102,4062.5625,0.0,0.0,0.0,-0.12752488167868456,0.0,0.0,-0.28023865342240173,-0.4662854052962866,-0.4883934889631846,-1.1461406877152789,-0.26632347701658077,-0.11868601694839788
12576,8.0,299.70185,3728.1502,0.0,0.0,0.0,-0.12753502282235682,0.0,0.0,-0.24281788841425977,-0.4194254961990736,-0.4710211944086725,-1.148989339046419,-0.30005976068609275,-0.1015616646933559
12577,8.0,300.31554,3597.1148,0.0,0.0,0.0,-0.1275451639660291,0.0,0.0,-0.2060487546779288,-0.40809019640286665,-0.4792941180301465,-1.1267305648246488,-0.27177628242973073,-0.10924483622662591
12578,8.0,299.10451,3888.3191,0.0,0.0,0.0,-0.12755530510970134,0.0,0.0,-0.2275300519654678,-0.4484186750904776,-0.5060031880161265,-1.091612734908789,-0.26817475587678774,-0.11582100162814289
12579,8.0,299.46122,3924.5384,0.0,0.0,0.0,-0.1275654462533736,0.0,0.0,-0.28935104461922473,-0.3930489647634126,-0.5105616583610125,-1.1087851962785789,-0.25656519967601377,-0.1060448708208139
12580,8.0,299.24338,3946.3556,0.0,0.0,0.0,-0.12757558739704586,0.0,0.0,-0.2803102395419667,-0.45528579525820956,-0.4639975372329916,-1.1106552506631389,-0.27908259585330775,-0.1032102226060559
12581,8.0,300.39276,3972.3547,0.0,0.0,0.0,-0.12758572854071815,0.0,0.0,-0.2700028515747067,-0.4271153045204986,-0.5103784931404355,-1.109487986547939,-0.2886560259781317,-0.08979944412651511
12582,8.0,301.23477,4008.6779,0.0,0.0,0.0,-0.1275958696843904,0.0,0.0,-0.24810823943887678,-0.4367817408720016,-0.5336479944694565,-1.1044666230273688,-0.29213598278407676,-0.08467191833996772
12583,8.0,301.36007,3941.0547,0.0,0.0,0.0,-0.12760601082806264,0.0,0.0,-0.22374515754192778,-0.45020080976386057,-0.5240362533583516,-1.119197556956199,-0.2871790315723637,-0.07254965454884343
12584,8.0,300.46577,4077.1094,0.0,0.0,0.0,-0.1276161519717349,0.0,0.0,-0.22737809484797075,-0.44460428495652654,-0.5673570926387854,-1.124238982828749,-0.3254973233865847,-0.05657642938790885
12585,8.0,300.53873,4059.5876,0.0,0.0,0.0,-0.12762629311540719,0.0,0.0,-0.2672501347630347,-0.46972684846593055,-0.4970362894011625,-1.131858623580749,-0.28895381005002074,-0.08949405155962523
12586,8.0,299.46997999999996,3882.5359,0.0,0.0,0.0,-0.12763643425907945,0.0,0.0,-0.2707849995918987,-0.4469855848115426,-0.4624233721426335,-1.101371853246939,-0.27232200880108975,-0.12133134951447189
12587,8.0,299.52723,3927.9712,0.0,0.0,0.0,-0.1276465754027517,0.0,0.0,-0.27410879429243173,-0.4236196322055026,-0.4962767267286995,-1.113925515360889,-0.24675642195046277,-0.11026725624003089
12588,8.0,299.65763,3986.7365,0.0,0.0,0.0,-0.12765671654642394,0.0,0.0,-0.2657191341269367,-0.4565392768244185,-0.4896099565032405,-1.133115762979819,-0.27944746721431774,-0.1099942562655879
12589,8.0,301.2666,3844.8297,0.0,0.0,0.0,-0.12766685769009622,0.0,0.0,-0.2193551704236698,-0.4339865486161376,-0.5153905043625826,-1.1318230585022389,-0.2934598852322357,-0.1304649277708859
12590,8.0,299.78382,3684.4111,0.0,0.0,0.0,-0.12767699883376848,0.0,0.0,-0.18038620992523283,-0.4629793830025075,-0.47660338172709155,-1.106303544133659,-0.2963712668770667,-0.13142954186608588
12591,8.0,300.1831,3766.1741,0.0,0.0,0.0,-0.12768713997744074,0.0,0.0,-0.24762584119876777,-0.4438305671801666,-0.4533664665212866,-1.1015679171412889,-0.2859588555369417,-0.12789684539243587
12592,8.0,299.18276000000003,3759.4221,0.0,0.0,0.0,-0.12769728112111303,0.0,0.0,-0.25060326648511677,-0.41101002855353164,-0.48115715059151354,-1.1055449237837889,-0.3093152734595407,-0.1000974159605958
12593,8.0,299.62575,3758.1774,0.0,0.0,0.0,-0.12770742226478526,0.0,0.0,-0.22142801668324377,-0.4545826706163166,-0.46638140061076055,-1.1237940647098388,-0.29219310982471475,-0.12176926607519088
12594,8.0,298.95271,3816.9608,0.0,0.0,0.0,-0.12771756340845752,0.0,0.0,-0.21340403847883876,-0.4230629222030596,-0.5237938028744235,-1.1055883922130791,-0.2810867336236007,-0.09615297922931021
12595,8.0,298.39024,4028.4468,0.0,0.0,0.0,-0.12772770455212978,0.0,0.0,-0.2284756270912888,-0.4534043316775236,-0.5426672882470915,-1.117400355253829,-0.26378800102634875,-0.08923346693865751
12596,8.0,298.77917,4227.344,0.0,0.0,0.0,-0.12773784569580204,0.0,0.0,-0.3036283768757877,-0.4394396985343216,-0.5419389438102095,-1.102960528078729,-0.26663159623948973,-0.09161147069109822
12597,8.0,301.71619,4476.4928,0.0,0.0,0.0,-0.12774798683947433,0.0,0.0,-0.37616161170676066,-0.4501974964360336,-0.5343829250319885,-1.123999551830119,-0.2730483875327777,-0.06413180779206665
12598,8.0,301.33549,4357.2421,0.0,0.0,0.0,-0.12775812798314656,0.0,0.0,-0.3206397922746837,-0.4944351345394486,-0.5094178611181285,-1.1065467241576592,-0.30159073092468774,-0.1030051914483209
12599,8.0,300.12109,4034.9365,0.0,0.0,0.0,-0.12776826912681882,0.0,0.0,-0.26636916446358977,-0.43909181937748853,-0.5210589699270165,-1.1074078854176488,-0.2979189760073137,-0.07901730289115062
12600,8.0,300.38032999999996,4041.0274,0.0,0.0,0.0,-0.12777841027049108,0.0,0.0,-0.25633606329839975,-0.4224577383158326,-0.5495776235315886,-1.0984437631079589,-0.2968878319105477,-0.08247737770363342
12601,8.0,299.29868999999997,4024.0454,0.0,0.0,0.0,-0.12778855141416337,0.0,0.0,-0.2064812098206088,-0.4751406133527275,-0.5415875182780265,-1.111422787613889,-0.29576365118959974,-0.09323690724976631
12602,8.0,299.8229,3721.2262,0.0,0.0,0.0,-0.12779869255783563,0.0,0.0,-0.21341415071483683,-0.41837083456748664,-0.49937485036696055,-1.106503255728369,-0.2984030157125847,-0.11904839571416187
12603,8.0,299.9222,3600.1959,0.0,0.0,0.0,-0.12780883370150786,0.0,0.0,-0.2110449794635178,-0.44097540065088353,-0.4423492765939746,-1.119709349581709,-0.2603239117169698,-0.12560963594170588
12604,8.0,299.71963,3796.1538,0.0,0.0,0.0,-0.12781897484518012,0.0,0.0,-0.24303781434846478,-0.44028663376290755,-0.4706115069957396,-1.112534424298599,-0.27934350775405775,-0.11936788360319289
12605,8.0,299.99281,3914.1382,0.0,0.0,0.0,-0.1278291159888524,0.0,0.0,-0.2384760509407538,-0.46277845550767754,-0.4885457601882125,-1.131529013323219,-0.3017799249833597,-0.13756981720708386
12606,8.0,300.82527999999996,4103.3171,0.0,0.0,0.0,-0.12783925713252467,0.0,0.0,-0.2089816273573808,-0.5066040858554305,-0.5317202354917014,-1.133594017027019,-0.2964777493300757,-0.12308003680205389
12607,8.0,300.93868,4089.6216,0.0,0.0,0.0,-0.12784939827619693,0.0,0.0,-0.2199480838521858,-0.48030856376526454,-0.5428861806661944,-1.139251904260409,-0.28327007480657973,-0.11704963830189989
12608,8.0,301.20527999999996,3974.9107,0.0,0.0,0.0,-0.12785953941986916,0.0,0.0,-0.27734751651456874,-0.4482203820459076,-0.48270571085184455,-1.1400048504097189,-0.27076917262533673,-0.07483201762434513
12609,8.0,300.29866,3857.9167,0.0,0.0,0.0,-0.12786968056354145,0.0,0.0,-0.27356841788160075,-0.4418313639378606,-0.45731057293303956,-1.109902304513829,-0.27971115542034175,-0.13347231486269187
12610,8.0,299.94209,3942.5717,0.0,0.0,0.0,-0.1278798217072137,0.0,0.0,-0.2584986125893267,-0.4523159997451136,-0.4876287283177086,-1.105488283103199,-0.2973580508844547,-0.09169097536019472
12611,8.0,299.34731,3821.6698,0.0,0.0,0.0,-0.12788996285088597,0.0,0.0,-0.23674737534264678,-0.45826713168994454,-0.46667768507250157,-1.0903972400888289,-0.31500605079117666,-0.1254785923062729
12612,8.0,299.21477000000004,3679.1852,0.0,0.0,0.0,-0.12790010399455826,0.0,0.0,-0.19432652506603482,-0.4148544311554446,-0.5091994651915746,-1.1235810795388188,-0.3166531293587307,-0.07681495718929603
12613,8.0,300.21955,3955.6225,0.0,0.0,0.0,-0.1279102451382305,0.0,0.0,-0.23248184573417177,-0.4539647907053366,-0.5159638215341645,-1.100733708333959,-0.3015298041961747,-0.0957491423224546
12614,8.0,299.72863,4092.0929,0.0,0.0,0.0,-0.12792038628190275,0.0,0.0,-0.3009350061224727,-0.4385797430419506,-0.5043793230083635,-1.1420204075086389,-0.2650044179038997,-0.06518776942353194
12615,8.0,299.97758,3932.2006,0.0,0.0,0.0,-0.127930527425575,0.0,0.0,-0.2840549991290457,-0.42055239243028963,-0.4906833936591805,-1.1123522419306189,-0.2282747097289598,-0.08440227121010563
12616,8.0,300.62282000000005,4105.5473,0.0,0.0,0.0,-0.1279406685692473,0.0,0.0,-0.28474205362435273,-0.45888848704876756,-0.5043533128782965,-1.145306985532999,-0.23117639457033376,-0.09018342133141072
12617,8.0,300.6672,4015.8016,0.0,0.0,0.0,-0.12795080971291956,0.0,0.0,-0.27211032059019774,-0.44086358850234864,-0.5077295027415005,-1.1377135879585887,-0.27950777586026976,-0.0971343352559125
12618,8.0,300.97612000000004,3933.6605,0.0,0.0,0.0,-0.1279609508565918,0.0,0.0,-0.19128653158601083,-0.47397144432733956,-0.5304766027164645,-1.145201100897549,-0.31512567509798267,-0.12266548578864088
12619,8.0,301.32265,3882.9959999999996,0.0,0.0,0.0,-0.12797109200026405,0.0,0.0,-0.2195345562213738,-0.45590481000930155,-0.5048944593592035,-1.109926014566169,-0.3116984478272417,-0.12735676282413386
12620,8.0,300.70406,3808.8224,0.0,0.0,0.0,-0.12798123314393633,0.0,0.0,-0.25169381743524577,-0.41962793343655264,-0.48646516256537353,-1.1067200912497688,-0.3068126166400477,-0.1110620496184709
12621,8.0,299.97072000000003,3684.1557,0.0,0.0,0.0,-0.1279913742876086,0.0,0.0,-0.2181573973479588,-0.4605123013940256,-0.4412216406901856,-1.1025375974869889,-0.30793348403316867,-0.14997912157928686
12622,8.0,299.55593,3567.1277,0.0,0.0,0.0,-0.12800151543128085,0.0,0.0,-0.19736500880340982,-0.4262432913519376,-0.4607094494659825,-1.090095696859069,-0.3107328103494407,-0.13140502121366587
12623,8.0,299.15333,3646.5338,0.0,0.0,0.0,-0.1280116565749531,0.0,0.0,-0.17639107623844383,-0.43890219975377454,-0.49316194525879453,-1.091901105887249,-0.2935260403312647,-0.12243864948875387
12624,8.0,299.94118,3908.0861,0.0,0.0,0.0,-0.12802179771862537,0.0,0.0,-0.1855641003212508,-0.4631589207877266,-0.5392375683811045,-1.0946225943308387,-0.28615782745907875,-0.08146578021454652
12625,8.0,299.56096,3973.5757,0.0,0.0,0.0,-0.12803193886229763,0.0,0.0,-0.26428122077752575,-0.4441496193716546,-0.4994369423330885,-1.1237247584029988,-0.2977484257504817,-0.08506908806116532
12626,8.0,299.71735,4172.1075,0.0,0.0,0.0,-0.1280420800059699,0.0,0.0,-0.3161400803030967,-0.46505396191975257,-0.48702245012037354,-1.1500643974025189,-0.28275920423866074,-0.08206390276182662
12627,8.0,300.03812,4262.1315,0.0,0.0,0.0,-0.12805222114964215,0.0,0.0,-0.31884519462507066,-0.4478898699957886,-0.5288464859555845,-1.1471642729662987,-0.2853022188096367,-0.09731948948643582
12628,8.0,300.57353,4160.1849,0.0,0.0,0.0,-0.1280623622933144,0.0,0.0,-0.3078802478729147,-0.4359410675290336,-0.5207710245135986,-1.1285283744770789,-0.2626951196009898,-0.1051163081641719
12629,8.0,300.07592999999997,4323.5854,0.0,0.0,0.0,-0.12807250343698667,0.0,0.0,-0.26549961349277174,-0.4812864717017766,-0.5674759164780124,-1.127325747933389,-0.2825953414324887,-0.10336085236592191
12630,8.0,300.43869,4172.3885,0.0,0.0,0.0,-0.12808264458065893,0.0,0.0,-0.24267621578527776,-0.44772153875667553,-0.5779041649172004,-1.125319918035429,-0.3058296931155407,-0.10478140874111991
12631,8.0,299.50715,3632.6262,0.0,0.0,0.0,-0.1280927857243312,0.0,0.0,-0.21529828927578679,-0.4043825926969546,-0.4845467964160455,-1.0995382758659789,-0.3106581540820727,-0.06832809898145834
12632,8.0,299.8961,3458.5999,0.0,0.0,0.0,-0.12810292686800348,0.0,0.0,-0.23585714393728777,-0.37714742299405263,-0.43832345156165653,-1.077388831329999,-0.28675760059077177,-0.11426494331707189
12633,8.0,298.96423,3890.4337,0.0,0.0,0.0,-0.1281130680116757,0.0,0.0,-0.2824889704369907,-0.41686801241666965,-0.48323773808185155,-1.080811691492809,-0.3067440500057807,-0.09823549392133842
12634,8.0,298.76988,4111.9464,0.0,0.0,0.0,-0.12812320915534797,0.0,0.0,-0.2857214713035137,-0.4886973829331765,-0.47551016592919954,-1.0995850880205988,-0.2949982217990577,-0.15116117914594687
12635,8.0,298.49526000000003,3953.8779,0.0,0.0,0.0,-0.12813335029902023,0.0,0.0,-0.2072842915848668,-0.4449896138370556,-0.5496062478469135,-1.1100987737082189,-0.3024702016139847,-0.10090642625118891
12636,8.0,299.96016000000003,4053.178,0.0,0.0,0.0,-0.12814349144269252,0.0,0.0,-0.21495890115479183,-0.48397116903423554,-0.5331348238238105,-1.124631110617449,-0.2834101971629087,-0.1125169855695619
12637,8.0,299.94782000000004,4195.7748,0.0,0.0,0.0,-0.12815363258636478,0.0,0.0,-0.2849727301421187,-0.47420032739242857,-0.5162377131686955,-1.130962099892269,-0.2956512006935017,-0.0873952529252399
12638,8.0,300.91944,4241.1611,0.0,0.0,0.0,-0.128163773730037,0.0,0.0,-0.31007098578162373,-0.4793039566886175,-0.4998321200045895,-1.1621440611196887,-0.2759937130559587,-0.1101807348139919
12639,8.0,300.33431,4012.7403,0.0,0.0,0.0,-0.12817391487370927,0.0,0.0,-0.2711251983129737,-0.46528591513264456,-0.48336172949658857,-1.140239823107909,-0.28398797263493075,-0.1149993672545539
12640,8.0,300.86901,3676.8571,0.0,0.0,0.0,-0.12818405601738156,0.0,0.0,-0.2263156818531188,-0.4166264434603286,-0.4747306118322635,-1.142746502530299,-0.2708751585857967,-0.12730659681168288
12641,8.0,299.90747000000005,3599.5955,0.0,0.0,0.0,-0.12819419716105382,0.0,0.0,-0.1384602411299619,-0.43766082652626065,-0.5180660925766425,-1.108725110547649,-0.2848623162787217,-0.14612582264149584
12642,8.0,300.06731,3756.284,0.0,0.0,0.0,-0.12820433830472608,0.0,0.0,-0.21837956256488478,-0.44078312631190764,-0.4826538425792255,-1.118023200090299,-0.27931321157606775,-0.1000868589078039
12643,8.0,299.58696000000003,3848.3953,0.0,0.0,0.0,-0.1282144794483983,0.0,0.0,-0.2524928461991038,-0.41927361000908364,-0.4980496104286695,-1.1029775506804091,-0.3054791187134417,-0.07765378337733171
12644,8.0,300.16235,3813.6572,0.0,0.0,0.0,-0.1282246205920706,0.0,0.0,-0.2540326418460698,-0.44846713884276057,-0.4567567912233856,-1.096509266017039,-0.2985570905227907,-0.07148587467960653
12645,8.0,299.85409,4128.4269,0.0,0.0,0.0,-0.12823476173574286,0.0,0.0,-0.30786244506865773,-0.4576504676790845,-0.4894257881650646,-1.072688870741149,-0.3150360328616357,-0.1032122085762519
12646,8.0,299.03246,4407.1962,0.0,0.0,0.0,-0.12824490287941512,0.0,0.0,-0.31212181411652473,-0.4769529530115916,-0.5506028097177665,-1.1114898647705092,-0.29316692423082275,-0.08684207207289522
12647,8.0,298.96272,4115.016,0.0,0.0,0.0,-0.12825504402308738,0.0,0.0,-0.24936713176061975,-0.4536889738956156,-0.5478060063942435,-1.1041501850211388,-0.3075152143918887,-0.10777009123607989
12648,8.0,299.44761,3846.2605,0.0,0.0,0.0,-0.12826518516675964,0.0,0.0,-0.23478685798915877,-0.40792328371389364,-0.5264569990397605,-1.149859619557309,-0.25626190352358075,-0.08428214331799992
12649,8.0,299.27026,3885.1623,0.0,0.0,0.0,-0.1282753263104319,0.0,0.0,-0.2668361106396737,-0.4331978043407946,-0.4809584218494005,-1.145543680756359,-0.26637003585867575,-0.100239019688571
12650,8.0,300.20376,3882.2374,0.0,0.0,0.0,-0.12828546745410416,0.0,0.0,-0.24582407987094776,-0.4499743990290156,-0.48430476136465855,-1.1603880986963888,-0.2566710437814598,-0.1313917375048549
12651,8.0,300.16186,3819.7386,0.0,0.0,0.0,-0.12829560859777644,0.0,0.0,-0.25239854301229675,-0.4294600260469046,-0.4792465864679556,-1.133242013942279,-0.2842742056556797,-0.11960792255188289
12652,8.0,299.98935,3999.3968,0.0,0.0,0.0,-0.12830574974144868,0.0,0.0,-0.2200630776060348,-0.47152140558553957,-0.5241322689378275,-1.1139402074873388,-0.27551480039619375,-0.15521310550084086
12653,8.0,299.81908,4019.0599,0.0,0.0,0.0,-0.12831589088512094,0.0,0.0,-0.2232403968721118,-0.4704317766930015,-0.5280216699766815,-1.085810358211139,-0.2959805880360097,-0.12469511693144988
12654,8.0,300.5666,3904.4222,0.0,0.0,0.0,-0.1283260320287932,0.0,0.0,-0.2353469319819338,-0.47196236189655855,-0.47953755136667153,-1.086865252890249,-0.2983732362921457,-0.11285763012068088
12655,8.0,299.41598,3992.0933,0.0,0.0,0.0,-0.12833617317246546,0.0,0.0,-0.27246842344053973,-0.45546666040105954,-0.4855615967886985,-1.0844103505479687,-0.3155439852692667,-0.07732594225447632
12656,8.0,300.57787,4149.2907,0.0,0.0,0.0,-0.12834631431613772,0.0,0.0,-0.27844703472808274,-0.4672649344329586,-0.5155688059826795,-1.103867792218269,-0.29572886631366674,-0.07812564077665042
12657,8.0,300.36152000000004,3906.8818,0.0,0.0,0.0,-0.12835645545980998,0.0,0.0,-0.2271891946318278,-0.47341773354519257,-0.48698758418443255,-1.108816809681699,-0.3028165406306657,-0.1063559487340149
12658,8.0,300.70705,4088.7821,0.0,0.0,0.0,-0.12836659660348224,0.0,0.0,-0.2249675120650648,-0.48219687691662655,-0.5357232826617715,-1.1393933539743688,-0.29358243783183074,-0.11837850567554889
12659,8.0,300.4623,4304.1536,0.0,0.0,0.0,-0.1283767377471545,0.0,0.0,-0.2628984991610618,-0.4649039502424476,-0.5805527702810974,-1.1364792466867688,-0.3178232305742107,-0.10930408095997289
12660,8.0,299.61112,3761.8223,0.0,0.0,0.0,-0.12838687889082678,0.0,0.0,-0.25012272249269074,-0.4221228388927806,-0.4712544952441975,-1.1128485318295989,-0.2840948907854827,-0.09412760475017132
12661,8.0,298.8944,3662.4395,0.0,0.0,0.0,-0.12839702003449902,0.0,0.0,-0.22927658103033677,-0.4187252593199656,-0.46528830640288055,-1.1348611876020789,-0.28115339534767975,-0.12211485528679787
12662,8.0,298.81835,3965.6709,0.0,0.0,0.0,-0.1284071611781713,0.0,0.0,-0.2729558575336457,-0.4475453041667825,-0.4849637792296985,-1.121032451562289,-0.2789361812138577,-0.0971725408641831
12663,8.0,299.26193,3986.9021,0.0,0.0,0.0,-0.12841730232184353,0.0,0.0,-0.25202125933756175,-0.46231137760908053,-0.49758604850791954,-1.1383267055940989,-0.29210782456379775,-0.09497311737561691
12664,8.0,298.91467,3946.8996,0.0,0.0,0.0,-0.12842744346551582,0.0,0.0,-0.22154639469242676,-0.44554210871908256,-0.5326704006404754,-1.1097548766242789,-0.2696997378072918,-0.0958007056067935
12665,8.0,300.51024,4115.8622,0.0,0.0,0.0,-0.12843758460918805,0.0,0.0,-0.25598813347906174,-0.4721435006169355,-0.5229876914923666,-1.0981053375745589,-0.2997000670330937,-0.08280940456265193
12666,8.0,300.95189,4035.1905,0.0,0.0,0.0,-0.12844772575286034,0.0,0.0,-0.2822609992969917,-0.44097206705805464,-0.5033640970706685,-1.137018701040009,-0.2929601604154167,-0.094205064680566
12667,8.0,300.90171000000004,3997.486,0.0,0.0,0.0,-0.1284578668965326,0.0,0.0,-0.26057074957383075,-0.4499893951304956,-0.5045757719377515,-1.120296528014659,-0.3058572839157637,-0.08348285921511671
12668,8.0,300.19047,4135.8536,0.0,0.0,0.0,-0.12846800804020486,0.0,0.0,-0.26678603581973176,-0.48479820403085755,-0.5056119721525165,-1.1243065666104188,-0.29857500478455873,-0.12587720489561288
12669,8.0,300.3238,4067.8751,0.0,0.0,0.0,-0.12847814918387712,0.0,0.0,-0.24783097368151277,-0.46142561463666254,-0.5272758773730775,-1.105774323606429,-0.27637542463363074,-0.11945976512226089
12670,8.0,299.68519,3579.2455,0.0,0.0,0.0,-0.12848829032754938,0.0,0.0,-0.16904375658331985,-0.4482575784570786,-0.4706999231994656,-1.1264294268949289,-0.3002709422719347,-0.1840342142602628
12671,8.0,299.99291,3548.6496,0.0,0.0,0.0,-0.12849843147122164,0.0,0.0,-0.18167443583737083,-0.4327778527043486,-0.46424859021026854,-1.1325773218766788,-0.2901207701901907,-0.1183053490183289
12672,8.0,299.37699,3764.6015,0.0,0.0,0.0,-0.1285085726148939,0.0,0.0,-0.23491287590409576,-0.44415056169424755,-0.4652814163022005,-1.1304514218418689,-0.2833507193820387,-0.13944832209747787
12673,8.0,299.37266,3724.2516,0.0,0.0,0.0,-0.12851871375856616,0.0,0.0,-0.2358204845486698,-0.4476243072770795,-0.44863470001179756,-1.1046584312712988,-0.27446863993294573,-0.11287811803770288
12674,8.0,299.95513,3893.6878,0.0,0.0,0.0,-0.12852885490223842,0.0,0.0,-0.24931857681582778,-0.45005014960649153,-0.48421514952581457,-1.1440154969555387,-0.27637637708872476,-0.11397883188633488
12675,8.0,300.23485,4119.2164,0.0,0.0,0.0,-0.12853899604591068,0.0,0.0,-0.2594386958996057,-0.46192509627345757,-0.5307751264609265,-1.1396316703978888,-0.28150600638247975,-0.07757785244133793
12676,8.0,300.27206,4010.5888,0.0,0.0,0.0,-0.12854913718958294,0.0,0.0,-0.22511773652489075,-0.4718715442900956,-0.5221295598501755,-1.1370324812413688,-0.27243618182235774,-0.09955629481094132
12677,8.0,301.31007999999997,4119.4499,0.0,0.0,0.0,-0.12855927833325523,0.0,0.0,-0.26472724333904474,-0.45311305267127655,-0.5343696109256745,-1.116254470715739,-0.2687233902759338,-0.09602026069146191
12678,8.0,301.3867,4148.7861,0.0,0.0,0.0,-0.12856941947692746,0.0,0.0,-0.2946970332068327,-0.4529106356987996,-0.5135197001729485,-1.108707986620959,-0.29760325740865473,-0.09108325328146721
12679,8.0,300.632,3828.4142,0.0,0.0,0.0,-0.12857956062059972,0.0,0.0,-0.25588247175863377,-0.43723435969167157,-0.4706254898471196,-1.133937407485909,-0.2948204470690127,-0.0910422845401739
12680,8.0,300.14286,3617.7216,0.0,0.0,0.0,-0.12858970176427198,0.0,0.0,-0.23305701715343677,-0.40082832412867564,-0.4658116804770336,-1.1198201991426489,-0.3053251350957447,-0.12767775032331288
12681,8.0,300.32604,4095.8619,0.0,0.0,0.0,-0.12859984290794427,0.0,0.0,-0.26311628713755575,-0.4500930708807276,-0.5318303859100725,-1.1158410646749388,-0.2969086339351007,-0.1276094775315749
12682,8.0,299.63797999999997,4155.2444,0.0,0.0,0.0,-0.12860998405161653,0.0,0.0,-0.2701568655899067,-0.4469887562843555,-0.5459449192730684,-1.123302537086329,-0.3217508311418347,-0.10758323778513888
12683,8.0,300.73177999999996,3836.0005,0.0,0.0,0.0,-0.12862012519528876,0.0,0.0,-0.23882263313745877,-0.43275363602695854,-0.4944720979030965,-1.149128052985109,-0.3075911068243787,-0.09718672636558309
12684,8.0,299.64445,3890.5548,0.0,0.0,0.0,-0.12863026633896102,0.0,0.0,-0.24168955336790177,-0.43195090890023563,-0.5089910599110065,-1.132127438832279,-0.28924097526086173,-0.09007028283849482
12685,8.0,299.5893,4218.876,0.0,0.0,0.0,-0.1286404074826333,0.0,0.0,-0.2928985649418377,-0.4594201393762376,-0.5301142543482035,-1.1334442586622389,-0.26517973043620174,-0.06883421234015784
12686,8.0,299.05109,4177.0236,0.0,0.0,0.0,-0.12865054862630557,0.0,0.0,-0.25939860159314876,-0.48728072757086355,-0.5230315449566945,-1.109030605452799,-0.2897711279781837,-0.09957906254068831
12687,8.0,299.87144,3901.7595,0.0,0.0,0.0,-0.12866068976997783,0.0,0.0,-0.23292674358807977,-0.44263361483703656,-0.5104771026401675,-1.146772753127659,-0.28206455036760375,-0.09444922046441231
12688,8.0,300.46442,3758.1985,0.0,0.0,0.0,-0.12867083091365006,0.0,0.0,-0.20967642308345183,-0.4406164264054556,-0.49210565229454656,-1.115272023418779,-0.2959212825076567,-0.12580429141841687
12689,8.0,301.13448999999997,3727.9885,0.0,0.0,0.0,-0.12868097205732235,0.0,0.0,-0.23573612134534377,-0.4381849909354916,-0.4592943139788196,-1.129763931649019,-0.26008232249562674,-0.12864793729406288
12690,8.0,300.56333,3915.8512,0.0,0.0,0.0,-0.1286911132009946,0.0,0.0,-0.24602751009352475,-0.45018559074735853,-0.4941078851546515,-1.1005294371137988,-0.2909230818843727,-0.13271699770814788
12691,8.0,300.7471,4115.9545,0.0,0.0,0.0,-0.12870125434466687,0.0,0.0,-0.2777185383036857,-0.45059399133266453,-0.5228348629797835,-1.1447375389767989,-0.3019591486610477,-0.10061703898287859
12692,8.0,300.31489,3888.18,0.0,0.0,0.0,-0.12871139548833913,0.0,0.0,-0.2320000858416258,-0.4419104582406666,-0.5079990880631066,-1.137803564567469,-0.30847919013952574,-0.11286580704898788
12693,8.0,300.12673,3763.8789,0.0,0.0,0.0,-0.12872153663201136,0.0,0.0,-0.2012358572329328,-0.43861362612529453,-0.5042757283181396,-1.132073229951929,-0.2941460379349537,-0.1026532592910879
12694,8.0,300.42848,4231.7227,0.0,0.0,0.0,-0.12873167777568365,0.0,0.0,-0.2823031808986547,-0.47320616692431255,-0.5308286969937135,-1.1118753051085488,-0.3180437948559787,-0.08129830314526783
12695,8.0,299.40288,4233.7265,0.0,0.0,0.0,-0.1287418189193559,0.0,0.0,-0.2986619720406417,-0.4425809562293396,-0.5457042014468115,-1.136603471149029,-0.28737037372124774,-0.043635387575227454
12696,8.0,299.14669,3994.6078,0.0,0.0,0.0,-0.12875196006302816,0.0,0.0,-0.26535293540829574,-0.44444187109799754,-0.5044662193369396,-1.1215441428627888,-0.3007111994403847,-0.06697693301285865
12697,8.0,299.86362,4089.2217,0.0,0.0,0.0,-0.12876210120670045,0.0,0.0,-0.25967695152811976,-0.4683145500790476,-0.5150297974594835,-1.131733284543379,-0.2556092995316737,-0.07081127809427903
12698,8.0,300.22501,4113.7747,0.0,0.0,0.0,-0.12877224235037268,0.0,0.0,-0.26860451577420175,-0.4562678575201316,-0.5256124145514065,-1.1181250317253488,-0.2819318956645117,-0.09349639553412582
12699,8.0,300.38347999999996,3984.7987,0.0,0.0,0.0,-0.12878238349404494,0.0,0.0,-0.23802114217585776,-0.4587797450480356,-0.5144784070200655,-1.129570806179959,-0.28223222299415174,-0.1133772551694639
12700,8.0,300.49598,3773.9042,0.0,0.0,0.0,-0.1287925246377172,0.0,0.0,-0.24302691177738875,-0.42874526929386364,-0.47540045120837154,-1.124827275836809,-0.3007980653714577,-0.11922876436446289
12701,8.0,299.26562,3691.776,0.0,0.0,0.0,-0.1288026657813895,0.0,0.0,-0.23527181975202077,-0.4185628150639336,-0.4683731058023265,-1.1406807895514288,-0.2646328286947267,-0.12012093107751287
12702,8.0,299.9374,3820.2178,0.0,0.0,0.0,-0.12881280692506175,0.0,0.0,-0.23917404853714078,-0.44635642742694953,-0.47572033426494154,-1.123661227621729,-0.29232359617259274,-0.14489768246028786
12703,8.0,299.25446,3862.3767,0.0,0.0,0.0,-0.12882294806873398,0.0,0.0,-0.25794176073186975,-0.4174204059736866,-0.4987039166807445,-1.139575232367319,-0.2758153709058577,-0.11094585009700289
12704,8.0,298.83014,3968.8359,0.0,0.0,0.0,-0.12883308921240624,0.0,0.0,-0.22957107203940075,-0.46343712886768357,-0.5134188209929925,-1.127997431424679,-0.30841584174327374,-0.12348765718478288
12705,8.0,299.90797000000003,4150.3504,0.0,0.0,0.0,-0.12884323035607853,0.0,0.0,-0.2437274526315268,-0.5018766661888705,-0.5159987583976126,-1.1180299888659688,-0.30194687820233673,-0.1021156287880279
12706,8.0,300.04068,4273.3385,0.0,0.0,0.0,-0.1288533714997508,0.0,0.0,-0.2596816935385878,-0.5014141073857196,-0.5378923876808455,-1.090169562791359,-0.3305460649248567,-0.1133836791750979
12707,8.0,300.07976,4371.1416,0.0,0.0,0.0,-0.12886351264342305,0.0,0.0,-0.2929120614331697,-0.5096429546278435,-0.5261628728007325,-1.106224004000809,-0.2968596534252667,-0.07825141044531292
12708,8.0,300.68338,4083.8539,0.0,0.0,0.0,-0.12887365378709528,0.0,0.0,-0.26381589580160175,-0.46409283340489654,-0.5134808926941186,-1.1059503251487988,-0.2878946191904867,-0.1068729393325379
12709,8.0,301.14305,3764.3871,0.0,0.0,0.0,-0.12888379493076757,0.0,0.0,-0.2180773505900588,-0.4522180893879506,-0.4739842518086035,-1.1355852561235389,-0.2315177889265268,-0.12279866738178488
12710,8.0,302.05801,3899.3465,0.0,0.0,0.0,-0.12889393607443983,0.0,0.0,-0.2345702048527768,-0.45992127261069554,-0.49081249185442155,-1.137948560656779,-0.29544536906818775,-0.14249608720576887
12711,8.0,300.48849,3942.4528,0.0,0.0,0.0,-0.1289040772181121,0.0,0.0,-0.25638177101041076,-0.4321692642967856,-0.5098561525813845,-1.135975458737049,-0.30492204394096273,-0.12480468979726388
12712,8.0,298.44775,3755.7813,0.0,0.0,0.0,-0.12891421836178438,0.0,0.0,-0.2274747893050138,-0.4328088277599056,-0.4813801162760185,-1.108964541546279,-0.3295159340781907,-0.1295067174163179
12713,8.0,299.55705,4034.9812,0.0,0.0,0.0,-0.1289243595054566,0.0,0.0,-0.25815167575508674,-0.44119850819040257,-0.5271833372414445,-1.112663715011359,-0.30943756261410965,-0.10787543884897689
12714,8.0,299.86227,4221.4245,0.0,0.0,0.0,-0.12893450064912887,0.0,0.0,-0.2832220568843407,-0.4682956529646826,-0.5316899291812105,-1.1033700837691491,-0.3014080014016537,-0.06893919619626893
12715,8.0,300.54601,4168.443,0.0,0.0,0.0,-0.12894464179280113,0.0,0.0,-0.25949842699300074,-0.46826984548463557,-0.5393343033681515,-1.1509924331691088,-0.2772825773156597,-0.09547900275304391
12716,8.0,300.26916,4130.1771,0.0,0.0,0.0,-0.12895478293647342,0.0,0.0,-0.25582724962818376,-0.44734098228411756,-0.5523024658330095,-1.119053878092019,-0.26974281106904274,-0.06892104078097713
12717,8.0,299.6603,4033.3082,0.0,0.0,0.0,-0.12896492408014568,0.0,0.0,-0.24845076863518176,-0.4738330748936836,-0.5037411274328786,-1.132669628960789,-0.2558367032516168,-0.09091177083454323
12718,8.0,299.32333,3951.7797,0.0,0.0,0.0,-0.1289750652238179,0.0,0.0,-0.23418382219214376,-0.4762511253298265,-0.49080740533891953,-1.104625804618079,-0.3181679078607277,-0.0933244348331546
12719,8.0,299.50577000000004,4004.0213,0.0,0.0,0.0,-0.12898520636749017,0.0,0.0,-0.24929401563340375,-0.4586285478681135,-0.5091999414191215,-1.1189055382773792,-0.3338336156693127,-0.10934899833690588
12720,8.0,298.64551,4036.1046,0.0,0.0,0.0,-0.12899534751116243,0.0,0.0,-0.2584345549180047,-0.4704098600933385,-0.49803060185679354,-1.101408634225569,-0.3135136853813917,-0.11712073806141687
12721,8.0,299.77286000000004,3598.4479,0.0,0.0,0.0,-0.12900548865483472,0.0,0.0,-0.20007832031869283,-0.4124112825143246,-0.4813486953904175,-1.1099972460481988,-0.3083544793172177,-0.13005581791050988
12722,8.0,299.75253,3625.4668,0.0,0.0,0.0,-0.12901562979850698,0.0,0.0,-0.19273784010174383,-0.4433618984789126,-0.4659516407133466,-1.124896886118679,-0.29840344127762675,-0.14978613796524087
12723,8.0,300.66089,4100.4019,0.0,0.0,0.0,-0.1290257709421792,0.0,0.0,-0.24516309630071376,-0.4488248769230666,-0.5524318173407754,-1.136702263033779,-0.29042006400472875,-0.11801343166451889
12724,8.0,300.92529,4186.6603,0.0,0.0,0.0,-0.12903591208585147,0.0,0.0,-0.26691536706249575,-0.46984680714526955,-0.5358780160845426,-1.104897254319869,-0.2809916907642207,-0.12469363758630388
12725,8.0,300.3387,3917.7682,0.0,0.0,0.0,-0.12904605322952376,0.0,0.0,-0.2182903560260808,-0.45557444994669755,-0.5170389001552665,-1.1045169815573388,-0.25836866326400176,-0.0999441021012149
12726,8.0,299.57957000000005,4042.8548,0.0,0.0,0.0,-0.12905619437319601,0.0,0.0,-0.26918834034932076,-0.46995655226360056,-0.4897820165027216,-1.1299754982698988,-0.2881803354536847,-0.08341911058507522
12727,8.0,299.73641000000003,4143.927,0.0,0.0,0.0,-0.12906633551686827,0.0,0.0,-0.26527623237572573,-0.4618158273826735,-0.5325582845169105,-1.1475446470538386,-0.2879215209806417,-0.06649554498309934
12728,8.0,300.32242,4076.2502,0.0,0.0,0.0,-0.1290764766605405,0.0,0.0,-0.26879743859324173,-0.46996021009646155,-0.5003206382753026,-1.1353048898208689,-0.27528646448615873,-0.08495472150912821
12729,8.0,300.36941,4153.3746,0.0,0.0,0.0,-0.1290866178042128,0.0,0.0,-0.28132295261941376,-0.4535314540350696,-0.5276677518492525,-1.1314426844146988,-0.28536674257600475,-0.09720799549843222
12730,8.0,299.89777000000004,4051.1907,0.0,0.0,0.0,-0.12909675894788505,0.0,0.0,-0.26399793631456775,-0.4545985381128826,-0.5128643502732706,-1.138815294792319,-0.3108663567126207,-0.09045214235068141
12731,8.0,299.87448,3711.2954,0.0,0.0,0.0,-0.12910690009155731,0.0,0.0,-0.21659022368329078,-0.4191594775178196,-0.4923914192202495,-1.125301172908579,-0.32155293326480366,-0.12384776627032289
12732,8.0,299.71377,3946.593,0.0,0.0,0.0,-0.1291170412352296,0.0,0.0,-0.2570521474090718,-0.43251982856638355,-0.5100937394648325,-1.111444876466069,-0.30748986287438673,-0.0961075177370735
12733,8.0,299.86609,4226.1631,0.0,0.0,0.0,-0.12912718237890183,0.0,0.0,-0.2961685763270627,-0.45149476053906357,-0.5369847182412655,-1.116658453530609,-0.28329019795356575,-0.11322088028153089
12734,8.0,301.50563,3939.3544,0.0,0.0,0.0,-0.1291373235225741,0.0,0.0,-0.26104518366815377,-0.43611947047414057,-0.5003007076458356,-1.1458584975624289,-0.2807063595360607,-0.11143064973984888
12735,8.0,299.78089,3776.8334,0.0,0.0,0.0,-0.12914746466624635,0.0,0.0,-0.2350494721500768,-0.4260251994004136,-0.48698837451951055,-1.128380946587529,-0.26784487204173074,-0.1071338613657889
12736,8.0,299.43717999999996,4164.0314,0.0,0.0,0.0,-0.12915760580991864,0.0,0.0,-0.2696795234677967,-0.4776905484218865,-0.5183914978462575,-1.125556917233819,-0.26039317749380575,-0.11486514201380689
12737,8.0,299.58081,4277.0945,0.0,0.0,0.0,-0.1291677469535909,0.0,0.0,-0.28678209084568873,-0.4908875027593245,-0.5224603252128195,-1.100561354491949,-0.26551319104411175,-0.0950090016279084
12738,8.0,299.28111,4041.6044,0.0,0.0,0.0,-0.12917788809726313,0.0,0.0,-0.24702082956405777,-0.4867344844419535,-0.4947914945996186,-1.142558341986729,-0.28800031130841774,-0.1272070348568569
12739,8.0,299.9915,4070.7033,0.0,0.0,0.0,-0.1291880292409354,0.0,0.0,-0.2435860637125728,-0.4677552258913465,-0.5260508782671794,-1.1362830814674092,-0.27510891267113574,-0.08099867901119723
12740,8.0,301.06962000000004,4031.7875,0.0,0.0,0.0,-0.12919817038460768,0.0,0.0,-0.24212631482350677,-0.4729284452044036,-0.5105079561057124,-1.1328183740754687,-0.2864580939937127,-0.14102248718783586
12741,8.0,300.4349,3771.3067,0.0,0.0,0.0,-0.12920831152827994,0.0,0.0,-0.2184951338712908,-0.43210367661781257,-0.49578425678259647,-1.1057887117578489,-0.29205847928392775,-0.12292626596687788
12742,8.0,300.17446,4062.3601,0.0,0.0,0.0,-0.1292184526719522,0.0,0.0,-0.25905274893651575,-0.45146306607593556,-0.5243402182558505,-1.104458618351579,-0.30223843078611073,-0.1335805097083699
12743,8.0,300.39547999999996,4097.3648,0.0,0.0,0.0,-0.12922859381562443,0.0,0.0,-0.26230329578731976,-0.44364056252141454,-0.5395527398247094,-1.115007869117709,-0.3040110003785497,-0.1018212897664789
12744,8.0,300.47816,3680.2345,0.0,0.0,0.0,-0.12923873495929672,0.0,0.0,-0.23025444843684476,-0.40059485104063364,-0.48785008293455456,-1.113292132723379,-0.2824262705208027,-0.1118588694971109
12745,8.0,300.28685,3983.5732,0.0,0.0,0.0,-0.12924887610296898,0.0,0.0,-0.24855029006000376,-0.46219490451008555,-0.5001615782746045,-1.1158206983479289,-0.3234218832067547,-0.09469866744028081
12746,8.0,299.53635,4338.1212,0.0,0.0,0.0,-0.12925901724664124,0.0,0.0,-0.3184980855383137,-0.45989832249593054,-0.5402841240118915,-1.125635849416609,-0.2874386363804847,-0.06477808403709914
12747,8.0,299.97212,4114.1047,0.0,0.0,0.0,-0.1292691583903135,0.0,0.0,-0.26402022781676776,-0.4706396044210126,-0.5159252876328615,-1.146379510763849,-0.2801200221006937,-0.1020725757912789
12748,8.0,301.10097,4097.2095,0.0,0.0,0.0,-0.12927929953398576,0.0,0.0,-0.2706313098167307,-0.4630467033391516,-0.5117713776554025,-1.119701142255899,-0.25616652629166775,-0.08838613958228282
12749,8.0,299.83822000000004,4143.0468,0.0,0.0,0.0,-0.12928944067765802,0.0,0.0,-0.27598778554287373,-0.47341587929750956,-0.5099791206135206,-1.1327366047923988,-0.2915035323366587,-0.11535816924746489
12750,8.0,300.37137,3951.7045,0.0,0.0,0.0,-0.12929958182133028,0.0,0.0,-0.25768314890884675,-0.43577718445785957,-0.5077591707044286,-1.134311803397859,-0.2939488695979947,-0.08777081103505462
12751,8.0,300.11238,3846.393,0.0,0.0,0.0,-0.12930972296500254,0.0,0.0,-0.22944882341483577,-0.44223428284012556,-0.4975243415768295,-1.151495106543719,-0.3379191211325207,-0.13139874919554687
12752,8.0,299.05323,3953.4313,0.0,0.0,0.0,-0.12931986410867483,0.0,0.0,-0.22508046918621277,-0.44107662433587363,-0.5355873146308525,-1.1451901577964687,-0.3151852238063597,-0.11421264947941089
12753,8.0,300.8583,3819.7495,0.0,0.0,0.0,-0.12933000525234706,0.0,0.0,-0.20012801010359682,-0.44538445713602354,-0.5155959914828625,-1.106402032043379,-0.3225291490736487,-0.13371863596200187
12754,8.0,301.13617999999997,3724.0333,0.0,0.0,0.0,-0.12934014639601932,0.0,0.0,-0.2064099986035808,-0.4272106209574056,-0.4983925043950106,-1.099331978145619,-0.27093084681129276,-0.14106763761229185
12755,8.0,300.22118,4226.7633,0.0,0.0,0.0,-0.12935028753969158,0.0,0.0,-0.2773122148810847,-0.47870647350215056,-0.5288118226696635,-1.0975564599953889,-0.28422805211362473,-0.1026269857159949
12756,8.0,300.84309,4395.2275,0.0,0.0,0.0,-0.12936042868336387,0.0,0.0,-0.28067693475315675,-0.5115285117389335,-0.5438339646772334,-1.114790222996229,-0.2830746695247947,-0.1086437256048009
12757,8.0,301.04877999999997,3976.917,0.0,0.0,0.0,-0.1293705698270361,0.0,0.0,-0.23335461884030778,-0.4964878677845376,-0.4790409676251626,-1.104219693977999,-0.3274776092495237,-0.1149326346029679
12758,8.0,299.9113,4022.0506,0.0,0.0,0.0,-0.12938071097070836,0.0,0.0,-0.2310539027657448,-0.46986460994952656,-0.5216844492137466,-1.119517946637819,-0.2901172136823398,-0.1079514326064769
12759,8.0,299.8449,4256.9837,0.0,0.0,0.0,-0.12939085211438062,0.0,0.0,-0.2775888321583847,-0.48256319722527957,-0.5338647185333455,-1.1116619146374889,-0.3104709561260977,-0.08901389361548731
12760,8.0,299.70461,4006.5994,0.0,0.0,0.0,-0.1294009932580529,0.0,0.0,-0.2185292702671598,-0.4639097999068325,-0.5354670925064875,-1.138240883310629,-0.26469121216548874,-0.09653654505466522
12761,8.0,299.78884,3849.0878,0.0,0.0,0.0,-0.12941113440172516,0.0,0.0,-0.23619495138812677,-0.43897245851570854,-0.4948591695737975,-1.120440612178879,-0.2761044916893917,-0.12270118258966388
12762,8.0,300.42217,4065.6935,0.0,0.0,0.0,-0.12942127554539742,0.0,0.0,-0.26004954385489176,-0.4409039766513346,-0.5349157932595785,-1.1378134944184488,-0.26369307975698075,-0.09317638886104361
12763,8.0,300.50987000000003,3959.8829,0.0,0.0,0.0,-0.12943141668906966,0.0,0.0,-0.26153056086355675,-0.4337566624334496,-0.5084182898944786,-1.107067940009099,-0.2979361201990057,-0.11306701825384591
12764,8.0,299.54899,4096.8609,0.0,0.0,0.0,-0.12944155783274194,0.0,0.0,-0.2638137578438907,-0.4502347840397136,-0.5312948629672205,-1.142369370843079,-0.30734442095503267,-0.10140090243248989
12765,8.0,299.16528999999997,4365.8911,0.0,0.0,0.0,-0.1294516989764142,0.0,0.0,-0.29223521036636974,-0.49094737570773356,-0.5439392920251285,-1.103120013644469,-0.33543418605727665,-0.11344032998818888
12766,8.0,298.94394,3925.6013,0.0,0.0,0.0,-0.12946184012008646,0.0,0.0,-0.24583284448431278,-0.4496862914955816,-0.4977656470881446,-1.133419332709779,-0.2920674465473127,-0.07528725468227353
12767,8.0,299.52226,3749.742,0.0,0.0,0.0,-0.12947198126375872,0.0,0.0,-0.24914355812605476,-0.43954646469735853,-0.4511379242513465,-1.107869826138239,-0.2665922821356097,-0.12000372843844588
12768,8.0,298.2466,4079.8526,0.0,0.0,0.0,-0.12948212240743098,0.0,0.0,-0.27047305028361174,-0.45894141923399157,-0.5107588469629736,-1.1570019181871989,-0.26639945050907876,-0.09177845025457783
12769,8.0,298.73039,4027.2771,0.0,0.0,0.0,-0.12949226355110324,0.0,0.0,-0.25513453106481776,-0.46925202933656956,-0.49980512702192553,-1.130617797508289,-0.2931699741136237,-0.09392427686585442
12770,8.0,299.76207999999997,3640.828,0.0,0.0,0.0,-0.1295024046947755,0.0,0.0,-0.17724449626766983,-0.44091722996264254,-0.48855905402952454,-1.143498840729549,-0.28714554365655875,-0.12734433024540687
12771,8.0,300.74631,3665.5709,0.0,0.0,0.0,-0.12951254583844776,0.0,0.0,-0.21072322189426282,-0.4215282333365976,-0.4819905690637655,-1.097301728920249,-0.3023947448790377,-0.08946227704973932
12772,8.0,300.07646,3821.7213,0.0,0.0,0.0,-0.12952268698212002,0.0,0.0,-0.22702148147527576,-0.4385651421080095,-0.49612121310335155,-1.131709270516009,-0.2929821986050917,-0.13555883999861587
12773,8.0,300.73152000000005,3982.6255,0.0,0.0,0.0,-0.12953282812579228,0.0,0.0,-0.2372809021828018,-0.47676927103346356,-0.4965685326249985,-1.1133819066822388,-0.3030046910417347,-0.14034851375131988
12774,8.0,299.69978,4208.9859,0.0,0.0,0.0,-0.12954296926946454,0.0,0.0,-0.27837756630122673,-0.4733254973885896,-0.5277235312672575,-1.1449350214212888,-0.25345513995157476,-0.15494947808982285
12775,8.0,299.3488,4284.5604,0.0,0.0,0.0,-0.1295531104131368,0.0,0.0,-0.29037261350254573,-0.48257001639845254,-0.5294567360933115,-1.127619894437419,-0.2621641968135917,-0.12970201124059186
12776,8.0,299.92359,3887.6890000000003,0.0,0.0,0.0,-0.12956325155680906,0.0,0.0,-0.22687747837106378,-0.4511455033620946,-0.5037374088050115,-1.1475732207066591,-0.27447815435138473,-0.1257572360837729
12777,8.0,300.34682999999995,4044.0074,0.0,0.0,0.0,-0.12957339270048135,0.0,0.0,-0.24738812259280674,-0.47535365931875356,-0.5065355090886625,-1.125777096480549,-0.3190770363804517,-0.1034507783122969
12778,8.0,300.01964,4458.8705,0.0,0.0,0.0,-0.12958353384415358,0.0,0.0,-0.3154406033615637,-0.49699286150187655,-0.5429518392726744,-1.1171357956527188,-0.2909206804816357,-0.05703226932964675
12779,8.0,300.87684,4017.215,0.0,0.0,0.0,-0.12959367498782584,0.0,0.0,-0.27446157757974876,-0.43820634011509857,-0.5084651527116035,-1.109145001389089,-0.2818282705767847,-0.07662380654468093
12780,8.0,301.09997000000004,3683.1501,0.0,0.0,0.0,-0.1296038161314981,0.0,0.0,-0.2139807297732538,-0.43518922582233255,-0.47041570654641557,-1.1381645855780989,-0.29372271217567475,-0.1019717675388299
12781,8.0,300.68156,3964.1804,0.0,0.0,0.0,-0.12961395727517036,0.0,0.0,-0.24641410553667875,-0.4360821119429536,-0.5225156385357785,-1.1476981544439888,-0.31820174028156667,-0.1121914688424359
12782,8.0,299.98634,4091.567,0.0,0.0,0.0,-0.12962409841884265,0.0,0.0,-0.23418578789733777,-0.4523772709786606,-0.5571711325635095,-1.1390759027180388,-0.2960446761048347,-0.09287262053406402
12783,8.0,299.20277000000004,4002.928,0.0,0.0,0.0,-0.12963423956251488,0.0,0.0,-0.23752432538682577,-0.45282296930014754,-0.5264428540683646,-1.1243141659861688,-0.3022146396737627,-0.13084184667558488
12784,8.0,298.77197,4115.3259,0.0,0.0,0.0,-0.12964438070618714,0.0,0.0,-0.26887079790048174,-0.43269099690577656,-0.5493945191060176,-1.125570190810129,-0.31305094419322266,-0.1020594542024839
12785,8.0,299.66895,3997.195,0.0,0.0,0.0,-0.1296545218498594,0.0,0.0,-0.24655006343509678,-0.46442090352227455,-0.5040764929509766,-1.143499955304659,-0.32598261952197966,-0.10786960252840089
12786,8.0,301.1471,3851.7058,0.0,0.0,0.0,-0.1296646629935317,0.0,0.0,-0.2129685942483638,-0.4639998677082215,-0.49385392414958756,-1.1316637755865189,-0.28994505235784873,-0.12043940571644388
12787,8.0,300.8062,4202.2753,0.0,0.0,0.0,-0.12967480413720395,0.0,0.0,-0.28286799690189773,-0.4654920406004875,-0.5290267228833725,-1.1629400703982489,-0.27560687443278076,-0.11613656823928688
12788,8.0,300.11661000000004,4222.8743,0.0,0.0,0.0,-0.12968494528087618,0.0,0.0,-0.27817182586842176,-0.47513092668177154,-0.5303455996110356,-1.155133991627849,-0.2970017718842927,-0.09229734171028842
12789,8.0,300.48117,3533.0690000000004,0.0,0.0,0.0,-0.12969508642454844,0.0,0.0,-0.1986140928641848,-0.4307221101064626,-0.44462854216392056,-1.144744226427459,-0.30106478319528074,-0.10863229614367288
12790,8.0,299.71117000000004,3642.9240000000004,0.0,0.0,0.0,-0.12970522756822073,0.0,0.0,-0.19308147374065782,-0.4190203177490856,-0.4952561508304765,-1.123284501234549,-0.28741732773088174,-0.08692202257203573
12791,8.0,299.49995,4348.4213,0.0,0.0,0.0,-0.129715368711893,0.0,0.0,-0.2829041192679627,-0.4872448585173235,-0.5516625173348515,-1.086052322335019,-0.29974109352964273,-0.1171295634697879
12792,8.0,298.9093,4131.3203,0.0,0.0,0.0,-0.12972550985556525,0.0,0.0,-0.24396746118271379,-0.4407711294307236,-0.5710796215186705,-1.119216606058079,-0.28137353406440574,-0.1259063763659919
12793,8.0,300.01813,3728.9021,0.0,0.0,0.0,-0.12973565099923748,0.0,0.0,-0.2246597170821878,-0.4351490605883686,-0.47368433991150455,-1.1383939854007388,-0.2801063837543477,-0.15545944686515287
12794,8.0,301.01429,3881.972,0.0,0.0,0.0,-0.12974579214290977,0.0,0.0,-0.22633509572503477,-0.4369726675883446,-0.5167148019782805,-1.1643296415853888,-0.29472083445168173,-0.09713890298736332
12795,8.0,300.97688,4209.3307,0.0,0.0,0.0,-0.12975593328658203,0.0,0.0,-0.29198666011683977,-0.46688905917586254,-0.5206557166522184,-1.1465486222055388,-0.26570247629529276,-0.1009832630327721
12796,8.0,300.54109,4454.3615,0.0,0.0,0.0,-0.12976607443025429,0.0,0.0,-0.3051695708078917,-0.49998534368471154,-0.5488597459682395,-1.139799768589479,-0.30191028974122575,-0.08038715724459472
12797,8.0,300.74827,4452.5652,0.0,0.0,0.0,-0.12977621557392657,0.0,0.0,-0.3124438553958077,-0.4826665082054755,-0.5583582563806694,-1.126319489259079,-0.3123164695932357,-0.07613598640328682
12798,8.0,298.93885,3916.7322,0.0,0.0,0.0,-0.1297863567175988,0.0,0.0,-0.22012930363257077,-0.4588805127704806,-0.5115789817264145,-1.1244678760263387,-0.3135900641739297,-0.07947424930199773
12799,8.0,299.24084,3750.6690000000003,0.0,0.0,0.0,-0.12979649786127107,0.0,0.0,-0.2129070291722878,-0.4514313513478056,-0.4757713412749755,-1.113410581660069,-0.27545543407283474,-0.1113667237910399
12800,8.0,298.98887,4258.2494,0.0,0.0,0.0,-0.12980663900494332,0.0,0.0,-0.3036234524803017,-0.4642304023709735,-0.5265476241287045,-1.120964969105629,-0.2766097589842577,-0.11560957686227688
12801,8.0,299.06152000000003,4278.2184,0.0,0.0,0.0,-0.1298167801486156,0.0,0.0,-0.3123338772299537,-0.45615918644690656,-0.5319785028096905,-1.145062589608879,-0.2735076532731037,-0.0974909688936095
12802,8.0,299.72001,3577.2386,0.0,0.0,0.0,-0.12982692129228787,0.0,0.0,-0.1924026265711608,-0.4254302696041986,-0.46955832470929854,-1.1317350070685488,-0.3043469130517017,-0.13729243999220886
12803,8.0,300.46794,3574.3223,0.0,0.0,0.0,-0.1298370624359601,0.0,0.0,-0.14940402108752884,-0.4364566699749196,-0.5006440373097195,-1.132476706141749,-0.28506694213641676,-0.11896410343834289
12804,8.0,300.502,4202.4205,0.0,0.0,0.0,-0.12984720357963236,0.0,0.0,-0.24515521321493575,-0.4905519953862125,-0.5417236990914666,-1.134656815056909,-0.3022833481630437,-0.13627253283905186
12805,8.0,301.27282,4379.2828,0.0,0.0,0.0,-0.12985734472330465,0.0,0.0,-0.28996299701711975,-0.4988078558760025,-0.5424217777478615,-1.1586053864704489,-0.28731417887070176,-0.12952458101558087
12806,8.0,299.10647,4018.2487,0.0,0.0,0.0,-0.1298674858669769,0.0,0.0,-0.26561640069929776,-0.4668344551279736,-0.48899642343518956,-1.1427112414268188,-0.2824484910954957,-0.1223482574473329
12807,8.0,299.22139,3937.4791,0.0,0.0,0.0,-0.12987762701064917,0.0,0.0,-0.26162138860252077,-0.4511491915924586,-0.48412473721939153,-1.1154451878608689,-0.2640750243821757,-0.08065261154554301
12808,8.0,299.3575,3944.6290000000004,0.0,0.0,0.0,-0.1298877681543214,0.0,0.0,-0.22645161948653478,-0.4535341290153336,-0.5190829599794995,-1.115893044405069,-0.3077364068887187,-0.0943528705124033
12809,8.0,300.22517,4167.3474,0.0,0.0,0.0,-0.1298979092979937,0.0,0.0,-0.25395279773818974,-0.4540777478264846,-0.5587390053707465,-1.103778018259409,-0.30904630622049567,-0.09073380358697922
12810,8.0,299.45842000000005,4274.3738,0.0,0.0,0.0,-0.12990805044166595,0.0,0.0,-0.25230796858585774,-0.4771298766115526,-0.5698650487563014,-1.119697899855579,-0.3306098692836537,-0.08163256219425662
12811,8.0,299.24757,3917.5257,0.0,0.0,0.0,-0.1299181915853382,0.0,0.0,-0.23254784884568577,-0.4549139628690126,-0.5033681906010725,-1.124042614959369,-0.27205685138242075,-0.11906984621877888
12812,8.0,297.62034,3663.6943,0.0,0.0,0.0,-0.12992833272901047,0.0,0.0,-0.2117405047296608,-0.4353580028914896,-0.4665730872646785,-1.1480898769326489,-0.2885968015097867,-0.13396142081846288
12813,8.0,299.07932999999997,4374.4017,0.0,0.0,0.0,-0.12993847387268273,0.0,0.0,-0.3235437569287827,-0.4755201565751856,-0.5306449744855816,-1.158800741089729,-0.24583206428173576,-0.1122747883981589
12814,8.0,299.77993,4478.5384,0.0,0.0,0.0,-0.129948615016355,0.0,0.0,-0.27879533944995777,-0.49787332517627153,-0.5846951697374205,-1.1243308846128188,-0.2836881721953427,-0.10877264141502391
12815,8.0,299.61519,3747.6542,0.0,0.0,0.0,-0.12995875616002725,0.0,0.0,-0.1991810772226418,-0.4406244310812456,-0.49938778957073754,-1.1296856074162889,-0.28368584172011274,-0.10645416306620789
12816,8.0,299.95571,3656.7641,0.0,0.0,0.0,-0.1299688973036995,0.0,0.0,-0.18425672398222281,-0.43891276795231754,-0.48839548506588154,-1.125982786250849,-0.3380661133245277,-0.10090238642304021
12817,8.0,300.90352,4116.9389,0.0,0.0,0.0,-0.1299790384473718,0.0,0.0,-0.2939956108251077,-0.4474221841471316,-0.5100288509284284,-1.152117647405159,-0.32507228523463666,-0.06551701491102595
12818,8.0,300.67056,4281.1988,0.0,0.0,0.0,-0.12998917959104403,0.0,0.0,-0.3215778592172637,-0.4776738804577415,-0.5021257838584565,-1.139047835690269,-0.28848146325090374,-0.099641962067146
12819,8.0,300.19617,4192.9295,0.0,0.0,0.0,-0.1299993207347163,0.0,0.0,-0.28749547971109474,-0.47484871626391956,-0.5122016847078704,-1.1429875547290889,-0.25994485485455976,-0.0990877091961955
12820,8.0,300.52695,4039.3156,0.0,0.0,0.0,-0.13000946187838855,0.0,0.0,-0.2071329930799348,-0.47932895356858457,-0.5413891340409475,-1.118729942035049,-0.2966099987331277,-0.12821414466125086
12821,8.0,298.94624,3822.6819,0.0,0.0,0.0,-0.13001960302206084,0.0,0.0,-0.18182252233948581,-0.46443283960845255,-0.5157444934175185,-1.151714475190369,-0.2901981318353257,-0.1174327988272149
12822,8.0,299.00603,4030.4117,0.0,0.0,0.0,-0.1300297441657331,0.0,0.0,-0.22388610063083778,-0.47265612410752755,-0.5286023028139856,-1.115950597010749,-0.3158213219541377,-0.14483055464116285
12823,8.0,298.83096,4145.2794,0.0,0.0,0.0,-0.13003988530940533,0.0,0.0,-0.26728483857895974,-0.4909404248120476,-0.5018361463173715,-1.139878092822209,-0.28418799833717173,-0.10829775135815589
12824,8.0,299.11636,3603.6744,0.0,0.0,0.0,-0.1300500264530776,0.0,0.0,-0.21880955550982178,-0.4574521037070075,-0.4191653746334016,-1.140181763877179,-0.2912661785007337,-0.13220058466218187
12825,8.0,299.99796000000003,3511.2174,0.0,0.0,0.0,-0.13006016759674988,0.0,0.0,-0.21269650619901082,-0.40217759835933864,-0.4524482998106706,-1.143570578836629,-0.2526242242070698,-0.09906963686741191
12826,8.0,300.00756,4307.5484,0.0,0.0,0.0,-0.13007030874042214,0.0,0.0,-0.25947456495314575,-0.49191748161847554,-0.5579950974123284,-1.1333976491576387,-0.26789290009647077,-0.11853873091386188
12827,8.0,299.35755,4555.4441,0.0,0.0,0.0,-0.1300804498840944,0.0,0.0,-0.3012552235515757,-0.49102072488247256,-0.5924652983942724,-1.134751756591279,-0.25820517536036675,-0.08675100824665792
12828,8.0,299.76263,4282.9221,0.0,0.0,0.0,-0.13009059102776663,0.0,0.0,-0.26307108605059476,-0.5051705396139505,-0.5336597583031175,-1.1487958082773189,-0.3233586057380097,-0.11585015283351988
12829,8.0,300.02322000000004,4190.379,0.0,0.0,0.0,-0.13010073217143892,0.0,0.0,-0.2912438059385257,-0.4840687348863645,-0.4984580312789775,-1.1437700877813188,-0.30210078076002567,-0.07876831289107723
12830,8.0,299.9524,4038.0572,0.0,0.0,0.0,-0.13011087331511118,0.0,0.0,-0.2909078122053657,-0.4412103733490736,-0.4953503729572755,-1.123514509007249,-0.3189081377212827,-0.1029421368945979
12831,8.0,299.85418,3863.5464,0.0,0.0,0.0,-0.13012101445878343,0.0,0.0,-0.24673842662868675,-0.4265025111250206,-0.5011807052251845,-1.1196083285467389,-0.27025185778678174,-0.0933502210349495
12832,8.0,299.51446,3855.289,0.0,0.0,0.0,-0.13013115560245572,0.0,0.0,-0.21186621866956779,-0.44282267717319557,-0.5172227037234065,-1.111453286441899,-0.29633989665397076,-0.13894132214494084
12833,8.0,299.45559,3873.0283,0.0,0.0,0.0,-0.13014129674612795,0.0,0.0,-0.2044337657410418,-0.43262944196220154,-0.5402406758476035,-1.1578058308165387,-0.2703240923864107,-0.09703964602081741
12834,8.0,299.98793,3681.5665,0.0,0.0,0.0,-0.13015143788980021,0.0,0.0,-0.18629049931794084,-0.45902137479938254,-0.47379242329967153,-1.129465225519539,-0.29260094298996475,-0.15638621606911787
12835,8.0,299.19947,4093.719,0.0,0.0,0.0,-0.13016157903347247,0.0,0.0,-0.25636271177602976,-0.4600665422775326,-0.5279590916505055,-1.137556838168119,-0.2718989667518387,-0.10123617633723271
12836,8.0,299.77563,4567.2581,0.0,0.0,0.0,-0.13017172017714476,0.0,0.0,-0.3316310733969387,-0.5272691595249145,-0.5294321749108876,-1.142756229731259,-0.3182480660761387,-0.10860320573330191
12837,8.0,300.65272000000004,4241.6693,0.0,0.0,0.0,-0.13018186132081702,0.0,0.0,-0.26667970535423774,-0.4951823254281905,-0.5274995320676504,-1.131205178591259,-0.3191342748786007,-0.09360713363755481
12838,8.0,301.1319,3840.548,0.0,0.0,0.0,-0.13019200246448925,0.0,0.0,-0.2171019859112978,-0.43818035025003355,-0.5121483472226065,-1.1302626533482387,-0.2896970593958737,-0.12152513359609689
12839,8.0,301.06432,4011.8984,0.0,0.0,0.0,-0.1302021436081615,0.0,0.0,-0.23754696139405976,-0.4371504220533876,-0.5448195530495035,-1.130428015764559,-0.25559147646241476,-0.08924751666454411
12840,8.0,300.8526,4005.7298,0.0,0.0,0.0,-0.13021228475183377,0.0,0.0,-0.23769301126347378,-0.4520825874520776,-0.5278662576763435,-1.1239308534733388,-0.3010537995641967,-0.12744126788247387
12841,8.0,300.13149,3925.1851,0.0,0.0,0.0,-0.13022242589550606,0.0,0.0,-0.25398966990932875,-0.4333777372935526,-0.5057908411926695,-1.150216486242529,-0.27631642308030774,-0.09404985705674822
12842,8.0,299.63615,4039.5122,0.0,0.0,0.0,-0.13023256703917832,0.0,0.0,-0.26221651091625475,-0.46445990351862354,-0.5012344074804845,-1.114784346145649,-0.29374139650751874,-0.1144204265449169
12843,8.0,298.98695,3989.7732,0.0,0.0,0.0,-0.13024270818285055,0.0,0.0,-0.25742947161381075,-0.4283013238950496,-0.5270606427868355,-1.096990863789569,-0.26143472766909875,-0.08814797919927822
12844,8.0,299.34462,4008.2767,0.0,0.0,0.0,-0.1302528493265228,0.0,0.0,-0.2163446625215558,-0.4667055089202476,-0.5353658688214975,-1.117196894633749,-0.30392609002016974,-0.14485286640836484
12845,8.0,299.61895,4532.7122,0.0,0.0,0.0,-0.1302629904701951,0.0,0.0,-0.3004715151292297,-0.5105229218096895,-0.5668368799049445,-1.114178118610819,-0.30448334717766673,-0.08435595048178411
12846,8.0,298.98716,4299.9553,0.0,0.0,0.0,-0.13027313161386736,0.0,0.0,-0.2793265763448867,-0.48136356990188556,-0.5463889052018864,-1.145276182729959,-0.2917431761178097,-0.11211837298022191
12847,8.0,299.57655,3709.7743,0.0,0.0,0.0,-0.13028327275753962,0.0,0.0,-0.25454053345869476,-0.4145139689893436,-0.45862424155518855,-1.1371685607297988,-0.28177574369160074,-0.07390293111740143
12848,8.0,299.7951,3771.8626,0.0,0.0,0.0,-0.13029341390121185,0.0,0.0,-0.2294632216987568,-0.4368530432815386,-0.4802357921430825,-1.1345804159993689,-0.3117049326278817,-0.1037839754751809
12849,8.0,299.52441,4273.3818,0.0,0.0,0.0,-0.13030355504488414,0.0,0.0,-0.2784786683962047,-0.4589627684135986,-0.5615599341791505,-1.138775575388399,-0.3090048440264037,-0.06472834764269053
12850,8.0,300.37811,4210.0071,0.0,0.0,0.0,-0.13031369618855637,0.0,0.0,-0.26845966153990575,-0.47086018896778253,-0.5404171941475244,-1.1163253982227388,-0.3186082359566847,-0.12870773931496488
12851,8.0,299.82514,3966.4089,0.0,0.0,0.0,-0.13032383733222866,0.0,0.0,-0.22785741280777577,-0.46199010639987353,-0.5158417451621164,-1.1447032911234187,-0.27152411487734374,-0.11436242810919289
12852,8.0,300.56087,3986.8375,0.0,0.0,0.0,-0.13033397847590095,0.0,0.0,-0.2642683221037528,-0.4505522454285446,-0.4970784710028255,-1.128534352652669,-0.28942647095666874,-0.14334662960471087
12853,8.0,301.39645,4038.5052,0.0,0.0,0.0,-0.13034411961957318,0.0,0.0,-0.26221452494605874,-0.46906681735079053,-0.4963234071608066,-1.1402817716620488,-0.28565781893223174,-0.13449487673111088
12854,8.0,299.69619,4065.7165,0.0,0.0,0.0,-0.13035426076324544,0.0,0.0,-0.24521081024792277,-0.4769753863688056,-0.5136900984422655,-1.1224383360760388,-0.26958810804377475,-0.11233061847866889
12855,8.0,299.50872000000004,4101.5399,0.0,0.0,0.0,-0.1303644019069177,0.0,0.0,-0.2483456945998118,-0.4590126507160216,-0.5394073688328624,-1.133222255565329,-0.30108613237488774,-0.1007398833985024
12856,8.0,299.67728,3897.6666,0.0,0.0,0.0,-0.13037454305058999,0.0,0.0,-0.22115697228149378,-0.46174653120833453,-0.5018898181751685,-1.132390174583209,-0.30516175864962075,-0.097131138451847
12857,8.0,300.09294,3702.8866,0.0,0.0,0.0,-0.13038468419426225,0.0,0.0,-0.2140248061526038,-0.42785186641569156,-0.48370841301830353,-1.146643969039949,-0.3000062408158107,-0.13224631263919487
12858,8.0,299.13183,4173.5944,0.0,0.0,0.0,-0.13039482533793448,0.0,0.0,-0.2899738387931898,-0.4756364776866655,-0.5030581664679755,-1.1421592227723387,-0.2860289825763627,-0.1009263264831529
12859,8.0,299.60345,4395.0491,0.0,0.0,0.0,-0.13040496648160674,0.0,0.0,-0.32658514869394467,-0.4834652025968005,-0.5259348206007255,-1.1529548959627887,-0.27267763932118777,-0.0930569246477534
12860,8.0,301.03349,4076.7747,0.0,0.0,0.0,-0.13041510762527903,0.0,0.0,-0.26081664510809877,-0.4522300153416276,-0.5261910310210115,-1.119250043311379,-0.29350920011460274,-0.11171707527811689
12861,8.0,301.2684,4014.1097,0.0,0.0,0.0,-0.13042524876895129,0.0,0.0,-0.2250859306042518,-0.48482227885323353,-0.5102808968908035,-1.087760459353599,-0.3077593367384817,-0.10934532023904289
12862,8.0,300.79983,4058.4227,0.0,0.0,0.0,-0.13043538991262354,0.0,0.0,-0.23955756369999076,-0.4442828921573076,-0.5498186858628795,-1.0881319168402592,-0.2998830093386487,-0.11748457590732489
12863,8.0,300.74655,3962.8198,0.0,0.0,0.0,-0.13044553105629578,0.0,0.0,-0.24395018526850876,-0.4477364234006446,-0.5129116386554375,-1.1044206214728292,-0.3193146637939037,-0.1223379830913189
12864,8.0,299.40507,4012.3502,0.0,0.0,0.0,-0.13045567219996806,0.0,0.0,-0.2752807700205967,-0.4579927638278665,-0.48638074869954256,-1.133259441843999,-0.26672676068888174,-0.12879789830886287
12865,8.0,299.34309,4099.7642,0.0,0.0,0.0,-0.13046581334364032,0.0,0.0,-0.27703946821916675,-0.4328163866056516,-0.5363700908631065,-1.140058350014999,-0.2766762383233187,-0.08673597870792461
12866,8.0,299.08366,3888.5772,0.0,0.0,0.0,-0.13047595448731258,0.0,0.0,-0.2031704860463658,-0.4594529990769805,-0.5194068960364695,-1.1241204325670489,-0.2722869300826277,-0.1028984759477889
12867,8.0,299.04868,3912.7199,0.0,0.0,0.0,-0.13048609563098484,0.0,0.0,-0.18981573827085482,-0.4591327613828755,-0.5404206594628664,-1.147508879325309,-0.3069478753958967,-0.09299496035113801
12868,8.0,299.80803,4294.9195,0.0,0.0,0.0,-0.1304962367746571,0.0,0.0,-0.25639125503134674,-0.4876022115625916,-0.5615548071336445,-1.1362759887167089,-0.3180260325817257,-0.08114551921568923
12869,8.0,300.26739,4177.5414,0.0,0.0,0.0,-0.13050637791832936,0.0,0.0,-0.2800303190693407,-0.48075260035658757,-0.5090853732303146,-1.1394251700275089,-0.32593271695455467,-0.13256795875093888
12870,8.0,300.02702999999997,3800.7964,0.0,0.0,0.0,-0.13051651906200162,0.0,0.0,-0.25425925523093473,-0.43187390189263564,-0.4692140527228215,-1.1323712268063388,-0.27496738189716774,-0.1111028835975009
12871,8.0,300.54303,3826.0265,0.0,0.0,0.0,-0.13052666020567388,0.0,0.0,-0.2554363073421007,-0.4300545100130756,-0.4775257230281195,-1.126178850145199,-0.2810788404053217,-0.12658769586573287
12872,8.0,300.626,4095.0565,0.0,0.0,0.0,-0.13053680134934614,0.0,0.0,-0.2367750066728738,-0.45041741223773757,-0.5576025035285824,-1.1413479134172688,-0.27288868918451675,-0.08967266526075302
12873,8.0,301.30752,4129.3927,0.0,0.0,0.0,-0.1305469424930184,0.0,0.0,-0.2275081657633078,-0.4731181053581216,-0.5546059886103495,-1.102804183588299,-0.29349807462850475,-0.1067627787816659
12874,8.0,299.61413999999996,4091.1333,0.0,0.0,0.0,-0.13055708363669066,0.0,0.0,-0.2224989207139338,-0.4520331205821956,-0.5690703263053685,-1.1292448436227889,-0.3086888619827187,-0.06924693545039043
12875,8.0,298.81985,4051.6213,0.0,0.0,0.0,-0.13056722478036292,0.0,0.0,-0.26410694176032573,-0.45623918254230156,-0.5112455819135105,-1.1187665203636592,-0.3393931568479967,-0.10050832332664922
12876,8.0,299.86302,4049.8204,0.0,0.0,0.0,-0.13057736592403518,0.0,0.0,-0.28467478395021373,-0.45262055232767057,-0.4937489615717285,-1.156412003978979,-0.2976320539764967,-0.08916659141880742
12877,8.0,299.12197000000003,4242.6502,0.0,0.0,0.0,-0.13058750706770744,0.0,0.0,-0.27717447366249076,-0.5042695576250306,-0.5082156905369836,-1.147484459997899,-0.2898622698246787,-0.1289783074891679
12878,8.0,299.26144,4286.8931,0.0,0.0,0.0,-0.1305976482113797,0.0,0.0,-0.2746181652502028,-0.4752819516091765,-0.5532083418199124,-1.1494723553690889,-0.2688691665678207,-0.09943533909350391
12879,8.0,299.91991,3877.9685,0.0,0.0,0.0,-0.13060778935505196,0.0,0.0,-0.18605515171721382,-0.48051002828264755,-0.5122403908616905,-1.1422076561271188,-0.28194054882036573,-0.11968356167184789
12880,8.0,300.1577,3661.1611,0.0,0.0,0.0,-0.13061793049872422,0.0,0.0,-0.18487622509336282,-0.4325577139876226,-0.4954676262588475,-1.148276922901109,-0.27991694651565174,-0.11551035941248489
12881,8.0,300.34817000000004,4147.0883,0.0,0.0,0.0,-0.13062807164239648,0.0,0.0,-0.2830169547990987,-0.4716617508568905,-0.5059325644841565,-1.124619255591279,-0.3023816536877457,-0.13649291473580188
12882,8.0,301.10081,4289.4385,0.0,0.0,0.0,-0.13063821278606877,0.0,0.0,-0.3123256091091377,-0.4657283507888095,-0.5258282266902055,-1.1423988564209888,-0.2816718247613447,-0.12227353025245788
12883,8.0,299.98179,3943.7490000000003,0.0,0.0,0.0,-0.130648353929741,0.0,0.0,-0.2377992809339618,-0.46378132992665355,-0.49722059959435255,-1.114119958055079,-0.3140595130777607,-0.13429876217425588
12884,8.0,300.70361,4064.5841,0.0,0.0,0.0,-0.1306584950734133,0.0,0.0,-0.2264506974289438,-0.4778819918957805,-0.5311993742777965,-1.118872202349089,-0.28849584126982275,-0.08844326662292082
12885,8.0,300.05649,4155.7875,0.0,0.0,0.0,-0.13066863621708552,0.0,0.0,-0.24771127844719976,-0.4741442237343915,-0.5414001379370336,-1.0836369367466387,-0.3245755900356167,-0.13012426295476487
12886,8.0,299.24377999999996,4080.6137,0.0,0.0,0.0,-0.1306787773607578,0.0,0.0,-0.2337279913696568,-0.4828007131812205,-0.5238759571925315,-1.134632699704529,-0.3113276996156517,-0.08804080469645091
12887,8.0,299.19874,4117.8404,0.0,0.0,0.0,-0.13068891850443007,0.0,0.0,-0.2701284135270987,-0.48366026337355156,-0.4979319923570615,-1.1323266438019388,-0.3072608886167887,-0.10682072655488489
12888,8.0,298.89491,4032.7699,0.0,0.0,0.0,-0.13069905964810233,0.0,0.0,-0.28038838138967875,-0.4482949369882656,-0.4971780430901525,-1.160235503231329,-0.2820849977546217,-0.08380384671429572
12889,8.0,299.79528,3851.8184,0.0,0.0,0.0,-0.13070920079177456,0.0,0.0,-0.22709796159282378,-0.46573389326685655,-0.4780247689673715,-1.142136627295109,-0.2784733285681777,-0.14709886697752786
12890,8.0,300.02852,4133.7096,0.0,0.0,0.0,-0.13071934193544685,0.0,0.0,-0.2823058761439207,-0.4411944450575016,-0.5330441784698645,-1.1716120727041088,-0.27958525909541676,-0.09046557298075691
12891,8.0,299.98323,4257.8381,0.0,0.0,0.0,-0.1307294830791191,0.0,0.0,-0.26522768756343473,-0.48292880825886253,-0.5461199784928454,-1.1375351546159789,-0.3051259301260847,-0.12254311557406389
12892,8.0,300.49447999999995,3842.3622,0.0,0.0,0.0,-0.13073962422279137,0.0,0.0,-0.2301649581880128,-0.43034470484171555,-0.5074725019861365,-1.1302902137509592,-0.25437029730939376,-0.08782368343852272
12893,8.0,300.4545,3853.1707,0.0,0.0,0.0,-0.1307497653664636,0.0,0.0,-0.24562006196331274,-0.44915869216851156,-0.47648892499579554,-1.1208647586707388,-0.2990380904777617,-0.12979580780234887
12894,8.0,299.72866,4139.0872,0.0,0.0,0.0,-0.1307599065101359,0.0,0.0,-0.3013655867524677,-0.4505292851812786,-0.5062842838588686,-1.108489529899399,-0.2890101974180857,-0.08457881686777932
12895,8.0,300.26162,4060.9944,0.0,0.0,0.0,-0.13077004765380815,0.0,0.0,-0.25640502510020574,-0.44935244585263356,-0.5286834337494926,-1.129185467166929,-0.3134200509396507,-0.1035631984108919
12896,8.0,300.66437,3906.3016,0.0,0.0,0.0,-0.1307801887974804,0.0,0.0,-0.23204820508887475,-0.4447951306128615,-0.5105748002148095,-1.1101148843848092,-0.2907111504934567,-0.09639565364151031
12897,8.0,300.83665,3984.5431,0.0,0.0,0.0,-0.1307903299411527,0.0,0.0,-0.2190057713916868,-0.4795803611833966,-0.5126154757837085,-1.1220816720408389,-0.3072670795748997,-0.10229222814795691
12898,8.0,301.79317000000003,4161.9832,0.0,0.0,0.0,-0.13080047108482493,0.0,0.0,-0.24342818921449177,-0.48612634186443454,-0.5355844471330695,-1.1280285382027488,-0.31346318499640774,-0.07713057547619513
12899,8.0,301.04819,4271.9655,0.0,0.0,0.0,-0.1308106122284972,0.0,0.0,-0.2738238480993097,-0.5044434617396936,-0.5203035311824605,-1.1525893153267088,-0.3228913961168997,-0.09395713757984751
12900,8.0,301.01155,4315.4302,0.0,0.0,0.0,-0.13082075337216947,0.0,0.0,-0.2645855605775617,-0.4900232105565256,-0.5571742635063185,-1.146595940985209,-0.2920718035227427,-0.1023250777161989
12901,8.0,299.45126,4069.2047,0.0,0.0,0.0,-0.1308308945158417,0.0,0.0,-0.24246848938227675,-0.4749258448615315,-0.5195422966473325,-1.124591796513569,-0.28700901833808473,-0.13105855047447187
12902,8.0,300.23278999999997,3761.2793,0.0,0.0,0.0,-0.130841035659514,0.0,0.0,-0.1947488173102118,-0.45365365199712954,-0.49493250861603555,-1.1412942111619688,-0.27990827309479577,-0.13689237845522587
12903,8.0,300.22298,3980.215,0.0,0.0,0.0,-0.13085117680318623,0.0,0.0,-0.24347221493133675,-0.43791463554380955,-0.5284991336888035,-1.121128102371729,-0.2935694580980497,-0.11570879431206887
12904,8.0,299.69038,4251.597,0.0,0.0,0.0,-0.13086131794685849,0.0,0.0,-0.27078721860961774,-0.47365151060826455,-0.5479405964050265,-1.130021499824439,-0.2630318327417207,-0.09688742444504432
12905,8.0,299.25771000000003,4000.0441,0.0,0.0,0.0,-0.13087145909053075,0.0,0.0,-0.26003999903894975,-0.4459327774276386,-0.5099407386997324,-1.1205604796657092,-0.2554631888672537,-0.09406889805262741
12906,8.0,300.39383,4056.1092,0.0,0.0,0.0,-0.13088160023420303,0.0,0.0,-0.23875119900540878,-0.46150251018675154,-0.5327022166936155,-1.1395377421136188,-0.29840906481568175,-0.08820594014474852
12907,8.0,299.84045,4409.5788,0.0,0.0,0.0,-0.1308917413778753,0.0,0.0,-0.26654327122827276,-0.5096526210337975,-0.5642059760202944,-1.123370627493049,-0.3202180978480657,-0.060843019869238534
12908,8.0,300.42503999999997,4315.3016,0.0,0.0,0.0,-0.13090188252154752,0.0,0.0,-0.2710524165582907,-0.47095008451665454,-0.5697414423766024,-1.118550596767349,-0.3066621490001977,-0.08105261127426992
12909,8.0,300.05907,4220.7438,0.0,0.0,0.0,-0.13091202366521978,0.0,0.0,-0.26634285035849276,-0.48991318172816656,-0.5267447012731544,-1.118502771362629,-0.31429192225319774,-0.11463267204336389
12910,8.0,299.96409,4192.5445,0.0,0.0,0.0,-0.13092216480889207,0.0,0.0,-0.28728638542045876,-0.4766171619284515,-0.5105252928149235,-1.1435172818813688,-0.2945316302605087,-0.1123792443509679
12911,8.0,301.37605,3969.8892,0.0,0.0,0.0,-0.13093230595256433,0.0,0.0,-0.27567604901710774,-0.4350109140697346,-0.4960602154473315,-1.1413917871465988,-0.3023744393470337,-0.1140577944666279
12912,8.0,300.52682000000004,3882.3072,0.0,0.0,0.0,-0.1309424470962366,0.0,0.0,-0.23515445499293777,-0.45637163459537355,-0.48859835800090357,-1.133494313217179,-0.2879319574566717,-0.14539988973985188
12913,8.0,299.27362999999997,3950.3334,0.0,0.0,0.0,-0.13095258823990882,0.0,0.0,-0.25518096831690074,-0.43882119040827955,-0.5068005449173195,-1.143590641188609,-0.28323265548038673,-0.12096383357070088
12914,8.0,299.74324,4010.7619,0.0,0.0,0.0,-0.1309627293835811,0.0,0.0,-0.24247860161827475,-0.46031570047712256,-0.5163771667799585,-1.150534140148879,-0.3039291297704697,-0.11327806811717489
12915,8.0,299.68966,3933.8712,0.0,0.0,0.0,-0.13097287052725337,0.0,0.0,-0.2324977740257438,-0.4622690440199026,-0.5010317979904885,-1.1410495112628187,-0.30262021329128974,-0.11402607973849789
12916,8.0,299.34562,4221.4085,0.0,0.0,0.0,-0.13098301167092563,0.0,0.0,-0.28237295330054074,-0.4954250900196495,-0.5054047321095635,-1.144203049549049,-0.27566058682058175,-0.09623015342317671
12917,8.0,298.89326,4472.2114,0.0,0.0,0.0,-0.13099315281459792,0.0,0.0,-0.3041162466664367,-0.5221748723946474,-0.5331494652877555,-1.131473385892729,-0.2577532252857628,-0.10971729448325389
12918,8.0,298.50548,4284.8958,0.0,0.0,0.0,-0.13100329395827015,0.0,0.0,-0.25620725894568774,-0.5106790028550935,-0.5356150675510915,-1.166684333492779,-0.2868559973079827,-0.1082845081793489
12919,8.0,299.34308,3976.1623,0.0,0.0,0.0,-0.1310134351019424,0.0,0.0,-0.20366722177538982,-0.47676005045755354,-0.5282267720619235,-1.145854647212049,-0.3125739871061507,-0.08433394066311192
12920,8.0,300.7164,3970.2317,0.0,0.0,0.0,-0.13102357624561467,0.0,0.0,-0.2096338361817488,-0.47850485699725254,-0.5187126069354485,-1.1298804554105188,-0.34360767944643766,-0.1065270968084059
12921,8.0,300.23052,3946.6273,0.0,0.0,0.0,-0.13103371738928696,0.0,0.0,-0.24227727895590576,-0.43505231546882056,-0.5223465676240925,-1.104986217678649,-0.30338877362464073,-0.11215993649932389
12922,8.0,300.71581000000003,3987.3877,0.0,0.0,0.0,-0.13104385853295922,0.0,0.0,-0.26737324465018475,-0.45807098673558655,-0.48662206434335853,-1.146174327618599,-0.2928920497436947,-0.13849724502361388
12923,8.0,300.5235,4072.5329,0.0,0.0,0.0,-0.13105399967663145,0.0,0.0,-0.2842835883516057,-0.44260444336665755,-0.5110602787352225,-1.150631614808499,-0.2724104148723147,-0.12499442087848887
12924,8.0,300.86907,3940.0696,0.0,0.0,0.0,-0.1310641408203037,0.0,0.0,-0.23314294076191677,-0.4422681051284636,-0.5222717492367085,-1.120133800048599,-0.26827119702130575,-0.1393616892139279
12925,8.0,300.4695,4045.7212,0.0,0.0,0.0,-0.131074281963976,0.0,0.0,-0.22454933361629376,-0.4679916272721776,-0.5372572723856645,-1.1236829111738689,-0.25615850135087576,-0.10251468720741191
12926,8.0,300.31458,4384.4474,0.0,0.0,0.0,-0.13108442310764826,0.0,0.0,-0.25624805239471377,-0.49041292680998755,-0.5861015406112184,-1.123112046067529,-0.3074736711377887,-0.0954264069668531
12927,8.0,299.37431000000004,4483.4329,0.0,0.0,0.0,-0.13109456425132052,0.0,0.0,-0.2947777993723037,-0.5028807362429646,-0.5651931247977184,-1.155319720371179,-0.3051984281707397,-0.05957967532655615
12928,8.0,299.92332000000005,4311.7232,0.0,0.0,0.0,-0.13110470539499275,0.0,0.0,-0.2994397428174017,-0.4899500944293095,-0.5212663518249836,-1.124587540863149,-0.29971411067947973,-0.1032992062298379
12929,8.0,299.49143,4149.7235,0.0,0.0,0.0,-0.13111484653866504,0.0,0.0,-0.28126037429323775,-0.4490321068335185,-0.5311198341449466,-1.1327474465684688,-0.27940575170770077,-0.08147529665948572
12930,8.0,299.4701,4032.2136,0.0,0.0,0.0,-0.1311249876823373,0.0,0.0,-0.24606712817243476,-0.4537477120039126,-0.5258774301150615,-1.1158621402770188,-0.28138748651828277,-0.11548270781725589
12931,8.0,299.3684,3859.4561,0.0,0.0,0.0,-0.13113512882600956,0.0,0.0,-0.2205236301739878,-0.4183624955191636,-0.5342921580880305,-1.162342455489269,-0.2935464573207797,-0.08178680925697962
12932,8.0,300.26122000000004,3899.0258,0.0,0.0,0.0,-0.13114526996968182,0.0,0.0,-0.2077891434471918,-0.45115301154533555,-0.5262643396657465,-1.109761462749929,-0.2986649509959357,-0.1144008505529849
12933,8.0,300.69821,4030.2441,0.0,0.0,0.0,-0.13115541111335408,0.0,0.0,-0.26628397039518176,-0.4543700704803345,-0.5044395201968046,-1.1449882170515389,-0.2741065347447087,-0.11242597544557989
12934,8.0,301.85503,4030.3001,0.0,0.0,0.0,-0.13116555225702634,0.0,0.0,-0.29682113978896574,-0.44068235858946253,-0.4876071156930755,-1.1221958653271091,-0.30089546910357073,-0.14280741843149486
12935,8.0,301.38411,4158.0541,0.0,0.0,0.0,-0.1311756934006986,0.0,0.0,-0.28807862540864676,-0.48800436039478057,-0.4878616238531936,-1.1596124557448388,-0.2887627212136617,-0.13007963942036088
12936,8.0,300.38337,4318.4473,0.0,0.0,0.0,-0.13118583454437086,0.0,0.0,-0.27902621861774374,-0.48948436415334556,-0.5441895647998285,-1.1434935718290289,-0.2790255600051787,-0.11835532251326089
12937,8.0,299.8327,4286.2292,0.0,0.0,0.0,-0.13119597568804314,0.0,0.0,-0.2251123055043548,-0.5046981826823325,-0.5730961513376864,-1.1422443357807388,-0.28234928377820473,-0.09050518903316672
12938,8.0,300.03697999999997,4093.6502,0.0,0.0,0.0,-0.13120611683171537,0.0,0.0,-0.2158575121384778,-0.47929669168540057,-0.5492132486631275,-1.1448742264152887,-0.3215765217271317,-0.096088747278971
12939,8.0,300.95247,4134.3622,0.0,0.0,0.0,-0.13121625797538763,0.0,0.0,-0.26993665594567373,-0.4509898580142335,-0.5358163699484585,-1.152922674609609,-0.2864258827730337,-0.05646422207183485
12940,8.0,299.90377,3982.9867,0.0,0.0,0.0,-0.1312263991190599,0.0,0.0,-0.2643094904553157,-0.4639165380199975,-0.4825024832792875,-1.131038296299789,-0.28780136978378373,-0.11718562659782088
12941,8.0,299.2234,3922.6422,0.0,0.0,0.0,-0.13123654026273218,0.0,0.0,-0.2603855578530538,-0.4293390338524636,-0.5026606785862465,-1.1361247104767789,-0.2535558671440158,-0.11895119463206888
12942,8.0,300.06096,3978.1267,0.0,0.0,0.0,-0.13124668140640444,0.0,0.0,-0.26422955515492674,-0.44460109321871155,-0.5004205447351625,-1.1355052093656388,-0.2933107044200127,-0.13961129324356186
12943,8.0,300.80507,4007.0424,0.0,0.0,0.0,-0.13125682255007667,0.0,0.0,-0.2465654648366168,-0.4660369766367686,-0.5054384024103865,-1.1264739085743187,-0.2915814107393447,-0.11671211456108889
12944,8.0,300.30335,4220.7049,0.0,0.0,0.0,-0.13126696369374893,0.0,0.0,-0.2543807945804297,-0.47626332486103057,-0.5523447690246844,-1.1213414928427887,-0.29420487736826073,-0.13567368176494987
12945,8.0,300.80006000000003,4437.0177,0.0,0.0,0.0,-0.13127710483742122,0.0,0.0,-0.3058427437768287,-0.5081254504830774,-0.5347744144731255,-1.1318696680068387,-0.2758569648224627,-0.08633218030457282
12946,8.0,300.20254,4278.3985,0.0,0.0,0.0,-0.13128724598109348,0.0,0.0,-0.29708158559466974,-0.4896596665531465,-0.5137850703741385,-1.146459861496779,-0.3238917272781247,-0.11779663667312289
12947,8.0,300.87457,4058.422,0.0,0.0,0.0,-0.13129738712476574,0.0,0.0,-0.27903936047154076,-0.44048615284009857,-0.5141334460235205,-1.1448927688921189,-0.2948983761342037,-0.08038257532764252
12948,8.0,300.30851,4151.4152,0.0,0.0,0.0,-0.13130752826843797,0.0,0.0,-0.24942023619836076,-0.4955957821314955,-0.5169105517650995,-1.1384130345026189,-0.3091450778402437,-0.1155644467028229
12949,8.0,299.43865,4237.2602,0.0,0.0,0.0,-0.13131766941211026,0.0,0.0,-0.2597616997664838,-0.45989558672066055,-0.5683639997931594,-1.1308852955346889,-0.2944207604345667,-0.06994787045881734
12950,8.0,299.73096,4218.9898,0.0,0.0,0.0,-0.13132781055578252,0.0,0.0,-0.2408577054333048,-0.5035965062461055,-0.5380133596102845,-1.161087646565429,-0.32186663549576366,-0.09900456493273982
12951,8.0,299.74253,3939.0148,0.0,0.0,0.0,-0.13133795169945478,0.0,0.0,-0.2533830168094568,-0.45425445864392455,-0.48972467667956254,-1.132808241574469,-0.2821641325874317,-0.0973153888632811
12952,8.0,299.94279,3835.4086,0.0,0.0,0.0,-0.13134809284312707,0.0,0.0,-0.23482628355054977,-0.42916365039265464,-0.5018784900390505,-1.1397216470067688,-0.2914897420027977,-0.1080178714155339
12953,8.0,300.58159,4002.0483,0.0,0.0,0.0,-0.1313582339867993,0.0,0.0,-0.24828460575128275,-0.49512338466987355,-0.47311475150029053,-1.1392024576555289,-0.24655588962317176,-0.14841022538944884
12954,8.0,299.92595,4098.8243,0.0,0.0,0.0,-0.13136837513047156,0.0,0.0,-0.25880341848440874,-0.4606116201688276,-0.5265252110364925,-1.1761422125761989,-0.29810737973090773,-0.13446648546330886
12955,8.0,300.1311,4177.5463,0.0,0.0,0.0,-0.13137851627414382,0.0,0.0,-0.24322826483726076,-0.4754913600073436,-0.5511501268917824,-1.169522649672899,-0.28062949438347473,-0.12532159933577888
12956,8.0,299.66893,3991.5605,0.0,0.0,0.0,-0.1313886574178161,0.0,0.0,-0.22903536671153077,-0.46679032808611853,-0.5175090076716625,-1.1326490599837589,-0.2958864064392147,-0.1075797927347989
12957,8.0,299.76849,4038.7963,0.0,0.0,0.0,-0.13139879856148837,0.0,0.0,-0.2728947078901108,-0.4237520335960696,-0.5310464748377065,-1.117818320920079,-0.28939744134130374,-0.1012796741507756
12958,8.0,299.84994,4305.3833,0.0,0.0,0.0,-0.1314089397051606,0.0,0.0,-0.26827610115178974,-0.5019892990699866,-0.5384636175572215,-1.110757386273219,-0.3171915299318667,-0.06794254211965683
12959,8.0,299.94521000000003,4180.3341,0.0,0.0,0.0,-0.13141908084883286,0.0,0.0,-0.2632559231338367,-0.46040968955639855,-0.5470515808997874,-1.132195731889019,-0.2931161502683117,-0.08420264675490423
12960,8.0,298.07271000000003,4092.7089,0.0,0.0,0.0,-0.13142922199250515,0.0,0.0,-0.2160395931814478,-0.4746741130066876,-0.5533676044706305,-1.107043622006699,-0.3071975503530377,-0.09090547551167191
12961,8.0,298.86776000000003,4216.5257,0.0,0.0,0.0,-0.1314393631361774,0.0,0.0,-0.24851739996175776,-0.4985985893328495,-0.5346025368586624,-1.1235153196073289,-0.3091849188341757,-0.12767434580297687
12962,8.0,299.16471,4145.0542,0.0,0.0,0.0,-0.13144950427984967,0.0,0.0,-0.2727632488221367,-0.4543820369640156,-0.5328476890104725,-1.1323990911840889,-0.3314315441872467,-0.0904892019730889
12963,8.0,299.76087,3986.5833,0.0,0.0,0.0,-0.1314596454235219,0.0,0.0,-0.2803966393779937,-0.4782202249116615,-0.45320491392534257,-1.157044677341419,-0.3003736756995737,-0.11735577155461288
12964,8.0,298.83091,4082.6027,0.0,0.0,0.0,-0.13146978656719416,0.0,0.0,-0.2597709102098928,-0.4680855859539505,-0.5131527921792375,-1.1414629173036188,-0.2845999858278317,-0.14327542852018385
12965,8.0,299.8184,4286.4711,0.0,0.0,0.0,-0.13147992771086645,0.0,0.0,-0.27208058169976274,-0.47304661043106555,-0.5578529992183044,-1.1448410931370188,-0.25784956510527074,-0.12831143693585287
12966,8.0,299.56971,4157.424,0.0,0.0,0.0,-0.1314900688545387,0.0,0.0,-0.2158729743350038,-0.5019501673511245,-0.5459299637015925,-1.1359318889827488,-0.28682120229954877,-0.14058027444669285
12967,8.0,299.46276,4208.0398,0.0,0.0,0.0,-0.13150020999821097,0.0,0.0,-0.2390906985839148,-0.46744899131362355,-0.5725993446811555,-1.162142135944499,-0.28218930171991574,-0.09119348475984623
12968,8.0,299.41265,4153.3538,0.0,0.0,0.0,-0.1315103511418832,0.0,0.0,-0.27400289952448076,-0.4619761843434996,-0.5265367722201335,-1.1498295260293387,-0.27552459852466077,-0.07235200795783722
12969,8.0,300.09978,3842.4156,0.0,0.0,0.0,-0.13152049228555548,0.0,0.0,-0.24872671716741573,-0.4415273382453556,-0.47774433173719455,-1.148273376525759,-0.2987382697731717,-0.09509035345193721
12970,8.0,300.19157,3839.3868,0.0,0.0,0.0,-0.13153063342922774,0.0,0.0,-0.22541736471196178,-0.43639599655893163,-0.5052643463082085,-1.138445965130869,-0.30653417551256773,-0.07262398150992892
12971,8.0,300.33152,4112.4379,0.0,0.0,0.0,-0.1315407745729,0.0,0.0,-0.2333327731681518,-0.4992365113308075,-0.5175091596591775,-1.1567514427624788,-0.29499815087155074,-0.10395686633974391
12972,8.0,299.68032999999997,4161.0646,0.0,0.0,0.0,-0.13155091571657226,0.0,0.0,-0.21967496228773079,-0.47859081100323553,-0.5665939633259705,-1.103214651203809,-0.2949759708268617,-0.1158344575894709
12973,8.0,300.55619,4147.1422,0.0,0.0,0.0,-0.13156105686024452,0.0,0.0,-0.25819901479975876,-0.47693507927982753,-0.5254935907121795,-1.1395490905147387,-0.2959702022224847,-0.14502084300994286
12974,8.0,300.79175,4172.5714,0.0,0.0,0.0,-0.13157119800391678,0.0,0.0,-0.31074016654516673,-0.4512606187059555,-0.5063567413735195,-1.117513636615009,-0.3044114266855687,-0.1094347699578709
12975,8.0,300.42431,4060.462,0.0,0.0,0.0,-0.13158133914758904,0.0,0.0,-0.30301712362046174,-0.43867836267418353,-0.4925835922342155,-1.161864302767079,-0.28702423735458676,-0.1032079427933309
12976,8.0,299.85032,4044.7124,0.0,0.0,0.0,-0.13159148029126133,0.0,0.0,-0.26831614479574173,-0.4531353441734766,-0.5080400942946535,-1.150034405199559,-0.2643446299687838,-0.1054462831917379
12977,8.0,299.15519,4356.7606,0.0,0.0,0.0,-0.13160162143493356,0.0,0.0,-0.27888643063394775,-0.4722494257823896,-0.5732105675389785,-1.155669798280729,-0.27314128230194573,-0.09796477173312021
12978,8.0,299.9703,4392.0299,0.0,0.0,0.0,-0.13161176257860582,0.0,0.0,-0.2471576284600588,-0.47709902314600755,-0.6108107791398305,-1.146675379793049,-0.29396791869987476,-0.07400645184036814
12979,8.0,300.54193,4031.9762,0.0,0.0,0.0,-0.13162190372227808,0.0,0.0,-0.23673110254604077,-0.47430450976771055,-0.5145844841730345,-1.142415473722629,-0.2977754187331457,-0.09499108331314
12980,8.0,300.23668,3917.3598,0.0,0.0,0.0,-0.13163204486595037,0.0,0.0,-0.24871769924152576,-0.43744187331215156,-0.5046199800396145,-1.154488956614189,-0.3181481900137817,-0.06300743658009984
12981,8.0,300.51529,4184.3771,0.0,0.0,0.0,-0.1316421860096226,0.0,0.0,-0.2904366306438637,-0.49285675432867454,-0.48865276953127357,-1.125795841607399,-0.3088050513716857,-0.11284325210176191
12982,8.0,300.19293999999996,4091.6645,0.0,0.0,0.0,-0.1316523271532949,0.0,0.0,-0.24679480386425076,-0.48236671789838853,-0.5146023173747946,-1.143388295143639,-0.3101177675387407,-0.1210474571014539
12983,8.0,299.28356,4029.4354,0.0,0.0,0.0,-0.13166246829696712,0.0,0.0,-0.24709906260427877,-0.45860875909366056,-0.5191399350326226,-1.104976287827669,-0.3066925465031977,-0.14631586783025186
12984,8.0,300.4287,4072.4819,0.0,0.0,0.0,-0.1316726094406394,0.0,0.0,-0.1936286287946578,-0.48167610689523055,-0.5626280720370674,-1.1306532612617888,-0.28737806428950674,-0.14205574897731085
12985,8.0,301.0211,3938.0409999999997,0.0,0.0,0.0,-0.13168275058431164,0.0,0.0,-0.25430405101785575,-0.4482996283362286,-0.49446246189464554,-1.1360277424422092,-0.29164844736596074,-0.13317813796115888
12986,8.0,300.80129,3974.6052,0.0,0.0,0.0,-0.13169289172798393,0.0,0.0,-0.26023882910607277,-0.43931743977725557,-0.5086244558923255,-1.1473403758336789,-0.2897059253342487,-0.08062520920983862
12987,8.0,300.46947,4181.5519,0.0,0.0,0.0,-0.1317030328716562,0.0,0.0,-0.32371383095806766,-0.4560820679817956,-0.49129145517669154,-1.110244073772559,-0.3055281093557767,-0.09296135591157151
12988,8.0,300.0144,4298.3328,0.0,0.0,0.0,-0.13171317401532845,0.0,0.0,-0.25815248635516674,-0.48263821826268355,-0.5657951473446334,-1.140592434142709,-0.28750101205664075,-0.07227071388906414
12989,8.0,299.90549,4125.1984,0.0,0.0,0.0,-0.1317233151590007,0.0,0.0,-0.23924638446177976,-0.4930624846289785,-0.5216484281726915,-1.1227438309811888,-0.2996476414729197,-0.12872168163634087
12990,8.0,300.19115,4366.0022,0.0,0.0,0.0,-0.13173345630267297,0.0,0.0,-0.2057545777763958,-0.5123199309945405,-0.6090811206891265,-1.178411284850139,-0.27470171785344877,-0.08212126690298802
12991,8.0,298.58608,4076.4836,0.0,0.0,0.0,-0.13174359744634523,0.0,0.0,-0.2687238057084747,-0.4750716312859196,-0.49535378761011256,-1.150030352199159,-0.2791956137694617,-0.12043038779055389
12992,8.0,298.22096,3915.8805,0.0,0.0,0.0,-0.1317537385900175,0.0,0.0,-0.2317767553870848,-0.4763017878348265,-0.4822513391095016,-1.1725521661468887,-0.2846273537130327,-0.10617187158834791
12993,8.0,300.17245,4124.1546,0.0,0.0,0.0,-0.13176387973368975,0.0,0.0,-0.3025676053460977,-0.47607105052205456,-0.47500134212648254,-1.1234196687978888,-0.3034987213929917,-0.13035900260543187
12994,8.0,300.96243,4167.3694,0.0,0.0,0.0,-0.131774020877362,0.0,0.0,-0.24931580051055377,-0.4685466046169495,-0.5489138332585775,-1.1464889417746489,-0.3101574058826527,-0.1067193711473819
12995,8.0,300.94402,4096.9849,0.0,0.0,0.0,-0.13178416202103427,0.0,0.0,-0.22867790220875178,-0.4780119310886045,-0.5386912745896895,-1.0824502182295188,-0.3289631352211337,-0.13540305279574089
12996,8.0,300.40286000000003,4158.2031,0.0,0.0,0.0,-0.13179430316470653,0.0,0.0,-0.24057125963003476,-0.4545969473102256,-0.5688216848633295,-1.112832927778059,-0.3167019072185447,-0.09315752619718201
12997,8.0,300.12817,4264.6089,0.0,0.0,0.0,-0.1318044443083788,0.0,0.0,-0.3022626069334967,-0.47309941089377655,-0.5209726106209935,-1.099377979700159,-0.3009885563902577,-0.11530858078757089
12998,8.0,300.19116,4232.0346,0.0,0.0,0.0,-0.13181458545205105,0.0,0.0,-0.2986065675251737,-0.4654093087298225,-0.5224169581085395,-1.149735091120019,-0.2694241033825887,-0.06738815043344264
12999,8.0,299.70047,4221.4233,0.0,0.0,0.0,-0.1318247265957233,0.0,0.0,-0.2863441540199677,-0.4926746226231995,-0.5041885178820326,-1.155248286239129,-0.28842928087075376,-0.09222143306579682
13000,8.0,299.36357000000004,4284.0436,0.0,0.0,0.0,-0.13183486773939557,0.0,0.0,-0.2601131354311677,-0.4872233370851996,-0.5549057991824385,-1.1597564385840489,-0.26647334683887175,-0.11091775267172989
13001,8.0,299.47154,4055.9711,0.0,0.0,0.0,-0.13184500888306783,0.0,0.0,-0.22318942025958077,-0.4678153521522806,-0.5419091643897704,-1.167004115224339,-0.2867512272476427,-0.13173802585903088
13002,8.0,299.51061,3793.1463,0.0,0.0,0.0,-0.13185515002674011,0.0,0.0,-0.19209332184563482,-0.4452345974462336,-0.5156938309125185,-1.1685579342526888,-0.26543055036595575,-0.14189878640431985
13003,8.0,299.95412999999996,3897.7211,0.0,0.0,0.0,-0.13186529117041235,0.0,0.0,-0.24611929028758275,-0.45875491028808457,-0.4799356877284645,-1.163489353277459,-0.3091119040319697,-0.09967765684166881
13004,8.0,299.28104,4027.5301,0.0,0.0,0.0,-0.1318754323140846,0.0,0.0,-0.26413040863264176,-0.4524424736225956,-0.5076956905856634,-1.1293644071345887,-0.27214191372831575,-0.11604137339239189
13005,8.0,299.26416,4083.7718,0.0,0.0,0.0,-0.13188557345775687,0.0,0.0,-0.2746775011760587,-0.4602015781183595,-0.5064855659912335,-1.115670433358099,-0.2984960219392637,-0.09372108678355111
13006,8.0,301.40849,4325.1185,0.0,0.0,0.0,-0.13189571460142915,0.0,0.0,-0.28415116669603674,-0.4602107176342615,-0.5703661515932565,-1.085227334103599,-0.29522185622862873,-0.11253134332347889
13007,8.0,300.17233999999996,4152.11,0.0,0.0,0.0,-0.1319058557451014,0.0,0.0,-0.22491174277956077,-0.4839997629520575,-0.5532262459491796,-1.1246303000173687,-0.3315862168150117,-0.0946795707156461
13008,8.0,299.94437,3989.9608,0.0,0.0,0.0,-0.13191599688877365,0.0,0.0,-0.24106620190638176,-0.4591723895942866,-0.5126098725106555,-1.1412669547342789,-0.2918531846811667,-0.13223111388769487
13009,8.0,300.61787000000004,4273.8534,0.0,0.0,0.0,-0.1319261380324459,0.0,0.0,-0.3041159933539117,-0.45610659876671655,-0.5389221233599725,-1.1610530947370188,-0.30763770619647773,-0.08394102355258402
13010,8.0,299.52317999999997,4193.5723,0.0,0.0,0.0,-0.1319362791761182,0.0,0.0,-0.2897769440337577,-0.4984931403949426,-0.48647117113846655,-1.1478106252050888,-0.27727629516503977,-0.09396607343247941
13011,8.0,299.60816,3912.1457,0.0,0.0,0.0,-0.13194642031979045,0.0,0.0,-0.24914369998106878,-0.4534909442960716,-0.48655997237723053,-1.166756274249879,-0.2983004140074587,-0.09701611328724491
13012,8.0,300.29623,4037.4053,0.0,0.0,0.0,-0.1319565614634627,0.0,0.0,-0.23980884972479077,-0.4767941463234186,-0.5106673808764465,-1.1402491450088288,-0.2814607445005127,-0.1081120428798279
13013,8.0,299.42939,4303.1891,0.0,0.0,0.0,-0.13196670260713494,0.0,0.0,-0.24068407489616878,-0.5032308952125225,-0.5641470757919814,-1.1254849764767187,-0.2924297442530687,-0.12178305640905188
13014,8.0,299.39646,4146.7221,0.0,0.0,0.0,-0.13197684375080723,0.0,0.0,-0.2691446287400068,-0.4335907832595786,-0.5577645526170755,-1.1374303845556388,-0.2878255256661677,-0.1017423778486909
13015,8.0,299.32132,4278.0926,0.0,0.0,0.0,-0.1319869848944795,0.0,0.0,-0.28027910236639375,-0.4912804107506015,-0.5288738133107815,-1.126166792469009,-0.3165034824514617,-0.09294252668496321
13016,8.0,299.00307000000004,4179.4427,0.0,0.0,0.0,-0.13199712603815175,0.0,0.0,-0.28045390827364575,-0.44484835664061456,-0.5451439552015194,-1.135918716731449,-0.2790274041203607,-0.09489832938573592
13017,8.0,299.37563,4039.5968,0.0,0.0,0.0,-0.13200726718182404,0.0,0.0,-0.28229591589543773,-0.4343507208345786,-0.5112899420028885,-1.115477409214049,-0.2857459311609277,-0.08674803739736472
13018,8.0,300.03638,4139.7693,0.0,0.0,0.0,-0.13201740832549627,0.0,0.0,-0.2320665550481858,-0.48611548995586357,-0.5402044420240275,-1.136959729884189,-0.3028639303378427,-0.12643262807042888
13019,8.0,300.44954,4167.1433,0.0,0.0,0.0,-0.13202754946916853,0.0,0.0,-0.28006583348534575,-0.4564560383287035,-0.5301856479502495,-1.133955949962739,-0.3183643162601117,-0.1041855467548129
13020,8.0,300.25505,4012.1245,0.0,0.0,0.0,-0.1320376906128408,0.0,0.0,-0.2196897253416878,-0.4861997011716745,-0.5136962387378715,-1.156738473161199,-0.3198551719272477,-0.14693317018867486
13021,8.0,300.21626000000003,4002.607,0.0,0.0,0.0,-0.13204783175651308,0.0,0.0,-0.27733154769299273,-0.47446830164637555,-0.4648927436963416,-1.118219365309659,-0.2841602859469367,-0.10825196258613691
13022,8.0,300.65783999999996,4264.9154,0.0,0.0,0.0,-0.13205797290018534,0.0,0.0,-0.26631748870848976,-0.4857868828159326,-0.5443234050055374,-1.1790899597671187,-0.28032687710860876,-0.11412943124869789
13023,8.0,299.46876000000003,4187.3241,0.0,0.0,0.0,-0.13206811404385757,0.0,0.0,-0.2947369552607727,-0.4654550367068356,-0.5126499870821145,-1.150108777756899,-0.2751566266183447,-0.09089376234051591
13024,8.0,299.33733,3964.8661,0.0,0.0,0.0,-0.13207825518752983,0.0,0.0,-0.19608833394241182,-0.4672003296065826,-0.5419316382769885,-1.1801029058920887,-0.2824289961635717,-0.11959443619305189
13025,8.0,298.88079,4020.4711,0.0,0.0,0.0,-0.1320883963312021,0.0,0.0,-0.26129205192251775,-0.42889800661393757,-0.5319327849651785,-1.126540175130859,-0.28900245618732173,-0.09859982015379459
13026,8.0,299.2268,4274.9335,0.0,0.0,0.0,-0.13209853747487438,0.0,0.0,-0.27457599378104075,-0.4819976415494635,-0.5428994035799994,-1.153991653465109,-0.2991466399609747,-0.10964473564359291
13027,8.0,299.06892999999997,4151.6737,0.0,0.0,0.0,-0.13210867861854664,0.0,0.0,-0.3102391852982237,-0.4165038705957316,-0.5352620714812535,-1.1128324211530092,-0.27667132406033373,-0.0951900410497756
13028,8.0,300.14931,4158.0997,0.0,0.0,0.0,-0.13211881976221887,0.0,0.0,-0.27259301267283575,-0.46038434817139756,-0.5309811303387575,-1.120008157036199,-0.27018738468291875,-0.11376851156307789
13029,8.0,300.79089,4126.7821,0.0,0.0,0.0,-0.13212896090589113,0.0,0.0,-0.2949779263995547,-0.44824747635358153,-0.5112132997653246,-1.143307944410709,-0.2848236405224047,-0.1005755028215293
13030,8.0,300.95673999999997,4109.0078,0.0,0.0,0.0,-0.13213910204956342,0.0,0.0,-0.21564656360015877,-0.4781686910115755,-0.5552205247959995,-1.180919990772729,-0.3057643080865877,-0.10110934174271509
13031,8.0,299.79072,4265.3198,0.0,0.0,0.0,-0.13214924319323568,0.0,0.0,-0.2687307160741568,-0.5127226269817835,-0.5150973609761516,-1.182323342161229,-0.3191633956864747,-0.1283158952362929
13032,8.0,300.50136000000003,4318.119000000001,0.0,0.0,0.0,-0.13215938433690794,0.0,0.0,-0.26198372683828075,-0.49682536112784553,-0.5537912646024425,-1.1631563992945988,-0.3024061844726667,-0.10563918574577591
13033,8.0,300.52155,3996.7482,0.0,0.0,0.0,-0.13216952548058017,0.0,0.0,-0.2518381042494858,-0.48129262212988355,-0.48178092761807556,-1.1599199771501887,-0.3135309410305947,-0.1143180984173179
13034,8.0,299.74073,3788.2585,0.0,0.0,0.0,-0.13217966662425246,0.0,0.0,-0.2106543107549618,-0.4454465794996546,-0.49543510093063753,-1.156116134949779,-0.2919051846762987,-0.1071497085973529
13035,8.0,299.33279,4062.4578,0.0,0.0,0.0,-0.13218980776792472,0.0,0.0,-0.25930230230364476,-0.42916975015825665,-0.5464136690343305,-1.148149861338569,-0.26556736952695875,-0.08380925949632992
13036,8.0,298.93847,4184.1071,0.0,0.0,0.0,-0.13219994891159698,0.0,0.0,-0.21101267705032978,-0.4890422730022145,-0.5718091413256684,-1.108604635110759,-0.27078393567929376,-0.1283685234464869
13037,8.0,299.78621,4125.2474,0.0,0.0,0.0,-0.13221009005526926,0.0,0.0,-0.27783075575226074,-0.4340369071461076,-0.5421045291415515,-1.135426581157879,-0.2781954953907577,-0.11322996913492789
13038,8.0,301.19051,4182.9618,0.0,0.0,0.0,-0.1322202311989415,0.0,0.0,-0.26461290819776073,-0.4790235295909415,-0.5278794907226495,-1.1159545486861389,-0.3140466650664927,-0.13457520719903887
13039,8.0,301.96685,4321.8526,0.0,0.0,0.0,-0.13223037234261376,0.0,0.0,-0.3061374171709107,-0.48752081718205853,-0.5200770495201086,-1.1624017306201189,-0.3180871011652527,-0.11217992792379688
13040,8.0,301.25321,4278.486,0.0,0.0,0.0,-0.13224051348628602,0.0,0.0,-0.27920453037034176,-0.48259486129090456,-0.5387534982783305,-1.1621152848168488,-0.3098848517382537,-0.12654695307921188
13041,8.0,300.77655,4219.3174,0.0,0.0,0.0,-0.1322506546299583,0.0,0.0,-0.2562793415578018,-0.5007714129797904,-0.5255163787069285,-1.1905227646204488,-0.3171866764638877,-0.1030346871587319
13042,8.0,301.21637999999996,4152.8109,0.0,0.0,0.0,-0.13226079577363056,0.0,0.0,-0.21844317440616282,-0.4907629439245315,-0.5531446995811314,-1.134682551609449,-0.29298614014798074,-0.12303684195029088
13043,8.0,300.46929,4050.6368,0.0,0.0,0.0,-0.1322709369173028,0.0,0.0,-0.24744880614129577,-0.4655242822186696,-0.5183193645716384,-1.175554122218159,-0.27154981089987973,-0.11060612760347491
13044,8.0,299.80902000000003,4286.8808,0.0,0.0,0.0,-0.13228107806097505,0.0,0.0,-0.27857938545614475,-0.5004023264983646,-0.5241230078319135,-1.0840824628156092,-0.2700706684038997,-0.14224988769647084
13045,8.0,299.66309,4436.7636,0.0,0.0,0.0,-0.13229121920464734,0.0,0.0,-0.33356175053498166,-0.4643228209125946,-0.5507807567003284,-1.150956969415609,-0.3096263513727417,-0.08122923292570113
13046,8.0,299.60369,4161.9692,0.0,0.0,0.0,-0.1323013603483196,0.0,0.0,-0.27400091355428474,-0.45828164143137656,-0.5328521574434135,-1.115560799697279,-0.3177386748533657,-0.1144490711252439
13047,8.0,299.81723,4088.1963,0.0,0.0,0.0,-0.13231150149199186,0.0,0.0,-0.2206991554888108,-0.4757012547655586,-0.5463091928165194,-1.1838874963405988,-0.32442779737603067,-0.08616063706264282
13048,8.0,301.759,4255.8254,0.0,0.0,0.0,-0.1323216426356641,0.0,0.0,-0.24481800358165576,-0.46471038907584455,-0.5841362711147614,-1.154283874793949,-0.3012059998617177,-0.1123832264238609
13049,8.0,300.66429,4338.2444,0.0,0.0,0.0,-0.13233178377933638,0.0,0.0,-0.2677177699491868,-0.5140265684029726,-0.5369736231526705,-1.1794481436774689,-0.2912619127178127,-0.11630737180864388
13050,8.0,300.97758999999996,4023.6964,0.0,0.0,0.0,-0.13234192492300864,0.0,0.0,-0.24550530125698675,-0.45486697846187557,-0.5227309643145295,-1.1410322860111188,-0.29311870365856374,-0.13315747779161988
13051,8.0,302.5012,4136.4586,0.0,0.0,0.0,-0.1323520660666809,0.0,0.0,-0.2856949342833947,-0.4933539561527446,-0.47833123659261756,-1.1390835020937888,-0.25197350486034875,-0.1069850858536059
13052,8.0,302.50672000000003,4042.5751,0.0,0.0,0.0,-0.13236220721035316,0.0,0.0,-0.24763085678676278,-0.4716925637924315,-0.5095184565880565,-1.134916308407519,-0.3073744334229947,-0.1261721113372179
13053,8.0,301.14215,4092.6453,0.0,0.0,0.0,-0.13237234835402542,0.0,0.0,-0.24146822914855878,-0.45953220483729756,-0.5430615438610015,-1.143097188389909,-0.28384332105065474,-0.1092979102668639
13054,8.0,300.39186,4304.0692,0.0,0.0,0.0,-0.13238248949769768,0.0,0.0,-0.23809735884837974,-0.5030658570362345,-0.5671663483074605,-1.1633245988111989,-0.3213755030397927,-0.10966114016271189
13055,8.0,300.9206,4343.5349,0.0,0.0,0.0,-0.13239263064136994,0.0,0.0,-0.29136048168754075,-0.4836435447469015,-0.5453221352316044,-1.1498437115307387,-0.2815140819857767,-0.1112278578648349
13056,8.0,300.02211,4213.1542,0.0,0.0,0.0,-0.1324027717850422,0.0,0.0,-0.2639013634475368,-0.4878422302462795,-0.5289500705133074,-1.176696764355929,-0.3016428829073347,-0.11710562036992489
13057,8.0,300.96756,4159.0613,0.0,0.0,0.0,-0.1324129129287145,0.0,0.0,-0.3143184896708197,-0.45858391420120853,-0.49134837956730953,-1.1443073129843389,-0.26382437670493875,-0.08556118006498101
13058,8.0,299.44574,4164.3406,0.0,0.0,0.0,-0.13242305407238672,0.0,0.0,-0.2336127037732788,-0.4786957735810945,-0.5535470814608434,-1.1454423557463589,-0.3009267785316607,-0.09872359068000981
13059,8.0,299.80247,4056.6667,0.0,0.0,0.0,-0.13243319521605898,0.0,0.0,-0.22375816767321177,-0.4698826660663086,-0.5394845480929795,-1.115105343777329,-0.2807485918002287,-0.12039596768465688
13060,8.0,299.97012,3997.8362,0.0,0.0,0.0,-0.13244333635973124,0.0,0.0,-0.2094949499905418,-0.45841578561211554,-0.5473316432274274,-1.127766207751859,-0.32734451884888865,-0.1083319384165299
13061,8.0,300.147,4032.0656,0.0,0.0,0.0,-0.13245347750340353,0.0,0.0,-0.26197909628532373,-0.45358527788038155,-0.5100828774237606,-1.1497003366415888,-0.3124229621787457,-0.11310506579510089
13062,8.0,299.59988,4108.9305,0.0,0.0,0.0,-0.1324636186470758,0.0,0.0,-0.26148845018940076,-0.4645031186353885,-0.5230206829156224,-1.159927880500969,-0.31863814709963667,-0.1115346699951149
13063,8.0,299.55786,4289.5779,0.0,0.0,0.0,-0.13247375979074802,0.0,0.0,-0.3003346554382227,-0.4848127340372915,-0.5187771813643215,-1.1744759227867487,-0.2822342596268527,-0.09615945592394941
13064,8.0,299.80879,4259.4209,0.0,0.0,0.0,-0.13248390093442028,0.0,0.0,-0.23942232520914378,-0.4845874784075605,-0.5707478023759225,-1.1801120251429889,-0.2948005671020507,-0.08544171585169082
13065,8.0,300.48609,4268.7427,0.0,0.0,0.0,-0.13249404207809257,0.0,0.0,-0.24970052144102275,-0.4922096522848105,-0.5556810267014475,-1.1556920897829288,-0.2878063752392777,-0.1029366754765589
13066,8.0,301.16442,4346.4344,0.0,0.0,0.0,-0.13250418322176483,0.0,0.0,-0.25655675930268074,-0.48895532601113356,-0.5756954316867154,-1.1360937050237188,-0.3017285430707887,-0.1028398695620049
13067,8.0,301.23208,4296.4177,0.0,0.0,0.0,-0.1325143243654371,0.0,0.0,-0.30110094609134974,-0.49059642640309753,-0.5143063166230816,-1.1379400493559388,-0.2648732020159497,-0.13430385882225887
13068,8.0,301.19836000000004,4123.9037,0.0,0.0,0.0,-0.13252446550910932,0.0,0.0,-0.2848255960950977,-0.4533669022188295,-0.5153712424781814,-1.1235448051852388,-0.2873944181461207,-0.11382886073903388
13069,8.0,299.87805,4057.2987,0.0,0.0,0.0,-0.1325346066527816,0.0,0.0,-0.28225735159663173,-0.4613797144071326,-0.4896804483126975,-1.1579458619803589,-0.26522194243536773,-0.1126884680164859
13070,8.0,300.08425,4173.0565,0.0,0.0,0.0,-0.13254474779645387,0.0,0.0,-0.23352050814667974,-0.46914754298625755,-0.5658369337787574,-1.140774819160709,-0.3089688027203467,-0.09699211952487691
13071,8.0,300.20277000000004,4329.5085,0.0,0.0,0.0,-0.13255488894012613,0.0,0.0,-0.25759224010987475,-0.4869599933842095,-0.5715102426786693,-1.172579321249569,-0.3106637066926207,-0.10876491031676089
13072,8.0,299.95706,4246.9746,0.0,0.0,0.0,-0.1325650300837984,0.0,0.0,-0.25512490518886777,-0.48677261304321656,-0.5490767132121525,-1.1369863783618188,-0.33710971668763867,-0.11796039815428488
13073,8.0,299.40067,4176.918,0.0,0.0,0.0,-0.13257517122747065,0.0,0.0,-0.2913356367950887,-0.45447383742307557,-0.5238693102718756,-1.156355059323359,-0.3057569113608577,-0.07490135432868814
13074,8.0,300.18302,4207.413,0.0,0.0,0.0,-0.1325853123711429,0.0,0.0,-0.2959630790742817,-0.4756276421457935,-0.5073577615448126,-1.093977964617219,-0.27713782440637375,-0.1014800676628029
13075,8.0,300.35849,4212.8812,0.0,0.0,0.0,-0.13259545351481516,0.0,0.0,-0.2861271766435537,-0.46610442869592555,-0.5283790838169555,-1.159345363018479,-0.24821764005217375,-0.0935014779966274
13076,8.0,300.68995,4270.6041,0.0,0.0,0.0,-0.13260559465848745,0.0,0.0,-0.25717126509082777,-0.47666033651521256,-0.5643254078095815,-1.141989503380589,-0.27201274460556774,-0.13282150432346188
13077,8.0,301.26847000000004,4200.2827,0.0,0.0,0.0,-0.1326157358021597,0.0,0.0,-0.24061643031949279,-0.4885514343887725,-0.5476131849002135,-1.208761063770429,-0.28185333838425874,-0.1091541908726799
13078,8.0,300.98278999999997,4045.5357,0.0,0.0,0.0,-0.13262587694583194,0.0,0.0,-0.24381850328551277,-0.46847582909746455,-0.5174475135230935,-1.1388122550420188,-0.2972143314902707,-0.13870156690627886
13079,8.0,299.40349,4116.6535,0.0,0.0,0.0,-0.1326360180895042,0.0,0.0,-0.28080503996329975,-0.4735237195056526,-0.4970311015606505,-1.1677595944988988,-0.3042527010574037,-0.1096625485803509
13080,8.0,299.78735,4188.4202,0.0,0.0,0.0,-0.1326461592331765,0.0,0.0,-0.29292964132240473,-0.47556416202702856,-0.5046813627306725,-1.1157949617953888,-0.3224552527438557,-0.1107718041273259
13081,8.0,300.19145,4112.405,0.0,0.0,0.0,-0.13265630037684875,0.0,0.0,-0.24105902809567376,-0.45668135475344057,-0.5523280503980345,-1.1455034547273888,-0.2990796438643627,-0.07154279400397404
13082,8.0,300.62685,4066.9957,0.0,0.0,0.0,-0.132666441520521,0.0,0.0,-0.2184451299788558,-0.4781754291247406,-0.5396445605487715,-1.1092155235960488,-0.29420983216124974,-0.08967152130139011
13083,8.0,300.04124,4290.3118,0.0,0.0,0.0,-0.13267658266419324,0.0,0.0,-0.25943786503452376,-0.4803041561273296,-0.5644056268199984,-1.1310109385470888,-0.29196588848978977,-0.09401878270268141
13084,8.0,298.58698,4220.5194,0.0,0.0,0.0,-0.13268672380786553,0.0,0.0,-0.28074875392024473,-0.4716258615383485,-0.5305578856394865,-1.158294926639809,-0.30357037844006374,-0.11686891501406389
13085,8.0,298.93702,4154.9888,0.0,0.0,0.0,-0.1326968649515378,0.0,0.0,-0.30494699015842475,-0.4690125071454305,-0.4890533579583085,-1.1554961272135889,-0.2849057036480037,-0.11427483263804789
13086,8.0,300.28819,4282.2773,0.0,0.0,0.0,-0.13270700609521002,0.0,0.0,-0.3108169911677487,-0.4652212799087655,-0.5256670895268025,-1.1420374301103189,-0.29967546532066575,-0.11340140091934689
13087,8.0,300.39471000000003,4236.4258,0.0,0.0,0.0,-0.1327171472388823,0.0,0.0,-0.23867337126522778,-0.5071409868184186,-0.5419533116966275,-1.148311576054529,-0.2817870110327127,-0.12121687251817387
13088,8.0,300.70813,4079.3539,0.0,0.0,0.0,-0.13272728838255454,0.0,0.0,-0.2149289393493348,-0.49000655272488153,-0.5350862320588995,-1.146201381396269,-0.3104750496565017,-0.1273862787995469
13089,8.0,299.79464,4067.2431,0.0,0.0,0.0,-0.13273742952622683,0.0,0.0,-0.22715025543048478,-0.4392639300394746,-0.5699261578698325,-1.1390587787913489,-0.28480586811565073,-0.1013156060258218
13090,8.0,300.47224,4057.6984,0.0,0.0,0.0,-0.1327475706698991,0.0,0.0,-0.25558679524695277,-0.47060148595225054,-0.5072507116717475,-1.1270849997096288,-0.2848977901647227,-0.11734118075317287
13091,8.0,301.15046,4064.1682,0.0,0.0,0.0,-0.13275771181357135,0.0,0.0,-0.28572862484921974,-0.4359089576333646,-0.5137680477724585,-1.1057860773075887,-0.28268630089396574,-0.08562049775233523
13092,8.0,300.11824,4220.001,0.0,0.0,0.0,-0.1327678529572436,0.0,0.0,-0.2684285040993308,-0.47512249644093957,-0.5392239401672595,-1.1536705545084187,-0.3112536209008407,-0.0983074620361911
13093,8.0,299.28287,4349.1044,0.0,0.0,0.0,-0.13277799410091587,0.0,0.0,-0.25241188751611376,-0.4855050675656195,-0.5841021752488964,-1.121230845931869,-0.28318634995081676,-0.0900388041976381
13094,8.0,299.63817,4461.8814,0.0,0.0,0.0,-0.13278813524458813,0.0,0.0,-0.2774170356039297,-0.4857572249855055,-0.5931262718320055,-1.1605763605649688,-0.2823423835450237,-0.09469667032433371
13095,8.0,299.06382,4314.0289,0.0,0.0,0.0,-0.1327982763882604,0.0,0.0,-0.2717427539839217,-0.5037868452773905,-0.5358274853020555,-1.122038710236599,-0.2817499463440547,-0.12234506570951789
13096,8.0,299.60242,4162.3531,0.0,0.0,0.0,-0.13280841753193265,0.0,0.0,-0.28524974258695773,-0.4873154516517906,-0.4926862040718425,-1.1593421206181589,-0.3131826971037257,-0.12608656263127488
13097,8.0,300.44965,4006.8599,0.0,0.0,0.0,-0.1328185586756049,0.0,0.0,-0.28914168688356273,-0.45528760897588855,-0.47355605231634357,-1.0997871300905389,-0.2821853399120247,-0.13932437121274488
13098,8.0,300.70448,3988.4537,0.0,0.0,0.0,-0.13282869981927717,0.0,0.0,-0.24603638616440074,-0.45969515571837954,-0.5066587810958285,-1.101196358329619,-0.28382586275143173,-0.1119408009001969
13099,8.0,300.61252,4069.1277,0.0,0.0,0.0,-0.13283884096294943,0.0,0.0,-0.2250188129176278,-0.45079815109531357,-0.5610962304033865,-1.103753700257009,-0.2915702345907417,-0.1140879690546059
13100,8.0,301.14696000000004,4038.7076,0.0,0.0,0.0,-0.1328489821066217,0.0,0.0,-0.1936685812461008,-0.4697004938308295,-0.5642971786617955,-1.1576510062012588,-0.3179578205849937,-0.08640185340794901
13101,8.0,299.8644,4055.8755,0.0,0.0,0.0,-0.13285912325029395,0.0,0.0,-0.23001466280067975,-0.46846630454652455,-0.5344038993090585,-1.163681870796459,-0.3046100034401667,-0.1100918018527149
13102,8.0,299.01267,4352.6468,0.0,0.0,0.0,-0.13286926439396624,0.0,0.0,-0.3085960786710617,-0.4792864071968856,-0.5352134658739565,-1.173113709352309,-0.26273351164727876,-0.08697934618319311
13103,8.0,298.98125,4475.5602,0.0,0.0,0.0,-0.13287940553763847,0.0,0.0,-0.31839872623350773,-0.5152127498975395,-0.5268470597982565,-1.148277936151209,-0.3161006547417057,-0.10331666452906091
13104,8.0,299.50853,4392.6322,0.0,0.0,0.0,-0.13288954668131073,0.0,0.0,-0.26494938829096876,-0.5146885449583045,-0.5556125715246915,-1.139276424912829,-0.3131864562615967,-0.10053922340169881
13105,8.0,299.88311,4246.7153,0.0,0.0,0.0,-0.132899687824983,0.0,0.0,-0.24540117967671077,-0.4948652896044015,-0.5506289617028475,-1.122706948677549,-0.3150330133763377,-0.09751182766016811
13106,8.0,300.21122,4032.7028,0.0,0.0,0.0,-0.13290982896865527,0.0,0.0,-0.23085002671312377,-0.4568897093715036,-0.5381012185264554,-1.0877590408034592,-0.2837315494321237,-0.11165487185447788
13107,8.0,299.75809,3946.1388,0.0,0.0,0.0,-0.13291997011232753,0.0,0.0,-0.25906387442261375,-0.4415665712892276,-0.4988972245348225,-1.1354626528614387,-0.30168645266163474,-0.1257197964925779
13108,8.0,300.404,4154.0407,0.0,0.0,0.0,-0.1329301112559998,0.0,0.0,-0.3036009076655767,-0.4615194010659186,-0.4976043478047255,-1.137222972260169,-0.2931797823745917,-0.13405375830007588
13109,8.0,299.93771,4092.4755,0.0,0.0,0.0,-0.13294025239967203,0.0,0.0,-0.25581107815658777,-0.4790868982521956,-0.5091123864779805,-1.148808777878599,-0.28881277576860176,-0.1302233588145449
13110,8.0,300.50295,4021.4706,0.0,0.0,0.0,-0.13295039354334431,0.0,0.0,-0.2209100027021198,-0.4589990427671785,-0.5425175906773174,-1.143489518828629,-0.2565159759861558,-0.1068026907031049
13111,8.0,300.81196,4153.4341,0.0,0.0,0.0,-0.13296053468701657,0.0,0.0,-0.2257978705220148,-0.4696786785561765,-0.5670637263373325,-1.155088901998399,-0.3146376837173217,-0.10722752620503291
13112,8.0,301.07694,4295.5506,0.0,0.0,0.0,-0.13297067583068883,0.0,0.0,-0.25191209177178775,-0.4908567810162925,-0.5629712395809355,-1.1696334992338386,-0.3397723555654207,-0.07570983367622883
13113,8.0,301.12032999999997,4192.1337,0.0,0.0,0.0,-0.13298081697436107,0.0,0.0,-0.24763986458015175,-0.49554516015649946,-0.5311189424848585,-1.1548627445760788,-0.3162979142711737,-0.1136924164805679
13114,8.0,302.0095,4335.1996,0.0,0.0,0.0,-0.13299095811803335,0.0,0.0,-0.3348437449590047,-0.4807873953650215,-0.5021612881419605,-1.1193000978663188,-0.2524235094947607,-0.0960224564044286
13115,8.0,300.40046,4484.6543,0.0,0.0,0.0,-0.1330010992617056,0.0,0.0,-0.2902770032231097,-0.4987818761434385,-0.5741640358830784,-1.127250666100979,-0.2911216687714717,-0.12700075740149888
13116,8.0,300.11400000000003,4159.2562,0.0,0.0,0.0,-0.13301124040537787,0.0,0.0,-0.27548921583116875,-0.4662253398303585,-0.5225954927761595,-1.142374639743599,-0.2911671130384567,-0.11012790395377789
13117,8.0,299.0279,4019.6045,0.0,0.0,0.0,-0.13302138154905013,0.0,0.0,-0.1853166849118328,-0.4758766382253675,-0.5606660652059325,-1.140928630525889,-0.3012854791995617,-0.12399154645951288
13118,8.0,299.55186000000003,4081.8359,0.0,0.0,0.0,-0.1330315226927224,0.0,0.0,-0.24692445934704674,-0.4421954044337886,-0.5516563365092415,-1.142295403585779,-0.25110090400672974,-0.1137405357278169
13119,8.0,299.28256,4206.6019,0.0,0.0,0.0,-0.13304166383639465,0.0,0.0,-0.27920098399499177,-0.48238487534018054,-0.5171160794153835,-1.1408425042673889,-0.3077669259817307,-0.11947009014077989
13120,8.0,300.67102,4336.6873,0.0,0.0,0.0,-0.1330518049800669,0.0,0.0,-0.3179429359410247,-0.48006933541665453,-0.5202323706279376,-1.1550147320910789,-0.31798077069975866,-0.12508609974753687
13121,8.0,300.83792,4313.282999999999,0.0,0.0,0.0,-0.13306194612373917,0.0,0.0,-0.2632252621858107,-0.5101720231675585,-0.5377330237051176,-1.1231952339007387,-0.3056291709207507,-0.10873941694424491
13122,8.0,300.98764,4182.5336,0.0,0.0,0.0,-0.13307208726741146,0.0,0.0,-0.23428281672691378,-0.4777128703215896,-0.5593900996200045,-1.1389561365562189,-0.2846764558128787,-0.100364206738426
13123,8.0,300.82099999999997,4266.6232,0.0,0.0,0.0,-0.1330822284110837,0.0,0.0,-0.23770420767707875,-0.47051040490076157,-0.5887322925083535,-1.1406675159751187,-0.31424723792378767,-0.08979767499184052
13124,8.0,299.82162,4399.701,0.0,0.0,0.0,-0.13309236955475595,0.0,0.0,-0.28910324417476874,-0.4815026688756135,-0.5667933405481475,-1.1913383296259388,-0.3219856417200087,-0.1081160452177229
13125,8.0,298.88362,4134.8592,0.0,0.0,0.0,-0.1331025106984282,0.0,0.0,-0.2787120705567398,-0.46056280177900955,-0.5176190770300255,-1.124775093456659,-0.28442473409053576,-0.08822127771151222
13126,8.0,299.87465,4008.8056,0.0,0.0,0.0,-0.1331126518421005,0.0,0.0,-0.26907880801351075,-0.4580075674118275,-0.4914904270988285,-1.155307966670019,-0.2548602341302468,-0.12202319668275188
13127,8.0,299.80076,4162.2919,0.0,0.0,0.0,-0.13312279298577276,0.0,0.0,-0.27722965526293675,-0.4537721819938276,-0.5342309679144915,-1.1139644241647289,-0.2840047824540897,-0.10714539215192691
13128,8.0,299.60014,4290.977,0.0,0.0,0.0,-0.133132934129445,0.0,0.0,-0.2508354831430348,-0.4726108115630555,-0.5809035777307193,-1.1619384726743989,-0.3008906966955997,-0.0995021143015941
13129,8.0,300.66233,4182.8131,0.0,0.0,0.0,-0.13314307527311725,0.0,0.0,-0.22211139308068778,-0.4700817190484536,-0.5792776254277504,-1.090362890910439,-0.29530569254190275,-0.11582865166639789
13130,8.0,300.79795,4133.9323,0.0,0.0,0.0,-0.13315321641678954,0.0,0.0,-0.23882496361268876,-0.48055831978241353,-0.5372289115153656,-1.142818341962389,-0.28098960346901475,-0.1177552251415359
13131,8.0,300.3322,4265.5273,0.0,0.0,0.0,-0.1331633575604618,0.0,0.0,-0.2965819621028607,-0.49455226625100857,-0.5054795707619495,-1.140630431021459,-0.31597080674139066,-0.10840308883855189
13132,8.0,301.35865,4341.0397,0.0,0.0,0.0,-0.13317349870413406,0.0,0.0,-0.30008579108116173,-0.5132901787602965,-0.5061916930647306,-1.1887695379724188,-0.34318641058486166,-0.09389671342338411
13133,8.0,300.2778,4222.3516,0.0,0.0,0.0,-0.1331836398478063,0.0,0.0,-0.2690362920393148,-0.4907234373031325,-0.5237297148055985,-1.127035553104749,-0.2975381560897297,-0.1161642198345159
13134,8.0,300.00027,4169.6988,0.0,0.0,0.0,-0.13319378099147858,0.0,0.0,-0.23626841202037677,-0.4701540752380946,-0.5610618102974895,-1.1587395407836887,-0.2779987120888367,-0.0965043307942359
13135,8.0,299.55031,4032.5961,0.0,0.0,0.0,-0.13320392213515084,0.0,0.0,-0.2124962170517438,-0.46412983729854856,-0.5491824863900915,-1.1538745217535489,-0.29962129697031975,-0.12078257326031187
13136,8.0,299.96954,4002.259,0.0,0.0,0.0,-0.1332140632788231,0.0,0.0,-0.23950181467948875,-0.4621984711504376,-0.5148865340278445,-1.1655220343030688,-0.31219090764084373,-0.1125232677201819
13137,8.0,300.40642,4185.4509,0.0,0.0,0.0,-0.13322420442249538,0.0,0.0,-0.2990435620283017,-0.4722246416849435,-0.5010043591777805,-1.107184463770599,-0.27101254516685575,-0.14022341789397388
13138,8.0,300.6638,4234.8354,0.0,0.0,0.0,-0.13323434556616762,0.0,0.0,-0.32221866897800666,-0.46083380565075555,-0.5042317633963006,-1.117097089498899,-0.25528548506471577,-0.1080177599580229
13139,8.0,299.8495,4037.2940000000003,0.0,0.0,0.0,-0.13324448670983988,0.0,0.0,-0.23873240321605377,-0.47456877552629156,-0.5139353758939724,-1.1489121293887987,-0.3126087010545767,-0.12030970970364388
13140,8.0,299.33308999999997,4093.6424,0.0,0.0,0.0,-0.13325462785351214,0.0,0.0,-0.24429784151031977,-0.4766140107206405,-0.5234532292508115,-1.1549135084060889,-0.30890365073891674,-0.1003212864774401
13141,8.0,300.2833,4293.9823,0.0,0.0,0.0,-0.13326476899718442,0.0,0.0,-0.2284222794735238,-0.4860190994738506,-0.5908220093820925,-1.1414741643797288,-0.2820969338407997,-0.09529034166392451
13142,8.0,299.55267000000003,4310.3999,0.0,0.0,0.0,-0.13327491014085668,0.0,0.0,-0.2771553333681017,-0.5139023236757105,-0.5191962920031845,-1.1438847876926388,-0.27217824887690173,-0.10452202684802091
13143,8.0,298.71366,4155.584,0.0,0.0,0.0,-0.13328505128452892,0.0,0.0,-0.27610394453433773,-0.4728373134904096,-0.5142525130427715,-1.1798995465970188,-0.3211758421075877,-0.10180674962754391
13144,8.0,298.78529,4076.1808,0.0,0.0,0.0,-0.13329519242820118,0.0,0.0,-0.2928507091396147,-0.45734809358424255,-0.4888583883740665,-1.1553861895777389,-0.3223380602372897,-0.096869122108488
13145,8.0,299.75388,3867.4197,0.0,0.0,0.0,-0.13330533357187346,0.0,0.0,-0.2156904677269918,-0.44424439878600863,-0.5156641426845885,-1.1352371033891788,-0.2949506699718647,-0.11366087400495489
13146,8.0,300.09308,3992.325,0.0,0.0,0.0,-0.13331547471554572,0.0,0.0,-0.23301949650223377,-0.4411742509830086,-0.5393733540270055,-1.1051320243680387,-0.26340991688403476,-0.13659703631607786
13147,8.0,300.01627,4389.7402,0.0,0.0,0.0,-0.13332561585921798,0.0,0.0,-0.23991671019793576,-0.5129011312519005,-0.5815535574048674,-1.158806212640269,-0.3090196476103647,-0.13009716864709087
13148,8.0,299.52723,4428.6736,0.0,0.0,0.0,-0.13333575700289022,0.0,0.0,-0.30950203571797275,-0.5037563261843785,-0.5329478183853544,-1.1518707183557888,-0.2702122397078718,-0.14689867915527086
13149,8.0,300.17618999999996,4298.6985,0.0,0.0,0.0,-0.13334589814656247,0.0,0.0,-0.2818979011236567,-0.5039230767533355,-0.5208760276214616,-1.1490072735731889,-0.26538994943444877,-0.13240585899994087
13150,8.0,300.21488,4284.1228,0.0,0.0,0.0,-0.13335603929023476,0.0,0.0,-0.29251964993444174,-0.4763907511936066,-0.5333559555256345,-1.1354670098368689,-0.26579269608419676,-0.1072020024350139
13151,8.0,300.41476,4352.869000000001,0.0,0.0,0.0,-0.13336618043390702,0.0,0.0,-0.23111473830174878,-0.5027148368040916,-0.5893339198877294,-1.1717052917133088,-0.3032991212557927,-0.07367249372665903
13152,8.0,299.97582,4120.7042,0.0,0.0,0.0,-0.13337632157757928,0.0,0.0,-0.24056572728448875,-0.45723866257344253,-0.5547868030906944,-1.132364235380649,-0.3096806007830957,-0.08257582609659951
13153,8.0,299.58419,4031.6813,0.0,0.0,0.0,-0.13338646272125151,0.0,0.0,-0.2049402388035268,-0.4650484599717095,-0.5555417453427015,-1.132516932170719,-0.28765746800458175,-0.09383275910357232
13154,8.0,299.64142000000004,4227.7044,0.0,0.0,0.0,-0.1333966038649238,0.0,0.0,-0.3051644944248907,-0.45954768729882556,-0.5204043799649135,-1.132123689806909,-0.2897346003120787,-0.10320487264552791
13155,8.0,299.51993999999996,4324.3938,0.0,0.0,0.0,-0.13340674500859606,0.0,0.0,-0.28393840444003876,-0.4993125152208085,-0.5312568154259655,-1.163201894224089,-0.3137763400723137,-0.1075472066115829
13156,8.0,298.61526000000003,4173.6372,0.0,0.0,0.0,-0.13341688615226832,0.0,0.0,-0.28349795475406975,-0.4619460806830285,-0.5232374475095155,-1.161060795437779,-0.3196196318090017,-0.1004830244981524
13157,8.0,299.43377999999996,4282.7563,0.0,0.0,0.0,-0.1334270272959406,0.0,0.0,-0.23963319268745478,-0.47446276930082953,-0.5877550026544025,-1.1334346327862888,-0.29607722169804673,-0.08905212151526011
13158,8.0,299.41773,4199.3592,0.0,0.0,0.0,-0.13343716843961284,0.0,0.0,-0.24481593655145176,-0.4692720410260446,-0.5624123713557795,-1.140908466848899,-0.2965715762893357,-0.11768368968447589
13159,8.0,300.42061,4438.2304,0.0,0.0,0.0,-0.1334473095832851,0.0,0.0,-0.2708413464299597,-0.48377203499208254,-0.5944978375648684,-1.161085822715249,-0.29837391516971273,-0.09390790578398872
13160,8.0,300.2531,4499.9886,0.0,0.0,0.0,-0.13345745072695736,0.0,0.0,-0.3367855982456507,-0.5088991986569404,-0.5221993727820655,-1.176943288105259,-0.27903343295845573,-0.1074883165157709
13161,8.0,299.79756000000003,4197.3256,0.0,0.0,0.0,-0.13346759187062965,0.0,0.0,-0.2903475152975687,-0.47308407028726257,-0.5124505794624344,-1.1539155583825988,-0.25002424471547174,-0.1015748774746599
13162,8.0,299.86354,3887.3042,0.0,0.0,0.0,-0.1334777330143019,0.0,0.0,-0.2318361419754458,-0.4656345035645476,-0.48417276527413156,-1.140754148858669,-0.28280474983065573,-0.11914380334357788
13163,8.0,299.85582999999997,4018.1083,0.0,0.0,0.0,-0.13348787415797414,0.0,0.0,-0.1934907963835548,-0.5043719972101406,-0.5235418075745535,-1.1538931655553888,-0.3069282284764577,-0.1058918801882149
13164,8.0,299.22541,4277.9386,0.0,0.0,0.0,-0.1334980153016464,0.0,0.0,-0.2279542896498368,-0.5069281738999155,-0.5655040507234045,-1.1782461250838387,-0.32763679084023367,-0.1256492236231129
13165,8.0,300.12216,4174.2789,0.0,0.0,0.0,-0.1335081564453187,0.0,0.0,-0.2430053802127638,-0.4892450952747316,-0.5366260885008715,-1.138873455348059,-0.28829567371256776,-0.1288084867724079
13166,8.0,299.68765,3988.6218,0.0,0.0,0.0,-0.13351829758899095,0.0,0.0,-0.26726864684236173,-0.4759917940992326,-0.4691810005045596,-1.163105027514529,-0.3123945911759457,-0.13140067437073685
13167,8.0,299.39889,4117.6418,0.0,0.0,0.0,-0.1335284387326632,0.0,0.0,-0.29695599324477473,-0.4555780469845525,-0.49912623932242456,-1.1541145607022387,-0.2822715674955347,-0.13535882442887587
13168,8.0,299.44504,4344.9582,0.0,0.0,0.0,-0.13353857987633544,0.0,0.0,-0.2880871569744887,-0.4956609341129255,-0.5370106878413284,-1.161908885771479,-0.28440509730359775,-0.10916397886864591
13169,8.0,299.50619,4320.0815,0.0,0.0,0.0,-0.13354872102000773,0.0,0.0,-0.25015590643346575,-0.4706790401149045,-0.5923619570165735,-1.1181296926758089,-0.25667183411653777,-0.1258566764485869
13170,8.0,299.71482000000003,4355.241,0.0,0.0,0.0,-0.13355886216368,0.0,0.0,-0.26994222882122376,-0.48651600745539153,-0.5674262672231125,-1.1247044699246889,-0.31075005586614274,-0.09483540959427622
13171,8.0,300.25858999999997,4175.9024,0.0,0.0,0.0,-0.13356900330735225,0.0,0.0,-0.26366445544165573,-0.4852083676713375,-0.5204972342040775,-1.136124305176739,-0.3309593189781417,-0.11228324903649389
13172,8.0,300.09872,4200.0102,0.0,0.0,0.0,-0.1335791444510245,0.0,0.0,-0.3317666969228237,-0.46984201447229657,-0.47508950501768354,-1.1556869222074189,-0.3161638714154447,-0.07685213434871513
13173,8.0,300.48304,4379.3822,0.0,0.0,0.0,-0.13358928559469677,0.0,0.0,-0.3018230590401167,-0.49138895010131356,-0.5380108366175355,-1.165192120070509,-0.26121651412756275,-0.12211460197427289
13174,8.0,300.42551000000003,4166.3283,0.0,0.0,0.0,-0.13359942673836903,0.0,0.0,-0.24239481596750576,-0.4846084830821335,-0.5394564709327085,-1.151014218046259,-0.2777003200668877,-0.11254888268270989
13175,8.0,300.84309,4025.008,0.0,0.0,0.0,-0.13360956788204129,0.0,0.0,-0.17818436679542782,-0.4752136585524365,-0.5701039022023745,-1.1931449545542387,-0.30599445771430167,-0.1063822628391119
13176,8.0,299.67463,4243.7098,0.0,0.0,0.0,-0.13361970902571355,0.0,0.0,-0.23761473769324878,-0.4700317050235176,-0.5823353609170254,-1.152284327046609,-0.28138650366568574,-0.10124938303903609
13177,8.0,299.34694,4404.6722,0.0,0.0,0.0,-0.13362985016938583,0.0,0.0,-0.2860086061168517,-0.4831799220311455,-0.5697218258546665,-1.145856775037259,-0.26939283448450274,-0.1242996859474239
13178,8.0,299.12436,4250.1435,0.0,0.0,0.0,-0.13363999131305807,0.0,0.0,-0.3151972713500487,-0.4622966753501295,-0.5144435613491265,-1.1137086798394888,-0.3099104464357797,-0.12737993585392088
13179,8.0,299.62978,4024.0462,0.0,0.0,0.0,-0.13365013245673033,0.0,0.0,-0.26677674431631476,-0.4636512387463146,-0.4927815914362565,-1.1659517536704789,-0.35490676568407065,-0.13530926636648488
13180,8.0,299.08211,3964.8471,0.0,0.0,0.0,-0.13366027360040258,0.0,0.0,-0.2302075754872188,-0.46157684221408757,-0.5134301085991065,-1.119668008977629,-0.32224712104081465,-0.10451891617021392
13181,8.0,299.19086,4304.3848,0.0,0.0,0.0,-0.13367041474407487,0.0,0.0,-0.2243575659023678,-0.4944907721024396,-0.5895771607067355,-1.1564274053804988,-0.27399301020350475,-0.08884117297694111
13182,8.0,299.61672000000004,4581.8240000000005,0.0,0.0,0.0,-0.13368055588774713,0.0,0.0,-0.2713887547964847,-0.5303288708518845,-0.5910424824713514,-1.1178697940251592,-0.2892012355919398,-0.1124592708438659
13183,8.0,299.25113999999996,4342.2284,0.0,0.0,0.0,-0.13369069703141936,0.0,0.0,-0.2785822124239237,-0.48403263278530156,-0.5573141528151244,-1.1674333279666989,-0.3183169974804417,-0.08494212073088463
13184,8.0,300.45639,4030.0592,0.0,0.0,0.0,-0.13370083817509162,0.0,0.0,-0.2936371229397277,-0.4596924908706166,-0.4717077524114306,-1.141633447295449,-0.2981000235351817,-0.11914732945392588
13185,8.0,300.05771,4162.1528,0.0,0.0,0.0,-0.1337109793187639,0.0,0.0,-0.2679264386747807,-0.4583097084591466,-0.5389543649781544,-1.1704729769416888,-0.2691193886800157,-0.11223668006189791
13186,8.0,300.47489,4280.7472,0.0,0.0,0.0,-0.13372112046243617,0.0,0.0,-0.26799684942422974,-0.4683212983247136,-0.5649221107934714,-1.150411030261729,-0.29310761870246976,-0.1353849764139569
13187,8.0,300.96289,4190.3687,0.0,0.0,0.0,-0.13373126160610843,0.0,0.0,-0.2172984348406858,-0.4822239002967935,-0.5742451161560805,-1.1813680499669488,-0.3082982338041667,-0.09731263383625922
13188,8.0,300.90038,3985.583,0.0,0.0,0.0,-0.13374140274978066,0.0,0.0,-0.23097827377828078,-0.4430131783244966,-0.5375262497572104,-1.1262712585543189,-0.2948000199469967,-0.10952535451681089
13189,8.0,299.02415,4123.9506,0.0,0.0,0.0,-0.13375154389345295,0.0,0.0,-0.26159367621228574,-0.4592663280110576,-0.5327180132626745,-1.157172245529009,-0.2711592739138367,-0.1066936649923449
13190,8.0,299.87355,4448.2329,0.0,0.0,0.0,-0.1337616850371252,0.0,0.0,-0.3207150868896147,-0.4965400602971885,-0.5348965820376824,-1.148940399066589,-0.3400851053412867,-0.1043974376157249
13191,8.0,298.71046,4520.2546,0.0,0.0,0.0,-0.13377182618079747,0.0,0.0,-0.28846747026702274,-0.5091036421296176,-0.5764734152459964,-1.1738096095209887,-0.3442745905297567,-0.09477984194554209
13192,8.0,299.34455,4452.3577,0.0,0.0,0.0,-0.13378196732446973,0.0,0.0,-0.29810925424359275,-0.4863531173693155,-0.5689432039478225,-1.133520657719779,-0.3164374793399477,-0.08314923547394061
13193,8.0,299.83999,4177.3212,0.0,0.0,0.0,-0.133792108468142,0.0,0.0,-0.21607823854026179,-0.46776181201699657,-0.5859612865323764,-1.1304171739884887,-0.26695278638868875,-0.10308009089571289
13194,8.0,299.92441,3962.0582,0.0,0.0,0.0,-0.13380224961181425,0.0,0.0,-0.23003629569031478,-0.4447125101997076,-0.5296179441842215,-1.1788442466178688,-0.2963353572935227,-0.11309158956877088
13195,8.0,299.38701000000003,4155.403,0.0,0.0,0.0,-0.1338123907554865,0.0,0.0,-0.2451460736990338,-0.49874099150190354,-0.5192516965186526,-1.1775803184431288,-0.2942211096348627,-0.12562977935369388
13196,8.0,299.55447000000004,4198.4074,0.0,0.0,0.0,-0.13382253189915877,0.0,0.0,-0.30982812999765574,-0.47643458439293257,-0.48994829084413155,-1.1701781211625888,-0.2728514117133377,-0.11110851726805689
13197,8.0,299.35597,3984.2452,0.0,0.0,0.0,-0.13383267304283103,0.0,0.0,-0.24484147045397175,-0.4630345342054506,-0.5032350495379325,-1.1402189501558488,-0.27341978422443175,-0.14064152541523786
13198,8.0,300.06937999999997,4108.0063,0.0,0.0,0.0,-0.1338428141865033,0.0,0.0,-0.24400313771873477,-0.5136069714040615,-0.49112122915989154,-1.182844963312709,-0.3199614213327337,-0.13847596677151386
13199,8.0,299.79303,4340.9617,0.0,0.0,0.0,-0.13385295533017555,0.0,0.0,-0.2326853975467608,-0.5033199902938155,-0.5835385751457735,-1.1623364773136788,-0.31737806927527673,-0.1264673724163579
13200,8.0,300.2416,4461.8202,0.0,0.0,0.0,-0.13386309647384784,0.0,0.0,-0.3035681391573427,-0.5019374003998646,-0.5507763997248984,-1.136927407205999,-0.28823157551124173,-0.11640040843282588
13201,8.0,300.42007,4265.3442,0.0,0.0,0.0,-0.13387323761752007,0.0,0.0,-0.29781135871419273,-0.4598230177484986,-0.5389237445601325,-1.114182678236269,-0.25607928545805775,-0.14923813178115686
13202,8.0,300.65586,4087.9689,0.0,0.0,0.0,-0.13388337876119236,0.0,0.0,-0.2617904189842028,-0.4647222947645196,-0.5161277451353425,-1.181907909620229,-0.3115359529087047,-0.1061210266983299
13203,8.0,301.05246,4008.9556,0.0,0.0,0.0,-0.1338935199048646,0.0,0.0,-0.2242174232810368,-0.4735013570759456,-0.5209036386866865,-1.174208931385399,-0.33866960508408767,-0.1011792559996151
13204,8.0,301.01263,4128.6578,0.0,0.0,0.0,-0.13390366104853688,0.0,0.0,-0.24849212950426375,-0.45250317743608653,-0.5540135615418814,-1.1779733581569187,-0.3025762078394467,-0.08118828748916013
13205,8.0,300.48287,4299.5141,0.0,0.0,0.0,-0.1339138021922091,0.0,0.0,-0.2627274929416848,-0.48214644745914953,-0.5620709769995865,-1.1108523278075888,-0.2847120208913887,-0.12315494638194688
13206,8.0,300.97463,4139.1151,0.0,0.0,0.0,-0.1339239433358814,0.0,0.0,-0.27724179399913473,-0.4859545959724845,-0.4949912467243325,-1.1615632661623687,-0.3282454197778007,-0.11362232997115089
13207,8.0,300.1192,4054.1919,0.0,0.0,0.0,-0.13393408447955366,0.0,0.0,-0.2605394705432437,-0.48496812607262757,-0.4868654976798836,-1.1881764826888888,-0.3006134106732337,-0.12557416205570487
13208,8.0,300.19428,4413.8771,0.0,0.0,0.0,-0.1339442256232259,0.0,0.0,-0.3032111610146117,-0.5080262330332855,-0.5304710197084135,-1.1701414415089688,-0.2604353996254728,-0.08780948273837122
13209,8.0,299.85812000000004,4535.2181,0.0,0.0,0.0,-0.13395436676689815,0.0,0.0,-0.2941524720730887,-0.4996069150373635,-0.5848336810260905,-1.162453811675259,-0.24737592306160278,-0.1101740473633319
13210,8.0,300.24089,4291.6326,0.0,0.0,0.0,-0.1339645079105704,0.0,0.0,-0.25591048812389877,-0.4791736831232606,-0.5694649770868175,-1.154388847504309,-0.3174751994298627,-0.10423061611926089
13211,8.0,299.17607999999996,4015.8479,0.0,0.0,0.0,-0.1339746490542427,0.0,0.0,-0.18976565331841183,-0.46601553626465253,-0.5649363165598734,-1.183559507283229,-0.3474798349685897,-0.12082093490909787
13212,8.0,298.97286,4102.6369,0.0,0.0,0.0,-0.13398479019791495,0.0,0.0,-0.2893773688568227,-0.42686147523794754,-0.5308603205293345,-1.1418454192163687,-0.2987734802141467,-0.08071127771308292
13213,8.0,299.39213,4232.0512,0.0,0.0,0.0,-0.13399493134158721,0.0,0.0,-0.2810028567803227,-0.4733138754099426,-0.5321211684237704,-1.160825721414579,-0.3071686625926867,-0.12224703376234289
13214,8.0,299.38007999999996,4180.5172,0.0,0.0,0.0,-0.13400507248525945,0.0,0.0,-0.27049047818533173,-0.47965388261065256,-0.5206284906220315,-1.1398660351460188,-0.3070599408569567,-0.0936946176511888
13215,8.0,299.54755,4029.781,0.0,0.0,0.0,-0.13401521362893173,0.0,0.0,-0.19419011120507182,-0.4786055031296856,-0.5521572062986735,-1.1709300540617988,-0.3190802483832687,-0.10858942553194188
13216,8.0,301.4877,4009.6573,0.0,0.0,0.0,-0.134025354772604,0.0,0.0,-0.1981810905664508,-0.48109802744817853,-0.5395565597775865,-1.105959444399699,-0.26790408637757473,-0.1019506919367499
13217,8.0,301.24432,4322.4121,0.0,0.0,0.0,-0.13403549591627625,0.0,0.0,-0.23743941502844576,-0.5055855972524135,-0.5708803253565015,-1.138610111647069,-0.29081419802862674,-0.15196501071527885
13218,8.0,300.9855,4516.7791,0.0,0.0,0.0,-0.13404563705994849,0.0,0.0,-0.3265608712215487,-0.5187044097421395,-0.5277227915946845,-1.141935497150259,-0.32797754684886365,-0.12393321365125588
13219,8.0,299.94153,4208.2747,0.0,0.0,0.0,-0.13405577820362077,0.0,0.0,-0.26594491664671976,-0.5093698431958895,-0.5038956683381306,-1.164541208206269,-0.3322167724847427,-0.14687220293015785
13220,8.0,299.80548999999996,4084.5519,0.0,0.0,0.0,-0.13406591934729303,0.0,0.0,-0.2513211237834638,-0.46883806600821454,-0.5214425965473775,-1.164884598665159,-0.28546970905116675,-0.1089582485683419
13221,8.0,299.29254,4267.6558,0.0,0.0,0.0,-0.1340760604909653,0.0,0.0,-0.2364458827753918,-0.4808014592764095,-0.5800134577828714,-1.1581446616499789,-0.27315448495074873,-0.1028109210066479
13222,8.0,299.41115,4375.1461,0.0,0.0,0.0,-0.13408620163463758,0.0,0.0,-0.2571077849720627,-0.4659435549775485,-0.6068838371847715,-1.175498798762699,-0.28911761206118675,-0.08933646482457261
13223,8.0,299.31417000000005,4150.7464,0.0,0.0,0.0,-0.1340963427783098,0.0,0.0,-0.24749073443043376,-0.44674783580807853,-0.5674847013563795,-1.133860907103359,-0.3214173502689227,-0.09008220879217181
13224,8.0,299.42439,4043.1711,0.0,0.0,0.0,-0.13410648392198207,0.0,0.0,-0.28961587779786174,-0.45241656481753856,-0.4869906138022316,-1.137094086847449,-0.2835505728317627,-0.1111945422015469
13225,8.0,300.11446,4493.9867,0.0,0.0,0.0,-0.13411662506565433,0.0,0.0,-0.3267283209330747,-0.4944820277540765,-0.5448494135299505,-1.1352308212385591,-0.3107219280433667,-0.09752704262366972
13226,8.0,300.12004,4589.9525,0.0,0.0,0.0,-0.13412676620932662,0.0,0.0,-0.3397637530720717,-0.5327414396049865,-0.5227257562090155,-1.167218822920529,-0.3134719496097727,-0.1104454160051139
13227,8.0,299.34847,4239.03,0.0,0.0,0.0,-0.13413690735299888,0.0,0.0,-0.2312417694667858,-0.49016632200064947,-0.5671511698209625,-1.1756807784806589,-0.3043139925559527,-0.08684331026451741
13228,8.0,299.11405,4144.1233,0.0,0.0,0.0,-0.1341470484966711,0.0,0.0,-0.22942653191263582,-0.46693557748795356,-0.5633478849081075,-1.1563000398429288,-0.24858257220818977,-0.09806822862133059
13229,8.0,299.01254,4004.4433,0.0,0.0,0.0,-0.13415718964034337,0.0,0.0,-0.2099872375516268,-0.46676847228146157,-0.5404950624177095,-1.141472543179569,-0.2690352686567138,-0.13268439131992987
13230,8.0,299.36382000000003,4041.4325,0.0,0.0,0.0,-0.13416733078401566,0.0,0.0,-0.28026106651461374,-0.4726431038437426,-0.47559039507211753,-1.1793856261462987,-0.29582746568089774,-0.13945578975071488
13231,8.0,300.51088,4291.4466,0.0,0.0,0.0,-0.13417747192768792,0.0,0.0,-0.2887250992374487,-0.49441930757288655,-0.5213482123005625,-1.155112004100679,-0.33137228932139867,-0.13157616928805688
13232,8.0,300.58194,4185.8174,0.0,0.0,0.0,-0.13418761307136018,0.0,0.0,-0.28948959643789873,-0.4737949969549255,-0.5090993662141955,-1.1653696414880288,-0.2987896415532417,-0.1113710199714639
13233,8.0,298.92461000000003,4027.8877,0.0,0.0,0.0,-0.1341977542150324,0.0,0.0,-0.1985501263853718,-0.46709529610121653,-0.5587318619575415,-1.115902163655969,-0.3031125312498777,-0.11940830214968189
13234,8.0,300.5227,4246.1021,0.0,0.0,0.0,-0.1342078953587047,0.0,0.0,-0.23265000472076777,-0.4779183878393725,-0.5801406105379204,-1.181085454514059,-0.3135788677603247,-0.09520193863244981
13235,8.0,300.32629,4556.0018,0.0,0.0,0.0,-0.13421803650237696,0.0,0.0,-0.3090931082426147,-0.4895583111456436,-0.5862593644467945,-1.1496915213657188,-0.2866647159541047,-0.1080453000957409
13236,8.0,300.73004,4479.3666,0.0,0.0,0.0,-0.13422817764604922,0.0,0.0,-0.3226629386168527,-0.5065138761990275,-0.5324387716676154,-1.1748664293752888,-0.25584998696042777,-0.12318047015196588
13237,8.0,301.16566,4364.6761,0.0,0.0,0.0,-0.13423831878972148,0.0,0.0,-0.3246217233126697,-0.48650625998942953,-0.5156245651356824,-1.121749224683029,-0.28333202491769377,-0.13502000372793688
13238,8.0,301.20381000000003,4354.5174,0.0,0.0,0.0,-0.13424845993339374,0.0,0.0,-0.29964733749788974,-0.5056730711335465,-0.5183441588015855,-1.179054901313659,-0.3142891155504207,-0.0965918289933713
13239,8.0,300.0866,4123.2301,0.0,0.0,0.0,-0.134258601077066,0.0,0.0,-0.23454404273519477,-0.46612051910751356,-0.5526944315016934,-1.129782068825809,-0.3320331816991237,-0.08797401935585972
13240,8.0,300.19119,4277.9867,0.0,0.0,0.0,-0.13426874222073826,0.0,0.0,-0.24787219269558078,-0.47449376462138854,-0.5780351984201324,-1.170180248987799,-0.29498484689773774,-0.09105144330782781
13241,8.0,299.79006,4468.1968,0.0,0.0,0.0,-0.13427888336441052,0.0,0.0,-0.2935507838987067,-0.4822875729330775,-0.5823818994941184,-1.1376563393279389,-0.3159092416653147,-0.09177274768301501
13242,8.0,299.60058,4217.8638,0.0,0.0,0.0,-0.1342890245080828,0.0,0.0,-0.25624069619898776,-0.49368389065030654,-0.5322006984241194,-1.182609180014439,-0.3235574560701347,-0.13441160783789285
13243,8.0,299.96339,4106.0063,0.0,0.0,0.0,-0.13429916565175504,0.0,0.0,-0.27870794662883275,-0.46824108944679754,-0.5011743420145566,-1.169220194518049,-0.3198301345172767,-0.11659712080723988
13244,8.0,299.90067999999997,4354.3991,0.0,0.0,0.0,-0.1343093067954273,0.0,0.0,-0.28268055576589873,-0.4836396336015156,-0.5573083975545565,-1.1706133120805386,-0.25821987761931775,-0.0990716268906083
13245,8.0,300.23828,4300.6611,0.0,0.0,0.0,-0.13431944793909956,0.0,0.0,-0.24196380977246879,-0.4753132306397635,-0.5900165363475984,-1.164899290791609,-0.2936818579316427,-0.0991960043536334
13246,8.0,300.84312,4114.7682,0.0,0.0,0.0,-0.13432958908277184,0.0,0.0,-0.20903061799971578,-0.48220171011960355,-0.5595544589187255,-1.1784842388573387,-0.2935085820320417,-0.11246984917490989
13247,8.0,301.46097000000003,4097.2853,0.0,0.0,0.0,-0.1343397302264441,0.0,0.0,-0.2563982261920348,-0.4627327376631656,-0.5263414682633585,-1.144996728352379,-0.28350211921198076,-0.13124534313040687
13248,8.0,299.86886,4328.9353,0.0,0.0,0.0,-0.13434987137011634,0.0,0.0,-0.26673644735983776,-0.5063557382559205,-0.5427960520697994,-1.133966791738809,-0.23401197497518378,-0.13979858239204587
13249,8.0,300.80248,4367.9625,0.0,0.0,0.0,-0.1343600125137886,0.0,0.0,-0.2974366689597137,-0.5008131588839105,-0.5295017142652505,-1.1396167756214188,-0.2902421879496737,-0.14221815270333887
13250,8.0,300.17721,4320.3118,0.0,0.0,0.0,-0.13437015365746088,0.0,0.0,-0.25311722104322476,-0.5143081404732616,-0.5458415474978664,-1.172313140448299,-0.3328840280730957,-0.09894336969295031
13251,8.0,300.19353,4022.0526,0.0,0.0,0.0,-0.13438029480113314,0.0,0.0,-0.19620254749368382,-0.48007339854955555,-0.5463276238358384,-1.1338432765516189,-0.37376138433987666,-0.10667510225051291
13252,8.0,299.80992000000003,3880.2539,0.0,0.0,0.0,-0.1343904359448054,0.0,0.0,-0.2220736292494608,-0.43821580387103254,-0.5192108524071215,-1.117968991209949,-0.30526866666767166,-0.07890179643275103
13253,8.0,300.42188,4412.8637,0.0,0.0,0.0,-0.13440057708847764,0.0,0.0,-0.27256506723507773,-0.5083631386915355,-0.5604721696667965,-1.166790724753279,-0.3151322409586307,-0.10810713874934391
13254,8.0,300.2515,4665.0141,0.0,0.0,0.0,-0.13441071823214992,0.0,0.0,-0.3498002486250967,-0.5050746456244866,-0.5631728966158375,-1.1665103584506091,-0.3226475169503307,-0.10676335633422289
13255,8.0,301.18532999999996,4436.361,0.0,0.0,0.0,-0.13442085937582218,0.0,0.0,-0.3180941736509507,-0.4864584447172105,-0.5439903496976675,-1.190969101289499,-0.28455593984598476,-0.0999863890808883
13256,8.0,299.26751,4269.8896,0.0,0.0,0.0,-0.13443100051949444,0.0,0.0,-0.2818433072082687,-0.47110978286491556,-0.5449867494485044,-1.1492950366015888,-0.2225329557847928,-0.1070517982401899
13257,8.0,299.88204,4488.1776,0.0,0.0,0.0,-0.13444114166316673,0.0,0.0,-0.25863274663756475,-0.49418312910707757,-0.6114780448606845,-1.173561464571499,-0.28396451589511573,-0.09267709568876721
13258,8.0,299.2061,4495.1675,0.0,0.0,0.0,-0.13445128280683896,0.0,0.0,-0.28281082933125573,-0.5164915829812505,-0.5671162532225165,-1.197659186399759,-0.2973495598486167,-0.12316176555511987
13259,8.0,299.34758,4247.8747,0.0,0.0,0.0,-0.13446142395051122,0.0,0.0,-0.23524973089984078,-0.5154845846343675,-0.5405135137020305,-1.150997398094599,-0.31865100524340567,-0.1132344173028669
13260,8.0,299.65567999999996,4010.9946,0.0,0.0,0.0,-0.13447156509418348,0.0,0.0,-0.2602988743069988,-0.4806325302197375,-0.4783107993381005,-1.126522443254109,-0.2630511655536288,-0.15646616150200784
13261,8.0,301.28531,3876.4364,0.0,0.0,0.0,-0.13448170623785577,0.0,0.0,-0.23100917790633077,-0.47183273681126553,-0.4754979663979956,-1.1378602052480589,-0.2949414291309527,-0.1095185556086399
13262,8.0,300.36572,3912.6604,0.0,0.0,0.0,-0.13449184738152803,0.0,0.0,-0.20346223114765882,-0.47376926040238554,-0.5121195607872655,-1.1886408552097187,-0.32154730972674866,-0.14516111735378687
13263,8.0,300.99282,4620.9341,0.0,0.0,0.0,-0.13450198852520026,0.0,0.0,-0.26416261985332073,-0.5281958881988755,-0.6122900634908245,-1.1635847001118689,-0.3141834538299927,-0.1039011578492459
13264,8.0,300.08984,4554.3711,0.0,0.0,0.0,-0.13451212966887252,0.0,0.0,-0.27892616017036875,-0.5311302300909725,-0.5743587014922904,-1.159252042684269,-0.27681842770985177,-0.12406908035716488
13265,8.0,299.78754,4253.0427,0.0,0.0,0.0,-0.1345222708125448,0.0,0.0,-0.27139222011182673,-0.4967465809325705,-0.5246799711468815,-1.139181888678499,-0.2928531004098507,-0.12643193906036088
13266,8.0,300.06836,4530.6929,0.0,0.0,0.0,-0.13453241195621707,0.0,0.0,-0.3244545978411757,-0.5179834012359815,-0.5347795212536295,-1.2063858028860088,-0.3196898297759297,-0.11392999323151488
13267,8.0,299.7655,4545.411,0.0,0.0,0.0,-0.13454255309988933,0.0,0.0,-0.33707743453945266,-0.4991857475007976,-0.5454282529145775,-1.1529249037598288,-0.3072174100549977,-0.1025494416858419
13268,8.0,298.98242,4168.3724,0.0,0.0,0.0,-0.13455269424356156,0.0,0.0,-0.2223350680402628,-0.47455692050012155,-0.5701891368007864,-1.158650982724949,-0.24800995417917676,-0.08938005687037483
13269,8.0,299.99166,3940.2229,0.0,0.0,0.0,-0.13456283538723382,0.0,0.0,-0.23182836021467776,-0.4117129302804026,-0.5541880736066045,-1.107390660165949,-0.28375148006159073,-0.0987311829630091
13270,8.0,299.29963,3979.9872,0.0,0.0,0.0,-0.1345729765309061,0.0,0.0,-0.22146396679679178,-0.43671966917087557,-0.5516330925519475,-1.1475796041822888,-0.3150187265499277,-0.08655176173374382
13271,8.0,298.76984,4215.7519,0.0,0.0,0.0,-0.13458311767457837,0.0,0.0,-0.26664415040822875,-0.4714823245291826,-0.5433568353376445,-1.1502792064237188,-0.3165416110527247,-0.10308775106646889
13272,8.0,298.83288,4577.8073,0.0,0.0,0.0,-0.13459325881825063,0.0,0.0,-0.3256221152689007,-0.5041541889686445,-0.5617628172466735,-1.1215983517431387,-0.3058979963047817,-0.11291171741101888
13273,8.0,298.48701,4663.133,0.0,0.0,0.0,-0.13460339996192286,0.0,0.0,-0.33638185861080466,-0.5073730920188255,-0.5737210328068575,-1.147468349321309,-0.3100006763571847,-0.09426005578999322
13274,8.0,299.19154,4262.429,0.0,0.0,0.0,-0.13461354110559515,0.0,0.0,-0.24645518269573277,-0.48227977090730756,-0.5669370194123274,-1.175511261738929,-0.3324394443267187,-0.10600419896179991
13275,8.0,299.7425,4078.9756,0.0,0.0,0.0,-0.1346236822492674,0.0,0.0,-0.2245170717331098,-0.4817869361911685,-0.5336027224549884,-1.167563023979499,-0.3028797471719037,-0.10746254956572789
13276,8.0,299.28083,4342.3243,0.0,0.0,0.0,-0.13463382339293967,0.0,0.0,-0.24609807283048873,-0.48260149807905955,-0.5912585884526794,-1.145979479624369,-0.25532392777350976,-0.10134471771444489
13277,8.0,300.28837999999996,4266.73,0.0,0.0,0.0,-0.13464396453661195,0.0,0.0,-0.2888128061661047,-0.47982521307006154,-0.5283413605157325,-1.1627936557587988,-0.2999716484573967,-0.12554742238556588
13278,8.0,299.81813,3908.409,0.0,0.0,0.0,-0.1346541056802842,0.0,0.0,-0.23090165180571878,-0.4547633635066496,-0.5023937479799025,-1.152196883562979,-0.32018583596488165,-0.1241738504175049
13279,8.0,300.10919,3969.4929,0.0,0.0,0.0,-0.13466424682395645,0.0,0.0,-0.2203779349421088,-0.45779068122792255,-0.5284581173247554,-1.155689860632709,-0.2882434811999167,-0.13946416932904185
13280,8.0,300.63546,4256.106,0.0,0.0,0.0,-0.1346743879676287,0.0,0.0,-0.2089484636816078,-0.48500205981847655,-0.5997994356655953,-1.118957315357489,-0.2632973751954278,-0.09044938124415891
13281,8.0,299.60022000000004,4438.4779,0.0,0.0,0.0,-0.134684529111301,0.0,0.0,-0.2681783225171398,-0.5086566367155014,-0.5723514935741945,-1.1847998267306388,-0.2976937609075867,-0.12849879701184388
13282,8.0,299.85087999999996,4623.3043,0.0,0.0,0.0,-0.13469467025497325,0.0,0.0,-0.28761205413509977,-0.5333796149154695,-0.5843774145060604,-1.1842740512537488,-0.34466932237121367,-0.08991149540207372
13283,8.0,300.88286,4404.6384,0.0,0.0,0.0,-0.13470481139864549,0.0,0.0,-0.31960622651017867,-0.4990303453329605,-0.5202635078035105,-1.168728565569529,-0.3279338453720507,-0.13733702299660888
13284,8.0,300.82366,4146.5762,0.0,0.0,0.0,-0.13471495254231775,0.0,0.0,-0.29196162270686876,-0.47937514764064354,-0.48911883417977053,-1.1256012975881988,-0.2842351245993227,-0.11761541689273788
13285,8.0,301.59256,4351.589,0.0,0.0,0.0,-0.13472509368599003,0.0,0.0,-0.30483114527449173,-0.48203847552849355,-0.5359047658871825,-1.1771062187213388,-0.32278983805937667,-0.1186286264627339
13286,8.0,301.32228,4634.61,0.0,0.0,0.0,-0.1347352348296623,0.0,0.0,-0.3192352655160677,-0.5030267658473765,-0.5865436925573554,-1.178706545929279,-0.32567488533410865,-0.07584596788016423
13287,8.0,299.61317,4254.2252,0.0,0.0,0.0,-0.13474537597333455,0.0,0.0,-0.25310113063163675,-0.45576618726312057,-0.5843109250344984,-1.164616087388659,-0.26443755513545475,-0.06640151436056924
13288,8.0,299.46313,4195.3035,0.0,0.0,0.0,-0.13475551711700678,0.0,0.0,-0.2520104074289908,-0.47613583773344853,-0.5471212621091645,-1.108276139428339,-0.23454330306262178,-0.10849240683486688
13289,8.0,299.77938,4607.8196,0.0,0.0,0.0,-0.13476565826067907,0.0,0.0,-0.3307312465131327,-0.4933355757959305,-0.5765952788355234,-1.1876663112635388,-0.26378327928088274,-0.08230109853073601
13290,8.0,299.89067,4593.1425,0.0,0.0,0.0,-0.13477579940435133,0.0,0.0,-0.3124917314630327,-0.5145556268101865,-0.5691532608260534,-1.1615666098876989,-0.31446013190229866,-0.13231581146355387
13291,8.0,300.25027,4285.9521,0.0,0.0,0.0,-0.1347859405480236,0.0,0.0,-0.24538331607744776,-0.5100095079840196,-0.5474296143795965,-1.152388590481899,-0.29134075370809376,-0.12402044435236488
13292,8.0,299.82876,4100.0021,0.0,0.0,0.0,-0.13479608169169588,0.0,0.0,-0.21244965820964878,-0.47800313607773653,-0.5558454670601765,-1.117780830666379,-0.26463099471204576,-0.13709136050986387
13293,8.0,299.9178,4120.2062,0.0,0.0,0.0,-0.1348062228353681,0.0,0.0,-0.2158699548497058,-0.5077796890189535,-0.5287901391175235,-1.184000271076729,-0.30712071559795473,-0.1052923603690469
13294,8.0,300.65077,4245.9609,0.0,0.0,0.0,-0.13481636397904037,0.0,0.0,-0.26759240051431377,-0.5149363656677626,-0.5081373156417485,-1.188275173248629,-0.35927504898518664,-0.14653988729486087
13295,8.0,300.80287999999996,4455.3448,0.0,0.0,0.0,-0.13482650512271263,0.0,0.0,-0.3168547762611317,-0.5155415090249855,-0.5219172839542255,-1.170792454698219,-0.2918480475031597,-0.1089200794370749
13296,8.0,300.52826,4307.3087,0.0,0.0,0.0,-0.1348366462663849,0.0,0.0,-0.2874979317763367,-0.5016222998837665,-0.5201940697741575,-1.1083027879059688,-0.26826415493311073,-0.14494870973532387
13297,8.0,300.05563,4227.1359999999995,0.0,0.0,0.0,-0.13484678741005715,0.0,0.0,-0.2376659473533028,-0.49625943054949256,-0.5510184043787825,-1.1425756685634387,-0.2948747268768697,-0.1162588573938559
13298,8.0,301.49062999999995,4490.6755,0.0,0.0,0.0,-0.1348569285537294,0.0,0.0,-0.28228191277905573,-0.4991765167923865,-0.5835948003938225,-1.1674175212651388,-0.3416359555468437,-0.1013006362688444
13299,8.0,301.06607,4532.1602,0.0,0.0,0.0,-0.13486706969740167,0.0,0.0,-0.2777698898187537,-0.5008869336236915,-0.5990066991848584,-1.162515113306309,-0.2672142961069977,-0.050190336532900545
13300,8.0,300.73672999999997,4050.9557,0.0,0.0,0.0,-0.13487721084107393,0.0,0.0,-0.2685918501479517,-0.45343826542337257,-0.5093592749973466,-1.1335803381506688,-0.2926724784470247,-0.0990086756883955
13301,8.0,300.7821,4289.8474,0.0,0.0,0.0,-0.1348873519847462,0.0,0.0,-0.29135889088488376,-0.5006164465094965,-0.5120311445835395,-1.147601693034469,-0.31463935557998673,-0.08151982596163042
13302,8.0,300.67627999999996,4698.8875,0.0,0.0,0.0,-0.13489749312841845,0.0,0.0,-0.31668844112471567,-0.5234672222346924,-0.5881887851547135,-1.1871083144334689,-0.3626148429047986,-0.10412646414148191
13303,8.0,300.49658999999997,4527.474,0.0,0.0,0.0,-0.1349076342720907,0.0,0.0,-0.2912528643944197,-0.4935268672823095,-0.5914593234299904,-1.1315857553288189,-0.3034217042528907,-0.093588218284688
13304,8.0,300.15075,4315.5211,0.0,0.0,0.0,-0.13491777541576297,0.0,0.0,-0.22943455685342778,-0.5259191354891776,-0.5564569736280275,-1.1356557783304988,-0.29671471813096273,-0.1181044519210019
13305,8.0,299.0906,4190.4244,0.0,0.0,0.0,-0.13492791655943526,0.0,0.0,-0.2648342729471077,-0.4612034494197365,-0.5477466502033855,-1.155031146742699,-0.32541423687838467,-0.06958583417158713
13306,8.0,299.52567,4080.2674,0.0,0.0,0.0,-0.1349380577031075,0.0,0.0,-0.26663736163255874,-0.49684218107950556,-0.47681986261095655,-1.163917958069759,-0.3296181406157777,-0.11624680985016687
13307,8.0,299.99332999999996,4106.0249,0.0,0.0,0.0,-0.13494819884677978,0.0,0.0,-0.2696639092837557,-0.4693696170106746,-0.5090955158638155,-1.148402464588499,-0.2597404620443877,-0.1214034827890909
13308,8.0,299.62088,4413.2097,0.0,0.0,0.0,-0.134958339990452,0.0,0.0,-0.25531045154717974,-0.4818862347009685,-0.6043088647056414,-1.1293799098611188,-0.2605680948585688,-0.13391933040930887
13309,8.0,300.51501,4391.2708,0.0,0.0,0.0,-0.1349684811341243,0.0,0.0,-0.23455208794098878,-0.5215878662142145,-0.5786967291454204,-1.1701875443885188,-0.2912069540323887,-0.11634931023028289
13310,8.0,300.90942,4134.323,0.0,0.0,0.0,-0.13497862227779653,0.0,0.0,-0.1922734878459158,-0.49086013487412355,-0.5735973251021484,-1.162681286322709,-0.3270618119384877,-0.1016177379538899
13311,8.0,300.40038,4368.7589,0.0,0.0,0.0,-0.13498876342146882,0.0,0.0,-0.2803480135056947,-0.4897085660029726,-0.5579370584466005,-1.162829018187289,-0.28829793326029074,-0.09879615357267121
13312,8.0,300.7578,4691.0137,0.0,0.0,0.0,-0.13499890456514108,0.0,0.0,-0.34232280739213067,-0.5310925878497575,-0.5525356349460215,-1.125454173673679,-0.2771356053886547,-0.0907956614923341
13313,8.0,300.30598,4414.1279,0.0,0.0,0.0,-0.13500904570881334,0.0,0.0,-0.2979434155997257,-0.5055342761348486,-0.5383069690917615,-1.1661237022124489,-0.3195696988440737,-0.1151012394196079
13314,8.0,300.18654,4189.6023,0.0,0.0,0.0,-0.1350191868524856,0.0,0.0,-0.25604408514958377,-0.5107737214744416,-0.5067166984715444,-1.1546221990023386,-0.35289925379094467,-0.1111535359699999
13315,8.0,300.34316,4269.6007,0.0,0.0,0.0,-0.13502932799615786,0.0,0.0,-0.25406863248962175,-0.48040525822230756,-0.5633781101585904,-1.1412700958095887,-0.2959306348060797,-0.11480590741296089
13316,8.0,300.09612000000004,4212.8073,0.0,0.0,0.0,-0.13503946913983012,0.0,0.0,-0.23943977337586578,-0.48604592020399756,-0.5551025216893535,-1.1292730119755687,-0.28274130010939375,-0.1085411948271819
13317,8.0,299.6943,4289.1194,0.0,0.0,0.0,-0.13504961028350237,0.0,0.0,-0.3030834915020117,-0.4746103795753975,-0.5260913272111715,-1.1960870275445987,-0.2943472896698157,-0.11493931192112689
13318,8.0,300.53619,4514.7648,0.0,0.0,0.0,-0.13505975142717463,0.0,0.0,-0.3300003486859987,-0.4687064144227216,-0.5736690125467235,-1.174292625843659,-0.3042056963852647,-0.07799314616707423
13319,8.0,299.73009,4209.5032,0.0,0.0,0.0,-0.1350698925708469,0.0,0.0,-0.2840564379441877,-0.47756014313401657,-0.5179672804268904,-1.158263211911679,-0.24484486484180676,-0.13136905083511588
13320,8.0,299.561,4239.938,0.0,0.0,0.0,-0.13508003371451915,0.0,0.0,-0.23405077232151278,-0.4608227308271626,-0.5939617775994634,-1.125778819005719,-0.2496811886291148,-0.1038257112467999
13321,8.0,301.04402000000005,4727.1222,0.0,0.0,0.0,-0.13509017485819141,0.0,0.0,-0.27573897184831775,-0.5342408673679685,-0.6269472834748794,-1.1744277934069989,-0.3195412974437707,-0.0949880445760901
13322,8.0,299.85753,4443.3243,0.0,0.0,0.0,-0.1351003160018637,0.0,0.0,-0.23741077044811879,-0.5165508581121006,-0.5966980088320084,-1.1757806849405188,-0.3148743485431787,-0.09361948616952391
13323,8.0,300.35809,3873.0641,0.0,0.0,0.0,-0.13511045714553593,0.0,0.0,-0.25161319312478875,-0.4462033152043386,-0.4794982676602945,-1.150998411344699,-0.2907004201748977,-0.11307513438714689
13324,8.0,300.27485,4195.9748,0.0,0.0,0.0,-0.1351205982892082,0.0,0.0,-0.2826464497675327,-0.5053337640725595,-0.48749134173664954,-1.1298710321845888,-0.2781499092687587,-0.12536237251980287
13325,8.0,299.26965,4449.346,0.0,0.0,0.0,-0.13513073943288045,0.0,0.0,-0.2898945823703677,-0.5181982811846885,-0.5443972202753224,-1.1776098040210388,-0.3255734995291027,-0.13062821302450087
13326,8.0,300.06622999999996,4370.2028,0.0,0.0,0.0,-0.13514088057655274,0.0,0.0,-0.25738497980191977,-0.5087472212744415,-0.5623003261597215,-1.151798473623659,-0.32687322582987566,-0.14934379350158486
13327,8.0,300.99211,4345.4655,0.0,0.0,0.0,-0.135151021720225,0.0,0.0,-0.2245566188845128,-0.5234720047751644,-0.5728843820667865,-1.1323584598550789,-0.2747937918900357,-0.13533499278652386
13328,8.0,300.02746,4154.5229,0.0,0.0,0.0,-0.13516116286389723,0.0,0.0,-0.2588791386643818,-0.4470405434969666,-0.5569515410018374,-1.127504181275999,-0.27384904762929674,-0.13122641561853887
13329,8.0,300.47451,4288.9621,0.0,0.0,0.0,-0.1351713040075695,0.0,0.0,-0.2837928713281757,-0.49692018107220354,-0.5230243306159824,-1.149265348373659,-0.3017395570993757,-0.08555444195181601
13330,8.0,300.73989,4559.8612,0.0,0.0,0.0,-0.13518144515124178,0.0,0.0,-0.3325997202275367,-0.4966756838230735,-0.5568085308827234,-1.2008517348148386,-0.3050203899956687,-0.1007398023384944
13331,8.0,300.30773999999997,4652.9451,0.0,0.0,0.0,-0.13519158629491404,0.0,0.0,-0.30951027344128573,-0.48054788330638354,-0.6243209696131824,-1.1492016149423687,-0.2745825900391917,-0.08265254128817072
13332,8.0,301.09075,4155.0832,0.0,0.0,0.0,-0.1352017274385863,0.0,0.0,-0.2086730420394258,-0.48400129295970856,-0.5703671952408594,-1.169719017542279,-0.28550927646757174,-0.1086367443116119
13333,8.0,299.83797000000004,4012.1603,0.0,0.0,0.0,-0.13521186858225853,0.0,0.0,-0.1920022205291438,-0.46269334249927757,-0.5649009845288865,-1.179252485083159,-0.31806069586764674,-0.09116846153537661
13334,8.0,299.31462999999997,4482.3555,0.0,0.0,0.0,-0.1352220097259308,0.0,0.0,-0.30052980740748275,-0.4996080904074795,-0.5623862396357004,-1.193413871130779,-0.33495052125454267,-0.08076571660120563
13335,8.0,299.22897,4547.5908,0.0,0.0,0.0,-0.13523215086960308,0.0,0.0,-0.3467178607608887,-0.5120230183177376,-0.5236131707790965,-1.143808692610129,-0.2951507260716087,-0.09016561346090322
13336,8.0,299.31916,4215.5286,0.0,0.0,0.0,-0.13524229201327534,0.0,0.0,-0.3024566949901517,-0.46561889951300756,-0.5133398482801985,-1.1549749113621488,-0.31547795176024973,-0.1038353979177559
13337,8.0,300.27212000000003,4143.1682,0.0,0.0,0.0,-0.1352524331569476,0.0,0.0,-0.24389816500837477,-0.4946954688876415,-0.5208260439940285,-1.148943641466909,-0.3447076637549977,-0.12002503708804889
13338,8.0,299.9012,4214.7627,0.0,0.0,0.0,-0.13526257430061983,0.0,0.0,-0.2242845511001618,-0.47381829157472455,-0.5830797653679924,-1.156636844176169,-0.3219468747711827,-0.11495393312006989
13339,8.0,299.63631000000004,4364.8998,0.0,0.0,0.0,-0.13527271544429212,0.0,0.0,-0.2165103897079118,-0.49915430635019453,-0.6111558515938864,-1.131035763174539,-0.28157983178476576,-0.12496781293086287
13340,8.0,299.3776,4379.901,0.0,0.0,0.0,-0.13528285658796438,0.0,0.0,-0.25126759378068075,-0.5189375079276445,-0.5611754260312024,-1.167818160354679,-0.2679729367218697,-0.11584525883553688
13341,8.0,300.32538,4174.4258,0.0,0.0,0.0,-0.13529299773163664,0.0,0.0,-0.26742246834004274,-0.48765059425486657,-0.5138481451928635,-1.1879307695396388,-0.2942266521129097,-0.1125736971776589
13342,8.0,300.83382,4091.5652,0.0,0.0,0.0,-0.13530313887530893,0.0,0.0,-0.2409712502395108,-0.5086641246337406,-0.4940982694112025,-1.2079370887891088,-0.2702352911476468,-0.13870436347655488
13343,8.0,300.6393,4320.5816,0.0,0.0,0.0,-0.13531328001898116,0.0,0.0,-0.25995266701283076,-0.5184913637761135,-0.5349048805560015,-1.151296205549089,-0.26177319373250274,-0.14545196066249086
13344,8.0,300.20916,4553.0794,0.0,0.0,0.0,-0.13532342116265342,0.0,0.0,-0.24511363956333274,-0.5351679506794645,-0.6037408772295855,-1.1667593140001788,-0.2835016936469387,-0.11184540340328189
13345,8.0,300.66893,4351.726,0.0,0.0,0.0,-0.13533356230632568,0.0,0.0,-0.22730873787862577,-0.5351632289339985,-0.5603440543241525,-1.157547148066009,-0.3388062823900767,-0.10951215186800789
13346,8.0,300.30106,4300.1766,0.0,0.0,0.0,-0.13534370344999797,0.0,0.0,-0.27986860435338073,-0.49617573609123256,-0.5311019806781845,-1.163269781980789,-0.33124933142176366,-0.08398065885674572
13347,8.0,299.83526,4402.377,0.0,0.0,0.0,-0.13535384459367023,0.0,0.0,-0.3378930806049507,-0.4795981639876536,-0.5207214461862055,-1.134520735568479,-0.30360197157818175,-0.11023482210432989
13348,8.0,299.0835,4457.0004,0.0,0.0,0.0,-0.13536398573734246,0.0,0.0,-0.30842672404934773,-0.48949188246908754,-0.5568982339140764,-1.1565509205676887,-0.2926098190608407,-0.07803751436245303
13349,8.0,297.8557,4325.7928,0.0,0.0,0.0,-0.13537412688101472,0.0,0.0,-0.2942979139924427,-0.47195194568553056,-0.5486831567408115,-1.167218316295479,-0.3206535116810377,-0.12305754264983389
13350,8.0,298.57927,4406.7927,0.0,0.0,0.0,-0.135384268024687,0.0,0.0,-0.23426660472531377,-0.5033648063457385,-0.6019235321152274,-1.175897816652079,-0.2793425147689597,-0.09774847424752331
13351,8.0,298.84993,4068.3346,0.0,0.0,0.0,-0.13539440916835926,0.0,0.0,-0.2191612850170348,-0.46653970067388356,-0.5509711463941185,-1.1366000260986888,-0.2784497097083467,-0.13248438588269087
13352,8.0,300.16817000000003,4147.657,0.0,0.0,0.0,-0.13540455031203152,0.0,0.0,-0.26070045571913175,-0.46942063415320956,-0.5306630711323674,-1.1800414016110188,-0.2772971883821017,-0.08533829442723391
13353,8.0,300.04596000000004,4574.2731,0.0,0.0,0.0,-0.13541469145570376,0.0,0.0,-0.3285182373672257,-0.5363640620250114,-0.5255825135409554,-1.181068938537429,-0.32274817321526467,-0.11513778735071489
13354,8.0,299.73627999999997,4455.7493,0.0,0.0,0.0,-0.13542483259937604,0.0,0.0,-0.3217593525751757,-0.5046433557194215,-0.5280338289778815,-1.1750450653679188,-0.2907428348240837,-0.08645171037911951
13355,8.0,299.60398,4178.6065,0.0,0.0,0.0,-0.1354349737430483,0.0,0.0,-0.24470440811294478,-0.5228727484010225,-0.5026148695492255,-1.1553488006490489,-0.28360412309954774,-0.15311399579867485
13356,8.0,299.87805,4235.6552,0.0,0.0,0.0,-0.13544511488672056,0.0,0.0,-0.20832537566511378,-0.4994080748377396,-0.5797999558543004,-1.1835169507790289,-0.27895688191340073,-0.11554793072619289
13357,8.0,299.9114,4320.2539,0.0,0.0,0.0,-0.13545525603039282,0.0,0.0,-0.22907064808001276,-0.5200552849079605,-0.5641233961371445,-1.176919071427869,-0.3327864520884657,-0.1239654147394339
13358,8.0,300.3203,4213.2232,0.0,0.0,0.0,-0.13546539717406508,0.0,0.0,-0.25974685565251876,-0.48761817025166654,-0.5333496125800085,-1.1868257189805789,-0.2973230329609987,-0.12272599708461288
13359,8.0,299.94146,4143.8503,0.0,0.0,0.0,-0.13547553831773734,0.0,0.0,-0.2736686688464947,-0.46088687969099357,-0.5250714707205195,-1.1331856772367188,-0.3080804356951717,-0.11417164324786389
13360,8.0,299.72465,4171.5041,0.0,0.0,0.0,-0.1354856794614096,0.0,0.0,-0.27483038035114676,-0.4680852819789206,-0.5251174114800535,-1.1626851366730888,-0.2971664959530497,-0.11766882530550889
13361,8.0,300.95609,4352.1201,0.0,0.0,0.0,-0.13549582060508186,0.0,0.0,-0.25931316434471674,-0.4937328610276395,-0.5698898125887455,-1.147518099901219,-0.32948464491510265,-0.11837586109278789
13362,8.0,300.21034,4650.5411,0.0,0.0,0.0,-0.13550596174875415,0.0,0.0,-0.2557065614087728,-0.5381043190717615,-0.6198375000406985,-1.1614130011725388,-0.2863277697658507,-0.13246393849567287
13363,8.0,299.87174,4736.2382,0.0,0.0,0.0,-0.13551610289242638,0.0,0.0,-0.2971282761592777,-0.5368196901974785,-0.6057501724428874,-1.1225324670103292,-0.26982319219947576,-0.1041086410722229
13364,8.0,299.97411,4527.0218,0.0,0.0,0.0,-0.13552624403609864,0.0,0.0,-0.2959861811765617,-0.5210225638509236,-0.5590928525706684,-1.172398557431729,-0.29731882797308373,-0.09261602710524022
13365,8.0,299.24005,4337.3933,0.0,0.0,0.0,-0.1355363851797709,0.0,0.0,-0.2945102506833987,-0.5065029736279515,-0.5174460341779474,-1.184430699719209,-0.3385859714208337,-0.07482600499825173
13366,8.0,299.30812000000003,4491.1661,0.0,0.0,0.0,-0.1355465263234432,0.0,0.0,-0.3042700276341137,-0.49239439817554354,-0.5685379343053254,-1.2029970892515687,-0.31638679656994567,-0.07658202416355733
13367,8.0,299.50431000000003,4418.9246,0.0,0.0,0.0,-0.13555666746711545,0.0,0.0,-0.25710943656972574,-0.4809548957390526,-0.6051784055439585,-1.144473587325749,-0.29300394295223775,-0.1006371215998606
13368,8.0,300.67605,4127.3372,0.0,0.0,0.0,-0.13556680861078768,0.0,0.0,-0.21419596435949578,-0.46901149389533053,-0.5713999706702865,-1.1635854093869389,-0.2896972215158898,-0.13898771886701988
13369,8.0,300.49111,4243.479,0.0,0.0,0.0,-0.13557694975445994,0.0,0.0,-0.24632170726005975,-0.4780826559455846,-0.5655072829912234,-1.1492990896019888,-0.2955582349968267,-0.11000502711415089
13370,8.0,300.47258,4398.0032,0.0,0.0,0.0,-0.13558709089813223,0.0,0.0,-0.3045816324373667,-0.4861062592474525,-0.5461952629752755,-1.1741513787797189,-0.28226297513468673,-0.12415038354518888
13371,8.0,300.53444,4398.4921,0.0,0.0,0.0,-0.1355972320418045,0.0,0.0,-0.28959384974068775,-0.5070074809852425,-0.5404304271938305,-1.123847564315119,-0.2857450901633447,-0.1161264256057859
13372,8.0,301.17951,4343.0382,0.0,0.0,0.0,-0.13560737318547675,0.0,0.0,-0.29507221945386075,-0.4762070793479795,-0.5488958784668054,-1.1727206696385188,-0.32633315339407465,-0.13007711642761186
13373,8.0,299.32335,4393.8382,0.0,0.0,0.0,-0.13561751432914898,0.0,0.0,-0.2427981705673138,-0.5232941084551075,-0.5695248196377234,-1.1473701653866188,-0.3498304536105777,-0.1145692628521059
13374,8.0,299.11252,4170.7214,0.0,0.0,0.0,-0.13562765547282127,0.0,0.0,-0.21078803950315983,-0.48686983439031156,-0.5701372887931694,-1.1841781977942887,-0.3084508799317317,-0.13175168447037888
13375,8.0,299.10674,4286.6292,0.0,0.0,0.0,-0.13563779661649353,0.0,0.0,-0.2632662380198547,-0.5111590402224695,-0.5286029715590516,-1.156376337575459,-0.2727201248978808,-0.1132002910394989
13376,8.0,298.85969,4473.565,0.0,0.0,0.0,-0.1356479377601658,0.0,0.0,-0.30139855791072173,-0.49991341306011255,-0.5585400739786135,-1.1888657967319187,-0.2904958753772107,-0.09704952622254251
13377,8.0,299.32077999999996,4180.3513,0.0,0.0,0.0,-0.13565807890383808,0.0,0.0,-0.28812705876342676,-0.45300227403784354,-0.5295930688942665,-1.1804823680545389,-0.3013780294636957,-0.09492822836968672
13378,8.0,299.03881,4107.8744,0.0,0.0,0.0,-0.1356682200475103,0.0,0.0,-0.24084951837249677,-0.48689348364764556,-0.5209482520885895,-1.181502305605199,-0.26851319154268877,-0.11736200304272788
13379,8.0,300.2335,4518.7475,0.0,0.0,0.0,-0.13567836119118257,0.0,0.0,-0.26702249799556876,-0.5001443732879065,-0.6064195355914485,-1.147393571463929,-0.2833105338830727,-0.12266707659129787
13380,8.0,300.15851000000004,4581.7894,0.0,0.0,0.0,-0.13568850233485483,0.0,0.0,-0.2598739577450628,-0.5230822783892014,-0.6097933443169173,-1.1531899699859887,-0.28922427689921376,-0.14193856660324586
13381,8.0,300.48919,4177.9304,0.0,0.0,0.0,-0.13569864347852711,0.0,0.0,-0.27037299183623675,-0.4614670970957566,-0.5381464398784185,-1.176698790856129,-0.3108958017605267,-0.11598706318703188
13382,8.0,300.20493,4342.7344,0.0,0.0,0.0,-0.13570878462219937,0.0,0.0,-0.3099352507982277,-0.4847615142447365,-0.5253860544790665,-1.150854327180479,-0.2724362527498647,-0.1014101635384039
13383,8.0,299.76515,4395.1972,0.0,0.0,0.0,-0.1357189257658716,0.0,0.0,-0.3139652909509617,-0.4760384542663375,-0.5460264555086155,-1.171060155374639,-0.28096008749360174,-0.101045728888187
13384,8.0,300.06004,4304.5528,0.0,0.0,0.0,-0.13572906690954387,0.0,0.0,-0.2699007159646267,-0.5012519164422126,-0.5373239341097434,-1.1710564063492688,-0.3105872367075737,-0.09792481421542672
13385,8.0,299.31304,4317.2813,0.0,0.0,0.0,-0.13573920805321615,0.0,0.0,-0.23222555425387778,-0.4997554372370215,-0.5803647211950385,-1.1806822822992689,-0.32917969716500667,-0.10240735362431891
13386,8.0,298.62545,4426.2345,0.0,0.0,0.0,-0.1357493491968884,0.0,0.0,-0.2642482192217687,-0.5032125857832156,-0.5780039700520505,-1.1538113962723189,-0.3039270526077647,-0.1027457892902199
13387,8.0,299.03561,4356.8331,0.0,0.0,0.0,-0.13575949034056067,0.0,0.0,-0.2797867945403067,-0.5094608735848735,-0.5351208041523116,-1.159896773722899,-0.2980113033564257,-0.11400214677113588
13388,8.0,300.03392,4355.018,0.0,0.0,0.0,-0.1357696314842329,0.0,0.0,-0.2831984278920087,-0.5040689037077275,-0.5365494158658045,-1.1906827568112388,-0.28906623014861577,-0.1163938729696809
13389,8.0,299.32628,4366.6522,0.0,0.0,0.0,-0.1357797726279052,0.0,0.0,-0.28861632683921373,-0.4837932929791805,-0.5549436035436695,-1.1928073396209187,-0.30143813545962767,-0.1070482113348359
13390,8.0,300.35956,4227.4587,0.0,0.0,0.0,-0.13578991377157745,0.0,0.0,-0.2261571082124688,-0.49934056198357646,-0.5595442149602144,-1.1499019734114888,-0.26910971214156076,-0.12250606101790688
13391,8.0,300.08046,4088.9988,0.0,0.0,0.0,-0.1358000549152497,0.0,0.0,-0.2027705258343928,-0.48799410630376855,-0.5521889007618015,-1.138713260507249,-0.2803903470948727,-0.15203912996009383
13392,8.0,300.12647999999996,4389.9766,0.0,0.0,0.0,-0.13581019605892197,0.0,0.0,-0.2612271431211117,-0.5196260620330996,-0.5535900533975845,-1.1548069144955688,-0.3179055875423387,-0.14388304420765088
13393,8.0,300.93394,4646.688,0.0,0.0,0.0,-0.1358203372025942,0.0,0.0,-0.31453280219947066,-0.5288091071593954,-0.5691352047092715,-1.1864134275148888,-0.30623171022521667,-0.10666928619493889
13394,8.0,299.70894,4385.9769,0.0,0.0,0.0,-0.1358304783462665,0.0,0.0,-0.3044500112493767,-0.4911265385904155,-0.5376508997845124,-1.1645629930834187,-0.3094440474147497,-0.1045869457819279
13395,8.0,299.5116,4296.5068,0.0,0.0,0.0,-0.13584061948993875,0.0,0.0,-0.28473130304079175,-0.4622738164278736,-0.5590256639565375,-1.1646263212146688,-0.28964031739027374,-0.06325246071928184
13396,8.0,299.4569,4383.4714,0.0,0.0,0.0,-0.135850760633611,0.0,0.0,-0.23431516980260675,-0.5150447732959615,-0.5831059072205725,-1.186598041683109,-0.3146453540205787,-0.09851982507164972
13397,8.0,300.40594,4504.0992,0.0,0.0,0.0,-0.1358609017772833,0.0,0.0,-0.23231181223489075,-0.5087829890029715,-0.6280388882051124,-1.1764422359308089,-0.3100893357409347,-0.06631172216320744
13398,8.0,300.74119,4755.3557,0.0,0.0,0.0,-0.13587104292095553,0.0,0.0,-0.31597897353719673,-0.5394595613455135,-0.5900708566854593,-1.1458996355164888,-0.3055232862853007,-0.11953111819430288
13399,8.0,299.88057000000003,4514.6214,0.0,0.0,0.0,-0.1358811840646278,0.0,0.0,-0.3088065205843307,-0.48907288328773557,-0.5744527716315745,-1.129696043892319,-0.28615162636846675,-0.09287302786060422
13400,8.0,299.45777000000004,4101.0417,0.0,0.0,0.0,-0.13589132520830005,0.0,0.0,-0.27983936195549475,-0.4743306313552886,-0.4924442703454655,-1.156404404603229,-0.3254432462287477,-0.14652464801335688
13401,8.0,300.97241,4339.6245,0.0,0.0,0.0,-0.13590146635197234,0.0,0.0,-0.2733841482184147,-0.47641093513559857,-0.5693423940897194,-1.195870799973259,-0.29326494604549674,-0.07826957396660553
13402,8.0,300.8016,4705.7998,0.0,0.0,0.0,-0.13591160749564457,0.0,0.0,-0.2934402281802957,-0.5061682565899175,-0.6308371708737814,-1.1638416603372288,-0.2964381819136707,-0.11605744353897789
13403,8.0,300.01309,4563.5484,0.0,0.0,0.0,-0.13592174863931683,0.0,0.0,-0.2648794132390628,-0.5309155325272835,-0.5914098160301045,-1.1605370464610887,-0.2828838846634657,-0.10456394500465789
13404,8.0,299.38752,4107.8473,0.0,0.0,0.0,-0.1359318897829891,0.0,0.0,-0.25939674734546575,-0.46695371466474356,-0.5223325442427086,-1.1445615374344291,-0.3265097527540037,-0.13140349120601488
13405,8.0,299.49267000000003,4133.6178,0.0,0.0,0.0,-0.13594203092666138,0.0,0.0,-0.26218312432545976,-0.4951715748446295,-0.49916190572594454,-1.159553383264009,-0.3335852478048007,-0.12274417479140688
13406,8.0,299.79087999999996,4254.8312,0.0,0.0,0.0,-0.13595217207033364,0.0,0.0,-0.29743361907691274,-0.49094679815517656,-0.5049820143003445,-1.1447626675792788,-0.3174854028583697,-0.12538412699944987
13407,8.0,300.2727,4505.9303,0.0,0.0,0.0,-0.1359623132140059,0.0,0.0,-0.27672848149847473,-0.5111440035909856,-0.5818178130309475,-1.1632728217310888,-0.2808088903136797,-0.11573998215014689
13408,8.0,299.74756,4322.5351,0.0,0.0,0.0,-0.13597245435767813,0.0,0.0,-0.2197077510609668,-0.5237791614104784,-0.5704558343596074,-1.159731917931629,-0.3095169710244467,-0.13211169223090888
13409,8.0,299.46597,3996.0864,0.0,0.0,0.0,-0.13598259550135042,0.0,0.0,-0.18698199184868583,-0.48061460582546855,-0.5471138755159355,-1.1678472406325489,-0.27554076999625676,-0.11527987541223789
13410,8.0,299.59995,4192.4323,0.0,0.0,0.0,-0.13599273664502268,0.0,0.0,-0.2595981308028407,-0.4691285546793836,-0.5456680385507425,-1.148395169187779,-0.2823225035780617,-0.13929768220511085
13411,8.0,300.86064,4841.5465,0.0,0.0,0.0,-0.13600287778869494,0.0,0.0,-0.34610695201059666,-0.5342376148351475,-0.5913646858706504,-1.1674666638949889,-0.2773590270357047,-0.1098949476232869
13412,8.0,299.97845,4545.4858,0.0,0.0,0.0,-0.1360130189323672,0.0,0.0,-0.3316050126043667,-0.47783661855630255,-0.5722725512589035,-1.1704368039131188,-0.3275733107214687,-0.11347200418631488
13413,8.0,300.37361,4025.7322,0.0,0.0,0.0,-0.13602316007603946,0.0,0.0,-0.2284400417477768,-0.44710248347557957,-0.5481795410436084,-1.1712925949475788,-0.3123367041977327,-0.1074619517481689
13414,8.0,300.97954,4166.5178,0.0,0.0,0.0,-0.13603330121971172,0.0,0.0,-0.23755459116731276,-0.4668345564529835,-0.5621282154977355,-1.152350390953129,-0.3067139868753137,-0.12130586627445689
13415,8.0,300.28611,4489.5694,0.0,0.0,0.0,-0.13604344236338398,0.0,0.0,-0.29511499887308273,-0.48363831637638555,-0.5859636879351134,-1.1740621114459089,-0.2852785391547997,-0.1033904392688419
13416,8.0,299.70791,4542.5459,0.0,0.0,0.0,-0.13605358350705624,0.0,0.0,-0.29773906331955774,-0.5448947159419215,-0.5381867469673965,-1.1587193771066988,-0.3141504826717387,-0.11937632397652588
13417,8.0,299.60535,4385.1455,0.0,0.0,0.0,-0.1360637246507285,0.0,0.0,-0.3093983802327427,-0.49601452800032253,-0.5275618165512974,-1.1674467028680189,-0.31201411576339566,-0.1091571900929759
13418,8.0,299.89581,4382.0447,0.0,0.0,0.0,-0.13607386579440076,0.0,0.0,-0.2904341887111227,-0.5036684672682076,-0.5379295131645095,-1.1372543830132689,-0.3081620631232277,-0.09466416728762592
13419,8.0,299.64664,4295.6896,0.0,0.0,0.0,-0.13608400693807302,0.0,0.0,-0.23651281807699776,-0.5130321647548325,-0.5562374023313574,-1.1728049720468388,-0.3056378443416067,-0.12816694747159288
13420,8.0,299.93268,4526.447,0.0,0.0,0.0,-0.13609414808174528,0.0,0.0,-0.2383548155662888,-0.5236298488757425,-0.6139422083088784,-1.151669790860959,-0.3337472766282917,-0.10922306148197689
13421,8.0,299.4957,4428.6383,0.0,0.0,0.0,-0.13610428922541754,0.0,0.0,-0.2610293567015918,-0.5076237295635615,-0.5775423738364945,-1.1774027970256091,-0.3124256878215147,-0.13471036462987787
13422,8.0,300.40109,4004.9243,0.0,0.0,0.0,-0.1361144303690898,0.0,0.0,-0.25445549137780177,-0.4668638697783766,-0.4960776332165505,-1.1421394643953888,-0.2917617591246437,-0.11646341232404388
13423,8.0,301.16924,4016.0564,0.0,0.0,0.0,-0.13612457151276205,0.0,0.0,-0.2517818688689357,-0.4585364636990256,-0.5104625422362304,-1.169733912318749,-0.28534973010682574,-0.14732320054966785
13424,8.0,301.94087,4493.7416,0.0,0.0,0.0,-0.13613471265643431,0.0,0.0,-0.28376019401245073,-0.5194328251065286,-0.5627922286857685,-1.170037178073679,-0.3201649123503167,-0.1125419520520259
13425,8.0,300.21191,4614.0521,0.0,0.0,0.0,-0.13614485380010657,0.0,0.0,-0.25827199920446176,-0.5269641813773155,-0.6173204449372844,-1.1769499755559187,-0.3032478406682317,-0.10829400233278591
13426,8.0,299.51735,4377.6287,0.0,0.0,0.0,-0.13615499494377883,0.0,0.0,-0.25498158096222273,-0.4917129469532896,-0.5839953077608494,-1.130478374294529,-0.3018080224086327,-0.09911624434551171
13427,8.0,299.89042,4501.1379,0.0,0.0,0.0,-0.13616513608745112,0.0,0.0,-0.28407320723334273,-0.5226389713379506,-0.5615213496153425,-1.153266369043529,-0.2760703248960198,-0.10875624702840589
13428,8.0,299.40531,4607.8651,0.0,0.0,0.0,-0.13617527723112335,0.0,0.0,-0.3491157069900377,-0.49312946046058853,-0.5584307645578255,-1.169388495359659,-0.3137191319716677,-0.05891228801569015
13429,8.0,299.85981,4577.5814,0.0,0.0,0.0,-0.1361854183747956,0.0,0.0,-0.3103746872340967,-0.5284447322909345,-0.5526510339999104,-1.1801153688683188,-0.29301193749552673,-0.08196532771259801
13430,8.0,300.43136,4554.3795,0.0,0.0,0.0,-0.13619555951846787,0.0,0.0,-0.3005790513623427,-0.49810274526391357,-0.5857358485176275,-1.184766085502309,-0.27971848121856474,-0.057792951643470244
13431,8.0,300.29936000000004,4409.2569,0.0,0.0,0.0,-0.13620570066214016,0.0,0.0,-0.2526514806347598,-0.4878002816921395,-0.5998522462608074,-1.1755694222946687,-0.2852333076703357,-0.1032422615742179
13432,8.0,300.80177000000003,4345.2807,0.0,0.0,0.0,-0.13621584180581242,0.0,0.0,-0.2444720192025098,-0.5173558143890435,-0.5590289975493665,-1.1675183396500888,-0.3050044313065937,-0.11997027092014388
13433,8.0,300.49088,4509.6695,0.0,0.0,0.0,-0.13622598294948465,0.0,0.0,-0.3003461152968537,-0.5178165594745155,-0.5526642569137156,-1.174780708416829,-0.29910638353450175,-0.1335706609173979
13434,8.0,300.64769,4695.8881,0.0,0.0,0.0,-0.1362361240931569,0.0,0.0,-0.35650272578407965,-0.5224596058052485,-0.5484703944848135,-1.148389900287259,-0.2891488100317657,-0.1288618749201769
13435,8.0,300.4682,4318.3695,0.0,0.0,0.0,-0.1362462652368292,0.0,0.0,-0.28104377181936074,-0.5199445468045315,-0.5116881999546935,-1.151618419080889,-0.28912474534189075,-0.13144067748468488
13436,8.0,300.58476,3989.1758,0.0,0.0,0.0,-0.13625640638050146,0.0,0.0,-0.21587629779533177,-0.47673448615753056,-0.5199990393949095,-1.167254590649059,-0.3222277578314037,-0.12125457555439488
13437,8.0,300.16688,4169.4586,0.0,0.0,0.0,-0.13626654752417372,0.0,0.0,-0.18299348481755084,-0.5226677273757886,-0.5617500806929164,-1.172273218394359,-0.3246700958724437,-0.0994418725301487
13438,8.0,301.05163999999996,4291.1178,0.0,0.0,0.0,-0.13627668866784595,0.0,0.0,-0.2529340659551488,-0.4822161793310315,-0.5692424268348534,-1.160216352804439,-0.3012565509092067,-0.11123067470011289
13439,8.0,299.50811,4289.5341,0.0,0.0,0.0,-0.13628682981151824,0.0,0.0,-0.26203069098041576,-0.5152983695309895,-0.5265821860896155,-1.1535201881935788,-0.2765995656882518,-0.12573232026381387
13440,8.0,300.84533999999996,4310.3402,0.0,0.0,0.0,-0.1362969709551905,0.0,0.0,-0.32435030400838266,-0.4889774351283156,-0.4969080423360055,-1.1556466961784488,-0.28891460740365177,-0.12209472200731088
13441,8.0,299.68354,4443.9477,0.0,0.0,0.0,-0.13630711209886276,0.0,0.0,-0.28898986148857875,-0.5122642225040426,-0.5495950413008075,-1.1649605924226591,-0.28148383647029174,-0.11720155488939289
13442,8.0,299.43227,4561.5189,0.0,0.0,0.0,-0.13631725324253505,0.0,0.0,-0.2719438334662667,-0.5246192268033866,-0.5900248044684144,-1.177505641910759,-0.28769179691796976,-0.1023773614213589
13443,8.0,298.85536,4679.6557,0.0,0.0,0.0,-0.13632739438620728,0.0,0.0,-0.26580252461016673,-0.5346785610136655,-0.6220173759083354,-1.160427412800269,-0.29620107125776973,-0.12289275778607088
13444,8.0,299.53325,4391.9303,0.0,0.0,0.0,-0.13633753552987954,0.0,0.0,-0.2834507879619147,-0.4748543499344756,-0.5767320068040174,-1.1663388152086789,-0.3238125823128137,-0.0984061505694309
13445,8.0,299.47577,4020.2232,0.0,0.0,0.0,-0.1363476766735518,0.0,0.0,-0.25717319026601776,-0.47925760049654254,-0.4856166770641345,-1.164369968939369,-0.3201551750168557,-0.12863381258766887
13446,8.0,299.8638,4319.2114,0.0,0.0,0.0,-0.1363578178172241,0.0,0.0,-0.32447975684115865,-0.48297132423305855,-0.5054813439496245,-1.165315331282669,-0.33139351691099367,-0.09978173687869071
13447,8.0,300.23375,4719.0057,0.0,0.0,0.0,-0.13636795896089635,0.0,0.0,-0.3301064055739657,-0.5202189653291145,-0.5841345181920884,-1.1799219394242288,-0.3118444976966557,-0.11647924942310689
13448,8.0,299.97716,4442.7546,0.0,0.0,0.0,-0.13637810010456858,0.0,0.0,-0.24985656195642275,-0.5044381827066725,-0.5961917282870425,-1.1722973337467388,-0.3083436780711517,-0.0983705409079165
13449,8.0,300.0014,4046.2109,0.0,0.0,0.0,-0.13638824124824084,0.0,0.0,-0.17744036764450083,-0.4845113022650425,-0.5679953996717815,-1.1578321753191387,-0.30255154533201273,-0.12363494321931888
13450,8.0,300.09623999999997,4384.8209,0.0,0.0,0.0,-0.13639838239191313,0.0,0.0,-0.25382978917604976,-0.49665621928865256,-0.5823900662899245,-1.1514462678888988,-0.2689461837079217,-0.11337367839661089
13451,8.0,299.83814,4736.1512,0.0,0.0,0.0,-0.13640852353558539,0.0,0.0,-0.33219527131762067,-0.5378144079531495,-0.5696620238337645,-1.1491132595336488,-0.29115766954752476,-0.13391682768156185
13452,8.0,299.97583,4544.0481,0.0,0.0,0.0,-0.13641866467925765,0.0,0.0,-0.3375304687916637,-0.49748116699006856,-0.5462655116047085,-1.1623730556422889,-0.3039645732589677,-0.13396664918897885
13453,8.0,299.17875,4116.192,0.0,0.0,0.0,-0.13642880582292988,0.0,0.0,-0.25069586741175576,-0.46278899330871753,-0.5377347057002835,-1.1662303974479789,-0.3078818792055757,-0.13783822715857388
13454,8.0,298.93129,4036.495,0.0,0.0,0.0,-0.13643894696660214,0.0,0.0,-0.21108235825970678,-0.4585751698528456,-0.5573361403422945,-1.1440566349095989,-0.3003442711816717,-0.1146745395374959
13455,8.0,299.39602,4306.1216,0.0,0.0,0.0,-0.13644908811027442,0.0,0.0,-0.22537091732737777,-0.48975067667712857,-0.5938318485391404,-1.1801500220217387,-0.3145667258128187,-0.13244528456133187
13456,8.0,300.48073,4553.1483,0.0,0.0,0.0,-0.13645922925394668,0.0,0.0,-0.2968829075150617,-0.49187162191894956,-0.5952888717854374,-1.181736670353329,-0.3143540446168287,-0.1030035499831589
13457,8.0,299.73109,4388.1529,0.0,0.0,0.0,-0.13646937039761894,0.0,0.0,-0.3081089890829897,-0.47201745230449554,-0.5537624680346005,-1.1532299933649388,-0.3131887563393237,-0.1143079355188149
13458,8.0,300.27369,4265.3911,0.0,0.0,0.0,-0.13647951154129118,0.0,0.0,-0.28947822777177673,-0.4777933730420345,-0.5293007867704205,-1.1386928941802388,-0.2940062600836587,-0.10115814797353191
13459,8.0,300.71765,4426.2838,0.0,0.0,0.0,-0.13648965268496346,0.0,0.0,-0.2908472198493857,-0.49420120548886154,-0.5604313356877665,-1.1640004366278989,-0.3113141423293137,-0.13646524287557088
13460,8.0,301.00941,4633.2885,0.0,0.0,0.0,-0.13649979382863572,0.0,0.0,-0.26162007137739074,-0.5083399555292475,-0.6384439737470144,-1.168879945134469,-0.3004400334486227,-0.07443451859686502
13461,8.0,300.44669,4358.5406,0.0,0.0,0.0,-0.13650993497230798,0.0,0.0,-0.2276292086202538,-0.4939860722276295,-0.6032722186608325,-1.1699560167406688,-0.28696485076622574,-0.12038948288401688
13462,8.0,299.75465,4154.8585,0.0,0.0,0.0,-0.13652007611598027,0.0,0.0,-0.23631987499295576,-0.4702884322013546,-0.5563649299889435,-1.1399800257822688,-0.2717471008268508,-0.08195852677792682
13463,8.0,299.54702000000003,4245.9433,0.0,0.0,0.0,-0.1365302172596525,0.0,0.0,-0.2941382764391877,-0.48342471312280455,-0.5130977423013046,-1.1736871075838988,-0.3062197538740367,-0.12055702378805189
13464,8.0,299.85769,4486.2839,0.0,0.0,0.0,-0.13654035840332476,0.0,0.0,-0.3251698916167697,-0.5082644177342925,-0.5302839534749515,-1.197206972880129,-0.2986597124929187,-0.1032184299318659
13465,8.0,299.60868,4530.527,0.0,0.0,0.0,-0.13655049954699702,0.0,0.0,-0.3028739108513277,-0.49473741744178157,-0.5795557625802005,-1.1924649624121288,-0.3141651038706817,-0.1050583299934499
13466,8.0,298.85379,4500.5412,0.0,0.0,0.0,-0.1365606406906693,0.0,0.0,-0.25275495373497175,-0.5303415567431364,-0.5849556358081265,-1.1580450591651488,-0.2688344830168978,-0.12419363919195787
13467,8.0,298.86806,4262.7127,0.0,0.0,0.0,-0.13657078183434157,0.0,0.0,-0.21656945205624079,-0.4897292261725115,-0.5894595426351275,-1.1444379209222288,-0.30287449853638576,-0.1148507741273889
13468,8.0,299.48241,4171.1703,0.0,0.0,0.0,-0.1365809229780138,0.0,0.0,-0.2553127110949028,-0.48492023987290156,-0.5276986559773025,-1.159878636546109,-0.3002639711112467,-0.14292959612855285
13469,8.0,299.51881000000003,4251.0251,0.0,0.0,0.0,-0.13659106412168606,0.0,0.0,-0.27745702858537674,-0.5003708448177575,-0.5143776190326186,-1.160674443174649,-0.3025678079961177,-0.09607934330479291
13470,8.0,299.73212,4302.5875,0.0,0.0,0.0,-0.13660120526535835,0.0,0.0,-0.3035346208440347,-0.4830201324903755,-0.5213244110557135,-1.152815776724059,-0.28904736343175375,-0.14069501488801686
13471,8.0,299.13867,4293.4413,0.0,0.0,0.0,-0.1366113464090306,0.0,0.0,-0.24688512497816475,-0.5295488202623995,-0.5286650128626745,-1.163636477191979,-0.3165787061388857,-0.12728058668161588
13472,8.0,300.03592000000003,4381.2803,0.0,0.0,0.0,-0.13662148755270287,0.0,0.0,-0.23614638631083376,-0.5214407726971975,-0.5742126617553774,-1.1849382366942989,-0.3040026208002227,-0.13678203551933588
13473,8.0,300.01444,4525.9745,0.0,0.0,0.0,-0.1366316286963751,0.0,0.0,-0.2540875296039868,-0.5282400253732314,-0.5934556693070144,-1.1643545675378488,-0.28324011300112273,-0.0960497178983691
13474,8.0,300.23278,4587.8666,0.0,0.0,0.0,-0.1366417698400474,0.0,0.0,-0.2905877264987757,-0.5385901015672045,-0.5654190795700185,-1.176639009100229,-0.2623506044344887,-0.10228765839000589
13475,8.0,300.66393,4830.839,0.0,0.0,0.0,-0.13665191098371965,0.0,0.0,-0.3290547532951757,-0.5710783042935405,-0.5683213824939535,-1.174953264908859,-0.3127860704845817,-0.0988107990896166
13476,8.0,300.50644,4612.6757,0.0,0.0,0.0,-0.1366620521273919,0.0,0.0,-0.3360162678422237,-0.5321100328051716,-0.5340119336403746,-1.189902959534279,-0.32457954171100667,-0.1034677401189709
13477,8.0,300.00272,4237.7398,0.0,0.0,0.0,-0.1366721932710642,0.0,0.0,-0.24419197713987176,-0.49144811377465253,-0.5525269919226684,-1.1554859947125886,-0.3138938568189117,-0.12538558607959388
13478,8.0,300.42463,4304.5114,0.0,0.0,0.0,-0.13668233441473643,0.0,0.0,-0.24275017291007678,-0.4839704192291615,-0.5817433999436034,-1.1738126492712888,-0.3048253292189177,-0.12277019505397489
13479,8.0,299.93514,4653.7183,0.0,0.0,0.0,-0.1366924755584087,0.0,0.0,-0.2661397342434468,-0.5374054196827854,-0.6110689957953144,-1.171670942534919,-0.3310493259845247,-0.1138853291671069
13480,8.0,298.51908,4321.6316,0.0,0.0,0.0,-0.13670261670208095,0.0,0.0,-0.2807091155763327,-0.4992391559135685,-0.5337198339015465,-1.1778628125710089,-0.3050821982517687,-0.1129155170988939
13481,8.0,298.82277999999997,4163.4824,0.0,0.0,0.0,-0.1367127578457532,0.0,0.0,-0.2510637886555668,-0.4848060465866315,-0.5297248623347734,-1.1436351228679988,-0.30022640993003974,-0.09306977569877171
13482,8.0,299.49775,4543.294,0.0,0.0,0.0,-0.1367228989894255,0.0,0.0,-0.2973504413762037,-0.5344634682824375,-0.5492340304226785,-1.156233367986349,-0.27465817849665175,-0.1136923151555579
13483,8.0,299.95855,4751.4029,0.0,0.0,0.0,-0.13673304013309773,0.0,0.0,-0.2922399321118357,-0.5391482402522885,-0.6129196768379624,-1.162140109444299,-0.3307112652211607,-0.09542905458936442
13484,8.0,300.05257,4695.4083,0.0,0.0,0.0,-0.13674318127677,0.0,0.0,-0.26363073447832774,-0.5640254756474804,-0.5996306788614405,-1.173444130209919,-0.31798741762041466,-0.1252366889773989
13485,8.0,299.95686,4419.5462,0.0,0.0,0.0,-0.13675332242044225,0.0,0.0,-0.2669402322199497,-0.4959463565335945,-0.5805450999778404,-1.152832900650749,-0.3157412346662337,-0.0875849394234605
13486,8.0,300.04422,4370.1132,0.0,0.0,0.0,-0.13676346356411453,0.0,0.0,-0.2948513815945657,-0.4888912480748095,-0.5446626816690215,-1.1578063374415888,-0.2979192293198387,-0.09968910150154832
13487,8.0,300.11305,4546.3774,0.0,0.0,0.0,-0.1367736047077868,0.0,0.0,-0.3124602396499247,-0.5226121506078034,-0.5469128061660915,-1.1914266850346589,-0.3227020298057107,-0.1166275588402439
13488,8.0,301.09269,4571.8803,0.0,0.0,0.0,-0.13678374585145903,0.0,0.0,-0.3055266502756327,-0.5024933403322316,-0.5817174810060454,-1.1905826477013588,-0.3073671481547757,-0.11627275918522789
13489,8.0,300.15132,4318.1662,0.0,0.0,0.0,-0.1367938869951313,0.0,0.0,-0.24220123453590076,-0.5104062055306705,-0.5600072803884154,-1.149092487906599,-0.2836198994036047,-0.13864407509560486
13490,8.0,300.53617,4131.2321,0.0,0.0,0.0,-0.13680402813880357,0.0,0.0,-0.2228131498349458,-0.46377929329395257,-0.5691989584055634,-1.140538833212419,-0.2677734277771797,-0.12744191636253788
13491,8.0,300.58464,4418.9155,0.0,0.0,0.0,-0.13681416928247583,0.0,0.0,-0.28613819067214075,-0.5057285161790185,-0.5513732648288044,-1.1467176323222188,-0.3160570748549047,-0.13550858279365588
13492,8.0,300.13671,4626.4688,0.0,0.0,0.0,-0.1368243104261481,0.0,0.0,-0.3114795250106357,-0.5383313478891675,-0.5565201295067604,-1.1707921507231889,-0.3084825743948597,-0.08577594247667641
13493,8.0,300.22587999999996,4350.5423,0.0,0.0,0.0,-0.13683445156982033,0.0,0.0,-0.29676501586592674,-0.4974838521028336,-0.5282073581900075,-1.1809241450981387,-0.2939433271199477,-0.0981318657938611
13494,8.0,299.0502,4259.0836,0.0,0.0,0.0,-0.1368445927134926,0.0,0.0,-0.25657324488180777,-0.4954870907932685,-0.5425947294074305,-1.1812813157583888,-0.2747834162090117,-0.06855885554598223
13495,8.0,299.31284,4568.4465,0.0,0.0,0.0,-0.13685473385716487,0.0,0.0,-0.25361648989749874,-0.5325507965986714,-0.6025263753947234,-1.1924775267133687,-0.3140009674869827,-0.12499318471336689
13496,8.0,299.62733,4726.8019,0.0,0.0,0.0,-0.13686487500083713,0.0,0.0,-0.28364433899601676,-0.5086799617328035,-0.6445054486277354,-1.169721449342519,-0.28817843054349673,-0.07928868166543362
13497,8.0,299.90029,4434.8722,0.0,0.0,0.0,-0.13687501614450942,0.0,0.0,-0.27706773789695677,-0.4971621857260875,-0.5738604762856194,-1.162494037704229,-0.3130126129419397,-0.13451595233319086
13498,8.0,299.471,4337.3312,0.0,0.0,0.0,-0.13688515728818165,0.0,0.0,-0.3039014579102387,-0.46193921084735057,-0.5525997331473474,-1.1424332055993789,-0.3183667784578547,-0.1022542414017079
13499,8.0,300.88457,4484.787,0.0,0.0,0.0,-0.1368952984318539,0.0,0.0,-0.3317794740065847,-0.4939216599187725,-0.5375621289432515,-1.1779797416325488,-0.3439538968731067,-0.13757332305242986
13500,8.0,299.96291,4470.5692,0.0,0.0,0.0,-0.13690543957552617,0.0,0.0,-0.28352767337950274,-0.5036695109158106,-0.5717442426567635,-1.139808786515369,-0.3143453002684657,-0.12008786872674988
13501,8.0,301.61293,4380.7451,0.0,0.0,0.0,-0.13691558071919846,0.0,0.0,-0.23287678022564876,-0.5021283777787126,-0.5966319854554925,-1.1641542479930789,-0.2788161414745108,-0.12387279354779288
13502,8.0,300.78122,4387.0739,0.0,0.0,0.0,-0.13692572186287072,0.0,0.0,-0.22681967245285878,-0.4985840086639105,-0.6081572392479465,-1.1808811832938988,-0.26070228970181275,-0.1053260610673729
13503,8.0,300.09803999999997,4408.8138,0.0,0.0,0.0,-0.13693586300654295,0.0,0.0,-0.2900304389437757,-0.5031407260861235,-0.5469981218245116,-1.1859634431454789,-0.3055677983621937,-0.10784436246840991
13504,8.0,299.2667,4515.0938,0.0,0.0,0.0,-0.1369460041502152,0.0,0.0,-0.31308996445457365,-0.5118168421873895,-0.5475689565333485,-1.1915322656950789,-0.30759822997258174,-0.09111262334886581
13505,8.0,299.54965,4590.177,0.0,0.0,0.0,-0.1369561452938875,0.0,0.0,-0.3274634034831217,-0.5400239112537105,-0.5278118664109755,-1.1538816145042488,-0.30218243858558475,-0.10501499328667291
13506,8.0,299.32056,4549.5531,0.0,0.0,0.0,-0.13696628643755976,0.0,0.0,-0.2679956537891117,-0.5345302515965284,-0.5804246245409505,-1.1808618302169887,-0.33192025497547867,-0.1083037599312489
13507,8.0,299.68842,4530.4072,0.0,0.0,0.0,-0.13697642758123202,0.0,0.0,-0.22773688670838077,-0.5506362773685695,-0.5987575004552644,-1.156096173922809,-0.3264866101217197,-0.13215008427719788
13508,8.0,299.60284,4438.147,0.0,0.0,0.0,-0.13698656872490425,0.0,0.0,-0.25963030149351574,-0.5032030612322755,-0.5862525047436175,-1.1719898123413888,-0.3149698169676007,-0.13217625652728088
13509,8.0,299.73027,4356.3187,0.0,0.0,0.0,-0.13699670986857654,0.0,0.0,-0.26349905249533173,-0.4815969315324165,-0.5791161437593135,-1.153146298906679,-0.26291005021220176,-0.14211276456043787
13510,8.0,300.00235,4358.7612,0.0,0.0,0.0,-0.1370068510122488,0.0,0.0,-0.3046871624352817,-0.5064395137741885,-0.5138278801908636,-1.205652513788639,-0.3084502314516677,-0.13214926354461687
13511,8.0,300.34328999999997,4528.6273,0.0,0.0,0.0,-0.13701699215592106,0.0,0.0,-0.3259312680069117,-0.5175736834255455,-0.5330846578113595,-1.171577824850729,-0.3473777500210147,-0.11500482867259289
13512,8.0,299.76844,4419.5423,0.0,0.0,0.0,-0.13702713329959332,0.0,0.0,-0.28678715709618874,-0.5045525685104615,-0.5520907674896165,-1.1605665320389988,-0.3232827335705217,-0.1010536180534656
13513,8.0,299.27452,4343.6423,0.0,0.0,0.0,-0.13703727444326558,0.0,0.0,-0.2265745773861698,-0.5126418202863086,-0.5811423906467884,-1.139113088996709,-0.2903385885641877,-0.0938296514655156
13514,8.0,300.97522999999995,4563.9424,0.0,0.0,0.0,-0.13704741558693784,0.0,0.0,-0.2904188683696107,-0.5112109692900946,-0.5856946902985655,-1.157593554920589,-0.28679380401684473,-0.10814145753023091
13515,8.0,301.80002,4827.7803,0.0,0.0,0.0,-0.1370575567306101,0.0,0.0,-0.3251157030014217,-0.5340480154764355,-0.6083609430480503,-1.2137133236341788,-0.2981987039624207,-0.08165115938659202
13516,8.0,301.10143,4639.4097,0.0,0.0,0.0,-0.13706769787428236,0.0,0.0,-0.3440175897743927,-0.5137488872130676,-0.5524982257523295,-1.203953901320999,-0.30035243797747774,-0.1149351069332119
13517,8.0,300.87771000000004,4427.8702,0.0,0.0,0.0,-0.13707783901795462,0.0,0.0,-0.3050073595993827,-0.4936452655564946,-0.5473093618577285,-1.1912514940923689,-0.28884531122931273,-0.0948546350016736
13518,8.0,299.98139,4437.8854,0.0,0.0,0.0,-0.13708798016162688,0.0,0.0,-0.26597130167932376,-0.5117709216928574,-0.5712641039643774,-1.181614168416239,-0.33802611021057966,-0.13939053644427488
13519,8.0,299.92169,4508.3941,0.0,0.0,0.0,-0.13709812130529914,0.0,0.0,-0.25637418176716176,-0.5246680654582065,-0.5893969947064543,-1.172742961140719,-0.35764459785177366,-0.1035301360601289
13520,8.0,299.49768,4437.7656,0.0,0.0,0.0,-0.1371082624489714,0.0,0.0,-0.26090984385229676,-0.5086120030485966,-0.5794480946245745,-1.1564480756825388,-0.3204591601793567,-0.1258350942214569
13521,8.0,300.02348,4309.1103,0.0,0.0,0.0,-0.13711840359264366,0.0,0.0,-0.2832562743402177,-0.4813627491693046,-0.5452429092062855,-1.1354731906624789,-0.2618779435278407,-0.1140770664835299
13522,8.0,299.35095,4225.0003,0.0,0.0,0.0,-0.13712854473631592,0.0,0.0,-0.27412110528114675,-0.5079037513611976,-0.5022697565651655,-1.1665989165093489,-0.2781688367806267,-0.10966362262545688
13523,8.0,300.34029,4371.5679,0.0,0.0,0.0,-0.13713868587998818,0.0,0.0,-0.27653150567903473,-0.5098852531242565,-0.5424307348787455,-1.191017737294299,-0.28131389416351976,-0.1107144440391649
13524,8.0,300.0372,4610.9756,0.0,0.0,0.0,-0.13714882702366044,0.0,0.0,-0.27427835156416575,-0.5162546851078704,-0.6110883995347295,-1.1813238722625887,-0.3040513885275357,-0.09426026654601401
13525,8.0,300.64369,4530.5584,0.0,0.0,0.0,-0.1371589681673327,0.0,0.0,-0.24561434723274875,-0.5313545231331085,-0.6002077551908934,-1.1898417592282386,-0.27305848963627477,-0.12352658625362488
13526,8.0,301.21467,4268.6953,0.0,0.0,0.0,-0.13716910931100496,0.0,0.0,-0.23438754625724978,-0.5083230139875755,-0.5548662115010314,-1.1765398119154389,-0.30592206099465674,-0.1168619337208749
13527,8.0,300.8024,4378.6432,0.0,0.0,0.0,-0.13717925045467724,0.0,0.0,-0.25761173504179874,-0.5228738528436315,-0.5505126101938644,-1.220970220850379,-0.3303509534856007,-0.12105193566689587
13528,8.0,299.67211000000003,4553.0825,0.0,0.0,0.0,-0.13718939159834947,0.0,0.0,-0.3180988346014107,-0.5005728058276896,-0.5653517491008735,-1.1849045967909788,-0.2897301521441397,-0.09027305444850682
13529,8.0,300.046,4488.5854,0.0,0.0,0.0,-0.13719953274202176,0.0,0.0,-0.30064814488666175,-0.48837092388345754,-0.5753988027199405,-1.1762344183352988,-0.3034335086165557,-0.11563572884735789
13530,8.0,299.58301,4244.5169,0.0,0.0,0.0,-0.137209673885694,0.0,0.0,-0.25271981422150375,-0.47628018534269456,-0.5612271524488075,-1.1215178996851989,-0.2982772004476677,-0.1284945008314199
13531,8.0,299.69259,4264.5453,0.0,0.0,0.0,-0.13721981502936628,0.0,0.0,-0.27466966875278576,-0.46745738102445156,-0.5541882154616184,-1.167919789339709,-0.3275940012885107,-0.12072626695225488
13532,8.0,300.22902,4609.0777,0.0,0.0,0.0,-0.13722995617303854,0.0,0.0,-0.3014677223625477,-0.5087906289087255,-0.5907861808585565,-1.128671040091159,-0.3057655746492127,-0.1134292754295979
13533,8.0,299.35969,4538.2271,0.0,0.0,0.0,-0.1372400973167108,0.0,0.0,-0.3077667841267167,-0.5121022240780545,-0.5596387005320396,-1.1907182205647386,-0.27775515716229976,-0.1045542076711969
13534,8.0,299.10413,4506.829000000001,0.0,0.0,0.0,-0.13725023846038303,0.0,0.0,-0.2905819205757027,-0.5230088278894526,-0.5563727218822125,-1.1870866308813288,-0.2849687885992297,-0.09449561414674101
13535,8.0,300.7103,4377.9335,0.0,0.0,0.0,-0.13726037960405532,0.0,0.0,-0.26891565448240873,-0.5122183222745125,-0.5496484902435824,-1.2077892555995189,-0.2895910329054097,-0.098321585729335
13536,8.0,300.27488999999997,4347.2572,0.0,0.0,0.0,-0.13727052074772758,0.0,0.0,-0.23184859481917477,-0.5077785947088456,-0.5818304279946924,-1.185448509444659,-0.2932800232069847,-0.12244685681456388
13537,8.0,300.84168,4454.335999999999,0.0,0.0,0.0,-0.13728066189139984,0.0,0.0,-0.2689912632048707,-0.5061737585379604,-0.5788419177522495,-1.146881677513409,-0.30235092181221274,-0.1127440650494729
13538,8.0,300.68259,4390.9865,0.0,0.0,0.0,-0.1372908030350721,0.0,0.0,-0.2403220912979438,-0.5306294312290475,-0.5637987508051044,-1.1560854334717487,-0.35086564057524267,-0.13701625841245188
13539,8.0,300.43331,4188.8896,0.0,0.0,0.0,-0.13730094417874436,0.0,0.0,-0.27010728726251376,-0.4814696571873555,-0.5217408973768175,-1.160745472006659,-0.3238301318045457,-0.12175231440101787
13540,8.0,299.71467,4195.1727,0.0,0.0,0.0,-0.13731108532241662,0.0,0.0,-0.26494774682580674,-0.4962707384206086,-0.5140092722237655,-1.1821459220687187,-0.3081430849488547,-0.12843492172553986
13541,8.0,299.76726,4471.2819,0.0,0.0,0.0,-0.13732122646608888,0.0,0.0,-0.26965868091323975,-0.5094911900278656,-0.5800081888823515,-1.1837708712540889,-0.2721381241729417,-0.12072003546413988
13542,8.0,298.81942999999995,4413.1008,0.0,0.0,0.0,-0.13733136760976114,0.0,0.0,-0.25808628059363276,-0.5132066464220525,-0.5701795210573375,-1.1988157100638988,-0.3062897491909447,-0.14060609205924085
13543,8.0,299.84247999999997,4499.0219,0.0,0.0,0.0,-0.1373415087534334,0.0,0.0,-0.2719274289471478,-0.5277013714875705,-0.5679615064559365,-1.186298119653509,-0.30009890253745575,-0.12065648441786789
13544,8.0,300.50732,4506.068,0.0,0.0,0.0,-0.13735164989710566,0.0,0.0,-0.3007275026344937,-0.5191985718159094,-0.5498060708991345,-1.1561578808538988,-0.3203968756957097,-0.12729104342264788
13545,8.0,300.84664,4356.8203,0.0,0.0,0.0,-0.13736179104077792,0.0,0.0,-0.2952264969140867,-0.47710083686368654,-0.5520372273543325,-1.170908573159679,-0.30555876017130174,-0.09721396556802141
13546,8.0,300.41062,4480.2782,0.0,0.0,0.0,-0.13737193218445018,0.0,0.0,-0.2763015890988437,-0.5301205364988235,-0.5554705645231764,-1.178057356590209,-0.3270584276831537,-0.1059458154910379
13547,8.0,300.32841,4582.6677,0.0,0.0,0.0,-0.13738207332812247,0.0,0.0,-0.2783714361381217,-0.5072137989706045,-0.6074313266113044,-1.179439328401599,-0.3021088462308217,-0.08026046146534083
13548,8.0,298.75946,4331.7404,0.0,0.0,0.0,-0.1373922144717947,0.0,0.0,-0.25024801086755577,-0.48759281873416455,-0.5789000884404905,-1.191186544760959,-0.27845828180419274,-0.13141868995751488
13549,8.0,299.67977,4371.3358,0.0,0.0,0.0,-0.13740235561546696,0.0,0.0,-0.25318593966500674,-0.5090464137639695,-0.5665445673835955,-1.174134052203009,-0.2779981750662837,-0.11008901541493989
13550,8.0,299.1038,4473.5126,0.0,0.0,0.0,-0.13741249675913922,0.0,0.0,-0.28493729678612173,-0.5052981280665425,-0.5696006918052114,-1.1938685164506488,-0.31879745028035866,-0.15028024937650586
13551,8.0,299.02002999999996,4558.1814,0.0,0.0,0.0,-0.1374226379028115,0.0,0.0,-0.3209851889687717,-0.5131357290475536,-0.5514524097941155,-1.186623372935609,-0.31797309026400067,-0.08506240162375542
13552,8.0,299.45412000000005,4422.7495,0.0,0.0,0.0,-0.13743277904648377,0.0,0.0,-0.27794384459592175,-0.5058743735309136,-0.5605871938181485,-1.1710693759505488,-0.32333930332360467,-0.11289587017945489
13553,8.0,300.4757,4350.8389,0.0,0.0,0.0,-0.137442920190156,0.0,0.0,-0.26278557243741674,-0.48176206090121354,-0.5779987416815345,-1.1560988083730688,-0.2843697956701137,-0.09292244913423173
13554,8.0,300.60022999999995,4484.6283,0.0,0.0,0.0,-0.13745306133382826,0.0,0.0,-0.25133661637749277,-0.5310483594828925,-0.5808300563034635,-1.143885496967709,-0.27836224595971476,-0.14407277528887585
13555,8.0,301.34058999999996,4649.2698,0.0,0.0,0.0,-0.13746320247750055,0.0,0.0,-0.27746184152335174,-0.5330464380175874,-0.6027536372596524,-1.167099056758709,-0.27929280471905377,-0.11943368406468688
13556,8.0,299.12225,4625.7932,0.0,0.0,0.0,-0.1374733436211728,0.0,0.0,-0.30160082289568374,-0.5330836445612596,-0.5714411592868515,-1.164451535572419,-0.2807385606242387,-0.13095314206656888
13557,8.0,299.66485,4434.2459,0.0,0.0,0.0,-0.13748348476484507,0.0,0.0,-0.28290314654786675,-0.5239850639632995,-0.5410118301012106,-1.1902476672182989,-0.3227789050907977,-0.11816807389478089
13558,8.0,300.00834,4195.3599,0.0,0.0,0.0,-0.1374936259085173,0.0,0.0,-0.2214698031173678,-0.4861660004733485,-0.5676488580050805,-1.166950818269079,-0.3214100447357017,-0.12005006436551888
13559,8.0,300.30687,4337.782999999999,0.0,0.0,0.0,-0.13750376705218958,0.0,0.0,-0.2382817602340788,-0.5091403623132416,-0.5711555848786675,-1.187095040857159,-0.3074203539175267,-0.11219701132048289
13560,8.0,298.50989,4603.4781,0.0,0.0,0.0,-0.13751390819586184,0.0,0.0,-0.2798609745801277,-0.4946382506544945,-0.6248431581847184,-1.1634398053475687,-0.26767176839464674,-0.08421037886641733
13561,8.0,299.39292,4597.1393,0.0,0.0,0.0,-0.1375240493395341,0.0,0.0,-0.29489177987605275,-0.4965906113446776,-0.6059331755434484,-1.189640730408399,-0.27803660764257676,-0.10081608284577272
13562,8.0,299.69569,4450.7217,0.0,0.0,0.0,-0.1375341904832064,0.0,0.0,-0.2801860150797067,-0.5069675690638035,-0.5657546882681405,-1.1617676387075389,-0.29541412043510373,-0.12186756146739189
13563,8.0,301.2595,4631.6969,0.0,0.0,0.0,-0.13754433162687862,0.0,0.0,-0.33074300021429265,-0.5131989153237895,-0.5639782987228245,-1.1711092980044888,-0.3158950460314137,-0.09191885632093481
13564,8.0,300.34057,4712.4157,0.0,0.0,0.0,-0.13755447277055088,0.0,0.0,-0.2977980243428767,-0.5096837987393745,-0.6249748705652175,-1.159385893022479,-0.3181805734869777,-0.1040901897879019
13565,8.0,299.59292,4499.226,0.0,0.0,0.0,-0.13756461391422314,0.0,0.0,-0.2964979332720677,-0.5046638740339465,-0.5664905611532655,-1.1660834761834789,-0.3193268633251077,-0.09295279090847622
13566,8.0,299.41606,4313.1174,0.0,0.0,0.0,-0.13757475505789543,0.0,0.0,-0.24336142616540277,-0.49778810071036056,-0.5699304743152585,-1.184675500943369,-0.32204326525319565,-0.09279117549102602
13567,8.0,300.51167999999996,4226.7422,0.0,0.0,0.0,-0.1375848962015677,0.0,0.0,-0.25317549305647574,-0.5102899857442006,-0.5213586082465885,-1.1752245119606288,-0.2869784587150687,-0.10736902658149788
13568,8.0,299.56809,4260.3640000000005,0.0,0.0,0.0,-0.13759503734523992,0.0,0.0,-0.27771142528798376,-0.5026189934771326,-0.5147138458133016,-1.1850409802544388,-0.26358963705427174,-0.12243229641062688
13569,8.0,300.26905,4617.1826,0.0,0.0,0.0,-0.13760517848891218,0.0,0.0,-0.32287996665577173,-0.5137817266488085,-0.5668465159133955,-1.1816381824436089,-0.3131564437936347,-0.12874865435400287
13570,8.0,299.64779,4598.5887,0.0,0.0,0.0,-0.13761531963258447,0.0,0.0,-0.2728159783573407,-0.5499095338668455,-0.5751306258159734,-1.170102026080079,-0.3128696940153347,-0.13567626555270487
13571,8.0,299.92258,4113.5213,0.0,0.0,0.0,-0.13762546077625673,0.0,0.0,-0.23111218491149677,-0.47791134575117755,-0.5413842400429645,-1.1747130233101488,-0.3222925855728017,-0.1109160605440629
13572,8.0,300.49249,4339.7358,0.0,0.0,0.0,-0.137635601919929,0.0,0.0,-0.24132980905239776,-0.5101240255103214,-0.5677174753018525,-1.1633318942119188,-0.3078851317383967,-0.1047498358680039
13573,8.0,300.44514,4598.3529,0.0,0.0,0.0,-0.13764574306360122,0.0,0.0,-0.2977090305865937,-0.5206155108882505,-0.5794598989882395,-1.1948991944523688,-0.3142143174280387,-0.1145394834316669
13574,8.0,299.38077000000004,4419.4005,0.0,0.0,0.0,-0.1376558842072735,0.0,0.0,-0.2823298293762847,-0.5280824852476835,-0.5329750849455456,-1.219845411914369,-0.2857513317839607,-0.12368693308194988
13575,8.0,299.66042999999996,4229.5708,0.0,0.0,0.0,-0.13766602535094577,0.0,0.0,-0.23897224964722477,-0.5092241884940145,-0.5374874726758835,-1.186929374465809,-0.2863427861323327,-0.13359959934025387
13576,8.0,299.97067999999996,4365.7621,0.0,0.0,0.0,-0.13767616649461803,0.0,0.0,-0.24064906710521378,-0.5097330426942345,-0.5767005555209135,-1.1757241455849388,-0.26777020564186177,-0.13904763234543288
13577,8.0,299.95009,4641.5366,0.0,0.0,0.0,-0.1376863076382903,0.0,0.0,-0.30437295357927174,-0.5044239870727716,-0.6021142865790534,-1.141979370879589,-0.3047891561903477,-0.09030577330748592
13578,8.0,300.25712000000004,4672.7815,0.0,0.0,0.0,-0.13769644878196252,0.0,0.0,-0.2914604996049117,-0.5334870194260695,-0.5954613877474634,-1.1780915031185788,-0.3215105388806197,-0.11786959068032289
13579,8.0,299.71151000000003,4480.3293,0.0,0.0,0.0,-0.1377065899256348,0.0,0.0,-0.2989188512059937,-0.4893783579278836,-0.5736110039784985,-1.1480757927562588,-0.3179572126349337,-0.07363252404996433
13580,8.0,300.8577,4362.7345,0.0,0.0,0.0,-0.13771673106930707,0.0,0.0,-0.3159369743205517,-0.4804194234587056,-0.5298059426077756,-1.190121618905859,-0.3165825564892657,-0.10995186188140389
13581,8.0,301.18165,4534.0903,0.0,0.0,0.0,-0.13772687221297933,0.0,0.0,-0.2863083660264357,-0.5112688765333095,-0.5806729924054624,-1.162841987788569,-0.3239098036599087,-0.07527248858856622
13582,8.0,299.83819,4622.2753,0.0,0.0,0.0,-0.13773701335665162,0.0,0.0,-0.30052276531928773,-0.5130428849408906,-0.5914906125930784,-1.2063607756085388,-0.3081013897072397,-0.11409997606829088
13583,8.0,299.24811,4532.2513,0.0,0.0,0.0,-0.13774715450032385,0.0,0.0,-0.26991871128640277,-0.49834397984772155,-0.6094285438834145,-1.174853155798979,-0.29572008143529976,-0.06575242634650924
13584,8.0,299.47531000000004,4180.1434,0.0,0.0,0.0,-0.1377572956439961,0.0,0.0,-0.2279105881730238,-0.4848228260082876,-0.5579257911054885,-1.1685437487512889,-0.27338072343307673,-0.12394687226260387
13585,8.0,299.8839,4460.7121,0.0,0.0,0.0,-0.13776743678766837,0.0,0.0,-0.2871216005566957,-0.4998168503255825,-0.5690066435365835,-1.1496116772578389,-0.3112644525444097,-0.1059064608571539
13586,8.0,299.55251,4740.6549,0.0,0.0,0.0,-0.13777757793134066,0.0,0.0,-0.3211701172445227,-0.5289441531327235,-0.5909264450698994,-1.1545244203676888,-0.2993683390828547,-0.1258165517446269
13587,8.0,299.51071,4434.304,0.0,0.0,0.0,-0.13778771907501292,0.0,0.0,-0.2508922352811358,-0.5173343132219216,-0.5796911429260615,-1.160172073775069,-0.28985761900671975,-0.12199535257000388
13588,8.0,299.63313,4171.8201,0.0,0.0,0.0,-0.13779786021868515,0.0,0.0,-0.22908263482869579,-0.49133094153308854,-0.5477155738228184,-1.1727303968394789,-0.26871678388528175,-0.1263498961997639
13589,8.0,300.64932000000005,4404.807,0.0,0.0,0.0,-0.1378080013623574,0.0,0.0,-0.26643958534553974,-0.4892648131216776,-0.5832469313694905,-1.1905680568999188,-0.3312069066400767,-0.1102547223362939
13590,8.0,300.95555,4393.5331,0.0,0.0,0.0,-0.1378181425060297,0.0,0.0,-0.2558187889898487,-0.5125864664333455,-0.5671190903227965,-1.196069903617909,-0.3155130912737177,-0.0992208867363391
13591,8.0,300.2378,4385.7547,0.0,0.0,0.0,-0.13782828364970195,0.0,0.0,-0.29550904170447173,-0.48725502141582655,-0.5503958736498435,-1.189994658668329,-0.3289052989054257,-0.11660020108754389
13592,8.0,298.81057000000004,4578.5507,0.0,0.0,0.0,-0.13783842479337421,0.0,0.0,-0.3079681067890857,-0.5179632578239936,-0.5658337116434394,-1.161487475054889,-0.3021660239339647,-0.11498492844062888
13593,8.0,300.46916,4574.0353,0.0,0.0,0.0,-0.13784856593704645,0.0,0.0,-0.2966107586707027,-0.5047868116685795,-0.5889949471992755,-1.176264714513289,-0.31792293438405067,-0.11663778253375288
13594,8.0,300.77358,4492.8422,0.0,0.0,0.0,-0.13785870708071873,0.0,0.0,-0.2852229725193157,-0.5147715605389975,-0.5657173094719514,-1.1736600538062287,-0.2889729402119087,-0.12197520915801588
13595,8.0,299.42514,4574.3929,0.0,0.0,0.0,-0.137868848224391,0.0,0.0,-0.2805820641462937,-0.5151809338443994,-0.5947382311510935,-1.150891006834099,-0.28463417288620574,-0.1006054555077354
13596,8.0,299.96547999999996,4696.9495,0.0,0.0,0.0,-0.13787898936806325,0.0,0.0,-0.3091711183678137,-0.5046460408321866,-0.6139382059709834,-1.1769860472594789,-0.26533098841112973,-0.0945834213871569
13597,8.0,299.74071000000004,4452.4795,0.0,0.0,0.0,-0.13788913051173554,0.0,0.0,-0.2911993850541417,-0.5233232191304805,-0.5389199955347626,-1.191163746633709,-0.33655128416002567,-0.09987823983146481
13598,8.0,300.36143,4270.8931,0.0,0.0,0.0,-0.13789927165540777,0.0,0.0,-0.2640592886081228,-0.48110377257624554,-0.5530817970149234,-1.213867134999359,-0.3199775624068267,-0.12233206571073488
13599,8.0,299.91443,4360.6831,0.0,0.0,0.0,-0.13790941279908003,0.0,0.0,-0.2560909580992098,-0.49914483246175945,-0.5703029855820224,-1.194136318452079,-0.3258268221866037,-0.1005899294764531
13600,8.0,299.44507000000004,4358.2632,0.0,0.0,0.0,-0.1379195539427523,0.0,0.0,-0.2505888276711918,-0.49300357426816455,-0.5812107850285384,-1.1666497816643688,-0.2725627570248498,-0.11383429175956988
13601,8.0,298.47057,4387.744000000001,0.0,0.0,0.0,-0.13792969508642455,0.0,0.0,-0.26852188522854675,-0.49880636639835557,-0.5664363725379175,-1.1939208001558088,-0.29499186872093075,-0.12732061006056586
13602,8.0,300.06288,4519.5704,0.0,0.0,0.0,-0.13793983623009684,0.0,0.0,-0.31465828309185473,-0.48526569736199554,-0.5739125776057615,-1.1810553609860888,-0.27799835745130175,-0.08334347450486052
13603,8.0,300.31939,4480.420999999999,0.0,0.0,0.0,-0.13794997737376907,0.0,0.0,-0.3222924234527857,-0.5114980230434245,-0.5281456512589175,-1.1724241926592591,-0.3013315111516047,-0.13624340189867687
13604,8.0,299.22827,4591.3984,0.0,0.0,0.0,-0.13796011851744133,0.0,0.0,-0.29820667824070773,-0.5194687245575715,-0.5779950433186694,-1.173884691353399,-0.3109750581833487,-0.10064399346203881
13605,8.0,299.44129,4895.1402,0.0,0.0,0.0,-0.1379702596611136,0.0,0.0,-0.32143783818594474,-0.5819452494960244,-0.5846173014672355,-1.162892548968559,-0.34709156766277066,-0.17011086092613484
13606,8.0,300.54482,4612.987,0.0,0.0,0.0,-0.13798040080478588,0.0,0.0,-0.26126465363981377,-0.5296231320247334,-0.6113450659175603,-1.188074347078809,-0.3262597231593277,-0.1019358579552859
13607,8.0,300.62835,4118.2682,0.0,0.0,0.0,-0.13799054194845814,0.0,0.0,-0.22070009781140382,-0.4801287220050155,-0.5510218798266254,-1.174459305485109,-0.29214121115459274,-0.14176980979909087
13608,8.0,300.74197999999996,4370.8873,0.0,0.0,0.0,-0.13800068309213037,0.0,0.0,-0.27686073090152674,-0.5020098680470165,-0.5497699991955745,-1.1823108791849988,-0.28314050038379174,-0.10553397998789289
13609,8.0,300.36824,4577.8423,0.0,0.0,0.0,-0.13801082423580263,0.0,0.0,-0.33148689804020964,-0.4804373478529745,-0.5796255045845835,-1.167178191591519,-0.2921221215227087,-0.09473263867638351
13610,8.0,299.82456,4578.1412,0.0,0.0,0.0,-0.13802096537947492,0.0,0.0,-0.28382016828586976,-0.5377492154417155,-0.5700712350191505,-1.162877552867079,-0.3163024840291247,-0.12907729189143688
13611,8.0,299.79384,4322.0539,0.0,0.0,0.0,-0.13803110652314718,0.0,0.0,-0.25357230206063774,-0.4778137292365436,-0.5824104224844334,-1.1702422598939188,-0.29227976297326674,-0.100581579282379
13612,8.0,300.11635,4324.2147,0.0,0.0,0.0,-0.13804124766681944,0.0,0.0,-0.2477896837399378,-0.4707353261579595,-0.5959282629960404,-1.181734542528119,-0.3019201385321977,-0.09886206954467659
13613,8.0,299.97869,4568.0738,0.0,0.0,0.0,-0.13805138881049167,0.0,0.0,-0.2705970923608537,-0.5352362538687055,-0.5827470343001545,-1.192686661534009,-0.3064386969556447,-0.1092198393466589
13614,8.0,300.06908,4590.9274,0.0,0.0,0.0,-0.13806152995416396,0.0,0.0,-0.33212720117590266,-0.4900776828819015,-0.5733224100850164,-1.2215341958560388,-0.30359046105704574,-0.08576855790994761
13615,8.0,299.79887,4527.1616,0.0,0.0,0.0,-0.13807167109783622,0.0,0.0,-0.2997495643004787,-0.5309417453073705,-0.5454527836994985,-1.1878216425038688,-0.30907834518865773,-0.12307224490878489
13616,8.0,300.63773,4196.3101,0.0,0.0,0.0,-0.13808181224150848,0.0,0.0,-0.24743726522265674,-0.4783194119639505,-0.5498168214826954,-1.183018229079809,-0.30228329750053873,-0.11277421937244889
13617,8.0,299.93866,4350.9761,0.0,0.0,0.0,-0.13809195338518074,0.0,0.0,-0.23232402189859575,-0.5142030360403884,-0.5760610427202985,-1.1457421764509488,-0.30156751736489673,-0.13838994183802386
13618,8.0,300.29784,4714.9857,0.0,0.0,0.0,-0.138102094528853,0.0,0.0,-0.26262945086200873,-0.5371808733281245,-0.6334276156819384,-1.1444935483527188,-0.3190834401210837,-0.1087304395483589
13619,8.0,300.72369,4639.2251,0.0,0.0,0.0,-0.13811223567252526,0.0,0.0,-0.29389553211273073,-0.5097840193067655,-0.6065290375297554,-1.157207101332449,-0.2918794785212617,-0.09509984253912372
13620,8.0,300.83137999999997,4220.1069,0.0,0.0,0.0,-0.13812237681619752,0.0,0.0,-0.27375195800471475,-0.4871380011617776,-0.5219171420992115,-1.1849539420708488,-0.3094080466386967,-0.0971600373579491
13621,8.0,300.38495,4377.7535,0.0,0.0,0.0,-0.1381325179598698,0.0,0.0,-0.27537277312967673,-0.5213659543098135,-0.5339890341881145,-1.2014154058454687,-0.2980019915880067,-0.1220309075160129
13622,8.0,300.64263,4598.1186,0.0,0.0,0.0,-0.13814265910354204,0.0,0.0,-0.29561648674507573,-0.5262753942243374,-0.5758213482766424,-1.1962308077337886,-0.3228130820166707,-0.1140396370248359
13623,8.0,300.10038,4508.0083,0.0,0.0,0.0,-0.1381528002472143,0.0,0.0,-0.2564317343728418,-0.5540283043308365,-0.5598619195290694,-1.1812960078848387,-0.32583320566223367,-0.13284612630089188
13624,8.0,299.72278,4520.4238,0.0,0.0,0.0,-0.13816294139088656,0.0,0.0,-0.25483109305737073,-0.5233196727551305,-0.5959451842727104,-1.170294746249099,-0.33018023097625165,-0.11102806521011689
13625,8.0,299.90812,4453.1064,0.0,0.0,0.0,-0.13817308253455884,0.0,0.0,-0.2818960874059777,-0.5116389661323345,-0.5600980979948785,-1.1904902392922387,-0.3187964674277617,-0.1176836491544719
13626,8.0,299.91739,4412.8939,0.0,0.0,0.0,-0.13818322367823108,0.0,0.0,-0.28911065103299977,-0.5227619495025875,-0.5295369652362295,-1.157982237658949,-0.2950700510986467,-0.11206734570518591
13627,8.0,300.14727,4490.6786,0.0,0.0,0.0,-0.13819336482190336,0.0,0.0,-0.3046938498859417,-0.4901014131992435,-0.5702588889376704,-1.1798957975716489,-0.26371728630186975,-0.1086089001988639
13628,8.0,299.58597000000003,4575.2343,0.0,0.0,0.0,-0.1382035059655756,0.0,0.0,-0.2932654830680497,-0.5164671737863415,-0.5810243267451365,-1.1470289027529388,-0.27141532221410675,-0.10656767747491089
13629,8.0,300.85261,4513.7533,0.0,0.0,0.0,-0.13821364710924788,0.0,0.0,-0.25812095401205476,-0.5202212248768375,-0.5937261158912055,-1.1822234357013688,-0.28376972869589173,-0.11187853668155189
13630,8.0,300.16966,4564.8956,0.0,0.0,0.0,-0.13822378825292014,0.0,0.0,-0.2627271180391478,-0.5301512177118515,-0.5947359513383684,-1.173980950112899,-0.3174705587444047,-0.1033272833901089
13631,8.0,299.82156000000003,4792.3584,0.0,0.0,0.0,-0.1382339293965924,0.0,0.0,-0.34804933218729467,-0.5442998165432095,-0.5644081295477454,-1.197527970511809,-0.3225166151699117,-0.09295748022993901
13632,8.0,301.02685,4782.0352,0.0,0.0,0.0,-0.13824407054026466,0.0,0.0,-0.34613987250634565,-0.5280622101131824,-0.5794172006290255,-1.1870107384488386,-0.3262623981395917,-0.09071490140636372
13633,8.0,301.8074,4513.1959,0.0,0.0,0.0,-0.13825421168393692,0.0,0.0,-0.29499940730167473,-0.5430177815891825,-0.5338816803400195,-1.194335928721779,-0.3075799712057797,-0.1206322576079769
13634,8.0,301.22062999999997,4402.1592,0.0,0.0,0.0,-0.13826435282760918,0.0,0.0,-0.2564194639141308,-0.5124772684700686,-0.5692497526330765,-1.1767698196881387,-0.3068391941901707,-0.12685565998717888
13635,8.0,301.29762999999997,4545.3611,0.0,0.0,0.0,-0.13827449397128144,0.0,0.0,-0.23884057779672974,-0.5161116040612496,-0.6267240948753524,-1.1721711841092888,-0.26513752856953676,-0.12795217898039687
13636,8.0,299.8016,4435.3849,0.0,0.0,0.0,-0.1382846351149537,0.0,0.0,-0.25845313792483876,-0.5154182572828214,-0.5743748628313855,-1.175201105883319,-0.30417196528943574,-0.12520376848164988
13637,8.0,299.4522,4298.517,0.0,0.0,0.0,-0.13829477625862596,0.0,0.0,-0.28262194938011476,-0.4877465997018415,-0.5362732748160515,-1.1893991715845589,-0.3093888759468047,-0.11852339030734788
13638,8.0,299.7346,4265.9029,0.0,0.0,0.0,-0.13830491740229822,0.0,0.0,-0.25727898370895874,-0.5150769237216345,-0.5243720748389945,-1.1966196931221686,-0.3273649054409007,-0.1209026231321599
13639,8.0,299.25264,4248.5809,0.0,0.0,0.0,-0.13831505854597048,0.0,0.0,-0.25371512979473376,-0.5003745229156206,-0.5373728538245715,-1.187535500675629,-0.2943119981688327,-0.11641178723144889
13640,8.0,299.10906,4606.4079,0.0,0.0,0.0,-0.13832519968964274,0.0,0.0,-0.27248919506758973,-0.5353584113007616,-0.5923853630938835,-1.156298823942809,-0.30211792495171774,-0.13075288331680487
13641,8.0,299.34722,4792.6584,0.0,0.0,0.0,-0.138335340833315,0.0,0.0,-0.2816004615568017,-0.5624759629320555,-0.6127720665633944,-1.162546524059409,-0.3028206341610697,-0.1317248434752299
13642,8.0,300.41696,4438.7707,0.0,0.0,0.0,-0.13834548197698726,0.0,0.0,-0.27899911417756873,-0.5088578580528605,-0.5614185047301925,-1.1670829460821188,-0.3029326793571277,-0.098622733791556
13643,8.0,299.93448,4332.6748,0.0,0.0,0.0,-0.13835562312065952,0.0,0.0,-0.2963430174642787,-0.4960542474042425,-0.5246276773092204,-1.1733206150227289,-0.2950381438529977,-0.09708755755179592
13644,8.0,300.20662999999996,4696.2435,0.0,0.0,0.0,-0.13836576426433178,0.0,0.0,-0.3265976927301827,-0.5284749170114136,-0.5724681693232094,-1.1878709877837388,-0.3062108271406557,-0.0910462716793174
13645,8.0,300.36341,4800.6068,0.0,0.0,0.0,-0.13837590540800404,0.0,0.0,-0.33465611130548667,-0.5199806894355985,-0.6046278054396185,-1.1948723433247188,-0.3246823156686497,-0.09349623240085972
13646,8.0,300.16111,4603.3,0.0,0.0,0.0,-0.1383860465516763,0.0,0.0,-0.2657805472154977,-0.5393585504430445,-0.5941491478079555,-1.185396327064509,-0.32226471106255067,-0.13237400241679687
13647,8.0,299.39858,4403.3762,0.0,0.0,0.0,-0.1383961876953486,0.0,0.0,-0.24178328913465275,-0.49028933056278956,-0.6064437826663415,-1.175158346729099,-0.2556617757543528,-0.1025676903201429
13648,8.0,299.54711000000003,4320.4311,0.0,0.0,0.0,-0.13840632883902082,0.0,0.0,-0.25947068420526276,-0.4896870445708485,-0.5641454647243225,-1.1888677219071089,-0.2851540917775177,-0.12605678321083588
13649,8.0,299.48051,4657.6931,0.0,0.0,0.0,-0.13841646998269308,0.0,0.0,-0.31376688644888073,-0.5200771305801165,-0.5819783726417934,-1.1700459933495488,-0.2820292082041157,-0.1032223816072559
13650,8.0,298.98862,4712.5792,0.0,0.0,0.0,-0.13842661112636537,0.0,0.0,-0.32114188809673666,-0.5216670314445275,-0.5896974841561105,-1.1812540593306988,-0.3101283357372837,-0.1388627851296899
13651,8.0,299.18981,4453.9311,0.0,0.0,0.0,-0.13843675227003763,0.0,0.0,-0.2768902468769398,-0.5180455337321135,-0.5589480591313785,-1.1562761271405688,-0.28523114944762273,-0.08959067204941092
13652,8.0,300.27657,4319.2275,0.0,0.0,0.0,-0.1384468934137099,0.0,0.0,-0.24666702289413975,-0.49654646403782055,-0.5697238016923615,-1.1742576687152089,-0.3092850684740597,-0.1335795572532759
13653,8.0,299.6909,4677.0655,0.0,0.0,0.0,-0.13845703455738212,0.0,0.0,-0.2887477352446827,-0.5331400521943265,-0.5998233483679555,-1.1784311445520987,-0.3103957729686777,-0.09022573972183721
13654,8.0,300.02529,4698.313,0.0,0.0,0.0,-0.13846717570105438,0.0,0.0,-0.3106563302318927,-0.5506238954523475,-0.5668896094401484,-1.199026972709749,-0.3163831286045837,-0.11908955393322389
13655,8.0,300.14186,4429.0427,0.0,0.0,0.0,-0.13847731684472667,0.0,0.0,-0.29606013830136074,-0.49390053365418757,-0.5563577156482314,-1.1936381033779089,-0.28950280921920274,-0.08181244651100983
13656,8.0,300.47996,4322.0301,0.0,0.0,0.0,-0.13848745798839893,0.0,0.0,-0.25980963662871476,-0.5172087310045275,-0.5367708414101575,-1.176165010703449,-0.3251997318322147,-0.1322569112352409
13657,8.0,300.94717,4505.7429999999995,0.0,0.0,0.0,-0.1384975991320712,0.0,0.0,-0.27669261244493476,-0.5163354208758385,-0.5766053404090165,-1.181861502765649,-0.3226677414223267,-0.1187455453917729
13658,8.0,300.11601,4622.7871,0.0,0.0,0.0,-0.13850774027574342,0.0,0.0,-0.26766368265884877,-0.5230371786272505,-0.6145109861200124,-1.151323968601829,-0.3234846945804537,-0.14558807054842385
13659,8.0,299.27067,4491.3883,0.0,0.0,0.0,-0.1385178814194157,0.0,0.0,-0.27793186797973973,-0.5105874253110555,-0.5767505898108515,-1.1714441771625388,-0.2942932023794777,-0.12157155058317788
13660,8.0,300.37431000000004,4252.5138,0.0,0.0,0.0,-0.13852802256308797,0.0,0.0,-0.2552084881896167,-0.4864292225843266,-0.5510203194214716,-1.187370138259309,-0.2758258175143887,-0.11679545438181388
13661,8.0,299.77576,4276.0799,0.0,0.0,0.0,-0.13853816370676023,0.0,0.0,-0.27102335654542276,-0.48988780994566256,-0.5389103595263115,-1.209738343491879,-0.29685016940433073,-0.091934847434013
13662,8.0,299.77817999999996,4633.7053,0.0,0.0,0.0,-0.13854830485043249,0.0,0.0,-0.29403728580172067,-0.5521597495564244,-0.5623336620880115,-1.1864652045949988,-0.2987940593236777,-0.11623992988198788
13663,8.0,299.45198,4799.5542,0.0,0.0,0.0,-0.13855844599410475,0.0,0.0,-0.32634110740735967,-0.5065933859343745,-0.6260101487223914,-1.1919415174104688,-0.3074277810407597,-0.07536846971753883
13664,8.0,299.17036,4433.6599,0.0,0.0,0.0,-0.138568587137777,0.0,0.0,-0.25514791609863874,-0.5078801730313706,-0.5846938018497855,-1.182729959426359,-0.3217107571003797,-0.11984225690250988
13665,8.0,300.54197,4323.8173,0.0,0.0,0.0,-0.13857872828144926,0.0,0.0,-0.25869637874384477,-0.4994281574547215,-0.5562079674159525,-1.190420629010369,-0.3152596774237077,-0.10691882942956689
13666,8.0,300.983,4576.6904,0.0,0.0,0.0,-0.13858886942512152,0.0,0.0,-0.3051341779818987,-0.5079360740393875,-0.5781293496194244,-1.178086132893049,-0.2942444549171667,-0.12401393928672287
13667,8.0,300.41157999999996,4644.4583,0.0,0.0,0.0,-0.1385990105687938,0.0,0.0,-0.3398606704441367,-0.5207258740891425,-0.5512128065429686,-1.1795964834921089,-0.2834885821906447,-0.10070120561568521
13668,8.0,300.96922,4548.1927,0.0,0.0,0.0,-0.13860915171246604,0.0,0.0,-0.2789755459802427,-0.5170432166006925,-0.5865182295823425,-1.1972520625095788,-0.29610372832066273,-0.11731773414585889
13669,8.0,300.53533999999996,4421.7382,0.0,0.0,0.0,-0.1386192928561383,0.0,0.0,-0.2500114574992098,-0.5136084406167065,-0.5804781140137295,-1.189925757661529,-0.3282031571161297,-0.0975781854092171
13670,8.0,299.70654,4420.3169,0.0,0.0,0.0,-0.13862943399981056,0.0,0.0,-0.22277774687645177,-0.5375187821039735,-0.5833694434390815,-1.1734630779867887,-0.32654175119216167,-0.14488409477644687
13671,8.0,298.97681,4457.1476,0.0,0.0,0.0,-0.13863957514348285,0.0,0.0,-0.2961527088304967,-0.49189306229106555,-0.5668158043028645,-1.1754044651783888,-0.3234335963779107,-0.11233916017701188
13672,8.0,299.26472,4482.1879,0.0,0.0,0.0,-0.1386497162871551,0.0,0.0,-0.2841473974056647,-0.5396772479969976,-0.5386485458329725,-1.1774472787049988,-0.3082964606164917,-0.13294334764798688
13673,8.0,299.53186,4302.4184,0.0,0.0,0.0,-0.13865985743082734,0.0,0.0,-0.3054538482559477,-0.4889287281960086,-0.5134451958930955,-1.2006017660151689,-0.30131362728733974,-0.11484650834446788
13674,8.0,300.00956,4222.6522,0.0,0.0,0.0,-0.1386699985744996,0.0,0.0,-0.22329406872990876,-0.5008532937203715,-0.5594334768567855,-1.1971942059288687,-0.28663599031376974,-0.14273089778394285
13675,8.0,300.15424,4355.3787,0.0,0.0,0.0,-0.1386801397181719,0.0,0.0,-0.23535649706287778,-0.5063686369296935,-0.5822012370012885,-1.1768700301230288,-0.2936309319816167,-0.10463307905898091
13676,8.0,300.63545,4600.9943,0.0,0.0,0.0,-0.13869028086184415,0.0,0.0,-0.24119436791153076,-0.5117277673710986,-0.6456652349571974,-1.1925522032457387,-0.3083199072238057,-0.11204526698550689
13677,8.0,299.76202,4493.0067,0.0,0.0,0.0,-0.1387004220055164,0.0,0.0,-0.2624683947586137,-0.5031433909338866,-0.6001500505976984,-1.1643563913880288,-0.3229380765490067,-0.1112982990117869
13678,8.0,300.06122999999997,4502.1848,0.0,0.0,0.0,-0.13871056314918864,0.0,0.0,-0.2827734910650707,-0.5381152621728414,-0.5476629962751296,-1.186201354268959,-0.32650055244309567,-0.12946863947755988
13679,8.0,298.93089,4707.4801,0.0,0.0,0.0,-0.13872070429286093,0.0,0.0,-0.3576196617668127,-0.5062605535415264,-0.5670761893135625,-1.1619914656546289,-0.3172204582222217,-0.09790979278269421
13680,8.0,297.84321,4633.0116,0.0,0.0,0.0,-0.1387308454365332,0.0,0.0,-0.3089655603200267,-0.5095724324208835,-0.5897818473594364,-1.177483553058579,-0.3192522475877437,-0.11803648310429389
13681,8.0,298.87301,4502.0813,0.0,0.0,0.0,-0.13874098658020545,0.0,0.0,-0.26397864403266375,-0.5137315505038564,-0.5908101138259185,-1.1464595575217489,-0.3049421265579447,-0.09319678254580632
13682,8.0,299.56571,4457.3212,0.0,0.0,0.0,-0.13875112772387774,0.0,0.0,-0.24016112638705778,-0.5094018213690455,-0.6053513876010305,-1.177201565555749,-0.2963083136483537,-0.0975571280456389
13683,8.0,299.57984,4520.7824,0.0,0.0,0.0,-0.13876126886754997,0.0,0.0,-0.28374520804347175,-0.5260031440549685,-0.5644566338300325,-1.157919618802769,-0.3076773040103857,-0.1140304265814269
13684,8.0,299.52946000000003,4646.164000000001,0.0,0.0,0.0,-0.13877141001122223,0.0,0.0,-0.33172040152575466,-0.5215963369850505,-0.5590011027741134,-1.220960898949459,-0.3149971341902967,-0.11038161164631688
13685,8.0,300.3937,4574.5511,0.0,0.0,0.0,-0.1387815511548945,0.0,0.0,-0.3259081051096257,-0.5339855790052734,-0.5306556338766335,-1.202553589682799,-0.3193784681527007,-0.1216081390442889
13686,8.0,299.73125,4448.8307,0.0,0.0,0.0,-0.13879169229856678,0.0,0.0,-0.27786138630278373,-0.5210239418710595,-0.5534481173235765,-1.1904356251118489,-0.27701957811970374,-0.14785872349251988
13687,8.0,300.68509,4328.9937,0.0,0.0,0.0,-0.13880183344223904,0.0,0.0,-0.2210326768917268,-0.5003313888588635,-0.5945419240767194,-1.180740240204989,-0.27727411667732477,-0.1265445618089759
13688,8.0,300.34542999999996,4243.9386,0.0,0.0,0.0,-0.13881197458591127,0.0,0.0,-0.21237622797490183,-0.5034008780492986,-0.5742742673614575,-1.180346795191159,-0.3008479071438767,-0.13287707095894588
13689,8.0,299.64872,4456.8433,0.0,0.0,0.0,-0.13882211572958353,0.0,0.0,-0.26583982234634773,-0.5096020294563045,-0.5793272240201455,-1.169352423656099,-0.31377254038443875,-0.1149068473879229
13690,8.0,299.75883,4529.0689,0.0,0.0,0.0,-0.13883225687325582,0.0,0.0,-0.3130963985927087,-0.5111137276779975,-0.5525137386113604,-1.146212831122399,-0.3032095499469527,-0.1307628435652879
13691,8.0,299.94606,4460.0682,0.0,0.0,0.0,-0.13884239801692808,0.0,0.0,-0.30457027390374575,-0.5262485329641865,-0.5249305377641105,-1.134157181432599,-0.31957156322425767,-0.11748228596209889
13692,8.0,299.03262,4525.4553,0.0,0.0,0.0,-0.13885253916060034,0.0,0.0,-0.3149522674758687,-0.5015284931895085,-0.5591446701807825,-1.1820347685327488,-0.3280425772402817,-0.1083990358381519
13693,8.0,299.18535,4692.9311,0.0,0.0,0.0,-0.13886268030427257,0.0,0.0,-0.2937781876186497,-0.5341275454767845,-0.5986281388149974,-1.1823709649159289,-0.32234370404034673,-0.1128798709603759
13694,8.0,298.7777,4613.2376,0.0,0.0,0.0,-0.13887282144794486,0.0,0.0,-0.26423025429749575,-0.5417230404789015,-0.5963557532132304,-1.1940480643683689,-0.28322488385211975,-0.0915096623608005
13695,8.0,300.39617000000004,4557.0763,0.0,0.0,0.0,-0.13888296259161712,0.0,0.0,-0.2750549976333147,-0.5197955179798235,-0.5903868893916494,-1.1915015642170488,-0.28227082782296176,-0.07821072642729772
13696,8.0,300.6378,4571.9562,0.0,0.0,0.0,-0.13889310373528937,0.0,0.0,-0.30752451602780667,-0.5184093614455205,-0.5638266557128584,-1.1986201527945988,-0.32130457553279274,-0.09221111817977881
13697,8.0,300.5089,4487.9244,0.0,0.0,0.0,-0.13890324487896163,0.0,0.0,-0.3110712662803437,-0.5051637913682845,-0.5479818964791024,-1.2002334496038187,-0.31287053501291767,-0.1100204690456749
13698,8.0,300.99207,4570.9907,0.0,0.0,0.0,-0.1389133860226339,0.0,0.0,-0.2976478201480527,-0.5076367903573505,-0.5841824449218184,-1.1680069288483088,-0.26699917297826675,-0.1141262699083859
13699,8.0,301.18261,4661.5228,0.0,0.0,0.0,-0.13892352716630615,0.0,0.0,-0.28145388479733574,-0.5349696373698926,-0.6005630108084544,-1.1697782926731288,-0.28434498117516477,-0.13131322075460589
13700,8.0,300.46884,4502.2612,0.0,0.0,0.0,-0.13893366830997841,0.0,0.0,-0.24255361252317775,-0.48907050215000053,-0.6369508686646563,-1.1959075809518886,-0.2795477688417167,-0.09181967636139651
13701,8.0,300.47243,4448.0313,0.0,0.0,0.0,-0.13894380945365067,0.0,0.0,-0.2642288458798568,-0.5222125247683636,-0.5656490670777164,-1.1924947519650688,-0.32792636758631266,-0.11263518119372688
13702,8.0,299.81023999999996,4642.4256,0.0,0.0,0.0,-0.13895395059732296,0.0,0.0,-0.3134012247527927,-0.5250886453097144,-0.5726915808377584,-1.1674928057475689,-0.3037193160722627,-0.10235211122886691
13703,8.0,299.42674,4516.1756,0.0,0.0,0.0,-0.1389640917409952,0.0,0.0,-0.3047024118492867,-0.5247311605419335,-0.5433710512365475,-1.1742192665364188,-0.35048203421988366,-0.11691514961612688
13704,8.0,299.74658999999997,4438.5192,0.0,0.0,0.0,-0.13897423288466745,0.0,0.0,-0.25574401113246875,-0.5401702650981545,-0.5532847206124505,-1.171291277722449,-0.34466489446827664,-0.11619798132784788
13705,8.0,298.50757999999996,4305.1359999999995,0.0,0.0,0.0,-0.1389843740283397,0.0,0.0,-0.24734756219130377,-0.4924606140695786,-0.5688456684931965,-1.172008658793249,-0.3298870065298127,-0.13580881893078686
13706,8.0,299.56167999999997,4254.0432,0.0,0.0,0.0,-0.138994515172012,0.0,0.0,-0.22892037295768178,-0.4983008660559665,-0.5659016804601474,-1.166487762973379,-0.2639609222884147,-0.13930725741855587
13707,8.0,301.10727,4404.1126,0.0,0.0,0.0,-0.13900465631568426,0.0,0.0,-0.26308578830954576,-0.5037045795017715,-0.5719499020295605,-1.1556615909549188,-0.2595930848173428,-0.13420671853517188
13708,8.0,300.09092000000004,4498.5236,0.0,0.0,0.0,-0.1390147974593565,0.0,0.0,-0.27398005073472576,-0.5005667161945885,-0.5928920793363924,-1.2201378358932289,-0.2822091918193787,-0.0929925751604026
13709,8.0,300.319,4641.8082,0.0,0.0,0.0,-0.13902493860302875,0.0,0.0,-0.33278650275097066,-0.5253337302439025,-0.5528735538543715,-1.1697296566683288,-0.30063812384317273,-0.12670600294740889
13710,8.0,300.75167000000005,4748.7021,0.0,0.0,0.0,-0.13903507974670104,0.0,0.0,-0.29605465661831976,-0.5102876654014715,-0.6371445412887704,-1.2050504405792186,-0.3073820125337427,-0.08736116617862581
13711,8.0,300.13726,4666.1985,0.0,0.0,0.0,-0.1390452208903733,0.0,0.0,-0.29919173972292573,-0.5085344691509446,-0.6106816100170824,-1.165761262651679,-0.3037952895647607,-0.1117894821302629
13712,8.0,299.72962,4772.8697,0.0,0.0,0.0,-0.13905536203404556,0.0,0.0,-0.26598392677556976,-0.5516851736070875,-0.6331641199934334,-1.201159661520229,-0.3199040105820677,-0.060774716679997544
13713,8.0,299.72697999999997,4720.5629,0.0,0.0,0.0,-0.1390655031777178,0.0,0.0,-0.32948618505525473,-0.5037428296930465,-0.6017042242635834,-1.166121473062229,-0.3144937211431137,-0.09385760804902471
13714,8.0,298.95182,4594.2429,0.0,0.0,0.0,-0.13907564432139008,0.0,0.0,-0.3055816393585597,-0.5247950763582415,-0.5661584177704855,-1.1693234447032388,-0.2761553467119107,-0.08847850442164851
13715,8.0,299.42023,4397.755999999999,0.0,0.0,0.0,-0.13908578546506234,0.0,0.0,-0.30250577682499574,-0.49998284095696455,-0.5343194043832195,-1.156193851232449,-0.3084910350331947,-0.12800183836779788
13716,8.0,300.30311,4199.209,0.0,0.0,0.0,-0.1390959266087346,0.0,0.0,-0.23638687108956777,-0.5004539009284545,-0.5396138996007455,-1.1890571996758088,-0.3195092888731117,-0.1164609399937999
13717,8.0,299.61728,4408.48,0.0,0.0,0.0,-0.1391060677524069,0.0,0.0,-0.2530273761568578,-0.5342044916893784,-0.5528359825406635,-1.158281957038529,-0.3330576079477267,-0.15265338243571586
13718,8.0,299.52402,4679.9067,0.0,0.0,0.0,-0.13911620889607912,0.0,0.0,-0.2954572544918607,-0.5082184263122536,-0.6188991189905874,-1.1712329145166889,-0.27496892203731976,-0.12419445992453888
13719,8.0,300.34309,4589.7059,0.0,0.0,0.0,-0.13912635003975138,0.0,0.0,-0.30179218530956975,-0.5376526121771815,-0.5557111810244234,-1.2015119685799989,-0.2884070096335557,-0.11346881244849988
13720,8.0,300.95756,4510.2303,0.0,0.0,0.0,-0.13913649118342364,0.0,0.0,-0.3136722184920377,-0.5074707591959645,-0.5498544130614055,-1.208477049767399,-0.3067620858575607,-0.1080227248835129
13721,8.0,300.56518,4589.1796,0.0,0.0,0.0,-0.13914663232709593,0.0,0.0,-0.30455754748248975,-0.5327494645457785,-0.5576890046896195,-1.2024645249990091,-0.3128376955771767,-0.13054910858919389
13722,8.0,300.55419,4644.8935,0.0,0.0,0.0,-0.13915677347076819,0.0,0.0,-0.2762353225423037,-0.5331993779876816,-0.6024969506118194,-1.1659688775971688,-0.2952656894279547,-0.12927266677571886
13723,8.0,300.40364,4593.1187,0.0,0.0,0.0,-0.13916691461444042,0.0,0.0,-0.2822926836276187,-0.5178900910342725,-0.5960106098316674,-1.155631092126909,-0.3076189712021287,-0.13153715915920686
13724,8.0,300.58063,4493.9932,0.0,0.0,0.0,-0.13917705575811268,0.0,0.0,-0.25181479949718577,-0.5342585789797165,-0.5799883494453935,-1.1847957737302388,-0.34425139723496767,-0.08392106556536433
13725,8.0,299.56097,4411.3231,0.0,0.0,0.0,-0.13918719690178494,0.0,0.0,-0.2942411922518447,-0.5317934124139234,-0.5148974771289245,-1.170143366684159,-0.3247117201865517,-0.13029305015642287
13726,8.0,299.92237,4372.6507,0.0,0.0,0.0,-0.13919733804545723,0.0,0.0,-0.2905162923667257,-0.47431886752162755,-0.5643414576911655,-1.184359873537219,-0.28975186609378273,-0.08948081243381861
13727,8.0,299.41545,4392.791,0.0,0.0,0.0,-0.13920747918912946,0.0,0.0,-0.28921634315093075,-0.5194263707033916,-0.5266560722869076,-1.1877149472683388,-0.2704727767060847,-0.15338882975579884
13728,8.0,298.30847,4416.9645,0.0,0.0,0.0,-0.13921762033280172,0.0,0.0,-0.24059753320512778,-0.4815045433882985,-0.6205448296705064,-1.212459122660399,-0.3084150919381997,-0.08483073414739162
13729,8.0,299.28053,4500.1511,0.0,0.0,0.0,-0.13922776147647398,0.0,0.0,-0.26385914131586974,-0.5170320708495926,-0.5870423433290685,-1.1989805658551689,-0.3065007889217727,-0.14057388083856187
13730,8.0,300.34386,4722.2397,0.0,0.0,0.0,-0.13923790262014626,0.0,0.0,-0.28014742038339774,-0.5222527305323315,-0.6330427934264594,-1.1558081069193789,-0.29403133802363374,-0.09075096601717302
13731,8.0,300.19054,4713.5126,0.0,0.0,0.0,-0.13924804376381852,0.0,0.0,-0.3379910416246187,-0.4995639127031195,-0.5952351999276405,-1.1820822899624388,-0.3098697137817597,-0.08071380273233213
13732,8.0,301.30831,4757.5856,0.0,0.0,0.0,-0.13925818490749078,0.0,0.0,-0.3320675410100147,-0.5315513570975344,-0.5825683273800174,-1.176766881262849,-0.34592004789715064,-0.08035283542395742
13733,8.0,299.87986,4532.9662,0.0,0.0,0.0,-0.13926832605116302,0.0,0.0,-0.2798662738781507,-0.5279040316400715,-0.5701382412482634,-1.2143826766502388,-0.3420721495823927,-0.11448305553359789
13734,8.0,299.6048,4417.6154,0.0,0.0,0.0,-0.1392784671948353,0.0,0.0,-0.24086706786422876,-0.5163123694360635,-0.5856653263106674,-1.167697583592779,-0.2955715693681427,-0.12869756628396087
13735,8.0,300.1428,4529.4033,0.0,0.0,0.0,-0.13928860833850756,0.0,0.0,-0.23878420056116575,-0.5570210600911984,-0.5810202332147324,-1.1805293828591787,-0.2925701300544237,-0.13676883287053287
13736,8.0,301.08952999999997,4509.0123,0.0,0.0,0.0,-0.13929874948217982,0.0,0.0,-0.2905728621198087,-0.4946442693600885,-0.5854100176829704,-1.176810045717109,-0.3085409983956257,-0.11111430292612791
13737,8.0,299.58218999999997,4462.9795,0.0,0.0,0.0,-0.13930889062585208,0.0,0.0,-0.28307427435725574,-0.5420551230666755,-0.5315049198454515,-1.1795127890338488,-0.3017017730031467,-0.14669792391295788
13738,8.0,301.12843,4419.5384,0.0,0.0,0.0,-0.13931903176952434,0.0,0.0,-0.28274387376464777,-0.5077734068683336,-0.5529120472256704,-1.1743127895206489,-0.2810474803147267,-0.12230490047555388
13739,8.0,301.01207999999997,4411.0016,0.0,0.0,0.0,-0.1393291729131966,0.0,0.0,-0.25952177227530476,-0.5059907655699005,-0.5753218058448415,-1.1783018538393388,-0.2866280768304887,-0.14744229796642186
13740,8.0,301.44717,4722.9415,0.0,0.0,0.0,-0.13933931405686886,0.0,0.0,-0.2514318922843958,-0.5656571629460154,-0.6185672390528334,-1.193178290482529,-0.3263147426397577,-0.096997683281176
13741,8.0,299.64684,4740.8061,0.0,0.0,0.0,-0.13934945520054112,0.0,0.0,-0.27495935695637574,-0.5262761946919166,-0.6398511248233894,-1.1975215870361788,-0.3064236501916597,-0.12768946349446886
13742,8.0,300.06425,4633.4226,0.0,0.0,0.0,-0.13935959634421338,0.0,0.0,-0.2854392102231567,-0.5354353879108585,-0.5875701858361624,-1.1956679473032388,-0.2991422221905387,-0.08590951721085922
13743,8.0,299.74722,4364.5409,0.0,0.0,0.0,-0.13936973748788564,0.0,0.0,-0.2984628582634907,-0.4869479762380235,-0.5413006266447125,-1.1914232399843188,-0.2962007470177377,-0.1166585642933039
13744,8.0,299.93936,4368.7626,0.0,0.0,0.0,-0.1393798786315579,0.0,0.0,-0.2971128848902587,-0.47807765049009054,-0.5528041968850265,-1.2048461693590589,-0.33391091651944166,-0.09095567698787642
13745,8.0,299.00722,4630.5684,0.0,0.0,0.0,-0.13939001977523016,0.0,0.0,-0.3114332296135667,-0.5293679145895455,-0.5667760139714374,-1.165038511355349,-0.3035087120389777,-0.14510221712547386
13746,8.0,300.33151000000004,4746.379,0.0,0.0,0.0,-0.13940016091890242,0.0,0.0,-0.28209262752787473,-0.5273270566356285,-0.6333610248853664,-1.1763124385929988,-0.2932767808066647,-0.1132375381131749
13747,8.0,300.22457,4547.5803,0.0,0.0,0.0,-0.1394103020625747,0.0,0.0,-0.25960374420839477,-0.5175837146015355,-0.6051633993099774,-1.197388648623059,-0.2841056008390398,-0.10501882337205089
13748,8.0,301.31194,4555.3943,0.0,0.0,0.0,-0.13942044320624694,0.0,0.0,-0.2943178952844147,-0.49772089183122753,-0.5926873318886854,-1.1966969027797887,-0.3138804920500927,-0.09188328718942441
13749,8.0,300.69801,4581.2601,0.0,0.0,0.0,-0.1394305843499192,0.0,0.0,-0.3085830989372807,-0.5102876451364695,-0.5737179322615514,-1.1938993192536886,-0.31586292600324367,-0.10546535255861991
13750,8.0,301.38959,4512.9429,0.0,0.0,0.0,-0.13944072549359146,0.0,0.0,-0.2811256626924427,-0.5121797985057105,-0.5785165023501334,-1.1735140444668188,-0.3054534632209097,-0.12308844677788387
13751,8.0,300.13133,4513.8362,0.0,0.0,0.0,-0.13945086663726375,0.0,0.0,-0.26856020634732874,-0.5101593068788035,-0.5933740013489543,-1.218149636547009,-0.2843586296540117,-0.13392909814027287
13752,8.0,300.4049,4464.889,0.0,0.0,0.0,-0.139461007780936,0.0,0.0,-0.25080617995014276,-0.5012235859694165,-0.6051850018021093,-1.2035128335524687,-0.3216770867995567,-0.11812044100757989
13753,8.0,298.84008,4469.3697,0.0,0.0,0.0,-0.13947114892460827,0.0,0.0,-0.26953439565597376,-0.5239254240624135,-0.5651169689202025,-1.1872919153515888,-0.2939714853402267,-0.16168755072481886
13754,8.0,299.45998,4546.0109,0.0,0.0,0.0,-0.1394812900682805,0.0,0.0,-0.3034133652045677,-0.49337465685228754,-0.5850857776509705,-1.1667333747976187,-0.28813550926926074,-0.12201618499205989
13755,8.0,299.62781,4393.0781,0.0,0.0,0.0,-0.1394914312119528,0.0,0.0,-0.2871662443561017,-0.5064864576513215,-0.5417333452324185,-1.2000720388628887,-0.3151730344076567,-0.15660402431061385
13756,8.0,300.67647,4344.9601,0.0,0.0,0.0,-0.13950157235562505,0.0,0.0,-0.28056211325182473,-0.5045690743545905,-0.5356281790073855,-1.199371781718779,-0.34702327460603066,-0.1047891195743809
13757,8.0,300.00973999999997,4331.177,0.0,0.0,0.0,-0.1395117134992973,0.0,0.0,-0.25432057712698675,-0.5061781053808895,-0.5560709861349336,-1.1981052190937789,-0.3191938641169817,-0.13517742226347287
13758,8.0,300.27689,4566.4858,0.0,0.0,0.0,-0.13952185464296954,0.0,0.0,-0.26395595736292476,-0.5319699509788465,-0.5921717598403025,-1.168044824402049,-0.3096634971214077,-0.1018874853955119
13759,8.0,299.98669,4655.2738,0.0,0.0,0.0,-0.13953199578664183,0.0,0.0,-0.2925146140814447,-0.5041501562332465,-0.6184222328310224,-1.1982256945306689,-0.28769945708872574,-0.09567787335017092
13760,8.0,299.7018,4584.7727,0.0,0.0,0.0,-0.1395421369303141,0.0,0.0,-0.3003359625308517,-0.5208574952771325,-0.5724629409526935,-1.1981071442689688,-0.3249774146277737,-0.08676891136267481
13761,8.0,299.72729,4630.4916,0.0,0.0,0.0,-0.13955227807398635,0.0,0.0,-0.3037737174701317,-0.5279652522111135,-0.5758148634760024,-1.1980353048368788,-0.3022921026439077,-0.12000515712108689
13762,8.0,301.12663,4955.9826,0.0,0.0,0.0,-0.1395624192176586,0.0,0.0,-0.33202665636847967,-0.5562606766861544,-0.6182076365923435,-1.1675062819738988,-0.3114912685792947,-0.10417443140121589
13763,8.0,300.54877,4936.7384,0.0,0.0,0.0,-0.13957256036133084,0.0,0.0,-0.3077998464774797,-0.5614788133761445,-0.6313665535210273,-1.186219592770759,-0.3081509275046287,-0.10194808788399291
13764,8.0,300.56352999999996,4786.0157,0.0,0.0,0.0,-0.13958270150500313,0.0,0.0,-0.2884085396412067,-0.5503182992221874,-0.6161024372570764,-1.1948375888462888,-0.3440184003744727,-0.12628703416355988
13765,8.0,300.36409,4604.9793,0.0,0.0,0.0,-0.13959284264867539,0.0,0.0,-0.26984108619624175,-0.5295045918955344,-0.6004530326426005,-1.220125068941969,-0.3097977426271567,-0.1067869143990479
13766,8.0,299.77292,4403.7781,0.0,0.0,0.0,-0.13960298379234765,0.0,0.0,-0.26444249979594275,-0.5110162631508786,-0.5631798272465215,-1.171996803767079,-0.29047669455281777,-0.12687170986876287
13767,8.0,299.84503,4590.7653,0.0,0.0,0.0,-0.13961312493601993,0.0,0.0,-0.27275863853418175,-0.5294846106035626,-0.5932347706527134,-1.187090987856759,-0.3047902403679547,-0.097267836022838
13768,8.0,300.20915,4615.1547,0.0,0.0,0.0,-0.13962326607969217,0.0,0.0,-0.2844968471001527,-0.5447911820467035,-0.5736037693727845,-1.1652134996476187,-0.34347521726086466,-0.12307384584394288
13769,8.0,299.63847000000004,4453.4042,0.0,0.0,0.0,-0.13963340722336443,0.0,0.0,-0.23879658247738778,-0.5613005320210495,-0.5536265607986874,-1.190262865969799,-0.3142046003595797,-0.12256487005371089
13770,8.0,300.34512,4448.083,0.0,0.0,0.0,-0.13964354836703669,0.0,0.0,-0.2753405112464927,-0.5009777410976536,-0.5757878907583405,-1.1557776080913689,-0.3253562080451577,-0.12287824804463889
13771,8.0,299.83982000000003,4557.519,0.0,0.0,0.0,-0.13965368951070897,0.0,0.0,-0.27134762697492576,-0.5428659865917015,-0.5711583510514405,-1.1830356569815288,-0.30544557000263073,-0.12247933148026889
13772,8.0,299.2106,4587.6679,0.0,0.0,0.0,-0.13966383065438123,0.0,0.0,-0.2975800539813647,-0.5281317089375416,-0.5688247246136295,-1.1944786956608688,-0.3239227327311847,-0.1137530898965559
13773,8.0,299.2772,4633.3306,0.0,0.0,0.0,-0.13967397179805346,0.0,0.0,-0.26727066321006077,-0.5591638003426704,-0.5819823445821855,-1.218857898366909,-0.28716649766862673,-0.15210731155932286
13774,8.0,299.75741,4488.7449,0.0,0.0,0.0,-0.13968411294172572,0.0,0.0,-0.2764556031140437,-0.5241787872499185,-0.5638319955408855,-1.2198241336622688,-0.3044924765610677,-0.1164285666531049
13775,8.0,300.14955,4465.7506,0.0,0.0,0.0,-0.139694254085398,0.0,0.0,-0.2575063570313988,-0.5115249957610865,-0.5884453299475325,-1.217281281211309,-0.3015074822964717,-0.10949391336620788
13776,8.0,300.31432,4565.2962,0.0,0.0,0.0,-0.13970439522907027,0.0,0.0,-0.2891030719222517,-0.5313021077054355,-0.5673308697261975,-1.2066449922615887,-0.32968758877763166,-0.1104737262129079
13777,8.0,300.16781000000003,4598.2862,0.0,0.0,0.0,-0.13971453637274253,0.0,0.0,-0.3295689169259197,-0.48588604960321957,-0.5823092291969465,-1.1706297267321588,-0.3075305448659017,-0.1025581049741969
13778,8.0,300.20245,4565.8239,0.0,0.0,0.0,-0.13972467751641476,0.0,0.0,-0.3207241858755127,-0.5046651000665675,-0.5625071609026344,-1.1846095383618591,-0.31374602362932175,-0.11138008855985888
13779,8.0,300.52231,4544.9861,0.0,0.0,0.0,-0.13973481866008705,0.0,0.0,-0.29579279226247573,-0.5028214611121146,-0.5829480225899905,-1.189395523884199,-0.29222984014083975,-0.0995667444592226
13780,8.0,300.47614,4704.2866,0.0,0.0,0.0,-0.1397449598037593,0.0,0.0,-0.28092350916499176,-0.5395143477784204,-0.6095478135526855,-1.2052987881787287,-0.3012762484911507,-0.1293980767405959
13781,8.0,300.18714,4796.0031,0.0,0.0,0.0,-0.13975510094743157,0.0,0.0,-0.2845789203582527,-0.5679959974893405,-0.6052902683549984,-1.1936731618313687,-0.27673612140422876,-0.1139148147450169
13782,8.0,299.51901000000004,4645.8602,0.0,0.0,0.0,-0.13976524209110386,0.0,0.0,-0.3045800720322127,-0.5178465516774755,-0.5897988902261184,-1.2033724984136187,-0.3135529488227667,-0.12200332684829088
13783,8.0,298.79512,4503.454000000001,0.0,0.0,0.0,-0.1397753832347761,0.0,0.0,-0.2774180285890277,-0.5207508304391055,-0.5707687057254854,-1.2043070189808487,-0.3224899666922817,-0.10191600838582691
13784,8.0,299.74562000000003,4467.3479,0.0,0.0,0.0,-0.13978552437844835,0.0,0.0,-0.2808269059004577,-0.5176530513058786,-0.5594822648491005,-1.1909926086918188,-0.33215198527334866,-0.12712308708607187
13785,8.0,299.59061,4537.7243,0.0,0.0,0.0,-0.1397956655221206,0.0,0.0,-0.27567977777747577,-0.5309757398482255,-0.5726993423335245,-1.1774590324061591,-0.31321903225231174,-0.14856934618515286
13786,8.0,299.48955,4538.4299,0.0,0.0,0.0,-0.13980580666579287,0.0,0.0,-0.29138088854455474,-0.5248174894504535,-0.5633709768778865,-1.159891302172359,-0.29008239840890376,-0.14091066490679988
13787,8.0,299.53161,4340.948,0.0,0.0,0.0,-0.13981594780946516,0.0,0.0,-0.24090720270068977,-0.4947237993604376,-0.5839087863348105,-1.2113266130236289,-0.28549025776319475,-0.14109143885714084
13788,8.0,300.64134,4347.8614,0.0,0.0,0.0,-0.1398260889531374,0.0,0.0,-0.26457735325175175,-0.49561718197360755,-0.5614467744079825,-1.2069799727446489,-0.2934127792350867,-0.1110436388641539
13789,8.0,300.5285,4503.0326,0.0,0.0,0.0,-0.13983623009680965,0.0,0.0,-0.25492166748380973,-0.5347741712931015,-0.5791136410315664,-1.2028336520104388,-0.29766482248473075,-0.15418743295461484
13790,8.0,300.99688,4681.444,0.0,0.0,0.0,-0.1398463712404819,0.0,0.0,-0.3204696777153947,-0.5063527998306305,-0.5962195825322915,-1.195701789856579,-0.3123484680313937,-0.08579688534299333
13791,8.0,299.73936000000003,4669.3946,0.0,0.0,0.0,-0.1398565123841542,0.0,0.0,-0.28449586424755574,-0.5125873783584355,-0.6222961210108454,-1.199407245472279,-0.3246543297008877,-0.1097145080454789
13792,8.0,299.62593,4623.1485,0.0,0.0,0.0,-0.13986665352782646,0.0,0.0,-0.2684074994247578,-0.5482581388538654,-0.5886560657033304,-1.1944699817100088,-0.3141847001276157,-0.08946391243540072
13793,8.0,300.35262,4617.7596,0.0,0.0,0.0,-0.1398767946714987,0.0,0.0,-0.2843657426697137,-0.4992906391511495,-0.6200272209894224,-1.1887811903485688,-0.3152585020535917,-0.08156924723525792
13794,8.0,299.68825,4736.7386,0.0,0.0,0.0,-0.13988693581517095,0.0,0.0,-0.3187333622115337,-0.5209612622198735,-0.6001556336057494,-1.170824777376409,-0.3076824310558917,-0.08593679998305183
13795,8.0,299.86447999999996,4772.054,0.0,0.0,0.0,-0.13989707695884324,0.0,0.0,-0.3347843583706437,-0.5075163858479675,-0.6082845135930074,-1.1607256123046987,-0.32487291814496067,-0.08521919295747951
13796,8.0,300.04939,4706.5546,0.0,0.0,0.0,-0.1399072181025155,0.0,0.0,-0.3138392426385217,-0.5160833951784655,-0.6007524379146495,-1.183791034931079,-0.3397652324172177,-0.13180655196329388
13797,8.0,300.45018,4443.3775,0.0,0.0,0.0,-0.13991735924618776,0.0,0.0,-0.2643228349591328,-0.5155229057531495,-0.5708300884165435,-1.1960308934890589,-0.3231771630426027,-0.12723604420721987
13798,8.0,300.86146,4407.2663,0.0,0.0,0.0,-0.13992750038986,0.0,0.0,-0.25562072899280175,-0.49833044282638556,-0.5857477339413004,-1.2185344689349888,-0.3124746176688437,-0.15738214972490885
13799,8.0,301.38723999999996,4556.8617,0.0,0.0,0.0,-0.13993764153353228,0.0,0.0,-0.2669917559875347,-0.5207732637963196,-0.5974071521794955,-1.201816956860099,-0.3053507196607697,-0.09583186102086831
13800,8.0,300.03373999999997,4366.7881,0.0,0.0,0.0,-0.13994778267720454,0.0,0.0,-0.24205555956902378,-0.5272116575817395,-0.5581273265503784,-1.198646801272229,-0.29770967906665774,-0.15786976620303286
13801,8.0,299.19572,4276.1694,0.0,0.0,0.0,-0.1399579238208768,0.0,0.0,-0.2108597066827328,-0.5204625709181565,-0.5685264237841895,-1.2015587807346189,-0.2903333297961687,-0.10584540240612791
13802,8.0,299.03767,4477.8597,0.0,0.0,0.0,-0.13996806496454908,0.0,0.0,-0.26282768311157273,-0.5492419540384604,-0.5490878994932565,-1.1768267643437589,-0.2856771720091417,-0.15532119902150887
13803,8.0,298.79096,4744.4882,0.0,0.0,0.0,-0.13997820610822131,0.0,0.0,-0.2956396091123577,-0.5514146459628885,-0.5951516878543984,-1.187277425875159,-0.3158223453367387,-0.10552930890493188
13804,8.0,299.53443,4634.0025,0.0,0.0,0.0,-0.13998834725189357,0.0,0.0,-0.30642202899149973,-0.5372302794030005,-0.5649687304305725,-1.1834678081491787,-0.3121625163730417,-0.13679338392045587
13805,8.0,301.35206,4414.0507,0.0,0.0,0.0,-0.13999848839556583,0.0,0.0,-0.24978774200963075,-0.5150658286330395,-0.5769076131788484,-1.1932361470632387,-0.3212127244112277,-0.10899236469920891
13806,8.0,301.60507,4287.5495,0.0,0.0,0.0,-0.14000862953923812,0.0,0.0,-0.2643584203026448,-0.47581955171473356,-0.5631300260041066,-1.2119477353349288,-0.3067013212490637,-0.08989378176382551
13807,8.0,300.1795,4540.432,0.0,0.0,0.0,-0.14001877068291038,0.0,0.0,-0.27012616411187673,-0.5135737266682805,-0.5964780626328015,-1.1927747129676989,-0.3326555705730487,-0.11220551248882189
13808,8.0,300.59553,4822.2119,0.0,0.0,0.0,-0.1400289118265826,0.0,0.0,-0.3484652105583387,-0.5418205151385215,-0.5755462914044964,-1.1749316826817289,-0.31597198211150673,-0.1307585980473689
13809,8.0,300.28963999999996,4736.8415,0.0,0.0,0.0,-0.14003905297025487,0.0,0.0,-0.3207428398098537,-0.5176660411721604,-0.6014726662182304,-1.160907288047629,-0.3148847951517097,-0.1306137944755779
13810,8.0,299.74984,4420.8948,0.0,0.0,0.0,-0.14004919411392716,0.0,0.0,-0.2869962919168287,-0.5140131529716485,-0.5428321643033635,-1.1980048060088688,-0.29702903844448375,-0.11103452974575488
13811,8.0,299.51478,4427.1959,0.0,0.0,0.0,-0.14005933525759942,0.0,0.0,-0.26022876753257973,-0.4959187556008705,-0.5896094732524245,-1.186748002697909,-0.3175531183625527,-0.07232836680650402
13812,8.0,299.58589,4760.6517,0.0,0.0,0.0,-0.14006947640127168,0.0,0.0,-0.3153480530974297,-0.5225578505349445,-0.6092133295621744,-1.1993515167167788,-0.27438610057979973,-0.0978107080686653
13813,8.0,300.41715,4811.0812,0.0,0.0,0.0,-0.1400796175449439,0.0,0.0,-0.2805241873005817,-0.5549114733829985,-0.6270129116838564,-1.1784402638029987,-0.2725435964654587,-0.07463355030075793
13814,8.0,300.08178,4476.0401,0.0,0.0,0.0,-0.1400897586886162,0.0,0.0,-0.27908133942318375,-0.5190587433021094,-0.5624643612184105,-1.2107426769909988,-0.28111643198403174,-0.10821091582458589
13815,8.0,299.26344,4555.1157,0.0,0.0,0.0,-0.14009989983228846,0.0,0.0,-0.27047192557600075,-0.5361820924395525,-0.5779874135454164,-1.202285686356359,-0.3113233527727227,-0.0982817052186491
13816,8.0,299.98236,4747.123,0.0,0.0,0.0,-0.14011004097596072,0.0,0.0,-0.31312504317303574,-0.5557087492241835,-0.5741730740739704,-1.1834459219470188,-0.30512237361823374,-0.15693200323548284
13817,8.0,299.86003999999997,4562.7527,0.0,0.0,0.0,-0.14012018211963298,0.0,0.0,-0.27964079533339775,-0.5347845571066264,-0.5725375262925545,-1.150236548594509,-0.33121548886842367,-0.12632671303747586
13818,8.0,299.41985,4384.3881,0.0,0.0,0.0,-0.14013032326330524,0.0,0.0,-0.24878830250849376,-0.5167878269129874,-0.5671683748076605,-1.2002110567766089,-0.3264018821483577,-0.14932604135983288
13819,8.0,299.91827,4359.1358,0.0,0.0,0.0,-0.1401404644069775,0.0,0.0,-0.2232786166658838,-0.5264305734771525,-0.5753592353035355,-1.184774191503109,-0.3433246482960047,-0.13127601421093388
13820,8.0,299.39979,4384.0757,0.0,0.0,0.0,-0.14015060555064976,0.0,0.0,-0.25966486345442674,-0.5247436133856626,-0.5482410554571796,-1.1824192969456988,-0.3028114946451677,-0.14693800339165186
13821,8.0,300.21459,4602.5113,0.0,0.0,0.0,-0.14016074669432202,0.0,0.0,-0.28868514678600576,-0.5354655827638385,-0.5748977809429935,-1.160617498519029,-0.30241671214120575,-0.14722868458033986
13822,8.0,300.74908,4699.125,0.0,0.0,0.0,-0.1401708878379943,0.0,0.0,-0.3133341678611747,-0.5135893611173235,-0.6014931541352525,-1.188382273784199,-0.2773274541625887,-0.07971022005153622
13823,8.0,299.92528,4498.1046,0.0,0.0,0.0,-0.14018102898166654,0.0,0.0,-0.2501283561632468,-0.5375062988627415,-0.5796768257021484,-1.2040329348287988,-0.3080887240809897,-0.10522645858254291
13824,8.0,299.51312,4640.935,0.0,0.0,0.0,-0.1401911701253388,0.0,0.0,-0.3013824877641357,-0.5051326744577135,-0.6042132037637005,-1.1817753765071488,-0.2794399894285797,-0.08144956618644633
13825,8.0,300.17262999999997,4987.5614,0.0,0.0,0.0,-0.14020131126901106,0.0,0.0,-0.3208850697263907,-0.5595113248619684,-0.6356977214709804,-1.1669497036939689,-0.3135325520982537,-0.12157420529843989
13826,8.0,299.52033,4710.2572,0.0,0.0,0.0,-0.14021145241268335,0.0,0.0,-0.3141817313048227,-0.5266510465664115,-0.5909677958064805,-1.214695162981079,-0.3020266513827097,-0.10062708637087021
13827,8.0,299.62161000000003,4409.8591,0.0,0.0,0.0,-0.1402215935563556,0.0,0.0,-0.26221317732342575,-0.5153343196445376,-0.5629395552503085,-1.2131777196313187,-0.33241357605166566,-0.13111403604994787
13828,8.0,299.30395,4508.389,0.0,0.0,0.0,-0.14023173470002784,0.0,0.0,-0.27254733535832776,-0.5359847619825775,-0.5619055841857634,-1.2030538312571688,-0.3232380999036167,-0.12485015432925087
13829,8.0,299.09824,4631.5547,0.0,0.0,0.0,-0.1402418758437001,0.0,0.0,-0.29406965914241573,-0.5348154612346765,-0.5789918686345484,-1.1706895084880589,-0.3342194613073927,-0.12024254135451487
13830,8.0,299.04362000000003,4631.1808,0.0,0.0,0.0,-0.14025201698737239,0.0,0.0,-0.29449749386463975,-0.5203329053028595,-0.5929329133154224,-1.179344589517249,-0.3174465345845337,-0.12181685843238789
13831,8.0,299.84367000000003,4543.1704,0.0,0.0,0.0,-0.14026215813104465,0.0,0.0,-0.2737240125669568,-0.5350259335454485,-0.5722604023902044,-1.1809384319245488,-0.3064158886958937,-0.10469805878789389
13832,8.0,299.50266,4510.9131,0.0,0.0,0.0,-0.1402722992747169,0.0,0.0,-0.2795638288558017,-0.5347585672415616,-0.5568825386700275,-1.1821096477151387,-0.2876286005092327,-0.1311982270007569
13833,8.0,299.73492999999996,4458.3002,0.0,0.0,0.0,-0.14028244041838914,0.0,0.0,-0.24407315330064477,-0.5280645709859154,-0.5830742026249434,-1.2000163101073889,-0.3020434612018687,-0.13004902913483987
13834,8.0,299.60516,4627.9928,0.0,0.0,0.0,-0.14029258156206142,0.0,0.0,-0.25669900948421975,-0.5394390025009845,-0.6106562382345785,-1.186428018316329,-0.2952780206816717,-0.12153172985424789
13835,8.0,300.8162,4776.3946,0.0,0.0,0.0,-0.14030272270573368,0.0,0.0,-0.27824436444308076,-0.5632543619238775,-0.6104059755923794,-1.1920010965163488,-0.3182127847076567,-0.11307219596185689
13836,8.0,300.43001,4556.8568,0.0,0.0,0.0,-0.14031286384940594,0.0,0.0,-0.25719695098086276,-0.5558833119514115,-0.5720904094209275,-1.2079954519948688,-0.30659994557655873,-0.13779223573653485
13837,8.0,300.70602,4378.7635,0.0,0.0,0.0,-0.1403230049930782,0.0,0.0,-0.25227273787988075,-0.5300712317489575,-0.5486907865140644,-1.2099884136165588,-0.3442320948205627,-0.14011534463830785
13838,8.0,300.34467,4534.3415,0.0,0.0,0.0,-0.14033314613675046,0.0,0.0,-0.3071011396060227,-0.5175097372117345,-0.5537157268074875,-1.215569091192329,-0.3140260454269577,-0.1029558968309559
13839,8.0,300.06011,4610.1731,0.0,0.0,0.0,-0.14034328728042272,0.0,0.0,-0.26967207607956173,-0.5249103538221185,-0.6067950764760114,-1.1870662645543189,-0.3128777392211287,-0.12982763398798988
13840,8.0,299.76813,4525.332,0.0,0.0,0.0,-0.14035342842409498,0.0,0.0,-0.3150515761181697,-0.4810982300981986,-0.5794381343760915,-1.1964006284505488,-0.2885173424369447,-0.09884859534484682
13841,8.0,298.5126,4484.4594,0.0,0.0,0.0,-0.14036356956776724,0.0,0.0,-0.2857653146353407,-0.5111267580742835,-0.5662716079391564,-1.173635533153809,-0.3142938474283877,-0.12351223863220888
13842,8.0,298.63239,4431.1278,0.0,0.0,0.0,-0.1403737107114395,0.0,0.0,-0.3160909782032507,-0.46550263919653356,-0.5653585986715495,-1.1863040978290988,-0.3062887258083437,-0.07321766602177102
13843,8.0,298.49093999999997,4585.8058,0.0,0.0,0.0,-0.14038385185511176,0.0,0.0,-0.29038977795923976,-0.5134424803828275,-0.5901381972871055,-1.1756015423228388,-0.3143165340981267,-0.11506839998386689
13844,8.0,298.56186,4741.1922,0.0,0.0,0.0,-0.14039399299878402,0.0,0.0,-0.3060546751677447,-0.5330360927340665,-0.6021132834614544,-1.2014787339767188,-0.29401675735469474,-0.097697352740228
13845,8.0,298.32682,4571.5572,0.0,0.0,0.0,-0.1404041341424563,0.0,0.0,-0.22602538569946878,-0.5350916630794355,-0.6285222085028124,-1.2278436029037287,-0.3188272803633027,-0.11901954848381488
13846,8.0,299.53909,4371.8629,0.0,0.0,0.0,-0.14041427528612854,0.0,0.0,-0.2258273257024218,-0.5114234782335675,-0.5916863522473964,-1.2284818491417187,-0.30055367957983875,-0.1034099443332669
13847,8.0,299.25484,4534.7258,0.0,0.0,0.0,-0.1404244164298008,0.0,0.0,-0.25126850570577075,-0.5160035004080805,-0.6111714049829214,-1.2121072209006687,-0.3221707726457797,-0.1052041772128439
13848,8.0,300.49832999999995,4727.0093,0.0,0.0,0.0,-0.14043455757347306,0.0,0.0,-0.3093255072855507,-0.5201324844330795,-0.6074348121916484,-1.1785428047131188,-0.2971896588503357,-0.12361550908240088
13849,8.0,300.2932,4448.9419,0.0,0.0,0.0,-0.14044469871714532,0.0,0.0,-0.2872894758332637,-0.4951086925434236,-0.5699690791440685,-1.181913989120829,-0.32796299657742767,-0.1223540532379049
13850,8.0,299.93572,4313.241,0.0,0.0,0.0,-0.14045483986081758,0.0,0.0,-0.2589312602495258,-0.5015225555439226,-0.5506637465787805,-1.1819166235710887,-0.30874096330286066,-0.1345491261414649
13851,8.0,300.74237999999997,4425.6856,0.0,0.0,0.0,-0.14046498100448984,0.0,0.0,-0.24126718006371678,-0.5171476320234974,-0.5868830908108514,-1.1691963831406988,-0.30431443838599675,-0.11813284318880389
13852,8.0,299.97607,4701.1736,0.0,0.0,0.0,-0.14047512214816213,0.0,0.0,-0.30204409954943173,-0.5363218804233485,-0.5906734162549274,-1.191771595368699,-0.29317667169678474,-0.12863551484783686
13853,8.0,298.41033999999996,4782.5894,0.0,0.0,0.0,-0.14048526329183436,0.0,0.0,-0.28220731730669374,-0.5502951667224044,-0.6212852723135824,-1.172315673573549,-0.3087304660318247,-0.1185025984152959
13854,8.0,299.10366,4588.3633,0.0,0.0,0.0,-0.14049540443550665,0.0,0.0,-0.29644486936433073,-0.5279957915691275,-0.5703072007024385,-1.2115896527495886,-0.3031586543944297,-0.12042954679297088
13855,8.0,299.70817999999997,4437.9339,0.0,0.0,0.0,-0.14050554557917888,0.0,0.0,-0.2616093511913328,-0.5235944560497495,-0.5638172831494335,-1.184874908563049,-0.2983617865660157,-0.12864818047408688
13856,8.0,300.06264,4518.1614,0.0,0.0,0.0,-0.14051568672285117,0.0,0.0,-0.2867620791562137,-0.5096046943040675,-0.5770414837820604,-1.2015680013105288,-0.3158907701159917,-0.12380258544836387
13857,8.0,300.23985,4702.1313,0.0,0.0,0.0,-0.14052582786652343,0.0,0.0,-0.27855038623828277,-0.5430762967824575,-0.6077038098281964,-1.1644608574733388,-0.3199166052808107,-0.13349457596738887
13858,8.0,299.99138999999997,4507.8054,0.0,0.0,0.0,-0.1405359690101957,0.0,0.0,-0.2761414550530397,-0.4918500700893226,-0.6022687464242974,-1.2066613055881987,-0.3178275166221337,-0.08670767660613142
13859,8.0,299.46317999999997,4284.4782,0.0,0.0,0.0,-0.14054611015386792,0.0,0.0,-0.2166350093377108,-0.5245765284441725,-0.5611628414649605,-1.198143621272569,-0.3125046200043047,-0.13778141422546689
13860,8.0,300.34589,4635.2869,0.0,0.0,0.0,-0.1405562512975402,0.0,0.0,-0.3279042787341327,-0.5151924747630385,-0.5659147108564334,-1.202322669985009,-0.3067525613066207,-0.1003956458625288
13861,8.0,301.27024,4862.3869,0.0,0.0,0.0,-0.14056639244121247,0.0,0.0,-0.3375110042572427,-0.5479163493301334,-0.5926168400792284,-1.2197838063082889,-0.33162320044366167,-0.13893407740672586
13862,8.0,301.06487000000004,4637.0925,0.0,0.0,0.0,-0.14057653358488473,0.0,0.0,-0.3187214159928547,-0.5303226798937736,-0.5605162257811445,-1.1930821330480388,-0.3084459454037447,-0.11581580365512988
13863,8.0,301.00059,4479.1869,0.0,0.0,0.0,-0.14058667472855696,0.0,0.0,-0.24328150099751475,-0.5081132002893685,-0.6101662710162225,-1.1987354606559788,-0.3162427732007317,-0.11704015428096388
13864,8.0,301.3335,4578.0425,0.0,0.0,0.0,-0.14059681587222925,0.0,0.0,-0.2782964961607257,-0.5087219812144506,-0.6045921289035975,-1.1843520715114488,-0.30366418513432175,-0.1034266325624139
13865,8.0,300.34653,4579.9035,0.0,0.0,0.0,-0.1406069570159015,0.0,0.0,-0.25576719429475675,-0.5176840364939365,-0.6187250730209104,-1.196808258965779,-0.3284205397925837,-0.11166540965551788
13866,8.0,300.45331,4730.5341,0.0,0.0,0.0,-0.14061709815957377,0.0,0.0,-0.3336819726593467,-0.5350350629288495,-0.5692472195078264,-1.1873677064590689,-0.30779505380450667,-0.09272691212993373
13867,8.0,300.54402999999996,4603.8169,0.0,0.0,0.0,-0.14062723930324605,0.0,0.0,-0.2843564207687937,-0.5358920799959305,-0.5791968795272814,-1.215900322650019,-0.29729120677535775,-0.1083335190866859
13868,8.0,299.46951,4386.2744,0.0,0.0,0.0,-0.1406373804469183,0.0,0.0,-0.28028483736195975,-0.5112386411503255,-0.5417944239484465,-1.2444482389174787,-0.3238930546357557,-0.12386253945678088
13869,8.0,299.6384,4525.9989,0.0,0.0,0.0,-0.14064752159059055,0.0,0.0,-0.25754705928791577,-0.5186091338352364,-0.5996344481518124,-1.2122883900185488,-0.3282523909384887,-0.13921626755957586
13870,8.0,300.0154,4878.4074,0.0,0.0,0.0,-0.1406576627342628,0.0,0.0,-0.32025256861646767,-0.5454010471493925,-0.6172604200013604,-1.1916890154855488,-0.3235636267632437,-0.1040216130211339
13871,8.0,299.11229,4586.8383,0.0,0.0,0.0,-0.1406678038779351,0.0,0.0,-0.27509150503441776,-0.5010599055482625,-0.6181328992649674,-1.160751754157279,-0.2887429932342147,-0.12103979693069788
13872,8.0,299.73453,4344.1569,0.0,0.0,0.0,-0.14067794502160735,0.0,0.0,-0.29722280226110676,-0.5088727832268335,-0.5144196486467665,-1.188419561387879,-0.3118023464924957,-0.12752424293316286
13873,8.0,300.52283,4552.1516,0.0,0.0,0.0,-0.14068808616527959,0.0,0.0,-0.2931993583665237,-0.5104414159716455,-0.5800996549688784,-1.178864612944879,-0.29275724695039074,-0.13808522713545088
13874,8.0,301.60489,4687.3893,0.0,0.0,0.0,-0.14069822730895185,0.0,0.0,-0.3086838869247277,-0.5194927689824445,-0.5966726471820054,-1.1802543867820388,-0.30594259957418374,-0.1069659050292129
13875,8.0,301.7513,4568.9335,0.0,0.0,0.0,-0.14070836845262413,0.0,0.0,-0.23812509150361677,-0.5422482181382325,-0.6084683779561534,-1.1858064907049888,-0.2861045811663237,-0.12724330921043686
13876,8.0,300.88214,4497.3643,0.0,0.0,0.0,-0.1407185095962964,0.0,0.0,-0.25366094117938576,-0.49640750691910657,-0.6170179897824344,-1.1988128729636187,-0.31624733282618167,-0.11601444120473389
13877,8.0,300.97487,4708.9861,0.0,0.0,0.0,-0.14072865073996865,0.0,0.0,-0.2766930582749787,-0.5587493810517704,-0.5959717415578314,-1.2234983811748887,-0.3135093284059617,-0.1143658022320259
13878,8.0,299.78942,4599.4897,0.0,0.0,0.0,-0.14073879188364088,0.0,0.0,-0.3232172066865547,-0.5130076238374105,-0.5619051991507255,-1.209526472895969,-0.3055840508937977,-0.11502244909183189
13879,8.0,300.4416,4573.2149,0.0,0.0,0.0,-0.14074893302731317,0.0,0.0,-0.27309197755207976,-0.5303998084913856,-0.5866513605129815,-1.2039829815988687,-0.2964111078709987,-0.12780318055319187
13880,8.0,300.2353,4739.4674,0.0,0.0,0.0,-0.14075907417098543,0.0,0.0,-0.3161946843509857,-0.5378143268931415,-0.5866707439873944,-1.1696625795117088,-0.2975087718368297,-0.14335739032077285
13881,8.0,299.51725,4601.0325,0.0,0.0,0.0,-0.1407692153146577,0.0,0.0,-0.27968577350533674,-0.5063843929687485,-0.6125288358768894,-1.1966810960782288,-0.29835261665261076,-0.11813279252629888
13882,8.0,299.91347,4418.9929,0.0,0.0,0.0,-0.14077935645832995,0.0,0.0,-0.2726381225672877,-0.4938404479232575,-0.5767849187242394,-1.1810475589603189,-0.31728440443603273,-0.12166291534469488
13883,8.0,300.7875,4505.509,0.0,0.0,0.0,-0.1407894976020022,0.0,0.0,-0.2862891345395377,-0.4977563555847275,-0.5855167331835025,-1.176335743345299,-0.3041806995052977,-0.10117289380223721
13884,8.0,300.01811000000004,4575.0394,0.0,0.0,0.0,-0.14079963874567447,0.0,0.0,-0.3107884884424357,-0.5037945155806476,-0.5761147145780954,-1.195446450831379,-0.3294930042284277,-0.09814634209803981
13885,8.0,300.79595,4624.6807,0.0,0.0,0.0,-0.14080977988934673,0.0,0.0,-0.2859445079155257,-0.5303831101297375,-0.5894598263451554,-1.2074419134652388,-0.31396253491068976,-0.13743790217656487
13886,8.0,301.17152999999996,4734.8925,0.0,0.0,0.0,-0.140819921033019,0.0,0.0,-0.30590460269543374,-0.5259282344750755,-0.6074562525637645,-1.2359460573283787,-0.3113380347666717,-0.10501521620169489
13887,8.0,300.78339,4629.5316,0.0,0.0,0.0,-0.14083006217669128,0.0,0.0,-0.26584452382681173,-0.5218421007968055,-0.6195753722398284,-1.1985461855372987,-0.2869652256687627,-0.12366821835260287
13888,8.0,300.88704,4657.9291,0.0,0.0,0.0,-0.1408402033203635,0.0,0.0,-0.26682963597153475,-0.5476132254302175,-0.6014512562436174,-1.190394892457829,-0.33164966653627365,-0.12195311017333488
13889,8.0,299.74553,4631.9788,0.0,0.0,0.0,-0.14085034446403577,0.0,0.0,-0.2990027685792757,-0.5189571447145825,-0.5900459813955045,-1.1949197634293989,-0.3156404365462857,-0.13048038996741188
13890,8.0,299.80689,4573.9523,0.0,0.0,0.0,-0.14086048560770803,0.0,0.0,-0.3121547447447747,-0.5210005053962465,-0.5572120273375455,-1.196202132755959,-0.3198960667012837,-0.1036927627011789
13891,8.0,299.77494,4340.0903,0.0,0.0,0.0,-0.14087062675138032,0.0,0.0,-0.2522567487933028,-0.4911883671115175,-0.5758339632403875,-1.1987629197336886,-0.3004854574506057,-0.12065436672515889
13892,8.0,299.85062999999997,4444.5299,0.0,0.0,0.0,-0.14088076789505258,0.0,0.0,-0.27515809583098977,-0.5118079661165135,-0.5640600477408925,-1.1962262481083388,-0.3073669049747517,-0.1173284441994159
13893,8.0,300.23521,4793.8711,0.0,0.0,0.0,-0.1408909090387248,0.0,0.0,-0.27058462938462374,-0.5602824487180725,-0.6263500232034344,-1.2201559730700189,-0.3126109403372977,-0.14125347781313286
13894,8.0,300.21252000000004,4679.9059,0.0,0.0,0.0,-0.14090105018239707,0.0,0.0,-0.3068385659751087,-0.5161657318815915,-0.5995702384929754,-1.1975894747928788,-0.3241020172038787,-0.12039157017922288
13895,8.0,299.47279,4473.2972,0.0,0.0,0.0,-0.14091119132606936,0.0,0.0,-0.24927689170671377,-0.5420138229925995,-0.5684799358696015,-1.2036341195894389,-0.32225206570130266,-0.13798782340333787
13896,8.0,300.57198999999997,4777.2145,0.0,0.0,0.0,-0.14092133246974162,0.0,0.0,-0.34339081352753464,-0.5419600092797885,-0.5668030981466105,-1.168743764321029,-0.3216259885970137,-0.13001688884166787
13897,8.0,299.94567,4796.8479,0.0,0.0,0.0,-0.14093147361341388,0.0,0.0,-0.29849246543141267,-0.5354955648342975,-0.6241339439097244,-1.200014182282179,-0.3311512690770857,-0.13643233251232287
13898,8.0,299.48998,4489.3555,0.0,0.0,0.0,-0.1409416147570861,0.0,0.0,-0.2708234423006928,-0.5191887534224405,-0.5746397872025315,-1.194797261492309,-0.31552745916013575,-0.1101854160294539
13899,8.0,300.30397,4435.9738,0.0,0.0,0.0,-0.1409517559007584,0.0,0.0,-0.21751761096981678,-0.5050507937171326,-0.6258568541147624,-1.210366254578849,-0.3173056928206337,-0.1053982956670019
13900,8.0,299.44048,4401.1792,0.0,0.0,0.0,-0.14096189704443068,0.0,0.0,-0.25463213126773476,-0.5126027493624524,-0.5706137189901895,-1.2132555372389988,-0.33409422359503266,-0.08539935287825992
13901,8.0,298.29772,4449.1491,0.0,0.0,0.0,-0.14097203818810292,0.0,0.0,-0.27236652087798274,-0.5378022388194486,-0.5422614815820415,-1.218908560871909,-0.3219436830333677,-0.14361838328153087
13902,8.0,298.98900000000003,4607.3011,0.0,0.0,0.0,-0.1409821793317752,0.0,0.0,-0.3204126114697627,-0.5022731914830045,-0.5778186972712654,-1.1963527017208189,-0.3016832913213227,-0.09544885248306831
13903,8.0,299.03033999999997,4511.5282,0.0,0.0,0.0,-0.14099232047544744,0.0,0.0,-0.2874756301416357,-0.5156452253052215,-0.5682710847589895,-1.1978720702457688,-0.28528114320755676,-0.12979717568998386
13904,8.0,299.66359,4505.2699,0.0,0.0,0.0,-0.1410024616191197,0.0,0.0,-0.25967531006295774,-0.5110729342289716,-0.5987413188511674,-1.185827971607109,-0.2886797866929767,-0.12383952854700989
13905,8.0,300.86903,4650.2197,0.0,0.0,0.0,-0.14101260276279196,0.0,0.0,-0.25821527746386375,-0.5283584033824145,-0.6269770021003124,-1.190741930617079,-0.2968934858461057,-0.14328019079565385
13906,8.0,300.56007,4672.7303,0.0,0.0,0.0,-0.14102274390646424,0.0,0.0,-0.27870483595102574,-0.5296042349103685,-0.6120842825280154,-1.1959060610767387,-0.3113568609535297,-0.13353678796655488
13907,8.0,300.38222,4456.4906,0.0,0.0,0.0,-0.1410328850501365,0.0,0.0,-0.27602223604627374,-0.5097293139338666,-0.5689103239820775,-1.204059076681379,-0.3255722025689747,-0.12232125433216788
13908,8.0,299.955,4329.5731,0.0,0.0,0.0,-0.14104302619380873,0.0,0.0,-0.2716361904709047,-0.5173591783793755,-0.5270867542419125,-1.2375126433079888,-0.3259232835961237,-0.12292887001963489
13909,8.0,300.3104,4615.5705,0.0,0.0,0.0,-0.141053167337481,0.0,0.0,-0.27923855530869973,-0.5519720855054034,-0.5718075403905104,-1.226762667697049,-0.3388134663332857,-0.09213778724354162
13910,8.0,299.81601,4701.7135,0.0,0.0,0.0,-0.14106330848115325,0.0,0.0,-0.28245918088405075,-0.5268024970588585,-0.6199418344034954,-1.2301032519517388,-0.3057315091808507,-0.09412816406422651
13911,8.0,298.74157,4566.3291,0.0,0.0,0.0,-0.14107344962482554,0.0,0.0,-0.24012656442614677,-0.5349918072820805,-0.6129316635866454,-1.174937458207299,-0.2941496147078067,-0.0973735544852716
13912,8.0,299.12871,4591.6013,0.0,0.0,0.0,-0.1410835907684978,0.0,0.0,-0.2997631013218147,-0.5005384363842975,-0.5954306052094255,-1.178557902139609,-0.3036469092201167,-0.11610162124333791
13913,8.0,300.32837,4787.3356,0.0,0.0,0.0,-0.14109373191217003,0.0,0.0,-0.3290135545461097,-0.5351699569146625,-0.5910469610367934,-1.173466725687149,-0.3006998307742627,-0.12562738808345789
13914,8.0,300.01077000000004,4636.5865,0.0,0.0,0.0,-0.1411038730558423,0.0,0.0,-0.30951394140664773,-0.5166346336303685,-0.5832579453980774,-1.185280816553109,-0.29944208342513273,-0.1214622208973879
13915,8.0,301.04392,4559.2066,0.0,0.0,0.0,-0.14111401419951458,0.0,0.0,-0.28599515015552374,-0.48430913860509056,-0.6155806742505824,-1.1974786252319387,-0.2860495312883907,-0.12068571668325288
13916,8.0,300.29174,4460.6773,0.0,0.0,0.0,-0.14112415534318684,0.0,0.0,-0.24249987987037475,-0.49417877213164746,-0.6192558640857954,-1.216058490990629,-0.3095627597964657,-0.09528150916280281
13917,8.0,300.21862999999996,4400.6496,0.0,0.0,0.0,-0.1411342964868591,0.0,0.0,-0.2395087149126698,-0.5149305090821845,-0.5832483600521314,-1.2168534870190888,-0.33740629499190866,-0.13674551798573187
13918,8.0,299.75562,4481.6385,0.0,0.0,0.0,-0.14114443763053133,0.0,0.0,-0.2832895798710047,-0.5158402354194674,-0.5631763619311795,-1.2282879130725788,-0.3183349016097087,-0.09624658530004841
13919,8.0,300.56305,4797.323,0.0,0.0,0.0,-0.14115457877420362,0.0,0.0,-0.3309824210804217,-0.5593648190300095,-0.5679191424692555,-1.2092412429928188,-0.3251444387742577,-0.13224712323927487
13920,8.0,299.89153999999996,4795.2195,0.0,0.0,0.0,-0.14116471991787588,0.0,0.0,-0.3345111658786817,-0.5340296857821265,-0.5890861397082754,-1.1975092253849589,-0.3097681253267337,-0.0965195660227395
13921,8.0,300.85085,4707.4458,0.0,0.0,0.0,-0.14117486106154814,0.0,0.0,-0.27978499095512877,-0.5545421943840534,-0.5966187929391904,-1.193446497783999,-0.3071110187944977,-0.11317106890661488
13922,8.0,300.64639,4662.3214,0.0,0.0,0.0,-0.14118500220522043,0.0,0.0,-0.2589854589973748,-0.5267613489722975,-0.6314824591999664,-1.1868606761090288,-0.2908684069089767,-0.0984913618630906
13923,8.0,301.52491000000003,4508.4201,0.0,0.0,0.0,-0.14119514334889266,0.0,0.0,-0.23023982723790176,-0.5145925091138265,-0.6256147886658724,-1.1943130292695188,-0.3072723180779167,-0.1126953378521639
13924,8.0,300.78524,4362.2358,0.0,0.0,0.0,-0.14120528449256492,0.0,0.0,-0.26966511505137475,-0.5164095705181565,-0.5399360827350425,-1.2014954526033688,-0.30501583037021873,-0.14872787929579886
13925,8.0,300.16062,4348.616,0.0,0.0,0.0,-0.14121542563623718,0.0,0.0,-0.2917342797819317,-0.48602756011218556,-0.5441088391643615,-1.1974633251554287,-0.33817592937036567,-0.13363868039661086
13926,8.0,299.00223,4451.9464,0.0,0.0,0.0,-0.14122556677990947,0.0,0.0,-0.3054814086586677,-0.5128547041323185,-0.5349444378399055,-1.201383792442349,-0.29939455186294167,-0.13690223737869886
13927,8.0,299.02849,4527.3776,0.0,0.0,0.0,-0.14123570792358173,0.0,0.0,-0.27773909714821476,-0.5033708351838335,-0.5950997891842764,-1.196721930057259,-0.30327412437582574,-0.1040119263501779
13928,8.0,299.86499,4801.7528,0.0,0.0,0.0,-0.14124584906725396,0.0,0.0,-0.2593687816427057,-0.5467622574662335,-0.6534819224561443,-1.1897642455955888,-0.2814349066229627,-0.09925522780872831
13929,8.0,299.98475,5051.8609,0.0,0.0,0.0,-0.14125599021092622,0.0,0.0,-0.3110313442264037,-0.5687290535391875,-0.6558791810002355,-1.1848439031099889,-0.3187182749175447,-0.09199799419349511
13930,8.0,300.9751,4920.3101,0.0,0.0,0.0,-0.1412661313545985,0.0,0.0,-0.3420637902690677,-0.5364932514127615,-0.6170943787074734,-1.195386973050509,-0.2935618384572977,-0.0888833991616085
13931,8.0,300.48079,4650.8894,0.0,0.0,0.0,-0.14127627249827077,0.0,0.0,-0.32536534756105967,-0.5228330999246095,-0.5655557872735104,-1.2094189670603588,-0.3038046722606867,-0.1119892646524799
13932,8.0,300.45797000000005,4686.8549,0.0,0.0,0.0,-0.14128641364194303,0.0,0.0,-0.3081617287506947,-0.5261559016400446,-0.5903692385749074,-1.2057047974937987,-0.31007445109696574,-0.1217924492374789
13933,8.0,300.56063,4619.8888,0.0,0.0,0.0,-0.14129655478561526,0.0,0.0,-0.2937080403142267,-0.5162197887744264,-0.5944029973555085,-1.2038282583085989,-0.3551003572481767,-0.13596424136362587
13934,8.0,300.09586,4361.8075,0.0,0.0,0.0,-0.14130669592928755,0.0,0.0,-0.2176779476656408,-0.5110936349285145,-0.5971089729400675,-1.166703889219709,-0.3193759046299477,-0.13538255474621785
13935,8.0,299.95293,4167.4302,0.0,0.0,0.0,-0.1413168370729598,0.0,0.0,-0.22623365925752376,-0.4763607387256446,-0.5642003322172374,-1.165097279861149,-0.3322256384231177,-0.13156872189982186
13936,8.0,299.1511,4266.9779,0.0,0.0,0.0,-0.14132697821663207,0.0,0.0,-0.25985177770037376,-0.5011839577580055,-0.5360189895709555,-1.186623575585629,-0.3023322678778717,-0.13419844028185487
13937,8.0,298.54364,4591.2649,0.0,0.0,0.0,-0.14133711936030433,0.0,0.0,-0.3001793951253997,-0.5479649853349335,-0.5474855052551125,-1.207016449748249,-0.3295011608917327,-0.1153367491403509
13938,8.0,299.18347,4740.6223,0.0,0.0,0.0,-0.14134726050397659,0.0,0.0,-0.31178435117071973,-0.5407543936483035,-0.5884920610421445,-1.2122634640660888,-0.2881253767682607,-0.11742109578855989
13939,8.0,299.67377,4671.7199,0.0,0.0,0.0,-0.14135740164764884,0.0,0.0,-0.2565976946067207,-0.5405409829122414,-0.6229475192351334,-1.2057827164264887,-0.3070634264373007,-0.09447653768710831
13940,8.0,298.94864,4523.3625,0.0,0.0,0.0,-0.1413675427913211,0.0,0.0,-0.2204524088244588,-0.5514357519624714,-0.6031010807189424,-1.2201807976974688,-0.3220695185632867,-0.12626058833594989
13941,8.0,299.74666,4633.9705,0.0,0.0,0.0,-0.14137768393499336,0.0,0.0,-0.2584099228080738,-0.5473339129076514,-0.6028674961733894,-1.2228733071881988,-0.3476578326136566,-0.09979010125826622
13942,8.0,299.82895,4721.8735,0.0,0.0,0.0,-0.14138782507866562,0.0,0.0,-0.32391655190557467,-0.5504926592993954,-0.5609224174812325,-1.215039060065019,-0.3058409097941477,-0.13653847046029788
13943,8.0,300.20873,4560.8162,0.0,0.0,0.0,-0.14139796622233788,0.0,0.0,-0.3170577707861657,-0.5141777250528905,-0.5551387555129296,-1.156329221445809,-0.2952549996393997,-0.1208422536912019
13944,8.0,299.7079,4296.92,0.0,0.0,0.0,-0.14140810736601014,0.0,0.0,-0.26928309949867274,-0.4960325131895975,-0.5408407833518296,-1.199831493289149,-0.3023342437155667,-0.15057534833562985
13945,8.0,300.34213,4547.001,0.0,0.0,0.0,-0.1414182485096824,0.0,0.0,-0.26025846589301077,-0.5305835715295215,-0.5913327178299954,-1.1636004054884188,-0.3324135253891607,-0.1028515016731529
13946,8.0,301.11753999999996,4743.6667,0.0,0.0,0.0,-0.1414283896533547,0.0,0.0,-0.26301013905707976,-0.5310187320499685,-0.6479273664679523,-1.1792982839876789,-0.3067408481354647,-0.11031780728751989
13947,8.0,300.6326,4663.2211,0.0,0.0,0.0,-0.14143853079702692,0.0,0.0,-0.2749762478355427,-0.5211020634537695,-0.6214244523473184,-1.1513238672768187,-0.31160538080555666,-0.08167008588520992
13948,8.0,300.1716,4642.3493,0.0,0.0,0.0,-0.14144867194069918,0.0,0.0,-0.2961339941011497,-0.5467895138939235,-0.5682347698754054,-1.2083569796305489,-0.3232705239068167,-0.1154347608225239
13949,8.0,299.3914,4787.9418,0.0,0.0,0.0,-0.14145881308437144,0.0,0.0,-0.32771323042777767,-0.5514647410478325,-0.5762367808176424,-1.202470705824619,-0.3207677860273157,-0.09367880588337832
13950,8.0,298.7671,4790.9808,0.0,0.0,0.0,-0.14146895422804373,0.0,0.0,-0.3101110294255757,-0.5554385255550145,-0.5907889672963315,-1.2110469559960289,-0.2889629394334217,-0.11539065404567089
13951,8.0,299.23196,4712.4735,0.0,0.0,0.0,-0.14147909537171596,0.0,0.0,-0.2513309320444318,-0.5451045397726295,-0.6360388118521434,-1.1791055638186592,-0.3030600448946977,-0.1002031992710358
13952,8.0,299.13737000000003,4518.5695,0.0,0.0,0.0,-0.14148923651538825,0.0,0.0,-0.24430407299843476,-0.5135839199642865,-0.6156443063568624,-1.194453263083359,-0.32141967061165166,-0.1132476503491729
13953,8.0,299.64083999999997,4335.404,0.0,0.0,0.0,-0.14149937765906048,0.0,0.0,-0.23738958338852778,-0.49477428961292047,-0.5856906879606705,-1.1758317527455588,-0.32014665358351474,-0.12279235483366188
13954,8.0,299.49715,4441.7111,0.0,0.0,0.0,-0.14150951880273277,0.0,0.0,-0.30598080923545473,-0.49595403696935253,-0.5482344288015255,-1.1817779096323988,-0.2949665577334327,-0.1265019850397739
13955,8.0,300.20396,4622.4417,0.0,0.0,0.0,-0.141519659946405,0.0,0.0,-0.3344591962810527,-0.48389151744387454,-0.5867561407058225,-1.186142079138109,-0.3042772521073267,-0.1190098516803579
13956,8.0,299.92366,4764.9987,0.0,0.0,0.0,-0.1415298010900773,0.0,0.0,-0.32541569595852865,-0.5427974706199395,-0.5802274764689934,-1.203146442316309,-0.2936872281571727,-0.12556148629695388
13957,8.0,300.50434,4733.7252,0.0,0.0,0.0,-0.14153994223374955,0.0,0.0,-0.28073982718686374,-0.5257961877220435,-0.6323982549053484,-1.2111252802287589,-0.32950447421955964,-0.0995443404862615
13958,8.0,299.65772999999996,4666.7937,0.0,0.0,0.0,-0.1415500833774218,0.0,0.0,-0.27508917455918774,-0.5456378538302634,-0.5978617367043594,-1.184050224306659,-0.31742602640250966,-0.1137128740000869
13959,8.0,300.6706,4748.7407,0.0,0.0,0.0,-0.14156022452109407,0.0,0.0,-0.2892066260824717,-0.5434509966694375,-0.6108409942578124,-1.205590502882519,-0.3249480607723767,-0.08090721393792033
13960,8.0,299.75956,4733.736,0.0,0.0,0.0,-0.14157036566476633,0.0,0.0,-0.3225965707353027,-0.5270690831601684,-0.5892718887166074,-1.1918689687033088,-0.3218713369762277,-0.11571223936240889
13961,8.0,301.01396,4624.8483,0.0,0.0,0.0,-0.1415805068084386,0.0,0.0,-0.3075248098703357,-0.5241964279341595,-0.5741171528009514,-1.2147155293080887,-0.3073188870525127,-0.1004060681530574
13962,8.0,300.52575,4512.092000000001,0.0,0.0,0.0,-0.14159064795211085,0.0,0.0,-0.27608995155045674,-0.4920064145797525,-0.6034669248000484,-1.1811510117955288,-0.26924772693768173,-0.1219637087693809
13963,8.0,299.58386,4528.1154,0.0,0.0,0.0,-0.1416007890957831,0.0,0.0,-0.25884909579891674,-0.5024277019907535,-0.6151572167687904,-1.1925951650499789,-0.30092061797105274,-0.11795947609669388
13964,8.0,299.65281,4475.9759,0.0,0.0,0.0,-0.14161093023945537,0.0,0.0,-0.25763353005144973,-0.5064651287367165,-0.5964862496936094,-1.1743137014457388,-0.3131986355277987,-0.13670195836393287
13965,8.0,299.87638,4415.2839,0.0,0.0,0.0,-0.14162107138312763,0.0,0.0,-0.27850834649163375,-0.4975811443774355,-0.5660465549594454,-1.1844392110200488,-0.34063553319310963,-0.11202983518648389
13966,8.0,299.15977999999996,4534.3192,0.0,0.0,0.0,-0.1416312125267999,0.0,0.0,-0.3172932602419067,-0.5300301140598995,-0.5309964506802695,-1.1648341388101788,-0.3238553110695307,-0.13806660359861286
13967,8.0,299.77496,4771.4264,0.0,0.0,0.0,-0.14164135367047218,0.0,0.0,-0.3493948269950847,-0.5289741858656875,-0.5720254702220184,-1.2177875009612689,-0.3163355666448897,-0.1069895340215449
13968,8.0,300.22707,4779.0507,0.0,0.0,0.0,-0.1416514948141444,0.0,0.0,-0.3159490319967417,-0.5407546874908326,-0.5960083705489464,-1.2063309860555989,-0.3012529437388507,-0.13207782941256688
13969,8.0,301.03862999999996,4501.1615,0.0,0.0,0.0,-0.14166163595781667,0.0,0.0,-0.24788920516475976,-0.5197671469770235,-0.6005843295905584,-1.2093021393238288,-0.28942751460427174,-0.1067625963966479
13970,8.0,300.90607,4381.2543,0.0,0.0,0.0,-0.14167177710148893,0.0,0.0,-0.24569633943084077,-0.5001887840397895,-0.5859067939419984,-1.210863659052939,-0.2840558502591297,-0.11898071060748189
13971,8.0,300.54646,4478.6635,0.0,0.0,0.0,-0.1416819182451612,0.0,0.0,-0.28025176487869574,-0.5127347961154844,-0.5684153006457224,-1.2147556540120488,-0.3118815826503157,-0.099495496765191
13972,8.0,300.25372000000004,4523.9961,0.0,0.0,0.0,-0.14169205938883347,0.0,0.0,-0.2918237193682587,-0.5298809231151755,-0.5534772077339475,-1.222973720273109,-0.3270302795953757,-0.12077818588737889
13973,8.0,300.08833,4562.782,0.0,0.0,0.0,-0.1417022005325057,0.0,0.0,-0.2954530191064427,-0.5128762255644426,-0.5786425405300725,-1.202819567834049,-0.3056392020967407,-0.1092077715379679
13974,8.0,298.56911,4490.8859,0.0,0.0,0.0,-0.14171234167617797,0.0,0.0,-0.26888737467211776,-0.5184460107016375,-0.5777837806728193,-1.1950138943636888,-0.3194393543512097,-0.12968764335417388
13975,8.0,299.02136,4557.0945,0.0,0.0,0.0,-0.14172248281985023,0.0,0.0,-0.2663706640737377,-0.5056315177469455,-0.6132407656621514,-1.173643639154609,-0.3221436580731037,-0.11630004601042088
13976,8.0,299.80406,4664.0202,0.0,0.0,0.0,-0.1417326239635225,0.0,0.0,-0.29650883584314375,-0.5237427958643895,-0.5974940586405725,-1.1942753363657987,-0.3325331294309647,-0.12952566519318787
13977,8.0,299.46809,4708.7398,0.0,0.0,0.0,-0.14174276510719477,0.0,0.0,-0.3089568463691667,-0.5165538471998955,-0.6058286081331284,-1.185701416669619,-0.3183173825154797,-0.10356047276812291
13978,8.0,299.43109,4519.5167,0.0,0.0,0.0,-0.141752906250867,0.0,0.0,-0.30944575980741873,-0.49111357912163656,-0.5732608855389445,-1.204743020498879,-0.3030528609514887,-0.1023271954089079
13979,8.0,299.82687999999996,4593.9954,0.0,0.0,0.0,-0.14176304739453927,0.0,0.0,-0.2812296728152077,-0.5359794626845545,-0.5792507540350984,-1.212699262934099,-0.2956367314820737,-0.1037858905178699
13980,8.0,299.79922,4661.2663,0.0,0.0,0.0,-0.14177318853821155,0.0,0.0,-0.2965300026377327,-0.5194642865221335,-0.6009142640881204,-1.2181703068490488,-0.3220256650989587,-0.1172021729719539
13981,8.0,300.14803,4561.1087,0.0,0.0,0.0,-0.1417833296818838,0.0,0.0,-0.25309794902632277,-0.5264053435496625,-0.6069598714722755,-1.2088775875319289,-0.3038310775582927,-0.11783164446407789
13982,8.0,300.22117000000003,4509.6599,0.0,0.0,0.0,-0.14179347082555607,0.0,0.0,-0.26029537859415375,-0.5308589121116956,-0.5796697025539455,-1.2062033165429988,-0.28641920545487476,-0.12572057669515488
13983,8.0,300.06516,4638.8299,0.0,0.0,0.0,-0.1418036119692283,0.0,0.0,-0.27754839334689374,-0.5300515645645164,-0.6024885102384864,-1.197509124059949,-0.3163005791189367,-0.11200583129161489
13984,8.0,301.01172,4864.4325,0.0,0.0,0.0,-0.1418137531129006,0.0,0.0,-0.32703573088091364,-0.5421562960891605,-0.6094739881503994,-1.1985661465642687,-0.32225666585675666,-0.13420268579977387
13985,8.0,300.63118,4660.3839,0.0,0.0,0.0,-0.14182389425657285,0.0,0.0,-0.29604811102267375,-0.5012198268115455,-0.6193724081122974,-1.183962679498019,-0.3036730105426927,-0.1140096853518799
13986,8.0,300.69639,4421.3442,0.0,0.0,0.0,-0.1418340354002451,0.0,0.0,-0.2760152040905797,-0.4959035061868655,-0.5720595255578795,-1.183481284375509,-0.3217718155514057,-0.12399418090977288
13987,8.0,299.48761,4497.2938,0.0,0.0,0.0,-0.1418441765439174,0.0,0.0,-0.26774395233177073,-0.5198305663007825,-0.5794905092737604,-1.203213620797939,-0.3073189883775227,-0.1193425827481959
13988,8.0,299.25038,4639.7311,0.0,0.0,0.0,-0.14185431768758963,0.0,0.0,-0.3019116272313577,-0.5192954993204755,-0.5891552838950994,-1.2038391000846687,-0.3375330829769217,-0.1090258830125169
13989,8.0,299.63801,4706.7555,0.0,0.0,0.0,-0.1418644588312619,0.0,0.0,-0.29866522457346273,-0.5482673898272785,-0.5838035400469235,-1.1886998263655386,-0.3156242853396917,-0.12573885572695886
13990,8.0,299.95311,4652.7255,0.0,0.0,0.0,-0.14187459997493415,0.0,0.0,-0.2948351999904687,-0.5420355470747434,-0.5774416466440534,-1.2068994193616989,-0.3160054294973077,-0.1030288407056549
13991,8.0,299.279,4501.4608,0.0,0.0,0.0,-0.14188474111860644,0.0,0.0,-0.25613510540606677,-0.5396356439478915,-0.5725609323698645,-1.2296962293865688,-0.3259582812545777,-0.11554428302583289
13992,8.0,300.93895,4622.7008,0.0,0.0,0.0,-0.1418948822622787,0.0,0.0,-0.25931250573215175,-0.5412647474586715,-0.6046083611701994,-1.2105580628227788,-0.3148141209572347,-0.1170007895145789
13993,8.0,300.52296,4732.1219,0.0,0.0,0.0,-0.14190502340595093,0.0,0.0,-0.2905835417758627,-0.5320177155885605,-0.6158456492842334,-1.2217125278736387,-0.2988894669530937,-0.13765554829804486
13994,8.0,300.08021,4757.5674,0.0,0.0,0.0,-0.1419151645496232,0.0,0.0,-0.3015650855646567,-0.5446623472964885,-0.5999542704133765,-1.191974954663769,-0.28558830997537177,-0.11066093430138389
13995,8.0,300.89112,4757.8475,0.0,0.0,0.0,-0.14192530569329548,0.0,0.0,-0.3040191570418547,-0.5453638203407185,-0.5968838692978514,-1.2154801278335488,-0.3104348134950307,-0.13967847172519185
13996,8.0,300.39962,4624.8877,0.0,0.0,0.0,-0.14193544683696774,0.0,0.0,-0.30502190987081873,-0.5116760308209924,-0.5891524467948195,-1.1944565054836789,-0.32768261000975574,-0.10059383150258822
13997,8.0,299.75061,4434.8068,0.0,0.0,0.0,-0.14194558798064,0.0,0.0,-0.24452293502003475,-0.5392907437463524,-0.5642568715728175,-1.207232373344559,-0.3443146949687147,-0.12932882109626087
13998,8.0,299.78229,4438.4768,0.0,0.0,0.0,-0.14195572912431223,0.0,0.0,-0.26493767511981275,-0.5059078614467185,-0.5783406021327735,-1.169898261484969,-0.3168832181914387,-0.09693417985765872
13999,8.0,298.51991,4499.9464,0.0,0.0,0.0,-0.14196587026798452,0.0,0.0,-0.25089662265406876,-0.5478400009350984,-0.5691347082167225,-1.207604438781279,-0.3251712392394027,-0.14136669837930685
14000,8.0,299.39557,4752.2029999999995,0.0,0.0,0.0,-0.14197601141165678,0.0,0.0,-0.2904593173136027,-0.5656406368368845,-0.5884511054731024,-1.195120285624189,-0.3173943724693857,-0.13580231386514488
14001,8.0,299.76279,4810.1338,0.0,0.0,0.0,-0.14198615255532904,0.0,0.0,-0.3019135321415457,-0.5608683808533995,-0.5993786632965684,-1.2285056605190687,-0.31254158336795274,-0.12155483195652789
14002,8.0,301.18798,4707.1624,0.0,0.0,0.0,-0.1419962936990013,0.0,0.0,-0.29410080645048975,-0.5649192939581935,-0.5718397212136864,-1.2020018750033488,-0.2869255265298447,-0.1221212995574339
14003,8.0,300.67922000000004,4642.2385,0.0,0.0,0.0,-0.14200643484267356,0.0,0.0,-0.26463070086951673,-0.5172161378627584,-0.6292777384398774,-1.2179993715571789,-0.2939352819141537,-0.1020663240381619
14004,8.0,301.28929,4776.4901,0.0,0.0,0.0,-0.14201657598634582,0.0,0.0,-0.2775131221109127,-0.5453479123141485,-0.6290726870171404,-1.2330850443460186,-0.3018552398632927,-0.1023846264245759
14005,8.0,300.35966,4847.8789,0.0,0.0,0.0,-0.14202671713001808,0.0,0.0,-0.29042877795558875,-0.5548778030821755,-0.6283275732911033,-1.2176464565473488,-0.28878657312101574,-0.10742499851702189
14006,8.0,300.80511,4858.593,0.0,0.0,0.0,-0.14203685827369034,0.0,0.0,-0.32794635901078567,-0.5210808561291765,-0.6278637377928263,-1.2058532386334488,-0.28956122308746773,-0.100962034429927
14007,8.0,300.36855,4724.7888,0.0,0.0,0.0,-0.14204699941736262,0.0,0.0,-0.30600216854756274,-0.5417178121083855,-0.5884978163027125,-1.173417684382309,-0.30381888815958974,-0.12828275182552187
14008,8.0,300.5625,4593.8189,0.0,0.0,0.0,-0.14205714056103486,0.0,0.0,-0.2973785388014767,-0.5282089692576665,-0.5708187096179205,-1.2206171031905289,-0.33935284975901864,-0.11567262128349888
14009,8.0,299.23208999999997,4668.6796,0.0,0.0,0.0,-0.14206728170470712,0.0,0.0,-0.27792063103613074,-0.5375663541961685,-0.6036750261055864,-1.1932035204100189,-0.3364474969522827,-0.11260354752560489
14010,8.0,299.58109,4632.1311,0.0,0.0,0.0,-0.14207742284837938,0.0,0.0,-0.27421864073577273,-0.5525197877144575,-0.5813137413711994,-1.1930014783400789,-0.3264456140226737,-0.1126738265525409
14011,8.0,300.0737,4457.1609,0.0,0.0,0.0,-0.14208756399205166,0.0,0.0,-0.23845469162864577,-0.5214858825916495,-0.5949250440720304,-1.1826629835947489,-0.3003376850560217,-0.12661092969052587
14012,8.0,299.87824,4415.1388,0.0,0.0,0.0,-0.14209770513572392,0.0,0.0,-0.2550582434647888,-0.5307156081500525,-0.5563181077018226,-1.215367353097419,-0.32298860733149365,-0.1328149992578199
14013,8.0,299.50687,4575.8109,0.0,0.0,0.0,-0.14210784627939615,0.0,0.0,-0.25271853752637774,-0.5408612104738455,-0.5973524974691015,-1.2291843354360488,-0.3019538493630247,-0.1201908858644169
14014,8.0,299.26993,4699.7595,0.0,0.0,0.0,-0.14211798742306841,0.0,0.0,-0.3056658607068717,-0.5022216677154195,-0.6207219964504914,-1.2339389102052887,-0.26784166003891374,-0.1082290226038729
14015,8.0,299.1612,4764.499,0.0,0.0,0.0,-0.1421281285667407,0.0,0.0,-0.27211975394862875,-0.5593792781089364,-0.6167897045349044,-1.2154357474791688,-0.2975684117377157,-0.1272690356304759
14016,8.0,300.51768,4667.8652,0.0,0.0,0.0,-0.14213826971041296,0.0,0.0,-0.2921757123204977,-0.5185791112347735,-0.6081596507831845,-1.219314367536959,-0.3117063613105227,-0.13029538063165286
14017,8.0,300.53642,4600.646,0.0,0.0,0.0,-0.14214841085408522,0.0,0.0,-0.27092221392044075,-0.5208472107886175,-0.6067120811603205,-1.1950924212464387,-0.31531367352153666,-0.12357375304577987
14018,8.0,300.55421,4842.5254,0.0,0.0,0.0,-0.14215855199775745,0.0,0.0,-0.33867833929994967,-0.5447055826782555,-0.5886228918950565,-1.1783479567188888,-0.3097195906469437,-0.11704515973645789
14019,8.0,300.66622,4925.1527,0.0,0.0,0.0,-0.14216869314142974,0.0,0.0,-0.35116940282272163,-0.5178683162896235,-0.6280857307572354,-1.175336982721729,-0.3084277271669467,-0.10929310746138989
14020,8.0,299.97131,4583.3756,0.0,0.0,0.0,-0.142178834285102,0.0,0.0,-0.28941824336585675,-0.5508702874791646,-0.5529432147987465,-1.208000315595349,-0.33503592810547167,-0.12671625703842088
14021,8.0,299.53874,4342.1073,0.0,0.0,0.0,-0.14218897542877426,0.0,0.0,-0.23566677450849977,-0.5080897638145555,-0.5761356584576625,-1.2046717890168488,-0.33960561512896464,-0.12859988897432087
14022,8.0,299.79348,4699.5175,0.0,0.0,0.0,-0.14219911657244655,0.0,0.0,-0.2712971772524468,-0.5408534793755825,-0.6163853062874933,-1.2287384040670388,-0.3070167156076907,-0.11380713665688988
14023,8.0,299.20831,4925.3009999999995,0.0,0.0,0.0,-0.14220925771611878,0.0,0.0,-0.3152290772706877,-0.5699918468738154,-0.6119476052220264,-1.2180337207355687,-0.3019828992433917,-0.12757205820538187
14024,8.0,299.71128999999996,4766.0367,0.0,0.0,0.0,-0.14221939885979104,0.0,0.0,-0.3128191429678457,-0.5184203957391095,-0.6175166101566444,-1.2377440696308288,-0.3153624007188457,-0.1025373536121489
14025,8.0,299.71722,4383.1064,0.0,0.0,0.0,-0.1422295400034633,0.0,0.0,-0.26858376441215376,-0.49765137274186655,-0.5661197825441725,-1.212133666728279,-0.2957321492439907,-0.12581401861937688
14026,8.0,299.80397,4432.7186,0.0,0.0,0.0,-0.1422396811471356,0.0,0.0,-0.2550253331015408,-0.4998224535986355,-0.5925879928488814,-1.188244573095609,-0.27923513052336174,-0.1177395298974869
14027,8.0,299.97753,4847.5297,0.0,0.0,0.0,-0.14224982229080785,0.0,0.0,-0.2982510281975847,-0.5519398540197226,-0.6233371138985834,-1.190858454378579,-0.29495475336976773,-0.13743945244921787
14028,8.0,300.42262999999997,4956.0561,0.0,0.0,0.0,-0.14225996343448008,0.0,0.0,-0.3122452989062117,-0.5744975066234894,-0.6197744961494803,-1.2047928724037988,-0.3216023190746777,-0.13620301374969088
14029,8.0,299.11933999999997,4543.5988,0.0,0.0,0.0,-0.14227010457815234,0.0,0.0,-0.28135609603018474,-0.5302608311076695,-0.5695236645326094,-1.195319490593849,-0.34470323585206064,-0.12026663644189288
14030,8.0,299.43483,4190.2401,0.0,0.0,0.0,-0.14228024572182463,0.0,0.0,-0.26586040145587875,-0.49382732633446247,-0.5140406424468615,-1.1908846975561689,-0.31531015754368974,-0.12926781330773987
14031,8.0,299.54097,4540.5594,0.0,0.0,0.0,-0.1422903868654969,0.0,0.0,-0.2805283416259917,-0.5354414167489535,-0.5642469113243345,-1.225634211060679,-0.3270818438929647,-0.12383337811890288
14032,8.0,300.81542,4978.2983,0.0,0.0,0.0,-0.14230052800916915,0.0,0.0,-0.3383941834419057,-0.5583728471821094,-0.6165113444674324,-1.224393992938279,-0.29417377059019073,-0.1185203302920459
14033,8.0,300.43016,4748.5208,0.0,0.0,0.0,-0.14231066915284138,0.0,0.0,-0.25880137171920675,-0.5550257071992725,-0.6296046838496444,-1.2260300878747488,-0.3028178274582927,-0.12200306340326487
14034,8.0,299.82172,4425.7095,0.0,0.0,0.0,-0.14232081029651364,0.0,0.0,-0.27109025131702474,-0.5090351464228575,-0.5651797802939015,-1.1885994132806288,-0.2760773872492167,-0.1079476430511029
14035,8.0,300.14784,4638.2887,0.0,0.0,0.0,-0.14233095144018593,0.0,0.0,-0.29213936703941074,-0.5094906631378135,-0.6082939165539355,-1.186244518723219,-0.3186692032152017,-0.11592601486850689
14036,8.0,301.38161,5035.48,0.0,0.0,0.0,-0.1423410925838582,0.0,0.0,-0.36337267291959063,-0.5579651660043745,-0.6093223451404334,-1.1818380966883388,-0.3010863958199137,-0.1098591798947569
14037,8.0,300.32894,4685.8297,0.0,0.0,0.0,-0.14235123372753045,0.0,0.0,-0.2866410970942737,-0.5021483489381835,-0.6355857877324335,-1.212511305040549,-0.3469838186471366,-0.1134020291344089
14038,8.0,299.94267,4323.5652,0.0,0.0,0.0,-0.14236137487120268,0.0,0.0,-0.2252362057265828,-0.5227254724989875,-0.5662941932838855,-1.217984983405759,-0.30062078713396173,-0.11857245187718989
14039,8.0,299.01917000000003,4305.6004,0.0,0.0,0.0,-0.14237151601487497,0.0,0.0,-0.2032401165932378,-0.5165015128322306,-0.5890533813325424,-1.2357948804134589,-0.30327426623083975,-0.14310845503620487
14040,8.0,299.536,4694.2811,0.0,0.0,0.0,-0.14238165715854723,0.0,0.0,-0.3132902130718367,-0.5190347900697455,-0.5946192249268485,-1.245342229480709,-0.2905257561226597,-0.12060401832768988
14041,8.0,299.06811,4857.3798,0.0,0.0,0.0,-0.14239179830221949,0.0,0.0,-0.3169860124140837,-0.5493648004805844,-0.6101713473992234,-1.1989758035796987,-0.3150122316167867,-0.13497961557895086
14042,8.0,300.30142,4545.2622,0.0,0.0,0.0,-0.14240193944589177,0.0,0.0,-0.32474881527271265,-0.5016021159417745,-0.5552952823883774,-1.1931530605550387,-0.3143056416595517,-0.11756014409978288
14043,8.0,299.56944,4406.0966,0.0,0.0,0.0,-0.142412080589564,0.0,0.0,-0.2560125426739708,-0.5351792889480835,-0.5481515246783435,-1.163044232508529,-0.3255824566599867,-0.11820447997087388
14044,8.0,300.20466,4715.254,0.0,0.0,0.0,-0.14242222173323626,0.0,0.0,-0.2991570460395017,-0.5481355862542705,-0.5860268235488445,-1.1935196544412188,-0.3306972621047787,-0.13484455947312188
14045,8.0,300.11756,5220.8679,0.0,0.0,0.0,-0.14243236287690852,0.0,0.0,-0.3287460159897057,-0.5690007565535025,-0.6892667039853273,-1.194645780602359,-0.30657182788628373,-0.06724424662774044
14046,8.0,300.3829,4839.0952,0.0,0.0,0.0,-0.1424425040205808,0.0,0.0,-0.3011406756277707,-0.5588571807299094,-0.6109662623676755,-1.233536953890619,-0.29202988536610575,-0.13847992857940486
14047,8.0,300.67487,4401.8655,0.0,0.0,0.0,-0.14245264516425304,0.0,0.0,-0.24962587530615576,-0.4961940252555375,-0.5922373069892715,-1.2169213747757888,-0.3007202376312767,-0.08350278477833323
14048,8.0,300.75077999999996,4417.4569,0.0,0.0,0.0,-0.1424627863079253,0.0,0.0,-0.27483483865158675,-0.5082813795409665,-0.5596803755086525,-1.2461801873134088,-0.3228610492764047,-0.13978841949354287
14049,8.0,299.58108,4716.9717,0.0,0.0,0.0,-0.14247292745159756,0.0,0.0,-0.29492711190703974,-0.5235593469337845,-0.6153551653083265,-1.199181696000019,-0.3337392820850027,-0.0990515848036303
14050,8.0,300.12924,4836.9093,0.0,0.0,0.0,-0.14248306859526982,0.0,0.0,-0.2819164638654887,-0.5624415630911604,-0.6259416327506294,-1.212187875608629,-0.31098589995941867,-0.1319561786055609
14051,8.0,300.3223,4665.6506,0.0,0.0,0.0,-0.1424932097389421,0.0,0.0,-0.25913194456433175,-0.5654058059937085,-0.5937035204139754,-1.1953195919188588,-0.31272144539320373,-0.1102054175864279
14052,8.0,300.09051,4455.5588,0.0,0.0,0.0,-0.14250335088261437,0.0,0.0,-0.26282768311157273,-0.5418009594115915,-0.5497499875060995,-1.1968778692476487,-0.3128015934761137,-0.14177879732747786
14053,8.0,298.96756,4553.1822,0.0,0.0,0.0,-0.1425134920262866,0.0,0.0,-0.2902635472617817,-0.5215112543741535,-0.5722788840720284,-1.1955768561192488,-0.30520126527101976,-0.11639319409211388
14054,8.0,298.50372999999996,4914.6596,0.0,0.0,0.0,-0.1425236331699589,0.0,0.0,-0.3316990016836427,-0.5862701656928605,-0.5759646319732835,-1.1958333097195588,-0.3040203830744757,-0.1165838370984289
14055,8.0,298.46136,4854.1916,0.0,0.0,0.0,-0.14253377431363115,0.0,0.0,-0.29124159705330777,-0.5481640991120844,-0.6361473410703544,-1.2090905727029488,-0.3316932565555757,-0.1058737024814209
14056,8.0,300.64601,4540.7797,0.0,0.0,0.0,-0.1425439154573034,0.0,0.0,-0.24819794247022972,-0.5509156912161455,-0.5811700118445144,-1.2096194892551488,-0.3209051422108717,-0.1274131400596979
14057,8.0,299.87203999999997,4380.4561,0.0,0.0,0.0,-0.14255405660097567,0.0,0.0,-0.2609086076871748,-0.5236328278310365,-0.5470078287604694,-1.2000052656812987,-0.3200845413523847,-0.12788539566630588
14058,8.0,300.22857,4696.0246,0.0,0.0,0.0,-0.14256419774464793,0.0,0.0,-0.3127084555269217,-0.5178235205027025,-0.5969422527686135,-1.2207335256270189,-0.28098992770904674,-0.1200132023268809
14059,8.0,300.19194,5035.3778,0.0,0.0,0.0,-0.1425743388883202,0.0,0.0,-0.34220695237569665,-0.5685660519956004,-0.6198561033125344,-1.223448022644919,-0.29089430558153273,-0.14482220546033886
14060,8.0,300.55516,4809.7626,0.0,0.0,0.0,-0.14258448003199245,0.0,0.0,-0.32488107480826567,-0.5227146915179235,-0.6144519541691864,-1.228087086902759,-0.28676819918681773,-0.14007997207731687
14061,8.0,300.72898,4476.4671,0.0,0.0,0.0,-0.1425946211756647,0.0,0.0,-0.24126550820105178,-0.5279914852562024,-0.5914772376917584,-1.205137782737839,-0.3152967117148627,-0.12411857762454988
14062,8.0,300.70373,4459.9176,0.0,0.0,0.0,-0.14260476231933697,0.0,0.0,-0.2600752905399328,-0.5324430475830375,-0.5631852582670575,-1.1885884701795488,-0.3187117799844037,-0.1311038022239379
14063,8.0,299.90782,4922.4195,0.0,0.0,0.0,-0.14261490346300923,0.0,0.0,-0.3241993094784807,-0.5478054693716905,-0.6242878464674134,-1.1926864588839887,-0.34270509652235964,-0.062358597825564445
14064,8.0,300.03231,4839.7443,0.0,0.0,0.0,-0.1426250446066815,0.0,0.0,-0.3068438146106267,-0.5776968742117424,-0.5866207198299574,-1.185734448622879,-0.3307198271845057,-0.1134383541504939
14065,8.0,299.5554,4413.122,0.0,0.0,0.0,-0.14263518575035375,0.0,0.0,-0.27207189814640576,-0.49930788466785153,-0.5700990993969004,-1.189532920597759,-0.3126344882696217,-0.08483965480127201
14066,8.0,299.63275,4448.4679,0.0,0.0,0.0,-0.142645326894026,0.0,0.0,-0.24272090011468778,-0.5306898614650115,-0.5788124017768365,-1.1864920557226488,-0.29584192475982474,-0.13879974070846787
14067,8.0,300.16565,4908.8727,0.0,0.0,0.0,-0.14265546803769827,0.0,0.0,-0.28779517882567274,-0.5662165073987184,-0.6381630400242884,-1.203914080592069,-0.3077114100087517,-0.14115310525822686
14068,8.0,300.2057,5147.0505,0.0,0.0,0.0,-0.14266560918137053,0.0,0.0,-0.3249864730836677,-0.5698944228767004,-0.6696939240561444,-1.2119443916095987,-0.29281967328905173,-0.15535759496510085
14069,8.0,300.21304,4774.9372,0.0,0.0,0.0,-0.1426757503250428,0.0,0.0,-0.30403825680623975,-0.5437930699031975,-0.6036303620411785,-1.209018733270859,-0.3051252917785217,-0.13580955860335986
14070,8.0,300.67629,4352.2168,0.0,0.0,0.0,-0.14268589146871505,0.0,0.0,-0.26517467431820274,-0.5210779075713855,-0.5367126403244135,-1.200306302286009,-0.3081786601598657,-0.14277757821604986
14071,8.0,300.78643999999997,4400.904,0.0,0.0,0.0,-0.1426960326123873,0.0,0.0,-0.2882890571894147,-0.4799340563958035,-0.5695418219744015,-1.1954392567556689,-0.31019871608922966,-0.1110871680884499
14072,8.0,300.61255,4933.3353,0.0,0.0,0.0,-0.1427061737560596,0.0,0.0,-0.32601612770278665,-0.5682381541307395,-0.6053564538515305,-1.1789194297752887,-0.29596824664979177,-0.12742410342577987
14073,8.0,299.3892,4914.6781,0.0,0.0,0.0,-0.14271631489973183,0.0,0.0,-0.2909004864071427,-0.5482408426746584,-0.6547980938060404,-1.184150130766519,-0.2981774662403247,-0.08781971149813073
14074,8.0,299.28706,4430.651,0.0,0.0,0.0,-0.1427264560434041,0.0,0.0,-0.26017650409242177,-0.5130096402051094,-0.5736211162144965,-1.1856064751352489,-0.2933420037156017,-0.09927109631854442
14075,8.0,299.58509,4483.2872,0.0,0.0,0.0,-0.14273659718707635,0.0,0.0,-0.2524550823678767,-0.5198460892923145,-0.5905061793259224,-1.1812012690004887,-0.31383668924826974,-0.0998460924455421
14076,8.0,299.87004,4938.767,0.0,0.0,0.0,-0.14274673833074863,0.0,0.0,-0.3403424202041817,-0.5299418599761896,-0.6309775566751364,-1.2053716408609187,-0.31113583057671573,-0.1023019350839149
14077,8.0,299.85755,5156.4503,0.0,0.0,0.0,-0.1427568794744209,0.0,0.0,-0.33061144995380964,-0.5954279504941634,-0.6413927443205354,-1.183312578233859,-0.3035058344086937,-0.1055495536419299
14078,8.0,299.88982999999996,4749.2211,0.0,0.0,0.0,-0.14276702061809315,0.0,0.0,-0.29982123148005174,-0.5273082405812715,-0.6165151542878083,-1.1989898877560887,-0.32942762933197567,-0.14300614717360785
14079,8.0,299.78276,4486.4911,0.0,0.0,0.0,-0.1427771617617654,0.0,0.0,-0.2662493172417617,-0.5134974998632574,-0.5840344597447135,-1.1931302624277886,-0.3278561493543827,-0.13057962768220588
14080,8.0,300.88267,4418.3622,0.0,0.0,0.0,-0.14278730290543767,0.0,0.0,-0.28187707883410174,-0.5139510306080175,-0.5472436829862465,-1.211308070546799,-0.3325933164869047,-0.15256876591986485
14081,8.0,300.30839,4578.568,0.0,0.0,0.0,-0.14279744404910993,0.0,0.0,-0.2969831280824527,-0.49793808199016254,-0.5968491452169244,-1.1952069185077387,-0.3062835987628377,-0.09733316228328522
14082,8.0,299.56662,4530.0602,0.0,0.0,0.0,-0.1428075851927822,0.0,0.0,-0.26686244500977274,-0.5444819279836824,-0.5656808223358505,-1.2209361756470187,-0.31661049179452266,-0.13271898367834387
14083,8.0,299.8691,4380.4837,0.0,0.0,0.0,-0.14281772633645443,0.0,0.0,-0.25716816454552177,-0.5153919330452235,-0.5589975766637654,-1.2045694507567488,-0.3100211946717097,-0.1005462310393904
14084,8.0,299.9931,4501.2508,0.0,0.0,0.0,-0.1428278674801267,0.0,0.0,-0.2316151723936378,-0.5264702928810725,-0.6101823816928124,-1.212545046268879,-0.3032534236762827,-0.12115043370911689
14085,8.0,298.71402,4923.7619,0.0,0.0,0.0,-0.14283800862379897,0.0,0.0,-0.28391553538528175,-0.5924786935605945,-0.6203064423194794,-1.204692661968909,-0.2707193004554147,-0.11965312363884388
14086,8.0,299.60752,5184.4005,0.0,0.0,0.0,-0.14284814976747123,0.0,0.0,-0.3265636576593237,-0.5928299367077594,-0.6565347132849314,-1.2193909692445188,-0.3112796208984067,-0.1034295405902009
14087,8.0,299.5096,4809.9178,0.0,0.0,0.0,-0.14285829091114352,0.0,0.0,-0.2997630506593097,-0.5483404755569915,-0.6139913914687324,-1.218216916353649,-0.3273658173659907,-0.1160919953673879
14088,8.0,299.45897,4570.1878,0.0,0.0,0.0,-0.14286843205481575,0.0,0.0,-0.2686182250480547,-0.5434314409425075,-0.5771733076200705,-1.192190270310019,-0.3186675414850377,-0.11362264407868188
14089,8.0,299.8809,4580.5648,0.0,0.0,0.0,-0.142878573198488,0.0,0.0,-0.2737856485705398,-0.5070598660154125,-0.6115318281759924,-1.200931680247729,-0.31837160152833066,-0.12579440209744086
14090,8.0,299.6384,4676.1674,0.0,0.0,0.0,-0.14288871434216027,0.0,0.0,-0.2826042884308717,-0.5483918473370615,-0.5904420000645884,-1.177957247480329,-0.3323943141672647,-0.1232127421676509
14091,8.0,299.96982,4533.3727,0.0,0.0,0.0,-0.14289885548583256,0.0,0.0,-0.25224924061006176,-0.5198025195380145,-0.6059803220706014,-1.232866080999409,-0.34362385091803366,-0.13134836026807387
14092,8.0,300.76023,4438.5226,0.0,0.0,0.0,-0.14290899662950482,0.0,0.0,-0.29913115749944674,-0.4897554186875965,-0.5603134541711324,-1.1939629513599688,-0.3151201427524367,-0.09563920266010441
14093,8.0,301.00813,4452.996,0.0,0.0,0.0,-0.14291913777317705,0.0,0.0,-0.2454651765530268,-0.5360102958850975,-0.5721241202517545,-1.223870649261629,-0.2925225883597317,-0.12844438548147388
14094,8.0,300.21056,4752.9421,0.0,0.0,0.0,-0.1429292789168493,0.0,0.0,-0.30247556170701373,-0.5351815788933095,-0.6071185667029375,-1.2235242190524387,-0.29669131205365273,-0.08113819341746621
14095,8.0,299.77008,5234.3663,0.0,0.0,0.0,-0.14293942006052157,0.0,0.0,-0.32738392414527767,-0.6267677760871634,-0.6369649427085453,-1.234392542275059,-0.3225745021481247,-0.13224529938909488
14096,8.0,298.6022,4886.6593,0.0,0.0,0.0,-0.14294956120419386,0.0,0.0,-0.3101517519470947,-0.5660490070246874,-0.6092216584779964,-1.178835026041959,-0.3036944103848047,-0.1031128796689489
14097,8.0,300.02644,4378.7539,0.0,0.0,0.0,-0.14295970234786612,0.0,0.0,-0.26286896292064676,-0.5101428618296805,-0.5580200233647885,-1.189157004810659,-0.2959856846840127,-0.13691126543708984
14098,8.0,299.29396,4357.0921,0.0,0.0,0.0,-0.14296984349153835,0.0,0.0,-0.26825951424765276,-0.5119280159883615,-0.5442596614417464,-1.1959289605289989,-0.3507178479156567,-0.12104423496613588
14099,8.0,299.98623,4568.0803,0.0,0.0,0.0,-0.1429799846352106,0.0,0.0,-0.2867616839886747,-0.4979888863501766,-0.6038317860285575,-1.2409152384687987,-0.35487127153306763,-0.1099393685076709
14100,8.0,299.53853,4665.8492,0.0,0.0,0.0,-0.1429901257788829,0.0,0.0,-0.2892030695746207,-0.5439923559328655,-0.5851062453029905,-1.2033743222637987,-0.3280333161343677,-0.11823972080935188
14101,8.0,300.23929,4505.4762,0.0,0.0,0.0,-0.14300026692255516,0.0,0.0,-0.25199887664285275,-0.5275181150744845,-0.5900352814744485,-1.204681718867829,-0.3029906777928517,-0.14000360341727985
14102,8.0,300.72855,4540.502,0.0,0.0,0.0,-0.14301040806622742,0.0,0.0,-0.26627456743425376,-0.5056314164219354,-0.6082932579413705,-1.1961699114027788,-0.3183961728432557,-0.12279616465403789
14103,8.0,301.32187000000005,4818.2202,0.0,0.0,0.0,-0.14302054920989965,0.0,0.0,-0.28884784435456273,-0.5641693166316765,-0.6116014587228644,-1.2325933140724887,-0.32446552067725365,-0.1097345096024529
14104,8.0,300.04785,5122.2118,0.0,0.0,0.0,-0.14303069035357194,0.0,0.0,-0.3617579778252326,-0.5586183475488384,-0.6366481804622834,-1.1947227876099589,-0.29835201883505175,-0.0999094692127969
14105,8.0,300.42593,5062.1506,0.0,0.0,0.0,-0.1430408314972442,0.0,0.0,-0.3276889529553817,-0.5629295950018255,-0.6481488528073114,-1.2076623966869988,-0.27318884426163975,-0.07484254022663363
14106,8.0,300.1051,4598.5271,0.0,0.0,0.0,-0.14305097264091646,0.0,0.0,-0.2754307107703947,-0.5380414975655615,-0.5843651845773534,-1.174433467607559,-0.29571408299470775,-0.095589498689699
14107,8.0,299.4768,4431.5742,0.0,0.0,0.0,-0.14306111378458874,0.0,0.0,-0.22822072376363176,-0.5254313872885404,-0.5934357994725534,-1.2318141247455887,-0.31946699581393767,-0.1147819440480959
14108,8.0,299.05654,4748.7478,0.0,0.0,0.0,-0.14307125492826098,0.0,0.0,-0.3005859211980207,-0.5425977590252294,-0.6003170747441825,-1.2041717500924989,-0.30110599207684774,-0.12314771177623288
14109,8.0,299.96436,4737.1134,0.0,0.0,0.0,-0.14308139607193324,0.0,0.0,-0.3102052616848757,-0.5263220442589415,-0.6034368920670844,-1.191641494055859,-0.3034076707390057,-0.13735453195833686
14110,8.0,300.14352,4374.1066,0.0,0.0,0.0,-0.1430915372156055,0.0,0.0,-0.27439107563779075,-0.5000999625360235,-0.5551281467843825,-1.2107284914895988,-0.3387280594823567,-0.14339778860225988
14111,8.0,301.00415,4511.1321,0.0,0.0,0.0,-0.14310167835927778,0.0,0.0,-0.26366230735144375,-0.5487240008523425,-0.5588851970951745,-1.1953613378229788,-0.3358397495423027,-0.14369516737410887
14112,8.0,300.20637999999997,4850.8425,0.0,0.0,0.0,-0.14311181950295004,0.0,0.0,-0.3131732738777957,-0.5398582955248655,-0.6215034250601125,-1.2052510640990188,-0.3203247728185937,-0.1070910616815649
14113,8.0,299.70103,4896.1607,0.0,0.0,0.0,-0.14312196064662228,0.0,0.0,-0.28310805611558976,-0.5731139845394465,-0.6320885347472813,-1.1808506844658888,-0.2736001630072337,-0.13811072050796688
14114,8.0,298.89091,4600.4778,0.0,0.0,0.0,-0.14313210179029454,0.0,0.0,-0.2670916016523887,-0.5367923729747824,-0.5945464127746625,-1.2174288104258688,-0.3224137398872587,-0.10208400525240689
14115,8.0,300.06205,4558.7105,0.0,0.0,0.0,-0.14314224293396682,0.0,0.0,-0.25936377618721174,-0.5257078931083294,-0.6006624815707714,-1.2239005401395788,-0.31414947955413974,-0.08294749433928032
14116,8.0,299.37247,4558.9491,0.0,0.0,0.0,-0.14315238407763908,0.0,0.0,-0.2891787110422167,-0.5219395247939205,-0.5746884637373354,-1.2263291993042689,-0.3074221169727007,-0.09937149724445321
14117,8.0,301.01101,4797.1496,0.0,0.0,0.0,-0.14316252522131134,0.0,0.0,-0.3054982488753297,-0.5173287606113735,-0.6353866638227814,-1.2025796302103688,-0.3021576038256337,-0.100096323676988
14118,8.0,300.06003,4858.5574,0.0,0.0,0.0,-0.14317266636498358,0.0,0.0,-0.3094715774199667,-0.5380629987326835,-0.6293455451365694,-1.215137243999709,-0.35106224149214565,-0.11527440386169788
14119,8.0,300.37896,4625.4418,0.0,0.0,0.0,-0.14318280750865586,0.0,0.0,-0.25950571226121977,-0.5397248504866955,-0.6067882573028385,-1.225880734810009,-0.33189712247569564,-0.12284840782919389
14120,8.0,300.61827999999997,4531.9342,0.0,0.0,0.0,-0.14319294865232812,0.0,0.0,-0.3113312966535067,-0.5097629335721845,-0.5565006143098346,-1.1962399269846888,-0.2833249119019917,-0.15414342750277185
14121,8.0,300.78462,4849.7123,0.0,0.0,0.0,-0.14320308979600038,0.0,0.0,-0.3204415802901217,-0.5454271079419645,-0.6083227637842824,-1.2060411965269988,-0.28991959951533675,-0.13836566436562786
14122,8.0,299.45302000000004,4960.8598,0.0,0.0,0.0,-0.14321323093967264,0.0,0.0,-0.36514842411734366,-0.5457987275486404,-0.5970303548648084,-1.2295023946424386,-0.3108417550001927,-0.11820804661122587
14123,8.0,300.18611,4690.6712,0.0,0.0,0.0,-0.1432233720833449,0.0,0.0,-0.27792510960157274,-0.5469586861306195,-0.6009631230079424,-1.2329188713296189,-0.3582006391091507,-0.11148819221302789
14124,8.0,299.18449,4584.7229,0.0,0.0,0.0,-0.14323351322701716,0.0,0.0,-0.28414303029773375,-0.5229414163602994,-0.5865568445436534,-1.1873932403615888,-0.34041024716587565,-0.08988287108674872
14125,8.0,299.38439,4765.8122,0.0,0.0,0.0,-0.14324365437068942,0.0,0.0,-0.2800386885151667,-0.5299177344913085,-0.6387314733303884,-1.2070424902758188,-0.3174079297557237,-0.11535782474243088
14126,8.0,300.12567,4931.4303,0.0,0.0,0.0,-0.14325379551436168,0.0,0.0,-0.3109348726843827,-0.5725252760988455,-0.6155715246021795,-1.2203437283135488,-0.31330400340569775,-0.08993295097294123
14127,8.0,300.56992,4871.067,0.0,0.0,0.0,-0.14326393665803397,0.0,0.0,-0.2800904554627757,-0.5703268678868795,-0.6302654141073534,-1.2209716394005188,-0.3018762648028677,-0.15527843986728887
14128,8.0,299.64007999999995,4847.090999999999,0.0,0.0,0.0,-0.1432740778017062,0.0,0.0,-0.32694216736667964,-0.5432368158632995,-0.6032156489077494,-1.1994831379047688,-0.26268290993728477,-0.1135352005950519
14129,8.0,300.3052,4562.0299,0.0,0.0,0.0,-0.14328421894537846,0.0,0.0,-0.28036286775216074,-0.5459707571506185,-0.5604095406781154,-1.199649614896199,-0.29597407283786675,-0.17887046883564084
14130,8.0,300.67381,4546.1259,0.0,0.0,0.0,-0.14329436008905072,0.0,0.0,-0.27981332142792475,-0.5155736290531555,-0.5865218164876964,-1.220837485087279,-0.3490336235994366,-0.1088676842744039
14131,8.0,301.82254,4743.1458,0.0,0.0,0.0,-0.143304501232723,0.0,0.0,-0.2675459328647277,-0.5623244212470995,-0.6119275530025474,-1.2398090733346288,-0.3384444609118677,-0.14186853075633385
14132,8.0,301.63291,4642.9847,0.0,0.0,0.0,-0.14331464237639527,0.0,0.0,-0.28356063440525575,-0.5196617790991246,-0.6081290101001604,-1.191590932875869,-0.28383666399749774,-0.12249946475975589
14133,8.0,301.37332000000004,4654.196,0.0,0.0,0.0,-0.1433247835200675,0.0,0.0,-0.28232439835574874,-0.5346725321755705,-0.5977624179295574,-1.220441304298179,-0.2966617758132377,-0.14436591867530688
14134,8.0,300.97513,4923.3874,0.0,0.0,0.0,-0.14333492466373976,0.0,0.0,-0.3356750761360507,-0.5556588162592554,-0.6052529300888134,-1.211771227167509,-0.3247290670282637,-0.08840278221517532
14135,8.0,300.96034,4911.2884,0.0,0.0,0.0,-0.14334506580741205,0.0,0.0,-0.3083664255358967,-0.5638587757410285,-0.6206838273192243,-1.2182559264824988,-0.33400581752380765,-0.1045239114932069
14136,8.0,300.62029,4698.109,0.0,0.0,0.0,-0.1433552069510843,0.0,0.0,-0.2812494007946547,-0.5285344454547884,-0.6183239881013264,-1.1837698580039888,-0.3088365634497957,-0.07841063560577723
14137,8.0,299.83489,4706.0975,0.0,0.0,0.0,-0.14336534809475657,0.0,0.0,-0.2867439217144217,-0.5534817572268964,-0.5903104599366065,-1.1862155397703589,-0.34248924385355667,-0.1115932358508949
14138,8.0,300.15121,4709.0635,0.0,0.0,0.0,-0.1433754892384288,0.0,0.0,-0.2848636942988577,-0.5190186591281536,-0.6275553449923904,-1.2166428323232987,-0.3499582041831857,-0.09441229661751821
14139,8.0,300.04361,4574.9915,0.0,0.0,0.0,-0.1433856303821011,0.0,0.0,-0.26878887662989676,-0.5368219598777025,-0.5850723419546444,-1.2320958082733888,-0.32839753901531366,-0.13697034805042085
14140,8.0,300.28798,4633.6238,0.0,0.0,0.0,-0.14339577152577335,0.0,0.0,-0.3108365570271797,-0.5221235918070866,-0.5755457949119475,-1.2369046932479888,-0.2807050017809267,-0.11502840700241988
14141,8.0,299.9701,4698.4418,0.0,0.0,0.0,-0.1434059126694456,0.0,0.0,-0.2948051368600017,-0.5261533482497925,-0.6072505121309594,-1.225481514270609,-0.2992842798545587,-0.14226667725062786
14142,8.0,300.63529,4548.9243,0.0,0.0,0.0,-0.1434160538131179,0.0,0.0,-0.2733510858676517,-0.5220507796549005,-0.5873575249051745,-1.2297229791892088,-0.3272294845650357,-0.10968341139990989
14143,8.0,300.27189,4675.3781,0.0,0.0,0.0,-0.14342619495679013,0.0,0.0,-0.2825492993479447,-0.5308269643360425,-0.6078219345248544,-1.202050814983179,-0.3219557508420587,-0.12680964830013788
14144,8.0,300.16598999999997,5093.9687,0.0,0.0,0.0,-0.14343633610046239,0.0,0.0,-0.3181334472248267,-0.5825553172487334,-0.6477505340605004,-1.1805698115381689,-0.3117162101014947,-0.1145523213104339
14145,8.0,299.2887,4814.299,0.0,0.0,0.0,-0.14344647724413465,0.0,0.0,-0.28353631640285576,-0.5830877396462795,-0.5968026269048334,-1.1840108088777688,-0.3079897802087247,-0.14236220647005585
14146,8.0,298.747,4600.3009,0.0,0.0,0.0,-0.14345661838780693,0.0,0.0,-0.28230029313586974,-0.5381416776029485,-0.5779346333477074,-1.2360406948877187,-0.31607249652142666,-0.12156873374789988
14147,8.0,300.0423,4748.596,0.0,0.0,0.0,-0.1434667595314792,0.0,0.0,-0.26357669785049476,-0.5659015386051335,-0.6139763852347514,-1.1956660221280488,-0.31581061190058074,-0.12908681644237688
14148,8.0,300.08457999999996,4675.0206,0.0,0.0,0.0,-0.14347690067515143,0.0,0.0,-0.27834626700563775,-0.5481004670058045,-0.5946428032566754,-1.2335200326139488,-0.2871634579183267,-0.1183856896187579
14149,8.0,299.76084,4592.0971,0.0,0.0,0.0,-0.14348704181882369,0.0,0.0,-0.24762772584395376,-0.5361696598608254,-0.6120854578981314,-1.202081415136199,-0.3232179058291237,-0.1250262267991279
14150,8.0,300.27717,4717.8473,0.0,0.0,0.0,-0.14349718296249597,0.0,0.0,-0.2750911909268868,-0.5570725737262825,-0.6019439997672474,-1.2198935412941188,-0.3545334336847257,-0.12600501626322688
14151,8.0,300.16378,4692.2541,0.0,0.0,0.0,-0.14350732410616823,0.0,0.0,-0.2877879847499627,-0.5350438579397175,-0.6034962482579423,-1.1867183144699789,-0.33083758711112765,-0.11493031426023888
14152,8.0,300.49696,4820.7131,0.0,0.0,0.0,-0.1435174652498405,0.0,0.0,-0.3309137429886437,-0.5476560149819405,-0.5868066512233074,-1.1963411506696788,-0.29621922869956174,-0.13295054172369686
14153,8.0,300.87568,5093.9861,0.0,0.0,0.0,-0.14352760639351272,0.0,0.0,-0.33960953640685165,-0.5738020320198515,-0.6350329990078774,-1.199172171449079,-0.3274240285842357,-0.12008297472876689
14154,8.0,298.96516,4835.5505,0.0,0.0,0.0,-0.14353774753718498,0.0,0.0,-0.32542120803907265,-0.5351940722670425,-0.6092713077328964,-1.2547041537796588,-0.32646679094976366,-0.09845546038554741
14155,8.0,299.32425,4596.3482,0.0,0.0,0.0,-0.14354788868085727,0.0,0.0,-0.25341009085212873,-0.5421350583670645,-0.6016299125012494,-1.205374173986169,-0.31867245574802266,-0.12093547270040188
14156,8.0,300.03409,4768.392,0.0,0.0,0.0,-0.14355802982452953,0.0,0.0,-0.28271701250449677,-0.5546503892297315,-0.6121046995175304,-1.226128879759499,-0.3093334714313367,-0.1099624908749529
14157,8.0,299.69754,4709.7421,0.0,0.0,0.0,-0.1435681709682018,0.0,0.0,-0.2953732256610677,-0.5404576633565185,-0.5958130969896744,-1.2215450376321089,-0.3188424588498007,-0.1161118449368469
14158,8.0,299.83943999999997,4505.2978,0.0,0.0,0.0,-0.14357831211187402,0.0,0.0,-0.26263855998040775,-0.5455506535266574,-0.5613088102743665,-1.2319534466343387,-0.32138189664792366,-0.11657555884511188
14159,8.0,299.33094,4322.4685,0.0,0.0,0.0,-0.1435884532555463,0.0,0.0,-0.25451883977405376,-0.49006381148803246,-0.5693398305669665,-1.2087985540241288,-0.30338429505919867,-0.13835852095242285
14160,8.0,299.03107,4593.6184,0.0,0.0,0.0,-0.14359859439921857,0.0,0.0,-0.27723192494316073,-0.5299911444610536,-0.5891222316768374,-1.1982527483083387,-0.2903841645536857,-0.13085751152213088
14161,8.0,300.16613,4830.6518,0.0,0.0,0.0,-0.14360873554289083,0.0,0.0,-0.2979561217559797,-0.5499666507749825,-0.6204747532935904,-1.218306791637519,-0.3351539717421217,-0.14430564042685787
14162,8.0,299.16395,4796.6982,0.0,0.0,0.0,-0.1436188766865631,0.0,0.0,-0.3185386459398167,-0.5432032367549855,-0.5963346066836435,-1.2280415919732688,-0.3442680348016096,-0.13834620996370786
14163,8.0,299.62807999999995,4789.2284,0.0,0.0,0.0,-0.14362901783023535,0.0,0.0,-0.3129904227647497,-0.5545321125455585,-0.5882833011240415,-1.225435614041079,-0.33700189674449765,-0.13225598917764989
14164,8.0,300.32388,4604.3199,0.0,0.0,0.0,-0.1436391589739076,0.0,0.0,-0.28551776750340974,-0.5224438092361896,-0.5916366827274945,-1.2011370660429987,-0.3003647996286977,-0.13823409384014287
14165,8.0,299.98762999999997,4680.9621,0.0,0.0,0.0,-0.14364930011757987,0.0,0.0,-0.2772018314151907,-0.5356066575752615,-0.6100871159184104,-1.2121818974330387,-0.3256931035709067,-0.11996991628260889
14166,8.0,300.18962999999997,4930.5925,0.0,0.0,0.0,-0.14365944126125213,0.0,0.0,-0.3113163005520267,-0.5562437655419854,-0.6312169167462595,-1.2044377282437488,-0.31801133032277473,-0.12490834528249388
14167,8.0,299.95283,4735.5552,0.0,0.0,0.0,-0.1436695824049244,0.0,0.0,-0.27716728971928173,-0.5212837797267035,-0.6410394645406693,-1.1817378862534489,-0.3090808377839037,-0.10420846647207489
14168,8.0,299.42553,4560.9403,0.0,0.0,0.0,-0.14367972354859665,0.0,0.0,-0.27386445916331775,-0.5350222351825835,-0.5775252600423054,-1.162493429754169,-0.28415723606413573,-0.13305259627376886
14169,8.0,300.66173,4867.7382,0.0,0.0,0.0,-0.1436898646922689,0.0,0.0,-0.3036036029108427,-0.5567407039210295,-0.6193265686777734,-1.2019739093005888,-0.31916762093939166,-0.1022492359462139
14170,8.0,300.6737,4914.2732,0.0,0.0,0.0,-0.1437000058359412,0.0,0.0,-0.3102541510022007,-0.5421519796437344,-0.6414101924872574,-1.2247076951692388,-0.34155078174343767,-0.12209804546763887
14171,8.0,300.30626,4648.4025,0.0,0.0,0.0,-0.14371014697961343,0.0,0.0,-0.26407496358716975,-0.5390873337887775,-0.6098360021461274,-1.2120143058664987,-0.3044013144495707,-0.11560778340959989
14172,8.0,299.33693,4709.0897,0.0,0.0,0.0,-0.14372028812328572,0.0,0.0,-0.26706815504507475,-0.5336211332093055,-0.6307563743108073,-1.232534950866729,-0.2955524493387557,-0.1184453193871429
14173,8.0,298.86561,4949.4727,0.0,0.0,0.0,-0.14373042926695795,0.0,0.0,-0.3069762869287007,-0.5430323622581215,-0.6545074632798574,-1.2105155063185788,-0.3281235156582697,-0.09695007167222709
14174,8.0,298.21893,4837.2638,0.0,0.0,0.0,-0.14374057041063024,0.0,0.0,-0.3228629845840957,-0.5598286139982824,-0.5877158000080335,-1.227756970020179,-0.33897611323933763,-0.11882070828419089
14175,8.0,299.10706,4591.7624,0.0,0.0,0.0,-0.14375071155430247,0.0,0.0,-0.2864404735744737,-0.5223294335649015,-0.5870111960209945,-1.1893666462563488,-0.3221978061584477,-0.10624940548599988
14176,8.0,299.94714,4555.3936,0.0,0.0,0.0,-0.14376085269797476,0.0,0.0,-0.27720310811031673,-0.5250838323717395,-0.5824389657397504,-1.1929290309579288,-0.3045163284684217,-0.1185165508691729
14177,8.0,300.84063,4598.577,0.0,0.0,0.0,-0.14377099384164702,0.0,0.0,-0.24978893764474877,-0.5482141030045194,-0.5998495307505395,-1.2094702375154187,-0.3150500055805147,-0.10693905390156291
14178,8.0,300.15322000000003,4788.2536,0.0,0.0,0.0,-0.14378113498531928,0.0,0.0,-0.2796965038238957,-0.5493656718756705,-0.6264473661405413,-1.2117082030112887,-0.3200495234289287,-0.11766879490800589
14179,8.0,300.53605,4943.166,0.0,0.0,0.0,-0.1437912761289915,0.0,0.0,-0.3106134900176647,-0.5842895555898895,-0.6076959875374245,-1.206131375785899,-0.3042073175854247,-0.12224153181429989
14180,8.0,299.78482,4589.5248,0.0,0.0,0.0,-0.1438014172726638,0.0,0.0,-0.3037804758482987,-0.5236344186336934,-0.5676860341512494,-1.2160785533426088,-0.2988940468435457,-0.11443613192146689
14181,8.0,299.53572,4522.7819,0.0,0.0,0.0,-0.14381155841633605,0.0,0.0,-0.24944148405295774,-0.5547751608470455,-0.5705961087034515,-1.2176373372964489,-0.3128114017370817,-0.13624102076094188
14182,8.0,299.14224,4730.1611,0.0,0.0,0.0,-0.14382169956000831,0.0,0.0,-0.27239118338541674,-0.5593332360243924,-0.6061264530000234,-1.2352420511588988,-0.3234055597476437,-0.11423175937629688
14183,8.0,299.31869,4773.3538,0.0,0.0,0.0,-0.14383184070368057,0.0,0.0,-0.2889125606384497,-0.5207543362844516,-0.6413134676327114,-1.200997845479259,-0.3041705568717967,-0.1060297632618229
14184,8.0,299.54774,4603.0394,0.0,0.0,0.0,-0.14384198184735283,0.0,0.0,-0.25839538266913875,-0.5331997832877216,-0.6076138636168193,-1.2070768394542088,-0.3046211593237677,-0.12279732989165287
14185,8.0,300.46202,4683.0612,0.0,0.0,0.0,-0.1438521229910251,0.0,0.0,-0.3095887901915347,-0.5252750529306115,-0.5886698256396884,-1.1936178383759088,-0.3226971155427257,-0.11269539864716988
14186,8.0,299.45147000000003,4775.5976,0.0,0.0,0.0,-0.14386226413469735,0.0,0.0,-0.31954093267373473,-0.5654294856485454,-0.5666920155381475,-1.2193749598929389,-0.3512850754541376,-0.13475937553721487
14187,8.0,299.89727,4773.5394,0.0,0.0,0.0,-0.14387240527836961,0.0,0.0,-0.3213354087333357,-0.5550493564566065,-0.5746520069987375,-1.192983239838279,-0.3316065324795167,-0.14105311773835888
14188,8.0,299.63499,4879.9337,0.0,0.0,0.0,-0.14388254642204187,0.0,0.0,-0.28092577884521575,-0.5714082286586014,-0.6310439954841933,-1.201818578060259,-0.3238466680461777,-0.12655546438005189
14189,8.0,300.54577,4794.084,0.0,0.0,0.0,-0.14389268756571413,0.0,0.0,-0.28468264677098976,-0.5531227931139695,-0.6194763777050584,-1.2002635431317887,-0.3027124494478927,-0.1128405061939909
14190,8.0,300.77932999999996,4614.5331,0.0,0.0,0.0,-0.1439028287093864,0.0,0.0,-0.22358340229596377,-0.5508781604324415,-0.6282412849125873,-1.2162352018080687,-0.2963325809882487,-0.13363986589922788
14191,8.0,301.33405,4625.7723,0.0,0.0,0.0,-0.14391296985305865,0.0,0.0,-0.2926388689412077,-0.5253550692910085,-0.5881253455659524,-1.203281711204659,-0.2852812647975687,-0.1071175176416759
14192,8.0,300.33421,4836.340999999999,0.0,0.0,0.0,-0.14392311099673094,0.0,0.0,-0.3191981602974057,-0.5366436075951005,-0.6142851428052234,-1.1936139880255288,-0.2730938419322637,-0.12351792296526988
14193,8.0,300.42307,4897.5135,0.0,0.0,0.0,-0.14393325214040317,0.0,0.0,-0.3213106550333927,-0.5554343813621055,-0.6119767766924055,-1.2081087333560487,-0.3289240035022717,-0.10962725707936789
14194,8.0,299.21435,4815.8134,0.0,0.0,0.0,-0.14394339328407543,0.0,0.0,-0.2825422167297457,-0.5690101088519255,-0.6123346971577295,-1.211209379987059,-0.3541133300607647,-0.13237109438900987
14195,8.0,299.49952,4905.6911,0.0,0.0,0.0,-0.1439535344277477,0.0,0.0,-0.2867173441642987,-0.5560772682855535,-0.6484129969758804,-1.2352508664347688,-0.3424572352828977,-0.1068679034795409
14196,8.0,299.50759,4714.9411,0.0,0.0,0.0,-0.14396367557141998,0.0,0.0,-0.27492414651540076,-0.5300036074372835,-0.6282966185005484,-1.1891743313873688,-0.3030386653175877,-0.14388923516576185
14197,8.0,299.56957,4650.4968,0.0,0.0,0.0,-0.14397381671509224,0.0,0.0,-0.29103904835831773,-0.5468833813831875,-0.5757124644208965,-1.2313706251768186,-0.28445399675342375,-0.14117472801536088
14198,8.0,299.32088,4636.377,0.0,0.0,0.0,-0.14398395785876447,0.0,0.0,-0.3252767287073137,-0.5090559281824085,-0.5750101807765865,-1.2048533634347687,-0.28859614289722174,-0.1293922809500239
14199,8.0,299.34026,4655.2054,0.0,0.0,0.0,-0.14399409900243673,0.0,0.0,-0.28215508426403874,-0.5476633813101676,-0.5852477355469544,-1.204899567639329,-0.29089272491137674,-0.11455529013322688
14200,8.0,299.89657,4682.1467,0.0,0.0,0.0,-0.14400424014610902,0.0,0.0,-0.27473741465447177,-0.5223293322398915,-0.6261889468350375,-1.1646222682142688,-0.2769341510037727,-0.1041919910254489
14201,8.0,300.96238,5062.8554,0.0,0.0,0.0,-0.14401438128978128,0.0,0.0,-0.2911909548133097,-0.5695232693650705,-0.6782674080547814,-1.181483864453379,-0.3168746460955927,-0.08189030160894352
14202,8.0,300.07755,5022.9376,0.0,0.0,0.0,-0.14402452243345354,0.0,0.0,-0.29173537409203976,-0.5767413084399354,-0.6583709352486524,-1.207148476236279,-0.3560900594158527,-0.09353105375379632
14203,8.0,300.79071,4858.749,0.0,0.0,0.0,-0.14403466357712577,0.0,0.0,-0.3244809322112747,-0.5456542786143845,-0.6068031723443104,-1.2352406326087588,-0.3202420409479287,-0.09506706997788932
14204,8.0,301.05301000000003,4994.7819,0.0,0.0,0.0,-0.14404480472079806,0.0,0.0,-0.3402809463206147,-0.5781484493838094,-0.5998595821915313,-1.2180095040581789,-0.3075762525779127,-0.11492558238227189
14205,8.0,301.24074,4826.7372,0.0,0.0,0.0,-0.14405494586447032,0.0,0.0,-0.3216837843827177,-0.5396769034919635,-0.6058469074299344,-1.2175995430677187,-0.31123958738695573,-0.10508647808122791
14206,8.0,300.5877,4508.0757,0.0,0.0,0.0,-0.14406508700814258,0.0,0.0,-0.2295727945645708,-0.5544401702314845,-0.5863294813537144,-1.1933834736277789,-0.3266890169616957,-0.14496133483156987
14207,8.0,299.68168,4422.3883,0.0,0.0,0.0,-0.14407522815181487,0.0,0.0,-0.22644700919857977,-0.5265893092378185,-0.5912592875952485,-1.1900216111209887,-0.3085059602071677,-0.1221257882553769
14208,8.0,298.57271000000003,4692.0273,0.0,0.0,0.0,-0.1440853692954871,0.0,0.0,-0.2691576692687937,-0.5445238562728205,-0.6125776340017055,-1.1847808789537688,-0.30430200580726974,-0.14751020598812387
14209,8.0,300.40887999999995,4735.969,0.0,0.0,0.0,-0.14409551043915936,0.0,0.0,-0.3119442217714977,-0.5537513526810035,-0.5739207444015674,-1.2247536967237789,-0.31729402017948166,-0.1253265439962669
14210,8.0,300.08364,4753.9524,0.0,0.0,0.0,-0.14410565158283162,0.0,0.0,-0.30458383119008375,-0.5708909847475535,-0.5696080176034345,-1.2359010690239387,-0.3292130938883027,-0.14764173598360486
14211,8.0,299.73384,4947.9176,0.0,0.0,0.0,-0.1441157927265039,0.0,0.0,-0.3209398966893017,-0.5660001886348693,-0.6171033257058564,-1.2241292306871487,-0.3106137331976887,-0.09722055777317201
14212,8.0,300.04931,4776.6802,0.0,0.0,0.0,-0.14412593387017616,0.0,0.0,-0.2866640472090387,-0.5465553517958135,-0.6187720979580514,-1.2188020682863987,-0.2991492237487297,-0.1143967772875829
14213,8.0,299.9514,4733.0604,0.0,0.0,0.0,-0.1441360750138484,0.0,0.0,-0.2591578229718857,-0.5496450958557475,-0.6299292582541774,-1.203155561567209,-0.3266686607671867,-0.09359209193982031
14214,8.0,300.31583,4875.2989,0.0,0.0,0.0,-0.14414621615752066,0.0,0.0,-0.30487227309605075,-0.5394579300128525,-0.6376389262775624,-1.200525062982599,-0.3405891466035317,-0.09181226139716471
14215,8.0,299.94676,4831.5508,0.0,0.0,0.0,-0.14415635730119292,0.0,0.0,-0.3196813691375947,-0.5571579400472074,-0.5918315003242214,-1.183082975761199,-0.3004551916701187,-0.12629962886230287
14216,8.0,300.15717,4562.9739,0.0,0.0,0.0,-0.1441664984448652,0.0,0.0,-0.2940232218903327,-0.5158555152309755,-0.5771514011529084,-1.1998053514365687,-0.31738448314840967,-0.12520030316630787
14217,8.0,300.80961,4894.809,0.0,0.0,0.0,-0.14417663958853746,0.0,0.0,-0.32568088377470067,-0.5598925906095965,-0.6023262281024704,-1.228288824997669,-0.3233274077674307,-0.1280181516944079
14218,8.0,300.61324,5029.0046,0.0,0.0,0.0,-0.1441867807322097,0.0,0.0,-0.27762437697189274,-0.5949976434416955,-0.6560698138740494,-1.2454582466171589,-0.3294621507628827,-0.11467608981014889
14219,8.0,301.08115,4655.1199,0.0,0.0,0.0,-0.14419692187588196,0.0,0.0,-0.26470451613930174,-0.5313083290610494,-0.6190273761882454,-1.2087515392194887,-0.3099649998211637,-0.12276725662868489
14220,8.0,301.53954,4669.5209,0.0,0.0,0.0,-0.14420706301955424,0.0,0.0,-0.2662630062506127,-0.5579306851034714,-0.5952240643090414,-1.2132216946856589,-0.2989257311741727,-0.11543042411209588
14221,8.0,300.77837,4923.0651,0.0,0.0,0.0,-0.1442172041632265,0.0,0.0,-0.35544863157254863,-0.5447426574994144,-0.5962975825249894,-1.2165686624159788,-0.3100217924892687,-0.10144986267732191
14222,8.0,300.33377,4966.8625,0.0,0.0,0.0,-0.14422734530689876,0.0,0.0,-0.3217884936480517,-0.5757181791514604,-0.6122955046438614,-1.185046958430029,-0.3366706247568037,-0.12599897729263088
14223,8.0,299.60976,4835.9858,0.0,0.0,0.0,-0.144237486450571,0.0,0.0,-0.3082665697385417,-0.5559021989332754,-0.6058501396977535,-1.184087815885369,-0.3005492516769017,-0.0946897781971535
14224,8.0,299.44375,4946.7361,0.0,0.0,0.0,-0.14424762759424328,0.0,0.0,-0.2826934443071707,-0.5540400985620004,-0.6669507013979094,-1.1741569516552688,-0.3108659007500757,-0.1095504425892869
14225,8.0,300.10728,4808.4861,0.0,0.0,0.0,-0.14425776873791554,0.0,0.0,-0.27849269177758873,-0.5430673193865715,-0.6400996750729193,-1.2174537363783289,-0.3179775282994387,-0.10405038932397391
14226,8.0,300.70676000000003,4747.6344,0.0,0.0,0.0,-0.1442679098815878,0.0,0.0,-0.2681793053697367,-0.5565706704217485,-0.6184123232450444,-1.2173431907924188,-0.3203943932329647,-0.12843168945772088
14227,8.0,300.742,4774.8708,0.0,0.0,0.0,-0.1442780510252601,0.0,0.0,-0.3106888048975977,-0.5594233443557854,-0.5813293454227395,-1.222973416298079,-0.3301896136721777,-0.12390709206367788
14228,8.0,299.35303999999996,4713.0905,0.0,0.0,0.0,-0.14428819216893232,0.0,0.0,-0.3082187645988237,-0.5369856504313575,-0.5874574009675314,-1.210489668441029,-0.3077780818653317,-0.13110642654169688
14229,8.0,299.23098,4606.7961,0.0,0.0,0.0,-0.14429833331260458,0.0,0.0,-0.28383838652266774,-0.5242268659671635,-0.5922857302115504,-1.2241939773685389,-0.3216535895297377,-0.13298475917957386
14230,8.0,299.28697,4705.6323,0.0,0.0,0.0,-0.14430847445627684,0.0,0.0,-0.2853102032204247,-0.5384098342419135,-0.6066746719666285,-1.2012091081251088,-0.3083598799402507,-0.11428565414911589
14231,8.0,298.86409,4925.2729,0.0,0.0,0.0,-0.14431861559994913,0.0,0.0,-0.3035118936442917,-0.5501443343125185,-0.6435037597113764,-1.1965115793364989,-0.3049335747271007,-0.13317099454795386
14232,8.0,300.14695,4904.6308,0.0,0.0,0.0,-0.1443287567436214,0.0,0.0,-0.34993372406076967,-0.5267448735256716,-0.6142066868499804,-1.1841608712175788,-0.3045566558224017,-0.09112773496085723
14233,8.0,301.1521,4892.3387,0.0,0.0,0.0,-0.14433889788729362,0.0,0.0,-0.3271626809859427,-0.5549313938799645,-0.6050547079717504,-1.2274840004432388,-0.3093143817994527,-0.10976062105752989
14234,8.0,300.60796,4820.4446,0.0,0.0,0.0,-0.14434903903096588,0.0,0.0,-0.3342512976255347,-0.5191119693298625,-0.6119315148104384,-1.232408598579259,-0.34190015037791766,-0.08722581521701772
14235,8.0,300.48692,4673.6727,0.0,0.0,0.0,-0.14435918017463817,0.0,0.0,-0.25928195624163675,-0.5382993595835105,-0.6230984935000333,-1.226218653718359,-0.32094990760028974,-0.12724392729299788
14236,8.0,300.43406,4672.5308,0.0,0.0,0.0,-0.14436932131831043,0.0,0.0,-0.26236562080097076,-0.5328032377285854,-0.6251638417088674,-1.2223226057588488,-0.28947696120915173,-0.12310742495225688
14237,8.0,300.20473,4558.3886,0.0,0.0,0.0,-0.1443794624619827,0.0,0.0,-0.26560171870534877,-0.5001596429669135,-0.6198749598968953,-1.2185482491363488,-0.3096643381189907,-0.13071275861284487
14238,8.0,299.20999,4401.6982,0.0,0.0,0.0,-0.14438960360565492,0.0,0.0,-0.27866168162926674,-0.5139646790868645,-0.5453799715473125,-1.2369268834251788,-0.31028770984551274,-0.13443745584794387
14239,8.0,299.08216,4653.6953,0.0,0.0,0.0,-0.1443997447493272,0.0,0.0,-0.28940225427927874,-0.5511628026505334,-0.5740420912335434,-1.2190510238359689,-0.3214192957091147,-0.12281929715382088
14240,8.0,298.91686,5093.7155,0.0,0.0,0.0,-0.14440988589299947,0.0,0.0,-0.36197778216942567,-0.5724732862362145,-0.6139112433858224,-1.1957815326394488,-0.3229464662598347,-0.13175242414295188
14241,8.0,300.09044,5025.0484,0.0,0.0,0.0,-0.14442002703667173,0.0,0.0,-0.3070455121755327,-0.5782165093930265,-0.6422272064403903,-1.2163008604145489,-0.32032944390155466,-0.1013504729750129
14242,8.0,300.35859,4853.0762,0.0,0.0,0.0,-0.144430168180344,0.0,0.0,-0.27170925593561573,-0.5659793460803124,-0.6375253814713564,-1.2102886396211887,-0.3452393566124716,-0.14895408738062385
14243,8.0,300.18207,4780.0881,0.0,0.0,0.0,-0.14444030932401625,0.0,0.0,-0.2720688077336007,-0.5657393881916304,-0.6152192175424094,-1.229495504541759,-0.3283666855497687,-0.11696027977558089
14244,8.0,300.35457,4798.6814,0.0,0.0,0.0,-0.1444504504676885,0.0,0.0,-0.30421974003165075,-0.5454929793309654,-0.6089665930303234,-1.2310283492930387,-0.2928569000977257,-0.12972335028769788
14245,8.0,301.37487999999996,4924.587,0.0,0.0,0.0,-0.14446059161136077,0.0,0.0,-0.3267716576398517,-0.5546047524452274,-0.6155750811100305,-1.216490439508259,-0.28494372079175573,-0.11978711583206787
14246,8.0,300.11744,4808.5568,0.0,0.0,0.0,-0.14447073275503303,0.0,0.0,-0.31481953171276866,-0.5225800305796334,-0.6242816251117994,-1.246378784333009,-0.3032478508007327,-0.11793169277895188
14247,8.0,299.69755,4708.2332,0.0,0.0,0.0,-0.14448087389870531,0.0,0.0,-0.26337951938103477,-0.5455852458850715,-0.6222205528183875,-1.2055502768535489,-0.3285319466410787,-0.12621866004681187
14248,8.0,299.19902,4677.8354,0.0,0.0,0.0,-0.14449101504237755,0.0,0.0,-0.2735002970773777,-0.5237529688953935,-0.6246918799447884,-1.2115578366964488,-0.31894449313487067,-0.11839044176172689
14249,8.0,298.60997000000003,4995.2311,0.0,0.0,0.0,-0.1445011561860498,0.0,0.0,-0.33965345066618563,-0.5647970453336285,-0.6139750376121185,-1.199390324195609,-0.30081181517531475,-0.13590902936567686
14250,8.0,299.68764,5088.4533,0.0,0.0,0.0,-0.14451129732972207,0.0,0.0,-0.36800154388142464,-0.5524649303540435,-0.6262962804181305,-1.2222790360045488,-0.3520884510609247,-0.08423117481146972
14251,8.0,300.45864,4774.5938,0.0,0.0,0.0,-0.14452143847339435,0.0,0.0,-0.3195612280732377,-0.5520935133973874,-0.5797025419896865,-1.2429785196474288,-0.3434522874111017,-0.13876385138992586
14252,8.0,299.4827,4673.3412,0.0,0.0,0.0,-0.1445315796170666,0.0,0.0,-0.2776061688675957,-0.5326379969022774,-0.6103348758328624,-1.233249798812279,-0.32787469183121265,-0.0949813196351764
14253,8.0,300.17487,4717.8743,0.0,0.0,0.0,-0.14454172076073885,0.0,0.0,-0.26608385350043173,-0.5432027199974344,-0.6248294083808614,-1.2023656317892488,-0.3184717207707117,-0.12258087940529087
14254,8.0,299.49627000000004,4766.1232,0.0,0.0,0.0,-0.1445518619044111,0.0,0.0,-0.26246926615369975,-0.5522324097210954,-0.6340807566963984,-1.2089544932145189,-0.3093888759468047,-0.1106847051487299
14255,8.0,299.40891,4611.9193,0.0,0.0,0.0,-0.1445620030480834,0.0,0.0,-0.27007073933140674,-0.5478464756032375,-0.5839910926404334,-1.226200009916519,-0.31996877752845965,-0.12771788515977386
14256,8.0,300.4477,4623.9449,0.0,0.0,0.0,-0.14457214419175565,0.0,0.0,-0.27902889359800775,-0.5556618154795515,-0.5708730806182865,-1.214848163746179,-0.3029469053885317,-0.13852818968166786
14257,8.0,299.78743,4570.0818,0.0,0.0,0.0,-0.1445822853354279,0.0,0.0,-0.2789470837849337,-0.5435924362508965,-0.5666512220891214,-1.2345331813889386,-0.29990105532292965,-0.15370492325699484
14258,8.0,299.54201,4660.5127,0.0,0.0,0.0,-0.14459242647910014,0.0,0.0,-0.25760107565074675,-0.5572423944430425,-0.6018360075715895,-1.2429316061677989,-0.3139428677262487,-0.14306607078452185
14259,8.0,301.13034,4902.1201,0.0,0.0,0.0,-0.14460256762277243,0.0,0.0,-0.2664588269649387,-0.5903124661718044,-0.6333508113243584,-1.2579534442003388,-0.34803249197063263,-0.11913499820020888
14260,8.0,301.38254,4889.2149,0.0,0.0,0.0,-0.1446127087664447,0.0,0.0,-0.2809421225693287,-0.5680937761239904,-0.6371633573431273,-1.207346566630829,-0.3361591158413217,-0.1084210436303239
14261,8.0,300.65968,4718.6351,0.0,0.0,0.0,-0.14462284991011695,0.0,0.0,-0.2997162385046897,-0.5575931410976585,-0.5770378664792034,-1.2040493494804188,-0.3078817677480647,-0.12160590989406887
14262,8.0,299.81658,5028.0373,0.0,0.0,0.0,-0.14463299105378924,0.0,0.0,-0.35749665320467267,-0.5586508222145434,-0.6122503238219025,-1.2143943290263888,-0.3120085023578417,-0.0892980322482796
14263,8.0,300.20113,5059.8137,0.0,0.0,0.0,-0.14464313219746147,0.0,0.0,-0.3506229063812867,-0.5624540767298954,-0.6249800482732284,-1.2285110307445988,-0.3186389678322177,-0.1164798877706699
14264,8.0,300.58813,4903.8855,0.0,0.0,0.0,-0.14465327334113373,0.0,0.0,-0.2960083713537517,-0.5637893377116754,-0.6308610430461374,-1.2220540944823488,-0.3031653823750937,-0.09073421091351941
14265,8.0,300.19881000000004,4677.2368,0.0,0.0,0.0,-0.144663414484806,0.0,0.0,-0.25116886269093674,-0.5431830730779955,-0.6274112709606714,-1.1894800289425387,-0.3155177116941737,-0.13115920673940587
14266,8.0,298.87311,4717.4605,0.0,0.0,0.0,-0.14467355562847828,0.0,0.0,-0.2932928408207497,-0.5282978819539415,-0.6123994843691234,-1.2346621681266687,-0.3262514550385117,-0.07607981789724343
14267,8.0,299.3921,4825.2866,0.0,0.0,0.0,-0.1446836967721505,0.0,0.0,-0.3126233526510227,-0.5767175578575915,-0.5774257082199804,-1.2349424331043288,-0.3416620366044177,-0.14331038564863385
14268,8.0,299.95155,4840.3,0.0,0.0,0.0,-0.14469383791582277,0.0,0.0,-0.35485628556408866,-0.5558383439119735,-0.5606357183654375,-1.2089739476164387,-0.3034934423599707,-0.12580252836324288
14269,8.0,300.51861,4880.5938,0.0,0.0,0.0,-0.14470397905949503,0.0,0.0,-0.33076795656425567,-0.5786010175409745,-0.5742096828000834,-1.2059105885891088,-0.27681556021206877,-0.14675385531847787
14270,8.0,300.46027000000004,4696.4518,0.0,0.0,0.0,-0.14471412020316732,0.0,0.0,-0.27093299490150474,-0.5489263570298134,-0.6077447147347335,-1.2174353965515188,-0.29086966333910075,-0.14380787118273186
14271,8.0,300.28236,4743.2065,0.0,0.0,0.0,-0.14472426134683955,0.0,0.0,-0.2068828013652428,-0.5724939058757494,-0.6624396308927014,-1.2346339997738887,-0.31371944607919866,-0.11200465592149889
14272,8.0,300.24859,5034.3406,0.0,0.0,0.0,-0.14473440249051184,0.0,0.0,-0.27467124942294174,-0.6058379401665493,-0.6498046453257255,-1.2091736592111488,-0.3055060205035967,-0.1071871887185519
14273,8.0,300.42736,4865.652,0.0,0.0,0.0,-0.14474454363418407,0.0,0.0,-0.2955166714777247,-0.5519421642299505,-0.6315778870943844,-1.1917046195370888,-0.3200538297418537,-0.09141176213613851
14274,8.0,300.34783,4523.2875,0.0,0.0,0.0,-0.14475468477785636,0.0,0.0,-0.2896995114611157,-0.5434658103858995,-0.5418011113991065,-1.2368740930949687,-0.34040842331569565,-0.14281138023938586
14275,8.0,301.1986,4590.482,0.0,0.0,0.0,-0.14476482592152862,0.0,0.0,-0.29487462555185967,-0.5464946479823225,-0.5540226402627775,-1.247622042205709,-0.3438002577604437,-0.1140911101299159
14276,8.0,300.26805,4616.2085,0.0,0.0,0.0,-0.14477496706520085,0.0,0.0,-0.26556544435176876,-0.5514467457260565,-0.5861999373284296,-1.2206304780918489,-0.3195954759266177,-0.16229254209452684
14277,8.0,300.00477,4645.7227,0.0,0.0,0.0,-0.14478510820887314,0.0,0.0,-0.2331535900204678,-0.5593301760090904,-0.6196999108096194,-1.1855597643056388,-0.29817604769018474,-0.12404026352432088
14278,8.0,299.73826,4725.7282,0.0,0.0,0.0,-0.14479524935254537,0.0,0.0,-0.28034381865028074,-0.5409619376662865,-0.6151976150502774,-1.2168094106397387,-0.3358292218737637,-0.12180477035869489
14279,8.0,300.7454,4883.82,0.0,0.0,0.0,-0.14480539049621766,0.0,0.0,-0.3312878349255637,-0.5423882189045495,-0.6108832873169864,-1.2250920209321687,-0.34019766729489564,-0.0897570396098301
14280,8.0,299.88723999999996,4931.5501,0.0,0.0,0.0,-0.1448155316398899,0.0,0.0,-0.35578634783087865,-0.5470439105965306,-0.5962378412990934,-1.2223111560327187,-0.3209117891315277,-0.1149782713874719
14281,8.0,299.64805,5137.8996,0.0,0.0,0.0,-0.14482567278356218,0.0,0.0,-0.35197323439205364,-0.5586034426398674,-0.6512165080150654,-1.2116792240584289,-0.30782411381737473,-0.08845858088493223
14282,8.0,298.55694,5198.4626,0.0,0.0,0.0,-0.14483581392723444,0.0,0.0,-0.3262078954167127,-0.5575902533348734,-0.6964046659047893,-1.2460912239546287,-0.3262305922189527,-0.09115230019628161
14283,8.0,299.51001,4807.9669,0.0,0.0,0.0,-0.1448459550709067,0.0,0.0,-0.25587990823588075,-0.5414713390215605,-0.6641506455415654,-1.2356756208766888,-0.3406015487847557,-0.10001519780773149
14284,8.0,300.23573999999996,4399.9081,0.0,0.0,0.0,-0.14485609621457896,0.0,0.0,-0.23720596220540577,-0.5104995157323795,-0.5897567086244554,-1.226995512570029,-0.3065489892290297,-0.1104733411778699
14285,8.0,300.02112,4649.2168,0.0,0.0,0.0,-0.14486623735825122,0.0,0.0,-0.27611533346546174,-0.5449617525685375,-0.5921687302225034,-1.2116752723830386,-0.30044576844418874,-0.14096254331191987
14286,8.0,299.34646000000004,4690.8036,0.0,0.0,0.0,-0.14487637850192348,0.0,0.0,-0.3255377216680717,-0.5463484157278905,-0.5540010175056435,-1.208594890754029,-0.3313848130926347,-0.14325956102361787
14287,8.0,299.72536,4602.2507,0.0,0.0,0.0,-0.14488651964559573,0.0,0.0,-0.2937009678285287,-0.5510629468531785,-0.5542053697858115,-1.2142750694896187,-0.3295015155292677,-0.16903046274200784
14288,8.0,300.81678999999997,4731.192,0.0,0.0,0.0,-0.144896660789268,0.0,0.0,-0.26242197777153276,-0.5598714846100135,-0.6158707677542125,-1.195473808584079,-0.3280185632129117,-0.15511451626611086
14289,8.0,300.57054,4783.4004,0.0,0.0,0.0,-0.14490680193294025,0.0,0.0,-0.2447173979792268,-0.5613707502529796,-0.6479461419923054,-1.195414026828179,-0.2970977671987667,-0.14491289134428886
14290,8.0,299.98475,4979.0685,0.0,0.0,0.0,-0.14491694307661251,0.0,0.0,-0.2838671628255077,-0.5838014122217134,-0.6458439317448333,-1.2268998617605889,-0.3239010694440467,-0.11099440504179489
14291,8.0,299.8694,5059.5865,0.0,0.0,0.0,-0.14492708422028477,0.0,0.0,-0.34816609912881863,-0.5399553851494475,-0.6498664941118295,-1.212387789853359,-0.3293258280944287,-0.08849453403823052
14292,8.0,298.86388,4913.3640000000005,0.0,0.0,0.0,-0.14493722536395706,0.0,0.0,-0.33631674715937865,-0.5578323694462685,-0.5993908526952715,-1.2267861750993687,-0.2981951271895677,-0.1141902363871989
14293,8.0,299.07635,4636.9039,0.0,0.0,0.0,-0.1449473665076293,0.0,0.0,-0.28760543761194673,-0.5132947181207445,-0.6086028362444235,-1.2162030817798988,-0.2997350646915477,-0.10498341028105591
14294,8.0,299.69432,5017.4312,0.0,0.0,0.0,-0.14495750765130155,0.0,0.0,-0.2808650041042177,-0.5740247342593304,-0.6702840611793863,-1.2139926766867488,-0.33176324173998273,-0.12773392490885688
14295,8.0,299.17748,5071.1566,0.0,0.0,0.0,-0.1449676487949738,0.0,0.0,-0.3367179334039727,-0.5485906976691864,-0.6561963586790384,-1.2238417716337788,-0.3041739208621287,-0.1039846901874899
14296,8.0,300.94549,4663.2619,0.0,0.0,0.0,-0.1449777899386461,0.0,0.0,-0.3010381144526487,-0.5060932963475195,-0.6103837550176864,-1.2175909304418688,-0.29293163742510175,-0.12079284761632587
14297,8.0,301.65912000000003,4534.6563,0.0,0.0,0.0,-0.14498793108231836,0.0,0.0,-0.3000635907714707,-0.5201368110110065,-0.5582218729172094,-1.223870851911649,-0.2953632451475827,-0.10669484036246091
14298,8.0,300.83099,4799.6964,0.0,0.0,0.0,-0.1449980722259906,0.0,0.0,-0.3283873051893037,-0.5404224529155435,-0.5901780889435424,-1.2556561022486088,-0.3189378867442187,-0.11160587107964189
14299,8.0,300.22918,4929.6516,0.0,0.0,0.0,-0.14500821336966285,0.0,0.0,-0.3086452010359097,-0.5516924487428054,-0.6381533330883303,-1.2302670944929088,-0.33828322242345465,-0.11373011951678891
14300,8.0,299.29481,4962.4626,0.0,0.0,0.0,-0.14501835451333514,0.0,0.0,-0.2661162775036317,-0.5827010428781154,-0.6596473973271294,-1.2130209698408487,-0.3134124616964017,-0.14399568722126788
14301,8.0,298.60213,4794.6217,0.0,0.0,0.0,-0.1450284956570074,0.0,0.0,-0.29303285097759074,-0.5438442896957525,-0.6205681242903054,-1.2051651404905386,-0.3132786924181997,-0.1041738639811599
14302,8.0,299.64496,4576.2446,0.0,0.0,0.0,-0.14503863680067966,0.0,0.0,-0.2690214783228527,-0.5630181530605655,-0.5590244683214195,-1.219833354238179,-0.3590945486123726,-0.12317493780641989
14303,8.0,299.99631,4712.6179999999995,0.0,0.0,0.0,-0.1450487779443519,0.0,0.0,-0.3262552445938857,-0.5370444290696585,-0.5692185242649944,-1.219426432998019,-0.34943094936114966,-0.11255317886313389
14304,8.0,300.55775,4796.9539,0.0,0.0,0.0,-0.14505891908802418,0.0,0.0,-0.3438966077124527,-0.5195188703050205,-0.5947387377761435,-1.2245114286248688,-0.31898574254644174,-0.14379657344411687
14305,8.0,300.39135,4621.0431,0.0,0.0,0.0,-0.14506906023169644,0.0,0.0,-0.22878993727230879,-0.5540380315317964,-0.6218537461496865,-1.2024253122201387,-0.3051007609936007,-0.14455809168927286
14306,8.0,301.06139,4231.8357,0.0,0.0,0.0,-0.1450792013753687,0.0,0.0,-0.17729349704250583,-0.5275388968340354,-0.5815399798535275,-1.2466254094073488,-0.32744002780331466,-0.17163935883448583
14307,8.0,301.4445,4695.4557,0.0,0.0,0.0,-0.14508934251904096,0.0,0.0,-0.2675885298989317,-0.5441864642545224,-0.6155263032502164,-1.248828316449759,-0.30718928223222175,-0.11953735981491888
14308,8.0,300.97769,5176.1616,0.0,0.0,0.0,-0.14509948366271322,0.0,0.0,-0.35684629862798767,-0.5719612099006764,-0.6446163893811844,-1.2203289348620887,-0.28073705088158973,-0.13664381807319487
14309,8.0,299.11871,4924.129,0.0,0.0,0.0,-0.14510962480638548,0.0,0.0,-0.3658669197632537,-0.5361646138753274,-0.5947807268602875,-1.2174901120569188,-0.2857261626514767,-0.07030906777496473
14310,8.0,299.37896,4843.3533,0.0,0.0,0.0,-0.14511976595005774,0.0,0.0,-0.3002416694765457,-0.5785999029658645,-0.5934168820931864,-1.2328323397710788,-0.34693382488720265,-0.09665780373388251
14311,8.0,299.18982,5005.5204,0.0,0.0,0.0,-0.14512990709373,0.0,0.0,-0.2846169780320087,-0.5577227357854485,-0.6792135100706543,-1.207025568999149,-0.34015025732271664,-0.07709809675748971
14312,8.0,299.63707,5057.769,0.0,0.0,0.0,-0.14514004823740229,0.0,0.0,-0.2844573810087577,-0.5704010276616984,-0.6825770647051114,-1.2023314852608789,-0.3182050536093937,-0.11039877610301088
14313,8.0,300.3844,5078.3582,0.0,0.0,0.0,-0.14515018938107452,0.0,0.0,-0.34958775994662566,-0.5659251169349605,-0.6281812194466594,-1.1900126945201088,-0.31748225165055866,-0.08768220535355993
14314,8.0,300.52292,4888.6247,0.0,0.0,0.0,-0.14516033052474678,0.0,0.0,-0.3573180678745477,-0.5381606760423234,-0.5905411060568694,-1.241790990530229,-0.3574256953001697,-0.0979963111689829
14315,8.0,299.84587999999997,4529.0745,0.0,0.0,0.0,-0.14517047166841904,0.0,0.0,-0.33246031727877867,-0.5139328731662255,-0.5303323564322284,-1.2139734249348488,-0.3225918591223377,-0.09647703687629222
14316,8.0,299.13662,4466.7557,0.0,0.0,0.0,-0.14518061281209133,0.0,0.0,-0.27471876072013074,-0.5007514316878185,-0.5823120156347215,-1.2137329806861188,-0.2899342004492777,-0.17424569140421084
14317,8.0,300.05252,4910.5082,0.0,0.0,0.0,-0.14519075395576359,0.0,0.0,-0.23580568096470875,-0.5691463808578745,-0.6877198257201623,-1.1895190390713888,-0.2715058257130387,-0.14304083072453086
14318,8.0,299.53732,4834.2579,0.0,0.0,0.0,-0.14520089509943582,0.0,0.0,-0.24067999149826574,-0.5954713479959464,-0.6333423608185244,-1.2464930789442887,-0.3187953325876497,-0.14036453323540085
14319,8.0,299.53882999999996,4540.2294,0.0,0.0,0.0,-0.14521103624310808,0.0,0.0,-0.23734946881706878,-0.5297150439413045,-0.6130518451810064,-1.2520150893392687,-0.3128412419525267,-0.12155792236933288
14320,8.0,299.45378,4753.0859,0.0,0.0,0.0,-0.14522117738678036,0.0,0.0,-0.3251664769639327,-0.5605966373090804,-0.5590563147720624,-1.2376034305169488,-0.2873881359955007,-0.11491883413660588
14321,8.0,298.60992000000005,4952.5597,0.0,0.0,0.0,-0.14523131853045262,0.0,0.0,-0.37879630514678464,-0.5455078741074355,-0.5811503142625705,-1.2238945619639887,-0.3081726313217707,-0.09213629067314391
14322,8.0,299.49431,4946.9145,0.0,0.0,0.0,-0.14524145967412488,0.0,0.0,-0.2923397169816837,-0.5836893974231584,-0.6277093792725924,-1.2190334946092387,-0.3462900969661717,-0.1217036986612199
14323,8.0,300.16399,4900.1842,0.0,0.0,0.0,-0.14525160081779712,0.0,0.0,-0.2279412592535508,-0.5990239244365584,-0.6625684656429164,-1.2057622487744688,-0.3354825383520487,-0.13664828650613586
14324,8.0,300.15477000000004,4719.6078,0.0,0.0,0.0,-0.1452617419614694,0.0,0.0,-0.25224649470229077,-0.5284318437496625,-0.6539645942737804,-1.1767495546861388,-0.2885980478074097,-0.1325275706019529
14325,8.0,300.5037,4549.1475,0.0,0.0,0.0,-0.14527188310514166,0.0,0.0,-0.2885889893515157,-0.5103848766160656,-0.5838533818193424,-1.220095076739009,-0.2911270693945047,-0.14231407709030586
14326,8.0,300.47649,4735.8328,0.0,0.0,0.0,-0.14528202424881392,0.0,0.0,-0.3475049534385687,-0.5283118850703235,-0.5637580890785915,-1.2443438741571788,-0.3276885983178467,-0.1097902991529589
14327,8.0,299.65287,4860.704000000001,0.0,0.0,0.0,-0.1452921653924862,0.0,0.0,-0.38040749439579663,-0.5229873571198335,-0.5741377825729874,-1.2457359784695687,-0.3223870204821217,-0.09525912038859322
14328,8.0,300.77293,4917.5738,0.0,0.0,0.0,-0.14530230653615844,0.0,0.0,-0.2748745580555067,-0.5825916321323173,-0.6373534531943884,-1.204510479600929,-0.3000988518749507,-0.13914473210251588
14329,8.0,300.41104,4804.3711,0.0,0.0,0.0,-0.1453124476798307,0.0,0.0,-0.24149542478124275,-0.5431203022343004,-0.6757931121055873,-1.2271851929887487,-0.3257734543038367,-0.1191981236814389
14330,8.0,299.93275,4905.4782,0.0,0.0,0.0,-0.14532258882350296,0.0,0.0,-0.2614789763009657,-0.5699713589567934,-0.6596925578840863,-1.2565916360659388,-0.35371616641906767,-0.09953004960685109
14331,8.0,299.45112,5048.4497,0.0,0.0,0.0,-0.14533272996717525,0.0,0.0,-0.3269978049296707,-0.5726941038305075,-0.6349107503833124,-1.220293369783579,-0.29803807342406774,-0.1026333995891279
14332,8.0,299.26162999999997,4792.2465,0.0,0.0,0.0,-0.1453428711108475,0.0,0.0,-0.3682789312288006,-0.5167194831937425,-0.5717248591823505,-1.1910404340965388,-0.27305272424320576,-0.1173409477056499
14333,8.0,300.01074,4715.7564,0.0,0.0,0.0,-0.14535301225451974,0.0,0.0,-0.3284842934888757,-0.5377997259592006,-0.5671881838471154,-1.1773143402918789,-0.3054334413989337,-0.11619731258278189
14334,8.0,299.79811,4527.752,0.0,0.0,0.0,-0.145363153398192,0.0,0.0,-0.21235798947310178,-0.5263922118283665,-0.6375733487310904,-1.1996248915937588,-0.3550770727608787,-0.13595834424804387
14335,8.0,299.1786,4735.7883,0.0,0.0,0.0,-0.1453732945418643,0.0,0.0,-0.2182803248500908,-0.5820452268833914,-0.6392358287001644,-1.188735898069099,-0.3308846931082767,-0.17014766216976684
14336,8.0,299.57164,5035.7701,0.0,0.0,0.0,-0.14538343568553655,0.0,0.0,-0.2810220173397137,-0.5903148169120365,-0.6594115431013524,-1.1864196083404988,-0.3092799920910587,-0.12852058188899387
14337,8.0,300.72373,4869.9398,0.0,0.0,0.0,-0.1453935768292088,0.0,0.0,-0.32814276741016973,-0.5428458735772165,-0.6093514456833055,-1.2550081288096588,-0.34144869679586265,-0.12705520946187288
14338,8.0,299.96878,4595.5367,0.0,0.0,0.0,-0.14540371797288104,0.0,0.0,-0.3169172228647947,-0.5662036188574465,-0.5138075543938575,-1.275839030990509,-0.3392145512528697,-0.1037127034631469
14339,8.0,300.07561,4793.3196,0.0,0.0,0.0,-0.1454138591165533,0.0,0.0,-0.3127589153819017,-0.5518192772578224,-0.5924712867023634,-1.253847450820109,-0.2932054986621297,-0.12826019687829587
14340,8.0,300.61335,5234.2172,0.0,0.0,0.0,-0.1454240002602256,0.0,0.0,-0.29228435299621974,-0.6026919303285625,-0.6960950369392314,-1.197308297890129,-0.26088790698763176,-0.13334219328484986
14341,8.0,299.16278,4830.1223,0.0,0.0,0.0,-0.14543414140389785,0.0,0.0,-0.2505939749816998,-0.5637124421615864,-0.6539301741678835,-1.2138932768519388,-0.30611728389142373,-0.13423498821296187
14342,8.0,299.36646,4571.7815,0.0,0.0,0.0,-0.1454442825475701,0.0,0.0,-0.2534431126728877,-0.5141388567790545,-0.6221254592965024,-1.228644374457759,-0.36514309442181764,-0.08477193017783811
14343,8.0,298.70502,4780.0465,0.0,0.0,0.0,-0.14545442369124234,0.0,0.0,-0.3255801464497587,-0.5508130489810155,-0.5766215625431175,-1.198535141111209,-0.3231279900152497,-0.09331757614322772
14344,8.0,298.341,4998.7559,0.0,0.0,0.0,-0.14546456483491463,0.0,0.0,-0.3988098286044656,-0.5438103255524005,-0.5768768306408105,-1.2049035193147188,-0.3088514278287627,-0.10116438250139721
14345,8.0,299.02687000000003,5180.6839,0.0,0.0,0.0,-0.1454747059785869,0.0,0.0,-0.3175379196110527,-0.5941983208353084,-0.6630622933441533,-1.2203077579349988,-0.3119268242672807,-0.12366988008276687
14346,8.0,300.21377,5006.6582,0.0,0.0,0.0,-0.14548484712225915,0.0,0.0,-0.26514196660497474,-0.5871971578118474,-0.6695599521279224,-1.251273288941059,-0.34212773648287864,-0.14112232272018888
14347,8.0,299.84236,4576.8208,0.0,0.0,0.0,-0.14549498826593144,0.0,0.0,-0.2136639269969878,-0.5468816588580175,-0.6306936439971164,-1.225027274250779,-0.2913289594769297,-0.15477330429493585
14348,8.0,300.71756,4604.3244,0.0,0.0,0.0,-0.14550512940960367,0.0,0.0,-0.27038598170251876,-0.5526489669697064,-0.5765647090800065,-1.2051915863181488,-0.2970046900445807,-0.14434246193549186
14349,8.0,300.56678999999997,4970.3704,0.0,0.0,0.0,-0.14551527055327593,0.0,0.0,-0.35819263443336063,-0.5733570024434305,-0.5793188545743194,-1.234557195416309,-0.34585396372562865,-0.0968821991142786
14350,8.0,300.59592000000004,4764.6633,0.0,0.0,0.0,-0.1455254116969482,0.0,0.0,-0.34976292049141267,-0.5266844432897075,-0.5718912956437765,-1.2468652457060188,-0.35925037634525164,-0.08401217701435633
14351,8.0,299.87042,4535.0172,0.0,0.0,0.0,-0.14553555284062047,0.0,0.0,-0.2165851776977928,-0.5845256732606925,-0.5774211283295285,-1.2112827392942989,-0.3022714323418677,-0.15414015470494885
14352,8.0,299.92593,4813.6911,0.0,0.0,0.0,-0.14554569398429273,0.0,0.0,-0.23421750262546778,-0.5632893595823314,-0.6657350343254324,-1.196865000971379,-0.27012398562416173,-0.12308806174284588
14353,8.0,300.38584,5279.1094,0.0,0.0,0.0,-0.14555583512796497,0.0,0.0,-0.2891622051980877,-0.6233340336182794,-0.6922211892894123,-1.2436481766385188,-0.3251753125048047,-0.15168617442025986
14354,8.0,299.7659,5215.0627,0.0,0.0,0.0,-0.14556597627163723,0.0,0.0,-0.3216129683332287,-0.6135346892511594,-0.6501011729674904,-1.2399199228955686,-0.33861506183120466,-0.09835343724622851
14355,8.0,299.78153,4962.8915,0.0,0.0,0.0,-0.14557611741530951,0.0,0.0,-0.3666780467333056,-0.5537364579045335,-0.5881805980939054,-1.2242313662972288,-0.31886300756182867,-0.1009122757440162
14356,8.0,301.69588999999996,4861.6397,0.0,0.0,0.0,-0.14558625855898177,0.0,0.0,-0.3379308849661817,-0.5673848759565274,-0.5725013228664814,-1.1814082759959188,-0.28613359051668674,-0.09787973674497791
14357,8.0,300.40913,4495.9801,0.0,0.0,0.0,-0.14559639970265403,0.0,0.0,-0.2568309549122418,-0.5022724011479265,-0.6075623297167334,-1.2233720288874188,-0.3232049868903487,-0.11993074403374288
14358,8.0,299.95037,4915.3981,0.0,0.0,0.0,-0.14560654084632627,0.0,0.0,-0.2742403141554117,-0.5709351219219094,-0.6489828589646214,-1.2235160117266288,-0.3280501968810337,-0.12555647070895887
14359,8.0,299.99204,5035.1501,0.0,0.0,0.0,-0.14561668198999855,0.0,0.0,-0.3157898504060317,-0.5518428454551485,-0.6629271865758193,-1.2098011649980789,-0.2827127669865777,-0.1281861890909919
14360,8.0,299.24992000000003,4737.7631,0.0,0.0,0.0,-0.1456268231336708,0.0,0.0,-0.31420145928426974,-0.5170651635978585,-0.6088950575732635,-1.2222438762260788,-0.28330170847470176,-0.12241414910133587
14361,8.0,298.85109,4907.701,0.0,0.0,0.0,-0.14563696427734307,0.0,0.0,-0.36902874643530165,-0.5691317191289275,-0.5536580931417995,-1.250017770742149,-0.34887770467404866,-0.08895393048781942
14362,8.0,300.04157000000004,5340.7937,0.0,0.0,0.0,-0.14564710542101533,0.0,0.0,-0.3758998486759267,-0.5675630357216105,-0.6800050407837723,-1.2426727207672488,-0.36409744058361965,-0.06083806507624954
14363,8.0,299.62336,5318.5416,0.0,0.0,0.0,-0.1456572465646876,0.0,0.0,-0.3220593961947877,-0.6042442598792654,-0.6904001762096923,-1.1950468249919388,-0.29289858520683976,-0.1205812303329409
14364,8.0,300.36912,4766.2727,0.0,0.0,0.0,-0.14566738770835985,0.0,0.0,-0.25084828049179775,-0.5306909659076204,-0.6672886304387604,-1.183402250867709,-0.27002888196977576,-0.13405071854977588
14365,8.0,300.58874,4534.4909,0.0,0.0,0.0,-0.1456775288520321,0.0,0.0,-0.24459103555925577,-0.5339574106524935,-0.5998235611504764,-1.2365771094906588,-0.3292742030018337,-0.15149026251342484
14366,8.0,300.85547,4580.1924,0.0,0.0,0.0,-0.14568766999570437,0.0,0.0,-0.2906092074008957,-0.5422694558603285,-0.5593854589345465,-1.240204950148699,-0.33929663464347065,-0.12078499492805089
14367,8.0,299.96043,4735.0598,0.0,0.0,0.0,-0.14569781113937666,0.0,0.0,-0.3698648804178217,-0.5321807880596545,-0.5372942864118175,-1.225397515837319,-0.3246525159832087,-0.14137880671800185
14368,8.0,299.93037000000004,4845.2471,0.0,0.0,0.0,-0.1457079522830489,0.0,0.0,-0.3077830467908217,-0.5502544543333865,-0.6147966213232025,-1.2135080391639188,-0.31930927330337167,-0.11576778573289088
14369,8.0,300.14185,4527.8078,0.0,0.0,0.0,-0.14571809342672115,0.0,0.0,-0.2091660895380858,-0.5570850772325164,-0.6100893450686303,-1.2557349331063887,-0.36427821453396064,-0.15431167768187684
14370,8.0,300.66582,4444.9396,0.0,0.0,0.0,-0.1457282345703934,0.0,0.0,-0.18484415572769783,-0.5247929485330315,-0.6415135439974573,-1.2553405761674687,-0.34106647859314065,-0.13043874538830189
14371,8.0,300.53292999999996,5015.5288,0.0,0.0,0.0,-0.1457383757140657,0.0,0.0,-0.2947917011636757,-0.5677832048358394,-0.6620206114463474,-1.220305326134759,-0.27600805054487376,-0.14989983475896185
14372,8.0,300.49978,5219.7297,0.0,0.0,0.0,-0.14574851685773793,0.0,0.0,-0.3976911599640616,-0.5463712442526435,-0.6426050980651854,-1.224325598556529,-0.27032819604931574,-0.11543619963766588
14373,8.0,300.19178,4732.5907,0.0,0.0,0.0,-0.1457586580014102,0.0,0.0,-0.3559194382315137,-0.5310778957233074,-0.5515920559228974,-1.2482996025475788,-0.3228531560581257,-0.09053026595989161
14374,8.0,299.17985,4692.2935,0.0,0.0,0.0,-0.14576879914508245,0.0,0.0,-0.2687951182505128,-0.5573842595895434,-0.6001606694587465,-1.2458222060530788,-0.37177581944391663,-0.07541970774859563
14375,8.0,298.95408,4999.7623,0.0,0.0,0.0,-0.14577894028875474,0.0,0.0,-0.2993889080598847,-0.5460413705500874,-0.6743726165253954,-1.2052721397010988,-0.34237731011500966,-0.08627425684935622
14376,8.0,300.05573,5309.3964,0.0,0.0,0.0,-0.145789081432427,0.0,0.0,-0.3193956630068977,-0.5928498572047255,-0.7016783996277663,-1.2119811725882288,-0.3316194514182917,-0.11392925355894189
14377,8.0,299.97805,5073.531,0.0,0.0,0.0,-0.14579922257609926,0.0,0.0,-0.3418390311318857,-0.5631209675482124,-0.6372667392508303,-1.2225271809540388,-0.35243149701478066,-0.14306845192225687
14378,8.0,300.15854,4720.4125,0.0,0.0,0.0,-0.1458093637197715,0.0,0.0,-0.3408571917849857,-0.5256891074514756,-0.5683412219309114,-1.2416898681702488,-0.31832933886665965,-0.1194273613840629
14379,8.0,300.58266000000003,4535.0204,0.0,0.0,0.0,-0.14581950486344378,0.0,0.0,-0.32939685692643866,-0.5382220486008805,-0.5109140768782935,-1.2059160601396488,-0.28149357380375273,-0.15530683113509086
14380,8.0,299.34737,4807.1871,0.0,0.0,0.0,-0.14582964600711604,0.0,0.0,-0.3029957136458487,-0.5141719900573245,-0.6440971493674394,-1.2069320460149189,-0.29127813485191373,-0.12657583070706188
14381,8.0,299.8245,5162.1031,0.0,0.0,0.0,-0.1458397871507883,0.0,0.0,-0.29692640634185474,-0.5943254229278524,-0.6778986255483853,-1.249888581354399,-0.3314071957873437,-0.14104777791033188
14382,8.0,300.80024,4664.2193,0.0,0.0,0.0,-0.14584992829446056,0.0,0.0,-0.22345088944788577,-0.5444796481709575,-0.6498756640252344,-1.2512292125617088,-0.33284971942470964,-0.12886314148280187
14383,8.0,300.92705,4476.117,0.0,0.0,0.0,-0.14586006943813282,0.0,0.0,-0.22361634305671477,-0.5472695613938006,-0.5897418847754924,-1.2398919571928089,-0.2961847984611637,-0.16723060632437584
14384,8.0,299.95471000000003,5089.5726,0.0,0.0,0.0,-0.14587021058180508,0.0,0.0,-0.3633350712083796,-0.5899015121962464,-0.5938664105000514,-1.2458516916309887,-0.28164398064859675,-0.12404545136483289
14385,8.0,300.00931,5322.1913,0.0,0.0,0.0,-0.14588035172547734,0.0,0.0,-0.38722116562075365,-0.5951676668084754,-0.6354244276540083,-1.241901738766159,-0.33441528202171866,-0.11989047747476887
14386,8.0,298.93745,4875.8799,0.0,0.0,0.0,-0.1458904928691496,0.0,0.0,-0.2840645844749918,-0.5767176186525974,-0.6213635458838074,-1.2212165419496888,-0.3345185626044117,-0.1092456164292029
14387,8.0,299.99945,4454.2409,0.0,0.0,0.0,-0.14590063401282186,0.0,0.0,-0.2181807527627638,-0.5202575701579245,-0.6155396781515364,-1.1822120873002488,-0.3142066369922807,-0.12174595119038989
14388,8.0,298.6041,4671.9917,0.0,0.0,0.0,-0.14591077515649412,0.0,0.0,-0.2562618731260778,-0.5212744578257835,-0.6426324862153884,-1.194155266228949,-0.32965348277926565,-0.11457880766804789
14389,8.0,299.27235,5026.0249,0.0,0.0,0.0,-0.14592091630016638,0.0,0.0,-0.34968332969605764,-0.5561083345336194,-0.6219944055285684,-1.230519799067849,-0.3256114660103497,-0.1157800257940989
14390,8.0,299.2146,5247.3602,0.0,0.0,0.0,-0.14593105744383864,0.0,0.0,-0.41693033743032065,-0.5467379090663305,-0.6313982277191534,-1.2379667820028089,-0.3133742520351307,-0.11011325235733188
14391,8.0,299.97468,4936.7865,0.0,0.0,0.0,-0.1459411985875109,0.0,0.0,-0.35678717548465266,-0.5353286724103264,-0.6085439765461145,-1.241185877570509,-0.27902083825971274,-0.10480954669639689
14392,8.0,300.68412,4551.5956,0.0,0.0,0.0,-0.14595133973118318,0.0,0.0,-0.23311855183200977,-0.5348413599072325,-0.6156114871861235,-1.2386979432749687,-0.3037758554278427,-0.12200838296628988
14393,8.0,300.67079,4868.5956,0.0,0.0,0.0,-0.14596148087485541,0.0,0.0,-0.2623887127707497,-0.5621771656100665,-0.6553656151870504,-1.2611116434370289,-0.33797688652072166,-0.1070893188913929
14394,8.0,300.09994,5292.2192,0.0,0.0,0.0,-0.14597162201852767,0.0,0.0,-0.2878637353274387,-0.5991833390747914,-0.7216554055518434,-1.2303690274529686,-0.3160539135145927,-0.1137405357278169
14395,8.0,299.40437000000003,4889.0092,0.0,0.0,0.0,-0.14598176316219993,0.0,0.0,-0.3249345440160427,-0.5563235792523624,-0.6048786051043704,-1.199356988267319,-0.29074038275884173,-0.1248041223772079
14396,8.0,299.88764,4488.2073,0.0,0.0,0.0,-0.14599190430587222,0.0,0.0,-0.2971910571354737,-0.5200498336224225,-0.5470620376408194,-1.1924604027866788,-0.29385952120417674,-0.12408253631849289
14397,8.0,298.69584,4640.3111,0.0,0.0,0.0,-0.14600204544954448,0.0,0.0,-0.2848949327994407,-0.5710674321199675,-0.5545763307799224,-1.213282185716629,-0.36801557739530966,-0.13906075393422787
14398,8.0,299.2507,4878.8436,0.0,0.0,0.0,-0.14601218659321674,0.0,0.0,-0.2897036353890227,-0.5488449018542745,-0.6444980924320094,-1.2146818894047688,-0.35579321766655664,-0.1154064810122329
14399,8.0,299.92371,5096.3277,0.0,0.0,0.0,-0.14602232773688897,0.0,0.0,-0.28260525101846673,-0.6057393711968214,-0.6608117432820414,-1.204747782774349,-0.31849551188305963,-0.15560182876920484
14400,8.0,300.2594,4876.1242,0.0,0.0,0.0,-0.14603246888056126,0.0,0.0,-0.2716324515780358,-0.5687550028742484,-0.6418325455264404,-1.2068684139086387,-0.31874812526549073,-0.12882091935113488
14401,8.0,299.19656000000003,4600.5623,0.0,0.0,0.0,-0.14604261002423352,0.0,0.0,-0.28034244063014474,-0.5422680373101885,-0.5758455750865334,-1.2431326349876388,-0.3300745996533267,-0.12376092060425187
14402,8.0,301.59389,4845.6054,0.0,0.0,0.0,-0.14605275116790578,0.0,0.0,-0.3097478501922327,-0.5632214110306255,-0.5999737653453004,-1.2356120900954188,-0.2955327314918097,-0.10443318507925291
14403,8.0,300.60705,5313.0821,0.0,0.0,0.0,-0.146062892311578,0.0,0.0,-0.36544155737127365,-0.5756900107986804,-0.6739127327025084,-1.2211156222397288,-0.26419337199385573,-0.12984550771975387
14404,8.0,299.50866,5171.0359,0.0,0.0,0.0,-0.14607303345525027,0.0,0.0,-0.33413242312380265,-0.5746831847043145,-0.6630501951379593,-1.235902487574079,-0.2752575159308017,-0.1012098075166303
14405,8.0,300.00555,4506.0518,0.0,0.0,0.0,-0.14608317459892256,0.0,0.0,-0.2440322078641038,-0.5317152097712056,-0.5939798235837445,-1.2351564315254489,-0.33887239695910165,-0.13956768295925787
14406,8.0,299.75102999999996,4614.2269,0.0,0.0,0.0,-0.14609331574259482,0.0,0.0,-0.24709488801386675,-0.5617303527134695,-0.5937845094944684,-1.230211771037449,-0.35086820409799563,-0.11559908972374189
14407,8.0,299.78102,5116.1693,0.0,0.0,0.0,-0.14610345688626708,0.0,0.0,-0.36300451862825667,-0.5546527602349655,-0.6375304477218564,-1.2258648267834387,-0.3371083690650057,-0.1053855895107479
14408,8.0,299.9598,5229.5740000000005,0.0,0.0,0.0,-0.1461135980299393,0.0,0.0,-0.35648206561454066,-0.5913016211844264,-0.6418762267382514,-1.2079917029694989,-0.3155470756820717,-0.1057100727227719
14409,8.0,299.28227999999996,4785.0771,0.0,0.0,0.0,-0.1461237391736116,0.0,0.0,-0.29590999490154274,-0.5389176549270315,-0.6197163051962374,-1.2249686070699888,-0.3409130117329947,-0.1056397734308339
14410,8.0,300.04395,4594.6424,0.0,0.0,0.0,-0.14613388031728386,0.0,0.0,-0.26845407853185477,-0.5197435990446996,-0.6084588939352175,-1.197200386754479,-0.3240646586726917,-0.1027010745633069
14411,8.0,300.77041,4951.8796,0.0,0.0,0.0,-0.14614402146095612,0.0,0.0,-0.27835670348166774,-0.5796877688032285,-0.6472032675489894,-1.1918140505478887,-0.2874118663128427,-0.13842131206111988
14412,8.0,300.39076,5341.6584,0.0,0.0,0.0,-0.1461541626046284,0.0,0.0,-0.35594703916423764,-0.5839303381644374,-0.6838533950610753,-1.198813784888709,-0.3003506850548047,-0.13404037326625487
14413,8.0,300.44105,5155.1414,0.0,0.0,0.0,-0.14616430374830064,0.0,0.0,-0.36034672308595267,-0.5719265972772605,-0.6347609514885284,-1.2240079446501788,-0.35027092356154865,-0.13552604109287889
14414,8.0,301.1017,4453.16,0.0,0.0,0.0,-0.1461744448919729,0.0,0.0,-0.26462025426098573,-0.5255323475285044,-0.5634968630703104,-1.2558748629451988,-0.34901969141056166,-0.11725171076934288
14415,8.0,300.52341,4311.8971,0.0,0.0,0.0,-0.14618458603564516,0.0,0.0,-0.2088328011826928,-0.5187796334295635,-0.5830966258496564,-1.2388947164443886,-0.28943359410487174,-0.12592444261527488
14416,8.0,300.2605,4956.8814,0.0,0.0,0.0,-0.14619472717931745,0.0,0.0,-0.2847166717093477,-0.5719829137178184,-0.6500685767117733,-1.2817941044782288,-0.28286377164898074,-0.11892557966954088
14417,8.0,299.37057999999996,5218.2353,0.0,0.0,0.0,-0.1462048683229897,0.0,0.0,-0.3473538069211517,-0.6018850387439284,-0.6369743760669764,-1.2297686767687188,-0.3049477399634987,-0.12921006818454087
14418,8.0,299.56439,4917.4717,0.0,0.0,0.0,-0.14621500946666194,0.0,0.0,-0.3269226217722507,-0.5793008491200424,-0.5885651569043585,-1.2316970943590386,-0.3112165258146797,-0.13047879916475488
14419,8.0,299.19889,4853.5689,0.0,0.0,0.0,-0.1462251506103342,0.0,0.0,-0.3317855535071847,-0.5751918261220135,-0.5683863723553675,-1.173493678139809,-0.29777832676093274,-0.13562795378793688
14420,8.0,299.20324,5059.7719,0.0,0.0,0.0,-0.14623529175400649,0.0,0.0,-0.3137825310304247,-0.5625975630765565,-0.6616642209886744,-1.206265226124109,-0.33203376938418167,-0.1007482194070751
14421,8.0,298.70504,5130.8361,0.0,0.0,0.0,-0.14624543289767875,0.0,0.0,-0.32343469068801867,-0.5719071226103385,-0.6643042542567253,-1.202901945067179,-0.34361629207228767,-0.1011180263093222
14422,8.0,300.82723,4930.8443,0.0,0.0,0.0,-0.146255574041351,0.0,0.0,-0.2830642634462677,-0.5363604751196575,-0.6794287953194014,-1.207806379526209,-0.3136487313547197,-0.10186429210072291
14423,8.0,300.94877,4593.3746,0.0,0.0,0.0,-0.14626571518502324,0.0,0.0,-0.2728854062541927,-0.5125206051768455,-0.6108651805376994,-1.1991409633459988,-0.28402053849314474,-0.11472793781776588
14424,8.0,300.378,4777.8922,0.0,0.0,0.0,-0.14627585632869552,0.0,0.0,-0.3038900081841087,-0.5583256499924515,-0.5901442666552044,-1.2459210992628387,-0.2857140847102847,-0.12784669964498688
14425,8.0,299.46907000000004,5198.2793,0.0,0.0,0.0,-0.14628599747236778,0.0,0.0,-0.3663279789562567,-0.6008387566906684,-0.6129803705189524,-1.2609292584190288,-0.35062769905425967,-0.1177463288056579
14426,8.0,300.50323,5353.6101,0.0,0.0,0.0,-0.14629613861604004,0.0,0.0,-0.37523743642305163,-0.6016077628540634,-0.6505185914786864,-1.240872377989569,-0.3175840427556047,-0.0959761407423576
14427,8.0,299.90702999999996,4854.365,0.0,0.0,0.0,-0.1463062797597123,0.0,0.0,-0.27887825370564073,-0.5745557786367405,-0.6221717040310665,-1.2042334570235886,-0.28216072806709575,-0.11090364823033788
14428,8.0,299.29702000000003,4555.7132,0.0,0.0,0.0,-0.14631642090338456,0.0,0.0,-0.2384488755730718,-0.5360373496627675,-0.6103368415380565,-1.211939831984149,-0.2905875238487557,-0.1102346397193119
14429,8.0,299.2803,4973.7653,0.0,0.0,0.0,-0.14632656204705682,0.0,0.0,-0.30032688380995576,-0.5848252710502605,-0.6267482912877403,-1.2461581997862388,-0.3280593769269397,-0.11856992888444089
14430,8.0,299.28782,5187.5192,0.0,0.0,0.0,-0.14633670319072908,0.0,0.0,-0.37020409628629963,-0.5655553110459635,-0.6411169072458124,-1.2383931576448888,-0.3278404034478287,-0.12408066180580787
14431,8.0,299.23981000000003,4885.6395,0.0,0.0,0.0,-0.14634684433440134,0.0,0.0,-0.32924604478155467,-0.5489497023121175,-0.6069166462230093,-1.1900575814995389,-0.3207523542282927,-0.14732141722949185
14432,8.0,299.79177999999996,4483.1959,0.0,0.0,0.0,-0.14635698547807363,0.0,0.0,-0.2606052406072348,-0.5042500018981005,-0.5979243656930404,-1.1912732789695188,-0.3363940986720127,-0.1316308949259579
14433,8.0,299.67413999999997,4535.4645,0.0,0.0,0.0,-0.14636712662174586,0.0,0.0,-0.22397897513500378,-0.5481482012180154,-0.6065407912309154,-1.211622482052829,-0.3558713493817677,-0.12784834111014887
14434,8.0,299.45129,4961.0292,0.0,0.0,0.0,-0.14637726776541812,0.0,0.0,-0.28338443021286575,-0.5563313711456315,-0.6683131884098763,-1.2198742895422188,-0.3140338069227237,-0.13527068180267687
14435,8.0,299.59501,5295.7631,0.0,0.0,0.0,-0.14638740890909038,0.0,0.0,-0.35371736205418564,-0.5840857605972765,-0.6719766245439294,-1.218623837593809,-0.2858762756537917,-0.10857730706074589
14436,8.0,299.29922,4923.4646,0.0,0.0,0.0,-0.14639755005276267,0.0,0.0,-0.32728542610305666,-0.5750901768719814,-0.5942346863813974,-1.2140218582896287,-0.3027059342497497,-0.12172294028061888
14437,8.0,299.85237,4525.247,0.0,0.0,0.0,-0.14640769119643493,0.0,0.0,-0.2792618093984947,-0.5510924020335854,-0.5452078811503285,-1.242187475294359,-0.3533485592827877,-0.10383007835473089
14438,8.0,300.23069,4753.9119,0.0,0.0,0.0,-0.14641783234010716,0.0,0.0,-0.3068414740028957,-0.5483438699448264,-0.5898851684721333,-1.2165403927381888,-0.32498031252305964,-0.1150520359947519
14439,8.0,300.19932,5142.1835,0.0,0.0,0.0,-0.14642797348377942,0.0,0.0,-0.3182990629536717,-0.5706012560139594,-0.6741950545778713,-1.2375042333321589,-0.3098328821406247,-0.08324323671221782
14440,8.0,300.53766,5035.6737,0.0,0.0,0.0,-0.1464381146274517,0.0,0.0,-0.3202179458605507,-0.5298527851598984,-0.6806483532722624,-1.2112139396125088,-0.30087517370406774,-0.1098077675846829
14441,8.0,299.7136,4661.5797,0.0,0.0,0.0,-0.14644825577112397,0.0,0.0,-0.2688117558171547,-0.5180682406668544,-0.6301238225383795,-1.2354923239335989,-0.31113159519129774,-0.10433432226699589
14442,8.0,300.25485,4825.3703,0.0,0.0,0.0,-0.14645839691479623,0.0,0.0,-0.3320577834115517,-0.5201663067214175,-0.6145679814381374,-1.2176224425199789,-0.2890138451184457,-0.1115457752162109
14443,8.0,300.40647,5301.6938,0.0,0.0,0.0,-0.14646853805846846,0.0,0.0,-0.3733227281065846,-0.5786314049114735,-0.6596284090202553,-1.1913252586996488,-0.3076584879560287,-0.12492615821925188
14444,8.0,299.71597,5356.9625,0.0,0.0,0.0,-0.14647867920214075,0.0,0.0,-0.3768053396277916,-0.5846622087116674,-0.6669152781744133,-1.2045185856017289,-0.34107207173369264,-0.1023822655518429
14445,8.0,300.24938,4944.3955,0.0,0.0,0.0,-0.146488820345813,0.0,0.0,-0.2864416286795877,-0.5854468087941015,-0.6310843329706745,-1.201968235100029,-0.3589688245399647,-0.12396894084978188
14446,8.0,300.11978999999997,4600.4194,0.0,0.0,0.0,-0.14649896148948527,0.0,0.0,-0.25602065880727176,-0.5383263626986754,-0.6040655934891325,-1.216806776189479,-0.33109873205940066,-0.09172653030620372
14447,8.0,299.49155,4751.3292,0.0,0.0,0.0,-0.14650910263315756,0.0,0.0,-0.3068275012840167,-0.5504363327263365,-0.5870215919670205,-1.2312473126396488,-0.2868874992535917,-0.15320657646031186
14448,8.0,300.95414,5132.204000000001,0.0,0.0,0.0,-0.1465192437768298,0.0,0.0,-0.34161614650738864,-0.5694180636071874,-0.6490276648840434,-1.2555411996872687,-0.28334022211100274,-0.1023462951732929
14449,8.0,300.41733999999997,4773.2899,0.0,0.0,0.0,-0.14652938492050205,0.0,0.0,-0.28012737829641976,-0.5736047623578825,-0.5972288201618954,-1.231640757653479,-0.3093429351872707,-0.16191282661955186
14450,8.0,300.15443,4291.6811,0.0,0.0,0.0,-0.1465395260641743,0.0,0.0,-0.2005807505132788,-0.5195349809816106,-0.5844481596280424,-1.210332412025509,-0.3127732326058147,-0.14810299782662786
14451,8.0,299.71038,4564.4221,0.0,0.0,0.0,-0.1465496672078466,0.0,0.0,-0.23879522472225376,-0.5409833476408995,-0.6076917724170084,-1.194957355008109,-0.3178620481855417,-0.14318479329873887
14452,8.0,299.04104,5251.6946,0.0,0.0,0.0,-0.14655980835151886,0.0,0.0,-0.3307326650632727,-0.6012597519747175,-0.6643915964153454,-1.2225604155573189,-0.34876705776312866,-0.12498447076250689
14453,8.0,300.22174,5304.3299,0.0,0.0,0.0,-0.1465699494951911,0.0,0.0,-0.3703257876233096,-0.5916684785156324,-0.6503895642109524,-1.2406851293710888,-0.3400087366812497,-0.1208174594612549
14454,8.0,300.36265,4764.5673,0.0,0.0,0.0,-0.14658009063886335,0.0,0.0,-0.31094730526310965,-0.5437647698279044,-0.5935974128635034,-1.220410906795179,-0.29883521754273973,-0.11903145417248989
14455,8.0,299.68543999999997,4490.9112,0.0,0.0,0.0,-0.14659023178253563,0.0,0.0,-0.2896968770108557,-0.5021097846393775,-0.5733181949646005,-1.2088456701537789,-0.25079701003673777,-0.10971061716509488
14456,8.0,300.51512,4997.8593,0.0,0.0,0.0,-0.1466003729262079,0.0,0.0,-0.3218141187430807,-0.5521818485411055,-0.6452284633690913,-1.235589393293179,-0.27965686547998375,-0.100611855195367
14457,8.0,300.04817,5292.5083,0.0,0.0,0.0,-0.14661051406988015,0.0,0.0,-0.35573687082849564,-0.5730113625693184,-0.6800421460024343,-1.216914484675109,-0.3080531286049767,-0.08250932243953613
14458,8.0,299.24481000000003,5042.0569,0.0,0.0,0.0,-0.1466206552135524,0.0,0.0,-0.31087643855111574,-0.5744198004733204,-0.6473631685472704,-1.2317001341093388,-0.3290173441014837,-0.1112250106320539
14459,8.0,299.77,4668.4159,0.0,0.0,0.0,-0.14663079635722467,0.0,0.0,-0.3092986561579007,-0.5229367756748415,-0.5868464314222335,-1.2083698479068188,-0.31887171138018766,-0.11884773166435789
14460,8.0,298.89335,4666.6278,0.0,0.0,0.0,-0.14664093750089693,0.0,0.0,-0.2809510594352107,-0.5458101975397724,-0.5917770583963484,-1.2451683557635487,-0.3609593442289137,-0.1300909168939739
14461,8.0,299.92956000000004,5125.8172,0.0,0.0,0.0,-0.1466510786445692,0.0,0.0,-0.30638337350018474,-0.6011490341362904,-0.6505880092430374,-1.2383869768192788,-0.34318500216722264,-0.13554852511259788
14462,8.0,299.98413999999997,5120.6668,0.0,0.0,0.0,-0.14666121978824145,0.0,0.0,-0.2944008804676047,-0.5915873475801254,-0.6705666161022723,-1.234144802625609,-0.33765191694864966,-0.12993724738380788
14463,8.0,300.01787,4678.7585,0.0,0.0,0.0,-0.14667136093191369,0.0,0.0,-0.27241794332055774,-0.5295656908765645,-0.6202421212031314,-1.168691683265889,-0.3036393199768677,-0.10905476064036691
14464,8.0,300.15174,4728.9969,0.0,0.0,0.0,-0.14668150207558597,0.0,0.0,-0.2908438862565567,-0.5462773564983775,-0.6003757520574734,-1.207581134028979,-0.3380015186306527,-0.1030208765598689
14465,8.0,301.0689,5022.1448,0.0,0.0,0.0,-0.14669164321925823,0.0,0.0,-0.3493581372089637,-0.5666380295728194,-0.6106104494625594,-1.228229955166859,-0.3388856502704096,-0.10754222142109089
14466,8.0,300.52241000000004,5133.4415,0.0,0.0,0.0,-0.1467017843629305,0.0,0.0,-0.3181509257890517,-0.5918389882424605,-0.6504481199342314,-1.192676022407959,-0.31558699773601173,-0.15325897162298285
14467,8.0,300.38559,5082.9944,0.0,0.0,0.0,-0.14671192550660278,0.0,0.0,-0.30560523795338873,-0.5671654161173685,-0.6723327211590734,-1.204056239581099,-0.26910157574325777,-0.13545106058547887
14468,8.0,299.1596,4770.0451,0.0,0.0,0.0,-0.146722066650275,0.0,0.0,-0.2680590123178648,-0.5559092207564684,-0.6260063591670174,-1.2125629807956488,-0.27743681424588174,-0.14130149573537187
14469,8.0,299.68495,4728.19,0.0,0.0,0.0,-0.14673220779394727,0.0,0.0,-0.25862079028638474,-0.5582316406481734,-0.6203992560286394,-1.2660806219274288,-0.3176366405682957,-0.09758844557972972
14470,8.0,299.72626,5008.9562,0.0,0.0,0.0,-0.14674234893761953,0.0,0.0,-0.3137525692249677,-0.5985995347646744,-0.6102454869090403,-1.2413548876871887,-0.3384041335578877,-0.12661885330630787
14471,8.0,300.33419,5145.0641,0.0,0.0,0.0,-0.14675249008129182,0.0,0.0,-0.33617006907490266,-0.5937627854123244,-0.6340381596621945,-1.2278882872331387,-0.3456133269593797,-0.08908169017967832
14472,8.0,299.72724,4855.9238,0.0,0.0,0.0,-0.14676263122496408,0.0,0.0,-0.31272810244636073,-0.5539421780723365,-0.6094092819990133,-1.1918795065043488,-0.36512498764253065,-0.11412045385281189
14473,8.0,300.86227,4853.376,0.0,0.0,0.0,-0.1467727723686363,0.0,0.0,-0.2938288399911487,-0.5628796012418914,-0.6185966638357374,-1.220429043971969,-0.35261217977261267,-0.09953349060419071
14474,8.0,300.50615,4997.4804,0.0,0.0,0.0,-0.14678291351230857,0.0,0.0,-0.3108182577303737,-0.5691902444547035,-0.6391007624618344,-1.187122398609859,-0.3255060474699457,-0.12068567615324889
14475,8.0,300.38941,5283.6356,0.0,0.0,0.0,-0.14679305465598086,0.0,0.0,-0.3649178691895897,-0.5830441698919795,-0.6581312408049964,-1.2339515758315387,-0.25159541058553375,-0.1054626370483519
14476,8.0,301.2308,5154.8925,0.0,0.0,0.0,-0.14680319579965312,0.0,0.0,-0.3468595739198747,-0.5752084738211565,-0.6448905748582443,-1.2565810982648988,-0.26559751371743373,-0.12384603361265188
14477,8.0,300.48906,4746.7769,0.0,0.0,0.0,-0.14681333694332538,0.0,0.0,-0.2977017554508757,-0.5709916106149844,-0.5742082845149454,-1.2612780191034487,-0.2993745401734667,-0.12575774270882287
14478,8.0,299.76254,4688.194,0.0,0.0,0.0,-0.1468234780869976,0.0,0.0,-0.23876242581651677,-0.5824382361996784,-0.6038932396471225,-1.2498494699005387,-0.32952826533190765,-0.15290935980847886
14479,8.0,300.25853,5004.3285,0.0,0.0,0.0,-0.1468336192306699,0.0,0.0,-0.29452123431448274,-0.5942004283955165,-0.6324692432073544,-1.2147352876850388,-0.3125233448661527,-0.13128047251137387
14480,8.0,299.90497,5027.6436,0.0,0.0,0.0,-0.14684376037434216,0.0,0.0,-0.2863396450570227,-0.5834412930036724,-0.6584971659461104,-1.211581242773759,-0.35091196636981464,-0.1272396615100769
14481,8.0,300.15378,4697.2437,0.0,0.0,0.0,-0.14685390151801442,0.0,0.0,-0.3042546768950987,-0.5393798084301424,-0.5842103194320694,-1.2374214507989887,-0.33711211809037567,-0.1024378220548259
14482,8.0,299.69725,4494.592000000001,0.0,0.0,0.0,-0.14686404266168668,0.0,0.0,-0.25437912271776475,-0.5585120576133484,-0.5533525678391465,-1.2276666894362689,-0.3327634006486907,-0.12109205023835487
14483,8.0,299.0487,4881.4373,0.0,0.0,0.0,-0.14687418380535894,0.0,0.0,-0.3246524349232007,-0.5532227806338375,-0.6059598240210784,-1.2112807127940988,-0.31231440256303167,-0.1039931508258249
14484,8.0,299.96421000000004,5540.73,0.0,0.0,0.0,-0.1468843249490312,0.0,0.0,-0.35100091959609364,-0.6348488408022024,-0.6983937974411013,-1.2279022700845188,-0.3372808951595327,-0.12027527946524588
14485,8.0,299.86533,5351.4241,0.0,0.0,0.0,-0.14689446609270346,0.0,0.0,-0.35528545777644466,-0.5840110131373994,-0.6874028304263774,-1.2356421836233888,-0.3402612791361737,-0.09265131455322281
14486,8.0,299.5206,4842.5487,0.0,0.0,0.0,-0.14690460723637572,0.0,0.0,-0.27589277308099674,-0.5470998723995535,-0.6490212408784093,-1.2190348118343688,-0.3273286716173247,-0.13096742889297888
14487,8.0,300.4504,4725.5109,0.0,0.0,0.0,-0.14691474838004798,0.0,0.0,-0.29868538825045277,-0.5330490420703444,-0.6047029075370304,-1.230012971367829,-0.2778046240321817,-0.10392250702885289
14488,8.0,301.25507999999996,5143.1561,0.0,0.0,0.0,-0.14692488952372024,0.0,0.0,-0.34837701726963466,-0.5725554810843265,-0.6424585415707214,-1.263998696946959,-0.30995070286225274,-0.13054450843373988
14489,8.0,301.24167,5182.0053,0.0,0.0,0.0,-0.1469350306673925,0.0,0.0,-0.35472206032334164,-0.5702866621229115,-0.6501914839489034,-1.2504995711646987,-0.3116894096363497,-0.12720368099902588
14490,8.0,301.10958999999997,4492.8569,0.0,0.0,0.0,-0.14694517181106476,0.0,0.0,-0.22352538359523777,-0.5675509476479175,-0.5746399797200504,-1.241605261786899,-0.31234999803904473,-0.14789079285818488
14491,8.0,300.40668999999997,4302.9701,0.0,0.0,0.0,-0.14695531295473702,0.0,0.0,-0.2207856667823488,-0.5248324450219295,-0.5623773534323234,-1.213806036018329,-0.3267565095508567,-0.1211995662064659
14492,8.0,300.96547000000004,4893.7919,0.0,0.0,0.0,-0.14696545409840928,0.0,0.0,-0.2889458459042347,-0.5672593747991415,-0.6313853087803785,-1.2474833282670188,-0.36468217708382866,-0.10978064287950588
14493,8.0,300.70206,5449.4337,0.0,0.0,0.0,-0.14697559524208154,0.0,0.0,-0.38976004613132165,-0.5979985659978634,-0.6687331603113243,-1.2579060240956588,-0.35214888129688865,-0.1075188457412839
14494,8.0,299.6934,5177.5212,0.0,0.0,0.0,-0.1469857363857538,0.0,0.0,-0.3449926910081277,-0.5635488124029375,-0.6652956384195674,-1.226249557846409,-0.3381158740369387,-0.12299461981862388
14495,8.0,299.09861,4843.193,0.0,0.0,0.0,-0.14699587752942606,0.0,0.0,-0.2897412877627387,-0.5580143694292304,-0.6244540802788193,-1.197202109279649,-0.2888568825454547,-0.14190875678530387
14496,8.0,299.41222999999997,5117.555,0.0,0.0,0.0,-0.14700601867309832,0.0,0.0,-0.3076983390824617,-0.5797664679384954,-0.6681441377631924,-1.2022743379552387,-0.3313592487926117,-0.13639129588327287
14497,8.0,299.91677999999996,5333.4182,0.0,0.0,0.0,-0.1470161598167706,0.0,0.0,-0.36137788744772065,-0.5588629866529825,-0.7009850933793423,-1.195753972236729,-0.3359666591173277,-0.10842981837618988
14498,8.0,300.2823,4945.6376,0.0,0.0,0.0,-0.14702630096044284,0.0,0.0,-0.3140454694313747,-0.5645886096555575,-0.6247162587421944,-1.2003552422658388,-0.3127637283198767,-0.13507415181328086
14499,8.0,300.18177000000003,4249.3124,0.0,0.0,0.0,-0.14703644210411512,0.0,0.0,-0.2482553734858978,-0.4802244437419625,-0.5632050369090095,-1.2319159563806388,-0.2962650580015847,-0.1076343055901789
14500,8.0,300.29976,4457.5633,0.0,0.0,0.0,-0.14704658324778735,0.0,0.0,-0.25649036102362777,-0.5550197695536865,-0.5434777971345826,-1.2827250786701088,-0.3224098692718767,-0.14489009321703886
14501,8.0,301.27334,5093.5895,0.0,0.0,0.0,-0.14705672439145964,0.0,0.0,-0.3073748083255317,-0.5916100849123693,-0.6493391379647834,-1.2924655532064186,-0.3074016797181837,-0.12657215260919888
14502,8.0,301.03312999999997,5365.1703,0.0,0.0,0.0,-0.1470668655351319,0.0,0.0,-0.3397500944607237,-0.6070927693553915,-0.6840349390814924,-1.2458101483768886,-0.27819947746365076,-0.14322541449524787
14503,8.0,300.85207,5138.2298,0.0,0.0,0.0,-0.14707700667880416,0.0,0.0,-0.3067647507053237,-0.5936551883842055,-0.6614736185123633,-1.2345331813889386,-0.2922813436434227,-0.11215379620371788
14504,8.0,299.67996,4859.1499,0.0,0.0,0.0,-0.1470871478224764,0.0,0.0,-0.2988822627448827,-0.5372372100336844,-0.6409407638484284,-1.2433733832113987,-0.35067148159108064,-0.100761958065181
14505,8.0,299.70007999999996,5113.5482,0.0,0.0,0.0,-0.14709728896614868,0.0,0.0,-0.34469212049846365,-0.5855117479930104,-0.6241870888774693,-1.2439210448904487,-0.3436738142804647,-0.11120302310488389
14506,8.0,300.04822,5351.8599,0.0,0.0,0.0,-0.14710743010982094,0.0,0.0,-0.36816822352287465,-0.5656326321610944,-0.6930309179743264,-1.1976830991021188,-0.30482887559426775,-0.12495698128729388
14507,8.0,299.67512,5045.1926,0.0,0.0,0.0,-0.1471175712534932,0.0,0.0,-0.3228986003251107,-0.5769162764672034,-0.6337976951484624,-1.205199692318949,-0.29249393364690374,-0.13182112249973185
14508,8.0,298.79218,4372.0856,0.0,0.0,0.0,-0.14712771239716546,0.0,0.0,-0.23082014596767478,-0.5368054844310765,-0.5613792311563165,-1.2252823093009488,-0.3403566361030847,-0.13305134997614587
14509,8.0,299.58894,4466.8055,0.0,0.0,0.0,-0.14713785354083772,0.0,0.0,-0.24315144021467877,-0.5589255649791585,-0.5557203205403254,-1.243125238261909,-0.39159160714458263,-0.14144853858988385
14510,8.0,299.79113,4940.637,0.0,0.0,0.0,-0.14714799468450998,0.0,0.0,-0.29907695875159773,-0.5878579995270674,-0.6148953321479445,-1.2342705469630189,-0.34359426401511367,-0.1095453054112799
14511,8.0,300.6056,5121.7573,0.0,0.0,0.0,-0.14715813582818224,0.0,0.0,-0.33025282021341573,-0.5996287739512524,-0.6270047347555494,-1.2464458614896288,-0.3057141116766337,-0.14035788631474486
14512,8.0,300.58912000000004,4854.9431,0.0,0.0,0.0,-0.14716827697185453,0.0,0.0,-0.27161690832150176,-0.5693621929966735,-0.6348023832851174,-1.2692669895168989,-0.2998952595323577,-0.1314751279880849
14513,8.0,300.19122999999996,4902.3982,0.0,0.0,0.0,-0.14717841811552676,0.0,0.0,-0.27727687271759677,-0.5853718282867014,-0.6275579287801455,-1.2893371435226688,-0.2837788378142907,-0.15151839033620088
14514,8.0,300.10452999999995,5184.3274,0.0,0.0,0.0,-0.14718855925919902,0.0,0.0,-0.31025530610731467,-0.5848451408847215,-0.6808056198202833,-1.2313938286041088,-0.25742605696097376,-0.12435817074319588
14515,8.0,300.49152999999995,5341.6613,0.0,0.0,0.0,-0.14719870040287128,0.0,0.0,-0.3663583865917576,-0.5628355856575474,-0.6945376816680323,-1.221404905143279,-0.2771142562090477,-0.11626377165684089
14516,8.0,299.54298,5177.8453,0.0,0.0,0.0,-0.14720884154654357,0.0,0.0,-0.32319596896445874,-0.5828893250116974,-0.6678503762942004,-1.2443662669843887,-0.3242880296572367,-0.09522829022780051
14517,8.0,298.59655,4572.0631,0.0,0.0,0.0,-0.14721898269021583,0.0,0.0,-0.27808344006219876,-0.5318272144372594,-0.5798823533524324,-1.2236102439859289,-0.38393570217150363,-0.12304190820079088
14518,8.0,299.22402999999997,4577.3311,0.0,0.0,0.0,-0.14722912383388806,0.0,0.0,-0.23314322447194477,-0.5644251116194215,-0.5938260223510654,-1.190590753702159,-0.3645844085816796,-0.13814460359131087
14519,8.0,299.24653,5021.8458,0.0,0.0,0.0,-0.14723926497756032,0.0,0.0,-0.33461203492613667,-0.5866210238049875,-0.6052826588467474,-1.189331486477879,-0.3387695622064527,-0.13619918366431286
14520,8.0,299.40007,5195.9509,0.0,0.0,0.0,-0.1472494061212326,0.0,0.0,-0.3169642680669377,-0.6030035857943205,-0.6594714768447674,-1.2267230496181387,-0.3505238814490137,-0.12145732689940487
14521,8.0,300.16868,4842.7936,0.0,0.0,0.0,-0.14725954726490487,0.0,0.0,-0.29753404229432373,-0.5802402332877524,-0.5943140542617305,-1.2387874132587988,-0.3409702502311437,-0.12996570957911688
14522,8.0,301.02997999999997,4843.1689,0.0,0.0,0.0,-0.14726968840857713,0.0,0.0,-0.2594980723554658,-0.5732476119626344,-0.6394567374869664,-1.2473447156533386,-0.3074473671651927,-0.11861524142891289
14523,8.0,300.10983,5181.2095,0.0,0.0,0.0,-0.14727982955224936,0.0,0.0,-0.3294648358756477,-0.5863106349018544,-0.6591828424212813,-1.2389771950025288,-0.3082466492415757,-0.11828329056365189
14524,8.0,299.95864,5406.5217,0.0,0.0,0.0,-0.14728997069592162,0.0,0.0,-0.3308363509460057,-0.6007979632416425,-0.7118132918980024,-1.2793846970654388,-0.30615035637468774,-0.10954573097632189
14525,8.0,299.36517000000003,5208.1173,0.0,0.0,0.0,-0.1473001118395939,0.0,0.0,-0.3411239805363157,-0.5979428777723674,-0.6440707744673364,-1.2584357512479387,-0.3260422999528697,-0.1306167329008679
14526,8.0,299.74959,4622.4764,0.0,0.0,0.0,-0.14731025298326617,0.0,0.0,-0.2930059289224337,-0.5223654140759525,-0.5897460694984055,-1.228417507760369,-0.3113143044493297,-0.1358685601566829
14527,8.0,300.84562999999997,4526.2195,0.0,0.0,0.0,-0.14732039412693843,0.0,0.0,-0.26414171650375773,-0.5301290883296675,-0.5815868933331575,-1.212279777392699,-0.30798013406777275,-0.15135031240961286
14528,8.0,300.68825,4822.2944,0.0,0.0,0.0,-0.14733053527061066,0.0,0.0,-0.30349062552469275,-0.5517367480371775,-0.6106297316119624,-1.221235185751529,-0.32966854980825266,-0.12228401739099289
14529,8.0,300.79927999999995,5139.8895,0.0,0.0,0.0,-0.14734067641428295,0.0,0.0,-0.3230134623564467,-0.5984321762456575,-0.6409524364895803,-1.2245833693819688,-0.36190077516182567,-0.14354063660135785
14530,8.0,300.22697999999997,4848.5283,0.0,0.0,0.0,-0.1473508175579552,0.0,0.0,-0.2828398488141198,-0.5602979919746064,-0.6306936845271204,-1.207442622740309,-0.32245294253362766,-0.13641508699562088
14531,8.0,300.34738,4715.6762,0.0,0.0,0.0,-0.14736095870162746,0.0,0.0,-0.2807882909391467,-0.5635530275233535,-0.5891065060352854,-1.2400537732337789,-0.3355396045976807,-0.1247859041404099
14532,8.0,300.62462,5330.2172,0.0,0.0,0.0,-0.14737109984529975,0.0,0.0,-0.3476744600477977,-0.6103854066153495,-0.6621930564808663,-1.2628849324370388,-0.34200493057075865,-0.09595448150822
14533,8.0,300.02627,5589.6404,0.0,0.0,0.0,-0.14738124098897198,0.0,0.0,-0.3950412475075356,-0.6073920125074245,-0.6966778482642504,-1.2865415864967686,-0.34786969307706567,-0.11087512524002291
14534,8.0,299.52181,5130.4156,0.0,0.0,0.0,-0.14739138213264424,0.0,0.0,-0.3071662409249477,-0.5988757366094335,-0.6534762583880854,-1.2353864392981488,-0.3078984154472077,-0.10971362651789189
14535,8.0,300.17269,4618.6667,0.0,0.0,0.0,-0.1474015232763165,0.0,0.0,-0.25508719202014574,-0.5343200933932876,-0.6145520734115674,-1.2283114204748988,-0.31661807090527067,-0.1099797465241559
14536,8.0,299.97252000000003,4700.5383,0.0,0.0,0.0,-0.1474116644199888,0.0,0.0,-0.26196979464940573,-0.5464300431559465,-0.6204464430857964,-1.223193595544809,-0.31959268948884273,-0.12690415413696488
14537,8.0,300.61537999999996,4919.8102,0.0,0.0,0.0,-0.14742180556366105,0.0,0.0,-0.3408325900725577,-0.5467076027558395,-0.6079592603109074,-1.224199246269059,-0.30300426547669274,-0.14451174562969887
14538,8.0,300.19687000000005,5156.7458,0.0,0.0,0.0,-0.14743194670733328,0.0,0.0,-0.3429289437344517,-0.5754558081705664,-0.6491372073523544,-1.2036180089128488,-0.2818338434523347,-0.16258404401579585
14539,8.0,299.22697999999997,4761.7297,0.0,0.0,0.0,-0.14744208785100554,0.0,0.0,-0.29501882117359074,-0.5588916413658105,-0.5935364557374875,-1.2276657775111788,-0.30554554738999773,-0.15070309890823785
14540,8.0,300.38287,4531.4997,0.0,0.0,0.0,-0.14745222899467783,0.0,0.0,-0.25081606927111877,-0.5253270326607415,-0.6013196553206295,-1.2625521811041989,-0.31254205959549974,-0.14658496679180985
14541,8.0,301.15756,5132.1205,0.0,0.0,0.0,-0.1474623701383501,0.0,0.0,-0.3047225248637717,-0.6104316614824145,-0.6448822763399253,-1.2561827896505888,-0.3269819171681027,-0.13673206202440386
14542,8.0,300.84121,5442.9639,0.0,0.0,0.0,-0.14747251128202235,0.0,0.0,-0.36280533392359865,-0.6075068036112534,-0.6842129772565634,-1.256439141925889,-0.3035255623881407,-0.10171723911370992
14543,8.0,301.06428999999997,5130.3041,0.0,0.0,0.0,-0.14748265242569458,0.0,0.0,-0.34356740275496267,-0.5850918774165724,-0.6308250524025855,-1.2284444602130289,-0.3447190425536207,-0.08325798760717362
14544,8.0,299.69795,4719.4897,0.0,0.0,0.0,-0.14749279356936687,0.0,0.0,-0.28088312101600577,-0.5469245699997525,-0.6067993523914335,-1.239514521530559,-0.3499880241336287,-0.07973144561463102
14545,8.0,299.6592,5062.9492,0.0,0.0,0.0,-0.14750293471303913,0.0,0.0,-0.32921766364625366,-0.5557530181210525,-0.6540394430586673,-1.2238845307879989,-0.3311729830267287,-0.100599209834119
14546,8.0,298.91839,5296.2605,0.0,0.0,0.0,-0.1475130758567114,0.0,0.0,-0.3386088708730937,-0.5694570332060335,-0.7018650301636853,-1.205739551972229,-0.30290073158147474,-0.10400623188461591
14547,8.0,298.98896,5044.9115,0.0,0.0,0.0,-0.14752321700038365,0.0,0.0,-0.3003297817052417,-0.5756292664551855,-0.6575680865319173,-1.2295767671997788,-0.32524507477418974,-0.1304078311277509
14548,8.0,299.55314,4670.465999999999,0.0,0.0,0.0,-0.1475333581440559,0.0,0.0,-0.2935264354988037,-0.5188115305427116,-0.6073670764224635,-1.2596318929909887,-0.3159349680853537,-0.1180990512979689
14549,8.0,300.93514,4691.2065,0.0,0.0,0.0,-0.14754349928772817,0.0,0.0,-0.3178452890288877,-0.5372439380143486,-0.5709203993979565,-1.261979289497659,-0.3212281967402547,-0.14512472141019486
14550,8.0,300.41613,4957.5209,0.0,0.0,0.0,-0.14755364043140043,0.0,0.0,-0.3180841830049647,-0.5736886695986635,-0.6151897116994974,-1.2558399058167486,-0.3035897112519717,-0.14662203148046787
14551,8.0,301.18951,5303.9347,0.0,0.0,0.0,-0.1475637815750727,0.0,0.0,-0.3340320809663997,-0.6204544376290854,-0.6577771909550544,-1.2701375740028187,-0.3207782326358467,-0.1031697635295629
14552,8.0,300.07977,5029.1995,0.0,0.0,0.0,-0.14757392271874498,0.0,0.0,-0.26536716143969974,-0.6123931312909964,-0.6509907660252864,-1.2387460726547188,-0.3450039583492397,-0.11813303570632289
14553,8.0,300.28086,4642.1473,0.0,0.0,0.0,-0.1475840638624172,0.0,0.0,-0.22561826180928876,-0.5713555193883995,-0.6141230835842295,-1.233782059089809,-0.3250407832890277,-0.1032033223728749
14554,8.0,299.57937000000004,4991.4643,0.0,0.0,0.0,-0.14759420500608947,0.0,0.0,-0.3143620087626147,-0.5786858265743445,-0.6242326851319693,-1.213228280811309,-0.3045601819327497,-0.11930072538656489
14555,8.0,299.77001,5420.4889,0.0,0.0,0.0,-0.14760434614976173,0.0,0.0,-0.37953367764205764,-0.6062348606282224,-0.6619247377218854,-1.214157431153009,-0.33831354899894767,-0.09449959824613421
14556,8.0,299.89533,5057.5355,0.0,0.0,0.0,-0.14761448729343402,0.0,0.0,-0.3172217551823497,-0.5850220543521815,-0.6351206856715313,-1.2068638542831889,-0.3300560977065007,-0.13086042968241887
14557,8.0,299.29087999999996,4646.0676,0.0,0.0,0.0,-0.14762462843710628,0.0,0.0,-0.27680143550567476,-0.5358838726701205,-0.5996032400487324,-1.2043899028390288,-0.3255725268090067,-0.14542067149940285
14558,8.0,299.77389,4821.7954,0.0,0.0,0.0,-0.1476347695807785,0.0,0.0,-0.26844633730109074,-0.5494877482477184,-0.6477713360850533,-1.222488373475209,-0.3161592712599907,-0.16030596394846686
14559,8.0,299.8936,5046.1873,0.0,0.0,0.0,-0.14764491072445077,0.0,0.0,-0.30483989975535575,-0.5750362213041564,-0.6540388047111043,-1.2520672717194188,-0.32451299144443874,-0.12594671385247289
14560,8.0,300.2835,5025.7899,0.0,0.0,0.0,-0.14765505186812306,0.0,0.0,-0.31581343886835966,-0.5832491402547084,-0.6286520666356283,-1.2704798498865988,-0.3245711925301827,-0.13495482134900388
14561,8.0,300.59904,4976.4253,0.0,0.0,0.0,-0.14766519301179531,0.0,0.0,-0.3374438967031197,-0.5568693461537254,-0.6183957768709114,-1.2598119475337588,-0.31585795094525265,-0.11534327447099489
14562,8.0,301.20106,4712.9588,0.0,0.0,0.0,-0.14767533415546757,0.0,0.0,-0.28677906122788976,-0.5668128253475705,-0.5790298959108015,-1.2403551138135187,-0.31440058319392167,-0.13442129450884888
14563,8.0,299.9539,4874.1077,0.0,0.0,0.0,-0.1476854752991398,0.0,0.0,-0.2755345182431398,-0.5704109473801774,-0.6356615788399134,-1.2387416143542789,-0.3403257725050387,-0.12426932897442788
14564,8.0,300.27418,5473.9031,0.0,0.0,0.0,-0.1476956164428121,0.0,0.0,-0.31663569132450964,-0.6251679149742694,-0.7221262426083113,-1.2247262376460688,-0.3389808451173047,-0.1116400682705169
14565,8.0,299.87841000000003,5200.8918,0.0,0.0,0.0,-0.14770575758648435,0.0,0.0,-0.3157832440153797,-0.5831929150066595,-0.6819650819097134,-1.2206678670205386,-0.3055855707689477,-0.11553682550509689
14566,8.0,299.55287000000004,4488.3879,0.0,0.0,0.0,-0.14771589873015661,0.0,0.0,-0.2715146713864117,-0.5141037881930935,-0.5787393869746305,-1.2305279050686488,-0.3078581488882337,-0.1258973077775969
14567,8.0,299.42897,4676.3549,0.0,0.0,0.0,-0.1477260398738289,0.0,0.0,-0.29109694546903175,-0.5314753633400344,-0.5989228122090795,-1.2383074366864288,-0.3215534601548557,-0.11042172621777588
14568,8.0,299.55454,5141.887,0.0,0.0,0.0,-0.14773618101750113,0.0,0.0,-0.3327689735242407,-0.5828103016363985,-0.6474259799209694,-1.2348183099670789,-0.3229754857426987,-0.13083161284957487
14569,8.0,299.26931,5139.3801,0.0,0.0,0.0,-0.1477463221611734,0.0,0.0,-0.3227133680743297,-0.5764859288847315,-0.6630439231198403,-1.2234260351177488,-0.3166464925705757,-0.14139612316221087
14570,8.0,299.98117,4938.7069,0.0,0.0,0.0,-0.14775646330484565,0.0,0.0,-0.2755312657103187,-0.5794815724078785,-0.6462307298380073,-1.206944002366099,-0.33546871762068464,-0.16120755388744684
14571,8.0,300.80555,4651.3137,0.0,0.0,0.0,-0.14776660444851794,0.0,0.0,-0.2642182776813138,-0.5413093405955726,-0.6083556234850254,-1.2718741833492089,-0.33199901490575173,-0.09483002214349451
14572,8.0,300.52821,4657.9654,0.0,0.0,0.0,-0.1477767455921902,0.0,0.0,-0.2879843019568377,-0.5461448943128044,-0.5817759759343184,-1.254679329152209,-0.3312954343013137,-0.12621074656353087
14573,8.0,301.36512,5217.0396,0.0,0.0,0.0,-0.14778688673586243,0.0,0.0,-0.3482754794771137,-0.6039510455653274,-0.6336232540112464,-1.2534463051055187,-0.29064533989946173,-0.1138167220028359
14574,8.0,301.38962999999995,5289.7794,0.0,0.0,0.0,-0.1477970278795347,0.0,0.0,-0.34347118452546666,-0.6074896898170644,-0.6569999774658494,-1.2448068281278688,-0.2945609030558977,-0.14559872993947587
14575,8.0,299.81793999999996,4798.4189,0.0,0.0,0.0,-0.14780716902320698,0.0,0.0,-0.25882234599627674,-0.5734859081211525,-0.6262912546976344,-1.2273014127752186,-0.31123294046629973,-0.12102207518644889
14576,8.0,299.84889,4794.2641,0.0,0.0,0.0,-0.14781731016687924,0.0,0.0,-0.23968430102249874,-0.5742344567650285,-0.6434178057053933,-1.220383245067449,-0.32637335915804266,-0.13181110145624286
14577,8.0,300.28517999999997,5126.2055,0.0,0.0,0.0,-0.1478274513105515,0.0,0.0,-0.34380305433071967,-0.5684823676698414,-0.6459530486481024,-1.189559670400399,-0.30138804037468375,-0.1197278508337189
14578,8.0,299.34204,4951.7108,0.0,0.0,0.0,-0.14783759245422373,0.0,0.0,-0.3393144070502247,-0.5575565526365475,-0.6083254691620494,-1.221516666629309,-0.32638541683423267,-0.12353674915212788
14579,8.0,299.89898,4623.8009,0.0,0.0,0.0,-0.14784773359789602,0.0,0.0,-0.2964779114500917,-0.5221272293749455,-0.5869148663339875,-1.2531638109776386,-0.33195193930610567,-0.1126987221074979
14580,8.0,299.73095,4581.7082,0.0,0.0,0.0,-0.14785787474156828,0.0,0.0,-0.2574884225046288,-0.5524575640258165,-0.5827788908832984,-1.2668127964496887,-0.34088949419817366,-0.12735675269163288
14581,8.0,299.12622000000005,4951.1887,0.0,0.0,0.0,-0.14786801588524054,0.0,0.0,-0.26333448041408974,-0.5939797019937324,-0.6477235613428384,-1.2135987250478688,-0.3221828201894687,-0.14744850918953487
14582,8.0,299.29679,5268.5445,0.0,0.0,0.0,-0.1478781570289128,0.0,0.0,-0.3128723791280997,-0.6120317759078334,-0.6766018275404014,-1.2288078116988888,-0.33009978905081266,-0.14488265596130487
14583,8.0,299.7517,5182.0145,0.0,0.0,0.0,-0.14788829817258506,0.0,0.0,-0.3292877704206727,-0.6105504751891404,-0.6353647573556194,-1.265065649302259,-0.35379682112702765,-0.0898810654750705
14584,8.0,299.76769,4812.5498,0.0,0.0,0.0,-0.14789843931625732,0.0,0.0,-0.3123069551747967,-0.5647989299788145,-0.5857890846778815,-1.2715988832970389,-0.34384080802944567,-0.0985445443210893
14585,8.0,300.09286000000003,4883.8837,0.0,0.0,0.0,-0.14790858045992958,0.0,0.0,-0.2918478651181417,-0.5786274127060794,-0.6141034265322894,-1.2591495859433888,-0.3038510081877597,-0.1021300574694519
14586,8.0,300.61001,5340.3026,0.0,0.0,0.0,-0.14791872160360184,0.0,0.0,-0.3332281480720577,-0.6078608331961933,-0.6822296415108233,-1.2273325195532887,-0.2971754936139377,-0.12743247287160586
14587,8.0,300.1797,5218.9173,0.0,0.0,0.0,-0.1479288627472741,0.0,0.0,-0.2865421126920047,-0.5712730408302594,-0.7286053994452543,-1.258883810442159,-0.31759439817162666,-0.1091560957828679
14588,8.0,299.97758,4630.2932,0.0,0.0,0.0,-0.14793900389094636,0.0,0.0,-0.24167434448390077,-0.5352941813769224,-0.6305249986504724,-1.2263201813783788,-0.3067520749465727,-0.14052638980637486
14589,8.0,299.54862,4560.5135,0.0,0.0,0.0,-0.14794914503461862,0.0,0.0,-0.28716346805082776,-0.5182572523405086,-0.5808615075865674,-1.215665653926859,-0.3288246340649647,-0.14136321279896288
14590,8.0,299.16576000000003,5068.9919,0.0,0.0,0.0,-0.14795928617829088,0.0,0.0,-0.3746504910376246,-0.5564855472808474,-0.6097109164212825,-1.217646253897329,-0.36180558031493065,-0.11735424154696189
14591,8.0,299.29357999999996,5197.4086,0.0,0.0,0.0,-0.14796942732196317,0.0,0.0,-0.38385032571807765,-0.5777997900243994,-0.6182323294972805,-1.2436941781930588,-0.3646225270504416,-0.12229535565961187
14592,8.0,299.00489,5037.6586,0.0,0.0,0.0,-0.1479795684656354,0.0,0.0,-0.29266105911839774,-0.5874206301214024,-0.6512407348249564,-1.239337202763059,-0.35156841057960064,-0.10208051967206291
14593,8.0,299.59513,4858.4761,0.0,0.0,0.0,-0.14798970960930766,0.0,0.0,-0.2295523877075568,-0.5815315800101984,-0.6657714505340263,-1.1995520389115688,-0.2974010126886947,-0.14875682785115588
14594,8.0,299.28485,4951.0391,0.0,0.0,0.0,-0.14799985075297992,0.0,0.0,-0.26324712812296874,-0.5888847055883955,-0.6528604049773054,-1.2280297369470987,-0.2997911480845827,-0.12822422649974588
14595,8.0,299.51471000000004,5247.1496,0.0,0.0,0.0,-0.1480099918966522,0.0,0.0,-0.3647113485542076,-0.5841468291808034,-0.6461442793394754,-1.249771348317829,-0.3197911142559257,-0.13007882882028088
14596,8.0,300.06481,5182.6267,0.0,0.0,0.0,-0.14802013304032444,0.0,0.0,-0.3647471973427457,-0.5897642168076964,-0.6208776924608574,-1.2710610501439588,-0.3061319557528717,-0.09914266585511931
14597,8.0,300.67139,4675.0206,0.0,0.0,0.0,-0.14803027418399672,0.0,0.0,-0.3083356227328567,-0.5341821292596715,-0.5785717751430884,-1.2412363374254887,-0.2950278289669797,-0.13281464462028486
14598,8.0,300.14153999999996,4433.0778,0.0,0.0,0.0,-0.14804041532766896,0.0,0.0,-0.21039263891663681,-0.5402271894887725,-0.5969251288419234,-1.2397675300805289,-0.2923261596953457,-0.13359254711955787
14599,8.0,300.93768,4862.7643,0.0,0.0,0.0,-0.14805055647134124,0.0,0.0,-0.2408742518074378,-0.5903691372498975,-0.6469155247855913,-1.2442992911527788,-0.3026715141438527,-0.15623011475871185
14600,8.0,299.84619,5099.7353,0.0,0.0,0.0,-0.14806069761501348,0.0,0.0,-0.3357651743349427,-0.5336907130936724,-0.6807362932484413,-1.220279488257209,-0.2923686858020427,-0.13077596515408288
14601,8.0,300.50797,4808.2617,0.0,0.0,0.0,-0.14807083875868576,0.0,0.0,-0.31956367000597874,-0.5559632472518005,-0.5860645873800714,-1.2139614685836688,-0.30830536708487066,-0.16157533327624385
14602,8.0,299.63502,4774.6087,0.0,0.0,0.0,-0.14808097990235802,0.0,0.0,-0.3134841795384797,-0.5518969530104885,-0.5859806902717914,-1.2405727599349987,-0.3432110224297907,-0.1014923989165199
14603,8.0,299.16098999999997,4991.4593,0.0,0.0,0.0,-0.14809112104603028,0.0,0.0,-0.33261950900198967,-0.5572292525892455,-0.6274302187375415,-1.258191963273879,-0.39097725334395067,-0.09766036100557722
14604,8.0,298.25461,5386.5717,0.0,0.0,0.0,-0.14810126218970254,0.0,0.0,-0.3033207845429307,-0.6210613035114784,-0.7130011959177394,-1.229886011130299,-0.3402832463983417,-0.08491662330536821
14605,8.0,298.62337,5341.4438,0.0,0.0,0.0,-0.1481114033333748,0.0,0.0,-0.30332794822113773,-0.6010386912004004,-0.7192988999267743,-1.2130518739688987,-0.27284769308547074,-0.11524246621854588
14606,8.0,298.70432,4969.4988,0.0,0.0,0.0,-0.14812154447704706,0.0,0.0,-0.30967446048748976,-0.5543516324377464,-0.6465774336247244,-1.2283008826738588,-0.2985519026822787,-0.09404777178804241
14607,8.0,299.42094,4615.7355,0.0,0.0,0.0,-0.14813168562071932,0.0,0.0,-0.2898853516619567,-0.5327229477906615,-0.5804600578969474,-1.2511868587075288,-0.31018255475013473,-0.12097169639147688
14608,8.0,299.26138,4891.0877,0.0,0.0,0.0,-0.14814182676439158,0.0,0.0,-0.3593882492863587,-0.5408225955125344,-0.5865576956737375,-1.2549410516530386,-0.3170389851293117,-0.10705329785033789
14609,8.0,300.08928,5288.0118,0.0,0.0,0.0,-0.14815196790806384,0.0,0.0,-0.37545440366696464,-0.5845211136352424,-0.6474480181106445,-1.1971827562027388,-0.2923341947686387,-0.13456626020065587
14610,8.0,300.89781,5081.0899,0.0,0.0,0.0,-0.1481621090517361,0.0,0.0,-0.28734463716870773,-0.5836233335166384,-0.6735564942323503,-1.2219542893474988,-0.3386830610454157,-0.14598083668468684
14611,8.0,300.34324,4646.8379,0.0,0.0,0.0,-0.14817225019540836,0.0,0.0,-0.22398384886798478,-0.5661146858961694,-0.6224241451609804,-1.2520493371926487,-0.3399781567932317,-0.13985615526272785
14612,8.0,300.64436,4824.5881,0.0,0.0,0.0,-0.14818239133908062,0.0,0.0,-0.29870207647959973,-0.5529669451160885,-0.6148852908394534,-1.2574534052759887,-0.32278602823900066,-0.13475733890451386
14613,8.0,300.30373,5271.1691,0.0,0.0,0.0,-0.14819253248275288,0.0,0.0,-0.37017137844057063,-0.5691854011192254,-0.6629470158802764,-1.2345104845866988,-0.28358805295296174,-0.1085608518791219
14614,8.0,299.22527,5083.9168,0.0,0.0,0.0,-0.14820267362642514,0.0,0.0,-0.36839238484249764,-0.5676080746885555,-0.6093833022664494,-1.2572192431778788,-0.3068713750133467,-0.1129193370517709
14615,8.0,298.38217000000003,4711.1018,0.0,0.0,0.0,-0.1482128147700974,0.0,0.0,-0.25005167339567874,-0.5588613553203214,-0.6231442822720523,-1.2555693680400488,-0.3665525759734226,-0.095749956975535
14616,8.0,298.91434,4703.8683,0.0,0.0,0.0,-0.14822295591376966,0.0,0.0,-0.2280648048382438,-0.5714190603021705,-0.6303746323356324,-1.2122843370181489,-0.3395639198873497,-0.11143561466533888
14617,8.0,299.60586,5080.5297,0.0,0.0,0.0,-0.14823309705744195,0.0,0.0,-0.2813123945533717,-0.6011008743590375,-0.6619408990609804,-1.1782177540810388,-0.3131329971863207,-0.1258264511981039
14618,8.0,299.28922,5300.8919,0.0,0.0,0.0,-0.14824323820111418,0.0,0.0,-0.3714183549411377,-0.5884395746869644,-0.6514808548336544,-1.1824017677189689,-0.3283964548377067,-0.11447083573739189
14619,8.0,300.55772,5028.0239,0.0,0.0,0.0,-0.14825337934478644,0.0,0.0,-0.3311405083610237,-0.5949092576354724,-0.6023439599792204,-1.2345412873897386,-0.3454361095168897,-0.12027865358807889
14620,8.0,301.0614,4562.1917,0.0,0.0,0.0,-0.1482635204884587,0.0,0.0,-0.2889382769259877,-0.5416467832763755,-0.5562072885383855,-1.2471030555044886,-0.3061550578551517,-0.14060613258924487
14621,8.0,300.74228999999997,4877.7207,0.0,0.0,0.0,-0.148273661632131,0.0,0.0,-0.2687707901156118,-0.5588252025567535,-0.6551093135742553,-1.2387531654054187,-0.29096425023593575,-0.13632074327880989
14622,8.0,300.92015,5558.1098,0.0,0.0,0.0,-0.14828380277580325,0.0,0.0,-0.3430373513626507,-0.6193518290027664,-0.7271374027003743,-1.2389593618007688,-0.3140972667764867,-0.1106436583871789
14623,8.0,299.97571,5212.3931,0.0,0.0,0.0,-0.14829394391947548,0.0,0.0,-0.33027296362540365,-0.5676198385222164,-0.6865445366641703,-1.2719630453829789,-0.34832427760192963,-0.12637989853522488
14624,8.0,298.96622,4537.0386,0.0,0.0,0.0,-0.14830408506314774,0.0,0.0,-0.26222857872494576,-0.5356799560874955,-0.5812379097337155,-1.239290289283429,-0.32736155158306973,-0.12028675958887888
14625,8.0,299.40268,4747.4354,0.0,0.0,0.0,-0.14831422620682003,0.0,0.0,-0.31697261724776166,-0.5476201155308974,-0.5785091056244035,-1.230774428817979,-0.3062397756960127,-0.12914803701341887
14626,8.0,298.84424,5191.0468,0.0,0.0,0.0,-0.1483243673504923,0.0,0.0,-0.3559840633228917,-0.5564999658297705,-0.6654645674762394,-1.226508645896979,-0.3276889833528847,-0.08491924357012683
14627,8.0,297.81785,5197.7832,0.0,0.0,0.0,-0.14833450849416455,0.0,0.0,-0.3016342601489837,-0.6280002631113004,-0.6503617910257115,-1.222998240925529,-0.34765950447632166,-0.11380027695371289
14628,8.0,297.68606,5052.4216,0.0,0.0,0.0,-0.14834464963783678,0.0,0.0,-0.2688588212842997,-0.5876397049255234,-0.6793114812228234,-1.1794432800769887,-0.3207205989701587,-0.1120029131313269
14629,8.0,298.099,4715.0123,0.0,0.0,0.0,-0.14835479078150907,0.0,0.0,-0.2720250049317777,-0.5804823493991474,-0.5807386408794415,-1.1806534046714188,-0.3034737751755297,-0.15091678322182686
14630,8.0,298.85577,4738.358,0.0,0.0,0.0,-0.14836493192518133,0.0,0.0,-0.2775590324729438,-0.5729478925830545,-0.5898355901447405,-1.210225412814949,-0.3173224114472837,-0.14558050157017688
14631,8.0,299.28337,5234.037,0.0,0.0,0.0,-0.14837507306885359,0.0,0.0,-0.3841614137637796,-0.5881838911567304,-0.6186712593080994,-1.2625123603752688,-0.3157550959276017,-0.14299000609951484
14632,8.0,299.68178,5165.4291,0.0,0.0,0.0,-0.14838521421252587,0.0,0.0,-0.33624310414211067,-0.5903365916566854,-0.6435817698365753,-1.2656060155805888,-0.28262171633259175,-0.1321228481145099
14633,8.0,300.57909,4418.9106,0.0,0.0,0.0,-0.1483953553561981,0.0,0.0,-0.22297725582114178,-0.5015231128314775,-0.6187381034171964,-1.2540300384881289,-0.27822696693886373,-0.13635705816239385
14634,8.0,299.85165,4611.0191,0.0,0.0,0.0,-0.14840549649987037,0.0,0.0,-0.24573943295759376,-0.5199378086913665,-0.6359574174716104,-1.271243637811979,-0.32624880032324965,-0.0936736261488671
14635,8.0,299.74525,5364.4346,0.0,0.0,0.0,-0.14841563764354263,0.0,0.0,-0.3523995492391277,-0.6036029434934724,-0.6746516656029353,-1.2419789484237789,-0.36463199080637565,-0.1029062982385609
14636,8.0,299.49009,5464.7224,0.0,0.0,0.0,-0.1484257787872149,0.0,0.0,-0.37297146469441766,-0.6130371631870574,-0.6751305174676944,-1.2271185211321687,-0.3343206343298777,-0.09468603727778432
14637,8.0,299.33572000000004,5008.5057,0.0,0.0,0.0,-0.14843591993088717,0.0,0.0,-0.3297661055278807,-0.5961623339016414,-0.5965322208506464,-1.2187484673561089,-0.2737055207526317,-0.13232713959967188
14638,8.0,299.31514,4939.9817,0.0,0.0,0.0,-0.1484460610745594,0.0,0.0,-0.29646927855923977,-0.5786308982864234,-0.6265308984787854,-1.2564251590745088,-0.3082136983483237,-0.0938751139710024
14639,8.0,300.41422,5167.6093,0.0,0.0,0.0,-0.14845620221823166,0.0,0.0,-0.31119070820213174,-0.5928927176839555,-0.6667407559771894,-1.2629855481719687,-0.3279260028162767,-0.1105435391447979
14640,8.0,300.49261,5133.3233,0.0,0.0,0.0,-0.14846634336190395,0.0,0.0,-0.3024509397295837,-0.5952629224503764,-0.6626882419372373,-1.2269802124935187,-0.3030333153570597,-0.11450599551586188
14641,8.0,300.00872000000004,4922.5868,0.0,0.0,0.0,-0.1484764845055762,0.0,0.0,-0.30434837213184573,-0.5568074163076135,-0.6351876716356424,-1.2083953818093387,-0.3104950410809747,-0.15134697881678386
14642,8.0,300.5457,4717.9247,0.0,0.0,0.0,-0.14848662564924847,0.0,0.0,-0.29221628285450174,-0.5503775439555345,-0.5915374956752054,-1.2468723384567186,-0.3476052753309697,-0.13347743177569688
14643,8.0,300.71982,4761.0997,0.0,0.0,0.0,-0.1484967667929207,0.0,0.0,-0.3129088459991987,-0.5651545908964155,-0.5691919771123745,-1.270799124993109,-0.37670889848327366,-0.13522277533794888
14644,8.0,299.98286,5192.5153,0.0,0.0,0.0,-0.148506907936593,0.0,0.0,-0.3373548624168327,-0.5826812743686645,-0.6583588573074604,-1.2550203891358687,-0.33772184133805067,-0.1360973216317599
14645,8.0,300.5608,5389.1564,0.0,0.0,0.0,-0.14851704908026525,0.0,0.0,-0.3274304627223707,-0.6059397920666014,-0.7047987134432173,-1.2355184657861789,-0.2827741902076397,-0.097205936574229
14646,8.0,299.25906000000003,4886.3875,0.0,0.0,0.0,-0.1485271902239375,0.0,0.0,-0.2782508289787187,-0.5704548211095074,-0.6366341570808994,-1.2632241685705188,-0.3050352543746357,-0.12048402925084789
14647,8.0,299.78848999999997,4981.1776,0.0,0.0,0.0,-0.14853733136760977,0.0,0.0,-0.2879532863712767,-0.5828549150383014,-0.6433454089857483,-1.2684540589616686,-0.34182521040052166,-0.0923121777182526
14648,8.0,300.04522000000003,5386.4821,0.0,0.0,0.0,-0.148547472511282,0.0,0.0,-0.38001966278752064,-0.6227493376480744,-0.6345870676388674,-1.2517721119652887,-0.3160432946535447,-0.14137892830801388
14649,8.0,299.26908,5268.0843,0.0,0.0,0.0,-0.1485576136549543,0.0,0.0,-0.34614427001177966,-0.5926798237054445,-0.6625419792853025,-1.2255234628247489,-0.3033004486134237,-0.1040108624375729
14650,8.0,299.35342,4846.288,0.0,0.0,0.0,-0.14856775479862658,0.0,0.0,-0.27172291454696373,-0.5672197263227284,-0.6342078891864453,-1.233263781663659,-0.33428284010114767,-0.13643601061018587
14651,8.0,299.10848,4809.1748,0.0,0.0,0.0,-0.1485778959422988,0.0,0.0,-0.27094300581249275,-0.5705238842363235,-0.6204021539239254,-1.2522866403660688,-0.3645869619719317,-0.10083350568124222
14652,8.0,299.64533,4847.0755,0.0,0.0,0.0,-0.1485880370859711,0.0,0.0,-0.3045617930004087,-0.5338203381789655,-0.6350077690803875,-1.204034049403909,-0.3193030012852527,-0.13848304938971287
14653,8.0,300.93472,5049.5489,0.0,0.0,0.0,-0.14859817822964333,0.0,0.0,-0.3360889381393957,-0.5658965331496395,-0.6329513273399324,-1.218020953784309,-0.31513298063120365,-0.13566211044880785
14654,8.0,300.39654,5134.9028,0.0,0.0,0.0,-0.1486083193733156,0.0,0.0,-0.37999844533042665,-0.5716932255142284,-0.6091905618324274,-1.2399402892225788,-0.34002503987535865,-0.13226235238827788
14655,8.0,299.84996,5026.4393,0.0,0.0,0.0,-0.14861846051698785,0.0,0.0,-0.3080399968836807,-0.5912301059923685,-0.6286419442671295,-1.3047383423926486,-0.3655494989044267,-0.11216466837729089
14656,8.0,300.39293,5084.1927,0.0,0.0,0.0,-0.14862860166066014,0.0,0.0,-0.2863596567464977,-0.6007094153154034,-0.6583985665788794,-1.2814154529158588,-0.3155080351557187,-0.10781864618087189
14657,8.0,299.57327000000004,5258.8782,0.0,0.0,0.0,-0.1486387428043324,0.0,0.0,-0.3110098025292777,-0.5848028072955435,-0.7027550487865233,-1.2665263506464188,-0.29053838121890574,-0.09229229977779081
14658,8.0,299.65993,5165.8186,0.0,0.0,0.0,-0.14864888394800463,0.0,0.0,-0.3094848712612787,-0.5881871234245495,-0.6726078692237284,-1.2356513028742886,-0.29262423760976375,-0.1024959826105659
14659,8.0,299.20407,4934.0412,0.0,0.0,0.0,-0.1486590250916769,0.0,0.0,-0.2969759542717447,-0.5934058072695934,-0.6094435501173954,-1.2346412951746089,-0.32636589150480566,-0.15206454227260185
14660,8.0,299.38842,4685.9501,0.0,0.0,0.0,-0.14866916623534918,0.0,0.0,-0.31022709722453073,-0.5581808261556584,-0.5560038988458125,-1.2114871118394688,-0.3079767599449397,-0.15971136852478485
14661,8.0,299.43784,4708.8943,0.0,0.0,0.0,-0.14867930737902144,0.0,0.0,-0.2704322973645898,-0.5592691276905655,-0.6016848509216715,-1.190479093541139,-0.3041761804098517,-0.15047877546859884
14662,8.0,300.89948,4817.8485,0.0,0.0,0.0,-0.1486894485226937,0.0,0.0,-0.25499159187321074,-0.5647396345829625,-0.6447744158667804,-1.2394008348693388,-0.3232159705214327,-0.14112701406815187
14663,8.0,300.72675,4862.9322,0.0,0.0,0.0,-0.14869958966636593,0.0,0.0,-0.27924901204973174,-0.5464969683250515,-0.6524639911406823,-1.2382899074596987,-0.36259805335064166,-0.1208709793315369
14664,8.0,299.92193,4823.6311,0.0,0.0,0.0,-0.14870973081003822,0.0,0.0,-0.29069036873390575,-0.5675394472592824,-0.6080335822057424,-1.2345981307203489,-0.31843200136679173,-0.12953937446704086
14665,8.0,301.39587,4944.4236,0.0,0.0,0.0,-0.14871987195371048,0.0,0.0,-0.35664617160073664,-0.5442309560664135,-0.6021041743430554,-1.2379857297796788,-0.3027678438308597,-0.1118555359042819
14666,8.0,300.77407999999997,5453.9568,0.0,0.0,0.0,-0.14873001309738274,0.0,0.0,-0.3900010375351056,-0.6207972201379154,-0.6470684242256813,-1.2709645887344387,-0.3216659309159557,-0.10009784152563782
14667,8.0,299.59943,5528.2387,0.0,0.0,0.0,-0.14874015424105502,0.0,0.0,-0.35511020603914867,-0.6222018076915374,-0.7031345312139754,-1.2734738012820788,-0.33476526873875967,-0.10511453497649689
14668,8.0,299.07437999999996,5071.4751,0.0,0.0,0.0,-0.14875029538472725,0.0,0.0,-0.26957639487261875,-0.5719365473932425,-0.7000888534008903,-1.2473921357580189,-0.2770868072638387,-0.08532403090557623
14669,8.0,300.21186,4656.2157,0.0,0.0,0.0,-0.14876043652839951,0.0,0.0,-0.23920761751295377,-0.5304260618014766,-0.6457396379120404,-1.236206462604079,-0.26600309746746176,-0.1093212150191639
14670,8.0,299.35085,4748.3766,0.0,0.0,0.0,-0.14877057767207177,0.0,0.0,-0.27918361688827775,-0.5361535795817385,-0.6280507229662804,-1.2510234214663987,-0.2869874158459527,-0.08567077116929682
14671,8.0,299.19646,4951.779,0.0,0.0,0.0,-0.14878071881574403,0.0,0.0,-0.3410741590288987,-0.5626060642448955,-0.6015369366720734,-1.2478785971310289,-0.3378476768679697,-0.14704330034204388
14672,8.0,298.89808999999997,5003.4227,0.0,0.0,0.0,-0.14879085995941632,0.0,0.0,-0.3454730627480367,-0.5859104720398615,-0.5895320406797824,-1.240508215903629,-0.3146365286122077,-0.15592627145122484
14673,8.0,299.31985,4753.1568,0.0,0.0,0.0,-0.14880100110308855,0.0,0.0,-0.2673302220509387,-0.5587534441846714,-0.6187573045065914,-1.216454165154679,-0.33670967541565766,-0.15854698203986886
14674,8.0,299.71743,4878.3369,0.0,0.0,0.0,-0.1488111422467608,0.0,0.0,-0.27321132828135875,-0.5764120730849425,-0.6332692041613044,-1.2470969760038888,-0.35359355302446666,-0.1159463609305149
14675,8.0,300.21681,5300.8607,0.0,0.0,0.0,-0.14882128339043307,0.0,0.0,-0.3006695447287737,-0.6115207837499025,-0.6991389516971424,-1.2406348721661289,-0.37038272214642864,-0.12257158790187389
14676,8.0,300.8375,5339.2675,0.0,0.0,0.0,-0.14883142453410536,0.0,0.0,-0.3452568250441957,-0.6148074428342704,-0.6629397306120574,-1.2278619427305386,-0.3111472904353467,-0.1079184918457259
14677,8.0,300.71519,5115.191,0.0,0.0,0.0,-0.14884156567777762,0.0,0.0,-0.34374325230981767,-0.5961762559580154,-0.6149708395453964,-1.2219866120256888,-0.2909002229621167,-0.1071619486585609
14678,8.0,301.31001000000003,4914.1533,0.0,0.0,0.0,-0.14885170682144985,0.0,0.0,-0.30637048495891267,-0.5565703461817164,-0.6308390656514684,-1.2563329533154088,-0.2926820131304657,-0.1259014925005099
14679,8.0,299.94924,5022.3439,0.0,0.0,0.0,-0.1488618479651221,0.0,0.0,-0.25718806477748574,-0.6137931389541664,-0.6556859542061654,-1.261151464165959,-0.3276677152332857,-0.13146425581451188
14680,8.0,298.78787,5078.3415,0.0,0.0,0.0,-0.1488719891087944,0.0,0.0,-0.26858190003196974,-0.5930614542231085,-0.6820456555576654,-1.2589060006193487,-0.29056831262685967,-0.14602768936931088
14681,8.0,299.81229,4760.7261,0.0,0.0,0.0,-0.14888213025246666,0.0,0.0,-0.2524524377851157,-0.5351101548937606,-0.6595792663904054,-1.2309948107147288,-0.3010174846806127,-0.1116608804275709
14682,8.0,299.72776,4684.2761,0.0,0.0,0.0,-0.14889227139613892,0.0,0.0,-0.27627480889870076,-0.5563037195504025,-0.5913244497091795,-1.233594202521269,-0.31839216037285967,-0.1334467505626689
14683,8.0,300.00167000000005,5062.9768,0.0,0.0,0.0,-0.14890241253981115,0.0,0.0,-0.3716895108003987,-0.5751637084317385,-0.5921653054371654,-1.259336935886879,-0.35551849516694367,-0.12053806587868088
14684,8.0,299.94947,5392.1011,0.0,0.0,0.0,-0.14891255368348344,0.0,0.0,-0.35626291988291264,-0.6355053660719964,-0.6472958076806223,-1.2471291973570688,-0.3166216476781237,-0.13995551456753388
14685,8.0,300.49473,5293.4463,0.0,0.0,0.0,-0.1489226948271557,0.0,0.0,-0.33262510214254165,-0.5993523593239724,-0.6770980363793734,-1.2425057371507688,-0.3043026441548327,-0.12093669873302289
14686,8.0,300.47257,5087.5859,0.0,0.0,0.0,-0.14893283597082796,0.0,0.0,-0.3251554528028447,-0.5320162565084164,-0.6893273774013153,-1.251218573435659,-0.3144505870863567,-0.07113625678560194
14687,8.0,300.20441,4954.7766,0.0,0.0,0.0,-0.14894297711450025,0.0,0.0,-0.2614854408366038,-0.5893735177016375,-0.6552694172225564,-1.2509337488325487,-0.3379160003222127,-0.11739138729562788
14688,8.0,300.05902000000003,4958.4345,0.0,0.0,0.0,-0.14895311825817248,0.0,0.0,-0.33809466671234567,-0.5547055708301775,-0.6144400383480104,-1.2282596433947888,-0.29443685084615473,-0.1025824533740999
14689,8.0,301.19887,5300.3945,0.0,0.0,0.0,-0.14896325940184474,0.0,0.0,-0.3474428310749377,-0.6016369951194485,-0.6621077610874483,-1.230708364911459,-0.3048011429390307,-0.13124789652065888
14690,8.0,300.09783999999996,4920.4684,0.0,0.0,0.0,-0.148973400545517,0.0,0.0,-0.3082292213398557,-0.5798489160991325,-0.6076214123300645,-1.243319680956099,-0.3251591815632127,-0.13225948489049488
14691,8.0,299.05507,4572.6747,0.0,0.0,0.0,-0.14898354168918929,0.0,0.0,-0.2178714683022398,-0.5584835244905324,-0.6136239261874664,-1.2583718151666288,-0.35342147275998365,-0.17162683506324983
14692,8.0,299.17384,4803.2868,0.0,0.0,0.0,-0.14899368283286155,0.0,0.0,-0.25690554025210277,-0.5788652427695515,-0.6243084559744474,-1.239633983717349,-0.3003020085200007,-0.14633003306664985
14693,8.0,299.80482,5073.5717,0.0,0.0,0.0,-0.14900382397653378,0.0,0.0,-0.27850236831604375,-0.5870340549432504,-0.6767026864553554,-1.2534786277837089,-0.3034308944312977,-0.1180963661852039
14694,8.0,299.37233,5039.7701,0.0,0.0,0.0,-0.14901396512020604,0.0,0.0,-0.36814962025103865,-0.5426512079680045,-0.6211634492540594,-1.242181598443779,-0.29691145077037867,-0.08684156139484482
14695,8.0,299.26304,5137.6566,0.0,0.0,0.0,-0.14902410626387833,0.0,0.0,-0.34947325255282463,-0.6011099125499295,-0.6111361540119424,-1.252483109560459,-0.3322098823840627,-0.1182882858866449
14696,8.0,299.37838999999997,5233.8638,0.0,0.0,0.0,-0.14903424740755059,0.0,0.0,-0.35236434893065366,-0.5682968922390365,-0.6703026847162245,-1.2268386614545488,-0.3004995517594967,-0.10926658057377188
14697,8.0,300.4363,5243.0882,0.0,0.0,0.0,-0.14904438855122285,0.0,0.0,-0.3232061014654587,-0.5742052954271505,-0.6963564959950354,-1.2325997988731288,-0.3005576312552287,-0.11547279823127789
14698,8.0,300.53848999999997,5372.9578,0.0,0.0,0.0,-0.14905452969489508,0.0,0.0,-0.2962579855158867,-0.6100574479554824,-0.7269295648398623,-1.2452181063434589,-0.32522289472950067,-0.0982910504243214
14699,8.0,300.52077,5235.3341,0.0,0.0,0.0,-0.14906467083856736,0.0,0.0,-0.3273797698198677,-0.5720333735727985,-0.6919976865823543,-1.2264282951640488,-0.3274073808850927,-0.1027998360505539
14700,8.0,299.43296000000004,4948.2754,0.0,0.0,0.0,-0.14907481198223962,0.0,0.0,-0.3152305059533287,-0.5802035029716275,-0.6087181441058034,-1.216384048247759,-0.29591072444161476,-0.13104886380351588
14701,8.0,300.92855,4720.2569,0.0,0.0,0.0,-0.14908495312591188,0.0,0.0,-0.29876465480577574,-0.5371625740313185,-0.5989129938156105,-1.221473603500059,-0.3009773903741557,-0.12577868658838987
14702,8.0,300.54863,5036.221,0.0,0.0,0.0,-0.14909509426958414,0.0,0.0,-0.3133557906183087,-0.5848739171875614,-0.6326557014907565,-1.254333506893079,-0.3263459304778357,-0.12612869357043288
14703,8.0,299.61301000000003,4961.4487,0.0,0.0,0.0,-0.1491052354132564,0.0,0.0,-0.28318364457304973,-0.5738510327946874,-0.6511218603232244,-1.227185496963779,-0.3237029385194927,-0.15068958215190384
14704,8.0,299.19833,4747.3459,0.0,0.0,0.0,-0.14911537655692866,0.0,0.0,-0.2597649016367997,-0.5501674364147985,-0.6331422641887764,-1.2282475857185988,-0.3178128143631827,-0.15146194217312983
14705,8.0,300.25987000000003,5138.1877,0.0,0.0,0.0,-0.14912551770060092,0.0,0.0,-0.32951036120264066,-0.5834016850572634,-0.6489687038607244,-1.233069946919529,-0.2938382328195757,-0.1105306100735219
14706,8.0,299.20358,5387.8517,0.0,0.0,0.0,-0.14913565884427318,0.0,0.0,-0.4032092085511506,-0.5812077858082425,-0.6533553979161574,-1.2774023745697987,-0.3306540976505187,-0.08366880682046832
14707,8.0,299.77677,5305.9602,0.0,0.0,0.0,-0.14914579998794544,0.0,0.0,-0.3542658748633197,-0.6089436327830574,-0.6496699033274274,-1.246078862303409,-0.3380121982867067,-0.13516663114990787
14708,8.0,299.36163,4983.4926,0.0,0.0,0.0,-0.1491559411316177,0.0,0.0,-0.3283319209388377,-0.5729006244658894,-0.6136247671850494,-1.2379591826270588,-0.3099445828316487,-0.13678479155960788
14709,8.0,300.05113,4869.1488,0.0,0.0,0.0,-0.14916608227528996,0.0,0.0,-0.25390093959807175,-0.5558643337770385,-0.6703343589143503,-1.2326062836737688,-0.3152128652690877,-0.13487143086577386
14710,8.0,299.85958999999997,4846.9737,0.0,0.0,0.0,-0.14917622341896222,0.0,0.0,-0.2503484543499688,-0.5670002867485715,-0.6560102347681693,-1.2530658296929686,-0.3314889549379127,-0.12915406585151387
14711,8.0,300.33391,4989.6162,0.0,0.0,0.0,-0.14918636456263448,0.0,0.0,-0.3141778708219417,-0.5595457551003664,-0.6429951284261785,-1.2488814107549988,-0.33473791098605965,-0.12763842608693188
14712,8.0,300.60186,4983.1379,0.0,0.0,0.0,-0.14919650570630674,0.0,0.0,-0.35751247003873365,-0.5485471076498846,-0.6086899149580174,-1.2248122625795588,-0.31361558794394867,-0.12600839038605988
14713,8.0,299.92701,4727.0131,0.0,0.0,0.0,-0.149206646849979,0.0,0.0,-0.3019314464033137,-0.5406908020720275,-0.5942717105400513,-1.2395786602618886,-0.3015800107386297,-0.11494231114142289
14714,8.0,300.06606,4908.1876,0.0,0.0,0.0,-0.14921678799365126,0.0,0.0,-0.2981622978863277,-0.5655698410523975,-0.6282343238844004,-1.2630126019496388,-0.34892799227651167,-0.1048760868304639
14715,8.0,299.94966,5517.5965,0.0,0.0,0.0,-0.14922692913732352,0.0,0.0,-0.3190157448819027,-0.6238846945176254,-0.7343111222158653,-1.2513775523763488,-0.35099639036814667,-0.09795599192100371
14716,8.0,300.21301,5545.1743,0.0,0.0,0.0,-0.14923707028099578,0.0,0.0,-0.33550224606649365,-0.6351931634511844,-0.7148991146800493,-1.2279152396857989,-0.3173932376292737,-0.11203812357230189
14717,8.0,299.87034,4961.1491,0.0,0.0,0.0,-0.14924721142466807,0.0,0.0,-0.3107269031013577,-0.5478291794240305,-0.6495093639815834,-1.2282819348969887,-0.29938009278401473,-0.08669737894536511
14718,8.0,299.75437999999997,4937.8654,0.0,0.0,0.0,-0.1492573525683403,0.0,0.0,-0.3266701806423367,-0.5797907758083944,-0.5945268266502295,-1.2558117374639688,-0.3327259610574957,-0.11080829126342688
14719,8.0,299.69171,5259.1357,0.0,0.0,0.0,-0.14926749371201256,0.0,0.0,-0.3495803226908917,-0.5956716574082155,-0.6533939419499614,-1.2480281528457888,-0.3226037749435137,-0.12056659900149688
14720,8.0,299.4918,5043.5324,0.0,0.0,0.0,-0.14927763485568482,0.0,0.0,-0.3139442052163807,-0.6006436148539094,-0.6185200925256804,-1.230274187243609,-0.29760087627091975,-0.17207082099206783
14721,8.0,299.79704,4663.5225,0.0,0.0,0.0,-0.1492877759993571,0.0,0.0,-0.21184858811782778,-0.5586146795834765,-0.6471311342743704,-1.2169430583279288,-0.2954837307169737,-0.16283364804542982
14722,8.0,299.11666,4501.1949,0.0,0.0,0.0,-0.14929791714302937,0.0,0.0,-0.21289702839380079,-0.5361583418572086,-0.6191954946448374,-1.238646166194859,-0.3390151740306927,-0.14502742913559286
14723,8.0,298.14541,4738.5734,0.0,0.0,0.0,-0.14930805828670163,0.0,0.0,-0.26489853326844975,-0.5779090589151834,-0.5976004093710684,-1.236226018331009,-0.32853722567409965,-0.14138878723148687
14724,8.0,299.23179,5175.5294,0.0,0.0,0.0,-0.14931819943037386,0.0,0.0,-0.3719827453793386,-0.5758044877949785,-0.6254444613240624,-1.2206448662432687,-0.3234347109530207,-0.13810482339238486
14725,8.0,299.9417,5304.8457,0.0,0.0,0.0,-0.14932834057404615,0.0,0.0,-0.3419628806916087,-0.6107674626980554,-0.6598102975457064,-1.2581383623435887,-0.32720275502739765,-0.1022246139687839
14726,8.0,298.71333,4835.2065,0.0,0.0,0.0,-0.1493384817177184,0.0,0.0,-0.28141908978890173,-0.5767948283102174,-0.6115681329270753,-1.2732495690349488,-0.37097416636229963,-0.1027337316140299
14727,8.0,300.51282000000003,5069.2129,0.0,0.0,0.0,-0.14934862286139067,0.0,0.0,-0.24835428696065978,-0.6074337381465424,-0.6851261081141824,-1.2628386269074687,-0.34318344176206866,-0.12455767968788589
14728,8.0,300.83353,5365.9975,0.0,0.0,0.0,-0.1493587640050629,0.0,0.0,-0.35467051629075463,-0.6072512011410274,-0.6692075437431424,-1.210876020704159,-0.29178034213147774,-0.12698546745748987
14729,8.0,300.42467,5195.347,0.0,0.0,0.0,-0.1493689051487352,0.0,0.0,-0.3500098495407827,-0.5850374962837055,-0.6442083940959185,-1.2492916757204888,-0.29328695383766873,-0.1059501420689649
14730,8.0,300.04105,4687.7988,0.0,0.0,0.0,-0.14937904629240745,0.0,0.0,-0.3114557642957907,-0.5330666726220845,-0.5804513540785885,-1.2530032108367886,-0.3372992957813487,-0.1060809425243739
14731,8.0,299.63139,4771.7367,0.0,0.0,0.0,-0.1493891874360797,0.0,0.0,-0.27940148592477976,-0.5580149875117915,-0.6130723330980283,-1.2582716047317386,-0.31511170237910374,-0.12608935920155087
14732,8.0,300.54454,5279.5807,0.0,0.0,0.0,-0.14939932857975197,0.0,0.0,-0.3325524217128687,-0.5717436651042064,-0.7005646148528443,-1.1947752739651387,-0.26910786802637876,-0.1243612611560009
14733,8.0,299.95145,5339.6999,0.0,0.0,0.0,-0.14940946972342423,0.0,0.0,-0.29186254711209075,-0.5978767429383405,-0.7333961371105634,-1.2335852859203886,-0.3008740591289577,-0.11695138343970288
14734,8.0,299.45297,5185.5335,0.0,0.0,0.0,-0.1494196108670965,0.0,0.0,-0.3236221622215207,-0.5824748550582924,-0.6701756839486903,-1.240244466902599,-0.3463781180023587,-0.11170684145210691
14735,8.0,299.15277000000003,5067.8794,0.0,0.0,0.0,-0.14942975201076875,0.0,0.0,-0.34218252291578566,-0.5726191942506145,-0.6257070754849804,-1.2336866109303888,-0.3326430670668147,-0.12476233594308388
14736,8.0,299.94777999999997,5111.5516,0.0,0.0,0.0,-0.149439893154441,0.0,0.0,-0.36542361271200263,-0.5984066119456345,-0.5899538060339075,-1.232528668716109,-0.3090898861072967,-0.1282998352222079
14737,8.0,300.48656,5185.3894,0.0,0.0,0.0,-0.1494500342981133,0.0,0.0,-0.35189922660474965,-0.5859878438174974,-0.6383418178719323,-1.2416271479890588,-0.32365161740192766,-0.11461996588710989
14738,8.0,300.39198999999996,5124.4177,0.0,0.0,0.0,-0.14946017544178553,0.0,0.0,-0.29036875301966475,-0.6023866684709355,-0.6649396127319304,-1.2708368178968288,-0.36350504391265465,-0.12991869477447687
14739,8.0,300.16821,4900.4757,0.0,0.0,0.0,-0.14947031658545779,0.0,0.0,-0.24646128246133475,-0.5796221608592534,-0.6635387944686804,-1.2208254274110888,-0.3013511175410397,-0.15775032428124483
14740,8.0,301.03126000000003,4983.3342,0.0,0.0,0.0,-0.14948045772913005,0.0,0.0,-0.2988595456776407,-0.5694341033562704,-0.6465155037786123,-1.208792271873509,-0.29686993791378175,-0.15970882526703387
14741,8.0,301.19717,5188.0698,0.0,0.0,0.0,-0.14949059887280233,0.0,0.0,-0.35365496611302766,-0.5757685883439355,-0.6476201186401295,-1.1990300124600488,-0.3062040890274907,-0.13243035938735886
14742,8.0,300.39392999999995,5141.1192,0.0,0.0,0.0,-0.1495007400164746,0.0,0.0,-0.35125520484118966,-0.5718756003997274,-0.6396410578126575,-1.2573559306163686,-0.3483440461113807,-0.1163373336141009
14743,8.0,299.50465,4929.5315,0.0,0.0,0.0,-0.14951088116014682,0.0,0.0,-0.3026845242751367,-0.5623562170352374,-0.6334137341555683,-1.2273670713816989,-0.3260586234119807,-0.10736131574823689
14744,8.0,299.73305,4979.894,0.0,0.0,0.0,-0.14952102230381908,0.0,0.0,-0.2873673339709477,-0.5879849597645974,-0.6384111241787724,-1.227880282557349,-0.3094845774187497,-0.1136232925587459
14745,8.0,300.69791000000004,5229.629,0.0,0.0,0.0,-0.14953116344749137,0.0,0.0,-0.3006024067771477,-0.5852908189412065,-0.7037834064455143,-1.251850841498059,-0.3108294541439787,-0.09370753557671371
14746,8.0,299.9614,5286.0793,0.0,0.0,0.0,-0.14954130459116363,0.0,0.0,-0.35723530560637967,-0.5937007542412024,-0.6559000539522953,-1.2927661845110887,-0.35102164056063867,-0.09121805810127141
14747,8.0,300.06633,5306.8127,0.0,0.0,0.0,-0.1495514457348359,0.0,0.0,-0.35790280437475663,-0.6010193077259874,-0.6542164375861353,-1.2733121878911289,-0.3220940797457107,-0.11165459827695089
14748,8.0,301.08855,5139.2661,0.0,0.0,0.0,-0.14956158687850812,0.0,0.0,-0.37341016145771366,-0.5626520151369305,-0.6261464105958394,-1.2424791899981489,-0.3087425338405157,-0.12954831133292288
14749,8.0,300.63659,4861.6288,0.0,0.0,0.0,-0.1495717280221804,0.0,0.0,-0.2802762652661137,-0.5566939829589185,-0.6408435121038304,-1.2310033220155687,-0.3259198284132827,-0.10293742528163291
14750,8.0,301.49134,5005.8445,0.0,0.0,0.0,-0.14958186916585267,0.0,0.0,-0.28342184953905875,-0.5719785364773864,-0.6662513561788894,-1.235508839910229,-0.3527680784329987,-0.13215260726994688
14751,8.0,300.72056000000003,5118.6177,0.0,0.0,0.0,-0.14959201030952493,0.0,0.0,-0.26300231676630775,-0.5779681212635125,-0.7149615207537083,-1.2035829504593887,-0.3118327034654917,-0.12809723586471286
14752,8.0,299.46618,4653.6732,0.0,0.0,0.0,-0.14960215145319722,0.0,0.0,-0.2878043082090737,-0.5360873738202044,-0.5907087786834174,-1.1970511350147488,-0.30181751656206973,-0.16521379279533185
14753,8.0,299.84899,4732.4216,0.0,0.0,0.0,-0.14961229259686945,0.0,0.0,-0.2776905422034227,-0.5584435213765844,-0.6024039443851404,-1.216743042758189,-0.31753530542579467,-0.1058573486248069
14754,8.0,300.46731,4998.4966,0.0,0.0,0.0,-0.1496224337405417,0.0,0.0,-0.3173501238375187,-0.5893926478635254,-0.6126754025038544,-1.256246827056909,-0.35831844969827764,-0.13453615654018486
14755,8.0,300.63295,5354.8493,0.0,0.0,0.0,-0.14963257488421397,0.0,0.0,-0.30722343889309267,-0.6229893259342594,-0.6975277117856253,-1.251834122871409,-0.3108829638817597,-0.09770809319128801
14756,8.0,300.50572999999997,5500.0523,0.0,0.0,0.0,-0.14964271602788626,0.0,0.0,-0.33757204244326666,-0.6404236516598935,-0.6938828586584063,-1.217878592145259,-0.3031375787923497,-0.14126017539629387
14757,8.0,299.84147,5251.6821,0.0,0.0,0.0,-0.14965285717155852,0.0,0.0,-0.3197995039667537,-0.6027443761537384,-0.6738363640424714,-1.2579390560489188,-0.3095754659527197,-0.1001203214923564
14758,8.0,300.11433999999997,4936.8642,0.0,0.0,0.0,-0.14966299831523075,0.0,0.0,-0.34641458487345766,-0.5618453971298234,-0.5924234612976434,-1.2545765855920687,-0.3395868497371127,-0.12366776239005788
14759,8.0,300.8725,5058.895,0.0,0.0,0.0,-0.149673139458903,0.0,0.0,-0.3159962291863997,-0.5870090175332795,-0.6347725126721694,-1.2597086973485687,-0.3065063415323207,-0.1103732118029879
14760,8.0,300.60021,4940.7894,0.0,0.0,0.0,-0.1496832806025753,0.0,0.0,-0.33514048538329066,-0.5704060635146955,-0.5963300470581935,-1.2335676553686488,-0.28576644947545277,-0.15007374900612586
14761,8.0,299.60506000000004,4555.1046,0.0,0.0,0.0,-0.14969342174624756,0.0,0.0,-0.23340440995022177,-0.5148054132248385,-0.6364282342630764,-1.249770335067729,-0.3158308566375787,-0.09949903098153981
14762,8.0,300.36245,4589.5033,0.0,0.0,0.0,-0.14970356288991982,0.0,0.0,-0.23866456612185877,-0.5439184494705716,-0.6125113877101674,-1.2269893317444187,-0.32786084070234567,-0.13800128949716686
14763,8.0,300.55786,5010.048,0.0,0.0,0.0,-0.14971370403359205,0.0,0.0,-0.2904772822378757,-0.5670220817582224,-0.6654301169728394,-1.2370085513832387,-0.3275266302893617,-0.12592220333255388
14764,8.0,300.57833999999997,5363.3823,0.0,0.0,0.0,-0.14972384517726434,0.0,0.0,-0.37766098880723764,-0.6149938605876684,-0.6376794461490615,-1.2138265036703488,-0.3092375267793677,-0.14016689880339586
14765,8.0,298.80232,5403.8605,0.0,0.0,0.0,-0.1497339863209366,0.0,0.0,-0.34597974859304265,-0.6305205302175314,-0.6661383787927394,-1.2494862197396888,-0.33812380778522166,-0.1124797384958859
14766,8.0,298.66958999999997,5153.2961,0.0,0.0,0.0,-0.14974412746460886,0.0,0.0,-0.3332458698163067,-0.6040191157070455,-0.6292083612055304,-1.257420778622769,-0.35682446308833266,-0.1116343839374559
14767,8.0,298.99324,4976.0816,0.0,0.0,0.0,-0.14975426860828112,0.0,0.0,-0.26100787579947177,-0.6041619130436384,-0.6474347445343344,-1.2470269604219788,-0.30118494452463973,-0.1179306389988479
14768,8.0,300.26292,5127.9259,0.0,0.0,0.0,-0.14976440975195335,0.0,0.0,-0.2926125953661147,-0.5634626050844295,-0.7026862288397314,-1.2554846603316887,-0.29226648939695676,-0.09905028683025222
14769,8.0,299.90502999999995,5102.4817,0.0,0.0,0.0,-0.14977455089562564,0.0,0.0,-0.32241876560775473,-0.5634365746893605,-0.6651716672698323,-1.2574585728514989,-0.2984421372989457,-0.10180537160740791
14770,8.0,300.38729,4880.5203,0.0,0.0,0.0,-0.1497846920392979,0.0,0.0,-0.3100298174300607,-0.5679293661627645,-0.6055971311477835,-1.2661984629140588,-0.3430387293827867,-0.11174978299134489
14771,8.0,300.2313,4783.4668,0.0,0.0,0.0,-0.14979483318297016,0.0,0.0,-0.2998996570377917,-0.5538555654537884,-0.6002992516749235,-1.228229955166859,-0.3301185443101637,-0.15772271321601986
14772,8.0,300.27145,5241.6655,0.0,0.0,0.0,-0.14980497432664244,0.0,0.0,-0.3351524822644747,-0.6068214209786115,-0.6513615446343793,-1.228949058762829,-0.2971151951004867,-0.14377483922947187
14773,8.0,300.51613,5448.6107,0.0,0.0,0.0,-0.14981511547031467,0.0,0.0,-0.33117058162399166,-0.6070495238411234,-0.7180214853932033,-1.233686408280369,-0.3079463117794347,-0.12576901004993488
14774,8.0,299.63261,5203.4081,0.0,0.0,0.0,-0.14982525661398693,0.0,0.0,-0.3136820267530057,-0.6007447574788914,-0.6672793592003453,-1.239370538691349,-0.3534225670700917,-0.11467597835263789
14775,8.0,300.27533999999997,4967.0902,0.0,0.0,0.0,-0.1498353977576592,0.0,0.0,-0.30907994612381573,-0.5835204177039814,-0.6172710388624084,-1.2248912960873588,-0.3297669667904657,-0.1269614027676149
14776,8.0,299.92706,5002.3488,0.0,0.0,0.0,-0.14984553890133148,0.0,0.0,-0.35222980958237565,-0.5538278834610565,-0.6145314436395314,-1.212361648000779,-0.33465713468808767,-0.10385954366763889
14777,8.0,298.6981,5072.2789,0.0,0.0,0.0,-0.14985568004500374,0.0,0.0,-0.3322095784090327,-0.5733917366568585,-0.6362447954649724,-1.2390978730894389,-0.3516169351268897,-0.09775956325661772
14778,8.0,298.22607999999997,5201.2978,0.0,0.0,0.0,-0.14986582118867597,0.0,0.0,-0.3003384855236007,-0.6160898932208384,-0.6646362557844914,-1.2666076133044388,-0.3372638826903537,-0.09175848010835691
14779,8.0,298.31575,4963.2879,0.0,0.0,0.0,-0.14987596233234823,0.0,0.0,-0.25422788500783877,-0.5678526833951965,-0.6866349996330984,-1.2417444823506387,-0.3019499280851377,-0.13225843111039087
14780,8.0,298.92028,4944.4808,0.0,0.0,0.0,-0.14988610347602052,0.0,0.0,-0.27860842520401075,-0.5695419131669105,-0.6548483712760024,-1.2548297967920587,-0.26693971546239875,-0.14187372872934687
14781,8.0,298.9859,5182.8694,0.0,0.0,0.0,-0.14989624461969278,0.0,0.0,-0.33600813144392067,-0.5704007946141755,-0.6690539654254853,-1.2587718463061088,-0.27316286452907573,-0.13399414879669289
14782,8.0,299.62577999999996,5062.4378,0.0,0.0,0.0,-0.14990638576336504,0.0,0.0,-0.3400326797811127,-0.5824948059527615,-0.6163272065267593,-1.272614565197279,-0.33024920291055865,-0.15821951987255087
14783,8.0,299.28381,4934.7819,0.0,0.0,0.0,-0.14991652690703727,0.0,0.0,-0.3089766655411227,-0.5901051754663464,-0.6009686452209874,-1.221399838892779,-0.3264677636698597,-0.15310463336775085
14784,8.0,300.30337000000003,5002.6109,0.0,0.0,0.0,-0.14992666805070956,0.0,0.0,-0.3207677758948147,-0.5689701766654844,-0.6309308559780274,-1.2221618029679788,-0.3386456315867217,-0.14570125058459385
14785,8.0,299.23764,5081.4481,0.0,0.0,0.0,-0.14993680919438182,0.0,0.0,-0.2929403919059657,-0.5857297791495285,-0.6659631574529464,-1.213909792828569,-0.3461505724274017,-0.09062582861657291
14786,8.0,300.15764,5127.9382,0.0,0.0,0.0,-0.14994695033805408,0.0,0.0,-0.3143719487460957,-0.5809819019634495,-0.6634113276061003,-1.245652993286379,-0.36679918078276064,-0.1027077822789689
14787,8.0,300.09332,5314.2827,0.0,0.0,0.0,-0.14995709148172637,0.0,0.0,-0.32410537106170967,-0.6168037481812905,-0.6745001137854784,-1.2377774055591189,-0.3254619305605917,-0.09632704749048941
14788,8.0,300.06989,5312.1841,0.0,0.0,0.0,-0.1499672326253986,0.0,0.0,-0.37149015384322365,-0.5939536209361584,-0.6493275463836394,-1.2566179805685387,-0.3097576989832047,-0.1309896089376679
14789,8.0,300.67005,5182.892,0.0,0.0,0.0,-0.14997737376907086,0.0,0.0,-0.3182161790954917,-0.5730972659127964,-0.6841563163109714,-1.2728782128732987,-0.3248478706024887,-0.0932149258020969
14790,8.0,301.00822,5093.8857,0.0,0.0,0.0,-0.14998751491274312,0.0,0.0,-0.3112922561271537,-0.6051786892539864,-0.6319431029604284,-1.2669301308112688,-0.3264769538482667,-0.15597031743307185
14791,8.0,300.65281,5187.7893,0.0,0.0,0.0,-0.1499976560564154,0.0,0.0,-0.27250208360886174,-0.6229261295255224,-0.6815301949667933,-1.2683805983294187,-0.30794086049389674,-0.14804735013113585
14792,8.0,299.66176,5047.8624,0.0,0.0,0.0,-0.15000779720008767,0.0,0.0,-0.31093804415719567,-0.5830840919459194,-0.6404019782402544,-1.252660934953009,-0.2939690839374898,-0.14510731377347685
14793,8.0,299.61947999999995,4952.0070000000005,0.0,0.0,0.0,-0.1500179383437599,0.0,0.0,-0.2970413696982007,-0.5816041489823605,-0.6266409577046473,-1.2652385097693186,-0.3239370600875987,-0.13838577738011285
14794,8.0,299.92156,5069.6968,0.0,0.0,0.0,-0.15002807948743216,0.0,0.0,-0.34325605126423464,-0.5816100460979424,-0.6161951395087254,-1.2501867808588287,-0.3230363212787027,-0.12220285605798288
14795,8.0,299.83536000000004,5153.3767,0.0,0.0,0.0,-0.15003822063110442,0.0,0.0,-0.3281392210348197,-0.5879449769156514,-0.6504136289008274,-1.2278987237091687,-0.3279047448291787,-0.13794868155197487
14796,8.0,299.51635,5127.8871,0.0,0.0,0.0,-0.1500483617747767,0.0,0.0,-0.33191279745474267,-0.5750463538051565,-0.6517904837992123,-1.2166034168944089,-0.2994643343973287,-0.12360647089150889
14797,8.0,299.86207,5133.4367,0.0,0.0,0.0,-0.15005850291844897,0.0,0.0,-0.3018345290312487,-0.5784769551987304,-0.6801250805231194,-1.257073841788529,-0.3345493350099487,-0.10559489658390489
14798,8.0,300.69211,5048.2202,0.0,0.0,0.0,-0.1500686440621212,0.0,0.0,-0.31271730120029473,-0.5735775261951945,-0.6482380593461154,-1.243500647423959,-0.3369407268359607,-0.12219441568464988
14799,8.0,300.24026000000003,5114.6147,0.0,0.0,0.0,-0.15007878520579346,0.0,0.0,-0.3039489692074277,-0.6240192136009014,-0.6267469537976085,-1.234858535996049,-0.33457115028460166,-0.14812122619592685
14800,8.0,300.39906,5242.2132,0.0,0.0,0.0,-0.15008892634946572,0.0,0.0,-0.3364882701363067,-0.6037236621103864,-0.6532899824897014,-1.257594551014919,-0.3139537095023187,-0.14683273683876286
14801,8.0,299.79291,5292.1672,0.0,0.0,0.0,-0.150099067493138,0.0,0.0,-0.3294925280008807,-0.6156665269315554,-0.6635276183200775,-1.2618056184305189,-0.35148558751642667,-0.13057959728470286
14802,8.0,301.46141,5098.1921,0.0,0.0,0.0,-0.15010920863681027,0.0,0.0,-0.30959144490679674,-0.5713458124524414,-0.6687858290515223,-1.2586143872405686,-0.3292730985592247,-0.13860433542668288
14803,8.0,300.47224,4910.7642,0.0,0.0,0.0,-0.1501193497804825,0.0,0.0,-0.28852210471241474,-0.5789079512612664,-0.6253196289117424,-1.2234059727657687,-0.3061225426594427,-0.15072580584297887
14804,8.0,300.52882,4947.9548,0.0,0.0,0.0,-0.15012949092415478,0.0,0.0,-0.3166302501714727,-0.5369709684374084,-0.6504534800272603,-1.239302752259659,-0.2912840420999967,-0.09888355652629721
14805,8.0,300.19057999999995,5044.0051,0.0,0.0,0.0,-0.15013963206782704,0.0,0.0,-0.33603029122360767,-0.5485279268254916,-0.6486933835435524,-1.2645388605752688,-0.32139651784686674,-0.11040479480860489
14806,8.0,299.88747,5245.0247,0.0,0.0,0.0,-0.1501497732114993,0.0,0.0,-0.34944071709211366,-0.5982811614507534,-0.6466346518578714,-1.2590073256293488,-0.3162127506002687,-0.1006667176220315
14807,8.0,299.59671000000003,5256.9469,0.0,0.0,0.0,-0.15015991435517156,0.0,0.0,-0.3377765163134467,-0.6010446795084914,-0.6591593958139674,-1.225572706779609,-0.34353434040419967,-0.16701886745097885
14808,8.0,299.82452,5321.0485,0.0,0.0,0.0,-0.15017005549884382,0.0,0.0,-0.3158451637289907,-0.6094193233075045,-0.6922013903824583,-1.2264380223650089,-0.32711312292355166,-0.09119738374623101
14809,8.0,300.01441,5247.2055,0.0,0.0,0.0,-0.15018019664251608,0.0,0.0,-0.31933402700331465,-0.6084843366452284,-0.6672010754976193,-1.2734738012820788,-0.3641558139218806,-0.16867505513693185
14810,8.0,300.41225,5265.2868,0.0,0.0,0.0,-0.15019033778618834,0.0,0.0,-0.31104240891749574,-0.6003508767675184,-0.6891224374360894,-1.263580427305679,-0.3262392453748067,-0.09863585740685121
14811,8.0,300.64504,5024.2844,0.0,0.0,0.0,-0.1502004789298606,0.0,0.0,-0.2876326028471277,-0.6105786435419205,-0.6290457446969814,-1.2265862608546387,-0.3142668645782247,-0.16009695071783883
14812,8.0,300.61973,4944.5712,0.0,0.0,0.0,-0.15021062007353286,0.0,0.0,-0.2956992895432477,-0.5628188467658954,-0.6445080324154904,-1.2352598843606588,-0.30233508471314974,-0.09554460968376881
14813,8.0,299.56357,4942.7387,0.0,0.0,0.0,-0.15022076121720512,0.0,0.0,-0.3177176296487887,-0.5586720396716375,-0.6260794752942334,-1.2450877010555887,-0.3167771511709707,-0.12871130595531688
14814,8.0,299.517,5196.245,0.0,0.0,0.0,-0.15023090236087738,0.0,0.0,-0.3205817026464507,-0.5927103326659554,-0.6662366843174414,-1.2627959690782589,-0.3014484402131447,-0.1275239490906339
14815,8.0,298.91616,5094.1795,0.0,0.0,0.0,-0.15024104350454967,0.0,0.0,-0.3282843488466427,-0.5804358817495614,-0.6397831458741804,-1.2386239760176687,-0.29126922838353475,-0.14421647441805788
14816,8.0,300.06352000000004,5053.0619,0.0,0.0,0.0,-0.1502511846482219,0.0,0.0,-0.3007393981906677,-0.5854498688094035,-0.6498153959092864,-1.2672639967192187,-0.32384745838125567,-0.14504554604738087
14817,8.0,300.26543,5312.4951,0.0,0.0,0.0,-0.1502613257918942,0.0,0.0,-0.33955513500898266,-0.6043024609650094,-0.6710082715558604,-1.2440068671739188,-0.34830250285728065,-0.10705067353257891
14818,8.0,300.43305,5450.9435,0.0,0.0,0.0,-0.15027146693556642,0.0,0.0,-0.3581929789383947,-0.6025427495163395,-0.6962149956185704,-1.2661186188061788,-0.3277410137455197,-0.14657003148533587
14819,8.0,299.39211,5238.1004,0.0,0.0,0.0,-0.1502816080792387,0.0,0.0,-0.3048560306969477,-0.6338720778383033,-0.6535236278302604,-1.201156115144879,-0.3143797305068637,-0.14726480694640487
14820,8.0,300.57451000000003,5066.4954,0.0,0.0,0.0,-0.15029174922291094,0.0,0.0,-0.2999370864964857,-0.5609628157627194,-0.6791882092156574,-1.2324103211044288,-0.3081432470688707,-0.11638491583879688
14821,8.0,300.04497000000003,4989.0519,0.0,0.0,0.0,-0.15030189036658323,0.0,0.0,-0.29716491528289374,-0.5764794846140955,-0.6429028010770663,-1.2578779570678886,-0.3143860025249827,-0.1229061934823969
14822,8.0,299.558,4931.2218,0.0,0.0,0.0,-0.1503120315102555,0.0,0.0,-0.3011955735181887,-0.5700183129664275,-0.6277543979745354,-1.2608614719873386,-0.31209714147658973,-0.1031870394437679
14823,8.0,299.96805,5072.1244,0.0,0.0,0.0,-0.15032217265392775,0.0,0.0,-0.3092150326271477,-0.5761919850307214,-0.6563921692608634,-1.264349180156549,-0.30455141731938473,-0.1099941954705819
14824,8.0,299.13557000000003,5156.3333,0.0,0.0,0.0,-0.1503323137976,0.0,0.0,-0.3263370341419577,-0.5870411882239545,-0.6540183471915854,-1.2678574573027888,-0.3186400418773237,-0.07099413123382523
14825,8.0,299.43608,5244.2607,0.0,0.0,0.0,-0.15034245494127227,0.0,0.0,-0.32425942560691373,-0.5931778361295944,-0.6766870418738113,-1.265768743546649,-0.3485467163963827,-0.11959163962277587
14826,8.0,299.70108,5407.3919,0.0,0.0,0.0,-0.15035259608494453,0.0,0.0,-0.3522715453539947,-0.5809732994701005,-0.7104672803326614,-1.2306801965586789,-0.2906786049002447,-0.1084988308405009
14827,8.0,299.27189,5295.3986,0.0,0.0,0.0,-0.1503627372286168,0.0,0.0,-0.3427816070374107,-0.6128515762987414,-0.6540357548283033,-1.2265718727032189,-0.29924523932820574,-0.15832980201343486
14828,8.0,298.99473,4922.4521,0.0,0.0,0.0,-0.15037287837228905,0.0,0.0,-0.29959555028527873,-0.5693432958823084,-0.6273636684709734,-1.2502528447653487,-0.33246037807378465,-0.1257996811304619
14829,8.0,299.91566,4867.4521,0.0,0.0,0.0,-0.15038301951596128,0.0,0.0,-0.28678525218600076,-0.5858746333838244,-0.6069240226837375,-1.278146201468209,-0.34780524023820464,-0.12621883229932887
14830,8.0,299.31223,4938.0814,0.0,0.0,0.0,-0.15039316065963357,0.0,0.0,-0.28538473789778074,-0.5761361042877065,-0.6395325893894525,-1.2569577233270688,-0.3272955687365577,-0.1257487146504319
14831,8.0,299.69437999999997,4907.3844,0.0,0.0,0.0,-0.15040330180330583,0.0,0.0,-0.27200763782506376,-0.5839100427649344,-0.6358046294890314,-1.2470961654038089,-0.31331855367713374,-0.14742059414927985
14832,8.0,299.65705,4885.663,0.0,0.0,0.0,-0.1504134429469781,0.0,0.0,-0.25722482549111375,-0.5838149289780474,-0.6440798025257274,-1.2716025309973988,-0.3142864000401527,-0.13036286308831288
14833,8.0,299.22837000000004,5210.1198,0.0,0.0,0.0,-0.15042358409065032,0.0,0.0,-0.3331994426967247,-0.5926674417892225,-0.6578794481551463,-1.2715713228943186,-0.34533621318953067,-0.09303462706605281
14834,8.0,299.24057,5445.8361,0.0,0.0,0.0,-0.1504337252343226,0.0,0.0,-0.3444748087495167,-0.6336616359250343,-0.6772617471980303,-1.2412371480255686,-0.3112483823978237,-0.13211390111612686
14835,8.0,299.2619,5235.4434,0.0,0.0,0.0,-0.15044386637799487,0.0,0.0,-0.3375806348041147,-0.6043908873012365,-0.6494725222079474,-1.220374429791579,-0.3270521151350307,-0.11740064840154188
14836,8.0,299.76574,5035.656,0.0,0.0,0.0,-0.15045400752166713,0.0,0.0,-0.2764351962570297,-0.5891280781299144,-0.6651504092827344,-1.2248844059866788,-0.34243343403804866,-0.1051724320872109
14837,8.0,300.60832999999997,4963.1688,0.0,0.0,0.0,-0.15046414866533941,0.0,0.0,-0.2810870477311317,-0.5871224812794774,-0.6404698355994514,-1.2527603347878187,-0.3425037333299867,-0.12475118005948288
14838,8.0,300.0614,4864.7519,0.0,0.0,0.0,-0.15047428980901165,0.0,0.0,-0.2886384562213977,-0.5561760703028045,-0.6339485782208534,-1.2389732433271388,-0.3117800347252937,-0.13705183362346285
14839,8.0,300.35344,5182.9462,0.0,0.0,0.0,-0.1504844309526839,0.0,0.0,-0.3601836506148587,-0.5977898668747664,-0.6175127294087613,-1.2626817757919886,-0.30780853003083675,-0.17410131339746185
14840,8.0,300.41159,5395.534000000001,0.0,0.0,0.0,-0.15049457209635617,0.0,0.0,-0.36419599942084663,-0.6142348754677625,-0.6616767548924114,-1.273938173802909,-0.33738117652192967,-0.1077917038607129
14841,8.0,300.64517,5142.9907,0.0,0.0,0.0,-0.15050471324002845,0.0,0.0,-0.3435785991685677,-0.5937077355343914,-0.6260544074867593,-1.292068257842209,-0.3324896103391697,-0.14583815080560486
14842,8.0,299.77484,5236.067,0.0,0.0,0.0,-0.1505148543837007,0.0,0.0,-0.3136399262113507,-0.5940847962941044,-0.6839088907690524,-1.2358124096401886,-0.3107167098053517,-0.08787535108762191
14843,8.0,299.5423,5470.9044,0.0,0.0,0.0,-0.15052499552737295,0.0,0.0,-0.3546241398336777,-0.6130904905398205,-0.6953036987436323,-1.221421117144879,-0.29761602435991474,-0.13691848991030287
14844,8.0,298.74815,5243.4874,0.0,0.0,0.0,-0.1505351366710452,0.0,0.0,-0.2913639064728787,-0.5855953816562645,-0.7169299617229783,-1.233658138602579,-0.3130576113788807,-0.07629420135340143
14845,8.0,300.00377000000003,4890.1917,0.0,0.0,0.0,-0.1505452778147175,0.0,0.0,-0.3058882792363227,-0.5761280996119165,-0.6044797797325094,-1.2391124638908788,-0.32103764492644865,-0.1263015844349959
14846,8.0,299.17341,4992.7804,0.0,0.0,0.0,-0.15055541895838975,0.0,0.0,-0.2990522050516547,-0.5893697281462634,-0.6292586386754924,-1.236558364363809,-0.3142651217880527,-0.15690273044009384
14847,8.0,299.95954,4964.9871,0.0,0.0,0.0,-0.150565560102062,0.0,0.0,-0.3333601137650817,-0.5702394548007526,-0.6056325442387784,-1.2425878104088688,-0.30476146406511473,-0.14817034856077488
14848,8.0,299.87352999999996,4971.485,0.0,0.0,0.0,-0.15057570124573424,0.0,0.0,-0.2983983952921287,-0.5929352437906524,-0.6198736730692684,-1.2560866322160988,-0.3489954139381657,-0.15572777575663485
14849,8.0,300.70476,5071.0482,0.0,0.0,0.0,-0.15058584238940653,0.0,0.0,-0.3134779784478677,-0.5772808235881814,-0.6507132266903954,-1.2356900090281089,-0.3382680338044557,-0.1260935236594619
14850,8.0,299.81465,4992.7807,0.0,0.0,0.0,-0.1505959835330788,0.0,0.0,-0.27526717220425473,-0.5850029140577925,-0.6574105970688744,-1.2418554332365888,-0.3106198126982887,-0.15560130187915283
14851,8.0,299.93225,5004.9749,0.0,0.0,0.0,-0.15060612467675105,0.0,0.0,-0.3022990130095897,-0.5652588138017014,-0.6538295685654544,-1.2401345292667487,-0.2992346812621637,-0.11506340466087388
14852,8.0,299.1248,5397.8901,0.0,0.0,0.0,-0.15061626582042334,0.0,0.0,-0.36834989926580464,-0.5926882438137754,-0.6797856721371224,-1.254462696280829,-0.3245113905092807,-0.1221877383664909
14853,8.0,298.9916,5381.5118,0.0,0.0,0.0,-0.15062640696409557,0.0,0.0,-0.38882257700630063,-0.5862998032582855,-0.6607228508507684,-1.236233313731729,-0.3237380071054537,-0.07817755971177442
14854,8.0,298.90711,5009.0139,0.0,0.0,0.0,-0.15063654810776783,0.0,0.0,-0.3021066981406097,-0.5595460590753965,-0.6609624135719114,-1.2395626509103088,-0.3163851247072807,-0.10466657710728688
14855,8.0,299.89734,5042.9937,0.0,0.0,0.0,-0.1506466892514401,0.0,0.0,-0.2972913081003677,-0.5809966751499074,-0.6546561577320323,-1.226556572626709,-0.2906427662442077,-0.0992989333385417
14856,8.0,300.0429,5246.5072,0.0,0.0,0.0,-0.15065683039511235,0.0,0.0,-0.3184389015999727,-0.5834103483456184,-0.6929579234371224,-1.2580740209622385,-0.3234081435353987,-0.08696793597381701
14857,8.0,300.49856,5296.7881,0.0,0.0,0.0,-0.15066697153878464,0.0,0.0,-0.3287371297863287,-0.6056338715964094,-0.6757203303509044,-1.2433845289624987,-0.30608421140815967,-0.1138736666584559
14858,8.0,300.1215,5004.1604,0.0,0.0,0.0,-0.15067711268245687,0.0,0.0,-0.3366891571011327,-0.5670430965652965,-0.6174075439158804,-1.2451988545915589,-0.2971299682869447,-0.15042222598051785
14859,8.0,300.26382,4907.0147,0.0,0.0,0.0,-0.15068725382612913,0.0,0.0,-0.31064062485534266,-0.5608515609017395,-0.6201177751508593,-1.2452392832705488,-0.31618694312022166,-0.14572676422211187
14860,8.0,299.84976,4822.3873,0.0,0.0,0.0,-0.1506973949698014,0.0,0.0,-0.2832588885254757,-0.5586518557296455,-0.6239745799339964,-1.2503018860701887,-0.35379437919428663,-0.12194553106258689
14861,8.0,299.85007,5112.6933,0.0,0.0,0.0,-0.15070753611347368,0.0,0.0,-0.29294025005095176,-0.5836879282105135,-0.6775029209868323,-1.2503897348538588,-0.3298112762173387,-0.0988947448339014
14862,8.0,299.61121,5194.6532,0.0,0.0,0.0,-0.15071767725714594,0.0,0.0,-0.2986138426608917,-0.5859675180204915,-0.6944635016282114,-1.2141362542259186,-0.3222409098177017,-0.12242329874973888
14863,8.0,300.48977,4992.3684,0.0,0.0,0.0,-0.15072781840081817,0.0,0.0,-0.27875166837064774,-0.5652545581512814,-0.6735491177716224,-1.2523423691215687,-0.2954185686030427,-0.092333267505834
14864,8.0,300.05989,4865.2993,0.0,0.0,0.0,-0.15073795954449043,0.0,0.0,-0.28327950816501074,-0.6019501805928574,-0.5936998220511105,-1.254869009570929,-0.2981485278174687,-0.14323541527373485
14865,8.0,300.16808,5236.6815,0.0,0.0,0.0,-0.15074810068816272,0.0,0.0,-0.3379206004776667,-0.5948155320012224,-0.6590842734515533,-1.2720132012629288,-0.3153178582444497,-0.1128070993381939
14866,8.0,300.08558,5348.960999999999,0.0,0.0,0.0,-0.15075824183183498,0.0,0.0,-0.34084039209832767,-0.6247539212484113,-0.6603562772295903,-1.2254166662642088,-0.2930414940009437,-0.16743762345230684
14867,8.0,300.41213999999997,5059.3144,0.0,0.0,0.0,-0.15076838297550724,0.0,0.0,-0.3263245103707217,-0.5741386134380694,-0.6374421227106394,-1.2596148703893089,-0.3150407039445967,-0.11333461760525589
14868,8.0,300.73057,4936.1203,0.0,0.0,0.0,-0.15077852411917947,0.0,0.0,-0.26668887526764273,-0.5826616983767324,-0.6511067324992313,-1.2557421271820988,-0.35566031978344065,-0.15750239211427586
14869,8.0,300.50992,5021.7934,0.0,0.0,0.0,-0.15078866526285176,0.0,0.0,-0.3111949334550487,-0.5830482431573815,-0.6322566126738693,-1.2863709551799287,-0.34546563562480365,-0.09586393950578422
14870,8.0,299.69131,5102.3459,0.0,0.0,0.0,-0.15079880640652402,0.0,0.0,-0.3311046494399847,-0.5714026557830514,-0.6484784326673384,-1.2418264542837287,-0.33067670326024967,-0.12951356698699387
14871,8.0,300.30234,5219.9477,0.0,0.0,0.0,-0.15080894755019628,0.0,0.0,-0.35235238244697265,-0.5687439685806595,-0.6656374076782974,-1.2525062116627388,-0.32699125933402473,-0.11407626601595089
14872,8.0,299.83803,5212.5367,0.0,0.0,0.0,-0.15081908869386856,0.0,0.0,-0.33035438840343967,-0.5616405382246055,-0.6924860933955563,-1.2263713505084288,-0.33893092228487764,-0.0861667854642496
14873,8.0,300.28117000000003,5132.3759,0.0,0.0,0.0,-0.1508292298375408,0.0,0.0,-0.3035772280107397,-0.5986495994521154,-0.6578872907109203,-1.231008996216129,-0.32098083199334165,-0.11820413546583987
14874,8.0,300.23008,5236.5133,0.0,0.0,0.0,-0.15083937098121306,0.0,0.0,-0.3144183454681747,-0.6061226634446495,-0.6712282684175724,-1.2006261853425788,-0.3169088331539667,-0.1193514588190719
14875,8.0,299.49978,5452.321,0.0,0.0,0.0,-0.15084951212488532,0.0,0.0,-0.35899078166963166,-0.6220255325716404,-0.6763531151708554,-1.2453846846598988,-0.30271227719537575,-0.13483346438452687
14876,8.0,299.34426,5198.3366,0.0,0.0,0.0,-0.1508596532685576,0.0,0.0,-0.3293532061121307,-0.6044398982085734,-0.6463714196143924,-1.2529609583076187,-0.3159935643386367,-0.11804584553521788
14877,8.0,299.60688,4903.1028,0.0,0.0,0.0,-0.15086979441222986,0.0,0.0,-0.2895909011828967,-0.5960185435799504,-0.6048113759602355,-1.2821997084932588,-0.29990752999106873,-0.16137716182168585
14878,8.0,299.68003,4931.1646,0.0,0.0,0.0,-0.1508799355559021,0.0,0.0,-0.28677340729233175,-0.5843344830993235,-0.6278430168282814,-1.2768184385371686,-0.29123837491798976,-0.13484530927819588
14879,8.0,300.32024,5157.179,0.0,0.0,0.0,-0.15089007669957435,0.0,0.0,-0.3323635924242327,-0.5806754140732014,-0.6546146144779325,-1.2845252187977687,-0.3000393639615797,-0.14248853849252388
14880,8.0,300.00363,5192.3389,0.0,0.0,0.0,-0.15090021784324664,0.0,0.0,-0.3070257537985827,-0.5928871954709104,-0.6784284337606733,-1.2752339180307888,-0.33796181949173465,-0.11837953919065089
14881,8.0,299.79154,5014.2634,0.0,0.0,0.0,-0.1509103589869189,0.0,0.0,-0.30979949554982966,-0.5787549302311644,-0.6356564416619064,-1.2551410672227787,-0.33394134441994466,-0.1243375916336649
14882,8.0,301.07635,5162.1949,0.0,0.0,0.0,-0.15092050013059116,0.0,0.0,-0.2925366826686227,-0.6117400105415385,-0.6649016563831844,-1.2269079677613888,-0.33233680209158867,-0.1049627095815129
14883,8.0,300.65842999999995,5210.4315,0.0,0.0,0.0,-0.1509306412742634,0.0,0.0,-0.33863056455773466,-0.5869632388937615,-0.6582472579414463,-1.237725324503979,-0.3330918760661087,-0.1039891079579259
14884,8.0,300.40656,5302.6924,0.0,0.0,0.0,-0.15094078241793568,0.0,0.0,-0.3219828552822337,-0.6162478893089315,-0.6736553367796054,-1.2424103903163588,-0.3559863836656207,-0.1166121067762189
14885,8.0,300.03063,5210.0608,0.0,0.0,0.0,-0.15095092356160794,0.0,0.0,-0.3418799259059217,-0.5855547908572585,-0.6562936610861414,-1.2044816019730789,-0.3166895253023227,-0.1108719335022079
14886,8.0,300.40245,4926.2427,0.0,0.0,0.0,-0.1509610647052802,0.0,0.0,-0.28531527960342573,-0.5966428069665605,-0.6154966960822944,-1.235463446305749,-0.33789881560051666,-0.15362562630416884
14887,8.0,300.06674,4871.4856,0.0,0.0,0.0,-0.15097120584895246,0.0,0.0,-0.3185386459398167,-0.5531120425304085,-0.6091592929343413,-1.2490661262482288,-0.3331712439464417,-0.11812497023552689
14888,8.0,299.50136000000003,5152.4477,0.0,0.0,0.0,-0.15098134699262472,0.0,0.0,-0.3397613415368337,-0.5791861188112194,-0.6472679635678744,-1.2832797317748488,-0.35032107944149865,-0.12200571811852688
14889,8.0,299.56743,5228.3685,0.0,0.0,0.0,-0.15099148813629698,0.0,0.0,-0.35549248503687664,-0.5827535494982975,-0.6510474371033794,-1.2465730243771789,-0.2876651788378427,-0.0991676708410871
14890,8.0,299.46422,4999.0908,0.0,0.0,0.0,-0.15100162927996924,0.0,0.0,-0.30153733264441773,-0.5696963426146514,-0.6483651006436534,-1.252711597458009,-0.2813166806012947,-0.13776848515419088
14891,8.0,299.98431,5135.2199,0.0,0.0,0.0,-0.1510117704236415,0.0,0.0,-0.3065446829161047,-0.5897619876574764,-0.6646719627180153,-1.258122555642029,-0.2832532852524227,-0.1185647309114279
14892,8.0,300.33117000000004,5292.9824,0.0,0.0,0.0,-0.1510219115673138,0.0,0.0,-0.32402901253417365,-0.6109692413229694,-0.6739362401048283,-1.2697688522914288,-0.3338902664824037,-0.11847113699969089
14893,8.0,300.47992,5318.0087,0.0,0.0,0.0,-0.15103205271098602,0.0,0.0,-0.31265705334934873,-0.6287764937479084,-0.6751082968930013,-1.2526337798503289,-0.3127697368929697,-0.1238979728127779
14894,8.0,299.30803,5083.9914,0.0,0.0,0.0,-0.15104219385465828,0.0,0.0,-0.3060551108652877,-0.6081327287280275,-0.6312185886089244,-1.2207023175239387,-0.3391556104945527,-0.14920593069297886
14895,8.0,299.60853,4940.3224,0.0,0.0,0.0,-0.15105233499833054,0.0,0.0,-0.2855563520672177,-0.5898827670693965,-0.6262955103480544,-1.2259042422123287,-0.3518194027618716,-0.12271239926827088
14896,8.0,299.24125,4763.5872,0.0,0.0,0.0,-0.15106247614200283,0.0,0.0,-0.26112243385577777,-0.5892389884858605,-0.5976501295534754,-1.223969238496359,-0.36870771840611866,-0.14655872361421987
14897,8.0,298.71965,5005.5807,0.0,0.0,0.0,-0.1510726172856751,0.0,0.0,-0.29657564955473775,-0.5803919776227284,-0.6446039162724534,-1.2246257232361488,-0.3406543695124687,-0.12731973866547988
14898,8.0,299.67126,5341.2798,0.0,0.0,0.0,-0.15108275842934732,0.0,0.0,-0.3396977600930587,-0.6165886047875574,-0.6673293225627763,-1.201099373139279,-0.3193441291068117,-0.16326359032786184
14899,8.0,299.6937,5111.5905,0.0,0.0,0.0,-0.15109289957301958,0.0,0.0,-0.3233161708238217,-0.5776613901932405,-0.6528183044356504,-1.2813150398309487,-0.3292449302064447,-0.1013740411723389
14900,8.0,299.20851,4897.4373,0.0,0.0,0.0,-0.15110304071669187,0.0,0.0,-0.31412617480183974,-0.5608043839770835,-0.6137680914116944,-1.2710504110179088,-0.3424192890666527,-0.12990706266332888
14901,8.0,299.02942,5357.6839,0.0,0.0,0.0,-0.15111318186036413,0.0,0.0,-0.3418012673006587,-0.6143479744439244,-0.6724528824884324,-1.299518787152519,-0.3175001152498217,-0.08063572066637602
14902,8.0,300.69502,5585.4003,0.0,0.0,0.0,-0.1511233230040364,0.0,0.0,-0.35509919201056167,-0.6338042103466054,-0.7089188213973403,-1.2781983838483588,-0.28944544913104175,-0.12701928974582788
14903,8.0,300.6825,5386.5748,0.0,0.0,0.0,-0.15113346414770862,0.0,0.0,-0.3269264721226307,-0.6220827812022903,-0.6883749831023214,-1.2980205955546589,-0.3239736080187057,-0.0934047369300798
14904,8.0,300.23962,5149.0896,0.0,0.0,0.0,-0.1511436052913809,0.0,0.0,-0.3125644828202127,-0.5946682459666864,-0.6579619368457874,-1.2686471844307288,-0.3108974330931877,-0.13572319929733687
14905,8.0,299.37039,4988.8542,0.0,0.0,0.0,-0.15115374643505317,0.0,0.0,-0.31504894166790964,-0.5678894542413254,-0.6335486990688884,-1.2435889015076689,-0.3167714668379097,-0.1194933746280779
14906,8.0,300.31289,5005.9519,0.0,0.0,0.0,-0.15116388757872543,0.0,0.0,-0.3090536421512197,-0.5992163912930535,-0.6134143455367824,-1.218504983357079,-0.3202746574686477,-0.15569214988311886
14907,8.0,300.50962000000004,5123.7073,0.0,0.0,0.0,-0.1511740287223977,0.0,0.0,-0.31153995524659966,-0.5898226104109594,-0.6561165247036593,-1.2338867278251386,-0.3467215591237537,-0.1164390132616359
14908,8.0,301.12068999999997,5067.4631,0.0,0.0,0.0,-0.15118416986606995,0.0,0.0,-0.2896828536294717,-0.5925138837365674,-0.6581855307453544,-1.2453304757795487,-0.34878968363786167,-0.1202131874991179
14909,8.0,301.06203,4902.7339,0.0,0.0,0.0,-0.1511943110097422,0.0,0.0,-0.2872936402911747,-0.5821162557154015,-0.6208987781954384,-1.2386172885670088,-0.3119129528734117,-0.1277568648911209
14910,8.0,300.73976,5203.5708,0.0,0.0,0.0,-0.15120445215341446,0.0,0.0,-0.3070674287751957,-0.5764087597571154,-0.6982794015048114,-1.2530894384202989,-0.2982961583570387,-0.1231274873042369
14911,8.0,300.57441,5764.1129,0.0,0.0,0.0,-0.15121459329708675,0.0,0.0,-0.39440683135492366,-0.6575507599552074,-0.7001888105232553,-1.285027689522359,-0.31838308165196366,-0.1216477064606939
14912,8.0,300.15233,5607.1894,0.0,0.0,0.0,-0.15122473444075898,0.0,0.0,-0.3622143659352747,-0.6251817762356374,-0.7170494137772674,-1.2793592644879288,-0.31934461546685966,-0.100498249594155
14913,8.0,299.44882,5173.7051,0.0,0.0,0.0,-0.15123487558443124,0.0,0.0,-0.3286439411746317,-0.6072568044140804,-0.6367764173949395,-1.2607393753502887,-0.3101203817239987,-0.12015641509601488
14914,8.0,299.27692,5139.6552,0.0,0.0,0.0,-0.1512450167281035,0.0,0.0,-0.28089295967447675,-0.6222215762009884,-0.6592123077341894,-1.2655420794992789,-0.3205277572111267,-0.1159773562510739
14915,8.0,300.11141000000003,5063.2346,0.0,0.0,0.0,-0.15125515787177576,0.0,0.0,-0.2998787840857317,-0.5982324747834484,-0.6409856406953574,-1.2751279320703288,-0.3409435916210127,-0.12739081815999487
14916,8.0,300.28382999999997,5081.4242,0.0,0.0,0.0,-0.15126529901544805,0.0,0.0,-0.2891736853217207,-0.5937764034936684,-0.6616759949548363,-1.2779771913515288,-0.3252721589493627,-0.14718322004835285
14917,8.0,300.0703,5026.1169,0.0,0.0,0.0,-0.15127544015912028,0.0,0.0,-0.3208083565613197,-0.5777862935330674,-0.6292193853666184,-1.2327915057920489,-0.3014646420822437,-0.16216711186464786
14918,8.0,300.31723999999997,4909.8691,0.0,0.0,0.0,-0.15128558130279254,0.0,0.0,-0.3022204557293367,-0.5654107202566935,-0.6248464411150424,-1.2440301719262188,-0.3113238695302737,-0.13910006803810787
14919,8.0,300.59094,5069.2025,0.0,0.0,0.0,-0.1512957224464648,0.0,0.0,-0.31674892202318466,-0.5899535324563805,-0.6342085275340084,-1.2496140919023089,-0.35055458292704367,-0.11670830474071289
14920,8.0,300.7069,5527.3056,0.0,0.0,0.0,-0.1513058635901371,0.0,0.0,-0.33360099371135465,-0.6329468082444863,-0.7136150937558263,-1.2635056494482988,-0.3595964316519047,-0.08732489993104661
14921,8.0,301.26648,5444.113,0.0,0.0,0.0,-0.15131600473380932,0.0,0.0,-0.3365445156493577,-0.6121550073849954,-0.7061748894640353,-1.2356078344449988,-0.3359348430641877,-0.10787510447644388
14922,8.0,301.49529,5086.3226,0.0,0.0,0.0,-0.1513261458774816,0.0,0.0,-0.3035717767252017,-0.5930975259266684,-0.6494457521403054,-1.2763535593912887,-0.3223763002960637,-0.1037225218566159
14923,8.0,301.5569,5089.0631,0.0,0.0,0.0,-0.15133628702115384,0.0,0.0,-0.3186811494338807,-0.5796412302261355,-0.6486257085693734,-1.287161087607909,-0.3225057328638377,-0.10793209979456889
14924,8.0,299.55069,5109.9372,0.0,0.0,0.0,-0.15134642816482613,0.0,0.0,-0.3196978344517197,-0.5789943510972935,-0.6546011382516024,-1.3279241391309087,-0.3080997381095767,-0.11415385057610788
14925,8.0,300.42742000000004,5024.2462,0.0,0.0,0.0,-0.15135656930849836,0.0,0.0,-0.31731752758180165,-0.5664757170393004,-0.6434521447512824,-1.2602479490517886,-0.27674692265029477,-0.14953524710797983
14926,8.0,299.89047999999997,4986.0846,0.0,0.0,0.0,-0.15136671045217065,0.0,0.0,-0.2886626425012847,-0.5713653681793714,-0.6556171950543794,-1.2693662880266987,-0.2910844926253027,-0.15525995818546484
14927,8.0,300.17098,5029.9759,0.0,0.0,0.0,-0.1513768515958429,0.0,0.0,-0.3078260795225687,-0.5774685686992104,-0.6436924268799964,-1.252578963019919,-0.3260679554454017,-0.14695386075571687
14928,8.0,299.75969,5206.1139,0.0,0.0,0.0,-0.15138699273951517,0.0,0.0,-0.3287600393710897,-0.5825238457006274,-0.6712447438641983,-1.2659743319919388,-0.33982110302773166,-0.13590957652073088
14929,8.0,300.04975,5337.6058,0.0,0.0,0.0,-0.15139713388318743,0.0,0.0,-0.3496719508974347,-0.6014040995839633,-0.6714228225692733,-1.219179605273659,-0.3266474838400967,-0.14053758621997986
14930,8.0,298.73855,5433.0372,0.0,0.0,0.0,-0.1514072750268597,0.0,0.0,-0.3723728162703357,-0.6084741838792265,-0.6706606457115524,-1.2216569004431488,-0.34767961749080667,-0.11749182064553987
14931,8.0,301.19284,5421.6543,0.0,0.0,0.0,-0.15141741617053195,0.0,0.0,-0.34941832426490366,-0.6101279093674364,-0.6885012847272863,-1.2426351291885387,-0.37354899698641564,-0.09110011984263182
14932,8.0,300.32072,5148.5306,0.0,0.0,0.0,-0.1514275573142042,0.0,0.0,-0.3119796551274947,-0.5937956451130675,-0.6592494534828554,-1.2489130241581188,-0.36359794881432367,-0.1010077066781845
14933,8.0,301.31433,5218.8029,0.0,0.0,0.0,-0.15143769845787647,0.0,0.0,-0.2992540546040757,-0.5999155338620534,-0.6872161694929554,-1.247650615858529,-0.3289987509621487,-0.09938861610489272
14934,8.0,300.41953,5289.6013,0.0,0.0,0.0,-0.15144783960154873,0.0,0.0,-0.34620637211040867,-0.5880075248443244,-0.6736928270333054,-1.272988150509149,-0.2869152116438267,-0.1342282500997969
14935,8.0,300.69536,5123.2118,0.0,0.0,0.0,-0.151457980745221,0.0,0.0,-0.3156702666292297,-0.5738471013842995,-0.6678110925878233,-1.2836049850569486,-0.3029914073329237,-0.11933292647474289
14936,8.0,300.23163999999997,4953.0782,0.0,0.0,0.0,-0.15146812188889325,0.0,0.0,-0.2962964180921797,-0.5801166066430514,-0.6291990697021134,-1.272443629905409,-0.2968811343273867,-0.15598447253696884
14937,8.0,300.70345,5032.2078,0.0,0.0,0.0,-0.15147826303256554,0.0,0.0,-0.29132705456674174,-0.5668360794373655,-0.6715023728346243,-1.2556962269525687,-0.2881035412286057,-0.13728605651657885
14938,8.0,299.84817000000004,5061.2538,0.0,0.0,0.0,-0.15148840417623777,0.0,0.0,-0.32495326887789067,-0.5744244411587784,-0.6391170555234423,-1.2301852238848288,-0.3211647976814977,-0.15878807476866283
14939,8.0,300.05582000000004,5328.6639,0.0,0.0,0.0,-0.15149854531991003,0.0,0.0,-0.3372834282847827,-0.6035173035950204,-0.6789800268501114,-1.2633847687113686,-0.35116384007967266,-0.11484010460383588
14940,8.0,299.86512999999997,5279.6167,0.0,0.0,0.0,-0.1515086864635823,0.0,0.0,-0.3533454688699827,-0.5757124340233934,-0.6758137317451224,-1.2342992219408488,-0.35303950786978666,-0.10568660585045589
14941,8.0,300.27797000000004,5113.4188,0.0,0.0,0.0,-0.15151882760725457,0.0,0.0,-0.30705326353879775,-0.6052831148092924,-0.6420152649169734,-1.2311083960509388,-0.3169181854523897,-0.1333142985095969
14942,8.0,299.96802,5154.9028,0.0,0.0,0.0,-0.15152896875092683,0.0,0.0,-0.30204950017246474,-0.5980590975588373,-0.6668531456782814,-1.2366956597523588,-0.3053668202048587,-0.11475272191521188
14943,8.0,298.96457999999996,5430.9036,0.0,0.0,0.0,-0.15153910989459907,0.0,0.0,-0.3333280038694127,-0.6156812798530114,-0.7018497908821814,-1.2512269834114889,-0.3294815545022977,-0.12011765827968988
14944,8.0,298.61737999999997,5392.6211,0.0,0.0,0.0,-0.15154925103827133,0.0,0.0,-0.3520994650895117,-0.6149584069666694,-0.6721642784624493,-1.2634916665969187,-0.3248155276592967,-0.11646040297124689
14945,8.0,300.32046,4871.9541,0.0,0.0,0.0,-0.15155939218194361,0.0,0.0,-0.27975809929747475,-0.5820862432474395,-0.6191080612937084,-1.2664982836186487,-0.3168326570114487,-0.15362734882933884
14946,8.0,299.95501,4679.2218,0.0,0.0,0.0,-0.15156953332561587,0.0,0.0,-0.2634254601405688,-0.5617094493639064,-0.5972316673946765,-1.2913781331990988,-0.3399614077690787,-0.12721177686732488
14947,8.0,300.72575,4953.2045,0.0,0.0,0.0,-0.15157967446928813,0.0,0.0,-0.3063559549524787,-0.5774933223991534,-0.6218011989995004,-1.2942217182797386,-0.3312976634515337,-0.13555890079362187
14948,8.0,301.14524,5342.7037,0.0,0.0,0.0,-0.15158981561296037,0.0,0.0,-0.33807135182754466,-0.5958928296400434,-0.6900843258885203,-1.2653431785046487,-0.3219703112459957,-0.10514183193419091
14949,8.0,299.93408999999997,5335.5347,0.0,0.0,0.0,-0.15159995675663265,0.0,0.0,-0.34078368049023067,-0.6093565119338055,-0.6717291382070043,-1.231384202728159,-0.3033883277945967,-0.14600889357995586
14950,8.0,299.91069,5364.1955,0.0,0.0,0.0,-0.1516100979003049,0.0,0.0,-0.3489752097311717,-0.6031481968485924,-0.6784580814585993,-1.2495327279192787,-0.3304355497364497,-0.11718158372992188
14951,8.0,300.11955,5440.3495,0.0,0.0,0.0,-0.15162023904397717,0.0,0.0,-0.35544214677190866,-0.6203916971828933,-0.6778965585181813,-1.229838489700609,-0.34397820474300567,-0.10796339909015788
14952,8.0,300.09545,5505.2393,0.0,0.0,0.0,-0.15163038018764943,0.0,0.0,-0.3668476040050397,-0.6273205952092225,-0.6792870821604153,-1.2596164915894688,-0.3429445477859917,-0.09205019785189722
14953,8.0,300.09816,5356.4153,0.0,0.0,0.0,-0.15164052133132166,0.0,0.0,-0.35119284943003565,-0.5973380789201784,-0.6796855731597433,-1.2490772719993288,-0.3213654212012977,-0.1000713855655268
14954,8.0,299.06295,4937.9853,0.0,0.0,0.0,-0.15165066247499395,0.0,0.0,-0.24609812349299376,-0.6136760072426064,-0.6412500989714575,-1.2808812674631387,-0.33896673054341164,-0.11334059578084588
14955,8.0,298.98702000000003,4652.5534,0.0,0.0,0.0,-0.1516608036186662,0.0,0.0,-0.24068443966620476,-0.5640020797026715,-0.6095735501052254,-1.2561526961226186,-0.3151990242727217,-0.13337349258043887
14956,8.0,299.94844,5079.3122,0.0,0.0,0.0,-0.15167094476233847,0.0,0.0,-0.29308012922725674,-0.5982096867886995,-0.6526942623584084,-1.2623952286637088,-0.3248740023225677,-0.14360529209023887
14957,8.0,299.02079,5328.8161,0.0,0.0,0.0,-0.15168108590601076,0.0,0.0,-0.3122804080221767,-0.6557592425858983,-0.6517874035189084,-1.231440843408749,-0.31123395371639967,-0.19238680973709982
14958,8.0,299.89575,5281.6034,0.0,0.0,0.0,-0.151691227049683,0.0,0.0,-0.34350507774131167,-0.6132673837422784,-0.6487030904795104,-1.2548574585197887,-0.3526893286352267,-0.14523057564814187
14959,8.0,300.29573999999997,5160.6373,0.0,0.0,0.0,-0.15170136819335525,0.0,0.0,-0.3158508277970497,-0.6064063937376514,-0.6464476464194154,-1.2425241783025887,-0.32470042244793673,-0.15019986824607284
14960,8.0,299.53205,5282.0956,0.0,0.0,0.0,-0.1517115093370275,0.0,0.0,-0.3256621386478507,-0.5951161126433875,-0.6848469374466303,-1.2392532043297688,-0.32551307942563973,-0.09416189414680541
14961,8.0,300.88083,5489.5719,0.0,0.0,0.0,-0.1517216504806998,0.0,0.0,-0.3402342456235057,-0.6261976709183984,-0.7022608563152504,-1.239618886290859,-0.3009970474260957,-0.13040587555505787
14962,8.0,300.38338999999996,5368.0633,0.0,0.0,0.0,-0.15173179162437206,0.0,0.0,-0.3487700975134287,-0.6066629790604744,-0.6763241463504963,-1.2718858357253588,-0.3275602499276797,-0.09652792026981401
14963,8.0,300.84913,5271.4955,0.0,0.0,0.0,-0.1517419327680443,0.0,0.0,-0.3276242873339997,-0.6161627965655334,-0.6586159188578303,-1.2669412765623687,-0.32127341809221766,-0.1305813704723779
14964,8.0,301.67702,5197.4804,0.0,0.0,0.0,-0.15175207391171655,0.0,0.0,-0.34138509508708564,-0.5898228130609795,-0.6486963523663454,-1.2512923380429388,-0.3093560973060697,-0.1031687300144609
14965,8.0,301.50951000000003,5260.7647,0.0,0.0,0.0,-0.15176221505538884,0.0,0.0,-0.3212142037563737,-0.6149145838998443,-0.6630123198492214,-1.2425788938079887,-0.3318826633967687,-0.1304763977620179
14966,8.0,299.73569,5449.9167,0.0,0.0,0.0,-0.1517723561990611,0.0,0.0,-0.33941234780489066,-0.6220868646001935,-0.6951393901074163,-1.2659203257616087,-0.36217987490187065,-0.1282051875303669
14967,8.0,301.10523,5198.6243,0.0,0.0,0.0,-0.15178249734273336,0.0,0.0,-0.3030705725632367,-0.6009771058593225,-0.6762043092611693,-1.2713536767728388,-0.3568379393146627,-0.11248482501138789
14968,8.0,300.11206,4875.4156,0.0,0.0,0.0,-0.1517926384864056,0.0,0.0,-0.28749081876063476,-0.5654514326457115,-0.6290623417336193,-1.2613215888577487,-0.32681683846181064,-0.15649067202192685
14969,8.0,300.1438,5192.5738,0.0,0.0,0.0,-0.15180277963007788,0.0,0.0,-0.32532926572499865,-0.5863129653770844,-0.6667705252651274,-1.251316858695359,-0.3173752828375017,-0.1259312820534499
14970,8.0,299.23357999999996,5333.0317,0.0,0.0,0.0,-0.15181292077375014,0.0,0.0,-0.35024949332193367,-0.5975656447601374,-0.6732933430488794,-1.2388979588447089,-0.31796905752860266,-0.15546290204799387
14971,8.0,298.98487,5091.8125,0.0,0.0,0.0,-0.1518230619174224,0.0,0.0,-0.31102469730574767,-0.5851394596412685,-0.6516197004948574,-1.250346367749579,-0.3241084209445107,-0.0955798028994921
14972,8.0,300.65234,4918.7931,0.0,0.0,0.0,-0.15183320306109468,0.0,0.0,-0.27725482439542076,-0.5784263940187404,-0.6395090515896295,-1.2191273215684988,-0.30919063356473975,-0.13312778956368987
14973,8.0,300.63167999999996,5063.0633,0.0,0.0,0.0,-0.15184334420476692,0.0,0.0,-0.27307209758511775,-0.5992000171714374,-0.6667727037528424,-1.2521054712481887,-0.3126949489030887,-0.10679275071962388
14974,8.0,301.34691000000004,5169.130999999999,0.0,0.0,0.0,-0.15185348534843918,0.0,0.0,-0.3040442045843267,-0.6084156484209494,-0.6588268977936524,-1.258418222021209,-0.3248510826053057,-0.16055593274813684
14975,8.0,300.88939,5277.6934,0.0,0.0,0.0,-0.15186362649211144,0.0,0.0,-0.2963383159838147,-0.6349411884163164,-0.6730075153281704,-1.2834632313679588,-0.32070535968865466,-0.14733395113322884
14976,8.0,300.59191,5150.4534,0.0,0.0,0.0,-0.1518737676357837,0.0,0.0,-0.3256235946140467,-0.5896273571166895,-0.6503582649153634,-1.245949368940629,-0.3085307544371147,-0.15399906976102484
14977,8.0,299.96549,4985.9905,0.0,0.0,0.0,-0.15188390877945598,0.0,0.0,-0.2982811622555587,-0.5692187471800164,-0.6481167125141395,-1.2569868036049388,-0.33025991296411567,-0.12757509795568187
14978,8.0,300.02292,5146.2765,0.0,0.0,0.0,-0.15189404992312822,0.0,0.0,-0.33976357068705365,-0.5742964068761425,-0.6502795657800964,-1.223306572930959,-0.34551466679714266,-0.11152102151626789
14979,8.0,299.19766,5490.1284,0.0,0.0,0.0,-0.15190419106680048,0.0,0.0,-0.3525319607621957,-0.6022712288870424,-0.7140587453121113,-1.2559344420510787,-0.34044008738132064,-0.0874271267336356
14980,8.0,300.17759,5378.9822,0.0,0.0,0.0,-0.15191433221047274,0.0,0.0,-0.3573948013046207,-0.5806474078404374,-0.6970340766019074,-1.2346974292301487,-0.3142947086909727,-0.08488869002661142
14981,8.0,300.48366,5232.523,0.0,0.0,0.0,-0.15192447335414502,0.0,0.0,-0.3284374509367527,-0.5811214467672214,-0.6809974483292153,-1.2467979658993789,-0.3145950664181157,-0.11201967228798089
14982,8.0,300.76309,5137.1372,0.0,0.0,0.0,-0.15193461449781728,0.0,0.0,-0.3358523949035507,-0.5761310481697075,-0.6495779812783554,-1.2590472476832888,-0.32178170487238167,-0.12130308996918289
14983,8.0,300.63068,5167.2346,0.0,0.0,0.0,-0.15194475564148952,0.0,0.0,-0.3142155738581627,-0.5945718149546694,-0.6619228834742024,-1.2479916758421887,-0.33443043011071366,-0.1072141614362139
14984,8.0,299.65706,5155.1144,0.0,0.0,0.0,-0.15195489678516177,0.0,0.0,-0.3216810891374517,-0.5977136096722405,-0.6476313657162394,-1.2331522228276488,-0.3357224557107267,-0.14254117683521886
14985,8.0,299.10892,5078.8689,0.0,0.0,0.0,-0.15196503792883406,0.0,0.0,-0.3132212310050287,-0.5761855508925865,-0.6544425443459503,-1.2297023088871688,-0.3368401111010307,-0.1281545351578679
14986,8.0,298.97746,5017.795,0.0,0.0,0.0,-0.15197517907250632,0.0,0.0,-0.2791936277992657,-0.6062193072391875,-0.6398714404878943,-1.258044332734309,-0.35650303989161064,-0.15732084809385885
14987,8.0,299.57783,4863.4564,0.0,0.0,0.0,-0.15198532021617858,0.0,0.0,-0.27200142660195076,-0.5752213826274304,-0.6311465059968103,-1.2693778390778387,-0.3010021744716017,-0.1345849951950049
14988,8.0,300.12004,5073.6506,0.0,0.0,0.0,-0.15199546135985081,0.0,0.0,-0.2846850684387287,-0.6043990034345375,-0.6531790214712504,-1.2789487968724187,-0.27003586326296475,-0.16505415524207684
14989,8.0,299.89416,5264.6004,0.0,0.0,0.0,-0.1520056025035231,0.0,0.0,-0.3423672181440137,-0.5820920390380114,-0.6758477972134843,-1.264255251872279,-0.2839216250183827,-0.11029542459281089
14990,8.0,300.22605,5220.2693,0.0,0.0,0.0,-0.15201574364719536,0.0,0.0,-0.32446452769215567,-0.6045807602374754,-0.6577862190134454,-1.2814431146435887,-0.3502781075047577,-0.11145606205235689
14991,8.0,300.29997000000003,5221.8265,0.0,0.0,0.0,-0.15202588479086762,0.0,0.0,-0.3389004639868717,-0.6051565700043035,-0.6432478228686174,-1.242167919567429,-0.36506917782702264,-0.08600693310197342
14992,8.0,299.37867,5340.0909,0.0,0.0,0.0,-0.1520360259345399,0.0,0.0,-0.34331450566250366,-0.6086989126189054,-0.6712408732488163,-1.2193660432920588,-0.3531016403659187,-0.11644431255965888
14993,8.0,299.82689,5524.9861,0.0,0.0,0.0,-0.15204616707821214,0.0,0.0,-0.3839864052065076,-0.6071073196268274,-0.6883640906637464,-1.2300875465751886,-0.3249772221102547,-0.11689520885415888
14994,8.0,300.64287,5471.7087,0.0,0.0,0.0,-0.1520563082218844,0.0,0.0,-0.3433936404953137,-0.6492902182499554,-0.6705789676209913,-1.248158558133659,-0.3318878613697817,-0.12369841320558288
14995,8.0,300.42831,5170.1965,0.0,0.0,0.0,-0.15206644936555666,0.0,0.0,-0.3302132325320087,-0.5674205322275465,-0.6739768613013373,-1.2356679201759289,-0.3030411376478317,-0.1042571835368829
14996,8.0,301.27591,5090.9032,0.0,0.0,0.0,-0.15207659050922895,0.0,0.0,-0.3130135856620357,-0.5755755641998854,-0.6589183233501754,-1.2361464781981588,-0.2895419713355677,-0.1042242630411339
14997,8.0,301.2679,5171.127,0.0,0.0,0.0,-0.1520867316529012,0.0,0.0,-0.3195862452182067,-0.5862079318717185,-0.6660992876038814,-1.253387840574749,-0.2945619467035007,-0.11264323653202189
14998,8.0,300.30298,5308.7853,0.0,0.0,0.0,-0.15209687279657344,0.0,0.0,-0.3503133686082377,-0.5960005989206795,-0.6674242033021404,-1.3003310084326787,-0.35813331877250665,-0.10804139908285589
14999,8.0,300.46528,5250.955,0.0,0.0,0.0,-0.1521070139402457,0.0,0.0,-0.3105800223668617,-0.6039417641944115,-0.6816374272248763,-1.2802026938711688,-0.3279743449785477,-0.09898264833307681
15000,8.0,300.44687000000005,4852.0011,0.0,0.0,0.0,-0.152117155083918,0.0,0.0,-0.25790810056354774,-0.5709703728928884,-0.6460087064760953,-1.261969866271729,-0.2774888851685207,-0.12734525230299787
15001,8.0,299.0333,5009.1856,0.0,0.0,0.0,-0.15212729622759025,0.0,0.0,-0.2923219445749297,-0.5847252126028855,-0.6456201959902524,-1.245666368187699,-0.28010008133872577,-0.1275751486181869
15002,8.0,300.09837999999996,5390.5156,0.0,0.0,0.0,-0.1521374373712625,0.0,0.0,-0.34370087819063566,-0.6309578793581944,-0.6639233735441353,-1.2572196484779188,-0.32776646658803166,-0.1211230962214189
15003,8.0,299.45916,5199.105,0.0,0.0,0.0,-0.15214757851493474,0.0,0.0,-0.34448585317560665,-0.5961768537755744,-0.6397353812644664,-1.2483047701230887,-0.3504131028155807,-0.11145745020499388
15004,8.0,299.81953,4940.8224,0.0,0.0,0.0,-0.15215771965860703,0.0,0.0,-0.3129940704651097,-0.5875192700186375,-0.6013733069134244,-1.2163271035921388,-0.3336740186460617,-0.16061037467600986
15005,8.0,300.49922000000004,4998.2944,0.0,0.0,0.0,-0.1521678608022793,0.0,0.0,-0.2954616215997917,-0.5931257044119495,-0.6307693439120874,-1.2616924383943486,-0.3485562916098277,-0.15238678620190485
15006,8.0,299.96185,5072.5038,0.0,0.0,0.0,-0.15217800194595155,0.0,0.0,-0.2877463604358547,-0.6008349468702925,-0.6533331976064664,-1.2776700752462187,-0.34697330111109864,-0.16872352902171583
15007,8.0,300.0824,5189.8926,0.0,0.0,0.0,-0.1521881430896238,0.0,0.0,-0.3171005502053877,-0.5879704094931615,-0.6725267788182254,-1.3037968303997287,-0.3171297216757667,-0.11906643156594189
15008,8.0,299.77575,5209.4069,0.0,0.0,0.0,-0.15219828423329607,0.0,0.0,-0.3199143254680857,-0.5673098751841255,-0.6963054180574944,-1.2593638883395388,-0.2861996544232068,-0.10935880659787389
15009,8.0,297.81889,5067.0641,0.0,0.0,0.0,-0.15220842537696833,0.0,0.0,-0.3071736376506777,-0.5740069314550735,-0.6590803927036704,-1.286073566275579,-0.3247867108264527,-0.09239794224646691
15010,8.0,299.44723999999997,5192.2879,0.0,0.0,0.0,-0.15221856652064059,0.0,0.0,-0.3277385008852717,-0.5994796741990375,-0.6511076849543254,-1.2808768091626987,-0.36462922463360264,-0.1127551702705689
15011,8.0,300.44728,5412.7227,0.0,0.0,0.0,-0.15222870766431285,0.0,0.0,-0.3407854334129037,-0.6008379866205924,-0.7037091250806834,-1.250969313911059,-0.3541327844626847,-0.1099577893944889
15012,8.0,299.4888,5410.9822,0.0,0.0,0.0,-0.15223884880798513,0.0,0.0,-0.34824010691612267,-0.6126128545751814,-0.6839505150831604,-1.201628998966549,-0.30353745794431475,-0.12972765660062288
15013,8.0,300.1158,5104.3145,0.0,0.0,0.0,-0.15224898995165737,0.0,0.0,-0.3009707130559967,-0.5869700378019325,-0.6636434024090043,-1.249649251680779,-0.3123873464377307,-0.14252597808371886
15014,8.0,300.58277999999996,4971.7148,0.0,0.0,0.0,-0.15225913109532963,0.0,0.0,-0.3160105160128097,-0.5593516265137074,-0.6359150129549254,-1.2590255641311487,-0.33704401755115465,-0.12439707954703588
15015,8.0,300.56709,5049.197,0.0,0.0,0.0,-0.15226927223900188,0.0,0.0,-0.3026482600540577,-0.5663056632750174,-0.6658758862218334,-1.2663963506585887,-0.32619512846545273,-0.14742797061000787
15016,8.0,301.09098,5141.5854,0.0,0.0,0.0,-0.15227941338267417,0.0,0.0,-0.3253044613625507,-0.5834819851276885,-0.6541271195898204,-1.2308597444763987,-0.3086315424245617,-0.13805162776213487
15017,8.0,300.94677,5092.8183,0.0,0.0,0.0,-0.1522895545263464,0.0,0.0,-0.25627500484737376,-0.6079447100394714,-0.6838698907727034,-1.2505177083414887,-0.3439156061518277,-0.16535270938404184
15018,8.0,301.07266,5159.1787,0.0,0.0,0.0,-0.15229969567001866,0.0,0.0,-0.3047033541718797,-0.5979165231372664,-0.6656416126662124,-1.2490675447983688,-0.3574819813432247,-0.10927802016740089
15019,8.0,301.23646,5245.2292,0.0,0.0,0.0,-0.15230983681369092,0.0,0.0,-0.3053971569128527,-0.6102193551889614,-0.6788021913250604,-1.2532908725401788,-0.3241428815804117,-0.13665972609976487
15020,8.0,300.49512000000004,5304.397,0.0,0.0,0.0,-0.1523199779573632,0.0,0.0,-0.34660144845689966,-0.5838784496268165,-0.6819243391231924,-1.240417935319719,-0.26852177377103575,-0.10106157510650089
15021,8.0,299.76023,5511.0098,0.0,0.0,0.0,-0.15233011910103547,0.0,0.0,-0.34862371327148167,-0.6362487370078613,-0.6903369291384504,-1.2823028573534387,-0.2921836562012817,-0.14646231286720485
15022,8.0,300.00549,5330.5296,0.0,0.0,0.0,-0.15234026024470773,0.0,0.0,-0.3293795607472317,-0.6125217431261895,-0.6784465810699644,-1.2901262627005488,-0.3324730031700307,-0.1075037280497919
15023,8.0,299.57995,5021.7563,0.0,0.0,0.0,-0.15235040138837996,0.0,0.0,-0.28462563118786277,-0.6024232467995454,-0.6394396439577794,-1.261438720569309,-0.3310142371335617,-0.16089639491423785
15024,8.0,299.82045,5286.1183,0.0,0.0,0.0,-0.15236054253205225,0.0,0.0,-0.34024464156953166,-0.5925172983894044,-0.6740860187346104,-1.2420695329827187,-0.33348893838279564,-0.08532217057839261
15025,8.0,299.56512000000004,5155.1095,0.0,0.0,0.0,-0.1523706836757245,0.0,0.0,-0.3356490052109777,-0.5799745793765345,-0.6514009803282713,-1.2369225264497488,-0.3496970491024117,-0.12308895340293388
15026,8.0,300.32535,4793.3045,0.0,0.0,0.0,-0.15238082481939677,0.0,0.0,-0.2941751384778257,-0.5439049833767424,-0.6189647674645664,-1.2759583918522888,-0.3555159823066957,-0.0994203125945209
15027,8.0,301.25285,4956.1624,0.0,0.0,0.0,-0.15239096596306903,0.0,0.0,-0.3313569588473857,-0.5353816755230575,-0.6398109595894255,-1.218743603755629,-0.3008854075300777,-0.13574406211689585
15028,8.0,300.83734,5397.9636,0.0,0.0,0.0,-0.1524011071067413,0.0,0.0,-0.3512632905769877,-0.5926997340699094,-0.6968831124695083,-1.2325953405726886,-0.29540573072427573,-0.12853227479514787
15029,8.0,299.86477,5618.234,0.0,0.0,0.0,-0.15241124825041355,0.0,0.0,-0.3581191535361087,-0.6344980738825844,-0.7151856212783253,-1.2311840858334089,-0.32036504951006867,-0.14990080747905785
15030,8.0,301.48049,5673.6278,0.0,0.0,0.0,-0.1524213893940858,0.0,0.0,-0.37020513993390264,-0.6348445446217784,-0.7195915062906524,-1.2823492642080188,-0.3600283396395307,-0.07754145649774592
15031,8.0,300.75771000000003,5353.678000000001,0.0,0.0,0.0,-0.15243153053775807,0.0,0.0,-0.33935139067887465,-0.6301236097558583,-0.6579094302256053,-1.2615576761310487,-0.33318972562826565,-0.1023612811422719
15032,8.0,299.56705,5105.1968,0.0,0.0,0.0,-0.15244167168143033,0.0,0.0,-0.3336851339996587,-0.5881956651228925,-0.6299715715783534,-1.2693156255216989,-0.2918364356570137,-0.0964295488838555
15033,8.0,299.3106,5164.6128,0.0,0.0,0.0,-0.1524518128251026,0.0,0.0,-0.3176635018284467,-0.6198368616931355,-0.6324129571642995,-1.2741770981764888,-0.29089994938458974,-0.14796783026328786
15034,8.0,299.49056,5243.7096,0.0,0.0,0.0,-0.15246195396877485,0.0,0.0,-0.3298960345882037,-0.6060768746726304,-0.6579838939754544,-1.2681300215796887,-0.29663936272102576,-0.13916744916975787
15035,8.0,298.9702,4836.175,0.0,0.0,0.0,-0.1524720951124471,0.0,0.0,-0.24438175888360178,-0.5725908333803155,-0.6531038484463314,-1.2536704360276387,-0.2887050166204667,-0.18216647008593084
15036,8.0,300.18192999999997,4676.9721,0.0,0.0,0.0,-0.15248223625611937,0.0,0.0,-0.27404661113379475,-0.5627205716386965,-0.5849155718991724,-1.221367718864609,-0.3120078032152727,-0.14093350356405387
15037,8.0,299.97219,5110.0121,0.0,0.0,0.0,-0.15249237739979166,0.0,0.0,-0.3040211328795497,-0.5959817828663224,-0.6533131656519894,-1.2396279042167488,-0.36374070562091265,-0.15142403648688887
15038,8.0,300.97001,5399.1166,0.0,0.0,0.0,-0.1525025185434639,0.0,0.0,-0.37469513483703065,-0.6024257292622904,-0.6640757562266744,-1.2680228197191088,-0.37861176190607165,-0.09643913929605201
15039,8.0,300.57471,5317.7297,0.0,0.0,0.0,-0.15251265968713615,0.0,0.0,-0.3284374509367527,-0.6183169054831273,-0.6697026785370084,-1.2648241918034289,-0.3179909842607667,-0.1198379809870879
15040,8.0,300.02195,5330.2034,0.0,0.0,0.0,-0.1525228008308084,0.0,0.0,-0.3274053138548887,-0.5989847927176964,-0.6938586318485154,-1.2555484950879887,-0.2940331010788077,-0.1207729271193599
15041,8.0,299.73824,5483.868,0.0,0.0,0.0,-0.15253294197448067,0.0,0.0,-0.3201029521067017,-0.6450366247276584,-0.7018193629816784,-1.2817632003501789,-0.3251501231073187,-0.12399296500965289
15042,8.0,300.27542,5483.0424,0.0,0.0,0.0,-0.15254308311815296,0.0,0.0,-0.3648164023245757,-0.6169306780213174,-0.6849609078178783,-1.2713304733455488,-0.3472544982788507,-0.07724042191953613
15043,8.0,299.27421,5332.9621,0.0,0.0,0.0,-0.1525532242618252,0.0,0.0,-0.3306518279702947,-0.6059835036759154,-0.6844519725576503,-1.2626655637903887,-0.3208380954517547,-0.08884841467540582
15044,8.0,297.98384,5074.3458,0.0,0.0,0.0,-0.15256336540549745,0.0,0.0,-0.3371241251040607,-0.5680686981840155,-0.6372816036297974,-1.2374142567232789,-0.3210938296444937,-0.1034798383251649
15045,8.0,298.44445,4915.1333,0.0,0.0,0.0,-0.1525735065491697,0.0,0.0,-0.27950843447283474,-0.5760941253360634,-0.6384752325125994,-1.2822552345987388,-0.35521515848450663,-0.13300999923956489
15046,8.0,299.38736,5342.2754,0.0,0.0,0.0,-0.152583647692842,0.0,0.0,-0.31501719654227667,-0.6229122885291564,-0.6859888500443283,-1.2765369576593886,-0.3218201982436807,-0.15660301106051386
15047,8.0,299.86876,5679.1451,0.0,0.0,0.0,-0.15259378883651425,0.0,0.0,-0.36446679051007164,-0.6302375699946055,-0.7316139517746753,-1.2711029986980988,-0.29690836035757373,-0.15042466791325887
15048,8.0,300.65154,5235.7722,0.0,0.0,0.0,-0.1526039299801865,0.0,0.0,-0.3210002559977587,-0.5855247175942905,-0.6850190582411173,-1.2350133606113287,-0.2924665961592057,-0.15172418143151087
15049,8.0,300.32122999999996,4877.9483,0.0,0.0,0.0,-0.15261407112385875,0.0,0.0,-0.2553189425830178,-0.5932101892052875,-0.6342453693076444,-1.2803819378138588,-0.37848936129399163,-0.1124059232261009
15050,8.0,300.11662,5161.9934,0.0,0.0,0.0,-0.15262421226753103,0.0,0.0,-0.33751635421777065,-0.5751077263637134,-0.6564930079108154,-1.2533827743242487,-0.37094635264705467,-0.08381716690011032
15051,8.0,300.63192999999995,5624.0346,0.0,0.0,0.0,-0.1526343534112033,0.0,0.0,-0.3477818037633917,-0.6511161962551654,-0.7106680761049784,-1.2407928378567188,-0.32614756650575866,-0.10635127765105389
15052,8.0,299.86846,5408.3431,0.0,0.0,0.0,-0.15264449455487555,0.0,0.0,-0.3286377096865167,-0.6147125620949064,-0.7006509842913684,-1.222882223789079,-0.29837552623737174,-0.12422591120764288
15053,8.0,298.8036,5037.3746,0.0,0.0,0.0,-0.15265463569854779,0.0,0.0,-0.2853427792111397,-0.6127867992198485,-0.6331064964602464,-1.2790991631872588,-0.3203172646353527,-0.15053197109884886
15054,8.0,300.95522,5039.9222,0.0,0.0,0.0,-0.15266477684222007,0.0,0.0,-0.2882325887613417,-0.5991907661980244,-0.6445871368507974,-1.2963128638361188,-0.3194299209927787,-0.1315387296968619
15055,8.0,300.9344,5164.9679,0.0,0.0,0.0,-0.15267491798589233,0.0,0.0,-0.31981742836102267,-0.5725411435954114,-0.6776627206601034,-1.265761448145929,-0.30404909858230966,-0.1180839640039799
15056,8.0,301.24868,5382.2439,0.0,0.0,0.0,-0.1526850591295646,0.0,0.0,-0.36024052434297166,-0.6198272662146884,-0.6559999806771574,-1.2576115736165987,-0.3172805642181537,-0.12835392251254588
15057,8.0,300.60321,5255.1643,0.0,0.0,0.0,-0.15269520027323688,0.0,0.0,-0.32483126343334967,-0.5811946844844494,-0.6914127879621295,-1.262339905208249,-0.37113975169364166,-0.13792015856165987
15058,8.0,299.75706,5092.0034,0.0,0.0,0.0,-0.1527053414169091,0.0,0.0,-0.2796326488025937,-0.6179047153424474,-0.6503045221300593,-1.263594916782109,-0.36876487584425965,-0.14730560039543086
15059,8.0,299.8869,5409.8369,0.0,0.0,0.0,-0.15271548256058137,0.0,0.0,-0.3478065068008297,-0.6204320346693744,-0.6762167823699003,-1.2103236980746488,-0.3175753592022477,-0.1296108187315919
15060,8.0,300.08893,5723.2992,0.0,0.0,0.0,-0.15272562370425363,0.0,0.0,-0.3782917876569927,-0.6250722540323284,-0.7363760043296533,-1.259976094049959,-0.3122330183149997,-0.11600657838395789
15061,8.0,299.34789,5361.9212,0.0,0.0,0.0,-0.15273576484792592,0.0,0.0,-0.3454057120138897,-0.6234439408566264,-0.6610405047571184,-1.273643723323849,-0.34636485455854965,-0.0954952623773986
15062,8.0,299.85081,5031.0933,0.0,0.0,0.0,-0.15274590599159818,0.0,0.0,-0.2958375880493967,-0.6029182194733954,-0.6305709394100063,-1.2973273298362387,-0.3352958571536247,-0.09764920309547599
15063,8.0,299.7543,5165.707,0.0,0.0,0.0,-0.1527560471352704,0.0,0.0,-0.29725363546164973,-0.5993366438149214,-0.6736556711521383,-1.2652775198981687,-0.3003736149045677,-0.11415502594622388
15064,8.0,299.31115,5397.0567,0.0,0.0,0.0,-0.15276618827894267,0.0,0.0,-0.34643448510542163,-0.6360628765420184,-0.6580731207792604,-1.2728689922973888,-0.28713218902024074,-0.17228889267858982
15065,8.0,299.71398999999997,5364.8988,0.0,0.0,0.0,-0.15277632942261496,0.0,0.0,-0.36335361368520963,-0.5856677378459055,-0.6817739322783484,-1.2718201771188788,-0.3182373661550827,-0.14509098018186486
15066,8.0,300.35822,4929.1024,0.0,0.0,0.0,-0.15278647056628722,0.0,0.0,-0.2979452597149077,-0.5817826025899725,-0.6185961876081904,-1.2664172236106488,-0.3167409680098997,-0.17813410959046783
15067,8.0,301.22045,4813.6568,0.0,0.0,0.0,-0.15279661170995948,0.0,0.0,-0.3084154161782317,-0.5476452643983796,-0.6071707896130913,-1.235257351235409,-0.29354337704047573,-0.14019527993869688
15068,8.0,301.43272,5185.4175,0.0,0.0,0.0,-0.1528067528536317,0.0,0.0,-0.2984623921684447,-0.5852596108381265,-0.6925154269859514,-1.2618019707301589,-0.3048401429353797,-0.1325966134637669
15069,8.0,301.23236,5619.084,0.0,0.0,0.0,-0.152816893997304,0.0,0.0,-0.3198587689651027,-0.6709423596368553,-0.7172600988705603,-1.2735379400134088,-0.36184505653882665,-0.13790282185244887
15070,8.0,300.25657,5482.783,0.0,0.0,0.0,-0.15282703514097626,0.0,0.0,-0.33625237538052566,-0.6329420459690165,-0.6974346954264453,-1.2853357175527589,-0.36144133716898263,-0.11002174574080088
15071,8.0,299.85322,5158.8584,0.0,0.0,0.0,-0.15283717628464852,0.0,0.0,-0.3037443737472357,-0.5966311748554124,-0.6677885984356033,-1.252605712822559,-0.3181956303834637,-0.14024599310620187
15072,8.0,299.46439,5332.6979,0.0,0.0,0.0,-0.15284731742832078,0.0,0.0,-0.33593590697679265,-0.6302282886236895,-0.6548427984004523,-1.2626883619176388,-0.3080412837113077,-0.12112496060160288
15073,8.0,299.35982,5559.7232,0.0,0.0,0.0,-0.15285745857199304,0.0,0.0,-0.39115703430919363,-0.5887886798764184,-0.7100713123260823,-1.2949570338773089,-0.3389622114479657,-0.08566664420163951
15074,8.0,300.09159,5576.9665,0.0,0.0,0.0,-0.1528675997156653,0.0,0.0,-0.34617777819258666,-0.6526509560491344,-0.6964298350372733,-1.2654801699181688,-0.3404616797409517,-0.10545687165528289
15075,8.0,300.57074,5106.4155,0.0,0.0,0.0,-0.15287774085933756,0.0,0.0,-0.28786520454008374,-0.5546718903968535,-0.7096856896030243,-1.2354085281503289,-0.3224346533693227,-0.1131200213665769
15076,8.0,300.03657999999996,4827.7461,0.0,0.0,0.0,-0.15288788200300982,0.0,0.0,-0.28190864157471673,-0.5408498924702285,-0.6447557416674374,-1.235977265431459,-0.3102563396224167,-0.15219951731842285
15077,8.0,300.02715,5220.657,0.0,0.0,0.0,-0.1528980231466821,0.0,0.0,-0.27852597704337373,-0.6310265574499724,-0.6773968235688613,-1.2841933793900189,-0.36676774976465865,-0.13220901490301387
15078,8.0,299.49005,5504.5853,0.0,0.0,0.0,-0.15290816429035434,0.0,0.0,-0.3707270245304086,-0.6038766324779834,-0.6986528348291663,-1.287723948038459,-0.3350447940438467,-0.14242932415667986
15079,8.0,299.36135,5388.7088,0.0,0.0,0.0,-0.1529183054340266,0.0,0.0,-0.35113956260727663,-0.6036457634426985,-0.6832476032237883,-1.2791915715963789,-0.3023124081759117,-0.11823335759872389
15080,8.0,299.32215,4953.5673,0.0,0.0,0.0,-0.15292844657769886,0.0,0.0,-0.27771448530328574,-0.5632565201465904,-0.6647897530421404,-1.253347614545779,-0.28314417848165474,-0.13894110936241988
15081,8.0,299.93413,5115.9098,0.0,0.0,0.0,-0.15293858772137114,0.0,0.0,-0.29096552693106176,-0.5778467440340335,-0.6862965740996984,-1.2877297235640288,-0.3252555416477227,-0.07622055326988293
15082,8.0,299.78196,5648.1162,0.0,0.0,0.0,-0.1529487288650434,0.0,0.0,-0.3588086398316556,-0.6556391319190443,-0.7024384993227824,-1.2568782845192288,-0.3176702298091107,-0.12940977977925086
15083,8.0,299.44602000000003,5711.6759999999995,0.0,0.0,0.0,-0.15295887000871564,0.0,0.0,-0.36556778806873164,-0.6386233798097204,-0.7320157257043273,-1.235548863289179,-0.3186867223094307,-0.08865230011855083
15084,8.0,298.99252,5155.8864,0.0,0.0,0.0,-0.1529690111523879,0.0,0.0,-0.3400047850058597,-0.6125559707145674,-0.6146999673961634,-1.237986540379759,-0.3234001084621057,-0.15089379257705784
15085,8.0,300.67400000000004,4984.9968,0.0,0.0,0.0,-0.15297915229606018,0.0,0.0,-0.29845200635491975,-0.6046571795600174,-0.6122053659149654,-1.2746899040520987,-0.3703489201230926,-0.1020760309741199
15086,8.0,300.14117000000005,5086.4556,0.0,0.0,0.0,-0.15298929343973244,0.0,0.0,-0.2991479571861047,-0.5818890141154744,-0.6651185223020875,-1.293327727716509,-0.33571176592217167,-0.14029042412308687
15087,8.0,300.16277,5235.9175,0.0,0.0,0.0,-0.1529994345834047,0.0,0.0,-0.30907673412099873,-0.6198873823431215,-0.6626240626759033,-1.286982248965259,-0.3023715414517477,-0.11923328345990888
15088,8.0,299.44161,5062.2016,0.0,0.0,0.0,-0.15300957572707694,0.0,0.0,-0.27750136840975276,-0.6012762274213435,-0.6600052975274514,-1.2951827859995886,-0.3112860651690427,-0.15612611476844787
15089,8.0,298.78766,4940.2426,0.0,0.0,0.0,-0.15301971687074922,0.0,0.0,-0.27427150199348976,-0.5771083886861634,-0.6503304917301224,-1.2905786788701987,-0.35711279353678865,-0.13470549089689687
15090,8.0,299.3653,5199.2153,0.0,0.0,0.0,-0.15302985801442148,0.0,0.0,-0.3430134285277897,-0.6284266792833844,-0.6089915189827835,-1.2625650493804688,-0.3452665623776567,-0.14733349517068386
15091,8.0,300.93958,5638.2397,0.0,0.0,0.0,-0.15303999915809374,0.0,0.0,-0.37463135074323567,-0.6317580834921684,-0.7074946578517863,-1.2463872956338489,-0.30565964948375873,-0.1046801850561299
15092,8.0,300.18647999999996,5621.6953,0.0,0.0,0.0,-0.15305014030176603,0.0,0.0,-0.3723665746497197,-0.6627113643045193,-0.6737770585141184,-1.2577375206040289,-0.30834347542113166,-0.11182491548625989
15093,8.0,299.74698,5181.5679,0.0,0.0,0.0,-0.15306028144543826,0.0,0.0,-0.3029313317344947,-0.6039136971666414,-0.6682222289483993,-1.266380037331979,-0.3337556866041217,-0.10200991640509491
15094,8.0,299.25036,4958.5062,0.0,0.0,0.0,-0.15307042258911052,0.0,0.0,-0.27203610002037276,-0.5779937463585414,-0.6572322042562684,-1.2647736306234387,-0.3061176385289587,-0.11661036398604689
15095,8.0,299.00167000000005,5320.37,0.0,0.0,0.0,-0.15308056373278278,0.0,0.0,-0.30857788069926567,-0.6273409210062284,-0.6813408286556043,-1.2295587313479988,-0.3023445079390797,-0.15204615178328687
15096,8.0,299.23973,5411.637,0.0,0.0,0.0,-0.15309070487645507,0.0,0.0,-0.36275134795827063,-0.6154691255470734,-0.6667820560512653,-1.2640131864233888,-0.3161254084416487,-0.11451905630965088
15097,8.0,299.40382999999997,5031.9926,0.0,0.0,0.0,-0.1531008460201273,0.0,0.0,-0.29448591241599675,-0.5910935502763914,-0.6440206185873864,-1.2636517601127186,-0.3274207963164167,-0.13531587275713688
15098,8.0,299.42877999999996,4869.9107,0.0,0.0,0.0,-0.15311098716379956,0.0,0.0,-0.28675387183040374,-0.5631247165735824,-0.6304526728583344,-1.2679950566663687,-0.31701649097709167,-0.12030860526103487
15099,8.0,299.90655,5196.698,0.0,0.0,0.0,-0.15312112830747182,0.0,0.0,-0.3161092876325577,-0.5873580112652224,-0.6761991315531584,-1.2502277161628688,-0.2989102487126447,-0.12436819178668489
15100,8.0,300.21551,5515.3934,0.0,0.0,0.0,-0.15313126945114408,0.0,0.0,-0.3060749908322497,-0.6648844716614883,-0.7055824218655634,-1.2683702631783988,-0.32667088991740667,-0.14028146699220287
15101,8.0,300.18357000000003,5539.9315,0.0,0.0,0.0,-0.15314141059481634,0.0,0.0,-0.3422283015553037,-0.6388062410552674,-0.7029662911673713,-1.2636175122593387,-0.33391287209213466,-0.13014959420726488
15102,8.0,299.84557,5368.3525,0.0,0.0,0.0,-0.15315155173848863,0.0,0.0,-0.33989732983275467,-0.6371624758155404,-0.6547853065897784,-1.2594611603491386,-0.3262731993856577,-0.13737733008558686
15103,8.0,299.18062000000003,5186.7753,0.0,0.0,0.0,-0.15316169288216086,0.0,0.0,-0.3099886389459967,-0.6137441888418355,-0.6529173293679235,-1.2265890979549188,-0.3121593347677277,-0.11674485267181989
15104,8.0,299.53719,5163.8662,0.0,0.0,0.0,-0.15317183402583312,0.0,0.0,-0.3270460660319337,-0.5819597491049555,-0.6606805679240954,-1.2679268649346387,-0.32527520883216365,-0.10656275307942491
15105,8.0,300.24025,5296.9455,0.0,0.0,0.0,-0.15318197516950538,0.0,0.0,-0.3271295983701777,-0.6085802812971974,-0.6744292876034883,-1.2558221739399988,-0.35320159748828367,-0.1053789223250899
15106,8.0,300.33943999999997,5193.1708,0.0,0.0,0.0,-0.15319211631317767,0.0,0.0,-0.2825868807941537,-0.6019435438047024,-0.6940638251262663,-1.2257625898483488,-0.3382731000549557,-0.13417125478167188
15107,8.0,299.53839,5095.8103,0.0,0.0,0.0,-0.15320225745684993,0.0,0.0,-0.3147700344453837,-0.5785544080363745,-0.6556746463350493,-1.231314288471259,-0.3274737386341417,-0.13157710147814888
15108,8.0,298.15637000000004,5261.723000000001,0.0,0.0,0.0,-0.15321239860052216,0.0,0.0,-0.3152970359548947,-0.6191208687749724,-0.6650145020468213,-1.2416089094872589,-0.3468290953568667,-0.1322699416315269
15109,8.0,298.41238,5388.9401,0.0,0.0,0.0,-0.15322253974419442,0.0,0.0,-0.32615576369906774,-0.6019209280624704,-0.7100265570691653,-1.2918717886478186,-0.34337742849371367,-0.13096971883820488
15110,8.0,300.09373,5287.8802,0.0,0.0,0.0,-0.1532326808878667,0.0,0.0,-0.34975989087361364,-0.5908499446873494,-0.6667737170029423,-1.2835966764061288,-0.3045456823238187,-0.1028922647246759
15111,8.0,300.6437,5153.1427,0.0,0.0,0.0,-0.15324282203153897,0.0,0.0,-0.30946301545662175,-0.5862238297657875,-0.6707398514718693,-1.264147948686689,-0.29694567835875674,-0.14513823816652888
15112,8.0,300.00851,5292.196999999999,0.0,0.0,0.0,-0.15325296317521125,0.0,0.0,-0.3191153777642357,-0.6038516659955194,-0.6857286879486524,-1.2738957186237188,-0.31846171999222467,-0.1011818377608699
15113,8.0,300.66065,5381.4213,0.0,0.0,0.0,-0.15326310431888346,0.0,0.0,-0.3369040269173387,-0.6383637750015994,-0.6605498789261974,-1.2787146347743088,-0.34292105051617267,-0.12917504012858388
15114,8.0,300.18708,5508.9165,0.0,0.0,0.0,-0.15327324546255575,0.0,0.0,-0.37206751388270465,-0.6258464784337384,-0.6766590457735484,-1.2472651755204887,-0.3430007932990427,-0.10571189657295191
15115,8.0,300.40051,5407.8516,0.0,0.0,0.0,-0.153283386606228,0.0,0.0,-0.3311468817041527,-0.6373938717408775,-0.6753110989005163,-1.224263891625439,-0.3175432999690837,-0.13740138464296087
15116,8.0,299.85175,4936.2599,0.0,0.0,0.0,-0.1532935277499003,0.0,0.0,-0.3039163020242037,-0.5835670880035875,-0.6130163712950054,-1.2456175295328789,-0.3275125765104747,-0.13409942548208287
15117,8.0,299.70179,5123.7257,0.0,0.0,0.0,-0.15330366889357253,0.0,0.0,-0.26550040382784973,-0.5874060190549605,-0.7045782504864593,-1.2791299659902988,-0.3246338113863627,-0.13510279639360787
15118,8.0,300.14153,5372.401999999999,0.0,0.0,0.0,-0.15331381003724479,0.0,0.0,-0.3324064529034627,-0.6212747041150394,-0.6793949122360574,-1.2562349720307386,-0.3037243113952557,-0.16030294446316884
15119,8.0,299.41677000000004,5130.749,0.0,0.0,0.0,-0.15332395118091705,0.0,0.0,-0.3087810069468127,-0.6009850700051085,-0.6498534941130464,-1.2529418078807288,-0.3080840226005257,-0.13662320856616086
15120,8.0,299.95482000000004,4877.2856,0.0,0.0,0.0,-0.15333409232458933,0.0,0.0,-0.28916624806598673,-0.5693286645508645,-0.6240781340942164,-1.2662525704693988,-0.3231134600088157,-0.16886312448799282
15121,8.0,299.84488999999996,5165.1489,0.0,0.0,0.0,-0.15334423346826156,0.0,0.0,-0.3178039585573087,-0.6031957081457814,-0.6490766048638733,-1.2710427103171489,-0.3435637449221017,-0.1065471895578889
15122,8.0,299.19395,5446.8001,0.0,0.0,0.0,-0.15335437461193385,0.0,0.0,-0.3673329001404347,-0.5891005278596955,-0.6992577958013714,-1.2591245586659188,-0.3197848422378067,-0.1119890822674619
15123,8.0,298.77808,5468.0948,0.0,0.0,0.0,-0.15336451575560608,0.0,0.0,-0.3225539331710947,-0.6340283311362245,-0.7055820266980243,-1.2630251662508787,-0.3421948440370017,-0.1105921244870929
15124,8.0,300.00484,5283.5955,0.0,0.0,0.0,-0.15337465689927837,0.0,0.0,-0.34657547885683665,-0.5952168702333315,-0.6642887515301953,-1.2683148383979288,-0.33572003404298767,-0.12098255843254888
15125,8.0,299.5471,5200.0666,0.0,0.0,0.0,-0.1533847980429506,0.0,0.0,-0.33089810853960067,-0.5682084355053065,-0.6815838668245904,-1.2647292502690588,-0.34359066697725865,-0.08636931490748773
15126,8.0,299.98262,5268.5286,0.0,0.0,0.0,-0.1533949391866229,0.0,0.0,-0.3400816400259447,-0.6047383814230315,-0.6566811177918804,-1.234516665412309,-0.3293584243501457,-0.13203671172350886
15127,8.0,299.75119,5336.5253,0.0,0.0,0.0,-0.15340508033029515,0.0,0.0,-0.3342051947459847,-0.5837105540852464,-0.7042546893320263,-1.2548758996716087,-0.3123567158872077,-0.099151457826237
15128,8.0,300.20027000000005,5064.4897,0.0,0.0,0.0,-0.1534152214739674,0.0,0.0,-0.2872989395891977,-0.5939566302889554,-0.6582228284815353,-1.2770747908124687,-0.34795830179831067,-0.12524462272568188
15129,8.0,300.34794,4767.9563,0.0,0.0,0.0,-0.15342536261763964,0.0,0.0,-0.2236251178025808,-0.5691176552175394,-0.6565968863110674,-1.2726598574767487,-0.3247744201027397,-0.14493070428104687
15130,8.0,300.17271,5060.6345,0.0,0.0,0.0,-0.15343550376131193,0.0,0.0,-0.3247729508900947,-0.5732707444624174,-0.6402628286040214,-1.2755622110631888,-0.29972526656308074,-0.15685539139542187
15131,8.0,300.2375,5611.1506,0.0,0.0,0.0,-0.1534456449049842,0.0,0.0,-0.3876444204525256,-0.6308216580147503,-0.6871835833697394,-1.2520583551185387,-0.2988435667235637,-0.16598936481937485
15132,8.0,298.63392000000005,5379.5874,0.0,0.0,0.0,-0.15345578604865648,0.0,0.0,-0.3412609314198317,-0.6108428282404934,-0.6831564816422954,-1.3140862838402187,-0.33873518263055963,-0.13460945505241886
15133,8.0,298.94187999999997,5004.3825,0.0,0.0,0.0,-0.15346592719232868,0.0,0.0,-0.3054254772531477,-0.5877272598666645,-0.6280545834491613,-1.278976762575179,-0.3236401879407997,-0.11922410341400289
15134,8.0,300.07209,5158.4679,0.0,0.0,0.0,-0.15347606833600097,0.0,0.0,-0.28552831543695073,-0.5771689607771415,-0.7053481584424433,-1.2624652442456188,-0.2944305180330297,-0.1026424985750259
15135,8.0,299.53472999999997,5476.0837,0.0,0.0,0.0,-0.15348620947967323,0.0,0.0,-0.34060285587738465,-0.6206780821911574,-0.7033117689214674,-1.252737435335559,-0.3188480621228537,-0.1060697258457669
15136,8.0,299.11707,5571.6539,0.0,0.0,0.0,-0.15349635062334552,0.0,0.0,-0.37312283412685665,-0.6455294290462944,-0.6749914083614653,-1.2592844495316988,-0.34347231936557865,-0.1252386952125969
15137,8.0,299.32611,5358.8738,0.0,0.0,0.0,-0.15350649176701775,0.0,0.0,-0.3484266057295287,-0.6195472950795574,-0.6609899435771284,-1.2697666231412088,-0.34174710908281364,-0.1136055100194909
15138,8.0,299.17359,5006.9662,0.0,0.0,0.0,-0.15351663291069,0.0,0.0,-0.2980216790374497,-0.5742810358721254,-0.6496899859444094,-1.2399957140030489,-0.3142325052673337,-0.13459726565371585
15139,8.0,299.67264,4978.3672,0.0,0.0,0.0,-0.15352677405436227,0.0,0.0,-0.2830772229150467,-0.5885039262008155,-0.6417181799876535,-1.268444838385759,-0.33036221069421173,-0.11934560223349389
15140,8.0,300.85407999999995,5394.0853,0.0,0.0,0.0,-0.15353691519803456,0.0,0.0,-0.31600423386218973,-0.6113578227363193,-0.7123051944240493,-1.282831875230649,-0.35767786285255665,-0.10042333697451171
15141,8.0,300.05796000000004,5216.5674,0.0,0.0,0.0,-0.1535470563417068,0.0,0.0,-0.31678625015686873,-0.5873552552249505,-0.6815647265302014,-1.2891851560076688,-0.34455866532779267,-0.1043154758151359
15142,8.0,299.24171,5021.1947,0.0,0.0,0.0,-0.15355719748537908,0.0,0.0,-0.3188200153600857,-0.5885605060863994,-0.6189372881218543,-1.2824039797134186,-0.3100712188291467,-0.12892396688630486
15143,8.0,298.93982,5368.7666,0.0,0.0,0.0,-0.1535673386290513,0.0,0.0,-0.36304495743974763,-0.6049957368159304,-0.6639303041748194,-1.2741567318494789,-0.3193727230246337,-0.14009456287875688
15144,8.0,299.22451,5684.9698,0.0,0.0,0.0,-0.1535774797727236,0.0,0.0,-0.36867305512019766,-0.6612651119067854,-0.6981506984771093,-1.2678895773309589,-0.34862988396459066,-0.1145163104018799
15145,8.0,298.71236,5478.034000000001,0.0,0.0,0.0,-0.15358762091639583,0.0,0.0,-0.33545568722439867,-0.6399842050915234,-0.6897456571750963,-1.260528821979509,-0.3201451235758637,-0.14159238970658086
15146,8.0,299.94396,5201.5836,0.0,0.0,0.0,-0.15359776206006812,0.0,0.0,-0.2701822677699137,-0.5950727455391074,-0.7158965175484854,-1.2297338209652788,-0.3279926442753537,-0.10137345348728091
15147,8.0,300.18153,4961.5779,0.0,0.0,0.0,-0.15360790320374038,0.0,0.0,-0.2753449188844277,-0.5943236396076764,-0.6385272223752304,-1.2439886286721187,-0.3381203829998837,-0.15112741765261486
15148,8.0,300.49796000000003,4975.8127,0.0,0.0,0.0,-0.15361804434741264,0.0,0.0,-0.2987032923797197,-0.5826966960351864,-0.6311228364744744,-1.2377931109356688,-0.36279043914712866,-0.11291862777670089
15149,8.0,300.3204,5128.2093,0.0,0.0,0.0,-0.15362818549108487,0.0,0.0,-0.3287101874661697,-0.6031567081494325,-0.6269806700656744,-1.2520730472449888,-0.34260264680474867,-0.17750443544832384
15150,8.0,300.23928,5317.0498,0.0,0.0,0.0,-0.15363832663475716,0.0,0.0,-0.3427772500619807,-0.5987864996731265,-0.6746866227313854,-1.2391085122154888,-0.2981505137876647,-0.13648111037213687
15151,8.0,299.94282000000004,5024.2017,0.0,0.0,0.0,-0.15364846777842942,0.0,0.0,-0.2838945611082117,-0.5848942632495694,-0.6584430381257683,-1.272596630670509,-0.3162723297061487,-0.14270969045934986
15152,8.0,299.18305,5066.6561,0.0,0.0,0.0,-0.1536586089221017,0.0,0.0,-0.2691554299860728,-0.6042458608144234,-0.6667356491966854,-1.2842885235744088,-0.3171824005484657,-0.11383609534474788
15153,8.0,298.76071,5611.7686,0.0,0.0,0.0,-0.1536687500657739,0.0,0.0,-0.37190777500443967,-0.6099704908319004,-0.7239592525692152,-1.2918560832712689,-0.3184621658222687,-0.09260182539183862
15154,8.0,299.08491000000004,5777.0742,0.0,0.0,0.0,-0.1536788912094462,0.0,0.0,-0.4185996163075656,-0.6285325335213314,-0.7089541534283273,-1.2544887368083988,-0.3109959412679097,-0.0967456940608066
15155,8.0,299.79254,5408.6186,0.0,0.0,0.0,-0.15368903235311845,0.0,0.0,-0.34214691730727165,-0.6260757769313684,-0.6758623170874173,-1.2582180038014488,-0.3504226476315227,-0.13329001090469988
15156,8.0,300.63599,5247.8593,0.0,0.0,0.0,-0.15369917349679074,0.0,0.0,-0.3326480522573067,-0.5981665527319424,-0.6644035831640284,-1.2408293148603187,-0.36589633441365665,-0.13190054104256987
15157,8.0,299.65876000000003,5184.9589,0.0,0.0,0.0,-0.153709314640463,0.0,0.0,-0.2956189286778167,-0.6078875323363284,-0.6725915761621203,-1.2283676558554488,-0.3411870756200427,-0.1061506136012499
15158,8.0,298.46271,5109.4184,0.0,0.0,0.0,-0.15371945578413523,0.0,0.0,-0.2913269836392347,-0.5840491214736605,-0.6777595063096554,-1.2239690358463386,-0.31683168429135267,-0.12475035932690189
15159,8.0,299.25201,5136.1792,0.0,0.0,0.0,-0.1537295969278075,0.0,0.0,-0.3250694278693547,-0.5873632295032375,-0.6488375690327823,-1.2502460559896789,-0.32622137164304266,-0.09924333731880482
15160,8.0,299.77181,5188.0897,0.0,0.0,0.0,-0.15373973807147978,0.0,0.0,-0.3142725995737907,-0.6266772725882314,-0.6360998500381674,-1.2697708787916289,-0.33854354663914665,-0.12998415073093686
15161,8.0,300.47688,5349.2306,0.0,0.0,0.0,-0.153749879215152,0.0,0.0,-0.3299664048076487,-0.6439199217924484,-0.6521462156443204,-1.256096866042109,-0.3002311620730087,-0.14870337890838084
15162,8.0,301.241,5617.3935,0.0,0.0,0.0,-0.1537600203588243,0.0,0.0,-0.37211288722218266,-0.6277714712387203,-0.7076629992234004,-1.2468762901321089,-0.28897434862954774,-0.16472121139171786
15163,8.0,300.33069,5911.7221,0.0,0.0,0.0,-0.15377016150249653,0.0,0.0,-0.36250976886942865,-0.6958653838040663,-0.7386407601581673,-1.2603979100665887,-0.2994687926977687,-0.15848780823402886
15164,8.0,301.07321,5288.0662,0.0,0.0,0.0,-0.15378030264616882,0.0,0.0,-0.31287615855097267,-0.6089766951338204,-0.6855872281021913,-1.2821833951666488,-0.34282898661208666,-0.1251781433866209
15165,8.0,300.28837000000004,4795.7172,0.0,0.0,0.0,-0.15379044378984105,0.0,0.0,-0.27667329989802875,-0.5824059641839935,-0.5986990156594925,-1.2548208801911789,-0.3358595180517537,-0.13885052480347987
15166,8.0,300.95766000000003,5180.798,0.0,0.0,0.0,-0.15380058493351334,0.0,0.0,-0.3442364416634917,-0.5724955372084104,-0.6581012486020363,-1.2349946154844789,-0.3335349298048347,-0.1209324633476049
15167,8.0,300.50942000000003,5461.7576,0.0,0.0,0.0,-0.1538107260771856,0.0,0.0,-0.35520291842329865,-0.6003881745036994,-0.7046468373857283,-1.2362268289310887,-0.34127059782578567,-0.1257023483258559
15168,8.0,300.10483,5200.4739,0.0,0.0,0.0,-0.15382086722085786,0.0,0.0,-0.2985363087632397,-0.6301488599483505,-0.6521290309226243,-1.2666494605335687,-0.34523336830438067,-0.14036536410048286
15169,8.0,300.17439,5149.6936,0.0,0.0,0.0,-0.1538310083645301,0.0,0.0,-0.2661319220851758,-0.5958128234121474,-0.7034335210534833,-1.245840849854919,-0.32890043530494567,-0.13236576469348388
15170,8.0,300.39662000000004,5489.4091,0.0,0.0,0.0,-0.15384114950820238,0.0,0.0,-0.3401611092312877,-0.6222045130693045,-0.7062776836866803,-1.2639042620376386,-0.2951247767365477,-0.1080600023546919
15171,8.0,299.62227,5713.5898,0.0,0.0,0.0,-0.15385129065187464,0.0,0.0,-0.4007020934312176,-0.6464925030013423,-0.6895940242976314,-1.271881377424919,-0.31985849538757566,-0.08836881604532311
15172,8.0,299.81244,5738.1702,0.0,0.0,0.0,-0.15386143179554693,0.0,0.0,-0.3737062230044326,-0.6587793257014574,-0.7117748897192123,-1.2956547578961688,-0.3321188114650747,-0.085029102172469
15173,8.0,299.51885,5313.0191,0.0,0.0,0.0,-0.15387157293921913,0.0,0.0,-0.34535258731114665,-0.6094100216715864,-0.6602625313303384,-1.2874011265565988,-0.3238319252572227,-0.11297962543272089
15174,8.0,299.27082,4980.1414,0.0,0.0,0.0,-0.15388171408289142,0.0,0.0,-0.26507278188814676,-0.5773201984870674,-0.6714456409615254,-1.2673877145564287,-0.3114398360042187,-0.12225153259278689
15175,8.0,300.11982,5013.8303,0.0,0.0,0.0,-0.15389185522656368,0.0,0.0,-0.2792005482974487,-0.5768724837978815,-0.6680061837620774,-1.2898602845492988,-0.31276114453212167,-0.15049714569291184
15176,8.0,299.46859,5334.9181,0.0,0.0,0.0,-0.15390199637023597,0.0,0.0,-0.3312861022678927,-0.6225798006413423,-0.6678159764533054,-1.2895068629144186,-0.3238433547183507,-0.12276430807089389
15177,8.0,300.02362999999997,5175.2817,0.0,0.0,0.0,-0.15391213751390823,0.0,0.0,-0.3265775290531927,-0.5903692892374124,-0.6562095815928434,-1.2793276510848088,-0.3293836745426377,-0.13254048954072786
15178,8.0,300.52688,4965.8603,0.0,0.0,0.0,-0.15392227865758046,0.0,0.0,-0.24944582076338576,-0.6195319544730434,-0.6405197685643794,-1.2442522763481387,-0.31974293421367067,-0.1114715343813839
15179,8.0,300.95308,5255.3701,0.0,0.0,0.0,-0.15393241980125272,0.0,0.0,-0.3078404676739887,-0.6089980139159243,-0.6806627920861874,-1.2297942106712387,-0.35252413847142366,-0.1356586350009649
15180,8.0,301.48492000000005,5753.889,0.0,0.0,0.0,-0.153942560944925,0.0,0.0,-0.33967657303346765,-0.6629621943667744,-0.7463998139914263,-1.2582335065279788,-0.3535299107856857,-0.11094964978487791
15181,8.0,300.41452999999996,5537.3486,0.0,0.0,0.0,-0.15395270208859727,0.0,0.0,-0.32352120198155665,-0.6522434471239164,-0.7074510475674823,-1.2532561180617487,-0.33464303024669567,-0.15331662555367284
15182,8.0,300.20116,5292.1228,0.0,0.0,0.0,-0.1539628432322695,0.0,0.0,-0.34986149959364166,-0.6070713087182734,-0.6517403887142684,-1.2781561313191887,-0.31386996438155373,-0.0993847475160109
15183,8.0,299.90709,5194.455,0.0,0.0,0.0,-0.15397298437594176,0.0,0.0,-0.34889217388547666,-0.6017984767878855,-0.6282939637852863,-1.2947098008529088,-0.3212829021131537,-0.12835255462491088
15184,8.0,299.95821,5209.9486,0.0,0.0,0.0,-0.15398312551961404,0.0,0.0,-0.33102779441989966,-0.6044139590060134,-0.6482525184250424,-1.2991614138422487,-0.3281512888435107,-0.12168017099389787
15185,8.0,300.03177999999997,5373.2111,0.0,0.0,0.0,-0.1539932666632863,0.0,0.0,-0.32291266423649867,-0.6086868245452125,-0.7017225266696213,-1.2816644084654287,-0.3108799139989587,-0.1313652815447439
15186,8.0,298.89447,5198.7899,0.0,0.0,0.0,-0.15400340780695856,0.0,0.0,-0.2878893908199707,-0.6106953294234364,-0.6817175955727883,-1.2506316989777388,-0.3095477940924887,-0.12342455196855487
15187,8.0,298.78597,4894.6311,0.0,0.0,0.0,-0.15401354895063082,0.0,0.0,-0.26609184804372077,-0.5801626791250984,-0.6415911184251134,-1.262891923862729,-0.3312190251112727,-0.12385415987845387
15188,8.0,300.49432,5356.0578,0.0,0.0,0.0,-0.15402369009430308,0.0,0.0,-0.37497313013446665,-0.6042842832582155,-0.6488504271765514,-1.2727534817859887,-0.31864141989745964,-0.1304755567644349
15189,8.0,300.19081,5768.8988,0.0,0.0,0.0,-0.15403383123797534,0.0,0.0,-0.4037578834803006,-0.6398683095450854,-0.7099749927715763,-1.2752591479582789,-0.3374944376181077,-0.09027723714491961
15190,8.0,300.58671,5427.8455,0.0,0.0,0.0,-0.1540439723816476,0.0,0.0,-0.34836666185361265,-0.6087118720876844,-0.6928509546240653,-1.2566289236696186,-0.32298304458844473,-0.1035943659839679
15191,8.0,301.05778,5229.9386,0.0,0.0,0.0,-0.15405411352531986,0.0,0.0,-0.28482644722518174,-0.5874897337782224,-0.7174545516972513,-1.2716961553066386,-0.33698298949763167,-0.08235838262513952
15192,8.0,299.49784,5273.673000000001,0.0,0.0,0.0,-0.15406425466899212,0.0,0.0,-0.2855044837945987,-0.6075877116317384,-0.7099727129588513,-1.2460771397782386,-0.3366828546855107,-0.12189576021767487
15193,8.0,299.61953,5465.4625,0.0,0.0,0.0,-0.15407439581266438,0.0,0.0,-0.33125595807741764,-0.6082070202253594,-0.7219011490985963,-1.2749694597546888,-0.3232300850953257,-0.0971549893459509
15194,8.0,299.7857,5430.1877,0.0,0.0,0.0,-0.15408453695633664,0.0,0.0,-0.3961042177899426,-0.6134974219124815,-0.6410398293107054,-1.2787550634532987,-0.31683010362119673,-0.16205060836814986
15195,8.0,299.26478,5173.1823,0.0,0.0,0.0,-0.1540946781000089,0.0,0.0,-0.34178075911863465,-0.6009913622882295,-0.6297461132986024,-1.3000526686302087,-0.3185504300384797,-0.13345303271328887
15196,8.0,299.80005,4997.8572,0.0,0.0,0.0,-0.15410481924368116,0.0,0.0,-0.3130542676535507,-0.6060648575264445,-0.6001046873907214,-1.2890535348196788,-0.3219138326854217,-0.18082296124833683
15197,8.0,300.31487000000004,5234.0501,0.0,0.0,0.0,-0.15411496038735345,0.0,0.0,-0.2883325762812097,-0.6140218193692354,-0.6886661506510574,-1.2384048100210387,-0.3116759131450177,-0.11932313847877689
15198,8.0,299.96473,5676.7582,0.0,0.0,0.0,-0.15412510153102568,0.0,0.0,-0.3223210882981147,-0.6573562260685084,-0.7459154196486203,-1.2522482381872788,-0.3158367030906557,-0.13516002475925587
15199,8.0,301.00397000000004,5753.8972,0.0,0.0,0.0,-0.15413524267469794,0.0,0.0,-0.36182172138902363,-0.6342528876233864,-0.7529664751070053,-1.2452189169435388,-0.3179131058580807,-0.09376508818239372
15200,8.0,301.16292999999996,5258.0312,0.0,0.0,0.0,-0.15414538381837023,0.0,0.0,-0.36179459668384667,-0.5766106599720414,-0.6599049351050464,-1.2659524457897788,-0.3387136308009327,-0.12320349119423789
15201,8.0,299.58637999999996,5353.2374,0.0,0.0,0.0,-0.1541555249620425,0.0,0.0,-0.34621818660657466,-0.6003312906430854,-0.6807010321449614,-1.244057428353909,-0.3103825399223717,-0.09654451933295222
15202,8.0,299.28212,5572.875,0.0,0.0,0.0,-0.15416566610571472,0.0,0.0,-0.4024876934199426,-0.5814392931910904,-0.7100878688327164,-1.2586539039944689,-0.3280593870594407,-0.11135722963760289
15203,8.0,299.31347,5477.6587,0.0,0.0,0.0,-0.15417580724938698,0.0,0.0,-0.3182471338860467,-0.6172181776046913,-0.7296061460390203,-1.2564016516721888,-0.3215085934404277,-0.09665056912816851
15204,8.0,299.07344,5113.6988,0.0,0.0,0.0,-0.15418594839305924,0.0,0.0,-0.2774681642039757,-0.5938851657594024,-0.6830834161775844,-1.271978548109509,-0.33454452207197366,-0.14934191898889987
15205,8.0,300.0741,5112.7727,0.0,0.0,0.0,-0.15419608953673153,0.0,0.0,-0.32512506543234565,-0.5724838139047534,-0.6565463656610814,-1.2788508155877487,-0.3184334604469357,-0.11484952782976589
15206,8.0,299.52322000000004,5111.3496,0.0,0.0,0.0,-0.15420623068040376,0.0,0.0,-0.3359679256799527,-0.6195788071576674,-0.5981759050303654,-1.2899278683309687,-0.31928173316565367,-0.14817085518582485
15207,8.0,298.97706,5251.7434,0.0,0.0,0.0,-0.15421637182407605,0.0,0.0,-0.3404332276781437,-0.5973342589673014,-0.6586313709218553,-1.2813657023359488,-0.33319908805918974,-0.13945831274346385
15208,8.0,299.99463,5652.9997,0.0,0.0,0.0,-0.1542265129677483,0.0,0.0,-0.38733890528237364,-0.6264207683254164,-0.7046110797896994,-1.2521591735034887,-0.3329984240093857,-0.13194332046179189
15209,8.0,299.67944,5306.9071,0.0,0.0,0.0,-0.15423665411142057,0.0,0.0,-0.28860842348843374,-0.5916891285526704,-0.7328697030211083,-1.2405690109096288,-0.3124453347409537,-0.12218208443093288
15210,8.0,300.37947,5080.1779,0.0,0.0,0.0,-0.1542467952550928,0.0,0.0,-0.24198830002738578,-0.5933765851367093,-0.7088823342612393,-1.245638098509909,-0.32015774867210967,-0.11490671566540991
15211,8.0,301.3177,5478.8513,0.0,0.0,0.0,-0.1542569363987651,0.0,0.0,-0.34613388419825464,-0.6033653667425254,-0.7159347373422573,-1.255979025055479,-0.32752921407711666,-0.1110647549962379
15212,8.0,300.89647,5549.1213,0.0,0.0,0.0,-0.15426707754243735,0.0,0.0,-0.3678331113173016,-0.6360640823096374,-0.6828971200141983,-1.2545295707874289,-0.34459433173131265,-0.11270867222347988
15213,8.0,300.12046000000004,5193.0163,0.0,0.0,0.0,-0.1542772186861096,0.0,0.0,-0.34662554354427766,-0.6091858400869614,-0.6227359120842494,-1.2490565003722789,-0.3316599814222917,-0.14814509836828285
15214,8.0,300.31059,5222.9502,0.0,0.0,0.0,-0.15428735982978184,0.0,0.0,-0.3121865911954177,-0.6226760695333434,-0.6527837931372444,-1.2711972309573987,-0.3392665208504987,-0.12961377742188387
15215,8.0,299.44101,5358.8677,0.0,0.0,0.0,-0.15429750097345413,0.0,0.0,-0.27476010132421075,-0.6534316044561784,-0.7007702742256413,-1.2875134959926886,-0.3443402997987417,-0.16011631392724984
15216,8.0,299.49946,5432.028,0.0,0.0,0.0,-0.1543076421171264,0.0,0.0,-0.29445051959000373,-0.6394666065429404,-0.7172837582603954,-1.2887248364872386,-0.3377810860713977,-0.14321862571957786
15217,8.0,299.05522,5443.0138,0.0,0.0,0.0,-0.15431778326079867,0.0,0.0,-0.3750568448577286,-0.6121294329524714,-0.6673539952027113,-1.2865209161947289,-0.3002123257536497,-0.14248057434673786
15218,8.0,299.1366,5209.6179,0.0,0.0,0.0,-0.15432792440447088,0.0,0.0,-0.3366982662195317,-0.5933742647939805,-0.6535212061625214,-1.2695344875432988,-0.3155843936832547,-0.1079373079000829
15219,8.0,299.87445,5193.6131,0.0,0.0,0.0,-0.15433806554814317,0.0,0.0,-0.3442083138407157,-0.5868469684447865,-0.6476734155953895,-1.2858797315314487,-0.3443333590355567,-0.0973580770899941
15220,8.0,299.8258,5498.366999999999,0.0,0.0,0.0,-0.15434820669181543,0.0,0.0,-0.3336800576166577,-0.6217247087494514,-0.7159614972773983,-1.256535502010399,-0.33014664173543673,-0.10055766961976931
15221,8.0,300.10785,5770.6583,0.0,0.0,0.0,-0.1543583478354877,0.0,0.0,-0.34180707322373166,-0.6344671697545343,-0.7778617970164823,-1.2551422831228989,-0.3286633449140467,-0.08973941007134022
15222,8.0,300.46918,5336.5441,0.0,0.0,0.0,-0.15436848897915995,0.0,0.0,-0.31608857680051367,-0.6078518254028044,-0.6982357608230043,-1.253376188198599,-0.3339829383365497,-0.12483658691041187
15223,8.0,301.15935,5107.8508,0.0,0.0,0.0,-0.1543786301228322,0.0,0.0,-0.32549492198384766,-0.5988407794809835,-0.6283234088331924,-1.2974385846972187,-0.3215464991266687,-0.13406569438625388
15224,8.0,300.71322999999995,5473.9963,0.0,0.0,0.0,-0.15438877126650447,0.0,0.0,-0.3560165683860997,-0.6433581962020104,-0.6645834350567783,-1.2880619682718186,-0.3390153462832097,-0.14979307872842584
15225,8.0,300.68761,5594.7687,0.0,0.0,0.0,-0.15439891241017675,0.0,0.0,-0.39325047994330065,-0.6309703322019234,-0.6764491814128364,-1.2760488750862187,-0.3140156798784347,-0.13978592689829686
15226,8.0,300.86793,5370.3902,0.0,0.0,0.0,-0.15440905355384899,0.0,0.0,-0.30748838352924074,-0.6423241643424594,-0.6826519540200023,-1.266807020924119,-0.3247979275050597,-0.13636628887080487
15227,8.0,299.78695,5129.7191,0.0,0.0,0.0,-0.15441919469752127,0.0,0.0,-0.2619859661210017,-0.6147827803268364,-0.6825377809987343,-1.247059688400209,-0.32969587716344967,-0.12175660044894088
15228,8.0,300.08898999999997,5137.934,0.0,0.0,0.0,-0.1544293358411935,0.0,0.0,-0.3139378622707547,-0.6010499686740134,-0.6468158007107494,-1.2809036602903487,-0.3205223464555927,-0.12059370344167189
15229,8.0,299.45932999999997,5479.5997,0.0,0.0,0.0,-0.1544394769848658,0.0,0.0,-0.35706151294922767,-0.6400563991611483,-0.6685435609526124,-1.2681825079348688,-0.2935092406446067,-0.09233717662471981
15230,8.0,299.89325,5655.6996,0.0,0.0,0.0,-0.15444961812853802,0.0,0.0,-0.3925766382292976,-0.6340433171052035,-0.6925714901139843,-1.295276207658809,-0.3125584033196127,-0.11833635447138888
15231,8.0,299.38451000000003,5462.8372,0.0,0.0,0.0,-0.1544597592722103,0.0,0.0,-0.35988722429810366,-0.6195206769994305,-0.6811582004575804,-1.2594353224715888,-0.3049342434721667,-0.0922969171584965
15232,8.0,300.08194,5135.1643,0.0,0.0,0.0,-0.15446990041588257,0.0,0.0,-0.28234171479995773,-0.5914798518770163,-0.6871401453379523,-1.2709745185854187,-0.34031773743174565,-0.14573194193012287
15233,8.0,299.45142000000004,5421.4026,0.0,0.0,0.0,-0.15448004155955483,0.0,0.0,-0.29842031189179175,-0.6356007129064064,-0.7139499931788783,-1.2317536337146189,-0.3166098129169557,-0.1107612257962819
15234,8.0,301.41075,5638.0474,0.0,0.0,0.0,-0.15449018270322706,0.0,0.0,-0.36915010339977866,-0.6463770836824514,-0.6982984202091883,-1.271899007976659,-0.3491985604507147,-0.1297362793589739
15235,8.0,300.95133,5318.0198,0.0,0.0,0.0,-0.15450032384689935,0.0,0.0,-0.3363950308621047,-0.6332827715801433,-0.6468674460683465,-1.2581164761414287,-0.34761917712234164,-0.12558714178948588
15236,8.0,301.07385,4930.8852,0.0,0.0,0.0,-0.1545104649905716,0.0,0.0,-0.30544870094543974,-0.6039896098641334,-0.5894276657869815,-1.2896544934539886,-0.33825399015806973,-0.16281613908370185
15237,8.0,299.66725,5187.3354,0.0,0.0,0.0,-0.1545206061342439,0.0,0.0,-0.3262395392173357,-0.5955538974815934,-0.6550269971361313,-1.2985123258281888,-0.31328206654103274,-0.094351043622473
15238,8.0,300.31857,5454.0124,0.0,0.0,0.0,-0.1545307472779161,0.0,0.0,-0.3022134643036467,-0.6462170712266594,-0.7094530372475634,-1.2854018827842886,-0.31752886115515866,-0.13850967760234087
15239,8.0,300.17331,5537.3224,0.0,0.0,0.0,-0.1545408884215884,0.0,0.0,-0.3333212049612417,-0.6161356110653504,-0.7337509367655793,-1.2593037012835988,-0.3063688232287487,-0.10046249605112641
15240,8.0,299.89601,5534.4425,0.0,0.0,0.0,-0.15455102956526065,0.0,0.0,-0.3459625233413427,-0.6487079743449924,-0.6876618374169394,-1.2417873428298687,-0.3187455414777357,-0.12038172138825089
15241,8.0,300.01583999999997,5319.5629,0.0,0.0,0.0,-0.15456117070893294,0.0,0.0,-0.33942362527850367,-0.6205675771352515,-0.6570230795681293,-1.2596380738165989,-0.34347511593585467,-0.11980944786427189
15242,8.0,299.91741,5334.3757,0.0,0.0,0.0,-0.1545713118526052,0.0,0.0,-0.35623862214551466,-0.6095904815143964,-0.6556879097788584,-1.2663108323501486,-0.3480374264986197,-0.1084681800249759
15243,8.0,300.18935,5434.8554,0.0,0.0,0.0,-0.15458145299627743,0.0,0.0,-0.35152342227516065,-0.6007705548264374,-0.6997663561590624,-1.2725838637192488,-0.33991025890403065,-0.1307285247844009
15244,8.0,300.49546000000004,5213.0974,0.0,0.0,0.0,-0.1545915941399497,0.0,0.0,-0.2868618437610597,-0.5947865327833605,-0.7030030620135003,-1.2483205768246488,-0.3386654000961727,-0.12019173699450089
15245,8.0,300.52677,4842.2597,0.0,0.0,0.0,-0.15460173528362198,0.0,0.0,-0.26162834963070775,-0.5659409742990255,-0.6443567136455564,-1.2857173075404187,-0.34587442124514767,-0.14452494827850187
15246,8.0,300.67427999999995,5242.3377,0.0,0.0,0.0,-0.15461187642729424,0.0,0.0,-0.3190555048158267,-0.6254114293708024,-0.6490728254410003,-1.2775505117344186,-0.34273462263027366,-0.12633957118124486
15247,8.0,299.7782,5650.7535,0.0,0.0,0.0,-0.1546220175709665,0.0,0.0,-0.39051702501602964,-0.6427727706917333,-0.6843981689773403,-1.299057657032009,-0.3334104013675447,-0.14771941173627084
15248,8.0,299.25321,5536.1986,0.0,0.0,0.0,-0.15463215871463873,0.0,0.0,-0.37693786260837064,-0.6368959201117333,-0.6690323629333533,-1.2613451975850787,-0.3126751398636337,-0.13702065591788587
15249,8.0,299.72647,5480.5432,0.0,0.0,0.0,-0.15464229985831102,0.0,0.0,-0.32327101026686467,-0.6510072718694154,-0.6916700015000143,-1.272092437420749,-0.32559018775824966,-0.11405636578398688
15250,8.0,300.66249,5401.5454,0.0,0.0,0.0,-0.15465244100198328,0.0,0.0,-0.30632332829925873,-0.6100442858366834,-0.7255673007429173,-1.2485793609001887,-0.33041861832727865,-0.1032880908762409
15251,8.0,299.71848,5247.969,0.0,0.0,0.0,-0.15466258214565554,0.0,0.0,-0.3293005779019367,-0.6005609032482464,-0.6653900631963864,-1.2504381682086387,-0.33289003664618866,-0.1131269418647599
15252,8.0,300.06054,5403.115,0.0,0.0,0.0,-0.1546727232893278,0.0,0.0,-0.33693134414003467,-0.6190774104781834,-0.6864032997327313,-1.257050030411179,-0.3223539176013547,-0.1295561234911939
15253,8.0,299.1277,5440.4885,0.0,0.0,0.0,-0.15468286443300006,0.0,0.0,-0.37259827455008665,-0.6192421244144395,-0.6619322560376274,-1.2828062400031188,-0.34239693676944666,-0.14381970594389987
15254,8.0,299.53481,5123.3909,0.0,0.0,0.0,-0.15469300557667232,0.0,0.0,-0.3060031311351577,-0.6128189091155174,-0.6385608724110514,-1.2903184762445188,-0.33421704977215466,-0.14656446874228685
15255,8.0,299.55297,5016.1239,0.0,0.0,0.0,-0.15470314672034458,0.0,0.0,-0.2723467422360307,-0.5721917445634285,-0.6802379160542553,-1.2971516322688987,-0.3076937389270077,-0.14096298914196387
15256,8.0,300.01047,5605.4739,0.0,0.0,0.0,-0.15471328786401684,0.0,0.0,-0.3222657952401577,-0.6406106570983494,-0.7410476547107093,-1.2669139188096687,-0.2987448761638237,-0.11922255314134989
15257,8.0,299.51951,5580.2496,0.0,0.0,0.0,-0.15472342900768912,0.0,0.0,-0.3587536710137306,-0.6086267489467834,-0.7288761297394734,-1.2708482676229589,-0.32116070415109366,-0.10643052394137491
15258,8.0,300.4508,5229.94,0.0,0.0,0.0,-0.15473357015136135,0.0,0.0,-0.31967276664424565,-0.6077875752139634,-0.6623108265399893,-1.2689325156588886,-0.3253737778018917,-0.09148912276802341
15259,8.0,301.00025,5268.3846,0.0,0.0,0.0,-0.15474371129503361,0.0,0.0,-0.3542351733852897,-0.6105065406648044,-0.6367156629189434,-1.2649718223429987,-0.34482328572390863,-0.1097793661843799
15260,8.0,300.22147,5419.3151,0.0,0.0,0.0,-0.15475385243870587,0.0,0.0,-0.37630281824069667,-0.6071481333408555,-0.6638855083878984,-1.2735954926190887,-0.34896089250725865,-0.11185238469647088
15261,8.0,299.98633,5398.0066,0.0,0.0,0.0,-0.15476399358237816,0.0,0.0,-0.32546426103582166,-0.6251240817749434,-0.6902708854969324,-1.2713254070950486,-0.3331884590656407,-0.13264239210328488
15262,8.0,300.39732999999995,5346.1535,0.0,0.0,0.0,-0.15477413472605042,0.0,0.0,-0.33729531370845567,-0.6051005778037775,-0.6827012790348703,-1.2817152736204487,-0.35190180026000367,-0.12602080269978488
15263,8.0,298.94431000000003,5172.3909,0.0,0.0,0.0,-0.15478427586972265,0.0,0.0,-0.28889400802911874,-0.5981964334773914,-0.6851872374927154,-1.2746060069438188,-0.3206076722465137,-0.13027349442949288
15264,8.0,298.9738,5101.837,0.0,0.0,0.0,-0.1547944170133949,0.0,0.0,-0.32760027330662966,-0.5971460680262285,-0.6260847036647494,-1.2816830522672686,-0.32617110430558166,-0.17905419134377284
15265,8.0,299.66532,5430.4207,0.0,0.0,0.0,-0.1548045581570672,0.0,0.0,-0.36026011046740464,-0.5931607729979105,-0.6972914218623053,-1.2596345274412488,-0.32591421500772866,-0.12659116118107488
15266,8.0,299.57608,5446.8882,0.0,0.0,0.0,-0.15481469930073946,0.0,0.0,-0.3563084958724107,-0.6175232368122985,-0.6818862713169354,-1.2766944167249288,-0.32824168088493166,-0.13810095277700288
15267,8.0,300.12057999999996,5203.7029999999995,0.0,0.0,0.0,-0.15482484044441175,0.0,0.0,-0.28359738498638276,-0.6092126101546034,-0.6889858006601044,-1.279277697854879,-0.32516855412663764,-0.09426088462857501
15268,8.0,300.33496,5204.2325,0.0,0.0,0.0,-0.15483498158808395,0.0,0.0,-0.3089946304653957,-0.5886731491000164,-0.6842889507490614,-1.2747635673343687,-0.3229493134926157,-0.1132708740414649
15269,8.0,299.76117999999997,5645.1619,0.0,0.0,0.0,-0.15484512273175624,0.0,0.0,-0.33584430916775265,-0.6521175811964944,-0.7280263776756093,-1.2669791721161088,-0.29363142847416573,-0.08404051761965332
15270,8.0,300.60929,5706.5412,0.0,0.0,0.0,-0.1548552638754285,0.0,0.0,-0.37927793331681764,-0.6402252370253114,-0.7151428722566063,-1.2521986902573887,-0.3320195940152827,-0.11839508244718489
15271,8.0,300.62652,5397.4609,0.0,0.0,0.0,-0.1548654050191008,0.0,0.0,-0.3309596026881697,-0.6391929276909304,-0.6705407984897244,-1.2583930934187288,-0.3171095377337747,-0.1206607907307929
15272,8.0,299.72117000000003,5260.1283,0.0,0.0,0.0,-0.15487554616277302,0.0,0.0,-0.32653602632909673,-0.5979741264054513,-0.6744375151943003,-1.2538804827733687,-0.3312761622844117,-0.15522562927207684
15273,8.0,299.74508,5377.9599,0.0,0.0,0.0,-0.15488568730644528,0.0,0.0,-0.35037907787722267,-0.5627481219089154,-0.7216383221551573,-1.2553310516165288,-0.3285564774259997,-0.12687598578418488
15274,8.0,299.13385,5335.548000000001,0.0,0.0,0.0,-0.15489582845011754,0.0,0.0,-0.3462643806786337,-0.6001449032871905,-0.6754640692681133,-1.2734865682333387,-0.3304531904206907,-0.13919470559744787
15275,8.0,298.85244,5361.2687,0.0,0.0,0.0,-0.15490596959378983,0.0,0.0,-0.3277997214563137,-0.5873800697198994,-0.7145120227443463,-1.2636857039910687,-0.3146591342219387,-0.11834600061234088
15276,8.0,298.25887,5339.7238,0.0,0.0,0.0,-0.15491611073746206,0.0,0.0,-0.3608847284915497,-0.5950245249668484,-0.6672334691033164,-1.266717753590309,-0.32576591572309266,-0.1116540713868989
15277,8.0,298.31028,5253.682,0.0,0.0,0.0,-0.15492625188113435,0.0,0.0,-0.3067016252240937,-0.6228068699887523,-0.6674796584801134,-1.2672355243914089,-0.3181876561051767,-0.12319930647132488
15278,8.0,297.07899,5413.2508,0.0,0.0,0.0,-0.15493639302480658,0.0,0.0,-0.3402174256718457,-0.6114693309098245,-0.6938063278783533,-1.2726706992528187,-0.3363348843361687,-0.07476197975093293
15279,8.0,297.95401,5725.2867,0.0,0.0,0.0,-0.15494653416847887,0.0,0.0,-0.3341631246018327,-0.7004852064425073,-0.7056958653467593,-1.2822834029515189,-0.3437257636130917,-0.11552878029930289
15280,8.0,298.15449,5437.8657,0.0,0.0,0.0,-0.1549566753121511,0.0,0.0,-0.3238738636788617,-0.6336054613394904,-0.6954960744076184,-1.271333614420859,-0.3257402298330577,-0.1026846903091899
15281,8.0,298.99687,5276.6668,0.0,0.0,0.0,-0.1549668164558234,0.0,0.0,-0.3033369357495247,-0.6214898677737744,-0.6791481554392044,-1.2741097170448386,-0.3185700060304117,-0.14462676978105085
15282,8.0,300.26082,5545.4415,0.0,0.0,0.0,-0.15497695759949565,0.0,0.0,-0.34501215554254866,-0.6507741432864074,-0.6898894474967873,-1.2569847771047387,-0.3219099012750337,-0.13536975739745488
15283,8.0,300.20544,5266.2733,0.0,0.0,0.0,-0.15498709874316788,0.0,0.0,-0.3210241889651207,-0.6059422846618474,-0.6738491107287294,-1.2763921642200988,-0.3282283363811147,-0.17908931059223882
15284,8.0,300.34346,5059.518,0.0,0.0,0.0,-0.15499723988684014,0.0,0.0,-0.28743233396486273,-0.6088664940529445,-0.6416682875527294,-1.2590960863381089,-0.3228507039928837,-0.15883135068043386
15285,8.0,300.87206000000003,5149.0607,0.0,0.0,0.0,-0.15500738103051243,0.0,0.0,-0.3399749346579137,-0.5701979115466524,-0.6550130244172524,-1.2534038499263287,-0.33603438475401165,-0.14868645763171087
15286,8.0,300.00577999999996,5154.9998,0.0,0.0,0.0,-0.15501752217418469,0.0,0.0,-0.32956077039511567,-0.5726023540339524,-0.6648281146909264,-1.2776726083714687,-0.3342694651998277,-0.1068441934272009
15287,8.0,300.03957,5258.4118,0.0,0.0,0.0,-0.15502766331785692,0.0,0.0,-0.32131753500157173,-0.6395516384913325,-0.6375566908994464,-1.2806022183855987,-0.3308205341119447,-0.14124635466492985
15288,8.0,300.8668,5812.048000000001,0.0,0.0,0.0,-0.15503780446152918,0.0,0.0,-0.3973499581253876,-0.6378667150325433,-0.7315007818710063,-1.2983946874915788,-0.3360851891140257,-0.1071719494370479
15289,8.0,299.79412,5840.2691,0.0,0.0,0.0,-0.15504794560520146,0.0,0.0,-0.38583512054396163,-0.6549249527185603,-0.7345358914855483,-1.2890389440182386,-0.3032494618683917,-0.11708269052016189
15290,8.0,300.27914,5587.1868,0.0,0.0,0.0,-0.15505808674887372,0.0,0.0,-0.3406719392692027,-0.6508971214510444,-0.7067962042928543,-1.2851393496833787,-0.3289923978840217,-0.1053441273166559
15291,8.0,300.28344,5466.4636,0.0,0.0,0.0,-0.155068227892546,0.0,0.0,-0.3193129514012347,-0.6240380701852625,-0.7183174152174093,-1.2702810502169788,-0.3408265916319657,-0.0947169545780856
15292,8.0,299.47218,5368.1751,0.0,0.0,0.0,-0.15507836903621824,0.0,0.0,-0.32501698204417867,-0.6626130283823144,-0.6441611665087573,-1.2610451742304687,-0.35146443085433865,-0.11211870735275489
15293,8.0,299.43322,5140.1444,0.0,0.0,0.0,-0.1550885101798905,0.0,0.0,-0.3233003641222617,-0.5833002384572514,-0.6558749456148173,-1.2386962207497987,-0.3480343462183157,-0.13729659431761887
15294,8.0,299.76083,5181.023,0.0,0.0,0.0,-0.15509865132356276,0.0,0.0,-0.33740111728389766,-0.5970449659312504,-0.6404555285080394,-1.2618365225585688,-0.3421128822364127,-0.14878576627401185
15295,8.0,299.15122,5139.9462,0.0,0.0,0.0,-0.15510879246723505,0.0,0.0,-0.2834578097851077,-0.6355311431545404,-0.6434263372712353,-1.2742994987885687,-0.3411305970594687,-0.18270199302878284
15296,8.0,300.08951,5105.1344,0.0,0.0,0.0,-0.15511893361090728,0.0,0.0,-0.3071637989922067,-0.5810594662586044,-0.6636101272757204,-1.3183084970069185,-0.33991363302686367,-0.14547519448728385
15297,8.0,300.72217,5452.1141,0.0,0.0,0.0,-0.15512907475457954,0.0,0.0,-0.2998348900913997,-0.6645153851800624,-0.6929562819719604,-1.2984645004234687,-0.3018713100098787,-0.14607186707367084
15298,8.0,300.46992,5718.1448,0.0,0.0,0.0,-0.1551392158982518,0.0,0.0,-0.3787819068628636,-0.6448138920906763,-0.7145774280383014,-1.2918893178745487,-0.3140165006110157,-0.11807787437087888
15299,8.0,301.06379,5710.6782,0.0,0.0,0.0,-0.1551493570419241,0.0,0.0,-0.33897451230417963,-0.6714932637162253,-0.7254357910124384,-1.2926444931740788,-0.3464213939141297,-0.12523387214212087
15300,8.0,300.85047000000003,5402.399,0.0,0.0,0.0,-0.15515949818559632,0.0,0.0,-0.3199774712143177,-0.6777296762267113,-0.6444872405234384,-1.2748263888405686,-0.3506175158907547,-0.13615880564782787
